<?xml version="1.0"?>
<VTKFile type="UnstructuredGrid">
  <UnstructuredGrid>
  <Piece NumberOfPoints="193"  NumberOfCells="36">
    <Points>
      <DataArray type="Float64" NumberOfComponents="3" format="ascii">
0 0 0
179.585 0 0
174.74 10 0
0 10 0
18.7427 -5.72671 0
36.8172 -17.501 0
55.7019 -30.1197 0
77.1741 -39.4218 0
100.765 -41.9107 0
123.79 -36.4034 0
144.049 -24.9621 0
161.881 -11.2571 0
6.24735 -0.868653 0
12.5485 -2.84431 0
24.8214 -9.27248 0
30.8185 -13.2601 0
42.9066 -21.8279 0
49.1761 -26.0839 0
62.5359 -33.7848 0
69.6985 -36.931 0
84.9078 -41.135 0
92.8086 -41.9808 0
108.654 -40.92 0
116.359 -39.0561 0
130.889 -33.0784 0
137.635 -29.2176 0
150.177 -20.4567 0
156.102 -15.8456 0
167.712 -6.90761 0
173.501 -2.86036 0
178.194 3.33333 0
176.493 6.66667 0
155.852 -3.36765 0
138.348 -16.7572 0
120.002 -27.1655 0
100.1 -31.9515 0
79.8253 -29.7968 0
60.6707 -21.455 0
42.5588 -9.32656 0
23.3033 3.14806 0
168.306 5.51945 0
161.919 1.24134 0
149.974 -7.95413 0
144.176 -12.4711 0
132.409 -20.7058 0
126.302 -24.2085 0
113.512 -29.4874 0
106.86 -31.1012 0
93.2948 -32.0117 0
86.514 -31.283 0
73.275 -27.609 0
66.8901 -24.7967 0
54.5857 -17.6863 0
48.5767 -13.6026 0
36.4254 -4.99389 0
30.0497 -0.766738 0
16.0628 6.48758 0
8.27997 8.87428 0
0 6.66667 0
0 3.33333 0
10.8502 3.12209 0
167.815 -0.676574 0
30.5642 -7.01975 0
150.121 -14.1996 0
48.7851 -19.8365 0
131.862 -26.893 0
68.0499 -30.8909 0
111.384 -35.2917 0
89.3637 -36.7631 0
100.547 -38.642 0
100.326 -35.324 0
96.7136 -33.7786 0
93.129 -35.3864 0
92.9687 -38.7078 0
96.7729 -40.4302 0
96.7436 -37.1297 0
104.523 -39.909 0
108.064 -37.6951 0
107.47 -34.4231 0
103.701 -33.3081 0
104.116 -36.6333 0
78.0463 -36.2576 0
78.9248 -33.0494 0
75.9949 -30.3919 0
72.063 -30.7525 0
70.8775 -33.8614 0
73.9148 -36.7123 0
74.9476 -33.5722 0
126.69 -33.3302 0
129.375 -30.154 0
127.853 -27.1944 0
123.894 -27.2912 0
121.286 -30.2827 0
122.543 -33.3631 0
125.301 -30.3279 0
57.3466 -27.256 0
58.9945 -24.3636 0
56.7313 -21.0463 0
52.7663 -20.4967 0
50.9722 -23.3016 0
53.268 -26.7329 0
54.9931 -23.8986 0
146.166 -21.3951 0
148.181 -17.8057 0
146.19 -15.1375 0
142.264 -16.0024 0
140.266 -19.5062 0
142.157 -22.2464 0
144.22 -18.7045 0
22.6409 -5.97247 0
26.5872 -6.41854 0
28.316 -3.57491 0
25.9106 -0.179279 0
21.7978 0.232679 0
20.2965 -2.73393 0
24.2857 -3.06029 0
3.32454 1.42201 0
6.9618 2.46044 0
7.61333 5.70866 0
3.99866 8.01928 0
3.66211 4.75898 0
163.81 -7.74024 0
165.744 -4.19624 0
163.82 -1.45901 0
159.827 -2.33474 0
157.875 -5.97179 0
159.875 -8.61567 0
161.813 -5.03086 0
19.0757 3.43214 0
14.9091 3.434 0
13.7581 0.319596 0
16.3751 -2.64456 0
17.7372 0.41638 0
172.435 6.29735 0
170.08 2.78555 0
171.792 -0.000392679 0
175.724 0.314801 0
174.144 3.34598 0
38.7368 -14.7781 0
40.64 -12.0459 0
38.5592 -8.51684 0
34.5582 -7.73347 0
32.7019 -10.4969 0
34.7721 -13.9941 0
36.6678 -11.2516 0
153.92 -6.96816 0
152.021 -10.5831 0
154.054 -13.2208 0
157.977 -12.2293 0
155.95 -9.59456 0
40.804 -18.3059 0
44.7953 -19.0953 0
46.6758 -16.3472 0
44.6114 -12.8416 0
42.7065 -15.5746 0
136.326 -20.1818 0
134.172 -23.5644 0
135.906 -26.4054 0
139.972 -25.7543 0
138.156 -22.9778 0
59.8526 -30.5566 0
63.9739 -30.8197 0
65.4179 -27.8214 0
62.9646 -24.6706 0
61.4007 -27.6265 0
117.35 -30.0053 0
114.478 -32.7213 0
115.423 -35.9103 0
119.565 -36.2803 0
118.466 -33.1631 0
81.3655 -38.7866 0
85.4355 -37.8985 0
85.9681 -34.6159 0
82.7874 -32.2867 0
82.0708 -35.5594 0
9.90471 -0.0980249 0
169.646 -3.41892 0
166.003 2.04291 0
11.7682 6.27219 0
28.7492 -9.82292 0
46.9412 -22.6012 0
66.7347 -33.9274 0
89.0172 -40.0454 0
112.152 -38.503 0
133.49 -29.7772 0
152.144 -16.8434 0
148.095 -11.5509 0
130.215 -23.9818 0
110.602 -32.0336 0
89.7163 -33.4305 0
69.3825 -27.8208 0
50.6382 -17.0617 0
32.3668 -4.23336 0
      </DataArray>
    </Points>
    <Cells>
      <DataArray type="Int32" Name="connectivity" format="ascii">
8 35 68 69 70 71 72 73 74 75 
8 67 35 76 77 78 79 70 69 80 
7 36 66 81 82 83 84 85 86 87 
9 65 34 88 89 90 91 92 93 94 
6 37 64 95 96 97 98 99 100 101 
10 63 33 102 103 104 105 106 107 108 
4 62 39 109 110 111 112 113 114 115 
0 60 3 116 117 118 119 58 59 120 
11 61 32 121 122 123 124 125 126 127 
4 39 60 114 113 128 129 130 131 132 
1 2 61 30 31 133 134 135 136 137 
5 38 62 138 139 140 141 142 143 144 
11 32 63 126 125 145 146 147 148 149 
5 64 38 150 151 152 153 139 138 154 
10 33 65 107 106 155 156 157 158 159 
6 66 37 160 161 162 163 96 95 164 
9 34 67 93 92 165 166 167 168 169 
7 68 36 170 171 172 173 82 81 174 
0 4 60 12 13 131 130 117 116 175 
1 61 11 136 135 122 121 28 29 176 
2 32 61 40 41 124 123 134 133 177 
3 60 39 119 118 129 128 56 57 178 
4 5 62 14 15 143 142 110 109 179 
5 6 64 16 17 100 99 151 150 180 
6 7 66 18 19 86 85 161 160 181 
7 8 68 20 21 74 73 171 170 182 
8 9 67 22 23 168 167 77 76 183 
9 10 65 24 25 158 157 89 88 184 
10 11 63 26 27 148 147 103 102 185 
32 33 63 42 43 105 104 146 145 186 
33 34 65 44 45 91 90 156 155 187 
34 35 67 46 47 79 78 166 165 188 
35 36 68 48 49 173 172 72 71 189 
36 37 66 50 51 163 162 84 83 190 
37 38 64 52 53 153 152 98 97 191 
38 39 62 54 55 112 111 141 140 192 
      </DataArray>
      <DataArray type="Int32" Name="offsets" format="ascii">
10
20
30
40
50
60
70
80
90
100
110
120
130
140
150
160
170
180
190
200
210
220
230
240
250
260
270
280
290
300
310
320
330
340
350
360
      </DataArray>
      <DataArray type="UInt8" Name="types" format="ascii">
69
69
69
69
69
69
69
69
69
69
69
69
69
69
69
69
69
69
69
69
69
69
69
69
69
69
69
69
69
69
69
69
69
69
69
69
      </DataArray>
    </Cells>
    <PointData>
      <DataArray type="Float64" NumberOfComponents="2" Name="Displacement" format="ascii">
0 0
-20.4154 0
-25.2596 0
0 0
-3.47952 -5.72671
-7.62721 -17.501
-10.9648 -30.1197
-11.7148 -39.4218
-10.3458 -41.9107
-9.54319 -36.4034
-11.507 -24.9621
-15.8968 -11.2571
-1.16005 -0.868653
-2.26631 -2.84431
-4.80828 -9.27248
-6.21853 -13.2601
-8.94523 -21.8279
-10.0832 -26.0839
-11.5382 -33.7848
-11.783 -36.931
-11.3885 -41.135
-10.8951 -41.9808
-9.86456 -40.92
-9.56706 -39.0561
-9.85221 -33.0784
-10.5134 -29.2176
-12.7856 -20.4567
-14.2681 -15.8456
-17.4734 -6.90761
-19.0911 -2.86036
-21.8064 0
-23.5065 0
-21.9258 -13.3676
-17.2073 -26.7572
-13.3314 -37.1655
-11.0115 -41.9515
-9.06362 -39.7968
-5.99595 -31.455
-1.88561 -19.3266
1.08103 -6.85194
-24.2868 -4.48055
-23.2662 -8.75866
-20.3962 -17.9541
-18.787 -22.4711
-15.7395 -30.7058
-14.439 -34.2085
-12.4135 -39.4874
-11.6583 -41.1012
-10.4089 -42.0117
-9.7823 -41.283
-8.20644 -37.609
-7.18402 -34.7967
-4.67358 -27.6863
-3.27512 -23.6026
-0.611653 -14.9939
0.420117 -10.7667
1.24799 -3.51242
0.872567 -1.12572
0 0
0 0
-0.260955 -1.87791
-21.074 -5.67657
-2.76915 -12.0197
-16.5452 -19.1996
-6.77046 -24.8365
-12.5825 -31.893
-9.7279 -35.8909
-10.8385 -40.2917
-10.6363 -41.7631
-10.5643 -41.9753
-10.7853 -41.9907
-10.6938 -42.112
-10.5747 -42.053
-10.7351 -42.0411
-10.6345 -42.0969
-10.6638 -42.1297
-10.2914 -41.5756
-10.4542 -41.0284
-11.0487 -41.0898
-11.1134 -41.6414
-10.6992 -41.6333
-10.8426 -39.5909
-9.96408 -39.716
-9.19025 -38.7253
-9.41848 -37.4192
-10.604 -37.1948
-11.2703 -38.379
-10.2376 -38.5722
-10.347 -34.9969
-11.3661 -33.4873
-12.8879 -33.861
-13.1432 -35.6245
-12.0473 -36.9493
-10.7907 -36.6965
-11.7362 -35.3279
-9.32009 -30.5893
-7.67215 -31.0303
-6.23166 -29.3797
-6.49291 -27.1634
-8.28707 -26.635
-9.69501 -28.3996
-7.96991 -28.8986
-13.0932 -23.0617
-14.7819 -21.1391
-16.7731 -21.8042
-16.9955 -24.3358
-15.2897 -26.1728
-13.3982 -25.5797
-15.0389 -23.7045
-3.285 -7.63914
-3.04247 -9.75187
-1.3136 -10.2416
-0.0153014 -8.51261
-0.424444 -6.43399
-1.92576 -6.06726
-1.64022 -8.06029
-0.379162 -0.244661
-0.445605 -0.872898
0.205918 -0.958003
0.294956 -0.314058
-0.0415966 -0.241021
-17.6714 -9.40691
-19.4415 -7.52958
-21.3652 -8.12567
-21.6548 -10.6681
-19.9031 -12.6385
-17.9024 -11.949
-19.6683 -10.0309
0.557227 -4.9012
0.0943212 -3.23267
-1.05671 -3.01374
-2.14338 -4.31122
-0.781364 -4.58362
-23.8615 -2.03598
-22.5125 -3.88112
-20.801 -3.33373
-20.5723 -1.35187
-22.1525 -1.65402
-5.70767 -18.1115
-3.80445 -18.7126
-2.18151 -16.8502
-2.47884 -14.4001
-4.33512 -13.8302
-5.96861 -15.6607
-4.07296 -16.2516
-20.1544 -15.3015
-18.3492 -17.2498
-16.3165 -16.5541
-16.0967 -13.896
-18.1243 -14.5946
-7.34416 -19.9725
-7.05654 -22.4287
-5.17609 -23.0139
-3.53674 -21.1749
-5.44163 -20.5746
-15.5259 -28.5151
-13.9764 -30.2311
-12.2421 -29.7387
-11.8798 -27.4209
-13.6956 -27.9778
-10.5177 -32.2233
-10.1002 -34.153
-8.65614 -34.488
-7.40579 -33.0039
-8.96963 -32.6265
-12.2798 -38.3387
-11.4476 -39.3879
-10.5031 -39.2437
-10.0643 -37.947
-11.164 -38.1631
-11.227 -40.4532
-10.8608 -41.2318
-10.3282 -41.2825
-9.80514 -40.6201
-10.5218 -40.5594
-1.2064 -1.76469
-19.2426 -5.08558
-22.8856 -6.29043
0.657079 -2.06115
-4.58409 -11.4896
-8.61436 -24.2679
-11.0431 -35.594
-10.9828 -41.7121
-10.0702 -40.1697
-10.9542 -31.4439
-14.5231 -18.5101
-18.5716 -19.8842
-14.2294 -32.3151
-11.6198 -40.3669
-10.2837 -41.7638
-8.3953 -36.1541
-4.91732 -25.395
-0.966508 -12.5667
      </DataArray> 
      <DataArray type="Float64" NumberOfComponents="4" Name="CauchyStress" format="ascii">
-251.404 -53.7954 0 0.60382
-71.9738 87.6349 0 -111.143
88.1875 336.56 0 14.952
373.25 52.931 0 -30.4211
-90.2096 -26.2793 0 45.789
-0.0355537 -0.276713 0 -0.517337
67.4398 22.895 0 -39.2556
142.332 11.6767 0 -39.5876
172.064 1.62234 0 11.5437
120.068 21.082 0 49.6446
45.9326 23.3741 0 33.3094
-8.06166 -9.96503 0 -12.6508
-192.127 -15.8545 0 43.3841
-128.369 -14.3983 0 54.7291
-52.4858 -21.1466 0 31.9085
-21.638 -10.2169 0 16.1273
22.4724 11.5259 0 -15.5316
43.5494 18.0173 0 -28.6794
92.9589 23.0892 0 -45.2774
116.219 16.5033 0 -45.4239
159.359 4.47625 0 -26.3162
168.75 -0.197886 0 -8.32124
158.998 4.59346 0 29.3813
142.459 13.2336 0 42.7349
92.9 24.5363 0 49.0513
70.5954 27.9014 0 43.434
28.7741 15.4435 0 20.3263
6.91979 4.98474 0 5.42463
-41.2497 -27.8246 0 -19.2221
-95.9528 -44.9585 0 -49.5741
51.8177 160.672 0 -149.871
99.4893 271.545 0 -128.451
24.7844 32.302 0 21.4243
-38.8709 -22.2042 0 -27.3823
-98.635 -18.325 0 -41.0781
-138.804 -1.2496 0 -9.41716
-116.39 -10.1421 0 32.6624
-56.4091 -20.9849 0 32.7061
5.54052 0.378232 0 -4.55565
111.888 31.1852 0 -61.3234
71.5392 28.8522 0 45.9904
38.7689 -9.59054 0 36.2707
0.306719 -1.70404 0 -0.365786
-19.114 -11.2462 0 -14.3747
-57.0515 -22.9366 0 -36.0611
-78.9322 -24.2191 0 -40.8501
-116.564 -11.2337 0 -35.0229
-131.366 -6.78426 0 -24.3371
-138.799 -2.31554 0 7.12971
-130.45 -4.5028 0 21.3447
-98.2795 -17.486 0 37.8859
-76.2562 -18.9619 0 37.8561
-35.8768 -17.4042 0 23.1304
-14.4044 -8.4296 0 10.5379
33.7354 15.4152 0 -22.4899
65.2393 23.4599 0 -41.5464
181.934 26.0954 0 -68.2912
260.432 8.03656 0 -57.4091
89.0112 24.8591 0 -6.37551
-112.577 -37.8835 0 -0.135824
-15.9094 -1.48826 0 -14.5264
-12.3637 -5.58453 0 25.5908
-9.31334 13.1529 0 -7.91512
-6.17466 12.1507 0 4.06832
-6.44975 9.26936 0 -5.60248
-6.54311 3.50577 0 4.84389
-6.33658 0.853122 0 -5.00521
-6.20179 -4.82162 0 2.95926
-5.92789 -6.35885 0 -1.86759
48.2141 -5.44075 0 4.25943
-55.0758 -6.39384 0 -2.77996
-99.0756 -4.90057 0 -1.37662
-54.3854 -6.62148 0 1.16222
47.0931 -5.27236 0 -3.78324
106.206 -3.08448 0 0.682762
-6.034 -6.79445 0 -0.217638
103.093 -1.03739 0 14.2614
43.977 -2.69006 0 11.2995
-51.9274 -6.97368 0 -6.22088
-96.5478 -5.81969 0 -10.4529
-6.19937 -6.3676 0 1.51857
38.8341 0.873339 0 -16.1137
-46.9899 -6.51414 0 8.31229
-77.022 -9.82809 0 21.8642
-40.1002 -5.89614 0 8.99891
30.9017 5.65811 0 -18.3469
79.975 8.91867 0 -30.0615
-6.5089 -2.32751 0 -4.37489
65.2135 16.1026 0 34.5129
23.4957 10.484 0 19.4198
-33.4848 -5.85896 0 -10.1247
-64.2689 -13.4759 0 -25.7279
-40.8401 -7.2481 0 -10.9206
31.5636 6.11637 0 19.6796
-6.80102 0.25423 0 4.59702
15.3146 12.3238 0 -17.377
-25.4932 -2.55654 0 6.96952
-34.8896 -9.00627 0 16.2072
-18.3619 1.51084 0 3.21127
7.87827 13.4991 0 -13.6911
32.1473 17.9813 0 -24.9668
-6.55111 6.43097 0 -5.5799
18.5349 17.826 0 20.2703
1.97115 14.0986 0 10.511
-13.0571 4.25603 0 -0.929381
-23.8696 -8.20402 0 -11.7197
-19.4711 -0.512802 0 -5.687
8.66185 14.6321 0 14.7326
-6.73159 8.36406 0 5.48553
-53.1893 -9.18972 0 22.9748
-27.5569 3.85188 0 4.31631
11.9887 18.9603 0 -20.7282
50.9828 24.1656 0 -38.4071
21.3344 19.7712 0 -30.3206
-44.0294 0.837682 0 6.53714
-12.1874 11.079 0 -10.6357
-170.095 -11.3257 0 0.516673
-88.4218 6.8051 0 -4.34603
62.8437 -10.6186 0 -39.6964
189.819 5.67165 0 -47.8094
-22.4418 -11.6799 0 -17.3059
-13.0149 12.2038 0 -24.5817
-23.197 12.5054 0 -8.80993
11.3773 26.3275 0 10.0555
25.173 50.0411 0 9.84878
-1.07511 14.1568 0 16.874
-11.5936 3.74146 0 6.62145
-6.07831 22.6132 0 -4.39748
84.9109 24.6119 0 -49.6483
40.9427 12.2266 0 -32.9471
-62.2464 -6.98195 0 6.17346
-86.7993 -15.5265 0 27.2359
-13.5363 8.9762 0 -13.0879
49.9744 92.4768 0 52.4125
16.8162 -4.87379 0 52.0492
-37.5417 -1.263 0 17.545
-68.9965 4.87026 0 -28.2052
27.2046 54.918 0 -23.1728
-7.02861 10.2383 0 -5.25954
-5.18545 10.7906 0 -6.50986
7.29881 11.2124 0 -12.5237
2.23913 15.654 0 -13.7337
-16.6744 7.70016 0 -0.417308
-13.4072 3.19464 0 2.11718
-7.56628 12.6146 0 -6.89974
0.726947 2.69364 0 8.63011
-7.50386 9.06632 0 3.96773
-5.23218 11.2051 0 5.13779
-12.9382 2.81449 0 1.9098
-7.15371 12.4386 0 7.84668
2.97238 9.42837 0 -7.82858
0.764802 12.3856 0 -9.53077
-11.482 5.69908 0 -1.31591
-7.45353 3.19718 0 -1.03407
-6.75114 11.2314 0 -6.06662
-36.6872 -12.2295 0 -18.9346
-26.1976 -4.28432 0 -8.23784
16.1598 12.8389 0 17.7212
34.1649 19.8695 0 27.2921
-6.26059 6.70363 0 4.76441
47.7246 16.6732 0 -30.1449
23.2847 8.99308 0 -18.5369
-32.7342 -5.35867 0 8.62165
-49.2214 -12.608 0 21.3192
-6.05568 4.21026 0 -5.25023
-77.6776 -12.454 0 -24.3662
-46.8995 -7.9247 0 -9.44864
38.5952 0.869225 0 16.0306
80.525 9.53845 0 31.8486
-6.21458 -1.97152 0 3.84919
93.3466 2.55298 0 -22.9039
44.0406 -3.31196 0 -10.1014
-51.5359 -7.06044 0 5.56329
-88.4664 -8.29282 0 17.294
-5.97755 -4.21424 0 -3.19489
-122.244 -9.9427 0 27.751
-56.2608 -19.7351 0 -9.23971
32.2706 -5.38509 0 36.6024
127.52 10.029 0 -54.0688
-30.2304 -4.36679 0 12.7221
17.2817 15.2775 0 -17.5316
63.9439 14.0347 0 -32.8947
103.223 -2.19591 0 -12.6354
94.2513 3.27356 0 25.5944
48.8152 19.8384 0 33.1854
8.01147 13.1033 0 10.8149
-10.6161 2.12406 0 -2.72596
-50.0533 -14.7052 0 -24.3683
-89.2358 -8.62815 0 -19.4329
-96.7021 -5.39549 0 9.16291
-63.322 -12.3368 0 23.9756
-20.9856 -4.15642 0 8.95965
25.4373 20.5555 0 -25.1634
      </DataArray> 
    </PointData>
    <CellData>
      <DataArray type="Float64" NumberOfComponents="1" Name="Process" format="ascii">
1
1
3
1
3
0
2
2
0
2
0
2
0
2
0
3
1
3
2
0
0
2
2
3
3
1
1
1
0
0
1
1
3
3
3
2
      </DataArray> 
    </CellData>
  </Piece>
  </UnstructuredGrid>
</VTKFile>
