<?xml version="1.0"?>
<VTKFile type="UnstructuredGrid">
  <UnstructuredGrid>
  <Piece NumberOfPoints="400"  NumberOfCells="25">
    <Points>
      <DataArray type="Float64" NumberOfComponents="3" format="ascii">
0 15 0
8 15 0
8 25 0
0 25 0
2.66667 15 0
5.33333 15 0
8 18.3333 0
8 21.6667 0
2.66667 25 0
5.33333 25 0
0 18.3333 0
0 21.6667 0
2.66667 18.3333 0
5.33333 18.3333 0
2.66667 21.6667 0
5.33333 21.6667 0
8 15 0
16 15 0
16 25 0
8 25 0
10.6667 15 0
13.3333 15 0
16 18.3333 0
16 21.6667 0
10.6667 25 0
13.3333 25 0
8 18.3333 0
8 21.6667 0
10.6667 18.3333 0
13.3333 18.3333 0
10.6667 21.6667 0
13.3333 21.6667 0
16 15 0
24 15 0
24 25 0
16 25 0
18.6667 15 0
21.3333 15 0
24 18.3333 0
24 21.6667 0
18.6667 25 0
21.3333 25 0
16 18.3333 0
16 21.6667 0
18.6667 18.3333 0
21.3333 18.3333 0
18.6667 21.6667 0
21.3333 21.6667 0
24 15 0
32 15 0
32 25 0
24 25 0
26.6667 15 0
29.3333 15 0
32 18.3333 0
32 21.6667 0
26.6667 25 0
29.3333 25 0
24 18.3333 0
24 21.6667 0
26.6667 18.3333 0
29.3333 18.3333 0
26.6667 21.6667 0
29.3333 21.6667 0
32 15 0
40 15 0
40 25 0
32 25 0
34.6667 15 0
37.3333 15 0
40 18.3333 0
40 21.6667 0
34.6667 25 0
37.3333 25 0
32 18.3333 0
32 21.6667 0
34.6667 18.3333 0
37.3333 18.3333 0
34.6667 21.6667 0
37.3333 21.6667 0
40 15 0
48 15 0
48 25 0
40 25 0
42.6667 15 0
45.3333 15 0
48 18.3333 0
48 21.6667 0
42.6667 25 0
45.3333 25 0
40 18.3333 0
40 21.6667 0
42.6667 18.3333 0
45.3333 18.3333 0
42.6667 21.6667 0
45.3333 21.6667 0
48 15 0
56 15 0
56 25 0
48 25 0
50.6667 15 0
53.3333 15 0
56 18.3333 0
56 21.6667 0
50.6667 25 0
53.3333 25 0
48 18.3333 0
48 21.6667 0
50.6667 18.3333 0
53.3333 18.3333 0
50.6667 21.6667 0
53.3333 21.6667 0
56 15 0
64 15 0
64 25 0
56 25 0
58.6667 15 0
61.3333 15 0
64 18.3333 0
64 21.6667 0
58.6667 25 0
61.3333 25 0
56 18.3333 0
56 21.6667 0
58.6667 18.3333 0
61.3333 18.3333 0
58.6667 21.6667 0
61.3333 21.6667 0
64 15 0
72 15 0
72 25 0
64 25 0
66.6667 15 0
69.3333 15 0
72 18.3333 0
72 21.6667 0
66.6667 25 0
69.3333 25 0
64 18.3333 0
64 21.6667 0
66.6667 18.3333 0
69.3333 18.3333 0
66.6667 21.6667 0
69.3333 21.6667 0
72 15 0
80 15 0
80 25 0
72 25 0
74.6667 15 0
77.3333 15 0
80 18.3333 0
80 21.6667 0
74.6667 25 0
77.3333 25 0
72 18.3333 0
72 21.6667 0
74.6667 18.3333 0
77.3333 18.3333 0
74.6667 21.6667 0
77.3333 21.6667 0
80 15 0
88 15 0
88 25 0
80 25 0
82.6667 15 0
85.3333 15 0
88 18.3333 0
88 21.6667 0
82.6667 25 0
85.3333 25 0
80 18.3333 0
80 21.6667 0
82.6667 18.3333 0
85.3333 18.3333 0
82.6667 21.6667 0
85.3333 21.6667 0
88 15 0
96 15 0
96 25 0
88 25 0
90.6667 15 0
93.3333 15 0
96 18.3333 0
96 21.6667 0
90.6667 25 0
93.3333 25 0
88 18.3333 0
88 21.6667 0
90.6667 18.3333 0
93.3333 18.3333 0
90.6667 21.6667 0
93.3333 21.6667 0
96 15 0
104 15 0
104 25 0
96 25 0
98.6667 15 0
101.333 15 0
104 18.3333 0
104 21.6667 0
98.6667 25 0
101.333 25 0
96 18.3333 0
96 21.6667 0
98.6667 18.3333 0
101.333 18.3333 0
98.6667 21.6667 0
101.333 21.6667 0
104 15 0
112 15 0
112 25 0
104 25 0
106.667 15 0
109.333 15 0
112 18.3333 0
112 21.6667 0
106.667 25 0
109.333 25 0
104 18.3333 0
104 21.6667 0
106.667 18.3333 0
109.333 18.3333 0
106.667 21.6667 0
109.333 21.6667 0
112 15 0
120 15 0
120 25 0
112 25 0
114.667 15 0
117.333 15 0
120 18.3333 0
120 21.6667 0
114.667 25 0
117.333 25 0
112 18.3333 0
112 21.6667 0
114.667 18.3333 0
117.333 18.3333 0
114.667 21.6667 0
117.333 21.6667 0
120 15 0
128 15 0
128 25 0
120 25 0
122.667 15 0
125.333 15 0
128 18.3333 0
128 21.6667 0
122.667 25 0
125.333 25 0
120 18.3333 0
120 21.6667 0
122.667 18.3333 0
125.333 18.3333 0
122.667 21.6667 0
125.333 21.6667 0
128 15 0
136 15 0
136 25 0
128 25 0
130.667 15 0
133.333 15 0
136 18.3333 0
136 21.6667 0
130.667 25 0
133.333 25 0
128 18.3333 0
128 21.6667 0
130.667 18.3333 0
133.333 18.3333 0
130.667 21.6667 0
133.333 21.6667 0
136 15 0
144 15 0
144 25 0
136 25 0
138.667 15 0
141.333 15 0
144 18.3333 0
144 21.6667 0
138.667 25 0
141.333 25 0
136 18.3333 0
136 21.6667 0
138.667 18.3333 0
141.333 18.3333 0
138.667 21.6667 0
141.333 21.6667 0
144 15 0
152 15 0
152 25 0
144 25 0
146.667 15 0
149.333 15 0
152 18.3333 0
152 21.6667 0
146.667 25 0
149.333 25 0
144 18.3333 0
144 21.6667 0
146.667 18.3333 0
149.333 18.3333 0
146.667 21.6667 0
149.333 21.6667 0
152 15 0
160 15 0
160 25 0
152 25 0
154.667 15 0
157.333 15 0
160 18.3333 0
160 21.6667 0
154.667 25 0
157.333 25 0
152 18.3333 0
152 21.6667 0
154.667 18.3333 0
157.333 18.3333 0
154.667 21.6667 0
157.333 21.6667 0
160 15 0
168 15 0
168 25 0
160 25 0
162.667 15 0
165.333 15 0
168 18.3333 0
168 21.6667 0
162.667 25 0
165.333 25 0
160 18.3333 0
160 21.6667 0
162.667 18.3333 0
165.333 18.3333 0
162.667 21.6667 0
165.333 21.6667 0
168 15 0
176 15 0
176 25 0
168 25 0
170.667 15 0
173.333 15 0
176 18.3333 0
176 21.6667 0
170.667 25 0
173.333 25 0
168 18.3333 0
168 21.6667 0
170.667 18.3333 0
173.333 18.3333 0
170.667 21.6667 0
173.333 21.6667 0
176 15 0
184 15 0
184 25 0
176 25 0
178.667 15 0
181.333 15 0
184 18.3333 0
184 21.6667 0
178.667 25 0
181.333 25 0
176 18.3333 0
176 21.6667 0
178.667 18.3333 0
181.333 18.3333 0
178.667 21.6667 0
181.333 21.6667 0
184 15 0
192 15 0
192 25 0
184 25 0
186.667 15 0
189.333 15 0
192 18.3333 0
192 21.6667 0
186.667 25 0
189.333 25 0
184 18.3333 0
184 21.6667 0
186.667 18.3333 0
189.333 18.3333 0
186.667 21.6667 0
189.333 21.6667 0
192 15 0
200 15 0
200 25 0
192 25 0
194.667 15 0
197.333 15 0
200 18.3333 0
200 21.6667 0
194.667 25 0
197.333 25 0
192 18.3333 0
192 21.6667 0
194.667 18.3333 0
197.333 18.3333 0
194.667 21.6667 0
197.333 21.6667 0
      </DataArray>
    </Points>
    <Cells>
      <DataArray type="Int32" Name="connectivity" format="ascii">
0 1 2 3 4 5 6 7 8 9 10 11 12 13 14 15 
16 17 18 19 20 21 22 23 24 25 26 27 28 29 30 31 
32 33 34 35 36 37 38 39 40 41 42 43 44 45 46 47 
48 49 50 51 52 53 54 55 56 57 58 59 60 61 62 63 
64 65 66 67 68 69 70 71 72 73 74 75 76 77 78 79 
80 81 82 83 84 85 86 87 88 89 90 91 92 93 94 95 
96 97 98 99 100 101 102 103 104 105 106 107 108 109 110 111 
112 113 114 115 116 117 118 119 120 121 122 123 124 125 126 127 
128 129 130 131 132 133 134 135 136 137 138 139 140 141 142 143 
144 145 146 147 148 149 150 151 152 153 154 155 156 157 158 159 
160 161 162 163 164 165 166 167 168 169 170 171 172 173 174 175 
176 177 178 179 180 181 182 183 184 185 186 187 188 189 190 191 
192 193 194 195 196 197 198 199 200 201 202 203 204 205 206 207 
208 209 210 211 212 213 214 215 216 217 218 219 220 221 222 223 
224 225 226 227 228 229 230 231 232 233 234 235 236 237 238 239 
240 241 242 243 244 245 246 247 248 249 250 251 252 253 254 255 
256 257 258 259 260 261 262 263 264 265 266 267 268 269 270 271 
272 273 274 275 276 277 278 279 280 281 282 283 284 285 286 287 
288 289 290 291 292 293 294 295 296 297 298 299 300 301 302 303 
304 305 306 307 308 309 310 311 312 313 314 315 316 317 318 319 
320 321 322 323 324 325 326 327 328 329 330 331 332 333 334 335 
336 337 338 339 340 341 342 343 344 345 346 347 348 349 350 351 
352 353 354 355 356 357 358 359 360 361 362 363 364 365 366 367 
368 369 370 371 372 373 374 375 376 377 378 379 380 381 382 383 
384 385 386 387 388 389 390 391 392 393 394 395 396 397 398 399 
      </DataArray>
      <DataArray type="Int32" Name="offsets" format="ascii">
16
32
48
64
80
96
112
128
144
160
176
192
208
224
240
256
272
288
304
320
336
352
368
384
400
      </DataArray>
      <DataArray type="UInt8" Name="types" format="ascii">
70
70
70
70
70
70
70
70
70
70
70
70
70
70
70
70
70
70
70
70
70
70
70
70
70
      </DataArray>
    </Cells>
    <PointData>
      <DataArray type="Float64" NumberOfComponents="2" Name="Displacement" format="ascii">
0 0
0 0
0 0
0 0
0 0
0 0
0 0
0 0
0 0
0 0
0 0
0 0
0 0
0 0
0 0
0 0
0 0
0 0
0 0
0 0
0 0
0 0
0 0
0 0
0 0
0 0
0 0
0 0
0 0
0 0
0 0
0 0
0 0
0 0
0 0
0 0
0 0
0 0
0 0
0 0
0 0
0 0
0 0
0 0
0 0
0 0
0 0
0 0
0 0
0 0
0 0
0 0
0 0
0 0
0 0
0 0
0 0
0 0
0 0
0 0
0 0
0 0
0 0
0 0
0 0
0 0
0 0
0 0
0 0
0 0
0 0
0 0
0 0
0 0
0 0
0 0
0 0
0 0
0 0
0 0
0 0
0 0
0 0
0 0
0 0
0 0
0 0
0 0
0 0
0 0
0 0
0 0
0 0
0 0
0 0
0 0
0 0
0 0
0 0
0 0
0 0
0 0
0 0
0 0
0 0
0 0
0 0
0 0
0 0
0 0
0 0
0 0
0 0
0 0
0 0
0 0
0 0
0 0
0 0
0 0
0 0
0 0
0 0
0 0
0 0
0 0
0 0
0 0
0 0
0 0
0 0
0 0
0 0
0 0
0 0
0 0
0 0
0 0
0 0
0 0
0 0
0 0
0 0
0 0
0 0
0 0
0 0
0 0
0 0
0 0
0 0
0 0
0 0
0 0
0 0
0 0
0 0
0 0
0 0
0 0
0 0
0 0
0 0
0 0
0 0
0 0
0 0
0 0
0 0
0 0
0 0
0 0
0 0
0 0
0 0
0 0
0 0
0 0
0 0
0 0
0 0
0 0
0 0
0 0
0 0
0 0
0 0
0 0
0 0
0 0
0 0
0 0
0 0
0 0
0 0
0 0
0 0
0 0
0 0
0 0
0 0
0 0
0 0
0 0
0 0
0 0
0 0
0 0
0 0
0 0
0 0
0 0
0 0
0 0
0 0
0 0
0 0
0 0
0 0
0 0
0 0
0 0
0 0
0 0
0 0
0 0
0 0
0 0
0 0
0 0
0 0
0 0
0 0
0 0
0 0
0 0
0 0
0 0
0 0
0 0
0 0
0 0
0 0
0 0
0 0
0 0
0 0
0 0
0 0
0 0
0 0
0 0
0 0
0 0
0 0
0 0
0 0
0 0
0 0
0 0
0 0
0 0
0 0
0 0
0 0
0 0
0 0
0 0
0 0
0 0
0 0
0 0
0 0
0 0
0 0
0 0
0 0
0 0
0 0
0 0
0 0
0 0
0 0
0 0
0 0
0 0
0 0
0 0
0 0
0 0
0 0
0 0
0 0
0 0
0 0
0 0
0 0
0 0
0 0
0 0
0 0
0 0
0 0
0 0
0 0
0 0
0 0
0 0
0 0
0 0
0 0
0 0
0 0
0 0
0 0
0 0
0 0
0 0
0 0
0 0
0 0
0 0
0 0
0 0
0 0
0 0
0 0
0 0
0 0
0 0
0 0
0 0
0 0
0 0
0 0
0 0
0 0
0 0
0 0
0 0
0 0
0 0
0 0
0 0
0 0
0 0
0 0
0 0
0 0
0 0
0 0
0 0
0 0
0 0
0 0
0 0
0 0
0 0
0 0
0 0
0 0
0 0
0 0
0 0
0 0
0 0
0 0
0 0
0 0
0 0
0 0
0 0
0 0
0 0
0 0
0 0
0 0
0 0
0 0
0 0
0 0
0 0
0 0
0 0
0 0
0 0
0 0
0 0
0 0
0 0
0 0
0 0
0 0
0 0
0 0
0 0
0 0
0 0
0 0
0 0
      </DataArray> 
      <DataArray type="Float64" NumberOfComponents="4" Name="CauchyStress" format="ascii">
0 0 0 0
-2.44005e-13 -7.32015e-14 0 0
-2.44005e-13 -7.32015e-14 0 0
0 0 0 0
0 2.05646e-72 0 -2.81237e-35
-3.38918e-61 2.30464e-60 0 2.74963e-29
3.4184e-60 1.31477e-60 0 -4.26668e-29
1.46403e-13 4.8801e-13 0 -2.56001e-29
5.55125e-62 1.55435e-61 0 9.00741e-30
6.42776e-62 6.42764e-63 0 -5.21482e-30
0 0 0 0
-3.17207e-13 -3.17207e-13 0 0
4.16344e-62 1.11025e-62 0 4.50371e-30
-3.17207e-13 -3.17207e-13 0 -2.37037e-30
-2.44005e-13 -7.32015e-14 0 -1.54074e-30
-2.44005e-13 -7.32015e-14 0 -1.8963e-29
0 3.1105e-93 0 -1.09378e-45
0 0 0 0
3.73979e-60 0 0 -3.7926e-29
1.49592e-59 -5.29947e-76 0 7.5852e-29
-2.44005e-13 -7.32015e-14 0 -5.21482e-30
2.33737e-61 0 0 -9.4815e-30
4.67474e-62 1.02844e-61 0 7.5852e-30
0 5.84342e-62 0 -4.74075e-30
-2.44005e-13 -7.32015e-14 0 -1.18519e-29
3.27232e-60 -4.0904e-61 0 3.31852e-29
2.57843e-94 5.84342e-62 0 4.74075e-30
9.81696e-61 4.90848e-62 0 1.99112e-29
-8.11318e-62 2.90003e-61 0 8.96298e-30
-7.32015e-14 -2.44005e-13 0 -4.74075e-30
-3.17207e-13 -3.17207e-13 0 3.97038e-30
7.71332e-61 3.59955e-61 0 -2.08593e-29
8.21185e-92 2.33737e-61 0 9.48151e-30
0 2.33733e-63 0 -9.48142e-31
0 0 0 0
1.72446e-106 5.69736e-91 0 1.4803e-44
1.8699e-61 -3.73979e-62 0 -7.5852e-30
1.91664e-60 2.01248e-60 0 -3.88742e-29
2.48784e-60 1.91372e-62 0 3.10519e-29
0 3.36581e-61 0 1.13778e-29
1.46086e-62 0 0 2.37038e-30
1.68291e-60 -3.36582e-61 0 -2.27556e-29
1.31477e-61 1.40293e-78 0 7.11113e-30
-7.32015e-14 -2.44005e-13 0 4.74075e-31
4.31552e-60 5.1831e-68 0 -4.07408e-29
1.46816e-61 1.71285e-62 0 -7.94076e-30
1.82607e-62 -1.46086e-62 0 1.18519e-30
6.77837e-61 -1.86405e-61 0 -1.37482e-29
1.27153e-59 -1.90729e-60 0 6.44742e-29
0 2.33733e-63 0 9.48142e-31
0 2.10366e-62 0 -2.84447e-30
5.98367e-59 6.73746e-66 0 1.51704e-28
1.157e-58 2.62953e-60 0 -2.13334e-28
9.41493e-59 1.09015e-59 0 2.01008e-28
1.05182e-61 -5.78499e-62 0 4.26667e-30
0 0 0 0
2.10363e-60 1.57923e-67 0 -2.84445e-29
3.36581e-59 0 0 -1.13778e-28
1.00799e-61 -2.35198e-62 0 5.45186e-30
3.73979e-60 1.57248e-76 0 3.7926e-29
1.29748e-60 -1.30564e-61 0 -2.11852e-29
7.30428e-62 2.92171e-61 0 -1.18519e-29
-7.32015e-14 -2.44005e-13 0 -2.37038e-29
0 1.03078e-60 0 -1.99112e-29
1.52397e-59 2.85742e-61 0 -7.72742e-29
1.51462e-59 1.89329e-61 0 -7.68002e-29
0 0 0 0
-7.32015e-14 -2.44005e-13 0 -2.50006e-44
-7.32015e-14 -2.44005e-13 0 -5.02519e-29
3.50608e-62 -2.98016e-62 0 1.42223e-30
0 5.25908e-63 0 1.42222e-30
1.46403e-13 4.8801e-13 0 -1.09037e-29
7.36271e-61 2.10359e-62 0 -1.70667e-29
5.60969e-61 7.85355e-61 0 2.27556e-29
-7.32015e-14 -2.44005e-13 0 2.84445e-30
0 2.33738e-63 0 9.48151e-31
-7.32015e-14 -2.44005e-13 0 -2.90371e-29
2.0452e-62 8.1808e-63 0 -3.31853e-30
3.85666e-61 -1.02844e-61 0 1.04296e-29
0 1.31477e-63 0 -7.11113e-31
1.51462e-59 1.89329e-61 0 -7.68002e-29
-7.32015e-14 -2.44005e-13 0 -1.96267e-28
-7.32015e-14 -2.44005e-13 0 5.78371e-29
0 0 0 0
-7.32015e-14 -2.44005e-13 0 -2.46519e-28
7.36272e-61 -1.56458e-61 0 1.49334e-29
0 2.86328e-62 0 -3.31853e-30
-7.32015e-14 -2.44005e-13 0 1.51704e-28
-7.32015e-14 -2.44005e-13 0 -3.79262e-30
1.26218e-60 4.41762e-61 0 2.56e-29
0 5.25908e-63 0 1.42222e-30
1.46403e-13 4.8801e-13 0 -1.09037e-29
2.24095e-60 -2.06857e-61 0 2.79704e-29
1.05912e-59 -1.46086e-60 0 5.92594e-29
-3.17207e-13 -3.17207e-13 0 -4.36149e-29
3.97353e-60 2.48345e-61 0 4.02964e-29
-7.32015e-14 -2.44005e-13 0 -1.96267e-28
0 0 0 0
0 0 0 0
-7.32015e-14 -2.44005e-13 0 5.78371e-29
9.81696e-60 1.63616e-60 0 6.63705e-29
4.02028e-60 3.01522e-61 0 4.07705e-29
8.76514e-61 5.84343e-61 0 2.37038e-29
0 0 0 0
-7.32015e-14 -2.44005e-13 0 8.24891e-29
2.97313e-59 -3.46866e-60 0 -1.00504e-28
0 2.86328e-62 0 -3.31853e-30
-7.32015e-14 -2.44005e-13 0 1.51704e-28
1.71194e-62 1.25542e-61 0 7.40742e-30
1.72965e-60 1.47021e-60 0 -3.50816e-29
-7.32015e-14 -2.44005e-13 0 -6.25779e-29
-2.44005e-13 -7.32015e-14 0 -1.94371e-29
0 0 0 0
1.46403e-13 4.8801e-13 0 -7.5852e-29
0 0 0 0
0 0 0 0
1.29724e-60 1.90262e-60 0 3.50816e-29
0 2.86329e-62 0 -3.31853e-30
-3.17207e-13 -3.17207e-13 0 -3.95853e-29
-2.44005e-13 -7.32015e-14 0 2.03852e-29
7.82873e-60 1.02113e-61 0 -5.52297e-29
0 7.07057e-62 0 5.21483e-30
8.76514e-61 5.84343e-61 0 2.37038e-29
0 0 0 0
3.41256e-60 -2.98599e-61 0 3.46075e-29
-3.17207e-13 -3.17207e-13 0 3.7926e-29
-3.17207e-13 -3.17207e-13 0 7.11113e-31
1.46787e-59 -2.75225e-61 0 -7.44298e-29
0 9.34957e-63 0 1.89631e-30
0 0 0 0
0 0 0 0
0 9.52534e-90 0 -6.05276e-44
3.37458e-60 8.99871e-62 0 -3.65038e-29
9.34948e-61 0 0 -1.8963e-29
3.97353e-61 2.78147e-61 0 1.61186e-29
4.67474e-60 1.16869e-60 0 -4.74075e-29
5.69734e-61 3.1905e-61 0 -1.84889e-29
0 3.3658e-61 0 -1.13778e-29
-3.17207e-13 -3.17207e-13 0 -1.2563e-28
-2.44005e-13 -7.32015e-14 0 2.98667e-29
-7.32015e-14 -2.44005e-13 0 1.38074e-28
1.75829e-59 7.24e-61 0 8.39113e-29
0 3.28693e-62 0 -3.55556e-30
0 5.84342e-62 0 4.74075e-30
0 0 0 0
0 0 0 0
0 0 0 0
0 0 0 0
6.4862e-61 1.51344e-61 0 -1.75408e-29
0 5.84364e-64 0 4.74084e-31
2.46826e-58 7.71332e-60 0 3.1289e-28
0 0 0 0
4.35131e-59 2.6272e-60 0 -1.33215e-28
0 1.89328e-61 0 8.53337e-30
3.97353e-61 2.78147e-61 0 1.61186e-29
4.67474e-60 1.16869e-60 0 -4.74075e-29
3.08149e-62 -1.2326e-62 0 -2.66667e-30
3.5528e-60 -1.7764e-61 0 -3.60297e-29
1.47419e-58 -8.54601e-60 0 2.31112e-28
-3.17207e-13 -3.17207e-13 0 -4.26667e-30
0 0 0 0
0 0 0 0
0 0 0 0
0 0 0 0
6.73162e-60 -1.34633e-60 0 -4.55112e-29
2.28478e-59 -5.14076e-61 0 9.26817e-29
1.55201e-59 5.82005e-61 0 -7.86965e-29
1.53799e-59 4.3256e-61 0 -7.79853e-29
-7.32015e-14 -2.44005e-13 0 -3.74519e-29
1.85213e-58 1.98443e-60 0 2.68326e-28
2.46826e-58 7.71332e-60 0 3.1289e-28
0 0 0 0
1.27095e-61 -4.23649e-63 0 -6.87409e-30
0 1.46086e-62 0 -2.37037e-30
-3.17207e-13 -3.17207e-13 0 5.87853e-29
1.50059e-59 4.68934e-62 0 7.6089e-29
1.35754e-58 1.13129e-60 0 2.29452e-28
1.55201e-59 5.82007e-61 0 7.86965e-29
1.34633e-58 0 0 2.27556e-28
1.34633e-58 -3.58109e-74 0 2.27556e-28
3.96684e-58 -1.04516e-59 0 -3.85423e-28
1.46403e-13 4.8801e-13 0 -6.06816e-29
2.33737e-60 -8.76514e-61 0 2.37038e-29
0 9.34949e-63 0 -1.8963e-30
2.7725e-58 -1.25844e-59 0 -3.19053e-28
0 5.84322e-64 0 4.74067e-31
0 1.31477e-61 0 7.11113e-30
-2.44005e-13 -7.32015e-14 0 -8.05928e-30
-7.32015e-14 -2.44005e-13 0 9.7778e-29
-2.44005e-13 -7.32015e-14 0 7.96446e-29
-3.17207e-13 -3.17207e-13 0 1.04297e-28
-3.17207e-13 -3.17207e-13 0 -2.27556e-29
1.55201e-59 5.82007e-61 0 7.86965e-29
0 4.73319e-62 0 -4.26668e-30
0 0 0 0
1.34633e-58 0 0 2.27556e-28
-7.32015e-14 -2.44005e-13 0 -9.4815e-29
0 2.10365e-62 0 -2.84446e-30
2.35928e-61 2.21183e-63 0 9.57039e-30
6.15196e-59 1.73024e-60 0 -1.55971e-28
6.19403e-58 3.71642e-59 0 -5.0252e-28
1.46403e-13 4.8801e-13 0 -6.63703e-30
2.33737e-60 -8.76514e-61 0 2.37038e-29
0 9.34949e-63 0 -1.8963e-30
2.47834e-60 9.53208e-63 0 -3.09334e-29
-3.17207e-13 -3.17207e-13 0 3.7926e-30
1.48301e-58 1.67712e-59 0 2.51971e-28
5.94627e-59 -3.71642e-61 0 1.50756e-28
0 4.73319e-62 0 -4.26668e-30
2.43461e-58 4.18447e-60 0 3.08623e-28
1.70161e-59 2.33971e-60 0 -8.62817e-29
0 0 0 0
6.07716e-61 -2.12701e-61 0 -1.23259e-29
1.49592e-59 -3.36761e-66 0 -7.5852e-29
5.84708e-60 3.65442e-63 0 -4.74371e-29
-2.44005e-13 -7.32015e-14 0 -3.7926e-30
1.16868e-60 2.92171e-61 0 -2.37037e-29
1.30893e-59 -1.63616e-60 0 6.63705e-29
2.35928e-61 2.21183e-63 0 9.57039e-30
6.15196e-59 1.73024e-60 0 -1.55971e-28
2.57407e-60 5.8836e-62 0 3.18223e-29
2.10948e-59 1.38833e-67 0 -9.00743e-29
4.30631e-59 5.74175e-60 0 1.37008e-28
6.95368e-59 2.0452e-60 0 1.65926e-28
2.43461e-58 4.18447e-60 0 3.08623e-28
2.37477e-58 -1.85529e-60 0 -3.01038e-28
0 0 0 0
1.70161e-59 2.33971e-60 0 -8.62817e-29
1.46403e-13 4.8801e-13 0 -1.14726e-28
1.46403e-13 4.8801e-13 0 -7.58518e-30
-3.17207e-13 -3.17207e-13 0 -3.69779e-29
-7.32015e-14 -2.44005e-13 0 3.08149e-28
1.19673e-59 -2.39347e-60 0 6.06816e-29
0 0 0 0
5.84708e-60 3.65442e-63 0 -4.74371e-29
-2.44005e-13 -7.32015e-14 0 -3.7926e-30
6.35473e-61 1.3239e-61 0 -1.71852e-29
1.95515e-58 5.83115e-60 0 -2.78282e-28
-3.17207e-13 -3.17207e-13 0 1.24919e-28
0 1.76764e-62 0 -2.60741e-30
6.17066e-59 1.92833e-60 0 1.56445e-28
0 0 0 0
0 0 0 0
1.37437e-58 2.86327e-60 0 -2.32297e-28
7.57308e-60 -7.57306e-61 0 5.12001e-29
0 7.57306e-61 0 1.70667e-29
2.39347e-58 0 0 -3.03408e-28
0 0 0 0
0 1.46087e-62 0 -2.37038e-30
1.97835e-57 0 0 -8.72298e-28
8.13811e-58 1.72418e-61 0 5.59527e-28
-2.44005e-13 -7.32015e-14 0 3.65038e-29
3.28693e-62 -2.10363e-62 0 2.13334e-30
1.35398e-58 6.62586e-60 0 2.33719e-28
-7.32015e-14 -2.44005e-13 0 -6.40001e-29
1.53565e-59 4.07908e-61 0 7.78668e-29
0 0 0 0
9.54395e-58 -2.9825e-60 0 6.0492e-28
2.40095e-58 7.50309e-61 0 -3.04356e-28
0 0 0 0
6.59045e-58 2.48698e-60 0 5.04416e-28
0 1.14532e-61 0 6.63707e-30
0 2.28258e-66 0 -2.96296e-32
0 2.33737e-63 0 9.48151e-31
7.56467e-58 -2.86936e-59 0 5.29068e-28
0 7.57982e-73 0 1.70743e-35
2.39347e-58 0 0 -3.03408e-28
0 0 0 0
6.39125e-63 3.83475e-62 0 4.14816e-30
1.58941e-60 1.11259e-60 0 -3.22371e-29
0 2.66241e-62 0 -3.20001e-30
1.31828e-58 -2.74641e-60 0 2.22815e-28
0 5.84345e-62 0 -4.74076e-30
0 1.89495e-73 0 8.53714e-36
0 2.33738e-61 0 9.48152e-30
-7.32015e-14 -2.44005e-13 0 -9.10224e-28
1.63616e-61 -4.90849e-62 0 6.63704e-30
1.50527e-59 9.40783e-62 0 -7.63261e-29
3.70765e-60 -3.18626e-62 0 3.76001e-29
1.45384e-59 -4.08894e-61 0 -7.37187e-29
-7.32015e-14 -2.44005e-13 0 -5.65335e-29
0 5.84338e-62 0 -4.74073e-30
-3.17207e-13 -3.17207e-13 0 -1.42223e-30
3.5528e-60 -1.7764e-61 0 3.60297e-29
-7.32015e-14 -2.44005e-13 0 -2.12741e-28
1.1944e-59 5.11884e-61 0 -6.9215e-29
-7.32015e-14 -2.44005e-13 0 2.84445e-28
9.29105e-61 -5.80692e-63 0 -1.88445e-29
0 1.89495e-73 0 8.53714e-36
0 0 0 0
0 0 0 0
0 2.33738e-61 0 9.48152e-30
2.69405e-58 -7.92353e-61 0 3.21423e-28
2.55802e-58 1.75864e-59 0 -3.24267e-28
0 0 0 0
1.49592e-59 0 0 7.5852e-29
0 1.89302e-73 0 -8.53278e-36
5.3853e-58 0 0 4.55112e-28
3.70765e-60 -3.18626e-62 0 3.76001e-29
1.45384e-59 -4.08894e-61 0 -7.37187e-29
-6.57383e-63 6.71992e-63 0 -2.37037e-31
3.39503e-60 6.30506e-61 0 3.93482e-29
1.73842e-59 -4.96691e-61 0 -8.05928e-29
0 1.05547e-62 0 2.01482e-30
0 0 0 0
9.54395e-58 -2.9825e-60 0 6.0492e-28
0 2.33745e-63 0 -9.48167e-31
0 0 0 0
5.69533e-57 -6.52967e-59 0 1.47153e-27
5.72188e-59 -2.50333e-60 0 -1.45067e-28
0 2.28258e-66 0 -2.96296e-32
0 1.76764e-62 0 -2.60741e-30
2.01949e-59 7.0682e-60 0 1.024e-28
1.49592e-59 -3.36731e-66 0 -7.5852e-29
0 0 0 0
1.49592e-59 0 0 7.5852e-29
5.74117e-59 -4.82083e-60 0 -1.42223e-28
4.33185e-58 1.00741e-60 0 4.08653e-28
-7.32015e-14 -2.44005e-13 0 -8.53335e-30
-7.32015e-14 -2.44005e-13 0 1.39852e-28
9.54395e-58 -2.9825e-60 0 6.0492e-28
0 1.46085e-62 0 -2.37037e-30
0 0 0 0
0 2.33745e-63 0 -9.48167e-31
2.42502e-61 9.09378e-63 0 -9.83706e-30
0 1.14532e-61 0 6.63707e-30
1.0635e-60 1.46232e-61 0 -2.15704e-29
2.29997e-58 -8.98427e-60 0 2.91556e-28
2.01949e-59 1.34632e-60 0 -9.10224e-29
-7.32015e-14 -2.44005e-13 0 -7.5852e-29
0 2.28258e-66 0 -2.96296e-32
0 1.76764e-62 0 -2.60741e-30
8.46566e-59 2.78476e-61 0 1.80741e-28
1.92482e-59 3.20804e-61 0 8.67557e-29
-7.32015e-14 -2.44005e-13 0 6.21038e-29
-3.17207e-13 -3.17207e-13 0 3.88742e-29
0 1.46085e-62 0 -2.37037e-30
0 0 0 0
0 0 0 0
0 5.84347e-62 0 4.74077e-30
7.8739e-58 2.90091e-59 0 -5.60357e-28
1.8325e-59 4.12311e-60 0 9.29187e-29
0 0 0 0
-2.44005e-13 -7.32015e-14 0 1.51704e-28
0 2.33737e-61 0 9.48149e-30
0 0 0 0
9.33341e-59 -1.60418e-61 0 1.89304e-28
0 2.86328e-62 0 3.31852e-30
-2.44005e-13 -7.32015e-14 0 5.42816e-29
1.46403e-13 4.8801e-13 0 -3.54134e-28
-7.32015e-14 -2.44005e-13 0 -6.40001e-29
0 5.25908e-63 0 1.42222e-30
0 0 0 0
9.58135e-58 7.48529e-61 0 6.0729e-28
2.36355e-58 -2.95442e-60 0 -2.99615e-28
0 0 0 0
6.39505e-59 -9.94785e-60 0 1.44119e-28
0 1.14532e-61 0 6.63707e-30
-3.17207e-13 -3.17207e-13 0 -2.96296e-32
2.52445e-57 -3.64104e-60 0 9.84654e-28
2.22331e-58 2.9133e-59 0 3.10993e-28
0 7.57982e-73 0 1.70743e-35
0 0 0 0
-2.44005e-13 -7.32015e-14 0 1.51704e-28
1.44506e-59 -1.52112e-60 0 7.05187e-29
5.00197e-60 1.68817e-60 0 5.0726e-29
-3.17207e-13 -3.17207e-13 0 9.75409e-29
0 1.46086e-62 0 2.37037e-30
0 1.46085e-62 0 2.37037e-30
0 0 0 0
9.57387e-58 0 0 -6.06816e-28
-7.32015e-14 -2.44005e-13 0 -3.03408e-28
1.13386e-58 2.57697e-61 0 -2.09067e-28
5.3853e-58 0 0 4.55112e-28
-7.32015e-14 -2.44005e-13 0 7.44298e-29
5.92757e-59 -5.55707e-61 0 1.50282e-28
0 5.84345e-62 0 -4.74076e-30
5.3853e-58 0 0 4.55112e-28
6.06781e-59 8.53286e-61 0 1.53837e-28
5.96497e-59 -1.86405e-61 0 -1.5123e-28
2.92171e-61 7.30428e-62 0 -1.18519e-29
3.74447e-58 4.6806e-61 0 -3.79734e-28
-3.17207e-13 -3.17207e-13 0 -3.22371e-29
1.81777e-58 -1.46071e-60 0 2.63349e-28
0 0 0 0
-7.32015e-14 -2.44005e-13 0 0
-7.32015e-14 -2.44005e-13 0 0
9.57387e-58 0 0 -6.06816e-28
6.32025e-59 3.55517e-60 0 1.60237e-28
0 1.4959e-61 0 -7.58515e-30
0 0 0 0
0 0 0 0
0 1.49589e-61 0 -7.58514e-30
2.39347e-58 0 0 3.03408e-28
-7.32015e-14 -2.44005e-13 0 7.44298e-29
5.92757e-59 -5.55707e-61 0 1.50282e-28
8.05809e-59 1.01302e-59 0 -1.86786e-28
0 5.2591e-63 0 -1.42223e-30
1.19655e-57 -1.49569e-59 0 6.74135e-28
9.57387e-58 0 0 -6.06816e-28
      </DataArray> 
    </PointData>
    <CellData>
      <DataArray type="Float64" NumberOfComponents="1" Name="Process" format="ascii">
0
1
0
1
1
0
1
1
1
0
0
0
2
0
2
2
2
2
2
3
3
3
3
3
3
      </DataArray> 
    </CellData>
  </Piece>
  </UnstructuredGrid>
</VTKFile>
