<?xml version="1.0"?>
<VTKFile type="UnstructuredGrid">
  <UnstructuredGrid>
  <Piece NumberOfPoints="12411"  NumberOfCells="1379">
    <Points>
      <DataArray type="Float64" NumberOfComponents="3" format="ascii">
0 0 0
2.52269 -0.00764027 0
2.52889 4.28314 0
0 4.28571 0
1.26066 -0.00477025 0
2.52648 2.13824 0
1.26458 4.2848 0
0 2.14286 0
1.26351 2.14082 0
2.52269 -0.00764027 0
5.04745 -0.0132479 0
5.05702 4.27828 0
2.52889 4.28314 0
3.78505 -0.0103381 0
5.05247 2.13281 0
3.793 4.28095 0
2.52648 2.13824 0
3.78944 2.13561 0
5.04745 -0.0132479 0
7.57208 -0.0200155 0
7.58506 4.2716 0
5.05702 4.27828 0
6.30979 -0.0164328 0
7.57864 2.12602 0
6.32103 4.27518 0
5.05247 2.13281 0
6.31554 2.12964 0
7.57208 -0.0200155 0
10.0966 -0.0287322 0
10.1131 4.26289 0
7.58506 4.2716 0
8.83435 -0.0241097 0
10.1049 2.11732 0
8.84909 4.26751 0
7.57864 2.12602 0
8.84176 2.12192 0
10.0966 -0.0287322 0
12.621 -0.0395773 0
12.6413 4.25201 0
10.1131 4.26289 0
11.3588 -0.0338813 0
12.6312 2.10645 0
11.3772 4.25773 0
10.1049 2.11732 0
11.368 2.11216 0
12.621 -0.0395773 0
15.1455 -0.0526725 0
15.1695 4.23888 0
12.6413 4.25201 0
13.8832 -0.0458409 0
15.1575 2.09334 0
13.9054 4.24573 0
12.6312 2.10645 0
13.8944 2.10018 0
15.1455 -0.0526725 0
17.6699 -0.0680335 0
17.6978 4.22346 0
15.1695 4.23888 0
16.4077 -0.060069 0
17.6839 2.07796 0
16.4336 4.23146 0
15.1575 2.09334 0
16.4207 2.08594 0
17.6699 -0.0680335 0
20.1944 -0.0856747 0
20.2261 4.20577 0
17.6978 4.22346 0
18.9321 -0.0765692 0
20.2103 2.06029 0
18.9619 4.2149 0
17.6839 2.07796 0
18.9471 2.06941 0
20.1944 -0.0856747 0
22.7189 -0.105587 0
22.7544 4.18579 0
20.2261 4.20577 0
21.4566 -0.0953475 0
22.7367 2.04035 0
21.4903 4.19606 0
20.2103 2.06029 0
21.4735 2.0506 0
22.7189 -0.105587 0
25.2434 -0.127762 0
25.2828 4.16356 0
22.7544 4.18579 0
23.9811 -0.116392 0
25.2632 2.01814 0
24.0186 4.17496 0
22.7367 2.04035 0
23.9999 2.02953 0
25.2434 -0.127762 0
27.768 -0.152186 0
27.8112 4.13906 0
25.2828 4.16356 0
26.5057 -0.139693 0
27.7897 1.99368 0
26.547 4.15159 0
25.2632 2.01814 0
26.5264 2.00619 0
27.768 -0.152186 0
30.2927 -0.178849 0
30.3397 4.11233 0
27.8112 4.13906 0
29.0303 -0.165238 0
30.3162 1.96698 0
29.0755 4.12598 0
27.7897 1.99368 0
29.053 1.98061 0
30.2927 -0.178849 0
32.8174 -0.207736 0
32.8681 4.08337 0
30.3397 4.11233 0
31.555 -0.193015 0
32.8428 1.93806 0
31.6039 4.09813 0
30.3162 1.96698 0
31.5795 1.9528 0
32.8174 -0.207736 0
35.3421 -0.238836 0
35.3966 4.05219 0
32.8681 4.08337 0
34.0797 -0.22301 0
35.3694 1.90692 0
34.1324 4.06806 0
32.8428 1.93806 0
34.1061 1.92276 0
35.3421 -0.238836 0
37.8669 -0.272137 0
37.9252 4.01881 0
35.3966 4.05219 0
36.6045 -0.255212 0
37.8961 1.87357 0
36.6609 4.03577 0
35.3694 1.90692 0
36.6328 1.89052 0
37.8669 -0.272137 0
40.3917 -0.307626 0
40.4537 3.98324 0
37.9252 4.01881 0
39.1293 -0.289609 0
40.4228 1.83804 0
39.1894 4.0013 0
37.8961 1.87357 0
39.1594 1.85608 0
40.3917 -0.307626 0
42.9166 -0.345292 0
42.9822 3.94549 0
40.4537 3.98324 0
41.6542 -0.326188 0
42.9495 1.80033 0
41.718 3.96463 0
40.4228 1.83804 0
41.6861 1.81946 0
42.9166 -0.345292 0
45.4415 -0.385122 0
45.5108 3.90557 0
42.9822 3.94549 0
44.1791 -0.364937 0
45.4762 1.76046 0
44.2465 3.9258 0
42.9495 1.80033 0
44.2129 1.78066 0
45.4415 -0.385122 0
47.9665 -0.427105 0
48.0394 3.86349 0
45.5108 3.90557 0
46.704 -0.405845 0
48.003 1.71843 0
46.7751 3.8848 0
45.4762 1.76046 0
46.7396 1.73971 0
47.9665 -0.427105 0
50.4915 -0.471228 0
50.568 3.81928 0
48.0394 3.86349 0
49.229 -0.448899 0
50.5298 1.67425 0
49.3037 3.84165 0
48.003 1.71843 0
49.2664 1.69661 0
50.4915 -0.471228 0
53.0165 -0.517479 0
53.0966 3.77293 0
50.568 3.81928 0
51.754 -0.494088 0
53.0566 1.62795 0
51.8323 3.79637 0
50.5298 1.67425 0
51.7932 1.65137 0
53.0165 -0.517479 0
55.5415 -0.565847 0
55.6253 3.72446 0
53.0966 3.77293 0
54.279 -0.541399 0
55.5835 1.57953 0
54.361 3.74896 0
53.0566 1.62795 0
54.32 1.60401 0
55.5415 -0.565847 0
58.0666 -0.61632 0
58.1539 3.67389 0
55.6253 3.72446 0
56.8041 -0.590821 0
58.1103 1.52901 0
56.8896 3.69944 0
55.5835 1.57953 0
56.8469 1.55453 0
58.0666 -0.61632 0
60.5917 -0.668886 0
60.6826 3.62122 0
58.1539 3.67389 0
59.3292 -0.642342 0
60.6372 1.47639 0
59.4182 3.64781 0
58.1103 1.52901 0
59.3738 1.50296 0
60.5917 -0.668886 0
63.1168 -0.723532 0
63.2112 3.56646 0
60.6826 3.62122 0
61.8543 -0.695949 0
63.1641 1.42169 0
61.9469 3.5941 0
60.6372 1.47639 0
61.9006 1.4493 0
63.1168 -0.723532 0
65.642 -0.780247 0
65.7399 3.50964 0
63.2112 3.56646 0
64.3794 -0.751631 0
65.691 1.36492 0
64.4756 3.53831 0
63.1641 1.42169 0
64.4276 1.39356 0
65.642 -0.780247 0
68.1672 -0.839018 0
68.2686 3.45075 0
65.7399 3.50964 0
66.9046 -0.809376 0
68.2179 1.30609 0
67.0042 3.48045 0
65.691 1.36492 0
66.9545 1.33576 0
68.1672 -0.839018 0
70.6924 -0.899835 0
70.7972 3.38982 0
68.2686 3.45075 0
69.4298 -0.869172 0
70.7449 1.24521 0
69.5329 3.42054 0
68.2179 1.30609 0
69.4814 1.27591 0
70.6924 -0.899835 0
73.2176 -0.962684 0
73.3259 3.32686 0
70.7972 3.38982 0
71.955 -0.931006 0
73.2718 1.1823 0
72.0616 3.35859 0
70.7449 1.24521 0
72.0084 1.21401 0
73.2176 -0.962684 0
75.7429 -1.02755 0
75.8546 3.26187 0
73.3259 3.32686 0
74.4803 -0.994867 0
75.7988 1.11737 0
74.5903 3.29462 0
73.2718 1.1823 0
74.5353 1.15009 0
75.7429 -1.02755 0
78.2682 -1.09443 0
78.3833 3.19487 0
75.8546 3.26187 0
77.0055 -1.06074 0
78.3258 1.05043 0
77.1189 3.22862 0
75.7988 1.11737 0
77.0623 1.08415 0
78.2682 -1.09443 0
80.7935 -1.16331 0
80.9119 3.12587 0
78.3833 3.19487 0
79.5308 -1.12862 0
80.8528 0.981494 0
79.6476 3.16062 0
78.3258 1.05043 0
79.5893 1.01621 0
80.7935 -1.16331 0
83.3188 -1.23417 0
83.4406 3.05489 0
80.9119 3.12587 0
82.0561 -1.19849 0
83.3797 0.91057 0
82.1763 3.09063 0
80.8528 0.981494 0
82.1163 0.94628 0
83.3188 -1.23417 0
85.8441 -1.307 0
85.9693 2.98192 0
83.4406 3.05489 0
84.5814 -1.27034 0
85.9067 0.837671 0
84.7049 3.01865 0
83.3797 0.91057 0
84.6432 0.874366 0
85.8441 -1.307 0
88.3695 -1.3818 0
88.4979 2.907 0
85.9693 2.98192 0
87.1068 -1.34416 0
88.4337 0.76281 0
87.2336 2.94471 0
85.9067 0.837671 0
87.1702 0.800485 0
88.3695 -1.3818 0
90.8948 -1.45854 0
91.0266 2.83013 0
88.4979 2.907 0
89.6321 -1.41993 0
90.9607 0.686 0
89.7622 2.86881 0
88.4337 0.76281 0
89.6972 0.724648 0
90.8948 -1.45854 0
93.4202 -1.53722 0
93.5552 2.75131 0
91.0266 2.83013 0
92.1575 -1.49764 0
93.4878 0.607251 0
92.2909 2.79096 0
90.9607 0.686 0
92.2243 0.646867 0
93.4202 -1.53722 0
95.9456 -1.61783 0
96.0838 2.67057 0
93.5552 2.75131 0
94.6829 -1.57729 0
96.0148 0.526577 0
94.8195 2.71118 0
93.4878 0.607251 0
94.7513 0.567154 0
95.9456 -1.61783 0
98.4709 -1.70035 0
98.6125 2.58792 0
96.0838 2.67057 0
97.2082 -1.65885 0
98.5418 0.443989 0
97.3482 2.62948 0
96.0148 0.526577 0
97.2783 0.485521 0
98.4709 -1.70035 0
100.996 -1.78477 0
101.141 2.50336 0
98.6125 2.58792 0
99.7336 -1.74232 0
101.069 0.359498 0
99.8768 2.54587 0
98.5418 0.443989 0
99.8053 0.40198 0
100.996 -1.78477 0
103.522 -1.87108 0
103.67 2.41691 0
101.141 2.50336 0
102.259 -1.82769 0
103.596 0.273118 0
102.405 2.46037 0
101.069 0.359498 0
102.332 0.316544 0
103.522 -1.87108 0
106.047 -1.95926 0
106.198 2.32858 0
103.67 2.41691 0
104.784 -1.91493 0
106.123 0.18486 0
104.934 2.37298 0
103.596 0.273118 0
104.859 0.229223 0
106.047 -1.95926 0
108.573 -2.04931 0
108.727 2.23839 0
106.198 2.32858 0
107.31 -2.00405 0
108.65 0.0947359 0
107.463 2.28372 0
106.123 0.18486 0
107.386 0.14003 0
108.573 -2.04931 0
111.098 -2.14122 0
111.255 2.14634 0
108.727 2.23839 0
109.835 -2.09503 0
111.177 0.00275792 0
109.991 2.19259 0
108.65 0.0947359 0
109.913 0.0489779 0
111.098 -2.14122 0
113.623 -2.23496 0
113.784 2.05245 0
111.255 2.14634 0
112.361 -2.18786 0
113.704 -0.0910619 0
112.52 2.09962 0
111.177 0.00275792 0
112.44 -0.0439225 0
113.623 -2.23496 0
116.149 -2.33054 0
116.312 1.95672 0
113.784 2.05245 0
114.886 -2.28252 0
116.231 -0.186712 0
115.048 2.00481 0
113.704 -0.0910619 0
114.967 -0.138659 0
116.149 -2.33054 0
118.674 -2.42793 0
118.841 1.85918 0
116.312 1.95672 0
117.412 -2.37901 0
118.758 -0.284179 0
117.577 1.90818 0
116.231 -0.186712 0
117.494 -0.235219 0
118.674 -2.42793 0
121.2 -2.52713 0
121.369 1.75984 0
118.841 1.85918 0
119.937 -2.4773 0
121.285 -0.383453 0
120.105 1.80974 0
118.758 -0.284179 0
120.021 -0.333591 0
121.2 -2.52713 0
123.725 -2.62812 0
123.898 1.65869 0
121.369 1.75984 0
122.462 -2.5774 0
123.812 -0.48452 0
122.634 1.70949 0
121.285 -0.383453 0
122.548 -0.433763 0
123.725 -2.62812 0
126.251 -2.73089 0
126.426 1.55577 0
123.898 1.65869 0
124.988 -2.67928 0
126.339 -0.587369 0
125.162 1.60745 0
123.812 -0.48452 0
125.075 -0.535722 0
126.251 -2.73089 0
128.776 -2.83543 0
128.955 1.45108 0
126.426 1.55577 0
127.513 -2.78294 0
128.865 -0.691988 0
127.691 1.50364 0
126.339 -0.587369 0
127.602 -0.639458 0
128.776 -2.83543 0
131.301 -2.94172 0
131.483 1.34462 0
128.955 1.45108 0
130.039 -2.88836 0
131.392 -0.798365 0
130.219 1.39807 0
128.865 -0.691988 0
130.129 -0.744957 0
131.301 -2.94172 0
133.827 -3.04977 0
134.012 1.23642 0
131.483 1.34462 0
132.564 -2.99553 0
133.919 -0.906487 0
132.747 1.29074 0
131.392 -0.798365 0
132.656 -0.852208 0
133.827 -3.04977 0
136.352 -3.15954 0
136.54 1.12649 0
134.012 1.23642 0
135.09 -3.10444 0
136.446 -1.01634 0
135.276 1.18167 0
133.919 -0.906487 0
135.183 -0.961199 0
136.352 -3.15954 0
138.878 -3.27104 0
139.068 1.01483 0
136.54 1.12649 0
137.615 -3.21508 0
138.973 -1.12792 0
137.804 1.07088 0
136.446 -1.01634 0
137.71 -1.07192 0
138.878 -3.27104 0
141.403 -3.38425 0
141.597 0.901466 0
139.068 1.01483 0
140.14 -3.32743 0
141.5 -1.24121 0
140.332 0.958363 0
138.973 -1.12792 0
140.237 -1.18435 0
141.403 -3.38425 0
143.929 -3.49915 0
144.125 0.786402 0
141.597 0.901466 0
142.666 -3.44149 0
144.027 -1.35619 0
142.861 0.844146 0
141.5 -1.24121 0
142.763 -1.29849 0
143.929 -3.49915 0
146.454 -3.61574 0
146.653 0.669651 0
144.125 0.786402 0
145.191 -3.55723 0
146.554 -1.47287 0
145.389 0.728236 0
144.027 -1.35619 0
145.29 -1.41432 0
146.454 -3.61574 0
148.979 -3.734 0
149.181 0.551226 0
146.653 0.669651 0
147.717 -3.67466 0
149.08 -1.59121 0
147.917 0.610647 0
146.554 -1.47287 0
147.817 -1.53183 0
148.979 -3.734 0
151.505 -3.85392 0
151.71 0.431139 0
149.181 0.551226 0
150.242 -3.79376 0
151.607 -1.71122 0
150.445 0.491389 0
149.08 -1.59121 0
150.344 -1.65101 0
151.505 -3.85392 0
154.03 -3.9755 0
154.238 0.309402 0
151.71 0.431139 0
152.768 -3.9145 0
154.134 -1.83287 0
152.974 0.370476 0
151.607 -1.71122 0
152.871 -1.77184 0
154.03 -3.9755 0
156.556 -4.09871 0
156.766 0.186026 0
154.238 0.309402 0
155.293 -4.0369 0
156.661 -1.95617 0
155.502 0.247918 0
154.134 -1.83287 0
155.397 -1.89432 0
156.556 -4.09871 0
159.081 -4.22354 0
159.294 0.061025 0
156.766 0.186026 0
157.818 -4.16092 0
159.188 -2.08109 0
158.03 0.123728 0
156.661 -1.95617 0
157.924 -2.01842 0
159.081 -4.22354 0
161.606 -4.34999 0
161.822 -0.0655903 0
159.294 0.061025 0
160.344 -4.28656 0
161.714 -2.20762 0
160.558 -0.00208165 0
159.188 -2.08109 0
160.451 -2.14415 0
161.606 -4.34999 0
164.132 -4.47804 0
164.35 -0.193807 0
161.822 -0.0655903 0
162.869 -4.41381 0
164.241 -2.33575 0
163.086 -0.129499 0
161.714 -2.20762 0
162.978 -2.27149 0
164.132 -4.47804 0
166.657 -4.60768 0
166.878 -0.323615 0
164.35 -0.193807 0
165.394 -4.54266 0
166.768 -2.46548 0
165.614 -0.258513 0
164.241 -2.33575 0
165.504 -2.40042 0
166.657 -4.60768 0
169.182 -4.73889 0
169.406 -0.455 0
166.878 -0.323615 0
167.92 -4.67309 0
169.294 -2.59678 0
168.142 -0.389111 0
166.768 -2.46548 0
168.031 -2.53093 0
169.182 -4.73889 0
171.708 -4.87167 0
171.934 -0.58795 0
169.406 -0.455 0
170.445 -4.80509 0
171.821 -2.72965 0
170.67 -0.52128 0
169.294 -2.59678 0
170.558 -2.66302 0
171.708 -4.87167 0
174.233 -5.00601 0
174.462 -0.722455 0
171.934 -0.58795 0
172.97 -4.93865 0
174.348 -2.86407 0
173.198 -0.655009 0
171.821 -2.72965 0
173.084 -2.79666 0
174.233 -5.00601 0
176.758 -5.14189 0
176.99 -0.858501 0
174.462 -0.722455 0
175.496 -5.07376 0
176.874 -3.00003 0
175.726 -0.790286 0
174.348 -2.86407 0
175.611 -2.93186 0
176.758 -5.14189 0
179.284 -5.27929 0
179.518 -0.996078 0
176.99 -0.858501 0
178.021 -5.2104 0
179.401 -3.13752 0
178.254 -0.927099 0
176.874 -3.00003 0
178.138 -3.06859 0
179.284 -5.27929 0
181.809 -5.41821 0
182.046 -1.13517 0
179.518 -0.996078 0
180.546 -5.34856 0
181.927 -3.27653 0
180.782 -1.06544 0
179.401 -3.13752 0
180.664 -3.20684 0
181.809 -5.41821 0
184.334 -5.55864 0
184.574 -1.27577 0
182.046 -1.13517 0
183.072 -5.48824 0
184.454 -3.41705 0
183.31 -1.20528 0
181.927 -3.27653 0
183.191 -3.3466 0
184.334 -5.55864 0
186.86 -5.70056 0
187.101 -1.41786 0
184.574 -1.27577 0
185.597 -5.62941 0
186.98 -3.55906 0
185.837 -1.34663 0
184.454 -3.41705 0
185.717 -3.48787 0
186.86 -5.70056 0
189.385 -5.84396 0
189.629 -1.56144 0
187.101 -1.41786 0
188.122 -5.77208 0
189.507 -3.70255 0
188.365 -1.48947 0
186.98 -3.55906 0
188.244 -3.63062 0
189.385 -5.84396 0
191.91 -5.98883 0
192.157 -1.70648 0
189.629 -1.56144 0
190.647 -5.91622 0
192.033 -3.84751 0
190.893 -1.63378 0
189.507 -3.70255 0
190.77 -3.77484 0
191.91 -5.98883 0
194.435 -6.13516 0
194.684 -1.85298 0
192.157 -1.70648 0
193.173 -6.06182 0
194.56 -3.99392 0
193.421 -1.77955 0
192.033 -3.84751 0
193.297 -3.92053 0
194.435 -6.13516 0
196.961 -6.28294 0
197.212 -2.00093 0
194.684 -1.85298 0
195.698 -6.20887 0
197.086 -4.14178 0
195.948 -1.92678 0
194.56 -3.99392 0
195.823 -4.06767 0
196.961 -6.28294 0
199.486 -6.43215 0
199.74 -2.15031 0
197.212 -2.00093 0
198.223 -6.35736 0
199.613 -4.29108 0
198.476 -2.07544 0
197.086 -4.14178 0
198.35 -4.21625 0
199.486 -6.43215 0
202.011 -6.58277 0
202.267 -2.30112 0
199.74 -2.15031 0
200.748 -6.50728 0
202.139 -4.4418 0
201.004 -2.22554 0
199.613 -4.29108 0
200.876 -4.36626 0
202.011 -6.58277 0
204.536 -6.73481 0
204.795 -2.45333 0
202.267 -2.30112 0
203.274 -6.65862 0
204.666 -4.59392 0
203.531 -2.37705 0
202.139 -4.4418 0
203.402 -4.51768 0
204.536 -6.73481 0
207.061 -6.88825 0
207.322 -2.60694 0
204.795 -2.45333 0
205.799 -6.81136 0
207.192 -4.74745 0
206.059 -2.52996 0
204.666 -4.59392 0
205.929 -4.67051 0
207.061 -6.88825 0
209.586 -7.04307 0
209.85 -2.76193 0
207.322 -2.60694 0
208.324 -6.96549 0
209.718 -4.90235 0
208.586 -2.68426 0
207.192 -4.74745 0
208.455 -4.82473 0
209.586 -7.04307 0
212.112 -7.19926 0
212.377 -2.9183 0
209.85 -2.76193 0
210.849 -7.12099 0
212.244 -5.05864 0
211.114 -2.83994 0
209.718 -4.90235 0
210.981 -4.98033 0
212.112 -7.19926 0
214.637 -7.35682 0
214.905 -3.07603 0
212.377 -2.9183 0
213.374 -7.27787 0
214.771 -5.21628 0
213.641 -2.99699 0
212.244 -5.05864 0
213.508 -5.13729 0
214.637 -7.35682 0
217.162 -7.51572 0
217.432 -3.23511 0
214.905 -3.07603 0
215.899 -7.4361 0
217.297 -5.37527 0
216.168 -3.1554 0
214.771 -5.21628 0
216.034 -5.29561 0
217.162 -7.51572 0
219.687 -7.67596 0
219.959 -3.39552 0
217.432 -3.23511 0
218.424 -7.59568 0
219.823 -5.5356 0
218.696 -3.31515 0
217.297 -5.37527 0
218.56 -5.45527 0
219.687 -7.67596 0
222.212 -7.83753 0
222.487 -3.55726 0
219.959 -3.39552 0
220.949 -7.75658 0
222.349 -5.69726 0
221.223 -3.47623 0
219.823 -5.5356 0
221.086 -5.61627 0
222.212 -7.83753 0
224.737 -8.00041 0
225.014 -3.72032 0
222.487 -3.55726 0
223.475 -7.91881 0
224.876 -5.86023 0
223.75 -3.63863 0
222.349 -5.69726 0
223.613 -5.77858 0
224.737 -8.00041 0
227.262 -8.16459 0
227.541 -3.88467 0
225.014 -3.72032 0
226 -8.08234 0
227.402 -6.0245 0
226.278 -3.80233 0
224.876 -5.86023 0
226.139 -5.9422 0
227.262 -8.16459 0
229.787 -8.33007 0
230.069 -4.05032 0
227.541 -3.88467 0
228.525 -8.24717 0
229.928 -6.19006 0
228.805 -3.96733 0
227.402 -6.0245 0
228.665 -6.10712 0
229.787 -8.33007 0
232.312 -8.49682 0
232.596 -4.21724 0
230.069 -4.05032 0
231.05 -8.41328 0
232.454 -6.35689 0
231.332 -4.13362 0
229.928 -6.19006 0
231.191 -6.27332 0
232.312 -8.49682 0
234.837 -8.66483 0
235.123 -4.38542 0
232.596 -4.21724 0
233.575 -8.58066 0
234.98 -6.525 0
233.859 -4.30117 0
232.454 -6.35689 0
233.717 -6.44079 0
234.837 -8.66483 0
237.362 -8.8341 0
237.65 -4.55486 0
235.123 -4.38542 0
236.1 -8.74931 0
237.506 -6.69435 0
236.386 -4.46999 0
234.98 -6.525 0
236.243 -6.60952 0
237.362 -8.8341 0
239.887 -9.00461 0
240.177 -4.72554 0
237.65 -4.55486 0
238.625 -8.9192 0
240.032 -6.86495 0
238.914 -4.64005 0
237.506 -6.69435 0
238.769 -6.77949 0
239.887 -9.00461 0
242.412 -9.17634 0
242.704 -4.89745 0
240.177 -4.72554 0
241.15 -9.09032 0
242.558 -7.03677 0
241.441 -4.81135 0
240.032 -6.86495 0
241.295 -6.95071 0
242.412 -9.17634 0
244.937 -9.3493 0
245.231 -5.07058 0
242.704 -4.89745 0
243.675 -9.26267 0
245.084 -7.20981 0
243.968 -4.98387 0
242.558 -7.03677 0
243.821 -7.12314 0
244.937 -9.3493 0
247.462 -9.52346 0
247.758 -5.24491 0
245.231 -5.07058 0
246.2 -9.43623 0
247.61 -7.38406 0
246.495 -5.1576 0
245.084 -7.20981 0
246.347 -7.29679 0
247.462 -9.52346 0
249.987 -9.69882 0
250.285 -5.42044 0
247.758 -5.24491 0
248.725 -9.61099 0
250.136 -7.5595 0
249.022 -5.33253 0
247.61 -7.38406 0
248.873 -7.47163 0
249.987 -9.69882 0
252.512 -9.87535 0
252.812 -5.59714 0
250.285 -5.42044 0
251.25 -9.78694 0
252.662 -7.73612 0
251.549 -5.50864 0
250.136 -7.5595 0
251.399 -7.64767 0
252.512 -9.87535 0
255.037 -10.0531 0
255.339 -5.77502 0
252.812 -5.59714 0
253.775 -9.96406 0
255.188 -7.91392 0
254.076 -5.68593 0
252.662 -7.73612 0
253.925 -7.82488 0
255.037 -10.0531 0
257.562 -10.2319 0
257.866 -5.95405 0
255.339 -5.77502 0
256.3 -10.1423 0
257.714 -8.09286 0
256.602 -5.86439 0
255.188 -7.91392 0
256.451 -8.00325 0
257.562 -10.2319 0
260.087 -10.4119 0
260.393 -6.13422 0
257.866 -5.95405 0
258.825 -10.3218 0
260.24 -8.27296 0
259.129 -6.04399 0
257.714 -8.09286 0
258.977 -8.18277 0
260.087 -10.4119 0
262.612 -10.5931 0
262.92 -6.31553 0
260.393 -6.13422 0
261.349 -10.5024 0
262.766 -8.45418 0
261.656 -6.22474 0
260.24 -8.27296 0
261.503 -8.36343 0
262.612 -10.5931 0
265.137 -10.7753 0
265.446 -6.49796 0
262.92 -6.31553 0
263.874 -10.6841 0
265.292 -8.63653 0
264.183 -6.40661 0
262.766 -8.45418 0
264.029 -8.54522 0
265.137 -10.7753 0
267.662 -10.9587 0
267.973 -6.6815 0
265.446 -6.49796 0
266.399 -10.8669 0
267.817 -8.81999 0
266.71 -6.58959 0
265.292 -8.63653 0
266.555 -8.72812 0
267.662 -10.9587 0
270.187 -11.1432 0
270.5 -6.86614 0
267.973 -6.6815 0
268.924 -11.0508 0
270.343 -9.00454 0
269.236 -6.77368 0
267.817 -8.81999 0
269.08 -8.91213 0
270.187 -11.1432 0
272.712 -11.3287 0
273.027 -7.05186 0
270.5 -6.86614 0
271.449 -11.2358 0
272.869 -9.19018 0
271.763 -6.95886 0
270.343 -9.00454 0
271.606 -9.09723 0
272.712 -11.3287 0
275.236 -11.5154 0
275.553 -7.23865 0
273.027 -7.05186 0
273.974 -11.4219 0
275.395 -9.3769 0
274.29 -7.14512 0
272.869 -9.19018 0
274.132 -9.28341 0
275.236 -11.5154 0
277.761 -11.7031 0
278.08 -7.4265 0
275.553 -7.23865 0
276.499 -11.6091 0
277.921 -9.56467 0
276.817 -7.33244 0
275.395 -9.3769 0
276.658 -9.47065 0
277.761 -11.7031 0
280.286 -11.8918 0
280.606 -7.61541 0
278.08 -7.4265 0
279.024 -11.7973 0
280.446 -9.75349 0
279.343 -7.52082 0
277.921 -9.56467 0
279.183 -9.65895 0
280.286 -11.8918 0
282.811 -12.0816 0
283.133 -7.80535 0
280.606 -7.61541 0
281.549 -11.9866 0
282.972 -9.94335 0
281.87 -7.71025 0
280.446 -9.75349 0
281.709 -9.84829 0
282.811 -12.0816 0
285.336 -12.2724 0
285.66 -7.99631 0
283.133 -7.80535 0
284.073 -12.1768 0
285.498 -10.1342 0
284.396 -7.9007 0
282.972 -9.94335 0
284.235 -10.0387 0
285.336 -12.2724 0
287.861 -12.4642 0
288.186 -8.18829 0
285.66 -7.99631 0
286.598 -12.3682 0
288.023 -10.3261 0
286.923 -8.09217 0
285.498 -10.1342 0
286.761 -10.2301 0
287.861 -12.4642 0
290.386 -12.657 0
290.713 -8.38126 0
288.186 -8.18829 0
289.123 -12.5605 0
290.549 -10.519 0
289.449 -8.28465 0
288.023 -10.3261 0
289.286 -10.4225 0
290.386 -12.657 0
292.91 -12.8508 0
293.239 -8.57523 0
290.713 -8.38126 0
291.648 -12.7538 0
293.075 -10.7129 0
291.976 -8.47812 0
290.549 -10.519 0
291.812 -10.6159 0
292.91 -12.8508 0
295.435 -13.0456 0
295.766 -8.77017 0
293.239 -8.57523 0
294.173 -12.9481 0
295.6 -10.9078 0
294.502 -8.67258 0
293.075 -10.7129 0
294.338 -10.8102 0
295.435 -13.0456 0
297.96 -13.2414 0
298.292 -8.96608 0
295.766 -8.77017 0
296.698 -13.1434 0
298.126 -11.1036 0
297.029 -8.86801 0
295.6 -10.9078 0
296.863 -11.0056 0
297.96 -13.2414 0
300.485 -13.4381 0
300.818 -9.16294 0
298.292 -8.96608 0
299.222 -13.3396 0
300.652 -11.3004 0
299.555 -9.06439 0
298.126 -11.1036 0
299.389 -11.2019 0
300.485 -13.4381 0
303.01 -13.6357 0
303.345 -9.36074 0
300.818 -9.16294 0
301.747 -13.5368 0
303.177 -11.4981 0
302.082 -9.26172 0
300.652 -11.3004 0
301.915 -11.3992 0
303.01 -13.6357 0
305.534 -13.8343 0
305.871 -9.55947 0
303.345 -9.36074 0
304.272 -13.7349 0
305.703 -11.6968 0
304.608 -9.45999 0
303.177 -11.4981 0
304.44 -11.5973 0
305.534 -13.8343 0
308.059 -14.0338 0
308.398 -9.75912 0
305.871 -9.55947 0
306.797 -13.9339 0
308.229 -11.8964 0
307.134 -9.65918 0
305.703 -11.6968 0
306.966 -11.7965 0
308.059 -14.0338 0
310.584 -14.2342 0
310.924 -9.95967 0
308.398 -9.75912 0
309.322 -14.1339 0
310.754 -12.0968 0
309.661 -9.85928 0
308.229 -11.8964 0
309.491 -11.9965 0
310.584 -14.2342 0
313.109 -14.4355 0
313.45 -10.1611 0
310.924 -9.95967 0
311.847 -14.3347 0
313.28 -12.2982 0
312.187 -10.0603 0
310.754 -12.0968 0
312.017 -12.1974 0
313.109 -14.4355 0
315.634 -14.6376 0
315.977 -10.3634 0
313.45 -10.1611 0
314.371 -14.5365 0
315.805 -12.5005 0
314.713 -10.2622 0
313.28 -12.2982 0
314.542 -12.3992 0
315.634 -14.6376 0
318.159 -14.8407 0
318.503 -10.5666 0
315.977 -10.3634 0
316.896 -14.7391 0
318.331 -12.7036 0
317.24 -10.4649 0
315.805 -12.5005 0
317.068 -12.6019 0
318.159 -14.8407 0
320.683 -15.0446 0
321.029 -10.7707 0
318.503 -10.5666 0
319.421 -14.9425 0
320.856 -12.9076 0
319.766 -10.6685 0
318.331 -12.7036 0
319.594 -12.8055 0
320.683 -15.0446 0
323.208 -15.2493 0
323.555 -10.9756 0
321.029 -10.7707 0
321.946 -15.1469 0
323.382 -13.1124 0
322.292 -10.873 0
320.856 -12.9076 0
322.119 -13.0099 0
323.208 -15.2493 0
325.733 -15.4549 0
326.082 -11.1813 0
323.555 -10.9756 0
324.471 -15.352 0
325.907 -13.318 0
324.818 -11.0783 0
323.382 -13.1124 0
324.645 -13.2151 0
325.733 -15.4549 0
328.258 -15.6613 0
328.608 -11.3878 0
326.082 -11.1813 0
326.996 -15.558 0
328.433 -13.5245 0
327.345 -11.2845 0
325.907 -13.318 0
327.17 -13.4212 0
328.258 -15.6613 0
330.783 -15.8685 0
331.134 -11.5952 0
328.608 -11.3878 0
329.52 -15.7648 0
330.958 -13.7318 0
329.871 -11.4914 0
328.433 -13.5245 0
329.696 -13.628 0
330.783 -15.8685 0
333.308 -16.0766 0
333.66 -11.8034 0
331.134 -11.5952 0
332.045 -15.9725 0
333.484 -13.9399 0
332.397 -11.6992 0
330.958 -13.7318 0
332.221 -13.8357 0
333.308 -16.0766 0
335.833 -16.2854 0
336.186 -12.0123 0
333.66 -11.8034 0
334.57 -16.1809 0
336.009 -14.1487 0
334.923 -11.9077 0
333.484 -13.9399 0
334.747 -14.0442 0
335.833 -16.2854 0
338.357 -16.4949 0
338.712 -12.222 0
336.186 -12.0123 0
337.095 -16.39 0
338.535 -14.3584 0
337.449 -12.117 0
336.009 -14.1487 0
337.272 -14.2535 0
338.357 -16.4949 0
340.882 -16.7053 0
341.239 -12.4325 0
338.712 -12.222 0
339.62 -16.6 0
341.061 -14.5688 0
339.976 -12.3271 0
338.535 -14.3584 0
339.798 -14.4635 0
340.882 -16.7053 0
343.407 -16.9163 0
343.765 -12.6437 0
341.239 -12.4325 0
342.145 -16.8107 0
343.586 -14.7799 0
342.502 -12.538 0
341.061 -14.5688 0
342.323 -14.6743 0
343.407 -16.9163 0
345.932 -17.1282 0
346.291 -12.8556 0
343.765 -12.6437 0
344.67 -17.0222 0
346.112 -14.9918 0
345.028 -12.7496 0
343.586 -14.7799 0
344.849 -14.8858 0
345.932 -17.1282 0
348.457 -17.3407 0
348.817 -13.0683 0
346.291 -12.8556 0
347.195 -17.2343 0
348.637 -15.2044 0
347.554 -12.9619 0
346.112 -14.9918 0
347.374 -15.098 0
348.457 -17.3407 0
350.982 -17.554 0
351.343 -13.2817 0
348.817 -13.0683 0
349.719 -17.4473 0
351.163 -15.4178 0
350.08 -13.1749 0
348.637 -15.2044 0
349.9 -15.311 0
350.982 -17.554 0
353.507 -17.7679 0
353.869 -13.4958 0
351.343 -13.2817 0
352.244 -17.6609 0
353.688 -15.6318 0
352.606 -13.3887 0
351.163 -15.4178 0
352.425 -15.5247 0
353.507 -17.7679 0
356.032 -17.9826 0
356.395 -13.7106 0
353.869 -13.4958 0
354.769 -17.8752 0
356.214 -15.8465 0
355.132 -13.6031 0
353.688 -15.6318 0
354.951 -15.7391 0
356.032 -17.9826 0
358.557 -18.1979 0
358.921 -13.926 0
356.395 -13.7106 0
357.294 -18.0902 0
358.739 -16.0619 0
357.658 -13.8182 0
356.214 -15.8465 0
357.476 -15.9541 0
358.557 -18.1979 0
361.082 -18.4139 0
361.447 -14.1422 0
358.921 -13.926 0
359.819 -18.3058 0
361.265 -16.278 0
360.184 -14.034 0
358.739 -16.0619 0
360.002 -16.1699 0
361.082 -18.4139 0
363.607 -18.6306 0
363.974 -14.3589 0
361.447 -14.1422 0
362.344 -18.5222 0
363.79 -16.4947 0
362.71 -14.2505 0
361.265 -16.278 0
362.527 -16.3863 0
363.607 -18.6306 0
366.132 -18.8479 0
366.5 -14.5764 0
363.974 -14.3589 0
364.869 -18.7391 0
366.316 -16.712 0
365.237 -14.4676 0
363.79 -16.4947 0
365.053 -16.6033 0
366.132 -18.8479 0
368.657 -19.0658 0
369.026 -14.7944 0
366.5 -14.5764 0
367.394 -18.9567 0
368.841 -16.93 0
367.763 -14.6853 0
366.316 -16.712 0
367.578 -16.821 0
368.657 -19.0658 0
371.182 -19.2843 0
371.552 -15.0131 0
369.026 -14.7944 0
369.919 -19.175 0
371.367 -17.1486 0
370.289 -14.9037 0
368.841 -16.93 0
370.104 -17.0393 0
371.182 -19.2843 0
373.707 -19.5035 0
374.078 -15.2323 0
371.552 -15.0131 0
372.444 -19.3938 0
373.892 -17.3678 0
372.815 -15.1226 0
371.367 -17.1486 0
372.63 -17.2582 0
373.707 -19.5035 0
376.232 -19.7232 0
376.604 -15.4522 0
374.078 -15.2323 0
374.969 -19.6133 0
376.418 -17.5876 0
375.341 -15.3422 0
373.892 -17.3678 0
375.155 -17.4777 0
376.232 -19.7232 0
378.757 -19.9435 0
379.13 -15.6726 0
376.604 -15.4522 0
377.494 -19.8333 0
378.944 -17.808 0
377.867 -15.5623 0
376.418 -17.5876 0
377.681 -17.6978 0
378.757 -19.9435 0
381.282 -20.1644 0
381.656 -15.8936 0
379.13 -15.6726 0
380.02 -20.0539 0
381.469 -18.029 0
380.393 -15.7831 0
378.944 -17.808 0
380.206 -17.9184 0
381.282 -20.1644 0
383.807 -20.3859 0
384.182 -16.1152 0
381.656 -15.8936 0
382.545 -20.2751 0
383.995 -18.2505 0
382.919 -16.0044 0
381.469 -18.029 0
382.732 -18.1397 0
383.807 -20.3859 0
386.332 -20.6079 0
386.708 -16.3373 0
384.182 -16.1152 0
385.07 -20.4968 0
386.52 -18.4725 0
385.445 -16.2262 0
383.995 -18.2505 0
385.258 -18.3615 0
386.332 -20.6079 0
388.858 -20.8304 0
389.234 -16.56 0
386.708 -16.3373 0
387.595 -20.7191 0
389.046 -18.6951 0
387.971 -16.4486 0
386.52 -18.4725 0
387.783 -18.5838 0
388.858 -20.8304 0
391.383 -21.0535 0
391.76 -16.7831 0
389.234 -16.56 0
390.12 -20.9419 0
391.572 -18.9182 0
390.497 -16.6715 0
389.046 -18.6951 0
390.309 -18.8066 0
391.383 -21.0535 0
393.908 -21.277 0
394.286 -17.0068 0
391.76 -16.7831 0
392.645 -21.1652 0
394.097 -19.1419 0
393.023 -16.8949 0
391.572 -18.9182 0
392.834 -19.03 0
393.908 -21.277 0
396.433 -21.5011 0
396.812 -17.231 0
394.286 -17.0068 0
395.171 -21.389 0
396.623 -19.366 0
395.549 -17.1188 0
394.097 -19.1419 0
395.36 -19.2539 0
396.433 -21.5011 0
398.959 -21.7257 0
399.339 -17.4556 0
396.812 -17.231 0
397.696 -21.6133 0
399.149 -19.5906 0
398.075 -17.3432 0
396.623 -19.366 0
397.886 -19.4782 0
398.959 -21.7257 0
401.484 -21.9507 0
401.865 -17.6807 0
399.339 -17.4556 0
400.221 -21.8381 0
401.674 -19.8157 0
400.602 -17.5681 0
399.149 -19.5906 0
400.412 -19.7031 0
401.484 -21.9507 0
404.009 -22.1762 0
404.391 -17.9063 0
401.865 -17.6807 0
402.747 -22.0634 0
404.2 -20.0412 0
403.128 -17.7935 0
401.674 -19.8157 0
402.937 -19.9284 0
404.009 -22.1762 0
406.535 -22.4021 0
406.917 -18.1323 0
404.391 -17.9063 0
405.272 -22.2891 0
406.726 -20.2672 0
405.654 -18.0193 0
404.2 -20.0412 0
405.463 -20.1541 0
406.535 -22.4021 0
409.06 -22.6285 0
409.443 -18.3588 0
406.917 -18.1323 0
407.797 -22.5152 0
409.252 -20.4936 0
408.18 -18.2455 0
406.726 -20.2672 0
407.989 -20.3803 0
409.06 -22.6285 0
411.586 -22.8553 0
411.969 -18.5857 0
409.443 -18.3588 0
410.323 -22.7418 0
411.777 -20.7205 0
410.706 -18.4722 0
409.252 -20.4936 0
410.515 -20.607 0
411.586 -22.8553 0
414.111 -23.0825 0
414.495 -18.813 0
411.969 -18.5857 0
412.848 -22.9688 0
414.303 -20.9477 0
413.232 -18.6993 0
411.777 -20.7205 0
413.04 -20.834 0
414.111 -23.0825 0
416.637 -23.3101 0
417.022 -19.0407 0
414.495 -18.813 0
415.374 -23.1963 0
416.829 -21.1754 0
415.758 -18.9268 0
414.303 -20.9477 0
415.566 -21.0615 0
416.637 -23.3101 0
419.162 -23.5381 0
419.548 -19.2688 0
417.022 -19.0407 0
417.899 -23.4241 0
419.355 -21.4034 0
418.285 -19.1547 0
416.829 -21.1754 0
418.092 -21.2894 0
419.162 -23.5381 0
421.688 -23.7665 0
422.074 -19.4973 0
419.548 -19.2688 0
420.425 -23.6523 0
421.881 -21.6319 0
420.811 -19.383 0
419.355 -21.4034 0
420.618 -21.5176 0
421.688 -23.7665 0
424.213 -23.9953 0
424.6 -19.7261 0
422.074 -19.4973 0
422.951 -23.8808 0
424.407 -21.8607 0
423.337 -19.6117 0
421.881 -21.6319 0
423.144 -21.7462 0
424.213 -23.9953 0
426.739 -24.2244 0
427.126 -19.9553 0
424.6 -19.7261 0
425.476 -24.1098 0
426.933 -22.0898 0
425.863 -19.8407 0
424.407 -21.8607 0
425.67 -21.9752 0
426.739 -24.2244 0
429.265 -24.4538 0
429.653 -20.1849 0
427.126 -19.9553 0
428.002 -24.3391 0
429.459 -22.3193 0
428.39 -20.0701 0
426.933 -22.0898 0
428.196 -22.2045 0
429.265 -24.4538 0
431.791 -24.6836 0
432.179 -20.4147 0
429.653 -20.1849 0
430.528 -24.5687 0
431.985 -22.5491 0
430.916 -20.2998 0
429.459 -22.3193 0
430.722 -22.4342 0
431.791 -24.6836 0
434.316 -24.9137 0
434.705 -20.6449 0
432.179 -20.4147 0
433.054 -24.7986 0
434.511 -22.7793 0
433.442 -20.5298 0
431.985 -22.5491 0
433.248 -22.6642 0
434.316 -24.9137 0
436.842 -25.1441 0
437.232 -20.8754 0
434.705 -20.6449 0
435.579 -25.0289 0
437.037 -23.0097 0
435.969 -20.7601 0
434.511 -22.7793 0
435.774 -22.8945 0
436.842 -25.1441 0
439.368 -25.3748 0
439.758 -21.1062 0
437.232 -20.8754 0
438.105 -25.2594 0
439.563 -23.2405 0
438.495 -20.9907 0
437.037 -23.0097 0
438.3 -23.1251 0
439.368 -25.3748 0
441.894 -25.6058 0
442.284 -21.3372 0
439.758 -21.1062 0
440.631 -25.4903 0
442.089 -23.4715 0
441.021 -21.2216 0
439.563 -23.2405 0
440.826 -23.3559 0
441.894 -25.6058 0
444.42 -25.837 0
444.811 -21.5685 0
442.284 -21.3372 0
443.157 -25.7214 0
444.616 -23.7028 0
443.548 -21.4528 0
442.089 -23.4715 0
443.352 -23.5871 0
444.42 -25.837 0
446.946 -26.0686 0
447.337 -21.8001 0
444.811 -21.5685 0
445.683 -25.9528 0
447.142 -23.9343 0
446.074 -21.6843 0
444.616 -23.7028 0
445.879 -23.8185 0
446.946 -26.0686 0
449.472 -26.3003 0
449.864 -22.0319 0
447.337 -21.8001 0
448.209 -26.1844 0
449.668 -24.1661 0
448.601 -21.916 0
447.142 -23.9343 0
448.405 -24.0502 0
449.472 -26.3003 0
451.998 -26.5323 0
452.39 -22.264 0
449.864 -22.0319 0
450.735 -26.4163 0
452.194 -24.3981 0
451.127 -22.1479 0
449.668 -24.1661 0
450.931 -24.2821 0
451.998 -26.5323 0
454.525 -26.7645 0
454.917 -22.4963 0
452.39 -22.264 0
453.261 -26.6484 0
454.721 -24.6304 0
453.654 -22.3801 0
452.194 -24.3981 0
453.458 -24.5142 0
454.525 -26.7645 0
457.051 -26.9969 0
457.443 -22.7288 0
454.917 -22.4963 0
455.788 -26.8807 0
457.247 -24.8628 0
456.18 -22.6125 0
454.721 -24.6304 0
455.984 -24.7466 0
457.051 -26.9969 0
459.577 -27.2296 0
459.97 -22.9615 0
457.443 -22.7288 0
458.314 -27.1132 0
459.774 -25.0955 0
458.707 -22.8451 0
457.247 -24.8628 0
458.51 -24.9791 0
459.577 -27.2296 0
462.103 -27.4624 0
462.497 -23.1943 0
459.97 -22.9615 0
460.84 -27.346 0
462.3 -25.3283 0
461.233 -23.0779 0
459.774 -25.0955 0
461.037 -25.2119 0
462.103 -27.4624 0
464.63 -27.6954 0
465.023 -23.4274 0
462.497 -23.1943 0
463.367 -27.5789 0
464.827 -25.5614 0
463.76 -23.3108 0
462.3 -25.3283 0
463.563 -25.4448 0
464.63 -27.6954 0
467.156 -27.9285 0
467.55 -23.6606 0
465.023 -23.4274 0
465.893 -27.8119 0
467.353 -25.7945 0
466.287 -23.5439 0
464.827 -25.5614 0
466.09 -25.6779 0
467.156 -27.9285 0
469.683 -28.1618 0
470.077 -23.8939 0
467.55 -23.6606 0
468.42 -28.0452 0
469.88 -26.0279 0
468.813 -23.7772 0
467.353 -25.7945 0
468.617 -25.9112 0
469.683 -28.1618 0
472.209 -28.3953 0
472.604 -24.1274 0
470.077 -23.8939 0
470.946 -28.2785 0
472.407 -26.2613 0
471.34 -24.0106 0
469.88 -26.0279 0
471.143 -26.1446 0
472.209 -28.3953 0
474.736 -28.6288 0
475.13 -24.361 0
472.604 -24.1274 0
473.473 -28.512 0
474.933 -26.4949 0
473.867 -24.2442 0
472.407 -26.2613 0
473.67 -26.3781 0
474.736 -28.6288 0
477.263 -28.8625 0
477.657 -24.5947 0
475.13 -24.361 0
475.999 -28.7456 0
477.46 -26.7286 0
476.394 -24.4779 0
474.933 -26.4949 0
476.197 -26.6117 0
477.263 -28.8625 0
479.789 -29.0963 0
480.184 -24.8286 0
477.657 -24.5947 0
478.526 -28.9794 0
479.987 -26.9624 0
478.921 -24.7116 0
477.46 -26.7286 0
478.723 -26.8455 0
479.789 -29.0963 0
482.316 -29.3301 0
482.711 -25.0625 0
480.184 -24.8286 0
481.053 -29.2132 0
482.514 -27.1963 0
481.448 -24.9455 0
479.987 -26.9624 0
481.25 -27.0794 0
482.316 -29.3301 0
484.843 -29.5641 0
485.238 -25.2965 0
482.711 -25.0625 0
483.58 -29.4471 0
485.041 -27.4303 0
483.975 -25.1795 0
482.514 -27.1963 0
483.777 -27.3133 0
484.843 -29.5641 0
487.37 -29.7981 0
487.765 -25.5305 0
485.238 -25.2965 0
486.107 -29.6811 0
487.568 -27.6643 0
486.502 -25.4135 0
485.041 -27.4303 0
486.304 -27.5473 0
487.37 -29.7981 0
489.897 -30.0322 0
490.292 -25.7647 0
487.765 -25.5305 0
488.634 -29.9152 0
490.095 -27.8984 0
489.029 -25.6476 0
487.568 -27.6643 0
488.831 -27.7814 0
489.897 -30.0322 0
492.424 -30.2664 0
492.819 -25.9989 0
490.292 -25.7647 0
491.161 -30.1493 0
492.622 -28.1326 0
491.556 -25.8818 0
490.095 -27.8984 0
491.358 -28.0155 0
492.424 -30.2664 0
494.951 -30.5008 0
495.347 -26.2333 0
492.819 -25.9989 0
493.687 -30.3836 0
495.149 -28.3671 0
494.083 -26.1161 0
492.622 -28.1326 0
493.885 -28.2498 0
494.951 -30.5008 0
497.478 -30.7361 0
497.874 -26.4677 0
495.347 -26.2333 0
496.214 -30.6182 0
497.676 -28.6019 0
496.61 -26.3505 0
495.149 -28.3671 0
496.413 -28.4844 0
0 4.28571 0
2.52889 4.28314 0
2.53272 8.5709 0
0 8.57143 0
1.26458 4.2848 0
2.53088 6.42727 0
1.26644 8.5716 0
0 6.42857 0
1.26549 6.4283 0
2.52889 4.28314 0
5.05702 4.27828 0
5.06503 8.56733 0
2.53272 8.5709 0
3.793 4.28095 0
5.06116 6.42309 0
3.79891 8.56946 0
2.53088 6.42727 0
3.79608 6.4255 0
5.05702 4.27828 0
7.58506 4.2716 0
7.5971 8.56114 0
5.06503 8.56733 0
6.32103 4.27518 0
7.5912 6.41664 0
6.33108 8.56455 0
5.06116 6.42309 0
6.32619 6.42014 0
7.58506 4.2716 0
10.1131 4.26289 0
10.1291 8.55258 0
7.5971 8.56114 0
8.84909 4.26751 0
10.1212 6.40799 0
8.86311 8.55715 0
7.5912 6.41664 0
8.8562 6.41259 0
10.1131 4.26289 0
12.6413 4.25201 0
12.6611 8.54169 0
10.1291 8.55258 0
11.3772 4.25773 0
12.6513 6.3971 0
11.3951 8.54742 0
10.1212 6.40799 0
11.3862 6.40282 0
12.6413 4.25201 0
15.1695 4.23888 0
15.1932 8.52851 0
12.6611 8.54169 0
13.9054 4.24573 0
15.1814 6.38393 0
13.9272 8.53538 0
12.6513 6.3971 0
13.9163 6.3908 0
15.1695 4.23888 0
17.6978 4.22346 0
17.7253 8.51303 0
15.1932 8.52851 0
16.4336 4.23146 0
17.7116 6.36849 0
16.4593 8.52105 0
15.1814 6.38393 0
16.4465 6.3765 0
17.6978 4.22346 0
20.2261 4.20577 0
20.2575 8.49527 0
17.7253 8.51303 0
18.9619 4.2149 0
20.2418 6.35076 0
18.9914 8.50443 0
17.7116 6.36849 0
18.9767 6.35991 0
20.2261 4.20577 0
22.7544 4.18579 0
22.7897 8.47523 0
20.2575 8.49527 0
21.4903 4.19606 0
22.7721 6.33076 0
21.5236 8.48554 0
20.2418 6.35076 0
21.507 6.34104 0
22.7544 4.18579 0
25.2828 4.16356 0
25.3219 8.45294 0
22.7897 8.47523 0
24.0186 4.17496 0
25.3024 6.30849 0
24.0558 8.46437 0
22.7721 6.33076 0
24.0372 6.3199 0
25.2828 4.16356 0
27.8112 4.13906 0
27.8541 8.42838 0
25.3219 8.45294 0
26.547 4.15159 0
27.8327 6.28396 0
26.588 8.44094 0
25.3024 6.30849 0
26.5675 6.29651 0
27.8112 4.13906 0
30.3397 4.11233 0
30.3863 8.40159 0
27.8541 8.42838 0
29.0755 4.12598 0
30.363 6.2572 0
29.1202 8.41526 0
27.8327 6.28396 0
29.0979 6.27086 0
30.3397 4.11233 0
32.8681 4.08337 0
32.9186 8.37256 0
30.3863 8.40159 0
31.6039 4.09813 0
32.8934 6.2282 0
31.6524 8.38735 0
30.363 6.2572 0
31.6282 6.24298 0
32.8681 4.08337 0
35.3966 4.05219 0
35.4508 8.34132 0
32.9186 8.37256 0
34.1324 4.06806 0
35.4238 6.19699 0
34.1847 8.35722 0
32.8934 6.2282 0
34.1586 6.21287 0
35.3966 4.05219 0
37.9252 4.01881 0
37.983 8.30787 0
35.4508 8.34132 0
36.6609 4.03577 0
37.9541 6.16357 0
36.7169 8.32487 0
35.4238 6.19699 0
36.6889 6.18056 0
37.9252 4.01881 0
40.4537 3.98324 0
40.5153 8.27222 0
37.983 8.30787 0
39.1894 4.0013 0
40.4845 6.12796 0
39.2492 8.29032 0
37.9541 6.16357 0
39.2193 6.14604 0
40.4537 3.98324 0
42.9822 3.94549 0
43.0475 8.2344 0
40.5153 8.27222 0
41.718 3.96463 0
43.0149 6.09017 0
41.7814 8.25358 0
40.4845 6.12796 0
41.7497 6.10934 0
42.9822 3.94549 0
45.5108 3.90557 0
45.5798 8.1944 0
43.0475 8.2344 0
44.2465 3.9258 0
45.5453 6.05022 0
44.3136 8.21467 0
43.0149 6.09017 0
44.2801 6.07047 0
45.5108 3.90557 0
48.0394 3.86349 0
48.112 8.15224 0
45.5798 8.1944 0
46.7751 3.8848 0
48.0757 6.0081 0
46.8459 8.17359 0
45.5453 6.05022 0
46.8105 6.02943 0
48.0394 3.86349 0
50.568 3.81928 0
50.6442 8.10794 0
48.112 8.15224 0
49.3037 3.84165 0
50.6062 5.96384 0
49.3781 8.13036 0
48.0757 6.0081 0
49.341 5.98624 0
50.568 3.81928 0
53.0966 3.77293 0
53.1765 8.06151 0
50.6442 8.10794 0
51.8323 3.79637 0
53.1366 5.91745 0
51.9103 8.08499 0
50.6062 5.96384 0
51.8714 5.94091 0
53.0966 3.77293 0
55.6253 3.72446 0
55.7087 8.01295 0
53.1765 8.06151 0
54.361 3.74896 0
55.667 5.86893 0
54.4426 8.0375 0
53.1366 5.91745 0
54.4018 5.89345 0
55.6253 3.72446 0
58.1539 3.67389 0
58.2409 7.96229 0
55.7087 8.01295 0
56.8896 3.69944 0
58.1974 5.81831 0
56.9748 7.98788 0
55.667 5.86893 0
56.9322 5.84389 0
58.1539 3.67389 0
60.6826 3.62122 0
60.7731 7.90952 0
58.2409 7.96229 0
59.4182 3.64781 0
60.7279 5.76559 0
59.507 7.93617 0
58.1974 5.81831 0
59.4626 5.79221 0
60.6826 3.62122 0
63.2112 3.56646 0
63.3052 7.85467 0
60.7731 7.90952 0
61.9469 3.5941 0
63.2583 5.71079 0
62.0392 7.88236 0
60.7279 5.76559 0
61.9931 5.73845 0
63.2112 3.56646 0
65.7399 3.50964 0
65.8374 7.79775 0
63.3052 7.85467 0
64.4756 3.53831 0
65.7887 5.65392 0
64.5713 7.82647 0
63.2583 5.71079 0
64.5235 5.68261 0
65.7399 3.50964 0
68.2686 3.45075 0
68.3696 7.73877 0
65.8374 7.79775 0
67.0042 3.48045 0
68.3191 5.59498 0
67.1035 7.76852 0
65.7887 5.65392 0
67.0539 5.62471 0
68.2686 3.45075 0
70.7972 3.38982 0
70.9017 7.67773 0
68.3696 7.73877 0
69.5329 3.42054 0
70.8495 5.534 0
69.6356 7.70851 0
68.3191 5.59498 0
69.5843 5.56474 0
70.7972 3.38982 0
73.3259 3.32686 0
73.4338 7.61466 0
70.9017 7.67773 0
72.0616 3.35859 0
73.3799 5.47098 0
72.1677 7.64645 0
70.8495 5.534 0
72.1147 5.50274 0
73.3259 3.32686 0
75.8546 3.26187 0
75.9659 7.54957 0
73.4338 7.61466 0
74.5903 3.29462 0
75.9103 5.40593 0
74.6998 7.58237 0
73.3799 5.47098 0
74.6451 5.43871 0
75.8546 3.26187 0
78.3833 3.19487 0
78.498 7.48246 0
75.9659 7.54957 0
77.1189 3.22862 0
78.4407 5.33888 0
77.2319 7.51626 0
75.9103 5.40593 0
77.1755 5.37266 0
78.3833 3.19487 0
80.9119 3.12587 0
81.03 7.41334 0
78.498 7.48246 0
79.6476 3.16062 0
80.971 5.26982 0
79.764 7.44815 0
78.4407 5.33888 0
79.7058 5.3046 0
80.9119 3.12587 0
83.4406 3.05489 0
83.562 7.34224 0
81.03 7.41334 0
82.1763 3.09063 0
83.5014 5.19878 0
82.296 7.37804 0
80.971 5.26982 0
82.2362 5.23455 0
83.4406 3.05489 0
85.9693 2.98192 0
86.094 7.26917 0
83.562 7.34224 0
84.7049 3.01865 0
86.0317 5.12576 0
84.828 7.30595 0
83.5014 5.19878 0
84.7665 5.16251 0
85.9693 2.98192 0
88.4979 2.907 0
88.626 7.19413 0
86.094 7.26917 0
87.2336 2.94471 0
88.562 5.05077 0
87.36 7.23189 0
86.0317 5.12576 0
87.2968 5.08851 0
88.4979 2.907 0
91.0266 2.83013 0
91.158 7.11713 0
88.626 7.19413 0
89.7622 2.86881 0
91.0923 4.97384 0
89.892 7.15587 0
88.562 5.05077 0
89.8272 5.01255 0
91.0266 2.83013 0
93.5552 2.75131 0
93.6899 7.03819 0
91.158 7.11713 0
92.2909 2.79096 0
93.6226 4.89496 0
92.4239 7.0779 0
91.0923 4.97384 0
92.3574 4.93464 0
93.5552 2.75131 0
96.0838 2.67057 0
96.2218 6.95733 0
93.6899 7.03819 0
94.8195 2.71118 0
96.1528 4.81416 0
94.9558 6.998 0
93.6226 4.89496 0
94.8877 4.8548 0
96.0838 2.67057 0
98.6125 2.58792 0
98.7536 6.87455 0
96.2218 6.95733 0
97.3482 2.62948 0
98.6831 4.73144 0
97.4877 6.91618 0
96.1528 4.81416 0
97.418 4.77304 0
98.6125 2.58792 0
101.141 2.50336 0
101.285 6.78986 0
98.7536 6.87455 0
99.8768 2.54587 0
101.213 4.64681 0
100.02 6.83244 0
98.6831 4.73144 0
99.9482 4.68936 0
101.141 2.50336 0
103.67 2.41691 0
103.817 6.70329 0
101.285 6.78986 0
102.405 2.46037 0
103.743 4.5603 0
102.551 6.74681 0
101.213 4.64681 0
102.478 4.60379 0
103.67 2.41691 0
106.198 2.32858 0
106.349 6.61483 0
103.817 6.70329 0
104.934 2.37298 0
106.274 4.4719 0
105.083 6.65929 0
103.743 4.5603 0
105.009 4.51634 0
106.198 2.32858 0
108.727 2.23839 0
108.881 6.5245 0
106.349 6.61483 0
107.463 2.28372 0
108.804 4.38164 0
107.615 6.5699 0
106.274 4.4719 0
107.539 4.42701 0
108.727 2.23839 0
111.255 2.14634 0
111.412 6.43232 0
108.881 6.5245 0
109.991 2.19259 0
111.334 4.28953 0
110.147 6.47864 0
108.804 4.38164 0
110.069 4.33582 0
111.255 2.14634 0
113.784 2.05245 0
113.944 6.33829 0
111.412 6.43232 0
112.52 2.09962 0
113.864 4.19556 0
112.678 6.38553 0
111.334 4.28953 0
112.599 4.24277 0
113.784 2.05245 0
116.312 1.95672 0
116.476 6.24243 0
113.944 6.33829 0
115.048 2.00481 0
116.394 4.09977 0
115.21 6.29059 0
113.864 4.19556 0
115.129 4.1479 0
116.312 1.95672 0
118.841 1.85918 0
119.007 6.14475 0
116.476 6.24243 0
117.577 1.90818 0
118.924 4.00216 0
117.741 6.19382 0
116.394 4.09977 0
117.659 4.05119 0
118.841 1.85918 0
121.369 1.75984 0
121.539 6.04526 0
119.007 6.14475 0
120.105 1.80974 0
121.454 3.90274 0
120.273 6.09523 0
118.924 4.00216 0
120.189 3.95268 0
121.369 1.75984 0
123.898 1.65869 0
124.07 5.94398 0
121.539 6.04526 0
122.634 1.70949 0
123.984 3.80153 0
122.804 5.99485 0
121.454 3.90274 0
122.719 3.85236 0
123.898 1.65869 0
126.426 1.55577 0
126.602 5.84091 0
124.07 5.94398 0
125.162 1.60745 0
126.514 3.69853 0
125.336 5.89267 0
123.984 3.80153 0
125.249 3.75025 0
126.426 1.55577 0
128.955 1.45108 0
129.133 5.73608 0
126.602 5.84091 0
127.691 1.50364 0
129.044 3.59376 0
127.867 5.78872 0
126.514 3.69853 0
127.779 3.64637 0
128.955 1.45108 0
131.483 1.34462 0
131.664 5.62948 0
129.133 5.73608 0
130.219 1.39807 0
131.574 3.48724 0
130.399 5.683 0
129.044 3.59376 0
130.309 3.54072 0
131.483 1.34462 0
134.012 1.23642 0
134.196 5.52113 0
131.664 5.62948 0
132.747 1.29074 0
134.104 3.37896 0
132.93 5.57552 0
131.574 3.48724 0
132.839 3.43332 0
134.012 1.23642 0
136.54 1.12649 0
136.727 5.41105 0
134.196 5.52113 0
135.276 1.18167 0
136.634 3.26895 0
135.461 5.46631 0
134.104 3.37896 0
135.369 3.32417 0
136.54 1.12649 0
139.068 1.01483 0
139.258 5.29925 0
136.727 5.41105 0
137.804 1.07088 0
139.163 3.15722 0
137.993 5.35536 0
136.634 3.26895 0
137.898 3.2133 0
139.068 1.01483 0
141.597 0.901466 0
141.789 5.18573 0
139.258 5.29925 0
140.332 0.958363 0
141.693 3.04378 0
140.524 5.2427 0
139.163 3.15722 0
140.428 3.10071 0
141.597 0.901466 0
144.125 0.786402 0
144.321 5.07052 0
141.789 5.18573 0
142.861 0.844146 0
144.223 2.92864 0
143.055 5.12834 0
141.693 3.04378 0
142.958 2.98642 0
144.125 0.786402 0
146.653 0.669651 0
146.852 4.95361 0
144.321 5.07052 0
145.389 0.728236 0
146.752 2.81181 0
145.586 5.01228 0
144.223 2.92864 0
145.488 2.87043 0
146.653 0.669651 0
149.181 0.551226 0
149.383 4.83504 0
146.852 4.95361 0
147.917 0.610647 0
149.282 2.69331 0
148.117 4.89453 0
146.752 2.81181 0
148.017 2.75277 0
149.181 0.551226 0
151.71 0.431139 0
151.914 4.7148 0
149.383 4.83504 0
150.445 0.491389 0
151.812 2.57314 0
150.648 4.77512 0
149.282 2.69331 0
150.547 2.63343 0
151.71 0.431139 0
154.238 0.309402 0
154.445 4.5929 0
151.914 4.7148 0
152.974 0.370476 0
154.341 2.45133 0
153.179 4.65406 0
151.812 2.57314 0
153.076 2.51244 0
154.238 0.309402 0
156.766 0.186026 0
156.976 4.46937 0
154.445 4.5929 0
155.502 0.247918 0
156.871 2.32787 0
155.71 4.53134 0
154.341 2.45133 0
155.606 2.3898 0
156.766 0.186026 0
159.294 0.061025 0
159.507 4.34422 0
156.976 4.46937 0
158.03 0.123728 0
159.4 2.20279 0
158.241 4.407 0
156.871 2.32787 0
158.136 2.26554 0
159.294 0.061025 0
161.822 -0.0655903 0
162.037 4.21745 0
159.507 4.34422 0
160.558 -0.00208165 0
161.93 2.0761 0
160.772 4.28103 0
159.4 2.20279 0
160.665 2.13965 0
161.822 -0.0655903 0
164.35 -0.193807 0
164.568 4.08907 0
162.037 4.21745 0
163.086 -0.129499 0
164.459 1.9478 0
163.303 4.15346 0
161.93 2.0761 0
163.194 2.01215 0
164.35 -0.193807 0
166.878 -0.323615 0
167.099 3.95911 0
164.568 4.08907 0
165.614 -0.258513 0
166.989 1.81791 0
165.833 4.02429 0
164.459 1.9478 0
165.724 1.88306 0
166.878 -0.323615 0
169.406 -0.455 0
169.629 3.82756 0
167.099 3.95911 0
168.142 -0.389111 0
169.518 1.68645 0
168.364 3.89353 0
166.989 1.81791 0
168.253 1.75238 0
169.406 -0.455 0
171.934 -0.58795 0
172.16 3.69445 0
169.629 3.82756 0
170.67 -0.52128 0
172.047 1.55342 0
170.895 3.7612 0
169.518 1.68645 0
170.782 1.62013 0
171.934 -0.58795 0
174.462 -0.722455 0
174.691 3.55979 0
172.16 3.69445 0
173.198 -0.655009 0
174.576 1.41883 0
173.425 3.62732 0
172.047 1.55342 0
173.312 1.48632 0
174.462 -0.722455 0
176.99 -0.858501 0
177.221 3.42358 0
174.691 3.55979 0
175.726 -0.790286 0
177.106 1.2827 0
175.956 3.49188 0
174.576 1.41883 0
175.841 1.35096 0
176.99 -0.858501 0
179.518 -0.996078 0
179.752 3.28585 0
177.221 3.42358 0
178.254 -0.927099 0
179.635 1.14505 0
178.486 3.35491 0
177.106 1.2827 0
178.37 1.21407 0
179.518 -0.996078 0
182.046 -1.13517 0
182.282 3.14659 0
179.752 3.28585 0
180.782 -1.06544 0
182.164 1.00587 0
181.017 3.21641 0
179.635 1.14505 0
180.899 1.07565 0
182.046 -1.13517 0
184.574 -1.27577 0
184.812 3.00583 0
182.282 3.14659 0
183.31 -1.20528 0
184.693 0.865189 0
183.547 3.0764 0
182.164 1.00587 0
183.428 0.935717 0
184.574 -1.27577 0
187.101 -1.41786 0
187.343 2.86358 0
184.812 3.00583 0
185.837 -1.34663 0
187.222 0.723014 0
186.077 2.93489 0
184.693 0.865189 0
185.957 0.794288 0
187.101 -1.41786 0
189.629 -1.56144 0
189.873 2.71984 0
187.343 2.86358 0
188.365 -1.48947 0
189.751 0.579357 0
188.608 2.79189 0
187.222 0.723014 0
188.487 0.65137 0
189.629 -1.56144 0
192.157 -1.70648 0
192.403 2.57463 0
189.873 2.71984 0
190.893 -1.63378 0
192.28 0.43423 0
191.138 2.64742 0
189.751 0.579357 0
191.015 0.506977 0
192.157 -1.70648 0
194.684 -1.85298 0
194.933 2.42797 0
192.403 2.57463 0
193.421 -1.77955 0
194.809 0.287646 0
193.668 2.50148 0
192.28 0.43423 0
193.544 0.36112 0
194.684 -1.85298 0
197.212 -2.00093 0
197.463 2.27986 0
194.933 2.42797 0
195.948 -1.92678 0
197.338 0.139616 0
196.198 2.3541 0
194.809 0.287646 0
196.073 0.213811 0
197.212 -2.00093 0
199.74 -2.15031 0
199.993 2.13032 0
197.463 2.27986 0
198.476 -2.07544 0
199.867 -0.00984739 0
198.728 2.20527 0
197.338 0.139616 0
198.602 0.0650628 0
199.74 -2.15031 0
202.267 -2.30112 0
202.523 1.97935 0
199.993 2.13032 0
201.004 -2.22554 0
202.395 -0.160732 0
201.258 2.05501 0
199.867 -0.00984739 0
201.131 -0.085113 0
202.267 -2.30112 0
204.795 -2.45333 0
205.053 1.82698 0
202.523 1.97935 0
203.531 -2.37705 0
204.924 -0.313027 0
203.788 1.90334 0
202.395 -0.160732 0
203.66 -0.236704 0
204.795 -2.45333 0
207.322 -2.60694 0
207.583 1.67321 0
205.053 1.82698 0
206.059 -2.52996 0
207.453 -0.466719 0
206.318 1.75027 0
204.924 -0.313027 0
206.188 -0.389699 0
207.322 -2.60694 0
209.85 -2.76193 0
210.113 1.51805 0
207.583 1.67321 0
208.586 -2.68426 0
209.981 -0.621796 0
208.848 1.5958 0
207.453 -0.466719 0
208.717 -0.544085 0
209.85 -2.76193 0
212.377 -2.9183 0
212.643 1.36152 0
210.113 1.51805 0
211.114 -2.83994 0
212.51 -0.778247 0
211.378 1.43995 0
209.981 -0.621796 0
211.246 -0.699851 0
212.377 -2.9183 0
214.905 -3.07603 0
215.172 1.20362 0
212.643 1.36152 0
213.641 -2.99699 0
215.039 -0.936059 0
213.908 1.28274 0
212.51 -0.778247 0
213.774 -0.856983 0
214.905 -3.07603 0
217.432 -3.23511 0
217.702 1.04438 0
215.172 1.20362 0
216.168 -3.1554 0
217.567 -1.09522 0
216.437 1.12417 0
215.039 -0.936059 0
216.303 -1.01547 0
217.432 -3.23511 0
219.959 -3.39552 0
220.232 0.883805 0
217.702 1.04438 0
218.696 -3.31515 0
220.096 -1.25572 0
218.967 0.964261 0
217.567 -1.09522 0
218.831 -1.1753 0
219.959 -3.39552 0
222.487 -3.55726 0
222.761 0.721901 0
220.232 0.883805 0
221.223 -3.47623 0
222.624 -1.41754 0
221.496 0.803018 0
220.096 -1.25572 0
221.36 -1.33646 0
222.487 -3.55726 0
225.014 -3.72032 0
225.291 0.558685 0
222.761 0.721901 0
223.75 -3.63863 0
225.152 -1.58068 0
224.026 0.640456 0
222.624 -1.41754 0
223.888 -1.49895 0
225.014 -3.72032 0
227.541 -3.88467 0
227.82 0.394167 0
225.291 0.558685 0
226.278 -3.80233 0
227.681 -1.74512 0
226.555 0.476588 0
225.152 -1.58068 0
226.417 -1.66274 0
227.541 -3.88467 0
230.069 -4.05032 0
230.349 0.228361 0
227.82 0.394167 0
228.805 -3.96733 0
230.209 -1.91084 0
229.085 0.311424 0
227.681 -1.74512 0
228.945 -1.82782 0
230.069 -4.05032 0
232.596 -4.21724 0
232.879 0.0612774 0
230.349 0.228361 0
231.332 -4.13362 0
232.737 -2.07785 0
231.614 0.144978 0
230.209 -1.91084 0
231.473 -1.99419 0
232.596 -4.21724 0
235.123 -4.38542 0
235.408 -0.107071 0
232.879 0.0612774 0
233.859 -4.30117 0
235.266 -2.24611 0
234.143 -0.0227394 0
232.737 -2.07785 0
234.001 -2.16182 0
235.123 -4.38542 0
237.65 -4.55486 0
237.937 -0.276672 0
235.408 -0.107071 0
236.386 -4.46999 0
237.794 -2.41564 0
236.673 -0.191715 0
235.266 -2.24611 0
236.53 -2.33072 0
237.65 -4.55486 0
240.177 -4.72554 0
240.467 -0.447513 0
237.937 -0.276672 0
238.914 -4.64005 0
240.322 -2.5864 0
239.202 -0.361938 0
237.794 -2.41564 0
239.058 -2.50086 0
240.177 -4.72554 0
242.704 -4.89745 0
242.996 -0.619584 0
240.467 -0.447513 0
241.441 -4.81135 0
242.85 -2.75839 0
241.731 -0.533396 0
240.322 -2.5864 0
241.586 -2.67224 0
242.704 -4.89745 0
245.231 -5.07058 0
245.525 -0.79287 0
242.996 -0.619584 0
243.968 -4.98387 0
245.378 -2.9316 0
244.26 -0.706076 0
242.85 -2.75839 0
244.114 -2.84484 0
245.231 -5.07058 0
247.758 -5.24491 0
248.054 -0.967362 0
245.525 -0.79287 0
246.495 -5.1576 0
247.906 -3.10601 0
246.789 -0.879966 0
245.378 -2.9316 0
246.642 -3.01865 0
247.758 -5.24491 0
250.285 -5.42044 0
250.583 -1.14305 0
248.054 -0.967362 0
249.022 -5.33253 0
250.434 -3.28162 0
249.318 -1.05506 0
247.906 -3.10601 0
249.17 -3.19367 0
250.285 -5.42044 0
252.812 -5.59714 0
253.112 -1.31991 0
250.583 -1.14305 0
251.549 -5.50864 0
252.962 -3.4584 0
251.847 -1.23133 0
250.434 -3.28162 0
251.698 -3.36986 0
252.812 -5.59714 0
255.339 -5.77502 0
255.64 -1.49794 0
253.112 -1.31991 0
254.076 -5.68593 0
255.49 -3.63636 0
254.376 -1.40878 0
252.962 -3.4584 0
254.226 -3.54723 0
255.339 -5.77502 0
257.866 -5.95405 0
258.169 -1.67713 0
255.64 -1.49794 0
256.602 -5.86439 0
258.018 -3.81547 0
256.905 -1.58739 0
255.49 -3.63636 0
256.754 -3.72577 0
257.866 -5.95405 0
260.393 -6.13422 0
260.698 -1.85747 0
258.169 -1.67713 0
259.129 -6.04399 0
260.545 -3.99573 0
259.434 -1.76716 0
258.018 -3.81547 0
259.282 -3.90545 0
260.393 -6.13422 0
262.92 -6.31553 0
263.227 -2.03893 0
260.698 -1.85747 0
261.656 -6.22474 0
263.073 -4.17711 0
261.962 -1.94806 0
260.545 -3.99573 0
261.809 -4.08628 0
262.92 -6.31553 0
265.446 -6.49796 0
265.755 -2.22152 0
263.227 -2.03893 0
264.183 -6.40661 0
265.601 -4.35962 0
264.491 -2.13008 0
263.073 -4.17711 0
264.337 -4.26823 0
265.446 -6.49796 0
267.973 -6.6815 0
268.284 -2.40521 0
265.755 -2.22152 0
266.71 -6.58959 0
268.129 -4.54324 0
267.02 -2.31323 0
265.601 -4.35962 0
266.865 -4.45129 0
267.973 -6.6815 0
270.5 -6.86614 0
270.813 -2.59 0
268.284 -2.40521 0
269.236 -6.77368 0
270.656 -4.72796 0
269.548 -2.49747 0
268.129 -4.54324 0
269.392 -4.63546 0
270.5 -6.86614 0
273.027 -7.05186 0
273.341 -2.77588 0
270.813 -2.59 0
271.763 -6.95886 0
273.184 -4.91375 0
272.077 -2.6828 0
270.656 -4.72796 0
271.92 -4.82072 0
273.027 -7.05186 0
275.553 -7.23865 0
275.87 -2.96282 0
273.341 -2.77588 0
274.29 -7.14512 0
275.711 -5.10062 0
274.605 -2.86922 0
273.184 -4.91375 0
274.448 -5.00706 0
275.553 -7.23865 0
278.08 -7.4265 0
278.398 -3.15083 0
275.87 -2.96282 0
276.817 -7.33244 0
278.239 -5.28856 0
277.134 -3.05669 0
275.711 -5.10062 0
276.975 -5.19446 0
278.08 -7.4265 0
280.606 -7.61541 0
280.926 -3.33988 0
278.398 -3.15083 0
279.343 -7.52082 0
280.766 -5.47754 0
279.662 -3.24523 0
278.239 -5.28856 0
279.503 -5.38292 0
280.606 -7.61541 0
283.133 -7.80535 0
283.455 -3.52997 0
280.926 -3.33988 0
281.87 -7.71025 0
283.294 -5.66755 0
282.191 -3.4348 0
280.766 -5.47754 0
282.03 -5.57242 0
283.133 -7.80535 0
285.66 -7.99631 0
285.983 -3.72109 0
283.455 -3.52997 0
284.396 -7.9007 0
285.821 -5.85859 0
284.719 -3.6254 0
283.294 -5.66755 0
284.558 -5.76294 0
285.66 -7.99631 0
288.186 -8.18829 0
288.511 -3.91321 0
285.983 -3.72109 0
286.923 -8.09217 0
288.349 -6.05065 0
287.247 -3.81702 0
285.821 -5.85859 0
287.085 -5.95449 0
288.186 -8.18829 0
290.713 -8.38126 0
291.039 -4.10634 0
288.511 -3.91321 0
289.449 -8.28465 0
290.876 -6.2437 0
289.775 -4.00965 0
288.349 -6.05065 0
289.612 -6.14705 0
290.713 -8.38126 0
293.239 -8.57523 0
293.568 -4.30045 0
291.039 -4.10634 0
291.976 -8.47812 0
293.403 -6.43774 0
292.304 -4.20327 0
290.876 -6.2437 0
292.14 -6.3406 0
293.239 -8.57523 0
295.766 -8.77017 0
296.096 -4.49554 0
293.568 -4.30045 0
294.502 -8.67258 0
295.931 -6.63276 0
294.832 -4.39788 0
293.403 -6.43774 0
294.667 -6.53513 0
295.766 -8.77017 0
298.292 -8.96608 0
298.624 -4.69159 0
296.096 -4.49554 0
297.029 -8.86801 0
298.458 -6.82874 0
297.36 -4.59345 0
295.931 -6.63276 0
297.194 -6.73063 0
298.292 -8.96608 0
300.818 -9.16294 0
301.152 -4.8886 0
298.624 -4.69159 0
299.555 -9.06439 0
300.985 -7.02567 0
299.888 -4.78998 0
298.458 -6.82874 0
299.722 -6.92709 0
300.818 -9.16294 0
303.345 -9.36074 0
303.68 -5.08654 0
301.152 -4.8886 0
302.082 -9.26172 0
303.512 -7.22355 0
302.416 -4.98745 0
300.985 -7.02567 0
302.249 -7.12449 0
303.345 -9.36074 0
305.871 -9.55947 0
306.208 -5.28542 0
303.68 -5.08654 0
304.608 -9.45999 0
306.039 -7.42235 0
304.944 -5.18586 0
303.512 -7.22355 0
304.776 -7.32283 0
305.871 -9.55947 0
308.398 -9.75912 0
308.736 -5.4852 0
306.208 -5.28542 0
307.134 -9.65918 0
308.567 -7.62207 0
307.472 -5.3852 0
306.039 -7.42235 0
307.303 -7.52209 0
308.398 -9.75912 0
310.924 -9.95967 0
311.263 -5.68589 0
308.736 -5.4852 0
309.661 -9.85928 0
311.094 -7.82269 0
309.999 -5.58544 0
308.567 -7.62207 0
309.83 -7.72227 0
310.924 -9.95967 0
313.45 -10.1611 0
313.791 -5.88748 0
311.263 -5.68589 0
312.187 -10.0603 0
313.621 -8.0242 0
312.527 -5.78658 0
311.094 -7.82269 0
312.357 -7.92334 0
313.45 -10.1611 0
315.977 -10.3634 0
316.319 -6.08994 0
313.791 -5.88748 0
314.713 -10.2622 0
316.148 -8.2266 0
315.055 -5.9886 0
313.621 -8.0242 0
314.884 -8.12529 0
315.977 -10.3634 0
318.503 -10.5666 0
318.847 -6.29327 0
316.319 -6.08994 0
317.24 -10.4649 0
318.675 -8.42986 0
317.583 -6.1915 0
316.148 -8.2266 0
317.411 -8.32812 0
318.503 -10.5666 0
321.029 -10.7707 0
321.374 -6.49745 0
318.847 -6.29327 0
319.766 -10.6685 0
321.202 -8.63398 0
320.111 -6.39526 0
318.675 -8.42986 0
319.938 -8.53181 0
321.029 -10.7707 0
323.555 -10.9756 0
323.902 -6.70248 0
321.374 -6.49745 0
322.292 -10.873 0
323.729 -8.83894 0
322.638 -6.59986 0
321.202 -8.63398 0
322.465 -8.73636 0
323.555 -10.9756 0
326.082 -11.1813 0
326.43 -6.90834 0
323.902 -6.70248 0
324.818 -11.0783 0
326.256 -9.04474 0
325.166 -6.80531 0
323.729 -8.83894 0
324.992 -8.94174 0
326.082 -11.1813 0
328.608 -11.3878 0
328.957 -7.11502 0
326.43 -6.90834 0
327.345 -11.2845 0
328.783 -9.25135 0
327.693 -7.01158 0
326.256 -9.04474 0
327.519 -9.14794 0
328.608 -11.3878 0
331.134 -11.5952 0
331.485 -7.32251 0
328.957 -7.11502 0
329.871 -11.4914 0
331.309 -9.45877 0
330.221 -7.21867 0
328.783 -9.25135 0
330.046 -9.35496 0
331.134 -11.5952 0
333.66 -11.8034 0
334.012 -7.53079 0
331.485 -7.32251 0
332.397 -11.6992 0
333.836 -9.66699 0
332.749 -7.42655 0
331.309 -9.45877 0
332.573 -9.56278 0
333.66 -11.8034 0
336.186 -12.0123 0
336.54 -7.73986 0
334.012 -7.53079 0
334.923 -11.9077 0
336.363 -9.87599 0
335.276 -7.63523 0
333.836 -9.66699 0
335.1 -9.7714 0
336.186 -12.0123 0
338.712 -12.222 0
339.067 -7.94969 0
336.54 -7.73986 0
337.449 -12.117 0
338.89 -10.0858 0
337.803 -7.84468 0
336.363 -9.87599 0
337.626 -9.98079 0
338.712 -12.222 0
341.239 -12.4325 0
341.595 -8.16029 0
339.067 -7.94969 0
339.976 -12.3271 0
341.417 -10.2963 0
340.331 -8.0549 0
338.89 -10.0858 0
340.153 -10.1909 0
341.239 -12.4325 0
343.765 -12.6437 0
344.122 -8.37163 0
341.595 -8.16029 0
342.502 -12.538 0
343.943 -10.5076 0
342.858 -8.26587 0
341.417 -10.2963 0
342.68 -10.4019 0
343.765 -12.6437 0
346.291 -12.8556 0
346.649 -8.58371 0
344.122 -8.37163 0
345.028 -12.7496 0
346.47 -10.7196 0
345.386 -8.47758 0
343.943 -10.5076 0
345.207 -10.6135 0
346.291 -12.8556 0
348.817 -13.0683 0
349.177 -8.79651 0
346.649 -8.58371 0
347.554 -12.9619 0
348.997 -10.9323 0
347.913 -8.69002 0
346.47 -10.7196 0
347.734 -10.8259 0
348.817 -13.0683 0
351.343 -13.2817 0
351.704 -9.01003 0
349.177 -8.79651 0
350.08 -13.1749 0
351.524 -11.1458 0
350.44 -8.90318 0
348.997 -10.9323 0
350.26 -11.039 0
351.343 -13.2817 0
353.869 -13.4958 0
354.231 -9.22424 0
351.704 -9.01003 0
352.606 -13.3887 0
354.05 -11.36 0
352.968 -9.11705 0
351.524 -11.1458 0
352.787 -11.2528 0
353.869 -13.4958 0
356.395 -13.7106 0
356.758 -9.43914 0
354.231 -9.22424 0
355.132 -13.6031 0
356.577 -11.5748 0
355.495 -9.3316 0
354.05 -11.36 0
355.314 -11.4673 0
356.395 -13.7106 0
358.921 -13.926 0
359.286 -9.65471 0
356.758 -9.43914 0
357.658 -13.8182 0
359.104 -11.7903 0
358.022 -9.54684 0
356.577 -11.5748 0
357.84 -11.6825 0
358.921 -13.926 0
361.447 -14.1422 0
361.813 -9.87095 0
359.286 -9.65471 0
360.184 -14.034 0
361.63 -12.0065 0
360.549 -9.76275 0
359.104 -11.7903 0
360.367 -11.8983 0
361.447 -14.1422 0
363.974 -14.3589 0
364.34 -10.0878 0
361.813 -9.87095 0
362.71 -14.2505 0
364.157 -12.2233 0
363.076 -9.97931 0
361.63 -12.0065 0
362.893 -12.1148 0
363.974 -14.3589 0
366.5 -14.5764 0
366.867 -10.3054 0
364.34 -10.0878 0
365.237 -14.4676 0
366.683 -12.4408 0
365.604 -10.1965 0
364.157 -12.2233 0
365.42 -12.332 0
366.5 -14.5764 0
369.026 -14.7944 0
369.394 -10.5235 0
366.867 -10.3054 0
367.763 -14.6853 0
369.21 -12.6589 0
368.131 -10.4144 0
366.683 -12.4408 0
367.947 -12.5498 0
369.026 -14.7944 0
371.552 -15.0131 0
371.921 -10.7423 0
369.394 -10.5235 0
370.289 -14.9037 0
371.737 -12.8776 0
370.658 -10.6328 0
369.21 -12.6589 0
370.473 -12.7682 0
371.552 -15.0131 0
374.078 -15.2323 0
374.448 -10.9617 0
371.921 -10.7423 0
372.815 -15.1226 0
374.263 -13.0969 0
373.185 -10.8519 0
371.737 -12.8776 0
373 -12.9872 0
374.078 -15.2323 0
376.604 -15.4522 0
376.975 -11.1816 0
374.448 -10.9617 0
375.341 -15.3422 0
376.79 -13.3169 0
375.712 -11.0716 0
374.263 -13.0969 0
375.526 -13.2068 0
376.604 -15.4522 0
379.13 -15.6726 0
379.502 -11.4022 0
376.975 -11.1816 0
377.867 -15.5623 0
379.316 -13.5373 0
378.239 -11.2918 0
376.79 -13.3169 0
378.053 -13.427 0
379.13 -15.6726 0
381.656 -15.8936 0
382.029 -11.6233 0
379.502 -11.4022 0
380.393 -15.7831 0
381.843 -13.7584 0
380.766 -11.5127 0
379.316 -13.5373 0
380.579 -13.6478 0
381.656 -15.8936 0
384.182 -16.1152 0
384.556 -11.8449 0
382.029 -11.6233 0
382.919 -16.0044 0
384.369 -13.98 0
383.293 -11.734 0
381.843 -13.7584 0
383.106 -13.8691 0
384.182 -16.1152 0
386.708 -16.3373 0
387.083 -12.0672 0
384.556 -11.8449 0
385.445 -16.2262 0
386.896 -14.2022 0
385.82 -11.956 0
384.369 -13.98 0
385.633 -14.091 0
386.708 -16.3373 0
389.234 -16.56 0
389.61 -12.2899 0
387.083 -12.0672 0
387.971 -16.4486 0
389.422 -14.4249 0
388.347 -12.1785 0
386.896 -14.2022 0
388.159 -14.3135 0
389.234 -16.56 0
391.76 -16.7831 0
392.137 -12.5132 0
389.61 -12.2899 0
390.497 -16.6715 0
391.949 -14.6481 0
390.874 -12.4015 0
389.422 -14.4249 0
390.686 -14.5364 0
391.76 -16.7831 0
394.286 -17.0068 0
394.664 -12.7369 0
392.137 -12.5132 0
393.023 -16.8949 0
394.475 -14.8718 0
393.401 -12.625 0
391.949 -14.6481 0
393.212 -14.7599 0
394.286 -17.0068 0
396.812 -17.231 0
397.191 -12.9612 0
394.664 -12.7369 0
395.549 -17.1188 0
397.002 -15.096 0
395.928 -12.849 0
394.475 -14.8718 0
395.739 -14.9838 0
396.812 -17.231 0
399.339 -17.4556 0
399.718 -13.1859 0
397.191 -12.9612 0
398.075 -17.3432 0
399.528 -15.3207 0
398.455 -13.0735 0
397.002 -15.096 0
398.265 -15.2083 0
399.339 -17.4556 0
401.865 -17.6807 0
402.245 -13.4111 0
399.718 -13.1859 0
400.602 -17.5681 0
402.055 -15.5459 0
400.982 -13.2985 0
399.528 -15.3207 0
400.792 -15.4332 0
401.865 -17.6807 0
404.391 -17.9063 0
404.772 -13.6368 0
402.245 -13.4111 0
403.128 -17.7935 0
404.581 -15.7715 0
403.508 -13.5239 0
402.055 -15.5459 0
403.318 -15.6586 0
404.391 -17.9063 0
406.917 -18.1323 0
407.299 -13.8629 0
404.772 -13.6368 0
405.654 -18.0193 0
407.108 -15.9976 0
406.035 -13.7498 0
404.581 -15.7715 0
405.845 -15.8845 0
406.917 -18.1323 0
409.443 -18.3588 0
409.826 -14.0895 0
407.299 -13.8629 0
408.18 -18.2455 0
409.634 -16.2241 0
408.562 -13.9762 0
407.108 -15.9976 0
408.371 -16.1108 0
409.443 -18.3588 0
411.969 -18.5857 0
412.352 -14.3165 0
409.826 -14.0895 0
410.706 -18.4722 0
412.161 -16.451 0
411.089 -14.2029 0
409.634 -16.2241 0
410.898 -16.3375 0
411.969 -18.5857 0
414.495 -18.813 0
414.879 -14.5439 0
412.352 -14.3165 0
413.232 -18.6993 0
414.687 -16.6784 0
413.616 -14.4301 0
412.161 -16.451 0
413.424 -16.5647 0
414.495 -18.813 0
417.022 -19.0407 0
417.406 -14.7716 0
414.879 -14.5439 0
415.758 -18.9268 0
417.214 -16.9061 0
416.143 -14.6577 0
414.687 -16.6784 0
415.951 -16.7922 0
417.022 -19.0407 0
419.548 -19.2688 0
419.933 -14.9998 0
417.406 -14.7716 0
418.285 -19.1547 0
419.74 -17.1343 0
418.67 -14.8857 0
417.214 -16.9061 0
418.477 -17.0202 0
419.548 -19.2688 0
422.074 -19.4973 0
422.46 -15.2284 0
419.933 -14.9998 0
420.811 -19.383 0
422.267 -17.3628 0
421.196 -15.114 0
419.74 -17.1343 0
421.004 -17.2485 0
422.074 -19.4973 0
424.6 -19.7261 0
424.987 -15.4573 0
422.46 -15.2284 0
423.337 -19.6117 0
424.793 -17.5917 0
423.723 -15.3428 0
422.267 -17.3628 0
423.53 -17.4772 0
424.6 -19.7261 0
427.126 -19.9553 0
427.513 -15.6865 0
424.987 -15.4573 0
425.863 -19.8407 0
427.32 -17.8209 0
426.25 -15.5719 0
424.793 -17.5917 0
426.057 -17.7062 0
427.126 -19.9553 0
429.653 -20.1849 0
430.04 -15.9162 0
427.513 -15.6865 0
428.39 -20.0701 0
429.847 -18.0505 0
428.777 -15.8013 0
427.32 -17.8209 0
428.583 -17.9356 0
429.653 -20.1849 0
432.179 -20.4147 0
432.567 -16.1461 0
430.04 -15.9162 0
430.916 -20.2998 0
432.373 -18.2804 0
431.304 -16.0311 0
429.847 -18.0505 0
431.11 -18.1654 0
432.179 -20.4147 0
434.705 -20.6449 0
435.094 -16.3763 0
432.567 -16.1461 0
433.442 -20.5298 0
434.9 -18.5106 0
433.831 -16.2612 0
432.373 -18.2804 0
433.636 -18.3954 0
434.705 -20.6449 0
437.232 -20.8754 0
437.621 -16.6069 0
435.094 -16.3763 0
435.969 -20.7601 0
437.426 -18.7411 0
436.357 -16.4916 0
434.9 -18.5106 0
436.163 -18.6258 0
437.232 -20.8754 0
439.758 -21.1062 0
440.148 -16.8377 0
437.621 -16.6069 0
438.495 -20.9907 0
439.953 -18.9719 0
438.884 -16.7223 0
437.426 -18.7411 0
438.69 -18.8565 0
439.758 -21.1062 0
442.284 -21.3372 0
442.674 -17.0688 0
440.148 -16.8377 0
441.021 -21.2216 0
442.48 -19.203 0
441.411 -16.9532 0
439.953 -18.9719 0
441.216 -19.0874 0
442.284 -21.3372 0
444.811 -21.5685 0
445.201 -17.3002 0
442.674 -17.0688 0
443.548 -21.4528 0
445.006 -19.4344 0
443.938 -17.1845 0
442.48 -19.203 0
443.743 -19.3186 0
444.811 -21.5685 0
447.337 -21.8001 0
447.728 -17.5319 0
445.201 -17.3002 0
446.074 -21.6843 0
447.533 -19.666 0
446.465 -17.416 0
445.006 -19.4344 0
446.269 -19.5501 0
447.337 -21.8001 0
449.864 -22.0319 0
450.255 -17.7637 0
447.728 -17.5319 0
448.601 -21.916 0
450.059 -19.8978 0
448.992 -17.6478 0
447.533 -19.666 0
448.796 -19.7819 0
449.864 -22.0319 0
452.39 -22.264 0
452.782 -17.9959 0
450.255 -17.7637 0
451.127 -22.1479 0
452.586 -20.1299 0
451.519 -17.8798 0
450.059 -19.8978 0
451.323 -20.0138 0
452.39 -22.264 0
454.917 -22.4963 0
455.309 -18.2282 0
452.782 -17.9959 0
453.654 -22.3801 0
455.113 -20.3622 0
454.045 -18.112 0
452.586 -20.1299 0
453.85 -20.246 0
454.917 -22.4963 0
457.443 -22.7288 0
457.836 -18.4607 0
455.309 -18.2282 0
456.18 -22.6125 0
457.64 -20.5947 0
456.572 -18.3444 0
455.113 -20.3622 0
456.376 -20.4784 0
457.443 -22.7288 0
459.97 -22.9615 0
460.363 -18.6935 0
457.836 -18.4607 0
458.707 -22.8451 0
460.166 -20.8274 0
459.099 -18.5771 0
457.64 -20.5947 0
458.903 -20.7111 0
459.97 -22.9615 0
462.497 -23.1943 0
462.89 -18.9264 0
460.363 -18.6935 0
461.233 -23.0779 0
462.693 -21.0603 0
461.626 -18.8099 0
460.166 -20.8274 0
461.43 -20.9439 0
462.497 -23.1943 0
465.023 -23.4274 0
465.417 -19.1595 0
462.89 -18.9264 0
463.76 -23.3108 0
465.22 -21.2934 0
464.153 -19.0429 0
462.693 -21.0603 0
463.957 -21.1768 0
465.023 -23.4274 0
467.55 -23.6606 0
467.943 -19.3927 0
465.417 -19.1595 0
466.287 -23.5439 0
467.747 -21.5266 0
466.68 -19.2761 0
465.22 -21.2934 0
466.483 -21.41 0
467.55 -23.6606 0
470.077 -23.8939 0
470.47 -19.6261 0
467.943 -19.3927 0
468.813 -23.7772 0
470.274 -21.76 0
469.207 -19.5094 0
467.747 -21.5266 0
469.01 -21.6433 0
470.077 -23.8939 0
472.604 -24.1274 0
472.997 -19.8596 0
470.47 -19.6261 0
471.34 -24.0106 0
472.801 -21.9935 0
471.734 -19.7428 0
470.274 -21.76 0
471.537 -21.8767 0
472.604 -24.1274 0
475.13 -24.361 0
475.524 -20.0933 0
472.997 -19.8596 0
473.867 -24.2442 0
475.327 -22.2271 0
474.261 -19.9764 0
472.801 -21.9935 0
474.064 -22.1103 0
475.13 -24.361 0
477.657 -24.5947 0
478.052 -20.327 0
475.524 -20.0933 0
476.394 -24.4779 0
477.854 -22.4609 0
476.788 -20.2102 0
475.327 -22.2271 0
476.591 -22.344 0
477.657 -24.5947 0
480.184 -24.8286 0
480.579 -20.5609 0
478.052 -20.327 0
478.921 -24.7116 0
480.381 -22.6947 0
479.315 -20.444 0
477.854 -22.4609 0
479.118 -22.5778 0
480.184 -24.8286 0
482.711 -25.0625 0
483.106 -20.7949 0
480.579 -20.5609 0
481.448 -24.9455 0
482.908 -22.9287 0
481.842 -20.6779 0
480.381 -22.6947 0
481.645 -22.8117 0
482.711 -25.0625 0
485.238 -25.2965 0
485.633 -21.0289 0
483.106 -20.7949 0
483.975 -25.1795 0
485.436 -23.1627 0
484.369 -20.9119 0
482.908 -22.9287 0
484.172 -23.0457 0
485.238 -25.2965 0
487.765 -25.5305 0
488.16 -21.263 0
485.633 -21.0289 0
486.502 -25.4135 0
487.963 -23.3968 0
486.896 -21.1459 0
485.436 -23.1627 0
486.699 -23.2797 0
487.765 -25.5305 0
490.292 -25.7647 0
490.687 -21.4972 0
488.16 -21.263 0
489.029 -25.6476 0
490.49 -23.6309 0
489.424 -21.3801 0
487.963 -23.3968 0
489.226 -23.5138 0
490.292 -25.7647 0
492.819 -25.9989 0
493.214 -21.7314 0
490.687 -21.4972 0
491.556 -25.8818 0
493.017 -23.8651 0
491.951 -21.6142 0
490.49 -23.6309 0
491.753 -23.748 0
492.819 -25.9989 0
495.347 -26.2333 0
495.742 -21.9655 0
493.214 -21.7314 0
494.083 -26.1161 0
495.544 -24.0994 0
494.478 -21.8485 0
493.017 -23.8651 0
494.281 -23.9823 0
495.347 -26.2333 0
497.874 -26.4677 0
498.269 -22.1996 0
495.742 -21.9655 0
496.61 -26.3505 0
498.071 -24.3336 0
497.005 -22.0826 0
495.544 -24.0994 0
496.808 -24.2165 0
0 8.57143 0
2.53272 8.5709 0
2.53629 12.8574 0
0 12.8571 0
1.26644 8.5716 0
2.53452 10.7143 0
1.26815 12.8577 0
0 10.7143 0
1.26731 10.7147 0
2.53272 8.5709 0
5.06503 8.56733 0
5.07243 12.8545 0
2.53629 12.8574 0
3.79891 8.56946 0
5.06876 10.7111 0
3.80437 12.8563 0
2.53452 10.7143 0
3.80166 10.713 0
5.06503 8.56733 0
7.5971 8.56114 0
7.6085 12.8486 0
5.07243 12.8545 0
6.33108 8.56455 0
7.60285 10.7051 0
6.34047 12.8519 0
5.06876 10.7111 0
6.33582 10.7084 0
7.5971 8.56114 0
10.1291 8.55258 0
10.1445 12.8402 0
7.6085 12.8486 0
8.86311 8.55715 0
10.1369 10.6966 0
8.87652 12.8447 0
7.60285 10.7051 0
8.86986 10.7012 0
10.1291 8.55258 0
12.6611 8.54169 0
12.6805 12.8294 0
10.1445 12.8402 0
11.3951 8.54742 0
12.6709 10.6858 0
11.4125 12.8351 0
10.1369 10.6966 0
11.4039 10.6915 0
12.6611 8.54169 0
15.1932 8.52851 0
15.2166 12.8161 0
12.6805 12.8294 0
13.9272 8.53538 0
15.2049 10.6726 0
13.9486 12.823 0
12.6709 10.6858 0
13.9379 10.6795 0
15.1932 8.52851 0
17.7253 8.51303 0
17.7526 12.8006 0
15.2166 12.8161 0
16.4593 8.52105 0
17.739 10.6571 0
16.4846 12.8087 0
15.2049 10.6726 0
16.472 10.6651 0
17.7253 8.51303 0
20.2575 8.49527 0
20.2886 12.7828 0
17.7526 12.8006 0
18.9914 8.50443 0
20.2731 10.6393 0
19.0206 12.792 0
17.739 10.6571 0
19.006 10.6485 0
20.2575 8.49527 0
22.7897 8.47523 0
22.8247 12.7627 0
20.2886 12.7828 0
21.5236 8.48554 0
22.8072 10.6192 0
21.5567 12.7731 0
20.2731 10.6393 0
21.5401 10.6295 0
22.7897 8.47523 0
25.3219 8.45294 0
25.3607 12.7404 0
22.8247 12.7627 0
24.0558 8.46437 0
25.3413 10.5969 0
24.0927 12.7518 0
22.8072 10.6192 0
24.0743 10.6083 0
25.3219 8.45294 0
27.8541 8.42838 0
27.8967 12.7158 0
25.3607 12.7404 0
26.588 8.44094 0
27.8754 10.5723 0
26.6287 12.7284 0
25.3413 10.5969 0
26.6084 10.5849 0
27.8541 8.42838 0
30.3863 8.40159 0
30.4327 12.6889 0
27.8967 12.7158 0
29.1202 8.41526 0
30.4096 10.5455 0
29.1647 12.7026 0
27.8754 10.5723 0
29.1425 10.5592 0
30.3863 8.40159 0
32.9186 8.37256 0
32.9687 12.6598 0
30.4327 12.6889 0
31.6524 8.38735 0
32.9437 10.5164 0
31.7007 12.6747 0
30.4096 10.5455 0
31.6766 10.5312 0
32.9186 8.37256 0
35.4508 8.34132 0
35.5047 12.6285 0
32.9687 12.6598 0
34.1847 8.35722 0
35.4778 10.4852 0
34.2367 12.6445 0
32.9437 10.5164 0
34.2107 10.5011 0
35.4508 8.34132 0
37.983 8.30787 0
38.0407 12.595 0
35.5047 12.6285 0
36.7169 8.32487 0
38.0119 10.4517 0
36.7727 12.6121 0
35.4778 10.4852 0
36.7448 10.4687 0
37.983 8.30787 0
40.5153 8.27222 0
40.5766 12.5593 0
38.0407 12.595 0
39.2492 8.29032 0
40.546 10.416 0
39.3087 12.5775 0
38.0119 10.4517 0
39.2789 10.4341 0
40.5153 8.27222 0
43.0475 8.2344 0
43.1126 12.5214 0
40.5766 12.5593 0
41.7814 8.25358 0
43.0801 10.3782 0
41.8446 12.5407 0
40.546 10.416 0
41.813 10.3974 0
43.0475 8.2344 0
45.5798 8.1944 0
45.6485 12.4814 0
43.1126 12.5214 0
44.3136 8.21467 0
45.6141 10.3381 0
44.3805 12.5017 0
43.0801 10.3782 0
44.3471 10.3584 0
45.5798 8.1944 0
48.112 8.15224 0
48.1843 12.4392 0
45.6485 12.4814 0
46.8459 8.17359 0
48.1482 10.2959 0
46.9164 12.4605 0
45.6141 10.3381 0
46.8812 10.3173 0
48.112 8.15224 0
50.6442 8.10794 0
50.7202 12.3948 0
48.1843 12.4392 0
49.3781 8.13036 0
50.6822 10.2516 0
49.4523 12.4172 0
48.1482 10.2959 0
49.4152 10.274 0
50.6442 8.10794 0
53.1765 8.06151 0
53.256 12.3483 0
50.7202 12.3948 0
51.9103 8.08499 0
53.2163 10.2051 0
51.9881 12.3718 0
50.6822 10.2516 0
51.9492 10.2286 0
53.1765 8.06151 0
55.7087 8.01295 0
55.7918 12.2996 0
53.256 12.3483 0
54.4426 8.0375 0
55.7503 10.1565 0
54.5239 12.3242 0
53.2163 10.2051 0
54.4833 10.1811 0
55.7087 8.01295 0
58.2409 7.96229 0
58.3276 12.2489 0
55.7918 12.2996 0
56.9748 7.98788 0
58.2842 10.1058 0
57.0597 12.2745 0
55.7503 10.1565 0
57.0173 10.1314 0
58.2409 7.96229 0
60.7731 7.90952 0
60.8633 12.196 0
58.3276 12.2489 0
59.507 7.93617 0
60.8182 10.053 0
59.5955 12.2227 0
58.2842 10.1058 0
59.5512 10.0797 0
60.7731 7.90952 0
63.3052 7.85467 0
63.399 12.1411 0
60.8633 12.196 0
62.0392 7.88236 0
63.3522 9.99811 0
62.1312 12.1688 0
60.8182 10.053 0
62.0852 10.0258 0
63.3052 7.85467 0
65.8374 7.79775 0
65.9347 12.0841 0
63.399 12.1411 0
64.5713 7.82647 0
65.8861 9.94114 0
64.6668 12.1129 0
63.3522 9.99811 0
64.6191 9.96989 0
65.8374 7.79775 0
68.3696 7.73877 0
68.4703 12.025 0
65.9347 12.0841 0
67.1035 7.76852 0
68.42 9.88211 0
67.2025 12.0548 0
65.8861 9.94114 0
67.153 9.91189 0
68.3696 7.73877 0
70.9017 7.67773 0
71.0059 11.9639 0
68.4703 12.025 0
69.6356 7.70851 0
70.9538 9.82103 0
69.7381 11.9947 0
68.42 9.88211 0
69.6869 9.85183 0
70.9017 7.67773 0
73.4338 7.61466 0
73.5414 11.9007 0
71.0059 11.9639 0
72.1677 7.64645 0
73.4876 9.75791 0
72.2737 11.9326 0
70.9538 9.82103 0
72.2207 9.78973 0
73.4338 7.61466 0
75.9659 7.54957 0
76.0769 11.8355 0
73.5414 11.9007 0
74.6998 7.58237 0
76.0214 9.69277 0
74.8092 11.8684 0
73.4876 9.75791 0
74.7545 9.72559 0
75.9659 7.54957 0
78.498 7.48246 0
78.6124 11.7683 0
76.0769 11.8355 0
77.2319 7.51626 0
78.5552 9.6256 0
77.3447 11.8022 0
76.0214 9.69277 0
77.2883 9.65944 0
78.498 7.48246 0
81.03 7.41334 0
81.1478 11.6991 0
78.6124 11.7683 0
79.764 7.44815 0
81.0889 9.55644 0
79.8801 11.734 0
78.5552 9.6256 0
79.8221 9.59127 0
81.03 7.41334 0
83.562 7.34224 0
83.6832 11.6279 0
81.1478 11.6991 0
82.296 7.37804 0
83.6226 9.48529 0
82.4155 11.6638 0
81.0889 9.55644 0
82.3558 9.52111 0
83.562 7.34224 0
86.094 7.26917 0
86.2186 11.5547 0
83.6832 11.6279 0
84.828 7.30595 0
86.1563 9.41216 0
84.9509 11.5916 0
83.6226 9.48529 0
84.8895 9.44897 0
86.094 7.26917 0
88.626 7.19413 0
88.7538 11.4796 0
86.2186 11.5547 0
87.36 7.23189 0
88.6899 9.33706 0
87.4862 11.5174 0
86.1563 9.41216 0
87.4231 9.37485 0
88.626 7.19413 0
91.158 7.11713 0
91.2891 11.4025 0
88.7538 11.4796 0
89.892 7.15587 0
91.2235 9.26001 0
90.0215 11.4413 0
88.6899 9.33706 0
89.9567 9.29878 0
91.158 7.11713 0
93.6899 7.03819 0
93.8243 11.3234 0
91.2891 11.4025 0
92.4239 7.0779 0
93.7571 9.18102 0
92.5567 11.3632 0
91.2235 9.26001 0
92.4903 9.22075 0
93.6899 7.03819 0
96.2218 6.95733 0
96.3594 11.2424 0
93.8243 11.3234 0
94.9558 6.998 0
96.2906 9.10009 0
95.0918 11.2832 0
93.7571 9.18102 0
95.0238 9.1408 0
96.2218 6.95733 0
98.7536 6.87455 0
98.8945 11.1596 0
96.3594 11.2424 0
97.4877 6.91618 0
98.8241 9.01725 0
97.627 11.2012 0
96.2906 9.10009 0
97.5573 9.05891 0
98.7536 6.87455 0
101.285 6.78986 0
101.43 11.0747 0
98.8945 11.1596 0
100.02 6.83244 0
101.357 8.93251 0
100.162 11.1174 0
98.8241 9.01725 0
100.091 8.97512 0
101.285 6.78986 0
103.817 6.70329 0
103.965 10.9881 0
101.43 11.0747 0
102.551 6.74681 0
103.891 8.84587 0
102.697 11.0316 0
101.357 8.93251 0
102.624 8.88943 0
103.817 6.70329 0
106.349 6.61483 0
106.499 10.8995 0
103.965 10.9881 0
105.083 6.65929 0
106.424 8.75735 0
105.232 10.944 0
103.891 8.84587 0
105.158 8.80184 0
106.349 6.61483 0
108.881 6.5245 0
109.034 10.809 0
106.499 10.8995 0
107.615 6.5699 0
108.958 8.66696 0
107.767 10.8545 0
106.424 8.75735 0
107.691 8.71239 0
108.881 6.5245 0
111.412 6.43232 0
111.569 10.7167 0
109.034 10.809 0
110.147 6.47864 0
111.491 8.57472 0
110.302 10.7631 0
108.958 8.66696 0
110.224 8.62107 0
111.412 6.43232 0
113.944 6.33829 0
114.104 10.6226 0
111.569 10.7167 0
112.678 6.38553 0
114.024 8.48062 0
112.836 10.6699 0
111.491 8.57472 0
112.757 8.5279 0
113.944 6.33829 0
116.476 6.24243 0
116.639 10.5266 0
114.104 10.6226 0
115.21 6.29059 0
116.557 8.3847 0
115.371 10.5748 0
114.024 8.48062 0
115.291 8.43289 0
116.476 6.24243 0
119.007 6.14475 0
119.173 10.4288 0
116.639 10.5266 0
117.741 6.19382 0
119.09 8.28696 0
117.906 10.4779 0
116.557 8.3847 0
117.824 8.33606 0
119.007 6.14475 0
121.539 6.04526 0
121.708 10.3292 0
119.173 10.4288 0
120.273 6.09523 0
121.623 8.1874 0
120.441 10.3792 0
119.09 8.28696 0
120.357 8.23741 0
121.539 6.04526 0
124.07 5.94398 0
124.242 10.2277 0
121.708 10.3292 0
122.804 5.99485 0
124.156 8.08605 0
122.975 10.2787 0
121.623 8.1874 0
122.89 8.13695 0
124.07 5.94398 0
126.602 5.84091 0
126.777 10.1245 0
124.242 10.2277 0
125.336 5.89267 0
126.689 7.98292 0
125.51 10.1764 0
124.156 8.08605 0
125.423 8.03471 0
126.602 5.84091 0
129.133 5.73608 0
129.311 10.0196 0
126.777 10.1245 0
127.867 5.78872 0
129.222 7.87801 0
128.044 10.0723 0
126.689 7.98292 0
127.956 7.93069 0
129.133 5.73608 0
131.664 5.62948 0
131.845 9.91284 0
129.311 10.0196 0
130.399 5.683 0
131.755 7.77135 0
130.578 9.96643 0
129.222 7.87801 0
130.489 7.8249 0
131.664 5.62948 0
134.196 5.52113 0
134.38 9.80436 0
131.845 9.91284 0
132.93 5.57552 0
134.288 7.66293 0
133.113 9.85882 0
131.755 7.77135 0
133.021 7.71736 0
134.196 5.52113 0
136.727 5.41105 0
136.914 9.69414 0
134.38 9.80436 0
135.461 5.46631 0
136.821 7.55278 0
135.647 9.74947 0
134.288 7.66293 0
135.554 7.60807 0
136.727 5.41105 0
139.258 5.29925 0
139.448 9.5822 0
136.914 9.69414 0
137.993 5.35536 0
139.353 7.44091 0
138.181 9.63839 0
136.821 7.55278 0
138.087 7.49706 0
139.258 5.29925 0
141.789 5.18573 0
141.982 9.46854 0
139.448 9.5822 0
140.524 5.2427 0
141.886 7.32732 0
140.715 9.52559 0
139.353 7.44091 0
140.62 7.38433 0
141.789 5.18573 0
144.321 5.07052 0
144.516 9.35319 0
141.982 9.46854 0
143.055 5.12834 0
144.418 7.21203 0
143.249 9.41108 0
141.886 7.32732 0
143.152 7.26989 0
144.321 5.07052 0
146.852 4.95361 0
147.05 9.23615 0
144.516 9.35319 0
145.586 5.01228 0
146.951 7.09506 0
145.783 9.29488 0
144.418 7.21203 0
145.685 7.15376 0
146.852 4.95361 0
149.383 4.83504 0
149.584 9.11743 0
147.05 9.23615 0
148.117 4.89453 0
149.483 6.97641 0
148.317 9.177 0
146.951 7.09506 0
148.217 7.03594 0
149.383 4.83504 0
151.914 4.7148 0
152.118 8.99704 0
149.584 9.11743 0
150.648 4.77512 0
152.016 6.8561 0
150.851 9.05744 0
149.483 6.97641 0
150.75 6.91646 0
151.914 4.7148 0
154.445 4.5929 0
154.652 8.87501 0
152.118 8.99704 0
153.179 4.65406 0
154.548 6.73413 0
153.385 8.93623 0
152.016 6.8561 0
153.282 6.79532 0
154.445 4.5929 0
156.976 4.46937 0
157.185 8.75134 0
154.652 8.87501 0
155.71 4.53134 0
157.08 6.61053 0
155.918 8.81338 0
154.548 6.73413 0
155.814 6.67253 0
156.976 4.46937 0
159.507 4.34422 0
159.719 8.62603 0
157.185 8.75134 0
158.241 4.407 0
159.613 6.4853 0
158.452 8.68889 0
157.08 6.61053 0
158.347 6.54812 0
159.507 4.34422 0
162.037 4.21745 0
162.252 8.49912 0
159.719 8.62603 0
160.772 4.28103 0
162.145 6.35845 0
160.986 8.56278 0
159.613 6.4853 0
160.879 6.42208 0
162.037 4.21745 0
164.568 4.08907 0
164.786 8.3706 0
162.252 8.49912 0
163.303 4.15346 0
164.677 6.23 0
163.519 8.43506 0
162.145 6.35845 0
163.411 6.29443 0
164.568 4.08907 0
167.099 3.95911 0
167.319 8.24048 0
164.786 8.3706 0
165.833 4.02429 0
167.209 6.09996 0
166.052 8.30574 0
164.677 6.23 0
165.943 6.16518 0
167.099 3.95911 0
169.629 3.82756 0
169.852 8.10879 0
167.319 8.24048 0
168.364 3.89353 0
169.741 5.96835 0
168.586 8.17484 0
167.209 6.09996 0
168.475 6.03435 0
169.629 3.82756 0
172.16 3.69445 0
172.386 7.97554 0
169.852 8.10879 0
170.895 3.7612 0
172.273 5.83516 0
171.119 8.04236 0
169.741 5.96835 0
171.007 5.90195 0
172.16 3.69445 0
174.691 3.55979 0
174.919 7.84072 0
172.386 7.97554 0
173.425 3.62732 0
174.805 5.70042 0
173.652 7.90832 0
172.273 5.83516 0
173.539 5.76798 0
174.691 3.55979 0
177.221 3.42358 0
177.452 7.70437 0
174.919 7.84072 0
175.956 3.49188 0
177.337 5.56414 0
176.185 7.77274 0
174.805 5.70042 0
176.071 5.63247 0
177.221 3.42358 0
179.752 3.28585 0
179.985 7.56648 0
177.452 7.70437 0
178.486 3.35491 0
179.868 5.42633 0
178.719 7.63561 0
177.337 5.56414 0
178.602 5.49542 0
179.752 3.28585 0
182.282 3.14659 0
182.518 7.42708 0
179.985 7.56648 0
181.017 3.21641 0
182.4 5.28699 0
181.252 7.49697 0
179.868 5.42633 0
181.134 5.35685 0
182.282 3.14659 0
184.812 3.00583 0
185.051 7.28616 0
182.518 7.42708 0
183.547 3.0764 0
184.932 5.14616 0
183.784 7.35681 0
182.4 5.28699 0
183.666 5.21676 0
184.812 3.00583 0
187.343 2.86358 0
187.584 7.14376 0
185.051 7.28616 0
186.077 2.93489 0
187.463 5.00383 0
186.317 7.21515 0
184.932 5.14616 0
186.197 5.07518 0
187.343 2.86358 0
189.873 2.71984 0
190.116 6.99987 0
187.584 7.14376 0
188.608 2.79189 0
189.995 4.86001 0
188.85 7.072 0
187.463 5.00383 0
188.729 4.9321 0
189.873 2.71984 0
192.403 2.57463 0
192.649 6.85451 0
190.116 6.99987 0
191.138 2.64742 0
192.526 4.71473 0
191.383 6.92738 0
189.995 4.86001 0
191.26 4.78755 0
192.403 2.57463 0
194.933 2.42797 0
195.182 6.7077 0
192.649 6.85451 0
193.668 2.50148 0
195.057 4.56799 0
193.915 6.78129 0
192.526 4.71473 0
193.792 4.64154 0
194.933 2.42797 0
197.463 2.27986 0
197.714 6.55944 0
195.182 6.7077 0
196.198 2.3541 0
197.589 4.4198 0
196.448 6.63375 0
195.057 4.56799 0
196.323 4.49407 0
197.463 2.27986 0
199.993 2.13032 0
200.247 6.40974 0
197.714 6.55944 0
198.728 2.20527 0
200.12 4.27018 0
198.98 6.48477 0
197.589 4.4198 0
198.854 4.34517 0
199.993 2.13032 0
202.523 1.97935 0
202.779 6.25862 0
200.247 6.40974 0
201.258 2.05501 0
202.651 4.11914 0
201.513 6.33436 0
200.12 4.27018 0
201.386 4.19484 0
202.523 1.97935 0
205.053 1.82698 0
205.311 6.10609 0
202.779 6.25862 0
203.788 1.90334 0
205.182 3.96668 0
204.045 6.18253 0
202.651 4.11914 0
203.917 4.04309 0
205.053 1.82698 0
207.583 1.67321 0
207.844 5.95217 0
205.311 6.10609 0
206.318 1.75027 0
207.713 3.81284 0
206.577 6.02931 0
205.182 3.96668 0
206.448 3.88993 0
207.583 1.67321 0
210.113 1.51805 0
210.376 5.79686 0
207.844 5.95217 0
208.848 1.5958 0
210.244 3.6576 0
209.11 5.87469 0
207.713 3.81284 0
208.979 3.73539 0
210.113 1.51805 0
212.643 1.36152 0
212.908 5.64018 0
210.376 5.79686 0
211.378 1.43995 0
212.775 3.50099 0
211.642 5.71869 0
210.244 3.6576 0
211.51 3.57947 0
212.643 1.36152 0
215.172 1.20362 0
215.44 5.48213 0
212.908 5.64018 0
213.908 1.28274 0
215.306 3.34302 0
214.174 5.56132 0
212.775 3.50099 0
214.041 3.42218 0
215.172 1.20362 0
217.702 1.04438 0
217.972 5.32274 0
215.44 5.48213 0
216.437 1.12417 0
217.837 3.1837 0
216.706 5.4026 0
215.306 3.34302 0
216.571 3.26353 0
217.702 1.04438 0
220.232 0.883805 0
220.503 5.16201 0
217.972 5.32274 0
218.967 0.964261 0
220.368 3.02305 0
219.238 5.24254 0
217.837 3.1837 0
219.102 3.10354 0
220.232 0.883805 0
222.761 0.721901 0
223.035 4.99995 0
220.503 5.16201 0
221.496 0.803018 0
222.898 2.86107 0
221.769 5.08114 0
220.368 3.02305 0
221.633 2.94222 0
222.761 0.721901 0
225.291 0.558685 0
225.567 4.83658 0
223.035 4.99995 0
224.026 0.640456 0
225.429 2.69777 0
224.301 4.91843 0
222.898 2.86107 0
224.164 2.77958 0
225.291 0.558685 0
227.82 0.394167 0
228.099 4.67191 0
225.567 4.83658 0
226.555 0.476588 0
227.959 2.53318 0
226.833 4.75441 0
225.429 2.69777 0
226.694 2.61564 0
227.82 0.394167 0
230.349 0.228361 0
230.63 4.50596 0
228.099 4.67191 0
229.085 0.311424 0
230.49 2.36729 0
229.364 4.58909 0
227.959 2.53318 0
229.225 2.4504 0
230.349 0.228361 0
232.879 0.0612774 0
233.162 4.33872 0
230.63 4.50596 0
231.614 0.144978 0
233.02 2.20013 0
231.896 4.4225 0
230.49 2.36729 0
231.755 2.28387 0
232.879 0.0612774 0
235.408 -0.107071 0
235.693 4.17022 0
233.162 4.33872 0
234.143 -0.0227394 0
235.551 2.03171 0
234.427 4.25463 0
233.02 2.20013 0
234.285 2.11608 0
235.408 -0.107071 0
237.937 -0.276672 0
238.224 4.00047 0
235.693 4.17022 0
236.673 -0.191715 0
238.081 1.86203 0
236.959 4.0855 0
235.551 2.03171 0
236.816 1.94703 0
237.937 -0.276672 0
240.467 -0.447513 0
240.756 3.82948 0
238.224 4.00047 0
239.202 -0.361938 0
240.611 1.69111 0
239.49 3.91513 0
238.081 1.86203 0
239.346 1.77673 0
240.467 -0.447513 0
242.996 -0.619584 0
243.287 3.65726 0
240.756 3.82948 0
241.731 -0.533396 0
243.141 1.51897 0
242.021 3.74352 0
240.611 1.69111 0
241.876 1.60519 0
242.996 -0.619584 0
245.525 -0.79287 0
245.818 3.48382 0
243.287 3.65726 0
244.26 -0.706076 0
245.671 1.3456 0
244.552 3.57069 0
243.141 1.51897 0
244.406 1.43244 0
245.525 -0.79287 0
248.054 -0.967362 0
248.349 3.30918 0
245.818 3.48382 0
246.789 -0.879966 0
248.201 1.17104 0
247.083 3.39665 0
245.671 1.3456 0
246.936 1.25847 0
248.054 -0.967362 0
250.583 -1.14305 0
250.88 3.13335 0
248.349 3.30918 0
249.318 -1.05506 0
250.731 0.995276 0
249.614 3.22141 0
248.201 1.17104 0
249.466 1.0833 0
250.583 -1.14305 0
253.112 -1.31991 0
253.411 2.95633 0
250.88 3.13335 0
251.847 -1.23133 0
253.261 0.818336 0
252.145 3.04499 0
250.731 0.995276 0
251.996 0.906953 0
253.112 -1.31991 0
255.64 -1.49794 0
255.942 2.77815 0
253.411 2.95633 0
254.376 -1.40878 0
255.791 0.640228 0
254.676 2.86739 0
253.261 0.818336 0
254.526 0.729427 0
255.64 -1.49794 0
258.169 -1.67713 0
258.472 2.59882 0
255.942 2.77815 0
256.905 -1.58739 0
258.321 0.460964 0
257.207 2.68863 0
255.791 0.640228 0
257.056 0.55074 0
258.169 -1.67713 0
260.698 -1.85747 0
261.003 2.41834 0
258.472 2.59882 0
259.434 -1.76716 0
260.851 0.280556 0
259.738 2.50872 0
258.321 0.460964 0
259.586 0.370902 0
260.698 -1.85747 0
263.227 -2.03893 0
263.534 2.23673 0
261.003 2.41834 0
261.962 -1.94806 0
263.38 0.0990157 0
262.268 2.32767 0
260.851 0.280556 0
262.115 0.189926 0
263.227 -2.03893 0
265.755 -2.22152 0
266.064 2.05399 0
263.534 2.23673 0
264.491 -2.13008 0
265.91 -0.0836443 0
264.799 2.1455 0
263.38 0.0990157 0
264.645 0.00782496 0
265.755 -2.22152 0
268.284 -2.40521 0
268.595 1.87015 0
266.064 2.05399 0
267.02 -2.31323 0
268.439 -0.267412 0
267.33 1.96221 0
265.91 -0.0836443 0
267.175 -0.17539 0
268.284 -2.40521 0
270.813 -2.59 0
271.125 1.68522 0
268.595 1.87015 0
269.548 -2.49747 0
270.969 -0.452276 0
269.86 1.77782 0
268.439 -0.267412 0
269.704 -0.359708 0
270.813 -2.59 0
273.341 -2.77588 0
273.655 1.4992 0
271.125 1.68522 0
272.077 -2.6828 0
273.498 -0.638223 0
272.39 1.59235 0
270.969 -0.452276 0
272.234 -0.545115 0
273.341 -2.77588 0
275.87 -2.96282 0
276.186 1.31211 0
273.655 1.4992 0
274.605 -2.86922 0
276.028 -0.825242 0
274.921 1.40579 0
273.498 -0.638223 0
274.763 -0.731599 0
275.87 -2.96282 0
278.398 -3.15083 0
278.716 1.12397 0
276.186 1.31211 0
277.134 -3.05669 0
278.557 -1.01332 0
277.451 1.21817 0
276.028 -0.825242 0
277.292 -0.91915 0
278.398 -3.15083 0
280.926 -3.33988 0
281.246 0.93477 0
278.716 1.12397 0
279.662 -3.24523 0
281.086 -1.20245 0
279.981 1.0295 0
278.557 -1.01332 0
279.822 -1.10775 0
280.926 -3.33988 0
283.455 -3.52997 0
283.776 0.744539 0
281.246 0.93477 0
282.191 -3.4348 0
283.615 -1.39261 0
282.511 0.839783 0
281.086 -1.20245 0
282.351 -1.2974 0
283.455 -3.52997 0
285.983 -3.72109 0
286.306 0.553285 0
283.776 0.744539 0
284.719 -3.6254 0
286.145 -1.58379 0
285.041 0.649039 0
283.615 -1.39261 0
284.88 -1.48807 0
285.983 -3.72109 0
288.511 -3.91321 0
288.836 0.36102 0
286.306 0.553285 0
287.247 -3.81702 0
288.674 -1.77599 0
287.571 0.457278 0
286.145 -1.58379 0
287.409 -1.67977 0
288.511 -3.91321 0
291.039 -4.10634 0
291.366 0.167757 0
288.836 0.36102 0
289.775 -4.00965 0
291.203 -1.96919 0
290.101 0.264513 0
288.674 -1.77599 0
289.938 -1.87246 0
291.039 -4.10634 0
293.568 -4.30045 0
293.896 -0.0264938 0
291.366 0.167757 0
292.304 -4.20327 0
293.732 -2.16337 0
292.631 0.0707541 0
291.203 -1.96919 0
292.467 -2.06616 0
293.568 -4.30045 0
296.096 -4.49554 0
296.425 -0.221719 0
293.896 -0.0264938 0
294.832 -4.39788 0
296.261 -2.35853 0
295.161 -0.123985 0
293.732 -2.16337 0
294.996 -2.26083 0
296.096 -4.49554 0
298.624 -4.69159 0
298.955 -0.417907 0
296.425 -0.221719 0
297.36 -4.59345 0
298.789 -2.55465 0
297.69 -0.319694 0
296.261 -2.35853 0
297.525 -2.45647 0
298.624 -4.69159 0
301.152 -4.8886 0
301.485 -0.615046 0
298.955 -0.417907 0
299.888 -4.78998 0
301.318 -2.75172 0
300.22 -0.516359 0
298.789 -2.55465 0
300.054 -2.65307 0
301.152 -4.8886 0
303.68 -5.08654 0
304.014 -0.813124 0
301.485 -0.615046 0
302.416 -4.98745 0
303.847 -2.94974 0
302.75 -0.713968 0
301.318 -2.75172 0
302.583 -2.85061 0
303.68 -5.08654 0
306.208 -5.28542 0
306.544 -1.01213 0
304.014 -0.813124 0
304.944 -5.18586 0
306.376 -3.14868 0
305.279 -0.912511 0
303.847 -2.94974 0
305.111 -3.04909 0
306.208 -5.28542 0
308.736 -5.4852 0
309.073 -1.21205 0
306.544 -1.01213 0
307.472 -5.3852 0
308.904 -3.34853 0
307.808 -1.11197 0
306.376 -3.14868 0
307.64 -3.24849 0
308.736 -5.4852 0
311.263 -5.68589 0
311.603 -1.41287 0
309.073 -1.21205 0
309.999 -5.58544 0
311.433 -3.54929 0
310.338 -1.31235 0
308.904 -3.34853 0
310.169 -3.4488 0
311.263 -5.68589 0
313.791 -5.88748 0
314.132 -1.61458 0
311.603 -1.41287 0
312.527 -5.78658 0
313.962 -3.75094 0
312.867 -1.51361 0
311.433 -3.54929 0
312.697 -3.65 0
313.791 -5.88748 0
316.319 -6.08994 0
316.661 -1.81717 0
314.132 -1.61458 0
315.055 -5.9886 0
316.49 -3.95346 0
315.396 -1.71577 0
313.962 -3.75094 0
315.226 -3.85209 0
316.319 -6.08994 0
318.847 -6.29327 0
319.19 -2.02063 0
316.661 -1.81717 0
317.583 -6.1915 0
319.018 -4.15686 0
317.926 -1.91879 0
316.49 -3.95346 0
317.754 -4.05505 0
318.847 -6.29327 0
321.374 -6.49745 0
321.719 -2.22494 0
319.19 -2.02063 0
320.111 -6.39526 0
321.547 -4.36111 0
320.455 -2.12268 0
319.018 -4.15686 0
320.283 -4.25888 0
321.374 -6.49745 0
323.902 -6.70248 0
324.248 -2.43009 0
321.719 -2.22494 0
322.638 -6.59986 0
324.075 -4.5662 0
322.984 -2.32741 0
321.547 -4.36111 0
322.811 -4.46355 0
323.902 -6.70248 0
326.43 -6.90834 0
326.777 -2.63607 0
324.248 -2.43009 0
325.166 -6.80531 0
326.604 -4.77212 0
325.513 -2.53298 0
324.075 -4.5662 0
325.339 -4.66906 0
326.43 -6.90834 0
328.957 -7.11502 0
329.306 -2.84287 0
326.777 -2.63607 0
327.693 -7.01158 0
329.132 -4.97886 0
328.042 -2.73937 0
326.604 -4.77212 0
327.868 -4.87539 0
328.957 -7.11502 0
331.485 -7.32251 0
331.835 -3.05048 0
329.306 -2.84287 0
330.221 -7.21867 0
331.66 -5.18641 0
330.571 -2.94658 0
329.132 -4.97886 0
330.396 -5.08254 0
331.485 -7.32251 0
334.012 -7.53079 0
334.364 -3.25888 0
331.835 -3.05048 0
332.749 -7.42655 0
334.188 -5.39476 0
333.1 -3.15458 0
331.66 -5.18641 0
332.924 -5.29049 0
334.012 -7.53079 0
336.54 -7.73986 0
336.893 -3.46807 0
334.364 -3.25888 0
335.276 -7.63523 0
336.716 -5.60388 0
335.629 -3.36338 0
334.188 -5.39476 0
335.452 -5.49922 0
336.54 -7.73986 0
339.067 -7.94969 0
339.422 -3.67802 0
336.893 -3.46807 0
337.803 -7.84468 0
339.244 -5.81378 0
338.157 -3.57295 0
336.716 -5.60388 0
337.98 -5.70873 0
339.067 -7.94969 0
341.595 -8.16029 0
341.95 -3.88873 0
339.422 -3.67802 0
340.331 -8.0549 0
341.773 -6.02443 0
340.686 -3.78328 0
339.244 -5.81378 0
340.508 -5.91901 0
341.595 -8.16029 0
344.122 -8.37163 0
344.479 -4.10019 0
341.95 -3.88873 0
342.858 -8.26587 0
344.301 -6.23583 0
343.215 -3.99437 0
341.773 -6.02443 0
343.037 -6.13004 0
344.122 -8.37163 0
346.649 -8.58371 0
347.008 -4.31238 0
344.479 -4.10019 0
345.386 -8.47758 0
346.828 -6.44797 0
345.743 -4.2062 0
344.301 -6.23583 0
345.564 -6.34181 0
346.649 -8.58371 0
349.177 -8.79651 0
349.536 -4.5253 0
347.008 -4.31238 0
347.913 -8.69002 0
349.356 -6.66083 0
348.272 -4.41875 0
346.828 -6.44797 0
348.092 -6.55431 0
349.177 -8.79651 0
351.704 -9.01003 0
352.065 -4.73892 0
349.536 -4.5253 0
350.44 -8.90318 0
351.884 -6.8744 0
350.8 -4.63202 0
349.356 -6.66083 0
350.62 -6.76753 0
351.704 -9.01003 0
354.231 -9.22424 0
354.593 -4.95324 0
352.065 -4.73892 0
352.968 -9.11705 0
354.412 -7.08867 0
353.329 -4.84599 0
351.884 -6.8744 0
353.148 -6.98145 0
354.231 -9.22424 0
356.758 -9.43914 0
357.121 -5.16825 0
354.593 -4.95324 0
355.495 -9.3316 0
356.94 -7.30362 0
355.857 -5.06066 0
354.412 -7.08867 0
355.676 -7.19606 0
356.758 -9.43914 0
359.286 -9.65471 0
359.65 -5.38393 0
357.121 -5.16825 0
358.022 -9.54684 0
359.468 -7.51925 0
358.386 -5.276 0
356.94 -7.30362 0
358.204 -7.41135 0
359.286 -9.65471 0
361.813 -9.87095 0
362.178 -5.60027 0
359.65 -5.38393 0
360.549 -9.76275 0
361.995 -7.73554 0
360.914 -5.49202 0
359.468 -7.51925 0
360.732 -7.62731 0
361.813 -9.87095 0
364.34 -10.0878 0
364.706 -5.81726 0
362.178 -5.60027 0
363.076 -9.97931 0
364.523 -7.95248 0
363.442 -5.70868 0
361.995 -7.73554 0
363.259 -7.84393 0
364.34 -10.0878 0
366.867 -10.3054 0
367.234 -6.03489 0
364.706 -5.81726 0
365.604 -10.1965 0
367.051 -8.17006 0
365.97 -5.926 0
364.523 -7.95248 0
365.787 -8.06119 0
366.867 -10.3054 0
369.394 -10.5235 0
369.763 -6.25315 0
367.234 -6.03489 0
368.131 -10.4144 0
369.578 -8.38827 0
368.498 -6.14394 0
367.051 -8.17006 0
368.315 -8.27909 0
369.394 -10.5235 0
371.921 -10.7423 0
372.291 -6.47202 0
369.763 -6.25315 0
370.658 -10.6328 0
372.106 -8.60709 0
371.027 -6.3625 0
369.578 -8.38827 0
370.842 -8.4976 0
371.921 -10.7423 0
374.448 -10.9617 0
374.819 -6.69149 0
372.291 -6.47202 0
373.185 -10.8519 0
374.634 -8.82651 0
373.555 -6.58168 0
372.106 -8.60709 0
373.37 -8.71673 0
374.448 -10.9617 0
376.975 -11.1816 0
377.347 -6.91155 0
374.819 -6.69149 0
375.712 -11.0716 0
377.161 -9.04653 0
376.083 -6.80144 0
374.634 -8.82651 0
375.897 -8.93645 0
376.975 -11.1816 0
379.502 -11.4022 0
379.875 -7.13218 0
377.347 -6.91155 0
378.239 -11.2918 0
379.689 -9.26712 0
378.611 -7.02179 0
377.161 -9.04653 0
378.425 -9.15675 0
379.502 -11.4022 0
382.029 -11.6233 0
382.403 -7.35339 0
379.875 -7.13218 0
380.766 -11.5127 0
382.216 -9.48828 0
381.139 -7.24271 0
379.689 -9.26712 0
380.952 -9.37763 0
382.029 -11.6233 0
384.556 -11.8449 0
384.931 -7.57514 0
382.403 -7.35339 0
383.293 -11.734 0
384.744 -9.70999 0
383.667 -7.4642 0
382.216 -9.48828 0
383.48 -9.59906 0
384.556 -11.8449 0
387.083 -12.0672 0
387.458 -7.79744 0
384.931 -7.57514 0
385.82 -11.956 0
387.271 -9.93224 0
386.195 -7.68622 0
384.744 -9.70999 0
386.007 -9.82105 0
387.083 -12.0672 0
389.61 -12.2899 0
389.986 -8.02027 0
387.458 -7.79744 0
388.347 -12.1785 0
389.798 -10.155 0
388.722 -7.90879 0
387.271 -9.93224 0
388.535 -10.0436 0
389.61 -12.2899 0
392.137 -12.5132 0
392.514 -8.24361 0
389.986 -8.02027 0
390.874 -12.4015 0
392.326 -10.3783 0
391.25 -8.13188 0
389.798 -10.155 0
391.062 -10.2666 0
392.137 -12.5132 0
394.664 -12.7369 0
395.042 -8.46746 0
392.514 -8.24361 0
393.401 -12.625 0
394.853 -10.6021 0
393.778 -8.35548 0
392.326 -10.3783 0
393.589 -10.4902 0
394.664 -12.7369 0
397.191 -12.9612 0
397.57 -8.69181 0
395.042 -8.46746 0
395.928 -12.849 0
397.38 -10.8264 0
396.306 -8.57957 0
394.853 -10.6021 0
396.117 -10.7142 0
397.191 -12.9612 0
399.718 -13.1859 0
400.097 -8.91663 0
397.57 -8.69181 0
398.455 -13.0735 0
399.908 -11.0512 0
398.833 -8.80416 0
397.38 -10.8264 0
398.644 -10.9388 0
399.718 -13.1859 0
402.245 -13.4111 0
402.625 -9.14193 0
400.097 -8.91663 0
400.982 -13.2985 0
402.435 -11.2765 0
401.361 -9.02922 0
399.908 -11.0512 0
401.171 -11.1638 0
402.245 -13.4111 0
404.772 -13.6368 0
405.153 -9.36768 0
402.625 -9.14193 0
403.508 -13.5239 0
404.962 -11.5022 0
403.889 -9.25474 0
402.435 -11.2765 0
403.699 -11.3893 0
404.772 -13.6368 0
407.299 -13.8629 0
407.68 -9.59387 0
405.153 -9.36768 0
406.035 -13.7498 0
407.489 -11.7284 0
406.416 -9.48072 0
404.962 -11.5022 0
406.226 -11.6152 0
407.299 -13.8629 0
409.826 -14.0895 0
410.208 -9.8205 0
407.68 -9.59387 0
408.562 -13.9762 0
410.017 -11.955 0
408.944 -9.70714 0
407.489 -11.7284 0
408.753 -11.8416 0
409.826 -14.0895 0
412.352 -14.3165 0
412.735 -10.0476 0
410.208 -9.8205 0
411.089 -14.2029 0
412.544 -12.182 0
411.472 -9.93398 0
410.017 -11.955 0
411.28 -12.0684 0
412.352 -14.3165 0
414.879 -14.5439 0
415.263 -10.275 0
412.735 -10.0476 0
413.616 -14.4301 0
415.071 -12.4094 0
413.999 -10.1612 0
412.544 -12.182 0
413.808 -12.2956 0
414.879 -14.5439 0
417.406 -14.7716 0
417.79 -10.5029 0
415.263 -10.275 0
416.143 -14.6577 0
417.598 -12.6372 0
416.527 -10.3889 0
415.071 -12.4094 0
416.335 -12.5233 0
417.406 -14.7716 0
419.933 -14.9998 0
420.318 -10.7311 0
417.79 -10.5029 0
418.67 -14.8857 0
420.125 -12.8654 0
419.054 -10.6169 0
417.598 -12.6372 0
418.862 -12.7513 0
419.933 -14.9998 0
422.46 -15.2284 0
422.845 -10.9597 0
420.318 -10.7311 0
421.196 -15.114 0
422.653 -13.094 0
421.582 -10.8454 0
420.125 -12.8654 0
421.389 -12.9797 0
422.46 -15.2284 0
424.987 -15.4573 0
425.373 -11.1887 0
422.845 -10.9597 0
423.723 -15.3428 0
425.18 -13.323 0
424.109 -11.0742 0
422.653 -13.094 0
423.916 -13.2084 0
424.987 -15.4573 0
427.513 -15.6865 0
427.9 -11.418 0
425.373 -11.1887 0
426.25 -15.5719 0
427.707 -13.5523 0
426.636 -11.3033 0
425.18 -13.323 0
426.443 -13.4376 0
427.513 -15.6865 0
430.04 -15.9162 0
430.428 -11.6477 0
427.9 -11.418 0
428.777 -15.8013 0
430.234 -13.7819 0
429.164 -11.5328 0
427.707 -13.5523 0
428.97 -13.667 0
430.04 -15.9162 0
432.567 -16.1461 0
432.955 -11.8777 0
430.428 -11.6477 0
431.304 -16.0311 0
432.761 -14.0119 0
431.691 -11.7627 0
430.234 -13.7819 0
431.498 -13.8968 0
432.567 -16.1461 0
435.094 -16.3763 0
435.482 -12.108 0
432.955 -11.8777 0
433.831 -16.2612 0
435.288 -14.2421 0
434.219 -11.9928 0
432.761 -14.0119 0
434.025 -14.127 0
435.094 -16.3763 0
437.621 -16.6069 0
438.01 -12.3386 0
435.482 -12.108 0
436.357 -16.4916 0
437.815 -14.4727 0
436.746 -12.2233 0
435.288 -14.2421 0
436.552 -14.3574 0
437.621 -16.6069 0
440.148 -16.8377 0
440.537 -12.5695 0
438.01 -12.3386 0
438.884 -16.7223 0
440.342 -14.7036 0
439.273 -12.454 0
437.815 -14.4727 0
439.079 -14.5881 0
440.148 -16.8377 0
442.674 -17.0688 0
443.064 -12.8007 0
440.537 -12.5695 0
441.411 -16.9532 0
442.869 -14.9347 0
441.801 -12.685 0
440.342 -14.7036 0
441.606 -14.8191 0
442.674 -17.0688 0
445.201 -17.3002 0
445.592 -13.0321 0
443.064 -12.8007 0
443.938 -17.1845 0
445.396 -15.1661 0
444.328 -12.9163 0
442.869 -14.9347 0
444.133 -15.0504 0
445.201 -17.3002 0
447.728 -17.5319 0
448.119 -13.2638 0
445.592 -13.0321 0
446.465 -17.416 0
447.924 -15.3978 0
446.855 -13.1479 0
445.396 -15.1661 0
446.66 -15.2819 0
447.728 -17.5319 0
450.255 -17.7637 0
450.646 -13.4957 0
448.119 -13.2638 0
448.992 -17.6478 0
450.451 -15.6297 0
449.382 -13.3797 0
447.924 -15.3978 0
449.187 -15.5137 0
450.255 -17.7637 0
452.782 -17.9959 0
453.173 -13.7279 0
450.646 -13.4957 0
451.519 -17.8798 0
452.978 -15.8618 0
451.91 -13.6118 0
450.451 -15.6297 0
451.714 -15.7457 0
452.782 -17.9959 0
455.309 -18.2282 0
455.701 -13.9602 0
453.173 -13.7279 0
454.045 -18.112 0
455.505 -16.0942 0
454.437 -13.844 0
452.978 -15.8618 0
454.241 -15.978 0
455.309 -18.2282 0
457.836 -18.4607 0
458.228 -14.1928 0
455.701 -13.9602 0
456.572 -18.3444 0
458.032 -16.3268 0
456.964 -14.0765 0
455.505 -16.0942 0
456.768 -16.2104 0
457.836 -18.4607 0
460.363 -18.6935 0
460.755 -14.4256 0
458.228 -14.1928 0
459.099 -18.5771 0
460.559 -16.5595 0
459.491 -14.3092 0
458.032 -16.3268 0
459.295 -16.4431 0
460.363 -18.6935 0
462.89 -18.9264 0
463.282 -14.6585 0
460.755 -14.4256 0
461.626 -18.8099 0
463.086 -16.7924 0
462.019 -14.542 0
460.559 -16.5595 0
461.822 -16.676 0
462.89 -18.9264 0
465.417 -19.1595 0
465.81 -14.8917 0
463.282 -14.6585 0
464.153 -19.0429 0
465.613 -17.0256 0
464.546 -14.7751 0
463.086 -16.7924 0
464.349 -16.909 0
465.417 -19.1595 0
467.943 -19.3927 0
468.337 -15.125 0
465.81 -14.8917 0
466.68 -19.2761 0
468.14 -17.2588 0
467.073 -15.0083 0
465.613 -17.0256 0
466.877 -17.1422 0
467.943 -19.3927 0
470.47 -19.6261 0
470.864 -15.3584 0
468.337 -15.125 0
469.207 -19.5094 0
470.667 -17.4922 0
469.6 -15.2416 0
468.14 -17.2588 0
469.404 -17.3755 0
470.47 -19.6261 0
472.997 -19.8596 0
473.391 -15.5919 0
470.864 -15.3584 0
471.734 -19.7428 0
473.194 -17.7258 0
472.128 -15.4751 0
470.667 -17.4922 0
471.931 -17.609 0
472.997 -19.8596 0
475.524 -20.0933 0
475.918 -15.8256 0
473.391 -15.5919 0
474.261 -19.9764 0
475.721 -17.9594 0
474.655 -15.7088 0
473.194 -17.7258 0
474.458 -17.8426 0
475.524 -20.0933 0
478.052 -20.327 0
478.446 -16.0594 0
475.918 -15.8256 0
476.788 -20.2102 0
478.249 -18.1932 0
477.182 -15.9425 0
475.721 -17.9594 0
476.985 -18.0763 0
478.052 -20.327 0
480.579 -20.5609 0
480.973 -16.2933 0
478.446 -16.0594 0
479.315 -20.444 0
480.776 -18.4271 0
479.709 -16.1763 0
478.249 -18.1932 0
479.512 -18.3101 0
480.579 -20.5609 0
483.106 -20.7949 0
483.5 -16.5273 0
480.973 -16.2933 0
481.842 -20.6779 0
483.303 -18.6611 0
482.236 -16.4103 0
480.776 -18.4271 0
482.039 -18.5441 0
483.106 -20.7949 0
485.633 -21.0289 0
486.027 -16.7613 0
483.5 -16.5273 0
484.369 -20.9119 0
485.83 -18.8951 0
484.764 -16.6443 0
483.303 -18.6611 0
484.566 -18.7781 0
485.633 -21.0289 0
488.16 -21.263 0
488.554 -16.9955 0
486.027 -16.7613 0
486.896 -21.1459 0
488.357 -19.1292 0
487.291 -16.8784 0
485.83 -18.8951 0
487.094 -19.0122 0
488.16 -21.263 0
490.687 -21.4972 0
491.082 -17.2296 0
488.554 -16.9955 0
489.424 -21.3801 0
490.884 -19.3634 0
489.818 -17.1125 0
488.357 -19.1292 0
489.621 -19.2463 0
490.687 -21.4972 0
493.214 -21.7314 0
493.609 -17.4638 0
491.082 -17.2296 0
491.951 -21.6142 0
493.412 -19.5976 0
492.345 -17.3467 0
490.884 -19.3634 0
492.148 -19.4805 0
493.214 -21.7314 0
495.742 -21.9655 0
496.136 -17.6979 0
493.609 -17.4638 0
494.478 -21.8485 0
495.939 -19.8317 0
494.873 -17.5808 0
493.412 -19.5976 0
494.675 -19.7146 0
495.742 -21.9655 0
498.269 -22.1996 0
498.663 -17.9319 0
496.136 -17.6979 0
497.005 -22.0826 0
498.466 -20.0657 0
497.4 -17.8149 0
495.939 -19.8317 0
497.203 -19.9487 0
0 12.8571 0
2.53629 12.8574 0
2.53978 17.1431 0
0 17.1429 0
1.26815 12.8577 0
2.53803 15.0004 0
1.26989 17.1434 0
0 15 0
1.26902 15.0006 0
2.53629 12.8574 0
5.07243 12.8545 0
5.07971 17.1402 0
2.53978 17.1431 0
3.80437 12.8563 0
5.07607 14.9975 0
3.80973 17.142 0
2.53803 15.0004 0
3.80705 14.9993 0
5.07243 12.8545 0
7.6085 12.8486 0
7.61971 17.1343 0
5.07971 17.1402 0
6.34047 12.8519 0
7.61411 14.9917 0
6.34971 17.1376 0
5.07607 14.9975 0
6.34509 14.9949 0
7.6085 12.8486 0
10.1445 12.8402 0
10.1597 17.1259 0
7.61971 17.1343 0
8.87652 12.8447 0
10.1521 14.9833 0
8.88972 17.1304 0
7.61411 14.9917 0
8.88312 14.9878 0
10.1445 12.8402 0
12.6805 12.8294 0
12.6998 17.115 0
10.1597 17.1259 0
11.4125 12.8351 0
12.6902 14.9724 0
11.4298 17.1207 0
10.1521 14.9833 0
11.4211 14.9782 0
12.6805 12.8294 0
15.2166 12.8161 0
15.2398 17.1018 0
12.6998 17.115 0
13.9486 12.823 0
15.2282 14.9592 0
13.9698 17.1087 0
12.6902 14.9724 0
13.9592 14.9661 0
15.2166 12.8161 0
17.7526 12.8006 0
17.7797 17.0862 0
15.2398 17.1018 0
16.4846 12.8087 0
17.7662 14.9437 0
16.5098 17.0943 0
15.2282 14.9592 0
16.4972 14.9517 0
17.7526 12.8006 0
20.2886 12.7828 0
20.3197 17.0684 0
17.7797 17.0862 0
19.0206 12.792 0
20.3042 14.9258 0
19.0497 17.0776 0
17.7662 14.9437 0
19.0352 14.935 0
20.2886 12.7828 0
22.8247 12.7627 0
22.8596 17.0483 0
20.3197 17.0684 0
21.5567 12.7731 0
22.8421 14.9057 0
21.5896 17.0586 0
20.3042 14.9258 0
21.5731 14.9161 0
22.8247 12.7627 0
25.3607 12.7404 0
25.3994 17.0259 0
22.8596 17.0483 0
24.0927 12.7518 0
25.3801 14.8834 0
24.1295 17.0373 0
22.8421 14.9057 0
24.1111 14.8948 0
25.3607 12.7404 0
27.8967 12.7158 0
27.9393 17.0012 0
25.3994 17.0259 0
26.6287 12.7284 0
27.918 14.8587 0
26.6694 17.0138 0
25.3801 14.8834 0
26.649 14.8713 0
27.8967 12.7158 0
30.4327 12.6889 0
30.4791 16.9743 0
27.9393 17.0012 0
29.1647 12.7026 0
30.4559 14.8319 0
29.2092 16.9881 0
27.918 14.8587 0
29.187 14.8456 0
30.4327 12.6889 0
32.9687 12.6598 0
33.0188 16.9452 0
30.4791 16.9743 0
31.7007 12.6747 0
32.9938 14.8028 0
31.749 16.9601 0
30.4559 14.8319 0
31.7249 14.8176 0
32.9687 12.6598 0
35.5047 12.6285 0
35.5586 16.9139 0
33.0188 16.9452 0
34.2367 12.6445 0
35.5316 14.7714 0
34.2887 16.9298 0
32.9938 14.8028 0
34.2627 14.7874 0
35.5047 12.6285 0
38.0407 12.595 0
38.0983 16.8803 0
35.5586 16.9139 0
36.7727 12.6121 0
38.0695 14.7379 0
36.8284 16.8974 0
35.5316 14.7714 0
36.8006 14.755 0
38.0407 12.595 0
40.5766 12.5593 0
40.6379 16.8446 0
38.0983 16.8803 0
39.3087 12.5775 0
40.6073 14.7022 0
39.3681 16.8627 0
38.0695 14.7379 0
39.3384 14.7203 0
40.5766 12.5593 0
43.1126 12.5214 0
43.1775 16.8066 0
40.6379 16.8446 0
41.8446 12.5407 0
43.145 14.6643 0
41.9077 16.8259 0
40.6073 14.7022 0
41.8762 14.6835 0
43.1126 12.5214 0
45.6485 12.4814 0
45.7171 16.7665 0
43.1775 16.8066 0
44.3805 12.5017 0
45.6828 14.6242 0
44.4473 16.7868 0
43.145 14.6643 0
44.4139 14.6445 0
45.6485 12.4814 0
48.1843 12.4392 0
48.2566 16.7242 0
45.7171 16.7665 0
46.9164 12.4605 0
48.2205 14.5819 0
46.9868 16.7456 0
45.6828 14.6242 0
46.9516 14.6033 0
48.1843 12.4392 0
50.7202 12.3948 0
50.7961 16.6798 0
48.2566 16.7242 0
49.4523 12.4172 0
50.7581 14.5375 0
49.5263 16.7023 0
48.2205 14.5819 0
49.4893 14.56 0
50.7202 12.3948 0
53.256 12.3483 0
53.3355 16.6332 0
50.7961 16.6798 0
51.9881 12.3718 0
53.2958 14.491 0
52.0658 16.6568 0
50.7581 14.5375 0
52.027 14.5145 0
53.256 12.3483 0
55.7918 12.2996 0
55.8749 16.5845 0
53.3355 16.6332 0
54.5239 12.3242 0
55.8333 14.4423 0
54.6052 16.6091 0
53.2958 14.491 0
54.5646 14.4669 0
55.7918 12.2996 0
58.3276 12.2489 0
58.4142 16.5337 0
55.8749 16.5845 0
57.0597 12.2745 0
58.3709 14.3915 0
57.1445 16.5594 0
55.8333 14.4423 0
57.1021 14.4172 0
58.3276 12.2489 0
60.8633 12.196 0
60.9535 16.4808 0
58.4142 16.5337 0
59.5955 12.2227 0
60.9084 14.3386 0
59.6838 16.5075 0
58.3709 14.3915 0
59.6396 14.3653 0
60.8633 12.196 0
63.399 12.1411 0
63.4927 16.4258 0
60.9535 16.4808 0
62.1312 12.1688 0
63.4458 14.2837 0
62.2231 16.4535 0
60.9084 14.3386 0
62.1771 14.3114 0
63.399 12.1411 0
65.9347 12.0841 0
66.0318 16.3687 0
63.4927 16.4258 0
64.6668 12.1129 0
65.9833 14.2266 0
64.7623 16.3975 0
63.4458 14.2837 0
64.7146 14.2554 0
65.9347 12.0841 0
68.4703 12.025 0
68.5709 16.3095 0
66.0318 16.3687 0
67.2025 12.0548 0
68.5206 14.1675 0
67.3014 16.3394 0
65.9833 14.2266 0
67.252 14.1973 0
68.4703 12.025 0
71.0059 11.9639 0
71.11 16.2483 0
68.5709 16.3095 0
69.7381 11.9947 0
71.0579 14.1063 0
69.8405 16.2792 0
68.5206 14.1675 0
69.7893 14.1372 0
71.0059 11.9639 0
73.5414 11.9007 0
73.649 16.1851 0
71.11 16.2483 0
72.2737 11.9326 0
73.5952 14.0431 0
72.3795 16.2169 0
71.0579 14.1063 0
72.3266 14.075 0
73.5414 11.9007 0
76.0769 11.8355 0
76.1879 16.1198 0
73.649 16.1851 0
74.8092 11.8684 0
76.1324 13.9779 0
74.9184 16.1527 0
73.5952 14.0431 0
74.8638 14.0107 0
76.0769 11.8355 0
78.6124 11.7683 0
78.7268 16.0525 0
76.1879 16.1198 0
77.3447 11.8022 0
78.6696 13.9106 0
77.4573 16.0864 0
76.1324 13.9779 0
77.401 13.9445 0
78.6124 11.7683 0
81.1478 11.6991 0
81.2656 15.9832 0
78.7268 16.0525 0
79.8801 11.734 0
81.2067 13.8414 0
79.9962 16.0181 0
78.6696 13.9106 0
79.9382 13.8762 0
81.1478 11.6991 0
83.6832 11.6279 0
83.8043 15.9119 0
81.2656 15.9832 0
82.4155 11.6638 0
83.7438 13.7701 0
82.5349 15.9478 0
81.2067 13.8414 0
82.4752 13.806 0
83.6832 11.6279 0
86.2186 11.5547 0
86.343 15.8386 0
83.8043 15.9119 0
84.9509 11.5916 0
86.2808 13.6969 0
85.0736 15.8755 0
83.7438 13.7701 0
85.0123 13.7337 0
86.2186 11.5547 0
88.7538 11.4796 0
88.8815 15.7634 0
86.343 15.8386 0
87.4862 11.5174 0
88.8177 13.6217 0
87.6123 15.8012 0
86.2808 13.6969 0
87.5492 13.6595 0
88.7538 11.4796 0
91.2891 11.4025 0
91.4201 15.6862 0
88.8815 15.7634 0
90.0215 11.4413 0
91.3546 13.5445 0
90.1508 15.725 0
88.8177 13.6217 0
90.0861 13.5833 0
91.2891 11.4025 0
93.8243 11.3234 0
93.9585 15.607 0
91.4201 15.6862 0
92.5567 11.3632 0
93.8914 13.4654 0
92.6893 15.6468 0
91.3546 13.5445 0
92.623 13.5052 0
93.8243 11.3234 0
96.3594 11.2424 0
96.4969 15.5259 0
93.9585 15.607 0
95.0918 11.2832 0
96.4282 13.3844 0
95.2277 15.5667 0
93.8914 13.4654 0
95.1598 13.4251 0
96.3594 11.2424 0
98.8945 11.1596 0
99.0352 15.4429 0
96.4969 15.5259 0
97.627 11.2012 0
98.9649 13.3014 0
97.7661 15.4847 0
96.4282 13.3844 0
97.6965 13.3432 0
98.8945 11.1596 0
101.43 11.0747 0
101.573 15.358 0
99.0352 15.4429 0
100.162 11.1174 0
101.502 13.2166 0
100.304 15.4007 0
98.9649 13.3014 0
100.233 13.2592 0
101.43 11.0747 0
103.965 10.9881 0
104.112 15.2712 0
101.573 15.358 0
102.697 11.0316 0
104.038 13.1298 0
102.843 15.3148 0
101.502 13.2166 0
102.77 13.1734 0
103.965 10.9881 0
106.499 10.8995 0
106.65 15.1825 0
104.112 15.2712 0
105.232 10.944 0
106.575 13.0412 0
105.381 15.2271 0
104.038 13.1298 0
105.306 13.0857 0
106.499 10.8995 0
109.034 10.809 0
109.188 15.092 0
106.65 15.1825 0
107.767 10.8545 0
109.111 12.9507 0
107.919 15.1375 0
106.575 13.0412 0
107.843 12.9962 0
109.034 10.809 0
111.569 10.7167 0
111.726 14.9995 0
109.188 15.092 0
110.302 10.7631 0
111.647 12.8583 0
110.457 15.046 0
109.111 12.9507 0
110.379 12.9047 0
111.569 10.7167 0
114.104 10.6226 0
114.264 14.9053 0
111.726 14.9995 0
112.836 10.6699 0
114.184 12.7641 0
112.995 14.9526 0
111.647 12.8583 0
112.916 12.8115 0
114.104 10.6226 0
116.639 10.5266 0
116.801 14.8092 0
114.264 14.9053 0
115.371 10.5748 0
116.72 12.6681 0
115.532 14.8575 0
114.184 12.7641 0
115.452 12.7163 0
116.639 10.5266 0
119.173 10.4288 0
119.339 14.7112 0
116.801 14.8092 0
117.906 10.4779 0
119.256 12.5702 0
118.07 14.7604 0
116.72 12.6681 0
117.988 12.6194 0
119.173 10.4288 0
121.708 10.3292 0
121.877 14.6115 0
119.339 14.7112 0
120.441 10.3792 0
121.792 12.4705 0
120.608 14.6616 0
119.256 12.5702 0
120.524 12.5206 0
121.708 10.3292 0
124.242 10.2277 0
124.414 14.51 0
121.877 14.6115 0
122.975 10.2787 0
124.328 12.3691 0
123.145 14.561 0
121.792 12.4705 0
123.06 12.42 0
124.242 10.2277 0
126.777 10.1245 0
126.952 14.4067 0
124.414 14.51 0
125.51 10.1764 0
126.864 12.2658 0
125.683 14.4585 0
124.328 12.3691 0
125.596 12.3176 0
126.777 10.1245 0
129.311 10.0196 0
129.489 14.3016 0
126.952 14.4067 0
128.044 10.0723 0
129.4 12.1608 0
128.22 14.3543 0
126.864 12.2658 0
128.132 12.2135 0
129.311 10.0196 0
131.845 9.91284 0
132.026 14.1947 0
129.489 14.3016 0
130.578 9.96643 0
131.936 12.054 0
130.758 14.2484 0
129.4 12.1608 0
130.668 12.1076 0
131.845 9.91284 0
134.38 9.80436 0
134.564 14.0861 0
132.026 14.1947 0
133.113 9.85882 0
134.472 11.9454 0
133.295 14.1406 0
131.936 12.054 0
133.204 11.9999 0
134.38 9.80436 0
136.914 9.69414 0
137.101 13.9758 0
134.564 14.0861 0
135.647 9.74947 0
137.007 11.8351 0
135.832 14.0311 0
134.472 11.9454 0
135.74 11.8905 0
136.914 9.69414 0
139.448 9.5822 0
139.638 13.8637 0
137.101 13.9758 0
138.181 9.63839 0
139.543 11.7231 0
138.369 13.9199 0
137.007 11.8351 0
138.275 11.7793 0
139.448 9.5822 0
141.982 9.46854 0
142.175 13.7499 0
139.638 13.8637 0
140.715 9.52559 0
142.078 11.6094 0
140.906 13.807 0
139.543 11.7231 0
140.811 11.6665 0
141.982 9.46854 0
144.516 9.35319 0
144.712 13.6344 0
142.175 13.7499 0
143.249 9.41108 0
144.614 11.494 0
143.443 13.6924 0
142.078 11.6094 0
143.346 11.5519 0
144.516 9.35319 0
147.05 9.23615 0
147.248 13.5172 0
144.712 13.6344 0
145.783 9.29488 0
147.149 11.3769 0
145.98 13.576 0
144.614 11.494 0
145.882 11.4356 0
147.05 9.23615 0
149.584 9.11743 0
149.785 13.3984 0
147.248 13.5172 0
148.317 9.177 0
149.685 11.2581 0
148.517 13.458 0
147.149 11.3769 0
148.417 11.3177 0
149.584 9.11743 0
152.118 8.99704 0
152.322 13.2779 0
149.785 13.3984 0
150.851 9.05744 0
152.22 11.1376 0
151.053 13.3383 0
149.685 11.2581 0
150.952 11.1981 0
152.118 8.99704 0
154.652 8.87501 0
154.858 13.1557 0
152.322 13.2779 0
153.385 8.93623 0
154.755 11.0155 0
153.59 13.217 0
152.22 11.1376 0
153.487 11.0768 0
154.652 8.87501 0
157.185 8.75134 0
157.395 13.0319 0
154.858 13.1557 0
155.918 8.81338 0
157.29 10.8918 0
156.126 13.094 0
154.755 11.0155 0
156.022 10.9539 0
157.185 8.75134 0
159.719 8.62603 0
159.931 12.9065 0
157.395 13.0319 0
158.452 8.68889 0
159.825 10.7664 0
158.663 12.9694 0
157.29 10.8918 0
158.557 10.8293 0
159.719 8.62603 0
162.252 8.49912 0
162.467 12.7794 0
159.931 12.9065 0
160.986 8.56278 0
162.36 10.6394 0
161.199 12.8431 0
159.825 10.7664 0
161.092 10.7031 0
162.252 8.49912 0
164.786 8.3706 0
165.003 12.6508 0
162.467 12.7794 0
163.519 8.43506 0
164.895 10.5108 0
163.735 12.7153 0
162.36 10.6394 0
163.627 10.5753 0
164.786 8.3706 0
167.319 8.24048 0
167.539 12.5205 0
165.003 12.6508 0
166.052 8.30574 0
167.429 10.3807 0
166.271 12.5858 0
164.895 10.5108 0
166.162 10.446 0
167.319 8.24048 0
169.852 8.10879 0
170.075 12.3887 0
167.539 12.5205 0
168.586 8.17484 0
169.964 10.2489 0
168.807 12.4548 0
167.429 10.3807 0
168.697 10.315 0
169.852 8.10879 0
172.386 7.97554 0
172.611 12.2553 0
170.075 12.3887 0
171.119 8.04236 0
172.499 10.1156 0
171.343 12.3222 0
169.964 10.2489 0
171.231 10.1824 0
172.386 7.97554 0
174.919 7.84072 0
175.147 12.1203 0
172.611 12.2553 0
173.652 7.90832 0
175.033 9.98069 0
173.879 12.188 0
172.499 10.1156 0
173.766 10.0483 0
174.919 7.84072 0
177.452 7.70437 0
177.683 11.9838 0
175.147 12.1203 0
176.185 7.77274 0
177.567 9.84427 0
176.415 12.0523 0
175.033 9.98069 0
176.3 9.91267 0
177.452 7.70437 0
179.985 7.56648 0
180.218 11.8458 0
177.683 11.9838 0
178.719 7.63561 0
180.102 9.70631 0
178.951 11.915 0
177.567 9.84427 0
178.835 9.77548 0
179.985 7.56648 0
182.518 7.42708 0
182.754 11.7063 0
180.218 11.8458 0
181.252 7.49697 0
182.636 9.56683 0
181.486 11.7762 0
180.102 9.70631 0
181.369 9.63676 0
182.518 7.42708 0
185.051 7.28616 0
185.289 11.5652 0
182.754 11.7063 0
183.784 7.35681 0
185.17 9.42585 0
184.022 11.6359 0
182.636 9.56683 0
183.903 9.49653 0
185.051 7.28616 0
187.584 7.14376 0
187.825 11.4227 0
185.289 11.5652 0
186.317 7.21515 0
187.704 9.28338 0
186.557 11.4941 0
185.17 9.42585 0
186.437 9.3548 0
187.584 7.14376 0
190.116 6.99987 0
190.36 11.2786 0
187.825 11.4227 0
188.85 7.072 0
190.238 9.13942 0
189.092 11.3508 0
187.704 9.28338 0
188.971 9.21158 0
190.116 6.99987 0
192.649 6.85451 0
192.895 11.1331 0
190.36 11.2786 0
191.383 6.92738 0
192.772 8.99399 0
191.627 11.2061 0
190.238 9.13942 0
191.505 9.06688 0
192.649 6.85451 0
195.182 6.7077 0
195.43 10.9862 0
192.895 11.1331 0
193.915 6.78129 0
195.306 8.8471 0
194.162 11.0598 0
192.772 8.99399 0
194.039 8.92072 0
195.182 6.7077 0
197.714 6.55944 0
197.965 10.8378 0
195.43 10.9862 0
196.448 6.63375 0
197.84 8.69876 0
196.697 10.9122 0
195.306 8.8471 0
196.573 8.77311 0
197.714 6.55944 0
200.247 6.40974 0
200.5 10.6879 0
197.965 10.8378 0
198.98 6.48477 0
200.373 8.549 0
199.232 10.763 0
197.84 8.69876 0
199.106 8.62406 0
200.247 6.40974 0
202.779 6.25862 0
203.035 10.5367 0
200.5 10.6879 0
201.513 6.33436 0
202.907 8.39781 0
201.767 10.6125 0
200.373 8.549 0
201.64 8.47358 0
202.779 6.25862 0
205.311 6.10609 0
205.569 10.384 0
203.035 10.5367 0
204.045 6.18253 0
205.44 8.24521 0
204.302 10.4605 0
202.907 8.39781 0
204.174 8.32168 0
205.311 6.10609 0
207.844 5.95217 0
208.104 10.23 0
205.569 10.384 0
206.577 6.02931 0
207.974 8.09121 0
206.837 10.3072 0
205.44 8.24521 0
206.707 8.16838 0
207.844 5.95217 0
210.376 5.79686 0
210.638 10.0745 0
208.104 10.23 0
209.11 5.87469 0
210.507 7.93583 0
209.371 10.1524 0
207.974 8.09121 0
209.24 8.01369 0
210.376 5.79686 0
212.908 5.64018 0
213.173 9.91768 0
210.638 10.0745 0
211.642 5.71869 0
213.04 7.77907 0
211.905 9.99626 0
210.507 7.93583 0
211.774 7.85762 0
212.908 5.64018 0
215.44 5.48213 0
215.707 9.75949 0
213.173 9.91768 0
214.174 5.56132 0
215.573 7.62095 0
214.44 9.83875 0
213.04 7.77907 0
214.307 7.70018 0
215.44 5.48213 0
217.972 5.32274 0
218.241 9.59995 0
215.707 9.75949 0
216.706 5.4026 0
218.106 7.46149 0
216.974 9.67989 0
215.573 7.62095 0
216.84 7.54139 0
217.972 5.32274 0
220.503 5.16201 0
220.775 9.43908 0
218.241 9.59995 0
219.238 5.24254 0
220.639 7.30069 0
219.508 9.51968 0
218.106 7.46149 0
219.373 7.38125 0
220.503 5.16201 0
223.035 4.99995 0
223.309 9.27688 0
220.775 9.43908 0
221.769 5.08114 0
223.172 7.13856 0
222.042 9.35815 0
220.639 7.30069 0
221.906 7.21979 0
223.035 4.99995 0
225.567 4.83658 0
225.843 9.11337 0
223.309 9.27688 0
224.301 4.91843 0
225.705 6.97512 0
224.576 9.19529 0
223.172 7.13856 0
224.439 7.057 0
225.567 4.83658 0
228.099 4.67191 0
228.377 8.94856 0
225.843 9.11337 0
226.833 4.75441 0
228.238 6.81038 0
227.11 9.03113 0
225.705 6.97512 0
226.971 6.89291 0
228.099 4.67191 0
230.63 4.50596 0
230.911 8.78246 0
228.377 8.94856 0
229.364 4.58909 0
230.77 6.64434 0
229.644 8.86567 0
228.238 6.81038 0
229.504 6.72752 0
230.63 4.50596 0
233.162 4.33872 0
233.444 8.61509 0
230.911 8.78246 0
231.896 4.4225 0
233.303 6.47704 0
232.177 8.69893 0
230.77 6.64434 0
232.037 6.56085 0
233.162 4.33872 0
235.693 4.17022 0
235.978 8.44645 0
233.444 8.61509 0
234.427 4.25463 0
235.835 6.30847 0
234.711 8.53092 0
233.303 6.47704 0
234.569 6.39291 0
235.693 4.17022 0
238.224 4.00047 0
238.511 8.27655 0
235.978 8.44645 0
236.959 4.0855 0
238.368 6.13864 0
237.245 8.36166 0
235.835 6.30847 0
237.102 6.22371 0
238.224 4.00047 0
240.756 3.82948 0
241.045 8.10542 0
238.511 8.27655 0
239.49 3.91513 0
240.9 5.96758 0
239.778 8.19114 0
238.368 6.13864 0
239.634 6.05327 0
240.756 3.82948 0
243.287 3.65726 0
243.578 7.93306 0
241.045 8.10542 0
242.021 3.74352 0
243.432 5.79529 0
242.311 8.01939 0
240.9 5.96758 0
242.166 5.88159 0
243.287 3.65726 0
245.818 3.48382 0
246.111 7.75949 0
243.578 7.93306 0
244.552 3.57069 0
245.964 5.62178 0
244.844 7.84642 0
243.432 5.79529 0
244.698 5.70869 0
245.818 3.48382 0
248.349 3.30918 0
248.644 7.58471 0
246.111 7.75949 0
247.083 3.39665 0
248.497 5.44707 0
247.378 7.67224 0
245.964 5.62178 0
247.231 5.53458 0
248.349 3.30918 0
250.88 3.13335 0
251.177 7.40873 0
248.644 7.58471 0
249.614 3.22141 0
251.028 5.27117 0
249.911 7.49687 0
248.497 5.44707 0
249.763 5.35927 0
250.88 3.13335 0
253.411 2.95633 0
253.71 7.23158 0
251.177 7.40873 0
252.145 3.04499 0
253.56 5.09408 0
252.443 7.32031 0
251.028 5.27117 0
252.294 5.18277 0
253.411 2.95633 0
255.942 2.77815 0
256.243 7.05327 0
253.71 7.23158 0
254.676 2.86739 0
256.092 4.91583 0
254.976 7.14257 0
253.56 5.09408 0
254.826 5.0051 0
255.942 2.77815 0
258.472 2.59882 0
258.775 6.87379 0
256.243 7.05327 0
257.207 2.68863 0
258.624 4.73643 0
257.509 6.96367 0
256.092 4.91583 0
257.358 4.82627 0
258.472 2.59882 0
261.003 2.41834 0
261.308 6.69318 0
258.775 6.87379 0
259.738 2.50872 0
261.156 4.55588 0
260.042 6.78363 0
258.624 4.73643 0
259.89 4.64629 0
261.003 2.41834 0
263.534 2.23673 0
263.841 6.51143 0
261.308 6.69318 0
262.268 2.32767 0
263.687 4.3742 0
262.574 6.60244 0
261.156 4.55588 0
262.421 4.46518 0
263.534 2.23673 0
266.064 2.05399 0
266.373 6.32856 0
263.841 6.51143 0
264.799 2.1455 0
266.219 4.1914 0
265.107 6.42013 0
263.687 4.3742 0
264.953 4.28294 0
266.064 2.05399 0
268.595 1.87015 0
268.905 6.14459 0
266.373 6.32856 0
267.33 1.96221 0
268.75 4.00749 0
267.639 6.23671 0
266.219 4.1914 0
267.484 4.09958 0
268.595 1.87015 0
271.125 1.68522 0
271.438 5.95952 0
268.905 6.14459 0
269.86 1.77782 0
271.281 3.82249 0
270.171 6.05219 0
268.75 4.00749 0
270.016 3.91512 0
271.125 1.68522 0
273.655 1.4992 0
273.97 5.77337 0
271.438 5.95952 0
272.39 1.59235 0
273.813 3.6364 0
272.704 5.86658 0
271.281 3.82249 0
272.547 3.72958 0
273.655 1.4992 0
276.186 1.31211 0
276.502 5.58615 0
273.97 5.77337 0
274.921 1.40579 0
276.344 3.44924 0
275.236 5.67989 0
273.813 3.6364 0
275.078 3.54295 0
276.186 1.31211 0
278.716 1.12397 0
279.034 5.39787 0
276.502 5.58615 0
277.451 1.21817 0
278.875 3.26103 0
277.768 5.49214 0
276.344 3.44924 0
277.609 3.35527 0
278.716 1.12397 0
281.246 0.93477 0
281.566 5.20854 0
279.034 5.39787 0
279.981 1.0295 0
281.406 3.07177 0
280.3 5.30333 0
278.875 3.26103 0
280.14 3.16653 0
281.246 0.93477 0
283.776 0.744539 0
284.097 5.01818 0
281.566 5.20854 0
282.511 0.839783 0
283.937 2.88147 0
282.832 5.11349 0
281.406 3.07177 0
282.671 2.97675 0
283.776 0.744539 0
286.306 0.553285 0
286.629 4.8268 0
284.097 5.01818 0
285.041 0.649039 0
286.468 2.69015 0
285.363 4.92262 0
283.937 2.88147 0
285.202 2.78594 0
286.306 0.553285 0
288.836 0.36102 0
289.161 4.6344 0
286.629 4.8268 0
287.571 0.457278 0
288.998 2.49782 0
287.895 4.73073 0
286.468 2.69015 0
287.733 2.59411 0
288.836 0.36102 0
291.366 0.167757 0
291.692 4.44101 0
289.161 4.6344 0
290.101 0.264513 0
291.529 2.30449 0
290.427 4.53783 0
288.998 2.49782 0
290.264 2.40128 0
291.366 0.167757 0
293.896 -0.0264938 0
294.224 4.24664 0
291.692 4.44101 0
292.631 0.0707541 0
294.06 2.11018 0
292.958 4.34395 0
291.529 2.30449 0
292.794 2.20746 0
293.896 -0.0264938 0
296.425 -0.221719 0
296.755 4.05128 0
294.224 4.24664 0
295.161 -0.123985 0
296.59 1.91489 0
295.489 4.14908 0
294.06 2.11018 0
295.325 2.01265 0
296.425 -0.221719 0
298.955 -0.417907 0
299.286 3.85497 0
296.755 4.05128 0
297.69 -0.319694 0
299.121 1.71863 0
298.021 3.95325 0
296.59 1.91489 0
297.856 1.81688 0
298.955 -0.417907 0
301.485 -0.615046 0
301.818 3.65771 0
299.286 3.85497 0
300.22 -0.516359 0
301.651 1.52143 0
300.552 3.75646 0
299.121 1.71863 0
300.386 1.62015 0
301.485 -0.615046 0
304.014 -0.813124 0
304.349 3.45951 0
301.818 3.65771 0
302.75 -0.713968 0
304.182 1.32329 0
303.083 3.55873 0
301.651 1.52143 0
302.916 1.42248 0
304.014 -0.813124 0
306.544 -1.01213 0
306.88 3.26038 0
304.349 3.45951 0
305.279 -0.912511 0
306.712 1.12423 0
305.614 3.36006 0
304.182 1.32329 0
305.447 1.22387 0
306.544 -1.01213 0
309.073 -1.21205 0
309.411 3.06034 0
306.88 3.26038 0
307.808 -1.11197 0
309.242 0.924245 0
308.145 3.16048 0
306.712 1.12423 0
307.977 1.02435 0
309.073 -1.21205 0
311.603 -1.41287 0
311.942 2.8594 0
309.411 3.06034 0
310.338 -1.31235 0
311.772 0.723363 0
310.676 2.95999 0
309.242 0.924245 0
310.507 0.823916 0
311.603 -1.41287 0
314.132 -1.61458 0
314.472 2.65757 0
311.942 2.8594 0
312.867 -1.51361 0
314.302 0.52159 0
313.207 2.7586 0
311.772 0.723363 0
313.037 0.622587 0
314.132 -1.61458 0
316.661 -1.81717 0
317.003 2.45486 0
314.472 2.65757 0
315.396 -1.71577 0
316.832 0.31894 0
315.738 2.55633 0
314.302 0.52159 0
315.567 0.420374 0
316.661 -1.81717 0
319.19 -2.02063 0
319.534 2.25129 0
317.003 2.45486 0
317.926 -1.91879 0
319.362 0.115424 0
318.268 2.35319 0
316.832 0.31894 0
318.097 0.21729 0
319.19 -2.02063 0
321.719 -2.22494 0
322.064 2.04687 0
319.534 2.25129 0
320.455 -2.12268 0
321.892 -0.0889452 0
320.799 2.14919 0
319.362 0.115424 0
320.627 0.0133456 0
321.719 -2.22494 0
324.248 -2.43009 0
324.595 1.8416 0
322.064 2.04687 0
322.984 -2.32741 0
324.422 -0.294157 0
323.33 1.94434 0
321.892 -0.0889452 0
323.157 -0.191446 0
324.248 -2.43009 0
326.777 -2.63607 0
327.125 1.6355 0
324.595 1.8416 0
325.513 -2.53298 0
326.951 -0.500197 0
325.86 1.73865 0
324.422 -0.294157 0
325.686 -0.397074 0
326.777 -2.63607 0
329.306 -2.84287 0
329.655 1.42859 0
327.125 1.6355 0
328.042 -2.73937 0
329.481 -0.707056 0
328.39 1.53215 0
326.951 -0.500197 0
328.216 -0.603525 0
329.306 -2.84287 0
331.835 -3.05048 0
332.186 1.22087 0
329.655 1.42859 0
330.571 -2.94658 0
332.011 -0.91472 0
330.921 1.32483 0
329.481 -0.707056 0
330.746 -0.810788 0
331.835 -3.05048 0
334.364 -3.25888 0
334.716 1.01236 0
332.186 1.22087 0
333.1 -3.15458 0
334.54 -1.12318 0
333.451 1.11672 0
332.011 -0.91472 0
333.275 -1.01885 0
334.364 -3.25888 0
336.893 -3.46807 0
337.246 0.80307 0
334.716 1.01236 0
335.629 -3.36338 0
337.069 -1.33242 0
335.981 0.907812 0
334.54 -1.12318 0
335.805 -1.2277 0
336.893 -3.46807 0
339.422 -3.67802 0
339.776 0.593009 0
337.246 0.80307 0
338.157 -3.57295 0
339.599 -1.54242 0
338.511 0.698135 0
337.069 -1.33242 0
338.334 -1.43733 0
339.422 -3.67802 0
341.95 -3.88873 0
342.306 0.382192 0
339.776 0.593009 0
340.686 -3.78328 0
342.128 -1.75319 0
341.041 0.487695 0
339.599 -1.54242 0
340.864 -1.64771 0
341.95 -3.88873 0
344.479 -4.10019 0
344.836 0.170631 0
342.306 0.382192 0
343.215 -3.99437 0
344.657 -1.9647 0
343.571 0.276504 0
342.128 -1.75319 0
343.393 -1.85885 0
344.479 -4.10019 0
347.008 -4.31238 0
347.366 -0.0416634 0
344.836 0.170631 0
345.743 -4.2062 0
347.187 -2.17695 0
346.101 0.0645745 0
344.657 -1.9647 0
345.922 -2.07073 0
347.008 -4.31238 0
349.536 -4.5253 0
349.895 -0.254678 0
347.366 -0.0416634 0
348.272 -4.41875 0
349.716 -2.38991 0
348.631 -0.148081 0
347.187 -2.17695 0
348.451 -2.28334 0
349.536 -4.5253 0
352.065 -4.73892 0
352.425 -0.468401 0
349.895 -0.254678 0
350.8 -4.63202 0
352.245 -2.60359 0
351.16 -0.361452 0
349.716 -2.38991 0
350.98 -2.49666 0
352.065 -4.73892 0
354.593 -4.95324 0
354.955 -0.682821 0
352.425 -0.468401 0
353.329 -4.84599 0
354.774 -2.81796 0
353.69 -0.575525 0
352.245 -2.60359 0
353.509 -2.71068 0
354.593 -4.95324 0
357.121 -5.16825 0
357.484 -0.897925 0
354.955 -0.682821 0
355.857 -5.06066 0
357.303 -3.03301 0
356.219 -0.790288 0
354.774 -2.81796 0
356.038 -2.9254 0
357.121 -5.16825 0
359.65 -5.38393 0
360.014 -1.1137 0
357.484 -0.897925 0
358.386 -5.276 0
359.832 -3.24874 0
358.749 -1.00573 0
357.303 -3.03301 0
358.567 -3.1408 0
359.65 -5.38393 0
362.178 -5.60027 0
362.543 -1.33014 0
360.014 -1.1137 0
360.914 -5.49202 0
362.36 -3.46513 0
361.278 -1.22184 0
359.832 -3.24874 0
361.096 -3.35686 0
362.178 -5.60027 0
364.706 -5.81726 0
365.072 -1.54722 0
362.543 -1.33014 0
363.442 -5.70868 0
364.889 -3.68217 0
363.808 -1.4386 0
362.36 -3.46513 0
363.625 -3.57357 0
364.706 -5.81726 0
367.234 -6.03489 0
367.602 -1.76494 0
365.072 -1.54722 0
365.97 -5.926 0
367.418 -3.89985 0
366.337 -1.656 0
364.889 -3.68217 0
366.154 -3.79093 0
367.234 -6.03489 0
369.763 -6.25315 0
370.131 -1.98329 0
367.602 -1.76494 0
368.498 -6.14394 0
369.947 -4.11815 0
368.866 -1.87404 0
367.418 -3.89985 0
368.682 -4.00892 0
369.763 -6.25315 0
372.291 -6.47202 0
372.66 -2.20225 0
370.131 -1.98329 0
371.027 -6.3625 0
372.475 -4.33707 0
371.395 -2.09269 0
369.947 -4.11815 0
371.211 -4.22753 0
372.291 -6.47202 0
374.819 -6.69149 0
375.189 -2.4218 0
372.66 -2.20225 0
373.555 -6.58168 0
375.004 -4.55658 0
373.924 -2.31195 0
372.475 -4.33707 0
373.74 -4.44675 0
374.819 -6.69149 0
377.347 -6.91155 0
377.718 -2.64195 0
375.189 -2.4218 0
376.083 -6.80144 0
377.532 -4.77669 0
376.454 -2.5318 0
375.004 -4.55658 0
376.268 -4.66656 0
377.347 -6.91155 0
379.875 -7.13218 0
380.247 -2.86267 0
377.718 -2.64195 0
378.611 -7.02179 0
380.061 -4.99737 0
378.982 -2.75224 0
377.532 -4.77669 0
378.797 -4.88695 0
379.875 -7.13218 0
382.403 -7.35339 0
382.776 -3.08396 0
380.247 -2.86267 0
381.139 -7.24271 0
382.589 -5.21861 0
381.511 -2.97324 0
380.061 -4.99737 0
381.325 -5.10792 0
382.403 -7.35339 0
384.931 -7.57514 0
385.305 -3.30579 0
382.776 -3.08396 0
383.667 -7.4642 0
385.118 -5.44041 0
384.04 -3.19481 0
382.589 -5.21861 0
383.853 -5.32944 0
384.931 -7.57514 0
387.458 -7.79744 0
387.833 -3.52817 0
385.305 -3.30579 0
386.195 -7.68622 0
387.646 -5.66275 0
386.569 -3.41691 0
385.118 -5.44041 0
386.382 -5.55151 0
387.458 -7.79744 0
389.986 -8.02027 0
390.362 -3.75107 0
387.833 -3.52817 0
388.722 -7.90879 0
390.174 -5.88562 0
389.098 -3.63956 0
387.646 -5.66275 0
388.91 -5.77412 0
389.986 -8.02027 0
392.514 -8.24361 0
392.891 -3.97449 0
390.362 -3.75107 0
391.25 -8.13188 0
392.702 -6.109 0
391.627 -3.86272 0
390.174 -5.88562 0
391.438 -5.99724 0
392.514 -8.24361 0
395.042 -8.46746 0
395.419 -4.19842 0
392.891 -3.97449 0
393.778 -8.35548 0
395.231 -6.33289 0
394.155 -4.08639 0
392.702 -6.109 0
393.967 -6.22088 0
395.042 -8.46746 0
397.57 -8.69181 0
397.948 -4.42284 0
395.419 -4.19842 0
396.306 -8.57957 0
397.759 -6.55727 0
396.684 -4.31057 0
395.231 -6.33289 0
396.495 -6.44502 0
397.57 -8.69181 0
400.097 -8.91663 0
400.477 -4.64773 0
397.948 -4.42284 0
398.833 -8.80416 0
400.287 -6.78213 0
399.212 -4.53522 0
397.759 -6.55727 0
399.023 -6.66964 0
400.097 -8.91663 0
402.625 -9.14193 0
403.005 -4.87309 0
400.477 -4.64773 0
401.361 -9.02922 0
402.815 -7.00746 0
401.741 -4.76036 0
400.287 -6.78213 0
401.551 -6.89474 0
402.625 -9.14193 0
405.153 -9.36768 0
405.533 -5.09891 0
403.005 -4.87309 0
403.889 -9.25474 0
405.343 -7.23325 0
404.269 -4.98595 0
402.815 -7.00746 0
404.079 -7.1203 0
405.153 -9.36768 0
407.68 -9.59387 0
408.062 -5.32518 0
405.533 -5.09891 0
406.416 -9.48072 0
407.871 -7.45948 0
406.798 -5.21199 0
405.343 -7.23325 0
406.607 -7.34631 0
407.68 -9.59387 0
410.208 -9.8205 0
410.59 -5.55187 0
408.062 -5.32518 0
408.944 -9.70714 0
410.399 -7.68614 0
409.326 -5.43847 0
407.871 -7.45948 0
409.135 -7.57276 0
410.208 -9.8205 0
412.735 -10.0476 0
413.118 -5.77899 0
410.59 -5.55187 0
411.472 -9.93398 0
412.927 -7.91323 0
411.854 -5.66538 0
410.399 -7.68614 0
411.663 -7.79963 0
412.735 -10.0476 0
415.263 -10.275 0
415.646 -6.00651 0
413.118 -5.77899 0
413.999 -10.1612 0
415.455 -8.14072 0
414.382 -5.8927 0
412.927 -7.91323 0
414.191 -8.02692 0
415.263 -10.275 0
417.79 -10.5029 0
418.175 -6.23442 0
415.646 -6.00651 0
416.527 -10.3889 0
417.983 -8.36861 0
416.911 -6.12042 0
415.455 -8.14072 0
416.719 -8.25461 0
417.79 -10.5029 0
420.318 -10.7311 0
420.703 -6.46272 0
418.175 -6.23442 0
419.054 -10.6169 0
420.51 -8.59688 0
419.439 -6.34853 0
417.983 -8.36861 0
419.246 -8.4827 0
420.318 -10.7311 0
422.845 -10.9597 0
423.231 -6.6914 0
420.703 -6.46272 0
421.582 -10.8454 0
423.038 -8.82553 0
421.967 -6.57701 0
420.51 -8.59688 0
421.774 -8.71116 0
422.845 -10.9597 0
425.373 -11.1887 0
425.759 -6.92043 0
423.231 -6.6914 0
424.109 -11.0742 0
425.566 -9.05453 0
424.495 -6.80587 0
423.038 -8.82553 0
424.302 -8.93998 0
425.373 -11.1887 0
427.9 -11.418 0
428.287 -7.14981 0
425.759 -6.92043 0
426.636 -11.3033 0
428.094 -9.28389 0
427.023 -7.03507 0
425.566 -9.05453 0
426.83 -9.16917 0
427.9 -11.418 0
430.428 -11.6477 0
430.815 -7.37952 0
428.287 -7.14981 0
429.164 -11.5328 0
430.621 -9.51358 0
429.551 -7.26462 0
428.094 -9.28389 0
429.357 -9.39869 0
430.428 -11.6477 0
432.955 -11.8777 0
433.343 -7.60956 0
430.815 -7.37952 0
431.691 -11.7627 0
433.149 -9.74359 0
432.079 -7.4945 0
430.621 -9.51358 0
431.885 -9.62854 0
432.955 -11.8777 0
435.482 -12.108 0
435.871 -7.83991 0
433.343 -7.60956 0
434.219 -11.9928 0
435.676 -9.97392 0
434.607 -7.7247 0
433.149 -9.74359 0
434.413 -9.85872 0
435.482 -12.108 0
438.01 -12.3386 0
438.398 -8.07056 0
435.871 -7.83991 0
436.746 -12.2233 0
438.204 -10.2045 0
437.134 -7.9552 0
435.676 -9.97392 0
436.94 -10.0892 0
438.01 -12.3386 0
440.537 -12.5695 0
440.926 -8.30149 0
438.398 -8.07056 0
439.273 -12.454 0
440.732 -10.4355 0
439.662 -8.18599 0
438.204 -10.2045 0
439.468 -10.32 0
440.537 -12.5695 0
443.064 -12.8007 0
443.454 -8.5327 0
440.926 -8.30149 0
441.801 -12.685 0
443.259 -10.6667 0
442.19 -8.41706 0
440.732 -10.4355 0
441.995 -10.551 0
443.064 -12.8007 0
445.592 -13.0321 0
445.982 -8.76418 0
443.454 -8.5327 0
444.328 -12.9163 0
445.787 -10.8981 0
444.718 -8.64841 0
443.259 -10.6667 0
444.523 -10.7823 0
445.592 -13.0321 0
448.119 -13.2638 0
448.509 -8.9959 0
445.982 -8.76418 0
446.855 -13.1479 0
448.314 -11.1298 0
447.246 -8.88001 0
445.787 -10.8981 0
447.05 -11.0139 0
448.119 -13.2638 0
450.646 -13.4957 0
451.037 -9.22787 0
448.509 -8.9959 0
449.382 -13.3797 0
450.842 -11.3618 0
449.773 -9.11186 0
448.314 -11.1298 0
449.578 -11.2458 0
450.646 -13.4957 0
453.173 -13.7279 0
453.565 -9.46006 0
451.037 -9.22787 0
451.91 -13.6118 0
453.369 -11.5939 0
452.301 -9.34394 0
450.842 -11.3618 0
452.105 -11.4778 0
453.173 -13.7279 0
455.701 -13.9602 0
456.092 -9.69247 0
453.565 -9.46006 0
454.437 -13.844 0
455.896 -11.8263 0
454.828 -9.57624 0
453.369 -11.5939 0
454.633 -11.7101 0
455.701 -13.9602 0
458.228 -14.1928 0
458.62 -9.92508 0
456.092 -9.69247 0
456.964 -14.0765 0
458.424 -12.0589 0
457.356 -9.80875 0
455.896 -11.8263 0
457.16 -11.9426 0
458.228 -14.1928 0
460.755 -14.4256 0
461.147 -10.1579 0
458.62 -9.92508 0
459.491 -14.3092 0
460.951 -12.2917 0
459.884 -10.0415 0
458.424 -12.0589 0
459.688 -12.1753 0
460.755 -14.4256 0
463.282 -14.6585 0
463.675 -10.3909 0
461.147 -10.1579 0
462.019 -14.542 0
463.479 -12.5247 0
462.411 -10.2744 0
460.951 -12.2917 0
462.215 -12.4082 0
463.282 -14.6585 0
465.81 -14.8917 0
466.202 -10.624 0
463.675 -10.3909 0
464.546 -14.7751 0
466.006 -12.7578 0
464.939 -10.5074 0
463.479 -12.5247 0
464.742 -12.6412 0
465.81 -14.8917 0
468.337 -15.125 0
468.73 -10.8573 0
466.202 -10.624 0
467.073 -15.0083 0
468.533 -12.9911 0
467.466 -10.7406 0
466.006 -12.7578 0
467.27 -12.8745 0
468.337 -15.125 0
470.864 -15.3584 0
471.257 -11.0908 0
468.73 -10.8573 0
469.6 -15.2416 0
471.061 -13.2246 0
469.994 -10.974 0
468.533 -12.9911 0
469.797 -13.1078 0
470.864 -15.3584 0
473.391 -15.5919 0
473.785 -11.3243 0
471.257 -11.0908 0
472.128 -15.4751 0
473.588 -13.4581 0
472.521 -11.2075 0
471.061 -13.2246 0
472.324 -13.3413 0
473.391 -15.5919 0
475.918 -15.8256 0
476.312 -11.558 0
473.785 -11.3243 0
474.655 -15.7088 0
476.115 -13.6918 0
475.048 -11.4412 0
473.588 -13.4581 0
474.852 -13.575 0
475.918 -15.8256 0
478.446 -16.0594 0
478.839 -11.7918 0
476.312 -11.558 0
477.182 -15.9425 0
478.643 -13.9256 0
477.576 -11.6749 0
476.115 -13.6918 0
477.379 -13.8087 0
478.446 -16.0594 0
480.973 -16.2933 0
481.367 -12.0257 0
478.839 -11.7918 0
479.709 -16.1763 0
481.17 -14.1595 0
480.103 -11.9088 0
478.643 -13.9256 0
479.906 -14.0426 0
480.973 -16.2933 0
483.5 -16.5273 0
483.894 -12.2597 0
481.367 -12.0257 0
482.236 -16.4103 0
483.697 -14.3935 0
482.631 -12.1427 0
481.17 -14.1595 0
482.433 -14.2765 0
483.5 -16.5273 0
486.027 -16.7613 0
486.421 -12.4938 0
483.894 -12.2597 0
484.764 -16.6443 0
486.224 -14.6276 0
485.158 -12.3768 0
483.697 -14.3935 0
484.961 -14.5105 0
486.027 -16.7613 0
488.554 -16.9955 0
488.949 -12.7279 0
486.421 -12.4938 0
487.291 -16.8784 0
488.752 -14.8617 0
487.685 -12.6109 0
486.224 -14.6276 0
487.488 -14.7446 0
488.554 -16.9955 0
491.082 -17.2296 0
491.476 -12.9621 0
488.949 -12.7279 0
489.818 -17.1125 0
491.279 -15.0958 0
490.212 -12.845 0
488.752 -14.8617 0
490.015 -14.9788 0
491.082 -17.2296 0
493.609 -17.4638 0
494.003 -13.1963 0
491.476 -12.9621 0
492.345 -17.3467 0
493.806 -15.33 0
492.74 -13.0792 0
491.279 -15.0958 0
492.542 -15.2129 0
493.609 -17.4638 0
496.136 -17.6979 0
496.531 -13.4304 0
494.003 -13.1963 0
494.873 -17.5808 0
496.333 -15.5641 0
495.267 -13.3133 0
493.806 -15.33 0
495.07 -15.4471 0
496.136 -17.6979 0
498.663 -17.9319 0
499.058 -13.6644 0
496.531 -13.4304 0
497.4 -17.8149 0
498.861 -15.7981 0
497.794 -13.5474 0
496.333 -15.5641 0
497.597 -15.6811 0
0 17.1429 0
2.53978 17.1431 0
2.54335 21.428 0
0 21.4286 0
1.26989 17.1434 0
2.54156 19.2857 0
1.2716 21.4287 0
0 19.2857 0
1.27073 19.2861 0
2.53978 17.1431 0
5.07971 17.1402 0
5.08711 21.4244 0
2.54335 21.428 0
3.80973 17.142 0
5.08338 19.2825 0
3.8152 21.4265 0
2.54156 19.2857 0
3.81244 19.2844 0
5.07971 17.1402 0
7.61971 17.1343 0
7.6311 21.4182 0
5.08711 21.4244 0
6.34971 17.1376 0
7.62536 19.2765 0
6.35909 21.4216 0
5.08338 19.2825 0
6.35436 19.2798 0
7.61971 17.1343 0
10.1597 17.1259 0
10.1751 21.4095 0
7.6311 21.4182 0
8.88972 17.1304 0
10.1674 19.268 0
8.90312 21.4141 0
7.62536 19.2765 0
8.89638 19.2725 0
10.1597 17.1259 0
12.6998 17.115 0
12.7191 21.3986 0
10.1751 21.4095 0
11.4298 17.1207 0
12.7094 19.257 0
11.4472 21.4044 0
10.1674 19.268 0
11.4384 19.2628 0
12.6998 17.115 0
15.2398 17.1018 0
15.2631 21.3853 0
12.7191 21.3986 0
13.9698 17.1087 0
15.2514 19.2438 0
13.9911 21.3923 0
12.7094 19.257 0
13.9804 19.2507 0
15.2398 17.1018 0
17.7797 17.0862 0
17.807 21.3698 0
15.2631 21.3853 0
16.5098 17.0943 0
17.7933 19.2282 0
16.535 21.3779 0
15.2514 19.2438 0
16.5224 19.2363 0
17.7797 17.0862 0
20.3197 17.0684 0
20.3508 21.352 0
17.807 21.3698 0
19.0497 17.0776 0
20.3352 19.2104 0
19.0789 21.3612 0
17.7933 19.2282 0
19.0643 19.2196 0
20.3197 17.0684 0
22.8596 17.0483 0
22.8945 21.3318 0
20.3508 21.352 0
21.5896 17.0586 0
22.877 19.1903 0
21.6227 21.3422 0
20.3352 19.2104 0
21.6061 19.2006 0
22.8596 17.0483 0
25.3994 17.0259 0
25.4382 21.3094 0
22.8945 21.3318 0
24.1295 17.0373 0
25.4188 19.1679 0
24.1664 21.3209 0
22.877 19.1903 0
24.1479 19.1794 0
25.3994 17.0259 0
27.9393 17.0012 0
27.9819 21.2848 0
25.4382 21.3094 0
26.6694 17.0138 0
27.9606 19.1432 0
26.7101 21.2974 0
25.4188 19.1679 0
26.6897 19.1558 0
27.9393 17.0012 0
30.4791 16.9743 0
30.5254 21.2579 0
27.9819 21.2848 0
29.2092 16.9881 0
30.5022 19.1163 0
29.2537 21.2716 0
27.9606 19.1432 0
29.2314 19.1301 0
30.4791 16.9743 0
33.0188 16.9452 0
33.069 21.2287 0
30.5254 21.2579 0
31.749 16.9601 0
33.0439 19.0872 0
31.7972 21.2436 0
30.5022 19.1163 0
31.7731 19.1021 0
33.0188 16.9452 0
35.5586 16.9139 0
35.6124 21.1973 0
33.069 21.2287 0
34.2887 16.9298 0
35.5855 19.0558 0
34.3407 21.2133 0
33.0439 19.0872 0
34.3147 19.0718 0
35.5586 16.9139 0
38.0983 16.8803 0
38.1559 21.1637 0
35.6124 21.1973 0
36.8284 16.8974 0
38.127 19.0223 0
36.8842 21.1808 0
35.5855 19.0558 0
36.8563 19.0393 0
38.0983 16.8803 0
40.6379 16.8446 0
40.6992 21.1279 0
38.1559 21.1637 0
39.3681 16.8627 0
40.6685 18.9865 0
39.4275 21.1461 0
38.127 19.0223 0
39.3978 19.0046 0
40.6379 16.8446 0
43.1775 16.8066 0
43.2425 21.0899 0
40.6992 21.1279 0
41.9077 16.8259 0
43.21 18.9485 0
41.9709 21.1092 0
40.6685 18.9865 0
41.9393 18.9678 0
43.1775 16.8066 0
45.7171 16.7665 0
45.7857 21.0498 0
43.2425 21.0899 0
44.4473 16.7868 0
45.7514 18.9084 0
44.5141 21.0701 0
43.21 18.9485 0
44.4807 18.9287 0
45.7171 16.7665 0
48.2566 16.7242 0
48.3289 21.0074 0
45.7857 21.0498 0
46.9868 16.7456 0
48.2927 18.8661 0
47.0573 21.0289 0
45.7514 18.9084 0
47.0221 18.8875 0
48.2566 16.7242 0
50.7961 16.6798 0
50.872 20.963 0
48.3289 21.0074 0
49.5263 16.7023 0
50.834 18.8216 0
49.6004 20.9855 0
48.2927 18.8661 0
49.5634 18.8441 0
50.7961 16.6798 0
53.3355 16.6332 0
53.415 20.9163 0
50.872 20.963 0
52.0658 16.6568 0
53.3752 18.775 0
52.1435 20.9399 0
50.834 18.8216 0
52.1046 18.7986 0
53.3355 16.6332 0
55.8749 16.5845 0
55.9579 20.8676 0
53.415 20.9163 0
54.6052 16.6091 0
55.9164 18.7263 0
54.6865 20.8922 0
53.3752 18.775 0
54.6458 18.7509 0
55.8749 16.5845 0
58.4142 16.5337 0
58.5008 20.8167 0
55.9579 20.8676 0
57.1445 16.5594 0
58.4575 18.6754 0
57.2294 20.8424 0
55.9164 18.7263 0
57.1869 18.7011 0
58.4142 16.5337 0
60.9535 16.4808 0
61.0436 20.7637 0
58.5008 20.8167 0
59.6838 16.5075 0
60.9985 18.6225 0
59.7722 20.7905 0
58.4575 18.6754 0
59.728 18.6492 0
60.9535 16.4808 0
63.4927 16.4258 0
63.5864 20.7086 0
61.0436 20.7637 0
62.2231 16.4535 0
63.5395 18.5674 0
62.315 20.7364 0
60.9985 18.6225 0
62.269 18.5952 0
63.4927 16.4258 0
66.0318 16.3687 0
66.129 20.6515 0
63.5864 20.7086 0
64.7623 16.3975 0
66.0804 18.5103 0
64.8577 20.6803 0
63.5395 18.5674 0
64.81 18.5391 0
66.0318 16.3687 0
68.5709 16.3095 0
68.6716 20.5923 0
66.129 20.6515 0
67.3014 16.3394 0
68.6213 18.4511 0
67.4003 20.6221 0
66.0804 18.5103 0
67.3508 18.481 0
68.5709 16.3095 0
71.11 16.2483 0
71.2141 20.531 0
68.6716 20.5923 0
69.8405 16.2792 0
71.162 18.3899 0
69.9429 20.5619 0
68.6213 18.4511 0
69.8917 18.4207 0
71.11 16.2483 0
73.649 16.1851 0
73.7565 20.4677 0
71.2141 20.531 0
72.3795 16.2169 0
73.7027 18.3266 0
72.4853 20.4996 0
71.162 18.3899 0
72.4324 18.3585 0
73.649 16.1851 0
76.1879 16.1198 0
76.2989 20.4023 0
73.7565 20.4677 0
74.9184 16.1527 0
76.2434 18.2613 0
75.0277 20.4352 0
73.7027 18.3266 0
74.9731 18.2942 0
76.1879 16.1198 0
78.7268 16.0525 0
78.8411 20.3349 0
76.2989 20.4023 0
77.4573 16.0864 0
78.7839 18.1939 0
77.57 20.3689 0
76.2434 18.2613 0
77.5137 18.2278 0
78.7268 16.0525 0
81.2656 15.9832 0
81.3833 20.2655 0
78.8411 20.3349 0
79.9962 16.0181 0
81.3244 18.1246 0
80.1122 20.3005 0
78.7839 18.1939 0
80.0542 18.1595 0
81.2656 15.9832 0
83.8043 15.9119 0
83.9254 20.1942 0
81.3833 20.2655 0
82.5349 15.9478 0
83.8648 18.0532 0
82.6543 20.2301 0
81.3244 18.1246 0
82.5946 18.0891 0
83.8043 15.9119 0
86.343 15.8386 0
86.4674 20.1208 0
83.9254 20.1942 0
85.0736 15.8755 0
86.4051 17.9799 0
85.1964 20.1577 0
83.8648 18.0532 0
85.135 18.0168 0
86.343 15.8386 0
88.8815 15.7634 0
89.0093 20.0455 0
86.4674 20.1208 0
87.6123 15.8012 0
88.9454 17.9046 0
87.7383 20.0834 0
86.4051 17.9799 0
87.6753 17.9425 0
88.8815 15.7634 0
91.4201 15.6862 0
91.5511 19.9682 0
89.0093 20.0455 0
90.1508 15.725 0
91.4856 17.8274 0
90.2802 20.0071 0
88.9454 17.9046 0
90.2155 17.8662 0
91.4201 15.6862 0
93.9585 15.607 0
94.0928 19.8889 0
91.5511 19.9682 0
92.6893 15.6468 0
94.0257 17.7482 0
92.822 19.9288 0
91.4856 17.8274 0
92.7556 17.788 0
93.9585 15.607 0
96.4969 15.5259 0
96.6345 19.8078 0
94.0928 19.8889 0
95.2277 15.5667 0
96.5657 17.667 0
95.3637 19.8486 0
94.0257 17.7482 0
95.2957 17.7078 0
96.4969 15.5259 0
99.0352 15.4429 0
99.176 19.7247 0
96.6345 19.8078 0
97.7661 15.4847 0
99.1056 17.584 0
97.9053 19.7664 0
96.5657 17.667 0
97.8357 17.6258 0
99.0352 15.4429 0
101.573 15.358 0
101.717 19.6397 0
99.176 19.7247 0
100.304 15.4007 0
101.645 17.499 0
100.447 19.6824 0
99.1056 17.584 0
100.376 17.5418 0
101.573 15.358 0
104.112 15.2712 0
104.259 19.5528 0
101.717 19.6397 0
102.843 15.3148 0
104.185 17.4122 0
102.988 19.5964 0
101.645 17.499 0
102.915 17.4558 0
104.112 15.2712 0
106.65 15.1825 0
106.8 19.464 0
104.259 19.5528 0
105.381 15.2271 0
106.725 17.3234 0
105.529 19.5086 0
104.185 17.4122 0
105.455 17.368 0
106.65 15.1825 0
109.188 15.092 0
109.341 19.3733 0
106.8 19.464 0
107.919 15.1375 0
109.265 17.2328 0
108.071 19.4189 0
106.725 17.3234 0
107.995 17.2784 0
109.188 15.092 0
111.726 14.9995 0
111.882 19.2808 0
109.341 19.3733 0
110.457 15.046 0
111.804 17.1404 0
110.612 19.3273 0
109.265 17.2328 0
110.534 17.1868 0
111.726 14.9995 0
114.264 14.9053 0
114.423 19.1864 0
111.882 19.2808 0
112.995 14.9526 0
114.343 17.046 0
113.153 19.2338 0
111.804 17.1404 0
113.074 17.0934 0
114.264 14.9053 0
116.801 14.8092 0
116.964 19.0902 0
114.423 19.1864 0
115.532 14.8575 0
116.883 16.9499 0
115.694 19.1385 0
114.343 17.046 0
115.613 16.9982 0
116.801 14.8092 0
119.339 14.7112 0
119.505 18.9922 0
116.964 19.0902 0
118.07 14.7604 0
119.422 16.8519 0
118.235 19.0414 0
116.883 16.9499 0
118.152 16.9011 0
119.339 14.7112 0
121.877 14.6115 0
122.046 18.8923 0
119.505 18.9922 0
120.608 14.6616 0
121.961 16.7521 0
120.775 18.9425 0
119.422 16.8519 0
120.692 16.8022 0
121.877 14.6115 0
124.414 14.51 0
124.586 18.7907 0
122.046 18.8923 0
123.145 14.561 0
124.5 16.6505 0
123.316 18.8417 0
121.961 16.7521 0
123.231 16.7015 0
124.414 14.51 0
126.952 14.4067 0
127.127 18.6873 0
124.586 18.7907 0
125.683 14.4585 0
127.039 16.5471 0
125.856 18.7392 0
124.5 16.6505 0
125.77 16.5991 0
126.952 14.4067 0
129.489 14.3016 0
129.667 18.582 0
127.127 18.6873 0
128.22 14.3543 0
129.578 16.442 0
128.397 18.6349 0
127.039 16.5471 0
128.309 16.4948 0
129.489 14.3016 0
132.026 14.1947 0
132.207 18.4751 0
129.667 18.582 0
130.758 14.2484 0
132.117 16.3351 0
130.937 18.5288 0
129.578 16.442 0
130.847 16.3888 0
132.026 14.1947 0
134.564 14.0861 0
134.747 18.3664 0
132.207 18.4751 0
133.295 14.1406 0
134.656 16.2264 0
133.477 18.4209 0
132.117 16.3351 0
133.386 16.281 0
134.564 14.0861 0
137.101 13.9758 0
137.287 18.2559 0
134.747 18.3664 0
135.832 14.0311 0
137.194 16.116 0
136.017 18.3113 0
134.656 16.2264 0
135.925 16.1714 0
137.101 13.9758 0
139.638 13.8637 0
139.827 18.1437 0
137.287 18.2559 0
138.369 13.9199 0
139.733 16.0039 0
138.557 18.2 0
137.194 16.116 0
138.463 16.0602 0
139.638 13.8637 0
142.175 13.7499 0
142.367 18.0298 0
139.827 18.1437 0
140.906 13.807 0
142.271 15.89 0
141.097 18.087 0
139.733 16.0039 0
141.002 15.9472 0
142.175 13.7499 0
144.712 13.6344 0
144.907 17.9142 0
142.367 18.0298 0
143.443 13.6924 0
144.809 15.7745 0
143.637 17.9722 0
142.271 15.89 0
143.54 15.8325 0
144.712 13.6344 0
147.248 13.5172 0
147.447 17.7969 0
144.907 17.9142 0
145.98 13.576 0
147.347 15.6573 0
146.177 17.8558 0
144.809 15.7745 0
146.078 15.7161 0
147.248 13.5172 0
149.785 13.3984 0
149.986 17.6779 0
147.447 17.7969 0
148.517 13.458 0
149.886 15.5383 0
148.716 17.7376 0
147.347 15.6573 0
148.617 15.598 0
149.785 13.3984 0
152.322 13.2779 0
152.526 17.5573 0
149.986 17.6779 0
151.053 13.3383 0
152.424 15.4178 0
151.256 17.6178 0
149.886 15.5383 0
151.155 15.4783 0
152.322 13.2779 0
154.858 13.1557 0
155.065 17.435 0
152.526 17.5573 0
153.59 13.217 0
154.961 15.2955 0
153.795 17.4964 0
152.424 15.4178 0
153.693 15.3569 0
154.858 13.1557 0
157.395 13.0319 0
157.604 17.3111 0
155.065 17.435 0
156.126 13.094 0
157.499 15.1717 0
156.334 17.3733 0
154.961 15.2955 0
156.23 15.2338 0
157.395 13.0319 0
159.931 12.9065 0
160.143 17.1855 0
157.604 17.3111 0
158.663 12.9694 0
160.037 15.0462 0
158.874 17.2485 0
157.499 15.1717 0
158.768 15.1091 0
159.931 12.9065 0
162.467 12.7794 0
162.682 17.0583 0
160.143 17.1855 0
161.199 12.8431 0
162.575 14.9191 0
161.413 17.1221 0
160.037 15.0462 0
161.306 14.9828 0
162.467 12.7794 0
165.003 12.6508 0
165.221 16.9296 0
162.682 17.0583 0
163.735 12.7153 0
165.112 14.7903 0
163.951 16.9942 0
162.575 14.9191 0
163.843 14.8549 0
165.003 12.6508 0
167.539 12.5205 0
167.76 16.7992 0
165.221 16.9296 0
166.271 12.5858 0
167.65 14.66 0
166.49 16.8646 0
165.112 14.7903 0
166.381 14.7254 0
167.539 12.5205 0
170.075 12.3887 0
170.298 16.6672 0
167.76 16.7992 0
168.807 12.4548 0
170.187 14.5281 0
169.029 16.7334 0
167.65 14.66 0
168.918 14.5943 0
170.075 12.3887 0
172.611 12.2553 0
172.837 16.5337 0
170.298 16.6672 0
171.343 12.3222 0
172.724 14.3947 0
171.568 16.6007 0
170.187 14.5281 0
171.455 14.4616 0
172.611 12.2553 0
175.147 12.1203 0
175.375 16.3986 0
172.837 16.5337 0
173.879 12.188 0
175.261 14.2596 0
174.106 16.4664 0
172.724 14.3947 0
173.993 14.3274 0
175.147 12.1203 0
177.683 11.9838 0
177.913 16.262 0
175.375 16.3986 0
176.415 12.0523 0
177.798 14.1231 0
176.644 16.3305 0
175.261 14.2596 0
176.53 14.1916 0
177.683 11.9838 0
180.218 11.8458 0
180.452 16.1239 0
177.913 16.262 0
178.951 11.915 0
180.335 13.985 0
179.183 16.1931 0
177.798 14.1231 0
179.067 14.0542 0
180.218 11.8458 0
182.754 11.7063 0
182.99 15.9842 0
180.452 16.1239 0
181.486 11.7762 0
182.872 13.8454 0
181.721 16.0542 0
180.335 13.985 0
181.603 13.9154 0
182.754 11.7063 0
185.289 11.5652 0
185.528 15.843 0
182.99 15.9842 0
184.022 11.6359 0
185.408 13.7043 0
184.259 15.9138 0
182.872 13.8454 0
184.14 13.775 0
185.289 11.5652 0
187.825 11.4227 0
188.066 15.7003 0
185.528 15.843 0
186.557 11.4941 0
187.945 13.5617 0
186.797 15.7718 0
185.408 13.7043 0
186.677 13.6331 0
187.825 11.4227 0
190.36 11.2786 0
190.603 15.5562 0
188.066 15.7003 0
189.092 11.3508 0
190.482 13.4176 0
189.334 15.6284 0
187.945 13.5617 0
189.213 13.4898 0
190.36 11.2786 0
192.895 11.1331 0
193.141 15.4105 0
190.603 15.5562 0
191.627 11.2061 0
193.018 13.272 0
191.872 15.4835 0
190.482 13.4176 0
191.75 13.345 0
192.895 11.1331 0
195.43 10.9862 0
195.678 15.2634 0
193.141 15.4105 0
194.162 11.0598 0
195.554 13.125 0
194.41 15.3372 0
193.018 13.272 0
194.286 13.1987 0
195.43 10.9862 0
197.965 10.8378 0
198.216 15.1149 0
195.678 15.2634 0
196.697 10.9122 0
198.09 12.9765 0
196.947 15.1894 0
195.554 13.125 0
196.822 13.0509 0
197.965 10.8378 0
200.5 10.6879 0
200.753 14.9649 0
198.216 15.1149 0
199.232 10.763 0
200.626 12.8266 0
199.484 15.0401 0
198.09 12.9765 0
199.358 12.9017 0
200.5 10.6879 0
203.035 10.5367 0
203.29 14.8135 0
200.753 14.9649 0
201.767 10.6125 0
203.162 12.6753 0
202.022 14.8894 0
200.626 12.8266 0
201.894 12.7511 0
203.035 10.5367 0
205.569 10.384 0
205.827 14.6607 0
203.29 14.8135 0
204.302 10.4605 0
205.698 12.5225 0
204.559 14.7373 0
203.162 12.6753 0
204.43 12.5991 0
205.569 10.384 0
208.104 10.23 0
208.364 14.5065 0
205.827 14.6607 0
206.837 10.3072 0
208.234 12.3684 0
207.096 14.5838 0
205.698 12.5225 0
206.966 12.4456 0
208.104 10.23 0
210.638 10.0745 0
210.901 14.351 0
208.364 14.5065 0
209.371 10.1524 0
210.77 12.2129 0
209.632 14.4289 0
208.234 12.3684 0
209.502 12.2908 0
210.638 10.0745 0
213.173 9.91768 0
213.438 14.194 0
210.901 14.351 0
211.905 9.99626 0
213.305 12.056 0
212.169 14.2727 0
210.77 12.2129 0
212.037 12.1346 0
213.173 9.91768 0
215.707 9.75949 0
215.974 14.0357 0
213.438 14.194 0
214.44 9.83875 0
215.841 11.8977 0
214.706 14.115 0
213.305 12.056 0
214.573 11.977 0
215.707 9.75949 0
218.241 9.59995 0
218.511 13.876 0
215.974 14.0357 0
216.974 9.67989 0
218.376 11.7381 0
217.242 13.956 0
215.841 11.8977 0
217.108 11.8181 0
218.241 9.59995 0
220.775 9.43908 0
221.047 13.715 0
218.511 13.876 0
219.508 9.51968 0
220.911 11.5772 0
219.779 13.7957 0
218.376 11.7381 0
219.643 11.6578 0
220.775 9.43908 0
223.309 9.27688 0
223.583 13.5527 0
221.047 13.715 0
222.042 9.35815 0
223.446 11.4149 0
222.315 13.634 0
220.911 11.5772 0
222.179 11.4962 0
223.309 9.27688 0
225.843 9.11337 0
226.119 13.389 0
223.583 13.5527 0
224.576 9.19529 0
225.981 11.2513 0
224.851 13.471 0
223.446 11.4149 0
224.714 11.3333 0
225.843 9.11337 0
228.377 8.94856 0
228.655 13.2241 0
226.119 13.389 0
227.11 9.03113 0
228.516 11.0865 0
227.387 13.3067 0
225.981 11.2513 0
227.249 11.1691 0
228.377 8.94856 0
230.911 8.78246 0
231.191 13.0579 0
228.655 13.2241 0
229.644 8.86567 0
231.051 10.9203 0
229.923 13.1411 0
228.516 11.0865 0
229.784 11.0035 0
230.911 8.78246 0
233.444 8.61509 0
233.727 12.8904 0
231.191 13.0579 0
232.177 8.69893 0
233.586 10.7529 0
232.459 12.9743 0
231.051 10.9203 0
232.318 10.8367 0
233.444 8.61509 0
235.978 8.44645 0
236.263 12.7216 0
233.727 12.8904 0
234.711 8.53092 0
236.12 10.5842 0
234.995 12.8061 0
233.586 10.7529 0
234.853 10.6687 0
235.978 8.44645 0
238.511 8.27655 0
238.798 12.5516 0
236.263 12.7216 0
237.245 8.36166 0
238.655 10.4142 0
237.53 12.6367 0
236.12 10.5842 0
237.387 10.4993 0
238.511 8.27655 0
241.045 8.10542 0
241.334 12.3803 0
238.798 12.5516 0
239.778 8.19114 0
241.189 10.243 0
240.066 12.4661 0
238.655 10.4142 0
239.922 10.3288 0
241.045 8.10542 0
243.578 7.93306 0
243.869 12.2078 0
241.334 12.3803 0
242.311 8.01939 0
243.723 10.0706 0
242.601 12.2942 0
241.189 10.243 0
242.456 10.1569 0
243.578 7.93306 0
246.111 7.75949 0
246.404 12.0341 0
243.869 12.2078 0
244.844 7.84642 0
246.258 9.89693 0
245.136 12.1211 0
243.723 10.0706 0
244.99 9.9839 0
246.111 7.75949 0
248.644 7.58471 0
248.939 11.8592 0
246.404 12.0341 0
247.378 7.67224 0
248.792 9.72209 0
247.672 11.9468 0
246.258 9.89693 0
247.525 9.80966 0
248.644 7.58471 0
251.177 7.40873 0
251.474 11.6831 0
248.939 11.8592 0
249.911 7.49687 0
251.326 9.54605 0
250.207 11.7713 0
248.792 9.72209 0
250.059 9.63421 0
251.177 7.40873 0
253.71 7.23158 0
254.009 11.5058 0
251.474 11.6831 0
252.443 7.32031 0
253.859 9.36883 0
252.742 11.5946 0
251.326 9.54605 0
252.593 9.45759 0
253.71 7.23158 0
256.243 7.05327 0
256.544 11.3274 0
254.009 11.5058 0
254.976 7.14257 0
256.393 9.19045 0
255.276 11.4168 0
253.859 9.36883 0
255.126 9.27979 0
256.243 7.05327 0
258.775 6.87379 0
259.078 11.1478 0
256.544 11.3274 0
257.509 6.96367 0
258.927 9.01091 0
257.811 11.2377 0
256.393 9.19045 0
257.66 9.10082 0
258.775 6.87379 0
261.308 6.69318 0
261.613 10.967 0
259.078 11.1478 0
260.042 6.78363 0
261.46 8.83023 0
260.346 11.0576 0
258.927 9.01091 0
260.194 8.92071 0
261.308 6.69318 0
263.841 6.51143 0
264.147 10.7852 0
261.613 10.967 0
262.574 6.60244 0
263.994 8.64842 0
262.88 10.8762 0
261.46 8.83023 0
262.727 8.73947 0
263.841 6.51143 0
266.373 6.32856 0
266.682 10.6022 0
264.147 10.7852 0
265.107 6.42013 0
266.527 8.46549 0
265.414 10.6938 0
263.994 8.64842 0
265.261 8.55709 0
266.373 6.32856 0
268.905 6.14459 0
269.216 10.4181 0
266.682 10.6022 0
267.639 6.23671 0
269.061 8.28145 0
267.949 10.5103 0
266.527 8.46549 0
267.794 8.37361 0
268.905 6.14459 0
271.438 5.95952 0
271.75 10.2329 0
269.216 10.4181 0
270.171 6.05219 0
271.594 8.09632 0
270.483 10.3256 0
269.061 8.28145 0
270.327 8.18902 0
271.438 5.95952 0
273.97 5.77337 0
274.284 10.0466 0
271.75 10.2329 0
272.704 5.86658 0
274.127 7.91011 0
273.017 10.1399 0
271.594 8.09632 0
272.86 8.00335 0
273.97 5.77337 0
276.502 5.58615 0
276.818 9.85927 0
274.284 10.0466 0
275.236 5.67989 0
276.66 7.72282 0
275.551 9.95308 0
274.127 7.91011 0
275.393 7.8166 0
276.502 5.58615 0
279.034 5.39787 0
279.352 9.67087 0
276.818 9.85927 0
277.768 5.49214 0
279.193 7.53448 0
278.085 9.7652 0
276.66 7.72282 0
277.926 7.62878 0
279.034 5.39787 0
281.566 5.20854 0
281.885 9.48142 0
279.352 9.67087 0
280.3 5.30333 0
281.725 7.34509 0
280.618 9.57628 0
279.193 7.53448 0
280.459 7.43992 0
281.566 5.20854 0
284.097 5.01818 0
284.419 9.29094 0
281.885 9.48142 0
282.832 5.11349 0
284.258 7.15467 0
283.152 9.38631 0
281.725 7.34509 0
282.992 7.25001 0
284.097 5.01818 0
286.629 4.8268 0
286.952 9.09944 0
284.419 9.29094 0
285.363 4.92262 0
286.791 6.96323 0
285.685 9.19532 0
284.258 7.15467 0
285.524 7.05908 0
286.629 4.8268 0
289.161 4.6344 0
289.485 8.90693 0
286.952 9.09944 0
287.895 4.73073 0
289.323 6.77077 0
288.219 9.00331 0
286.791 6.96323 0
288.057 6.86713 0
289.161 4.6344 0
291.692 4.44101 0
292.019 8.71342 0
289.485 8.90693 0
290.427 4.53783 0
291.855 6.57732 0
290.752 8.8103 0
289.323 6.77077 0
290.589 6.67417 0
291.692 4.44101 0
294.224 4.24664 0
294.552 8.51893 0
292.019 8.71342 0
292.958 4.34395 0
294.388 6.38289 0
293.285 8.6163 0
291.855 6.57732 0
293.122 6.48023 0
294.224 4.24664 0
296.755 4.05128 0
297.085 8.32346 0
294.552 8.51893 0
295.489 4.14908 0
296.92 6.18748 0
295.818 8.42131 0
294.388 6.38289 0
295.654 6.2853 0
296.755 4.05128 0
299.286 3.85497 0
299.618 8.12703 0
297.085 8.32346 0
298.021 3.95325 0
299.452 5.99111 0
298.351 8.22537 0
296.92 6.18748 0
298.186 6.08941 0
299.286 3.85497 0
301.818 3.65771 0
302.15 7.92966 0
299.618 8.12703 0
300.552 3.75646 0
301.984 5.79378 0
300.884 8.02846 0
299.452 5.99111 0
300.718 5.89256 0
301.818 3.65771 0
304.349 3.45951 0
304.683 7.73134 0
302.15 7.92966 0
303.083 3.55873 0
304.516 5.59553 0
303.417 7.83062 0
301.984 5.79378 0
303.25 5.69477 0
304.349 3.45951 0
306.88 3.26038 0
307.216 7.53211 0
304.683 7.73134 0
305.614 3.36006 0
307.048 5.39634 0
305.949 7.63184 0
304.516 5.59553 0
305.782 5.49605 0
306.88 3.26038 0
309.411 3.06034 0
309.748 7.33196 0
307.216 7.53211 0
308.145 3.16048 0
309.579 5.19625 0
308.482 7.43215 0
307.048 5.39634 0
308.314 5.29641 0
309.411 3.06034 0
311.942 2.8594 0
312.281 7.13091 0
309.748 7.33196 0
310.676 2.95999 0
312.111 4.99525 0
311.014 7.23154 0
309.579 5.19625 0
310.845 5.09586 0
311.942 2.8594 0
314.472 2.65757 0
314.813 6.92897 0
312.281 7.13091 0
313.207 2.7586 0
314.643 4.79337 0
313.547 7.03005 0
312.111 4.99525 0
313.377 4.89442 0
314.472 2.65757 0
317.003 2.45486 0
317.345 6.72615 0
314.813 6.92897 0
315.738 2.55633 0
317.174 4.5906 0
316.079 6.82767 0
314.643 4.79337 0
315.908 4.69209 0
317.003 2.45486 0
319.534 2.25129 0
319.877 6.52248 0
317.345 6.72615 0
318.268 2.35319 0
319.705 4.38698 0
318.611 6.62442 0
317.174 4.5906 0
318.44 4.4889 0
319.534 2.25129 0
322.064 2.04687 0
322.409 6.31794 0
319.877 6.52248 0
320.799 2.14919 0
322.237 4.1825 0
321.143 6.42032 0
319.705 4.38698 0
320.971 4.28484 0
322.064 2.04687 0
324.595 1.8416 0
324.941 6.11257 0
322.409 6.31794 0
323.33 1.94434 0
324.768 3.97718 0
323.675 6.21536 0
322.237 4.1825 0
323.502 4.07994 0
324.595 1.8416 0
327.125 1.6355 0
327.473 5.90638 0
324.941 6.11257 0
325.86 1.73865 0
327.299 3.77103 0
326.207 6.00958 0
324.768 3.97718 0
326.033 3.8742 0
327.125 1.6355 0
329.655 1.42859 0
330.005 5.69936 0
327.473 5.90638 0
328.39 1.53215 0
329.83 3.56406 0
328.739 5.80297 0
327.299 3.77103 0
328.565 3.66765 0
329.655 1.42859 0
332.186 1.22087 0
332.536 5.49154 0
330.005 5.69936 0
330.921 1.32483 0
332.361 3.35629 0
331.27 5.59555 0
329.83 3.56406 0
331.095 3.46028 0
332.186 1.22087 0
334.716 1.01236 0
335.068 5.28293 0
332.536 5.49154 0
333.451 1.11672 0
334.892 3.14773 0
333.802 5.38734 0
332.361 3.35629 0
333.626 3.25211 0
334.716 1.01236 0
337.246 0.80307 0
337.599 5.07354 0
335.068 5.28293 0
335.981 0.907812 0
337.422 2.93839 0
336.333 5.17833 0
334.892 3.14773 0
336.157 3.04316 0
337.246 0.80307 0
339.776 0.593009 0
340.13 4.86339 0
337.599 5.07354 0
338.511 0.698135 0
339.953 2.72828 0
338.865 4.96856 0
337.422 2.93839 0
338.688 2.83343 0
339.776 0.593009 0
342.306 0.382192 0
342.662 4.65247 0
340.13 4.86339 0
341.041 0.487695 0
342.484 2.51741 0
341.396 4.75802 0
339.953 2.72828 0
341.218 2.62294 0
342.306 0.382192 0
344.836 0.170631 0
345.193 4.44082 0
342.662 4.65247 0
343.571 0.276504 0
345.014 2.3058 0
343.927 4.54674 0
342.484 2.51741 0
343.749 2.4117 0
344.836 0.170631 0
347.366 -0.0416634 0
347.724 4.22843 0
345.193 4.44082 0
346.101 0.0645745 0
347.545 2.09346 0
346.458 4.33472 0
345.014 2.3058 0
346.279 2.19972 0
347.366 -0.0416634 0
349.895 -0.254678 0
350.255 4.01533 0
347.724 4.22843 0
348.631 -0.148081 0
350.075 1.8804 0
348.989 4.12197 0
347.545 2.09346 0
348.81 1.98702 0
349.895 -0.254678 0
352.425 -0.468401 0
352.786 3.80151 0
350.255 4.01533 0
351.16 -0.361452 0
352.605 1.66663 0
351.52 3.90851 0
350.075 1.8804 0
351.34 1.7736 0
352.425 -0.468401 0
354.955 -0.682821 0
355.316 3.58701 0
352.786 3.80151 0
353.69 -0.575525 0
355.135 1.45217 0
354.051 3.69435 0
352.605 1.66663 0
353.87 1.55949 0
354.955 -0.682821 0
357.484 -0.897925 0
357.847 3.37182 0
355.316 3.58701 0
356.219 -0.790288 0
357.666 1.23702 0
356.582 3.4795 0
355.135 1.45217 0
356.401 1.34468 0
357.484 -0.897925 0
360.014 -1.1137 0
360.378 3.15595 0
357.847 3.37182 0
358.749 -1.00573 0
360.196 1.0212 0
359.112 3.26397 0
357.666 1.23702 0
358.931 1.12919 0
360.014 -1.1137 0
362.543 -1.33014 0
362.908 2.93943 0
360.378 3.15595 0
361.278 -1.22184 0
362.726 0.804718 0
361.643 3.04778 0
360.196 1.0212 0
361.461 0.91304 0
362.543 -1.33014 0
365.072 -1.54722 0
365.438 2.72227 0
362.908 2.93943 0
363.808 -1.4386 0
365.255 0.587591 0
364.173 2.83093 0
362.726 0.804718 0
363.99 0.696235 0
365.072 -1.54722 0
367.602 -1.76494 0
367.969 2.50446 0
365.438 2.72227 0
366.337 -1.656 0
367.785 0.369828 0
366.704 2.61344 0
365.255 0.587591 0
366.52 0.478788 0
367.602 -1.76494 0
370.131 -1.98329 0
370.499 2.28604 0
367.969 2.50446 0
368.866 -1.87404 0
370.315 0.151442 0
369.234 2.39533 0
367.785 0.369828 0
369.05 0.260712 0
370.131 -1.98329 0
372.66 -2.20225 0
373.029 2.067 0
370.499 2.28604 0
371.395 -2.09269 0
372.845 -0.0675556 0
371.764 2.1766 0
370.315 0.151442 0
371.58 0.0420188 0
372.66 -2.20225 0
375.189 -2.4218 0
375.559 1.84737 0
373.029 2.067 0
373.924 -2.31195 0
375.374 -0.287152 0
374.294 1.95726 0
372.845 -0.0675556 0
374.109 -0.17728 0
375.189 -2.4218 0
377.718 -2.64195 0
378.089 1.62715 0
375.559 1.84737 0
376.454 -2.5318 0
377.904 -0.507337 0
376.824 1.73733 0
375.374 -0.287152 0
376.639 -0.397172 0
377.718 -2.64195 0
380.247 -2.86267 0
380.619 1.40635 0
378.089 1.62715 0
378.982 -2.75224 0
380.433 -0.728096 0
379.354 1.51682 0
377.904 -0.507337 0
379.168 -0.617645 0
380.247 -2.86267 0
382.776 -3.08396 0
383.149 1.185 0
380.619 1.40635 0
381.511 -2.97324 0
382.962 -0.949418 0
381.884 1.29575 0
380.433 -0.728096 0
381.698 -0.838688 0
382.776 -3.08396 0
385.305 -3.30579 0
385.679 0.96309 0
383.149 1.185 0
384.04 -3.19481 0
385.492 -1.17129 0
384.414 1.07411 0
382.962 -0.949418 0
384.227 -1.06029 0
385.305 -3.30579 0
387.833 -3.52817 0
388.208 0.740644 0
385.679 0.96309 0
386.569 -3.41691 0
388.021 -1.3937 0
386.944 0.851933 0
385.492 -1.17129 0
386.756 -1.28243 0
387.833 -3.52817 0
390.362 -3.75107 0
390.738 0.517672 0
388.208 0.740644 0
389.098 -3.63956 0
390.55 -1.61664 0
389.473 0.629223 0
388.021 -1.3937 0
389.286 -1.50511 0
390.362 -3.75107 0
392.891 -3.97449 0
393.268 0.294185 0
390.738 0.517672 0
391.627 -3.86272 0
393.079 -1.8401 0
392.003 0.405992 0
390.55 -1.61664 0
391.815 -1.72831 0
392.891 -3.97449 0
395.419 -4.19842 0
395.797 0.0701969 0
393.268 0.294185 0
394.155 -4.08639 0
395.608 -2.06406 0
394.532 0.182253 0
393.079 -1.8401 0
394.344 -1.95202 0
395.419 -4.19842 0
397.948 -4.42284 0
398.326 -0.154282 0
395.797 0.0701969 0
396.684 -4.31057 0
398.137 -2.28851 0
397.062 -0.0419818 0
395.608 -2.06406 0
396.873 -2.17622 0
397.948 -4.42284 0
400.477 -4.64773 0
400.856 -0.379238 0
398.326 -0.154282 0
399.212 -4.53522 0
400.666 -2.51343 0
399.591 -0.266701 0
398.137 -2.28851 0
399.402 -2.40091 0
400.477 -4.64773 0
403.005 -4.87309 0
403.385 -0.604661 0
400.856 -0.379238 0
401.741 -4.76036 0
403.195 -2.73883 0
402.12 -0.491892 0
400.666 -2.51343 0
401.931 -2.62607 0
403.005 -4.87309 0
405.533 -5.09891 0
405.914 -0.830538 0
403.385 -0.604661 0
404.269 -4.98595 0
405.724 -2.96468 0
404.65 -0.717543 0
403.195 -2.73883 0
404.459 -2.8517 0
405.533 -5.09891 0
408.062 -5.32518 0
408.443 -1.05686 0
405.914 -0.830538 0
406.798 -5.21199 0
408.252 -3.19097 0
407.179 -0.943642 0
405.724 -2.96468 0
406.988 -3.07777 0
408.062 -5.32518 0
410.59 -5.55187 0
410.972 -1.2836 0
408.443 -1.05686 0
409.326 -5.43847 0
410.781 -3.41769 0
409.708 -1.17018 0
408.252 -3.19097 0
409.517 -3.30428 0
410.59 -5.55187 0
413.118 -5.77899 0
413.501 -1.51077 0
410.972 -1.2836 0
411.854 -5.66538 0
413.31 -3.64483 0
412.237 -1.39714 0
410.781 -3.41769 0
412.045 -3.53121 0
413.118 -5.77899 0
415.646 -6.00651 0
416.03 -1.73834 0
413.501 -1.51077 0
414.382 -5.8927 0
415.838 -3.87238 0
414.766 -1.62451 0
413.31 -3.64483 0
414.574 -3.75856 0
415.646 -6.00651 0
418.175 -6.23442 0
418.559 -1.96631 0
416.03 -1.73834 0
416.911 -6.12042 0
418.367 -4.10032 0
417.294 -1.85228 0
415.838 -3.87238 0
417.103 -3.9863 0
418.175 -6.23442 0
420.703 -6.46272 0
421.088 -2.19466 0
418.559 -1.96631 0
419.439 -6.34853 0
420.895 -4.32865 0
419.823 -2.08044 0
418.367 -4.10032 0
419.631 -4.21444 0
420.703 -6.46272 0
423.231 -6.6914 0
423.616 -2.42337 0
421.088 -2.19466 0
421.967 -6.57701 0
423.424 -4.55735 0
422.352 -2.30897 0
420.895 -4.32865 0
422.159 -4.44295 0
423.231 -6.6914 0
425.759 -6.92043 0
426.145 -2.65245 0
423.616 -2.42337 0
424.495 -6.80587 0
425.952 -4.7864 0
424.881 -2.53787 0
423.424 -4.55735 0
424.688 -4.67183 0
425.759 -6.92043 0
428.287 -7.14981 0
428.674 -2.88187 0
426.145 -2.65245 0
427.023 -7.03507 0
428.48 -5.0158 0
427.409 -2.76712 0
425.952 -4.7864 0
427.216 -4.90106 0
428.287 -7.14981 0
430.815 -7.37952 0
431.202 -3.11163 0
428.674 -2.88187 0
429.551 -7.26462 0
431.008 -5.24554 0
429.938 -2.99671 0
428.48 -5.0158 0
429.744 -5.13063 0
430.815 -7.37952 0
433.343 -7.60956 0
433.73 -3.3417 0
431.202 -3.11163 0
432.079 -7.4945 0
433.537 -5.4756 0
432.466 -3.22662 0
431.008 -5.24554 0
432.272 -5.36053 0
433.343 -7.60956 0
435.871 -7.83991 0
436.259 -3.57209 0
433.73 -3.3417 0
434.607 -7.7247 0
436.065 -5.70596 0
434.995 -3.45686 0
433.537 -5.4756 0
434.801 -5.59074 0
435.871 -7.83991 0
438.398 -8.07056 0
438.787 -3.80277 0
436.259 -3.57209 0
437.134 -7.9552 0
438.593 -5.93663 0
437.523 -3.68739 0
436.065 -5.70596 0
437.329 -5.82126 0
438.398 -8.07056 0
440.926 -8.30149 0
441.315 -4.03374 0
438.787 -3.80277 0
439.662 -8.18599 0
441.121 -6.16759 0
440.051 -3.91822 0
438.593 -5.93663 0
439.857 -6.05207 0
440.926 -8.30149 0
443.454 -8.5327 0
443.844 -4.26498 0
441.315 -4.03374 0
442.19 -8.41706 0
443.649 -6.39881 0
442.58 -4.14933 0
441.121 -6.16759 0
442.385 -6.28317 0
443.454 -8.5327 0
445.982 -8.76418 0
446.372 -4.49649 0
443.844 -4.26498 0
444.718 -8.64841 0
446.177 -6.6303 0
445.108 -4.3807 0
443.649 -6.39881 0
444.913 -6.51453 0
445.982 -8.76418 0
448.509 -8.9959 0
448.9 -4.72824 0
446.372 -4.49649 0
447.246 -8.88001 0
448.705 -6.86204 0
447.636 -4.61233 0
446.177 -6.6303 0
447.441 -6.74614 0
448.509 -8.9959 0
451.037 -9.22787 0
451.428 -4.96023 0
448.9 -4.72824 0
449.773 -9.11186 0
451.233 -7.09402 0
450.164 -4.84421 0
448.705 -6.86204 0
449.969 -6.978 0
451.037 -9.22787 0
453.565 -9.46006 0
453.956 -5.19245 0
451.428 -4.96023 0
452.301 -9.34394 0
453.76 -7.32623 0
452.692 -5.07631 0
451.233 -7.09402 0
452.496 -7.2101 0
453.565 -9.46006 0
456.092 -9.69247 0
456.484 -5.42488 0
453.956 -5.19245 0
454.828 -9.57624 0
456.288 -7.55865 0
455.22 -5.30864 0
453.76 -7.32623 0
455.024 -7.44241 0
456.092 -9.69247 0
458.62 -9.92508 0
459.012 -5.65751 0
456.484 -5.42488 0
457.356 -9.80875 0
458.816 -7.79127 0
457.748 -5.54117 0
456.288 -7.55865 0
457.552 -7.67494 0
458.62 -9.92508 0
461.147 -10.1579 0
461.54 -5.89033 0
459.012 -5.65751 0
459.884 -10.0415 0
461.344 -8.02408 0
460.276 -5.77389 0
458.816 -7.79127 0
460.08 -7.90765 0
461.147 -10.1579 0
463.675 -10.3909 0
464.068 -6.12333 0
461.54 -5.89033 0
462.411 -10.2744 0
463.871 -8.25707 0
462.804 -6.00681 0
461.344 -8.02408 0
462.607 -8.14056 0
463.675 -10.3909 0
466.202 -10.624 0
466.595 -6.35649 0
464.068 -6.12333 0
464.939 -10.5074 0
466.399 -8.49023 0
465.331 -6.23989 0
463.871 -8.25707 0
465.135 -8.37363 0
466.202 -10.624 0
468.73 -10.8573 0
469.123 -6.58981 0
466.595 -6.35649 0
467.466 -10.7406 0
468.926 -8.72354 0
467.859 -6.47313 0
466.399 -8.49023 0
467.663 -8.60687 0
468.73 -10.8573 0
471.257 -11.0908 0
471.651 -6.82326 0
469.123 -6.58981 0
469.994 -10.974 0
471.454 -8.957 0
470.387 -6.70652 0
468.926 -8.72354 0
470.19 -8.84025 0
471.257 -11.0908 0
473.785 -11.3243 0
474.178 -7.05685 0
471.651 -6.82326 0
472.521 -11.2075 0
473.982 -9.19058 0
472.915 -6.94004 0
471.454 -8.957 0
472.718 -9.07377 0
473.785 -11.3243 0
476.312 -11.558 0
476.706 -7.29055 0
474.178 -7.05685 0
475.048 -11.4412 0
476.509 -9.42428 0
475.442 -7.17369 0
473.982 -9.19058 0
475.245 -9.30742 0
476.312 -11.558 0
478.839 -11.7918 0
479.234 -7.52436 0
476.706 -7.29055 0
477.576 -11.6749 0
479.036 -9.65809 0
477.97 -7.40745 0
476.509 -9.42428 0
477.773 -9.54118 0
478.839 -11.7918 0
481.367 -12.0257 0
481.761 -7.75827 0
479.234 -7.52436 0
480.103 -11.9088 0
481.564 -9.892 0
480.497 -7.6413 0
479.036 -9.65809 0
480.3 -9.77503 0
481.367 -12.0257 0
483.894 -12.2597 0
484.288 -7.99225 0
481.761 -7.75827 0
482.631 -12.1427 0
484.091 -10.126 0
483.025 -7.87525 0
481.564 -9.892 0
482.828 -10.009 0
483.894 -12.2597 0
486.421 -12.4938 0
486.816 -8.22631 0
484.288 -7.99225 0
485.158 -12.3768 0
486.619 -10.36 0
485.552 -8.10927 0
484.091 -10.126 0
485.355 -10.243 0
486.421 -12.4938 0
488.949 -12.7279 0
489.343 -8.46043 0
486.816 -8.22631 0
487.685 -12.6109 0
489.146 -10.5942 0
488.08 -8.34336 0
486.619 -10.36 0
487.882 -10.4771 0
488.949 -12.7279 0
491.476 -12.9621 0
491.871 -8.6946 0
489.343 -8.46043 0
490.212 -12.845 0
491.673 -10.8283 0
490.607 -8.57751 0
489.146 -10.5942 0
490.41 -10.7113 0
491.476 -12.9621 0
494.003 -13.1963 0
494.398 -8.92882 0
491.871 -8.6946 0
492.74 -13.0792 0
494.201 -11.0625 0
493.134 -8.81171 0
491.673 -10.8283 0
492.937 -10.9454 0
494.003 -13.1963 0
496.531 -13.4304 0
496.925 -9.16303 0
494.398 -8.92882 0
495.267 -13.3133 0
496.728 -11.2967 0
495.662 -9.04593 0
494.201 -11.0625 0
495.464 -11.1796 0
496.531 -13.4304 0
499.058 -13.6644 0
499.452 -9.39714 0
496.925 -9.16303 0
497.794 -13.5474 0
499.255 -11.5307 0
498.189 -9.28011 0
496.728 -11.2967 0
497.991 -11.4137 0
0 21.4286 0
2.54335 21.428 0
2.54718 25.7117 0
0 25.7143 0
1.2716 21.4287 0
2.5452 23.5701 0
1.27346 25.7133 0
0 23.5714 0
1.27254 23.5711 0
2.54335 21.428 0
5.08711 21.4244 0
5.09511 25.7067 0
2.54718 25.7117 0
3.8152 21.4265 0
5.09098 23.5659 0
3.8211 25.7094 0
2.5452 23.5701 0
3.81803 23.5683 0
5.08711 21.4244 0
7.6311 21.4182 0
7.64313 25.7 0
5.09511 25.7067 0
6.35909 21.4216 0
7.637 23.5593 0
6.36913 25.7036 0
5.09098 23.5659 0
6.36398 23.5629 0
7.6311 21.4182 0
10.1751 21.4095 0
10.1911 25.6912 0
7.64313 25.7 0
8.90312 21.4141 0
10.183 23.5506 0
8.91712 25.6958 0
7.637 23.5593 0
8.91002 23.5553 0
10.1751 21.4095 0
12.7191 21.3986 0
12.739 25.6802 0
10.1911 25.6912 0
11.4472 21.4044 0
12.729 23.5396 0
11.465 25.686 0
10.183 23.5506 0
11.456 23.5454 0
12.7191 21.3986 0
15.2631 21.3853 0
15.2868 25.667 0
12.739 25.6802 0
13.9911 21.3923 0
15.2749 23.5264 0
14.0129 25.6739 0
12.729 23.5396 0
14.0019 23.5333 0
15.2631 21.3853 0
17.807 21.3698 0
17.8345 25.6514 0
15.2868 25.667 0
16.535 21.3779 0
17.8207 23.5108 0
16.5606 25.6595 0
15.2749 23.5264 0
16.5478 23.5189 0
17.807 21.3698 0
20.3508 21.352 0
20.3821 25.6336 0
17.8345 25.6514 0
19.0789 21.3612 0
20.3664 23.493 0
19.1083 25.6428 0
17.8207 23.5108 0
19.0936 23.5022 0
20.3508 21.352 0
22.8945 21.3318 0
22.9297 25.6135 0
20.3821 25.6336 0
21.6227 21.3422 0
22.9121 23.4729 0
21.6559 25.6238 0
20.3664 23.493 0
21.6393 23.4832 0
22.8945 21.3318 0
25.4382 21.3094 0
25.4772 25.5911 0
22.9297 25.6135 0
24.1664 21.3209 0
25.4577 23.4505 0
24.2035 25.6025 0
22.9121 23.4729 0
24.1849 23.462 0
25.4382 21.3094 0
27.9819 21.2848 0
28.0246 25.5664 0
25.4772 25.5911 0
26.7101 21.2974 0
28.0032 23.4258 0
26.7509 25.579 0
25.4577 23.4505 0
26.7305 23.4384 0
27.9819 21.2848 0
30.5254 21.2579 0
30.572 25.5395 0
28.0246 25.5664 0
29.2537 21.2716 0
30.5487 23.3989 0
29.2983 25.5532 0
28.0032 23.4258 0
29.276 23.4126 0
30.5254 21.2579 0
33.069 21.2287 0
33.1193 25.5103 0
30.572 25.5395 0
31.7972 21.2436 0
33.0941 23.3697 0
31.8457 25.5252 0
30.5487 23.3989 0
31.8214 23.3846 0
33.069 21.2287 0
35.6124 21.1973 0
35.6665 25.4789 0
33.1193 25.5103 0
34.3407 21.2133 0
35.6394 23.3383 0
34.3929 25.4949 0
33.0941 23.3697 0
34.3668 23.3543 0
35.6124 21.1973 0
38.1559 21.1637 0
38.2136 25.4453 0
35.6665 25.4789 0
36.8842 21.1808 0
38.1847 23.3047 0
36.9401 25.4624 0
35.6394 23.3383 0
36.9121 23.3218 0
38.1559 21.1637 0
40.6992 21.1279 0
40.7607 25.4094 0
38.2136 25.4453 0
39.4275 21.1461 0
40.7299 23.2689 0
39.4872 25.4276 0
38.1847 23.3047 0
39.4573 23.2871 0
40.6992 21.1279 0
43.2425 21.0899 0
43.3076 25.3714 0
40.7607 25.4094 0
41.9709 21.1092 0
43.275 23.2309 0
42.0342 25.3907 0
40.7299 23.2689 0
42.0025 23.2502 0
43.2425 21.0899 0
45.7857 21.0498 0
45.8545 25.3312 0
43.3076 25.3714 0
44.5141 21.0701 0
45.8201 23.1907 0
44.5811 25.3516 0
43.275 23.2309 0
44.5476 23.2111 0
45.7857 21.0498 0
48.3289 21.0074 0
48.4013 25.2888 0
45.8545 25.3312 0
47.0573 21.0289 0
48.3651 23.1484 0
47.1279 25.3103 0
45.8201 23.1907 0
47.0926 23.1698 0
48.3289 21.0074 0
50.872 20.963 0
50.948 25.2443 0
48.4013 25.2888 0
49.6004 20.9855 0
50.91 23.1039 0
49.6747 25.2668 0
48.3651 23.1484 0
49.6375 23.1264 0
50.872 20.963 0
53.415 20.9163 0
53.4947 25.1976 0
50.948 25.2443 0
52.1435 20.9399 0
53.4548 23.0572 0
52.2214 25.2212 0
50.91 23.1039 0
52.1824 23.0808 0
53.415 20.9163 0
55.9579 20.8676 0
56.0412 25.1488 0
53.4947 25.1976 0
54.6865 20.8922 0
55.9995 23.0084 0
54.7679 25.1735 0
53.4548 23.0572 0
54.7272 23.0331 0
55.9579 20.8676 0
58.5008 20.8167 0
58.5876 25.0979 0
56.0412 25.1488 0
57.2294 20.8424 0
58.5442 22.9575 0
57.3144 25.1236 0
55.9995 23.0084 0
57.2719 22.9832 0
58.5008 20.8167 0
61.0436 20.7637 0
61.134 25.0449 0
58.5876 25.0979 0
59.7722 20.7905 0
61.0888 22.9045 0
59.8608 25.0717 0
58.5442 22.9575 0
59.8165 22.9313 0
61.0436 20.7637 0
63.5864 20.7086 0
63.6802 24.9897 0
61.134 25.0449 0
62.315 20.7364 0
63.6333 22.8494 0
62.4071 25.0176 0
61.0888 22.9045 0
62.361 22.8772 0
63.5864 20.7086 0
66.129 20.6515 0
66.2264 24.9325 0
63.6802 24.9897 0
64.8577 20.6803 0
66.1777 22.7922 0
64.9533 24.9614 0
63.6333 22.8494 0
64.9055 22.8211 0
66.129 20.6515 0
68.6716 20.5923 0
68.7724 24.8732 0
66.2264 24.9325 0
67.4003 20.6221 0
68.722 22.733 0
67.4994 24.9031 0
66.1777 22.7922 0
67.4498 22.7629 0
68.6716 20.5923 0
71.2141 20.531 0
71.3184 24.8119 0
68.7724 24.8732 0
69.9429 20.5619 0
71.2662 22.6717 0
70.0454 24.8428 0
68.722 22.733 0
69.9941 22.7026 0
71.2141 20.531 0
73.7565 20.4677 0
73.8642 24.7485 0
71.3184 24.8119 0
72.4853 20.4996 0
73.8103 22.6083 0
72.5913 24.7805 0
71.2662 22.6717 0
72.5383 22.6402 0
73.7565 20.4677 0
76.2989 20.4023 0
76.41 24.6831 0
73.8642 24.7485 0
75.0277 20.4352 0
76.3544 22.5429 0
75.1371 24.7161 0
73.8103 22.6083 0
75.0824 22.5759 0
76.2989 20.4023 0
78.8411 20.3349 0
78.9556 24.6156 0
76.41 24.6831 0
77.57 20.3689 0
78.8983 22.4755 0
77.6828 24.6496 0
76.3544 22.5429 0
77.6264 22.5095 0
78.8411 20.3349 0
81.3833 20.2655 0
81.5012 24.5462 0
78.9556 24.6156 0
80.1122 20.3005 0
81.4422 22.4061 0
80.2284 24.5812 0
78.8983 22.4755 0
80.1703 22.441 0
81.3833 20.2655 0
83.9254 20.1942 0
84.0466 24.4747 0
81.5012 24.5462 0
82.6543 20.2301 0
83.986 22.3347 0
82.7739 24.5107 0
81.4422 22.4061 0
82.7141 22.3706 0
83.9254 20.1942 0
86.4674 20.1208 0
86.5919 24.4013 0
84.0466 24.4747 0
85.1964 20.1577 0
86.5296 22.2613 0
85.3193 24.4383 0
83.986 22.3347 0
85.2578 22.2982 0
86.4674 20.1208 0
89.0093 20.0455 0
89.1372 24.3259 0
86.5919 24.4013 0
87.7383 20.0834 0
89.0732 22.1859 0
87.8646 24.3638 0
86.5296 22.2613 0
87.8014 22.2238 0
89.0093 20.0455 0
91.5511 19.9682 0
91.6823 24.2485 0
89.1372 24.3259 0
90.2802 20.0071 0
91.6167 22.1086 0
90.4097 24.2875 0
89.0732 22.1859 0
90.3449 22.1475 0
91.5511 19.9682 0
94.0928 19.8889 0
94.2273 24.1692 0
91.6823 24.2485 0
92.822 19.9288 0
94.16 22.0293 0
92.9548 24.2091 0
91.6167 22.1086 0
92.8883 22.0692 0
94.0928 19.8889 0
96.6345 19.8078 0
96.7722 24.0879 0
94.2273 24.1692 0
95.3637 19.8486 0
96.7033 21.9481 0
95.4997 24.1288 0
94.16 22.0293 0
95.4317 21.9889 0
96.6345 19.8078 0
99.176 19.7247 0
99.3169 24.0048 0
96.7722 24.0879 0
97.9053 19.7664 0
99.2464 21.8649 0
98.0446 24.0466 0
96.7033 21.9481 0
97.9749 21.9067 0
99.176 19.7247 0
101.717 19.6397 0
101.862 23.9197 0
99.3169 24.0048 0
100.447 19.6824 0
101.79 21.7799 0
100.589 23.9625 0
99.2464 21.8649 0
100.518 21.8226 0
101.717 19.6397 0
104.259 19.5528 0
104.406 23.8327 0
101.862 23.9197 0
102.988 19.5964 0
104.332 21.6929 0
103.134 23.8764 0
101.79 21.7799 0
103.061 21.7366 0
104.259 19.5528 0
106.8 19.464 0
106.951 23.7438 0
104.406 23.8327 0
105.529 19.5086 0
106.875 21.6041 0
105.678 23.7885 0
104.332 21.6929 0
105.604 21.6487 0
106.8 19.464 0
109.341 19.3733 0
109.495 23.6531 0
106.951 23.7438 0
108.071 19.4189 0
109.418 21.5134 0
108.223 23.6987 0
106.875 21.6041 0
108.147 21.559 0
109.341 19.3733 0
111.882 19.2808 0
112.039 23.5604 0
109.495 23.6531 0
110.612 19.3273 0
111.961 21.4208 0
110.767 23.607 0
109.418 21.5134 0
110.689 21.4673 0
111.882 19.2808 0
114.423 19.1864 0
114.583 23.466 0
112.039 23.5604 0
113.153 19.2338 0
114.503 21.3264 0
113.311 23.5134 0
111.961 21.4208 0
113.232 21.3738 0
114.423 19.1864 0
116.964 19.0902 0
117.127 23.3697 0
114.583 23.466 0
115.694 19.1385 0
117.046 21.2301 0
115.855 23.4181 0
114.503 21.3264 0
115.774 21.2785 0
116.964 19.0902 0
119.505 18.9922 0
119.671 23.2715 0
117.127 23.3697 0
118.235 19.0414 0
119.588 21.1321 0
118.399 23.3208 0
117.046 21.2301 0
118.317 21.1813 0
119.505 18.9922 0
122.046 18.8923 0
122.215 23.1716 0
119.671 23.2715 0
120.775 18.9425 0
122.13 21.0322 0
120.943 23.2218 0
119.588 21.1321 0
120.859 21.0823 0
122.046 18.8923 0
124.586 18.7907 0
124.758 23.0699 0
122.215 23.1716 0
123.316 18.8417 0
124.672 20.9305 0
123.486 23.121 0
122.13 21.0322 0
123.401 20.9815 0
124.586 18.7907 0
127.127 18.6873 0
127.302 22.9663 0
124.758 23.0699 0
125.856 18.7392 0
127.214 20.827 0
126.03 23.0183 0
124.672 20.9305 0
125.943 20.8789 0
127.127 18.6873 0
129.667 18.582 0
129.845 22.861 0
127.302 22.9663 0
128.397 18.6349 0
129.756 20.7217 0
128.573 22.9139 0
127.214 20.827 0
128.485 20.7746 0
129.667 18.582 0
132.207 18.4751 0
132.388 22.7539 0
129.845 22.861 0
130.937 18.5288 0
132.298 20.6147 0
131.117 22.8077 0
129.756 20.7217 0
131.027 20.6684 0
132.207 18.4751 0
134.747 18.3664 0
134.931 22.6451 0
132.388 22.7539 0
133.477 18.4209 0
134.839 20.5059 0
133.66 22.6998 0
132.298 20.6147 0
133.569 20.5605 0
134.747 18.3664 0
137.287 18.2559 0
137.474 22.5346 0
134.931 22.6451 0
136.017 18.3113 0
137.381 20.3954 0
136.203 22.5901 0
134.839 20.5059 0
136.11 20.4509 0
137.287 18.2559 0
139.827 18.1437 0
140.017 22.4223 0
137.474 22.5346 0
138.557 18.2 0
139.922 20.2832 0
138.746 22.4786 0
137.381 20.3954 0
138.652 20.3395 0
139.827 18.1437 0
142.367 18.0298 0
142.56 22.3083 0
140.017 22.4223 0
141.097 18.087 0
142.464 20.1692 0
141.289 22.3655 0
139.922 20.2832 0
141.193 20.2264 0
142.367 18.0298 0
144.907 17.9142 0
145.103 22.1925 0
142.56 22.3083 0
143.637 17.9722 0
145.005 20.0536 0
143.831 22.2506 0
142.464 20.1692 0
143.734 20.1116 0
144.907 17.9142 0
147.447 17.7969 0
147.645 22.0751 0
145.103 22.1925 0
146.177 17.8558 0
147.546 19.9362 0
146.374 22.1341 0
145.005 20.0536 0
146.275 19.9951 0
147.447 17.7969 0
149.986 17.6779 0
150.187 21.9561 0
147.645 22.0751 0
148.716 17.7376 0
150.087 19.8172 0
148.916 22.0158 0
147.546 19.9362 0
148.816 19.8769 0
149.986 17.6779 0
152.526 17.5573 0
152.73 21.8353 0
150.187 21.9561 0
151.256 17.6178 0
152.628 19.6965 0
151.458 21.8959 0
150.087 19.8172 0
151.357 19.757 0
152.526 17.5573 0
155.065 17.435 0
155.272 21.7129 0
152.73 21.8353 0
153.795 17.4964 0
155.168 19.5741 0
154.001 21.7743 0
152.628 19.6965 0
153.898 19.6355 0
155.065 17.435 0
157.604 17.3111 0
157.814 21.5889 0
155.272 21.7129 0
156.334 17.3733 0
157.709 19.4501 0
156.543 21.6511 0
155.168 19.5741 0
156.438 19.5123 0
157.604 17.3111 0
160.143 17.1855 0
160.355 21.4632 0
157.814 21.5889 0
158.874 17.2485 0
160.249 19.3245 0
159.084 21.5262 0
157.709 19.4501 0
158.979 19.3875 0
160.143 17.1855 0
162.682 17.0583 0
162.897 21.3359 0
160.355 21.4632 0
161.413 17.1221 0
162.79 19.1973 0
161.626 21.3997 0
160.249 19.3245 0
161.519 19.2611 0
162.682 17.0583 0
165.221 16.9296 0
165.439 21.207 0
162.897 21.3359 0
163.951 16.9942 0
165.33 19.0684 0
164.168 21.2716 0
162.79 19.1973 0
164.06 19.1331 0
165.221 16.9296 0
167.76 16.7992 0
167.98 21.0765 0
165.439 21.207 0
166.49 16.8646 0
167.87 18.938 0
166.709 21.1419 0
165.33 19.0684 0
166.6 19.0034 0
167.76 16.7992 0
170.298 16.6672 0
170.521 20.9444 0
167.98 21.0765 0
169.029 16.7334 0
170.41 18.806 0
169.251 21.0107 0
167.87 18.938 0
169.14 18.8722 0
170.298 16.6672 0
172.837 16.5337 0
173.062 20.8108 0
170.521 20.9444 0
171.568 16.6007 0
172.95 18.6724 0
171.792 20.8778 0
170.41 18.806 0
171.68 18.7394 0
172.837 16.5337 0
175.375 16.3986 0
175.603 20.6756 0
173.062 20.8108 0
174.106 16.4664 0
175.489 18.5373 0
174.333 20.7434 0
172.95 18.6724 0
174.219 18.605 0
175.375 16.3986 0
177.913 16.262 0
178.144 20.5389 0
175.603 20.6756 0
176.644 16.3305 0
178.029 18.4006 0
176.874 20.6074 0
175.489 18.5373 0
176.759 18.4691 0
177.913 16.262 0
180.452 16.1239 0
180.685 20.4006 0
178.144 20.5389 0
179.183 16.1931 0
180.568 18.2624 0
179.415 20.4699 0
178.029 18.4006 0
179.299 18.3317 0
180.452 16.1239 0
182.99 15.9842 0
183.226 20.2608 0
180.685 20.4006 0
181.721 16.0542 0
183.108 18.1226 0
181.955 20.3309 0
180.568 18.2624 0
181.838 18.1927 0
182.99 15.9842 0
185.528 15.843 0
185.766 20.1195 0
183.226 20.2608 0
184.259 15.9138 0
185.647 17.9814 0
184.496 20.1903 0
183.108 18.1226 0
184.377 18.0522 0
185.528 15.843 0
188.066 15.7003 0
188.307 19.9767 0
185.766 20.1195 0
186.797 15.7718 0
188.186 17.8387 0
187.036 20.0483 0
185.647 17.9814 0
186.916 17.9102 0
188.066 15.7003 0
190.603 15.5562 0
190.847 19.8324 0
188.307 19.9767 0
189.334 15.6284 0
190.725 17.6944 0
189.577 19.9047 0
188.186 17.8387 0
189.456 17.7667 0
190.603 15.5562 0
193.141 15.4105 0
193.387 19.6867 0
190.847 19.8324 0
191.872 15.4835 0
193.264 17.5488 0
192.117 19.7597 0
190.725 17.6944 0
191.994 17.6218 0
193.141 15.4105 0
195.678 15.2634 0
195.927 19.5394 0
193.387 19.6867 0
194.41 15.3372 0
195.803 17.4016 0
194.657 19.6132 0
193.264 17.5488 0
194.533 17.4754 0
195.678 15.2634 0
198.216 15.1149 0
198.467 19.3908 0
195.927 19.5394 0
196.947 15.1894 0
198.341 17.253 0
197.197 19.4653 0
195.803 17.4016 0
197.072 17.3275 0
198.216 15.1149 0
200.753 14.9649 0
201.006 19.2407 0
198.467 19.3908 0
199.484 15.0401 0
200.88 17.103 0
199.736 19.3159 0
198.341 17.253 0
199.61 17.1782 0
200.753 14.9649 0
203.29 14.8135 0
203.546 19.0892 0
201.006 19.2407 0
202.022 14.8894 0
203.418 16.9515 0
202.276 19.1651 0
200.88 17.103 0
202.149 17.0274 0
203.29 14.8135 0
205.827 14.6607 0
206.085 18.9363 0
203.546 19.0892 0
204.559 14.7373 0
205.956 16.7987 0
204.816 19.0129 0
203.418 16.9515 0
204.687 16.8753 0
205.827 14.6607 0
208.364 14.5065 0
208.624 18.7819 0
206.085 18.9363 0
207.096 14.5838 0
208.494 16.6444 0
207.355 18.8593 0
205.956 16.7987 0
207.225 16.7217 0
208.364 14.5065 0
210.901 14.351 0
211.164 18.6262 0
208.624 18.7819 0
209.632 14.4289 0
211.032 16.4888 0
209.894 18.7043 0
208.494 16.6444 0
209.763 16.5667 0
210.901 14.351 0
213.438 14.194 0
213.703 18.4692 0
211.164 18.6262 0
212.169 14.2727 0
213.57 16.3317 0
212.433 18.5479 0
211.032 16.4888 0
212.301 16.4104 0
213.438 14.194 0
215.974 14.0357 0
216.241 18.3107 0
213.703 18.4692 0
214.706 14.115 0
216.108 16.1734 0
214.972 18.3901 0
213.57 16.3317 0
214.839 16.2527 0
215.974 14.0357 0
218.511 13.876 0
218.78 18.1509 0
216.241 18.3107 0
217.242 13.956 0
218.645 16.0136 0
217.511 18.231 0
216.108 16.1734 0
217.377 16.0937 0
218.511 13.876 0
221.047 13.715 0
221.319 17.9898 0
218.78 18.1509 0
219.779 13.7957 0
221.183 15.8526 0
220.05 18.0705 0
218.645 16.0136 0
219.914 15.9333 0
221.047 13.715 0
223.583 13.5527 0
223.857 17.8274 0
221.319 17.9898 0
222.315 13.634 0
223.72 15.6902 0
222.588 17.9087 0
221.183 15.8526 0
222.452 15.7715 0
223.583 13.5527 0
226.119 13.389 0
226.396 17.6636 0
223.857 17.8274 0
224.851 13.471 0
226.257 15.5265 0
225.126 17.7456 0
223.72 15.6902 0
224.989 15.6085 0
226.119 13.389 0
228.655 13.2241 0
228.934 17.4985 0
226.396 17.6636 0
227.387 13.3067 0
228.794 15.3615 0
227.665 17.5812 0
226.257 15.5265 0
227.526 15.4441 0
228.655 13.2241 0
231.191 13.0579 0
231.472 17.3322 0
228.934 17.4985 0
229.923 13.1411 0
231.331 15.1952 0
230.203 17.4155 0
228.794 15.3615 0
230.063 15.2785 0
231.191 13.0579 0
233.727 12.8904 0
234.01 17.1646 0
231.472 17.3322 0
232.459 12.9743 0
233.868 15.0276 0
232.741 17.2485 0
231.331 15.1952 0
232.6 15.1115 0
233.727 12.8904 0
236.263 12.7216 0
236.547 16.9957 0
234.01 17.1646 0
234.995 12.8061 0
236.405 14.8588 0
235.279 17.0803 0
233.868 15.0276 0
235.137 14.9433 0
236.263 12.7216 0
238.798 12.5516 0
239.085 16.8255 0
236.547 16.9957 0
237.53 12.6367 0
238.942 14.6887 0
237.816 16.9107 0
236.405 14.8588 0
237.673 14.7739 0
238.798 12.5516 0
241.334 12.3803 0
241.623 16.6541 0
239.085 16.8255 0
240.066 12.4661 0
241.478 14.5174 0
240.354 16.74 0
238.942 14.6887 0
240.21 14.6032 0
241.334 12.3803 0
243.869 12.2078 0
244.16 16.4815 0
241.623 16.6541 0
242.601 12.2942 0
244.014 14.3448 0
242.891 16.568 0
241.478 14.5174 0
242.746 14.4312 0
243.869 12.2078 0
246.404 12.0341 0
246.697 16.3077 0
244.16 16.4815 0
245.136 12.1211 0
246.551 14.171 0
245.429 16.3948 0
244.014 14.3448 0
245.283 14.2581 0
246.404 12.0341 0
248.939 11.8592 0
249.234 16.1327 0
246.697 16.3077 0
247.672 11.9468 0
249.087 13.9961 0
247.966 16.2203 0
246.551 14.171 0
247.819 14.0837 0
248.939 11.8592 0
251.474 11.6831 0
251.771 15.9565 0
249.234 16.1327 0
250.207 11.7713 0
251.623 13.8199 0
250.503 16.0447 0
249.087 13.9961 0
250.355 13.9081 0
251.474 11.6831 0
254.009 11.5058 0
254.308 15.7791 0
251.771 15.9565 0
252.742 11.5946 0
254.159 13.6426 0
253.04 15.8679 0
251.623 13.8199 0
252.891 13.7314 0
254.009 11.5058 0
256.544 11.3274 0
256.845 15.6005 0
254.308 15.7791 0
255.276 11.4168 0
256.694 13.4641 0
255.577 15.6899 0
254.159 13.6426 0
255.426 13.5535 0
256.544 11.3274 0
259.078 11.1478 0
259.382 15.4208 0
256.845 15.6005 0
257.811 11.2377 0
259.23 13.2844 0
258.113 15.5108 0
256.694 13.4641 0
257.962 13.3744 0
259.078 11.1478 0
261.613 10.967 0
261.918 15.2399 0
259.382 15.4208 0
260.346 11.0576 0
261.765 13.1036 0
260.65 15.3305 0
259.23 13.2844 0
260.498 13.1942 0
261.613 10.967 0
264.147 10.7852 0
264.454 15.0579 0
261.918 15.2399 0
262.88 10.8762 0
264.301 12.9217 0
263.186 15.1491 0
261.765 13.1036 0
263.033 13.0128 0
264.147 10.7852 0
266.682 10.6022 0
266.99 14.8748 0
264.454 15.0579 0
265.414 10.6938 0
266.836 12.7386 0
265.722 14.9665 0
264.301 12.9217 0
265.568 12.8303 0
266.682 10.6022 0
269.216 10.4181 0
269.527 14.6906 0
266.99 14.8748 0
267.949 10.5103 0
269.371 12.5545 0
268.258 14.7829 0
266.836 12.7386 0
268.104 12.6467 0
269.216 10.4181 0
271.75 10.2329 0
272.062 14.5053 0
269.527 14.6906 0
270.483 10.3256 0
271.906 12.3692 0
270.794 14.5981 0
269.371 12.5545 0
270.639 12.462 0
271.75 10.2329 0
274.284 10.0466 0
274.598 14.3189 0
272.062 14.5053 0
273.017 10.1399 0
274.441 12.1829 0
273.33 14.4123 0
271.906 12.3692 0
273.174 12.2762 0
274.284 10.0466 0
276.818 9.85927 0
277.134 14.1315 0
274.598 14.3189 0
275.551 9.95308 0
276.976 11.9955 0
275.866 14.2253 0
274.441 12.1829 0
275.708 12.0893 0
276.818 9.85927 0
279.352 9.67087 0
279.669 13.943 0
277.134 14.1315 0
278.085 9.7652 0
279.51 11.807 0
278.402 14.0374 0
276.976 11.9955 0
278.243 11.9014 0
279.352 9.67087 0
281.885 9.48142 0
282.205 13.7534 0
279.669 13.943 0
280.618 9.57628 0
282.045 11.6175 0
280.937 13.8483 0
279.51 11.807 0
280.778 11.7124 0
281.885 9.48142 0
284.419 9.29094 0
284.74 13.5628 0
282.205 13.7534 0
283.152 9.38631 0
284.579 11.427 0
283.472 13.6582 0
282.045 11.6175 0
283.312 11.5224 0
284.419 9.29094 0
286.952 9.09944 0
287.275 13.3712 0
284.74 13.5628 0
285.685 9.19532 0
287.114 11.2354 0
286.008 13.4671 0
284.579 11.427 0
285.847 11.3313 0
286.952 9.09944 0
289.485 8.90693 0
289.81 13.1786 0
287.275 13.3712 0
288.219 9.00331 0
289.648 11.0429 0
288.543 13.275 0
287.114 11.2354 0
288.381 11.1393 0
289.485 8.90693 0
292.019 8.71342 0
292.345 12.985 0
289.81 13.1786 0
290.752 8.8103 0
292.182 10.8493 0
291.078 13.0819 0
289.648 11.0429 0
290.915 10.9462 0
292.019 8.71342 0
294.552 8.51893 0
294.88 12.7904 0
292.345 12.985 0
293.285 8.6163 0
294.716 10.6548 0
293.613 12.8878 0
292.182 10.8493 0
293.449 10.7522 0
294.552 8.51893 0
297.085 8.32346 0
297.415 12.5948 0
294.88 12.7904 0
295.818 8.42131 0
297.25 10.4592 0
296.147 12.6927 0
294.716 10.6548 0
295.983 10.5571 0
297.085 8.32346 0
299.618 8.12703 0
299.949 12.3983 0
297.415 12.5948 0
298.351 8.22537 0
299.783 10.2628 0
298.682 12.4967 0
297.25 10.4592 0
298.517 10.3611 0
299.618 8.12703 0
302.15 7.92966 0
302.483 12.2008 0
299.949 12.3983 0
300.884 8.02846 0
302.317 10.0653 0
301.216 12.2996 0
299.783 10.2628 0
301.05 10.1642 0
302.15 7.92966 0
304.683 7.73134 0
305.018 12.0024 0
302.483 12.2008 0
303.417 7.83062 0
304.85 9.86696 0
303.751 12.1017 0
302.317 10.0653 0
303.584 9.96626 0
304.683 7.73134 0
307.216 7.53211 0
307.552 11.803 0
305.018 12.0024 0
305.949 7.63184 0
307.384 9.66767 0
306.285 11.9028 0
304.85 9.86696 0
306.117 9.76743 0
307.216 7.53211 0
309.748 7.33196 0
310.086 11.6028 0
307.552 11.803 0
308.482 7.43215 0
309.917 9.46747 0
308.819 11.703 0
307.384 9.66767 0
308.65 9.56768 0
309.748 7.33196 0
312.281 7.13091 0
312.62 11.4016 0
310.086 11.6028 0
311.014 7.23154 0
312.45 9.26637 0
311.353 11.5023 0
309.917 9.46747 0
311.184 9.36703 0
312.281 7.13091 0
314.813 6.92897 0
315.154 11.1996 0
312.62 11.4016 0
313.547 7.03005 0
314.983 9.06438 0
313.887 11.3007 0
312.45 9.26637 0
313.717 9.16549 0
314.813 6.92897 0
317.345 6.72615 0
317.687 10.9967 0
315.154 11.1996 0
316.079 6.82767 0
317.516 8.86152 0
316.42 11.0983 0
314.983 9.06438 0
316.25 8.96306 0
317.345 6.72615 0
319.877 6.52248 0
320.221 10.7929 0
317.687 10.9967 0
318.611 6.62442 0
320.049 8.65779 0
318.954 10.8949 0
317.516 8.86152 0
318.783 8.75976 0
319.877 6.52248 0
322.409 6.31794 0
322.754 10.5883 0
320.221 10.7929 0
321.143 6.42032 0
322.582 8.45321 0
321.488 10.6907 0
320.049 8.65779 0
321.315 8.5556 0
322.409 6.31794 0
324.941 6.11257 0
325.288 10.3828 0
322.754 10.5883 0
323.675 6.21536 0
325.114 8.24779 0
324.021 10.4857 0
322.582 8.45321 0
323.848 8.3506 0
324.941 6.11257 0
327.473 5.90638 0
327.821 10.1765 0
325.288 10.3828 0
326.207 6.00958 0
327.647 8.04154 0
326.554 10.2798 0
325.114 8.24779 0
326.381 8.14477 0
327.473 5.90638 0
330.005 5.69936 0
330.354 9.96943 0
327.821 10.1765 0
328.739 5.80297 0
330.179 7.83448 0
329.087 10.0731 0
327.647 8.04154 0
328.913 7.93811 0
330.005 5.69936 0
332.536 5.49154 0
332.887 9.76152 0
330.354 9.96943 0
331.27 5.59555 0
332.711 7.62662 0
331.62 9.86557 0
330.179 7.83448 0
331.445 7.73065 0
332.536 5.49154 0
335.068 5.28293 0
335.42 9.55282 0
332.887 9.76152 0
333.802 5.38734 0
335.244 7.41796 0
334.153 9.65727 0
332.711 7.62662 0
333.977 7.52239 0
335.068 5.28293 0
337.599 5.07354 0
337.952 9.34334 0
335.42 9.55282 0
336.333 5.17833 0
337.776 7.20853 0
336.686 9.44818 0
335.244 7.41796 0
336.51 7.31334 0
337.599 5.07354 0
340.13 4.86339 0
340.485 9.1331 0
337.952 9.34334 0
338.865 4.96856 0
340.308 6.99833 0
339.219 9.23832 0
337.776 7.20853 0
339.042 7.10352 0
340.13 4.86339 0
342.662 4.65247 0
343.017 8.9221 0
340.485 9.1331 0
341.396 4.75802 0
342.839 6.78737 0
341.751 9.0277 0
340.308 6.99833 0
341.574 6.89294 0
342.662 4.65247 0
345.193 4.44082 0
345.55 8.71037 0
343.017 8.9221 0
343.927 4.54674 0
345.371 6.57567 0
344.284 8.81633 0
342.839 6.78737 0
344.105 6.68161 0
345.193 4.44082 0
347.724 4.22843 0
348.082 8.4979 0
345.55 8.71037 0
346.458 4.33472 0
347.903 6.36324 0
346.816 8.60422 0
345.371 6.57567 0
346.637 6.46955 0
347.724 4.22843 0
350.255 4.01533 0
350.614 8.28471 0
348.082 8.4979 0
348.989 4.12197 0
350.434 6.1501 0
349.348 8.39139 0
347.903 6.36324 0
349.169 6.25676 0
350.255 4.01533 0
352.786 3.80151 0
353.146 8.07082 0
350.614 8.28471 0
351.52 3.90851 0
352.966 5.93624 0
351.88 8.17785 0
350.434 6.1501 0
351.7 6.04326 0
352.786 3.80151 0
355.316 3.58701 0
355.678 7.85623 0
353.146 8.07082 0
354.051 3.69435 0
355.497 5.72169 0
354.412 7.96361 0
352.966 5.93624 0
354.232 5.82906 0
355.316 3.58701 0
357.847 3.37182 0
358.21 7.64096 0
355.678 7.85623 0
356.582 3.4795 0
358.028 5.50646 0
356.944 7.74868 0
355.497 5.72169 0
356.763 5.61416 0
357.847 3.37182 0
360.378 3.15595 0
360.742 7.42503 0
358.21 7.64096 0
359.112 3.26397 0
360.56 5.29056 0
359.476 7.53308 0
358.028 5.50646 0
359.294 5.3986 0
360.378 3.15595 0
362.908 2.93943 0
363.273 7.20843 0
360.742 7.42503 0
361.643 3.04778 0
363.091 5.07401 0
362.007 7.31681 0
360.56 5.29056 0
361.825 5.18237 0
362.908 2.93943 0
365.438 2.72227 0
365.805 6.99119 0
363.273 7.20843 0
364.173 2.83093 0
365.622 4.8568 0
364.539 7.09989 0
363.091 5.07401 0
364.356 4.96548 0
365.438 2.72227 0
367.969 2.50446 0
368.336 6.77332 0
365.805 6.99119 0
366.704 2.61344 0
368.152 4.63896 0
367.07 6.88233 0
365.622 4.8568 0
366.887 4.74796 0
367.969 2.50446 0
370.499 2.28604 0
370.867 6.55483 0
368.336 6.77332 0
369.234 2.39533 0
370.683 4.4205 0
369.602 6.66415 0
368.152 4.63896 0
369.418 4.52981 0
370.499 2.28604 0
373.029 2.067 0
373.399 6.33572 0
370.867 6.55483 0
371.764 2.1766 0
373.214 4.20143 0
372.133 6.44535 0
370.683 4.4205 0
371.949 4.31104 0
373.029 2.067 0
375.559 1.84737 0
375.93 6.11602 0
373.399 6.33572 0
374.294 1.95726 0
375.744 3.98176 0
374.664 6.22595 0
373.214 4.20143 0
374.479 4.09167 0
375.559 1.84737 0
378.089 1.62715 0
378.461 5.89574 0
375.93 6.11602 0
376.824 1.73733 0
378.275 3.76151 0
377.195 6.00595 0
375.744 3.98176 0
377.01 3.87171 0
378.089 1.62715 0
380.619 1.40635 0
380.992 5.67488 0
378.461 5.89574 0
379.354 1.51682 0
380.805 3.54068 0
379.726 5.78538 0
378.275 3.76151 0
379.54 3.65116 0
380.619 1.40635 0
383.149 1.185 0
383.522 5.45346 0
380.992 5.67488 0
381.884 1.29575 0
383.336 3.31929 0
382.257 5.56424 0
380.805 3.54068 0
382.071 3.43005 0
383.149 1.185 0
385.679 0.96309 0
386.053 5.23149 0
383.522 5.45346 0
384.414 1.07411 0
385.866 3.09735 0
384.788 5.34254 0
383.336 3.31929 0
384.601 3.20839 0
385.679 0.96309 0
388.208 0.740644 0
388.584 5.00899 0
386.053 5.23149 0
386.944 0.851933 0
388.396 2.87488 0
387.318 5.12031 0
385.866 3.09735 0
387.131 2.98618 0
388.208 0.740644 0
390.738 0.517672 0
391.114 4.78596 0
388.584 5.00899 0
389.473 0.629223 0
390.926 2.65187 0
389.849 4.89754 0
388.396 2.87488 0
389.661 2.76344 0
390.738 0.517672 0
393.268 0.294185 0
393.644 4.56242 0
391.114 4.78596 0
392.003 0.405992 0
393.456 2.42836 0
392.379 4.67425 0
390.926 2.65187 0
392.191 2.54018 0
393.268 0.294185 0
395.797 0.0701969 0
396.175 4.33837 0
393.644 4.56242 0
394.532 0.182253 0
395.986 2.20434 0
394.91 4.45046 0
393.456 2.42836 0
394.721 2.31641 0
395.797 0.0701969 0
398.326 -0.154282 0
398.705 4.11384 0
396.175 4.33837 0
397.062 -0.0419818 0
398.516 1.97984 0
397.44 4.22617 0
395.986 2.20434 0
397.251 2.09215 0
398.326 -0.154282 0
400.856 -0.379238 0
401.235 3.88884 0
398.705 4.11384 0
399.591 -0.266701 0
401.045 1.75485 0
399.97 4.0014 0
398.516 1.97984 0
399.781 1.8674 0
400.856 -0.379238 0
403.385 -0.604661 0
403.765 3.66337 0
401.235 3.88884 0
402.12 -0.491892 0
403.575 1.5294 0
402.5 3.77616 0
401.045 1.75485 0
402.31 1.64219 0
403.385 -0.604661 0
405.914 -0.830538 0
406.295 3.43744 0
403.765 3.66337 0
404.65 -0.717543 0
406.105 1.3035 0
405.03 3.55046 0
403.575 1.5294 0
404.84 1.41651 0
405.914 -0.830538 0
408.443 -1.05686 0
408.825 3.21108 0
406.295 3.43744 0
407.179 -0.943642 0
408.634 1.07716 0
407.56 3.32431 0
406.105 1.3035 0
407.369 1.19039 0
408.443 -1.05686 0
410.972 -1.2836 0
411.355 2.98428 0
408.825 3.21108 0
409.708 -1.17018 0
411.163 0.850388 0
410.09 3.09773 0
408.634 1.07716 0
409.899 0.963827 0
410.972 -1.2836 0
413.501 -1.51077 0
413.884 2.75708 0
411.355 2.98428 0
412.237 -1.39714 0
413.693 0.623199 0
412.619 2.87073 0
411.163 0.850388 0
412.428 0.736845 0
413.501 -1.51077 0
416.03 -1.73834 0
416.414 2.52946 0
413.884 2.75708 0
414.766 -1.62451 0
416.222 0.395606 0
415.149 2.64332 0
413.693 0.623199 0
414.957 0.509452 0
416.03 -1.73834 0
418.559 -1.96631 0
418.943 2.30146 0
416.414 2.52946 0
417.294 -1.85228 0
418.751 0.167619 0
417.679 2.41551 0
416.222 0.395606 0
417.487 0.281661 0
418.559 -1.96631 0
421.088 -2.19466 0
421.473 2.07307 0
418.943 2.30146 0
419.823 -2.08044 0
421.28 -0.0607487 0
420.208 2.18731 0
418.751 0.167619 0
420.016 0.053482 0
421.088 -2.19466 0
423.616 -2.42337 0
424.002 1.84432 0
421.473 2.07307 0
422.352 -2.30897 0
423.809 -0.289485 0
422.737 1.95874 0
421.28 -0.0607487 0
422.545 -0.175072 0
423.616 -2.42337 0
426.145 -2.65245 0
426.531 1.61521 0
424.002 1.84432 0
424.881 -2.53787 0
426.338 -0.518578 0
425.267 1.72981 0
423.809 -0.289485 0
425.074 -0.403988 0
426.145 -2.65245 0
428.674 -2.88187 0
429.06 1.38576 0
426.531 1.61521 0
427.409 -2.76712 0
428.867 -0.748016 0
427.796 1.50053 0
426.338 -0.518578 0
427.603 -0.633255 0
428.674 -2.88187 0
431.202 -3.11163 0
431.589 1.15598 0
429.06 1.38576 0
429.938 -2.99671 0
431.396 -0.977787 0
430.325 1.27091 0
428.867 -0.748016 0
430.131 -0.862861 0
431.202 -3.11163 0
433.73 -3.3417 0
434.118 0.925871 0
431.589 1.15598 0
432.466 -3.22662 0
433.924 -1.20788 0
432.854 1.04096 0
431.396 -0.977787 0
432.66 -1.09279 0
433.73 -3.3417 0
436.259 -3.57209 0
436.647 0.695459 0
434.118 0.925871 0
434.995 -3.45686 0
436.453 -1.43828 0
435.383 0.810702 0
433.924 -1.20788 0
435.189 -1.32304 0
436.259 -3.57209 0
438.787 -3.80277 0
439.176 0.464751 0
436.647 0.695459 0
437.523 -3.68739 0
438.982 -1.66898 0
437.912 0.580141 0
436.453 -1.43828 0
437.717 -1.55359 0
438.787 -3.80277 0
441.315 -4.03374 0
441.705 0.233759 0
439.176 0.464751 0
440.051 -3.91822 0
441.51 -1.89996 0
440.441 0.349289 0
438.982 -1.66898 0
440.246 -1.78443 0
441.315 -4.03374 0
443.844 -4.26498 0
444.234 0.00249522 0
441.705 0.233759 0
442.58 -4.14933 0
444.039 -2.13121 0
442.969 0.11816 0
441.51 -1.89996 0
442.774 -2.01555 0
443.844 -4.26498 0
446.372 -4.49649 0
446.762 -0.229028 0
444.234 0.00249522 0
445.108 -4.3807 0
446.567 -2.36273 0
445.498 -0.113235 0
444.039 -2.13121 0
445.303 -2.24694 0
446.372 -4.49649 0
448.9 -4.72824 0
449.291 -0.460799 0
446.762 -0.229028 0
447.636 -4.61233 0
449.095 -2.59449 0
448.026 -0.344883 0
446.567 -2.36273 0
447.831 -2.47858 0
448.9 -4.72824 0
451.428 -4.96023 0
451.819 -0.692805 0
449.291 -0.460799 0
450.164 -4.84421 0
451.624 -2.82649 0
450.555 -0.576773 0
449.095 -2.59449 0
450.359 -2.71046 0
451.428 -4.96023 0
453.956 -5.19245 0
454.348 -0.925036 0
451.819 -0.692805 0
452.692 -5.07631 0
454.152 -3.05872 0
453.083 -0.808893 0
451.624 -2.82649 0
452.888 -2.94258 0
453.956 -5.19245 0
456.484 -5.42488 0
456.876 -1.15748 0
454.348 -0.925036 0
455.22 -5.30864 0
456.68 -3.29115 0
455.612 -1.04123 0
454.152 -3.05872 0
455.416 -3.17491 0
456.484 -5.42488 0
459.012 -5.65751 0
459.404 -1.39012 0
456.876 -1.15748 0
457.748 -5.54117 0
459.208 -3.52379 0
458.14 -1.27377 0
456.68 -3.29115 0
457.944 -3.40745 0
459.012 -5.65751 0
461.54 -5.89033 0
461.932 -1.62295 0
459.404 -1.39012 0
460.276 -5.77389 0
461.736 -3.75662 0
460.668 -1.50651 0
459.208 -3.52379 0
460.472 -3.64018 0
461.54 -5.89033 0
464.068 -6.12333 0
464.46 -1.85595 0
461.932 -1.62295 0
462.804 -6.00681 0
464.264 -3.98962 0
463.196 -1.73943 0
461.736 -3.75662 0
463 -3.8731 0
464.068 -6.12333 0
466.595 -6.35649 0
466.988 -2.08912 0
464.46 -1.85595 0
465.331 -6.23989 0
466.792 -4.22278 0
465.724 -1.97252 0
464.264 -3.98962 0
465.528 -4.10618 0
466.595 -6.35649 0
469.123 -6.58981 0
469.516 -2.32244 0
466.988 -2.08912 0
467.859 -6.47313 0
469.32 -4.4561 0
468.252 -2.20576 0
466.792 -4.22278 0
468.056 -4.33943 0
469.123 -6.58981 0
471.651 -6.82326 0
472.044 -2.5559 0
469.516 -2.32244 0
470.387 -6.70652 0
471.848 -4.68956 0
470.78 -2.43915 0
469.32 -4.4561 0
470.584 -4.57282 0
471.651 -6.82326 0
474.178 -7.05685 0
474.572 -2.78948 0
472.044 -2.5559 0
472.915 -6.94004 0
474.375 -4.92315 0
473.308 -2.67267 0
471.848 -4.68956 0
473.111 -4.80634 0
474.178 -7.05685 0
476.706 -7.29055 0
477.1 -3.02318 0
474.572 -2.78948 0
475.442 -7.17369 0
476.903 -5.15685 0
475.836 -2.90632 0
474.375 -4.92315 0
475.639 -5.03999 0
476.706 -7.29055 0
479.234 -7.52436 0
479.628 -3.25698 0
477.1 -3.02318 0
477.97 -7.40745 0
479.431 -5.39066 0
478.364 -3.14007 0
476.903 -5.15685 0
478.167 -5.27374 0
479.234 -7.52436 0
481.761 -7.75827 0
482.155 -3.49088 0
479.628 -3.25698 0
480.497 -7.6413 0
481.958 -5.62456 0
480.892 -3.37392 0
479.431 -5.39066 0
480.694 -5.5076 0
481.761 -7.75827 0
484.288 -7.99225 0
484.683 -3.72485 0
482.155 -3.49088 0
483.025 -7.87525 0
484.486 -5.85854 0
483.419 -3.60785 0
481.958 -5.62456 0
483.222 -5.74154 0
484.288 -7.99225 0
486.816 -8.22631 0
487.211 -3.95889 0
484.683 -3.72485 0
485.552 -8.10927 0
487.013 -6.09259 0
485.947 -3.84186 0
484.486 -5.85854 0
485.749 -5.97555 0
486.816 -8.22631 0
489.343 -8.46043 0
489.738 -4.19299 0
487.211 -3.95889 0
488.08 -8.34336 0
489.541 -6.3267 0
488.474 -4.07593 0
487.013 -6.09259 0
488.277 -6.20963 0
489.343 -8.46043 0
491.871 -8.6946 0
492.265 -4.42716 0
489.738 -4.19299 0
490.607 -8.57751 0
492.068 -6.56087 0
491.002 -4.31006 0
489.541 -6.3267 0
490.804 -6.44378 0
491.871 -8.6946 0
494.398 -8.92882 0
494.793 -4.66141 0
492.265 -4.42716 0
493.134 -8.81171 0
494.595 -6.79511 0
493.529 -4.54427 0
492.068 -6.56087 0
493.332 -6.67798 0
494.398 -8.92882 0
496.925 -9.16303 0
497.32 -4.89581 0
494.793 -4.66141 0
495.662 -9.04593 0
497.123 -7.02942 0
496.056 -4.77859 0
494.595 -6.79511 0
495.859 -6.91226 0
496.925 -9.16303 0
499.452 -9.39714 0
499.847 -5.13031 0
497.32 -4.89581 0
498.189 -9.28011 0
499.65 -7.26367 0
498.584 -5.01306 0
497.123 -7.02942 0
498.386 -7.14656 0
0 25.7143 0
2.54718 25.7117 0
2.55337 29.9923 0
0 30 0
1.27346 25.7133 0
2.54959 27.8525 0
1.27736 29.9952 0
0 27.8571 0
1.27453 27.8551 0
2.54718 25.7117 0
5.09511 25.7067 0
5.10469 29.9866 0
2.55337 29.9923 0
3.8211 25.7094 0
5.09966 27.847 0
3.82905 29.9896 0
2.54959 27.8525 0
3.82466 27.8498 0
5.09511 25.7067 0
7.64313 25.7 0
7.65611 29.9797 0
5.10469 29.9866 0
6.36913 25.7036 0
7.64955 27.8401 0
6.38038 29.9834 0
5.09966 27.847 0
6.37462 27.8437 0
7.64313 25.7 0
10.1911 25.6912 0
10.2076 29.9709 0
7.65611 29.9797 0
8.91712 25.6958 0
10.1993 27.8313 0
8.93186 29.9756 0
7.64955 27.8401 0
8.92445 27.8359 0
10.1911 25.6912 0
12.739 25.6802 0
12.7592 29.9599 0
10.2076 29.9709 0
11.465 25.686 0
12.7491 27.8203 0
11.4834 29.9657 0
10.1993 27.8313 0
11.4742 27.8261 0
12.739 25.6802 0
15.2868 25.667 0
15.3108 29.9467 0
12.7592 29.9599 0
14.0129 25.6739 0
15.2987 27.807 0
14.035 29.9536 0
12.7491 27.8203 0
14.0239 27.814 0
15.2868 25.667 0
17.8345 25.6514 0
17.8623 29.9311 0
15.3108 29.9467 0
16.5606 25.6595 0
17.8484 27.7915 0
16.5865 29.9392 0
15.2987 27.807 0
16.5735 27.7996 0
17.8345 25.6514 0
20.3821 25.6336 0
20.4138 29.9133 0
17.8623 29.9311 0
19.1083 25.6428 0
20.3979 27.7737 0
19.138 29.9225 0
17.8484 27.7915 0
19.1231 27.7829 0
20.3821 25.6336 0
22.9297 25.6135 0
22.9652 29.8932 0
20.4138 29.9133 0
21.6559 25.6238 0
22.9474 27.7536 0
21.6895 29.9035 0
20.3979 27.7737 0
21.6727 27.7639 0
22.9297 25.6135 0
25.4772 25.5911 0
25.5165 29.8708 0
22.9652 29.8932 0
24.2035 25.6025 0
25.4968 27.7312 0
24.2408 29.8823 0
22.9474 27.7536 0
24.2221 27.7426 0
25.4772 25.5911 0
28.0246 25.5664 0
28.0677 29.8461 0
25.5165 29.8708 0
26.7509 25.579 0
28.0461 27.7065 0
26.7921 29.8587 0
25.4968 27.7312 0
26.7715 27.7191 0
28.0246 25.5664 0
30.572 25.5395 0
30.6189 29.8192 0
28.0677 29.8461 0
29.2983 25.5532 0
30.5954 27.6796 0
29.3433 29.8329 0
28.0461 27.7065 0
29.3208 27.6933 0
30.572 25.5395 0
33.1193 25.5103 0
33.1699 29.79 0
30.6189 29.8192 0
31.8457 25.5252 0
33.1446 27.6504 0
31.8944 29.8049 0
30.5954 27.6796 0
31.87 27.6652 0
33.1193 25.5103 0
35.6665 25.4789 0
35.7209 29.7586 0
33.1699 29.79 0
34.3929 25.4949 0
35.6936 27.619 0
34.4454 29.7746 0
33.1446 27.6504 0
34.4191 27.6349 0
35.6665 25.4789 0
38.2136 25.4453 0
38.2717 29.7249 0
35.7209 29.7586 0
36.9401 25.4624 0
38.2426 27.5853 0
36.9963 29.742 0
35.6936 27.619 0
36.9681 27.6024 0
38.2136 25.4453 0
40.7607 25.4094 0
40.8225 29.6891 0
38.2717 29.7249 0
39.4872 25.4276 0
40.7915 27.5495 0
39.5471 29.7073 0
38.2426 27.5853 0
39.5171 27.5677 0
40.7607 25.4094 0
43.3076 25.3714 0
43.3731 29.651 0
40.8225 29.6891 0
42.0342 25.3907 0
43.3403 27.5115 0
42.0978 29.6703 0
40.7915 27.5495 0
42.0659 27.5307 0
43.3076 25.3714 0
45.8545 25.3312 0
45.9236 29.6108 0
43.3731 29.651 0
44.5811 25.3516 0
45.889 27.4712 0
44.6484 29.6312 0
43.3403 27.5115 0
44.6147 27.4916 0
45.8545 25.3312 0
48.4013 25.2888 0
48.4741 29.5684 0
45.9236 29.6108 0
47.1279 25.3103 0
48.4377 27.4289 0
47.1989 29.5899 0
45.889 27.4712 0
47.1634 27.4503 0
48.4013 25.2888 0
50.948 25.2443 0
51.0244 29.5238 0
48.4741 29.5684 0
49.6747 25.2668 0
50.9862 27.3843 0
49.7493 29.5464 0
48.4377 27.4289 0
49.7119 27.4068 0
50.948 25.2443 0
53.4947 25.1976 0
53.5746 29.4771 0
51.0244 29.5238 0
52.2214 25.2212 0
53.5346 27.3376 0
52.2995 29.5008 0
50.9862 27.3843 0
52.2604 27.3612 0
53.4947 25.1976 0
56.0412 25.1488 0
56.1247 29.4283 0
53.5746 29.4771 0
54.7679 25.1735 0
56.0829 27.2888 0
54.8497 29.453 0
53.5346 27.3376 0
54.8088 27.3135 0
56.0412 25.1488 0
58.5876 25.0979 0
58.6747 29.3773 0
56.1247 29.4283 0
57.3144 25.1236 0
58.6311 27.2378 0
57.3997 29.4031 0
56.0829 27.2888 0
57.357 27.2636 0
58.5876 25.0979 0
61.134 25.0449 0
61.2246 29.3243 0
58.6747 29.3773 0
59.8608 25.0717 0
61.1792 27.1848 0
59.9497 29.3511 0
58.6311 27.2378 0
59.9052 27.2116 0
61.134 25.0449 0
63.6802 24.9897 0
63.7744 29.2691 0
61.2246 29.3243 0
62.4071 25.0176 0
63.7272 27.1296 0
62.4995 29.2969 0
61.1792 27.1848 0
62.4532 27.1575 0
63.6802 24.9897 0
66.2264 24.9325 0
66.324 29.2118 0
63.7744 29.2691 0
64.9533 24.9614 0
66.2751 27.0724 0
65.0492 29.2407 0
63.7272 27.1296 0
65.0012 27.1013 0
66.2264 24.9325 0
68.7724 24.8732 0
68.8735 29.1525 0
66.324 29.2118 0
67.4994 24.9031 0
68.8229 27.0131 0
67.5988 29.1824 0
66.2751 27.0724 0
67.549 27.043 0
68.7724 24.8732 0
71.3184 24.8119 0
71.4229 29.0911 0
68.8735 29.1525 0
70.0454 24.8428 0
71.3706 26.9517 0
70.1482 29.122 0
68.8229 27.0131 0
70.0968 26.9827 0
71.3184 24.8119 0
73.8642 24.7485 0
73.9722 29.0276 0
71.4229 29.0911 0
72.5913 24.7805 0
73.9182 26.8883 0
72.6976 29.0596 0
71.3706 26.9517 0
72.6444 26.9203 0
73.8642 24.7485 0
76.41 24.6831 0
76.5214 28.9622 0
73.9722 29.0276 0
75.1371 24.7161 0
76.4656 26.8228 0
75.2468 28.9952 0
73.9182 26.8883 0
75.1919 26.8558 0
76.41 24.6831 0
78.9556 24.6156 0
79.0704 28.8947 0
76.5214 28.9622 0
77.6828 24.6496 0
79.013 26.7554 0
77.7959 28.9287 0
76.4656 26.8228 0
77.7393 26.7894 0
78.9556 24.6156 0
81.5012 24.5462 0
81.6193 28.8251 0
79.0704 28.8947 0
80.2284 24.5812 0
81.5602 26.6859 0
80.3449 28.8602 0
79.013 26.7554 0
80.2866 26.7209 0
81.5012 24.5462 0
84.0466 24.4747 0
84.1681 28.7536 0
81.6193 28.8251 0
82.7739 24.5107 0
84.1073 26.6144 0
82.8937 28.7896 0
81.5602 26.6859 0
82.8338 26.6504 0
84.0466 24.4747 0
86.5919 24.4013 0
86.7168 28.6801 0
84.1681 28.7536 0
85.3193 24.4383 0
86.6543 26.5409 0
85.4425 28.7171 0
84.1073 26.6144 0
85.3808 26.5779 0
86.5919 24.4013 0
89.1372 24.3259 0
89.2653 28.6047 0
86.7168 28.6801 0
87.8646 24.3638 0
89.2012 26.4655 0
87.9911 28.6426 0
86.6543 26.5409 0
87.9278 26.5035 0
89.1372 24.3259 0
91.6823 24.2485 0
91.8137 28.5272 0
89.2653 28.6047 0
90.4097 24.2875 0
91.7479 26.3881 0
90.5395 28.5662 0
89.2012 26.4655 0
90.4746 26.427 0
91.6823 24.2485 0
94.2273 24.1692 0
94.362 28.4478 0
91.8137 28.5272 0
92.9548 24.2091 0
94.2946 26.3087 0
93.0879 28.4878 0
91.7479 26.3881 0
93.0213 26.3486 0
94.2273 24.1692 0
96.7722 24.0879 0
96.9101 28.3665 0
94.362 28.4478 0
95.4997 24.1288 0
96.8411 26.2274 0
95.6361 28.4074 0
94.2946 26.3087 0
95.5679 26.2683 0
96.7722 24.0879 0
99.3169 24.0048 0
99.4581 28.2832 0
96.9101 28.3665 0
98.0446 24.0466 0
99.3875 26.1442 0
98.1841 28.3251 0
96.8411 26.2274 0
98.1143 26.1861 0
99.3169 24.0048 0
101.862 23.9197 0
102.006 28.1981 0
99.4581 28.2832 0
100.589 23.9625 0
101.934 26.0591 0
100.732 28.2409 0
99.3875 26.1442 0
100.661 26.1019 0
101.862 23.9197 0
104.406 23.8327 0
104.554 28.111 0
102.006 28.1981 0
103.134 23.8764 0
104.48 25.972 0
103.28 28.1548 0
101.934 26.0591 0
103.207 26.0158 0
104.406 23.8327 0
106.951 23.7438 0
107.101 28.0221 0
104.554 28.111 0
105.678 23.7885 0
107.026 25.8831 0
105.828 28.0668 0
104.48 25.972 0
105.753 25.9278 0
106.951 23.7438 0
109.495 23.6531 0
109.649 27.9312 0
107.101 28.0221 0
108.223 23.6987 0
109.572 25.7923 0
108.375 27.9769 0
107.026 25.8831 0
108.299 25.838 0
109.495 23.6531 0
112.039 23.5604 0
112.196 27.8385 0
109.649 27.9312 0
110.767 23.607 0
112.118 25.6997 0
110.922 27.8851 0
109.572 25.7923 0
110.845 25.7462 0
112.039 23.5604 0
114.583 23.466 0
114.743 27.744 0
112.196 27.8385 0
113.311 23.5134 0
114.663 25.6052 0
113.47 27.7915 0
112.118 25.6997 0
113.39 25.6527 0
114.583 23.466 0
117.127 23.3697 0
117.29 27.6476 0
114.743 27.744 0
115.855 23.4181 0
117.209 25.5088 0
116.017 27.696 0
114.663 25.6052 0
115.936 25.5572 0
117.127 23.3697 0
119.671 23.2715 0
119.837 27.5494 0
117.29 27.6476 0
118.399 23.3208 0
119.754 25.4107 0
118.564 27.5987 0
117.209 25.5088 0
118.481 25.46 0
119.671 23.2715 0
122.215 23.1716 0
122.384 27.4493 0
119.837 27.5494 0
120.943 23.2218 0
122.299 25.3107 0
121.111 27.4996 0
119.754 25.4107 0
121.027 25.3609 0
122.215 23.1716 0
124.758 23.0699 0
124.931 27.3475 0
122.384 27.4493 0
123.486 23.121 0
124.844 25.2089 0
123.657 27.3986 0
122.299 25.3107 0
123.572 25.26 0
124.758 23.0699 0
127.302 22.9663 0
127.477 27.2439 0
124.931 27.3475 0
126.03 23.0183 0
127.389 25.1053 0
126.204 27.2959 0
124.844 25.2089 0
126.117 25.1573 0
127.302 22.9663 0
129.845 22.861 0
130.023 27.1385 0
127.477 27.2439 0
128.573 22.9139 0
129.934 24.9999 0
128.75 27.1914 0
127.389 25.1053 0
128.662 25.0528 0
129.845 22.861 0
132.388 22.7539 0
132.57 27.0313 0
130.023 27.1385 0
131.117 22.8077 0
132.479 24.8928 0
131.297 27.0851 0
129.934 24.9999 0
131.207 24.9466 0
132.388 22.7539 0
134.931 22.6451 0
135.116 26.9224 0
132.57 27.0313 0
133.66 22.6998 0
135.023 24.7839 0
133.843 26.9771 0
132.479 24.8928 0
133.751 24.8386 0
134.931 22.6451 0
137.474 22.5346 0
137.662 26.8117 0
135.116 26.9224 0
136.203 22.5901 0
137.568 24.6733 0
136.389 26.8673 0
135.023 24.7839 0
136.296 24.7289 0
137.474 22.5346 0
140.017 22.4223 0
140.207 26.6993 0
137.662 26.8117 0
138.746 22.4786 0
140.112 24.561 0
138.934 26.7558 0
137.568 24.6733 0
138.84 24.6174 0
140.017 22.4223 0
142.56 22.3083 0
142.753 26.5852 0
140.207 26.6993 0
141.289 22.3655 0
142.656 24.4469 0
141.48 26.6425 0
140.112 24.561 0
141.384 24.5042 0
142.56 22.3083 0
145.103 22.1925 0
145.298 26.4694 0
142.753 26.5852 0
143.831 22.2506 0
145.2 24.3312 0
144.026 26.5275 0
142.656 24.4469 0
143.928 24.3893 0
145.103 22.1925 0
147.645 22.0751 0
147.844 26.3519 0
145.298 26.4694 0
146.374 22.1341 0
147.744 24.2137 0
146.571 26.4109 0
145.2 24.3312 0
146.472 24.2727 0
147.645 22.0751 0
150.187 21.9561 0
150.389 26.2327 0
147.844 26.3519 0
148.916 22.0158 0
150.288 24.0946 0
149.116 26.2925 0
147.744 24.2137 0
149.016 24.1544 0
150.187 21.9561 0
152.73 21.8353 0
152.934 26.1119 0
150.389 26.2327 0
151.458 21.8959 0
152.832 23.9738 0
151.661 26.1725 0
150.288 24.0946 0
151.56 24.0344 0
152.73 21.8353 0
155.272 21.7129 0
155.479 25.9894 0
152.934 26.1119 0
154.001 21.7743 0
155.375 23.8513 0
154.206 26.0508 0
152.832 23.9738 0
154.103 23.9128 0
155.272 21.7129 0
157.814 21.5889 0
158.023 25.8652 0
155.479 25.9894 0
156.543 21.6511 0
157.918 23.7272 0
156.751 25.9275 0
155.375 23.8513 0
156.647 23.7895 0
157.814 21.5889 0
160.355 21.4632 0
160.568 25.7395 0
158.023 25.8652 0
159.084 21.5262 0
160.462 23.6015 0
159.296 25.8026 0
157.918 23.7272 0
159.19 23.6646 0
160.355 21.4632 0
162.897 21.3359 0
163.112 25.6121 0
160.568 25.7395 0
161.626 21.3997 0
163.005 23.4742 0
161.84 25.676 0
160.462 23.6015 0
161.733 23.538 0
162.897 21.3359 0
165.439 21.207 0
165.657 25.4831 0
163.112 25.6121 0
164.168 21.2716 0
165.548 23.3452 0
164.384 25.5478 0
163.005 23.4742 0
164.276 23.4099 0
165.439 21.207 0
167.98 21.0765 0
168.201 25.3525 0
165.657 25.4831 0
166.709 21.1419 0
168.09 23.2147 0
166.929 25.418 0
165.548 23.3452 0
166.819 23.2801 0
167.98 21.0765 0
170.521 20.9444 0
170.745 25.2203 0
168.201 25.3525 0
169.251 21.0107 0
170.633 23.0825 0
169.473 25.2866 0
168.09 23.2147 0
169.362 23.1488 0
170.521 20.9444 0
173.062 20.8108 0
173.288 25.0865 0
170.745 25.2203 0
171.792 20.8778 0
173.175 22.9488 0
172.016 25.1536 0
170.633 23.0825 0
171.904 23.0159 0
173.062 20.8108 0
175.603 20.6756 0
175.832 24.9512 0
173.288 25.0865 0
174.333 20.7434 0
175.718 22.8136 0
174.56 25.0191 0
173.175 22.9488 0
174.447 22.8814 0
175.603 20.6756 0
178.144 20.5389 0
178.375 24.8144 0
175.832 24.9512 0
176.874 20.6074 0
178.26 22.6768 0
177.104 24.883 0
175.718 22.8136 0
176.989 22.7454 0
178.144 20.5389 0
180.685 20.4006 0
180.919 24.676 0
178.375 24.8144 0
179.415 20.4699 0
180.802 22.5385 0
179.647 24.7454 0
178.26 22.6768 0
179.531 22.6078 0
180.685 20.4006 0
183.226 20.2608 0
183.462 24.5361 0
180.919 24.676 0
181.955 20.3309 0
183.344 22.3986 0
182.19 24.6062 0
180.802 22.5385 0
182.073 22.4687 0
183.226 20.2608 0
185.766 20.1195 0
186.005 24.3947 0
183.462 24.5361 0
184.496 20.1903 0
185.886 22.2572 0
184.733 24.4656 0
183.344 22.3986 0
184.615 22.3281 0
185.766 20.1195 0
188.307 19.9767 0
188.548 24.2518 0
186.005 24.3947 0
187.036 20.0483 0
188.427 22.1144 0
187.276 24.3234 0
185.886 22.2572 0
187.156 22.186 0
188.307 19.9767 0
190.847 19.8324 0
191.091 24.1074 0
188.548 24.2518 0
189.577 19.9047 0
190.969 21.9701 0
189.819 24.1798 0
188.427 22.1144 0
189.698 22.0424 0
190.847 19.8324 0
193.387 19.6867 0
193.633 23.9615 0
191.091 24.1074 0
192.117 19.7597 0
193.51 21.8243 0
192.362 24.0346 0
190.969 21.9701 0
192.239 21.8973 0
193.387 19.6867 0
195.927 19.5394 0
196.176 23.8142 0
193.633 23.9615 0
194.657 19.6132 0
196.051 21.677 0
194.904 23.888 0
193.51 21.8243 0
194.781 21.7508 0
195.927 19.5394 0
198.467 19.3908 0
198.718 23.6654 0
196.176 23.8142 0
197.197 19.4653 0
198.592 21.5283 0
197.447 23.74 0
196.051 21.677 0
197.322 21.6028 0
198.467 19.3908 0
201.006 19.2407 0
201.26 23.5152 0
198.718 23.6654 0
199.736 19.3159 0
201.133 21.3781 0
199.989 23.5905 0
198.592 21.5283 0
199.863 21.4534 0
201.006 19.2407 0
203.546 19.0892 0
203.802 23.3636 0
201.26 23.5152 0
202.276 19.1651 0
203.674 21.2266 0
202.531 23.4396 0
201.133 21.3781 0
202.403 21.3025 0
203.546 19.0892 0
206.085 18.9363 0
206.344 23.2106 0
203.802 23.3636 0
204.816 19.0129 0
206.214 21.0736 0
205.073 23.2873 0
203.674 21.2266 0
204.944 21.1502 0
206.085 18.9363 0
208.624 18.7819 0
208.885 23.0562 0
206.344 23.2106 0
207.355 18.8593 0
208.755 20.9192 0
207.614 23.1335 0
206.214 21.0736 0
207.485 20.9966 0
208.624 18.7819 0
211.164 18.6262 0
211.427 22.9003 0
208.885 23.0562 0
209.894 18.7043 0
211.295 20.7634 0
210.156 22.9784 0
208.755 20.9192 0
210.025 20.8415 0
211.164 18.6262 0
213.703 18.4692 0
213.968 22.7431 0
211.427 22.9003 0
212.433 18.5479 0
213.835 20.6063 0
212.697 22.8219 0
211.295 20.7634 0
212.565 20.685 0
213.703 18.4692 0
216.241 18.3107 0
216.509 22.5846 0
213.968 22.7431 0
214.972 18.3901 0
216.375 20.4478 0
215.239 22.664 0
213.835 20.6063 0
215.105 20.5272 0
216.241 18.3107 0
218.78 18.1509 0
219.05 22.4247 0
216.509 22.5846 0
217.511 18.231 0
218.915 20.288 0
217.78 22.5048 0
216.375 20.4478 0
217.645 20.368 0
218.78 18.1509 0
221.319 17.9898 0
221.591 22.2635 0
219.05 22.4247 0
220.05 18.0705 0
221.455 20.1268 0
220.32 22.3442 0
218.915 20.288 0
220.185 20.2075 0
221.319 17.9898 0
223.857 17.8274 0
224.132 22.1009 0
221.591 22.2635 0
222.588 17.9087 0
223.994 19.9643 0
222.861 22.1823 0
221.455 20.1268 0
222.725 20.0457 0
223.857 17.8274 0
226.396 17.6636 0
226.672 21.937 0
224.132 22.1009 0
225.126 17.7456 0
226.534 19.8004 0
225.402 22.0191 0
223.994 19.9643 0
225.264 19.8825 0
226.396 17.6636 0
228.934 17.4985 0
229.212 21.7718 0
226.672 21.937 0
227.665 17.5812 0
229.073 19.6353 0
227.942 21.8546 0
226.534 19.8004 0
227.803 19.718 0
228.934 17.4985 0
231.472 17.3322 0
231.753 21.6054 0
229.212 21.7718 0
230.203 17.4155 0
231.612 19.4689 0
230.483 21.6888 0
229.073 19.6353 0
230.343 19.5523 0
231.472 17.3322 0
234.01 17.1646 0
234.293 21.4376 0
231.753 21.6054 0
232.741 17.2485 0
234.151 19.3012 0
233.023 21.5217 0
231.612 19.4689 0
232.882 19.3852 0
234.01 17.1646 0
236.547 16.9957 0
236.833 21.2686 0
234.293 21.4376 0
235.279 17.0803 0
236.69 19.1323 0
235.563 21.3533 0
234.151 19.3012 0
235.421 19.2169 0
236.547 16.9957 0
239.085 16.8255 0
239.372 21.0984 0
236.833 21.2686 0
237.816 16.9107 0
239.229 18.9621 0
238.103 21.1837 0
236.69 19.1323 0
237.959 19.0473 0
239.085 16.8255 0
241.623 16.6541 0
241.912 20.9269 0
239.372 21.0984 0
240.354 16.74 0
241.767 18.7907 0
240.642 21.0128 0
239.229 18.9621 0
240.498 18.8765 0
241.623 16.6541 0
244.16 16.4815 0
244.451 20.7542 0
241.912 20.9269 0
242.891 16.568 0
244.306 18.618 0
243.182 20.8407 0
241.767 18.7907 0
243.037 18.7045 0
244.16 16.4815 0
246.697 16.3077 0
246.991 20.5802 0
244.451 20.7542 0
245.429 16.3948 0
246.844 18.4441 0
245.721 20.6674 0
244.306 18.618 0
245.575 18.5312 0
246.697 16.3077 0
249.234 16.1327 0
249.53 20.4051 0
246.991 20.5802 0
247.966 16.2203 0
249.382 18.269 0
248.26 20.4928 0
246.844 18.4441 0
248.113 18.3567 0
249.234 16.1327 0
251.771 15.9565 0
252.069 20.2288 0
249.53 20.4051 0
250.503 16.0447 0
251.92 18.0928 0
250.799 20.3171 0
249.382 18.269 0
250.651 18.181 0
251.771 15.9565 0
254.308 15.7791 0
254.608 20.0513 0
252.069 20.2288 0
253.04 15.8679 0
254.458 17.9153 0
253.338 20.1402 0
251.92 18.0928 0
253.189 18.0042 0
254.308 15.7791 0
256.845 15.6005 0
257.146 19.8726 0
254.608 20.0513 0
255.577 15.6899 0
256.996 17.7367 0
255.877 19.9621 0
254.458 17.9153 0
255.727 17.8261 0
256.845 15.6005 0
259.382 15.4208 0
259.685 19.6928 0
257.146 19.8726 0
258.113 15.5108 0
259.533 17.5569 0
258.416 19.7828 0
256.996 17.7367 0
258.264 17.6469 0
259.382 15.4208 0
261.918 15.2399 0
262.223 19.5118 0
259.685 19.6928 0
260.65 15.3305 0
262.071 17.376 0
260.954 19.6025 0
259.533 17.5569 0
260.802 17.4666 0
261.918 15.2399 0
264.454 15.0579 0
264.761 19.3297 0
262.223 19.5118 0
263.186 15.1491 0
264.608 17.194 0
263.492 19.4209 0
262.071 17.376 0
263.339 17.2851 0
264.454 15.0579 0
266.99 14.8748 0
267.3 19.1465 0
264.761 19.3297 0
265.722 14.9665 0
267.145 17.0108 0
266.031 19.2383 0
264.608 17.194 0
265.876 17.1025 0
266.99 14.8748 0
269.527 14.6906 0
269.837 18.9622 0
267.3 19.1465 0
268.258 14.7829 0
269.682 16.8265 0
268.569 19.0545 0
267.145 17.0108 0
268.413 16.9188 0
269.527 14.6906 0
272.062 14.5053 0
272.375 18.7768 0
269.837 18.9622 0
270.794 14.5981 0
272.219 16.6412 0
271.106 18.8696 0
269.682 16.8265 0
270.95 16.734 0
272.062 14.5053 0
274.598 14.3189 0
274.913 18.5903 0
272.375 18.7768 0
273.33 14.4123 0
274.755 16.4547 0
273.644 18.6837 0
272.219 16.6412 0
273.487 16.5481 0
274.598 14.3189 0
277.134 14.1315 0
277.45 18.4028 0
274.913 18.5903 0
275.866 14.2253 0
277.292 16.2672 0
276.182 18.4967 0
274.755 16.4547 0
276.024 16.3611 0
277.134 14.1315 0
279.669 13.943 0
279.988 18.2141 0
277.45 18.4028 0
278.402 14.0374 0
279.828 16.0787 0
278.719 18.3086 0
277.292 16.2672 0
278.56 16.1731 0
279.669 13.943 0
282.205 13.7534 0
282.525 18.0245 0
279.988 18.2141 0
280.937 13.8483 0
282.365 15.8891 0
281.256 18.1194 0
279.828 16.0787 0
281.097 15.984 0
282.205 13.7534 0
284.74 13.5628 0
285.062 17.8338 0
282.525 18.0245 0
283.472 13.6582 0
284.901 15.6984 0
283.793 17.9293 0
282.365 15.8891 0
283.633 15.7939 0
284.74 13.5628 0
287.275 13.3712 0
287.599 17.6421 0
285.062 17.8338 0
286.008 13.4671 0
287.437 15.5068 0
286.33 17.7381 0
284.901 15.6984 0
286.169 15.6027 0
287.275 13.3712 0
289.81 13.1786 0
290.135 17.4494 0
287.599 17.6421 0
288.543 13.275 0
289.973 15.3141 0
288.867 17.5459 0
287.437 15.5068 0
288.705 15.4105 0
289.81 13.1786 0
292.345 12.985 0
292.672 17.2557 0
290.135 17.4494 0
291.078 13.0819 0
292.509 15.1204 0
291.404 17.3526 0
289.973 15.3141 0
291.241 15.2174 0
292.345 12.985 0
294.88 12.7904 0
295.208 17.061 0
292.672 17.2557 0
293.613 12.8878 0
295.044 14.9258 0
293.94 17.1584 0
292.509 15.1204 0
293.776 15.0232 0
294.88 12.7904 0
297.415 12.5948 0
297.745 16.8653 0
295.208 17.061 0
296.147 12.6927 0
297.58 14.7302 0
296.477 16.9632 0
295.044 14.9258 0
296.312 14.8281 0
297.415 12.5948 0
299.949 12.3983 0
300.281 16.6687 0
297.745 16.8653 0
298.682 12.4967 0
300.115 14.5336 0
299.013 16.7671 0
297.58 14.7302 0
298.847 14.632 0
299.949 12.3983 0
302.483 12.2008 0
302.817 16.4711 0
300.281 16.6687 0
301.216 12.2996 0
302.65 14.336 0
301.549 16.57 0
300.115 14.5336 0
301.382 14.4349 0
302.483 12.2008 0
305.018 12.0024 0
305.353 16.2726 0
302.817 16.4711 0
303.751 12.1017 0
305.185 14.1376 0
304.085 16.372 0
302.65 14.336 0
303.918 14.2369 0
305.018 12.0024 0
307.552 11.803 0
307.888 16.0732 0
305.353 16.2726 0
306.285 11.9028 0
307.72 13.9382 0
306.62 16.173 0
305.185 14.1376 0
306.453 14.038 0
307.552 11.803 0
310.086 11.6028 0
310.424 15.8728 0
307.888 16.0732 0
308.819 11.703 0
310.255 13.7379 0
309.156 15.9731 0
307.72 13.9382 0
308.987 13.8382 0
310.086 11.6028 0
312.62 11.4016 0
312.959 15.6716 0
310.424 15.8728 0
311.353 11.5023 0
312.79 13.5367 0
311.692 15.7723 0
310.255 13.7379 0
311.522 13.6374 0
312.62 11.4016 0
315.154 11.1996 0
315.495 15.4695 0
312.959 15.6716 0
313.887 11.3007 0
315.324 13.3346 0
314.227 15.5706 0
312.79 13.5367 0
314.057 13.4358 0
315.154 11.1996 0
317.687 10.9967 0
318.03 15.2665 0
315.495 15.4695 0
316.42 11.0983 0
317.858 13.1317 0
316.762 15.3681 0
315.324 13.3346 0
316.591 13.2333 0
317.687 10.9967 0
320.221 10.7929 0
320.565 15.0626 0
318.03 15.2665 0
318.954 10.8949 0
320.393 12.9278 0
319.297 15.1646 0
317.858 13.1317 0
319.126 13.0299 0
320.221 10.7929 0
322.754 10.5883 0
323.1 14.8579 0
320.565 15.0626 0
321.488 10.6907 0
322.927 12.7232 0
321.832 14.9603 0
320.393 12.9278 0
321.66 12.8256 0
322.754 10.5883 0
325.288 10.3828 0
325.634 14.6523 0
323.1 14.8579 0
324.021 10.4857 0
325.461 12.5177 0
324.367 14.7552 0
322.927 12.7232 0
324.194 12.6205 0
325.288 10.3828 0
327.821 10.1765 0
328.169 14.446 0
325.634 14.6523 0
326.554 10.2798 0
327.995 12.3113 0
326.902 14.5493 0
325.461 12.5177 0
326.728 12.4146 0
327.821 10.1765 0
330.354 9.96943 0
330.703 14.2388 0
328.169 14.446 0
329.087 10.0731 0
330.528 12.1042 0
329.436 14.3425 0
327.995 12.3113 0
329.262 12.2079 0
330.354 9.96943 0
332.887 9.76152 0
333.238 14.0308 0
330.703 14.2388 0
331.62 9.86557 0
333.062 11.8962 0
331.97 14.1349 0
330.528 12.1042 0
331.795 12.0003 0
332.887 9.76152 0
335.42 9.55282 0
335.772 13.822 0
333.238 14.0308 0
334.153 9.65727 0
335.596 11.6875 0
334.505 13.9265 0
333.062 11.8962 0
334.329 11.792 0
335.42 9.55282 0
337.952 9.34334 0
338.306 13.6125 0
335.772 13.822 0
336.686 9.44818 0
338.129 11.478 0
337.039 13.7173 0
335.596 11.6875 0
336.862 11.5828 0
337.952 9.34334 0
340.485 9.1331 0
340.84 13.4021 0
338.306 13.6125 0
339.219 9.23832 0
340.662 11.2677 0
339.573 13.5074 0
338.129 11.478 0
339.396 11.3729 0
340.485 9.1331 0
343.017 8.9221 0
343.373 13.1911 0
340.84 13.4021 0
341.751 9.0277 0
343.195 11.0567 0
342.107 13.2967 0
340.662 11.2677 0
341.929 11.1623 0
343.017 8.9221 0
345.55 8.71037 0
345.907 12.9793 0
343.373 13.1911 0
344.284 8.81633 0
345.728 10.8449 0
344.64 13.0853 0
343.195 11.0567 0
344.462 10.9509 0
345.55 8.71037 0
348.082 8.4979 0
348.44 12.7667 0
345.907 12.9793 0
346.816 8.60422 0
348.261 10.6324 0
347.174 12.8731 0
345.728 10.8449 0
346.995 10.7387 0
348.082 8.4979 0
350.614 8.28471 0
350.974 12.5535 0
348.44 12.7667 0
349.348 8.39139 0
350.794 10.4192 0
349.707 12.6602 0
348.261 10.6324 0
349.528 10.5259 0
350.614 8.28471 0
353.146 8.07082 0
353.507 12.3395 0
350.974 12.5535 0
351.88 8.17785 0
353.327 10.2052 0
352.24 12.4466 0
350.794 10.4192 0
352.06 10.3123 0
353.146 8.07082 0
355.678 7.85623 0
356.04 12.1248 0
353.507 12.3395 0
354.412 7.96361 0
355.859 9.99062 0
354.774 12.2323 0
353.327 10.2052 0
354.593 10.098 0
355.678 7.85623 0
358.21 7.64096 0
358.573 11.9095 0
356.04 12.1248 0
356.944 7.74868 0
358.391 9.77531 0
357.307 12.0173 0
355.859 9.99062 0
357.125 9.88305 0
358.21 7.64096 0
360.742 7.42503 0
361.106 11.6935 0
358.573 11.9095 0
359.476 7.53308 0
360.924 9.55934 0
359.84 11.8016 0
358.391 9.77531 0
359.658 9.66741 0
360.742 7.42503 0
363.273 7.20843 0
363.639 11.4768 0
361.106 11.6935 0
362.007 7.31681 0
363.456 9.34271 0
362.372 11.5853 0
360.924 9.55934 0
362.19 9.45111 0
363.273 7.20843 0
365.805 6.99119 0
366.171 11.2595 0
363.639 11.4768 0
364.539 7.09989 0
365.988 9.12544 0
364.905 11.3683 0
363.456 9.34271 0
364.722 9.23416 0
365.805 6.99119 0
368.336 6.77332 0
368.704 11.0416 0
366.171 11.2595 0
367.07 6.88233 0
368.52 8.90754 0
367.438 11.1507 0
365.988 9.12544 0
367.254 9.01657 0
368.336 6.77332 0
370.867 6.55483 0
371.236 10.8231 0
368.704 11.0416 0
369.602 6.66415 0
371.052 8.68901 0
369.97 10.9324 0
368.52 8.90754 0
369.786 8.79835 0
370.867 6.55483 0
373.399 6.33572 0
373.768 10.6039 0
371.236 10.8231 0
372.133 6.44535 0
373.583 8.46988 0
372.502 10.7136 0
371.052 8.68901 0
372.318 8.57952 0
373.399 6.33572 0
375.93 6.11602 0
376.3 10.3841 0
373.768 10.6039 0
374.664 6.22595 0
376.115 8.25015 0
375.034 10.4941 0
373.583 8.46988 0
374.849 8.36009 0
375.93 6.11602 0
378.461 5.89574 0
378.832 10.1638 0
376.3 10.3841 0
377.195 6.00595 0
378.646 8.02984 0
377.566 10.274 0
376.115 8.25015 0
377.381 8.14007 0
378.461 5.89574 0
380.992 5.67488 0
381.364 9.94289 0
378.832 10.1638 0
379.726 5.78538 0
381.178 7.80895 0
380.098 10.0534 0
378.646 8.02984 0
379.912 7.91946 0
380.992 5.67488 0
383.522 5.45346 0
383.896 9.72142 0
381.364 9.94289 0
382.257 5.56424 0
383.709 7.5875 0
382.63 9.83223 0
381.178 7.80895 0
382.443 7.6983 0
383.522 5.45346 0
386.053 5.23149 0
386.428 9.4994 0
383.896 9.72142 0
384.788 5.34254 0
386.24 7.36551 0
385.162 9.61048 0
383.709 7.5875 0
384.975 7.47657 0
386.053 5.23149 0
388.584 5.00899 0
388.959 9.27685 0
386.428 9.4994 0
387.318 5.12031 0
388.771 7.14298 0
387.693 9.38819 0
386.24 7.36551 0
387.506 7.25431 0
388.584 5.00899 0
391.114 4.78596 0
391.49 9.05377 0
388.959 9.27685 0
389.849 4.89754 0
391.302 6.91993 0
390.225 9.16538 0
388.771 7.14298 0
390.037 7.03152 0
391.114 4.78596 0
393.644 4.56242 0
394.022 8.83019 0
391.49 9.05377 0
392.379 4.67425 0
393.833 6.69636 0
392.756 8.94204 0
391.302 6.91993 0
392.568 6.80821 0
393.644 4.56242 0
396.175 4.33837 0
396.553 8.6061 0
394.022 8.83019 0
394.91 4.45046 0
396.364 6.4723 0
395.287 8.71821 0
393.833 6.69636 0
395.098 6.58439 0
396.175 4.33837 0
398.705 4.11384 0
399.084 8.38153 0
396.553 8.6061 0
397.44 4.22617 0
398.894 6.24774 0
397.818 8.49388 0
396.364 6.4723 0
397.629 6.36008 0
398.705 4.11384 0
401.235 3.88884 0
401.615 8.15648 0
399.084 8.38153 0
399.97 4.0014 0
401.425 6.02271 0
400.349 8.26906 0
398.894 6.24774 0
400.16 6.13529 0
401.235 3.88884 0
403.765 3.66337 0
404.146 7.93097 0
401.615 8.15648 0
402.5 3.77616 0
403.955 5.79722 0
402.88 8.04378 0
401.425 6.02271 0
402.69 5.91002 0
403.765 3.66337 0
406.295 3.43744 0
406.676 7.70501 0
404.146 7.93097 0
405.03 3.55046 0
406.486 5.57128 0
405.411 7.81805 0
403.955 5.79722 0
405.22 5.68431 0
406.295 3.43744 0
408.825 3.21108 0
409.207 7.47861 0
406.676 7.70501 0
407.56 3.32431 0
409.016 5.34489 0
407.942 7.59187 0
406.486 5.57128 0
407.751 5.45814 0
408.825 3.21108 0
411.355 2.98428 0
411.737 7.25179 0
409.207 7.47861 0
410.09 3.09773 0
411.546 5.11808 0
410.472 7.36525 0
409.016 5.34489 0
410.281 5.23154 0
411.355 2.98428 0
413.884 2.75708 0
414.268 7.02455 0
411.737 7.25179 0
412.619 2.87073 0
414.076 4.89086 0
413.002 7.13822 0
411.546 5.11808 0
412.811 5.00452 0
413.884 2.75708 0
416.414 2.52946 0
416.798 6.7969 0
414.268 7.02455 0
415.149 2.64332 0
416.606 4.66323 0
415.533 6.91077 0
414.076 4.89086 0
415.341 4.77709 0
416.414 2.52946 0
418.943 2.30146 0
419.328 6.56887 0
416.798 6.7969 0
417.679 2.41551 0
419.136 4.43521 0
418.063 6.68293 0
416.606 4.66323 0
417.871 4.54927 0
418.943 2.30146 0
421.473 2.07307 0
421.858 6.34046 0
419.328 6.56887 0
420.208 2.18731 0
421.665 4.20681 0
420.593 6.45471 0
419.136 4.43521 0
420.401 4.32106 0
421.473 2.07307 0
424.002 1.84432 0
424.388 6.11168 0
421.858 6.34046 0
422.737 1.95874 0
424.195 3.97804 0
423.123 6.22611 0
421.665 4.20681 0
422.93 4.09247 0
424.002 1.84432 0
426.531 1.61521 0
426.918 5.88255 0
424.388 6.11168 0
425.267 1.72981 0
426.725 3.74892 0
425.653 5.99716 0
424.195 3.97804 0
425.46 3.86353 0
426.531 1.61521 0
429.06 1.38576 0
429.448 5.65307 0
426.918 5.88255 0
427.796 1.50053 0
429.254 3.51946 0
428.183 5.76785 0
426.725 3.74892 0
427.989 3.63423 0
429.06 1.38576 0
431.589 1.15598 0
431.977 5.42327 0
429.448 5.65307 0
430.325 1.27091 0
431.783 3.28966 0
430.712 5.53821 0
429.254 3.51946 0
430.519 3.4046 0
431.589 1.15598 0
434.118 0.925871 0
434.507 5.19315 0
431.977 5.42327 0
432.854 1.04096 0
434.313 3.05955 0
433.242 5.30825 0
431.783 3.28966 0
433.048 3.17464 0
434.118 0.925871 0
436.647 0.695459 0
437.036 4.96272 0
434.507 5.19315 0
435.383 0.810702 0
436.842 2.82912 0
435.771 5.07797 0
434.313 3.05955 0
435.577 2.94437 0
436.647 0.695459 0
439.176 0.464751 0
439.565 4.732 0
437.036 4.96272 0
437.912 0.580141 0
439.371 2.59841 0
438.301 4.84739 0
436.842 2.82912 0
438.106 2.7138 0
439.176 0.464751 0
441.705 0.233759 0
442.095 4.50099 0
439.565 4.732 0
440.441 0.349289 0
441.9 2.36741 0
440.83 4.61653 0
439.371 2.59841 0
440.635 2.48294 0
441.705 0.233759 0
444.234 0.00249522 0
444.624 4.26972 0
442.095 4.50099 0
442.969 0.11816 0
444.429 2.13614 0
443.359 4.38539 0
441.9 2.36741 0
443.164 2.25181 0
444.234 0.00249522 0
446.762 -0.229028 0
447.153 4.03818 0
444.624 4.26972 0
445.498 -0.113235 0
446.958 1.90461 0
445.888 4.15398 0
444.429 2.13614 0
445.693 2.02041 0
446.762 -0.229028 0
449.291 -0.460799 0
449.682 3.80641 0
447.153 4.03818 0
448.026 -0.344883 0
449.486 1.67283 0
448.417 3.92233 0
446.958 1.90461 0
448.222 1.78875 0
449.291 -0.460799 0
451.819 -0.692805 0
452.211 3.57439 0
449.682 3.80641 0
450.555 -0.576773 0
452.015 1.44082 0
450.946 3.69043 0
449.486 1.67283 0
450.751 1.55686 0
451.819 -0.692805 0
454.348 -0.925036 0
454.739 3.34216 0
452.211 3.57439 0
453.083 -0.808893 0
454.543 1.20859 0
453.475 3.4583 0
452.015 1.44082 0
453.279 1.32473 0
454.348 -0.925036 0
456.876 -1.15748 0
457.268 3.10972 0
454.739 3.34216 0
455.612 -1.04123 0
457.072 0.976146 0
456.004 3.22596 0
454.543 1.20859 0
455.808 1.09239 0
456.876 -1.15748 0
459.404 -1.39012 0
459.797 2.87708 0
457.268 3.10972 0
458.14 -1.27377 0
459.6 0.743504 0
458.532 2.99342 0
457.072 0.976146 0
458.336 0.859849 0
459.404 -1.39012 0
461.932 -1.62295 0
462.325 2.64425 0
459.797 2.87708 0
460.668 -1.50651 0
462.129 0.510675 0
461.061 2.76068 0
459.6 0.743504 0
460.865 0.627112 0
461.932 -1.62295 0
464.46 -1.85595 0
464.854 2.41125 0
462.325 2.64425 0
463.196 -1.73943 0
464.657 0.277671 0
463.589 2.52777 0
462.129 0.510675 0
463.393 0.394194 0
464.46 -1.85595 0
466.988 -2.08912 0
467.382 2.17809 0
464.854 2.41125 0
465.724 -1.97252 0
467.185 0.0445049 0
466.118 2.29469 0
464.657 0.277671 0
465.921 0.161107 0
466.988 -2.08912 0
469.516 -2.32244 0
469.91 1.94477 0
467.382 2.17809 0
468.252 -2.20576 0
469.713 -0.188812 0
468.646 2.06145 0
467.185 0.0445049 0
468.449 -0.0721353 0
469.516 -2.32244 0
472.044 -2.5559 0
472.438 1.71133 0
469.91 1.94477 0
470.78 -2.43915 0
472.241 -0.422266 0
471.174 1.82807 0
469.713 -0.188812 0
470.977 -0.305522 0
472.044 -2.5559 0
474.572 -2.78948 0
474.966 1.47775 0
472.438 1.71133 0
473.308 -2.67267 0
474.769 -0.655847 0
473.702 1.59455 0
472.241 -0.422266 0
473.505 -0.539041 0
474.572 -2.78948 0
477.1 -3.02318 0
477.494 1.24407 0
474.966 1.47775 0
475.836 -2.90632 0
477.297 -0.889541 0
476.23 1.36092 0
474.769 -0.655847 0
476.033 -0.772681 0
477.1 -3.02318 0
479.628 -3.25698 0
480.022 1.01028 0
477.494 1.24407 0
478.364 -3.14007 0
479.825 -1.12334 0
478.758 1.12718 0
477.297 -0.889541 0
478.561 -1.00643 0
479.628 -3.25698 0
482.155 -3.49088 0
482.55 0.776401 0
480.022 1.01028 0
480.892 -3.37392 0
482.353 -1.35722 0
481.286 0.89335 0
479.825 -1.12334 0
481.089 -1.24027 0
482.155 -3.49088 0
484.683 -3.72485 0
485.078 0.542447 0
482.55 0.776401 0
483.419 -3.60785 0
484.88 -1.59119 0
483.814 0.659433 0
482.353 -1.35722 0
483.617 -1.4742 0
484.683 -3.72485 0
487.211 -3.95889 0
487.606 0.308424 0
485.078 0.542447 0
485.947 -3.84186 0
487.408 -1.82522 0
486.342 0.425443 0
484.88 -1.59119 0
486.144 -1.70819 0
487.211 -3.95889 0
489.738 -4.19299 0
490.133 0.0743381 0
487.606 0.308424 0
488.474 -4.07593 0
489.936 -2.05931 0
488.869 0.191389 0
487.408 -1.82522 0
488.672 -1.94226 0
489.738 -4.19299 0
492.265 -4.42716 0
492.661 -0.15982 0
490.133 0.0743381 0
491.002 -4.31006 0
492.463 -2.29347 0
491.397 -0.0427318 0
489.936 -2.05931 0
491.199 -2.17638 0
492.265 -4.42716 0
494.793 -4.66141 0
495.188 -0.394075 0
492.661 -0.15982 0
493.529 -4.54427 0
494.99 -2.52772 0
493.925 -0.276928 0
492.463 -2.29347 0
493.727 -2.41058 0
494.793 -4.66141 0
497.32 -4.89581 0
497.716 -0.628566 0
495.188 -0.394075 0
496.056 -4.77859 0
497.518 -2.76218 0
496.452 -0.51128 0
494.99 -2.52772 0
496.254 -2.64491 0
497.32 -4.89581 0
499.847 -5.13031 0
500.244 -0.864022 0
497.716 -0.628566 0
498.584 -5.01306 0
500.045 -2.9971 0
498.98 -0.746024 0
497.518 -2.76218 0
498.781 -2.87957 0
      </DataArray>
    </Points>
    <Cells>
      <DataArray type="Int32" Name="connectivity" format="ascii">
0 1 2 3 4 5 6 7 8 
9 10 11 12 13 14 15 16 17 
18 19 20 21 22 23 24 25 26 
27 28 29 30 31 32 33 34 35 
36 37 38 39 40 41 42 43 44 
45 46 47 48 49 50 51 52 53 
54 55 56 57 58 59 60 61 62 
63 64 65 66 67 68 69 70 71 
72 73 74 75 76 77 78 79 80 
81 82 83 84 85 86 87 88 89 
90 91 92 93 94 95 96 97 98 
99 100 101 102 103 104 105 106 107 
108 109 110 111 112 113 114 115 116 
117 118 119 120 121 122 123 124 125 
126 127 128 129 130 131 132 133 134 
135 136 137 138 139 140 141 142 143 
144 145 146 147 148 149 150 151 152 
153 154 155 156 157 158 159 160 161 
162 163 164 165 166 167 168 169 170 
171 172 173 174 175 176 177 178 179 
180 181 182 183 184 185 186 187 188 
189 190 191 192 193 194 195 196 197 
198 199 200 201 202 203 204 205 206 
207 208 209 210 211 212 213 214 215 
216 217 218 219 220 221 222 223 224 
225 226 227 228 229 230 231 232 233 
234 235 236 237 238 239 240 241 242 
243 244 245 246 247 248 249 250 251 
252 253 254 255 256 257 258 259 260 
261 262 263 264 265 266 267 268 269 
270 271 272 273 274 275 276 277 278 
279 280 281 282 283 284 285 286 287 
288 289 290 291 292 293 294 295 296 
297 298 299 300 301 302 303 304 305 
306 307 308 309 310 311 312 313 314 
315 316 317 318 319 320 321 322 323 
324 325 326 327 328 329 330 331 332 
333 334 335 336 337 338 339 340 341 
342 343 344 345 346 347 348 349 350 
351 352 353 354 355 356 357 358 359 
360 361 362 363 364 365 366 367 368 
369 370 371 372 373 374 375 376 377 
378 379 380 381 382 383 384 385 386 
387 388 389 390 391 392 393 394 395 
396 397 398 399 400 401 402 403 404 
405 406 407 408 409 410 411 412 413 
414 415 416 417 418 419 420 421 422 
423 424 425 426 427 428 429 430 431 
432 433 434 435 436 437 438 439 440 
441 442 443 444 445 446 447 448 449 
450 451 452 453 454 455 456 457 458 
459 460 461 462 463 464 465 466 467 
468 469 470 471 472 473 474 475 476 
477 478 479 480 481 482 483 484 485 
486 487 488 489 490 491 492 493 494 
495 496 497 498 499 500 501 502 503 
504 505 506 507 508 509 510 511 512 
513 514 515 516 517 518 519 520 521 
522 523 524 525 526 527 528 529 530 
531 532 533 534 535 536 537 538 539 
540 541 542 543 544 545 546 547 548 
549 550 551 552 553 554 555 556 557 
558 559 560 561 562 563 564 565 566 
567 568 569 570 571 572 573 574 575 
576 577 578 579 580 581 582 583 584 
585 586 587 588 589 590 591 592 593 
594 595 596 597 598 599 600 601 602 
603 604 605 606 607 608 609 610 611 
612 613 614 615 616 617 618 619 620 
621 622 623 624 625 626 627 628 629 
630 631 632 633 634 635 636 637 638 
639 640 641 642 643 644 645 646 647 
648 649 650 651 652 653 654 655 656 
657 658 659 660 661 662 663 664 665 
666 667 668 669 670 671 672 673 674 
675 676 677 678 679 680 681 682 683 
684 685 686 687 688 689 690 691 692 
693 694 695 696 697 698 699 700 701 
702 703 704 705 706 707 708 709 710 
711 712 713 714 715 716 717 718 719 
720 721 722 723 724 725 726 727 728 
729 730 731 732 733 734 735 736 737 
738 739 740 741 742 743 744 745 746 
747 748 749 750 751 752 753 754 755 
756 757 758 759 760 761 762 763 764 
765 766 767 768 769 770 771 772 773 
774 775 776 777 778 779 780 781 782 
783 784 785 786 787 788 789 790 791 
792 793 794 795 796 797 798 799 800 
801 802 803 804 805 806 807 808 809 
810 811 812 813 814 815 816 817 818 
819 820 821 822 823 824 825 826 827 
828 829 830 831 832 833 834 835 836 
837 838 839 840 841 842 843 844 845 
846 847 848 849 850 851 852 853 854 
855 856 857 858 859 860 861 862 863 
864 865 866 867 868 869 870 871 872 
873 874 875 876 877 878 879 880 881 
882 883 884 885 886 887 888 889 890 
891 892 893 894 895 896 897 898 899 
900 901 902 903 904 905 906 907 908 
909 910 911 912 913 914 915 916 917 
918 919 920 921 922 923 924 925 926 
927 928 929 930 931 932 933 934 935 
936 937 938 939 940 941 942 943 944 
945 946 947 948 949 950 951 952 953 
954 955 956 957 958 959 960 961 962 
963 964 965 966 967 968 969 970 971 
972 973 974 975 976 977 978 979 980 
981 982 983 984 985 986 987 988 989 
990 991 992 993 994 995 996 997 998 
999 1000 1001 1002 1003 1004 1005 1006 1007 
1008 1009 1010 1011 1012 1013 1014 1015 1016 
1017 1018 1019 1020 1021 1022 1023 1024 1025 
1026 1027 1028 1029 1030 1031 1032 1033 1034 
1035 1036 1037 1038 1039 1040 1041 1042 1043 
1044 1045 1046 1047 1048 1049 1050 1051 1052 
1053 1054 1055 1056 1057 1058 1059 1060 1061 
1062 1063 1064 1065 1066 1067 1068 1069 1070 
1071 1072 1073 1074 1075 1076 1077 1078 1079 
1080 1081 1082 1083 1084 1085 1086 1087 1088 
1089 1090 1091 1092 1093 1094 1095 1096 1097 
1098 1099 1100 1101 1102 1103 1104 1105 1106 
1107 1108 1109 1110 1111 1112 1113 1114 1115 
1116 1117 1118 1119 1120 1121 1122 1123 1124 
1125 1126 1127 1128 1129 1130 1131 1132 1133 
1134 1135 1136 1137 1138 1139 1140 1141 1142 
1143 1144 1145 1146 1147 1148 1149 1150 1151 
1152 1153 1154 1155 1156 1157 1158 1159 1160 
1161 1162 1163 1164 1165 1166 1167 1168 1169 
1170 1171 1172 1173 1174 1175 1176 1177 1178 
1179 1180 1181 1182 1183 1184 1185 1186 1187 
1188 1189 1190 1191 1192 1193 1194 1195 1196 
1197 1198 1199 1200 1201 1202 1203 1204 1205 
1206 1207 1208 1209 1210 1211 1212 1213 1214 
1215 1216 1217 1218 1219 1220 1221 1222 1223 
1224 1225 1226 1227 1228 1229 1230 1231 1232 
1233 1234 1235 1236 1237 1238 1239 1240 1241 
1242 1243 1244 1245 1246 1247 1248 1249 1250 
1251 1252 1253 1254 1255 1256 1257 1258 1259 
1260 1261 1262 1263 1264 1265 1266 1267 1268 
1269 1270 1271 1272 1273 1274 1275 1276 1277 
1278 1279 1280 1281 1282 1283 1284 1285 1286 
1287 1288 1289 1290 1291 1292 1293 1294 1295 
1296 1297 1298 1299 1300 1301 1302 1303 1304 
1305 1306 1307 1308 1309 1310 1311 1312 1313 
1314 1315 1316 1317 1318 1319 1320 1321 1322 
1323 1324 1325 1326 1327 1328 1329 1330 1331 
1332 1333 1334 1335 1336 1337 1338 1339 1340 
1341 1342 1343 1344 1345 1346 1347 1348 1349 
1350 1351 1352 1353 1354 1355 1356 1357 1358 
1359 1360 1361 1362 1363 1364 1365 1366 1367 
1368 1369 1370 1371 1372 1373 1374 1375 1376 
1377 1378 1379 1380 1381 1382 1383 1384 1385 
1386 1387 1388 1389 1390 1391 1392 1393 1394 
1395 1396 1397 1398 1399 1400 1401 1402 1403 
1404 1405 1406 1407 1408 1409 1410 1411 1412 
1413 1414 1415 1416 1417 1418 1419 1420 1421 
1422 1423 1424 1425 1426 1427 1428 1429 1430 
1431 1432 1433 1434 1435 1436 1437 1438 1439 
1440 1441 1442 1443 1444 1445 1446 1447 1448 
1449 1450 1451 1452 1453 1454 1455 1456 1457 
1458 1459 1460 1461 1462 1463 1464 1465 1466 
1467 1468 1469 1470 1471 1472 1473 1474 1475 
1476 1477 1478 1479 1480 1481 1482 1483 1484 
1485 1486 1487 1488 1489 1490 1491 1492 1493 
1494 1495 1496 1497 1498 1499 1500 1501 1502 
1503 1504 1505 1506 1507 1508 1509 1510 1511 
1512 1513 1514 1515 1516 1517 1518 1519 1520 
1521 1522 1523 1524 1525 1526 1527 1528 1529 
1530 1531 1532 1533 1534 1535 1536 1537 1538 
1539 1540 1541 1542 1543 1544 1545 1546 1547 
1548 1549 1550 1551 1552 1553 1554 1555 1556 
1557 1558 1559 1560 1561 1562 1563 1564 1565 
1566 1567 1568 1569 1570 1571 1572 1573 1574 
1575 1576 1577 1578 1579 1580 1581 1582 1583 
1584 1585 1586 1587 1588 1589 1590 1591 1592 
1593 1594 1595 1596 1597 1598 1599 1600 1601 
1602 1603 1604 1605 1606 1607 1608 1609 1610 
1611 1612 1613 1614 1615 1616 1617 1618 1619 
1620 1621 1622 1623 1624 1625 1626 1627 1628 
1629 1630 1631 1632 1633 1634 1635 1636 1637 
1638 1639 1640 1641 1642 1643 1644 1645 1646 
1647 1648 1649 1650 1651 1652 1653 1654 1655 
1656 1657 1658 1659 1660 1661 1662 1663 1664 
1665 1666 1667 1668 1669 1670 1671 1672 1673 
1674 1675 1676 1677 1678 1679 1680 1681 1682 
1683 1684 1685 1686 1687 1688 1689 1690 1691 
1692 1693 1694 1695 1696 1697 1698 1699 1700 
1701 1702 1703 1704 1705 1706 1707 1708 1709 
1710 1711 1712 1713 1714 1715 1716 1717 1718 
1719 1720 1721 1722 1723 1724 1725 1726 1727 
1728 1729 1730 1731 1732 1733 1734 1735 1736 
1737 1738 1739 1740 1741 1742 1743 1744 1745 
1746 1747 1748 1749 1750 1751 1752 1753 1754 
1755 1756 1757 1758 1759 1760 1761 1762 1763 
1764 1765 1766 1767 1768 1769 1770 1771 1772 
1773 1774 1775 1776 1777 1778 1779 1780 1781 
1782 1783 1784 1785 1786 1787 1788 1789 1790 
1791 1792 1793 1794 1795 1796 1797 1798 1799 
1800 1801 1802 1803 1804 1805 1806 1807 1808 
1809 1810 1811 1812 1813 1814 1815 1816 1817 
1818 1819 1820 1821 1822 1823 1824 1825 1826 
1827 1828 1829 1830 1831 1832 1833 1834 1835 
1836 1837 1838 1839 1840 1841 1842 1843 1844 
1845 1846 1847 1848 1849 1850 1851 1852 1853 
1854 1855 1856 1857 1858 1859 1860 1861 1862 
1863 1864 1865 1866 1867 1868 1869 1870 1871 
1872 1873 1874 1875 1876 1877 1878 1879 1880 
1881 1882 1883 1884 1885 1886 1887 1888 1889 
1890 1891 1892 1893 1894 1895 1896 1897 1898 
1899 1900 1901 1902 1903 1904 1905 1906 1907 
1908 1909 1910 1911 1912 1913 1914 1915 1916 
1917 1918 1919 1920 1921 1922 1923 1924 1925 
1926 1927 1928 1929 1930 1931 1932 1933 1934 
1935 1936 1937 1938 1939 1940 1941 1942 1943 
1944 1945 1946 1947 1948 1949 1950 1951 1952 
1953 1954 1955 1956 1957 1958 1959 1960 1961 
1962 1963 1964 1965 1966 1967 1968 1969 1970 
1971 1972 1973 1974 1975 1976 1977 1978 1979 
1980 1981 1982 1983 1984 1985 1986 1987 1988 
1989 1990 1991 1992 1993 1994 1995 1996 1997 
1998 1999 2000 2001 2002 2003 2004 2005 2006 
2007 2008 2009 2010 2011 2012 2013 2014 2015 
2016 2017 2018 2019 2020 2021 2022 2023 2024 
2025 2026 2027 2028 2029 2030 2031 2032 2033 
2034 2035 2036 2037 2038 2039 2040 2041 2042 
2043 2044 2045 2046 2047 2048 2049 2050 2051 
2052 2053 2054 2055 2056 2057 2058 2059 2060 
2061 2062 2063 2064 2065 2066 2067 2068 2069 
2070 2071 2072 2073 2074 2075 2076 2077 2078 
2079 2080 2081 2082 2083 2084 2085 2086 2087 
2088 2089 2090 2091 2092 2093 2094 2095 2096 
2097 2098 2099 2100 2101 2102 2103 2104 2105 
2106 2107 2108 2109 2110 2111 2112 2113 2114 
2115 2116 2117 2118 2119 2120 2121 2122 2123 
2124 2125 2126 2127 2128 2129 2130 2131 2132 
2133 2134 2135 2136 2137 2138 2139 2140 2141 
2142 2143 2144 2145 2146 2147 2148 2149 2150 
2151 2152 2153 2154 2155 2156 2157 2158 2159 
2160 2161 2162 2163 2164 2165 2166 2167 2168 
2169 2170 2171 2172 2173 2174 2175 2176 2177 
2178 2179 2180 2181 2182 2183 2184 2185 2186 
2187 2188 2189 2190 2191 2192 2193 2194 2195 
2196 2197 2198 2199 2200 2201 2202 2203 2204 
2205 2206 2207 2208 2209 2210 2211 2212 2213 
2214 2215 2216 2217 2218 2219 2220 2221 2222 
2223 2224 2225 2226 2227 2228 2229 2230 2231 
2232 2233 2234 2235 2236 2237 2238 2239 2240 
2241 2242 2243 2244 2245 2246 2247 2248 2249 
2250 2251 2252 2253 2254 2255 2256 2257 2258 
2259 2260 2261 2262 2263 2264 2265 2266 2267 
2268 2269 2270 2271 2272 2273 2274 2275 2276 
2277 2278 2279 2280 2281 2282 2283 2284 2285 
2286 2287 2288 2289 2290 2291 2292 2293 2294 
2295 2296 2297 2298 2299 2300 2301 2302 2303 
2304 2305 2306 2307 2308 2309 2310 2311 2312 
2313 2314 2315 2316 2317 2318 2319 2320 2321 
2322 2323 2324 2325 2326 2327 2328 2329 2330 
2331 2332 2333 2334 2335 2336 2337 2338 2339 
2340 2341 2342 2343 2344 2345 2346 2347 2348 
2349 2350 2351 2352 2353 2354 2355 2356 2357 
2358 2359 2360 2361 2362 2363 2364 2365 2366 
2367 2368 2369 2370 2371 2372 2373 2374 2375 
2376 2377 2378 2379 2380 2381 2382 2383 2384 
2385 2386 2387 2388 2389 2390 2391 2392 2393 
2394 2395 2396 2397 2398 2399 2400 2401 2402 
2403 2404 2405 2406 2407 2408 2409 2410 2411 
2412 2413 2414 2415 2416 2417 2418 2419 2420 
2421 2422 2423 2424 2425 2426 2427 2428 2429 
2430 2431 2432 2433 2434 2435 2436 2437 2438 
2439 2440 2441 2442 2443 2444 2445 2446 2447 
2448 2449 2450 2451 2452 2453 2454 2455 2456 
2457 2458 2459 2460 2461 2462 2463 2464 2465 
2466 2467 2468 2469 2470 2471 2472 2473 2474 
2475 2476 2477 2478 2479 2480 2481 2482 2483 
2484 2485 2486 2487 2488 2489 2490 2491 2492 
2493 2494 2495 2496 2497 2498 2499 2500 2501 
2502 2503 2504 2505 2506 2507 2508 2509 2510 
2511 2512 2513 2514 2515 2516 2517 2518 2519 
2520 2521 2522 2523 2524 2525 2526 2527 2528 
2529 2530 2531 2532 2533 2534 2535 2536 2537 
2538 2539 2540 2541 2542 2543 2544 2545 2546 
2547 2548 2549 2550 2551 2552 2553 2554 2555 
2556 2557 2558 2559 2560 2561 2562 2563 2564 
2565 2566 2567 2568 2569 2570 2571 2572 2573 
2574 2575 2576 2577 2578 2579 2580 2581 2582 
2583 2584 2585 2586 2587 2588 2589 2590 2591 
2592 2593 2594 2595 2596 2597 2598 2599 2600 
2601 2602 2603 2604 2605 2606 2607 2608 2609 
2610 2611 2612 2613 2614 2615 2616 2617 2618 
2619 2620 2621 2622 2623 2624 2625 2626 2627 
2628 2629 2630 2631 2632 2633 2634 2635 2636 
2637 2638 2639 2640 2641 2642 2643 2644 2645 
2646 2647 2648 2649 2650 2651 2652 2653 2654 
2655 2656 2657 2658 2659 2660 2661 2662 2663 
2664 2665 2666 2667 2668 2669 2670 2671 2672 
2673 2674 2675 2676 2677 2678 2679 2680 2681 
2682 2683 2684 2685 2686 2687 2688 2689 2690 
2691 2692 2693 2694 2695 2696 2697 2698 2699 
2700 2701 2702 2703 2704 2705 2706 2707 2708 
2709 2710 2711 2712 2713 2714 2715 2716 2717 
2718 2719 2720 2721 2722 2723 2724 2725 2726 
2727 2728 2729 2730 2731 2732 2733 2734 2735 
2736 2737 2738 2739 2740 2741 2742 2743 2744 
2745 2746 2747 2748 2749 2750 2751 2752 2753 
2754 2755 2756 2757 2758 2759 2760 2761 2762 
2763 2764 2765 2766 2767 2768 2769 2770 2771 
2772 2773 2774 2775 2776 2777 2778 2779 2780 
2781 2782 2783 2784 2785 2786 2787 2788 2789 
2790 2791 2792 2793 2794 2795 2796 2797 2798 
2799 2800 2801 2802 2803 2804 2805 2806 2807 
2808 2809 2810 2811 2812 2813 2814 2815 2816 
2817 2818 2819 2820 2821 2822 2823 2824 2825 
2826 2827 2828 2829 2830 2831 2832 2833 2834 
2835 2836 2837 2838 2839 2840 2841 2842 2843 
2844 2845 2846 2847 2848 2849 2850 2851 2852 
2853 2854 2855 2856 2857 2858 2859 2860 2861 
2862 2863 2864 2865 2866 2867 2868 2869 2870 
2871 2872 2873 2874 2875 2876 2877 2878 2879 
2880 2881 2882 2883 2884 2885 2886 2887 2888 
2889 2890 2891 2892 2893 2894 2895 2896 2897 
2898 2899 2900 2901 2902 2903 2904 2905 2906 
2907 2908 2909 2910 2911 2912 2913 2914 2915 
2916 2917 2918 2919 2920 2921 2922 2923 2924 
2925 2926 2927 2928 2929 2930 2931 2932 2933 
2934 2935 2936 2937 2938 2939 2940 2941 2942 
2943 2944 2945 2946 2947 2948 2949 2950 2951 
2952 2953 2954 2955 2956 2957 2958 2959 2960 
2961 2962 2963 2964 2965 2966 2967 2968 2969 
2970 2971 2972 2973 2974 2975 2976 2977 2978 
2979 2980 2981 2982 2983 2984 2985 2986 2987 
2988 2989 2990 2991 2992 2993 2994 2995 2996 
2997 2998 2999 3000 3001 3002 3003 3004 3005 
3006 3007 3008 3009 3010 3011 3012 3013 3014 
3015 3016 3017 3018 3019 3020 3021 3022 3023 
3024 3025 3026 3027 3028 3029 3030 3031 3032 
3033 3034 3035 3036 3037 3038 3039 3040 3041 
3042 3043 3044 3045 3046 3047 3048 3049 3050 
3051 3052 3053 3054 3055 3056 3057 3058 3059 
3060 3061 3062 3063 3064 3065 3066 3067 3068 
3069 3070 3071 3072 3073 3074 3075 3076 3077 
3078 3079 3080 3081 3082 3083 3084 3085 3086 
3087 3088 3089 3090 3091 3092 3093 3094 3095 
3096 3097 3098 3099 3100 3101 3102 3103 3104 
3105 3106 3107 3108 3109 3110 3111 3112 3113 
3114 3115 3116 3117 3118 3119 3120 3121 3122 
3123 3124 3125 3126 3127 3128 3129 3130 3131 
3132 3133 3134 3135 3136 3137 3138 3139 3140 
3141 3142 3143 3144 3145 3146 3147 3148 3149 
3150 3151 3152 3153 3154 3155 3156 3157 3158 
3159 3160 3161 3162 3163 3164 3165 3166 3167 
3168 3169 3170 3171 3172 3173 3174 3175 3176 
3177 3178 3179 3180 3181 3182 3183 3184 3185 
3186 3187 3188 3189 3190 3191 3192 3193 3194 
3195 3196 3197 3198 3199 3200 3201 3202 3203 
3204 3205 3206 3207 3208 3209 3210 3211 3212 
3213 3214 3215 3216 3217 3218 3219 3220 3221 
3222 3223 3224 3225 3226 3227 3228 3229 3230 
3231 3232 3233 3234 3235 3236 3237 3238 3239 
3240 3241 3242 3243 3244 3245 3246 3247 3248 
3249 3250 3251 3252 3253 3254 3255 3256 3257 
3258 3259 3260 3261 3262 3263 3264 3265 3266 
3267 3268 3269 3270 3271 3272 3273 3274 3275 
3276 3277 3278 3279 3280 3281 3282 3283 3284 
3285 3286 3287 3288 3289 3290 3291 3292 3293 
3294 3295 3296 3297 3298 3299 3300 3301 3302 
3303 3304 3305 3306 3307 3308 3309 3310 3311 
3312 3313 3314 3315 3316 3317 3318 3319 3320 
3321 3322 3323 3324 3325 3326 3327 3328 3329 
3330 3331 3332 3333 3334 3335 3336 3337 3338 
3339 3340 3341 3342 3343 3344 3345 3346 3347 
3348 3349 3350 3351 3352 3353 3354 3355 3356 
3357 3358 3359 3360 3361 3362 3363 3364 3365 
3366 3367 3368 3369 3370 3371 3372 3373 3374 
3375 3376 3377 3378 3379 3380 3381 3382 3383 
3384 3385 3386 3387 3388 3389 3390 3391 3392 
3393 3394 3395 3396 3397 3398 3399 3400 3401 
3402 3403 3404 3405 3406 3407 3408 3409 3410 
3411 3412 3413 3414 3415 3416 3417 3418 3419 
3420 3421 3422 3423 3424 3425 3426 3427 3428 
3429 3430 3431 3432 3433 3434 3435 3436 3437 
3438 3439 3440 3441 3442 3443 3444 3445 3446 
3447 3448 3449 3450 3451 3452 3453 3454 3455 
3456 3457 3458 3459 3460 3461 3462 3463 3464 
3465 3466 3467 3468 3469 3470 3471 3472 3473 
3474 3475 3476 3477 3478 3479 3480 3481 3482 
3483 3484 3485 3486 3487 3488 3489 3490 3491 
3492 3493 3494 3495 3496 3497 3498 3499 3500 
3501 3502 3503 3504 3505 3506 3507 3508 3509 
3510 3511 3512 3513 3514 3515 3516 3517 3518 
3519 3520 3521 3522 3523 3524 3525 3526 3527 
3528 3529 3530 3531 3532 3533 3534 3535 3536 
3537 3538 3539 3540 3541 3542 3543 3544 3545 
3546 3547 3548 3549 3550 3551 3552 3553 3554 
3555 3556 3557 3558 3559 3560 3561 3562 3563 
3564 3565 3566 3567 3568 3569 3570 3571 3572 
3573 3574 3575 3576 3577 3578 3579 3580 3581 
3582 3583 3584 3585 3586 3587 3588 3589 3590 
3591 3592 3593 3594 3595 3596 3597 3598 3599 
3600 3601 3602 3603 3604 3605 3606 3607 3608 
3609 3610 3611 3612 3613 3614 3615 3616 3617 
3618 3619 3620 3621 3622 3623 3624 3625 3626 
3627 3628 3629 3630 3631 3632 3633 3634 3635 
3636 3637 3638 3639 3640 3641 3642 3643 3644 
3645 3646 3647 3648 3649 3650 3651 3652 3653 
3654 3655 3656 3657 3658 3659 3660 3661 3662 
3663 3664 3665 3666 3667 3668 3669 3670 3671 
3672 3673 3674 3675 3676 3677 3678 3679 3680 
3681 3682 3683 3684 3685 3686 3687 3688 3689 
3690 3691 3692 3693 3694 3695 3696 3697 3698 
3699 3700 3701 3702 3703 3704 3705 3706 3707 
3708 3709 3710 3711 3712 3713 3714 3715 3716 
3717 3718 3719 3720 3721 3722 3723 3724 3725 
3726 3727 3728 3729 3730 3731 3732 3733 3734 
3735 3736 3737 3738 3739 3740 3741 3742 3743 
3744 3745 3746 3747 3748 3749 3750 3751 3752 
3753 3754 3755 3756 3757 3758 3759 3760 3761 
3762 3763 3764 3765 3766 3767 3768 3769 3770 
3771 3772 3773 3774 3775 3776 3777 3778 3779 
3780 3781 3782 3783 3784 3785 3786 3787 3788 
3789 3790 3791 3792 3793 3794 3795 3796 3797 
3798 3799 3800 3801 3802 3803 3804 3805 3806 
3807 3808 3809 3810 3811 3812 3813 3814 3815 
3816 3817 3818 3819 3820 3821 3822 3823 3824 
3825 3826 3827 3828 3829 3830 3831 3832 3833 
3834 3835 3836 3837 3838 3839 3840 3841 3842 
3843 3844 3845 3846 3847 3848 3849 3850 3851 
3852 3853 3854 3855 3856 3857 3858 3859 3860 
3861 3862 3863 3864 3865 3866 3867 3868 3869 
3870 3871 3872 3873 3874 3875 3876 3877 3878 
3879 3880 3881 3882 3883 3884 3885 3886 3887 
3888 3889 3890 3891 3892 3893 3894 3895 3896 
3897 3898 3899 3900 3901 3902 3903 3904 3905 
3906 3907 3908 3909 3910 3911 3912 3913 3914 
3915 3916 3917 3918 3919 3920 3921 3922 3923 
3924 3925 3926 3927 3928 3929 3930 3931 3932 
3933 3934 3935 3936 3937 3938 3939 3940 3941 
3942 3943 3944 3945 3946 3947 3948 3949 3950 
3951 3952 3953 3954 3955 3956 3957 3958 3959 
3960 3961 3962 3963 3964 3965 3966 3967 3968 
3969 3970 3971 3972 3973 3974 3975 3976 3977 
3978 3979 3980 3981 3982 3983 3984 3985 3986 
3987 3988 3989 3990 3991 3992 3993 3994 3995 
3996 3997 3998 3999 4000 4001 4002 4003 4004 
4005 4006 4007 4008 4009 4010 4011 4012 4013 
4014 4015 4016 4017 4018 4019 4020 4021 4022 
4023 4024 4025 4026 4027 4028 4029 4030 4031 
4032 4033 4034 4035 4036 4037 4038 4039 4040 
4041 4042 4043 4044 4045 4046 4047 4048 4049 
4050 4051 4052 4053 4054 4055 4056 4057 4058 
4059 4060 4061 4062 4063 4064 4065 4066 4067 
4068 4069 4070 4071 4072 4073 4074 4075 4076 
4077 4078 4079 4080 4081 4082 4083 4084 4085 
4086 4087 4088 4089 4090 4091 4092 4093 4094 
4095 4096 4097 4098 4099 4100 4101 4102 4103 
4104 4105 4106 4107 4108 4109 4110 4111 4112 
4113 4114 4115 4116 4117 4118 4119 4120 4121 
4122 4123 4124 4125 4126 4127 4128 4129 4130 
4131 4132 4133 4134 4135 4136 4137 4138 4139 
4140 4141 4142 4143 4144 4145 4146 4147 4148 
4149 4150 4151 4152 4153 4154 4155 4156 4157 
4158 4159 4160 4161 4162 4163 4164 4165 4166 
4167 4168 4169 4170 4171 4172 4173 4174 4175 
4176 4177 4178 4179 4180 4181 4182 4183 4184 
4185 4186 4187 4188 4189 4190 4191 4192 4193 
4194 4195 4196 4197 4198 4199 4200 4201 4202 
4203 4204 4205 4206 4207 4208 4209 4210 4211 
4212 4213 4214 4215 4216 4217 4218 4219 4220 
4221 4222 4223 4224 4225 4226 4227 4228 4229 
4230 4231 4232 4233 4234 4235 4236 4237 4238 
4239 4240 4241 4242 4243 4244 4245 4246 4247 
4248 4249 4250 4251 4252 4253 4254 4255 4256 
4257 4258 4259 4260 4261 4262 4263 4264 4265 
4266 4267 4268 4269 4270 4271 4272 4273 4274 
4275 4276 4277 4278 4279 4280 4281 4282 4283 
4284 4285 4286 4287 4288 4289 4290 4291 4292 
4293 4294 4295 4296 4297 4298 4299 4300 4301 
4302 4303 4304 4305 4306 4307 4308 4309 4310 
4311 4312 4313 4314 4315 4316 4317 4318 4319 
4320 4321 4322 4323 4324 4325 4326 4327 4328 
4329 4330 4331 4332 4333 4334 4335 4336 4337 
4338 4339 4340 4341 4342 4343 4344 4345 4346 
4347 4348 4349 4350 4351 4352 4353 4354 4355 
4356 4357 4358 4359 4360 4361 4362 4363 4364 
4365 4366 4367 4368 4369 4370 4371 4372 4373 
4374 4375 4376 4377 4378 4379 4380 4381 4382 
4383 4384 4385 4386 4387 4388 4389 4390 4391 
4392 4393 4394 4395 4396 4397 4398 4399 4400 
4401 4402 4403 4404 4405 4406 4407 4408 4409 
4410 4411 4412 4413 4414 4415 4416 4417 4418 
4419 4420 4421 4422 4423 4424 4425 4426 4427 
4428 4429 4430 4431 4432 4433 4434 4435 4436 
4437 4438 4439 4440 4441 4442 4443 4444 4445 
4446 4447 4448 4449 4450 4451 4452 4453 4454 
4455 4456 4457 4458 4459 4460 4461 4462 4463 
4464 4465 4466 4467 4468 4469 4470 4471 4472 
4473 4474 4475 4476 4477 4478 4479 4480 4481 
4482 4483 4484 4485 4486 4487 4488 4489 4490 
4491 4492 4493 4494 4495 4496 4497 4498 4499 
4500 4501 4502 4503 4504 4505 4506 4507 4508 
4509 4510 4511 4512 4513 4514 4515 4516 4517 
4518 4519 4520 4521 4522 4523 4524 4525 4526 
4527 4528 4529 4530 4531 4532 4533 4534 4535 
4536 4537 4538 4539 4540 4541 4542 4543 4544 
4545 4546 4547 4548 4549 4550 4551 4552 4553 
4554 4555 4556 4557 4558 4559 4560 4561 4562 
4563 4564 4565 4566 4567 4568 4569 4570 4571 
4572 4573 4574 4575 4576 4577 4578 4579 4580 
4581 4582 4583 4584 4585 4586 4587 4588 4589 
4590 4591 4592 4593 4594 4595 4596 4597 4598 
4599 4600 4601 4602 4603 4604 4605 4606 4607 
4608 4609 4610 4611 4612 4613 4614 4615 4616 
4617 4618 4619 4620 4621 4622 4623 4624 4625 
4626 4627 4628 4629 4630 4631 4632 4633 4634 
4635 4636 4637 4638 4639 4640 4641 4642 4643 
4644 4645 4646 4647 4648 4649 4650 4651 4652 
4653 4654 4655 4656 4657 4658 4659 4660 4661 
4662 4663 4664 4665 4666 4667 4668 4669 4670 
4671 4672 4673 4674 4675 4676 4677 4678 4679 
4680 4681 4682 4683 4684 4685 4686 4687 4688 
4689 4690 4691 4692 4693 4694 4695 4696 4697 
4698 4699 4700 4701 4702 4703 4704 4705 4706 
4707 4708 4709 4710 4711 4712 4713 4714 4715 
4716 4717 4718 4719 4720 4721 4722 4723 4724 
4725 4726 4727 4728 4729 4730 4731 4732 4733 
4734 4735 4736 4737 4738 4739 4740 4741 4742 
4743 4744 4745 4746 4747 4748 4749 4750 4751 
4752 4753 4754 4755 4756 4757 4758 4759 4760 
4761 4762 4763 4764 4765 4766 4767 4768 4769 
4770 4771 4772 4773 4774 4775 4776 4777 4778 
4779 4780 4781 4782 4783 4784 4785 4786 4787 
4788 4789 4790 4791 4792 4793 4794 4795 4796 
4797 4798 4799 4800 4801 4802 4803 4804 4805 
4806 4807 4808 4809 4810 4811 4812 4813 4814 
4815 4816 4817 4818 4819 4820 4821 4822 4823 
4824 4825 4826 4827 4828 4829 4830 4831 4832 
4833 4834 4835 4836 4837 4838 4839 4840 4841 
4842 4843 4844 4845 4846 4847 4848 4849 4850 
4851 4852 4853 4854 4855 4856 4857 4858 4859 
4860 4861 4862 4863 4864 4865 4866 4867 4868 
4869 4870 4871 4872 4873 4874 4875 4876 4877 
4878 4879 4880 4881 4882 4883 4884 4885 4886 
4887 4888 4889 4890 4891 4892 4893 4894 4895 
4896 4897 4898 4899 4900 4901 4902 4903 4904 
4905 4906 4907 4908 4909 4910 4911 4912 4913 
4914 4915 4916 4917 4918 4919 4920 4921 4922 
4923 4924 4925 4926 4927 4928 4929 4930 4931 
4932 4933 4934 4935 4936 4937 4938 4939 4940 
4941 4942 4943 4944 4945 4946 4947 4948 4949 
4950 4951 4952 4953 4954 4955 4956 4957 4958 
4959 4960 4961 4962 4963 4964 4965 4966 4967 
4968 4969 4970 4971 4972 4973 4974 4975 4976 
4977 4978 4979 4980 4981 4982 4983 4984 4985 
4986 4987 4988 4989 4990 4991 4992 4993 4994 
4995 4996 4997 4998 4999 5000 5001 5002 5003 
5004 5005 5006 5007 5008 5009 5010 5011 5012 
5013 5014 5015 5016 5017 5018 5019 5020 5021 
5022 5023 5024 5025 5026 5027 5028 5029 5030 
5031 5032 5033 5034 5035 5036 5037 5038 5039 
5040 5041 5042 5043 5044 5045 5046 5047 5048 
5049 5050 5051 5052 5053 5054 5055 5056 5057 
5058 5059 5060 5061 5062 5063 5064 5065 5066 
5067 5068 5069 5070 5071 5072 5073 5074 5075 
5076 5077 5078 5079 5080 5081 5082 5083 5084 
5085 5086 5087 5088 5089 5090 5091 5092 5093 
5094 5095 5096 5097 5098 5099 5100 5101 5102 
5103 5104 5105 5106 5107 5108 5109 5110 5111 
5112 5113 5114 5115 5116 5117 5118 5119 5120 
5121 5122 5123 5124 5125 5126 5127 5128 5129 
5130 5131 5132 5133 5134 5135 5136 5137 5138 
5139 5140 5141 5142 5143 5144 5145 5146 5147 
5148 5149 5150 5151 5152 5153 5154 5155 5156 
5157 5158 5159 5160 5161 5162 5163 5164 5165 
5166 5167 5168 5169 5170 5171 5172 5173 5174 
5175 5176 5177 5178 5179 5180 5181 5182 5183 
5184 5185 5186 5187 5188 5189 5190 5191 5192 
5193 5194 5195 5196 5197 5198 5199 5200 5201 
5202 5203 5204 5205 5206 5207 5208 5209 5210 
5211 5212 5213 5214 5215 5216 5217 5218 5219 
5220 5221 5222 5223 5224 5225 5226 5227 5228 
5229 5230 5231 5232 5233 5234 5235 5236 5237 
5238 5239 5240 5241 5242 5243 5244 5245 5246 
5247 5248 5249 5250 5251 5252 5253 5254 5255 
5256 5257 5258 5259 5260 5261 5262 5263 5264 
5265 5266 5267 5268 5269 5270 5271 5272 5273 
5274 5275 5276 5277 5278 5279 5280 5281 5282 
5283 5284 5285 5286 5287 5288 5289 5290 5291 
5292 5293 5294 5295 5296 5297 5298 5299 5300 
5301 5302 5303 5304 5305 5306 5307 5308 5309 
5310 5311 5312 5313 5314 5315 5316 5317 5318 
5319 5320 5321 5322 5323 5324 5325 5326 5327 
5328 5329 5330 5331 5332 5333 5334 5335 5336 
5337 5338 5339 5340 5341 5342 5343 5344 5345 
5346 5347 5348 5349 5350 5351 5352 5353 5354 
5355 5356 5357 5358 5359 5360 5361 5362 5363 
5364 5365 5366 5367 5368 5369 5370 5371 5372 
5373 5374 5375 5376 5377 5378 5379 5380 5381 
5382 5383 5384 5385 5386 5387 5388 5389 5390 
5391 5392 5393 5394 5395 5396 5397 5398 5399 
5400 5401 5402 5403 5404 5405 5406 5407 5408 
5409 5410 5411 5412 5413 5414 5415 5416 5417 
5418 5419 5420 5421 5422 5423 5424 5425 5426 
5427 5428 5429 5430 5431 5432 5433 5434 5435 
5436 5437 5438 5439 5440 5441 5442 5443 5444 
5445 5446 5447 5448 5449 5450 5451 5452 5453 
5454 5455 5456 5457 5458 5459 5460 5461 5462 
5463 5464 5465 5466 5467 5468 5469 5470 5471 
5472 5473 5474 5475 5476 5477 5478 5479 5480 
5481 5482 5483 5484 5485 5486 5487 5488 5489 
5490 5491 5492 5493 5494 5495 5496 5497 5498 
5499 5500 5501 5502 5503 5504 5505 5506 5507 
5508 5509 5510 5511 5512 5513 5514 5515 5516 
5517 5518 5519 5520 5521 5522 5523 5524 5525 
5526 5527 5528 5529 5530 5531 5532 5533 5534 
5535 5536 5537 5538 5539 5540 5541 5542 5543 
5544 5545 5546 5547 5548 5549 5550 5551 5552 
5553 5554 5555 5556 5557 5558 5559 5560 5561 
5562 5563 5564 5565 5566 5567 5568 5569 5570 
5571 5572 5573 5574 5575 5576 5577 5578 5579 
5580 5581 5582 5583 5584 5585 5586 5587 5588 
5589 5590 5591 5592 5593 5594 5595 5596 5597 
5598 5599 5600 5601 5602 5603 5604 5605 5606 
5607 5608 5609 5610 5611 5612 5613 5614 5615 
5616 5617 5618 5619 5620 5621 5622 5623 5624 
5625 5626 5627 5628 5629 5630 5631 5632 5633 
5634 5635 5636 5637 5638 5639 5640 5641 5642 
5643 5644 5645 5646 5647 5648 5649 5650 5651 
5652 5653 5654 5655 5656 5657 5658 5659 5660 
5661 5662 5663 5664 5665 5666 5667 5668 5669 
5670 5671 5672 5673 5674 5675 5676 5677 5678 
5679 5680 5681 5682 5683 5684 5685 5686 5687 
5688 5689 5690 5691 5692 5693 5694 5695 5696 
5697 5698 5699 5700 5701 5702 5703 5704 5705 
5706 5707 5708 5709 5710 5711 5712 5713 5714 
5715 5716 5717 5718 5719 5720 5721 5722 5723 
5724 5725 5726 5727 5728 5729 5730 5731 5732 
5733 5734 5735 5736 5737 5738 5739 5740 5741 
5742 5743 5744 5745 5746 5747 5748 5749 5750 
5751 5752 5753 5754 5755 5756 5757 5758 5759 
5760 5761 5762 5763 5764 5765 5766 5767 5768 
5769 5770 5771 5772 5773 5774 5775 5776 5777 
5778 5779 5780 5781 5782 5783 5784 5785 5786 
5787 5788 5789 5790 5791 5792 5793 5794 5795 
5796 5797 5798 5799 5800 5801 5802 5803 5804 
5805 5806 5807 5808 5809 5810 5811 5812 5813 
5814 5815 5816 5817 5818 5819 5820 5821 5822 
5823 5824 5825 5826 5827 5828 5829 5830 5831 
5832 5833 5834 5835 5836 5837 5838 5839 5840 
5841 5842 5843 5844 5845 5846 5847 5848 5849 
5850 5851 5852 5853 5854 5855 5856 5857 5858 
5859 5860 5861 5862 5863 5864 5865 5866 5867 
5868 5869 5870 5871 5872 5873 5874 5875 5876 
5877 5878 5879 5880 5881 5882 5883 5884 5885 
5886 5887 5888 5889 5890 5891 5892 5893 5894 
5895 5896 5897 5898 5899 5900 5901 5902 5903 
5904 5905 5906 5907 5908 5909 5910 5911 5912 
5913 5914 5915 5916 5917 5918 5919 5920 5921 
5922 5923 5924 5925 5926 5927 5928 5929 5930 
5931 5932 5933 5934 5935 5936 5937 5938 5939 
5940 5941 5942 5943 5944 5945 5946 5947 5948 
5949 5950 5951 5952 5953 5954 5955 5956 5957 
5958 5959 5960 5961 5962 5963 5964 5965 5966 
5967 5968 5969 5970 5971 5972 5973 5974 5975 
5976 5977 5978 5979 5980 5981 5982 5983 5984 
5985 5986 5987 5988 5989 5990 5991 5992 5993 
5994 5995 5996 5997 5998 5999 6000 6001 6002 
6003 6004 6005 6006 6007 6008 6009 6010 6011 
6012 6013 6014 6015 6016 6017 6018 6019 6020 
6021 6022 6023 6024 6025 6026 6027 6028 6029 
6030 6031 6032 6033 6034 6035 6036 6037 6038 
6039 6040 6041 6042 6043 6044 6045 6046 6047 
6048 6049 6050 6051 6052 6053 6054 6055 6056 
6057 6058 6059 6060 6061 6062 6063 6064 6065 
6066 6067 6068 6069 6070 6071 6072 6073 6074 
6075 6076 6077 6078 6079 6080 6081 6082 6083 
6084 6085 6086 6087 6088 6089 6090 6091 6092 
6093 6094 6095 6096 6097 6098 6099 6100 6101 
6102 6103 6104 6105 6106 6107 6108 6109 6110 
6111 6112 6113 6114 6115 6116 6117 6118 6119 
6120 6121 6122 6123 6124 6125 6126 6127 6128 
6129 6130 6131 6132 6133 6134 6135 6136 6137 
6138 6139 6140 6141 6142 6143 6144 6145 6146 
6147 6148 6149 6150 6151 6152 6153 6154 6155 
6156 6157 6158 6159 6160 6161 6162 6163 6164 
6165 6166 6167 6168 6169 6170 6171 6172 6173 
6174 6175 6176 6177 6178 6179 6180 6181 6182 
6183 6184 6185 6186 6187 6188 6189 6190 6191 
6192 6193 6194 6195 6196 6197 6198 6199 6200 
6201 6202 6203 6204 6205 6206 6207 6208 6209 
6210 6211 6212 6213 6214 6215 6216 6217 6218 
6219 6220 6221 6222 6223 6224 6225 6226 6227 
6228 6229 6230 6231 6232 6233 6234 6235 6236 
6237 6238 6239 6240 6241 6242 6243 6244 6245 
6246 6247 6248 6249 6250 6251 6252 6253 6254 
6255 6256 6257 6258 6259 6260 6261 6262 6263 
6264 6265 6266 6267 6268 6269 6270 6271 6272 
6273 6274 6275 6276 6277 6278 6279 6280 6281 
6282 6283 6284 6285 6286 6287 6288 6289 6290 
6291 6292 6293 6294 6295 6296 6297 6298 6299 
6300 6301 6302 6303 6304 6305 6306 6307 6308 
6309 6310 6311 6312 6313 6314 6315 6316 6317 
6318 6319 6320 6321 6322 6323 6324 6325 6326 
6327 6328 6329 6330 6331 6332 6333 6334 6335 
6336 6337 6338 6339 6340 6341 6342 6343 6344 
6345 6346 6347 6348 6349 6350 6351 6352 6353 
6354 6355 6356 6357 6358 6359 6360 6361 6362 
6363 6364 6365 6366 6367 6368 6369 6370 6371 
6372 6373 6374 6375 6376 6377 6378 6379 6380 
6381 6382 6383 6384 6385 6386 6387 6388 6389 
6390 6391 6392 6393 6394 6395 6396 6397 6398 
6399 6400 6401 6402 6403 6404 6405 6406 6407 
6408 6409 6410 6411 6412 6413 6414 6415 6416 
6417 6418 6419 6420 6421 6422 6423 6424 6425 
6426 6427 6428 6429 6430 6431 6432 6433 6434 
6435 6436 6437 6438 6439 6440 6441 6442 6443 
6444 6445 6446 6447 6448 6449 6450 6451 6452 
6453 6454 6455 6456 6457 6458 6459 6460 6461 
6462 6463 6464 6465 6466 6467 6468 6469 6470 
6471 6472 6473 6474 6475 6476 6477 6478 6479 
6480 6481 6482 6483 6484 6485 6486 6487 6488 
6489 6490 6491 6492 6493 6494 6495 6496 6497 
6498 6499 6500 6501 6502 6503 6504 6505 6506 
6507 6508 6509 6510 6511 6512 6513 6514 6515 
6516 6517 6518 6519 6520 6521 6522 6523 6524 
6525 6526 6527 6528 6529 6530 6531 6532 6533 
6534 6535 6536 6537 6538 6539 6540 6541 6542 
6543 6544 6545 6546 6547 6548 6549 6550 6551 
6552 6553 6554 6555 6556 6557 6558 6559 6560 
6561 6562 6563 6564 6565 6566 6567 6568 6569 
6570 6571 6572 6573 6574 6575 6576 6577 6578 
6579 6580 6581 6582 6583 6584 6585 6586 6587 
6588 6589 6590 6591 6592 6593 6594 6595 6596 
6597 6598 6599 6600 6601 6602 6603 6604 6605 
6606 6607 6608 6609 6610 6611 6612 6613 6614 
6615 6616 6617 6618 6619 6620 6621 6622 6623 
6624 6625 6626 6627 6628 6629 6630 6631 6632 
6633 6634 6635 6636 6637 6638 6639 6640 6641 
6642 6643 6644 6645 6646 6647 6648 6649 6650 
6651 6652 6653 6654 6655 6656 6657 6658 6659 
6660 6661 6662 6663 6664 6665 6666 6667 6668 
6669 6670 6671 6672 6673 6674 6675 6676 6677 
6678 6679 6680 6681 6682 6683 6684 6685 6686 
6687 6688 6689 6690 6691 6692 6693 6694 6695 
6696 6697 6698 6699 6700 6701 6702 6703 6704 
6705 6706 6707 6708 6709 6710 6711 6712 6713 
6714 6715 6716 6717 6718 6719 6720 6721 6722 
6723 6724 6725 6726 6727 6728 6729 6730 6731 
6732 6733 6734 6735 6736 6737 6738 6739 6740 
6741 6742 6743 6744 6745 6746 6747 6748 6749 
6750 6751 6752 6753 6754 6755 6756 6757 6758 
6759 6760 6761 6762 6763 6764 6765 6766 6767 
6768 6769 6770 6771 6772 6773 6774 6775 6776 
6777 6778 6779 6780 6781 6782 6783 6784 6785 
6786 6787 6788 6789 6790 6791 6792 6793 6794 
6795 6796 6797 6798 6799 6800 6801 6802 6803 
6804 6805 6806 6807 6808 6809 6810 6811 6812 
6813 6814 6815 6816 6817 6818 6819 6820 6821 
6822 6823 6824 6825 6826 6827 6828 6829 6830 
6831 6832 6833 6834 6835 6836 6837 6838 6839 
6840 6841 6842 6843 6844 6845 6846 6847 6848 
6849 6850 6851 6852 6853 6854 6855 6856 6857 
6858 6859 6860 6861 6862 6863 6864 6865 6866 
6867 6868 6869 6870 6871 6872 6873 6874 6875 
6876 6877 6878 6879 6880 6881 6882 6883 6884 
6885 6886 6887 6888 6889 6890 6891 6892 6893 
6894 6895 6896 6897 6898 6899 6900 6901 6902 
6903 6904 6905 6906 6907 6908 6909 6910 6911 
6912 6913 6914 6915 6916 6917 6918 6919 6920 
6921 6922 6923 6924 6925 6926 6927 6928 6929 
6930 6931 6932 6933 6934 6935 6936 6937 6938 
6939 6940 6941 6942 6943 6944 6945 6946 6947 
6948 6949 6950 6951 6952 6953 6954 6955 6956 
6957 6958 6959 6960 6961 6962 6963 6964 6965 
6966 6967 6968 6969 6970 6971 6972 6973 6974 
6975 6976 6977 6978 6979 6980 6981 6982 6983 
6984 6985 6986 6987 6988 6989 6990 6991 6992 
6993 6994 6995 6996 6997 6998 6999 7000 7001 
7002 7003 7004 7005 7006 7007 7008 7009 7010 
7011 7012 7013 7014 7015 7016 7017 7018 7019 
7020 7021 7022 7023 7024 7025 7026 7027 7028 
7029 7030 7031 7032 7033 7034 7035 7036 7037 
7038 7039 7040 7041 7042 7043 7044 7045 7046 
7047 7048 7049 7050 7051 7052 7053 7054 7055 
7056 7057 7058 7059 7060 7061 7062 7063 7064 
7065 7066 7067 7068 7069 7070 7071 7072 7073 
7074 7075 7076 7077 7078 7079 7080 7081 7082 
7083 7084 7085 7086 7087 7088 7089 7090 7091 
7092 7093 7094 7095 7096 7097 7098 7099 7100 
7101 7102 7103 7104 7105 7106 7107 7108 7109 
7110 7111 7112 7113 7114 7115 7116 7117 7118 
7119 7120 7121 7122 7123 7124 7125 7126 7127 
7128 7129 7130 7131 7132 7133 7134 7135 7136 
7137 7138 7139 7140 7141 7142 7143 7144 7145 
7146 7147 7148 7149 7150 7151 7152 7153 7154 
7155 7156 7157 7158 7159 7160 7161 7162 7163 
7164 7165 7166 7167 7168 7169 7170 7171 7172 
7173 7174 7175 7176 7177 7178 7179 7180 7181 
7182 7183 7184 7185 7186 7187 7188 7189 7190 
7191 7192 7193 7194 7195 7196 7197 7198 7199 
7200 7201 7202 7203 7204 7205 7206 7207 7208 
7209 7210 7211 7212 7213 7214 7215 7216 7217 
7218 7219 7220 7221 7222 7223 7224 7225 7226 
7227 7228 7229 7230 7231 7232 7233 7234 7235 
7236 7237 7238 7239 7240 7241 7242 7243 7244 
7245 7246 7247 7248 7249 7250 7251 7252 7253 
7254 7255 7256 7257 7258 7259 7260 7261 7262 
7263 7264 7265 7266 7267 7268 7269 7270 7271 
7272 7273 7274 7275 7276 7277 7278 7279 7280 
7281 7282 7283 7284 7285 7286 7287 7288 7289 
7290 7291 7292 7293 7294 7295 7296 7297 7298 
7299 7300 7301 7302 7303 7304 7305 7306 7307 
7308 7309 7310 7311 7312 7313 7314 7315 7316 
7317 7318 7319 7320 7321 7322 7323 7324 7325 
7326 7327 7328 7329 7330 7331 7332 7333 7334 
7335 7336 7337 7338 7339 7340 7341 7342 7343 
7344 7345 7346 7347 7348 7349 7350 7351 7352 
7353 7354 7355 7356 7357 7358 7359 7360 7361 
7362 7363 7364 7365 7366 7367 7368 7369 7370 
7371 7372 7373 7374 7375 7376 7377 7378 7379 
7380 7381 7382 7383 7384 7385 7386 7387 7388 
7389 7390 7391 7392 7393 7394 7395 7396 7397 
7398 7399 7400 7401 7402 7403 7404 7405 7406 
7407 7408 7409 7410 7411 7412 7413 7414 7415 
7416 7417 7418 7419 7420 7421 7422 7423 7424 
7425 7426 7427 7428 7429 7430 7431 7432 7433 
7434 7435 7436 7437 7438 7439 7440 7441 7442 
7443 7444 7445 7446 7447 7448 7449 7450 7451 
7452 7453 7454 7455 7456 7457 7458 7459 7460 
7461 7462 7463 7464 7465 7466 7467 7468 7469 
7470 7471 7472 7473 7474 7475 7476 7477 7478 
7479 7480 7481 7482 7483 7484 7485 7486 7487 
7488 7489 7490 7491 7492 7493 7494 7495 7496 
7497 7498 7499 7500 7501 7502 7503 7504 7505 
7506 7507 7508 7509 7510 7511 7512 7513 7514 
7515 7516 7517 7518 7519 7520 7521 7522 7523 
7524 7525 7526 7527 7528 7529 7530 7531 7532 
7533 7534 7535 7536 7537 7538 7539 7540 7541 
7542 7543 7544 7545 7546 7547 7548 7549 7550 
7551 7552 7553 7554 7555 7556 7557 7558 7559 
7560 7561 7562 7563 7564 7565 7566 7567 7568 
7569 7570 7571 7572 7573 7574 7575 7576 7577 
7578 7579 7580 7581 7582 7583 7584 7585 7586 
7587 7588 7589 7590 7591 7592 7593 7594 7595 
7596 7597 7598 7599 7600 7601 7602 7603 7604 
7605 7606 7607 7608 7609 7610 7611 7612 7613 
7614 7615 7616 7617 7618 7619 7620 7621 7622 
7623 7624 7625 7626 7627 7628 7629 7630 7631 
7632 7633 7634 7635 7636 7637 7638 7639 7640 
7641 7642 7643 7644 7645 7646 7647 7648 7649 
7650 7651 7652 7653 7654 7655 7656 7657 7658 
7659 7660 7661 7662 7663 7664 7665 7666 7667 
7668 7669 7670 7671 7672 7673 7674 7675 7676 
7677 7678 7679 7680 7681 7682 7683 7684 7685 
7686 7687 7688 7689 7690 7691 7692 7693 7694 
7695 7696 7697 7698 7699 7700 7701 7702 7703 
7704 7705 7706 7707 7708 7709 7710 7711 7712 
7713 7714 7715 7716 7717 7718 7719 7720 7721 
7722 7723 7724 7725 7726 7727 7728 7729 7730 
7731 7732 7733 7734 7735 7736 7737 7738 7739 
7740 7741 7742 7743 7744 7745 7746 7747 7748 
7749 7750 7751 7752 7753 7754 7755 7756 7757 
7758 7759 7760 7761 7762 7763 7764 7765 7766 
7767 7768 7769 7770 7771 7772 7773 7774 7775 
7776 7777 7778 7779 7780 7781 7782 7783 7784 
7785 7786 7787 7788 7789 7790 7791 7792 7793 
7794 7795 7796 7797 7798 7799 7800 7801 7802 
7803 7804 7805 7806 7807 7808 7809 7810 7811 
7812 7813 7814 7815 7816 7817 7818 7819 7820 
7821 7822 7823 7824 7825 7826 7827 7828 7829 
7830 7831 7832 7833 7834 7835 7836 7837 7838 
7839 7840 7841 7842 7843 7844 7845 7846 7847 
7848 7849 7850 7851 7852 7853 7854 7855 7856 
7857 7858 7859 7860 7861 7862 7863 7864 7865 
7866 7867 7868 7869 7870 7871 7872 7873 7874 
7875 7876 7877 7878 7879 7880 7881 7882 7883 
7884 7885 7886 7887 7888 7889 7890 7891 7892 
7893 7894 7895 7896 7897 7898 7899 7900 7901 
7902 7903 7904 7905 7906 7907 7908 7909 7910 
7911 7912 7913 7914 7915 7916 7917 7918 7919 
7920 7921 7922 7923 7924 7925 7926 7927 7928 
7929 7930 7931 7932 7933 7934 7935 7936 7937 
7938 7939 7940 7941 7942 7943 7944 7945 7946 
7947 7948 7949 7950 7951 7952 7953 7954 7955 
7956 7957 7958 7959 7960 7961 7962 7963 7964 
7965 7966 7967 7968 7969 7970 7971 7972 7973 
7974 7975 7976 7977 7978 7979 7980 7981 7982 
7983 7984 7985 7986 7987 7988 7989 7990 7991 
7992 7993 7994 7995 7996 7997 7998 7999 8000 
8001 8002 8003 8004 8005 8006 8007 8008 8009 
8010 8011 8012 8013 8014 8015 8016 8017 8018 
8019 8020 8021 8022 8023 8024 8025 8026 8027 
8028 8029 8030 8031 8032 8033 8034 8035 8036 
8037 8038 8039 8040 8041 8042 8043 8044 8045 
8046 8047 8048 8049 8050 8051 8052 8053 8054 
8055 8056 8057 8058 8059 8060 8061 8062 8063 
8064 8065 8066 8067 8068 8069 8070 8071 8072 
8073 8074 8075 8076 8077 8078 8079 8080 8081 
8082 8083 8084 8085 8086 8087 8088 8089 8090 
8091 8092 8093 8094 8095 8096 8097 8098 8099 
8100 8101 8102 8103 8104 8105 8106 8107 8108 
8109 8110 8111 8112 8113 8114 8115 8116 8117 
8118 8119 8120 8121 8122 8123 8124 8125 8126 
8127 8128 8129 8130 8131 8132 8133 8134 8135 
8136 8137 8138 8139 8140 8141 8142 8143 8144 
8145 8146 8147 8148 8149 8150 8151 8152 8153 
8154 8155 8156 8157 8158 8159 8160 8161 8162 
8163 8164 8165 8166 8167 8168 8169 8170 8171 
8172 8173 8174 8175 8176 8177 8178 8179 8180 
8181 8182 8183 8184 8185 8186 8187 8188 8189 
8190 8191 8192 8193 8194 8195 8196 8197 8198 
8199 8200 8201 8202 8203 8204 8205 8206 8207 
8208 8209 8210 8211 8212 8213 8214 8215 8216 
8217 8218 8219 8220 8221 8222 8223 8224 8225 
8226 8227 8228 8229 8230 8231 8232 8233 8234 
8235 8236 8237 8238 8239 8240 8241 8242 8243 
8244 8245 8246 8247 8248 8249 8250 8251 8252 
8253 8254 8255 8256 8257 8258 8259 8260 8261 
8262 8263 8264 8265 8266 8267 8268 8269 8270 
8271 8272 8273 8274 8275 8276 8277 8278 8279 
8280 8281 8282 8283 8284 8285 8286 8287 8288 
8289 8290 8291 8292 8293 8294 8295 8296 8297 
8298 8299 8300 8301 8302 8303 8304 8305 8306 
8307 8308 8309 8310 8311 8312 8313 8314 8315 
8316 8317 8318 8319 8320 8321 8322 8323 8324 
8325 8326 8327 8328 8329 8330 8331 8332 8333 
8334 8335 8336 8337 8338 8339 8340 8341 8342 
8343 8344 8345 8346 8347 8348 8349 8350 8351 
8352 8353 8354 8355 8356 8357 8358 8359 8360 
8361 8362 8363 8364 8365 8366 8367 8368 8369 
8370 8371 8372 8373 8374 8375 8376 8377 8378 
8379 8380 8381 8382 8383 8384 8385 8386 8387 
8388 8389 8390 8391 8392 8393 8394 8395 8396 
8397 8398 8399 8400 8401 8402 8403 8404 8405 
8406 8407 8408 8409 8410 8411 8412 8413 8414 
8415 8416 8417 8418 8419 8420 8421 8422 8423 
8424 8425 8426 8427 8428 8429 8430 8431 8432 
8433 8434 8435 8436 8437 8438 8439 8440 8441 
8442 8443 8444 8445 8446 8447 8448 8449 8450 
8451 8452 8453 8454 8455 8456 8457 8458 8459 
8460 8461 8462 8463 8464 8465 8466 8467 8468 
8469 8470 8471 8472 8473 8474 8475 8476 8477 
8478 8479 8480 8481 8482 8483 8484 8485 8486 
8487 8488 8489 8490 8491 8492 8493 8494 8495 
8496 8497 8498 8499 8500 8501 8502 8503 8504 
8505 8506 8507 8508 8509 8510 8511 8512 8513 
8514 8515 8516 8517 8518 8519 8520 8521 8522 
8523 8524 8525 8526 8527 8528 8529 8530 8531 
8532 8533 8534 8535 8536 8537 8538 8539 8540 
8541 8542 8543 8544 8545 8546 8547 8548 8549 
8550 8551 8552 8553 8554 8555 8556 8557 8558 
8559 8560 8561 8562 8563 8564 8565 8566 8567 
8568 8569 8570 8571 8572 8573 8574 8575 8576 
8577 8578 8579 8580 8581 8582 8583 8584 8585 
8586 8587 8588 8589 8590 8591 8592 8593 8594 
8595 8596 8597 8598 8599 8600 8601 8602 8603 
8604 8605 8606 8607 8608 8609 8610 8611 8612 
8613 8614 8615 8616 8617 8618 8619 8620 8621 
8622 8623 8624 8625 8626 8627 8628 8629 8630 
8631 8632 8633 8634 8635 8636 8637 8638 8639 
8640 8641 8642 8643 8644 8645 8646 8647 8648 
8649 8650 8651 8652 8653 8654 8655 8656 8657 
8658 8659 8660 8661 8662 8663 8664 8665 8666 
8667 8668 8669 8670 8671 8672 8673 8674 8675 
8676 8677 8678 8679 8680 8681 8682 8683 8684 
8685 8686 8687 8688 8689 8690 8691 8692 8693 
8694 8695 8696 8697 8698 8699 8700 8701 8702 
8703 8704 8705 8706 8707 8708 8709 8710 8711 
8712 8713 8714 8715 8716 8717 8718 8719 8720 
8721 8722 8723 8724 8725 8726 8727 8728 8729 
8730 8731 8732 8733 8734 8735 8736 8737 8738 
8739 8740 8741 8742 8743 8744 8745 8746 8747 
8748 8749 8750 8751 8752 8753 8754 8755 8756 
8757 8758 8759 8760 8761 8762 8763 8764 8765 
8766 8767 8768 8769 8770 8771 8772 8773 8774 
8775 8776 8777 8778 8779 8780 8781 8782 8783 
8784 8785 8786 8787 8788 8789 8790 8791 8792 
8793 8794 8795 8796 8797 8798 8799 8800 8801 
8802 8803 8804 8805 8806 8807 8808 8809 8810 
8811 8812 8813 8814 8815 8816 8817 8818 8819 
8820 8821 8822 8823 8824 8825 8826 8827 8828 
8829 8830 8831 8832 8833 8834 8835 8836 8837 
8838 8839 8840 8841 8842 8843 8844 8845 8846 
8847 8848 8849 8850 8851 8852 8853 8854 8855 
8856 8857 8858 8859 8860 8861 8862 8863 8864 
8865 8866 8867 8868 8869 8870 8871 8872 8873 
8874 8875 8876 8877 8878 8879 8880 8881 8882 
8883 8884 8885 8886 8887 8888 8889 8890 8891 
8892 8893 8894 8895 8896 8897 8898 8899 8900 
8901 8902 8903 8904 8905 8906 8907 8908 8909 
8910 8911 8912 8913 8914 8915 8916 8917 8918 
8919 8920 8921 8922 8923 8924 8925 8926 8927 
8928 8929 8930 8931 8932 8933 8934 8935 8936 
8937 8938 8939 8940 8941 8942 8943 8944 8945 
8946 8947 8948 8949 8950 8951 8952 8953 8954 
8955 8956 8957 8958 8959 8960 8961 8962 8963 
8964 8965 8966 8967 8968 8969 8970 8971 8972 
8973 8974 8975 8976 8977 8978 8979 8980 8981 
8982 8983 8984 8985 8986 8987 8988 8989 8990 
8991 8992 8993 8994 8995 8996 8997 8998 8999 
9000 9001 9002 9003 9004 9005 9006 9007 9008 
9009 9010 9011 9012 9013 9014 9015 9016 9017 
9018 9019 9020 9021 9022 9023 9024 9025 9026 
9027 9028 9029 9030 9031 9032 9033 9034 9035 
9036 9037 9038 9039 9040 9041 9042 9043 9044 
9045 9046 9047 9048 9049 9050 9051 9052 9053 
9054 9055 9056 9057 9058 9059 9060 9061 9062 
9063 9064 9065 9066 9067 9068 9069 9070 9071 
9072 9073 9074 9075 9076 9077 9078 9079 9080 
9081 9082 9083 9084 9085 9086 9087 9088 9089 
9090 9091 9092 9093 9094 9095 9096 9097 9098 
9099 9100 9101 9102 9103 9104 9105 9106 9107 
9108 9109 9110 9111 9112 9113 9114 9115 9116 
9117 9118 9119 9120 9121 9122 9123 9124 9125 
9126 9127 9128 9129 9130 9131 9132 9133 9134 
9135 9136 9137 9138 9139 9140 9141 9142 9143 
9144 9145 9146 9147 9148 9149 9150 9151 9152 
9153 9154 9155 9156 9157 9158 9159 9160 9161 
9162 9163 9164 9165 9166 9167 9168 9169 9170 
9171 9172 9173 9174 9175 9176 9177 9178 9179 
9180 9181 9182 9183 9184 9185 9186 9187 9188 
9189 9190 9191 9192 9193 9194 9195 9196 9197 
9198 9199 9200 9201 9202 9203 9204 9205 9206 
9207 9208 9209 9210 9211 9212 9213 9214 9215 
9216 9217 9218 9219 9220 9221 9222 9223 9224 
9225 9226 9227 9228 9229 9230 9231 9232 9233 
9234 9235 9236 9237 9238 9239 9240 9241 9242 
9243 9244 9245 9246 9247 9248 9249 9250 9251 
9252 9253 9254 9255 9256 9257 9258 9259 9260 
9261 9262 9263 9264 9265 9266 9267 9268 9269 
9270 9271 9272 9273 9274 9275 9276 9277 9278 
9279 9280 9281 9282 9283 9284 9285 9286 9287 
9288 9289 9290 9291 9292 9293 9294 9295 9296 
9297 9298 9299 9300 9301 9302 9303 9304 9305 
9306 9307 9308 9309 9310 9311 9312 9313 9314 
9315 9316 9317 9318 9319 9320 9321 9322 9323 
9324 9325 9326 9327 9328 9329 9330 9331 9332 
9333 9334 9335 9336 9337 9338 9339 9340 9341 
9342 9343 9344 9345 9346 9347 9348 9349 9350 
9351 9352 9353 9354 9355 9356 9357 9358 9359 
9360 9361 9362 9363 9364 9365 9366 9367 9368 
9369 9370 9371 9372 9373 9374 9375 9376 9377 
9378 9379 9380 9381 9382 9383 9384 9385 9386 
9387 9388 9389 9390 9391 9392 9393 9394 9395 
9396 9397 9398 9399 9400 9401 9402 9403 9404 
9405 9406 9407 9408 9409 9410 9411 9412 9413 
9414 9415 9416 9417 9418 9419 9420 9421 9422 
9423 9424 9425 9426 9427 9428 9429 9430 9431 
9432 9433 9434 9435 9436 9437 9438 9439 9440 
9441 9442 9443 9444 9445 9446 9447 9448 9449 
9450 9451 9452 9453 9454 9455 9456 9457 9458 
9459 9460 9461 9462 9463 9464 9465 9466 9467 
9468 9469 9470 9471 9472 9473 9474 9475 9476 
9477 9478 9479 9480 9481 9482 9483 9484 9485 
9486 9487 9488 9489 9490 9491 9492 9493 9494 
9495 9496 9497 9498 9499 9500 9501 9502 9503 
9504 9505 9506 9507 9508 9509 9510 9511 9512 
9513 9514 9515 9516 9517 9518 9519 9520 9521 
9522 9523 9524 9525 9526 9527 9528 9529 9530 
9531 9532 9533 9534 9535 9536 9537 9538 9539 
9540 9541 9542 9543 9544 9545 9546 9547 9548 
9549 9550 9551 9552 9553 9554 9555 9556 9557 
9558 9559 9560 9561 9562 9563 9564 9565 9566 
9567 9568 9569 9570 9571 9572 9573 9574 9575 
9576 9577 9578 9579 9580 9581 9582 9583 9584 
9585 9586 9587 9588 9589 9590 9591 9592 9593 
9594 9595 9596 9597 9598 9599 9600 9601 9602 
9603 9604 9605 9606 9607 9608 9609 9610 9611 
9612 9613 9614 9615 9616 9617 9618 9619 9620 
9621 9622 9623 9624 9625 9626 9627 9628 9629 
9630 9631 9632 9633 9634 9635 9636 9637 9638 
9639 9640 9641 9642 9643 9644 9645 9646 9647 
9648 9649 9650 9651 9652 9653 9654 9655 9656 
9657 9658 9659 9660 9661 9662 9663 9664 9665 
9666 9667 9668 9669 9670 9671 9672 9673 9674 
9675 9676 9677 9678 9679 9680 9681 9682 9683 
9684 9685 9686 9687 9688 9689 9690 9691 9692 
9693 9694 9695 9696 9697 9698 9699 9700 9701 
9702 9703 9704 9705 9706 9707 9708 9709 9710 
9711 9712 9713 9714 9715 9716 9717 9718 9719 
9720 9721 9722 9723 9724 9725 9726 9727 9728 
9729 9730 9731 9732 9733 9734 9735 9736 9737 
9738 9739 9740 9741 9742 9743 9744 9745 9746 
9747 9748 9749 9750 9751 9752 9753 9754 9755 
9756 9757 9758 9759 9760 9761 9762 9763 9764 
9765 9766 9767 9768 9769 9770 9771 9772 9773 
9774 9775 9776 9777 9778 9779 9780 9781 9782 
9783 9784 9785 9786 9787 9788 9789 9790 9791 
9792 9793 9794 9795 9796 9797 9798 9799 9800 
9801 9802 9803 9804 9805 9806 9807 9808 9809 
9810 9811 9812 9813 9814 9815 9816 9817 9818 
9819 9820 9821 9822 9823 9824 9825 9826 9827 
9828 9829 9830 9831 9832 9833 9834 9835 9836 
9837 9838 9839 9840 9841 9842 9843 9844 9845 
9846 9847 9848 9849 9850 9851 9852 9853 9854 
9855 9856 9857 9858 9859 9860 9861 9862 9863 
9864 9865 9866 9867 9868 9869 9870 9871 9872 
9873 9874 9875 9876 9877 9878 9879 9880 9881 
9882 9883 9884 9885 9886 9887 9888 9889 9890 
9891 9892 9893 9894 9895 9896 9897 9898 9899 
9900 9901 9902 9903 9904 9905 9906 9907 9908 
9909 9910 9911 9912 9913 9914 9915 9916 9917 
9918 9919 9920 9921 9922 9923 9924 9925 9926 
9927 9928 9929 9930 9931 9932 9933 9934 9935 
9936 9937 9938 9939 9940 9941 9942 9943 9944 
9945 9946 9947 9948 9949 9950 9951 9952 9953 
9954 9955 9956 9957 9958 9959 9960 9961 9962 
9963 9964 9965 9966 9967 9968 9969 9970 9971 
9972 9973 9974 9975 9976 9977 9978 9979 9980 
9981 9982 9983 9984 9985 9986 9987 9988 9989 
9990 9991 9992 9993 9994 9995 9996 9997 9998 
9999 10000 10001 10002 10003 10004 10005 10006 10007 
10008 10009 10010 10011 10012 10013 10014 10015 10016 
10017 10018 10019 10020 10021 10022 10023 10024 10025 
10026 10027 10028 10029 10030 10031 10032 10033 10034 
10035 10036 10037 10038 10039 10040 10041 10042 10043 
10044 10045 10046 10047 10048 10049 10050 10051 10052 
10053 10054 10055 10056 10057 10058 10059 10060 10061 
10062 10063 10064 10065 10066 10067 10068 10069 10070 
10071 10072 10073 10074 10075 10076 10077 10078 10079 
10080 10081 10082 10083 10084 10085 10086 10087 10088 
10089 10090 10091 10092 10093 10094 10095 10096 10097 
10098 10099 10100 10101 10102 10103 10104 10105 10106 
10107 10108 10109 10110 10111 10112 10113 10114 10115 
10116 10117 10118 10119 10120 10121 10122 10123 10124 
10125 10126 10127 10128 10129 10130 10131 10132 10133 
10134 10135 10136 10137 10138 10139 10140 10141 10142 
10143 10144 10145 10146 10147 10148 10149 10150 10151 
10152 10153 10154 10155 10156 10157 10158 10159 10160 
10161 10162 10163 10164 10165 10166 10167 10168 10169 
10170 10171 10172 10173 10174 10175 10176 10177 10178 
10179 10180 10181 10182 10183 10184 10185 10186 10187 
10188 10189 10190 10191 10192 10193 10194 10195 10196 
10197 10198 10199 10200 10201 10202 10203 10204 10205 
10206 10207 10208 10209 10210 10211 10212 10213 10214 
10215 10216 10217 10218 10219 10220 10221 10222 10223 
10224 10225 10226 10227 10228 10229 10230 10231 10232 
10233 10234 10235 10236 10237 10238 10239 10240 10241 
10242 10243 10244 10245 10246 10247 10248 10249 10250 
10251 10252 10253 10254 10255 10256 10257 10258 10259 
10260 10261 10262 10263 10264 10265 10266 10267 10268 
10269 10270 10271 10272 10273 10274 10275 10276 10277 
10278 10279 10280 10281 10282 10283 10284 10285 10286 
10287 10288 10289 10290 10291 10292 10293 10294 10295 
10296 10297 10298 10299 10300 10301 10302 10303 10304 
10305 10306 10307 10308 10309 10310 10311 10312 10313 
10314 10315 10316 10317 10318 10319 10320 10321 10322 
10323 10324 10325 10326 10327 10328 10329 10330 10331 
10332 10333 10334 10335 10336 10337 10338 10339 10340 
10341 10342 10343 10344 10345 10346 10347 10348 10349 
10350 10351 10352 10353 10354 10355 10356 10357 10358 
10359 10360 10361 10362 10363 10364 10365 10366 10367 
10368 10369 10370 10371 10372 10373 10374 10375 10376 
10377 10378 10379 10380 10381 10382 10383 10384 10385 
10386 10387 10388 10389 10390 10391 10392 10393 10394 
10395 10396 10397 10398 10399 10400 10401 10402 10403 
10404 10405 10406 10407 10408 10409 10410 10411 10412 
10413 10414 10415 10416 10417 10418 10419 10420 10421 
10422 10423 10424 10425 10426 10427 10428 10429 10430 
10431 10432 10433 10434 10435 10436 10437 10438 10439 
10440 10441 10442 10443 10444 10445 10446 10447 10448 
10449 10450 10451 10452 10453 10454 10455 10456 10457 
10458 10459 10460 10461 10462 10463 10464 10465 10466 
10467 10468 10469 10470 10471 10472 10473 10474 10475 
10476 10477 10478 10479 10480 10481 10482 10483 10484 
10485 10486 10487 10488 10489 10490 10491 10492 10493 
10494 10495 10496 10497 10498 10499 10500 10501 10502 
10503 10504 10505 10506 10507 10508 10509 10510 10511 
10512 10513 10514 10515 10516 10517 10518 10519 10520 
10521 10522 10523 10524 10525 10526 10527 10528 10529 
10530 10531 10532 10533 10534 10535 10536 10537 10538 
10539 10540 10541 10542 10543 10544 10545 10546 10547 
10548 10549 10550 10551 10552 10553 10554 10555 10556 
10557 10558 10559 10560 10561 10562 10563 10564 10565 
10566 10567 10568 10569 10570 10571 10572 10573 10574 
10575 10576 10577 10578 10579 10580 10581 10582 10583 
10584 10585 10586 10587 10588 10589 10590 10591 10592 
10593 10594 10595 10596 10597 10598 10599 10600 10601 
10602 10603 10604 10605 10606 10607 10608 10609 10610 
10611 10612 10613 10614 10615 10616 10617 10618 10619 
10620 10621 10622 10623 10624 10625 10626 10627 10628 
10629 10630 10631 10632 10633 10634 10635 10636 10637 
10638 10639 10640 10641 10642 10643 10644 10645 10646 
10647 10648 10649 10650 10651 10652 10653 10654 10655 
10656 10657 10658 10659 10660 10661 10662 10663 10664 
10665 10666 10667 10668 10669 10670 10671 10672 10673 
10674 10675 10676 10677 10678 10679 10680 10681 10682 
10683 10684 10685 10686 10687 10688 10689 10690 10691 
10692 10693 10694 10695 10696 10697 10698 10699 10700 
10701 10702 10703 10704 10705 10706 10707 10708 10709 
10710 10711 10712 10713 10714 10715 10716 10717 10718 
10719 10720 10721 10722 10723 10724 10725 10726 10727 
10728 10729 10730 10731 10732 10733 10734 10735 10736 
10737 10738 10739 10740 10741 10742 10743 10744 10745 
10746 10747 10748 10749 10750 10751 10752 10753 10754 
10755 10756 10757 10758 10759 10760 10761 10762 10763 
10764 10765 10766 10767 10768 10769 10770 10771 10772 
10773 10774 10775 10776 10777 10778 10779 10780 10781 
10782 10783 10784 10785 10786 10787 10788 10789 10790 
10791 10792 10793 10794 10795 10796 10797 10798 10799 
10800 10801 10802 10803 10804 10805 10806 10807 10808 
10809 10810 10811 10812 10813 10814 10815 10816 10817 
10818 10819 10820 10821 10822 10823 10824 10825 10826 
10827 10828 10829 10830 10831 10832 10833 10834 10835 
10836 10837 10838 10839 10840 10841 10842 10843 10844 
10845 10846 10847 10848 10849 10850 10851 10852 10853 
10854 10855 10856 10857 10858 10859 10860 10861 10862 
10863 10864 10865 10866 10867 10868 10869 10870 10871 
10872 10873 10874 10875 10876 10877 10878 10879 10880 
10881 10882 10883 10884 10885 10886 10887 10888 10889 
10890 10891 10892 10893 10894 10895 10896 10897 10898 
10899 10900 10901 10902 10903 10904 10905 10906 10907 
10908 10909 10910 10911 10912 10913 10914 10915 10916 
10917 10918 10919 10920 10921 10922 10923 10924 10925 
10926 10927 10928 10929 10930 10931 10932 10933 10934 
10935 10936 10937 10938 10939 10940 10941 10942 10943 
10944 10945 10946 10947 10948 10949 10950 10951 10952 
10953 10954 10955 10956 10957 10958 10959 10960 10961 
10962 10963 10964 10965 10966 10967 10968 10969 10970 
10971 10972 10973 10974 10975 10976 10977 10978 10979 
10980 10981 10982 10983 10984 10985 10986 10987 10988 
10989 10990 10991 10992 10993 10994 10995 10996 10997 
10998 10999 11000 11001 11002 11003 11004 11005 11006 
11007 11008 11009 11010 11011 11012 11013 11014 11015 
11016 11017 11018 11019 11020 11021 11022 11023 11024 
11025 11026 11027 11028 11029 11030 11031 11032 11033 
11034 11035 11036 11037 11038 11039 11040 11041 11042 
11043 11044 11045 11046 11047 11048 11049 11050 11051 
11052 11053 11054 11055 11056 11057 11058 11059 11060 
11061 11062 11063 11064 11065 11066 11067 11068 11069 
11070 11071 11072 11073 11074 11075 11076 11077 11078 
11079 11080 11081 11082 11083 11084 11085 11086 11087 
11088 11089 11090 11091 11092 11093 11094 11095 11096 
11097 11098 11099 11100 11101 11102 11103 11104 11105 
11106 11107 11108 11109 11110 11111 11112 11113 11114 
11115 11116 11117 11118 11119 11120 11121 11122 11123 
11124 11125 11126 11127 11128 11129 11130 11131 11132 
11133 11134 11135 11136 11137 11138 11139 11140 11141 
11142 11143 11144 11145 11146 11147 11148 11149 11150 
11151 11152 11153 11154 11155 11156 11157 11158 11159 
11160 11161 11162 11163 11164 11165 11166 11167 11168 
11169 11170 11171 11172 11173 11174 11175 11176 11177 
11178 11179 11180 11181 11182 11183 11184 11185 11186 
11187 11188 11189 11190 11191 11192 11193 11194 11195 
11196 11197 11198 11199 11200 11201 11202 11203 11204 
11205 11206 11207 11208 11209 11210 11211 11212 11213 
11214 11215 11216 11217 11218 11219 11220 11221 11222 
11223 11224 11225 11226 11227 11228 11229 11230 11231 
11232 11233 11234 11235 11236 11237 11238 11239 11240 
11241 11242 11243 11244 11245 11246 11247 11248 11249 
11250 11251 11252 11253 11254 11255 11256 11257 11258 
11259 11260 11261 11262 11263 11264 11265 11266 11267 
11268 11269 11270 11271 11272 11273 11274 11275 11276 
11277 11278 11279 11280 11281 11282 11283 11284 11285 
11286 11287 11288 11289 11290 11291 11292 11293 11294 
11295 11296 11297 11298 11299 11300 11301 11302 11303 
11304 11305 11306 11307 11308 11309 11310 11311 11312 
11313 11314 11315 11316 11317 11318 11319 11320 11321 
11322 11323 11324 11325 11326 11327 11328 11329 11330 
11331 11332 11333 11334 11335 11336 11337 11338 11339 
11340 11341 11342 11343 11344 11345 11346 11347 11348 
11349 11350 11351 11352 11353 11354 11355 11356 11357 
11358 11359 11360 11361 11362 11363 11364 11365 11366 
11367 11368 11369 11370 11371 11372 11373 11374 11375 
11376 11377 11378 11379 11380 11381 11382 11383 11384 
11385 11386 11387 11388 11389 11390 11391 11392 11393 
11394 11395 11396 11397 11398 11399 11400 11401 11402 
11403 11404 11405 11406 11407 11408 11409 11410 11411 
11412 11413 11414 11415 11416 11417 11418 11419 11420 
11421 11422 11423 11424 11425 11426 11427 11428 11429 
11430 11431 11432 11433 11434 11435 11436 11437 11438 
11439 11440 11441 11442 11443 11444 11445 11446 11447 
11448 11449 11450 11451 11452 11453 11454 11455 11456 
11457 11458 11459 11460 11461 11462 11463 11464 11465 
11466 11467 11468 11469 11470 11471 11472 11473 11474 
11475 11476 11477 11478 11479 11480 11481 11482 11483 
11484 11485 11486 11487 11488 11489 11490 11491 11492 
11493 11494 11495 11496 11497 11498 11499 11500 11501 
11502 11503 11504 11505 11506 11507 11508 11509 11510 
11511 11512 11513 11514 11515 11516 11517 11518 11519 
11520 11521 11522 11523 11524 11525 11526 11527 11528 
11529 11530 11531 11532 11533 11534 11535 11536 11537 
11538 11539 11540 11541 11542 11543 11544 11545 11546 
11547 11548 11549 11550 11551 11552 11553 11554 11555 
11556 11557 11558 11559 11560 11561 11562 11563 11564 
11565 11566 11567 11568 11569 11570 11571 11572 11573 
11574 11575 11576 11577 11578 11579 11580 11581 11582 
11583 11584 11585 11586 11587 11588 11589 11590 11591 
11592 11593 11594 11595 11596 11597 11598 11599 11600 
11601 11602 11603 11604 11605 11606 11607 11608 11609 
11610 11611 11612 11613 11614 11615 11616 11617 11618 
11619 11620 11621 11622 11623 11624 11625 11626 11627 
11628 11629 11630 11631 11632 11633 11634 11635 11636 
11637 11638 11639 11640 11641 11642 11643 11644 11645 
11646 11647 11648 11649 11650 11651 11652 11653 11654 
11655 11656 11657 11658 11659 11660 11661 11662 11663 
11664 11665 11666 11667 11668 11669 11670 11671 11672 
11673 11674 11675 11676 11677 11678 11679 11680 11681 
11682 11683 11684 11685 11686 11687 11688 11689 11690 
11691 11692 11693 11694 11695 11696 11697 11698 11699 
11700 11701 11702 11703 11704 11705 11706 11707 11708 
11709 11710 11711 11712 11713 11714 11715 11716 11717 
11718 11719 11720 11721 11722 11723 11724 11725 11726 
11727 11728 11729 11730 11731 11732 11733 11734 11735 
11736 11737 11738 11739 11740 11741 11742 11743 11744 
11745 11746 11747 11748 11749 11750 11751 11752 11753 
11754 11755 11756 11757 11758 11759 11760 11761 11762 
11763 11764 11765 11766 11767 11768 11769 11770 11771 
11772 11773 11774 11775 11776 11777 11778 11779 11780 
11781 11782 11783 11784 11785 11786 11787 11788 11789 
11790 11791 11792 11793 11794 11795 11796 11797 11798 
11799 11800 11801 11802 11803 11804 11805 11806 11807 
11808 11809 11810 11811 11812 11813 11814 11815 11816 
11817 11818 11819 11820 11821 11822 11823 11824 11825 
11826 11827 11828 11829 11830 11831 11832 11833 11834 
11835 11836 11837 11838 11839 11840 11841 11842 11843 
11844 11845 11846 11847 11848 11849 11850 11851 11852 
11853 11854 11855 11856 11857 11858 11859 11860 11861 
11862 11863 11864 11865 11866 11867 11868 11869 11870 
11871 11872 11873 11874 11875 11876 11877 11878 11879 
11880 11881 11882 11883 11884 11885 11886 11887 11888 
11889 11890 11891 11892 11893 11894 11895 11896 11897 
11898 11899 11900 11901 11902 11903 11904 11905 11906 
11907 11908 11909 11910 11911 11912 11913 11914 11915 
11916 11917 11918 11919 11920 11921 11922 11923 11924 
11925 11926 11927 11928 11929 11930 11931 11932 11933 
11934 11935 11936 11937 11938 11939 11940 11941 11942 
11943 11944 11945 11946 11947 11948 11949 11950 11951 
11952 11953 11954 11955 11956 11957 11958 11959 11960 
11961 11962 11963 11964 11965 11966 11967 11968 11969 
11970 11971 11972 11973 11974 11975 11976 11977 11978 
11979 11980 11981 11982 11983 11984 11985 11986 11987 
11988 11989 11990 11991 11992 11993 11994 11995 11996 
11997 11998 11999 12000 12001 12002 12003 12004 12005 
12006 12007 12008 12009 12010 12011 12012 12013 12014 
12015 12016 12017 12018 12019 12020 12021 12022 12023 
12024 12025 12026 12027 12028 12029 12030 12031 12032 
12033 12034 12035 12036 12037 12038 12039 12040 12041 
12042 12043 12044 12045 12046 12047 12048 12049 12050 
12051 12052 12053 12054 12055 12056 12057 12058 12059 
12060 12061 12062 12063 12064 12065 12066 12067 12068 
12069 12070 12071 12072 12073 12074 12075 12076 12077 
12078 12079 12080 12081 12082 12083 12084 12085 12086 
12087 12088 12089 12090 12091 12092 12093 12094 12095 
12096 12097 12098 12099 12100 12101 12102 12103 12104 
12105 12106 12107 12108 12109 12110 12111 12112 12113 
12114 12115 12116 12117 12118 12119 12120 12121 12122 
12123 12124 12125 12126 12127 12128 12129 12130 12131 
12132 12133 12134 12135 12136 12137 12138 12139 12140 
12141 12142 12143 12144 12145 12146 12147 12148 12149 
12150 12151 12152 12153 12154 12155 12156 12157 12158 
12159 12160 12161 12162 12163 12164 12165 12166 12167 
12168 12169 12170 12171 12172 12173 12174 12175 12176 
12177 12178 12179 12180 12181 12182 12183 12184 12185 
12186 12187 12188 12189 12190 12191 12192 12193 12194 
12195 12196 12197 12198 12199 12200 12201 12202 12203 
12204 12205 12206 12207 12208 12209 12210 12211 12212 
12213 12214 12215 12216 12217 12218 12219 12220 12221 
12222 12223 12224 12225 12226 12227 12228 12229 12230 
12231 12232 12233 12234 12235 12236 12237 12238 12239 
12240 12241 12242 12243 12244 12245 12246 12247 12248 
12249 12250 12251 12252 12253 12254 12255 12256 12257 
12258 12259 12260 12261 12262 12263 12264 12265 12266 
12267 12268 12269 12270 12271 12272 12273 12274 12275 
12276 12277 12278 12279 12280 12281 12282 12283 12284 
12285 12286 12287 12288 12289 12290 12291 12292 12293 
12294 12295 12296 12297 12298 12299 12300 12301 12302 
12303 12304 12305 12306 12307 12308 12309 12310 12311 
12312 12313 12314 12315 12316 12317 12318 12319 12320 
12321 12322 12323 12324 12325 12326 12327 12328 12329 
12330 12331 12332 12333 12334 12335 12336 12337 12338 
12339 12340 12341 12342 12343 12344 12345 12346 12347 
12348 12349 12350 12351 12352 12353 12354 12355 12356 
12357 12358 12359 12360 12361 12362 12363 12364 12365 
12366 12367 12368 12369 12370 12371 12372 12373 12374 
12375 12376 12377 12378 12379 12380 12381 12382 12383 
12384 12385 12386 12387 12388 12389 12390 12391 12392 
12393 12394 12395 12396 12397 12398 12399 12400 12401 
12402 12403 12404 12405 12406 12407 12408 12409 12410 
      </DataArray>
      <DataArray type="Int32" Name="offsets" format="ascii">
9
18
27
36
45
54
63
72
81
90
99
108
117
126
135
144
153
162
171
180
189
198
207
216
225
234
243
252
261
270
279
288
297
306
315
324
333
342
351
360
369
378
387
396
405
414
423
432
441
450
459
468
477
486
495
504
513
522
531
540
549
558
567
576
585
594
603
612
621
630
639
648
657
666
675
684
693
702
711
720
729
738
747
756
765
774
783
792
801
810
819
828
837
846
855
864
873
882
891
900
909
918
927
936
945
954
963
972
981
990
999
1008
1017
1026
1035
1044
1053
1062
1071
1080
1089
1098
1107
1116
1125
1134
1143
1152
1161
1170
1179
1188
1197
1206
1215
1224
1233
1242
1251
1260
1269
1278
1287
1296
1305
1314
1323
1332
1341
1350
1359
1368
1377
1386
1395
1404
1413
1422
1431
1440
1449
1458
1467
1476
1485
1494
1503
1512
1521
1530
1539
1548
1557
1566
1575
1584
1593
1602
1611
1620
1629
1638
1647
1656
1665
1674
1683
1692
1701
1710
1719
1728
1737
1746
1755
1764
1773
1782
1791
1800
1809
1818
1827
1836
1845
1854
1863
1872
1881
1890
1899
1908
1917
1926
1935
1944
1953
1962
1971
1980
1989
1998
2007
2016
2025
2034
2043
2052
2061
2070
2079
2088
2097
2106
2115
2124
2133
2142
2151
2160
2169
2178
2187
2196
2205
2214
2223
2232
2241
2250
2259
2268
2277
2286
2295
2304
2313
2322
2331
2340
2349
2358
2367
2376
2385
2394
2403
2412
2421
2430
2439
2448
2457
2466
2475
2484
2493
2502
2511
2520
2529
2538
2547
2556
2565
2574
2583
2592
2601
2610
2619
2628
2637
2646
2655
2664
2673
2682
2691
2700
2709
2718
2727
2736
2745
2754
2763
2772
2781
2790
2799
2808
2817
2826
2835
2844
2853
2862
2871
2880
2889
2898
2907
2916
2925
2934
2943
2952
2961
2970
2979
2988
2997
3006
3015
3024
3033
3042
3051
3060
3069
3078
3087
3096
3105
3114
3123
3132
3141
3150
3159
3168
3177
3186
3195
3204
3213
3222
3231
3240
3249
3258
3267
3276
3285
3294
3303
3312
3321
3330
3339
3348
3357
3366
3375
3384
3393
3402
3411
3420
3429
3438
3447
3456
3465
3474
3483
3492
3501
3510
3519
3528
3537
3546
3555
3564
3573
3582
3591
3600
3609
3618
3627
3636
3645
3654
3663
3672
3681
3690
3699
3708
3717
3726
3735
3744
3753
3762
3771
3780
3789
3798
3807
3816
3825
3834
3843
3852
3861
3870
3879
3888
3897
3906
3915
3924
3933
3942
3951
3960
3969
3978
3987
3996
4005
4014
4023
4032
4041
4050
4059
4068
4077
4086
4095
4104
4113
4122
4131
4140
4149
4158
4167
4176
4185
4194
4203
4212
4221
4230
4239
4248
4257
4266
4275
4284
4293
4302
4311
4320
4329
4338
4347
4356
4365
4374
4383
4392
4401
4410
4419
4428
4437
4446
4455
4464
4473
4482
4491
4500
4509
4518
4527
4536
4545
4554
4563
4572
4581
4590
4599
4608
4617
4626
4635
4644
4653
4662
4671
4680
4689
4698
4707
4716
4725
4734
4743
4752
4761
4770
4779
4788
4797
4806
4815
4824
4833
4842
4851
4860
4869
4878
4887
4896
4905
4914
4923
4932
4941
4950
4959
4968
4977
4986
4995
5004
5013
5022
5031
5040
5049
5058
5067
5076
5085
5094
5103
5112
5121
5130
5139
5148
5157
5166
5175
5184
5193
5202
5211
5220
5229
5238
5247
5256
5265
5274
5283
5292
5301
5310
5319
5328
5337
5346
5355
5364
5373
5382
5391
5400
5409
5418
5427
5436
5445
5454
5463
5472
5481
5490
5499
5508
5517
5526
5535
5544
5553
5562
5571
5580
5589
5598
5607
5616
5625
5634
5643
5652
5661
5670
5679
5688
5697
5706
5715
5724
5733
5742
5751
5760
5769
5778
5787
5796
5805
5814
5823
5832
5841
5850
5859
5868
5877
5886
5895
5904
5913
5922
5931
5940
5949
5958
5967
5976
5985
5994
6003
6012
6021
6030
6039
6048
6057
6066
6075
6084
6093
6102
6111
6120
6129
6138
6147
6156
6165
6174
6183
6192
6201
6210
6219
6228
6237
6246
6255
6264
6273
6282
6291
6300
6309
6318
6327
6336
6345
6354
6363
6372
6381
6390
6399
6408
6417
6426
6435
6444
6453
6462
6471
6480
6489
6498
6507
6516
6525
6534
6543
6552
6561
6570
6579
6588
6597
6606
6615
6624
6633
6642
6651
6660
6669
6678
6687
6696
6705
6714
6723
6732
6741
6750
6759
6768
6777
6786
6795
6804
6813
6822
6831
6840
6849
6858
6867
6876
6885
6894
6903
6912
6921
6930
6939
6948
6957
6966
6975
6984
6993
7002
7011
7020
7029
7038
7047
7056
7065
7074
7083
7092
7101
7110
7119
7128
7137
7146
7155
7164
7173
7182
7191
7200
7209
7218
7227
7236
7245
7254
7263
7272
7281
7290
7299
7308
7317
7326
7335
7344
7353
7362
7371
7380
7389
7398
7407
7416
7425
7434
7443
7452
7461
7470
7479
7488
7497
7506
7515
7524
7533
7542
7551
7560
7569
7578
7587
7596
7605
7614
7623
7632
7641
7650
7659
7668
7677
7686
7695
7704
7713
7722
7731
7740
7749
7758
7767
7776
7785
7794
7803
7812
7821
7830
7839
7848
7857
7866
7875
7884
7893
7902
7911
7920
7929
7938
7947
7956
7965
7974
7983
7992
8001
8010
8019
8028
8037
8046
8055
8064
8073
8082
8091
8100
8109
8118
8127
8136
8145
8154
8163
8172
8181
8190
8199
8208
8217
8226
8235
8244
8253
8262
8271
8280
8289
8298
8307
8316
8325
8334
8343
8352
8361
8370
8379
8388
8397
8406
8415
8424
8433
8442
8451
8460
8469
8478
8487
8496
8505
8514
8523
8532
8541
8550
8559
8568
8577
8586
8595
8604
8613
8622
8631
8640
8649
8658
8667
8676
8685
8694
8703
8712
8721
8730
8739
8748
8757
8766
8775
8784
8793
8802
8811
8820
8829
8838
8847
8856
8865
8874
8883
8892
8901
8910
8919
8928
8937
8946
8955
8964
8973
8982
8991
9000
9009
9018
9027
9036
9045
9054
9063
9072
9081
9090
9099
9108
9117
9126
9135
9144
9153
9162
9171
9180
9189
9198
9207
9216
9225
9234
9243
9252
9261
9270
9279
9288
9297
9306
9315
9324
9333
9342
9351
9360
9369
9378
9387
9396
9405
9414
9423
9432
9441
9450
9459
9468
9477
9486
9495
9504
9513
9522
9531
9540
9549
9558
9567
9576
9585
9594
9603
9612
9621
9630
9639
9648
9657
9666
9675
9684
9693
9702
9711
9720
9729
9738
9747
9756
9765
9774
9783
9792
9801
9810
9819
9828
9837
9846
9855
9864
9873
9882
9891
9900
9909
9918
9927
9936
9945
9954
9963
9972
9981
9990
9999
10008
10017
10026
10035
10044
10053
10062
10071
10080
10089
10098
10107
10116
10125
10134
10143
10152
10161
10170
10179
10188
10197
10206
10215
10224
10233
10242
10251
10260
10269
10278
10287
10296
10305
10314
10323
10332
10341
10350
10359
10368
10377
10386
10395
10404
10413
10422
10431
10440
10449
10458
10467
10476
10485
10494
10503
10512
10521
10530
10539
10548
10557
10566
10575
10584
10593
10602
10611
10620
10629
10638
10647
10656
10665
10674
10683
10692
10701
10710
10719
10728
10737
10746
10755
10764
10773
10782
10791
10800
10809
10818
10827
10836
10845
10854
10863
10872
10881
10890
10899
10908
10917
10926
10935
10944
10953
10962
10971
10980
10989
10998
11007
11016
11025
11034
11043
11052
11061
11070
11079
11088
11097
11106
11115
11124
11133
11142
11151
11160
11169
11178
11187
11196
11205
11214
11223
11232
11241
11250
11259
11268
11277
11286
11295
11304
11313
11322
11331
11340
11349
11358
11367
11376
11385
11394
11403
11412
11421
11430
11439
11448
11457
11466
11475
11484
11493
11502
11511
11520
11529
11538
11547
11556
11565
11574
11583
11592
11601
11610
11619
11628
11637
11646
11655
11664
11673
11682
11691
11700
11709
11718
11727
11736
11745
11754
11763
11772
11781
11790
11799
11808
11817
11826
11835
11844
11853
11862
11871
11880
11889
11898
11907
11916
11925
11934
11943
11952
11961
11970
11979
11988
11997
12006
12015
12024
12033
12042
12051
12060
12069
12078
12087
12096
12105
12114
12123
12132
12141
12150
12159
12168
12177
12186
12195
12204
12213
12222
12231
12240
12249
12258
12267
12276
12285
12294
12303
12312
12321
12330
12339
12348
12357
12366
12375
12384
12393
12402
12411
      </DataArray>
      <DataArray type="UInt8" Name="types" format="ascii">
70
70
70
70
70
70
70
70
70
70
70
70
70
70
70
70
70
70
70
70
70
70
70
70
70
70
70
70
70
70
70
70
70
70
70
70
70
70
70
70
70
70
70
70
70
70
70
70
70
70
70
70
70
70
70
70
70
70
70
70
70
70
70
70
70
70
70
70
70
70
70
70
70
70
70
70
70
70
70
70
70
70
70
70
70
70
70
70
70
70
70
70
70
70
70
70
70
70
70
70
70
70
70
70
70
70
70
70
70
70
70
70
70
70
70
70
70
70
70
70
70
70
70
70
70
70
70
70
70
70
70
70
70
70
70
70
70
70
70
70
70
70
70
70
70
70
70
70
70
70
70
70
70
70
70
70
70
70
70
70
70
70
70
70
70
70
70
70
70
70
70
70
70
70
70
70
70
70
70
70
70
70
70
70
70
70
70
70
70
70
70
70
70
70
70
70
70
70
70
70
70
70
70
70
70
70
70
70
70
70
70
70
70
70
70
70
70
70
70
70
70
70
70
70
70
70
70
70
70
70
70
70
70
70
70
70
70
70
70
70
70
70
70
70
70
70
70
70
70
70
70
70
70
70
70
70
70
70
70
70
70
70
70
70
70
70
70
70
70
70
70
70
70
70
70
70
70
70
70
70
70
70
70
70
70
70
70
70
70
70
70
70
70
70
70
70
70
70
70
70
70
70
70
70
70
70
70
70
70
70
70
70
70
70
70
70
70
70
70
70
70
70
70
70
70
70
70
70
70
70
70
70
70
70
70
70
70
70
70
70
70
70
70
70
70
70
70
70
70
70
70
70
70
70
70
70
70
70
70
70
70
70
70
70
70
70
70
70
70
70
70
70
70
70
70
70
70
70
70
70
70
70
70
70
70
70
70
70
70
70
70
70
70
70
70
70
70
70
70
70
70
70
70
70
70
70
70
70
70
70
70
70
70
70
70
70
70
70
70
70
70
70
70
70
70
70
70
70
70
70
70
70
70
70
70
70
70
70
70
70
70
70
70
70
70
70
70
70
70
70
70
70
70
70
70
70
70
70
70
70
70
70
70
70
70
70
70
70
70
70
70
70
70
70
70
70
70
70
70
70
70
70
70
70
70
70
70
70
70
70
70
70
70
70
70
70
70
70
70
70
70
70
70
70
70
70
70
70
70
70
70
70
70
70
70
70
70
70
70
70
70
70
70
70
70
70
70
70
70
70
70
70
70
70
70
70
70
70
70
70
70
70
70
70
70
70
70
70
70
70
70
70
70
70
70
70
70
70
70
70
70
70
70
70
70
70
70
70
70
70
70
70
70
70
70
70
70
70
70
70
70
70
70
70
70
70
70
70
70
70
70
70
70
70
70
70
70
70
70
70
70
70
70
70
70
70
70
70
70
70
70
70
70
70
70
70
70
70
70
70
70
70
70
70
70
70
70
70
70
70
70
70
70
70
70
70
70
70
70
70
70
70
70
70
70
70
70
70
70
70
70
70
70
70
70
70
70
70
70
70
70
70
70
70
70
70
70
70
70
70
70
70
70
70
70
70
70
70
70
70
70
70
70
70
70
70
70
70
70
70
70
70
70
70
70
70
70
70
70
70
70
70
70
70
70
70
70
70
70
70
70
70
70
70
70
70
70
70
70
70
70
70
70
70
70
70
70
70
70
70
70
70
70
70
70
70
70
70
70
70
70
70
70
70
70
70
70
70
70
70
70
70
70
70
70
70
70
70
70
70
70
70
70
70
70
70
70
70
70
70
70
70
70
70
70
70
70
70
70
70
70
70
70
70
70
70
70
70
70
70
70
70
70
70
70
70
70
70
70
70
70
70
70
70
70
70
70
70
70
70
70
70
70
70
70
70
70
70
70
70
70
70
70
70
70
70
70
70
70
70
70
70
70
70
70
70
70
70
70
70
70
70
70
70
70
70
70
70
70
70
70
70
70
70
70
70
70
70
70
70
70
70
70
70
70
70
70
70
70
70
70
70
70
70
70
70
70
70
70
70
70
70
70
70
70
70
70
70
70
70
70
70
70
70
70
70
70
70
70
70
70
70
70
70
70
70
70
70
70
70
70
70
70
70
70
70
70
70
70
70
70
70
70
70
70
70
70
70
70
70
70
70
70
70
70
70
70
70
70
70
70
70
70
70
70
70
70
70
70
70
70
70
70
70
70
70
70
70
70
70
70
70
70
70
70
70
70
70
70
70
70
70
70
70
70
70
70
70
70
70
70
70
70
70
70
70
70
70
70
70
70
70
70
70
70
70
70
70
70
70
70
70
70
70
70
70
70
70
70
70
70
70
70
70
70
70
70
70
70
70
70
70
70
70
70
70
70
70
70
70
70
70
70
70
70
70
70
70
70
70
70
70
70
70
70
70
70
70
70
70
70
70
70
70
70
70
70
70
70
70
70
70
70
70
70
70
70
70
70
70
70
70
70
70
70
70
70
70
70
70
70
70
70
70
70
70
70
70
70
70
70
70
70
70
70
70
70
70
70
70
70
70
70
70
70
70
70
70
70
70
70
70
70
70
70
70
70
70
70
70
70
70
70
70
70
70
70
70
70
70
70
70
70
70
70
70
70
70
70
70
70
70
70
70
70
70
70
70
70
70
70
70
70
70
70
70
70
70
70
70
70
70
70
70
70
70
70
70
70
70
70
70
70
70
70
70
70
70
70
70
70
70
70
70
70
70
70
70
70
70
70
70
70
70
70
70
70
70
70
70
70
70
70
70
70
70
70
70
70
70
70
70
70
70
70
70
70
70
70
70
70
70
70
70
70
70
70
70
70
70
70
70
70
70
70
70
70
70
70
70
70
70
70
70
70
70
70
70
70
70
70
70
70
70
70
70
70
70
70
70
70
70
70
70
70
70
70
70
70
70
70
70
70
70
70
70
70
70
70
70
70
70
70
70
70
70
70
70
70
70
70
70
70
70
70
70
70
70
70
70
70
70
70
70
70
70
70
70
70
70
70
70
70
70
70
70
70
70
70
70
70
70
70
70
70
70
70
70
70
70
70
70
70
70
70
70
70
70
70
70
70
70
70
70
70
70
70
70
70
70
70
70
70
70
70
70
70
70
70
70
70
70
70
70
70
70
70
70
70
70
70
70
70
70
70
70
70
70
70
      </DataArray>
    </Cells>
    <PointData>
      <DataArray type="Float64" NumberOfComponents="3" Name="Displacement" format="ascii">
0 0 0
-0.0153856 -0.00764027 -0.00764027
-0.00917942 -0.00257058 -0.00257058
0 0 0
-0.00837618 -0.00477025 -0.00477025
-0.0115918 -0.00461363 -0.00461363
-0.00445338 -0.00091881 -0.00091881
0 0 0
-0.00552714 -0.00203537 -0.00203537
-0.0153856 -0.00764027 -0.00764027
-0.028696 -0.0132479 -0.0132479
-0.019122 -0.00743118 -0.00743118
-0.00917942 -0.00257058 -0.00257058
-0.0220588 -0.0103381 -0.0103381
-0.0236701 -0.0100446 -0.0100446
-0.0141033 -0.00476603 -0.00476603
-0.0115918 -0.00461363 -0.00461363
-0.0176651 -0.00724803 -0.00724803
-0.028696 -0.0132479 -0.0132479
-0.0421334 -0.0200155 -0.0200155
-0.0291554 -0.0141125 -0.0141125
-0.019122 -0.00743118 -0.00743118
-0.03539 -0.0164328 -0.0164328
-0.0355743 -0.0168395 -0.0168395
-0.0241444 -0.0105362 -0.0105362
-0.0236701 -0.0100446 -0.0100446
-0.0296371 -0.0132198 -0.0132198
-0.0421334 -0.0200155 -0.0200155
-0.0556878 -0.0287322 -0.0287322
-0.0391426 -0.0228208 -0.0228208
-0.0291554 -0.0141125 -0.0141125
-0.0488999 -0.0241097 -0.0241097
-0.0473821 -0.0255412 -0.0255412
-0.034157 -0.0182014 -0.0182014
-0.0355743 -0.0168395 -0.0168395
-0.0414858 -0.020934 -0.020934
-0.0556878 -0.0287322 -0.0287322
-0.0693214 -0.0395773 -0.0395773
-0.0490519 -0.0337011 -0.0337011
-0.0391426 -0.0228208 -0.0228208
-0.0624985 -0.0338813 -0.0338813
-0.0591569 -0.0364057 -0.0364057
-0.0441063 -0.0279833 -0.0279833
-0.0473821 -0.0255412 -0.0255412
-0.0532726 -0.0306952 -0.0306952
-0.0693214 -0.0395773 -0.0395773
-0.082968 -0.0526725 -0.0526725
-0.058905 -0.0468364 -0.0468364
-0.0490519 -0.0337011 -0.0337011
-0.0761452 -0.0458409 -0.0458409
-0.0709011 -0.0495139 -0.0495139
-0.0539847 -0.0399845 -0.0399845
-0.0591569 -0.0364057 -0.0364057
-0.0650329 -0.0426768 -0.0426768
-0.082968 -0.0526725 -0.0526725
-0.0966053 -0.0680335 -0.0680335
-0.0687079 -0.0622497 -0.0622497
-0.058905 -0.0468364 -0.0468364
-0.0897892 -0.060069 -0.060069
-0.0826154 -0.0648998 -0.0648998
-0.0638122 -0.0542578 -0.0542578
-0.0709011 -0.0495139 -0.0495139
-0.0767623 -0.0569213 -0.0569213
-0.0966053 -0.0680335 -0.0680335
-0.11021 -0.0856747 -0.0856747
-0.0784699 -0.0799467 -0.0799467
-0.0687079 -0.0622497 -0.0622497
-0.103413 -0.0765692 -0.0765692
-0.094294 -0.0825673 -0.0825673
-0.0735937 -0.070813 -0.070813
-0.0826154 -0.0648998 -0.0648998
-0.0884594 -0.0734486 -0.0734486
-0.11021 -0.0856747 -0.0856747
-0.123773 -0.105587 -0.105587
-0.0881947 -0.09992 -0.09992
-0.0784699 -0.0799467 -0.0799467
-0.116997 -0.0953475 -0.0953475
-0.105935 -0.10251 -0.10251
-0.0833368 -0.0896494 -0.0896494
-0.094294 -0.0825673 -0.0825673
-0.100119 -0.0922549 -0.0922549
-0.123773 -0.105587 -0.105587
-0.13729 -0.127762 -0.127762
-0.097886 -0.122159 -0.122159
-0.0881947 -0.09992 -0.09992
-0.130538 -0.116392 -0.116392
-0.117537 -0.124718 -0.124718
-0.0930444 -0.110757 -0.110757
-0.105935 -0.10251 -0.10251
-0.111741 -0.113332 -0.113332
-0.13729 -0.127762 -0.127762
-0.150758 -0.152186 -0.152186
-0.107546 -0.146652 -0.146652
-0.097886 -0.122159 -0.122159
-0.14403 -0.139693 -0.139693
-0.1291 -0.149177 -0.149177
-0.10272 -0.134124 -0.134124
-0.117537 -0.124718 -0.124718
-0.123323 -0.136667 -0.136667
-0.150758 -0.152186 -0.152186
-0.164178 -0.178849 -0.178849
-0.117177 -0.173385 -0.173385
-0.107546 -0.146652 -0.146652
-0.157474 -0.165238 -0.165238
-0.140624 -0.175876 -0.175876
-0.112365 -0.159739 -0.159739
-0.1291 -0.149177 -0.149177
-0.134867 -0.162248 -0.162248
-0.164178 -0.178849 -0.178849
-0.17755 -0.207736 -0.207736
-0.12678 -0.202346 -0.202346
-0.117177 -0.173385 -0.173385
-0.17087 -0.193015 -0.193015
-0.152112 -0.204802 -0.204802
-0.121982 -0.187588 -0.187588
-0.140624 -0.175876 -0.175876
-0.146373 -0.190062 -0.190062
-0.17755 -0.207736 -0.207736
-0.190877 -0.238836 -0.238836
-0.136359 -0.233524 -0.233524
-0.12678 -0.202346 -0.202346
-0.184219 -0.22301 -0.22301
-0.163564 -0.235942 -0.235942
-0.131573 -0.217659 -0.217659
-0.152112 -0.204802 -0.204802
-0.157843 -0.220096 -0.220096
-0.190877 -0.238836 -0.238836
-0.204159 -0.272137 -0.272137
-0.145914 -0.266904 -0.266904
-0.136359 -0.233524 -0.233524
-0.197523 -0.255212 -0.255212
-0.174983 -0.269284 -0.269284
-0.141139 -0.249939 -0.249939
-0.163564 -0.235942 -0.235942
-0.169278 -0.252339 -0.252339
-0.204159 -0.272137 -0.272137
-0.217399 -0.307626 -0.307626
-0.155447 -0.302477 -0.302477
-0.145914 -0.266904 -0.266904
-0.210784 -0.289609 -0.289609
-0.186369 -0.304816 -0.304816
-0.150683 -0.284417 -0.284417
-0.174983 -0.269284 -0.269284
-0.18068 -0.286777 -0.286777
-0.217399 -0.307626 -0.307626
-0.230599 -0.345292 -0.345292
-0.16496 -0.340228 -0.340228
-0.155447 -0.302477 -0.302477
-0.224004 -0.326188 -0.326188
-0.197725 -0.342526 -0.342526
-0.160206 -0.321081 -0.321081
-0.186369 -0.304816 -0.304816
-0.192051 -0.3234 -0.3234
-0.230599 -0.345292 -0.345292
-0.243759 -0.385122 -0.385122
-0.174455 -0.380147 -0.380147
-0.16496 -0.340228 -0.340228
-0.237184 -0.364937 -0.364937
-0.209053 -0.382402 -0.382402
-0.16971 -0.359917 -0.359917
-0.197725 -0.342526 -0.342526
-0.203393 -0.362194 -0.362194
-0.243759 -0.385122 -0.385122
-0.256883 -0.427105 -0.427105
-0.183934 -0.422221 -0.422221
-0.174455 -0.380147 -0.380147
-0.250325 -0.405845 -0.405845
-0.220354 -0.424432 -0.424432
-0.179196 -0.400915 -0.400915
-0.209053 -0.382402 -0.382402
-0.214707 -0.403148 -0.403148
-0.256883 -0.427105 -0.427105
-0.26997 -0.471228 -0.471228
-0.193397 -0.466438 -0.466438
-0.183934 -0.422221 -0.422221
-0.263431 -0.448899 -0.448899
-0.231629 -0.468603 -0.468603
-0.188667 -0.444062 -0.444062
-0.220354 -0.424432 -0.424432
-0.225994 -0.44625 -0.44625
-0.26997 -0.471228 -0.471228
-0.283024 -0.517479 -0.517479
-0.202847 -0.512786 -0.512786
-0.193397 -0.466438 -0.466438
-0.276501 -0.494088 -0.494088
-0.242881 -0.514905 -0.514905
-0.198123 -0.489347 -0.489347
-0.231629 -0.468603 -0.468603
-0.237258 -0.491488 -0.491488
-0.283024 -0.517479 -0.517479
-0.296045 -0.565847 -0.565847
-0.212285 -0.561254 -0.561254
-0.202847 -0.512786 -0.512786
-0.289539 -0.541399 -0.541399
-0.25411 -0.563324 -0.563324
-0.207567 -0.536756 -0.536756
-0.242881 -0.514905 -0.514905
-0.248498 -0.53885 -0.53885
-0.296045 -0.565847 -0.565847
-0.309036 -0.61632 -0.61632
-0.221713 -0.611829 -0.611829
-0.212285 -0.561254 -0.561254
-0.302544 -0.590821 -0.590821
-0.265319 -0.613849 -0.613849
-0.217 -0.586279 -0.586279
-0.25411 -0.563324 -0.563324
-0.259717 -0.588324 -0.588324
-0.309036 -0.61632 -0.61632
-0.321997 -0.668886 -0.668886
-0.231132 -0.664499 -0.664499
-0.221713 -0.611829 -0.611829
-0.31552 -0.642342 -0.642342
-0.276509 -0.666468 -0.666468
-0.226423 -0.637903 -0.637903
-0.265319 -0.613849 -0.613849
-0.270917 -0.639897 -0.639897
-0.321997 -0.668886 -0.668886
-0.33493 -0.723532 -0.723532
-0.240544 -0.719252 -0.719252
-0.231132 -0.664499 -0.664499
-0.328467 -0.695949 -0.695949
-0.287682 -0.721169 -0.721169
-0.235839 -0.691616 -0.691616
-0.276509 -0.666468 -0.666468
-0.282098 -0.693559 -0.693559
-0.33493 -0.723532 -0.723532
-0.347837 -0.780247 -0.780247
-0.24995 -0.776076 -0.776076
-0.240544 -0.719252 -0.719252
-0.341387 -0.751631 -0.751631
-0.298838 -0.77794 -0.77794
-0.245247 -0.747406 -0.747406
-0.287682 -0.721169 -0.721169
-0.293262 -0.749297 -0.749297
-0.347837 -0.780247 -0.780247
-0.360719 -0.839018 -0.839018
-0.259351 -0.83496 -0.83496
-0.24995 -0.776076 -0.776076
-0.354281 -0.809376 -0.809376
-0.309979 -0.836769 -0.836769
-0.254651 -0.805261 -0.805261
-0.298838 -0.77794 -0.77794
-0.30441 -0.807098 -0.807098
-0.360719 -0.839018 -0.839018
-0.373577 -0.899835 -0.899835
-0.26875 -0.89589 -0.89589
-0.259351 -0.83496 -0.83496
-0.367151 -0.869172 -0.869172
-0.321108 -0.897644 -0.897644
-0.264051 -0.86517 -0.86517
-0.309979 -0.836769 -0.836769
-0.315545 -0.866951 -0.866951
-0.373577 -0.899835 -0.899835
-0.386413 -0.962684 -0.962684
-0.278146 -0.958856 -0.958856
-0.26875 -0.89589 -0.89589
-0.379998 -0.931006 -0.931006
-0.332224 -0.960553 -0.960553
-0.273448 -0.92712 -0.92712
-0.321108 -0.897644 -0.897644
-0.326667 -0.928845 -0.928845
-0.386413 -0.962684 -0.962684
-0.399228 -1.02755 -1.02755
-0.287543 -1.02384 -1.02384
-0.278146 -0.958856 -0.958856
-0.392823 -0.994867 -0.994867
-0.343329 -1.02548 -1.02548
-0.282845 -0.991098 -0.991098
-0.332224 -0.960553 -0.960553
-0.337778 -0.992766 -0.992766
-0.399228 -1.02755 -1.02755
-0.412024 -1.09443 -1.09443
-0.29694 -1.09084 -1.09084
-0.287543 -1.02384 -1.02384
-0.405628 -1.06074 -1.06074
-0.354426 -1.09242 -1.09242
-0.292241 -1.05709 -1.05709
-0.343329 -1.02548 -1.02548
-0.348879 -1.0587 -1.0587
-0.412024 -1.09443 -1.09443
-0.424801 -1.16331 -1.16331
-0.30634 -1.15984 -1.15984
-0.29694 -1.09084 -1.09084
-0.418414 -1.12862 -1.12862
-0.365514 -1.16136 -1.16136
-0.30164 -1.12509 -1.12509
-0.354426 -1.09242 -1.09242
-0.359971 -1.12664 -1.12664
-0.424801 -1.16331 -1.16331
-0.43756 -1.23417 -1.23417
-0.315743 -1.23083 -1.23083
-0.30634 -1.15984 -1.15984
-0.431183 -1.19849 -1.19849
-0.376595 -1.23229 -1.23229
-0.311041 -1.19509 -1.19509
-0.365514 -1.16136 -1.16136
-0.371055 -1.19658 -1.19658
-0.43756 -1.23417 -1.23417
-0.450305 -1.307 -1.307
-0.325151 -1.30379 -1.30379
-0.315743 -1.23083 -1.23083
-0.443934 -1.27034 -1.27034
-0.387671 -1.30519 -1.30519
-0.320446 -1.26706 -1.26706
-0.376595 -1.23229 -1.23229
-0.382134 -1.26849 -1.26849
-0.450305 -1.307 -1.307
-0.463034 -1.3818 -1.3818
-0.334564 -1.37871 -1.37871
-0.325151 -1.30379 -1.30379
-0.456671 -1.34416 -1.34416
-0.398742 -1.38005 -1.38005
-0.329857 -1.34101 -1.34101
-0.387671 -1.30519 -1.30519
-0.393207 -1.34237 -1.34237
-0.463034 -1.3818 -1.3818
-0.47575 -1.45854 -1.45854
-0.343985 -1.45559 -1.45559
-0.334564 -1.37871 -1.37871
-0.469393 -1.41993 -1.41993
-0.409811 -1.45686 -1.45686
-0.339274 -1.41691 -1.41691
-0.398742 -1.38005 -1.38005
-0.404277 -1.41821 -1.41821
-0.47575 -1.45854 -1.45854
-0.488453 -1.53722 -1.53722
-0.353414 -1.5344 -1.5344
-0.343985 -1.45559 -1.45559
-0.482103 -1.49764 -1.49764
-0.420877 -1.53561 -1.53561
-0.348698 -1.49475 -1.49475
-0.409811 -1.45686 -1.45686
-0.415344 -1.49599 -1.49599
-0.488453 -1.53722 -1.53722
-0.501145 -1.61783 -1.61783
-0.362852 -1.61514 -1.61514
-0.353414 -1.5344 -1.5344
-0.4948 -1.57729 -1.57729
-0.431942 -1.61628 -1.61628
-0.358132 -1.57453 -1.57453
-0.420877 -1.53561 -1.53561
-0.426409 -1.5757 -1.5757
-0.501145 -1.61783 -1.61783
-0.513827 -1.70035 -1.70035
-0.372301 -1.6978 -1.6978
-0.362852 -1.61514 -1.61514
-0.507487 -1.65885 -1.65885
-0.443007 -1.69887 -1.69887
-0.367575 -1.65623 -1.65623
-0.431942 -1.61628 -1.61628
-0.437474 -1.65734 -1.65734
-0.513827 -1.70035 -1.70035
-0.5265 -1.78477 -1.78477
-0.38176 -1.78236 -1.78236
-0.372301 -1.6978 -1.6978
-0.520164 -1.74232 -1.74232
-0.454073 -1.78336 -1.78336
-0.377029 -1.73984 -1.73984
-0.443007 -1.69887 -1.69887
-0.448539 -1.74088 -1.74088
-0.5265 -1.78477 -1.78477
-0.539164 -1.87108 -1.87108
-0.391233 -1.8688 -1.8688
-0.38176 -1.78236 -1.78236
-0.532833 -1.82769 -1.82769
-0.465141 -1.86974 -1.86974
-0.386495 -1.82534 -1.82534
-0.454073 -1.78336 -1.78336
-0.459607 -1.82631 -1.82631
-0.539164 -1.87108 -1.87108
-0.551822 -1.95926 -1.95926
-0.400719 -1.95713 -1.95713
-0.391233 -1.8688 -1.8688
-0.545494 -1.91493 -1.91493
-0.476213 -1.958 -1.958
-0.395974 -1.91273 -1.91273
-0.465141 -1.86974 -1.86974
-0.470676 -1.91363 -1.91363
-0.551822 -1.95926 -1.95926
-0.564473 -2.04931 -2.04931
-0.410219 -2.04733 -2.04733
-0.400719 -1.95713 -1.95713
-0.558148 -2.00405 -2.00405
-0.487288 -2.04812 -2.04812
-0.405467 -2.002 -2.002
-0.476213 -1.958 -1.958
-0.48175 -2.00283 -2.00283
-0.564473 -2.04931 -2.04931
-0.577119 -2.14122 -2.14122
-0.419734 -2.13938 -2.13938
-0.410219 -2.04733 -2.04733
-0.570796 -2.09503 -2.09503
-0.498369 -2.1401 -2.1401
-0.414974 -2.09312 -2.09312
-0.487288 -2.04812 -2.04812
-0.492828 -2.09388 -2.09388
-0.577119 -2.14122 -2.14122
-0.58976 -2.23496 -2.23496
-0.429266 -2.23327 -2.23327
-0.419734 -2.13938 -2.13938
-0.58344 -2.18786 -2.18786
-0.509455 -2.23392 -2.23392
-0.424498 -2.18609 -2.18609
-0.498369 -2.1401 -2.1401
-0.503911 -2.18678 -2.18678
-0.58976 -2.23496 -2.23496
-0.602398 -2.33054 -2.33054
-0.438815 -2.32899 -2.32899
-0.429266 -2.23327 -2.23327
-0.59608 -2.28252 -2.28252
-0.520549 -2.32957 -2.32957
-0.434038 -2.2809 -2.2809
-0.509455 -2.23392 -2.23392
-0.515001 -2.28152 -2.28152
-0.602398 -2.33054 -2.33054
-0.615034 -2.42793 -2.42793
-0.448382 -2.42653 -2.42653
-0.438815 -2.32899 -2.32899
-0.608717 -2.37901 -2.37901
-0.53165 -2.42704 -2.42704
-0.443596 -2.37753 -2.37753
-0.520549 -2.32957 -2.32957
-0.526098 -2.37808 -2.37808
-0.615034 -2.42793 -2.42793
-0.627668 -2.52713 -2.52713
-0.457968 -2.52588 -2.52588
-0.448382 -2.42653 -2.42653
-0.621351 -2.4773 -2.4773
-0.54276 -2.52631 -2.52631
-0.453172 -2.47598 -2.47598
-0.53165 -2.42704 -2.42704
-0.537204 -2.47645 -2.47645
-0.627668 -2.52713 -2.52713
-0.640301 -2.62812 -2.62812
-0.467573 -2.62702 -2.62702
-0.457968 -2.52588 -2.52588
-0.633985 -2.5774 -2.5774
-0.553879 -2.62738 -2.62738
-0.462768 -2.57622 -2.57622
-0.54276 -2.52631 -2.52631
-0.548318 -2.57662 -2.57662
-0.640301 -2.62812 -2.62812
-0.652934 -2.73089 -2.73089
-0.477199 -2.72994 -2.72994
-0.467573 -2.62702 -2.62702
-0.646617 -2.67928 -2.67928
-0.565008 -2.73023 -2.73023
-0.472383 -2.67826 -2.67826
-0.553879 -2.62738 -2.62738
-0.559442 -2.67858 -2.67858
-0.652934 -2.73089 -2.73089
-0.665567 -2.83543 -2.83543
-0.486846 -2.83464 -2.83464
-0.477199 -2.72994 -2.72994
-0.659251 -2.78294 -2.78294
-0.576148 -2.83484 -2.83484
-0.48202 -2.78207 -2.78207
-0.565008 -2.73023 -2.73023
-0.570577 -2.78232 -2.78232
-0.665567 -2.83543 -2.83543
-0.678202 -2.94172 -2.94172
-0.496515 -2.94109 -2.94109
-0.486846 -2.83464 -2.83464
-0.671885 -2.88836 -2.88836
-0.5873 -2.94122 -2.94122
-0.491678 -2.88765 -2.88765
-0.576148 -2.83484 -2.83484
-0.581723 -2.88781 -2.88781
-0.678202 -2.94172 -2.94172
-0.690839 -3.04977 -3.04977
-0.506207 -3.04929 -3.04929
-0.496515 -2.94109 -2.94109
-0.684521 -2.99553 -2.99553
-0.598465 -3.04934 -3.04934
-0.501358 -2.99497 -2.99497
-0.5873 -2.94122 -2.94122
-0.592881 -2.99507 -2.99507
-0.690839 -3.04977 -3.04977
-0.703479 -3.15954 -3.15954
-0.515922 -3.15923 -3.15923
-0.506207 -3.04929 -3.04929
-0.697159 -3.10444 -3.10444
-0.609642 -3.1592 -3.1592
-0.511061 -3.10404 -3.10404
-0.598465 -3.04934 -3.04934
-0.604052 -3.10406 -3.10406
-0.703479 -3.15954 -3.15954
-0.716122 -3.27104 -3.27104
-0.525661 -3.27088 -3.27088
-0.515922 -3.15923 -3.15923
-0.7098 -3.21508 -3.21508
-0.620833 -3.27078 -3.27078
-0.520788 -3.21484 -3.21484
-0.609642 -3.1592 -3.1592
-0.615236 -3.21477 -3.21477
-0.716122 -3.27104 -3.27104
-0.72877 -3.38425 -3.38425
-0.535424 -3.38425 -3.38425
-0.525661 -3.27088 -3.27088
-0.722445 -3.32743 -3.32743
-0.632038 -3.38407 -3.38407
-0.530539 -3.32735 -3.32735
-0.620833 -3.27078 -3.27078
-0.626434 -3.32721 -3.32721
-0.72877 -3.38425 -3.38425
-0.741421 -3.49915 -3.49915
-0.545213 -3.49931 -3.49931
-0.535424 -3.38425 -3.38425
-0.735095 -3.44149 -3.44149
-0.643259 -3.49905 -3.49905
-0.540316 -3.44157 -3.44157
-0.632038 -3.38407 -3.38407
-0.637647 -3.44135 -3.44135
-0.741421 -3.49915 -3.49915
-0.754079 -3.61574 -3.61574
-0.555028 -3.61606 -3.61606
-0.545213 -3.49931 -3.49931
-0.747749 -3.55723 -3.55723
-0.654495 -3.61572 -3.61572
-0.550117 -3.55748 -3.55748
-0.643259 -3.49905 -3.49905
-0.648875 -3.55718 -3.55718
-0.754079 -3.61574 -3.61574
-0.766742 -3.734 -3.734
-0.564869 -3.73449 -3.73449
-0.555028 -3.61606 -3.61606
-0.76041 -3.67466 -3.67466
-0.665747 -3.73407 -3.73407
-0.559945 -3.67507 -3.67507
-0.654495 -3.61572 -3.61572
-0.660119 -3.67469 -3.67469
-0.766742 -3.734 -3.734
-0.779411 -3.85392 -3.85392
-0.574737 -3.85458 -3.85458
-0.564869 -3.73449 -3.73449
-0.773076 -3.79376 -3.79376
-0.677015 -3.85407 -3.85407
-0.5698 -3.79432 -3.79432
-0.665747 -3.73407 -3.73407
-0.671379 -3.79386 -3.79386
-0.779411 -3.85392 -3.85392
-0.792088 -3.9755 -3.9755
-0.584633 -3.97631 -3.97631
-0.574737 -3.85458 -3.85458
-0.785749 -3.9145 -3.9145
-0.688301 -3.97573 -3.97573
-0.579681 -3.91524 -3.91524
-0.677015 -3.85407 -3.85407
-0.682656 -3.9147 -3.9147
-0.792088 -3.9755 -3.9755
-0.804771 -4.09871 -4.09871
-0.594556 -4.09969 -4.09969
-0.584633 -3.97631 -3.97631
-0.798429 -4.0369 -4.0369
-0.699605 -4.09902 -4.09902
-0.589591 -4.0378 -4.0378
-0.688301 -3.97573 -3.97573
-0.693951 -4.03717 -4.03717
-0.804771 -4.09871 -4.09871
-0.817463 -4.22354 -4.22354
-0.604508 -4.22469 -4.22469
-0.594556 -4.09969 -4.09969
-0.811116 -4.16092 -4.16092
-0.710927 -4.22394 -4.22394
-0.599529 -4.16199 -4.16199
-0.699605 -4.09902 -4.09902
-0.705264 -4.16128 -4.16128
-0.817463 -4.22354 -4.22354
-0.830163 -4.34999 -4.34999
-0.614489 -4.3513 -4.3513
-0.604508 -4.22469 -4.22469
-0.823812 -4.28656 -4.28656
-0.722267 -4.35048 -4.35048
-0.609495 -4.2878 -4.2878
-0.710927 -4.22394 -4.22394
-0.716595 -4.28701 -4.28701
-0.830163 -4.34999 -4.34999
-0.842872 -4.47804 -4.47804
-0.624499 -4.47952 -4.47952
-0.614489 -4.3513 -4.3513
-0.836516 -4.41381 -4.41381
-0.733626 -4.47861 -4.47861
-0.61949 -4.41521 -4.41521
-0.722267 -4.35048 -4.35048
-0.727944 -4.41434 -4.41434
-0.842872 -4.47804 -4.47804
-0.85559 -4.60768 -4.60768
-0.634539 -4.60933 -4.60933
-0.624499 -4.47952 -4.47952
-0.84923 -4.54266 -4.54266
-0.745005 -4.60834 -4.60834
-0.629515 -4.54423 -4.54423
-0.733626 -4.47861 -4.47861
-0.739313 -4.54328 -4.54328
-0.85559 -4.60768 -4.60768
-0.868317 -4.73889 -4.73889
-0.644609 -4.74071 -4.74071
-0.634539 -4.60933 -4.60933
-0.861952 -4.67309 -4.67309
-0.756404 -4.73964 -4.73964
-0.63957 -4.67482 -4.67482
-0.745005 -4.60834 -4.60834
-0.750702 -4.67379 -4.67379
-0.868317 -4.73889 -4.73889
-0.881054 -4.87167 -4.87167
-0.654709 -4.87366 -4.87366
-0.644609 -4.74071 -4.74071
-0.874685 -4.80509 -4.80509
-0.767823 -4.8725 -4.8725
-0.649655 -4.80699 -4.80699
-0.756404 -4.73964 -4.73964
-0.762111 -4.80588 -4.80588
-0.881054 -4.87167 -4.87167
-0.893802 -5.00601 -5.00601
-0.66484 -5.00817 -5.00817
-0.654709 -4.87366 -4.87366
-0.887427 -4.93865 -4.93865
-0.779262 -5.00693 -5.00693
-0.659771 -4.94072 -4.94072
-0.767823 -4.8725 -4.8725
-0.77354 -4.93952 -4.93952
-0.893802 -5.00601 -5.00601
-0.90656 -5.14189 -5.14189
-0.675002 -5.14422 -5.14422
-0.66484 -5.00817 -5.00817
-0.90018 -5.07376 -5.07376
-0.790722 -5.14289 -5.14289
-0.669917 -5.076 -5.076
-0.779262 -5.00693 -5.00693
-0.784989 -5.07472 -5.07472
-0.90656 -5.14189 -5.14189
-0.919329 -5.27929 -5.27929
-0.685195 -5.28179 -5.28179
-0.675002 -5.14422 -5.14422
-0.912943 -5.2104 -5.2104
-0.802203 -5.28038 -5.28038
-0.680095 -5.21281 -5.21281
-0.790722 -5.14289 -5.14289
-0.79646 -5.21144 -5.21144
-0.919329 -5.27929 -5.27929
-0.932109 -5.41821 -5.41821
-0.695421 -5.42089 -5.42089
-0.685195 -5.28179 -5.28179
-0.925717 -5.34856 -5.34856
-0.813706 -5.41939 -5.41939
-0.690304 -5.35115 -5.35115
-0.802203 -5.28038 -5.28038
-0.807952 -5.3497 -5.3497
-0.932109 -5.41821 -5.41821
-0.9449 -5.55864 -5.55864
-0.705677 -5.56149 -5.56149
-0.695421 -5.42089 -5.42089
-0.938503 -5.48824 -5.48824
-0.82523 -5.5599 -5.5599
-0.700545 -5.491 -5.491
-0.813706 -5.41939 -5.41939
-0.819465 -5.48946 -5.48946
-0.9449 -5.55864 -5.55864
-0.957703 -5.70056 -5.70056
-0.715967 -5.70358 -5.70358
-0.705677 -5.56149 -5.56149
-0.9513 -5.62941 -5.62941
-0.836776 -5.70191 -5.70191
-0.710818 -5.63235 -5.63235
-0.82523 -5.5599 -5.5599
-0.831 -5.63072 -5.63072
-0.957703 -5.70056 -5.70056
-0.970518 -5.84396 -5.84396
-0.726288 -5.84715 -5.84715
-0.715967 -5.70358 -5.70358
-0.964109 -5.77208 -5.77208
-0.848344 -5.8454 -5.8454
-0.721123 -5.77518 -5.77518
-0.836776 -5.70191 -5.70191
-0.842557 -5.77347 -5.77347
-0.970518 -5.84396 -5.84396
-0.983344 -5.98883 -5.98883
-0.736642 -5.9922 -5.9922
-0.726288 -5.84715 -5.84715
-0.97693 -5.91622 -5.91622
-0.859934 -5.99036 -5.99036
-0.731461 -5.91949 -5.91949
-0.848344 -5.8454 -5.8454
-0.854136 -5.9177 -5.9177
-0.983344 -5.98883 -5.98883
-0.996183 -6.13516 -6.13516
-0.747028 -6.1387 -6.1387
-0.736642 -5.9922 -5.9922
-0.989762 -6.06182 -6.06182
-0.871546 -6.13678 -6.13678
-0.741831 -6.06527 -6.06527
-0.859934 -5.99036 -5.99036
-0.865737 -6.06339 -6.06339
-0.996183 -6.13516 -6.13516
-1.00903 -6.28294 -6.28294
-0.757447 -6.28665 -6.28665
-0.747028 -6.1387 -6.1387
-1.00261 -6.20887 -6.20887
-0.883181 -6.28464 -6.28464
-0.752234 -6.21249 -6.21249
-0.871546 -6.13678 -6.13678
-0.877361 -6.21053 -6.21053
-1.00903 -6.28294 -6.28294
-1.0219 -6.43215 -6.43215
-0.7679 -6.43603 -6.43603
-0.757447 -6.28665 -6.28665
-1.01546 -6.35736 -6.35736
-0.894839 -6.43394 -6.43394
-0.762669 -6.36116 -6.36116
-0.883181 -6.28464 -6.28464
-0.889008 -6.35911 -6.35911
-1.0219 -6.43215 -6.43215
-1.03477 -6.58277 -6.58277
-0.778385 -6.58683 -6.58683
-0.7679 -6.43603 -6.43603
-1.02833 -6.50728 -6.50728
-0.90652 -6.58465 -6.58465
-0.773138 -6.51125 -6.51125
-0.894839 -6.43394 -6.43394
-0.900677 -6.50912 -6.50912
-1.03477 -6.58277 -6.58277
-1.04766 -6.73481 -6.73481
-0.788903 -6.73904 -6.73904
-0.778385 -6.58683 -6.58683
-1.04122 -6.65862 -6.65862
-0.918223 -6.73678 -6.73678
-0.78364 -6.66276 -6.66276
-0.90652 -6.58465 -6.58465
-0.912369 -6.66054 -6.66054
-1.04766 -6.73481 -6.73481
-1.06056 -6.88825 -6.88825
-0.799454 -6.89265 -6.89265
-0.788903 -6.73904 -6.73904
-1.05411 -6.81136 -6.81136
-0.929949 -6.8903 -6.8903
-0.794174 -6.81567 -6.81567
-0.918223 -6.73678 -6.73678
-0.924083 -6.81337 -6.81337
-1.06056 -6.88825 -6.88825
-1.07348 -7.04307 -7.04307
-0.810039 -7.04764 -7.04764
-0.799454 -6.89265 -6.89265
-1.06702 -6.96549 -6.96549
-0.941698 -7.04521 -7.04521
-0.804742 -6.96998 -6.96998
-0.929949 -6.8903 -6.8903
-0.935821 -6.96759 -6.96759
-1.07348 -7.04307 -7.04307
-1.0864 -7.19926 -7.19926
-0.820656 -7.20401 -7.20401
-0.810039 -7.04764 -7.04764
-1.07994 -7.12099 -7.12099
-0.95347 -7.20149 -7.20149
-0.815343 -7.12566 -7.12566
-0.941698 -7.04521 -7.04521
-0.947582 -7.12318 -7.12318
-1.0864 -7.19926 -7.19926
-1.09934 -7.35682 -7.35682
-0.831307 -7.36174 -7.36174
-0.820656 -7.20401 -7.20401
-1.09287 -7.27787 -7.27787
-0.965265 -7.35914 -7.35914
-0.825978 -7.28271 -7.28271
-0.95347 -7.20149 -7.20149
-0.959365 -7.28015 -7.28015
-1.09934 -7.35682 -7.35682
-1.11229 -7.51572 -7.51572
-0.841991 -7.52082 -7.52082
-0.831307 -7.36174 -7.36174
-1.10582 -7.4361 -7.4361
-0.977083 -7.51813 -7.51813
-0.836645 -7.44111 -7.44111
-0.965265 -7.35914 -7.35914
-0.971172 -7.43847 -7.43847
-1.11229 -7.51572 -7.51572
-1.12526 -7.67596 -7.67596
-0.852709 -7.68124 -7.68124
-0.841991 -7.52082 -7.52082
-1.11877 -7.59568 -7.59568
-0.988924 -7.67846 -7.67846
-0.847346 -7.60086 -7.60086
-0.977083 -7.51813 -7.51813
-0.983001 -7.59813 -7.59813
-1.12526 -7.67596 -7.67596
-1.13824 -7.83753 -7.83753
-0.863459 -7.84298 -7.84298
-0.852709 -7.68124 -7.68124
-1.13175 -7.75658 -7.75658
-1.00079 -7.84012 -7.84012
-0.85808 -7.76194 -7.76194
-0.988924 -7.67846 -7.67846
-0.994853 -7.75912 -7.75912
-1.13824 -7.83753 -7.83753
-1.15122 -8.00041 -8.00041
-0.874242 -8.00603 -8.00603
-0.863459 -7.84298 -7.84298
-1.14473 -7.91881 -7.91881
-1.01267 -8.00308 -8.00308
-0.868846 -7.92434 -7.92434
-1.00079 -7.84012 -7.84012
-1.00673 -7.92144 -7.92144
-1.15122 -8.00041 -8.00041
-1.16423 -8.16459 -8.16459
-0.885058 -8.17039 -8.17039
-0.874242 -8.00603 -8.00603
-1.15772 -8.08234 -8.08234
-1.02458 -8.16735 -8.16735
-0.879646 -8.08805 -8.08805
-1.01267 -8.00308 -8.00308
-1.01863 -8.08506 -8.08506
-1.16423 -8.16459 -8.16459
-1.17724 -8.33007 -8.33007
-0.895907 -8.33603 -8.33603
-0.885058 -8.17039 -8.17039
-1.17073 -8.24717 -8.24717
-1.03651 -8.33291 -8.33291
-0.890479 -8.25305 -8.25305
-1.02458 -8.16735 -8.16735
-1.03055 -8.24997 -8.24997
-1.17724 -8.33007 -8.33007
-1.19027 -8.49682 -8.49682
-0.906789 -8.50295 -8.50295
-0.895907 -8.33603 -8.33603
-1.18375 -8.41328 -8.41328
-1.04847 -8.49975 -8.49975
-0.901344 -8.41933 -8.41933
-1.03651 -8.33291 -8.33291
-1.04249 -8.41617 -8.41617
-1.19027 -8.49682 -8.49682
-1.20331 -8.66483 -8.66483
-0.917703 -8.67114 -8.67114
-0.906789 -8.50295 -8.50295
-1.19679 -8.58066 -8.58066
-1.06045 -8.66785 -8.66785
-0.912242 -8.58689 -8.58689
-1.04847 -8.49975 -8.49975
-1.05445 -8.58364 -8.58364
-1.20331 -8.66483 -8.66483
-1.21636 -8.8341 -8.8341
-0.928649 -8.84058 -8.84058
-0.917703 -8.67114 -8.67114
-1.20983 -8.74931 -8.74931
-1.07244 -8.83721 -8.83721
-0.923172 -8.7557 -8.7557
-1.06045 -8.66785 -8.66785
-1.06644 -8.75237 -8.75237
-1.21636 -8.8341 -8.8341
-1.22942 -9.00461 -9.00461
-0.939628 -9.01126 -9.01126
-0.928649 -8.84058 -8.84058
-1.22289 -8.9192 -8.9192
-1.08446 -9.0078 -9.0078
-0.934135 -8.92576 -8.92576
-1.07244 -8.83721 -8.83721
-1.07845 -8.92235 -8.92235
-1.22942 -9.00461 -9.00461
-1.24249 -9.17634 -9.17634
-0.950638 -9.18317 -9.18317
-0.939628 -9.01126 -9.01126
-1.23595 -9.09032 -9.09032
-1.09651 -9.17963 -9.17963
-0.945129 -9.09706 -9.09706
-1.08446 -9.0078 -9.0078
-1.09048 -9.09356 -9.09356
-1.24249 -9.17634 -9.17634
-1.25558 -9.3493 -9.3493
-0.961681 -9.35629 -9.35629
-0.950638 -9.18317 -9.18317
-1.24903 -9.26267 -9.26267
-1.10857 -9.35267 -9.35267
-0.956156 -9.26958 -9.26958
-1.09651 -9.17963 -9.17963
-1.10253 -9.266 -9.266
-1.25558 -9.3493 -9.3493
-1.26867 -9.52346 -9.52346
-0.972754 -9.53063 -9.53063
-0.961681 -9.35629 -9.35629
-1.26212 -9.43623 -9.43623
-1.12065 -9.52692 -9.52692
-0.967214 -9.44331 -9.44331
-1.10857 -9.35267 -9.35267
-1.11461 -9.43965 -9.43965
-1.26867 -9.52346 -9.52346
-1.28178 -9.69882 -9.69882
-0.983859 -9.70615 -9.70615
-0.972754 -9.53063 -9.53063
-1.27522 -9.61099 -9.61099
-1.13276 -9.70236 -9.70236
-0.978303 -9.61824 -9.61824
-1.12065 -9.52692 -9.52692
-1.1267 -9.61449 -9.61449
-1.28178 -9.69882 -9.69882
-1.29489 -9.87535 -9.87535
-0.994995 -9.88286 -9.88286
-0.983859 -9.70615 -9.70615
-1.28834 -9.78694 -9.78694
-1.14489 -9.87898 -9.87898
-0.989423 -9.79436 -9.79436
-1.13276 -9.70236 -9.70236
-1.13882 -9.79052 -9.79052
-1.29489 -9.87535 -9.87535
-1.30802 -10.0531 -10.0531
-1.00616 -10.0607 -10.0607
-0.994995 -9.88286 -9.88286
-1.30146 -9.96406 -9.96406
-1.15703 -10.0568 -10.0568
-1.00057 -9.97165 -9.97165
-1.14489 -9.87898 -9.87898
-1.15096 -9.96773 -9.96773
-1.30802 -10.0531 -10.0531
-1.32116 -10.2319 -10.2319
-1.01736 -10.2398 -10.2398
-1.00616 -10.0607 -10.0607
-1.31459 -10.1423 -10.1423
-1.1692 -10.2357 -10.2357
-1.01176 -10.1501 -10.1501
-1.15703 -10.0568 -10.0568
-1.16311 -10.1461 -10.1461
-1.32116 -10.2319 -10.2319
-1.33431 -10.4119 -10.4119
-1.02859 -10.4199 -10.4199
-1.01736 -10.2398 -10.2398
-1.32773 -10.3218 -10.3218
-1.18139 -10.4158 -10.4158
-1.02297 -10.3297 -10.3297
-1.1692 -10.2357 -10.2357
-1.17529 -10.3256 -10.3256
-1.33431 -10.4119 -10.4119
-1.34746 -10.5931 -10.5931
-1.03984 -10.6012 -10.6012
-1.02859 -10.4199 -10.4199
-1.34088 -10.5024 -10.5024
-1.19359 -10.597 -10.597
-1.03421 -10.5105 -10.5105
-1.18139 -10.4158 -10.4158
-1.18749 -10.5063 -10.5063
-1.34746 -10.5931 -10.5931
-1.36063 -10.7753 -10.7753
-1.05113 -10.7837 -10.7837
-1.03984 -10.6012 -10.6012
-1.35404 -10.6841 -10.6841
-1.20582 -10.7794 -10.7794
-1.04548 -10.6923 -10.6923
-1.19359 -10.597 -10.597
-1.1997 -10.6881 -10.6881
-1.36063 -10.7753 -10.7753
-1.3738 -10.9587 -10.9587
-1.06244 -10.9672 -10.9672
-1.05113 -10.7837 -10.7837
-1.36721 -10.8669 -10.8669
-1.21806 -10.9628 -10.9628
-1.05678 -10.8753 -10.8753
-1.20582 -10.7794 -10.7794
-1.21194 -10.871 -10.871
-1.3738 -10.9587 -10.9587
-1.38698 -11.1432 -11.1432
-1.07379 -11.1519 -11.1519
-1.06244 -10.9672 -10.9672
-1.38039 -11.0508 -11.0508
-1.23032 -11.1474 -11.1474
-1.06811 -11.0594 -11.0594
-1.21806 -10.9628 -10.9628
-1.22419 -11.055 -11.055
-1.38698 -11.1432 -11.1432
-1.40017 -11.3287 -11.3287
-1.08516 -11.3376 -11.3376
-1.07379 -11.1519 -11.1519
-1.39357 -11.2358 -11.2358
-1.2426 -11.333 -11.333
-1.07947 -11.2446 -11.2446
-1.23032 -11.1474 -11.1474
-1.23646 -11.2401 -11.2401
-1.40017 -11.3287 -11.3287
-1.41337 -11.5154 -11.5154
-1.09656 -11.5244 -11.5244
-1.08516 -11.3376 -11.3376
-1.40677 -11.4219 -11.4219
-1.2549 -11.5198 -11.5198
-1.09085 -11.4308 -11.4308
-1.2426 -11.333 -11.333
-1.24875 -11.4263 -11.4263
-1.41337 -11.5154 -11.5154
-1.42657 -11.7031 -11.7031
-1.10798 -11.7122 -11.7122
-1.09656 -11.5244 -11.5244
-1.41997 -11.6091 -11.6091
-1.26722 -11.7075 -11.7075
-1.10227 -11.6182 -11.6182
-1.2549 -11.5198 -11.5198
-1.26106 -11.6135 -11.6135
-1.42657 -11.7031 -11.7031
-1.43978 -11.8918 -11.8918
-1.11944 -11.9011 -11.9011
-1.10798 -11.7122 -11.7122
-1.43317 -11.7973 -11.7973
-1.27955 -11.8963 -11.8963
-1.11371 -11.8065 -11.8065
-1.26722 -11.7075 -11.7075
-1.27338 -11.8018 -11.8018
-1.43978 -11.8918 -11.8918
-1.45299 -12.0816 -12.0816
-1.13092 -12.0911 -12.0911
-1.11944 -11.9011 -11.9011
-1.44639 -11.9866 -11.9866
-1.2919 -12.0862 -12.0862
-1.12517 -11.996 -11.996
-1.27955 -11.8963 -11.8963
-1.28572 -11.9912 -11.9912
-1.45299 -12.0816 -12.0816
-1.46622 -12.2724 -12.2724
-1.14242 -12.282 -12.282
-1.13092 -12.0911 -12.0911
-1.4596 -12.1768 -12.1768
-1.30426 -12.2771 -12.2771
-1.13667 -12.1864 -12.1864
-1.2919 -12.0862 -12.0862
-1.29808 -12.1815 -12.1815
-1.46622 -12.2724 -12.2724
-1.47944 -12.4642 -12.4642
-1.15395 -12.474 -12.474
-1.14242 -12.282 -12.282
-1.47283 -12.3682 -12.3682
-1.31664 -12.469 -12.469
-1.14818 -12.3779 -12.3779
-1.30426 -12.2771 -12.2771
-1.31045 -12.3729 -12.3729
-1.47944 -12.4642 -12.4642
-1.49267 -12.657 -12.657
-1.16551 -12.667 -12.667
-1.15395 -12.474 -12.474
-1.48606 -12.5605 -12.5605
-1.32903 -12.6619 -12.6619
-1.15973 -12.5704 -12.5704
-1.31664 -12.469 -12.469
-1.32283 -12.5653 -12.5653
-1.49267 -12.657 -12.657
-1.50591 -12.8508 -12.8508
-1.17709 -12.8609 -12.8609
-1.16551 -12.667 -12.667
-1.49929 -12.7538 -12.7538
-1.34144 -12.8558 -12.8558
-1.1713 -12.7638 -12.7638
-1.32903 -12.6619 -12.6619
-1.33523 -12.7587 -12.7587
-1.50591 -12.8508 -12.8508
-1.51914 -13.0456 -13.0456
-1.18869 -13.0559 -13.0559
-1.17709 -12.8609 -12.8609
-1.51252 -12.9481 -12.9481
-1.35386 -13.0506 -13.0506
-1.18289 -12.9583 -12.9583
-1.34144 -12.8558 -12.8558
-1.34765 -12.9531 -12.9531
-1.51914 -13.0456 -13.0456
-1.53239 -13.2414 -13.2414
-1.20032 -13.2518 -13.2518
-1.18869 -13.0559 -13.0559
-1.52576 -13.1434 -13.1434
-1.3663 -13.2465 -13.2465
-1.19451 -13.1537 -13.1537
-1.35386 -13.0506 -13.0506
-1.36008 -13.1484 -13.1484
-1.53239 -13.2414 -13.2414
-1.54563 -13.4381 -13.4381
-1.21197 -13.4487 -13.4487
-1.20032 -13.2518 -13.2518
-1.53901 -13.3396 -13.3396
-1.37874 -13.4433 -13.4433
-1.20614 -13.3501 -13.3501
-1.3663 -13.2465 -13.2465
-1.37252 -13.3448 -13.3448
-1.54563 -13.4381 -13.4381
-1.55887 -13.6357 -13.6357
-1.22365 -13.6465 -13.6465
-1.21197 -13.4487 -13.4487
-1.55225 -13.5368 -13.5368
-1.3912 -13.641 -13.641
-1.21781 -13.5474 -13.5474
-1.37874 -13.4433 -13.4433
-1.38497 -13.542 -13.542
-1.55887 -13.6357 -13.6357
-1.57212 -13.8343 -13.8343
-1.23534 -13.8452 -13.8452
-1.22365 -13.6465 -13.6465
-1.5655 -13.7349 -13.7349
-1.40367 -13.8396 -13.8396
-1.22949 -13.7457 -13.7457
-1.3912 -13.641 -13.641
-1.39744 -13.7402 -13.7402
-1.57212 -13.8343 -13.8343
-1.58537 -14.0338 -14.0338
-1.24705 -14.0448 -14.0448
-1.23534 -13.8452 -13.8452
-1.57874 -13.9339 -13.9339
-1.41615 -14.0392 -14.0392
-1.24119 -13.9449 -13.9449
-1.40367 -13.8396 -13.8396
-1.40991 -13.9393 -13.9393
-1.58537 -14.0338 -14.0338
-1.59861 -14.2342 -14.2342
-1.25879 -14.2454 -14.2454
-1.24705 -14.0448 -14.0448
-1.59199 -14.1339 -14.1339
-1.42864 -14.2397 -14.2397
-1.25292 -14.145 -14.145
-1.41615 -14.0392 -14.0392
-1.4224 -14.1393 -14.1393
-1.59861 -14.2342 -14.2342
-1.61186 -14.4355 -14.4355
-1.27054 -14.4468 -14.4468
-1.25879 -14.2454 -14.2454
-1.60524 -14.3347 -14.3347
-1.44114 -14.4411 -14.4411
-1.26466 -14.346 -14.346
-1.42864 -14.2397 -14.2397
-1.43489 -14.3403 -14.3403
-1.61186 -14.4355 -14.4355
-1.6251 -14.6376 -14.6376
-1.28232 -14.6492 -14.6492
-1.27054 -14.4468 -14.4468
-1.61848 -14.5365 -14.5365
-1.45365 -14.6433 -14.6433
-1.27643 -14.5479 -14.5479
-1.44114 -14.4411 -14.4411
-1.4474 -14.5421 -14.5421
-1.6251 -14.6376 -14.6376
-1.63835 -14.8407 -14.8407
-1.29411 -14.8523 -14.8523
-1.28232 -14.6492 -14.6492
-1.63172 -14.7391 -14.7391
-1.46617 -14.8464 -14.8464
-1.28821 -14.7506 -14.7506
-1.45365 -14.6433 -14.6433
-1.45991 -14.7448 -14.7448
-1.63835 -14.8407 -14.8407
-1.65159 -15.0446 -15.0446
-1.30592 -15.0564 -15.0564
-1.29411 -14.8523 -14.8523
-1.64497 -14.9425 -14.9425
-1.4787 -15.0504 -15.0504
-1.30001 -14.9543 -14.9543
-1.46617 -14.8464 -14.8464
-1.47243 -14.9483 -14.9483
-1.65159 -15.0446 -15.0446
-1.66482 -15.2493 -15.2493
-1.31775 -15.2613 -15.2613
-1.30592 -15.0564 -15.0564
-1.6582 -15.1469 -15.1469
-1.49123 -15.2552 -15.2552
-1.31183 -15.1587 -15.1587
-1.4787 -15.0504 -15.0504
-1.48496 -15.1527 -15.1527
-1.66482 -15.2493 -15.2493
-1.67806 -15.4549 -15.4549
-1.32959 -15.467 -15.467
-1.31775 -15.2613 -15.2613
-1.67144 -15.352 -15.352
-1.50377 -15.4609 -15.4609
-1.32367 -15.364 -15.364
-1.49123 -15.2552 -15.2552
-1.4975 -15.358 -15.358
-1.67806 -15.4549 -15.4549
-1.69128 -15.6613 -15.6613
-1.34145 -15.6736 -15.6736
-1.32959 -15.467 -15.467
-1.68467 -15.558 -15.558
-1.51631 -15.6674 -15.6674
-1.33552 -15.5702 -15.5702
-1.50377 -15.4609 -15.4609
-1.51004 -15.564 -15.564
-1.69128 -15.6613 -15.6613
-1.70451 -15.8685 -15.8685
-1.35333 -15.8809 -15.8809
-1.34145 -15.6736 -15.6736
-1.6979 -15.7648 -15.7648
-1.52886 -15.8746 -15.8746
-1.34739 -15.7771 -15.7771
-1.51631 -15.6674 -15.6674
-1.52258 -15.7709 -15.7709
-1.70451 -15.8685 -15.8685
-1.71772 -16.0766 -16.0766
-1.36522 -16.0891 -16.0891
-1.35333 -15.8809 -15.8809
-1.71111 -15.9725 -15.9725
-1.54141 -16.0827 -16.0827
-1.35927 -15.9849 -15.9849
-1.52886 -15.8746 -15.8746
-1.53514 -15.9786 -15.9786
-1.71772 -16.0766 -16.0766
-1.73093 -16.2854 -16.2854
-1.37712 -16.298 -16.298
-1.36522 -16.0891 -16.0891
-1.72433 -16.1809 -16.1809
-1.55397 -16.2916 -16.2916
-1.37117 -16.1934 -16.1934
-1.54141 -16.0827 -16.0827
-1.54769 -16.1871 -16.1871
-1.73093 -16.2854 -16.2854
-1.74413 -16.4949 -16.4949
-1.38903 -16.5077 -16.5077
-1.37712 -16.298 -16.298
-1.73753 -16.39 -16.39
-1.56653 -16.5012 -16.5012
-1.38307 -16.4028 -16.4028
-1.55397 -16.2916 -16.2916
-1.56025 -16.3963 -16.3963
-1.74413 -16.4949 -16.4949
-1.75733 -16.7053 -16.7053
-1.40096 -16.7182 -16.7182
-1.38903 -16.5077 -16.5077
-1.75073 -16.6 -16.6
-1.57909 -16.7116 -16.7116
-1.39499 -16.6129 -16.6129
-1.56653 -16.5012 -16.5012
-1.57281 -16.6064 -16.6064
-1.75733 -16.7053 -16.7053
-1.77051 -16.9163 -16.9163
-1.4129 -16.9294 -16.9294
-1.40096 -16.7182 -16.7182
-1.76392 -16.8107 -16.8107
-1.59165 -16.9228 -16.9228
-1.40693 -16.8237 -16.8237
-1.57909 -16.7116 -16.7116
-1.58537 -16.8171 -16.8171
-1.77051 -16.9163 -16.9163
-1.78369 -17.1282 -17.1282
-1.42485 -17.1414 -17.1414
-1.4129 -16.9294 -16.9294
-1.7771 -17.0222 -17.0222
-1.60421 -17.1347 -17.1347
-1.41887 -17.0353 -17.0353
-1.59165 -16.9228 -16.9228
-1.59793 -17.0287 -17.0287
-1.78369 -17.1282 -17.1282
-1.79685 -17.3407 -17.3407
-1.4368 -17.354 -17.354
-1.42485 -17.1414 -17.1414
-1.79027 -17.2343 -17.2343
-1.61677 -17.3473 -17.3473
-1.43082 -17.2476 -17.2476
-1.60421 -17.1347 -17.1347
-1.61049 -17.2409 -17.2409
-1.79685 -17.3407 -17.3407
-1.81 -17.554 -17.554
-1.44877 -17.5674 -17.5674
-1.4368 -17.354 -17.354
-1.80343 -17.4473 -17.4473
-1.62933 -17.5606 -17.5606
-1.44279 -17.4606 -17.4606
-1.61677 -17.3473 -17.3473
-1.62305 -17.4539 -17.4539
-1.81 -17.554 -17.554
-1.82314 -17.7679 -17.7679
-1.46075 -17.7815 -17.7815
-1.44877 -17.5674 -17.5674
-1.81657 -17.6609 -17.6609
-1.64189 -17.7747 -17.7747
-1.45476 -17.6744 -17.6744
-1.62933 -17.5606 -17.5606
-1.63561 -17.6676 -17.6676
-1.82314 -17.7679 -17.7679
-1.83627 -17.9826 -17.9826
-1.47273 -17.9963 -17.9963
-1.46075 -17.7815 -17.7815
-1.82971 -17.8752 -17.8752
-1.65444 -17.9894 -17.9894
-1.46674 -17.8888 -17.8888
-1.64189 -17.7747 -17.7747
-1.64817 -17.8819 -17.8819
-1.83627 -17.9826 -17.9826
-1.84938 -18.1979 -18.1979
-1.48472 -18.2118 -18.2118
-1.47273 -17.9963 -17.9963
-1.84283 -18.0902 -18.0902
-1.66699 -18.2048 -18.2048
-1.47872 -18.1039 -18.1039
-1.65444 -17.9894 -17.9894
-1.66072 -18.097 -18.097
-1.84938 -18.1979 -18.1979
-1.86248 -18.4139 -18.4139
-1.49671 -18.4279 -18.4279
-1.48472 -18.2118 -18.2118
-1.85593 -18.3058 -18.3058
-1.67954 -18.4208 -18.4208
-1.49071 -18.3197 -18.3197
-1.66699 -18.2048 -18.2048
-1.67327 -18.3127 -18.3127
-1.86248 -18.4139 -18.4139
-1.87556 -18.6306 -18.6306
-1.50871 -18.6447 -18.6447
-1.49671 -18.4279 -18.4279
-1.86902 -18.5222 -18.5222
-1.69208 -18.6376 -18.6376
-1.50271 -18.5362 -18.5362
-1.67954 -18.4208 -18.4208
-1.68581 -18.5291 -18.5291
-1.87556 -18.6306 -18.6306
-1.88863 -18.8479 -18.8479
-1.52071 -18.8621 -18.8621
-1.50871 -18.6447 -18.6447
-1.8821 -18.7391 -18.7391
-1.70461 -18.8549 -18.8549
-1.51471 -18.7533 -18.7533
-1.69208 -18.6376 -18.6376
-1.69835 -18.7461 -18.7461
-1.88863 -18.8479 -18.8479
-1.90167 -19.0658 -19.0658
-1.53272 -19.0801 -19.0801
-1.52071 -18.8621 -18.8621
-1.89515 -18.9567 -18.9567
-1.71714 -19.0729 -19.0729
-1.52671 -18.971 -18.971
-1.70461 -18.8549 -18.8549
-1.71088 -18.9638 -18.9638
-1.90167 -19.0658 -19.0658
-1.9147 -19.2843 -19.2843
-1.54473 -19.2988 -19.2988
-1.53272 -19.0801 -19.0801
-1.90819 -19.175 -19.175
-1.72966 -19.2915 -19.2915
-1.53872 -19.1894 -19.1894
-1.71714 -19.0729 -19.0729
-1.7234 -19.1821 -19.1821
-1.9147 -19.2843 -19.2843
-1.92771 -19.5035 -19.5035
-1.55673 -19.518 -19.518
-1.54473 -19.2988 -19.2988
-1.92121 -19.3938 -19.3938
-1.74217 -19.5107 -19.5107
-1.55073 -19.4083 -19.4083
-1.72966 -19.2915 -19.2915
-1.73591 -19.401 -19.401
-1.92771 -19.5035 -19.5035
-1.9407 -19.7232 -19.7232
-1.56874 -19.7379 -19.7379
-1.55673 -19.518 -19.518
-1.93421 -19.6133 -19.6133
-1.75467 -19.7305 -19.7305
-1.56274 -19.6279 -19.6279
-1.74217 -19.5107 -19.5107
-1.74842 -19.6205 -19.6205
-1.9407 -19.7232 -19.7232
-1.95367 -19.9435 -19.9435
-1.58075 -19.9583 -19.9583
-1.56874 -19.7379 -19.7379
-1.94719 -19.8333 -19.8333
-1.76716 -19.9509 -19.9509
-1.57475 -19.8481 -19.8481
-1.75467 -19.7305 -19.7305
-1.76091 -19.8406 -19.8406
-1.95367 -19.9435 -19.9435
-1.96662 -20.1644 -20.1644
-1.59276 -20.1794 -20.1794
-1.58075 -19.9583 -19.9583
-1.96015 -20.0539 -20.0539
-1.77963 -20.1718 -20.1718
-1.58675 -20.0688 -20.0688
-1.76716 -19.9509 -19.9509
-1.7734 -20.0613 -20.0613
-1.96662 -20.1644 -20.1644
-1.97955 -20.3859 -20.3859
-1.60476 -20.4009 -20.4009
-1.59276 -20.1794 -20.1794
-1.97309 -20.2751 -20.2751
-1.7921 -20.3933 -20.3933
-1.59876 -20.2901 -20.2901
-1.77963 -20.1718 -20.1718
-1.78587 -20.2825 -20.2825
-1.97955 -20.3859 -20.3859
-1.99245 -20.6079 -20.6079
-1.61676 -20.623 -20.623
-1.60476 -20.4009 -20.4009
-1.986 -20.4968 -20.4968
-1.80455 -20.6154 -20.6154
-1.61076 -20.5119 -20.5119
-1.7921 -20.3933 -20.3933
-1.79833 -20.5043 -20.5043
-1.99245 -20.6079 -20.6079
-2.00532 -20.8304 -20.8304
-1.62876 -20.8457 -20.8457
-1.61676 -20.623 -20.623
-1.99889 -20.7191 -20.7191
-1.81699 -20.838 -20.838
-1.62276 -20.7343 -20.7343
-1.80455 -20.6154 -20.6154
-1.81077 -20.7266 -20.7266
-2.00532 -20.8304 -20.8304
-2.01818 -21.0535 -21.0535
-1.64075 -21.0688 -21.0688
-1.62876 -20.8457 -20.8457
-2.01175 -20.9419 -20.9419
-1.82941 -21.0611 -21.0611
-1.63476 -20.9572 -20.9572
-1.81699 -20.838 -20.838
-1.8232 -20.9495 -20.9495
-2.01818 -21.0535 -21.0535
-2.031 -21.277 -21.277
-1.65274 -21.2925 -21.2925
-1.64075 -21.0688 -21.0688
-2.02459 -21.1652 -21.1652
-1.84181 -21.2847 -21.2847
-1.64674 -21.1806 -21.1806
-1.82941 -21.0611 -21.0611
-1.83561 -21.1728 -21.1728
-2.031 -21.277 -21.277
-2.0438 -21.5011 -21.5011
-1.66471 -21.5167 -21.5167
-1.65274 -21.2925 -21.2925
-2.0374 -21.389 -21.389
-1.8542 -21.5088 -21.5088
-1.65873 -21.4045 -21.4045
-1.84181 -21.2847 -21.2847
-1.84801 -21.3967 -21.3967
-2.0438 -21.5011 -21.5011
-2.05657 -21.7257 -21.7257
-1.67668 -21.7413 -21.7413
-1.66471 -21.5167 -21.5167
-2.05018 -21.6133 -21.6133
-1.86657 -21.7334 -21.7334
-1.6707 -21.6289 -21.6289
-1.8542 -21.5088 -21.5088
-1.86039 -21.6211 -21.6211
-2.05657 -21.7257 -21.7257
-2.0693 -21.9507 -21.9507
-1.68864 -21.9664 -21.9664
-1.67668 -21.7413 -21.7413
-2.06294 -21.8381 -21.8381
-1.87892 -21.9585 -21.9585
-1.68266 -21.8538 -21.8538
-1.86657 -21.7334 -21.7334
-1.87275 -21.8459 -21.8459
-2.0693 -21.9507 -21.9507
-2.08201 -22.1762 -22.1762
-1.70059 -22.192 -22.192
-1.68864 -21.9664 -21.9664
-2.07566 -22.0634 -22.0634
-1.89125 -22.1841 -22.1841
-1.69462 -22.0792 -22.0792
-1.87892 -21.9585 -21.9585
-1.88509 -22.0712 -22.0712
-2.08201 -22.1762 -22.1762
-2.09469 -22.4021 -22.4021
-1.71253 -22.4181 -22.4181
-1.70059 -22.192 -22.192
-2.08836 -22.2891 -22.2891
-1.90356 -22.41 -22.41
-1.70656 -22.305 -22.305
-1.89125 -22.1841 -22.1841
-1.89741 -22.297 -22.297
-2.09469 -22.4021 -22.4021
-2.10733 -22.6285 -22.6285
-1.72446 -22.6445 -22.6445
-1.71253 -22.4181 -22.4181
-2.10102 -22.5152 -22.5152
-1.91584 -22.6365 -22.6365
-1.7185 -22.5312 -22.5312
-1.90356 -22.41 -22.41
-1.9097 -22.5232 -22.5232
-2.10733 -22.6285 -22.6285
-2.11995 -22.8553 -22.8553
-1.73637 -22.8714 -22.8714
-1.72446 -22.6445 -22.6445
-2.11364 -22.7418 -22.7418
-1.92811 -22.8633 -22.8633
-1.73042 -22.7579 -22.7579
-1.91584 -22.6365 -22.6365
-1.92198 -22.7498 -22.7498
-2.11995 -22.8553 -22.8553
-2.13252 -23.0825 -23.0825
-1.74827 -23.0987 -23.0987
-1.73637 -22.8714 -22.8714
-2.12624 -22.9688 -22.9688
-1.94034 -23.0906 -23.0906
-1.74233 -22.985 -22.985
-1.92811 -22.8633 -22.8633
-1.93423 -22.9769 -22.9769
-2.13252 -23.0825 -23.0825
-2.14506 -23.3101 -23.3101
-1.76016 -23.3264 -23.3264
-1.74827 -23.0987 -23.0987
-2.1388 -23.1963 -23.1963
-1.95256 -23.3182 -23.3182
-1.75422 -23.2125 -23.2125
-1.94034 -23.0906 -23.0906
-1.94645 -23.2044 -23.2044
-2.14506 -23.3101 -23.3101
-2.15757 -23.5381 -23.5381
-1.77203 -23.5545 -23.5545
-1.76016 -23.3264 -23.3264
-2.15132 -23.4241 -23.4241
-1.96474 -23.5463 -23.5463
-1.7661 -23.4404 -23.4404
-1.95256 -23.3182 -23.3182
-1.95865 -23.4322 -23.4322
-2.15757 -23.5381 -23.5381
-2.17004 -23.7665 -23.7665
-1.78388 -23.783 -23.783
-1.77203 -23.5545 -23.5545
-2.16381 -23.6523 -23.6523
-1.9769 -23.7747 -23.7747
-1.77796 -23.6687 -23.6687
-1.96474 -23.5463 -23.5463
-1.97083 -23.6605 -23.6605
-2.17004 -23.7665 -23.7665
-2.18246 -23.9953 -23.9953
-1.79571 -24.0119 -24.0119
-1.78388 -23.783 -23.783
-2.17626 -23.8808 -23.8808
-1.98904 -24.0035 -24.0035
-1.7898 -23.8974 -23.8974
-1.9769 -23.7747 -23.7747
-1.98297 -23.8891 -23.8891
-2.18246 -23.9953 -23.9953
-2.19485 -24.2244 -24.2244
-1.80753 -24.241 -24.241
-1.79571 -24.0119 -24.0119
-2.18866 -24.1098 -24.1098
-2.00114 -24.2327 -24.2327
-1.80162 -24.1264 -24.1264
-1.98904 -24.0035 -24.0035
-1.99509 -24.1181 -24.1181
-2.19485 -24.2244 -24.2244
-2.2072 -24.4538 -24.4538
-1.81932 -24.4706 -24.4706
-1.80753 -24.241 -24.241
-2.20103 -24.3391 -24.3391
-2.01321 -24.4622 -24.4622
-1.81343 -24.3558 -24.3558
-2.00114 -24.2327 -24.2327
-2.00718 -24.3474 -24.3474
-2.2072 -24.4538 -24.4538
-2.21951 -24.6836 -24.6836
-1.83109 -24.7004 -24.7004
-1.81932 -24.4706 -24.4706
-2.21336 -24.5687 -24.5687
-2.02525 -24.692 -24.692
-1.82521 -24.5855 -24.5855
-2.01321 -24.4622 -24.4622
-2.01923 -24.577 -24.577
-2.21951 -24.6836 -24.6836
-2.23177 -24.9137 -24.9137
-1.84284 -24.9306 -24.9306
-1.83109 -24.7004 -24.7004
-2.22565 -24.7986 -24.7986
-2.03726 -24.9221 -24.9221
-1.83697 -24.8155 -24.8155
-2.02525 -24.692 -24.692
-2.03126 -24.807 -24.807
-2.23177 -24.9137 -24.9137
-2.244 -25.1441 -25.1441
-1.85457 -25.1611 -25.1611
-1.84284 -24.9306 -24.9306
-2.23789 -25.0289 -25.0289
-2.04923 -25.1526 -25.1526
-1.84871 -25.0458 -25.0458
-2.03726 -24.9221 -24.9221
-2.04325 -25.0373 -25.0373
-2.244 -25.1441 -25.1441
-2.25617 -25.3748 -25.3748
-1.86627 -25.3919 -25.3919
-1.85457 -25.1611 -25.1611
-2.25009 -25.2594 -25.2594
-2.06117 -25.3833 -25.3833
-1.86042 -25.2764 -25.2764
-2.04923 -25.1526 -25.1526
-2.0552 -25.2679 -25.2679
-2.25617 -25.3748 -25.3748
-2.2683 -25.6058 -25.6058
-1.87795 -25.6229 -25.6229
-1.86627 -25.3919 -25.3919
-2.26224 -25.4903 -25.4903
-2.07307 -25.6143 -25.6143
-1.87211 -25.5074 -25.5074
-2.06117 -25.3833 -25.3833
-2.06713 -25.4988 -25.4988
-2.2683 -25.6058 -25.6058
-2.28039 -25.837 -25.837
-1.8896 -25.8543 -25.8543
-1.87795 -25.6229 -25.6229
-2.27435 -25.7214 -25.7214
-2.08494 -25.8456 -25.8456
-1.88378 -25.7386 -25.7386
-2.07307 -25.6143 -25.6143
-2.07901 -25.7299 -25.7299
-2.28039 -25.837 -25.837
-2.29242 -26.0686 -26.0686
-1.90122 -26.0858 -26.0858
-1.8896 -25.8543 -25.8543
-2.28641 -25.9528 -25.9528
-2.09677 -26.0772 -26.0772
-1.89541 -25.97 -25.97
-2.08494 -25.8456 -25.8456
-2.09086 -25.9614 -25.9614
-2.29242 -26.0686 -26.0686
-2.30441 -26.3003 -26.3003
-1.91282 -26.3177 -26.3177
-1.90122 -26.0858 -26.0858
-2.29842 -26.1844 -26.1844
-2.10856 -26.309 -26.309
-1.90702 -26.2017 -26.2017
-2.09677 -26.0772 -26.0772
-2.10267 -26.193 -26.193
-2.30441 -26.3003 -26.3003
-2.31634 -26.5323 -26.5323
-1.92438 -26.5497 -26.5497
-1.91282 -26.3177 -26.3177
-2.31038 -26.4163 -26.4163
-2.12031 -26.541 -26.541
-1.9186 -26.4337 -26.4337
-2.10856 -26.309 -26.309
-2.11444 -26.425 -26.425
-2.31634 -26.5323 -26.5323
-2.32823 -26.7645 -26.7645
-1.93591 -26.782 -26.782
-1.92438 -26.5497 -26.5497
-2.32229 -26.6484 -26.6484
-2.13202 -26.7732 -26.7732
-1.93015 -26.6658 -26.6658
-2.12031 -26.541 -26.541
-2.12617 -26.6571 -26.6571
-2.32823 -26.7645 -26.7645
-2.34006 -26.9969 -26.9969
-1.94741 -27.0145 -27.0145
-1.93591 -26.782 -26.782
-2.33415 -26.8807 -26.8807
-2.14369 -27.0057 -27.0057
-1.94167 -26.8982 -26.8982
-2.13202 -26.7732 -26.7732
-2.13786 -26.8894 -26.8894
-2.34006 -26.9969 -26.9969
-2.35184 -27.2296 -27.2296
-1.95888 -27.2472 -27.2472
-1.94741 -27.0145 -27.0145
-2.34596 -27.1132 -27.1132
-2.15531 -27.2384 -27.2384
-1.95315 -27.1308 -27.1308
-2.14369 -27.0057 -27.0057
-2.1495 -27.122 -27.122
-2.35184 -27.2296 -27.2296
-2.36357 -27.4624 -27.4624
-1.97032 -27.48 -27.48
-1.95888 -27.2472 -27.2472
-2.35771 -27.346 -27.346
-2.16689 -27.4712 -27.4712
-1.9646 -27.3636 -27.3636
-2.15531 -27.2384 -27.2384
-2.16111 -27.3548 -27.3548
-2.36357 -27.4624 -27.4624
-2.37524 -27.6954 -27.6954
-1.98171 -27.7131 -27.7131
-1.97032 -27.48 -27.48
-2.36941 -27.5789 -27.5789
-2.17842 -27.7042 -27.7042
-1.97602 -27.5965 -27.5965
-2.16689 -27.4712 -27.4712
-2.17266 -27.5877 -27.5877
-2.37524 -27.6954 -27.6954
-2.38685 -27.9285 -27.9285
-1.99308 -27.9463 -27.9463
-1.98171 -27.7131 -27.7131
-2.38105 -27.8119 -27.8119
-2.18991 -27.9374 -27.9374
-1.9874 -27.8297 -27.8297
-2.17842 -27.7042 -27.7042
-2.18417 -27.8208 -27.8208
-2.38685 -27.9285 -27.9285
-2.3984 -28.1618 -28.1618
-2.0044 -28.1796 -28.1796
-1.99308 -27.9463 -27.9463
-2.39263 -28.0452 -28.0452
-2.20135 -28.1707 -28.1707
-1.99874 -28.0629 -28.0629
-2.18991 -27.9374 -27.9374
-2.19564 -28.054 -28.054
-2.3984 -28.1618 -28.1618
-2.4099 -28.3953 -28.3953
-2.01569 -28.4131 -28.4131
-2.0044 -28.1796 -28.1796
-2.40416 -28.2785 -28.2785
-2.21274 -28.4042 -28.4042
-2.01005 -28.2964 -28.2964
-2.20135 -28.1707 -28.1707
-2.20705 -28.2874 -28.2874
-2.4099 -28.3953 -28.3953
-2.42134 -28.6288 -28.6288
-2.02693 -28.6467 -28.6467
-2.01569 -28.4131 -28.4131
-2.41563 -28.512 -28.512
-2.22409 -28.6378 -28.6378
-2.02132 -28.5299 -28.5299
-2.21274 -28.4042 -28.4042
-2.21842 -28.521 -28.521
-2.42134 -28.6288 -28.6288
-2.43271 -28.8625 -28.8625
-2.03814 -28.8805 -28.8805
-2.02693 -28.6467 -28.6467
-2.42703 -28.7456 -28.7456
-2.23538 -28.8715 -28.8715
-2.03254 -28.7636 -28.7636
-2.22409 -28.6378 -28.6378
-2.22974 -28.7546 -28.7546
-2.43271 -28.8625 -28.8625
-2.44403 -29.0963 -29.0963
-2.0493 -29.1143 -29.1143
-2.03814 -28.8805 -28.8805
-2.43838 -28.9794 -28.9794
-2.24662 -29.1053 -29.1053
-2.04373 -28.9974 -28.9974
-2.23538 -28.8715 -28.8715
-2.241 -28.9884 -28.9884
-2.44403 -29.0963 -29.0963
-2.45529 -29.3301 -29.3301
-2.06042 -29.3482 -29.3482
-2.0493 -29.1143 -29.1143
-2.44967 -29.2132 -29.2132
-2.25781 -29.3392 -29.3392
-2.05487 -29.2312 -29.2312
-2.24662 -29.1053 -29.1053
-2.25222 -29.2222 -29.2222
-2.45529 -29.3301 -29.3301
-2.46649 -29.5641 -29.5641
-2.0715 -29.5822 -29.5822
-2.06042 -29.3482 -29.3482
-2.4609 -29.4471 -29.4471
-2.26895 -29.5731 -29.5731
-2.06596 -29.4652 -29.4652
-2.25781 -29.3392 -29.3392
-2.26338 -29.4561 -29.4561
-2.46649 -29.5641 -29.5641
-2.47764 -29.7981 -29.7981
-2.08252 -29.8162 -29.8162
-2.0715 -29.5822 -29.5822
-2.47207 -29.6811 -29.6811
-2.28004 -29.8072 -29.8072
-2.07701 -29.6992 -29.6992
-2.26895 -29.5731 -29.5731
-2.2745 -29.6901 -29.6901
-2.47764 -29.7981 -29.7981
-2.48876 -30.0322 -30.0322
-2.09349 -30.0504 -30.0504
-2.08252 -29.8162 -29.8162
-2.48321 -29.9152 -29.9152
-2.29108 -30.0413 -30.0413
-2.08801 -29.9333 -29.9333
-2.28004 -29.8072 -29.8072
-2.28557 -29.9242 -29.9242
-2.48876 -30.0322 -30.0322
-2.49988 -30.2664 -30.2664
-2.1044 -30.2846 -30.2846
-2.09349 -30.0504 -30.0504
-2.49432 -30.1493 -30.1493
-2.30208 -30.2755 -30.2755
-2.09895 -30.1675 -30.1675
-2.29108 -30.0413 -30.0413
-2.29659 -30.1584 -30.1584
-2.49988 -30.2664 -30.2664
-2.51107 -30.5008 -30.5008
-2.11526 -30.519 -30.519
-2.1044 -30.2846 -30.2846
-2.50546 -30.3836 -30.3836
-2.31301 -30.5099 -30.5099
-2.10983 -30.4018 -30.4018
-2.30208 -30.2755 -30.2755
-2.30756 -30.3927 -30.3927
-2.51107 -30.5008 -30.5008
-2.52237 -30.7361 -30.7361
-2.12617 -30.7534 -30.7534
-2.11526 -30.519 -30.519
-2.51672 -30.6182 -30.6182
-2.32393 -30.7448 -30.7448
-2.1207 -30.6362 -30.6362
-2.31301 -30.5099 -30.5099
-2.31845 -30.6273 -30.6273
0 0 0
-0.00917942 -0.00257058 -0.00257058
-0.00535188 -0.000529617 -0.000529617
0 0 0
-0.00445338 -0.00091881 -0.00091881
-0.00719411 -0.00130069 -0.00130069
-0.00259509 0.000170745 0.000170745
0 0 0
-0.00354217 -0.000269612 -0.000269612
-0.00917942 -0.00257058 -0.00257058
-0.019122 -0.00743118 -0.00743118
-0.0111118 -0.00409912 -0.00409912
-0.00535188 -0.000529617 -0.000529617
-0.0141033 -0.00476603 -0.00476603
-0.0149811 -0.00547675 -0.00547675
-0.00819579 -0.00197053 -0.00197053
-0.00719411 -0.00130069 -0.00130069
-0.0110251 -0.0030687 -0.0030687
-0.019122 -0.00743118 -0.00743118
-0.0291554 -0.0141125 -0.0141125
-0.0171134 -0.0102839 -0.0102839
-0.0111118 -0.00409912 -0.00409912
-0.0241444 -0.0105362 -0.0105362
-0.0230161 -0.0119277 -0.0119277
-0.014094 -0.00688174 -0.00688174
-0.0149811 -0.00547675 -0.00547675
-0.0189882 -0.00843169 -0.00843169
-0.0291554 -0.0141125 -0.0141125
-0.0391426 -0.0228208 -0.0228208
-0.0231682 -0.0188515 -0.0188515
-0.0171134 -0.0102839 -0.0102839
-0.034157 -0.0182014 -0.0182014
-0.0310694 -0.0205846 -0.0205846
-0.0201407 -0.0142763 -0.0142763
-0.0230161 -0.0119277 -0.0119277
-0.0270469 -0.015978 -0.015978
-0.0391426 -0.0228208 -0.0228208
-0.0490519 -0.0337011 -0.0337011
-0.0292089 -0.0297395 -0.0297395
-0.0231682 -0.0188515 -0.0188515
-0.0441063 -0.0279833 -0.0279833
-0.0390667 -0.0314744 -0.0314744
-0.0261927 -0.0240072 -0.0240072
-0.0310694 -0.0205846 -0.0205846
-0.0350761 -0.0257479 -0.0257479
-0.0490519 -0.0337011 -0.0337011
-0.058905 -0.0468364 -0.0468364
-0.0352029 -0.0429236 -0.0429236
-0.0292089 -0.0297395 -0.0297395
-0.0539847 -0.0399845 -0.0399845
-0.047004 -0.0446366 -0.0446366
-0.032212 -0.036045 -0.036045
-0.0390667 -0.0314744 -0.0314744
-0.0430424 -0.0377702 -0.0377702
-0.058905 -0.0468364 -0.0468364
-0.0687079 -0.0622497 -0.0622497
-0.0411552 -0.0583995 -0.0583995
-0.0352029 -0.0429236 -0.0429236
-0.0638122 -0.0542578 -0.0542578
-0.0548889 -0.0600814 -0.0600814
-0.0381839 -0.0503755 -0.0503755
-0.047004 -0.0446366 -0.0446366
-0.0509523 -0.0520735 -0.0520735
-0.0687079 -0.0622497 -0.0622497
-0.0784699 -0.0799467 -0.0799467
-0.0470714 -0.0761589 -0.0761589
-0.0411552 -0.0583995 -0.0583995
-0.0735937 -0.070813 -0.070813
-0.0627318 -0.0778098 -0.0778098
-0.0441173 -0.0669943 -0.0669943
-0.0548889 -0.0600814 -0.0600814
-0.058815 -0.0686605 -0.0686605
-0.0784699 -0.0799467 -0.0799467
-0.0881947 -0.09992 -0.09992
-0.0529614 -0.0961937 -0.0961937
-0.0470714 -0.0761589 -0.0761589
-0.0833368 -0.0896494 -0.0896494
-0.0705409 -0.0978142 -0.0978142
-0.0500192 -0.0858925 -0.0858925
-0.0627318 -0.0778098 -0.0778098
-0.0666402 -0.0875281 -0.0875281
-0.0881947 -0.09992 -0.09992
-0.097886 -0.122159 -0.122159
-0.0588313 -0.118493 -0.118493
-0.0529614 -0.0961937 -0.0961937
-0.0930444 -0.110757 -0.110757
-0.0783222 -0.120084 -0.120084
-0.0558985 -0.107061 -0.107061
-0.0705409 -0.0978142 -0.0978142
-0.0744347 -0.108667 -0.108667
-0.097886 -0.122159 -0.122159
-0.107546 -0.146652 -0.146652
-0.0646869 -0.143047 -0.143047
-0.0588313 -0.118493 -0.118493
-0.10272 -0.134124 -0.134124
-0.0860801 -0.144608 -0.144608
-0.0617607 -0.130489 -0.130489
-0.0783222 -0.120084 -0.120084
-0.0822038 -0.132065 -0.132065
-0.107546 -0.146652 -0.146652
-0.117177 -0.173385 -0.173385
-0.0705319 -0.169842 -0.169842
-0.0646869 -0.143047 -0.143047
-0.112365 -0.159739 -0.159739
-0.093818 -0.171374 -0.171374
-0.0676105 -0.156165 -0.156165
-0.0860801 -0.144608 -0.144608
-0.0899514 -0.157711 -0.157711
-0.117177 -0.173385 -0.173385
-0.12678 -0.202346 -0.202346
-0.0763693 -0.198868 -0.198868
-0.0705319 -0.169842 -0.169842
-0.121982 -0.187588 -0.187588
-0.101538 -0.200368 -0.200368
-0.0734514 -0.184077 -0.184077
-0.093818 -0.171374 -0.171374
-0.0976802 -0.185593 -0.185593
-0.12678 -0.202346 -0.202346
-0.136359 -0.233524 -0.233524
-0.0822015 -0.230112 -0.230112
-0.0763693 -0.198868 -0.198868
-0.131573 -0.217659 -0.217659
-0.109243 -0.23158 -0.23158
-0.0792859 -0.214213 -0.214213
-0.101538 -0.200368 -0.200368
-0.105393 -0.215698 -0.215698
-0.136359 -0.233524 -0.233524
-0.145914 -0.266904 -0.266904
-0.0880306 -0.263562 -0.263562
-0.0822015 -0.230112 -0.230112
-0.141139 -0.249939 -0.249939
-0.116935 -0.264997 -0.264997
-0.0851163 -0.246562 -0.246562
-0.109243 -0.23158 -0.23158
-0.113091 -0.248014 -0.248014
-0.145914 -0.266904 -0.266904
-0.155447 -0.302477 -0.302477
-0.0938585 -0.299206 -0.299206
-0.0880306 -0.263562 -0.263562
-0.150683 -0.284417 -0.284417
-0.124616 -0.300607 -0.300607
-0.0909446 -0.281111 -0.281111
-0.116935 -0.264997 -0.264997
-0.120777 -0.282529 -0.282529
-0.155447 -0.302477 -0.302477
-0.16496 -0.340228 -0.340228
-0.099687 -0.337033 -0.337033
-0.0938585 -0.299206 -0.299206
-0.160206 -0.321081 -0.321081
-0.132286 -0.338397 -0.338397
-0.0967725 -0.317848 -0.317848
-0.124616 -0.300607 -0.300607
-0.128452 -0.31923 -0.31923
-0.16496 -0.340228 -0.340228
-0.174455 -0.380147 -0.380147
-0.105518 -0.377029 -0.377029
-0.099687 -0.337033 -0.337033
-0.16971 -0.359917 -0.359917
-0.139949 -0.378356 -0.378356
-0.102602 -0.356761 -0.356761
-0.132286 -0.338397 -0.338397
-0.136119 -0.358106 -0.358106
-0.174455 -0.380147 -0.380147
-0.183934 -0.422221 -0.422221
-0.111352 -0.419184 -0.419184
-0.105518 -0.377029 -0.377029
-0.179196 -0.400915 -0.400915
-0.147605 -0.420472 -0.420472
-0.108434 -0.397838 -0.397838
-0.139949 -0.378356 -0.378356
-0.143778 -0.399145 -0.399145
-0.183934 -0.422221 -0.422221
-0.193397 -0.466438 -0.466438
-0.117193 -0.463484 -0.463484
-0.111352 -0.419184 -0.419184
-0.188667 -0.444062 -0.444062
-0.155257 -0.464732 -0.464732
-0.114272 -0.441067 -0.441067
-0.147605 -0.420472 -0.420472
-0.151432 -0.442334 -0.442334
-0.193397 -0.466438 -0.466438
-0.202847 -0.512786 -0.512786
-0.12304 -0.509919 -0.509919
-0.117193 -0.463484 -0.463484
-0.198123 -0.489347 -0.489347
-0.162906 -0.511125 -0.511125
-0.120115 -0.486436 -0.486436
-0.155257 -0.464732 -0.464732
-0.159082 -0.487662 -0.487662
-0.202847 -0.512786 -0.512786
-0.212285 -0.561254 -0.561254
-0.128896 -0.558475 -0.558475
-0.12304 -0.509919 -0.509919
-0.207567 -0.536756 -0.536756
-0.170553 -0.559638 -0.559638
-0.125967 -0.533932 -0.533932
-0.162906 -0.511125 -0.511125
-0.166729 -0.535117 -0.535117
-0.212285 -0.561254 -0.561254
-0.221713 -0.611829 -0.611829
-0.134763 -0.609141 -0.609141
-0.128896 -0.558475 -0.558475
-0.217 -0.586279 -0.586279
-0.1782 -0.61026 -0.61026
-0.131828 -0.583545 -0.583545
-0.170553 -0.559638 -0.559638
-0.174376 -0.584686 -0.584686
-0.221713 -0.611829 -0.611829
-0.231132 -0.664499 -0.664499
-0.140641 -0.661905 -0.661905
-0.134763 -0.609141 -0.609141
-0.226423 -0.637903 -0.637903
-0.185848 -0.662978 -0.662978
-0.1377 -0.635261 -0.635261
-0.1782 -0.61026 -0.61026
-0.182024 -0.636357 -0.636357
-0.231132 -0.664499 -0.664499
-0.240544 -0.719252 -0.719252
-0.146533 -0.716754 -0.716754
-0.140641 -0.661905 -0.661905
-0.235839 -0.691616 -0.691616
-0.1935 -0.717781 -0.717781
-0.143585 -0.68907 -0.68907
-0.185848 -0.662978 -0.662978
-0.189673 -0.690119 -0.690119
-0.240544 -0.719252 -0.719252
-0.24995 -0.776076 -0.776076
-0.152439 -0.773677 -0.773677
-0.146533 -0.716754 -0.716754
-0.245247 -0.747406 -0.747406
-0.201155 -0.774655 -0.774655
-0.149484 -0.744957 -0.744957
-0.1935 -0.717781 -0.717781
-0.197327 -0.74596 -0.74596
-0.24995 -0.776076 -0.776076
-0.259351 -0.83496 -0.83496
-0.158361 -0.832662 -0.832662
-0.152439 -0.773677 -0.773677
-0.254651 -0.805261 -0.805261
-0.208817 -0.833591 -0.833591
-0.155398 -0.802912 -0.802912
-0.201155 -0.774655 -0.774655
-0.204986 -0.803866 -0.803866
-0.259351 -0.83496 -0.83496
-0.26875 -0.89589 -0.89589
-0.164301 -0.893696 -0.893696
-0.158361 -0.832662 -0.832662
-0.264051 -0.86517 -0.86517
-0.216486 -0.894574 -0.894574
-0.161329 -0.862923 -0.862923
-0.208817 -0.833591 -0.833591
-0.212651 -0.863827 -0.863827
-0.26875 -0.89589 -0.89589
-0.278146 -0.958856 -0.958856
-0.17026 -0.956767 -0.956767
-0.164301 -0.893696 -0.893696
-0.273448 -0.92712 -0.92712
-0.224164 -0.957594 -0.957594
-0.167278 -0.924977 -0.924977
-0.216486 -0.894574 -0.894574
-0.220324 -0.92583 -0.92583
-0.278146 -0.958856 -0.958856
-0.287543 -1.02384 -1.02384
-0.176239 -1.02186 -1.02186
-0.17026 -0.956767 -0.956767
-0.282845 -0.991098 -0.991098
-0.231851 -1.02264 -1.02264
-0.173247 -0.989063 -0.989063
-0.224164 -0.957594 -0.957594
-0.228006 -0.989864 -0.989864
-0.287543 -1.02384 -1.02384
-0.29694 -1.09084 -1.09084
-0.182239 -1.08897 -1.08897
-0.176239 -1.02186 -1.02186
-0.292241 -1.05709 -1.05709
-0.23955 -1.08969 -1.08969
-0.179236 -1.05517 -1.05517
-0.231851 -1.02264 -1.02264
-0.235699 -1.05592 -1.05592
-0.29694 -1.09084 -1.09084
-0.30634 -1.15984 -1.15984
-0.188262 -1.15808 -1.15808
-0.182239 -1.08897 -1.08897
-0.30164 -1.12509 -1.12509
-0.247261 -1.15875 -1.15875
-0.185248 -1.12328 -1.12328
-0.23955 -1.08969 -1.08969
-0.243404 -1.12397 -1.12397
-0.30634 -1.15984 -1.15984
-0.315743 -1.23083 -1.23083
-0.19431 -1.22918 -1.22918
-0.188262 -1.15808 -1.15808
-0.311041 -1.19509 -1.19509
-0.254987 -1.22979 -1.22979
-0.191283 -1.19339 -1.19339
-0.247261 -1.15875 -1.15875
-0.251122 -1.19402 -1.19402
-0.315743 -1.23083 -1.23083
-0.325151 -1.30379 -1.30379
-0.200382 -1.30226 -1.30226
-0.19431 -1.22918 -1.22918
-0.320446 -1.26706 -1.26706
-0.262727 -1.30282 -1.30282
-0.197343 -1.26548 -1.26548
-0.254987 -1.22979 -1.22979
-0.258855 -1.26606 -1.26606
-0.325151 -1.30379 -1.30379
-0.334564 -1.37871 -1.37871
-0.206481 -1.3773 -1.3773
-0.200382 -1.30226 -1.30226
-0.329857 -1.34101 -1.34101
-0.270483 -1.3778 -1.3778
-0.203428 -1.33954 -1.33954
-0.262727 -1.30282 -1.30282
-0.266603 -1.34006 -1.34006
-0.334564 -1.37871 -1.37871
-0.343985 -1.45559 -1.45559
-0.212608 -1.4543 -1.4543
-0.206481 -1.3773 -1.3773
-0.339274 -1.41691 -1.41691
-0.278256 -1.45474 -1.45474
-0.209541 -1.41556 -1.41556
-0.270483 -1.3778 -1.3778
-0.274367 -1.41602 -1.41602
-0.343985 -1.45559 -1.45559
-0.353414 -1.5344 -1.5344
-0.218763 -1.53323 -1.53323
-0.212608 -1.4543 -1.4543
-0.348698 -1.49475 -1.49475
-0.286048 -1.53361 -1.53361
-0.215682 -1.49352 -1.49352
-0.278256 -1.45474 -1.45474
-0.28215 -1.49393 -1.49393
-0.353414 -1.5344 -1.5344
-0.362852 -1.61514 -1.61514
-0.224948 -1.6141 -1.6141
-0.218763 -1.53323 -1.53323
-0.358132 -1.57453 -1.57453
-0.29386 -1.61442 -1.61442
-0.221852 -1.57343 -1.57343
-0.286048 -1.53361 -1.53361
-0.289952 -1.57377 -1.57377
-0.362852 -1.61514 -1.61514
-0.372301 -1.6978 -1.6978
-0.231164 -1.69688 -1.69688
-0.224948 -1.6141 -1.6141
-0.367575 -1.65623 -1.65623
-0.301692 -1.69713 -1.69713
-0.228052 -1.65525 -1.65525
-0.29386 -1.61442 -1.61442
-0.297773 -1.65554 -1.65554
-0.372301 -1.6978 -1.6978
-0.38176 -1.78236 -1.78236
-0.237412 -1.78156 -1.78156
-0.231164 -1.69688 -1.69688
-0.377029 -1.73984 -1.73984
-0.309546 -1.78176 -1.78176
-0.234284 -1.73898 -1.73898
-0.301692 -1.69713 -1.69713
-0.305616 -1.73921 -1.73921
-0.38176 -1.78236 -1.78236
-0.391233 -1.8688 -1.8688
-0.243693 -1.86814 -1.86814
-0.237412 -1.78156 -1.78156
-0.386495 -1.82534 -1.82534
-0.317422 -1.86827 -1.86827
-0.240548 -1.82462 -1.82462
-0.309546 -1.78176 -1.78176
-0.313481 -1.82478 -1.82478
-0.391233 -1.8688 -1.8688
-0.400719 -1.95713 -1.95713
-0.250008 -1.9566 -1.9566
-0.243693 -1.86814 -1.86814
-0.395974 -1.91273 -1.91273
-0.325323 -1.95667 -1.95667
-0.246846 -1.91214 -1.91214
-0.317422 -1.86827 -1.86827
-0.321369 -1.91224 -1.91224
-0.400719 -1.95713 -1.95713
-0.410219 -2.04733 -2.04733
-0.256358 -2.04693 -2.04693
-0.250008 -1.9566 -1.9566
-0.405467 -2.002 -2.002
-0.333248 -2.04693 -2.04693
-0.253179 -2.00153 -2.00153
-0.325323 -1.95667 -1.95667
-0.329282 -2.00157 -2.00157
-0.410219 -2.04733 -2.04733
-0.419734 -2.13938 -2.13938
-0.262744 -2.13911 -2.13911
-0.256358 -2.04693 -2.04693
-0.414974 -2.09312 -2.09312
-0.341198 -2.13905 -2.13905
-0.259546 -2.09279 -2.09279
-0.333248 -2.04693 -2.04693
-0.33722 -2.09276 -2.09276
-0.419734 -2.13938 -2.13938
-0.429266 -2.23327 -2.23327
-0.269166 -2.23314 -2.23314
-0.262744 -2.13911 -2.13911
-0.424498 -2.18609 -2.18609
-0.349175 -2.23301 -2.23301
-0.265951 -2.18589 -2.18589
-0.341198 -2.13905 -2.13905
-0.345183 -2.1858 -2.1858
-0.429266 -2.23327 -2.23327
-0.438815 -2.32899 -2.32899
-0.275627 -2.329 -2.329
-0.269166 -2.23314 -2.23314
-0.434038 -2.2809 -2.2809
-0.35718 -2.3288 -2.3288
-0.272392 -2.28084 -2.28084
-0.349175 -2.23301 -2.23301
-0.353174 -2.28067 -2.28067
-0.438815 -2.32899 -2.32899
-0.448382 -2.42653 -2.42653
-0.282126 -2.42668 -2.42668
-0.275627 -2.329 -2.329
-0.443596 -2.37753 -2.37753
-0.365213 -2.42641 -2.42641
-0.278871 -2.37761 -2.37761
-0.35718 -2.3288 -2.3288
-0.361193 -2.37738 -2.37738
-0.448382 -2.42653 -2.42653
-0.457968 -2.52588 -2.52588
-0.288664 -2.52616 -2.52616
-0.282126 -2.42668 -2.42668
-0.453172 -2.47598 -2.47598
-0.373274 -2.52583 -2.52583
-0.28539 -2.47619 -2.47619
-0.365213 -2.42641 -2.42641
-0.36924 -2.47589 -2.47589
-0.457968 -2.52588 -2.52588
-0.467573 -2.62702 -2.62702
-0.295242 -2.62745 -2.62745
-0.288664 -2.52616 -2.52616
-0.462768 -2.57622 -2.57622
-0.381366 -2.62704 -2.62704
-0.291948 -2.57658 -2.57658
-0.373274 -2.52583 -2.52583
-0.377317 -2.57621 -2.57621
-0.467573 -2.62702 -2.62702
-0.477199 -2.72994 -2.72994
-0.301862 -2.73051 -2.73051
-0.295242 -2.62745 -2.62745
-0.472383 -2.67826 -2.67826
-0.389489 -2.73004 -2.73004
-0.298547 -2.67876 -2.67876
-0.381366 -2.62704 -2.62704
-0.385424 -2.67832 -2.67832
-0.477199 -2.72994 -2.72994
-0.486846 -2.83464 -2.83464
-0.308523 -2.83535 -2.83535
-0.301862 -2.73051 -2.73051
-0.48202 -2.78207 -2.78207
-0.397643 -2.83481 -2.83481
-0.305187 -2.78271 -2.78271
-0.389489 -2.73004 -2.73004
-0.393562 -2.7822 -2.7822
-0.486846 -2.83464 -2.83464
-0.496515 -2.94109 -2.94109
-0.315227 -2.94195 -2.94195
-0.308523 -2.83535 -2.83535
-0.491678 -2.88765 -2.88765
-0.405829 -2.94133 -2.94133
-0.31187 -2.88843 -2.88843
-0.397643 -2.83481 -2.83481
-0.401732 -2.88785 -2.88785
-0.496515 -2.94109 -2.94109
-0.506207 -3.04929 -3.04929
-0.321974 -3.0503 -3.0503
-0.315227 -2.94195 -2.94195
-0.501358 -2.99497 -2.99497
-0.414049 -3.04961 -3.04961
-0.318595 -2.99591 -2.99591
-0.405829 -2.94133 -2.94133
-0.409935 -2.99525 -2.99525
-0.506207 -3.04929 -3.04929
-0.515922 -3.15923 -3.15923
-0.328765 -3.16038 -3.16038
-0.321974 -3.0503 -3.0503
-0.511061 -3.10404 -3.10404
-0.422301 -3.15962 -3.15962
-0.325364 -3.10512 -3.10512
-0.414049 -3.04961 -3.04961
-0.418171 -3.1044 -3.1044
-0.515922 -3.15923 -3.15923
-0.525661 -3.27088 -3.27088
-0.3356 -3.27218 -3.27218
-0.328765 -3.16038 -3.16038
-0.520788 -3.21484 -3.21484
-0.430589 -3.27135 -3.27135
-0.332177 -3.21606 -3.21606
-0.422301 -3.15962 -3.15962
-0.426441 -3.21527 -3.21527
-0.525661 -3.27088 -3.27088
-0.535424 -3.38425 -3.38425
-0.34248 -3.3857 -3.3857
-0.3356 -3.27218 -3.27218
-0.530539 -3.32735 -3.32735
-0.438911 -3.38479 -3.38479
-0.339035 -3.32873 -3.32873
-0.430589 -3.27135 -3.27135
-0.434745 -3.32786 -3.32786
-0.535424 -3.38425 -3.38425
-0.545213 -3.49931 -3.49931
-0.349407 -3.50091 -3.50091
-0.34248 -3.3857 -3.3857
-0.540316 -3.44157 -3.44157
-0.447268 -3.49993 -3.49993
-0.345938 -3.44309 -3.44309
-0.438911 -3.38479 -3.38479
-0.443085 -3.44215 -3.44215
-0.545213 -3.49931 -3.49931
-0.555028 -3.61606 -3.61606
-0.356379 -3.61781 -3.61781
-0.349407 -3.50091 -3.50091
-0.550117 -3.55748 -3.55748
-0.455662 -3.61676 -3.61676
-0.352887 -3.55915 -3.55915
-0.447268 -3.49993 -3.49993
-0.45146 -3.55814 -3.55814
-0.555028 -3.61606 -3.61606
-0.564869 -3.73449 -3.73449
-0.363399 -3.73639 -3.73639
-0.356379 -3.61781 -3.61781
-0.559945 -3.67507 -3.67507
-0.464092 -3.73526 -3.73526
-0.359883 -3.67689 -3.67689
-0.455662 -3.61676 -3.61676
-0.459872 -3.6758 -3.6758
-0.564869 -3.73449 -3.73449
-0.574737 -3.85458 -3.85458
-0.370466 -3.85663 -3.85663
-0.363399 -3.73639 -3.73639
-0.5698 -3.79432 -3.79432
-0.47256 -3.85543 -3.85543
-0.366927 -3.79631 -3.79631
-0.464092 -3.73526 -3.73526
-0.468321 -3.79514 -3.79514
-0.574737 -3.85458 -3.85458
-0.584633 -3.97631 -3.97631
-0.377581 -3.97852 -3.97852
-0.370466 -3.85663 -3.85663
-0.579681 -3.91524 -3.91524
-0.481065 -3.97724 -3.97724
-0.374018 -3.91737 -3.91737
-0.47256 -3.85543 -3.85543
-0.476808 -3.91613 -3.91613
-0.584633 -3.97631 -3.97631
-0.594556 -4.09969 -4.09969
-0.384745 -4.10205 -4.10205
-0.377581 -3.97852 -3.97852
-0.589591 -4.0378 -4.0378
-0.489608 -4.1007 -4.1007
-0.381157 -4.04008 -4.04008
-0.481065 -3.97724 -3.97724
-0.485332 -4.03877 -4.03877
-0.594556 -4.09969 -4.09969
-0.604508 -4.22469 -4.22469
-0.391957 -4.22721 -4.22721
-0.384745 -4.10205 -4.10205
-0.599529 -4.16199 -4.16199
-0.498191 -4.22578 -4.22578
-0.388345 -4.16443 -4.16443
-0.489608 -4.1007 -4.1007
-0.493895 -4.16304 -4.16304
-0.604508 -4.22469 -4.22469
-0.614489 -4.3513 -4.3513
-0.399219 -4.35398 -4.35398
-0.391957 -4.22721 -4.22721
-0.609495 -4.2878 -4.2878
-0.506812 -4.35247 -4.35247
-0.395582 -4.2904 -4.2904
-0.498191 -4.22578 -4.22578
-0.502496 -4.28892 -4.28892
-0.614489 -4.3513 -4.3513
-0.624499 -4.47952 -4.47952
-0.406531 -4.48236 -4.48236
-0.399219 -4.35398 -4.35398
-0.61949 -4.41521 -4.41521
-0.515473 -4.48077 -4.48077
-0.402869 -4.41797 -4.41797
-0.506812 -4.35247 -4.35247
-0.511137 -4.41642 -4.41642
-0.624499 -4.47952 -4.47952
-0.634539 -4.60933 -4.60933
-0.413893 -4.61232 -4.61232
-0.406531 -4.48236 -4.48236
-0.629515 -4.54423 -4.54423
-0.524174 -4.61066 -4.61066
-0.410206 -4.54714 -4.54714
-0.515473 -4.48077 -4.48077
-0.519818 -4.54552 -4.54552
-0.634539 -4.60933 -4.60933
-0.644609 -4.74071 -4.74071
-0.421306 -4.74386 -4.74386
-0.413893 -4.61232 -4.61232
-0.63957 -4.67482 -4.67482
-0.532915 -4.74212 -4.74212
-0.417593 -4.6779 -4.6779
-0.524174 -4.61066 -4.61066
-0.528539 -4.67619 -4.67619
-0.644609 -4.74071 -4.74071
-0.654709 -4.87366 -4.87366
-0.428769 -4.87697 -4.87697
-0.421306 -4.74386 -4.74386
-0.649655 -4.80699 -4.80699
-0.541697 -4.87515 -4.87515
-0.425031 -4.81022 -4.81022
-0.532915 -4.74212 -4.74212
-0.537301 -4.80844 -4.80844
-0.654709 -4.87366 -4.87366
-0.66484 -5.00817 -5.00817
-0.436284 -5.01164 -5.01164
-0.428769 -4.87697 -4.87697
-0.659771 -4.94072 -4.94072
-0.550519 -5.00974 -5.00974
-0.43252 -4.94411 -4.94411
-0.541697 -4.87515 -4.87515
-0.546103 -4.94225 -4.94225
-0.66484 -5.00817 -5.00817
-0.675002 -5.14422 -5.14422
-0.44385 -5.14784 -5.14784
-0.436284 -5.01164 -5.01164
-0.669917 -5.076 -5.076
-0.559384 -5.14587 -5.14587
-0.440061 -5.07955 -5.07955
-0.550519 -5.00974 -5.00974
-0.554946 -5.07761 -5.07761
-0.675002 -5.14422 -5.14422
-0.685195 -5.28179 -5.28179
-0.451468 -5.28558 -5.28558
-0.44385 -5.14784 -5.14784
-0.680095 -5.21281 -5.21281
-0.568289 -5.28353 -5.28353
-0.447653 -5.21652 -5.21652
-0.559384 -5.14587 -5.14587
-0.563831 -5.21451 -5.21451
-0.685195 -5.28179 -5.28179
-0.695421 -5.42089 -5.42089
-0.459139 -5.42484 -5.42484
-0.451468 -5.28558 -5.28558
-0.690304 -5.35115 -5.35115
-0.577237 -5.4227 -5.4227
-0.455297 -5.35502 -5.35502
-0.568289 -5.28353 -5.28353
-0.572758 -5.35292 -5.35292
-0.695421 -5.42089 -5.42089
-0.705677 -5.56149 -5.56149
-0.466862 -5.5656 -5.5656
-0.459139 -5.42484 -5.42484
-0.700545 -5.491 -5.491
-0.586227 -5.56338 -5.56338
-0.462994 -5.49503 -5.49503
-0.577237 -5.4227 -5.4227
-0.581727 -5.49285 -5.49285
-0.705677 -5.56149 -5.56149
-0.715967 -5.70358 -5.70358
-0.474637 -5.70785 -5.70785
-0.466862 -5.5656 -5.5656
-0.710818 -5.63235 -5.63235
-0.595259 -5.70556 -5.70556
-0.470743 -5.63654 -5.63654
-0.586227 -5.56338 -5.56338
-0.590738 -5.63428 -5.63428
-0.715967 -5.70358 -5.70358
-0.726288 -5.84715 -5.84715
-0.482465 -5.85159 -5.85159
-0.474637 -5.70785 -5.70785
-0.721123 -5.77518 -5.77518
-0.604334 -5.84921 -5.84921
-0.478544 -5.77953 -5.77953
-0.595259 -5.70556 -5.70556
-0.599791 -5.7772 -5.7772
-0.726288 -5.84715 -5.84715
-0.736642 -5.9922 -5.9922
-0.490346 -5.99679 -5.99679
-0.482465 -5.85159 -5.85159
-0.731461 -5.91949 -5.91949
-0.613451 -5.99434 -5.99434
-0.486399 -5.92401 -5.92401
-0.604334 -5.84921 -5.84921
-0.608887 -5.92159 -5.92159
-0.736642 -5.9922 -5.9922
-0.747028 -6.1387 -6.1387
-0.49828 -6.14346 -6.14346
-0.490346 -5.99679 -5.99679
-0.741831 -6.06527 -6.06527
-0.622612 -6.14093 -6.14093
-0.494307 -6.06994 -6.06994
-0.613451 -5.99434 -5.99434
-0.618026 -6.06745 -6.06745
-0.747028 -6.1387 -6.1387
-0.757447 -6.28665 -6.28665
-0.506268 -6.29157 -6.29157
-0.49828 -6.14346 -6.14346
-0.752234 -6.21249 -6.21249
-0.631815 -6.28896 -6.28896
-0.502268 -6.21733 -6.21733
-0.622612 -6.14093 -6.14093
-0.627208 -6.21476 -6.21476
-0.757447 -6.28665 -6.28665
-0.7679 -6.43603 -6.43603
-0.514309 -6.44111 -6.44111
-0.506268 -6.29157 -6.29157
-0.762669 -6.36116 -6.36116
-0.641062 -6.43842 -6.43842
-0.510282 -6.36616 -6.36616
-0.631815 -6.28896 -6.28896
-0.636433 -6.36351 -6.36351
-0.7679 -6.43603 -6.43603
-0.778385 -6.58683 -6.58683
-0.522403 -6.59208 -6.59208
-0.514309 -6.44111 -6.44111
-0.773138 -6.51125 -6.51125
-0.650351 -6.5893 -6.5893
-0.518349 -6.51642 -6.51642
-0.641062 -6.43842 -6.43842
-0.645701 -6.51368 -6.51368
-0.778385 -6.58683 -6.58683
-0.788903 -6.73904 -6.73904
-0.530551 -6.74445 -6.74445
-0.522403 -6.59208 -6.59208
-0.78364 -6.66276 -6.66276
-0.659685 -6.7416 -6.7416
-0.526471 -6.66809 -6.66809
-0.650351 -6.5893 -6.5893
-0.655013 -6.66528 -6.66528
-0.788903 -6.73904 -6.73904
-0.799454 -6.89265 -6.89265
-0.538753 -6.89822 -6.89822
-0.530551 -6.74445 -6.74445
-0.794174 -6.81567 -6.81567
-0.669061 -6.89529 -6.89529
-0.534645 -6.82116 -6.82116
-0.659685 -6.7416 -6.7416
-0.664367 -6.81827 -6.81827
-0.799454 -6.89265 -6.89265
-0.810039 -7.04764 -7.04764
-0.547008 -7.05338 -7.05338
-0.538753 -6.89822 -6.89822
-0.804742 -6.96998 -6.96998
-0.678481 -7.05037 -7.05037
-0.542874 -6.97563 -6.97563
-0.669061 -6.89529 -6.89529
-0.673766 -6.97266 -6.97266
-0.810039 -7.04764 -7.04764
-0.820656 -7.20401 -7.20401
-0.555317 -7.20991 -7.20991
-0.547008 -7.05338 -7.05338
-0.815343 -7.12566 -7.12566
-0.687944 -7.20682 -7.20682
-0.551156 -7.13148 -7.13148
-0.678481 -7.05037 -7.05037
-0.683207 -7.12842 -7.12842
-0.820656 -7.20401 -7.20401
-0.831307 -7.36174 -7.36174
-0.56368 -7.3678 -7.3678
-0.555317 -7.20991 -7.20991
-0.825978 -7.28271 -7.28271
-0.697451 -7.36463 -7.36463
-0.559492 -7.28869 -7.28869
-0.687944 -7.20682 -7.20682
-0.692692 -7.28555 -7.28555
-0.831307 -7.36174 -7.36174
-0.841991 -7.52082 -7.52082
-0.572096 -7.52705 -7.52705
-0.56368 -7.3678 -7.3678
-0.836645 -7.44111 -7.44111
-0.707001 -7.52379 -7.52379
-0.567881 -7.44726 -7.44726
-0.697451 -7.36463 -7.36463
-0.702221 -7.44404 -7.44404
-0.841991 -7.52082 -7.52082
-0.852709 -7.68124 -7.68124
-0.580566 -7.68762 -7.68762
-0.572096 -7.52705 -7.52705
-0.847346 -7.60086 -7.60086
-0.716595 -7.68429 -7.68429
-0.576324 -7.60717 -7.60717
-0.707001 -7.52379 -7.52379
-0.711793 -7.60387 -7.60387
-0.852709 -7.68124 -7.68124
-0.863459 -7.84298 -7.84298
-0.589089 -7.84953 -7.84953
-0.580566 -7.68762 -7.68762
-0.85808 -7.76194 -7.76194
-0.726232 -7.84611 -7.84611
-0.584821 -7.76841 -7.76841
-0.716595 -7.68429 -7.68429
-0.721408 -7.76504 -7.76504
-0.863459 -7.84298 -7.84298
-0.874242 -8.00603 -8.00603
-0.597666 -8.01274 -8.01274
-0.589089 -7.84953 -7.84953
-0.868846 -7.92434 -7.92434
-0.735912 -8.00925 -8.00925
-0.593371 -7.93097 -7.93097
-0.726232 -7.84611 -7.84611
-0.731066 -7.92752 -7.92752
-0.874242 -8.00603 -8.00603
-0.885058 -8.17039 -8.17039
-0.606297 -8.17726 -8.17726
-0.597666 -8.01274 -8.01274
-0.879646 -8.08805 -8.08805
-0.745635 -8.17369 -8.17369
-0.601975 -8.09484 -8.09484
-0.735912 -8.00925 -8.00925
-0.740768 -8.09131 -8.09131
-0.885058 -8.17039 -8.17039
-0.895907 -8.33603 -8.33603
-0.61498 -8.34307 -8.34307
-0.606297 -8.17726 -8.17726
-0.890479 -8.25305 -8.25305
-0.755401 -8.33941 -8.33941
-0.610632 -8.26 -8.26
-0.745635 -8.17369 -8.17369
-0.750513 -8.25639 -8.25639
-0.895907 -8.33603 -8.33603
-0.906789 -8.50295 -8.50295
-0.623717 -8.51015 -8.51015
-0.61498 -8.34307 -8.34307
-0.901344 -8.41933 -8.41933
-0.76521 -8.50642 -8.50642
-0.619342 -8.42645 -8.42645
-0.755401 -8.33941 -8.33941
-0.7603 -8.42276 -8.42276
-0.906789 -8.50295 -8.50295
-0.917703 -8.67114 -8.67114
-0.632506 -8.6785 -8.6785
-0.623717 -8.51015 -8.51015
-0.912242 -8.58689 -8.58689
-0.775062 -8.67469 -8.67469
-0.628105 -8.59417 -8.59417
-0.76521 -8.50642 -8.50642
-0.770131 -8.59039 -8.59039
-0.917703 -8.67114 -8.67114
-0.928649 -8.84058 -8.84058
-0.641349 -8.8481 -8.8481
-0.632506 -8.6785 -8.6785
-0.923172 -8.7557 -8.7557
-0.784957 -8.84421 -8.84421
-0.636921 -8.76314 -8.76314
-0.775062 -8.67469 -8.67469
-0.780004 -8.75929 -8.75929
-0.928649 -8.84058 -8.84058
-0.939628 -9.01126 -9.01126
-0.650244 -9.01894 -9.01894
-0.641349 -8.8481 -8.8481
-0.934135 -8.92576 -8.92576
-0.794893 -9.01497 -9.01497
-0.64579 -8.93337 -8.93337
-0.784957 -8.84421 -8.84421
-0.78992 -8.92943 -8.92943
-0.939628 -9.01126 -9.01126
-0.950638 -9.18317 -9.18317
-0.659191 -9.19101 -9.19101
-0.650244 -9.01894 -9.01894
-0.945129 -9.09706 -9.09706
-0.804872 -9.18696 -9.18696
-0.654711 -9.10482 -9.10482
-0.794893 -9.01497 -9.01497
-0.799878 -9.10081 -9.10081
-0.950638 -9.18317 -9.18317
-0.961681 -9.35629 -9.35629
-0.668191 -9.3643 -9.3643
-0.659191 -9.19101 -9.19101
-0.956156 -9.26958 -9.26958
-0.814893 -9.36017 -9.36017
-0.663684 -9.2775 -9.2775
-0.804872 -9.18696 -9.18696
-0.809878 -9.27341 -9.27341
-0.961681 -9.35629 -9.35629
-0.972754 -9.53063 -9.53063
-0.677242 -9.53879 -9.53879
-0.668191 -9.3643 -9.3643
-0.967214 -9.44331 -9.44331
-0.824956 -9.53458 -9.53458
-0.67271 -9.45139 -9.45139
-0.814893 -9.36017 -9.36017
-0.819919 -9.44723 -9.44723
-0.972754 -9.53063 -9.53063
-0.983859 -9.70615 -9.70615
-0.686345 -9.71447 -9.71447
-0.677242 -9.53879 -9.53879
-0.978303 -9.61824 -9.61824
-0.83506 -9.71019 -9.71019
-0.681787 -9.62648 -9.62648
-0.824956 -9.53458 -9.53458
-0.830003 -9.62224 -9.62224
-0.983859 -9.70615 -9.70615
-0.994995 -9.88286 -9.88286
-0.6955 -9.89134 -9.89134
-0.686345 -9.71447 -9.71447
-0.989423 -9.79436 -9.79436
-0.845205 -9.88697 -9.88697
-0.690916 -9.80276 -9.80276
-0.83506 -9.71019 -9.71019
-0.840127 -9.79843 -9.79843
-0.994995 -9.88286 -9.88286
-1.00616 -10.0607 -10.0607
-0.704705 -10.0694 -10.0694
-0.6955 -9.89134 -9.89134
-1.00057 -9.97165 -9.97165
-0.855391 -10.0649 -10.0649
-0.700096 -9.98021 -9.98021
-0.845205 -9.88697 -9.88697
-0.850293 -9.97581 -9.97581
-1.00616 -10.0607 -10.0607
-1.01736 -10.2398 -10.2398
-0.713962 -10.2486 -10.2486
-0.704705 -10.0694 -10.0694
-1.01176 -10.1501 -10.1501
-0.865618 -10.244 -10.244
-0.709327 -10.1588 -10.1588
-0.855391 -10.0649 -10.0649
-0.860499 -10.1543 -10.1543
-1.01736 -10.2398 -10.2398
-1.02859 -10.4199 -10.4199
-0.723269 -10.4289 -10.4289
-0.713962 -10.2486 -10.2486
-1.02297 -10.3297 -10.3297
-0.875885 -10.4243 -10.4243
-0.718609 -10.3386 -10.3386
-0.865618 -10.244 -10.244
-0.870746 -10.334 -10.334
-1.02859 -10.4199 -10.4199
-1.03984 -10.6012 -10.6012
-0.732626 -10.6104 -10.6104
-0.723269 -10.4289 -10.4289
-1.03421 -10.5105 -10.5105
-0.886192 -10.6057 -10.6057
-0.727941 -10.5195 -10.5195
-0.875885 -10.4243 -10.4243
-0.881033 -10.5149 -10.5149
-1.03984 -10.6012 -10.6012
-1.05113 -10.7837 -10.7837
-0.742032 -10.7929 -10.7929
-0.732626 -10.6104 -10.6104
-1.04548 -10.6923 -10.6923
-0.896538 -10.7882 -10.7882
-0.737323 -10.7015 -10.7015
-0.886192 -10.6057 -10.6057
-0.89136 -10.6968 -10.6968
-1.05113 -10.7837 -10.7837
-1.06244 -10.9672 -10.9672
-0.751488 -10.9766 -10.9766
-0.742032 -10.7929 -10.7929
-1.05678 -10.8753 -10.8753
-0.906923 -10.9718 -10.9718
-0.746754 -10.8847 -10.8847
-0.896538 -10.7882 -10.7882
-0.901726 -10.8799 -10.8799
-1.06244 -10.9672 -10.9672
-1.07379 -11.1519 -11.1519
-0.760993 -11.1614 -11.1614
-0.751488 -10.9766 -10.9766
-1.06811 -11.0594 -11.0594
-0.917348 -11.1565 -11.1565
-0.756235 -11.0689 -11.0689
-0.906923 -10.9718 -10.9718
-0.912131 -11.064 -11.064
-1.07379 -11.1519 -11.1519
-1.08516 -11.3376 -11.3376
-0.770547 -11.3473 -11.3473
-0.760993 -11.1614 -11.1614
-1.07947 -11.2446 -11.2446
-0.92781 -11.3423 -11.3423
-0.765764 -11.2542 -11.2542
-0.917348 -11.1565 -11.1565
-0.922574 -11.2493 -11.2493
-1.08516 -11.3376 -11.3376
-1.09656 -11.5244 -11.5244
-0.780149 -11.5343 -11.5343
-0.770547 -11.3473 -11.3473
-1.09085 -11.4308 -11.4308
-0.938311 -11.5292 -11.5292
-0.775342 -11.4406 -11.4406
-0.92781 -11.3423 -11.3423
-0.933056 -11.4356 -11.4356
-1.09656 -11.5244 -11.5244
-1.10798 -11.7122 -11.7122
-0.789799 -11.7223 -11.7223
-0.780149 -11.5343 -11.5343
-1.10227 -11.6182 -11.6182
-0.948849 -11.7171 -11.7171
-0.784968 -11.6281 -11.6281
-0.938311 -11.5292 -11.5292
-0.943575 -11.623 -11.623
-1.10798 -11.7122 -11.7122
-1.11944 -11.9011 -11.9011
-0.799495 -11.9113 -11.9113
-0.789799 -11.7223 -11.7223
-1.11371 -11.8065 -11.8065
-0.959424 -11.9061 -11.9061
-0.794641 -11.8167 -11.8167
-0.948849 -11.7171 -11.7171
-0.954132 -11.8115 -11.8115
-1.11944 -11.9011 -11.9011
-1.13092 -12.0911 -12.0911
-0.809239 -12.1014 -12.1014
-0.799495 -11.9113 -11.9113
-1.12517 -11.996 -11.996
-0.970036 -12.0961 -12.0961
-0.804362 -12.0062 -12.0062
-0.959424 -11.9061 -11.9061
-0.964726 -12.001 -12.001
-1.13092 -12.0911 -12.0911
-1.14242 -12.282 -12.282
-0.819029 -12.2925 -12.2925
-0.809239 -12.1014 -12.1014
-1.13667 -12.1864 -12.1864
-0.980684 -12.2872 -12.2872
-0.814128 -12.1968 -12.1968
-0.970036 -12.0961 -12.0961
-0.975356 -12.1915 -12.1915
-1.14242 -12.282 -12.282
-1.15395 -12.474 -12.474
-0.828865 -12.4846 -12.4846
-0.819029 -12.2925 -12.2925
-1.14818 -12.3779 -12.3779
-0.991368 -12.4792 -12.4792
-0.823941 -12.3885 -12.3885
-0.980684 -12.2872 -12.2872
-0.986022 -12.3831 -12.3831
-1.15395 -12.474 -12.474
-1.16551 -12.667 -12.667
-0.838746 -12.6778 -12.6778
-0.828865 -12.4846 -12.4846
-1.15973 -12.5704 -12.5704
-1.00209 -12.6723 -12.6723
-0.8338 -12.5811 -12.5811
-0.991368 -12.4792 -12.4792
-0.996723 -12.5756 -12.5756
-1.16551 -12.667 -12.667
-1.17709 -12.8609 -12.8609
-0.848672 -12.8719 -12.8719
-0.838746 -12.6778 -12.6778
-1.1713 -12.7638 -12.7638
-1.01284 -12.8663 -12.8663
-0.843704 -12.7747 -12.7747
-1.00209 -12.6723 -12.6723
-1.00746 -12.7692 -12.7692
-1.17709 -12.8609 -12.8609
-1.18869 -13.0559 -13.0559
-0.858642 -13.067 -13.067
-0.848672 -12.8719 -12.8719
-1.18289 -12.9583 -12.9583
-1.02363 -13.0613 -13.0613
-0.853652 -12.9693 -12.9693
-1.01284 -12.8663 -12.8663
-1.01823 -12.9637 -12.9637
-1.18869 -13.0559 -13.0559
-1.20032 -13.2518 -13.2518
-0.868656 -13.263 -13.263
-0.858642 -13.067 -13.067
-1.19451 -13.1537 -13.1537
-1.03445 -13.2573 -13.2573
-0.863644 -13.1649 -13.1649
-1.02363 -13.0613 -13.0613
-1.02903 -13.1592 -13.1592
-1.20032 -13.2518 -13.2518
-1.21197 -13.4487 -13.4487
-0.878713 -13.46 -13.46
-0.868656 -13.263 -13.263
-1.20614 -13.3501 -13.3501
-1.0453 -13.4542 -13.4542
-0.873679 -13.3614 -13.3614
-1.03445 -13.2573 -13.2573
-1.03987 -13.3557 -13.3557
-1.21197 -13.4487 -13.4487
-1.22365 -13.6465 -13.6465
-0.888813 -13.658 -13.658
-0.878713 -13.46 -13.46
-1.21781 -13.5474 -13.5474
-1.05619 -13.6521 -13.6521
-0.883758 -13.5589 -13.5589
-1.0453 -13.4542 -13.4542
-1.05074 -13.5531 -13.5531
-1.22365 -13.6465 -13.6465
-1.23534 -13.8452 -13.8452
-0.898954 -13.8568 -13.8568
-0.888813 -13.658 -13.658
-1.22949 -13.7457 -13.7457
-1.06711 -13.8509 -13.8509
-0.893878 -13.7573 -13.7573
-1.05619 -13.6521 -13.6521
-1.06164 -13.7514 -13.7514
-1.23534 -13.8452 -13.8452
-1.24705 -14.0448 -14.0448
-0.909137 -14.0566 -14.0566
-0.898954 -13.8568 -13.8568
-1.24119 -13.9449 -13.9449
-1.07805 -14.0506 -14.0506
-0.904041 -13.9566 -13.9566
-1.06711 -13.8509 -13.8509
-1.07258 -13.9507 -13.9507
-1.24705 -14.0448 -14.0448
-1.25879 -14.2454 -14.2454
-0.919361 -14.2573 -14.2573
-0.909137 -14.0566 -14.0566
-1.25292 -14.145 -14.145
-1.08903 -14.2513 -14.2513
-0.914244 -14.1569 -14.1569
-1.07805 -14.0506 -14.0506
-1.08354 -14.1508 -14.1508
-1.25879 -14.2454 -14.2454
-1.27054 -14.4468 -14.4468
-0.929625 -14.4589 -14.4589
-0.919361 -14.2573 -14.2573
-1.26466 -14.346 -14.346
-1.10004 -14.4528 -14.4528
-0.924488 -14.358 -14.358
-1.08903 -14.2513 -14.2513
-1.09454 -14.3519 -14.3519
-1.27054 -14.4468 -14.4468
-1.28232 -14.6492 -14.6492
-0.939928 -14.6614 -14.6614
-0.929625 -14.4589 -14.4589
-1.27643 -14.5479 -14.5479
-1.11108 -14.6552 -14.6552
-0.934771 -14.56 -14.56
-1.10004 -14.4528 -14.4528
-1.10556 -14.5539 -14.5539
-1.28232 -14.6492 -14.6492
-1.29411 -14.8523 -14.8523
-0.95027 -14.8647 -14.8647
-0.939928 -14.6614 -14.6614
-1.28821 -14.7506 -14.7506
-1.12215 -14.8584 -14.8584
-0.945094 -14.7629 -14.7629
-1.11108 -14.6552 -14.6552
-1.11661 -14.7567 -14.7567
-1.29411 -14.8523 -14.8523
-1.30592 -15.0564 -15.0564
-0.96065 -15.0689 -15.0689
-0.95027 -14.8647 -14.8647
-1.30001 -14.9543 -14.9543
-1.13325 -15.0626 -15.0626
-0.955455 -14.9667 -14.9667
-1.12215 -14.8584 -14.8584
-1.12769 -14.9604 -14.9604
-1.30592 -15.0564 -15.0564
-1.31775 -15.2613 -15.2613
-0.971067 -15.2739 -15.2739
-0.96065 -15.0689 -15.0689
-1.31183 -15.1587 -15.1587
-1.14437 -15.2675 -15.2675
-0.965854 -15.1713 -15.1713
-1.13325 -15.0626 -15.0626
-1.1388 -15.1649 -15.1649
-1.31775 -15.2613 -15.2613
-1.32959 -15.467 -15.467
-0.981522 -15.4798 -15.4798
-0.971067 -15.2739 -15.2739
-1.32367 -15.364 -15.364
-1.15552 -15.4733 -15.4733
-0.97629 -15.3767 -15.3767
-1.14437 -15.2675 -15.2675
-1.14994 -15.3703 -15.3703
-1.32959 -15.467 -15.467
-1.34145 -15.6736 -15.6736
-0.992012 -15.6865 -15.6865
-0.981522 -15.4798 -15.4798
-1.33552 -15.5702 -15.5702
-1.16669 -15.6799 -15.6799
-0.986763 -15.583 -15.583
-1.15552 -15.4733 -15.4733
-1.1611 -15.5765 -15.5765
-1.34145 -15.6736 -15.6736
-1.35333 -15.8809 -15.8809
-1.00254 -15.8939 -15.8939
-0.992012 -15.6865 -15.6865
-1.34739 -15.7771 -15.7771
-1.17789 -15.8873 -15.8873
-0.997271 -15.7901 -15.7901
-1.16669 -15.6799 -15.6799
-1.17229 -15.7835 -15.7835
-1.35333 -15.8809 -15.8809
-1.36522 -16.0891 -16.0891
-1.0131 -16.1022 -16.1022
-1.00254 -15.8939 -15.8939
-1.35927 -15.9849 -15.9849
-1.18912 -16.0956 -16.0956
-1.00781 -15.998 -15.998
-1.17789 -15.8873 -15.8873
-1.1835 -15.9914 -15.9914
-1.36522 -16.0891 -16.0891
-1.37712 -16.298 -16.298
-1.02369 -16.3113 -16.3113
-1.0131 -16.1022 -16.1022
-1.37117 -16.1934 -16.1934
-1.20036 -16.3046 -16.3046
-1.01839 -16.2067 -16.2067
-1.18912 -16.0956 -16.0956
-1.19474 -16.2 -16.2
-1.37712 -16.298 -16.298
-1.38903 -16.5077 -16.5077
-1.03432 -16.5211 -16.5211
-1.02369 -16.3113 -16.3113
-1.38307 -16.4028 -16.4028
-1.21164 -16.5143 -16.5143
-1.029 -16.4161 -16.4161
-1.20036 -16.3046 -16.3046
-1.206 -16.4094 -16.4094
-1.38903 -16.5077 -16.5077
-1.40096 -16.7182 -16.7182
-1.04498 -16.7317 -16.7317
-1.03432 -16.5211 -16.5211
-1.39499 -16.6129 -16.6129
-1.22293 -16.7249 -16.7249
-1.03965 -16.6263 -16.6263
-1.21164 -16.5143 -16.5143
-1.21728 -16.6195 -16.6195
-1.40096 -16.7182 -16.7182
-1.4129 -16.9294 -16.9294
-1.05567 -16.9431 -16.9431
-1.04498 -16.7317 -16.7317
-1.40693 -16.8237 -16.8237
-1.23424 -16.9362 -16.9362
-1.05032 -16.8373 -16.8373
-1.22293 -16.7249 -16.7249
-1.22858 -16.8304 -16.8304
-1.4129 -16.9294 -16.9294
-1.42485 -17.1414 -17.1414
-1.06639 -17.1551 -17.1551
-1.05567 -16.9431 -16.9431
-1.41887 -17.0353 -17.0353
-1.24558 -17.1482 -17.1482
-1.06103 -17.049 -17.049
-1.23424 -16.9362 -16.9362
-1.23991 -17.0421 -17.0421
-1.42485 -17.1414 -17.1414
-1.4368 -17.354 -17.354
-1.07714 -17.3679 -17.3679
-1.06639 -17.1551 -17.1551
-1.43082 -17.2476 -17.2476
-1.25693 -17.3609 -17.3609
-1.07176 -17.2615 -17.2615
-1.24558 -17.1482 -17.1482
-1.25125 -17.2545 -17.2545
-1.4368 -17.354 -17.354
-1.44877 -17.5674 -17.5674
-1.08793 -17.5815 -17.5815
-1.07714 -17.3679 -17.3679
-1.44279 -17.4606 -17.4606
-1.26831 -17.5744 -17.5744
-1.08253 -17.4746 -17.4746
-1.25693 -17.3609 -17.3609
-1.26262 -17.4676 -17.4676
-1.44877 -17.5674 -17.5674
-1.46075 -17.7815 -17.7815
-1.09873 -17.7957 -17.7957
-1.08793 -17.5815 -17.5815
-1.45476 -17.6744 -17.6744
-1.2797 -17.7885 -17.7885
-1.09333 -17.6885 -17.6885
-1.26831 -17.5744 -17.5744
-1.274 -17.6814 -17.6814
-1.46075 -17.7815 -17.7815
-1.47273 -17.9963 -17.9963
-1.10957 -18.0106 -18.0106
-1.09873 -17.7957 -17.7957
-1.46674 -17.8888 -17.8888
-1.29111 -18.0034 -18.0034
-1.10415 -17.903 -17.903
-1.2797 -17.7885 -17.7885
-1.2854 -17.8959 -17.8959
-1.47273 -17.9963 -17.9963
-1.48472 -18.2118 -18.2118
-1.12044 -18.2261 -18.2261
-1.10957 -18.0106 -18.0106
-1.47872 -18.1039 -18.1039
-1.30254 -18.2189 -18.2189
-1.115 -18.1183 -18.1183
-1.29111 -18.0034 -18.0034
-1.29682 -18.111 -18.111
-1.48472 -18.2118 -18.2118
-1.49671 -18.4279 -18.4279
-1.13132 -18.4424 -18.4424
-1.12044 -18.2261 -18.2261
-1.49071 -18.3197 -18.3197
-1.31398 -18.4351 -18.4351
-1.12588 -18.3342 -18.3342
-1.30254 -18.2189 -18.2189
-1.30826 -18.3269 -18.3269
-1.49671 -18.4279 -18.4279
-1.50871 -18.6447 -18.6447
-1.14224 -18.6593 -18.6593
-1.13132 -18.4424 -18.4424
-1.50271 -18.5362 -18.5362
-1.32544 -18.6519 -18.6519
-1.13678 -18.5507 -18.5507
-1.31398 -18.4351 -18.4351
-1.31971 -18.5434 -18.5434
-1.50871 -18.6447 -18.6447
-1.52071 -18.8621 -18.8621
-1.15318 -18.8768 -18.8768
-1.14224 -18.6593 -18.6593
-1.51471 -18.7533 -18.7533
-1.33691 -18.8694 -18.8694
-1.14771 -18.768 -18.768
-1.32544 -18.6519 -18.6519
-1.33117 -18.7606 -18.7606
-1.52071 -18.8621 -18.8621
-1.53272 -19.0801 -19.0801
-1.16414 -19.095 -19.095
-1.15318 -18.8768 -18.8768
-1.52671 -18.971 -18.971
-1.34839 -19.0875 -19.0875
-1.15866 -18.9858 -18.9858
-1.33691 -18.8694 -18.8694
-1.34265 -18.9783 -18.9783
-1.53272 -19.0801 -19.0801
-1.54473 -19.2988 -19.2988
-1.17512 -19.3137 -19.3137
-1.16414 -19.095 -19.095
-1.53872 -19.1894 -19.1894
-1.35989 -19.3062 -19.3062
-1.16963 -19.2043 -19.2043
-1.34839 -19.0875 -19.0875
-1.35414 -19.1968 -19.1968
-1.54473 -19.2988 -19.2988
-1.55673 -19.518 -19.518
-1.18613 -19.5331 -19.5331
-1.17512 -19.3137 -19.3137
-1.55073 -19.4083 -19.4083
-1.37139 -19.5255 -19.5255
-1.18062 -19.4233 -19.4233
-1.35989 -19.3062 -19.3062
-1.36564 -19.4158 -19.4158
-1.55673 -19.518 -19.518
-1.56874 -19.7379 -19.7379
-1.19716 -19.7531 -19.7531
-1.18613 -19.5331 -19.5331
-1.56274 -19.6279 -19.6279
-1.38291 -19.7454 -19.7454
-1.19164 -19.643 -19.643
-1.37139 -19.5255 -19.5255
-1.37715 -19.6354 -19.6354
-1.56874 -19.7379 -19.7379
-1.58075 -19.9583 -19.9583
-1.2082 -19.9736 -19.9736
-1.19716 -19.7531 -19.7531
-1.57475 -19.8481 -19.8481
-1.39444 -19.9659 -19.9659
-1.20268 -19.8633 -19.8633
-1.38291 -19.7454 -19.7454
-1.38867 -19.8556 -19.8556
-1.58075 -19.9583 -19.9583
-1.59276 -20.1794 -20.1794
-1.21927 -20.1947 -20.1947
-1.2082 -19.9736 -19.9736
-1.58675 -20.0688 -20.0688
-1.40597 -20.187 -20.187
-1.21373 -20.0841 -20.0841
-1.39444 -19.9659 -19.9659
-1.40021 -20.0764 -20.0764
-1.59276 -20.1794 -20.1794
-1.60476 -20.4009 -20.4009
-1.23035 -20.4164 -20.4164
-1.21927 -20.1947 -20.1947
-1.59876 -20.2901 -20.2901
-1.41752 -20.4086 -20.4086
-1.22481 -20.3055 -20.3055
-1.40597 -20.187 -20.187
-1.41174 -20.2977 -20.2977
-1.60476 -20.4009 -20.4009
-1.61676 -20.623 -20.623
-1.24145 -20.6386 -20.6386
-1.23035 -20.4164 -20.4164
-1.61076 -20.5119 -20.5119
-1.42907 -20.6308 -20.6308
-1.2359 -20.5274 -20.5274
-1.41752 -20.4086 -20.4086
-1.42329 -20.5196 -20.5196
-1.61676 -20.623 -20.623
-1.62876 -20.8457 -20.8457
-1.25257 -20.8613 -20.8613
-1.24145 -20.6386 -20.6386
-1.62276 -20.7343 -20.7343
-1.44062 -20.8534 -20.8534
-1.24701 -20.7499 -20.7499
-1.42907 -20.6308 -20.6308
-1.43485 -20.742 -20.742
-1.62876 -20.8457 -20.8457
-1.64075 -21.0688 -21.0688
-1.2637 -21.0846 -21.0846
-1.25257 -20.8613 -20.8613
-1.63476 -20.9572 -20.9572
-1.45219 -21.0767 -21.0767
-1.25813 -20.9729 -20.9729
-1.44062 -20.8534 -20.8534
-1.4464 -20.965 -20.965
-1.64075 -21.0688 -21.0688
-1.65274 -21.2925 -21.2925
-1.27484 -21.3083 -21.3083
-1.2637 -21.0846 -21.0846
-1.64674 -21.1806 -21.1806
-1.46375 -21.3004 -21.3004
-1.26927 -21.1964 -21.1964
-1.45219 -21.0767 -21.0767
-1.45797 -21.1885 -21.1885
-1.65274 -21.2925 -21.2925
-1.66471 -21.5167 -21.5167
-1.286 -21.5326 -21.5326
-1.27484 -21.3083 -21.3083
-1.65873 -21.4045 -21.4045
-1.47532 -21.5246 -21.5246
-1.28042 -21.4204 -21.4204
-1.46375 -21.3004 -21.3004
-1.46953 -21.4124 -21.4124
-1.66471 -21.5167 -21.5167
-1.67668 -21.7413 -21.7413
-1.29717 -21.7574 -21.7574
-1.286 -21.5326 -21.5326
-1.6707 -21.6289 -21.6289
-1.48689 -21.7493 -21.7493
-1.29158 -21.6449 -21.6449
-1.47532 -21.5246 -21.5246
-1.4811 -21.6369 -21.6369
-1.67668 -21.7413 -21.7413
-1.68864 -21.9664 -21.9664
-1.30835 -21.9826 -21.9826
-1.29717 -21.7574 -21.7574
-1.68266 -21.8538 -21.8538
-1.49846 -21.9745 -21.9745
-1.30276 -21.8699 -21.8699
-1.48689 -21.7493 -21.7493
-1.49267 -21.8618 -21.8618
-1.68864 -21.9664 -21.9664
-1.70059 -22.192 -22.192
-1.31954 -22.2082 -22.2082
-1.30835 -21.9826 -21.9826
-1.69462 -22.0792 -22.0792
-1.51003 -22.2001 -22.2001
-1.31394 -22.0953 -22.0953
-1.49846 -21.9745 -21.9745
-1.50424 -22.0872 -22.0872
-1.70059 -22.192 -22.192
-1.71253 -22.4181 -22.4181
-1.33074 -22.4344 -22.4344
-1.31954 -22.2082 -22.2082
-1.70656 -22.305 -22.305
-1.5216 -22.4262 -22.4262
-1.32514 -22.3212 -22.3212
-1.51003 -22.2001 -22.2001
-1.51582 -22.3131 -22.3131
-1.71253 -22.4181 -22.4181
-1.72446 -22.6445 -22.6445
-1.34195 -22.6609 -22.6609
-1.33074 -22.4344 -22.4344
-1.7185 -22.5312 -22.5312
-1.53317 -22.6527 -22.6527
-1.33635 -22.5476 -22.5476
-1.5216 -22.4262 -22.4262
-1.52738 -22.5394 -22.5394
-1.72446 -22.6445 -22.6445
-1.73637 -22.8714 -22.8714
-1.35317 -22.8879 -22.8879
-1.34195 -22.6609 -22.6609
-1.73042 -22.7579 -22.7579
-1.54473 -22.8796 -22.8796
-1.34756 -22.7744 -22.7744
-1.53317 -22.6527 -22.6527
-1.53895 -22.7661 -22.7661
-1.73637 -22.8714 -22.8714
-1.74827 -23.0987 -23.0987
-1.36439 -23.1153 -23.1153
-1.35317 -22.8879 -22.8879
-1.74233 -22.985 -22.985
-1.55629 -23.107 -23.107
-1.35878 -23.0015 -23.0015
-1.54473 -22.8796 -22.8796
-1.55051 -22.9932 -22.9932
-1.74827 -23.0987 -23.0987
-1.76016 -23.3264 -23.3264
-1.37562 -23.3431 -23.3431
-1.36439 -23.1153 -23.1153
-1.75422 -23.2125 -23.2125
-1.56785 -23.3347 -23.3347
-1.37 -23.2291 -23.2291
-1.55629 -23.107 -23.107
-1.56207 -23.2208 -23.2208
-1.76016 -23.3264 -23.3264
-1.77203 -23.5545 -23.5545
-1.38685 -23.5712 -23.5712
-1.37562 -23.3431 -23.3431
-1.7661 -23.4404 -23.4404
-1.5794 -23.5629 -23.5629
-1.38123 -23.4571 -23.4571
-1.56785 -23.3347 -23.3347
-1.57363 -23.4487 -23.4487
-1.77203 -23.5545 -23.5545
-1.78388 -23.783 -23.783
-1.39808 -23.7998 -23.7998
-1.38685 -23.5712 -23.5712
-1.77796 -23.6687 -23.6687
-1.59094 -23.7914 -23.7914
-1.39247 -23.6855 -23.6855
-1.5794 -23.5629 -23.5629
-1.58517 -23.6771 -23.6771
-1.78388 -23.783 -23.783
-1.79571 -24.0119 -24.0119
-1.40932 -24.0287 -24.0287
-1.39808 -23.7998 -23.7998
-1.7898 -23.8974 -23.8974
-1.60248 -24.0202 -24.0202
-1.4037 -23.9142 -23.9142
-1.59094 -23.7914 -23.7914
-1.59671 -23.9058 -23.9058
-1.79571 -24.0119 -24.0119
-1.80753 -24.241 -24.241
-1.42056 -24.258 -24.258
-1.40932 -24.0287 -24.0287
-1.80162 -24.1264 -24.1264
-1.61401 -24.2495 -24.2495
-1.41494 -24.1433 -24.1433
-1.60248 -24.0202 -24.0202
-1.60824 -24.1348 -24.1348
-1.80753 -24.241 -24.241
-1.81932 -24.4706 -24.4706
-1.4318 -24.4876 -24.4876
-1.42056 -24.258 -24.258
-1.81343 -24.3558 -24.3558
-1.62552 -24.479 -24.479
-1.42618 -24.3727 -24.3727
-1.61401 -24.2495 -24.2495
-1.61976 -24.3642 -24.3642
-1.81932 -24.4706 -24.4706
-1.83109 -24.7004 -24.7004
-1.44303 -24.7175 -24.7175
-1.4318 -24.4876 -24.4876
-1.82521 -24.5855 -24.5855
-1.63703 -24.7089 -24.7089
-1.43741 -24.6025 -24.6025
-1.62552 -24.479 -24.479
-1.63128 -24.594 -24.594
-1.83109 -24.7004 -24.7004
-1.84284 -24.9306 -24.9306
-1.45427 -24.9478 -24.9478
-1.44303 -24.7175 -24.7175
-1.83697 -24.8155 -24.8155
-1.64852 -24.9392 -24.9392
-1.44865 -24.8326 -24.8326
-1.63703 -24.7089 -24.7089
-1.64277 -24.824 -24.824
-1.84284 -24.9306 -24.9306
-1.85457 -25.1611 -25.1611
-1.4655 -25.1783 -25.1783
-1.45427 -24.9478 -24.9478
-1.84871 -25.0458 -25.0458
-1.66 -25.1697 -25.1697
-1.45988 -25.063 -25.063
-1.64852 -24.9392 -24.9392
-1.65426 -25.0544 -25.0544
-1.85457 -25.1611 -25.1611
-1.86627 -25.3919 -25.3919
-1.47673 -25.4091 -25.4091
-1.4655 -25.1783 -25.1783
-1.86042 -25.2764 -25.2764
-1.67146 -25.4005 -25.4005
-1.47111 -25.2937 -25.2937
-1.66 -25.1697 -25.1697
-1.66573 -25.285 -25.285
-1.86627 -25.3919 -25.3919
-1.87795 -25.6229 -25.6229
-1.48795 -25.6403 -25.6403
-1.47673 -25.4091 -25.4091
-1.87211 -25.5074 -25.5074
-1.68291 -25.6316 -25.6316
-1.48234 -25.5247 -25.5247
-1.67146 -25.4005 -25.4005
-1.67719 -25.516 -25.516
-1.87795 -25.6229 -25.6229
-1.8896 -25.8543 -25.8543
-1.49917 -25.8716 -25.8716
-1.48795 -25.6403 -25.6403
-1.88378 -25.7386 -25.7386
-1.69435 -25.8629 -25.8629
-1.49356 -25.7559 -25.7559
-1.68291 -25.6316 -25.6316
-1.68863 -25.7472 -25.7472
-1.8896 -25.8543 -25.8543
-1.90122 -26.0858 -26.0858
-1.51037 -26.1033 -26.1033
-1.49917 -25.8716 -25.8716
-1.89541 -25.97 -25.97
-1.70576 -26.0945 -26.0945
-1.50477 -25.9874 -25.9874
-1.69435 -25.8629 -25.8629
-1.70006 -25.9787 -25.9787
-1.90122 -26.0858 -26.0858
-1.91282 -26.3177 -26.3177
-1.52157 -26.3352 -26.3352
-1.51037 -26.1033 -26.1033
-1.90702 -26.2017 -26.2017
-1.71716 -26.3264 -26.3264
-1.51597 -26.2192 -26.2192
-1.70576 -26.0945 -26.0945
-1.71146 -26.2104 -26.2104
-1.91282 -26.3177 -26.3177
-1.92438 -26.5497 -26.5497
-1.53276 -26.5673 -26.5673
-1.52157 -26.3352 -26.3352
-1.9186 -26.4337 -26.4337
-1.72854 -26.5585 -26.5585
-1.52717 -26.4512 -26.4512
-1.71716 -26.3264 -26.3264
-1.72285 -26.4424 -26.4424
-1.92438 -26.5497 -26.5497
-1.93591 -26.782 -26.782
-1.54394 -26.7996 -26.7996
-1.53276 -26.5673 -26.5673
-1.93015 -26.6658 -26.6658
-1.73989 -26.7908 -26.7908
-1.53836 -26.6834 -26.6834
-1.72854 -26.5585 -26.5585
-1.73422 -26.6746 -26.6746
-1.93591 -26.782 -26.782
-1.94741 -27.0145 -27.0145
-1.55511 -27.0322 -27.0322
-1.54394 -26.7996 -26.7996
-1.94167 -26.8982 -26.8982
-1.75123 -27.0233 -27.0233
-1.54953 -26.9159 -26.9159
-1.73989 -26.7908 -26.7908
-1.74556 -26.907 -26.907
-1.94741 -27.0145 -27.0145
-1.95888 -27.2472 -27.2472
-1.56627 -27.2649 -27.2649
-1.55511 -27.0322 -27.0322
-1.95315 -27.1308 -27.1308
-1.76254 -27.256 -27.256
-1.56069 -27.1485 -27.1485
-1.75123 -27.0233 -27.0233
-1.75689 -27.1396 -27.1396
-1.95888 -27.2472 -27.2472
-1.97032 -27.48 -27.48
-1.57741 -27.4978 -27.4978
-1.56627 -27.2649 -27.2649
-1.9646 -27.3636 -27.3636
-1.77383 -27.4889 -27.4889
-1.57184 -27.3813 -27.3813
-1.76254 -27.256 -27.256
-1.76819 -27.3724 -27.3724
-1.97032 -27.48 -27.48
-1.98171 -27.7131 -27.7131
-1.58854 -27.7309 -27.7309
-1.57741 -27.4978 -27.4978
-1.97602 -27.5965 -27.5965
-1.78509 -27.722 -27.722
-1.58298 -27.6143 -27.6143
-1.77383 -27.4889 -27.4889
-1.77946 -27.6054 -27.6054
-1.98171 -27.7131 -27.7131
-1.99308 -27.9463 -27.9463
-1.59965 -27.9641 -27.9641
-1.58854 -27.7309 -27.7309
-1.9874 -27.8297 -27.8297
-1.79633 -27.9552 -27.9552
-1.5941 -27.8475 -27.8475
-1.78509 -27.722 -27.722
-1.79071 -27.8386 -27.8386
-1.99308 -27.9463 -27.9463
-2.0044 -28.1796 -28.1796
-1.61074 -28.1975 -28.1975
-1.59965 -27.9641 -27.9641
-1.99874 -28.0629 -28.0629
-1.80754 -28.1886 -28.1886
-1.6052 -28.0808 -28.0808
-1.79633 -27.9552 -27.9552
-1.80194 -28.0719 -28.0719
-2.0044 -28.1796 -28.1796
-2.01569 -28.4131 -28.4131
-1.62182 -28.4311 -28.4311
-1.61074 -28.1975 -28.1975
-2.01005 -28.2964 -28.2964
-1.81872 -28.4221 -28.4221
-1.61628 -28.3143 -28.3143
-1.80754 -28.1886 -28.1886
-1.81313 -28.3053 -28.3053
-2.01569 -28.4131 -28.4131
-2.02693 -28.6467 -28.6467
-1.63287 -28.6647 -28.6647
-1.62182 -28.4311 -28.4311
-2.02132 -28.5299 -28.5299
-1.82987 -28.6557 -28.6557
-1.62735 -28.5479 -28.5479
-1.81872 -28.4221 -28.4221
-1.8243 -28.5389 -28.5389
-2.02693 -28.6467 -28.6467
-2.03814 -28.8805 -28.8805
-1.64391 -28.8985 -28.8985
-1.63287 -28.6647 -28.6647
-2.03254 -28.7636 -28.7636
-1.84099 -28.8895 -28.8895
-1.63839 -28.7816 -28.7816
-1.82987 -28.6557 -28.6557
-1.83543 -28.7726 -28.7726
-2.03814 -28.8805 -28.8805
-2.0493 -29.1143 -29.1143
-1.65491 -29.1323 -29.1323
-1.64391 -28.8985 -28.8985
-2.04373 -28.9974 -28.9974
-1.85207 -29.1233 -29.1233
-1.64941 -29.0154 -29.0154
-1.84099 -28.8895 -28.8895
-1.84654 -29.0064 -29.0064
-2.0493 -29.1143 -29.1143
-2.06042 -29.3482 -29.3482
-1.6659 -29.3663 -29.3663
-1.65491 -29.1323 -29.1323
-2.05487 -29.2312 -29.2312
-1.86312 -29.3572 -29.3572
-1.66041 -29.2493 -29.2493
-1.85207 -29.1233 -29.1233
-1.8576 -29.2403 -29.2403
-2.06042 -29.3482 -29.3482
-2.0715 -29.5822 -29.5822
-1.67685 -29.6003 -29.6003
-1.6659 -29.3663 -29.3663
-2.06596 -29.4652 -29.4652
-1.87413 -29.5912 -29.5912
-1.67138 -29.4833 -29.4833
-1.86312 -29.3572 -29.3572
-1.86863 -29.4742 -29.4742
-2.0715 -29.5822 -29.5822
-2.08252 -29.8162 -29.8162
-1.68777 -29.8344 -29.8344
-1.67685 -29.6003 -29.6003
-2.07701 -29.6992 -29.6992
-1.8851 -29.8253 -29.8253
-1.68231 -29.7174 -29.7174
-1.87413 -29.5912 -29.5912
-1.87962 -29.7083 -29.7083
-2.08252 -29.8162 -29.8162
-2.09349 -30.0504 -30.0504
-1.69865 -30.0686 -30.0686
-1.68777 -29.8344 -29.8344
-2.08801 -29.9333 -29.9333
-1.89601 -30.0595 -30.0595
-1.69321 -29.9515 -29.9515
-1.8851 -29.8253 -29.8253
-1.89056 -29.9424 -29.9424
-2.09349 -30.0504 -30.0504
-2.1044 -30.2846 -30.2846
-1.7095 -30.3028 -30.3028
-1.69865 -30.0686 -30.0686
-2.09895 -30.1675 -30.1675
-1.90688 -30.2937 -30.2937
-1.70408 -30.1857 -30.1857
-1.89601 -30.0595 -30.0595
-1.90145 -30.1766 -30.1766
-2.1044 -30.2846 -30.2846
-2.11526 -30.519 -30.519
-1.72035 -30.537 -30.537
-1.7095 -30.3028 -30.3028
-2.10983 -30.4018 -30.4018
-1.91773 -30.528 -30.528
-1.71492 -30.4199 -30.4199
-1.90688 -30.2937 -30.2937
-1.9123 -30.4108 -30.4108
-2.11526 -30.519 -30.519
-2.12617 -30.7534 -30.7534
-1.73121 -30.7711 -30.7711
-1.72035 -30.537 -30.537
-2.1207 -30.6362 -30.6362
-1.92863 -30.7622 -30.7622
-1.72578 -30.654 -30.654
-1.91773 -30.528 -30.528
-1.92317 -30.6451 -30.6451
0 0 0
-0.00535188 -0.000529617 -0.000529617
-0.00178544 0.000289951 0.000289951
0 0 0
-0.00259509 0.000170745 0.000170745
-0.00355563 -1.5479e-05 -1.5479e-05
-0.000889316 0.000575214 0.000575214
0 0 0
-0.00172671 0.000438756 0.000438756
-0.00535188 -0.000529617 -0.000529617
-0.0111118 -0.00409912 -0.00409912
-0.00371427 -0.00267878 -0.00267878
-0.00178544 0.000289951 0.000289951
-0.00819579 -0.00197053 -0.00197053
-0.0073791 -0.00318888 -0.00318888
-0.0027321 -0.000813037 -0.000813037
-0.00355563 -1.5479e-05 -1.5479e-05
-0.00544341 -0.0012387 -0.0012387
-0.0111118 -0.00409912 -0.00409912
-0.0171134 -0.0102839 -0.0102839
-0.0057134 -0.00850482 -0.00850482
-0.00371427 -0.00267878 -0.00267878
-0.014094 -0.00688174 -0.00688174
-0.0113651 -0.00915434 -0.00915434
-0.00470811 -0.00525404 -0.00525404
-0.0073791 -0.00318888 -0.00318888
-0.00935763 -0.0058408 -0.0058408
-0.0171134 -0.0102839 -0.0102839
-0.0231682 -0.0188515 -0.0188515
-0.00776006 -0.0169275 -0.0169275
-0.0057134 -0.00850482 -0.00850482
-0.0201407 -0.0142763 -0.0142763
-0.0154149 -0.0176359 -0.0176359
-0.00673319 -0.0124033 -0.0124033
-0.0113651 -0.00915434 -0.00915434
-0.0133869 -0.0130913 -0.0130913
-0.0231682 -0.0188515 -0.0188515
-0.0292089 -0.0297395 -0.0297395
-0.00981075 -0.0277858 -0.0277858
-0.00776006 -0.0169275 -0.0169275
-0.0261927 -0.0240072 -0.0240072
-0.0194676 -0.0285087 -0.0285087
-0.00878597 -0.0220586 -0.0220586
-0.0154149 -0.0176359 -0.0176359
-0.0174431 -0.0227781 -0.0227781
-0.0292089 -0.0297395 -0.0297395
-0.0352029 -0.0429236 -0.0429236
-0.011859 -0.0409975 -0.0409975
-0.00981075 -0.0277858 -0.0277858
-0.032212 -0.036045 -0.036045
-0.0234965 -0.0417084 -0.0417084
-0.0108356 -0.0341007 -0.0341007
-0.0194676 -0.0285087 -0.0285087
-0.0214856 -0.0348198 -0.0348198
-0.0352029 -0.0429236 -0.0429236
-0.0411552 -0.0583995 -0.0583995
-0.0138981 -0.0565195 -0.0565195
-0.011859 -0.0409975 -0.0409975
-0.0381839 -0.0503755 -0.0503755
-0.0274983 -0.0572103 -0.0572103
-0.0128795 -0.0484713 -0.0484713
-0.0234965 -0.0417084 -0.0417084
-0.0255006 -0.0491727 -0.0491727
-0.0411552 -0.0583995 -0.0583995
-0.0470714 -0.0761589 -0.0761589
-0.0159333 -0.0743303 -0.0743303
-0.0138981 -0.0565195 -0.0565195
-0.0441173 -0.0669943 -0.0669943
-0.0314781 -0.0749978 -0.0749978
-0.0149159 -0.0651397 -0.0651397
-0.0274983 -0.0572103 -0.0572103
-0.0294906 -0.0658191 -0.0658191
-0.0470714 -0.0761589 -0.0761589
-0.0529614 -0.0961937 -0.0961937
-0.017968 -0.0944162 -0.0944162
-0.0159333 -0.0743303 -0.0743303
-0.0500192 -0.0858925 -0.0858925
-0.0354428 -0.0950603 -0.0950603
-0.0169504 -0.0840896 -0.0840896
-0.0314781 -0.0749978 -0.0749978
-0.0334619 -0.0847453 -0.0847453
-0.0529614 -0.0961937 -0.0961937
-0.0588313 -0.118493 -0.118493
-0.0200072 -0.116766 -0.116766
-0.017968 -0.0944162 -0.0944162
-0.0558985 -0.107061 -0.107061
-0.0393987 -0.117387 -0.117387
-0.0189868 -0.105309 -0.105309
-0.0354428 -0.0950603 -0.0950603
-0.0374215 -0.105941 -0.105941
-0.0588313 -0.118493 -0.118493
-0.0646869 -0.143047 -0.143047
-0.0220543 -0.14137 -0.14137
-0.0200072 -0.116766 -0.116766
-0.0617607 -0.130489 -0.130489
-0.0433506 -0.141967 -0.141967
-0.0210296 -0.128787 -0.128787
-0.0393987 -0.117387 -0.117387
-0.0413749 -0.129396 -0.129396
-0.0646869 -0.143047 -0.143047
-0.0705319 -0.169842 -0.169842
-0.0241123 -0.168218 -0.168218
-0.0220543 -0.14137 -0.14137
-0.0676105 -0.156165 -0.156165
-0.0473023 -0.16879 -0.16879
-0.0230817 -0.154514 -0.154514
-0.0433506 -0.141967 -0.141967
-0.0453263 -0.155099 -0.155099
-0.0705319 -0.169842 -0.169842
-0.0763693 -0.198868 -0.198868
-0.0261838 -0.197297 -0.197297
-0.0241123 -0.168218 -0.168218
-0.0734514 -0.184077 -0.184077
-0.0512567 -0.197844 -0.197844
-0.0251462 -0.182479 -0.182479
-0.0473023 -0.16879 -0.16879
-0.049279 -0.183039 -0.183039
-0.0763693 -0.198868 -0.198868
-0.0822015 -0.230112 -0.230112
-0.0282709 -0.228597 -0.228597
-0.0261838 -0.197297 -0.197297
-0.0792859 -0.214213 -0.214213
-0.0552162 -0.229118 -0.229118
-0.0272253 -0.21267 -0.21267
-0.0512567 -0.197844 -0.197844
-0.0532357 -0.213204 -0.213204
-0.0822015 -0.230112 -0.230112
-0.0880306 -0.263562 -0.263562
-0.0303755 -0.262106 -0.262106
-0.0282709 -0.228597 -0.228597
-0.0851163 -0.246562 -0.246562
-0.0591829 -0.262598 -0.262598
-0.0293209 -0.245076 -0.245076
-0.0552162 -0.229118 -0.229118
-0.0571985 -0.245583 -0.245583
-0.0880306 -0.263562 -0.263562
-0.0938585 -0.299206 -0.299206
-0.0324996 -0.297812 -0.297812
-0.0303755 -0.262106 -0.262106
-0.0909446 -0.281111 -0.281111
-0.0631587 -0.298275 -0.298275
-0.031435 -0.279685 -0.279685
-0.0591829 -0.262598 -0.262598
-0.0611696 -0.280163 -0.280163
-0.0938585 -0.299206 -0.299206
-0.099687 -0.337033 -0.337033
-0.0346447 -0.335703 -0.335703
-0.0324996 -0.297812 -0.297812
-0.0967725 -0.317848 -0.317848
-0.0671453 -0.336135 -0.336135
-0.0335694 -0.316485 -0.316485
-0.0631587 -0.298275 -0.298275
-0.0651506 -0.316933 -0.316933
-0.099687 -0.337033 -0.337033
-0.105518 -0.377029 -0.377029
-0.0368127 -0.375766 -0.375766
-0.0346447 -0.335703 -0.335703
-0.102602 -0.356761 -0.356761
-0.0711445 -0.376166 -0.376166
-0.0357258 -0.355464 -0.355464
-0.0671453 -0.336135 -0.336135
-0.0691433 -0.35588 -0.35588
-0.105518 -0.377029 -0.377029
-0.111352 -0.419184 -0.419184
-0.0390052 -0.417991 -0.417991
-0.0368127 -0.375766 -0.375766
-0.108434 -0.397838 -0.397838
-0.075158 -0.418357 -0.418357
-0.0379058 -0.396609 -0.396609
-0.0711445 -0.376166 -0.376166
-0.0731494 -0.396992 -0.396992
-0.111352 -0.419184 -0.419184
-0.117193 -0.463484 -0.463484
-0.0412238 -0.462364 -0.462364
-0.0390052 -0.417991 -0.417991
-0.114272 -0.441067 -0.441067
-0.0791872 -0.462695 -0.462695
-0.0401112 -0.43991 -0.43991
-0.075158 -0.418357 -0.418357
-0.0771705 -0.440258 -0.440258
-0.117193 -0.463484 -0.463484
-0.12304 -0.509919 -0.509919
-0.0434701 -0.508874 -0.508874
-0.0412238 -0.462364 -0.462364
-0.120115 -0.486436 -0.486436
-0.0832339 -0.509169 -0.509169
-0.0423434 -0.485353 -0.485353
-0.0791872 -0.462695 -0.462695
-0.0812083 -0.485666 -0.485666
-0.12304 -0.509919 -0.509919
-0.128896 -0.558475 -0.558475
-0.0457457 -0.557508 -0.557508
-0.0434701 -0.508874 -0.508874
-0.125967 -0.533932 -0.533932
-0.0872996 -0.557765 -0.557765
-0.0446041 -0.532926 -0.532926
-0.0832339 -0.509169 -0.509169
-0.0852643 -0.533202 -0.533202
-0.128896 -0.558475 -0.558475
-0.134763 -0.609141 -0.609141
-0.048052 -0.608255 -0.608255
-0.0457457 -0.557508 -0.557508
-0.131828 -0.583545 -0.583545
-0.0913859 -0.608473 -0.608473
-0.0468949 -0.582618 -0.582618
-0.0872996 -0.557765 -0.557765
-0.0893401 -0.582856 -0.582856
-0.134763 -0.609141 -0.609141
-0.140641 -0.661905 -0.661905
-0.0503907 -0.661101 -0.661101
-0.048052 -0.608255 -0.608255
-0.1377 -0.635261 -0.635261
-0.0954942 -0.661279 -0.661279
-0.0492172 -0.634416 -0.634416
-0.0913859 -0.608473 -0.608473
-0.0934372 -0.634614 -0.634614
-0.140641 -0.661905 -0.661905
-0.146533 -0.716754 -0.716754
-0.0527632 -0.716036 -0.716036
-0.0503907 -0.661101 -0.661101
-0.143585 -0.68907 -0.68907
-0.099626 -0.716173 -0.716173
-0.0515726 -0.688309 -0.688309
-0.0954942 -0.661279 -0.661279
-0.0975571 -0.688466 -0.688466
-0.146533 -0.716754 -0.716754
-0.152439 -0.773677 -0.773677
-0.0551709 -0.773047 -0.773047
-0.0527632 -0.716036 -0.716036
-0.149484 -0.744957 -0.744957
-0.103783 -0.773141 -0.773141
-0.0539625 -0.744283 -0.744283
-0.099626 -0.716173 -0.716173
-0.101701 -0.744398 -0.744398
-0.152439 -0.773677 -0.773677
-0.158361 -0.832662 -0.832662
-0.0576152 -0.832122 -0.832122
-0.0551709 -0.773047 -0.773047
-0.155398 -0.802912 -0.802912
-0.107966 -0.832172 -0.832172
-0.0563884 -0.802327 -0.802327
-0.103783 -0.773141 -0.773141
-0.105871 -0.8024 -0.8024
-0.158361 -0.832662 -0.832662
-0.164301 -0.893696 -0.893696
-0.0600977 -0.893249 -0.893249
-0.0576152 -0.832122 -0.832122
-0.161329 -0.862923 -0.862923
-0.112177 -0.893254 -0.893254
-0.0588516 -0.86243 -0.86243
-0.107966 -0.832172 -0.832172
-0.110068 -0.862457 -0.862457
-0.164301 -0.893696 -0.893696
-0.17026 -0.956767 -0.956767
-0.0626195 -0.956415 -0.956415
-0.0600977 -0.893249 -0.893249
-0.167278 -0.924977 -0.924977
-0.116417 -0.956374 -0.956374
-0.0613536 -0.924578 -0.924578
-0.112177 -0.893254 -0.893254
-0.114293 -0.92456 -0.92456
-0.17026 -0.956767 -0.956767
-0.176239 -1.02186 -1.02186
-0.065182 -1.02161 -1.02161
-0.0626195 -0.956415 -0.956415
-0.173247 -0.989063 -0.989063
-0.120688 -1.02152 -1.02152
-0.0638956 -0.988759 -0.988759
-0.116417 -0.956374 -0.956374
-0.118549 -0.988695 -0.988695
-0.176239 -1.02186 -1.02186
-0.182239 -1.08897 -1.08897
-0.0677867 -1.08882 -1.08882
-0.065182 -1.02161 -1.02161
-0.179236 -1.05517 -1.05517
-0.12499 -1.08868 -1.08868
-0.066479 -1.05496 -1.05496
-0.120688 -1.02152 -1.02152
-0.122835 -1.05485 -1.05485
-0.182239 -1.08897 -1.08897
-0.188262 -1.15808 -1.15808
-0.0704346 -1.15803 -1.15803
-0.0677867 -1.08882 -1.08882
-0.185248 -1.12328 -1.12328
-0.129326 -1.15784 -1.15784
-0.0691051 -1.12317 -1.12317
-0.12499 -1.08868 -1.08868
-0.127154 -1.12301 -1.12301
-0.188262 -1.15808 -1.15808
-0.19431 -1.22918 -1.22918
-0.0731271 -1.22923 -1.22923
-0.0704346 -1.15803 -1.15803
-0.191283 -1.19339 -1.19339
-0.133695 -1.229 -1.229
-0.0717752 -1.19338 -1.19338
-0.129326 -1.15784 -1.15784
-0.131506 -1.19317 -1.19317
-0.19431 -1.22918 -1.22918
-0.200382 -1.30226 -1.30226
-0.0758654 -1.30242 -1.30242
-0.0731271 -1.22923 -1.22923
-0.197343 -1.26548 -1.26548
-0.138101 -1.30213 -1.30213
-0.0744904 -1.26558 -1.26558
-0.133695 -1.229 -1.229
-0.135894 -1.26532 -1.26532
-0.200382 -1.30226 -1.30226
-0.206481 -1.3773 -1.3773
-0.0786506 -1.37757 -1.37757
-0.0758654 -1.30242 -1.30242
-0.203428 -1.33954 -1.33954
-0.142543 -1.37723 -1.37723
-0.077252 -1.33975 -1.33975
-0.138101 -1.30213 -1.30213
-0.140317 -1.33943 -1.33943
-0.206481 -1.3773 -1.3773
-0.212608 -1.4543 -1.4543
-0.081484 -1.45467 -1.45467
-0.0786506 -1.37757 -1.37757
-0.209541 -1.41556 -1.41556
-0.147023 -1.45428 -1.45428
-0.0800612 -1.41588 -1.41588
-0.142543 -1.37723 -1.37723
-0.144778 -1.41551 -1.41551
-0.212608 -1.4543 -1.4543
-0.218763 -1.53323 -1.53323
-0.0843666 -1.53372 -1.53372
-0.081484 -1.45467 -1.45467
-0.215682 -1.49352 -1.49352
-0.151541 -1.53327 -1.53327
-0.0829191 -1.49395 -1.49395
-0.147023 -1.45428 -1.45428
-0.149277 -1.49353 -1.49353
-0.218763 -1.53323 -1.53323
-0.224948 -1.6141 -1.6141
-0.0872996 -1.6147 -1.6147
-0.0843666 -1.53372 -1.53372
-0.221852 -1.57343 -1.57343
-0.1561 -1.61419 -1.61419
-0.0858268 -1.57397 -1.57397
-0.151541 -1.53327 -1.53327
-0.153816 -1.57349 -1.57349
-0.224948 -1.6141 -1.6141
-0.231164 -1.69688 -1.69688
-0.0902841 -1.69759 -1.69759
-0.0872996 -1.6147 -1.6147
-0.228052 -1.65525 -1.65525
-0.1607 -1.69703 -1.69703
-0.0887854 -1.6559 -1.6559
-0.1561 -1.61419 -1.61419
-0.158395 -1.65537 -1.65537
-0.231164 -1.69688 -1.69688
-0.237412 -1.78156 -1.78156
-0.0933211 -1.78239 -1.78239
-0.0902841 -1.69759 -1.69759
-0.234284 -1.73898 -1.73898
-0.165343 -1.78178 -1.78178
-0.091796 -1.73976 -1.73976
-0.1607 -1.69703 -1.69703
-0.163016 -1.73917 -1.73917
-0.237412 -1.78156 -1.78156
-0.243693 -1.86814 -1.86814
-0.0964115 -1.86909 -1.86909
-0.0933211 -1.78239 -1.78239
-0.240548 -1.82462 -1.82462
-0.170028 -1.86842 -1.86842
-0.0948595 -1.82551 -1.82551
-0.165343 -1.78178 -1.78178
-0.16768 -1.82486 -1.82486
-0.243693 -1.86814 -1.86814
-0.250008 -1.9566 -1.9566
-0.0995565 -1.95767 -1.95767
-0.0964115 -1.86909 -1.86909
-0.246846 -1.91214 -1.91214
-0.174758 -1.95694 -1.95694
-0.0979771 -1.91315 -1.91315
-0.170028 -1.86842 -1.86842
-0.172388 -1.91244 -1.91244
-0.250008 -1.9566 -1.9566
-0.256358 -2.04693 -2.04693
-0.102757 -2.04812 -2.04812
-0.0995565 -1.95767 -1.95767
-0.253179 -2.00153 -2.00153
-0.179533 -2.04732 -2.04732
-0.10115 -2.00266 -2.00266
-0.174758 -1.95694 -1.95694
-0.17714 -2.0019 -2.0019
-0.256358 -2.04693 -2.04693
-0.262744 -2.13911 -2.13911
-0.106014 -2.14042 -2.14042
-0.102757 -2.04812 -2.04812
-0.259546 -2.09279 -2.09279
-0.184355 -2.13957 -2.13957
-0.104378 -2.09404 -2.09404
-0.179533 -2.04732 -2.04732
-0.181938 -2.09322 -2.09322
-0.262744 -2.13911 -2.13911
-0.269166 -2.23314 -2.23314
-0.109328 -2.23458 -2.23458
-0.106014 -2.14042 -2.14042
-0.265951 -2.18589 -2.18589
-0.189223 -2.23366 -2.23366
-0.107664 -2.18727 -2.18727
-0.184355 -2.13957 -2.13957
-0.186783 -2.18639 -2.18639
-0.269166 -2.23314 -2.23314
-0.275627 -2.329 -2.329
-0.112701 -2.33056 -2.33056
-0.109328 -2.23458 -2.23458
-0.272392 -2.28084 -2.28084
-0.194139 -2.32958 -2.32958
-0.111007 -2.28234 -2.28234
-0.189223 -2.23366 -2.23366
-0.191675 -2.28139 -2.28139
-0.275627 -2.329 -2.329
-0.282126 -2.42668 -2.42668
-0.116132 -2.42837 -2.42837
-0.112701 -2.33056 -2.33056
-0.278871 -2.37761 -2.37761
-0.199104 -2.42733 -2.42733
-0.114409 -2.37924 -2.37924
-0.194139 -2.32958 -2.32958
-0.196616 -2.37823 -2.37823
-0.282126 -2.42668 -2.42668
-0.288664 -2.52616 -2.52616
-0.119624 -2.52799 -2.52799
-0.116132 -2.42837 -2.42837
-0.28539 -2.47619 -2.47619
-0.204119 -2.52688 -2.52688
-0.11787 -2.47795 -2.47795
-0.199104 -2.42733 -2.42733
-0.201606 -2.47688 -2.47688
-0.288664 -2.52616 -2.52616
-0.295242 -2.62745 -2.62745
-0.123176 -2.6294 -2.6294
-0.119624 -2.52799 -2.52799
-0.291948 -2.57658 -2.57658
-0.209184 -2.62823 -2.62823
-0.121392 -2.57847 -2.57847
-0.204119 -2.52688 -2.52688
-0.206645 -2.57733 -2.57733
-0.295242 -2.62745 -2.62745
-0.301862 -2.73051 -2.73051
-0.126789 -2.7326 -2.7326
-0.123176 -2.6294 -2.6294
-0.298547 -2.67876 -2.67876
-0.214301 -2.73137 -2.73137
-0.124975 -2.68078 -2.68078
-0.209184 -2.62823 -2.62823
-0.211736 -2.67958 -2.67958
-0.301862 -2.73051 -2.73051
-0.308523 -2.83535 -2.83535
-0.130465 -2.83757 -2.83757
-0.126789 -2.7326 -2.7326
-0.305187 -2.78271 -2.78271
-0.21947 -2.83627 -2.83627
-0.12862 -2.78486 -2.78486
-0.214301 -2.73137 -2.73137
-0.216879 -2.7836 -2.7836
-0.308523 -2.83535 -2.83535
-0.315227 -2.94195 -2.94195
-0.134204 -2.9443 -2.9443
-0.130465 -2.83757 -2.83757
-0.31187 -2.88843 -2.88843
-0.224691 -2.94294 -2.94294
-0.132327 -2.89072 -2.89072
-0.21947 -2.83627 -2.83627
-0.222074 -2.88939 -2.88939
-0.315227 -2.94195 -2.94195
-0.321974 -3.0503 -3.0503
-0.138007 -3.05278 -3.05278
-0.134204 -2.9443 -2.9443
-0.318595 -2.99591 -2.99591
-0.229966 -3.05135 -3.05135
-0.136098 -2.99832 -2.99832
-0.224691 -2.94294 -2.94294
-0.227321 -2.99693 -2.99693
-0.321974 -3.0503 -3.0503
-0.328765 -3.16038 -3.16038
-0.141874 -3.163 -3.163
-0.138007 -3.05278 -3.05278
-0.325364 -3.10512 -3.10512
-0.235294 -3.1615 -3.1615
-0.139933 -3.10768 -3.10768
-0.229966 -3.05135 -3.05135
-0.232623 -3.10621 -3.10621
-0.328765 -3.16038 -3.16038
-0.3356 -3.27218 -3.27218
-0.145807 -3.27494 -3.27494
-0.141874 -3.163 -3.163
-0.332177 -3.21606 -3.21606
-0.240678 -3.27338 -3.27338
-0.143832 -3.21876 -3.21876
-0.235294 -3.1615 -3.1615
-0.237979 -3.21723 -3.21723
-0.3356 -3.27218 -3.27218
-0.34248 -3.3857 -3.3857
-0.149804 -3.3886 -3.3886
-0.145807 -3.27494 -3.27494
-0.339035 -3.32873 -3.32873
-0.246117 -3.38697 -3.38697
-0.147797 -3.33156 -3.33156
-0.240678 -3.27338 -3.27338
-0.243391 -3.32996 -3.32996
-0.34248 -3.3857 -3.3857
-0.349407 -3.50091 -3.50091
-0.153869 -3.50395 -3.50395
-0.149804 -3.3886 -3.3886
-0.345938 -3.44309 -3.44309
-0.251613 -3.50225 -3.50225
-0.151828 -3.44606 -3.44606
-0.246117 -3.38697 -3.38697
-0.248858 -3.4444 -3.4444
-0.349407 -3.50091 -3.50091
-0.356379 -3.61781 -3.61781
-0.158 -3.621 -3.621
-0.153869 -3.50395 -3.50395
-0.352887 -3.55915 -3.55915
-0.257164 -3.61923 -3.61923
-0.155926 -3.56226 -3.56226
-0.251613 -3.50225 -3.50225
-0.254381 -3.56053 -3.56053
-0.356379 -3.61781 -3.61781
-0.363399 -3.73639 -3.73639
-0.162198 -3.73971 -3.73971
-0.158 -3.621 -3.621
-0.359883 -3.67689 -3.67689
-0.262773 -3.73788 -3.73788
-0.160091 -3.68015 -3.68015
-0.257164 -3.61923 -3.61923
-0.259962 -3.67834 -3.67834
-0.363399 -3.73639 -3.73639
-0.370466 -3.85663 -3.85663
-0.166465 -3.8601 -3.8601
-0.162198 -3.73971 -3.73971
-0.366927 -3.79631 -3.79631
-0.26844 -3.85819 -3.85819
-0.164323 -3.7997 -3.7997
-0.262773 -3.73788 -3.73788
-0.2656 -3.79783 -3.79783
-0.370466 -3.85663 -3.85663
-0.377581 -3.97852 -3.97852
-0.1708 -3.98213 -3.98213
-0.166465 -3.8601 -3.8601
-0.374018 -3.91737 -3.91737
-0.274165 -3.98015 -3.98015
-0.168624 -3.92091 -3.92091
-0.26844 -3.85819 -3.85819
-0.271295 -3.91897 -3.91897
-0.377581 -3.97852 -3.97852
-0.384745 -4.10205 -4.10205
-0.175204 -4.10581 -4.10581
-0.1708 -3.98213 -3.98213
-0.381157 -4.04008 -4.04008
-0.279949 -4.10376 -4.10376
-0.172993 -4.04377 -4.04377
-0.274165 -3.98015 -3.98015
-0.27705 -4.04175 -4.04175
-0.384745 -4.10205 -4.10205
-0.391957 -4.22721 -4.22721
-0.179677 -4.23111 -4.23111
-0.175204 -4.10581 -4.10581
-0.388345 -4.16443 -4.16443
-0.285792 -4.22899 -4.22899
-0.177432 -4.16826 -4.16826
-0.279949 -4.10376 -4.10376
-0.282863 -4.16617 -4.16617
-0.391957 -4.22721 -4.22721
-0.399219 -4.35398 -4.35398
-0.184221 -4.35803 -4.35803
-0.179677 -4.23111 -4.23111
-0.395582 -4.2904 -4.2904
-0.291695 -4.35583 -4.35583
-0.18194 -4.29437 -4.29437
-0.285792 -4.22899 -4.22899
-0.288736 -4.29221 -4.29221
-0.399219 -4.35398 -4.35398
-0.406531 -4.48236 -4.48236
-0.188834 -4.48655 -4.48655
-0.184221 -4.35803 -4.35803
-0.402869 -4.41797 -4.41797
-0.297657 -4.48428 -4.48428
-0.186519 -4.42209 -4.42209
-0.291695 -4.35583 -4.35583
-0.294668 -4.41986 -4.41986
-0.406531 -4.48236 -4.48236
-0.413893 -4.61232 -4.61232
-0.193519 -4.61666 -4.61666
-0.188834 -4.48655 -4.48655
-0.410206 -4.54714 -4.54714
-0.30368 -4.61432 -4.61432
-0.191168 -4.5514 -4.5514
-0.297657 -4.48428 -4.48428
-0.300661 -4.5491 -4.5491
-0.413893 -4.61232 -4.61232
-0.421306 -4.74386 -4.74386
-0.198274 -4.74835 -4.74835
-0.193519 -4.61666 -4.61666
-0.417593 -4.6779 -4.6779
-0.309764 -4.74594 -4.74594
-0.195888 -4.68231 -4.68231
-0.30368 -4.61432 -4.61432
-0.306715 -4.67993 -4.67993
-0.421306 -4.74386 -4.74386
-0.428769 -4.87697 -4.87697
-0.203101 -4.88161 -4.88161
-0.198274 -4.74835 -4.74835
-0.425031 -4.81022 -4.81022
-0.31591 -4.87913 -4.87913
-0.200679 -4.81478 -4.81478
-0.309764 -4.74594 -4.74594
-0.312829 -4.81234 -4.81234
-0.428769 -4.87697 -4.87697
-0.436284 -5.01164 -5.01164
-0.208 -5.01642 -5.01642
-0.203101 -4.88161 -4.88161
-0.43252 -4.94411 -4.94411
-0.322116 -5.01386 -5.01386
-0.205542 -4.94882 -4.94882
-0.31591 -4.87913 -4.87913
-0.319005 -4.9463 -4.9463
-0.436284 -5.01164 -5.01164
-0.44385 -5.14784 -5.14784
-0.212971 -5.15278 -5.15278
-0.208 -5.01642 -5.01642
-0.440061 -5.07955 -5.07955
-0.328385 -5.15015 -5.15015
-0.210477 -5.08441 -5.08441
-0.322116 -5.01386 -5.01386
-0.325243 -5.08181 -5.08181
-0.44385 -5.14784 -5.14784
-0.451468 -5.28558 -5.28558
-0.218014 -5.29066 -5.29066
-0.212971 -5.15278 -5.15278
-0.447653 -5.21652 -5.21652
-0.334716 -5.28796 -5.28796
-0.215484 -5.22153 -5.22153
-0.328385 -5.15015 -5.15015
-0.331542 -5.21886 -5.21886
-0.451468 -5.28558 -5.28558
-0.459139 -5.42484 -5.42484
-0.22313 -5.43007 -5.43007
-0.218014 -5.29066 -5.29066
-0.455297 -5.35502 -5.35502
-0.341109 -5.42729 -5.42729
-0.220563 -5.36018 -5.36018
-0.334716 -5.28796 -5.28796
-0.337904 -5.35744 -5.35744
-0.459139 -5.42484 -5.42484
-0.466862 -5.5656 -5.5656
-0.228319 -5.57098 -5.57098
-0.22313 -5.43007 -5.43007
-0.462994 -5.49503 -5.49503
-0.347564 -5.56813 -5.56813
-0.225715 -5.50034 -5.50034
-0.341109 -5.42729 -5.42729
-0.344329 -5.49752 -5.49752
-0.466862 -5.5656 -5.5656
-0.474637 -5.70785 -5.70785
-0.23358 -5.71338 -5.71338
-0.228319 -5.57098 -5.57098
-0.470743 -5.63654 -5.63654
-0.354083 -5.71046 -5.71046
-0.23094 -5.642 -5.642
-0.347564 -5.56813 -5.56813
-0.350816 -5.63911 -5.63911
-0.474637 -5.70785 -5.70785
-0.482465 -5.85159 -5.85159
-0.238916 -5.85727 -5.85727
-0.23358 -5.71338 -5.71338
-0.478544 -5.77953 -5.77953
-0.360664 -5.85427 -5.85427
-0.236239 -5.78514 -5.78514
-0.354083 -5.71046 -5.71046
-0.357366 -5.78218 -5.78218
-0.482465 -5.85159 -5.85159
-0.490346 -5.99679 -5.99679
-0.244324 -6.00263 -6.00263
-0.238916 -5.85727 -5.85727
-0.486399 -5.92401 -5.92401
-0.367309 -5.99956 -5.99956
-0.241611 -5.92977 -5.92977
-0.360664 -5.85427 -5.85427
-0.363979 -5.92673 -5.92673
-0.490346 -5.99679 -5.99679
-0.49828 -6.14346 -6.14346
-0.249806 -6.14945 -6.14945
-0.244324 -6.00263 -6.00263
-0.494307 -6.06994 -6.06994
-0.374017 -6.1463 -6.1463
-0.247056 -6.07586 -6.07586
-0.367309 -5.99956 -5.99956
-0.370655 -6.07275 -6.07275
-0.49828 -6.14346 -6.14346
-0.506268 -6.29157 -6.29157
-0.255362 -6.29771 -6.29771
-0.249806 -6.14945 -6.14945
-0.502268 -6.21733 -6.21733
-0.380789 -6.29449 -6.29449
-0.252575 -6.2234 -6.2234
-0.374017 -6.1463 -6.1463
-0.377395 -6.22021 -6.22021
-0.506268 -6.29157 -6.29157
-0.514309 -6.44111 -6.44111
-0.260992 -6.4474 -6.4474
-0.255362 -6.29771 -6.29771
-0.510282 -6.36616 -6.36616
-0.387625 -6.44411 -6.44411
-0.258168 -6.37238 -6.37238
-0.380789 -6.29449 -6.29449
-0.384199 -6.36912 -6.36912
-0.514309 -6.44111 -6.44111
-0.522403 -6.59208 -6.59208
-0.266696 -6.59852 -6.59852
-0.260992 -6.4474 -6.4474
-0.518349 -6.51642 -6.51642
-0.394524 -6.59515 -6.59515
-0.263835 -6.52279 -6.52279
-0.387625 -6.44411 -6.44411
-0.391066 -6.51945 -6.51945
-0.522403 -6.59208 -6.59208
-0.530551 -6.74445 -6.74445
-0.272474 -6.75105 -6.75105
-0.266696 -6.59852 -6.59852
-0.526471 -6.66809 -6.66809
-0.401487 -6.7476 -6.7476
-0.269575 -6.67461 -6.67461
-0.394524 -6.59515 -6.59515
-0.397997 -6.6712 -6.6712
-0.530551 -6.74445 -6.74445
-0.538753 -6.89822 -6.89822
-0.278325 -6.90497 -6.90497
-0.272474 -6.75105 -6.75105
-0.534645 -6.82116 -6.82116
-0.408513 -6.90145 -6.90145
-0.27539 -6.82784 -6.82784
-0.401487 -6.7476 -6.7476
-0.404992 -6.82435 -6.82435
-0.538753 -6.89822 -6.89822
-0.547008 -7.05338 -7.05338
-0.284251 -7.06028 -7.06028
-0.278325 -6.90497 -6.90497
-0.542874 -6.97563 -6.97563
-0.415604 -7.05669 -7.05669
-0.281279 -6.98246 -6.98246
-0.408513 -6.90145 -6.90145
-0.412051 -6.9789 -6.9789
-0.547008 -7.05338 -7.05338
-0.555317 -7.20991 -7.20991
-0.290252 -7.21697 -7.21697
-0.284251 -7.06028 -7.06028
-0.551156 -7.13148 -7.13148
-0.422759 -7.21329 -7.21329
-0.287242 -7.13845 -7.13845
-0.415604 -7.05669 -7.05669
-0.419173 -7.13482 -7.13482
-0.555317 -7.20991 -7.20991
-0.56368 -7.3678 -7.3678
-0.296326 -7.37501 -7.37501
-0.290252 -7.21697 -7.21697
-0.559492 -7.28869 -7.28869
-0.429977 -7.37126 -7.37126
-0.29328 -7.29582 -7.29582
-0.422759 -7.21329 -7.21329
-0.42636 -7.29211 -7.29211
-0.56368 -7.3678 -7.3678
-0.572096 -7.52705 -7.52705
-0.302474 -7.5344 -7.5344
-0.296326 -7.37501 -7.37501
-0.567881 -7.44726 -7.44726
-0.437259 -7.53058 -7.53058
-0.299391 -7.45454 -7.45454
-0.429977 -7.37126 -7.37126
-0.43361 -7.45076 -7.45076
-0.572096 -7.52705 -7.52705
-0.580566 -7.68762 -7.68762
-0.308697 -7.69514 -7.69514
-0.302474 -7.5344 -7.5344
-0.576324 -7.60717 -7.60717
-0.444606 -7.69124 -7.69124
-0.305576 -7.6146 -7.6146
-0.437259 -7.53058 -7.53058
-0.440924 -7.61074 -7.61074
-0.580566 -7.68762 -7.68762
-0.589089 -7.84953 -7.84953
-0.314993 -7.85719 -7.85719
-0.308697 -7.69514 -7.69514
-0.584821 -7.76841 -7.76841
-0.452016 -7.85322 -7.85322
-0.311836 -7.776 -7.776
-0.444606 -7.69124 -7.69124
-0.448303 -7.77206 -7.77206
-0.589089 -7.84953 -7.84953
-0.597666 -8.01274 -8.01274
-0.321364 -8.02056 -8.02056
-0.314993 -7.85719 -7.85719
-0.593371 -7.93097 -7.93097
-0.459489 -8.01651 -8.01651
-0.318169 -7.93871 -7.93871
-0.452016 -7.85322 -7.85322
-0.455744 -7.9347 -7.9347
-0.597666 -8.01274 -8.01274
-0.606297 -8.17726 -8.17726
-0.327808 -8.18523 -8.18523
-0.321364 -8.02056 -8.02056
-0.601975 -8.09484 -8.09484
-0.467026 -8.18111 -8.18111
-0.324577 -8.10273 -8.10273
-0.459489 -8.01651 -8.01651
-0.46325 -8.09865 -8.09865
-0.606297 -8.17726 -8.17726
-0.61498 -8.34307 -8.34307
-0.334326 -8.35119 -8.35119
-0.327808 -8.18523 -8.18523
-0.610632 -8.26 -8.26
-0.474627 -8.34699 -8.34699
-0.331058 -8.26805 -8.26805
-0.467026 -8.18111 -8.18111
-0.470819 -8.26389 -8.26389
-0.61498 -8.34307 -8.34307
-0.623717 -8.51015 -8.51015
-0.340918 -8.51842 -8.51842
-0.334326 -8.35119 -8.35119
-0.619342 -8.42645 -8.42645
-0.482291 -8.51415 -8.51415
-0.337613 -8.43465 -8.43465
-0.474627 -8.34699 -8.34699
-0.478451 -8.43041 -8.43041
-0.623717 -8.51015 -8.51015
-0.632506 -8.6785 -8.6785
-0.347582 -8.68692 -8.68692
-0.340918 -8.51842 -8.51842
-0.628105 -8.59417 -8.59417
-0.490019 -8.68258 -8.68258
-0.344241 -8.60251 -8.60251
-0.482291 -8.51415 -8.51415
-0.486147 -8.59821 -8.59821
-0.632506 -8.6785 -8.6785
-0.641349 -8.8481 -8.8481
-0.354321 -8.85667 -8.85667
-0.347582 -8.68692 -8.68692
-0.636921 -8.76314 -8.76314
-0.497809 -8.85226 -8.85226
-0.350942 -8.77164 -8.77164
-0.490019 -8.68258 -8.68258
-0.493906 -8.76726 -8.76726
-0.641349 -8.8481 -8.8481
-0.650244 -9.01894 -9.01894
-0.361132 -9.02767 -9.02767
-0.354321 -8.85667 -8.85667
-0.64579 -8.93337 -8.93337
-0.505662 -9.02317 -9.02317
-0.357717 -8.94202 -8.94202
-0.497809 -8.85226 -8.85226
-0.501728 -8.93756 -8.93756
-0.650244 -9.01894 -9.01894
-0.659191 -9.19101 -9.19101
-0.368016 -9.19989 -9.19989
-0.361132 -9.02767 -9.02767
-0.654711 -9.10482 -9.10482
-0.513578 -9.19532 -9.19532
-0.364565 -9.11362 -9.11362
-0.505662 -9.02317 -9.02317
-0.509612 -9.10909 -9.10909
-0.659191 -9.19101 -9.19101
-0.668191 -9.3643 -9.3643
-0.374972 -9.37332 -9.37332
-0.368016 -9.19989 -9.19989
-0.663684 -9.2775 -9.2775
-0.521556 -9.36868 -9.36868
-0.371485 -9.28645 -9.28645
-0.513578 -9.19532 -9.19532
-0.517559 -9.28185 -9.28185
-0.668191 -9.3643 -9.3643
-0.677242 -9.53879 -9.53879
-0.382001 -9.54796 -9.54796
-0.374972 -9.37332 -9.37332
-0.67271 -9.45139 -9.45139
-0.529596 -9.54325 -9.54325
-0.378478 -9.46049 -9.46049
-0.521556 -9.36868 -9.36868
-0.525568 -9.45582 -9.45582
-0.677242 -9.53879 -9.53879
-0.686345 -9.71447 -9.71447
-0.389103 -9.7238 -9.7238
-0.382001 -9.54796 -9.54796
-0.681787 -9.62648 -9.62648
-0.537698 -9.71901 -9.71901
-0.385543 -9.63573 -9.63573
-0.529596 -9.54325 -9.54325
-0.533639 -9.63098 -9.63098
-0.686345 -9.71447 -9.71447
-0.6955 -9.89134 -9.89134
-0.396275 -9.90081 -9.90081
-0.389103 -9.7238 -9.7238
-0.690916 -9.80276 -9.80276
-0.545862 -9.89595 -9.89595
-0.39268 -9.81216 -9.81216
-0.537698 -9.71901 -9.71901
-0.541772 -9.80733 -9.80733
-0.6955 -9.89134 -9.89134
-0.704705 -10.0694 -10.0694
-0.40352 -10.079 -10.079
-0.396275 -9.90081 -9.90081
-0.700096 -9.98021 -9.98021
-0.554087 -10.0741 -10.0741
-0.399889 -9.98975 -9.98975
-0.545862 -9.89595 -9.89595
-0.549967 -9.98486 -9.98486
-0.704705 -10.0694 -10.0694
-0.713962 -10.2486 -10.2486
-0.410836 -10.2583 -10.2583
-0.40352 -10.079 -10.079
-0.709327 -10.1588 -10.1588
-0.562373 -10.2533 -10.2533
-0.407169 -10.1685 -10.1685
-0.554087 -10.0741 -10.0741
-0.558222 -10.1635 -10.1635
-0.713962 -10.2486 -10.2486
-0.723269 -10.4289 -10.4289
-0.418222 -10.4388 -10.4388
-0.410836 -10.2583 -10.2583
-0.718609 -10.3386 -10.3386
-0.57072 -10.4337 -10.4337
-0.41452 -10.3484 -10.3484
-0.562373 -10.2533 -10.2533
-0.566539 -10.3434 -10.3434
-0.723269 -10.4289 -10.4289
-0.732626 -10.6104 -10.6104
-0.425679 -10.6204 -10.6204
-0.418222 -10.4388 -10.4388
-0.727941 -10.5195 -10.5195
-0.579127 -10.6153 -10.6153
-0.421942 -10.5295 -10.5295
-0.57072 -10.4337 -10.4337
-0.574916 -10.5244 -10.5244
-0.732626 -10.6104 -10.6104
-0.742032 -10.7929 -10.7929
-0.433206 -10.8031 -10.8031
-0.425679 -10.6204 -10.6204
-0.737323 -10.7015 -10.7015
-0.587594 -10.7979 -10.7979
-0.429434 -10.7116 -10.7116
-0.579127 -10.6153 -10.6153
-0.583353 -10.7065 -10.7065
-0.742032 -10.7929 -10.7929
-0.751488 -10.9766 -10.9766
-0.440803 -10.987 -10.987
-0.433206 -10.8031 -10.8031
-0.746754 -10.8847 -10.8847
-0.596121 -10.9817 -10.9817
-0.436996 -10.8949 -10.8949
-0.587594 -10.7979 -10.7979
-0.59185 -10.8897 -10.8897
-0.751488 -10.9766 -10.9766
-0.760993 -11.1614 -11.1614
-0.44847 -11.1719 -11.1719
-0.440803 -10.987 -10.987
-0.756235 -11.0689 -11.0689
-0.604706 -11.1666 -11.1666
-0.444628 -11.0793 -11.0793
-0.596121 -10.9817 -10.9817
-0.600406 -11.074 -11.074
-0.760993 -11.1614 -11.1614
-0.770547 -11.3473 -11.3473
-0.456205 -11.3579 -11.3579
-0.44847 -11.1719 -11.1719
-0.765764 -11.2542 -11.2542
-0.613351 -11.3525 -11.3525
-0.452329 -11.2648 -11.2648
-0.604706 -11.1666 -11.1666
-0.609021 -11.2594 -11.2594
-0.770547 -11.3473 -11.3473
-0.780149 -11.5343 -11.5343
-0.464009 -11.545 -11.545
-0.456205 -11.3579 -11.3579
-0.775342 -11.4406 -11.4406
-0.622054 -11.5395 -11.5395
-0.460099 -11.4514 -11.4514
-0.613351 -11.3525 -11.3525
-0.617695 -11.4459 -11.4459
-0.780149 -11.5343 -11.5343
-0.789799 -11.7223 -11.7223
-0.471882 -11.7332 -11.7332
-0.464009 -11.545 -11.545
-0.784968 -11.6281 -11.6281
-0.630815 -11.7276 -11.7276
-0.467937 -11.639 -11.639
-0.622054 -11.5395 -11.5395
-0.626427 -11.6334 -11.6334
-0.789799 -11.7223 -11.7223
-0.799495 -11.9113 -11.9113
-0.479821 -11.9224 -11.9224
-0.471882 -11.7332 -11.7332
-0.794641 -11.8167 -11.8167
-0.639633 -11.9167 -11.9167
-0.475843 -11.8276 -11.8276
-0.630815 -11.7276 -11.7276
-0.635217 -11.822 -11.822
-0.799495 -11.9113 -11.9113
-0.809239 -12.1014 -12.1014
-0.487828 -12.1126 -12.1126
-0.479821 -11.9224 -11.9224
-0.804362 -12.0062 -12.0062
-0.648509 -12.1069 -12.1069
-0.483817 -12.0174 -12.0174
-0.639633 -11.9167 -11.9167
-0.644064 -12.0117 -12.0117
-0.809239 -12.1014 -12.1014
-0.819029 -12.2925 -12.2925
-0.495902 -12.3039 -12.3039
-0.487828 -12.1126 -12.1126
-0.814128 -12.1968 -12.1968
-0.657441 -12.2981 -12.2981
-0.491857 -12.2081 -12.2081
-0.648509 -12.1069 -12.1069
-0.652968 -12.2024 -12.2024
-0.819029 -12.2925 -12.2925
-0.828865 -12.4846 -12.4846
-0.504042 -12.4961 -12.4961
-0.495902 -12.3039 -12.3039
-0.823941 -12.3885 -12.3885
-0.666429 -12.4903 -12.4903
-0.499964 -12.3999 -12.3999
-0.657441 -12.2981 -12.2981
-0.661928 -12.3941 -12.3941
-0.828865 -12.4846 -12.4846
-0.838746 -12.6778 -12.6778
-0.512248 -12.6894 -12.6894
-0.504042 -12.4961 -12.4961
-0.8338 -12.5811 -12.5811
-0.675472 -12.6835 -12.6835
-0.508137 -12.5926 -12.5926
-0.666429 -12.4903 -12.4903
-0.670944 -12.5868 -12.5868
-0.838746 -12.6778 -12.6778
-0.848672 -12.8719 -12.8719
-0.520519 -12.8836 -12.8836
-0.512248 -12.6894 -12.6894
-0.843704 -12.7747 -12.7747
-0.684571 -12.8777 -12.8777
-0.516375 -12.7864 -12.7864
-0.675472 -12.6835 -12.6835
-0.680015 -12.7804 -12.7804
-0.848672 -12.8719 -12.8719
-0.858642 -13.067 -13.067
-0.528854 -13.0789 -13.0789
-0.520519 -12.8836 -12.8836
-0.853652 -12.9693 -12.9693
-0.693724 -13.0728 -13.0728
-0.524679 -12.9811 -12.9811
-0.684571 -12.8777 -12.8777
-0.68914 -12.9751 -12.9751
-0.858642 -13.067 -13.067
-0.868656 -13.263 -13.263
-0.537254 -13.2751 -13.2751
-0.528854 -13.0789 -13.0789
-0.863644 -13.1649 -13.1649
-0.70293 -13.2689 -13.2689
-0.533046 -13.1768 -13.1768
-0.693724 -13.0728 -13.0728
-0.69832 -13.1708 -13.1708
-0.868656 -13.263 -13.263
-0.878713 -13.46 -13.46
-0.545717 -13.4722 -13.4722
-0.537254 -13.2751 -13.2751
-0.873679 -13.3614 -13.3614
-0.712191 -13.466 -13.466
-0.541478 -13.3735 -13.3735
-0.70293 -13.2689 -13.2689
-0.707554 -13.3674 -13.3674
-0.878713 -13.46 -13.46
-0.888813 -13.658 -13.658
-0.554243 -13.6703 -13.6703
-0.545717 -13.4722 -13.4722
-0.883758 -13.5589 -13.5589
-0.721504 -13.664 -13.664
-0.549972 -13.5711 -13.5711
-0.712191 -13.466 -13.466
-0.716841 -13.5649 -13.5649
-0.888813 -13.658 -13.658
-0.898954 -13.8568 -13.8568
-0.562832 -13.8693 -13.8693
-0.554243 -13.6703 -13.6703
-0.893878 -13.7573 -13.7573
-0.730869 -13.863 -13.863
-0.55853 -13.7697 -13.7697
-0.721504 -13.664 -13.664
-0.72618 -13.7634 -13.7634
-0.898954 -13.8568 -13.8568
-0.909137 -14.0566 -14.0566
-0.571482 -14.0692 -14.0692
-0.562832 -13.8693 -13.8693
-0.904041 -13.9566 -13.9566
-0.740285 -14.0628 -14.0628
-0.567149 -13.9691 -13.9691
-0.730869 -13.863 -13.863
-0.735571 -13.9628 -13.9628
-0.909137 -14.0566 -14.0566
-0.919361 -14.2573 -14.2573
-0.580193 -14.27 -14.27
-0.571482 -14.0692 -14.0692
-0.914244 -14.1569 -14.1569
-0.749753 -14.2636 -14.2636
-0.57583 -14.1695 -14.1695
-0.740285 -14.0628 -14.0628
-0.745013 -14.1631 -14.1631
-0.919361 -14.2573 -14.2573
-0.929625 -14.4589 -14.4589
-0.588965 -14.4717 -14.4717
-0.580193 -14.27 -14.27
-0.924488 -14.358 -14.358
-0.759271 -14.4652 -14.4652
-0.584572 -14.3708 -14.3708
-0.749753 -14.2636 -14.2636
-0.754505 -14.3643 -14.3643
-0.929625 -14.4589 -14.4589
-0.939928 -14.6614 -14.6614
-0.597797 -14.6743 -14.6743
-0.588965 -14.4717 -14.4717
-0.934771 -14.56 -14.56
-0.768838 -14.6677 -14.6677
-0.593373 -14.5729 -14.5729
-0.759271 -14.4652 -14.4652
-0.764048 -14.5664 -14.5664
-0.939928 -14.6614 -14.6614
-0.95027 -14.8647 -14.8647
-0.606687 -14.8778 -14.8778
-0.597797 -14.6743 -14.6743
-0.945094 -14.7629 -14.7629
-0.778455 -14.8711 -14.8711
-0.602235 -14.7759 -14.7759
-0.768838 -14.6677 -14.6677
-0.77364 -14.7693 -14.7693
-0.95027 -14.8647 -14.8647
-0.96065 -15.0689 -15.0689
-0.615637 -15.0821 -15.0821
-0.606687 -14.8778 -14.8778
-0.955455 -14.9667 -14.9667
-0.788119 -15.0754 -15.0754
-0.611155 -14.9798 -14.9798
-0.778455 -14.8711 -14.8711
-0.783281 -14.9732 -14.9732
-0.96065 -15.0689 -15.0689
-0.971067 -15.2739 -15.2739
-0.624644 -15.2872 -15.2872
-0.615637 -15.0821 -15.0821
-0.965854 -15.1713 -15.1713
-0.797832 -15.2805 -15.2805
-0.620133 -15.1846 -15.1846
-0.788119 -15.0754 -15.0754
-0.79297 -15.1778 -15.1778
-0.971067 -15.2739 -15.2739
-0.981522 -15.4798 -15.4798
-0.633708 -15.4932 -15.4932
-0.624644 -15.2872 -15.2872
-0.97629 -15.3767 -15.3767
-0.807591 -15.4864 -15.4864
-0.629169 -15.3901 -15.3901
-0.797832 -15.2805 -15.2805
-0.802706 -15.3833 -15.3833
-0.981522 -15.4798 -15.4798
-0.992012 -15.6865 -15.6865
-0.642829 -15.7 -15.7
-0.633708 -15.4932 -15.4932
-0.986763 -15.583 -15.583
-0.817397 -15.6931 -15.6931
-0.638261 -15.5965 -15.5965
-0.807591 -15.4864 -15.4864
-0.812488 -15.5897 -15.5897
-0.992012 -15.6865 -15.6865
-1.00254 -15.8939 -15.8939
-0.652005 -15.9076 -15.9076
-0.642829 -15.7 -15.7
-0.997271 -15.7901 -15.7901
-0.827248 -15.9007 -15.9007
-0.64741 -15.8037 -15.8037
-0.817397 -15.6931 -15.6931
-0.822316 -15.7968 -15.7968
-1.00254 -15.8939 -15.8939
-1.0131 -16.1022 -16.1022
-0.661236 -16.116 -16.116
-0.652005 -15.9076 -15.9076
-1.00781 -15.998 -15.998
-0.837143 -16.109 -16.109
-0.656614 -16.0117 -16.0117
-0.827248 -15.9007 -15.9007
-0.83219 -16.0048 -16.0048
-1.0131 -16.1022 -16.1022
-1.02369 -16.3113 -16.3113
-0.670521 -16.3252 -16.3252
-0.661236 -16.116 -16.116
-1.01839 -16.2067 -16.2067
-0.847083 -16.3182 -16.3182
-0.665872 -16.2205 -16.2205
-0.837143 -16.109 -16.109
-0.842108 -16.2135 -16.2135
-1.02369 -16.3113 -16.3113
-1.03432 -16.5211 -16.5211
-0.67986 -16.5352 -16.5352
-0.670521 -16.3252 -16.3252
-1.029 -16.4161 -16.4161
-0.857066 -16.5281 -16.5281
-0.675184 -16.4301 -16.4301
-0.847083 -16.3182 -16.3182
-0.85207 -16.423 -16.423
-1.03432 -16.5211 -16.5211
-1.04498 -16.7317 -16.7317
-0.689252 -16.7459 -16.7459
-0.67986 -16.5352 -16.5352
-1.03965 -16.6263 -16.6263
-0.867092 -16.7387 -16.7387
-0.68455 -16.6404 -16.6404
-0.857066 -16.5281 -16.5281
-0.862074 -16.6333 -16.6333
-1.04498 -16.7317 -16.7317
-1.05567 -16.9431 -16.9431
-0.698695 -16.9573 -16.9573
-0.689252 -16.7459 -16.7459
-1.05032 -16.8373 -16.8373
-0.877159 -16.9501 -16.9501
-0.693967 -16.8515 -16.8515
-0.867092 -16.7387 -16.7387
-0.872121 -16.8443 -16.8443
-1.05567 -16.9431 -16.9431
-1.06639 -17.1551 -17.1551
-0.70819 -17.1695 -17.1695
-0.698695 -16.9573 -16.9573
-1.06103 -17.049 -17.049
-0.887268 -17.1623 -17.1623
-0.703436 -17.0633 -17.0633
-0.877159 -16.9501 -16.9501
-0.882209 -17.0561 -17.0561
-1.06639 -17.1551 -17.1551
-1.07714 -17.3679 -17.3679
-0.717735 -17.3824 -17.3824
-0.70819 -17.1695 -17.1695
-1.07176 -17.2615 -17.2615
-0.897416 -17.3751 -17.3751
-0.712956 -17.2759 -17.2759
-0.887268 -17.1623 -17.1623
-0.892337 -17.2686 -17.2686
-1.07714 -17.3679 -17.3679
-1.08793 -17.5815 -17.5815
-0.727329 -17.5961 -17.5961
-0.717735 -17.3824 -17.3824
-1.08253 -17.4746 -17.4746
-0.907604 -17.5887 -17.5887
-0.722526 -17.4892 -17.4892
-0.897416 -17.3751 -17.3751
-0.902505 -17.4818 -17.4818
-1.08793 -17.5815 -17.5815
-1.09873 -17.7957 -17.7957
-0.736973 -17.8104 -17.8104
-0.727329 -17.5961 -17.5961
-1.09333 -17.6885 -17.6885
-0.917831 -17.803 -17.803
-0.732145 -17.7031 -17.7031
-0.907604 -17.5887 -17.5887
-0.912713 -17.6957 -17.6957
-1.09873 -17.7957 -17.7957
-1.10957 -18.0106 -18.0106
-0.746664 -18.0254 -18.0254
-0.736973 -17.8104 -17.8104
-1.10415 -17.903 -17.903
-0.928095 -18.0179 -18.0179
-0.741812 -17.9178 -17.9178
-0.917831 -17.803 -17.803
-0.922958 -17.9103 -17.9103
-1.10957 -18.0106 -18.0106
-1.12044 -18.2261 -18.2261
-0.756402 -18.2411 -18.2411
-0.746664 -18.0254 -18.0254
-1.115 -18.1183 -18.1183
-0.938396 -18.2335 -18.2335
-0.751527 -18.1331 -18.1331
-0.928095 -18.0179 -18.0179
-0.933241 -18.1256 -18.1256
-1.12044 -18.2261 -18.2261
-1.13132 -18.4424 -18.4424
-0.766186 -18.4574 -18.4574
-0.756402 -18.2411 -18.2411
-1.12588 -18.3342 -18.3342
-0.948733 -18.4498 -18.4498
-0.761288 -18.3492 -18.3492
-0.938396 -18.2335 -18.2335
-0.94356 -18.3416 -18.3416
-1.13132 -18.4424 -18.4424
-1.14224 -18.6593 -18.6593
-0.776016 -18.6744 -18.6744
-0.766186 -18.4574 -18.4574
-1.13678 -18.5507 -18.5507
-0.959105 -18.6668 -18.6668
-0.771095 -18.5658 -18.5658
-0.948733 -18.4498 -18.4498
-0.953914 -18.5582 -18.5582
-1.14224 -18.6593 -18.6593
-1.15318 -18.8768 -18.8768
-0.78589 -18.892 -18.892
-0.776016 -18.6744 -18.6744
-1.14771 -18.768 -18.768
-0.969511 -18.8843 -18.8843
-0.780947 -18.7831 -18.7831
-0.959105 -18.6668 -18.6668
-0.964304 -18.7755 -18.7755
-1.15318 -18.8768 -18.8768
-1.16414 -19.095 -19.095
-0.795808 -19.1103 -19.1103
-0.78589 -18.892 -18.892
-1.15866 -18.9858 -18.9858
-0.979951 -19.1026 -19.1026
-0.790843 -19.0011 -19.0011
-0.969511 -18.8843 -18.8843
-0.974727 -18.9934 -18.9934
-1.16414 -19.095 -19.095
-1.17512 -19.3137 -19.3137
-0.805768 -19.3292 -19.3292
-0.795808 -19.1103 -19.1103
-1.16963 -19.2043 -19.2043
-0.990424 -19.3214 -19.3214
-0.800782 -19.2196 -19.2196
-0.979951 -19.1026 -19.1026
-0.985184 -19.2119 -19.2119
-1.17512 -19.3137 -19.3137
-1.18613 -19.5331 -19.5331
-0.81577 -19.5486 -19.5486
-0.805768 -19.3292 -19.3292
-1.18062 -19.4233 -19.4233
-1.00093 -19.5408 -19.5408
-0.810764 -19.4388 -19.4388
-0.990424 -19.3214 -19.3214
-0.995672 -19.431 -19.431
-1.18613 -19.5331 -19.5331
-1.19716 -19.7531 -19.7531
-0.825813 -19.7687 -19.7687
-0.81577 -19.5486 -19.5486
-1.19164 -19.643 -19.643
-1.01146 -19.7608 -19.7608
-0.820787 -19.6586 -19.6586
-1.00093 -19.5408 -19.5408
-1.00619 -19.6507 -19.6507
-1.19716 -19.7531 -19.7531
-1.2082 -19.9736 -19.9736
-0.835897 -19.9893 -19.9893
-0.825813 -19.7687 -19.7687
-1.20268 -19.8633 -19.8633
-1.02203 -19.9814 -19.9814
-0.83085 -19.8789 -19.8789
-1.01146 -19.7608 -19.7608
-1.01674 -19.871 -19.871
-1.2082 -19.9736 -19.9736
-1.21927 -20.1947 -20.1947
-0.846019 -20.2105 -20.2105
-0.835897 -19.9893 -19.9893
-1.21373 -20.0841 -20.0841
-1.03262 -20.2026 -20.2026
-0.840953 -20.0999 -20.0999
-1.02203 -19.9814 -19.9814
-1.02732 -20.0919 -20.0919
-1.21927 -20.1947 -20.1947
-1.23035 -20.4164 -20.4164
-0.856179 -20.4323 -20.4323
-0.846019 -20.2105 -20.2105
-1.22481 -20.3055 -20.3055
-1.04324 -20.4243 -20.4243
-0.851094 -20.3213 -20.3213
-1.03262 -20.2026 -20.2026
-1.03793 -20.3134 -20.3134
-1.23035 -20.4164 -20.4164
-1.24145 -20.6386 -20.6386
-0.866377 -20.6546 -20.6546
-0.856179 -20.4323 -20.4323
-1.2359 -20.5274 -20.5274
-1.05389 -20.6465 -20.6465
-0.861273 -20.5434 -20.5434
-1.04324 -20.4243 -20.4243
-1.04856 -20.5353 -20.5353
-1.24145 -20.6386 -20.6386
-1.25257 -20.8613 -20.8613
-0.876611 -20.8774 -20.8774
-0.866377 -20.6546 -20.6546
-1.24701 -20.7499 -20.7499
-1.06457 -20.8693 -20.8693
-0.871489 -20.7659 -20.7659
-1.05389 -20.6465 -20.6465
-1.05923 -20.7579 -20.7579
-1.25257 -20.8613 -20.8613
-1.2637 -21.0846 -21.0846
-0.88688 -21.1008 -21.1008
-0.876611 -20.8774 -20.8774
-1.25813 -20.9729 -20.9729
-1.07527 -21.0926 -21.0926
-0.881741 -20.989 -20.989
-1.06457 -20.8693 -20.8693
-1.06991 -20.9809 -20.9809
-1.2637 -21.0846 -21.0846
-1.27484 -21.3083 -21.3083
-0.897184 -21.3246 -21.3246
-0.88688 -21.1008 -21.1008
-1.26927 -21.1964 -21.1964
-1.08599 -21.3164 -21.3164
-0.892028 -21.2126 -21.2126
-1.07527 -21.0926 -21.0926
-1.08063 -21.2045 -21.2045
-1.27484 -21.3083 -21.3083
-1.286 -21.5326 -21.5326
-0.907521 -21.5489 -21.5489
-0.897184 -21.3246 -21.3246
-1.28042 -21.4204 -21.4204
-1.09674 -21.5407 -21.5407
-0.902348 -21.4367 -21.4367
-1.08599 -21.3164 -21.3164
-1.09136 -21.4285 -21.4285
-1.286 -21.5326 -21.5326
-1.29717 -21.7574 -21.7574
-0.917891 -21.7738 -21.7738
-0.907521 -21.5489 -21.5489
-1.29158 -21.6449 -21.6449
-1.10751 -21.7655 -21.7655
-0.912702 -21.6613 -21.6613
-1.09674 -21.5407 -21.5407
-1.10212 -21.6531 -21.6531
-1.29717 -21.7574 -21.7574
-1.30835 -21.9826 -21.9826
-0.928292 -21.9991 -21.9991
-0.917891 -21.7738 -21.7738
-1.30276 -21.8699 -21.8699
-1.1183 -21.9908 -21.9908
-0.923087 -21.8864 -21.8864
-1.10751 -21.7655 -21.7655
-1.1129 -21.8781 -21.8781
-1.30835 -21.9826 -21.9826
-1.31954 -22.2082 -22.2082
-0.938723 -22.2248 -22.2248
-0.928292 -21.9991 -21.9991
-1.31394 -22.0953 -22.0953
-1.12911 -22.2165 -22.2165
-0.933504 -22.1119 -22.1119
-1.1183 -21.9908 -21.9908
-1.1237 -22.1036 -22.1036
-1.31954 -22.2082 -22.2082
-1.33074 -22.4344 -22.4344
-0.949184 -22.451 -22.451
-0.938723 -22.2248 -22.2248
-1.32514 -22.3212 -22.3212
-1.13994 -22.4426 -22.4426
-0.94395 -22.3379 -22.3379
-1.12911 -22.2165 -22.2165
-1.13452 -22.3295 -22.3295
-1.33074 -22.4344 -22.4344
-1.34195 -22.6609 -22.6609
-0.959674 -22.6776 -22.6776
-0.949184 -22.451 -22.451
-1.33635 -22.5476 -22.5476
-1.15079 -22.6692 -22.6692
-0.954426 -22.5643 -22.5643
-1.13994 -22.4426 -22.4426
-1.14536 -22.5559 -22.5559
-1.34195 -22.6609 -22.6609
-1.35317 -22.8879 -22.8879
-0.970191 -22.9047 -22.9047
-0.959674 -22.6776 -22.6776
-1.34756 -22.7744 -22.7744
-1.16166 -22.8963 -22.8963
-0.964929 -22.7911 -22.7911
-1.15079 -22.6692 -22.6692
-1.15622 -22.7827 -22.7827
-1.35317 -22.8879 -22.8879
-1.36439 -23.1153 -23.1153
-0.980735 -23.1322 -23.1322
-0.970191 -22.9047 -22.9047
-1.35878 -23.0015 -23.0015
-1.17254 -23.1237 -23.1237
-0.97546 -23.0184 -23.0184
-1.16166 -22.8963 -22.8963
-1.1671 -23.0099 -23.0099
-1.36439 -23.1153 -23.1153
-1.37562 -23.3431 -23.3431
-0.991304 -23.36 -23.36
-0.980735 -23.1322 -23.1322
-1.37 -23.2291 -23.2291
-1.18344 -23.3515 -23.3515
-0.986016 -23.246 -23.246
-1.17254 -23.1237 -23.1237
-1.17799 -23.2375 -23.2375
-1.37562 -23.3431 -23.3431
-1.38685 -23.5712 -23.5712
-1.0019 -23.5883 -23.5883
-0.991304 -23.36 -23.36
-1.38123 -23.4571 -23.4571
-1.19435 -23.5797 -23.5797
-0.996598 -23.4741 -23.4741
-1.18344 -23.3515 -23.3515
-1.18889 -23.4656 -23.4656
-1.38685 -23.5712 -23.5712
-1.39808 -23.7998 -23.7998
-1.01251 -23.8169 -23.8169
-1.0019 -23.5883 -23.5883
-1.39247 -23.6855 -23.6855
-1.20528 -23.8083 -23.8083
-1.0072 -23.7025 -23.7025
-1.19435 -23.5797 -23.5797
-1.19981 -23.694 -23.694
-1.39808 -23.7998 -23.7998
-1.40932 -24.0287 -24.0287
-1.02315 -24.0459 -24.0459
-1.01251 -23.8169 -23.8169
-1.4037 -23.9142 -23.9142
-1.21622 -24.0372 -24.0372
-1.01783 -23.9313 -23.9313
-1.20528 -23.8083 -23.8083
-1.21075 -23.9227 -23.9227
-1.40932 -24.0287 -24.0287
-1.42056 -24.258 -24.258
-1.03381 -24.2752 -24.2752
-1.02315 -24.0459 -24.0459
-1.41494 -24.1433 -24.1433
-1.22717 -24.2665 -24.2665
-1.02848 -24.1605 -24.1605
-1.21622 -24.0372 -24.0372
-1.22169 -24.1519 -24.1519
-1.42056 -24.258 -24.258
-1.4318 -24.4876 -24.4876
-1.0445 -24.5048 -24.5048
-1.03381 -24.2752 -24.2752
-1.42618 -24.3727 -24.3727
-1.23813 -24.4962 -24.4962
-1.03915 -24.39 -24.39
-1.22717 -24.2665 -24.2665
-1.23264 -24.3813 -24.3813
-1.4318 -24.4876 -24.4876
-1.44303 -24.7175 -24.7175
-1.0552 -24.7348 -24.7348
-1.0445 -24.5048 -24.5048
-1.43741 -24.6025 -24.6025
-1.24909 -24.7261 -24.7261
-1.04984 -24.6198 -24.6198
-1.23813 -24.4962 -24.4962
-1.24361 -24.6111 -24.6111
-1.44303 -24.7175 -24.7175
-1.45427 -24.9478 -24.9478
-1.06591 -24.9651 -24.9651
-1.0552 -24.7348 -24.7348
-1.44865 -24.8326 -24.8326
-1.26007 -24.9564 -24.9564
-1.06055 -24.8499 -24.8499
-1.24909 -24.7261 -24.7261
-1.25458 -24.8412 -24.8412
-1.45427 -24.9478 -24.9478
-1.4655 -25.1783 -25.1783
-1.07665 -25.1957 -25.1957
-1.06591 -24.9651 -24.9651
-1.45988 -25.063 -25.063
-1.27106 -25.187 -25.187
-1.07128 -25.0804 -25.0804
-1.26007 -24.9564 -24.9564
-1.26556 -25.0717 -25.0717
-1.4655 -25.1783 -25.1783
-1.47673 -25.4091 -25.4091
-1.0874 -25.4266 -25.4266
-1.07665 -25.1957 -25.1957
-1.47111 -25.2937 -25.2937
-1.28205 -25.4179 -25.4179
-1.08202 -25.3111 -25.3111
-1.27106 -25.187 -25.187
-1.27655 -25.3024 -25.3024
-1.47673 -25.4091 -25.4091
-1.48795 -25.6403 -25.6403
-1.09817 -25.6578 -25.6578
-1.0874 -25.4266 -25.4266
-1.48234 -25.5247 -25.5247
-1.29304 -25.649 -25.649
-1.09278 -25.5422 -25.5422
-1.28205 -25.4179 -25.4179
-1.28754 -25.5334 -25.5334
-1.48795 -25.6403 -25.6403
-1.49917 -25.8716 -25.8716
-1.10895 -25.8892 -25.8892
-1.09817 -25.6578 -25.6578
-1.49356 -25.7559 -25.7559
-1.30404 -25.8804 -25.8804
-1.10356 -25.7735 -25.7735
-1.29304 -25.649 -25.649
-1.29854 -25.7647 -25.7647
-1.49917 -25.8716 -25.8716
-1.51037 -26.1033 -26.1033
-1.11974 -26.1209 -26.1209
-1.10895 -25.8892 -25.8892
-1.50477 -25.9874 -25.9874
-1.31504 -26.1121 -26.1121
-1.11435 -26.005 -26.005
-1.30404 -25.8804 -25.8804
-1.30954 -25.9962 -25.9962
-1.51037 -26.1033 -26.1033
-1.52157 -26.3352 -26.3352
-1.13055 -26.3529 -26.3529
-1.11974 -26.1209 -26.1209
-1.51597 -26.2192 -26.2192
-1.32604 -26.344 -26.344
-1.12515 -26.2369 -26.2369
-1.31504 -26.1121 -26.1121
-1.32054 -26.228 -26.228
-1.52157 -26.3352 -26.3352
-1.53276 -26.5673 -26.5673
-1.14137 -26.585 -26.585
-1.13055 -26.3529 -26.3529
-1.52717 -26.4512 -26.4512
-1.33705 -26.5761 -26.5761
-1.13596 -26.4689 -26.4689
-1.32604 -26.344 -26.344
-1.33155 -26.46 -26.46
-1.53276 -26.5673 -26.5673
-1.54394 -26.7996 -26.7996
-1.15219 -26.8174 -26.8174
-1.14137 -26.585 -26.585
-1.53836 -26.6834 -26.6834
-1.34805 -26.8085 -26.8085
-1.14678 -26.7012 -26.7012
-1.33705 -26.5761 -26.5761
-1.34255 -26.6923 -26.6923
-1.54394 -26.7996 -26.7996
-1.55511 -27.0322 -27.0322
-1.16303 -27.05 -27.05
-1.15219 -26.8174 -26.8174
-1.54953 -26.9159 -26.9159
-1.35905 -27.041 -27.041
-1.15761 -26.9336 -26.9336
-1.34805 -26.8085 -26.8085
-1.35355 -26.9247 -26.9247
-1.55511 -27.0322 -27.0322
-1.56627 -27.2649 -27.2649
-1.17387 -27.2827 -27.2827
-1.16303 -27.05 -27.05
-1.56069 -27.1485 -27.1485
-1.37005 -27.2738 -27.2738
-1.16845 -27.1663 -27.1663
-1.35905 -27.041 -27.041
-1.36455 -27.1574 -27.1574
-1.56627 -27.2649 -27.2649
-1.57741 -27.4978 -27.4978
-1.18472 -27.5157 -27.5157
-1.17387 -27.2827 -27.2827
-1.57184 -27.3813 -27.3813
-1.38105 -27.5067 -27.5067
-1.17929 -27.3992 -27.3992
-1.37005 -27.2738 -27.2738
-1.37555 -27.3902 -27.3902
-1.57741 -27.4978 -27.4978
-1.58854 -27.7309 -27.7309
-1.19557 -27.7488 -27.7488
-1.18472 -27.5157 -27.5157
-1.58298 -27.6143 -27.6143
-1.39204 -27.7398 -27.7398
-1.19015 -27.6322 -27.6322
-1.38105 -27.5067 -27.5067
-1.38654 -27.6233 -27.6233
-1.58854 -27.7309 -27.7309
-1.59965 -27.9641 -27.9641
-1.20643 -27.9821 -27.9821
-1.19557 -27.7488 -27.7488
-1.5941 -27.8475 -27.8475
-1.40302 -27.9731 -27.9731
-1.201 -27.8654 -27.8654
-1.39204 -27.7398 -27.7398
-1.39753 -27.8565 -27.8565
-1.59965 -27.9641 -27.9641
-1.61074 -28.1975 -28.1975
-1.21729 -28.2155 -28.2155
-1.20643 -27.9821 -27.9821
-1.6052 -28.0808 -28.0808
-1.414 -28.2065 -28.2065
-1.21186 -28.0988 -28.0988
-1.40302 -27.9731 -27.9731
-1.40851 -28.0898 -28.0898
-1.61074 -28.1975 -28.1975
-1.62182 -28.4311 -28.4311
-1.22816 -28.4491 -28.4491
-1.21729 -28.2155 -28.2155
-1.61628 -28.3143 -28.3143
-1.42497 -28.4401 -28.4401
-1.22272 -28.3323 -28.3323
-1.414 -28.2065 -28.2065
-1.41949 -28.3233 -28.3233
-1.62182 -28.4311 -28.4311
-1.63287 -28.6647 -28.6647
-1.23902 -28.6828 -28.6828
-1.22816 -28.4491 -28.4491
-1.62735 -28.5479 -28.5479
-1.43593 -28.6737 -28.6737
-1.23359 -28.5659 -28.5659
-1.42497 -28.4401 -28.4401
-1.43045 -28.5569 -28.5569
-1.63287 -28.6647 -28.6647
-1.64391 -28.8985 -28.8985
-1.24988 -28.9166 -28.9166
-1.23902 -28.6828 -28.6828
-1.63839 -28.7816 -28.7816
-1.44688 -28.9075 -28.9075
-1.24445 -28.7996 -28.7996
-1.43593 -28.6737 -28.6737
-1.4414 -28.7906 -28.7906
-1.64391 -28.8985 -28.8985
-1.65491 -29.1323 -29.1323
-1.26075 -29.1504 -29.1504
-1.24988 -28.9166 -28.9166
-1.64941 -29.0154 -29.0154
-1.45781 -29.1414 -29.1414
-1.25532 -29.0335 -29.0335
-1.44688 -28.9075 -28.9075
-1.45235 -29.0244 -29.0244
-1.65491 -29.1323 -29.1323
-1.6659 -29.3663 -29.3663
-1.2716 -29.3844 -29.3844
-1.26075 -29.1504 -29.1504
-1.66041 -29.2493 -29.2493
-1.46873 -29.3754 -29.3754
-1.26618 -29.2674 -29.2674
-1.45781 -29.1414 -29.1414
-1.46327 -29.2584 -29.2584
-1.6659 -29.3663 -29.3663
-1.67685 -29.6003 -29.6003
-1.28246 -29.6185 -29.6185
-1.2716 -29.3844 -29.3844
-1.67138 -29.4833 -29.4833
-1.47963 -29.6094 -29.6094
-1.27703 -29.5014 -29.5014
-1.46873 -29.3754 -29.3754
-1.47418 -29.4924 -29.4924
-1.67685 -29.6003 -29.6003
-1.68777 -29.8344 -29.8344
-1.2933 -29.8526 -29.8526
-1.28246 -29.6185 -29.6185
-1.68231 -29.7174 -29.7174
-1.49051 -29.8435 -29.8435
-1.28788 -29.7355 -29.7355
-1.47963 -29.6094 -29.6094
-1.48507 -29.7264 -29.7264
-1.68777 -29.8344 -29.8344
-1.69865 -30.0686 -30.0686
-1.30413 -30.0868 -30.0868
-1.2933 -29.8526 -29.8526
-1.69321 -29.9515 -29.9515
-1.50136 -30.0777 -30.0777
-1.29872 -29.9697 -29.9697
-1.49051 -29.8435 -29.8435
-1.49594 -29.9606 -29.9606
-1.69865 -30.0686 -30.0686
-1.7095 -30.3028 -30.3028
-1.31496 -30.3209 -30.3209
-1.30413 -30.0868 -30.0868
-1.70408 -30.1857 -30.1857
-1.51221 -30.3118 -30.3118
-1.30955 -30.2038 -30.2038
-1.50136 -30.0777 -30.0777
-1.50679 -30.1948 -30.1948
-1.7095 -30.3028 -30.3028
-1.72035 -30.537 -30.537
-1.32579 -30.555 -30.555
-1.31496 -30.3209 -30.3209
-1.71492 -30.4199 -30.4199
-1.52304 -30.546 -30.546
-1.32038 -30.438 -30.438
-1.51221 -30.3118 -30.3118
-1.51762 -30.4289 -30.4289
-1.72035 -30.537 -30.537
-1.73121 -30.7711 -30.7711
-1.33661 -30.789 -30.789
-1.32579 -30.555 -30.555
-1.72578 -30.654 -30.654
-1.53388 -30.78 -30.78
-1.3312 -30.672 -30.672
-1.52304 -30.546 -30.546
-1.52846 -30.663 -30.663
0 0 0
-0.00178544 0.000289951 0.000289951
0.00171283 0.000275116 0.000275116
0 0 0
-0.000889316 0.000575214 0.000575214
-3.64744e-05 0.000386629 0.000386629
0.000851953 0.000566887 0.000566887
0 0 0
-1.88561e-05 0.000615231 0.000615231
-0.00178544 0.000289951 0.000289951
-0.00371427 -0.00267878 -0.00267878
0.00357192 -0.00270696 -0.00270696
0.00171283 0.000275116 0.000275116
-0.0027321 -0.000813037 -0.000813037
-7.1255e-05 -0.00252143 -0.00252143
0.00262482 -0.000834354 -0.000834354
-3.64744e-05 0.000386629 0.000386629
-5.37886e-05 -0.000679311 -0.000679311
-0.00371427 -0.00267878 -0.00267878
-0.0057134 -0.00850482 -0.00850482
0.00549654 -0.00854819 -0.00854819
0.00357192 -0.00270696 -0.00270696
-0.00470811 -0.00525404 -0.00525404
-0.000108118 -0.00830501 -0.00830501
0.00452947 -0.00528955 -0.00528955
-7.1255e-05 -0.00252143 -0.00252143
-8.92261e-05 -0.00507367 -0.00507367
-0.0057134 -0.00850482 -0.00850482
-0.00776006 -0.0169275 -0.0169275
0.00745853 -0.0169884 -0.0169884
0.00549654 -0.00854819 -0.00854819
-0.00673319 -0.0124033 -0.0124033
-0.000150125 -0.0167128 -0.0167128
0.00647555 -0.0124552 -0.0124552
-0.000108118 -0.00830501 -0.00830501
-0.000128328 -0.0121928 -0.0121928
-0.00776006 -0.0169275 -0.0169275
-0.00981075 -0.0277858 -0.0277858
0.00940983 -0.0278667 -0.0278667
0.00745853 -0.0169884 -0.0169884
-0.00878597 -0.0220586 -0.0220586
-0.000199533 -0.0275718 -0.0275718
0.00843688 -0.0221292 -0.0221292
-0.000150125 -0.0167128 -0.0167128
-0.000173759 -0.0218429 -0.0218429
-0.00981075 -0.0277858 -0.0277858
-0.011859 -0.0409975 -0.0409975
0.0113392 -0.0411009 -0.0411009
0.00940983 -0.0278667 -0.0278667
-0.0108356 -0.0341007 -0.0341007
-0.00025872 -0.0407948 -0.0407948
0.0103779 -0.0341926 -0.0341926
-0.000199533 -0.0275718 -0.0275718
-0.000227758 -0.0338915 -0.0338915
-0.011859 -0.0409975 -0.0409975
-0.0138981 -0.0565195 -0.0565195
0.0132352 -0.0566476 -0.0566476
0.0113392 -0.0411009 -0.0411009
-0.0128795 -0.0484713 -0.0484713
-0.000330001 -0.0563318 -0.0563318
0.0122915 -0.0485868 -0.0485868
-0.00025872 -0.0407948 -0.0407948
-0.000292703 -0.0482759 -0.0482759
-0.0138981 -0.0565195 -0.0565195
-0.0159333 -0.0743303 -0.0743303
0.0150985 -0.0744857 -0.0744857
0.0132352 -0.0566476 -0.0566476
-0.0149159 -0.0651397 -0.0651397
-0.000415702 -0.0741595 -0.0741595
0.014171 -0.0652812 -0.0652812
-0.000330001 -0.0563318 -0.0563318
-0.000370909 -0.0649603 -0.0649603
-0.0159333 -0.0743303 -0.0743303
-0.017968 -0.0944162 -0.0944162
0.0169281 -0.0946015 -0.0946015
0.0150985 -0.0744857 -0.0744857
-0.0169504 -0.0840896 -0.0840896
-0.000518015 -0.0942632 -0.0942632
0.0160175 -0.0842596 -0.0842596
-0.000415702 -0.0741595 -0.0741595
-0.000464649 -0.0839276 -0.0839276
-0.017968 -0.0944162 -0.0944162
-0.0200072 -0.116766 -0.116766
0.0187247 -0.116984 -0.116984
0.0169281 -0.0946015 -0.0946015
-0.0189868 -0.105309 -0.105309
-0.000639034 -0.116632 -0.116632
0.0178305 -0.10551 -0.10551
-0.000518015 -0.0942632 -0.0942632
-0.000576061 -0.105165 -0.105165
-0.0200072 -0.116766 -0.116766
-0.0220543 -0.14137 -0.14137
0.0204879 -0.141624 -0.141624
0.0187247 -0.116984 -0.116984
-0.0210296 -0.128787 -0.128787
-0.000780741 -0.141256 -0.141256
0.0196105 -0.129023 -0.129023
-0.000639034 -0.116632 -0.116632
-0.000707181 -0.128663 -0.128663
-0.0220543 -0.14137 -0.14137
-0.0241123 -0.168218 -0.168218
0.0222168 -0.16851 -0.16851
0.0204879 -0.141624 -0.141624
-0.0230817 -0.154514 -0.154514
-0.000945039 -0.168125 -0.168125
0.0213567 -0.154787 -0.154787
-0.000780741 -0.141256 -0.141256
-0.00085995 -0.15441 -0.15441
-0.0241123 -0.168218 -0.168218
-0.0261838 -0.197297 -0.197297
0.0239104 -0.197631 -0.197631
0.0222168 -0.16851 -0.16851
-0.0251462 -0.182479 -0.182479
-0.00113377 -0.197226 -0.197226
0.0230681 -0.182792 -0.182792
-0.000945039 -0.168125 -0.168125
-0.00103624 -0.182397 -0.182397
-0.0261838 -0.197297 -0.197297
-0.0282709 -0.228597 -0.228597
0.0255671 -0.228976 -0.228976
0.0239104 -0.197631 -0.197631
-0.0272253 -0.21267 -0.21267
-0.00134873 -0.22855 -0.22855
0.0247434 -0.213027 -0.213027
-0.00113377 -0.197226 -0.197226
-0.00123786 -0.212611 -0.212611
-0.0282709 -0.228597 -0.228597
-0.0303755 -0.262106 -0.262106
0.0271855 -0.262533 -0.262533
0.0255671 -0.228976 -0.228976
-0.0293209 -0.245076 -0.245076
-0.00159167 -0.262084 -0.262084
0.0263812 -0.245479 -0.245479
-0.00134873 -0.22855 -0.22855
-0.00146659 -0.245042 -0.245042
-0.0303755 -0.262106 -0.262106
-0.0324996 -0.297812 -0.297812
0.0287638 -0.29829 -0.29829
0.0271855 -0.262533 -0.262533
-0.031435 -0.279685 -0.279685
-0.00186433 -0.297817 -0.297817
0.0279797 -0.280137 -0.280137
-0.00159167 -0.262084 -0.262084
-0.00172418 -0.279677 -0.279677
-0.0324996 -0.297812 -0.297812
-0.0346447 -0.335703 -0.335703
0.0303004 -0.336234 -0.336234
0.0287638 -0.29829 -0.29829
-0.0335694 -0.316485 -0.316485
-0.00216841 -0.335736 -0.335736
0.0295374 -0.316989 -0.316989
-0.00186433 -0.297817 -0.297817
-0.00201234 -0.316504 -0.316504
-0.0346447 -0.335703 -0.335703
-0.0368127 -0.375766 -0.375766
0.0317937 -0.376355 -0.376355
0.0303004 -0.336234 -0.336234
-0.0357258 -0.355464 -0.355464
-0.00250558 -0.375829 -0.375829
0.0310526 -0.356023 -0.356023
-0.00216841 -0.335736 -0.335736
-0.00233275 -0.355512 -0.355512
-0.0368127 -0.375766 -0.375766
-0.0390052 -0.417991 -0.417991
0.033242 -0.418638 -0.418638
0.0317937 -0.376355 -0.376355
-0.0379058 -0.396609 -0.396609
-0.00287748 -0.418085 -0.418085
0.0325236 -0.397227 -0.397227
-0.00250558 -0.375829 -0.375829
-0.00268708 -0.396687 -0.396687
-0.0390052 -0.417991 -0.417991
-0.0412238 -0.462364 -0.462364
0.0346438 -0.463074 -0.463074
0.033242 -0.418638 -0.418638
-0.0401112 -0.43991 -0.43991
-0.00328575 -0.46249 -0.46249
0.0339488 -0.440588 -0.440588
-0.00287748 -0.418085 -0.418085
-0.00307697 -0.44002 -0.44002
-0.0412238 -0.462364 -0.462364
-0.0434701 -0.508874 -0.508874
0.0359973 -0.509648 -0.509648
0.0346438 -0.463074 -0.463074
-0.0423434 -0.485353 -0.485353
-0.00373196 -0.509034 -0.509034
0.0353266 -0.486094 -0.486094
-0.00328575 -0.46249 -0.46249
-0.00350401 -0.485496 -0.485496
-0.0434701 -0.508874 -0.508874
-0.0457457 -0.557508 -0.557508
0.037301 -0.55835 -0.55835
0.0359973 -0.509648 -0.509648
-0.0446041 -0.532926 -0.532926
-0.0042177 -0.557703 -0.557703
0.0366555 -0.533734 -0.533734
-0.00373196 -0.509034 -0.509034
-0.0039698 -0.533103 -0.533103
-0.0457457 -0.557508 -0.557508
-0.048052 -0.608255 -0.608255
0.0385535 -0.609167 -0.609167
0.037301 -0.55835 -0.55835
-0.0468949 -0.582618 -0.582618
-0.0047445 -0.608486 -0.608486
0.0379338 -0.583495 -0.583495
-0.0042177 -0.557703 -0.557703
-0.00447588 -0.582831 -0.582831
-0.048052 -0.608255 -0.608255
-0.0503907 -0.661101 -0.661101
0.0397531 -0.662086 -0.662086
0.0385535 -0.609167 -0.609167
-0.0492172 -0.634416 -0.634416
-0.00531386 -0.66137 -0.66137
0.03916 -0.635364 -0.635364
-0.0047445 -0.608486 -0.608486
-0.00502377 -0.634666 -0.634666
-0.0503907 -0.661101 -0.661101
-0.0527632 -0.716036 -0.716036
0.0408985 -0.717096 -0.717096
0.0397531 -0.662086 -0.662086
-0.0515726 -0.688309 -0.688309
-0.00592727 -0.716344 -0.716344
0.0403327 -0.689331 -0.689331
-0.00531386 -0.66137 -0.66137
-0.00561497 -0.688597 -0.688597
-0.0527632 -0.716036 -0.716036
-0.0551709 -0.773047 -0.773047
0.0419881 -0.774185 -0.774185
0.0408985 -0.717096 -0.717096
-0.0539625 -0.744283 -0.744283
-0.00658617 -0.773395 -0.773395
0.0414503 -0.745382 -0.745382
-0.00592727 -0.716344 -0.716344
-0.00625094 -0.744611 -0.744611
-0.0551709 -0.773047 -0.773047
-0.0576152 -0.832122 -0.832122
0.0430205 -0.83334 -0.83334
0.0419881 -0.774185 -0.774185
-0.0563884 -0.802327 -0.802327
-0.00729199 -0.832511 -0.832511
0.0425115 -0.803505 -0.803505
-0.00658617 -0.773395 -0.773395
-0.00693313 -0.802696 -0.802696
-0.0576152 -0.832122 -0.832122
-0.0600977 -0.893249 -0.893249
0.0439944 -0.894548 -0.894548
0.0430205 -0.83334 -0.83334
-0.0588516 -0.86243 -0.86243
-0.00804611 -0.89368 -0.89368
0.0435149 -0.863688 -0.863688
-0.00729199 -0.832511 -0.832511
-0.00766292 -0.86284 -0.86284
-0.0600977 -0.893249 -0.893249
-0.0626195 -0.956415 -0.956415
0.0449084 -0.957799 -0.957799
0.0439944 -0.894548 -0.894548
-0.0613536 -0.924578 -0.924578
-0.00884989 -0.95689 -0.95689
0.044459 -0.925919 -0.925919
-0.00804611 -0.89368 -0.89368
-0.00844171 -0.925031 -0.925031
-0.0626195 -0.956415 -0.956415
-0.065182 -1.02161 -1.02161
0.0457611 -1.02308 -1.02308
0.0449084 -0.957799 -0.957799
-0.0638956 -0.988759 -0.988759
-0.00970468 -1.02213 -1.02213
0.0453425 -0.990187 -0.990187
-0.00884989 -0.95689 -0.95689
-0.00927083 -0.989257 -0.989257
-0.065182 -1.02161 -1.02161
-0.0677867 -1.08882 -1.08882
0.0465512 -1.09038 -1.09038
0.0457611 -1.02308 -1.02308
-0.066479 -1.05496 -1.05496
-0.0106118 -1.08938 -1.08938
0.0461641 -1.05648 -1.05648
-0.00970468 -1.02213 -1.02213
-0.0101516 -1.0555 -1.0555
-0.0677867 -1.08882 -1.08882
-0.0704346 -1.15803 -1.15803
0.0472776 -1.15968 -1.15968
0.0465512 -1.09038 -1.09038
-0.0691051 -1.12317 -1.12317
-0.0115724 -1.15864 -1.15864
0.0469225 -1.12478 -1.12478
-0.0106118 -1.08938 -1.08938
-0.0110853 -1.12376 -1.12376
-0.0704346 -1.15803 -1.15803
-0.0731271 -1.22923 -1.22923
0.0479388 -1.23098 -1.23098
0.0472776 -1.15968 -1.15968
-0.0717752 -1.19338 -1.19338
-0.0125879 -1.22989 -1.22989
0.0476164 -1.19508 -1.19508
-0.0115724 -1.15864 -1.15864
-0.0120733 -1.19402 -1.19402
-0.0731271 -1.22923 -1.22923
-0.0758654 -1.30242 -1.30242
0.0485338 -1.30426 -1.30426
0.0479388 -1.23098 -1.23098
-0.0744904 -1.26558 -1.26558
-0.0136595 -1.30313 -1.30313
0.0482447 -1.26737 -1.26737
-0.0125879 -1.22989 -1.22989
-0.0131166 -1.26626 -1.26626
-0.0758654 -1.30242 -1.30242
-0.0786506 -1.37757 -1.37757
0.0490613 -1.3795 -1.3795
0.0485338 -1.30426 -1.30426
-0.077252 -1.33975 -1.33975
-0.0147882 -1.37833 -1.37833
0.0488061 -1.34163 -1.34163
-0.0136595 -1.30313 -1.30313
-0.0142166 -1.34048 -1.34048
-0.0786506 -1.37757 -1.37757
-0.081484 -1.45467 -1.45467
0.0495201 -1.45671 -1.45671
0.0490613 -1.3795 -1.3795
-0.0800612 -1.41588 -1.41588
-0.0159754 -1.45548 -1.45548
0.0492994 -1.41786 -1.41786
-0.0147882 -1.37833 -1.37833
-0.0153744 -1.41666 -1.41666
-0.081484 -1.45467 -1.45467
-0.0843666 -1.53372 -1.53372
0.0499092 -1.53585 -1.53585
0.0495201 -1.45671 -1.45671
-0.0829191 -1.49395 -1.49395
-0.017222 -1.53458 -1.53458
0.0497235 -1.49604 -1.49604
-0.0159754 -1.45548 -1.45548
-0.0165912 -1.49479 -1.49479
-0.0843666 -1.53372 -1.53372
-0.0872996 -1.6147 -1.6147
0.0502274 -1.61693 -1.61693
0.0499092 -1.53585 -1.53585
-0.0858268 -1.57397 -1.57397
-0.0185293 -1.61561 -1.61561
0.0500772 -1.57615 -1.57615
-0.017222 -1.53458 -1.53458
-0.017868 -1.57485 -1.57485
-0.0872996 -1.6147 -1.6147
-0.0902841 -1.69759 -1.69759
0.0504736 -1.69994 -1.69994
0.0502274 -1.61693 -1.61693
-0.0887854 -1.6559 -1.6559
-0.0198983 -1.69856 -1.69856
0.0503596 -1.6582 -1.6582
-0.0185293 -1.61561 -1.61561
-0.019206 -1.65685 -1.65685
-0.0902841 -1.69759 -1.69759
-0.0933211 -1.78239 -1.78239
0.0506469 -1.78484 -1.78484
0.0504736 -1.69994 -1.69994
-0.091796 -1.73976 -1.73976
-0.0213301 -1.78342 -1.78342
0.0505695 -1.74215 -1.74215
-0.0198983 -1.69856 -1.69856
-0.0206063 -1.74075 -1.74075
-0.0933211 -1.78239 -1.78239
-0.0964115 -1.86909 -1.86909
0.0507461 -1.87165 -1.87165
0.0506469 -1.78484 -1.78484
-0.0948595 -1.82551 -1.82551
-0.0228256 -1.87017 -1.87017
0.0507058 -1.82801 -1.82801
-0.0213301 -1.78342 -1.78342
-0.0220698 -1.82656 -1.82656
-0.0964115 -1.86909 -1.86909
-0.0995565 -1.95767 -1.95767
0.0507703 -1.96034 -1.96034
0.0507461 -1.87165 -1.87165
-0.0979771 -1.91315 -1.91315
-0.0243859 -1.9588 -1.9588
0.0507676 -1.91576 -1.91576
-0.0228256 -1.87017 -1.87017
-0.0235976 -1.91425 -1.91425
-0.0995565 -1.95767 -1.95767
-0.102757 -2.04812 -2.04812
0.0507185 -2.0509 -2.0509
0.0507703 -1.96034 -1.96034
-0.10115 -2.00266 -2.00266
-0.0260119 -2.04931 -2.04931
0.0507539 -2.00538 -2.00538
-0.0243859 -1.9588 -1.9588
-0.0251906 -2.00382 -2.00382
-0.102757 -2.04812 -2.04812
-0.106014 -2.14042 -2.14042
0.0505898 -2.14332 -2.14332
0.0507185 -2.0509 -2.0509
-0.104378 -2.09404 -2.09404
-0.0277046 -2.14167 -2.14167
0.0506638 -2.09688 -2.09688
-0.0260119 -2.04931 -2.04931
-0.0268499 -2.09526 -2.09526
-0.106014 -2.14042 -2.14042
-0.109328 -2.23458 -2.23458
0.0503832 -2.23758 -2.23758
0.0505898 -2.14332 -2.14332
-0.107664 -2.18727 -2.18727
-0.0294649 -2.23588 -2.23588
0.0504963 -2.19022 -2.19022
-0.0277046 -2.14167 -2.14167
-0.0285763 -2.18855 -2.18855
-0.109328 -2.23458 -2.23458
-0.112701 -2.33056 -2.33056
0.0500979 -2.33368 -2.33368
0.0503832 -2.23758 -2.23758
-0.111007 -2.28234 -2.28234
-0.0312937 -2.33193 -2.33193
0.0502504 -2.28541 -2.28541
-0.0294649 -2.23588 -2.23588
-0.0303707 -2.28368 -2.28368
-0.112701 -2.33056 -2.33056
-0.116132 -2.42837 -2.42837
0.049733 -2.43161 -2.43161
0.0500979 -2.33368 -2.33368
-0.114409 -2.37924 -2.37924
-0.0331919 -2.4298 -2.4298
0.0499254 -2.38242 -2.38242
-0.0312937 -2.33193 -2.33193
-0.0322341 -2.38064 -2.38064
-0.116132 -2.42837 -2.42837
-0.119624 -2.52799 -2.52799
0.0492876 -2.53134 -2.53134
0.049733 -2.43161 -2.43161
-0.11787 -2.47795 -2.47795
-0.0351602 -2.52947 -2.52947
0.0495204 -2.48125 -2.48125
-0.0331919 -2.4298 -2.4298
-0.0341672 -2.47941 -2.47941
-0.119624 -2.52799 -2.52799
-0.123176 -2.6294 -2.6294
0.0487611 -2.63288 -2.63288
0.0492876 -2.53134 -2.53134
-0.121392 -2.57847 -2.57847
-0.0371995 -2.63095 -2.63095
0.0490346 -2.58189 -2.58189
-0.0351602 -2.52947 -2.52947
-0.0361709 -2.57999 -2.57999
-0.123176 -2.6294 -2.6294
-0.126789 -2.7326 -2.7326
0.0481525 -2.7362 -2.7362
0.0487611 -2.63288 -2.63288
-0.124975 -2.68078 -2.68078
-0.0393105 -2.73421 -2.73421
0.0484671 -2.68432 -2.68432
-0.0371995 -2.63095 -2.63095
-0.038246 -2.68236 -2.68236
-0.126789 -2.7326 -2.7326
-0.130465 -2.83757 -2.83757
0.0474611 -2.84129 -2.84129
0.0481525 -2.7362 -2.7362
-0.12862 -2.78486 -2.78486
-0.0414942 -2.83924 -2.83924
0.0478172 -2.78852 -2.78852
-0.0393105 -2.73421 -2.73421
-0.0403932 -2.7865 -2.7865
-0.130465 -2.83757 -2.83757
-0.134204 -2.9443 -2.9443
0.0466862 -2.94815 -2.94815
0.0474611 -2.84129 -2.84129
-0.132327 -2.89072 -2.89072
-0.043751 -2.94604 -2.94604
0.0470841 -2.8945 -2.8945
-0.0414942 -2.83924 -2.83924
-0.0426134 -2.89242 -2.89242
-0.134204 -2.9443 -2.9443
-0.138007 -3.05278 -3.05278
0.0458271 -3.05676 -3.05676
0.0466862 -2.94815 -2.94815
-0.136098 -2.99832 -2.99832
-0.0460819 -3.05458 -3.05458
0.0462672 -3.00223 -3.00223
-0.043751 -2.94604 -2.94604
-0.0449072 -3.00009 -3.00009
-0.138007 -3.05278 -3.05278
-0.141874 -3.163 -3.163
0.0448831 -3.1671 -3.1671
0.0458271 -3.05676 -3.05676
-0.139933 -3.10768 -3.10768
-0.0484874 -3.16487 -3.16487
0.0453657 -3.11171 -3.11171
-0.0460819 -3.05458 -3.05458
-0.0472753 -3.10951 -3.10951
-0.141874 -3.163 -3.163
-0.145807 -3.27494 -3.27494
0.0438535 -3.27917 -3.27917
0.0448831 -3.1671 -3.1671
-0.143832 -3.21876 -3.21876
-0.0509682 -3.27687 -3.27687
0.044379 -3.22292 -3.22292
-0.0484874 -3.16487 -3.16487
-0.0497183 -3.22065 -3.22065
-0.145807 -3.27494 -3.27494
-0.149804 -3.3886 -3.3886
0.0427377 -3.39295 -3.39295
0.0438535 -3.27917 -3.27917
-0.147797 -3.33156 -3.33156
-0.053525 -3.39059 -3.39059
0.0433064 -3.33585 -3.33585
-0.0509682 -3.27687 -3.27687
-0.0522371 -3.33352 -3.33352
-0.149804 -3.3886 -3.3886
-0.153869 -3.50395 -3.50395
0.0415352 -3.50844 -3.50844
0.0427377 -3.39295 -3.39295
-0.151828 -3.44606 -3.44606
-0.0561583 -3.50601 -3.50601
0.0421473 -3.45048 -3.45048
-0.053525 -3.39059 -3.39059
-0.054832 -3.44809 -3.44809
-0.153869 -3.50395 -3.50395
-0.158 -3.621 -3.621
0.0402452 -3.62561 -3.62561
0.0415352 -3.50844 -3.50844
-0.155926 -3.56226 -3.56226
-0.0588688 -3.62312 -3.62312
0.0409011 -3.56681 -3.56681
-0.0561583 -3.50601 -3.50601
-0.0575039 -3.56436 -3.56436
-0.158 -3.621 -3.621
-0.162198 -3.73971 -3.73971
0.0388673 -3.74446 -3.74446
0.0402452 -3.62561 -3.62561
-0.160091 -3.68015 -3.68015
-0.0616569 -3.74191 -3.74191
0.0395673 -3.68483 -3.68483
-0.0588688 -3.62312 -3.62312
-0.0602531 -3.68231 -3.68231
-0.162198 -3.73971 -3.73971
-0.166465 -3.8601 -3.8601
0.0374009 -3.86497 -3.86497
0.0388673 -3.74446 -3.74446
-0.164323 -3.7997 -3.7997
-0.0645234 -3.86236 -3.86236
0.0381452 -3.80451 -3.80451
-0.0616569 -3.74191 -3.74191
-0.0630803 -3.80193 -3.80193
-0.166465 -3.8601 -3.8601
-0.1708 -3.98213 -3.98213
0.0358455 -3.98714 -3.98714
0.0374009 -3.86497 -3.86497
-0.168624 -3.92091 -3.92091
-0.0674685 -3.98446 -3.98446
0.0366343 -3.92585 -3.92585
-0.0645234 -3.86236 -3.86236
-0.0659861 -3.92321 -3.92321
-0.1708 -3.98213 -3.98213
-0.175204 -4.10581 -4.10581
0.0342006 -4.11095 -4.11095
0.0358455 -3.98714 -3.98714
-0.172993 -4.04377 -4.04377
-0.0704929 -4.1082 -4.1082
0.0350343 -4.04884 -4.04884
-0.0674685 -3.98446 -3.98446
-0.0689708 -4.04613 -4.04613
-0.175204 -4.10581 -4.10581
-0.179677 -4.23111 -4.23111
0.0324658 -4.23639 -4.23639
0.0342006 -4.11095 -4.11095
-0.177432 -4.16826 -4.16826
-0.073597 -4.23358 -4.23358
0.0333445 -4.17347 -4.17347
-0.0704929 -4.1082 -4.1082
-0.072035 -4.17069 -4.17069
-0.179677 -4.23111 -4.23111
-0.184221 -4.35803 -4.35803
0.0306406 -4.36344 -4.36344
0.0324658 -4.23639 -4.23639
-0.18194 -4.29437 -4.29437
-0.0767813 -4.36056 -4.36056
0.0315645 -4.29971 -4.29971
-0.073597 -4.23358 -4.23358
-0.0751791 -4.29687 -4.29687
-0.184221 -4.35803 -4.35803
-0.188834 -4.48655 -4.48655
0.0287246 -4.4921 -4.4921
0.0306406 -4.36344 -4.36344
-0.186519 -4.42209 -4.42209
-0.0800461 -4.48915 -4.48915
0.029694 -4.42757 -4.42757
-0.0767813 -4.36056 -4.36056
-0.0784036 -4.42466 -4.42466
-0.188834 -4.48655 -4.48655
-0.193519 -4.61666 -4.61666
0.0267174 -4.62235 -4.62235
0.0287246 -4.4921 -4.4921
-0.191168 -4.5514 -4.5514
-0.0833919 -4.61933 -4.61933
0.0277324 -4.55702 -4.55702
-0.0800461 -4.48915 -4.48915
-0.0817089 -4.55404 -4.55404
-0.193519 -4.61666 -4.61666
-0.198274 -4.74835 -4.74835
0.0246186 -4.75417 -4.75417
0.0267174 -4.62235 -4.62235
-0.195888 -4.68231 -4.68231
-0.086819 -4.75109 -4.75109
0.0256794 -4.68806 -4.68806
-0.0833919 -4.61933 -4.61933
-0.0850953 -4.68502 -4.68502
-0.198274 -4.74835 -4.74835
-0.203101 -4.88161 -4.88161
0.0224278 -4.88757 -4.88757
0.0246186 -4.75417 -4.75417
-0.200679 -4.81478 -4.81478
-0.0903279 -4.88442 -4.88442
0.0235347 -4.82068 -4.82068
-0.086819 -4.75109 -4.75109
-0.0885632 -4.81756 -4.81756
-0.203101 -4.88161 -4.88161
-0.208 -5.01642 -5.01642
0.0201449 -5.02252 -5.02252
0.0224278 -4.88757 -4.88757
-0.205542 -4.94882 -4.94882
-0.0939187 -5.01931 -5.01931
0.0212979 -4.95485 -4.95485
-0.0903279 -4.88442 -4.88442
-0.092113 -4.95167 -4.95167
-0.208 -5.01642 -5.01642
-0.212971 -5.15278 -5.15278
0.0177693 -5.15901 -5.15901
0.0201449 -5.02252 -5.02252
-0.210477 -5.08441 -5.08441
-0.0975918 -5.15573 -5.15573
0.0189687 -5.09058 -5.09058
-0.0939187 -5.01931 -5.01931
-0.095745 -5.08733 -5.08733
-0.212971 -5.15278 -5.15278
-0.218014 -5.29066 -5.29066
0.015301 -5.29704 -5.29704
0.0177693 -5.15901 -5.15901
-0.215484 -5.22153 -5.22153
-0.101348 -5.29369 -5.29369
0.0165468 -5.22784 -5.22784
-0.0975918 -5.15573 -5.15573
-0.0994594 -5.22452 -5.22452
-0.218014 -5.29066 -5.29066
-0.22313 -5.43007 -5.43007
0.0127395 -5.43659 -5.43659
0.015301 -5.29704 -5.29704
-0.220563 -5.36018 -5.36018
-0.105186 -5.43317 -5.43317
0.0140319 -5.36662 -5.36662
-0.101348 -5.29369 -5.29369
-0.103257 -5.36324 -5.36324
-0.22313 -5.43007 -5.43007
-0.228319 -5.57098 -5.57098
0.0100847 -5.57764 -5.57764
0.0127395 -5.43659 -5.43659
-0.225715 -5.50034 -5.50034
-0.109108 -5.57415 -5.57415
0.0114237 -5.50692 -5.50692
-0.105186 -5.43317 -5.43317
-0.107137 -5.50347 -5.50347
-0.228319 -5.57098 -5.57098
-0.23358 -5.71338 -5.71338
0.00733627 -5.72018 -5.72018
0.0100847 -5.57764 -5.57764
-0.23094 -5.642 -5.642
-0.113113 -5.71662 -5.71662
0.00872217 -5.64872 -5.64872
-0.109108 -5.57415 -5.57415
-0.1111 -5.6452 -5.6452
-0.23358 -5.71338 -5.71338
-0.238916 -5.85727 -5.85727
0.00449412 -5.86421 -5.86421
0.00733627 -5.72018 -5.72018
-0.236239 -5.78514 -5.78514
-0.117202 -5.86058 -5.86058
0.00592693 -5.79201 -5.79201
-0.113113 -5.71662 -5.71662
-0.115147 -5.78842 -5.78842
-0.238916 -5.85727 -5.85727
-0.244324 -6.00263 -6.00263
0.00155805 -6.00971 -6.00971
0.00449412 -5.86421 -5.86421
-0.241611 -5.92977 -5.92977
-0.121374 -6.00601 -6.00601
0.00303784 -5.93678 -5.93678
-0.117202 -5.86058 -5.86058
-0.119277 -5.93312 -5.93312
-0.244324 -6.00263 -6.00263
-0.249806 -6.14945 -6.14945
-0.00147211 -6.15667 -6.15667
0.00155805 -6.00971 -6.00971
-0.247056 -6.07586 -6.07586
-0.12563 -6.1529 -6.1529
5.4738e-05 -6.08301 -6.08301
-0.121374 -6.00601 -6.00601
-0.123491 -6.07928 -6.07928
-0.249806 -6.14945 -6.14945
-0.255362 -6.29771 -6.29771
-0.0045965 -6.30507 -6.30507
-0.00147211 -6.15667 -6.15667
-0.252575 -6.2234 -6.2234
-0.12997 -6.30124 -6.30124
-0.00302252 -6.23069 -6.23069
-0.12563 -6.1529 -6.1529
-0.12779 -6.22689 -6.22689
-0.255362 -6.29771 -6.29771
-0.260992 -6.4474 -6.4474
-0.00781521 -6.45491 -6.45491
-0.0045965 -6.30507 -6.30507
-0.258168 -6.37238 -6.37238
-0.134394 -6.451 -6.451
-0.00619406 -6.37981 -6.37981
-0.12997 -6.30124 -6.30124
-0.132172 -6.37594 -6.37594
-0.260992 -6.4474 -6.4474
-0.266696 -6.59852 -6.59852
-0.0111284 -6.60617 -6.60617
-0.00781521 -6.45491 -6.45491
-0.263835 -6.52279 -6.52279
-0.138903 -6.60219 -6.60219
-0.00945998 -6.53036 -6.53036
-0.134394 -6.451 -6.451
-0.136638 -6.52642 -6.52642
-0.266696 -6.59852 -6.59852
-0.272474 -6.75105 -6.75105
-0.014536 -6.75884 -6.75884
-0.0111284 -6.60617 -6.60617
-0.269575 -6.67461 -6.67461
-0.143496 -6.75479 -6.75479
-0.0128204 -6.68233 -6.68233
-0.138903 -6.60219 -6.60219
-0.141189 -6.67832 -6.67832
-0.272474 -6.75105 -6.75105
-0.278325 -6.90497 -6.90497
-0.0180382 -6.9129 -6.9129
-0.014536 -6.75884 -6.75884
-0.27539 -6.82784 -6.82784
-0.148173 -6.90879 -6.90879
-0.0162753 -6.8357 -6.8357
-0.143496 -6.75479 -6.75479
-0.145824 -6.83162 -6.83162
-0.278325 -6.90497 -6.90497
-0.284251 -7.06028 -7.06028
-0.021635 -7.06836 -7.06836
-0.0180382 -6.9129 -6.9129
-0.281279 -6.98246 -6.98246
-0.152934 -7.06417 -7.06417
-0.0198248 -6.99046 -6.99046
-0.148173 -6.90879 -6.90879
-0.150543 -6.98631 -6.98631
-0.284251 -7.06028 -7.06028
-0.290252 -7.21697 -7.21697
-0.0253263 -7.22518 -7.22518
-0.021635 -7.06836 -7.06836
-0.287242 -7.13845 -7.13845
-0.15778 -7.22093 -7.22093
-0.0234688 -7.1466 -7.1466
-0.152934 -7.06417 -7.06417
-0.155346 -7.14238 -7.14238
-0.290252 -7.21697 -7.21697
-0.296326 -7.37501 -7.37501
-0.0291123 -7.38337 -7.38337
-0.0253263 -7.22518 -7.22518
-0.29328 -7.29582 -7.29582
-0.16271 -7.37905 -7.37905
-0.0272075 -7.30411 -7.30411
-0.15778 -7.22093 -7.22093
-0.160234 -7.29982 -7.29982
-0.296326 -7.37501 -7.37501
-0.302474 -7.5344 -7.5344
-0.0329928 -7.5429 -7.5429
-0.0291123 -7.38337 -7.38337
-0.299391 -7.45454 -7.45454
-0.167724 -7.53851 -7.53851
-0.0310407 -7.46297 -7.46297
-0.16271 -7.37905 -7.37905
-0.165207 -7.45861 -7.45861
-0.302474 -7.5344 -7.5344
-0.308697 -7.69514 -7.69514
-0.0369678 -7.70378 -7.70378
-0.0329928 -7.5429 -7.5429
-0.305576 -7.6146 -7.6146
-0.172823 -7.69931 -7.69931
-0.0349685 -7.62317 -7.62317
-0.167724 -7.53851 -7.53851
-0.170263 -7.61875 -7.61875
-0.308697 -7.69514 -7.69514
-0.314993 -7.85719 -7.85719
-0.0410373 -7.86597 -7.86597
-0.0369678 -7.70378 -7.70378
-0.311836 -7.776 -7.776
-0.178006 -7.86144 -7.86144
-0.0389908 -7.78471 -7.78471
-0.172823 -7.69931 -7.69931
-0.175404 -7.78021 -7.78021
-0.314993 -7.85719 -7.85719
-0.321364 -8.02056 -8.02056
-0.0452012 -8.02949 -8.02949
-0.0410373 -7.86597 -7.86597
-0.318169 -7.93871 -7.93871
-0.183273 -8.02488 -8.02488
-0.0431075 -7.94757 -7.94757
-0.178006 -7.86144 -7.86144
-0.180629 -7.943 -7.943
-0.321364 -8.02056 -8.02056
-0.327808 -8.18523 -8.18523
-0.0494593 -8.1943 -8.1943
-0.0452012 -8.02949 -8.02949
-0.324577 -8.10273 -8.10273
-0.188625 -8.18962 -8.18962
-0.0473184 -8.11173 -8.11173
-0.183273 -8.02488 -8.02488
-0.185938 -8.10709 -8.10709
-0.327808 -8.18523 -8.18523
-0.334326 -8.35119 -8.35119
-0.0538115 -8.3604 -8.3604
-0.0494593 -8.1943 -8.1943
-0.331058 -8.26805 -8.26805
-0.19406 -8.35566 -8.35566
-0.0516236 -8.27719 -8.27719
-0.188625 -8.18962 -8.18962
-0.191332 -8.27248 -8.27248
-0.334326 -8.35119 -8.35119
-0.340918 -8.51842 -8.51842
-0.0582578 -8.52777 -8.52777
-0.0538115 -8.3604 -8.3604
-0.337613 -8.43465 -8.43465
-0.199579 -8.52296 -8.52296
-0.0560229 -8.44392 -8.44392
-0.19406 -8.35566 -8.35566
-0.196809 -8.43915 -8.43915
-0.340918 -8.51842 -8.51842
-0.347582 -8.68692 -8.68692
-0.0627978 -8.69641 -8.69641
-0.0582578 -8.52777 -8.52777
-0.344241 -8.60251 -8.60251
-0.205181 -8.69153 -8.69153
-0.0605161 -8.61193 -8.61193
-0.199579 -8.52296 -8.52296
-0.202369 -8.60709 -8.60709
-0.347582 -8.68692 -8.68692
-0.354321 -8.85667 -8.85667
-0.0674316 -8.8663 -8.8663
-0.0627978 -8.69641 -8.69641
-0.350942 -8.77164 -8.77164
-0.210867 -8.86136 -8.86136
-0.065103 -8.7812 -8.7812
-0.205181 -8.69153 -8.69153
-0.208014 -8.77629 -8.77629
-0.354321 -8.85667 -8.85667
-0.361132 -9.02767 -9.02767
-0.0721588 -9.03744 -9.03744
-0.0674316 -8.8663 -8.8663
-0.357717 -8.94202 -8.94202
-0.216636 -9.03242 -9.03242
-0.0697835 -8.95172 -8.95172
-0.210867 -8.86136 -8.86136
-0.213741 -8.94673 -8.94673
-0.361132 -9.02767 -9.02767
-0.368016 -9.19989 -9.19989
-0.0769793 -9.2098 -9.2098
-0.0721588 -9.03744 -9.03744
-0.364565 -9.11362 -9.11362
-0.222489 -9.20471 -9.20471
-0.0745574 -9.12346 -9.12346
-0.216636 -9.03242 -9.03242
-0.219552 -9.11841 -9.11841
-0.368016 -9.19989 -9.19989
-0.374972 -9.37332 -9.37332
-0.0818928 -9.38337 -9.38337
-0.0769793 -9.2098 -9.2098
-0.371485 -9.28645 -9.28645
-0.228424 -9.37822 -9.37822
-0.0794244 -9.29643 -9.29643
-0.222489 -9.20471 -9.20471
-0.225446 -9.29131 -9.29131
-0.374972 -9.37332 -9.37332
-0.382001 -9.54796 -9.54796
-0.0868991 -9.55815 -9.55815
-0.0818928 -9.38337 -9.38337
-0.378478 -9.46049 -9.46049
-0.234441 -9.55293 -9.55293
-0.0843843 -9.47061 -9.47061
-0.228424 -9.37822 -9.37822
-0.231422 -9.46542 -9.46542
-0.382001 -9.54796 -9.54796
-0.389103 -9.7238 -9.7238
-0.0919979 -9.73412 -9.73412
-0.0868991 -9.55815 -9.55815
-0.385543 -9.63573 -9.63573
-0.240541 -9.72883 -9.72883
-0.0894369 -9.64599 -9.64599
-0.234441 -9.55293 -9.55293
-0.237481 -9.64073 -9.64073
-0.389103 -9.7238 -9.7238
-0.396275 -9.90081 -9.90081
-0.0971889 -9.91127 -9.91127
-0.0919979 -9.73412 -9.73412
-0.39268 -9.81216 -9.81216
-0.246723 -9.90592 -9.90592
-0.0945819 -9.82255 -9.82255
-0.240541 -9.72883 -9.72883
-0.243622 -9.81723 -9.81723
-0.396275 -9.90081 -9.90081
-0.40352 -10.079 -10.079
-0.102472 -10.0896 -10.0896
-0.0971889 -9.91127 -9.91127
-0.399889 -9.98975 -9.98975
-0.252987 -10.0842 -10.0842
-0.0998189 -10.0003 -10.0003
-0.246723 -9.90592 -9.90592
-0.249845 -9.9949 -9.9949
-0.40352 -10.079 -10.079
-0.410836 -10.2583 -10.2583
-0.107846 -10.2691 -10.2691
-0.102472 -10.0896 -10.0896
-0.407169 -10.1685 -10.1685
-0.259332 -10.2636 -10.2636
-0.105148 -10.1792 -10.1792
-0.252987 -10.0842 -10.0842
-0.256149 -10.1737 -10.1737
-0.410836 -10.2583 -10.2583
-0.418222 -10.4388 -10.4388
-0.113312 -10.4497 -10.4497
-0.107846 -10.2691 -10.2691
-0.41452 -10.3484 -10.3484
-0.265758 -10.4441 -10.4441
-0.110568 -10.3592 -10.3592
-0.259332 -10.2636 -10.2636
-0.262535 -10.3537 -10.3537
-0.418222 -10.4388 -10.4388
-0.425679 -10.6204 -10.6204
-0.118869 -10.6314 -10.6314
-0.113312 -10.4497 -10.4497
-0.421942 -10.5295 -10.5295
-0.272265 -10.6258 -10.6258
-0.116079 -10.5404 -10.5404
-0.265758 -10.4441 -10.4441
-0.269002 -10.5348 -10.5348
-0.425679 -10.6204 -10.6204
-0.433206 -10.8031 -10.8031
-0.124517 -10.8143 -10.8143
-0.118869 -10.6314 -10.6314
-0.429434 -10.7116 -10.7116
-0.278853 -10.8086 -10.8086
-0.121682 -10.7227 -10.7227
-0.272265 -10.6258 -10.6258
-0.275549 -10.7171 -10.7171
-0.433206 -10.8031 -10.8031
-0.440803 -10.987 -10.987
-0.130254 -10.9983 -10.9983
-0.124517 -10.8143 -10.8143
-0.436996 -10.8949 -10.8949
-0.28552 -10.9925 -10.9925
-0.127374 -10.9061 -10.9061
-0.278853 -10.8086 -10.8086
-0.282177 -10.9004 -10.9004
-0.440803 -10.987 -10.987
-0.44847 -11.1719 -11.1719
-0.136082 -11.1833 -11.1833
-0.130254 -10.9983 -10.9983
-0.444628 -11.0793 -11.0793
-0.292267 -11.1775 -11.1775
-0.133157 -11.0907 -11.0907
-0.28552 -10.9925 -10.9925
-0.288884 -11.0849 -11.0849
-0.44847 -11.1719 -11.1719
-0.456205 -11.3579 -11.3579
-0.141999 -11.3695 -11.3695
-0.136082 -11.1833 -11.1833
-0.452329 -11.2648 -11.2648
-0.299093 -11.3636 -11.3636
-0.139029 -11.2763 -11.2763
-0.292267 -11.1775 -11.1775
-0.29567 -11.2704 -11.2704
-0.456205 -11.3579 -11.3579
-0.464009 -11.545 -11.545
-0.148004 -11.5567 -11.5567
-0.141999 -11.3695 -11.3695
-0.460099 -11.4514 -11.4514
-0.305998 -11.5508 -11.5508
-0.14499 -11.463 -11.463
-0.299093 -11.3636 -11.3636
-0.302536 -11.457 -11.457
-0.464009 -11.545 -11.545
-0.471882 -11.7332 -11.7332
-0.154099 -11.745 -11.745
-0.148004 -11.5567 -11.5567
-0.467937 -11.639 -11.639
-0.312982 -11.739 -11.739
-0.15104 -11.6507 -11.6507
-0.305998 -11.5508 -11.5508
-0.30948 -11.6447 -11.6447
-0.471882 -11.7332 -11.7332
-0.479821 -11.9224 -11.9224
-0.160281 -11.9343 -11.9343
-0.154099 -11.745 -11.745
-0.475843 -11.8276 -11.8276
-0.320043 -11.9282 -11.9282
-0.157179 -11.8395 -11.8395
-0.312982 -11.739 -11.739
-0.316503 -11.8335 -11.8335
-0.479821 -11.9224 -11.9224
-0.487828 -12.1126 -12.1126
-0.166551 -12.1247 -12.1247
-0.160281 -11.9343 -11.9343
-0.483817 -12.0174 -12.0174
-0.327181 -12.1185 -12.1185
-0.163405 -12.0294 -12.0294
-0.320043 -11.9282 -11.9282
-0.323603 -12.0233 -12.0233
-0.487828 -12.1126 -12.1126
-0.495902 -12.3039 -12.3039
-0.172908 -12.3161 -12.3161
-0.166551 -12.1247 -12.1247
-0.491857 -12.2081 -12.2081
-0.334397 -12.3099 -12.3099
-0.169719 -12.2202 -12.2202
-0.327181 -12.1185 -12.1185
-0.33078 -12.2141 -12.2141
-0.495902 -12.3039 -12.3039
-0.504042 -12.4961 -12.4961
-0.179352 -12.5085 -12.5085
-0.172908 -12.3161 -12.3161
-0.499964 -12.3999 -12.3999
-0.341689 -12.5022 -12.5022
-0.176119 -12.4121 -12.4121
-0.334397 -12.3099 -12.3099
-0.338033 -12.4059 -12.4059
-0.504042 -12.4961 -12.4961
-0.512248 -12.6894 -12.6894
-0.185882 -12.7018 -12.7018
-0.179352 -12.5085 -12.5085
-0.508137 -12.5926 -12.5926
-0.349057 -12.6955 -12.6955
-0.182606 -12.605 -12.605
-0.341689 -12.5022 -12.5022
-0.345363 -12.5987 -12.5987
-0.512248 -12.6894 -12.6894
-0.520519 -12.8836 -12.8836
-0.192497 -12.8962 -12.8962
-0.185882 -12.7018 -12.7018
-0.516375 -12.7864 -12.7864
-0.3565 -12.8898 -12.8898
-0.189179 -12.7989 -12.7989
-0.349057 -12.6955 -12.6955
-0.352769 -12.7925 -12.7925
-0.520519 -12.8836 -12.8836
-0.528854 -13.0789 -13.0789
-0.199198 -13.0916 -13.0916
-0.192497 -12.8962 -12.8962
-0.524679 -12.9811 -12.9811
-0.364018 -13.0851 -13.0851
-0.195837 -12.9938 -12.9938
-0.3565 -12.8898 -12.8898
-0.36025 -12.9873 -12.9873
-0.528854 -13.0789 -13.0789
-0.537254 -13.2751 -13.2751
-0.205983 -13.2879 -13.2879
-0.199198 -13.0916 -13.0916
-0.533046 -13.1768 -13.1768
-0.37161 -13.2814 -13.2814
-0.20258 -13.1896 -13.1896
-0.364018 -13.0851 -13.0851
-0.367805 -13.1831 -13.1831
-0.537254 -13.2751 -13.2751
-0.545717 -13.4722 -13.4722
-0.212851 -13.4851 -13.4851
-0.205983 -13.2879 -13.2879
-0.541478 -13.3735 -13.3735
-0.379276 -13.4786 -13.4786
-0.209406 -13.3864 -13.3864
-0.37161 -13.2814 -13.2814
-0.375434 -13.3798 -13.3798
-0.545717 -13.4722 -13.4722
-0.554243 -13.6703 -13.6703
-0.219803 -13.6833 -13.6833
-0.212851 -13.4851 -13.4851
-0.549972 -13.5711 -13.5711
-0.387016 -13.6767 -13.6767
-0.216317 -13.5841 -13.5841
-0.379276 -13.4786 -13.4786
-0.383137 -13.5775 -13.5775
-0.554243 -13.6703 -13.6703
-0.562832 -13.8693 -13.8693
-0.226838 -13.8825 -13.8825
-0.219803 -13.6833 -13.6833
-0.55853 -13.7697 -13.7697
-0.394827 -13.8758 -13.8758
-0.223311 -13.7828 -13.7828
-0.387016 -13.6767 -13.6767
-0.390912 -13.7761 -13.7761
-0.562832 -13.8693 -13.8693
-0.571482 -14.0692 -14.0692
-0.233955 -14.0825 -14.0825
-0.226838 -13.8825 -13.8825
-0.567149 -13.9691 -13.9691
-0.402711 -14.0758 -14.0758
-0.230386 -13.9824 -13.9824
-0.394827 -13.8758 -13.8758
-0.39876 -13.9757 -13.9757
-0.571482 -14.0692 -14.0692
-0.580193 -14.27 -14.27
-0.241154 -14.2835 -14.2835
-0.233955 -14.0825 -14.0825
-0.57583 -14.1695 -14.1695
-0.410666 -14.2766 -14.2766
-0.237544 -14.1829 -14.1829
-0.402711 -14.0758 -14.0758
-0.406679 -14.1761 -14.1761
-0.580193 -14.27 -14.27
-0.588965 -14.4717 -14.4717
-0.248433 -14.4853 -14.4853
-0.241154 -14.2835 -14.2835
-0.584572 -14.3708 -14.3708
-0.418691 -14.4784 -14.4784
-0.244783 -14.3843 -14.3843
-0.410666 -14.2766 -14.2766
-0.41467 -14.3774 -14.3774
-0.588965 -14.4717 -14.4717
-0.597797 -14.6743 -14.6743
-0.255792 -14.688 -14.688
-0.248433 -14.4853 -14.4853
-0.593373 -14.5729 -14.5729
-0.426787 -14.6811 -14.6811
-0.252103 -14.5865 -14.5865
-0.418691 -14.4784 -14.4784
-0.42273 -14.5796 -14.5796
-0.597797 -14.6743 -14.6743
-0.606687 -14.8778 -14.8778
-0.263231 -14.8916 -14.8916
-0.255792 -14.688 -14.688
-0.602235 -14.7759 -14.7759
-0.434952 -14.8846 -14.8846
-0.259502 -14.7897 -14.7897
-0.426787 -14.6811 -14.6811
-0.430861 -14.7827 -14.7827
-0.606687 -14.8778 -14.8778
-0.615637 -15.0821 -15.0821
-0.270749 -15.096 -15.096
-0.263231 -14.8916 -14.8916
-0.611155 -14.9798 -14.9798
-0.443185 -15.0889 -15.0889
-0.26698 -14.9937 -14.9937
-0.434952 -14.8846 -14.8846
-0.43906 -14.9867 -14.9867
-0.615637 -15.0821 -15.0821
-0.624644 -15.2872 -15.2872
-0.278345 -15.3013 -15.3013
-0.270749 -15.096 -15.096
-0.620133 -15.1846 -15.1846
-0.451487 -15.2942 -15.2942
-0.274537 -15.1985 -15.1985
-0.443185 -15.0889 -15.0889
-0.447328 -15.1914 -15.1914
-0.624644 -15.2872 -15.2872
-0.633708 -15.4932 -15.4932
-0.286018 -15.5074 -15.5074
-0.278345 -15.3013 -15.3013
-0.629169 -15.3901 -15.3901
-0.459856 -15.5002 -15.5002
-0.282172 -15.4042 -15.4042
-0.451487 -15.2942 -15.2942
-0.455663 -15.3971 -15.3971
-0.633708 -15.4932 -15.4932
-0.642829 -15.7 -15.7
-0.293769 -15.7143 -15.7143
-0.286018 -15.5074 -15.5074
-0.638261 -15.5965 -15.5965
-0.468291 -15.7071 -15.7071
-0.289884 -15.6107 -15.6107
-0.459856 -15.5002 -15.5002
-0.464065 -15.6035 -15.6035
-0.642829 -15.7 -15.7
-0.652005 -15.9076 -15.9076
-0.301595 -15.922 -15.922
-0.293769 -15.7143 -15.7143
-0.64741 -15.8037 -15.8037
-0.476793 -15.9147 -15.9147
-0.297672 -15.818 -15.818
-0.468291 -15.7071 -15.7071
-0.472534 -15.8108 -15.8108
-0.652005 -15.9076 -15.9076
-0.661236 -16.116 -16.116
-0.309496 -16.1305 -16.1305
-0.301595 -15.922 -15.922
-0.656614 -16.0117 -16.0117
-0.485359 -16.1232 -16.1232
-0.305536 -16.0261 -16.0261
-0.476793 -15.9147 -15.9147
-0.481068 -16.0189 -16.0189
-0.661236 -16.116 -16.116
-0.670521 -16.3252 -16.3252
-0.317472 -16.3398 -16.3398
-0.309496 -16.1305 -16.1305
-0.665872 -16.2205 -16.2205
-0.49399 -16.3324 -16.3324
-0.313475 -16.235 -16.235
-0.485359 -16.1232 -16.1232
-0.489667 -16.2277 -16.2277
-0.670521 -16.3252 -16.3252
-0.67986 -16.5352 -16.5352
-0.325522 -16.5498 -16.5498
-0.317472 -16.3398 -16.3398
-0.675184 -16.4301 -16.4301
-0.502685 -16.5424 -16.5424
-0.321488 -16.4447 -16.4447
-0.49399 -16.3324 -16.3324
-0.498329 -16.4373 -16.4373
-0.67986 -16.5352 -16.5352
-0.689252 -16.7459 -16.7459
-0.333645 -16.7607 -16.7607
-0.325522 -16.5498 -16.5498
-0.68455 -16.6404 -16.6404
-0.511442 -16.7532 -16.7532
-0.329575 -16.6552 -16.6552
-0.502685 -16.5424 -16.5424
-0.507055 -16.6477 -16.6477
-0.689252 -16.7459 -16.7459
-0.698695 -16.9573 -16.9573
-0.34184 -16.9722 -16.9722
-0.333645 -16.7607 -16.7607
-0.693967 -16.8515 -16.8515
-0.520261 -16.9647 -16.9647
-0.337734 -16.8664 -16.8664
-0.511442 -16.7532 -16.7532
-0.515844 -16.8589 -16.8589
-0.698695 -16.9573 -16.9573
-0.70819 -17.1695 -17.1695
-0.350107 -17.1845 -17.1845
-0.34184 -16.9722 -16.9722
-0.703436 -17.0633 -17.0633
-0.529142 -17.1769 -17.1769
-0.345965 -17.0783 -17.0783
-0.520261 -16.9647 -16.9647
-0.524694 -17.0707 -17.0707
-0.70819 -17.1695 -17.1695
-0.717735 -17.3824 -17.3824
-0.358444 -17.3975 -17.3975
-0.350107 -17.1845 -17.1845
-0.712956 -17.2759 -17.2759
-0.538083 -17.3899 -17.3899
-0.354267 -17.2909 -17.2909
-0.529142 -17.1769 -17.1769
-0.533605 -17.2833 -17.2833
-0.717735 -17.3824 -17.3824
-0.727329 -17.5961 -17.5961
-0.366851 -17.6113 -17.6113
-0.358444 -17.3975 -17.3975
-0.722526 -17.4892 -17.4892
-0.547084 -17.6036 -17.6036
-0.362639 -17.5043 -17.5043
-0.538083 -17.3899 -17.3899
-0.542576 -17.4967 -17.4967
-0.727329 -17.5961 -17.5961
-0.736973 -17.8104 -17.8104
-0.375328 -17.8257 -17.8257
-0.366851 -17.6113 -17.6113
-0.732145 -17.7031 -17.7031
-0.556144 -17.818 -17.818
-0.371081 -17.7184 -17.7184
-0.547084 -17.6036 -17.6036
-0.551607 -17.7107 -17.7107
-0.736973 -17.8104 -17.8104
-0.746664 -18.0254 -18.0254
-0.383872 -18.0408 -18.0408
-0.375328 -17.8257 -17.8257
-0.741812 -17.9178 -17.9178
-0.565262 -18.033 -18.033
-0.379591 -17.9331 -17.9331
-0.556144 -17.818 -17.818
-0.560696 -17.9254 -17.9254
-0.746664 -18.0254 -18.0254
-0.756402 -18.2411 -18.2411
-0.392484 -18.2566 -18.2566
-0.383872 -18.0408 -18.0408
-0.751527 -18.1331 -18.1331
-0.574437 -18.2487 -18.2487
-0.38817 -18.1486 -18.1486
-0.565262 -18.033 -18.033
-0.569842 -18.1408 -18.1408
-0.756402 -18.2411 -18.2411
-0.766186 -18.4574 -18.4574
-0.401162 -18.473 -18.473
-0.392484 -18.2566 -18.2566
-0.761288 -18.3492 -18.3492
-0.583668 -18.4651 -18.4651
-0.396815 -18.3647 -18.3647
-0.574437 -18.2487 -18.2487
-0.579045 -18.3569 -18.3569
-0.766186 -18.4574 -18.4574
-0.776016 -18.6744 -18.6744
-0.409906 -18.6901 -18.6901
-0.401162 -18.473 -18.473
-0.771095 -18.5658 -18.5658
-0.592955 -18.6822 -18.6822
-0.405526 -18.5815 -18.5815
-0.583668 -18.4651 -18.4651
-0.588305 -18.5736 -18.5736
-0.776016 -18.6744 -18.6744
-0.78589 -18.892 -18.892
-0.418715 -18.9078 -18.9078
-0.409906 -18.6901 -18.6901
-0.780947 -18.7831 -18.7831
-0.602297 -18.8999 -18.8999
-0.414302 -18.7989 -18.7989
-0.592955 -18.6822 -18.6822
-0.597619 -18.7909 -18.7909
-0.78589 -18.892 -18.892
-0.795808 -19.1103 -19.1103
-0.427588 -19.1261 -19.1261
-0.418715 -18.9078 -18.9078
-0.790843 -19.0011 -19.0011
-0.611692 -19.1182 -19.1182
-0.423143 -19.0169 -19.0169
-0.602297 -18.8999 -18.8999
-0.606988 -19.0089 -19.0089
-0.795808 -19.1103 -19.1103
-0.805768 -19.3292 -19.3292
-0.436523 -19.3451 -19.3451
-0.427588 -19.1261 -19.1261
-0.800782 -19.2196 -19.2196
-0.62114 -19.3371 -19.3371
-0.432048 -19.2355 -19.2355
-0.611692 -19.1182 -19.1182
-0.616409 -19.2275 -19.2275
-0.805768 -19.3292 -19.3292
-0.81577 -19.5486 -19.5486
-0.445521 -19.5647 -19.5647
-0.436523 -19.3451 -19.3451
-0.810764 -19.4388 -19.4388
-0.63064 -19.5566 -19.5566
-0.441014 -19.4548 -19.4548
-0.62114 -19.3371 -19.3371
-0.625884 -19.4467 -19.4467
-0.81577 -19.5486 -19.5486
-0.825813 -19.7687 -19.7687
-0.45458 -19.7848 -19.7848
-0.445521 -19.5647 -19.5647
-0.820787 -19.6586 -19.6586
-0.640191 -19.7767 -19.7767
-0.450043 -19.6747 -19.6747
-0.63064 -19.5566 -19.5566
-0.635409 -19.6666 -19.6666
-0.825813 -19.7687 -19.7687
-0.835897 -19.9893 -19.9893
-0.4637 -20.0055 -20.0055
-0.45458 -19.7848 -19.7848
-0.83085 -19.8789 -19.8789
-0.649793 -19.9974 -19.9974
-0.459132 -19.8951 -19.8951
-0.640191 -19.7767 -19.7767
-0.644986 -19.887 -19.887
-0.835897 -19.9893 -19.9893
-0.846019 -20.2105 -20.2105
-0.472878 -20.2268 -20.2268
-0.4637 -20.0055 -20.0055
-0.840953 -20.0999 -20.0999
-0.659443 -20.2186 -20.2186
-0.468282 -20.1161 -20.1161
-0.649793 -19.9974 -19.9974
-0.654612 -20.1079 -20.1079
-0.846019 -20.2105 -20.2105
-0.856179 -20.4323 -20.4323
-0.482116 -20.4486 -20.4486
-0.472878 -20.2268 -20.2268
-0.851094 -20.3213 -20.3213
-0.669142 -20.4404 -20.4404
-0.47749 -20.3377 -20.3377
-0.659443 -20.2186 -20.2186
-0.664287 -20.3294 -20.3294
-0.856179 -20.4323 -20.4323
-0.866377 -20.6546 -20.6546
-0.491411 -20.671 -20.671
-0.482116 -20.4486 -20.4486
-0.861273 -20.5434 -20.5434
-0.678889 -20.6627 -20.6627
-0.486756 -20.5598 -20.5598
-0.669142 -20.4404 -20.4404
-0.67401 -20.5515 -20.5515
-0.866377 -20.6546 -20.6546
-0.876611 -20.8774 -20.8774
-0.500762 -20.8939 -20.8939
-0.491411 -20.671 -20.671
-0.871489 -20.7659 -20.7659
-0.688682 -20.8856 -20.8856
-0.496079 -20.7824 -20.7824
-0.678889 -20.6627 -20.6627
-0.683779 -20.7741 -20.7741
-0.876611 -20.8774 -20.8774
-0.88688 -21.1008 -21.1008
-0.510169 -21.1174 -21.1174
-0.500762 -20.8939 -20.8939
-0.881741 -20.989 -20.989
-0.69852 -21.109 -21.109
-0.505459 -21.0056 -21.0056
-0.688682 -20.8856 -20.8856
-0.693595 -20.9972 -20.9972
-0.88688 -21.1008 -21.1008
-0.897184 -21.3246 -21.3246
-0.519631 -21.3413 -21.3413
-0.510169 -21.1174 -21.1174
-0.892028 -21.2126 -21.2126
-0.708403 -21.3329 -21.3329
-0.514893 -21.2293 -21.2293
-0.69852 -21.109 -21.109
-0.703456 -21.2209 -21.2209
-0.897184 -21.3246 -21.3246
-0.907521 -21.5489 -21.5489
-0.529147 -21.5657 -21.5657
-0.519631 -21.3413 -21.3413
-0.902348 -21.4367 -21.4367
-0.718329 -21.5573 -21.5573
-0.524382 -21.4534 -21.4534
-0.708403 -21.3329 -21.3329
-0.713361 -21.445 -21.445
-0.907521 -21.5489 -21.5489
-0.917891 -21.7738 -21.7738
-0.538715 -21.7906 -21.7906
-0.529147 -21.5657 -21.5657
-0.912702 -21.6613 -21.6613
-0.728298 -21.7821 -21.7821
-0.533924 -21.6781 -21.6781
-0.718329 -21.5573 -21.5573
-0.723308 -21.6696 -21.6696
-0.917891 -21.7738 -21.7738
-0.928292 -21.9991 -21.9991
-0.548335 -22.016 -22.016
-0.538715 -21.7906 -21.7906
-0.923087 -21.8864 -21.8864
-0.738309 -22.0075 -22.0075
-0.543519 -21.9032 -21.9032
-0.728298 -21.7821 -21.7821
-0.733298 -21.8947 -21.8947
-0.928292 -21.9991 -21.9991
-0.938723 -22.2248 -22.2248
-0.558006 -22.2418 -22.2418
-0.548335 -22.016 -22.016
-0.933504 -22.1119 -22.1119
-0.74836 -22.2332 -22.2332
-0.553164 -22.1288 -22.1288
-0.738309 -22.0075 -22.0075
-0.74333 -22.1203 -22.1203
-0.938723 -22.2248 -22.2248
-0.949184 -22.451 -22.451
-0.567727 -22.468 -22.468
-0.558006 -22.2418 -22.2418
-0.94395 -22.3379 -22.3379
-0.758451 -22.4595 -22.4595
-0.56286 -22.3548 -22.3548
-0.74836 -22.2332 -22.2332
-0.753401 -22.3463 -22.3463
-0.949184 -22.451 -22.451
-0.959674 -22.6776 -22.6776
-0.577496 -22.6947 -22.6947
-0.567727 -22.468 -22.468
-0.954426 -22.5643 -22.5643
-0.768581 -22.6861 -22.6861
-0.572605 -22.5813 -22.5813
-0.758451 -22.4595 -22.4595
-0.763511 -22.5728 -22.5728
-0.959674 -22.6776 -22.6776
-0.970191 -22.9047 -22.9047
-0.587313 -22.9218 -22.9218
-0.577496 -22.6947 -22.6947
-0.964929 -22.7911 -22.7911
-0.778748 -22.9132 -22.9132
-0.582399 -22.8082 -22.8082
-0.768581 -22.6861 -22.6861
-0.77366 -22.7996 -22.7996
-0.970191 -22.9047 -22.9047
-0.980735 -23.1322 -23.1322
-0.597178 -23.1494 -23.1494
-0.587313 -22.9218 -22.9218
-0.97546 -23.0184 -23.0184
-0.788952 -23.1407 -23.1407
-0.59224 -23.0356 -23.0356
-0.778748 -22.9132 -22.9132
-0.783846 -23.0269 -23.0269
-0.980735 -23.1322 -23.1322
-0.991304 -23.36 -23.36
-0.607088 -23.3773 -23.3773
-0.597178 -23.1494 -23.1494
-0.986016 -23.246 -23.246
-0.799192 -23.3686 -23.3686
-0.602127 -23.2633 -23.2633
-0.788952 -23.1407 -23.1407
-0.794068 -23.2546 -23.2546
-0.991304 -23.36 -23.36
-1.0019 -23.5883 -23.5883
-0.617042 -23.6056 -23.6056
-0.607088 -23.3773 -23.3773
-0.996598 -23.4741 -23.4741
-0.809466 -23.5969 -23.5969
-0.612059 -23.4914 -23.4914
-0.799192 -23.3686 -23.3686
-0.804325 -23.4827 -23.4827
-1.0019 -23.5883 -23.5883
-1.01251 -23.8169 -23.8169
-0.627041 -23.8343 -23.8343
-0.617042 -23.6056 -23.6056
-1.0072 -23.7025 -23.7025
-0.819774 -23.8255 -23.8255
-0.622036 -23.7199 -23.7199
-0.809466 -23.5969 -23.5969
-0.814616 -23.7112 -23.7112
-1.01251 -23.8169 -23.8169
-1.02315 -24.0459 -24.0459
-0.637082 -24.0633 -24.0633
-0.627041 -23.8343 -23.8343
-1.01783 -23.9313 -23.9313
-0.830114 -24.0545 -24.0545
-0.632056 -23.9487 -23.9487
-0.819774 -23.8255 -23.8255
-0.82494 -23.94 -23.94
-1.02315 -24.0459 -24.0459
-1.03381 -24.2752 -24.2752
-0.647164 -24.2927 -24.2927
-0.637082 -24.0633 -24.0633
-1.02848 -24.1605 -24.1605
-0.840486 -24.2839 -24.2839
-0.642118 -24.1779 -24.1779
-0.830114 -24.0545 -24.0545
-0.835296 -24.1692 -24.1692
-1.03381 -24.2752 -24.2752
-1.0445 -24.5048 -24.5048
-0.657288 -24.5224 -24.5224
-0.647164 -24.2927 -24.2927
-1.03915 -24.39 -24.39
-0.850889 -24.5136 -24.5136
-0.652221 -24.4075 -24.4075
-0.840486 -24.2839 -24.2839
-0.845684 -24.3987 -24.3987
-1.0445 -24.5048 -24.5048
-1.0552 -24.7348 -24.7348
-0.667451 -24.7524 -24.7524
-0.657288 -24.5224 -24.5224
-1.04984 -24.6198 -24.6198
-0.86132 -24.7436 -24.7436
-0.662364 -24.6374 -24.6374
-0.850889 -24.5136 -24.5136
-0.856101 -24.6285 -24.6285
-1.0552 -24.7348 -24.7348
-1.06591 -24.9651 -24.9651
-0.677652 -24.9828 -24.9828
-0.667451 -24.7524 -24.7524
-1.06055 -24.8499 -24.8499
-0.871781 -24.9739 -24.9739
-0.672547 -24.8676 -24.8676
-0.86132 -24.7436 -24.7436
-0.866547 -24.8587 -24.8587
-1.06591 -24.9651 -24.9651
-1.07665 -25.1957 -25.1957
-0.687891 -25.2134 -25.2134
-0.677652 -24.9828 -24.9828
-1.07128 -25.0804 -25.0804
-0.882268 -25.2045 -25.2045
-0.682767 -25.0981 -25.0981
-0.871781 -24.9739 -24.9739
-0.877021 -25.0892 -25.0892
-1.07665 -25.1957 -25.1957
-1.0874 -25.4266 -25.4266
-0.698167 -25.4443 -25.4443
-0.687891 -25.2134 -25.2134
-1.08202 -25.3111 -25.3111
-0.892782 -25.4355 -25.4355
-0.693024 -25.3288 -25.3288
-0.882268 -25.2045 -25.2045
-0.887522 -25.32 -25.32
-1.0874 -25.4266 -25.4266
-1.09817 -25.6578 -25.6578
-0.708477 -25.6756 -25.6756
-0.698167 -25.4443 -25.4443
-1.09278 -25.5422 -25.5422
-0.903321 -25.6667 -25.6667
-0.703318 -25.5599 -25.5599
-0.892782 -25.4355 -25.4355
-0.898048 -25.551 -25.551
-1.09817 -25.6578 -25.6578
-1.10895 -25.8892 -25.8892
-0.718822 -25.907 -25.907
-0.708477 -25.6756 -25.6756
-1.10356 -25.7735 -25.7735
-0.913884 -25.8981 -25.8981
-0.713646 -25.7913 -25.7913
-0.903321 -25.6667 -25.6667
-0.908599 -25.7823 -25.7823
-1.10895 -25.8892 -25.8892
-1.11974 -26.1209 -26.1209
-0.729201 -26.1388 -26.1388
-0.718822 -25.907 -25.907
-1.11435 -26.005 -26.005
-0.92447 -26.1298 -26.1298
-0.724007 -26.0229 -26.0229
-0.913884 -25.8981 -25.8981
-0.919174 -26.0139 -26.0139
-1.11974 -26.1209 -26.1209
-1.13055 -26.3529 -26.3529
-0.739611 -26.3707 -26.3707
-0.729201 -26.1388 -26.1388
-1.12515 -26.2369 -26.2369
-0.935078 -26.3618 -26.3618
-0.734402 -26.2547 -26.2547
-0.92447 -26.1298 -26.1298
-0.929771 -26.2458 -26.2458
-1.13055 -26.3529 -26.3529
-1.14137 -26.585 -26.585
-0.750052 -26.6029 -26.6029
-0.739611 -26.3707 -26.3707
-1.13596 -26.4689 -26.4689
-0.945707 -26.5939 -26.5939
-0.744828 -26.4868 -26.4868
-0.935078 -26.3618 -26.3618
-0.94039 -26.4778 -26.4778
-1.14137 -26.585 -26.585
-1.15219 -26.8174 -26.8174
-0.760524 -26.8353 -26.8353
-0.750052 -26.6029 -26.6029
-1.14678 -26.7012 -26.7012
-0.956356 -26.8263 -26.8263
-0.755284 -26.7191 -26.7191
-0.945707 -26.5939 -26.5939
-0.951029 -26.7101 -26.7101
-1.15219 -26.8174 -26.8174
-1.16303 -27.05 -27.05
-0.771024 -27.0679 -27.0679
-0.760524 -26.8353 -26.8353
-1.15761 -26.9336 -26.9336
-0.967024 -27.0589 -27.0589
-0.76577 -26.9516 -26.9516
-0.956356 -26.8263 -26.8263
-0.961688 -26.9426 -26.9426
-1.16303 -27.05 -27.05
-1.17387 -27.2827 -27.2827
-0.781552 -27.3007 -27.3007
-0.771024 -27.0679 -27.0679
-1.16845 -27.1663 -27.1663
-0.977709 -27.2917 -27.2917
-0.776284 -27.1843 -27.1843
-0.967024 -27.0589 -27.0589
-0.972364 -27.1753 -27.1753
-1.17387 -27.2827 -27.2827
-1.18472 -27.5157 -27.5157
-0.792107 -27.5337 -27.5337
-0.781552 -27.3007 -27.3007
-1.17929 -27.3992 -27.3992
-0.988411 -27.5247 -27.5247
-0.786826 -27.4172 -27.4172
-0.977709 -27.2917 -27.2917
-0.983058 -27.4082 -27.4082
-1.18472 -27.5157 -27.5157
-1.19557 -27.7488 -27.7488
-0.802687 -27.7669 -27.7669
-0.792107 -27.5337 -27.5337
-1.19015 -27.6322 -27.6322
-0.999128 -27.7578 -27.7578
-0.797394 -27.6503 -27.6503
-0.988411 -27.5247 -27.5247
-0.993768 -27.6412 -27.6412
-1.19557 -27.7488 -27.7488
-1.20643 -27.9821 -27.9821
-0.813292 -28.0002 -28.0002
-0.802687 -27.7669 -27.7669
-1.201 -27.8654 -27.8654
-1.00986 -27.9911 -27.9911
-0.807986 -27.8835 -27.8835
-0.999128 -27.7578 -27.7578
-1.00449 -27.8745 -27.8745
-1.20643 -27.9821 -27.9821
-1.21729 -28.2155 -28.2155
-0.823921 -28.2336 -28.2336
-0.813292 -28.0002 -28.0002
-1.21186 -28.0988 -28.0988
-1.02061 -28.2246 -28.2246
-0.818604 -28.1169 -28.1169
-1.00986 -27.9911 -27.9911
-1.01523 -28.1078 -28.1078
-1.21729 -28.2155 -28.2155
-1.22816 -28.4491 -28.4491
-0.834572 -28.4672 -28.4672
-0.823921 -28.2336 -28.2336
-1.22272 -28.3323 -28.3323
-1.03136 -28.4581 -28.4581
-0.829244 -28.3504 -28.3504
-1.02061 -28.2246 -28.2246
-1.02598 -28.3413 -28.3413
-1.22816 -28.4491 -28.4491
-1.23902 -28.6828 -28.6828
-0.845246 -28.7009 -28.7009
-0.834572 -28.4672 -28.4672
-1.23359 -28.5659 -28.5659
-1.04213 -28.6918 -28.6918
-0.839906 -28.584 -28.584
-1.03136 -28.4581 -28.4581
-1.03675 -28.575 -28.575
-1.23902 -28.6828 -28.6828
-1.24988 -28.9166 -28.9166
-0.855941 -28.9347 -28.9347
-0.845246 -28.7009 -28.7009
-1.24445 -28.7996 -28.7996
-1.05291 -28.9256 -28.9256
-0.850591 -28.8178 -28.8178
-1.04213 -28.6918 -28.6918
-1.04752 -28.8087 -28.8087
-1.24988 -28.9166 -28.9166
-1.26075 -29.1504 -29.1504
-0.866657 -29.1686 -29.1686
-0.855941 -28.9347 -28.9347
-1.25532 -29.0335 -29.0335
-1.0637 -29.1595 -29.1595
-0.861296 -29.0516 -29.0516
-1.05291 -28.9256 -28.9256
-1.05831 -29.0426 -29.0426
-1.26075 -29.1504 -29.1504
-1.2716 -29.3844 -29.3844
-0.877394 -29.4026 -29.4026
-0.866657 -29.1686 -29.1686
-1.26618 -29.2674 -29.2674
-1.0745 -29.3935 -29.3935
-0.872023 -29.2856 -29.2856
-1.0637 -29.1595 -29.1595
-1.0691 -29.2765 -29.2765
-1.2716 -29.3844 -29.3844
-1.28246 -29.6185 -29.6185
-0.888153 -29.6367 -29.6367
-0.877394 -29.4026 -29.4026
-1.27703 -29.5014 -29.5014
-1.0853 -29.6276 -29.6276
-0.882771 -29.5196 -29.5196
-1.0745 -29.3935 -29.3935
-1.0799 -29.5105 -29.5105
-1.28246 -29.6185 -29.6185
-1.2933 -29.8526 -29.8526
-0.898931 -29.8708 -29.8708
-0.888153 -29.6367 -29.6367
-1.28788 -29.7355 -29.7355
-1.09612 -29.8617 -29.8617
-0.89354 -29.7537 -29.7537
-1.0853 -29.6276 -29.6276
-1.09071 -29.7446 -29.7446
-1.2933 -29.8526 -29.8526
-1.30413 -30.0868 -30.0868
-0.909726 -30.1049 -30.1049
-0.898931 -29.8708 -29.8708
-1.29872 -29.9697 -29.9697
-1.10693 -30.0958 -30.0958
-0.904327 -29.9879 -29.9879
-1.09612 -29.8617 -29.8617
-1.10152 -29.9788 -29.9788
-1.30413 -30.0868 -30.0868
-1.31496 -30.3209 -30.3209
-0.920529 -30.3391 -30.3391
-0.909726 -30.1049 -30.1049
-1.30955 -30.2038 -30.2038
-1.11775 -30.33 -30.33
-0.915127 -30.222 -30.222
-1.10693 -30.0958 -30.0958
-1.11234 -30.2129 -30.2129
-1.31496 -30.3209 -30.3209
-1.32579 -30.555 -30.555
-0.931329 -30.5732 -30.5732
-0.920529 -30.3391 -30.3391
-1.32038 -30.438 -30.438
-1.12856 -30.5641 -30.5641
-0.92593 -30.4562 -30.4562
-1.11775 -30.33 -30.33
-1.12315 -30.4471 -30.4471
-1.32579 -30.555 -30.555
-1.33661 -30.789 -30.789
-0.942104 -30.8072 -30.8072
-0.931329 -30.5732 -30.5732
-1.3312 -30.672 -30.672
-1.13935 -30.7981 -30.7981
-0.93672 -30.6903 -30.6903
-1.12856 -30.5641 -30.5641
-1.13396 -30.6811 -30.6811
0 0 0
0.00171283 0.000275116 0.000275116
0.00528228 -0.000568948 -0.000568948
0 0 0
0.000851953 0.000566887 0.000566887
0.00348407 -4.37904e-05 -4.37904e-05
0.00256034 0.000150673 0.000150673
0 0 0
0.00169037 0.00042404 0.00042404
0.00171283 0.000275116 0.000275116
0.00357192 -0.00270696 -0.00270696
0.0109692 -0.00417769 -0.00417769
0.00528228 -0.000568948 -0.000568948
0.00262482 -0.000834354 -0.000834354
0.00723703 -0.00324399 -0.00324399
0.0080904 -0.00202901 -0.00202901
0.00348407 -4.37904e-05 -4.37904e-05
0.00533696 -0.00128025 -0.00128025
0.00357192 -0.00270696 -0.00270696
0.00549654 -0.00854819 -0.00854819
0.0168908 -0.0104085 -0.0104085
0.0109692 -0.00417769 -0.00417769
0.00452947 -0.00528955 -0.00528955
0.0111463 -0.00923955 -0.00923955
0.0139124 -0.00698227 -0.00698227
0.00723703 -0.00324399 -0.00324399
0.00917823 -0.00591035 -0.00591035
0.00549654 -0.00854819 -0.00854819
0.00745853 -0.0169884 -0.0169884
0.0228563 -0.0190301 -0.0190301
0.0168908 -0.0104085 -0.0104085
0.00647555 -0.0124552 -0.0124552
0.0151095 -0.0177565 -0.0177565
0.0198749 -0.0144269 -0.0144269
0.0111463 -0.00923955 -0.00923955
0.0131263 -0.0131936 -0.0131936
0.00745853 -0.0169884 -0.0169884
0.00940983 -0.0278667 -0.0278667
0.0287936 -0.0299787 -0.0299787
0.0228563 -0.0190301 -0.0190301
0.00843688 -0.0221292 -0.0221292
0.0190612 -0.0286697 -0.0286697
0.0258313 -0.0242153 -0.0242153
0.0151095 -0.0177565 -0.0177565
0.0170894 -0.0229183 -0.0229183
0.00940983 -0.0278667 -0.0278667
0.0113392 -0.0411009 -0.0411009
0.0346648 -0.0432299 -0.0432299
0.0287936 -0.0299787 -0.0299787
0.0103779 -0.0341926 -0.0341926
0.0229698 -0.0419143 -0.0419143
0.031738 -0.0363169 -0.0363169
0.0190612 -0.0286697 -0.0286697
0.0210217 -0.0350026 -0.0350026
0.0113392 -0.0411009 -0.0411009
0.0132352 -0.0566476 -0.0566476
0.0404698 -0.0587797 -0.0587797
0.0346648 -0.0432299 -0.0432299
0.0122915 -0.0485868 -0.0485868
0.026827 -0.0574655 -0.0574655
0.0375754 -0.0507178 -0.0507178
0.0229698 -0.0419143 -0.0419143
0.0249048 -0.0494026 -0.0494026
0.0132352 -0.0566476 -0.0566476
0.0150985 -0.0744857 -0.0744857
0.0462098 -0.0766205 -0.0766205
0.0404698 -0.0587797 -0.0587797
0.014171 -0.0652812 -0.0652812
0.0306333 -0.0753075 -0.0753075
0.0433477 -0.0674142 -0.0674142
0.026827 -0.0574655 -0.0574655
0.0287364 -0.0661009 -0.0661009
0.0150985 -0.0744857 -0.0744857
0.0169281 -0.0946015 -0.0946015
0.0518902 -0.0967448 -0.0967448
0.0462098 -0.0766205 -0.0766205
0.0160175 -0.0842596 -0.0842596
0.0343912 -0.0954297 -0.0954297
0.0490573 -0.0863978 -0.0863978
0.0306333 -0.0753075 -0.0753075
0.0325181 -0.0850842 -0.0850842
0.0169281 -0.0946015 -0.0946015
0.0187247 -0.116984 -0.116984
0.0575134 -0.119143 -0.119143
0.0518902 -0.0967448 -0.0967448
0.0178305 -0.10551 -0.10551
0.0381029 -0.117822 -0.117822
0.0547088 -0.10766 -0.10766
0.0343912 -0.0954297 -0.0954297
0.0362528 -0.106343 -0.106343
0.0187247 -0.116984 -0.116984
0.0204879 -0.141624 -0.141624
0.0630809 -0.143803 -0.143803
0.0575134 -0.119143 -0.119143
0.0196105 -0.129023 -0.129023
0.0417694 -0.142474 -0.142474
0.0603041 -0.131191 -0.131191
0.0381029 -0.117822 -0.117822
0.0399418 -0.129866 -0.129866
0.0204879 -0.141624 -0.141624
0.0222168 -0.16851 -0.16851
0.068593 -0.170715 -0.170715
0.0630809 -0.143803 -0.143803
0.0213567 -0.154787 -0.154787
0.0453905 -0.169374 -0.169374
0.0658439 -0.156979 -0.156979
0.0417694 -0.142474 -0.142474
0.0435856 -0.155644 -0.155644
0.0222168 -0.16851 -0.16851
0.0239104 -0.197631 -0.197631
0.0740488 -0.199866 -0.199866
0.068593 -0.170715 -0.170715
0.0230681 -0.182792 -0.182792
0.0489656 -0.198512 -0.198512
0.0713279 -0.185012 -0.185012
0.0453905 -0.169374 -0.169374
0.0471839 -0.183664 -0.183664
0.0239104 -0.197631 -0.197631
0.0255671 -0.228976 -0.228976
0.0794471 -0.231245 -0.231245
0.0740488 -0.199866 -0.199866
0.0247434 -0.213027 -0.213027
0.0524935 -0.229875 -0.229875
0.0767552 -0.215278 -0.215278
0.0489656 -0.198512 -0.198512
0.0507355 -0.213916 -0.213916
0.0255671 -0.228976 -0.228976
0.0271855 -0.262533 -0.262533
0.0847867 -0.264839 -0.264839
0.0794471 -0.231245 -0.231245
0.0263812 -0.245479 -0.245479
0.0559726 -0.263452 -0.263452
0.0821244 -0.247766 -0.247766
0.0524935 -0.229875 -0.229875
0.0542392 -0.246387 -0.246387
0.0271855 -0.262533 -0.262533
0.0287638 -0.29829 -0.29829
0.0900657 -0.300636 -0.300636
0.0847867 -0.264839 -0.264839
0.0279797 -0.280137 -0.280137
0.0594015 -0.29923 -0.29923
0.0874338 -0.282463 -0.282463
0.0559726 -0.263452 -0.263452
0.0576935 -0.281066 -0.281066
0.0287638 -0.29829 -0.29829
0.0303004 -0.336234 -0.336234
0.0952826 -0.338624 -0.338624
0.0900657 -0.300636 -0.300636
0.0295374 -0.316989 -0.316989
0.0627785 -0.337197 -0.337197
0.092682 -0.319357 -0.319357
0.0594015 -0.29923 -0.29923
0.0610966 -0.317941 -0.317941
0.0303004 -0.336234 -0.336234
0.0317937 -0.376355 -0.376355
0.100436 -0.378791 -0.378791
0.0952826 -0.338624 -0.338624
0.0310526 -0.356023 -0.356023
0.0661019 -0.377342 -0.377342
0.0978673 -0.358436 -0.358436
0.0627785 -0.337197 -0.337197
0.064447 -0.356998 -0.356998
0.0317937 -0.376355 -0.376355
0.033242 -0.418638 -0.418638
0.105524 -0.421124 -0.421124
0.100436 -0.378791 -0.378791
0.0325236 -0.397227 -0.397227
0.0693701 -0.419652 -0.419652
0.102988 -0.399687 -0.399687
0.0661019 -0.377342 -0.377342
0.067743 -0.398227 -0.398227
0.033242 -0.418638 -0.418638
0.0346438 -0.463074 -0.463074
0.110544 -0.465611 -0.465611
0.105524 -0.421124 -0.421124
0.0339488 -0.440588 -0.440588
0.0725815 -0.464114 -0.464114
0.108042 -0.443099 -0.443099
0.0693701 -0.419652 -0.419652
0.070983 -0.441615 -0.441615
0.0346438 -0.463074 -0.463074
0.0359973 -0.509648 -0.509648
0.115496 -0.51224 -0.51224
0.110544 -0.465611 -0.465611
0.0353266 -0.486094 -0.486094
0.0757344 -0.510717 -0.510717
0.113029 -0.488659 -0.488659
0.0725815 -0.464114 -0.464114
0.0741653 -0.487149 -0.487149
0.0359973 -0.509648 -0.509648
0.037301 -0.55835 -0.55835
0.120378 -0.560999 -0.560999
0.115496 -0.51224 -0.51224
0.0366555 -0.533734 -0.533734
0.0788273 -0.559449 -0.559449
0.117946 -0.536354 -0.536354
0.0757344 -0.510717 -0.510717
0.0772885 -0.534818 -0.534818
0.037301 -0.55835 -0.55835
0.0385535 -0.609167 -0.609167
0.125188 -0.611876 -0.611876
0.120378 -0.560999 -0.560999
0.0379338 -0.583495 -0.583495
0.0818587 -0.610297 -0.610297
0.122792 -0.586173 -0.586173
0.0788273 -0.559449 -0.559449
0.0803508 -0.584609 -0.584609
0.0385535 -0.609167 -0.609167
0.0397531 -0.662086 -0.662086
0.129925 -0.664857 -0.664857
0.125188 -0.611876 -0.611876
0.03916 -0.635364 -0.635364
0.084827 -0.663249 -0.663249
0.127566 -0.638104 -0.638104
0.0818587 -0.610297 -0.610297
0.0833508 -0.636511 -0.636511
0.0397531 -0.662086 -0.662086
0.0408985 -0.717096 -0.717096
0.134587 -0.719932 -0.719932
0.129925 -0.664857 -0.664857
0.0403327 -0.689331 -0.689331
0.0877308 -0.718292 -0.718292
0.132265 -0.692134 -0.692134
0.084827 -0.663249 -0.663249
0.0862871 -0.69051 -0.69051
0.0408985 -0.717096 -0.717096
0.0419881 -0.774185 -0.774185
0.139172 -0.777088 -0.777088
0.134587 -0.719932 -0.719932
0.0414503 -0.745382 -0.745382
0.0905686 -0.775416 -0.775416
0.136889 -0.748251 -0.748251
0.0877308 -0.718292 -0.718292
0.0891581 -0.746595 -0.746595
0.0419881 -0.774185 -0.774185
0.0430205 -0.83334 -0.83334
0.14368 -0.836312 -0.836312
0.139172 -0.777088 -0.777088
0.0425115 -0.803505 -0.803505
0.093339 -0.834607 -0.834607
0.141436 -0.806442 -0.806442
0.0905686 -0.775416 -0.775416
0.0919623 -0.804754 -0.804754
0.0430205 -0.83334 -0.83334
0.0439944 -0.894548 -0.894548
0.148109 -0.897593 -0.897593
0.14368 -0.836312 -0.836312
0.0435149 -0.863688 -0.863688
0.0960406 -0.895853 -0.895853
0.145905 -0.866696 -0.866696
0.093339 -0.834607 -0.834607
0.0946985 -0.864974 -0.864974
0.0439944 -0.894548 -0.894548
0.0449084 -0.957799 -0.957799
0.152458 -0.960918 -0.960918
0.148109 -0.897593 -0.897593
0.044459 -0.925919 -0.925919
0.0986721 -0.959142 -0.959142
0.150294 -0.929001 -0.929001
0.0960406 -0.895853 -0.895853
0.0973652 -0.927243 -0.927243
0.0449084 -0.957799 -0.957799
0.0457611 -1.02308 -1.02308
0.156725 -1.02628 -1.02628
0.152458 -0.960918 -0.960918
0.0453425 -0.990187 -0.990187
0.101232 -1.02446 -1.02446
0.154602 -0.993343 -0.993343
0.0986721 -0.959142 -0.959142
0.099961 -0.991549 -0.991549
0.0457611 -1.02308 -1.02308
0.0465512 -1.09038 -1.09038
0.160909 -1.09365 -1.09365
0.156725 -1.02628 -1.02628
0.0461641 -1.05648 -1.05648
0.103719 -1.0918 -1.0918
0.158827 -1.05971 -1.05971
0.101232 -1.02446 -1.02446
0.102485 -1.05788 -1.05788
0.0465512 -1.09038 -1.09038
0.0472776 -1.15968 -1.15968
0.165008 -1.16304 -1.16304
0.160909 -1.09365 -1.09365
0.0469225 -1.12478 -1.12478
0.106132 -1.16115 -1.16115
0.162969 -1.12809 -1.12809
0.103719 -1.0918 -1.0918
0.104935 -1.12622 -1.12622
0.0472776 -1.15968 -1.15968
0.0479388 -1.23098 -1.23098
0.169022 -1.23442 -1.23442
0.165008 -1.16304 -1.16304
0.0476164 -1.19508 -1.19508
0.10847 -1.23249 -1.23249
0.167026 -1.19848 -1.19848
0.106132 -1.16115 -1.16115
0.107311 -1.19657 -1.19657
0.0479388 -1.23098 -1.23098
0.0485338 -1.30426 -1.30426
0.172949 -1.30778 -1.30778
0.169022 -1.23442 -1.23442
0.0482447 -1.26737 -1.26737
0.110731 -1.30581 -1.30581
0.170997 -1.27085 -1.27085
0.10847 -1.23249 -1.23249
0.10961 -1.2689 -1.2689
0.0485338 -1.30426 -1.30426
0.0490613 -1.3795 -1.3795
0.176789 -1.38311 -1.38311
0.172949 -1.30778 -1.30778
0.0488061 -1.34163 -1.34163
0.112915 -1.3811 -1.3811
0.17488 -1.3452 -1.3452
0.110731 -1.30581 -1.30581
0.111833 -1.34321 -1.34321
0.0490613 -1.3795 -1.3795
0.0495201 -1.45671 -1.45671
0.180539 -1.4604 -1.4604
0.176789 -1.38311 -1.38311
0.0492994 -1.41786 -1.41786
0.115019 -1.45835 -1.45835
0.178675 -1.42151 -1.42151
0.112915 -1.3811 -1.3811
0.113977 -1.41948 -1.41948
0.0495201 -1.45671 -1.45671
0.0499092 -1.53585 -1.53585
0.184199 -1.53964 -1.53964
0.180539 -1.4604 -1.4604
0.0497235 -1.49604 -1.49604
0.117044 -1.53754 -1.53754
0.18238 -1.49978 -1.49978
0.115019 -1.45835 -1.45835
0.116042 -1.4977 -1.4977
0.0499092 -1.53585 -1.53585
0.0502274 -1.61693 -1.61693
0.187767 -1.62082 -1.62082
0.184199 -1.53964 -1.53964
0.0500772 -1.57615 -1.57615
0.118987 -1.61867 -1.61867
0.185994 -1.57999 -1.57999
0.117044 -1.53754 -1.53754
0.118026 -1.57787 -1.57787
0.0502274 -1.61693 -1.61693
0.0504736 -1.69994 -1.69994
0.191243 -1.70391 -1.70391
0.187767 -1.62082 -1.62082
0.0503596 -1.6582 -1.6582
0.120849 -1.70172 -1.70172
0.189517 -1.66212 -1.66212
0.118987 -1.61867 -1.61867
0.119928 -1.65996 -1.65996
0.0504736 -1.69994 -1.69994
0.0506469 -1.78484 -1.78484
0.194626 -1.78892 -1.78892
0.191243 -1.70391 -1.70391
0.0505695 -1.74215 -1.74215
0.122627 -1.78668 -1.78668
0.192946 -1.74618 -1.74618
0.120849 -1.70172 -1.70172
0.121748 -1.74396 -1.74396
0.0506469 -1.78484 -1.78484
0.0507461 -1.87165 -1.87165
0.197914 -1.87582 -1.87582
0.194626 -1.78892 -1.78892
0.0507058 -1.82801 -1.82801
0.12432 -1.87353 -1.87353
0.196282 -1.83213 -1.83213
0.122627 -1.78668 -1.78668
0.123484 -1.82987 -1.82987
0.0507461 -1.87165 -1.87165
0.0507703 -1.96034 -1.96034
0.201106 -1.96461 -1.96461
0.197914 -1.87582 -1.87582
0.0507676 -1.91576 -1.91576
0.125929 -1.96227 -1.96227
0.199522 -1.91998 -1.91998
0.12432 -1.87353 -1.87353
0.125135 -1.91767 -1.91767
0.0507703 -1.96034 -1.96034
0.0507185 -2.0509 -2.0509
0.204202 -2.05527 -2.05527
0.201106 -1.96461 -1.96461
0.0507539 -2.00538 -2.00538
0.127451 -2.05288 -2.05288
0.202666 -2.0097 -2.0097
0.125929 -1.96227 -1.96227
0.126701 -2.00734 -2.00734
0.0507185 -2.0509 -2.0509
0.0505898 -2.14332 -2.14332
0.207201 -2.14779 -2.14779
0.204202 -2.05527 -2.05527
0.0506638 -2.09688 -2.09688
0.128886 -2.14536 -2.14536
0.205714 -2.1013 -2.1013
0.127451 -2.05288 -2.05288
0.128179 -2.09889 -2.09889
0.0505898 -2.14332 -2.14332
0.0503832 -2.23758 -2.23758
0.210101 -2.24216 -2.24216
0.207201 -2.14779 -2.14779
0.0504963 -2.19022 -2.19022
0.130233 -2.23968 -2.23968
0.208664 -2.19474 -2.19474
0.128886 -2.14536 -2.14536
0.129571 -2.19228 -2.19228
0.0503832 -2.23758 -2.23758
0.0500979 -2.33368 -2.33368
0.212902 -2.33837 -2.33837
0.210101 -2.24216 -2.24216
0.0502504 -2.28541 -2.28541
0.131491 -2.33583 -2.33583
0.211514 -2.29003 -2.29003
0.130233 -2.23968 -2.23968
0.130873 -2.28752 -2.28752
0.0500979 -2.33368 -2.33368
0.049733 -2.43161 -2.43161
0.215604 -2.4364 -2.4364
0.212902 -2.33837 -2.33837
0.0499254 -2.38242 -2.38242
0.132659 -2.43381 -2.43381
0.214266 -2.38716 -2.38716
0.131491 -2.33583 -2.33583
0.132086 -2.38459 -2.38459
0.049733 -2.43161 -2.43161
0.0492876 -2.53134 -2.53134
0.218204 -2.53624 -2.53624
0.215604 -2.4364 -2.4364
0.0495204 -2.48125 -2.48125
0.133737 -2.5336 -2.5336
0.216916 -2.48609 -2.48609
0.132659 -2.43381 -2.43381
0.133209 -2.48348 -2.48348
0.0492876 -2.53134 -2.53134
0.0487611 -2.63288 -2.63288
0.220702 -2.63789 -2.63789
0.218204 -2.53624 -2.53624
0.0490346 -2.58189 -2.58189
0.134723 -2.63519 -2.63519
0.219466 -2.58684 -2.58684
0.133737 -2.5336 -2.5336
0.134241 -2.58417 -2.58417
0.0487611 -2.63288 -2.63288
0.0481525 -2.7362 -2.7362
0.223098 -2.74132 -2.74132
0.220702 -2.63789 -2.63789
0.0484671 -2.68432 -2.68432
0.135616 -2.73857 -2.73857
0.221913 -2.68938 -2.68938
0.134723 -2.63519 -2.63519
0.135181 -2.68666 -2.68666
0.0481525 -2.7362 -2.7362
0.0474611 -2.84129 -2.84129
0.225391 -2.84652 -2.84652
0.223098 -2.74132 -2.74132
0.0478172 -2.78852 -2.78852
0.136417 -2.84372 -2.84372
0.224257 -2.7937 -2.7937
0.135616 -2.73857 -2.73857
0.136028 -2.79092 -2.79092
0.0474611 -2.84129 -2.84129
0.0466862 -2.94815 -2.94815
0.227579 -2.95349 -2.95349
0.225391 -2.84652 -2.84652
0.0470841 -2.8945 -2.8945
0.137124 -2.95063 -2.95063
0.226498 -2.89979 -2.89979
0.136417 -2.84372 -2.84372
0.136782 -2.89696 -2.89696
0.0466862 -2.94815 -2.94815
0.0458271 -3.05676 -3.05676
0.229663 -3.06221 -3.06221
0.227579 -2.95349 -2.95349
0.0462672 -3.00223 -3.00223
0.137737 -3.0593 -3.0593
0.228634 -3.00764 -3.00764
0.137124 -2.95063 -2.95063
0.137442 -3.00475 -3.00475
0.0458271 -3.05676 -3.05676
0.0448831 -3.1671 -3.1671
0.231642 -3.17267 -3.17267
0.229663 -3.06221 -3.06221
0.0453657 -3.11171 -3.11171
0.138254 -3.1697 -3.1697
0.230666 -3.11723 -3.11723
0.137737 -3.0593 -3.0593
0.138007 -3.11428 -3.11428
0.0448831 -3.1671 -3.1671
0.0438535 -3.27917 -3.27917
0.233514 -3.28486 -3.28486
0.231642 -3.17267 -3.17267
0.044379 -3.22292 -3.22292
0.138675 -3.28183 -3.28183
0.232591 -3.22855 -3.22855
0.138254 -3.1697 -3.1697
0.138477 -3.22555 -3.22555
0.0438535 -3.27917 -3.27917
0.0427377 -3.39295 -3.39295
0.23528 -3.39876 -3.39876
0.233514 -3.28486 -3.28486
0.0433064 -3.33585 -3.33585
0.139 -3.39567 -3.39567
0.23441 -3.3416 -3.3416
0.138675 -3.28183 -3.28183
0.13885 -3.33854 -3.33854
0.0427377 -3.39295 -3.39295
0.0415352 -3.50844 -3.50844
0.236939 -3.51437 -3.51437
0.23528 -3.39876 -3.39876
0.0421473 -3.45048 -3.45048
0.139229 -3.51122 -3.51122
0.236123 -3.45635 -3.45635
0.139 -3.39567 -3.39567
0.139127 -3.45324 -3.45324
0.0415352 -3.50844 -3.50844
0.0402452 -3.62561 -3.62561
0.238489 -3.63166 -3.63166
0.236939 -3.51437 -3.51437
0.0409011 -3.56681 -3.56681
0.139359 -3.62845 -3.62845
0.237727 -3.5728 -3.5728
0.139229 -3.51122 -3.51122
0.139306 -3.56963 -3.56963
0.0402452 -3.62561 -3.62561
0.0388673 -3.74446 -3.74446
0.239932 -3.75063 -3.75063
0.238489 -3.63166 -3.63166
0.0395673 -3.68483 -3.68483
0.139391 -3.74737 -3.74737
0.239224 -3.69094 -3.69094
0.139359 -3.62845 -3.62845
0.139387 -3.6877 -3.6877
0.0388673 -3.74446 -3.74446
0.0374009 -3.86497 -3.86497
0.241265 -3.87127 -3.87127
0.239932 -3.75063 -3.75063
0.0381452 -3.80451 -3.80451
0.139325 -3.86794 -3.86794
0.240612 -3.81074 -3.81074
0.139391 -3.74737 -3.74737
0.13937 -3.80745 -3.80745
0.0374009 -3.86497 -3.86497
0.0358455 -3.98714 -3.98714
0.242489 -3.99356 -3.99356
0.241265 -3.87127 -3.87127
0.0366343 -3.92585 -3.92585
0.139159 -3.99017 -3.99017
0.24189 -3.93221 -3.93221
0.139325 -3.86794 -3.86794
0.139254 -3.92885 -3.92885
0.0358455 -3.98714 -3.98714
0.0342006 -4.11095 -4.11095
0.243603 -4.11749 -4.11749
0.242489 -3.99356 -3.99356
0.0350343 -4.04884 -4.04884
0.138894 -4.11405 -4.11405
0.243059 -4.05532 -4.05532
0.139159 -3.99017 -3.99017
0.139039 -4.05191 -4.05191
0.0342006 -4.11095 -4.11095
0.0324658 -4.23639 -4.23639
0.244606 -4.24305 -4.24305
0.243603 -4.11749 -4.11749
0.0333445 -4.17347 -4.17347
0.138528 -4.23955 -4.23955
0.244118 -4.18007 -4.18007
0.138894 -4.11405 -4.11405
0.138723 -4.17659 -4.17659
0.0324658 -4.23639 -4.23639
0.0306406 -4.36344 -4.36344
0.245499 -4.37023 -4.37023
0.244606 -4.24305 -4.24305
0.0315645 -4.29971 -4.29971
0.138062 -4.36666 -4.36666
0.245066 -4.30644 -4.30644
0.138528 -4.23955 -4.23955
0.138307 -4.3029 -4.3029
0.0306406 -4.36344 -4.36344
0.0287246 -4.4921 -4.4921
0.24628 -4.49901 -4.49901
0.245499 -4.37023 -4.37023
0.029694 -4.42757 -4.42757
0.137494 -4.49538 -4.49538
0.245903 -4.43442 -4.43442
0.138062 -4.36666 -4.36666
0.137791 -4.43082 -4.43082
0.0287246 -4.4921 -4.4921
0.0267174 -4.62235 -4.62235
0.24695 -4.62938 -4.62938
0.24628 -4.49901 -4.49901
0.0277324 -4.55702 -4.55702
0.136826 -4.6257 -4.6257
0.246629 -4.564 -4.564
0.137494 -4.49538 -4.49538
0.137173 -4.56034 -4.56034
0.0267174 -4.62235 -4.62235
0.0246186 -4.75417 -4.75417
0.247507 -4.76134 -4.76134
0.24695 -4.62938 -4.62938
0.0256794 -4.68806 -4.68806
0.136055 -4.75759 -4.75759
0.247243 -4.69517 -4.69517
0.136826 -4.6257 -4.6257
0.136453 -4.69145 -4.69145
0.0246186 -4.75417 -4.75417
0.0224278 -4.88757 -4.88757
0.247953 -4.89486 -4.89486
0.247507 -4.76134 -4.76134
0.0235347 -4.82068 -4.82068
0.135182 -4.89105 -4.89105
0.247744 -4.82791 -4.82791
0.136055 -4.75759 -4.75759
0.135632 -4.82412 -4.82412
0.0224278 -4.88757 -4.88757
0.0201449 -5.02252 -5.02252
0.248285 -5.02994 -5.02994
0.247953 -4.89486 -4.89486
0.0212979 -4.95485 -4.95485
0.134207 -5.02607 -5.02607
0.248133 -4.96221 -4.96221
0.135182 -4.89105 -4.89105
0.134708 -4.95836 -4.95836
0.0201449 -5.02252 -5.02252
0.0177693 -5.15901 -5.15901
0.248505 -5.16657 -5.16657
0.248285 -5.02994 -5.02994
0.0189687 -5.09058 -5.09058
0.133129 -5.16263 -5.16263
0.248409 -5.09806 -5.09806
0.134207 -5.02607 -5.02607
0.133681 -5.09415 -5.09415
0.0177693 -5.15901 -5.15901
0.015301 -5.29704 -5.29704
0.248611 -5.30472 -5.30472
0.248505 -5.16657 -5.16657
0.0165468 -5.22784 -5.22784
0.131948 -5.30072 -5.30072
0.248572 -5.23545 -5.23545
0.133129 -5.16263 -5.16263
0.132552 -5.23148 -5.23148
0.015301 -5.29704 -5.29704
0.0127395 -5.43659 -5.43659
0.248604 -5.44439 -5.44439
0.248611 -5.30472 -5.30472
0.0140319 -5.36662 -5.36662
0.130664 -5.44033 -5.44033
0.248621 -5.37437 -5.37437
0.131948 -5.30072 -5.30072
0.131319 -5.37033 -5.37033
0.0127395 -5.43659 -5.43659
0.0100847 -5.57764 -5.57764
0.248482 -5.58558 -5.58558
0.248604 -5.44439 -5.44439
0.0114237 -5.50692 -5.50692
0.129276 -5.58145 -5.58145
0.248557 -5.5148 -5.5148
0.130664 -5.44033 -5.44033
0.129983 -5.5107 -5.5107
0.0100847 -5.57764 -5.57764
0.00733627 -5.72018 -5.72018
0.248247 -5.72825 -5.72825
0.248482 -5.58558 -5.58558
0.00872217 -5.64872 -5.64872
0.127784 -5.72406 -5.72406
0.248379 -5.65673 -5.65673
0.129276 -5.58145 -5.58145
0.128543 -5.65257 -5.65257
0.00733627 -5.72018 -5.72018
0.00449412 -5.86421 -5.86421
0.247898 -5.87241 -5.87241
0.248247 -5.72825 -5.72825
0.00592693 -5.79201 -5.79201
0.126188 -5.86815 -5.86815
0.248087 -5.80015 -5.80015
0.127784 -5.72406 -5.72406
0.126999 -5.79592 -5.79592
0.00449412 -5.86421 -5.86421
0.00155805 -6.00971 -6.00971
0.247434 -6.01804 -6.01804
0.247898 -5.87241 -5.87241
0.00303784 -5.93678 -5.93678
0.124489 -6.01372 -6.01372
0.24768 -5.94504 -5.94504
0.126188 -5.86815 -5.86815
0.125351 -5.94075 -5.94075
0.00155805 -6.00971 -6.00971
-0.00147211 -6.15667 -6.15667
0.246856 -6.16513 -6.16513
0.247434 -6.01804 -6.01804
5.4738e-05 -6.08301 -6.08301
0.122684 -6.16074 -6.16074
0.247159 -6.0914 -6.0914
0.124489 -6.01372 -6.01372
0.123599 -6.08705 -6.08705
-0.00147211 -6.15667 -6.15667
-0.0045965 -6.30507 -6.30507
0.246163 -6.31366 -6.31366
0.246856 -6.16513 -6.16513
-0.00302252 -6.23069 -6.23069
0.120776 -6.30921 -6.30921
0.246524 -6.23922 -6.23922
0.122684 -6.16074 -6.16074
0.121743 -6.2348 -6.2348
-0.0045965 -6.30507 -6.30507
-0.00781521 -6.45491 -6.45491
0.245355 -6.46363 -6.46363
0.246163 -6.31366 -6.31366
-0.00619406 -6.37981 -6.37981
0.118762 -6.45912 -6.45912
0.245773 -6.38847 -6.38847
0.120776 -6.30921 -6.30921
0.119782 -6.38399 -6.38399
-0.00781521 -6.45491 -6.45491
-0.0111284 -6.60617 -6.60617
0.244433 -6.61502 -6.61502
0.245355 -6.46363 -6.46363
-0.00945998 -6.53036 -6.53036
0.116645 -6.61044 -6.61044
0.244908 -6.53915 -6.53915
0.118762 -6.45912 -6.45912
0.117717 -6.5346 -6.5346
-0.0111284 -6.60617 -6.60617
-0.014536 -6.75884 -6.75884
0.243395 -6.76782 -6.76782
0.244433 -6.61502 -6.61502
-0.0128204 -6.68233 -6.68233
0.114422 -6.76318 -6.76318
0.243928 -6.69125 -6.69125
0.116645 -6.61044 -6.61044
0.115546 -6.68664 -6.68664
-0.014536 -6.75884 -6.75884
-0.0180382 -6.9129 -6.9129
0.242243 -6.92202 -6.92202
0.243395 -6.76782 -6.76782
-0.0162753 -6.8357 -6.8357
0.112095 -6.91731 -6.91731
0.242833 -6.84475 -6.84475
0.114422 -6.76318 -6.76318
0.113271 -6.84007 -6.84007
-0.0180382 -6.9129 -6.9129
-0.021635 -7.06836 -7.06836
0.240975 -7.07761 -7.07761
0.242243 -6.92202 -6.92202
-0.0198248 -6.99046 -6.99046
0.109663 -7.07283 -7.07283
0.241623 -6.99964 -6.99964
0.112095 -6.91731 -6.91731
0.110892 -6.9949 -6.9949
-0.021635 -7.06836 -7.06836
-0.0253263 -7.22518 -7.22518
0.239593 -7.23456 -7.23456
0.240975 -7.07761 -7.07761
-0.0234688 -7.1466 -7.1466
0.107126 -7.22973 -7.22973
0.240298 -7.15592 -7.15592
0.109663 -7.07283 -7.07283
0.108407 -7.15111 -7.15111
-0.0253263 -7.22518 -7.22518
-0.0291123 -7.38337 -7.38337
0.238095 -7.39288 -7.39288
0.239593 -7.23456 -7.23456
-0.0272075 -7.30411 -7.30411
0.104484 -7.38798 -7.38798
0.238858 -7.31355 -7.31355
0.107126 -7.22973 -7.22973
0.105818 -7.30868 -7.30868
-0.0291123 -7.38337 -7.38337
-0.0329928 -7.5429 -7.5429
0.236482 -7.55255 -7.55255
0.238095 -7.39288 -7.39288
-0.0310407 -7.46297 -7.46297
0.101737 -7.54758 -7.54758
0.237303 -7.47255 -7.47255
0.104484 -7.38798 -7.38798
0.103124 -7.46761 -7.46761
-0.0329928 -7.5429 -7.5429
-0.0369678 -7.70378 -7.70378
0.234755 -7.71356 -7.71356
0.236482 -7.55255 -7.55255
-0.0349685 -7.62317 -7.62317
0.098886 -7.70852 -7.70852
0.235633 -7.63289 -7.63289
0.101737 -7.54758 -7.54758
0.100325 -7.62789 -7.62789
-0.0369678 -7.70378 -7.70378
-0.0410373 -7.86597 -7.86597
0.232913 -7.87588 -7.87588
0.234755 -7.71356 -7.71356
-0.0389908 -7.78471 -7.78471
0.09593 -7.87079 -7.87079
0.233848 -7.79456 -7.79456
0.098886 -7.70852 -7.70852
0.0974211 -7.78949 -7.78949
-0.0410373 -7.86597 -7.86597
-0.0452012 -8.02949 -8.02949
0.230955 -8.03953 -8.03953
0.232913 -7.87588 -7.87588
-0.0431075 -7.94757 -7.94757
0.0928695 -8.03437 -8.03437
0.231948 -7.95754 -7.95754
0.09593 -7.87079 -7.87079
0.0944128 -7.95241 -7.95241
-0.0452012 -8.02949 -8.02949
-0.0494593 -8.1943 -8.1943
0.228884 -8.20447 -8.20447
0.230955 -8.03953 -8.03953
-0.0473184 -8.11173 -8.11173
0.0897045 -8.19924 -8.19924
0.229934 -8.12184 -8.12184
0.0928695 -8.03437 -8.03437
0.0913001 -8.11664 -8.11664
-0.0494593 -8.1943 -8.1943
-0.0538115 -8.3604 -8.3604
0.226697 -8.3707 -8.3707
0.228884 -8.20447 -8.20447
-0.0516236 -8.27719 -8.27719
0.0864352 -8.36541 -8.36541
0.227805 -8.28742 -8.28742
0.0897045 -8.19924 -8.19924
0.0880829 -8.28217 -8.28217
-0.0538115 -8.3604 -8.3604
-0.0582578 -8.52777 -8.52777
0.224396 -8.53821 -8.53821
0.226697 -8.3707 -8.3707
-0.0560229 -8.44392 -8.44392
0.0830616 -8.53285 -8.53285
0.225561 -8.45429 -8.45429
0.0864352 -8.36541 -8.36541
0.0847614 -8.44897 -8.44897
-0.0582578 -8.52777 -8.52777
-0.0627978 -8.69641 -8.69641
0.221981 -8.70698 -8.70698
0.224396 -8.53821 -8.53821
-0.0605161 -8.61193 -8.61193
0.079584 -8.70156 -8.70156
0.223203 -8.62243 -8.62243
0.0830616 -8.53285 -8.53285
0.0813358 -8.61705 -8.61705
-0.0627978 -8.69641 -8.69641
-0.0674316 -8.8663 -8.8663
0.219452 -8.877 -8.877
0.221981 -8.70698 -8.70698
-0.065103 -8.7812 -8.7812
0.0760025 -8.87152 -8.87152
0.220731 -8.79183 -8.79183
0.079584 -8.70156 -8.70156
0.0778062 -8.78638 -8.78638
-0.0674316 -8.8663 -8.8663
-0.0721588 -9.03744 -9.03744
0.216809 -9.04826 -9.04826
0.219452 -8.877 -8.877
-0.0697835 -8.95172 -8.95172
0.0723174 -9.04272 -9.04272
0.218145 -8.96248 -8.96248
0.0760025 -8.87152 -8.87152
0.0741729 -8.95696 -8.95696
-0.0721588 -9.03744 -9.03744
-0.0769793 -9.2098 -9.2098
0.214052 -9.22075 -9.22075
0.216809 -9.04826 -9.04826
-0.0745574 -9.12346 -9.12346
0.0685288 -9.21514 -9.21514
0.215445 -9.13435 -9.13435
0.0723174 -9.04272 -9.04272
0.070436 -9.12878 -9.12878
-0.0769793 -9.2098 -9.2098
-0.0818928 -9.38337 -9.38337
0.211182 -9.39446 -9.39446
0.214052 -9.22075 -9.22075
-0.0794244 -9.29643 -9.29643
0.0646369 -9.38878 -9.38878
0.212631 -9.30745 -9.30745
0.0685288 -9.21514 -9.21514
0.0665957 -9.30181 -9.30181
-0.0818928 -9.38337 -9.38337
-0.0868991 -9.55815 -9.55815
0.208199 -9.56936 -9.56936
0.211182 -9.39446 -9.39446
-0.0843843 -9.47061 -9.47061
0.060642 -9.56363 -9.56363
0.209705 -9.48176 -9.48176
0.0646369 -9.38878 -9.38878
0.0626523 -9.47606 -9.47606
-0.0868991 -9.55815 -9.55815
-0.0919979 -9.73412 -9.73412
0.205102 -9.74546 -9.74546
0.208199 -9.56936 -9.56936
-0.0894369 -9.64599 -9.64599
0.0565445 -9.73967 -9.73967
0.206665 -9.65727 -9.65727
0.060642 -9.56363 -9.56363
0.0586061 -9.6515 -9.6515
-0.0919979 -9.73412 -9.73412
-0.0971889 -9.91127 -9.91127
0.201894 -9.92274 -9.92274
0.205102 -9.74546 -9.74546
-0.0945819 -9.82255 -9.82255
0.0523445 -9.91688 -9.91688
0.203512 -9.83396 -9.83396
0.0565445 -9.73967 -9.73967
0.0544573 -9.82813 -9.82813
-0.0971889 -9.91127 -9.91127
-0.102472 -10.0896 -10.0896
0.198572 -10.1012 -10.1012
0.201894 -9.92274 -9.92274
-0.0998189 -10.0003 -10.0003
0.0480423 -10.0953 -10.0953
0.200247 -10.0118 -10.0118
0.0523445 -9.91688 -9.91688
0.0502062 -10.0059 -10.0059
-0.102472 -10.0896 -10.0896
-0.107846 -10.2691 -10.2691
0.195139 -10.2808 -10.2808
0.198572 -10.1012 -10.1012
-0.105148 -10.1792 -10.1792
0.0436384 -10.2748 -10.2748
0.19687 -10.1908 -10.1908
0.0480423 -10.0953 -10.0953
0.0458531 -10.1849 -10.1849
-0.107846 -10.2691 -10.2691
-0.113312 -10.4497 -10.4497
0.191594 -10.4615 -10.4615
0.195139 -10.2808 -10.2808
-0.110568 -10.3592 -10.3592
0.0391329 -10.4555 -10.4555
0.19338 -10.371 -10.371
0.0436384 -10.2748 -10.2748
0.0413983 -10.365 -10.365
-0.113312 -10.4497 -10.4497
-0.118869 -10.6314 -10.6314
0.187938 -10.6434 -10.6434
0.191594 -10.4615 -10.4615
-0.116079 -10.5404 -10.5404
0.0345263 -10.6373 -10.6373
0.18978 -10.5523 -10.5523
0.0391329 -10.4555 -10.4555
0.0368422 -10.5462 -10.5462
-0.118869 -10.6314 -10.6314
-0.124517 -10.8143 -10.8143
0.18417 -10.8264 -10.8264
0.187938 -10.6434 -10.6434
-0.121682 -10.7227 -10.7227
0.0298189 -10.8202 -10.8202
0.186068 -10.7348 -10.7348
0.0345263 -10.6373 -10.6373
0.0321852 -10.7286 -10.7286
-0.124517 -10.8143 -10.8143
-0.130254 -10.9983 -10.9983
0.180293 -11.0105 -11.0105
0.18417 -10.8264 -10.8264
-0.127374 -10.9061 -10.9061
0.0250111 -11.0043 -11.0043
0.182245 -10.9183 -10.9183
0.0298189 -10.8202 -10.8202
0.0274275 -10.9121 -10.9121
-0.130254 -10.9983 -10.9983
-0.136082 -11.1833 -11.1833
0.176305 -11.1957 -11.1957
0.180293 -11.0105 -11.0105
-0.133157 -11.0907 -11.0907
0.0201033 -11.1894 -11.1894
0.178312 -11.103 -11.103
0.0250111 -11.0043 -11.0043
0.0225697 -11.0967 -11.0967
-0.136082 -11.1833 -11.1833
-0.141999 -11.3695 -11.3695
0.172207 -11.382 -11.382
0.176305 -11.1957 -11.1957
-0.139029 -11.2763 -11.2763
0.0150959 -11.3756 -11.3756
0.174269 -11.2887 -11.2887
0.0201033 -11.1894 -11.1894
0.017612 -11.2824 -11.2824
-0.141999 -11.3695 -11.3695
-0.148004 -11.5567 -11.5567
0.168 -11.5693 -11.5693
0.172207 -11.382 -11.382
-0.14499 -11.463 -11.463
0.00998937 -11.5629 -11.5629
0.170117 -11.4755 -11.4755
0.0150959 -11.3756 -11.3756
0.012555 -11.4691 -11.4691
-0.148004 -11.5567 -11.5567
-0.154099 -11.745 -11.745
0.163683 -11.7577 -11.7577
0.168 -11.5693 -11.5693
-0.15104 -11.6507 -11.6507
0.0047841 -11.7512 -11.7512
0.165855 -11.6634 -11.6634
0.00998937 -11.5629 -11.5629
0.00739904 -11.6569 -11.6569
-0.154099 -11.745 -11.745
-0.160281 -11.9343 -11.9343
0.159259 -11.9471 -11.9471
0.163683 -11.7577 -11.7577
-0.157179 -11.8395 -11.8395
-0.000519438 -11.9406 -11.9406
0.161485 -11.8523 -11.8523
0.0047841 -11.7512 -11.7512
0.00214458 -11.8458 -11.8458
-0.160281 -11.9343 -11.9343
-0.166551 -12.1247 -12.1247
0.154726 -12.1376 -12.1376
0.159259 -11.9471 -11.9471
-0.163405 -12.0294 -12.0294
-0.00592076 -12.131 -12.131
0.157006 -12.0423 -12.0423
-0.000519438 -11.9406 -11.9406
-0.00320791 -12.0357 -12.0357
-0.166551 -12.1247 -12.1247
-0.172908 -12.3161 -12.3161
0.150086 -12.3291 -12.3291
0.154726 -12.1376 -12.1376
-0.169719 -12.2202 -12.2202
-0.0114194 -12.3225 -12.3225
0.15242 -12.2333 -12.2333
-0.00592076 -12.131 -12.131
-0.00865795 -12.2266 -12.2266
-0.172908 -12.3161 -12.3161
-0.179352 -12.5085 -12.5085
0.145339 -12.5216 -12.5216
0.150086 -12.3291 -12.3291
-0.176119 -12.4121 -12.4121
-0.0170148 -12.5149 -12.5149
0.147726 -12.4253 -12.4253
-0.0114194 -12.3225 -12.3225
-0.014205 -12.4186 -12.4186
-0.179352 -12.5085 -12.5085
-0.185882 -12.7018 -12.7018
0.140486 -12.7152 -12.7152
0.145339 -12.5216 -12.5216
-0.182606 -12.605 -12.605
-0.0227065 -12.7084 -12.7084
0.142926 -12.6183 -12.6183
-0.0170148 -12.5149 -12.5149
-0.0198487 -12.6115 -12.6115
-0.185882 -12.7018 -12.7018
-0.192497 -12.8962 -12.8962
0.135526 -12.9096 -12.9096
0.140486 -12.7152 -12.7152
-0.189179 -12.7989 -12.7989
-0.028494 -12.9028 -12.9028
0.138019 -12.8123 -12.8123
-0.0227065 -12.7084 -12.7084
-0.0255883 -12.8055 -12.8055
-0.192497 -12.8962 -12.8962
-0.199198 -13.0916 -13.0916
0.130462 -13.1051 -13.1051
0.135526 -12.9096 -12.9096
-0.195837 -12.9938 -12.9938
-0.0343767 -13.0982 -13.0982
0.133007 -13.0073 -13.0073
-0.028494 -12.9028 -12.9028
-0.0314235 -13.0004 -13.0004
-0.199198 -13.0916 -13.0916
-0.205983 -13.2879 -13.2879
0.125292 -13.3015 -13.3015
0.130462 -13.1051 -13.1051
-0.20258 -13.1896 -13.1896
-0.040354 -13.2946 -13.2946
0.12789 -13.2032 -13.2032
-0.0343767 -13.0982 -13.0982
-0.0373536 -13.1963 -13.1963
-0.205983 -13.2879 -13.2879
-0.212851 -13.4851 -13.4851
0.120018 -13.4989 -13.4989
0.125292 -13.3015 -13.3015
-0.209406 -13.3864 -13.3864
-0.0464254 -13.4919 -13.4919
0.122668 -13.4001 -13.4001
-0.040354 -13.2946 -13.2946
-0.043378 -13.3932 -13.3932
-0.212851 -13.4851 -13.4851
-0.219803 -13.6833 -13.6833
0.11464 -13.6972 -13.6972
0.120018 -13.4989 -13.4989
-0.216317 -13.5841 -13.5841
-0.0525903 -13.6902 -13.6902
0.117342 -13.598 -13.598
-0.0464254 -13.4919 -13.4919
-0.0494962 -13.5909 -13.5909
-0.219803 -13.6833 -13.6833
-0.226838 -13.8825 -13.8825
0.10916 -13.8965 -13.8965
0.11464 -13.6972 -13.6972
-0.223311 -13.7828 -13.7828
-0.0588481 -13.8894 -13.8894
0.111913 -13.7967 -13.7967
-0.0525903 -13.6902 -13.6902
-0.0557077 -13.7897 -13.7897
-0.226838 -13.8825 -13.8825
-0.233955 -14.0825 -14.0825
0.103577 -14.0966 -14.0966
0.10916 -13.8965 -13.8965
-0.230386 -13.9824 -13.9824
-0.0651982 -14.0895 -14.0895
0.106381 -13.9964 -13.9964
-0.0588481 -13.8894 -13.8894
-0.0620117 -13.9893 -13.9893
-0.233955 -14.0825 -14.0825
-0.241154 -14.2835 -14.2835
0.0978917 -14.2977 -14.2977
0.103577 -14.0966 -14.0966
-0.237544 -14.1829 -14.1829
-0.07164 -14.2905 -14.2905
0.100747 -14.197 -14.197
-0.0651982 -14.0895 -14.0895
-0.0684077 -14.1899 -14.1899
-0.241154 -14.2835 -14.2835
-0.248433 -14.4853 -14.4853
0.0921056 -14.4996 -14.4996
0.0978917 -14.2977 -14.2977
-0.244783 -14.3843 -14.3843
-0.0781727 -14.4923 -14.4923
0.0950112 -14.3985 -14.3985
-0.07164 -14.2905 -14.2905
-0.074895 -14.3913 -14.3913
-0.248433 -14.4853 -14.4853
-0.255792 -14.688 -14.688
0.0862189 -14.7024 -14.7024
0.0921056 -14.4996 -14.4996
-0.252103 -14.5865 -14.5865
-0.0847958 -14.6951 -14.6951
0.0891747 -14.6009 -14.6009
-0.0781727 -14.4923 -14.4923
-0.081473 -14.5936 -14.5936
-0.255792 -14.688 -14.688
-0.263231 -14.8916 -14.8916
0.0802323 -14.9061 -14.9061
0.0862189 -14.7024 -14.7024
-0.259502 -14.7897 -14.7897
-0.0915086 -14.8987 -14.8987
0.083238 -14.8041 -14.8041
-0.0847958 -14.6951 -14.6951
-0.0881411 -14.7968 -14.7968
-0.263231 -14.8916 -14.8916
-0.270749 -15.096 -15.096
0.0741466 -15.1106 -15.1106
0.0802323 -14.9061 -14.9061
-0.26698 -14.9937 -14.9937
-0.0983105 -15.1032 -15.1032
0.0772018 -15.0083 -15.0083
-0.0915086 -14.8987 -14.8987
-0.0948985 -15.0009 -15.0009
-0.270749 -15.096 -15.096
-0.278345 -15.3013 -15.3013
0.0679623 -15.316 -15.316
0.0741466 -15.1106 -15.1106
-0.274537 -15.1985 -15.1985
-0.105201 -15.3085 -15.3085
0.0710667 -15.2132 -15.2132
-0.0983105 -15.1032 -15.1032
-0.101745 -15.2058 -15.2058
-0.278345 -15.3013 -15.3013
-0.286018 -15.5074 -15.5074
0.0616802 -15.5222 -15.5222
0.0679623 -15.316 -15.316
-0.282172 -15.4042 -15.4042
-0.112179 -15.5147 -15.5147
0.0648334 -15.419 -15.419
-0.105201 -15.3085 -15.3085
-0.108679 -15.4115 -15.4115
-0.286018 -15.5074 -15.5074
-0.293769 -15.7143 -15.7143
0.0553011 -15.7292 -15.7292
0.0616802 -15.5222 -15.5222
-0.289884 -15.6107 -15.6107
-0.119243 -15.7217 -15.7217
0.0585027 -15.6256 -15.6256
-0.112179 -15.5147 -15.5147
-0.1157 -15.6181 -15.6181
-0.293769 -15.7143 -15.7143
-0.301595 -15.922 -15.922
0.0488255 -15.937 -15.937
0.0553011 -15.7292 -15.7292
-0.297672 -15.818 -15.818
-0.126394 -15.9294 -15.9294
0.0520753 -15.833 -15.833
-0.119243 -15.7217 -15.7217
-0.122808 -15.8254 -15.8254
-0.301595 -15.922 -15.922
-0.309496 -16.1305 -16.1305
0.0422543 -16.1456 -16.1456
0.0488255 -15.937 -15.937
-0.305536 -16.0261 -16.0261
-0.133631 -16.138 -16.138
0.0455518 -16.0412 -16.0412
-0.126394 -15.9294 -15.9294
-0.130002 -16.0336 -16.0336
-0.309496 -16.1305 -16.1305
-0.317472 -16.3398 -16.3398
0.0355882 -16.355 -16.355
0.0422543 -16.1456 -16.1456
-0.313475 -16.235 -16.235
-0.140952 -16.3473 -16.3473
0.0389331 -16.2502 -16.2502
-0.133631 -16.138 -16.138
-0.137281 -16.2426 -16.2426
-0.317472 -16.3398 -16.3398
-0.325522 -16.5498 -16.5498
0.028828 -16.5652 -16.5652
0.0355882 -16.355 -16.355
-0.321488 -16.4447 -16.4447
-0.148357 -16.5574 -16.5574
0.0322198 -16.46 -16.46
-0.140952 -16.3473 -16.3473
-0.144644 -16.4523 -16.4523
-0.325522 -16.5498 -16.5498
-0.333645 -16.7607 -16.7607
0.0219744 -16.7761 -16.7761
0.028828 -16.5652 -16.5652
-0.329575 -16.6552 -16.6552
-0.155845 -16.7683 -16.7683
0.0254129 -16.6705 -16.6705
-0.148357 -16.5574 -16.5574
-0.152091 -16.6628 -16.6628
-0.333645 -16.7607 -16.7607
-0.34184 -16.9722 -16.9722
0.0150283 -16.9878 -16.9878
0.0219744 -16.7761 -16.7761
-0.337734 -16.8664 -16.8664
-0.163416 -16.9799 -16.9799
0.0185129 -16.8818 -16.8818
-0.155845 -16.7683 -16.7683
-0.15962 -16.874 -16.874
-0.34184 -16.9722 -16.9722
-0.350107 -17.1845 -17.1845
0.00799032 -17.2001 -17.2001
0.0150283 -16.9878 -16.9878
-0.345965 -17.0783 -17.0783
-0.171068 -17.1923 -17.1923
0.0115207 -17.0939 -17.0939
-0.163416 -16.9799 -16.9799
-0.167232 -17.086 -17.086
-0.350107 -17.1845 -17.1845
-0.358444 -17.3975 -17.3975
0.000861365 -17.4132 -17.4132
0.00799032 -17.2001 -17.2001
-0.354267 -17.2909 -17.2909
-0.178802 -17.4053 -17.4053
0.00443717 -17.3066 -17.3066
-0.171068 -17.1923 -17.1923
-0.174925 -17.2987 -17.2987
-0.358444 -17.3975 -17.3975
-0.366851 -17.6113 -17.6113
-0.00635777 -17.6271 -17.6271
0.000861365 -17.4132 -17.4132
-0.362639 -17.5043 -17.5043
-0.186615 -17.6191 -17.6191
-0.00273698 -17.5201 -17.5201
-0.178802 -17.4053 -17.4053
-0.182698 -17.5121 -17.5121
-0.366851 -17.6113 -17.6113
-0.375328 -17.8257 -17.8257
-0.0136663 -17.8416 -17.8416
-0.00635777 -17.6271 -17.6271
-0.371081 -17.7184 -17.7184
-0.194507 -17.8335 -17.8335
-0.0100009 -17.7342 -17.7342
-0.186615 -17.6191 -17.6191
-0.190551 -17.7262 -17.7262
-0.375328 -17.8257 -17.8257
-0.383872 -18.0408 -18.0408
-0.0210633 -18.0568 -18.0568
-0.0136663 -17.8416 -17.8416
-0.379591 -17.9331 -17.9331
-0.202478 -18.0487 -18.0487
-0.0173538 -17.9491 -17.9491
-0.194507 -17.8335 -17.8335
-0.198483 -17.941 -17.941
-0.383872 -18.0408 -18.0408
-0.392484 -18.2566 -18.2566
-0.028548 -18.2726 -18.2726
-0.0210633 -18.0568 -18.0568
-0.38817 -18.1486 -18.1486
-0.210526 -18.2645 -18.2645
-0.0247948 -18.1646 -18.1646
-0.202478 -18.0487 -18.0487
-0.206493 -18.1565 -18.1565
-0.392484 -18.2566 -18.2566
-0.401162 -18.473 -18.473
-0.0361196 -18.4891 -18.4891
-0.028548 -18.2726 -18.2726
-0.396815 -18.3647 -18.3647
-0.218652 -18.481 -18.481
-0.032323 -18.3808 -18.3808
-0.210526 -18.2645 -18.2645
-0.214579 -18.3727 -18.3727
-0.401162 -18.473 -18.473
-0.409906 -18.6901 -18.6901
-0.0437771 -18.7063 -18.7063
-0.0361196 -18.4891 -18.4891
-0.405526 -18.5815 -18.5815
-0.226852 -18.6981 -18.6981
-0.0399377 -18.5976 -18.5976
-0.218652 -18.481 -18.481
-0.222743 -18.5895 -18.5895
-0.409906 -18.6901 -18.6901
-0.418715 -18.9078 -18.9078
-0.0515198 -18.9241 -18.9241
-0.0437771 -18.7063 -18.7063
-0.414302 -18.7989 -18.7989
-0.235128 -18.9159 -18.9159
-0.0476379 -18.8151 -18.8151
-0.226852 -18.6981 -18.6981
-0.230981 -18.8069 -18.8069
-0.418715 -18.9078 -18.9078
-0.427588 -19.1261 -19.1261
-0.0593467 -19.1425 -19.1425
-0.0515198 -18.9241 -18.9241
-0.423143 -19.0169 -19.0169
-0.243478 -19.1343 -19.1343
-0.0554228 -19.0332 -19.0332
-0.235128 -18.9159 -18.9159
-0.239294 -19.025 -19.025
-0.427588 -19.1261 -19.1261
-0.436523 -19.3451 -19.3451
-0.0672569 -19.3616 -19.3616
-0.0593467 -19.1425 -19.1425
-0.432048 -19.2355 -19.2355
-0.251901 -19.3533 -19.3533
-0.0632914 -19.252 -19.252
-0.243478 -19.1343 -19.1343
-0.24768 -19.2437 -19.2437
-0.436523 -19.3451 -19.3451
-0.445521 -19.5647 -19.5647
-0.0752496 -19.5812 -19.5812
-0.0672569 -19.3616 -19.3616
-0.441014 -19.4548 -19.4548
-0.260396 -19.5729 -19.5729
-0.071243 -19.4713 -19.4713
-0.251901 -19.3533 -19.3533
-0.25614 -19.463 -19.463
-0.445521 -19.5647 -19.5647
-0.45458 -19.7848 -19.7848
-0.0833238 -19.8014 -19.8014
-0.0752496 -19.5812 -19.5812
-0.450043 -19.6747 -19.6747
-0.268963 -19.7931 -19.7931
-0.0792766 -19.6912 -19.6912
-0.260396 -19.5729 -19.5729
-0.264671 -19.6829 -19.6829
-0.45458 -19.7848 -19.7848
-0.4637 -20.0055 -20.0055
-0.0914787 -20.0222 -20.0222
-0.0833238 -19.8014 -19.8014
-0.459132 -19.8951 -19.8951
-0.2776 -20.0138 -20.0138
-0.0873913 -19.9117 -19.9117
-0.268963 -19.7931 -19.7931
-0.273273 -19.9034 -19.9034
-0.4637 -20.0055 -20.0055
-0.472878 -20.2268 -20.2268
-0.0997133 -20.2436 -20.2436
-0.0914787 -20.0222 -20.0222
-0.468282 -20.1161 -20.1161
-0.286307 -20.2351 -20.2351
-0.0955861 -20.1328 -20.1328
-0.2776 -20.0138 -20.0138
-0.281945 -20.1244 -20.1244
-0.472878 -20.2268 -20.2268
-0.482116 -20.4486 -20.4486
-0.108027 -20.4655 -20.4655
-0.0997133 -20.2436 -20.2436
-0.47749 -20.3377 -20.3377
-0.295083 -20.457 -20.457
-0.10386 -20.3545 -20.3545
-0.286307 -20.2351 -20.2351
-0.290687 -20.346 -20.346
-0.482116 -20.4486 -20.4486
-0.491411 -20.671 -20.671
-0.116418 -20.6879 -20.6879
-0.108027 -20.4655 -20.4655
-0.486756 -20.5598 -20.5598
-0.303926 -20.6794 -20.6794
-0.112213 -20.5766 -20.5766
-0.295083 -20.457 -20.457
-0.299496 -20.5681 -20.5681
-0.491411 -20.671 -20.671
-0.500762 -20.8939 -20.8939
-0.124886 -20.9109 -20.9109
-0.116418 -20.6879 -20.6879
-0.496079 -20.7824 -20.7824
-0.312836 -20.9024 -20.9024
-0.120642 -20.7993 -20.7993
-0.303926 -20.6794 -20.6794
-0.308373 -20.7908 -20.7908
-0.500762 -20.8939 -20.8939
-0.510169 -21.1174 -21.1174
-0.13343 -21.1344 -21.1344
-0.124886 -20.9109 -20.9109
-0.505459 -21.0056 -21.0056
-0.321812 -21.1258 -21.1258
-0.129149 -21.0226 -21.0226
-0.312836 -20.9024 -20.9024
-0.317316 -21.014 -21.014
-0.510169 -21.1174 -21.1174
-0.519631 -21.3413 -21.3413
-0.142049 -21.3584 -21.3584
-0.13343 -21.1344 -21.1344
-0.514893 -21.2293 -21.2293
-0.330852 -21.3498 -21.3498
-0.13773 -21.2463 -21.2463
-0.321812 -21.1258 -21.1258
-0.326324 -21.2377 -21.2377
-0.519631 -21.3413 -21.3413
-0.529147 -21.5657 -21.5657
-0.150742 -21.5829 -21.5829
-0.142049 -21.3584 -21.3584
-0.524382 -21.4534 -21.4534
-0.339957 -21.5742 -21.5742
-0.146387 -21.4706 -21.4706
-0.330852 -21.3498 -21.3498
-0.335396 -21.4619 -21.4619
-0.529147 -21.5657 -21.5657
-0.538715 -21.7906 -21.7906
-0.159509 -21.8078 -21.8078
-0.150742 -21.5829 -21.5829
-0.533924 -21.6781 -21.6781
-0.349124 -21.7991 -21.7991
-0.155116 -21.6953 -21.6953
-0.339957 -21.5742 -21.5742
-0.344532 -21.6866 -21.6866
-0.538715 -21.7906 -21.7906
-0.548335 -22.016 -22.016
-0.168347 -22.0332 -22.0332
-0.159509 -21.8078 -21.8078
-0.543519 -21.9032 -21.9032
-0.358353 -22.0245 -22.0245
-0.163919 -21.9205 -21.9205
-0.349124 -21.7991 -21.7991
-0.353731 -21.9118 -21.9118
-0.548335 -22.016 -22.016
-0.558006 -22.2418 -22.2418
-0.177256 -22.2591 -22.2591
-0.168347 -22.0332 -22.0332
-0.553164 -22.1288 -22.1288
-0.367643 -22.2504 -22.2504
-0.172793 -22.1461 -22.1461
-0.358353 -22.0245 -22.0245
-0.362991 -22.1374 -22.1374
-0.558006 -22.2418 -22.2418
-0.567727 -22.468 -22.468
-0.186236 -22.4854 -22.4854
-0.177256 -22.2591 -22.2591
-0.56286 -22.3548 -22.3548
-0.376994 -22.4767 -22.4767
-0.181737 -22.3722 -22.3722
-0.367643 -22.2504 -22.2504
-0.372311 -22.3635 -22.3635
-0.567727 -22.468 -22.468
-0.577496 -22.6947 -22.6947
-0.195284 -22.7122 -22.7122
-0.186236 -22.4854 -22.4854
-0.572605 -22.5813 -22.5813
-0.386403 -22.7034 -22.7034
-0.190751 -22.5987 -22.5987
-0.376994 -22.4767 -22.4767
-0.381691 -22.59 -22.59
-0.577496 -22.6947 -22.6947
-0.587313 -22.9218 -22.9218
-0.204401 -22.9393 -22.9393
-0.195284 -22.7122 -22.7122
-0.582399 -22.8082 -22.8082
-0.39587 -22.9305 -22.9305
-0.199834 -22.8257 -22.8257
-0.386403 -22.7034 -22.7034
-0.391129 -22.8169 -22.8169
-0.587313 -22.9218 -22.9218
-0.597178 -23.1494 -23.1494
-0.213585 -23.1669 -23.1669
-0.204401 -22.9393 -22.9393
-0.59224 -23.0356 -23.0356
-0.405394 -23.1581 -23.1581
-0.208985 -23.0531 -23.0531
-0.39587 -22.9305 -22.9305
-0.400625 -23.0443 -23.0443
-0.597178 -23.1494 -23.1494
-0.607088 -23.3773 -23.3773
-0.222835 -23.3949 -23.3949
-0.213585 -23.1669 -23.1669
-0.602127 -23.2633 -23.2633
-0.414974 -23.386 -23.386
-0.218202 -23.2808 -23.2808
-0.405394 -23.1581 -23.1581
-0.410177 -23.272 -23.272
-0.607088 -23.3773 -23.3773
-0.617042 -23.6056 -23.6056
-0.23215 -23.6232 -23.6232
-0.222835 -23.3949 -23.3949
-0.612059 -23.4914 -23.4914
-0.424609 -23.6144 -23.6144
-0.227484 -23.509 -23.509
-0.414974 -23.386 -23.386
-0.419785 -23.5002 -23.5002
-0.617042 -23.6056 -23.6056
-0.627041 -23.8343 -23.8343
-0.241528 -23.8519 -23.8519
-0.23215 -23.6232 -23.6232
-0.622036 -23.7199 -23.7199
-0.434298 -23.8431 -23.8431
-0.236831 -23.7375 -23.7375
-0.424609 -23.6144 -23.6144
-0.429447 -23.7287 -23.7287
-0.627041 -23.8343 -23.8343
-0.637082 -24.0633 -24.0633
-0.25097 -24.081 -24.081
-0.241528 -23.8519 -23.8519
-0.632056 -23.9487 -23.9487
-0.444039 -24.0721 -24.0721
-0.246242 -23.9664 -23.9664
-0.434298 -23.8431 -23.8431
-0.439162 -23.9575 -23.9575
-0.637082 -24.0633 -24.0633
-0.647164 -24.2927 -24.2927
-0.260474 -24.3104 -24.3104
-0.25097 -24.081 -24.081
-0.642118 -24.1779 -24.1779
-0.453833 -24.3015 -24.3015
-0.255715 -24.1957 -24.1957
-0.444039 -24.0721 -24.0721
-0.44893 -24.1868 -24.1868
-0.647164 -24.2927 -24.2927
-0.657288 -24.5224 -24.5224
-0.270039 -24.5402 -24.5402
-0.260474 -24.3104 -24.3104
-0.652221 -24.4075 -24.4075
-0.463677 -24.5313 -24.5313
-0.265249 -24.4253 -24.4253
-0.453833 -24.3015 -24.3015
-0.458748 -24.4163 -24.4163
-0.657288 -24.5224 -24.5224
-0.667451 -24.7524 -24.7524
-0.279664 -24.7703 -24.7703
-0.270039 -24.5402 -24.5402
-0.662364 -24.6374 -24.6374
-0.473571 -24.7613 -24.7613
-0.274844 -24.6552 -24.6552
-0.463677 -24.5313 -24.5313
-0.468618 -24.6462 -24.6462
-0.667451 -24.7524 -24.7524
-0.677652 -24.9828 -24.9828
-0.289347 -25.0007 -25.0007
-0.279664 -24.7703 -24.7703
-0.672547 -24.8676 -24.8676
-0.483513 -24.9917 -24.9917
-0.284498 -24.8854 -24.8854
-0.473571 -24.7613 -24.7613
-0.478536 -24.8765 -24.8765
-0.677652 -24.9828 -24.9828
-0.687891 -25.2134 -25.2134
-0.299088 -25.2313 -25.2313
-0.289347 -25.0007 -25.0007
-0.682767 -25.0981 -25.0981
-0.493504 -25.2223 -25.2223
-0.29421 -25.116 -25.116
-0.483513 -24.9917 -24.9917
-0.488503 -25.107 -25.107
-0.687891 -25.2134 -25.2134
-0.698167 -25.4443 -25.4443
-0.308886 -25.4623 -25.4623
-0.299088 -25.2313 -25.2313
-0.693024 -25.3288 -25.3288
-0.50354 -25.4533 -25.4533
-0.30398 -25.3468 -25.3468
-0.493504 -25.2223 -25.2223
-0.498516 -25.3378 -25.3378
-0.698167 -25.4443 -25.4443
-0.708477 -25.6756 -25.6756
-0.31874 -25.6936 -25.6936
-0.308886 -25.4623 -25.4623
-0.703318 -25.5599 -25.5599
-0.513622 -25.6845 -25.6845
-0.313806 -25.5779 -25.5779
-0.50354 -25.4533 -25.4533
-0.508576 -25.5689 -25.5689
-0.708477 -25.6756 -25.6756
-0.718822 -25.907 -25.907
-0.328648 -25.9251 -25.9251
-0.31874 -25.6936 -25.6936
-0.713646 -25.7913 -25.7913
-0.523749 -25.916 -25.916
-0.323687 -25.8093 -25.8093
-0.513622 -25.6845 -25.6845
-0.51868 -25.8002 -25.8002
-0.718822 -25.907 -25.907
-0.729201 -26.1388 -26.1388
-0.338609 -26.1568 -26.1568
-0.328648 -25.9251 -25.9251
-0.724007 -26.0229 -26.0229
-0.533919 -26.1478 -26.1478
-0.333622 -26.0409 -26.0409
-0.523749 -25.916 -25.916
-0.528829 -26.0319 -26.0319
-0.729201 -26.1388 -26.1388
-0.739611 -26.3707 -26.3707
-0.348623 -26.3888 -26.3888
-0.338609 -26.1568 -26.1568
-0.734402 -26.2547 -26.2547
-0.544131 -26.3797 -26.3797
-0.34361 -26.2728 -26.2728
-0.533919 -26.1478 -26.1478
-0.53902 -26.2637 -26.2637
-0.739611 -26.3707 -26.3707
-0.750052 -26.6029 -26.6029
-0.358688 -26.621 -26.621
-0.348623 -26.3888 -26.3888
-0.744828 -26.4868 -26.4868
-0.554385 -26.6119 -26.6119
-0.353649 -26.5049 -26.5049
-0.544131 -26.3797 -26.3797
-0.549253 -26.4958 -26.4958
-0.750052 -26.6029 -26.6029
-0.760524 -26.8353 -26.8353
-0.368804 -26.8534 -26.8534
-0.358688 -26.621 -26.621
-0.755284 -26.7191 -26.7191
-0.564678 -26.8444 -26.8444
-0.36374 -26.7372 -26.7372
-0.554385 -26.6119 -26.6119
-0.559527 -26.7281 -26.7281
-0.760524 -26.8353 -26.8353
-0.771024 -27.0679 -27.0679
-0.378969 -27.0861 -27.0861
-0.368804 -26.8534 -26.8534
-0.76577 -26.9516 -26.9516
-0.575011 -27.077 -27.077
-0.37388 -26.9697 -26.9697
-0.564678 -26.8444 -26.8444
-0.56984 -26.9606 -26.9606
-0.771024 -27.0679 -27.0679
-0.781552 -27.3007 -27.3007
-0.389181 -27.3189 -27.3189
-0.378969 -27.0861 -27.0861
-0.776284 -27.1843 -27.1843
-0.585381 -27.3098 -27.3098
-0.384069 -27.2025 -27.2025
-0.575011 -27.077 -27.077
-0.580191 -27.1934 -27.1934
-0.781552 -27.3007 -27.3007
-0.792107 -27.5337 -27.5337
-0.399441 -27.5519 -27.5519
-0.389181 -27.3189 -27.3189
-0.786826 -27.4172 -27.4172
-0.595789 -27.5428 -27.5428
-0.394305 -27.4354 -27.4354
-0.585381 -27.3098 -27.3098
-0.590581 -27.4263 -27.4263
-0.792107 -27.5337 -27.5337
-0.802687 -27.7669 -27.7669
-0.409747 -27.7851 -27.7851
-0.399441 -27.5519 -27.5519
-0.797394 -27.6503 -27.6503
-0.606232 -27.7759 -27.7759
-0.404588 -27.6685 -27.6685
-0.595789 -27.5428 -27.5428
-0.601006 -27.6593 -27.6593
-0.802687 -27.7669 -27.7669
-0.813292 -28.0002 -28.0002
-0.420097 -28.0184 -28.0184
-0.409747 -27.7851 -27.7851
-0.807986 -27.8835 -27.8835
-0.61671 -28.0093 -28.0093
-0.414917 -27.9017 -27.9017
-0.606232 -27.7759 -27.7759
-0.611467 -27.8926 -27.8926
-0.813292 -28.0002 -28.0002
-0.823921 -28.2336 -28.2336
-0.430492 -28.2518 -28.2518
-0.420097 -28.0184 -28.0184
-0.818604 -28.1169 -28.1169
-0.627222 -28.2427 -28.2427
-0.425289 -28.1351 -28.1351
-0.61671 -28.0093 -28.0093
-0.621962 -28.126 -28.126
-0.823921 -28.2336 -28.2336
-0.834572 -28.4672 -28.4672
-0.440929 -28.4854 -28.4854
-0.430492 -28.2518 -28.2518
-0.829244 -28.3504 -28.3504
-0.637767 -28.4763 -28.4763
-0.435705 -28.3686 -28.3686
-0.627222 -28.2427 -28.2427
-0.63249 -28.3595 -28.3595
-0.834572 -28.4672 -28.4672
-0.845246 -28.7009 -28.7009
-0.451409 -28.7191 -28.7191
-0.440929 -28.4854 -28.4854
-0.839906 -28.584 -28.584
-0.648344 -28.71 -28.71
-0.446164 -28.6023 -28.6023
-0.637767 -28.4763 -28.4763
-0.643051 -28.5931 -28.5931
-0.845246 -28.7009 -28.7009
-0.855941 -28.9347 -28.9347
-0.461931 -28.9529 -28.9529
-0.451409 -28.7191 -28.7191
-0.850591 -28.8178 -28.8178
-0.658953 -28.9438 -28.9438
-0.456665 -28.836 -28.836
-0.648344 -28.71 -28.71
-0.653644 -28.8269 -28.8269
-0.855941 -28.9347 -28.9347
-0.866657 -29.1686 -29.1686
-0.472496 -29.1868 -29.1868
-0.461931 -28.9529 -28.9529
-0.861296 -29.0516 -29.0516
-0.669595 -29.1777 -29.1777
-0.467208 -29.0699 -29.0699
-0.658953 -28.9438 -28.9438
-0.66427 -29.0607 -29.0607
-0.866657 -29.1686 -29.1686
-0.877394 -29.4026 -29.4026
-0.483104 -29.4208 -29.4208
-0.472496 -29.1868 -29.1868
-0.872023 -29.2856 -29.2856
-0.680269 -29.4117 -29.4117
-0.477794 -29.3038 -29.3038
-0.669595 -29.1777 -29.1777
-0.674928 -29.2947 -29.2947
-0.877394 -29.4026 -29.4026
-0.888153 -29.6367 -29.6367
-0.493757 -29.6549 -29.6549
-0.483104 -29.4208 -29.4208
-0.882771 -29.5196 -29.5196
-0.690977 -29.6458 -29.6458
-0.488424 -29.5378 -29.5378
-0.680269 -29.4117 -29.4117
-0.685619 -29.5287 -29.5287
-0.888153 -29.6367 -29.6367
-0.898931 -29.8708 -29.8708
-0.504457 -29.889 -29.889
-0.493757 -29.6549 -29.6549
-0.89354 -29.7537 -29.7537
-0.70172 -29.8799 -29.8799
-0.499101 -29.7719 -29.7719
-0.690977 -29.6458 -29.6458
-0.696345 -29.7628 -29.7628
-0.898931 -29.8708 -29.8708
-0.909726 -30.1049 -30.1049
-0.515204 -30.1232 -30.1232
-0.504457 -29.889 -29.889
-0.904327 -29.9879 -29.9879
-0.712494 -30.1141 -30.1141
-0.509825 -30.0061 -30.0061
-0.70172 -29.8799 -29.8799
-0.707104 -29.997 -29.997
-0.909726 -30.1049 -30.1049
-0.920529 -30.3391 -30.3391
-0.525989 -30.3574 -30.3574
-0.515204 -30.1232 -30.1232
-0.915127 -30.222 -30.222
-0.723287 -30.3482 -30.3482
-0.520594 -30.2403 -30.2403
-0.712494 -30.1141 -30.1141
-0.71789 -30.2312 -30.2312
-0.920529 -30.3391 -30.3391
-0.931329 -30.5732 -30.5732
-0.536779 -30.5916 -30.5916
-0.525989 -30.3574 -30.3574
-0.92593 -30.4562 -30.4562
-0.734077 -30.5824 -30.5824
-0.531386 -30.4745 -30.4745
-0.723287 -30.3482 -30.3482
-0.728684 -30.4653 -30.4653
-0.931329 -30.5732 -30.5732
-0.942104 -30.8072 -30.8072
-0.547537 -30.8257 -30.8257
-0.536779 -30.5916 -30.5916
-0.93672 -30.6903 -30.6903
-0.744845 -30.8164 -30.8164
-0.542164 -30.7087 -30.7087
-0.734077 -30.5824 -30.5824
-0.739465 -30.6994 -30.6994
0 0 0
0.00528228 -0.000568948 -0.000568948
0.00911168 -0.00261798 -0.00261798
0 0 0
0.00256034 0.000150673 0.000150673
0.00712693 -0.00134724 -0.00134724
0.00442286 -0.000942271 -0.000942271
0 0 0
0.00350941 -0.000294286 -0.000294286
0.00528228 -0.000568948 -0.000568948
0.0109692 -0.00417769 -0.00417769
0.0189724 -0.00754422 -0.00754422
0.00911168 -0.00261798 -0.00261798
0.0080904 -0.00202901 -0.00202901
0.014836 -0.00557386 -0.00557386
0.0139953 -0.0048434 -0.0048434
0.00712693 -0.00134724 -0.00134724
0.0109201 -0.00313892 -0.00313892
0.0109692 -0.00417769 -0.00417769
0.0168908 -0.0104085 -0.0104085
0.0289202 -0.0143079 -0.0143079
0.0189724 -0.00754422 -0.00754422
0.0139124 -0.00698227 -0.00698227
0.0227876 -0.0120887 -0.0120887
0.0239527 -0.0106889 -0.0106889
0.014836 -0.00557386 -0.00557386
0.0188021 -0.00855929 -0.00855929
0.0168908 -0.0104085 -0.0104085
0.0228563 -0.0190301 -0.0190301
0.0388119 -0.0231076 -0.0231076
0.0289202 -0.0143079 -0.0143079
0.0198749 -0.0144269 -0.0144269
0.0307486 -0.0208187 -0.0208187
0.0338756 -0.0184414 -0.0184414
0.0227876 -0.0120887 -0.0120887
0.0267736 -0.0161746 -0.0161746
0.0228563 -0.0190301 -0.0190301
0.0287936 -0.0299787 -0.0299787
0.0486101 -0.0340877 -0.0340877
0.0388119 -0.0231076 -0.0231076
0.0258313 -0.0242153 -0.0242153
0.0386394 -0.0317893 -0.0317893
0.0437223 -0.0283189 -0.0283189
0.0307486 -0.0208187 -0.0208187
0.0347042 -0.0260215 -0.0260215
0.0287936 -0.0299787 -0.0299787
0.0346648 -0.0432299 -0.0432299
0.0583315 -0.0473328 -0.0473328
0.0486101 -0.0340877 -0.0340877
0.031738 -0.0363169 -0.0363169
0.0464502 -0.0450403 -0.0450403
0.05348 -0.0404247 -0.0404247
0.0386394 -0.0317893 -0.0317893
0.0425546 -0.0381285 -0.0381285
0.0346648 -0.0432299 -0.0432299
0.0404698 -0.0587797 -0.0587797
0.0679777 -0.0628676 -0.0628676
0.0583315 -0.0473328 -0.0473328
0.0375754 -0.0507178 -0.0507178
0.0541839 -0.060583 -0.060583
0.0631637 -0.0548133 -0.0548133
0.0464502 -0.0450403 -0.0450403
0.0503264 -0.0525249 -0.0525249
0.0404698 -0.0587797 -0.0587797
0.0462098 -0.0766205 -0.0766205
0.077554 -0.0806993 -0.0806993
0.0679777 -0.0628676 -0.0628676
0.0433477 -0.0674142 -0.0674142
0.0618466 -0.0784195 -0.0784195
0.0727745 -0.0714965 -0.0714965
0.0541839 -0.060583 -0.060583
0.0580238 -0.0692148 -0.0692148
0.0462098 -0.0766205 -0.0766205
0.0518902 -0.0967448 -0.0967448
0.0870602 -0.100822 -0.100822
0.077554 -0.0806993 -0.0806993
0.0490573 -0.0863978 -0.0863978
0.0694422 -0.0985431 -0.0985431
0.0823159 -0.0904747 -0.0904747
0.0618466 -0.0784195 -0.0784195
0.0656526 -0.088196 -0.088196
0.0518902 -0.0967448 -0.0967448
0.0575134 -0.119143 -0.119143
0.096496 -0.123225 -0.123225
0.0870602 -0.100822 -0.100822
0.0547088 -0.10766 -0.10766
0.0769729 -0.120944 -0.120944
0.091787 -0.111739 -0.111739
0.0694422 -0.0985431 -0.0985431
0.0732156 -0.10946 -0.10946
0.0575134 -0.119143 -0.119143
0.0630809 -0.143803 -0.143803
0.10586 -0.147896 -0.147896
0.096496 -0.123225 -0.123225
0.0603041 -0.131191 -0.131191
0.0844393 -0.145611 -0.145611
0.101187 -0.135278 -0.135278
0.0769729 -0.120944 -0.120944
0.0807141 -0.132995 -0.132995
0.0630809 -0.143803 -0.143803
0.068593 -0.170715 -0.170715
0.11515 -0.174824 -0.174824
0.10586 -0.147896 -0.147896
0.0658439 -0.156979 -0.156979
0.0918408 -0.172532 -0.172532
0.110514 -0.161079 -0.161079
0.0844393 -0.145611 -0.145611
0.0881482 -0.158791 -0.158791
0.068593 -0.170715 -0.170715
0.0740488 -0.199866 -0.199866
0.124365 -0.203996 -0.203996
0.11515 -0.174824 -0.174824
0.0713279 -0.185012 -0.185012
0.0991765 -0.201695 -0.201695
0.119767 -0.189131 -0.189131
0.0918408 -0.172532 -0.172532
0.095517 -0.186834 -0.186834
0.0740488 -0.199866 -0.199866
0.0794471 -0.231245 -0.231245
0.133503 -0.235399 -0.235399
0.124365 -0.203996 -0.203996
0.0767552 -0.215278 -0.215278
0.106445 -0.233087 -0.233087
0.128944 -0.219419 -0.219419
0.0991765 -0.201695 -0.201695
0.102819 -0.217113 -0.217113
0.0794471 -0.231245 -0.231245
0.0847867 -0.264839 -0.264839
0.142562 -0.26902 -0.26902
0.133503 -0.235399 -0.235399
0.0821244 -0.247766 -0.247766
0.113644 -0.266695 -0.266695
0.138043 -0.251933 -0.251933
0.106445 -0.233087 -0.233087
0.110053 -0.249615 -0.249615
0.0847867 -0.264839 -0.264839
0.0900657 -0.300636 -0.300636
0.15154 -0.304847 -0.304847
0.142562 -0.26902 -0.26902
0.0874338 -0.282463 -0.282463
0.120773 -0.302509 -0.302509
0.147061 -0.286659 -0.286659
0.113644 -0.266695 -0.266695
0.117218 -0.284327 -0.284327
0.0900657 -0.300636 -0.300636
0.0952826 -0.338624 -0.338624
0.160436 -0.342869 -0.342869
0.15154 -0.304847 -0.304847
0.092682 -0.319357 -0.319357
0.12783 -0.340515 -0.340515
0.155999 -0.323585 -0.323585
0.120773 -0.302509 -0.302509
0.12431 -0.321239 -0.321239
0.0952826 -0.338624 -0.338624
0.100436 -0.378791 -0.378791
0.169248 -0.383072 -0.383072
0.160436 -0.342869 -0.342869
0.0978673 -0.358436 -0.358436
0.134812 -0.380701 -0.380701
0.164853 -0.362698 -0.362698
0.12783 -0.340515 -0.340515
0.13133 -0.360336 -0.360336
0.100436 -0.378791 -0.378791
0.105524 -0.421124 -0.421124
0.177973 -0.425444 -0.425444
0.169248 -0.383072 -0.383072
0.102988 -0.399687 -0.399687
0.141719 -0.423055 -0.423055
0.173621 -0.403987 -0.403987
0.134812 -0.380701 -0.380701
0.138275 -0.401608 -0.401608
0.105524 -0.421124 -0.421124
0.110544 -0.465611 -0.465611
0.186612 -0.469973 -0.469973
0.177973 -0.425444 -0.425444
0.108042 -0.443099 -0.443099
0.148549 -0.467564 -0.467564
0.182304 -0.447439 -0.447439
0.141719 -0.423055 -0.423055
0.145144 -0.445041 -0.445041
0.110544 -0.465611 -0.465611
0.115496 -0.51224 -0.51224
0.195161 -0.516646 -0.516646
0.186612 -0.469973 -0.469973
0.113029 -0.488659 -0.488659
0.155299 -0.514217 -0.514217
0.190898 -0.493042 -0.493042
0.148549 -0.467564 -0.467564
0.151934 -0.490623 -0.490623
0.115496 -0.51224 -0.51224
0.120378 -0.560999 -0.560999
0.203619 -0.565452 -0.565452
0.195161 -0.516646 -0.516646
0.117946 -0.536354 -0.536354
0.16197 -0.563 -0.563
0.199402 -0.540784 -0.540784
0.155299 -0.514217 -0.514217
0.158645 -0.538343 -0.538343
0.120378 -0.560999 -0.560999
0.125188 -0.611876 -0.611876
0.211986 -0.616378 -0.616378
0.203619 -0.565452 -0.565452
0.122792 -0.586173 -0.586173
0.168558 -0.613903 -0.613903
0.207814 -0.590651 -0.590651
0.16197 -0.563 -0.563
0.165274 -0.588188 -0.588188
0.125188 -0.611876 -0.611876
0.129925 -0.664857 -0.664857
0.220258 -0.669412 -0.669412
0.211986 -0.616378 -0.616378
0.127566 -0.638104 -0.638104
0.175063 -0.666912 -0.666912
0.216134 -0.642633 -0.642633
0.168558 -0.613903 -0.613903
0.171821 -0.640145 -0.640145
0.129925 -0.664857 -0.664857
0.134587 -0.719932 -0.719932
0.228435 -0.724542 -0.724542
0.220258 -0.669412 -0.669412
0.132265 -0.692134 -0.692134
0.181482 -0.722016 -0.722016
0.224359 -0.696716 -0.696716
0.175063 -0.666912 -0.666912
0.178283 -0.694203 -0.694203
0.134587 -0.719932 -0.719932
0.139172 -0.777088 -0.777088
0.236516 -0.781755 -0.781755
0.228435 -0.724542 -0.724542
0.136889 -0.748251 -0.748251
0.187816 -0.779201 -0.779201
0.232488 -0.752889 -0.752889
0.181482 -0.722016 -0.722016
0.18466 -0.750349 -0.750349
0.139172 -0.777088 -0.777088
0.14368 -0.836312 -0.836312
0.244499 -0.841039 -0.841039
0.236516 -0.781755 -0.781755
0.141436 -0.806442 -0.806442
0.194061 -0.838456 -0.838456
0.24052 -0.811139 -0.811139
0.187816 -0.779201 -0.779201
0.19095 -0.808571 -0.808571
0.14368 -0.836312 -0.836312
0.148109 -0.897593 -0.897593
0.252382 -0.902381 -0.902381
0.244499 -0.841039 -0.841039
0.145905 -0.866696 -0.866696
0.200217 -0.899769 -0.899769
0.248453 -0.871453 -0.871453
0.194061 -0.838456 -0.838456
0.197151 -0.868856 -0.868856
0.148109 -0.897593 -0.897593
0.152458 -0.960918 -0.960918
0.260164 -0.96577 -0.96577
0.252382 -0.902381 -0.902381
0.150294 -0.929001 -0.929001
0.206283 -0.963128 -0.963128
0.256285 -0.933821 -0.933821
0.200217 -0.899769 -0.899769
0.203262 -0.931194 -0.931194
0.152458 -0.960918 -0.960918
0.156725 -1.02628 -1.02628
0.267844 -1.03119 -1.03119
0.260164 -0.96577 -0.96577
0.154602 -0.993343 -0.993343
0.212256 -1.02852 -1.02852
0.264017 -0.998228 -0.998228
0.206283 -0.963128 -0.963128
0.209281 -0.99557 -0.99557
0.156725 -1.02628 -1.02628
0.160909 -1.09365 -1.09365
0.27542 -1.09864 -1.09864
0.267844 -1.03119 -1.03119
0.158827 -1.05971 -1.05971
0.218137 -1.09593 -1.09593
0.271645 -1.06466 -1.06466
0.212256 -1.02852 -1.02852
0.215208 -1.06197 -1.06197
0.160909 -1.09365 -1.09365
0.165008 -1.16304 -1.16304
0.282892 -1.16809 -1.16809
0.27542 -1.09864 -1.09864
0.162969 -1.12809 -1.12809
0.223923 -1.16535 -1.16535
0.279169 -1.13312 -1.13312
0.218137 -1.09593 -1.09593
0.221042 -1.13039 -1.13039
0.165008 -1.16304 -1.16304
0.169022 -1.23442 -1.23442
0.290257 -1.23955 -1.23955
0.282892 -1.16809 -1.16809
0.167026 -1.19848 -1.19848
0.229612 -1.23677 -1.23677
0.286588 -1.20357 -1.20357
0.223923 -1.16535 -1.16535
0.22678 -1.20081 -1.20081
0.169022 -1.23442 -1.23442
0.172949 -1.30778 -1.30778
0.297516 -1.31298 -1.31298
0.290257 -1.23955 -1.23955
0.170997 -1.27085 -1.27085
0.235205 -1.31017 -1.31017
0.2939 -1.27602 -1.27602
0.229612 -1.23677 -1.23677
0.232421 -1.27322 -1.27322
0.172949 -1.30778 -1.30778
0.176789 -1.38311 -1.38311
0.304666 -1.38839 -1.38839
0.297516 -1.31298 -1.31298
0.17488 -1.3452 -1.3452
0.2407 -1.38554 -1.38554
0.301104 -1.35044 -1.35044
0.235205 -1.31017 -1.31017
0.237965 -1.34761 -1.34761
0.176789 -1.38311 -1.38311
0.180539 -1.4604 -1.4604
0.311706 -1.46576 -1.46576
0.304666 -1.38839 -1.38839
0.178675 -1.42151 -1.42151
0.246096 -1.46288 -1.46288
0.3082 -1.42683 -1.42683
0.2407 -1.38554 -1.38554
0.24341 -1.42397 -1.42397
0.180539 -1.4604 -1.4604
0.184199 -1.53964 -1.53964
0.318636 -1.54508 -1.54508
0.311706 -1.46576 -1.46576
0.18238 -1.49978 -1.49978
0.25139 -1.54216 -1.54216
0.315185 -1.50518 -1.50518
0.246096 -1.46288 -1.46288
0.248756 -1.50227 -1.50227
0.184199 -1.53964 -1.53964
0.187767 -1.62082 -1.62082
0.325454 -1.62634 -1.62634
0.318636 -1.54508 -1.54508
0.185994 -1.57999 -1.57999
0.256584 -1.62337 -1.62337
0.322059 -1.58547 -1.58547
0.25139 -1.54216 -1.54216
0.254 -1.58252 -1.58252
0.187767 -1.62082 -1.62082
0.191243 -1.70391 -1.70391
0.332159 -1.70952 -1.70952
0.325454 -1.62634 -1.62634
0.189517 -1.66212 -1.66212
0.261674 -1.70651 -1.70651
0.328821 -1.66769 -1.66769
0.256584 -1.62337 -1.62337
0.259142 -1.6647 -1.6647
0.191243 -1.70391 -1.70391
0.194626 -1.78892 -1.78892
0.33875 -1.79461 -1.79461
0.332159 -1.70952 -1.70952
0.192946 -1.74618 -1.74618
0.266661 -1.79156 -1.79156
0.335469 -1.75183 -1.75183
0.261674 -1.70651 -1.70651
0.264181 -1.7488 -1.7488
0.194626 -1.78892 -1.78892
0.197914 -1.87582 -1.87582
0.345226 -1.8816 -1.8816
0.33875 -1.79461 -1.79461
0.196282 -1.83213 -1.83213
0.271543 -1.87851 -1.87851
0.342002 -1.83787 -1.83787
0.266661 -1.79156 -1.79156
0.269115 -1.8348 -1.8348
0.197914 -1.87582 -1.87582
0.201106 -1.96461 -1.96461
0.351586 -1.97048 -1.97048
0.345226 -1.8816 -1.8816
0.199522 -1.91998 -1.91998
0.27632 -1.96734 -1.96734
0.34842 -1.9258 -1.9258
0.271543 -1.87851 -1.87851
0.273945 -1.92269 -1.92269
0.201106 -1.96461 -1.96461
0.204202 -2.05527 -2.05527
0.357829 -2.06123 -2.06123
0.351586 -1.97048 -1.97048
0.202666 -2.0097 -2.0097
0.280989 -2.05805 -2.05805
0.354722 -2.01562 -2.01562
0.27632 -1.96734 -1.96734
0.278668 -2.01246 -2.01246
0.204202 -2.05527 -2.05527
0.207201 -2.14779 -2.14779
0.363954 -2.15384 -2.15384
0.357829 -2.06123 -2.06123
0.205714 -2.1013 -2.1013
0.285552 -2.15062 -2.15062
0.360906 -2.1073 -2.1073
0.280989 -2.05805 -2.05805
0.283284 -2.1041 -2.1041
0.207201 -2.14779 -2.14779
0.210101 -2.24216 -2.24216
0.369961 -2.24831 -2.24831
0.363954 -2.15384 -2.15384
0.208664 -2.19474 -2.19474
0.290005 -2.24504 -2.24504
0.366972 -2.20084 -2.20084
0.285552 -2.15062 -2.15062
0.287792 -2.1976 -2.1976
0.210101 -2.24216 -2.24216
0.212902 -2.33837 -2.33837
0.375848 -2.34461 -2.34461
0.369961 -2.24831 -2.24831
0.211514 -2.29003 -2.29003
0.294349 -2.34129 -2.34129
0.372919 -2.29623 -2.29623
0.290005 -2.24504 -2.24504
0.292191 -2.29294 -2.29294
0.212902 -2.33837 -2.33837
0.215604 -2.4364 -2.4364
0.381614 -2.44274 -2.44274
0.375848 -2.34461 -2.34461
0.214266 -2.38716 -2.38716
0.298583 -2.43937 -2.43937
0.378746 -2.39345 -2.39345
0.294349 -2.34129 -2.34129
0.29648 -2.39011 -2.39011
0.215604 -2.4364 -2.4364
0.218204 -2.53624 -2.53624
0.387259 -2.54268 -2.54268
0.381614 -2.44274 -2.44274
0.216916 -2.48609 -2.48609
0.302705 -2.53927 -2.53927
0.384451 -2.49248 -2.49248
0.298583 -2.43937 -2.43937
0.300658 -2.4891 -2.4891
0.218204 -2.53624 -2.53624
0.220702 -2.63789 -2.63789
0.392781 -2.64442 -2.64442
0.387259 -2.54268 -2.54268
0.219466 -2.58684 -2.58684
0.306716 -2.64096 -2.64096
0.390035 -2.59333 -2.59333
0.302705 -2.53927 -2.53927
0.304725 -2.58989 -2.58989
0.220702 -2.63789 -2.63789
0.223098 -2.74132 -2.74132
0.398181 -2.74796 -2.74796
0.392781 -2.64442 -2.64442
0.221913 -2.68938 -2.68938
0.310614 -2.74445 -2.74445
0.395497 -2.69597 -2.69597
0.306716 -2.64096 -2.64096
0.308679 -2.69248 -2.69248
0.223098 -2.74132 -2.74132
0.225391 -2.84652 -2.84652
0.403457 -2.85326 -2.85326
0.398181 -2.74796 -2.74796
0.224257 -2.7937 -2.7937
0.314398 -2.8497 -2.8497
0.400835 -2.80039 -2.80039
0.310614 -2.74445 -2.74445
0.31252 -2.79685 -2.79685
0.225391 -2.84652 -2.84652
0.227579 -2.95349 -2.95349
0.408609 -2.96034 -2.96034
0.403457 -2.85326 -2.85326
0.226498 -2.89979 -2.89979
0.318068 -2.95673 -2.95673
0.406048 -2.90658 -2.90658
0.314398 -2.8497 -2.8497
0.316248 -2.903 -2.903
0.227579 -2.95349 -2.95349
0.229663 -3.06221 -3.06221
0.413635 -3.06916 -3.06916
0.408609 -2.96034 -2.96034
0.228634 -3.00764 -3.00764
0.321624 -3.0655 -3.0655
0.411137 -3.01453 -3.01453
0.318068 -2.95673 -2.95673
0.31986 -3.0109 -3.0109
0.229663 -3.06221 -3.06221
0.231642 -3.17267 -3.17267
0.418536 -3.17973 -3.17973
0.413635 -3.06916 -3.06916
0.230666 -3.11723 -3.11723
0.325063 -3.17602 -3.17602
0.416101 -3.12423 -3.12423
0.321624 -3.0655 -3.0655
0.323358 -3.12054 -3.12054
0.231642 -3.17267 -3.17267
0.233514 -3.28486 -3.28486
0.42331 -3.29202 -3.29202
0.418536 -3.17973 -3.17973
0.232591 -3.22855 -3.22855
0.328387 -3.28826 -3.28826
0.420938 -3.23566 -3.23566
0.325063 -3.17602 -3.17602
0.32674 -3.23192 -3.23192
0.233514 -3.28486 -3.28486
0.23528 -3.39876 -3.39876
0.427956 -3.40603 -3.40603
0.42331 -3.29202 -3.29202
0.23441 -3.3416 -3.3416
0.331593 -3.40221 -3.40221
0.425649 -3.34881 -3.34881
0.328387 -3.28826 -3.28826
0.330004 -3.34502 -3.34502
0.23528 -3.39876 -3.39876
0.236939 -3.51437 -3.51437
0.432476 -3.52174 -3.52174
0.427956 -3.40603 -3.40603
0.236123 -3.45635 -3.45635
0.334682 -3.51787 -3.51787
0.430232 -3.46367 -3.46367
0.331593 -3.40221 -3.40221
0.333152 -3.45983 -3.45983
0.236939 -3.51437 -3.51437
0.238489 -3.63166 -3.63166
0.436867 -3.63915 -3.63915
0.432476 -3.52174 -3.52174
0.237727 -3.5728 -3.5728
0.337653 -3.63522 -3.63522
0.434687 -3.58023 -3.58023
0.334682 -3.51787 -3.51787
0.336182 -3.57634 -3.57634
0.238489 -3.63166 -3.63166
0.239932 -3.75063 -3.75063
0.441129 -3.75823 -3.75823
0.436867 -3.63915 -3.63915
0.239224 -3.69094 -3.69094
0.340505 -3.75425 -3.75425
0.439014 -3.69848 -3.69848
0.337653 -3.63522 -3.63522
0.339094 -3.69453 -3.69453
0.239932 -3.75063 -3.75063
0.241265 -3.87127 -3.87127
0.445261 -3.87898 -3.87898
0.441129 -3.75823 -3.75823
0.240612 -3.81074 -3.81074
0.343238 -3.87494 -3.87494
0.443211 -3.8184 -3.8184
0.340505 -3.75425 -3.75425
0.341886 -3.81439 -3.81439
0.241265 -3.87127 -3.87127
0.242489 -3.99356 -3.99356
0.449264 -4.00138 -4.00138
0.445261 -3.87898 -3.87898
0.24189 -3.93221 -3.93221
0.345851 -3.99729 -3.99729
0.447279 -3.93997 -3.93997
0.343238 -3.87494 -3.87494
0.34456 -3.93591 -3.93591
0.242489 -3.99356 -3.99356
0.243603 -4.11749 -4.11749
0.453136 -4.12542 -4.12542
0.449264 -4.00138 -4.00138
0.243059 -4.05532 -4.05532
0.348344 -4.12128 -4.12128
0.451216 -4.0632 -4.0632
0.345851 -3.99729 -3.99729
0.347113 -4.05908 -4.05908
0.243603 -4.11749 -4.11749
0.244606 -4.24305 -4.24305
0.456877 -4.2511 -4.2511
0.453136 -4.12542 -4.12542
0.244118 -4.18007 -4.18007
0.350717 -4.2469 -4.2469
0.455023 -4.18806 -4.18806
0.348344 -4.12128 -4.12128
0.349546 -4.18389 -4.18389
0.244606 -4.24305 -4.24305
0.245499 -4.37023 -4.37023
0.460488 -4.37839 -4.37839
0.456877 -4.2511 -4.2511
0.245066 -4.30644 -4.30644
0.352968 -4.37414 -4.37414
0.458699 -4.31454 -4.31454
0.350717 -4.2469 -4.2469
0.351858 -4.31032 -4.31032
0.245499 -4.37023 -4.37023
0.24628 -4.49901 -4.49901
0.463966 -4.50729 -4.50729
0.460488 -4.37839 -4.37839
0.245903 -4.43442 -4.43442
0.355098 -4.50298 -4.50298
0.462243 -4.44264 -4.44264
0.352968 -4.37414 -4.37414
0.354049 -4.43836 -4.43836
0.24628 -4.49901 -4.49901
0.24695 -4.62938 -4.62938
0.467312 -4.63778 -4.63778
0.463966 -4.50729 -4.50729
0.246629 -4.564 -4.564
0.357106 -4.63341 -4.63341
0.465656 -4.57234 -4.57234
0.355098 -4.50298 -4.50298
0.356118 -4.568 -4.568
0.24695 -4.62938 -4.62938
0.247507 -4.76134 -4.76134
0.470526 -4.76985 -4.76985
0.467312 -4.63778 -4.63778
0.247243 -4.69517 -4.69517
0.358992 -4.76543 -4.76543
0.468936 -4.70362 -4.70362
0.357106 -4.63341 -4.63341
0.358064 -4.69922 -4.69922
0.247507 -4.76134 -4.76134
0.247953 -4.89486 -4.89486
0.473607 -4.90349 -4.90349
0.470526 -4.76985 -4.76985
0.247744 -4.82791 -4.82791
0.360755 -4.89901 -4.89901
0.472083 -4.83648 -4.83648
0.358992 -4.76543 -4.76543
0.359889 -4.83202 -4.83202
0.247953 -4.89486 -4.89486
0.248285 -5.02994 -5.02994
0.476555 -5.03869 -5.03869
0.473607 -4.90349 -4.90349
0.248133 -4.96221 -4.96221
0.362395 -5.03415 -5.03415
0.475097 -4.9709 -4.9709
0.360755 -4.89901 -4.89901
0.361591 -4.96639 -4.96639
0.248285 -5.02994 -5.02994
0.248505 -5.16657 -5.16657
0.479369 -5.17543 -5.17543
0.476555 -5.03869 -5.03869
0.248409 -5.09806 -5.09806
0.363912 -5.17083 -5.17083
0.477979 -5.10687 -5.10687
0.362395 -5.03415 -5.03415
0.363169 -5.1023 -5.1023
0.248505 -5.16657 -5.16657
0.248611 -5.30472 -5.30472
0.48205 -5.31371 -5.31371
0.479369 -5.17543 -5.17543
0.248572 -5.23545 -5.23545
0.365306 -5.30905 -5.30905
0.480726 -5.24438 -5.24438
0.363912 -5.17083 -5.17083
0.364624 -5.23975 -5.23975
0.248611 -5.30472 -5.30472
0.248604 -5.44439 -5.44439
0.484596 -5.4535 -5.4535
0.48205 -5.31371 -5.31371
0.248621 -5.37437 -5.37437
0.366575 -5.44878 -5.44878
0.48334 -5.38341 -5.38341
0.365306 -5.30905 -5.30905
0.365956 -5.37873 -5.37873
0.248604 -5.44439 -5.44439
0.248482 -5.58558 -5.58558
0.487009 -5.5948 -5.5948
0.484596 -5.4535 -5.4535
0.248557 -5.5148 -5.5148
0.367721 -5.59003 -5.59003
0.485819 -5.52396 -5.52396
0.366575 -5.44878 -5.44878
0.367164 -5.51922 -5.51922
0.248482 -5.58558 -5.58558
0.248247 -5.72825 -5.72825
0.489286 -5.7376 -5.7376
0.487009 -5.5948 -5.5948
0.248379 -5.65673 -5.65673
0.368742 -5.73276 -5.73276
0.488164 -5.66601 -5.66601
0.367721 -5.59003 -5.59003
0.368247 -5.66121 -5.66121
0.248247 -5.72825 -5.72825
0.247898 -5.87241 -5.87241
0.49143 -5.88188 -5.88188
0.489286 -5.7376 -5.7376
0.248087 -5.80015 -5.80015
0.369639 -5.87699 -5.87699
0.490375 -5.80955 -5.80955
0.368742 -5.73276 -5.73276
0.369207 -5.80469 -5.80469
0.247898 -5.87241 -5.87241
0.247434 -6.01804 -6.01804
0.493438 -6.02763 -6.02763
0.49143 -5.88188 -5.88188
0.24768 -5.94504 -5.94504
0.370412 -6.02268 -6.02268
0.492451 -5.95457 -5.95457
0.369639 -5.87699 -5.87699
0.370041 -5.94965 -5.94965
0.247434 -6.01804 -6.01804
0.246856 -6.16513 -6.16513
0.495312 -6.17484 -6.17484
0.493438 -6.02763 -6.02763
0.247159 -6.0914 -6.0914
0.371059 -6.16983 -6.16983
0.494392 -6.10105 -6.10105
0.370412 -6.02268 -6.02268
0.370751 -6.09607 -6.09607
0.246856 -6.16513 -6.16513
0.246163 -6.31366 -6.31366
0.49705 -6.32349 -6.32349
0.495312 -6.17484 -6.17484
0.246524 -6.23922 -6.23922
0.371582 -6.31842 -6.31842
0.496198 -6.24898 -6.24898
0.371059 -6.16983 -6.16983
0.371336 -6.24394 -6.24394
0.246163 -6.31366 -6.31366
0.245355 -6.46363 -6.46363
0.498653 -6.47358 -6.47358
0.49705 -6.32349 -6.32349
0.245773 -6.38847 -6.38847
0.37198 -6.46845 -6.46845
0.497869 -6.39836 -6.39836
0.371582 -6.31842 -6.31842
0.371797 -6.39326 -6.39326
0.245355 -6.46363 -6.46363
0.244433 -6.61502 -6.61502
0.500121 -6.62509 -6.62509
0.498653 -6.47358 -6.47358
0.244908 -6.53915 -6.53915
0.372253 -6.61991 -6.61991
0.499404 -6.54916 -6.54916
0.37198 -6.46845 -6.46845
0.372132 -6.544 -6.544
0.244433 -6.61502 -6.61502
0.243395 -6.76782 -6.76782
0.501454 -6.77802 -6.77802
0.500121 -6.62509 -6.62509
0.243928 -6.69125 -6.69125
0.3724 -6.77277 -6.77277
0.500804 -6.70138 -6.70138
0.372253 -6.61991 -6.61991
0.372342 -6.69616 -6.69616
0.243395 -6.76782 -6.76782
0.242243 -6.92202 -6.92202
0.502651 -6.93234 -6.93234
0.501454 -6.77802 -6.77802
0.242833 -6.84475 -6.84475
0.372422 -6.92703 -6.92703
0.502069 -6.855 -6.855
0.3724 -6.77277 -6.77277
0.372427 -6.84973 -6.84973
0.242243 -6.92202 -6.92202
0.240975 -7.07761 -7.07761
0.503713 -7.08804 -7.08804
0.502651 -6.93234 -6.93234
0.241623 -6.99964 -6.99964
0.37232 -7.08268 -7.08268
0.503199 -7.01002 -7.01002
0.372422 -6.92703 -6.92703
0.372387 -7.00468 -7.00468
0.240975 -7.07761 -7.07761
0.239593 -7.23456 -7.23456
0.504639 -7.24512 -7.24512
0.503713 -7.08804 -7.08804
0.240298 -7.15592 -7.15592
0.372091 -7.2397 -7.2397
0.504193 -7.16641 -7.16641
0.37232 -7.08268 -7.08268
0.372221 -7.16102 -7.16102
0.239593 -7.23456 -7.23456
0.238095 -7.39288 -7.39288
0.50543 -7.40356 -7.40356
0.504639 -7.24512 -7.24512
0.238858 -7.31355 -7.31355
0.371738 -7.39808 -7.39808
0.505051 -7.32417 -7.32417
0.372091 -7.2397 -7.2397
0.37193 -7.31872 -7.31872
0.238095 -7.39288 -7.39288
0.236482 -7.55255 -7.55255
0.506085 -7.56335 -7.56335
0.50543 -7.40356 -7.40356
0.237303 -7.47255 -7.47255
0.371259 -7.55781 -7.55781
0.505774 -7.48329 -7.48329
0.371738 -7.39808 -7.39808
0.371514 -7.47777 -7.47777
0.236482 -7.55255 -7.55255
0.234755 -7.71356 -7.71356
0.506605 -7.72448 -7.72448
0.506085 -7.56335 -7.56335
0.235633 -7.63289 -7.63289
0.370656 -7.71887 -7.71887
0.506362 -7.64375 -7.64375
0.371259 -7.55781 -7.55781
0.370973 -7.63817 -7.63817
0.234755 -7.71356 -7.71356
0.232913 -7.87588 -7.87588
0.50699 -7.88693 -7.88693
0.506605 -7.72448 -7.72448
0.233848 -7.79456 -7.79456
0.369927 -7.88126 -7.88126
0.506814 -7.80554 -7.80554
0.370656 -7.71887 -7.71887
0.370307 -7.7999 -7.7999
0.232913 -7.87588 -7.87588
0.230955 -8.03953 -8.03953
0.50724 -8.05069 -8.05069
0.50699 -7.88693 -7.88693
0.231948 -7.95754 -7.95754
0.369073 -8.04497 -8.04497
0.507132 -7.96865 -7.96865
0.369927 -7.88126 -7.88126
0.369516 -7.96295 -7.96295
0.230955 -8.03953 -8.03953
0.228884 -8.20447 -8.20447
0.507354 -8.21575 -8.21575
0.50724 -8.05069 -8.05069
0.229934 -8.12184 -8.12184
0.368094 -8.20997 -8.20997
0.507314 -8.13306 -8.13306
0.369073 -8.04497 -8.04497
0.368599 -8.12731 -8.12731
0.228884 -8.20447 -8.20447
0.226697 -8.3707 -8.3707
0.507334 -8.3821 -8.3821
0.507354 -8.21575 -8.21575
0.227805 -8.28742 -8.28742
0.366991 -8.37626 -8.37626
0.507361 -8.29877 -8.29877
0.368094 -8.20997 -8.20997
0.367558 -8.29296 -8.29296
0.226697 -8.3707 -8.3707
0.224396 -8.53821 -8.53821
0.507178 -8.54973 -8.54973
0.507334 -8.3821 -8.3821
0.225561 -8.45429 -8.45429
0.365763 -8.54383 -8.54383
0.507273 -8.46576 -8.46576
0.366991 -8.37626 -8.37626
0.366393 -8.45989 -8.45989
0.224396 -8.53821 -8.53821
0.221981 -8.70698 -8.70698
0.506888 -8.71862 -8.71862
0.507178 -8.54973 -8.54973
0.223203 -8.62243 -8.62243
0.36441 -8.71266 -8.71266
0.50705 -8.63402 -8.63402
0.365763 -8.54383 -8.54383
0.365102 -8.62809 -8.62809
0.221981 -8.70698 -8.70698
0.219452 -8.877 -8.877
0.506464 -8.88876 -8.88876
0.506888 -8.71862 -8.71862
0.220731 -8.79183 -8.79183
0.362934 -8.88275 -8.88275
0.506693 -8.80354 -8.80354
0.36441 -8.71266 -8.71266
0.363687 -8.79755 -8.79755
0.219452 -8.877 -8.877
0.216809 -9.04826 -9.04826
0.505905 -9.06015 -9.06015
0.506464 -8.88876 -8.88876
0.218145 -8.96248 -8.96248
0.361333 -9.05407 -9.05407
0.506201 -8.9743 -8.9743
0.362934 -8.88275 -8.88275
0.362149 -8.96825 -8.96825
0.216809 -9.04826 -9.04826
0.214052 -9.22075 -9.22075
0.505212 -9.23276 -9.23276
0.505905 -9.06015 -9.06015
0.215445 -9.13435 -9.13435
0.359608 -9.22662 -9.22662
0.505576 -9.1463 -9.1463
0.361333 -9.05407 -9.05407
0.360486 -9.14019 -9.14019
0.214052 -9.22075 -9.22075
0.211182 -9.39446 -9.39446
0.504386 -9.40658 -9.40658
0.505212 -9.23276 -9.23276
0.212631 -9.30745 -9.30745
0.357759 -9.40039 -9.40039
0.504816 -9.31952 -9.31952
0.359608 -9.22662 -9.22662
0.358699 -9.31335 -9.31335
0.211182 -9.39446 -9.39446
0.208199 -9.56936 -9.56936
0.503426 -9.58161 -9.58161
0.504386 -9.40658 -9.40658
0.209705 -9.48176 -9.48176
0.355788 -9.57536 -9.57536
0.503922 -9.49394 -9.49394
0.357759 -9.40039 -9.40039
0.356789 -9.48772 -9.48772
0.208199 -9.56936 -9.56936
0.205102 -9.74546 -9.74546
0.502332 -9.75782 -9.75782
0.503426 -9.58161 -9.58161
0.206665 -9.65727 -9.65727
0.353693 -9.75152 -9.75152
0.502895 -9.66957 -9.66957
0.355788 -9.57536 -9.57536
0.354756 -9.66329 -9.66329
0.205102 -9.74546 -9.74546
0.201894 -9.92274 -9.92274
0.501106 -9.93522 -9.93522
0.502332 -9.75782 -9.75782
0.203512 -9.83396 -9.83396
0.351475 -9.92885 -9.92885
0.501735 -9.84637 -9.84637
0.353693 -9.75152 -9.75152
0.352599 -9.84004 -9.84004
0.201894 -9.92274 -9.92274
0.198572 -10.1012 -10.1012
0.499746 -10.1138 -10.1138
0.501106 -9.93522 -9.93522
0.200247 -10.0118 -10.0118
0.349135 -10.1074 -10.1074
0.500442 -10.0244 -10.0244
0.351475 -9.92885 -9.92885
0.35032 -10.018 -10.018
0.198572 -10.1012 -10.1012
0.195139 -10.2808 -10.2808
0.498255 -10.2935 -10.2935
0.499746 -10.1138 -10.1138
0.19687 -10.1908 -10.1908
0.346672 -10.287 -10.287
0.499017 -10.2035 -10.2035
0.349135 -10.1074 -10.1074
0.347919 -10.197 -10.197
0.195139 -10.2808 -10.2808
0.191594 -10.4615 -10.4615
0.496631 -10.4744 -10.4744
0.498255 -10.2935 -10.2935
0.19338 -10.371 -10.371
0.344088 -10.4678 -10.4678
0.497459 -10.3838 -10.3838
0.346672 -10.287 -10.287
0.345395 -10.3773 -10.3773
0.191594 -10.4615 -10.4615
0.187938 -10.6434 -10.6434
0.494875 -10.6563 -10.6563
0.496631 -10.4744 -10.4744
0.18978 -10.5523 -10.5523
0.341382 -10.6498 -10.6498
0.49577 -10.5652 -10.5652
0.344088 -10.4678 -10.4678
0.34275 -10.5586 -10.5586
0.187938 -10.6434 -10.6434
0.18417 -10.8264 -10.8264
0.492989 -10.8395 -10.8395
0.494875 -10.6563 -10.6563
0.186068 -10.7348 -10.7348
0.338555 -10.8328 -10.8328
0.493948 -10.7478 -10.7478
0.341382 -10.6498 -10.6498
0.339983 -10.7411 -10.7411
0.18417 -10.8264 -10.8264
0.180293 -11.0105 -11.0105
0.490971 -11.0237 -11.0237
0.492989 -10.8395 -10.8395
0.182245 -10.9183 -10.9183
0.335607 -11.017 -11.017
0.491996 -10.9314 -10.9314
0.338555 -10.8328 -10.8328
0.337096 -10.9247 -10.9247
0.180293 -11.0105 -11.0105
0.176305 -11.1957 -11.1957
0.488823 -11.209 -11.209
0.490971 -11.0237 -11.0237
0.178312 -11.103 -11.103
0.332539 -11.2022 -11.2022
0.489913 -11.1162 -11.1162
0.335607 -11.017 -11.017
0.334088 -11.1094 -11.1094
0.176305 -11.1957 -11.1957
0.172207 -11.382 -11.382
0.486544 -11.3954 -11.3954
0.488823 -11.209 -11.209
0.174269 -11.2887 -11.2887
0.329351 -11.3885 -11.3885
0.4877 -11.302 -11.302
0.332539 -11.2022 -11.2022
0.33096 -11.2952 -11.2952
0.172207 -11.382 -11.382
0.168 -11.5693 -11.5693
0.484136 -11.5828 -11.5828
0.486544 -11.3954 -11.3954
0.170117 -11.4755 -11.4755
0.326043 -11.5759 -11.5759
0.485356 -11.4889 -11.4889
0.329351 -11.3885 -11.3885
0.327712 -11.4821 -11.4821
0.168 -11.5693 -11.5693
0.163683 -11.7577 -11.7577
0.481598 -11.7713 -11.7713
0.484136 -11.5828 -11.5828
0.165855 -11.6634 -11.6634
0.322616 -11.7644 -11.7644
0.482883 -11.6769 -11.6769
0.326043 -11.5759 -11.5759
0.324344 -11.67 -11.67
0.163683 -11.7577 -11.7577
0.159259 -11.9471 -11.9471
0.478932 -11.9609 -11.9609
0.481598 -11.7713 -11.7713
0.161485 -11.8523 -11.8523
0.31907 -11.9539 -11.9539
0.480281 -11.866 -11.866
0.322616 -11.7644 -11.7644
0.320858 -11.859 -11.859
0.159259 -11.9471 -11.9471
0.154726 -12.1376 -12.1376
0.476137 -12.1515 -12.1515
0.478932 -11.9609 -11.9609
0.157006 -12.0423 -12.0423
0.315407 -12.1444 -12.1444
0.477551 -12.056 -12.056
0.31907 -11.9539 -11.9539
0.317253 -12.049 -12.049
0.154726 -12.1376 -12.1376
0.150086 -12.3291 -12.3291
0.473215 -12.3431 -12.3431
0.476137 -12.1515 -12.1515
0.15242 -12.2333 -12.2333
0.311625 -12.336 -12.336
0.474692 -12.2471 -12.2471
0.315407 -12.1444 -12.1444
0.313531 -12.2401 -12.2401
0.150086 -12.3291 -12.3291
0.145339 -12.5216 -12.5216
0.470165 -12.5357 -12.5357
0.473215 -12.3431 -12.3431
0.147726 -12.4253 -12.4253
0.307727 -12.5286 -12.5286
0.471706 -12.4393 -12.4393
0.311625 -12.336 -12.336
0.309691 -12.4322 -12.4322
0.145339 -12.5216 -12.5216
0.140486 -12.7152 -12.7152
0.466988 -12.7293 -12.7293
0.470165 -12.5357 -12.5357
0.142926 -12.6183 -12.6183
0.303712 -12.7221 -12.7221
0.468592 -12.6324 -12.6324
0.307727 -12.5286 -12.5286
0.305734 -12.6252 -12.6252
0.140486 -12.7152 -12.7152
0.135526 -12.9096 -12.9096
0.463685 -12.9239 -12.9239
0.466988 -12.7293 -12.7293
0.138019 -12.8123 -12.8123
0.299581 -12.9167 -12.9167
0.465353 -12.8265 -12.8265
0.303712 -12.7221 -12.7221
0.301661 -12.8193 -12.8193
0.135526 -12.9096 -12.9096
0.130462 -13.1051 -13.1051
0.460257 -13.1195 -13.1195
0.463685 -12.9239 -12.9239
0.133007 -13.0073 -13.0073
0.295334 -13.1122 -13.1122
0.461987 -13.0216 -13.0216
0.299581 -12.9167 -12.9167
0.297472 -13.0143 -13.0143
0.130462 -13.1051 -13.1051
0.125292 -13.3015 -13.3015
0.456703 -13.316 -13.316
0.460257 -13.1195 -13.1195
0.12789 -13.2032 -13.2032
0.290972 -13.3087 -13.3087
0.458495 -13.2176 -13.2176
0.295334 -13.1122 -13.1122
0.293167 -13.2103 -13.2103
0.125292 -13.3015 -13.3015
0.120018 -13.4989 -13.4989
0.453024 -13.5135 -13.5135
0.456703 -13.316 -13.316
0.122668 -13.4001 -13.4001
0.286496 -13.5061 -13.5061
0.454879 -13.4146 -13.4146
0.290972 -13.3087 -13.3087
0.288748 -13.4073 -13.4073
0.120018 -13.4989 -13.4989
0.11464 -13.6972 -13.6972
0.449222 -13.7119 -13.7119
0.453024 -13.5135 -13.5135
0.117342 -13.598 -13.598
0.281905 -13.7045 -13.7045
0.451138 -13.6126 -13.6126
0.286496 -13.5061 -13.5061
0.284215 -13.6052 -13.6052
0.11464 -13.6972 -13.6972
0.10916 -13.8965 -13.8965
0.445296 -13.9113 -13.9113
0.449222 -13.7119 -13.7119
0.111913 -13.7967 -13.7967
0.277202 -13.9038 -13.9038
0.447274 -13.8115 -13.8115
0.281905 -13.7045 -13.7045
0.279568 -13.804 -13.804
0.10916 -13.8965 -13.8965
0.103577 -14.0966 -14.0966
0.441247 -14.1115 -14.1115
0.445296 -13.9113 -13.9113
0.106381 -13.9964 -13.9964
0.272386 -14.104 -14.104
0.443286 -14.0113 -14.0113
0.277202 -13.9038 -13.9038
0.274808 -14.0037 -14.0037
0.103577 -14.0966 -14.0966
0.0978917 -14.2977 -14.2977
0.437076 -14.3126 -14.3126
0.441247 -14.1115 -14.1115
0.100747 -14.197 -14.197
0.267458 -14.3051 -14.3051
0.439177 -14.212 -14.212
0.272386 -14.104 -14.104
0.269936 -14.2044 -14.2044
0.0978917 -14.2977 -14.2977
0.0921056 -14.4996 -14.4996
0.432783 -14.5147 -14.5147
0.437076 -14.3126 -14.3126
0.0950112 -14.3985 -14.3985
0.262419 -14.507 -14.507
0.434945 -14.4136 -14.4136
0.267458 -14.3051 -14.3051
0.264952 -14.4059 -14.4059
0.0921056 -14.4996 -14.4996
0.0862189 -14.7024 -14.7024
0.42837 -14.7176 -14.7176
0.432783 -14.5147 -14.5147
0.0891747 -14.6009 -14.6009
0.257269 -14.7099 -14.7099
0.430592 -14.616 -14.616
0.262419 -14.507 -14.507
0.259857 -14.6084 -14.6084
0.0862189 -14.7024 -14.7024
0.0802323 -14.9061 -14.9061
0.423836 -14.9214 -14.9214
0.42837 -14.7176 -14.7176
0.083238 -14.8041 -14.8041
0.252008 -14.9136 -14.9136
0.426118 -14.8194 -14.8194
0.257269 -14.7099 -14.7099
0.254652 -14.8117 -14.8117
0.0802323 -14.9061 -14.9061
0.0741466 -15.1106 -15.1106
0.419183 -15.126 -15.126
0.423836 -14.9214 -14.9214
0.0772018 -15.0083 -15.0083
0.246639 -15.1182 -15.1182
0.421525 -15.0236 -15.0236
0.252008 -14.9136 -14.9136
0.249337 -15.0158 -15.0158
0.0741466 -15.1106 -15.1106
0.0679623 -15.316 -15.316
0.414411 -15.3315 -15.3315
0.419183 -15.126 -15.126
0.0710667 -15.2132 -15.2132
0.241161 -15.3236 -15.3236
0.416812 -15.2286 -15.2286
0.246639 -15.1182 -15.1182
0.243913 -15.2208 -15.2208
0.0679623 -15.316 -15.316
0.0616802 -15.5222 -15.5222
0.409521 -15.5378 -15.5378
0.414411 -15.3315 -15.3315
0.0648334 -15.419 -15.419
0.235575 -15.5299 -15.5299
0.411981 -15.4345 -15.4345
0.241161 -15.3236 -15.3236
0.238381 -15.4267 -15.4267
0.0616802 -15.5222 -15.5222
0.0553011 -15.7292 -15.7292
0.404514 -15.7449 -15.7449
0.409521 -15.5378 -15.5378
0.0585027 -15.6256 -15.6256
0.229881 -15.7369 -15.7369
0.407032 -15.6412 -15.6412
0.235575 -15.5299 -15.5299
0.232741 -15.6333 -15.6333
0.0553011 -15.7292 -15.7292
0.0488255 -15.937 -15.937
0.399389 -15.9528 -15.9528
0.404514 -15.7449 -15.7449
0.0520753 -15.833 -15.833
0.224081 -15.9448 -15.9448
0.401966 -15.8487 -15.8487
0.229881 -15.7369 -15.7369
0.226994 -15.8408 -15.8408
0.0488255 -15.937 -15.937
0.0422543 -16.1456 -16.1456
0.394149 -16.1615 -16.1615
0.399389 -15.9528 -15.9528
0.0455518 -16.0412 -16.0412
0.218175 -16.1535 -16.1535
0.396784 -16.057 -16.057
0.224081 -15.9448 -15.9448
0.221141 -16.049 -16.049
0.0422543 -16.1456 -16.1456
0.0355882 -16.355 -16.355
0.388794 -16.3709 -16.3709
0.394149 -16.1615 -16.1615
0.0389331 -16.2502 -16.2502
0.212165 -16.3629 -16.3629
0.391486 -16.2661 -16.2661
0.218175 -16.1535 -16.1535
0.215183 -16.2581 -16.2581
0.0355882 -16.355 -16.355
0.028828 -16.5652 -16.5652
0.383324 -16.5812 -16.5812
0.388794 -16.3709 -16.3709
0.0322198 -16.46 -16.46
0.206049 -16.5731 -16.5731
0.386073 -16.476 -16.476
0.212165 -16.3629 -16.3629
0.20912 -16.4679 -16.4679
0.028828 -16.5652 -16.5652
0.0219744 -16.7761 -16.7761
0.37774 -16.7922 -16.7922
0.383324 -16.5812 -16.5812
0.0254129 -16.6705 -16.6705
0.199831 -16.7841 -16.7841
0.380546 -16.6866 -16.6866
0.206049 -16.5731 -16.5731
0.202953 -16.6785 -16.6785
0.0219744 -16.7761 -16.7761
0.0150283 -16.9878 -16.9878
0.372044 -17.0039 -17.0039
0.37774 -16.7922 -16.7922
0.0185129 -16.8818 -16.8818
0.193509 -16.9958 -16.9958
0.374906 -16.898 -16.898
0.199831 -16.7841 -16.7841
0.196683 -16.8898 -16.8898
0.0150283 -16.9878 -16.9878
0.00799032 -17.2001 -17.2001
0.366235 -17.2164 -17.2164
0.372044 -17.0039 -17.0039
0.0115207 -17.0939 -17.0939
0.187086 -17.2082 -17.2082
0.369153 -17.1101 -17.1101
0.193509 -16.9958 -16.9958
0.19031 -17.1019 -17.1019
0.00799032 -17.2001 -17.2001
0.000861365 -17.4132 -17.4132
0.360315 -17.4296 -17.4296
0.366235 -17.2164 -17.2164
0.00443717 -17.3066 -17.3066
0.180561 -17.4213 -17.4213
0.363289 -17.3229 -17.3229
0.187086 -17.2082 -17.2082
0.183836 -17.3147 -17.3147
0.000861365 -17.4132 -17.4132
-0.00635777 -17.6271 -17.6271
0.354285 -17.6435 -17.6435
0.360315 -17.4296 -17.4296
-0.00273698 -17.5201 -17.5201
0.173937 -17.6352 -17.6352
0.357314 -17.5364 -17.5364
0.180561 -17.4213 -17.4213
0.177262 -17.5282 -17.5282
-0.00635777 -17.6271 -17.6271
-0.0136663 -17.8416 -17.8416
0.348145 -17.8581 -17.8581
0.354285 -17.6435 -17.6435
-0.0100009 -17.7342 -17.7342
0.167212 -17.8497 -17.8497
0.351228 -17.7507 -17.7507
0.173937 -17.6352 -17.6352
0.170587 -17.7424 -17.7424
-0.0136663 -17.8416 -17.8416
-0.0210633 -18.0568 -18.0568
0.341896 -18.0733 -18.0733
0.348145 -17.8581 -17.8581
-0.0173538 -17.9491 -17.9491
0.160389 -18.065 -18.065
0.345034 -17.9656 -17.9656
0.167212 -17.8497 -17.8497
0.163813 -17.9573 -17.9573
-0.0210633 -18.0568 -18.0568
-0.028548 -18.2726 -18.2726
0.335539 -18.2893 -18.2893
0.341896 -18.0733 -18.0733
-0.0247948 -18.1646 -18.1646
0.153468 -18.2809 -18.2809
0.338731 -18.1812 -18.1812
0.160389 -18.065 -18.065
0.156941 -18.1728 -18.1728
-0.028548 -18.2726 -18.2726
-0.0361196 -18.4891 -18.4891
0.329075 -18.5059 -18.5059
0.335539 -18.2893 -18.2893
-0.032323 -18.3808 -18.3808
0.14645 -18.4974 -18.4974
0.33232 -18.3975 -18.3975
0.153468 -18.2809 -18.2809
0.149971 -18.3891 -18.3891
-0.0361196 -18.4891 -18.4891
-0.0437771 -18.7063 -18.7063
0.322504 -18.7231 -18.7231
0.329075 -18.5059 -18.5059
-0.0399377 -18.5976 -18.5976
0.139336 -18.7146 -18.7146
0.325803 -18.6144 -18.6144
0.14645 -18.4974 -18.4974
0.142905 -18.6059 -18.6059
-0.0437771 -18.7063 -18.7063
-0.0515198 -18.9241 -18.9241
0.315829 -18.941 -18.941
0.322504 -18.7231 -18.7231
-0.0476379 -18.8151 -18.8151
0.132127 -18.9325 -18.9325
0.31918 -18.832 -18.832
0.139336 -18.7146 -18.7146
0.135743 -18.8235 -18.8235
-0.0515198 -18.9241 -18.9241
-0.0593467 -19.1425 -19.1425
0.309048 -19.1595 -19.1595
0.315829 -18.941 -18.941
-0.0554228 -19.0332 -19.0332
0.124823 -19.1509 -19.1509
0.312451 -19.0501 -19.0501
0.132127 -18.9325 -18.9325
0.128487 -19.0416 -19.0416
-0.0593467 -19.1425 -19.1425
-0.0672569 -19.3616 -19.3616
0.302164 -19.3786 -19.3786
0.309048 -19.1595 -19.1595
-0.0632914 -19.252 -19.252
0.117426 -19.37 -19.37
0.305619 -19.2689 -19.2689
0.124823 -19.1509 -19.1509
0.121136 -19.2604 -19.2604
-0.0672569 -19.3616 -19.3616
-0.0752496 -19.5812 -19.5812
0.295177 -19.5983 -19.5983
0.302164 -19.3786 -19.3786
-0.071243 -19.4713 -19.4713
0.109936 -19.5897 -19.5897
0.298684 -19.4883 -19.4883
0.117426 -19.37 -19.37
0.113693 -19.4798 -19.4798
-0.0752496 -19.5812 -19.5812
-0.0833238 -19.8014 -19.8014
0.288089 -19.8185 -19.8185
0.295177 -19.5983 -19.5983
-0.0792766 -19.6912 -19.6912
0.102355 -19.8099 -19.8099
0.291646 -19.7083 -19.7083
0.109936 -19.5897 -19.5897
0.106157 -19.6997 -19.6997
-0.0833238 -19.8014 -19.8014
-0.0914787 -20.0222 -20.0222
0.280899 -20.0394 -20.0394
0.288089 -19.8185 -19.8185
-0.0873913 -19.9117 -19.9117
0.0946823 -20.0307 -20.0307
0.284507 -19.9289 -19.9289
0.102355 -19.8099 -19.8099
0.0985298 -19.9203 -19.9203
-0.0914787 -20.0222 -20.0222
-0.0997133 -20.2436 -20.2436
0.27361 -20.2608 -20.2608
0.280899 -20.0394 -20.0394
-0.0955861 -20.1328 -20.1328
0.0869201 -20.2521 -20.2521
0.277267 -20.15 -20.15
0.0946823 -20.0307 -20.0307
0.0908124 -20.1414 -20.1414
-0.0997133 -20.2436 -20.2436
-0.108027 -20.4655 -20.4655
0.266221 -20.4828 -20.4828
0.27361 -20.2608 -20.2608
-0.10386 -20.3545 -20.3545
0.079069 -20.4741 -20.4741
0.269928 -20.3717 -20.3717
0.0869201 -20.2521 -20.2521
0.0830056 -20.363 -20.363
-0.108027 -20.4655 -20.4655
-0.116418 -20.6879 -20.6879
0.258734 -20.7053 -20.7053
0.266221 -20.4828 -20.4828
-0.112213 -20.5766 -20.5766
0.0711299 -20.6966 -20.6966
0.26249 -20.594 -20.594
0.079069 -20.4741 -20.4741
0.0751104 -20.5852 -20.5852
-0.116418 -20.6879 -20.6879
-0.124886 -20.9109 -20.9109
0.25115 -20.9283 -20.9283
0.258734 -20.7053 -20.7053
-0.120642 -20.7993 -20.7993
0.0631037 -20.9196 -20.9196
0.254954 -20.8167 -20.8167
0.0711299 -20.6966 -20.6966
0.0671276 -20.808 -20.808
-0.124886 -20.9109 -20.9109
-0.13343 -21.1344 -21.1344
0.24347 -21.1519 -21.1519
0.25115 -20.9283 -20.9283
-0.129149 -21.0226 -21.0226
0.0549914 -21.1431 -21.1431
0.247322 -21.04 -21.04
0.0631037 -20.9196 -20.9196
0.0590583 -21.0312 -21.0312
-0.13343 -21.1344 -21.1344
-0.142049 -21.3584 -21.3584
0.235694 -21.3759 -21.3759
0.24347 -21.1519 -21.1519
-0.13773 -21.2463 -21.2463
0.046794 -21.3671 -21.3671
0.239594 -21.2638 -21.2638
0.0549914 -21.1431 -21.1431
0.0509033 -21.255 -21.255
-0.142049 -21.3584 -21.3584
-0.150742 -21.5829 -21.5829
0.227825 -21.6004 -21.6004
0.235694 -21.3759 -21.3759
-0.146387 -21.4706 -21.4706
0.0385124 -21.5916 -21.5916
0.231771 -21.4881 -21.4881
0.046794 -21.3671 -21.3671
0.0426636 -21.4793 -21.4793
-0.150742 -21.5829 -21.5829
-0.159509 -21.8078 -21.8078
0.219861 -21.8254 -21.8254
0.227825 -21.6004 -21.6004
-0.155116 -21.6953 -21.6953
0.0301476 -21.8166 -21.8166
0.223855 -21.7129 -21.7129
0.0385124 -21.5916 -21.5916
0.0343403 -21.704 -21.704
-0.159509 -21.8078 -21.8078
-0.168347 -22.0332 -22.0332
0.211806 -22.0509 -22.0509
0.219861 -21.8254 -21.8254
-0.163919 -21.9205 -21.9205
0.0217005 -22.042 -22.042
0.215845 -21.9381 -21.9381
0.0301476 -21.8166 -21.8166
0.0259342 -21.9292 -21.9292
-0.168347 -22.0332 -22.0332
-0.177256 -22.2591 -22.2591
0.203659 -22.2768 -22.2768
0.211806 -22.0509 -22.0509
-0.172793 -22.1461 -22.1461
0.0131722 -22.2679 -22.2679
0.207744 -22.1638 -22.1638
0.0217005 -22.042 -22.042
0.0174464 -22.1549 -22.1549
-0.177256 -22.2591 -22.2591
-0.186236 -22.4854 -22.4854
0.195421 -22.5032 -22.5032
0.203659 -22.2768 -22.2768
-0.181737 -22.3722 -22.3722
0.00456367 -22.4943 -22.4943
0.199551 -22.39 -22.39
0.0131722 -22.2679 -22.2679
0.00887791 -22.381 -22.381
-0.186236 -22.4854 -22.4854
-0.195284 -22.7122 -22.7122
0.187095 -22.73 -22.73
0.195421 -22.5032 -22.5032
-0.190751 -22.5987 -22.5987
-0.00412412 -22.721 -22.721
0.191269 -22.6166 -22.6166
0.00456367 -22.4943 -22.4943
0.000229619 -22.6076 -22.6076
-0.195284 -22.7122 -22.7122
-0.204401 -22.9393 -22.9393
0.178679 -22.9572 -22.9572
0.187095 -22.73 -22.73
-0.199834 -22.8257 -22.8257
-0.0128902 -22.9482 -22.9482
0.182898 -22.8436 -22.8436
-0.00412412 -22.721 -22.721
-0.00849742 -22.8346 -22.8346
-0.204401 -22.9393 -22.9393
-0.213585 -23.1669 -23.1669
0.170177 -23.1848 -23.1848
0.178679 -22.9572 -22.9572
-0.208985 -23.0531 -23.0531
-0.0217334 -23.1758 -23.1758
0.174439 -23.071 -23.071
-0.0128902 -22.9482 -22.9482
-0.0173022 -23.062 -23.062
-0.213585 -23.1669 -23.1669
-0.222835 -23.3949 -23.3949
0.161588 -23.4128 -23.4128
0.170177 -23.1848 -23.1848
-0.218202 -23.2808 -23.2808
-0.0306529 -23.4038 -23.4038
0.165893 -23.2988 -23.2988
-0.0217334 -23.1758 -23.1758
-0.0261837 -23.2898 -23.2898
-0.222835 -23.3949 -23.3949
-0.23215 -23.6232 -23.6232
0.152914 -23.6412 -23.6412
0.161588 -23.4128 -23.4128
-0.227484 -23.509 -23.509
-0.0396476 -23.6322 -23.6322
0.157261 -23.527 -23.527
-0.0306529 -23.4038 -23.4038
-0.0351409 -23.5179 -23.5179
-0.23215 -23.6232 -23.6232
-0.241528 -23.8519 -23.8519
0.144155 -23.87 -23.87
0.152914 -23.6412 -23.6412
-0.236831 -23.7375 -23.7375
-0.0487164 -23.8609 -23.8609
0.148545 -23.7555 -23.7555
-0.0396476 -23.6322 -23.6322
-0.0441728 -23.7465 -23.7465
-0.241528 -23.8519 -23.8519
-0.25097 -24.081 -24.081
0.135313 -24.0991 -24.0991
0.144155 -23.87 -23.87
-0.246242 -23.9664 -23.9664
-0.0578584 -24.09 -24.09
0.139745 -23.9845 -23.9845
-0.0487164 -23.8609 -23.8609
-0.0532783 -23.9754 -23.9754
-0.25097 -24.081 -24.081
-0.260474 -24.3104 -24.3104
0.126389 -24.3285 -24.3285
0.135313 -24.0991 -24.0991
-0.255715 -24.1957 -24.1957
-0.0670724 -24.3194 -24.3194
0.130862 -24.2138 -24.2138
-0.0578584 -24.09 -24.09
-0.0624565 -24.2047 -24.2047
-0.260474 -24.3104 -24.3104
-0.270039 -24.5402 -24.5402
0.117384 -24.5583 -24.5583
0.126389 -24.3285 -24.3285
-0.265249 -24.4253 -24.4253
-0.0763576 -24.5492 -24.5492
0.121897 -24.4434 -24.4434
-0.0670724 -24.3194 -24.3194
-0.0717062 -24.4343 -24.4343
-0.270039 -24.5402 -24.5402
-0.279664 -24.7703 -24.7703
0.108299 -24.7884 -24.7884
0.117384 -24.5583 -24.5583
-0.274844 -24.6552 -24.6552
-0.0857127 -24.7793 -24.7793
0.112851 -24.6733 -24.6733
-0.0763576 -24.5492 -24.5492
-0.0810264 -24.6642 -24.6642
-0.279664 -24.7703 -24.7703
-0.289347 -25.0007 -25.0007
0.0991342 -25.0188 -25.0188
0.108299 -24.7884 -24.7884
-0.284498 -24.8854 -24.8854
-0.0951367 -25.0097 -25.0097
0.103726 -24.9036 -24.9036
-0.0857127 -24.7793 -24.7793
-0.0904162 -24.8945 -24.8945
-0.289347 -25.0007 -25.0007
-0.299088 -25.2313 -25.2313
0.0898917 -25.2495 -25.2495
0.0991342 -25.0188 -25.0188
-0.29421 -25.116 -25.116
-0.104629 -25.2404 -25.2404
0.0945226 -25.1341 -25.1341
-0.0951367 -25.0097 -25.0097
-0.0998743 -25.125 -25.125
-0.299088 -25.2313 -25.2313
-0.308886 -25.4623 -25.4623
0.0805722 -25.4805 -25.4805
0.0898917 -25.2495 -25.2495
-0.30398 -25.3468 -25.3468
-0.114187 -25.4714 -25.4714
0.0852415 -25.365 -25.365
-0.104629 -25.2404 -25.2404
-0.1094 -25.3559 -25.3559
-0.308886 -25.4623 -25.4623
-0.31874 -25.6936 -25.6936
0.0711768 -25.7118 -25.7118
0.0805722 -25.4805 -25.4805
-0.313806 -25.5779 -25.5779
-0.123812 -25.7026 -25.7026
0.0758839 -25.5961 -25.5961
-0.114187 -25.4714 -25.4714
-0.118992 -25.587 -25.587
-0.31874 -25.6936 -25.6936
-0.328648 -25.9251 -25.9251
0.0617066 -25.9433 -25.9433
0.0711768 -25.7118 -25.7118
-0.323687 -25.8093 -25.8093
-0.133501 -25.9342 -25.9342
0.066451 -25.8275 -25.8275
-0.123812 -25.7026 -25.7026
-0.128649 -25.8184 -25.8184
-0.328648 -25.9251 -25.9251
-0.338609 -26.1568 -26.1568
0.0521626 -26.1751 -26.1751
0.0617066 -25.9433 -25.9433
-0.333622 -26.0409 -26.0409
-0.143254 -26.1659 -26.1659
0.0569437 -26.0592 -26.0592
-0.133501 -25.9342 -25.9342
-0.13837 -26.05 -26.05
-0.338609 -26.1568 -26.1568
-0.348623 -26.3888 -26.3888
0.0425459 -26.4071 -26.4071
0.0521626 -26.1751 -26.1751
-0.34361 -26.2728 -26.2728
-0.15307 -26.3979 -26.3979
0.0473633 -26.2911 -26.2911
-0.143254 -26.1659 -26.1659
-0.148154 -26.2819 -26.2819
-0.348623 -26.3888 -26.3888
-0.358688 -26.621 -26.621
0.0328576 -26.6393 -26.6393
0.0425459 -26.4071 -26.4071
-0.353649 -26.5049 -26.5049
-0.162947 -26.6301 -26.6301
0.0377107 -26.5232 -26.5232
-0.15307 -26.3979 -26.3979
-0.158 -26.514 -26.514
-0.358688 -26.621 -26.621
-0.368804 -26.8534 -26.8534
0.0230988 -26.8718 -26.8718
0.0328576 -26.6393 -26.6393
-0.36374 -26.7372 -26.7372
-0.172884 -26.8626 -26.8626
0.027987 -26.7555 -26.7555
-0.162947 -26.6301 -26.6301
-0.167908 -26.7463 -26.7463
-0.368804 -26.8534 -26.8534
-0.378969 -27.0861 -27.0861
0.0132706 -27.1044 -27.1044
0.0230988 -26.8718 -26.8718
-0.37388 -26.9697 -26.9697
-0.18288 -27.0952 -27.0952
0.0181933 -26.9881 -26.9881
-0.172884 -26.8626 -26.8626
-0.177875 -26.9789 -26.9789
-0.378969 -27.0861 -27.0861
-0.389181 -27.3189 -27.3189
0.00337399 -27.3372 -27.3372
0.0132706 -27.1044 -27.1044
-0.384069 -27.2025 -27.2025
-0.192935 -27.328 -27.328
0.00833076 -27.2208 -27.2208
-0.18288 -27.0952 -27.0952
-0.187901 -27.2116 -27.2116
-0.389181 -27.3189 -27.3189
-0.399441 -27.5519 -27.5519
-0.00658984 -27.5702 -27.5702
0.00337399 -27.3372 -27.3372
-0.394305 -27.4354 -27.4354
-0.203047 -27.561 -27.561
-0.00159959 -27.4537 -27.4537
-0.192935 -27.328 -27.328
-0.197984 -27.4445 -27.4445
-0.399441 -27.5519 -27.5519
-0.409747 -27.7851 -27.7851
-0.0166198 -27.8034 -27.8034
-0.00658984 -27.5702 -27.5702
-0.404588 -27.6685 -27.6685
-0.213215 -27.7942 -27.7942
-0.0115966 -27.6868 -27.6868
-0.203047 -27.561 -27.561
-0.208124 -27.6776 -27.6776
-0.409747 -27.7851 -27.7851
-0.420097 -28.0184 -28.0184
-0.0267148 -28.0367 -28.0367
-0.0166198 -27.8034 -27.8034
-0.414917 -27.9017 -27.9017
-0.223438 -28.0275 -28.0275
-0.0216592 -27.92 -27.92
-0.213215 -27.7942 -27.7942
-0.21832 -27.9109 -27.9109
-0.420097 -28.0184 -28.0184
-0.430492 -28.2518 -28.2518
-0.0368736 -28.2702 -28.2702
-0.0267148 -28.0367 -28.0367
-0.425289 -28.1351 -28.1351
-0.233715 -28.261 -28.261
-0.0317863 -28.1534 -28.1534
-0.223438 -28.0275 -28.0275
-0.22857 -28.1442 -28.1442
-0.430492 -28.2518 -28.2518
-0.440929 -28.4854 -28.4854
-0.0470952 -28.5038 -28.5038
-0.0368736 -28.2702 -28.2702
-0.435705 -28.3686 -28.3686
-0.244044 -28.4946 -28.4946
-0.0419767 -28.387 -28.387
-0.233715 -28.261 -28.261
-0.238873 -28.3778 -28.3778
-0.440929 -28.4854 -28.4854
-0.451409 -28.7191 -28.7191
-0.0573785 -28.7375 -28.7375
-0.0470952 -28.5038 -28.5038
-0.446164 -28.6023 -28.6023
-0.254426 -28.7283 -28.7283
-0.0522292 -28.6206 -28.6206
-0.244044 -28.4946 -28.4946
-0.249229 -28.6114 -28.6114
-0.451409 -28.7191 -28.7191
-0.461931 -28.9529 -28.9529
-0.0677222 -28.9713 -28.9713
-0.0573785 -28.7375 -28.7375
-0.456665 -28.836 -28.836
-0.264859 -28.9621 -28.9621
-0.0625429 -28.8544 -28.8544
-0.254426 -28.7283 -28.7283
-0.259636 -28.8452 -28.8452
-0.461931 -28.9529 -28.9529
-0.472496 -29.1868 -29.1868
-0.0781256 -29.2052 -29.2052
-0.0677222 -28.9713 -28.9713
-0.467208 -29.0699 -29.0699
-0.275344 -29.196 -29.196
-0.0729166 -29.0882 -29.0882
-0.264859 -28.9621 -28.9621
-0.270095 -29.079 -29.079
-0.472496 -29.1868 -29.1868
-0.483104 -29.4208 -29.4208
-0.0885879 -29.4391 -29.4391
-0.0781256 -29.2052 -29.2052
-0.477794 -29.3038 -29.3038
-0.285881 -29.43 -29.43
-0.0833494 -29.3221 -29.3221
-0.275344 -29.196 -29.196
-0.280606 -29.313 -29.313
-0.483104 -29.4208 -29.4208
-0.493757 -29.6549 -29.6549
-0.0991095 -29.6732 -29.6732
-0.0885879 -29.4391 -29.4391
-0.488424 -29.5378 -29.5378
-0.296471 -29.664 -29.664
-0.0938413 -29.5561 -29.5561
-0.285881 -29.43 -29.43
-0.291169 -29.547 -29.547
-0.493757 -29.6549 -29.6549
-0.504457 -29.889 -29.889
-0.109692 -29.9073 -29.9073
-0.0991095 -29.6732 -29.6732
-0.499101 -29.7719 -29.7719
-0.307119 -29.8981 -29.8981
-0.104393 -29.7902 -29.7902
-0.296471 -29.664 -29.664
-0.301787 -29.7811 -29.7811
-0.504457 -29.889 -29.889
-0.515204 -30.1232 -30.1232
-0.120342 -30.1414 -30.1414
-0.109692 -29.9073 -29.9073
-0.509825 -30.0061 -30.0061
-0.317828 -30.1323 -30.1323
-0.115008 -30.0243 -30.0243
-0.307119 -29.8981 -29.8981
-0.312466 -30.0152 -30.0152
-0.515204 -30.1232 -30.1232
-0.525989 -30.3574 -30.3574
-0.131066 -30.3757 -30.3757
-0.120342 -30.1414 -30.1414
-0.520594 -30.2403 -30.2403
-0.328598 -30.3665 -30.3665
-0.125693 -30.2586 -30.2586
-0.317828 -30.1323 -30.1323
-0.323206 -30.2494 -30.2494
-0.525989 -30.3574 -30.3574
-0.536779 -30.5916 -30.5916
-0.141868 -30.6101 -30.6101
-0.131066 -30.3757 -30.3757
-0.531386 -30.4745 -30.4745
-0.339403 -30.6008 -30.6008
-0.136461 -30.4929 -30.4929
-0.328598 -30.3665 -30.3665
-0.334002 -30.4837 -30.4837
-0.536779 -30.5916 -30.5916
-0.547537 -30.8257 -30.8257
-0.15264 -30.8446 -30.8446
-0.141868 -30.6101 -30.6101
-0.542164 -30.7087 -30.7087
-0.350142 -30.8351 -30.8351
-0.147272 -30.7274 -30.7274
-0.339403 -30.6008 -30.6008
-0.344786 -30.718 -30.718
0 0 0
0.00911168 -0.00261798 -0.00261798
0.0153038 -0.00769314 -0.00769314
0 0 0
0.00442286 -0.000942271 -0.000942271
0.0115179 -0.00465694 -0.00465694
0.00832015 -0.00478398 -0.00478398
0 0 0
0.00549518 -0.00204988 -0.00204988
0.00911168 -0.00261798 -0.00261798
0.0189724 -0.00754422 -0.00754422
0.0285488 -0.0133958 -0.0133958
0.0153038 -0.00769314 -0.00769314
0.0139953 -0.0048434 -0.0048434
0.0235161 -0.0101739 -0.0101739
0.0219483 -0.0104368 -0.0104368
0.0115179 -0.00465694 -0.00465694
0.0175507 -0.00733115 -0.00733115
0.0189724 -0.00754422 -0.00754422
0.0289202 -0.0143079 -0.0143079
0.0418949 -0.0202723 -0.0202723
0.0285488 -0.0133958 -0.0133958
0.0239527 -0.0106889 -0.0106889
0.035334 -0.0170677 -0.0170677
0.0351998 -0.0166336 -0.0166336
0.0235161 -0.0101739 -0.0101739
0.0294414 -0.0133976 -0.0133976
0.0289202 -0.0143079 -0.0143079
0.0388119 -0.0231076 -0.0231076
0.055339 -0.0291082 -0.0291082
0.0418949 -0.0202723 -0.0202723
0.0338756 -0.0184414 -0.0184414
0.0470418 -0.0258766 -0.0258766
0.0486085 -0.0244246 -0.0244246
0.035334 -0.0170677 -0.0170677
0.0411975 -0.0212146 -0.0212146
0.0388119 -0.0231076 -0.0231076
0.0486101 -0.0340877 -0.0340877
0.0688434 -0.0400868 -0.0400868
0.055339 -0.0291082 -0.0291082
0.0437223 -0.0283189 -0.0283189
0.0586986 -0.0368582 -0.0368582
0.0620875 -0.0343221 -0.0343221
0.0470418 -0.0258766 -0.0258766
0.0528758 -0.0310877 -0.0310877
0.0486101 -0.0340877 -0.0340877
0.0583315 -0.0473328 -0.0473328
0.0823404 -0.0533318 -0.0533318
0.0688434 -0.0400868 -0.0400868
0.05348 -0.0404247 -0.0404247
0.0703035 -0.0500963 -0.0500963
0.0755952 -0.0464231 -0.0464231
0.0586986 -0.0368582 -0.0368582
0.0645079 -0.0431926 -0.0431926
0.0583315 -0.0473328 -0.0473328
0.0679777 -0.0628676 -0.0628676
0.0958044 -0.0688613 -0.0688613
0.0823404 -0.0533318 -0.0533318
0.0631637 -0.0548133 -0.0548133
0.0818537 -0.0656271 -0.0656271
0.0890781 -0.0608101 -0.0608101
0.0703035 -0.0500963 -0.0500963
0.076086 -0.0575742 -0.0575742
0.0679777 -0.0628676 -0.0628676
0.077554 -0.0806993 -0.0806993
0.109208 -0.086691 -0.086691
0.0958044 -0.0688613 -0.0688613
0.0727745 -0.0714965 -0.0714965
0.0933397 -0.0834559 -0.0834559
0.102515 -0.0774887 -0.0774887
0.0818537 -0.0656271 -0.0656271
0.0876052 -0.0742545 -0.0742545
0.077554 -0.0806993 -0.0806993
0.0870602 -0.100822 -0.100822
0.12254 -0.106813 -0.106813
0.109208 -0.086691 -0.086691
0.0823159 -0.0904747 -0.0904747
0.104756 -0.103578 -0.103578
0.115884 -0.0964658 -0.0964658
0.0933397 -0.0834559 -0.0834559
0.0990569 -0.0932308 -0.0932308
0.0870602 -0.100822 -0.100822
0.096496 -0.123225 -0.123225
0.135788 -0.129218 -0.129218
0.12254 -0.106813 -0.106813
0.091787 -0.111739 -0.111739
0.116096 -0.125983 -0.125983
0.129175 -0.117731 -0.117731
0.104756 -0.103578 -0.103578
0.110436 -0.114496 -0.114496
0.096496 -0.123225 -0.123225
0.10586 -0.147896 -0.147896
0.148949 -0.153895 -0.153895
0.135788 -0.129218 -0.129218
0.101187 -0.135278 -0.135278
0.127358 -0.150658 -0.150658
0.14238 -0.141274 -0.141274
0.116096 -0.125983 -0.125983
0.121737 -0.138037 -0.138037
0.10586 -0.147896 -0.147896
0.11515 -0.174824 -0.174824
0.162018 -0.180832 -0.180832
0.148949 -0.153895 -0.153895
0.110514 -0.161079 -0.161079
0.138537 -0.177591 -0.177591
0.155495 -0.167082 -0.167082
0.127358 -0.150658 -0.150658
0.132958 -0.163843 -0.163843
0.11515 -0.174824 -0.174824
0.124365 -0.203996 -0.203996
0.174992 -0.210015 -0.210015
0.162018 -0.180832 -0.180832
0.119767 -0.189131 -0.189131
0.149631 -0.20677 -0.20677
0.168517 -0.195144 -0.195144
0.138537 -0.177591 -0.177591
0.144095 -0.191901 -0.191901
0.124365 -0.203996 -0.203996
0.133503 -0.235399 -0.235399
0.187868 -0.241433 -0.241433
0.174992 -0.210015 -0.210015
0.128944 -0.219419 -0.219419
0.160639 -0.238181 -0.238181
0.181442 -0.225446 -0.225446
0.149631 -0.20677 -0.20677
0.155146 -0.222197 -0.222197
0.133503 -0.235399 -0.235399
0.142562 -0.26902 -0.26902
0.200646 -0.275072 -0.275072
0.187868 -0.241433 -0.241433
0.138043 -0.251933 -0.251933
0.171557 -0.271812 -0.271812
0.194269 -0.257975 -0.257975
0.160639 -0.238181 -0.238181
0.166109 -0.25472 -0.25472
0.142562 -0.26902 -0.26902
0.15154 -0.304847 -0.304847
0.213322 -0.31092 -0.31092
0.200646 -0.275072 -0.275072
0.147061 -0.286659 -0.286659
0.182384 -0.307651 -0.307651
0.206997 -0.29272 -0.29272
0.171557 -0.271812 -0.271812
0.176982 -0.289457 -0.289457
0.15154 -0.304847 -0.304847
0.160436 -0.342869 -0.342869
0.225895 -0.348965 -0.348965
0.213322 -0.31092 -0.31092
0.155999 -0.323585 -0.323585
0.193119 -0.345686 -0.345686
0.219622 -0.329668 -0.329668
0.182384 -0.307651 -0.307651
0.187763 -0.326395 -0.326395
0.160436 -0.342869 -0.342869
0.169248 -0.383072 -0.383072
0.238364 -0.389194 -0.389194
0.225895 -0.348965 -0.348965
0.164853 -0.362698 -0.362698
0.203759 -0.385903 -0.385903
0.232143 -0.368807 -0.368807
0.193119 -0.345686 -0.345686
0.198451 -0.365522 -0.365522
0.169248 -0.383072 -0.383072
0.177973 -0.425444 -0.425444
0.250726 -0.431595 -0.431595
0.238364 -0.389194 -0.389194
0.173621 -0.403987 -0.403987
0.214304 -0.428291 -0.428291
0.244559 -0.410124 -0.410124
0.203759 -0.385903 -0.385903
0.209044 -0.406826 -0.406826
0.177973 -0.425444 -0.425444
0.186612 -0.469973 -0.469973
0.262981 -0.476156 -0.476156
0.250726 -0.431595 -0.431595
0.182304 -0.447439 -0.447439
0.22475 -0.472837 -0.472837
0.256867 -0.453606 -0.453606
0.214304 -0.428291 -0.428291
0.219539 -0.450295 -0.450295
0.186612 -0.469973 -0.469973
0.195161 -0.516646 -0.516646
0.275126 -0.522864 -0.522864
0.262981 -0.476156 -0.476156
0.190898 -0.493042 -0.493042
0.235097 -0.519529 -0.519529
0.269067 -0.499242 -0.499242
0.22475 -0.472837 -0.472837
0.229936 -0.495915 -0.495915
0.195161 -0.516646 -0.516646
0.203619 -0.565452 -0.565452
0.28716 -0.571707 -0.571707
0.275126 -0.522864 -0.522864
0.199402 -0.540784 -0.540784
0.245344 -0.568355 -0.568355
0.281157 -0.547019 -0.547019
0.235097 -0.519529 -0.519529
0.240233 -0.543676 -0.543676
0.203619 -0.565452 -0.565452
0.211986 -0.616378 -0.616378
0.299081 -0.622673 -0.622673
0.28716 -0.571707 -0.571707
0.207814 -0.590651 -0.590651
0.255488 -0.619302 -0.619302
0.293135 -0.596925 -0.596925
0.245344 -0.568355 -0.568355
0.250429 -0.593564 -0.593564
0.211986 -0.616378 -0.616378
0.220258 -0.669412 -0.669412
0.310888 -0.675749 -0.675749
0.299081 -0.622673 -0.622673
0.216134 -0.642633 -0.642633
0.265528 -0.672358 -0.672358
0.304999 -0.648948 -0.648948
0.255488 -0.619302 -0.619302
0.260521 -0.645567 -0.645567
0.220258 -0.669412 -0.669412
0.228435 -0.724542 -0.724542
0.32258 -0.730923 -0.730923
0.310888 -0.675749 -0.675749
0.224359 -0.696716 -0.696716
0.275462 -0.727511 -0.727511
0.316748 -0.703075 -0.703075
0.265528 -0.672358 -0.672358
0.270508 -0.699673 -0.699673
0.228435 -0.724542 -0.724542
0.236516 -0.781755 -0.781755
0.334154 -0.788183 -0.788183
0.32258 -0.730923 -0.730923
0.232488 -0.752889 -0.752889
0.28529 -0.784749 -0.784749
0.328381 -0.759293 -0.759293
0.275462 -0.727511 -0.727511
0.280389 -0.75587 -0.75587
0.236516 -0.781755 -0.781755
0.244499 -0.841039 -0.841039
0.34561 -0.847517 -0.847517
0.334154 -0.788183 -0.788183
0.24052 -0.811139 -0.811139
0.295009 -0.844059 -0.844059
0.339897 -0.817591 -0.817591
0.28529 -0.784749 -0.784749
0.290163 -0.814146 -0.814146
0.244499 -0.841039 -0.841039
0.252382 -0.902381 -0.902381
0.356945 -0.908911 -0.908911
0.34561 -0.847517 -0.847517
0.248453 -0.871453 -0.871453
0.304619 -0.905428 -0.905428
0.351293 -0.877957 -0.877957
0.295009 -0.844059 -0.844059
0.299828 -0.874487 -0.874487
0.252382 -0.902381 -0.902381
0.260164 -0.96577 -0.96577
0.36816 -0.972354 -0.972354
0.356945 -0.908911 -0.908911
0.256285 -0.933821 -0.933821
0.314117 -0.968846 -0.968846
0.362568 -0.940377 -0.940377
0.304619 -0.905428 -0.905428
0.309382 -0.936882 -0.936882
0.260164 -0.96577 -0.96577
0.267844 -1.03119 -1.03119
0.379252 -1.03783 -1.03783
0.36816 -0.972354 -0.972354
0.264017 -0.998228 -0.998228
0.323503 -1.0343 -1.0343
0.373721 -1.00484 -1.00484
0.314117 -0.968846 -0.968846
0.318824 -1.00132 -1.00132
0.267844 -1.03119 -1.03119
0.27542 -1.09864 -1.09864
0.39022 -1.10534 -1.10534
0.379252 -1.03783 -1.03783
0.271645 -1.06466 -1.06466
0.332776 -1.10177 -1.10177
0.384751 -1.07133 -1.07133
0.323503 -1.0343 -1.0343
0.328154 -1.06778 -1.06778
0.27542 -1.09864 -1.09864
0.282892 -1.16809 -1.16809
0.401063 -1.17485 -1.17485
0.39022 -1.10534 -1.10534
0.279169 -1.13312 -1.13312
0.341933 -1.17126 -1.17126
0.395657 -1.13984 -1.13984
0.332776 -1.10177 -1.10177
0.337369 -1.13627 -1.13627
0.282892 -1.16809 -1.16809
0.290257 -1.23955 -1.23955
0.411779 -1.24637 -1.24637
0.401063 -1.17485 -1.17485
0.286588 -1.20357 -1.20357
0.350974 -1.24275 -1.24275
0.406437 -1.21036 -1.21036
0.341933 -1.17126 -1.17126
0.346468 -1.20675 -1.20675
0.290257 -1.23955 -1.23955
0.297516 -1.31298 -1.31298
0.422368 -1.31987 -1.31987
0.411779 -1.24637 -1.24637
0.2939 -1.27602 -1.27602
0.359898 -1.31622 -1.31622
0.417089 -1.28287 -1.28287
0.350974 -1.24275 -1.24275
0.355451 -1.27923 -1.27923
0.297516 -1.31298 -1.31298
0.304666 -1.38839 -1.38839
0.432827 -1.39535 -1.39535
0.422368 -1.31987 -1.31987
0.301104 -1.35044 -1.35044
0.368703 -1.39166 -1.39166
0.427614 -1.35736 -1.35736
0.359898 -1.31622 -1.31622
0.364315 -1.35369 -1.35369
0.304666 -1.38839 -1.38839
0.311706 -1.46576 -1.46576
0.443157 -1.47279 -1.47279
0.432827 -1.39535 -1.39535
0.3082 -1.42683 -1.42683
0.377388 -1.46907 -1.46907
0.438008 -1.43382 -1.43382
0.368703 -1.39166 -1.39166
0.37306 -1.43012 -1.43012
0.311706 -1.46576 -1.46576
0.318636 -1.54508 -1.54508
0.453356 -1.55218 -1.55218
0.443157 -1.47279 -1.47279
0.315185 -1.50518 -1.50518
0.385952 -1.54842 -1.54842
0.448273 -1.51224 -1.51224
0.377388 -1.46907 -1.46907
0.381685 -1.5085 -1.5085
0.318636 -1.54508 -1.54508
0.325454 -1.62634 -1.62634
0.463422 -1.6335 -1.6335
0.453356 -1.55218 -1.55218
0.322059 -1.58547 -1.58547
0.394394 -1.62972 -1.62972
0.458405 -1.5926 -1.5926
0.385952 -1.54842 -1.54842
0.390189 -1.58883 -1.58883
0.325454 -1.62634 -1.62634
0.332159 -1.70952 -1.70952
0.473355 -1.71676 -1.71676
0.463422 -1.6335 -1.6335
0.328821 -1.66769 -1.66769
0.402713 -1.71293 -1.71293
0.468405 -1.67489 -1.67489
0.394394 -1.62972 -1.62972
0.398569 -1.67109 -1.67109
0.332159 -1.70952 -1.70952
0.33875 -1.79461 -1.79461
0.483153 -1.80192 -1.80192
0.473355 -1.71676 -1.71676
0.335469 -1.75183 -1.75183
0.410908 -1.79806 -1.79806
0.478271 -1.7591 -1.7591
0.402713 -1.71293 -1.71293
0.406826 -1.75526 -1.75526
0.33875 -1.79461 -1.79461
0.345226 -1.8816 -1.8816
0.492817 -1.88899 -1.88899
0.483153 -1.80192 -1.80192
0.342002 -1.83787 -1.83787
0.418978 -1.88509 -1.88509
0.488002 -1.84522 -1.84522
0.410908 -1.79806 -1.79806
0.414959 -1.84134 -1.84134
0.345226 -1.8816 -1.8816
0.351586 -1.97048 -1.97048
0.502343 -1.97795 -1.97795
0.492817 -1.88899 -1.88899
0.34842 -1.9258 -1.9258
0.426922 -1.97401 -1.97401
0.497597 -1.93323 -1.93323
0.418978 -1.88509 -1.88509
0.422966 -1.92932 -1.92932
0.351586 -1.97048 -1.97048
0.357829 -2.06123 -2.06123
0.511733 -2.06878 -2.06878
0.502343 -1.97795 -1.97795
0.354722 -2.01562 -2.01562
0.434738 -2.06481 -2.06481
0.507055 -2.02313 -2.02313
0.426922 -1.97401 -1.97401
0.430846 -2.01917 -2.01917
0.357829 -2.06123 -2.06123
0.363954 -2.15384 -2.15384
0.520984 -2.16148 -2.16148
0.511733 -2.06878 -2.06878
0.360906 -2.1073 -2.1073
0.442426 -2.15746 -2.15746
0.516376 -2.1149 -2.1149
0.434738 -2.06481 -2.06481
0.438598 -2.1109 -2.1109
0.363954 -2.15384 -2.15384
0.369961 -2.24831 -2.24831
0.530096 -2.25603 -2.25603
0.520984 -2.16148 -2.16148
0.366972 -2.20084 -2.20084
0.449985 -2.25197 -2.25197
0.525557 -2.20852 -2.20852
0.442426 -2.15746 -2.15746
0.446222 -2.20449 -2.20449
0.369961 -2.24831 -2.24831
0.375848 -2.34461 -2.34461
0.539067 -2.35241 -2.35241
0.530096 -2.25603 -2.25603
0.372919 -2.29623 -2.29623
0.457415 -2.34832 -2.34832
0.534599 -2.30399 -2.30399
0.449985 -2.25197 -2.25197
0.453716 -2.29991 -2.29991
0.375848 -2.34461 -2.34461
0.381614 -2.44274 -2.44274
0.547898 -2.45063 -2.45063
0.539067 -2.35241 -2.35241
0.378746 -2.39345 -2.39345
0.464713 -2.44649 -2.44649
0.5435 -2.40129 -2.40129
0.457415 -2.34832 -2.34832
0.46108 -2.39718 -2.39718
0.381614 -2.44274 -2.44274
0.387259 -2.54268 -2.54268
0.556587 -2.55066 -2.55066
0.547898 -2.45063 -2.45063
0.384451 -2.49248 -2.49248
0.47188 -2.54648 -2.54648
0.55226 -2.50042 -2.50042
0.464713 -2.44649 -2.44649
0.468313 -2.49626 -2.49626
0.387259 -2.54268 -2.54268
0.392781 -2.64442 -2.64442
0.565133 -2.65249 -2.65249
0.556587 -2.55066 -2.55066
0.390035 -2.59333 -2.59333
0.478915 -2.64827 -2.64827
0.560878 -2.60135 -2.60135
0.47188 -2.54648 -2.54648
0.475414 -2.59715 -2.59715
0.392781 -2.64442 -2.64442
0.398181 -2.74796 -2.74796
0.573536 -2.75612 -2.75612
0.565133 -2.65249 -2.65249
0.395497 -2.69597 -2.69597
0.485816 -2.75184 -2.75184
0.569353 -2.70408 -2.70408
0.478915 -2.64827 -2.64827
0.482382 -2.69983 -2.69983
0.398181 -2.74796 -2.74796
0.403457 -2.85326 -2.85326
0.581795 -2.86152 -2.86152
0.573536 -2.75612 -2.75612
0.400835 -2.80039 -2.80039
0.492584 -2.8572 -2.8572
0.577684 -2.80859 -2.80859
0.485816 -2.75184 -2.75184
0.489217 -2.8043 -2.8043
0.403457 -2.85326 -2.85326
0.408609 -2.96034 -2.96034
0.589909 -2.96868 -2.96868
0.581795 -2.86152 -2.86152
0.406048 -2.90658 -2.90658
0.499216 -2.96432 -2.96432
0.58587 -2.91488 -2.91488
0.492584 -2.8572 -2.8572
0.495917 -2.91054 -2.91054
0.408609 -2.96034 -2.96034
0.413635 -3.06916 -3.06916
0.597877 -3.0776 -3.0776
0.589909 -2.96868 -2.96868
0.411137 -3.01453 -3.01453
0.505714 -3.0732 -3.0732
0.593911 -3.02292 -3.02292
0.499216 -2.96432 -2.96432
0.502482 -3.01854 -3.01854
0.413635 -3.06916 -3.06916
0.418536 -3.17973 -3.17973
0.605699 -3.18826 -3.18826
0.597877 -3.0776 -3.0776
0.416101 -3.12423 -3.12423
0.512075 -3.18381 -3.18381
0.601806 -3.13272 -3.13272
0.505714 -3.0732 -3.0732
0.508912 -3.12829 -3.12829
0.418536 -3.17973 -3.17973
0.42331 -3.29202 -3.29202
0.613374 -3.30065 -3.30065
0.605699 -3.18826 -3.18826
0.420938 -3.23566 -3.23566
0.5183 -3.29615 -3.29615
0.609555 -3.24424 -3.24424
0.512075 -3.18381 -3.18381
0.515205 -3.23977 -3.23977
0.42331 -3.29202 -3.29202
0.427956 -3.40603 -3.40603
0.620901 -3.41476 -3.41476
0.613374 -3.30065 -3.30065
0.425649 -3.34881 -3.34881
0.524387 -3.41021 -3.41021
0.617156 -3.35749 -3.35749
0.5183 -3.29615 -3.29615
0.521361 -3.35297 -3.35297
0.427956 -3.40603 -3.40603
0.432476 -3.52174 -3.52174
0.628281 -3.53057 -3.53057
0.620901 -3.41476 -3.41476
0.430232 -3.46367 -3.46367
0.530336 -3.52598 -3.52598
0.62461 -3.47245 -3.47245
0.524387 -3.41021 -3.41021
0.527379 -3.46788 -3.46788
0.432476 -3.52174 -3.52174
0.436867 -3.63915 -3.63915
0.635511 -3.64808 -3.64808
0.628281 -3.53057 -3.53057
0.434687 -3.58023 -3.58023
0.536147 -3.64343 -3.64343
0.631915 -3.58911 -3.58911
0.530336 -3.52598 -3.52598
0.533259 -3.58449 -3.58449
0.436867 -3.63915 -3.63915
0.441129 -3.75823 -3.75823
0.642593 -3.76726 -3.76726
0.635511 -3.64808 -3.64808
0.439014 -3.69848 -3.69848
0.541819 -3.76256 -3.76256
0.639071 -3.70746 -3.70746
0.536147 -3.64343 -3.64343
0.539 -3.70279 -3.70279
0.441129 -3.75823 -3.75823
0.445261 -3.87898 -3.87898
0.649524 -3.88811 -3.88811
0.642593 -3.76726 -3.76726
0.443211 -3.8184 -3.8184
0.547351 -3.88336 -3.88336
0.646077 -3.82748 -3.82748
0.541819 -3.76256 -3.76256
0.544602 -3.82276 -3.82276
0.445261 -3.87898 -3.87898
0.449264 -4.00138 -4.00138
0.656305 -4.01061 -4.01061
0.649524 -3.88811 -3.88811
0.447279 -3.93997 -3.93997
0.552743 -4.00582 -4.00582
0.652933 -3.94915 -3.94915
0.547351 -3.88336 -3.88336
0.550064 -3.94439 -3.94439
0.449264 -4.00138 -4.00138
0.453136 -4.12542 -4.12542
0.662935 -4.13476 -4.13476
0.656305 -4.01061 -4.01061
0.451216 -4.0632 -4.0632
0.557994 -4.12992 -4.12992
0.659639 -4.07248 -4.07248
0.552743 -4.00582 -4.00582
0.555386 -4.06766 -4.06766
0.453136 -4.12542 -4.12542
0.456877 -4.2511 -4.2511
0.669414 -4.26054 -4.26054
0.662935 -4.13476 -4.13476
0.455023 -4.18806 -4.18806
0.563104 -4.25565 -4.25565
0.666194 -4.19745 -4.19745
0.557994 -4.12992 -4.12992
0.560567 -4.19258 -4.19258
0.456877 -4.2511 -4.2511
0.460488 -4.37839 -4.37839
0.675741 -4.38794 -4.38794
0.669414 -4.26054 -4.26054
0.458699 -4.31454 -4.31454
0.568073 -4.38299 -4.38299
0.672597 -4.32404 -4.32404
0.563104 -4.25565 -4.25565
0.565606 -4.31912 -4.31912
0.460488 -4.37839 -4.37839
0.463966 -4.50729 -4.50729
0.681916 -4.51694 -4.51694
0.675741 -4.38794 -4.38794
0.462243 -4.44264 -4.44264
0.5729 -4.51194 -4.51194
0.678848 -4.45224 -4.45224
0.568073 -4.38299 -4.38299
0.570504 -4.44727 -4.44727
0.463966 -4.50729 -4.50729
0.467312 -4.63778 -4.63778
0.687939 -4.64754 -4.64754
0.681916 -4.51694 -4.51694
0.465656 -4.57234 -4.57234
0.577584 -4.64249 -4.64249
0.684947 -4.58204 -4.58204
0.5729 -4.51194 -4.51194
0.57526 -4.57702 -4.57702
0.467312 -4.63778 -4.63778
0.470526 -4.76985 -4.76985
0.693808 -4.77972 -4.77972
0.687939 -4.64754 -4.64754
0.468936 -4.70362 -4.70362
0.582126 -4.77462 -4.77462
0.690893 -4.71343 -4.71343
0.577584 -4.64249 -4.64249
0.579873 -4.70836 -4.70836
0.470526 -4.76985 -4.76985
0.473607 -4.90349 -4.90349
0.699525 -4.91347 -4.91347
0.693808 -4.77972 -4.77972
0.472083 -4.83648 -4.83648
0.586524 -4.90831 -4.90831
0.696686 -4.8464 -4.8464
0.582126 -4.77462 -4.77462
0.584343 -4.84127 -4.84127
0.473607 -4.90349 -4.90349
0.476555 -5.03869 -5.03869
0.705088 -5.04877 -5.04877
0.699525 -4.91347 -4.91347
0.475097 -4.9709 -4.9709
0.59078 -5.04356 -5.04356
0.702325 -4.98092 -4.98092
0.586524 -4.90831 -4.90831
0.58867 -4.97574 -4.97574
0.476555 -5.03869 -5.03869
0.479369 -5.17543 -5.17543
0.710496 -5.18562 -5.18562
0.705088 -5.04877 -5.04877
0.477979 -5.10687 -5.10687
0.594891 -5.18036 -5.18036
0.707811 -5.117 -5.117
0.59078 -5.04356 -5.04356
0.592854 -5.11177 -5.11177
0.479369 -5.17543 -5.17543
0.48205 -5.31371 -5.31371
0.715751 -5.324 -5.324
0.710496 -5.18562 -5.18562
0.480726 -5.24438 -5.24438
0.598859 -5.31869 -5.31869
0.713143 -5.25462 -5.25462
0.594891 -5.18036 -5.18036
0.596893 -5.24933 -5.24933
0.48205 -5.31371 -5.31371
0.484596 -5.4535 -5.4535
0.720851 -5.4639 -5.4639
0.715751 -5.324 -5.324
0.48334 -5.38341 -5.38341
0.602683 -5.45854 -5.45854
0.718321 -5.39376 -5.39376
0.598859 -5.31869 -5.31869
0.600789 -5.38843 -5.38843
0.484596 -5.4535 -5.4535
0.487009 -5.5948 -5.5948
0.725797 -5.60532 -5.60532
0.720851 -5.4639 -5.4639
0.485819 -5.52396 -5.52396
0.606362 -5.5999 -5.5999
0.723344 -5.53442 -5.53442
0.602683 -5.45854 -5.45854
0.60454 -5.52903 -5.52903
0.487009 -5.5948 -5.5948
0.489286 -5.7376 -5.7376
0.730588 -5.74822 -5.74822
0.725797 -5.60532 -5.60532
0.488164 -5.66601 -5.66601
0.609896 -5.74275 -5.74275
0.728212 -5.67658 -5.67658
0.606362 -5.5999 -5.5999
0.608147 -5.67114 -5.67114
0.489286 -5.7376 -5.7376
0.49143 -5.88188 -5.88188
0.735224 -5.89261 -5.89261
0.730588 -5.74822 -5.74822
0.490375 -5.80955 -5.80955
0.613286 -5.88708 -5.88708
0.732925 -5.82023 -5.82023
0.609896 -5.74275 -5.74275
0.611609 -5.81473 -5.81473
0.49143 -5.88188 -5.88188
0.493438 -6.02763 -6.02763
0.739704 -6.03847 -6.03847
0.735224 -5.89261 -5.89261
0.492451 -5.95457 -5.95457
0.61653 -6.03289 -6.03289
0.737483 -5.96536 -5.96536
0.613286 -5.88708 -5.88708
0.614926 -5.9598 -5.9598
0.493438 -6.02763 -6.02763
0.495312 -6.17484 -6.17484
0.744029 -6.18579 -6.18579
0.739704 -6.03847 -6.03847
0.494392 -6.10105 -6.10105
0.619629 -6.18016 -6.18016
0.741886 -6.11195 -6.11195
0.61653 -6.03289 -6.03289
0.618098 -6.10634 -6.10634
0.495312 -6.17484 -6.17484
0.49705 -6.32349 -6.32349
0.748199 -6.33456 -6.33456
0.744029 -6.18579 -6.18579
0.496198 -6.24898 -6.24898
0.622583 -6.32887 -6.32887
0.746134 -6.26 -6.26
0.619629 -6.18016 -6.18016
0.621125 -6.25433 -6.25433
0.49705 -6.32349 -6.32349
0.498653 -6.47358 -6.47358
0.752213 -6.48476 -6.48476
0.748199 -6.33456 -6.33456
0.497869 -6.39836 -6.39836
0.625392 -6.47902 -6.47902
0.750225 -6.40948 -6.40948
0.622583 -6.32887 -6.32887
0.624006 -6.40377 -6.40377
0.498653 -6.47358 -6.47358
0.500121 -6.62509 -6.62509
0.756071 -6.63638 -6.63638
0.752213 -6.48476 -6.48476
0.499404 -6.54916 -6.54916
0.628055 -6.63059 -6.63059
0.754162 -6.5604 -6.5604
0.625392 -6.47902 -6.47902
0.626742 -6.55462 -6.55462
0.500121 -6.62509 -6.62509
0.501454 -6.77802 -6.77802
0.759774 -6.78942 -6.78942
0.756071 -6.63638 -6.63638
0.500804 -6.70138 -6.70138
0.630573 -6.78357 -6.78357
0.757942 -6.71273 -6.71273
0.628055 -6.63059 -6.63059
0.629332 -6.7069 -6.7069
0.501454 -6.77802 -6.77802
0.502651 -6.93234 -6.93234
0.763321 -6.94385 -6.94385
0.759774 -6.78942 -6.78942
0.502069 -6.855 -6.855
0.632945 -6.93794 -6.93794
0.761567 -6.86646 -6.86646
0.630573 -6.78357 -6.78357
0.631777 -6.86058 -6.86058
0.502651 -6.93234 -6.93234
0.503713 -7.08804 -7.08804
0.766712 -7.09967 -7.09967
0.763321 -6.94385 -6.94385
0.503199 -7.01002 -7.01002
0.635171 -7.09371 -7.09371
0.765036 -7.02159 -7.02159
0.632945 -6.93794 -6.93794
0.634076 -7.01565 -7.01565
0.503713 -7.08804 -7.08804
0.504639 -7.24512 -7.24512
0.769947 -7.25686 -7.25686
0.766712 -7.09967 -7.09967
0.504193 -7.16641 -7.16641
0.637252 -7.25084 -7.25084
0.768349 -7.17809 -7.17809
0.635171 -7.09371 -7.09371
0.63623 -7.1721 -7.1721
0.504639 -7.24512 -7.24512
0.50543 -7.40356 -7.40356
0.773026 -7.41541 -7.41541
0.769947 -7.25686 -7.25686
0.505051 -7.32417 -7.32417
0.639187 -7.40934 -7.40934
0.771506 -7.33596 -7.33596
0.637252 -7.25084 -7.25084
0.638237 -7.32992 -7.32992
0.50543 -7.40356 -7.40356
0.506085 -7.56335 -7.56335
0.775949 -7.57531 -7.57531
0.773026 -7.41541 -7.41541
0.505774 -7.48329 -7.48329
0.640976 -7.56918 -7.56918
0.774507 -7.49519 -7.49519
0.639187 -7.40934 -7.40934
0.6401 -7.48909 -7.48909
0.506085 -7.56335 -7.56335
0.506605 -7.72448 -7.72448
0.778717 -7.73655 -7.73655
0.775949 -7.57531 -7.57531
0.506362 -7.64375 -7.64375
0.64262 -7.73037 -7.73037
0.777353 -7.65576 -7.65576
0.640976 -7.56918 -7.56918
0.641816 -7.64961 -7.64961
0.506605 -7.72448 -7.72448
0.50699 -7.88693 -7.88693
0.781329 -7.89911 -7.89911
0.778717 -7.73655 -7.73655
0.506814 -7.80554 -7.80554
0.644118 -7.89288 -7.89288
0.780042 -7.81766 -7.81766
0.64262 -7.73037 -7.73037
0.643387 -7.81146 -7.81146
0.50699 -7.88693 -7.88693
0.50724 -8.05069 -8.05069
0.783785 -8.06298 -8.06298
0.781329 -7.89911 -7.89911
0.507132 -7.96865 -7.96865
0.645471 -8.0567 -8.0567
0.782577 -7.98088 -7.98088
0.644118 -7.89288 -7.89288
0.644813 -7.97462 -7.97462
0.50724 -8.05069 -8.05069
0.507354 -8.21575 -8.21575
0.786086 -8.22816 -8.22816
0.783785 -8.06298 -8.06298
0.507314 -8.13306 -8.13306
0.646679 -8.22181 -8.22181
0.784955 -8.14541 -8.14541
0.645471 -8.0567 -8.0567
0.646093 -8.13909 -8.13909
0.507354 -8.21575 -8.21575
0.507334 -8.3821 -8.3821
0.788232 -8.39462 -8.39462
0.786086 -8.22816 -8.22816
0.507361 -8.29877 -8.29877
0.647742 -8.38822 -8.38822
0.787178 -8.31123 -8.31123
0.646679 -8.22181 -8.22181
0.647228 -8.30486 -8.30486
0.507334 -8.3821 -8.3821
0.507178 -8.54973 -8.54973
0.790222 -8.56236 -8.56236
0.788232 -8.39462 -8.39462
0.507273 -8.46576 -8.46576
0.648659 -8.55591 -8.55591
0.789246 -8.47833 -8.47833
0.647742 -8.38822 -8.38822
0.648218 -8.47191 -8.47191
0.507178 -8.54973 -8.54973
0.506888 -8.71862 -8.71862
0.792057 -8.73136 -8.73136
0.790222 -8.56236 -8.56236
0.50705 -8.63402 -8.63402
0.649432 -8.72485 -8.72485
0.791159 -8.6467 -8.6467
0.648659 -8.55591 -8.55591
0.649064 -8.64022 -8.64022
0.506888 -8.71862 -8.71862
0.506464 -8.88876 -8.88876
0.793738 -8.90161 -8.90161
0.792057 -8.73136 -8.73136
0.506693 -8.80354 -8.80354
0.65006 -8.89505 -8.89505
0.792917 -8.81633 -8.81633
0.649432 -8.72485 -8.72485
0.649764 -8.8098 -8.8098
0.506464 -8.88876 -8.88876
0.505905 -9.06015 -9.06015
0.795264 -9.0731 -9.0731
0.793738 -8.90161 -8.90161
0.506201 -8.9743 -8.9743
0.650543 -9.06649 -9.06649
0.79452 -8.9872 -8.9872
0.65006 -8.89505 -8.89505
0.65032 -8.98062 -8.98062
0.505905 -9.06015 -9.06015
0.505212 -9.23276 -9.23276
0.796635 -9.24582 -9.24582
0.795264 -9.0731 -9.0731
0.505576 -9.1463 -9.1463
0.650883 -9.23915 -9.23915
0.795969 -9.15931 -9.15931
0.650543 -9.06649 -9.06649
0.650731 -9.15267 -9.15267
0.505212 -9.23276 -9.23276
0.504386 -9.40658 -9.40658
0.797852 -9.41975 -9.41975
0.796635 -9.24582 -9.24582
0.504816 -9.31952 -9.31952
0.651078 -9.41303 -9.41303
0.797263 -9.33263 -9.33263
0.650883 -9.23915 -9.23915
0.650998 -9.32594 -9.32594
0.504386 -9.40658 -9.40658
0.503426 -9.58161 -9.58161
0.798915 -9.59489 -9.59489
0.797852 -9.41975 -9.41975
0.503922 -9.49394 -9.49394
0.651129 -9.58812 -9.58812
0.798403 -9.50717 -9.50717
0.651078 -9.41303 -9.41303
0.651121 -9.50043 -9.50043
0.503426 -9.58161 -9.58161
0.502332 -9.75782 -9.75782
0.799825 -9.77121 -9.77121
0.798915 -9.59489 -9.59489
0.502895 -9.66957 -9.66957
0.651037 -9.76439 -9.76439
0.799389 -9.6829 -9.6829
0.651129 -9.58812 -9.58812
0.651101 -9.6761 -9.6761
0.502332 -9.75782 -9.75782
0.501106 -9.93522 -9.93522
0.800581 -9.94872 -9.94872
0.799825 -9.77121 -9.77121
0.501735 -9.84637 -9.84637
0.650802 -9.94184 -9.94184
0.800222 -9.85982 -9.85982
0.651037 -9.76439 -9.76439
0.650937 -9.85297 -9.85297
0.501106 -9.93522 -9.93522
0.499746 -10.1138 -10.1138
0.801184 -10.1274 -10.1274
0.800581 -9.94872 -9.94872
0.500442 -10.0244 -10.0244
0.650424 -10.1205 -10.1205
0.800901 -10.0379 -10.0379
0.650802 -9.94184 -9.94184
0.650631 -10.031 -10.031
0.499746 -10.1138 -10.1138
0.498255 -10.2935 -10.2935
0.801634 -10.3072 -10.3072
0.801184 -10.1274 -10.1274
0.499017 -10.2035 -10.2035
0.649903 -10.3002 -10.3002
0.801428 -10.2172 -10.2172
0.650424 -10.1205 -10.1205
0.650181 -10.2102 -10.2102
0.498255 -10.2935 -10.2935
0.496631 -10.4744 -10.4744
0.801932 -10.4882 -10.4882
0.801634 -10.3072 -10.3072
0.497459 -10.3838 -10.3838
0.64924 -10.4811 -10.4811
0.801802 -10.3975 -10.3975
0.649903 -10.3002 -10.3002
0.649589 -10.3905 -10.3905
0.496631 -10.4744 -10.4744
0.494875 -10.6563 -10.6563
0.802078 -10.6703 -10.6703
0.801932 -10.4882 -10.4882
0.49577 -10.5652 -10.5652
0.648435 -10.6632 -10.6632
0.802024 -10.5791 -10.5791
0.64924 -10.4811 -10.4811
0.648855 -10.572 -10.572
0.494875 -10.6563 -10.6563
0.492989 -10.8395 -10.8395
0.802072 -10.8535 -10.8535
0.802078 -10.6703 -10.6703
0.493948 -10.7478 -10.7478
0.647489 -10.8463 -10.8463
0.802093 -10.7617 -10.7617
0.648435 -10.6632 -10.6632
0.64798 -10.7546 -10.7546
0.492989 -10.8395 -10.8395
0.490971 -11.0237 -11.0237
0.801914 -11.0378 -11.0378
0.802072 -10.8535 -10.8535
0.491996 -10.9314 -10.9314
0.646401 -11.0306 -11.0306
0.802012 -10.9455 -10.9455
0.647489 -10.8463 -10.8463
0.646962 -10.9383 -10.9383
0.490971 -11.0237 -11.0237
0.488823 -11.209 -11.209
0.801606 -11.2232 -11.2232
0.801914 -11.0378 -11.0378
0.489913 -11.1162 -11.1162
0.645173 -11.216 -11.216
0.801779 -11.1304 -11.1304
0.646401 -11.0306 -11.0306
0.645804 -11.1231 -11.1231
0.488823 -11.209 -11.209
0.486544 -11.3954 -11.3954
0.801147 -11.4097 -11.4097
0.801606 -11.2232 -11.2232
0.4877 -11.302 -11.302
0.643804 -11.4024 -11.4024
0.801395 -11.3163 -11.3163
0.645173 -11.216 -11.216
0.644506 -11.309 -11.309
0.486544 -11.3954 -11.3954
0.484136 -11.5828 -11.5828
0.800538 -11.5972 -11.5972
0.801147 -11.4097 -11.4097
0.485356 -11.4889 -11.4889
0.642295 -11.5899 -11.5899
0.800861 -11.5033 -11.5033
0.643804 -11.4024 -11.4024
0.643067 -11.496 -11.496
0.484136 -11.5828 -11.5828
0.481598 -11.7713 -11.7713
0.79978 -11.7859 -11.7859
0.800538 -11.5972 -11.5972
0.482883 -11.6769 -11.6769
0.640647 -11.7785 -11.7785
0.800178 -11.6914 -11.6914
0.642295 -11.5899 -11.5899
0.641489 -11.6841 -11.6841
0.481598 -11.7713 -11.7713
0.478932 -11.9609 -11.9609
0.798872 -11.9755 -11.9755
0.79978 -11.7859 -11.7859
0.480281 -11.866 -11.866
0.63886 -11.9681 -11.9681
0.799344 -11.8806 -11.8806
0.640647 -11.7785 -11.7785
0.639771 -11.8732 -11.8732
0.478932 -11.9609 -11.9609
0.476137 -12.1515 -12.1515
0.797816 -12.1662 -12.1662
0.798872 -11.9755 -11.9755
0.477551 -12.056 -12.056
0.636935 -12.1587 -12.1587
0.798362 -12.0707 -12.0707
0.63886 -11.9681 -11.9681
0.637915 -12.0633 -12.0633
0.476137 -12.1515 -12.1515
0.473215 -12.3431 -12.3431
0.796611 -12.3579 -12.3579
0.797816 -12.1662 -12.1662
0.474692 -12.2471 -12.2471
0.634871 -12.3504 -12.3504
0.797232 -12.2619 -12.2619
0.636935 -12.1587 -12.1587
0.63592 -12.2544 -12.2544
0.473215 -12.3431 -12.3431
0.470165 -12.5357 -12.5357
0.795259 -12.5506 -12.5506
0.796611 -12.3579 -12.3579
0.471706 -12.4393 -12.4393
0.63267 -12.5431 -12.5431
0.795953 -12.4541 -12.4541
0.634871 -12.3504 -12.3504
0.633788 -12.4466 -12.4466
0.470165 -12.5357 -12.5357
0.466988 -12.7293 -12.7293
0.793759 -12.7443 -12.7443
0.795259 -12.5506 -12.5506
0.468592 -12.6324 -12.6324
0.630332 -12.7367 -12.7367
0.794527 -12.6474 -12.6474
0.63267 -12.5431 -12.5431
0.631518 -12.6398 -12.6398
0.466988 -12.7293 -12.7293
0.463685 -12.9239 -12.9239
0.792113 -12.939 -12.939
0.793759 -12.7443 -12.7443
0.465353 -12.8265 -12.8265
0.627857 -12.9314 -12.9314
0.792954 -12.8416 -12.8416
0.630332 -12.7367 -12.7367
0.629112 -12.8339 -12.8339
0.463685 -12.9239 -12.9239
0.460257 -13.1195 -13.1195
0.790321 -13.1347 -13.1347
0.792113 -12.939 -12.939
0.461987 -13.0216 -13.0216
0.625247 -13.127 -13.127
0.791235 -13.0368 -13.0368
0.627857 -12.9314 -12.9314
0.626569 -13.0291 -13.0291
0.460257 -13.1195 -13.1195
0.456703 -13.316 -13.316
0.788383 -13.3313 -13.3313
0.790321 -13.1347 -13.1347
0.458495 -13.2176 -13.2176
0.622501 -13.3236 -13.3236
0.78937 -13.2329 -13.2329
0.625247 -13.127 -13.127
0.623891 -13.2252 -13.2252
0.456703 -13.316 -13.316
0.453024 -13.5135 -13.5135
0.786301 -13.5289 -13.5289
0.788383 -13.3313 -13.3313
0.454879 -13.4146 -13.4146
0.61962 -13.5211 -13.5211
0.78736 -13.43 -13.43
0.622501 -13.3236 -13.3236
0.621077 -13.4222 -13.4222
0.453024 -13.5135 -13.5135
0.449222 -13.7119 -13.7119
0.784074 -13.7274 -13.7274
0.786301 -13.5289 -13.5289
0.451138 -13.6126 -13.6126
0.616605 -13.7196 -13.7196
0.785205 -13.628 -13.628
0.61962 -13.5211 -13.5211
0.618129 -13.6202 -13.6202
0.449222 -13.7119 -13.7119
0.445296 -13.9113 -13.9113
0.781703 -13.9268 -13.9268
0.784074 -13.7274 -13.7274
0.447274 -13.8115 -13.8115
0.613457 -13.9189 -13.9189
0.782906 -13.827 -13.827
0.616605 -13.7196 -13.7196
0.615048 -13.8191 -13.8191
0.445296 -13.9113 -13.9113
0.441247 -14.1115 -14.1115
0.779189 -14.1272 -14.1272
0.781703 -13.9268 -13.9268
0.443286 -14.0113 -14.0113
0.610175 -14.1192 -14.1192
0.780464 -14.0269 -14.0269
0.613457 -13.9189 -13.9189
0.611833 -14.019 -14.019
0.441247 -14.1115 -14.1115
0.437076 -14.3126 -14.3126
0.776532 -14.3284 -14.3284
0.779189 -14.1272 -14.1272
0.439177 -14.212 -14.212
0.606762 -14.3204 -14.3204
0.777878 -14.2277 -14.2277
0.610175 -14.1192 -14.1192
0.608485 -14.2197 -14.2197
0.437076 -14.3126 -14.3126
0.432783 -14.5147 -14.5147
0.773734 -14.5305 -14.5305
0.776532 -14.3284 -14.3284
0.434945 -14.4136 -14.4136
0.603216 -14.5225 -14.5225
0.775151 -14.4294 -14.4294
0.606762 -14.3204 -14.3204
0.605005 -14.4214 -14.4214
0.432783 -14.5147 -14.5147
0.42837 -14.7176 -14.7176
0.770795 -14.7335 -14.7335
0.773734 -14.5305 -14.5305
0.430592 -14.616 -14.616
0.59954 -14.7255 -14.7255
0.772282 -14.6319 -14.6319
0.603216 -14.5225 -14.5225
0.601394 -14.6239 -14.6239
0.42837 -14.7176 -14.7176
0.423836 -14.9214 -14.9214
0.767714 -14.9374 -14.9374
0.770795 -14.7335 -14.7335
0.426118 -14.8194 -14.8194
0.595733 -14.9293 -14.9293
0.769272 -14.8354 -14.8354
0.59954 -14.7255 -14.7255
0.597653 -14.8273 -14.8273
0.423836 -14.9214 -14.9214
0.419183 -15.126 -15.126
0.764495 -15.1421 -15.1421
0.767714 -14.9374 -14.9374
0.421525 -15.0236 -15.0236
0.591796 -15.134 -15.134
0.766122 -15.0397 -15.0397
0.595733 -14.9293 -14.9293
0.593781 -15.0315 -15.0315
0.419183 -15.126 -15.126
0.414411 -15.3315 -15.3315
0.761135 -15.3477 -15.3477
0.764495 -15.1421 -15.1421
0.416812 -15.2286 -15.2286
0.587731 -15.3395 -15.3395
0.762832 -15.2448 -15.2448
0.591796 -15.134 -15.134
0.58978 -15.2366 -15.2366
0.414411 -15.3315 -15.3315
0.409521 -15.5378 -15.5378
0.757638 -15.554 -15.554
0.761135 -15.3477 -15.3477
0.411981 -15.4345 -15.4345
0.583537 -15.5458 -15.5458
0.759404 -15.4507 -15.4507
0.587731 -15.3395 -15.3395
0.58565 -15.4425 -15.4425
0.409521 -15.5378 -15.5378
0.404514 -15.7449 -15.7449
0.754003 -15.7612 -15.7612
0.757638 -15.554 -15.554
0.407032 -15.6412 -15.6412
0.579215 -15.753 -15.753
0.755837 -15.6575 -15.6575
0.583537 -15.5458 -15.5458
0.581392 -15.6493 -15.6493
0.404514 -15.7449 -15.7449
0.399389 -15.9528 -15.9528
0.75023 -15.9692 -15.9692
0.754003 -15.7612 -15.7612
0.401966 -15.8487 -15.8487
0.574767 -15.9609 -15.9609
0.752134 -15.8651 -15.8651
0.579215 -15.753 -15.753
0.577007 -15.8568 -15.8568
0.399389 -15.9528 -15.9528
0.394149 -16.1615 -16.1615
0.746322 -16.178 -16.178
0.75023 -15.9692 -15.9692
0.396784 -16.057 -16.057
0.570192 -16.1696 -16.1696
0.748293 -16.0735 -16.0735
0.574767 -15.9609 -15.9609
0.572495 -16.0652 -16.0652
0.394149 -16.1615 -16.1615
0.388794 -16.3709 -16.3709
0.742278 -16.3875 -16.3875
0.746322 -16.178 -16.178
0.391486 -16.2661 -16.2661
0.565493 -16.3792 -16.3792
0.744316 -16.2827 -16.2827
0.570192 -16.1696 -16.1696
0.567858 -16.2743 -16.2743
0.388794 -16.3709 -16.3709
0.383324 -16.5812 -16.5812
0.738099 -16.5979 -16.5979
0.742278 -16.3875 -16.3875
0.386073 -16.476 -16.476
0.560668 -16.5894 -16.5894
0.740205 -16.4926 -16.4926
0.565493 -16.3792 -16.3792
0.563096 -16.4842 -16.4842
0.383324 -16.5812 -16.5812
0.37774 -16.7922 -16.7922
0.733786 -16.8089 -16.8089
0.738099 -16.5979 -16.5979
0.380546 -16.6866 -16.6866
0.55572 -16.8005 -16.8005
0.735959 -16.7033 -16.7033
0.560668 -16.5894 -16.5894
0.558209 -16.6949 -16.6949
0.37774 -16.7922 -16.7922
0.372044 -17.0039 -17.0039
0.729339 -17.0207 -17.0207
0.733786 -16.8089 -16.8089
0.374906 -16.898 -16.898
0.550648 -17.0122 -17.0122
0.731579 -16.9147 -16.9147
0.55572 -16.8005 -16.8005
0.553199 -16.9063 -16.9063
0.372044 -17.0039 -17.0039
0.366235 -17.2164 -17.2164
0.724761 -17.2333 -17.2333
0.729339 -17.0207 -17.0207
0.369153 -17.1101 -17.1101
0.545455 -17.2248 -17.2248
0.727067 -17.1269 -17.1269
0.550648 -17.0122 -17.0122
0.548067 -17.1184 -17.1184
0.366235 -17.2164 -17.2164
0.360315 -17.4296 -17.4296
0.720051 -17.4465 -17.4465
0.724761 -17.2333 -17.2333
0.363289 -17.3229 -17.3229
0.540139 -17.438 -17.438
0.722422 -17.3398 -17.3398
0.545455 -17.2248 -17.2248
0.542812 -17.3313 -17.3313
0.360315 -17.4296 -17.4296
0.354285 -17.6435 -17.6435
0.71521 -17.6605 -17.6605
0.720051 -17.4465 -17.4465
0.357314 -17.5364 -17.5364
0.534704 -17.6519 -17.6519
0.717647 -17.5534 -17.5534
0.540139 -17.438 -17.438
0.537437 -17.5449 -17.5449
0.354285 -17.6435 -17.6435
0.348145 -17.8581 -17.8581
0.710239 -17.8752 -17.8752
0.71521 -17.6605 -17.6605
0.351228 -17.7507 -17.7507
0.529148 -17.8665 -17.8665
0.71274 -17.7677 -17.7677
0.534704 -17.6519 -17.6519
0.531941 -17.7591 -17.7591
0.348145 -17.8581 -17.8581
0.341896 -18.0733 -18.0733
0.705139 -18.0905 -18.0905
0.710239 -17.8752 -17.8752
0.345034 -17.9656 -17.9656
0.523473 -18.0818 -18.0818
0.707705 -17.9827 -17.9827
0.529148 -17.8665 -17.8665
0.526326 -17.9741 -17.9741
0.341896 -18.0733 -18.0733
0.335539 -18.2893 -18.2893
0.69991 -18.3065 -18.3065
0.705139 -18.0905 -18.0905
0.338731 -18.1812 -18.1812
0.517681 -18.2978 -18.2978
0.70254 -18.1984 -18.1984
0.523473 -18.0818 -18.0818
0.520592 -18.1897 -18.1897
0.335539 -18.2893 -18.2893
0.329075 -18.5059 -18.5059
0.694554 -18.5232 -18.5232
0.69991 -18.3065 -18.3065
0.33232 -18.3975 -18.3975
0.511771 -18.5144 -18.5144
0.697248 -18.4147 -18.4147
0.517681 -18.2978 -18.2978
0.51474 -18.406 -18.406
0.329075 -18.5059 -18.5059
0.322504 -18.7231 -18.7231
0.689072 -18.7405 -18.7405
0.694554 -18.5232 -18.5232
0.325803 -18.6144 -18.6144
0.505744 -18.7317 -18.7317
0.691829 -18.6317 -18.6317
0.511771 -18.5144 -18.5144
0.508772 -18.623 -18.623
0.322504 -18.7231 -18.7231
0.315829 -18.941 -18.941
0.683463 -18.9584 -18.9584
0.689072 -18.7405 -18.7405
0.31918 -18.832 -18.832
0.499602 -18.9496 -18.9496
0.686283 -18.8493 -18.8493
0.505744 -18.7317 -18.7317
0.502687 -18.8406 -18.8406
0.315829 -18.941 -18.941
0.309048 -19.1595 -19.1595
0.67773 -19.1769 -19.1769
0.683463 -18.9584 -18.9584
0.312451 -19.0501 -19.0501
0.493345 -19.1681 -19.1681
0.680613 -19.0676 -19.0676
0.499602 -18.9496 -18.9496
0.496488 -19.0588 -19.0588
0.309048 -19.1595 -19.1595
0.302164 -19.3786 -19.3786
0.671873 -19.3961 -19.3961
0.67773 -19.1769 -19.1769
0.305619 -19.2689 -19.2689
0.486974 -19.3873 -19.3873
0.674817 -19.2864 -19.2864
0.493345 -19.1681 -19.1681
0.490174 -19.2776 -19.2776
0.302164 -19.3786 -19.3786
0.295177 -19.5983 -19.5983
0.665893 -19.6159 -19.6159
0.671873 -19.3961 -19.3961
0.298684 -19.4883 -19.4883
0.480491 -19.607 -19.607
0.668899 -19.5059 -19.5059
0.486974 -19.3873 -19.3873
0.483747 -19.4971 -19.4971
0.295177 -19.5983 -19.5983
0.288089 -19.8185 -19.8185
0.659791 -19.8362 -19.8362
0.665893 -19.6159 -19.6159
0.291646 -19.7083 -19.7083
0.473895 -19.8273 -19.8273
0.662857 -19.726 -19.726
0.480491 -19.607 -19.607
0.477207 -19.7171 -19.7171
0.288089 -19.8185 -19.8185
0.280899 -20.0394 -20.0394
0.653568 -20.0571 -20.0571
0.659791 -19.8362 -19.8362
0.284507 -19.9289 -19.9289
0.467189 -20.0482 -20.0482
0.656695 -19.9466 -19.9466
0.473895 -19.8273 -19.8273
0.470556 -19.9377 -19.9377
0.280899 -20.0394 -20.0394
0.27361 -20.2608 -20.2608
0.647224 -20.2786 -20.2786
0.653568 -20.0571 -20.0571
0.277267 -20.15 -20.15
0.460372 -20.2696 -20.2696
0.650411 -20.1678 -20.1678
0.467189 -20.0482 -20.0482
0.463794 -20.1588 -20.1588
0.27361 -20.2608 -20.2608
0.266221 -20.4828 -20.4828
0.640761 -20.5006 -20.5006
0.647224 -20.2786 -20.2786
0.269928 -20.3717 -20.3717
0.453446 -20.4916 -20.4916
0.644007 -20.3895 -20.3895
0.460372 -20.2696 -20.2696
0.456923 -20.3806 -20.3806
0.266221 -20.4828 -20.4828
0.258734 -20.7053 -20.7053
0.634179 -20.7231 -20.7231
0.640761 -20.5006 -20.5006
0.26249 -20.594 -20.594
0.446412 -20.7142 -20.7142
0.637485 -20.6118 -20.6118
0.453446 -20.4916 -20.4916
0.449942 -20.6028 -20.6028
0.258734 -20.7053 -20.7053
0.25115 -20.9283 -20.9283
0.62748 -20.9462 -20.9462
0.634179 -20.7231 -20.7231
0.254954 -20.8167 -20.8167
0.43927 -20.9372 -20.9372
0.630844 -20.8346 -20.8346
0.446412 -20.7142 -20.7142
0.442854 -20.8256 -20.8256
0.25115 -20.9283 -20.9283
0.24347 -21.1519 -21.1519
0.620665 -21.1698 -21.1698
0.62748 -20.9462 -20.9462
0.247322 -21.04 -21.04
0.432022 -21.1608 -21.1608
0.624087 -21.058 -21.058
0.43927 -20.9372 -20.9372
0.435659 -21.0489 -21.0489
0.24347 -21.1519 -21.1519
0.235694 -21.3759 -21.3759
0.613733 -21.3939 -21.3939
0.620665 -21.1698 -21.1698
0.239594 -21.2638 -21.2638
0.424669 -21.3848 -21.3848
0.617213 -21.2818 -21.2818
0.432022 -21.1608 -21.1608
0.428359 -21.2728 -21.2728
0.235694 -21.3759 -21.3759
0.227825 -21.6004 -21.6004
0.606688 -21.6185 -21.6185
0.613733 -21.3939 -21.3939
0.231771 -21.4881 -21.4881
0.417211 -21.6094 -21.6094
0.610225 -21.5061 -21.5061
0.424669 -21.3848 -21.3848
0.420953 -21.4971 -21.4971
0.227825 -21.6004 -21.6004
0.219861 -21.8254 -21.8254
0.599528 -21.8435 -21.8435
0.606688 -21.6185 -21.6185
0.223855 -21.7129 -21.7129
0.409649 -21.8344 -21.8344
0.603122 -21.7309 -21.7309
0.417211 -21.6094 -21.6094
0.413443 -21.7219 -21.7219
0.219861 -21.8254 -21.8254
0.211806 -22.0509 -22.0509
0.592256 -22.069 -22.069
0.599528 -21.8435 -21.8435
0.215845 -21.9381 -21.9381
0.401985 -22.0599 -22.0599
0.595906 -21.9562 -21.9562
0.409649 -21.8344 -21.8344
0.40583 -21.9471 -21.9471
0.211806 -22.0509 -22.0509
0.203659 -22.2768 -22.2768
0.584872 -22.295 -22.295
0.592256 -22.069 -22.069
0.207744 -22.1638 -22.1638
0.39422 -22.2859 -22.2859
0.588578 -22.182 -22.182
0.401985 -22.0599 -22.0599
0.398115 -22.1728 -22.1728
0.203659 -22.2768 -22.2768
0.195421 -22.5032 -22.5032
0.577378 -22.5214 -22.5214
0.584872 -22.295 -22.295
0.199551 -22.39 -22.39
0.386354 -22.5122 -22.5122
0.581139 -22.4081 -22.4081
0.39422 -22.2859 -22.2859
0.390299 -22.399 -22.399
0.195421 -22.5032 -22.5032
0.187095 -22.73 -22.73
0.569774 -22.7482 -22.7482
0.577378 -22.5214 -22.5214
0.191269 -22.6166 -22.6166
0.378388 -22.7391 -22.7391
0.573589 -22.6347 -22.6347
0.386354 -22.5122 -22.5122
0.382383 -22.6256 -22.6256
0.187095 -22.73 -22.73
0.178679 -22.9572 -22.9572
0.562061 -22.9755 -22.9755
0.569774 -22.7482 -22.7482
0.182898 -22.8436 -22.8436
0.370324 -22.9663 -22.9663
0.565931 -22.8618 -22.8618
0.378388 -22.7391 -22.7391
0.374368 -22.8526 -22.8526
0.178679 -22.9572 -22.9572
0.170177 -23.1848 -23.1848
0.55424 -23.2031 -23.2031
0.562061 -22.9755 -22.9755
0.174439 -23.071 -23.071
0.362163 -23.1939 -23.1939
0.558164 -23.0892 -23.0892
0.370324 -22.9663 -22.9663
0.366255 -23.08 -23.08
0.170177 -23.1848 -23.1848
0.161588 -23.4128 -23.4128
0.546313 -23.4311 -23.4311
0.55424 -23.2031 -23.2031
0.165893 -23.2988 -23.2988
0.353904 -23.4219 -23.4219
0.55029 -23.3171 -23.3171
0.362163 -23.1939 -23.1939
0.358045 -23.3079 -23.3079
0.161588 -23.4128 -23.4128
0.152914 -23.6412 -23.6412
0.538281 -23.6595 -23.6595
0.546313 -23.4311 -23.4311
0.157261 -23.527 -23.527
0.345551 -23.6503 -23.6503
0.54231 -23.5453 -23.5453
0.353904 -23.4219 -23.4219
0.349739 -23.5361 -23.5361
0.152914 -23.6412 -23.6412
0.144155 -23.87 -23.87
0.530143 -23.8883 -23.8883
0.538281 -23.6595 -23.6595
0.148545 -23.7555 -23.7555
0.337103 -23.8791 -23.8791
0.534225 -23.7739 -23.7739
0.345551 -23.6503 -23.6503
0.341339 -23.7647 -23.7647
0.144155 -23.87 -23.87
0.135313 -24.0991 -24.0991
0.521902 -24.1175 -24.1175
0.530143 -23.8883 -23.8883
0.139745 -23.9845 -23.9845
0.328561 -24.1082 -24.1082
0.526036 -24.0028 -24.0028
0.337103 -23.8791 -23.8791
0.332844 -23.9936 -23.9936
0.135313 -24.0991 -24.0991
0.126389 -24.3285 -24.3285
0.513559 -24.3469 -24.3469
0.521902 -24.1175 -24.1175
0.130862 -24.2138 -24.2138
0.319928 -24.3377 -24.3377
0.517743 -24.2321 -24.2321
0.328561 -24.1082 -24.1082
0.324256 -24.2229 -24.2229
0.126389 -24.3285 -24.3285
0.117384 -24.5583 -24.5583
0.505114 -24.5767 -24.5767
0.513559 -24.3469 -24.3469
0.121897 -24.4434 -24.4434
0.311202 -24.5675 -24.5675
0.509349 -24.4618 -24.4618
0.319928 -24.3377 -24.3377
0.315576 -24.4525 -24.4525
0.117384 -24.5583 -24.5583
0.108299 -24.7884 -24.7884
0.496569 -24.8069 -24.8069
0.505114 -24.5767 -24.5767
0.112851 -24.6733 -24.6733
0.302387 -24.7976 -24.7976
0.500854 -24.6918 -24.6918
0.311202 -24.5675 -24.5675
0.306806 -24.6825 -24.6825
0.108299 -24.7884 -24.7884
0.0991342 -25.0188 -25.0188
0.487924 -25.0373 -25.0373
0.496569 -24.8069 -24.8069
0.103726 -24.9036 -24.9036
0.293482 -25.028 -25.028
0.492259 -24.922 -24.922
0.302387 -24.7976 -24.7976
0.297946 -24.9128 -24.9128
0.0991342 -25.0188 -25.0188
0.0898917 -25.2495 -25.2495
0.479181 -25.268 -25.268
0.487924 -25.0373 -25.0373
0.0945226 -25.1341 -25.1341
0.284489 -25.2587 -25.2587
0.483565 -25.1526 -25.1526
0.293482 -25.028 -25.028
0.288997 -25.1433 -25.1433
0.0898917 -25.2495 -25.2495
0.0805722 -25.4805 -25.4805
0.470341 -25.499 -25.499
0.479181 -25.268 -25.268
0.0852415 -25.365 -25.365
0.27541 -25.4897 -25.4897
0.474773 -25.3835 -25.3835
0.284489 -25.2587 -25.2587
0.27996 -25.3742 -25.3742
0.0805722 -25.4805 -25.4805
0.0711768 -25.7118 -25.7118
0.461405 -25.7303 -25.7303
0.470341 -25.499 -25.499
0.0758839 -25.5961 -25.5961
0.266244 -25.721 -25.721
0.465885 -25.6146 -25.6146
0.27541 -25.4897 -25.4897
0.270837 -25.6053 -25.6053
0.0711768 -25.7118 -25.7118
0.0617066 -25.9433 -25.9433
0.452373 -25.9618 -25.9618
0.461405 -25.7303 -25.7303
0.066451 -25.8275 -25.8275
0.256993 -25.9525 -25.9525
0.456901 -25.846 -25.846
0.266244 -25.721 -25.721
0.261629 -25.8367 -25.8367
0.0617066 -25.9433 -25.9433
0.0521626 -26.1751 -26.1751
0.443248 -26.1936 -26.1936
0.452373 -25.9618 -25.9618
0.0569437 -26.0592 -26.0592
0.247658 -26.1843 -26.1843
0.447822 -26.0777 -26.0777
0.256993 -25.9525 -25.9525
0.252336 -26.0684 -26.0684
0.0521626 -26.1751 -26.1751
0.0425459 -26.4071 -26.4071
0.434029 -26.4256 -26.4256
0.443248 -26.1936 -26.1936
0.0473633 -26.2911 -26.2911
0.23824 -26.4163 -26.4163
0.43865 -26.3096 -26.3096
0.247658 -26.1843 -26.1843
0.242959 -26.3003 -26.3003
0.0425459 -26.4071 -26.4071
0.0328576 -26.6393 -26.6393
0.424719 -26.6578 -26.6578
0.434029 -26.4256 -26.4256
0.0377107 -26.5232 -26.5232
0.228741 -26.6486 -26.6486
0.429386 -26.5417 -26.5417
0.23824 -26.4163 -26.4163
0.2335 -26.5324 -26.5324
0.0328576 -26.6393 -26.6393
0.0230988 -26.8718 -26.8718
0.415318 -26.8903 -26.8903
0.424719 -26.6578 -26.6578
0.027987 -26.7555 -26.7555
0.219161 -26.881 -26.881
0.42003 -26.774 -26.774
0.228741 -26.6486 -26.6486
0.223961 -26.7647 -26.7647
0.0230988 -26.8718 -26.8718
0.0132706 -27.1044 -27.1044
0.405827 -27.1229 -27.1229
0.415318 -26.8903 -26.8903
0.0181933 -26.9881 -26.9881
0.209501 -27.1136 -27.1136
0.410584 -27.0066 -27.0066
0.219161 -26.881 -26.881
0.214341 -26.9973 -26.9973
0.0132706 -27.1044 -27.1044
0.00337399 -27.3372 -27.3372
0.396247 -27.3558 -27.3558
0.405827 -27.1229 -27.1229
0.00833076 -27.2208 -27.2208
0.199763 -27.3465 -27.3465
0.401048 -27.2393 -27.2393
0.209501 -27.1136 -27.1136
0.204641 -27.23 -27.23
0.00337399 -27.3372 -27.3372
-0.00658984 -27.5702 -27.5702
0.38658 -27.5888 -27.5888
0.396247 -27.3558 -27.3558
-0.00159959 -27.4537 -27.4537
0.189947 -27.5795 -27.5795
0.391425 -27.4722 -27.4722
0.199763 -27.3465 -27.3465
0.194864 -27.4629 -27.4629
-0.00658984 -27.5702 -27.5702
-0.0166198 -27.8034 -27.8034
0.376827 -27.8219 -27.8219
0.38658 -27.5888 -27.5888
-0.0115966 -27.6868 -27.6868
0.180055 -27.8126 -27.8126
0.381714 -27.7053 -27.7053
0.189947 -27.5795 -27.5795
0.185011 -27.696 -27.696
-0.0166198 -27.8034 -27.8034
-0.0267148 -28.0367 -28.0367
0.366988 -28.0552 -28.0552
0.376827 -27.8219 -27.8219
-0.0216592 -27.92 -27.92
0.170088 -28.046 -28.046
0.371918 -27.9386 -27.9386
0.180055 -27.8126 -27.8126
0.175081 -27.9293 -27.9293
-0.0267148 -28.0367 -28.0367
-0.0368736 -28.2702 -28.2702
0.357065 -28.2887 -28.2887
0.366988 -28.0552 -28.0552
-0.0317863 -28.1534 -28.1534
0.160047 -28.2794 -28.2794
0.362037 -28.1719 -28.1719
0.170088 -28.046 -28.046
0.165077 -28.1627 -28.1627
-0.0368736 -28.2702 -28.2702
-0.0470952 -28.5038 -28.5038
0.347059 -28.5222 -28.5222
0.357065 -28.2887 -28.2887
-0.0419767 -28.387 -28.387
0.149934 -28.513 -28.513
0.352072 -28.4054 -28.4054
0.160047 -28.2794 -28.2794
0.155 -28.3962 -28.3962
-0.0470952 -28.5038 -28.5038
-0.0573785 -28.7375 -28.7375
0.336972 -28.7559 -28.7559
0.347059 -28.5222 -28.5222
-0.0522292 -28.6206 -28.6206
0.139749 -28.7467 -28.7467
0.342026 -28.6391 -28.6391
0.149934 -28.513 -28.513
0.14485 -28.6298 -28.6298
-0.0573785 -28.7375 -28.7375
-0.0677222 -28.9713 -28.9713
0.326806 -28.9897 -28.9897
0.336972 -28.7559 -28.7559
-0.0625429 -28.8544 -28.8544
0.129495 -28.9805 -28.9805
0.331899 -28.8728 -28.8728
0.139749 -28.7467 -28.7467
0.13463 -28.8636 -28.8636
-0.0677222 -28.9713 -28.9713
-0.0781256 -29.2052 -29.2052
0.316563 -29.2236 -29.2236
0.326806 -28.9897 -28.9897
-0.0729166 -29.0882 -29.0882
0.119173 -29.2144 -29.2144
0.321694 -29.1067 -29.1067
0.129495 -28.9805 -28.9805
0.124342 -29.0974 -29.0974
-0.0781256 -29.2052 -29.2052
-0.0885879 -29.4391 -29.4391
0.306247 -29.4576 -29.4576
0.316563 -29.2236 -29.2236
-0.0833494 -29.3221 -29.3221
0.108785 -29.4483 -29.4483
0.311413 -29.3406 -29.3406
0.119173 -29.2144 -29.2144
0.113987 -29.3313 -29.3313
-0.0885879 -29.4391 -29.4391
-0.0991095 -29.6732 -29.6732
0.295864 -29.6916 -29.6916
0.306247 -29.4576 -29.4576
-0.0938413 -29.5561 -29.5561
0.0983361 -29.6824 -29.6824
0.301063 -29.5746 -29.5746
0.108785 -29.4483 -29.4483
0.103568 -29.5653 -29.5653
-0.0991095 -29.6732 -29.6732
-0.109692 -29.9073 -29.9073
0.285423 -29.9257 -29.9257
0.295864 -29.6916 -29.6916
-0.104393 -29.7902 -29.7902
0.0878277 -29.9165 -29.9165
0.29065 -29.8086 -29.8086
0.0983361 -29.6824 -29.6824
0.0930889 -29.7994 -29.7994
-0.109692 -29.9073 -29.9073
-0.120342 -30.1414 -30.1414
0.274942 -30.1598 -30.1598
0.285423 -29.9257 -29.9257
-0.115008 -30.0243 -30.0243
0.0772639 -30.1506 -30.1506
0.280187 -30.0427 -30.0427
0.0878277 -29.9165 -29.9165
0.0825532 -30.0335 -30.0335
-0.120342 -30.1414 -30.1414
-0.131066 -30.3757 -30.3757
0.264448 -30.3941 -30.3941
0.274942 -30.1598 -30.1598
-0.125693 -30.2586 -30.2586
0.0666354 -30.3849 -30.3849
0.269694 -30.2769 -30.2769
0.0772639 -30.1506 -30.1506
0.0719579 -30.2677 -30.2677
-0.131066 -30.3757 -30.3757
-0.141868 -30.6101 -30.6101
0.254001 -30.6286 -30.6286
0.264448 -30.3941 -30.3941
-0.136461 -30.4929 -30.4929
0.0559129 -30.6193 -30.6193
0.259212 -30.5113 -30.5113
0.0666354 -30.3849 -30.3849
0.0612929 -30.5021 -30.5021
-0.141868 -30.6101 -30.6101
-0.15264 -30.8446 -30.8446
0.243522 -30.864 -30.864
0.254001 -30.6286 -30.6286
-0.147272 -30.7274 -30.7274
0.0450793 -30.8542 -30.8542
0.248807 -30.746 -30.746
0.0559129 -30.6193 -30.6193
0.0504895 -30.7367 -30.7367
      </DataArray> 
      <DataArray type="Float64" NumberOfComponents="4" Name="CauchyStress" format="ascii">
-16179.6 -4887.99 0 -3802.15
-10441.5 198.395 0 173.416
-7830.49 -852.397 0 -419.567
-7399.59 -2234.76 0 -287.924
-11603.7 240.007 0 -511.196
-9739.65 -601.526 0 -539.665
-7686.75 -1605.81 0 -492.998
-8682.73 -2623.35 0 -930.265
-9621.45 -1320.89 0 -862.494
-10441.5 198.395 0 173.416
-10355.1 113.042 0 70.9331
-7943.83 -259.522 0 -185.727
-7830.49 -852.397 0 -419.567
-10366.2 -39.275 0 87.9058
-9371.49 -90.7547 0 -69.2412
-7938.37 -441.022 0 -294.759
-9739.65 -601.526 0 -539.665
-9489.2 -217.38 0 -204.097
-10355.1 113.042 0 70.9331
-10550 -38.1432 0 53.1823
-7842.79 -55.4124 0 -51.215
-7943.83 -259.522 0 -185.727
-10467.3 72.7509 0 74.6941
-9249.91 -7.9001 0 19.9221
-7883.04 -133.082 0 -98.2022
-9371.49 -90.7547 0 -69.2412
-9305.29 -37.4195 0 -18.6979
-10550 -38.1432 0 53.1823
-10596 10.5568 0 38.3947
-7774.51 -12.4996 0 -17.2536
-7842.79 -55.4124 0 -51.215
-10576.1 -34.8396 0 31.8716
-9193.89 2.36942 0 38.4382
-7812.48 -23.8706 0 -29.3227
-9249.91 -7.9001 0 19.9221
-9211.02 3.18925 0 38.8061
-10596 10.5568 0 38.3947
-10633.3 -12.8548 0 51.9576
-7706.34 3.31386 0 -10.2831
-7774.51 -12.4996 0 -17.2536
-10622.9 7.19793 0 49.737
-9167.86 1.06249 0 33.2586
-7734.87 -2.26417 0 -10.9781
-9193.89 2.36942 0 38.4382
-9183.65 0.633064 0 33.9536
-10633.3 -12.8548 0 51.9576
-10616.5 1.30681 0 58.2859
-7659.28 0.0830158 0 -13.982
-7706.34 3.31386 0 -10.2831
-10625.9 -9.44965 0 52.4257
-9135.31 -1.26177 0 29.4836
-7683.57 2.52509 0 -12.4246
-9167.86 1.06249 0 33.2586
-9150.65 0.597749 0 31.9835
-10616.5 1.30681 0 58.2859
-10591.2 -3.29864 0 69.295
-7613.64 -2.89917 0 -15.8674
-7659.28 0.0830158 0 -13.982
-10606.9 0.838801 0 65.0199
-9100.52 -3.75311 0 28.3197
-7635.06 -1.35247 0 -14.9556
-9135.31 -1.26177 0 29.4836
-9119.33 -2.91712 0 28.0287
-10591.2 -3.29864 0 69.295
-10547.5 -0.2333 0 77.9604
-7572.94 -6.80419 0 -16.1323
-7613.64 -2.89917 0 -15.8674
-10569.9 -2.48818 0 73.0136
-9059.72 -5.11553 0 30.366
-7593.55 -4.98827 0 -16.448
-9100.52 -3.75311 0 28.3197
-9080.23 -4.37374 0 29.1442
-10547.5 -0.2333 0 77.9604
-10499.5 -1.23844 0 87.4683
-7532.16 -9.09177 0 -13.7549
-7572.94 -6.80419 0 -16.1323
-10524.4 -0.343751 0 83.0371
-9016.37 -6.14741 0 34.711
-7552.27 -8.06613 0 -15.1404
-9059.72 -5.11553 0 30.366
-9038.57 -5.75834 0 32.2459
-10499.5 -1.23844 0 87.4683
-10446.5 -0.748599 0 96.285
-7492.24 -10.6675 0 -9.92577
-7532.16 -9.09177 0 -13.7549
-10473.2 -1.13597 0 91.7512
-8970.56 -6.63185 0 40.4043
-7512.29 -9.99518 0 -12.0333
-9016.37 -6.14741 0 34.711
-8993.56 -6.39613 0 37.4446
-10446.5 -0.748599 0 96.285
-10392.1 -1.08089 0 105.124
-7452.12 -11.4536 0 -4.9909
-7492.24 -10.6675 0 -9.92577
-10419.5 -0.830947 0 100.797
-8923.73 -6.95554 0 46.9242
-7472.13 -11.1228 0 -7.54128
-8970.56 -6.63185 0 40.4043
-8947.31 -6.83024 0 43.5873
-10392.1 -1.08089 0 105.124
-10336.6 -1.15156 0 113.694
-7412.09 -11.8514 0 0.456411
-7452.12 -11.4536 0 -4.9909
-10364.4 -1.14341 0 109.397
-8876.15 -7.10206 0 53.7961
-7432.13 -11.6978 0 -2.32101
-8923.73 -6.95554 0 46.9242
-8899.97 -7.03305 0 50.3329
-10336.6 -1.15156 0 113.694
-10280.7 -1.38133 0 122.136
-7371.97 -11.978 0 6.18243
-7412.09 -11.8514 0 0.456411
-10308.7 -1.24817 0 117.951
-8828.29 -7.20011 0 60.8205
-7392.02 -11.9358 0 3.30308
-8876.15 -7.10206 0 53.7961
-8852.26 -7.1601 0 57.3007
-10280.7 -1.38133 0 122.136
-10224.7 -1.57763 0 130.408
-7331.84 -11.9784 0 11.9788
-7371.97 -11.978 0 6.18243
-10252.7 -1.48376 0 126.285
-8780.25 -7.25791 0 67.8394
-7351.91 -11.9909 0 9.07695
-8828.29 -7.20011 0 60.8205
-8804.28 -7.22923 0 64.3355
-10224.7 -1.57763 0 130.408
-10168.6 -1.80819 0 138.533
-7291.67 -11.9099 0 17.7619
-7331.84 -11.9784 0 11.9788
-10196.7 -1.68834 0 134.493
-8732.15 -7.31072 0 74.7935
-7311.75 -11.9489 0 14.8771
-8780.25 -7.25791 0 67.8394
-8756.21 -7.28548 0 71.3278
-10168.6 -1.80819 0 138.533
-10112.6 -2.04317 0 146.51
-7251.49 -11.8164 0 23.4742
-7291.67 -11.9099 0 17.7619
-10140.6 -1.92547 0 142.539
-8684.03 -7.36305 0 81.6426
-7271.58 -11.8652 0 20.6283
-8732.15 -7.31072 0 74.7935
-8708.09 -7.3358 0 78.2323
-10112.6 -2.04317 0 146.51
-10056.5 -2.29119 0 154.34
-7211.31 -11.7158 0 29.095
-7251.49 -11.8164 0 23.4742
-10084.5 -2.16537 0 150.444
-8635.9 -7.42272 0 88.3738
-7231.4 -11.7661 0 26.2972
-8684.03 -7.36305 0 81.6426
-8659.96 -7.3921 0 85.0236
-10056.5 -2.29119 0 154.34
-10000.5 -2.54862 0 162.027
-7171.12 -11.6185 0 34.613
-7211.31 -11.7158 0 29.095
-10028.5 -2.41888 0 158.202
-8587.76 -7.49074 0 94.9805
-7191.21 -11.6665 0 31.8671
-8635.9 -7.42272 0 88.3738
-8611.83 -7.45546 0 91.6929
-10000.5 -2.54862 0 162.027
-9944.43 -2.81572 0 169.571
-7130.92 -11.5284 0 40.0258
-7171.12 -11.6185 0 34.613
-9972.45 -2.68093 0 165.817
-8539.63 -7.56816 0 101.462
-7151.02 -11.5724 0 37.3327
-8587.76 -7.49074 0 94.9805
-8563.7 -7.52834 0 98.2368
-9944.43 -2.81572 0 169.571
-9888.38 -3.09214 0 176.972
-7090.71 -11.447 0 45.333
-7130.92 -11.5284 0 40.0258
-9916.41 -2.95283 0 173.289
-8491.49 -7.65476 0 107.818
-7110.82 -11.4866 0 42.6925
-8539.63 -7.56816 0 101.462
-8515.56 -7.6103 0 104.656
-9888.38 -3.09214 0 176.972
-9832.33 -3.37731 0 184.231
-7050.5 -11.3745 0 50.536
-7090.71 -11.447 0 45.333
-9860.36 -3.23364 0 180.619
-8443.34 -7.75026 0 114.051
-7070.61 -11.4097 0 47.9475
-8491.49 -7.65476 0 107.818
-8467.41 -7.70144 0 110.95
-9832.33 -3.37731 0 184.231
-9776.28 -3.67101 0 191.35
-7010.29 -11.3105 0 55.6361
-7050.5 -11.3745 0 50.536
-9804.31 -3.52313 0 187.809
-8395.19 -7.85419 0 120.162
-7030.4 -11.3415 0 53.0988
-8443.34 -7.75026 0 114.051
-8419.27 -7.8012 0 117.122
-9776.28 -3.67101 0 191.35
-9720.21 -3.97272 0 198.329
-6970.07 -11.2545 0 60.6345
-7010.29 -11.3105 0 55.6361
-9748.25 -3.82089 0 194.857
-8347.03 -7.96611 0 126.151
-6990.18 -11.2816 0 58.1479
-8395.19 -7.85419 0 120.162
-8371.11 -7.90918 0 123.172
-9720.21 -3.97272 0 198.329
-9664.14 -4.2821 0 205.169
-6929.84 -11.2061 0 65.5324
-6970.07 -11.2545 0 60.6345
-9692.17 -4.12648 0 201.767
-8298.86 -8.08557 0 132.021
-6949.95 -11.2294 0 63.096
-8347.03 -7.96611 0 126.151
-8322.95 -8.02492 0 129.101
-9664.14 -4.2821 0 205.169
-9608.05 -4.59869 0 211.87
-6889.6 -11.1646 0 70.3309
-6929.84 -11.2061 0 65.5324
-9636.09 -4.43951 0 208.537
-8250.69 -8.21217 0 137.772
-6909.72 -11.1845 0 67.944
-8298.86 -8.08557 0 132.021
-8274.78 -8.148 0 134.911
-9608.05 -4.59869 0 211.87
-9551.95 -4.9221 0 218.434
-6849.37 -11.1298 0 75.0306
-6889.6 -11.1646 0 70.3309
-9580 -4.75957 0 215.169
-8202.51 -8.34551 0 143.404
-6869.49 -11.1464 0 72.6931
-8250.69 -8.21217 0 137.772
-8226.6 -8.27802 0 140.603
-9551.95 -4.9221 0 218.434
-9495.85 -5.25192 0 224.861
-6809.12 -11.1013 0 79.6324
-6849.37 -11.1298 0 75.0306
-9523.9 -5.08623 0 221.665
-8154.32 -8.48521 0 148.919
-6829.24 -11.1148 0 77.3438
-8202.51 -8.34551 0 143.404
-8178.41 -8.41459 0 146.176
-9495.85 -5.25192 0 224.861
-9439.74 -5.58774 0 231.152
-6768.87 -11.0786 0 84.1369
-6809.12 -11.1013 0 79.6324
-9467.79 -5.4191 0 228.023
-8106.12 -8.63092 0 154.317
-6789 -11.0892 0 81.8968
-8154.32 -8.48521 0 148.919
-8130.22 -8.55734 0 151.633
-9439.74 -5.58774 0 231.152
-9383.61 -5.92917 0 237.307
-6728.62 -11.0616 0 88.5447
-6768.87 -11.0786 0 84.1369
-9411.68 -5.75778 0 234.246
-8057.92 -8.78229 0 159.6
-6748.75 -11.0694 0 86.3529
-8106.12 -8.63092 0 154.317
-8082.02 -8.70592 0 156.973
-9383.61 -5.92917 0 237.307
-9327.49 -6.27581 0 243.328
-6688.36 -11.0499 0 92.8564
-6728.62 -11.0616 0 88.5447
-9355.55 -6.10186 0 240.334
-8009.71 -8.93898 0 164.767
-6708.49 -11.0551 0 90.7125
-8057.92 -8.78229 0 159.6
-8033.82 -8.85999 0 162.197
-9327.49 -6.27581 0 243.328
-9271.35 -6.62727 0 249.215
-6648.1 -11.0431 0 97.0725
-6688.36 -11.0499 0 92.8564
-9299.42 -6.45096 0 246.288
-7961.5 -9.10065 0 169.819
-6668.23 -11.0459 0 94.9764
-8009.71 -8.93898 0 164.767
-7985.61 -9.01922 0 167.307
-9271.35 -6.62727 0 249.215
-9215.2 -6.98319 0 254.969
-6607.83 -11.0411 0 101.194
-6648.1 -11.0431 0 97.0725
-9243.28 -6.8047 0 252.109
-7913.28 -9.26698 0 174.757
-6627.96 -11.0415 0 99.1449
-7961.5 -9.10065 0 169.819
-7937.39 -9.18326 0 172.302
-9215.2 -6.98319 0 254.969
-9159.05 -7.34318 0 260.592
-6567.56 -11.0436 0 105.22
-6607.83 -11.0411 0 101.194
-9187.13 -7.1627 0 257.797
-7865.06 -9.43765 0 179.582
-6587.69 -11.0418 0 103.219
-7913.28 -9.26698 0 174.757
-7889.17 -9.3518 0 177.184
-9159.05 -7.34318 0 260.592
-9102.9 -7.70687 0 266.083
-6527.28 -11.0503 0 109.153
-6567.56 -11.0436 0 105.22
-9130.98 -7.52458 0 263.353
-7816.83 -9.61235 0 184.295
-6547.42 -11.0464 0 107.199
-7865.06 -9.43765 0 179.582
-7840.94 -9.52452 0 181.953
-9102.9 -7.70687 0 266.083
-9046.74 -8.07391 0 271.443
-6487.01 -11.0609 0 112.993
-6527.28 -11.0503 0 109.153
-9074.82 -7.88999 0 268.779
-7768.59 -9.79075 0 188.895
-6507.15 -11.0551 0 111.085
-7816.83 -9.61235 0 184.295
-7792.71 -9.70111 0 186.609
-9046.74 -8.07391 0 271.443
-8990.57 -8.44394 0 276.674
-6446.73 -11.0753 0 116.74
-6487.01 -11.0609 0 112.993
-9018.65 -8.25858 0 274.074
-7720.36 -9.97257 0 193.385
-6466.87 -11.0677 0 114.878
-7768.59 -9.79075 0 188.895
-7744.48 -9.88126 0 191.154
-8990.57 -8.44394 0 276.674
-8934.4 -8.81662 0 281.775
-6406.44 -11.0931 0 120.395
-6446.73 -11.0753 0 116.74
-8962.48 -8.62997 0 279.241
-7672.12 -10.1575 0 197.764
-6426.59 -11.0837 0 118.579
-7720.36 -9.97257 0 193.385
-7696.24 -10.0647 0 195.588
-8934.4 -8.81662 0 281.775
-8878.22 -9.19159 0 286.749
-6366.16 -11.1141 0 123.958
-6406.44 -11.0931 0 120.395
-8906.31 -9.00384 0 284.278
-7623.87 -10.3453 0 202.033
-6386.3 -11.1032 0 122.188
-7672.12 -10.1575 0 197.764
-7647.99 -10.251 0 199.912
-8878.22 -9.19159 0 286.749
-8822.04 -9.56854 0 291.595
-6325.87 -11.138 0 127.43
-6366.16 -11.1141 0 123.958
-8850.13 -9.37984 0 289.188
-7575.62 -10.5355 0 206.192
-6346.02 -11.1257 0 125.705
-7623.87 -10.3453 0 202.033
-7599.75 -10.4401 0 204.126
-8822.04 -9.56854 0 291.595
-8765.85 -9.94711 0 296.315
-6285.58 -11.1647 0 130.812
-6325.87 -11.138 0 127.43
-8793.95 -9.75764 0 293.971
-7527.37 -10.7281 0 210.244
-6305.73 -11.151 0 129.132
-7575.62 -10.5355 0 206.192
-7551.5 -10.6315 0 208.232
-8765.85 -9.94711 0 296.315
-8709.66 -10.327 0 300.91
-6245.29 -11.1939 0 134.104
-6285.58 -11.1647 0 130.812
-8737.76 -10.1369 0 298.628
-7479.12 -10.9226 0 214.187
-6265.44 -11.179 0 132.469
-7527.37 -10.7281 0 210.244
-7503.25 -10.8251 0 212.229
-8709.66 -10.327 0 300.91
-8653.47 -10.7079 0 305.379
-6205 -11.2254 0 137.306
-6245.29 -11.1939 0 134.104
-8681.57 -10.5173 0 303.16
-7430.87 -11.1188 0 218.024
-6225.15 -11.2094 0 135.716
-7479.12 -10.9226 0 214.187
-7455 -11.0205 0 216.119
-8653.47 -10.7079 0 305.379
-8597.28 -11.0894 0 309.724
-6164.71 -11.2589 0 140.42
-6205 -11.2254 0 137.306
-8625.38 -10.8986 0 307.567
-7382.61 -11.3164 0 221.754
-6184.86 -11.2419 0 138.874
-7430.87 -11.1188 0 218.024
-7406.74 -11.2174 0 219.902
-8597.28 -11.0894 0 309.724
-8541.08 -11.4714 0 313.946
-6124.42 -11.2942 0 143.446
-6164.71 -11.2589 0 140.42
-8569.18 -11.2804 0 311.85
-7334.35 -11.5152 0 225.378
-6144.56 -11.2764 0 141.944
-7382.61 -11.3164 0 221.754
-7358.48 -11.4157 0 223.579
-8541.08 -11.4714 0 313.946
-8484.88 -11.8534 0 318.046
-6084.12 -11.3312 0 146.384
-6124.42 -11.2942 0 143.446
-8512.98 -11.6624 0 316.011
-7286.09 -11.7149 0 228.897
-6104.27 -11.3125 0 144.926
-7334.35 -11.5152 0 225.378
-7310.22 -11.6149 0 227.151
-8484.88 -11.8534 0 318.046
-8428.68 -12.2352 0 322.023
-6043.83 -11.3696 0 149.235
-6084.12 -11.3312 0 146.384
-8456.78 -12.0443 0 320.05
-7237.83 -11.9153 0 232.312
-6063.98 -11.3502 0 147.821
-7286.09 -11.7149 0 228.897
-7261.96 -11.815 0 230.618
-8428.68 -12.2352 0 322.023
-8372.48 -12.6165 0 325.88
-6003.54 -11.4092 0 152
-6043.83 -11.3696 0 149.235
-8400.58 -12.4259 0 323.967
-7189.57 -12.116 0 235.624
-6023.68 -11.3892 0 150.628
-7237.83 -11.9153 0 232.312
-7213.7 -12.0156 0 233.981
-8372.48 -12.6165 0 325.88
-8316.28 -12.997 0 329.617
-5963.24 -11.4497 0 154.679
-6003.54 -11.4092 0 152
-8344.38 -12.8068 0 327.764
-7141.31 -12.317 0 238.832
-5983.39 -11.4293 0 153.35
-7189.57 -12.116 0 235.624
-7165.44 -12.2165 0 237.241
-8316.28 -12.997 0 329.617
-8260.07 -13.3764 0 333.235
-5922.95 -11.4911 0 157.273
-5963.24 -11.4497 0 154.679
-8288.17 -13.1868 0 331.441
-7093.05 -12.5179 0 241.938
-5943.1 -11.4703 0 155.987
-7141.31 -12.317 0 238.832
-7117.18 -12.4175 0 240.398
-8260.07 -13.3764 0 333.235
-8203.87 -13.7545 0 336.734
-5882.66 -11.5331 0 159.782
-5922.95 -11.4911 0 157.273
-8231.97 -13.5656 0 334.999
-7044.79 -12.7184 0 244.943
-5902.8 -11.512 0 158.538
-7093.05 -12.5179 0 241.938
-7068.92 -12.6182 0 243.453
-8203.87 -13.7545 0 336.734
-8147.66 -14.131 0 340.116
-5842.36 -11.5755 0 162.207
-5882.66 -11.5331 0 159.782
-8175.76 -13.943 0 338.44
-6996.53 -12.9185 0 247.846
-5862.51 -11.5543 0 161.005
-7044.79 -12.7184 0 244.943
-7020.66 -12.8185 0 246.407
-8147.66 -14.131 0 340.116
-8091.45 -14.5056 0 343.381
-5802.07 -11.6181 0 164.548
-5842.36 -11.5755 0 162.207
-8119.56 -14.3185 0 341.763
-6948.27 -13.1178 0 250.65
-5822.22 -11.5968 0 163.388
-6996.53 -12.9185 0 247.846
-6972.4 -13.0182 0 249.261
-8091.45 -14.5056 0 343.381
-8035.25 -14.8781 0 346.53
-5761.78 -11.6608 0 166.807
-5802.07 -11.6181 0 164.548
-8063.35 -14.6921 0 344.97
-6900.01 -13.3161 0 253.354
-5781.93 -11.6395 0 165.688
-6948.27 -13.1178 0 250.65
-6924.14 -13.2171 0 252.014
-8035.25 -14.8781 0 346.53
-7979.04 -15.2483 0 349.563
-5721.49 -11.7034 0 168.983
-5761.78 -11.6608 0 166.807
-8007.15 -15.0635 0 348.061
-6851.75 -13.5132 0 255.959
-5741.64 -11.6821 0 167.905
-6900.01 -13.3161 0 253.354
-6875.88 -13.4148 0 254.669
-7979.04 -15.2483 0 349.563
-7922.84 -15.6158 0 352.482
-5681.21 -11.7456 0 171.077
-5721.49 -11.7034 0 168.983
-7950.94 -15.4324 0 351.037
-6803.49 -13.709 0 258.466
-5701.35 -11.7245 0 170.04
-6851.75 -13.5132 0 255.959
-6827.62 -13.6113 0 257.225
-7922.84 -15.6158 0 352.482
-7866.64 -15.9805 0 355.288
-5640.92 -11.7874 0 173.091
-5681.21 -11.7456 0 171.077
-7894.74 -15.7985 0 353.899
-6755.23 -13.9031 0 260.876
-5661.06 -11.7665 0 172.094
-6803.49 -13.709 0 258.466
-6779.36 -13.8063 0 259.683
-7866.64 -15.9805 0 355.288
-7810.43 -16.3421 0 357.981
-5600.64 -11.8285 0 175.023
-5640.92 -11.7874 0 173.091
-7838.53 -16.1617 0 356.649
-6706.98 -14.0955 0 263.189
-5620.78 -11.808 0 174.067
-6755.23 -13.9031 0 260.876
-6731.11 -13.9995 0 262.045
-7810.43 -16.3421 0 357.981
-7754.23 -16.7004 0 360.562
-5560.35 -11.8688 0 176.876
-5600.64 -11.8285 0 175.023
-7782.33 -16.5216 0 359.286
-6658.73 -14.2858 0 265.406
-5580.49 -11.8488 0 175.959
-6706.98 -14.0955 0 263.189
-6682.85 -14.1909 0 264.31
-7754.23 -16.7004 0 360.562
-7698.03 -17.0551 0 363.032
-5520.07 -11.9082 0 178.649
-5560.35 -11.8688 0 176.876
-7726.13 -16.8782 0 361.811
-6610.47 -14.474 0 267.528
-5540.21 -11.8886 0 177.772
-6658.73 -14.2858 0 265.406
-6634.6 -14.3802 0 266.479
-7698.03 -17.0551 0 363.032
-7641.84 -17.4061 0 365.392
-5479.8 -11.9464 0 180.343
-5520.07 -11.9082 0 178.649
-7669.94 -17.2311 0 364.226
-6562.23 -14.6598 0 269.555
-5499.93 -11.9274 0 179.506
-6610.47 -14.474 0 267.528
-6586.35 -14.5672 0 268.553
-7641.84 -17.4061 0 365.392
-7585.64 -17.7532 0 367.642
-5439.52 -11.9834 0 181.959
-5479.8 -11.9464 0 180.343
-7613.74 -17.5802 0 366.53
-6513.98 -14.8431 0 271.488
-5459.66 -11.9651 0 181.161
-6562.23 -14.6598 0 269.555
-6538.1 -14.7518 0 270.533
-7585.64 -17.7532 0 367.642
-7529.45 -18.0961 0 369.783
-5399.25 -12.0189 0 183.497
-5439.52 -11.9834 0 181.959
-7557.55 -17.9252 0 368.726
-6465.74 -15.0236 0 273.328
-5419.38 -12.0013 0 182.737
-6513.98 -14.8431 0 271.488
-6489.86 -14.9337 0 272.42
-7529.45 -18.0961 0 369.783
-7473.26 -18.4346 0 371.816
-5358.98 -12.0529 0 184.958
-5399.25 -12.0189 0 183.497
-7501.35 -18.2659 0 370.813
-6417.49 -15.2013 0 275.076
-5379.11 -12.0361 0 184.237
-6465.74 -15.0236 0 273.328
-6441.61 -15.1128 0 274.213
-7473.26 -18.4346 0 371.816
-7417.07 -18.7686 0 373.743
-5318.71 -12.0852 0 186.342
-5358.98 -12.0529 0 184.958
-7445.16 -18.6022 0 372.793
-6369.26 -15.3758 0 276.731
-5338.85 -12.0693 0 185.66
-6417.49 -15.2013 0 275.076
-6393.37 -15.2889 0 275.915
-7417.07 -18.7686 0 373.743
-7360.89 -19.0978 0 375.563
-5278.45 -12.1157 0 187.651
-5318.71 -12.0852 0 186.342
-7388.98 -18.9338 0 374.666
-6321.02 -15.5472 0 278.296
-5298.58 -12.1007 0 187.006
-6369.26 -15.3758 0 276.731
-6345.14 -15.4619 0 277.525
-7360.89 -19.0978 0 375.563
-7304.71 -19.4221 0 377.277
-5238.19 -12.1442 0 188.884
-5278.45 -12.1157 0 187.651
-7332.8 -19.2606 0 376.433
-6272.79 -15.7151 0 279.77
-5258.32 -12.1302 0 188.277
-6321.02 -15.5472 0 278.296
-6296.9 -15.6316 0 279.044
-7304.71 -19.4221 0 377.277
-7248.53 -19.7413 0 378.887
-5197.93 -12.1706 0 190.042
-5238.19 -12.1442 0 188.884
-7276.62 -19.5823 0 378.096
-6224.56 -15.8795 0 281.154
-5218.06 -12.1577 0 189.472
-6272.79 -15.7151 0 279.77
-6248.67 -15.7978 0 280.473
-7248.53 -19.7413 0 378.887
-7192.35 -20.0552 0 380.394
-5157.68 -12.1948 0 191.126
-5197.93 -12.1706 0 190.042
-7220.44 -19.8989 0 379.654
-6176.34 -16.0403 0 282.449
-5177.81 -12.183 0 190.593
-6224.56 -15.8795 0 281.154
-6200.45 -15.9604 0 281.813
-7192.35 -20.0552 0 380.394
-7136.18 -20.3636 0 381.797
-5117.43 -12.2166 0 192.136
-5157.68 -12.1948 0 191.126
-7164.27 -20.2101 0 381.108
-6128.12 -16.1971 0 283.656
-5137.55 -12.206 0 191.64
-6176.34 -16.0403 0 282.449
-6152.23 -16.1192 0 283.064
-7136.18 -20.3636 0 381.797
-7080.02 -20.6664 0 383.098
-5077.18 -12.236 0 193.074
-5117.43 -12.2166 0 192.136
-7108.1 -20.5157 0 382.46
-6079.9 -16.35 0 284.776
-5097.31 -12.2266 0 192.614
-6128.12 -16.1971 0 283.656
-6104.01 -16.2741 0 284.227
-7080.02 -20.6664 0 383.098
-7023.85 -20.9634 0 384.297
-5036.94 -12.2528 0 193.938
-5077.18 -12.236 0 193.074
-7051.93 -20.8156 0 383.71
-6031.69 -16.4988 0 285.808
-5057.06 -12.2447 0 193.515
-6079.9 -16.35 0 284.776
-6055.79 -16.4249 0 285.303
-7023.85 -20.9634 0 384.297
-6967.69 -21.2544 0 385.396
-4996.7 -12.2669 0 194.731
-5036.94 -12.2528 0 193.938
-6995.77 -21.1097 0 384.859
-5983.48 -16.6433 0 286.754
-5016.82 -12.2602 0 194.344
-6031.69 -16.4988 0 285.808
-6007.58 -16.5716 0 286.292
-6967.69 -21.2544 0 385.396
-6911.54 -21.5394 0 386.396
-4956.47 -12.2782 0 195.453
-4996.7 -12.2669 0 194.731
-6939.62 -21.3977 0 385.909
-5935.27 -16.7835 0 287.615
-4976.59 -12.2729 0 195.101
-5983.48 -16.6433 0 286.754
-5959.37 -16.714 0 287.195
-6911.54 -21.5394 0 386.396
-6855.39 -21.8181 0 387.296
-4916.24 -12.2866 0 196.104
-4956.47 -12.2782 0 195.453
-6883.46 -21.6796 0 386.858
-5887.07 -16.9191 0 288.39
-4936.35 -12.2827 0 195.787
-5935.27 -16.7835 0 287.615
-5911.17 -16.8519 0 288.013
-6855.39 -21.8181 0 387.296
-6799.24 -22.0905 0 388.098
-4876.01 -12.292 0 196.684
-4916.24 -12.2866 0 196.104
-6827.32 -21.9551 0 387.709
-5838.88 -17.0501 0 289.082
-4896.13 -12.2896 0 196.403
-5887.07 -16.9191 0 288.39
-5862.97 -16.9852 0 288.746
-6799.24 -22.0905 0 388.098
-6743.1 -22.3563 0 388.803
-4835.79 -12.2943 0 197.195
-4876.01 -12.292 0 196.684
-6771.17 -22.2242 0 388.463
-5790.69 -17.1764 0 289.69
-4855.9 -12.2935 0 196.948
-5838.88 -17.0501 0 289.082
-5814.78 -17.1139 0 289.396
-6743.1 -22.3563 0 388.803
-6686.97 -22.6155 0 389.411
-4795.58 -12.2934 0 197.637
-4835.79 -12.2943 0 197.195
-6715.04 -22.4867 0 389.119
-5742.5 -17.2978 0 290.215
-4815.68 -12.2942 0 197.425
-5790.69 -17.1764 0 289.69
-5766.59 -17.2377 0 289.963
-6686.97 -22.6155 0 389.411
-6630.84 -22.8679 0 389.924
-4755.36 -12.2892 0 198.011
-4795.58 -12.2934 0 197.637
-6658.9 -22.7425 0 389.68
-5694.32 -17.4142 0 290.658
-4775.47 -12.2917 0 197.832
-5742.5 -17.2978 0 290.215
-5718.41 -17.3566 0 290.447
-6630.84 -22.8679 0 389.924
-6574.71 -23.1134 0 390.342
-4715.16 -12.2816 0 198.316
-4755.36 -12.2892 0 198.011
-6602.78 -22.9915 0 390.145
-5646.14 -17.5256 0 291.02
-4735.26 -12.2858 0 198.172
-5694.32 -17.4142 0 290.658
-5670.23 -17.4705 0 290.849
-6574.71 -23.1134 0 390.342
-6518.59 -23.3519 0 390.665
-4674.96 -12.2706 0 198.555
-4715.16 -12.2816 0 198.316
-6546.65 -23.2335 0 390.515
-5597.97 -17.6318 0 291.301
-4695.06 -12.2765 0 198.444
-5646.14 -17.5256 0 291.02
-5622.06 -17.5793 0 291.17
-6518.59 -23.3519 0 390.665
-6462.48 -23.5832 0 390.896
-4634.76 -12.256 0 198.726
-4674.96 -12.2706 0 198.555
-6490.54 -23.4684 0 390.792
-5549.81 -17.7327 0 291.502
-4654.86 -12.2637 0 198.649
-5597.97 -17.6318 0 291.301
-5573.89 -17.6829 0 291.411
-6462.48 -23.5832 0 390.896
-6406.37 -23.8073 0 391.034
-4594.57 -12.2378 0 198.832
-4634.76 -12.256 0 198.726
-6434.42 -23.6962 0 390.976
-5501.65 -17.8282 0 291.624
-4614.66 -12.2474 0 198.787
-5549.81 -17.7327 0 291.502
-5525.72 -17.7811 0 291.573
-6406.37 -23.8073 0 391.034
-6350.27 -24.0241 0 391.08
-4554.38 -12.2159 0 198.872
-4594.57 -12.2378 0 198.832
-6378.32 -23.9166 0 391.068
-5453.49 -17.9183 0 291.667
-4574.47 -12.2273 0 198.86
-5501.65 -17.8282 0 291.624
-5477.57 -17.8739 0 291.655
-6350.27 -24.0241 0 391.08
-6294.17 -24.2334 0 391.035
-4514.2 -12.1903 0 198.847
-4554.38 -12.2159 0 198.872
-6322.22 -24.1297 0 391.069
-5405.34 -18.0028 0 291.632
-4534.29 -12.2036 0 198.868
-5453.49 -17.9183 0 291.667
-5429.41 -17.9613 0 291.659
-6294.17 -24.2334 0 391.035
-6238.08 -24.4351 0 390.901
-4474.02 -12.1608 0 198.758
-4514.2 -12.1903 0 198.847
-6266.12 -24.3352 0 390.979
-5357.2 -18.0817 0 291.52
-4494.11 -12.176 0 198.81
-5405.34 -18.0028 0 291.632
-5381.27 -18.043 0 291.586
-6238.08 -24.4351 0 390.901
-6181.99 -24.6293 0 390.677
-4433.85 -12.1274 0 198.605
-4474.02 -12.1608 0 198.758
-6210.03 -24.5332 0 390.8
-5309.06 -18.1549 0 291.332
-4453.93 -12.1446 0 198.689
-5357.2 -18.0817 0 291.52
-5333.13 -18.1191 0 291.436
-6181.99 -24.6293 0 390.677
-6125.91 -24.8157 0 390.365
-4393.68 -12.09 0 198.388
-4433.85 -12.1274 0 198.605
-6153.95 -24.7234 0 390.532
-5260.93 -18.2224 0 291.068
-4413.76 -12.1092 0 198.504
-5309.06 -18.1549 0 291.332
-5284.99 -18.1894 0 291.209
-6125.91 -24.8157 0 390.365
-6069.84 -24.9943 0 389.965
-4353.52 -12.0486 0 198.109
-4393.68 -12.09 0 198.388
-6097.88 -24.906 0 390.176
-5212.8 -18.2839 0 290.728
-4373.6 -12.0698 0 198.257
-5260.93 -18.2224 0 291.068
-5236.86 -18.2539 0 290.907
-6069.84 -24.9943 0 389.965
-6013.77 -25.165 0 389.479
-4313.36 -12.0031 0 197.768
-4353.52 -12.0486 0 198.109
-6041.8 -25.0806 0 389.733
-5164.68 -18.3396 0 290.315
-4333.44 -12.0264 0 197.947
-5212.8 -18.2839 0 290.728
-5188.74 -18.3125 0 290.531
-6013.77 -25.165 0 389.479
-5957.71 -25.3277 0 388.906
-4273.21 -11.9535 0 197.366
-4313.36 -12.0031 0 197.768
-5985.74 -25.2474 0 389.203
-5116.56 -18.3892 0 289.827
-4293.29 -11.9788 0 197.575
-5164.68 -18.3396 0 290.315
-5140.62 -18.3652 0 290.08
-5957.71 -25.3277 0 388.906
-5901.66 -25.4824 0 388.248
-4233.07 -11.8997 0 196.903
-4273.21 -11.9535 0 197.366
-5929.68 -25.4061 0 388.588
-5068.46 -18.4329 0 289.267
-4253.14 -11.9271 0 197.142
-5116.56 -18.3892 0 289.827
-5092.51 -18.4118 0 289.556
-5901.66 -25.4824 0 388.248
-5845.61 -25.629 0 387.506
-4192.93 -11.8417 0 196.379
-4233.07 -11.8997 0 196.903
-5873.63 -25.5568 0 387.888
-5020.35 -18.4704 0 288.634
-4213 -11.8712 0 196.648
-5068.46 -18.4329 0 289.267
-5044.4 -18.4524 0 288.959
-5845.61 -25.629 0 387.506
-5789.57 -25.7675 0 386.681
-4152.79 -11.7794 0 195.795
-4192.93 -11.8417 0 196.379
-5817.59 -25.6993 0 387.104
-4972.26 -18.5017 0 287.929
-4172.86 -11.8111 0 196.094
-5020.35 -18.4704 0 288.634
-4996.3 -18.4868 0 288.29
-5789.57 -25.7675 0 386.681
-5733.53 -25.8977 0 385.773
-4112.66 -11.7127 0 195.153
-4152.79 -11.7794 0 195.795
-5761.55 -25.8336 0 386.237
-4924.17 -18.5269 0 287.154
-4132.73 -11.7466 0 195.481
-4972.26 -18.5017 0 287.929
-4948.21 -18.5151 0 287.55
-5733.53 -25.8977 0 385.773
-5677.5 -26.0197 0 384.782
-4072.54 -11.6417 0 194.451
-4112.66 -11.7127 0 195.153
-5705.51 -25.9597 0 385.288
-4876.08 -18.5457 0 286.308
-4092.6 -11.6778 0 194.809
-4924.17 -18.5269 0 287.154
-4900.12 -18.5371 0 286.739
-5677.5 -26.0197 0 384.782
-5621.48 -26.1333 0 383.711
-4032.43 -11.5663 0 193.692
-4072.54 -11.6417 0 194.451
-5649.49 -26.0775 0 384.257
-4828 -18.5583 0 285.392
-4052.48 -11.6045 0 194.079
-4876.08 -18.5457 0 286.308
-4852.04 -18.5528 0 285.859
-5621.48 -26.1333 0 383.711
-5565.46 -26.2385 0 382.559
-3992.31 -11.4864 0 192.875
-4032.43 -11.5663 0 193.692
-5593.47 -26.187 0 383.145
-4779.93 -18.5646 0 284.408
-4012.37 -11.5269 0 193.291
-4828 -18.5583 0 285.392
-4803.97 -18.5622 0 284.909
-5565.46 -26.2385 0 382.559
-5509.45 -26.3353 0 381.328
-3952.21 -11.4021 0 192.002
-3992.31 -11.4864 0 192.875
-5537.46 -26.288 0 381.954
-4731.87 -18.5644 0 283.356
-3972.26 -11.4449 0 192.446
-4779.93 -18.5646 0 284.408
-4755.9 -18.5653 0 283.89
-5509.45 -26.3353 0 381.328
-5453.45 -26.4237 0 380.018
-3912.11 -11.3133 0 191.072
-3952.21 -11.4021 0 192.002
-5481.45 -26.3806 0 380.683
-4683.81 -18.5579 0 282.236
-3932.16 -11.3583 0 191.544
-4731.87 -18.5644 0 283.356
-4707.83 -18.5619 0 282.804
-5453.45 -26.4237 0 380.018
-5397.46 -26.5036 0 378.631
-3872.02 -11.22 0 190.086
-3912.11 -11.3133 0 191.072
-5425.45 -26.4647 0 379.334
-4635.75 -18.5449 0 281.049
-3892.06 -11.2672 0 190.586
-4683.81 -18.5579 0 282.236
-4659.78 -18.5522 0 281.651
-5397.46 -26.5036 0 378.631
-5341.47 -26.5749 0 377.166
-3831.93 -11.1221 0 189.046
-3872.02 -11.22 0 190.086
-5369.46 -26.5403 0 377.908
-4587.71 -18.5254 0 279.796
-3851.97 -11.1716 0 189.573
-4635.75 -18.5449 0 281.049
-4611.73 -18.5359 0 280.431
-5341.47 -26.5749 0 377.166
-5285.49 -26.6377 0 375.625
-3791.85 -11.0197 0 187.95
-3831.93 -11.1221 0 189.046
-5313.48 -26.6074 0 376.405
-4539.67 -18.4994 0 278.478
-3811.89 -11.0715 0 188.505
-4587.71 -18.5254 0 279.796
-4563.69 -18.5132 0 279.145
-5285.49 -26.6377 0 375.625
-5229.51 -26.6919 0 374.008
-3751.77 -10.9127 0 186.801
-3791.85 -11.0197 0 187.95
-5257.5 -26.6659 0 374.826
-4491.63 -18.4669 0 277.095
-3771.81 -10.9668 0 187.382
-4539.67 -18.4994 0 278.478
-4515.65 -18.484 0 277.795
-5229.51 -26.6919 0 374.008
-5173.54 -26.7375 0 372.317
-3711.7 -10.8011 0 185.598
-3751.77 -10.9127 0 186.801
-5201.52 -26.7158 0 373.172
-4443.61 -18.4279 0 275.648
-3731.73 -10.8575 0 186.206
-4491.63 -18.4669 0 277.095
-4467.62 -18.4482 0 276.379
-5173.54 -26.7375 0 372.317
-5117.58 -26.7745 0 370.552
-3671.63 -10.6848 0 184.343
-3711.7 -10.8011 0 185.598
-5145.56 -26.7571 0 371.444
-4395.59 -18.3823 0 274.138
-3691.67 -10.7435 0 184.977
-4443.61 -18.4279 0 275.648
-4419.59 -18.4059 0 274.901
-5117.58 -26.7745 0 370.552
-5061.63 -26.8028 0 368.714
-3631.58 -10.564 0 183.035
-3671.63 -10.6848 0 184.343
-5089.6 -26.7897 0 369.642
-4347.57 -18.3302 0 272.565
-3651.6 -10.625 0 183.696
-4395.59 -18.3823 0 274.138
-4371.58 -18.3571 0 273.359
-5061.63 -26.8028 0 368.714
-5005.68 -26.8225 0 366.803
-3591.52 -10.4385 0 181.676
-3631.58 -10.564 0 183.035
-5033.65 -26.8137 0 367.767
-4299.56 -18.2715 0 270.93
-3611.55 -10.5018 0 182.362
-4347.57 -18.3302 0 272.565
-4323.57 -18.3016 0 271.755
-5005.68 -26.8225 0 366.803
-4949.74 -26.8336 0 364.821
-3551.48 -10.3084 0 180.265
-3591.52 -10.4385 0 181.676
-4977.71 -26.8291 0 365.821
-4251.56 -18.2062 0 269.233
-3571.5 -10.374 0 180.977
-4299.56 -18.2715 0 270.93
-4275.56 -18.2396 0 270.089
-4949.74 -26.8336 0 364.821
-4893.8 -26.8359 0 362.769
-3511.44 -10.1736 0 178.804
-3551.48 -10.3084 0 180.265
-4921.77 -26.8358 0 363.804
-4203.57 -18.1343 0 267.476
-3531.46 -10.2416 0 179.541
-4251.56 -18.2062 0 269.233
-4227.56 -18.1711 0 268.362
-4893.8 -26.8359 0 362.769
-4837.87 -26.8297 0 360.647
-3471.4 -10.0343 0 177.293
-3511.44 -10.1736 0 178.804
-4865.84 -26.8339 0 361.717
-4155.58 -18.0558 0 265.66
-3491.42 -10.1045 0 178.055
-4203.57 -18.1343 0 267.476
-4179.57 -18.0959 0 266.575
-4837.87 -26.8297 0 360.647
-4781.95 -26.8147 0 358.455
-3431.37 -9.89023 0 175.733
-3471.4 -10.0343 0 177.293
-4809.91 -26.8233 0 359.56
-4107.6 -17.9708 0 263.784
-3451.39 -9.96282 0 176.519
-4155.58 -18.0558 0 265.66
-4131.59 -18.0141 0 264.729
-4781.95 -26.8147 0 358.455
-4726.04 -26.7912 0 356.196
-3391.35 -9.74156 0 174.124
-3431.37 -9.89023 0 175.733
-4754 -26.804 0 357.334
-4059.62 -17.8792 0 261.849
-3411.36 -9.81647 0 174.934
-4107.6 -17.9708 0 263.784
-4083.61 -17.9258 0 262.824
-4726.04 -26.7912 0 356.196
-4670.13 -26.7589 0 353.869
-3351.33 -9.58828 0 172.466
-3391.35 -9.74156 0 174.124
-4698.09 -26.7761 0 355.041
-4011.65 -17.781 0 259.857
-3371.34 -9.6655 0 173.301
-4059.62 -17.8792 0 261.849
-4035.64 -17.8309 0 260.86
-4670.13 -26.7589 0 353.869
-4614.23 -26.7181 0 351.475
-3311.32 -9.43037 0 170.761
-3351.33 -9.58828 0 172.466
-4642.18 -26.7396 0 352.68
-3963.69 -17.6762 0 257.807
-3331.32 -9.5099 0 171.62
-4011.65 -17.781 0 259.857
-3987.67 -17.7294 0 258.839
-4614.23 -26.7181 0 351.475
-4558.34 -26.6686 0 349.016
-3271.31 -9.26786 0 169.009
-3311.32 -9.43037 0 170.761
-4586.29 -26.6945 0 350.254
-3915.73 -17.5649 0 255.701
-3291.31 -9.34969 0 169.891
-3963.69 -17.6762 0 257.807
-3939.71 -17.6214 0 256.761
-4558.34 -26.6686 0 349.016
-4502.45 -26.6106 0 346.491
-3231.31 -9.10075 0 167.21
-3271.31 -9.26786 0 169.009
-4530.4 -26.6407 0 347.762
-3867.78 -17.4471 0 253.54
-3251.31 -9.18488 0 168.115
-3915.73 -17.5649 0 255.701
-3891.76 -17.5068 0 254.627
-4502.45 -26.6106 0 346.491
-4446.57 -26.544 0 343.903
-3191.32 -8.92907 0 165.365
-3231.31 -9.10075 0 167.21
-4474.51 -26.5784 0 345.205
-3819.84 -17.3227 0 251.323
-3211.31 -9.01548 0 166.293
-3867.78 -17.4471 0 253.54
-3843.81 -17.3857 0 252.438
-4446.57 -26.544 0 343.903
-4390.7 -26.4688 0 341.251
-3151.33 -8.75282 0 163.475
-3191.32 -8.92907 0 165.365
-4418.64 -26.5075 0 342.584
-3771.9 -17.1919 0 249.051
-3171.32 -8.84151 0 164.426
-3819.84 -17.3227 0 251.323
-3795.87 -17.2581 0 250.194
-4390.7 -26.4688 0 341.251
-4334.83 -26.3851 0 338.536
-3111.35 -8.57203 0 161.54
-3151.33 -8.75282 0 163.475
-4362.77 -26.428 0 339.901
-3723.97 -17.0546 0 246.727
-3131.34 -8.66299 0 162.513
-3771.9 -17.1919 0 249.051
-3747.93 -17.1241 0 247.896
-4334.83 -26.3851 0 338.536
-4278.97 -26.293 0 335.759
-3071.37 -8.38673 0 159.561
-3111.35 -8.57203 0 161.54
-4306.9 -26.3401 0 337.155
-3676.04 -16.9109 0 244.349
-3091.36 -8.47994 0 160.556
-3723.97 -17.0546 0 246.727
-3700 -16.9836 0 245.544
-4278.97 -26.293 0 335.759
-4223.12 -26.1923 0 332.922
-3031.4 -8.19692 0 157.539
-3071.37 -8.38673 0 159.561
-4251.04 -26.2437 0 334.348
-3628.12 -16.7607 0 241.918
-3051.38 -8.29239 0 158.555
-3676.04 -16.9109 0 244.349
-3652.08 -16.8366 0 243.14
-4223.12 -26.1923 0 332.922
-4167.27 -26.0833 0 330.024
-2991.43 -8.00265 0 155.473
-3031.4 -8.19692 0 157.539
-4195.19 -26.1389 0 331.48
-3580.21 -16.6042 0 239.436
-3011.41 -8.10035 0 156.511
-3628.12 -16.7607 0 241.918
-3604.17 -16.6833 0 240.684
-4167.27 -26.0833 0 330.024
-4111.43 -25.9659 0 327.067
-2951.47 -7.80394 0 153.364
-2991.43 -8.00265 0 155.473
-4139.35 -26.0256 0 328.553
-3532.3 -16.4414 0 236.903
-2971.45 -7.90385 0 154.424
-3580.21 -16.6042 0 239.436
-3556.26 -16.5236 0 238.176
-4111.43 -25.9659 0 327.067
-4055.6 -25.8401 0 324.051
-2911.52 -7.60082 0 151.214
-2951.47 -7.80394 0 153.364
-4083.51 -25.904 0 325.566
-3484.4 -16.2722 0 234.32
-2931.49 -7.70293 0 152.295
-3532.3 -16.4414 0 236.903
-3508.35 -16.3575 0 235.618
-4055.6 -25.8401 0 324.051
-3999.77 -25.7061 0 320.977
-2871.57 -7.39332 0 149.022
-2911.52 -7.60082 0 151.214
-4027.68 -25.7741 0 322.521
-3436.51 -16.0967 0 231.687
-2891.54 -7.49761 0 150.123
-3484.4 -16.2722 0 234.32
-3460.45 -16.1852 0 233.01
-3999.77 -25.7061 0 320.977
-3943.94 -25.5638 0 317.847
-2831.62 -7.18147 0 146.79
-2871.57 -7.39332 0 149.022
-3971.85 -25.636 0 319.419
-3388.62 -15.915 0 229.005
-2851.59 -7.28793 0 147.911
-3436.51 -16.0967 0 231.687
-3412.56 -16.0067 0 230.352
-3943.94 -25.5638 0 317.847
-3888.13 -25.4133 0 314.66
-2791.68 -6.96531 0 144.517
-2831.62 -7.18147 0 146.79
-3916.04 -25.4896 0 316.26
-3340.74 -15.7272 0 226.275
-2811.65 -7.07393 0 145.659
-3388.62 -15.915 0 229.005
-3364.68 -15.8219 0 227.646
-3888.13 -25.4133 0 314.66
-3832.32 -25.2547 0 311.417
-2751.75 -6.74489 0 142.205
-2791.68 -6.96531 0 144.517
-3860.22 -25.335 0 313.045
-3292.86 -15.5332 0 223.498
-2771.72 -6.85563 0 143.366
-3340.74 -15.7272 0 226.275
-3316.8 -15.6309 0 224.893
-3832.32 -25.2547 0 311.417
-3776.51 -25.088 0 308.12
-2711.82 -6.52023 0 139.853
-2751.75 -6.74489 0 142.205
-3804.42 -25.1724 0 309.776
-3244.99 -15.3331 0 220.673
-2731.79 -6.63308 0 141.034
-3292.86 -15.5332 0 223.498
-3268.92 -15.4339 0 222.091
-3776.51 -25.088 0 308.12
-3720.72 -24.9133 0 304.77
-2671.9 -6.29138 0 137.463
-2711.82 -6.52023 0 139.853
-3748.61 -25.0017 0 306.452
-3197.12 -15.1269 0 217.803
-2691.86 -6.40633 0 138.663
-3244.99 -15.3331 0 220.673
-3221.05 -15.2308 0 219.244
-3720.72 -24.9133 0 304.77
-3664.92 -24.7306 0 301.366
-2631.98 -6.05839 0 135.035
-2671.9 -6.29138 0 137.463
-3692.82 -24.8229 0 303.074
-3149.26 -14.9148 0 214.887
-2651.94 -6.1754 0 136.254
-3197.12 -15.1269 0 217.803
-3173.19 -15.0216 0 216.35
-3664.92 -24.7306 0 301.366
-3609.14 -24.54 0 297.91
-2592.07 -5.82129 0 132.57
-2631.98 -6.05839 0 135.035
-3637.03 -24.6363 0 299.644
-3101.4 -14.6967 0 211.926
-2612.03 -5.94035 0 133.807
-3149.26 -14.9148 0 214.887
-3125.33 -14.8065 0 213.412
-3609.14 -24.54 0 297.91
-3553.36 -24.3416 0 294.402
-2552.16 -5.58015 0 130.068
-2592.07 -5.82129 0 132.57
-3581.25 -24.4418 0 296.162
-3053.56 -14.4728 0 208.921
-2572.12 -5.70122 0 131.323
-3101.4 -14.6967 0 211.926
-3077.48 -14.5855 0 210.429
-3553.36 -24.3416 0 294.402
-3497.58 -24.1355 0 290.844
-2512.26 -5.33499 0 127.529
-2552.16 -5.58015 0 130.068
-3525.47 -24.2395 0 292.629
-3005.71 -14.243 0 205.872
-2532.21 -5.45807 0 128.803
-3053.56 -14.4728 0 208.921
-3029.63 -14.3586 0 207.402
-3497.58 -24.1355 0 290.844
-3441.81 -23.9216 0 287.236
-2472.36 -5.08589 0 124.955
-2512.26 -5.33499 0 127.529
-3469.7 -24.0295 0 289.046
-2957.87 -14.0075 0 202.781
-2492.31 -5.21093 0 126.247
-3005.71 -14.243 0 205.872
-2981.79 -14.126 0 204.332
-3441.81 -23.9216 0 287.236
-3386.05 -23.7001 0 283.579
-2432.47 -4.83288 0 122.346
-2472.36 -5.08589 0 124.955
-3413.93 -23.8118 0 285.413
-2910.04 -13.7663 0 199.647
-2452.42 -4.95987 0 123.655
-2957.87 -14.0075 0 202.781
-2933.96 -13.8876 0 201.219
-3386.05 -23.7001 0 283.579
-3330.29 -23.4711 0 279.873
-2392.58 -4.57602 0 119.702
-2432.47 -4.83288 0 122.346
-3358.17 -23.5865 0 281.732
-2862.21 -13.5194 0 196.473
-2412.53 -4.70492 0 121.028
-2910.04 -13.7663 0 199.647
-2886.12 -13.6435 0 198.065
-3330.29 -23.4711 0 279.873
-3274.54 -23.2346 0 276.12
-2352.7 -4.31537 0 117.024
-2392.58 -4.57602 0 119.702
-3302.41 -23.3537 0 278.003
-2814.39 -13.267 0 193.257
-2372.64 -4.44616 0 118.367
-2862.21 -13.5194 0 196.473
-2838.3 -13.3939 0 194.87
-3274.54 -23.2346 0 276.12
-3218.79 -22.9907 0 272.321
-2312.82 -4.05098 0 114.313
-2352.7 -4.31537 0 117.024
-3246.66 -23.1135 0 274.226
-2766.57 -13.0091 0 190.001
-2332.76 -4.18364 0 115.673
-2814.39 -13.267 0 193.257
-2790.48 -13.1387 0 191.634
-3218.79 -22.9907 0 272.321
-3163.04 -22.7395 0 268.475
-2272.95 -3.78292 0 111.569
-2312.82 -4.05098 0 114.313
-3190.91 -22.866 0 270.404
-2718.76 -12.7457 0 186.706
-2292.88 -3.91741 0 112.945
-2766.57 -13.0091 0 190.001
-2742.66 -12.8781 0 188.359
-3163.04 -22.7395 0 268.475
-3107.31 -22.4811 0 264.585
-2233.08 -3.51124 0 108.792
-2272.95 -3.78292 0 111.569
-3135.17 -22.6112 0 266.535
-2670.95 -12.477 0 183.373
-2253.01 -3.64753 0 110.184
-2718.76 -12.7457 0 186.706
-2694.85 -12.612 0 185.044
-3107.31 -22.4811 0 264.585
-3051.57 -22.2156 0 260.65
-2193.21 -3.236 0 105.984
-2233.08 -3.51124 0 108.792
-3079.44 -22.3492 0 262.623
-2623.14 -12.2031 0 180.001
-2213.14 -3.37406 0 107.392
-2670.95 -12.477 0 183.373
-2647.04 -12.3407 0 181.691
-3051.57 -22.2156 0 260.65
-2995.84 -21.943 0 256.671
-2153.35 -2.95728 0 103.145
-2193.21 -3.236 0 105.984
-3023.71 -22.0801 0 258.666
-2575.34 -11.9239 0 176.592
-2173.28 -3.09707 0 104.568
-2623.14 -12.2031 0 180.001
-2599.24 -12.0641 0 178.301
-2995.84 -21.943 0 256.671
-2940.12 -21.6634 0 252.65
-2113.5 -2.67513 0 100.275
-2153.35 -2.95728 0 103.145
-2967.98 -21.8041 0 254.666
-2527.55 -11.6396 0 173.146
-2133.42 -2.81663 0 101.714
-2575.34 -11.9239 0 176.592
-2551.45 -11.7824 0 174.873
-2940.12 -21.6634 0 252.65
-2884.4 -21.377 0 248.587
-2073.64 -2.38961 0 97.3749
-2113.5 -2.67513 0 100.275
-2912.26 -21.5211 0 250.624
-2479.76 -11.3502 0 169.664
-2093.57 -2.53278 0 98.8286
-2527.55 -11.6396 0 173.146
-2503.65 -11.4955 0 171.41
-2884.4 -21.377 0 248.587
-2828.68 -21.0839 0 244.483
-2033.8 -2.10081 0 94.4455
-2073.64 -2.38961 0 97.3749
-2856.54 -21.2313 0 246.54
-2431.97 -11.0559 0 166.147
-2053.72 -2.24562 0 95.9139
-2479.76 -11.3502 0 169.664
-2455.87 -11.2037 0 167.91
-2828.68 -21.0839 0 244.483
-2772.97 -20.7841 0 240.338
-1993.95 -1.80878 0 91.4872
-2033.8 -2.10081 0 94.4455
-2800.83 -20.9348 0 242.415
-2384.19 -10.7567 0 162.596
-2013.87 -1.95519 0 92.9699
-2431.97 -11.0559 0 166.147
-2408.08 -10.9069 0 164.376
-2772.97 -20.7841 0 240.338
-2717.27 -20.4777 0 236.154
-1954.11 -1.51359 0 88.5006
-1993.95 -1.80878 0 91.4872
-2745.12 -20.6317 0 238.251
-2336.41 -10.4527 0 159.01
-1974.03 -1.66157 0 89.9974
-2384.19 -10.7567 0 162.596
-2360.3 -10.6053 0 160.807
-2717.27 -20.4777 0 236.154
-2661.56 -20.1648 0 231.931
-1914.28 -1.21533 0 85.4862
-1954.11 -1.51359 0 88.5006
-2689.41 -20.322 0 234.047
-2288.64 -10.144 0 155.391
-1934.19 -1.36484 0 86.9968
-2336.41 -10.4527 0 159.01
-2312.53 -10.2989 0 157.205
-2661.56 -20.1648 0 231.931
-2605.86 -19.8456 0 227.67
-1874.45 -0.914052 0 82.4446
-1914.28 -1.21533 0 85.4862
-2633.71 -20.006 0 229.805
-2240.87 -9.83065 0 151.74
-1894.36 -1.06506 0 83.9688
-2288.64 -10.144 0 155.391
-2264.76 -9.98789 0 153.569
-2605.86 -19.8456 0 227.67
-2550.17 -19.5201 0 223.372
-1834.62 -0.609844 0 79.3763
-1874.45 -0.914052 0 82.4446
-2578.02 -19.6836 0 225.526
-2193.11 -9.51278 0 148.056
-1854.53 -0.76231 0 80.9138
-2240.87 -9.83065 0 151.74
-2216.99 -9.67228 0 149.902
-2550.17 -19.5201 0 223.372
-2494.48 -19.1884 0 219.037
-1794.79 -0.302777 0 76.282
-1834.62 -0.609844 0 79.3763
-2522.32 -19.355 0 221.209
-2145.34 -9.19047 0 144.341
-1814.7 -0.456663 0 77.8324
-2193.11 -9.51278 0 148.056
-2169.22 -9.35218 0 146.203
-2494.48 -19.1884 0 219.037
-2438.79 -18.8507 0 214.667
-1754.97 0.00707182 0 73.1622
-1794.79 -0.302777 0 76.282
-2466.63 -19.0203 0 216.857
-2097.59 -8.86381 0 140.596
-1774.88 -0.148195 0 74.7252
-2145.34 -9.19047 0 144.341
-2121.46 -9.02768 0 142.473
-2438.79 -18.8507 0 214.667
-2383.1 -18.5071 0 210.262
-1715.15 0.319624 0 70.0174
-1754.97 0.00707182 0 73.1622
-2410.95 -18.6796 0 212.469
-2049.83 -8.53289 0 136.821
-1735.06 0.163015 0 71.5929
-2097.59 -8.86381 0 140.596
-2073.71 -8.69888 0 138.712
-2383.1 -18.5071 0 210.262
-2327.42 -18.1576 0 205.823
-1675.34 0.634802 0 66.8482
-1715.15 0.319624 0 70.0174
-2355.26 -18.3331 0 208.047
-2002.08 -8.19781 0 133.017
-1695.25 0.47689 0 68.4358
-2049.83 -8.53289 0 136.821
-2025.95 -8.36587 0 134.923
-2327.42 -18.1576 0 205.823
-2271.75 -17.8025 0 201.351
-1635.53 0.952523 0 63.6552
-1675.34 0.634802 0 66.8482
-2299.58 -17.9807 0 203.591
-1954.33 -7.85867 0 129.184
-1655.43 0.793349 0 65.2546
-2002.08 -8.19781 0 133.017
-1978.2 -8.02874 0 131.104
-2271.75 -17.8025 0 201.351
-2216.07 -17.4417 0 196.846
-1595.72 1.27271 0 60.4389
-1635.53 0.952523 0 63.6552
-2243.91 -17.6228 0 199.103
-1906.59 -7.51555 0 125.323
-1615.62 1.11231 0 62.0499
-1954.33 -7.85867 0 129.184
-1930.46 -7.6876 0 127.257
-2216.07 -17.4417 0 196.846
-2160.4 -17.0754 0 192.31
-1555.91 1.59527 0 57.1999
-1595.72 1.27271 0 60.4389
-2188.23 -17.2592 0 194.582
-1858.84 -7.16857 0 121.435
-1575.82 1.4337 0 58.8222
-1906.59 -7.51555 0 125.323
-1882.71 -7.34254 0 123.383
-2160.4 -17.0754 0 192.31
-2104.73 -16.7038 0 187.743
-1516.11 1.92013 0 53.9388
-1555.91 1.59527 0 57.1999
-2132.56 -16.8903 0 190.03
-1811.11 -6.81782 0 117.521
-1536.01 1.75742 0 55.5721
-1858.84 -7.16857 0 121.435
-1834.97 -6.99366 0 119.481
-2104.73 -16.7038 0 187.743
-2049.06 -16.3269 0 183.145
-1476.31 2.2472 0 50.6561
-1516.11 1.92013 0 53.9388
-2076.89 -16.516 0 185.448
-1763.37 -6.4634 0 113.58
-1496.21 2.0834 0 52.3001
-1811.11 -6.81782 0 117.521
-1787.24 -6.64106 0 115.554
-2049.06 -16.3269 0 183.145
-1993.4 -15.9449 0 178.518
-1436.52 2.5764 0 47.3524
-1476.31 2.2472 0 50.6561
-2021.23 -16.1365 0 180.835
-1715.64 -6.10543 0 109.615
-1456.41 2.41154 0 49.0069
-1763.37 -6.4634 0 113.58
-1739.5 -6.28485 0 111.601
-1993.4 -15.9449 0 178.518
-1937.73 -15.5579 0 173.863
-1396.72 2.90763 0 44.0283
-1436.52 2.5764 0 47.3524
-1965.57 -15.752 0 176.194
-1667.9 -5.74399 0 105.625
-1416.62 2.74177 0 45.6929
-1715.64 -6.10543 0 109.615
-1691.77 -5.92513 0 107.623
-1937.73 -15.5579 0 173.863
-1882.07 -15.166 0 169.18
-1356.93 3.24081 0 40.6842
-1396.72 2.90763 0 44.0283
-1909.9 -15.3625 0 171.525
-1620.18 -5.3792 0 101.611
-1376.83 3.07399 0 42.3587
-1667.9 -5.74399 0 105.625
-1644.04 -5.562 0 103.621
-1882.07 -15.166 0 169.18
-1826.42 -14.7693 0 164.47
-1317.14 3.57586 0 37.3209
-1356.93 3.24081 0 40.6842
-1854.24 -14.9682 0 166.828
-1572.45 -5.01116 0 97.5744
-1337.04 3.40811 0 39.0049
-1620.18 -5.3792 0 101.611
-1596.31 -5.19558 0 99.5957
-1826.42 -14.7693 0 164.47
-1770.76 -14.368 0 159.734
-1277.36 3.91266 0 33.9387
-1317.14 3.57586 0 37.3209
-1798.59 -14.5693 0 162.105
-1524.73 -4.63999 0 93.5151
-1297.25 3.74404 0 35.6321
-1572.45 -5.01116 0 97.5744
-1548.59 -4.82596 0 95.5475
-1770.76 -14.368 0 159.734
-1715.11 -13.9622 0 154.973
-1237.57 4.25114 0 30.5384
-1277.36 3.91266 0 33.9387
-1742.93 -14.1657 0 157.356
-1477 -4.26579 0 89.4339
-1257.46 4.0817 0 32.2408
-1524.73 -4.63999 0 93.5151
-1500.86 -4.45326 0 91.4772
-1715.11 -13.9622 0 154.973
-1659.45 -13.5521 0 150.186
-1197.79 4.5912 0 27.1205
-1237.57 4.25114 0 30.5384
-1687.28 -13.7577 0 152.582
-1429.28 -3.88867 0 85.3317
-1217.68 4.42098 0 28.8316
-1477 -4.26579 0 89.4339
-1453.14 -4.07759 0 87.3854
-1659.45 -13.5521 0 150.186
-1603.8 -13.1376 0 145.376
-1158.01 4.93274 0 23.6855
-1197.79 4.5912 0 27.1205
-1631.63 -13.3454 0 147.784
-1381.56 -3.50875 0 81.209
-1177.9 4.76179 0 25.4051
-1429.28 -3.88867 0 85.3317
-1405.42 -3.69905 0 83.2728
-1603.8 -13.1376 0 145.376
-1548.15 -12.7191 0 140.544
-1118.23 5.27566 0 20.2341
-1158.01 4.93274 0 23.6855
-1575.98 -12.9289 0 142.963
-1333.85 -3.12614 0 77.0666
-1138.12 5.10403 0 21.9618
-1381.56 -3.50875 0 81.209
-1357.71 -3.31777 0 79.1402
-1548.15 -12.7191 0 140.544
-1492.5 -12.2965 0 135.688
-1078.45 5.61986 0 16.7667
-1118.23 5.27566 0 20.2341
-1520.33 -12.5083 0 138.119
-1286.13 -2.74096 0 72.9051
-1098.34 5.44761 0 18.5023
-1333.85 -3.12614 0 77.0666
-1309.99 -2.93387 0 74.9882
-1492.5 -12.2965 0 135.688
-1436.85 -11.8701 0 130.812
-1038.68 5.96524 0 13.2841
-1078.45 5.61986 0 16.7667
-1464.68 -12.0838 0 133.253
-1238.42 -2.35333 0 68.7253
-1058.57 5.79241 0 15.0273
-1286.13 -2.74096 0 72.9051
-1262.28 -2.54744 0 70.8174
-1436.85 -11.8701 0 130.812
-1381.21 -11.44 0 125.915
-998.906 6.3117 0 9.7867
-1038.68 5.96524 0 13.2841
-1409.03 -11.6555 0 128.366
-1190.71 -1.96335 0 64.5278
-1018.79 6.13834 0 11.5372
-1238.42 -2.35333 0 68.7253
-1214.56 -2.15862 0 66.6287
-1381.21 -11.44 0 125.915
-1325.56 -11.0063 0 120.997
-959.134 6.65916 0 6.27517
-998.906 6.3117 0 9.7867
-1353.38 -11.2236 0 123.458
-1143 -1.57116 0 60.3133
-979.02 6.48531 0 8.03267
-1190.71 -1.96335 0 64.5278
-1166.85 -1.76753 0 62.4226
-1325.56 -11.0063 0 120.997
-1269.92 -10.5692 0 116.061
-919.364 7.00753 0 2.75006
-959.134 6.65916 0 6.27517
-1297.74 -10.7882 0 118.532
-1095.29 -1.17685 0 56.0825
-939.249 6.83323 0 4.51428
-1143 -1.57116 0 60.3133
-1119.14 -1.37426 0 58.1999
-1269.92 -10.5692 0 116.061
-1214.27 -10.1287 0 111.107
-879.595 7.35677 0 -0.788104
-919.364 7.00753 0 2.75006
-1242.1 -10.3493 0 113.586
-1047.58 -0.780541 0 51.8361
-899.48 7.18204 0 0.982579
-1095.29 -1.17685 0 56.0825
-1071.43 -0.978941 0 53.9612
-1214.27 -10.1287 0 111.107
-1158.63 -9.68507 0 106.135
-839.828 7.70687 0 -4.33884
-879.595 7.35677 0 -0.788104
-1186.45 -9.90728 0 108.623
-999.873 -0.382308 0 47.5747
-859.712 7.53171 0 -2.56193
-1047.58 -0.780541 0 51.8361
-1023.73 -0.58166 0 49.7072
-1158.63 -9.68507 0 106.135
-1102.99 -9.23841 0 101.146
-800.062 8.05786 0 -7.90177
-839.828 7.70687 0 -4.33884
-1130.81 -9.46211 0 103.643
-952.167 0.0177787 0 43.2988
-819.945 7.88224 0 -6.1188
-999.873 -0.382308 0 47.5747
-976.02 -0.182492 0 45.4385
-1102.99 -9.23841 0 101.146
-1047.35 -8.78888 0 96.142
-760.297 8.40985 0 -11.4766
-800.062 8.05786 0 -7.90177
-1075.17 -9.01399 0 98.6462
-904.462 0.41969 0 39.0089
-780.179 8.23372 0 -9.68771
-952.167 0.0177787 0 43.2988
-928.315 0.218506 0 41.1556
-1047.35 -8.78888 0 96.142
-991.705 -8.3366 0 91.1224
-720.532 8.76297 0 -15.0632
-760.297 8.40985 0 -11.4766
-1019.53 -8.56308 0 93.634
-856.757 0.823413 0 34.7054
-740.414 8.58625 0 -13.2684
-904.462 0.41969 0 39.0089
-880.609 0.62133 0 36.8588
-991.705 -8.3366 0 91.1224
-936.061 -7.88177 0 86.0883
-680.768 9.11728 0 -18.6616
-720.532 8.76297 0 -15.0632
-963.883 -8.10947 0 88.6071
-809.051 1.22898 0 30.3885
-700.65 8.93999 0 -16.861
-856.757 0.823413 0 34.7054
-832.904 1.02596 0 32.5486
-936.061 -7.88177 0 86.0883
-880.414 -7.42458 0 81.0402
-641.004 9.47259 0 -22.2718
-680.768 9.11728 0 -18.6616
-908.238 -7.65353 0 83.566
-761.343 1.63627 0 26.0583
-660.886 9.29483 0 -20.4652
-809.051 1.22898 0 30.3885
-785.197 1.43244 0 28.225
-880.414 -7.42458 0 81.0402
-824.76 -6.96485 0 75.9788
-601.24 9.82765 0 -25.8932
-641.004 9.47259 0 -22.2718
-852.588 -7.19484 0 78.5111
-713.632 2.04511 0 21.7156
-621.122 9.65032 0 -24.0812
-761.343 1.63627 0 26.0583
-737.488 1.84049 0 23.8885
-824.76 -6.96485 0 75.9788
-769.098 -6.5038 0 70.9041
-561.473 10.1797 0 -29.5241
-601.24 9.82765 0 -25.8932
-796.93 -6.735 0 73.4434
-665.919 2.45416 0 17.3617
-581.357 10.0043 0 -27.7076
-713.632 2.04511 0 21.7156
-689.776 2.24978 0 19.5398
-769.098 -6.5038 0 70.9041
-713.423 -6.03798 0 65.8176
-521.705 10.5205 0 -33.1581
-561.473 10.1797 0 -29.5241
-741.263 -6.27034 0 68.3617
-618.202 2.86154 0 13.0017
-541.589 10.3523 0 -31.3415
-665.919 2.45416 0 17.3617
-642.061 2.65811 0 15.1821
-713.423 -6.03798 0 65.8176
-657.753 -5.57604 0 60.7171
-481.927 10.8368 0 -36.7846
-521.705 10.5205 0 -33.1581
-685.586 -5.80957 0 63.2702
-570.493 3.26009 0 8.64538
-501.819 10.683 0 -34.9732
-618.202 2.86154 0 13.0017
-594.344 3.06286 0 10.8217
-657.753 -5.57604 0 60.7171
-602.087 -5.09365 0 55.6125
-442.145 11.094 0 -40.3709
-481.927 10.8368 0 -36.7846
-629.919 -5.33094 0 58.1628
-522.8 3.64062 0 4.31869
-462.035 10.9758 0 -38.5862
-570.493 3.26009 0 8.64538
-546.645 3.45257 0 6.47695
-602.087 -5.09365 0 55.6125
-546.554 -4.64413 0 50.4913
-402.319 11.251 0 -43.8758
-442.145 11.094 0 -40.3709
-574.293 -4.88124 0 53.0582
-475.186 3.9749 0 0.06662
-422.243 11.1895 0 -42.1365
-522.8 3.64062 0 4.31869
-498.975 3.81799 0 2.17673
-546.554 -4.64413 0 50.4913
-491.181 -4.08798 0 45.4078
-362.469 11.1908 0 -47.1825
-402.319 11.251 0 -43.8758
-518.845 -4.34463 0 47.9338
-427.694 4.23013 0 -4.0175
-382.389 11.2555 0 -45.5663
-475.186 3.9749 0 0.06662
-451.428 4.10978 0 -1.99941
-491.181 -4.08798 0 45.4078
-436.58 -3.71694 0 40.299
-322.414 10.8435 0 -50.1866
-362.469 11.1908 0 -47.1825
-463.735 -3.96416 0 42.873
-380.563 4.31696 0 -7.77049
-342.495 11.0664 0 -48.7271
-427.694 4.23013 0 -4.0175
-404.051 4.315 0 -5.96312
-436.58 -3.71694 0 40.299
-382.818 -2.80846 0 35.4172
-282.22 9.87818 0 -52.5758
-322.414 10.8435 0 -50.1866
-409.581 -3.14997 0 37.781
-333.882 4.14184 0 -10.9497
-302.305 10.4427 0 -51.4934
-380.563 4.31696 0 -7.77049
-357.189 4.2387 0 -9.42521
-382.818 -2.80846 0 35.4172
-332.236 -2.82316 0 30.4588
-241.063 8.45753 0 -54.2823
-282.22 9.87818 0 -52.5758
-356.978 -3.12368 0 33.0227
-288.41 3.47589 0 -13.059
-261.879 9.26143 0 -53.501
-333.882 4.14184 0 -10.9497
-310.876 3.96063 0 -12.2474
-332.236 -2.82316 0 30.4588
-284.764 -0.285093 0 26.4751
-199.103 5.86311 0 -54.8423
-241.063 8.45753 0 -54.2823
-308.012 -0.976025 0 28.1152
-243.876 2.13467 0 -13.8151
-220.087 7.21407 0 -54.7689
-288.41 3.47589 0 -13.059
-266.191 2.74705 0 -13.4935
-284.764 -0.285093 0 26.4751
-247.924 -2.0743 0 22.1477
-152.974 4.56794 0 -55.4206
-199.103 5.86311 0 -54.8423
-264.76 -2.67099 0 24.7338
-202.232 -0.267511 0 -12.0465
-177.003 5.1223 0 -54.9615
-243.876 2.13467 0 -13.8151
-222.266 1.4345 0 -13.6489
-247.924 -2.0743 0 22.1477
-221.733 6.33536 0 22.702
-103.398 4.88776 0 -57.6932
-152.974 4.56794 0 -55.4206
-232.572 5.38032 0 20.4458
-158.831 -3.29124 0 -10.067
-128.302 3.58007 0 -56.1975
-202.232 -0.267511 0 -12.0465
-181.807 -2.42413 0 -10.2272
-221.733 6.33536 0 22.702
-235.42 -11.2875 0 29.021
-42.7178 27.5075 0 -72.4615
-103.398 4.88776 0 -57.6932
-223.609 -8.19327 0 25.8934
-111.792 -2.02949 0 -10.805
-75.4739 12.6171 0 -62.3249
-158.831 -3.29124 0 -10.067
-134.951 -2.7942 0 -10.9622
-235.42 -11.2875 0 29.021
-318.698 -50.7844 0 86.6558
0.799417 114.949 0 -107.998
-42.7178 27.5075 0 -72.4615
-257.982 5.82581 0 41.464
-10.8342 65.7685 0 -63.0181
-16.1684 51.3925 0 -87.0011
-111.792 -2.02949 0 -10.805
-76.4339 10.1715 0 -22.5239
-318.698 -50.7844 0 86.6558
-57.9353 566.082 0 -265.002
-12.7719 411.933 0 -78.4447
0.799417 114.949 0 -107.998
-333.61 -95.2915 0 46.8431
19.8879 528.405 0 -142.331
5.65898 241.481 0 -116.576
-10.8342 65.7685 0 -63.0181
29.3362 194.458 0 -111.925
-7399.59 -2234.76 0 -287.924
-7830.49 -852.397 0 -419.567
-4654.38 -823.86 0 -7.0068
-4289.79 -1291.58 0 395.591
-7686.75 -1605.81 0 -492.998
-6146.5 -944.696 0 -170.816
-4537.61 -1042.12 0 152.058
-6071.94 -1831.72 0 68.1126
-6007.35 -1308.5 0 -50.595
-7830.49 -852.397 0 -419.567
-7943.83 -259.522 0 -185.727
-4740.77 -369.371 0 -128.935
-4654.38 -823.86 0 -7.0068
-7938.37 -441.022 0 -294.759
-6362.79 -376.384 0 -194.663
-4692.89 -579.833 0 -86.4201
-6146.5 -944.696 0 -170.816
-6314.49 -638.929 0 -223.675
-7943.83 -259.522 0 -185.727
-7842.79 -55.4124 0 -51.215
-4784.47 -141.691 0 -148.768
-4740.77 -369.371 0 -128.935
-7883.04 -133.082 0 -98.2022
-6345.84 -119.509 0 -120.57
-4782.97 -232.236 0 -148.657
-6362.79 -376.384 0 -194.663
-6358.37 -210.163 0 -147.981
-7842.79 -55.4124 0 -51.215
-7774.51 -12.4996 0 -17.2536
-4747.57 -37.1971 0 -132.561
-4784.47 -141.691 0 -148.768
-7812.48 -23.8706 0 -29.3227
-6285.02 -22.1262 0 -82.1727
-4764.27 -76.7977 0 -139.878
-6345.84 -119.509 0 -120.57
-6319.68 -59.912 0 -100.083
-7774.51 -12.4996 0 -17.2536
-7706.34 3.31386 0 -10.2831
-4704.92 -7.61984 0 -120.621
-4747.57 -37.1971 0 -132.561
-7734.87 -2.26417 0 -10.9781
-6220.3 0.608459 0 -67.0675
-4729.74 -17.3456 0 -126.604
-6285.02 -22.1262 0 -82.1727
-6249.82 -4.42403 0 -71.101
-7706.34 3.31386 0 -10.2831
-7659.28 0.0830158 0 -13.982
-4655.98 -0.876177 0 -111.469
-4704.92 -7.61984 0 -120.621
-7683.57 2.52509 0 -12.4246
-6166.62 3.04641 0 -63.1237
-4678.07 -2.0922 0 -115.181
-6220.3 0.608459 0 -67.0675
-6192.9 2.67413 0 -65.0945
-7659.28 0.0830158 0 -13.982
-7613.64 -2.89917 0 -15.8674
-4616.58 -5.04523 0 -106.126
-4655.98 -0.876177 0 -111.469
-7635.06 -1.35247 0 -14.9556
-6120.67 -2.3022 0 -61.8898
-4636.33 -2.5701 0 -108.727
-6166.62 3.04641 0 -63.1237
-6142.42 0.971875 0 -62.1053
-7613.64 -2.89917 0 -15.8674
-7572.94 -6.80419 0 -16.1323
-4581.07 -9.7123 0 -101.663
-4616.58 -5.04523 0 -106.126
-7593.55 -4.98827 0 -16.448
-6080.79 -7.26346 0 -60.5174
-4597.72 -7.33486 0 -103.708
-6120.67 -2.3022 0 -61.8898
-6100.3 -5.04877 0 -61.4651
-7572.94 -6.80419 0 -16.1323
-7532.16 -9.09177 0 -13.7549
-4550.91 -13.9153 0 -97.9141
-4581.07 -9.7123 0 -101.663
-7552.27 -8.06613 0 -15.1404
-6044.37 -11.2385 0 -58.1496
-4565.78 -12.0243 0 -99.8006
-6080.79 -7.26346 0 -60.5174
-6062.19 -9.37151 0 -59.4019
-7532.16 -9.09177 0 -13.7549
-7492.24 -10.6675 0 -9.92577
-4523.05 -16.4901 0 -94.2011
-4550.91 -13.9153 0 -97.9141
-7512.29 -9.99518 0 -12.0333
-6010.04 -13.6327 0 -54.8194
-4536.59 -15.3496 0 -96.0314
-6044.37 -11.2385 0 -58.1496
-6027.05 -12.6299 0 -56.6207
-7492.24 -10.6675 0 -9.92577
-7452.12 -11.4536 0 -4.9909
-4497.11 -18.0071 0 -90.566
-4523.05 -16.4901 0 -94.2011
-7472.13 -11.1228 0 -7.54128
-5976.79 -15.0067 0 -50.8287
-4509.98 -17.3847 0 -92.3921
-6010.04 -13.6327 0 -54.8194
-5993.31 -14.4185 0 -52.8761
-7452.12 -11.4536 0 -4.9909
-7412.09 -11.8514 0 0.456411
-4471.97 -18.6636 0 -86.9191
-4497.11 -18.0071 0 -90.566
-7432.13 -11.6978 0 -2.32101
-5944.12 -15.6279 0 -46.4361
-4484.43 -18.4104 0 -88.7368
-5976.79 -15.0067 0 -50.8287
-5960.41 -15.3945 0 -48.6744
-7412.09 -11.8514 0 0.456411
-7371.97 -11.978 0 6.18243
-4447.38 -18.8453 0 -83.3068
-4471.97 -18.6636 0 -86.9191
-7392.02 -11.9358 0 3.30308
-5911.71 -15.8319 0 -41.8539
-4459.65 -18.8051 0 -85.1109
-5944.12 -15.6279 0 -46.4361
-5927.89 -15.7676 0 -44.1567
-7371.97 -11.978 0 6.18243
-7331.84 -11.9784 0 11.9788
-4422.99 -18.7311 0 -79.731
-4447.38 -18.8453 0 -83.3068
-7351.91 -11.9909 0 9.07695
-5879.43 -15.7896 0 -37.2066
-4435.16 -18.8127 0 -81.5121
-5911.71 -15.8319 0 -41.8539
-5895.56 -15.8336 0 -39.5338
-7331.84 -11.9784 0 11.9788
-7291.67 -11.9099 0 17.7619
-4398.72 -18.4741 0 -76.2112
-4422.99 -18.7311 0 -79.731
-7311.75 -11.9489 0 14.8771
-5847.2 -15.6282 0 -32.573
-4410.85 -18.6162 0 -77.9642
-5879.43 -15.7896 0 -37.2066
-5863.31 -15.7187 0 -34.8844
-7291.67 -11.9099 0 17.7619
-7251.49 -11.8164 0 23.4742
-4374.48 -18.1445 0 -72.7522
-4398.72 -18.4741 0 -76.2112
-7271.58 -11.8652 0 20.6283
-5814.98 -15.4099 0 -27.9926
-4386.59 -18.3145 0 -74.4736
-5847.2 -15.6282 0 -32.573
-5831.09 -15.5236 0 -30.2748
-7251.49 -11.8164 0 23.4742
-7211.31 -11.7158 0 29.095
-4350.25 -17.789 0 -69.3588
-4374.48 -18.1445 0 -72.7522
-7231.4 -11.7661 0 26.2972
-5782.76 -15.1721 0 -23.4861
-4362.36 -17.9687 0 -71.0474
-5814.98 -15.4099 0 -27.9926
-5798.87 -15.2921 0 -25.7292
-7211.31 -11.7158 0 29.095
-7171.12 -11.6185 0 34.613
-4326.02 -17.4271 0 -66.0314
-4350.25 -17.789 0 -69.3588
-7191.21 -11.6665 0 31.8671
-5750.53 -14.9314 0 -19.0619
-4338.13 -17.6079 0 -67.6868
-5782.76 -15.1721 0 -23.4861
-5766.65 -15.0515 0 -21.2635
-7171.12 -11.6185 0 34.613
-7130.92 -11.5284 0 40.0258
-4301.78 -17.0694 0 -62.7699
-4326.02 -17.4271 0 -66.0314
-7151.02 -11.5724 0 37.3327
-5718.3 -14.696 0 -14.7228
-4313.9 -17.2474 0 -64.3925
-5750.53 -14.9314 0 -19.0619
-5734.42 -14.8128 0 -16.8816
-7130.92 -11.5284 0 40.0258
-7090.71 -11.447 0 45.333
-4277.54 -16.7193 0 -59.5731
-4301.78 -17.0694 0 -62.7699
-7110.82 -11.4866 0 42.6925
-5686.06 -14.4688 0 -10.4689
-4289.66 -16.8933 0 -61.1635
-5718.3 -14.696 0 -14.7228
-5702.18 -14.5813 0 -12.5852
-7090.71 -11.447 0 45.333
-7050.5 -11.3745 0 50.536
-4253.29 -16.3781 0 -56.4398
-4277.54 -16.7193 0 -59.5731
-7070.61 -11.4097 0 47.9475
-5653.82 -14.2505 0 -6.29912
-4265.42 -16.5476 0 -57.9986
-5686.06 -14.4688 0 -10.4689
-5669.94 -14.3585 0 -8.37353
-7050.5 -11.3745 0 50.536
-7010.29 -11.3105 0 55.6361
-4229.04 -16.0453 0 -53.369
-4253.29 -16.3781 0 -56.4398
-7030.4 -11.3415 0 53.0988
-5621.57 -14.0408 0 -2.2123
-4241.17 -16.2106 0 -54.8966
-5653.82 -14.2505 0 -6.29912
-5637.69 -14.1446 0 -4.24543
-7010.29 -11.3105 0 55.6361
-6970.07 -11.2545 0 60.6345
-4204.78 -15.7204 0 -50.3595
-4229.04 -16.0453 0 -53.369
-6990.18 -11.2816 0 58.1479
-5589.32 -13.8391 0 1.7928
-4216.91 -15.8819 0 -51.8566
-5621.57 -14.0408 0 -2.2123
-5605.44 -13.9389 0 -0.199607
-6970.07 -11.2545 0 60.6345
-6929.84 -11.2061 0 65.5324
-4180.52 -15.4027 0 -47.4106
-4204.78 -15.7204 0 -50.3595
-6949.95 -11.2294 0 63.096
-5557.06 -13.6448 0 5.71722
-4192.65 -15.5607 0 -48.8775
-5589.32 -13.8391 0 1.7928
-5573.19 -13.7411 0 3.76503
-6929.84 -11.2061 0 65.5324
-6889.6 -11.1646 0 70.3309
-4156.26 -15.0916 0 -44.5217
-4180.52 -15.4027 0 -47.4106
-6909.72 -11.1845 0 67.944
-5524.79 -13.4575 0 9.56185
-4168.39 -15.2464 0 -45.9587
-5557.06 -13.6448 0 5.71722
-5540.93 -13.5503 0 7.64946
-6889.6 -11.1646 0 70.3309
-6849.37 -11.1298 0 75.0306
-4131.99 -14.7865 0 -41.692
-4156.26 -15.0916 0 -44.5217
-6869.49 -11.1464 0 72.6931
-5492.53 -13.2765 0 13.3274
-4144.12 -14.9383 0 -43.0994
-5524.79 -13.4575 0 9.56185
-5508.66 -13.3662 0 11.4545
-6849.37 -11.1298 0 75.0306
-6809.12 -11.1013 0 79.6324
-4107.72 -14.4872 0 -38.9211
-4131.99 -14.7865 0 -41.692
-6829.24 -11.1148 0 77.3438
-5460.25 -13.1016 0 17.0146
-4119.85 -14.6362 0 -40.2992
-5492.53 -13.2765 0 13.3274
-5476.39 -13.1883 0 15.1808
-6809.12 -11.1013 0 79.6324
-6768.87 -11.0786 0 84.1369
-4083.45 -14.1931 0 -36.2086
-4107.72 -14.4872 0 -38.9211
-6789 -11.0892 0 81.8968
-5427.98 -12.9324 0 20.6238
-4095.58 -14.3395 0 -37.5576
-5460.25 -13.1016 0 17.0146
-5444.12 -13.0163 0 18.8289
-6768.87 -11.0786 0 84.1369
-6728.62 -11.0616 0 88.5447
-4059.17 -13.9042 0 -33.5542
-4083.45 -14.1931 0 -36.2086
-6748.75 -11.0694 0 86.3529
-5395.7 -12.7686 0 24.1557
-4071.31 -14.0481 0 -34.8742
-5427.98 -12.9324 0 20.6238
-5411.84 -12.8498 0 22.3994
-6728.62 -11.0616 0 88.5447
-6688.36 -11.0499 0 92.8564
-4034.9 -13.6202 0 -30.9573
-4059.17 -13.9042 0 -33.5542
-6708.49 -11.0551 0 90.7125
-5363.42 -12.6099 0 27.6107
-4047.04 -13.7616 0 -32.2486
-5395.7 -12.7686 0 24.1557
-5379.56 -12.6886 0 25.8928
-6688.36 -11.0499 0 92.8564
-6648.1 -11.0431 0 97.0725
-4010.62 -13.3408 0 -28.4178
-4034.9 -13.6202 0 -30.9573
-6668.23 -11.0459 0 94.9764
-5331.14 -12.4562 0 30.9893
-4022.76 -13.4799 0 -29.6804
-5363.42 -12.6099 0 27.6107
-5347.28 -12.5324 0 29.3095
-6648.1 -11.0431 0 97.0725
-6607.83 -11.0411 0 101.194
-3986.34 -13.066 0 -25.9352
-4010.62 -13.3408 0 -28.4178
-6627.96 -11.0415 0 99.1449
-5298.85 -12.3071 0 34.2919
-3998.48 -13.2029 0 -27.1694
-5331.14 -12.4562 0 30.9893
-5314.99 -12.3811 0 32.65
-6607.83 -11.0411 0 101.194
-6567.56 -11.0436 0 105.22
-3962.06 -12.7955 0 -23.5093
-3986.34 -13.066 0 -25.9352
-6587.69 -11.0418 0 103.219
-5266.56 -12.1625 0 37.5189
-3974.2 -12.9302 0 -24.7152
-5298.85 -12.3071 0 34.2919
-5282.7 -12.2343 0 35.9148
-6567.56 -11.0436 0 105.22
-6527.28 -11.0503 0 109.153
-3937.78 -12.5292 0 -21.1396
-3962.06 -12.7955 0 -23.5093
-6547.42 -11.0464 0 107.199
-5234.27 -12.0222 0 40.6709
-3949.92 -12.6618 0 -22.3174
-5266.56 -12.1625 0 37.5189
-5250.41 -12.0919 0 39.1043
-6527.28 -11.0503 0 109.153
-6487.01 -11.0609 0 112.993
-3913.5 -12.2669 0 -18.8258
-3937.78 -12.5292 0 -21.1396
-6507.15 -11.0551 0 111.085
-5201.97 -11.886 0 43.7483
-3925.64 -12.3976 0 -19.9757
-5234.27 -12.0222 0 40.6709
-5218.12 -11.9536 0 42.2189
-6487.01 -11.0609 0 112.993
-6446.73 -11.0753 0 116.74
-3889.21 -12.0085 0 -16.5677
-3913.5 -12.2669 0 -18.8258
-6466.87 -11.0677 0 114.878
-5169.68 -11.7536 0 46.7514
-3901.35 -12.1372 0 -17.6898
-5201.97 -11.886 0 43.7483
-5185.83 -11.8193 0 45.2591
-6446.73 -11.0753 0 116.74
-6406.44 -11.0931 0 120.395
-3864.93 -11.7539 0 -14.3648
-3889.21 -12.0085 0 -16.5677
-6426.59 -11.0837 0 118.579
-5137.38 -11.6248 0 49.6809
-3877.07 -11.8807 0 -15.4593
-5169.68 -11.7536 0 46.7514
-5153.53 -11.6887 0 48.2254
-6406.44 -11.0931 0 120.395
-6366.16 -11.1141 0 123.958
-3840.64 -11.5028 0 -12.2169
-3864.93 -11.7539 0 -14.3648
-6386.3 -11.1032 0 122.188
-5105.08 -11.4995 0 52.5371
-3852.79 -11.6279 0 -13.284
-5137.38 -11.6248 0 49.6809
-5121.23 -11.5618 0 51.1181
-6366.16 -11.1141 0 123.958
-6325.87 -11.138 0 127.43
-3816.36 -11.2552 0 -10.1235
-3840.64 -11.5028 0 -12.2169
-6346.02 -11.1257 0 125.705
-5072.78 -11.3775 0 55.3205
-3828.5 -11.3786 0 -11.1634
-5105.08 -11.4995 0 52.5371
-5088.93 -11.4381 0 53.9379
-6325.87 -11.138 0 127.43
-6285.58 -11.1647 0 130.812
-3792.07 -11.0109 0 -8.08441
-3816.36 -11.2552 0 -10.1235
-6305.73 -11.151 0 129.132
-5040.48 -11.2586 0 58.0315
-3804.21 -11.1326 0 -9.0972
-5072.78 -11.3775 0 55.3205
-5056.63 -11.3177 0 56.685
-6285.58 -11.1647 0 130.812
-6245.29 -11.1939 0 134.104
-3767.78 -10.7697 0 -6.09922
-3792.07 -11.0109 0 -8.08441
-6265.44 -11.179 0 132.469
-5008.18 -11.1426 0 60.6706
-3779.93 -10.8899 0 -7.08509
-5040.48 -11.2586 0 58.0315
-5024.33 -11.2003 0 59.36
-6245.29 -11.1939 0 134.104
-6205 -11.2254 0 137.306
-3743.5 -10.5317 0 -4.16759
-3767.78 -10.7697 0 -6.09922
-6225.15 -11.2094 0 135.716
-4975.88 -11.0293 0 63.2383
-3755.64 -10.6503 0 -5.12673
-5008.18 -11.1426 0 60.6706
-4992.03 -11.0856 0 61.9634
-6205 -11.2254 0 137.306
-6164.71 -11.2589 0 140.42
-3719.21 -10.2965 0 -2.28919
-3743.5 -10.5317 0 -4.16759
-6184.86 -11.2419 0 138.874
-4943.58 -10.9185 0 65.735
-3731.35 -10.4137 0 -3.22176
-4975.88 -11.0293 0 63.2383
-4959.73 -10.9736 0 64.4955
-6164.71 -11.2589 0 140.42
-6124.42 -11.2942 0 143.446
-3694.93 -10.064 0 -0.463661
-3719.21 -10.2965 0 -2.28919
-6144.56 -11.2764 0 141.944
-4911.28 -10.8102 0 68.1612
-3707.07 -10.1799 0 -1.36983
-4943.58 -10.9185 0 65.735
-4927.43 -10.8641 0 66.9569
-6124.42 -11.2942 0 143.446
-6084.12 -11.3312 0 146.384
-3670.64 -9.83426 0 1.30933
-3694.93 -10.064 0 -0.463661
-6104.27 -11.3125 0 144.926
-4878.97 -10.704 0 70.5173
-3682.78 -9.94883 0 0.42938
-4911.28 -10.8102 0 68.1612
-4895.12 -10.7568 0 69.348
-6084.12 -11.3312 0 146.384
-6043.83 -11.3696 0 149.235
-3646.35 -9.607 0 3.03013
-3670.64 -9.83426 0 1.30933
-6063.98 -11.3502 0 147.821
-4846.67 -10.5998 0 72.8039
-3658.5 -9.72033 0 2.17623
-4878.97 -10.704 0 70.5173
-4862.82 -10.6516 0 71.6693
-6043.83 -11.3696 0 149.235
-6003.54 -11.4092 0 152
-3622.07 -9.38214 0 4.69909
-3646.35 -9.607 0 3.03013
-6023.68 -11.3892 0 150.628
-4814.37 -10.4975 0 75.0213
-3634.21 -9.49428 0 3.87107
-4846.67 -10.5998 0 72.8039
-4830.52 -10.5484 0 73.9212
-6003.54 -11.4092 0 152
-5963.24 -11.4497 0 154.679
-3597.79 -9.15954 0 6.31654
-3622.07 -9.38214 0 4.69909
-5983.39 -11.4293 0 153.35
-4782.07 -10.3969 0 77.17
-3609.93 -9.27056 0 5.51423
-4814.37 -10.4975 0 75.0213
-4798.22 -10.447 0 76.1042
-5963.24 -11.4497 0 154.679
-5922.95 -11.4911 0 157.273
-3573.5 -8.9391 0 7.88284
-3597.79 -9.15954 0 6.31654
-5943.1 -11.4703 0 155.987
-4749.77 -10.2978 0 79.2505
-3585.64 -9.04906 0 7.10607
-4782.07 -10.3969 0 77.17
-4765.92 -10.3472 0 78.2187
-5922.95 -11.4911 0 157.273
-5882.66 -11.5331 0 159.782
-3549.22 -8.72069 0 9.39833
-3573.5 -8.9391 0 7.88284
-5902.8 -11.512 0 158.538
-4717.47 -10.2001 0 81.2632
-3561.36 -8.82965 0 8.64692
-4749.77 -10.2978 0 79.2505
-4733.62 -10.2488 0 80.2653
-5882.66 -11.5331 0 159.782
-5842.36 -11.5755 0 162.207
-3524.94 -8.5042 0 10.8634
-3549.22 -8.72069 0 9.39833
-5862.51 -11.5543 0 161.005
-4685.17 -10.1037 0 83.2086
-3537.08 -8.61221 0 10.1371
-4717.47 -10.2001 0 81.2632
-4701.32 -10.1518 0 82.2443
-5842.36 -11.5755 0 162.207
-5802.07 -11.6181 0 164.548
-3500.66 -8.28952 0 12.2783
-3524.94 -8.5042 0 10.8634
-5822.22 -11.5968 0 163.388
-4652.87 -10.0083 0 85.0873
-3512.8 -8.39664 0 11.5771
-4685.17 -10.1037 0 83.2086
-4669.02 -10.0559 0 84.1563
-5802.07 -11.6181 0 164.548
-5761.78 -11.6608 0 166.807
-3476.38 -8.07655 0 13.6434
-3500.66 -8.28952 0 12.2783
-5781.93 -11.6395 0 165.688
-4620.57 -9.91389 0 86.8995
-3488.52 -8.18283 0 12.967
-4652.87 -10.0083 0 85.0873
-4636.72 -9.96099 0 86.0016
-5761.78 -11.6608 0 166.807
-5721.49 -11.7034 0 168.983
-3452.11 -7.86516 0 14.9591
-3476.38 -8.07655 0 13.6434
-5741.64 -11.6821 0 167.905
-4588.28 -9.82026 0 88.6458
-3464.24 -7.97066 0 14.3074
-4620.57 -9.91389 0 86.8995
-4604.43 -9.86698 0 87.7809
-5721.49 -11.7034 0 168.983
-5681.21 -11.7456 0 171.077
-3427.83 -7.65526 0 16.2257
-3452.11 -7.86516 0 14.9591
-5701.35 -11.7245 0 170.04
-4555.99 -9.72728 0 90.3267
-3439.97 -7.76003 0 15.5985
-4588.28 -9.82026 0 88.6458
-4572.13 -9.7737 0 89.4944
-5681.21 -11.7456 0 171.077
-5640.92 -11.7874 0 173.091
-3403.56 -7.44675 0 17.4436
-3427.83 -7.65526 0 16.2257
-5661.06 -11.7665 0 172.094
-4523.69 -9.63483 0 91.9427
-3415.69 -7.55084 0 16.8408
-4555.99 -9.72728 0 90.3267
-4539.84 -9.681 0 91.1428
-5640.92 -11.7874 0 173.091
-5600.64 -11.8285 0 175.023
-3379.29 -7.23952 0 18.6131
-3403.56 -7.44675 0 17.4436
-5620.78 -11.808 0 174.067
-4491.4 -9.54276 0 93.4941
-3391.42 -7.34298 0 18.0344
-4523.69 -9.63483 0 91.9427
-4507.55 -9.58875 0 92.7264
-5600.64 -11.8285 0 175.023
-5560.35 -11.8688 0 176.876
-3355.02 -7.03348 0 19.7346
-3379.29 -7.23952 0 18.6131
-5580.49 -11.8488 0 175.959
-4459.12 -9.45095 0 94.9814
-3367.15 -7.13636 0 19.1798
-4491.4 -9.54276 0 93.4941
-4475.26 -9.49683 0 94.2457
-5560.35 -11.8688 0 176.876
-5520.07 -11.9082 0 178.649
-3330.75 -6.82854 0 20.8084
-3355.02 -7.03348 0 19.7346
-5540.21 -11.8886 0 177.772
-4426.83 -9.35927 0 96.4052
-3342.88 -6.93088 0 20.2774
-4459.12 -9.45095 0 94.9814
-4442.97 -9.4051 0 95.7012
-5520.07 -11.9082 0 178.649
-5479.8 -11.9464 0 180.343
-3306.48 -6.62459 0 21.8348
-3330.75 -6.82854 0 20.8084
-5499.93 -11.9274 0 179.506
-4394.55 -9.26759 0 97.7658
-3318.62 -6.72645 0 21.3275
-4426.83 -9.35927 0 96.4052
-4410.69 -9.31343 0 97.0934
-5479.8 -11.9464 0 180.343
-5439.52 -11.9834 0 181.959
-3282.22 -6.42155 0 22.8142
-3306.48 -6.62459 0 21.8348
-5459.66 -11.9651 0 181.161
-4362.27 -9.17579 0 99.0638
-3294.35 -6.52296 0 22.3303
-4394.55 -9.26759 0 97.7658
-4378.41 -9.22171 0 98.4226
-5439.52 -11.9834 0 181.959
-5399.25 -12.0189 0 183.497
-3257.96 -6.21933 0 23.747
-3282.22 -6.42155 0 22.8142
-5419.38 -12.0013 0 182.737
-4329.99 -9.08377 0 100.3
-3270.09 -6.32034 0 23.2864
-4362.27 -9.17579 0 99.0638
-4346.13 -9.12982 0 99.6894
-5399.25 -12.0189 0 183.497
-5358.98 -12.0529 0 184.958
-3233.7 -6.01784 0 24.6334
-3257.96 -6.21933 0 23.747
-5379.11 -12.0361 0 184.237
-4297.71 -8.99139 0 101.474
-3245.83 -6.1185 0 24.1959
-4329.99 -9.08377 0 100.3
-4313.85 -9.03763 0 100.894
-5358.98 -12.0529 0 184.958
-5318.71 -12.0852 0 186.342
-3209.44 -5.817 0 25.4739
-3233.7 -6.01784 0 24.6334
-5338.85 -12.0693 0 185.66
-4265.44 -8.89855 0 102.586
-3221.57 -5.91735 0 25.0594
-4297.71 -8.99139 0 101.474
-4281.58 -8.94504 0 102.038
-5318.71 -12.0852 0 186.342
-5278.45 -12.1157 0 187.651
-3185.19 -5.61673 0 26.2688
-3209.44 -5.817 0 25.4739
-5298.58 -12.1007 0 187.006
-4233.17 -8.80515 0 103.638
-3197.32 -5.7168 0 25.877
-4265.44 -8.89855 0 102.586
-4249.31 -8.85193 0 103.12
-5278.45 -12.1157 0 187.651
-5238.19 -12.1442 0 188.884
-3160.94 -5.41694 0 27.0184
-3185.19 -5.61673 0 26.2688
-5258.32 -12.1302 0 188.277
-4200.91 -8.71106 0 104.63
-3173.07 -5.51678 0 26.6492
-4233.17 -8.80515 0 103.638
-4217.04 -8.7582 0 104.142
-5238.19 -12.1442 0 188.884
-5197.93 -12.1706 0 190.042
-3136.69 -5.21757 0 27.7231
-3160.94 -5.41694 0 27.0184
-5218.06 -12.1577 0 189.472
-4168.64 -8.6162 0 105.562
-3148.82 -5.31721 0 27.3763
-4200.91 -8.71106 0 104.63
-4184.77 -8.66373 0 105.103
-5197.93 -12.1706 0 190.042
-5157.68 -12.1948 0 191.126
-3112.45 -5.01852 0 28.3832
-3136.69 -5.21757 0 27.7231
-5177.81 -12.183 0 190.593
-4136.38 -8.52045 0 106.434
-3124.57 -5.11801 0 28.0587
-4168.64 -8.6162 0 105.562
-4152.51 -8.56844 0 106.005
-5157.68 -12.1948 0 191.126
-5117.43 -12.2166 0 192.136
-3088.21 -4.81974 0 28.9991
-3112.45 -5.01852 0 28.3832
-5137.55 -12.206 0 191.64
-4104.13 -8.42373 0 107.247
-3100.33 -4.9191 0 28.6966
-4136.38 -8.52045 0 106.434
-4120.25 -8.47222 0 106.848
-5117.43 -12.2166 0 192.136
-5077.18 -12.236 0 193.074
-3063.97 -4.62114 0 29.5711
-3088.21 -4.81974 0 28.9991
-5097.31 -12.2266 0 192.614
-4071.87 -8.32593 0 108.002
-3076.09 -4.72042 0 29.2905
-4104.13 -8.42373 0 107.247
-4088 -8.37497 0 107.632
-5077.18 -12.236 0 193.074
-5036.94 -12.2528 0 193.938
-3039.73 -4.42266 0 30.0996
-3063.97 -4.62114 0 29.5711
-5057.06 -12.2447 0 193.515
-4039.62 -8.22697 0 108.699
-3051.85 -4.52189 0 29.8407
-4071.87 -8.32593 0 108.002
-4055.75 -8.2766 0 108.358
-5036.94 -12.2528 0 193.938
-4996.7 -12.2669 0 194.731
-3015.5 -4.22424 0 30.5849
-3039.73 -4.42266 0 30.0996
-5016.82 -12.2602 0 194.344
-4007.38 -8.12675 0 109.338
-3027.61 -4.32345 0 30.3476
-4039.62 -8.22697 0 108.699
-4023.5 -8.17702 0 109.026
-4996.7 -12.2669 0 194.731
-4956.47 -12.2782 0 195.453
-2991.27 -4.0258 0 31.0273
-3015.5 -4.22424 0 30.5849
-4976.59 -12.2729 0 195.101
-3975.13 -8.02519 0 109.921
-3003.38 -4.12502 0 30.8114
-4007.38 -8.12675 0 109.338
-3991.25 -8.07614 0 109.637
-4956.47 -12.2782 0 195.453
-4916.24 -12.2866 0 196.104
-2967.04 -3.82728 0 31.4273
-2991.27 -4.0258 0 31.0273
-4936.35 -12.2827 0 195.787
-3942.9 -7.9222 0 110.446
-2979.15 -3.92655 0 31.2326
-3975.13 -8.02519 0 109.921
-3959.01 -7.97388 0 110.19
-4916.24 -12.2866 0 196.104
-4876.01 -12.292 0 196.684
-2942.82 -3.62862 0 31.7851
-2967.04 -3.82728 0 31.4273
-4896.13 -12.2896 0 196.403
-3910.66 -7.81771 0 110.915
-2954.93 -3.72797 0 31.6114
-3942.9 -7.9222 0 110.446
-3926.78 -7.87015 0 110.688
-4876.01 -12.292 0 196.684
-4835.79 -12.2943 0 197.195
-2918.6 -3.42977 0 32.1011
-2942.82 -3.62862 0 31.7851
-4855.9 -12.2935 0 196.948
-3878.43 -7.71163 0 111.329
-2930.71 -3.52923 0 31.9483
-3910.66 -7.81771 0 110.915
-3894.54 -7.76487 0 111.129
-4835.79 -12.2943 0 197.195
-4795.58 -12.2934 0 197.637
-2894.38 -3.23067 0 32.3757
-2918.6 -3.42977 0 32.1011
-4815.68 -12.2942 0 197.425
-3846.2 -7.60389 0 111.688
-2906.49 -3.33026 0 32.2436
-3878.43 -7.71163 0 111.329
-3862.32 -7.65797 0 111.515
-4795.58 -12.2934 0 197.637
-4755.36 -12.2892 0 198.011
-2870.17 -3.03125 0 32.6092
-2894.38 -3.23067 0 32.3757
-4775.47 -12.2917 0 197.832
-3813.98 -7.49441 0 111.991
-2882.27 -3.131 0 32.4976
-3846.2 -7.60389 0 111.688
-3830.09 -7.54937 0 111.846
-4755.36 -12.2892 0 198.011
-4715.16 -12.2816 0 198.316
-2845.96 -2.83148 0 32.8019
-2870.17 -3.03125 0 32.6092
-4735.26 -12.2858 0 198.172
-3781.76 -7.38314 0 112.241
-2858.06 -2.93141 0 32.7106
-3813.98 -7.49441 0 111.991
-3797.87 -7.439 0 112.123
-4715.16 -12.2816 0 198.316
-4674.96 -12.2706 0 198.555
-2821.75 -2.63129 0 32.9542
-2845.96 -2.83148 0 32.8019
-4695.06 -12.2765 0 198.444
-3749.55 -7.26998 0 112.436
-2833.85 -2.73144 0 32.8831
-3781.76 -7.38314 0 112.241
-3765.65 -7.3268 0 112.345
-4674.96 -12.2706 0 198.555
-4634.76 -12.256 0 198.726
-2797.55 -2.43063 0 33.0664
-2821.75 -2.63129 0 32.9542
-4654.86 -12.2637 0 198.649
-3717.34 -7.15489 0 112.578
-2809.65 -2.53102 0 33.0153
-3749.55 -7.26998 0 112.436
-3733.44 -7.21268 0 112.514
-4634.76 -12.256 0 198.726
-4594.57 -12.2378 0 198.832
-2773.35 -2.22947 0 33.139
-2797.55 -2.43063 0 33.0664
-4614.66 -12.2474 0 198.787
-3685.13 -7.0378 0 112.667
-2785.45 -2.33012 0 33.1077
-3717.34 -7.15489 0 112.578
-3701.23 -7.0966 0 112.629
-4594.57 -12.2378 0 198.832
-4554.38 -12.2159 0 198.872
-2749.15 -2.02775 0 33.1721
-2773.35 -2.22947 0 33.139
-4574.47 -12.2273 0 198.86
-3652.93 -6.91864 0 112.704
-2761.25 -2.12868 0 33.1605
-3685.13 -7.0378 0 112.667
-3669.03 -6.97848 0 112.692
-4554.38 -12.2159 0 198.872
-4514.2 -12.1903 0 198.847
-2724.96 -1.82543 0 33.1663
-2749.15 -2.02775 0 33.1721
-4534.29 -12.2036 0 198.868
-3620.74 -6.79737 0 112.689
-2737.06 -1.92667 0 33.1741
-3652.93 -6.91864 0 112.704
-3636.83 -6.85827 0 112.703
-4514.2 -12.1903 0 198.847
-4474.02 -12.1608 0 198.758
-2700.77 -1.62247 0 33.1217
-2724.96 -1.82543 0 33.1663
-4494.11 -12.176 0 198.81
-3588.54 -6.67391 0 112.622
-2712.87 -1.72404 0 33.1488
-3620.74 -6.79737 0 112.689
-3604.64 -6.73591 0 112.662
-4474.02 -12.1608 0 198.758
-4433.85 -12.1274 0 198.605
-2676.59 -1.41883 0 33.0389
-2700.77 -1.62247 0 33.1217
-4453.93 -12.1446 0 198.689
-3556.36 -6.54823 0 112.504
-2688.68 -1.52074 0 33.0851
-3588.54 -6.67391 0 112.622
-3572.45 -6.61136 0 112.569
-4433.85 -12.1274 0 198.605
-4393.68 -12.09 0 198.388
-2652.41 -1.21447 0 32.918
-2676.59 -1.41883 0 33.0389
-4413.76 -12.1092 0 198.504
-3524.17 -6.42028 0 112.336
-2664.5 -1.31675 0 32.9832
-3556.36 -6.54823 0 112.504
-3540.26 -6.48454 0 112.426
-4393.68 -12.09 0 198.388
-4353.52 -12.0486 0 198.109
-2628.24 -1.00936 0 32.7595
-2652.41 -1.21447 0 32.918
-4373.6 -12.0698 0 198.257
-3492 -6.28999 0 112.117
-2640.32 -1.11201 0 32.8435
-3524.17 -6.42028 0 112.336
-3508.08 -6.35543 0 112.233
-4353.52 -12.0486 0 198.109
-4313.36 -12.0031 0 197.768
-2604.06 -0.803452 0 32.5638
-2628.24 -1.00936 0 32.7595
-4333.44 -12.0264 0 197.947
-3459.82 -6.15733 0 111.849
-2616.15 -0.906506 0 32.6663
-3492 -6.28999 0 112.117
-3475.91 -6.22396 0 111.989
-4313.36 -12.0031 0 197.768
-4273.21 -11.9535 0 197.366
-2579.9 -0.596724 0 32.3311
-2604.06 -0.803452 0 32.5638
-4293.29 -11.9788 0 197.575
-3427.65 -6.02226 0 111.531
-2591.98 -0.700193 0 32.452
-3459.82 -6.15733 0 111.849
-3443.74 -6.0901 0 111.696
-4273.21 -11.9535 0 197.366
-4233.07 -11.8997 0 196.903
-2555.73 -0.389142 0 32.0617
-2579.9 -0.596724 0 32.3311
-4253.14 -11.9271 0 197.142
-3395.49 -5.88472 0 111.165
-2567.81 -0.493042 0 32.201
-3427.65 -6.02226 0 111.531
-3411.57 -5.9538 0 111.354
-4233.07 -11.8997 0 196.903
-4192.93 -11.8417 0 196.379
-2531.57 -0.180678 0 31.7562
-2555.73 -0.389142 0 32.0617
-4213 -11.8712 0 196.648
-3363.33 -5.7447 0 110.75
-2543.65 -0.285022 0 31.9135
-3395.49 -5.88472 0 111.165
-3379.41 -5.81502 0 110.963
-4192.93 -11.8417 0 196.379
-4152.79 -11.7794 0 195.795
-2507.42 0.0286977 0 31.4147
-2531.57 -0.180678 0 31.7562
-4172.86 -11.8111 0 196.094
-3331.18 -5.60214 0 110.288
-2519.49 -0.0761054 0 31.5899
-3363.33 -5.7447 0 110.75
-3347.26 -5.67374 0 110.525
-4152.79 -11.7794 0 195.795
-4112.66 -11.7127 0 195.153
-2483.27 0.239009 0 31.0377
-2507.42 0.0286977 0 31.4147
-4132.73 -11.7466 0 195.481
-3299.03 -5.45701 0 109.778
-2495.34 0.133735 0 31.2306
-3331.18 -5.60214 0 110.288
-3315.1 -5.5299 0 110.039
-4112.66 -11.7127 0 195.153
-4072.54 -11.6417 0 194.451
-2459.12 0.450281 0 30.6254
-2483.27 0.239009 0 31.0377
-4092.6 -11.6778 0 194.809
-3266.89 -5.30928 0 109.221
-2471.19 0.344524 0 30.8359
-3299.03 -5.45701 0 109.778
-3282.96 -5.38347 0 109.505
-4072.54 -11.6417 0 194.451
-4032.43 -11.5663 0 193.692
-2434.97 0.662536 0 30.1783
-2459.12 0.450281 0 30.6254
-4052.48 -11.6045 0 194.079
-3234.75 -5.15893 0 108.618
-2447.05 0.556284 0 30.4062
-3266.89 -5.30928 0 109.221
-3250.82 -5.23444 0 108.925
-4032.43 -11.5663 0 193.692
-3992.31 -11.4864 0 192.875
-2410.84 0.875794 0 29.6967
-2434.97 0.662536 0 30.1783
-4012.37 -11.5269 0 193.291
-3202.62 -5.00592 0 107.969
-2422.9 0.769038 0 29.9418
-3234.75 -5.15893 0 108.618
-3218.68 -5.08276 0 108.299
-3992.31 -11.4864 0 192.875
-3952.21 -11.4021 0 192.002
-2386.7 1.09007 0 29.1809
-2410.84 0.875794 0 29.6967
-3972.26 -11.4449 0 192.446
-3170.49 -4.85023 0 107.274
-2398.77 0.982805 0 29.443
-3202.62 -5.00592 0 107.969
-3186.55 -4.92841 0 107.627
-3952.21 -11.4021 0 192.002
-3912.11 -11.3133 0 191.072
-2362.57 1.3054 0 28.6312
-2386.7 1.09007 0 29.1809
-3932.16 -11.3583 0 191.544
-3138.36 -4.69184 0 106.534
-2374.63 1.1976 0 28.9102
-3170.49 -4.85023 0 107.274
-3154.42 -4.77138 0 106.91
-3912.11 -11.3133 0 191.072
-3872.02 -11.22 0 190.086
-2338.44 1.52177 0 28.0481
-2362.57 1.3054 0 28.6312
-3892.06 -11.2672 0 190.586
-3106.24 -4.53072 0 105.75
-2350.51 1.41345 0 28.3438
-3138.36 -4.69184 0 106.534
-3122.3 -4.61162 0 106.148
-3872.02 -11.22 0 190.086
-3831.93 -11.1221 0 189.046
-2314.32 1.73922 0 27.4318
-2338.44 1.52177 0 28.0481
-3851.97 -11.1716 0 189.573
-3074.13 -4.36686 0 104.922
-2326.38 1.63036 0 27.744
-3106.24 -4.53072 0 105.75
-3090.19 -4.44914 0 105.341
-3831.93 -11.1221 0 189.046
-3791.85 -11.0197 0 187.95
-2290.2 1.95775 0 26.7827
-2314.32 1.73922 0 27.4318
-3811.89 -11.0715 0 188.505
-3042.02 -4.20024 0 104.049
-2302.26 1.84835 0 27.1113
-3074.13 -4.36686 0 104.922
-3058.08 -4.2839 0 104.491
-3791.85 -11.0197 0 187.95
-3751.77 -10.9127 0 186.801
-2266.09 2.17738 0 26.1012
-2290.2 1.95775 0 26.7827
-3771.81 -10.9668 0 187.382
-3009.92 -4.03085 0 103.134
-2278.14 2.06743 0 26.446
-3042.02 -4.20024 0 104.049
-3025.97 -4.11589 0 103.597
-3751.77 -10.9127 0 186.801
-3711.7 -10.8011 0 185.598
-2241.98 2.3981 0 25.3875
-2266.09 2.17738 0 26.1012
-3731.73 -10.8575 0 186.206
-2977.82 -3.85866 0 102.176
-2254.03 2.2876 0 25.7483
-3009.92 -4.03085 0 103.134
-2993.87 -3.9451 0 102.66
-3711.7 -10.8011 0 185.598
-3671.63 -10.6848 0 184.343
-2217.87 2.61995 0 24.6421
-2241.98 2.3981 0 25.3875
-3691.67 -10.7435 0 184.977
-2945.73 -3.68368 0 101.175
-2229.93 2.50889 0 25.0188
-2977.82 -3.85866 0 102.176
-2961.78 -3.77152 0 101.681
-3671.63 -10.6848 0 184.343
-3631.58 -10.564 0 183.035
-2193.77 2.84291 0 23.8653
-2217.87 2.61995 0 24.6421
-3651.6 -10.625 0 183.696
-2913.64 -3.5059 0 100.133
-2205.82 2.73129 0 24.2576
-2945.73 -3.68368 0 101.175
-2929.69 -3.59514 0 100.659
-3631.58 -10.564 0 183.035
-3591.52 -10.4385 0 181.676
-2169.67 3.06699 0 23.0574
-2193.77 2.84291 0 23.8653
-3611.55 -10.5018 0 182.362
-2881.56 -3.3253 0 99.0494
-2181.72 2.95481 0 23.4652
-2913.64 -3.5059 0 100.133
-2897.6 -3.41595 0 99.5964
-3591.52 -10.4385 0 181.676
-3551.48 -10.3084 0 180.265
-2145.58 3.2922 0 22.2187
-2169.67 3.06699 0 23.0574
-3571.5 -10.374 0 180.977
-2849.48 -3.14188 0 97.9248
-2157.63 3.17945 0 22.6419
-2881.56 -3.3253 0 99.0494
-2865.52 -3.23394 0 98.4922
-3551.48 -10.3084 0 180.265
-3511.44 -10.1736 0 178.804
-2121.49 3.51854 0 21.3497
-2145.58 3.2922 0 22.2187
-3531.46 -10.2416 0 179.541
-2817.41 -2.95564 0 96.7597
-2133.54 3.40523 0 21.788
-2849.48 -3.14188 0 97.9248
-2833.45 -3.04911 0 97.3473
-3511.44 -10.1736 0 178.804
-3471.4 -10.0343 0 177.293
-2097.41 3.74601 0 20.4506
-2121.49 3.51854 0 21.3497
-3491.42 -10.1045 0 178.055
-2785.34 -2.76658 0 95.5546
-2109.45 3.63213 0 20.9039
-2817.41 -2.95564 0 96.7597
-2801.38 -2.86146 0 96.1621
-3471.4 -10.0343 0 177.293
-3431.37 -9.89023 0 175.733
-2073.33 3.97461 0 19.5218
-2097.41 3.74601 0 20.4506
-3451.39 -9.96282 0 176.519
-2753.28 -2.57471 0 94.3099
-2085.37 3.86017 0 19.9899
-2785.34 -2.76658 0 95.5546
-2769.31 -2.671 0 94.9372
-3431.37 -9.89023 0 175.733
-3391.35 -9.74156 0 174.124
-2049.25 4.20433 0 18.5637
-2073.33 3.97461 0 19.5218
-3411.36 -9.81647 0 174.934
-2721.23 -2.38001 0 93.0262
-2061.29 4.08933 0 19.0464
-2753.28 -2.57471 0 94.3099
-2737.25 -2.47771 0 93.6729
-3391.35 -9.74156 0 174.124
-3351.33 -9.58828 0 172.466
-2025.18 4.43519 0 17.5765
-2049.25 4.20433 0 18.5637
-3371.34 -9.6655 0 173.301
-2689.17 -2.18251 0 91.7039
-2037.22 4.31962 0 18.0737
-2721.23 -2.38001 0 93.0262
-2705.2 -2.28161 0 92.3698
-3351.33 -9.58828 0 172.466
-3311.32 -9.43037 0 170.761
-2001.11 4.66715 0 16.5607
-2025.18 4.43519 0 17.5765
-3331.32 -9.5099 0 171.62
-2657.13 -1.9822 0 90.3433
-2013.15 4.55103 0 17.0722
-2689.17 -2.18251 0 91.7039
-2673.15 -2.0827 0 91.0283
-3311.32 -9.43037 0 170.761
-3271.31 -9.26786 0 169.009
-1977.05 4.90024 0 15.5166
-2001.11 4.66715 0 16.5607
-3291.31 -9.34969 0 169.891
-2625.09 -1.77909 0 88.9451
-1989.08 4.78356 0 16.0422
-2657.13 -1.9822 0 90.3433
-2641.11 -1.88099 0 89.6489
-3271.31 -9.26786 0 169.009
-3231.31 -9.10075 0 167.21
-1952.99 5.13442 0 14.4444
-1977.05 4.90024 0 15.5166
-3251.31 -9.18488 0 168.115
-2593.05 -1.5732 0 87.5096
-1965.02 5.01719 0 14.984
-2625.09 -1.77909 0 88.9451
-2609.07 -1.67649 0 88.2319
-3231.31 -9.10075 0 167.21
-3191.32 -8.92907 0 165.365
-1928.94 5.36971 0 13.3446
-1952.99 5.13442 0 14.4444
-3211.31 -9.01548 0 166.293
-2561.02 -1.36454 0 86.0373
-1940.97 5.25193 0 13.898
-2593.05 -1.5732 0 87.5096
-2577.03 -1.46921 0 86.778
-3191.32 -8.92907 0 165.365
-3151.33 -8.75282 0 163.475
-1904.89 5.60608 0 12.2175
-1928.94 5.36971 0 13.3446
-3171.32 -8.84151 0 164.426
-2528.99 -1.15311 0 84.5286
-1916.91 5.48776 0 12.7845
-2561.02 -1.36454 0 86.0373
-2545 -1.25917 0 85.2874
-3151.33 -8.75282 0 163.475
-3111.35 -8.57203 0 161.54
-1880.84 5.84352 0 11.0635
-1904.89 5.60608 0 12.2175
-3131.34 -8.66299 0 162.513
-2496.97 -0.938944 0 82.9841
-1892.86 5.72467 0 11.6439
-2528.99 -1.15311 0 84.5286
-2512.98 -1.04637 0 83.7608
-3111.35 -8.57203 0 161.54
-3071.37 -8.38673 0 159.561
-1856.8 6.08203 0 9.88284
-1880.84 5.84352 0 11.0635
-3091.36 -8.47994 0 160.556
-2464.95 -0.72205 0 81.4041
-1868.82 5.96264 0 10.4765
-2496.97 -0.938944 0 82.9841
-2480.96 -0.830837 0 82.1985
-3071.37 -8.38673 0 159.561
-3031.4 -8.19692 0 157.539
-1832.76 6.32158 0 8.6759
-1856.8 6.08203 0 9.88284
-3051.38 -8.29239 0 158.555
-2432.94 -0.502448 0 79.7892
-1844.78 6.20167 0 9.28264
-2464.95 -0.72205 0 81.4041
-2448.95 -0.612586 0 80.601
-3031.4 -8.19692 0 157.539
-2991.43 -8.00265 0 155.473
-1808.73 6.56216 0 7.44303
-1832.76 6.32158 0 8.6759
-3011.41 -8.10035 0 156.511
-2400.94 -0.280159 0 78.1397
-1820.74 6.44174 0 8.06269
-2432.94 -0.502448 0 79.7892
-2416.94 -0.391638 0 78.9687
-2991.43 -8.00265 0 155.473
-2951.47 -7.80394 0 153.364
-1784.7 6.80376 0 6.18457
-1808.73 6.56216 0 7.44303
-2971.45 -7.90385 0 154.424
-2368.93 -0.0552058 0 76.4562
-1796.71 6.68284 0 6.81698
-2400.94 -0.280159 0 78.1397
-2384.93 -0.168014 0 77.3022
-2951.47 -7.80394 0 153.364
-2911.52 -7.60082 0 151.214
-1760.67 7.04636 0 4.90086
-1784.7 6.80376 0 6.18457
-2931.49 -7.70293 0 152.295
-2336.94 0.172388 0 74.7391
-1772.68 6.92494 0 5.54585
-2368.93 -0.0552058 0 76.4562
-2352.94 0.0582627 0 75.6019
-2911.52 -7.60082 0 151.214
-2871.57 -7.39332 0 149.022
-1736.65 7.28994 0 3.59224
-1760.67 7.04636 0 4.90086
-2891.54 -7.49761 0 150.123
-2304.95 0.402597 0 72.9889
-1748.66 7.16803 0 4.24964
-2336.94 0.172388 0 74.7391
-2320.94 0.287167 0 73.8681
-2871.57 -7.39332 0 149.022
-2831.62 -7.18147 0 146.79
-1712.63 7.53447 0 2.25905
-1736.65 7.28994 0 3.59224
-2851.59 -7.28793 0 147.911
-2272.96 0.635393 0 71.2059
-1724.64 7.41209 0 2.92869
-2304.95 0.402597 0 72.9889
-2288.95 0.518673 0 72.1015
-2831.62 -7.18147 0 146.79
-2791.68 -6.96531 0 144.517
-1688.62 7.77995 0 0.901637
-1712.63 7.53447 0 2.25905
-2811.65 -7.07393 0 145.659
-2240.98 0.870749 0 69.3907
-1700.62 7.65709 0 1.58335
-2272.96 0.635393 0 71.2059
-2256.97 0.752753 0 70.3023
-2791.68 -6.96531 0 144.517
-2751.75 -6.74489 0 142.205
-1664.61 8.02633 0 -0.479662
-1688.62 7.77995 0 0.901637
-2771.72 -6.85563 0 143.366
-2209 1.10863 0 67.5438
-1676.61 7.90303 0 0.213952
-2240.98 0.870749 0 69.3907
-2224.99 0.989378 0 68.4712
-2751.75 -6.74489 0 142.205
-2711.82 -6.52023 0 139.853
-1640.6 8.27361 0 -1.8845
-1664.61 8.02633 0 -0.479662
-2731.79 -6.63308 0 141.034
-2177.03 1.34902 0 65.6655
-1652.6 8.14986 0 -1.17916
-2209 1.10863 0 67.5438
-2193.01 1.22852 0 66.6085
-2711.82 -6.52023 0 139.853
-2671.9 -6.29138 0 137.463
-1616.6 8.52176 0 -3.31255
-1640.6 8.27361 0 -1.8845
-2691.86 -6.40633 0 138.663
-2145.06 1.59186 0 63.7563
-1628.6 8.39758 0 -2.59565
-2177.03 1.34902 0 65.6655
-2161.04 1.47013 0 64.7148
-2671.9 -6.29138 0 137.463
-2631.98 -6.05839 0 135.035
-1592.6 8.77075 0 -4.76346
-1616.6 8.52176 0 -3.31255
-2651.94 -6.1754 0 136.254
-2113.09 1.83714 0 61.8168
-1604.6 8.64615 0 -4.03517
-2145.06 1.59186 0 63.7563
-2129.08 1.7142 0 62.7903
-2631.98 -6.05839 0 135.035
-2592.07 -5.82129 0 132.57
-1568.6 9.02055 0 -6.23689
-1592.6 8.77075 0 -4.76346
-2612.03 -5.94035 0 133.807
-2081.14 2.08481 0 59.8472
-1580.6 8.89555 0 -5.49738
-2113.09 1.83714 0 61.8168
-2097.11 1.96068 0 60.8357
-2592.07 -5.82129 0 132.57
-2552.16 -5.58015 0 130.068
-1544.61 9.27113 0 -7.7325
-1568.6 9.02055 0 -6.23689
-2572.12 -5.70122 0 131.323
-2049.18 2.33483 0 57.8482
-1556.61 9.14574 0 -6.98195
-2081.14 2.08481 0 59.8472
-2065.16 2.20953 0 58.8514
-2552.16 -5.58015 0 130.068
-2512.26 -5.33499 0 127.529
-1520.63 9.52247 0 -9.24996
-1544.61 9.27113 0 -7.7325
-2532.21 -5.45807 0 128.803
-2017.23 2.58718 0 55.8201
-1532.62 9.39671 0 -8.48852
-2049.18 2.33483 0 57.8482
-2033.21 2.46072 0 56.8378
-2512.26 -5.33499 0 127.529
-2472.36 -5.08589 0 124.955
-1496.64 9.77454 0 -10.7889
-1520.63 9.52247 0 -9.24996
-2492.31 -5.21093 0 126.247
-1985.28 2.84179 0 53.7634
-1508.63 9.64842 0 -10.0168
-2017.23 2.58718 0 55.8201
-2001.26 2.7142 0 54.7953
-2472.36 -5.08589 0 124.955
-2432.47 -4.83288 0 122.346
-1472.66 10.0273 0 -12.349
-1496.64 9.77454 0 -10.7889
-2452.42 -4.95987 0 123.655
-1953.34 3.09865 0 51.6786
-1484.65 9.90084 0 -11.5664
-1985.28 2.84179 0 53.7634
-1969.31 2.96994 0 52.7245
-2432.47 -4.83288 0 122.346
-2392.58 -4.57602 0 119.702
-1448.69 10.2807 0 -13.93
-1472.66 10.0273 0 -12.349
-2412.53 -4.70492 0 121.028
-1921.41 3.35769 0 49.5661
-1460.67 10.1539 0 -13.1369
-1953.34 3.09865 0 51.6786
-1937.37 3.2279 0 50.6258
-2392.58 -4.57602 0 119.702
-2352.7 -4.31537 0 117.024
-1424.71 10.5348 0 -15.5314
-1448.69 10.2807 0 -13.93
-2372.64 -4.44616 0 118.367
-1889.47 3.61889 0 47.4263
-1436.7 10.4077 0 -14.7282
-1921.41 3.35769 0 49.5661
-1905.44 3.48802 0 48.4996
-2352.7 -4.31537 0 117.024
-2312.82 -4.05098 0 114.313
-1400.74 10.7895 0 -17.153
-1424.71 10.5348 0 -15.5314
-2332.76 -4.18364 0 115.673
-1857.54 3.88218 0 45.2597
-1412.73 10.6621 0 -16.3397
-1889.47 3.61889 0 47.4263
-1873.51 3.75027 0 46.3463
-2312.82 -4.05098 0 114.313
-2272.95 -3.78292 0 111.569
-1376.78 11.0447 0 -18.7943
-1400.74 10.7895 0 -17.153
-2292.88 -3.91741 0 112.945
-1825.62 4.14753 0 43.0669
-1388.76 10.917 0 -17.9712
-1857.54 3.88218 0 45.2597
-1841.58 4.0146 0 44.1666
-2272.95 -3.78292 0 111.569
-2233.08 -3.51124 0 108.792
-1352.81 11.3004 0 -20.4552
-1376.78 11.0447 0 -18.7943
-2253.01 -3.64753 0 110.184
-1793.7 4.41489 0 40.8481
-1364.8 11.1725 0 -19.6224
-1825.62 4.14753 0 43.0669
-1809.66 4.28096 0 41.9607
-2233.08 -3.51124 0 108.792
-2193.21 -3.236 0 105.984
-1328.86 11.5566 0 -22.1352
-1352.81 11.3004 0 -20.4552
-2213.14 -3.37406 0 107.392
-1761.78 4.68421 0 38.6039
-1340.83 11.4285 0 -21.2928
-1793.7 4.41489 0 40.8481
-1777.74 4.54931 0 39.7291
-2193.21 -3.236 0 105.984
-2153.35 -2.95728 0 103.145
-1304.9 11.8133 0 -23.8339
-1328.86 11.5566 0 -22.1352
-2173.28 -3.09707 0 104.568
-1729.87 4.95543 0 36.3347
-1316.88 11.6849 0 -22.9822
-1761.78 4.68421 0 38.6039
-1745.83 4.81958 0 37.4724
-2153.35 -2.95728 0 103.145
-2113.5 -2.67513 0 100.275
-1280.95 12.0704 0 -25.5511
-1304.9 11.8133 0 -23.8339
-2133.42 -2.81663 0 101.714
-1697.96 5.22851 0 34.041
-1292.92 11.9418 0 -24.6902
-1729.87 4.95543 0 36.3347
-1713.92 5.09174 0 35.1909
-2113.5 -2.67513 0 100.275
-2073.64 -2.38961 0 97.3749
-1257 12.3279 0 -27.2864
-1280.95 12.0704 0 -25.5511
-2093.57 -2.53278 0 98.8286
-1666.06 5.50339 0 31.7233
-1268.97 12.1991 0 -26.4165
-1697.96 5.22851 0 34.041
-1682.01 5.36573 0 32.8851
-2073.64 -2.38961 0 97.3749
-2033.8 -2.10081 0 94.4455
-1233.05 12.5857 0 -29.0395
-1257 12.3279 0 -27.2864
-2053.72 -2.24562 0 95.9139
-1634.16 5.78002 0 29.3819
-1245.03 12.4568 0 -28.1608
-1666.06 5.50339 0 31.7233
-1650.11 5.64149 0 30.5555
-2033.8 -2.10081 0 94.4455
-1993.95 -1.80878 0 91.4872
-1209.11 12.8438 0 -30.81
-1233.05 12.5857 0 -29.0395
-2013.87 -1.95519 0 92.9699
-1602.26 6.05835 0 27.0173
-1221.08 12.7147 0 -29.9226
-1634.16 5.78002 0 29.3819
-1618.21 5.91898 0 28.2025
-1993.95 -1.80878 0 91.4872
-1954.11 -1.51359 0 88.5006
-1185.17 13.1021 0 -32.5976
-1209.11 12.8438 0 -30.81
-1974.03 -1.66157 0 89.9974
-1570.36 6.33831 0 24.6301
-1197.14 12.9729 0 -31.7017
-1602.26 6.05835 0 27.0173
-1586.31 6.19813 0 25.8265
-1954.11 -1.51359 0 88.5006
-1914.28 -1.21533 0 85.4862
-1161.23 13.3607 0 -34.402
-1185.17 13.1021 0 -32.5976
-1934.19 -1.36484 0 86.9968
-1538.47 6.61985 0 22.2205
-1173.2 13.2314 0 -33.4977
-1570.36 6.33831 0 24.6301
-1554.42 6.47889 0 23.4281
-1914.28 -1.21533 0 85.4862
-1874.45 -0.914052 0 82.4446
-1137.3 13.6194 0 -36.2228
-1161.23 13.3607 0 -34.402
-1894.36 -1.06506 0 83.9688
-1506.59 6.90291 0 19.7892
-1149.27 13.49 0 -35.3104
-1538.47 6.61985 0 22.2205
-1522.53 6.7612 0 21.0076
-1874.45 -0.914052 0 82.4446
-1834.62 -0.609844 0 79.3763
-1113.37 13.8782 0 -38.0596
-1137.3 13.6194 0 -36.2228
-1854.53 -0.76231 0 80.9138
-1474.7 7.18744 0 17.3365
-1125.33 13.7488 0 -37.1392
-1506.59 6.90291 0 19.7892
-1490.65 7.045 0 18.5655
-1834.62 -0.609844 0 79.3763
-1794.79 -0.302777 0 76.282
-1089.44 14.1371 0 -39.9122
-1113.37 13.8782 0 -38.0596
-1814.7 -0.456663 0 77.8324
-1442.82 7.47337 0 14.8629
-1101.41 14.0077 0 -38.984
-1474.7 7.18744 0 17.3365
-1458.76 7.33023 0 16.1023
-1794.79 -0.302777 0 76.282
-1754.97 0.00707181 0 73.1622
-1065.52 14.3961 0 -41.7803
-1089.44 14.1371 0 -39.9122
-1774.88 -0.148195 0 74.7252
-1410.95 7.76064 0 12.3688
-1077.48 14.2666 0 -40.8443
-1442.82 7.47337 0 14.8629
-1426.89 7.61684 0 13.6184
-1754.97 0.00707181 0 73.1622
-1715.15 0.319624 0 70.0174
-1041.6 14.655 0 -43.6633
-1065.52 14.3961 0 -41.7803
-1735.06 0.163015 0 71.5929
-1379.07 8.04918 0 9.85471
-1053.56 14.5255 0 -42.7199
-1410.95 7.76064 0 12.3688
-1395.01 7.90476 0 11.1142
-1715.15 0.319624 0 70.0174
-1675.34 0.634802 0 66.8482
-1017.68 14.9138 0 -45.5612
-1041.6 14.655 0 -43.6633
-1695.25 0.47689 0 68.4358
-1347.2 8.33895 0 7.32106
-1029.63 14.7844 0 -44.6104
-1379.07 8.04918 0 9.85471
-1363.14 8.19392 0 8.5903
-1675.34 0.634802 0 66.8482
-1635.53 0.952523 0 63.6552
-993.759 15.1726 0 -47.4734
-1017.68 14.9138 0 -45.5612
-1655.43 0.793349 0 65.2546
-1315.34 8.62986 0 4.76829
-1005.72 15.0432 0 -46.5155
-1347.2 8.33895 0 7.32106
-1331.27 8.48426 0 6.04704
-1635.53 0.952523 0 63.6552
-1595.72 1.27271 0 60.4389
-969.845 15.4311 0 -49.3996
-993.759 15.1726 0 -47.4734
-1615.62 1.11231 0 62.0499
-1283.47 8.92186 0 2.19687
-981.802 15.3019 0 -48.4347
-1315.34 8.62986 0 4.76829
-1299.4 8.77573 0 3.48489
-1595.72 1.27271 0 60.4389
-1555.91 1.59527 0 57.1999
-945.933 15.6895 0 -51.3396
-969.845 15.4311 0 -49.3996
-1575.82 1.4337 0 58.8222
-1251.61 9.21488 0 -0.39276
-957.889 15.5603 0 -50.3679
-1283.47 8.92186 0 2.19687
-1267.54 9.06824 0 0.904305
-1555.91 1.59527 0 57.1999
-1516.11 1.92013 0 53.9388
-922.024 15.9476 0 -53.2929
-945.933 15.6895 0 -51.3396
-1536.01 1.75742 0 55.5721
-1219.75 9.50885 0 -3.00015
-933.978 15.8186 0 -52.3146
-1251.61 9.21488 0 -0.39276
-1235.68 9.36175 0 -1.69426
-1516.11 1.92013 0 53.9388
-1476.31 2.2472 0 50.6561
-898.117 16.2053 0 -55.2593
-922.024 15.9476 0 -53.2929
-1496.21 2.0834 0 52.3001
-1187.89 9.8037 0 -5.62485
-910.07 16.0765 0 -54.2745
-1219.75 9.50885 0 -3.00015
-1203.82 9.65617 0 -4.31037
-1476.31 2.2472 0 50.6561
-1436.52 2.5764 0 47.3524
-874.213 16.4628 0 -57.2385
-898.117 16.2053 0 -55.2593
-1456.41 2.41154 0 49.0069
-1156.04 10.0994 0 -8.26642
-886.165 16.3341 0 -56.2473
-1187.89 9.8037 0 -5.62485
-1171.97 9.95144 0 -6.94356
-1436.52 2.5764 0 47.3524
-1396.72 2.90763 0 44.0283
-850.311 16.7197 0 -59.2299
-874.213 16.4628 0 -57.2385
-1416.62 2.74177 0 45.6929
-1124.19 10.3958 0 -10.9244
-862.262 16.5913 0 -58.2327
-1156.04 10.0994 0 -8.26642
-1140.12 10.2475 0 -9.59338
-1396.72 2.90763 0 44.0283
-1356.93 3.24081 0 40.6842
-826.411 16.9763 0 -61.2334
-850.311 16.7197 0 -59.2299
-1376.83 3.07399 0 42.3587
-1092.34 10.6929 0 -13.5983
-838.361 16.8481 0 -60.2302
-1124.19 10.3958 0 -10.9244
-1108.27 10.5442 0 -12.2594
-1356.93 3.24081 0 40.6842
-1317.14 3.57586 0 37.3209
-802.514 17.2322 0 -63.2486
-826.411 16.9763 0 -61.2334
-1337.04 3.40811 0 39.0049
-1060.5 10.9906 0 -16.2878
-814.462 17.1043 0 -62.2396
-1092.34 10.6929 0 -13.5983
-1076.42 10.8416 0 -14.9411
-1317.14 3.57586 0 37.3209
-1277.36 3.91266 0 33.9387
-778.618 17.4876 0 -65.2752
-802.514 17.2322 0 -63.2486
-1297.25 3.74404 0 35.6321
-1028.65 11.2888 0 -18.9922
-790.566 17.36 0 -64.2605
-1060.5 10.9906 0 -16.2878
-1044.57 11.1396 0 -17.6381
-1277.36 3.91266 0 33.9387
-1237.57 4.25114 0 30.5384
-754.725 17.7424 0 -67.3127
-778.618 17.4876 0 -65.2752
-1257.46 4.0817 0 32.2408
-996.81 11.5874 0 -21.7113
-766.672 17.6151 0 -66.2926
-1028.65 11.2888 0 -18.9922
-1012.73 11.438 0 -20.35
-1237.57 4.25114 0 30.5384
-1197.79 4.5912 0 27.1205
-730.834 17.9964 0 -69.3609
-754.725 17.7424 0 -67.3127
-1217.68 4.42098 0 28.8316
-964.971 11.8864 0 -24.4446
-742.779 17.8695 0 -68.3355
-996.81 11.5874 0 -21.7113
-980.891 11.7369 0 -23.0762
-1197.79 4.5912 0 27.1205
-1158.01 4.93274 0 23.6855
-706.944 18.2496 0 -71.4195
-730.834 17.9964 0 -69.3609
-1177.9 4.76179 0 25.4051
-933.134 12.1857 0 -27.1915
-718.889 18.1231 0 -70.3889
-964.971 11.8864 0 -24.4446
-949.052 12.0361 0 -25.8163
-1158.01 4.93274 0 23.6855
-1118.23 5.27566 0 20.2341
-683.056 18.502 0 -73.488
-706.944 18.2496 0 -71.4195
-1138.12 5.10403 0 21.9618
-901.298 12.4853 0 -29.9516
-695 18.3759 0 -72.4525
-933.134 12.1857 0 -27.1915
-917.216 12.3355 0 -28.5699
-1118.23 5.27566 0 20.2341
-1078.45 5.61986 0 16.7667
-659.171 18.7535 0 -75.5661
-683.056 18.502 0 -73.488
-1098.34 5.44761 0 18.5023
-869.465 12.7849 0 -32.7244
-671.113 18.6279 0 -74.5258
-901.298 12.4853 0 -29.9516
-885.381 12.6351 0 -31.3364
-1078.45 5.61986 0 16.7667
-1038.68 5.96524 0 13.2841
-635.286 19.004 0 -77.6534
-659.171 18.7535 0 -75.5661
-1058.57 5.79241 0 15.0273
-837.633 13.0845 0 -35.5096
-647.228 18.8789 0 -76.6086
-869.465 12.7849 0 -32.7244
-853.549 12.9347 0 -34.1155
-1038.68 5.96524 0 13.2841
-998.906 6.3117 0 9.7867
-611.404 19.2534 0 -79.7497
-635.286 19.004 0 -77.6534
-1018.79 6.13834 0 11.5372
-805.803 13.3841 0 -38.3065
-623.345 19.1288 0 -78.7005
-837.633 13.0845 0 -35.5096
-821.718 13.2343 0 -36.9066
-998.906 6.3117 0 9.7867
-959.134 6.65916 0 6.27517
-587.522 19.5018 0 -81.8545
-611.404 19.2534 0 -79.7497
-979.02 6.48531 0 8.03267
-773.975 13.6836 0 -41.1148
-599.463 19.3777 0 -80.8011
-805.803 13.3841 0 -38.3065
-789.889 13.5339 0 -39.7093
-959.134 6.65916 0 6.27517
-919.364 7.00753 0 2.75006
-563.643 19.7491 0 -83.9676
-587.522 19.5018 0 -81.8545
-939.249 6.83323 0 4.51428
-742.148 13.983 0 -43.934
-575.582 19.6256 0 -82.9101
-773.975 13.6836 0 -41.1148
-758.061 13.8333 0 -42.5231
-919.364 7.00753 0 2.75006
-879.595 7.35677 0 -0.788104
-539.764 19.9954 0 -86.0885
-563.643 19.7491 0 -83.9676
-899.48 7.18204 0 0.982579
-710.323 14.2822 0 -46.7637
-551.703 19.8724 0 -85.0271
-742.148 13.983 0 -43.934
-726.235 14.1326 0 -45.3475
-879.595 7.35677 0 -0.788104
-839.828 7.70687 0 -4.33884
-515.887 20.2409 0 -88.2171
-539.764 19.9954 0 -86.0885
-859.712 7.53171 0 -2.56193
-678.498 14.5814 0 -49.6034
-527.826 20.1183 0 -87.1519
-710.323 14.2822 0 -46.7637
-694.41 14.4318 0 -48.1823
-839.828 7.70687 0 -4.33884
-800.062 8.05786 0 -7.90177
-492.011 20.4858 0 -90.3531
-515.887 20.2409 0 -88.2171
-819.945 7.88224 0 -6.1188
-646.676 14.8807 0 -52.4531
-503.949 20.3634 0 -89.2842
-678.498 14.5814 0 -49.6034
-662.587 14.731 0 -51.027
-800.062 8.05786 0 -7.90177
-760.297 8.40985 0 -11.4766
-468.137 20.7305 0 -92.4964
-492.011 20.4858 0 -90.3531
-780.179 8.23372 0 -9.68771
-614.854 15.1803 0 -55.3124
-480.074 20.6081 0 -91.4238
-646.676 14.8807 0 -52.4531
-630.765 15.0305 0 -53.8815
-760.297 8.40985 0 -11.4766
-720.532 8.76297 0 -15.0632
-444.265 20.9754 0 -94.6471
-468.137 20.7305 0 -92.4964
-740.414 8.58625 0 -13.2684
-583.034 15.4806 0 -58.1814
-456.201 20.8529 0 -93.5708
-614.854 15.1803 0 -55.3124
-598.944 15.3304 0 -56.7456
-720.532 8.76297 0 -15.0632
-680.768 9.11728 0 -18.6616
-420.394 21.221 0 -96.8055
-444.265 20.9754 0 -94.6471
-700.65 8.93999 0 -16.861
-551.215 15.7817 0 -61.0602
-432.329 21.0981 0 -95.7253
-583.034 15.4806 0 -58.1814
-567.125 15.6311 0 -59.6195
-680.768 9.11728 0 -18.6616
-641.004 9.47259 0 -22.2718
-396.525 21.467 0 -98.9724
-420.394 21.221 0 -96.8055
-660.886 9.29483 0 -20.4652
-519.398 16.0832 0 -63.9491
-408.459 21.344 0 -97.8879
-551.215 15.7817 0 -61.0602
-535.306 15.9325 0 -62.5034
-641.004 9.47259 0 -22.2718
-601.24 9.82765 0 -25.8932
-372.657 21.7121 0 -101.149
-396.525 21.467 0 -98.9724
-621.122 9.65032 0 -24.0812
-487.58 16.3836 0 -66.8482
-384.591 21.5899 0 -100.059
-519.398 16.0832 0 -63.9491
-503.489 16.2338 0 -65.3975
-601.24 9.82765 0 -25.8932
-561.473 10.1797 0 -29.5241
-348.788 21.9509 0 -103.337
-372.657 21.7121 0 -101.149
-581.357 10.0043 0 -27.7076
-455.761 16.6777 0 -69.7567
-360.722 21.8329 0 -102.241
-487.58 16.3836 0 -66.8482
-471.671 16.5319 0 -68.3013
-561.473 10.1797 0 -29.5241
-521.705 10.5205 0 -33.1581
-324.906 22.1731 0 -105.541
-348.788 21.9509 0 -103.337
-541.589 10.3523 0 -31.3415
-423.933 16.9549 0 -72.6721
-336.85 22.0651 0 -104.437
-455.761 16.6777 0 -69.7567
-439.848 16.8198 0 -71.2141
-521.705 10.5205 0 -33.1581
-481.927 10.8368 0 -36.7846
-300.998 22.3523 0 -107.765
-324.906 22.1731 0 -105.541
-501.819 10.683 0 -34.9732
-392.083 17.1907 0 -75.5873
-312.955 22.2706 0 -106.65
-423.933 16.9549 0 -72.6721
-408.012 17.0795 0 -74.13
-481.927 10.8368 0 -36.7846
-442.145 11.094 0 -40.3709
-277.007 22.4509 0 -110.022
-300.998 22.3523 0 -107.765
-462.035 10.9758 0 -38.5862
-360.181 17.345 0 -78.4881
-289.019 22.4154 0 -108.888
-392.083 17.1907 0 -75.5873
-376.141 17.2837 0 -77.0419
-442.145 11.094 0 -40.3709
-402.319 11.251 0 -43.8758
-252.877 22.3814 0 -112.323
-277.007 22.4509 0 -110.022
-422.243 11.1895 0 -42.1365
-328.162 17.3347 0 -81.3477
-264.96 22.4444 0 -111.167
-360.181 17.345 0 -78.4881
-344.192 17.3638 0 -79.9234
-402.319 11.251 0 -43.8758
-362.469 11.1908 0 -47.1825
-228.399 22.0586 0 -114.713
-252.877 22.3814 0 -112.323
-382.389 11.2555 0 -45.5663
-295.912 17.0556 0 -84.1207
-240.705 22.26 0 -113.501
-328.162 17.3347 0 -81.3477
-312.073 17.2468 0 -82.7537
-362.469 11.1908 0 -47.1825
-322.414 10.8435 0 -50.1866
-203.409 21.2799 0 -117.223
-228.399 22.0586 0 -114.713
-342.495 11.0664 0 -48.7271
-263.199 16.3001 0 -86.7534
-215.967 21.7374 0 -115.955
-295.912 17.0556 0 -84.1207
-279.639 16.7337 0 -85.4492
-322.414 10.8435 0 -50.1866
-282.22 9.87818 0 -52.5758
-177.295 20.0443 0 -120.026
-203.409 21.2799 0 -117.223
-302.305 10.4427 0 -51.4934
-229.681 14.9512 0 -89.1769
-190.566 20.7217 0 -118.565
-263.199 16.3001 0 -86.7534
-246.552 15.7476 0 -88.0163
-282.22 9.87818 0 -52.5758
-241.063 8.45753 0 -54.2823
-149.852 18.1897 0 -123.216
-177.295 20.0443 0 -120.026
-261.879 9.26143 0 -53.501
-194.63 12.7627 0 -91.4733
-163.704 19.1664 0 -121.58
-229.681 14.9512 0 -89.1769
-212.441 13.8811 0 -90.2873
-241.063 8.45753 0 -54.2823
-199.103 5.86311 0 -54.8423
-119.834 16.9535 0 -127.396
-149.852 18.1897 0 -123.216
-220.087 7.21407 0 -54.7689
-157.365 10.4578 0 -93.888
-135.347 17.4016 0 -125.101
-194.63 12.7627 0 -91.4733
-176.247 11.707 0 -92.7217
-199.103 5.86311 0 -54.8423
-152.974 4.56794 0 -55.4206
-88.4135 17.8144 0 -132.681
-119.834 16.9535 0 -127.396
-177.003 5.1223 0 -54.9615
-116.101 9.42965 0 -97.7828
-104.035 16.7901 0 -129.944
-157.365 10.4578 0 -93.888
-137.553 9.21973 0 -95.3407
-152.974 4.56794 0 -55.4206
-103.398 4.88776 0 -57.6932
-55.517 28.8068 0 -139.692
-88.4135 17.8144 0 -132.681
-128.302 3.58007 0 -56.1975
-71.5853 17.5325 0 -105.218
-72.4051 21.4546 0 -135.878
-116.101 9.42965 0 -97.7828
-93.8177 12.0634 0 -101.206
-103.398 4.88776 0 -57.6932
-42.7178 27.5075 0 -72.4615
-30.7487 59.5837 0 -142.481
-55.517 28.8068 0 -139.692
-75.4739 12.6171 0 -62.3249
-25.3998 51.9346 0 -119.997
-40.9234 40.2038 0 -142.448
-71.5853 17.5325 0 -105.218
-49.3152 28.0849 0 -110.832
-42.7178 27.5075 0 -72.4615
0.799417 114.949 0 -107.998
-13.6527 131.967 0 -124.43
-30.7487 59.5837 0 -142.481
-16.1684 51.3925 0 -87.0011
-9.95043 148.229 0 -122.551
-22.0231 91.3657 0 -137.785
-25.3998 51.9346 0 -119.997
-8.98343 92.5568 0 -126.914
0.799417 114.949 0 -107.998
-12.7719 411.933 0 -78.4447
-0.14016 204.336 0 -53.7335
-13.6527 131.967 0 -124.43
5.65898 241.481 0 -116.576
-14.8881 289.934 0 -41.1813
-5.57389 173.989 0 -97.1311
-9.95043 148.229 0 -122.551
-14.7873 219.143 0 -96.8266
-4289.79 -1291.58 0 395.591
-4654.38 -823.86 0 -7.0068
-1527.02 -270.738 0 205.298
-1565.61 -469.363 0 616.222
-4537.61 -1042.12 0 152.058
-3091.72 -546.967 0 123.892
-1501.16 -371.807 0 388.946
-2865.97 -861.211 0 563.685
-3026.73 -728.152 0 280.96
-4654.38 -823.86 0 -7.0068
-4740.77 -369.371 0 -128.935
-1606.96 -172.567 0 -39.4426
-1527.02 -270.738 0 205.298
-4692.89 -579.833 0 -86.4201
-3163.65 -294.005 0 -70.6929
-1588.93 -216.199 0 61.2615
-3091.72 -546.967 0 123.892
-3124.11 -400.448 0 18.2699
-4740.77 -369.371 0 -128.935
-4784.47 -141.691 0 -148.768
-1611.97 -82.6692 0 -149.411
-1606.96 -172.567 0 -39.4426
-4782.97 -232.236 0 -148.657
-3200.77 -129.453 0 -152.427
-1603.83 -122.911 0 -105.92
-3163.65 -294.005 0 -70.6929
-3192.68 -203.667 0 -127.755
-4784.47 -141.691 0 -148.768
-4747.57 -37.1971 0 -132.561
-1616.05 -41.3302 0 -187.692
-1611.97 -82.6692 0 -149.411
-4764.27 -76.7977 0 -139.878
-3190.31 -49.0326 0 -168.318
-1621.01 -58.3498 0 -175.286
-3200.77 -129.453 0 -152.427
-3198.03 -79.7465 0 -162.717
-4747.57 -37.1971 0 -132.561
-4704.92 -7.61984 0 -120.621
-1598.66 -20.2336 0 -190.58
-1616.05 -41.3302 0 -187.692
-4729.74 -17.3456 0 -126.604
-3161.03 -15.5847 0 -162.898
-1605.27 -27.853 0 -191.332
-3190.31 -49.0326 0 -168.318
-3177.37 -28.3916 0 -167.797
-4704.92 -7.61984 0 -120.621
-4655.98 -0.876177 0 -111.469
-1584.1 -16.8676 0 -182.314
-1598.66 -20.2336 0 -190.58
-4678.07 -2.0922 0 -115.181
-3127.67 -8.39658 0 -153.054
-1592.94 -17.6495 0 -187.158
-3161.03 -15.5847 0 -162.898
-3143.79 -9.7306 0 -157.463
-4655.98 -0.876177 0 -111.469
-4616.58 -5.04523 0 -106.126
-1567.16 -17.0632 0 -172.017
-1584.1 -16.8676 0 -182.314
-4636.33 -2.5701 0 -108.727
-3097.67 -9.73372 0 -144.023
-1574.53 -16.4775 0 -176.979
-3127.67 -8.39658 0 -153.054
-3112.22 -8.60827 0 -148.572
-4616.58 -5.04523 0 -106.126
-4581.07 -9.7123 0 -101.663
-1554.19 -19.4799 0 -163.584
-1567.16 -17.0632 0 -172.017
-4597.72 -7.33486 0 -103.708
-3071.96 -13.6804 0 -136.925
-1560.83 -18.3196 0 -167.534
-3097.67 -9.73372 0 -144.023
-3084.21 -11.5827 0 -140.098
-4581.07 -9.7123 0 -101.663
-4550.91 -13.9153 0 -97.9141
-1542.28 -21.1151 0 -157.353
-1554.19 -19.4799 0 -163.584
-4565.78 -12.0243 0 -99.8006
-3049.93 -16.984 0 -131.477
-1547.79 -20.3339 0 -160.179
-3071.96 -13.6804 0 -136.925
-3060.58 -15.4888 0 -134.082
-4550.91 -13.9153 0 -97.9141
-4523.05 -16.4901 0 -94.2011
-1532.33 -22.2904 0 -153.034
-1542.28 -21.1151 0 -157.353
-4536.59 -15.3496 0 -96.0314
-3030.42 -19.2649 0 -127.244
-1537.27 -21.8124 0 -155.001
-3049.93 -16.984 0 -131.477
-3039.92 -18.2509 0 -129.209
-4523.05 -16.4901 0 -94.2011
-4497.11 -18.0071 0 -90.566
-1523.05 -22.7244 0 -149.996
-1532.33 -22.2904 0 -153.034
-4509.98 -17.3847 0 -92.3921
-3012.47 -20.4884 0 -123.774
-1527.54 -22.5644 0 -151.382
-3030.42 -19.2649 0 -127.244
-3021.3 -19.9948 0 -125.448
-4497.11 -18.0071 0 -90.566
-4471.97 -18.6636 0 -86.9191
-1514.44 -22.7647 0 -147.784
-1523.05 -22.7244 0 -149.996
-4484.43 -18.4104 0 -88.7368
-2995.4 -21.0001 0 -120.784
-1518.72 -22.7958 0 -148.813
-3012.47 -20.4884 0 -123.774
-3003.86 -20.8152 0 -122.227
-4471.97 -18.6636 0 -86.9191
-4447.38 -18.8453 0 -83.3068
-1506.05 -22.4976 0 -146.052
-1514.44 -22.7647 0 -147.784
-4459.65 -18.8051 0 -85.1109
-2978.81 -21.0407 0 -118.078
-1510.21 -22.655 0 -146.872
-2995.4 -21.0001 0 -120.784
-2987.07 -21.0663 0 -119.407
-4447.38 -18.8453 0 -83.3068
-4422.99 -18.7311 0 -79.731
-1497.83 -22.0839 0 -144.598
-1506.05 -22.4976 0 -146.052
-4435.16 -18.8127 0 -81.5121
-2962.46 -20.8185 0 -115.548
-1501.94 -22.3066 0 -145.3
-2978.81 -21.0407 0 -118.078
-2970.62 -20.9535 0 -116.794
-4422.99 -18.7311 0 -79.731
-4398.72 -18.4741 0 -76.2112
-1489.66 -21.5835 0 -143.298
-1497.83 -22.0839 0 -144.598
-4410.85 -18.6162 0 -77.9642
-2946.2 -20.4539 0 -113.129
-1493.74 -21.8397 0 -143.934
-2962.46 -20.8185 0 -115.548
-2954.32 -20.6487 0 -114.328
-4398.72 -18.4741 0 -76.2112
-4374.48 -18.1445 0 -72.7522
-1481.51 -21.0511 0 -142.087
-1489.66 -21.5835 0 -143.298
-4386.59 -18.3145 0 -74.4736
-2929.99 -20.0236 0 -110.79
-1485.58 -21.3202 0 -142.684
-2946.2 -20.4539 0 -113.129
-2938.09 -20.2439 0 -111.951
-4374.48 -18.1445 0 -72.7522
-4350.25 -17.789 0 -69.3588
-1473.36 -20.5072 0 -140.928
-1481.51 -21.0511 0 -142.087
-4362.36 -17.9687 0 -71.0474
-2913.78 -19.5671 0 -108.511
-1477.43 -20.7793 0 -141.502
-2929.99 -20.0236 0 -110.79
-2921.88 -19.7971 0 -109.643
-4350.25 -17.789 0 -69.3588
-4326.02 -17.4271 0 -66.0314
-1465.2 -19.966 0 -139.805
-1473.36 -20.5072 0 -140.928
-4338.13 -17.6079 0 -67.6868
-2897.58 -19.1056 0 -106.283
-1469.28 -20.2361 0 -140.363
-2913.78 -19.5671 0 -108.511
-2905.68 -19.3363 0 -107.391
-4326.02 -17.4271 0 -66.0314
-4301.78 -17.0694 0 -62.7699
-1457.04 -19.4315 0 -138.709
-1465.2 -19.966 0 -139.805
-4313.9 -17.2474 0 -64.3925
-2881.36 -18.6482 0 -104.103
-1461.12 -19.6977 0 -139.254
-2897.58 -19.1056 0 -106.283
-2889.47 -18.8761 0 -105.187
-4301.78 -17.0694 0 -62.7699
-4277.54 -16.7193 0 -59.5731
-1448.87 -18.9058 0 -137.635
-1457.04 -19.4315 0 -138.709
-4289.66 -16.8933 0 -61.1635
-2865.14 -18.1986 0 -101.966
-1452.96 -19.1676 0 -138.169
-2881.36 -18.6482 0 -104.103
-2873.25 -18.4224 0 -103.029
-4277.54 -16.7193 0 -59.5731
-4253.29 -16.3781 0 -56.4398
-1440.7 -18.3883 0 -136.583
-1448.87 -18.9058 0 -137.635
-4265.42 -16.5476 0 -57.9986
-2848.92 -17.7575 0 -99.8724
-1444.79 -18.646 0 -137.107
-2865.14 -18.1986 0 -101.966
-2857.03 -17.977 0 -100.914
-4253.29 -16.3781 0 -56.4398
-4229.04 -16.0453 0 -53.369
-1432.53 -17.8786 0 -135.552
-1440.7 -18.3883 0 -136.583
-4241.17 -16.2106 0 -54.8966
-2832.69 -17.3246 0 -97.8201
-1436.62 -18.1326 0 -136.065
-2848.92 -17.7575 0 -99.8724
-2840.81 -17.5401 0 -98.8411
-4229.04 -16.0453 0 -53.369
-4204.78 -15.7204 0 -50.3595
-1424.35 -17.3756 0 -134.541
-1432.53 -17.8786 0 -135.552
-4216.91 -15.8819 0 -51.8566
-2816.46 -16.8992 0 -95.8085
-1428.44 -17.6263 0 -135.044
-2832.69 -17.3246 0 -97.8201
-2824.58 -17.111 0 -96.8093
-4204.78 -15.7204 0 -50.3595
-4180.52 -15.4027 0 -47.4106
-1416.17 -16.8785 0 -133.549
-1424.35 -17.3756 0 -134.541
-4192.65 -15.5607 0 -48.8775
-2800.23 -16.4805 0 -93.8373
-1420.26 -17.1263 0 -134.042
-2816.46 -16.8992 0 -95.8085
-2808.34 -16.6891 0 -94.8179
-4180.52 -15.4027 0 -47.4106
-4156.26 -15.0916 0 -44.5217
-1408 -16.3868 0 -132.577
-1416.17 -16.8785 0 -133.549
-4168.39 -15.2464 0 -45.9587
-2783.99 -16.0679 0 -91.9058
-1412.09 -16.632 0 -133.06
-2800.23 -16.4805 0 -93.8373
-2792.11 -16.2735 0 -92.8666
-4156.26 -15.0916 0 -44.5217
-4131.99 -14.7865 0 -41.692
-1399.82 -15.8999 0 -131.624
-1408 -16.3868 0 -132.577
-4144.12 -14.9383 0 -43.0994
-2767.75 -15.6608 0 -90.0138
-1403.91 -16.1428 0 -132.098
-2783.99 -16.0679 0 -91.9058
-2775.87 -15.8637 0 -90.9549
-4131.99 -14.7865 0 -41.692
-4107.72 -14.4872 0 -38.9211
-1391.64 -15.4175 0 -130.691
-1399.82 -15.8999 0 -131.624
-4119.85 -14.6362 0 -40.2992
-2751.51 -15.259 0 -88.161
-1395.73 -15.6582 0 -131.155
-2767.75 -15.6608 0 -90.0138
-2759.63 -15.4593 0 -89.0825
-4107.72 -14.4872 0 -38.9211
-4083.45 -14.1931 0 -36.2086
-1383.46 -14.9394 0 -129.778
-1391.64 -15.4175 0 -130.691
-4095.58 -14.3395 0 -37.5576
-2735.27 -14.862 0 -86.3469
-1387.55 -15.1779 0 -130.232
-2751.51 -15.259 0 -88.161
-2743.39 -15.0599 0 -87.2491
-4083.45 -14.1931 0 -36.2086
-4059.17 -13.9042 0 -33.5542
-1375.28 -14.4653 0 -128.883
-1383.46 -14.9394 0 -129.778
-4071.31 -14.0481 0 -34.8742
-2719.03 -14.4696 0 -84.5715
-1379.37 -14.7018 0 -129.328
-2735.27 -14.862 0 -86.3469
-2727.15 -14.6652 0 -85.4544
-4059.17 -13.9042 0 -33.5542
-4034.9 -13.6202 0 -30.9573
-1367.1 -13.9951 0 -128.007
-1375.28 -14.4653 0 -128.883
-4047.04 -13.7616 0 -32.2486
-2702.79 -14.0817 0 -82.8344
-1371.19 -14.2297 0 -128.443
-2719.03 -14.4696 0 -84.5715
-2710.91 -14.2751 0 -83.6982
-4034.9 -13.6202 0 -30.9573
-4010.62 -13.3408 0 -28.4178
-1358.92 -13.5288 0 -127.15
-1367.1 -13.9951 0 -128.007
-4022.76 -13.4799 0 -29.6804
-2686.55 -13.6982 0 -81.1354
-1363.01 -13.7615 0 -127.576
-2702.79 -14.0817 0 -82.8344
-2694.67 -13.8894 0 -81.9802
-4010.62 -13.3408 0 -28.4178
-3986.34 -13.066 0 -25.9352
-1350.74 -13.0662 0 -126.312
-1358.92 -13.5288 0 -127.15
-3998.48 -13.2029 0 -27.1694
-2670.31 -13.3188 0 -79.4744
-1354.83 -13.297 0 -126.729
-2686.55 -13.6982 0 -81.1354
-2678.43 -13.508 0 -80.3002
-3986.34 -13.066 0 -25.9352
-3962.06 -12.7955 0 -23.5093
-1342.56 -12.6073 0 -125.493
-1350.74 -13.0662 0 -126.312
-3974.2 -12.9302 0 -24.7152
-2654.06 -12.9436 0 -77.851
-1346.65 -12.8363 0 -125.901
-2670.31 -13.3188 0 -79.4744
-2662.18 -13.1307 0 -78.658
-3962.06 -12.7955 0 -23.5093
-3937.78 -12.5292 0 -21.1396
-1334.38 -12.1521 0 -124.693
-1342.56 -12.6073 0 -125.493
-3949.92 -12.6618 0 -22.3174
-2637.82 -12.5723 0 -76.2651
-1338.47 -12.3792 0 -125.091
-2654.06 -12.9436 0 -77.851
-2645.94 -12.7574 0 -77.0534
-3937.78 -12.5292 0 -21.1396
-3913.5 -12.2669 0 -18.8258
-1326.2 -11.7004 0 -123.91
-1334.38 -12.1521 0 -124.693
-3925.64 -12.3976 0 -19.9757
-2621.57 -12.2049 0 -74.7164
-1330.29 -11.9258 0 -124.299
-2637.82 -12.5723 0 -76.2651
-2629.7 -12.3881 0 -75.4861
-3913.5 -12.2669 0 -18.8258
-3889.21 -12.0085 0 -16.5677
-1318.02 -11.2523 0 -123.147
-1326.2 -11.7004 0 -123.91
-3901.35 -12.1372 0 -17.6898
-2605.33 -11.8412 0 -73.2047
-1322.11 -11.476 0 -123.526
-2621.57 -12.2049 0 -74.7164
-2613.45 -12.0226 0 -73.9559
-3889.21 -12.0085 0 -16.5677
-3864.93 -11.7539 0 -14.3648
-1309.84 -10.8078 0 -122.401
-1318.02 -11.2523 0 -123.147
-3877.07 -11.8807 0 -15.4593
-2589.08 -11.4813 0 -71.7297
-1313.93 -11.0296 0 -122.772
-2605.33 -11.8412 0 -73.2047
-2597.2 -11.6608 0 -72.4626
-3864.93 -11.7539 0 -14.3648
-3840.64 -11.5028 0 -12.2169
-1301.66 -10.3666 0 -121.674
-1309.84 -10.8078 0 -122.401
-3852.79 -11.6279 0 -13.284
-2572.84 -11.1249 0 -70.2914
-1305.75 -10.5868 0 -122.035
-2589.08 -11.4813 0 -71.7297
-2580.96 -11.3027 0 -71.006
-3840.64 -11.5028 0 -12.2169
-3816.36 -11.2552 0 -10.1235
-1293.49 -9.92893 0 -120.965
-1301.66 -10.3666 0 -121.674
-3828.5 -11.3786 0 -11.1634
-2556.59 -10.7721 0 -68.8894
-1297.57 -10.1474 0 -121.317
-2572.84 -11.1249 0 -70.2914
-2564.71 -10.9481 0 -69.5859
-3816.36 -11.2552 0 -10.1235
-3792.07 -11.0109 0 -8.08441
-1285.31 -9.49459 0 -120.273
-1293.49 -9.92893 0 -120.965
-3804.21 -11.1326 0 -9.0972
-2540.35 -10.4226 0 -67.5235
-1289.4 -9.71135 0 -120.617
-2556.59 -10.7721 0 -68.8894
-2548.47 -10.5969 0 -68.202
-3792.07 -11.0109 0 -8.08441
-3767.78 -10.7697 0 -6.09922
-1277.13 -9.06358 0 -119.6
-1285.31 -9.49459 0 -120.273
-3779.93 -10.8899 0 -7.08509
-2524.1 -10.0765 0 -66.1935
-1281.22 -9.27867 0 -119.934
-2540.35 -10.4226 0 -67.5235
-2532.22 -10.2492 0 -66.854
-3767.78 -10.7697 0 -6.09922
-3743.5 -10.5317 0 -4.16759
-1268.95 -8.63585 0 -118.944
-1277.13 -9.06358 0 -119.6
-3755.64 -10.6503 0 -5.12673
-2507.86 -9.7336 0 -64.8992
-1273.04 -8.84931 0 -119.27
-2524.1 -10.0765 0 -66.1935
-2515.98 -9.90466 0 -65.5419
-3743.5 -10.5317 0 -4.16759
-3719.21 -10.2965 0 -2.28919
-1260.78 -8.21135 0 -118.306
-1268.95 -8.63585 0 -118.944
-3731.35 -10.4137 0 -3.22176
-2491.61 -9.39383 0 -63.6403
-1264.86 -8.42319 0 -118.623
-2507.86 -9.7336 0 -64.8992
-2499.73 -9.56333 0 -64.2653
-3719.21 -10.2965 0 -2.28919
-3694.93 -10.064 0 -0.463661
-1252.6 -7.79004 0 -117.685
-1260.78 -8.21135 0 -118.306
-3707.07 -10.1799 0 -1.36983
-2475.37 -9.0571 0 -62.4166
-1256.69 -8.0003 0 -117.993
-2491.61 -9.39383 0 -63.6403
-2483.49 -9.22509 0 -63.024
-3694.93 -10.064 0 -0.463661
-3670.64 -9.83426 0 1.30933
-1244.43 -7.37189 0 -117.082
-1252.6 -7.79004 0 -117.685
-3682.78 -9.94883 0 0.42938
-2459.12 -8.72333 0 -61.2279
-1248.51 -7.58057 0 -117.382
-2475.37 -9.0571 0 -62.4166
-2467.25 -8.88985 0 -61.8179
-3670.64 -9.83426 0 1.30933
-3646.35 -9.607 0 3.03013
-1236.25 -6.95684 0 -116.496
-1244.43 -7.37189 0 -117.082
-3658.5 -9.72033 0 2.17623
-2442.88 -8.39244 0 -60.0739
-1240.34 -7.16398 0 -116.787
-2459.12 -8.72333 0 -61.2279
-2451 -8.55753 0 -60.6465
-3646.35 -9.607 0 3.03013
-3622.07 -9.38214 0 4.69909
-1228.08 -6.54486 0 -115.927
-1236.25 -6.95684 0 -116.496
-3634.21 -9.49428 0 3.87107
-2426.64 -8.06435 0 -58.9545
-1232.16 -6.75047 0 -116.21
-2442.88 -8.39244 0 -60.0739
-2434.76 -8.22805 0 -59.5099
-3622.07 -9.38214 0 4.69909
-3597.79 -9.15954 0 6.31654
-1219.9 -6.13591 0 -115.376
-1228.08 -6.54486 0 -115.927
-3609.93 -9.27056 0 5.51423
-2410.4 -7.73897 0 -57.8693
-1223.99 -6.34001 0 -115.649
-2426.64 -8.06435 0 -58.9545
-2418.52 -7.90132 0 -58.4076
-3597.79 -9.15954 0 6.31654
-3573.5 -8.9391 0 7.88284
-1211.73 -5.72995 0 -114.841
-1219.9 -6.13591 0 -115.376
-3585.64 -9.04906 0 7.10607
-2394.16 -7.41622 0 -56.8182
-1215.82 -5.93256 0 -115.106
-2410.4 -7.73897 0 -57.8693
-2402.28 -7.57727 0 -57.3395
-3573.5 -8.9391 0 7.88284
-3549.22 -8.72069 0 9.39833
-1203.56 -5.32693 0 -114.323
-1211.73 -5.72995 0 -114.841
-3561.36 -8.82965 0 8.64692
-2377.92 -7.09603 0 -55.801
-1207.65 -5.52807 0 -114.58
-2394.16 -7.41622 0 -56.8182
-2386.04 -7.25581 0 -56.3054
-3549.22 -8.72069 0 9.39833
-3524.94 -8.5042 0 10.8634
-1195.39 -4.92682 0 -113.822
-1203.56 -5.32693 0 -114.323
-3537.08 -8.61221 0 10.1371
-2361.68 -6.77832 0 -54.8174
-1199.47 -5.12651 0 -114.07
-2377.92 -7.09603 0 -55.801
-2369.8 -6.93687 0 -55.305
-3524.94 -8.5042 0 10.8634
-3500.66 -8.28952 0 12.2783
-1187.22 -4.52959 0 -113.337
-1195.39 -4.92682 0 -113.822
-3512.8 -8.39664 0 11.5771
-2345.44 -6.46302 0 -53.8671
-1191.3 -4.72785 0 -113.578
-2361.68 -6.77832 0 -54.8174
-2353.56 -6.62037 0 -54.3381
-3500.66 -8.28952 0 12.2783
-3476.38 -8.07655 0 13.6434
-1179.05 -4.13519 0 -112.869
-1187.22 -4.52959 0 -113.337
-3488.52 -8.18283 0 12.967
-2329.21 -6.15004 0 -52.95
-1183.14 -4.33203 0 -113.101
-2345.44 -6.46302 0 -53.8671
-2337.33 -6.30624 0 -53.4044
-3476.38 -8.07655 0 13.6434
-3452.11 -7.86516 0 14.9591
-1170.88 -3.74358 0 -112.418
-1179.05 -4.13519 0 -112.869
-3464.24 -7.97066 0 14.3074
-2312.97 -5.83933 0 -52.0658
-1174.97 -3.93904 0 -112.641
-2329.21 -6.15004 0 -52.95
-2321.09 -5.99441 0 -52.5038
-3452.11 -7.86516 0 14.9591
-3427.83 -7.65526 0 16.2257
-1162.72 -3.35475 0 -111.982
-1170.88 -3.74358 0 -112.418
-3439.97 -7.76003 0 15.5985
-2296.74 -5.53081 0 -51.2144
-1166.8 -3.54882 0 -112.198
-2312.97 -5.83933 0 -52.0658
-2304.86 -5.6848 0 -51.636
-3427.83 -7.65526 0 16.2257
-3403.56 -7.44675 0 17.4436
-1154.55 -2.96864 0 -111.563
-1162.72 -3.35475 0 -111.982
-3415.69 -7.55084 0 16.8408
-2280.51 -5.22441 0 -50.3953
-1158.63 -3.16135 0 -111.771
-2296.74 -5.53081 0 -51.2144
-2288.63 -5.37735 0 -50.8008
-3403.56 -7.44675 0 17.4436
-3379.29 -7.23952 0 18.6131
-1146.39 -2.58523 0 -111.16
-1154.55 -2.96864 0 -111.563
-3391.42 -7.34298 0 18.0344
-2264.28 -4.92007 0 -49.6086
-1150.47 -2.7766 0 -111.359
-2280.51 -5.22441 0 -50.3953
-2272.4 -5.07199 0 -49.9979
-3379.29 -7.23952 0 18.6131
-3355.02 -7.03348 0 19.7346
-1138.22 -2.20448 0 -110.773
-1146.39 -2.58523 0 -111.16
-3367.15 -7.13636 0 19.1798
-2248.05 -4.61772 0 -48.8538
-1142.31 -2.39452 0 -110.964
-2264.28 -4.92007 0 -49.6086
-2256.17 -4.76865 0 -49.2272
-3355.02 -7.03348 0 19.7346
-3330.75 -6.82854 0 20.8084
-1130.06 -1.82637 0 -110.401
-1138.22 -2.20448 0 -110.773
-3342.88 -6.93088 0 20.2774
-2231.83 -4.31729 0 -48.1308
-1134.14 -2.0151 0 -110.585
-2248.05 -4.61772 0 -48.8538
-2239.94 -4.46727 0 -48.4883
-3330.75 -6.82854 0 20.8084
-3306.48 -6.62459 0 21.8348
-1121.9 -1.45085 0 -110.046
-1130.06 -1.82637 0 -110.401
-3318.62 -6.72645 0 21.3275
-2215.6 -4.01873 0 -47.4394
-1125.98 -1.63829 0 -110.222
-2231.83 -4.31729 0 -48.1308
-2223.71 -4.16778 0 -47.7811
-3306.48 -6.62459 0 21.8348
-3282.22 -6.42155 0 22.8142
-1113.74 -1.0779 0 -109.706
-1121.9 -1.45085 0 -110.046
-3294.35 -6.52296 0 22.3303
-2199.38 -3.72197 0 -46.7792
-1117.82 -1.26406 0 -109.874
-2215.6 -4.01873 0 -47.4394
-2207.49 -3.87013 0 -47.1054
-3282.22 -6.42155 0 22.8142
-3257.96 -6.21933 0 23.747
-1105.58 -0.707496 0 -109.381
-1113.74 -1.0779 0 -109.706
-3270.09 -6.32034 0 23.2864
-2183.16 -3.42695 0 -46.1502
-1109.66 -0.892384 0 -109.541
-2199.38 -3.72197 0 -46.7792
-2191.27 -3.57425 0 -46.4608
-3257.96 -6.21933 0 23.747
-3233.7 -6.01784 0 24.6334
-1097.43 -0.339599 0 -109.072
-1105.58 -0.707496 0 -109.381
-3245.83 -6.1185 0 24.1959
-2166.94 -3.13362 0 -45.552
-1101.5 -0.523236 0 -109.225
-2183.16 -3.42695 0 -46.1502
-2175.05 -3.28008 0 -45.8473
-3233.7 -6.01784 0 24.6334
-3209.44 -5.817 0 25.4739
-1089.27 0.0258156 0 -108.778
-1097.43 -0.339599 0 -109.072
-3221.57 -5.91735 0 25.0594
-2150.72 -2.84192 0 -44.9845
-1093.35 -0.156583 0 -108.923
-2166.94 -3.13362 0 -45.552
-2158.83 -2.98757 0 -45.2644
-3209.44 -5.817 0 25.4739
-3185.19 -5.61673 0 26.2688
-1081.12 0.388777 0 -108.499
-1089.27 0.0258156 0 -108.778
-3197.32 -5.7168 0 25.877
-2134.51 -2.5518 0 -44.4473
-1085.19 0.207601 0 -108.637
-2150.72 -2.84192 0 -44.9845
-2142.61 -2.69667 0 -44.7121
-3185.19 -5.61673 0 26.2688
-3160.94 -5.41694 0 27.0184
-1072.96 0.74931 0 -108.236
-1081.12 0.388777 0 -108.499
-3173.07 -5.51678 0 26.6492
-2118.29 -2.26319 0 -43.9403
-1077.04 0.569345 0 -108.366
-2134.51 -2.5518 0 -44.4473
-2126.4 -2.40731 0 -44.19
-3160.94 -5.41694 0 27.0184
-3136.69 -5.21757 0 27.7231
-1064.81 1.10744 0 -107.987
-1072.96 0.74931 0 -108.236
-3148.82 -5.31721 0 27.3763
-2102.08 -1.97606 0 -43.4633
-1068.89 0.928675 0 -108.11
-2118.29 -2.26319 0 -43.9403
-2110.19 -2.11945 0 -43.6981
-3136.69 -5.21757 0 27.7231
-3112.45 -5.01852 0 28.3832
-1056.66 1.4632 0 -107.753
-1064.81 1.10744 0 -107.987
-3124.57 -5.11801 0 28.0587
-2085.87 -1.69034 0 -43.0159
-1060.74 1.28562 0 -107.868
-2102.08 -1.97606 0 -43.4633
-2093.98 -1.83303 0 -43.2359
-3112.45 -5.01852 0 28.3832
-3088.21 -4.81974 0 28.9991
-1048.51 1.81661 0 -107.534
-1056.66 1.4632 0 -107.753
-3100.33 -4.9191 0 28.6966
-2069.67 -1.406 0 -42.5981
-1052.59 1.6402 0 -107.642
-2085.87 -1.69034 0 -43.0159
-2077.77 -1.548 0 -42.8033
-3088.21 -4.81974 0 28.9991
-3063.97 -4.62114 0 29.5711
-1040.37 2.16769 0 -107.329
-1048.51 1.81661 0 -107.534
-3076.09 -4.72042 0 29.2905
-2053.46 -1.12297 0 -42.2095
-1044.44 1.99244 0 -107.43
-2069.67 -1.406 0 -42.5981
-2061.57 -1.26432 0 -42.4001
-3063.97 -4.62114 0 29.5711
-3039.73 -4.42266 0 30.0996
-1032.22 2.51647 0 -107.139
-1040.37 2.16769 0 -107.329
-3051.85 -4.52189 0 29.8407
-2037.26 -0.841219 0 -41.8499
-1036.29 2.34236 0 -107.232
-2053.46 -1.12297 0 -42.2095
-2045.36 -0.981938 0 -42.0261
-3039.73 -4.42266 0 30.0996
-3015.5 -4.22424 0 30.5849
-1024.08 2.86296 0 -106.964
-1032.22 2.51647 0 -107.139
-3027.61 -4.32345 0 30.3476
-2021.06 -0.560699 0 -41.5191
-1028.15 2.69 0 -107.05
-2037.26 -0.841219 0 -41.8499
-2029.16 -0.700808 0 -41.6809
-3015.5 -4.22424 0 30.5849
-2991.27 -4.0258 0 31.0273
-1015.93 3.2072 0 -106.802
-1024.08 2.86296 0 -106.964
-3003.38 -4.12502 0 30.8114
-2004.87 -0.281365 0 -41.2168
-1020.01 3.03537 0 -106.881
-2021.06 -0.560699 0 -41.5191
-2012.96 -0.420886 0 -41.3644
-2991.27 -4.0258 0 31.0273
-2967.04 -3.82728 0 31.4273
-1007.79 3.54921 0 -106.655
-1015.93 3.2072 0 -106.802
-2979.15 -3.92655 0 31.2326
-1988.67 -0.0031747 0 -40.9429
-1011.86 3.37849 0 -106.727
-2004.87 -0.281365 0 -41.2168
-1996.77 -0.142129 0 -41.0764
-2967.04 -3.82728 0 31.4273
-2942.82 -3.62862 0 31.7851
-999.654 3.889 0 -106.522
-1007.79 3.54921 0 -106.655
-2954.93 -3.72797 0 31.6114
-1972.48 0.273912 0 -40.6971
-1003.72 3.71938 0 -106.586
-1988.67 -0.0031747 0 -40.9429
-1980.58 0.135504 0 -40.8165
-2942.82 -3.62862 0 31.7851
-2918.6 -3.42977 0 32.1011
-991.517 4.22659 0 -106.402
-999.654 3.889 0 -106.522
-2930.71 -3.52923 0 31.9483
-1956.29 0.549936 0 -40.4792
-995.585 4.05807 0 -106.46
-1972.48 0.273912 0 -40.6971
-1964.39 0.412054 0 -40.5847
-2918.6 -3.42977 0 32.1011
-2894.38 -3.23067 0 32.3757
-983.381 4.56201 0 -106.297
-991.517 4.22659 0 -106.402
-2906.49 -3.33026 0 32.2436
-1940.1 0.824934 0 -40.2889
-987.449 4.39457 0 -106.348
-1956.29 0.549936 0 -40.4792
-1948.2 0.687561 0 -40.3806
-2894.38 -3.23067 0 32.3757
-2870.17 -3.03125 0 32.6092
-975.247 4.89527 0 -106.205
-983.381 4.56201 0 -106.297
-2882.27 -3.131 0 32.4976
-1923.92 1.09894 0 -40.126
-979.314 4.72891 0 -106.249
-1940.1 0.824934 0 -40.2889
-1932.01 0.96206 0 -40.204
-2870.17 -3.03125 0 32.6092
-2845.96 -2.83148 0 32.8019
-967.114 5.22639 0 -106.127
-975.247 4.89527 0 -106.205
-2858.06 -2.93141 0 32.7106
-1907.74 1.372 0 -39.9903
-971.18 5.06109 0 -106.164
-1923.92 1.09894 0 -40.126
-1915.83 1.23559 0 -40.0548
-2845.96 -2.83148 0 32.8019
-2821.75 -2.63129 0 32.9542
-958.983 5.55539 0 -106.062
-967.114 5.22639 0 -106.127
-2833.85 -2.73144 0 32.8831
-1891.56 1.64414 0 -39.8815
-963.048 5.39115 0 -106.092
-1907.74 1.372 0 -39.9903
-1899.65 1.50818 0 -39.9326
-2821.75 -2.63129 0 32.9542
-2797.55 -2.43063 0 33.0664
-950.854 5.88228 0 -106.01
-958.983 5.55539 0 -106.062
-2809.65 -2.53102 0 33.0153
-1875.39 1.9154 0 -39.7995
-954.918 5.7191 0 -106.034
-1891.56 1.64414 0 -39.8815
-1883.47 1.77988 0 -39.8372
-2797.55 -2.43063 0 33.0664
-2773.35 -2.22947 0 33.139
-942.727 6.20709 0 -105.972
-950.854 5.88228 0 -106.01
-2785.45 -2.33012 0 33.1077
-1859.21 2.1858 0 -39.7439
-946.79 6.04495 0 -105.99
-1875.39 1.9154 0 -39.7995
-1867.3 2.0507 0 -39.7684
-2773.35 -2.22947 0 33.139
-2749.15 -2.02775 0 33.1721
-934.601 6.52982 0 -105.947
-942.727 6.20709 0 -105.972
-2761.25 -2.12868 0 33.1605
-1843.04 2.45538 0 -39.7146
-938.664 6.36872 0 -105.958
-1859.21 2.1858 0 -39.7439
-1851.13 2.32069 0 -39.726
-2749.15 -2.02775 0 33.1721
-2724.96 -1.82543 0 33.1663
-926.477 6.8505 0 -105.935
-934.601 6.52982 0 -105.947
-2737.06 -1.92667 0 33.1741
-1826.88 2.72416 0 -39.7114
-930.539 6.69042 0 -105.94
-1843.04 2.45538 0 -39.7146
-1834.96 2.58987 0 -39.7098
-2724.96 -1.82543 0 33.1663
-2700.77 -1.62247 0 33.1217
-918.355 7.16913 0 -105.936
-926.477 6.8505 0 -105.935
-2712.87 -1.72404 0 33.1488
-1810.71 2.99218 0 -39.7339
-922.416 7.01007 0 -105.934
-1826.88 2.72416 0 -39.7114
-1818.79 2.85826 0 -39.7194
-2700.77 -1.62247 0 33.1217
-2676.59 -1.41883 0 33.0389
-910.235 7.48574 0 -105.95
-918.355 7.16913 0 -105.936
-2688.68 -1.52074 0 33.0851
-1794.55 3.25946 0 -39.782
-914.295 7.32769 0 -105.941
-1810.71 2.99218 0 -39.7339
-1802.63 3.12591 0 -39.7548
-2676.59 -1.41883 0 33.0389
-2652.41 -1.21447 0 32.918
-902.117 7.80033 0 -105.976
-910.235 7.48574 0 -105.95
-2664.5 -1.31675 0 32.9832
-1778.39 3.52603 0 -39.8555
-906.176 7.64328 0 -105.961
-1794.55 3.25946 0 -39.782
-1786.47 3.39284 0 -39.8156
-2652.41 -1.21447 0 32.918
-2628.24 -1.00936 0 32.7595
-894 8.11291 0 -106.015
-902.117 7.80033 0 -105.976
-2640.32 -1.11201 0 32.8435
-1762.24 3.79191 0 -39.9541
-898.058 7.95687 0 -105.994
-1778.39 3.52603 0 -39.8555
-1770.31 3.65906 0 -39.9017
-2628.24 -1.00936 0 32.7595
-2604.06 -0.803452 0 32.5638
-885.885 8.4235 0 -106.067
-894 8.11291 0 -106.015
-2616.15 -0.906506 0 32.6663
-1746.08 4.05713 0 -40.0775
-889.942 8.26846 0 -106.039
-1762.24 3.79191 0 -39.9541
-1754.16 3.9246 0 -40.0127
-2604.06 -0.803452 0 32.5638
-2579.9 -0.596724 0 32.3311
-877.772 8.73212 0 -106.13
-885.885 8.4235 0 -106.067
-2591.98 -0.700193 0 32.452
-1729.94 4.3217 0 -40.2256
-881.828 8.57806 0 -106.097
-1746.08 4.05713 0 -40.0775
-1738.01 4.1895 0 -40.1485
-2579.9 -0.596724 0 32.3311
-2555.73 -0.389142 0 32.0617
-869.661 9.03876 0 -106.206
-877.772 8.73212 0 -106.13
-2567.81 -0.493042 0 32.201
-1713.79 4.58566 0 -40.3981
-873.716 8.88568 0 -106.167
-1729.94 4.3217 0 -40.2256
-1721.86 4.45376 0 -40.3088
-2555.73 -0.389142 0 32.0617
-2531.57 -0.180678 0 31.7562
-861.552 9.34345 0 -106.295
-869.661 9.03876 0 -106.206
-2543.65 -0.285022 0 31.9135
-1697.65 4.84901 0 -40.5949
-865.606 9.19135 0 -106.249
-1713.79 4.58566 0 -40.3981
-1705.72 4.71741 0 -40.4935
-2531.57 -0.180678 0 31.7562
-2507.42 0.0286977 0 31.4147
-853.445 9.64618 0 -106.395
-861.552 9.34345 0 -106.295
-2519.49 -0.0761054 0 31.5899
-1681.5 5.11177 0 -40.8155
-857.498 9.49506 0 -106.343
-1697.65 4.84901 0 -40.5949
-1689.57 4.98046 0 -40.7022
-2507.42 0.0286977 0 31.4147
-2483.27 0.239009 0 31.0377
-845.339 9.94698 0 -106.507
-853.445 9.64618 0 -106.395
-2495.34 0.133735 0 31.2306
-1665.37 5.37397 0 -41.06
-849.392 9.79682 0 -106.449
-1681.5 5.11177 0 -40.8155
-1673.44 5.24294 0 -40.9348
-2483.27 0.239009 0 31.0377
-2459.12 0.450281 0 30.6254
-837.236 10.2458 0 -106.631
-845.339 9.94698 0 -106.507
-2471.19 0.344524 0 30.8359
-1649.23 5.63562 0 -41.3279
-841.287 10.0966 0 -106.567
-1665.37 5.37397 0 -41.06
-1657.3 5.50487 0 -41.191
-2459.12 0.450281 0 30.6254
-2434.97 0.662536 0 30.1783
-829.134 10.5428 0 -106.766
-837.236 10.2458 0 -106.631
-2447.05 0.556284 0 30.4062
-1633.1 5.89674 0 -41.6191
-833.185 10.3945 0 -106.697
-1649.23 5.63562 0 -41.3279
-1641.17 5.76625 0 -41.4706
-2434.97 0.662536 0 30.1783
-2410.84 0.875794 0 29.6967
-821.034 10.8378 0 -106.913
-829.134 10.5428 0 -106.766
-2422.9 0.769038 0 29.9418
-1616.97 6.15734 0 -41.9333
-825.084 10.6905 0 -106.838
-1633.1 5.89674 0 -41.6191
-1625.04 6.0271 0 -41.7733
-2410.84 0.875794 0 29.6967
-2386.7 1.09007 0 29.1809
-812.936 11.1309 0 -107.072
-821.034 10.8378 0 -106.913
-2398.77 0.982805 0 29.443
-1600.85 6.41742 0 -42.2704
-816.985 10.9846 0 -106.991
-1616.97 6.15734 0 -41.9333
-1608.91 6.28744 0 -42.099
-2386.7 1.09007 0 29.1809
-2362.57 1.3054 0 28.6312
-804.84 11.4221 0 -107.241
-812.936 11.1309 0 -107.072
-2374.63 1.1976 0 28.9102
-1584.73 6.67702 0 -42.63
-808.888 11.2768 0 -107.155
-1600.85 6.41742 0 -42.2704
-1592.79 6.54728 0 -42.4474
-2362.57 1.3054 0 28.6312
-2338.44 1.52177 0 28.0481
-796.746 11.7114 0 -107.422
-804.84 11.4221 0 -107.241
-2350.51 1.41345 0 28.3438
-1568.61 6.93612 0 -43.0121
-800.793 11.567 0 -107.331
-1584.73 6.67702 0 -42.63
-1576.67 6.80663 0 -42.8183
-2338.44 1.52177 0 28.0481
-2314.32 1.73922 0 27.4318
-788.654 11.9989 0 -107.615
-796.746 11.7114 0 -107.422
-2326.38 1.63036 0 27.744
-1552.49 7.19476 0 -43.4162
-792.7 11.8554 0 -107.517
-1568.61 6.93612 0 -43.0121
-1560.55 7.0655 0 -43.2114
-2314.32 1.73922 0 27.4318
-2290.2 1.95775 0 26.7827
-780.564 12.2844 0 -107.818
-788.654 11.9989 0 -107.615
-2302.26 1.84835 0 27.1113
-1536.38 7.45293 0 -43.8422
-784.609 12.1419 0 -107.715
-1552.49 7.19476 0 -43.4162
-1544.44 7.3239 0 -43.6265
-2290.2 1.95775 0 26.7827
-2266.09 2.17738 0 26.1012
-772.476 12.5681 0 -108.032
-780.564 12.2844 0 -107.818
-2278.14 2.06743 0 26.446
-1520.27 7.71064 0 -44.29
-776.52 12.4265 0 -107.923
-1536.38 7.45293 0 -43.8422
-1528.33 7.58184 0 -44.0634
-2266.09 2.17738 0 26.1012
-2241.98 2.3981 0 25.3875
-764.39 12.8498 0 -108.257
-772.476 12.5681 0 -108.032
-2254.03 2.2876 0 25.7483
-1504.17 7.96789 0 -44.7591
-768.433 12.7092 0 -108.143
-1520.27 7.71064 0 -44.29
-1512.22 7.83932 0 -44.5219
-2241.98 2.3981 0 25.3875
-2217.87 2.61995 0 24.6421
-756.305 13.1297 0 -108.492
-764.39 12.8498 0 -108.257
-2229.93 2.50889 0 25.0188
-1488.06 8.2247 0 -45.2495
-760.347 12.99 0 -108.373
-1504.17 7.96789 0 -44.7591
-1496.12 8.09635 0 -45.0017
-2217.87 2.61995 0 24.6421
-2193.77 2.84291 0 23.8653
-748.223 13.4077 0 -108.738
-756.305 13.1297 0 -108.492
-2205.82 2.73129 0 24.2576
-1471.97 8.48108 0 -45.7609
-752.264 13.269 0 -108.614
-1488.06 8.2247 0 -45.2495
-1480.01 8.35294 0 -45.5026
-2193.77 2.84291 0 23.8653
-2169.67 3.06699 0 23.0574
-740.143 13.6839 0 -108.995
-748.223 13.4077 0 -108.738
-2181.72 2.95481 0 23.4652
-1455.87 8.73701 0 -46.293
-744.183 13.5461 0 -108.865
-1471.97 8.48108 0 -45.7609
-1463.92 8.6091 0 -46.0244
-2169.67 3.06699 0 23.0574
-2145.58 3.2922 0 22.2187
-732.064 13.9582 0 -109.261
-740.143 13.6839 0 -108.995
-2157.63 3.17945 0 22.6419
-1439.78 8.99251 0 -46.8457
-736.103 13.8213 0 -109.127
-1455.87 8.73701 0 -46.293
-1447.82 8.86481 0 -46.5668
-2145.58 3.2922 0 22.2187
-2121.49 3.51854 0 21.3497
-723.987 14.2306 0 -109.538
-732.064 13.9582 0 -109.261
-2133.54 3.40523 0 21.788
-1423.69 9.24757 0 -47.4187
-728.026 14.0946 0 -109.399
-1439.78 8.99251 0 -46.8457
-1431.73 9.12009 0 -47.1297
-2121.49 3.51854 0 21.3497
-2097.41 3.74601 0 20.4506
-715.913 14.5011 0 -109.825
-723.987 14.2306 0 -109.538
-2109.45 3.63213 0 20.9039
-1407.6 9.5022 0 -48.0117
-719.95 14.3661 0 -109.681
-1423.69 9.24757 0 -47.4187
-1415.64 9.37494 0 -47.7127
-2097.41 3.74601 0 20.4506
-2073.33 3.97461 0 19.5218
-707.84 14.7698 0 -110.123
-715.913 14.5011 0 -109.825
-2085.37 3.86017 0 19.9899
-1391.52 9.7564 0 -48.6246
-711.876 14.6357 0 -109.973
-1407.6 9.5022 0 -48.0117
-1399.56 9.62936 0 -48.3157
-2073.33 3.97461 0 19.5218
-2049.25 4.20433 0 18.5637
-699.769 15.0366 0 -110.429
-707.84 14.7698 0 -110.123
-2061.29 4.08933 0 19.0464
-1375.44 10.0102 0 -49.2571
-703.804 14.9035 0 -110.275
-1391.52 9.7564 0 -48.6246
-1383.47 9.88334 0 -48.9384
-2049.25 4.20433 0 18.5637
-2025.18 4.43519 0 17.5765
-691.7 15.3016 0 -110.746
-699.769 15.0366 0 -110.429
-2037.22 4.31962 0 18.0737
-1359.36 10.2635 0 -49.909
-695.735 15.1694 0 -110.587
-1375.44 10.0102 0 -49.2571
-1367.4 10.1369 0 -49.5807
-2025.18 4.43519 0 17.5765
-2001.11 4.66715 0 16.5607
-683.634 15.5647 0 -111.073
-691.7 15.3016 0 -110.746
-2013.15 4.55103 0 17.0722
-1343.28 10.5164 0 -50.5801
-687.667 15.4334 0 -110.908
-1359.36 10.2635 0 -49.909
-1351.32 10.39 0 -50.2422
-2001.11 4.66715 0 16.5607
-1977.05 4.90024 0 15.5166
-675.569 15.8259 0 -111.408
-683.634 15.5647 0 -111.073
-1989.08 4.78356 0 16.0422
-1327.21 10.7688 0 -51.2701
-679.601 15.6955 0 -111.239
-1343.28 10.5164 0 -50.5801
-1335.25 10.6427 0 -50.9228
-1977.05 4.90024 0 15.5166
-1952.99 5.13442 0 14.4444
-667.505 16.0852 0 -111.754
-675.569 15.8259 0 -111.408
-1965.02 5.01719 0 14.984
-1311.14 11.0208 0 -51.9788
-671.537 15.9558 0 -111.58
-1327.21 10.7688 0 -51.2701
-1319.18 10.8949 0 -51.6221
-1952.99 5.13442 0 14.4444
-1928.94 5.36971 0 13.3446
-659.444 16.3427 0 -112.108
-667.505 16.0852 0 -111.754
-1940.97 5.25193 0 13.898
-1295.08 11.2724 0 -52.706
-663.475 16.2142 0 -111.93
-1311.14 11.0208 0 -51.9788
-1303.11 11.1467 0 -52.3401
-1928.94 5.36971 0 13.3446
-1904.89 5.60608 0 12.2175
-651.385 16.5983 0 -112.472
-659.444 16.3427 0 -112.108
-1916.91 5.48776 0 12.7845
-1279.02 11.5235 0 -53.4515
-655.414 16.4707 0 -112.289
-1295.08 11.2724 0 -52.706
-1287.05 11.398 0 -53.0765
-1904.89 5.60608 0 12.2175
-1880.84 5.84352 0 11.0635
-643.328 16.852 0 -112.845
-651.385 16.5983 0 -112.472
-1892.86 5.72467 0 11.6439
-1262.96 11.7741 0 -54.2149
-647.356 16.7254 0 -112.657
-1279.02 11.5235 0 -53.4515
-1270.99 11.6488 0 -53.831
-1880.84 5.84352 0 11.0635
-1856.8 6.08203 0 9.88284
-635.272 17.1038 0 -113.227
-643.328 16.852 0 -112.845
-1868.82 5.96264 0 10.4765
-1246.9 12.0242 0 -54.9962
-639.3 16.9781 0 -113.035
-1262.96 11.7741 0 -54.2149
-1254.93 11.8992 0 -54.6034
-1856.8 6.08203 0 9.88284
-1832.76 6.32158 0 8.6759
-627.219 17.3537 0 -113.618
-635.272 17.1038 0 -113.227
-1844.78 6.20167 0 9.28264
-1230.85 12.2739 0 -55.7951
-631.245 17.229 0 -113.421
-1246.9 12.0242 0 -54.9962
-1238.88 12.1491 0 -55.3935
-1832.76 6.32158 0 8.6759
-1808.73 6.56216 0 7.44303
-619.167 17.6018 0 -114.017
-627.219 17.3537 0 -113.618
-1820.74 6.44174 0 8.06269
-1214.8 12.5231 0 -56.6113
-623.193 17.478 0 -113.816
-1230.85 12.2739 0 -55.7951
-1222.83 12.3985 0 -56.201
-1808.73 6.56216 0 7.44303
-1784.7 6.80376 0 6.18457
-611.117 17.8479 0 -114.425
-619.167 17.6018 0 -114.017
-1796.71 6.68284 0 6.81698
-1198.76 12.7717 0 -57.4446
-615.142 17.7251 0 -114.22
-1214.8 12.5231 0 -56.6113
-1206.78 12.6475 0 -57.0258
-1784.7 6.80376 0 6.18457
-1760.67 7.04636 0 4.90086
-603.069 18.0921 0 -114.842
-611.117 17.8479 0 -114.425
-1772.68 6.92494 0 5.54585
-1182.71 13.0199 0 -58.2948
-607.093 17.9703 0 -114.633
-1198.76 12.7717 0 -57.4446
-1190.73 12.8959 0 -57.8676
-1760.67 7.04636 0 4.90086
-1736.65 7.28994 0 3.59224
-595.023 18.3345 0 -115.267
-603.069 18.0921 0 -114.842
-1748.66 7.16803 0 4.24964
-1166.67 13.2675 0 -59.1616
-599.046 18.2135 0 -115.053
-1182.71 13.0199 0 -58.2948
-1174.69 13.1437 0 -58.7261
-1736.65 7.28994 0 3.59224
-1712.63 7.53447 0 2.25905
-586.979 18.5749 0 -115.7
-595.023 18.3345 0 -115.267
-1724.64 7.41209 0 2.92869
-1150.64 13.5145 0 -60.0449
-591.001 18.4549 0 -115.483
-1166.67 13.2675 0 -59.1616
-1158.65 13.3911 0 -59.6012
-1712.63 7.53447 0 2.25905
-1688.62 7.77995 0 0.901637
-578.937 18.8134 0 -116.142
-586.979 18.5749 0 -115.7
-1700.62 7.65709 0 1.58335
-1134.6 13.7611 0 -60.9445
-582.958 18.6944 0 -115.92
-1150.64 13.5145 0 -60.0449
-1142.62 13.6379 0 -60.4927
-1688.62 7.77995 0 0.901637
-1664.61 8.02633 0 -0.479662
-570.896 19.0499 0 -116.592
-578.937 18.8134 0 -116.142
-1676.61 7.90303 0 0.213952
-1118.57 14.007 0 -61.86
-574.916 18.9319 0 -116.366
-1134.6 13.7611 0 -60.9445
-1126.59 13.8841 0 -61.4002
-1664.61 8.02633 0 -0.479662
-1640.6 8.27361 0 -1.8845
-562.857 19.2845 0 -117.049
-570.896 19.0499 0 -116.592
-1652.6 8.14986 0 -1.17916
-1102.54 14.2524 0 -62.7912
-566.877 19.1675 0 -116.819
-1118.57 14.007 0 -61.86
-1110.56 14.1298 0 -62.3236
-1640.6 8.27361 0 -1.8845
-1616.6 8.52176 0 -3.31255
-554.821 19.5172 0 -117.515
-562.857 19.2845 0 -117.049
-1628.6 8.39758 0 -2.59565
-1086.52 14.4971 0 -63.738
-558.839 19.4011 0 -117.281
-1102.54 14.2524 0 -62.7912
-1094.53 14.3748 0 -63.2627
-1616.6 8.52176 0 -3.31255
-1592.6 8.77075 0 -4.76346
-546.786 19.7479 0 -117.988
-554.821 19.5172 0 -117.515
-1604.6 8.64615 0 -4.03517
-1070.5 14.7412 0 -64.7001
-550.803 19.6328 0 -117.75
-1086.52 14.4971 0 -63.738
-1078.51 14.6193 0 -64.2171
-1592.6 8.77075 0 -4.76346
-1568.6 9.02055 0 -6.23689
-538.752 19.9767 0 -118.469
-546.786 19.7479 0 -117.988
-1580.6 8.89555 0 -5.49738
-1054.48 14.9847 0 -65.6773
-542.769 19.8626 0 -118.227
-1070.5 14.7412 0 -64.7001
-1062.49 14.8631 0 -65.1868
-1568.6 9.02055 0 -6.23689
-1544.61 9.27113 0 -7.7325
-530.721 20.2035 0 -118.957
-538.752 19.9767 0 -118.469
-1556.61 9.14574 0 -6.98195
-1038.46 15.2276 0 -66.6693
-534.736 20.0903 0 -118.712
-1054.48 14.9847 0 -65.6773
-1046.47 15.1062 0 -66.1714
-1544.61 9.27113 0 -7.7325
-1520.63 9.52247 0 -9.24996
-522.691 20.4283 0 -119.453
-530.721 20.2035 0 -118.957
-1532.62 9.39671 0 -8.48852
-1022.45 15.4697 0 -67.6759
-526.706 20.3161 0 -119.204
-1038.46 15.2276 0 -66.6693
-1030.45 15.3487 0 -67.1708
-1520.63 9.52247 0 -9.24996
-1496.64 9.77454 0 -10.7889
-514.663 20.6511 0 -119.956
-522.691 20.4283 0 -119.453
-1508.63 9.64842 0 -10.0168
-1006.43 15.7112 0 -68.697
-518.677 20.54 0 -119.703
-1022.45 15.4697 0 -67.6759
-1014.44 15.5906 0 -68.1847
-1496.64 9.77454 0 -10.7889
-1472.66 10.0273 0 -12.349
-506.637 20.8719 0 -120.466
-514.663 20.6511 0 -119.956
-1484.65 9.90084 0 -11.5664
-990.426 15.952 0 -69.7322
-510.65 20.7618 0 -120.21
-1006.43 15.7112 0 -68.697
-998.43 15.8317 0 -69.2128
-1472.66 10.0273 0 -12.349
-1448.69 10.2807 0 -13.93
-498.612 21.0908 0 -120.983
-506.637 20.8719 0 -120.466
-1460.67 10.1539 0 -13.1369
-974.42 16.192 0 -70.7814
-502.624 20.9816 0 -120.724
-990.426 15.952 0 -69.7322
-982.423 16.0721 0 -70.2551
-1448.69 10.2807 0 -13.93
-1424.71 10.5348 0 -15.5314
-490.59 21.3076 0 -121.508
-498.612 21.0908 0 -120.983
-1436.7 10.4077 0 -14.7282
-958.418 16.4312 0 -71.8443
-494.601 21.1994 0 -121.245
-974.42 16.192 0 -70.7814
-966.419 16.3117 0 -71.3111
-1424.71 10.5348 0 -15.5314
-1400.74 10.7895 0 -17.153
-482.568 21.5223 0 -122.039
-490.59 21.3076 0 -121.508
-1412.73 10.6621 0 -16.3397
-942.417 16.6697 0 -72.9207
-486.579 21.4152 0 -121.772
-958.418 16.4312 0 -71.8443
-950.417 16.5506 0 -72.3808
-1400.74 10.7895 0 -17.153
-1376.78 11.0447 0 -18.7943
-474.549 21.735 0 -122.577
-482.568 21.5223 0 -122.039
-1388.76 10.917 0 -17.9712
-926.42 16.9074 0 -74.0104
-478.559 21.6289 0 -122.307
-942.417 16.6697 0 -72.9207
-934.418 16.7887 0 -73.4639
-1376.78 11.0447 0 -18.7943
-1352.81 11.3004 0 -20.4552
-466.531 21.9457 0 -123.121
-474.549 21.735 0 -122.577
-1364.8 11.1725 0 -19.6224
-910.425 17.1442 0 -75.1131
-470.54 21.8406 0 -122.848
-926.42 16.9074 0 -74.0104
-918.422 17.0259 0 -74.5601
-1352.81 11.3004 0 -20.4552
-1328.86 11.5566 0 -22.1352
-458.515 22.1543 0 -123.672
-466.531 21.9457 0 -123.121
-1340.83 11.4285 0 -21.2928
-894.433 17.3802 0 -76.2286
-462.523 22.0503 0 -123.396
-910.425 17.1442 0 -75.1131
-902.429 17.2623 0 -75.6693
-1328.86 11.5566 0 -22.1352
-1304.9 11.8133 0 -23.8339
-450.501 22.3608 0 -124.229
-458.515 22.1543 0 -123.672
-1316.88 11.6849 0 -22.9822
-878.444 17.6153 0 -77.3568
-454.508 22.2578 0 -123.95
-894.433 17.3802 0 -76.2286
-886.438 17.4979 0 -76.7911
-1304.9 11.8133 0 -23.8339
-1280.95 12.0704 0 -25.5511
-442.488 22.5653 0 -124.793
-450.501 22.3608 0 -124.229
-1292.92 11.9418 0 -24.6902
-862.456 17.8496 0 -78.4973
-446.494 22.4633 0 -124.511
-878.444 17.6153 0 -77.3568
-870.45 17.7326 0 -77.9255
-1280.95 12.0704 0 -25.5511
-1257 12.3279 0 -27.2864
-434.477 22.7676 0 -125.363
-442.488 22.5653 0 -124.793
-1268.97 12.1991 0 -26.4165
-846.472 18.0828 0 -79.6499
-438.482 22.6667 0 -125.077
-862.456 17.8496 0 -78.4973
-854.464 17.9663 0 -79.0721
-1257 12.3279 0 -27.2864
-1233.05 12.5857 0 -29.0395
-426.468 22.9678 0 -125.939
-434.477 22.7676 0 -125.363
-1245.03 12.4568 0 -28.1608
-830.49 18.3152 0 -80.8145
-430.472 22.868 0 -125.65
-846.472 18.0828 0 -79.6499
-838.481 18.1991 0 -80.2307
-1233.05 12.5857 0 -29.0395
-1209.11 12.8438 0 -30.81
-418.46 23.1659 0 -126.521
-426.468 22.9678 0 -125.939
-1221.08 12.7147 0 -29.9226
-814.51 18.5465 0 -81.9908
-422.463 23.0672 0 -126.229
-830.49 18.3152 0 -80.8145
-822.5 18.431 0 -81.4012
-1209.11 12.8438 0 -30.81
-1185.17 13.1021 0 -32.5976
-410.453 23.3619 0 -127.109
-418.46 23.1659 0 -126.521
-1197.14 12.9729 0 -31.7017
-798.533 18.7769 0 -83.1785
-414.456 23.2642 0 -126.814
-814.51 18.5465 0 -81.9908
-806.521 18.6618 0 -82.5832
-1185.17 13.1021 0 -32.5976
-1161.23 13.3607 0 -34.402
-402.448 23.5557 0 -127.702
-410.453 23.3619 0 -127.109
-1173.2 13.2314 0 -33.4977
-782.558 19.0061 0 -84.3775
-406.451 23.4591 0 -127.405
-798.533 18.7769 0 -83.1785
-790.546 18.8916 0 -83.7766
-1161.23 13.3607 0 -34.402
-1137.3 13.6194 0 -36.2228
-394.445 23.7473 0 -128.301
-402.448 23.5557 0 -127.702
-1149.27 13.49 0 -35.3104
-766.586 19.2344 0 -85.5875
-398.446 23.6518 0 -128.001
-782.558 19.0061 0 -84.3775
-774.572 19.1204 0 -84.9811
-1137.3 13.6194 0 -36.2228
-1113.37 13.8782 0 -38.0596
-386.443 23.9367 0 -128.906
-394.445 23.7473 0 -128.301
-1125.33 13.7488 0 -37.1392
-750.616 19.4615 0 -86.8083
-390.444 23.8423 0 -128.603
-766.586 19.2344 0 -85.5875
-758.601 19.3481 0 -86.1966
-1113.37 13.8782 0 -38.0596
-1089.44 14.1371 0 -39.9122
-378.443 24.124 0 -129.516
-386.443 23.9367 0 -128.906
-1101.41 14.0077 0 -38.984
-734.648 19.6875 0 -88.0397
-382.443 24.0306 0 -129.21
-750.616 19.4615 0 -86.8083
-742.632 19.5747 0 -87.4227
-1089.44 14.1371 0 -39.9122
-1065.52 14.3961 0 -41.7803
-370.444 24.309 0 -130.131
-378.443 24.124 0 -129.516
-1077.48 14.2666 0 -40.8443
-718.683 19.9124 0 -89.2814
-374.443 24.2168 0 -129.823
-734.648 19.6875 0 -88.0397
-726.665 19.8001 0 -88.6593
-1065.52 14.3961 0 -41.7803
-1041.6 14.655 0 -43.6633
-362.447 24.4918 0 -130.751
-370.444 24.309 0 -130.131
-1053.56 14.5255 0 -42.7199
-702.719 20.136 0 -90.5332
-366.445 24.4007 0 -130.441
-718.683 19.9124 0 -89.2814
-710.701 20.0243 0 -89.9061
-1041.6 14.655 0 -43.6633
-1017.68 14.9138 0 -45.5612
-354.451 24.6724 0 -131.377
-362.447 24.4918 0 -130.751
-1029.63 14.7844 0 -44.6104
-686.758 20.3585 0 -91.795
-358.449 24.5824 0 -131.064
-702.719 20.136 0 -90.5332
-694.738 20.2474 0 -91.1629
-1017.68 14.9138 0 -45.5612
-993.759 15.1726 0 -47.4734
-346.456 24.8507 0 -132.007
-354.451 24.6724 0 -131.377
-1005.72 15.0432 0 -46.5155
-670.799 20.5796 0 -93.0664
-350.453 24.7618 0 -131.692
-686.758 20.3585 0 -91.795
-678.778 20.4692 0 -92.4295
-993.759 15.1726 0 -47.4734
-969.845 15.4311 0 -49.3996
-338.463 25.0267 0 -132.643
-346.456 24.8507 0 -132.007
-981.802 15.3019 0 -48.4347
-654.842 20.7995 0 -94.3473
-342.46 24.9389 0 -132.325
-670.799 20.5796 0 -93.0664
-662.82 20.6898 0 -93.7057
-969.845 15.4311 0 -49.3996
-945.933 15.6895 0 -51.3396
-330.472 25.2004 0 -133.283
-338.463 25.0267 0 -132.643
-957.889 15.5603 0 -50.3679
-638.887 21.0181 0 -95.6373
-334.467 25.1138 0 -132.962
-654.842 20.7995 0 -94.3473
-646.864 20.909 0 -94.9912
-945.933 15.6895 0 -51.3396
-922.024 15.9476 0 -53.2929
-322.481 25.3718 0 -133.927
-330.472 25.2004 0 -133.283
-933.978 15.8186 0 -52.3146
-622.934 21.2354 0 -96.9364
-326.476 25.2864 0 -133.605
-638.887 21.0181 0 -95.6373
-630.91 21.1269 0 -96.2858
-922.024 15.9476 0 -53.2929
-898.117 16.2053 0 -55.2593
-314.492 25.5409 0 -134.577
-322.481 25.3718 0 -133.927
-910.07 16.0765 0 -54.2745
-606.983 21.4512 0 -98.2443
-318.486 25.4566 0 -134.252
-622.934 21.2354 0 -96.9364
-614.958 21.3435 0 -97.5893
-898.117 16.2053 0 -55.2593
-874.213 16.4628 0 -57.2385
-306.504 25.7076 0 -135.23
-314.492 25.5409 0 -134.577
-886.165 16.3341 0 -56.2473
-591.034 21.6656 0 -99.5607
-310.498 25.6245 0 -134.903
-606.983 21.4512 0 -98.2443
-599.008 21.5586 0 -98.9014
-874.213 16.4628 0 -57.2385
-850.311 16.7197 0 -59.2299
-298.518 25.872 0 -135.888
-306.504 25.7076 0 -135.23
-862.262 16.5913 0 -58.2327
-575.087 21.8786 0 -100.885
-302.511 25.7901 0 -135.559
-591.034 21.6656 0 -99.5607
-583.06 21.7723 0 -100.222
-850.311 16.7197 0 -59.2299
-826.411 16.9763 0 -61.2334
-290.533 26.034 0 -136.55
-298.518 25.872 0 -135.888
-838.361 16.8481 0 -60.2302
-559.142 22.0901 0 -102.218
-294.525 25.9533 0 -136.219
-575.087 21.8786 0 -100.885
-567.114 21.9845 0 -101.551
-826.411 16.9763 0 -61.2334
-802.514 17.2322 0 -63.2486
-282.549 26.1936 0 -137.216
-290.533 26.034 0 -136.55
-814.462 17.1043 0 -62.2396
-543.198 22.3 0 -103.559
-286.541 26.1141 0 -136.883
-559.142 22.0901 0 -102.218
-551.17 22.1953 0 -102.888
-802.514 17.2322 0 -63.2486
-778.618 17.4876 0 -65.2752
-274.567 26.3507 0 -137.886
-282.549 26.1936 0 -137.216
-790.566 17.36 0 -64.2605
-527.256 22.5084 0 -104.907
-278.558 26.2724 0 -137.551
-543.198 22.3 0 -103.559
-535.227 22.4044 0 -104.232
-778.618 17.4876 0 -65.2752
-754.725 17.7424 0 -67.3127
-266.585 26.5054 0 -138.56
-274.567 26.3507 0 -137.886
-766.672 17.6151 0 -66.2926
-511.316 22.7151 0 -106.263
-270.576 26.4284 0 -138.223
-527.256 22.5084 0 -104.907
-519.286 22.612 0 -105.584
-754.725 17.7424 0 -67.3127
-730.834 17.9964 0 -69.3609
-258.605 26.6576 0 -139.238
-266.585 26.5054 0 -138.56
-742.779 17.8695 0 -68.3355
-495.378 22.9202 0 -107.626
-262.595 26.5818 0 -138.898
-511.316 22.7151 0 -106.263
-503.347 22.8179 0 -106.944
-730.834 17.9964 0 -69.3609
-706.944 18.2496 0 -71.4195
-250.626 26.8073 0 -139.919
-258.605 26.6576 0 -139.238
-718.889 18.1231 0 -70.3889
-479.441 23.1236 0 -108.996
-254.615 26.7327 0 -139.578
-495.378 22.9202 0 -107.626
-487.409 23.0221 0 -108.31
-706.944 18.2496 0 -71.4195
-683.056 18.502 0 -73.488
-242.648 26.9544 0 -140.604
-250.626 26.8073 0 -139.919
-695 18.3759 0 -72.4525
-463.506 23.3252 0 -110.373
-246.637 26.8811 0 -140.261
-479.441 23.1236 0 -108.996
-471.473 23.2246 0 -109.684
-683.056 18.502 0 -73.488
-659.171 18.7535 0 -75.5661
-234.671 27.0989 0 -141.292
-242.648 26.9544 0 -140.604
-671.113 18.6279 0 -74.5258
-447.572 23.5249 0 -111.756
-238.659 27.027 0 -140.947
-463.506 23.3252 0 -110.373
-455.539 23.4253 0 -111.064
-659.171 18.7535 0 -75.5661
-635.286 19.004 0 -77.6534
-226.695 27.2408 0 -141.983
-234.671 27.0989 0 -141.292
-647.228 18.8789 0 -76.6086
-431.64 23.7228 0 -113.145
-230.683 27.1702 0 -141.637
-447.572 23.5249 0 -111.756
-439.606 23.6241 0 -112.45
-635.286 19.004 0 -77.6534
-611.404 19.2534 0 -79.7497
-218.72 27.3801 0 -142.677
-226.695 27.2408 0 -141.983
-623.345 19.1288 0 -78.7005
-415.709 23.9188 0 -114.541
-222.707 27.3108 0 -142.33
-431.64 23.7228 0 -113.145
-423.674 23.8211 0 -113.842
-611.404 19.2534 0 -79.7497
-587.522 19.5018 0 -81.8545
-210.746 27.5168 0 -143.375
-218.72 27.3801 0 -142.677
-599.463 19.3777 0 -80.8011
-399.779 24.1129 0 -115.942
-214.733 27.4488 0 -143.026
-415.709 23.9188 0 -114.541
-407.744 24.0161 0 -115.241
-587.522 19.5018 0 -81.8545
-563.643 19.7491 0 -83.9676
-202.772 27.6509 0 -144.075
-210.746 27.5168 0 -143.375
-575.582 19.6256 0 -82.9101
-383.85 24.3052 0 -117.349
-206.759 27.5842 0 -143.725
-399.779 24.1129 0 -115.942
-391.815 24.2093 0 -116.645
-563.643 19.7491 0 -83.9676
-539.764 19.9954 0 -86.0885
-194.799 27.7826 0 -144.778
-202.772 27.6509 0 -144.075
-551.703 19.8724 0 -85.0271
-367.923 24.4957 0 -118.761
-198.786 27.7171 0 -144.426
-383.85 24.3052 0 -117.349
-375.886 24.4006 0 -118.054
-539.764 19.9954 0 -86.0885
-515.887 20.2409 0 -88.2171
-186.827 27.9122 0 -145.484
-194.799 27.7826 0 -144.778
-527.826 20.1183 0 -87.1519
-351.996 24.6846 0 -120.178
-190.813 27.8477 0 -145.131
-367.923 24.4957 0 -118.761
-359.959 24.5903 0 -119.469
-515.887 20.2409 0 -88.2171
-492.011 20.4858 0 -90.3531
-178.856 28.0399 0 -146.192
-186.827 27.9122 0 -145.484
-503.949 20.3634 0 -89.2842
-336.071 24.8723 0 -121.6
-182.842 27.9762 0 -145.838
-351.996 24.6846 0 -120.178
-344.034 24.7786 0 -120.888
-492.011 20.4858 0 -90.3531
-468.137 20.7305 0 -92.4964
-170.886 28.1665 0 -146.903
-178.856 28.0399 0 -146.192
-480.074 20.6081 0 -91.4238
-320.147 25.0593 0 -123.027
-174.871 28.1033 0 -146.547
-336.071 24.8723 0 -121.6
-328.109 24.9659 0 -122.313
-468.137 20.7305 0 -92.4964
-444.265 20.9754 0 -94.6471
-162.917 28.2929 0 -147.616
-170.886 28.1665 0 -146.903
-456.201 20.8529 0 -93.5708
-304.225 25.2463 0 -124.459
-166.901 28.2297 0 -147.259
-320.147 25.0593 0 -123.027
-312.186 25.1528 0 -123.742
-444.265 20.9754 0 -94.6471
-420.394 21.221 0 -96.8055
-154.951 28.4201 0 -148.331
-162.917 28.2929 0 -147.616
-432.329 21.0981 0 -95.7253
-288.305 25.434 0 -125.896
-158.934 28.3563 0 -147.973
-304.225 25.2463 0 -124.459
-296.265 25.34 0 -125.177
-420.394 21.221 0 -96.8055
-396.525 21.467 0 -98.9724
-146.987 28.5497 0 -149.051
-154.951 28.4201 0 -148.331
-408.459 21.344 0 -97.8879
-272.388 25.6227 0 -127.34
-150.969 28.4845 0 -148.69
-288.305 25.434 0 -125.896
-280.346 25.5283 0 -126.617
-396.525 21.467 0 -98.9724
-372.657 21.7121 0 -101.149
-139.029 28.6825 0 -149.778
-146.987 28.5497 0 -149.051
-384.591 21.5899 0 -100.059
-256.473 25.8118 0 -128.793
-143.007 28.6157 0 -149.413
-272.388 25.6227 0 -127.34
-264.43 25.7173 0 -128.065
-372.657 21.7121 0 -101.149
-348.788 21.9509 0 -103.337
-131.075 28.8199 0 -150.518
-139.029 28.6825 0 -149.778
-360.722 21.8329 0 -102.241
-240.56 25.998 0 -130.26
-135.051 28.7506 0 -150.146
-256.473 25.8118 0 -128.793
-248.517 25.9057 0 -129.524
-348.788 21.9509 0 -103.337
-324.906 22.1731 0 -105.541
-123.128 28.9593 0 -151.286
-131.075 28.8199 0 -150.518
-336.85 22.0651 0 -104.437
-224.641 26.1726 0 -131.75
-127.1 28.8897 0 -150.898
-240.56 25.998 0 -130.26
-232.601 26.0875 0 -131.001
-324.906 22.1731 0 -105.541
-300.998 22.3523 0 -107.765
-115.179 29.0987 0 -152.109
-123.128 28.9593 0 -151.286
-312.955 22.2706 0 -106.65
-208.701 26.3184 0 -133.284
-119.156 29.0294 0 -151.688
-224.641 26.1726 0 -131.75
-216.675 26.2513 0 -132.511
-300.998 22.3523 0 -107.765
-277.007 22.4509 0 -110.022
-107.229 29.2208 0 -153.035
-115.179 29.0987 0 -152.109
-289.019 22.4154 0 -108.888
-192.707 26.3999 0 -134.895
-111.202 29.1635 0 -152.555
-208.701 26.3184 0 -133.284
-200.714 26.3695 0 -134.076
-277.007 22.4509 0 -110.022
-252.877 22.3814 0 -112.323
-99.2263 29.3184 0 -154.155
-107.229 29.2208 0 -153.035
-264.96 22.4444 0 -111.167
-176.59 26.3652 0 -136.645
-103.242 29.2741 0 -153.562
-192.707 26.3999 0 -134.895
-184.669 26.4039 0 -135.75
-252.877 22.3814 0 -112.323
-228.399 22.0586 0 -114.713
-91.1721 29.3349 0 -155.605
-99.2263 29.3184 0 -154.155
-240.705 22.26 0 -113.501
-160.225 26.1238 0 -138.636
-95.198 29.3399 0 -154.828
-176.59 26.3652 0 -136.645
-168.449 26.2725 0 -137.597
-228.399 22.0586 0 -114.713
-203.409 21.2799 0 -117.223
-82.877 29.2949 0 -157.611
-91.1721 29.3349 0 -155.605
-215.967 21.7374 0 -115.955
-143.403 25.6048 0 -141.027
-87.0835 29.3225 0 -156.518
-160.225 26.1238 0 -138.636
-151.885 25.9131 0 -139.778
-203.409 21.2799 0 -117.223
-177.295 20.0443 0 -120.026
-74.3993 29.0901 0 -160.418
-82.877 29.2949 0 -157.611
-190.566 20.7217 0 -118.565
-125.801 24.7298 0 -144.048
-78.6294 29.2093 0 -158.902
-143.403 25.6048 0 -141.027
-134.729 25.1884 0 -142.422
-177.295 20.0443 0 -120.026
-149.852 18.1897 0 -123.216
-65.2396 29.0654 0 -164.296
-74.3993 29.0901 0 -160.418
-163.704 19.1664 0 -121.58
-107.059 23.7922 0 -147.945
-69.9923 29.0362 0 -162.199
-125.801 24.7298 0 -144.048
-116.588 24.2712 0 -145.908
-149.852 18.1897 0 -123.216
-119.834 16.9535 0 -127.396
-55.9359 29.2527 0 -169.027
-65.2396 29.0654 0 -164.296
-135.347 17.4016 0 -125.101
-86.8341 23.4818 0 -152.889
-60.4753 29.068 0 -166.61
-107.059 23.7922 0 -147.945
-97.1806 23.3728 0 -150.212
-119.834 16.9535 0 -127.396
-88.4135 17.8144 0 -132.681
-45.644 31.5655 0 -173.531
-55.9359 29.2527 0 -169.027
-104.035 16.7901 0 -129.944
-65.695 26.4314 0 -158.338
-51.1311 30.0421 0 -171.4
-86.8341 23.4818 0 -152.889
-76.263 24.4441 0 -155.756
-88.4135 17.8144 0 -132.681
-55.517 28.8068 0 -139.692
-36.7135 36.5371 0 -173.935
-45.644 31.5655 0 -173.531
-72.4051 21.4546 0 -135.878
-45.28 36.3716 0 -161.887
-40.5715 33.5256 0 -174.669
-65.695 26.4314 0 -158.338
-55.373 29.8836 0 -160.372
-55.517 28.8068 0 -139.692
-30.7487 59.5837 0 -142.481
-26.5548 47.8759 0 -163.529
-36.7135 36.5371 0 -173.935
-40.9234 40.2038 0 -142.448
-30.4212 59.1528 0 -155.369
-32.3984 41.6816 0 -170.532
-45.28 36.3716 0 -161.887
-36.4911 46.5565 0 -161.124
-30.7487 59.5837 0 -142.481
-13.6527 131.967 0 -124.43
-19.4962 56.223 0 -131.923
-26.5548 47.8759 0 -163.529
-22.0231 91.3657 0 -137.785
-18.0357 92.0331 0 -125.513
-21.6257 52.7931 0 -151.163
-30.4212 59.1528 0 -155.369
-24.9652 74.0402 0 -143.478
-13.6527 131.967 0 -124.43
-0.14016 204.336 0 -53.7335
-11.9651 64.7391 0 -72.7029
-19.4962 56.223 0 -131.923
-5.57389 173.989 0 -97.1311
-4.3558 129.695 0 -67.7459
-17.1776 59.9736 0 -105.823
-18.0357 92.0331 0 -125.513
-10.5435 112.188 0 -100.75
-1565.61 -469.363 0 616.222
-1527.02 -270.738 0 205.298
1467.75 239.127 0 201.446
1502.73 451.177 0 612.643
-1501.16 -371.807 0 388.946
-31.4818 -16.165 0 230.589
1440.37 345.763 0 385.924
-33.6045 -9.05881 0 627.194
-32.191 -13.5545 0 433.829
-1527.02 -270.738 0 205.298
-1606.96 -172.567 0 -39.4426
1549.47 134.412 0 -46.2103
1467.75 239.127 0 201.446
-1588.93 -216.199 0 61.2615
-30.77 -19.4453 0 -29.899
1530.72 180.736 0 55.9468
-31.4818 -16.165 0 230.589
-31.1648 -18.0198 0 70.2112
-1606.96 -172.567 0 -39.4426
-1611.97 -82.6692 0 -149.411
1555.51 40.7812 0 -159.352
1549.47 134.412 0 -46.2103
-1603.83 -122.911 0 -105.92
-30.3491 -21.5638 0 -150.633
1546.85 82.7107 0 -114.238
-30.77 -19.4453 0 -29.899
-30.4706 -20.6109 0 -98.5124
-1611.97 -82.6692 0 -149.411
-1616.05 -41.3302 0 -187.692
1560.55 -3.57275 0 -200.607
1555.51 40.7812 0 -159.352
-1621.01 -58.3498 0 -175.286
-30.0051 -23.0014 0 -197.287
1565.04 14.8946 0 -186.772
-30.3491 -21.5638 0 -150.633
-30.2344 -22.3379 0 -182.686
-1616.05 -41.3302 0 -187.692
-1598.66 -20.2336 0 -190.58
1543.99 -27.0698 0 -206.144
1560.55 -3.57275 0 -200.607
-1605.27 -27.853 0 -191.332
-29.5991 -24.1598 0 -205.261
1550.21 -18.3414 0 -205.605
-30.0051 -23.0014 0 -197.287
-29.7745 -23.6189 0 -203.233
-1598.66 -20.2336 0 -190.58
-1584.1 -16.8676 0 -182.314
1530.01 -32.0791 0 -200.298
1543.99 -27.0698 0 -206.144
-1592.94 -17.6495 0 -187.158
-29.275 -24.9342 0 -198.373
1538.59 -30.5762 0 -203.949
-29.5991 -24.1598 0 -205.261
-29.4367 -24.595 0 -203.169
-1584.1 -16.8676 0 -182.314
-1567.16 -17.0632 0 -172.017
1513.36 -32.7102 0 -192.384
1530.01 -32.0791 0 -200.298
-1574.53 -16.4775 0 -176.979
-29.0731 -25.3577 0 -188.613
1520.6 -32.9824 0 -196.15
-29.275 -24.9342 0 -198.373
-29.1494 -25.1916 0 -193.167
-1567.16 -17.0632 0 -172.017
-1554.19 -19.4799 0 -163.584
1500.45 -30.4113 0 -186.366
1513.36 -32.7102 0 -192.384
-1560.83 -18.3196 0 -167.534
-28.9923 -25.424 0 -180.362
1507.08 -31.5913 0 -189.103
-29.0731 -25.3577 0 -188.613
-29.0241 -25.4307 0 -184.305
-1554.19 -19.4799 0 -163.584
-1542.28 -21.1151 0 -157.353
1488.47 -28.3514 0 -182.603
1500.45 -30.4113 0 -186.366
-1547.79 -20.3339 0 -160.179
-28.9914 -25.2247 0 -174.62
1494.02 -29.4027 0 -184.188
-28.9923 -25.424 0 -180.362
-28.9825 -25.3534 0 -177.117
-1542.28 -21.1151 0 -157.353
-1532.33 -22.2904 0 -153.034
1478.39 -26.3775 0 -180.783
1488.47 -28.3514 0 -182.603
-1537.27 -21.8124 0 -155.001
-29.0298 -24.8284 0 -171.001
1483.41 -27.292 0 -181.499
-28.9914 -25.2247 0 -174.62
-29.0092 -25.0463 0 -172.612
-1532.33 -22.2904 0 -153.034
-1523.05 -22.7244 0 -149.996
1468.99 -24.9116 0 -180.251
1478.39 -26.3775 0 -180.783
-1527.54 -22.5644 0 -151.382
-29.0764 -24.3108 0 -168.896
1473.55 -25.6098 0 -180.385
-29.0298 -24.8284 0 -171.001
-29.0532 -24.5813 0 -169.783
-1523.05 -22.7244 0 -149.996
-1514.44 -22.7647 0 -147.784
1460.29 -23.7088 0 -180.528
1468.99 -24.9116 0 -180.251
-1518.72 -22.7958 0 -148.813
-29.1112 -23.722 0 -167.735
1464.62 -24.2703 0 -180.317
-29.0764 -24.3108 0 -168.896
-29.0964 -24.0227 0 -168.233
-1514.44 -22.7647 0 -147.784
-1506.05 -22.4976 0 -146.052
1451.85 -22.7528 0 -181.254
1460.29 -23.7088 0 -180.528
-1510.21 -22.655 0 -146.872
-29.1253 -23.1001 0 -167.131
1456.03 -23.2114 0 -180.85
-29.1112 -23.722 0 -167.735
-29.1211 -23.4136 0 -167.379
-1506.05 -22.4976 0 -146.052
-1497.83 -22.0839 0 -144.598
1443.63 -21.9254 0 -182.216
1451.85 -22.7528 0 -181.254
-1501.94 -22.3066 0 -145.3
-29.1159 -22.4672 0 -166.831
1447.73 -22.3236 0 -181.716
-29.1253 -23.1001 0 -167.131
-29.1236 -22.784 0 -166.956
-1497.83 -22.0839 0 -144.598
-1489.66 -21.5835 0 -143.298
1435.5 -21.1912 0 -183.285
1443.63 -21.9254 0 -182.216
-1493.74 -21.8397 0 -143.934
-29.0847 -21.8369 0 -166.69
1439.55 -21.5505 0 -182.742
-29.1159 -22.4672 0 -166.831
-29.1028 -22.1512 0 -166.746
-1489.66 -21.5835 0 -143.298
-1481.51 -21.0511 0 -142.087
1427.43 -20.5073 0 -184.394
1435.5 -21.1912 0 -183.285
-1485.58 -21.3202 0 -142.684
-29.0351 -21.2155 0 -166.626
1431.46 -20.8437 0 -183.837
-29.0847 -21.8369 0 -166.69
-29.062 -21.5248 0 -166.652
-1481.51 -21.0511 0 -142.087
-1473.36 -20.5072 0 -140.928
1419.38 -19.8575 0 -185.507
1427.43 -20.5073 0 -184.394
-1477.43 -20.7793 0 -141.502
-28.9712 -20.6055 0 -166.597
1423.4 -20.1793 0 -184.951
-29.0351 -21.2155 0 -166.626
-29.0047 -20.909 0 -166.609
-1473.36 -20.5072 0 -140.928
-1465.2 -19.966 0 -139.805
1411.35 -19.2278 0 -186.608
1419.38 -19.8575 0 -185.507
-1469.28 -20.2361 0 -140.363
-28.8967 -20.0073 0 -166.584
1415.36 -19.5405 0 -186.06
-28.9712 -20.6055 0 -166.597
-28.9351 -20.305 0 -166.589
-1465.2 -19.966 0 -139.805
-1457.04 -19.4315 0 -138.709
1403.32 -18.6122 0 -187.69
1411.35 -19.2278 0 -186.608
-1461.12 -19.6977 0 -139.254
-28.8148 -19.4197 0 -166.575
1407.33 -18.9186 0 -187.152
-28.8967 -20.0073 0 -166.584
-28.8565 -19.7122 0 -166.579
-1457.04 -19.4315 0 -138.709
-1448.87 -18.9058 0 -137.635
1395.3 -18.0061 0 -188.75
1403.32 -18.6122 0 -187.69
-1452.96 -19.1676 0 -138.169
-28.7281 -18.8416 0 -166.568
1399.31 -18.3081 0 -188.223
-28.8148 -19.4197 0 -166.575
-28.7719 -19.1296 0 -166.571
-1448.87 -18.9058 0 -137.635
-1440.7 -18.3883 0 -136.583
1387.28 -17.407 0 -189.789
1395.3 -18.0061 0 -188.75
-1444.79 -18.646 0 -137.107
-28.6383 -18.2714 0 -166.56
1391.29 -17.7058 0 -189.272
-28.7281 -18.8416 0 -166.568
-28.6834 -18.5556 0 -166.564
-1440.7 -18.3883 0 -136.583
-1432.53 -17.8786 0 -135.552
1379.26 -16.8133 0 -190.805
1387.28 -17.407 0 -189.789
-1436.62 -18.1326 0 -136.065
-28.5468 -17.708 0 -166.551
1383.27 -17.1095 0 -190.299
-28.6383 -18.2714 0 -166.56
-28.5927 -17.989 0 -166.556
-1432.53 -17.8786 0 -135.552
-1424.35 -17.3756 0 -134.541
1371.24 -16.2239 0 -191.799
1379.26 -16.8133 0 -190.805
-1428.44 -17.6263 0 -135.044
-28.4546 -17.1503 0 -166.542
1375.25 -16.5181 0 -191.305
-28.5468 -17.708 0 -166.551
-28.5008 -17.4285 0 -166.547
-1424.35 -17.3756 0 -134.541
-1416.17 -16.8785 0 -133.549
1363.21 -15.638 0 -192.773
1371.24 -16.2239 0 -191.799
-1420.26 -17.1263 0 -134.042
-28.3622 -16.5976 0 -166.532
1367.23 -15.9306 0 -192.289
-28.4546 -17.1503 0 -166.542
-28.4084 -16.8734 0 -166.537
-1416.17 -16.8785 0 -133.549
-1408 -16.3868 0 -132.577
1355.19 -15.0553 0 -193.725
1363.21 -15.638 0 -192.773
-1412.09 -16.632 0 -133.06
-28.2701 -16.0491 0 -166.521
1359.2 -15.3463 0 -193.252
-28.3622 -16.5976 0 -166.532
-28.3161 -16.3228 0 -166.527
-1408 -16.3868 0 -132.577
-1399.82 -15.8999 0 -131.624
1347.17 -14.4753 0 -194.658
1355.19 -15.0553 0 -193.725
-1403.91 -16.1428 0 -132.098
-28.1784 -15.5046 0 -166.51
1351.18 -14.765 0 -194.194
-28.2701 -16.0491 0 -166.521
-28.2242 -15.7764 0 -166.516
-1399.82 -15.8999 0 -131.624
-1391.64 -15.4175 0 -130.691
1339.14 -13.8979 0 -195.57
1347.17 -14.4753 0 -194.658
-1395.73 -15.6582 0 -131.155
-28.0872 -14.9637 0 -166.499
1343.15 -14.1863 0 -195.116
-28.1784 -15.5046 0 -166.51
-28.1327 -15.2337 0 -166.505
-1391.64 -15.4175 0 -130.691
-1383.46 -14.9394 0 -129.778
1331.11 -13.323 0 -196.462
1339.14 -13.8979 0 -195.57
-1387.55 -15.1779 0 -130.232
-27.9966 -14.4263 0 -166.487
1335.13 -13.6102 0 -196.018
-28.0872 -14.9637 0 -166.499
-28.0418 -14.6946 0 -166.493
-1383.46 -14.9394 0 -129.778
-1375.28 -14.4653 0 -128.883
1323.09 -12.7506 0 -197.334
1331.11 -13.323 0 -196.462
-1379.37 -14.7018 0 -129.328
-27.9067 -13.8921 0 -166.475
1327.1 -13.0365 0 -196.901
-27.9966 -14.4263 0 -166.487
-27.9516 -14.1588 0 -166.481
-1375.28 -14.4653 0 -128.883
-1367.1 -13.9951 0 -128.007
1315.06 -12.1805 0 -198.187
1323.09 -12.7506 0 -197.334
-1371.19 -14.2297 0 -128.443
-27.8173 -13.3612 0 -166.462
1319.07 -12.4652 0 -197.763
-27.9067 -13.8921 0 -166.475
-27.8619 -13.6263 0 -166.469
-1367.1 -13.9951 0 -128.007
-1358.92 -13.5288 0 -127.15
1307.03 -11.6129 0 -199.02
1315.06 -12.1805 0 -198.187
-1363.01 -13.7615 0 -127.576
-27.7285 -12.8335 0 -166.45
1311.04 -11.8964 0 -198.606
-27.8173 -13.3612 0 -166.462
-27.7729 -13.097 0 -166.456
-1358.92 -13.5288 0 -127.15
-1350.74 -13.0662 0 -126.312
1298.99 -11.0478 0 -199.833
1307.03 -11.6129 0 -199.02
-1354.83 -13.297 0 -126.729
-27.6404 -12.309 0 -166.436
1303.01 -11.33 0 -199.429
-27.7285 -12.8335 0 -166.45
-27.6844 -12.5709 0 -166.443
-1350.74 -13.0662 0 -126.312
-1342.56 -12.6073 0 -125.493
1290.96 -10.4852 0 -200.627
1298.99 -11.0478 0 -199.833
-1346.65 -12.8363 0 -125.901
-27.5527 -11.7877 0 -166.423
1294.98 -10.7662 0 -200.233
-27.6404 -12.309 0 -166.436
-27.5965 -12.048 0 -166.43
-1342.56 -12.6073 0 -125.493
-1334.38 -12.1521 0 -124.693
1282.93 -9.92522 0 -201.402
1290.96 -10.4852 0 -200.627
-1338.47 -12.3792 0 -125.091
-27.4657 -11.2696 0 -166.409
1286.95 -10.2049 0 -201.017
-27.5527 -11.7877 0 -166.423
-27.5091 -11.5282 0 -166.416
-1334.38 -12.1521 0 -124.693
-1326.2 -11.7004 0 -123.91
1274.9 -9.36787 0 -202.158
1282.93 -9.92522 0 -201.402
-1330.29 -11.9258 0 -124.299
-27.3791 -10.7546 0 -166.395
1278.91 -9.64621 0 -201.783
-27.4657 -11.2696 0 -166.409
-27.4223 -11.0117 0 -166.402
-1326.2 -11.7004 0 -123.91
-1318.02 -11.2523 0 -123.147
1266.86 -8.81322 0 -202.895
1274.9 -9.36787 0 -202.158
-1322.11 -11.476 0 -123.526
-27.2931 -10.2428 0 -166.381
1270.88 -9.0902 0 -202.529
-27.3791 -10.7546 0 -166.395
-27.336 -10.4983 0 -166.388
-1318.02 -11.2523 0 -123.147
-1309.84 -10.8078 0 -122.401
1258.83 -8.26132 0 -203.613
1266.86 -8.81322 0 -202.895
-1313.93 -11.0296 0 -122.772
-27.2076 -9.73427 0 -166.367
1262.84 -8.53692 0 -203.256
-27.2931 -10.2428 0 -166.381
-27.2503 -9.98815 0 -166.374
-1309.84 -10.8078 0 -122.401
-1301.66 -10.3666 0 -121.674
1250.79 -7.71223 0 -204.312
1258.83 -8.26132 0 -203.613
-1305.75 -10.5868 0 -122.035
-27.1226 -9.22889 0 -166.352
1254.81 -7.98642 0 -203.965
-27.2076 -9.73427 0 -166.367
-27.1651 -9.48118 0 -166.359
-1301.66 -10.3666 0 -121.674
-1293.49 -9.92893 0 -120.965
1242.75 -7.16599 0 -204.993
1250.79 -7.71223 0 -204.312
-1297.57 -10.1474 0 -121.317
-27.0382 -8.72672 0 -166.337
1246.77 -7.43875 0 -204.655
-27.1226 -9.22889 0 -166.352
-27.0803 -8.9774 0 -166.344
-1293.49 -9.92893 0 -120.965
-1285.31 -9.49459 0 -120.273
1234.72 -6.62267 0 -205.655
1242.75 -7.16599 0 -204.993
-1289.4 -9.71135 0 -120.617
-26.9542 -8.22775 0 -166.321
1238.74 -6.89396 0 -205.327
-27.0382 -8.72672 0 -166.337
-26.9961 -8.47683 0 -166.329
-1285.31 -9.49459 0 -120.273
-1277.13 -9.06358 0 -119.6
1226.68 -6.0823 0 -206.299
1234.72 -6.62267 0 -205.655
-1281.22 -9.27867 0 -119.934
-26.8708 -7.73199 0 -166.306
1230.7 -6.35211 0 -205.98
-26.9542 -8.22775 0 -166.321
-26.9124 -7.97947 0 -166.314
-1277.13 -9.06358 0 -119.6
-1268.95 -8.63585 0 -118.944
1218.64 -5.54493 0 -206.925
1226.68 -6.0823 0 -206.299
-1273.04 -8.84931 0 -119.27
-26.7878 -7.23943 0 -166.29
1222.66 -5.81324 0 -206.614
-26.8708 -7.73199 0 -166.306
-26.8292 -7.48531 0 -166.298
-1268.95 -8.63585 0 -118.944
-1260.78 -8.21135 0 -118.306
1210.6 -5.01061 0 -207.533
1218.64 -5.54493 0 -206.925
-1264.86 -8.42319 0 -118.623
-26.7054 -6.75008 0 -166.274
1214.62 -5.27739 0 -207.231
-26.7878 -7.23943 0 -166.29
-26.7465 -6.99435 0 -166.282
-1260.78 -8.21135 0 -118.306
-1252.6 -7.79004 0 -117.685
1202.57 -4.47939 0 -208.122
1210.6 -5.01061 0 -207.533
-1256.69 -8.0003 0 -117.993
-26.6235 -6.26394 0 -166.258
1206.59 -4.74461 0 -207.83
-26.7054 -6.75008 0 -166.274
-26.6644 -6.50661 0 -166.266
-1252.6 -7.79004 0 -117.685
-1244.43 -7.37189 0 -117.082
1194.53 -3.95131 0 -208.694
1202.57 -4.47939 0 -208.122
-1248.51 -7.58057 0 -117.382
-26.542 -5.78101 0 -166.241
1198.55 -4.21495 0 -208.41
-26.6235 -6.26394 0 -166.258
-26.5827 -6.02207 0 -166.25
-1244.43 -7.37189 0 -117.082
-1236.25 -6.95684 0 -116.496
1186.49 -3.4264 0 -209.248
1194.53 -3.95131 0 -208.694
-1240.34 -7.16398 0 -116.787
-26.4611 -5.30129 0 -166.225
1190.51 -3.68845 0 -208.973
-26.542 -5.78101 0 -166.241
-26.5015 -5.54075 0 -166.233
-1236.25 -6.95684 0 -116.496
-1228.08 -6.54486 0 -115.927
1178.45 -2.90472 0 -209.784
1186.49 -3.4264 0 -209.248
-1232.16 -6.75047 0 -116.21
-26.3807 -4.82478 0 -166.208
1182.47 -3.16515 0 -209.518
-26.4611 -5.30129 0 -166.225
-26.4209 -5.06263 0 -166.216
-1228.08 -6.54486 0 -115.927
-1219.9 -6.13591 0 -115.376
1170.41 -2.3863 0 -210.303
1178.45 -2.90472 0 -209.784
-1223.99 -6.34001 0 -115.649
-26.3008 -4.35148 0 -166.191
1174.43 -2.6451 0 -210.046
-26.3807 -4.82478 0 -166.208
-26.3407 -4.58773 0 -166.199
-1219.9 -6.13591 0 -115.376
-1211.73 -5.72995 0 -114.841
1162.37 -1.87118 0 -210.805
1170.41 -2.3863 0 -210.303
-1215.82 -5.93256 0 -115.106
-26.2215 -3.88138 0 -166.174
1166.39 -2.12832 0 -210.556
-26.3008 -4.35148 0 -166.191
-26.2611 -4.11603 0 -166.182
-1211.73 -5.72995 0 -114.841
-1203.56 -5.32693 0 -114.323
1154.34 -1.3594 0 -211.289
1162.37 -1.87118 0 -210.805
-1207.65 -5.52807 0 -114.58
-26.1426 -3.4145 0 -166.156
1158.36 -1.61487 0 -211.049
-26.2215 -3.88138 0 -166.174
-26.182 -3.64754 0 -166.165
-1203.56 -5.32693 0 -114.323
-1195.39 -4.92682 0 -113.822
1146.3 -0.851 0 -211.756
1154.34 -1.3594 0 -211.289
-1199.47 -5.12651 0 -114.07
-26.0642 -2.95083 0 -166.139
1150.32 -1.10477 0 -211.525
-26.1426 -3.4145 0 -166.156
-26.1033 -3.18226 0 -166.148
-1195.39 -4.92682 0 -113.822
-1187.22 -4.52959 0 -113.337
1138.26 -0.346017 0 -212.207
1146.3 -0.851 0 -211.756
-1191.3 -4.72785 0 -113.578
-25.9864 -2.49036 0 -166.121
1142.28 -0.598079 0 -211.984
-26.0642 -2.95083 0 -166.139
-26.0252 -2.72019 0 -166.13
-1187.22 -4.52959 0 -113.337
-1179.05 -4.13519 0 -112.869
1130.22 0.155514 0 -212.64
1138.26 -0.346017 0 -212.207
-1183.14 -4.33203 0 -113.101
-25.909 -2.03311 0 -166.103
1134.24 -0.0948174 0 -212.425
-25.9864 -2.49036 0 -166.121
-25.9476 -2.26133 0 -166.112
-1179.05 -4.13519 0 -112.869
-1170.88 -3.74358 0 -112.418
1122.18 0.653558 0 -213.057
1130.22 0.155514 0 -212.64
-1174.97 -3.93904 0 -112.641
-25.8322 -1.57906 0 -166.085
1126.2 0.404974 0 -212.85
-25.909 -2.03311 0 -166.103
-25.8705 -1.80568 0 -166.094
-1170.88 -3.74358 0 -112.418
-1162.72 -3.35475 0 -111.982
1114.14 1.14808 0 -213.457
1122.18 0.653558 0 -213.057
-1166.8 -3.54882 0 -112.198
-25.7558 -1.12822 0 -166.067
1118.16 0.90126 0 -213.259
-25.8322 -1.57906 0 -166.085
-25.7939 -1.35324 0 -166.076
-1162.72 -3.35475 0 -111.982
-1154.55 -2.96864 0 -111.563
1106.11 1.63904 0 -213.84
1114.14 1.14808 0 -213.457
-1158.63 -3.16135 0 -111.771
-25.68 -0.68059 0 -166.048
1110.13 1.39401 0 -213.65
-25.7558 -1.12822 0 -166.067
-25.7179 -0.904004 0 -166.058
-1154.55 -2.96864 0 -111.563
-1146.39 -2.58523 0 -111.16
1098.07 2.12642 0 -214.207
1106.11 1.63904 0 -213.84
-1150.47 -2.7766 0 -111.359
-25.6047 -0.236166 0 -166.03
1102.09 1.88318 0 -214.026
-25.68 -0.68059 0 -166.048
-25.6423 -0.457977 0 -166.039
-1146.39 -2.58523 0 -111.16
-1138.22 -2.20448 0 -110.773
1090.03 2.61017 0 -214.558
1098.07 2.12642 0 -214.207
-1142.31 -2.39452 0 -110.964
-25.5299 0.20505 0 -166.011
1094.05 2.36875 0 -214.385
-25.6047 -0.236166 0 -166.03
-25.5672 -0.0151575 0 -166.02
-1138.22 -2.20448 0 -110.773
-1130.06 -1.82637 0 -110.401
1082 3.09027 0 -214.893
1090.03 2.61017 0 -214.558
-1134.14 -2.0151 0 -110.585
-25.4556 0.643059 0 -165.992
1086.01 2.85068 0 -214.728
-25.5299 0.20505 0 -166.011
-25.4927 0.424455 0 -166.002
-1130.06 -1.82637 0 -110.401
-1121.9 -1.45085 0 -110.046
1073.96 3.56669 0 -215.212
1082 3.09027 0 -214.893
-1125.98 -1.63829 0 -110.222
-25.3818 1.07786 0 -165.973
1077.98 3.32894 0 -215.054
-25.4556 0.643059 0 -165.992
-25.4186 0.860861 0 -165.983
-1121.9 -1.45085 0 -110.046
-1113.74 -1.0779 0 -109.706
1065.92 4.03939 0 -215.515
1073.96 3.56669 0 -215.212
-1117.82 -1.26406 0 -109.874
-25.3085 1.50946 0 -165.954
1069.94 3.8035 0 -215.365
-25.3818 1.07786 0 -165.973
-25.3451 1.29406 0 -165.964
-1113.74 -1.0779 0 -109.706
-1105.58 -0.707496 0 -109.381
1057.89 4.50835 0 -215.802
1065.92 4.03939 0 -215.515
-1109.66 -0.892384 0 -109.541
-25.2358 1.93785 0 -165.935
1061.9 4.27434 0 -215.66
-25.3085 1.50946 0 -165.954
-25.2721 1.72405 0 -165.945
-1105.58 -0.707496 0 -109.381
-1097.43 -0.339599 0 -109.072
1049.85 4.97354 0 -216.073
1057.89 4.50835 0 -215.802
-1101.5 -0.523236 0 -109.225
-25.1635 2.36303 0 -165.916
1053.87 4.74142 0 -215.939
-25.2358 1.93785 0 -165.935
-25.1996 2.15084 0 -165.926
-1097.43 -0.339599 0 -109.072
-1089.27 0.0258156 0 -108.778
1041.82 5.43493 0 -216.329
1049.85 4.97354 0 -216.073
-1093.35 -0.156583 0 -108.923
-25.0918 2.78501 0 -165.897
1045.83 5.20471 0 -216.203
-25.1635 2.36303 0 -165.916
-25.1276 2.57442 0 -165.906
-1089.27 0.0258156 0 -108.778
-1081.12 0.388777 0 -108.499
1033.78 5.89249 0 -216.57
1041.82 5.43493 0 -216.329
-1085.19 0.207601 0 -108.637
-25.0205 3.20379 0 -165.877
1037.8 5.66419 0 -216.452
-25.0918 2.78501 0 -165.897
-25.0561 2.9948 0 -165.887
-1081.12 0.388777 0 -108.499
-1072.96 0.74931 0 -108.236
1025.75 6.3462 0 -216.795
1033.78 5.89249 0 -216.57
-1077.04 0.569345 0 -108.366
-24.9498 3.61936 0 -165.858
1029.77 6.11983 0 -216.685
-25.0205 3.20379 0 -165.877
-24.9851 3.41197 0 -165.867
-1072.96 0.74931 0 -108.236
-1064.81 1.10744 0 -107.987
1017.72 6.79604 0 -217.006
1025.75 6.3462 0 -216.795
-1068.89 0.928675 0 -108.11
-24.8796 4.03172 0 -165.838
1021.73 6.57161 0 -216.903
-24.9498 3.61936 0 -165.858
-24.9147 3.82594 0 -165.848
-1064.81 1.10744 0 -107.987
-1056.66 1.4632 0 -107.753
1009.68 7.24197 0 -217.201
1017.72 6.79604 0 -217.006
-1060.74 1.28562 0 -107.868
-24.8099 4.44089 0 -165.818
1013.7 7.01949 0 -217.105
-24.8796 4.03172 0 -165.838
-24.8447 4.23671 0 -165.828
-1056.66 1.4632 0 -107.753
-1048.51 1.81661 0 -107.534
1001.65 7.68398 0 -217.381
1009.68 7.24197 0 -217.201
-1052.59 1.6402 0 -107.642
-24.7407 4.84685 0 -165.798
1005.67 7.46347 0 -217.293
-24.8099 4.44089 0 -165.818
-24.7753 4.64427 0 -165.808
-1048.51 1.81661 0 -107.534
-1040.37 2.16769 0 -107.329
993.62 8.12203 0 -217.547
1001.65 7.68398 0 -217.381
-1044.44 1.99244 0 -107.43
-24.6721 5.24961 0 -165.779
997.636 7.9035 0 -217.466
-24.7407 4.84685 0 -165.798
-24.7064 5.04863 0 -165.789
-1040.37 2.16769 0 -107.329
-1032.22 2.51647 0 -107.139
985.59 8.55612 0 -217.698
993.62 8.12203 0 -217.547
-1036.29 2.34236 0 -107.232
-24.6039 5.64917 0 -165.759
989.605 8.33958 0 -217.624
-24.6721 5.24961 0 -165.779
-24.6379 5.44979 0 -165.769
-1032.22 2.51647 0 -107.139
-1024.08 2.86296 0 -106.964
977.56 8.98621 0 -217.835
985.59 8.55612 0 -217.698
-1028.15 2.69 0 -107.05
-24.5363 6.04552 0 -165.739
981.575 8.77167 0 -217.768
-24.6039 5.64917 0 -165.759
-24.57 5.84775 0 -165.749
-1024.08 2.86296 0 -106.964
-1015.93 3.2072 0 -106.802
969.531 9.41229 0 -217.957
977.56 8.98621 0 -217.835
-1020.01 3.03537 0 -106.881
-24.4692 6.43868 0 -165.719
973.545 9.19976 0 -217.897
-24.5363 6.04552 0 -165.739
-24.5027 6.2425 0 -165.729
-1015.93 3.2072 0 -106.802
-1007.79 3.54921 0 -106.655
961.502 9.83434 0 -218.065
969.531 9.41229 0 -217.957
-1011.86 3.37849 0 -106.727
-24.4025 6.82864 0 -165.699
965.516 9.62382 0 -218.012
-24.4692 6.43868 0 -165.719
-24.4358 6.63406 0 -165.709
-1007.79 3.54921 0 -106.655
-999.654 3.889 0 -106.522
953.475 10.2523 0 -218.158
961.502 9.83434 0 -218.065
-1003.72 3.71938 0 -106.586
-24.3364 7.21539 0 -165.678
957.488 10.0438 0 -218.113
-24.4025 6.82864 0 -165.699
-24.3694 7.02242 0 -165.689
-999.654 3.889 0 -106.522
-991.517 4.22659 0 -106.402
945.448 10.6662 0 -218.238
953.475 10.2523 0 -218.158
-995.585 4.05807 0 -106.46
-24.2709 7.59895 0 -165.658
949.461 10.4598 0 -218.2
-24.3364 7.21539 0 -165.678
-24.3036 7.40757 0 -165.668
-991.517 4.22659 0 -106.402
-983.381 4.56201 0 -106.297
937.422 11.0761 0 -218.304
945.448 10.6662 0 -218.238
-987.449 4.39457 0 -106.348
-24.2058 7.97931 0 -165.638
941.435 10.8717 0 -218.273
-24.2709 7.59895 0 -165.658
-24.2383 7.78953 0 -165.648
-983.381 4.56201 0 -106.297
-975.247 4.89527 0 -106.205
929.396 11.4818 0 -218.356
937.422 11.0761 0 -218.304
-979.314 4.72891 0 -106.249
-24.1412 8.35648 0 -165.618
933.409 11.2794 0 -218.332
-24.2058 7.97931 0 -165.638
-24.1735 8.16829 0 -165.628
-975.247 4.89527 0 -106.205
-967.114 5.22639 0 -106.127
921.372 11.8834 0 -218.394
929.396 11.4818 0 -218.356
-971.18 5.06109 0 -106.164
-24.0772 8.73044 0 -165.598
925.384 11.6831 0 -218.377
-24.1412 8.35648 0 -165.618
-24.1092 8.54386 0 -165.608
-967.114 5.22639 0 -106.127
-958.983 5.55539 0 -106.062
913.348 12.2808 0 -218.419
921.372 11.8834 0 -218.394
-963.048 5.39115 0 -106.092
-24.0137 9.10121 0 -165.577
917.36 12.0826 0 -218.408
-24.0772 8.73044 0 -165.598
-24.0454 8.91623 0 -165.587
-958.983 5.55539 0 -106.062
-950.854 5.88228 0 -106.01
905.325 12.6741 0 -218.431
913.348 12.2808 0 -218.419
-954.918 5.7191 0 -106.034
-23.9507 9.46879 0 -165.557
909.337 12.478 0 -218.426
-24.0137 9.10121 0 -165.577
-23.9821 9.2854 0 -165.567
-950.854 5.88228 0 -106.01
-942.727 6.20709 0 -105.972
897.304 13.0632 0 -218.429
905.325 12.6741 0 -218.431
-946.79 6.04495 0 -105.99
-23.8882 9.83317 0 -165.537
901.314 12.8692 0 -218.431
-23.9507 9.46879 0 -165.557
-23.9194 9.65137 0 -165.547
-942.727 6.20709 0 -105.972
-934.601 6.52982 0 -105.947
889.283 13.4482 0 -218.414
897.304 13.0632 0 -218.429
-938.664 6.36872 0 -105.958
-23.8262 10.1944 0 -165.517
893.293 13.2562 0 -218.423
-23.8882 9.83317 0 -165.537
-23.8572 10.0142 0 -165.527
-934.601 6.52982 0 -105.947
-926.477 6.8505 0 -105.935
881.263 13.8289 0 -218.386
889.283 13.4482 0 -218.414
-930.539 6.69042 0 -105.94
-23.7648 10.5523 0 -165.496
885.272 13.6391 0 -218.401
-23.8262 10.1944 0 -165.517
-23.7955 10.3737 0 -165.506
-926.477 6.8505 0 -105.935
-918.355 7.16913 0 -105.936
873.243 14.2054 0 -218.345
881.263 13.8289 0 -218.386
-922.416 7.01007 0 -105.934
-23.7039 10.9071 0 -165.476
877.253 14.0177 0 -218.367
-23.7648 10.5523 0 -165.496
-23.7343 10.7301 0 -165.486
-918.355 7.16913 0 -105.936
-910.235 7.48574 0 -105.95
865.225 14.5777 0 -218.291
873.243 14.2054 0 -218.345
-914.295 7.32769 0 -105.941
-23.6435 11.2587 0 -165.456
869.234 14.3921 0 -218.319
-23.7039 10.9071 0 -165.476
-23.6736 11.0833 0 -165.466
-910.235 7.48574 0 -105.95
-902.117 7.80033 0 -105.976
857.208 14.9458 0 -218.225
865.225 14.5777 0 -218.291
-906.176 7.64328 0 -105.961
-23.5836 11.6072 0 -165.435
861.216 14.7623 0 -218.259
-23.6435 11.2587 0 -165.456
-23.6134 11.4334 0 -165.446
-902.117 7.80033 0 -105.976
-894 8.11291 0 -106.015
849.191 15.3096 0 -218.146
857.208 14.9458 0 -218.225
-898.058 7.95687 0 -105.994
-23.5242 11.9524 0 -165.415
853.2 15.1282 0 -218.187
-23.5836 11.6072 0 -165.435
-23.5538 11.7802 0 -165.425
-894 8.11291 0 -106.015
-885.885 8.4235 0 -106.067
841.176 15.6691 0 -218.054
849.191 15.3096 0 -218.146
-889.942 8.26846 0 -106.039
-23.4653 12.2944 0 -165.395
845.184 15.4899 0 -218.101
-23.5242 11.9524 0 -165.415
-23.4947 12.1238 0 -165.405
-885.885 8.4235 0 -106.067
-877.772 8.73212 0 -106.13
833.162 16.0244 0 -217.951
841.176 15.6691 0 -218.054
-881.828 8.57806 0 -106.097
-23.407 12.6333 0 -165.375
837.169 15.8473 0 -218.004
-23.4653 12.2944 0 -165.395
-23.4361 12.4642 0 -165.385
-877.772 8.73212 0 -106.13
-869.661 9.03876 0 -106.206
825.148 16.3754 0 -217.835
833.162 16.0244 0 -217.951
-873.716 8.88568 0 -106.167
-23.3492 12.9689 0 -165.355
829.155 16.2004 0 -217.894
-23.407 12.6333 0 -165.375
-23.378 12.8015 0 -165.365
-869.661 9.03876 0 -106.206
-861.552 9.34345 0 -106.295
817.136 16.7221 0 -217.707
825.148 16.3754 0 -217.835
-865.606 9.19135 0 -106.249
-23.2919 13.3014 0 -165.335
821.142 16.5493 0 -217.772
-23.3492 12.9689 0 -165.355
-23.3205 13.1356 0 -165.345
-861.552 9.34345 0 -106.295
-853.445 9.64618 0 -106.395
809.124 17.0645 0 -217.567
817.136 16.7221 0 -217.707
-857.498 9.49506 0 -106.343
-23.2352 13.6307 0 -165.314
813.13 16.8939 0 -217.638
-23.2919 13.3014 0 -165.335
-23.2635 13.4664 0 -165.325
-853.445 9.64618 0 -106.395
-845.339 9.94698 0 -106.507
801.114 17.4026 0 -217.415
809.124 17.0645 0 -217.567
-849.392 9.79682 0 -106.449
-23.1789 13.9568 0 -165.294
805.119 17.2341 0 -217.492
-23.2352 13.6307 0 -165.314
-23.207 13.7941 0 -165.304
-845.339 9.94698 0 -106.507
-837.236 10.2458 0 -106.631
793.105 17.7364 0 -217.252
801.114 17.4026 0 -217.415
-841.287 10.0966 0 -106.567
-23.1232 14.2797 0 -165.274
797.109 17.5701 0 -217.335
-23.1789 13.9568 0 -165.294
-23.151 14.1186 0 -165.284
-837.236 10.2458 0 -106.631
-829.134 10.5428 0 -106.766
785.096 18.0659 0 -217.077
793.105 17.7364 0 -217.252
-833.185 10.3945 0 -106.697
-23.068 14.5994 0 -165.255
789.1 17.9017 0 -217.166
-23.1232 14.2797 0 -165.274
-23.0955 14.44 0 -165.265
-829.134 10.5428 0 -106.766
-821.034 10.8378 0 -106.913
777.089 18.3911 0 -216.89
785.096 18.0659 0 -217.077
-825.084 10.6905 0 -106.838
-23.0133 14.916 0 -165.235
781.093 18.229 0 -216.985
-23.068 14.5994 0 -165.255
-23.0406 14.7581 0 -165.245
-821.034 10.8378 0 -106.913
-812.936 11.1309 0 -107.072
769.083 18.7119 0 -216.693
777.089 18.3911 0 -216.89
-816.985 10.9846 0 -106.991
-22.9592 15.2293 0 -165.215
773.086 18.552 0 -216.793
-23.0133 14.916 0 -165.235
-22.9862 15.073 0 -165.225
-812.936 11.1309 0 -107.072
-804.84 11.4221 0 -107.241
761.077 19.0284 0 -216.484
769.083 18.7119 0 -216.693
-808.888 11.2768 0 -107.155
-22.9056 15.5395 0 -165.195
765.08 18.8707 0 -216.59
-22.9592 15.2293 0 -165.215
-22.9323 15.3848 0 -165.205
-804.84 11.4221 0 -107.241
-796.746 11.7114 0 -107.422
753.073 19.3406 0 -216.264
761.077 19.0284 0 -216.484
-800.793 11.567 0 -107.331
-22.8525 15.8465 0 -165.176
757.075 19.185 0 -216.375
-22.9056 15.5395 0 -165.195
-22.879 15.6934 0 -165.185
-796.746 11.7114 0 -107.422
-788.654 11.9989 0 -107.615
745.07 19.6484 0 -216.033
753.073 19.3406 0 -216.264
-792.7 11.8554 0 -107.517
-22.7999 16.1503 0 -165.156
749.071 19.495 0 -216.149
-22.8525 15.8465 0 -165.176
-22.8261 15.9988 0 -165.166
-788.654 11.9989 0 -107.615
-780.564 12.2844 0 -107.818
737.068 19.9519 0 -215.791
745.07 19.6484 0 -216.033
-784.609 12.1419 0 -107.715
-22.7479 16.451 0 -165.136
741.069 19.8007 0 -215.913
-22.7999 16.1503 0 -165.156
-22.7738 16.301 0 -165.146
-780.564 12.2844 0 -107.818
-772.476 12.5681 0 -108.032
729.067 20.251 0 -215.538
737.068 19.9519 0 -215.791
-776.52 12.4265 0 -107.923
-22.6964 16.7484 0 -165.117
733.067 20.102 0 -215.666
-22.7479 16.451 0 -165.136
-22.722 16.6001 0 -165.127
-772.476 12.5681 0 -108.032
-764.39 12.8498 0 -108.257
721.067 20.5458 0 -215.275
729.067 20.251 0 -215.538
-768.433 12.7092 0 -108.143
-22.6454 17.0427 0 -165.098
725.067 20.3989 0 -215.408
-22.6964 16.7484 0 -165.117
-22.6708 16.896 0 -165.107
-764.39 12.8498 0 -108.257
-756.305 13.1297 0 -108.492
713.068 20.8362 0 -215.001
721.067 20.5458 0 -215.275
-760.347 12.99 0 -108.373
-22.5949 17.3338 0 -165.078
717.067 20.6915 0 -215.139
-22.6454 17.0427 0 -165.098
-22.6201 17.1886 0 -165.088
-756.305 13.1297 0 -108.492
-748.223 13.4077 0 -108.738
705.07 21.1223 0 -214.717
713.068 20.8362 0 -215.001
-752.264 13.269 0 -108.614
-22.545 17.6217 0 -165.059
709.069 20.9798 0 -214.861
-22.5949 17.3338 0 -165.078
-22.5699 17.4782 0 -165.069
-748.223 13.4077 0 -108.738
-740.143 13.6839 0 -108.995
697.073 21.404 0 -214.423
705.07 21.1223 0 -214.717
-744.183 13.5461 0 -108.865
-22.4956 17.9065 0 -165.04
701.071 21.2637 0 -214.571
-22.545 17.6217 0 -165.059
-22.5202 17.7645 0 -165.05
-740.143 13.6839 0 -108.995
-732.064 13.9582 0 -109.261
689.077 21.6814 0 -214.118
697.073 21.404 0 -214.423
-736.103 13.8213 0 -109.127
-22.4467 18.188 0 -165.021
693.075 21.5432 0 -214.272
-22.4956 17.9065 0 -165.04
-22.4711 18.0477 0 -165.031
-732.064 13.9582 0 -109.261
-723.987 14.2306 0 -109.538
681.082 21.9544 0 -213.804
689.077 21.6814 0 -214.118
-728.026 14.0946 0 -109.399
-22.3983 18.4664 0 -165.002
685.08 21.8184 0 -213.962
-22.4467 18.188 0 -165.021
-22.4225 18.3276 0 -165.012
-723.987 14.2306 0 -109.538
-715.913 14.5011 0 -109.825
673.089 22.2231 0 -213.48
681.082 21.9544 0 -213.804
-719.95 14.3661 0 -109.681
-22.3505 18.7417 0 -164.984
677.085 22.0893 0 -213.643
-22.3983 18.4664 0 -165.002
-22.3744 18.6045 0 -164.993
-715.913 14.5011 0 -109.825
-707.84 14.7698 0 -110.123
665.096 22.4874 0 -213.146
673.089 22.2231 0 -213.48
-711.876 14.6357 0 -109.973
-22.3033 19.0137 0 -164.965
669.092 22.3558 0 -213.314
-22.3505 18.7417 0 -164.984
-22.3268 18.8781 0 -164.974
-707.84 14.7698 0 -110.123
-699.769 15.0366 0 -110.429
657.104 22.7474 0 -212.802
665.096 22.4874 0 -213.146
-703.804 14.9035 0 -110.275
-22.2565 19.2826 0 -164.947
661.1 22.6179 0 -212.975
-22.3033 19.0137 0 -164.965
-22.2798 19.1486 0 -164.956
-699.769 15.0366 0 -110.429
-691.7 15.3016 0 -110.746
649.114 23.003 0 -212.449
657.104 22.7474 0 -212.802
-695.735 15.1694 0 -110.587
-22.2103 19.5483 0 -164.928
653.109 22.8757 0 -212.626
-22.2565 19.2826 0 -164.947
-22.2333 19.4159 0 -164.937
-691.7 15.3016 0 -110.746
-683.634 15.5647 0 -111.073
641.124 23.2543 0 -212.086
649.114 23.003 0 -212.449
-687.667 15.4334 0 -110.908
-22.1646 19.8109 0 -164.91
645.119 23.1292 0 -212.268
-22.2103 19.5483 0 -164.928
-22.1874 19.68 0 -164.919
-683.634 15.5647 0 -111.073
-675.569 15.8259 0 -111.408
633.135 23.5012 0 -211.714
641.124 23.2543 0 -212.086
-679.601 15.6955 0 -111.239
-22.1194 20.0702 0 -164.892
637.13 23.3783 0 -211.901
-22.1646 19.8109 0 -164.91
-22.1419 19.9409 0 -164.901
-675.569 15.8259 0 -111.408
-667.505 16.0852 0 -111.754
625.148 23.7438 0 -211.333
633.135 23.5012 0 -211.714
-671.537 15.9558 0 -111.58
-22.0748 20.3264 0 -164.874
629.141 23.623 0 -211.524
-22.1194 20.0702 0 -164.892
-22.0971 20.1987 0 -164.883
-667.505 16.0852 0 -111.754
-659.444 16.3427 0 -112.108
617.161 23.9821 0 -210.943
625.148 23.7438 0 -211.333
-663.475 16.2142 0 -111.93
-22.0307 20.5795 0 -164.856
621.154 23.8635 0 -211.139
-22.0748 20.3264 0 -164.874
-22.0527 20.4533 0 -164.865
-659.444 16.3427 0 -112.108
-651.385 16.5983 0 -112.472
609.176 24.216 0 -210.543
617.161 23.9821 0 -210.943
-655.414 16.4707 0 -112.289
-21.9872 20.8293 0 -164.838
613.168 24.0996 0 -210.744
-22.0307 20.5795 0 -164.856
-22.0089 20.7048 0 -164.847
-651.385 16.5983 0 -112.472
-643.328 16.852 0 -112.845
601.191 24.4456 0 -210.135
609.176 24.216 0 -210.543
-647.356 16.7254 0 -112.657
-21.9441 21.076 0 -164.821
605.183 24.3314 0 -210.341
-21.9872 20.8293 0 -164.838
-21.9656 20.9531 0 -164.829
-643.328 16.852 0 -112.845
-635.272 17.1038 0 -113.227
593.208 24.6709 0 -209.719
601.191 24.4456 0 -210.135
-639.3 16.9781 0 -113.035
-21.9017 21.3196 0 -164.803
597.199 24.5588 0 -209.928
-21.9441 21.076 0 -164.821
-21.9228 21.1982 0 -164.812
-635.272 17.1038 0 -113.227
-627.219 17.3537 0 -113.618
585.225 24.8919 0 -209.294
593.208 24.6709 0 -209.719
-631.245 17.229 0 -113.421
-21.8597 21.5599 0 -164.786
589.216 24.782 0 -209.507
-21.9017 21.3196 0 -164.803
-21.8806 21.4402 0 -164.794
-627.219 17.3537 0 -113.618
-619.167 17.6018 0 -114.017
577.244 25.1086 0 -208.86
585.225 24.8919 0 -209.294
-623.193 17.478 0 -113.816
-21.8183 21.7971 0 -164.769
581.234 25.0008 0 -209.078
-21.8597 21.5599 0 -164.786
-21.8389 21.6789 0 -164.777
-619.167 17.6018 0 -114.017
-611.117 17.8479 0 -114.425
569.263 25.321 0 -208.418
577.244 25.1086 0 -208.86
-615.142 17.7251 0 -114.22
-21.7774 22.0312 0 -164.752
573.253 25.2153 0 -208.64
-21.8183 21.7971 0 -164.769
-21.7978 21.9146 0 -164.76
-611.117 17.8479 0 -114.425
-603.069 18.0921 0 -114.842
561.284 25.5291 0 -207.968
569.263 25.321 0 -208.418
-607.093 17.9703 0 -114.633
-21.7371 22.2621 0 -164.735
565.273 25.4255 0 -208.194
-21.7774 22.0312 0 -164.752
-21.7572 22.147 0 -164.743
-603.069 18.0921 0 -114.842
-595.023 18.3345 0 -115.267
553.305 25.7329 0 -207.509
561.284 25.5291 0 -207.968
-599.046 18.2135 0 -115.053
-21.6973 22.4898 0 -164.718
557.294 25.6315 0 -207.739
-21.7371 22.2621 0 -164.735
-21.7171 22.3763 0 -164.726
-595.023 18.3345 0 -115.267
-586.979 18.5749 0 -115.7
545.327 25.9324 0 -207.043
553.305 25.7329 0 -207.509
-591.001 18.4549 0 -115.483
-21.658 22.7143 0 -164.702
549.316 25.8332 0 -207.277
-21.6973 22.4898 0 -164.718
-21.6775 22.6025 0 -164.71
-586.979 18.5749 0 -115.7
-578.937 18.8134 0 -116.142
537.351 26.1276 0 -206.569
545.327 25.9324 0 -207.043
-582.958 18.6944 0 -115.92
-21.6192 22.9357 0 -164.685
541.339 26.0305 0 -206.807
-21.658 22.7143 0 -164.702
-21.6385 22.8254 0 -164.693
-578.937 18.8134 0 -116.142
-570.896 19.0499 0 -116.592
529.375 26.3186 0 -206.087
537.351 26.1276 0 -206.569
-574.916 18.9319 0 -116.366
-21.5811 23.154 0 -164.669
533.363 26.2237 0 -206.329
-21.6192 22.9357 0 -164.685
-21.6001 23.0453 0 -164.677
-570.896 19.0499 0 -116.592
-562.857 19.2845 0 -117.049
521.4 26.5054 0 -205.597
529.375 26.3186 0 -206.087
-566.877 19.1675 0 -116.819
-21.5434 23.3691 0 -164.653
525.387 26.4125 0 -205.843
-21.5811 23.154 0 -164.669
-21.5622 23.2619 0 -164.661
-562.857 19.2845 0 -117.049
-554.821 19.5172 0 -117.515
513.426 26.6879 0 -205.1
521.4 26.5054 0 -205.597
-558.839 19.4011 0 -117.281
-21.5063 23.581 0 -164.637
517.413 26.5972 0 -205.35
-21.5434 23.3691 0 -164.653
-21.5248 23.4754 0 -164.645
-554.821 19.5172 0 -117.515
-546.786 19.7479 0 -117.988
505.453 26.8661 0 -204.596
513.426 26.6879 0 -205.1
-550.803 19.6328 0 -117.75
-21.4697 23.7897 0 -164.621
509.439 26.7775 0 -204.849
-21.5063 23.581 0 -164.637
-21.4879 23.6858 0 -164.629
-546.786 19.7479 0 -117.988
-538.752 19.9767 0 -118.469
497.481 27.0402 0 -204.084
505.453 26.8661 0 -204.596
-542.769 19.8626 0 -118.227
-21.4337 23.9954 0 -164.606
501.467 26.9537 0 -204.341
-21.4697 23.7897 0 -164.621
-21.4516 23.8929 0 -164.614
-538.752 19.9767 0 -118.469
-530.721 20.2035 0 -118.957
489.509 27.21 0 -203.565
497.481 27.0402 0 -204.084
-534.736 20.0903 0 -118.712
-21.3982 24.1978 0 -164.591
493.495 27.1256 0 -203.825
-21.4337 23.9954 0 -164.606
-21.4159 24.097 0 -164.598
-530.721 20.2035 0 -118.957
-522.691 20.4283 0 -119.453
481.539 27.3756 0 -203.039
489.509 27.21 0 -203.565
-526.706 20.3161 0 -119.204
-21.3632 24.3971 0 -164.575
485.524 27.2933 0 -203.303
-21.3982 24.1978 0 -164.591
-21.3806 24.2979 0 -164.583
-522.691 20.4283 0 -119.453
-514.663 20.6511 0 -119.956
473.569 27.5371 0 -202.506
481.539 27.3756 0 -203.039
-518.677 20.54 0 -119.703
-21.3288 24.5932 0 -164.56
477.554 27.4569 0 -202.773
-21.3632 24.3971 0 -164.575
-21.346 24.4956 0 -164.568
-514.663 20.6511 0 -119.956
-506.637 20.8719 0 -120.466
465.6 27.6943 0 -201.966
473.569 27.5371 0 -202.506
-510.65 20.7618 0 -120.21
-21.2949 24.7862 0 -164.546
469.585 27.6162 0 -202.237
-21.3288 24.5932 0 -164.56
-21.3118 24.6901 0 -164.553
-506.637 20.8719 0 -120.466
-498.612 21.0908 0 -120.983
457.632 27.8474 0 -201.42
465.6 27.6943 0 -201.966
-502.624 20.9816 0 -120.724
-21.2616 24.9761 0 -164.531
461.616 27.7714 0 -201.694
-21.2949 24.7862 0 -164.546
-21.2782 24.8815 0 -164.538
-498.612 21.0908 0 -120.983
-490.59 21.3076 0 -121.508
449.665 27.9963 0 -200.867
457.632 27.8474 0 -201.42
-494.601 21.1994 0 -121.245
-21.2288 25.1628 0 -164.517
453.649 27.9224 0 -201.144
-21.2616 24.9761 0 -164.531
-21.2452 25.0698 0 -164.524
-490.59 21.3076 0 -121.508
-482.568 21.5223 0 -122.039
441.699 28.1411 0 -200.307
449.665 27.9963 0 -200.867
-486.579 21.4152 0 -121.772
-21.1966 25.3463 0 -164.503
445.682 28.0692 0 -200.588
-21.2288 25.1628 0 -164.517
-21.2126 25.2549 0 -164.51
-482.568 21.5223 0 -122.039
-474.549 21.735 0 -122.577
433.733 28.2818 0 -199.742
441.699 28.1411 0 -200.307
-478.559 21.6289 0 -122.307
-21.1649 25.5267 0 -164.489
437.716 28.212 0 -200.025
-21.1966 25.3463 0 -164.503
-21.1807 25.4369 0 -164.495
-474.549 21.735 0 -122.577
-466.531 21.9457 0 -123.121
425.768 28.4183 0 -199.17
433.733 28.2818 0 -199.742
-470.54 21.8406 0 -122.848
-21.1337 25.7039 0 -164.475
429.75 28.3506 0 -199.456
-21.1649 25.5267 0 -164.489
-21.1492 25.6157 0 -164.482
-466.531 21.9457 0 -123.121
-458.515 22.1543 0 -123.672
417.804 28.5507 0 -198.591
425.768 28.4183 0 -199.17
-462.523 22.0503 0 -123.396
-21.1031 25.878 0 -164.461
421.786 28.485 0 -198.881
-21.1337 25.7039 0 -164.475
-21.1184 25.7913 0 -164.468
-458.515 22.1543 0 -123.672
-450.501 22.3608 0 -124.229
409.841 28.6791 0 -198.007
417.804 28.5507 0 -198.591
-454.508 22.2578 0 -123.95
-21.073 26.0489 0 -164.448
413.822 28.6154 0 -198.3
-21.1031 25.878 0 -164.461
-21.088 25.9638 0 -164.454
-450.501 22.3608 0 -124.229
-442.488 22.5653 0 -124.793
401.878 28.8033 0 -197.417
409.841 28.6791 0 -198.007
-446.494 22.4633 0 -124.511
-21.0435 26.2167 0 -164.435
405.859 28.7417 0 -197.713
-21.073 26.0489 0 -164.448
-21.0582 26.1332 0 -164.441
-442.488 22.5653 0 -124.793
-434.477 22.7676 0 -125.363
393.916 28.9235 0 -196.822
401.878 28.8033 0 -197.417
-438.482 22.6667 0 -125.077
-21.0145 26.3813 0 -164.422
397.897 28.8639 0 -197.12
-21.0435 26.2167 0 -164.435
-21.029 26.2994 0 -164.428
-434.477 22.7676 0 -125.363
-426.468 22.9678 0 -125.939
385.955 29.0397 0 -196.22
393.916 28.9235 0 -196.822
-430.472 22.868 0 -125.65
-20.9861 26.5428 0 -164.409
389.935 28.9821 0 -196.522
-21.0145 26.3813 0 -164.422
-21.0003 26.4625 0 -164.415
-426.468 22.9678 0 -125.939
-418.46 23.1659 0 -126.521
377.994 29.1518 0 -195.613
385.955 29.0397 0 -196.22
-422.463 23.0672 0 -126.229
-20.9582 26.7012 0 -164.396
381.974 29.0962 0 -195.917
-20.9861 26.5428 0 -164.409
-20.9721 26.6224 0 -164.403
-418.46 23.1659 0 -126.521
-410.453 23.3619 0 -127.109
370.034 29.2598 0 -195.001
377.994 29.1518 0 -195.613
-414.456 23.2642 0 -126.814
-20.9309 26.8564 0 -164.384
374.014 29.2063 0 -195.308
-20.9582 26.7012 0 -164.396
-20.9445 26.7792 0 -164.39
-410.453 23.3619 0 -127.109
-402.448 23.5557 0 -127.702
362.074 29.3639 0 -194.383
370.034 29.2598 0 -195.001
-406.451 23.4591 0 -127.405
-20.9041 27.0084 0 -164.372
366.054 29.3124 0 -194.693
-20.9309 26.8564 0 -164.384
-20.9174 26.9328 0 -164.378
-402.448 23.5557 0 -127.702
-394.445 23.7473 0 -128.301
354.116 29.464 0 -193.76
362.074 29.3639 0 -194.383
-398.446 23.6518 0 -128.001
-20.8778 27.1573 0 -164.36
358.095 29.4145 0 -194.072
-20.9041 27.0084 0 -164.372
-20.8909 27.0833 0 -164.366
-394.445 23.7473 0 -128.301
-386.443 23.9367 0 -128.906
346.157 29.5601 0 -193.132
354.116 29.464 0 -193.76
-390.444 23.8423 0 -128.603
-20.8521 27.3031 0 -164.348
350.137 29.5126 0 -193.447
-20.8778 27.1573 0 -164.36
-20.8649 27.2306 0 -164.354
-386.443 23.9367 0 -128.906
-378.443 24.124 0 -129.516
338.2 29.6523 0 -192.499
346.157 29.5601 0 -193.132
-382.443 24.0306 0 -129.21
-20.827 27.4457 0 -164.337
342.179 29.6067 0 -192.817
-20.8521 27.3031 0 -164.348
-20.8395 27.3748 0 -164.343
-378.443 24.124 0 -129.516
-370.444 24.309 0 -130.131
330.243 29.7405 0 -191.862
338.2 29.6523 0 -192.499
-374.443 24.2168 0 -129.823
-20.8024 27.5852 0 -164.326
334.221 29.6969 0 -192.181
-20.827 27.4457 0 -164.337
-20.8146 27.5158 0 -164.331
-370.444 24.309 0 -130.131
-362.447 24.4918 0 -130.751
322.286 29.8248 0 -191.219
330.243 29.7405 0 -191.862
-366.445 24.4007 0 -130.441
-20.7783 27.7215 0 -164.315
326.264 29.7831 0 -191.541
-20.8024 27.5852 0 -164.326
-20.7903 27.6537 0 -164.32
-362.447 24.4918 0 -130.751
-354.451 24.6724 0 -131.377
314.33 29.9052 0 -190.572
322.286 29.8248 0 -191.219
-358.449 24.5824 0 -131.064
-20.7548 27.8547 0 -164.304
318.308 29.8655 0 -190.896
-20.7783 27.7215 0 -164.315
-20.7665 27.7885 0 -164.309
-354.451 24.6724 0 -131.377
-346.456 24.8507 0 -132.007
306.375 29.9816 0 -189.921
314.33 29.9052 0 -190.572
-350.453 24.7618 0 -131.692
-20.7319 27.9848 0 -164.293
310.352 29.9439 0 -190.247
-20.7548 27.8547 0 -164.304
-20.7433 27.9201 0 -164.299
-346.456 24.8507 0 -132.007
-338.463 25.0267 0 -132.643
298.42 30.0542 0 -189.265
306.375 29.9816 0 -189.921
-342.46 24.9389 0 -132.325
-20.7095 28.1117 0 -164.283
302.397 30.0184 0 -189.593
-20.7319 27.9848 0 -164.293
-20.7206 28.0486 0 -164.288
-338.463 25.0267 0 -132.643
-330.472 25.2004 0 -133.283
290.465 30.123 0 -188.605
298.42 30.0542 0 -189.265
-334.467 25.1138 0 -132.962
-20.6876 28.2354 0 -164.273
294.442 30.0891 0 -188.935
-20.7095 28.1117 0 -164.283
-20.6985 28.174 0 -164.278
-330.472 25.2004 0 -133.283
-322.481 25.3718 0 -133.927
282.511 30.1879 0 -187.94
290.465 30.123 0 -188.605
-326.476 25.2864 0 -133.605
-20.6663 28.3561 0 -164.263
286.488 30.1559 0 -188.273
-20.6876 28.2354 0 -164.273
-20.6769 28.2962 0 -164.268
-322.481 25.3718 0 -133.927
-314.492 25.5409 0 -134.577
274.557 30.249 0 -187.272
282.511 30.1879 0 -187.94
-318.486 25.4566 0 -134.252
-20.6455 28.4736 0 -164.253
278.534 30.2189 0 -187.607
-20.6663 28.3561 0 -164.263
-20.6559 28.4152 0 -164.258
-314.492 25.5409 0 -134.577
-306.504 25.7076 0 -135.23
266.604 30.3062 0 -186.6
274.557 30.249 0 -187.272
-310.498 25.6245 0 -134.903
-20.6253 28.5879 0 -164.244
270.58 30.2781 0 -186.936
-20.6455 28.4736 0 -164.253
-20.6354 28.5311 0 -164.249
-306.504 25.7076 0 -135.23
-298.518 25.872 0 -135.888
258.651 30.3597 0 -185.923
266.604 30.3062 0 -186.6
-302.511 25.7901 0 -135.559
-20.6057 28.6991 0 -164.235
262.627 30.3334 0 -186.262
-20.6253 28.5879 0 -164.244
-20.6154 28.6439 0 -164.24
-298.518 25.872 0 -135.888
-290.533 26.034 0 -136.55
250.698 30.4094 0 -185.244
258.651 30.3597 0 -185.923
-294.525 25.9533 0 -136.219
-20.5866 28.8072 0 -164.226
254.674 30.385 0 -185.584
-20.6057 28.6991 0 -164.235
-20.5961 28.7535 0 -164.231
-290.533 26.034 0 -136.55
-282.549 26.1936 0 -137.216
242.746 30.4553 0 -184.56
250.698 30.4094 0 -185.244
-286.541 26.1141 0 -136.883
-20.568 28.9121 0 -164.217
246.722 30.4328 0 -184.902
-20.5866 28.8072 0 -164.226
-20.5772 28.86 0 -164.222
-282.549 26.1936 0 -137.216
-274.567 26.3507 0 -137.886
234.794 30.4975 0 -183.873
242.746 30.4553 0 -184.56
-278.558 26.2724 0 -137.551
-20.55 29.0138 0 -164.209
238.77 30.4769 0 -184.217
-20.568 28.9121 0 -164.217
-20.5589 28.9633 0 -164.213
-274.567 26.3507 0 -137.886
-266.585 26.5054 0 -138.56
226.842 30.5359 0 -183.183
234.794 30.4975 0 -183.873
-270.576 26.4284 0 -138.223
-20.5325 29.1124 0 -164.201
230.818 30.5172 0 -183.529
-20.55 29.0138 0 -164.209
-20.5412 29.0635 0 -164.205
-266.585 26.5054 0 -138.56
-258.605 26.6576 0 -139.238
218.89 30.5706 0 -182.49
226.842 30.5359 0 -183.183
-262.595 26.5818 0 -138.898
-20.5156 29.2078 0 -164.193
222.866 30.5537 0 -182.837
-20.5325 29.1124 0 -164.201
-20.524 29.1605 0 -164.197
-258.605 26.6576 0 -139.238
-250.626 26.8073 0 -139.919
210.939 30.6016 0 -181.793
218.89 30.5706 0 -182.49
-254.615 26.7327 0 -139.578
-20.4991 29.3 0 -164.185
214.915 30.5866 0 -182.142
-20.5156 29.2078 0 -164.193
-20.5073 29.2543 0 -164.189
-250.626 26.8073 0 -139.919
-242.648 26.9544 0 -140.604
202.988 30.6288 0 -181.094
210.939 30.6016 0 -181.793
-246.637 26.8811 0 -140.261
-20.4831 29.389 0 -164.178
206.964 30.6157 0 -181.444
-20.4991 29.3 0 -164.185
-20.4911 29.3449 0 -164.182
-242.648 26.9544 0 -140.604
-234.671 27.0989 0 -141.292
195.038 30.6524 0 -180.392
202.988 30.6288 0 -181.094
-238.659 27.027 0 -140.947
-20.4676 29.4748 0 -164.171
199.013 30.6411 0 -180.743
-20.4831 29.389 0 -164.178
-20.4753 29.4323 0 -164.174
-234.671 27.0989 0 -141.292
-226.695 27.2408 0 -141.983
187.088 30.6722 0 -179.687
195.038 30.6524 0 -180.392
-230.683 27.1702 0 -141.637
-20.4525 29.5573 0 -164.164
191.063 30.6627 0 -180.04
-20.4676 29.4748 0 -164.171
-20.46 29.5165 0 -164.167
-226.695 27.2408 0 -141.983
-218.72 27.3801 0 -142.677
179.138 30.6883 0 -178.979
187.088 30.6722 0 -179.687
-222.707 27.3108 0 -142.33
-20.4378 29.6367 0 -164.157
183.113 30.6807 0 -179.333
-20.4525 29.5573 0 -164.164
-20.4451 29.5974 0 -164.161
-218.72 27.3801 0 -142.677
-210.746 27.5168 0 -143.375
171.188 30.7008 0 -178.269
179.138 30.6883 0 -178.979
-214.733 27.4488 0 -143.026
-20.4233 29.7128 0 -164.151
175.163 30.695 0 -178.624
-20.4378 29.6367 0 -164.157
-20.4305 29.6751 0 -164.154
-210.746 27.5168 0 -143.375
-202.772 27.6509 0 -144.075
163.239 30.7097 0 -177.556
171.188 30.7008 0 -178.269
-206.759 27.5842 0 -143.725
-20.4091 29.7858 0 -164.145
167.213 30.7057 0 -177.913
-20.4233 29.7128 0 -164.151
-20.4162 29.7497 0 -164.148
-202.772 27.6509 0 -144.075
-194.799 27.7826 0 -144.778
155.29 30.7152 0 -176.842
163.239 30.7097 0 -177.556
-198.786 27.7171 0 -144.426
-20.3951 29.8559 0 -164.139
159.264 30.7129 0 -177.199
-20.4091 29.7858 0 -164.145
-20.4021 29.8212 0 -164.142
-194.799 27.7826 0 -144.778
-186.827 27.9122 0 -145.484
147.342 30.7175 0 -176.124
155.29 30.7152 0 -176.842
-190.813 27.8477 0 -145.131
-20.3813 29.9232 0 -164.133
151.316 30.7168 0 -176.483
-20.3951 29.8559 0 -164.139
-20.3882 29.8898 0 -164.136
-186.827 27.9122 0 -145.484
-178.856 28.0399 0 -146.192
139.394 30.7171 0 -175.405
147.342 30.7175 0 -176.124
-182.842 27.9762 0 -145.838
-20.3676 29.9882 0 -164.128
143.368 30.7176 0 -175.765
-20.3813 29.9232 0 -164.133
-20.3744 29.9559 0 -164.13
-178.856 28.0399 0 -146.192
-170.886 28.1665 0 -146.903
131.447 30.7145 0 -174.682
139.394 30.7171 0 -175.405
-174.871 28.1033 0 -146.547
-20.3544 30.0516 0 -164.122
135.421 30.716 0 -175.044
-20.3676 29.9882 0 -164.128
-20.361 30.0201 0 -164.125
-170.886 28.1665 0 -146.903
-162.917 28.2929 0 -147.616
123.5 30.711 0 -173.957
131.447 30.7145 0 -174.682
-166.901 28.2297 0 -147.259
-20.342 30.1145 0 -164.115
127.474 30.7128 0 -174.32
-20.3544 30.0516 0 -164.122
-20.3481 30.0831 0 -164.119
-162.917 28.2929 0 -147.616
-154.951 28.4201 0 -148.331
115.552 30.7083 0 -173.229
123.5 30.711 0 -173.957
-158.934 28.3563 0 -147.973
-20.3314 30.1784 0 -164.109
119.526 30.7094 0 -173.594
-20.342 30.1145 0 -164.115
-20.3364 30.1462 0 -164.112
-154.951 28.4201 0 -148.331
-146.987 28.5497 0 -149.051
107.602 30.7095 0 -172.499
115.552 30.7083 0 -173.229
-150.969 28.4845 0 -148.69
-20.324 30.2457 0 -164.104
111.578 30.7082 0 -172.864
-20.3314 30.1784 0 -164.109
-20.3272 30.2115 0 -164.106
-146.987 28.5497 0 -149.051
-139.029 28.6825 0 -149.778
99.6457 30.7199 0 -171.766
107.602 30.7095 0 -172.499
-143.007 28.6157 0 -149.413
-20.3227 30.3198 0 -164.102
103.625 30.713 0 -172.132
-20.324 30.2457 0 -164.104
-20.3224 30.2817 0 -164.102
-139.029 28.6825 0 -149.778
-131.075 28.8199 0 -150.518
91.6754 30.7473 0 -171.034
99.6457 30.7199 0 -171.766
-135.051 28.7506 0 -150.146
-20.3319 30.4057 0 -164.109
95.6632 30.7308 0 -171.399
-20.3227 30.3198 0 -164.102
-20.3256 30.3609 0 -164.104
-131.075 28.8199 0 -150.518
-123.128 28.9593 0 -151.286
83.6804 30.8075 0 -170.312
91.6754 30.7473 0 -171.034
-127.1 28.8897 0 -150.898
-20.3595 30.5105 0 -164.14
87.6813 30.772 0 -170.671
-20.3319 30.4057 0 -164.109
-20.3429 30.4552 0 -164.121
-123.128 28.9593 0 -151.286
-115.179 29.0987 0 -152.109
75.6288 30.921 0 -169.618
83.6804 30.8075 0 -170.312
-119.156 29.0294 0 -151.688
-20.4175 30.6445 0 -164.22
79.6652 30.8557 0 -169.96
-20.3595 30.5105 0 -164.14
-20.3836 30.5729 0 -164.171
-115.179 29.0987 0 -152.109
-107.229 29.2208 0 -153.035
67.4889 31.1312 0 -168.986
75.6288 30.921 0 -169.618
-111.202 29.1635 0 -152.555
-20.5254 30.8225 0 -164.402
71.5704 31.0106 0 -169.291
-20.4175 30.6445 0 -164.22
-20.4639 30.727 0 -164.295
-107.229 29.2208 0 -153.035
-99.2263 29.3184 0 -154.155
59.1549 31.4826 0 -168.484
67.4889 31.1312 0 -168.986
-103.242 29.2741 0 -153.562
-20.7125 31.0654 0 -164.774
63.3584 31.285 0 -168.713
-20.5254 30.8225 0 -164.402
-20.6062 30.9339 0 -164.554
-99.2263 29.3184 0 -154.155
-91.1721 29.3349 0 -155.605
50.5533 32.0793 0 -168.221
59.1549 31.4826 0 -168.484
-95.198 29.3399 0 -154.828
-21.022 31.4004 0 -165.486
54.8855 31.744 0 -168.313
-20.7125 31.0654 0 -164.774
-20.8497 31.2201 0 -165.08
-91.1721 29.3349 0 -155.605
-82.877 29.2949 0 -157.611
41.386 32.9581 0 -168.379
50.5533 32.0793 0 -168.221
-87.0835 29.3225 0 -156.518
-21.5114 31.8612 0 -166.755
46.078 32.4785 0 -168.233
-21.022 31.4004 0 -165.486
-21.2377 31.6115 0 -166.023
-82.877 29.2949 0 -157.611
-74.3993 29.0901 0 -160.418
31.5944 34.2739 0 -169.181
41.386 32.9581 0 -168.379
-78.6294 29.2093 0 -158.902
-22.245 32.4716 0 -168.852
36.5439 33.5643 0 -168.681
-21.5114 31.8612 0 -166.755
-21.8475 32.1498 0 -167.701
-74.3993 29.0901 0 -160.418
-65.2396 29.0654 0 -164.296
20.5622 35.6866 0 -170.887
31.5944 34.2739 0 -169.181
-69.9923 29.0362 0 -162.199
-23.2675 33.2232 0 -171.985
26.3291 34.9891 0 -169.907
-22.245 32.4716 0 -168.852
-22.7105 32.8273 0 -170.244
-65.2396 29.0654 0 -164.296
-55.9359 29.2527 0 -169.027
8.90275 36.9472 0 -173.457
20.5622 35.6866 0 -170.887
-60.4753 29.068 0 -166.61
-24.5169 33.9752 0 -175.945
14.6645 36.429 0 -172.075
-23.2675 33.2232 0 -171.985
-23.8881 33.6261 0 -173.971
-55.9359 29.2527 0 -169.027
-45.644 31.5655 0 -173.531
-3.81013 35.516 0 -176.204
8.90275 36.9472 0 -173.457
-51.1311 30.0421 0 -171.4
-25.6775 34.3317 0 -179.341
2.85373 36.7286 0 -174.905
-24.5169 33.9752 0 -175.945
-25.1141 34.221 0 -177.734
-45.644 31.5655 0 -173.531
-36.7135 36.5371 0 -173.935
-13.7342 29.1839 0 -176.172
-3.81013 35.516 0 -176.204
-40.5715 33.5256 0 -174.669
-25.9251 33.397 0 -178.482
-9.70712 33.3159 0 -176.807
-25.6775 34.3317 0 -179.341
-26.0373 34.1405 0 -180.011
-36.7135 36.5371 0 -173.935
-26.5548 47.8759 0 -163.529
-20.8268 11.4408 0 -167.394
-13.7342 29.1839 0 -176.172
-32.3984 41.6816 0 -170.532
-23.9891 29.867 0 -167.153
-17.2335 21.6723 0 -173.459
-25.9251 33.397 0 -178.482
-25.2376 31.9728 0 -174.174
-26.5548 47.8759 0 -163.529
-19.4962 56.223 0 -131.923
-16.5417 -12.1741 0 -139.185
-20.8268 11.4408 0 -167.394
-21.6257 52.7931 0 -151.163
-18.2399 22.1938 0 -137.422
-21.4081 0.203439 0 -156.336
-23.9891 29.867 0 -167.153
-21.8418 26.7812 0 -155.825
-19.4962 56.223 0 -131.923
-11.9651 64.7391 0 -72.7029
-1.80146 -46.2415 0 -83.5726
-16.5417 -12.1741 0 -139.185
-17.1776 59.9736 0 -105.823
-5.68512 9.45993 0 -75.931
-9.16477 -27.4597 0 -115.253
-18.2399 22.1938 0 -137.422
-12.944 16.0744 0 -110.784
1502.73 451.177 0 612.643
1467.75 239.127 0 201.446
4626.35 797.327 0 -21.053
4254.6 1271.85 0 387.403
1440.37 345.763 0 385.924
3044.1 517.318 0 115.155
4506.77 1017.21 0 141.038
2813.86 842.81 0 558.41
2976.97 703.348 0 274.156
1467.75 239.127 0 201.446
1549.47 134.412 0 -46.2103
4716.6 340.681 0 -151.421
4626.35 797.327 0 -21.053
1530.72 180.736 0 55.9468
3118.44 258.897 0 -84.6308
4666.66 552.339 0 -104.228
3044.1 517.318 0 115.155
3078.07 367.578 0 7.20762
1549.47 134.412 0 -46.2103
1555.51 40.7812 0 -159.352
4763.4 108.647 0 -180.184
4716.6 340.681 0 -151.421
1546.85 82.7107 0 -114.238
3157.26 90.9617 0 -172.692
4760.57 201.555 0 -175.832
3118.44 258.897 0 -84.6308
3148.14 166.784 0 -144.871
1555.51 40.7812 0 -159.352
1560.55 -3.57275 0 -200.607
4728.19 0.114219 0 -171.674
4763.4 108.647 0 -180.184
1565.04 14.8946 0 -186.772
3148.29 7.16324 0 -194.283
4744.22 41.5919 0 -175.246
3157.26 90.9617 0 -172.692
3155.44 39.5408 0 -185.943
1560.55 -3.57275 0 -200.607
1543.99 -27.0698 0 -206.144
4686 -32.3561 0 -166.805
4728.19 0.114219 0 -171.674
1550.21 -18.3414 0 -205.605
3119.85 -28.861 0 -193.929
4710.72 -21.3411 0 -169.292
3148.29 7.16324 0 -194.283
3135.8 -14.8862 0 -196.351
1543.99 -27.0698 0 -206.144
1530.01 -32.0791 0 -200.298
4636.84 -40.6601 0 -164.703
4686 -32.3561 0 -166.805
1538.59 -30.5762 0 -203.949
3086.81 -37.7641 0 -188.852
4659.09 -38.8189 0 -164.866
3119.85 -28.861 0 -193.929
3102.85 -35.6899 0 -190.892
1530.01 -32.0791 0 -200.298
1513.36 -32.7102 0 -192.384
4596.96 -37.0676 0 -166.6
4636.84 -40.6601 0 -164.703
1520.6 -32.9824 0 -196.15
3056.79 -37.1718 0 -184.598
4616.96 -39.3543 0 -165.556
3086.81 -37.7641 0 -188.852
3071.36 -38.0324 0 -186.746
1513.36 -32.7102 0 -192.384
1500.45 -30.4113 0 -186.366
4560.94 -32.2891 0 -169.583
4596.96 -37.0676 0 -166.6
1507.08 -31.5913 0 -189.103
3030.89 -33.2765 0 -182.376
4577.83 -34.7934 0 -167.882
3056.79 -37.1718 0 -184.598
3043.26 -35.4244 0 -183.098
1500.45 -30.4113 0 -186.366
1488.47 -28.3514 0 -182.603
4530.3 -27.5402 0 -173.41
4560.94 -32.2891 0 -169.583
1494.02 -29.4027 0 -184.188
3008.61 -29.4947 0 -181.908
4545.4 -29.7448 0 -171.498
3030.89 -33.2765 0 -182.376
3019.39 -31.2821 0 -182.013
1488.47 -28.3514 0 -182.603
1478.39 -26.3775 0 -180.783
4502.04 -24.1617 0 -177.314
4530.3 -27.5402 0 -173.41
1483.41 -27.292 0 -181.499
2988.86 -26.4106 0 -182.705
4515.78 -25.7287 0 -175.335
3008.61 -29.4947 0 -181.908
2998.48 -27.8583 0 -182.152
1478.39 -26.3775 0 -180.783
1468.99 -24.9116 0 -180.251
4475.79 -21.699 0 -181.263
4502.04 -24.1617 0 -177.314
1473.55 -25.6098 0 -180.385
2970.69 -24.1808 0 -184.264
4488.82 -22.8062 0 -179.305
2988.86 -26.4106 0 -182.705
2979.63 -25.196 0 -183.426
1468.99 -24.9116 0 -180.251
1460.29 -23.7088 0 -180.528
4450.41 -20.0295 0 -185.112
4475.79 -21.699 0 -181.263
1464.62 -24.2703 0 -180.317
2953.47 -22.5596 0 -186.262
4462.99 -20.7946 0 -183.195
2970.69 -24.1808 0 -184.264
2962 -23.308 0 -185.218
1460.29 -23.7088 0 -180.528
1451.85 -22.7528 0 -181.254
4425.62 -18.8108 0 -188.876
4450.41 -20.0295 0 -185.112
1456.03 -23.2114 0 -180.85
2936.78 -21.3629 0 -188.472
4437.98 -19.3706 0 -187.009
2953.47 -22.5596 0 -186.262
2945.08 -21.9185 0 -187.353
1451.85 -22.7528 0 -181.254
1443.63 -21.9254 0 -182.216
4401.07 -17.8889 0 -192.539
4425.62 -18.8108 0 -188.876
1447.73 -22.3236 0 -181.716
2920.36 -20.4198 0 -190.772
4413.32 -18.3243 0 -190.719
2936.78 -21.3629 0 -188.472
2928.54 -20.8672 0 -189.615
1443.63 -21.9254 0 -182.216
1435.5 -21.1912 0 -183.285
4376.67 -17.1228 0 -196.113
4401.07 -17.8889 0 -192.539
1439.55 -21.5505 0 -182.742
2904.08 -19.6285 0 -193.088
4388.86 -17.4901 0 -194.337
2920.36 -20.4198 0 -190.772
2912.21 -20.0097 0 -191.931
1435.5 -21.1912 0 -183.285
1427.43 -20.5073 0 -184.394
4352.31 -16.4472 0 -199.601
4376.67 -17.1228 0 -196.113
1431.46 -20.8437 0 -183.837
2887.87 -18.9216 0 -195.386
4364.48 -16.7774 0 -197.867
2904.08 -19.6285 0 -193.088
2895.97 -19.2673 0 -194.24
1427.43 -20.5073 0 -184.394
1419.38 -19.8575 0 -185.507
4327.98 -15.8166 0 -203.012
4352.31 -16.4472 0 -199.601
1423.4 -20.1793 0 -184.951
2871.69 -18.2623 0 -197.647
4340.15 -16.1276 0 -201.316
2887.87 -18.9216 0 -195.386
2879.78 -18.5875 0 -196.522
1419.38 -19.8575 0 -185.507
1411.35 -19.2278 0 -186.608
4303.66 -15.2102 0 -206.348
4327.98 -15.8166 0 -203.012
1415.36 -19.5405 0 -186.06
2855.53 -17.629 0 -199.866
4315.82 -15.5114 0 -204.689
2871.69 -18.2623 0 -197.647
2863.61 -17.9432 0 -198.762
1411.35 -19.2278 0 -186.608
1403.32 -18.6122 0 -187.69
4279.34 -14.6152 0 -209.615
4303.66 -15.2102 0 -206.348
1407.33 -18.9186 0 -187.152
2839.37 -17.0105 0 -202.041
4291.5 -14.9116 0 -207.99
2855.53 -17.629 0 -199.866
2847.45 -17.3183 0 -200.959
1403.32 -18.6122 0 -187.69
1395.3 -18.0061 0 -188.75
4255.01 -14.0262 0 -212.814
4279.34 -14.6152 0 -209.615
1399.31 -18.3081 0 -188.223
2823.21 -16.4007 0 -204.17
4267.18 -14.3203 0 -211.223
2839.37 -17.0105 0 -202.041
2831.29 -16.7048 0 -203.111
1395.3 -18.0061 0 -188.75
1387.28 -17.407 0 -189.789
4230.68 -13.4399 0 -215.948
4255.01 -14.0262 0 -212.814
1391.29 -17.7058 0 -189.272
2807.05 -15.7962 0 -206.256
4242.85 -13.7328 0 -214.389
2823.21 -16.4007 0 -204.17
2815.13 -16.0979 0 -205.219
1387.28 -17.407 0 -189.789
1379.26 -16.8133 0 -190.805
4206.35 -12.8548 0 -219.019
4230.68 -13.4399 0 -215.948
1383.27 -17.1095 0 -190.299
2790.89 -15.1954 0 -208.298
4218.52 -13.1472 0 -217.491
2807.05 -15.7962 0 -206.256
2798.97 -15.4954 0 -207.282
1379.26 -16.8133 0 -190.805
1371.24 -16.2239 0 -191.799
4182.01 -12.2702 0 -222.027
4206.35 -12.8548 0 -219.019
1375.25 -16.5181 0 -191.305
2774.72 -14.597 0 -210.299
4194.18 -12.5624 0 -220.531
2790.89 -15.1954 0 -208.298
2782.81 -14.8959 0 -209.304
1371.24 -16.2239 0 -191.799
1363.21 -15.638 0 -192.773
4157.68 -11.6858 0 -224.973
4182.01 -12.2702 0 -222.027
1367.23 -15.9306 0 -192.289
2758.56 -14.0007 0 -212.258
4169.85 -11.978 0 -223.508
2774.72 -14.597 0 -210.299
2766.64 -14.2986 0 -211.283
1363.21 -15.638 0 -192.773
1355.19 -15.0553 0 -193.725
4133.33 -11.1014 0 -227.859
4157.68 -11.6858 0 -224.973
1359.2 -15.3463 0 -193.252
2742.39 -13.406 0 -214.176
4145.5 -11.3936 0 -226.423
2758.56 -14.0007 0 -212.258
2750.47 -13.7031 0 -213.222
1355.19 -15.0553 0 -193.725
1347.17 -14.4753 0 -194.658
4108.99 -10.517 0 -230.684
4133.33 -11.1014 0 -227.859
1351.18 -14.765 0 -194.194
2726.22 -12.8127 0 -216.053
4121.16 -10.8092 0 -229.279
2742.39 -13.406 0 -214.176
2734.31 -13.1092 0 -215.12
1347.17 -14.4753 0 -194.658
1339.14 -13.8979 0 -195.57
4084.64 -9.93269 0 -233.449
4108.99 -10.517 0 -230.684
1343.15 -14.1863 0 -195.116
2710.05 -12.2209 0 -217.891
4096.82 -10.2248 0 -232.074
2726.22 -12.8127 0 -216.053
2718.14 -12.5166 0 -216.977
1339.14 -13.8979 0 -195.57
1331.11 -13.323 0 -196.462
4060.29 -9.34848 0 -236.155
4084.64 -9.93269 0 -233.449
1335.13 -13.6102 0 -196.018
2693.88 -11.6304 0 -219.689
4072.47 -9.64056 0 -234.81
2710.05 -12.2209 0 -217.891
2701.96 -11.9254 0 -218.795
1331.11 -13.323 0 -196.462
1323.09 -12.7506 0 -197.334
4035.94 -8.76452 0 -238.802
4060.29 -9.34848 0 -236.155
1327.1 -13.0365 0 -196.901
2677.7 -11.0413 0 -221.448
4048.12 -9.05646 0 -237.486
2693.88 -11.6304 0 -219.689
2685.79 -11.3357 0 -220.573
1323.09 -12.7506 0 -197.334
1315.06 -12.1805 0 -198.187
4011.59 -8.18094 0 -241.391
4035.94 -8.76452 0 -238.802
1319.07 -12.4652 0 -197.763
2661.52 -10.4537 0 -223.167
4023.77 -8.47267 0 -240.104
2677.7 -11.0413 0 -221.448
2669.61 -10.7473 0 -222.312
1315.06 -12.1805 0 -198.187
1307.03 -11.6129 0 -199.02
3987.24 -7.5979 0 -243.921
4011.59 -8.18094 0 -241.391
1311.04 -11.8964 0 -198.606
2645.35 -9.86762 0 -224.848
3999.41 -7.88935 0 -242.663
2661.52 -10.4537 0 -223.167
2653.44 -10.1604 0 -224.012
1307.03 -11.6129 0 -199.02
1298.99 -11.0478 0 -199.833
3962.88 -7.01555 0 -246.393
3987.24 -7.5979 0 -243.921
1303.01 -11.33 0 -199.429
2629.17 -9.28322 0 -226.49
3975.06 -7.30663 0 -245.164
2645.35 -9.86762 0 -224.848
2637.26 -9.57521 0 -225.674
1298.99 -11.0478 0 -199.833
1290.96 -10.4852 0 -200.627
3938.53 -6.43405 0 -248.808
3962.88 -7.01555 0 -246.393
1294.98 -10.7662 0 -200.233
2612.99 -8.70057 0 -228.093
3950.71 -6.72468 0 -247.608
2629.17 -9.28322 0 -226.49
2621.08 -8.99167 0 -227.296
1290.96 -10.4852 0 -200.627
1282.93 -9.92522 0 -201.402
3914.17 -5.85356 0 -251.166
3938.53 -6.43405 0 -248.808
1286.95 -10.2049 0 -201.017
2596.81 -8.11979 0 -229.659
3926.35 -6.14367 0 -249.994
2612.99 -8.70057 0 -228.093
2604.9 -8.40994 0 -228.881
1282.93 -9.92522 0 -201.402
1274.9 -9.36787 0 -202.158
3889.81 -5.27424 0 -253.467
3914.17 -5.85356 0 -251.166
1278.91 -9.64621 0 -201.783
2580.62 -7.54098 0 -231.186
3901.99 -5.56375 0 -252.324
2596.81 -8.11979 0 -229.659
2588.72 -7.83014 0 -230.427
1274.9 -9.36787 0 -202.158
1266.86 -8.81322 0 -202.895
3865.46 -4.69625 0 -255.711
3889.81 -5.27424 0 -253.467
1270.88 -9.0902 0 -202.529
2564.44 -6.96425 0 -232.676
3877.64 -4.98507 0 -254.596
2580.62 -7.54098 0 -231.186
2572.53 -7.25235 0 -231.936
1266.86 -8.81322 0 -202.895
1258.83 -8.26132 0 -203.613
3841.1 -4.11974 0 -257.9
3865.46 -4.69625 0 -255.711
1262.84 -8.53692 0 -203.256
2548.26 -6.38971 0 -234.128
3853.28 -4.4078 0 -256.813
2564.44 -6.96425 0 -232.676
2556.35 -6.6767 0 -233.407
1258.83 -8.26132 0 -203.613
1250.79 -7.71223 0 -204.312
3816.74 -3.54486 0 -260.032
3841.1 -4.11974 0 -257.9
1254.81 -7.98642 0 -203.965
2532.08 -5.81744 0 -235.543
3828.92 -3.83209 0 -258.973
2548.26 -6.38971 0 -234.128
2540.17 -6.10328 0 -234.841
1250.79 -7.71223 0 -204.312
1242.75 -7.16599 0 -204.993
3792.38 -2.97176 0 -262.11
3816.74 -3.54486 0 -260.032
1246.77 -7.43875 0 -204.655
2515.89 -5.24756 0 -236.922
3804.56 -3.25808 0 -261.078
2532.08 -5.81744 0 -235.543
2523.98 -5.5322 0 -236.237
1242.75 -7.16599 0 -204.993
1234.72 -6.62267 0 -205.655
3768.03 -2.40058 0 -264.132
3792.38 -2.97176 0 -262.11
1238.74 -6.89396 0 -205.327
2499.71 -4.68016 0 -238.263
3780.2 -2.68592 0 -263.128
2515.89 -5.24756 0 -236.922
2507.8 -4.96354 0 -237.597
1234.72 -6.62267 0 -205.655
1226.68 -6.0823 0 -206.299
3743.67 -1.83147 0 -266.1
3768.03 -2.40058 0 -264.132
1230.7 -6.35211 0 -205.98
2483.52 -4.11534 0 -239.568
3755.85 -2.11576 0 -265.123
2499.71 -4.68016 0 -238.263
2491.62 -4.39742 0 -238.92
1226.68 -6.0823 0 -206.299
1218.64 -5.54493 0 -206.925
3719.31 -1.26457 0 -268.013
3743.67 -1.83147 0 -266.1
1222.66 -5.81324 0 -206.614
2467.34 -3.55319 0 -240.837
3731.49 -1.54774 0 -267.063
2483.52 -4.11534 0 -239.568
2475.43 -3.83392 0 -240.207
1218.64 -5.54493 0 -206.925
1210.6 -5.01061 0 -207.533
3694.95 -0.700001 0 -269.872
3719.31 -1.26457 0 -268.013
1214.62 -5.27739 0 -207.231
2451.16 -2.99379 0 -242.069
3707.13 -0.981984 0 -268.949
2467.34 -3.55319 0 -240.837
2459.25 -3.27314 0 -241.457
1210.6 -5.01061 0 -207.533
1202.57 -4.47939 0 -208.122
3670.6 -0.137906 0 -271.678
3694.95 -0.700001 0 -269.872
1206.59 -4.74461 0 -207.83
2434.97 -2.43725 0 -243.266
3682.78 -0.418636 0 -270.782
2451.16 -2.99379 0 -242.069
2443.06 -2.71516 0 -242.672
1202.57 -4.47939 0 -208.122
1194.53 -3.95131 0 -208.694
3646.24 0.421587 0 -273.431
3670.6 -0.137906 0 -271.678
1198.55 -4.21495 0 -208.41
2418.79 -1.88364 0 -244.428
3658.42 0.142174 0 -272.561
2434.97 -2.43725 0 -243.266
2426.88 -2.16007 0 -243.851
1194.53 -3.95131 0 -208.694
1186.49 -3.4264 0 -209.248
3621.89 0.978351 0 -275.13
3646.24 0.421587 0 -273.431
1190.51 -3.68845 0 -208.973
2402.61 -1.33305 0 -245.554
3634.07 0.700318 0 -274.287
2418.79 -1.88364 0 -244.428
2410.7 -1.60796 0 -244.995
1186.49 -3.4264 0 -209.248
1178.45 -2.90472 0 -209.784
3597.54 1.53226 0 -276.777
3621.89 0.978351 0 -275.13
1182.47 -3.16515 0 -209.518
2386.42 -0.785565 0 -246.645
3609.71 1.25567 0 -275.96
2402.61 -1.33305 0 -245.554
2394.51 -1.05892 0 -246.104
1178.45 -2.90472 0 -209.784
1170.41 -2.3863 0 -210.303
3573.19 2.08319 0 -278.372
3597.54 1.53226 0 -276.777
1174.43 -2.6451 0 -210.046
2370.24 -0.241264 0 -247.701
3585.36 1.80811 0 -277.581
2386.42 -0.785565 0 -246.645
2378.33 -0.513012 0 -247.177
1170.41 -2.3863 0 -210.303
1162.37 -1.87118 0 -210.805
3548.84 2.63103 0 -279.916
3573.19 2.08319 0 -278.372
1166.39 -2.12832 0 -210.556
2354.06 0.299773 0 -248.723
3561.01 2.35751 0 -279.15
2370.24 -0.241264 0 -247.701
2362.15 0.0296676 0 -248.216
1162.37 -1.87118 0 -210.805
1154.34 -1.3594 0 -211.289
3524.49 3.17566 0 -281.408
3548.84 2.63103 0 -279.916
1158.36 -1.61487 0 -211.049
2337.88 0.837468 0 -249.71
3536.66 2.90375 0 -280.668
2354.06 0.299773 0 -248.723
2345.97 0.569043 0 -249.221
1154.34 -1.3594 0 -211.289
1146.3 -0.851 0 -211.756
3500.14 3.71696 0 -282.848
3524.49 3.17566 0 -281.408
1150.32 -1.10477 0 -211.525
2321.7 1.37175 0 -250.663
3512.31 3.44673 0 -282.134
2337.88 0.837468 0 -249.71
2329.79 1.10504 0 -250.191
1146.3 -0.851 0 -211.756
1138.26 -0.346017 0 -212.207
3475.8 4.25482 0 -284.238
3500.14 3.71696 0 -282.848
1142.28 -0.598079 0 -211.984
2305.52 1.90253 0 -251.583
3487.97 3.98632 0 -283.55
2321.7 1.37175 0 -250.663
2313.61 1.63758 0 -251.127
1138.26 -0.346017 0 -212.207
1130.22 0.155514 0 -212.64
3451.45 4.78913 0 -285.578
3475.8 4.25482 0 -284.238
1134.24 -0.0948174 0 -212.425
2289.34 2.42975 0 -252.469
3463.62 4.52242 0 -284.915
2305.52 1.90253 0 -251.583
2297.43 2.16659 0 -252.03
1130.22 0.155514 0 -212.64
1122.18 0.653558 0 -213.057
3427.11 5.31978 0 -286.868
3451.45 4.78913 0 -285.578
1126.2 0.404974 0 -212.85
2273.16 2.95333 0 -253.321
3439.28 5.05492 0 -286.229
2289.34 2.42975 0 -252.469
2281.25 2.692 0 -252.899
1122.18 0.653558 0 -213.057
1114.14 1.14808 0 -213.457
3402.77 5.84668 0 -288.108
3427.11 5.31978 0 -286.868
1118.16 0.90126 0 -213.259
2256.99 3.4732 0 -254.141
3414.94 5.58371 0 -287.494
2273.16 2.95333 0 -253.321
2265.07 3.21374 0 -253.735
1114.14 1.14808 0 -213.457
1106.11 1.63904 0 -213.84
3378.44 6.36971 0 -289.299
3402.77 5.84668 0 -288.108
1110.13 1.39401 0 -213.65
2240.81 3.98931 0 -254.927
3390.6 6.10868 0 -288.71
2256.99 3.4732 0 -254.141
2248.9 3.73173 0 -254.538
1106.11 1.63904 0 -213.84
1098.07 2.12642 0 -214.207
3354.1 6.88878 0 -290.441
3378.44 6.36971 0 -289.299
1102.09 1.88318 0 -214.026
2224.64 4.50156 0 -255.681
3366.27 6.62975 0 -289.876
2240.81 3.98931 0 -254.927
2232.72 4.24592 0 -255.308
1098.07 2.12642 0 -214.207
1090.03 2.61017 0 -214.558
3329.77 7.40379 0 -291.534
3354.1 6.88878 0 -290.441
1094.05 2.36875 0 -214.385
2208.46 5.00992 0 -256.403
3341.94 7.1468 0 -290.994
2224.64 4.50156 0 -255.681
2216.55 4.75623 0 -256.046
1090.03 2.61017 0 -214.558
1082 3.09027 0 -214.893
3305.44 7.91464 0 -292.58
3329.77 7.40379 0 -291.534
1086.01 2.85068 0 -214.728
2192.29 5.5143 0 -257.092
3317.6 7.65974 0 -292.063
2208.46 5.00992 0 -256.403
2200.38 5.26261 0 -256.752
1082 3.09027 0 -214.893
1073.96 3.56669 0 -215.212
3281.11 8.42125 0 -293.577
3305.44 7.91464 0 -292.58
1077.98 3.32894 0 -215.054
2176.12 6.01465 0 -257.75
3293.28 8.16848 0 -293.085
2192.29 5.5143 0 -257.092
2184.21 5.76498 0 -257.425
1073.96 3.56669 0 -215.212
1065.92 4.03939 0 -215.515
3256.79 8.92351 0 -294.527
3281.11 8.42125 0 -293.577
1069.94 3.8035 0 -215.365
2159.95 6.51091 0 -258.376
3268.95 8.67293 0 -294.058
2176.12 6.01465 0 -257.75
2168.04 6.2633 0 -258.067
1065.92 4.03939 0 -215.515
1057.89 4.50835 0 -215.802
3232.47 9.42135 0 -295.43
3256.79 8.92351 0 -294.527
1061.9 4.27434 0 -215.66
2143.79 7.00302 0 -258.97
3244.63 9.17299 0 -294.985
2159.95 6.51091 0 -258.376
2151.87 6.75749 0 -258.677
1057.89 4.50835 0 -215.802
1049.85 4.97354 0 -216.073
3208.15 9.91467 0 -296.287
3232.47 9.42135 0 -295.43
1053.87 4.74142 0 -215.939
2127.62 7.49093 0 -259.534
3220.31 9.66858 0 -295.864
2143.79 7.00302 0 -258.97
2135.7 7.2475 0 -259.256
1049.85 4.97354 0 -216.073
1041.82 5.43493 0 -216.329
3183.83 10.4034 0 -297.097
3208.15 9.91467 0 -296.287
1045.83 5.20471 0 -216.203
2111.46 7.97457 0 -260.066
3195.99 10.1596 0 -296.697
2127.62 7.49093 0 -259.534
2119.54 7.73328 0 -259.804
1041.82 5.43493 0 -216.329
1033.78 5.89249 0 -216.57
3159.52 10.8874 0 -297.86
3183.83 10.4034 0 -297.097
1037.8 5.66419 0 -216.452
2095.3 8.45389 0 -260.568
3171.68 10.646 0 -297.484
2111.46 7.97457 0 -260.066
2103.38 8.21477 0 -260.321
1033.78 5.89249 0 -216.57
1025.75 6.3462 0 -216.795
3135.21 11.3667 0 -298.579
3159.52 10.8874 0 -297.86
1029.77 6.11983 0 -216.685
2079.14 8.92884 0 -261.039
3147.37 11.1277 0 -298.225
2095.3 8.45389 0 -260.568
2087.22 8.69191 0 -260.807
1025.75 6.3462 0 -216.795
1017.72 6.79604 0 -217.006
3110.91 11.8412 0 -299.252
3135.21 11.3667 0 -298.579
1021.73 6.57161 0 -216.903
2062.98 9.39937 0 -261.48
3123.06 11.6046 0 -298.921
2079.14 8.92884 0 -261.039
2071.06 9.16466 0 -261.264
1017.72 6.79604 0 -217.006
1009.68 7.24197 0 -217.201
3086.6 12.3107 0 -299.88
3110.91 11.8412 0 -299.252
1013.7 7.01949 0 -217.105
2046.82 9.86543 0 -261.892
3098.75 12.0766 0 -299.571
2062.98 9.39937 0 -261.48
2054.9 9.63296 0 -261.69
1009.68 7.24197 0 -217.201
1001.65 7.68398 0 -217.381
3062.3 12.7753 0 -300.463
3086.6 12.3107 0 -299.88
1005.67 7.46347 0 -217.293
2030.67 10.327 0 -262.273
3074.45 12.5436 0 -300.177
2046.82 9.86543 0 -261.892
2038.74 10.0968 0 -262.086
1001.65 7.68398 0 -217.381
993.62 8.12203 0 -217.547
3038.01 13.2348 0 -301.003
3062.3 12.7753 0 -300.463
997.636 7.9035 0 -217.466
2014.51 10.7839 0 -262.625
3050.16 13.0057 0 -300.738
2030.67 10.327 0 -262.273
2022.59 10.556 0 -262.453
993.62 8.12203 0 -217.547
985.59 8.55612 0 -217.698
3013.72 13.6892 0 -301.498
3038.01 13.2348 0 -301.003
989.605 8.33958 0 -217.624
1998.36 11.2363 0 -262.948
3025.86 13.4626 0 -301.256
2014.51 10.7839 0 -262.625
2006.44 11.0107 0 -262.79
985.59 8.55612 0 -217.698
977.56 8.98621 0 -217.835
2989.43 14.1384 0 -301.95
3013.72 13.6892 0 -301.498
981.575 8.77167 0 -217.768
1982.21 11.684 0 -263.242
3001.57 13.9144 0 -301.73
1998.36 11.2363 0 -262.948
1990.29 11.4607 0 -263.098
977.56 8.98621 0 -217.835
969.531 9.41229 0 -217.957
2965.14 14.5823 0 -302.359
2989.43 14.1384 0 -301.95
973.545 9.19976 0 -217.897
1966.07 12.127 0 -263.507
2977.29 14.361 0 -302.16
1982.21 11.684 0 -263.242
1974.14 11.9061 0 -263.378
969.531 9.41229 0 -217.957
961.502 9.83434 0 -218.065
2940.86 15.0209 0 -302.725
2965.14 14.5823 0 -302.359
965.516 9.62382 0 -218.012
1949.92 12.5653 0 -263.743
2953 14.8023 0 -302.547
1966.07 12.127 0 -263.507
1957.99 12.3468 0 -263.629
961.502 9.83434 0 -218.065
953.475 10.2523 0 -218.158
2916.58 15.4542 0 -303.049
2940.86 15.0209 0 -302.725
957.488 10.0438 0 -218.113
1933.78 12.9988 0 -263.952
2928.72 15.2382 0 -302.892
1949.92 12.5653 0 -263.743
1941.85 12.7826 0 -263.851
953.475 10.2523 0 -218.158
945.448 10.6662 0 -218.238
2892.31 15.882 0 -303.331
2916.58 15.4542 0 -303.049
949.461 10.4598 0 -218.2
1917.64 13.4274 0 -264.132
2904.45 15.6688 0 -303.195
1933.78 12.9988 0 -263.952
1925.71 13.2137 0 -264.045
945.448 10.6662 0 -218.238
937.422 11.0761 0 -218.304
2868.04 16.3043 0 -303.571
2892.31 15.882 0 -303.331
941.435 10.8717 0 -218.273
1901.5 13.8513 0 -264.284
2880.18 16.0938 0 -303.456
1917.64 13.4274 0 -264.132
1909.57 13.64 0 -264.212
937.422 11.0761 0 -218.304
929.396 11.4818 0 -218.356
2843.78 16.7211 0 -303.769
2868.04 16.3043 0 -303.571
933.409 11.2794 0 -218.332
1885.37 14.2702 0 -264.409
2855.91 16.5134 0 -303.675
1901.5 13.8513 0 -264.284
1893.44 14.0613 0 -264.35
929.396 11.4818 0 -218.356
921.372 11.8834 0 -218.394
2819.51 17.1323 0 -303.927
2843.78 16.7211 0 -303.769
925.384 11.6831 0 -218.377
1869.23 14.6842 0 -264.507
2831.65 16.9274 0 -303.853
1885.37 14.2702 0 -264.409
1877.3 14.4778 0 -264.462
921.372 11.8834 0 -218.394
913.348 12.2808 0 -218.419
2795.26 17.5378 0 -304.044
2819.51 17.1323 0 -303.927
917.36 12.0826 0 -218.408
1853.1 15.0932 0 -264.578
2807.39 17.3357 0 -303.991
1869.23 14.6842 0 -264.507
1861.17 14.8893 0 -264.546
913.348 12.2808 0 -218.419
905.325 12.6741 0 -218.431
2771 17.9376 0 -304.121
2795.26 17.5378 0 -304.044
909.337 12.478 0 -218.426
1836.98 15.4973 0 -264.622
2783.13 17.7384 0 -304.088
1853.1 15.0932 0 -264.578
1845.04 15.2959 0 -264.603
905.325 12.6741 0 -218.431
897.304 13.0632 0 -218.429
2746.75 18.3317 0 -304.158
2771 17.9376 0 -304.121
901.314 12.8692 0 -218.431
1820.85 15.8963 0 -264.639
2758.88 18.1354 0 -304.145
1836.98 15.4973 0 -264.622
1828.91 15.6974 0 -264.634
897.304 13.0632 0 -218.429
889.283 13.4482 0 -218.414
2722.51 18.7201 0 -304.156
2746.75 18.3317 0 -304.158
893.293 13.2562 0 -218.423
1804.73 16.2903 0 -264.63
2734.63 18.5266 0 -304.162
1820.85 15.8963 0 -264.639
1812.79 16.0939 0 -264.638
889.283 13.4482 0 -218.414
881.263 13.8289 0 -218.386
2698.27 19.1025 0 -304.114
2722.51 18.7201 0 -304.156
885.272 13.6391 0 -218.401
1788.61 16.6792 0 -264.595
2710.39 18.912 0 -304.14
1804.73 16.2903 0 -264.63
1796.67 16.4854 0 -264.615
881.263 13.8289 0 -218.386
873.243 14.2054 0 -218.345
2674.03 19.4792 0 -304.034
2698.27 19.1025 0 -304.114
877.253 14.0177 0 -218.367
1772.49 17.063 0 -264.534
2686.15 19.2916 0 -304.079
1788.61 16.6792 0 -264.595
1780.55 16.8717 0 -264.567
873.243 14.2054 0 -218.345
865.225 14.5777 0 -218.291
2649.8 19.8499 0 -303.915
2674.03 19.4792 0 -304.034
869.234 14.3921 0 -218.319
1756.37 17.4416 0 -264.447
2661.92 19.6652 0 -303.979
1772.49 17.063 0 -264.534
1764.43 17.2529 0 -264.493
865.225 14.5777 0 -218.291
857.208 14.9458 0 -218.225
2625.57 20.2146 0 -303.758
2649.8 19.8499 0 -303.915
861.216 14.7623 0 -218.259
1740.26 17.8151 0 -264.335
2637.69 20.033 0 -303.841
1756.37 17.4416 0 -264.447
1748.32 17.629 0 -264.394
857.208 14.9458 0 -218.225
849.191 15.3096 0 -218.146
2601.35 20.5734 0 -303.563
2625.57 20.2146 0 -303.758
853.2 15.1282 0 -218.187
1724.15 18.1834 0 -264.198
2613.46 20.3948 0 -303.665
1740.26 17.8151 0 -264.335
1732.2 17.9999 0 -264.27
849.191 15.3096 0 -218.146
841.176 15.6691 0 -218.054
2577.13 20.9262 0 -303.331
2601.35 20.5734 0 -303.563
845.184 15.4899 0 -218.101
1708.04 18.5466 0 -264.036
2589.24 20.7506 0 -303.452
1724.15 18.1834 0 -264.198
1716.09 18.3657 0 -264.12
841.176 15.6691 0 -218.054
833.162 16.0244 0 -217.951
2552.92 21.2729 0 -303.062
2577.13 20.9262 0 -303.331
837.169 15.8473 0 -218.004
1691.94 18.9045 0 -263.849
2565.02 21.1003 0 -303.201
1708.04 18.5466 0 -264.036
1699.99 18.7262 0 -263.946
833.162 16.0244 0 -217.951
825.148 16.3754 0 -217.835
2528.71 21.6136 0 -302.757
2552.92 21.2729 0 -303.062
829.155 16.2004 0 -217.894
1675.83 19.2571 0 -263.638
2540.81 21.444 0 -302.914
1691.94 18.9045 0 -263.849
1683.88 19.0815 0 -263.747
825.148 16.3754 0 -217.835
817.136 16.7221 0 -217.707
2504.5 21.9481 0 -302.415
2528.71 21.6136 0 -302.757
821.142 16.5493 0 -217.772
1659.73 19.6045 0 -263.403
2516.6 21.7816 0 -302.59
1675.83 19.2571 0 -263.638
1667.78 19.4315 0 -263.523
817.136 16.7221 0 -217.707
809.124 17.0645 0 -217.567
2480.3 22.2765 0 -302.037
2504.5 21.9481 0 -302.415
813.13 16.8939 0 -217.638
1643.64 19.9467 0 -263.144
2492.4 22.1131 0 -302.23
1659.73 19.6045 0 -263.403
1651.68 19.7763 0 -263.276
809.124 17.0645 0 -217.567
801.114 17.4026 0 -217.415
2456.11 22.5988 0 -301.623
2480.3 22.2765 0 -302.037
805.119 17.2341 0 -217.492
1627.54 20.2835 0 -262.861
2468.2 22.4385 0 -301.834
1643.64 19.9467 0 -263.144
1635.59 20.1157 0 -263.005
801.114 17.4026 0 -217.415
793.105 17.7364 0 -217.252
2431.91 22.9149 0 -301.174
2456.11 22.5988 0 -301.623
797.109 17.5701 0 -217.335
1611.45 20.615 0 -262.554
2444.01 22.7576 0 -301.403
1627.54 20.2835 0 -262.861
1619.5 20.4499 0 -262.71
793.105 17.7364 0 -217.252
785.096 18.0659 0 -217.077
2407.73 23.2248 0 -300.691
2431.91 22.9149 0 -301.174
789.1 17.9017 0 -217.166
1595.36 20.9412 0 -262.225
2419.82 23.0707 0 -300.937
1611.45 20.615 0 -262.554
1603.4 20.7788 0 -262.392
785.096 18.0659 0 -217.077
777.089 18.3911 0 -216.89
2383.54 23.5285 0 -300.173
2407.73 23.2248 0 -300.691
781.093 18.229 0 -216.985
1579.27 21.2621 0 -261.872
2395.64 23.3775 0 -300.436
1595.36 20.9412 0 -262.225
1587.32 21.1023 0 -262.051
777.089 18.3911 0 -216.89
769.083 18.7119 0 -216.693
2359.37 23.826 0 -299.62
2383.54 23.5285 0 -300.173
773.086 18.552 0 -216.793
1563.19 21.5776 0 -261.497
2371.46 23.678 0 -299.901
1579.27 21.2621 0 -261.872
1571.23 21.4205 0 -261.687
769.083 18.7119 0 -216.693
761.077 19.0284 0 -216.484
2335.19 24.1172 0 -299.034
2359.37 23.826 0 -299.62
765.08 18.8707 0 -216.59
1547.11 21.8878 0 -261.099
2347.28 23.9724 0 -299.332
1563.19 21.5776 0 -261.497
1555.15 21.7334 0 -261.301
761.077 19.0284 0 -216.484
753.073 19.3406 0 -216.264
2311.03 24.4021 0 -298.415
2335.19 24.1172 0 -299.034
757.075 19.185 0 -216.375
1531.03 22.1926 0 -260.679
2323.11 24.2604 0 -298.729
1547.11 21.8878 0 -261.099
1539.07 22.0409 0 -260.892
753.073 19.3406 0 -216.264
745.07 19.6484 0 -216.033
2286.86 24.6808 0 -297.762
2311.03 24.4021 0 -298.415
749.071 19.495 0 -216.149
1514.96 22.4921 0 -260.237
2298.94 24.5422 0 -298.093
1531.03 22.1926 0 -260.679
1522.99 22.343 0 -260.461
745.07 19.6484 0 -216.033
737.068 19.9519 0 -215.791
2262.7 24.9532 0 -297.077
2286.86 24.6808 0 -297.762
741.069 19.8007 0 -215.913
1498.88 22.7861 0 -259.773
2274.78 24.8178 0 -297.423
1514.96 22.4921 0 -260.237
1506.92 22.6398 0 -260.008
737.068 19.9519 0 -215.791
729.067 20.251 0 -215.538
2238.55 25.2193 0 -296.359
2262.7 24.9532 0 -297.077
733.067 20.102 0 -215.666
1482.81 23.0748 0 -259.288
2250.63 25.087 0 -296.722
1498.88 22.7861 0 -259.773
1490.85 22.9311 0 -259.533
729.067 20.251 0 -215.538
721.067 20.5458 0 -215.275
2214.4 25.479 0 -295.609
2238.55 25.2193 0 -296.359
725.067 20.3989 0 -215.408
1466.75 23.3581 0 -258.781
2226.47 25.3499 0 -295.988
1482.81 23.0748 0 -259.288
1474.78 23.2171 0 -259.037
721.067 20.5458 0 -215.275
713.068 20.8362 0 -215.001
2190.26 25.7325 0 -294.828
2214.4 25.479 0 -295.609
717.067 20.6915 0 -215.139
1450.68 23.6359 0 -258.253
2202.33 25.6066 0 -295.222
1466.75 23.3581 0 -258.781
1458.72 23.4977 0 -258.52
713.068 20.8362 0 -215.001
705.07 21.1223 0 -214.717
2166.12 25.9797 0 -294.015
2190.26 25.7325 0 -294.828
709.069 20.9798 0 -214.861
1434.62 23.9084 0 -257.705
2178.18 25.8569 0 -294.425
1450.68 23.6359 0 -258.253
1442.65 23.7729 0 -257.982
705.07 21.1223 0 -214.717
697.073 21.404 0 -214.423
2141.98 26.2205 0 -293.171
2166.12 25.9797 0 -294.015
701.071 21.2637 0 -214.571
1418.56 24.1755 0 -257.136
2154.05 26.1009 0 -293.597
1434.62 23.9084 0 -257.705
1426.59 24.0426 0 -257.423
697.073 21.404 0 -214.423
689.077 21.6814 0 -214.118
2117.85 26.455 0 -292.297
2141.98 26.2205 0 -293.171
693.075 21.5432 0 -214.272
1402.51 24.4372 0 -256.546
2129.91 26.3385 0 -292.738
1418.56 24.1755 0 -257.136
1410.54 24.307 0 -256.843
689.077 21.6814 0 -214.118
681.082 21.9544 0 -213.804
2093.72 26.6832 0 -291.392
2117.85 26.455 0 -292.297
685.08 21.8184 0 -213.962
1386.46 24.6935 0 -255.936
2105.79 26.5699 0 -291.848
1402.51 24.4372 0 -256.546
1394.48 24.566 0 -256.244
681.082 21.9544 0 -213.804
673.089 22.2231 0 -213.48
2069.6 26.9051 0 -290.458
2093.72 26.6832 0 -291.392
677.085 22.0893 0 -213.643
1370.41 24.9444 0 -255.307
2081.66 26.7949 0 -290.929
1386.46 24.6935 0 -255.936
1378.43 24.8196 0 -255.624
673.089 22.2231 0 -213.48
665.096 22.4874 0 -213.146
2045.49 27.1206 0 -289.494
2069.6 26.9051 0 -290.458
669.092 22.3558 0 -213.314
1354.36 25.1898 0 -254.657
2057.54 27.0136 0 -289.979
1370.41 24.9444 0 -255.307
1362.38 25.0678 0 -254.984
665.096 22.4874 0 -213.146
657.104 22.7474 0 -212.802
2021.37 27.3298 0 -288.5
2045.49 27.1206 0 -289.494
661.1 22.6179 0 -212.975
1338.31 25.4299 0 -253.989
2033.43 27.226 0 -289.001
1354.36 25.1898 0 -254.657
1346.34 25.3106 0 -254.325
657.104 22.7474 0 -212.802
649.114 23.003 0 -212.449
1997.27 27.5327 0 -287.478
2021.37 27.3298 0 -288.5
653.109 22.8757 0 -212.626
1322.27 25.6646 0 -253.301
2009.32 27.4321 0 -287.993
1338.31 25.4299 0 -253.989
1330.29 25.5479 0 -253.647
649.114 23.003 0 -212.449
641.124 23.2543 0 -212.086
1973.17 27.7294 0 -286.427
1997.27 27.5327 0 -287.478
645.119 23.1292 0 -212.268
1306.23 25.8939 0 -252.594
1985.22 27.6318 0 -286.956
1322.27 25.6646 0 -253.301
1314.25 25.7799 0 -252.95
641.124 23.2543 0 -212.086
633.135 23.5012 0 -211.714
1949.07 27.9197 0 -285.349
1973.17 27.7294 0 -286.427
637.13 23.3783 0 -211.901
1290.2 26.1178 0 -251.868
1961.12 27.8253 0 -285.892
1306.23 25.8939 0 -252.594
1298.21 26.0065 0 -252.233
633.135 23.5012 0 -211.714
625.148 23.7438 0 -211.333
1924.97 28.1037 0 -284.242
1949.07 27.9197 0 -285.349
629.141 23.623 0 -211.524
1274.16 26.3364 0 -251.124
1937.02 28.0125 0 -284.799
1290.2 26.1178 0 -251.868
1282.18 26.2278 0 -251.499
625.148 23.7438 0 -211.333
617.161 23.9821 0 -210.943
1900.89 28.2815 0 -283.108
1924.97 28.1037 0 -284.242
621.154 23.8635 0 -211.139
1258.13 26.5495 0 -250.362
1912.93 28.1934 0 -283.678
1274.16 26.3364 0 -251.124
1266.15 26.4436 0 -250.745
617.161 23.9821 0 -210.943
609.176 24.216 0 -210.543
1876.8 28.4529 0 -281.947
1900.89 28.2815 0 -283.108
613.168 24.0996 0 -210.744
1242.11 26.7574 0 -249.582
1888.84 28.368 0 -282.531
1258.13 26.5495 0 -250.362
1250.12 26.6541 0 -249.974
609.176 24.216 0 -210.543
601.191 24.4456 0 -210.135
1852.72 28.6182 0 -280.759
1876.8 28.4529 0 -281.947
605.183 24.3314 0 -210.341
1226.08 26.9598 0 -248.784
1864.76 28.5363 0 -281.356
1242.11 26.7574 0 -249.582
1234.09 26.8593 0 -249.185
601.191 24.4456 0 -210.135
593.208 24.6709 0 -209.719
1828.65 28.7772 0 -279.545
1852.72 28.6182 0 -280.759
597.199 24.5588 0 -209.928
1210.06 27.1569 0 -247.968
1840.69 28.6985 0 -280.155
1226.08 26.9598 0 -248.784
1218.07 27.059 0 -248.378
593.208 24.6709 0 -209.719
585.225 24.8919 0 -209.294
1804.58 28.9299 0 -278.304
1828.65 28.7772 0 -279.545
589.216 24.782 0 -209.507
1194.04 27.3487 0 -247.135
1816.61 28.8543 0 -278.928
1210.06 27.1569 0 -247.968
1202.05 27.2535 0 -247.554
585.225 24.8919 0 -209.294
577.244 25.1086 0 -208.86
1780.51 29.0765 0 -277.038
1804.58 28.9299 0 -278.304
581.234 25.0008 0 -209.078
1178.02 27.5352 0 -246.285
1792.54 29.004 0 -277.675
1194.04 27.3487 0 -247.135
1186.03 27.4426 0 -246.712
577.244 25.1086 0 -208.86
569.263 25.321 0 -208.418
1756.45 29.2169 0 -275.747
1780.51 29.0765 0 -277.038
573.253 25.2153 0 -208.64
1162.01 27.7163 0 -245.418
1768.48 29.1475 0 -276.396
1178.02 27.5352 0 -246.285
1170.01 27.6264 0 -245.854
569.263 25.321 0 -208.418
561.284 25.5291 0 -207.968
1732.4 29.3511 0 -274.431
1756.45 29.2169 0 -275.747
565.273 25.4255 0 -208.194
1145.99 27.8922 0 -244.535
1744.42 29.2848 0 -275.092
1162.01 27.7163 0 -245.418
1154 27.8049 0 -244.979
561.284 25.5291 0 -207.968
553.305 25.7329 0 -207.509
1708.34 29.4792 0 -273.09
1732.4 29.3511 0 -274.431
557.294 25.6315 0 -207.739
1129.98 28.0628 0 -243.635
1720.37 29.4159 0 -273.763
1145.99 27.8922 0 -244.535
1137.99 27.9782 0 -244.087
553.305 25.7329 0 -207.509
545.327 25.9324 0 -207.043
1684.3 29.6011 0 -271.724
1708.34 29.4792 0 -273.09
549.316 25.8332 0 -207.277
1113.98 28.2281 0 -242.719
1696.32 29.5409 0 -272.41
1129.98 28.0628 0 -243.635
1121.98 28.1461 0 -243.179
545.327 25.9324 0 -207.043
537.351 26.1276 0 -206.569
1660.25 29.717 0 -270.335
1684.3 29.6011 0 -271.724
541.339 26.0305 0 -206.807
1097.97 28.3882 0 -241.787
1672.27 29.6598 0 -271.033
1113.98 28.2281 0 -242.719
1105.98 28.3088 0 -242.255
537.351 26.1276 0 -206.569
529.375 26.3186 0 -206.087
1636.21 29.8267 0 -268.922
1660.25 29.717 0 -270.335
533.363 26.2237 0 -206.329
1081.97 28.543 0 -240.84
1648.23 29.7726 0 -269.632
1097.97 28.3882 0 -241.787
1089.97 28.4662 0 -241.315
529.375 26.3186 0 -206.087
521.4 26.5054 0 -205.597
1612.18 29.9304 0 -267.486
1636.21 29.8267 0 -268.922
525.387 26.4125 0 -205.843
1065.97 28.6926 0 -239.877
1624.2 29.8793 0 -268.207
1081.97 28.543 0 -240.84
1073.97 28.6185 0 -240.36
521.4 26.5054 0 -205.597
513.426 26.6879 0 -205.1
1588.15 30.0281 0 -266.027
1612.18 29.9304 0 -267.486
517.413 26.5972 0 -205.35
1049.98 28.837 0 -238.899
1600.16 29.98 0 -266.76
1065.97 28.6926 0 -239.877
1057.97 28.7655 0 -239.39
513.426 26.6879 0 -205.1
505.453 26.8661 0 -204.596
1564.12 30.1198 0 -264.546
1588.15 30.0281 0 -266.027
509.439 26.7775 0 -204.849
1033.98 28.9763 0 -237.905
1576.13 30.0747 0 -265.289
1049.98 28.837 0 -238.899
1041.98 28.9073 0 -238.404
505.453 26.8661 0 -204.596
497.481 27.0402 0 -204.084
1540.1 30.2055 0 -263.042
1564.12 30.1198 0 -264.546
501.467 26.9537 0 -204.341
1017.99 29.1103 0 -236.898
1552.11 30.1634 0 -263.797
1033.98 28.9763 0 -237.905
1025.99 29.0439 0 -237.403
497.481 27.0402 0 -204.084
489.509 27.21 0 -203.565
1516.08 30.2852 0 -261.516
1540.1 30.2055 0 -263.042
493.495 27.1256 0 -203.825
1002 29.2393 0 -235.875
1528.09 30.2461 0 -262.282
1017.99 29.1103 0 -236.898
1010 29.1754 0 -236.388
489.509 27.21 0 -203.565
481.539 27.3756 0 -203.039
1492.07 30.3591 0 -259.969
1516.08 30.2852 0 -261.516
485.524 27.2933 0 -203.303
986.016 29.3631 0 -234.838
1504.08 30.3229 0 -260.745
1002 29.2393 0 -235.875
994.009 29.3018 0 -235.359
481.539 27.3756 0 -203.039
473.569 27.5371 0 -202.506
1468.06 30.4271 0 -258.401
1492.07 30.3591 0 -259.969
477.554 27.4569 0 -202.773
970.031 29.4818 0 -233.788
1480.06 30.3938 0 -259.188
986.016 29.3631 0 -234.838
978.023 29.4231 0 -234.315
473.569 27.5371 0 -202.506
465.6 27.6943 0 -201.966
1444.05 30.4892 0 -256.812
1468.06 30.4271 0 -258.401
469.585 27.6162 0 -202.237
954.05 29.5954 0 -232.723
1456.06 30.4588 0 -257.609
970.031 29.4818 0 -233.788
962.04 29.5392 0 -233.257
465.6 27.6943 0 -201.966
457.632 27.8474 0 -201.42
1420.05 30.5455 0 -255.202
1444.05 30.4892 0 -256.812
461.616 27.7714 0 -201.694
938.07 29.704 0 -231.645
1432.05 30.5181 0 -256.009
954.05 29.5954 0 -232.723
946.06 29.6503 0 -232.186
457.632 27.8474 0 -201.42
449.665 27.9963 0 -200.867
1396.06 30.596 0 -253.572
1420.05 30.5455 0 -255.202
453.649 27.9224 0 -201.144
922.093 29.8075 0 -230.554
1408.05 30.5715 0 -254.39
938.07 29.704 0 -231.645
930.081 29.7564 0 -231.101
449.665 27.9963 0 -200.867
441.699 28.1411 0 -200.307
1372.06 30.6408 0 -251.923
1396.06 30.596 0 -253.572
445.682 28.0692 0 -200.588
906.118 29.9061 0 -229.449
1384.06 30.6191 0 -252.75
922.093 29.8075 0 -230.554
914.105 29.8574 0 -230.003
441.699 28.1411 0 -200.307
433.733 28.2818 0 -199.742
1348.07 30.6799 0 -250.254
1372.06 30.6408 0 -251.923
437.716 28.212 0 -200.025
890.145 29.9996 0 -228.332
1360.07 30.661 0 -251.091
906.118 29.9061 0 -229.449
898.131 29.9535 0 -228.892
433.733 28.2818 0 -199.742
425.768 28.4183 0 -199.17
1324.09 30.7133 0 -248.566
1348.07 30.6799 0 -250.254
429.75 28.3506 0 -199.456
874.175 30.0882 0 -227.201
1336.08 30.6973 0 -249.412
890.145 29.9996 0 -228.332
882.16 30.0445 0 -227.768
425.768 28.4183 0 -199.17
417.804 28.5507 0 -198.591
1300.11 30.741 0 -246.859
1324.09 30.7133 0 -248.566
421.786 28.485 0 -198.881
858.207 30.1718 0 -226.059
1312.1 30.7279 0 -247.715
874.175 30.0882 0 -227.201
866.191 30.1306 0 -226.632
417.804 28.5507 0 -198.591
409.841 28.6791 0 -198.007
1276.13 30.7632 0 -245.134
1300.11 30.741 0 -246.859
413.822 28.6154 0 -198.3
842.241 30.2506 0 -224.904
1288.12 30.7528 0 -245.999
858.207 30.1718 0 -226.059
850.223 30.2118 0 -225.483
409.841 28.6791 0 -198.007
401.878 28.8033 0 -197.417
1252.15 30.7798 0 -243.391
1276.13 30.7632 0 -245.134
405.859 28.7417 0 -197.713
826.277 30.3245 0 -223.737
1264.14 30.7722 0 -244.264
842.241 30.2506 0 -224.904
834.259 30.2881 0 -224.322
401.878 28.8033 0 -197.417
393.916 28.9235 0 -196.822
1228.18 30.7909 0 -241.63
1252.15 30.7798 0 -243.391
397.897 28.8639 0 -197.12
810.315 30.3935 0 -222.559
1240.17 30.7861 0 -242.512
826.277 30.3245 0 -223.737
818.296 30.3596 0 -223.15
393.916 28.9235 0 -196.822
385.955 29.0397 0 -196.22
1204.22 30.7966 0 -239.851
1228.18 30.7909 0 -241.63
389.935 28.9821 0 -196.522
794.355 30.4577 0 -221.369
1216.2 30.7944 0 -240.742
810.315 30.3935 0 -222.559
802.335 30.4262 0 -221.965
385.955 29.0397 0 -196.22
377.994 29.1518 0 -195.613
1180.25 30.7968 0 -238.056
1204.22 30.7966 0 -239.851
381.974 29.0962 0 -195.917
778.398 30.517 0 -220.168
1192.24 30.7974 0 -238.956
794.355 30.4577 0 -221.369
786.376 30.488 0 -220.77
377.994 29.1518 0 -195.613
370.034 29.2598 0 -195.001
1156.29 30.7916 0 -236.244
1180.25 30.7968 0 -238.056
374.014 29.2063 0 -195.308
762.442 30.5717 0 -218.955
1168.27 30.7949 0 -237.152
778.398 30.517 0 -220.168
770.419 30.545 0 -219.563
370.034 29.2598 0 -195.001
362.074 29.3639 0 -194.383
1132.34 30.7811 0 -234.415
1156.29 30.7916 0 -236.244
366.054 29.3124 0 -194.693
746.488 30.6216 0 -217.732
1144.32 30.787 0 -235.331
762.442 30.5717 0 -218.955
754.465 30.5972 0 -218.345
362.074 29.3639 0 -194.383
354.116 29.464 0 -193.76
1108.39 30.7653 0 -232.571
1132.34 30.7811 0 -234.415
358.095 29.4145 0 -194.072
730.536 30.6667 0 -216.498
1120.36 30.7739 0 -233.495
746.488 30.6216 0 -217.732
738.512 30.6447 0 -217.117
354.116 29.464 0 -193.76
346.157 29.5601 0 -193.132
1084.44 30.7442 0 -230.711
1108.39 30.7653 0 -232.571
350.137 29.5126 0 -193.447
714.586 30.7072 0 -215.254
1096.41 30.7554 0 -231.643
730.536 30.6667 0 -216.498
722.561 30.6876 0 -215.878
346.157 29.5601 0 -193.132
338.2 29.6523 0 -192.499
1060.49 30.7179 0 -228.835
1084.44 30.7442 0 -230.711
342.179 29.6067 0 -192.817
698.638 30.7431 0 -214
1072.46 30.7317 0 -229.775
714.586 30.7072 0 -215.254
706.612 30.7257 0 -214.628
338.2 29.6523 0 -192.499
330.243 29.7405 0 -191.862
1036.55 30.6865 0 -226.945
1060.49 30.7179 0 -228.835
334.221 29.6969 0 -192.181
682.692 30.7743 0 -212.736
1048.52 30.7029 0 -227.892
698.638 30.7431 0 -214
690.665 30.7593 0 -213.369
330.243 29.7405 0 -191.862
322.286 29.8248 0 -191.219
1012.61 30.65 0 -225.04
1036.55 30.6865 0 -226.945
326.264 29.7831 0 -191.541
666.748 30.801 0 -211.462
1024.58 30.6689 0 -225.994
682.692 30.7743 0 -212.736
674.72 30.7882 0 -212.1
322.286 29.8248 0 -191.219
314.33 29.9052 0 -190.572
988.671 30.6084 0 -223.121
1012.61 30.65 0 -225.04
318.308 29.8655 0 -190.896
650.805 30.8231 0 -210.179
1000.64 30.6298 0 -224.082
666.748 30.801 0 -211.462
658.776 30.8126 0 -210.822
314.33 29.9052 0 -190.572
306.375 29.9816 0 -189.921
964.737 30.5618 0 -221.187
988.671 30.6084 0 -223.121
310.352 29.9439 0 -190.247
634.864 30.8407 0 -208.886
976.704 30.5857 0 -222.156
650.805 30.8231 0 -210.179
642.834 30.8325 0 -209.534
306.375 29.9816 0 -189.921
298.42 30.0542 0 -189.265
940.807 30.5102 0 -219.241
964.737 30.5618 0 -221.187
302.397 30.0184 0 -189.593
618.925 30.8538 0 -207.585
952.772 30.5366 0 -220.216
634.864 30.8407 0 -208.886
626.894 30.8478 0 -208.237
298.42 30.0542 0 -189.265
290.465 30.123 0 -188.605
916.879 30.4537 0 -217.28
940.807 30.5102 0 -219.241
294.442 30.0891 0 -188.935
602.987 30.8624 0 -206.275
928.843 30.4826 0 -218.262
618.925 30.8538 0 -207.585
610.955 30.8587 0 -206.931
290.465 30.123 0 -188.605
282.511 30.1879 0 -187.94
892.955 30.3924 0 -215.307
916.879 30.4537 0 -217.28
286.488 30.1559 0 -188.273
587.051 30.8667 0 -204.956
904.917 30.4236 0 -216.295
602.987 30.8624 0 -206.275
595.019 30.8651 0 -205.616
282.511 30.1879 0 -187.94
274.557 30.249 0 -187.272
869.033 30.3262 0 -213.322
892.955 30.3924 0 -215.307
278.534 30.2189 0 -187.607
571.116 30.8665 0 -203.629
880.993 30.3599 0 -214.316
587.051 30.8667 0 -204.956
579.083 30.8672 0 -204.293
274.557 30.249 0 -187.272
266.604 30.3062 0 -186.6
845.114 30.2553 0 -211.324
869.033 30.3262 0 -213.322
270.58 30.2781 0 -186.936
555.183 30.862 0 -202.294
857.073 30.2913 0 -212.324
571.116 30.8665 0 -203.629
563.149 30.8648 0 -202.962
266.604 30.3062 0 -186.6
258.651 30.3597 0 -185.923
821.198 30.1797 0 -209.314
845.114 30.2553 0 -211.324
262.627 30.3334 0 -186.262
539.251 30.8532 0 -200.951
833.155 30.218 0 -210.321
555.183 30.862 0 -202.294
547.217 30.8582 0 -201.623
258.651 30.3597 0 -185.923
250.698 30.4094 0 -185.244
797.284 30.0994 0 -207.293
821.198 30.1797 0 -209.314
254.674 30.385 0 -185.584
523.321 30.8402 0 -199.6
809.241 30.1401 0 -208.305
539.251 30.8532 0 -200.951
531.286 30.8472 0 -200.276
250.698 30.4094 0 -185.244
242.746 30.4553 0 -184.56
773.373 30.0145 0 -205.26
797.284 30.0994 0 -207.293
246.722 30.4328 0 -184.902
507.392 30.8228 0 -198.242
785.328 30.0575 0 -206.278
523.321 30.8402 0 -199.6
515.356 30.832 0 -198.922
242.746 30.4553 0 -184.56
234.794 30.4975 0 -183.873
749.465 29.925 0 -203.217
773.373 30.0145 0 -205.26
238.77 30.4769 0 -184.217
491.465 30.8013 0 -196.877
761.419 29.9703 0 -204.24
507.392 30.8228 0 -198.242
499.428 30.8126 0 -197.56
234.794 30.4975 0 -183.873
226.842 30.5359 0 -183.183
725.559 29.8311 0 -201.163
749.465 29.925 0 -203.217
230.818 30.5172 0 -183.529
475.538 30.7755 0 -195.505
737.511 29.8786 0 -202.191
491.465 30.8013 0 -196.877
483.501 30.7889 0 -196.192
226.842 30.5359 0 -183.183
218.89 30.5706 0 -182.49
701.655 29.7327 0 -199.099
725.559 29.8311 0 -201.163
222.866 30.5537 0 -182.837
459.614 30.7456 0 -194.126
713.606 29.7825 0 -200.132
475.538 30.7755 0 -195.505
467.576 30.7611 0 -194.816
218.89 30.5706 0 -182.49
210.939 30.6016 0 -181.793
677.754 29.6299 0 -197.025
701.655 29.7327 0 -199.099
214.915 30.5866 0 -182.142
443.69 30.7116 0 -192.741
689.704 29.6819 0 -198.063
459.614 30.7456 0 -194.126
451.652 30.7291 0 -193.434
210.939 30.6016 0 -181.793
202.988 30.6288 0 -181.094
653.855 29.5227 0 -194.942
677.754 29.6299 0 -197.025
206.964 30.6157 0 -181.444
427.767 30.6734 0 -191.349
665.804 29.5769 0 -195.985
443.69 30.7116 0 -192.741
435.728 30.693 0 -192.046
202.988 30.6288 0 -181.094
195.038 30.6524 0 -180.392
629.958 29.4113 0 -192.849
653.855 29.5227 0 -194.942
199.013 30.6411 0 -180.743
411.846 30.6312 0 -189.952
641.906 29.4675 0 -193.897
427.767 30.6734 0 -191.349
419.806 30.6528 0 -190.651
195.038 30.6524 0 -180.392
187.088 30.6722 0 -179.687
606.063 29.2955 0 -190.748
629.958 29.4113 0 -192.849
191.063 30.6627 0 -180.04
395.926 30.5849 0 -188.549
618.01 29.3539 0 -191.8
411.846 30.6312 0 -189.952
403.886 30.6086 0 -189.251
187.088 30.6722 0 -179.687
179.138 30.6883 0 -178.979
582.171 29.1756 0 -188.639
606.063 29.2955 0 -190.748
183.113 30.6807 0 -179.333
380.007 30.5346 0 -187.14
594.117 29.2361 0 -189.694
395.926 30.5849 0 -188.549
387.966 30.5603 0 -187.845
179.138 30.6883 0 -178.979
171.188 30.7008 0 -178.269
558.28 29.0515 0 -186.521
582.171 29.1756 0 -188.639
175.163 30.695 0 -178.624
364.089 30.4804 0 -185.726
570.225 29.1141 0 -187.581
380.007 30.5346 0 -187.14
372.048 30.508 0 -186.434
171.188 30.7008 0 -178.269
163.239 30.7097 0 -177.556
534.392 28.9234 0 -184.396
558.28 29.0515 0 -186.521
167.213 30.7057 0 -177.913
348.172 30.4222 0 -184.307
546.336 28.988 0 -185.459
364.089 30.4804 0 -185.726
356.13 30.4518 0 -185.017
163.239 30.7097 0 -177.556
155.29 30.7152 0 -176.842
510.506 28.7913 0 -182.263
534.392 28.9234 0 -184.396
159.264 30.7129 0 -177.199
332.257 30.3604 0 -182.883
522.449 28.8578 0 -183.33
348.172 30.4222 0 -184.307
340.214 30.3918 0 -183.596
155.29 30.7152 0 -176.842
147.342 30.7175 0 -176.124
486.622 28.6555 0 -180.123
510.506 28.7913 0 -182.263
151.316 30.7168 0 -176.483
316.343 30.2949 0 -181.455
498.564 28.7239 0 -181.194
332.257 30.3604 0 -182.883
324.299 30.3281 0 -182.17
147.342 30.7175 0 -176.124
139.394 30.7171 0 -175.405
462.74 28.5161 0 -177.977
486.622 28.6555 0 -180.123
143.368 30.7176 0 -175.765
300.43 30.2263 0 -180.022
474.681 28.5862 0 -179.051
316.343 30.2949 0 -181.455
308.386 30.261 0 -180.739
139.394 30.7171 0 -175.405
131.447 30.7145 0 -174.682
438.861 28.3738 0 -175.823
462.74 28.5161 0 -177.977
135.421 30.716 0 -175.044
284.519 30.1551 0 -178.584
450.8 28.4453 0 -176.901
300.43 30.2263 0 -180.022
292.474 30.191 0 -179.303
131.447 30.7145 0 -174.682
123.5 30.711 0 -173.957
414.984 28.2292 0 -173.662
438.861 28.3738 0 -175.823
127.474 30.7128 0 -174.32
268.609 30.0824 0 -177.14
426.922 28.3017 0 -174.743
284.519 30.1551 0 -178.584
276.563 30.1188 0 -177.863
123.5 30.711 0 -173.957
115.552 30.7083 0 -173.229
391.11 28.0839 0 -171.493
414.984 28.2292 0 -173.662
119.526 30.7094 0 -173.594
252.7 30.01 0 -175.691
403.047 28.1565 0 -172.578
268.609 30.0824 0 -177.14
260.654 30.046 0 -176.416
115.552 30.7083 0 -173.229
107.602 30.7095 0 -172.499
367.238 27.9408 0 -169.314
391.11 28.0839 0 -171.493
111.578 30.7082 0 -172.864
236.79 29.9412 0 -174.235
379.174 28.0118 0 -170.405
252.7 30.01 0 -175.691
244.745 29.9748 0 -174.964
107.602 30.7095 0 -172.499
99.6457 30.7199 0 -171.766
343.367 27.8046 0 -167.122
367.238 27.9408 0 -169.314
103.625 30.713 0 -172.132
220.877 29.8819 0 -172.771
355.303 27.8713 0 -168.22
236.79 29.9412 0 -174.235
228.834 29.9098 0 -173.504
99.6457 30.7199 0 -171.766
91.6754 30.7473 0 -171.034
319.493 27.6853 0 -164.913
343.367 27.8046 0 -167.122
95.6632 30.7308 0 -171.399
204.953 29.8425 0 -171.299
331.43 27.7419 0 -166.02
220.877 29.8819 0 -172.771
212.917 29.8587 0 -172.037
91.6754 30.7473 0 -171.034
83.6804 30.8075 0 -170.312
295.602 27.5988 0 -162.679
319.493 27.6853 0 -164.913
87.6813 30.772 0 -170.671
189.004 29.8415 0 -169.818
307.551 27.6365 0 -163.8
204.953 29.8425 0 -171.299
196.983 29.8356 0 -170.56
83.6804 30.8075 0 -170.312
75.6288 30.921 0 -169.618
271.676 27.5771 0 -160.407
295.602 27.5988 0 -162.679
79.6652 30.8557 0 -169.96
172.999 29.9093 0 -168.333
283.644 27.577 0 -161.549
189.004 29.8415 0 -169.818
181.01 29.8638 0 -169.076
75.6288 30.921 0 -169.618
67.4889 31.1312 0 -168.986
247.655 27.6651 0 -158.08
271.676 27.5771 0 -160.407
71.5704 31.0106 0 -169.291
156.883 30.0997 0 -166.851
259.684 27.6031 0 -159.252
172.999 29.9093 0 -168.333
164.96 29.9853 0 -167.589
67.4889 31.1312 0 -168.986
59.1549 31.4826 0 -168.484
223.472 27.9538 0 -155.666
247.655 27.6651 0 -158.08
63.3584 31.285 0 -168.713
140.552 30.4876 0 -165.398
235.584 27.7773 0 -156.887
156.883 30.0997 0 -166.851
148.751 30.261 0 -166.121
59.1549 31.4826 0 -168.484
50.5533 32.0793 0 -168.221
198.9 28.5371 0 -153.143
223.472 27.9538 0 -155.666
54.8855 31.744 0 -168.313
123.828 31.1958 0 -164.019
211.26 28.1993 0 -154.419
140.552 30.4876 0 -165.398
132.255 30.7959 0 -164.689
50.5533 32.0793 0 -168.221
41.386 32.9581 0 -168.379
173.757 29.613 0 -150.459
198.9 28.5371 0 -153.143
46.078 32.4785 0 -168.233
106.427 32.3313 0 -162.807
186.399 29.0042 0 -151.825
123.828 31.1958 0 -164.019
115.228 31.6964 0 -163.395
41.386 32.9581 0 -168.379
31.5944 34.2739 0 -169.181
147.35 31.2087 0 -147.669
173.757 29.613 0 -150.459
36.5439 33.5643 0 -168.681
87.9157 34.0198 0 -161.915
160.795 30.3386 0 -149.068
106.427 32.3313 0 -162.807
97.3558 33.1212 0 -162.286
31.5944 34.2739 0 -169.181
20.5622 35.6866 0 -170.887
119.41 33.4829 0 -144.819
147.35 31.2087 0 -147.669
26.3291 34.9891 0 -169.907
67.8113 35.9837 0 -161.598
133.538 32.2932 0 -146.245
87.9157 34.0198 0 -161.915
78.0699 34.9768 0 -161.704
20.5622 35.6866 0 -170.887
8.90275 36.9472 0 -173.457
88.3728 35.3447 0 -142.559
119.41 33.4829 0 -144.819
14.6645 36.429 0 -172.075
45.648 37.5058 0 -162.171
104.497 34.5364 0 -143.547
67.8113 35.9837 0 -161.598
57.0749 36.9693 0 -161.669
8.90275 36.9472 0 -173.457
-3.81013 35.516 0 -176.204
55.1918 35.3438 0 -141.637
88.3728 35.3447 0 -142.559
2.85373 36.7286 0 -174.905
22.0832 35.6219 0 -163.881
71.7946 35.9197 0 -141.849
45.648 37.5058 0 -162.171
33.8505 37.1758 0 -163.023
-3.81013 35.516 0 -176.204
-13.7342 29.1839 0 -176.172
19.143 25.6129 0 -144.397
55.1918 35.3438 0 -141.637
-9.70712 33.3159 0 -176.807
-0.53423 25.57 0 -165.697
37.8431 32.268 0 -142.384
22.0832 35.6219 0 -163.881
10.656 32.2879 0 -164.655
-13.7342 29.1839 0 -176.172
-20.8268 11.4408 0 -167.394
-8.52801 -5.66495 0 -149.125
19.143 25.6129 0 -144.397
-17.2335 21.6723 0 -173.459
-14.4259 -1.68849 0 -162.095
2.83623 14.4859 0 -146.772
-0.53423 25.57 0 -165.697
-9.73042 14.1562 0 -165.685
-20.8268 11.4408 0 -167.394
-16.5417 -12.1741 0 -139.185
-22.7242 -87.4775 0 -143.895
-8.52801 -5.66495 0 -149.125
-21.4081 0.203439 0 -156.336
-17.5145 -48.6518 0 -139.194
-17.2249 -40.226 0 -149.746
-14.4259 -1.68849 0 -162.095
-16.3249 -22.3984 0 -153.357
-16.5417 -12.1741 0 -139.185
-1.80146 -46.2415 0 -83.5726
-14.663 -192.379 0 -89.7005
-22.7242 -87.4775 0 -143.895
-9.16477 -27.4597 0 -115.253
-13.1789 -113.465 0 -90.2163
-23.0632 -142.328 0 -125.26
-17.5145 -48.6518 0 -139.194
-17.0789 -79.9304 0 -118.786
4254.6 1271.85 0 387.403
4626.35 797.327 0 -21.053
7871.36 844.806 0 -451.951
7430.33 2214.42 0 -309.171
4506.77 1017.21 0 141.038
6145.99 924.483 0 -191.072
7720.42 1593.63 0 -517.993
6065.55 1809.71 0 52.1703
6003.77 1286.56 0 -66.3715
4626.35 797.327 0 -21.053
4716.6 340.681 0 -151.421
7993.99 246.237 0 -230.162
7871.36 844.806 0 -451.951
4666.66 552.339 0 -104.228
6369.54 355.426 0 -227.613
7985.61 432.223 0 -334.304
6145.99 924.483 0 -191.072
6317.36 618.989 0 -250.546
4716.6 340.681 0 -151.421
4763.4 108.647 0 -180.184
7894.82 36.1126 0 -104.427
7993.99 246.237 0 -230.162
4760.57 201.555 0 -175.832
6357.02 93.1725 0 -163.474
7934.62 116.328 0 -146.883
6369.54 355.426 0 -227.613
6368.13 186.803 0 -186.199
4763.4 108.647 0 -180.184
4728.19 0.114219 0 -171.674
7825.31 -10.9268 0 -80.3057
7894.82 36.1126 0 -104.427
4744.22 41.5919 0 -175.246
6297.15 -8.61978 0 -133.962
7864.11 2.28015 0 -87.2909
6357.02 93.1725 0 -163.474
6331.52 31.1153 0 -147.451
4728.19 0.114219 0 -171.674
4686 -32.3561 0 -166.805
7755.42 -28.5515 0 -84.6437
7825.31 -10.9268 0 -80.3057
4710.72 -21.3411 0 -169.292
6231.86 -34.2272 0 -127.787
7784.77 -22.3045 0 -79.5032
6297.15 -8.61978 0 -133.962
6261.81 -27.9535 0 -127.304
4686 -32.3561 0 -166.805
4636.84 -40.6601 0 -164.703
7706.86 -26.0221 0 -100.638
7755.42 -28.5515 0 -84.6437
4659.09 -38.8189 0 -164.866
6177.2 -37.8918 0 -133.311
7731.86 -28.2076 0 -92.8512
6231.86 -34.2272 0 -127.787
6203.96 -37.0707 0 -130.48
4636.84 -40.6601 0 -164.703
4596.96 -37.0676 0 -166.6
7660.12 -23.0202 0 -115.338
7706.86 -26.0221 0 -100.638
4616.96 -39.3543 0 -165.556
6130.28 -32.8858 0 -141.956
7682.04 -24.6471 0 -107.973
6177.2 -37.8918 0 -133.311
6152.51 -36.0764 0 -137.189
4596.96 -37.0676 0 -166.6
4560.94 -32.2891 0 -169.583
7618.62 -18.7477 0 -128.619
7660.12 -23.0202 0 -115.338
4577.83 -34.7934 0 -167.882
6089.62 -27.6446 0 -150.742
7639.6 -20.7726 0 -122.418
6130.28 -32.8858 0 -141.956
6109.49 -30.0555 0 -146.587
4560.94 -32.2891 0 -169.583
4530.3 -27.5402 0 -173.41
7577.25 -15.9236 0 -139.26
7618.62 -18.7477 0 -128.619
4545.4 -29.7448 0 -171.498
6052.57 -23.092 0 -158.637
7597.63 -17.2334 0 -134.145
6089.62 -27.6446 0 -150.742
6070.68 -25.2752 0 -154.753
4530.3 -27.5402 0 -173.41
4502.04 -24.1617 0 -177.314
7536.83 -13.7364 0 -148.329
7577.25 -15.9236 0 -139.26
4515.78 -25.7287 0 -175.335
6017.74 -19.9414 0 -165.559
7557.12 -14.7183 0 -144.008
6052.57 -23.092 0 -158.637
6034.99 -21.3372 0 -162.242
4502.04 -24.1617 0 -177.314
4475.79 -21.699 0 -181.263
7496.27 -12.3174 0 -156.105
7536.83 -13.7364 0 -148.329
4488.82 -22.8062 0 -179.305
5984.1 -17.7388 0 -171.721
7516.5 -12.9663 0 -152.326
6017.74 -19.9414 0 -165.559
6000.81 -18.7471 0 -168.708
4475.79 -21.699 0 -181.263
4450.41 -20.0295 0 -185.112
7455.8 -11.2845 0 -163.145
7496.27 -12.3174 0 -156.105
4462.99 -20.7946 0 -183.195
5951.08 -16.257 0 -177.333
7476.07 -11.7546 0 -159.708
5984.1 -17.7388 0 -171.721
5967.54 -16.9225 0 -174.59
4450.41 -20.0295 0 -185.112
4425.62 -18.8108 0 -188.876
7415.23 -10.5322 0 -169.668
7455.8 -11.2845 0 -163.145
4437.98 -19.3706 0 -187.009
5918.37 -15.1909 0 -182.576
7435.51 -10.886 0 -166.453
5951.08 -16.257 0 -177.333
5934.7 -15.6856 0 -179.99
4425.62 -18.8108 0 -188.876
4401.07 -17.8889 0 -192.539
7374.62 -9.91758 0 -175.878
7415.23 -10.5322 0 -169.668
4413.32 -18.3243 0 -190.719
5885.79 -14.3798 0 -187.563
7394.93 -10.2106 0 -172.807
5918.37 -15.1909 0 -182.576
5902.07 -14.7609 0 -185.098
4401.07 -17.8889 0 -192.539
4376.67 -17.1228 0 -196.113
7333.96 -9.38404 0 -181.862
7374.62 -9.91758 0 -175.878
4388.86 -17.4901 0 -194.337
5853.27 -13.7029 0 -192.369
7354.29 -9.64462 0 -178.893
5885.79 -14.3798 0 -187.563
5869.53 -14.0295 0 -189.985
4376.67 -17.1228 0 -196.113
4352.31 -16.4472 0 -199.601
7293.27 -8.88643 0 -187.681
7333.96 -9.38404 0 -181.862
4364.48 -16.7774 0 -197.867
5820.77 -13.0986 0 -197.036
7313.62 -9.1319 0 -184.79
5853.27 -13.7029 0 -192.369
5837.02 -13.3942 0 -194.719
4352.31 -16.4472 0 -199.601
4327.98 -15.8166 0 -203.012
7252.55 -8.40585 0 -193.363
7293.27 -8.88643 0 -187.681
4340.15 -16.1276 0 -201.316
5788.27 -12.529 0 -201.588
7272.91 -8.64508 0 -190.538
5820.77 -13.0986 0 -197.036
5804.52 -12.8109 0 -199.325
4327.98 -15.8166 0 -203.012
4303.66 -15.2102 0 -206.348
7211.82 -7.93014 0 -198.925
7252.55 -8.40585 0 -193.363
4315.82 -15.5114 0 -204.689
5755.76 -11.9759 0 -206.039
7232.19 -8.16771 0 -196.159
5788.27 -12.529 0 -201.588
5772.01 -12.2511 0 -203.826
4303.66 -15.2102 0 -206.348
4279.34 -14.6152 0 -209.615
7171.08 -7.45443 0 -204.374
7211.82 -7.93014 0 -198.925
4291.5 -14.9116 0 -207.99
5723.24 -11.4291 0 -210.398
7191.45 -7.69253 0 -201.663
5755.76 -11.9759 0 -206.039
5739.5 -11.702 0 -208.23
4279.34 -14.6152 0 -209.615
4255.01 -14.0262 0 -212.814
7130.32 -6.97604 0 -209.715
7171.08 -7.45443 0 -204.374
4267.18 -14.3203 0 -211.223
5690.71 -10.8842 0 -214.667
7150.7 -7.21564 0 -207.058
5723.24 -11.4291 0 -210.398
5706.98 -11.1566 0 -212.543
4255.01 -14.0262 0 -212.814
4230.68 -13.4399 0 -215.948
7089.56 -6.49408 0 -214.951
7130.32 -6.97604 0 -209.715
4242.85 -13.7328 0 -214.389
5658.18 -10.3389 0 -218.852
7109.94 -6.73555 0 -212.346
5690.71 -10.8842 0 -214.667
5674.45 -10.6117 0 -216.77
4230.68 -13.4399 0 -215.948
4206.35 -12.8548 0 -219.019
7048.79 -6.0082 0 -220.083
7089.56 -6.49408 0 -214.951
4218.52 -13.1472 0 -217.491
5625.65 -9.79223 0 -222.952
7069.18 -6.25163 0 -217.53
5658.18 -10.3389 0 -218.852
5641.92 -10.0657 0 -220.912
4206.35 -12.8548 0 -219.019
4182.01 -12.2702 0 -222.027
7008.02 -5.51843 0 -225.112
7048.79 -6.0082 0 -220.083
4194.18 -12.5624 0 -220.531
5593.11 -9.24391 0 -226.969
7028.41 -5.76379 0 -222.61
5625.65 -9.79223 0 -222.952
5609.38 -9.51829 0 -224.971
4182.01 -12.2702 0 -222.027
4157.68 -11.6858 0 -224.973
6967.24 -5.02492 0 -230.04
7008.02 -5.51843 0 -225.112
4169.85 -11.978 0 -223.508
5560.57 -8.69383 0 -230.905
6987.63 -5.27213 0 -227.589
5593.11 -9.24391 0 -226.969
5576.84 -8.96909 0 -228.947
4157.68 -11.6858 0 -224.973
4133.33 -11.1014 0 -227.859
6926.47 -4.52791 0 -234.867
6967.24 -5.02492 0 -230.04
4145.5 -11.3936 0 -226.423
5528.02 -8.14204 0 -234.76
6946.86 -4.77684 0 -232.466
5560.57 -8.69383 0 -230.905
5544.3 -8.41814 0 -232.843
4133.33 -11.1014 0 -227.859
4108.99 -10.517 0 -230.684
6885.68 -4.02763 0 -239.594
6926.47 -4.52791 0 -234.867
4121.16 -10.8092 0 -229.279
5495.47 -7.58866 0 -238.535
6906.08 -4.27816 0 -237.243
5528.02 -8.14204 0 -234.76
5511.75 -7.86554 0 -236.658
4108.99 -10.517 0 -230.684
4084.64 -9.93269 0 -233.449
6844.9 -3.52435 0 -244.222
6885.68 -4.02763 0 -239.594
4096.82 -10.2248 0 -232.074
5462.92 -7.03385 0 -242.23
6865.29 -3.77635 0 -241.92
5495.47 -7.58866 0 -238.535
5479.2 -7.31142 0 -240.393
4084.64 -9.93269 0 -233.449
4060.29 -9.34848 0 -236.155
6804.11 -3.01835 0 -248.75
6844.9 -3.52435 0 -244.222
4072.47 -9.64056 0 -234.81
5430.37 -6.4778 0 -245.847
6824.51 -3.27167 0 -246.498
5462.92 -7.03385 0 -242.23
5446.65 -6.75597 0 -244.048
4060.29 -9.34848 0 -236.155
4035.94 -8.76452 0 -238.802
6763.33 -2.50989 0 -253.181
6804.11 -3.01835 0 -248.75
4048.12 -9.05646 0 -237.486
5397.82 -5.92072 0 -249.384
6783.72 -2.76441 0 -250.978
5430.37 -6.4778 0 -245.847
5414.09 -6.19938 0 -247.625
4035.94 -8.76452 0 -238.802
4011.59 -8.18094 0 -241.391
6722.54 -1.99926 0 -257.514
6763.33 -2.50989 0 -253.181
4023.77 -8.47267 0 -240.104
5365.26 -5.3628 0 -252.844
6742.93 -2.25483 0 -255.36
5397.82 -5.92072 0 -249.384
5381.54 -5.64185 0 -251.124
4011.59 -8.18094 0 -241.391
3987.24 -7.5979 0 -243.921
6681.75 -1.48673 0 -261.75
6722.54 -1.99926 0 -257.514
3999.41 -7.88935 0 -242.663
5332.7 -4.80426 0 -256.226
6702.14 -1.74322 0 -259.644
5365.26 -5.3628 0 -252.844
5348.98 -5.08359 0 -254.545
3987.24 -7.5979 0 -243.921
3962.88 -7.01555 0 -246.393
6640.96 -0.972575 0 -265.889
6681.75 -1.48673 0 -261.75
3975.06 -7.30663 0 -245.164
5300.15 -4.24532 0 -259.531
6661.36 -1.22984 0 -263.832
5332.7 -4.80426 0 -256.226
5316.42 -4.52482 0 -257.888
3962.88 -7.01555 0 -246.393
3938.53 -6.43405 0 -248.808
6600.17 -0.457062 0 -269.933
6640.96 -0.972575 0 -265.889
3950.71 -6.72468 0 -247.608
5267.59 -3.68619 0 -262.759
6620.56 -0.714971 0 -267.923
5300.15 -4.24532 0 -259.531
5283.87 -3.96576 0 -261.155
3938.53 -6.43405 0 -248.808
3914.17 -5.85356 0 -251.166
6559.38 0.0595407 0 -273.881
6600.17 -0.457062 0 -269.933
3926.35 -6.14367 0 -249.994
5235.03 -3.12709 0 -265.911
6579.77 -0.19888 0 -271.919
5267.59 -3.68619 0 -262.759
5251.31 -3.40662 0 -264.345
3914.17 -5.85356 0 -251.166
3889.81 -5.27424 0 -253.467
6518.59 0.576971 0 -277.735
6559.38 0.0595407 0 -273.881
3901.99 -5.56375 0 -252.324
5202.47 -2.56822 0 -268.987
6538.98 0.318169 0 -275.82
5235.03 -3.12709 0 -265.911
5218.75 -2.84761 0 -267.459
3889.81 -5.27424 0 -253.467
3865.46 -4.69625 0 -255.711
6477.8 1.09497 0 -281.495
6518.59 0.576971 0 -277.735
3877.64 -4.98507 0 -254.596
5169.91 -2.0098 0 -271.989
6498.19 0.835916 0 -279.627
5202.47 -2.56822 0 -268.987
5186.19 -2.28894 0 -270.497
3865.46 -4.69625 0 -255.711
3841.1 -4.11974 0 -257.9
6437.01 1.61329 0 -285.161
6477.8 1.09497 0 -281.495
3853.28 -4.4078 0 -256.813
5137.35 -1.45203 0 -274.915
6457.4 1.35411 0 -283.34
5169.91 -2.0098 0 -271.989
5153.63 -1.73082 0 -273.461
3841.1 -4.11974 0 -257.9
3816.74 -3.54486 0 -260.032
6396.22 2.13167 0 -288.734
6437.01 1.61329 0 -285.161
3828.92 -3.83209 0 -258.973
5104.79 -0.895104 0 -277.767
6416.61 1.87249 0 -286.959
5137.35 -1.45203 0 -274.915
5121.07 -1.17345 0 -276.35
3816.74 -3.54486 0 -260.032
3792.38 -2.97176 0 -262.11
6355.43 2.64988 0 -292.215
6396.22 2.13167 0 -288.734
3804.56 -3.25808 0 -261.078
5072.23 -0.339224 0 -280.545
6375.83 2.39082 0 -290.486
5104.79 -0.895104 0 -277.767
5088.51 -0.617022 0 -279.165
3792.38 -2.97176 0 -262.11
3768.03 -2.40058 0 -264.132
6314.65 3.16768 0 -295.605
6355.43 2.64988 0 -292.215
3780.2 -2.68592 0 -263.128
5039.67 0.215422 0 -283.25
6335.04 2.90885 0 -293.922
5072.23 -0.339224 0 -280.545
5055.95 -0.0617345 0 -281.907
3768.03 -2.40058 0 -264.132
3743.67 -1.83147 0 -266.1
6273.86 3.68483 0 -298.903
6314.65 3.16768 0 -295.605
3755.85 -2.11576 0 -265.123
5007.11 0.768644 0 -285.882
6294.26 3.42635 0 -297.265
5039.67 0.215422 0 -283.25
5023.39 0.492223 0 -284.575
3743.67 -1.83147 0 -266.1
3719.31 -1.26457 0 -268.013
6233.08 4.2011 0 -302.111
6273.86 3.68483 0 -298.903
3731.49 -1.54774 0 -267.063
4974.56 1.32026 0 -288.442
6253.47 3.94309 0 -300.518
5007.11 0.768644 0 -285.882
4990.83 1.04466 0 -287.171
3719.31 -1.26457 0 -268.013
3694.95 -0.700001 0 -269.872
6192.3 4.71626 0 -305.229
6233.08 4.2011 0 -302.111
3707.13 -0.981984 0 -268.949
4942 1.87009 0 -290.929
6212.69 4.45883 0 -303.681
4974.56 1.32026 0 -288.442
4958.28 1.59541 0 -289.694
3694.95 -0.700001 0 -269.872
3670.6 -0.137906 0 -271.678
6151.52 5.2301 0 -308.257
6192.3 4.71626 0 -305.229
3682.78 -0.418636 0 -270.782
4909.45 2.41795 0 -293.346
6171.91 4.97336 0 -306.754
4942 1.87009 0 -290.929
4925.72 2.14428 0 -292.146
3670.6 -0.137906 0 -271.678
3646.24 0.421587 0 -273.431
6110.75 5.7424 0 -311.197
6151.52 5.2301 0 -308.257
3658.42 0.142174 0 -272.561
4876.9 2.96368 0 -295.691
6131.14 5.48646 0 -309.738
4909.45 2.41795 0 -293.346
4893.17 2.69109 0 -294.527
3646.24 0.421587 0 -273.431
3621.89 0.978351 0 -275.13
6069.98 6.25295 0 -314.049
6110.75 5.7424 0 -311.197
3634.07 0.700318 0 -274.287
4844.35 3.5071 0 -297.966
6090.36 5.99791 0 -312.634
4876.9 2.96368 0 -295.691
4860.62 3.23569 0 -296.837
3621.89 0.978351 0 -275.13
3597.54 1.53226 0 -276.777
6029.21 6.76153 0 -316.813
6069.98 6.25295 0 -314.049
3609.71 1.25567 0 -275.96
4811.8 4.04804 0 -300.171
6049.59 6.5075 0 -315.442
4844.35 3.5071 0 -297.966
4828.07 3.77789 0 -299.077
3597.54 1.53226 0 -276.777
3573.19 2.08319 0 -278.372
5988.44 7.26795 0 -319.49
6029.21 6.76153 0 -316.813
3585.36 1.80811 0 -277.581
4779.25 4.58635 0 -302.306
6008.83 7.01502 0 -318.162
4811.8 4.04804 0 -300.171
4795.52 4.31754 0 -301.247
3573.19 2.08319 0 -278.372
3548.84 2.63103 0 -279.916
5947.68 7.772 0 -322.081
5988.44 7.26795 0 -319.49
3561.01 2.35751 0 -279.15
4746.71 5.12187 0 -304.372
5968.06 7.52029 0 -320.796
4779.25 4.58635 0 -302.306
4762.98 4.85447 0 -303.348
3548.84 2.63103 0 -279.916
3524.49 3.17566 0 -281.408
5906.92 8.2735 0 -324.586
5947.68 7.772 0 -322.081
3536.66 2.90375 0 -280.668
4714.17 5.65443 0 -306.37
5927.3 8.02308 0 -323.344
4746.71 5.12187 0 -304.372
4730.44 5.38852 0 -305.38
3524.49 3.17566 0 -281.408
3500.14 3.71696 0 -282.848
5866.17 8.77224 0 -327.007
5906.92 8.2735 0 -324.586
3512.31 3.44673 0 -282.134
4681.63 6.18388 0 -308.3
5886.55 8.52323 0 -325.807
4714.17 5.65443 0 -306.37
4697.9 5.91955 0 -307.343
3500.14 3.71696 0 -282.848
3475.8 4.25482 0 -284.238
5825.42 9.26804 0 -329.342
5866.17 8.77224 0 -327.007
3487.97 3.98632 0 -283.55
4649.09 6.71009 0 -310.162
5845.79 9.02052 0 -328.185
4681.63 6.18388 0 -308.3
4665.36 6.4474 0 -309.239
3475.8 4.25482 0 -284.238
3451.45 4.78913 0 -285.578
5784.67 9.76072 0 -331.594
5825.42 9.26804 0 -329.342
3463.62 4.52242 0 -284.915
4616.56 7.23289 0 -311.957
5805.05 9.51479 0 -330.479
4649.09 6.71009 0 -310.162
4632.83 6.97192 0 -311.068
3451.45 4.78913 0 -285.578
3427.11 5.31978 0 -286.868
5743.93 10.2501 0 -333.762
5784.67 9.76072 0 -331.594
3439.28 5.05492 0 -286.229
4584.03 7.75215 0 -313.685
5764.3 10.0058 0 -332.689
4616.56 7.23289 0 -311.957
4600.3 7.49297 0 -312.829
3427.11 5.31978 0 -286.868
3402.77 5.84668 0 -288.108
5703.19 10.736 0 -335.848
5743.93 10.2501 0 -333.762
3414.94 5.58371 0 -287.494
4551.51 8.26772 0 -315.348
5723.56 10.4935 0 -334.816
4584.03 7.75215 0 -313.685
4567.77 8.0104 0 -314.525
3402.77 5.84668 0 -288.108
3378.44 6.36971 0 -289.299
5662.46 11.2183 0 -337.852
5703.19 10.736 0 -335.848
3390.6 6.10868 0 -288.71
4518.99 8.77947 0 -316.944
5682.83 10.9776 0 -336.86
4551.51 8.26772 0 -315.348
4535.25 8.52408 0 -316.154
3378.44 6.36971 0 -289.299
3354.1 6.88878 0 -290.441
5621.74 11.6967 0 -339.774
5662.46 11.2183 0 -337.852
3366.27 6.62975 0 -289.876
4486.47 9.28727 0 -318.475
5642.1 11.458 0 -338.823
4518.99 8.77947 0 -316.944
4502.73 9.03387 0 -317.718
3354.1 6.88878 0 -290.441
3329.77 7.40379 0 -291.534
5581.02 12.1712 0 -341.615
5621.74 11.6967 0 -339.774
3341.94 7.1468 0 -290.994
4453.95 9.79099 0 -319.942
5601.38 11.9344 0 -340.705
4486.47 9.28727 0 -318.475
4470.21 9.53965 0 -319.217
3329.77 7.40379 0 -291.534
3305.44 7.91464 0 -292.58
5540.3 12.6415 0 -343.376
5581.02 12.1712 0 -341.615
3317.6 7.65974 0 -292.063
4421.44 10.2905 0 -321.345
5560.66 12.4069 0 -342.506
4453.95 9.79099 0 -319.942
4437.7 10.0413 0 -320.651
3305.44 7.91464 0 -292.58
3281.11 8.42125 0 -293.577
5499.59 13.1075 0 -345.057
5540.3 12.6415 0 -343.376
3293.28 8.16848 0 -293.085
4388.93 10.7857 0 -322.683
5519.94 12.8751 0 -344.226
4421.44 10.2905 0 -321.345
4405.19 10.5386 0 -322.022
3281.11 8.42125 0 -293.577
3256.79 8.92351 0 -294.527
5458.88 13.5691 0 -346.659
5499.59 13.1075 0 -345.057
3268.95 8.67293 0 -294.058
4356.43 11.2764 0 -323.959
5479.24 13.3389 0 -345.868
4388.93 10.7857 0 -322.683
4372.68 11.0316 0 -323.329
3256.79 8.92351 0 -294.527
3232.47 9.42135 0 -295.43
5418.19 14.0261 0 -348.183
5458.88 13.5691 0 -346.659
3244.63 9.17299 0 -294.985
4323.93 11.7625 0 -325.171
5438.53 13.7982 0 -347.431
4356.43 11.2764 0 -323.959
4340.18 11.52 0 -324.573
3232.47 9.42135 0 -295.43
3208.15 9.91467 0 -296.287
5377.49 14.4784 0 -349.628
5418.19 14.0261 0 -348.183
3220.31 9.66858 0 -295.864
4291.44 12.244 0 -326.322
5397.84 14.2529 0 -348.915
4323.93 11.7625 0 -325.171
4307.68 12.0038 0 -325.754
3208.15 9.91467 0 -296.287
3183.83 10.4034 0 -297.097
5336.81 14.9258 0 -350.997
5377.49 14.4784 0 -349.628
3195.99 10.1596 0 -296.697
4258.95 12.7206 0 -327.41
5357.15 14.7027 0 -350.322
4291.44 12.244 0 -326.322
4275.19 12.4829 0 -326.874
3183.83 10.4034 0 -297.097
3159.52 10.8874 0 -297.86
5296.13 15.3682 0 -352.288
5336.81 14.9258 0 -350.997
3171.68 10.646 0 -297.484
4226.46 13.1923 0 -328.437
5316.47 15.1476 0 -351.652
4258.95 12.7206 0 -327.41
4242.71 12.9571 0 -327.931
3159.52 10.8874 0 -297.86
3135.21 11.3667 0 -298.579
5255.45 15.8054 0 -353.504
5296.13 15.3682 0 -352.288
3147.37 11.1277 0 -298.225
4193.98 13.659 0 -329.404
5275.79 15.5874 0 -352.906
4226.46 13.1923 0 -328.437
4210.22 13.4263 0 -328.928
3135.21 11.3667 0 -298.579
3110.91 11.8412 0 -299.252
5214.78 16.2373 0 -354.644
5255.45 15.8054 0 -353.504
3123.06 11.6046 0 -298.921
4161.51 14.1206 0 -330.31
5235.12 16.022 0 -354.083
4193.98 13.659 0 -329.404
4177.75 13.8905 0 -329.864
3110.91 11.8412 0 -299.252
3086.6 12.3107 0 -299.88
5174.12 16.6639 0 -355.709
5214.78 16.2373 0 -354.644
3098.75 12.0766 0 -299.571
4129.04 14.577 0 -331.156
5194.45 16.4513 0 -355.186
4161.51 14.1206 0 -330.31
4145.27 14.3495 0 -330.74
3086.6 12.3107 0 -299.88
3062.3 12.7753 0 -300.463
5133.47 17.0849 0 -356.7
5174.12 16.6639 0 -355.709
3074.45 12.5436 0 -300.177
4096.57 15.0281 0 -331.942
5153.8 16.8751 0 -356.214
4129.04 14.577 0 -331.156
4112.8 14.8032 0 -331.556
3062.3 12.7753 0 -300.463
3038.01 13.2348 0 -301.003
5092.82 17.5003 0 -357.617
5133.47 17.0849 0 -356.7
3050.16 13.0057 0 -300.738
4064.11 15.4737 0 -332.67
5113.15 17.2933 0 -357.167
4096.57 15.0281 0 -331.942
4080.34 15.2516 0 -332.313
3038.01 13.2348 0 -301.003
3013.72 13.6892 0 -301.498
5052.18 17.91 0 -358.461
5092.82 17.5003 0 -357.617
3025.86 13.4626 0 -301.256
4031.66 15.9139 0 -333.339
5072.5 17.7059 0 -358.048
4064.11 15.4737 0 -332.67
4047.88 15.6945 0 -333.012
3013.72 13.6892 0 -301.498
2989.43 14.1384 0 -301.95
5011.55 18.3137 0 -359.232
5052.18 17.91 0 -358.461
3001.57 13.9144 0 -301.73
3999.21 16.3484 0 -333.95
5031.87 18.1126 0 -358.856
4031.66 15.9139 0 -333.339
4015.43 16.1318 0 -333.652
2989.43 14.1384 0 -301.95
2965.14 14.5823 0 -302.359
4970.93 18.7115 0 -359.932
5011.55 18.3137 0 -359.232
2977.29 14.361 0 -302.16
3966.76 16.7773 0 -334.504
4991.24 18.5134 0 -359.591
3999.21 16.3484 0 -333.95
3982.98 16.5636 0 -334.234
2965.14 14.5823 0 -302.359
2940.86 15.0209 0 -302.725
4930.31 19.1033 0 -360.56
4970.93 18.7115 0 -359.932
2953 14.8023 0 -302.547
3934.32 17.2004 0 -335.001
4950.62 18.9082 0 -360.255
3966.76 16.7773 0 -334.504
3950.54 16.9896 0 -334.759
2940.86 15.0209 0 -302.725
2916.58 15.4542 0 -303.049
4889.7 19.4888 0 -361.117
4930.31 19.1033 0 -360.56
2928.72 15.2382 0 -302.892
3901.89 17.6176 0 -335.441
4910 19.2968 0 -360.848
3934.32 17.2004 0 -335.001
3918.11 17.4098 0 -335.228
2916.58 15.4542 0 -303.049
2892.31 15.882 0 -303.331
4849.1 19.8681 0 -361.605
4889.7 19.4888 0 -361.117
2904.45 15.6688 0 -303.195
3869.46 18.029 0 -335.825
4869.4 19.6792 0 -361.37
3901.89 17.6176 0 -335.441
3885.68 17.8241 0 -335.64
2892.31 15.882 0 -303.331
2868.04 16.3043 0 -303.571
4808.5 20.2409 0 -362.023
4849.1 19.8681 0 -361.605
2880.18 16.0938 0 -303.456
3837.04 18.4343 0 -336.153
4828.8 20.0553 0 -361.822
3869.46 18.029 0 -335.825
3853.25 18.2324 0 -335.996
2868.04 16.3043 0 -303.571
2843.78 16.7211 0 -303.769
4767.92 20.6074 0 -362.372
4808.5 20.2409 0 -362.023
2855.91 16.5134 0 -303.675
3804.62 18.8336 0 -336.427
4788.21 20.425 0 -362.206
3837.04 18.4343 0 -336.153
3820.83 18.6347 0 -336.297
2843.78 16.7211 0 -303.769
2819.51 17.1323 0 -303.927
4727.34 20.9673 0 -362.652
4767.92 20.6074 0 -362.372
2831.65 16.9274 0 -303.853
3772.21 19.2268 0 -336.645
4747.63 20.7881 0 -362.52
3804.62 18.8336 0 -336.427
3788.42 19.031 0 -336.543
2819.51 17.1323 0 -303.927
2795.26 17.5378 0 -304.044
4686.77 21.3205 0 -362.865
4727.34 20.9673 0 -362.652
2807.39 17.3357 0 -303.991
3739.81 19.6137 0 -336.81
4707.05 21.1447 0 -362.767
3772.21 19.2268 0 -336.645
3756.01 19.421 0 -336.734
2795.26 17.5378 0 -304.044
2771 17.9376 0 -304.121
4646.2 21.667 0 -363.011
4686.77 21.3205 0 -362.865
2783.13 17.7384 0 -304.088
3707.41 19.9944 0 -336.921
4666.48 21.4946 0 -362.946
3739.81 19.6137 0 -336.81
3723.61 19.8048 0 -336.872
2771 17.9376 0 -304.121
2746.75 18.3317 0 -304.158
4605.65 22.0068 0 -363.09
4646.2 21.667 0 -363.011
2758.88 18.1354 0 -304.145
3675.02 20.3687 0 -336.978
4625.93 21.8378 0 -363.059
3707.41 19.9944 0 -336.921
3691.22 20.1823 0 -336.956
2746.75 18.3317 0 -304.158
2722.51 18.7201 0 -304.156
4565.1 22.3396 0 -363.103
4605.65 22.0068 0 -363.09
2734.63 18.5266 0 -304.162
3642.63 20.7367 0 -336.983
4585.38 22.1741 0 -363.105
3675.02 20.3687 0 -336.978
3658.83 20.5535 0 -336.987
2722.51 18.7201 0 -304.156
2698.27 19.1025 0 -304.114
4524.56 22.6656 0 -363.051
4565.1 22.3396 0 -363.103
2710.39 18.912 0 -304.14
3610.25 21.0981 0 -336.936
4544.83 22.5035 0 -363.085
3642.63 20.7367 0 -336.983
3626.44 20.9182 0 -336.966
2698.27 19.1025 0 -304.114
2674.03 19.4792 0 -304.034
4484.04 22.9845 0 -362.934
4524.56 22.6656 0 -363.051
2686.15 19.2916 0 -304.079
3577.88 21.4531 0 -336.837
4504.3 22.8259 0 -363.001
3610.25 21.0981 0 -336.936
3594.07 21.2765 0 -336.893
2674.03 19.4792 0 -304.034
2649.8 19.8499 0 -303.915
4443.51 23.2964 0 -362.753
4484.04 22.9845 0 -362.934
2661.92 19.6652 0 -303.979
3545.51 21.8016 0 -336.687
4463.77 23.1413 0 -362.852
3577.88 21.4531 0 -336.837
3561.7 21.6282 0 -336.768
2649.8 19.8499 0 -303.915
2625.57 20.2146 0 -303.758
4403 23.6011 0 -362.509
4443.51 23.2964 0 -362.753
2637.69 20.033 0 -303.841
3513.15 22.1434 0 -336.486
4423.26 23.4496 0 -362.639
3545.51 21.8016 0 -336.687
3529.33 21.9733 0 -336.592
2625.57 20.2146 0 -303.758
2601.35 20.5734 0 -303.563
4362.5 23.8986 0 -362.201
4403 23.6011 0 -362.509
2613.46 20.3948 0 -303.665
3480.8 22.4786 0 -336.234
4382.75 23.7508 0 -362.363
3513.15 22.1434 0 -336.486
3496.97 22.3119 0 -336.366
2601.35 20.5734 0 -303.563
2577.13 20.9262 0 -303.331
4322 24.1889 0 -361.831
4362.5 23.8986 0 -362.201
2589.24 20.7506 0 -303.452
3448.45 22.8071 0 -335.933
4342.25 24.0447 0 -362.024
3480.8 22.4786 0 -336.234
3464.62 22.6437 0 -336.09
2577.13 20.9262 0 -303.331
2552.92 21.2729 0 -303.062
4281.51 24.4719 0 -361.4
4322 24.1889 0 -361.831
2565.02 21.1003 0 -303.201
3416.11 23.1289 0 -335.582
4301.76 24.3313 0 -361.623
3448.45 22.8071 0 -335.933
3432.28 22.9688 0 -335.763
2552.92 21.2729 0 -303.062
2528.71 21.6136 0 -302.757
4241.04 24.7475 0 -360.907
4281.51 24.4719 0 -361.4
2540.81 21.444 0 -302.914
3383.77 23.4438 0 -335.182
4261.27 24.6106 0 -361.161
3416.11 23.1289 0 -335.582
3399.94 23.2872 0 -335.388
2528.71 21.6136 0 -302.757
2504.5 21.9481 0 -302.415
4200.57 25.0157 0 -360.353
4241.04 24.7475 0 -360.907
2516.6 21.7816 0 -302.59
3351.45 23.752 0 -334.734
4220.8 24.8826 0 -360.638
3383.77 23.4438 0 -335.182
3367.61 23.5988 0 -334.964
2504.5 21.9481 0 -302.415
2480.3 22.2765 0 -302.037
4160.11 25.2765 0 -359.74
4200.57 25.0157 0 -360.353
2492.4 22.1131 0 -302.23
3319.12 24.0533 0 -334.238
4180.34 25.1471 0 -360.054
3351.45 23.752 0 -334.734
3335.28 23.9035 0 -334.492
2480.3 22.2765 0 -302.037
2456.11 22.5988 0 -301.623
4119.65 25.5298 0 -359.067
4160.11 25.2765 0 -359.74
2468.2 22.4385 0 -301.834
3286.81 24.3477 0 -333.695
4139.88 25.4041 0 -359.411
3319.12 24.0533 0 -334.238
3302.97 24.2014 0 -333.972
2456.11 22.5988 0 -301.623
2431.91 22.9149 0 -301.174
4079.21 25.7756 0 -358.335
4119.65 25.5298 0 -359.067
2444.01 22.7576 0 -301.403
3254.5 24.6353 0 -333.104
4099.43 25.6537 0 -358.709
3286.81 24.3477 0 -333.695
3270.65 24.4924 0 -333.405
2431.91 22.9149 0 -301.174
2407.73 23.2248 0 -300.691
4038.78 26.0138 0 -357.546
4079.21 25.7756 0 -358.335
2419.82 23.0707 0 -300.937
3222.2 24.9158 0 -332.467
4058.99 25.8957 0 -357.948
3254.5 24.6353 0 -333.104
3238.35 24.7764 0 -332.791
2407.73 23.2248 0 -300.691
2383.54 23.5285 0 -300.173
3998.35 26.2445 0 -356.698
4038.78 26.0138 0 -357.546
2395.64 23.3775 0 -300.436
3189.9 25.1894 0 -331.784
4018.56 26.1301 0 -357.129
3222.2 24.9158 0 -332.467
3206.05 25.0535 0 -332.131
2383.54 23.5285 0 -300.173
2359.37 23.826 0 -299.62
3957.94 26.4675 0 -355.794
3998.35 26.2445 0 -356.698
2371.46 23.678 0 -299.901
3157.61 25.4561 0 -331.055
3978.14 26.3569 0 -356.253
3189.9 25.1894 0 -331.784
3173.76 25.3236 0 -331.425
2359.37 23.826 0 -299.62
2335.19 24.1172 0 -299.034
3917.53 26.6828 0 -354.833
3957.94 26.4675 0 -355.794
2347.28 23.9724 0 -299.332
3125.33 25.7157 0 -330.281
3937.73 26.5761 0 -355.32
3157.61 25.4561 0 -331.055
3141.47 25.5867 0 -330.674
2335.19 24.1172 0 -299.034
2311.03 24.4021 0 -298.415
3877.13 26.8905 0 -353.816
3917.53 26.6828 0 -354.833
2323.11 24.2604 0 -298.729
3093.06 25.9682 0 -329.463
3897.33 26.7876 0 -354.331
3125.33 25.7157 0 -330.281
3109.19 25.8428 0 -329.878
2311.03 24.4021 0 -298.415
2286.86 24.6808 0 -297.762
3836.74 27.0905 0 -352.744
3877.13 26.8905 0 -353.816
2298.94 24.5422 0 -298.093
3060.79 26.2137 0 -328.6
3856.94 26.9915 0 -353.287
3093.06 25.9682 0 -329.463
3076.92 26.0919 0 -329.037
2286.86 24.6808 0 -297.762
2262.7 24.9532 0 -297.077
3796.36 27.2828 0 -351.617
3836.74 27.0905 0 -352.744
2274.78 24.8178 0 -297.423
3028.53 26.4522 0 -327.694
3816.55 27.1876 0 -352.187
3060.79 26.2137 0 -328.6
3044.66 26.3339 0 -328.152
2262.7 24.9532 0 -297.077
2238.55 25.2193 0 -296.359
3755.99 27.4673 0 -350.436
3796.36 27.2828 0 -351.617
2250.63 25.087 0 -296.722
2996.27 26.6836 0 -326.744
3776.18 27.376 0 -351.033
3028.53 26.4522 0 -327.694
3012.4 26.5688 0 -327.224
2238.55 25.2193 0 -296.359
2214.4 25.479 0 -295.609
3715.63 27.6442 0 -349.202
3755.99 27.4673 0 -350.436
2226.47 25.3499 0 -295.988
2964.03 26.9079 0 -325.752
3735.81 27.5567 0 -349.826
2996.27 26.6836 0 -326.744
2980.15 26.7966 0 -326.253
2214.4 25.479 0 -295.609
2190.26 25.7325 0 -294.828
3675.28 27.8132 0 -347.915
3715.63 27.6442 0 -349.202
2202.33 25.6066 0 -295.222
2931.79 27.1251 0 -324.717
3695.45 27.7296 0 -348.565
2964.03 26.9079 0 -325.752
2947.9 27.0173 0 -325.24
2190.26 25.7325 0 -294.828
2166.12 25.9797 0 -294.015
3634.93 27.9745 0 -346.575
3675.28 27.8132 0 -347.915
2178.18 25.8569 0 -294.425
2899.55 27.3351 0 -323.641
3655.1 27.8948 0 -347.251
2931.79 27.1251 0 -324.717
2915.67 27.231 0 -324.184
2166.12 25.9797 0 -294.015
2141.98 26.2205 0 -293.171
3594.6 28.128 0 -345.184
3634.93 27.9745 0 -346.575
2154.05 26.1009 0 -293.597
2867.32 27.5381 0 -322.523
3614.76 28.0522 0 -345.886
2899.55 27.3351 0 -323.641
2883.44 27.4375 0 -323.087
2141.98 26.2205 0 -293.171
2117.85 26.455 0 -292.297
3554.27 28.2737 0 -343.741
3594.6 28.128 0 -345.184
2129.91 26.3385 0 -292.738
2835.1 27.734 0 -321.364
3574.43 28.2018 0 -344.469
2867.32 27.5381 0 -322.523
2851.21 27.6369 0 -321.949
2117.85 26.455 0 -292.297
2093.72 26.6832 0 -291.392
3513.96 28.4117 0 -342.248
3554.27 28.2737 0 -343.741
2105.79 26.5699 0 -291.848
2802.89 27.9227 0 -320.165
3534.11 28.3437 0 -343.001
2835.1 27.734 0 -321.364
2819 27.8292 0 -320.77
2093.72 26.6832 0 -291.392
2069.6 26.9051 0 -290.458
3473.65 28.5419 0 -340.706
3513.96 28.4117 0 -342.248
2081.66 26.7949 0 -290.929
2770.68 28.1043 0 -318.926
3493.8 28.4777 0 -341.483
2802.89 27.9227 0 -320.165
2786.79 28.0144 0 -319.551
2069.6 26.9051 0 -290.458
2045.49 27.1206 0 -289.494
3433.35 28.6643 0 -339.113
3473.65 28.5419 0 -340.706
2057.54 27.0136 0 -289.979
2738.48 28.2789 0 -317.648
3453.5 28.604 0 -339.916
2770.68 28.1043 0 -318.926
2754.58 28.1925 0 -318.292
2045.49 27.1206 0 -289.494
2021.37 27.3298 0 -288.5
3393.06 28.7789 0 -337.472
3433.35 28.6643 0 -339.113
2033.43 27.226 0 -289.001
2706.29 28.4463 0 -316.33
3413.2 28.7225 0 -338.299
2738.48 28.2789 0 -317.648
2722.38 28.3634 0 -316.994
2021.37 27.3298 0 -288.5
1997.27 27.5327 0 -287.478
3352.78 28.8858 0 -335.783
3393.06 28.7789 0 -337.472
2009.32 27.4321 0 -287.993
2674.1 28.6066 0 -314.974
3372.92 28.8333 0 -336.634
2706.29 28.4463 0 -316.33
2690.19 28.5273 0 -315.657
1997.27 27.5327 0 -287.478
1973.17 27.7294 0 -286.427
3312.51 28.9849 0 -334.046
3352.78 28.8858 0 -335.783
1985.22 27.6318 0 -286.956
2641.92 28.7598 0 -313.58
3332.64 28.9363 0 -334.92
2674.1 28.6066 0 -314.974
2658.01 28.6841 0 -314.282
1973.17 27.7294 0 -286.427
1949.07 27.9197 0 -285.349
3272.25 29.0763 0 -332.262
3312.51 28.9849 0 -334.046
1961.12 27.8253 0 -285.892
2609.75 28.9059 0 -312.149
3292.38 29.0316 0 -333.16
2641.92 28.7598 0 -313.58
2625.83 28.8337 0 -312.869
1949.07 27.9197 0 -285.349
1924.97 28.1037 0 -284.242
3231.99 29.1599 0 -330.432
3272.25 29.0763 0 -332.262
1937.02 28.0125 0 -284.799
2577.58 29.045 0 -310.68
3252.12 29.1191 0 -331.353
2609.75 28.9059 0 -312.149
2593.67 28.9763 0 -311.419
1924.97 28.1037 0 -284.242
1900.89 28.2815 0 -283.108
3191.75 29.2359 0 -328.555
3231.99 29.1599 0 -330.432
1912.93 28.1934 0 -283.678
2545.42 29.177 0 -309.175
3211.87 29.1989 0 -329.499
2577.58 29.045 0 -310.68
2561.5 29.1119 0 -309.932
1900.89 28.2815 0 -283.108
1876.8 28.4529 0 -281.947
3151.51 29.3042 0 -326.634
3191.75 29.2359 0 -328.555
1888.84 28.368 0 -282.531
2513.27 29.302 0 -307.633
3171.63 29.271 0 -327.6
2545.42 29.177 0 -309.175
2529.35 29.2404 0 -308.408
1876.8 28.4529 0 -281.947
1852.72 28.6182 0 -280.759
3111.28 29.3648 0 -324.668
3151.51 29.3042 0 -326.634
1864.76 28.5363 0 -281.356
2481.12 29.4199 0 -306.056
3131.4 29.3354 0 -325.656
2513.27 29.302 0 -307.633
2497.2 29.3618 0 -306.849
1852.72 28.6182 0 -280.759
1828.65 28.7772 0 -279.545
3071.07 29.4177 0 -322.657
3111.28 29.3648 0 -324.668
1840.69 28.6985 0 -280.155
2448.98 29.5309 0 -304.443
3091.17 29.3922 0 -323.668
2481.12 29.4199 0 -306.056
2465.05 29.4763 0 -305.254
1828.65 28.7772 0 -279.545
1804.58 28.9299 0 -278.304
3030.86 29.4631 0 -320.603
3071.07 29.4177 0 -322.657
1816.61 28.8543 0 -278.928
2416.85 29.6348 0 -302.796
3050.96 29.4414 0 -321.636
2448.98 29.5309 0 -304.443
2432.92 29.5837 0 -303.624
1804.58 28.9299 0 -278.304
1780.51 29.0765 0 -277.038
2990.66 29.5008 0 -318.506
3030.86 29.4631 0 -320.603
1792.54 29.004 0 -277.675
2384.72 29.7318 0 -301.114
3010.76 29.4829 0 -319.56
2416.85 29.6348 0 -302.796
2400.79 29.6842 0 -301.959
1780.51 29.0765 0 -277.038
1756.45 29.2169 0 -275.747
2950.46 29.531 0 -316.367
2990.66 29.5008 0 -318.506
1768.48 29.1475 0 -276.396
2352.6 29.8219 0 -299.399
2970.56 29.5169 0 -317.442
2384.72 29.7318 0 -301.114
2368.66 29.7777 0 -300.261
1756.45 29.2169 0 -275.747
1732.4 29.3511 0 -274.431
2910.28 29.5537 0 -314.186
2950.46 29.531 0 -316.367
1744.42 29.2848 0 -275.092
2320.49 29.905 0 -297.65
2930.37 29.5433 0 -315.282
2352.6 29.8219 0 -299.399
2336.55 29.8643 0 -298.528
1732.4 29.3511 0 -274.431
1708.34 29.4792 0 -273.09
2870.11 29.5689 0 -311.964
2910.28 29.5537 0 -314.186
1720.37 29.4159 0 -273.763
2288.38 29.9813 0 -295.868
2890.19 29.5622 0 -313.08
2320.49 29.905 0 -297.65
2304.44 29.944 0 -296.763
1708.34 29.4792 0 -273.09
1684.3 29.6011 0 -271.724
2829.94 29.5766 0 -309.701
2870.11 29.5689 0 -311.964
1696.32 29.5409 0 -272.41
2256.28 30.0507 0 -294.054
2850.02 29.5737 0 -310.838
2288.38 29.9813 0 -295.868
2272.33 30.0168 0 -294.965
1684.3 29.6011 0 -271.724
1660.25 29.717 0 -270.335
2789.78 29.5769 0 -307.398
2829.94 29.5766 0 -309.701
1672.27 29.6598 0 -271.033
2224.19 30.1133 0 -292.207
2809.86 29.5777 0 -308.555
2256.28 30.0507 0 -294.054
2240.23 30.0828 0 -293.134
1660.25 29.717 0 -270.335
1636.21 29.8267 0 -268.922
2749.63 29.5698 0 -305.056
2789.78 29.5769 0 -307.398
1648.23 29.7726 0 -269.632
2192.1 30.1691 0 -290.329
2769.71 29.5743 0 -306.232
2224.19 30.1133 0 -292.207
2208.14 30.142 0 -291.272
1636.21 29.8267 0 -268.922
1612.18 29.9304 0 -267.486
2709.49 29.5554 0 -302.674
2749.63 29.5698 0 -305.056
1624.2 29.8793 0 -268.207
2160.02 30.2181 0 -288.421
2729.56 29.5635 0 -303.87
2192.1 30.1691 0 -290.329
2176.06 30.1944 0 -289.379
1612.18 29.9304 0 -267.486
1588.15 30.0281 0 -266.027
2669.36 29.5336 0 -300.255
2709.49 29.5554 0 -302.674
1600.16 29.98 0 -266.76
2127.94 30.2604 0 -286.481
2689.43 29.5454 0 -301.469
2160.02 30.2181 0 -288.421
2143.98 30.2401 0 -287.455
1588.15 30.0281 0 -266.027
1564.12 30.1198 0 -264.546
2629.24 29.5047 0 -297.797
2669.36 29.5336 0 -300.255
1576.13 30.0747 0 -265.289
2095.87 30.296 0 -284.511
2649.3 29.52 0 -299.031
2127.94 30.2604 0 -286.481
2111.91 30.279 0 -285.5
1564.12 30.1198 0 -264.546
1540.1 30.2055 0 -263.042
2589.12 29.4685 0 -295.303
2629.24 29.5047 0 -297.797
1552.11 30.1634 0 -263.797
2063.81 30.3249 0 -282.512
2609.18 29.4875 0 -296.555
2095.87 30.296 0 -284.511
2079.84 30.3113 0 -283.515
1540.1 30.2055 0 -263.042
1516.08 30.2852 0 -261.516
2549.01 29.4251 0 -292.772
2589.12 29.4685 0 -295.303
1528.09 30.2461 0 -262.282
2031.75 30.3473 0 -280.483
2569.07 29.4477 0 -294.042
2063.81 30.3249 0 -282.512
2047.78 30.3369 0 -281.501
1516.08 30.2852 0 -261.516
1492.07 30.3591 0 -259.969
2508.92 29.3747 0 -290.205
2549.01 29.4251 0 -292.772
1504.08 30.3229 0 -260.745
1999.7 30.363 0 -278.426
2528.96 29.4008 0 -291.493
2031.75 30.3473 0 -280.483
2015.73 30.356 0 -279.458
1492.07 30.3591 0 -259.969
1468.06 30.4271 0 -258.401
2468.82 29.3172 0 -287.602
2508.92 29.3747 0 -290.205
1480.06 30.3938 0 -259.188
1967.66 30.3723 0 -276.341
2488.87 29.3468 0 -288.908
1999.7 30.363 0 -278.426
1983.68 30.3684 0 -277.387
1468.06 30.4271 0 -258.401
1444.05 30.4892 0 -256.812
2428.74 29.2527 0 -284.965
2468.82 29.3172 0 -287.602
1456.06 30.4588 0 -257.609
1935.62 30.375 0 -274.227
2448.78 29.2858 0 -286.288
1967.66 30.3723 0 -276.341
1951.64 30.3744 0 -275.287
1444.05 30.4892 0 -256.812
1420.05 30.5455 0 -255.202
2388.67 29.1812 0 -282.293
2428.74 29.2527 0 -284.965
1432.05 30.5181 0 -256.009
1903.58 30.3713 0 -272.086
2408.7 29.2178 0 -283.633
1935.62 30.375 0 -274.227
1919.6 30.3739 0 -273.16
1420.05 30.5455 0 -255.202
1396.06 30.596 0 -253.572
2348.6 29.1029 0 -279.588
2388.67 29.1812 0 -282.293
1408.05 30.5715 0 -254.39
1871.56 30.3612 0 -269.919
2368.63 29.1429 0 -280.945
1903.58 30.3713 0 -272.086
1887.57 30.367 0 -271.006
1396.06 30.596 0 -253.572
1372.06 30.6408 0 -251.923
2308.54 29.0177 0 -276.849
2348.6 29.1029 0 -279.588
1384.06 30.6191 0 -252.75
1839.54 30.3447 0 -267.724
2328.57 29.0611 0 -278.223
1871.56 30.3612 0 -269.919
1855.55 30.3537 0 -268.825
1372.06 30.6408 0 -251.923
1348.07 30.6799 0 -250.254
2268.49 28.9258 0 -274.078
2308.54 29.0177 0 -276.849
1360.07 30.661 0 -251.091
1807.52 30.322 0 -265.504
2288.51 28.9726 0 -275.468
1839.54 30.3447 0 -267.724
1823.53 30.3341 0 -266.618
1348.07 30.6799 0 -250.254
1324.09 30.7133 0 -248.566
2228.44 28.8271 0 -271.275
2268.49 28.9258 0 -274.078
1336.08 30.6973 0 -249.412
1775.51 30.293 0 -263.259
2248.46 28.8773 0 -272.681
1807.52 30.322 0 -265.504
1791.51 30.3082 0 -264.385
1324.09 30.7133 0 -248.566
1300.11 30.741 0 -246.859
2188.41 28.7218 0 -268.441
2228.44 28.8271 0 -271.275
1312.1 30.7279 0 -247.715
1743.51 30.2577 0 -260.988
2208.42 28.7753 0 -269.862
1775.51 30.293 0 -263.259
1759.51 30.2761 0 -262.126
1300.11 30.741 0 -246.859
1276.13 30.7632 0 -245.134
2148.38 28.61 0 -265.576
2188.41 28.7218 0 -268.441
1288.12 30.7528 0 -245.999
1711.51 30.2164 0 -258.692
2168.39 28.6667 0 -267.012
1743.51 30.2577 0 -260.988
1727.51 30.2378 0 -259.843
1276.13 30.7632 0 -245.134
1252.15 30.7798 0 -243.391
2108.36 28.4916 0 -262.68
2148.38 28.61 0 -265.576
1264.14 30.7722 0 -244.264
1679.51 30.1689 0 -256.373
2128.37 28.5516 0 -264.132
1711.51 30.2164 0 -258.692
1695.51 30.1934 0 -257.536
1252.15 30.7798 0 -243.391
1228.18 30.7909 0 -241.63
2068.34 28.3667 0 -259.755
2108.36 28.4916 0 -262.68
1240.17 30.7861 0 -242.512
1647.53 30.1154 0 -254.03
2088.35 28.4299 0 -261.221
1679.51 30.1689 0 -256.373
1663.52 30.1429 0 -255.204
1228.18 30.7909 0 -241.63
1204.22 30.7966 0 -239.851
2028.33 28.2355 0 -256.801
2068.34 28.3667 0 -259.755
1216.2 30.7944 0 -240.742
1615.54 30.0559 0 -251.663
2048.34 28.3019 0 -258.282
1647.53 30.1154 0 -254.03
1631.53 30.0864 0 -252.849
1204.22 30.7966 0 -239.851
1180.25 30.7968 0 -238.056
1988.33 28.098 0 -253.818
2028.33 28.2355 0 -256.801
1192.24 30.7974 0 -238.956
1583.57 29.9905 0 -249.274
2008.33 28.1675 0 -255.313
1615.54 30.0559 0 -251.663
1599.55 30.0239 0 -250.471
1180.25 30.7968 0 -238.056
1156.29 30.7916 0 -236.244
1948.34 27.9542 0 -250.807
1988.33 28.098 0 -253.818
1168.27 30.7949 0 -237.152
1551.59 29.9192 0 -246.862
1968.34 28.0269 0 -252.316
1583.57 29.9905 0 -249.274
1567.58 29.9555 0 -248.071
1156.29 30.7916 0 -236.244
1132.34 30.7811 0 -234.415
1908.36 27.8043 0 -247.769
1948.34 27.9542 0 -250.807
1144.32 30.787 0 -235.331
1519.63 29.842 0 -244.429
1928.35 27.88 0 -249.292
1551.59 29.9192 0 -246.862
1535.61 29.8813 0 -245.648
1132.34 30.7811 0 -234.415
1108.39 30.7653 0 -232.571
1868.38 27.6483 0 -244.704
1908.36 27.8043 0 -247.769
1120.36 30.7739 0 -233.495
1487.66 29.7592 0 -241.974
1888.37 27.7271 0 -246.24
1519.63 29.842 0 -244.429
1503.65 29.8013 0 -243.204
1108.39 30.7653 0 -232.571
1084.44 30.7442 0 -230.711
1828.41 27.4863 0 -241.613
1868.38 27.6483 0 -244.704
1096.41 30.7554 0 -231.643
1455.71 29.6706 0 -239.498
1848.39 27.568 0 -243.162
1487.66 29.7592 0 -241.974
1471.69 29.7156 0 -240.739
1084.44 30.7442 0 -230.711
1060.49 30.7179 0 -228.835
1788.44 27.3183 0 -238.496
1828.41 27.4863 0 -241.613
1072.46 30.7317 0 -229.775
1423.76 29.5764 0 -237.002
1808.42 27.403 0 -240.058
1455.71 29.6706 0 -239.498
1439.73 29.6242 0 -238.252
1060.49 30.7179 0 -228.835
1036.55 30.6865 0 -226.945
1748.48 27.1445 0 -235.354
1788.44 27.3183 0 -238.496
1048.52 30.7029 0 -227.892
1391.81 29.4766 0 -234.485
1768.46 27.2321 0 -236.928
1423.76 29.5764 0 -237.002
1407.78 29.5272 0 -235.746
1036.55 30.6865 0 -226.945
1012.61 30.65 0 -225.04
1708.53 26.9649 0 -232.187
1748.48 27.1445 0 -235.354
1024.58 30.6689 0 -225.994
1359.87 29.3713 0 -231.949
1728.5 27.0554 0 -233.774
1391.81 29.4766 0 -234.485
1375.84 29.4246 0 -233.22
1012.61 30.65 0 -225.04
988.671 30.6084 0 -223.121
1668.58 26.7796 0 -228.997
1708.53 26.9649 0 -232.187
1000.64 30.6298 0 -224.082
1327.93 29.2606 0 -229.394
1688.56 26.873 0 -230.595
1359.87 29.3713 0 -231.949
1343.9 29.3166 0 -230.674
988.671 30.6084 0 -223.121
964.737 30.5618 0 -221.187
1628.64 26.5887 0 -225.783
1668.58 26.7796 0 -228.997
976.704 30.5857 0 -222.156
1296 29.1444 0 -226.82
1648.61 26.6849 0 -227.393
1327.93 29.2606 0 -229.394
1311.96 29.2032 0 -228.11
964.737 30.5618 0 -221.187
940.807 30.5102 0 -219.241
1588.71 26.3923 0 -222.546
1628.64 26.5887 0 -225.783
952.772 30.5366 0 -220.216
1264.07 29.023 0 -224.228
1608.68 26.4912 0 -224.167
1296 29.1444 0 -226.82
1280.03 29.0844 0 -225.527
940.807 30.5102 0 -219.241
916.879 30.4537 0 -217.28
1548.78 26.1904 0 -219.287
1588.71 26.3923 0 -222.546
928.843 30.4826 0 -218.262
1232.14 28.8963 0 -221.619
1568.75 26.292 0 -220.919
1264.07 29.023 0 -224.228
1248.11 28.9603 0 -222.926
916.879 30.4537 0 -217.28
892.955 30.3924 0 -215.307
1508.86 25.9831 0 -216.006
1548.78 26.1904 0 -219.287
904.917 30.4236 0 -216.295
1200.22 28.7645 0 -218.992
1528.82 26.0874 0 -217.649
1232.14 28.8963 0 -221.619
1216.18 28.8311 0 -220.307
892.955 30.3924 0 -215.307
869.033 30.3262 0 -213.322
1468.95 25.7706 0 -212.704
1508.86 25.9831 0 -216.006
880.993 30.3599 0 -214.316
1168.31 28.6275 0 -216.348
1488.9 25.8775 0 -214.358
1200.22 28.7645 0 -218.992
1184.27 28.6966 0 -217.672
869.033 30.3262 0 -213.322
845.114 30.2553 0 -211.324
1429.04 25.5528 0 -209.382
1468.95 25.7706 0 -212.704
857.073 30.2913 0 -212.324
1136.4 28.4855 0 -213.687
1448.99 25.6624 0 -211.045
1168.31 28.6275 0 -216.348
1152.35 28.5571 0 -215.02
845.114 30.2553 0 -211.324
821.198 30.1797 0 -209.314
1389.14 25.33 0 -206.039
1429.04 25.5528 0 -209.382
833.155 30.218 0 -210.321
1104.49 28.3385 0 -211.011
1409.09 25.4421 0 -207.713
1136.4 28.4855 0 -213.687
1120.44 28.4127 0 -212.351
821.198 30.1797 0 -209.314
797.284 30.0994 0 -207.293
1349.24 25.1022 0 -202.677
1389.14 25.33 0 -206.039
809.241 30.1401 0 -208.305
1072.59 28.1867 0 -208.319
1369.19 25.2167 0 -204.361
1104.49 28.3385 0 -211.011
1088.54 28.2632 0 -209.667
797.284 30.0994 0 -207.293
773.373 30.0145 0 -205.26
1309.35 24.8694 0 -199.297
1349.24 25.1022 0 -202.677
785.328 30.0575 0 -206.278
1040.69 28.03 0 -205.613
1329.29 24.9864 0 -200.989
1072.59 28.1867 0 -208.319
1056.64 28.1089 0 -206.968
773.373 30.0145 0 -205.26
749.465 29.925 0 -203.217
1269.46 24.6317 0 -195.897
1309.35 24.8694 0 -199.297
761.419 29.9703 0 -204.24
1008.8 27.8685 0 -202.891
1289.4 24.7512 0 -197.599
1040.69 28.03 0 -205.613
1024.74 27.9498 0 -204.254
749.465 29.925 0 -203.217
725.559 29.8311 0 -201.163
1229.58 24.3894 0 -192.481
1269.46 24.6317 0 -195.897
737.511 29.8786 0 -202.191
976.904 27.7024 0 -200.156
1249.52 24.5111 0 -194.191
1008.8 27.8685 0 -202.891
992.849 27.786 0 -201.525
725.559 29.8311 0 -201.163
701.655 29.7327 0 -199.099
1189.7 24.1423 0 -189.047
1229.58 24.3894 0 -192.481
713.606 29.7825 0 -200.132
945.016 27.5316 0 -197.407
1209.64 24.2664 0 -190.766
976.904 27.7024 0 -200.156
960.96 27.6175 0 -198.783
701.655 29.7327 0 -199.099
677.754 29.6299 0 -197.025
1149.83 23.8907 0 -185.596
1189.7 24.1423 0 -189.047
689.704 29.6819 0 -198.063
913.133 27.3563 0 -194.644
1169.76 24.0171 0 -187.324
945.016 27.5316 0 -197.407
929.074 27.4445 0 -196.027
677.754 29.6299 0 -197.025
653.855 29.5227 0 -194.942
1109.96 23.6347 0 -182.13
1149.83 23.8907 0 -185.596
665.804 29.5769 0 -195.985
881.252 27.1765 0 -191.869
1129.9 23.7633 0 -183.865
913.133 27.3563 0 -194.644
897.192 27.2669 0 -193.258
653.855 29.5227 0 -194.942
629.958 29.4113 0 -192.849
1070.1 23.3742 0 -178.648
1109.96 23.6347 0 -182.13
641.906 29.4675 0 -193.897
849.376 26.9922 0 -189.082
1090.03 23.505 0 -180.391
881.252 27.1765 0 -191.869
865.314 27.0849 0 -190.477
629.958 29.4113 0 -192.849
606.063 29.2955 0 -190.748
1030.24 23.1095 0 -175.151
1070.1 23.3742 0 -178.648
618.01 29.3539 0 -191.8
817.502 26.8037 0 -186.283
1050.17 23.2424 0 -176.901
849.376 26.9922 0 -189.082
833.438 26.8985 0 -187.684
606.063 29.2955 0 -190.748
582.171 29.1756 0 -188.639
990.392 22.8406 0 -171.64
1030.24 23.1095 0 -175.151
594.117 29.2361 0 -189.694
785.632 26.6109 0 -183.473
1010.32 22.9755 0 -173.398
817.502 26.8037 0 -186.283
801.566 26.7078 0 -184.879
582.171 29.1756 0 -188.639
558.28 29.0515 0 -186.521
950.544 22.5675 0 -168.116
990.392 22.8406 0 -171.64
570.225 29.1141 0 -187.581
753.764 26.4139 0 -180.651
970.467 22.7046 0 -169.88
785.632 26.6109 0 -183.473
769.698 26.5129 0 -182.063
558.28 29.0515 0 -186.521
534.392 28.9234 0 -184.396
910.7 22.2905 0 -164.578
950.544 22.5675 0 -168.116
546.336 28.988 0 -185.459
721.9 26.2128 0 -177.82
930.621 22.4295 0 -166.349
753.764 26.4139 0 -180.651
737.832 26.3138 0 -179.237
534.392 28.9234 0 -184.396
510.506 28.7913 0 -182.263
870.86 22.0096 0 -161.028
910.7 22.2905 0 -164.578
522.449 28.8578 0 -183.33
690.039 26.0077 0 -174.979
890.78 22.1505 0 -162.805
721.9 26.2128 0 -177.82
705.97 26.1107 0 -176.401
510.506 28.7913 0 -182.263
486.622 28.6555 0 -180.123
831.024 21.725 0 -157.466
870.86 22.0096 0 -161.028
498.564 28.7239 0 -181.194
658.181 25.7988 0 -172.128
850.942 21.8678 0 -159.249
690.039 26.0077 0 -174.979
674.11 25.9037 0 -173.554
486.622 28.6555 0 -180.123
462.74 28.5161 0 -177.977
791.193 21.4367 0 -153.893
831.024 21.725 0 -157.466
474.681 28.5862 0 -179.051
626.327 25.5862 0 -169.268
811.108 21.5813 0 -155.681
658.181 25.7988 0 -172.128
642.254 25.6929 0 -170.699
462.74 28.5161 0 -177.977
438.861 28.3738 0 -175.823
751.365 21.1451 0 -150.309
791.193 21.4367 0 -153.893
450.8 28.4453 0 -176.901
594.475 25.3703 0 -166.399
771.278 21.2913 0 -152.102
626.327 25.5862 0 -169.268
610.4 25.4786 0 -167.834
438.861 28.3738 0 -175.823
414.984 28.2292 0 -173.662
711.542 20.8503 0 -146.713
751.365 21.1451 0 -150.309
426.922 28.3017 0 -174.743
562.627 25.1516 0 -163.52
731.453 20.998 0 -148.512
594.475 25.3703 0 -166.399
578.551 25.2612 0 -164.961
414.984 28.2292 0 -173.662
391.11 28.0839 0 -171.493
671.724 20.553 0 -143.107
711.542 20.8503 0 -146.713
403.047 28.1565 0 -172.578
530.784 24.9311 0 -160.632
691.632 20.7019 0 -144.912
562.627 25.1516 0 -163.52
546.705 25.0414 0 -162.078
391.11 28.0839 0 -171.493
367.238 27.9408 0 -169.314
631.913 20.254 0 -139.488
671.724 20.553 0 -143.107
379.174 28.0118 0 -170.405
498.946 24.7107 0 -157.733
651.817 20.4036 0 -141.299
530.784 24.9311 0 -160.632
514.864 24.8207 0 -159.184
367.238 27.9408 0 -169.314
343.367 27.8046 0 -167.122
592.112 19.9552 0 -135.855
631.913 20.254 0 -139.488
355.303 27.8713 0 -168.22
467.114 24.494 0 -154.818
612.011 20.1044 0 -137.674
498.946 24.7107 0 -157.733
483.029 24.6015 0 -156.277
343.367 27.8046 0 -167.122
319.493 27.6853 0 -164.913
552.325 19.6599 0 -132.2
592.112 19.9552 0 -135.855
331.43 27.7419 0 -166.02
435.288 24.2881 0 -151.88
572.217 19.8069 0 -134.031
467.114 24.494 0 -154.818
451.2 24.3891 0 -153.352
319.493 27.6853 0 -164.913
295.602 27.5988 0 -162.679
512.563 19.3747 0 -128.512
552.325 19.6599 0 -132.2
307.551 27.6365 0 -163.8
403.467 24.1048 0 -148.908
532.44 19.5154 0 -130.361
435.288 24.2881 0 -151.88
419.377 24.1922 0 -150.4
295.602 27.5988 0 -162.679
271.676 27.5771 0 -160.407
472.832 19.1097 0 -124.768
512.563 19.3747 0 -128.512
283.644 27.577 0 -161.549
371.644 23.9685 0 -145.878
492.694 19.2388 0 -126.649
403.467 24.1048 0 -148.908
387.556 24.0292 0 -147.402
271.676 27.5771 0 -160.407
247.655 27.6651 0 -158.08
433.164 18.8882 0 -120.924
472.832 19.1097 0 -124.768
259.684 27.6031 0 -159.252
339.799 23.9146 0 -142.751
452.986 18.9917 0 -122.863
371.644 23.9685 0 -145.878
355.725 23.9264 0 -144.331
247.655 27.6651 0 -158.08
223.472 27.9538 0 -155.666
393.554 18.7343 0 -116.913
433.164 18.8882 0 -120.924
235.584 27.7773 0 -156.887
307.888 24.0159 0 -139.461
413.355 18.7996 0 -118.945
339.799 23.9146 0 -142.751
323.858 23.9431 0 -141.13
223.472 27.9538 0 -155.666
198.9 28.5371 0 -153.143
354.09 18.7212 0 -112.594
393.554 18.7343 0 -116.913
211.26 28.1993 0 -154.419
275.823 24.3531 0 -135.908
373.79 18.7074 0 -114.805
307.888 24.0159 0 -139.461
291.877 24.1404 0 -137.731
198.9 28.5371 0 -153.143
173.757 29.613 0 -150.459
314.655 18.8708 0 -107.808
354.09 18.7212 0 -112.594
186.399 29.0042 0 -151.825
243.4 25.1031 0 -131.947
334.393 18.765 0 -110.272
275.823 24.3531 0 -135.908
259.684 24.68 0 -133.978
173.757 29.613 0 -150.459
147.35 31.2087 0 -147.669
275.464 19.3972 0 -102.194
314.655 18.8708 0 -107.808
160.795 30.3386 0 -149.068
210.307 26.3346 0 -127.421
294.986 19.0951 0 -105.134
243.4 25.1031 0 -131.947
226.937 25.6204 0 -129.79
147.35 31.2087 0 -147.669
119.41 33.4829 0 -144.819
235.726 20.081 0 -95.5612
275.464 19.3972 0 -102.194
133.538 32.2932 0 -146.245
175.769 28.296 0 -122.236
255.784 19.6809 0 -99.0209
210.307 26.3346 0 -127.421
193.338 27.2897 0 -124.861
119.41 33.4829 0 -144.819
88.3728 35.3447 0 -142.559
195.781 21.4828 0 -87.356
235.726 20.081 0 -95.5612
104.497 34.5364 0 -143.547
138.945 30.3223 0 -116.671
215.666 20.8053 0 -91.6807
175.769 28.296 0 -122.236
157.594 29.2366 0 -119.562
88.3728 35.3447 0 -142.559
55.1918 35.3438 0 -141.637
151.673 21.4618 0 -78.5356
195.781 21.4828 0 -87.356
71.7946 35.9197 0 -141.849
97.3382 31.488 0 -112.038
174.756 21.5298 0 -82.9599
138.945 30.3223 0 -116.671
119.212 31.4716 0 -113.888
55.1918 35.3438 0 -141.637
19.143 25.6129 0 -144.397
103.259 20.4182 0 -70.9171
151.673 21.4618 0 -78.5356
37.8431 32.268 0 -142.384
50.4247 24.7605 0 -112.103
127.801 21.9415 0 -74.1922
97.3382 31.488 0 -112.038
74.0804 29.4283 0 -111.476
19.143 25.6129 0 -144.397
-8.52801 -5.66495 0 -149.125
37.6329 1.53687 0 -77.4375
103.259 20.4182 0 -70.9171
2.83623 14.4859 0 -146.772
-2.84778 -5.71384 0 -124.404
74.1325 13.5832 0 -71.3103
50.4247 24.7605 0 -112.103
25.6998 15.5777 0 -115.353
-8.52801 -5.66495 0 -149.125
-22.7242 -87.4775 0 -143.895
-22.5631 -73.4693 0 -120.462
37.6329 1.53687 0 -77.4375
-17.2249 -40.226 0 -149.746
-24.1148 -102.806 0 -143.7
4.9695 -17.5483 0 -90.8882
-2.84778 -5.71384 0 -124.404
-23.8806 -44.5223 0 -136.177
-22.7242 -87.4775 0 -143.895
-14.663 -192.379 0 -89.7005
-9.94327 -383.378 0 -154.1
-22.5631 -73.4693 0 -120.462
-23.0632 -142.328 0 -125.26
7.75782 -278.87 0 -95.2403
-35.6849 -196.864 0 -152.814
-24.1148 -102.806 0 -143.7
-12.4126 -185.27 0 -134.493
7430.33 2214.42 0 -309.171
7871.36 844.806 0 -451.951
10616.9 -195.219 0 123.306
16452.5 4902.87 0 -3962.89
7720.42 1593.63 0 -517.993
9843.46 603.455 0 -589.229
11816.6 -213.904 0 -583.891
8751.2 2607.03 0 -955.49
9714.21 1320.59 0 -906.318
7871.36 844.806 0 -451.951
7993.99 246.237 0 -230.162
10501.4 -112.428 0 21.0893
10616.9 -195.219 0 123.306
7985.61 432.223 0 -334.304
9475.05 85.3081 0 -121.45
10519 33.7644 0 42.0598
9843.46 603.455 0 -589.229
9594.79 216.468 0 -254.224
7993.99 246.237 0 -230.162
7894.82 36.1126 0 -104.427
10690.8 35.8226 0 -10.7383
10501.4 -112.428 0 21.0893
7934.62 116.328 0 -146.883
9347.94 -3.08888 0 -40.6652
10611 -72.2882 0 18.461
9475.05 85.3081 0 -121.45
9405.77 28.595 0 -74.4725
7894.82 36.1126 0 -104.427
7825.31 -10.9268 0 -80.3057
10736.8 -10.1353 0 -43.9521
10690.8 35.8226 0 -10.7383
7864.11 2.28015 0 -87.2909
9288.23 -15.8973 0 -34.4333
10716.3 33.4675 0 -40.9627
9347.94 -3.08888 0 -40.6652
9306.99 -15.7161 0 -27.5015
7825.31 -10.9268 0 -80.3057
7755.42 -28.5515 0 -84.6437
10774.7 12.443 0 -49.3539
10736.8 -10.1353 0 -43.9521
7784.77 -22.3045 0 -79.5032
9260.26 -15.3773 0 -54.3115
10764.1 -6.95319 0 -42.1335
9288.23 -15.8973 0 -34.4333
9276.84 -14.691 0 -46.1048
7755.42 -28.5515 0 -84.6437
7706.86 -26.0221 0 -100.638
10759 -1.08353 0 -62.1573
10774.7 12.443 0 -49.3539
7731.86 -28.2076 0 -92.8512
9226.67 -13.181 0 -73.6549
10767.8 9.29494 0 -58.4182
9260.26 -15.3773 0 -54.3115
9242.46 -15.0292 0 -63.2907
7706.86 -26.0221 0 -100.638
7660.12 -23.0202 0 -115.338
10734.3 3.25395 0 -70.071
10759 -1.08353 0 -62.1573
7682.04 -24.6471 0 -107.973
9191.35 -10.4933 0 -90.7519
10749.8 -0.715869 0 -64.9486
9226.67 -13.181 0 -73.6549
9210.39 -11.4511 0 -83.0711
7660.12 -23.0202 0 -115.338
7618.62 -18.7477 0 -128.619
10691.1 0.328088 0 -80.0091
10734.3 3.25395 0 -70.071
7639.6 -20.7726 0 -122.418
9150.19 -8.8055 0 -104.599
10713.3 2.50576 0 -75.6807
9191.35 -10.4933 0 -90.7519
9170.87 -9.71817 0 -97.884
7618.62 -18.7477 0 -128.619
7577.25 -15.9236 0 -139.26
10643.3 1.25697 0 -88.768
10691.1 0.328088 0 -80.0091
7597.63 -17.2334 0 -134.145
9106.52 -7.41341 0 -115.991
10668.1 0.404315 0 -84.1193
9150.19 -8.8055 0 -104.599
9128.88 -7.9842 0 -110.619
7577.25 -15.9236 0 -139.26
7536.83 -13.7364 0 -148.329
10590 0.795121 0 -97.8652
10643.3 1.25697 0 -88.768
7557.12 -14.7183 0 -144.008
9060.32 -6.55991 0 -125.778
10616.9 1.16763 0 -93.4798
9106.52 -7.41341 0 -115.991
9083.52 -6.97924 0 -121.029
7536.83 -13.7364 0 -148.329
7496.27 -12.3174 0 -156.105
10535.1 1.10682 0 -106.611
10590 0.795121 0 -97.8652
7516.5 -12.9663 0 -152.326
9013.04 -5.87908 0 -134.465
10562.8 0.867368 0 -102.189
9060.32 -6.55991 0 -125.778
9036.86 -6.18154 0 -130.235
7496.27 -12.3174 0 -156.105
7455.8 -11.2845 0 -163.145
10478.8 1.18305 0 -115.303
10535.1 1.10682 0 -106.611
7476.07 -11.7546 0 -159.708
8964.9 -5.38498 0 -142.509
10507 1.17183 0 -111.007
9013.04 -5.87908 0 -134.465
8989.01 -5.62624 0 -138.55
7455.8 -11.2845 0 -163.145
7415.23 -10.5322 0 -169.668
10422 1.40846 0 -123.812
10478.8 1.18305 0 -115.303
7435.51 -10.886 0 -166.453
8916.4 -4.95085 0 -150.114
10450.4 1.27736 0 -119.561
8964.9 -5.38498 0 -142.509
8940.7 -5.15776 0 -146.355
7415.23 -10.5322 0 -169.668
7374.62 -9.91758 0 -175.878
10364.9 1.60715 0 -132.188
10422 1.40846 0 -123.812
7394.93 -10.2106 0 -172.807
8867.65 -4.56496 0 -157.442
10393.5 1.51188 0 -128.025
8916.4 -4.95085 0 -150.114
8892.04 -4.7567 0 -153.808
7374.62 -9.91758 0 -175.878
7333.96 -9.38404 0 -181.862
10307.7 1.83846 0 -140.411
10364.9 1.60715 0 -132.188
7354.29 -9.64462 0 -178.893
8818.78 -4.191 0 -164.559
10336.4 1.71814 0 -136.315
8867.65 -4.56496 0 -157.442
8843.23 -4.37613 0 -161.023
7333.96 -9.38404 0 -181.862
7293.27 -8.88643 0 -187.681
10250.5 2.07611 0 -148.488
10307.7 1.83846 0 -140.411
7313.62 -9.1319 0 -184.79
8769.84 -3.82263 0 -171.51
10279.1 1.95695 0 -144.469
8818.78 -4.191 0 -164.559
8794.31 -4.00733 0 -168.053
7293.27 -8.88643 0 -187.681
7252.55 -8.40585 0 -193.363
10193.2 2.32672 0 -156.418
10250.5 2.07611 0 -148.488
7272.91 -8.64508 0 -190.538
8720.87 -3.45112 0 -178.315
10221.8 2.19955 0 -152.471
8769.84 -3.82263 0 -171.51
8745.36 -3.63722 0 -174.93
7252.55 -8.40585 0 -193.363
7211.82 -7.93014 0 -198.925
10135.9 2.5874 0 -164.201
10193.2 2.32672 0 -156.418
7232.19 -8.16771 0 -196.159
8671.87 -3.07463 0 -184.985
10164.6 2.45597 0 -160.328
8720.87 -3.45112 0 -178.315
8696.37 -3.26376 0 -181.667
7211.82 -7.93014 0 -198.925
7171.08 -7.45443 0 -204.374
10078.6 2.85787 0 -171.838
10135.9 2.5874 0 -164.201
7191.45 -7.69253 0 -201.663
8622.86 -2.69161 0 -191.526
10107.2 2.72136 0 -168.037
8671.87 -3.07463 0 -184.985
8647.37 -2.88391 0 -188.272
7171.08 -7.45443 0 -204.374
7130.32 -6.97604 0 -209.715
10021.3 3.13793 0 -179.33
10078.6 2.85787 0 -171.838
7150.7 -7.21564 0 -207.058
8573.84 -2.30188 0 -197.941
10049.9 2.99677 0 -175.602
8622.86 -2.69161 0 -191.526
8598.35 -2.49762 0 -194.749
7130.32 -6.97604 0 -209.715
7089.56 -6.49408 0 -214.951
9963.95 3.42687 0 -186.678
10021.3 3.13793 0 -179.33
7109.94 -6.73555 0 -212.346
8524.81 -1.90549 0 -204.231
9992.61 3.2813 0 -183.022
8573.84 -2.30188 0 -197.941
8549.33 -2.10449 0 -201.102
7089.56 -6.49408 0 -214.951
7048.79 -6.0082 0 -220.083
9906.63 3.72447 0 -193.882
9963.95 3.42687 0 -186.678
7069.18 -6.25163 0 -217.53
8475.78 -1.50269 0 -210.398
9935.29 3.57462 0 -190.298
8524.81 -1.90549 0 -204.231
8500.3 -1.70487 0 -207.33
7048.79 -6.0082 0 -220.083
7008.02 -5.51843 0 -225.112
9849.3 4.03017 0 -200.944
9906.63 3.72447 0 -193.882
7028.41 -5.76379 0 -222.61
8426.75 -1.0938 0 -216.442
9877.96 3.87633 0 -197.431
8475.78 -1.50269 0 -210.398
8451.26 -1.29898 0 -213.435
7008.02 -5.51843 0 -225.112
6967.24 -5.02492 0 -230.04
9791.97 4.34363 0 -207.864
9849.3 4.03017 0 -200.944
6987.63 -5.27213 0 -227.589
8377.71 -0.679183 0 -222.364
9820.63 4.18596 0 -204.422
8426.75 -1.0938 0 -216.442
8402.23 -0.887189 0 -219.418
6967.24 -5.02492 0 -230.04
6926.47 -4.52791 0 -234.867
9734.63 4.66438 0 -214.643
9791.97 4.34363 0 -207.864
6946.86 -4.77684 0 -232.466
8328.67 -0.259179 0 -228.166
9763.3 4.50312 0 -211.271
8377.71 -0.679183 0 -222.364
8353.19 -0.469831 0 -225.28
6926.47 -4.52791 0 -234.867
6885.68 -4.02763 0 -239.594
9677.3 4.99201 0 -221.282
9734.63 4.66438 0 -214.643
6906.08 -4.27816 0 -237.243
8279.62 0.165855 0 -233.848
9705.96 4.82736 0 -217.98
8328.67 -0.259179 0 -228.166
8304.14 -0.0472685 0 -231.022
6885.68 -4.02763 0 -239.594
6844.9 -3.52435 0 -244.222
9619.96 5.3261 0 -227.782
9677.3 4.99201 0 -221.282
6865.29 -3.77635 0 -241.92
8230.58 0.595568 0 -239.41
9648.63 5.15827 0 -224.549
8279.62 0.165855 0 -233.848
8255.1 0.380149 0 -236.644
6844.9 -3.52435 0 -244.222
6804.11 -3.01835 0 -248.75
9562.62 5.66625 0 -234.143
9619.96 5.3261 0 -227.782
6824.51 -3.27167 0 -246.498
8181.53 1.02961 0 -244.854
9591.29 5.49544 0 -230.98
8230.58 0.595568 0 -239.41
8206.05 0.812071 0 -242.147
6804.11 -3.01835 0 -248.75
6763.33 -2.50989 0 -253.181
9505.28 6.01205 0 -240.366
9562.62 5.66625 0 -234.143
6783.72 -2.76441 0 -250.978
8132.48 1.46764 0 -250.179
9533.95 5.83847 0 -237.272
8181.53 1.02961 0 -244.854
8157.01 1.24815 0 -247.531
6763.33 -2.50989 0 -253.181
6722.54 -1.99926 0 -257.514
9447.94 6.3631 0 -246.453
9505.28 6.01205 0 -240.366
6742.93 -2.25483 0 -255.36
8083.43 1.90933 0 -255.388
9476.61 6.18694 0 -243.427
8132.48 1.46764 0 -250.179
8107.96 1.68805 0 -252.798
6722.54 -1.99926 0 -257.514
6681.75 -1.48673 0 -261.75
9390.61 6.71901 0 -252.404
9447.94 6.3631 0 -246.453
6702.14 -1.74322 0 -259.644
8034.38 2.35432 0 -260.48
9419.28 6.54047 0 -249.445
8083.43 1.90932 0 -255.388
8058.91 2.13143 0 -257.948
6681.75 -1.48673 0 -261.75
6640.96 -0.972575 0 -265.889
9333.27 7.07939 0 -258.219
9390.61 6.71901 0 -252.404
6661.36 -1.22984 0 -263.832
7985.33 2.8023 0 -265.456
9361.94 6.89866 0 -255.328
8034.38 2.35432 0 -260.48
8009.86 2.57795 0 -262.983
6640.96 -0.972575 0 -265.889
6600.17 -0.457062 0 -269.933
9275.93 7.44387 0 -263.9
9333.27 7.07939 0 -258.219
6620.56 -0.714971 0 -267.923
7936.28 3.25293 0 -270.318
9304.6 7.26114 0 -261.076
7985.33 2.8023 0 -265.456
7960.81 3.0273 0 -267.901
6600.17 -0.457062 0 -269.933
6559.38 0.0595407 0 -273.881
9218.6 7.81208 0 -269.448
9275.93 7.44387 0 -263.9
6579.77 -0.19888 0 -271.919
7887.23 3.70591 0 -275.065
9247.26 7.62753 0 -266.691
7936.28 3.25293 0 -270.318
7911.76 3.47915 0 -272.705
6559.38 0.0595407 0 -273.881
6518.59 0.576971 0 -277.735
9161.26 8.18365 0 -274.863
9218.6 7.81208 0 -269.448
6538.98 0.318169 0 -275.82
7838.18 4.16091 0 -279.698
9189.93 7.99747 0 -272.172
7887.23 3.70591 0 -275.065
7862.71 3.93318 0 -277.395
6518.59 0.576971 0 -277.735
6477.8 1.09497 0 -281.495
9103.93 8.55821 0 -280.146
9161.26 8.18365 0 -274.863
6498.19 0.835916 0 -279.627
7789.14 4.61763 0 -284.218
9132.59 8.37058 0 -277.521
7838.18 4.16091 0 -279.698
7813.66 4.38908 0 -281.972
6477.8 1.09497 0 -281.495
6437.01 1.61329 0 -285.161
9046.6 8.93543 0 -285.298
9103.93 8.55821 0 -280.146
6457.4 1.35411 0 -283.34
7740.09 5.07577 0 -288.626
9075.26 8.74651 0 -282.738
7789.14 4.61763 0 -284.218
7764.61 4.84654 0 -286.436
6437.01 1.61329 0 -285.161
6396.22 2.13167 0 -288.734
8989.27 9.31494 0 -290.32
9046.6 8.93543 0 -285.298
6416.61 1.87249 0 -286.959
7691.05 5.53502 0 -292.923
9017.93 9.12492 0 -287.825
7740.09 5.07577 0 -288.626
7715.57 5.30527 0 -290.788
6396.22 2.13167 0 -288.734
6355.43 2.64988 0 -292.215
8931.95 9.69642 0 -295.213
8989.27 9.31494 0 -290.32
6375.83 2.39082 0 -290.486
7642 5.9951 0 -297.109
8960.61 9.50546 0 -292.782
7691.05 5.53502 0 -292.923
7666.53 5.76497 0 -295.03
6355.43 2.64988 0 -292.215
6314.65 3.16768 0 -295.605
8874.63 10.0795 0 -299.977
8931.95 9.69642 0 -295.213
6335.04 2.90885 0 -293.922
7592.96 6.45571 0 -301.184
8903.29 9.88778 0 -297.611
7642 5.9951 0 -297.109
7617.48 6.22536 0 -299.16
6314.65 3.16768 0 -295.605
6273.86 3.68483 0 -298.903
8817.31 10.4639 0 -304.613
8874.63 10.0795 0 -299.977
6294.26 3.42635 0 -297.265
7543.93 6.91659 0 -305.151
8845.97 10.2716 0 -302.311
7592.96 6.45571 0 -301.184
7568.45 6.68614 0 -303.181
6273.86 3.68483 0 -298.903
6233.08 4.2011 0 -302.111
8760 10.8493 0 -309.123
8817.31 10.4639 0 -304.613
6253.47 3.94309 0 -300.518
7494.89 7.37745 0 -309.008
8788.65 10.6565 0 -306.884
7543.93 6.91659 0 -305.151
7519.41 7.14704 0 -307.093
6233.08 4.2011 0 -302.111
6192.3 4.71626 0 -305.229
8702.69 11.2353 0 -313.507
8760 10.8493 0 -309.123
6212.69 4.45883 0 -303.681
7445.86 7.83802 0 -312.758
8731.34 11.0422 0 -311.33
7494.89 7.37745 0 -309.008
7470.38 7.60779 0 -310.897
6192.3 4.71626 0 -305.229
6151.52 5.2301 0 -308.257
8645.38 11.6217 0 -317.765
8702.69 11.2353 0 -313.507
6171.91 4.97336 0 -306.754
7396.83 8.29804 0 -316.401
8674.04 11.4285 0 -315.651
7445.86 7.83802 0 -312.758
7421.35 8.06811 0 -314.593
6151.52 5.2301 0 -308.257
6110.75 5.7424 0 -311.197
8588.09 12.0081 0 -321.899
8645.38 11.6217 0 -317.765
6131.14 5.48646 0 -309.738
7347.81 8.75724 0 -319.937
8616.73 11.8149 0 -319.848
7396.83 8.29804 0 -316.401
7372.32 8.52776 0 -318.182
6110.75 5.7424 0 -311.197
6069.98 6.25295 0 -314.049
8530.79 12.3943 0 -325.91
8588.09 12.0081 0 -321.899
6090.36 5.99791 0 -312.634
7298.79 9.21538 0 -323.367
8559.44 12.2013 0 -323.92
7347.81 8.75724 0 -319.937
7323.3 8.98646 0 -321.665
6069.98 6.25295 0 -314.049
6029.21 6.76153 0 -316.813
8473.51 12.78 0 -329.798
8530.79 12.3943 0 -325.91
6049.59 6.5075 0 -315.442
7249.78 9.6722 0 -326.693
8502.15 12.5872 0 -327.869
7298.79 9.21538 0 -323.367
7274.28 9.44397 0 -325.043
6029.21 6.76153 0 -316.813
5988.44 7.26795 0 -319.49
8416.22 13.1648 0 -333.565
8473.51 12.78 0 -329.798
6008.83 7.01502 0 -318.162
7200.77 10.1275 0 -329.913
8444.86 12.9725 0 -331.697
7249.78 9.6722 0 -326.693
7225.27 9.90003 0 -328.316
5988.44 7.26795 0 -319.49
5947.68 7.772 0 -322.081
8358.95 13.5485 0 -337.21
8416.22 13.1648 0 -333.565
5968.06 7.52029 0 -320.796
7151.76 10.5809 0 -333.031
8387.59 13.3568 0 -335.402
7200.77 10.1275 0 -329.913
7176.26 10.3544 0 -331.485
5947.68 7.772 0 -322.081
5906.92 8.2735 0 -324.586
8301.68 13.9308 0 -340.735
8358.95 13.5485 0 -337.21
5927.3 8.02308 0 -323.344
7102.76 11.0323 0 -336.045
8330.31 13.7398 0 -338.988
7151.76 10.5809 0 -333.031
7127.26 10.8069 0 -334.551
5906.92 8.2735 0 -324.586
5866.17 8.77224 0 -327.007
8244.42 14.3115 0 -344.141
8301.68 13.9308 0 -340.735
5886.55 8.52323 0 -325.807
7053.76 11.4815 0 -338.957
8273.05 14.1214 0 -342.453
7102.76 11.0323 0 -336.045
7078.26 11.2572 0 -337.514
5866.17 8.77224 0 -327.007
5825.42 9.26804 0 -329.342
8187.16 14.6902 0 -347.429
8244.42 14.3115 0 -344.141
5845.79 9.02052 0 -328.185
7004.77 11.9281 0 -341.768
8215.79 14.5011 0 -345.8
7053.76 11.4815 0 -338.957
7029.27 11.7051 0 -340.375
5825.42 9.26804 0 -329.342
5784.67 9.76072 0 -331.594
8129.92 15.0668 0 -350.599
8187.16 14.6902 0 -347.429
5805.05 9.51479 0 -330.479
6955.79 12.3721 0 -344.478
8158.54 14.8788 0 -349.029
7004.77 11.9281 0 -341.768
6980.28 12.1504 0 -343.136
5784.67 9.76072 0 -331.594
5743.93 10.2501 0 -333.762
8072.68 15.441 0 -353.652
8129.92 15.0668 0 -350.599
5764.3 10.0058 0 -332.689
6906.81 12.8131 0 -347.088
8101.3 15.2542 0 -352.14
6955.79 12.3721 0 -344.478
6931.3 12.593 0 -345.796
5743.93 10.2501 0 -333.762
5703.19 10.736 0 -335.848
8015.45 15.8125 0 -356.589
8072.68 15.441 0 -353.652
5723.56 10.4935 0 -334.816
6857.84 13.251 0 -349.599
8044.06 15.6271 0 -355.135
6906.81 12.8131 0 -347.088
6882.32 13.0324 0 -348.356
5703.19 10.736 0 -335.848
5662.46 11.2183 0 -337.852
7958.23 16.1811 0 -359.412
8015.45 15.8125 0 -356.589
5682.83 10.9776 0 -336.86
6808.87 13.6855 0 -352.011
7986.84 15.9972 0 -358.015
6857.84 13.251 0 -349.599
6833.36 13.4687 0 -350.817
5662.46 11.2183 0 -337.852
5621.74 11.6967 0 -339.774
7901.01 16.5465 0 -362.12
7958.23 16.1811 0 -359.412
5642.1 11.458 0 -338.823
6759.92 14.1165 0 -354.326
7929.62 16.3642 0 -360.78
6808.87 13.6855 0 -352.011
6784.39 13.9015 0 -353.181
5621.74 11.6967 0 -339.774
5581.02 12.1712 0 -341.615
7843.81 16.9086 0 -364.714
7901.01 16.5465 0 -362.12
5601.38 11.9344 0 -340.705
6710.96 14.5438 0 -356.543
7872.41 16.728 0 -363.431
6759.92 14.1165 0 -354.326
6735.44 14.3306 0 -355.446
5581.02 12.1712 0 -341.615
5540.3 12.6415 0 -343.376
7786.61 17.2671 0 -367.197
7843.81 16.9086 0 -364.714
5560.66 12.4069 0 -342.506
6662.02 14.9671 0 -358.663
7815.21 17.0883 0 -365.97
6710.96 14.5438 0 -356.543
6686.49 14.7559 0 -357.615
5540.3 12.6415 0 -343.376
5499.59 13.1075 0 -345.057
7729.42 17.6217 0 -369.567
7786.61 17.2671 0 -367.197
5519.94 12.8751 0 -344.226
6613.08 15.3863 0 -360.689
7758.01 17.4449 0 -368.396
6662.02 14.9671 0 -358.663
6637.55 15.1772 0 -359.688
5499.59 13.1075 0 -345.057
5458.88 13.5691 0 -346.659
7672.24 17.9724 0 -371.826
7729.42 17.6217 0 -369.567
5479.24 13.3389 0 -345.868
6564.15 15.8012 0 -362.619
7700.83 17.7976 0 -370.711
6613.08 15.3863 0 -360.689
6588.62 15.5943 0 -361.665
5458.88 13.5691 0 -346.659
5418.19 14.0261 0 -348.183
7615.08 18.3188 0 -373.976
7672.24 17.9724 0 -371.826
5438.53 13.7982 0 -347.431
6515.23 16.2116 0 -364.454
7643.66 18.1461 0 -372.915
6564.15 15.8012 0 -362.619
6539.69 16.007 0 -363.548
5418.19 14.0261 0 -348.183
5377.49 14.4784 0 -349.628
7557.92 18.6608 0 -376.016
7615.08 18.3188 0 -373.976
5397.84 14.2529 0 -348.915
6466.32 16.6174 0 -366.197
7586.49 18.4904 0 -375.01
6515.23 16.2116 0 -364.454
6490.77 16.4151 0 -365.337
5377.49 14.4784 0 -349.628
5336.81 14.9258 0 -350.997
7500.77 18.9981 0 -377.948
7557.92 18.6608 0 -376.016
5357.15 14.7027 0 -350.322
6417.41 17.0183 0 -367.846
7529.34 18.83 0 -376.996
6466.32 16.6174 0 -366.197
6441.86 16.8185 0 -367.033
5336.81 14.9258 0 -350.997
5296.13 15.3682 0 -352.288
7443.63 19.3306 0 -379.773
7500.77 18.9981 0 -377.948
5316.47 15.1476 0 -351.652
6368.51 17.4143 0 -369.404
7472.2 19.165 0 -378.874
6417.41 17.0183 0 -367.846
6392.96 17.217 0 -368.636
5296.13 15.3682 0 -352.288
5255.45 15.8054 0 -353.504
7386.5 19.6581 0 -381.491
7443.63 19.3306 0 -379.773
5275.79 15.5874 0 -352.906
6319.62 17.8051 0 -370.87
7415.06 19.495 0 -380.645
6368.51 17.4143 0 -369.404
6344.07 17.6104 0 -370.148
5255.45 15.8054 0 -353.504
5214.78 16.2373 0 -354.644
7329.39 19.9805 0 -383.103
7386.5 19.6581 0 -381.491
5235.12 16.022 0 -354.083
6270.74 18.1907 0 -372.245
7357.94 19.82 0 -382.31
6319.62 17.8051 0 -370.87
6295.18 17.9986 0 -371.568
5214.78 16.2373 0 -354.644
5174.12 16.6639 0 -355.709
7272.28 20.2974 0 -384.61
7329.39 19.9805 0 -383.103
5194.45 16.4513 0 -355.186
6221.87 18.5708 0 -373.53
7300.83 20.1396 0 -383.869
6270.74 18.1907 0 -372.245
6246.3 18.3814 0 -372.899
5174.12 16.6639 0 -355.709
5133.47 17.0849 0 -356.7
7215.18 20.6088 0 -386.012
7272.28 20.2974 0 -384.61
5153.8 16.8751 0 -356.214
6173.01 18.9452 0 -374.726
7243.73 20.4538 0 -385.324
6221.87 18.5708 0 -373.53
6197.44 18.7587 0 -374.139
5133.47 17.0849 0 -356.7
5092.82 17.5003 0 -357.617
7158.1 20.9145 0 -387.312
7215.18 20.6088 0 -386.012
5113.15 17.2933 0 -357.167
6124.15 19.314 0 -375.834
7186.64 20.7624 0 -386.675
6173.01 18.9452 0 -374.726
6148.58 19.1303 0 -375.291
5092.82 17.5003 0 -357.617
5052.18 17.91 0 -358.461
7101.03 21.2144 0 -388.509
7158.1 20.9145 0 -387.312
5072.5 17.7059 0 -358.048
6075.31 19.6769 0 -376.854
7129.56 21.0652 0 -387.923
6124.15 19.314 0 -375.834
6099.73 19.4962 0 -376.355
5052.18 17.91 0 -358.461
5011.55 18.3137 0 -359.232
7043.97 21.5082 0 -389.604
7101.03 21.2144 0 -388.509
5031.87 18.1126 0 -358.856
6026.47 20.0337 0 -377.787
7072.49 21.362 0 -389.069
6075.31 19.6769 0 -376.854
6050.89 19.856 0 -377.331
5011.55 18.3137 0 -359.232
4970.93 18.7115 0 -359.932
6986.92 21.7958 0 -390.599
7043.97 21.5082 0 -389.604
4991.24 18.5134 0 -359.591
5977.64 20.3844 0 -378.633
7015.44 21.6528 0 -390.114
6026.47 20.0337 0 -377.787
6002.06 20.2099 0 -378.221
4970.93 18.7115 0 -359.932
4930.31 19.1033 0 -360.56
6929.88 22.0772 0 -391.494
6986.92 21.7958 0 -390.599
4950.62 18.9082 0 -360.255
5928.83 20.7289 0 -379.394
6958.4 21.9373 0 -391.059
5977.64 20.3844 0 -378.633
5953.23 20.5575 0 -379.024
4930.31 19.1033 0 -360.56
4889.7 19.4888 0 -361.117
6872.85 22.352 0 -392.289
6929.88 22.0772 0 -391.494
4910 19.2968 0 -360.848
5880.02 21.067 0 -380.07
6901.36 22.2154 0 -391.904
5928.83 20.7289 0 -379.394
5904.42 20.8987 0 -379.743
4889.7 19.4888 0 -361.117
4849.1 19.8681 0 -361.605
6815.84 22.6203 0 -392.986
6872.85 22.352 0 -392.289
4869.4 19.6792 0 -361.37
5831.22 21.3985 0 -380.662
6844.34 22.487 0 -392.65
5880.02 21.067 0 -380.07
5855.62 21.2336 0 -380.376
4849.1 19.8681 0 -361.605
4808.5 20.2409 0 -362.023
6758.84 22.8818 0 -393.586
6815.84 22.6203 0 -392.986
4828.8 20.0553 0 -361.822
5782.43 21.7235 0 -381.17
6787.34 22.7519 0 -393.298
5831.22 21.3985 0 -380.662
5806.83 21.5618 0 -380.926
4808.5 20.2409 0 -362.023
4767.92 20.6074 0 -362.372
6701.85 23.1365 0 -394.089
6758.84 22.8818 0 -393.586
4788.21 20.425 0 -362.206
5733.66 22.0417 0 -381.596
6730.34 23.01 0 -393.85
5782.43 21.7235 0 -381.17
5758.04 21.8835 0 -381.393
4767.92 20.6074 0 -362.372
4727.34 20.9673 0 -362.652
6644.87 23.3841 0 -394.497
6701.85 23.1365 0 -394.089
4747.63 20.7881 0 -362.52
5684.89 22.3531 0 -381.939
6673.36 23.2612 0 -394.305
5733.66 22.0417 0 -381.596
5709.27 22.1983 0 -381.778
4727.34 20.9673 0 -362.652
4686.77 21.3205 0 -362.865
6587.91 23.6247 0 -394.809
6644.87 23.3841 0 -394.497
4707.05 21.1447 0 -362.767
5636.13 22.6576 0 -382.201
6616.39 23.5053 0 -394.665
5684.89 22.3531 0 -381.939
5660.51 22.5062 0 -382.08
4686.77 21.3205 0 -362.865
4646.2 21.667 0 -363.011
6530.96 23.8581 0 -395.028
6587.91 23.6247 0 -394.809
4666.48 21.4946 0 -362.946
5587.38 22.955 0 -382.383
6559.43 23.7423 0 -394.93
5636.13 22.6576 0 -382.201
5611.76 22.8072 0 -382.302
4646.2 21.667 0 -363.011
4605.65 22.0068 0 -363.09
6474.02 24.0841 0 -395.153
6530.96 23.8581 0 -395.028
4625.93 21.8378 0 -363.059
5538.65 23.2453 0 -382.484
6502.49 23.972 0 -395.102
5587.38 22.955 0 -382.383
5563.01 23.1011 0 -382.443
4605.65 22.0068 0 -363.09
4565.1 22.3396 0 -363.103
6417.09 24.3028 0 -395.186
6474.02 24.0841 0 -395.153
4585.38 22.1741 0 -363.105
5489.92 23.5284 0 -382.507
6445.55 24.1944 0 -395.181
5538.65 23.2453 0 -382.484
5514.28 23.3878 0 -382.505
4565.1 22.3396 0 -363.103
4524.56 22.6656 0 -363.051
6360.18 24.5138 0 -395.127
6417.09 24.3028 0 -395.186
4544.83 22.5035 0 -363.085
5441.21 23.8042 0 -382.451
6388.63 24.4092 0 -395.168
5489.92 23.5284 0 -382.507
5465.56 23.6672 0 -382.489
4524.56 22.6656 0 -363.051
4484.04 22.9845 0 -362.934
6303.28 24.7173 0 -394.977
6360.18 24.5138 0 -395.127
4504.3 22.8259 0 -363.001
5392.5 24.0726 0 -382.317
6331.73 24.6165 0 -395.063
5441.21 23.8042 0 -382.451
5416.85 23.9393 0 -382.394
4484.04 22.9845 0 -362.934
4443.51 23.2964 0 -362.753
6246.39 24.913 0 -394.738
6303.28 24.7173 0 -394.977
4463.77 23.1413 0 -362.852
5343.81 24.3336 0 -382.106
6274.84 24.8161 0 -394.869
5392.5 24.0726 0 -382.317
5368.15 24.204 0 -382.221
4443.51 23.2964 0 -362.753
4403 23.6011 0 -362.509
6189.52 25.101 0 -394.409
6246.39 24.913 0 -394.738
4423.26 23.4496 0 -362.639
5295.12 24.587 0 -381.819
6217.96 25.008 0 -394.584
5343.81 24.3336 0 -382.106
5319.46 24.4612 0 -381.972
4403 23.6011 0 -362.509
4362.5 23.8986 0 -362.201
6132.66 25.281 0 -393.992
6189.52 25.101 0 -394.409
4382.75 23.7508 0 -362.363
5246.45 24.8328 0 -381.457
6161.09 25.192 0 -394.212
5295.12 24.587 0 -381.819
5270.79 24.7109 0 -381.647
4362.5 23.8986 0 -362.201
4322 24.1889 0 -361.831
6075.82 25.4531 0 -393.488
6132.66 25.281 0 -393.992
4342.25 24.0447 0 -362.024
5197.79 25.071 0 -381.019
6104.24 25.3681 0 -393.751
5246.45 24.8328 0 -381.457
5222.12 24.9529 0 -381.247
4322 24.1889 0 -361.831
4281.51 24.4719 0 -361.4
6018.98 25.6172 0 -392.897
6075.82 25.4531 0 -393.488
4301.76 24.3313 0 -361.623
5149.14 25.3014 0 -380.507
6047.4 25.5361 0 -393.203
5197.79 25.071 0 -381.019
5173.46 25.1871 0 -380.772
4281.51 24.4719 0 -361.4
4241.04 24.7475 0 -360.907
5962.17 25.7731 0 -392.22
6018.98 25.6172 0 -392.897
4261.27 24.6106 0 -361.161
5100.5 25.524 0 -379.922
5990.57 25.6961 0 -392.569
5149.14 25.3014 0 -380.507
5124.82 25.4137 0 -380.224
4241.04 24.7475 0 -360.907
4200.57 25.0157 0 -360.353
5905.36 25.9208 0 -391.459
5962.17 25.7731 0 -392.22
4220.8 24.8826 0 -360.638
5051.87 25.7387 0 -379.264
5933.76 25.848 0 -391.85
5100.5 25.524 0 -379.922
5076.18 25.6323 0 -379.602
4200.57 25.0157 0 -360.353
4160.11 25.2765 0 -359.74
5848.57 26.0604 0 -390.613
5905.36 25.9208 0 -391.459
4180.34 25.1471 0 -360.054
5003.25 25.9456 0 -378.534
5876.96 25.9916 0 -391.046
5051.87 25.7387 0 -379.264
5027.56 25.8432 0 -378.908
4160.11 25.2765 0 -359.74
4119.65 25.5298 0 -359.067
5791.79 26.1916 0 -389.684
5848.57 26.0604 0 -390.613
4139.88 25.4041 0 -359.411
4954.65 26.1445 0 -377.733
5820.18 26.127 0 -390.159
5003.25 25.9456 0 -378.534
4978.95 26.046 0 -378.142
4119.65 25.5298 0 -359.067
4079.21 25.7756 0 -358.335
5735.03 26.3144 0 -388.672
5791.79 26.1916 0 -389.684
4099.43 25.6537 0 -358.709
4906.05 26.3354 0 -376.861
5763.41 26.2541 0 -389.188
4954.65 26.1445 0 -377.733
4930.35 26.2409 0 -377.306
4079.21 25.7756 0 -358.335
4038.78 26.0138 0 -357.546
5678.28 26.4289 0 -387.579
5735.03 26.3144 0 -388.672
4058.99 25.8957 0 -357.948
4857.47 26.5182 0 -375.919
5706.65 26.3727 0 -388.136
4906.05 26.3354 0 -376.861
4881.76 26.4278 0 -376.399
4038.78 26.0138 0 -357.546
3998.35 26.2445 0 -356.698
5621.54 26.5349 0 -386.406
5678.28 26.4289 0 -387.579
4018.56 26.1301 0 -357.129
4808.9 26.693 0 -374.908
5649.91 26.483 0 -387.003
4857.47 26.5182 0 -375.919
4833.18 26.6066 0 -375.422
3998.35 26.2445 0 -356.698
3957.94 26.4675 0 -355.794
5564.82 26.6324 0 -385.152
5621.54 26.5349 0 -386.406
3978.14 26.3569 0 -356.253
4760.34 26.8596 0 -373.828
5593.18 26.5847 0 -385.789
4808.9 26.693 0 -374.908
4784.62 26.7773 0 -374.377
3957.94 26.4675 0 -355.794
3917.53 26.6828 0 -354.833
5508.11 26.7214 0 -383.819
5564.82 26.6324 0 -385.152
3937.73 26.5761 0 -355.32
4711.79 27.0181 0 -372.681
5536.46 26.678 0 -384.495
4760.34 26.8596 0 -373.828
4736.06 26.9399 0 -373.263
3917.53 26.6828 0 -354.833
3877.13 26.8905 0 -353.816
5451.42 26.8018 0 -382.408
5508.11 26.7214 0 -383.819
3897.33 26.7876 0 -354.331
4663.25 27.1684 0 -371.467
5479.76 26.7627 0 -383.123
4711.79 27.0181 0 -372.681
4687.52 27.0943 0 -372.082
3877.13 26.8905 0 -353.816
3836.74 27.0905 0 -352.744
5394.74 26.8737 0 -380.919
5451.42 26.8018 0 -382.408
3856.94 26.9915 0 -353.287
4614.72 27.3105 0 -370.186
5423.08 26.8388 0 -381.673
4663.25 27.1684 0 -371.467
4638.98 27.2405 0 -370.834
3836.74 27.0905 0 -352.744
3796.36 27.2828 0 -351.617
5338.07 26.9369 0 -379.354
5394.74 26.8737 0 -380.919
3816.55 27.1876 0 -352.187
4566.21 27.4444 0 -368.839
5366.4 26.9063 0 -380.146
4614.72 27.3105 0 -370.186
4590.46 27.3785 0 -369.521
3796.36 27.2828 0 -351.617
3755.99 27.4673 0 -350.436
5281.42 26.9914 0 -377.713
5338.07 26.9369 0 -379.354
3776.18 27.376 0 -351.033
4517.7 27.57 0 -367.428
5309.74 26.9652 0 -378.543
4566.21 27.4444 0 -368.839
4541.96 27.5082 0 -368.142
3755.99 27.4673 0 -350.436
3715.63 27.6442 0 -349.202
5224.78 27.0373 0 -375.996
5281.42 26.9914 0 -377.713
3735.81 27.5567 0 -349.826
4469.21 27.6873 0 -365.952
5253.1 27.0154 0 -376.864
4517.7 27.57 0 -367.428
4493.46 27.6297 0 -366.698
3715.63 27.6442 0 -349.202
3675.28 27.8132 0 -347.915
5168.16 27.0745 0 -374.206
5224.78 27.0373 0 -375.996
3695.45 27.7296 0 -348.565
4420.73 27.7964 0 -364.413
5196.47 27.057 0 -375.111
4469.21 27.6873 0 -365.952
4444.97 27.7429 0 -365.191
3675.28 27.8132 0 -347.915
3634.93 27.9745 0 -346.575
5111.55 27.103 0 -372.342
5168.16 27.0745 0 -374.206
3655.1 27.8948 0 -347.251
4372.26 27.8971 0 -362.811
5139.85 27.0898 0 -373.283
4420.73 27.7964 0 -364.413
4396.5 27.8478 0 -363.62
3634.93 27.9745 0 -346.575
3594.6 28.128 0 -345.184
5054.95 27.1228 0 -370.406
5111.55 27.103 0 -372.342
3614.76 28.0522 0 -345.886
4323.81 27.9896 0 -361.147
5083.25 27.114 0 -371.383
4372.26 27.8971 0 -362.811
4348.03 27.9444 0 -361.987
3594.6 28.128 0 -345.184
3554.27 28.2737 0 -343.741
4998.37 27.1339 0 -368.398
5054.95 27.1228 0 -370.406
3574.43 28.2018 0 -344.469
4275.36 28.0737 0 -359.422
5026.66 27.1294 0 -369.411
4323.81 27.9896 0 -361.147
4299.58 28.0327 0 -360.292
3554.27 28.2737 0 -343.741
3513.96 28.4117 0 -342.248
4941.8 27.1362 0 -366.32
4998.37 27.1339 0 -368.398
3534.11 28.3437 0 -343.001
4226.93 28.1495 0 -357.636
4970.09 27.1361 0 -367.368
4275.36 28.0737 0 -359.422
4251.14 28.1127 0 -358.536
3513.96 28.4117 0 -342.248
3473.65 28.5419 0 -340.706
4885.25 27.1299 0 -364.171
4941.8 27.1362 0 -366.32
3493.8 28.4777 0 -341.483
4178.5 28.2171 0 -355.789
4913.53 27.1342 0 -365.254
4226.93 28.1495 0 -357.636
4202.71 28.1843 0 -356.72
3473.65 28.5419 0 -340.706
3433.35 28.6643 0 -339.113
4828.71 27.1148 0 -361.953
4885.25 27.1299 0 -364.171
3453.5 28.604 0 -339.916
4130.09 28.2763 0 -353.884
4856.98 27.1234 0 -363.07
4178.5 28.2171 0 -355.789
4154.3 28.2477 0 -354.844
3433.35 28.6643 0 -339.113
3393.06 28.7789 0 -337.472
4772.19 27.0911 0 -359.666
4828.71 27.1148 0 -361.953
3413.2 28.7225 0 -338.299
4081.69 28.3272 0 -351.92
4800.45 27.104 0 -360.818
4130.09 28.2763 0 -353.884
4105.89 28.3028 0 -352.909
3393.06 28.7789 0 -337.472
3352.78 28.8858 0 -335.783
4715.67 27.0586 0 -357.312
4772.19 27.0911 0 -359.666
3372.92 28.8333 0 -336.634
4033.3 28.3698 0 -349.898
4743.93 27.0759 0 -358.498
4081.69 28.3272 0 -351.92
4057.49 28.3495 0 -350.916
3352.78 28.8858 0 -335.783
3312.51 28.9849 0 -334.046
4659.18 27.0175 0 -354.891
4715.67 27.0586 0 -357.312
3332.64 28.9363 0 -334.92
3984.92 28.4041 0 -347.818
4687.42 27.0391 0 -356.11
4033.3 28.3698 0 -349.898
4009.11 28.388 0 -348.865
3312.51 28.9849 0 -334.046
3272.25 29.0763 0 -332.262
4602.69 26.9677 0 -352.405
4659.18 27.0175 0 -354.891
3292.38 29.0316 0 -333.16
3936.56 28.4302 0 -345.683
4630.93 26.9936 0 -353.656
3984.92 28.4041 0 -347.818
3960.74 28.4182 0 -346.758
3272.25 29.0763 0 -332.262
3231.99 29.1599 0 -330.432
4546.22 26.9092 0 -349.853
4602.69 26.9677 0 -352.405
3252.12 29.1191 0 -331.353
3888.2 28.448 0 -343.491
4574.46 26.9395 0 -351.137
3936.56 28.4302 0 -345.683
3912.38 28.4401 0 -344.594
3231.99 29.1599 0 -330.432
3191.75 29.2359 0 -328.555
4489.77 26.8421 0 -347.236
4546.22 26.9092 0 -349.853
3211.87 29.1989 0 -329.499
3839.86 28.4576 0 -341.245
4518 26.8768 0 -348.553
3888.2 28.448 0 -343.491
3864.03 28.4539 0 -342.375
3191.75 29.2359 0 -328.555
3151.51 29.3042 0 -326.634
4433.33 26.7665 0 -344.557
4489.77 26.8421 0 -347.236
3171.63 29.271 0 -327.6
3791.53 28.459 0 -338.944
4461.55 26.8054 0 -345.904
3839.86 28.4576 0 -341.245
3815.69 28.4593 0 -340.101
3151.51 29.3042 0 -326.634
3111.28 29.3648 0 -324.668
4376.9 26.6823 0 -341.814
4433.33 26.7665 0 -344.557
3131.4 29.3354 0 -325.656
3743.21 28.4522 0 -336.589
4405.11 26.7254 0 -343.193
3791.53 28.459 0 -338.944
3767.37 28.4566 0 -337.773
3111.28 29.3648 0 -324.668
3071.07 29.4177 0 -322.657
4320.49 26.5895 0 -339.01
4376.9 26.6823 0 -341.814
3091.17 29.3922 0 -323.668
3694.9 28.4373 0 -334.181
4348.69 26.637 0 -340.42
3743.21 28.4522 0 -336.589
3719.05 28.4458 0 -335.392
3071.07 29.4177 0 -322.657
3030.86 29.4631 0 -320.603
4264.09 26.4883 0 -336.144
4320.49 26.5895 0 -339.01
3050.96 29.4414 0 -321.636
3646.6 28.4142 0 -331.721
4292.28 26.54 0 -337.585
3694.9 28.4373 0 -334.181
3670.75 28.4268 0 -332.958
3030.86 29.4631 0 -320.603
2990.66 29.5008 0 -318.506
4207.7 26.3786 0 -333.219
4264.09 26.4883 0 -336.144
3010.76 29.4829 0 -319.56
3598.31 28.3831 0 -329.21
4235.89 26.4345 0 -334.689
3646.6 28.4142 0 -331.721
3622.46 28.3997 0 -330.472
2990.66 29.5008 0 -318.506
2950.46 29.531 0 -316.367
4151.33 26.2604 0 -330.234
4207.7 26.3786 0 -333.219
2970.56 29.5169 0 -317.442
3550.04 28.3439 0 -326.647
4179.51 26.3206 0 -331.734
3598.31 28.3831 0 -329.21
3574.17 28.3645 0 -327.935
2950.46 29.531 0 -316.367
2910.28 29.5537 0 -314.186
4094.97 26.134 0 -327.19
4151.33 26.2604 0 -330.234
2930.37 29.5433 0 -315.282
3501.77 28.2967 0 -324.035
4123.14 26.1982 0 -328.719
3550.04 28.3439 0 -326.647
3525.9 28.3213 0 -325.347
2910.28 29.5537 0 -314.186
2870.11 29.5689 0 -311.964
4038.62 25.9991 0 -324.089
4094.97 26.134 0 -327.19
2890.19 29.5622 0 -313.08
3453.52 28.2415 0 -321.373
4066.79 26.0676 0 -325.646
3501.77 28.2967 0 -324.035
3477.64 28.2701 0 -322.71
2870.11 29.5689 0 -311.964
2829.94 29.5766 0 -309.701
3982.29 25.856 0 -320.93
4038.62 25.9991 0 -324.089
2850.02 29.5737 0 -310.838
3405.27 28.1784 0 -318.662
4010.45 25.9286 0 -322.516
3453.52 28.2415 0 -321.373
3429.39 28.2109 0 -320.023
2829.94 29.5766 0 -309.701
2789.78 29.5769 0 -307.398
3925.97 25.7047 0 -317.715
3982.29 25.856 0 -320.93
2809.86 29.5777 0 -308.555
3357.04 28.1074 0 -315.903
3954.13 25.7814 0 -319.33
3405.27 28.1784 0 -318.662
3381.16 28.1438 0 -317.288
2789.78 29.5769 0 -307.398
2749.63 29.5698 0 -305.056
3869.66 25.5452 0 -314.445
3925.97 25.7047 0 -317.715
2769.71 29.5743 0 -306.232
3308.82 28.0285 0 -313.096
3897.81 25.626 0 -316.087
3357.04 28.1074 0 -315.903
3332.93 28.0689 0 -314.505
2749.63 29.5698 0 -305.056
2709.49 29.5554 0 -302.674
3813.37 25.3776 0 -311.121
3869.66 25.5452 0 -314.445
2729.56 29.5635 0 -303.87
3260.61 27.9419 0 -310.243
3841.51 25.4624 0 -312.79
3308.82 28.0285 0 -313.096
3284.71 27.9862 0 -311.675
2709.49 29.5554 0 -302.674
2669.36 29.5336 0 -300.255
3757.09 25.202 0 -307.743
3813.37 25.3776 0 -311.121
2689.43 29.5454 0 -301.469
3212.41 27.8475 0 -307.344
3785.23 25.2908 0 -309.438
3260.61 27.9419 0 -310.243
3236.51 27.8956 0 -308.799
2669.36 29.5336 0 -300.255
2629.24 29.5047 0 -297.797
3700.82 25.0183 0 -304.311
3757.09 25.202 0 -307.743
2649.3 29.52 0 -299.031
3164.22 27.7454 0 -304.399
3728.96 25.1112 0 -306.034
3212.41 27.8475 0 -307.344
3188.31 27.7974 0 -305.877
2629.24 29.5047 0 -297.797
2589.12 29.4685 0 -295.303
3644.57 24.8268 0 -300.828
3700.82 25.0183 0 -304.311
2609.18 29.4875 0 -296.555
3116.04 27.6357 0 -301.41
3672.7 24.9236 0 -302.576
3164.22 27.7454 0 -304.399
3140.13 27.6915 0 -302.91
2589.12 29.4685 0 -295.303
2549.01 29.4251 0 -292.772
3588.33 24.6274 0 -297.293
3644.57 24.8268 0 -300.828
2569.07 29.4477 0 -294.042
3067.87 27.5185 0 -298.377
3616.45 24.7281 0 -299.067
3116.04 27.6357 0 -301.41
3091.96 27.578 0 -299.899
2549.01 29.4251 0 -292.772
2508.92 29.3747 0 -290.205
3532.1 24.4202 0 -293.708
3588.33 24.6274 0 -297.293
2528.96 29.4008 0 -291.493
3019.71 27.3937 0 -295.3
3560.21 24.5247 0 -295.507
3067.87 27.5185 0 -298.377
3043.79 27.457 0 -296.844
2508.92 29.3747 0 -290.205
2468.82 29.3172 0 -287.602
3475.89 24.2052 0 -290.073
3532.1 24.4202 0 -293.708
2488.87 29.3468 0 -288.908
2971.57 27.2615 0 -292.181
3503.99 24.3137 0 -291.897
3019.71 27.3937 0 -295.3
2995.64 27.3285 0 -293.746
2468.82 29.3172 0 -287.602
2428.74 29.2527 0 -284.965
3419.68 23.9827 0 -286.389
3475.89 24.2052 0 -290.073
2448.78 29.2858 0 -286.288
2923.43 27.1219 0 -289.02
3447.78 24.0949 0 -288.237
2971.57 27.2615 0 -292.181
2947.5 27.1926 0 -290.606
2428.74 29.2527 0 -284.965
2388.67 29.1812 0 -282.293
3363.49 23.7526 0 -282.657
3419.68 23.9827 0 -286.389
2408.7 29.2178 0 -283.633
2875.3 26.9749 0 -285.818
3391.59 23.8686 0 -284.529
2923.43 27.1219 0 -289.02
2899.36 27.0493 0 -287.425
2388.67 29.1812 0 -282.293
2348.6 29.1029 0 -279.588
3307.32 23.515 0 -278.878
3363.49 23.7526 0 -282.657
2368.63 29.1429 0 -280.945
2827.18 26.8208 0 -282.576
3335.4 23.6347 0 -280.774
2875.3 26.9749 0 -285.818
2851.24 26.8988 0 -284.202
2348.6 29.1029 0 -279.588
2308.54 29.0177 0 -276.849
3251.15 23.27 0 -275.053
3307.32 23.515 0 -278.878
2328.57 29.0611 0 -278.223
2779.08 26.6594 0 -279.294
3279.23 23.3934 0 -276.971
2827.18 26.8208 0 -282.576
2803.13 26.741 0 -280.94
2308.54 29.0177 0 -276.849
2268.49 28.9258 0 -274.078
3195 23.0176 0 -271.181
3251.15 23.27 0 -275.053
2288.51 28.9726 0 -275.468
2730.98 26.4909 0 -275.972
3223.07 23.1447 0 -273.123
2779.08 26.6594 0 -279.294
2755.03 26.5761 0 -277.638
2268.49 28.9258 0 -274.078
2228.44 28.8271 0 -271.275
3138.86 22.7581 0 -267.265
3195 23.0176 0 -271.181
2248.46 28.8773 0 -272.681
2682.89 26.3154 0 -272.612
3166.93 22.8888 0 -269.229
2730.98 26.4909 0 -275.972
2706.93 26.4041 0 -274.297
2228.44 28.8271 0 -271.275
2188.41 28.7218 0 -268.441
3082.73 22.4914 0 -263.305
3138.86 22.7581 0 -267.265
2208.42 28.7753 0 -269.862
2634.81 26.133 0 -269.215
3110.79 22.6256 0 -265.29
2682.89 26.3154 0 -272.612
2658.85 26.2251 0 -270.918
2188.41 28.7218 0 -268.441
2148.38 28.61 0 -265.576
3026.61 22.2177 0 -259.301
3082.73 22.4914 0 -263.305
2168.39 28.6667 0 -267.012
2586.74 25.9437 0 -265.78
3054.67 22.3554 0 -261.308
2634.81 26.133 0 -269.215
2610.78 26.0392 0 -267.502
2148.38 28.61 0 -265.576
2108.36 28.4916 0 -262.68
2970.51 21.937 0 -255.255
3026.61 22.2177 0 -259.301
2128.37 28.5516 0 -264.132
2538.69 25.7475 0 -262.309
2998.56 22.0782 0 -257.283
2586.74 25.9437 0 -265.78
2562.71 25.8464 0 -264.049
2108.36 28.4916 0 -262.68
2068.34 28.3667 0 -259.755
2914.41 21.6494 0 -251.168
2970.51 21.937 0 -255.255
2088.35 28.4299 0 -261.221
2490.64 25.5447 0 -258.802
2942.46 21.794 0 -253.217
2538.69 25.7475 0 -262.309
2514.66 25.6469 0 -260.56
2068.34 28.3667 0 -259.755
2028.33 28.2355 0 -256.801
2858.33 21.3551 0 -247.039
2914.41 21.6494 0 -251.168
2048.34 28.3019 0 -258.282
2442.6 25.3352 0 -255.261
2886.37 21.5031 0 -249.108
2490.64 25.5447 0 -258.802
2466.61 25.4407 0 -257.036
2028.33 28.2355 0 -256.801
1988.33 28.098 0 -253.818
2802.26 21.054 0 -242.87
2858.33 21.3551 0 -247.039
2008.33 28.1675 0 -255.313
2394.56 25.1191 0 -251.685
2830.29 21.2054 0 -244.96
2442.6 25.3352 0 -255.261
2418.58 25.2279 0 -253.477
1988.33 28.098 0 -253.818
1948.34 27.9542 0 -250.807
2746.2 20.7465 0 -238.663
2802.26 21.054 0 -242.87
1968.34 28.0269 0 -252.316
2346.54 24.8966 0 -248.075
2774.23 20.9011 0 -240.771
2394.56 25.1191 0 -251.685
2370.55 25.0087 0 -249.884
1948.34 27.9542 0 -250.807
1908.36 27.8043 0 -247.769
2690.15 20.4324 0 -234.416
2746.2 20.7465 0 -238.663
1928.35 27.88 0 -249.292
2298.53 24.6677 0 -244.433
2718.17 20.5902 0 -236.544
2346.54 24.8966 0 -248.075
2322.54 24.7829 0 -246.258
1908.36 27.8043 0 -247.769
1868.38 27.6483 0 -244.704
2634.11 20.112 0 -230.132
2690.15 20.4324 0 -234.416
1888.37 27.7271 0 -246.24
2250.53 24.4325 0 -240.758
2662.13 20.273 0 -232.279
2298.53 24.6677 0 -244.433
2274.53 24.5509 0 -242.599
1868.38 27.6483 0 -244.704
1828.41 27.4863 0 -241.613
2578.09 19.7853 0 -225.812
2634.11 20.112 0 -230.132
1848.39 27.568 0 -243.162
2202.53 24.1911 0 -237.052
2606.1 19.9495 0 -227.977
2250.53 24.4325 0 -240.758
2226.53 24.3126 0 -238.909
1828.41 27.4863 0 -241.613
1788.44 27.3183 0 -238.496
2522.07 19.4525 0 -221.455
2578.09 19.7853 0 -225.812
1808.42 27.403 0 -240.058
2154.54 23.9436 0 -233.315
2550.08 19.6197 0 -223.638
2202.53 24.1911 0 -237.052
2178.54 24.0681 0 -235.187
1788.44 27.3183 0 -238.496
1748.48 27.1445 0 -235.354
2466.07 19.1137 0 -217.063
2522.07 19.4525 0 -221.455
1768.46 27.2321 0 -236.928
2106.57 23.6901 0 -229.547
2494.07 19.2838 0 -219.263
2154.54 23.9436 0 -233.315
2130.55 23.8176 0 -231.435
1748.48 27.1445 0 -235.354
1708.53 26.9649 0 -232.187
2410.07 18.7689 0 -212.636
2466.07 19.1137 0 -217.063
1728.5 27.0554 0 -233.774
2058.6 23.4307 0 -225.751
2438.07 18.942 0 -214.854
2106.57 23.6901 0 -229.547
2082.58 23.5611 0 -227.653
1708.53 26.9649 0 -232.187
1668.58 26.7796 0 -228.997
2354.09 18.4182 0 -208.176
2410.07 18.7689 0 -212.636
1688.56 26.873 0 -230.595
2010.64 23.1654 0 -221.925
2382.08 18.5943 0 -210.41
2058.6 23.4307 0 -225.751
2034.62 23.2988 0 -223.841
1668.58 26.7796 0 -228.997
1628.64 26.5887 0 -225.783
2298.12 18.0619 0 -203.683
2354.09 18.4182 0 -208.176
1648.61 26.6849 0 -227.393
1962.68 22.8944 0 -218.071
2326.1 18.2408 0 -205.933
2010.64 23.1654 0 -221.925
1986.66 23.0306 0 -220.001
1628.64 26.5887 0 -225.783
1588.71 26.3923 0 -222.546
2242.15 17.7 0 -199.157
2298.12 18.0619 0 -203.683
1608.68 26.4912 0 -224.167
1914.74 22.6178 0 -214.19
2270.13 17.8817 0 -201.424
1962.68 22.8944 0 -218.071
1938.71 22.7568 0 -216.134
1588.71 26.3923 0 -222.546
1548.78 26.1904 0 -219.287
2186.2 17.3326 0 -194.601
2242.15 17.7 0 -199.157
1568.75 26.292 0 -220.919
1866.8 22.3357 0 -210.282
2214.18 17.517 0 -196.883
1914.74 22.6178 0 -214.19
1890.77 22.4774 0 -212.239
1548.78 26.1904 0 -219.287
1508.86 25.9831 0 -216.006
2130.26 16.9599 0 -190.014
2186.2 17.3326 0 -194.601
1528.82 26.0874 0 -217.649
1818.87 22.0481 0 -206.348
2158.23 17.1469 0 -192.311
1866.8 22.3357 0 -210.282
1842.84 22.1926 0 -208.318
1508.86 25.9831 0 -216.006
1468.95 25.7706 0 -212.704
2074.32 16.5819 0 -185.397
2130.26 16.9599 0 -190.014
1488.9 25.8775 0 -214.358
1770.95 21.7553 0 -202.388
2102.29 16.7715 0 -187.709
1818.87 22.0481 0 -206.348
1794.91 21.9024 0 -204.371
1468.95 25.7706 0 -212.704
1429.04 25.5528 0 -209.382
2018.4 16.1988 0 -180.752
2074.32 16.5819 0 -185.397
1448.99 25.6624 0 -211.045
1723.04 21.4572 0 -198.404
2046.36 16.391 0 -183.078
1770.95 21.7553 0 -202.388
1746.99 21.6069 0 -200.399
1429.04 25.5528 0 -209.382
1389.14 25.33 0 -206.039
1962.49 15.8107 0 -176.078
2018.4 16.1988 0 -180.752
1409.09 25.4421 0 -207.713
1675.13 21.1539 0 -194.396
1990.44 16.0054 0 -178.419
1723.04 21.4572 0 -198.404
1699.08 21.3062 0 -196.403
1389.14 25.33 0 -206.039
1349.24 25.1022 0 -202.677
1906.58 15.4178 0 -171.377
1962.49 15.8107 0 -176.078
1369.19 25.2167 0 -204.361
1627.23 20.8457 0 -190.364
1934.53 15.6149 0 -173.731
1675.13 21.1539 0 -194.396
1651.18 21.0005 0 -192.383
1349.24 25.1022 0 -202.677
1309.35 24.8694 0 -199.297
1850.68 15.0201 0 -166.65
1906.58 15.4178 0 -171.377
1329.29 24.9864 0 -200.989
1579.34 20.5326 0 -186.31
1878.63 15.2195 0 -169.017
1627.23 20.8457 0 -190.364
1603.29 20.6898 0 -188.34
1309.35 24.8694 0 -199.297
1269.46 24.6317 0 -195.897
1794.8 14.6178 0 -161.897
1850.68 15.0201 0 -166.65
1289.4 24.7512 0 -197.599
1531.46 20.2147 0 -182.233
1822.74 14.8195 0 -164.276
1579.34 20.5326 0 -186.31
1555.4 20.3743 0 -184.274
1269.46 24.6317 0 -195.897
1229.58 24.3894 0 -192.481
1738.92 14.211 0 -157.119
1794.8 14.6178 0 -161.897
1249.52 24.5111 0 -194.191
1483.58 19.8921 0 -178.136
1766.86 14.4149 0 -159.511
1531.46 20.2147 0 -182.233
1507.52 20.054 0 -180.187
1229.58 24.3894 0 -192.481
1189.7 24.1423 0 -189.047
1683.05 13.7999 0 -152.316
1738.92 14.211 0 -157.119
1209.64 24.2664 0 -190.766
1435.71 19.565 0 -174.017
1710.98 14.006 0 -154.72
1483.58 19.8921 0 -178.136
1459.64 19.7291 0 -176.079
1189.7 24.1423 0 -189.047
1149.83 23.8907 0 -185.596
1627.19 13.3845 0 -147.491
1683.05 13.7999 0 -152.316
1169.76 24.0171 0 -187.324
1387.85 19.2333 0 -169.879
1655.12 13.5927 0 -149.906
1435.71 19.565 0 -174.017
1411.78 19.3997 0 -171.951
1149.83 23.8907 0 -185.596
1109.96 23.6347 0 -182.13
1571.33 12.965 0 -142.643
1627.19 13.3845 0 -147.491
1129.9 23.7633 0 -183.865
1339.99 18.8974 0 -165.722
1599.26 13.1752 0 -145.069
1387.85 19.2333 0 -169.879
1363.92 19.0659 0 -167.803
1109.96 23.6347 0 -182.13
1070.1 23.3742 0 -178.648
1515.49 12.5416 0 -137.773
1571.33 12.965 0 -142.643
1090.03 23.505 0 -180.391
1292.14 18.5572 0 -161.545
1543.41 12.7538 0 -140.21
1339.99 18.8974 0 -165.722
1316.06 18.7278 0 -163.636
1070.1 23.3742 0 -178.648
1030.24 23.1095 0 -175.151
1459.65 12.1143 0 -132.882
1515.49 12.5416 0 -137.773
1050.17 23.2424 0 -176.901
1244.29 18.2129 0 -157.351
1487.57 12.3284 0 -135.33
1292.14 18.5572 0 -161.545
1268.21 18.3855 0 -159.451
1030.24 23.1095 0 -175.151
990.392 22.8406 0 -171.64
1403.82 11.6833 0 -127.971
1459.65 12.1143 0 -132.882
1010.32 22.9755 0 -173.398
1196.45 17.8646 0 -153.14
1431.74 11.8993 0 -130.429
1244.29 18.2129 0 -157.351
1220.37 18.0392 0 -155.248
990.392 22.8406 0 -171.64
950.544 22.5675 0 -168.116
1348 11.2488 0 -123.04
1403.82 11.6833 0 -127.971
970.467 22.7046 0 -169.88
1148.62 17.5124 0 -148.913
1375.91 11.4665 0 -125.508
1196.45 17.8646 0 -153.14
1172.54 17.689 0 -151.028
950.544 22.5675 0 -168.116
910.7 22.2905 0 -164.578
1292.19 10.8108 0 -118.091
1348 11.2488 0 -123.04
930.621 22.4295 0 -166.349
1100.79 17.1564 0 -144.669
1320.09 11.0302 0 -120.568
1148.62 17.5124 0 -148.913
1124.71 17.3349 0 -146.793
910.7 22.2905 0 -164.578
870.86 22.0096 0 -161.028
1236.38 10.3696 0 -113.124
1292.19 10.8108 0 -118.091
890.78 22.1505 0 -162.805
1052.97 16.7968 0 -140.41
1264.28 10.5906 0 -115.61
1100.79 17.1564 0 -144.669
1076.88 16.9771 0 -142.542
870.86 22.0096 0 -161.028
831.024 21.725 0 -157.466
1180.57 9.9252 0 -108.14
1236.38 10.3696 0 -113.124
850.942 21.8678 0 -159.249
1005.15 16.4337 0 -136.137
1208.48 10.1478 0 -110.634
1052.97 16.7968 0 -140.41
1029.06 16.6157 0 -138.276
831.024 21.725 0 -157.466
791.193 21.4367 0 -153.893
1124.78 9.47779 0 -103.139
1180.57 9.9252 0 -108.14
811.108 21.5813 0 -155.681
957.341 16.0672 0 -131.85
1152.68 9.70186 0 -105.641
1005.15 16.4337 0 -136.137
981.247 16.2509 0 -133.996
791.193 21.4367 0 -153.893
751.365 21.1451 0 -150.309
1068.99 9.02754 0 -98.1228
1124.78 9.47779 0 -103.139
771.278 21.2913 0 -152.102
909.533 15.6974 0 -127.551
1096.88 9.25301 0 -100.633
957.341 16.0672 0 -131.85
933.437 15.8827 0 -129.702
751.365 21.1451 0 -150.309
711.542 20.8503 0 -146.713
1013.2 8.57456 0 -93.0918
1068.99 9.02754 0 -98.1228
731.453 20.998 0 -148.512
861.73 15.3245 0 -123.238
1041.09 8.80138 0 -95.6091
909.533 15.6974 0 -127.551
885.631 15.5113 0 -125.396
711.542 20.8503 0 -146.713
671.724 20.553 0 -143.107
957.417 8.11903 0 -88.0467
1013.2 8.57456 0 -93.0918
691.632 20.7019 0 -144.912
813.932 14.9487 0 -118.913
985.308 8.34709 0 -90.5709
861.73 15.3245 0 -123.238
837.83 15.137 0 -121.077
671.724 20.553 0 -143.107
631.913 20.254 0 -139.488
901.638 7.66121 0 -82.9884
957.417 8.11903 0 -88.0467
651.817 20.4036 0 -141.299
766.141 14.5702 0 -114.576
929.527 7.89045 0 -85.519
813.932 14.9487 0 -118.913
790.035 14.7597 0 -116.746
631.913 20.254 0 -139.488
592.112 19.9552 0 -135.855
845.865 7.20081 0 -77.9178
901.638 7.66121 0 -82.9884
612.011 20.1044 0 -137.674
718.359 14.1893 0 -110.225
873.751 7.43118 0 -80.4547
766.141 14.5702 0 -114.576
742.248 14.3801 0 -112.402
592.112 19.9552 0 -135.855
552.325 19.6599 0 -132.2
790.103 6.73948 0 -72.8368
845.865 7.20081 0 -77.9178
572.217 19.8069 0 -134.031
670.595 13.8069 0 -105.858
817.982 6.97068 0 -75.3781
718.359 14.1893 0 -110.225
694.474 13.9981 0 -108.044
552.325 19.6599 0 -132.2
512.563 19.3747 0 -128.512
734.36 6.27303 0 -67.7462
790.103 6.73948 0 -72.8368
532.44 19.5154 0 -130.361
622.86 13.4233 0 -101.468
762.228 6.50595 0 -70.2933
670.595 13.8069 0 -105.858
646.723 13.6154 0 -103.666
512.563 19.3747 0 -128.512
472.832 19.1097 0 -124.768
678.67 5.81243 0 -62.6534
734.36 6.27303 0 -67.7462
492.694 19.2388 0 -126.649
575.185 13.0424 0 -97.0432
706.506 6.04461 0 -65.1979
622.86 13.4233 0 -101.468
599.011 13.2321 0 -99.2613
472.832 19.1097 0 -124.768
433.164 18.8882 0 -120.924
623.064 5.32918 0 -57.557
678.67 5.81243 0 -62.6534
452.986 18.9917 0 -122.863
527.61 12.6641 0 -92.5551
650.854 5.56808 0 -60.1089
575.185 13.0424 0 -97.0432
551.383 12.8536 0 -94.8089
433.164 18.8882 0 -120.924
393.554 18.7343 0 -116.913
567.707 4.88756 0 -52.4891
623.064 5.32918 0 -57.557
413.355 18.7996 0 -118.945
480.244 12.3011 0 -87.9615
595.342 5.1178 0 -55.0101
527.61 12.6641 0 -92.5551
503.888 12.4784 0 -90.2776
393.554 18.7343 0 -116.913
354.09 18.7212 0 -112.594
512.691 4.32722 0 -47.4339
567.707 4.88756 0 -52.4891
373.79 18.7074 0 -114.805
433.204 11.9532 0 -83.1699
540.145 4.59136 0 -49.9761
480.244 12.3011 0 -87.9615
456.682 12.1294 0 -85.5937
354.09 18.7212 0 -112.594
314.655 18.8708 0 -107.808
458.686 3.98783 0 -42.5208
512.691 4.32722 0 -47.4339
334.393 18.765 0 -110.272
386.838 11.6539 0 -78.0448
485.518 4.20735 0 -44.9187
433.204 11.9532 0 -83.1699
409.89 11.786 0 -80.6743
314.655 18.8708 0 -107.808
275.464 19.3972 0 -102.194
405.915 3.05288 0 -37.6647
458.686 3.98783 0 -42.5208
294.986 19.0951 0 -105.134
341.382 11.4129 0 -72.3484
432.102 3.43206 0 -40.1629
386.838 11.6539 0 -78.0448
364.019 11.549 0 -75.2616
275.464 19.3972 0 -102.194
235.726 20.081 0 -95.5612
356.748 3.17734 0 -33.3303
405.915 3.05288 0 -37.6647
255.784 19.6809 0 -99.0209
297.853 11.2927 0 -65.6928
380.768 3.37425 0 -35.2516
341.382 11.4129 0 -72.3484
319.207 11.2821 0 -69.2422
235.726 20.081 0 -95.5612
195.781 21.4828 0 -87.356
311.557 0.493611 0 -29.1725
356.748 3.17734 0 -33.3303
215.666 20.8053 0 -91.6807
256.135 11.3787 0 -57.7132
333.422 1.36978 0 -31.6012
297.853 11.2927 0 -65.6928
276.982 11.4186 0 -61.7643
195.781 21.4828 0 -87.356
151.673 21.4618 0 -78.5356
277.691 2.59594 0 -26.574
311.557 0.493611 0 -29.1725
174.756 21.5298 0 -82.9599
218.754 11.6885 0 -47.5374
293.176 2.83588 0 -26.8759
256.135 11.3787 0 -57.7132
236.295 11.2674 0 -53.2832
151.673 21.4618 0 -78.5356
103.259 20.4182 0 -70.9171
257.077 -6.9762 0 -23.345
277.691 2.59594 0 -26.574
127.801 21.9415 0 -74.1922
180.148 12.5402 0 -36.5285
264.061 -4.77936 0 -27.0475
218.754 11.6885 0 -47.5374
201.024 12.4817 0 -41.3831
103.259 20.4182 0 -70.9171
37.6329 1.53687 0 -77.4375
280.877 8.47812 0 -17.1549
257.077 -6.9762 0 -23.345
74.1325 13.5832 0 -71.3103
137.422 10.3422 0 -27.8827
264.073 6.34255 0 -18.1939
180.148 12.5402 0 -36.5285
158.093 11.68 0 -32.6908
37.6329 1.53687 0 -77.4375
-22.5631 -73.4693 0 -120.462
402.123 29.7649 0 31.1252
280.877 8.47812 0 -17.1549
4.9695 -17.5483 0 -90.8882
17.726 -40.1769 0 -70.6608
313.112 -12.444 0 -12.8864
137.422 10.3422 0 -27.8827
99.305 1.69992 0 -34.2645
-22.5631 -73.4693 0 -120.462
-9.94327 -383.378 0 -154.1
36.0514 -455.642 0 -363.428
402.123 29.7649 0 31.1252
-35.6849 -196.864 0 -152.814
-67.5902 -477.636 0 -230.078
420.982 91.7936 0 1.09018
17.726 -40.1769 0 -70.6608
-46.7679 -151.276 0 -134.392
      </DataArray> 
      <DataArray type="Float64" NumberOfComponents="4" Name="GreenStrain" format="ascii">
-0.00741703 -1.11022e-16 0.00317873 -0.00252491
-0.00528737 0.00167616 0.00154766 9.8406e-05
-0.00380531 0.00075493 0.00130731 -0.000280009
-0.00337825 0 0.00144782 -0.000188975
-0.00588142 0.00187147 0.00171855 -0.000353376
-0.00480835 0.00116941 0.00155955 -0.000363473
-0.00361847 0.000357339 0.00139763 -0.000325261
-0.00396641 0 0.00169989 -0.000611603
-0.00463882 0.000792403 0.00164846 -0.000571911
-0.00528737 0.00167616 0.00154766 9.8406e-05
-0.0052303 0.0016203 0.00154714 2.97599e-05
-0.00395271 0.00106792 0.00123634 -0.000132166
-0.00380531 0.00075493 0.00130731 -0.000280009
-0.00521276 0.00154623 0.00157137 4.22743e-05
-0.0047006 0.00136897 0.00142784 -5.91617e-05
-0.00392227 0.000976472 0.00126249 -0.000201106
-0.00480835 0.00116941 0.00155955 -0.000363473
-0.00474062 0.00132347 0.00146449 -0.000145459
-0.0052303 0.0016203 0.00154714 2.97599e-05
-0.005306 0.00157467 0.00159914 1.38502e-05
-0.00393294 0.00115462 0.00119071 -4.86204e-05
-0.00395271 0.00106792 0.00123634 -0.000132166
-0.00528105 0.00161733 0.00157016 3.03074e-05
-0.00465193 0.00139202 0.0013971 -5.36791e-06
-0.00394137 0.00112191 0.00120834 -7.71263e-05
-0.0047006 0.00136897 0.00142784 -5.91617e-05
-0.00467534 0.0013856 0.00140989 -2.8336e-05
-0.005306 0.00157467 0.00159914 1.38502e-05
-0.00533669 0.00160584 0.00159893 -1.72134e-06
-0.00390505 0.00116574 0.00117399 -3.07281e-05
-0.00393294 0.00115462 0.00119071 -4.86204e-05
-0.00531968 0.0015802 0.00160263 -2.94864e-06
-0.00462522 0.00138871 0.00138708 1.90517e-06
-0.00392247 0.0011658 0.00118143 -3.64907e-05
-0.00465193 0.00139202 0.0013971 -5.36791e-06
-0.00463402 0.00139172 0.00138956 4.62535e-06
-0.00533669 0.00160584 0.00159893 -1.72134e-06
-0.00535212 0.00159994 0.00160808 1.07681e-06
-0.003873 0.00116328 0.00116131 -3.04669e-05
-0.00390505 0.00116574 0.00117399 -3.07281e-05
-0.00534988 0.00160832 0.00160353 2.66819e-06
-0.00461182 0.00138408 0.00138332 -6.64442e-06
-0.00388658 0.00116484 0.00116646 -2.87579e-05
-0.00462522 0.00138871 0.00138708 1.90517e-06
-0.00461975 0.00138627 0.00138578 -3.60105e-06
-0.00535212 0.00159994 0.00160808 1.07681e-06
-0.00534583 0.00160449 0.00160344 -1.01399e-06
-0.00384866 0.00115445 0.00115466 -3.71929e-05
-0.003873 0.00116328 0.00116131 -3.04669e-05
-0.00534893 0.00160052 0.00160646 -1.7251e-06
-0.00459495 0.00137793 0.00137872 -1.43097e-05
-0.00386134 0.00115939 0.00115798 -3.40306e-05
-0.00461182 0.00138408 0.00138332 -6.64442e-06
-0.00460302 0.00138121 0.00138077 -1.00701e-05
-0.00534583 0.00160449 0.00160344 -1.01399e-06
-0.00533235 0.00159842 0.00160026 5.79897e-08
-0.00382507 0.00114597 0.00114819 -4.27047e-05
-0.00384866 0.00115445 0.00115466 -3.71929e-05
-0.00534095 0.00160284 0.00160204 3.09587e-07
-0.00457692 0.00137137 0.00137381 -2.02743e-05
-0.00383616 0.00115003 0.0011512 -3.99683e-05
-0.00459495 0.00137793 0.00137872 -1.43097e-05
-0.00458658 0.00137466 0.00137654 -1.78701e-05
-0.00533235 0.00159842 0.00160026 5.79897e-08
-0.00531075 0.00159338 0.00159316 -3.25671e-07
-0.00380384 0.00113777 0.0011426 -4.71238e-05
-0.00382507 0.00114597 0.00114819 -4.27047e-05
-0.00532172 0.00159562 0.0015969 -5.45899e-07
-0.00455605 0.00136448 0.00136782 -2.40737e-05
-0.00381456 0.00114184 0.00114545 -4.52154e-05
-0.00457692 0.00137137 0.00137381 -2.02743e-05
-0.00456655 0.00136797 0.00137082 -2.23116e-05
-0.00531075 0.00159338 0.00159316 -3.25671e-07
-0.0052864 0.00158569 0.00158602 -3.50712e-08
-0.00378284 0.00113039 0.00113676 -4.97614e-05
-0.00380384 0.00113777 0.0011426 -4.71238e-05
-0.00529908 0.00158987 0.00158966 1.47032e-08
-0.00453396 0.00135739 0.00136139 -2.62976e-05
-0.00379318 0.00113398 0.00113966 -4.8577e-05
-0.00455605 0.00136448 0.00136782 -2.40737e-05
-0.00454525 0.00136095 0.0013647 -2.53879e-05
-0.0052864 0.00158569 0.00158602 -3.50712e-08
-0.00525969 0.00157797 0.00157788 -8.95243e-08
-0.0037624 0.00112352 0.00113095 -5.13925e-05
-0.00378284 0.00113039 0.00113676 -4.97614e-05
-0.00527313 0.00158179 0.001582 -1.57184e-07
-0.00451073 0.00135021 0.00135451 -2.75536e-05
-0.00377264 0.00112691 0.00113389 -5.07115e-05
-0.00453396 0.00135739 0.00136139 -2.62976e-05
-0.00452239 0.00135381 0.00135796 -2.70099e-05
-0.00525969 0.00157797 0.00157788 -8.95243e-08
-0.00523219 0.00156965 0.00156966 -1.85039e-08
-0.00374199 0.00111702 0.00112499 -5.22362e-05
-0.0037624 0.00112352 0.00113095 -5.13925e-05
-0.00524605 0.00157388 0.00157379 -7.21413e-09
-0.00448703 0.00134298 0.00134745 -2.8184e-05
-0.00375216 0.00112023 0.00112797 -5.18764e-05
-0.00451073 0.00135021 0.00135451 -2.75536e-05
-0.00449895 0.0013466 0.00135101 -2.79301e-05
-0.00523219 0.00156965 0.00156966 -1.85039e-08
-0.00520414 0.00156129 0.00156122 -2.08953e-08
-0.00372171 0.00111074 0.00111898 -5.2679e-05
-0.00374199 0.00111702 0.00112499 -5.22362e-05
-0.00521818 0.00156546 0.00156545 -4.02201e-08
-0.00446298 0.00133573 0.00134025 -2.8498e-05
-0.00373186 0.00111386 0.001122 -5.25012e-05
-0.00448703 0.00134298 0.00134745 -2.8184e-05
-0.00447502 0.00133936 0.00134385 -2.83694e-05
-0.00520414 0.00156129 0.00156122 -2.08953e-08
-0.00517593 0.00155281 0.00155277 -5.25398e-09
-0.00370143 0.0011046 0.00111293 -5.28719e-05
-0.00372171 0.00111074 0.00111898 -5.2679e-05
-0.00519005 0.00155706 0.001557 -2.39889e-09
-0.00443882 0.00132848 0.001333 -2.8628e-05
-0.00371156 0.00110766 0.00111596 -5.27945e-05
-0.00446298 0.00133573 0.00134025 -2.8498e-05
-0.00445092 0.00133211 0.00133663 -2.85785e-05
-0.00517593 0.00155281 0.00155277 -5.25398e-09
-0.00514764 0.00154433 0.00154428 -3.56987e-09
-0.00368117 0.00109853 0.00110685 -5.29509e-05
-0.00370143 0.0011046 0.00111293 -5.28719e-05
-0.00516179 0.00154857 0.00154852 -8.44342e-09
-0.00441457 0.00132123 0.00132572 -2.86778e-05
-0.0036913 0.00110156 0.00110989 -5.29223e-05
-0.00443882 0.00132848 0.001333 -2.8628e-05
-0.0044267 0.00132485 0.00132936 -2.86596e-05
-0.00514764 0.00154433 0.00154428 -3.56987e-09
-0.00511935 0.00153584 0.00153579 -6.69733e-10
-0.00366092 0.00109249 0.00110075 -5.29705e-05
-0.00368117 0.00109853 0.00110685 -5.29509e-05
-0.0051335 0.00154009 0.00154003 1.47602e-10
-0.00439032 0.00131398 0.00131843 -2.86874e-05
-0.00367104 0.0010955 0.0011038 -5.29647e-05
-0.00441457 0.00132123 0.00132572 -2.86778e-05
-0.00440245 0.0013176 0.00132208 -2.86854e-05
-0.00511935 0.00153584 0.00153579 -6.69733e-10
-0.00509106 0.00152735 0.0015273 -7.45533e-12
-0.00364067 0.00108647 0.00109466 -5.29685e-05
-0.00366092 0.00109249 0.00110075 -5.29705e-05
-0.0051052 0.0015316 0.00153155 -1.02838e-09
-0.00436605 0.00130673 0.00131114 -2.86838e-05
-0.00365079 0.00108948 0.00109771 -5.29713e-05
-0.00439032 0.00131398 0.00131843 -2.86874e-05
-0.00437818 0.00131035 0.00131478 -2.86864e-05
-0.00509106 0.00152735 0.0015273 -7.45533e-12
-0.00506278 0.00151887 0.00151882 3.22358e-10
-0.00362042 0.00108046 0.00108856 -5.29587e-05
-0.00364067 0.00108647 0.00109466 -5.29685e-05
-0.00507692 0.00152311 0.00152306 5.9114e-10
-0.00434179 0.00129949 0.00130384 -2.86759e-05
-0.00363054 0.00108346 0.00109161 -5.29638e-05
-0.00436605 0.00130673 0.00131114 -2.86838e-05
-0.00435392 0.00130311 0.00130749 -2.86799e-05
-0.00506278 0.00151887 0.00151882 3.22358e-10
-0.00503452 0.00151039 0.00151034 4.26622e-10
-0.00360018 0.00107445 0.00108246 -5.29488e-05
-0.00362042 0.00108046 0.00108856 -5.29587e-05
-0.00504865 0.00151463 0.00151458 2.79617e-10
-0.00431753 0.00129224 0.00129655 -2.86688e-05
-0.0036103 0.00107745 0.00108551 -5.29536e-05
-0.00434179 0.00129949 0.00130384 -2.86759e-05
-0.00432966 0.00129586 0.0013002 -2.86721e-05
-0.00503452 0.00151039 0.00151034 4.26622e-10
-0.00500626 0.00150191 0.00150186 3.68674e-10
-0.00357994 0.00106844 0.00107636 -5.29408e-05
-0.00360018 0.00107445 0.00108246 -5.29488e-05
-0.00502039 0.00150615 0.0015061 4.66215e-10
-0.00429328 0.001285 0.00128926 -2.86633e-05
-0.00359006 0.00107144 0.00107941 -5.29445e-05
-0.00431753 0.00129224 0.00129655 -2.86688e-05
-0.00430541 0.00128862 0.00129291 -2.86658e-05
-0.00500626 0.00150191 0.00150186 3.68674e-10
-0.00497801 0.00149344 0.00149339 3.43469e-10
-0.0035597 0.00106243 0.00107026 -5.29352e-05
-0.00357994 0.00106844 0.00107636 -5.29408e-05
-0.00499213 0.00149767 0.00149763 3.47531e-10
-0.00426903 0.00127776 0.00128197 -2.86597e-05
-0.00356982 0.00106544 0.00107331 -5.29377e-05
-0.00429328 0.001285 0.00128926 -2.86633e-05
-0.00428116 0.00128138 0.00128562 -2.86613e-05
-0.00497801 0.00149344 0.00149339 3.43469e-10
-0.00494976 0.00148496 0.00148491 2.82466e-10
-0.00353946 0.00105643 0.00106416 -5.29316e-05
-0.0035597 0.00106243 0.00107026 -5.29352e-05
-0.00496389 0.0014892 0.00148915 3.18712e-10
-0.00424479 0.00127052 0.00127469 -2.86575e-05
-0.00354958 0.00105943 0.00106721 -5.29332e-05
-0.00426903 0.00127776 0.00128197 -2.86597e-05
-0.00425691 0.00127414 0.00127833 -2.86585e-05
-0.00494976 0.00148496 0.00148491 2.82466e-10
-0.00492152 0.00147649 0.00147644 2.5432e-10
-0.00351923 0.00105042 0.00105806 -5.29294e-05
-0.00353946 0.00105643 0.00106416 -5.29316e-05
-0.00493564 0.00148073 0.00148068 2.68046e-10
-0.00422055 0.00126328 0.0012674 -2.86563e-05
-0.00352935 0.00105342 0.00106111 -5.29303e-05
-0.00424479 0.00127052 0.00127469 -2.86575e-05
-0.00423267 0.0012669 0.00127104 -2.86568e-05
-0.00492152 0.00147649 0.00147644 2.5432e-10
-0.00489328 0.00146802 0.00146797 2.24713e-10
-0.00349899 0.00104441 0.00105197 -5.29281e-05
-0.00351923 0.00105042 0.00105806 -5.29294e-05
-0.0049074 0.00147225 0.0014722 2.37636e-10
-0.00419631 0.00125605 0.00126011 -2.86556e-05
-0.00350911 0.00104741 0.00105501 -5.29286e-05
-0.00422055 0.00126328 0.0012674 -2.86563e-05
-0.00420843 0.00125966 0.00126376 -2.86559e-05
-0.00489328 0.00146802 0.00146797 2.24713e-10
-0.00486503 0.00145954 0.0014595 2.10369e-10
-0.00347876 0.0010384 0.00104587 -5.29274e-05
-0.00349899 0.00104441 0.00105197 -5.29281e-05
-0.00487915 0.00146378 0.00146373 2.17131e-10
-0.00417207 0.00124881 0.00125283 -2.86554e-05
-0.00348888 0.0010414 0.00104892 -5.29277e-05
-0.00419631 0.00125605 0.00126011 -2.86556e-05
-0.00418419 0.00125243 0.00125647 -2.86555e-05
-0.00486503 0.00145954 0.0014595 2.10373e-10
-0.00483679 0.00145107 0.00145102 1.98858e-10
-0.00345853 0.00103239 0.00103977 -5.29271e-05
-0.00347876 0.0010384 0.00104587 -5.29274e-05
-0.00485091 0.00145531 0.00145526 2.03092e-10
-0.00414783 0.00124157 0.00124554 -2.86553e-05
-0.00346864 0.00103539 0.00104282 -5.29272e-05
-0.00417207 0.00124881 0.00125283 -2.86554e-05
-0.00415995 0.00124519 0.00124918 -2.86553e-05
-0.00483679 0.00145107 0.00145102 1.98858e-10
-0.00480855 0.0014426 0.00144255 1.93137e-10
-0.0034383 0.00102638 0.00103368 -5.29269e-05
-0.00345853 0.00103239 0.00103977 -5.29271e-05
-0.00482267 0.00144683 0.00144679 1.95516e-10
-0.00412359 0.00123433 0.00123825 -2.86553e-05
-0.00344841 0.00102939 0.00103673 -5.2927e-05
-0.00414783 0.00124157 0.00124554 -2.86553e-05
-0.00413571 0.00123795 0.0012419 -2.86553e-05
-0.00480855 0.0014426 0.00144255 1.93136e-10
-0.00478031 0.00143413 0.00143408 1.89113e-10
-0.00341806 0.00102037 0.00102758 -5.29267e-05
-0.0034383 0.00102638 0.00103368 -5.29269e-05
-0.00479443 0.00143836 0.00143832 1.90362e-10
-0.00409935 0.00122709 0.00123097 -2.86553e-05
-0.00342818 0.00102338 0.00103063 -5.29268e-05
-0.00412359 0.00123433 0.00123825 -2.86553e-05
-0.00411147 0.00123071 0.00123461 -2.86553e-05
-0.00478031 0.00143413 0.00143408 1.89113e-10
-0.00475207 0.00142565 0.00142561 1.86969e-10
-0.00339784 0.00101436 0.00102149 -5.29265e-05
-0.00341806 0.00102037 0.00102758 -5.29267e-05
-0.00476619 0.00142989 0.00142984 1.87701e-10
-0.00407512 0.00121985 0.00122369 -2.86553e-05
-0.00340795 0.00101737 0.00102454 -5.29266e-05
-0.00409935 0.00122709 0.00123097 -2.86553e-05
-0.00408723 0.00122347 0.00122733 -2.86553e-05
-0.00475207 0.00142565 0.00142561 1.86967e-10
-0.00472384 0.00141718 0.00141714 1.85438e-10
-0.00337761 0.00100835 0.00101539 -5.29263e-05
-0.00339784 0.00101436 0.00102149 -5.29265e-05
-0.00473795 0.00142142 0.00142137 1.85832e-10
-0.00405088 0.00121261 0.0012164 -2.86553e-05
-0.00338772 0.00101136 0.00101844 -5.29264e-05
-0.00407512 0.00121985 0.00122369 -2.86553e-05
-0.004063 0.00121623 0.00122004 -2.86553e-05
-0.00472384 0.00141718 0.00141714 1.85438e-10
-0.0046956 0.00140871 0.00140867 1.84419e-10
-0.00335738 0.00100234 0.0010093 -5.2926e-05
-0.00337761 0.00100835 0.00101539 -5.29263e-05
-0.00470972 0.00141295 0.0014129 1.84717e-10
-0.00402665 0.00120537 0.00120912 -2.86552e-05
-0.00336749 0.00100535 0.00101235 -5.29262e-05
-0.00405088 0.00121261 0.0012164 -2.86553e-05
-0.00403876 0.00120899 0.00121276 -2.86553e-05
-0.0046956 0.00140871 0.00140867 1.84417e-10
-0.00466736 0.00140024 0.00140019 1.83517e-10
-0.00333715 0.000996333 0.00100321 -5.29257e-05
-0.00335738 0.00100234 0.0010093 -5.2926e-05
-0.00468148 0.00140448 0.00140443 1.83773e-10
-0.00400241 0.00119813 0.00120183 -2.86552e-05
-0.00334726 0.000999338 0.00100625 -5.29259e-05
-0.00402665 0.00120537 0.00120912 -2.86552e-05
-0.00401453 0.00120175 0.00120548 -2.86552e-05
-0.00466736 0.00140024 0.00140019 1.83517e-10
-0.00463912 0.00139177 0.00139172 1.82674e-10
-0.00331693 0.000990323 0.000997115 -5.29253e-05
-0.00333715 0.000996333 0.00100321 -5.29257e-05
-0.00465324 0.00139601 0.00139596 1.82957e-10
-0.00397818 0.0011909 0.00119455 -2.8655e-05
-0.00332704 0.000993328 0.00100016 -5.29255e-05
-0.00400241 0.00119813 0.00120183 -2.86552e-05
-0.0039903 0.00119452 0.00119819 -2.86551e-05
-0.00463912 0.00139177 0.00139172 1.82671e-10
-0.00461089 0.0013833 0.00138325 1.81796e-10
-0.0032967 0.000984314 0.000991023 -5.29249e-05
-0.00331693 0.000990323 0.000997115 -5.29253e-05
-0.00462501 0.00138753 0.00138749 1.82109e-10
-0.00395395 0.00118366 0.00118727 -2.86549e-05
-0.00330681 0.000987319 0.000994069 -5.29251e-05
-0.00397818 0.0011909 0.00119455 -2.8655e-05
-0.00396606 0.00118728 0.00119091 -2.8655e-05
-0.00461089 0.0013833 0.00138325 1.81796e-10
-0.00458266 0.00137483 0.00137478 1.80895e-10
-0.00327648 0.000978304 0.000984931 -5.29245e-05
-0.0032967 0.000984314 0.000991023 -5.29249e-05
-0.00459677 0.00137906 0.00137902 1.8124e-10
-0.00392972 0.00117642 0.00117998 -2.86547e-05
-0.00328659 0.000981309 0.000987977 -5.29247e-05
-0.00395395 0.00118366 0.00118727 -2.86549e-05
-0.00394183 0.00118004 0.00118363 -2.86548e-05
-0.00458266 0.00137483 0.00137478 1.80895e-10
-0.00455442 0.00136636 0.00136631 1.79911e-10
-0.00325625 0.000972294 0.00097884 -5.2924e-05
-0.00327648 0.000978304 0.000984931 -5.29245e-05
-0.00456854 0.00137059 0.00137055 1.80297e-10
-0.00390549 0.00116918 0.0011727 -2.86545e-05
-0.00326636 0.000975299 0.000981885 -5.29242e-05
-0.00392972 0.00117642 0.00117998 -2.86547e-05
-0.0039176 0.0011728 0.00117634 -2.86546e-05
-0.00455442 0.00136636 0.00136631 1.79911e-10
-0.00452619 0.00135789 0.00135784 1.78891e-10
-0.00323603 0.000966284 0.000972749 -5.29234e-05
-0.00325625 0.000972294 0.00097884 -5.2924e-05
-0.00454031 0.00136212 0.00136208 1.79311e-10
-0.00388126 0.00116194 0.00116542 -2.86543e-05
-0.00324614 0.000969289 0.000975794 -5.29237e-05
-0.00390549 0.00116918 0.0011727 -2.86545e-05
-0.00389337 0.00116556 0.00116906 -2.86544e-05
-0.00452619 0.00135789 0.00135784 1.78896e-10
-0.00449796 0.00134942 0.00134937 1.77846e-10
-0.00321581 0.000960274 0.000966658 -5.29229e-05
-0.00323603 0.000966284 0.000972749 -5.29234e-05
-0.00451207 0.00135365 0.00135361 1.78278e-10
-0.00385703 0.00115471 0.00115814 -2.86541e-05
-0.00322592 0.000963279 0.000969704 -5.29232e-05
-0.00388126 0.00116194 0.00116542 -2.86543e-05
-0.00386914 0.00115832 0.00116178 -2.86542e-05
-0.00449796 0.00134942 0.00134937 1.77846e-10
-0.00446973 0.00134095 0.00134091 1.76754e-10
-0.00319559 0.000954264 0.000960568 -5.29223e-05
-0.00321581 0.000960274 0.000966658 -5.29229e-05
-0.00448384 0.00134518 0.00134514 1.77231e-10
-0.0038328 0.00114747 0.00115086 -2.86539e-05
-0.0032057 0.000957269 0.000963613 -5.29226e-05
-0.00385703 0.00115471 0.00115814 -2.86541e-05
-0.00384492 0.00115109 0.0011545 -2.8654e-05
-0.00446973 0.00134095 0.00134091 1.76751e-10
-0.0044415 0.00133248 0.00133244 1.75602e-10
-0.00317537 0.000948254 0.000954479 -5.29217e-05
-0.00319559 0.000954264 0.000960568 -5.29223e-05
-0.00445561 0.00133672 0.00133667 1.76077e-10
-0.00380858 0.00114023 0.00114358 -2.86536e-05
-0.00318548 0.000951259 0.000957524 -5.2922e-05
-0.0038328 0.00114747 0.00115086 -2.86539e-05
-0.00382069 0.00114385 0.00114722 -2.86537e-05
-0.0044415 0.00133248 0.00133244 1.75602e-10
-0.00441327 0.00132401 0.00132397 1.74524e-10
-0.00315515 0.000942244 0.00094839 -5.2921e-05
-0.00317537 0.000948254 0.000954479 -5.29217e-05
-0.00442738 0.00132825 0.0013282 1.74972e-10
-0.00378435 0.00113299 0.0011363 -2.86534e-05
-0.00316526 0.000945249 0.000951434 -5.29214e-05
-0.00380858 0.00114023 0.00114358 -2.86536e-05
-0.00379646 0.00113661 0.00113994 -2.86535e-05
-0.00441327 0.00132401 0.00132397 1.74524e-10
-0.00438504 0.00131554 0.0013155 1.73339e-10
-0.00313494 0.000936234 0.000942301 -5.29204e-05
-0.00315515 0.000942244 0.00094839 -5.2921e-05
-0.00439916 0.00131978 0.00131973 1.73856e-10
-0.00376013 0.00112575 0.00112902 -2.86531e-05
-0.00314505 0.000939239 0.000945346 -5.29207e-05
-0.00378435 0.00113299 0.0011363 -2.86534e-05
-0.00377224 0.00112937 0.00113266 -2.86532e-05
-0.00438504 0.00131554 0.0013155 1.7334e-10
-0.00435682 0.00130708 0.00130703 1.72187e-10
-0.00311472 0.000930224 0.000936213 -5.29197e-05
-0.00313494 0.000936234 0.000942301 -5.29204e-05
-0.00437093 0.00131131 0.00131127 1.72664e-10
-0.00373591 0.00111852 0.00112174 -2.86528e-05
-0.00312483 0.000933229 0.000939257 -5.29201e-05
-0.00376013 0.00112575 0.00112902 -2.86531e-05
-0.00374802 0.00112214 0.00112538 -2.86529e-05
-0.00435682 0.00130708 0.00130703 1.72187e-10
-0.00432859 0.00129861 0.00129856 1.71044e-10
-0.00309451 0.000924213 0.000930126 -5.2919e-05
-0.00311472 0.000930224 0.000936213 -5.29197e-05
-0.0043427 0.00130284 0.0013028 1.71543e-10
-0.00371168 0.00111128 0.00111446 -2.86525e-05
-0.00310461 0.000927219 0.000933169 -5.29194e-05
-0.00373591 0.00111852 0.00112174 -2.86528e-05
-0.00372379 0.0011149 0.0011181 -2.86526e-05
-0.00432859 0.00129861 0.00129856 1.71032e-10
-0.00430037 0.00129014 0.0012901 1.6987e-10
-0.00307429 0.000918203 0.000924039 -5.29183e-05
-0.00309451 0.000924213 0.000930126 -5.2919e-05
-0.00431448 0.00129437 0.00129433 1.70353e-10
-0.00368746 0.00110404 0.00110718 -2.86522e-05
-0.0030844 0.000921208 0.000927082 -5.29187e-05
-0.00371168 0.00111128 0.00111446 -2.86525e-05
-0.00369957 0.00110766 0.00111082 -2.86523e-05
-0.00430037 0.00129014 0.0012901 1.6987e-10
-0.00427214 0.00128167 0.00128163 1.68697e-10
-0.00305408 0.000912193 0.000917952 -5.29176e-05
-0.00307429 0.000918203 0.000924039 -5.29183e-05
-0.00428626 0.00128591 0.00128586 1.69224e-10
-0.00366324 0.00109681 0.0010999 -2.86519e-05
-0.00306419 0.000915198 0.000920995 -5.29179e-05
-0.00368746 0.00110404 0.00110718 -2.86522e-05
-0.00367535 0.00110042 0.00110354 -2.8652e-05
-0.00427214 0.00128167 0.00128163 1.68712e-10
-0.00424392 0.00127321 0.00127316 1.67558e-10
-0.00303387 0.000906183 0.000911866 -5.29168e-05
-0.00305408 0.000912193 0.000917952 -5.29176e-05
-0.00425803 0.00127744 0.0012774 1.68028e-10
-0.00363903 0.00108957 0.00109262 -2.86515e-05
-0.00304397 0.000909188 0.000914909 -5.29172e-05
-0.00366324 0.00109681 0.0010999 -2.86519e-05
-0.00365113 0.00109319 0.00109626 -2.86517e-05
-0.00424392 0.00127321 0.00127316 1.67558e-10
-0.0042157 0.00126474 0.0012647 1.66373e-10
-0.00301366 0.000900173 0.00090578 -5.2916e-05
-0.00303387 0.000906183 0.000911866 -5.29168e-05
-0.00422981 0.00126897 0.00126893 1.66909e-10
-0.00361481 0.00108233 0.00108535 -2.86512e-05
-0.00302376 0.000903178 0.000908823 -5.29164e-05
-0.00363903 0.00108957 0.00109262 -2.86515e-05
-0.00362692 0.00108595 0.00108899 -2.86514e-05
-0.0042157 0.00126474 0.0012647 1.66373e-10
-0.00418748 0.00125627 0.00125623 1.65224e-10
-0.00299345 0.000894162 0.000899695 -5.29153e-05
-0.00301366 0.000900173 0.00090578 -5.2916e-05
-0.00420159 0.00126051 0.00126046 1.65679e-10
-0.00359059 0.0010751 0.00107807 -2.86508e-05
-0.00300355 0.000897167 0.000902737 -5.29157e-05
-0.00361481 0.00108233 0.00108535 -2.86512e-05
-0.0036027 0.00107871 0.00108171 -2.8651e-05
-0.00418748 0.00125627 0.00125623 1.65224e-10
-0.00415926 0.00124781 0.00124777 1.64137e-10
-0.00297324 0.000888152 0.00089361 -5.29145e-05
-0.00299345 0.000894162 0.000899695 -5.29153e-05
-0.00417337 0.00125204 0.001252 1.64637e-10
-0.00356638 0.00106786 0.00107079 -2.86505e-05
-0.00298335 0.000891157 0.000896652 -5.29149e-05
-0.00359059 0.0010751 0.00107807 -2.86508e-05
-0.00357848 0.00107148 0.00107443 -2.86507e-05
-0.00415926 0.00124781 0.00124777 1.64146e-10
-0.00413104 0.00123934 0.0012393 1.62843e-10
-0.00295304 0.000882142 0.000887526 -5.29136e-05
-0.00297324 0.000888152 0.00089361 -5.29145e-05
-0.00414515 0.00124358 0.00124353 1.63423e-10
-0.00354216 0.00106062 0.00106352 -2.86501e-05
-0.00296314 0.000885147 0.000890568 -5.2914e-05
-0.00356638 0.00106786 0.00107079 -2.86505e-05
-0.00355427 0.00106424 0.00106715 -2.86503e-05
-0.00413104 0.00123934 0.0012393 1.62843e-10
-0.00410283 0.00123088 0.00123084 1.61755e-10
-0.00293283 0.000876131 0.000881442 -5.29128e-05
-0.00295304 0.000882142 0.000887526 -5.29136e-05
-0.00411694 0.00123511 0.00123507 1.62181e-10
-0.00351795 0.00105339 0.00105624 -2.86498e-05
-0.00294293 0.000879137 0.000884484 -5.29132e-05
-0.00354216 0.00106062 0.00106352 -2.86501e-05
-0.00353006 0.00105701 0.00105988 -2.86499e-05
-0.00410283 0.00123088 0.00123084 1.61755e-10
-0.00407461 0.00122241 0.00122237 1.60606e-10
-0.00291262 0.000870121 0.000875359 -5.2912e-05
-0.00293283 0.000876131 0.000881442 -5.29128e-05
-0.00408872 0.00122665 0.0012266 1.61155e-10
-0.00349374 0.00104615 0.00104897 -2.86494e-05
-0.00292273 0.000873126 0.0008784 -5.29124e-05
-0.00351795 0.00105339 0.00105624 -2.86498e-05
-0.00350584 0.00104977 0.0010526 -2.86496e-05
-0.00407461 0.00122241 0.00122237 1.60607e-10
-0.0040464 0.00121395 0.00121391 1.59439e-10
-0.00289242 0.000864111 0.000869276 -5.29111e-05
-0.00291262 0.000870121 0.000875359 -5.2912e-05
-0.0040605 0.00121818 0.00121814 1.59933e-10
-0.00346953 0.00103892 0.00104169 -2.8649e-05
-0.00290252 0.000867116 0.000872317 -5.29115e-05
-0.00349374 0.00104615 0.00104897 -2.86494e-05
-0.00348163 0.00104253 0.00104533 -2.86492e-05
-0.0040464 0.00121395 0.00121391 1.59454e-10
-0.00401818 0.00120548 0.00120544 1.58286e-10
-0.00287222 0.0008581 0.000863194 -5.29102e-05
-0.00289242 0.000864111 0.000869276 -5.29111e-05
-0.00403229 0.00120972 0.00120967 1.58796e-10
-0.00344532 0.00103168 0.00103442 -2.86486e-05
-0.00288232 0.000861106 0.000866235 -5.29106e-05
-0.00346953 0.00103892 0.00104169 -2.8649e-05
-0.00345742 0.0010353 0.00103805 -2.86488e-05
-0.00401818 0.00120548 0.00120544 1.58286e-10
-0.00398997 0.00119702 0.00119698 1.57136e-10
-0.00285202 0.00085209 0.000857112 -5.29093e-05
-0.00287222 0.0008581 0.000863194 -5.29102e-05
-0.00400408 0.00120125 0.00120121 1.57623e-10
-0.00342111 0.00102444 0.00102714 -2.86482e-05
-0.00286212 0.000855095 0.000860153 -5.29098e-05
-0.00344532 0.00103168 0.00103442 -2.86486e-05
-0.00343321 0.00102806 0.00103078 -2.86484e-05
-0.00398997 0.00119702 0.00119698 1.57136e-10
-0.00396176 0.00118856 0.00118852 1.55975e-10
-0.00283182 0.00084608 0.000851031 -5.29084e-05
-0.00285202 0.00085209 0.000857112 -5.29093e-05
-0.00397586 0.00119279 0.00119275 1.56486e-10
-0.0033969 0.00101721 0.00101987 -2.86478e-05
-0.00284192 0.000849085 0.000854071 -5.29089e-05
-0.00342111 0.00102444 0.00102714 -2.86482e-05
-0.00340901 0.00102083 0.00102351 -2.8648e-05
-0.00396176 0.00118856 0.00118852 1.55978e-10
-0.00393355 0.00118009 0.00118005 1.54818e-10
-0.00281162 0.000840069 0.00084495 -5.29075e-05
-0.00283182 0.00084608 0.000851031 -5.29084e-05
-0.00394765 0.00118433 0.00118428 1.55333e-10
-0.0033727 0.00100997 0.0010126 -2.86474e-05
-0.00282172 0.000843075 0.00084799 -5.2908e-05
-0.0033969 0.00101721 0.00101987 -2.86478e-05
-0.0033848 0.00101359 0.00101623 -2.86476e-05
-0.00393355 0.00118009 0.00118005 1.54825e-10
-0.00390534 0.00117163 0.00117159 1.53672e-10
-0.00279142 0.000834059 0.00083887 -5.29066e-05
-0.00281162 0.000840069 0.00084495 -5.29075e-05
-0.00391944 0.00117586 0.00117582 1.54163e-10
-0.00334849 0.00100274 0.00100532 -2.86469e-05
-0.00280152 0.000837064 0.00084191 -5.2907e-05
-0.0033727 0.00100997 0.0010126 -2.86474e-05
-0.00336059 0.00100636 0.00100896 -2.86471e-05
-0.00390534 0.00117163 0.00117159 1.53672e-10
-0.00387713 0.00116317 0.00116313 1.52532e-10
-0.00277122 0.000828049 0.00083279 -5.29056e-05
-0.00279142 0.000834059 0.00083887 -5.29066e-05
-0.00389124 0.0011674 0.00116736 1.53021e-10
-0.00332429 0.000995504 0.00099805 -2.86465e-05
-0.00278132 0.000831054 0.00083583 -5.29061e-05
-0.00334849 0.00100274 0.00100532 -2.86469e-05
-0.00333639 0.000999121 0.00100169 -2.86467e-05
-0.00387713 0.00116317 0.00116313 1.52532e-10
-0.00384893 0.00115471 0.00115467 1.51374e-10
-0.00275103 0.000822038 0.000826711 -5.29047e-05
-0.00277122 0.000828049 0.00083279 -5.29056e-05
-0.00386303 0.00115894 0.0011589 1.51872e-10
-0.00330008 0.000988269 0.000990778 -2.86461e-05
-0.00276113 0.000825043 0.00082975 -5.29052e-05
-0.00332429 0.000995504 0.00099805 -2.86465e-05
-0.00331219 0.000991886 0.000994414 -2.86463e-05
-0.00384893 0.00115471 0.00115467 1.51369e-10
-0.00382072 0.00114625 0.0011462 1.5022e-10
-0.00273084 0.000816028 0.000820632 -5.29037e-05
-0.00275103 0.000822038 0.000826711 -5.29047e-05
-0.00383482 0.00115048 0.00115043 1.50725e-10
-0.00327588 0.000981034 0.000983507 -2.86456e-05
-0.00274093 0.000819033 0.000823671 -5.29042e-05
-0.00330008 0.000988269 0.000990778 -2.86461e-05
-0.00328798 0.000984652 0.000987142 -2.86458e-05
-0.00382072 0.00114625 0.0011462 1.5022e-10
-0.00379252 0.00113778 0.00113774 1.49069e-10
-0.00271064 0.000810018 0.000814554 -5.29027e-05
-0.00273084 0.000816028 0.000820632 -5.29037e-05
-0.00380662 0.00114201 0.00114197 1.49577e-10
-0.00325168 0.0009738 0.000976236 -2.86452e-05
-0.00272074 0.000813023 0.000817593 -5.29032e-05
-0.00327588 0.000981034 0.000983507 -2.86456e-05
-0.00326378 0.000977417 0.000979871 -2.86454e-05
-0.00379252 0.00113778 0.00113774 1.49069e-10
-0.00376431 0.00112932 0.00112928 1.47919e-10
-0.00269045 0.000804007 0.000808476 -5.29018e-05
-0.00271064 0.000810018 0.000814554 -5.29027e-05
-0.00377841 0.00113355 0.00113351 1.48435e-10
-0.00322748 0.000966566 0.000968965 -2.86447e-05
-0.00270055 0.000807012 0.000811515 -5.29023e-05
-0.00325168 0.0009738 0.000976236 -2.86452e-05
-0.00323958 0.000970183 0.0009726 -2.86449e-05
-0.00376431 0.00112932 0.00112928 1.47919e-10
-0.00373611 0.00112086 0.00112082 1.46771e-10
-0.00267026 0.000797997 0.000802399 -5.29008e-05
-0.00269045 0.000804007 0.000808476 -5.29018e-05
-0.00375021 0.00112509 0.00112505 1.47268e-10
-0.00320329 0.000959332 0.000961695 -2.86443e-05
-0.00268036 0.000801002 0.000805437 -5.29013e-05
-0.00322748 0.000966566 0.000968965 -2.86447e-05
-0.00321539 0.000962949 0.00096533 -2.86445e-05
-0.00373611 0.00112086 0.00112082 1.46759e-10
-0.00370791 0.0011124 0.00111236 1.4562e-10
-0.00265007 0.000791987 0.000796322 -5.28998e-05
-0.00267026 0.000797997 0.000802399 -5.29008e-05
-0.00372201 0.00111663 0.00111659 1.46136e-10
-0.00317909 0.000952098 0.000954425 -2.86438e-05
-0.00266017 0.000794992 0.00079936 -5.29003e-05
-0.00320329 0.000959332 0.000961695 -2.86443e-05
-0.00319119 0.000955715 0.00095806 -2.8644e-05
-0.00370791 0.0011124 0.00111236 1.45607e-10
-0.00367971 0.00110394 0.0011039 1.44473e-10
-0.00262988 0.000785976 0.000790246 -5.28988e-05
-0.00265007 0.000791987 0.000796322 -5.28998e-05
-0.00369381 0.00110817 0.00110813 1.44987e-10
-0.00315489 0.000944864 0.000947156 -2.86433e-05
-0.00263998 0.000788981 0.000793284 -5.28993e-05
-0.00317909 0.000952098 0.000954425 -2.86438e-05
-0.00316699 0.000948481 0.00095079 -2.86436e-05
-0.00367971 0.00110394 0.0011039 1.44473e-10
-0.00365151 0.00109548 0.00109544 1.43331e-10
-0.0026097 0.000779966 0.00078417 -5.28978e-05
-0.00262988 0.000785976 0.000790246 -5.28988e-05
-0.00366561 0.00109971 0.00109967 1.43841e-10
-0.0031307 0.000937631 0.000939887 -2.86429e-05
-0.00261979 0.000782971 0.000787208 -5.28983e-05
-0.00315489 0.000944864 0.000947156 -2.86433e-05
-0.0031428 0.000941248 0.000943521 -2.86431e-05
-0.00365151 0.00109548 0.00109544 1.43331e-10
-0.00362332 0.00108702 0.00108698 1.42182e-10
-0.00258951 0.000773956 0.000778095 -5.28967e-05
-0.0026097 0.000779966 0.00078417 -5.28978e-05
-0.00363741 0.00109125 0.00109121 1.42695e-10
-0.00310651 0.000930397 0.000932619 -2.86424e-05
-0.0025996 0.000776961 0.000781132 -5.28973e-05
-0.0031307 0.000937631 0.000939887 -2.86429e-05
-0.0031186 0.000934014 0.000936253 -2.86426e-05
-0.00362332 0.00108702 0.00108698 1.4219e-10
-0.00359512 0.00107856 0.00107852 1.4104e-10
-0.00256933 0.000767945 0.00077202 -5.28957e-05
-0.00258951 0.000773956 0.000778095 -5.28967e-05
-0.00360922 0.00108279 0.00108275 1.41548e-10
-0.00308232 0.000923164 0.000925351 -2.86419e-05
-0.00257942 0.000770951 0.000775057 -5.28962e-05
-0.00310651 0.000930397 0.000932619 -2.86424e-05
-0.00309441 0.000926781 0.000928985 -2.86422e-05
-0.00359512 0.00107856 0.00107852 1.41036e-10
-0.00356692 0.00107011 0.00107007 1.39882e-10
-0.00254914 0.000761935 0.000765946 -5.28947e-05
-0.00256933 0.000767945 0.00077202 -5.28957e-05
-0.00358102 0.00107434 0.00107429 1.40398e-10
-0.00305813 0.000915931 0.000918083 -2.86414e-05
-0.00255923 0.00076494 0.000768983 -5.28952e-05
-0.00308232 0.000923164 0.000925351 -2.86419e-05
-0.00307022 0.000919548 0.000921717 -2.86417e-05
-0.00356692 0.00107011 0.00107007 1.39882e-10
-0.00353873 0.00106165 0.00106161 1.3876e-10
-0.00252896 0.000755925 0.000759872 -5.28936e-05
-0.00254914 0.000761935 0.000765946 -5.28947e-05
-0.00355283 0.00106588 0.00106584 1.39255e-10
-0.00303394 0.000908699 0.000910816 -2.8641e-05
-0.00253905 0.00075893 0.000762909 -5.28942e-05
-0.00305813 0.000915931 0.000918083 -2.86414e-05
-0.00304603 0.000912315 0.00091445 -2.86412e-05
-0.00353873 0.00106165 0.00106161 1.3876e-10
-0.00351054 0.00105319 0.00105315 1.37621e-10
-0.00250878 0.000749915 0.000753799 -5.28926e-05
-0.00252896 0.000755925 0.000759872 -5.28936e-05
-0.00352463 0.00105742 0.00105738 1.38144e-10
-0.00300975 0.000901466 0.000903549 -2.86405e-05
-0.00251887 0.00075292 0.000756835 -5.28931e-05
-0.00303394 0.000908699 0.000910816 -2.8641e-05
-0.00302184 0.000905082 0.000907183 -2.86407e-05
-0.00351054 0.00105319 0.00105315 1.37616e-10
-0.00348235 0.00104473 0.00104469 1.36471e-10
-0.0024886 0.000743904 0.000747726 -5.28916e-05
-0.00250878 0.000749915 0.000753799 -5.28926e-05
-0.00349644 0.00104896 0.00104892 1.36985e-10
-0.00298556 0.000894233 0.000896283 -2.864e-05
-0.00249869 0.00074691 0.000750763 -5.28921e-05
-0.00300975 0.000901466 0.000903549 -2.86405e-05
-0.00299765 0.00089785 0.000899916 -2.86402e-05
-0.00348235 0.00104473 0.00104469 1.36466e-10
-0.00345416 0.00103628 0.00103624 1.35338e-10
-0.00246842 0.000737894 0.000741654 -5.28905e-05
-0.0024886 0.000743904 0.000747726 -5.28916e-05
-0.00346825 0.0010405 0.00104046 1.35868e-10
-0.00296138 0.000887001 0.000889018 -2.86395e-05
-0.00247851 0.000740899 0.00074469 -5.2891e-05
-0.00298556 0.000894233 0.000896283 -2.864e-05
-0.00297347 0.000890617 0.00089265 -2.86397e-05
-0.00345416 0.00103628 0.00103624 1.35338e-10
-0.00342597 0.00102782 0.00102778 1.34196e-10
-0.00244824 0.000731884 0.000735583 -5.28894e-05
-0.00246842 0.000737894 0.000741654 -5.28905e-05
-0.00344006 0.00103205 0.00103201 1.34727e-10
-0.00293719 0.000879769 0.000881752 -2.8639e-05
-0.00245833 0.000734889 0.000738618 -5.289e-05
-0.00296138 0.000887001 0.000889018 -2.86395e-05
-0.00294928 0.000883385 0.000885385 -2.86392e-05
-0.00342597 0.00102782 0.00102778 1.34196e-10
-0.00339778 0.00101936 0.00101932 1.33042e-10
-0.00242807 0.000725874 0.000729512 -5.28884e-05
-0.00244824 0.000731884 0.000735583 -5.28894e-05
-0.00341188 0.00102359 0.00102355 1.33587e-10
-0.00291301 0.000872537 0.000874488 -2.86385e-05
-0.00243816 0.000728879 0.000732547 -5.28889e-05
-0.00293719 0.000879769 0.000881752 -2.8639e-05
-0.0029251 0.000876153 0.00087812 -2.86387e-05
-0.00339778 0.00101936 0.00101932 1.3305e-10
-0.0033696 0.00101091 0.00101087 1.31914e-10
-0.00240789 0.000719864 0.000723441 -5.28873e-05
-0.00242807 0.000725874 0.000729512 -5.28884e-05
-0.00338369 0.00101513 0.00101509 1.32413e-10
-0.00288883 0.000865305 0.000867223 -2.8638e-05
-0.00241798 0.000722869 0.000726476 -5.28879e-05
-0.00291301 0.000872537 0.000874488 -2.86385e-05
-0.00290092 0.000868921 0.000870855 -2.86382e-05
-0.0033696 0.00101091 0.00101087 1.31903e-10
-0.00334141 0.00100245 0.00100241 1.30785e-10
-0.00238772 0.000713853 0.000717371 -5.28863e-05
-0.00240789 0.000719864 0.000723441 -5.28873e-05
-0.0033555 0.00100668 0.00100664 1.31292e-10
-0.00286465 0.000858074 0.000859959 -2.86375e-05
-0.00239781 0.000716858 0.000720406 -5.28868e-05
-0.00288883 0.000865305 0.000867223 -2.8638e-05
-0.00287674 0.00086169 0.000863591 -2.86377e-05
-0.00334141 0.00100245 0.00100241 1.30785e-10
-0.00331323 0.000993996 0.000993956 1.29661e-10
-0.00236755 0.000707843 0.000711301 -5.28852e-05
-0.00238772 0.000713853 0.000717371 -5.28863e-05
-0.00332732 0.000998223 0.000998184 1.30169e-10
-0.00284047 0.000850842 0.000852696 -2.8637e-05
-0.00237763 0.000710848 0.000714336 -5.28857e-05
-0.00286465 0.000858074 0.000859959 -2.86375e-05
-0.00285256 0.000854458 0.000856327 -2.86373e-05
-0.00331323 0.000993996 0.000993956 1.29661e-10
-0.00328504 0.000985541 0.000985501 1.28512e-10
-0.00234738 0.000701833 0.000705232 -5.28841e-05
-0.00236755 0.000707843 0.000711301 -5.28852e-05
-0.00329913 0.000989768 0.000989729 1.29058e-10
-0.00281629 0.000843611 0.000845433 -2.86365e-05
-0.00235746 0.000704838 0.000708267 -5.28847e-05
-0.00284047 0.000850842 0.000852696 -2.8637e-05
-0.00282838 0.000847227 0.000849064 -2.86368e-05
-0.00328504 0.000985541 0.000985501 1.28501e-10
-0.00325686 0.000977086 0.000977047 1.2736e-10
-0.00232721 0.000695823 0.000699164 -5.28831e-05
-0.00234738 0.000701833 0.000705232 -5.28841e-05
-0.00327095 0.000981313 0.000981274 1.27908e-10
-0.00279211 0.00083638 0.00083817 -2.8636e-05
-0.00233729 0.000698828 0.000702198 -5.28836e-05
-0.00281629 0.000843611 0.000845433 -2.86365e-05
-0.0028042 0.000839996 0.000841801 -2.86363e-05
-0.00325686 0.000977086 0.000977047 1.27364e-10
-0.00322868 0.000968632 0.000968593 1.2624e-10
-0.00230704 0.000689813 0.000693096 -5.2882e-05
-0.00232721 0.000695823 0.000699164 -5.28831e-05
-0.00324277 0.000972859 0.00097282 1.26763e-10
-0.00276793 0.000829149 0.000830908 -2.86355e-05
-0.00231712 0.000692818 0.00069613 -5.28825e-05
-0.00279211 0.00083638 0.00083817 -2.8636e-05
-0.00278002 0.000832765 0.000834539 -2.86357e-05
-0.00322868 0.000968632 0.000968593 1.2624e-10
-0.0032005 0.000960178 0.000960139 1.25108e-10
-0.00228687 0.000683803 0.000687028 -5.28809e-05
-0.00230704 0.000689813 0.000693096 -5.2882e-05
-0.00321459 0.000964405 0.000964366 1.25634e-10
-0.00274376 0.000821919 0.000823646 -2.8635e-05
-0.00229695 0.000686808 0.000690062 -5.28815e-05
-0.00276793 0.000829149 0.000830908 -2.86355e-05
-0.00275585 0.000825534 0.000827277 -2.86352e-05
-0.0032005 0.000960178 0.000960139 1.25108e-10
-0.00317233 0.000951725 0.000951686 1.23991e-10
-0.0022667 0.000677793 0.000680961 -5.28798e-05
-0.00228687 0.000683803 0.000687028 -5.28809e-05
-0.00318641 0.000955952 0.000955913 1.24509e-10
-0.00271959 0.000814688 0.000816385 -2.86345e-05
-0.00227679 0.000680798 0.000683995 -5.28804e-05
-0.00274376 0.000821919 0.000823646 -2.8635e-05
-0.00273167 0.000818303 0.000820016 -2.86347e-05
-0.00317233 0.000951725 0.000951686 1.23986e-10
-0.00314415 0.000943272 0.000943233 1.2283e-10
-0.00224654 0.000671783 0.000674895 -5.28788e-05
-0.0022667 0.000677793 0.000680961 -5.28798e-05
-0.00315824 0.000947498 0.000947459 1.23368e-10
-0.00269542 0.000807458 0.000809124 -2.8634e-05
-0.00225662 0.000674788 0.000677928 -5.28793e-05
-0.00271959 0.000814688 0.000816385 -2.86345e-05
-0.0027075 0.000811073 0.000812755 -2.86342e-05
-0.00314415 0.000943272 0.000943233 1.22839e-10
-0.00311597 0.000934819 0.000934781 1.21707e-10
-0.00222637 0.000665773 0.000668829 -5.28777e-05
-0.00224654 0.000671783 0.000674895 -5.28788e-05
-0.00313006 0.000939045 0.000939007 1.22247e-10
-0.00267124 0.000800228 0.000801864 -2.86335e-05
-0.00223646 0.000668778 0.000671862 -5.28782e-05
-0.00269542 0.000807458 0.000809124 -2.8634e-05
-0.00268333 0.000803843 0.000805494 -2.86337e-05
-0.00311597 0.000934819 0.000934781 1.21707e-10
-0.0030878 0.000926367 0.000926328 1.20582e-10
-0.00220621 0.000659763 0.000662764 -5.28766e-05
-0.00222637 0.000665773 0.000668829 -5.28777e-05
-0.00310189 0.000930593 0.000930554 1.21119e-10
-0.00264707 0.000792998 0.000794604 -2.8633e-05
-0.00221629 0.000662768 0.000665796 -5.28772e-05
-0.00267124 0.000800228 0.000801864 -2.86335e-05
-0.00265916 0.000796613 0.000798234 -2.86332e-05
-0.0030878 0.000926367 0.000926328 1.20582e-10
-0.00305963 0.000917915 0.000917877 1.19458e-10
-0.00218605 0.000653752 0.000656699 -5.28756e-05
-0.00220621 0.000659763 0.000662764 -5.28766e-05
-0.00307371 0.000922141 0.000922102 1.19974e-10
-0.00262291 0.000785768 0.000787345 -2.86325e-05
-0.00219613 0.000656758 0.000659731 -5.28761e-05
-0.00264707 0.000792998 0.000794604 -2.8633e-05
-0.00263499 0.000789383 0.000790975 -2.86327e-05
-0.00305963 0.000917915 0.000917877 1.19447e-10
-0.00303146 0.000909463 0.000909425 1.18338e-10
-0.00216589 0.000647742 0.000650634 -5.28745e-05
-0.00218605 0.000653752 0.000656699 -5.28756e-05
-0.00304554 0.000913689 0.000913651 1.18847e-10
-0.00259874 0.000778538 0.000780086 -2.8632e-05
-0.00217597 0.000650747 0.000653667 -5.2875e-05
-0.00262291 0.000785768 0.000787345 -2.86325e-05
-0.00261082 0.000782153 0.000783715 -2.86322e-05
-0.00303146 0.000909463 0.000909425 1.18339e-10
-0.00300328 0.000901012 0.000900974 1.17209e-10
-0.00214573 0.000641732 0.000644571 -5.28734e-05
-0.00216589 0.000647742 0.000650634 -5.28745e-05
-0.00301737 0.000905238 0.0009052 1.1775e-10
-0.00257457 0.000771309 0.000772828 -2.86315e-05
-0.00215581 0.000644737 0.000647602 -5.2874e-05
-0.00259874 0.000778538 0.000780086 -2.8632e-05
-0.00258666 0.000774924 0.000776457 -2.86317e-05
-0.00300328 0.000901012 0.000900974 1.17209e-10
-0.00297512 0.000892561 0.000892523 1.16075e-10
-0.00212557 0.000635723 0.000638507 -5.28724e-05
-0.00214573 0.000641732 0.000644571 -5.28734e-05
-0.0029892 0.000896787 0.000896749 1.16617e-10
-0.00255041 0.00076408 0.000765569 -2.8631e-05
-0.00213565 0.000638727 0.000641539 -5.28729e-05
-0.00257457 0.000771309 0.000772828 -2.86315e-05
-0.00256249 0.000767694 0.000769198 -2.86312e-05
-0.00297512 0.000892561 0.000892523 1.16075e-10
-0.00294695 0.000884111 0.000884073 1.14952e-10
-0.00210542 0.000629713 0.000632444 -5.28713e-05
-0.00212557 0.000635723 0.000638507 -5.28724e-05
-0.00296103 0.000888336 0.000888298 1.15473e-10
-0.00252625 0.000756851 0.000758312 -2.86305e-05
-0.00211549 0.000632718 0.000635476 -5.28719e-05
-0.00255041 0.00076408 0.000765569 -2.8631e-05
-0.00253833 0.000760465 0.000761941 -2.86308e-05
-0.00294695 0.000884111 0.000884073 1.14927e-10
-0.00291878 0.000875661 0.000875623 1.13805e-10
-0.00208526 0.000623703 0.000626382 -5.28703e-05
-0.00210542 0.000629713 0.000632444 -5.28713e-05
-0.00293286 0.000879886 0.000879848 1.14345e-10
-0.00250208 0.000749622 0.000751055 -2.863e-05
-0.00209534 0.000626708 0.000629413 -5.28708e-05
-0.00252625 0.000756851 0.000758312 -2.86305e-05
-0.00251416 0.000753236 0.000754683 -2.86303e-05
-0.00291878 0.000875661 0.000875623 1.1382e-10
-0.00289062 0.000867211 0.000867173 1.12685e-10
-0.00206511 0.000617693 0.00062032 -5.28692e-05
-0.00208526 0.000623703 0.000626382 -5.28703e-05
-0.0029047 0.000871436 0.000871398 1.13221e-10
-0.00247792 0.000742393 0.000743798 -2.86295e-05
-0.00207518 0.000620698 0.000623351 -5.28698e-05
-0.00250208 0.000749622 0.000751055 -2.863e-05
-0.00249 0.000746008 0.000747426 -2.86298e-05
-0.00289062 0.000867211 0.000867173 1.12685e-10
-0.00286245 0.000858762 0.000858724 1.11591e-10
-0.00204495 0.000611683 0.000614259 -5.28682e-05
-0.00206511 0.000617693 0.00062032 -5.28692e-05
-0.00287653 0.000862986 0.000862949 1.12074e-10
-0.00245376 0.000735165 0.000736542 -2.8629e-05
-0.00205503 0.000614688 0.00061729 -5.28687e-05
-0.00247792 0.000742393 0.000743798 -2.86295e-05
-0.00246584 0.000738779 0.00074017 -2.86293e-05
-0.00286245 0.000858762 0.000858724 1.11591e-10
-0.00283429 0.000850313 0.000850275 1.10441e-10
-0.0020248 0.000605673 0.000608198 -5.28671e-05
-0.00204495 0.000611683 0.000614259 -5.28682e-05
-0.00284837 0.000854537 0.0008545 1.10976e-10
-0.0024296 0.000727936 0.000729286 -2.86286e-05
-0.00203488 0.000608678 0.000611229 -5.28677e-05
-0.00245376 0.000735165 0.000736542 -2.8629e-05
-0.00244168 0.00073155 0.000732914 -2.86288e-05
-0.00283429 0.000850313 0.000850275 1.10444e-10
-0.00280613 0.000841864 0.000841827 1.0931e-10
-0.00200465 0.000599663 0.000602138 -5.28661e-05
-0.0020248 0.000605673 0.000608198 -5.28671e-05
-0.00282021 0.000846088 0.000846051 1.09865e-10
-0.00240545 0.000720708 0.000722031 -2.86281e-05
-0.00201473 0.000602668 0.000605168 -5.28666e-05
-0.0024296 0.000727936 0.000729286 -2.86286e-05
-0.00241752 0.000724322 0.000725658 -2.86283e-05
-0.00280613 0.000841864 0.000841827 1.093e-10
-0.00277797 0.000833416 0.000833379 1.08199e-10
-0.0019845 0.000593653 0.000596078 -5.28651e-05
-0.00200465 0.000599663 0.000602138 -5.28661e-05
-0.00279205 0.00083764 0.000837603 1.08719e-10
-0.00238129 0.00071348 0.000714776 -2.86276e-05
-0.00199458 0.000596658 0.000599108 -5.28656e-05
-0.00240545 0.000720708 0.000722031 -2.86281e-05
-0.00239337 0.000717094 0.000718403 -2.86278e-05
-0.00277797 0.000833416 0.000833379 1.08199e-10
-0.00274981 0.000824968 0.000824931 1.07081e-10
-0.00196435 0.000587643 0.000590019 -5.28641e-05
-0.0019845 0.000593653 0.000596078 -5.28651e-05
-0.00276389 0.000829192 0.000829155 1.0761e-10
-0.00235714 0.000706252 0.000707521 -2.86271e-05
-0.00197443 0.000590648 0.000593049 -5.28646e-05
-0.00238129 0.00071348 0.000714776 -2.86276e-05
-0.00236921 0.000709866 0.000711148 -2.86274e-05
-0.00274981 0.000824968 0.000824931 1.07081e-10
-0.00272165 0.00081652 0.000816483 1.05951e-10
-0.00194421 0.000581633 0.00058396 -5.2863e-05
-0.00196435 0.000587643 0.000590019 -5.28641e-05
-0.00273573 0.000820744 0.000820707 1.06477e-10
-0.00233298 0.000699025 0.000700267 -2.86266e-05
-0.00195428 0.000584638 0.00058699 -5.28636e-05
-0.00235714 0.000706252 0.000707521 -2.86271e-05
-0.00234506 0.000702638 0.000703894 -2.86269e-05
-0.00272165 0.00081652 0.000816483 1.05971e-10
-0.00269349 0.000808073 0.000808036 1.04853e-10
-0.00192406 0.000575623 0.000577902 -5.2862e-05
-0.00194421 0.000581633 0.00058396 -5.2863e-05
-0.00270757 0.000812297 0.00081226 1.05374e-10
-0.00230883 0.000691797 0.000693014 -2.86262e-05
-0.00193413 0.000578628 0.000580931 -5.28625e-05
-0.00233298 0.000699025 0.000700267 -2.86266e-05
-0.00232091 0.000695411 0.00069664 -2.86264e-05
-0.00269349 0.000808073 0.000808036 1.04853e-10
-0.00266533 0.000799626 0.000799589 1.03718e-10
-0.00190392 0.000569613 0.000571844 -5.2861e-05
-0.00192406 0.000575623 0.000577902 -5.2862e-05
-0.00267941 0.000803849 0.000803813 1.04252e-10
-0.00228468 0.00068457 0.00068576 -2.86257e-05
-0.00191399 0.000572618 0.000574873 -5.28615e-05
-0.00230883 0.000691797 0.000693014 -2.86262e-05
-0.00229675 0.000688184 0.000689387 -2.86259e-05
-0.00266533 0.000799626 0.000799589 1.03718e-10
-0.00263718 0.00079118 0.000791143 1.02607e-10
-0.00188377 0.000563604 0.000565787 -5.286e-05
-0.00190392 0.000569613 0.000571844 -5.2861e-05
-0.00265126 0.000795403 0.000795366 1.03123e-10
-0.00226053 0.000677343 0.000678508 -2.86252e-05
-0.00189385 0.000566608 0.000568816 -5.28605e-05
-0.00228468 0.00068457 0.00068576 -2.86257e-05
-0.0022726 0.000680956 0.000682134 -2.86255e-05
-0.00263718 0.00079118 0.000791143 1.02607e-10
-0.00260903 0.000782733 0.000782697 1.01466e-10
-0.00186363 0.000557594 0.000559731 -5.2859e-05
-0.00188377 0.000563604 0.000565787 -5.286e-05
-0.0026231 0.000786956 0.00078692 1.02019e-10
-0.00223638 0.000670116 0.000671256 -2.86248e-05
-0.0018737 0.000560599 0.000562759 -5.28595e-05
-0.00226053 0.000677343 0.000678508 -2.86252e-05
-0.00224845 0.000673729 0.000674882 -2.8625e-05
-0.00260903 0.000782733 0.000782697 1.01466e-10
-0.00258087 0.000774288 0.000774251 1.00378e-10
-0.00184349 0.000551584 0.000553674 -5.28581e-05
-0.00186363 0.000557594 0.000559731 -5.2859e-05
-0.00259495 0.00077851 0.000778474 1.00916e-10
-0.00221223 0.000662889 0.000664004 -2.86243e-05
-0.00185356 0.000554589 0.000556702 -5.28586e-05
-0.00223638 0.000670116 0.000671256 -2.86248e-05
-0.0022243 0.000666502 0.00066763 -2.86246e-05
-0.00258087 0.000774288 0.000774251 1.00401e-10
-0.00255272 0.000765842 0.000765806 9.92555e-11
-0.00182335 0.000545574 0.000547619 -5.28571e-05
-0.00184349 0.000551584 0.000553674 -5.28581e-05
-0.0025668 0.000770065 0.000770029 9.98006e-11
-0.00218808 0.000655662 0.000656752 -2.86239e-05
-0.00183342 0.000548579 0.000550646 -5.28576e-05
-0.00221223 0.000662889 0.000664004 -2.86243e-05
-0.00220016 0.000659276 0.000660378 -2.86241e-05
-0.00255272 0.000765842 0.000765806 9.92555e-11
-0.00252457 0.000757397 0.000757361 9.81574e-11
-0.00180321 0.000539564 0.000541564 -5.28561e-05
-0.00182335 0.000545574 0.000547619 -5.28571e-05
-0.00253865 0.00076162 0.000761583 9.86839e-11
-0.00216394 0.000648436 0.000649501 -2.86234e-05
-0.00181328 0.000542569 0.000544591 -5.28566e-05
-0.00218808 0.000655662 0.000656752 -2.86239e-05
-0.00217601 0.000652049 0.000653127 -2.86237e-05
-0.00252457 0.000757397 0.000757361 9.81574e-11
-0.00249642 0.000748952 0.000748916 9.70207e-11
-0.00178308 0.000533554 0.000535509 -5.28552e-05
-0.00180321 0.000539564 0.000541564 -5.28561e-05
-0.0025105 0.000753175 0.000753139 9.75602e-11
-0.00213979 0.00064121 0.000642251 -2.8623e-05
-0.00179314 0.000536559 0.000538536 -5.28556e-05
-0.00216394 0.000648436 0.000649501 -2.86234e-05
-0.00215187 0.000644823 0.000645876 -2.86232e-05
-0.00249642 0.000748952 0.000748916 9.70401e-11
-0.00246828 0.000740508 0.000740472 9.59341e-11
-0.00176294 0.000527544 0.000529455 -5.28542e-05
-0.00178308 0.000533554 0.000535509 -5.28552e-05
-0.00248235 0.00074473 0.000744694 9.64563e-11
-0.00211565 0.000633983 0.000635001 -2.86226e-05
-0.00177301 0.000530549 0.000532482 -5.28547e-05
-0.00213979 0.00064121 0.000642251 -2.8623e-05
-0.00212772 0.000637596 0.000638626 -2.86228e-05
-0.00246828 0.000740508 0.000740472 9.59335e-11
-0.00244013 0.000732064 0.000732028 9.4821e-11
-0.0017428 0.000521535 0.000523401 -5.28533e-05
-0.00176294 0.000527544 0.000529455 -5.28542e-05
-0.0024542 0.000736286 0.00073625 9.53396e-11
-0.00209151 0.000626757 0.000627751 -2.86221e-05
-0.00175287 0.000524539 0.000526428 -5.28538e-05
-0.00211565 0.000633983 0.000635001 -2.86226e-05
-0.00210358 0.00063037 0.000631376 -2.86224e-05
-0.00244013 0.000732064 0.000732028 9.4821e-11
-0.00241198 0.00072362 0.000723585 9.36955e-11
-0.00172267 0.000515525 0.000517348 -5.28524e-05
-0.0017428 0.000521535 0.000523401 -5.28533e-05
-0.00242606 0.000727842 0.000727806 9.42148e-11
-0.00206737 0.000619532 0.000620502 -2.86217e-05
-0.00173274 0.00051853 0.000520374 -5.28528e-05
-0.00209151 0.000626757 0.000627751 -2.86221e-05
-0.00207944 0.000623144 0.000624127 -2.86219e-05
-0.00241198 0.00072362 0.000723585 9.36955e-11
-0.00238384 0.000715177 0.000715141 9.25741e-11
-0.00170254 0.000509515 0.000511295 -5.28514e-05
-0.00172267 0.000515525 0.000517348 -5.28524e-05
-0.00239791 0.000719398 0.000719363 9.31155e-11
-0.00204323 0.000612306 0.000613253 -2.86213e-05
-0.0017126 0.00051252 0.000514322 -5.28519e-05
-0.00206737 0.000619532 0.000620502 -2.86217e-05
-0.0020553 0.000615919 0.000616878 -2.86215e-05
-0.00238384 0.000715177 0.000715141 9.25735e-11
-0.0023557 0.000706734 0.000706698 9.14697e-11
-0.00168241 0.000503505 0.000505243 -5.28505e-05
-0.00170254 0.000509515 0.000511295 -5.28514e-05
-0.00236977 0.000710955 0.00071092 9.20156e-11
-0.00201909 0.00060508 0.000606005 -2.86209e-05
-0.00169247 0.00050651 0.000508269 -5.2851e-05
-0.00204323 0.000612306 0.000613253 -2.86213e-05
-0.00203116 0.000608693 0.000609629 -2.86211e-05
-0.0023557 0.000706734 0.000706698 9.14768e-11
-0.00232755 0.000698291 0.000698256 9.03518e-11
-0.00166228 0.000497495 0.000499191 -5.28496e-05
-0.00168241 0.000503505 0.000505243 -5.28505e-05
-0.00234163 0.000702512 0.000702477 9.08843e-11
-0.00199495 0.000597855 0.000598757 -2.86205e-05
-0.00167234 0.0005005 0.000502217 -5.28501e-05
-0.00201909 0.00060508 0.000606005 -2.86209e-05
-0.00200702 0.000601468 0.000602381 -2.86207e-05
-0.00232755 0.000698291 0.000698256 9.03518e-11
-0.00229941 0.000689849 0.000689814 8.92441e-11
-0.00164215 0.000491485 0.00049314 -5.28488e-05
-0.00166228 0.000497495 0.000499191 -5.28496e-05
-0.00231348 0.00069407 0.000694035 8.97874e-11
-0.00197082 0.00059063 0.000591509 -2.86201e-05
-0.00165221 0.00049449 0.000496166 -5.28492e-05
-0.00199495 0.000597855 0.000598757 -2.86205e-05
-0.00198289 0.000594242 0.000595133 -2.86203e-05
-0.00229941 0.000689849 0.000689814 8.92441e-11
-0.00227127 0.000681407 0.000681372 8.8116e-11
-0.00162202 0.000485475 0.00048709 -5.28479e-05
-0.00164215 0.000491485 0.00049314 -5.28488e-05
-0.00228534 0.000685627 0.000685593 8.86626e-11
-0.00194668 0.000583405 0.000584262 -2.86197e-05
-0.00163208 0.00048848 0.000490115 -5.28483e-05
-0.00197082 0.00059063 0.000591509 -2.86201e-05
-0.00195875 0.000587017 0.000587886 -2.86199e-05
-0.00227127 0.000681407 0.000681372 8.81494e-11
-0.00224314 0.000672965 0.00067293 8.70392e-11
-0.00160189 0.000479465 0.000481039 -5.2847e-05
-0.00162202 0.000485475 0.00048709 -5.28479e-05
-0.0022572 0.000677186 0.000677151 8.75727e-11
-0.00192255 0.00057618 0.000577016 -2.86193e-05
-0.00161195 0.00048247 0.000484064 -5.28474e-05
-0.00194668 0.000583405 0.000584262 -2.86197e-05
-0.00193462 0.000579792 0.000580639 -2.86195e-05
-0.00224314 0.000672965 0.00067293 8.70396e-11
-0.002215 0.000664523 0.000664489 8.59165e-11
-0.00158176 0.000473456 0.00047499 -5.28462e-05
-0.00160189 0.000479465 0.000481039 -5.2847e-05
-0.00222907 0.000668744 0.000668709 8.64478e-11
-0.00189842 0.000568955 0.00056977 -2.86189e-05
-0.00159183 0.00047646 0.000478015 -5.28466e-05
-0.00192255 0.00057618 0.000577016 -2.86193e-05
-0.00191048 0.000572567 0.000573393 -2.86191e-05
-0.002215 0.000664523 0.000664489 8.59165e-11
-0.00218686 0.000656082 0.000656048 8.48402e-11
-0.00156164 0.000467446 0.000468941 -5.28453e-05
-0.00158176 0.000473456 0.00047499 -5.28462e-05
-0.00220093 0.000660303 0.000660268 8.53784e-11
-0.00187429 0.00056173 0.000562524 -2.86185e-05
-0.0015717 0.000470451 0.000471965 -5.28457e-05
-0.00189842 0.000568955 0.00056977 -2.86189e-05
-0.00188635 0.000565343 0.000566147 -2.86187e-05
-0.00218686 0.000656082 0.000656048 8.48402e-11
-0.00215873 0.000647642 0.000647607 8.37303e-11
-0.00154152 0.000461436 0.000462892 -5.28445e-05
-0.00156164 0.000467446 0.000468941 -5.28453e-05
-0.00217279 0.000651862 0.000651828 8.42611e-11
-0.00185016 0.000554506 0.000555278 -2.86182e-05
-0.00155158 0.000464441 0.000465916 -5.28449e-05
-0.00187429 0.00056173 0.000562524 -2.86185e-05
-0.00186222 0.000558118 0.000558901 -2.86183e-05
-0.00215873 0.000647642 0.000647607 8.37305e-11
-0.00213059 0.000639201 0.000639167 8.26114e-11
-0.00152139 0.000455426 0.000456844 -5.28437e-05
-0.00154152 0.000461436 0.000462892 -5.28445e-05
-0.00214466 0.000643421 0.000643387 8.31471e-11
-0.00182603 0.000547282 0.000548033 -2.86178e-05
-0.00153146 0.000458431 0.000459868 -5.28441e-05
-0.00185016 0.000554506 0.000555278 -2.86182e-05
-0.00183809 0.000550894 0.000551656 -2.8618e-05
-0.00213059 0.000639201 0.000639167 8.26178e-11
-0.00210246 0.000630761 0.000630727 8.15175e-11
-0.00150127 0.000449416 0.000450796 -5.28429e-05
-0.00152139 0.000455426 0.000456844 -5.28437e-05
-0.00211652 0.000634981 0.000634947 8.2069e-11
-0.0018019 0.000540057 0.000540789 -2.86174e-05
-0.00151133 0.000452421 0.00045382 -5.28433e-05
-0.00182603 0.000547282 0.000548033 -2.86178e-05
-0.00181396 0.00054367 0.000544411 -2.86176e-05
-0.00210246 0.000630761 0.000630727 8.15175e-11
-0.00207433 0.000622321 0.000622288 8.04381e-11
-0.00148115 0.000443406 0.000444749 -5.28421e-05
-0.00150127 0.000449416 0.000450796 -5.28429e-05
-0.00208839 0.000626541 0.000626507 8.09739e-11
-0.00177777 0.000532833 0.000533545 -2.86171e-05
-0.00149121 0.000446411 0.000447772 -5.28425e-05
-0.0018019 0.000540057 0.000540789 -2.86174e-05
-0.00178983 0.000536445 0.000537167 -2.86173e-05
-0.00207433 0.000622321 0.000622288 8.04381e-11
-0.00204619 0.000613882 0.000613848 7.93291e-11
-0.00146103 0.000437396 0.000438702 -5.28413e-05
-0.00148115 0.000443406 0.000444749 -5.28421e-05
-0.00206026 0.000618102 0.000618068 7.98556e-11
-0.00175365 0.00052561 0.000526301 -2.86167e-05
-0.00147109 0.000440401 0.000441725 -5.28417e-05
-0.00177777 0.000532833 0.000533545 -2.86171e-05
-0.00176571 0.000529221 0.000529923 -2.86169e-05
-0.00204619 0.000613882 0.000613848 7.93101e-11
-0.00201806 0.000605443 0.000605409 7.82102e-11
-0.00144092 0.000431386 0.000432656 -5.28406e-05
-0.00146103 0.000437396 0.000438702 -5.28413e-05
-0.00203213 0.000609662 0.000609629 7.87506e-11
-0.00172952 0.000518386 0.000519058 -2.86164e-05
-0.00145097 0.000434391 0.000435679 -5.28409e-05
-0.00175365 0.00052561 0.000526301 -2.86167e-05
-0.00174158 0.000521998 0.000522679 -2.86166e-05
-0.00201806 0.000605443 0.000605409 7.82102e-11
-0.00198994 0.000597004 0.000596971 7.70966e-11
-0.0014208 0.000425376 0.00042661 -5.28398e-05
-0.00144092 0.000431386 0.000432656 -5.28406e-05
-0.002004 0.000601223 0.00060119 7.76488e-11
-0.0017054 0.000511162 0.000511815 -2.86161e-05
-0.00143086 0.000428381 0.000429633 -5.28402e-05
-0.00172952 0.000518386 0.000519058 -2.86164e-05
-0.00171746 0.000514774 0.000515436 -2.86162e-05
-0.00198994 0.000597004 0.000596971 7.70966e-11
-0.00196181 0.000588566 0.000588532 7.60149e-11
-0.00140068 0.000419366 0.000420564 -5.28391e-05
-0.0014208 0.000425376 0.00042661 -5.28398e-05
-0.00197587 0.000592785 0.000592752 7.65359e-11
-0.00168127 0.000503939 0.000504572 -2.86158e-05
-0.00141074 0.000422371 0.000423587 -5.28395e-05
-0.0017054 0.000511162 0.000511815 -2.86161e-05
-0.00169333 0.00050755 0.000508193 -2.86159e-05
-0.00196181 0.000588566 0.000588532 7.60149e-11
-0.00193368 0.000580127 0.000580094 7.4928e-11
-0.00138057 0.000413356 0.00041452 -5.28384e-05
-0.00140068 0.000419366 0.000420564 -5.28391e-05
-0.00194774 0.000584346 0.000584313 7.54456e-11
-0.00165715 0.000496715 0.00049733 -2.86155e-05
-0.00139063 0.000416361 0.000417542 -5.28387e-05
-0.00168127 0.000503939 0.000504572 -2.86158e-05
-0.00166921 0.000500327 0.000500951 -2.86156e-05
-0.00193368 0.000580127 0.000580094 7.4928e-11
-0.00190556 0.00057169 0.000571657 7.38317e-11
-0.00136045 0.000407345 0.000408475 -5.28377e-05
-0.00138057 0.000413356 0.00041452 -5.28384e-05
-0.00191962 0.000575908 0.000575875 7.43463e-11
-0.00163303 0.000489492 0.000490088 -2.86152e-05
-0.00137051 0.00041035 0.000411497 -5.2838e-05
-0.00165715 0.000496715 0.00049733 -2.86155e-05
-0.00164509 0.000493104 0.000493709 -2.86153e-05
-0.00190556 0.00057169 0.000571657 7.38282e-11
-0.00187743 0.000563252 0.000563219 7.27225e-11
-0.00134034 0.000401335 0.000402431 -5.2837e-05
-0.00136045 0.000407345 0.000408475 -5.28377e-05
-0.00189149 0.000567471 0.000567438 7.32648e-11
-0.00160891 0.000482269 0.000482847 -2.86149e-05
-0.0013504 0.00040434 0.000405453 -5.28373e-05
-0.00163303 0.000489492 0.000490088 -2.86152e-05
-0.00162097 0.00048588 0.000486468 -2.8615e-05
-0.00187743 0.000563252 0.000563219 7.27225e-11
-0.00184931 0.000554815 0.000554782 7.16095e-11
-0.00132023 0.000395325 0.000396388 -5.28363e-05
-0.00134034 0.000401335 0.000402431 -5.2837e-05
-0.00186337 0.000559033 0.000559001 7.2145e-11
-0.00158479 0.000475046 0.000475606 -2.86146e-05
-0.00133029 0.00039833 0.00039941 -5.28366e-05
-0.00160891 0.000482269 0.000482847 -2.86149e-05
-0.00159685 0.000478657 0.000479227 -2.86147e-05
-0.00184931 0.000554815 0.000554782 7.16095e-11
-0.00182118 0.000546378 0.000546345 7.05349e-11
-0.00130012 0.000389315 0.000390345 -5.28357e-05
-0.00132023 0.000395325 0.000396388 -5.28363e-05
-0.00183524 0.000550596 0.000550564 7.10614e-11
-0.00156068 0.000467823 0.000468366 -2.86143e-05
-0.00131017 0.00039232 0.000393366 -5.2836e-05
-0.00158479 0.000475046 0.000475606 -2.86146e-05
-0.00157273 0.000471434 0.000471986 -2.86144e-05
-0.00182118 0.000546378 0.000546345 7.05017e-11
-0.00179306 0.000537941 0.000537909 6.94379e-11
-0.00128001 0.000383305 0.000384302 -5.2835e-05
-0.00130012 0.000389315 0.000390345 -5.28357e-05
-0.00180712 0.000542159 0.000542127 6.99665e-11
-0.00153656 0.0004606 0.000461126 -2.8614e-05
-0.00129006 0.00038631 0.000387324 -5.28353e-05
-0.00156068 0.000467823 0.000468366 -2.86143e-05
-0.00154862 0.000464212 0.000464746 -2.86142e-05
-0.00179306 0.000537941 0.000537909 6.94379e-11
-0.00176494 0.000529505 0.000529473 6.83566e-11
-0.0012599 0.000377294 0.00037826 -5.28344e-05
-0.00128001 0.000383305 0.000384302 -5.2835e-05
-0.001779 0.000533723 0.000533691 6.89092e-11
-0.00151244 0.000453378 0.000453886 -2.86138e-05
-0.00126996 0.000380299 0.000381281 -5.28347e-05
-0.00153656 0.0004606 0.000461126 -2.8614e-05
-0.0015245 0.000456989 0.000457506 -2.86139e-05
-0.00176494 0.000529505 0.000529473 6.83566e-11
-0.00173682 0.000521069 0.000521037 6.72496e-11
-0.00123979 0.000371284 0.000372219 -5.28338e-05
-0.0012599 0.000377294 0.00037826 -5.28344e-05
-0.00175088 0.000525287 0.000525255 6.77867e-11
-0.00148833 0.000446155 0.000446646 -2.86135e-05
-0.00124985 0.000374289 0.00037524 -5.28341e-05
-0.00151244 0.000453378 0.000453886 -2.86138e-05
-0.00150039 0.000449766 0.000450266 -2.86136e-05
-0.00173682 0.000521069 0.000521037 6.72496e-11
-0.0017087 0.000512633 0.000512601 6.61781e-11
-0.00121969 0.000365274 0.000366178 -5.28332e-05
-0.00123979 0.000371284 0.000372219 -5.28338e-05
-0.00172276 0.000516851 0.000516819 6.6669e-11
-0.00146422 0.000438933 0.000439407 -2.86133e-05
-0.00122974 0.000368279 0.000369198 -5.28335e-05
-0.00148833 0.000446155 0.000446646 -2.86135e-05
-0.00147627 0.000442544 0.000443027 -2.86134e-05
-0.0017087 0.000512633 0.000512601 6.6178e-11
-0.00168058 0.000504197 0.000504166 6.50597e-11
-0.00119958 0.000359263 0.000360137 -5.28326e-05
-0.00121969 0.000365274 0.000366178 -5.28332e-05
-0.00169464 0.000508415 0.000508383 6.56113e-11
-0.0014401 0.00043171 0.000432169 -2.8613e-05
-0.00120964 0.000362268 0.000363157 -5.28329e-05
-0.00146422 0.000438933 0.000439407 -2.86133e-05
-0.00145216 0.000435322 0.000435788 -2.86132e-05
-0.00168058 0.000504197 0.000504166 6.50626e-11
-0.00165247 0.000495762 0.000495731 6.39897e-11
-0.00117948 0.000353253 0.000354097 -5.28321e-05
-0.00119958 0.000359263 0.000360137 -5.28326e-05
-0.00166653 0.00049998 0.000499948 6.45281e-11
-0.00141599 0.000424488 0.000424931 -2.86128e-05
-0.00118953 0.000356258 0.000357117 -5.28323e-05
-0.0014401 0.00043171 0.000432169 -2.8613e-05
-0.00142805 0.000428099 0.00042855 -2.86129e-05
-0.00165247 0.000495762 0.000495731 6.39897e-11
-0.00162435 0.000487327 0.000487296 6.28886e-11
-0.00115938 0.000347242 0.000348057 -5.28315e-05
-0.00117948 0.000353253 0.000354097 -5.28321e-05
-0.00163841 0.000491545 0.000491513 6.34128e-11
-0.00139188 0.000417266 0.000417693 -2.86126e-05
-0.00116943 0.000350247 0.000351077 -5.28318e-05
-0.00141599 0.000424488 0.000424931 -2.86128e-05
-0.00140394 0.000420877 0.000421312 -2.86127e-05
-0.00162435 0.000487327 0.000487296 6.28886e-11
-0.00159624 0.000478892 0.000478861 6.18123e-11
-0.00113927 0.000341232 0.000342018 -5.2831e-05
-0.00115938 0.000347242 0.000348057 -5.28315e-05
-0.00161029 0.00048311 0.000483079 6.23334e-11
-0.00136777 0.000410044 0.000410455 -2.86124e-05
-0.00114932 0.000344237 0.000345037 -5.28313e-05
-0.00139188 0.000417266 0.000417693 -2.86126e-05
-0.00137983 0.000413655 0.000414074 -2.86125e-05
-0.00159624 0.000478892 0.000478861 6.18148e-11
-0.00156812 0.000470458 0.000470427 6.07107e-11
-0.00111917 0.000335221 0.000335979 -5.28305e-05
-0.00113927 0.000341232 0.000342018 -5.2831e-05
-0.00158218 0.000474675 0.000474644 6.12657e-11
-0.00134367 0.000402822 0.000403218 -2.86122e-05
-0.00112922 0.000338226 0.000338998 -5.28307e-05
-0.00136777 0.000410044 0.000410455 -2.86124e-05
-0.00135572 0.000406433 0.000406837 -2.86123e-05
-0.00156812 0.000470458 0.000470427 6.07104e-11
-0.00154001 0.000462024 0.000461993 5.96195e-11
-0.00109907 0.00032921 0.000329941 -5.283e-05
-0.00111917 0.000335221 0.000335979 -5.28305e-05
-0.00155406 0.000466241 0.00046621 6.01474e-11
-0.00131956 0.0003956 0.000395982 -2.8612e-05
-0.00110912 0.000332216 0.00033296 -5.28302e-05
-0.00134367 0.000402822 0.000403218 -2.86122e-05
-0.00133161 0.000399211 0.0003996 -2.86121e-05
-0.00154001 0.000462024 0.000461993 5.96195e-11
-0.0015119 0.00045359 0.000453559 5.85396e-11
-0.00107897 0.0003232 0.000323903 -5.28295e-05
-0.00109907 0.00032921 0.000329941 -5.283e-05
-0.00152595 0.000457807 0.000457776 5.91121e-11
-0.00129545 0.000388379 0.000388745 -2.86118e-05
-0.00108902 0.000326205 0.000326922 -5.28298e-05
-0.00131956 0.0003956 0.000395982 -2.8612e-05
-0.0013075 0.00039199 0.000392363 -2.86119e-05
-0.0015119 0.00045359 0.000453559 5.85396e-11
-0.00148378 0.000445156 0.000445126 5.7453e-11
-0.00105887 0.000317189 0.000317865 -5.28291e-05
-0.00107897 0.0003232 0.000323903 -5.28295e-05
-0.00149784 0.000449373 0.000449343 5.7989e-11
-0.00127135 0.000381157 0.000381509 -2.86117e-05
-0.00106892 0.000320194 0.000320884 -5.28293e-05
-0.00129545 0.000388379 0.000388745 -2.86118e-05
-0.0012834 0.000384768 0.000385127 -2.86117e-05
-0.00148378 0.000445156 0.000445126 5.7453e-11
-0.00145567 0.000436723 0.000436693 5.63276e-11
-0.00103878 0.000311178 0.000311828 -5.28286e-05
-0.00105887 0.000317189 0.000317865 -5.28291e-05
-0.00146973 0.00044094 0.000440909 5.69496e-11
-0.00124724 0.000373936 0.000374274 -2.86115e-05
-0.00104883 0.000314183 0.000314847 -5.28289e-05
-0.00127135 0.000381157 0.000381509 -2.86117e-05
-0.00125929 0.000377546 0.000377891 -2.86116e-05
-0.00145567 0.000436723 0.000436693 5.63338e-11
-0.00142756 0.00042829 0.00042826 5.5291e-11
-0.00101868 0.000305167 0.000305792 -5.28282e-05
-0.00103878 0.000311178 0.000311828 -5.28286e-05
-0.00144162 0.000432507 0.000432476 5.57967e-11
-0.00122314 0.000366714 0.000367038 -2.86114e-05
-0.00102873 0.000308172 0.00030881 -5.28284e-05
-0.00124724 0.000373936 0.000374274 -2.86115e-05
-0.00123519 0.000370325 0.000370656 -2.86114e-05
-0.00142756 0.00042829 0.00042826 5.5291e-11
-0.00139945 0.000419857 0.000419827 5.42115e-11
-0.000998585 0.000299156 0.000299755 -5.28278e-05
-0.00101868 0.000305167 0.000305792 -5.28282e-05
-0.00141351 0.000424074 0.000424044 5.47647e-11
-0.00119903 0.000359493 0.000359804 -2.86112e-05
-0.00100863 0.000302162 0.000302774 -5.2828e-05
-0.00122314 0.000366714 0.000367038 -2.86114e-05
-0.00121109 0.000363104 0.000363421 -2.86113e-05
-0.00139945 0.000419857 0.000419827 5.42438e-11
-0.00137135 0.000411425 0.000411395 5.31343e-11
-0.000978491 0.000293145 0.00029372 -5.28275e-05
-0.000998585 0.000299156 0.000299755 -5.28278e-05
-0.0013854 0.000415641 0.000415611 5.37112e-11
-0.00117493 0.000352272 0.000352569 -2.86111e-05
-0.000988538 0.000296151 0.000296738 -5.28276e-05
-0.00119903 0.000359493 0.000359804 -2.86112e-05
-0.00118698 0.000355882 0.000356186 -2.86112e-05
-0.00137135 0.000411425 0.000411395 5.31343e-11
-0.00134324 0.000402992 0.000402963 5.2053e-11
-0.000958398 0.000287134 0.000287684 -5.28271e-05
-0.000978491 0.000293145 0.00029372 -5.28275e-05
-0.00135729 0.000407209 0.000407179 5.25792e-11
-0.00115083 0.000345051 0.000345335 -2.8611e-05
-0.000968444 0.000290139 0.000290702 -5.28273e-05
-0.00117493 0.000352272 0.000352569 -2.86111e-05
-0.00116288 0.000348661 0.000348952 -2.8611e-05
-0.00134324 0.000402992 0.000402963 5.2053e-11
-0.00131513 0.00039456 0.000394531 5.09664e-11
-0.000938305 0.000281123 0.00028165 -5.28268e-05
-0.000958398 0.000287134 0.000287684 -5.28271e-05
-0.00132919 0.000398776 0.000398747 5.14967e-11
-0.00112673 0.000337829 0.000338101 -2.86109e-05
-0.000948351 0.000284128 0.000284667 -5.28269e-05
-0.00115083 0.000345051 0.000345335 -2.8611e-05
-0.00113878 0.00034144 0.000341718 -2.86109e-05
-0.00131513 0.00039456 0.000394531 5.0966e-11
-0.00128703 0.000386129 0.000386099 4.98712e-11
-0.000918214 0.000275111 0.000275615 -5.28264e-05
-0.000938305 0.000281123 0.00028165 -5.28268e-05
-0.00130108 0.000390344 0.000390315 5.03991e-11
-0.00110263 0.000330608 0.000330868 -2.86108e-05
-0.000928259 0.000278117 0.000278632 -5.28266e-05
-0.00112673 0.000337829 0.000338101 -2.86109e-05
-0.00111468 0.000334219 0.000334484 -2.86108e-05
-0.00128703 0.000386129 0.000386099 4.98777e-11
-0.00125892 0.000377697 0.000377668 4.88159e-11
-0.000898123 0.0002691 0.000269581 -5.28261e-05
-0.000918214 0.000275111 0.000275615 -5.28264e-05
-0.00127297 0.000381913 0.000381884 4.93594e-11
-0.00107853 0.000323387 0.000323634 -2.86107e-05
-0.000908168 0.000272106 0.000272598 -5.28263e-05
-0.00110263 0.000330608 0.000330868 -2.86108e-05
-0.00109058 0.000326998 0.000327251 -2.86107e-05
-0.00125892 0.000377697 0.000377668 4.88159e-11
-0.00123082 0.000369266 0.000369237 4.77173e-11
-0.000878033 0.000263089 0.000263548 -5.28259e-05
-0.000898123 0.0002691 0.000269581 -5.28261e-05
-0.00124487 0.000373481 0.000373452 4.8251e-11
-0.00105444 0.000316167 0.000316402 -2.86106e-05
-0.000888078 0.000266094 0.000266564 -5.2826e-05
-0.00107853 0.000323387 0.000323634 -2.86107e-05
-0.00106649 0.000319777 0.000320018 -2.86106e-05
-0.00123082 0.000369266 0.000369237 4.77173e-11
-0.00120272 0.000360835 0.000360806 4.6656e-11
-0.000857944 0.000257077 0.000257514 -5.28256e-05
-0.000878033 0.000263089 0.000263548 -5.28259e-05
-0.00121677 0.00036505 0.000365021 4.71678e-11
-0.00103034 0.000308946 0.000309169 -2.86105e-05
-0.000867989 0.000260083 0.000260531 -5.28257e-05
-0.00105444 0.000316167 0.000316402 -2.86106e-05
-0.00104239 0.000312556 0.000312785 -2.86106e-05
-0.00120272 0.000360835 0.000360806 4.66365e-11
-0.00117461 0.000352404 0.000352375 4.55699e-11
-0.000837856 0.000251066 0.000251482 -5.28254e-05
-0.000857944 0.000257077 0.000257514 -5.28256e-05
-0.00118866 0.000356619 0.000356591 4.60529e-11
-0.00100625 0.000301725 0.000301937 -2.86105e-05
-0.0008479 0.000254072 0.000254498 -5.28255e-05
-0.00103034 0.000308946 0.000309169 -2.86105e-05
-0.00101829 0.000305335 0.000305553 -2.86105e-05
-0.00117461 0.000352404 0.000352375 4.55699e-11
-0.00114651 0.000343973 0.000343945 4.45191e-11
-0.000817769 0.000245054 0.000245449 -5.28251e-05
-0.000837856 0.000251066 0.000251482 -5.28254e-05
-0.00116056 0.000348188 0.00034816 4.50287e-11
-0.00098215 0.000294504 0.000294705 -2.86104e-05
-0.000827813 0.00024806 0.000248466 -5.28252e-05
-0.00100625 0.000301725 0.000301937 -2.86105e-05
-0.000994198 0.000298115 0.000298321 -2.86105e-05
-0.00114651 0.000343973 0.000343945 4.45191e-11
-0.00111841 0.000335543 0.000335515 4.342e-11
-0.000797683 0.000239042 0.000239418 -5.28249e-05
-0.000817769 0.000245054 0.000245449 -5.28251e-05
-0.00113246 0.000339758 0.00033973 4.40035e-11
-0.000958056 0.000287284 0.000287474 -2.86104e-05
-0.000807726 0.000242048 0.000242433 -5.2825e-05
-0.00098215 0.000294504 0.000294705 -2.86104e-05
-0.000970103 0.000290894 0.00029109 -2.86104e-05
-0.00111841 0.000335543 0.000335515 4.342e-11
-0.00109031 0.000327112 0.000327085 4.23432e-11
-0.000777598 0.000233031 0.000233386 -5.28248e-05
-0.000797683 0.000239042 0.000239418 -5.28249e-05
-0.00110436 0.000331328 0.0003313 4.28768e-11
-0.000933963 0.000280063 0.000280243 -2.86104e-05
-0.000787641 0.000236036 0.000236402 -5.28248e-05
-0.000958056 0.000287284 0.000287474 -2.86104e-05
-0.00094601 0.000283673 0.000283858 -2.86104e-05
-0.00109031 0.000327112 0.000327085 4.23432e-11
-0.00106221 0.000318682 0.000318655 4.12725e-11
-0.000757514 0.000227019 0.000227355 -5.28246e-05
-0.000777598 0.000233031 0.000233386 -5.28248e-05
-0.00107626 0.000322897 0.00032287 4.18017e-11
-0.000909871 0.000272843 0.000273012 -2.86104e-05
-0.000767556 0.000230025 0.00023037 -5.28247e-05
-0.000933963 0.000280063 0.000280243 -2.86104e-05
-0.000921917 0.000276453 0.000276627 -2.86104e-05
-0.00106221 0.000318682 0.000318655 4.12793e-11
-0.00103411 0.000310253 0.000310225 4.01973e-11
-0.00073743 0.000221007 0.000221324 -5.28245e-05
-0.000757514 0.000227019 0.000227355 -5.28246e-05
-0.00104816 0.000314468 0.00031444 4.07453e-11
-0.000885779 0.000265622 0.000265782 -2.86104e-05
-0.000747472 0.000224013 0.00022434 -5.28245e-05
-0.000909871 0.000272843 0.000273012 -2.86104e-05
-0.000897825 0.000269232 0.000269397 -2.86104e-05
-0.00103411 0.000310253 0.000310225 4.01973e-11
-0.00100601 0.000301823 0.000301796 3.90708e-11
-0.000717347 0.000214995 0.000215294 -5.28243e-05
-0.00073743 0.000221007 0.000221324 -5.28245e-05
-0.00102006 0.000306038 0.000306011 3.96949e-11
-0.000861688 0.000258402 0.000258551 -2.86104e-05
-0.000727389 0.000218001 0.000218309 -5.28244e-05
-0.000885779 0.000265622 0.000265782 -2.86104e-05
-0.000873734 0.000262012 0.000262166 -2.86104e-05
-0.00100601 0.000301823 0.000301796 3.90708e-11
-0.000977916 0.000293394 0.000293367 3.7944e-11
-0.000697266 0.000208982 0.000209264 -5.28242e-05
-0.000717347 0.000214995 0.000215294 -5.28243e-05
-0.000991965 0.000297609 0.000297581 3.85314e-11
-0.000837598 0.000251181 0.000251322 -2.86104e-05
-0.000707306 0.000211988 0.000212279 -5.28243e-05
-0.000861688 0.000258402 0.000258551 -2.86104e-05
-0.000849643 0.000254792 0.000254936 -2.86104e-05
-0.000977916 0.000293394 0.000293367 3.79807e-11
-0.00094982 0.000284965 0.000284938 3.68283e-11
-0.000677185 0.00020297 0.000203235 -5.28242e-05
-0.000697266 0.000208982 0.000209264 -5.28242e-05
-0.000963868 0.000289179 0.000289152 3.73732e-11
-0.000813509 0.000243961 0.000244092 -2.86105e-05
-0.000687225 0.000205976 0.000206249 -5.28242e-05
-0.000837598 0.000251181 0.000251322 -2.86104e-05
-0.000825554 0.000247571 0.000247707 -2.86104e-05
-0.00094982 0.000284965 0.000284938 3.68279e-11
-0.000921724 0.000276536 0.000276509 3.56118e-11
-0.000657104 0.000196958 0.000197206 -5.28241e-05
-0.000677185 0.00020297 0.000203235 -5.28242e-05
-0.000935772 0.00028075 0.000280724 3.61985e-11
-0.000789421 0.000236741 0.000236863 -2.86105e-05
-0.000667144 0.000199964 0.00020022 -5.28241e-05
-0.000813509 0.000243961 0.000244092 -2.86105e-05
-0.000801465 0.000240351 0.000240477 -2.86105e-05
-0.000921724 0.000276536 0.000276509 3.56118e-11
-0.000893629 0.000268107 0.000268081 3.43304e-11
-0.000637025 0.000190945 0.000191177 -5.28241e-05
-0.000657104 0.000196958 0.000197206 -5.28241e-05
-0.000907676 0.000272321 0.000272295 3.50062e-11
-0.000765333 0.000229521 0.000229634 -2.86106e-05
-0.000647065 0.000193951 0.000194191 -5.28241e-05
-0.000789421 0.000236741 0.000236863 -2.86105e-05
-0.000777377 0.000233131 0.000233248 -2.86105e-05
-0.000893629 0.000268107 0.000268081 3.43304e-11
-0.000865534 0.000259679 0.000259652 3.30433e-11
-0.000616947 0.000184933 0.000185149 -5.2824e-05
-0.000637025 0.000190945 0.000191177 -5.28241e-05
-0.000879581 0.000263893 0.000263866 3.36679e-11
-0.000741246 0.0002223 0.000222405 -2.86106e-05
-0.000626986 0.000187939 0.000188163 -5.28241e-05
-0.000765333 0.000229521 0.000229634 -2.86106e-05
-0.00075329 0.00022591 0.00022602 -2.86106e-05
-0.000865534 0.000259679 0.000259652 3.30433e-11
-0.00083744 0.00025125 0.000251224 3.15793e-11
-0.000596869 0.00017892 0.000179121 -5.2824e-05
-0.000616947 0.000184933 0.000185149 -5.2824e-05
-0.000851487 0.000255464 0.000255438 3.23006e-11
-0.00071716 0.00021508 0.000215177 -2.86107e-05
-0.000606908 0.000181926 0.000182135 -5.2824e-05
-0.000741246 0.0002223 0.000222405 -2.86106e-05
-0.000729203 0.00021869 0.000218791 -2.86107e-05
-0.00083744 0.00025125 0.000251224 3.16122e-11
-0.000809347 0.000242822 0.000242796 2.99372e-11
-0.000576792 0.000172907 0.000173094 -5.2824e-05
-0.000596869 0.00017892 0.000179121 -5.2824e-05
-0.000823393 0.000247036 0.00024701 3.07713e-11
-0.000693075 0.00020786 0.000207949 -2.86108e-05
-0.00058683 0.000175913 0.000176107 -5.2824e-05
-0.00071716 0.00021508 0.000215177 -2.86107e-05
-0.000705117 0.00021147 0.000211563 -2.86107e-05
-0.000809347 0.000242822 0.000242796 2.99372e-11
-0.000781254 0.000234394 0.000234369 2.82319e-11
-0.000556716 0.000166894 0.000167067 -5.2824e-05
-0.000576792 0.000172907 0.000173094 -5.2824e-05
-0.0007953 0.000238608 0.000238582 2.90868e-11
-0.00066899 0.00020064 0.000200721 -2.86108e-05
-0.000566754 0.0001699 0.00017008 -5.2824e-05
-0.000693075 0.00020786 0.000207949 -2.86108e-05
-0.000681032 0.00020425 0.000204335 -2.86108e-05
-0.000781254 0.000234394 0.000234369 2.82319e-11
-0.000753162 0.000225966 0.000225941 2.63145e-11
-0.000536641 0.000160881 0.00016104 -5.28239e-05
-0.000556716 0.000166894 0.000167067 -5.2824e-05
-0.000767208 0.00023018 0.000230155 2.72545e-11
-0.000644906 0.00019342 0.000193494 -2.86108e-05
-0.000546678 0.000163887 0.000164053 -5.28239e-05
-0.00066899 0.00020064 0.000200721 -2.86108e-05
-0.000656948 0.00019703 0.000197108 -2.86108e-05
-0.000753162 0.000225966 0.000225941 2.63611e-11
-0.000725071 0.000217539 0.000217514 2.44006e-11
-0.000516566 0.000154868 0.000155014 -5.28238e-05
-0.000536641 0.000160881 0.00016104 -5.28239e-05
-0.000739116 0.000221753 0.000221727 2.52431e-11
-0.000620823 0.0001862 0.000186267 -2.86109e-05
-0.000526603 0.000157874 0.000158027 -5.28239e-05
-0.000644906 0.00019342 0.000193494 -2.86108e-05
-0.000632864 0.00018981 0.000189881 -2.86109e-05
-0.000725071 0.000217539 0.000217514 2.44006e-11
-0.00069698 0.000209112 0.000209087 2.24649e-11
-0.000496493 0.000148854 0.000148988 -5.28237e-05
-0.000516566 0.000154868 0.000155014 -5.28238e-05
-0.000711026 0.000213325 0.0002133 2.33041e-11
-0.00059674 0.00017898 0.00017904 -2.86108e-05
-0.000506529 0.000151861 0.000152001 -5.28237e-05
-0.000620823 0.0001862 0.000186267 -2.86109e-05
-0.000608782 0.00018259 0.000182654 -2.86109e-05
-0.00069698 0.000209112 0.000209087 2.24649e-11
-0.000668891 0.000200684 0.00020066 2.12529e-11
-0.00047642 0.000142841 0.000142962 -5.28235e-05
-0.000496493 0.000148854 0.000148988 -5.28237e-05
-0.000682935 0.000204898 0.000204873 2.14933e-11
-0.000572659 0.00017176 0.000171814 -2.86108e-05
-0.000486456 0.000145848 0.000145975 -5.28236e-05
-0.00059674 0.00017898 0.00017904 -2.86108e-05
-0.0005847 0.00017537 0.000175427 -2.86108e-05
-0.000668891 0.000200684 0.00020066 2.12529e-11
-0.000640802 0.000192258 0.000192233 2.05555e-11
-0.000456348 0.000136827 0.000136937 -5.28232e-05
-0.00047642 0.000142841 0.000142962 -5.28235e-05
-0.000654846 0.000196471 0.000196446 2.05127e-11
-0.000548578 0.00016454 0.000164588 -2.86107e-05
-0.000466384 0.000139834 0.00013995 -5.28234e-05
-0.000572659 0.00017176 0.000171814 -2.86108e-05
-0.000560618 0.00016815 0.000168201 -2.86107e-05
-0.000640802 0.000192258 0.000192233 2.05555e-11
-0.000612713 0.000183831 0.000183807 2.29499e-11
-0.000436277 0.000130814 0.000130913 -5.2823e-05
-0.000456348 0.000136827 0.000136937 -5.28232e-05
-0.000626757 0.000188044 0.00018802 2.09392e-11
-0.000524498 0.00015732 0.000157362 -2.86106e-05
-0.000446312 0.000133821 0.000133925 -5.28231e-05
-0.000548578 0.00016454 0.000164588 -2.86107e-05
-0.000536538 0.00016093 0.000160975 -2.86106e-05
-0.000612713 0.000183831 0.000183807 2.30129e-11
-0.000584626 0.000175405 0.000175381 2.67651e-11
-0.000416206 0.0001248 0.000124888 -5.28227e-05
-0.000436277 0.000130814 0.000130913 -5.2823e-05
-0.00059867 0.000179618 0.000179594 2.38495e-11
-0.000500419 0.0001501 0.000150137 -2.86105e-05
-0.000426241 0.000127807 0.0001279 -5.28228e-05
-0.000524498 0.00015732 0.000157362 -2.86106e-05
-0.000512459 0.00015371 0.000153749 -2.86105e-05
-0.000584626 0.000175405 0.000175381 2.67651e-11
-0.00055654 0.000166979 0.000166955 3.93333e-11
-0.000396137 0.000118787 0.000118864 -5.28226e-05
-0.000416206 0.0001248 0.000124888 -5.28227e-05
-0.000570583 0.000171192 0.000171168 3.26289e-11
-0.000476341 0.000142881 0.000142912 -2.86104e-05
-0.000406171 0.000121793 0.000121876 -5.28226e-05
-0.000500419 0.0001501 0.000150137 -2.86105e-05
-0.00048838 0.00014649 0.000146524 -2.86104e-05
-0.00055654 0.000166979 0.000166955 3.93333e-11
-0.000528455 0.000158553 0.000158529 5.32449e-11
-0.000376068 0.000112773 0.000112841 -5.28228e-05
-0.000396137 0.000118787 0.000118864 -5.28226e-05
-0.000542497 0.000162766 0.000162742 4.29747e-11
-0.000452264 0.000135661 0.000135687 -2.86106e-05
-0.000386102 0.00011578 0.000115853 -5.28227e-05
-0.000476341 0.000142881 0.000142912 -2.86104e-05
-0.000464302 0.000139271 0.000139299 -2.86105e-05
-0.000528455 0.000158553 0.000158529 5.32484e-11
-0.00050037 0.000150127 0.000150104 8.1617e-11
-0.000356 0.000106759 0.000106817 -5.28237e-05
-0.000376068 0.000112773 0.000112841 -5.28228e-05
-0.000514412 0.00015434 0.000154317 7.46327e-11
-0.000428187 0.000128441 0.000128462 -2.86111e-05
-0.000366034 0.000109766 0.000109829 -5.28232e-05
-0.000452264 0.000135661 0.000135687 -2.86106e-05
-0.000440225 0.000132051 0.000132075 -2.86108e-05
-0.00050037 0.000150127 0.000150104 8.16175e-11
-0.000472284 0.000141701 0.000141678 1.06069e-10
-0.000335933 0.000100746 0.000100794 -5.28255e-05
-0.000356 0.000106759 0.000106817 -5.28237e-05
-0.000486327 0.000145914 0.000145891 7.83432e-11
-0.00040411 0.000121222 0.000121238 -2.86123e-05
-0.000345966 0.000103753 0.000103806 -5.28244e-05
-0.000428187 0.000128441 0.000128462 -2.86111e-05
-0.000416148 0.000124832 0.00012485 -2.86116e-05
-0.000472284 0.000141701 0.000141678 1.06069e-10
-0.000444198 0.000133275 0.000133253 1.08247e-10
-0.000315865 9.47325e-05 9.47712e-05 -5.28286e-05
-0.000335933 0.000100746 0.000100794 -5.28255e-05
-0.000458242 0.000137488 0.000137466 1.62502e-10
-0.000380032 0.000114002 0.000114013 -2.86145e-05
-0.000325899 9.77393e-05 9.77827e-05 -5.28269e-05
-0.00040411 0.000121222 0.000121238 -2.86123e-05
-0.000392071 0.000117612 0.000117625 -2.86133e-05
-0.000444198 0.000133275 0.000133253 1.08247e-10
-0.00041611 0.000124849 0.000124826 1.07911e-10
-0.000295798 8.87184e-05 8.87485e-05 -5.28329e-05
-0.000315865 9.47325e-05 9.47712e-05 -5.28286e-05
-0.000430155 0.000129062 0.00012904 2.47494e-11
-0.000355954 0.000106782 0.000106788 -2.86174e-05
-0.000305832 9.17256e-05 9.17598e-05 -5.28307e-05
-0.000380032 0.000114002 0.000114013 -2.86145e-05
-0.000367994 0.000110392 0.000110401 -2.86158e-05
-0.00041611 0.000124849 0.000124826 1.0791e-10
-0.000388018 0.00011642 0.000116399 -2.51562e-10
-0.00027573 8.2702e-05 8.27263e-05 -5.28376e-05
-0.000295798 8.87184e-05 8.87485e-05 -5.28329e-05
-0.000402064 0.000120634 0.000120613 2.20633e-10
-0.000331875 9.95604e-05 9.95634e-05 -2.86208e-05
-0.000285764 8.57106e-05 8.57373e-05 -5.28353e-05
-0.000355954 0.000106782 0.000106788 -2.86174e-05
-0.000343915 0.000103171 0.000103176 -2.86191e-05
-0.000388018 0.00011642 0.000116399 -2.51588e-10
-0.000359921 0.000107992 0.00010797 -3.9399e-10
-0.00025566 7.66804e-05 7.67057e-05 -5.28382e-05
-0.00027573 8.2702e-05 8.27263e-05 -5.28376e-05
-0.00037397 0.000112207 0.000112185 -7.66555e-10
-0.000307795 9.23378e-05 9.23387e-05 -2.86214e-05
-0.000265695 7.96922e-05 7.97156e-05 -5.28388e-05
-0.000331875 9.95604e-05 9.95634e-05 -2.86208e-05
-0.000319835 9.59493e-05 9.59511e-05 -2.86216e-05
-0.000359921 0.000107992 0.00010797 -3.9399e-10
-0.000331826 9.95608e-05 9.95423e-05 -2.77804e-09
-0.000235585 7.0647e-05 7.06878e-05 -5.28272e-05
-0.00025566 7.66804e-05 7.67057e-05 -5.28382e-05
-0.000345872 0.000103775 0.000103756 -2.46745e-10
-0.00028372 8.51133e-05 8.5117e-05 -2.86139e-05
-0.000245624 7.36659e-05 7.36965e-05 -5.28348e-05
-0.000307795 9.23378e-05 9.23387e-05 -2.86214e-05
-0.000295756 8.87259e-05 8.87271e-05 -2.86195e-05
-0.000331826 9.95608e-05 9.95423e-05 -2.77804e-09
-0.000303738 9.11408e-05 9.11131e-05 -3.01265e-09
-0.000215505 6.45892e-05 6.46782e-05 -5.27823e-05
-0.000235585 7.0647e-05 7.06878e-05 -5.28272e-05
-0.000317782 9.53523e-05 9.53269e-05 -5.12349e-09
-0.000259655 7.78864e-05 7.7901e-05 -2.85821e-05
-0.000225545 6.7622e-05 6.76812e-05 -5.28112e-05
-0.00028372 8.51133e-05 8.5117e-05 -2.86139e-05
-0.000271686 8.15e-05 8.15084e-05 -2.86019e-05
-0.000303738 9.11408e-05 9.11131e-05 -3.01263e-09
-0.000275711 8.27225e-05 8.27094e-05 -1.41861e-08
-0.000195401 5.84863e-05 5.86776e-05 -5.26727e-05
-0.000215505 6.45892e-05 6.46782e-05 -5.27823e-05
-0.000289709 8.69222e-05 8.69088e-05 -2.85176e-09
-0.000235634 7.06577e-05 7.07041e-05 -2.84996e-05
-0.000205459 6.15461e-05 6.16771e-05 -5.2738e-05
-0.000259655 7.78864e-05 7.7901e-05 -2.85821e-05
-0.000247635 7.42726e-05 7.42982e-05 -2.85511e-05
-0.000275711 8.27225e-05 8.27094e-05 -1.41861e-08
-0.000247785 7.4385e-05 7.43142e-05 -1.18448e-08
-0.000175278 5.22969e-05 5.27062e-05 -5.24184e-05
-0.000195401 5.84863e-05 5.86776e-05 -5.26727e-05
-0.000261738 7.85592e-05 7.85052e-05 -2.36466e-08
-0.000211683 6.34283e-05 6.35378e-05 -2.83079e-05
-0.000185337 5.54035e-05 5.5686e-05 -5.25715e-05
-0.000235634 7.06577e-05 7.07041e-05 -2.84996e-05
-0.00022365 6.70419e-05 6.71179e-05 -2.84193e-05
-0.000247785 7.4385e-05 7.43142e-05 -1.18448e-08
-0.000220213 6.60653e-05 6.60635e-05 -5.61608e-08
-0.00015505 4.59727e-05 4.67474e-05 -5.19381e-05
-0.000175278 5.22969e-05 5.27062e-05 -5.24184e-05
-0.00023392 7.01759e-05 7.01762e-05 -9.70329e-09
-0.000187928 5.6208e-05 5.64514e-05 -2.79121e-05
-0.000165192 4.91617e-05 4.97274e-05 -5.2212e-05
-0.000211683 6.34283e-05 6.35378e-05 -2.83079e-05
-0.000199765 5.98192e-05 5.99767e-05 -2.81525e-05
-0.000220213 6.60653e-05 6.60635e-05 -5.61608e-08
-0.000193164 5.81603e-05 5.78586e-05 -3.3344e-08
-0.000134739 3.93972e-05 4.08606e-05 -5.10168e-05
-0.00015505 4.59727e-05 4.67474e-05 -5.19381e-05
-0.000206637 6.21421e-05 6.19263e-05 -9.41631e-08
-0.000164428 4.89926e-05 4.94722e-05 -2.71575e-05
-0.000144887 4.27103e-05 4.379e-05 -5.15537e-05
-0.000187928 5.6208e-05 5.64514e-05 -2.79121e-05
-0.000176155 5.25922e-05 5.29553e-05 -2.75753e-05
-0.000193164 5.81603e-05 5.78586e-05 -3.3344e-08
-0.000167546 5.02499e-05 5.02698e-05 -1.90829e-07
-0.000113968 3.25397e-05 3.48981e-05 -4.95722e-05
-0.000134739 3.93972e-05 4.08606e-05 -5.10168e-05
-0.000180049 5.39835e-05 5.40279e-05 -7.2054e-09
-0.000141584 4.18375e-05 4.27485e-05 -2.5759e-05
-0.000124476 3.60403e-05 3.79009e-05 -5.03605e-05
-0.000164428 4.89926e-05 4.94722e-05 -2.71575e-05
-0.000152865 4.54219e-05 4.6047e-05 -2.66068e-05
-0.000167546 5.02499e-05 5.02698e-05 -1.90829e-07
-0.000143954 4.41678e-05 4.27655e-05 -6.05572e-08
-9.27694e-05 2.51233e-05 2.89912e-05 -4.72749e-05
-0.000113968 3.25397e-05 3.48981e-05 -4.95722e-05
-0.00015555 4.73821e-05 4.63577e-05 -3.56123e-07
-0.00011927 3.46463e-05 3.62671e-05 -2.35092e-05
-0.000103354 2.88339e-05 3.19372e-05 -4.85592e-05
-0.000141584 4.18375e-05 4.27485e-05 -2.5759e-05
-0.000130435 3.82132e-05 3.95237e-05 -2.46698e-05
-0.000143954 4.41678e-05 4.27655e-05 -6.05572e-08
-0.000124956 3.74423e-05 3.75058e-05 -5.24665e-07
-6.96959e-05 1.77454e-05 2.22645e-05 -4.48162e-05
-9.27694e-05 2.51233e-05 2.89912e-05 -4.72749e-05
-0.000133507 3.98893e-05 4.01216e-05 1.60775e-07
-9.85348e-05 2.76504e-05 3.0379e-05 -1.97537e-05
-8.17163e-05 2.15479e-05 2.57865e-05 -4.59891e-05
-0.00011927 3.46463e-05 3.62671e-05 -2.35092e-05
-0.000108499 3.11963e-05 3.31296e-05 -2.20734e-05
-0.000124956 3.74423e-05 3.75058e-05 -5.24665e-07
-0.000113283 3.78815e-05 3.2315e-05 8.86722e-07
-4.49508e-05 1.04663e-05 1.4779e-05 -4.33292e-05
-6.96959e-05 1.77454e-05 2.22645e-05 -4.48162e-05
-0.000118237 3.87062e-05 3.40844e-05 -1.14289e-06
-7.68673e-05 2.01189e-05 2.43207e-05 -1.57205e-05
-5.72576e-05 1.3598e-05 1.87113e-05 -4.37817e-05
-9.85348e-05 2.76504e-05 3.0379e-05 -1.97537e-05
-8.83376e-05 2.38492e-05 2.76379e-05 -1.72447e-05
-0.000113283 3.78815e-05 3.2315e-05 8.86722e-07
-0.000118261 3.19016e-05 3.70114e-05 5.15095e-06
-1.64455e-05 1.1116e-05 2.28407e-06 -5.04921e-05
-4.49508e-05 1.04663e-05 1.4779e-05 -4.33292e-05
-0.000112493 3.13507e-05 3.47751e-05 3.6785e-06
-5.36969e-05 1.38565e-05 1.70745e-05 -1.34614e-05
-3.17039e-05 9.69878e-06 9.43078e-06 -4.50829e-05
-7.68673e-05 2.01189e-05 2.43207e-05 -1.57205e-05
-6.50212e-05 1.68064e-05 2.06635e-05 -1.48978e-05
-0.000118261 3.19016e-05 3.70114e-05 5.15095e-06
-0.000160649 3.13071e-05 5.54323e-05 3.93389e-05
-3.31246e-06 4.38108e-05 -1.73564e-05 -7.58157e-05
-1.64455e-05 1.1116e-05 2.28407e-06 -5.04921e-05
-0.000133383 4.51109e-05 3.78308e-05 1.07214e-05
-7.32245e-06 2.65445e-05 -8.23803e-06 -4.48415e-05
-5.03006e-06 1.73506e-05 -5.28022e-06 -5.96214e-05
-5.36969e-05 1.38565e-05 1.70745e-05 -1.34614e-05
-3.65728e-05 1.33788e-05 9.94028e-06 -1.95674e-05
-0.000160649 3.13071e-05 5.54323e-05 3.93389e-05
-7.84793e-05 0.000256178 -7.61567e-05 -0.000206773
-5.64467e-05 0.000196107 -5.98542e-05 -7.54648e-05
-3.31246e-06 4.38108e-05 -1.73564e-05 -7.58157e-05
-0.00015683 6.70009e-06 6.43416e-05 1.5634e-05
-4.94327e-05 0.000241258 -8.22109e-05 -0.000121334
-1.81619e-05 0.000104636 -3.70603e-05 -8.85565e-05
-7.32245e-06 2.65445e-05 -8.23803e-06 -4.48415e-05
-1.91529e-07 7.85018e-05 -3.35616e-05 -8.13761e-05
-0.00337825 0 0.00144782 -0.000188975
-0.00380531 0.00075493 0.00130731 -0.000280009
-0.00220975 0.000288998 0.000823178 -6.6969e-06
-0.00195568 0 0.00083815 0.000258579
-0.00361847 0.000357339 0.00139763 -0.000325261
-0.0029423 0.000454139 0.00106635 -0.000114938
-0.00211811 0.000162384 0.000838169 9.84513e-05
-0.00277042 0 0.00118732 4.46265e-05
-0.00281723 0.000251606 0.00109955 -3.45179e-05
-0.00380531 0.00075493 0.00130731 -0.000280009
-0.00395271 0.00106792 0.00123634 -0.000132166
-0.0023216 0.000528662 0.000768404 -8.93742e-05
-0.00220975 0.000288998 0.000823178 -6.6969e-06
-0.00392227 0.000976472 0.00126249 -0.000201106
-0.00313714 0.00077017 0.00101442 -0.000134869
-0.00226586 0.000416529 0.000792572 -5.99985e-05
-0.0029423 0.000454139 0.00106635 -0.000114938
-0.00307308 0.000631945 0.0010462 -0.000151659
-0.00395271 0.00106792 0.00123634 -0.000132166
-0.00393294 0.00115462 0.00119071 -4.86204e-05
-0.00237775 0.000648638 0.000741048 -0.000105538
-0.0023216 0.000528662 0.000768404 -8.93742e-05
-0.00394137 0.00112191 0.00120834 -7.71263e-05
-0.00316754 0.000895754 0.000973621 -9.04504e-05
-0.00236341 0.000603328 0.000754323 -0.000103896
-0.00313714 0.00077017 0.00101442 -0.000134869
-0.00316012 0.000852435 0.000989007 -0.000106397
-0.00393294 0.00115462 0.00119071 -4.86204e-05
-0.00390505 0.00116574 0.00117399 -3.07281e-05
-0.00237485 0.00069509 0.000719899 -9.79346e-05
-0.00237775 0.000648638 0.000741048 -0.000105538
-0.00392247 0.0011658 0.00118143 -3.64907e-05
-0.00315164 0.000935136 0.000949931 -6.91307e-05
-0.00237733 0.00067791 0.000728324 -0.000101239
-0.00316754 0.000895754 0.000973621 -9.04504e-05
-0.00316338 0.000921521 0.000960796 -7.89812e-05
-0.00390505 0.00116574 0.00117399 -3.07281e-05
-0.003873 0.00116328 0.00116131 -3.04669e-05
-0.00235776 0.000703302 0.000709052 -9.2917e-05
-0.00237485 0.00069509 0.000719899 -9.79346e-05
-0.00388658 0.00116484 0.00116646 -2.87579e-05
-0.00312242 0.000936651 0.00093676 -6.28033e-05
-0.00236883 0.000702246 0.000714248 -9.54644e-05
-0.00315164 0.000935136 0.000949931 -6.91307e-05
-0.00313658 0.000938638 0.000941973 -6.36827e-05
-0.003873 0.00116328 0.00116131 -3.04669e-05
-0.00384866 0.00115445 0.00115466 -3.71929e-05
-0.00233405 0.000699177 0.000700659 -8.95747e-05
-0.00235776 0.000703302 0.000709052 -9.2917e-05
-0.00386134 0.00115939 0.00115798 -3.40306e-05
-0.00309565 0.000929661 0.000928279 -6.36974e-05
-0.00234504 0.00070196 0.000704175 -9.06888e-05
-0.00312242 0.000936651 0.00093676 -6.28033e-05
-0.00310888 0.000933494 0.000932309 -6.32583e-05
-0.00384866 0.00115445 0.00115466 -3.71929e-05
-0.00382507 0.00114597 0.00114819 -4.27047e-05
-0.00231348 0.000691034 0.000695335 -8.86494e-05
-0.00233405 0.000699177 0.000700659 -8.95747e-05
-0.00383616 0.00115003 0.0011512 -3.99683e-05
-0.00307157 0.00091994 0.000922126 -6.62954e-05
-0.00232385 0.000695306 0.000697945 -8.90765e-05
-0.00309565 0.000929661 0.000928279 -6.36974e-05
-0.00308309 0.000924919 0.000924928 -6.47396e-05
-0.00382507 0.00114597 0.00114819 -4.27047e-05
-0.00380384 0.00113777 0.0011426 -4.71238e-05
-0.0022948 0.000683229 0.000690672 -8.82506e-05
-0.00231348 0.000691034 0.000695335 -8.86494e-05
-0.00381456 0.00114184 0.00114545 -4.52154e-05
-0.00305061 0.00091133 0.000916836 -6.87698e-05
-0.00230359 0.000686987 0.000692829 -8.83308e-05
-0.00307157 0.00091994 0.000922126 -6.62954e-05
-0.00306083 0.000915436 0.000919456 -6.7708e-05
-0.00380384 0.00113777 0.0011426 -4.71238e-05
-0.00378284 0.00113039 0.00113676 -4.97614e-05
-0.00227887 0.000676462 0.000686746 -8.82892e-05
-0.0022948 0.000683229 0.000690672 -8.82506e-05
-0.00379318 0.00113398 0.00113966 -4.8577e-05
-0.00303156 0.000903742 0.00091192 -7.0553e-05
-0.0022867 0.000679708 0.000688709 -8.82822e-05
-0.00305061 0.00091133 0.000916836 -6.87698e-05
-0.00304087 0.000907416 0.000914337 -6.97111e-05
-0.00378284 0.00113039 0.00113676 -4.97614e-05
-0.0037624 0.00112352 0.00113095 -5.13925e-05
-0.00226435 0.000670859 0.000682926 -8.8322e-05
-0.00227887 0.000676462 0.000686746 -8.82892e-05
-0.00377264 0.00112691 0.00113389 -5.07115e-05
-0.0030138 0.000897271 0.000907086 -7.16685e-05
-0.0022714 0.000673529 0.0006848 -8.82915e-05
-0.00303156 0.000903742 0.00091192 -7.0553e-05
-0.00302257 0.000900384 0.000909508 -7.12051e-05
-0.0037624 0.00112352 0.00113095 -5.13925e-05
-0.00374199 0.00111702 0.00112499 -5.22362e-05
-0.00225097 0.000666079 0.000679238 -8.83765e-05
-0.00226435 0.000670859 0.000682926 -8.8322e-05
-0.00375216 0.00112023 0.00112797 -5.18764e-05
-0.00299677 0.000891484 0.000902264 -7.23071e-05
-0.00225759 0.000668386 0.000681088 -8.83591e-05
-0.0030138 0.000897271 0.000907086 -7.16685e-05
-0.00300522 0.000894311 0.000904673 -7.20276e-05
-0.00374199 0.00111702 0.00112499 -5.22362e-05
-0.00372171 0.00111074 0.00111898 -5.2679e-05
-0.00223812 0.000661855 0.000675544 -8.83897e-05
-0.00225097 0.000666079 0.000679238 -8.83765e-05
-0.00373186 0.00111386 0.001122 -5.25012e-05
-0.00298014 0.000886169 0.000897417 -7.26351e-05
-0.00224448 0.000663913 0.000677386 -8.83835e-05
-0.00299677 0.000891484 0.000902264 -7.23071e-05
-0.00298842 0.00088878 0.000899845 -7.25047e-05
-0.00372171 0.00111074 0.00111898 -5.2679e-05
-0.00370143 0.0011046 0.00111293 -5.28719e-05
-0.00222563 0.000657954 0.00067186 -8.83901e-05
-0.00223812 0.000661855 0.000675544 -8.83897e-05
-0.00371156 0.00110766 0.00111596 -5.27945e-05
-0.00296373 0.000881112 0.000892549 -7.27883e-05
-0.00223185 0.000659875 0.000673705 -8.83933e-05
-0.00298014 0.000886169 0.000897417 -7.26351e-05
-0.00297192 0.000883618 0.000894985 -7.27258e-05
-0.00370143 0.0011046 0.00111293 -5.28719e-05
-0.00368117 0.00109853 0.00110685 -5.29509e-05
-0.00221328 0.000654237 0.000668163 -8.83763e-05
-0.00222563 0.000657954 0.00067186 -8.83901e-05
-0.0036913 0.00110156 0.00110989 -5.29223e-05
-0.00294742 0.000876204 0.000887662 -7.28466e-05
-0.00221944 0.000656079 0.000670011 -8.83835e-05
-0.00296373 0.000881112 0.000892549 -7.27883e-05
-0.00295556 0.000878645 0.000890108 -7.28264e-05
-0.00368117 0.00109853 0.00110685 -5.29509e-05
-0.00366092 0.00109249 0.00110075 -5.29705e-05
-0.00220103 0.000650613 0.000664463 -8.836e-05
-0.00221328 0.000654237 0.000668163 -8.83763e-05
-0.00367104 0.0010955 0.0011038 -5.29647e-05
-0.00293116 0.000871369 0.000882766 -7.28605e-05
-0.00220715 0.000652417 0.000666314 -8.83686e-05
-0.00294742 0.000876204 0.000887662 -7.28466e-05
-0.00293928 0.00087378 0.000885215 -7.28567e-05
-0.00366092 0.00109249 0.00110075 -5.29705e-05
-0.00364067 0.00108647 0.00109466 -5.29685e-05
-0.0021888 0.000647034 0.000660756 -8.83435e-05
-0.00220103 0.000650613 0.000664463 -8.836e-05
-0.00365079 0.00108948 0.00109771 -5.29713e-05
-0.00291492 0.000866569 0.000877863 -7.28554e-05
-0.00219491 0.00064882 0.00066261 -8.83514e-05
-0.00293116 0.000871369 0.000882766 -7.28605e-05
-0.00292304 0.000868966 0.000880315 -7.28594e-05
-0.00364067 0.00108647 0.00109466 -5.29685e-05
-0.00362042 0.00108046 0.00108856 -5.29587e-05
-0.00217659 0.000643474 0.000657048 -8.83298e-05
-0.0021888 0.000647034 0.000660756 -8.83435e-05
-0.00363054 0.00108346 0.00109161 -5.29638e-05
-0.00289869 0.000861785 0.000872958 -7.28447e-05
-0.00218269 0.000645252 0.000658903 -8.83363e-05
-0.00291492 0.000866569 0.000877863 -7.28554e-05
-0.0029068 0.000864176 0.000875411 -7.28502e-05
-0.00362042 0.00108046 0.00108856 -5.29587e-05
-0.00360018 0.00107445 0.00108246 -5.29488e-05
-0.00216438 0.00063992 0.000653339 -8.83189e-05
-0.00217659 0.000643474 0.000657048 -8.83298e-05
-0.0036103 0.00107745 0.00108551 -5.29536e-05
-0.00288246 0.000857006 0.000868052 -7.2834e-05
-0.00217048 0.000641697 0.000655194 -8.83239e-05
-0.00289869 0.000861785 0.000872958 -7.28447e-05
-0.00289057 0.000859395 0.000870505 -7.28392e-05
-0.00360018 0.00107445 0.00108246 -5.29488e-05
-0.00357994 0.00106844 0.00107636 -5.29408e-05
-0.00215217 0.000636367 0.00064963 -8.83109e-05
-0.00216438 0.00063992 0.000653339 -8.83189e-05
-0.00359006 0.00107144 0.00107941 -5.29445e-05
-0.00286623 0.000852228 0.000863146 -7.28254e-05
-0.00215827 0.000638144 0.000651484 -8.83146e-05
-0.00288246 0.000857006 0.000868052 -7.2834e-05
-0.00287435 0.000854617 0.000865599 -7.28294e-05
-0.00357994 0.00106844 0.00107636 -5.29408e-05
-0.0035597 0.00106243 0.00107026 -5.29352e-05
-0.00213996 0.000632813 0.00064592 -8.83053e-05
-0.00215217 0.000636367 0.00064963 -8.83109e-05
-0.00356982 0.00106544 0.00107331 -5.29377e-05
-0.00285001 0.000847449 0.00085824 -7.28192e-05
-0.00214607 0.000634591 0.000647775 -8.83079e-05
-0.00286623 0.000852228 0.000863146 -7.28254e-05
-0.00285812 0.000849838 0.000860693 -7.28221e-05
-0.0035597 0.00106243 0.00107026 -5.29352e-05
-0.00353946 0.00105643 0.00106416 -5.29316e-05
-0.00212775 0.000629258 0.000642212 -8.83014e-05
-0.00213996 0.000632813 0.00064592 -8.83053e-05
-0.00354958 0.00105943 0.00106721 -5.29332e-05
-0.00283378 0.000842669 0.000853335 -7.28151e-05
-0.00213386 0.000631036 0.000644066 -8.83032e-05
-0.00285001 0.000847449 0.00085824 -7.28192e-05
-0.0028419 0.000845059 0.000855787 -7.28169e-05
-0.00353946 0.00105643 0.00106416 -5.29316e-05
-0.00351923 0.00105042 0.00105806 -5.29294e-05
-0.00211554 0.0006257 0.000638504 -8.82988e-05
-0.00212775 0.000629258 0.000642212 -8.83014e-05
-0.00352935 0.00105342 0.00106111 -5.29303e-05
-0.00281756 0.000837888 0.00084843 -7.28124e-05
-0.00212165 0.000627479 0.000640358 -8.83e-05
-0.00283378 0.000842669 0.000853335 -7.28151e-05
-0.00282567 0.000840279 0.000850883 -7.28136e-05
-0.00351923 0.00105042 0.00105806 -5.29294e-05
-0.00349899 0.00104441 0.00105197 -5.29281e-05
-0.00210333 0.000622141 0.000634797 -8.82969e-05
-0.00211554 0.0006257 0.000638504 -8.82988e-05
-0.00350911 0.00104741 0.00105501 -5.29286e-05
-0.00280134 0.000833106 0.000843527 -7.28107e-05
-0.00210944 0.000623921 0.00063665 -8.82978e-05
-0.00281756 0.000837888 0.00084843 -7.28124e-05
-0.00280945 0.000835497 0.000845979 -7.28114e-05
-0.00349899 0.00104441 0.00105197 -5.29281e-05
-0.00347876 0.0010384 0.00104587 -5.29274e-05
-0.00209113 0.000618581 0.00063109 -8.82956e-05
-0.00210333 0.000622141 0.000634797 -8.82969e-05
-0.00348888 0.0010414 0.00104892 -5.29277e-05
-0.00278511 0.000828324 0.000838624 -7.28096e-05
-0.00209723 0.000620361 0.000632943 -8.82962e-05
-0.00280134 0.000833106 0.000843527 -7.28107e-05
-0.00279322 0.000830715 0.000841075 -7.28101e-05
-0.00347876 0.0010384 0.00104587 -5.29274e-05
-0.00345853 0.00103239 0.00103977 -5.29271e-05
-0.00207892 0.000615021 0.000627384 -8.82946e-05
-0.00209113 0.000618581 0.00063109 -8.82956e-05
-0.00346864 0.00103539 0.00104282 -5.29272e-05
-0.00276889 0.000823541 0.000833721 -7.28089e-05
-0.00208502 0.000616801 0.000629237 -8.82951e-05
-0.00278511 0.000828324 0.000838624 -7.28096e-05
-0.002777 0.000825932 0.000836172 -7.28092e-05
-0.00345853 0.00103239 0.00103977 -5.29271e-05
-0.0034383 0.00102638 0.00103368 -5.29269e-05
-0.00206671 0.000611459 0.000623679 -8.82936e-05
-0.00207892 0.000615021 0.000627384 -8.82946e-05
-0.00344841 0.00102939 0.00103673 -5.2927e-05
-0.00275267 0.000818758 0.000828819 -7.28084e-05
-0.00207281 0.00061324 0.000625532 -8.82941e-05
-0.00276889 0.000823541 0.000833721 -7.28089e-05
-0.00276078 0.000821149 0.00083127 -7.28086e-05
-0.0034383 0.00102638 0.00103368 -5.29269e-05
-0.00341806 0.00102037 0.00102758 -5.29267e-05
-0.0020545 0.000607898 0.000619974 -8.82928e-05
-0.00206671 0.000611459 0.000623679 -8.82936e-05
-0.00342818 0.00102338 0.00103063 -5.29268e-05
-0.00273645 0.000813974 0.000823918 -7.28079e-05
-0.00206061 0.000609679 0.000621826 -8.82932e-05
-0.00275267 0.000818758 0.000828819 -7.28084e-05
-0.00274456 0.000816366 0.000826368 -7.28081e-05
-0.00341806 0.00102037 0.00102758 -5.29267e-05
-0.00339784 0.00101436 0.00102149 -5.29265e-05
-0.0020423 0.000604336 0.00061627 -8.82919e-05
-0.0020545 0.000607898 0.000619974 -8.82928e-05
-0.00340795 0.00101737 0.00102454 -5.29266e-05
-0.00272023 0.00080919 0.000819017 -7.28074e-05
-0.0020484 0.000606117 0.000618122 -8.82923e-05
-0.00273645 0.000813974 0.000823918 -7.28079e-05
-0.00272834 0.000811582 0.000821467 -7.28076e-05
-0.00339784 0.00101436 0.00102149 -5.29265e-05
-0.00337761 0.00100835 0.00101539 -5.29263e-05
-0.00203009 0.000600773 0.000612566 -8.82909e-05
-0.0020423 0.000604336 0.00061627 -8.82919e-05
-0.00338772 0.00101136 0.00101844 -5.29264e-05
-0.00270401 0.000804406 0.000814116 -7.28068e-05
-0.0020362 0.000602554 0.000614418 -8.82914e-05
-0.00272023 0.00080919 0.000819017 -7.28074e-05
-0.00271212 0.000806798 0.000816567 -7.28071e-05
-0.00337761 0.00100835 0.00101539 -5.29263e-05
-0.00335738 0.00100234 0.0010093 -5.2926e-05
-0.00201789 0.000597211 0.000608863 -8.82899e-05
-0.00203009 0.000600773 0.000612566 -8.82909e-05
-0.00336749 0.00100535 0.00101235 -5.29262e-05
-0.00268779 0.000799622 0.000809216 -7.28062e-05
-0.00202399 0.000598992 0.000610715 -8.82904e-05
-0.00270401 0.000804406 0.000814116 -7.28068e-05
-0.0026959 0.000802014 0.000811666 -7.28065e-05
-0.00335738 0.00100234 0.0010093 -5.2926e-05
-0.00333715 0.000996333 0.00100321 -5.29257e-05
-0.00200569 0.000593648 0.000605161 -8.82888e-05
-0.00201789 0.000597211 0.000608863 -8.82899e-05
-0.00334726 0.000999338 0.00100625 -5.29259e-05
-0.00267158 0.000794837 0.000804317 -7.28056e-05
-0.00201179 0.000595429 0.000607012 -8.82894e-05
-0.00268779 0.000799622 0.000809216 -7.28062e-05
-0.00267969 0.000797229 0.000806767 -7.28059e-05
-0.00333715 0.000996333 0.00100321 -5.29257e-05
-0.00331693 0.000990323 0.000997115 -5.29253e-05
-0.00199349 0.000590084 0.000601459 -8.82877e-05
-0.00200569 0.000593648 0.000605161 -8.82888e-05
-0.00332704 0.000993328 0.00100016 -5.29255e-05
-0.00265536 0.000790052 0.000799418 -7.28048e-05
-0.00199959 0.000591866 0.00060331 -8.82883e-05
-0.00267158 0.000794837 0.000804317 -7.28056e-05
-0.00266347 0.000792445 0.000801868 -7.28052e-05
-0.00331693 0.000990323 0.000997115 -5.29253e-05
-0.0032967 0.000984314 0.000991023 -5.29249e-05
-0.00198129 0.000586521 0.000597758 -8.82865e-05
-0.00199349 0.000590084 0.000601459 -8.82877e-05
-0.00330681 0.000987319 0.000994069 -5.29251e-05
-0.00263915 0.000785268 0.00079452 -7.28041e-05
-0.00198739 0.000588303 0.000599608 -8.82871e-05
-0.00265536 0.000790052 0.000799418 -7.28048e-05
-0.00264725 0.00078766 0.000796969 -7.28045e-05
-0.0032967 0.000984314 0.000991023 -5.29249e-05
-0.00327648 0.000978304 0.000984931 -5.29245e-05
-0.00196909 0.000582957 0.000594057 -8.82852e-05
-0.00198129 0.000586521 0.000597758 -8.82865e-05
-0.00328659 0.000981309 0.000987977 -5.29247e-05
-0.00262293 0.000780483 0.000789622 -7.28032e-05
-0.00197519 0.000584739 0.000595907 -8.82858e-05
-0.00263915 0.000785268 0.00079452 -7.28041e-05
-0.00263104 0.000782875 0.000792071 -7.28036e-05
-0.00327648 0.000978304 0.000984931 -5.29245e-05
-0.00325625 0.000972294 0.00097884 -5.2924e-05
-0.00195689 0.000579393 0.000590356 -8.82839e-05
-0.00196909 0.000582957 0.000594057 -8.82852e-05
-0.00326636 0.000975299 0.000981885 -5.29242e-05
-0.00260672 0.000775697 0.000784724 -7.28023e-05
-0.00196299 0.000581175 0.000592206 -8.82845e-05
-0.00262293 0.000780483 0.000789622 -7.28032e-05
-0.00261483 0.00077809 0.000787173 -7.28028e-05
-0.00325625 0.000972294 0.00097884 -5.2924e-05
-0.00323603 0.000966284 0.000972749 -5.29234e-05
-0.00194469 0.000575828 0.000586657 -8.82825e-05
-0.00195689 0.000579393 0.000590356 -8.82839e-05
-0.00324614 0.000969289 0.000975794 -5.29237e-05
-0.00259051 0.000770912 0.000779828 -7.28014e-05
-0.00195079 0.000577611 0.000588506 -8.82832e-05
-0.00260672 0.000775697 0.000784724 -7.28023e-05
-0.00259862 0.000773305 0.000782276 -7.28019e-05
-0.00323603 0.000966284 0.000972749 -5.29234e-05
-0.00321581 0.000960274 0.000966658 -5.29229e-05
-0.0019325 0.000572264 0.000582957 -8.82811e-05
-0.00194469 0.000575828 0.000586657 -8.82825e-05
-0.00322592 0.000963279 0.000969704 -5.29232e-05
-0.0025743 0.000766126 0.000774931 -7.28004e-05
-0.0019386 0.000574046 0.000584807 -8.82818e-05
-0.00259051 0.000770912 0.000779828 -7.28014e-05
-0.0025824 0.000768519 0.000777379 -7.28009e-05
-0.00321581 0.000960274 0.000966658 -5.29229e-05
-0.00319559 0.000954264 0.000960568 -5.29223e-05
-0.0019203 0.000568699 0.000579259 -8.82796e-05
-0.0019325 0.000572264 0.000582957 -8.82811e-05
-0.0032057 0.000957269 0.000963613 -5.29226e-05
-0.00255809 0.000761341 0.000770035 -7.27994e-05
-0.0019264 0.000570481 0.000581108 -8.82804e-05
-0.0025743 0.000766126 0.000774931 -7.28004e-05
-0.00256619 0.000763734 0.000772483 -7.27999e-05
-0.00319559 0.000954264 0.000960568 -5.29223e-05
-0.00317537 0.000948254 0.000954479 -5.29217e-05
-0.00190811 0.000565134 0.000575561 -8.82781e-05
-0.0019203 0.000568699 0.000579259 -8.82796e-05
-0.00318548 0.000951259 0.000957524 -5.2922e-05
-0.00254188 0.000756555 0.00076514 -7.27984e-05
-0.00191421 0.000566916 0.00057741 -8.82789e-05
-0.00255809 0.000761341 0.000770035 -7.27994e-05
-0.00254999 0.000758948 0.000767588 -7.27989e-05
-0.00317537 0.000948254 0.000954479 -5.29217e-05
-0.00315515 0.000942244 0.00094839 -5.2921e-05
-0.00189592 0.000561568 0.000571863 -8.82766e-05
-0.00190811 0.000565134 0.000575561 -8.82781e-05
-0.00316526 0.000945249 0.000951434 -5.29214e-05
-0.00252567 0.000751769 0.000760245 -7.27973e-05
-0.00190201 0.000563351 0.000573712 -8.82774e-05
-0.00254188 0.000756555 0.00076514 -7.27984e-05
-0.00253378 0.000754162 0.000762693 -7.27979e-05
-0.00315515 0.000942244 0.00094839 -5.2921e-05
-0.00313494 0.000936234 0.000942301 -5.29204e-05
-0.00188372 0.000558002 0.000568166 -8.8275e-05
-0.00189592 0.000561568 0.000571863 -8.82766e-05
-0.00314505 0.000939239 0.000945346 -5.29207e-05
-0.00250947 0.000746983 0.000755351 -7.27962e-05
-0.00188982 0.000559785 0.000570015 -8.82758e-05
-0.00252567 0.000751769 0.000760245 -7.27973e-05
-0.00251757 0.000749376 0.000757798 -7.27968e-05
-0.00313494 0.000936234 0.000942301 -5.29204e-05
-0.00311472 0.000930224 0.000936213 -5.29197e-05
-0.00187153 0.000554436 0.00056447 -8.82734e-05
-0.00188372 0.000558002 0.000568166 -8.8275e-05
-0.00312483 0.000933229 0.000939257 -5.29201e-05
-0.00249326 0.000742196 0.000750457 -7.27951e-05
-0.00187763 0.000556219 0.000566318 -8.82742e-05
-0.00250947 0.000746983 0.000755351 -7.27962e-05
-0.00250137 0.00074459 0.000752904 -7.27957e-05
-0.00311472 0.000930224 0.000936213 -5.29197e-05
-0.00309451 0.000924213 0.000930126 -5.2919e-05
-0.00185934 0.00055087 0.000560774 -8.82718e-05
-0.00187153 0.000554436 0.00056447 -8.82734e-05
-0.00310461 0.000927219 0.000933169 -5.29194e-05
-0.00247706 0.00073741 0.000745564 -7.27939e-05
-0.00186544 0.000552653 0.000562622 -8.82726e-05
-0.00249326 0.000742196 0.000750457 -7.27951e-05
-0.00248516 0.000739803 0.000748011 -7.27945e-05
-0.00309451 0.000924213 0.000930126 -5.2919e-05
-0.00307429 0.000918203 0.000924039 -5.29183e-05
-0.00184715 0.000547303 0.000557079 -8.82701e-05
-0.00185934 0.00055087 0.000560774 -8.82718e-05
-0.0030844 0.000921208 0.000927082 -5.29187e-05
-0.00246086 0.000732623 0.000740671 -7.27927e-05
-0.00185325 0.000549087 0.000558926 -8.82709e-05
-0.00247706 0.00073741 0.000745564 -7.27939e-05
-0.00246896 0.000735016 0.000743118 -7.27933e-05
-0.00307429 0.000918203 0.000924039 -5.29183e-05
-0.00305408 0.000912193 0.000917952 -5.29176e-05
-0.00183497 0.000543736 0.000553384 -8.82684e-05
-0.00184715 0.000547303 0.000557079 -8.82701e-05
-0.00306419 0.000915198 0.000920995 -5.29179e-05
-0.00244465 0.000727836 0.000735779 -7.27915e-05
-0.00184106 0.00054552 0.000555231 -8.82692e-05
-0.00246086 0.000732623 0.000740671 -7.27927e-05
-0.00245276 0.00073023 0.000738225 -7.27921e-05
-0.00305408 0.000912193 0.000917952 -5.29176e-05
-0.00303387 0.000906183 0.000911866 -5.29168e-05
-0.00182278 0.000540169 0.00054969 -8.82666e-05
-0.00183497 0.000543736 0.000553384 -8.82684e-05
-0.00304397 0.000909188 0.000914909 -5.29172e-05
-0.00242845 0.000723049 0.000730888 -7.27903e-05
-0.00182887 0.000541953 0.000551537 -8.82675e-05
-0.00244465 0.000727836 0.000735779 -7.27915e-05
-0.00243655 0.000725443 0.000733333 -7.27909e-05
-0.00303387 0.000906183 0.000911866 -5.29168e-05
-0.00301366 0.000900173 0.00090578 -5.2916e-05
-0.00181059 0.000536602 0.000545996 -8.82649e-05
-0.00182278 0.000540169 0.00054969 -8.82666e-05
-0.00302376 0.000903178 0.000908823 -5.29164e-05
-0.00241225 0.000718262 0.000725997 -7.2789e-05
-0.00181669 0.000538386 0.000547843 -8.82658e-05
-0.00242845 0.000723049 0.000730888 -7.27903e-05
-0.00242035 0.000720656 0.000728442 -7.27897e-05
-0.00301366 0.000900173 0.00090578 -5.2916e-05
-0.00299345 0.000894162 0.000899695 -5.29153e-05
-0.00179841 0.000533034 0.000542304 -8.82631e-05
-0.00181059 0.000536602 0.000545996 -8.82649e-05
-0.00300355 0.000897167 0.000902737 -5.29157e-05
-0.00239606 0.000713475 0.000721106 -7.27878e-05
-0.0018045 0.000534818 0.00054415 -8.8264e-05
-0.00241225 0.000718262 0.000725997 -7.2789e-05
-0.00240415 0.000715868 0.000723551 -7.27884e-05
-0.00299345 0.000894162 0.000899695 -5.29153e-05
-0.00297324 0.000888152 0.00089361 -5.29145e-05
-0.00178623 0.000529466 0.000538611 -8.82613e-05
-0.00179841 0.000533034 0.000542304 -8.82631e-05
-0.00298335 0.000891157 0.000896652 -5.29149e-05
-0.00237986 0.000708687 0.000716216 -7.27865e-05
-0.00179232 0.00053125 0.000540457 -8.82622e-05
-0.00239606 0.000713475 0.000721106 -7.27878e-05
-0.00238796 0.000711081 0.000718661 -7.27871e-05
-0.00297324 0.000888152 0.00089361 -5.29145e-05
-0.00295304 0.000882142 0.000887526 -5.29136e-05
-0.00177404 0.000525898 0.000534919 -8.82594e-05
-0.00178623 0.000529466 0.000538611 -8.82613e-05
-0.00296314 0.000885147 0.000890568 -5.2914e-05
-0.00236366 0.0007039 0.000711327 -7.27851e-05
-0.00178013 0.000527682 0.000536765 -8.82603e-05
-0.00237986 0.000708687 0.000716216 -7.27865e-05
-0.00237176 0.000706294 0.000713771 -7.27858e-05
-0.00295304 0.000882142 0.000887526 -5.29136e-05
-0.00293283 0.000876131 0.000881442 -5.29128e-05
-0.00176186 0.00052233 0.000531228 -8.82575e-05
-0.00177404 0.000525898 0.000534919 -8.82594e-05
-0.00294293 0.000879137 0.000884484 -5.29132e-05
-0.00234747 0.000699112 0.000706438 -7.27838e-05
-0.00176795 0.000524114 0.000533074 -8.82585e-05
-0.00236366 0.0007039 0.000711327 -7.27851e-05
-0.00235556 0.000701506 0.000708882 -7.27845e-05
-0.00293283 0.000876131 0.000881442 -5.29128e-05
-0.00291262 0.000870121 0.000875359 -5.2912e-05
-0.00174968 0.000518761 0.000527537 -8.82556e-05
-0.00176186 0.00052233 0.000531228 -8.82575e-05
-0.00292273 0.000873126 0.0008784 -5.29124e-05
-0.00233127 0.000694324 0.000701549 -7.27824e-05
-0.00175577 0.000520545 0.000529383 -8.82566e-05
-0.00234747 0.000699112 0.000706438 -7.27838e-05
-0.00233937 0.000696718 0.000703994 -7.27831e-05
-0.00291262 0.000870121 0.000875359 -5.2912e-05
-0.00289242 0.000864111 0.000869276 -5.29111e-05
-0.0017375 0.000515192 0.000523847 -8.82537e-05
-0.00174968 0.000518761 0.000527537 -8.82556e-05
-0.00290252 0.000867116 0.000872317 -5.29115e-05
-0.00231508 0.000689536 0.000696662 -7.2781e-05
-0.00174359 0.000516976 0.000525692 -8.82547e-05
-0.00233127 0.000694324 0.000701549 -7.27824e-05
-0.00232318 0.00069193 0.000699105 -7.27817e-05
-0.00289242 0.000864111 0.000869276 -5.29111e-05
-0.00287222 0.0008581 0.000863194 -5.29102e-05
-0.00172532 0.000511623 0.000520158 -8.82518e-05
-0.0017375 0.000515192 0.000523847 -8.82537e-05
-0.00288232 0.000861106 0.000866235 -5.29106e-05
-0.00229889 0.000684748 0.000691774 -7.27796e-05
-0.00173141 0.000513407 0.000522002 -8.82528e-05
-0.00231508 0.000689536 0.000696662 -7.2781e-05
-0.00230698 0.000687142 0.000694218 -7.27803e-05
-0.00287222 0.0008581 0.000863194 -5.29102e-05
-0.00285202 0.00085209 0.000857112 -5.29093e-05
-0.00171315 0.000508053 0.000516469 -8.82498e-05
-0.00172532 0.000511623 0.000520158 -8.82518e-05
-0.00286212 0.000855095 0.000860153 -5.29098e-05
-0.0022827 0.000679959 0.000686888 -7.27782e-05
-0.00171924 0.000509838 0.000518313 -8.82508e-05
-0.00229889 0.000684748 0.000691774 -7.27796e-05
-0.00229079 0.000682354 0.000689331 -7.27789e-05
-0.00285202 0.00085209 0.000857112 -5.29093e-05
-0.00283182 0.00084608 0.000851031 -5.29084e-05
-0.00170097 0.000504483 0.00051278 -8.82478e-05
-0.00171315 0.000508053 0.000516469 -8.82498e-05
-0.00284192 0.000849085 0.000854071 -5.29089e-05
-0.00226651 0.000675171 0.000682001 -7.27768e-05
-0.00170706 0.000506268 0.000514625 -8.82488e-05
-0.0022827 0.000679959 0.000686888 -7.27782e-05
-0.0022746 0.000677565 0.000684444 -7.27775e-05
-0.00283182 0.00084608 0.000851031 -5.29084e-05
-0.00281162 0.000840069 0.00084495 -5.29075e-05
-0.0016888 0.000500913 0.000509093 -8.82458e-05
-0.00170097 0.000504483 0.00051278 -8.82478e-05
-0.00282172 0.000843075 0.00084799 -5.2908e-05
-0.00225032 0.000670382 0.000677116 -7.27753e-05
-0.00169488 0.000502698 0.000510936 -8.82468e-05
-0.00226651 0.000675171 0.000682001 -7.27768e-05
-0.00225841 0.000672777 0.000679559 -7.2776e-05
-0.00281162 0.000840069 0.00084495 -5.29075e-05
-0.00279142 0.000834059 0.00083887 -5.29066e-05
-0.00167662 0.000497343 0.000505405 -8.82438e-05
-0.0016888 0.000500913 0.000509093 -8.82458e-05
-0.00280152 0.000837064 0.00084191 -5.2907e-05
-0.00223413 0.000665594 0.000672231 -7.27738e-05
-0.00168271 0.000499128 0.000507249 -8.82448e-05
-0.00225032 0.000670382 0.000677116 -7.27753e-05
-0.00224223 0.000667988 0.000674673 -7.27746e-05
-0.00279142 0.000834059 0.00083887 -5.29066e-05
-0.00277122 0.000828049 0.00083279 -5.29056e-05
-0.00166445 0.000493773 0.000501719 -8.82417e-05
-0.00167662 0.000497343 0.000505405 -8.82438e-05
-0.00278132 0.000831054 0.00083583 -5.29061e-05
-0.00221795 0.000660805 0.000667346 -7.27723e-05
-0.00167054 0.000495558 0.000503562 -8.82428e-05
-0.00223413 0.000665594 0.000672231 -7.27738e-05
-0.00222604 0.000663199 0.000669788 -7.27731e-05
-0.00277122 0.000828049 0.00083279 -5.29056e-05
-0.00275103 0.000822038 0.000826711 -5.29047e-05
-0.00165228 0.000490202 0.000498033 -8.82397e-05
-0.00166445 0.000493773 0.000501719 -8.82417e-05
-0.00276113 0.000825043 0.00082975 -5.29052e-05
-0.00220176 0.000656016 0.000662462 -7.27708e-05
-0.00165836 0.000491987 0.000499876 -8.82407e-05
-0.00221795 0.000660805 0.000667346 -7.27723e-05
-0.00220985 0.00065841 0.000664904 -7.27716e-05
-0.00275103 0.000822038 0.000826711 -5.29047e-05
-0.00273084 0.000816028 0.000820632 -5.29037e-05
-0.00164011 0.000486631 0.000494347 -8.82376e-05
-0.00165228 0.000490202 0.000498033 -8.82397e-05
-0.00274093 0.000819033 0.000823671 -5.29042e-05
-0.00218558 0.000651226 0.000657579 -7.27693e-05
-0.00164619 0.000488416 0.00049619 -8.82386e-05
-0.00220176 0.000656016 0.000662462 -7.27708e-05
-0.00219367 0.000653621 0.00066002 -7.27701e-05
-0.00273084 0.000816028 0.000820632 -5.29037e-05
-0.00271064 0.000810018 0.000814554 -5.29027e-05
-0.00162794 0.000483059 0.000490662 -8.82355e-05
-0.00164011 0.000486631 0.000494347 -8.82376e-05
-0.00272074 0.000813023 0.000817593 -5.29032e-05
-0.00216939 0.000646437 0.000652696 -7.27678e-05
-0.00163402 0.000484845 0.000492505 -8.82365e-05
-0.00218558 0.000651226 0.000657579 -7.27693e-05
-0.00217749 0.000648832 0.000655137 -7.27686e-05
-0.00271064 0.000810018 0.000814554 -5.29027e-05
-0.00269045 0.000804007 0.000808476 -5.29018e-05
-0.00161577 0.000479488 0.000486978 -8.82334e-05
-0.00162794 0.000483059 0.000490662 -8.82355e-05
-0.00270055 0.000807012 0.000811515 -5.29023e-05
-0.00215321 0.000641648 0.000647814 -7.27662e-05
-0.00162185 0.000481274 0.00048882 -8.82344e-05
-0.00216939 0.000646437 0.000652696 -7.27678e-05
-0.0021613 0.000644042 0.000650255 -7.2767e-05
-0.00269045 0.000804007 0.000808476 -5.29018e-05
-0.00267026 0.000797997 0.000802399 -5.29008e-05
-0.0016036 0.000475916 0.000483295 -8.82312e-05
-0.00161577 0.000479488 0.000486978 -8.82334e-05
-0.00268036 0.000801002 0.000805437 -5.29013e-05
-0.00213703 0.000636858 0.000642932 -7.27647e-05
-0.00160969 0.000477702 0.000485136 -8.82323e-05
-0.00215321 0.000641648 0.000647814 -7.27662e-05
-0.00214512 0.000639253 0.000645373 -7.27655e-05
-0.00267026 0.000797997 0.000802399 -5.29008e-05
-0.00265007 0.000791987 0.000796322 -5.28998e-05
-0.00159144 0.000472344 0.000479611 -8.82291e-05
-0.0016036 0.000475916 0.000483295 -8.82312e-05
-0.00266017 0.000794992 0.00079936 -5.29003e-05
-0.00212085 0.000632068 0.000638051 -7.27631e-05
-0.00159752 0.00047413 0.000481453 -8.82302e-05
-0.00213703 0.000636858 0.000642932 -7.27647e-05
-0.00212894 0.000634463 0.000640491 -7.27639e-05
-0.00265007 0.000791987 0.000796322 -5.28998e-05
-0.00262988 0.000785976 0.000790246 -5.28988e-05
-0.00157927 0.000468771 0.000475929 -8.82269e-05
-0.00159144 0.000472344 0.000479611 -8.82291e-05
-0.00263998 0.000788981 0.000793284 -5.28993e-05
-0.00210468 0.000627278 0.00063317 -7.27615e-05
-0.00158535 0.000470558 0.00047777 -8.8228e-05
-0.00212085 0.000632068 0.000638051 -7.27631e-05
-0.00211276 0.000629673 0.00063561 -7.27623e-05
-0.00262988 0.000785976 0.000790246 -5.28988e-05
-0.0026097 0.000779966 0.00078417 -5.28978e-05
-0.00156711 0.000465199 0.000472247 -8.82248e-05
-0.00157927 0.000468771 0.000475929 -8.82269e-05
-0.00261979 0.000782971 0.000787208 -5.28983e-05
-0.0020885 0.000622488 0.00062829 -7.27599e-05
-0.00157319 0.000466985 0.000474088 -8.82259e-05
-0.00210468 0.000627278 0.00063317 -7.27615e-05
-0.00209659 0.000624883 0.00063073 -7.27607e-05
-0.0026097 0.000779966 0.00078417 -5.28978e-05
-0.00258951 0.000773956 0.000778095 -5.28967e-05
-0.00155495 0.000461626 0.000468566 -8.82226e-05
-0.00156711 0.000465199 0.000472247 -8.82248e-05
-0.0025996 0.000776961 0.000781132 -5.28973e-05
-0.00207232 0.000617698 0.00062341 -7.27583e-05
-0.00156103 0.000463412 0.000470406 -8.82237e-05
-0.0020885 0.000622488 0.00062829 -7.27599e-05
-0.00208041 0.000620093 0.00062585 -7.27591e-05
-0.00258951 0.000773956 0.000778095 -5.28967e-05
-0.00256933 0.000767945 0.00077202 -5.28957e-05
-0.00154278 0.000458053 0.000464885 -8.82204e-05
-0.00155495 0.000461626 0.000468566 -8.82226e-05
-0.00257942 0.000770951 0.000775057 -5.28962e-05
-0.00205615 0.000612908 0.000618531 -7.27567e-05
-0.00154886 0.00045984 0.000466725 -8.82215e-05
-0.00207232 0.000617698 0.00062341 -7.27583e-05
-0.00206424 0.000615303 0.000620971 -7.27575e-05
-0.00256933 0.000767945 0.00077202 -5.28957e-05
-0.00254914 0.000761935 0.000765946 -5.28947e-05
-0.00153062 0.00045448 0.000461205 -8.82182e-05
-0.00154278 0.000458053 0.000464885 -8.82204e-05
-0.00255923 0.00076494 0.000768983 -5.28952e-05
-0.00203997 0.000608118 0.000613653 -7.27551e-05
-0.0015367 0.000456266 0.000463045 -8.82193e-05
-0.00205615 0.000612908 0.000618531 -7.27567e-05
-0.00204806 0.000610513 0.000616092 -7.27559e-05
-0.00254914 0.000761935 0.000765946 -5.28947e-05
-0.00252896 0.000755925 0.000759872 -5.28936e-05
-0.00151846 0.000450906 0.000457525 -8.8216e-05
-0.00153062 0.00045448 0.000461205 -8.82182e-05
-0.00253905 0.00075893 0.000762909 -5.28942e-05
-0.0020238 0.000603327 0.000608775 -7.27535e-05
-0.00152454 0.000452693 0.000459365 -8.82171e-05
-0.00203997 0.000608118 0.000613653 -7.27551e-05
-0.00203189 0.000605722 0.000611214 -7.27543e-05
-0.00252896 0.000755925 0.000759872 -5.28936e-05
-0.00250878 0.000749915 0.000753799 -5.28926e-05
-0.00150631 0.000447332 0.000453846 -8.82138e-05
-0.00151846 0.000450906 0.000457525 -8.8216e-05
-0.00251887 0.00075292 0.000756835 -5.28931e-05
-0.00200763 0.000598537 0.000603898 -7.27519e-05
-0.00151239 0.000449119 0.000455686 -8.82149e-05
-0.0020238 0.000603327 0.000608775 -7.27535e-05
-0.00201572 0.000600932 0.000606336 -7.27527e-05
-0.00250878 0.000749915 0.000753799 -5.28926e-05
-0.0024886 0.000743904 0.000747726 -5.28916e-05
-0.00149415 0.000443758 0.000450168 -8.82116e-05
-0.00150631 0.000447332 0.000453846 -8.82138e-05
-0.00249869 0.00074691 0.000750763 -5.28921e-05
-0.00199146 0.000593746 0.000599021 -7.27502e-05
-0.00150023 0.000445545 0.000452007 -8.82127e-05
-0.00200763 0.000598537 0.000603898 -7.27519e-05
-0.00199955 0.000596141 0.000601459 -7.2751e-05
-0.0024886 0.000743904 0.000747726 -5.28916e-05
-0.00246842 0.000737894 0.000741654 -5.28905e-05
-0.00148199 0.000440184 0.00044649 -8.82093e-05
-0.00149415 0.000443758 0.000450168 -8.82116e-05
-0.00247851 0.000740899 0.00074469 -5.2891e-05
-0.00197529 0.000588955 0.000594145 -7.27486e-05
-0.00148807 0.000441971 0.000448329 -8.82104e-05
-0.00199146 0.000593746 0.000599021 -7.27502e-05
-0.00198338 0.00059135 0.000596583 -7.27494e-05
-0.00246842 0.000737894 0.000741654 -5.28905e-05
-0.00244824 0.000731884 0.000735583 -5.28894e-05
-0.00146984 0.000436609 0.000442813 -8.82071e-05
-0.00148199 0.000440184 0.00044649 -8.82093e-05
-0.00245833 0.000734889 0.000738618 -5.289e-05
-0.00195913 0.000584164 0.000589269 -7.27469e-05
-0.00147592 0.000438396 0.000444651 -8.82082e-05
-0.00197529 0.000588955 0.000594145 -7.27486e-05
-0.00196721 0.000586559 0.000591707 -7.27477e-05
-0.00244824 0.000731884 0.000735583 -5.28894e-05
-0.00242807 0.000725874 0.000729512 -5.28884e-05
-0.00145768 0.000433034 0.000439136 -8.82048e-05
-0.00146984 0.000436609 0.000442813 -8.82071e-05
-0.00243816 0.000728879 0.000732547 -5.28889e-05
-0.00194296 0.000579373 0.000584394 -7.27453e-05
-0.00146376 0.000434822 0.000440974 -8.8206e-05
-0.00195913 0.000584164 0.000589269 -7.27469e-05
-0.00195104 0.000581768 0.000586832 -7.27461e-05
-0.00242807 0.000725874 0.000729512 -5.28884e-05
-0.00240789 0.000719864 0.000723441 -5.28873e-05
-0.00144553 0.000429459 0.00043546 -8.82026e-05
-0.00145768 0.000433034 0.000439136 -8.82048e-05
-0.00241798 0.000722869 0.000726476 -5.28879e-05
-0.00192679 0.000574581 0.00057952 -7.27436e-05
-0.00145161 0.000431247 0.000437298 -8.82037e-05
-0.00194296 0.000579373 0.000584394 -7.27453e-05
-0.00193488 0.000576977 0.000581957 -7.27444e-05
-0.00240789 0.000719864 0.000723441 -5.28873e-05
-0.00238772 0.000713853 0.000717371 -5.28863e-05
-0.00143338 0.000425884 0.000431785 -8.82003e-05
-0.00144553 0.000429459 0.00043546 -8.82026e-05
-0.00239781 0.000716858 0.000720406 -5.28868e-05
-0.00191063 0.00056979 0.000574646 -7.27419e-05
-0.00143946 0.000427671 0.000433622 -8.82015e-05
-0.00192679 0.000574581 0.00057952 -7.27436e-05
-0.00191871 0.000572186 0.000577083 -7.27428e-05
-0.00238772 0.000713853 0.000717371 -5.28863e-05
-0.00236755 0.000707843 0.000711301 -5.28852e-05
-0.00142123 0.000422308 0.00042811 -8.81981e-05
-0.00143338 0.000425884 0.000431785 -8.82003e-05
-0.00237763 0.000710848 0.000714336 -5.28857e-05
-0.00189447 0.000564998 0.000569773 -7.27403e-05
-0.00142731 0.000424096 0.000429947 -8.81992e-05
-0.00191063 0.00056979 0.000574646 -7.27419e-05
-0.00190255 0.000567394 0.000572209 -7.27411e-05
-0.00236755 0.000707843 0.000711301 -5.28852e-05
-0.00234738 0.000701833 0.000705232 -5.28841e-05
-0.00140908 0.000418732 0.000424435 -8.81958e-05
-0.00142123 0.000422308 0.00042811 -8.81981e-05
-0.00235746 0.000704838 0.000708267 -5.28847e-05
-0.00187831 0.000560207 0.0005649 -7.27386e-05
-0.00141516 0.00042052 0.000426272 -8.81969e-05
-0.00189447 0.000564998 0.000569773 -7.27403e-05
-0.00188639 0.000562602 0.000567336 -7.27394e-05
-0.00234738 0.000701833 0.000705232 -5.28841e-05
-0.00232721 0.000695823 0.000699164 -5.28831e-05
-0.00139693 0.000415156 0.000420762 -8.81936e-05
-0.00140908 0.000418732 0.000424435 -8.81958e-05
-0.00233729 0.000698828 0.000702198 -5.28836e-05
-0.00186215 0.000555415 0.000560028 -7.27369e-05
-0.00140301 0.000416944 0.000422598 -8.81947e-05
-0.00187831 0.000560207 0.0005649 -7.27386e-05
-0.00187023 0.000557811 0.000562464 -7.27378e-05
-0.00232721 0.000695823 0.000699164 -5.28831e-05
-0.00230704 0.000689813 0.000693096 -5.2882e-05
-0.00138479 0.00041158 0.000417089 -8.81913e-05
-0.00139693 0.000415156 0.000420762 -8.81936e-05
-0.00231712 0.000692818 0.00069613 -5.28825e-05
-0.00184599 0.000550623 0.000555156 -7.27353e-05
-0.00139086 0.000413368 0.000418925 -8.81924e-05
-0.00186215 0.000555415 0.000560028 -7.27369e-05
-0.00185407 0.000553019 0.000557592 -7.27361e-05
-0.00230704 0.000689813 0.000693096 -5.2882e-05
-0.00228687 0.000683803 0.000687028 -5.28809e-05
-0.00137264 0.000408003 0.000413416 -8.8189e-05
-0.00138479 0.00041158 0.000417089 -8.81913e-05
-0.00229695 0.000686808 0.000690062 -5.28815e-05
-0.00182983 0.000545831 0.000550285 -7.27336e-05
-0.00137871 0.000409792 0.000415252 -8.81902e-05
-0.00184599 0.000550623 0.000555156 -7.27353e-05
-0.00183791 0.000548227 0.00055272 -7.27344e-05
-0.00228687 0.000683803 0.000687028 -5.28809e-05
-0.0022667 0.000677793 0.000680961 -5.28798e-05
-0.0013605 0.000404426 0.000409744 -8.81868e-05
-0.00137264 0.000408003 0.000413416 -8.8189e-05
-0.00227679 0.000680798 0.000683995 -5.28804e-05
-0.00181367 0.000541039 0.000545414 -7.27319e-05
-0.00136657 0.000406215 0.00041158 -8.81879e-05
-0.00182983 0.000545831 0.000550285 -7.27336e-05
-0.00182175 0.000543435 0.00054785 -7.27328e-05
-0.0022667 0.000677793 0.000680961 -5.28798e-05
-0.00224654 0.000671783 0.000674895 -5.28788e-05
-0.00134835 0.000400849 0.000406073 -8.81845e-05
-0.0013605 0.000404426 0.000409744 -8.81868e-05
-0.00225662 0.000674788 0.000677928 -5.28793e-05
-0.00179752 0.000536246 0.000540545 -7.27303e-05
-0.00135442 0.000402638 0.000407908 -8.81856e-05
-0.00181367 0.000541039 0.000545414 -7.27319e-05
-0.00180559 0.000538642 0.000542979 -7.27311e-05
-0.00224654 0.000671783 0.000674895 -5.28788e-05
-0.00222637 0.000665773 0.000668829 -5.28777e-05
-0.00133621 0.000397272 0.000402402 -8.81822e-05
-0.00134835 0.000400849 0.000406073 -8.81845e-05
-0.00223646 0.000668778 0.000671862 -5.28782e-05
-0.00178136 0.000531454 0.000535675 -7.27286e-05
-0.00134228 0.000399061 0.000404237 -8.81834e-05
-0.00179752 0.000536246 0.000540545 -7.27303e-05
-0.00178944 0.00053385 0.00053811 -7.27294e-05
-0.00222637 0.000665773 0.000668829 -5.28777e-05
-0.00220621 0.000659763 0.000662764 -5.28766e-05
-0.00132407 0.000393694 0.000398732 -8.818e-05
-0.00133621 0.000397272 0.000402402 -8.81822e-05
-0.00221629 0.000662768 0.000665796 -5.28772e-05
-0.00176521 0.000526661 0.000530806 -7.27269e-05
-0.00133014 0.000395483 0.000400567 -8.81811e-05
-0.00178136 0.000531454 0.000535675 -7.27286e-05
-0.00177329 0.000529058 0.000533241 -7.27278e-05
-0.00220621 0.000659763 0.000662764 -5.28766e-05
-0.00218605 0.000653752 0.000656699 -5.28756e-05
-0.00131193 0.000390117 0.000395062 -8.81777e-05
-0.00132407 0.000393694 0.000398732 -8.818e-05
-0.00219613 0.000656758 0.000659731 -5.28761e-05
-0.00174906 0.000521869 0.000525938 -7.27253e-05
-0.001318 0.000391905 0.000396897 -8.81789e-05
-0.00176521 0.000526661 0.000530806 -7.27269e-05
-0.00175713 0.000524265 0.000528372 -7.27261e-05
-0.00218605 0.000653752 0.000656699 -5.28756e-05
-0.00216589 0.000647742 0.000650634 -5.28745e-05
-0.00129979 0.000386538 0.000391394 -8.81755e-05
-0.00131193 0.000390117 0.000395062 -8.81777e-05
-0.00217597 0.000650747 0.000653667 -5.2875e-05
-0.00173291 0.000517076 0.00052107 -7.27236e-05
-0.00130586 0.000388328 0.000393228 -8.81766e-05
-0.00174906 0.000521869 0.000525938 -7.27253e-05
-0.00174098 0.000519472 0.000523504 -7.27244e-05
-0.00216589 0.000647742 0.000650634 -5.28745e-05
-0.00214573 0.000641732 0.000644571 -5.28734e-05
-0.00128765 0.00038296 0.000387725 -8.81732e-05
-0.00129979 0.000386538 0.000391394 -8.81755e-05
-0.00215581 0.000644737 0.000647602 -5.2874e-05
-0.00171676 0.000512283 0.000516203 -7.27219e-05
-0.00129372 0.000384749 0.000389559 -8.81743e-05
-0.00173291 0.000517076 0.00052107 -7.27236e-05
-0.00172483 0.000514679 0.000518637 -7.27228e-05
-0.00214573 0.000641732 0.000644571 -5.28734e-05
-0.00212557 0.000635723 0.000638507 -5.28724e-05
-0.00127552 0.000379382 0.000384057 -8.8171e-05
-0.00128765 0.00038296 0.000387725 -8.81732e-05
-0.00213565 0.000638727 0.000641539 -5.28729e-05
-0.00170061 0.00050749 0.000511337 -7.27203e-05
-0.00128158 0.000381171 0.000385891 -8.81721e-05
-0.00171676 0.000512283 0.000516203 -7.27219e-05
-0.00170868 0.000509886 0.00051377 -7.27211e-05
-0.00212557 0.000635723 0.000638507 -5.28724e-05
-0.00210542 0.000629713 0.000632444 -5.28713e-05
-0.00126338 0.000375803 0.00038039 -8.81687e-05
-0.00127552 0.000379382 0.000384057 -8.8171e-05
-0.00211549 0.000632718 0.000635476 -5.28719e-05
-0.00168446 0.000502696 0.000506471 -7.27186e-05
-0.00126945 0.000377592 0.000382224 -8.81699e-05
-0.00170061 0.00050749 0.000511337 -7.27203e-05
-0.00169253 0.000505093 0.000508904 -7.27195e-05
-0.00210542 0.000629713 0.000632444 -5.28713e-05
-0.00208526 0.000623703 0.000626382 -5.28703e-05
-0.00125125 0.000372224 0.000376724 -8.81665e-05
-0.00126338 0.000375803 0.00038039 -8.81687e-05
-0.00209534 0.000626708 0.000629413 -5.28708e-05
-0.00166831 0.000497903 0.000501605 -7.2717e-05
-0.00125731 0.000374013 0.000378557 -8.81676e-05
-0.00168446 0.000502696 0.000506471 -7.27186e-05
-0.00167639 0.0005003 0.000504038 -7.27178e-05
-0.00208526 0.000623703 0.000626382 -5.28703e-05
-0.00206511 0.000617693 0.00062032 -5.28692e-05
-0.00123911 0.000368644 0.000373058 -8.81643e-05
-0.00125125 0.000372224 0.000376724 -8.81665e-05
-0.00207518 0.000620698 0.000623351 -5.28698e-05
-0.00165217 0.000493109 0.00049674 -7.27154e-05
-0.00124518 0.000370434 0.000374891 -8.81654e-05
-0.00166831 0.000497903 0.000501605 -7.2717e-05
-0.00166024 0.000495506 0.000499173 -7.27162e-05
-0.00206511 0.000617693 0.00062032 -5.28692e-05
-0.00204495 0.000611683 0.000614259 -5.28682e-05
-0.00122698 0.000365065 0.000369392 -8.81621e-05
-0.00123911 0.000368644 0.000373058 -8.81643e-05
-0.00205503 0.000614688 0.00061729 -5.28687e-05
-0.00163603 0.000488316 0.000491876 -7.27137e-05
-0.00123305 0.000366854 0.000371225 -8.81632e-05
-0.00165217 0.000493109 0.00049674 -7.27154e-05
-0.0016441 0.000490713 0.000494308 -7.27145e-05
-0.00204495 0.000611683 0.000614259 -5.28682e-05
-0.0020248 0.000605673 0.000608198 -5.28671e-05
-0.00121485 0.000361485 0.000365727 -8.81599e-05
-0.00122698 0.000365065 0.000369392 -8.81621e-05
-0.00203488 0.000608678 0.000611229 -5.28677e-05
-0.00161988 0.000483522 0.000487012 -7.27121e-05
-0.00122091 0.000363275 0.00036756 -8.8161e-05
-0.00163603 0.000488316 0.000491876 -7.27137e-05
-0.00162795 0.000485919 0.000489444 -7.27129e-05
-0.0020248 0.000605673 0.000608198 -5.28671e-05
-0.00200465 0.000599663 0.000602138 -5.28661e-05
-0.00120272 0.000357905 0.000362063 -8.81577e-05
-0.00121485 0.000361485 0.000365727 -8.81599e-05
-0.00201473 0.000602668 0.000605168 -5.28666e-05
-0.00160374 0.000478728 0.000482149 -7.27105e-05
-0.00120878 0.000359695 0.000363895 -8.81588e-05
-0.00161988 0.000483522 0.000487012 -7.27121e-05
-0.00161181 0.000481125 0.00048458 -7.27113e-05
-0.00200465 0.000599663 0.000602138 -5.28661e-05
-0.0019845 0.000593653 0.000596078 -5.28651e-05
-0.00119059 0.000354324 0.000358399 -8.81555e-05
-0.00120272 0.000357905 0.000362063 -8.81577e-05
-0.00199458 0.000596658 0.000599108 -5.28656e-05
-0.0015876 0.000473934 0.000477286 -7.27089e-05
-0.00119665 0.000356115 0.000360231 -8.81566e-05
-0.00160374 0.000478728 0.000482149 -7.27105e-05
-0.00159567 0.000476331 0.000479717 -7.27097e-05
-0.0019845 0.000593653 0.000596078 -5.28651e-05
-0.00196435 0.000587643 0.000590019 -5.28641e-05
-0.00117846 0.000350744 0.000354736 -8.81533e-05
-0.00119059 0.000354324 0.000358399 -8.81555e-05
-0.00197443 0.000590648 0.000593049 -5.28646e-05
-0.00157146 0.00046914 0.000472424 -7.27073e-05
-0.00118453 0.000352534 0.000356568 -8.81544e-05
-0.0015876 0.000473934 0.000477286 -7.27089e-05
-0.00157953 0.000471537 0.000474855 -7.27081e-05
-0.00196435 0.000587643 0.000590019 -5.28641e-05
-0.00194421 0.000581633 0.00058396 -5.2863e-05
-0.00116634 0.000347163 0.000351074 -8.81511e-05
-0.00117846 0.000350744 0.000354736 -8.81533e-05
-0.00195428 0.000584638 0.00058699 -5.28636e-05
-0.00155533 0.000464346 0.000467563 -7.27057e-05
-0.0011724 0.000348953 0.000352905 -8.81522e-05
-0.00157146 0.00046914 0.000472424 -7.27073e-05
-0.00156339 0.000466743 0.000469993 -7.27065e-05
-0.00194421 0.000581633 0.00058396 -5.2863e-05
-0.00192406 0.000575623 0.000577902 -5.2862e-05
-0.00115421 0.000343582 0.000347412 -8.81489e-05
-0.00116634 0.000347163 0.000351074 -8.81511e-05
-0.00193413 0.000578628 0.000580931 -5.28625e-05
-0.00153919 0.000459551 0.000462702 -7.27041e-05
-0.00116027 0.000345372 0.000349243 -8.815e-05
-0.00155533 0.000464346 0.000467563 -7.27057e-05
-0.00154726 0.000461949 0.000465132 -7.27049e-05
-0.00192406 0.000575623 0.000577902 -5.2862e-05
-0.00190392 0.000569613 0.000571844 -5.2861e-05
-0.00114209 0.00034 0.000343751 -8.81468e-05
-0.00115421 0.000343582 0.000347412 -8.81489e-05
-0.00191399 0.000572618 0.000574873 -5.28615e-05
-0.00152305 0.000454757 0.000457841 -7.27025e-05
-0.00114815 0.000341791 0.000345581 -8.81479e-05
-0.00153919 0.000459551 0.000462702 -7.27041e-05
-0.00153112 0.000457154 0.000460271 -7.27033e-05
-0.00190392 0.000569613 0.000571844 -5.2861e-05
-0.00188377 0.000563604 0.000565787 -5.286e-05
-0.00112996 0.000336419 0.00034009 -8.81446e-05
-0.00114209 0.00034 0.000343751 -8.81468e-05
-0.00189385 0.000566608 0.000568816 -5.28605e-05
-0.00150692 0.000449962 0.000452981 -7.27009e-05
-0.00113602 0.00033821 0.00034192 -8.81457e-05
-0.00152305 0.000454757 0.000457841 -7.27025e-05
-0.00151499 0.000452359 0.000455411 -7.27017e-05
-0.00188377 0.000563604 0.000565787 -5.286e-05
-0.00186363 0.000557594 0.000559731 -5.2859e-05
-0.00111784 0.000332837 0.00033643 -8.81425e-05
-0.00112996 0.000336419 0.00034009 -8.81446e-05
-0.0018737 0.000560599 0.000562759 -5.28595e-05
-0.00149079 0.000445167 0.000448122 -7.26994e-05
-0.0011239 0.000334628 0.00033826 -8.81436e-05
-0.00150692 0.000449962 0.000452981 -7.27009e-05
-0.00149885 0.000447565 0.000450552 -7.27002e-05
-0.00186363 0.000557594 0.000559731 -5.2859e-05
-0.00184349 0.000551584 0.000553674 -5.28581e-05
-0.00110572 0.000329255 0.00033277 -8.81404e-05
-0.00111784 0.000332837 0.00033643 -8.81425e-05
-0.00185356 0.000554589 0.000556702 -5.28586e-05
-0.00147465 0.000440372 0.000443263 -7.26978e-05
-0.00111178 0.000331046 0.0003346 -8.81415e-05
-0.00149079 0.000445167 0.000448122 -7.26994e-05
-0.00148272 0.00044277 0.000445693 -7.26986e-05
-0.00184349 0.000551584 0.000553674 -5.28581e-05
-0.00182335 0.000545574 0.000547619 -5.28571e-05
-0.0010936 0.000325672 0.000329111 -8.81383e-05
-0.00110572 0.000329255 0.00033277 -8.81404e-05
-0.00183342 0.000548579 0.000550646 -5.28576e-05
-0.00145852 0.000435577 0.000438405 -7.26963e-05
-0.00109966 0.000327464 0.000330941 -8.81394e-05
-0.00147465 0.000440372 0.000443263 -7.26978e-05
-0.00146659 0.000437975 0.000440834 -7.26971e-05
-0.00182335 0.000545574 0.000547619 -5.28571e-05
-0.00180321 0.000539564 0.000541564 -5.28561e-05
-0.00108148 0.00032209 0.000325453 -8.81362e-05
-0.0010936 0.000325672 0.000329111 -8.81383e-05
-0.00181328 0.000542569 0.000544591 -5.28566e-05
-0.00144239 0.000430782 0.000433547 -7.26948e-05
-0.00108754 0.000323881 0.000327282 -8.81373e-05
-0.00145852 0.000435577 0.000438405 -7.26963e-05
-0.00145046 0.00043318 0.000435976 -7.26955e-05
-0.00180321 0.000539564 0.000541564 -5.28561e-05
-0.00178308 0.000533554 0.000535509 -5.28552e-05
-0.00106936 0.000318507 0.000321795 -8.81342e-05
-0.00108148 0.00032209 0.000325453 -8.81362e-05
-0.00179314 0.000536559 0.000538536 -5.28556e-05
-0.00142626 0.000425987 0.00042869 -7.26933e-05
-0.00107542 0.000320298 0.000323624 -8.81352e-05
-0.00144239 0.000430782 0.000433547 -7.26948e-05
-0.00143433 0.000428384 0.000431119 -7.2694e-05
-0.00178308 0.000533554 0.000535509 -5.28552e-05
-0.00176294 0.000527544 0.000529455 -5.28542e-05
-0.00105725 0.000314924 0.000318138 -8.81321e-05
-0.00106936 0.000318507 0.000321795 -8.81342e-05
-0.00177301 0.000530549 0.000532482 -5.28547e-05
-0.00141014 0.000421191 0.000423834 -7.26918e-05
-0.0010633 0.000316715 0.000319967 -8.81331e-05
-0.00142626 0.000425987 0.00042869 -7.26933e-05
-0.0014182 0.000423589 0.000426262 -7.26925e-05
-0.00176294 0.000527544 0.000529455 -5.28542e-05
-0.0017428 0.000521535 0.000523401 -5.28533e-05
-0.00104513 0.00031134 0.000314481 -8.81301e-05
-0.00105725 0.000314924 0.000318138 -8.81321e-05
-0.00175287 0.000524539 0.000526428 -5.28538e-05
-0.00139401 0.000416395 0.000418978 -7.26903e-05
-0.00105119 0.000313132 0.00031631 -8.81311e-05
-0.00141014 0.000421191 0.000423834 -7.26918e-05
-0.00140207 0.000418793 0.000421406 -7.2691e-05
-0.0017428 0.000521535 0.000523401 -5.28533e-05
-0.00172267 0.000515525 0.000517348 -5.28524e-05
-0.00103302 0.000307757 0.000310825 -8.8128e-05
-0.00104513 0.00031134 0.000314481 -8.81301e-05
-0.00173274 0.00051853 0.000520374 -5.28528e-05
-0.00137789 0.0004116 0.000414122 -7.26888e-05
-0.00103907 0.000309548 0.000312653 -8.8129e-05
-0.00139401 0.000416395 0.000418978 -7.26903e-05
-0.00138595 0.000413998 0.00041655 -7.26895e-05
-0.00172267 0.000515525 0.000517348 -5.28524e-05
-0.00170254 0.000509515 0.000511295 -5.28514e-05
-0.0010209 0.000304173 0.00030717 -8.8126e-05
-0.00103302 0.000307757 0.000310825 -8.8128e-05
-0.0017126 0.00051252 0.000514322 -5.28519e-05
-0.00136176 0.000406804 0.000409267 -7.26874e-05
-0.00102696 0.000305965 0.000308997 -8.8127e-05
-0.00137789 0.0004116 0.000414122 -7.26888e-05
-0.00136982 0.000409202 0.000411695 -7.26881e-05
-0.00170254 0.000509515 0.000511295 -5.28514e-05
-0.00168241 0.000503505 0.000505243 -5.28505e-05
-0.00100879 0.000300588 0.000303515 -8.8124e-05
-0.0010209 0.000304173 0.00030717 -8.8126e-05
-0.00169247 0.00050651 0.000508269 -5.2851e-05
-0.00134564 0.000402008 0.000404413 -7.26859e-05
-0.00101485 0.000302381 0.000305342 -8.8125e-05
-0.00136176 0.000406804 0.000409267 -7.26874e-05
-0.0013537 0.000404406 0.00040684 -7.26866e-05
-0.00168241 0.000503505 0.000505243 -5.28505e-05
-0.00166228 0.000497495 0.000499191 -5.28496e-05
-0.000996679 0.000297004 0.000299861 -8.81221e-05
-0.00100879 0.000300588 0.000303515 -8.8124e-05
-0.00167234 0.0005005 0.000502217 -5.28501e-05
-0.00132952 0.000397211 0.000399559 -7.26845e-05
-0.00100273 0.000298796 0.000301688 -8.81231e-05
-0.00134564 0.000402008 0.000404413 -7.26859e-05
-0.00133758 0.000399609 0.000401986 -7.26852e-05
-0.00166228 0.000497495 0.000499191 -5.28496e-05
-0.00164215 0.000491485 0.00049314 -5.28488e-05
-0.000984569 0.000293419 0.000296207 -8.81201e-05
-0.000996679 0.000297004 0.000299861 -8.81221e-05
-0.00165221 0.00049449 0.000496166 -5.28492e-05
-0.0013134 0.000392415 0.000394706 -7.26831e-05
-0.000990623 0.000295212 0.000298034 -8.81211e-05
-0.00132952 0.000397211 0.000399559 -7.26845e-05
-0.00132146 0.000394813 0.000397133 -7.26838e-05
-0.00164215 0.000491485 0.00049314 -5.28488e-05
-0.00162202 0.000485475 0.00048709 -5.28479e-05
-0.00097246 0.000289834 0.000292554 -8.81182e-05
-0.000984569 0.000293419 0.000296207 -8.81201e-05
-0.00163208 0.00048848 0.000490115 -5.28483e-05
-0.00129728 0.000387618 0.000389853 -7.26817e-05
-0.000978514 0.000291627 0.00029438 -8.81192e-05
-0.0013134 0.000392415 0.000394706 -7.26831e-05
-0.00130534 0.000390017 0.00039228 -7.26824e-05
-0.00162202 0.000485475 0.00048709 -5.28479e-05
-0.00160189 0.000479465 0.000481039 -5.2847e-05
-0.000960352 0.000286249 0.000288901 -8.81163e-05
-0.00097246 0.000289834 0.000292554 -8.81182e-05
-0.00161195 0.00048247 0.000484064 -5.28474e-05
-0.00128116 0.000382822 0.000385001 -7.26803e-05
-0.000966405 0.000288042 0.000290727 -8.81172e-05
-0.00129728 0.000387618 0.000389853 -7.26817e-05
-0.00128922 0.00038522 0.000387427 -7.2681e-05
-0.00160189 0.000479465 0.000481039 -5.2847e-05
-0.00158176 0.000473456 0.00047499 -5.28462e-05
-0.000948245 0.000282664 0.000285249 -8.81144e-05
-0.000960352 0.000286249 0.000288901 -8.81163e-05
-0.00159183 0.00047646 0.000478015 -5.28466e-05
-0.00126504 0.000378025 0.00038015 -7.26789e-05
-0.000954298 0.000284456 0.000287075 -8.81153e-05
-0.00128116 0.000382822 0.000385001 -7.26803e-05
-0.0012731 0.000380423 0.000382575 -7.26796e-05
-0.00158176 0.000473456 0.00047499 -5.28462e-05
-0.00156164 0.000467446 0.000468941 -5.28453e-05
-0.000936139 0.000279078 0.000281598 -8.81125e-05
-0.000948245 0.000282664 0.000285249 -8.81144e-05
-0.0015717 0.000470451 0.000471965 -5.28457e-05
-0.00124892 0.000373228 0.000375299 -7.26776e-05
-0.000942192 0.000280871 0.000283423 -8.81134e-05
-0.00126504 0.000378025 0.00038015 -7.26789e-05
-0.00125698 0.000375626 0.000377724 -7.26782e-05
-0.00156164 0.000467446 0.000468941 -5.28453e-05
-0.00154152 0.000461436 0.000462892 -5.28445e-05
-0.000924034 0.000275492 0.000277947 -8.81107e-05
-0.000936139 0.000279078 0.000281598 -8.81125e-05
-0.00155158 0.000464441 0.000465916 -5.28449e-05
-0.00123281 0.000368431 0.000370448 -7.26762e-05
-0.000930086 0.000277285 0.000279772 -8.81116e-05
-0.00124892 0.000373228 0.000375299 -7.26776e-05
-0.00124087 0.000370829 0.000372873 -7.26769e-05
-0.00154152 0.000461436 0.000462892 -5.28445e-05
-0.00152139 0.000455426 0.000456844 -5.28437e-05
-0.00091193 0.000271905 0.000274296 -8.81088e-05
-0.000924034 0.000275492 0.000277947 -8.81107e-05
-0.00153146 0.000458431 0.000459868 -5.28441e-05
-0.0012167 0.000363634 0.000365598 -7.26749e-05
-0.000917982 0.000273699 0.000276122 -8.81097e-05
-0.00123281 0.000368431 0.000370448 -7.26762e-05
-0.00122475 0.000366032 0.000368023 -7.26756e-05
-0.00152139 0.000455426 0.000456844 -5.28437e-05
-0.00150127 0.000449416 0.000450796 -5.28429e-05
-0.000899828 0.000268319 0.000270647 -8.8107e-05
-0.00091193 0.000271905 0.000274296 -8.81088e-05
-0.00151133 0.000452421 0.00045382 -5.28433e-05
-0.00120058 0.000358836 0.000360749 -7.26736e-05
-0.000905879 0.000270112 0.000272472 -8.81079e-05
-0.0012167 0.000363634 0.000365598 -7.26749e-05
-0.00120864 0.000361235 0.000363173 -7.26743e-05
-0.00150127 0.000449416 0.000450796 -5.28429e-05
-0.00148115 0.000443406 0.000444749 -5.28421e-05
-0.000887726 0.000264732 0.000266998 -8.81052e-05
-0.000899828 0.000268319 0.000270647 -8.8107e-05
-0.00149121 0.000446411 0.000447772 -5.28425e-05
-0.00118447 0.000354039 0.0003559 -7.26723e-05
-0.000893777 0.000266525 0.000268822 -8.81061e-05
-0.00120058 0.000358836 0.000360749 -7.26736e-05
-0.00119253 0.000356437 0.000358324 -7.2673e-05
-0.00148115 0.000443406 0.000444749 -5.28421e-05
-0.00146103 0.000437396 0.000438702 -5.28413e-05
-0.000875626 0.000261145 0.000263349 -8.81035e-05
-0.000887726 0.000264732 0.000266998 -8.81052e-05
-0.00147109 0.000440401 0.000441725 -5.28417e-05
-0.00116836 0.000349241 0.000351051 -7.26711e-05
-0.000881676 0.000262938 0.000265173 -8.81043e-05
-0.00118447 0.000354039 0.0003559 -7.26723e-05
-0.00117642 0.00035164 0.000353475 -7.26717e-05
-0.00146103 0.000437396 0.000438702 -5.28413e-05
-0.00144092 0.000431386 0.000432656 -5.28406e-05
-0.000863526 0.000257557 0.000259701 -8.81017e-05
-0.000875626 0.000261145 0.000263349 -8.81035e-05
-0.00145097 0.000434391 0.000435679 -5.28409e-05
-0.00115225 0.000344443 0.000346203 -7.26698e-05
-0.000869576 0.000259351 0.000261525 -8.81026e-05
-0.00116836 0.000349241 0.000351051 -7.26711e-05
-0.00116031 0.000346842 0.000348627 -7.26705e-05
-0.00144092 0.000431386 0.000432656 -5.28406e-05
-0.0014208 0.000425376 0.00042661 -5.28398e-05
-0.000851428 0.00025397 0.000256054 -8.81e-05
-0.000863526 0.000257557 0.000259701 -8.81017e-05
-0.00143086 0.000428381 0.000429633 -5.28402e-05
-0.00113614 0.000339645 0.000341356 -7.26686e-05
-0.000857477 0.000255764 0.000257877 -8.81009e-05
-0.00115225 0.000344443 0.000346203 -7.26698e-05
-0.0011442 0.000342044 0.00034378 -7.26692e-05
-0.0014208 0.000425376 0.00042661 -5.28398e-05
-0.00140068 0.000419366 0.000420564 -5.28391e-05
-0.000839331 0.000250382 0.000252407 -8.80983e-05
-0.000851428 0.00025397 0.000256054 -8.81e-05
-0.00141074 0.000422371 0.000423587 -5.28395e-05
-0.00112004 0.000334847 0.000336509 -7.26674e-05
-0.000845379 0.000252176 0.00025423 -8.80992e-05
-0.00113614 0.000339645 0.000341356 -7.26686e-05
-0.00112809 0.000337246 0.000338933 -7.2668e-05
-0.00140068 0.000419366 0.000420564 -5.28391e-05
-0.00138057 0.000413356 0.00041452 -5.28384e-05
-0.000827234 0.000246794 0.00024876 -8.80966e-05
-0.000839331 0.000250382 0.000252407 -8.80983e-05
-0.00139063 0.000416361 0.000417542 -5.28387e-05
-0.00110393 0.000330048 0.000331663 -7.26662e-05
-0.000833282 0.000248588 0.000250583 -8.80975e-05
-0.00112004 0.000334847 0.000336509 -7.26674e-05
-0.00111198 0.000332447 0.000334086 -7.26668e-05
-0.00138057 0.000413356 0.00041452 -5.28384e-05
-0.00136045 0.000407345 0.000408475 -5.28377e-05
-0.000815139 0.000243205 0.000245115 -8.8095e-05
-0.000827234 0.000246794 0.00024876 -8.80966e-05
-0.00137051 0.00041035 0.000411497 -5.2838e-05
-0.00108782 0.00032525 0.000326817 -7.26651e-05
-0.000821187 0.000245 0.000246937 -8.80958e-05
-0.00110393 0.000330048 0.000331663 -7.26662e-05
-0.00109588 0.000327649 0.00032924 -7.26657e-05
-0.00136045 0.000407345 0.000408475 -5.28377e-05
-0.00134034 0.000401335 0.000402431 -5.2837e-05
-0.000803045 0.000239616 0.000241469 -8.80934e-05
-0.000815139 0.000243205 0.000245115 -8.8095e-05
-0.0013504 0.00040434 0.000405453 -5.28373e-05
-0.00107172 0.000320451 0.000321972 -7.26639e-05
-0.000809092 0.000241411 0.000243292 -8.80942e-05
-0.00108782 0.00032525 0.000326817 -7.26651e-05
-0.00107977 0.00032285 0.000324395 -7.26645e-05
-0.00134034 0.000401335 0.000402431 -5.2837e-05
-0.00132023 0.000395325 0.000396388 -5.28363e-05
-0.000790952 0.000236027 0.000237825 -8.80918e-05
-0.000803045 0.000239616 0.000241469 -8.80934e-05
-0.00133029 0.00039833 0.00039941 -5.28366e-05
-0.00105562 0.000315652 0.000317127 -7.26628e-05
-0.000796998 0.000237822 0.000239647 -8.80926e-05
-0.00107172 0.000320451 0.000321972 -7.26639e-05
-0.00106367 0.000318052 0.00031955 -7.26634e-05
-0.00132023 0.000395325 0.000396388 -5.28363e-05
-0.00130012 0.000389315 0.000390345 -5.28357e-05
-0.00077886 0.000232438 0.000234181 -8.80902e-05
-0.000790952 0.000236027 0.000237825 -8.80918e-05
-0.00131017 0.00039232 0.000393366 -5.2836e-05
-0.00103951 0.000310853 0.000312283 -7.26617e-05
-0.000784906 0.000234233 0.000236003 -8.8091e-05
-0.00105562 0.000315652 0.000317127 -7.26628e-05
-0.00104757 0.000313253 0.000314705 -7.26623e-05
-0.00130012 0.000389315 0.000390345 -5.28357e-05
-0.00128001 0.000383305 0.000384302 -5.2835e-05
-0.000766769 0.000228849 0.000230537 -8.80887e-05
-0.00077886 0.000232438 0.000234181 -8.80902e-05
-0.00129006 0.00038631 0.000387324 -5.28353e-05
-0.00102341 0.000306054 0.00030744 -7.26606e-05
-0.000772814 0.000230643 0.000232359 -8.80894e-05
-0.00103951 0.000310853 0.000312283 -7.26617e-05
-0.00103146 0.000308454 0.000309861 -7.26612e-05
-0.00128001 0.000383305 0.000384302 -5.2835e-05
-0.0012599 0.000377294 0.00037826 -5.28344e-05
-0.000754678 0.000225259 0.000226894 -8.80872e-05
-0.000766769 0.000228849 0.000230537 -8.80887e-05
-0.00126996 0.000380299 0.000381281 -5.28347e-05
-0.00100731 0.000301255 0.000302597 -7.26596e-05
-0.000760723 0.000227054 0.000228716 -8.80879e-05
-0.00102341 0.000306054 0.00030744 -7.26606e-05
-0.00101536 0.000303654 0.000305018 -7.26601e-05
-0.0012599 0.000377294 0.00037826 -5.28344e-05
-0.00123979 0.000371284 0.000372219 -5.28338e-05
-0.000742589 0.000221669 0.000223252 -8.80857e-05
-0.000754678 0.000225259 0.000226894 -8.80872e-05
-0.00124985 0.000374289 0.00037524 -5.28341e-05
-0.000991214 0.000296455 0.000297754 -7.26586e-05
-0.000748634 0.000223464 0.000225073 -8.80864e-05
-0.00100731 0.000301255 0.000302597 -7.26596e-05
-0.000999264 0.000298855 0.000300175 -7.26591e-05
-0.00123979 0.000371284 0.000372219 -5.28338e-05
-0.00121969 0.000365274 0.000366178 -5.28332e-05
-0.000730501 0.000218078 0.00021961 -8.80842e-05
-0.000742589 0.000221669 0.000223252 -8.80857e-05
-0.00122974 0.000368279 0.000369198 -5.28335e-05
-0.000975116 0.000291655 0.000292912 -7.26576e-05
-0.000736545 0.000219873 0.000221431 -8.80849e-05
-0.000991214 0.000296455 0.000297754 -7.26586e-05
-0.000983165 0.000294055 0.000295333 -7.26581e-05
-0.00121969 0.000365274 0.000366178 -5.28332e-05
-0.00119958 0.000359263 0.000360137 -5.28326e-05
-0.000718414 0.000214487 0.000215969 -8.80828e-05
-0.000730501 0.000218078 0.00021961 -8.80842e-05
-0.00120964 0.000362268 0.000363157 -5.28329e-05
-0.00095902 0.000286855 0.00028807 -7.26566e-05
-0.000724458 0.000216283 0.000217789 -8.80835e-05
-0.000975116 0.000291655 0.000292912 -7.26576e-05
-0.000967068 0.000289255 0.000290491 -7.26571e-05
-0.00119958 0.000359263 0.000360137 -5.28326e-05
-0.00117948 0.000353253 0.000354097 -5.28321e-05
-0.000706328 0.000210896 0.000212328 -8.80814e-05
-0.000718414 0.000214487 0.000215969 -8.80828e-05
-0.00118953 0.000356258 0.000357117 -5.28323e-05
-0.000942924 0.000282055 0.000283229 -7.26556e-05
-0.000712371 0.000212692 0.000214148 -8.80821e-05
-0.00095902 0.000286855 0.00028807 -7.26566e-05
-0.000950972 0.000284455 0.00028565 -7.26561e-05
-0.00117948 0.000353253 0.000354097 -5.28321e-05
-0.00115938 0.000347242 0.000348057 -5.28315e-05
-0.000694243 0.000207305 0.000208688 -8.808e-05
-0.000706328 0.000210896 0.000212328 -8.80814e-05
-0.00116943 0.000350247 0.000351077 -5.28318e-05
-0.000926829 0.000277255 0.000278389 -7.26547e-05
-0.000700286 0.000209101 0.000210508 -8.80807e-05
-0.000942924 0.000282055 0.000283229 -7.26556e-05
-0.000934876 0.000279655 0.000280809 -7.26551e-05
-0.00115938 0.000347242 0.000348057 -5.28315e-05
-0.00113927 0.000341232 0.000342018 -5.2831e-05
-0.000682159 0.000203714 0.000205048 -8.80786e-05
-0.000694243 0.000207305 0.000208688 -8.808e-05
-0.00114932 0.000344237 0.000345037 -5.28313e-05
-0.000910735 0.000272455 0.000273549 -7.26538e-05
-0.000688201 0.000205509 0.000206868 -8.80793e-05
-0.000926829 0.000277255 0.000278389 -7.26547e-05
-0.000918782 0.000274855 0.000275969 -7.26542e-05
-0.00113927 0.000341232 0.000342018 -5.2831e-05
-0.00111917 0.000335221 0.000335979 -5.28305e-05
-0.000670076 0.000200122 0.000201409 -8.80773e-05
-0.000682159 0.000203714 0.000205048 -8.80786e-05
-0.00112922 0.000338226 0.000338998 -5.28307e-05
-0.000894642 0.000267654 0.000268709 -7.26529e-05
-0.000676118 0.000201918 0.000203229 -8.8078e-05
-0.000910735 0.000272455 0.000273549 -7.26538e-05
-0.000902689 0.000270054 0.000271129 -7.26533e-05
-0.00111917 0.000335221 0.000335979 -5.28305e-05
-0.00109907 0.00032921 0.000329941 -5.283e-05
-0.000657994 0.00019653 0.000197771 -8.8076e-05
-0.000670076 0.000200122 0.000201409 -8.80773e-05
-0.00110912 0.000332216 0.00033296 -5.28302e-05
-0.000878551 0.000262853 0.00026387 -7.2652e-05
-0.000664035 0.000198326 0.00019959 -8.80767e-05
-0.000894642 0.000267654 0.000268709 -7.26529e-05
-0.000886596 0.000265254 0.00026629 -7.26524e-05
-0.00109907 0.00032921 0.000329941 -5.283e-05
-0.00107897 0.0003232 0.000323903 -5.28295e-05
-0.000645913 0.000192937 0.000194133 -8.80748e-05
-0.000657994 0.00019653 0.000197771 -8.8076e-05
-0.00108902 0.000326205 0.000326922 -5.28298e-05
-0.00086246 0.000258052 0.000259032 -7.26511e-05
-0.000651954 0.000194733 0.000195952 -8.80754e-05
-0.000878551 0.000262853 0.00026387 -7.2652e-05
-0.000870505 0.000260453 0.000261451 -7.26516e-05
-0.00107897 0.0003232 0.000323903 -5.28295e-05
-0.00105887 0.000317189 0.000317865 -5.28291e-05
-0.000633833 0.000189344 0.000190495 -8.80736e-05
-0.000645913 0.000192937 0.000194133 -8.80748e-05
-0.00106892 0.000320194 0.000320884 -5.28293e-05
-0.00084637 0.000253251 0.000254194 -7.26503e-05
-0.000639873 0.000191141 0.000192314 -8.80742e-05
-0.00086246 0.000258052 0.000259032 -7.26511e-05
-0.000854415 0.000255652 0.000256613 -7.26507e-05
-0.00105887 0.000317189 0.000317865 -5.28291e-05
-0.00103878 0.000311178 0.000311828 -5.28286e-05
-0.000621754 0.000185751 0.000186858 -8.80724e-05
-0.000633833 0.000189344 0.000190495 -8.80736e-05
-0.00104883 0.000314183 0.000314847 -5.28289e-05
-0.000830281 0.00024845 0.000249356 -7.26495e-05
-0.000627793 0.000187548 0.000188677 -8.8073e-05
-0.00084637 0.000253251 0.000254194 -7.26503e-05
-0.000838326 0.00025085 0.000251775 -7.26499e-05
-0.00103878 0.000311178 0.000311828 -5.28286e-05
-0.00101868 0.000305167 0.000305792 -5.28282e-05
-0.000609676 0.000182158 0.000183222 -8.80712e-05
-0.000621754 0.000185751 0.000186858 -8.80724e-05
-0.00102873 0.000308172 0.00030881 -5.28284e-05
-0.000814194 0.000243648 0.000244519 -7.26488e-05
-0.000615715 0.000183955 0.00018504 -8.80718e-05
-0.000830281 0.00024845 0.000249356 -7.26495e-05
-0.000822237 0.000246049 0.000246938 -7.26492e-05
-0.00101868 0.000305167 0.000305792 -5.28282e-05
-0.000998585 0.000299156 0.000299755 -5.28278e-05
-0.000597599 0.000178564 0.000179586 -8.80701e-05
-0.000609676 0.000182158 0.000183222 -8.80712e-05
-0.00100863 0.000302162 0.000302774 -5.2828e-05
-0.000798107 0.000238847 0.000239683 -7.2648e-05
-0.000603637 0.000180361 0.000181404 -8.80706e-05
-0.000814194 0.000243648 0.000244519 -7.26488e-05
-0.00080615 0.000241247 0.000242101 -7.26484e-05
-0.000998585 0.000299156 0.000299755 -5.28278e-05
-0.000978491 0.000293145 0.00029372 -5.28275e-05
-0.000585523 0.000174971 0.000175951 -8.8069e-05
-0.000597599 0.000178564 0.000179586 -8.80701e-05
-0.000988538 0.000296151 0.000296738 -5.28276e-05
-0.000782021 0.000234045 0.000234847 -7.26473e-05
-0.000591561 0.000176768 0.000177768 -8.80695e-05
-0.000798107 0.000238847 0.000239683 -7.2648e-05
-0.000790064 0.000236446 0.000237265 -7.26477e-05
-0.000978491 0.000293145 0.00029372 -5.28275e-05
-0.000958398 0.000287134 0.000287684 -5.28271e-05
-0.000573447 0.000171376 0.000172316 -8.80679e-05
-0.000585523 0.000174971 0.000175951 -8.8069e-05
-0.000968444 0.000290139 0.000290702 -5.28273e-05
-0.000765936 0.000229242 0.000230012 -7.26466e-05
-0.000579485 0.000173174 0.000174133 -8.80684e-05
-0.000782021 0.000234045 0.000234847 -7.26473e-05
-0.000773978 0.000231644 0.000232429 -7.2647e-05
-0.000958398 0.000287134 0.000287684 -5.28271e-05
-0.000938305 0.000281123 0.00028165 -5.28268e-05
-0.000561373 0.000167782 0.000168682 -8.80668e-05
-0.000573447 0.000171376 0.000172316 -8.80679e-05
-0.000948351 0.000284128 0.000284667 -5.28269e-05
-0.000749852 0.00022444 0.000225177 -7.2646e-05
-0.00056741 0.000169579 0.000170499 -8.80674e-05
-0.000765936 0.000229242 0.000230012 -7.26466e-05
-0.000757894 0.000226841 0.000227594 -7.26463e-05
-0.000938305 0.000281123 0.00028165 -5.28268e-05
-0.000918214 0.000275111 0.000275615 -5.28264e-05
-0.0005493 0.000164187 0.000165048 -8.80658e-05
-0.000561373 0.000167782 0.000168682 -8.80668e-05
-0.000928259 0.000278117 0.000278632 -5.28266e-05
-0.000733769 0.000219638 0.000220342 -7.26453e-05
-0.000555336 0.000165984 0.000166865 -8.80663e-05
-0.000749852 0.00022444 0.000225177 -7.2646e-05
-0.000741811 0.000222039 0.000222759 -7.26456e-05
-0.000918214 0.000275111 0.000275615 -5.28264e-05
-0.000898123 0.0002691 0.000269581 -5.28261e-05
-0.000537228 0.000160592 0.000161415 -8.80649e-05
-0.0005493 0.000164187 0.000165048 -8.80658e-05
-0.000908168 0.000272106 0.000272598 -5.28263e-05
-0.000717687 0.000214835 0.000215508 -7.26447e-05
-0.000543264 0.00016239 0.000163232 -8.80653e-05
-0.000733769 0.000219638 0.000220342 -7.26453e-05
-0.000725728 0.000217236 0.000217925 -7.2645e-05
-0.000898123 0.0002691 0.000269581 -5.28261e-05
-0.000878033 0.000263089 0.000263548 -5.28259e-05
-0.000525156 0.000156997 0.000157783 -8.80639e-05
-0.000537228 0.000160592 0.000161415 -8.80649e-05
-0.000888078 0.000266094 0.000266564 -5.2826e-05
-0.000701606 0.000210032 0.000210675 -7.26441e-05
-0.000531192 0.000158794 0.000159599 -8.80644e-05
-0.000717687 0.000214835 0.000215508 -7.26447e-05
-0.000709647 0.000212434 0.000213091 -7.26444e-05
-0.000878033 0.000263089 0.000263548 -5.28259e-05
-0.000857944 0.000257077 0.000257514 -5.28256e-05
-0.000513086 0.000153401 0.000154151 -8.8063e-05
-0.000525156 0.000156997 0.000157783 -8.80639e-05
-0.000867989 0.000260083 0.000260531 -5.28257e-05
-0.000685526 0.000205229 0.000205842 -7.26436e-05
-0.000519121 0.000155199 0.000155967 -8.80635e-05
-0.000701606 0.000210032 0.000210675 -7.26441e-05
-0.000693566 0.000207631 0.000208258 -7.26439e-05
-0.000857944 0.000257077 0.000257514 -5.28256e-05
-0.000837856 0.000251066 0.000251482 -5.28254e-05
-0.000501016 0.000149805 0.000150519 -8.80621e-05
-0.000513086 0.000153401 0.000154151 -8.8063e-05
-0.0008479 0.000254072 0.000254498 -5.28255e-05
-0.000669447 0.000200426 0.000201009 -7.26431e-05
-0.000507051 0.000151603 0.000152335 -8.80626e-05
-0.000685526 0.000205229 0.000205842 -7.26436e-05
-0.000677486 0.000202827 0.000203425 -7.26433e-05
-0.000837856 0.000251066 0.000251482 -5.28254e-05
-0.000817769 0.000245054 0.000245449 -5.28251e-05
-0.000488948 0.000146208 0.000146888 -8.80613e-05
-0.000501016 0.000149805 0.000150519 -8.80621e-05
-0.000827813 0.00024806 0.000248466 -5.28252e-05
-0.000653369 0.000195622 0.000196177 -7.26426e-05
-0.000494982 0.000148007 0.000148704 -8.80617e-05
-0.000669447 0.000200426 0.000201009 -7.26431e-05
-0.000661408 0.000198024 0.000198593 -7.26428e-05
-0.000817769 0.000245054 0.000245449 -5.28251e-05
-0.000797683 0.000239042 0.000239418 -5.28249e-05
-0.00047688 0.000142612 0.000143258 -8.80605e-05
-0.000488948 0.000146208 0.000146888 -8.80613e-05
-0.000807726 0.000242048 0.000242433 -5.2825e-05
-0.000637291 0.000190818 0.000191346 -7.26421e-05
-0.000482914 0.00014441 0.000145073 -8.80609e-05
-0.000653369 0.000195622 0.000196177 -7.26426e-05
-0.00064533 0.00019322 0.000193761 -7.26423e-05
-0.000797683 0.000239042 0.000239418 -5.28249e-05
-0.000777598 0.000233031 0.000233386 -5.28248e-05
-0.000464813 0.000139015 0.000139628 -8.80597e-05
-0.00047688 0.000142612 0.000143258 -8.80605e-05
-0.000787641 0.000236036 0.000236402 -5.28248e-05
-0.000621215 0.000186014 0.000186514 -7.26417e-05
-0.000470846 0.000140813 0.000141443 -8.80601e-05
-0.000637291 0.000190818 0.000191346 -7.26421e-05
-0.000629253 0.000188416 0.00018893 -7.26419e-05
-0.000777598 0.000233031 0.000233386 -5.28248e-05
-0.000757514 0.000227019 0.000227355 -5.28246e-05
-0.000452747 0.000135418 0.000135998 -8.8059e-05
-0.000464813 0.000139015 0.000139628 -8.80597e-05
-0.000767556 0.000230025 0.00023037 -5.28247e-05
-0.000605139 0.00018121 0.000181684 -7.26412e-05
-0.00045878 0.000137216 0.000137813 -8.80593e-05
-0.000621215 0.000186014 0.000186514 -7.26417e-05
-0.000613177 0.000183612 0.000184099 -7.26414e-05
-0.000757514 0.000227019 0.000227355 -5.28246e-05
-0.00073743 0.000221007 0.000221324 -5.28245e-05
-0.000440682 0.00013182 0.00013237 -8.80583e-05
-0.000452747 0.000135418 0.000135998 -8.8059e-05
-0.000747472 0.000224013 0.00022434 -5.28245e-05
-0.000589065 0.000176406 0.000176854 -7.26409e-05
-0.000446715 0.000133619 0.000134184 -8.80586e-05
-0.000605139 0.00018121 0.000181684 -7.26412e-05
-0.000597102 0.000178808 0.000179269 -7.2641e-05
-0.00073743 0.000221007 0.000221324 -5.28245e-05
-0.000717347 0.000214995 0.000215294 -5.28243e-05
-0.000428618 0.000128222 0.000128741 -8.80576e-05
-0.000440682 0.00013182 0.00013237 -8.80583e-05
-0.000727389 0.000218001 0.000218309 -5.28244e-05
-0.000572991 0.000171601 0.000172024 -7.26405e-05
-0.00043465 0.000130021 0.000130555 -8.80579e-05
-0.000589065 0.000176406 0.000176854 -7.26409e-05
-0.000581028 0.000174004 0.000174439 -7.26407e-05
-0.000717347 0.000214995 0.000215294 -5.28243e-05
-0.000697266 0.000208982 0.000209264 -5.28242e-05
-0.000416555 0.000124624 0.000125113 -8.8057e-05
-0.000428618 0.000128222 0.000128741 -8.80576e-05
-0.000707306 0.000211988 0.000212279 -5.28243e-05
-0.000556918 0.000166797 0.000167195 -7.26402e-05
-0.000422587 0.000126423 0.000126927 -8.80573e-05
-0.000572991 0.000171601 0.000172024 -7.26405e-05
-0.000564954 0.000169199 0.000169609 -7.26403e-05
-0.000697266 0.000208982 0.000209264 -5.28242e-05
-0.000677185 0.00020297 0.000203235 -5.28242e-05
-0.000404493 0.000121025 0.000121486 -8.80564e-05
-0.000416555 0.000124624 0.000125113 -8.8057e-05
-0.000687225 0.000205976 0.000206249 -5.28242e-05
-0.000540846 0.000161991 0.000162366 -7.26399e-05
-0.000410524 0.000122825 0.0001233 -8.80567e-05
-0.000556918 0.000166797 0.000167195 -7.26402e-05
-0.000548882 0.000164394 0.00016478 -7.264e-05
-0.000677185 0.00020297 0.000203235 -5.28242e-05
-0.000657104 0.000196958 0.000197206 -5.28241e-05
-0.000392432 0.000117427 0.000117859 -8.80558e-05
-0.000404493 0.000121025 0.000121486 -8.80564e-05
-0.000667144 0.000199964 0.00020022 -5.28241e-05
-0.000524775 0.000157186 0.000157538 -7.26396e-05
-0.000398462 0.000119226 0.000119673 -8.80561e-05
-0.000540846 0.000161991 0.000162366 -7.26399e-05
-0.00053281 0.000159589 0.000159952 -7.26397e-05
-0.000657104 0.000196958 0.000197206 -5.28241e-05
-0.000637025 0.000190945 0.000191177 -5.28241e-05
-0.000380371 0.000113827 0.000114233 -8.80553e-05
-0.000392432 0.000117427 0.000117859 -8.80558e-05
-0.000647065 0.000193951 0.000194191 -5.28241e-05
-0.000508705 0.000152381 0.00015271 -7.26393e-05
-0.000386402 0.000115627 0.000116046 -8.80555e-05
-0.000524775 0.000157186 0.000157538 -7.26396e-05
-0.00051674 0.000154784 0.000155124 -7.26395e-05
-0.000637025 0.000190945 0.000191177 -5.28241e-05
-0.000616947 0.000184933 0.000185149 -5.2824e-05
-0.000368312 0.000110228 0.000110607 -8.80547e-05
-0.000380371 0.000113827 0.000114233 -8.80553e-05
-0.000626986 0.000187939 0.000188163 -5.28241e-05
-0.000492635 0.000147575 0.000147883 -7.26391e-05
-0.000374342 0.000112028 0.00011242 -8.8055e-05
-0.000508705 0.000152381 0.00015271 -7.26393e-05
-0.00050067 0.000149978 0.000150297 -7.26392e-05
-0.000616947 0.000184933 0.000185149 -5.2824e-05
-0.000596869 0.00017892 0.000179121 -5.2824e-05
-0.000356253 0.000106628 0.000106982 -8.80543e-05
-0.000368312 0.000110228 0.000110607 -8.80547e-05
-0.000606908 0.000181926 0.000182135 -5.2824e-05
-0.000476567 0.000142769 0.000143056 -7.26389e-05
-0.000362282 0.000108428 0.000108795 -8.80545e-05
-0.000492635 0.000147575 0.000147883 -7.26391e-05
-0.000484601 0.000145172 0.000145469 -7.2639e-05
-0.000596869 0.00017892 0.000179121 -5.2824e-05
-0.000576792 0.000172907 0.000173094 -5.2824e-05
-0.000344195 0.000103028 0.000103357 -8.80538e-05
-0.000356253 0.000106628 0.000106982 -8.80543e-05
-0.00058683 0.000175913 0.000176107 -5.2824e-05
-0.000460499 0.000137963 0.00013823 -7.26387e-05
-0.000350224 0.000104828 0.00010517 -8.8054e-05
-0.000476567 0.000142769 0.000143056 -7.26389e-05
-0.000468533 0.000140366 0.000140643 -7.26388e-05
-0.000576792 0.000172907 0.000173094 -5.2824e-05
-0.000556716 0.000166894 0.000167067 -5.2824e-05
-0.000332138 9.94273e-05 9.97333e-05 -8.80533e-05
-0.000344195 0.000103028 0.000103357 -8.80538e-05
-0.000566754 0.0001699 0.00017008 -5.2824e-05
-0.000444432 0.000133156 0.000133404 -7.26384e-05
-0.000338167 0.000101228 0.000101545 -8.80535e-05
-0.000460499 0.000137963 0.00013823 -7.26387e-05
-0.000452465 0.00013556 0.000135817 -7.26385e-05
-0.000556716 0.000166894 0.000167067 -5.2824e-05
-0.000536641 0.000160881 0.00016104 -5.28239e-05
-0.000320082 9.58264e-05 9.61096e-05 -8.80528e-05
-0.000332138 9.94273e-05 9.97333e-05 -8.80533e-05
-0.000546678 0.000163887 0.000164053 -5.28239e-05
-0.000428366 0.00012835 0.000128578 -7.26382e-05
-0.00032611 9.76269e-05 9.79214e-05 -8.8053e-05
-0.000444432 0.000133156 0.000133404 -7.26384e-05
-0.000436399 0.000130753 0.000130991 -7.26383e-05
-0.000536641 0.000160881 0.00016104 -5.28239e-05
-0.000516566 0.000154868 0.000155014 -5.28238e-05
-0.000308027 9.22251e-05 9.24865e-05 -8.80523e-05
-0.000320082 9.58264e-05 9.61096e-05 -8.80528e-05
-0.000526603 0.000157874 0.000158027 -5.28239e-05
-0.000412301 0.000123543 0.000123753 -7.26379e-05
-0.000314054 9.40258e-05 9.4298e-05 -8.80525e-05
-0.000428366 0.00012835 0.000128578 -7.26382e-05
-0.000420333 0.000125946 0.000126166 -7.26381e-05
-0.000516566 0.000154868 0.000155014 -5.28238e-05
-0.000496493 0.000148854 0.000148988 -5.28237e-05
-0.000295972 8.86235e-05 8.88638e-05 -8.80517e-05
-0.000308027 9.22251e-05 9.24865e-05 -8.80523e-05
-0.000506529 0.000151861 0.000152001 -5.28237e-05
-0.000396236 0.000118736 0.000118929 -7.26376e-05
-0.000302 9.04244e-05 9.06751e-05 -8.8052e-05
-0.000412301 0.000123543 0.000123753 -7.26379e-05
-0.000404269 0.000121139 0.000121341 -7.26377e-05
-0.000496493 0.000148854 0.000148988 -5.28237e-05
-0.00047642 0.000142841 0.000142962 -5.28235e-05
-0.000283919 8.50215e-05 8.52417e-05 -8.80511e-05
-0.000295972 8.86235e-05 8.88638e-05 -8.80517e-05
-0.000486456 0.000145848 0.000145975 -5.28236e-05
-0.000380173 0.000113928 0.000114105 -7.26372e-05
-0.000289945 8.68225e-05 8.70527e-05 -8.80514e-05
-0.000396236 0.000118736 0.000118929 -7.26376e-05
-0.000388205 0.000116332 0.000116517 -7.26374e-05
-0.00047642 0.000142841 0.000142962 -5.28235e-05
-0.000456348 0.000136827 0.000136937 -5.28232e-05
-0.000271866 8.14192e-05 8.162e-05 -8.80505e-05
-0.000283919 8.50215e-05 8.52417e-05 -8.80511e-05
-0.000466384 0.000139834 0.00013995 -5.28234e-05
-0.00036411 0.000109121 0.000109281 -7.26368e-05
-0.000277892 8.32204e-05 8.34308e-05 -8.80508e-05
-0.000380173 0.000113928 0.000114105 -7.26372e-05
-0.000372141 0.000111524 0.000111693 -7.2637e-05
-0.000456348 0.000136827 0.000136937 -5.28232e-05
-0.000436277 0.000130814 0.000130913 -5.2823e-05
-0.000259814 7.78166e-05 7.79988e-05 -8.80498e-05
-0.000271866 8.14192e-05 8.162e-05 -8.80505e-05
-0.000446312 0.000133821 0.000133925 -5.28231e-05
-0.000348048 0.000104313 0.000104458 -7.26363e-05
-0.00026584 7.96179e-05 7.98093e-05 -8.80501e-05
-0.00036411 0.000109121 0.000109281 -7.26368e-05
-0.000356079 0.000106717 0.00010687 -7.26365e-05
-0.000436277 0.000130814 0.000130913 -5.2823e-05
-0.000416206 0.0001248 0.000124888 -5.28227e-05
-0.000247763 7.42138e-05 7.4378e-05 -8.80492e-05
-0.000259814 7.78166e-05 7.79988e-05 -8.80498e-05
-0.000426241 0.000127807 0.0001279 -5.28228e-05
-0.000331987 9.95047e-05 9.96354e-05 -7.26359e-05
-0.000253788 7.60152e-05 7.61884e-05 -8.80495e-05
-0.000348048 0.000104313 0.000104458 -7.26363e-05
-0.000340018 0.000101909 0.000102047 -7.26361e-05
-0.000416206 0.0001248 0.000124888 -5.28227e-05
-0.000396137 0.000118787 0.000118864 -5.28226e-05
-0.000235712 7.0611e-05 7.07577e-05 -8.80487e-05
-0.000247763 7.42138e-05 7.4378e-05 -8.80492e-05
-0.000406171 0.000121793 0.000121876 -5.28226e-05
-0.000315927 9.46967e-05 9.4813e-05 -7.26356e-05
-0.000241737 7.24124e-05 7.25678e-05 -8.80489e-05
-0.000331987 9.95047e-05 9.96354e-05 -7.26359e-05
-0.000323957 9.71007e-05 9.72242e-05 -7.26357e-05
-0.000396137 0.000118787 0.000118864 -5.28226e-05
-0.000376068 0.000112773 0.000112841 -5.28228e-05
-0.000223663 6.70085e-05 6.71377e-05 -8.80485e-05
-0.000235712 7.0611e-05 7.07577e-05 -8.80487e-05
-0.000386102 0.00011578 0.000115853 -5.28227e-05
-0.000299868 8.98888e-05 8.9991e-05 -7.26358e-05
-0.000229687 6.88097e-05 6.89476e-05 -8.80485e-05
-0.000315927 9.46967e-05 9.4813e-05 -7.26356e-05
-0.000307897 9.22927e-05 9.2402e-05 -7.26356e-05
-0.000376068 0.000112773 0.000112841 -5.28228e-05
-0.000356 0.000106759 0.000106817 -5.28237e-05
-0.000211615 6.34063e-05 6.3518e-05 -8.8049e-05
-0.000223663 6.70085e-05 6.71377e-05 -8.80485e-05
-0.000366034 0.000109766 0.000109829 -5.28232e-05
-0.00028381 8.50812e-05 8.51693e-05 -7.26366e-05
-0.000217639 6.52073e-05 6.53278e-05 -8.80486e-05
-0.000299868 8.98888e-05 8.9991e-05 -7.26358e-05
-0.000291839 8.7485e-05 8.75801e-05 -7.26361e-05
-0.000356 0.000106759 0.000106817 -5.28237e-05
-0.000335933 0.000100746 0.000100794 -5.28255e-05
-0.000199568 5.98048e-05 5.98986e-05 -8.80506e-05
-0.000211615 6.34063e-05 6.3518e-05 -8.8049e-05
-0.000345966 0.000103753 0.000103806 -5.28244e-05
-0.000267752 8.02739e-05 8.03479e-05 -7.26385e-05
-0.000205591 6.16055e-05 6.17083e-05 -8.80496e-05
-0.00028381 8.50812e-05 8.51693e-05 -7.26366e-05
-0.000275781 8.26775e-05 8.27585e-05 -7.26374e-05
-0.000335933 0.000100746 0.000100794 -5.28255e-05
-0.000315865 9.47325e-05 9.47712e-05 -5.28286e-05
-0.000187523 5.62038e-05 5.62796e-05 -8.80539e-05
-0.000199568 5.98048e-05 5.98986e-05 -8.80506e-05
-0.000325899 9.77393e-05 9.77827e-05 -5.28269e-05
-0.000251696 7.54667e-05 7.55267e-05 -7.2642e-05
-0.000193545 5.80043e-05 5.8089e-05 -8.8052e-05
-0.000267752 8.02739e-05 8.03479e-05 -7.26385e-05
-0.000259724 7.78703e-05 7.79372e-05 -7.264e-05
-0.000315865 9.47325e-05 9.47712e-05 -5.28286e-05
-0.000295798 8.87184e-05 8.87485e-05 -5.28329e-05
-0.000175478 5.26022e-05 5.26609e-05 -8.80599e-05
-0.000187523 5.62038e-05 5.62796e-05 -8.80539e-05
-0.000305832 9.17256e-05 9.17598e-05 -5.28307e-05
-0.000235639 7.06586e-05 7.0706e-05 -7.26471e-05
-0.0001815 5.44032e-05 5.44702e-05 -8.80565e-05
-0.000251696 7.54667e-05 7.55267e-05 -7.2642e-05
-0.000243668 7.30629e-05 7.31163e-05 -7.26444e-05
-0.000295798 8.87184e-05 8.87485e-05 -5.28329e-05
-0.00027573 8.2702e-05 8.27263e-05 -5.28376e-05
-0.000163431 4.89969e-05 4.90431e-05 -8.80696e-05
-0.000175478 5.26022e-05 5.26609e-05 -8.80599e-05
-0.000285764 8.57106e-05 8.57373e-05 -5.28353e-05
-0.000219581 6.58469e-05 6.58861e-05 -7.26534e-05
-0.000169455 5.08003e-05 5.08518e-05 -8.80642e-05
-0.000235639 7.06586e-05 7.0706e-05 -7.26471e-05
-0.000227611 6.82535e-05 6.82959e-05 -7.26501e-05
-0.00027573 8.2702e-05 8.27263e-05 -5.28376e-05
-0.00025566 7.66804e-05 7.67057e-05 -5.28382e-05
-0.000151375 4.53806e-05 4.5426e-05 -8.80844e-05
-0.000163431 4.89969e-05 4.90431e-05 -8.80696e-05
-0.000265695 7.96922e-05 7.97156e-05 -5.28388e-05
-0.000203517 6.10258e-05 6.10678e-05 -7.26584e-05
-0.000157405 4.71909e-05 4.72345e-05 -8.80762e-05
-0.000219581 6.58469e-05 6.58861e-05 -7.26534e-05
-0.00021155 6.34383e-05 6.34766e-05 -7.26565e-05
-0.00025566 7.66804e-05 7.67057e-05 -5.28382e-05
-0.000235585 7.0647e-05 7.06878e-05 -5.28272e-05
-0.000139298 4.17379e-05 4.18115e-05 -8.81051e-05
-0.000151375 4.53806e-05 4.5426e-05 -8.80844e-05
-0.000245624 7.36659e-05 7.36965e-05 -5.28348e-05
-0.000187438 5.61819e-05 5.62525e-05 -7.26558e-05
-0.000145339 4.35639e-05 4.36181e-05 -8.80942e-05
-0.000203517 6.10258e-05 6.10678e-05 -7.26584e-05
-0.00019548 5.86076e-05 5.86597e-05 -7.26584e-05
-0.000235585 7.0647e-05 7.06878e-05 -5.28272e-05
-0.000215505 6.45892e-05 6.46782e-05 -5.27823e-05
-0.000127167 3.80404e-05 3.81969e-05 -8.81346e-05
-0.000139298 4.17379e-05 4.18115e-05 -8.81051e-05
-0.000225545 6.7622e-05 6.76812e-05 -5.28112e-05
-0.000171323 5.12927e-05 5.14416e-05 -7.26323e-05
-0.000133243 3.98989e-05 4.00046e-05 -8.81184e-05
-0.000187438 5.61819e-05 5.62525e-05 -7.26558e-05
-0.000179386 5.37457e-05 5.3846e-05 -7.26486e-05
-0.000215505 6.45892e-05 6.46782e-05 -5.27823e-05
-0.000195401 5.84863e-05 5.86776e-05 -5.26727e-05
-0.000114937 3.42352e-05 3.45866e-05 -8.81713e-05
-0.000127167 3.80404e-05 3.81969e-05 -8.81346e-05
-0.000205459 6.15461e-05 6.16771e-05 -5.2738e-05
-0.000155134 4.6311e-05 4.66383e-05 -7.25626e-05
-0.000121066 3.6155e-05 3.63903e-05 -8.81527e-05
-0.000171323 5.12927e-05 5.14416e-05 -7.26323e-05
-0.000163241 4.88159e-05 4.90395e-05 -7.2604e-05
-0.000195401 5.84863e-05 5.86776e-05 -5.26727e-05
-0.000175278 5.22969e-05 5.27062e-05 -5.24184e-05
-0.00010249 3.02449e-05 3.09623e-05 -8.82274e-05
-0.000114937 3.42352e-05 3.45866e-05 -8.81713e-05
-0.000185337 5.54035e-05 5.5686e-05 -5.25715e-05
-0.000138803 4.11744e-05 4.18409e-05 -7.24048e-05
-0.000108754 3.22714e-05 3.27785e-05 -8.8195e-05
-0.000155134 4.6311e-05 4.66383e-05 -7.25626e-05
-0.000146991 4.37709e-05 4.42371e-05 -7.25017e-05
-0.000175278 5.22969e-05 5.27062e-05 -5.24184e-05
-0.00015505 4.59727e-05 4.67474e-05 -5.19381e-05
-8.97111e-05 2.59418e-05 2.73297e-05 -8.83002e-05
-0.00010249 3.02449e-05 3.09623e-05 -8.82274e-05
-0.000165192 4.91617e-05 4.97274e-05 -5.2212e-05
-0.000122192 3.57528e-05 3.70454e-05 -7.20987e-05
-9.6143e-05 2.81376e-05 2.91452e-05 -8.82636e-05
-0.000138803 4.11744e-05 4.18409e-05 -7.24048e-05
-0.000130545 3.85017e-05 3.94472e-05 -7.22681e-05
-0.00015505 4.59727e-05 4.67474e-05 -5.19381e-05
-0.000134739 3.93972e-05 4.08606e-05 -5.10168e-05
-7.6276e-05 2.12164e-05 2.3597e-05 -8.84636e-05
-8.97111e-05 2.59418e-05 2.73297e-05 -8.83002e-05
-0.000144887 4.27103e-05 4.379e-05 -5.15537e-05
-0.000105124 2.99474e-05 3.22184e-05 -7.15731e-05
-8.31152e-05 2.36466e-05 2.54865e-05 -8.83602e-05
-0.000122192 3.57528e-05 3.70454e-05 -7.20987e-05
-0.000113725 3.29204e-05 3.46304e-05 -7.18828e-05
-0.000134739 3.93972e-05 4.08606e-05 -5.10168e-05
-0.000113968 3.25397e-05 3.48981e-05 -4.95722e-05
-6.20495e-05 1.59475e-05 1.9758e-05 -8.87574e-05
-7.6276e-05 2.12164e-05 2.3597e-05 -8.84636e-05
-0.000124476 3.60403e-05 3.79009e-05 -5.03605e-05
-8.71925e-05 2.35214e-05 2.72876e-05 -7.08228e-05
-6.9239e-05 1.86299e-05 2.16896e-05 -8.85952e-05
-0.000105124 2.99474e-05 3.22184e-05 -7.15731e-05
-9.63069e-05 2.67919e-05 2.97921e-05 -7.11925e-05
-0.000113968 3.25397e-05 3.48981e-05 -4.95722e-05
-9.27694e-05 2.51233e-05 2.89912e-05 -4.72749e-05
-4.65224e-05 1.04951e-05 1.54403e-05 -8.95645e-05
-6.20495e-05 1.59475e-05 1.9758e-05 -8.87574e-05
-0.000103354 2.88339e-05 3.19372e-05 -4.85592e-05
-6.81365e-05 1.67045e-05 2.20423e-05 -7.0007e-05
-5.45348e-05 1.32344e-05 1.77002e-05 -8.905e-05
-8.71925e-05 2.35214e-05 2.72876e-05 -7.08228e-05
-7.77968e-05 2.01918e-05 2.46879e-05 -7.0462e-05
-9.27694e-05 2.51233e-05 2.89912e-05 -4.72749e-05
-6.96959e-05 1.77454e-05 2.22645e-05 -4.48162e-05
-3.0474e-05 5.7457e-06 1.05978e-05 -9.11185e-05
-4.65224e-05 1.04951e-05 1.54403e-05 -8.95645e-05
-8.17163e-05 2.15479e-05 2.57865e-05 -4.59891e-05
-4.71123e-05 9.76508e-06 1.60059e-05 -6.99727e-05
-3.83797e-05 7.82511e-06 1.30948e-05 -9.02408e-05
-6.81365e-05 1.67045e-05 2.20423e-05 -7.0007e-05
-5.79842e-05 1.30543e-05 1.92557e-05 -6.96797e-05
-6.96959e-05 1.77454e-05 2.22645e-05 -4.48162e-05
-4.49508e-05 1.04663e-05 1.4779e-05 -4.33292e-05
-1.49558e-05 5.58783e-06 4.01484e-06 -9.42895e-05
-3.0474e-05 5.7457e-06 1.05978e-05 -9.11185e-05
-5.72576e-05 1.3598e-05 1.87113e-05 -4.37817e-05
-2.53791e-05 6.44874e-06 8.11302e-06 -7.25492e-05
-2.27008e-05 4.84938e-06 7.65063e-06 -9.24223e-05
-4.71123e-05 9.76508e-06 1.60059e-05 -6.99727e-05
-3.60631e-05 7.43724e-06 1.22682e-05 -7.09874e-05
-4.49508e-05 1.04663e-05 1.4779e-05 -4.33292e-05
-1.64455e-05 1.1116e-05 2.28407e-06 -5.04921e-05
-6.821e-06 1.68929e-05 -4.31654e-06 -9.64267e-05
-1.49558e-05 5.58783e-06 4.01484e-06 -9.42895e-05
-3.17039e-05 9.69878e-06 9.43078e-06 -4.50829e-05
-5.7452e-06 1.50179e-05 -3.97402e-06 -8.1286e-05
-9.05656e-06 8.78476e-06 1.16486e-07 -9.58577e-05
-2.53791e-05 6.44874e-06 8.11302e-06 -7.25492e-05
-1.52199e-05 7.77677e-06 3.18992e-06 -7.54364e-05
-1.64455e-05 1.1116e-05 2.28407e-06 -5.04921e-05
-3.31246e-06 4.38108e-05 -1.73564e-05 -7.58157e-05
-1.09779e-05 5.23688e-05 -1.7739e-05 -8.81859e-05
-6.821e-06 1.68929e-05 -4.31654e-06 -9.64267e-05
-5.03006e-06 1.73506e-05 -5.28022e-06 -5.96214e-05
-1.17119e-05 6.00902e-05 -2.07336e-05 -8.77368e-05
-7.65839e-06 3.19081e-05 -1.03927e-05 -9.47988e-05
-5.7452e-06 1.50179e-05 -3.97402e-06 -8.1286e-05
-2.67058e-06 3.19043e-05 -1.25287e-05 -8.7147e-05
-3.31246e-06 4.38108e-05 -1.73564e-05 -7.58157e-05
-5.64467e-05 0.000196107 -5.98542e-05 -7.54648e-05
-2.31811e-05 9.46377e-05 -3.06242e-05 -4.65222e-05
-1.09779e-05 5.23688e-05 -1.7739e-05 -8.81859e-05
-1.81619e-05 0.000104636 -3.70603e-05 -8.85565e-05
-4.43309e-05 0.000140574 -4.12471e-05 -4.44925e-05
-1.63091e-05 7.52385e-05 -2.52555e-05 -7.27657e-05
-1.17119e-05 6.00902e-05 -2.07336e-05 -8.77368e-05
-2.74168e-05 9.89201e-05 -3.06443e-05 -7.58182e-05
-0.00195568 0 0.00083815 0.000258579
-0.00220975 0.000288998 0.000823178 -6.6969e-06
-0.000723759 9.41459e-05 0.000269834 0.000133038
-0.000712862 -1.11022e-16 0.000305512 0.000401362
-0.00211811 0.000162384 0.000838169 9.84513e-05
-0.00146665 0.000191612 0.000546443 7.94736e-05
-0.000695547 3.95775e-05 0.00028113 0.000253017
-0.00130572 0 0.000559596 0.000367767
-0.00140669 9.12003e-05 0.000563781 0.00018276
-0.00220975 0.000288998 0.000823178 -6.6969e-06
-0.0023216 0.000528662 0.000768404 -8.93742e-05
-0.00077828 0.000154974 0.000267131 -2.72817e-05
-0.000723759 9.41459e-05 0.000269834 0.000133038
-0.00226586 0.000416529 0.000792572 -5.99985e-05
-0.0015406 0.000328538 0.000519457 -4.93644e-05
-0.000762873 0.000130644 0.000270955 3.87795e-05
-0.00146665 0.000191612 0.000546443 7.94736e-05
-0.0015049 0.000269608 0.00052941 9.65854e-06
-0.0023216 0.000528662 0.000768404 -8.93742e-05
-0.00237775 0.000648638 0.000741048 -0.000105538
-0.000793872 0.000200196 0.000254433 -9.99319e-05
-0.00077828 0.000154974 0.000267131 -2.72817e-05
-0.00236341 0.000603328 0.000754323 -0.000103896
-0.00158366 0.000415908 0.000500467 -0.000104813
-0.000783962 0.000179093 0.000259229 -7.10737e-05
-0.0015406 0.000328538 0.000519457 -4.93644e-05
-0.00156858 0.000377805 0.000510333 -8.7648e-05
-0.00237775 0.000648638 0.000741048 -0.000105538
-0.00237485 0.00069509 0.000719899 -9.79346e-05
-0.000801766 0.000221083 0.000248864 -0.000125902
-0.000793872 0.000200196 0.000254433 -9.99319e-05
-0.00237733 0.00067791 0.000728324 -0.000101239
-0.00159026 0.000454207 0.000486878 -0.000117219
-0.000801859 0.000213498 0.000252155 -0.000117319
-0.00158366 0.000415908 0.000500467 -0.000104813
-0.00158964 0.000440169 0.000492629 -0.000112562
-0.00237485 0.00069509 0.000719899 -9.79346e-05
-0.00235776 0.000703302 0.000709052 -9.2917e-05
-0.000795968 0.000228754 0.000243091 -0.000128748
-0.000801766 0.000221083 0.000248864 -0.000125902
-0.00236883 0.000702246 0.000714248 -9.54644e-05
-0.00158041 0.000466311 0.000477471 -0.000115598
-0.000798251 0.000226057 0.000245226 -0.000128758
-0.00159026 0.000454207 0.000486878 -0.000117219
-0.00158677 0.000462458 0.000481847 -0.000117853
-0.00235776 0.000703302 0.000709052 -9.2917e-05
-0.00233405 0.000699177 0.000700659 -8.95747e-05
-0.000789002 0.000228072 0.000240399 -0.000124273
-0.000795968 0.000228754 0.000243091 -0.000128748
-0.00234504 0.00070196 0.000704175 -9.06888e-05
-0.0015646 0.000464736 0.000471372 -0.000110964
-0.000793393 0.00022909 0.000241844 -0.000126984
-0.00158041 0.000466311 0.000477471 -0.000115598
-0.00157257 0.000466568 0.000473999 -0.000112959
-0.00233405 0.000699177 0.000700659 -8.95747e-05
-0.00231348 0.000691034 0.000695335 -8.86494e-05
-0.000780342 0.000225289 0.00023788 -0.000118427
-0.000789002 0.000228072 0.000240399 -0.000124273
-0.00232385 0.000695306 0.000697945 -8.90765e-05
-0.00154921 0.000459424 0.000467052 -0.000106793
-0.000784189 0.000226756 0.0002389 -0.000121229
-0.0015646 0.000464736 0.000471372 -0.000110964
-0.00155675 0.000462237 0.000469076 -0.000108907
-0.00231348 0.000691034 0.000695335 -8.86494e-05
-0.0022948 0.000683229 0.000690672 -8.82506e-05
-0.000773345 0.000221999 0.000236291 -0.000113775
-0.000780342 0.000225289 0.00023788 -0.000118427
-0.00230359 0.000686987 0.000692829 -8.83308e-05
-0.00153558 0.000453457 0.000463769 -0.000103839
-0.000776912 0.000223642 0.000237116 -0.000115931
-0.00154921 0.000459424 0.000467052 -0.000106793
-0.00154212 0.000456414 0.000465302 -0.000105075
-0.0022948 0.000683229 0.000690672 -8.82506e-05
-0.00227887 0.000676462 0.000686746 -8.82892e-05
-0.000766993 0.000219255 0.000234745 -0.000110541
-0.000773345 0.000221999 0.000236291 -0.000113775
-0.0022867 0.000679708 0.000688709 -8.82822e-05
-0.0015239 0.000448362 0.000460945 -0.000101939
-0.00076994 0.000220542 0.000235456 -0.00011197
-0.00153558 0.000453457 0.000463769 -0.000103839
-0.00152954 0.000450777 0.000462325 -0.000102815
-0.00227887 0.000676462 0.000686746 -8.82892e-05
-0.00226435 0.000670859 0.000682926 -8.8322e-05
-0.000761682 0.000217026 0.000233424 -0.000108545
-0.000766993 0.000219255 0.000234745 -0.000110541
-0.0022714 0.000673529 0.0006848 -8.82915e-05
-0.00151363 0.000444154 0.000458347 -0.000100812
-0.000764307 0.000218082 0.000234096 -0.000109419
-0.0015239 0.000448362 0.000460945 -0.000101939
-0.00151862 0.000446157 0.000459626 -0.000101279
-0.00226435 0.000670859 0.000682926 -8.8322e-05
-0.00225097 0.000666079 0.000679238 -8.83765e-05
-0.000756816 0.000215262 0.000232095 -0.000107373
-0.000761682 0.000217026 0.000233424 -0.000108545
-0.00225759 0.000668386 0.000681088 -8.83591e-05
-0.0015043 0.000440706 0.000455826 -0.000100163
-0.000759169 0.000216094 0.000232746 -0.000107873
-0.00151363 0.000444154 0.000458347 -0.000100812
-0.00150888 0.00044235 0.000457083 -0.00010045
-0.00225097 0.000666079 0.000679238 -8.83765e-05
-0.00223812 0.000661855 0.000675544 -8.83897e-05
-0.000752338 0.00021379 0.000230806 -0.00010673
-0.000756816 0.000215262 0.000232095 -0.000107373
-0.00224448 0.000663913 0.000677386 -8.83835e-05
-0.00149552 0.000437747 0.000453332 -9.9808e-05
-0.00075456 0.000214498 0.000231455 -0.000107003
-0.0015043 0.000440706 0.000455826 -0.000100163
-0.00149986 0.000439179 0.000454578 -9.99544e-05
-0.00223812 0.000661855 0.000675544 -8.83897e-05
-0.00222563 0.000657954 0.00067186 -8.83901e-05
-0.000748014 0.000212502 0.000229505 -0.000106389
-0.000752338 0.00021379 0.000230806 -0.00010673
-0.00223185 0.000659875 0.000673705 -8.83933e-05
-0.00148705 0.000435094 0.00045084 -9.96144e-05
-0.000750154 0.000213128 0.000230154 -0.000106531
-0.00149552 0.000437747 0.000453332 -9.9808e-05
-0.00149126 0.000436392 0.000452087 -9.96984e-05
-0.00222563 0.000657954 0.00067186 -8.83901e-05
-0.00221328 0.000654237 0.000668163 -8.83763e-05
-0.000743797 0.000211312 0.000228208 -0.000106217
-0.000748014 0.000212502 0.000229505 -0.000106389
-0.00221944 0.000656079 0.000670011 -8.83835e-05
-0.00147875 0.00043261 0.000448343 -9.95118e-05
-0.000745902 0.000211898 0.000228859 -0.000106289
-0.00148705 0.000435094 0.00045084 -9.96144e-05
-0.00148289 0.000433837 0.000449592 -9.95542e-05
-0.00221328 0.000654237 0.000668163 -8.83763e-05
-0.00220103 0.000650613 0.000664463 -8.836e-05
-0.000739616 0.000210172 0.000226905 -0.000106133
-0.000743797 0.000211312 0.000228208 -0.000106217
-0.00220715 0.000652417 0.000666314 -8.83686e-05
-0.00147051 0.000430215 0.000445841 -9.94562e-05
-0.000741702 0.000210737 0.000227556 -0.000106168
-0.00147875 0.00043261 0.000448343 -9.95118e-05
-0.00147462 0.000431405 0.000447093 -9.94803e-05
-0.00220103 0.000650613 0.000664463 -8.836e-05
-0.0021888 0.000647034 0.000660756 -8.83435e-05
-0.000735453 0.000209053 0.0002256 -0.000106094
-0.000739616 0.000210172 0.000226905 -0.000106133
-0.00219491 0.00064882 0.00066261 -8.83514e-05
-0.00146231 0.000427862 0.000443335 -9.9426e-05
-0.000737534 0.000209611 0.000226253 -0.00010611
-0.00147051 0.000430215 0.000445841 -9.94562e-05
-0.00146641 0.000429035 0.000444589 -9.94387e-05
-0.0021888 0.000647034 0.000660756 -8.83435e-05
-0.00217659 0.000643474 0.000657048 -8.83298e-05
-0.000731292 0.000207941 0.000224294 -0.000106075
-0.000735453 0.000209053 0.0002256 -0.000106094
-0.00218269 0.000645252 0.000658903 -8.83363e-05
-0.00145412 0.000425525 0.000440827 -9.94086e-05
-0.000733372 0.000208496 0.000224947 -0.000106083
-0.00146231 0.000427862 0.000443335 -9.9426e-05
-0.00145822 0.000426692 0.000442081 -9.94163e-05
-0.00217659 0.000643474 0.000657048 -8.83298e-05
-0.00216438 0.00063992 0.000653339 -8.83189e-05
-0.000727132 0.000206829 0.000222987 -0.000106067
-0.000731292 0.000207941 0.000224294 -0.000106075
-0.00217048 0.000641697 0.000655194 -8.83239e-05
-0.00144593 0.000423194 0.000438318 -9.93984e-05
-0.000729213 0.000207385 0.00022364 -0.000106071
-0.00145412 0.000425525 0.000440827 -9.94086e-05
-0.00145003 0.000424359 0.000439572 -9.94028e-05
-0.00216438 0.00063992 0.000653339 -8.83189e-05
-0.00215217 0.000636367 0.00064963 -8.83109e-05
-0.000722968 0.000205714 0.00022168 -0.000106063
-0.000727132 0.000206829 0.000222987 -0.000106067
-0.00215827 0.000638144 0.000651484 -8.83146e-05
-0.00143775 0.000420862 0.000435808 -9.93919e-05
-0.00072505 0.000206272 0.000222334 -0.000106065
-0.00144593 0.000423194 0.000438318 -9.93984e-05
-0.00144184 0.000422028 0.000437063 -9.93948e-05
-0.00215217 0.000636367 0.00064963 -8.83109e-05
-0.00213996 0.000632813 0.00064592 -8.83053e-05
-0.000718803 0.000204596 0.000220374 -0.00010606
-0.000722968 0.000205714 0.00022168 -0.000106063
-0.00214607 0.000634591 0.000647775 -8.83079e-05
-0.00142956 0.000418528 0.000433299 -9.93875e-05
-0.000720886 0.000205156 0.000221027 -0.000106061
-0.00143775 0.000420862 0.000435808 -9.93919e-05
-0.00143365 0.000419696 0.000434553 -9.93895e-05
-0.00213996 0.000632813 0.00064592 -8.83053e-05
-0.00212775 0.000629258 0.000642212 -8.83014e-05
-0.000714635 0.000203475 0.000219069 -0.000106059
-0.000718803 0.000204596 0.000220374 -0.00010606
-0.00213386 0.000631036 0.000644066 -8.83032e-05
-0.00142137 0.000416192 0.00043079 -9.93845e-05
-0.000716719 0.000204036 0.000219721 -0.000106059
-0.00142956 0.000418528 0.000433299 -9.93875e-05
-0.00142546 0.000417361 0.000432044 -9.93859e-05
-0.00212775 0.000629258 0.000642212 -8.83014e-05
-0.00211554 0.0006257 0.000638504 -8.82988e-05
-0.000710467 0.000202352 0.000217764 -0.000106057
-0.000714635 0.000203475 0.000219069 -0.000106059
-0.00212165 0.000627479 0.000640358 -8.83e-05
-0.00141318 0.000413854 0.000428282 -9.93823e-05
-0.000712551 0.000202914 0.000218416 -0.000106058
-0.00142137 0.000416192 0.00043079 -9.93845e-05
-0.00141727 0.000415023 0.000429536 -9.93834e-05
-0.00211554 0.0006257 0.000638504 -8.82988e-05
-0.00210333 0.000622141 0.000634797 -8.82969e-05
-0.000706299 0.000201227 0.00021646 -0.000106055
-0.000710467 0.000202352 0.000217764 -0.000106057
-0.00210944 0.000623921 0.00063665 -8.82978e-05
-0.00140499 0.000411514 0.000425775 -9.93806e-05
-0.000708383 0.000201789 0.000217112 -0.000106056
-0.00141318 0.000413854 0.000428282 -9.93823e-05
-0.00140908 0.000412684 0.000427028 -9.93814e-05
-0.00210333 0.000622141 0.000634797 -8.82969e-05
-0.00209113 0.000618581 0.00063109 -8.82956e-05
-0.000702131 0.0002001 0.000215156 -0.000106054
-0.000706299 0.000201227 0.00021646 -0.000106055
-0.00209723 0.000620361 0.000632943 -8.82962e-05
-0.0013968 0.000409173 0.000423268 -9.93791e-05
-0.000704215 0.000200663 0.000215808 -0.000106055
-0.00140499 0.000411514 0.000425775 -9.93806e-05
-0.00140089 0.000410344 0.000424521 -9.93798e-05
-0.00209113 0.000618581 0.00063109 -8.82956e-05
-0.00207892 0.000615021 0.000627384 -8.82946e-05
-0.000697964 0.000198972 0.000213854 -0.000106052
-0.000702131 0.0002001 0.000215156 -0.000106054
-0.00208502 0.000616801 0.000629237 -8.82951e-05
-0.00138861 0.000406831 0.000420762 -9.93778e-05
-0.000700047 0.000199536 0.000214505 -0.000106053
-0.0013968 0.000409173 0.000423268 -9.93791e-05
-0.0013927 0.000408002 0.000422015 -9.93784e-05
-0.00207892 0.000615021 0.000627384 -8.82946e-05
-0.00206671 0.000611459 0.000623679 -8.82936e-05
-0.000693797 0.000197844 0.000212551 -0.000106051
-0.000697964 0.000198972 0.000213854 -0.000106052
-0.00207281 0.00061324 0.000625532 -8.82941e-05
-0.00138042 0.000404488 0.000418257 -9.93765e-05
-0.00069588 0.000198408 0.000213202 -0.000106051
-0.00138861 0.000406831 0.000420762 -9.93778e-05
-0.00138451 0.000405659 0.000419509 -9.93771e-05
-0.00206671 0.000611459 0.000623679 -8.82936e-05
-0.0020545 0.000607898 0.000619974 -8.82928e-05
-0.000689631 0.000196714 0.00021125 -0.000106049
-0.000693797 0.000197844 0.000212551 -0.000106051
-0.00206061 0.000609679 0.000621826 -8.82932e-05
-0.00137223 0.000402144 0.000415752 -9.93752e-05
-0.000691714 0.000197279 0.000211901 -0.00010605
-0.00138042 0.000404488 0.000418257 -9.93765e-05
-0.00137633 0.000403316 0.000417004 -9.93758e-05
-0.0020545 0.000607898 0.000619974 -8.82928e-05
-0.0020423 0.000604336 0.00061627 -8.82919e-05
-0.000685466 0.000195584 0.000209949 -0.000106047
-0.000689631 0.000196714 0.00021125 -0.000106049
-0.0020484 0.000606117 0.000618122 -8.82923e-05
-0.00136404 0.0003998 0.000413248 -9.93738e-05
-0.000687548 0.000196149 0.0002106 -0.000106048
-0.00137223 0.000402144 0.000415752 -9.93752e-05
-0.00136814 0.000400972 0.0004145 -9.93745e-05
-0.0020423 0.000604336 0.00061627 -8.82919e-05
-0.00203009 0.000600773 0.000612566 -8.82909e-05
-0.000681302 0.000194454 0.000208649 -0.000106045
-0.000685466 0.000195584 0.000209949 -0.000106047
-0.0020362 0.000602554 0.000614418 -8.82914e-05
-0.00135586 0.000397456 0.000410744 -9.93725e-05
-0.000683384 0.000195019 0.000209299 -0.000106046
-0.00136404 0.0003998 0.000413248 -9.93738e-05
-0.00135995 0.000398628 0.000411996 -9.93732e-05
-0.00203009 0.000600773 0.000612566 -8.82909e-05
-0.00201789 0.000597211 0.000608863 -8.82899e-05
-0.000677139 0.000193323 0.000207349 -0.000106043
-0.000681302 0.000194454 0.000208649 -0.000106045
-0.00202399 0.000598992 0.000610715 -8.82904e-05
-0.00134767 0.000395111 0.000408241 -9.9371e-05
-0.00067922 0.000193889 0.000207999 -0.000106044
-0.00135586 0.000397456 0.000410744 -9.93725e-05
-0.00135177 0.000396283 0.000409493 -9.93717e-05
-0.00201789 0.000597211 0.000608863 -8.82899e-05
-0.00200569 0.000593648 0.000605161 -8.82888e-05
-0.000672976 0.000192192 0.00020605 -0.000106042
-0.000677139 0.000193323 0.000207349 -0.000106043
-0.00201179 0.000595429 0.000607012 -8.82894e-05
-0.00133949 0.000392765 0.000405739 -9.93695e-05
-0.000675057 0.000192758 0.0002067 -0.000106043
-0.00134767 0.000395111 0.000408241 -9.9371e-05
-0.00134358 0.000393938 0.00040699 -9.93702e-05
-0.00200569 0.000593648 0.000605161 -8.82888e-05
-0.00199349 0.000590084 0.000601459 -8.82877e-05
-0.000668815 0.000191061 0.000204752 -0.00010604
-0.000672976 0.000192192 0.00020605 -0.000106042
-0.00199959 0.000591866 0.00060331 -8.82883e-05
-0.00133131 0.00039042 0.000403237 -9.93679e-05
-0.000670896 0.000191627 0.000205401 -0.000106041
-0.00133949 0.000392765 0.000405739 -9.93695e-05
-0.0013354 0.000391593 0.000404488 -9.93687e-05
-0.00199349 0.000590084 0.000601459 -8.82877e-05
-0.00198129 0.000586521 0.000597758 -8.82865e-05
-0.000664655 0.000189929 0.000203454 -0.000106037
-0.000668815 0.000191061 0.000204752 -0.00010604
-0.00198739 0.000588303 0.000599608 -8.82871e-05
-0.00132312 0.000388074 0.000400736 -9.93662e-05
-0.000666735 0.000190495 0.000204103 -0.000106038
-0.00133131 0.00039042 0.000403237 -9.93679e-05
-0.00132721 0.000389247 0.000401986 -9.93671e-05
-0.00198129 0.000586521 0.000597758 -8.82865e-05
-0.00196909 0.000582957 0.000594057 -8.82852e-05
-0.000660495 0.000188796 0.000202157 -0.000106035
-0.000664655 0.000189929 0.000203454 -0.000106037
-0.00197519 0.000584739 0.000595907 -8.82858e-05
-0.00131494 0.000385728 0.000398235 -9.93645e-05
-0.000662575 0.000189363 0.000202805 -0.000106036
-0.00132312 0.000388074 0.000400736 -9.93662e-05
-0.00131903 0.000386901 0.000399485 -9.93654e-05
-0.00196909 0.000582957 0.000594057 -8.82852e-05
-0.00195689 0.000579393 0.000590356 -8.82839e-05
-0.000656337 0.000187663 0.00020086 -0.000106033
-0.000660495 0.000188796 0.000202157 -0.000106035
-0.00196299 0.000581175 0.000592206 -8.82845e-05
-0.00130676 0.000383381 0.000395735 -9.93627e-05
-0.000658416 0.00018823 0.000201508 -0.000106034
-0.00131494 0.000385728 0.000398235 -9.93645e-05
-0.00131085 0.000384554 0.000396985 -9.93636e-05
-0.00195689 0.000579393 0.000590356 -8.82839e-05
-0.00194469 0.000575828 0.000586657 -8.82825e-05
-0.000652179 0.00018653 0.000199564 -0.000106031
-0.000656337 0.000187663 0.00020086 -0.000106033
-0.00195079 0.000577611 0.000588506 -8.82832e-05
-0.00129858 0.000381034 0.000393235 -9.93609e-05
-0.000654258 0.000187097 0.000200212 -0.000106032
-0.00130676 0.000383381 0.000395735 -9.93627e-05
-0.00130267 0.000382208 0.000394485 -9.93618e-05
-0.00194469 0.000575828 0.000586657 -8.82825e-05
-0.0019325 0.000572264 0.000582957 -8.82811e-05
-0.000648022 0.000185396 0.000198268 -0.000106029
-0.000652179 0.00018653 0.000199564 -0.000106031
-0.0019386 0.000574046 0.000584807 -8.82818e-05
-0.00129041 0.000378687 0.000390737 -9.93591e-05
-0.000650101 0.000185963 0.000198916 -0.00010603
-0.00129858 0.000381034 0.000393235 -9.93609e-05
-0.00129449 0.00037986 0.000391986 -9.936e-05
-0.0019325 0.000572264 0.000582957 -8.82811e-05
-0.0019203 0.000568699 0.000579259 -8.82796e-05
-0.000643867 0.000184262 0.000196973 -0.000106026
-0.000648022 0.000185396 0.000198268 -0.000106029
-0.0019264 0.000570481 0.000581108 -8.82804e-05
-0.00128223 0.000376339 0.000388238 -9.93571e-05
-0.000645944 0.000184829 0.000197621 -0.000106027
-0.00129041 0.000378687 0.000390737 -9.93591e-05
-0.00128632 0.000377513 0.000389487 -9.93581e-05
-0.0019203 0.000568699 0.000579259 -8.82796e-05
-0.00190811 0.000565134 0.000575561 -8.82781e-05
-0.000639712 0.000183128 0.000195679 -0.000106024
-0.000643867 0.000184262 0.000196973 -0.000106026
-0.00191421 0.000566916 0.00057741 -8.82789e-05
-0.00127405 0.000373991 0.00038574 -9.93552e-05
-0.000641789 0.000183695 0.000196326 -0.000106025
-0.00128223 0.000376339 0.000388238 -9.93571e-05
-0.00127814 0.000375165 0.000386989 -9.93562e-05
-0.00190811 0.000565134 0.000575561 -8.82781e-05
-0.00189592 0.000561568 0.000571863 -8.82766e-05
-0.000635558 0.000181993 0.000194385 -0.000106021
-0.000639712 0.000183128 0.000195679 -0.000106024
-0.00190201 0.000563351 0.000573712 -8.82774e-05
-0.00126588 0.000371642 0.000383243 -9.93532e-05
-0.000637635 0.00018256 0.000195032 -0.000106023
-0.00127405 0.000373991 0.00038574 -9.93552e-05
-0.00126996 0.000372817 0.000384492 -9.93542e-05
-0.00189592 0.000561568 0.000571863 -8.82766e-05
-0.00188372 0.000558002 0.000568166 -8.8275e-05
-0.000631405 0.000180857 0.000193092 -0.000106019
-0.000635558 0.000181993 0.000194385 -0.000106021
-0.00188982 0.000559785 0.000570015 -8.82758e-05
-0.0012577 0.000369293 0.000380747 -9.93511e-05
-0.000633481 0.000181425 0.000193738 -0.00010602
-0.00126588 0.000371642 0.000383243 -9.93532e-05
-0.00126179 0.000370468 0.000381995 -9.93522e-05
-0.00188372 0.000558002 0.000568166 -8.8275e-05
-0.00187153 0.000554436 0.00056447 -8.82734e-05
-0.000627253 0.000179722 0.000191799 -0.000106016
-0.000631405 0.000180857 0.000193092 -0.000106019
-0.00187763 0.000556219 0.000566318 -8.82742e-05
-0.00124953 0.000366944 0.000378251 -9.93491e-05
-0.000629329 0.00018029 0.000192445 -0.000106018
-0.0012577 0.000369293 0.000380747 -9.93511e-05
-0.00125362 0.000368119 0.000379499 -9.93501e-05
-0.00187153 0.000554436 0.00056447 -8.82734e-05
-0.00185934 0.00055087 0.000560774 -8.82718e-05
-0.000623101 0.000178585 0.000190507 -0.000106014
-0.000627253 0.000179722 0.000191799 -0.000106016
-0.00186544 0.000552653 0.000562622 -8.82726e-05
-0.00124136 0.000364595 0.000375755 -9.93469e-05
-0.000625177 0.000179153 0.000191153 -0.000106015
-0.00124953 0.000366944 0.000378251 -9.93491e-05
-0.00124544 0.00036577 0.000377003 -9.9348e-05
-0.00185934 0.00055087 0.000560774 -8.82718e-05
-0.00184715 0.000547303 0.000557079 -8.82701e-05
-0.000618951 0.000177449 0.000189215 -0.000106011
-0.000623101 0.000178585 0.000190507 -0.000106014
-0.00185325 0.000549087 0.000558926 -8.82709e-05
-0.00123319 0.000362245 0.00037326 -9.93448e-05
-0.000621026 0.000178017 0.000189861 -0.000106013
-0.00124136 0.000364595 0.000375755 -9.93469e-05
-0.00123727 0.00036342 0.000374508 -9.93459e-05
-0.00184715 0.000547303 0.000557079 -8.82701e-05
-0.00183497 0.000543736 0.000553384 -8.82684e-05
-0.000614802 0.000176311 0.000187924 -0.000106009
-0.000618951 0.000177449 0.000189215 -0.000106011
-0.00184106 0.00054552 0.000555231 -8.82692e-05
-0.00122502 0.000359895 0.000370766 -9.93426e-05
-0.000616876 0.00017688 0.00018857 -0.00010601
-0.00123319 0.000362245 0.00037326 -9.93448e-05
-0.0012291 0.00036107 0.000372013 -9.93437e-05
-0.00183497 0.000543736 0.000553384 -8.82684e-05
-0.00182278 0.000540169 0.00054969 -8.82666e-05
-0.000610653 0.000175174 0.000186634 -0.000106006
-0.000614802 0.000176311 0.000187924 -0.000106009
-0.00182887 0.000541953 0.000551537 -8.82675e-05
-0.00121685 0.000357544 0.000368272 -9.93404e-05
-0.000612727 0.000175743 0.000187279 -0.000106007
-0.00122502 0.000359895 0.000370766 -9.93426e-05
-0.00122093 0.000358719 0.000369519 -9.93415e-05
-0.00182278 0.000540169 0.00054969 -8.82666e-05
-0.00181059 0.000536602 0.000545996 -8.82649e-05
-0.000606506 0.000174036 0.000185344 -0.000106003
-0.000610653 0.000175174 0.000186634 -0.000106006
-0.00181669 0.000538386 0.000547843 -8.82658e-05
-0.00120868 0.000355193 0.000365779 -9.93381e-05
-0.000608579 0.000174605 0.000185989 -0.000106005
-0.00121685 0.000357544 0.000368272 -9.93404e-05
-0.00121276 0.000356368 0.000367026 -9.93393e-05
-0.00181059 0.000536602 0.000545996 -8.82649e-05
-0.00179841 0.000533034 0.000542304 -8.82631e-05
-0.000602359 0.000172897 0.000184055 -0.000106001
-0.000606506 0.000174036 0.000185344 -0.000106003
-0.0018045 0.000534818 0.00054415 -8.8264e-05
-0.00120051 0.000352841 0.000363287 -9.93358e-05
-0.000604432 0.000173467 0.0001847 -0.000106002
-0.00120868 0.000355193 0.000365779 -9.93381e-05
-0.00120459 0.000354017 0.000364533 -9.9337e-05
-0.00179841 0.000533034 0.000542304 -8.82631e-05
-0.00178623 0.000529466 0.000538611 -8.82613e-05
-0.000598214 0.000171759 0.000182766 -0.000105998
-0.000602359 0.000172897 0.000184055 -0.000106001
-0.00179232 0.00053125 0.000540457 -8.82622e-05
-0.00119234 0.00035049 0.000360795 -9.93335e-05
-0.000600286 0.000172328 0.000183411 -0.000105999
-0.00120051 0.000352841 0.000363287 -9.93358e-05
-0.00119643 0.000351666 0.000362041 -9.93347e-05
-0.00178623 0.000529466 0.000538611 -8.82613e-05
-0.00177404 0.000525898 0.000534919 -8.82594e-05
-0.000594069 0.000170619 0.000181478 -0.000105995
-0.000598214 0.000171759 0.000182766 -0.000105998
-0.00178013 0.000527682 0.000536765 -8.82603e-05
-0.00118418 0.000348138 0.000358303 -9.93312e-05
-0.000596141 0.000171189 0.000182122 -0.000105996
-0.00119234 0.00035049 0.000360795 -9.93335e-05
-0.00118826 0.000349314 0.000359549 -9.93323e-05
-0.00177404 0.000525898 0.000534919 -8.82594e-05
-0.00176186 0.00052233 0.000531228 -8.82575e-05
-0.000589925 0.00016948 0.000180191 -0.000105992
-0.000594069 0.000170619 0.000181478 -0.000105995
-0.00176795 0.000524114 0.000533074 -8.82585e-05
-0.00117601 0.000345785 0.000355813 -9.93288e-05
-0.000591997 0.000170049 0.000180835 -0.000105994
-0.00118418 0.000348138 0.000358303 -9.93312e-05
-0.0011801 0.000346961 0.000357058 -9.933e-05
-0.00176186 0.00052233 0.000531228 -8.82575e-05
-0.00174968 0.000518761 0.000527537 -8.82556e-05
-0.000585782 0.000168339 0.000178904 -0.000105989
-0.000589925 0.00016948 0.000180191 -0.000105992
-0.00175577 0.000520545 0.000529383 -8.82566e-05
-0.00116785 0.000343432 0.000353322 -9.93264e-05
-0.000587854 0.00016891 0.000179547 -0.000105991
-0.00117601 0.000345785 0.000355813 -9.93288e-05
-0.00117193 0.000344609 0.000354567 -9.93276e-05
-0.00174968 0.000518761 0.000527537 -8.82556e-05
-0.0017375 0.000515192 0.000523847 -8.82537e-05
-0.00058164 0.000167199 0.000177618 -0.000105987
-0.000585782 0.000168339 0.000178904 -0.000105989
-0.00174359 0.000516976 0.000525692 -8.82547e-05
-0.00115969 0.000341079 0.000350833 -9.9324e-05
-0.000583711 0.000167769 0.000178261 -0.000105988
-0.00116785 0.000343432 0.000353322 -9.93264e-05
-0.00116377 0.000342256 0.000352077 -9.93252e-05
-0.0017375 0.000515192 0.000523847 -8.82537e-05
-0.00172532 0.000511623 0.000520158 -8.82518e-05
-0.000577499 0.000166058 0.000176332 -0.000105984
-0.00058164 0.000167199 0.000177618 -0.000105987
-0.00173141 0.000513407 0.000522002 -8.82528e-05
-0.00115153 0.000338726 0.000348344 -9.93215e-05
-0.00057957 0.000166628 0.000176975 -0.000105985
-0.00115969 0.000341079 0.000350833 -9.9324e-05
-0.00115561 0.000339903 0.000349588 -9.93227e-05
-0.00172532 0.000511623 0.000520158 -8.82518e-05
-0.00171315 0.000508053 0.000516469 -8.82498e-05
-0.000573359 0.000164916 0.000175047 -0.000105981
-0.000577499 0.000166058 0.000176332 -0.000105984
-0.00171924 0.000509838 0.000518313 -8.82508e-05
-0.00114337 0.000336372 0.000345855 -9.9319e-05
-0.000575429 0.000165487 0.000175689 -0.000105982
-0.00115153 0.000338726 0.000348344 -9.93215e-05
-0.00114745 0.000337549 0.000347099 -9.93203e-05
-0.00171315 0.000508053 0.000516469 -8.82498e-05
-0.00170097 0.000504483 0.00051278 -8.82478e-05
-0.00056922 0.000163775 0.000173762 -0.000105978
-0.000573359 0.000164916 0.000175047 -0.000105981
-0.00170706 0.000506268 0.000514625 -8.82488e-05
-0.00113521 0.000334018 0.000343368 -9.93165e-05
-0.00057129 0.000164346 0.000174405 -0.000105979
-0.00114337 0.000336372 0.000345855 -9.9319e-05
-0.00113929 0.000335195 0.000344611 -9.93178e-05
-0.00170097 0.000504483 0.00051278 -8.82478e-05
-0.0016888 0.000500913 0.000509093 -8.82458e-05
-0.000565082 0.000162632 0.000172478 -0.000105975
-0.00056922 0.000163775 0.000173762 -0.000105978
-0.00169488 0.000502698 0.000510936 -8.82468e-05
-0.00112705 0.000331663 0.00034088 -9.9314e-05
-0.000567151 0.000163203 0.00017312 -0.000105976
-0.00113521 0.000334018 0.000343368 -9.93165e-05
-0.00113113 0.00033284 0.000342124 -9.93152e-05
-0.0016888 0.000500913 0.000509093 -8.82458e-05
-0.00167662 0.000497343 0.000505405 -8.82438e-05
-0.000560945 0.00016149 0.000171195 -0.000105972
-0.000565082 0.000162632 0.000172478 -0.000105975
-0.00168271 0.000499128 0.000507249 -8.82448e-05
-0.00111889 0.000329308 0.000338394 -9.93114e-05
-0.000563013 0.000162061 0.000171837 -0.000105973
-0.00112705 0.000331663 0.00034088 -9.9314e-05
-0.00112297 0.000330486 0.000339637 -9.93127e-05
-0.00167662 0.000497343 0.000505405 -8.82438e-05
-0.00166445 0.000493773 0.000501719 -8.82417e-05
-0.000556809 0.000160346 0.000169912 -0.000105969
-0.000560945 0.00016149 0.000171195 -0.000105972
-0.00167054 0.000495558 0.000503562 -8.82428e-05
-0.00111074 0.000326953 0.000335908 -9.93088e-05
-0.000558877 0.000160918 0.000170554 -0.00010597
-0.00111889 0.000329308 0.000338394 -9.93114e-05
-0.00111482 0.00032813 0.000337151 -9.93101e-05
-0.00166445 0.000493773 0.000501719 -8.82417e-05
-0.00165228 0.000490202 0.000498033 -8.82397e-05
-0.000552673 0.000159203 0.00016863 -0.000105966
-0.000556809 0.000160346 0.000169912 -0.000105969
-0.00165836 0.000491987 0.000499876 -8.82407e-05
-0.00110258 0.000324597 0.000333422 -9.93063e-05
-0.000554741 0.000159775 0.000169271 -0.000105967
-0.00111074 0.000326953 0.000335908 -9.93088e-05
-0.00110666 0.000325775 0.000334665 -9.93076e-05
-0.00165228 0.000490202 0.000498033 -8.82397e-05
-0.00164011 0.000486631 0.000494347 -8.82376e-05
-0.000548539 0.000158059 0.000167349 -0.000105963
-0.000552673 0.000159203 0.00016863 -0.000105966
-0.00164619 0.000488416 0.00049619 -8.82386e-05
-0.00109443 0.000322241 0.000330937 -9.93036e-05
-0.000550606 0.000158631 0.000167989 -0.000105964
-0.00110258 0.000324597 0.000333422 -9.93063e-05
-0.00109851 0.000323419 0.00033218 -9.9305e-05
-0.00164011 0.000486631 0.000494347 -8.82376e-05
-0.00162794 0.000483059 0.000490662 -8.82355e-05
-0.000544405 0.000156914 0.000166067 -0.000105959
-0.000548539 0.000158059 0.000167349 -0.000105963
-0.00163402 0.000484845 0.000492505 -8.82365e-05
-0.00108628 0.000319885 0.000328453 -9.9301e-05
-0.000546472 0.000157487 0.000166708 -0.000105961
-0.00109443 0.000322241 0.000330937 -9.93036e-05
-0.00109035 0.000321063 0.000329695 -9.93023e-05
-0.00162794 0.000483059 0.000490662 -8.82355e-05
-0.00161577 0.000479488 0.000486978 -8.82334e-05
-0.000540273 0.00015577 0.000164787 -0.000105956
-0.000544405 0.000156914 0.000166067 -0.000105959
-0.00162185 0.000481274 0.00048882 -8.82344e-05
-0.00107812 0.000317528 0.000325969 -9.92984e-05
-0.000542339 0.000156342 0.000165427 -0.000105958
-0.00108628 0.000319885 0.000328453 -9.9301e-05
-0.0010822 0.000318707 0.000327211 -9.92997e-05
-0.00161577 0.000479488 0.000486978 -8.82334e-05
-0.0016036 0.000475916 0.000483295 -8.82312e-05
-0.000536141 0.000154624 0.000163507 -0.000105953
-0.000540273 0.00015577 0.000164787 -0.000105956
-0.00160969 0.000477702 0.000485136 -8.82323e-05
-0.00106997 0.000315171 0.000323486 -9.92957e-05
-0.000538207 0.000155197 0.000164147 -0.000105955
-0.00107812 0.000317528 0.000325969 -9.92984e-05
-0.00107405 0.00031635 0.000324728 -9.9297e-05
-0.0016036 0.000475916 0.000483295 -8.82312e-05
-0.00159144 0.000472344 0.000479611 -8.82291e-05
-0.00053201 0.000153479 0.000162228 -0.00010595
-0.000536141 0.000154624 0.000163507 -0.000105953
-0.00159752 0.00047413 0.000481453 -8.82302e-05
-0.00106182 0.000312814 0.000321004 -9.9293e-05
-0.000534076 0.000154052 0.000162867 -0.000105952
-0.00106997 0.000315171 0.000323486 -9.92957e-05
-0.0010659 0.000313992 0.000322245 -9.92944e-05
-0.00159144 0.000472344 0.000479611 -8.82291e-05
-0.00157927 0.000468771 0.000475929 -8.82269e-05
-0.000527881 0.000152332 0.000160949 -0.000105947
-0.00053201 0.000153479 0.000162228 -0.00010595
-0.00158535 0.000470558 0.00047777 -8.8228e-05
-0.00105367 0.000310456 0.000318522 -9.92903e-05
-0.000529945 0.000152906 0.000161589 -0.000105949
-0.00106182 0.000312814 0.000321004 -9.9293e-05
-0.00105775 0.000311635 0.000319763 -9.92917e-05
-0.00157927 0.000468771 0.000475929 -8.82269e-05
-0.00156711 0.000465199 0.000472247 -8.82248e-05
-0.000523752 0.000151186 0.000159671 -0.000105944
-0.000527881 0.000152332 0.000160949 -0.000105947
-0.00157319 0.000466985 0.000474088 -8.82259e-05
-0.00104553 0.000308098 0.000316041 -9.92876e-05
-0.000525816 0.000151759 0.00016031 -0.000105945
-0.00105367 0.000310456 0.000318522 -9.92903e-05
-0.0010496 0.000309277 0.000317281 -9.9289e-05
-0.00156711 0.000465199 0.000472247 -8.82248e-05
-0.00155495 0.000461626 0.000468566 -8.82226e-05
-0.000519624 0.000150039 0.000158394 -0.000105941
-0.000523752 0.000151186 0.000159671 -0.000105944
-0.00156103 0.000463412 0.000470406 -8.82237e-05
-0.00103738 0.000305739 0.00031356 -9.92849e-05
-0.000521688 0.000150612 0.000159032 -0.000105942
-0.00104553 0.000308098 0.000316041 -9.92876e-05
-0.00104145 0.000306919 0.0003148 -9.92863e-05
-0.00155495 0.000461626 0.000468566 -8.82226e-05
-0.00154278 0.000458053 0.000464885 -8.82204e-05
-0.000515497 0.000148892 0.000157117 -0.000105937
-0.000519624 0.000150039 0.000158394 -0.000105941
-0.00154886 0.00045984 0.000466725 -8.82215e-05
-0.00102923 0.000303381 0.00031108 -9.92822e-05
-0.000517561 0.000149465 0.000157755 -0.000105939
-0.00103738 0.000305739 0.00031356 -9.92849e-05
-0.00103331 0.00030456 0.00031232 -9.92835e-05
-0.00154278 0.000458053 0.000464885 -8.82204e-05
-0.00153062 0.00045448 0.000461205 -8.82182e-05
-0.000511371 0.000147744 0.00015584 -0.000105934
-0.000515497 0.000148892 0.000157117 -0.000105937
-0.0015367 0.000456266 0.000463045 -8.82193e-05
-0.00102109 0.000301021 0.000308601 -9.92794e-05
-0.000513434 0.000148318 0.000156478 -0.000105936
-0.00102923 0.000303381 0.00031108 -9.92822e-05
-0.00102516 0.000302201 0.00030984 -9.92808e-05
-0.00153062 0.00045448 0.000461205 -8.82182e-05
-0.00151846 0.000450906 0.000457525 -8.8216e-05
-0.000507246 0.000146595 0.000154565 -0.000105931
-0.000511371 0.000147744 0.00015584 -0.000105934
-0.00152454 0.000452693 0.000459365 -8.82171e-05
-0.00101295 0.000298662 0.000306122 -9.92767e-05
-0.000509309 0.00014717 0.000155202 -0.000105933
-0.00102109 0.000301021 0.000308601 -9.92794e-05
-0.00101702 0.000299842 0.000307361 -9.9278e-05
-0.00151846 0.000450906 0.000457525 -8.8216e-05
-0.00150631 0.000447332 0.000453846 -8.82138e-05
-0.000503122 0.000145447 0.00015329 -0.000105928
-0.000507246 0.000146595 0.000154565 -0.000105931
-0.00151239 0.000449119 0.000455686 -8.82149e-05
-0.0010048 0.000296302 0.000303643 -9.92739e-05
-0.000505184 0.000146021 0.000153927 -0.000105929
-0.00101295 0.000298662 0.000306122 -9.92767e-05
-0.00100887 0.000297482 0.000304882 -9.92753e-05
-0.00150631 0.000447332 0.000453846 -8.82138e-05
-0.00149415 0.000443758 0.000450168 -8.82116e-05
-0.000498999 0.000144298 0.000152015 -0.000105924
-0.000503122 0.000145447 0.00015329 -0.000105928
-0.00150023 0.000445545 0.000452007 -8.82127e-05
-0.000996662 0.000293942 0.000301166 -9.92711e-05
-0.000501061 0.000144872 0.000152652 -0.000105926
-0.0010048 0.000296302 0.000303643 -9.92739e-05
-0.00100073 0.000295122 0.000302404 -9.92725e-05
-0.00149415 0.000443758 0.000450168 -8.82116e-05
-0.00148199 0.000440184 0.00044649 -8.82093e-05
-0.000494877 0.000143148 0.000150741 -0.000105921
-0.000498999 0.000144298 0.000152015 -0.000105924
-0.00148807 0.000441971 0.000448329 -8.82104e-05
-0.000988521 0.000291581 0.000298689 -9.92683e-05
-0.000496938 0.000143723 0.000151378 -0.000105923
-0.000996662 0.000293942 0.000301166 -9.92711e-05
-0.000992591 0.000292762 0.000299927 -9.92697e-05
-0.00148199 0.000440184 0.00044649 -8.82093e-05
-0.00146984 0.000436609 0.000442813 -8.82071e-05
-0.000490756 0.000141998 0.000149468 -0.000105918
-0.000494877 0.000143148 0.000150741 -0.000105921
-0.00147592 0.000438396 0.000444651 -8.82082e-05
-0.000980382 0.00028922 0.000296212 -9.92655e-05
-0.000492816 0.000142573 0.000150104 -0.00010592
-0.000988521 0.000291581 0.000298689 -9.92683e-05
-0.000984451 0.000290401 0.00029745 -9.92669e-05
-0.00146984 0.000436609 0.000442813 -8.82071e-05
-0.00145768 0.000433034 0.000439136 -8.82048e-05
-0.000486636 0.000140848 0.000148195 -0.000105915
-0.000490756 0.000141998 0.000149468 -0.000105918
-0.00146376 0.000434822 0.000440974 -8.8206e-05
-0.000972244 0.000286859 0.000293736 -9.92628e-05
-0.000488696 0.000141423 0.000148831 -0.000105916
-0.000980382 0.00028922 0.000296212 -9.92655e-05
-0.000976313 0.00028804 0.000294974 -9.92642e-05
-0.00145768 0.000433034 0.000439136 -8.82048e-05
-0.00144553 0.000429459 0.00043546 -8.82026e-05
-0.000482516 0.000139697 0.000146923 -0.000105911
-0.000486636 0.000140848 0.000148195 -0.000105915
-0.00145161 0.000431247 0.000437298 -8.82037e-05
-0.000964106 0.000284497 0.000291261 -9.926e-05
-0.000484576 0.000140273 0.000147559 -0.000105913
-0.000972244 0.000286859 0.000293736 -9.92628e-05
-0.000968175 0.000285678 0.000292498 -9.92614e-05
-0.00144553 0.000429459 0.00043546 -8.82026e-05
-0.00143338 0.000425884 0.000431785 -8.82003e-05
-0.000478398 0.000138546 0.000145651 -0.000105908
-0.000482516 0.000139697 0.000146923 -0.000105911
-0.00143946 0.000427671 0.000433622 -8.82015e-05
-0.00095597 0.000282136 0.000288786 -9.92571e-05
-0.000480457 0.000139121 0.000146287 -0.00010591
-0.000964106 0.000284497 0.000291261 -9.926e-05
-0.000960038 0.000283317 0.000290023 -9.92586e-05
-0.00143338 0.000425884 0.000431785 -8.82003e-05
-0.00142123 0.000422308 0.00042811 -8.81981e-05
-0.00047428 0.000137394 0.00014438 -0.000105905
-0.000478398 0.000138546 0.000145651 -0.000105908
-0.00142731 0.000424096 0.000429947 -8.81992e-05
-0.000947835 0.000279773 0.000286312 -9.92543e-05
-0.000476339 0.00013797 0.000145015 -0.000105906
-0.00095597 0.000282136 0.000288786 -9.92571e-05
-0.000951902 0.000280954 0.000287549 -9.92557e-05
-0.00142123 0.000422308 0.00042811 -8.81981e-05
-0.00140908 0.000418732 0.000424435 -8.81958e-05
-0.000470164 0.000136242 0.000143109 -0.000105902
-0.00047428 0.000137394 0.00014438 -0.000105905
-0.00141516 0.00042052 0.000426272 -8.81969e-05
-0.000939701 0.000277411 0.000283839 -9.92515e-05
-0.000472222 0.000136818 0.000143745 -0.000105903
-0.000947835 0.000279773 0.000286312 -9.92543e-05
-0.000943768 0.000278592 0.000285075 -9.92529e-05
-0.00140908 0.000418732 0.000424435 -8.81958e-05
-0.00139693 0.000415156 0.000420762 -8.81936e-05
-0.000466049 0.00013509 0.00014184 -0.000105898
-0.000470164 0.000136242 0.000143109 -0.000105902
-0.00140301 0.000416944 0.000422598 -8.81947e-05
-0.000931568 0.000275048 0.000281366 -9.92487e-05
-0.000468106 0.000135666 0.000142474 -0.0001059
-0.000939701 0.000277411 0.000283839 -9.92515e-05
-0.000935634 0.000276229 0.000282602 -9.92501e-05
-0.00139693 0.000415156 0.000420762 -8.81936e-05
-0.00138479 0.00041158 0.000417089 -8.81913e-05
-0.000461934 0.000133937 0.00014057 -0.000105895
-0.000466049 0.00013509 0.00014184 -0.000105898
-0.00139086 0.000413368 0.000418925 -8.81924e-05
-0.000923436 0.000272684 0.000278893 -9.92459e-05
-0.000463991 0.000134513 0.000141205 -0.000105897
-0.000931568 0.000275048 0.000281366 -9.92487e-05
-0.000927501 0.000273866 0.000280129 -9.92473e-05
-0.00138479 0.00041158 0.000417089 -8.81913e-05
-0.00137264 0.000408003 0.000413416 -8.8189e-05
-0.00045782 0.000132783 0.000139302 -0.000105892
-0.000461934 0.000133937 0.00014057 -0.000105895
-0.00137871 0.000409792 0.000415252 -8.81902e-05
-0.000915305 0.000270321 0.000276422 -9.92431e-05
-0.000459877 0.00013336 0.000139936 -0.000105893
-0.000923436 0.000272684 0.000278893 -9.92459e-05
-0.00091937 0.000271502 0.000277657 -9.92445e-05
-0.00137264 0.000408003 0.000413416 -8.8189e-05
-0.0013605 0.000404426 0.000409744 -8.81868e-05
-0.000453708 0.00013163 0.000138033 -0.000105888
-0.00045782 0.000132783 0.000139302 -0.000105892
-0.00136657 0.000406215 0.00041158 -8.81879e-05
-0.000907175 0.000267957 0.000273951 -9.92403e-05
-0.000455764 0.000132207 0.000138667 -0.00010589
-0.000915305 0.000270321 0.000276422 -9.92431e-05
-0.000911239 0.000269139 0.000275186 -9.92417e-05
-0.0013605 0.000404426 0.000409744 -8.81868e-05
-0.00134835 0.000400849 0.000406073 -8.81845e-05
-0.000449596 0.000130475 0.000136766 -0.000105885
-0.000453708 0.00013163 0.000138033 -0.000105888
-0.00135442 0.000402638 0.000407908 -8.81856e-05
-0.000899046 0.000265592 0.00027148 -9.92375e-05
-0.000451652 0.000131053 0.0001374 -0.000105887
-0.000907175 0.000267957 0.000273951 -9.92403e-05
-0.00090311 0.000266774 0.000272715 -9.92389e-05
-0.00134835 0.000400849 0.000406073 -8.81845e-05
-0.00133621 0.000397272 0.000402402 -8.81822e-05
-0.000445485 0.000129321 0.000135499 -0.000105882
-0.000449596 0.000130475 0.000136766 -0.000105885
-0.00134228 0.000399061 0.000404237 -8.81834e-05
-0.000890918 0.000263227 0.00026901 -9.92346e-05
-0.00044754 0.000129898 0.000136132 -0.000105883
-0.000899046 0.000265592 0.00027148 -9.92375e-05
-0.000894982 0.00026441 0.000270245 -9.9236e-05
-0.00133621 0.000397272 0.000402402 -8.81822e-05
-0.00132407 0.000393694 0.000398732 -8.818e-05
-0.000441375 0.000128166 0.000134233 -0.000105879
-0.000445485 0.000129321 0.000135499 -0.000105882
-0.00133014 0.000395483 0.000400567 -8.81811e-05
-0.000882791 0.000260862 0.000266541 -9.92318e-05
-0.00044343 0.000128743 0.000134866 -0.00010588
-0.000890918 0.000263227 0.00026901 -9.92346e-05
-0.000886854 0.000262045 0.000267775 -9.92332e-05
-0.00132407 0.000393694 0.000398732 -8.818e-05
-0.00131193 0.000390117 0.000395062 -8.81777e-05
-0.000437266 0.00012701 0.000132967 -0.000105875
-0.000441375 0.000128166 0.000134233 -0.000105879
-0.001318 0.000391905 0.000396897 -8.81789e-05
-0.000874665 0.000258497 0.000264072 -9.9229e-05
-0.000439321 0.000127588 0.0001336 -0.000105877
-0.000882791 0.000260862 0.000266541 -9.92318e-05
-0.000878728 0.00025968 0.000265306 -9.92304e-05
-0.00131193 0.000390117 0.000395062 -8.81777e-05
-0.00129979 0.000386538 0.000391394 -8.81755e-05
-0.000433158 0.000125854 0.000131702 -0.000105872
-0.000437266 0.00012701 0.000132967 -0.000105875
-0.00130586 0.000388328 0.000393228 -8.81766e-05
-0.000866541 0.000256131 0.000261604 -9.92262e-05
-0.000435212 0.000126432 0.000132334 -0.000105874
-0.000874665 0.000258497 0.000264072 -9.9229e-05
-0.000870603 0.000257314 0.000262838 -9.92276e-05
-0.00129979 0.000386538 0.000391394 -8.81755e-05
-0.00128765 0.00038296 0.000387725 -8.81732e-05
-0.000429051 0.000124698 0.000130437 -0.000105869
-0.000433158 0.000125854 0.000131702 -0.000105872
-0.00129372 0.000384749 0.000389559 -8.81743e-05
-0.000858417 0.000253765 0.000259137 -9.92234e-05
-0.000431105 0.000125276 0.000131069 -0.00010587
-0.000866541 0.000256131 0.000261604 -9.92262e-05
-0.000862479 0.000254948 0.00026037 -9.92248e-05
-0.00128765 0.00038296 0.000387725 -8.81732e-05
-0.00127552 0.000379382 0.000384057 -8.8171e-05
-0.000424945 0.000123541 0.000129173 -0.000105865
-0.000429051 0.000124698 0.000130437 -0.000105869
-0.00128158 0.000381171 0.000385891 -8.81721e-05
-0.000850294 0.000251399 0.00025667 -9.92206e-05
-0.000426998 0.00012412 0.000129805 -0.000105867
-0.000858417 0.000253765 0.000259137 -9.92234e-05
-0.000854356 0.000252582 0.000257903 -9.9222e-05
-0.00127552 0.000379382 0.000384057 -8.8171e-05
-0.00126338 0.000375803 0.00038039 -8.81687e-05
-0.00042084 0.000122384 0.00012791 -0.000105862
-0.000424945 0.000123541 0.000129173 -0.000105865
-0.00126945 0.000377592 0.000382224 -8.81699e-05
-0.000842173 0.000249032 0.000254203 -9.92178e-05
-0.000422893 0.000122963 0.000128541 -0.000105864
-0.000850294 0.000251399 0.00025667 -9.92206e-05
-0.000846234 0.000250215 0.000255436 -9.92192e-05
-0.00126338 0.000375803 0.00038039 -8.81687e-05
-0.00125125 0.000372224 0.000376724 -8.81665e-05
-0.000416736 0.000121227 0.000126647 -0.000105859
-0.00042084 0.000122384 0.00012791 -0.000105862
-0.00125731 0.000374013 0.000378557 -8.81676e-05
-0.000834052 0.000246665 0.000251738 -9.92151e-05
-0.000418788 0.000121806 0.000127278 -0.000105861
-0.000842173 0.000249032 0.000254203 -9.92178e-05
-0.000838112 0.000247848 0.00025297 -9.92165e-05
-0.00125125 0.000372224 0.000376724 -8.81665e-05
-0.00123911 0.000368644 0.000373058 -8.81643e-05
-0.000412633 0.000120069 0.000125385 -0.000105856
-0.000416736 0.000121227 0.000126647 -0.000105859
-0.00124518 0.000370434 0.000374891 -8.81654e-05
-0.000825933 0.000244297 0.000249272 -9.92123e-05
-0.000414684 0.000120648 0.000126016 -0.000105857
-0.000834052 0.000246665 0.000251738 -9.92151e-05
-0.000829993 0.000245481 0.000250505 -9.92137e-05
-0.00123911 0.000368644 0.000373058 -8.81643e-05
-0.00122698 0.000365065 0.000369392 -8.81621e-05
-0.000408531 0.00011891 0.000124123 -0.000105852
-0.000412633 0.000120069 0.000125385 -0.000105856
-0.00123305 0.000366854 0.000371225 -8.81632e-05
-0.000817814 0.000241929 0.000246808 -9.92095e-05
-0.000410582 0.000119489 0.000124754 -0.000105854
-0.000825933 0.000244297 0.000249272 -9.92123e-05
-0.000821874 0.000243113 0.00024804 -9.92109e-05
-0.00122698 0.000365065 0.000369392 -8.81621e-05
-0.00121485 0.000361485 0.000365727 -8.81599e-05
-0.000404429 0.000117751 0.000122862 -0.000105849
-0.000408531 0.00011891 0.000124123 -0.000105852
-0.00122091 0.000363275 0.00036756 -8.8161e-05
-0.000809697 0.000239561 0.000244344 -9.92068e-05
-0.00040648 0.000118331 0.000123492 -0.000105851
-0.000817814 0.000241929 0.000246808 -9.92095e-05
-0.000813756 0.000240745 0.000245576 -9.92081e-05
-0.00121485 0.000361485 0.000365727 -8.81599e-05
-0.00120272 0.000357905 0.000362063 -8.81577e-05
-0.000400329 0.000116592 0.000121601 -0.000105846
-0.000404429 0.000117751 0.000122862 -0.000105849
-0.00120878 0.000359695 0.000363895 -8.81588e-05
-0.000801581 0.000237192 0.000241881 -9.9204e-05
-0.000402379 0.000117172 0.000122232 -0.000105848
-0.000809697 0.000239561 0.000244344 -9.92068e-05
-0.000805639 0.000238377 0.000243112 -9.92054e-05
-0.00120272 0.000357905 0.000362063 -8.81577e-05
-0.00119059 0.000354324 0.000358399 -8.81555e-05
-0.000396229 0.000115432 0.000120342 -0.000105843
-0.000400329 0.000116592 0.000121601 -0.000105846
-0.00119665 0.000356115 0.000360231 -8.81566e-05
-0.000793466 0.000234824 0.000239418 -9.92013e-05
-0.000398279 0.000116012 0.000120971 -0.000105844
-0.000801581 0.000237192 0.000241881 -9.9204e-05
-0.000797523 0.000236008 0.000240649 -9.92027e-05
-0.00119059 0.000354324 0.000358399 -8.81555e-05
-0.00117846 0.000350744 0.000354736 -8.81533e-05
-0.000392131 0.000114272 0.000119082 -0.00010584
-0.000396229 0.000115432 0.000120342 -0.000105843
-0.00118453 0.000352534 0.000356568 -8.81544e-05
-0.000785351 0.000232454 0.000236956 -9.91986e-05
-0.00039418 0.000114852 0.000119712 -0.000105841
-0.000793466 0.000234824 0.000239418 -9.92013e-05
-0.000789408 0.000233639 0.000238187 -9.91999e-05
-0.00117846 0.000350744 0.000354736 -8.81533e-05
-0.00116634 0.000347163 0.000351074 -8.81511e-05
-0.000388033 0.000113112 0.000117824 -0.000105836
-0.000392131 0.000114272 0.000119082 -0.00010584
-0.0011724 0.000348953 0.000352905 -8.81522e-05
-0.000777238 0.000230085 0.000234494 -9.91959e-05
-0.000390082 0.000113692 0.000118453 -0.000105838
-0.000785351 0.000232454 0.000236956 -9.91986e-05
-0.000781295 0.00023127 0.000235725 -9.91972e-05
-0.00116634 0.000347163 0.000351074 -8.81511e-05
-0.00115421 0.000343582 0.000347412 -8.81489e-05
-0.000383937 0.000111951 0.000116565 -0.000105833
-0.000388033 0.000113112 0.000117824 -0.000105836
-0.00116027 0.000345372 0.000349243 -8.815e-05
-0.000769126 0.000227715 0.000232033 -9.91932e-05
-0.000385985 0.000112531 0.000117194 -0.000105835
-0.000777238 0.000230085 0.000234494 -9.91959e-05
-0.000773182 0.0002289 0.000233264 -9.91945e-05
-0.00115421 0.000343582 0.000347412 -8.81489e-05
-0.00114209 0.00034 0.000343751 -8.81468e-05
-0.000379841 0.000110789 0.000115308 -0.00010583
-0.000383937 0.000111951 0.000116565 -0.000105833
-0.00114815 0.000341791 0.000345581 -8.81479e-05
-0.000761015 0.000225344 0.000229573 -9.91905e-05
-0.000381889 0.00011137 0.000115937 -0.000105832
-0.000769126 0.000227715 0.000232033 -9.91932e-05
-0.00076507 0.00022653 0.000230803 -9.91918e-05
-0.00114209 0.00034 0.000343751 -8.81468e-05
-0.00112996 0.000336419 0.00034009 -8.81446e-05
-0.000375746 0.000109628 0.000114051 -0.000105827
-0.000379841 0.000110789 0.000115308 -0.00010583
-0.00113602 0.00033821 0.00034192 -8.81457e-05
-0.000752905 0.000222974 0.000227113 -9.91878e-05
-0.000377794 0.000110208 0.000114679 -0.000105829
-0.000761015 0.000225344 0.000229573 -9.91905e-05
-0.00075696 0.000224159 0.000228343 -9.91891e-05
-0.00112996 0.000336419 0.00034009 -8.81446e-05
-0.00111784 0.000332837 0.00033643 -8.81425e-05
-0.000371653 0.000108465 0.000112795 -0.000105824
-0.000375746 0.000109628 0.000114051 -0.000105827
-0.0011239 0.000334628 0.00033826 -8.81436e-05
-0.000744796 0.000220603 0.000224654 -9.91851e-05
-0.000373699 0.000109046 0.000113423 -0.000105825
-0.000752905 0.000222974 0.000227113 -9.91878e-05
-0.00074885 0.000221788 0.000225884 -9.91865e-05
-0.00111784 0.000332837 0.00033643 -8.81425e-05
-0.00110572 0.000329255 0.00033277 -8.81404e-05
-0.00036756 0.000107303 0.000111539 -0.000105821
-0.000371653 0.000108465 0.000112795 -0.000105824
-0.00111178 0.000331046 0.0003346 -8.81415e-05
-0.000736688 0.000218231 0.000222196 -9.91825e-05
-0.000369606 0.000107884 0.000112167 -0.000105822
-0.000744796 0.000220603 0.000224654 -9.91851e-05
-0.000740742 0.000219417 0.000223425 -9.91838e-05
-0.00110572 0.000329255 0.00033277 -8.81404e-05
-0.0010936 0.000325672 0.000329111 -8.81383e-05
-0.000363468 0.00010614 0.000110284 -0.000105818
-0.00036756 0.000107303 0.000111539 -0.000105821
-0.00109966 0.000327464 0.000330941 -8.81394e-05
-0.000728581 0.00021586 0.000219738 -9.91799e-05
-0.000365514 0.000106721 0.000110911 -0.000105819
-0.000736688 0.000218231 0.000222196 -9.91825e-05
-0.000732634 0.000217046 0.000220966 -9.91812e-05
-0.0010936 0.000325672 0.000329111 -8.81383e-05
-0.00108148 0.00032209 0.000325453 -8.81362e-05
-0.000359377 0.000104976 0.000109029 -0.000105815
-0.000363468 0.00010614 0.000110284 -0.000105818
-0.00108754 0.000323881 0.000327282 -8.81373e-05
-0.000720475 0.000213488 0.00021728 -9.91772e-05
-0.000361422 0.000105558 0.000109656 -0.000105816
-0.000728581 0.00021586 0.000219738 -9.91799e-05
-0.000724528 0.000214674 0.000218509 -9.91785e-05
-0.00108148 0.00032209 0.000325453 -8.81362e-05
-0.00106936 0.000318507 0.000321795 -8.81342e-05
-0.000355287 0.000103812 0.000107775 -0.000105812
-0.000359377 0.000104976 0.000109029 -0.000105815
-0.00107542 0.000320298 0.000323624 -8.81352e-05
-0.00071237 0.000211115 0.000214823 -9.91746e-05
-0.000357332 0.000104394 0.000108402 -0.000105813
-0.000720475 0.000213488 0.00021728 -9.91772e-05
-0.000716422 0.000212301 0.000216052 -9.91759e-05
-0.00106936 0.000318507 0.000321795 -8.81342e-05
-0.00105725 0.000314924 0.000318138 -8.81321e-05
-0.000351198 0.000102648 0.000106521 -0.000105809
-0.000355287 0.000103812 0.000107775 -0.000105812
-0.0010633 0.000316715 0.000319967 -8.81331e-05
-0.000704266 0.000208742 0.000212367 -9.91721e-05
-0.000353242 0.00010323 0.000107148 -0.00010581
-0.00071237 0.000211115 0.000214823 -9.91746e-05
-0.000708318 0.000209929 0.000213595 -9.91734e-05
-0.00105725 0.000314924 0.000318138 -8.81321e-05
-0.00104513 0.00031134 0.000314481 -8.81301e-05
-0.000347109 0.000101483 0.000105269 -0.000105805
-0.000351198 0.000102648 0.000106521 -0.000105809
-0.00105119 0.000313132 0.00031631 -8.81311e-05
-0.000696163 0.000206369 0.000209912 -9.91695e-05
-0.000349153 0.000102065 0.000105895 -0.000105807
-0.000704266 0.000208742 0.000212367 -9.91721e-05
-0.000700214 0.000207556 0.000211139 -9.91708e-05
-0.00104513 0.00031134 0.000314481 -8.81301e-05
-0.00103302 0.000307757 0.000310825 -8.8128e-05
-0.000343022 0.000100318 0.000104016 -0.000105802
-0.000347109 0.000101483 0.000105269 -0.000105805
-0.00103907 0.000309548 0.000312653 -8.8129e-05
-0.000688061 0.000203996 0.000207457 -9.9167e-05
-0.000345066 0.0001009 0.000104642 -0.000105804
-0.000696163 0.000206369 0.000209912 -9.91695e-05
-0.000692112 0.000205183 0.000208684 -9.91682e-05
-0.00103302 0.000307757 0.000310825 -8.8128e-05
-0.0010209 0.000304173 0.00030717 -8.8126e-05
-0.000338936 9.9152e-05 0.000102765 -0.0001058
-0.000343022 0.000100318 0.000104016 -0.000105802
-0.00102696 0.000305965 0.000308997 -8.8127e-05
-0.00067996 0.000201622 0.000205002 -9.91644e-05
-0.000340979 9.97348e-05 0.00010339 -0.000105801
-0.000688061 0.000203996 0.000207457 -9.9167e-05
-0.000684011 0.000202809 0.000206229 -9.91657e-05
-0.0010209 0.000304173 0.00030717 -8.8126e-05
-0.00100879 0.000300588 0.000303515 -8.8124e-05
-0.00033485 9.79859e-05 0.000101513 -0.000105797
-0.000338936 9.9152e-05 0.000102765 -0.0001058
-0.00101485 0.000302381 0.000305342 -8.8125e-05
-0.000671861 0.000199248 0.000202548 -9.91619e-05
-0.000336893 9.8569e-05 0.000102139 -0.000105798
-0.00067996 0.000201622 0.000205002 -9.91644e-05
-0.00067591 0.000200435 0.000203775 -9.91632e-05
-0.00100879 0.000300588 0.000303515 -8.8124e-05
-0.000996679 0.000297004 0.000299861 -8.81221e-05
-0.000330766 9.68194e-05 0.000100263 -0.000105794
-0.00033485 9.79859e-05 0.000101513 -0.000105797
-0.00100273 0.000298796 0.000301688 -8.81231e-05
-0.000663762 0.000196873 0.000200095 -9.91594e-05
-0.000332808 9.74027e-05 0.000100888 -0.000105795
-0.000671861 0.000199248 0.000202548 -9.91619e-05
-0.000667811 0.000198061 0.000201322 -9.91607e-05
-0.000996679 0.000297004 0.000299861 -8.81221e-05
-0.000984569 0.000293419 0.000296207 -8.81201e-05
-0.000326683 9.56524e-05 9.90129e-05 -0.000105791
-0.000330766 9.68194e-05 0.000100263 -0.000105794
-0.000990623 0.000295212 0.000298034 -8.81211e-05
-0.000655664 0.000194498 0.000197642 -9.9157e-05
-0.000328724 9.6236e-05 9.96378e-05 -0.000105792
-0.000663762 0.000196873 0.000200095 -9.91594e-05
-0.000659713 0.000195686 0.000198869 -9.91582e-05
-0.000984569 0.000293419 0.000296207 -8.81201e-05
-0.00097246 0.000289834 0.000292554 -8.81182e-05
-0.0003226 9.44851e-05 9.77635e-05 -0.000105788
-0.000326683 9.56524e-05 9.90129e-05 -0.000105791
-0.000978514 0.000291627 0.00029438 -8.81192e-05
-0.000647567 0.000192123 0.00019519 -9.91545e-05
-0.000324641 9.50688e-05 9.83881e-05 -0.000105789
-0.000655664 0.000194498 0.000197642 -9.9157e-05
-0.000651616 0.000193311 0.000196416 -9.91558e-05
-0.00097246 0.000289834 0.000292554 -8.81182e-05
-0.000960352 0.000286249 0.000288901 -8.81163e-05
-0.000318518 9.33173e-05 9.65147e-05 -0.000105785
-0.0003226 9.44851e-05 9.77635e-05 -0.000105788
-0.000966405 0.000288042 0.000290727 -8.81172e-05
-0.000639472 0.000189747 0.000192739 -9.91521e-05
-0.000320559 9.39012e-05 9.7139e-05 -0.000105786
-0.000647567 0.000192123 0.00019519 -9.91545e-05
-0.000643519 0.000190935 0.000193965 -9.91533e-05
-0.000960352 0.000286249 0.000288901 -8.81163e-05
-0.000948245 0.000282664 0.000285249 -8.81144e-05
-0.000314438 9.21491e-05 9.52665e-05 -0.000105782
-0.000318518 9.33173e-05 9.65147e-05 -0.000105785
-0.000954298 0.000284456 0.000287075 -8.81153e-05
-0.000631377 0.000187371 0.000190288 -9.91497e-05
-0.000316478 9.27332e-05 9.58905e-05 -0.000105784
-0.000639472 0.000189747 0.000192739 -9.91521e-05
-0.000635424 0.000188559 0.000191513 -9.91509e-05
-0.000948245 0.000282664 0.000285249 -8.81144e-05
-0.000936139 0.000279078 0.000281598 -8.81125e-05
-0.000310358 9.09804e-05 9.40189e-05 -0.000105779
-0.000314438 9.21491e-05 9.52665e-05 -0.000105782
-0.000942192 0.000280871 0.000283423 -8.81134e-05
-0.000623283 0.000184995 0.000187838 -9.91473e-05
-0.000312398 9.15648e-05 9.46426e-05 -0.000105781
-0.000631377 0.000187371 0.000190288 -9.91497e-05
-0.00062733 0.000186183 0.000189063 -9.91485e-05
-0.000936139 0.000279078 0.000281598 -8.81125e-05
-0.000924034 0.000275492 0.000277947 -8.81107e-05
-0.000306279 8.98113e-05 9.27718e-05 -0.000105777
-0.000310358 9.09804e-05 9.40189e-05 -0.000105779
-0.000930086 0.000277285 0.000279772 -8.81116e-05
-0.000615191 0.000182618 0.000185388 -9.9145e-05
-0.000308318 9.03959e-05 9.33953e-05 -0.000105778
-0.000623283 0.000184995 0.000187838 -9.91473e-05
-0.000619237 0.000183807 0.000186613 -9.91462e-05
-0.000924034 0.000275492 0.000277947 -8.81107e-05
-0.00091193 0.000271905 0.000274296 -8.81088e-05
-0.000302201 8.86418e-05 9.15253e-05 -0.000105774
-0.000306279 8.98113e-05 9.27718e-05 -0.000105777
-0.000917982 0.000273699 0.000276122 -8.81097e-05
-0.000607099 0.000180241 0.000182939 -9.91427e-05
-0.00030424 8.92266e-05 9.21485e-05 -0.000105775
-0.000615191 0.000182618 0.000185388 -9.9145e-05
-0.000611145 0.00018143 0.000184163 -9.91438e-05
-0.00091193 0.000271905 0.000274296 -8.81088e-05
-0.000899828 0.000268319 0.000270647 -8.8107e-05
-0.000298124 8.74719e-05 9.02794e-05 -0.000105771
-0.000302201 8.86418e-05 9.15253e-05 -0.000105774
-0.000905879 0.000270112 0.000272472 -8.81079e-05
-0.000599008 0.000177864 0.00018049 -9.91404e-05
-0.000300162 8.80569e-05 9.09023e-05 -0.000105772
-0.000607099 0.000180241 0.000182939 -9.91427e-05
-0.000603053 0.000179053 0.000181715 -9.91415e-05
-0.000899828 0.000268319 0.000270647 -8.8107e-05
-0.000887726 0.000264732 0.000266998 -8.81052e-05
-0.000294048 8.63015e-05 8.90341e-05 -0.000105768
-0.000298124 8.74719e-05 9.02794e-05 -0.000105771
-0.000893777 0.000266525 0.000268822 -8.81061e-05
-0.000590918 0.000175486 0.000178042 -9.91381e-05
-0.000296086 8.68868e-05 8.96567e-05 -0.00010577
-0.000599008 0.000177864 0.00018049 -9.91404e-05
-0.000594963 0.000176675 0.000179266 -9.91392e-05
-0.000887726 0.000264732 0.000266998 -8.81052e-05
-0.000875626 0.000261145 0.000263349 -8.81035e-05
-0.000289973 8.51307e-05 8.77894e-05 -0.000105766
-0.000294048 8.63015e-05 8.90341e-05 -0.000105768
-0.000881676 0.000262938 0.000265173 -8.81043e-05
-0.00058283 0.000173108 0.000175595 -9.91358e-05
-0.00029201 8.57162e-05 8.84117e-05 -0.000105767
-0.000590918 0.000175486 0.000178042 -9.91381e-05
-0.000586874 0.000174297 0.000176819 -9.9137e-05
-0.000875626 0.000261145 0.000263349 -8.81035e-05
-0.000863526 0.000257557 0.000259701 -8.81017e-05
-0.000285898 8.39595e-05 8.65452e-05 -0.000105763
-0.000289973 8.51307e-05 8.77894e-05 -0.000105766
-0.000869576 0.000259351 0.000261525 -8.81026e-05
-0.000574742 0.00017073 0.000173148 -9.91336e-05
-0.000287935 8.45452e-05 8.71672e-05 -0.000105764
-0.00058283 0.000173108 0.000175595 -9.91358e-05
-0.000578786 0.000171919 0.000174372 -9.91347e-05
-0.000863526 0.000257557 0.000259701 -8.81017e-05
-0.000851428 0.00025397 0.000256054 -8.81e-05
-0.000281825 8.27879e-05 8.53016e-05 -0.00010576
-0.000285898 8.39595e-05 8.65452e-05 -0.000105763
-0.000857477 0.000255764 0.000257877 -8.81009e-05
-0.000566655 0.000168351 0.000170702 -9.91314e-05
-0.000283862 8.33737e-05 8.59234e-05 -0.000105762
-0.000574742 0.00017073 0.000173148 -9.91336e-05
-0.000570699 0.00016954 0.000171925 -9.91325e-05
-0.000851428 0.00025397 0.000256054 -8.81e-05
-0.000839331 0.000250382 0.000252407 -8.80983e-05
-0.000277753 8.16158e-05 8.40586e-05 -0.000105758
-0.000281825 8.27879e-05 8.53016e-05 -0.00010576
-0.000845379 0.000252176 0.00025423 -8.80992e-05
-0.00055857 0.000165972 0.000168256 -9.91292e-05
-0.000279789 8.22019e-05 8.46801e-05 -0.000105759
-0.000566655 0.000168351 0.000170702 -9.91314e-05
-0.000562613 0.000167161 0.000169479 -9.91303e-05
-0.000839331 0.000250382 0.000252407 -8.80983e-05
-0.000827234 0.000246794 0.00024876 -8.80966e-05
-0.000273681 8.04433e-05 8.28162e-05 -0.000105755
-0.000277753 8.16158e-05 8.40586e-05 -0.000105758
-0.000833282 0.000248588 0.000250583 -8.80975e-05
-0.000550485 0.000163592 0.000165811 -9.91271e-05
-0.000275717 8.10296e-05 8.34373e-05 -0.000105756
-0.00055857 0.000165972 0.000168256 -9.91292e-05
-0.000554527 0.000164782 0.000167034 -9.91282e-05
-0.000827234 0.000246794 0.00024876 -8.80966e-05
-0.000815139 0.000243205 0.000245115 -8.8095e-05
-0.00026961 7.92703e-05 8.15744e-05 -0.000105753
-0.000273681 8.04433e-05 8.28162e-05 -0.000105755
-0.000821187 0.000245 0.000246937 -8.80958e-05
-0.000542401 0.000161212 0.000163367 -9.9125e-05
-0.000271646 7.98568e-05 8.21952e-05 -0.000105754
-0.000550485 0.000163592 0.000165811 -9.91271e-05
-0.000546443 0.000162402 0.000164589 -9.9126e-05
-0.000815139 0.000243205 0.000245115 -8.8095e-05
-0.000803045 0.000239616 0.000241469 -8.80934e-05
-0.000265541 7.80969e-05 8.03331e-05 -0.00010575
-0.00026961 7.92703e-05 8.15744e-05 -0.000105753
-0.000809092 0.000241411 0.000243292 -8.80942e-05
-0.000534319 0.000158832 0.000160923 -9.91229e-05
-0.000267576 7.86837e-05 8.09536e-05 -0.000105751
-0.000542401 0.000161212 0.000163367 -9.9125e-05
-0.00053836 0.000160022 0.000162145 -9.91239e-05
-0.000803045 0.000239616 0.000241469 -8.80934e-05
-0.000790952 0.000236027 0.000237825 -8.80918e-05
-0.000261472 7.69231e-05 7.90924e-05 -0.000105748
-0.000265541 7.80969e-05 8.03331e-05 -0.00010575
-0.000796998 0.000237822 0.000239647 -8.80926e-05
-0.000526237 0.000156451 0.00015848 -9.91208e-05
-0.000263506 7.75101e-05 7.97127e-05 -0.000105749
-0.000534319 0.000158832 0.000160923 -9.91229e-05
-0.000530278 0.000157641 0.000159701 -9.91219e-05
-0.000790952 0.000236027 0.000237825 -8.80918e-05
-0.00077886 0.000232438 0.000234181 -8.80902e-05
-0.000257404 7.57489e-05 7.78523e-05 -0.000105745
-0.000261472 7.69231e-05 7.90924e-05 -0.000105748
-0.000784906 0.000234233 0.000236003 -8.8091e-05
-0.000518156 0.00015407 0.000156037 -9.91188e-05
-0.000259438 7.63361e-05 7.84723e-05 -0.000105746
-0.000526237 0.000156451 0.00015848 -9.91208e-05
-0.000522197 0.000155261 0.000157258 -9.91198e-05
-0.00077886 0.000232438 0.000234181 -8.80902e-05
-0.000766769 0.000228849 0.000230537 -8.80887e-05
-0.000253337 7.45742e-05 7.66127e-05 -0.000105743
-0.000257404 7.57489e-05 7.78523e-05 -0.000105745
-0.000772814 0.000230643 0.000232359 -8.80894e-05
-0.000510077 0.000151689 0.000153595 -9.91168e-05
-0.000255371 7.51616e-05 7.72324e-05 -0.000105744
-0.000518156 0.00015407 0.000156037 -9.91188e-05
-0.000514116 0.000152879 0.000154816 -9.91178e-05
-0.000766769 0.000228849 0.000230537 -8.80887e-05
-0.000754678 0.000225259 0.000226894 -8.80872e-05
-0.000249271 7.33991e-05 7.53738e-05 -0.00010574
-0.000253337 7.45742e-05 7.66127e-05 -0.000105743
-0.000760723 0.000227054 0.000228716 -8.80879e-05
-0.000501998 0.000149307 0.000151153 -9.91148e-05
-0.000251304 7.39867e-05 7.59932e-05 -0.000105742
-0.000510077 0.000151689 0.000153595 -9.91168e-05
-0.000506037 0.000150498 0.000152374 -9.91158e-05
-0.000754678 0.000225259 0.000226894 -8.80872e-05
-0.000742589 0.000221669 0.000223252 -8.80857e-05
-0.000245206 7.22236e-05 7.41354e-05 -0.000105738
-0.000249271 7.33991e-05 7.53738e-05 -0.00010574
-0.000748634 0.000223464 0.000225073 -8.80864e-05
-0.00049392 0.000146925 0.000148712 -9.91129e-05
-0.000247239 7.28114e-05 7.47545e-05 -0.000105739
-0.000501998 0.000149307 0.000151153 -9.91148e-05
-0.000497959 0.000148116 0.000149933 -9.91138e-05
-0.000742589 0.000221669 0.000223252 -8.80857e-05
-0.000730501 0.000218078 0.00021961 -8.80842e-05
-0.000241142 7.10476e-05 7.28975e-05 -0.000105736
-0.000245206 7.22236e-05 7.41354e-05 -0.000105738
-0.000736545 0.000219873 0.000221431 -8.80849e-05
-0.000485843 0.000144542 0.000146272 -9.9111e-05
-0.000243174 7.16356e-05 7.35164e-05 -0.000105737
-0.00049392 0.000146925 0.000148712 -9.91129e-05
-0.000489881 0.000145733 0.000147492 -9.91119e-05
-0.000730501 0.000218078 0.00021961 -8.80842e-05
-0.000718414 0.000214487 0.000215969 -8.80828e-05
-0.000237079 6.98712e-05 7.16603e-05 -0.000105733
-0.000241142 7.10476e-05 7.28975e-05 -0.000105736
-0.000724458 0.000216283 0.000217789 -8.80835e-05
-0.000477767 0.000142159 0.000143832 -9.91091e-05
-0.00023911 7.04594e-05 7.22788e-05 -0.000105735
-0.000485843 0.000144542 0.000146272 -9.9111e-05
-0.000481805 0.000143351 0.000145052 -9.911e-05
-0.000718414 0.000214487 0.000215969 -8.80828e-05
-0.000706328 0.000210896 0.000212328 -8.80814e-05
-0.000233016 6.86943e-05 7.04236e-05 -0.000105731
-0.000237079 6.98712e-05 7.16603e-05 -0.000105733
-0.000712371 0.000212692 0.000214148 -8.80821e-05
-0.000469692 0.000139776 0.000141393 -9.91072e-05
-0.000235047 6.92828e-05 7.10419e-05 -0.000105732
-0.000477767 0.000142159 0.000143832 -9.91091e-05
-0.00047373 0.000140968 0.000142612 -9.91082e-05
-0.000706328 0.000210896 0.000212328 -8.80814e-05
-0.000694243 0.000207305 0.000208688 -8.808e-05
-0.000228955 6.75171e-05 6.91875e-05 -0.000105729
-0.000233016 6.86943e-05 7.04236e-05 -0.000105731
-0.000700286 0.000209101 0.000210508 -8.80807e-05
-0.000461618 0.000137392 0.000138954 -9.91054e-05
-0.000230985 6.81058e-05 6.98055e-05 -0.00010573
-0.000469692 0.000139776 0.000141393 -9.91072e-05
-0.000465655 0.000138584 0.000140173 -9.91063e-05
-0.000694243 0.000207305 0.000208688 -8.808e-05
-0.000682159 0.000203714 0.000205048 -8.80786e-05
-0.000224894 6.63394e-05 6.7952e-05 -0.000105727
-0.000228955 6.75171e-05 6.91875e-05 -0.000105729
-0.000688201 0.000205509 0.000206868 -8.80793e-05
-0.000453546 0.000135008 0.000136516 -9.91036e-05
-0.000226924 6.69283e-05 6.85697e-05 -0.000105728
-0.000461618 0.000137392 0.000138954 -9.91054e-05
-0.000457582 0.0001362 0.000137735 -9.91045e-05
-0.000682159 0.000203714 0.000205048 -8.80786e-05
-0.000670076 0.000200122 0.000201409 -8.80773e-05
-0.000220834 6.51612e-05 6.6717e-05 -0.000105725
-0.000224894 6.63394e-05 6.7952e-05 -0.000105727
-0.000676118 0.000201918 0.000203229 -8.8078e-05
-0.000445474 0.000132624 0.000134078 -9.91019e-05
-0.000222864 6.57503e-05 6.73345e-05 -0.000105726
-0.000453546 0.000135008 0.000136516 -9.91036e-05
-0.000449509 0.000133816 0.000135297 -9.91028e-05
-0.000670076 0.000200122 0.000201409 -8.80773e-05
-0.000657994 0.00019653 0.000197771 -8.8076e-05
-0.000216776 6.39826e-05 6.54827e-05 -0.000105722
-0.000220834 6.51612e-05 6.6717e-05 -0.000105725
-0.000664035 0.000198326 0.00019959 -8.80767e-05
-0.000437402 0.000130239 0.000131641 -9.91002e-05
-0.000218805 6.4572e-05 6.60998e-05 -0.000105724
-0.000445474 0.000132624 0.000134078 -9.91019e-05
-0.000441438 0.000131432 0.00013286 -9.9101e-05
-0.000657994 0.00019653 0.000197771 -8.8076e-05
-0.000645913 0.000192937 0.000194133 -8.80748e-05
-0.000212718 6.28036e-05 6.42489e-05 -0.00010572
-0.000216776 6.39826e-05 6.54827e-05 -0.000105722
-0.000651954 0.000194733 0.000195952 -8.80754e-05
-0.000429332 0.000127854 0.000129205 -9.90985e-05
-0.000214746 6.33932e-05 6.48657e-05 -0.000105721
-0.000437402 0.000130239 0.000131641 -9.91002e-05
-0.000433367 0.000129047 0.000130423 -9.90993e-05
-0.000645913 0.000192937 0.000194133 -8.80748e-05
-0.000633833 0.000189344 0.000190495 -8.80736e-05
-0.000208661 6.16242e-05 6.30156e-05 -0.000105718
-0.000212718 6.28036e-05 6.42489e-05 -0.00010572
-0.000639873 0.000191141 0.000192314 -8.80742e-05
-0.000421263 0.000125469 0.000126769 -9.90969e-05
-0.000210689 6.22139e-05 6.36322e-05 -0.000105719
-0.000429332 0.000127854 0.000129205 -9.90985e-05
-0.000425298 0.000126661 0.000127987 -9.90977e-05
-0.000633833 0.000189344 0.000190495 -8.80736e-05
-0.000621754 0.000185751 0.000186858 -8.80724e-05
-0.000204604 6.04443e-05 6.17829e-05 -0.000105716
-0.000208661 6.16242e-05 6.30156e-05 -0.000105718
-0.000627793 0.000187548 0.000188677 -8.8073e-05
-0.000413195 0.000123083 0.000124334 -9.90952e-05
-0.000206632 6.10343e-05 6.23992e-05 -0.000105717
-0.000421263 0.000125469 0.000126769 -9.90969e-05
-0.000417229 0.000124276 0.000125551 -9.9096e-05
-0.000621754 0.000185751 0.000186858 -8.80724e-05
-0.000609676 0.000182158 0.000183222 -8.80712e-05
-0.000200549 5.92639e-05 6.05508e-05 -0.000105714
-0.000204604 6.04443e-05 6.17829e-05 -0.000105716
-0.000615715 0.000183955 0.00018504 -8.80718e-05
-0.000405128 0.000120697 0.000121899 -9.90937e-05
-0.000202577 5.98542e-05 6.11668e-05 -0.000105715
-0.000413195 0.000123083 0.000124334 -9.90952e-05
-0.000409161 0.00012189 0.000123116 -9.90944e-05
-0.000609676 0.000182158 0.000183222 -8.80712e-05
-0.000597599 0.000178564 0.000179586 -8.80701e-05
-0.000196495 5.80832e-05 5.93193e-05 -0.000105712
-0.000200549 5.92639e-05 6.05508e-05 -0.000105714
-0.000603637 0.000180361 0.000181404 -8.80706e-05
-0.000397061 0.00011831 0.000119465 -9.90921e-05
-0.000198522 5.86736e-05 5.9935e-05 -0.000105713
-0.000405128 0.000120697 0.000121899 -9.90937e-05
-0.000401095 0.000119503 0.000120682 -9.90929e-05
-0.000597599 0.000178564 0.000179586 -8.80701e-05
-0.000585523 0.000174971 0.000175951 -8.8069e-05
-0.000192441 5.6902e-05 5.80884e-05 -0.000105711
-0.000196495 5.80832e-05 5.93193e-05 -0.000105712
-0.000591561 0.000176768 0.000177768 -8.80695e-05
-0.000388996 0.000115923 0.000117031 -9.90906e-05
-0.000194468 5.74926e-05 5.87038e-05 -0.000105711
-0.000397061 0.00011831 0.000119465 -9.90921e-05
-0.000393029 0.000117117 0.000118248 -9.90914e-05
-0.000585523 0.000174971 0.000175951 -8.8069e-05
-0.000573447 0.000171376 0.000172316 -8.80679e-05
-0.000188389 5.57203e-05 5.6858e-05 -0.000105709
-0.000192441 5.6902e-05 5.80884e-05 -0.000105711
-0.000579485 0.000173174 0.000174133 -8.80684e-05
-0.000380932 0.000113536 0.000114598 -9.90891e-05
-0.000190415 5.63112e-05 5.74731e-05 -0.00010571
-0.000388996 0.000115923 0.000117031 -9.90906e-05
-0.000384964 0.000114729 0.000115815 -9.90899e-05
-0.000573447 0.000171376 0.000172316 -8.80679e-05
-0.000561373 0.000167782 0.000168682 -8.80668e-05
-0.000184337 5.45383e-05 5.56281e-05 -0.000105707
-0.000188389 5.57203e-05 5.6858e-05 -0.000105709
-0.00056741 0.000169579 0.000170499 -8.80674e-05
-0.000372868 0.000111148 0.000112166 -9.90877e-05
-0.000186363 5.51294e-05 5.6243e-05 -0.000105708
-0.000380932 0.000113536 0.000114598 -9.90891e-05
-0.0003769 0.000112342 0.000113382 -9.90884e-05
-0.000561373 0.000167782 0.000168682 -8.80668e-05
-0.0005493 0.000164187 0.000165048 -8.80658e-05
-0.000180286 5.33557e-05 5.43989e-05 -0.000105705
-0.000184337 5.45383e-05 5.56281e-05 -0.000105707
-0.000555336 0.000165984 0.000166865 -8.80663e-05
-0.000364806 0.00010876 0.000109734 -9.90863e-05
-0.000182312 5.39471e-05 5.50134e-05 -0.000105706
-0.000372868 0.000111148 0.000112166 -9.90877e-05
-0.000368837 0.000109954 0.00011095 -9.9087e-05
-0.0005493 0.000164187 0.000165048 -8.80658e-05
-0.000537228 0.000160592 0.000161415 -8.80649e-05
-0.000176237 5.21728e-05 5.31702e-05 -0.000105703
-0.000180286 5.33557e-05 5.43989e-05 -0.000105705
-0.000543264 0.00016239 0.000163232 -8.80653e-05
-0.000356744 0.000106371 0.000107303 -9.90849e-05
-0.000178261 5.27643e-05 5.37845e-05 -0.000105704
-0.000364806 0.00010876 0.000109734 -9.90863e-05
-0.000360775 0.000107565 0.000108518 -9.90856e-05
-0.000537228 0.000160592 0.000161415 -8.80649e-05
-0.000525156 0.000156997 0.000157783 -8.80639e-05
-0.000172188 5.09894e-05 5.19421e-05 -0.000105702
-0.000176237 5.21728e-05 5.31702e-05 -0.000105703
-0.000531192 0.000158794 0.000159599 -8.80644e-05
-0.000348683 0.000103982 0.000104872 -9.90836e-05
-0.000174212 5.15811e-05 5.25561e-05 -0.000105703
-0.000356744 0.000106371 0.000107303 -9.90849e-05
-0.000352714 0.000105177 0.000106087 -9.90843e-05
-0.000525156 0.000156997 0.000157783 -8.80639e-05
-0.000513086 0.000153401 0.000154151 -8.8063e-05
-0.000168139 4.98055e-05 5.07145e-05 -0.0001057
-0.000172188 5.09894e-05 5.19421e-05 -0.000105702
-0.000519121 0.000155199 0.000155967 -8.80635e-05
-0.000340624 0.000101593 0.000102442 -9.90823e-05
-0.000170163 5.03975e-05 5.13282e-05 -0.000105701
-0.000348683 0.000103982 0.000104872 -9.90836e-05
-0.000344653 0.000102788 0.000103657 -9.9083e-05
-0.000513086 0.000153401 0.000154151 -8.8063e-05
-0.000501016 0.000149805 0.000150519 -8.80621e-05
-0.000164092 4.86213e-05 4.94875e-05 -0.000105698
-0.000168139 4.98055e-05 5.07145e-05 -0.0001057
-0.000507051 0.000151603 0.000152335 -8.80626e-05
-0.000332565 9.92033e-05 0.000100012 -9.90811e-05
-0.000166116 4.92135e-05 5.01009e-05 -0.000105699
-0.000340624 0.000101593 0.000102442 -9.90823e-05
-0.000336594 0.000100398 0.000101227 -9.90817e-05
-0.000501016 0.000149805 0.000150519 -8.80621e-05
-0.000488948 0.000146208 0.000146888 -8.80613e-05
-0.000160046 4.74365e-05 4.82611e-05 -0.000105697
-0.000164092 4.86213e-05 4.94875e-05 -0.000105698
-0.000494982 0.000148007 0.000148704 -8.80617e-05
-0.000324507 9.68132e-05 9.75829e-05 -9.90799e-05
-0.000162069 4.8029e-05 4.88742e-05 -0.000105698
-0.000332565 9.92033e-05 0.000100012 -9.90811e-05
-0.000328536 9.80083e-05 9.87974e-05 -9.90805e-05
-0.000488948 0.000146208 0.000146888 -8.80613e-05
-0.00047688 0.000142612 0.000143258 -8.80605e-05
-0.000156 4.62514e-05 4.70352e-05 -0.000105695
-0.000160046 4.74365e-05 4.82611e-05 -0.000105697
-0.000482914 0.00014441 0.000145073 -8.80609e-05
-0.00031645 9.44228e-05 9.51544e-05 -9.90787e-05
-0.000158023 4.6844e-05 4.76481e-05 -0.000105696
-0.000324507 9.68132e-05 9.75829e-05 -9.90799e-05
-0.000320478 9.56181e-05 9.63686e-05 -9.90793e-05
-0.00047688 0.000142612 0.000143258 -8.80605e-05
-0.000464813 0.000139015 0.000139628 -8.80597e-05
-0.000151956 4.50658e-05 4.58099e-05 -0.000105694
-0.000156 4.62514e-05 4.70352e-05 -0.000105695
-0.000470846 0.000140813 0.000141443 -8.80601e-05
-0.000308393 9.2032e-05 9.27264e-05 -9.90776e-05
-0.000153978 4.56586e-05 4.64225e-05 -0.000105695
-0.00031645 9.44228e-05 9.51544e-05 -9.90787e-05
-0.000312421 9.32274e-05 9.39403e-05 -9.90781e-05
-0.000464813 0.000139015 0.000139628 -8.80597e-05
-0.000452747 0.000135418 0.000135998 -8.8059e-05
-0.000147912 4.38797e-05 4.45852e-05 -0.000105692
-0.000151956 4.50658e-05 4.58099e-05 -0.000105694
-0.00045878 0.000137216 0.000137813 -8.80593e-05
-0.000300338 8.96407e-05 9.02989e-05 -9.90765e-05
-0.000149934 4.44728e-05 4.51975e-05 -0.000105693
-0.000308393 9.2032e-05 9.27264e-05 -9.90776e-05
-0.000304366 9.08364e-05 9.15126e-05 -9.9077e-05
-0.000452747 0.000135418 0.000135998 -8.8059e-05
-0.000440682 0.00013182 0.00013237 -8.80583e-05
-0.000143869 4.26932e-05 4.3361e-05 -0.000105691
-0.000147912 4.38797e-05 4.45852e-05 -0.000105692
-0.000446715 0.000133619 0.000134184 -8.80586e-05
-0.000292284 8.72491e-05 8.78721e-05 -9.90754e-05
-0.00014589 4.32865e-05 4.39731e-05 -0.000105692
-0.000300338 8.96407e-05 9.02989e-05 -9.90765e-05
-0.000296311 8.8445e-05 8.90854e-05 -9.90759e-05
-0.000440682 0.00013182 0.00013237 -8.80583e-05
-0.000428618 0.000128222 0.000128741 -8.80576e-05
-0.000139827 4.15063e-05 4.21374e-05 -0.00010569
-0.000143869 4.26932e-05 4.3361e-05 -0.000105691
-0.00043465 0.000130021 0.000130555 -8.80579e-05
-0.000284231 8.48571e-05 8.54457e-05 -9.90744e-05
-0.000141848 4.20998e-05 4.27492e-05 -0.00010569
-0.000292284 8.72491e-05 8.78721e-05 -9.90754e-05
-0.000288257 8.60532e-05 8.66588e-05 -9.90749e-05
-0.000428618 0.000128222 0.000128741 -8.80576e-05
-0.000416555 0.000124624 0.000125113 -8.8057e-05
-0.000135786 4.03189e-05 4.09144e-05 -0.000105688
-0.000139827 4.15063e-05 4.21374e-05 -0.00010569
-0.000422587 0.000126423 0.000126927 -8.80573e-05
-0.000276178 8.24647e-05 8.302e-05 -9.90734e-05
-0.000137806 4.09127e-05 4.15258e-05 -0.000105689
-0.000284231 8.48571e-05 8.54457e-05 -9.90744e-05
-0.000280204 8.3661e-05 8.42328e-05 -9.90739e-05
-0.000416555 0.000124624 0.000125113 -8.8057e-05
-0.000404493 0.000121025 0.000121486 -8.80564e-05
-0.000131746 3.91311e-05 3.96919e-05 -0.000105687
-0.000135786 4.03189e-05 4.09144e-05 -0.000105688
-0.000410524 0.000122825 0.0001233 -8.80567e-05
-0.000268126 8.00719e-05 8.05948e-05 -9.90725e-05
-0.000133766 3.9725e-05 4.03031e-05 -0.000105688
-0.000276178 8.24647e-05 8.302e-05 -9.90734e-05
-0.000272152 8.12684e-05 8.18073e-05 -9.90729e-05
-0.000404493 0.000121025 0.000121486 -8.80564e-05
-0.000392432 0.000117427 0.000117859 -8.80558e-05
-0.000127706 3.79428e-05 3.847e-05 -0.000105686
-0.000131746 3.91311e-05 3.96919e-05 -0.000105687
-0.000398462 0.000119226 0.000119673 -8.80561e-05
-0.000260076 7.76787e-05 7.81701e-05 -9.90716e-05
-0.000129726 3.8537e-05 3.90809e-05 -0.000105686
-0.000268126 8.00719e-05 8.05948e-05 -9.90725e-05
-0.000264101 7.88754e-05 7.93824e-05 -9.9072e-05
-0.000392432 0.000117427 0.000117859 -8.80558e-05
-0.000380371 0.000113827 0.000114233 -8.80553e-05
-0.000123668 3.6754e-05 3.72486e-05 -0.000105684
-0.000127706 3.79428e-05 3.847e-05 -0.000105686
-0.000386402 0.000115627 0.000116046 -8.80555e-05
-0.000252026 7.52851e-05 7.5746e-05 -9.90707e-05
-0.000125687 3.73485e-05 3.78592e-05 -0.000105685
-0.000260076 7.76787e-05 7.81701e-05 -9.90716e-05
-0.000256051 7.6482e-05 7.6958e-05 -9.90711e-05
-0.000380371 0.000113827 0.000114233 -8.80553e-05
-0.000368312 0.000110228 0.000110607 -8.80547e-05
-0.00011963 3.55648e-05 3.60278e-05 -0.000105683
-0.000123668 3.6754e-05 3.72486e-05 -0.000105684
-0.000374342 0.000112028 0.00011242 -8.8055e-05
-0.000243977 7.28911e-05 7.33224e-05 -9.90699e-05
-0.000121649 3.61595e-05 3.66382e-05 -0.000105684
-0.000252026 7.52851e-05 7.5746e-05 -9.90707e-05
-0.000248001 7.40882e-05 7.45341e-05 -9.90703e-05
-0.000368312 0.000110228 0.000110607 -8.80547e-05
-0.000356253 0.000106628 0.000106982 -8.80543e-05
-0.000115593 3.43752e-05 3.48076e-05 -0.000105682
-0.00011963 3.55648e-05 3.60278e-05 -0.000105683
-0.000362282 0.000108428 0.000108795 -8.80545e-05
-0.000235929 7.04967e-05 7.08994e-05 -9.9069e-05
-0.000117611 3.49701e-05 3.54177e-05 -0.000105683
-0.000243977 7.28911e-05 7.33224e-05 -9.90699e-05
-0.000239953 7.1694e-05 7.21108e-05 -9.90694e-05
-0.000356253 0.000106628 0.000106982 -8.80543e-05
-0.000344195 0.000103028 0.000103357 -8.80538e-05
-0.000111557 3.3185e-05 3.35879e-05 -0.000105681
-0.000115593 3.43752e-05 3.48076e-05 -0.000105682
-0.000350224 0.000104828 0.00010517 -8.8054e-05
-0.000227881 6.81018e-05 6.84769e-05 -9.90683e-05
-0.000113575 3.37801e-05 3.41977e-05 -0.000105682
-0.000235929 7.04967e-05 7.08994e-05 -9.9069e-05
-0.000231905 6.92993e-05 6.96881e-05 -9.90686e-05
-0.000344195 0.000103028 0.000103357 -8.80538e-05
-0.000332138 9.94273e-05 9.97333e-05 -8.80533e-05
-0.000107522 3.19943e-05 3.23688e-05 -0.00010568
-0.000111557 3.3185e-05 3.35879e-05 -0.000105681
-0.000338167 0.000101228 0.000101545 -8.80535e-05
-0.000219835 6.57066e-05 6.6055e-05 -9.90675e-05
-0.000109539 3.25897e-05 3.29783e-05 -0.000105681
-0.000227881 6.81018e-05 6.84769e-05 -9.90683e-05
-0.000223858 6.69043e-05 6.72659e-05 -9.90679e-05
-0.000332138 9.94273e-05 9.97333e-05 -8.80533e-05
-0.000320082 9.58264e-05 9.61096e-05 -8.80528e-05
-0.000103487 3.08032e-05 3.11503e-05 -0.000105679
-0.000107522 3.19943e-05 3.23688e-05 -0.00010568
-0.00032611 9.76269e-05 9.79214e-05 -8.8053e-05
-0.000211789 6.33108e-05 6.36336e-05 -9.90667e-05
-0.000105504 3.13988e-05 3.17595e-05 -0.000105679
-0.000219835 6.57066e-05 6.6055e-05 -9.90675e-05
-0.000215812 6.45087e-05 6.48442e-05 -9.90671e-05
-0.000320082 9.58264e-05 9.61096e-05 -8.80528e-05
-0.000308027 9.22251e-05 9.24865e-05 -8.80523e-05
-9.94535e-05 2.96115e-05 2.99323e-05 -0.000105678
-0.000103487 3.08032e-05 3.11503e-05 -0.000105679
-0.000314054 9.40258e-05 9.4298e-05 -8.80525e-05
-0.000203744 6.09146e-05 6.12128e-05 -9.90659e-05
-0.00010147 3.02074e-05 3.05412e-05 -0.000105678
-0.000211789 6.33108e-05 6.36336e-05 -9.90667e-05
-0.000207767 6.21128e-05 6.24231e-05 -9.90663e-05
-0.000308027 9.22251e-05 9.24865e-05 -8.80523e-05
-0.000295972 8.86235e-05 8.88638e-05 -8.80517e-05
-9.54206e-05 2.84194e-05 2.87148e-05 -0.000105677
-9.94535e-05 2.96115e-05 2.99323e-05 -0.000105678
-0.000302 9.04244e-05 9.06751e-05 -8.8052e-05
-0.0001957 5.8518e-05 5.87925e-05 -9.90651e-05
-9.7437e-05 2.90155e-05 2.93235e-05 -0.000105677
-0.000203744 6.09146e-05 6.12128e-05 -9.90659e-05
-0.000199722 5.97164e-05 6.00026e-05 -9.90655e-05
-0.000295972 8.86235e-05 8.88638e-05 -8.80517e-05
-0.000283919 8.50215e-05 8.52417e-05 -8.80511e-05
-9.13884e-05 2.72267e-05 2.74979e-05 -0.000105676
-9.54206e-05 2.84194e-05 2.87148e-05 -0.000105677
-0.000289945 8.68225e-05 8.70527e-05 -8.80514e-05
-0.000187657 5.61209e-05 5.63727e-05 -9.90643e-05
-9.34044e-05 2.78231e-05 2.81063e-05 -0.000105676
-0.0001957 5.8518e-05 5.87925e-05 -9.90651e-05
-0.000191679 5.73195e-05 5.75825e-05 -9.90647e-05
-0.000283919 8.50215e-05 8.52417e-05 -8.80511e-05
-0.000271866 8.14192e-05 8.162e-05 -8.80505e-05
-8.73569e-05 2.60335e-05 2.62815e-05 -0.000105675
-9.13884e-05 2.72267e-05 2.74979e-05 -0.000105676
-0.000277892 8.32204e-05 8.34308e-05 -8.80508e-05
-0.000179615 5.37235e-05 5.39534e-05 -9.90634e-05
-8.93726e-05 2.66302e-05 2.68896e-05 -0.000105675
-0.000187657 5.61209e-05 5.63727e-05 -9.90643e-05
-0.000183636 5.49222e-05 5.5163e-05 -9.90639e-05
-0.000271866 8.14192e-05 8.162e-05 -8.80505e-05
-0.000259814 7.78166e-05 7.79988e-05 -8.80498e-05
-8.33262e-05 2.484e-05 2.50655e-05 -0.000105674
-8.73569e-05 2.60335e-05 2.62815e-05 -0.000105675
-0.00026584 7.96179e-05 7.98093e-05 -8.80501e-05
-0.000171573 5.13256e-05 5.15346e-05 -9.90626e-05
-8.53415e-05 2.54368e-05 2.56734e-05 -0.000105674
-0.000179615 5.37235e-05 5.39534e-05 -9.90634e-05
-0.000175594 5.25246e-05 5.27439e-05 -9.9063e-05
-0.000259814 7.78166e-05 7.79988e-05 -8.80498e-05
-0.000247763 7.42138e-05 7.4378e-05 -8.80492e-05
-7.92963e-05 2.36462e-05 2.385e-05 -0.000105673
-8.33262e-05 2.484e-05 2.50655e-05 -0.000105674
-0.000253788 7.60152e-05 7.61884e-05 -8.80495e-05
-0.000163532 4.89276e-05 4.91162e-05 -9.90617e-05
-8.13112e-05 2.42431e-05 2.44577e-05 -0.000105673
-0.000171573 5.13256e-05 5.15346e-05 -9.90626e-05
-0.000167553 5.01266e-05 5.03254e-05 -9.90621e-05
-0.000247763 7.42138e-05 7.4378e-05 -8.80492e-05
-0.000235712 7.0611e-05 7.07577e-05 -8.80487e-05
-7.52672e-05 2.24523e-05 2.2635e-05 -0.000105672
-7.92963e-05 2.36462e-05 2.385e-05 -0.000105673
-0.000241737 7.24124e-05 7.25678e-05 -8.80489e-05
-0.000155492 4.65296e-05 4.66983e-05 -9.90609e-05
-7.72816e-05 2.30492e-05 2.32425e-05 -0.000105672
-0.000163532 4.89276e-05 4.91162e-05 -9.90617e-05
-0.000159512 4.77286e-05 4.79072e-05 -9.90613e-05
-0.000235712 7.0611e-05 7.07577e-05 -8.80487e-05
-0.000223663 6.70085e-05 6.71377e-05 -8.80485e-05
-7.12393e-05 2.12588e-05 2.14202e-05 -0.000105671
-7.52672e-05 2.24523e-05 2.2635e-05 -0.000105672
-0.000229687 6.88097e-05 6.89476e-05 -8.80485e-05
-0.000147453 4.41318e-05 4.42807e-05 -9.90603e-05
-7.32531e-05 2.18555e-05 2.20275e-05 -0.000105671
-0.000155492 4.65296e-05 4.66983e-05 -9.90609e-05
-0.000151473 4.53306e-05 4.54895e-05 -9.90606e-05
-0.000223663 6.70085e-05 6.71377e-05 -8.80485e-05
-0.000211615 6.34063e-05 6.3518e-05 -8.8049e-05
-6.72128e-05 2.00661e-05 2.02057e-05 -0.00010567
-7.12393e-05 2.12588e-05 2.14202e-05 -0.000105671
-0.000217639 6.52073e-05 6.53278e-05 -8.80486e-05
-0.000139416 4.17347e-05 4.18635e-05 -9.90602e-05
-6.92259e-05 2.06623e-05 2.08129e-05 -0.00010567
-0.000147453 4.41318e-05 4.42807e-05 -9.90603e-05
-0.000143435 4.29331e-05 4.30721e-05 -9.90602e-05
-0.000211615 6.34063e-05 6.3518e-05 -8.8049e-05
-0.000199568 5.98048e-05 5.98986e-05 -8.80506e-05
-6.31883e-05 1.88749e-05 1.89915e-05 -0.00010567
-6.72128e-05 2.00661e-05 2.02057e-05 -0.00010567
-0.000205591 6.16055e-05 6.17083e-05 -8.80496e-05
-0.00013138 3.93385e-05 3.94465e-05 -9.90611e-05
-6.52003e-05 1.94703e-05 1.95986e-05 -0.00010567
-0.000139416 4.17347e-05 4.18635e-05 -9.90602e-05
-0.000135398 4.05365e-05 4.06549e-05 -9.90605e-05
-0.000199568 5.98048e-05 5.98986e-05 -8.80506e-05
-0.000187523 5.62038e-05 5.62796e-05 -8.80539e-05
-5.91661e-05 1.76857e-05 1.77773e-05 -0.000105671
-6.31883e-05 1.88749e-05 1.89915e-05 -0.00010567
-0.000193545 5.80043e-05 5.8089e-05 -8.8052e-05
-0.000123346 3.69436e-05 3.70298e-05 -9.90638e-05
-6.11769e-05 1.828e-05 1.83844e-05 -0.00010567
-0.00013138 3.93385e-05 3.94465e-05 -9.90611e-05
-0.000127363 3.81409e-05 3.82381e-05 -9.90622e-05
-0.000187523 5.62038e-05 5.62796e-05 -8.80539e-05
-0.000175478 5.26022e-05 5.26609e-05 -8.80599e-05
-5.51471e-05 1.64991e-05 1.65634e-05 -0.000105676
-5.91661e-05 1.76857e-05 1.77773e-05 -0.000105671
-0.0001815 5.44032e-05 5.44702e-05 -8.80565e-05
-0.000115314 3.4549e-05 3.46135e-05 -9.90701e-05
-5.71561e-05 1.70921e-05 1.71703e-05 -0.000105673
-0.000123346 3.69436e-05 3.70298e-05 -9.90638e-05
-0.00011933 3.57463e-05 3.58216e-05 -9.90664e-05
-0.000175478 5.26022e-05 5.26609e-05 -8.80599e-05
-0.000163431 4.89969e-05 4.90431e-05 -8.80696e-05
-5.11304e-05 1.53148e-05 1.53495e-05 -0.00010569
-5.51471e-05 1.64991e-05 1.65634e-05 -0.000105676
-0.000169455 5.08003e-05 5.08518e-05 -8.80642e-05
-0.000107281 3.21526e-05 3.21978e-05 -9.90831e-05
-5.31387e-05 1.59068e-05 1.59565e-05 -0.000105682
-0.000115314 3.4549e-05 3.46135e-05 -9.90701e-05
-0.000111298 3.33514e-05 3.34055e-05 -9.90756e-05
-0.000163431 4.89969e-05 4.90431e-05 -8.80696e-05
-0.000151375 4.53806e-05 4.5426e-05 -8.80844e-05
-4.71155e-05 1.41303e-05 1.41365e-05 -0.000105721
-5.11304e-05 1.53148e-05 1.53495e-05 -0.00010569
-0.000157405 4.71909e-05 4.72345e-05 -8.80762e-05
-9.92418e-05 2.97478e-05 2.97831e-05 -9.91082e-05
-4.91226e-05 1.47228e-05 1.47428e-05 -0.000105702
-0.000107281 3.21526e-05 3.21978e-05 -9.90831e-05
-0.000103263 3.09518e-05 3.09903e-05 -9.90935e-05
-0.000151375 4.53806e-05 4.5426e-05 -8.80844e-05
-0.000139298 4.17379e-05 4.18115e-05 -8.81051e-05
-4.30938e-05 1.29399e-05 1.29231e-05 -0.000105785
-4.71155e-05 1.41303e-05 1.41365e-05 -0.000105721
-0.000145339 4.35639e-05 4.36181e-05 -8.80942e-05
-9.11844e-05 2.73216e-05 2.73697e-05 -9.9156e-05
-4.51067e-05 1.35366e-05 1.353e-05 -0.000105747
-9.92418e-05 2.97478e-05 2.97831e-05 -9.91082e-05
-9.52165e-05 2.85388e-05 2.85761e-05 -9.91288e-05
-0.000139298 4.17379e-05 4.18115e-05 -8.81051e-05
-0.000127167 3.80404e-05 3.81969e-05 -8.81346e-05
-3.90581e-05 1.17296e-05 1.17122e-05 -0.000105914
-4.30938e-05 1.29399e-05 1.29231e-05 -0.000105785
-0.000133243 3.98989e-05 4.00046e-05 -8.81184e-05
-8.30825e-05 2.48475e-05 2.49579e-05 -9.92445e-05
-4.10773e-05 1.23382e-05 1.23168e-05 -0.000105839
-9.11844e-05 2.73216e-05 2.73697e-05 -9.9156e-05
-8.71412e-05 2.60926e-05 2.61637e-05 -9.91929e-05
-0.000127167 3.80404e-05 3.81969e-05 -8.81346e-05
-0.000114937 3.42352e-05 3.45866e-05 -8.81713e-05
-3.49706e-05 1.04774e-05 1.04971e-05 -0.000106161
-3.90581e-05 1.17296e-05 1.17122e-05 -0.000105914
-0.000121066 3.6155e-05 3.63903e-05 -8.81527e-05
-7.48877e-05 2.22827e-05 2.2545e-05 -9.94058e-05
-3.70259e-05 1.11116e-05 1.11061e-05 -0.000106018
-8.30825e-05 2.48475e-05 2.49579e-05 -9.92445e-05
-7.90007e-05 2.3581e-05 2.37513e-05 -9.93149e-05
-0.000114937 3.42352e-05 3.45866e-05 -8.81713e-05
-0.00010249 3.02449e-05 3.09623e-05 -8.82274e-05
-3.08076e-05 9.13922e-06 9.28644e-06 -0.000106611
-3.49706e-05 1.04774e-05 1.04971e-05 -0.000106161
-0.000108754 3.22714e-05 3.27785e-05 -8.8195e-05
-6.65126e-05 1.9552e-05 2.0126e-05 -9.96926e-05
-3.28964e-05 9.82065e-06 9.88958e-06 -0.000106354
-7.48877e-05 2.22827e-05 2.2545e-05 -9.94058e-05
-7.07297e-05 2.09422e-05 2.13375e-05 -9.95258e-05
-0.00010249 3.02449e-05 3.09623e-05 -8.82274e-05
-8.97111e-05 2.59418e-05 2.73297e-05 -8.83002e-05
-2.64522e-05 7.67299e-06 8.04823e-06 -0.000107397
-3.08076e-05 9.13922e-06 9.28644e-06 -0.000106611
-9.6143e-05 2.81376e-05 2.91452e-05 -8.82636e-05
-5.78254e-05 1.65713e-05 1.76803e-05 -0.00010019
-2.86707e-05 8.42894e-06 8.67504e-06 -0.000106951
-6.65126e-05 1.9552e-05 2.0126e-05 -9.96926e-05
-6.22176e-05 1.81023e-05 1.89065e-05 -9.99146e-05
-8.97111e-05 2.59418e-05 2.73297e-05 -8.83002e-05
-7.6276e-05 2.12164e-05 2.3597e-05 -8.84636e-05
-2.18883e-05 6.00427e-06 6.80745e-06 -0.000108674
-2.64522e-05 7.67299e-06 8.04823e-06 -0.000107397
-8.31152e-05 2.36466e-05 2.54865e-05 -8.83602e-05
-4.86266e-05 1.32276e-05 1.5171e-05 -0.000101021
-2.41816e-05 6.85891e-06 7.424e-06 -0.000107965
-5.78254e-05 1.65713e-05 1.76803e-05 -0.00010019
-5.33053e-05 1.49418e-05 1.64415e-05 -0.00010054
-7.6276e-05 2.12164e-05 2.3597e-05 -8.84636e-05
-6.20495e-05 1.59475e-05 1.9758e-05 -8.87574e-05
-1.68868e-05 4.1992e-06 5.43753e-06 -0.000110604
-2.18883e-05 6.00427e-06 6.80745e-06 -0.000108674
-6.9239e-05 1.86299e-05 2.16896e-05 -8.85952e-05
-3.87518e-05 9.5845e-06 1.25003e-05 -0.000102339
-1.94857e-05 5.12486e-06 6.15463e-06 -0.000109546
-4.86266e-05 1.32276e-05 1.5171e-05 -0.000101021
-4.37789e-05 1.14442e-05 1.38577e-05 -0.000101634
-6.20495e-05 1.59475e-05 1.9758e-05 -8.87574e-05
-4.65224e-05 1.04951e-05 1.54403e-05 -8.95645e-05
-1.1744e-05 2.37725e-06 4.01432e-06 -0.000113084
-1.68868e-05 4.1992e-06 5.43753e-06 -0.000110604
-5.45348e-05 1.32344e-05 1.77002e-05 -8.905e-05
-2.81106e-05 5.9133e-06 9.51314e-06 -0.000104273
-1.42526e-05 3.23292e-06 4.72271e-06 -0.0001118
-3.87518e-05 9.5845e-06 1.25003e-05 -0.000102339
-3.35331e-05 7.67648e-06 1.10814e-05 -0.000103173
-4.65224e-05 1.04951e-05 1.54403e-05 -8.95645e-05
-3.0474e-05 5.7457e-06 1.05978e-05 -9.11185e-05
-6.44821e-06 1.49199e-06 2.12409e-06 -0.000115486
-1.1744e-05 2.37725e-06 4.01432e-06 -0.000113084
-3.83797e-05 7.82511e-06 1.30948e-05 -9.02408e-05
-1.74299e-05 3.66286e-06 5.90015e-06 -0.000106669
-9.19717e-06 1.78779e-06 3.17545e-06 -0.000114361
-2.81106e-05 5.9133e-06 9.51314e-06 -0.000104273
-2.26783e-05 4.5173e-06 7.78329e-06 -0.000105531
-3.0474e-05 5.7457e-06 1.05978e-05 -9.11185e-05
-1.49558e-05 5.58783e-06 4.01484e-06 -9.42895e-05
-2.7002e-06 2.60973e-06 3.87724e-08 -0.000115506
-6.44821e-06 1.49199e-06 2.12409e-06 -0.000115486
-2.27008e-05 4.84938e-06 7.65063e-06 -9.24223e-05
-8.34522e-06 5.20192e-06 1.34713e-06 -0.00010831
-4.0862e-06 1.59112e-06 1.06932e-06 -0.000116027
-1.74299e-05 3.66286e-06 5.90015e-06 -0.000106669
-1.25805e-05 3.6341e-06 3.83416e-06 -0.000107558
-1.49558e-05 5.58783e-06 4.01484e-06 -9.42895e-05
-6.821e-06 1.68929e-05 -4.31654e-06 -9.64267e-05
-5.54917e-07 7.99172e-06 -3.1872e-06 -0.000108926
-2.7002e-06 2.60973e-06 3.87724e-08 -0.000115506
-9.05656e-06 8.78476e-06 1.16486e-07 -9.58577e-05
-5.06567e-06 1.50979e-05 -4.29955e-06 -0.000104616
-1.71489e-06 4.93631e-06 -1.38061e-06 -0.000113381
-8.34522e-06 5.20192e-06 1.34713e-06 -0.00010831
-5.56125e-06 9.05895e-06 -1.49901e-06 -0.000107905
-6.821e-06 1.68929e-05 -4.31654e-06 -9.64267e-05
-1.09779e-05 5.23688e-05 -1.7739e-05 -8.81859e-05
-2.03861e-06 1.48758e-05 -5.50167e-06 -8.88076e-05
-5.54917e-07 7.99172e-06 -3.1872e-06 -0.000108926
-7.65839e-06 3.19081e-05 -1.03927e-05 -9.47988e-05
-7.25162e-06 3.31336e-05 -1.10923e-05 -8.67582e-05
-3.02234e-07 1.11888e-05 -4.66566e-06 -0.000101024
-5.06567e-06 1.50979e-05 -4.29955e-06 -0.000104616
-5.93651e-06 2.30918e-05 -7.35225e-06 -9.75787e-05
-1.09779e-05 5.23688e-05 -1.7739e-05 -8.81859e-05
-2.31811e-05 9.46377e-05 -3.06242e-05 -4.65222e-05
-6.60501e-06 2.50698e-05 -7.91347e-06 -5.10259e-05
-2.03861e-06 1.48758e-05 -5.50167e-06 -8.88076e-05
-1.63091e-05 7.52385e-05 -2.52555e-05 -7.27657e-05
-1.28159e-05 5.66763e-05 -1.87973e-05 -5.12756e-05
-4.54571e-06 1.95128e-05 -6.41447e-06 -7.22155e-05
-7.25162e-06 3.31336e-05 -1.10923e-05 -8.67582e-05
-9.4114e-06 4.49745e-05 -1.52413e-05 -7.16897e-05
-0.000712862 0 0.000305512 0.000401362
-0.000723759 9.41459e-05 0.000269834 0.000133038
0.000697191 -0.000100165 -0.000255868 0.000131345
0.000683277 0 -0.000292833 0.000397442
-0.000695547 3.95775e-05 0.00028113 0.000253017
-1.35397e-05 -3.18514e-06 7.16779e-06 0.000149881
0.000667631 -4.28917e-05 -0.000267745 0.000250665
-1.52903e-05 0 6.55298e-06 0.000407694
-1.42208e-05 -1.9615e-06 6.93527e-06 0.000281996
-0.000723759 9.41459e-05 0.000269834 0.000133038
-0.00077828 0.000154974 0.000267131 -2.72817e-05
0.000753942 -0.000165041 -0.000252386 -2.84129e-05
0.000697191 -0.000100165 -0.000255868 0.000131345
-0.000762873 0.000130644 0.000270955 3.87795e-05
-1.2402e-05 -5.17426e-06 7.53266e-06 -1.94475e-05
0.000737465 -0.000138871 -0.00025654 3.73934e-05
-1.35397e-05 -3.18514e-06 7.16779e-06 0.000149881
-1.29915e-05 -4.22766e-06 7.37963e-06 4.56283e-05
-0.00077828 0.000154974 0.000267131 -2.72817e-05
-0.000793872 0.000200196 0.000254433 -9.99319e-05
0.000771412 -0.000213254 -0.00023921 -0.000100791
0.000753942 -0.000165041 -0.000252386 -2.84129e-05
-0.000783962 0.000179093 0.000259229 -7.10737e-05
-1.14197e-05 -6.77051e-06 7.79579e-06 -9.79286e-05
0.000760591 -0.000190744 -0.00024422 -7.20542e-05
-1.2402e-05 -5.17426e-06 7.53266e-06 -1.94475e-05
-1.18642e-05 -6.02324e-06 7.66603e-06 -6.40488e-05
-0.000793872 0.000200196 0.000254433 -9.99319e-05
-0.000801766 0.000221083 0.000248864 -0.000125902
0.000780948 -0.000236598 -0.000233293 -0.000126518
0.000771412 -0.000213254 -0.00023921 -0.000100791
-0.000801859 0.000213498 0.000252155 -0.000117319
-1.06272e-05 -7.96048e-06 7.96616e-06 -0.000128255
0.000780247 -0.000227848 -0.000236742 -0.000118046
-1.14197e-05 -6.77051e-06 7.79579e-06 -9.79286e-05
-1.10224e-05 -7.40828e-06 7.89886e-06 -0.000118764
-0.000801766 0.000221083 0.000248864 -0.000125902
-0.000795968 0.000228754 0.000243091 -0.000128748
0.000776467 -0.000246145 -0.000227281 -0.000129141
0.000780948 -0.000236598 -0.000233293 -0.000126518
-0.000798251 0.000226057 0.000245226 -0.000128758
-9.96333e-06 -8.89064e-06 8.08027e-06 -0.000133435
0.000778142 -0.000242586 -0.000229524 -0.000129274
-1.06272e-05 -7.96048e-06 7.96616e-06 -0.000128255
-1.02674e-05 -8.45787e-06 8.02512e-06 -0.000132118
-0.000795968 0.000228754 0.000243091 -0.000128748
-0.000789002 0.000228072 0.000240399 -0.000124273
0.000770437 -0.000246753 -0.000224436 -0.000124436
0.000776467 -0.000246145 -0.000227281 -0.000129141
-0.000793393 0.00022909 0.000241844 -0.000126984
-9.48674e-06 -9.5223e-06 8.14673e-06 -0.000128955
0.000774404 -0.000247196 -0.000225946 -0.00012725
-9.96333e-06 -8.89064e-06 8.08027e-06 -0.000133435
-9.70645e-06 -9.24222e-06 8.12086e-06 -0.000132074
-0.000789002 0.000228072 0.000240399 -0.000124273
-0.000780342 0.000225289 0.00023788 -0.000118427
0.000762384 -0.000244735 -0.00022185 -0.000118439
0.000770437 -0.000246753 -0.000224436 -0.000124436
-0.000784189 0.000226756 0.0002389 -0.000121229
-9.16716e-06 -9.91599e-06 8.17849e-06 -0.000122608
0.000765963 -0.000245878 -0.000222894 -0.000121312
-9.48674e-06 -9.5223e-06 8.14673e-06 -0.000128955
-9.3071e-06 -9.74621e-06 8.1657e-06 -0.00012557
-0.000780342 0.000225289 0.00023788 -0.000118427
-0.000773345 0.000221999 0.000236291 -0.000113775
0.000755758 -0.000241808 -0.000220264 -0.000113695
0.000762384 -0.000244735 -0.00022185 -0.000118439
-0.000776912 0.000223642 0.000237116 -0.000115931
-8.97243e-06 -1.01029e-05 8.17513e-06 -0.000117244
0.000759162 -0.000243312 -0.000221078 -0.000115886
-9.16716e-06 -9.91599e-06 8.17849e-06 -0.000122608
-9.05848e-06 -1.00316e-05 8.18146e-06 -0.000119807
-0.000773345 0.000221999 0.000236291 -0.000113775
-0.000766993 0.000219255 0.000234745 -0.000110541
0.000749637 -0.000239147 -0.000218781 -0.000110431
0.000755758 -0.000241808 -0.000220264 -0.000113695
-0.00076994 0.000220542 0.000235456 -0.00011197
-8.85193e-06 -1.01515e-05 8.14431e-06 -0.000113512
0.000752481 -0.000240421 -0.000219454 -0.00011187
-8.97243e-06 -1.01029e-05 8.17513e-06 -0.000117244
-8.90508e-06 -1.0141e-05 8.16262e-06 -0.000115135
-0.000766993 0.000219255 0.000234745 -0.000110541
-0.000761682 0.000217026 0.000233424 -0.000108545
0.000744488 -0.000236825 -0.000217569 -0.000108439
0.000749637 -0.000239147 -0.000218781 -0.000110431
-0.000764307 0.000218082 0.000234096 -0.000109419
-8.77035e-06 -1.01066e-05 8.09014e-06 -0.000111161
0.000747036 -0.000237944 -0.000218182 -0.000109307
-8.85193e-06 -1.01515e-05 8.14431e-06 -0.000113512
-8.80849e-06 -1.0138e-05 8.11994e-06 -0.000112207
-0.000761682 0.000217026 0.000233424 -0.000108545
-0.000756816 0.000215262 0.000232095 -0.000107373
0.000739763 -0.00023487 -0.000216383 -0.000107294
0.000744488 -0.000236825 -0.000217569 -0.000108439
-0.000759169 0.000216094 0.000232746 -0.000107873
-8.70099e-06 -1.00105e-05 8.01921e-06 -0.000109795
0.000742045 -0.000235807 -0.000216959 -0.000107779
-8.77035e-06 -1.01066e-05 8.09014e-06 -0.000111161
-8.73527e-06 -1.00631e-05 8.05643e-06 -0.000110371
-0.000756816 0.000215262 0.000232095 -0.000107373
-0.000752338 0.00021379 0.000230806 -0.00010673
0.000735432 -0.000233158 -0.00021526 -0.000106684
0.000739763 -0.00023487 -0.000216383 -0.000107294
-0.00075456 0.000214498 0.000231455 -0.000107003
-8.62909e-06 -9.88815e-06 7.93596e-06 -0.000109044
0.000737579 -0.00023399 -0.000215824 -0.00010694
-8.70099e-06 -1.00105e-05 8.01921e-06 -0.000109795
-8.66605e-06 -9.95137e-06 7.9789e-06 -0.000109365
-0.000752338 0.00021379 0.000230806 -0.00010673
-0.000748014 0.000212502 0.000229505 -0.000106389
0.000731277 -0.000231616 -0.000214141 -0.000106377
0.000735432 -0.000233158 -0.00021526 -0.000106684
-0.000750154 0.000213128 0.000230154 -0.000106531
-8.54701e-06 -9.75731e-06 7.84471e-06 -0.000108655
0.000733329 -0.00023237 -0.000214697 -0.000106502
-8.62909e-06 -9.88815e-06 7.93596e-06 -0.000109044
-8.58958e-06 -9.82306e-06 7.89113e-06 -0.000108814
-0.000748014 0.000212502 0.000229505 -0.000106389
-0.000743797 0.000211312 0.000228208 -0.000106217
0.000727253 -0.000230173 -0.000213034 -0.000106235
0.000731277 -0.000231616 -0.000214141 -0.000106377
-0.000745902 0.000211898 0.000228859 -0.000106289
-8.45227e-06 -9.62715e-06 7.74832e-06 -0.000108464
0.000729257 -0.000230885 -0.000213588 -0.000106292
-8.54701e-06 -9.75731e-06 7.84471e-06 -0.000108655
-8.50126e-06 -9.69176e-06 7.79701e-06 -0.000108543
-0.000743797 0.000211312 0.000228208 -0.000106217
-0.000739616 0.000210172 0.000226905 -0.000106133
0.000723287 -0.000228792 -0.000211926 -0.000106175
0.000727253 -0.000230173 -0.000213034 -0.000106235
-0.000741702 0.000210737 0.000227556 -0.000106168
-8.34519e-06 -9.50266e-06 7.64908e-06 -0.000108376
0.000725262 -0.000229476 -0.00021248 -0.000106198
-8.45227e-06 -9.62715e-06 7.74832e-06 -0.000108464
-8.40019e-06 -9.56404e-06 7.69896e-06 -0.00010841
-0.000739616 0.000210172 0.000226905 -0.000106133
-0.000735453 0.000209053 0.0002256 -0.000106094
0.00071936 -0.000227446 -0.00021082 -0.000106155
0.000723287 -0.000228792 -0.000211926 -0.000106175
-0.000737534 0.000209611 0.000226253 -0.00010611
-8.22749e-06 -9.38551e-06 7.54843e-06 -0.000108338
0.000721321 -0.000228115 -0.000211374 -0.000106162
-8.34519e-06 -9.50266e-06 7.64908e-06 -0.000108376
-8.28754e-06 -9.44314e-06 7.59886e-06 -0.000108353
-0.000735453 0.000209053 0.0002256 -0.000106094
-0.000731292 0.000207941 0.000224294 -0.000106075
0.000715451 -0.000226121 -0.000209713 -0.00010615
0.00071936 -0.000227446 -0.00021082 -0.000106155
-0.000733372 0.000208496 0.000224947 -0.000106083
-8.10135e-06 -9.2758e-06 7.44735e-06 -0.000108324
0.000717403 -0.000226781 -0.000210267 -0.000106151
-8.22749e-06 -9.38551e-06 7.54843e-06 -0.000108338
-8.16533e-06 -9.32976e-06 7.4979e-06 -0.000108329
-0.000731292 0.000207941 0.000224294 -0.000106075
-0.000727132 0.000206829 0.000222987 -0.000106067
0.000711553 -0.000224808 -0.000208605 -0.000106152
0.000715451 -0.000226121 -0.000209713 -0.00010615
-0.000729213 0.000207385 0.00022364 -0.000106071
-7.96893e-06 -9.17274e-06 7.34643e-06 -0.00010832
0.000713501 -0.000225463 -0.000209159 -0.000106151
-8.10135e-06 -9.2758e-06 7.44735e-06 -0.000108324
-8.03579e-06 -9.2235e-06 7.39684e-06 -0.000108321
-0.000727132 0.000206829 0.000222987 -0.000106067
-0.000722968 0.000205714 0.00022168 -0.000106063
0.000707661 -0.000223504 -0.000207496 -0.000106154
0.000711553 -0.000224808 -0.000208605 -0.000106152
-0.00072505 0.000206272 0.000222334 -0.000106065
-7.83215e-06 -9.07522e-06 7.24602e-06 -0.000108318
0.000709606 -0.000224155 -0.00020805 -0.000106153
-7.96893e-06 -9.17274e-06 7.34643e-06 -0.00010832
-7.90098e-06 -9.12336e-06 7.29614e-06 -0.000108319
-0.000722968 0.000205714 0.00022168 -0.000106063
-0.000718803 0.000204596 0.000220374 -0.00010606
0.000703771 -0.000222205 -0.000206386 -0.000106155
0.000707661 -0.000223504 -0.000207496 -0.000106154
-0.000720886 0.000205156 0.000221027 -0.000106061
-7.69252e-06 -8.98212e-06 7.14628e-06 -0.000108318
0.000705716 -0.000222854 -0.000206941 -0.000106155
-7.83215e-06 -9.07522e-06 7.24602e-06 -0.000108318
-7.76261e-06 -9.02819e-06 7.19605e-06 -0.000108318
-0.000718803 0.000204596 0.000220374 -0.00010606
-0.000714635 0.000203475 0.000219069 -0.000106059
0.000699883 -0.000220909 -0.000205275 -0.000106156
0.000703771 -0.000222205 -0.000206386 -0.000106155
-0.000716719 0.000204036 0.000219721 -0.000106059
-7.55124e-06 -8.89243e-06 7.04729e-06 -0.000108318
0.000701827 -0.000221557 -0.00020583 -0.000106156
-7.69252e-06 -8.98212e-06 7.14628e-06 -0.000108318
-7.62203e-06 -8.93691e-06 7.09669e-06 -0.000108318
-0.000714635 0.000203475 0.000219069 -0.000106059
-0.000710467 0.000202352 0.000217764 -0.000106057
0.000695996 -0.000219616 -0.000204163 -0.000106156
0.000699883 -0.000220909 -0.000205275 -0.000106156
-0.000712551 0.000202914 0.000218416 -0.000106058
-7.40917e-06 -8.8053e-06 6.94906e-06 -0.000108317
0.00069794 -0.000220262 -0.000204719 -0.000106156
-7.55124e-06 -8.89243e-06 7.04729e-06 -0.000108318
-7.48026e-06 -8.84859e-06 6.99808e-06 -0.000108317
-0.000710467 0.000202352 0.000217764 -0.000106057
-0.000706299 0.000201227 0.00021646 -0.000106055
0.000692108 -0.000218325 -0.00020305 -0.000106154
0.000695996 -0.000219616 -0.000204163 -0.000106156
-0.000708383 0.000201789 0.000217112 -0.000106056
-7.26692e-06 -8.72008e-06 6.85157e-06 -0.000108315
0.000694052 -0.00021897 -0.000203607 -0.000106155
-7.40917e-06 -8.8053e-06 6.94906e-06 -0.000108317
-7.33804e-06 -8.76248e-06 6.90022e-06 -0.000108316
-0.000706299 0.000201227 0.00021646 -0.000106055
-0.000702131 0.0002001 0.000215156 -0.000106054
0.000688221 -0.000217034 -0.000201937 -0.000106153
0.000692108 -0.000218325 -0.00020305 -0.000106154
-0.000704215 0.000200663 0.000215808 -0.000106055
-7.12492e-06 -8.63629e-06 6.7548e-06 -0.000108314
0.000690165 -0.000217679 -0.000202494 -0.000106154
-7.26692e-06 -8.72008e-06 6.85157e-06 -0.000108315
-7.19587e-06 -8.67803e-06 6.8031e-06 -0.000108315
-0.000702131 0.0002001 0.000215156 -0.000106054
-0.000697964 0.000198972 0.000213854 -0.000106052
0.000684332 -0.000215745 -0.000200823 -0.000106151
0.000688221 -0.000217034 -0.000201937 -0.000106153
-0.000700047 0.000199536 0.000214505 -0.000106053
-6.98342e-06 -8.55359e-06 6.65872e-06 -0.000108312
0.000686276 -0.00021639 -0.00020138 -0.000106152
-7.12492e-06 -8.63629e-06 6.7548e-06 -0.000108314
-7.05409e-06 -8.59482e-06 6.70668e-06 -0.000108313
-0.000697964 0.000198972 0.000213854 -0.000106052
-0.000693797 0.000197844 0.000212551 -0.000106051
0.000680443 -0.000214457 -0.000199708 -0.000106149
0.000684332 -0.000215745 -0.000200823 -0.000106151
-0.00069588 0.000198408 0.000213202 -0.000106051
-6.8426e-06 -8.47172e-06 6.56328e-06 -0.00010831
0.000682388 -0.000215101 -0.000200266 -0.00010615
-6.98342e-06 -8.55359e-06 6.65872e-06 -0.000108312
-6.91292e-06 -8.51256e-06 6.61092e-06 -0.000108311
-0.000693797 0.000197844 0.000212551 -0.000106051
-0.000689631 0.000196714 0.00021125 -0.000106049
0.000676553 -0.000213169 -0.000198593 -0.000106146
0.000680443 -0.000214457 -0.000199708 -0.000106149
-0.000691714 0.000197279 0.000211901 -0.00010605
-6.70256e-06 -8.39053e-06 6.46847e-06 -0.000108308
0.000678498 -0.000213813 -0.000199151 -0.000106147
-6.8426e-06 -8.47172e-06 6.56328e-06 -0.00010831
-6.77248e-06 -8.43105e-06 6.5158e-06 -0.000108309
-0.000689631 0.000196714 0.00021125 -0.000106049
-0.000685466 0.000195584 0.000209949 -0.000106047
0.000672663 -0.000211882 -0.000197478 -0.000106144
0.000676553 -0.000213169 -0.000198593 -0.000106146
-0.000687548 0.000196149 0.0002106 -0.000106048
-6.56335e-06 -8.30992e-06 6.37426e-06 -0.000108306
0.000674608 -0.000212525 -0.000198036 -0.000106145
-6.70256e-06 -8.39053e-06 6.46847e-06 -0.000108308
-6.63285e-06 -8.35016e-06 6.42129e-06 -0.000108307
-0.000685466 0.000195584 0.000209949 -0.000106047
-0.000681302 0.000194454 0.000208649 -0.000106045
0.000668772 -0.000210595 -0.000196361 -0.000106141
0.000672663 -0.000211882 -0.000197478 -0.000106144
-0.000683384 0.000195019 0.000209299 -0.000106046
-6.42501e-06 -8.22983e-06 6.28064e-06 -0.000108304
0.000670717 -0.000211238 -0.00019692 -0.000106143
-6.56335e-06 -8.30992e-06 6.37426e-06 -0.000108306
-6.49407e-06 -8.26981e-06 6.32738e-06 -0.000108305
-0.000681302 0.000194454 0.000208649 -0.000106045
-0.000677139 0.000193323 0.000207349 -0.000106043
0.00066488 -0.000209309 -0.000195245 -0.000106139
0.000668772 -0.000210595 -0.000196361 -0.000106141
-0.00067922 0.000193889 0.000207999 -0.000106044
-6.28752e-06 -8.15022e-06 6.18761e-06 -0.000108301
0.000666826 -0.000209952 -0.000195803 -0.00010614
-6.42501e-06 -8.22983e-06 6.28064e-06 -0.000108304
-6.35616e-06 -8.18997e-06 6.23405e-06 -0.000108303
-0.000677139 0.000193323 0.000207349 -0.000106043
-0.000672976 0.000192192 0.00020605 -0.000106042
0.000660987 -0.000208023 -0.000194127 -0.000106136
0.00066488 -0.000209309 -0.000195245 -0.000106139
-0.000675057 0.000192758 0.0002067 -0.000106043
-6.15091e-06 -8.07108e-06 6.09514e-06 -0.000108299
0.000662933 -0.000208666 -0.000194686 -0.000106137
-6.28752e-06 -8.15022e-06 6.18761e-06 -0.000108301
-6.21911e-06 -8.11059e-06 6.1413e-06 -0.0001083
-0.000672976 0.000192192 0.00020605 -0.000106042
-0.000668815 0.000191061 0.000204752 -0.00010604
0.000657093 -0.000206738 -0.000193009 -0.000106133
0.000660987 -0.000208023 -0.000194127 -0.000106136
-0.000670896 0.000191627 0.000205401 -0.000106041
-6.01515e-06 -7.99239e-06 6.00323e-06 -0.000108297
0.00065904 -0.000207381 -0.000193568 -0.000106135
-6.15091e-06 -8.07108e-06 6.09514e-06 -0.000108299
-6.08292e-06 -8.03168e-06 6.04911e-06 -0.000108298
-0.000668815 0.000191061 0.000204752 -0.00010604
-0.000664655 0.000189929 0.000203454 -0.000106037
0.000653199 -0.000205453 -0.000191891 -0.000106131
0.000657093 -0.000206738 -0.000193009 -0.000106133
-0.000666735 0.000190495 0.000204103 -0.000106038
-5.88025e-06 -7.91416e-06 5.91189e-06 -0.000108294
0.000655146 -0.000206096 -0.00019245 -0.000106132
-6.01515e-06 -7.99239e-06 6.00323e-06 -0.000108297
-5.9476e-06 -7.95322e-06 5.95749e-06 -0.000108295
-0.000664655 0.000189929 0.000203454 -0.000106037
-0.000660495 0.000188796 0.000202157 -0.000106035
0.000649304 -0.000204169 -0.000190772 -0.000106128
0.000653199 -0.000205453 -0.000191891 -0.000106131
-0.000662575 0.000189363 0.000202805 -0.000106036
-5.7462e-06 -7.83639e-06 5.82111e-06 -0.000108292
0.000651251 -0.000204811 -0.000191332 -0.000106129
-5.88025e-06 -7.91416e-06 5.91189e-06 -0.000108294
-5.81312e-06 -7.87522e-06 5.86643e-06 -0.000108293
-0.000660495 0.000188796 0.000202157 -0.000106035
-0.000656337 0.000187663 0.00020086 -0.000106033
0.000645408 -0.000202885 -0.000189653 -0.000106125
0.000649304 -0.000204169 -0.000190772 -0.000106128
-0.000658416 0.00018823 0.000201508 -0.000106034
-5.61298e-06 -7.75908e-06 5.73088e-06 -0.000108289
0.000647356 -0.000203527 -0.000190212 -0.000106127
-5.7462e-06 -7.83639e-06 5.82111e-06 -0.000108292
-5.67949e-06 -7.79768e-06 5.77593e-06 -0.00010829
-0.000656337 0.000187663 0.00020086 -0.000106033
-0.000652179 0.00018653 0.000199564 -0.000106031
0.000641512 -0.000201602 -0.000188533 -0.000106122
0.000645408 -0.000202885 -0.000189653 -0.000106125
-0.000654258 0.000187097 0.000200212 -0.000106032
-5.4806e-06 -7.68223e-06 5.64122e-06 -0.000108287
0.00064346 -0.000202244 -0.000189093 -0.000106124
-5.61298e-06 -7.75908e-06 5.73088e-06 -0.000108289
-5.54669e-06 -7.7206e-06 5.68598e-06 -0.000108288
-0.000652179 0.00018653 0.000199564 -0.000106031
-0.000648022 0.000185396 0.000198268 -0.000106029
0.000637614 -0.000200319 -0.000187412 -0.00010612
0.000641512 -0.000201602 -0.000188533 -0.000106122
-0.000650101 0.000185963 0.000198916 -0.00010603
-5.34906e-06 -7.60586e-06 5.55211e-06 -0.000108284
0.000639563 -0.000200961 -0.000187972 -0.000106121
-5.4806e-06 -7.68223e-06 5.64122e-06 -0.000108287
-5.41473e-06 -7.64399e-06 5.59659e-06 -0.000108285
-0.000648022 0.000185396 0.000198268 -0.000106029
-0.000643867 0.000184262 0.000196973 -0.000106026
0.000633716 -0.000199037 -0.000186291 -0.000106117
0.000637614 -0.000200319 -0.000187412 -0.00010612
-0.000645944 0.000184829 0.000197621 -0.000106027
-5.21834e-06 -7.52995e-06 5.46355e-06 -0.000108281
0.000635665 -0.000199678 -0.000186852 -0.000106118
-5.34906e-06 -7.60586e-06 5.55211e-06 -0.000108284
-5.28359e-06 -7.56784e-06 5.50776e-06 -0.000108283
-0.000643867 0.000184262 0.000196973 -0.000106026
-0.000639712 0.000183128 0.000195679 -0.000106024
0.000629818 -0.000197755 -0.00018517 -0.000106114
0.000633716 -0.000199037 -0.000186291 -0.000106117
-0.000641789 0.000183695 0.000196326 -0.000106025
-5.08845e-06 -7.45451e-06 5.37556e-06 -0.000108279
0.000631767 -0.000198396 -0.000185731 -0.000106115
-5.21834e-06 -7.52995e-06 5.46355e-06 -0.000108281
-5.15329e-06 -7.49217e-06 5.41948e-06 -0.00010828
-0.000639712 0.000183128 0.000195679 -0.000106024
-0.000635558 0.000181993 0.000194385 -0.000106021
0.000625918 -0.000196474 -0.000184048 -0.000106111
0.000629818 -0.000197755 -0.00018517 -0.000106114
-0.000637635 0.00018256 0.000195032 -0.000106023
-4.95938e-06 -7.37956e-06 5.28812e-06 -0.000108276
0.000627868 -0.000197114 -0.000184609 -0.000106112
-5.08845e-06 -7.45451e-06 5.37556e-06 -0.000108279
-5.02381e-06 -7.41698e-06 5.33177e-06 -0.000108277
-0.000635558 0.000181993 0.000194385 -0.000106021
-0.000631405 0.000180857 0.000193092 -0.000106019
0.000622018 -0.000195193 -0.000182925 -0.000106108
0.000625918 -0.000196474 -0.000184048 -0.000106111
-0.000633481 0.000181425 0.000193738 -0.00010602
-4.83114e-06 -7.30507e-06 5.20123e-06 -0.000108273
0.000623968 -0.000195833 -0.000183486 -0.000106109
-4.95938e-06 -7.37956e-06 5.28812e-06 -0.000108276
-4.89516e-06 -7.34225e-06 5.24461e-06 -0.000108274
-0.000631405 0.000180857 0.000193092 -0.000106019
-0.000627253 0.000179722 0.000191799 -0.000106016
0.000618117 -0.000193913 -0.000181802 -0.000106105
0.000622018 -0.000195193 -0.000182925 -0.000106108
-0.000629329 0.00018029 0.000192445 -0.000106018
-4.70372e-06 -7.23106e-06 5.11491e-06 -0.00010827
0.000620068 -0.000194553 -0.000182364 -0.000106106
-4.83114e-06 -7.30507e-06 5.20123e-06 -0.000108273
-4.76733e-06 -7.26801e-06 5.158e-06 -0.000108272
-0.000627253 0.000179722 0.000191799 -0.000106016
-0.000623101 0.000178585 0.000190507 -0.000106014
0.000614216 -0.000192633 -0.000180679 -0.000106101
0.000618117 -0.000193913 -0.000181802 -0.000106105
-0.000625177 0.000179153 0.000191153 -0.000106015
-4.57713e-06 -7.15753e-06 5.02914e-06 -0.000108267
0.000616167 -0.000193273 -0.00018124 -0.000106103
-4.70372e-06 -7.23106e-06 5.11491e-06 -0.00010827
-4.64032e-06 -7.19424e-06 5.07196e-06 -0.000108269
-0.000623101 0.000178585 0.000190507 -0.000106014
-0.000618951 0.000177449 0.000189215 -0.000106011
0.000610314 -0.000191353 -0.000179554 -0.000106098
0.000614216 -0.000192633 -0.000180679 -0.000106101
-0.000621026 0.000178017 0.000189861 -0.000106013
-4.45136e-06 -7.08448e-06 4.94393e-06 -0.000108264
0.000612265 -0.000191993 -0.000180117 -0.0001061
-4.57713e-06 -7.15753e-06 5.02914e-06 -0.000108267
-4.51414e-06 -7.12095e-06 4.98647e-06 -0.000108266
-0.000618951 0.000177449 0.000189215 -0.000106011
-0.000614802 0.000176311 0.000187924 -0.000106009
0.000606411 -0.000190075 -0.00017843 -0.000106095
0.000610314 -0.000191353 -0.000179554 -0.000106098
-0.000616876 0.00017688 0.00018857 -0.00010601
-4.32641e-06 -7.0119e-06 4.85928e-06 -0.000108261
0.000608362 -0.000190714 -0.000178992 -0.000106097
-4.45136e-06 -7.08448e-06 4.94393e-06 -0.000108264
-4.38878e-06 -7.04813e-06 4.90154e-06 -0.000108263
-0.000614802 0.000176311 0.000187924 -0.000106009
-0.000610653 0.000175174 0.000186634 -0.000106006
0.000602507 -0.000188796 -0.000177305 -0.000106092
0.000606411 -0.000190075 -0.00017843 -0.000106095
-0.000612727 0.000175743 0.000187279 -0.000106007
-4.20229e-06 -6.93981e-06 4.77518e-06 -0.000108258
0.000604459 -0.000189435 -0.000177867 -0.000106093
-4.32641e-06 -7.0119e-06 4.85928e-06 -0.000108261
-4.26425e-06 -6.9758e-06 4.81716e-06 -0.00010826
-0.000610653 0.000175174 0.000186634 -0.000106006
-0.000606506 0.000174036 0.000185344 -0.000106003
0.000598603 -0.000187518 -0.000176179 -0.000106089
0.000602507 -0.000188796 -0.000177305 -0.000106092
-0.000608579 0.000174605 0.000185989 -0.000106005
-4.07899e-06 -6.86819e-06 4.69165e-06 -0.000108255
0.000600555 -0.000188157 -0.000176742 -0.00010609
-4.20229e-06 -6.93981e-06 4.77518e-06 -0.000108258
-4.14054e-06 -6.90394e-06 4.73335e-06 -0.000108257
-0.000606506 0.000174036 0.000185344 -0.000106003
-0.000602359 0.000172897 0.000184055 -0.000106001
0.000594698 -0.000186241 -0.000175053 -0.000106085
0.000598603 -0.000187518 -0.000176179 -0.000106089
-0.000604432 0.000173467 0.0001847 -0.000106002
-3.95651e-06 -6.79704e-06 4.60867e-06 -0.000108252
0.00059665 -0.00018688 -0.000175616 -0.000106087
-4.07899e-06 -6.86819e-06 4.69165e-06 -0.000108255
-4.01765e-06 -6.83256e-06 4.65009e-06 -0.000108254
-0.000602359 0.000172897 0.000184055 -0.000106001
-0.000598214 0.000171759 0.000182766 -0.000105998
0.000590792 -0.000184964 -0.000173926 -0.000106082
0.000594698 -0.000186241 -0.000175053 -0.000106085
-0.000600286 0.000172328 0.000183411 -0.000105999
-3.83486e-06 -6.72638e-06 4.52625e-06 -0.000108249
0.000592745 -0.000185603 -0.00017449 -0.000106084
-3.95651e-06 -6.79704e-06 4.60867e-06 -0.000108252
-3.89558e-06 -6.76165e-06 4.56739e-06 -0.000108251
-0.000598214 0.000171759 0.000182766 -0.000105998
-0.000594069 0.000170619 0.000181478 -0.000105995
0.000586886 -0.000183688 -0.000172799 -0.000106079
0.000590792 -0.000184964 -0.000173926 -0.000106082
-0.000596141 0.000171189 0.000182122 -0.000105996
-3.71403e-06 -6.65619e-06 4.44438e-06 -0.000108246
0.000588839 -0.000184326 -0.000173363 -0.00010608
-3.83486e-06 -6.72638e-06 4.52625e-06 -0.000108249
-3.77434e-06 -6.69123e-06 4.48524e-06 -0.000108248
-0.000594069 0.000170619 0.000181478 -0.000105995
-0.000589925 0.00016948 0.000180191 -0.000105992
0.000582979 -0.000182412 -0.000171671 -0.000106075
0.000586886 -0.000183688 -0.000172799 -0.000106079
-0.000591997 0.000170049 0.000180835 -0.000105994
-3.59402e-06 -6.58648e-06 4.36307e-06 -0.000108243
0.000584932 -0.00018305 -0.000172235 -0.000106077
-3.71403e-06 -6.65619e-06 4.44438e-06 -0.000108246
-3.65392e-06 -6.62128e-06 4.40366e-06 -0.000108244
-0.000589925 0.00016948 0.000180191 -0.000105992
-0.000585782 0.000168339 0.000178904 -0.000105989
0.000579071 -0.000181137 -0.000170543 -0.000106072
0.000582979 -0.000182412 -0.000171671 -0.000106075
-0.000587854 0.00016891 0.000179547 -0.000105991
-3.47484e-06 -6.51725e-06 4.28232e-06 -0.00010824
0.000581025 -0.000181774 -0.000171107 -0.000106073
-3.59402e-06 -6.58648e-06 4.36307e-06 -0.000108243
-3.53433e-06 -6.55181e-06 4.32263e-06 -0.000108241
-0.000585782 0.000168339 0.000178904 -0.000105989
-0.00058164 0.000167199 0.000177618 -0.000105987
0.000575162 -0.000179862 -0.000169415 -0.000106068
0.000579071 -0.000181137 -0.000170543 -0.000106072
-0.000583711 0.000167769 0.000178261 -0.000105988
-3.35648e-06 -6.4485e-06 4.20213e-06 -0.000108236
0.000577117 -0.000180499 -0.000169979 -0.00010607
-3.47484e-06 -6.51725e-06 4.28232e-06 -0.00010824
-3.41555e-06 -6.48282e-06 4.24216e-06 -0.000108238
-0.00058164 0.000167199 0.000177618 -0.000105987
-0.000577499 0.000166058 0.000176332 -0.000105984
0.000571253 -0.000178588 -0.000168285 -0.000106065
0.000575162 -0.000179862 -0.000169415 -0.000106068
-0.00057957 0.000166628 0.000176975 -0.000105985
-3.23894e-06 -6.38023e-06 4.1225e-06 -0.000108233
0.000573208 -0.000179225 -0.00016885 -0.000106067
-3.35648e-06 -6.4485e-06 4.20213e-06 -0.000108236
-3.29761e-06 -6.4143e-06 4.16225e-06 -0.000108235
-0.000577499 0.000166058 0.000176332 -0.000105984
-0.000573359 0.000164916 0.000175047 -0.000105981
0.000567343 -0.000177314 -0.000167156 -0.000106061
0.000571253 -0.000178588 -0.000168285 -0.000106065
-0.000575429 0.000165487 0.000175689 -0.000105982
-3.12222e-06 -6.31243e-06 4.04342e-06 -0.00010823
0.000569298 -0.000177951 -0.00016772 -0.000106063
-3.23894e-06 -6.38023e-06 4.1225e-06 -0.000108233
-3.18048e-06 -6.34627e-06 4.08289e-06 -0.000108231
-0.000573359 0.000164916 0.000175047 -0.000105981
-0.00056922 0.000163775 0.000173762 -0.000105978
0.000563433 -0.000176041 -0.000166025 -0.000106058
0.000567343 -0.000177314 -0.000167156 -0.000106061
-0.00057129 0.000164346 0.000174405 -0.000105979
-3.00633e-06 -6.24511e-06 3.9649e-06 -0.000108227
0.000565388 -0.000176677 -0.00016659 -0.00010606
-3.12222e-06 -6.31243e-06 4.04342e-06 -0.00010823
-3.06418e-06 -6.27871e-06 4.00409e-06 -0.000108228
-0.00056922 0.000163775 0.000173762 -0.000105978
-0.000565082 0.000162632 0.000172478 -0.000105975
0.000559522 -0.000174768 -0.000164895 -0.000106054
0.000563433 -0.000176041 -0.000166025 -0.000106058
-0.000567151 0.000163203 0.00017312 -0.000105976
-2.89127e-06 -6.17827e-06 3.88694e-06 -0.000108223
0.000561477 -0.000175404 -0.00016546 -0.000106056
-3.00633e-06 -6.24511e-06 3.9649e-06 -0.000108227
-2.9487e-06 -6.21163e-06 3.92585e-06 -0.000108225
-0.000565082 0.000162632 0.000172478 -0.000105975
-0.000560945 0.00016149 0.000171195 -0.000105972
0.00055561 -0.000173495 -0.000163763 -0.000106051
0.000559522 -0.000174768 -0.000164895 -0.000106054
-0.000563013 0.000162061 0.000171837 -0.000105973
-2.77702e-06 -6.1119e-06 3.80954e-06 -0.00010822
0.000557566 -0.000174132 -0.000164329 -0.000106052
-2.89127e-06 -6.17827e-06 3.88694e-06 -0.000108223
-2.83404e-06 -6.14502e-06 3.84817e-06 -0.000108221
-0.000560945 0.00016149 0.000171195 -0.000105972
-0.000556809 0.000160346 0.000169912 -0.000105969
0.000551697 -0.000172224 -0.000162632 -0.000106047
0.00055561 -0.000173495 -0.000163763 -0.000106051
-0.000558877 0.000160918 0.000170554 -0.00010597
-2.6636e-06 -6.04602e-06 3.73269e-06 -0.000108216
0.000553654 -0.000172859 -0.000163197 -0.000106049
-2.77702e-06 -6.1119e-06 3.80954e-06 -0.00010822
-2.72021e-06 -6.0789e-06 3.77105e-06 -0.000108218
-0.000556809 0.000160346 0.000169912 -0.000105969
-0.000552673 0.000159203 0.00016863 -0.000105966
0.000547784 -0.000170952 -0.000161499 -0.000106043
0.000551697 -0.000172224 -0.000162632 -0.000106047
-0.000554741 0.000159775 0.000169271 -0.000105967
-2.551e-06 -5.98061e-06 3.6564e-06 -0.000108213
0.000549741 -0.000171588 -0.000162065 -0.000106045
-2.6636e-06 -6.04602e-06 3.73269e-06 -0.000108216
-2.6072e-06 -6.01325e-06 3.69448e-06 -0.000108215
-0.000552673 0.000159203 0.00016863 -0.000105966
-0.000548539 0.000158059 0.000167349 -0.000105963
0.00054387 -0.000169682 -0.000160366 -0.00010604
0.000547784 -0.000170952 -0.000161499 -0.000106043
-0.000550606 0.000158631 0.000167989 -0.000105964
-2.43923e-06 -5.91568e-06 3.58067e-06 -0.00010821
0.000545827 -0.000170317 -0.000160933 -0.000106042
-2.551e-06 -5.98061e-06 3.6564e-06 -0.000108213
-2.49501e-06 -5.94808e-06 3.61847e-06 -0.000108211
-0.000548539 0.000158059 0.000167349 -0.000105963
-0.000544405 0.000156914 0.000166067 -0.000105959
0.000539955 -0.000168411 -0.000159233 -0.000106036
0.00054387 -0.000169682 -0.000160366 -0.00010604
-0.000546472 0.000157487 0.000166708 -0.000105961
-2.32828e-06 -5.85122e-06 3.5055e-06 -0.000108206
0.000541913 -0.000169046 -0.0001598 -0.000106038
-2.43923e-06 -5.91568e-06 3.58067e-06 -0.00010821
-2.38365e-06 -5.88339e-06 3.54302e-06 -0.000108208
-0.000544405 0.000156914 0.000166067 -0.000105959
-0.000540273 0.00015577 0.000164787 -0.000105956
0.00053604 -0.000167142 -0.000158099 -0.000106032
0.000539955 -0.000168411 -0.000159233 -0.000106036
-0.000542339 0.000156342 0.000165427 -0.000105958
-2.21815e-06 -5.78725e-06 3.43088e-06 -0.000108203
0.000537998 -0.000167776 -0.000158666 -0.000106034
-2.32828e-06 -5.85122e-06 3.5055e-06 -0.000108206
-2.27311e-06 -5.81918e-06 3.46812e-06 -0.000108204
-0.000540273 0.00015577 0.000164787 -0.000105956
-0.000536141 0.000154624 0.000163507 -0.000105953
0.000532124 -0.000165872 -0.000156965 -0.000106029
0.00053604 -0.000167142 -0.000158099 -0.000106032
-0.000538207 0.000155197 0.000164147 -0.000105955
-2.10884e-06 -5.72375e-06 3.35682e-06 -0.000108199
0.000534082 -0.000166507 -0.000157532 -0.000106031
-2.21815e-06 -5.78725e-06 3.43088e-06 -0.000108203
-2.16339e-06 -5.75544e-06 3.39378e-06 -0.000108201
-0.000536141 0.000154624 0.000163507 -0.000105953
-0.00053201 0.000153479 0.000162228 -0.00010595
0.000528207 -0.000164604 -0.00015583 -0.000106025
0.000532124 -0.000165872 -0.000156965 -0.000106029
-0.000534076 0.000154052 0.000162867 -0.000105952
-2.00036e-06 -5.66073e-06 3.28332e-06 -0.000108196
0.000530166 -0.000165238 -0.000156398 -0.000106027
-2.10884e-06 -5.72375e-06 3.35682e-06 -0.000108199
-2.0545e-06 -5.69218e-06 3.32e-06 -0.000108197
-0.00053201 0.000153479 0.000162228 -0.00010595
-0.000527881 0.000152332 0.000160949 -0.000105947
0.00052429 -0.000163335 -0.000154695 -0.000106021
0.000528207 -0.000164604 -0.00015583 -0.000106025
-0.000529945 0.000152906 0.000161589 -0.000105949
-1.8927e-06 -5.59819e-06 3.21038e-06 -0.000108192
0.000526249 -0.000163969 -0.000155263 -0.000106023
-2.00036e-06 -5.66073e-06 3.28332e-06 -0.000108196
-1.94642e-06 -5.6294e-06 3.24678e-06 -0.000108194
-0.000527881 0.000152332 0.000160949 -0.000105947
-0.000523752 0.000151186 0.000159671 -0.000105944
0.000520372 -0.000162068 -0.000153559 -0.000106018
0.00052429 -0.000163335 -0.000154695 -0.000106021
-0.000525816 0.000151759 0.00016031 -0.000105945
-1.78586e-06 -5.53612e-06 3.13799e-06 -0.000108189
0.000522331 -0.000162701 -0.000154127 -0.000106019
-1.8927e-06 -5.59819e-06 3.21038e-06 -0.000108192
-1.83918e-06 -5.56709e-06 3.17412e-06 -0.00010819
-0.000523752 0.000151186 0.000159671 -0.000105944
-0.000519624 0.000150039 0.000158394 -0.000105941
0.000516453 -0.0001608 -0.000152423 -0.000106014
0.000520372 -0.000162068 -0.000153559 -0.000106018
-0.000521688 0.000150612 0.000159032 -0.000105942
-1.67984e-06 -5.47454e-06 3.06616e-06 -0.000108185
0.000518413 -0.000161434 -0.000152991 -0.000106016
-1.78586e-06 -5.53612e-06 3.13799e-06 -0.000108189
-1.73275e-06 -5.50527e-06 3.10201e-06 -0.000108187
-0.000519624 0.000150039 0.000158394 -0.000105941
-0.000515497 0.000148892 0.000157117 -0.000105937
0.000512534 -0.000159534 -0.000151286 -0.00010601
0.000516453 -0.0001608 -0.000152423 -0.000106014
-0.000517561 0.000149465 0.000157755 -0.000105939
-1.57465e-06 -5.41343e-06 2.99489e-06 -0.000108182
0.000514494 -0.000160167 -0.000151854 -0.000106012
-1.67984e-06 -5.47454e-06 3.06616e-06 -0.000108185
-1.62715e-06 -5.44392e-06 3.03046e-06 -0.000108183
-0.000515497 0.000148892 0.000157117 -0.000105937
-0.000511371 0.000147744 0.00015584 -0.000105934
0.000508614 -0.000158267 -0.000150148 -0.000106006
0.000512534 -0.000159534 -0.000151286 -0.00010601
-0.000513434 0.000148318 0.000156478 -0.000105936
-1.47028e-06 -5.35279e-06 2.92418e-06 -0.000108178
0.000510574 -0.000158901 -0.000150717 -0.000106008
-1.57465e-06 -5.41343e-06 2.99489e-06 -0.000108182
-1.52237e-06 -5.38305e-06 2.95946e-06 -0.00010818
-0.000511371 0.000147744 0.00015584 -0.000105934
-0.000507246 0.000146595 0.000154565 -0.000105931
0.000504693 -0.000157002 -0.00014901 -0.000106002
0.000508614 -0.000158267 -0.000150148 -0.000106006
-0.000509309 0.00014717 0.000155202 -0.000105933
-1.36674e-06 -5.29264e-06 2.85402e-06 -0.000108174
0.000506653 -0.000157635 -0.000149579 -0.000106004
-1.47028e-06 -5.35279e-06 2.92418e-06 -0.000108178
-1.41841e-06 -5.32266e-06 2.88903e-06 -0.000108176
-0.000507246 0.000146595 0.000154565 -0.000105931
-0.000503122 0.000145447 0.00015329 -0.000105928
0.000500771 -0.000155737 -0.000147872 -0.000105999
0.000504693 -0.000157002 -0.00014901 -0.000106002
-0.000505184 0.000146021 0.000153927 -0.000105929
-1.26401e-06 -5.23296e-06 2.78442e-06 -0.000108171
0.000502732 -0.000156369 -0.000148441 -0.000106001
-1.36674e-06 -5.29264e-06 2.85402e-06 -0.000108174
-1.31527e-06 -5.26274e-06 2.81915e-06 -0.000108173
-0.000503122 0.000145447 0.00015329 -0.000105928
-0.000498999 0.000144298 0.000152015 -0.000105924
0.000496849 -0.000154472 -0.000146733 -0.000105995
0.000500771 -0.000155737 -0.000147872 -0.000105999
-0.000501061 0.000144872 0.000152652 -0.000105926
-1.16211e-06 -5.17376e-06 2.71538e-06 -0.000108167
0.00049881 -0.000155104 -0.000147303 -0.000105997
-1.26401e-06 -5.23296e-06 2.78442e-06 -0.000108171
-1.21296e-06 -5.2033e-06 2.74983e-06 -0.000108169
-0.000498999 0.000144298 0.000152015 -0.000105924
-0.000494877 0.000143148 0.000150741 -0.000105921
0.000492927 -0.000153208 -0.000145594 -0.000105991
0.000496849 -0.000154472 -0.000146733 -0.000105995
-0.000496938 0.000143723 0.000151378 -0.000105923
-1.06103e-06 -5.11504e-06 2.64689e-06 -0.000108164
0.000494888 -0.00015384 -0.000146164 -0.000105993
-1.16211e-06 -5.17376e-06 2.71538e-06 -0.000108167
-1.11147e-06 -5.14434e-06 2.68106e-06 -0.000108165
-0.000494877 0.000143148 0.000150741 -0.000105921
-0.000490756 0.000141998 0.000149468 -0.000105918
0.000489003 -0.000151944 -0.000144454 -0.000105987
0.000492927 -0.000153208 -0.000145594 -0.000105991
-0.000492816 0.000142573 0.000150104 -0.00010592
-9.60777e-07 -5.0568e-06 2.57896e-06 -0.00010816
0.000490965 -0.000152576 -0.000145024 -0.000105989
-1.06103e-06 -5.11504e-06 2.64689e-06 -0.000108164
-1.0108e-06 -5.08586e-06 2.61286e-06 -0.000108162
-0.000490756 0.000141998 0.000149468 -0.000105918
-0.000486636 0.000140848 0.000148195 -0.000105915
0.000485079 -0.000150681 -0.000143313 -0.000105983
0.000489003 -0.000151944 -0.000144454 -0.000105987
-0.000488696 0.000141423 0.000148831 -0.000105916
-8.61343e-07 -4.99903e-06 2.51159e-06 -0.000108156
0.000487041 -0.000151312 -0.000143884 -0.000105985
-9.60777e-07 -5.0568e-06 2.57896e-06 -0.00010816
-9.10958e-07 -5.02785e-06 2.54521e-06 -0.000108158
-0.000486636 0.000140848 0.000148195 -0.000105915
-0.000482516 0.000139697 0.000146923 -0.000105911
0.000481154 -0.000149418 -0.000142173 -0.000105979
0.000485079 -0.000150681 -0.000143313 -0.000105983
-0.000484576 0.000140273 0.000147559 -0.000105913
-7.62732e-07 -4.94174e-06 2.44477e-06 -0.000108153
0.000483117 -0.00015005 -0.000142743 -0.000105981
-8.61343e-07 -4.99903e-06 2.51159e-06 -0.000108156
-8.11935e-07 -4.97033e-06 2.47811e-06 -0.000108154
-0.000482516 0.000139697 0.000146923 -0.000105911
-0.000478398 0.000138546 0.000145651 -0.000105908
0.000477229 -0.000148156 -0.000141031 -0.000105976
0.000481154 -0.000149418 -0.000142173 -0.000105979
-0.000480457 0.000139121 0.000146287 -0.00010591
-6.64942e-07 -4.88493e-06 2.37852e-06 -0.000108149
0.000479191 -0.000148787 -0.000141602 -0.000105978
-7.62732e-07 -4.94174e-06 2.44477e-06 -0.000108153
-7.13735e-07 -4.91327e-06 2.41158e-06 -0.000108151
-0.000478398 0.000138546 0.000145651 -0.000105908
-0.00047428 0.000137394 0.00014438 -0.000105905
0.000473303 -0.000146894 -0.000139889 -0.000105972
0.000477229 -0.000148156 -0.000141031 -0.000105976
-0.000476339 0.00013797 0.000145015 -0.000105906
-5.67975e-07 -4.82859e-06 2.31282e-06 -0.000108145
0.000475266 -0.000147525 -0.00014046 -0.000105974
-6.64942e-07 -4.88493e-06 2.37852e-06 -0.000108149
-6.16356e-07 -4.8567e-06 2.3456e-06 -0.000108147
-0.00047428 0.000137394 0.00014438 -0.000105905
-0.000470164 0.000136242 0.000143109 -0.000105902
0.000469376 -0.000145633 -0.000138747 -0.000105968
0.000473303 -0.000146894 -0.000139889 -0.000105972
-0.000472222 0.000136818 0.000143745 -0.000105903
-4.7183e-07 -4.77274e-06 2.24767e-06 -0.000108142
0.000471339 -0.000146264 -0.000139318 -0.00010597
-5.67975e-07 -4.82859e-06 2.31282e-06 -0.000108145
-5.198e-07 -4.80061e-06 2.28017e-06 -0.000108144
-0.000470164 0.000136242 0.000143109 -0.000105902
-0.000466049 0.00013509 0.00014184 -0.000105898
0.000465448 -0.000144373 -0.000137604 -0.000105964
0.000469376 -0.000145633 -0.000138747 -0.000105968
-0.000468106 0.000135666 0.000142474 -0.0001059
-3.76507e-07 -4.71736e-06 2.18308e-06 -0.000108138
0.000467412 -0.000145003 -0.000138175 -0.000105966
-4.7183e-07 -4.77274e-06 2.24767e-06 -0.000108142
-4.24066e-07 -4.74499e-06 2.21531e-06 -0.00010814
-0.000466049 0.00013509 0.00014184 -0.000105898
-0.000461934 0.000133937 0.00014057 -0.000105895
0.00046152 -0.000143113 -0.00013646 -0.00010596
0.000465448 -0.000144373 -0.000137604 -0.000105964
-0.000463991 0.000134513 0.000141205 -0.000105897
-2.82006e-07 -4.66245e-06 2.11905e-06 -0.000108134
0.000463484 -0.000143743 -0.000137032 -0.000105962
-3.76507e-07 -4.71736e-06 2.18308e-06 -0.000108138
-3.29154e-07 -4.68985e-06 2.151e-06 -0.000108136
-0.000461934 0.000133937 0.00014057 -0.000105895
-0.00045782 0.000132783 0.000139302 -0.000105892
0.000457591 -0.000141853 -0.000135316 -0.000105956
0.00046152 -0.000143113 -0.00013646 -0.00010596
-0.000459877 0.00013336 0.000139936 -0.000105893
-1.88327e-07 -4.60803e-06 2.05558e-06 -0.000108131
0.000459556 -0.000142483 -0.000135888 -0.000105958
-2.82006e-07 -4.66245e-06 2.11905e-06 -0.000108134
-2.35064e-07 -4.63518e-06 2.08725e-06 -0.000108133
-0.00045782 0.000132783 0.000139302 -0.000105892
-0.000453708 0.00013163 0.000138033 -0.000105888
0.000453662 -0.000140594 -0.000134172 -0.000105952
0.000457591 -0.000141853 -0.000135316 -0.000105956
-0.000455764 0.000132207 0.000138667 -0.00010589
-9.547e-08 -4.55408e-06 1.99266e-06 -0.000108127
0.000455626 -0.000141223 -0.000134744 -0.000105954
-1.88327e-07 -4.60803e-06 2.05558e-06 -0.000108131
-1.41796e-07 -4.58099e-06 2.02405e-06 -0.000108129
-0.000453708 0.00013163 0.000138033 -0.000105888
-0.000449596 0.000130475 0.000136766 -0.000105885
0.000449731 -0.000139335 -0.000133027 -0.000105949
0.000453662 -0.000140594 -0.000134172 -0.000105952
-0.000451652 0.000131053 0.0001374 -0.000105887
-3.43474e-09 -4.50061e-06 1.9303e-06 -0.000108123
0.000451697 -0.000139965 -0.000133599 -0.000105951
-9.547e-08 -4.55408e-06 1.99266e-06 -0.000108127
-4.93502e-08 -4.52728e-06 1.96141e-06 -0.000108125
-0.000449596 0.000130475 0.000136766 -0.000105885
-0.000445485 0.000129321 0.000135499 -0.000105882
0.0004458 -0.000138077 -0.000131881 -0.000105945
0.000449731 -0.000139335 -0.000133027 -0.000105949
-0.00044754 0.000129898 0.000136132 -0.000105883
8.77788e-08 -4.44761e-06 1.8685e-06 -0.00010812
0.000447766 -0.000138706 -0.000132454 -0.000105947
-3.43474e-09 -4.50061e-06 1.9303e-06 -0.000108123
4.22742e-08 -4.47405e-06 1.89933e-06 -0.000108122
-0.000445485 0.000129321 0.000135499 -0.000105882
-0.000441375 0.000128166 0.000134233 -0.000105879
0.000441869 -0.00013682 -0.000130735 -0.000105941
0.0004458 -0.000138077 -0.000131881 -0.000105945
-0.00044343 0.000128743 0.000134866 -0.00010588
1.78171e-07 -4.3951e-06 1.80725e-06 -0.000108116
0.000443835 -0.000137448 -0.000131308 -0.000105943
8.77788e-08 -4.44761e-06 1.8685e-06 -0.00010812
1.33077e-07 -4.4213e-06 1.83781e-06 -0.000108118
-0.000441375 0.000128166 0.000134233 -0.000105879
-0.000437266 0.00012701 0.000132967 -0.000105875
0.000437937 -0.000135563 -0.000129589 -0.000105937
0.000441869 -0.00013682 -0.000130735 -0.000105941
-0.000439321 0.000127588 0.0001336 -0.000105877
2.67741e-07 -4.34306e-06 1.74656e-06 -0.000108113
0.000439903 -0.000136191 -0.000130162 -0.000105939
1.78171e-07 -4.3951e-06 1.80725e-06 -0.000108116
2.23058e-07 -4.36902e-06 1.77684e-06 -0.000108114
-0.000437266 0.00012701 0.000132967 -0.000105875
-0.000433158 0.000125854 0.000131702 -0.000105872
0.000434004 -0.000134306 -0.000128442 -0.000105933
0.000437937 -0.000135563 -0.000129589 -0.000105937
-0.000435212 0.000126432 0.000132334 -0.000105874
3.5649e-07 -4.2915e-06 1.68643e-06 -0.000108109
0.00043597 -0.000134934 -0.000129015 -0.000105935
2.67741e-07 -4.34306e-06 1.74656e-06 -0.000108113
3.12217e-07 -4.31722e-06 1.71643e-06 -0.000108111
-0.000433158 0.000125854 0.000131702 -0.000105872
-0.000429051 0.000124698 0.000130437 -0.000105869
0.00043007 -0.00013305 -0.000127294 -0.000105929
0.000434004 -0.000134306 -0.000128442 -0.000105933
-0.000431105 0.000125276 0.000131069 -0.00010587
4.44417e-07 -4.24041e-06 1.62685e-06 -0.000108105
0.000432037 -0.000133678 -0.000127868 -0.000105931
3.5649e-07 -4.2915e-06 1.68643e-06 -0.000108109
4.00555e-07 -4.26589e-06 1.65657e-06 -0.000108107
-0.000429051 0.000124698 0.000130437 -0.000105869
-0.000424945 0.000123541 0.000129173 -0.000105865
0.000426136 -0.000131794 -0.000126146 -0.000105926
0.00043007 -0.00013305 -0.000127294 -0.000105929
-0.000426998 0.00012412 0.000129805 -0.000105867
5.31523e-07 -4.1898e-06 1.56783e-06 -0.000108102
0.000428103 -0.000132422 -0.00012672 -0.000105927
4.44417e-07 -4.24041e-06 1.62685e-06 -0.000108105
4.88072e-07 -4.21505e-06 1.59727e-06 -0.000108103
-0.000424945 0.000123541 0.000129173 -0.000105865
-0.00042084 0.000122384 0.00012791 -0.000105862
0.000422201 -0.000130539 -0.000124998 -0.000105922
0.000426136 -0.000131794 -0.000126146 -0.000105926
-0.000422893 0.000122963 0.000128541 -0.000105864
6.17807e-07 -4.13967e-06 1.50937e-06 -0.000108098
0.000424169 -0.000131167 -0.000125572 -0.000105924
5.31523e-07 -4.1898e-06 1.56783e-06 -0.000108102
5.74767e-07 -4.16468e-06 1.53853e-06 -0.0001081
-0.00042084 0.000122384 0.00012791 -0.000105862
-0.000416736 0.000121227 0.000126647 -0.000105859
0.000418265 -0.000129285 -0.000123849 -0.000105918
0.000422201 -0.000130539 -0.000124998 -0.000105922
-0.000418788 0.000121806 0.000127278 -0.000105861
7.0327e-07 -4.09001e-06 1.45146e-06 -0.000108094
0.000420233 -0.000129912 -0.000124423 -0.00010592
6.17807e-07 -4.13967e-06 1.50937e-06 -0.000108098
6.60641e-07 -4.11478e-06 1.48035e-06 -0.000108096
-0.000416736 0.000121227 0.000126647 -0.000105859
-0.000412633 0.000120069 0.000125385 -0.000105856
0.000414329 -0.000128031 -0.000122699 -0.000105914
0.000418265 -0.000129285 -0.000123849 -0.000105918
-0.000414684 0.000120648 0.000126016 -0.000105857
7.87912e-07 -4.04084e-06 1.39411e-06 -0.000108091
0.000416297 -0.000128658 -0.000123274 -0.000105916
7.0327e-07 -4.09001e-06 1.45146e-06 -0.000108094
7.45693e-07 -4.06537e-06 1.42272e-06 -0.000108093
-0.000412633 0.000120069 0.000125385 -0.000105856
-0.000408531 0.00011891 0.000124123 -0.000105852
0.000410392 -0.000126777 -0.000121549 -0.00010591
0.000414329 -0.000128031 -0.000122699 -0.000105914
-0.000410582 0.000119489 0.000124754 -0.000105854
8.71733e-07 -3.99214e-06 1.33732e-06 -0.000108087
0.000412361 -0.000127404 -0.000122124 -0.000105912
7.87912e-07 -4.04084e-06 1.39411e-06 -0.000108091
8.29925e-07 -4.01643e-06 1.36564e-06 -0.000108089
-0.000408531 0.00011891 0.000124123 -0.000105852
-0.000404429 0.000117751 0.000122862 -0.000105849
0.000406455 -0.000125524 -0.000120399 -0.000105906
0.000410392 -0.000126777 -0.000121549 -0.00010591
-0.00040648 0.000118331 0.000123492 -0.000105851
9.54733e-07 -3.94391e-06 1.28108e-06 -0.000108084
0.000408424 -0.000126151 -0.000120974 -0.000105908
8.71733e-07 -3.99214e-06 1.33732e-06 -0.000108087
9.13335e-07 -3.96796e-06 1.30913e-06 -0.000108085
-0.000404429 0.000117751 0.000122862 -0.000105849
-0.000400329 0.000116592 0.000121601 -0.000105846
0.000402516 -0.000124272 -0.000119248 -0.000105903
0.000406455 -0.000125524 -0.000120399 -0.000105906
-0.000402379 0.000117172 0.000122232 -0.000105848
1.03691e-06 -3.89616e-06 1.22539e-06 -0.00010808
0.000404486 -0.000124898 -0.000119823 -0.000105905
9.54733e-07 -3.94391e-06 1.28108e-06 -0.000108084
9.95924e-07 -3.91998e-06 1.25317e-06 -0.000108082
-0.000400329 0.000116592 0.000121601 -0.000105846
-0.000396229 0.000115432 0.000120342 -0.000105843
0.000398577 -0.00012302 -0.000118096 -0.000105899
0.000402516 -0.000124272 -0.000119248 -0.000105903
-0.000398279 0.000116012 0.000120971 -0.000105844
1.11827e-06 -3.84889e-06 1.17027e-06 -0.000108077
0.000400547 -0.000123646 -0.000118672 -0.000105901
1.03691e-06 -3.89616e-06 1.22539e-06 -0.00010808
1.07769e-06 -3.87247e-06 1.19776e-06 -0.000108078
-0.000396229 0.000115432 0.000120342 -0.000105843
-0.000392131 0.000114272 0.000119082 -0.00010584
0.000394638 -0.000121768 -0.000116944 -0.000105895
0.000398577 -0.00012302 -0.000118096 -0.000105899
-0.00039418 0.000114852 0.000119712 -0.000105841
1.19881e-06 -3.8021e-06 1.1157e-06 -0.000108073
0.000396608 -0.000122394 -0.00011752 -0.000105897
1.11827e-06 -3.84889e-06 1.17027e-06 -0.000108077
1.15864e-06 -3.82544e-06 1.14291e-06 -0.000108075
-0.000392131 0.000114272 0.000119082 -0.00010584
-0.000388033 0.000113112 0.000117824 -0.000105836
0.000390697 -0.000120517 -0.000115791 -0.000105891
0.000394638 -0.000121768 -0.000116944 -0.000105895
-0.000390082 0.000113692 0.000118453 -0.000105838
1.27852e-06 -3.75578e-06 1.06168e-06 -0.000108069
0.000392668 -0.000121143 -0.000116368 -0.000105893
1.19881e-06 -3.8021e-06 1.1157e-06 -0.000108073
1.23877e-06 -3.77888e-06 1.08862e-06 -0.000108071
-0.000388033 0.000113112 0.000117824 -0.000105836
-0.000383937 0.000111951 0.000116565 -0.000105833
0.000386756 -0.000119267 -0.000114638 -0.000105888
0.000390697 -0.000120517 -0.000115791 -0.000105891
-0.000385985 0.000112531 0.000117194 -0.000105835
1.35742e-06 -3.70994e-06 1.00822e-06 -0.000108066
0.000388727 -0.000119892 -0.000115215 -0.00010589
1.27852e-06 -3.75578e-06 1.06168e-06 -0.000108069
1.31807e-06 -3.7328e-06 1.03488e-06 -0.000108068
-0.000383937 0.000111951 0.000116565 -0.000105833
-0.000379841 0.000110789 0.000115308 -0.00010583
0.000382815 -0.000118017 -0.000113485 -0.000105884
0.000386756 -0.000119267 -0.000114638 -0.000105888
-0.000381889 0.00011137 0.000115937 -0.000105832
1.43549e-06 -3.66458e-06 9.55322e-07 -0.000108062
0.000384786 -0.000118642 -0.000114062 -0.000105886
1.35742e-06 -3.70994e-06 1.00822e-06 -0.000108066
1.39656e-06 -3.6872e-06 9.81704e-07 -0.000108064
-0.000379841 0.000110789 0.000115308 -0.00010583
-0.000375746 0.000109628 0.000114051 -0.000105827
0.000378872 -0.000116767 -0.000112331 -0.00010588
0.000382815 -0.000118017 -0.000113485 -0.000105884
-0.000377794 0.000110208 0.000114679 -0.000105829
1.51275e-06 -3.61969e-06 9.02975e-07 -0.000108059
0.000380844 -0.000117392 -0.000112908 -0.000105882
1.43549e-06 -3.66458e-06 9.55322e-07 -0.000108062
1.47422e-06 -3.64207e-06 9.29079e-07 -0.000108061
-0.000375746 0.000109628 0.000114051 -0.000105827
-0.000371653 0.000108465 0.000112795 -0.000105824
0.000374929 -0.000115519 -0.000111176 -0.000105877
0.000378872 -0.000116767 -0.000112331 -0.00010588
-0.000373699 0.000109046 0.000113423 -0.000105825
1.58918e-06 -3.57528e-06 8.51184e-07 -0.000108055
0.000376901 -0.000116143 -0.000111753 -0.000105878
1.51275e-06 -3.61969e-06 9.02975e-07 -0.000108059
1.55107e-06 -3.59743e-06 8.7701e-07 -0.000108057
-0.000371653 0.000108465 0.000112795 -0.000105824
-0.00036756 0.000107303 0.000111539 -0.000105821
0.000370986 -0.00011427 -0.000110021 -0.000105873
0.000374929 -0.000115519 -0.000111176 -0.000105877
-0.000369606 0.000107884 0.000112167 -0.000105822
1.6648e-06 -3.53134e-06 7.99949e-07 -0.000108052
0.000372957 -0.000114894 -0.000110599 -0.000105875
1.58918e-06 -3.57528e-06 8.51184e-07 -0.000108055
1.62709e-06 -3.55325e-06 8.25498e-07 -0.000108054
-0.00036756 0.000107303 0.000111539 -0.000105821
-0.000363468 0.00010614 0.000110284 -0.000105818
0.000367041 -0.000113022 -0.000108865 -0.000105869
0.000370986 -0.00011427 -0.000110021 -0.000105873
-0.000365514 0.000106721 0.000110911 -0.000105819
1.73959e-06 -3.48789e-06 7.4927e-07 -0.000108049
0.000369013 -0.000113646 -0.000109443 -0.000105871
1.6648e-06 -3.53134e-06 7.99949e-07 -0.000108052
1.7023e-06 -3.50956e-06 7.7454e-07 -0.00010805
-0.000363468 0.00010614 0.000110284 -0.000105818
-0.000359377 0.000104976 0.000109029 -0.000105815
0.000363096 -0.000111775 -0.000107709 -0.000105866
0.000367041 -0.000113022 -0.000108865 -0.000105869
-0.000361422 0.000105558 0.000109656 -0.000105816
1.81356e-06 -3.44491e-06 6.99147e-07 -0.000108045
0.000365069 -0.000112398 -0.000108287 -0.000105867
1.73959e-06 -3.48789e-06 7.4927e-07 -0.000108049
1.77668e-06 -3.46634e-06 7.24139e-07 -0.000108047
-0.000359377 0.000104976 0.000109029 -0.000105815
-0.000355287 0.000103812 0.000107775 -0.000105812
0.00035915 -0.000110528 -0.000106553 -0.000105862
0.000363096 -0.000111775 -0.000107709 -0.000105866
-0.000357332 0.000104394 0.000108402 -0.000105813
1.88672e-06 -3.4024e-06 6.49579e-07 -0.000108042
0.000361123 -0.000111151 -0.000107131 -0.000105864
1.81356e-06 -3.44491e-06 6.99147e-07 -0.000108045
1.85024e-06 -3.42359e-06 6.74293e-07 -0.000108043
-0.000355287 0.000103812 0.000107775 -0.000105812
-0.000351198 0.000102648 0.000106521 -0.000105809
0.000355204 -0.000109281 -0.000105395 -0.000105858
0.00035915 -0.000110528 -0.000106553 -0.000105862
-0.000353242 0.00010323 0.000107148 -0.00010581
1.95905e-06 -3.36037e-06 6.00566e-07 -0.000108038
0.000357177 -0.000109904 -0.000105974 -0.00010586
1.88672e-06 -3.4024e-06 6.49579e-07 -0.000108042
1.92298e-06 -3.38133e-06 6.25003e-07 -0.00010804
-0.000351198 0.000102648 0.000106521 -0.000105809
-0.000347109 0.000101483 0.000105269 -0.000105805
0.000351257 -0.000108035 -0.000104238 -0.000105855
0.000355204 -0.000109281 -0.000105395 -0.000105858
-0.000349153 0.000102065 0.000105895 -0.000105807
2.03056e-06 -3.31882e-06 5.5211e-07 -0.000108035
0.00035323 -0.000108658 -0.000104817 -0.000105857
1.95905e-06 -3.36037e-06 6.00566e-07 -0.000108038
1.99491e-06 -3.33954e-06 5.76269e-07 -0.000108037
-0.000347109 0.000101483 0.000105269 -0.000105805
-0.000343022 0.000100318 0.000104016 -0.000105802
0.000347309 -0.00010679 -0.00010308 -0.000105851
0.000351257 -0.000108035 -0.000104238 -0.000105855
-0.000345066 0.0001009 0.000104642 -0.000105804
2.10126e-06 -3.27774e-06 5.04208e-07 -0.000108032
0.000349283 -0.000107413 -0.000103659 -0.000105853
2.03056e-06 -3.31882e-06 5.5211e-07 -0.000108035
2.06601e-06 -3.29822e-06 5.2809e-07 -0.000108033
-0.000343022 0.000100318 0.000104016 -0.000105802
-0.000338936 9.9152e-05 0.000102765 -0.0001058
0.00034336 -0.000105545 -0.000101921 -0.000105848
0.000347309 -0.00010679 -0.00010308 -0.000105851
-0.000340979 9.97348e-05 0.00010339 -0.000105801
2.17113e-06 -3.23714e-06 4.56863e-07 -0.000108028
0.000345335 -0.000106167 -0.0001025 -0.000105849
2.10126e-06 -3.27774e-06 5.04208e-07 -0.000108032
2.13629e-06 -3.25738e-06 4.80466e-07 -0.00010803
-0.000338936 9.9152e-05 0.000102765 -0.0001058
-0.00033485 9.79859e-05 0.000101513 -0.000105797
0.000339411 -0.000104301 -0.000100762 -0.000105844
0.00034336 -0.000105545 -0.000101921 -0.000105848
-0.000336893 9.8569e-05 0.000102139 -0.000105798
2.24018e-06 -3.19702e-06 4.10072e-07 -0.000108025
0.000341386 -0.000104923 -0.000101341 -0.000105846
2.17113e-06 -3.23714e-06 4.56863e-07 -0.000108028
2.20576e-06 -3.21702e-06 4.33398e-07 -0.000108027
-0.00033485 9.79859e-05 0.000101513 -0.000105797
-0.000330766 9.68194e-05 0.000100263 -0.000105794
0.000335461 -0.000103057 -9.9602e-05 -0.000105841
0.000339411 -0.000104301 -0.000100762 -0.000105844
-0.000332808 9.74027e-05 0.000100888 -0.000105795
2.30842e-06 -3.15737e-06 3.63837e-07 -0.000108022
0.000337436 -0.000103679 -0.000100182 -0.000105842
2.24018e-06 -3.19702e-06 4.10072e-07 -0.000108025
2.2744e-06 -3.17713e-06 3.86886e-07 -0.000108023
-0.000330766 9.68194e-05 0.000100263 -0.000105794
-0.000326683 9.56524e-05 9.90129e-05 -0.000105791
0.000331511 -0.000101813 -9.84418e-05 -0.000105837
0.000335461 -0.000103057 -9.9602e-05 -0.000105841
-0.000328724 9.6236e-05 9.96378e-05 -0.000105792
2.37583e-06 -3.1182e-06 3.18158e-07 -0.000108018
0.000333486 -0.000102435 -9.9022e-05 -0.000105839
2.30842e-06 -3.15737e-06 3.63837e-07 -0.000108022
2.34223e-06 -3.13772e-06 3.40928e-07 -0.00010802
-0.000326683 9.56524e-05 9.90129e-05 -0.000105791
-0.0003226 9.44851e-05 9.77635e-05 -0.000105788
0.00032756 -0.00010057 -9.72811e-05 -0.000105834
0.000331511 -0.000101813 -9.84418e-05 -0.000105837
-0.000324641 9.50688e-05 9.83881e-05 -0.000105789
2.44243e-06 -3.0795e-06 2.73033e-07 -0.000108015
0.000329535 -0.000101192 -9.78615e-05 -0.000105835
2.37583e-06 -3.1182e-06 3.18158e-07 -0.000108018
2.40923e-06 -3.09879e-06 2.95526e-07 -0.000108017
-0.0003226 9.44851e-05 9.77635e-05 -0.000105788
-0.000318518 9.33173e-05 9.65147e-05 -0.000105785
0.000323608 -9.93279e-05 -9.61199e-05 -0.00010583
0.00032756 -0.00010057 -9.72811e-05 -0.000105834
-0.000320559 9.39012e-05 9.7139e-05 -0.000105786
2.5082e-06 -3.04128e-06 2.28464e-07 -0.000108012
0.000325584 -9.99491e-05 -9.67006e-05 -0.000105832
2.44243e-06 -3.0795e-06 2.73033e-07 -0.000108015
2.47541e-06 -3.06033e-06 2.50679e-07 -0.000108014
-0.000318518 9.33173e-05 9.65147e-05 -0.000105785
-0.000314438 9.21491e-05 9.52665e-05 -0.000105782
0.000319655 -9.8086e-05 -9.49582e-05 -0.000105827
0.000323608 -9.93279e-05 -9.61199e-05 -0.00010583
-0.000316478 9.27332e-05 9.58905e-05 -0.000105784
2.57316e-06 -3.00354e-06 1.8445e-07 -0.000108009
0.000321631 -9.87069e-05 -9.55391e-05 -0.000105829
2.5082e-06 -3.04128e-06 2.28464e-07 -0.000108012
2.54078e-06 -3.02235e-06 2.06387e-07 -0.00010801
-0.000314438 9.21491e-05 9.52665e-05 -0.000105782
-0.000310358 9.09804e-05 9.40189e-05 -0.000105779
0.000315702 -9.68446e-05 -9.37959e-05 -0.000105823
0.000319655 -9.8086e-05 -9.49582e-05 -0.000105827
-0.000312398 9.15648e-05 9.46426e-05 -0.000105781
2.63729e-06 -2.96627e-06 1.40991e-07 -0.000108006
0.000317678 -9.74652e-05 -9.43771e-05 -0.000105825
2.57316e-06 -3.00354e-06 1.8445e-07 -0.000108009
2.60533e-06 -2.98485e-06 1.62651e-07 -0.000108007
-0.000310358 9.09804e-05 9.40189e-05 -0.000105779
-0.000306279 8.98113e-05 9.27718e-05 -0.000105777
0.000311748 -9.56037e-05 -9.26332e-05 -0.00010582
0.000315702 -9.68446e-05 -9.37959e-05 -0.000105823
-0.000308318 9.03959e-05 9.33953e-05 -0.000105778
2.70061e-06 -2.92948e-06 9.80867e-08 -0.000108002
0.000313725 -9.62241e-05 -9.32146e-05 -0.000105822
2.63729e-06 -2.96627e-06 1.40991e-07 -0.000108006
2.66905e-06 -2.94782e-06 1.19469e-07 -0.000108004
-0.000306279 8.98113e-05 9.27718e-05 -0.000105777
-0.000302201 8.86418e-05 9.15253e-05 -0.000105774
0.000307793 -9.43633e-05 -9.14699e-05 -0.000105817
0.000311748 -9.56037e-05 -9.26332e-05 -0.00010582
-0.00030424 8.92266e-05 9.21485e-05 -0.000105775
2.76311e-06 -2.89316e-06 5.57377e-08 -0.000107999
0.000309771 -9.49834e-05 -9.20516e-05 -0.000105818
2.70061e-06 -2.92948e-06 9.80867e-08 -0.000108002
2.73196e-06 -2.91126e-06 7.6843e-08 -0.000108001
-0.000302201 8.86418e-05 9.15253e-05 -0.000105774
-0.000298124 8.74719e-05 9.02794e-05 -0.000105771
0.000303838 -9.31234e-05 -9.03062e-05 -0.000105813
0.000307793 -9.43633e-05 -9.14699e-05 -0.000105817
-0.000300162 8.80569e-05 9.09023e-05 -0.000105772
2.82479e-06 -2.85732e-06 1.39437e-08 -0.000107996
0.000305815 -9.37432e-05 -9.08881e-05 -0.000105815
2.76311e-06 -2.89316e-06 5.57377e-08 -0.000107999
2.79405e-06 -2.87518e-06 3.47715e-08 -0.000107998
-0.000298124 8.74719e-05 9.02794e-05 -0.000105771
-0.000294048 8.63015e-05 8.90341e-05 -0.000105768
0.000299882 -9.18839e-05 -8.91419e-05 -0.00010581
0.000303838 -9.31234e-05 -9.03062e-05 -0.000105813
-0.000296086 8.68868e-05 8.96567e-05 -0.00010577
2.88565e-06 -2.82196e-06 -2.72954e-08 -0.000107993
0.00030186 -9.25036e-05 -8.97241e-05 -0.000105812
2.82479e-06 -2.85732e-06 1.39437e-08 -0.000107996
2.85532e-06 -2.83958e-06 -6.74504e-09 -0.000107995
-0.000294048 8.63015e-05 8.90341e-05 -0.000105768
-0.000289973 8.51307e-05 8.77894e-05 -0.000105766
0.000295925 -9.0645e-05 -8.79771e-05 -0.000105807
0.000299882 -9.18839e-05 -8.91419e-05 -0.00010581
-0.00029201 8.57162e-05 8.84117e-05 -0.000105767
2.94569e-06 -2.78707e-06 -6.79796e-08 -0.00010799
0.000297903 -9.12644e-05 -8.85595e-05 -0.000105809
2.88565e-06 -2.82196e-06 -2.72954e-08 -0.000107993
2.91577e-06 -2.80445e-06 -4.77067e-08 -0.000107992
-0.000289973 8.51307e-05 8.77894e-05 -0.000105766
-0.000285898 8.39595e-05 8.65452e-05 -0.000105763
0.000291967 -8.94066e-05 -8.68118e-05 -0.000105804
0.000295925 -9.0645e-05 -8.79771e-05 -0.000105807
-0.000287935 8.45452e-05 8.71672e-05 -0.000105764
3.00491e-06 -2.75266e-06 -1.08109e-07 -0.000107987
0.000293946 -9.00258e-05 -8.73945e-05 -0.000105805
2.94569e-06 -2.78707e-06 -6.79796e-08 -0.00010799
2.9754e-06 -2.7698e-06 -8.81135e-08 -0.000107989
-0.000285898 8.39595e-05 8.65452e-05 -0.000105763
-0.000281825 8.27879e-05 8.53016e-05 -0.00010576
0.000288009 -8.81687e-05 -8.5646e-05 -0.0001058
0.000291967 -8.94066e-05 -8.68118e-05 -0.000105804
-0.000283862 8.33737e-05 8.59234e-05 -0.000105762
3.06331e-06 -2.71872e-06 -1.47684e-07 -0.000107984
0.000289988 -8.87876e-05 -8.62289e-05 -0.000105802
3.00491e-06 -2.75266e-06 -1.08109e-07 -0.000107987
3.03421e-06 -2.73563e-06 -1.27965e-07 -0.000107986
-0.000281825 8.27879e-05 8.53016e-05 -0.00010576
-0.000277753 8.16158e-05 8.40586e-05 -0.000105758
0.00028405 -8.69313e-05 -8.44796e-05 -0.000105797
0.000288009 -8.81687e-05 -8.5646e-05 -0.0001058
-0.000279789 8.22019e-05 8.46801e-05 -0.000105759
3.1209e-06 -2.68526e-06 -1.86704e-07 -0.000107981
0.00028603 -8.75499e-05 -8.50629e-05 -0.000105799
3.06331e-06 -2.71872e-06 -1.47684e-07 -0.000107984
3.09221e-06 -2.70193e-06 -1.67263e-07 -0.000107983
-0.000277753 8.16158e-05 8.40586e-05 -0.000105758
-0.000273681 8.04433e-05 8.28162e-05 -0.000105755
0.000280091 -8.56944e-05 -8.33128e-05 -0.000105794
0.00028405 -8.69313e-05 -8.44796e-05 -0.000105797
-0.000275717 8.10296e-05 8.34373e-05 -0.000105756
3.17767e-06 -2.65227e-06 -2.25169e-07 -0.000107978
0.000282071 -8.63128e-05 -8.38963e-05 -0.000105796
3.1209e-06 -2.68526e-06 -1.86704e-07 -0.000107981
3.14938e-06 -2.66871e-06 -2.06005e-07 -0.00010798
-0.000273681 8.04433e-05 8.28162e-05 -0.000105755
-0.00026961 7.92703e-05 8.15744e-05 -0.000105753
0.000276131 -8.44579e-05 -8.21454e-05 -0.000105791
0.000280091 -8.56944e-05 -8.33128e-05 -0.000105794
-0.000271646 7.98568e-05 8.21952e-05 -0.000105754
3.23361e-06 -2.61976e-06 -2.63079e-07 -0.000107975
0.000278111 -8.50761e-05 -8.27292e-05 -0.000105793
3.17767e-06 -2.65227e-06 -2.25169e-07 -0.000107978
3.20574e-06 -2.63596e-06 -2.44193e-07 -0.000107977
-0.00026961 7.92703e-05 8.15744e-05 -0.000105753
-0.000265541 7.80969e-05 8.03331e-05 -0.00010575
0.00027217 -8.3222e-05 -8.09776e-05 -0.000105788
0.000276131 -8.44579e-05 -8.21454e-05 -0.000105791
-0.000267576 7.86837e-05 8.09536e-05 -0.000105751
3.28874e-06 -2.58773e-06 -3.00435e-07 -0.000107973
0.00027415 -8.38399e-05 -8.15616e-05 -0.00010579
3.23361e-06 -2.61976e-06 -2.63079e-07 -0.000107975
3.26128e-06 -2.60368e-06 -2.81827e-07 -0.000107974
-0.000265541 7.80969e-05 8.03331e-05 -0.00010575
-0.000261472 7.69231e-05 7.90924e-05 -0.000105748
0.000268208 -8.19866e-05 -7.98092e-05 -0.000105785
0.00027217 -8.3222e-05 -8.09776e-05 -0.000105788
-0.000263506 7.75101e-05 7.97127e-05 -0.000105749
3.34305e-06 -2.55617e-06 -3.37237e-07 -0.00010797
0.000270189 -8.26042e-05 -8.03935e-05 -0.000105786
3.28874e-06 -2.58773e-06 -3.00435e-07 -0.000107973
3.316e-06 -2.57189e-06 -3.18905e-07 -0.000107971
-0.000261472 7.69231e-05 7.90924e-05 -0.000105748
-0.000257404 7.57489e-05 7.78523e-05 -0.000105745
0.000264246 -8.07517e-05 -7.86403e-05 -0.000105782
0.000268208 -8.19866e-05 -7.98092e-05 -0.000105785
-0.000259438 7.63361e-05 7.84723e-05 -0.000105746
3.39655e-06 -2.52508e-06 -3.73484e-07 -0.000107967
0.000266227 -8.13691e-05 -7.92248e-05 -0.000105783
3.34305e-06 -2.55617e-06 -3.37237e-07 -0.00010797
3.3699e-06 -2.54057e-06 -3.5543e-07 -0.000107968
-0.000257404 7.57489e-05 7.78523e-05 -0.000105745
-0.000253337 7.45742e-05 7.66127e-05 -0.000105743
0.000260283 -7.95172e-05 -7.74709e-05 -0.000105779
0.000264246 -8.07517e-05 -7.86403e-05 -0.000105782
-0.000255371 7.51616e-05 7.72324e-05 -0.000105744
3.44922e-06 -2.49447e-06 -4.09176e-07 -0.000107964
0.000262264 -8.01344e-05 -7.80557e-05 -0.00010578
3.39655e-06 -2.52508e-06 -3.73484e-07 -0.000107967
3.42298e-06 -2.50972e-06 -3.91399e-07 -0.000107966
-0.000253337 7.45742e-05 7.66127e-05 -0.000105743
-0.000249271 7.33991e-05 7.53738e-05 -0.00010574
0.000256319 -7.82833e-05 -7.6301e-05 -0.000105776
0.000260283 -7.95172e-05 -7.74709e-05 -0.000105779
-0.000251304 7.39867e-05 7.59932e-05 -0.000105742
3.50107e-06 -2.46434e-06 -4.44315e-07 -0.000107961
0.000258301 -7.89002e-05 -7.6886e-05 -0.000105777
3.44922e-06 -2.49447e-06 -4.09176e-07 -0.000107964
3.47525e-06 -2.47935e-06 -4.26815e-07 -0.000107963
-0.000249271 7.33991e-05 7.53738e-05 -0.00010574
-0.000245206 7.22236e-05 7.41354e-05 -0.000105738
0.000252354 -7.70498e-05 -7.51306e-05 -0.000105773
0.000256319 -7.82833e-05 -7.6301e-05 -0.000105776
-0.000247239 7.28114e-05 7.47545e-05 -0.000105739
3.55211e-06 -2.43468e-06 -4.78898e-07 -0.000107959
0.000254337 -7.76665e-05 -7.57158e-05 -0.000105775
3.50107e-06 -2.46434e-06 -4.44315e-07 -0.000107961
3.5267e-06 -2.44945e-06 -4.61676e-07 -0.00010796
-0.000245206 7.22236e-05 7.41354e-05 -0.000105738
-0.000241142 7.10476e-05 7.28975e-05 -0.000105736
0.000248389 -7.58169e-05 -7.39596e-05 -0.00010577
0.000252354 -7.70498e-05 -7.51306e-05 -0.000105773
-0.000243174 7.16356e-05 7.35164e-05 -0.000105737
3.60233e-06 -2.4055e-06 -5.12928e-07 -0.000107956
0.000250372 -7.64333e-05 -7.45451e-05 -0.000105772
3.55211e-06 -2.43468e-06 -4.78898e-07 -0.000107959
3.57732e-06 -2.42003e-06 -4.95982e-07 -0.000107957
-0.000241142 7.10476e-05 7.28975e-05 -0.000105736
-0.000237079 6.98712e-05 7.16603e-05 -0.000105733
0.000244423 -7.45844e-05 -7.27881e-05 -0.000105767
0.000248389 -7.58169e-05 -7.39596e-05 -0.00010577
-0.00023911 7.04594e-05 7.22788e-05 -0.000105735
3.65173e-06 -2.37679e-06 -5.46403e-07 -0.000107953
0.000246406 -7.52006e-05 -7.33739e-05 -0.000105769
3.60233e-06 -2.4055e-06 -5.12928e-07 -0.000107956
3.62713e-06 -2.39109e-06 -5.29735e-07 -0.000107955
-0.000237079 6.98712e-05 7.16603e-05 -0.000105733
-0.000233016 6.86943e-05 7.04236e-05 -0.000105731
0.000240457 -7.33525e-05 -7.16162e-05 -0.000105764
0.000244423 -7.45844e-05 -7.27881e-05 -0.000105767
-0.000235047 6.92828e-05 7.10419e-05 -0.000105732
3.70032e-06 -2.34856e-06 -5.79324e-07 -0.000107951
0.00024244 -7.39684e-05 -7.22022e-05 -0.000105766
3.65173e-06 -2.37679e-06 -5.46403e-07 -0.000107953
3.67613e-06 -2.36262e-06 -5.62933e-07 -0.000107952
-0.000233016 6.86943e-05 7.04236e-05 -0.000105731
-0.000228955 6.75171e-05 6.91875e-05 -0.000105729
0.00023649 -7.2121e-05 -7.04437e-05 -0.000105762
0.000240457 -7.33525e-05 -7.16162e-05 -0.000105764
-0.000230985 6.81058e-05 6.98055e-05 -0.00010573
3.74808e-06 -2.3208e-06 -6.11691e-07 -0.000107948
0.000238473 -7.27367e-05 -7.103e-05 -0.000105763
3.70032e-06 -2.34856e-06 -5.79324e-07 -0.000107951
3.7243e-06 -2.33462e-06 -5.95577e-07 -0.00010795
-0.000228955 6.75171e-05 6.91875e-05 -0.000105729
-0.000224894 6.63394e-05 6.7952e-05 -0.000105727
0.000232522 -7.089e-05 -6.92706e-05 -0.000105759
0.00023649 -7.2121e-05 -7.04437e-05 -0.000105762
-0.000226924 6.69283e-05 6.85697e-05 -0.000105728
3.79503e-06 -2.29352e-06 -6.43504e-07 -0.000107946
0.000234506 -7.15054e-05 -6.98572e-05 -0.00010576
3.74808e-06 -2.3208e-06 -6.11691e-07 -0.000107948
3.77166e-06 -2.3071e-06 -6.27666e-07 -0.000107947
-0.000224894 6.63394e-05 6.7952e-05 -0.000105727
-0.000220834 6.51612e-05 6.6717e-05 -0.000105725
0.000228553 -6.96595e-05 -6.80971e-05 -0.000105756
0.000232522 -7.089e-05 -6.92706e-05 -0.000105759
-0.000222864 6.57503e-05 6.73345e-05 -0.000105726
3.84116e-06 -2.26672e-06 -6.74762e-07 -0.000107943
0.000230537 -7.02747e-05 -6.86839e-05 -0.000105758
3.79503e-06 -2.29352e-06 -6.43504e-07 -0.000107946
3.8182e-06 -2.28006e-06 -6.59202e-07 -0.000107945
-0.000220834 6.51612e-05 6.6717e-05 -0.000105725
-0.000216776 6.39826e-05 6.54827e-05 -0.000105722
0.000224583 -6.84295e-05 -6.69231e-05 -0.000105754
0.000228553 -6.96595e-05 -6.80971e-05 -0.000105756
-0.000218805 6.4572e-05 6.60998e-05 -0.000105724
3.88647e-06 -2.24038e-06 -7.05467e-07 -0.000107941
0.000226568 -6.90445e-05 -6.75102e-05 -0.000105755
3.84116e-06 -2.26672e-06 -6.74762e-07 -0.000107943
3.86392e-06 -2.25349e-06 -6.90183e-07 -0.000107942
-0.000216776 6.39826e-05 6.54827e-05 -0.000105722
-0.000212718 6.28036e-05 6.42489e-05 -0.00010572
0.000220613 -6.72e-05 -6.57485e-05 -0.000105751
0.000224583 -6.84295e-05 -6.69231e-05 -0.000105754
-0.000214746 6.33932e-05 6.48657e-05 -0.000105721
3.93097e-06 -2.21453e-06 -7.35617e-07 -0.000107938
0.000222598 -6.78147e-05 -6.63359e-05 -0.000105752
3.88647e-06 -2.24038e-06 -7.05467e-07 -0.000107941
3.90882e-06 -2.2274e-06 -7.20611e-07 -0.00010794
-0.000212718 6.28036e-05 6.42489e-05 -0.00010572
-0.000208661 6.16242e-05 6.30156e-05 -0.000105718
0.000216642 -6.5971e-05 -6.45734e-05 -0.000105748
0.000220613 -6.72e-05 -6.57485e-05 -0.000105751
-0.000210689 6.22139e-05 6.36322e-05 -0.000105719
3.97465e-06 -2.18915e-06 -7.65214e-07 -0.000107936
0.000218628 -6.65855e-05 -6.5161e-05 -0.00010575
3.93097e-06 -2.21453e-06 -7.35617e-07 -0.000107938
3.95291e-06 -2.20178e-06 -7.50484e-07 -0.000107937
-0.000208661 6.16242e-05 6.30156e-05 -0.000105718
-0.000204604 6.04443e-05 6.17829e-05 -0.000105716
0.000212671 -6.47425e-05 -6.33978e-05 -0.000105746
0.000216642 -6.5971e-05 -6.45734e-05 -0.000105748
-0.000206632 6.10343e-05 6.23992e-05 -0.000105717
4.0175e-06 -2.16424e-06 -7.94256e-07 -0.000107934
0.000214657 -6.53567e-05 -6.39857e-05 -0.000105747
3.97465e-06 -2.18915e-06 -7.65214e-07 -0.000107936
3.99618e-06 -2.17663e-06 -7.79804e-07 -0.000107935
-0.000204604 6.04443e-05 6.17829e-05 -0.000105716
-0.000200549 5.92639e-05 6.05508e-05 -0.000105714
0.000208698 -6.35145e-05 -6.22217e-05 -0.000105743
0.000212671 -6.47425e-05 -6.33978e-05 -0.000105746
-0.000202577 5.98542e-05 6.11668e-05 -0.000105715
4.05955e-06 -2.13981e-06 -8.22745e-07 -0.000107931
0.000210685 -6.41284e-05 -6.28098e-05 -0.000105744
4.0175e-06 -2.16424e-06 -7.94256e-07 -0.000107934
4.03863e-06 -2.15196e-06 -8.0857e-07 -0.000107933
-0.000200549 5.92639e-05 6.05508e-05 -0.000105714
-0.000196495 5.80832e-05 5.93193e-05 -0.000105712
0.000204725 -6.22869e-05 -6.10451e-05 -0.000105741
0.000208698 -6.35145e-05 -6.22217e-05 -0.000105743
-0.000198522 5.86736e-05 5.9935e-05 -0.000105713
4.10077e-06 -2.11585e-06 -8.5068e-07 -0.000107929
0.000206712 -6.29007e-05 -6.16335e-05 -0.000105742
4.05955e-06 -2.13981e-06 -8.22745e-07 -0.000107931
4.08026e-06 -2.12777e-06 -8.36781e-07 -0.00010793
-0.000196495 5.80832e-05 5.93193e-05 -0.000105712
-0.000192441 5.6902e-05 5.80884e-05 -0.000105711
0.000200752 -6.10599e-05 -5.98679e-05 -0.000105738
0.000204725 -6.22869e-05 -6.10451e-05 -0.000105741
-0.000194468 5.74926e-05 5.87038e-05 -0.000105711
4.14118e-06 -2.09237e-06 -8.78061e-07 -0.000107927
0.000202739 -6.16734e-05 -6.04566e-05 -0.000105739
4.10077e-06 -2.11585e-06 -8.5068e-07 -0.000107929
4.12108e-06 -2.10405e-06 -8.64439e-07 -0.000107928
-0.000192441 5.6902e-05 5.80884e-05 -0.000105711
-0.000188389 5.57203e-05 5.6858e-05 -0.000105709
0.000196777 -5.98333e-05 -5.86902e-05 -0.000105736
0.000200752 -6.10599e-05 -5.98679e-05 -0.000105738
-0.000190415 5.63112e-05 5.74731e-05 -0.00010571
4.18077e-06 -2.06936e-06 -9.04888e-07 -0.000107925
0.000198765 -6.04466e-05 -5.92791e-05 -0.000105737
4.14118e-06 -2.09237e-06 -8.78061e-07 -0.000107927
4.16108e-06 -2.08081e-06 -8.91544e-07 -0.000107926
-0.000188389 5.57203e-05 5.6858e-05 -0.000105709
-0.000184337 5.45383e-05 5.56281e-05 -0.000105707
0.000192802 -5.86073e-05 -5.75121e-05 -0.000105733
0.000196777 -5.98333e-05 -5.86902e-05 -0.000105736
-0.000186363 5.51294e-05 5.6243e-05 -0.000105708
4.21954e-06 -2.04683e-06 -9.31162e-07 -0.000107923
0.00019479 -5.92202e-05 -5.81012e-05 -0.000105735
4.18077e-06 -2.06936e-06 -9.04888e-07 -0.000107925
4.20026e-06 -2.05804e-06 -9.18094e-07 -0.000107924
-0.000184337 5.45383e-05 5.56281e-05 -0.000105707
-0.000180286 5.33557e-05 5.43989e-05 -0.000105705
0.000188826 -5.73817e-05 -5.63333e-05 -0.000105731
0.000192802 -5.86073e-05 -5.75121e-05 -0.000105733
-0.000182312 5.39471e-05 5.50134e-05 -0.000105706
4.2575e-06 -2.02477e-06 -9.56881e-07 -0.000107921
0.000190814 -5.79944e-05 -5.69228e-05 -0.000105732
4.21954e-06 -2.04683e-06 -9.31162e-07 -0.000107923
4.23862e-06 -2.03574e-06 -9.44091e-07 -0.000107922
-0.000180286 5.33557e-05 5.43989e-05 -0.000105705
-0.000176237 5.21728e-05 5.31702e-05 -0.000105703
0.000184849 -5.61566e-05 -5.51541e-05 -0.000105729
0.000188826 -5.73817e-05 -5.63333e-05 -0.000105731
-0.000178261 5.27643e-05 5.37845e-05 -0.000105704
4.29464e-06 -2.00319e-06 -9.82047e-07 -0.000107919
0.000186838 -5.67691e-05 -5.57438e-05 -0.00010573
4.2575e-06 -2.02477e-06 -9.56881e-07 -0.000107921
4.27617e-06 -2.01392e-06 -9.69533e-07 -0.00010792
-0.000176237 5.21728e-05 5.31702e-05 -0.000105703
-0.000172188 5.09894e-05 5.19421e-05 -0.000105702
0.000180872 -5.4932e-05 -5.39743e-05 -0.000105727
0.000184849 -5.61566e-05 -5.51541e-05 -0.000105729
-0.000174212 5.15811e-05 5.25561e-05 -0.000105703
4.33096e-06 -1.98208e-06 -1.00666e-06 -0.000107916
0.000182861 -5.55442e-05 -5.45643e-05 -0.000105728
4.29464e-06 -2.00319e-06 -9.82047e-07 -0.000107919
4.3129e-06 -1.99258e-06 -9.94423e-07 -0.000107917
-0.000172188 5.09894e-05 5.19421e-05 -0.000105702
-0.000168139 4.98055e-05 5.07145e-05 -0.0001057
0.000176894 -5.37078e-05 -5.27941e-05 -0.000105724
0.000180872 -5.4932e-05 -5.39743e-05 -0.000105727
-0.000170163 5.03975e-05 5.13282e-05 -0.000105701
4.36646e-06 -1.96145e-06 -1.03072e-06 -0.000107915
0.000178883 -5.43198e-05 -5.33843e-05 -0.000105725
4.33096e-06 -1.98208e-06 -1.00666e-06 -0.000107916
4.34881e-06 -1.97171e-06 -1.01876e-06 -0.000107915
-0.000168139 4.98055e-05 5.07145e-05 -0.0001057
-0.000164092 4.86213e-05 4.94875e-05 -0.000105698
0.000172915 -5.24842e-05 -5.16133e-05 -0.000105722
0.000176894 -5.37078e-05 -5.27941e-05 -0.000105724
-0.000166116 4.92135e-05 5.01009e-05 -0.000105699
4.40115e-06 -1.94129e-06 -1.05422e-06 -0.000107913
0.000174905 -5.3096e-05 -5.22037e-05 -0.000105723
4.36646e-06 -1.96145e-06 -1.03072e-06 -0.000107915
4.38391e-06 -1.95131e-06 -1.04254e-06 -0.000107914
-0.000164092 4.86213e-05 4.94875e-05 -0.000105698
-0.000160046 4.74365e-05 4.82611e-05 -0.000105697
0.000168936 -5.1261e-05 -5.04319e-05 -0.00010572
0.000172915 -5.24842e-05 -5.16133e-05 -0.000105722
-0.000162069 4.8029e-05 4.88742e-05 -0.000105698
4.43502e-06 -1.92161e-06 -1.07718e-06 -0.000107911
0.000170925 -5.18726e-05 -5.10227e-05 -0.000105721
4.40115e-06 -1.94129e-06 -1.05422e-06 -0.000107913
4.41818e-06 -1.93139e-06 -1.06577e-06 -0.000107912
-0.000160046 4.74365e-05 4.82611e-05 -0.000105697
-0.000156 4.62514e-05 4.70352e-05 -0.000105695
0.000164955 -5.00384e-05 -4.92501e-05 -0.000105718
0.000168936 -5.1261e-05 -5.04319e-05 -0.00010572
-0.000158023 4.6844e-05 4.76481e-05 -0.000105696
4.46807e-06 -1.9024e-06 -1.09957e-06 -0.000107909
0.000166945 -5.06496e-05 -4.98411e-05 -0.000105719
4.43502e-06 -1.92161e-06 -1.07718e-06 -0.000107911
4.45165e-06 -1.91194e-06 -1.08844e-06 -0.00010791
-0.000156 4.62514e-05 4.70352e-05 -0.000105695
-0.000151956 4.50658e-05 4.58099e-05 -0.000105694
0.000160974 -4.88162e-05 -4.80677e-05 -0.000105716
0.000164955 -5.00384e-05 -4.92501e-05 -0.000105718
-0.000153978 4.56586e-05 4.64225e-05 -0.000105695
4.50031e-06 -1.88366e-06 -1.12142e-06 -0.000107907
0.000162965 -4.94272e-05 -4.8659e-05 -0.000105717
4.46807e-06 -1.9024e-06 -1.09957e-06 -0.000107909
4.48429e-06 -1.89297e-06 -1.11057e-06 -0.000107908
-0.000151956 4.50658e-05 4.58099e-05 -0.000105694
-0.000147912 4.38797e-05 4.45852e-05 -0.000105692
0.000156992 -4.75945e-05 -4.68848e-05 -0.000105714
0.000160974 -4.88162e-05 -4.80677e-05 -0.000105716
-0.000149934 4.44728e-05 4.51975e-05 -0.000105693
4.53172e-06 -1.8654e-06 -1.14271e-06 -0.000107905
0.000158983 -4.82053e-05 -4.74763e-05 -0.000105715
4.50031e-06 -1.88366e-06 -1.12142e-06 -0.000107907
4.51612e-06 -1.87447e-06 -1.13213e-06 -0.000107906
-0.000147912 4.38797e-05 4.45852e-05 -0.000105692
-0.000143869 4.26932e-05 4.3361e-05 -0.000105691
0.00015301 -4.63733e-05 -4.57014e-05 -0.000105712
0.000156992 -4.75945e-05 -4.68848e-05 -0.000105714
-0.00014589 4.32865e-05 4.39731e-05 -0.000105692
4.56232e-06 -1.84762e-06 -1.16345e-06 -0.000107903
0.000155001 -4.69838e-05 -4.62932e-05 -0.000105713
4.53172e-06 -1.8654e-06 -1.14271e-06 -0.000107905
4.54713e-06 -1.85645e-06 -1.15315e-06 -0.000107904
-0.000143869 4.26932e-05 4.3361e-05 -0.000105691
-0.000139827 4.15063e-05 4.21374e-05 -0.00010569
0.000149027 -4.51525e-05 -4.45175e-05 -0.00010571
0.00015301 -4.63733e-05 -4.57014e-05 -0.000105712
-0.000141848 4.20998e-05 4.27492e-05 -0.00010569
4.59211e-06 -1.83031e-06 -1.18363e-06 -0.000107902
0.000151018 -4.57628e-05 -4.51095e-05 -0.000105711
4.56232e-06 -1.84762e-06 -1.16345e-06 -0.000107903
4.57732e-06 -1.8389e-06 -1.17361e-06 -0.000107903
-0.000139827 4.15063e-05 4.21374e-05 -0.00010569
-0.000135786 4.03189e-05 4.09144e-05 -0.000105688
0.000145043 -4.39323e-05 -4.3333e-05 -0.000105708
0.000149027 -4.51525e-05 -4.45175e-05 -0.00010571
-0.000137806 4.09127e-05 4.15258e-05 -0.000105689
4.62108e-06 -1.81348e-06 -1.20326e-06 -0.0001079
0.000147035 -4.45423e-05 -4.39253e-05 -0.000105709
4.59211e-06 -1.83031e-06 -1.18363e-06 -0.000107902
4.60669e-06 -1.82183e-06 -1.19351e-06 -0.000107901
-0.000135786 4.03189e-05 4.09144e-05 -0.000105688
-0.000131746 3.91311e-05 3.96919e-05 -0.000105687
0.000141058 -4.27125e-05 -4.2148e-05 -0.000105706
0.000145043 -4.39323e-05 -4.3333e-05 -0.000105708
-0.000133766 3.9725e-05 4.03031e-05 -0.000105688
4.64923e-06 -1.79713e-06 -1.22233e-06 -0.000107899
0.00014305 -4.33223e-05 -4.27406e-05 -0.000105707
4.62108e-06 -1.81348e-06 -1.20326e-06 -0.0001079
4.63526e-06 -1.80524e-06 -1.21286e-06 -0.000107899
-0.000131746 3.91311e-05 3.96919e-05 -0.000105687
-0.000127706 3.79428e-05 3.847e-05 -0.000105686
0.000137072 -4.14932e-05 -4.09625e-05 -0.000105704
0.000141058 -4.27125e-05 -4.2148e-05 -0.000105706
-0.000129726 3.8537e-05 3.90809e-05 -0.000105686
4.67658e-06 -1.78126e-06 -1.24085e-06 -0.000107897
0.000139065 -4.21028e-05 -4.15553e-05 -0.000105705
4.64923e-06 -1.79713e-06 -1.22233e-06 -0.000107899
4.66301e-06 -1.78913e-06 -1.23166e-06 -0.000107898
-0.000127706 3.79428e-05 3.847e-05 -0.000105686
-0.000123668 3.6754e-05 3.72486e-05 -0.000105684
0.000133086 -4.02745e-05 -3.97764e-05 -0.000105703
0.000137072 -4.14932e-05 -4.09625e-05 -0.000105704
-0.000125687 3.73485e-05 3.78592e-05 -0.000105685
4.70311e-06 -1.76587e-06 -1.25882e-06 -0.000107895
0.000135079 -4.08838e-05 -4.03695e-05 -0.000105703
4.67658e-06 -1.78126e-06 -1.24085e-06 -0.000107897
4.68994e-06 -1.7735e-06 -1.2499e-06 -0.000107896
-0.000123668 3.6754e-05 3.72486e-05 -0.000105684
-0.00011963 3.55648e-05 3.60278e-05 -0.000105683
0.000129099 -3.90562e-05 -3.85898e-05 -0.000105701
0.000133086 -4.02745e-05 -3.97764e-05 -0.000105703
-0.000121649 3.61595e-05 3.66382e-05 -0.000105684
4.72884e-06 -1.75098e-06 -1.27623e-06 -0.000107894
0.000131093 -3.96653e-05 -3.91832e-05 -0.000105702
4.70311e-06 -1.76587e-06 -1.25882e-06 -0.000107895
4.71608e-06 -1.75837e-06 -1.26759e-06 -0.000107895
-0.00011963 3.55648e-05 3.60278e-05 -0.000105683
-0.000115593 3.43752e-05 3.48076e-05 -0.000105682
0.000125111 -3.78384e-05 -3.74027e-05 -0.000105699
0.000129099 -3.90562e-05 -3.85898e-05 -0.000105701
-0.000117611 3.49701e-05 3.54177e-05 -0.000105683
4.75378e-06 -1.73659e-06 -1.29308e-06 -0.000107893
0.000127105 -3.84472e-05 -3.79963e-05 -0.0001057
4.72884e-06 -1.75098e-06 -1.27623e-06 -0.000107894
4.74141e-06 -1.74372e-06 -1.28472e-06 -0.000107893
-0.000115593 3.43752e-05 3.48076e-05 -0.000105682
-0.000111557 3.3185e-05 3.35879e-05 -0.000105681
0.000121123 -3.66211e-05 -3.62151e-05 -0.000105698
0.000125111 -3.78384e-05 -3.74027e-05 -0.000105699
-0.000113575 3.37801e-05 3.41977e-05 -0.000105682
4.77793e-06 -1.72271e-06 -1.30938e-06 -0.000107891
0.000123117 -3.72297e-05 -3.6809e-05 -0.000105698
4.75378e-06 -1.73659e-06 -1.29308e-06 -0.000107893
4.76595e-06 -1.72959e-06 -1.3013e-06 -0.000107892
-0.000111557 3.3185e-05 3.35879e-05 -0.000105681
-0.000107522 3.19943e-05 3.23688e-05 -0.00010568
0.000117134 -3.54044e-05 -3.50269e-05 -0.000105696
0.000121123 -3.66211e-05 -3.62151e-05 -0.000105698
-0.000109539 3.25897e-05 3.29783e-05 -0.000105681
4.80131e-06 -1.70935e-06 -1.32513e-06 -0.00010789
0.000119129 -3.60127e-05 -3.56211e-05 -0.000105697
4.77793e-06 -1.72271e-06 -1.30938e-06 -0.000107891
4.78971e-06 -1.71597e-06 -1.31732e-06 -0.000107891
-0.000107522 3.19943e-05 3.23688e-05 -0.00010568
-0.000103487 3.08032e-05 3.11503e-05 -0.000105679
0.000113144 -3.41882e-05 -3.38382e-05 -0.000105695
0.000117134 -3.54044e-05 -3.50269e-05 -0.000105696
-0.000105504 3.13988e-05 3.17595e-05 -0.000105679
4.82394e-06 -1.69652e-06 -1.34032e-06 -0.000107889
0.000115139 -3.47962e-05 -3.44326e-05 -0.000105695
4.80131e-06 -1.70935e-06 -1.32513e-06 -0.00010789
4.81272e-06 -1.70287e-06 -1.33279e-06 -0.000107889
-0.000103487 3.08032e-05 3.11503e-05 -0.000105679
-9.94535e-05 2.96115e-05 2.99323e-05 -0.000105678
0.000109153 -3.29725e-05 -3.2649e-05 -0.000105693
0.000113144 -3.41882e-05 -3.38382e-05 -0.000105695
-0.00010147 3.02074e-05 3.05412e-05 -0.000105678
4.84583e-06 -1.68424e-06 -1.35497e-06 -0.000107887
0.000111149 -3.35803e-05 -3.32437e-05 -0.000105694
4.82394e-06 -1.69652e-06 -1.34032e-06 -0.000107889
4.83497e-06 -1.69031e-06 -1.34771e-06 -0.000107888
-9.94535e-05 2.96115e-05 2.99323e-05 -0.000105678
-9.54206e-05 2.84194e-05 2.87148e-05 -0.000105677
0.000105162 -3.17574e-05 -3.14593e-05 -0.000105692
0.000109153 -3.29725e-05 -3.2649e-05 -0.000105693
-9.7437e-05 2.90155e-05 2.93235e-05 -0.000105677
4.86702e-06 -1.6725e-06 -1.36908e-06 -0.000107886
0.000107158 -3.23649e-05 -3.20542e-05 -0.000105692
4.84583e-06 -1.68424e-06 -1.35497e-06 -0.000107887
4.85651e-06 -1.6783e-06 -1.36209e-06 -0.000107887
-9.54206e-05 2.84194e-05 2.87148e-05 -0.000105677
-9.13884e-05 2.72267e-05 2.74979e-05 -0.000105676
0.000101171 -3.05428e-05 -3.0269e-05 -0.000105691
0.000105162 -3.17574e-05 -3.14593e-05 -0.000105692
-9.34044e-05 2.78231e-05 2.81063e-05 -0.000105676
4.88753e-06 -1.6613e-06 -1.38267e-06 -0.000107885
0.000103166 -3.11501e-05 -3.08642e-05 -0.000105691
4.86702e-06 -1.6725e-06 -1.36908e-06 -0.000107886
4.87736e-06 -1.66683e-06 -1.37594e-06 -0.000107886
-9.13884e-05 2.72267e-05 2.74979e-05 -0.000105676
-8.73569e-05 2.60335e-05 2.62815e-05 -0.000105675
9.71781e-05 -2.93288e-05 -2.90783e-05 -0.000105689
0.000101171 -3.05428e-05 -3.0269e-05 -0.000105691
-8.93726e-05 2.66302e-05 2.68896e-05 -0.000105675
4.90737e-06 -1.65061e-06 -1.39575e-06 -0.000107884
9.91744e-05 -2.99358e-05 -2.96737e-05 -0.00010569
4.88753e-06 -1.6613e-06 -1.38267e-06 -0.000107885
4.89753e-06 -1.6559e-06 -1.38927e-06 -0.000107884
-8.73569e-05 2.60335e-05 2.62815e-05 -0.000105675
-8.33262e-05 2.484e-05 2.50655e-05 -0.000105674
9.31851e-05 -2.81152e-05 -2.78871e-05 -0.000105688
9.71781e-05 -2.93288e-05 -2.90783e-05 -0.000105689
-8.53415e-05 2.54368e-05 2.56734e-05 -0.000105674
4.92654e-06 -1.64037e-06 -1.40836e-06 -0.000107883
9.51817e-05 -2.8722e-05 -2.84827e-05 -0.000105689
4.90737e-06 -1.65061e-06 -1.39575e-06 -0.000107884
4.91704e-06 -1.64544e-06 -1.40211e-06 -0.000107883
-8.33262e-05 2.484e-05 2.50655e-05 -0.000105674
-7.92963e-05 2.36462e-05 2.385e-05 -0.000105673
8.91916e-05 -2.6902e-05 -2.66955e-05 -0.000105687
9.31851e-05 -2.81152e-05 -2.78871e-05 -0.000105688
-8.13112e-05 2.42431e-05 2.44577e-05 -0.000105673
4.94501e-06 -1.63043e-06 -1.42054e-06 -0.000107881
9.11884e-05 -2.75086e-05 -2.72914e-05 -0.000105687
4.92654e-06 -1.64037e-06 -1.40836e-06 -0.000107883
4.93587e-06 -1.63537e-06 -1.4145e-06 -0.000107882
-7.92963e-05 2.36462e-05 2.385e-05 -0.000105673
-7.52672e-05 2.24523e-05 2.2635e-05 -0.000105672
8.51973e-05 -2.5689e-05 -2.55036e-05 -0.000105685
8.91916e-05 -2.6902e-05 -2.66955e-05 -0.000105687
-7.72816e-05 2.30492e-05 2.32425e-05 -0.000105672
4.96268e-06 -1.62057e-06 -1.43233e-06 -0.00010788
8.71945e-05 -2.62955e-05 -2.60996e-05 -0.000105686
4.94501e-06 -1.63043e-06 -1.42054e-06 -0.000107881
4.95396e-06 -1.62551e-06 -1.42648e-06 -0.000107881
-7.52672e-05 2.24523e-05 2.2635e-05 -0.000105672
-7.12393e-05 2.12588e-05 2.14202e-05 -0.000105671
8.12022e-05 -2.44757e-05 -2.43114e-05 -0.000105684
8.51973e-05 -2.5689e-05 -2.55036e-05 -0.000105685
-7.32531e-05 2.18555e-05 2.20275e-05 -0.000105671
4.97934e-06 -1.6104e-06 -1.44383e-06 -0.000107879
8.31999e-05 -2.50824e-05 -2.49075e-05 -0.000105685
4.96268e-06 -1.62057e-06 -1.43233e-06 -0.00010788
4.97115e-06 -1.61555e-06 -1.43811e-06 -0.000107879
-7.12393e-05 2.12588e-05 2.14202e-05 -0.000105671
-6.72128e-05 2.00661e-05 2.02057e-05 -0.00010567
7.72059e-05 -2.32616e-05 -2.3119e-05 -0.000105682
8.12022e-05 -2.44757e-05 -2.43114e-05 -0.000105684
-6.92259e-05 2.06623e-05 2.08129e-05 -0.00010567
4.9946e-06 -1.59933e-06 -1.45512e-06 -0.000107877
7.92043e-05 -2.38688e-05 -2.37152e-05 -0.000105683
4.97934e-06 -1.6104e-06 -1.44383e-06 -0.000107879
4.98717e-06 -1.60502e-06 -1.44949e-06 -0.000107878
-6.72128e-05 2.00661e-05 2.02057e-05 -0.00010567
-6.31883e-05 1.88749e-05 1.89915e-05 -0.00010567
7.32078e-05 -2.20456e-05 -2.19267e-05 -0.000105679
7.72059e-05 -2.32616e-05 -2.3119e-05 -0.000105682
-6.52003e-05 1.94703e-05 1.95986e-05 -0.00010567
5.00784e-06 -1.58646e-06 -1.4663e-06 -0.000107876
7.52071e-05 -2.26539e-05 -2.25228e-05 -0.00010568
4.9946e-06 -1.59933e-06 -1.45512e-06 -0.000107877
5.00152e-06 -1.59319e-06 -1.46071e-06 -0.000107876
-6.31883e-05 1.88749e-05 1.89915e-05 -0.00010567
-5.91661e-05 1.76857e-05 1.77773e-05 -0.000105671
6.92064e-05 -2.08259e-05 -2.07345e-05 -0.000105676
7.32078e-05 -2.20456e-05 -2.19267e-05 -0.000105679
-6.11769e-05 1.828e-05 1.83844e-05 -0.00010567
5.01804e-06 -1.57052e-06 -1.47751e-06 -0.000107875
7.12077e-05 -2.14363e-05 -2.13306e-05 -0.000105678
5.00784e-06 -1.58646e-06 -1.4663e-06 -0.000107876
5.0134e-06 -1.57898e-06 -1.47189e-06 -0.000107875
-5.91661e-05 1.76857e-05 1.77773e-05 -0.000105671
-5.51471e-05 1.64991e-05 1.65634e-05 -0.000105676
6.51996e-05 -1.95996e-05 -1.95429e-05 -0.000105674
6.92064e-05 -2.08259e-05 -2.07345e-05 -0.000105676
-5.71561e-05 1.70921e-05 1.71703e-05 -0.000105673
5.02365e-06 -1.54973e-06 -1.48882e-06 -0.000107878
6.72038e-05 -2.02138e-05 -2.01386e-05 -0.000105675
5.01804e-06 -1.57052e-06 -1.47751e-06 -0.000107875
5.02153e-06 -1.56087e-06 -1.48314e-06 -0.000107876
-5.51471e-05 1.64991e-05 1.65634e-05 -0.000105676
-5.11304e-05 1.53148e-05 1.53495e-05 -0.00010569
6.11824e-05 -1.8362e-05 -1.83516e-05 -0.000105676
6.51996e-05 -1.95996e-05 -1.95429e-05 -0.000105674
-5.31387e-05 1.59068e-05 1.59565e-05 -0.000105682
5.0224e-06 -1.52168e-06 -1.50031e-06 -0.000107888
6.31929e-05 -1.89827e-05 -1.89472e-05 -0.000105675
5.02365e-06 -1.54973e-06 -1.48882e-06 -0.000107878
5.02405e-06 -1.53678e-06 -1.49454e-06 -0.000107881
-5.11304e-05 1.53148e-05 1.53495e-05 -0.00010569
-4.71155e-05 1.41303e-05 1.41365e-05 -0.000105721
5.71485e-05 -1.71047e-05 -1.71616e-05 -0.000105689
6.11824e-05 -1.8362e-05 -1.83516e-05 -0.000105676
-4.91226e-05 1.47228e-05 1.47428e-05 -0.000105702
5.01111e-06 -1.48338e-06 -1.51189e-06 -0.000107915
5.91678e-05 -1.77364e-05 -1.77563e-05 -0.000105681
5.0224e-06 -1.52168e-06 -1.50031e-06 -0.000107888
5.01824e-06 -1.50404e-06 -1.50609e-06 -0.000107898
-4.71155e-05 1.41303e-05 1.41365e-05 -0.000105721
-4.30938e-05 1.29399e-05 1.29231e-05 -0.000105785
5.30809e-05 -1.58151e-05 -1.59711e-05 -0.000105727
5.71485e-05 -1.71047e-05 -1.71616e-05 -0.000105689
-4.51067e-05 1.35366e-05 1.353e-05 -0.000105747
4.98542e-06 -1.43111e-06 -1.52328e-06 -0.000107977
5.51207e-05 -1.64652e-05 -1.65666e-05 -0.000105703
5.01111e-06 -1.48338e-06 -1.51189e-06 -0.000107915
5.00038e-06 -1.45922e-06 -1.51764e-06 -0.00010794
-4.30938e-05 1.29399e-05 1.29231e-05 -0.000105785
-3.90581e-05 1.17296e-05 1.17122e-05 -0.000105914
4.89623e-05 -1.44715e-05 -1.47818e-05 -0.000105816
5.30809e-05 -1.58151e-05 -1.59711e-05 -0.000105727
-4.10773e-05 1.23382e-05 1.23168e-05 -0.000105839
4.93973e-06 -1.36094e-06 -1.53376e-06 -0.00010811
5.10284e-05 -1.51515e-05 -1.53758e-05 -0.000105763
4.98542e-06 -1.43111e-06 -1.52328e-06 -0.000107977
4.96546e-06 -1.39854e-06 -1.52868e-06 -0.000108032
-3.90581e-05 1.17296e-05 1.17122e-05 -0.000105914
-3.49706e-05 1.04774e-05 1.04971e-05 -0.000106161
4.47415e-05 -1.30444e-05 -1.35845e-05 -0.00010601
4.89623e-05 -1.44715e-05 -1.47818e-05 -0.000105816
-3.70259e-05 1.11116e-05 1.11061e-05 -0.000106018
4.86711e-06 -1.26892e-06 -1.54208e-06 -0.000108373
4.68707e-05 -1.37716e-05 -1.41853e-05 -0.000105896
4.93973e-06 -1.36094e-06 -1.53376e-06 -0.00010811
4.90726e-06 -1.31781e-06 -1.53834e-06 -0.000108218
-3.49706e-05 1.04774e-05 1.04971e-05 -0.000106161
-3.08076e-05 9.13922e-06 9.28644e-06 -0.000106611
4.03806e-05 -1.1485e-05 -1.23838e-05 -0.000106388
4.47415e-05 -1.30444e-05 -1.35845e-05 -0.00010601
-3.28964e-05 9.82065e-06 9.88958e-06 -0.000106354
4.76009e-06 -1.1532e-06 -1.54581e-06 -0.000108866
4.25773e-05 -1.22829e-05 -1.29833e-05 -0.000106169
4.86711e-06 -1.26892e-06 -1.54208e-06 -0.000108373
4.81835e-06 -1.21411e-06 -1.54467e-06 -0.000108586
-3.08076e-05 9.13922e-06 9.28644e-06 -0.000106611
-2.64522e-05 7.67299e-06 8.04823e-06 -0.000107397
3.5748e-05 -9.75338e-06 -1.11406e-05 -0.000107085
4.03806e-05 -1.1485e-05 -1.23838e-05 -0.000106388
-2.86707e-05 8.42894e-06 8.67504e-06 -0.000106951
4.61125e-06 -1.01477e-06 -1.54135e-06 -0.000109733
3.81159e-05 -1.06469e-05 -1.17724e-05 -0.000106685
4.76009e-06 -1.1532e-06 -1.54581e-06 -0.000108866
4.69138e-06 -1.08628e-06 -1.54504e-06 -0.000109235
-2.64522e-05 7.67299e-06 8.04823e-06 -0.000107397
-2.18883e-05 6.00427e-06 6.80745e-06 -0.000108674
3.08194e-05 -7.79154e-06 -9.86908e-06 -0.000108258
3.5748e-05 -9.75338e-06 -1.11406e-05 -0.000107085
-2.41816e-05 6.85891e-06 7.424e-06 -0.000107965
4.4177e-06 -8.65018e-07 -1.52258e-06 -0.000111153
3.33061e-05 -8.79416e-06 -1.05051e-05 -0.000107602
4.61125e-06 -1.01477e-06 -1.54135e-06 -0.000109733
4.51995e-06 -9.40415e-07 -1.53409e-06 -0.000110375
-2.18883e-05 6.00427e-06 6.80745e-06 -0.000108674
-1.68868e-05 4.1992e-06 5.43753e-06 -0.000110604
2.537e-05 -5.70948e-06 -8.42592e-06 -0.00011009
3.08194e-05 -7.79154e-06 -9.86908e-06 -0.000108258
-1.94857e-05 5.12486e-06 6.15463e-06 -0.000109546
4.18314e-06 -7.26276e-07 -1.48152e-06 -0.00011326
2.82024e-05 -6.76738e-06 -9.18646e-06 -0.000109079
4.4177e-06 -8.65018e-07 -1.52258e-06 -0.000111153
4.30519e-06 -7.91389e-07 -1.50592e-06 -0.000112091
-1.68868e-05 4.1992e-06 5.43753e-06 -0.000110604
-1.1744e-05 2.37725e-06 4.01432e-06 -0.000113084
1.97342e-05 -3.71423e-06 -6.86568e-06 -0.000112503
2.537e-05 -5.70948e-06 -8.42592e-06 -0.00011009
-1.42526e-05 3.23292e-06 4.72271e-06 -0.0001118
3.93374e-06 -6.52292e-07 -1.40633e-06 -0.00011591
2.24909e-05 -4.6352e-06 -7.65243e-06 -0.000111245
4.18314e-06 -7.26276e-07 -1.48152e-06 -0.00011326
4.05739e-06 -6.7738e-07 -1.44857e-06 -0.00011459
-1.1744e-05 2.37725e-06 4.01432e-06 -0.000113084
-6.44821e-06 1.49199e-06 2.12409e-06 -0.000115486
1.39859e-05 -2.91749e-06 -4.74363e-06 -0.000114931
1.97342e-05 -3.71423e-06 -6.86568e-06 -0.000112503
-9.19717e-06 1.78779e-06 3.17545e-06 -0.000114361
3.71682e-06 -7.17932e-07 -1.28524e-06 -0.00011817
1.69493e-05 -3.1236e-06 -5.92531e-06 -0.000113776
3.93374e-06 -6.52292e-07 -1.40633e-06 -0.00011591
3.81821e-06 -6.60336e-07 -1.35338e-06 -0.000117103
-6.44821e-06 1.49199e-06 2.12409e-06 -0.000115486
-2.7002e-06 2.60973e-06 3.87724e-08 -0.000115506
9.99209e-06 -4.61336e-06 -2.30517e-06 -0.000115126
1.39859e-05 -2.91749e-06 -4.74363e-06 -0.000114931
-4.0862e-06 1.59112e-06 1.06932e-06 -0.000116027
3.62922e-06 -1.04384e-06 -1.10802e-06 -0.000117581
1.14612e-05 -3.22694e-06 -3.52895e-06 -0.000115537
3.71682e-06 -7.17932e-07 -1.28524e-06 -0.00011817
3.64775e-06 -8.41937e-07 -1.20249e-06 -0.000118609
-2.7002e-06 2.60973e-06 3.87724e-08 -0.000115506
-5.54917e-07 7.99172e-06 -3.1872e-06 -0.000108926
8.00294e-06 -1.13138e-05 1.41893e-06 -0.000108884
9.99209e-06 -4.61336e-06 -2.30517e-06 -0.000115126
-1.71489e-06 4.93631e-06 -1.38061e-06 -0.000113381
3.74691e-06 -1.71571e-06 -8.70513e-07 -0.000110016
9.02418e-06 -7.49831e-06 -6.53944e-07 -0.000113154
3.62922e-06 -1.04384e-06 -1.10802e-06 -0.000117581
3.66199e-06 -1.33302e-06 -9.98134e-07 -0.000114702
-5.54917e-07 7.99172e-06 -3.1872e-06 -0.000108926
-2.03861e-06 1.48758e-05 -5.50167e-06 -8.88076e-05
1.01707e-05 -2.02389e-05 4.31493e-06 -8.91963e-05
8.00294e-06 -1.13138e-05 1.41893e-06 -0.000108884
-3.02234e-07 1.11888e-05 -4.66566e-06 -0.000101024
4.15376e-06 -2.78743e-06 -5.8557e-07 -9.02185e-05
8.02087e-06 -1.54648e-05 3.19027e-06 -0.000101183
3.74691e-06 -1.71571e-06 -8.70513e-07 -0.000110016
3.90406e-06 -2.19789e-06 -7.31215e-07 -0.000102466
-2.03861e-06 1.48758e-05 -5.50167e-06 -8.88076e-05
-6.60501e-06 2.50698e-05 -7.91347e-06 -5.10259e-05
1.57518e-05 -3.25736e-05 7.20936e-06 -5.0753e-05
1.01707e-05 -2.02389e-05 4.31493e-06 -8.91963e-05
-4.54571e-06 1.95128e-05 -6.41447e-06 -7.22155e-05
4.87179e-06 -3.5559e-06 -5.63951e-07 -4.94206e-05
1.31738e-05 -2.60045e-05 5.49888e-06 -7.25541e-05
4.15376e-06 -2.78743e-06 -5.8557e-07 -9.02185e-05
4.48119e-06 -3.39692e-06 -4.64691e-07 -7.25177e-05
0.000683277 0 -0.000292833 0.000397442
0.000697191 -0.000100165 -0.000255868 0.000131345
0.00218758 -0.000292607 -0.000812132 -1.15101e-05
0.00193211 0 -0.000828048 0.00025043
0.000667631 -4.28917e-05 -0.000267745 0.000250665
0.00144172 -0.000196678 -0.000533588 7.59185e-05
0.00209531 -0.000164685 -0.000827411 9.21047e-05
0.00127867 0 -0.000548002 0.000361645
0.00138053 -9.36535e-05 -0.000551517 0.000178092
0.000697191 -0.000100165 -0.000255868 0.000131345
0.000753942 -0.000165041 -0.000252386 -2.84129e-05
0.00230073 -0.000535032 -0.000756728 -9.28309e-05
0.00218758 -0.000292607 -0.000812132 -1.15101e-05
0.000737465 -0.000138871 -0.00025654 3.73934e-05
0.00151762 -0.000337404 -0.000505805 -5.15989e-05
0.00224424 -0.000421418 -0.000781207 -6.38969e-05
0.00144172 -0.000196678 -0.000533588 7.59185e-05
0.00148109 -0.000276773 -0.000516134 6.90462e-06
0.000753942 -0.000165041 -0.000252386 -2.84129e-05
0.000771412 -0.000213254 -0.00023921 -0.000100791
0.00235881 -0.000658524 -0.000728696 -0.000108241
0.00230073 -0.000535032 -0.000756728 -9.28309e-05
0.000760591 -0.000190744 -0.00024422 -7.20542e-05
0.00156242 -0.000427695 -0.000486309 -0.000106518
0.00234346 -0.000611441 -0.000742294 -0.000106991
0.00151762 -0.000337404 -0.000505805 -5.15989e-05
0.00154637 -0.000388183 -0.000496368 -8.95638e-05
0.000771412 -0.000213254 -0.00023921 -0.000100791
0.000780948 -0.000236598 -0.000233293 -0.000126518
0.00235764 -0.00070781 -0.000707069 -9.97591e-05
0.00235881 -0.000658524 -0.000728696 -0.000108241
0.000780247 -0.000227848 -0.000236742 -0.000118046
0.00157076 -0.000468619 -0.000472346 -0.000118466
0.00235935 -0.00068934 -0.000715718 -0.000103542
0.00156242 -0.000427695 -0.000486309 -0.000106518
0.00156934 -0.000453326 -0.000478291 -0.000114066
0.000780948 -0.000236598 -0.000233293 -0.000126518
0.000776467 -0.000246145 -0.000227281 -0.000129141
0.00234165 -0.000717939 -0.000695878 -9.38326e-05
0.00235764 -0.00070781 -0.000707069 -9.97591e-05
0.000778142 -0.000242586 -0.000229524 -0.000129274
0.00156219 -0.000482624 -0.000462671 -0.000116322
0.00235223 -0.000716033 -0.000701226 -9.67997e-05
0.00157076 -0.000468619 -0.000472346 -0.000118466
0.00156795 -0.000477915 -0.000467159 -0.000118831
0.000776467 -0.000246145 -0.000227281 -0.000129141
0.000770437 -0.000246753 -0.000224436 -0.000124436
0.00231862 -0.000714924 -0.000687297 -8.98444e-05
0.00234165 -0.000717939 -0.000695878 -9.38326e-05
0.000774404 -0.000247196 -0.000225946 -0.00012725
0.00154724 -0.00048232 -0.000456395 -0.000111246
0.00232932 -0.000717238 -0.000690892 -9.12562e-05
0.00156219 -0.000482624 -0.000462671 -0.000116322
0.00155483 -0.000483589 -0.000459103 -0.000113449
0.000770437 -0.000246753 -0.000224436 -0.000124436
0.000762384 -0.000244735 -0.00022185 -0.000118439
0.00229844 -0.000707355 -0.000681893 -8.85158e-05
0.00231862 -0.000714924 -0.000687297 -8.98444e-05
0.000765963 -0.000245878 -0.000222894 -0.000121312
0.00153237 -0.000477703 -0.000452 -0.000106773
0.00230863 -0.000711393 -0.00068453 -8.91076e-05
0.00154724 -0.00048232 -0.000456395 -0.000111246
0.00153967 -0.000480231 -0.000454047 -0.000109016
0.000762384 -0.000244735 -0.00022185 -0.000118439
0.000755758 -0.000241808 -0.000220264 -0.000113695
0.00228 -0.000699775 -0.000677241 -8.79409e-05
0.00229844 -0.000707355 -0.000681893 -8.85158e-05
0.000759162 -0.000243312 -0.000221078 -0.000115886
0.00151906 -0.000472053 -0.000448717 -0.000103662
0.00228868 -0.000703454 -0.000679383 -8.80896e-05
0.00153237 -0.000477703 -0.000452 -0.000106773
0.00152545 -0.000474889 -0.000450242 -0.000104961
0.000755758 -0.000241808 -0.000220264 -0.000113695
0.000749637 -0.000239147 -0.000218781 -0.000110431
0.00226427 -0.000693025 -0.000673389 -8.79415e-05
0.00228 -0.000699775 -0.000677241 -8.79409e-05
0.000752481 -0.000240421 -0.000219454 -0.00011187
0.00150758 -0.000467011 -0.000445959 -0.000101713
0.002272 -0.000696282 -0.000675308 -8.79378e-05
0.00151906 -0.000472053 -0.000448717 -0.000103662
0.00151312 -0.000469425 -0.000447299 -0.000102601
0.000749637 -0.000239147 -0.000218781 -0.000110431
0.000744488 -0.000236825 -0.000217569 -0.000108439
0.00224992 -0.000687322 -0.000669685 -8.80235e-05
0.00226427 -0.000693025 -0.000673389 -8.79415e-05
0.000747036 -0.000237944 -0.000218182 -0.000109307
0.00149747 -0.000462706 -0.000443471 -0.000100604
0.00225688 -0.000690053 -0.000671497 -8.79622e-05
0.00150758 -0.000467011 -0.000445959 -0.000101713
0.00150238 -0.000464771 -0.000444691 -0.000101056
0.000744488 -0.000236825 -0.000217569 -0.000108439
0.000739763 -0.00023487 -0.000216383 -0.000107294
0.00223671 -0.000682381 -0.000666141 -8.8164e-05
0.00224992 -0.000687322 -0.000669685 -8.80235e-05
0.000742045 -0.000235807 -0.000216959 -0.000107779
0.00148829 -0.000459074 -0.000441093 -0.000100009
0.00224324 -0.000684774 -0.000667916 -8.81005e-05
0.00149747 -0.000462706 -0.000443471 -0.000100604
0.00149279 -0.000460817 -0.000442275 -0.000100267
0.000739763 -0.00023487 -0.000216383 -0.000107294
0.000735432 -0.000233158 -0.00021526 -0.000106684
0.00222405 -0.000677969 -0.000662607 -8.82744e-05
0.00223671 -0.000682381 -0.000666141 -8.8164e-05
0.000737579 -0.00023399 -0.000215824 -0.00010694
0.00147968 -0.000455894 -0.000438763 -9.97207e-05
0.00223031 -0.000680123 -0.000664367 -8.82199e-05
0.00148829 -0.000459074 -0.000441093 -0.000100009
0.00148393 -0.00045744 -0.000439925 -9.98334e-05
0.000735432 -0.000233158 -0.00021526 -0.000106684
0.000731277 -0.000231616 -0.000214141 -0.000106377
0.00221176 -0.000673875 -0.000659093 -8.83653e-05
0.00222405 -0.000677969 -0.000662607 -8.82744e-05
0.000733329 -0.00023237 -0.000214697 -0.000106502
0.00147139 -0.000453009 -0.000436448 -9.95922e-05
0.00221788 -0.000675892 -0.000660853 -8.83245e-05
0.00147968 -0.000455894 -0.000438763 -9.97207e-05
0.0014755 -0.000454423 -0.000437606 -9.96444e-05
0.000731277 -0.000231616 -0.000214141 -0.000106377
0.000727253 -0.000230173 -0.000213034 -0.000106235
0.00219963 -0.000669967 -0.00065557 -8.84286e-05
0.00221176 -0.000673875 -0.000659093 -8.83653e-05
0.000729257 -0.000230885 -0.000213588 -0.000106292
0.00146328 -0.000450296 -0.000434136 -9.95465e-05
0.00220568 -0.000671904 -0.000657331 -8.83993e-05
0.00147139 -0.000453009 -0.000436448 -9.95922e-05
0.00146732 -0.000451637 -0.000435292 -9.95618e-05
0.000727253 -0.000230173 -0.000213034 -0.000106235
0.000723287 -0.000228792 -0.000211926 -0.000106175
0.0021876 -0.000666161 -0.000652045 -8.84736e-05
0.00219963 -0.000669967 -0.00065557 -8.84286e-05
0.000725262 -0.000229476 -0.00021248 -0.000106198
0.00145527 -0.000447682 -0.000431823 -9.9537e-05
0.00219361 -0.000668055 -0.000653809 -8.84535e-05
0.00146328 -0.000450296 -0.000434136 -9.95465e-05
0.00145927 -0.00044898 -0.00043298 -9.95395e-05
0.000723287 -0.000228792 -0.000211926 -0.000106175
0.00071936 -0.000227446 -0.00021082 -0.000106155
0.00217561 -0.00066241 -0.000648514 -8.85034e-05
0.0021876 -0.000666161 -0.000652045 -8.84736e-05
0.000721321 -0.000228115 -0.000211374 -0.000106162
0.0014473 -0.000445122 -0.000429507 -9.95421e-05
0.0021816 -0.000664281 -0.00065028 -8.849e-05
0.00145527 -0.000447682 -0.000431823 -9.9537e-05
0.00145128 -0.000446397 -0.000430665 -9.95385e-05
0.00071936 -0.000227446 -0.00021082 -0.000106155
0.000715451 -0.000226121 -0.000209713 -0.00010615
0.00216364 -0.000658687 -0.00064498 -8.85229e-05
0.00217561 -0.00066241 -0.000648514 -8.85034e-05
0.000717403 -0.000226781 -0.000210267 -0.000106151
0.00143936 -0.000442592 -0.000427188 -9.95505e-05
0.00216962 -0.000660546 -0.000646748 -8.85143e-05
0.0014473 -0.000445122 -0.000429507 -9.95421e-05
0.00144333 -0.000443854 -0.000428348 -9.95463e-05
0.000715451 -0.000226121 -0.000209713 -0.00010615
0.000711553 -0.000224808 -0.000208605 -0.000106152
0.00215168 -0.000654979 -0.000641443 -8.85349e-05
0.00216364 -0.000658687 -0.00064498 -8.85229e-05
0.000713501 -0.000225463 -0.000209159 -0.000106151
0.00143144 -0.000440078 -0.000424868 -9.95581e-05
0.00215766 -0.000656832 -0.000643212 -8.85296e-05
0.00143936 -0.000442592 -0.000427188 -9.95505e-05
0.0014354 -0.000441333 -0.000426028 -9.95545e-05
0.000711553 -0.000224808 -0.000208605 -0.000106152
0.000707661 -0.000223504 -0.000207496 -0.000106154
0.00213972 -0.000651278 -0.000637904 -8.85419e-05
0.00215168 -0.000654979 -0.000641443 -8.85349e-05
0.000709606 -0.000224155 -0.00020805 -0.000106153
0.00142351 -0.000437572 -0.000422545 -9.95634e-05
0.0021457 -0.000653128 -0.000639674 -8.85389e-05
0.00143144 -0.000440078 -0.000424868 -9.95581e-05
0.00142747 -0.000438824 -0.000423707 -9.95611e-05
0.000707661 -0.000223504 -0.000207496 -0.000106154
0.000703771 -0.000222205 -0.000206386 -0.000106155
0.00212776 -0.000647582 -0.000634364 -8.85454e-05
0.00213972 -0.000651278 -0.000637904 -8.85419e-05
0.000705716 -0.000222854 -0.000206941 -0.000106155
0.00141559 -0.000435072 -0.000420222 -9.95665e-05
0.00213374 -0.00064943 -0.000636134 -8.8544e-05
0.00142351 -0.000437572 -0.000422545 -9.95634e-05
0.00141955 -0.000436321 -0.000421384 -9.95652e-05
0.000703771 -0.000222205 -0.000206386 -0.000106155
0.000699883 -0.000220909 -0.000205275 -0.000106156
0.00211581 -0.000643887 -0.000630822 -8.85466e-05
0.00212776 -0.000647582 -0.000634364 -8.85454e-05
0.000701827 -0.000221557 -0.00020583 -0.000106156
0.00140767 -0.000432575 -0.000417898 -9.95677e-05
0.00212178 -0.000645734 -0.000632593 -8.85462e-05
0.00141559 -0.000435072 -0.000420222 -9.95665e-05
0.00141163 -0.000433823 -0.00041906 -9.95673e-05
0.000699883 -0.000220909 -0.000205275 -0.000106156
0.000695996 -0.000219616 -0.000204163 -0.000106156
0.00210385 -0.000640194 -0.00062728 -8.85463e-05
0.00211581 -0.000643887 -0.000630822 -8.85466e-05
0.00069794 -0.000220262 -0.000204719 -0.000106156
0.00139975 -0.00043008 -0.000415572 -9.95675e-05
0.00210983 -0.000642041 -0.000629051 -8.85466e-05
0.00140767 -0.000432575 -0.000417898 -9.95677e-05
0.00140371 -0.000431327 -0.000416735 -9.95677e-05
0.000695996 -0.000219616 -0.000204163 -0.000106156
0.000692108 -0.000218325 -0.00020305 -0.000106154
0.00209189 -0.000636503 -0.000623737 -8.85451e-05
0.00210385 -0.000640194 -0.00062728 -8.85463e-05
0.000694052 -0.00021897 -0.000203607 -0.000106155
0.00139183 -0.000427586 -0.000413246 -9.95664e-05
0.00209787 -0.000638348 -0.000625508 -8.85458e-05
0.00139975 -0.00043008 -0.000415572 -9.95675e-05
0.00139579 -0.000428833 -0.000414409 -9.9567e-05
0.000692108 -0.000218325 -0.00020305 -0.000106154
0.000688221 -0.000217034 -0.000201937 -0.000106153
0.00207993 -0.000632812 -0.000620193 -8.85432e-05
0.00209189 -0.000636503 -0.000623737 -8.85451e-05
0.000690165 -0.000217679 -0.000202494 -0.000106154
0.00138391 -0.000425093 -0.000410919 -9.95646e-05
0.00208591 -0.000634657 -0.000621965 -8.85442e-05
0.00139183 -0.000427586 -0.000413246 -9.95664e-05
0.00138787 -0.000426339 -0.000412083 -9.95655e-05
0.000688221 -0.000217034 -0.000201937 -0.000106153
0.000684332 -0.000215745 -0.000200823 -0.000106151
0.00206797 -0.000629121 -0.000616649 -8.8541e-05
0.00207993 -0.000632812 -0.000620193 -8.85432e-05
0.000686276 -0.00021639 -0.00020138 -0.000106152
0.00137598 -0.000422602 -0.000408592 -9.95625e-05
0.00207395 -0.000630966 -0.000618421 -8.85421e-05
0.00138391 -0.000425093 -0.000410919 -9.95646e-05
0.00137994 -0.000423847 -0.000409756 -9.95636e-05
0.000684332 -0.000215745 -0.000200823 -0.000106151
0.000680443 -0.000214457 -0.000199708 -0.000106149
0.00205601 -0.000625431 -0.000613104 -8.85385e-05
0.00206797 -0.000629121 -0.000616649 -8.8541e-05
0.000682388 -0.000215101 -0.000200266 -0.00010615
0.00136806 -0.00042011 -0.000406264 -9.95601e-05
0.00206199 -0.000627276 -0.000614877 -8.85398e-05
0.00137598 -0.000422602 -0.000408592 -9.95625e-05
0.00137202 -0.000421356 -0.000407428 -9.95613e-05
0.000680443 -0.000214457 -0.000199708 -0.000106149
0.000676553 -0.000213169 -0.000198593 -0.000106146
0.00204405 -0.000621742 -0.000609559 -8.8536e-05
0.00205601 -0.000625431 -0.000613104 -8.85385e-05
0.000678498 -0.000213813 -0.000199151 -0.000106147
0.00136014 -0.00041762 -0.000403936 -9.95575e-05
0.00205003 -0.000623587 -0.000611332 -8.85373e-05
0.00136806 -0.00042011 -0.000406264 -9.95601e-05
0.0013641 -0.000418865 -0.0004051 -9.95588e-05
0.000676553 -0.000213169 -0.000198593 -0.000106146
0.000672663 -0.000211882 -0.000197478 -0.000106144
0.00203209 -0.000618053 -0.000606014 -8.85333e-05
0.00204405 -0.000621742 -0.000609559 -8.8536e-05
0.000674608 -0.000212525 -0.000198036 -0.000106145
0.00135221 -0.00041513 -0.000401607 -9.95549e-05
0.00203807 -0.000619898 -0.000607787 -8.85347e-05
0.00136014 -0.00041762 -0.000403936 -9.95575e-05
0.00135617 -0.000416375 -0.000402771 -9.95562e-05
0.000672663 -0.000211882 -0.000197478 -0.000106144
0.000668772 -0.000210595 -0.000196361 -0.000106141
0.00202012 -0.000614365 -0.000602468 -8.85307e-05
0.00203209 -0.000618053 -0.000606014 -8.85333e-05
0.000670717 -0.000211238 -0.00019692 -0.000106143
0.00134429 -0.000412641 -0.000399277 -9.95523e-05
0.0020261 -0.000616209 -0.000604241 -8.8532e-05
0.00135221 -0.00041513 -0.000401607 -9.95549e-05
0.00134825 -0.000413885 -0.000400442 -9.95536e-05
0.000668772 -0.000210595 -0.000196361 -0.000106141
0.00066488 -0.000209309 -0.000195245 -0.000106139
0.00200816 -0.000610677 -0.000598922 -8.8528e-05
0.00202012 -0.000614365 -0.000602468 -8.85307e-05
0.000666826 -0.000209952 -0.000195803 -0.00010614
0.00133636 -0.000410152 -0.000396948 -9.95495e-05
0.00201414 -0.000612521 -0.000600695 -8.85293e-05
0.00134429 -0.000412641 -0.000399277 -9.95523e-05
0.00134033 -0.000411396 -0.000398113 -9.95509e-05
0.00066488 -0.000209309 -0.000195245 -0.000106139
0.000660987 -0.000208023 -0.000194127 -0.000106136
0.0019962 -0.00060699 -0.000595375 -8.85252e-05
0.00200816 -0.000610677 -0.000598922 -8.8528e-05
0.000662933 -0.000208666 -0.000194686 -0.000106137
0.00132844 -0.000407663 -0.000394617 -9.95468e-05
0.00200218 -0.000608833 -0.000597148 -8.85266e-05
0.00133636 -0.000410152 -0.000396948 -9.95495e-05
0.0013324 -0.000408907 -0.000395782 -9.95482e-05
0.000660987 -0.000208023 -0.000194127 -0.000106136
0.000657093 -0.000206738 -0.000193009 -0.000106133
0.00198423 -0.000603303 -0.000591828 -8.85225e-05
0.0019962 -0.00060699 -0.000595375 -8.85252e-05
0.00065904 -0.000207381 -0.000193568 -0.000106135
0.00132051 -0.000405175 -0.000392286 -9.9544e-05
0.00199022 -0.000605146 -0.000593602 -8.85239e-05
0.00132844 -0.000407663 -0.000394617 -9.95468e-05
0.00132447 -0.000406419 -0.000393452 -9.95454e-05
0.000657093 -0.000206738 -0.000193009 -0.000106133
0.000653199 -0.000205453 -0.000191891 -0.000106131
0.00197227 -0.000599616 -0.00058828 -8.85198e-05
0.00198423 -0.000603303 -0.000591828 -8.85225e-05
0.000655146 -0.000206096 -0.00019245 -0.000106132
0.00131258 -0.000402688 -0.000389955 -9.95412e-05
0.00197825 -0.000601459 -0.000590054 -8.85211e-05
0.00132051 -0.000405175 -0.000392286 -9.9544e-05
0.00131655 -0.000403931 -0.000391121 -9.95426e-05
0.000653199 -0.000205453 -0.000191891 -0.000106131
0.000649304 -0.000204169 -0.000190772 -0.000106128
0.00196031 -0.00059593 -0.000584733 -8.8517e-05
0.00197227 -0.000599616 -0.00058828 -8.85198e-05
0.000651251 -0.000204811 -0.000191332 -0.000106129
0.00130465 -0.000400201 -0.000387623 -9.95383e-05
0.00196629 -0.000597773 -0.000586507 -8.85184e-05
0.00131258 -0.000402688 -0.000389955 -9.95412e-05
0.00130862 -0.000401444 -0.000388789 -9.95398e-05
0.000649304 -0.000204169 -0.000190772 -0.000106128
0.000645408 -0.000202885 -0.000189653 -0.000106125
0.00194834 -0.000592244 -0.000581184 -8.85142e-05
0.00196031 -0.00059593 -0.000584733 -8.8517e-05
0.000647356 -0.000203527 -0.000190212 -0.000106127
0.00129673 -0.000397714 -0.000385291 -9.95354e-05
0.00195432 -0.000594087 -0.000582959 -8.85156e-05
0.00130465 -0.000400201 -0.000387623 -9.95383e-05
0.00130069 -0.000398957 -0.000386457 -9.95369e-05
0.000645408 -0.000202885 -0.000189653 -0.000106125
0.000641512 -0.000201602 -0.000188533 -0.000106122
0.00193638 -0.000588559 -0.000577636 -8.85113e-05
0.00194834 -0.000592244 -0.000581184 -8.85142e-05
0.00064346 -0.000202244 -0.000189093 -0.000106124
0.0012888 -0.000395228 -0.000382958 -9.95325e-05
0.00194236 -0.000590402 -0.00057941 -8.85127e-05
0.00129673 -0.000397714 -0.000385291 -9.95354e-05
0.00129276 -0.000396471 -0.000384125 -9.9534e-05
0.000641512 -0.000201602 -0.000188533 -0.000106122
0.000637614 -0.000200319 -0.000187412 -0.00010612
0.00192441 -0.000584875 -0.000574087 -8.85084e-05
0.00193638 -0.000588559 -0.000577636 -8.85113e-05
0.000639563 -0.000200961 -0.000187972 -0.000106121
0.00128087 -0.000392742 -0.000380625 -9.95296e-05
0.00193039 -0.000586717 -0.000575861 -8.85099e-05
0.0012888 -0.000395228 -0.000382958 -9.95325e-05
0.00128483 -0.000393985 -0.000381792 -9.9531e-05
0.000637614 -0.000200319 -0.000187412 -0.00010612
0.000633716 -0.000199037 -0.000186291 -0.000106117
0.00191244 -0.00058119 -0.000570537 -8.85055e-05
0.00192441 -0.000584875 -0.000574087 -8.85084e-05
0.000635665 -0.000199678 -0.000186852 -0.000106118
0.00127294 -0.000390257 -0.000378291 -9.95266e-05
0.00191843 -0.000583032 -0.000572312 -8.8507e-05
0.00128087 -0.000392742 -0.000380625 -9.95296e-05
0.0012769 -0.0003915 -0.000379458 -9.95281e-05
0.000633716 -0.000199037 -0.000186291 -0.000106117
0.000629818 -0.000197755 -0.00018517 -0.000106114
0.00190048 -0.000577507 -0.000566988 -8.85026e-05
0.00191244 -0.00058119 -0.000570537 -8.85055e-05
0.000631767 -0.000198396 -0.000185731 -0.000106115
0.00126501 -0.000387773 -0.000375957 -9.95235e-05
0.00190646 -0.000579348 -0.000568762 -8.85041e-05
0.00127294 -0.000390257 -0.000378291 -9.95266e-05
0.00126897 -0.000389015 -0.000377124 -9.9525e-05
0.000629818 -0.000197755 -0.00018517 -0.000106114
0.000625918 -0.000196474 -0.000184048 -0.000106111
0.00188851 -0.000573823 -0.000563437 -8.84996e-05
0.00190048 -0.000577507 -0.000566988 -8.85026e-05
0.000627868 -0.000197114 -0.000184609 -0.000106112
0.00125707 -0.000385289 -0.000373623 -9.95204e-05
0.00189449 -0.000575665 -0.000565213 -8.85011e-05
0.00126501 -0.000387773 -0.000375957 -9.95235e-05
0.00126104 -0.000386531 -0.00037479 -9.9522e-05
0.000625918 -0.000196474 -0.000184048 -0.000106111
0.000622018 -0.000195193 -0.000182925 -0.000106108
0.00187654 -0.00057014 -0.000559887 -8.84966e-05
0.00188851 -0.000573823 -0.000563437 -8.84996e-05
0.000623968 -0.000195833 -0.000183486 -0.000106109
0.00124914 -0.000382805 -0.000371288 -9.95173e-05
0.00188253 -0.000571982 -0.000561662 -8.84981e-05
0.00125707 -0.000385289 -0.000373623 -9.95204e-05
0.00125311 -0.000384047 -0.000372455 -9.95189e-05
0.000622018 -0.000195193 -0.000182925 -0.000106108
0.000618117 -0.000193913 -0.000181802 -0.000106105
0.00186458 -0.000566458 -0.000556336 -8.84936e-05
0.00187654 -0.00057014 -0.000559887 -8.84966e-05
0.000620068 -0.000194553 -0.000182364 -0.000106106
0.00124121 -0.000380322 -0.000368952 -9.95142e-05
0.00187056 -0.000568299 -0.000558111 -8.84951e-05
0.00124914 -0.000382805 -0.000371288 -9.95173e-05
0.00124518 -0.000381563 -0.00037012 -9.95158e-05
0.000618117 -0.000193913 -0.000181802 -0.000106105
0.000614216 -0.000192633 -0.000180679 -0.000106101
0.00185261 -0.000562776 -0.000552785 -8.84905e-05
0.00186458 -0.000566458 -0.000556336 -8.84936e-05
0.000616167 -0.000193273 -0.00018124 -0.000106103
0.00123328 -0.000377839 -0.000366616 -9.9511e-05
0.00185859 -0.000564617 -0.00055456 -8.84921e-05
0.00124121 -0.000380322 -0.000368952 -9.95142e-05
0.00123724 -0.00037908 -0.000367784 -9.95126e-05
0.000614216 -0.000192633 -0.000180679 -0.000106101
0.000610314 -0.000191353 -0.000179554 -0.000106098
0.00184064 -0.000559095 -0.000549233 -8.84874e-05
0.00185261 -0.000562776 -0.000552785 -8.84905e-05
0.000612265 -0.000191993 -0.000180117 -0.0001061
0.00122534 -0.000375357 -0.00036428 -9.95078e-05
0.00184662 -0.000560935 -0.000551009 -8.8489e-05
0.00123328 -0.000377839 -0.000366616 -9.9511e-05
0.00122931 -0.000376598 -0.000365448 -9.95094e-05
0.000610314 -0.000191353 -0.000179554 -0.000106098
0.000606411 -0.000190075 -0.00017843 -0.000106095
0.00182867 -0.000555414 -0.000545681 -8.84843e-05
0.00184064 -0.000559095 -0.000549233 -8.84874e-05
0.000608362 -0.000190714 -0.000178992 -0.000106097
0.00121741 -0.000372875 -0.000361943 -9.95045e-05
0.00183465 -0.000557254 -0.000547457 -8.84858e-05
0.00122534 -0.000375357 -0.00036428 -9.95078e-05
0.00122138 -0.000374116 -0.000363112 -9.95061e-05
0.000606411 -0.000190075 -0.00017843 -0.000106095
0.000602507 -0.000188796 -0.000177305 -0.000106092
0.0018167 -0.000551733 -0.000542129 -8.84811e-05
0.00182867 -0.000555414 -0.000545681 -8.84843e-05
0.000604459 -0.000189435 -0.000177867 -0.000106093
0.00120947 -0.000370394 -0.000359606 -9.95012e-05
0.00182268 -0.000553573 -0.000543905 -8.84827e-05
0.00121741 -0.000372875 -0.000361943 -9.95045e-05
0.00121344 -0.000371635 -0.000360775 -9.95029e-05
0.000602507 -0.000188796 -0.000177305 -0.000106092
0.000598603 -0.000187518 -0.000176179 -0.000106089
0.00180473 -0.000548053 -0.000538576 -8.84779e-05
0.0018167 -0.000551733 -0.000542129 -8.84811e-05
0.000600555 -0.000188157 -0.000176742 -0.00010609
0.00120154 -0.000367914 -0.000357268 -9.94979e-05
0.00181072 -0.000549893 -0.000540352 -8.84795e-05
0.00120947 -0.000370394 -0.000359606 -9.95012e-05
0.00120551 -0.000369154 -0.000358437 -9.94995e-05
0.000598603 -0.000187518 -0.000176179 -0.000106089
0.000594698 -0.000186241 -0.000175053 -0.000106085
0.00179276 -0.000544374 -0.000535023 -8.84747e-05
0.00180473 -0.000548053 -0.000538576 -8.84779e-05
0.00059665 -0.00018688 -0.000175616 -0.000106087
0.0011936 -0.000365434 -0.00035493 -9.94945e-05
0.00179875 -0.000546214 -0.000536799 -8.84763e-05
0.00120154 -0.000367914 -0.000357268 -9.94979e-05
0.00119757 -0.000366674 -0.000356099 -9.94962e-05
0.000594698 -0.000186241 -0.000175053 -0.000106085
0.000590792 -0.000184964 -0.000173926 -0.000106082
0.00178079 -0.000540695 -0.000531469 -8.84714e-05
0.00179276 -0.000544374 -0.000535023 -8.84747e-05
0.000592745 -0.000185603 -0.00017449 -0.000106084
0.00118567 -0.000362954 -0.000352591 -9.94911e-05
0.00178678 -0.000542534 -0.000533246 -8.84731e-05
0.0011936 -0.000365434 -0.00035493 -9.94945e-05
0.00118964 -0.000364194 -0.000353761 -9.94928e-05
0.000590792 -0.000184964 -0.000173926 -0.000106082
0.000586886 -0.000183688 -0.000172799 -0.000106079
0.00176882 -0.000537016 -0.000527915 -8.84682e-05
0.00178079 -0.000540695 -0.000531469 -8.84714e-05
0.000588839 -0.000184326 -0.000173363 -0.00010608
0.00117773 -0.000360475 -0.000350252 -9.94877e-05
0.0017748 -0.000538856 -0.000529692 -8.84698e-05
0.00118567 -0.000362954 -0.000352591 -9.94911e-05
0.0011817 -0.000361714 -0.000351422 -9.94894e-05
0.000586886 -0.000183688 -0.000172799 -0.000106079
0.000582979 -0.000182412 -0.000171671 -0.000106075
0.00175685 -0.000533338 -0.000524361 -8.84649e-05
0.00176882 -0.000537016 -0.000527915 -8.84682e-05
0.000584932 -0.00018305 -0.000172235 -0.000106077
0.00116979 -0.000357996 -0.000347913 -9.94843e-05
0.00176283 -0.000535177 -0.000526138 -8.84665e-05
0.00117773 -0.000360475 -0.000350252 -9.94877e-05
0.00117376 -0.000359236 -0.000349083 -9.9486e-05
0.000582979 -0.000182412 -0.000171671 -0.000106075
0.000579071 -0.000181137 -0.000170543 -0.000106072
0.00174488 -0.000529661 -0.000520807 -8.84615e-05
0.00175685 -0.000533338 -0.000524361 -8.84649e-05
0.000581025 -0.000181774 -0.000171107 -0.000106073
0.00116185 -0.000355518 -0.000345573 -9.94808e-05
0.00175086 -0.000531499 -0.000522584 -8.84632e-05
0.00116979 -0.000357996 -0.000347913 -9.94843e-05
0.00116582 -0.000356757 -0.000346743 -9.94825e-05
0.000579071 -0.000181137 -0.000170543 -0.000106072
0.000575162 -0.000179862 -0.000169415 -0.000106068
0.0017329 -0.000525984 -0.000517252 -8.84582e-05
0.00174488 -0.000529661 -0.000520807 -8.84615e-05
0.000577117 -0.000180499 -0.000169979 -0.00010607
0.00115392 -0.000353041 -0.000343232 -9.94773e-05
0.00173889 -0.000527822 -0.000519029 -8.84599e-05
0.00116185 -0.000355518 -0.000345573 -9.94808e-05
0.00115789 -0.000354279 -0.000344403 -9.9479e-05
0.000575162 -0.000179862 -0.000169415 -0.000106068
0.000571253 -0.000178588 -0.000168285 -0.000106065
0.00172093 -0.000522307 -0.000513696 -8.84548e-05
0.0017329 -0.000525984 -0.000517252 -8.84582e-05
0.000573208 -0.000179225 -0.00016885 -0.000106067
0.00114598 -0.000350564 -0.000340891 -9.94738e-05
0.00172692 -0.000524145 -0.000515474 -8.84565e-05
0.00115392 -0.000353041 -0.000343232 -9.94773e-05
0.00114995 -0.000351802 -0.000342062 -9.94755e-05
0.000571253 -0.000178588 -0.000168285 -0.000106065
0.000567343 -0.000177314 -0.000167156 -0.000106061
0.00170896 -0.000518631 -0.000510141 -8.84514e-05
0.00172093 -0.000522307 -0.000513696 -8.84548e-05
0.000569298 -0.000177951 -0.00016772 -0.000106063
0.00113804 -0.000348087 -0.00033855 -9.94702e-05
0.00171495 -0.000520469 -0.000511919 -8.84531e-05
0.00114598 -0.000350564 -0.000340891 -9.94738e-05
0.00114201 -0.000349325 -0.000339721 -9.9472e-05
0.000567343 -0.000177314 -0.000167156 -0.000106061
0.000563433 -0.000176041 -0.000166025 -0.000106058
0.00169699 -0.000514955 -0.000506585 -8.8448e-05
0.00170896 -0.000518631 -0.000510141 -8.84514e-05
0.000565388 -0.000176677 -0.00016659 -0.00010606
0.0011301 -0.000345611 -0.000336208 -9.94666e-05
0.00170297 -0.000516793 -0.000508363 -8.84497e-05
0.00113804 -0.000348087 -0.00033855 -9.94702e-05
0.00113407 -0.000346849 -0.000337379 -9.94684e-05
0.000563433 -0.000176041 -0.000166025 -0.000106058
0.000559522 -0.000174768 -0.000164895 -0.000106054
0.00168501 -0.00051128 -0.000503028 -8.84446e-05
0.00169699 -0.000514955 -0.000506585 -8.8448e-05
0.000561477 -0.000175404 -0.00016546 -0.000106056
0.00112216 -0.000343135 -0.000333866 -9.9463e-05
0.001691 -0.000513118 -0.000504807 -8.84463e-05
0.0011301 -0.000345611 -0.000336208 -9.94666e-05
0.00112613 -0.000344373 -0.000335037 -9.94648e-05
0.000559522 -0.000174768 -0.000164895 -0.000106054
0.00055561 -0.000173495 -0.000163763 -0.000106051
0.00167304 -0.000507606 -0.000499472 -8.84411e-05
0.00168501 -0.00051128 -0.000503028 -8.84446e-05
0.000557566 -0.000174132 -0.000164329 -0.000106052
0.00111422 -0.00034066 -0.000331524 -9.94594e-05
0.00167903 -0.000509443 -0.00050125 -8.84428e-05
0.00112216 -0.000343135 -0.000333866 -9.9463e-05
0.00111819 -0.000341898 -0.000332695 -9.94612e-05
0.00055561 -0.000173495 -0.000163763 -0.000106051
0.000551697 -0.000172224 -0.000162632 -0.000106047
0.00166107 -0.000503932 -0.000495914 -8.84376e-05
0.00167304 -0.000507606 -0.000499472 -8.84411e-05
0.000553654 -0.000172859 -0.000163197 -0.000106049
0.00110627 -0.000338186 -0.00032918 -9.94557e-05
0.00166705 -0.000505769 -0.000497693 -8.84394e-05
0.00111422 -0.00034066 -0.000331524 -9.94594e-05
0.00111024 -0.000339423 -0.000330352 -9.94576e-05
0.000551697 -0.000172224 -0.000162632 -0.000106047
0.000547784 -0.000170952 -0.000161499 -0.000106043
0.00164909 -0.000500258 -0.000492357 -8.84341e-05
0.00166107 -0.000503932 -0.000495914 -8.84376e-05
0.000549741 -0.000171588 -0.000162065 -0.000106045
0.00109833 -0.000335712 -0.000326837 -9.94521e-05
0.00165508 -0.000502095 -0.000494136 -8.84359e-05
0.00110627 -0.000338186 -0.00032918 -9.94557e-05
0.0011023 -0.000336949 -0.000328009 -9.94539e-05
0.000547784 -0.000170952 -0.000161499 -0.000106043
0.00054387 -0.000169682 -0.000160366 -0.00010604
0.00163712 -0.000496585 -0.000488799 -8.84306e-05
0.00164909 -0.000500258 -0.000492357 -8.84341e-05
0.000545827 -0.000170317 -0.000160933 -0.000106042
0.00109039 -0.000333238 -0.000324493 -9.94484e-05
0.0016431 -0.000498421 -0.000490578 -8.84324e-05
0.00109833 -0.000335712 -0.000326837 -9.94521e-05
0.00109436 -0.000334475 -0.000325665 -9.94502e-05
0.00054387 -0.000169682 -0.000160366 -0.00010604
0.000539955 -0.000168411 -0.000159233 -0.000106036
0.00162514 -0.000492912 -0.000485241 -8.84271e-05
0.00163712 -0.000496585 -0.000488799 -8.84306e-05
0.000541913 -0.000169046 -0.0001598 -0.000106038
0.00108245 -0.000330765 -0.000322149 -9.94447e-05
0.00163113 -0.000494748 -0.00048702 -8.84289e-05
0.00109039 -0.000333238 -0.000324493 -9.94484e-05
0.00108642 -0.000332002 -0.000323321 -9.94466e-05
0.000539955 -0.000168411 -0.000159233 -0.000106036
0.00053604 -0.000167142 -0.000158099 -0.000106032
0.00161317 -0.00048924 -0.000481682 -8.84236e-05
0.00162514 -0.000492912 -0.000485241 -8.84271e-05
0.000537998 -0.000167776 -0.000158666 -0.000106034
0.0010745 -0.000328293 -0.000319804 -9.9441e-05
0.00161915 -0.000491076 -0.000483462 -8.84253e-05
0.00108245 -0.000330765 -0.000322149 -9.94447e-05
0.00107847 -0.000329529 -0.000320976 -9.94428e-05
0.00053604 -0.000167142 -0.000158099 -0.000106032
0.000532124 -0.000165872 -0.000156965 -0.000106029
0.00160119 -0.000485568 -0.000478124 -8.842e-05
0.00161317 -0.00048924 -0.000481682 -8.84236e-05
0.000534082 -0.000166507 -0.000157532 -0.000106031
0.00106656 -0.000325821 -0.000317458 -9.94372e-05
0.00160718 -0.000487404 -0.000479903 -8.84218e-05
0.0010745 -0.000328293 -0.000319804 -9.9441e-05
0.00107053 -0.000327057 -0.000318631 -9.94391e-05
0.000532124 -0.000165872 -0.000156965 -0.000106029
0.000528207 -0.000164604 -0.00015583 -0.000106025
0.00158921 -0.000481897 -0.000474564 -8.84164e-05
0.00160119 -0.000485568 -0.000478124 -8.842e-05
0.000530166 -0.000165238 -0.000156398 -0.000106027
0.00105861 -0.000323349 -0.000315113 -9.94335e-05
0.0015952 -0.000483733 -0.000476344 -8.84182e-05
0.00106656 -0.000325821 -0.000317458 -9.94372e-05
0.00106258 -0.000324585 -0.000316286 -9.94354e-05
0.000528207 -0.000164604 -0.00015583 -0.000106025
0.00052429 -0.000163335 -0.000154695 -0.000106021
0.00157724 -0.000478227 -0.000471005 -8.84128e-05
0.00158921 -0.000481897 -0.000474564 -8.84164e-05
0.000526249 -0.000163969 -0.000155263 -0.000106023
0.00105067 -0.000320878 -0.000312766 -9.94297e-05
0.00158323 -0.000480062 -0.000472785 -8.84146e-05
0.00105861 -0.000323349 -0.000315113 -9.94335e-05
0.00105464 -0.000322114 -0.00031394 -9.94316e-05
0.00052429 -0.000163335 -0.000154695 -0.000106021
0.000520372 -0.000162068 -0.000153559 -0.000106018
0.00156526 -0.000474556 -0.000467445 -8.84092e-05
0.00157724 -0.000478227 -0.000471005 -8.84128e-05
0.000522331 -0.000162701 -0.000154127 -0.000106019
0.00104272 -0.000318408 -0.00031042 -9.94259e-05
0.00157125 -0.000476391 -0.000469225 -8.8411e-05
0.00105067 -0.000320878 -0.000312766 -9.94297e-05
0.00104669 -0.000319643 -0.000311593 -9.94278e-05
0.000520372 -0.000162068 -0.000153559 -0.000106018
0.000516453 -0.0001608 -0.000152423 -0.000106014
0.00155328 -0.000470887 -0.000463885 -8.84056e-05
0.00156526 -0.000474556 -0.000467445 -8.84092e-05
0.000518413 -0.000161434 -0.000152991 -0.000106016
0.00103477 -0.000315938 -0.000308073 -9.94222e-05
0.00155927 -0.000472722 -0.000465665 -8.84074e-05
0.00104272 -0.000318408 -0.00031042 -9.94259e-05
0.00103875 -0.000317173 -0.000309246 -9.94241e-05
0.000516453 -0.0001608 -0.000152423 -0.000106014
0.000512534 -0.000159534 -0.000151286 -0.00010601
0.00154131 -0.000467218 -0.000460324 -8.8402e-05
0.00155328 -0.000470887 -0.000463885 -8.84056e-05
0.000514494 -0.000160167 -0.000151854 -0.000106012
0.00102683 -0.000313469 -0.000305725 -9.94183e-05
0.0015473 -0.000469052 -0.000462104 -8.84038e-05
0.00103477 -0.000315938 -0.000308073 -9.94222e-05
0.0010308 -0.000314703 -0.000306899 -9.94203e-05
0.000512534 -0.000159534 -0.000151286 -0.00010601
0.000508614 -0.000158267 -0.000150148 -0.000106006
0.00152933 -0.000463549 -0.000456763 -8.83984e-05
0.00154131 -0.000467218 -0.000460324 -8.8402e-05
0.000510574 -0.000158901 -0.000150717 -0.000106008
0.00101888 -0.000311 -0.000303377 -9.94145e-05
0.00153532 -0.000465383 -0.000458543 -8.84002e-05
0.00102683 -0.000313469 -0.000305725 -9.94183e-05
0.00102285 -0.000312234 -0.000304551 -9.94164e-05
0.000508614 -0.000158267 -0.000150148 -0.000106006
0.000504693 -0.000157002 -0.00014901 -0.000106002
0.00151735 -0.000459881 -0.000453202 -8.83948e-05
0.00152933 -0.000463549 -0.000456763 -8.83984e-05
0.000506653 -0.000157635 -0.000149579 -0.000106004
0.00101093 -0.000308531 -0.000301029 -9.94107e-05
0.00152334 -0.000461715 -0.000454982 -8.83966e-05
0.00101888 -0.000311 -0.000303377 -9.94145e-05
0.00101491 -0.000309766 -0.000302203 -9.94126e-05
0.000504693 -0.000157002 -0.00014901 -0.000106002
0.000500771 -0.000155737 -0.000147872 -0.000105999
0.00150537 -0.000456213 -0.00044964 -8.83911e-05
0.00151735 -0.000459881 -0.000453202 -8.83948e-05
0.000502732 -0.000156369 -0.000148441 -0.000106001
0.00100298 -0.000306064 -0.00029868 -9.94069e-05
0.00151136 -0.000458047 -0.000451421 -8.83929e-05
0.00101093 -0.000308531 -0.000301029 -9.94107e-05
0.00100696 -0.000307297 -0.000299855 -9.94088e-05
0.000500771 -0.000155737 -0.000147872 -0.000105999
0.000496849 -0.000154472 -0.000146733 -0.000105995
0.00149339 -0.000452546 -0.000446078 -8.83875e-05
0.00150537 -0.000456213 -0.00044964 -8.83911e-05
0.00049881 -0.000155104 -0.000147303 -0.000105997
0.000995035 -0.000303596 -0.000296331 -9.9403e-05
0.00149938 -0.000454379 -0.000447859 -8.83893e-05
0.00100298 -0.000306064 -0.00029868 -9.94069e-05
0.000999009 -0.00030483 -0.000297506 -9.94049e-05
0.000496849 -0.000154472 -0.000146733 -0.000105995
0.000492927 -0.000153208 -0.000145594 -0.000105991
0.00148142 -0.000448879 -0.000442515 -8.83838e-05
0.00149339 -0.000452546 -0.000446078 -8.83875e-05
0.000494888 -0.00015384 -0.000146164 -0.000105993
0.000987085 -0.000301129 -0.000293981 -9.93992e-05
0.0014874 -0.000450713 -0.000444297 -8.83856e-05
0.000995035 -0.000303596 -0.000296331 -9.9403e-05
0.00099106 -0.000302363 -0.000295156 -9.94011e-05
0.000492927 -0.000153208 -0.000145594 -0.000105991
0.000489003 -0.000151944 -0.000144454 -0.000105987
0.00146944 -0.000445213 -0.000438953 -8.83801e-05
0.00148142 -0.000448879 -0.000442515 -8.83838e-05
0.000490965 -0.000152576 -0.000145024 -0.000105989
0.000979136 -0.000298663 -0.000291631 -9.93953e-05
0.00147543 -0.000447046 -0.000440734 -8.8382e-05
0.000987085 -0.000301129 -0.000293981 -9.93992e-05
0.000983111 -0.000299896 -0.000292806 -9.93972e-05
0.000489003 -0.000151944 -0.000144454 -0.000105987
0.000485079 -0.000150681 -0.000143313 -0.000105983
0.00145746 -0.000441547 -0.00043539 -8.83765e-05
0.00146944 -0.000445213 -0.000438953 -8.83801e-05
0.000487041 -0.000151312 -0.000143884 -0.000105985
0.000971185 -0.000296197 -0.00028928 -9.93914e-05
0.00146345 -0.00044338 -0.000437171 -8.83783e-05
0.000979136 -0.000298663 -0.000291631 -9.93953e-05
0.00097516 -0.00029743 -0.000290456 -9.93934e-05
0.000485079 -0.000150681 -0.000143313 -0.000105983
0.000481154 -0.000149418 -0.000142173 -0.000105979
0.00144548 -0.000437882 -0.000431826 -8.83728e-05
0.00145746 -0.000441547 -0.00043539 -8.83765e-05
0.000483117 -0.00015005 -0.000142743 -0.000105981
0.000963234 -0.000293732 -0.000286929 -9.93876e-05
0.00145147 -0.000439715 -0.000433608 -8.83746e-05
0.000971185 -0.000296197 -0.00028928 -9.93914e-05
0.00096721 -0.000294965 -0.000288105 -9.93895e-05
0.000481154 -0.000149418 -0.000142173 -0.000105979
0.000477229 -0.000148156 -0.000141031 -0.000105976
0.0014335 -0.000434218 -0.000428262 -8.83691e-05
0.00144548 -0.000437882 -0.000431826 -8.83728e-05
0.000479191 -0.000148787 -0.000141602 -0.000105978
0.000955283 -0.000291267 -0.000284578 -9.93837e-05
0.00143949 -0.00043605 -0.000430044 -8.83709e-05
0.000963234 -0.000293732 -0.000286929 -9.93876e-05
0.000959258 -0.0002925 -0.000285754 -9.93856e-05
0.000477229 -0.000148156 -0.000141031 -0.000105976
0.000473303 -0.000146894 -0.000139889 -0.000105972
0.00142152 -0.000430553 -0.000424698 -8.83654e-05
0.0014335 -0.000434218 -0.000428262 -8.83691e-05
0.000475266 -0.000147525 -0.00014046 -0.000105974
0.000947331 -0.000288803 -0.000282226 -9.93798e-05
0.00142751 -0.000432386 -0.00042648 -8.83673e-05
0.000955283 -0.000291267 -0.000284578 -9.93837e-05
0.000951307 -0.000290035 -0.000283402 -9.93818e-05
0.000473303 -0.000146894 -0.000139889 -0.000105972
0.000469376 -0.000145633 -0.000138747 -0.000105968
0.00140954 -0.00042689 -0.000421134 -8.83617e-05
0.00142152 -0.000430553 -0.000424698 -8.83654e-05
0.000471339 -0.000146264 -0.000139318 -0.00010597
0.000939378 -0.000286339 -0.000279874 -9.93759e-05
0.00141553 -0.000428722 -0.000422916 -8.83636e-05
0.000947331 -0.000288803 -0.000282226 -9.93798e-05
0.000943355 -0.000287571 -0.00028105 -9.93779e-05
0.000469376 -0.000145633 -0.000138747 -0.000105968
0.000465448 -0.000144373 -0.000137604 -0.000105964
0.00139755 -0.000423227 -0.000417569 -8.8358e-05
0.00140954 -0.00042689 -0.000421134 -8.83617e-05
0.000467412 -0.000145003 -0.000138175 -0.000105966
0.000931425 -0.000283876 -0.000277521 -9.93721e-05
0.00140355 -0.000425058 -0.000419351 -8.83599e-05
0.000939378 -0.000286339 -0.000279874 -9.93759e-05
0.000935402 -0.000285108 -0.000278698 -9.9374e-05
0.000465448 -0.000144373 -0.000137604 -0.000105964
0.00046152 -0.000143113 -0.00013646 -0.00010596
0.00138557 -0.000419564 -0.000414004 -8.83543e-05
0.00139755 -0.000423227 -0.000417569 -8.8358e-05
0.000463484 -0.000143743 -0.000137032 -0.000105962
0.000923472 -0.000281413 -0.000275168 -9.93682e-05
0.00139156 -0.000421395 -0.000415787 -8.83562e-05
0.000931425 -0.000283876 -0.000277521 -9.93721e-05
0.000927449 -0.000282645 -0.000276345 -9.93701e-05
0.00046152 -0.000143113 -0.00013646 -0.00010596
0.000457591 -0.000141853 -0.000135316 -0.000105956
0.00137359 -0.000415902 -0.000410438 -8.83507e-05
0.00138557 -0.000419564 -0.000414004 -8.83543e-05
0.000459556 -0.000142483 -0.000135888 -0.000105958
0.000915518 -0.000278951 -0.000272814 -9.93643e-05
0.00137958 -0.000417733 -0.000412221 -8.83525e-05
0.000923472 -0.000281413 -0.000275168 -9.93682e-05
0.000919495 -0.000280182 -0.000273991 -9.93662e-05
0.000457591 -0.000141853 -0.000135316 -0.000105956
0.000453662 -0.000140594 -0.000134172 -0.000105952
0.00136161 -0.00041224 -0.000406872 -8.8347e-05
0.00137359 -0.000415902 -0.000410438 -8.83507e-05
0.000455626 -0.000141223 -0.000134744 -0.000105954
0.000907563 -0.000276489 -0.00027046 -9.93604e-05
0.0013676 -0.000414071 -0.000408655 -8.83488e-05
0.000915518 -0.000278951 -0.000272814 -9.93643e-05
0.000911541 -0.00027772 -0.000271637 -9.93624e-05
0.000453662 -0.000140594 -0.000134172 -0.000105952
0.000449731 -0.000139335 -0.000133027 -0.000105949
0.00134963 -0.000408579 -0.000403306 -8.83433e-05
0.00136161 -0.00041224 -0.000406872 -8.8347e-05
0.000451697 -0.000139965 -0.000133599 -0.000105951
0.000899608 -0.000274028 -0.000268106 -9.93565e-05
0.00135562 -0.00041041 -0.000405089 -8.83451e-05
0.000907563 -0.000276489 -0.00027046 -9.93604e-05
0.000903586 -0.000275259 -0.000269283 -9.93585e-05
0.000449731 -0.000139335 -0.000133027 -0.000105949
0.0004458 -0.000138077 -0.000131881 -0.000105945
0.00133764 -0.000404918 -0.00039974 -8.83396e-05
0.00134963 -0.000408579 -0.000403306 -8.83433e-05
0.000447766 -0.000138706 -0.000132454 -0.000105947
0.000891653 -0.000271568 -0.000265751 -9.93526e-05
0.00134364 -0.000406749 -0.000401523 -8.83414e-05
0.000899608 -0.000274028 -0.000268106 -9.93565e-05
0.000895631 -0.000272798 -0.000266928 -9.93546e-05
0.0004458 -0.000138077 -0.000131881 -0.000105945
0.000441869 -0.00013682 -0.000130735 -0.000105941
0.00132566 -0.000401258 -0.000396173 -8.83359e-05
0.00133764 -0.000404918 -0.00039974 -8.83396e-05
0.000443835 -0.000137448 -0.000131308 -0.000105943
0.000883697 -0.000269108 -0.000263395 -9.93488e-05
0.00133165 -0.000403088 -0.000397956 -8.83378e-05
0.000891653 -0.000271568 -0.000265751 -9.93526e-05
0.000887675 -0.000270338 -0.000264573 -9.93507e-05
0.000441869 -0.00013682 -0.000130735 -0.000105941
0.000437937 -0.000135563 -0.000129589 -0.000105937
0.00131368 -0.000397599 -0.000392606 -8.83322e-05
0.00132566 -0.000401258 -0.000396173 -8.83359e-05
0.000439903 -0.000136191 -0.000130162 -0.000105939
0.00087574 -0.000266648 -0.00026104 -9.93449e-05
0.00131967 -0.000399428 -0.000394389 -8.83341e-05
0.000883697 -0.000269108 -0.000263395 -9.93488e-05
0.000879719 -0.000267878 -0.000262218 -9.93468e-05
0.000437937 -0.000135563 -0.000129589 -0.000105937
0.000434004 -0.000134306 -0.000128442 -0.000105933
0.00130169 -0.000393939 -0.000389038 -8.83286e-05
0.00131368 -0.000397599 -0.000392606 -8.83322e-05
0.00043597 -0.000134934 -0.000129015 -0.000105935
0.000867783 -0.000264189 -0.000258683 -9.9341e-05
0.00130769 -0.000395769 -0.000390822 -8.83304e-05
0.00087574 -0.000266648 -0.00026104 -9.93449e-05
0.000871762 -0.000265418 -0.000259862 -9.9343e-05
0.000434004 -0.000134306 -0.000128442 -0.000105933
0.00043007 -0.00013305 -0.000127294 -0.000105929
0.00128971 -0.000390281 -0.00038547 -8.83249e-05
0.00130169 -0.000393939 -0.000389038 -8.83286e-05
0.000432037 -0.000133678 -0.000127868 -0.000105931
0.000859826 -0.00026173 -0.000256327 -9.93372e-05
0.0012957 -0.00039211 -0.000387254 -8.83267e-05
0.000867783 -0.000264189 -0.000258683 -9.9341e-05
0.000863805 -0.00026296 -0.000257505 -9.93391e-05
0.00043007 -0.00013305 -0.000127294 -0.000105929
0.000426136 -0.000131794 -0.000126146 -0.000105926
0.00127773 -0.000386623 -0.000381902 -8.83212e-05
0.00128971 -0.000390281 -0.00038547 -8.83249e-05
0.000428103 -0.000132422 -0.00012672 -0.000105927
0.000851868 -0.000259272 -0.00025397 -9.93333e-05
0.00128372 -0.000388452 -0.000383686 -8.8323e-05
0.000859826 -0.00026173 -0.000256327 -9.93372e-05
0.000855847 -0.000260501 -0.000255148 -9.93352e-05
0.000426136 -0.000131794 -0.000126146 -0.000105926
0.000422201 -0.000130539 -0.000124998 -0.000105922
0.00126574 -0.000382965 -0.000378333 -8.83175e-05
0.00127773 -0.000386623 -0.000381902 -8.83212e-05
0.000424169 -0.000131167 -0.000125572 -0.000105924
0.000843909 -0.000256815 -0.000251612 -9.93294e-05
0.00127173 -0.000384794 -0.000380117 -8.83194e-05
0.000851868 -0.000259272 -0.00025397 -9.93333e-05
0.000847889 -0.000258043 -0.000252791 -9.93314e-05
0.000422201 -0.000130539 -0.000124998 -0.000105922
0.000418265 -0.000129285 -0.000123849 -0.000105918
0.00125376 -0.000379308 -0.000374764 -8.83139e-05
0.00126574 -0.000382965 -0.000378333 -8.83175e-05
0.000420233 -0.000129912 -0.000124423 -0.00010592
0.00083595 -0.000254358 -0.000249254 -9.93256e-05
0.00125975 -0.000381136 -0.000376549 -8.83157e-05
0.000843909 -0.000256815 -0.000251612 -9.93294e-05
0.00083993 -0.000255586 -0.000250433 -9.93275e-05
0.000418265 -0.000129285 -0.000123849 -0.000105918
0.000414329 -0.000128031 -0.000122699 -0.000105914
0.00124177 -0.000375651 -0.000371195 -8.83102e-05
0.00125376 -0.000379308 -0.000374764 -8.83139e-05
0.000416297 -0.000128658 -0.000123274 -0.000105916
0.000827991 -0.000251901 -0.000246896 -9.93217e-05
0.00124776 -0.000377479 -0.000372979 -8.83121e-05
0.00083595 -0.000254358 -0.000249254 -9.93256e-05
0.000831971 -0.000253129 -0.000248075 -9.93237e-05
0.000414329 -0.000128031 -0.000122699 -0.000105914
0.000410392 -0.000126777 -0.000121549 -0.00010591
0.00122979 -0.000371995 -0.000367625 -8.83066e-05
0.00124177 -0.000375651 -0.000371195 -8.83102e-05
0.000412361 -0.000127404 -0.000122124 -0.000105912
0.000820031 -0.000249445 -0.000244537 -9.93179e-05
0.00123578 -0.000373823 -0.00036941 -8.83084e-05
0.000827991 -0.000251901 -0.000246896 -9.93217e-05
0.000824011 -0.000250673 -0.000245716 -9.93198e-05
0.000410392 -0.000126777 -0.000121549 -0.00010591
0.000406455 -0.000125524 -0.000120399 -0.000105906
0.0012178 -0.000368339 -0.000364055 -8.8303e-05
0.00122979 -0.000371995 -0.000367625 -8.83066e-05
0.000408424 -0.000126151 -0.000120974 -0.000105908
0.00081207 -0.00024699 -0.000242177 -9.93141e-05
0.00122379 -0.000370167 -0.00036584 -8.83048e-05
0.000820031 -0.000249445 -0.000244537 -9.93179e-05
0.00081605 -0.000248217 -0.000243357 -9.9316e-05
0.000406455 -0.000125524 -0.000120399 -0.000105906
0.000402516 -0.000124272 -0.000119248 -0.000105903
0.00120581 -0.000364684 -0.000360485 -8.82993e-05
0.0012178 -0.000368339 -0.000364055 -8.8303e-05
0.000404486 -0.000124898 -0.000119823 -0.000105905
0.000804109 -0.000244535 -0.000239818 -9.93103e-05
0.00121181 -0.000366512 -0.00036227 -8.83012e-05
0.00081207 -0.00024699 -0.000242177 -9.93141e-05
0.00080809 -0.000245762 -0.000240998 -9.93122e-05
0.000402516 -0.000124272 -0.000119248 -0.000105903
0.000398577 -0.00012302 -0.000118096 -0.000105899
0.00119383 -0.000361029 -0.000356914 -8.82957e-05
0.00120581 -0.000364684 -0.000360485 -8.82993e-05
0.000400547 -0.000123646 -0.000118672 -0.000105901
0.000796148 -0.00024208 -0.000237457 -9.93065e-05
0.00119982 -0.000362857 -0.000358699 -8.82975e-05
0.000804109 -0.000244535 -0.000239818 -9.93103e-05
0.000800128 -0.000243307 -0.000238638 -9.93084e-05
0.000398577 -0.00012302 -0.000118096 -0.000105899
0.000394638 -0.000121768 -0.000116944 -0.000105895
0.00118184 -0.000357375 -0.000353343 -8.82921e-05
0.00119383 -0.000361029 -0.000356914 -8.82957e-05
0.000396608 -0.000122394 -0.00011752 -0.000105897
0.000788185 -0.000239626 -0.000235097 -9.93027e-05
0.00118784 -0.000359202 -0.000355128 -8.82939e-05
0.000796148 -0.00024208 -0.000237457 -9.93065e-05
0.000792167 -0.000240853 -0.000236277 -9.93046e-05
0.000394638 -0.000121768 -0.000116944 -0.000105895
0.000390697 -0.000120517 -0.000115791 -0.000105891
0.00116985 -0.000353722 -0.000349771 -8.82885e-05
0.00118184 -0.000357375 -0.000353343 -8.82921e-05
0.000392668 -0.000121143 -0.000116368 -0.000105893
0.000780223 -0.000237173 -0.000232736 -9.92989e-05
0.00117585 -0.000355548 -0.000351557 -8.82903e-05
0.000788185 -0.000239626 -0.000235097 -9.93027e-05
0.000784204 -0.000238399 -0.000233916 -9.93008e-05
0.000390697 -0.000120517 -0.000115791 -0.000105891
0.000386756 -0.000119267 -0.000114638 -0.000105888
0.00115787 -0.000350068 -0.0003462 -8.82849e-05
0.00116985 -0.000353722 -0.000349771 -8.82885e-05
0.000388727 -0.000119892 -0.000115215 -0.00010589
0.00077226 -0.00023472 -0.000230374 -9.92951e-05
0.00116386 -0.000351895 -0.000347986 -8.82867e-05
0.000780223 -0.000237173 -0.000232736 -9.92989e-05
0.000776241 -0.000235946 -0.000231555 -9.9297e-05
0.000386756 -0.000119267 -0.000114638 -0.000105888
0.000382815 -0.000118017 -0.000113485 -0.000105884
0.00114588 -0.000346416 -0.000342627 -8.82814e-05
0.00115787 -0.000350068 -0.0003462 -8.82849e-05
0.000384786 -0.000118642 -0.000114062 -0.000105886
0.000764296 -0.000232268 -0.000228012 -9.92914e-05
0.00115187 -0.000348242 -0.000344414 -8.82831e-05
0.00077226 -0.00023472 -0.000230374 -9.92951e-05
0.000768278 -0.000233494 -0.000229193 -9.92933e-05
0.000382815 -0.000118017 -0.000113485 -0.000105884
0.000378872 -0.000116767 -0.000112331 -0.00010588
0.00113389 -0.000342764 -0.000339055 -8.82778e-05
0.00114588 -0.000346416 -0.000342627 -8.82814e-05
0.000380844 -0.000117392 -0.000112908 -0.000105882
0.000756332 -0.000229816 -0.00022565 -9.92876e-05
0.00113989 -0.00034459 -0.000340841 -8.82796e-05
0.000764296 -0.000232268 -0.000228012 -9.92914e-05
0.000760314 -0.000231041 -0.000226831 -9.92895e-05
0.000378872 -0.000116767 -0.000112331 -0.00010588
0.000374929 -0.000115519 -0.000111176 -0.000105877
0.0011219 -0.000339112 -0.000335482 -8.82743e-05
0.00113389 -0.000342764 -0.000339055 -8.82778e-05
0.000376901 -0.000116143 -0.000111753 -0.000105878
0.000748367 -0.000227364 -0.000223287 -9.92839e-05
0.0011279 -0.000340938 -0.000337269 -8.8276e-05
0.000756332 -0.000229816 -0.00022565 -9.92876e-05
0.00075235 -0.00022859 -0.000224469 -9.92858e-05
0.000374929 -0.000115519 -0.000111176 -0.000105877
0.000370986 -0.00011427 -0.000110021 -0.000105873
0.00110991 -0.000335461 -0.000331909 -8.82707e-05
0.0011219 -0.000339112 -0.000335482 -8.82743e-05
0.000372957 -0.000114894 -0.000110599 -0.000105875
0.000740402 -0.000224913 -0.000220924 -9.92802e-05
0.00111591 -0.000337286 -0.000333696 -8.82725e-05
0.000748367 -0.000227364 -0.000223287 -9.92839e-05
0.000744385 -0.000226139 -0.000222106 -9.92821e-05
0.000370986 -0.00011427 -0.000110021 -0.000105873
0.000367041 -0.000113022 -0.000108865 -0.000105869
0.00109793 -0.00033181 -0.000328335 -8.82672e-05
0.00110991 -0.000335461 -0.000331909 -8.82707e-05
0.000369013 -0.000113646 -0.000109443 -0.000105871
0.000732437 -0.000222463 -0.00021856 -9.92765e-05
0.00110392 -0.000333635 -0.000330122 -8.8269e-05
0.000740402 -0.000224913 -0.000220924 -9.92802e-05
0.00073642 -0.000223688 -0.000219742 -9.92784e-05
0.000367041 -0.000113022 -0.000108865 -0.000105869
0.000363096 -0.000111775 -0.000107709 -0.000105866
0.00108594 -0.00032816 -0.000324761 -8.82637e-05
0.00109793 -0.00033181 -0.000328335 -8.82672e-05
0.000365069 -0.000112398 -0.000108287 -0.000105867
0.00072447 -0.000220013 -0.000216196 -9.92728e-05
0.00109193 -0.000329985 -0.000326548 -8.82654e-05
0.000732437 -0.000222463 -0.00021856 -9.92765e-05
0.000728454 -0.000221238 -0.000217378 -9.92747e-05
0.000363096 -0.000111775 -0.000107709 -0.000105866
0.00035915 -0.000110528 -0.000106553 -0.000105862
0.00107395 -0.00032451 -0.000321187 -8.82602e-05
0.00108594 -0.00032816 -0.000324761 -8.82637e-05
0.000361123 -0.000111151 -0.000107131 -0.000105864
0.000716504 -0.000217564 -0.000213831 -9.92692e-05
0.00107994 -0.000326335 -0.000322974 -8.82619e-05
0.00072447 -0.000220013 -0.000216196 -9.92728e-05
0.000720487 -0.000218788 -0.000215014 -9.9271e-05
0.00035915 -0.000110528 -0.000106553 -0.000105862
0.000355204 -0.000109281 -0.000105395 -0.000105858
0.00106196 -0.000320861 -0.000317613 -8.82567e-05
0.00107395 -0.00032451 -0.000321187 -8.82602e-05
0.000357177 -0.000109904 -0.000105974 -0.00010586
0.000708537 -0.000215115 -0.000211466 -9.92655e-05
0.00106795 -0.000322685 -0.0003194 -8.82585e-05
0.000716504 -0.000217564 -0.000213831 -9.92692e-05
0.00071252 -0.000216339 -0.000212649 -9.92673e-05
0.000355204 -0.000109281 -0.000105395 -0.000105858
0.000351257 -0.000108035 -0.000104238 -0.000105855
0.00104997 -0.000317212 -0.000314038 -8.82533e-05
0.00106196 -0.000320861 -0.000317613 -8.82567e-05
0.00035323 -0.000108658 -0.000104817 -0.000105857
0.000700569 -0.000212667 -0.000209101 -9.92619e-05
0.00105596 -0.000319036 -0.000315825 -8.8255e-05
0.000708537 -0.000215115 -0.000211466 -9.92655e-05
0.000704553 -0.000213891 -0.000210284 -9.92637e-05
0.000351257 -0.000108035 -0.000104238 -0.000105855
0.000347309 -0.00010679 -0.00010308 -0.000105851
0.00103798 -0.000313564 -0.000310462 -8.82498e-05
0.00104997 -0.000317212 -0.000314038 -8.82533e-05
0.000349283 -0.000107413 -0.000103659 -0.000105853
0.000692601 -0.000210219 -0.000206735 -9.92583e-05
0.00104397 -0.000315388 -0.00031225 -8.82515e-05
0.000700569 -0.000212667 -0.000209101 -9.92619e-05
0.000696585 -0.000211443 -0.000207918 -9.92601e-05
0.000347309 -0.00010679 -0.00010308 -0.000105851
0.00034336 -0.000105545 -0.000101921 -0.000105848
0.00102598 -0.000309916 -0.000306887 -8.82464e-05
0.00103798 -0.000313564 -0.000310462 -8.82498e-05
0.000345335 -0.000106167 -0.0001025 -0.000105849
0.000684632 -0.000207771 -0.000204369 -9.92547e-05
0.00103198 -0.00031174 -0.000308675 -8.82481e-05
0.000692601 -0.000210219 -0.000206735 -9.92583e-05
0.000688616 -0.000208995 -0.000205552 -9.92565e-05
0.00034336 -0.000105545 -0.000101921 -0.000105848
0.000339411 -0.000104301 -0.000100762 -0.000105844
0.00101399 -0.000306269 -0.000303311 -8.8243e-05
0.00102598 -0.000309916 -0.000306887 -8.82464e-05
0.000341386 -0.000104923 -0.000101341 -0.000105846
0.000676662 -0.000205325 -0.000202002 -9.92511e-05
0.00101999 -0.000308092 -0.000305099 -8.82447e-05
0.000684632 -0.000207771 -0.000204369 -9.92547e-05
0.000680647 -0.000206548 -0.000203185 -9.92529e-05
0.000339411 -0.000104301 -0.000100762 -0.000105844
0.000335461 -0.000103057 -9.9602e-05 -0.000105841
0.001002 -0.000302622 -0.000299734 -8.82396e-05
0.00101399 -0.000306269 -0.000303311 -8.8243e-05
0.000337436 -0.000103679 -0.000100182 -0.000105842
0.000668693 -0.000202878 -0.000199635 -9.92476e-05
0.001008 -0.000304445 -0.000301522 -8.82413e-05
0.000676662 -0.000205325 -0.000202002 -9.92511e-05
0.000672678 -0.000204101 -0.000200818 -9.92493e-05
0.000335461 -0.000103057 -9.9602e-05 -0.000105841
0.000331511 -0.000101813 -9.84418e-05 -0.000105837
0.00099001 -0.000298976 -0.000296158 -8.82362e-05
0.001002 -0.000302622 -0.000299734 -8.82396e-05
0.000333486 -0.000102435 -9.9022e-05 -0.000105839
0.000660722 -0.000200433 -0.000197267 -9.9244e-05
0.000996006 -0.000300799 -0.000297946 -8.82379e-05
0.000668693 -0.000202878 -0.000199635 -9.92476e-05
0.000664707 -0.000201655 -0.000198451 -9.92458e-05
0.000331511 -0.000101813 -9.84418e-05 -0.000105837
0.00032756 -0.00010057 -9.72811e-05 -0.000105834
0.000978017 -0.00029533 -0.00029258 -8.82329e-05
0.00099001 -0.000298976 -0.000296158 -8.82362e-05
0.000329535 -0.000101192 -9.78615e-05 -0.000105835
0.000652751 -0.000197987 -0.000194899 -9.92405e-05
0.000984014 -0.000297153 -0.000294369 -8.82345e-05
0.000660722 -0.000200433 -0.000197267 -9.9244e-05
0.000656737 -0.00019921 -0.000196083 -9.92423e-05
0.00032756 -0.00010057 -9.72811e-05 -0.000105834
0.000323608 -9.93279e-05 -9.61199e-05 -0.00010583
0.000966025 -0.000291685 -0.000289003 -8.82295e-05
0.000978017 -0.00029533 -0.00029258 -8.82329e-05
0.000325584 -9.99491e-05 -9.67006e-05 -0.000105832
0.00064478 -0.000195542 -0.00019253 -9.9237e-05
0.000972021 -0.000293507 -0.000290792 -8.82312e-05
0.000652751 -0.000197987 -0.000194899 -9.92405e-05
0.000648766 -0.000196765 -0.000193715 -9.92388e-05
0.000323608 -9.93279e-05 -9.61199e-05 -0.00010583
0.000319655 -9.8086e-05 -9.49582e-05 -0.000105827
0.000954032 -0.00028804 -0.000285425 -8.82262e-05
0.000966025 -0.000291685 -0.000289003 -8.82295e-05
0.000321631 -9.87069e-05 -9.55391e-05 -0.000105829
0.000636808 -0.000193098 -0.000190161 -9.92336e-05
0.000960028 -0.000289862 -0.000287214 -8.82279e-05
0.00064478 -0.000195542 -0.00019253 -9.9237e-05
0.000640794 -0.00019432 -0.000191346 -9.92353e-05
0.000319655 -9.8086e-05 -9.49582e-05 -0.000105827
0.000315702 -9.68446e-05 -9.37959e-05 -0.000105823
0.000942038 -0.000284395 -0.000281847 -8.82229e-05
0.000954032 -0.00028804 -0.000285425 -8.82262e-05
0.000317678 -9.74652e-05 -9.43771e-05 -0.000105825
0.000628835 -0.000190654 -0.000187792 -9.92301e-05
0.000948035 -0.000286217 -0.000283636 -8.82246e-05
0.000636808 -0.000193098 -0.000190161 -9.92336e-05
0.000632822 -0.000191876 -0.000188977 -9.92319e-05
0.000315702 -9.68446e-05 -9.37959e-05 -0.000105823
0.000311748 -9.56037e-05 -9.26332e-05 -0.00010582
0.000930044 -0.000280751 -0.000278268 -8.82196e-05
0.000942038 -0.000284395 -0.000281847 -8.82229e-05
0.000313725 -9.62241e-05 -9.32146e-05 -0.000105822
0.000620862 -0.000188211 -0.000185422 -9.92267e-05
0.000936041 -0.000282573 -0.000280058 -8.82213e-05
0.000628835 -0.000190654 -0.000187792 -9.92301e-05
0.000624849 -0.000189433 -0.000186607 -9.92284e-05
0.000311748 -9.56037e-05 -9.26332e-05 -0.00010582
0.000307793 -9.43633e-05 -9.14699e-05 -0.000105817
0.00091805 -0.000277108 -0.000274689 -8.82164e-05
0.000930044 -0.000280751 -0.000278268 -8.82196e-05
0.000309771 -9.49834e-05 -9.20516e-05 -0.000105818
0.000612889 -0.000185768 -0.000183052 -9.92233e-05
0.000924047 -0.00027893 -0.000276479 -8.8218e-05
0.000620862 -0.000188211 -0.000185422 -9.92267e-05
0.000616876 -0.00018699 -0.000184237 -9.9225e-05
0.000307793 -9.43633e-05 -9.14699e-05 -0.000105817
0.000303838 -9.31234e-05 -9.03062e-05 -0.000105813
0.000906055 -0.000273465 -0.00027111 -8.82132e-05
0.00091805 -0.000277108 -0.000274689 -8.82164e-05
0.000305815 -9.37432e-05 -9.08881e-05 -0.000105815
0.000604915 -0.000183326 -0.000180681 -9.922e-05
0.000912053 -0.000275286 -0.0002729 -8.82148e-05
0.000612889 -0.000185768 -0.000183052 -9.92233e-05
0.000608902 -0.000184547 -0.000181866 -9.92217e-05
0.000303838 -9.31234e-05 -9.03062e-05 -0.000105813
0.000299882 -9.18839e-05 -8.91419e-05 -0.00010581
0.00089406 -0.000269823 -0.000267531 -8.821e-05
0.000906055 -0.000273465 -0.00027111 -8.82132e-05
0.00030186 -9.25036e-05 -8.97241e-05 -0.000105812
0.00059694 -0.000180884 -0.00017831 -9.92166e-05
0.000900058 -0.000271644 -0.00026932 -8.82116e-05
0.000604915 -0.000183326 -0.000180681 -9.922e-05
0.000600927 -0.000182105 -0.000179495 -9.92183e-05
0.000299882 -9.18839e-05 -8.91419e-05 -0.00010581
0.000295925 -9.0645e-05 -8.79771e-05 -0.000105807
0.000882065 -0.000266181 -0.00026395 -8.82068e-05
0.00089406 -0.000269823 -0.000267531 -8.821e-05
0.000297903 -9.12644e-05 -8.85595e-05 -0.000105809
0.000588965 -0.000178443 -0.000175938 -9.92133e-05
0.000888063 -0.000268002 -0.000265741 -8.82084e-05
0.00059694 -0.000180884 -0.00017831 -9.92166e-05
0.000592952 -0.000179664 -0.000177124 -9.9215e-05
0.000295925 -9.0645e-05 -8.79771e-05 -0.000105807
0.000291967 -8.94066e-05 -8.68118e-05 -0.000105804
0.000870069 -0.000262539 -0.00026037 -8.82036e-05
0.000882065 -0.000266181 -0.00026395 -8.82068e-05
0.000293946 -9.00258e-05 -8.73945e-05 -0.000105805
0.000580989 -0.000176002 -0.000173566 -9.921e-05
0.000876067 -0.00026436 -0.00026216 -8.82052e-05
0.000588965 -0.000178443 -0.000175938 -9.92133e-05
0.000584977 -0.000177223 -0.000174752 -9.92117e-05
0.000291967 -8.94066e-05 -8.68118e-05 -0.000105804
0.000288009 -8.81687e-05 -8.5646e-05 -0.0001058
0.000858073 -0.000258898 -0.000256789 -8.82005e-05
0.000870069 -0.000262539 -0.00026037 -8.82036e-05
0.000289988 -8.87876e-05 -8.62289e-05 -0.000105802
0.000573013 -0.000173562 -0.000171193 -9.92068e-05
0.000864071 -0.000260719 -0.00025858 -8.8202e-05
0.000580989 -0.000176002 -0.000173566 -9.921e-05
0.000577001 -0.000174782 -0.00017238 -9.92084e-05
0.000288009 -8.81687e-05 -8.5646e-05 -0.0001058
0.00028405 -8.69313e-05 -8.44796e-05 -0.000105797
0.000846077 -0.000255258 -0.000253208 -8.81974e-05
0.000858073 -0.000258898 -0.000256789 -8.82005e-05
0.00028603 -8.75499e-05 -8.50629e-05 -0.000105799
0.000565036 -0.000171122 -0.00016882 -9.92035e-05
0.000852075 -0.000257078 -0.000254999 -8.81989e-05
0.000573013 -0.000173562 -0.000171193 -9.92068e-05
0.000569024 -0.000172342 -0.000170007 -9.92051e-05
0.00028405 -8.69313e-05 -8.44796e-05 -0.000105797
0.000280091 -8.56944e-05 -8.33128e-05 -0.000105794
0.00083408 -0.000251618 -0.000249627 -8.81943e-05
0.000846077 -0.000255258 -0.000253208 -8.81974e-05
0.000282071 -8.63128e-05 -8.38963e-05 -0.000105796
0.000557058 -0.000168683 -0.000166447 -9.92003e-05
0.000840079 -0.000253438 -0.000251418 -8.81958e-05
0.000565036 -0.000171122 -0.00016882 -9.92035e-05
0.000561047 -0.000169902 -0.000167633 -9.92019e-05
0.000280091 -8.56944e-05 -8.33128e-05 -0.000105794
0.000276131 -8.44579e-05 -8.21454e-05 -0.000105791
0.000822083 -0.000247978 -0.000246045 -8.81912e-05
0.00083408 -0.000251618 -0.000249627 -8.81943e-05
0.000278111 -8.50761e-05 -8.27292e-05 -0.000105793
0.00054908 -0.000166244 -0.000164073 -9.91971e-05
0.000828081 -0.000249798 -0.000247836 -8.81927e-05
0.000557058 -0.000168683 -0.000166447 -9.92003e-05
0.000553069 -0.000167463 -0.00016526 -9.91987e-05
0.000276131 -8.44579e-05 -8.21454e-05 -0.000105791
0.00027217 -8.3222e-05 -8.09776e-05 -0.000105788
0.000810085 -0.000244339 -0.000242463 -8.81882e-05
0.000822083 -0.000247978 -0.000246045 -8.81912e-05
0.00027415 -8.38399e-05 -8.15616e-05 -0.00010579
0.000541102 -0.000163806 -0.000161698 -9.9194e-05
0.000816084 -0.000246158 -0.000244254 -8.81897e-05
0.00054908 -0.000166244 -0.000164073 -9.91971e-05
0.000545091 -0.000165025 -0.000162886 -9.91955e-05
0.00027217 -8.3222e-05 -8.09776e-05 -0.000105788
0.000268208 -8.19866e-05 -7.98092e-05 -0.000105785
0.000798087 -0.0002407 -0.00023888 -8.81852e-05
0.000810085 -0.000244339 -0.000242463 -8.81882e-05
0.000270189 -8.26042e-05 -8.03935e-05 -0.000105786
0.000533123 -0.000161368 -0.000159323 -9.91909e-05
0.000804086 -0.000242519 -0.000240671 -8.81867e-05
0.000541102 -0.000163806 -0.000161698 -9.9194e-05
0.000537112 -0.000162587 -0.000160511 -9.91924e-05
0.000268208 -8.19866e-05 -7.98092e-05 -0.000105785
0.000264246 -8.07517e-05 -7.86403e-05 -0.000105782
0.000786089 -0.000237062 -0.000235297 -8.81822e-05
0.000798087 -0.0002407 -0.00023888 -8.81852e-05
0.000266227 -8.13691e-05 -7.92248e-05 -0.000105783
0.000525143 -0.000158931 -0.000156948 -9.91878e-05
0.000792088 -0.000238881 -0.000237089 -8.81837e-05
0.000533123 -0.000161368 -0.000159323 -9.91909e-05
0.000529133 -0.000160149 -0.000158136 -9.91893e-05
0.000264246 -8.07517e-05 -7.86403e-05 -0.000105782
0.000260283 -7.95172e-05 -7.74709e-05 -0.000105779
0.00077409 -0.000233424 -0.000231714 -8.81792e-05
0.000786089 -0.000237062 -0.000235297 -8.81822e-05
0.000262264 -8.01344e-05 -7.80557e-05 -0.00010578
0.000517163 -0.000156494 -0.000154572 -9.91847e-05
0.000780089 -0.000235243 -0.000233505 -8.81807e-05
0.000525143 -0.000158931 -0.000156948 -9.91878e-05
0.000521153 -0.000157712 -0.00015576 -9.91862e-05
0.000260283 -7.95172e-05 -7.74709e-05 -0.000105779
0.000256319 -7.82833e-05 -7.6301e-05 -0.000105776
0.000762091 -0.000229787 -0.00022813 -8.81763e-05
0.00077409 -0.000233424 -0.000231714 -8.81792e-05
0.000258301 -7.89002e-05 -7.6886e-05 -0.000105777
0.000509182 -0.000154058 -0.000152196 -9.91817e-05
0.00076809 -0.000231606 -0.000229922 -8.81777e-05
0.000517163 -0.000156494 -0.000154572 -9.91847e-05
0.000513173 -0.000155276 -0.000153384 -9.91832e-05
0.000256319 -7.82833e-05 -7.6301e-05 -0.000105776
0.000252354 -7.70498e-05 -7.51306e-05 -0.000105773
0.000750091 -0.00022615 -0.000224546 -8.81734e-05
0.000762091 -0.000229787 -0.00022813 -8.81763e-05
0.000254337 -7.76665e-05 -7.57158e-05 -0.000105775
0.000501201 -0.000151622 -0.00014982 -9.91787e-05
0.000756091 -0.000227969 -0.000226338 -8.81748e-05
0.000509182 -0.000154058 -0.000152196 -9.91817e-05
0.000505192 -0.00015284 -0.000151008 -9.91802e-05
0.000252354 -7.70498e-05 -7.51306e-05 -0.000105773
0.000248389 -7.58169e-05 -7.39596e-05 -0.00010577
0.000738091 -0.000222514 -0.000220961 -8.81705e-05
0.000750091 -0.00022615 -0.000224546 -8.81734e-05
0.000250372 -7.64333e-05 -7.45451e-05 -0.000105772
0.000493219 -0.000149186 -0.000147442 -9.91757e-05
0.000744091 -0.000224332 -0.000222754 -8.81719e-05
0.000501201 -0.000151622 -0.00014982 -9.91787e-05
0.00049721 -0.000150404 -0.000148631 -9.91772e-05
0.000248389 -7.58169e-05 -7.39596e-05 -0.00010577
0.000244423 -7.45844e-05 -7.27881e-05 -0.000105767
0.00072609 -0.000218878 -0.000217377 -8.81676e-05
0.000738091 -0.000222514 -0.000220961 -8.81705e-05
0.000246406 -7.52006e-05 -7.33739e-05 -0.000105769
0.000485236 -0.000146752 -0.000145065 -9.91727e-05
0.000732091 -0.000220696 -0.000219169 -8.81691e-05
0.000493219 -0.000149186 -0.000147442 -9.91757e-05
0.000489228 -0.000147969 -0.000146254 -9.91742e-05
0.000244423 -7.45844e-05 -7.27881e-05 -0.000105767
0.000240457 -7.33525e-05 -7.16162e-05 -0.000105764
0.000714089 -0.000215243 -0.000213791 -8.81648e-05
0.00072609 -0.000218878 -0.000217377 -8.81676e-05
0.00024244 -7.39684e-05 -7.22022e-05 -0.000105766
0.000477253 -0.000144317 -0.000142687 -9.91698e-05
0.00072009 -0.00021706 -0.000215584 -8.81662e-05
0.000485236 -0.000146752 -0.000145065 -9.91727e-05
0.000481245 -0.000145534 -0.000143876 -9.91713e-05
0.000240457 -7.33525e-05 -7.16162e-05 -0.000105764
0.00023649 -7.2121e-05 -7.04437e-05 -0.000105762
0.000702088 -0.000211608 -0.000210206 -8.8162e-05
0.000714089 -0.000215243 -0.000213791 -8.81648e-05
0.000238473 -7.27367e-05 -7.103e-05 -0.000105763
0.00046927 -0.000141883 -0.000140308 -9.9167e-05
0.000708089 -0.000213425 -0.000211999 -8.81634e-05
0.000477253 -0.000144317 -0.000142687 -9.91698e-05
0.000473261 -0.0001431 -0.000141498 -9.91684e-05
0.00023649 -7.2121e-05 -7.04437e-05 -0.000105762
0.000232522 -7.089e-05 -6.92706e-05 -0.000105759
0.000690086 -0.000207973 -0.00020662 -8.81593e-05
0.000702088 -0.000211608 -0.000210206 -8.8162e-05
0.000234506 -7.15054e-05 -6.98572e-05 -0.00010576
0.000461285 -0.00013945 -0.000137929 -9.91641e-05
0.000696087 -0.000209791 -0.000208413 -8.81606e-05
0.00046927 -0.000141883 -0.000140308 -9.9167e-05
0.000465278 -0.000140667 -0.000139119 -9.91655e-05
0.000232522 -7.089e-05 -6.92706e-05 -0.000105759
0.000228553 -6.96595e-05 -6.80971e-05 -0.000105756
0.000678084 -0.000204339 -0.000203033 -8.81565e-05
0.000690086 -0.000207973 -0.00020662 -8.81593e-05
0.000230537 -7.02747e-05 -6.86839e-05 -0.000105758
0.0004533 -0.000137017 -0.00013555 -9.91613e-05
0.000684085 -0.000206156 -0.000204827 -8.81579e-05
0.000461285 -0.00013945 -0.000137929 -9.91641e-05
0.000457293 -0.000138234 -0.00013674 -9.91627e-05
0.000228553 -6.96595e-05 -6.80971e-05 -0.000105756
0.000224583 -6.84295e-05 -6.69231e-05 -0.000105754
0.000666081 -0.000200706 -0.000199447 -8.81538e-05
0.000678084 -0.000204339 -0.000203033 -8.81565e-05
0.000226568 -6.90445e-05 -6.75102e-05 -0.000105755
0.000445315 -0.000134585 -0.00013317 -9.91585e-05
0.000672083 -0.000202523 -0.00020124 -8.81552e-05
0.0004533 -0.000137017 -0.00013555 -9.91613e-05
0.000449308 -0.000135801 -0.00013436 -9.91599e-05
0.000224583 -6.84295e-05 -6.69231e-05 -0.000105754
0.000220613 -6.72e-05 -6.57485e-05 -0.000105751
0.000654078 -0.000197073 -0.000195859 -8.81512e-05
0.000666081 -0.000200706 -0.000199447 -8.81538e-05
0.000222598 -6.78147e-05 -6.63359e-05 -0.000105752
0.000437329 -0.000132153 -0.00013079 -9.91558e-05
0.00066008 -0.000198889 -0.000197653 -8.81525e-05
0.000445315 -0.000134585 -0.00013317 -9.91585e-05
0.000441322 -0.000133369 -0.00013198 -9.91571e-05
0.000220613 -6.72e-05 -6.57485e-05 -0.000105751
0.000216642 -6.5971e-05 -6.45734e-05 -0.000105748
0.000642075 -0.00019344 -0.000192272 -8.81485e-05
0.000654078 -0.000197073 -0.000195859 -8.81512e-05
0.000218628 -6.65855e-05 -6.5161e-05 -0.00010575
0.000429342 -0.000129721 -0.000128409 -9.91531e-05
0.000648076 -0.000195256 -0.000194066 -8.81498e-05
0.000437329 -0.000132153 -0.00013079 -9.91558e-05
0.000433336 -0.000130937 -0.000129599 -9.91544e-05
0.000216642 -6.5971e-05 -6.45734e-05 -0.000105748
0.000212671 -6.47425e-05 -6.33978e-05 -0.000105746
0.000630071 -0.000189808 -0.000188684 -8.81459e-05
0.000642075 -0.00019344 -0.000192272 -8.81485e-05
0.000214657 -6.53567e-05 -6.39857e-05 -0.000105747
0.000421355 -0.00012729 -0.000126028 -9.91504e-05
0.000636073 -0.000191624 -0.000190478 -8.81472e-05
0.000429342 -0.000129721 -0.000128409 -9.91531e-05
0.000425349 -0.000128506 -0.000127218 -9.91517e-05
0.000212671 -6.47425e-05 -6.33978e-05 -0.000105746
0.000208698 -6.35145e-05 -6.22217e-05 -0.000105743
0.000618066 -0.000186176 -0.000185096 -8.81433e-05
0.000630071 -0.000189808 -0.000188684 -8.81459e-05
0.000210685 -6.41284e-05 -6.28098e-05 -0.000105744
0.000413367 -0.00012486 -0.000123646 -9.91477e-05
0.000624068 -0.000187992 -0.00018689 -8.81446e-05
0.000421355 -0.00012729 -0.000126028 -9.91504e-05
0.000417361 -0.000126075 -0.000124837 -9.91491e-05
0.000208698 -6.35145e-05 -6.22217e-05 -0.000105743
0.000204725 -6.22869e-05 -6.10451e-05 -0.000105741
0.000606061 -0.000182545 -0.000181507 -8.81408e-05
0.000618066 -0.000186176 -0.000185096 -8.81433e-05
0.000206712 -6.29007e-05 -6.16335e-05 -0.000105742
0.000405379 -0.00012243 -0.000121264 -9.91451e-05
0.000612064 -0.000184361 -0.000183301 -8.8142e-05
0.000413367 -0.00012486 -0.000123646 -9.91477e-05
0.000409373 -0.000123645 -0.000122455 -9.91464e-05
0.000204725 -6.22869e-05 -6.10451e-05 -0.000105741
0.000200752 -6.10599e-05 -5.98679e-05 -0.000105738
0.000594056 -0.000178914 -0.000177918 -8.81382e-05
0.000606061 -0.000182545 -0.000181507 -8.81408e-05
0.000202739 -6.16734e-05 -6.04566e-05 -0.000105739
0.00039739 -0.000120001 -0.000118881 -9.91426e-05
0.000600059 -0.000180729 -0.000179712 -8.81395e-05
0.000405379 -0.00012243 -0.000121264 -9.91451e-05
0.000401385 -0.000121215 -0.000120073 -9.91439e-05
0.000200752 -6.10599e-05 -5.98679e-05 -0.000105738
0.000196777 -5.98333e-05 -5.86902e-05 -0.000105736
0.00058205 -0.000175284 -0.000174328 -8.81358e-05
0.000594056 -0.000178914 -0.000177918 -8.81382e-05
0.000198765 -6.04466e-05 -5.92791e-05 -0.000105737
0.0003894 -0.000117572 -0.000116498 -9.914e-05
0.000588053 -0.000177099 -0.000176123 -8.8137e-05
0.00039739 -0.000120001 -0.000118881 -9.91426e-05
0.000393395 -0.000118786 -0.00011769 -9.91413e-05
0.000196777 -5.98333e-05 -5.86902e-05 -0.000105736
0.000192802 -5.86073e-05 -5.75121e-05 -0.000105733
0.000570044 -0.000171654 -0.000170738 -8.81333e-05
0.00058205 -0.000175284 -0.000174328 -8.81358e-05
0.00019479 -5.92202e-05 -5.81012e-05 -0.000105735
0.00038141 -0.000115143 -0.000114114 -9.91375e-05
0.000576047 -0.000173469 -0.000172533 -8.81345e-05
0.0003894 -0.000117572 -0.000116498 -9.914e-05
0.000385405 -0.000116357 -0.000115306 -9.91388e-05
0.000192802 -5.86073e-05 -5.75121e-05 -0.000105733
0.000188826 -5.73817e-05 -5.63333e-05 -0.000105731
0.000558037 -0.000168024 -0.000167148 -8.81309e-05
0.000570044 -0.000171654 -0.000170738 -8.81333e-05
0.000190814 -5.79944e-05 -5.69228e-05 -0.000105732
0.000373419 -0.000112715 -0.00011173 -9.91351e-05
0.00056404 -0.000169839 -0.000168943 -8.81321e-05
0.00038141 -0.000115143 -0.000114114 -9.91375e-05
0.000377415 -0.000113929 -0.000112923 -9.91363e-05
0.000188826 -5.73817e-05 -5.63333e-05 -0.000105731
0.000184849 -5.61566e-05 -5.51541e-05 -0.000105729
0.00054603 -0.000164395 -0.000163558 -8.81285e-05
0.000558037 -0.000168024 -0.000167148 -8.81309e-05
0.000186838 -5.67691e-05 -5.57438e-05 -0.00010573
0.000365428 -0.000110287 -0.000109346 -9.91327e-05
0.000552033 -0.00016621 -0.000165353 -8.81297e-05
0.000373419 -0.000112715 -0.00011173 -9.91351e-05
0.000369424 -0.000111501 -0.000110538 -9.91339e-05
0.000184849 -5.61566e-05 -5.51541e-05 -0.000105729
0.000180872 -5.4932e-05 -5.39743e-05 -0.000105727
0.000534022 -0.000160767 -0.000159966 -8.81261e-05
0.00054603 -0.000164395 -0.000163558 -8.81285e-05
0.000182861 -5.55442e-05 -5.45643e-05 -0.000105728
0.000357436 -0.00010786 -0.000106961 -9.91303e-05
0.000540026 -0.000162581 -0.000161762 -8.81273e-05
0.000365428 -0.000110287 -0.000109346 -9.91327e-05
0.000361432 -0.000109074 -0.000108153 -9.91315e-05
0.000180872 -5.4932e-05 -5.39743e-05 -0.000105727
0.000176894 -5.37078e-05 -5.27941e-05 -0.000105724
0.000522013 -0.000157139 -0.000156375 -8.81238e-05
0.000534022 -0.000160767 -0.000159966 -8.81261e-05
0.000178883 -5.43198e-05 -5.33843e-05 -0.000105725
0.000349443 -0.000105434 -0.000104575 -9.91279e-05
0.000528018 -0.000158953 -0.000158171 -8.8125e-05
0.000357436 -0.00010786 -0.000106961 -9.91303e-05
0.000353439 -0.000106647 -0.000105768 -9.91291e-05
0.000176894 -5.37078e-05 -5.27941e-05 -0.000105724
0.000172915 -5.24842e-05 -5.16133e-05 -0.000105722
0.000510005 -0.000153511 -0.000152783 -8.81215e-05
0.000522013 -0.000157139 -0.000156375 -8.81238e-05
0.000174905 -5.3096e-05 -5.22037e-05 -0.000105723
0.00034145 -0.000103007 -0.00010219 -9.91256e-05
0.000516009 -0.000155325 -0.000154579 -8.81227e-05
0.000349443 -0.000105434 -0.000104575 -9.91279e-05
0.000345446 -0.00010422 -0.000103383 -9.91268e-05
0.000172915 -5.24842e-05 -5.16133e-05 -0.000105722
0.000168936 -5.1261e-05 -5.04319e-05 -0.00010572
0.000497995 -0.000149884 -0.000149191 -8.81193e-05
0.000510005 -0.000153511 -0.000152783 -8.81215e-05
0.000170925 -5.18726e-05 -5.10227e-05 -0.000105721
0.000333456 -0.000100582 -9.98031e-05 -9.91233e-05
0.000504 -0.000151697 -0.000150987 -8.81204e-05
0.00034145 -0.000103007 -0.00010219 -9.91256e-05
0.000337453 -0.000101795 -0.000100996 -9.91245e-05
0.000168936 -5.1261e-05 -5.04319e-05 -0.00010572
0.000164955 -5.00384e-05 -4.92501e-05 -0.000105718
0.000485986 -0.000146257 -0.000145598 -8.8117e-05
0.000497995 -0.000149884 -0.000149191 -8.81193e-05
0.000166945 -5.06496e-05 -4.98411e-05 -0.000105719
0.000325461 -9.81565e-05 -9.74163e-05 -9.91211e-05
0.000491991 -0.00014807 -0.000147395 -8.81181e-05
0.000333456 -0.000100582 -9.98031e-05 -9.91233e-05
0.000329459 -9.93691e-05 -9.86098e-05 -9.91222e-05
0.000164955 -5.00384e-05 -4.92501e-05 -0.000105718
0.000160974 -4.88162e-05 -4.80677e-05 -0.000105716
0.000473975 -0.00014263 -0.000142005 -8.81148e-05
0.000485986 -0.000146257 -0.000145598 -8.8117e-05
0.000162965 -4.94272e-05 -4.8659e-05 -0.000105717
0.000317466 -9.57318e-05 -9.50289e-05 -9.91189e-05
0.000479981 -0.000144443 -0.000143802 -8.81159e-05
0.000325461 -9.81565e-05 -9.74163e-05 -9.91211e-05
0.000321464 -9.69441e-05 -9.62227e-05 -9.912e-05
0.000160974 -4.88162e-05 -4.80677e-05 -0.000105716
0.000156992 -4.75945e-05 -4.68848e-05 -0.000105714
0.000461965 -0.000139004 -0.000138412 -8.81127e-05
0.000473975 -0.00014263 -0.000142005 -8.81148e-05
0.000158983 -4.82053e-05 -4.74763e-05 -0.000105715
0.00030947 -9.33075e-05 -9.26411e-05 -9.91167e-05
0.00046797 -0.000140817 -0.000140208 -8.81138e-05
0.000317466 -9.57318e-05 -9.50289e-05 -9.91189e-05
0.000313468 -9.45196e-05 -9.38351e-05 -9.91178e-05
0.000156992 -4.75945e-05 -4.68848e-05 -0.000105714
0.00015301 -4.63733e-05 -4.57014e-05 -0.000105712
0.000449953 -0.000135379 -0.000134818 -8.81106e-05
0.000461965 -0.000139004 -0.000138412 -8.81127e-05
0.000155001 -4.69838e-05 -4.62932e-05 -0.000105713
0.000301474 -9.08837e-05 -9.02528e-05 -9.91146e-05
0.000455959 -0.000137191 -0.000136615 -8.81116e-05
0.00030947 -9.33075e-05 -9.26411e-05 -9.91167e-05
0.000305472 -9.20956e-05 -9.1447e-05 -9.91157e-05
0.00015301 -4.63733e-05 -4.57014e-05 -0.000105712
0.000149027 -4.51525e-05 -4.45175e-05 -0.00010571
0.000437941 -0.000131754 -0.000131223 -8.81085e-05
0.000449953 -0.000135379 -0.000134818 -8.81106e-05
0.000151018 -4.57628e-05 -4.51095e-05 -0.000105711
0.000293476 -8.84604e-05 -8.7864e-05 -9.91125e-05
0.000443947 -0.000133566 -0.000133021 -8.81095e-05
0.000301474 -9.08837e-05 -9.02528e-05 -9.91146e-05
0.000297475 -8.9672e-05 -8.90585e-05 -9.91136e-05
0.000149027 -4.51525e-05 -4.45175e-05 -0.00010571
0.000145043 -4.39323e-05 -4.3333e-05 -0.000105708
0.000425929 -0.000128129 -0.000127629 -8.81064e-05
0.000437941 -0.000131754 -0.000131223 -8.81085e-05
0.000147035 -4.45423e-05 -4.39253e-05 -0.000105709
0.000285479 -8.60375e-05 -8.54748e-05 -9.91105e-05
0.000431935 -0.000129941 -0.000129426 -8.81075e-05
0.000293476 -8.84604e-05 -8.7864e-05 -9.91125e-05
0.000289478 -8.72489e-05 -8.66694e-05 -9.91115e-05
0.000145043 -4.39323e-05 -4.3333e-05 -0.000105708
0.000141058 -4.27125e-05 -4.2148e-05 -0.000105706
0.000413916 -0.000124505 -0.000124033 -8.81044e-05
0.000425929 -0.000128129 -0.000127629 -8.81064e-05
0.00014305 -4.33223e-05 -4.27406e-05 -0.000105707
0.00027748 -8.36151e-05 -8.3085e-05 -9.91085e-05
0.000419923 -0.000126317 -0.000125831 -8.81054e-05
0.000285479 -8.60375e-05 -8.54748e-05 -9.91105e-05
0.000281479 -8.48263e-05 -8.428e-05 -9.91095e-05
0.000141058 -4.27125e-05 -4.2148e-05 -0.000105706
0.000137072 -4.14932e-05 -4.09625e-05 -0.000105704
0.000401903 -0.000120881 -0.000120438 -8.81025e-05
0.000413916 -0.000124505 -0.000124033 -8.81044e-05
0.000139065 -4.21028e-05 -4.15553e-05 -0.000105705
0.000269481 -8.11932e-05 -8.06948e-05 -9.91066e-05
0.000407909 -0.000122693 -0.000122236 -8.81034e-05
0.00027748 -8.36151e-05 -8.3085e-05 -9.91085e-05
0.000273481 -8.24041e-05 -8.189e-05 -9.91075e-05
0.000137072 -4.14932e-05 -4.09625e-05 -0.000105704
0.000133086 -4.02745e-05 -3.97764e-05 -0.000105703
0.000389889 -0.000117258 -0.000116842 -8.81005e-05
0.000401903 -0.000120881 -0.000120438 -8.81025e-05
0.000135079 -4.08838e-05 -4.03695e-05 -0.000105703
0.000261481 -7.87718e-05 -7.83041e-05 -9.91046e-05
0.000395896 -0.000119069 -0.00011864 -8.81015e-05
0.000269481 -8.11932e-05 -8.06948e-05 -9.91066e-05
0.000265481 -7.99824e-05 -7.94995e-05 -9.91056e-05
0.000133086 -4.02745e-05 -3.97764e-05 -0.000105703
0.000129099 -3.90562e-05 -3.85898e-05 -0.000105701
0.000377874 -0.000113635 -0.000113246 -8.80987e-05
0.000389889 -0.000117258 -0.000116842 -8.81005e-05
0.000131093 -3.96653e-05 -3.91832e-05 -0.000105702
0.000253481 -7.63508e-05 -7.59129e-05 -9.91028e-05
0.000383882 -0.000115446 -0.000115044 -8.80996e-05
0.000261481 -7.87718e-05 -7.83041e-05 -9.91046e-05
0.000257481 -7.75612e-05 -7.71086e-05 -9.91037e-05
0.000129099 -3.90562e-05 -3.85898e-05 -0.000105701
0.000125111 -3.78384e-05 -3.74027e-05 -0.000105699
0.000365859 -0.000110012 -0.000109649 -8.80968e-05
0.000377874 -0.000113635 -0.000113246 -8.80987e-05
0.000127105 -3.84472e-05 -3.79963e-05 -0.0001057
0.00024548 -7.39303e-05 -7.35213e-05 -9.9101e-05
0.000371867 -0.000111823 -0.000111447 -8.80977e-05
0.000253481 -7.63508e-05 -7.59129e-05 -9.91028e-05
0.000249481 -7.51405e-05 -7.47172e-05 -9.91019e-05
0.000125111 -3.78384e-05 -3.74027e-05 -0.000105699
0.000121123 -3.66211e-05 -3.62151e-05 -0.000105698
0.000353844 -0.00010639 -0.000106051 -8.80951e-05
0.000365859 -0.000110012 -0.000109649 -8.80968e-05
0.000123117 -3.72297e-05 -3.6809e-05 -0.000105698
0.000237478 -7.15103e-05 -7.11291e-05 -9.90992e-05
0.000359851 -0.000108201 -0.00010785 -8.80959e-05
0.00024548 -7.39303e-05 -7.35213e-05 -9.9101e-05
0.000241479 -7.27202e-05 -7.23252e-05 -9.91001e-05
0.000121123 -3.66211e-05 -3.62151e-05 -0.000105698
0.000117134 -3.54044e-05 -3.50269e-05 -0.000105696
0.000341827 -0.000102768 -0.000102454 -8.80934e-05
0.000353844 -0.00010639 -0.000106051 -8.80951e-05
0.000119129 -3.60127e-05 -3.56211e-05 -0.000105697
0.000229476 -6.90908e-05 -6.87365e-05 -9.90976e-05
0.000347836 -0.000104579 -0.000104253 -8.80942e-05
0.000237478 -7.15103e-05 -7.11291e-05 -9.90992e-05
0.000233477 -7.03005e-05 -6.99328e-05 -9.90984e-05
0.000117134 -3.54044e-05 -3.50269e-05 -0.000105696
0.000113144 -3.41882e-05 -3.38382e-05 -0.000105695
0.000329811 -9.91472e-05 -9.88558e-05 -8.80918e-05
0.000341827 -0.000102768 -0.000102454 -8.80934e-05
0.000115139 -3.47962e-05 -3.44326e-05 -0.000105695
0.000221473 -6.66718e-05 -6.63433e-05 -9.9096e-05
0.000335819 -0.000100958 -0.000100655 -8.80926e-05
0.000229476 -6.90908e-05 -6.87365e-05 -9.90976e-05
0.000225474 -6.78812e-05 -6.754e-05 -9.90968e-05
0.000113144 -3.41882e-05 -3.38382e-05 -0.000105695
0.000109153 -3.29725e-05 -3.2649e-05 -0.000105693
0.000317793 -9.55265e-05 -9.52572e-05 -8.80903e-05
0.000329811 -9.91472e-05 -9.88558e-05 -8.80918e-05
0.000111149 -3.35803e-05 -3.32437e-05 -0.000105694
0.000213469 -6.42533e-05 -6.39497e-05 -9.90945e-05
0.000323802 -9.73368e-05 -9.70565e-05 -8.8091e-05
0.000221473 -6.66718e-05 -6.63433e-05 -9.9096e-05
0.000217471 -6.54625e-05 -6.51466e-05 -9.90952e-05
0.000109153 -3.29725e-05 -3.2649e-05 -0.000105693
0.000105162 -3.17574e-05 -3.14593e-05 -0.000105692
0.000305776 -9.19063e-05 -9.16583e-05 -8.80889e-05
0.000317793 -9.55265e-05 -9.52572e-05 -8.80903e-05
0.000107158 -3.23649e-05 -3.20542e-05 -0.000105692
0.000205465 -6.18354e-05 -6.15556e-05 -9.9093e-05
0.000311785 -9.37164e-05 -9.34578e-05 -8.80895e-05
0.000213469 -6.42533e-05 -6.39497e-05 -9.90945e-05
0.000209467 -6.30443e-05 -6.27527e-05 -9.90937e-05
0.000105162 -3.17574e-05 -3.14593e-05 -0.000105692
0.000101171 -3.05428e-05 -3.0269e-05 -0.000105691
0.000293757 -8.82865e-05 -8.80589e-05 -8.80876e-05
0.000305776 -9.19063e-05 -9.16583e-05 -8.80889e-05
0.000103166 -3.11501e-05 -3.08642e-05 -0.000105691
0.000197461 -5.9418e-05 -5.91611e-05 -9.90917e-05
0.000299767 -9.00964e-05 -8.98587e-05 -8.80882e-05
0.000205465 -6.18354e-05 -6.15556e-05 -9.9093e-05
0.000201463 -6.06266e-05 -6.03584e-05 -9.90924e-05
0.000101171 -3.05428e-05 -3.0269e-05 -0.000105691
9.71781e-05 -2.93288e-05 -2.90783e-05 -0.000105689
0.000281739 -8.46672e-05 -8.44592e-05 -8.80864e-05
0.000293757 -8.82865e-05 -8.80589e-05 -8.80876e-05
9.91744e-05 -2.99358e-05 -2.96737e-05 -0.00010569
0.000189455 -5.70011e-05 -5.67661e-05 -9.90905e-05
0.000287748 -8.64768e-05 -8.62591e-05 -8.8087e-05
0.000197461 -5.9418e-05 -5.91611e-05 -9.90917e-05
0.000193458 -5.82095e-05 -5.79636e-05 -9.90911e-05
9.71781e-05 -2.93288e-05 -2.90783e-05 -0.000105689
9.31851e-05 -2.81152e-05 -2.78871e-05 -0.000105688
0.000269719 -8.10484e-05 -8.0859e-05 -8.80854e-05
0.000281739 -8.46672e-05 -8.44592e-05 -8.80864e-05
9.51817e-05 -2.8722e-05 -2.84827e-05 -0.000105689
0.000181449 -5.45846e-05 -5.43706e-05 -9.90893e-05
0.000275729 -8.28578e-05 -8.26591e-05 -8.80859e-05
0.000189455 -5.70011e-05 -5.67661e-05 -9.90905e-05
0.000185452 -5.57928e-05 -5.55684e-05 -9.90899e-05
9.31851e-05 -2.81152e-05 -2.78871e-05 -0.000105688
8.91916e-05 -2.6902e-05 -2.66955e-05 -0.000105687
0.0002577 -7.74299e-05 -7.72585e-05 -8.80844e-05
0.000269719 -8.10484e-05 -8.0859e-05 -8.80854e-05
9.11884e-05 -2.75086e-05 -2.72914e-05 -0.000105687
0.000173443 -5.21686e-05 -5.19748e-05 -9.90881e-05
0.00026371 -7.92391e-05 -7.90588e-05 -8.80849e-05
0.000181449 -5.45846e-05 -5.43706e-05 -9.90893e-05
0.000177446 -5.33766e-05 -5.31728e-05 -9.90887e-05
8.91916e-05 -2.6902e-05 -2.66955e-05 -0.000105687
8.51973e-05 -2.5689e-05 -2.55036e-05 -0.000105685
0.00024568 -7.38118e-05 -7.36577e-05 -8.80833e-05
0.0002577 -7.74299e-05 -7.72585e-05 -8.80844e-05
8.71945e-05 -2.62955e-05 -2.60996e-05 -0.000105686
0.000165436 -4.97528e-05 -4.95787e-05 -9.90867e-05
0.00025169 -7.56208e-05 -7.54581e-05 -8.80839e-05
0.000173443 -5.21686e-05 -5.19748e-05 -9.90881e-05
0.00016944 -5.09607e-05 -5.07768e-05 -9.90874e-05
8.51973e-05 -2.5689e-05 -2.55036e-05 -0.000105685
8.12022e-05 -2.44757e-05 -2.43114e-05 -0.000105684
0.000233659 -7.01937e-05 -7.00567e-05 -8.80819e-05
0.00024568 -7.38118e-05 -7.36577e-05 -8.80833e-05
8.31999e-05 -2.50824e-05 -2.49075e-05 -0.000105685
0.000157429 -4.73369e-05 -4.71823e-05 -9.90851e-05
0.00023967 -7.20027e-05 -7.18572e-05 -8.80827e-05
0.000165436 -4.97528e-05 -4.95787e-05 -9.90867e-05
0.000161433 -4.85449e-05 -4.83805e-05 -9.9086e-05
8.12022e-05 -2.44757e-05 -2.43114e-05 -0.000105684
7.72059e-05 -2.32616e-05 -2.3119e-05 -0.000105682
0.000221638 -6.65752e-05 -6.64557e-05 -8.80798e-05
0.000233659 -7.01937e-05 -7.00567e-05 -8.80819e-05
7.92043e-05 -2.38688e-05 -2.37152e-05 -0.000105683
0.000149421 -4.49204e-05 -4.47859e-05 -9.90828e-05
0.000227649 -6.83845e-05 -6.82562e-05 -8.8081e-05
0.000157429 -4.73369e-05 -4.71823e-05 -9.90851e-05
0.000153425 -4.61288e-05 -4.59841e-05 -9.9084e-05
7.72059e-05 -2.32616e-05 -2.3119e-05 -0.000105682
7.32078e-05 -2.20456e-05 -2.19267e-05 -0.000105679
0.000209617 -6.29556e-05 -6.28548e-05 -8.80764e-05
0.000221638 -6.65752e-05 -6.64557e-05 -8.80798e-05
7.52071e-05 -2.26539e-05 -2.25228e-05 -0.00010568
0.000141411 -4.25021e-05 -4.23896e-05 -9.90794e-05
0.000215628 -6.47657e-05 -6.46552e-05 -8.80783e-05
0.000149421 -4.49204e-05 -4.47859e-05 -9.90828e-05
0.000145416 -4.37116e-05 -4.35877e-05 -9.90812e-05
7.32078e-05 -2.20456e-05 -2.19267e-05 -0.000105679
6.92064e-05 -2.08259e-05 -2.07345e-05 -0.000105676
0.000197594 -5.93332e-05 -5.92545e-05 -8.80705e-05
0.000209617 -6.29556e-05 -6.28548e-05 -8.80764e-05
7.12077e-05 -2.14363e-05 -2.13306e-05 -0.000105678
0.000133399 -4.00802e-05 -3.99937e-05 -9.90746e-05
0.000203605 -6.11449e-05 -6.10545e-05 -8.80739e-05
0.000141411 -4.25021e-05 -4.23896e-05 -9.90794e-05
0.000137405 -4.12918e-05 -4.11915e-05 -9.90772e-05
6.92064e-05 -2.08259e-05 -2.07345e-05 -0.000105676
6.51996e-05 -1.95996e-05 -1.95429e-05 -0.000105674
0.000185567 -5.57049e-05 -5.56552e-05 -8.80606e-05
0.000197594 -5.93332e-05 -5.92545e-05 -8.80705e-05
6.72038e-05 -2.02138e-05 -2.01386e-05 -0.000105675
0.000125381 -3.76512e-05 -3.75986e-05 -9.90679e-05
0.000191581 -5.75201e-05 -5.74547e-05 -8.80662e-05
0.000133399 -4.00802e-05 -3.99937e-05 -9.90746e-05
0.000129391 -3.88669e-05 -3.8796e-05 -9.90714e-05
6.51996e-05 -1.95996e-05 -1.95429e-05 -0.000105674
6.11824e-05 -1.8362e-05 -1.83516e-05 -0.000105676
0.000173533 -5.20649e-05 -5.20578e-05 -8.80442e-05
0.000185567 -5.57049e-05 -5.56552e-05 -8.80606e-05
6.31929e-05 -1.89827e-05 -1.89472e-05 -0.000105675
0.000117354 -3.52088e-05 -3.52049e-05 -9.90599e-05
0.000179551 -5.38869e-05 -5.38561e-05 -8.80535e-05
0.000125381 -3.76512e-05 -3.75986e-05 -9.90679e-05
0.000121369 -3.64323e-05 -3.64015e-05 -9.90641e-05
6.11824e-05 -1.8362e-05 -1.83516e-05 -0.000105676
5.71485e-05 -1.71047e-05 -1.71616e-05 -0.000105689
0.000161482 -4.84022e-05 -4.84627e-05 -8.80178e-05
0.000173533 -5.20649e-05 -5.20578e-05 -8.80442e-05
5.91678e-05 -1.77364e-05 -1.77563e-05 -0.000105681
0.000109306 -3.27417e-05 -3.28131e-05 -9.90523e-05
0.000167511 -5.02374e-05 -5.026e-05 -8.80324e-05
0.000117354 -3.52088e-05 -3.52049e-05 -9.90599e-05
0.000113333 -3.39793e-05 -3.40087e-05 -9.90557e-05
5.71485e-05 -1.71047e-05 -1.71616e-05 -0.000105689
5.30809e-05 -1.58151e-05 -1.59711e-05 -0.000105727
0.000149399 -4.46971e-05 -4.48722e-05 -8.79758e-05
0.000161482 -4.84022e-05 -4.84627e-05 -8.80178e-05
5.51207e-05 -1.64652e-05 -1.65666e-05 -0.000105703
0.000101218 -3.02309e-05 -3.04232e-05 -9.90508e-05
0.000155445 -4.65566e-05 -4.66665e-05 -8.79993e-05
0.000109306 -3.27417e-05 -3.28131e-05 -9.90523e-05
0.000105268 -3.14936e-05 -3.16177e-05 -9.90506e-05
5.30809e-05 -1.58151e-05 -1.59711e-05 -0.000105727
4.89623e-05 -1.44715e-05 -1.47818e-05 -0.000105816
0.000137244 -4.09163e-05 -4.12835e-05 -8.79136e-05
0.000149399 -4.46971e-05 -4.48722e-05 -8.79758e-05
5.10284e-05 -1.51515e-05 -1.53758e-05 -0.000105763
9.30579e-05 -2.7643e-05 -2.80349e-05 -9.90678e-05
0.000143335 -4.28194e-05 -4.3078e-05 -8.79474e-05
0.000101218 -3.02309e-05 -3.04232e-05 -9.90508e-05
9.71501e-05 -2.8949e-05 -2.9229e-05 -9.90551e-05
4.89623e-05 -1.44715e-05 -1.47818e-05 -0.000105816
4.47415e-05 -1.30444e-05 -1.35845e-05 -0.00010601
0.00012497 -3.70016e-05 -3.77007e-05 -8.78202e-05
0.000137244 -4.09163e-05 -4.12835e-05 -8.79136e-05
4.68707e-05 -1.37716e-05 -1.41853e-05 -0.000105896
8.47649e-05 -2.49288e-05 -2.5644e-05 -9.91292e-05
0.000131124 -3.89797e-05 -3.94905e-05 -8.78721e-05
9.30579e-05 -2.7643e-05 -2.80349e-05 -9.90678e-05
8.89326e-05 -2.63067e-05 -2.68397e-05 -9.90923e-05
4.47415e-05 -1.30444e-05 -1.35845e-05 -0.00010601
4.03806e-05 -1.1485e-05 -1.23838e-05 -0.000106388
0.000112446 -3.28711e-05 -3.41036e-05 -8.76998e-05
0.00012497 -3.70016e-05 -3.77007e-05 -8.78202e-05
4.25773e-05 -1.22829e-05 -1.29833e-05 -0.000106169
7.62391e-05 -2.20073e-05 -2.32422e-05 -9.92822e-05
0.000118753 -3.49718e-05 -3.59063e-05 -8.77619e-05
8.47649e-05 -2.49288e-05 -2.5644e-05 -9.91292e-05
8.0539e-05 -2.34981e-05 -2.44461e-05 -9.91868e-05
4.03806e-05 -1.1485e-05 -1.23838e-05 -0.000106388
3.5748e-05 -9.75338e-06 -1.11406e-05 -0.000107085
9.95485e-05 -2.83944e-05 -3.04946e-05 -8.75422e-05
0.000112446 -3.28711e-05 -3.41036e-05 -8.76998e-05
3.81159e-05 -1.06469e-05 -1.17724e-05 -0.000106685
6.73356e-05 -1.87957e-05 -2.08028e-05 -9.96092e-05
0.000106045 -3.06811e-05 -3.2299e-05 -8.7628e-05
7.62391e-05 -2.20073e-05 -2.32422e-05 -9.92822e-05
7.18449e-05 -2.04472e-05 -2.20276e-05 -9.94237e-05
3.5748e-05 -9.75338e-06 -1.11406e-05 -0.000107085
3.08194e-05 -7.79154e-06 -9.86908e-06 -0.000108258
8.59374e-05 -2.34646e-05 -2.6774e-05 -8.74251e-05
9.95485e-05 -2.83944e-05 -3.04946e-05 -8.75422e-05
3.33061e-05 -8.79416e-06 -1.05051e-05 -0.000107602
5.78403e-05 -1.51874e-05 -1.82798e-05 -0.00010024
9.28732e-05 -2.60006e-05 -2.86597e-05 -8.74673e-05
6.73356e-05 -1.87957e-05 -2.08028e-05 -9.96092e-05
6.26784e-05 -1.70363e-05 -1.95609e-05 -9.98627e-05
3.08194e-05 -7.79154e-06 -9.86908e-06 -0.000108258
2.537e-05 -5.70948e-06 -8.42592e-06 -0.00011009
7.14615e-05 -1.79697e-05 -2.2925e-05 -8.74037e-05
8.59374e-05 -2.34646e-05 -2.6774e-05 -8.74251e-05
2.82024e-05 -6.76738e-06 -9.18646e-06 -0.000109079
4.75849e-05 -1.12806e-05 -1.5559e-05 -0.000101353
7.87854e-05 -2.07662e-05 -2.48654e-05 -8.74021e-05
5.78403e-05 -1.51874e-05 -1.82798e-05 -0.00010024
5.28122e-05 -1.32701e-05 -1.69466e-05 -0.000100749
2.537e-05 -5.70948e-06 -8.42592e-06 -0.00011009
1.97342e-05 -3.71423e-06 -6.86568e-06 -0.000112503
5.55829e-05 -1.23009e-05 -1.85494e-05 -8.79205e-05
7.14615e-05 -1.79697e-05 -2.2925e-05 -8.74037e-05
2.24909e-05 -4.6352e-06 -7.65243e-06 -0.000111245
3.648e-05 -7.40005e-06 -1.24628e-05 -0.00010313
6.37869e-05 -1.51452e-05 -2.08464e-05 -8.75421e-05
4.75849e-05 -1.12806e-05 -1.5559e-05 -0.000101353
4.21452e-05 -9.25357e-06 -1.40964e-05 -0.000102097
1.97342e-05 -3.71423e-06 -6.86568e-06 -0.000112503
1.39859e-05 -2.91749e-06 -4.74363e-06 -0.000114931
3.90716e-05 -7.40244e-06 -1.35725e-05 -8.93108e-05
5.55829e-05 -1.23009e-05 -1.85494e-05 -8.79205e-05
1.69493e-05 -3.1236e-06 -5.92531e-06 -0.000113776
2.53083e-05 -5.13603e-06 -8.64527e-06 -0.000105517
4.72207e-05 -9.53934e-06 -1.61492e-05 -8.84901e-05
3.648e-05 -7.40005e-06 -1.24628e-05 -0.00010313
3.07981e-05 -5.96305e-06 -1.06436e-05 -0.000104359
1.39859e-05 -2.91749e-06 -4.74363e-06 -0.000114931
9.99209e-06 -4.61336e-06 -2.30517e-06 -0.000115126
2.29853e-05 -7.33972e-06 -6.70525e-06 -9.26465e-05
3.90716e-05 -7.40244e-06 -1.35725e-05 -8.93108e-05
1.14612e-05 -3.22694e-06 -3.52895e-06 -0.000115537
1.57962e-05 -7.05883e-06 -3.7446e-06 -0.000107429
3.10287e-05 -6.50823e-06 -1.05088e-05 -9.06402e-05
2.53083e-05 -5.13603e-06 -8.64527e-06 -0.000105517
2.02335e-05 -5.22788e-06 -6.43096e-06 -0.000106495
9.99209e-06 -4.61336e-06 -2.30517e-06 -0.000115126
8.00294e-06 -1.13138e-05 1.41893e-06 -0.000108884
1.43873e-05 -1.93751e-05 2.13762e-06 -9.54557e-05
2.29853e-05 -7.33972e-06 -6.70525e-06 -9.26465e-05
9.02418e-06 -7.49831e-06 -6.53944e-07 -0.000113154
1.24369e-05 -1.81009e-05 2.42743e-06 -0.000104333
1.6814e-05 -1.07709e-05 -2.5899e-06 -9.44743e-05
1.57962e-05 -7.05883e-06 -3.7446e-06 -0.000107429
1.28972e-05 -1.13733e-05 -6.53107e-07 -0.00010729
8.00294e-06 -1.13138e-05 1.41893e-06 -0.000108884
1.01707e-05 -2.02389e-05 4.31493e-06 -8.91963e-05
1.85646e-05 -5.7155e-05 1.65387e-05 -8.80851e-05
1.43873e-05 -1.93751e-05 2.13762e-06 -9.54557e-05
8.02087e-06 -1.54648e-05 3.19027e-06 -0.000101183
1.49646e-05 -3.81407e-05 9.93261e-06 -8.7086e-05
1.51543e-05 -3.52827e-05 8.62644e-06 -9.43116e-05
1.24369e-05 -1.81009e-05 2.42743e-06 -0.000104333
1.34484e-05 -2.7023e-05 5.81767e-06 -9.76291e-05
1.01707e-05 -2.02389e-05 4.31493e-06 -8.91963e-05
1.57518e-05 -3.25736e-05 7.20936e-06 -5.0753e-05
3.12463e-05 -0.000103725 3.10625e-05 -4.67218e-05
1.85646e-05 -5.7155e-05 1.65387e-05 -8.80851e-05
1.31738e-05 -2.60045e-05 5.49888e-06 -7.25541e-05
2.06337e-05 -6.49687e-05 1.90007e-05 -5.16703e-05
2.41007e-05 -8.20053e-05 2.48163e-05 -7.29288e-05
1.49646e-05 -3.81407e-05 9.93261e-06 -8.7086e-05
1.72661e-05 -5.12331e-05 1.45573e-05 -7.21565e-05
0.00193211 0 -0.000828048 0.00025043
0.00218758 -0.000292607 -0.000812132 -1.15101e-05
0.00379124 -0.000751873 -0.00130259 -0.000286383
0.00336947 2.22045e-16 -0.00144406 -0.000199045
0.00209531 -0.000164685 -0.000827411 9.21047e-05
0.00292374 -0.000455256 -0.00105792 -0.000120234
0.00360538 -0.00035414 -0.00139339 -0.000331807
0.00275226 0 -0.00117954 3.36461e-05
0.00279923 -0.000252631 -0.0010914 -4.14488e-05
0.00218758 -0.000292607 -0.000812132 -1.15101e-05
0.00230073 -0.000535032 -0.000756728 -9.28309e-05
0.00394055 -0.00107003 -0.00123022 -0.000138006
0.00379124 -0.000751873 -0.00130259 -0.000286383
0.00224424 -0.000421418 -0.000781207 -6.38969e-05
0.00311945 -0.00077392 -0.00100523 -0.000139535
0.00390895 -0.000975642 -0.00125713 -0.000207657
0.00292374 -0.000455256 -0.00105792 -0.000120234
0.00305435 -0.000634002 -0.00103729 -0.000156524
0.00230073 -0.000535032 -0.000756728 -9.28309e-05
0.00235881 -0.000658524 -0.000728696 -0.000108241
0.00392236 -0.00116045 -0.00118368 -5.23514e-05
0.00394055 -0.00107003 -0.00123022 -0.000138006
0.00234346 -0.000611441 -0.000742294 -0.000106991
0.00315221 -0.000903518 -0.000963725 -9.40708e-05
0.00393027 -0.00112621 -0.00120174 -8.20012e-05
0.00311945 -0.00077392 -0.00100523 -0.000139535
0.0031438 -0.00085822 -0.000979532 -0.000110728
0.00235881 -0.000658524 -0.000728696 -0.000108241
0.00235764 -0.00070781 -0.000707069 -9.97591e-05
0.0038949 -0.0011737 -0.00116623 -3.24602e-05
0.00392236 -0.00116045 -0.00118368 -5.23514e-05
0.00235935 -0.00068934 -0.000715718 -0.000103542
0.00313766 -0.000945667 -0.000939427 -7.12235e-05
0.00391214 -0.00117283 -0.00117399 -3.90977e-05
0.00315221 -0.000903518 -0.000963725 -9.40708e-05
0.0031488 -0.000930853 -0.000950549 -8.17955e-05
0.00235764 -0.00070781 -0.000707069 -9.97591e-05
0.00234165 -0.000717939 -0.000695878 -9.38326e-05
0.00386299 -0.00117224 -0.00115318 -3.0982e-05
0.0038949 -0.0011737 -0.00116623 -3.24602e-05
0.00235223 -0.000716033 -0.000701226 -9.67997e-05
0.00310918 -0.000948881 -0.000925842 -6.36943e-05
0.00387654 -0.00117341 -0.00115848 -2.98155e-05
0.00313766 -0.000945667 -0.000939427 -7.12235e-05
0.00312304 -0.000950131 -0.000931247 -6.51345e-05
0.00234165 -0.000717939 -0.000695878 -9.38326e-05
0.00231862 -0.000714924 -0.000687297 -8.98444e-05
0.00383875 -0.00116393 -0.00114635 -3.70266e-05
0.00386299 -0.00117224 -0.00115318 -3.0982e-05
0.00232932 -0.000717238 -0.000690892 -9.12562e-05
0.00308276 -0.000942736 -0.000917153 -6.3806e-05
0.00385136 -0.00116865 -0.00114973 -3.41306e-05
0.00310918 -0.000948881 -0.000925842 -6.36943e-05
0.00309584 -0.000946229 -0.00092126 -6.36967e-05
0.00231862 -0.000714924 -0.000687297 -8.98444e-05
0.00229844 -0.000707355 -0.000681893 -8.85158e-05
0.00381535 -0.00115567 -0.00113986 -4.22629e-05
0.00383875 -0.00116393 -0.00114635 -3.70266e-05
0.00230863 -0.000711393 -0.00068453 -8.91076e-05
0.00305893 -0.000933431 -0.000910928 -6.60041e-05
0.00382635 -0.00115965 -0.00114287 -3.9636e-05
0.00308276 -0.000942736 -0.000917153 -6.3806e-05
0.00307033 -0.00093824 -0.000913754 -6.46122e-05
0.00229844 -0.000707355 -0.000681893 -8.85158e-05
0.00228 -0.000699775 -0.000677241 -8.79409e-05
0.00379437 -0.00114757 -0.00113434 -4.66149e-05
0.00381535 -0.00115567 -0.00113986 -4.22629e-05
0.00228868 -0.000703454 -0.000679383 -8.80896e-05
0.00303818 -0.000924953 -0.000905668 -6.83275e-05
0.00380496 -0.0011516 -0.00113715 -4.4715e-05
0.00305893 -0.000933431 -0.000910928 -6.60041e-05
0.0030483 -0.000929019 -0.000908261 -6.73148e-05
0.00228 -0.000699775 -0.000677241 -8.79409e-05
0.00226427 -0.000693025 -0.000673389 -8.79415e-05
0.00377366 -0.0011402 -0.00112863 -4.93129e-05
0.00379437 -0.00114757 -0.00113434 -4.66149e-05
0.002272 -0.000696282 -0.000675308 -8.79378e-05
0.00301932 -0.000917363 -0.000900841 -7.0116e-05
0.00378385 -0.00114379 -0.00113146 -4.8091e-05
0.00303818 -0.000924953 -0.000905668 -6.83275e-05
0.00302853 -0.000921049 -0.000903208 -6.92582e-05
0.00226427 -0.000693025 -0.000673389 -8.79415e-05
0.00224992 -0.000687322 -0.000669685 -8.80235e-05
0.00375351 -0.00113329 -0.00112295 -5.10519e-05
0.00377366 -0.0011402 -0.00112863 -4.93129e-05
0.00225688 -0.000690053 -0.000671497 -8.79622e-05
0.00300179 -0.000910807 -0.000896134 -7.13144e-05
0.00376361 -0.0011367 -0.00112582 -5.03121e-05
0.00301932 -0.000917363 -0.000900841 -7.0116e-05
0.00301044 -0.00091397 -0.000898489 -7.0803e-05
0.00224992 -0.000687322 -0.000669685 -8.80235e-05
0.00223671 -0.000682381 -0.000666141 -8.8164e-05
0.00373341 -0.00112675 -0.00111714 -5.20191e-05
0.00375351 -0.00113329 -0.00112295 -5.10519e-05
0.00224324 -0.000684774 -0.000667916 -8.81005e-05
0.00298497 -0.000904902 -0.000891458 -7.20673e-05
0.00374343 -0.00112998 -0.00112005 -5.15983e-05
0.00300179 -0.000910807 -0.000896134 -7.13144e-05
0.00299331 -0.000907791 -0.000893793 -7.17292e-05
0.00223671 -0.000682381 -0.000666141 -8.8164e-05
0.00222405 -0.000677969 -0.000662607 -8.82744e-05
0.00371341 -0.00112041 -0.00111128 -5.25764e-05
0.00373341 -0.00112675 -0.00111714 -5.20191e-05
0.00223031 -0.000680123 -0.000664367 -8.82199e-05
0.00296857 -0.000899452 -0.000886767 -7.25117e-05
0.00372341 -0.00112356 -0.00111422 -5.23429e-05
0.00298497 -0.000904902 -0.000891458 -7.20673e-05
0.00297674 -0.000902132 -0.000889117 -7.2324e-05
0.00222405 -0.000677969 -0.000662607 -8.82744e-05
0.00221176 -0.000673875 -0.000659093 -8.83653e-05
0.00369339 -0.0011142 -0.00110537 -5.28674e-05
0.00371341 -0.00112041 -0.00111128 -5.25764e-05
0.00221788 -0.000675892 -0.000660853 -8.83245e-05
0.00295239 -0.000894256 -0.000882058 -7.27692e-05
0.00370339 -0.00111729 -0.00110833 -5.27437e-05
0.00296857 -0.000899452 -0.000886767 -7.25117e-05
0.00296046 -0.00089683 -0.000884414 -7.26567e-05
0.00221176 -0.000673875 -0.000659093 -8.83653e-05
0.00219963 -0.000669967 -0.00065557 -8.84286e-05
0.00367338 -0.00110805 -0.00109943 -5.30243e-05
0.00369339 -0.0011142 -0.00110537 -5.28674e-05
0.00220568 -0.000671904 -0.000657331 -8.83993e-05
0.00293632 -0.000889211 -0.000877331 -7.29133e-05
0.00368339 -0.00111112 -0.0011024 -5.29592e-05
0.00295239 -0.000894256 -0.000882058 -7.27692e-05
0.00294434 -0.000891719 -0.000879697 -7.28527e-05
0.00219963 -0.000669967 -0.00065557 -8.84286e-05
0.0021876 -0.000666161 -0.000652045 -8.84736e-05
0.00365336 -0.00110194 -0.00109347 -5.3103e-05
0.00367338 -0.00110805 -0.00109943 -5.30243e-05
0.00219361 -0.000668055 -0.000653809 -8.84535e-05
0.00292029 -0.000884243 -0.000872591 -7.2994e-05
0.00366337 -0.00110499 -0.00109645 -5.307e-05
0.00293632 -0.000889211 -0.000877331 -7.29133e-05
0.0029283 -0.00088672 -0.000874962 -7.29592e-05
0.0021876 -0.000666161 -0.000652045 -8.84736e-05
0.00217561 -0.00066241 -0.000648514 -8.85034e-05
0.00363334 -0.00109585 -0.00108749 -5.31438e-05
0.00365336 -0.00110194 -0.00109347 -5.3103e-05
0.0021816 -0.000664281 -0.00065028 -8.849e-05
0.00290428 -0.000879317 -0.000867843 -7.30383e-05
0.00364335 -0.00109889 -0.00109048 -5.3127e-05
0.00292029 -0.000884243 -0.000872591 -7.2994e-05
0.00291228 -0.000881776 -0.000870218 -7.30196e-05
0.00217561 -0.00066241 -0.000648514 -8.85034e-05
0.00216364 -0.000658687 -0.00064498 -8.85229e-05
0.0036133 -0.00108977 -0.00108152 -5.31637e-05
0.00363334 -0.00109585 -0.00108749 -5.31438e-05
0.00216962 -0.000660546 -0.000646748 -8.85143e-05
0.00288828 -0.00087441 -0.000863089 -7.30627e-05
0.00362332 -0.00109281 -0.00108451 -5.31554e-05
0.00290428 -0.000879317 -0.000867843 -7.30383e-05
0.00289628 -0.000876862 -0.000865466 -7.30523e-05
0.00216364 -0.000658687 -0.00064498 -8.85229e-05
0.00215168 -0.000654979 -0.000641443 -8.85349e-05
0.00359326 -0.00108368 -0.00107553 -5.31736e-05
0.0036133 -0.00108977 -0.00108152 -5.31637e-05
0.00215766 -0.000656832 -0.000643212 -8.85296e-05
0.00287229 -0.000869514 -0.000858332 -7.30758e-05
0.00360328 -0.00108672 -0.00107853 -5.31696e-05
0.00288828 -0.00087441 -0.000863089 -7.30627e-05
0.00288029 -0.000871962 -0.000860711 -7.30703e-05
0.00215168 -0.000654979 -0.000641443 -8.85349e-05
0.00213972 -0.000651278 -0.000637904 -8.85419e-05
0.00357322 -0.00107761 -0.00106955 -5.31779e-05
0.00359326 -0.00108368 -0.00107553 -5.31736e-05
0.0021457 -0.000653128 -0.000639674 -8.85389e-05
0.00285629 -0.000864623 -0.000853572 -7.30824e-05
0.00358324 -0.00108065 -0.00107254 -5.31762e-05
0.00287229 -0.000869514 -0.000858332 -7.30758e-05
0.00286429 -0.000867068 -0.000855952 -7.30797e-05
0.00213972 -0.000651278 -0.000637904 -8.85419e-05
0.00212776 -0.000647582 -0.000634364 -8.85454e-05
0.00355318 -0.00107153 -0.00106356 -5.31795e-05
0.00357322 -0.00107761 -0.00106955 -5.31779e-05
0.00213374 -0.00064943 -0.000636134 -8.8544e-05
0.00284029 -0.000859734 -0.000848811 -7.30854e-05
0.0035632 -0.00107457 -0.00106656 -5.3179e-05
0.00285629 -0.000864623 -0.000853572 -7.30824e-05
0.00284829 -0.000862178 -0.000851192 -7.30843e-05
0.00212776 -0.000647582 -0.000634364 -8.85454e-05
0.00211581 -0.000643887 -0.000630822 -8.85466e-05
0.00353313 -0.00106545 -0.00105758 -5.31795e-05
0.00355318 -0.00107153 -0.00106356 -5.31795e-05
0.00212178 -0.000645734 -0.000632593 -8.85462e-05
0.00282429 -0.000854847 -0.000844049 -7.30861e-05
0.00354316 -0.00106849 -0.00106057 -5.31796e-05
0.00284029 -0.000859734 -0.000848811 -7.30854e-05
0.00283229 -0.00085729 -0.00084643 -7.3086e-05
0.00211581 -0.000643887 -0.000630822 -8.85466e-05
0.00210385 -0.000640194 -0.00062728 -8.85463e-05
0.00351309 -0.00105937 -0.00105159 -5.31786e-05
0.00353313 -0.00106545 -0.00105758 -5.31795e-05
0.00210983 -0.000642041 -0.000629051 -8.85466e-05
0.00280829 -0.00084996 -0.000839286 -7.30855e-05
0.00352311 -0.00106241 -0.00105458 -5.31791e-05
0.00282429 -0.000854847 -0.000844049 -7.30861e-05
0.00281629 -0.000852403 -0.000841667 -7.3086e-05
0.00210385 -0.000640194 -0.00062728 -8.85463e-05
0.00209189 -0.000636503 -0.000623737 -8.85451e-05
0.00349304 -0.0010533 -0.0010456 -5.31772e-05
0.00351309 -0.00105937 -0.00105159 -5.31786e-05
0.00209787 -0.000638348 -0.000625508 -8.85458e-05
0.00279229 -0.000845074 -0.000834522 -7.30841e-05
0.00350306 -0.00105634 -0.0010486 -5.31779e-05
0.00280829 -0.00084996 -0.000839286 -7.30855e-05
0.00280029 -0.000847517 -0.000836904 -7.30849e-05
0.00209189 -0.000636503 -0.000623737 -8.85451e-05
0.00207993 -0.000632812 -0.000620193 -8.85432e-05
0.00347299 -0.00104722 -0.00103962 -5.31755e-05
0.00349304 -0.0010533 -0.0010456 -5.31772e-05
0.00208591 -0.000634657 -0.000621965 -8.85442e-05
0.00277629 -0.000840188 -0.000829758 -7.30823e-05
0.00348302 -0.00105026 -0.00104261 -5.31764e-05
0.00279229 -0.000845074 -0.000834522 -7.30841e-05
0.00278429 -0.000842631 -0.00083214 -7.30832e-05
0.00207993 -0.000632812 -0.000620193 -8.85432e-05
0.00206797 -0.000629121 -0.000616649 -8.8541e-05
0.00345294 -0.00104115 -0.00103363 -5.31737e-05
0.00347299 -0.00104722 -0.00103962 -5.31755e-05
0.00207395 -0.000630966 -0.000618421 -8.85421e-05
0.00276029 -0.000835303 -0.000824994 -7.30801e-05
0.00346297 -0.00104418 -0.00103662 -5.31746e-05
0.00277629 -0.000840188 -0.000829758 -7.30823e-05
0.00276829 -0.000837746 -0.000827376 -7.30812e-05
0.00206797 -0.000629121 -0.000616649 -8.8541e-05
0.00205601 -0.000625431 -0.000613104 -8.85385e-05
0.0034329 -0.00103507 -0.00102764 -5.31718e-05
0.00345294 -0.00104115 -0.00103363 -5.31737e-05
0.00206199 -0.000627276 -0.000614877 -8.85398e-05
0.00274429 -0.000830419 -0.000820229 -7.30778e-05
0.00344292 -0.00103811 -0.00103063 -5.31727e-05
0.00276029 -0.000835303 -0.000824994 -7.30801e-05
0.00275229 -0.000832861 -0.000822612 -7.3079e-05
0.00205601 -0.000625431 -0.000613104 -8.85385e-05
0.00204405 -0.000621742 -0.000609559 -8.8536e-05
0.00341285 -0.001029 -0.00102165 -5.31698e-05
0.0034329 -0.00103507 -0.00102764 -5.31718e-05
0.00205003 -0.000623587 -0.000611332 -8.85373e-05
0.00272828 -0.000825534 -0.000815464 -7.30754e-05
0.00342287 -0.00103203 -0.00102465 -5.31708e-05
0.00274429 -0.000830419 -0.000820229 -7.30778e-05
0.00273629 -0.000827976 -0.000817847 -7.30766e-05
0.00204405 -0.000621742 -0.000609559 -8.8536e-05
0.00203209 -0.000618053 -0.000606014 -8.85333e-05
0.0033928 -0.00102292 -0.00101566 -5.31679e-05
0.00341285 -0.001029 -0.00102165 -5.31698e-05
0.00203807 -0.000619898 -0.000607787 -8.85347e-05
0.00271228 -0.000820651 -0.000810699 -7.3073e-05
0.00340282 -0.00102596 -0.00101866 -5.31688e-05
0.00272828 -0.000825534 -0.000815464 -7.30754e-05
0.00272028 -0.000823092 -0.000813082 -7.30742e-05
0.00203209 -0.000618053 -0.000606014 -8.85333e-05
0.00202012 -0.000614365 -0.000602468 -8.85307e-05
0.00337275 -0.00101685 -0.00100967 -5.31659e-05
0.0033928 -0.00102292 -0.00101566 -5.31679e-05
0.0020261 -0.000616209 -0.000604241 -8.8532e-05
0.00269628 -0.000815767 -0.000805933 -7.30705e-05
0.00338278 -0.00101988 -0.00101267 -5.31669e-05
0.00271228 -0.000820651 -0.000810699 -7.3073e-05
0.00270428 -0.000818209 -0.000808316 -7.30717e-05
0.00202012 -0.000614365 -0.000602468 -8.85307e-05
0.00200816 -0.000610677 -0.000598922 -8.8528e-05
0.0033527 -0.00101077 -0.00100369 -5.3164e-05
0.00337275 -0.00101685 -0.00100967 -5.31659e-05
0.00201414 -0.000612521 -0.000600695 -8.85293e-05
0.00268027 -0.000810884 -0.000801167 -7.30681e-05
0.00336273 -0.00101381 -0.00100668 -5.31649e-05
0.00269628 -0.000815767 -0.000805933 -7.30705e-05
0.00268828 -0.000813326 -0.00080355 -7.30693e-05
0.00200816 -0.000610677 -0.000598922 -8.8528e-05
0.0019962 -0.00060699 -0.000595375 -8.85252e-05
0.00333266 -0.0010047 -0.000997696 -5.3162e-05
0.0033527 -0.00101077 -0.00100369 -5.3164e-05
0.00200218 -0.000608833 -0.000597148 -8.85266e-05
0.00266427 -0.000806002 -0.000796401 -7.30656e-05
0.00334268 -0.00100773 -0.00100069 -5.3163e-05
0.00268027 -0.000810884 -0.000801167 -7.30681e-05
0.00267227 -0.000808443 -0.000798784 -7.30668e-05
0.0019962 -0.00060699 -0.000595375 -8.85252e-05
0.00198423 -0.000603303 -0.000591828 -8.85225e-05
0.00331261 -0.000998624 -0.000991707 -5.31601e-05
0.00333266 -0.0010047 -0.000997696 -5.3162e-05
0.00199022 -0.000605146 -0.000593602 -8.85239e-05
0.00264827 -0.000801119 -0.000791635 -7.30631e-05
0.00332263 -0.00100166 -0.000994702 -5.3161e-05
0.00266427 -0.000806002 -0.000796401 -7.30656e-05
0.00265627 -0.00080356 -0.000794018 -7.30644e-05
0.00198423 -0.000603303 -0.000591828 -8.85225e-05
0.00197227 -0.000599616 -0.00058828 -8.85198e-05
0.00329256 -0.000992551 -0.000985718 -5.31581e-05
0.00331261 -0.000998624 -0.000991707 -5.31601e-05
0.00197825 -0.000601459 -0.000590054 -8.85211e-05
0.00263226 -0.000796238 -0.000786868 -7.30607e-05
0.00330258 -0.000995587 -0.000988712 -5.31591e-05
0.00264827 -0.000801119 -0.000791635 -7.30631e-05
0.00264026 -0.000798678 -0.000789251 -7.30619e-05
0.00197227 -0.000599616 -0.00058828 -8.85198e-05
0.00196031 -0.00059593 -0.000584733 -8.8517e-05
0.00327251 -0.000986478 -0.000979728 -5.31561e-05
0.00329256 -0.000992551 -0.000985718 -5.31581e-05
0.00196629 -0.000597773 -0.000586507 -8.85184e-05
0.00261626 -0.000791356 -0.000782101 -7.30582e-05
0.00328253 -0.000989514 -0.000982723 -5.31571e-05
0.00263226 -0.000796238 -0.000786868 -7.30607e-05
0.00262426 -0.000793797 -0.000784484 -7.30594e-05
0.00196031 -0.00059593 -0.000584733 -8.8517e-05
0.00194834 -0.000592244 -0.000581184 -8.85142e-05
0.00325246 -0.000980405 -0.000973738 -5.31542e-05
0.00327251 -0.000986478 -0.000979728 -5.31561e-05
0.00195432 -0.000594087 -0.000582959 -8.85156e-05
0.00260025 -0.000786475 -0.000777333 -7.30556e-05
0.00326249 -0.000983441 -0.000976733 -5.31552e-05
0.00261626 -0.000791356 -0.000782101 -7.30582e-05
0.00260826 -0.000788916 -0.000779717 -7.30569e-05
0.00194834 -0.000592244 -0.000581184 -8.85142e-05
0.00193638 -0.000588559 -0.000577636 -8.85113e-05
0.00323241 -0.000974333 -0.000967748 -5.31522e-05
0.00325246 -0.000980405 -0.000973738 -5.31542e-05
0.00194236 -0.000590402 -0.00057941 -8.85127e-05
0.00258425 -0.000781595 -0.000772566 -7.30531e-05
0.00324244 -0.000977369 -0.000970743 -5.31532e-05
0.00260025 -0.000786475 -0.000777333 -7.30556e-05
0.00259225 -0.000784035 -0.000774949 -7.30544e-05
0.00193638 -0.000588559 -0.000577636 -8.85113e-05
0.00192441 -0.000584875 -0.000574087 -8.85084e-05
0.00321236 -0.000968261 -0.000961758 -5.31502e-05
0.00323241 -0.000974333 -0.000967748 -5.31522e-05
0.00193039 -0.000586717 -0.000575861 -8.85099e-05
0.00256824 -0.000776714 -0.000767798 -7.30505e-05
0.00322239 -0.000971297 -0.000964753 -5.31512e-05
0.00258425 -0.000781595 -0.000772566 -7.30531e-05
0.00257624 -0.000779155 -0.000770182 -7.30518e-05
0.00192441 -0.000584875 -0.000574087 -8.85084e-05
0.00191244 -0.00058119 -0.000570537 -8.85055e-05
0.00319231 -0.000962189 -0.000955768 -5.31481e-05
0.00321236 -0.000968261 -0.000961758 -5.31502e-05
0.00191843 -0.000583032 -0.000572312 -8.8507e-05
0.00255224 -0.000771835 -0.000763029 -7.30479e-05
0.00320234 -0.000965225 -0.000958763 -5.31492e-05
0.00256824 -0.000776714 -0.000767798 -7.30505e-05
0.00256024 -0.000774275 -0.000765414 -7.30492e-05
0.00191244 -0.00058119 -0.000570537 -8.85055e-05
0.00190048 -0.000577507 -0.000566988 -8.85026e-05
0.00317227 -0.000956118 -0.000949777 -5.31461e-05
0.00319231 -0.000962189 -0.000955768 -5.31481e-05
0.00190646 -0.000579348 -0.000568762 -8.85041e-05
0.00253623 -0.000766955 -0.000758261 -7.30453e-05
0.00318229 -0.000959154 -0.000952773 -5.31471e-05
0.00255224 -0.000771835 -0.000763029 -7.30479e-05
0.00254423 -0.000769395 -0.000760645 -7.30466e-05
0.00190048 -0.000577507 -0.000566988 -8.85026e-05
0.00188851 -0.000573823 -0.000563437 -8.84996e-05
0.00315222 -0.000950047 -0.000943787 -5.3144e-05
0.00317227 -0.000956118 -0.000949777 -5.31461e-05
0.00189449 -0.000575665 -0.000565213 -8.85011e-05
0.00252022 -0.000762077 -0.000753492 -7.30427e-05
0.00316224 -0.000953083 -0.000946782 -5.31451e-05
0.00253623 -0.000766955 -0.000758261 -7.30453e-05
0.00252823 -0.000764516 -0.000755876 -7.3044e-05
0.00188851 -0.000573823 -0.000563437 -8.84996e-05
0.00187654 -0.00057014 -0.000559887 -8.84966e-05
0.00313217 -0.000943977 -0.000937796 -5.31419e-05
0.00315222 -0.000950047 -0.000943787 -5.3144e-05
0.00188253 -0.000571982 -0.000561662 -8.84981e-05
0.00250422 -0.000757198 -0.000748723 -7.304e-05
0.00314219 -0.000947012 -0.000940791 -5.3143e-05
0.00252022 -0.000762077 -0.000753492 -7.30427e-05
0.00251222 -0.000759637 -0.000751107 -7.30413e-05
0.00187654 -0.00057014 -0.000559887 -8.84966e-05
0.00186458 -0.000566458 -0.000556336 -8.84936e-05
0.00311212 -0.000937907 -0.000931805 -5.31398e-05
0.00313217 -0.000943977 -0.000937796 -5.31419e-05
0.00187056 -0.000568299 -0.000558111 -8.84951e-05
0.00248821 -0.00075232 -0.000743953 -7.30373e-05
0.00312214 -0.000940942 -0.000934801 -5.31409e-05
0.00250422 -0.000757198 -0.000748723 -7.304e-05
0.00249621 -0.000754759 -0.000746338 -7.30386e-05
0.00186458 -0.000566458 -0.000556336 -8.84936e-05
0.00185261 -0.000562776 -0.000552785 -8.84905e-05
0.00309207 -0.000931837 -0.000925814 -5.31377e-05
0.00311212 -0.000937907 -0.000931805 -5.31398e-05
0.00185859 -0.000564617 -0.00055456 -8.84921e-05
0.0024722 -0.000747442 -0.000739184 -7.30346e-05
0.00310209 -0.000934872 -0.00092881 -5.31388e-05
0.00248821 -0.00075232 -0.000743953 -7.30373e-05
0.00248021 -0.000749881 -0.000741569 -7.30359e-05
0.00185261 -0.000562776 -0.000552785 -8.84905e-05
0.00184064 -0.000559095 -0.000549233 -8.84874e-05
0.00307202 -0.000925768 -0.000919823 -5.31356e-05
0.00309207 -0.000931837 -0.000925814 -5.31377e-05
0.00184662 -0.000560935 -0.000551009 -8.8489e-05
0.0024562 -0.000742565 -0.000734414 -7.30318e-05
0.00308205 -0.000928802 -0.000922819 -5.31366e-05
0.0024722 -0.000747442 -0.000739184 -7.30346e-05
0.0024642 -0.000745004 -0.000736799 -7.30332e-05
0.00184064 -0.000559095 -0.000549233 -8.84874e-05
0.00182867 -0.000555414 -0.000545681 -8.84843e-05
0.00305197 -0.000919699 -0.000913832 -5.31334e-05
0.00307202 -0.000925768 -0.000919823 -5.31356e-05
0.00183465 -0.000557254 -0.000547457 -8.84858e-05
0.00244019 -0.000737689 -0.000729644 -7.3029e-05
0.003062 -0.000922733 -0.000916827 -5.31345e-05
0.0024562 -0.000742565 -0.000734414 -7.30318e-05
0.00244819 -0.000740127 -0.000732029 -7.30304e-05
0.00182867 -0.000555414 -0.000545681 -8.84843e-05
0.0018167 -0.000551733 -0.000542129 -8.84811e-05
0.00303192 -0.00091363 -0.00090784 -5.31312e-05
0.00305197 -0.000919699 -0.000913832 -5.31334e-05
0.00182268 -0.000553573 -0.000543905 -8.84827e-05
0.00242418 -0.000732812 -0.000724873 -7.30262e-05
0.00304195 -0.000916664 -0.000910836 -5.31323e-05
0.00244019 -0.000737689 -0.000729644 -7.3029e-05
0.00243219 -0.00073525 -0.000727259 -7.30276e-05
0.0018167 -0.000551733 -0.000542129 -8.84811e-05
0.00180473 -0.000548053 -0.000538576 -8.84779e-05
0.00301187 -0.000907562 -0.000901848 -5.3129e-05
0.00303192 -0.00091363 -0.00090784 -5.31312e-05
0.00181072 -0.000549893 -0.000540352 -8.84795e-05
0.00240818 -0.000727936 -0.000720103 -7.30234e-05
0.0030219 -0.000910596 -0.000904844 -5.31301e-05
0.00242418 -0.000732812 -0.000724873 -7.30262e-05
0.00241618 -0.000730374 -0.000722488 -7.30248e-05
0.00180473 -0.000548053 -0.000538576 -8.84779e-05
0.00179276 -0.000544374 -0.000535023 -8.84747e-05
0.00299183 -0.000901494 -0.000895857 -5.31268e-05
0.00301187 -0.000907562 -0.000901848 -5.3129e-05
0.00179875 -0.000546214 -0.000536799 -8.84763e-05
0.00239217 -0.000723061 -0.000715332 -7.30205e-05
0.00300185 -0.000904528 -0.000898853 -5.31279e-05
0.00240818 -0.000727936 -0.000720103 -7.30234e-05
0.00240017 -0.000725499 -0.000717717 -7.3022e-05
0.00179276 -0.000544374 -0.000535023 -8.84747e-05
0.00178079 -0.000540695 -0.000531469 -8.84714e-05
0.00297178 -0.000895426 -0.000889865 -5.31246e-05
0.00299183 -0.000901494 -0.000895857 -5.31268e-05
0.00178678 -0.000542534 -0.000533246 -8.84731e-05
0.00237616 -0.000718186 -0.00071056 -7.30177e-05
0.0029818 -0.00089846 -0.000892861 -5.31257e-05
0.00239217 -0.000723061 -0.000715332 -7.30205e-05
0.00238416 -0.000720623 -0.000712946 -7.30191e-05
0.00178079 -0.000540695 -0.000531469 -8.84714e-05
0.00176882 -0.000537016 -0.000527915 -8.84682e-05
0.00295173 -0.000889359 -0.000883873 -5.31223e-05
0.00297178 -0.000895426 -0.000889865 -5.31246e-05
0.0017748 -0.000538856 -0.000529692 -8.84698e-05
0.00236015 -0.000713311 -0.000705789 -7.30148e-05
0.00296175 -0.000892392 -0.000886869 -5.31235e-05
0.00237616 -0.000718186 -0.00071056 -7.30177e-05
0.00236816 -0.000715749 -0.000708175 -7.30162e-05
0.00176882 -0.000537016 -0.000527915 -8.84682e-05
0.00175685 -0.000533338 -0.000524361 -8.84649e-05
0.00293168 -0.000883292 -0.00087788 -5.31201e-05
0.00295173 -0.000889359 -0.000883873 -5.31223e-05
0.00176283 -0.000535177 -0.000526138 -8.84665e-05
0.00234414 -0.000708437 -0.000701017 -7.30118e-05
0.0029417 -0.000886325 -0.000880877 -5.31212e-05
0.00236015 -0.000713311 -0.000705789 -7.30148e-05
0.00235215 -0.000710874 -0.000703403 -7.30133e-05
0.00175685 -0.000533338 -0.000524361 -8.84649e-05
0.00174488 -0.000529661 -0.000520807 -8.84615e-05
0.00291163 -0.000877226 -0.000871888 -5.31178e-05
0.00293168 -0.000883292 -0.00087788 -5.31201e-05
0.00175086 -0.000531499 -0.000522584 -8.84632e-05
0.00232814 -0.000703564 -0.000696245 -7.30089e-05
0.00292166 -0.000880259 -0.000874884 -5.31189e-05
0.00234414 -0.000708437 -0.000701017 -7.30118e-05
0.00233614 -0.000706 -0.000698631 -7.30104e-05
0.00174488 -0.000529661 -0.000520807 -8.84615e-05
0.0017329 -0.000525984 -0.000517252 -8.84582e-05
0.00289158 -0.00087116 -0.000865896 -5.31155e-05
0.00291163 -0.000877226 -0.000871888 -5.31178e-05
0.00173889 -0.000527822 -0.000519029 -8.84599e-05
0.00231213 -0.00069869 -0.000691473 -7.30059e-05
0.00290161 -0.000874193 -0.000868892 -5.31166e-05
0.00232814 -0.000703564 -0.000696245 -7.30089e-05
0.00232013 -0.000701127 -0.000693859 -7.30074e-05
0.0017329 -0.000525984 -0.000517252 -8.84582e-05
0.00172093 -0.000522307 -0.000513696 -8.84548e-05
0.00287153 -0.000865094 -0.000859903 -5.31132e-05
0.00289158 -0.00087116 -0.000865896 -5.31155e-05
0.00172692 -0.000524145 -0.000515474 -8.84565e-05
0.00229612 -0.000693818 -0.0006867 -7.3003e-05
0.00288156 -0.000868127 -0.000862899 -5.31143e-05
0.00231213 -0.00069869 -0.000691473 -7.30059e-05
0.00230412 -0.000696254 -0.000689086 -7.30045e-05
0.00172093 -0.000522307 -0.000513696 -8.84548e-05
0.00170896 -0.000518631 -0.000510141 -8.84514e-05
0.00285149 -0.000859029 -0.00085391 -5.31109e-05
0.00287153 -0.000865094 -0.000859903 -5.31132e-05
0.00171495 -0.000520469 -0.000511919 -8.84531e-05
0.00228011 -0.000688945 -0.000681927 -7.3e-05
0.00286151 -0.000862061 -0.000856907 -5.3112e-05
0.00229612 -0.000693818 -0.0006867 -7.3003e-05
0.00228811 -0.000691381 -0.000684314 -7.30015e-05
0.00170896 -0.000518631 -0.000510141 -8.84514e-05
0.00169699 -0.000514955 -0.000506585 -8.8448e-05
0.00283144 -0.000852964 -0.000847917 -5.31085e-05
0.00285149 -0.000859029 -0.00085391 -5.31109e-05
0.00170297 -0.000516793 -0.000508363 -8.84497e-05
0.0022641 -0.000684073 -0.000677154 -7.2997e-05
0.00284146 -0.000855996 -0.000850914 -5.31097e-05
0.00228011 -0.000688945 -0.000681927 -7.3e-05
0.0022721 -0.000686509 -0.000679541 -7.29985e-05
0.00169699 -0.000514955 -0.000506585 -8.8448e-05
0.00168501 -0.00051128 -0.000503028 -8.84446e-05
0.00281139 -0.000846899 -0.000841924 -5.31062e-05
0.00283144 -0.000852964 -0.000847917 -5.31085e-05
0.001691 -0.000513118 -0.000504807 -8.84463e-05
0.00224809 -0.000679202 -0.000672381 -7.29939e-05
0.00282141 -0.000849931 -0.000844921 -5.31074e-05
0.0022641 -0.000684073 -0.000677154 -7.2997e-05
0.0022561 -0.000681638 -0.000674768 -7.29954e-05
0.00168501 -0.00051128 -0.000503028 -8.84446e-05
0.00167304 -0.000507606 -0.000499472 -8.84411e-05
0.00279134 -0.000840835 -0.000835931 -5.31038e-05
0.00281139 -0.000846899 -0.000841924 -5.31062e-05
0.00167903 -0.000509443 -0.00050125 -8.84428e-05
0.00223208 -0.000674331 -0.000667607 -7.29909e-05
0.00280137 -0.000843867 -0.000838928 -5.3105e-05
0.00224809 -0.000679202 -0.000672381 -7.29939e-05
0.00224009 -0.000676766 -0.000669994 -7.29924e-05
0.00167304 -0.000507606 -0.000499472 -8.84411e-05
0.00166107 -0.000503932 -0.000495914 -8.84376e-05
0.00277129 -0.000834771 -0.000829938 -5.31015e-05
0.00279134 -0.000840835 -0.000835931 -5.31038e-05
0.00166705 -0.000505769 -0.000497693 -8.84394e-05
0.00221607 -0.00066946 -0.000662834 -7.29878e-05
0.00278132 -0.000837803 -0.000832935 -5.31026e-05
0.00223208 -0.000674331 -0.000667607 -7.29909e-05
0.00222408 -0.000671896 -0.00066522 -7.29894e-05
0.00166107 -0.000503932 -0.000495914 -8.84376e-05
0.00164909 -0.000500258 -0.000492357 -8.84341e-05
0.00275125 -0.000828708 -0.000823945 -5.30991e-05
0.00277129 -0.000834771 -0.000829938 -5.31015e-05
0.00165508 -0.000502095 -0.000494136 -8.84359e-05
0.00220006 -0.00066459 -0.000658059 -7.29847e-05
0.00276127 -0.000831739 -0.000826941 -5.31003e-05
0.00221607 -0.00066946 -0.000662834 -7.29878e-05
0.00220807 -0.000667025 -0.000660447 -7.29863e-05
0.00164909 -0.000500258 -0.000492357 -8.84341e-05
0.00163712 -0.000496585 -0.000488799 -8.84306e-05
0.0027312 -0.000822645 -0.000817951 -5.30967e-05
0.00275125 -0.000828708 -0.000823945 -5.30991e-05
0.0016431 -0.000498421 -0.000490578 -8.84324e-05
0.00218405 -0.000659721 -0.000653285 -7.29817e-05
0.00274122 -0.000825676 -0.000820948 -5.30979e-05
0.00220006 -0.00066459 -0.000658059 -7.29847e-05
0.00219206 -0.000662155 -0.000655672 -7.29832e-05
0.00163712 -0.000496585 -0.000488799 -8.84306e-05
0.00162514 -0.000492912 -0.000485241 -8.84271e-05
0.00271115 -0.000816582 -0.000811958 -5.30943e-05
0.0027312 -0.000822645 -0.000817951 -5.30967e-05
0.00163113 -0.000494748 -0.00048702 -8.84289e-05
0.00216804 -0.000654851 -0.000648511 -7.29785e-05
0.00272117 -0.000819613 -0.000814954 -5.30955e-05
0.00218405 -0.000659721 -0.000653285 -7.29817e-05
0.00217605 -0.000657286 -0.000650898 -7.29801e-05
0.00162514 -0.000492912 -0.000485241 -8.84271e-05
0.00161317 -0.00048924 -0.000481682 -8.84236e-05
0.0026911 -0.00081052 -0.000805964 -5.30919e-05
0.00271115 -0.000816582 -0.000811958 -5.30943e-05
0.00161915 -0.000491076 -0.000483462 -8.84253e-05
0.00215203 -0.000649983 -0.000643736 -7.29754e-05
0.00270113 -0.000813551 -0.000808961 -5.30931e-05
0.00216804 -0.000654851 -0.000648511 -7.29785e-05
0.00216004 -0.000652417 -0.000646123 -7.2977e-05
0.00161317 -0.00048924 -0.000481682 -8.84236e-05
0.00160119 -0.000485568 -0.000478124 -8.842e-05
0.00267105 -0.000804458 -0.00079997 -5.30895e-05
0.0026911 -0.00081052 -0.000805964 -5.30919e-05
0.00160718 -0.000487404 -0.000479903 -8.84218e-05
0.00213602 -0.000645114 -0.000638961 -7.29723e-05
0.00268108 -0.000807489 -0.000802967 -5.30907e-05
0.00215203 -0.000649983 -0.000643736 -7.29754e-05
0.00214403 -0.000647549 -0.000641348 -7.29739e-05
0.00160119 -0.000485568 -0.000478124 -8.842e-05
0.00158921 -0.000481897 -0.000474564 -8.84164e-05
0.00265101 -0.000798397 -0.000793976 -5.3087e-05
0.00267105 -0.000804458 -0.00079997 -5.30895e-05
0.0015952 -0.000483733 -0.000476344 -8.84182e-05
0.00212001 -0.000640247 -0.000634185 -7.29692e-05
0.00266103 -0.000801427 -0.000796973 -5.30883e-05
0.00213602 -0.000645114 -0.000638961 -7.29723e-05
0.00212802 -0.00064268 -0.000636573 -7.29707e-05
0.00158921 -0.000481897 -0.000474564 -8.84164e-05
0.00157724 -0.000478227 -0.000471005 -8.84128e-05
0.00263096 -0.000792336 -0.000787982 -5.30846e-05
0.00265101 -0.000798397 -0.000793976 -5.3087e-05
0.00158323 -0.000480062 -0.000472785 -8.84146e-05
0.002104 -0.000635379 -0.00062941 -7.2966e-05
0.00264098 -0.000795366 -0.000790979 -5.30858e-05
0.00212001 -0.000640247 -0.000634185 -7.29692e-05
0.00211201 -0.000637813 -0.000631798 -7.29676e-05
0.00157724 -0.000478227 -0.000471005 -8.84128e-05
0.00156526 -0.000474556 -0.000467445 -8.84092e-05
0.00261091 -0.000786275 -0.000781988 -5.30822e-05
0.00263096 -0.000792336 -0.000787982 -5.30846e-05
0.00157125 -0.000476391 -0.000469225 -8.8411e-05
0.00208799 -0.000630512 -0.000624634 -7.29628e-05
0.00262094 -0.000789305 -0.000784985 -5.30834e-05
0.002104 -0.000635379 -0.00062941 -7.2966e-05
0.002096 -0.000632946 -0.000627022 -7.29644e-05
0.00156526 -0.000474556 -0.000467445 -8.84092e-05
0.00155328 -0.000470887 -0.000463885 -8.84056e-05
0.00259087 -0.000780215 -0.000775993 -5.30797e-05
0.00261091 -0.000786275 -0.000781988 -5.30822e-05
0.00155927 -0.000472722 -0.000465665 -8.84074e-05
0.00207198 -0.000625646 -0.000619858 -7.29597e-05
0.00260089 -0.000783245 -0.000778991 -5.3081e-05
0.00208799 -0.000630512 -0.000624634 -7.29628e-05
0.00207999 -0.000628079 -0.000622246 -7.29613e-05
0.00155328 -0.000470887 -0.000463885 -8.84056e-05
0.00154131 -0.000467218 -0.000460324 -8.8402e-05
0.00257082 -0.000774155 -0.000769999 -5.30773e-05
0.00259087 -0.000780215 -0.000775993 -5.30797e-05
0.0015473 -0.000469052 -0.000462104 -8.84038e-05
0.00205597 -0.00062078 -0.000615082 -7.29565e-05
0.00258084 -0.000777185 -0.000772996 -5.30785e-05
0.00207198 -0.000625646 -0.000619858 -7.29597e-05
0.00206398 -0.000623213 -0.00061747 -7.29581e-05
0.00154131 -0.000467218 -0.000460324 -8.8402e-05
0.00152933 -0.000463549 -0.000456763 -8.83984e-05
0.00255077 -0.000768096 -0.000764005 -5.30748e-05
0.00257082 -0.000774155 -0.000769999 -5.30773e-05
0.00153532 -0.000465383 -0.000458543 -8.84002e-05
0.00203996 -0.000615914 -0.000610305 -7.29533e-05
0.0025608 -0.000771125 -0.000767002 -5.3076e-05
0.00205597 -0.00062078 -0.000615082 -7.29565e-05
0.00204797 -0.000618347 -0.000612694 -7.29549e-05
0.00152933 -0.000463549 -0.000456763 -8.83984e-05
0.00151735 -0.000459881 -0.000453202 -8.83948e-05
0.00253073 -0.000762036 -0.00075801 -5.30723e-05
0.00255077 -0.000768096 -0.000764005 -5.30748e-05
0.00152334 -0.000461715 -0.000454982 -8.83966e-05
0.00202395 -0.000611049 -0.000605529 -7.29501e-05
0.00254075 -0.000765066 -0.000761007 -5.30736e-05
0.00203996 -0.000615914 -0.000610305 -7.29533e-05
0.00203195 -0.000613482 -0.000607917 -7.29517e-05
0.00151735 -0.000459881 -0.000453202 -8.83948e-05
0.00150537 -0.000456213 -0.00044964 -8.83911e-05
0.00251068 -0.000755978 -0.000752015 -5.30699e-05
0.00253073 -0.000762036 -0.00075801 -5.30723e-05
0.00151136 -0.000458047 -0.000451421 -8.83929e-05
0.00200794 -0.000606185 -0.000600752 -7.29469e-05
0.0025207 -0.000759007 -0.000755012 -5.30711e-05
0.00202395 -0.000611049 -0.000605529 -7.29501e-05
0.00201594 -0.000608617 -0.00060314 -7.29485e-05
0.00150537 -0.000456213 -0.00044964 -8.83911e-05
0.00149339 -0.000452546 -0.000446078 -8.83875e-05
0.00249063 -0.00074992 -0.00074602 -5.30674e-05
0.00251068 -0.000755978 -0.000752015 -5.30699e-05
0.00149938 -0.000454379 -0.000447859 -8.83893e-05
0.00199193 -0.000601321 -0.000595974 -7.29437e-05
0.00250066 -0.000752949 -0.000749018 -5.30686e-05
0.00200794 -0.000606185 -0.000600752 -7.29469e-05
0.00199993 -0.000603753 -0.000598363 -7.29453e-05
0.00149339 -0.000452546 -0.000446078 -8.83875e-05
0.00148142 -0.000448879 -0.000442515 -8.83838e-05
0.00247059 -0.000743862 -0.000740025 -5.30649e-05
0.00249063 -0.00074992 -0.00074602 -5.30674e-05
0.0014874 -0.000450713 -0.000444297 -8.83856e-05
0.00197592 -0.000596457 -0.000591197 -7.29405e-05
0.00248061 -0.000746891 -0.000743023 -5.30662e-05
0.00199193 -0.000601321 -0.000595974 -7.29437e-05
0.00198392 -0.000598889 -0.000593586 -7.29421e-05
0.00148142 -0.000448879 -0.000442515 -8.83838e-05
0.00146944 -0.000445213 -0.000438953 -8.83801e-05
0.00245054 -0.000737804 -0.00073403 -5.30624e-05
0.00247059 -0.000743862 -0.000740025 -5.30649e-05
0.00147543 -0.000447046 -0.000440734 -8.8382e-05
0.0019599 -0.000591594 -0.000586419 -7.29373e-05
0.00246056 -0.000740833 -0.000737028 -5.30637e-05
0.00197592 -0.000596457 -0.000591197 -7.29405e-05
0.00196791 -0.000594025 -0.000588808 -7.29389e-05
0.00146944 -0.000445213 -0.000438953 -8.83801e-05
0.00145746 -0.000441547 -0.00043539 -8.83765e-05
0.0024305 -0.000731747 -0.000728035 -5.306e-05
0.00245054 -0.000737804 -0.00073403 -5.30624e-05
0.00146345 -0.00044338 -0.000437171 -8.83783e-05
0.00194389 -0.000586731 -0.000581641 -7.2934e-05
0.00244052 -0.000734776 -0.000731033 -5.30612e-05
0.0019599 -0.000591594 -0.000586419 -7.29373e-05
0.0019519 -0.000589162 -0.00058403 -7.29357e-05
0.00145746 -0.000441547 -0.00043539 -8.83765e-05
0.00144548 -0.000437882 -0.000431826 -8.83728e-05
0.00241045 -0.000725691 -0.00072204 -5.30575e-05
0.0024305 -0.000731747 -0.000728035 -5.306e-05
0.00145147 -0.000439715 -0.000433608 -8.83746e-05
0.00192788 -0.000581869 -0.000576863 -7.29308e-05
0.00242047 -0.000728719 -0.000725037 -5.30587e-05
0.00194389 -0.000586731 -0.000581641 -7.2934e-05
0.00193589 -0.0005843 -0.000579252 -7.29324e-05
0.00144548 -0.000437882 -0.000431826 -8.83728e-05
0.0014335 -0.000434218 -0.000428262 -8.83691e-05
0.0023904 -0.000719634 -0.000716044 -5.3055e-05
0.00241045 -0.000725691 -0.00072204 -5.30575e-05
0.00143949 -0.00043605 -0.000430044 -8.83709e-05
0.00191187 -0.000577007 -0.000572084 -7.29276e-05
0.00240043 -0.000722662 -0.000719042 -5.30562e-05
0.00192788 -0.000581869 -0.000576863 -7.29308e-05
0.00191988 -0.000579438 -0.000574474 -7.29292e-05
0.0014335 -0.000434218 -0.000428262 -8.83691e-05
0.00142152 -0.000430553 -0.000424698 -8.83654e-05
0.00237036 -0.000713578 -0.000710049 -5.30525e-05
0.0023904 -0.000719634 -0.000716044 -5.3055e-05
0.00142751 -0.000432386 -0.00042648 -8.83673e-05
0.00189586 -0.000572146 -0.000567306 -7.29244e-05
0.00238038 -0.000716606 -0.000713046 -5.30537e-05
0.00191187 -0.000577007 -0.000572084 -7.29276e-05
0.00190386 -0.000574576 -0.000569695 -7.2926e-05
0.00142152 -0.000430553 -0.000424698 -8.83654e-05
0.00140954 -0.00042689 -0.000421134 -8.83617e-05
0.00235031 -0.000707523 -0.000704053 -5.305e-05
0.00237036 -0.000713578 -0.000710049 -5.30525e-05
0.00141553 -0.000428722 -0.000422916 -8.83636e-05
0.00187985 -0.000567285 -0.000562527 -7.29211e-05
0.00236034 -0.000710551 -0.000707051 -5.30512e-05
0.00189586 -0.000572146 -0.000567306 -7.29244e-05
0.00188785 -0.000569715 -0.000564916 -7.29227e-05
0.00140954 -0.00042689 -0.000421134 -8.83617e-05
0.00139755 -0.000423227 -0.000417569 -8.8358e-05
0.00233027 -0.000701468 -0.000698057 -5.30475e-05
0.00235031 -0.000707523 -0.000704053 -5.305e-05
0.00140355 -0.000425058 -0.000419351 -8.83599e-05
0.00186384 -0.000562424 -0.000557748 -7.29179e-05
0.00234029 -0.000704495 -0.000701055 -5.30487e-05
0.00187985 -0.000567285 -0.000562527 -7.29211e-05
0.00187184 -0.000564854 -0.000560137 -7.29195e-05
0.00139755 -0.000423227 -0.000417569 -8.8358e-05
0.00138557 -0.000419564 -0.000414004 -8.83543e-05
0.00231022 -0.000695413 -0.000692061 -5.3045e-05
0.00233027 -0.000701468 -0.000698057 -5.30475e-05
0.00139156 -0.000421395 -0.000415787 -8.83562e-05
0.00184782 -0.000557564 -0.000552968 -7.29146e-05
0.00232025 -0.000698441 -0.000695059 -5.30462e-05
0.00186384 -0.000562424 -0.000557748 -7.29179e-05
0.00185583 -0.000559994 -0.000555358 -7.29163e-05
0.00138557 -0.000419564 -0.000414004 -8.83543e-05
0.00137359 -0.000415902 -0.000410438 -8.83507e-05
0.00229018 -0.000689359 -0.000686065 -5.30425e-05
0.00231022 -0.000695413 -0.000692061 -5.3045e-05
0.00137958 -0.000417733 -0.000412221 -8.83525e-05
0.00183181 -0.000552705 -0.000548189 -7.29114e-05
0.0023002 -0.000692386 -0.000689063 -5.30438e-05
0.00184782 -0.000557564 -0.000552968 -7.29146e-05
0.00183982 -0.000555134 -0.000550579 -7.2913e-05
0.00137359 -0.000415902 -0.000410438 -8.83507e-05
0.00136161 -0.00041224 -0.000406872 -8.8347e-05
0.00227013 -0.000683305 -0.000680069 -5.304e-05
0.00229018 -0.000689359 -0.000686065 -5.30425e-05
0.0013676 -0.000414071 -0.000408655 -8.83488e-05
0.0018158 -0.000547846 -0.000543409 -7.29082e-05
0.00228016 -0.000686332 -0.000683067 -5.30413e-05
0.00183181 -0.000552705 -0.000548189 -7.29114e-05
0.00182381 -0.000550275 -0.000545799 -7.29098e-05
0.00136161 -0.00041224 -0.000406872 -8.8347e-05
0.00134963 -0.000408579 -0.000403306 -8.83433e-05
0.00225009 -0.000677252 -0.000674073 -5.30375e-05
0.00227013 -0.000683305 -0.000680069 -5.304e-05
0.00135562 -0.00041041 -0.000405089 -8.83451e-05
0.00179979 -0.000542987 -0.000538629 -7.29049e-05
0.00226011 -0.000680278 -0.000677071 -5.30388e-05
0.0018158 -0.000547846 -0.000543409 -7.29082e-05
0.00180779 -0.000545416 -0.000541019 -7.29065e-05
0.00134963 -0.000408579 -0.000403306 -8.83433e-05
0.00133764 -0.000404918 -0.00039974 -8.83396e-05
0.00223004 -0.000671199 -0.000668077 -5.3035e-05
0.00225009 -0.000677252 -0.000674073 -5.30375e-05
0.00134364 -0.000406749 -0.000401523 -8.83414e-05
0.00178378 -0.000538129 -0.000533848 -7.29017e-05
0.00224007 -0.000674225 -0.000671075 -5.30363e-05
0.00179979 -0.000542987 -0.000538629 -7.29049e-05
0.00179178 -0.000540558 -0.000536239 -7.29033e-05
0.00133764 -0.000404918 -0.00039974 -8.83396e-05
0.00132566 -0.000401258 -0.000396173 -8.83359e-05
0.00221 -0.000665146 -0.00066208 -5.30325e-05
0.00223004 -0.000671199 -0.000668077 -5.3035e-05
0.00133165 -0.000403088 -0.000397956 -8.83378e-05
0.00176776 -0.000533271 -0.000529068 -7.28985e-05
0.00222002 -0.000668172 -0.000665079 -5.30338e-05
0.00178378 -0.000538129 -0.000533848 -7.29017e-05
0.00177577 -0.0005357 -0.000531458 -7.29001e-05
0.00132566 -0.000401258 -0.000396173 -8.83359e-05
0.00131368 -0.000397599 -0.000392606 -8.83322e-05
0.00218996 -0.000659094 -0.000656084 -5.303e-05
0.00221 -0.000665146 -0.00066208 -5.30325e-05
0.00131967 -0.000399428 -0.000394389 -8.83341e-05
0.00175175 -0.000528414 -0.000524287 -7.28952e-05
0.00219998 -0.00066212 -0.000659082 -5.30313e-05
0.00176776 -0.000533271 -0.000529068 -7.28985e-05
0.00175976 -0.000530843 -0.000526677 -7.28968e-05
0.00131368 -0.000397599 -0.000392606 -8.83322e-05
0.00130169 -0.000393939 -0.000389038 -8.83286e-05
0.00216991 -0.000653042 -0.000650087 -5.30275e-05
0.00218996 -0.000659094 -0.000656084 -5.303e-05
0.00130769 -0.000395769 -0.000390822 -8.83304e-05
0.00173574 -0.000523557 -0.000519506 -7.2892e-05
0.00217993 -0.000656068 -0.000653085 -5.30288e-05
0.00175175 -0.000528414 -0.000524287 -7.28952e-05
0.00174374 -0.000525986 -0.000521896 -7.28936e-05
0.00130169 -0.000393939 -0.000389038 -8.83286e-05
0.00128971 -0.000390281 -0.00038547 -8.83249e-05
0.00214987 -0.00064699 -0.00064409 -5.30251e-05
0.00216991 -0.000653042 -0.000650087 -5.30275e-05
0.0012957 -0.00039211 -0.000387254 -8.83267e-05
0.00171973 -0.000518701 -0.000514725 -7.28888e-05
0.00215989 -0.000650016 -0.000647089 -5.30263e-05
0.00173574 -0.000523557 -0.000519506 -7.2892e-05
0.00172773 -0.000521129 -0.000517115 -7.28904e-05
0.00128971 -0.000390281 -0.00038547 -8.83249e-05
0.00127773 -0.000386623 -0.000381902 -8.83212e-05
0.00212982 -0.000640939 -0.000638094 -5.30226e-05
0.00214987 -0.00064699 -0.00064409 -5.30251e-05
0.00128372 -0.000388452 -0.000383686 -8.8323e-05
0.00170371 -0.000513845 -0.000509943 -7.28856e-05
0.00213985 -0.000643965 -0.000641092 -5.30238e-05
0.00171973 -0.000518701 -0.000514725 -7.28888e-05
0.00171172 -0.000516273 -0.000512334 -7.28872e-05
0.00127773 -0.000386623 -0.000381902 -8.83212e-05
0.00126574 -0.000382965 -0.000378333 -8.83175e-05
0.00210978 -0.000634889 -0.000632097 -5.30201e-05
0.00212982 -0.000640939 -0.000638094 -5.30226e-05
0.00127173 -0.000384794 -0.000380117 -8.83194e-05
0.0016877 -0.00050899 -0.000505161 -7.28823e-05
0.0021198 -0.000637914 -0.000635095 -5.30213e-05
0.00170371 -0.000513845 -0.000509943 -7.28856e-05
0.00169571 -0.000511417 -0.000507552 -7.28839e-05
0.00126574 -0.000382965 -0.000378333 -8.83175e-05
0.00125376 -0.000379308 -0.000374764 -8.83139e-05
0.00208974 -0.000628839 -0.000626099 -5.30176e-05
0.00210978 -0.000634889 -0.000632097 -5.30201e-05
0.00125975 -0.000381136 -0.000376549 -8.83157e-05
0.00167169 -0.000504135 -0.000500379 -7.28791e-05
0.00209976 -0.000631864 -0.000629098 -5.30189e-05
0.0016877 -0.00050899 -0.000505161 -7.28823e-05
0.00167969 -0.000506562 -0.00050277 -7.28807e-05
0.00125376 -0.000379308 -0.000374764 -8.83139e-05
0.00124177 -0.000375651 -0.000371195 -8.83102e-05
0.00206969 -0.000622789 -0.000620102 -5.30151e-05
0.00208974 -0.000628839 -0.000626099 -5.30176e-05
0.00124776 -0.000377479 -0.000372979 -8.83121e-05
0.00165567 -0.00049928 -0.000495597 -7.28759e-05
0.00207972 -0.000625814 -0.000623101 -5.30164e-05
0.00167169 -0.000504135 -0.000500379 -7.28791e-05
0.00166368 -0.000501708 -0.000497988 -7.28775e-05
0.00124177 -0.000375651 -0.000371195 -8.83102e-05
0.00122979 -0.000371995 -0.000367625 -8.83066e-05
0.00204965 -0.000616739 -0.000614105 -5.30127e-05
0.00206969 -0.000622789 -0.000620102 -5.30151e-05
0.00123578 -0.000373823 -0.00036941 -8.83084e-05
0.00163966 -0.000494427 -0.000490814 -7.28727e-05
0.00205967 -0.000619764 -0.000617104 -5.30139e-05
0.00165567 -0.00049928 -0.000495597 -7.28759e-05
0.00164767 -0.000496853 -0.000493206 -7.28743e-05
0.00122979 -0.000371995 -0.000367625 -8.83066e-05
0.0012178 -0.000368339 -0.000364055 -8.8303e-05
0.00202961 -0.00061069 -0.000608108 -5.30102e-05
0.00204965 -0.000616739 -0.000614105 -5.30127e-05
0.00122379 -0.000370167 -0.00036584 -8.83048e-05
0.00162365 -0.000489573 -0.000486032 -7.28695e-05
0.00203963 -0.000613715 -0.000611106 -5.30115e-05
0.00163966 -0.000494427 -0.000490814 -7.28727e-05
0.00163165 -0.000492 -0.000488423 -7.28711e-05
0.0012178 -0.000368339 -0.000364055 -8.8303e-05
0.00120581 -0.000364684 -0.000360485 -8.82993e-05
0.00200956 -0.000604642 -0.00060211 -5.30078e-05
0.00202961 -0.00061069 -0.000608108 -5.30102e-05
0.00121181 -0.000366512 -0.00036227 -8.83012e-05
0.00160763 -0.00048472 -0.000481249 -7.28663e-05
0.00201959 -0.000607666 -0.000605109 -5.3009e-05
0.00162365 -0.000489573 -0.000486032 -7.28695e-05
0.00161564 -0.000487146 -0.00048364 -7.28679e-05
0.00120581 -0.000364684 -0.000360485 -8.82993e-05
0.00119383 -0.000361029 -0.000356914 -8.82957e-05
0.00198952 -0.000598593 -0.000596112 -5.30053e-05
0.00200956 -0.000604642 -0.00060211 -5.30078e-05
0.00119982 -0.000362857 -0.000358699 -8.82975e-05
0.00159162 -0.000479867 -0.000476466 -7.28632e-05
0.00199954 -0.000601617 -0.000599111 -5.30065e-05
0.00160763 -0.00048472 -0.000481249 -7.28663e-05
0.00159963 -0.000482294 -0.000478857 -7.28648e-05
0.00119383 -0.000361029 -0.000356914 -8.82957e-05
0.00118184 -0.000357375 -0.000353343 -8.82921e-05
0.00196948 -0.000592545 -0.000590115 -5.30029e-05
0.00198952 -0.000598593 -0.000596112 -5.30053e-05
0.00118784 -0.000359202 -0.000355128 -8.82939e-05
0.00157561 -0.000475015 -0.000471682 -7.286e-05
0.0019795 -0.000595569 -0.000593114 -5.30041e-05
0.00159162 -0.000479867 -0.000476466 -7.28632e-05
0.00158361 -0.000477441 -0.000474074 -7.28616e-05
0.00118184 -0.000357375 -0.000353343 -8.82921e-05
0.00116985 -0.000353722 -0.000349771 -8.82885e-05
0.00194944 -0.000586498 -0.000584117 -5.30004e-05
0.00196948 -0.000592545 -0.000590115 -5.30029e-05
0.00117585 -0.000355548 -0.000351557 -8.82903e-05
0.00155959 -0.000470163 -0.000466898 -7.28568e-05
0.00195946 -0.000589522 -0.000587116 -5.30016e-05
0.00157561 -0.000475015 -0.000471682 -7.286e-05
0.0015676 -0.000472589 -0.00046929 -7.28584e-05
0.00116985 -0.000353722 -0.000349771 -8.82885e-05
0.00115787 -0.000350068 -0.0003462 -8.82849e-05
0.00192939 -0.000580451 -0.000578119 -5.2998e-05
0.00194944 -0.000586498 -0.000584117 -5.30004e-05
0.00116386 -0.000351895 -0.000347986 -8.82867e-05
0.00154358 -0.000465312 -0.000462114 -7.28537e-05
0.00193942 -0.000583474 -0.000581118 -5.29992e-05
0.00155959 -0.000470163 -0.000466898 -7.28568e-05
0.00155159 -0.000467738 -0.000464506 -7.28553e-05
0.00115787 -0.000350068 -0.0003462 -8.82849e-05
0.00114588 -0.000346416 -0.000342627 -8.82814e-05
0.00190935 -0.000574404 -0.000572121 -5.29956e-05
0.00192939 -0.000580451 -0.000578119 -5.2998e-05
0.00115187 -0.000348242 -0.000344414 -8.82831e-05
0.00152757 -0.000460461 -0.00045733 -7.28505e-05
0.00191937 -0.000577427 -0.00057512 -5.29968e-05
0.00154358 -0.000465312 -0.000462114 -7.28537e-05
0.00153557 -0.000462887 -0.000459722 -7.28521e-05
0.00114588 -0.000346416 -0.000342627 -8.82814e-05
0.00113389 -0.000342764 -0.000339055 -8.82778e-05
0.00188931 -0.000568358 -0.000566122 -5.29931e-05
0.00190935 -0.000574404 -0.000572121 -5.29956e-05
0.00113989 -0.00034459 -0.000340841 -8.82796e-05
0.00151155 -0.000455611 -0.000452546 -7.28474e-05
0.00189933 -0.000571381 -0.000569122 -5.29944e-05
0.00152757 -0.000460461 -0.00045733 -7.28505e-05
0.00151956 -0.000458036 -0.000454938 -7.2849e-05
0.00113389 -0.000342764 -0.000339055 -8.82778e-05
0.0011219 -0.000339112 -0.000335482 -8.82743e-05
0.00186927 -0.000562312 -0.000560124 -5.29907e-05
0.00188931 -0.000568358 -0.000566122 -5.29931e-05
0.0011279 -0.000340938 -0.000337269 -8.8276e-05
0.00149554 -0.000450761 -0.000447761 -7.28443e-05
0.00187929 -0.000565335 -0.000563123 -5.29919e-05
0.00151155 -0.000455611 -0.000452546 -7.28474e-05
0.00150354 -0.000453186 -0.000450153 -7.28458e-05
0.0011219 -0.000339112 -0.000335482 -8.82743e-05
0.00110991 -0.000335461 -0.000331909 -8.82707e-05
0.00184923 -0.000556266 -0.000554126 -5.29883e-05
0.00186927 -0.000562312 -0.000560124 -5.29907e-05
0.00111591 -0.000337286 -0.000333696 -8.82725e-05
0.00147952 -0.000445912 -0.000442976 -7.28412e-05
0.00185925 -0.000559289 -0.000557125 -5.29895e-05
0.00149554 -0.000450761 -0.000447761 -7.28443e-05
0.00148753 -0.000448337 -0.000445369 -7.28427e-05
0.00110991 -0.000335461 -0.000331909 -8.82707e-05
0.00109793 -0.00033181 -0.000328335 -8.82672e-05
0.00182918 -0.000550221 -0.000548127 -5.29859e-05
0.00184923 -0.000556266 -0.000554126 -5.29883e-05
0.00110392 -0.000333635 -0.000330122 -8.8269e-05
0.00146351 -0.000441063 -0.000438191 -7.28381e-05
0.00183921 -0.000553244 -0.000551126 -5.29871e-05
0.00147952 -0.000445912 -0.000442976 -7.28412e-05
0.00147152 -0.000443487 -0.000440584 -7.28396e-05
0.00109793 -0.00033181 -0.000328335 -8.82672e-05
0.00108594 -0.00032816 -0.000324761 -8.82637e-05
0.00180914 -0.000544177 -0.000542128 -5.29835e-05
0.00182918 -0.000550221 -0.000548127 -5.29859e-05
0.00109193 -0.000329985 -0.000326548 -8.82654e-05
0.00144749 -0.000436214 -0.000433406 -7.2835e-05
0.00181916 -0.000547199 -0.000545128 -5.29847e-05
0.00146351 -0.000441063 -0.000438191 -7.28381e-05
0.0014555 -0.000438639 -0.000435798 -7.28365e-05
0.00108594 -0.00032816 -0.000324761 -8.82637e-05
0.00107395 -0.00032451 -0.000321187 -8.82602e-05
0.0017891 -0.000538132 -0.00053613 -5.29812e-05
0.00180914 -0.000544177 -0.000542128 -5.29835e-05
0.00107994 -0.000326335 -0.000322974 -8.82619e-05
0.00143148 -0.000431366 -0.00042862 -7.28319e-05
0.00179912 -0.000541154 -0.000539129 -5.29824e-05
0.00144749 -0.000436214 -0.000433406 -7.2835e-05
0.00143949 -0.00043379 -0.000431013 -7.28334e-05
0.00107395 -0.00032451 -0.000321187 -8.82602e-05
0.00106196 -0.000320861 -0.000317613 -8.82567e-05
0.00176906 -0.000532088 -0.000530131 -5.29788e-05
0.0017891 -0.000538132 -0.00053613 -5.29812e-05
0.00106795 -0.000322685 -0.0003194 -8.82585e-05
0.00141546 -0.000426519 -0.000423834 -7.28288e-05
0.00177908 -0.00053511 -0.00053313 -5.298e-05
0.00143148 -0.000431366 -0.00042862 -7.28319e-05
0.00142347 -0.000428942 -0.000426227 -7.28304e-05
0.00106196 -0.000320861 -0.000317613 -8.82567e-05
0.00104997 -0.000317212 -0.000314038 -8.82533e-05
0.00174902 -0.000526045 -0.000524132 -5.29764e-05
0.00176906 -0.000532088 -0.000530131 -5.29788e-05
0.00105596 -0.000319036 -0.000315825 -8.8255e-05
0.00139945 -0.000421672 -0.000419048 -7.28258e-05
0.00175904 -0.000529066 -0.000527131 -5.29776e-05
0.00141546 -0.000426519 -0.000423834 -7.28288e-05
0.00140746 -0.000424095 -0.000421441 -7.28273e-05
0.00104997 -0.000317212 -0.000314038 -8.82533e-05
0.00103798 -0.000313564 -0.000310462 -8.82498e-05
0.00172898 -0.000520001 -0.000518132 -5.29741e-05
0.00174902 -0.000526045 -0.000524132 -5.29764e-05
0.00104397 -0.000315388 -0.00031225 -8.82515e-05
0.00138343 -0.000416825 -0.000414261 -7.28228e-05
0.001739 -0.000523023 -0.000521132 -5.29753e-05
0.00139945 -0.000421672 -0.000419048 -7.28258e-05
0.00139144 -0.000419248 -0.000416655 -7.28243e-05
0.00103798 -0.000313564 -0.000310462 -8.82498e-05
0.00102598 -0.000309916 -0.000306887 -8.82464e-05
0.00170894 -0.000513959 -0.000512133 -5.29718e-05
0.00172898 -0.000520001 -0.000518132 -5.29741e-05
0.00103198 -0.00031174 -0.000308675 -8.82481e-05
0.00136742 -0.000411979 -0.000409475 -7.28197e-05
0.00171896 -0.00051698 -0.000515133 -5.29729e-05
0.00138343 -0.000416825 -0.000414261 -7.28228e-05
0.00137543 -0.000414402 -0.000411868 -7.28213e-05
0.00102598 -0.000309916 -0.000306887 -8.82464e-05
0.00101399 -0.000306269 -0.000303311 -8.8243e-05
0.00168889 -0.000507916 -0.000506134 -5.29694e-05
0.00170894 -0.000513959 -0.000512133 -5.29718e-05
0.00101999 -0.000308092 -0.000305099 -8.82447e-05
0.0013514 -0.000407133 -0.000404688 -7.28167e-05
0.00169892 -0.000510937 -0.000509133 -5.29706e-05
0.00136742 -0.000411979 -0.000409475 -7.28197e-05
0.00135941 -0.000409556 -0.000407081 -7.28182e-05
0.00101399 -0.000306269 -0.000303311 -8.8243e-05
0.001002 -0.000302622 -0.000299734 -8.82396e-05
0.00166885 -0.000501874 -0.000500134 -5.29671e-05
0.00168889 -0.000507916 -0.000506134 -5.29694e-05
0.001008 -0.000304445 -0.000301522 -8.82413e-05
0.00133539 -0.000402287 -0.000399901 -7.28137e-05
0.00167887 -0.000504895 -0.000503134 -5.29683e-05
0.0013514 -0.000407133 -0.000404688 -7.28167e-05
0.0013434 -0.00040471 -0.000402294 -7.28152e-05
0.001002 -0.000302622 -0.000299734 -8.82396e-05
0.00099001 -0.000298976 -0.000296158 -8.82362e-05
0.00164881 -0.000495833 -0.000494134 -5.29648e-05
0.00166885 -0.000501874 -0.000500134 -5.29671e-05
0.000996006 -0.000300799 -0.000297946 -8.82379e-05
0.00131937 -0.000397442 -0.000395113 -7.28108e-05
0.00165883 -0.000498853 -0.000497134 -5.2966e-05
0.00133539 -0.000402287 -0.000399901 -7.28137e-05
0.00132738 -0.000399865 -0.000397507 -7.28123e-05
0.00099001 -0.000298976 -0.000296158 -8.82362e-05
0.000978017 -0.00029533 -0.00029258 -8.82329e-05
0.00162877 -0.000489791 -0.000488134 -5.29625e-05
0.00164881 -0.000495833 -0.000494134 -5.29648e-05
0.000984014 -0.000297153 -0.000294369 -8.82345e-05
0.00130336 -0.000392598 -0.000390326 -7.28078e-05
0.00163879 -0.000492812 -0.000491134 -5.29637e-05
0.00131937 -0.000397442 -0.000395113 -7.28108e-05
0.00131137 -0.00039502 -0.000392719 -7.28093e-05
0.000978017 -0.00029533 -0.00029258 -8.82329e-05
0.000966025 -0.000291685 -0.000289003 -8.82295e-05
0.00160873 -0.00048375 -0.000482134 -5.29602e-05
0.00162877 -0.000489791 -0.000488134 -5.29625e-05
0.000972021 -0.000293507 -0.000290792 -8.82312e-05
0.00128734 -0.000387754 -0.000385538 -7.28049e-05
0.00161875 -0.000486771 -0.000485134 -5.29614e-05
0.00130336 -0.000392598 -0.000390326 -7.28078e-05
0.00129535 -0.000390176 -0.000387932 -7.28063e-05
0.000966025 -0.000291685 -0.000289003 -8.82295e-05
0.000954032 -0.00028804 -0.000285425 -8.82262e-05
0.00158869 -0.00047771 -0.000476134 -5.2958e-05
0.00160873 -0.00048375 -0.000482134 -5.29602e-05
0.000960028 -0.000289862 -0.000287214 -8.82279e-05
0.00127133 -0.00038291 -0.000380749 -7.28019e-05
0.00159871 -0.00048073 -0.000479134 -5.29591e-05
0.00128734 -0.000387754 -0.000385538 -7.28049e-05
0.00127933 -0.000385332 -0.000383144 -7.28034e-05
0.000954032 -0.00028804 -0.000285425 -8.82262e-05
0.000942038 -0.000284395 -0.000281847 -8.82229e-05
0.00156865 -0.00047167 -0.000470134 -5.29557e-05
0.00158869 -0.00047771 -0.000476134 -5.2958e-05
0.000948035 -0.000286217 -0.000283636 -8.82246e-05
0.00125531 -0.000378067 -0.000375961 -7.2799e-05
0.00157867 -0.00047469 -0.000473134 -5.29568e-05
0.00127133 -0.00038291 -0.000380749 -7.28019e-05
0.00126332 -0.000380489 -0.000378355 -7.28005e-05
0.000942038 -0.000284395 -0.000281847 -8.82229e-05
0.000930044 -0.000280751 -0.000278268 -8.82196e-05
0.00154861 -0.00046563 -0.000464134 -5.29535e-05
0.00156865 -0.00047167 -0.000470134 -5.29557e-05
0.000936041 -0.000282573 -0.000280058 -8.82213e-05
0.00123929 -0.000373224 -0.000371172 -7.27961e-05
0.00155863 -0.00046865 -0.000467134 -5.29546e-05
0.00125531 -0.000378067 -0.000375961 -7.2799e-05
0.0012473 -0.000375646 -0.000373567 -7.27976e-05
0.000930044 -0.000280751 -0.000278268 -8.82196e-05
0.00091805 -0.000277108 -0.000274689 -8.82164e-05
0.00152857 -0.00045959 -0.000458133 -5.29512e-05
0.00154861 -0.00046563 -0.000464134 -5.29535e-05
0.000924047 -0.00027893 -0.000276479 -8.8218e-05
0.00122328 -0.000368382 -0.000366383 -7.27933e-05
0.00153859 -0.00046261 -0.000461134 -5.29523e-05
0.00123929 -0.000373224 -0.000371172 -7.27961e-05
0.00123128 -0.000370803 -0.000368778 -7.27947e-05
0.00091805 -0.000277108 -0.000274689 -8.82164e-05
0.000906055 -0.000273465 -0.00027111 -8.82132e-05
0.00150853 -0.000453551 -0.000452133 -5.2949e-05
0.00152857 -0.00045959 -0.000458133 -5.29512e-05
0.000912053 -0.000275286 -0.0002729 -8.82148e-05
0.00120726 -0.00036354 -0.000361594 -7.27904e-05
0.00151855 -0.000456571 -0.000455133 -5.29501e-05
0.00122328 -0.000368382 -0.000366383 -7.27933e-05
0.00121527 -0.000365961 -0.000363989 -7.27918e-05
0.000906055 -0.000273465 -0.00027111 -8.82132e-05
0.00089406 -0.000269823 -0.000267531 -8.821e-05
0.00148849 -0.000447513 -0.000446132 -5.29468e-05
0.00150853 -0.000453551 -0.000452133 -5.2949e-05
0.000900058 -0.000271644 -0.00026932 -8.82116e-05
0.00119124 -0.000358699 -0.000356805 -7.27876e-05
0.00149851 -0.000450532 -0.000449132 -5.29479e-05
0.00120726 -0.00036354 -0.000361594 -7.27904e-05
0.00119925 -0.00036112 -0.000359199 -7.2789e-05
0.00089406 -0.000269823 -0.000267531 -8.821e-05
0.000882065 -0.000266181 -0.00026395 -8.82068e-05
0.00146845 -0.000441474 -0.000440131 -5.29446e-05
0.00148849 -0.000447513 -0.000446132 -5.29468e-05
0.000888063 -0.000268002 -0.000265741 -8.82084e-05
0.00117523 -0.000353858 -0.000352015 -7.27847e-05
0.00147847 -0.000444493 -0.000443131 -5.29457e-05
0.00119124 -0.000358699 -0.000356805 -7.27876e-05
0.00118323 -0.000356278 -0.00035441 -7.27861e-05
0.000882065 -0.000266181 -0.00026395 -8.82068e-05
0.000870069 -0.000262539 -0.00026037 -8.82036e-05
0.00144841 -0.000435436 -0.00043413 -5.29424e-05
0.00146845 -0.000441474 -0.000440131 -5.29446e-05
0.000876067 -0.00026436 -0.00026216 -8.82052e-05
0.00115921 -0.000349017 -0.000347225 -7.27819e-05
0.00145843 -0.000438455 -0.00043713 -5.29435e-05
0.00117523 -0.000353858 -0.000352015 -7.27847e-05
0.00116722 -0.000351438 -0.00034962 -7.27833e-05
0.000870069 -0.000262539 -0.00026037 -8.82036e-05
0.000858073 -0.000258898 -0.000256789 -8.82005e-05
0.00142837 -0.000429399 -0.000428129 -5.29403e-05
0.00144841 -0.000435436 -0.00043413 -5.29424e-05
0.000864071 -0.000260719 -0.00025858 -8.8202e-05
0.00114319 -0.000344177 -0.000342434 -7.27791e-05
0.00143839 -0.000432417 -0.000431129 -5.29413e-05
0.00115921 -0.000349017 -0.000347225 -7.27819e-05
0.0011512 -0.000346597 -0.00034483 -7.27805e-05
0.000858073 -0.000258898 -0.000256789 -8.82005e-05
0.000846077 -0.000255258 -0.000253208 -8.81974e-05
0.00140832 -0.000423361 -0.000422127 -5.29381e-05
0.00142837 -0.000429399 -0.000428129 -5.29403e-05
0.000852075 -0.000257078 -0.000254999 -8.81989e-05
0.00112717 -0.000339338 -0.000337644 -7.27764e-05
0.00141835 -0.00042638 -0.000425128 -5.29392e-05
0.00114319 -0.000344177 -0.000342434 -7.27791e-05
0.00113518 -0.000341757 -0.000340039 -7.27778e-05
0.000846077 -0.000255258 -0.000253208 -8.81974e-05
0.00083408 -0.000251618 -0.000249627 -8.81943e-05
0.00138828 -0.000417325 -0.000416126 -5.2936e-05
0.00140832 -0.000423361 -0.000422127 -5.29381e-05
0.000840079 -0.000253438 -0.000251418 -8.81958e-05
0.00111116 -0.000334498 -0.000332853 -7.27736e-05
0.0013983 -0.000420343 -0.000419126 -5.2937e-05
0.00112717 -0.000339338 -0.000337644 -7.27764e-05
0.00111916 -0.000336918 -0.000335249 -7.2775e-05
0.00083408 -0.000251618 -0.000249627 -8.81943e-05
0.000822083 -0.000247978 -0.000246045 -8.81912e-05
0.00136824 -0.000411288 -0.000410124 -5.29339e-05
0.00138828 -0.000417325 -0.000416126 -5.2936e-05
0.000828081 -0.000249798 -0.000247836 -8.81927e-05
0.00109514 -0.000329659 -0.000328062 -7.27709e-05
0.00137826 -0.000414306 -0.000413125 -5.29349e-05
0.00111116 -0.000334498 -0.000332853 -7.27736e-05
0.00110315 -0.000332079 -0.000330458 -7.27723e-05
0.000822083 -0.000247978 -0.000246045 -8.81912e-05
0.000810085 -0.000244339 -0.000242463 -8.81882e-05
0.0013482 -0.000405252 -0.000404122 -5.29318e-05
0.00136824 -0.000411288 -0.000410124 -5.29339e-05
0.000816084 -0.000246158 -0.000244254 -8.81897e-05
0.00107912 -0.000324821 -0.000323271 -7.27682e-05
0.00135822 -0.00040827 -0.000407123 -5.29328e-05
0.00109514 -0.000329659 -0.000328062 -7.27709e-05
0.00108713 -0.00032724 -0.000325666 -7.27696e-05
0.000810085 -0.000244339 -0.000242463 -8.81882e-05
0.000798087 -0.0002407 -0.00023888 -8.81852e-05
0.00132816 -0.000399216 -0.00039812 -5.29297e-05
0.0013482 -0.000405252 -0.000404122 -5.29318e-05
0.000804086 -0.000242519 -0.000240671 -8.81867e-05
0.0010631 -0.000319983 -0.000318479 -7.27655e-05
0.00133818 -0.000402234 -0.000401121 -5.29307e-05
0.00107912 -0.000324821 -0.000323271 -7.27682e-05
0.00107111 -0.000322402 -0.000320875 -7.27669e-05
0.000798087 -0.0002407 -0.00023888 -8.81852e-05
0.000786089 -0.000237062 -0.000235297 -8.81822e-05
0.00130812 -0.000393181 -0.000392118 -5.29276e-05
0.00132816 -0.000399216 -0.00039812 -5.29297e-05
0.000792088 -0.000238881 -0.000237089 -8.81837e-05
0.00104708 -0.000315145 -0.000313687 -7.27629e-05
0.00131814 -0.000396198 -0.000395119 -5.29286e-05
0.0010631 -0.000319983 -0.000318479 -7.27655e-05
0.00105509 -0.000317564 -0.000316083 -7.27642e-05
0.000786089 -0.000237062 -0.000235297 -8.81822e-05
0.00077409 -0.000233424 -0.000231714 -8.81792e-05
0.00128808 -0.000387146 -0.000386116 -5.29255e-05
0.00130812 -0.000393181 -0.000392118 -5.29276e-05
0.000780089 -0.000235243 -0.000233505 -8.81807e-05
0.00103106 -0.000310308 -0.000308895 -7.27602e-05
0.0012981 -0.000390163 -0.000389117 -5.29266e-05
0.00104708 -0.000315145 -0.000313687 -7.27629e-05
0.00103907 -0.000312727 -0.000311291 -7.27616e-05
0.00077409 -0.000233424 -0.000231714 -8.81792e-05
0.000762091 -0.000229787 -0.00022813 -8.81763e-05
0.00126804 -0.000381111 -0.000380113 -5.29235e-05
0.00128808 -0.000387146 -0.000386116 -5.29255e-05
0.00076809 -0.000231606 -0.000229922 -8.81777e-05
0.00101504 -0.000305472 -0.000304102 -7.27576e-05
0.00127806 -0.000384128 -0.000383115 -5.29245e-05
0.00103106 -0.000310308 -0.000308895 -7.27602e-05
0.00102305 -0.00030789 -0.000306499 -7.27589e-05
0.000762091 -0.000229787 -0.00022813 -8.81763e-05
0.000750091 -0.00022615 -0.000224546 -8.81734e-05
0.001248 -0.000375076 -0.000374111 -5.29215e-05
0.00126804 -0.000381111 -0.000380113 -5.29235e-05
0.000756091 -0.000227969 -0.000226338 -8.81748e-05
0.000999024 -0.000300635 -0.00029931 -7.2755e-05
0.00125802 -0.000378094 -0.000377112 -5.29225e-05
0.00101504 -0.000305472 -0.000304102 -7.27576e-05
0.00100703 -0.000303053 -0.000301706 -7.27563e-05
0.000750091 -0.00022615 -0.000224546 -8.81734e-05
0.000738091 -0.000222514 -0.000220961 -8.81705e-05
0.00122796 -0.000369042 -0.000368108 -5.29195e-05
0.001248 -0.000375076 -0.000374111 -5.29215e-05
0.000744091 -0.000224332 -0.000222754 -8.81719e-05
0.000983005 -0.000295799 -0.000294517 -7.27525e-05
0.00123798 -0.000372059 -0.000371109 -5.29205e-05
0.000999024 -0.000300635 -0.00029931 -7.2755e-05
0.000991015 -0.000298217 -0.000296913 -7.27538e-05
0.000738091 -0.000222514 -0.000220961 -8.81705e-05
0.00072609 -0.000218878 -0.000217377 -8.81676e-05
0.00120792 -0.000363009 -0.000362105 -5.29175e-05
0.00122796 -0.000369042 -0.000368108 -5.29195e-05
0.000732091 -0.000220696 -0.000219169 -8.81691e-05
0.000966985 -0.000290964 -0.000289723 -7.27499e-05
0.00121794 -0.000366025 -0.000365107 -5.29185e-05
0.000983005 -0.000295799 -0.000294517 -7.27525e-05
0.000974995 -0.000293382 -0.00029212 -7.27512e-05
0.00072609 -0.000218878 -0.000217377 -8.81676e-05
0.000714089 -0.000215243 -0.000213791 -8.81648e-05
0.00118788 -0.000356975 -0.000356102 -5.29155e-05
0.00120792 -0.000363009 -0.000362105 -5.29175e-05
0.00072009 -0.00021706 -0.000215584 -8.81662e-05
0.000950965 -0.000286129 -0.00028493 -7.27474e-05
0.0011979 -0.000359992 -0.000359104 -5.29165e-05
0.000966985 -0.000290964 -0.000289723 -7.27499e-05
0.000958975 -0.000288546 -0.000287327 -7.27487e-05
0.000714089 -0.000215243 -0.000213791 -8.81648e-05
0.000702088 -0.000211608 -0.000210206 -8.8162e-05
0.00116784 -0.000350942 -0.000350099 -5.29135e-05
0.00118788 -0.000356975 -0.000356102 -5.29155e-05
0.000708089 -0.000213425 -0.000211999 -8.81634e-05
0.000934945 -0.000281294 -0.000280136 -7.27449e-05
0.00117786 -0.000353959 -0.0003531 -5.29145e-05
0.000950965 -0.000286129 -0.00028493 -7.27474e-05
0.000942955 -0.000283711 -0.000282533 -7.27462e-05
0.000702088 -0.000211608 -0.000210206 -8.8162e-05
0.000690086 -0.000207973 -0.00020662 -8.81593e-05
0.0011478 -0.000344909 -0.000344095 -5.29116e-05
0.00116784 -0.000350942 -0.000350099 -5.29135e-05
0.000696087 -0.000209791 -0.000208413 -8.81606e-05
0.000918924 -0.00027646 -0.000275342 -7.27424e-05
0.00115782 -0.000347926 -0.000347097 -5.29126e-05
0.000934945 -0.000281294 -0.000280136 -7.27449e-05
0.000926934 -0.000278877 -0.000277739 -7.27437e-05
0.000690086 -0.000207973 -0.00020662 -8.81593e-05
0.000678084 -0.000204339 -0.000203033 -8.81565e-05
0.00112776 -0.000338877 -0.000338092 -5.29097e-05
0.0011478 -0.000344909 -0.000344095 -5.29116e-05
0.000684085 -0.000206156 -0.000204827 -8.81579e-05
0.000902903 -0.000271626 -0.000270547 -7.274e-05
0.00113778 -0.000341893 -0.000341093 -5.29106e-05
0.000918924 -0.00027646 -0.000275342 -7.27424e-05
0.000910914 -0.000274043 -0.000272945 -7.27412e-05
0.000678084 -0.000204339 -0.000203033 -8.81565e-05
0.000666081 -0.000200706 -0.000199447 -8.81538e-05
0.00110772 -0.000332845 -0.000332088 -5.29078e-05
0.00112776 -0.000338877 -0.000338092 -5.29097e-05
0.000672083 -0.000202523 -0.00020124 -8.81552e-05
0.000886882 -0.000266793 -0.000265753 -7.27376e-05
0.00111774 -0.000335861 -0.00033509 -5.29087e-05
0.000902903 -0.000271626 -0.000270547 -7.274e-05
0.000894892 -0.000269209 -0.00026815 -7.27388e-05
0.000666081 -0.000200706 -0.000199447 -8.81538e-05
0.000654078 -0.000197073 -0.000195859 -8.81512e-05
0.00108768 -0.000326813 -0.000326084 -5.29059e-05
0.00110772 -0.000332845 -0.000332088 -5.29078e-05
0.00066008 -0.000198889 -0.000197653 -8.81525e-05
0.00087086 -0.00026196 -0.000260957 -7.27352e-05
0.0010977 -0.000329829 -0.000329086 -5.29068e-05
0.000886882 -0.000266793 -0.000265753 -7.27376e-05
0.000878871 -0.000264376 -0.000263355 -7.27364e-05
0.000654078 -0.000197073 -0.000195859 -8.81512e-05
0.000642075 -0.00019344 -0.000192272 -8.81485e-05
0.00106763 -0.000320782 -0.00032008 -5.2904e-05
0.00108768 -0.000326813 -0.000326084 -5.29059e-05
0.000648076 -0.000195256 -0.000194066 -8.81498e-05
0.000854839 -0.000257127 -0.000256162 -7.27328e-05
0.00107766 -0.000323798 -0.000323082 -5.29049e-05
0.00087086 -0.00026196 -0.000260957 -7.27352e-05
0.00086285 -0.000259543 -0.00025856 -7.2734e-05
0.000642075 -0.00019344 -0.000192272 -8.81485e-05
0.000630071 -0.000189808 -0.000188684 -8.81459e-05
0.00104759 -0.000314751 -0.000314075 -5.29022e-05
0.00106763 -0.000320782 -0.00032008 -5.2904e-05
0.000636073 -0.000191624 -0.000190478 -8.81472e-05
0.000838817 -0.000252295 -0.000251367 -7.27304e-05
0.00105761 -0.000317766 -0.000317078 -5.29031e-05
0.000854839 -0.000257127 -0.000256162 -7.27328e-05
0.000846828 -0.000254711 -0.000253764 -7.27316e-05
0.000630071 -0.000189808 -0.000188684 -8.81459e-05
0.000618066 -0.000186176 -0.000185096 -8.81433e-05
0.00102755 -0.00030872 -0.000308071 -5.29003e-05
0.00104759 -0.000314751 -0.000314075 -5.29022e-05
0.000624068 -0.000187992 -0.00018689 -8.81446e-05
0.000822794 -0.000247463 -0.000246571 -7.27281e-05
0.00103757 -0.000311735 -0.000311073 -5.29012e-05
0.000838817 -0.000252295 -0.000251367 -7.27304e-05
0.000830806 -0.000249879 -0.000248969 -7.27293e-05
0.000618066 -0.000186176 -0.000185096 -8.81433e-05
0.000606061 -0.000182545 -0.000181507 -8.81408e-05
0.00100751 -0.00030269 -0.000302066 -5.28985e-05
0.00102755 -0.00030872 -0.000308071 -5.29003e-05
0.000612064 -0.000184361 -0.000183301 -8.8142e-05
0.000806772 -0.000242632 -0.000241774 -7.27258e-05
0.00101753 -0.000305705 -0.000305069 -5.28994e-05
0.000822794 -0.000247463 -0.000246571 -7.27281e-05
0.000814783 -0.000245047 -0.000244173 -7.2727e-05
0.000606061 -0.000182545 -0.000181507 -8.81408e-05
0.000594056 -0.000178914 -0.000177918 -8.81382e-05
0.000987469 -0.00029666 -0.000296061 -5.28967e-05
0.00100751 -0.00030269 -0.000302066 -5.28985e-05
0.000600059 -0.000180729 -0.000179712 -8.81395e-05
0.000790749 -0.000237801 -0.000236978 -7.27235e-05
0.00099749 -0.000299675 -0.000299064 -5.28976e-05
0.000806772 -0.000242632 -0.000241774 -7.27258e-05
0.00079876 -0.000240216 -0.000239376 -7.27247e-05
0.000594056 -0.000178914 -0.000177918 -8.81382e-05
0.00058205 -0.000175284 -0.000174328 -8.81358e-05
0.000967428 -0.00029063 -0.000290056 -5.28949e-05
0.000987469 -0.00029666 -0.000296061 -5.28967e-05
0.000588053 -0.000177099 -0.000176123 -8.8137e-05
0.000774726 -0.00023297 -0.000232181 -7.27213e-05
0.000977449 -0.000293645 -0.000293059 -5.28958e-05
0.000790749 -0.000237801 -0.000236978 -7.27235e-05
0.000782737 -0.000235385 -0.00023458 -7.27224e-05
0.00058205 -0.000175284 -0.000174328 -8.81358e-05
0.000570044 -0.000171654 -0.000170738 -8.81333e-05
0.000947386 -0.0002846 -0.000284051 -5.28932e-05
0.000967428 -0.00029063 -0.000290056 -5.28949e-05
0.000576047 -0.000173469 -0.000172533 -8.81345e-05
0.000758702 -0.00022814 -0.000227384 -7.27191e-05
0.000957407 -0.000287615 -0.000287054 -5.28941e-05
0.000774726 -0.00023297 -0.000232181 -7.27213e-05
0.000766714 -0.000230555 -0.000229783 -7.27202e-05
0.000570044 -0.000171654 -0.000170738 -8.81333e-05
0.000558037 -0.000168024 -0.000167148 -8.81309e-05
0.000927344 -0.000278571 -0.000278046 -5.28915e-05
0.000947386 -0.0002846 -0.000284051 -5.28932e-05
0.00056404 -0.000169839 -0.000168943 -8.81321e-05
0.000742679 -0.00022331 -0.000222587 -7.27169e-05
0.000937365 -0.000281586 -0.000281048 -5.28923e-05
0.000758702 -0.00022814 -0.000227384 -7.27191e-05
0.00075069 -0.000225725 -0.000224985 -7.2718e-05
0.000558037 -0.000168024 -0.000167148 -8.81309e-05
0.00054603 -0.000164395 -0.000163558 -8.81285e-05
0.000907302 -0.000272542 -0.00027204 -5.28897e-05
0.000927344 -0.000278571 -0.000278046 -5.28915e-05
0.000552033 -0.00016621 -0.000165353 -8.81297e-05
0.000726654 -0.00021848 -0.000217789 -7.27147e-05
0.000917323 -0.000275557 -0.000275043 -5.28906e-05
0.000742679 -0.00022331 -0.000222587 -7.27169e-05
0.000734666 -0.000220895 -0.000220188 -7.27158e-05
0.00054603 -0.000164395 -0.000163558 -8.81285e-05
0.000534022 -0.000160767 -0.000159966 -8.81261e-05
0.00088726 -0.000266514 -0.000266034 -5.2888e-05
0.000907302 -0.000272542 -0.00027204 -5.28897e-05
0.000540026 -0.000162581 -0.000161762 -8.81273e-05
0.00071063 -0.000213651 -0.000212991 -7.27126e-05
0.000897281 -0.000269528 -0.000269037 -5.28889e-05
0.000726654 -0.00021848 -0.000217789 -7.27147e-05
0.000718642 -0.000216066 -0.00021539 -7.27136e-05
0.000534022 -0.000160767 -0.000159966 -8.81261e-05
0.000522013 -0.000157139 -0.000156375 -8.81238e-05
0.000867218 -0.000260486 -0.000260028 -5.28864e-05
0.00088726 -0.000266514 -0.000266034 -5.2888e-05
0.000528018 -0.000158953 -0.000158171 -8.8125e-05
0.000694605 -0.000208823 -0.000208193 -7.27105e-05
0.000877239 -0.0002635 -0.000263031 -5.28872e-05
0.00071063 -0.000213651 -0.000212991 -7.27126e-05
0.000702618 -0.000211237 -0.000210592 -7.27115e-05
0.000522013 -0.000157139 -0.000156375 -8.81238e-05
0.000510005 -0.000153511 -0.000152783 -8.81215e-05
0.000847175 -0.000254458 -0.000254022 -5.28847e-05
0.000867218 -0.000260486 -0.000260028 -5.28864e-05
0.000516009 -0.000155325 -0.000154579 -8.81227e-05
0.00067858 -0.000203994 -0.000203394 -7.27084e-05
0.000857196 -0.000257472 -0.000257025 -5.28855e-05
0.000694605 -0.000208823 -0.000208193 -7.27105e-05
0.000686593 -0.000206408 -0.000205793 -7.27094e-05
0.000510005 -0.000153511 -0.000152783 -8.81215e-05
0.000497995 -0.000149884 -0.000149191 -8.81193e-05
0.000827133 -0.00024843 -0.000248015 -5.28831e-05
0.000847175 -0.000254458 -0.000254022 -5.28847e-05
0.000504 -0.000151697 -0.000150987 -8.81204e-05
0.000662554 -0.000199166 -0.000198595 -7.27063e-05
0.000837154 -0.000251444 -0.000251019 -5.28839e-05
0.00067858 -0.000203994 -0.000203394 -7.27084e-05
0.000670567 -0.00020158 -0.000200994 -7.27073e-05
0.000497995 -0.000149884 -0.000149191 -8.81193e-05
0.000485986 -0.000146257 -0.000145598 -8.8117e-05
0.00080709 -0.000242403 -0.000242009 -5.28815e-05
0.000827133 -0.00024843 -0.000248015 -5.28831e-05
0.000491991 -0.00014807 -0.000147395 -8.81181e-05
0.000646529 -0.000194339 -0.000193796 -7.27043e-05
0.000817111 -0.000245416 -0.000245012 -5.28823e-05
0.000662554 -0.000199166 -0.000198595 -7.27063e-05
0.000654542 -0.000196753 -0.000196195 -7.27053e-05
0.000485986 -0.000146257 -0.000145598 -8.8117e-05
0.000473975 -0.00014263 -0.000142005 -8.81148e-05
0.000787047 -0.000236376 -0.000236002 -5.28799e-05
0.00080709 -0.000242403 -0.000242009 -5.28815e-05
0.000479981 -0.000144443 -0.000143802 -8.81159e-05
0.000630502 -0.000189512 -0.000188996 -7.27023e-05
0.000797068 -0.000239389 -0.000239005 -5.28807e-05
0.000646529 -0.000194339 -0.000193796 -7.27043e-05
0.000638515 -0.000191925 -0.000191396 -7.27033e-05
0.000473975 -0.00014263 -0.000142005 -8.81148e-05
0.000461965 -0.000139004 -0.000138412 -8.81127e-05
0.000767003 -0.000230349 -0.000229995 -5.28783e-05
0.000787047 -0.000236376 -0.000236002 -5.28799e-05
0.00046797 -0.000140817 -0.000140208 -8.81138e-05
0.000614476 -0.000184685 -0.000184196 -7.27003e-05
0.000777025 -0.000233362 -0.000232998 -5.28791e-05
0.000630502 -0.000189512 -0.000188996 -7.27023e-05
0.000622489 -0.000187098 -0.000186596 -7.27013e-05
0.000461965 -0.000139004 -0.000138412 -8.81127e-05
0.000449953 -0.000135379 -0.000134818 -8.81106e-05
0.00074696 -0.000224322 -0.000223988 -5.28767e-05
0.000767003 -0.000230349 -0.000229995 -5.28783e-05
0.000455959 -0.000137191 -0.000136615 -8.81116e-05
0.000598449 -0.000179858 -0.000179396 -7.26984e-05
0.000756982 -0.000227336 -0.000226991 -5.28775e-05
0.000614476 -0.000184685 -0.000184196 -7.27003e-05
0.000606462 -0.000182272 -0.000181796 -7.26993e-05
0.000449953 -0.000135379 -0.000134818 -8.81106e-05
0.000437941 -0.000131754 -0.000131223 -8.81085e-05
0.000726916 -0.000218296 -0.00021798 -5.28752e-05
0.00074696 -0.000224322 -0.000223988 -5.28767e-05
0.000443947 -0.000133566 -0.000133021 -8.81095e-05
0.000582421 -0.000175032 -0.000174595 -7.26965e-05
0.000736938 -0.000221309 -0.000220984 -5.2876e-05
0.000598449 -0.000179858 -0.000179396 -7.26984e-05
0.000590435 -0.000177445 -0.000176996 -7.26974e-05
0.000437941 -0.000131754 -0.000131223 -8.81085e-05
0.000425929 -0.000128129 -0.000127629 -8.81064e-05
0.000706872 -0.00021227 -0.000211972 -5.28737e-05
0.000726916 -0.000218296 -0.00021798 -5.28752e-05
0.000431935 -0.000129941 -0.000129426 -8.81075e-05
0.000566394 -0.000170207 -0.000169794 -7.26946e-05
0.000716894 -0.000215283 -0.000214976 -5.28744e-05
0.000582421 -0.000175032 -0.000174595 -7.26965e-05
0.000574408 -0.000172619 -0.000172195 -7.26955e-05
0.000425929 -0.000128129 -0.000127629 -8.81064e-05
0.000413916 -0.000124505 -0.000124033 -8.81044e-05
0.000686828 -0.000206245 -0.000205964 -5.28722e-05
0.000706872 -0.00021227 -0.000211972 -5.28737e-05
0.000419923 -0.000126317 -0.000125831 -8.81054e-05
0.000550366 -0.000165381 -0.000164993 -7.26927e-05
0.00069685 -0.000209258 -0.000208968 -5.28729e-05
0.000566394 -0.000170207 -0.000169794 -7.26946e-05
0.00055838 -0.000167794 -0.000167394 -7.26936e-05
0.000413916 -0.000124505 -0.000124033 -8.81044e-05
0.000401903 -0.000120881 -0.000120438 -8.81025e-05
0.000666784 -0.00020022 -0.000199956 -5.28707e-05
0.000686828 -0.000206245 -0.000205964 -5.28722e-05
0.000407909 -0.000122693 -0.000122236 -8.81034e-05
0.000534337 -0.000160556 -0.000160192 -7.26909e-05
0.000676806 -0.000203232 -0.00020296 -5.28715e-05
0.000550366 -0.000165381 -0.000164993 -7.26927e-05
0.000542351 -0.000162969 -0.000162592 -7.26918e-05
0.000401903 -0.000120881 -0.000120438 -8.81025e-05
0.000389889 -0.000117258 -0.000116842 -8.81005e-05
0.000646739 -0.000194195 -0.000193948 -5.28693e-05
0.000666784 -0.00020022 -0.000199956 -5.28707e-05
0.000395896 -0.000119069 -0.00011864 -8.81015e-05
0.000518308 -0.000155732 -0.00015539 -7.26891e-05
0.000656762 -0.000197207 -0.000196952 -5.287e-05
0.000534337 -0.000160556 -0.000160192 -7.26909e-05
0.000526323 -0.000158144 -0.000157791 -7.269e-05
0.000389889 -0.000117258 -0.000116842 -8.81005e-05
0.000377874 -0.000113635 -0.000113246 -8.80987e-05
0.000626694 -0.00018817 -0.000187939 -5.28679e-05
0.000646739 -0.000194195 -0.000193948 -5.28693e-05
0.000383882 -0.000115446 -0.000115044 -8.80996e-05
0.000502279 -0.000150908 -0.000150588 -7.26874e-05
0.000636717 -0.000191182 -0.000190943 -5.28686e-05
0.000518308 -0.000155732 -0.00015539 -7.26891e-05
0.000510293 -0.00015332 -0.000152989 -7.26882e-05
0.000377874 -0.000113635 -0.000113246 -8.80987e-05
0.000365859 -0.000110012 -0.000109649 -8.80968e-05
0.000606649 -0.000182145 -0.00018193 -5.28665e-05
0.000626694 -0.00018817 -0.000187939 -5.28679e-05
0.000371867 -0.000111823 -0.000111447 -8.80977e-05
0.000486249 -0.000146084 -0.000145785 -7.26857e-05
0.000616672 -0.000185158 -0.000184935 -5.28672e-05
0.000502279 -0.000150908 -0.000150588 -7.26874e-05
0.000494264 -0.000148496 -0.000148186 -7.26865e-05
0.000365859 -0.000110012 -0.000109649 -8.80968e-05
0.000353844 -0.00010639 -0.000106051 -8.80951e-05
0.000586604 -0.000176121 -0.000175921 -5.28652e-05
0.000606649 -0.000182145 -0.00018193 -5.28665e-05
0.000359851 -0.000108201 -0.00010785 -8.80959e-05
0.000470219 -0.00014126 -0.000140982 -7.26841e-05
0.000596627 -0.000179133 -0.000178926 -5.28659e-05
0.000486249 -0.000146084 -0.000145785 -7.26857e-05
0.000478234 -0.000143672 -0.000143384 -7.26849e-05
0.000353844 -0.00010639 -0.000106051 -8.80951e-05
0.000341827 -0.000102768 -0.000102454 -8.80934e-05
0.000566558 -0.000170097 -0.000169912 -5.28639e-05
0.000586604 -0.000176121 -0.000175921 -5.28652e-05
0.000347836 -0.000104579 -0.000104253 -8.80942e-05
0.000454188 -0.000136437 -0.000136179 -7.26825e-05
0.000576581 -0.000173109 -0.000172917 -5.28646e-05
0.000470219 -0.00014126 -0.000140982 -7.26841e-05
0.000462204 -0.000138849 -0.000138581 -7.26833e-05
0.000341827 -0.000102768 -0.000102454 -8.80934e-05
0.000329811 -9.91472e-05 -9.88558e-05 -8.80918e-05
0.000546512 -0.000164074 -0.000163902 -5.28627e-05
0.000566558 -0.000170097 -0.000169912 -5.28639e-05
0.000335819 -0.000100958 -0.000100655 -8.80926e-05
0.000438157 -0.000131615 -0.000131375 -7.2681e-05
0.000556535 -0.000167085 -0.000166907 -5.28633e-05
0.000454188 -0.000136437 -0.000136179 -7.26825e-05
0.000446173 -0.000134026 -0.000133777 -7.26817e-05
0.000329811 -9.91472e-05 -9.88558e-05 -8.80918e-05
0.000317793 -9.55265e-05 -9.52572e-05 -8.80903e-05
0.000526466 -0.00015805 -0.000157892 -5.28616e-05
0.000546512 -0.000164074 -0.000163902 -5.28627e-05
0.000323802 -9.73368e-05 -9.70565e-05 -8.8091e-05
0.000422126 -0.000126792 -0.000126571 -7.26796e-05
0.000536489 -0.000161062 -0.000160897 -5.28622e-05
0.000438157 -0.000131615 -0.000131375 -7.2681e-05
0.000430141 -0.000129203 -0.000128973 -7.26803e-05
0.000317793 -9.55265e-05 -9.52572e-05 -8.80903e-05
0.000305776 -9.19063e-05 -9.16583e-05 -8.80889e-05
0.000506419 -0.000152027 -0.000151882 -5.28606e-05
0.000526466 -0.00015805 -0.000157892 -5.28616e-05
0.000311785 -9.37164e-05 -9.34578e-05 -8.80895e-05
0.000406094 -0.00012197 -0.000121767 -7.26784e-05
0.000516442 -0.000155039 -0.000154887 -5.28611e-05
0.000422126 -0.000126792 -0.000126571 -7.26796e-05
0.00041411 -0.000124381 -0.000124169 -7.2679e-05
0.000305776 -9.19063e-05 -9.16583e-05 -8.80889e-05
0.000293757 -8.82865e-05 -8.80589e-05 -8.80876e-05
0.000486372 -0.000146004 -0.000145872 -5.28597e-05
0.000506419 -0.000152027 -0.000151882 -5.28606e-05
0.000299767 -9.00964e-05 -8.98587e-05 -8.80882e-05
0.000390061 -0.000117149 -0.000116963 -7.26772e-05
0.000496395 -0.000149016 -0.000148877 -5.28601e-05
0.000406094 -0.00012197 -0.000121767 -7.26784e-05
0.000398077 -0.000119559 -0.000119365 -7.26778e-05
0.000293757 -8.82865e-05 -8.80589e-05 -8.80876e-05
0.000281739 -8.46672e-05 -8.44592e-05 -8.80864e-05
0.000466324 -0.000139982 -0.000139861 -5.2859e-05
0.000486372 -0.000146004 -0.000145872 -5.28597e-05
0.000287748 -8.64768e-05 -8.62591e-05 -8.8087e-05
0.000374028 -0.000112327 -0.000112158 -7.26762e-05
0.000476348 -0.000142993 -0.000142867 -5.28593e-05
0.000390061 -0.000117149 -0.000116963 -7.26772e-05
0.000382045 -0.000114738 -0.00011456 -7.26767e-05
0.000281739 -8.46672e-05 -8.44592e-05 -8.80864e-05
0.000269719 -8.10484e-05 -8.0859e-05 -8.80854e-05
0.000446276 -0.000133959 -0.00013385 -5.28584e-05
0.000466324 -0.000139982 -0.000139861 -5.2859e-05
0.000275729 -8.28578e-05 -8.26591e-05 -8.80859e-05
0.000357995 -0.000107507 -0.000107352 -7.26754e-05
0.0004563 -0.00013697 -0.000136856 -5.28586e-05
0.000374028 -0.000112327 -0.000112158 -7.26762e-05
0.000366012 -0.000109917 -0.000109755 -7.26758e-05
0.000269719 -8.10484e-05 -8.0859e-05 -8.80854e-05
0.0002577 -7.74299e-05 -7.72585e-05 -8.80844e-05
0.000426228 -0.000127937 -0.000127839 -5.28579e-05
0.000446276 -0.000133959 -0.00013385 -5.28584e-05
0.00026371 -7.92391e-05 -7.90588e-05 -8.80849e-05
0.000341961 -0.000102686 -0.000102547 -7.26747e-05
0.000436252 -0.000130948 -0.000130845 -5.28581e-05
0.000357995 -0.000107507 -0.000107352 -7.26754e-05
0.000349978 -0.000105096 -0.000104949 -7.2675e-05
0.0002577 -7.74299e-05 -7.72585e-05 -8.80844e-05
0.00024568 -7.38118e-05 -7.36577e-05 -8.80833e-05
0.000406179 -0.000121915 -0.000121827 -5.28576e-05
0.000426228 -0.000127937 -0.000127839 -5.28579e-05
0.00025169 -7.56208e-05 -7.54581e-05 -8.80839e-05
0.000325927 -9.78659e-05 -9.77406e-05 -7.2674e-05
0.000416204 -0.000124926 -0.000124833 -5.28578e-05
0.000341961 -0.000102686 -0.000102547 -7.26747e-05
0.000333944 -0.000100276 -0.000100144 -7.26743e-05
0.00024568 -7.38118e-05 -7.36577e-05 -8.80833e-05
0.000233659 -7.01937e-05 -7.00567e-05 -8.80819e-05
0.00038613 -0.000115893 -0.000115816 -5.28573e-05
0.000406179 -0.000121915 -0.000121827 -5.28576e-05
0.00023967 -7.20027e-05 -7.18572e-05 -8.80827e-05
0.000309893 -9.30459e-05 -9.29345e-05 -7.26731e-05
0.000396155 -0.000118904 -0.000118822 -5.28574e-05
0.000325927 -9.78659e-05 -9.77406e-05 -7.2674e-05
0.00031791 -9.54559e-05 -9.53376e-05 -7.26736e-05
0.000233659 -7.01937e-05 -7.00567e-05 -8.80819e-05
0.000221638 -6.65752e-05 -6.64557e-05 -8.80798e-05
0.000366081 -0.000109872 -0.000109804 -5.28567e-05
0.00038613 -0.000115893 -0.000115816 -5.28573e-05
0.000227649 -6.83845e-05 -6.82562e-05 -8.8081e-05
0.000293859 -8.82258e-05 -8.81283e-05 -7.26716e-05
0.000376106 -0.000112883 -0.00011281 -5.2857e-05
0.000309893 -9.30459e-05 -9.29345e-05 -7.26731e-05
0.000301876 -9.06359e-05 -9.05314e-05 -7.26724e-05
0.000221638 -6.65752e-05 -6.64557e-05 -8.80798e-05
0.000209617 -6.29556e-05 -6.28548e-05 -8.80764e-05
0.000346032 -0.00010385 -0.000103792 -5.28552e-05
0.000366081 -0.000109872 -0.000109804 -5.28567e-05
0.000215628 -6.47657e-05 -6.46552e-05 -8.80783e-05
0.000277824 -8.34052e-05 -8.33223e-05 -7.26689e-05
0.000356056 -0.000106861 -0.000106798 -5.28561e-05
0.000293859 -8.82258e-05 -8.81283e-05 -7.26716e-05
0.000285841 -8.58157e-05 -8.57252e-05 -7.26705e-05
0.000209617 -6.29556e-05 -6.28548e-05 -8.80764e-05
0.000197594 -5.93332e-05 -5.92545e-05 -8.80705e-05
0.000325983 -9.78277e-05 -9.7781e-05 -5.28518e-05
0.000346032 -0.00010385 -0.000103792 -5.28552e-05
0.000203605 -6.11449e-05 -6.10545e-05 -8.80739e-05
0.000261789 -7.8583e-05 -7.85169e-05 -7.26634e-05
0.000336007 -0.000100839 -0.000100787 -5.28538e-05
0.000277824 -8.34052e-05 -8.33223e-05 -7.26689e-05
0.000269807 -8.09944e-05 -8.09195e-05 -7.26666e-05
0.000197594 -5.93332e-05 -5.92545e-05 -8.80705e-05
0.000185567 -5.57049e-05 -5.56552e-05 -8.80606e-05
0.000305937 -9.18043e-05 -9.1771e-05 -5.2844e-05
0.000325983 -9.78277e-05 -9.7781e-05 -5.28518e-05
0.000191581 -5.75201e-05 -5.74547e-05 -8.80662e-05
0.000245754 -7.37572e-05 -7.37128e-05 -7.2653e-05
0.00031596 -9.48162e-05 -9.47758e-05 -5.28487e-05
0.000261789 -7.8583e-05 -7.85169e-05 -7.26634e-05
0.000253772 -7.61708e-05 -7.61146e-05 -7.26591e-05
0.000185567 -5.57049e-05 -5.56552e-05 -8.80606e-05
0.000173533 -5.20649e-05 -5.20578e-05 -8.80442e-05
0.000285892 -8.57779e-05 -8.57633e-05 -5.28279e-05
0.000305937 -9.18043e-05 -9.1771e-05 -5.2844e-05
0.000179551 -5.38869e-05 -5.38561e-05 -8.80535e-05
0.000229716 -6.89235e-05 -6.8911e-05 -7.2633e-05
0.000295914 -8.87916e-05 -8.87668e-05 -5.28374e-05
0.000245754 -7.37572e-05 -7.37128e-05 -7.2653e-05
0.000237735 -7.13417e-05 -7.13115e-05 -7.26445e-05
0.000173533 -5.20649e-05 -5.20578e-05 -8.80442e-05
0.000161482 -4.84022e-05 -4.84627e-05 -8.80178e-05
0.000265853 -7.97451e-05 -7.97605e-05 -5.27946e-05
0.000285892 -8.57779e-05 -8.57633e-05 -5.28279e-05
0.000167511 -5.02374e-05 -5.026e-05 -8.80324e-05
0.000213671 -6.40741e-05 -6.41131e-05 -7.25962e-05
0.000275872 -8.27626e-05 -8.2761e-05 -5.28142e-05
0.000229716 -6.89235e-05 -6.8911e-05 -7.2633e-05
0.000221695 -6.65016e-05 -6.65113e-05 -7.26175e-05
0.000161482 -4.84022e-05 -4.84627e-05 -8.80178e-05
0.000149399 -4.46971e-05 -4.48722e-05 -8.79758e-05
0.000245818 -7.36995e-05 -7.37651e-05 -5.27305e-05
0.000265853 -7.97451e-05 -7.97605e-05 -5.27946e-05
0.000155445 -4.65566e-05 -4.66665e-05 -8.79993e-05
0.000197611 -5.91934e-05 -5.93217e-05 -7.25289e-05
0.000255835 -7.67246e-05 -7.67618e-05 -5.27675e-05
0.000213671 -6.40741e-05 -6.41131e-05 -7.25962e-05
0.000205644 -6.16387e-05 -6.17165e-05 -7.25672e-05
0.000149399 -4.46971e-05 -4.48722e-05 -8.79758e-05
0.000137244 -4.09163e-05 -4.12835e-05 -8.79136e-05
0.000225794 -6.76287e-05 -6.77853e-05 -5.26051e-05
0.000245818 -7.36995e-05 -7.37651e-05 -5.27305e-05
0.000143335 -4.28194e-05 -4.3078e-05 -8.79474e-05
0.000181515 -5.42564e-05 -5.45394e-05 -7.24096e-05
0.000235804 -7.06681e-05 -7.07724e-05 -5.26783e-05
0.000197611 -5.91934e-05 -5.93217e-05 -7.25289e-05
0.000189569 -5.6735e-05 -5.69288e-05 -7.24784e-05
0.000137244 -4.09163e-05 -4.12835e-05 -8.79136e-05
0.00012497 -3.70016e-05 -3.77007e-05 -8.78202e-05
0.000205769 -6.15121e-05 -6.18242e-05 -5.23782e-05
0.000225794 -6.76287e-05 -6.77853e-05 -5.26051e-05
0.000131124 -3.89797e-05 -3.94905e-05 -8.78721e-05
0.000165343 -4.92128e-05 -4.97702e-05 -7.22024e-05
0.000215785 -6.45788e-05 -6.48025e-05 -5.25075e-05
0.000181515 -5.42564e-05 -5.45394e-05 -7.24096e-05
0.000173442 -5.17505e-05 -5.21536e-05 -7.23185e-05
0.00012497 -3.70016e-05 -3.77007e-05 -8.78202e-05
0.000112446 -3.28711e-05 -3.41036e-05 -8.76998e-05
0.000185756 -5.53095e-05 -5.59058e-05 -5.19573e-05
0.000205769 -6.15121e-05 -6.18242e-05 -5.23782e-05
0.000118753 -3.49718e-05 -3.59063e-05 -8.77619e-05
0.000149029 -4.3998e-05 -4.50131e-05 -7.18537e-05
0.000195756 -5.84225e-05 -5.88572e-05 -5.22009e-05
0.000165343 -4.92128e-05 -4.97702e-05 -7.22024e-05
0.000157209 -4.6636e-05 -4.73883e-05 -7.20535e-05
0.000112446 -3.28711e-05 -3.41036e-05 -8.76998e-05
9.95485e-05 -2.83944e-05 -3.04946e-05 -8.75422e-05
0.000165678 -4.89739e-05 -5.00159e-05 -5.12495e-05
0.000185756 -5.53095e-05 -5.59058e-05 -5.19573e-05
0.000106045 -3.06811e-05 -3.2299e-05 -8.7628e-05
0.000132427 -3.84778e-05 -4.0264e-05 -7.1293e-05
0.00017574 -5.21686e-05 -5.29593e-05 -5.16455e-05
0.000149029 -4.3998e-05 -4.50131e-05 -7.18537e-05
0.000140777 -4.12783e-05 -4.26422e-05 -7.15981e-05
9.95485e-05 -2.83944e-05 -3.04946e-05 -8.75422e-05
8.59374e-05 -2.34646e-05 -2.6774e-05 -8.74251e-05
0.000145565 -4.23877e-05 -4.42188e-05 -5.00238e-05
0.000165678 -4.89739e-05 -5.00159e-05 -5.12495e-05
9.28732e-05 -2.60006e-05 -2.86597e-05 -8.74673e-05
0.000115356 -3.25543e-05 -3.54865e-05 -7.04423e-05
0.000155607 -4.57055e-05 -4.71005e-05 -5.07238e-05
0.000132427 -3.84778e-05 -4.0264e-05 -7.1293e-05
0.00012396 -3.55896e-05 -3.78731e-05 -7.09241e-05
8.59374e-05 -2.34646e-05 -2.6774e-05 -8.74251e-05
7.14615e-05 -1.79697e-05 -2.2925e-05 -8.74037e-05
0.000125036 -3.55223e-05 -3.8363e-05 -4.8192e-05
0.000145565 -4.23877e-05 -4.42188e-05 -5.00238e-05
7.87854e-05 -2.07662e-05 -2.48654e-05 -8.74021e-05
9.73862e-05 -2.59819e-05 -3.06019e-05 -6.93025e-05
0.000135419 -3.90282e-05 -4.13104e-05 -4.91845e-05
0.000115356 -3.25543e-05 -3.54865e-05 -7.04423e-05
0.000106528 -2.93281e-05 -3.30855e-05 -6.98732e-05
7.14615e-05 -1.79697e-05 -2.2925e-05 -8.74037e-05
5.55829e-05 -1.23009e-05 -1.85494e-05 -8.79205e-05
0.000104112 -2.80834e-05 -3.25837e-05 -4.54125e-05
0.000125036 -3.55223e-05 -3.8363e-05 -4.8192e-05
6.37869e-05 -1.51452e-05 -2.08464e-05 -8.75421e-05
7.82291e-05 -1.90007e-05 -2.53836e-05 -6.80616e-05
0.000114554 -3.18052e-05 -3.54637e-05 -4.69505e-05
9.73862e-05 -2.59819e-05 -3.06019e-05 -6.93025e-05
8.79482e-05 -2.25744e-05 -2.80173e-05 -6.87325e-05
5.55829e-05 -1.23009e-05 -1.85494e-05 -8.79205e-05
3.90716e-05 -7.40244e-06 -1.35725e-05 -8.93108e-05
8.12602e-05 -2.06726e-05 -2.59661e-05 -4.24053e-05
0.000104112 -2.80834e-05 -3.25837e-05 -4.54125e-05
4.72207e-05 -9.53934e-06 -1.61492e-05 -8.84901e-05
5.69419e-05 -1.18651e-05 -1.93186e-05 -6.76528e-05
9.31882e-05 -2.44999e-05 -2.94378e-05 -4.38598e-05
7.82291e-05 -1.90007e-05 -2.53836e-05 -6.80616e-05
6.79775e-05 -1.52518e-05 -2.25967e-05 -6.75288e-05
3.90716e-05 -7.40244e-06 -1.35725e-05 -8.93108e-05
2.29853e-05 -7.33972e-06 -6.70525e-06 -9.26465e-05
5.65697e-05 -1.32887e-05 -1.8549e-05 -4.03635e-05
8.12602e-05 -2.06726e-05 -2.59661e-05 -4.24053e-05
3.10287e-05 -6.50823e-06 -1.05088e-05 -9.06402e-05
3.47296e-05 -8.42634e-06 -1.12728e-05 -7.00932e-05
6.88726e-05 -1.64701e-05 -2.24582e-05 -4.10826e-05
5.69419e-05 -1.18651e-05 -1.93186e-05 -6.76528e-05
4.5675e-05 -9.45873e-06 -1.55213e-05 -6.8559e-05
2.29853e-05 -7.33972e-06 -6.70525e-06 -9.26465e-05
1.43873e-05 -1.93751e-05 2.13762e-06 -9.54557e-05
2.76319e-05 -1.39282e-05 -5.87299e-06 -4.73204e-05
5.65697e-05 -1.32887e-05 -1.8549e-05 -4.03635e-05
1.6814e-05 -1.07709e-05 -2.5899e-06 -9.44743e-05
1.4262e-05 -1.72726e-05 1.29028e-06 -7.93162e-05
4.32049e-05 -1.25099e-05 -1.3155e-05 -4.19452e-05
3.47296e-05 -8.42634e-06 -1.12728e-05 -7.00932e-05
2.42203e-05 -9.78533e-06 -6.18642e-06 -7.30984e-05
1.43873e-05 -1.93751e-05 2.13762e-06 -9.54557e-05
1.85646e-05 -5.7155e-05 1.65387e-05 -8.80851e-05
1.38463e-05 -4.74715e-05 1.44108e-05 -7.39287e-05
2.76319e-05 -1.39282e-05 -5.87299e-06 -4.73204e-05
1.51543e-05 -3.52827e-05 8.62644e-06 -9.43116e-05
2.0078e-05 -6.45205e-05 1.90468e-05 -8.71254e-05
1.5847e-05 -2.02572e-05 1.89009e-06 -5.67262e-05
1.4262e-05 -1.72726e-05 1.29028e-06 -7.93162e-05
1.08746e-05 -3.48326e-05 1.02677e-05 -8.57809e-05
1.85646e-05 -5.7155e-05 1.65387e-05 -8.80851e-05
3.12463e-05 -0.000103725 3.10625e-05 -4.67218e-05
6.88856e-05 -0.000206601 5.9021e-05 -7.61725e-05
1.38463e-05 -4.74715e-05 1.44108e-05 -7.39287e-05
2.41007e-05 -8.20053e-05 2.48163e-05 -7.29288e-05
5.5497e-05 -0.000150413 4.06783e-05 -4.37572e-05
2.90517e-05 -0.000110471 3.48939e-05 -8.80198e-05
2.0078e-05 -6.45205e-05 1.90468e-05 -8.71254e-05
3.66816e-05 -0.000105894 2.96624e-05 -7.56258e-05
0.00336947 2.22045e-16 -0.00144406 -0.000199045
0.00379124 -0.000751873 -0.00130259 -0.000286383
0.00530077 -0.00167942 -0.00155201 9.47825e-05
0.00743097 -1.11022e-16 -0.0031847 -0.00252233
0.00360538 -0.00035414 -0.00139339 -0.000331807
0.00480265 -0.0011657 -0.00155869 -0.000370117
0.00589674 -0.00186853 -0.00172637 -0.000358145
0.0039661 0 -0.00169976 -0.000614109
0.00463299 -0.000787344 -0.00164813 -0.000577698
0.00379124 -0.000751873 -0.00130259 -0.000286383
0.00394055 -0.00107003 -0.00123022 -0.000138006
0.00523184 -0.00162098 -0.00154751 3.03856e-05
0.00530077 -0.00167942 -0.00155201 9.47825e-05
0.00390895 -0.000975642 -0.00125713 -0.000207657
0.00469642 -0.00137011 -0.00142556 -6.4525e-05
0.00521887 -0.00155008 -0.00157234 4.2527e-05
0.00480265 -0.0011657 -0.00155869 -0.000370117
0.00473645 -0.00132232 -0.0014632 -0.000152212
0.00394055 -0.00107003 -0.00123022 -0.000138006
0.00392236 -0.00116045 -0.00118368 -5.23514e-05
0.00530348 -0.00157462 -0.00159808 1.41083e-05
0.00523184 -0.00162098 -0.00154751 3.03856e-05
0.00393027 -0.00112621 -0.00120174 -8.20012e-05
0.00464647 -0.00139543 -0.0013933 -7.82559e-06
0.00527994 -0.00161702 -0.00156982 3.05938e-05
0.00469642 -0.00137011 -0.00142556 -6.4525e-05
0.00467047 -0.0013882 -0.00140668 -3.19494e-05
0.00392236 -0.00116045 -0.00118368 -5.23514e-05
0.0038949 -0.0011737 -0.00116623 -3.24602e-05
0.00533306 -0.00160464 -0.00159789 -1.48052e-06
0.00530348 -0.00157462 -0.00159808 1.41083e-05
0.00391214 -0.00117283 -0.00117399 -3.90977e-05
0.00461885 -0.00139299 -0.00138251 1.01894e-06
0.00531652 -0.00157969 -0.0016015 -2.57308e-06
0.00464647 -0.00139543 -0.0013933 -7.82559e-06
0.00462806 -0.00139565 -0.00138532 3.02745e-06
0.0038949 -0.0011737 -0.00116623 -3.24602e-05
0.00386299 -0.00117224 -0.00115318 -3.0982e-05
0.00534844 -0.00159894 -0.00160693 1.08698e-06
0.00533306 -0.00160464 -0.00159789 -1.48052e-06
0.00387654 -0.00117341 -0.00115848 -2.98155e-05
0.00460507 -0.0013887 -0.00137844 -6.68188e-06
0.00534605 -0.00160707 -0.00160242 2.714e-06
0.00461885 -0.00139299 -0.00138251 1.01894e-06
0.00461311 -0.00139076 -0.00138101 -3.9588e-06
0.00386299 -0.00117224 -0.00115318 -3.0982e-05
0.00383875 -0.00116393 -0.00114635 -3.70266e-05
0.0053428 -0.0016035 -0.00160256 -9.64931e-07
0.00534844 -0.00159894 -0.00160693 1.08698e-06
0.00385136 -0.00116865 -0.00114973 -3.41306e-05
0.0045883 -0.00138277 -0.0013738 -1.3999e-05
0.00534559 -0.00159956 -0.00160544 -1.66678e-06
0.00460507 -0.0013887 -0.00137844 -6.68188e-06
0.00459628 -0.00138595 -0.00137586 -9.89997e-06
0.00383875 -0.00116393 -0.00114635 -3.70266e-05
0.00381535 -0.00115567 -0.00113986 -4.22629e-05
0.00533006 -0.00159774 -0.00159957 5.00906e-08
0.0053428 -0.0016035 -0.00160256 -9.64931e-07
0.00382635 -0.00115965 -0.00114287 -3.9636e-05
0.00457061 -0.00137635 -0.00136897 -1.98544e-05
0.00533824 -0.00160198 -0.00160125 3.113e-07
0.0045883 -0.00138277 -0.0013738 -1.3999e-05
0.00458008 -0.00137957 -0.00137165 -1.74805e-05
0.00381535 -0.00115567 -0.00113986 -4.22629e-05
0.00379437 -0.00114757 -0.00113434 -4.66149e-05
0.00530927 -0.0015929 -0.00159273 -3.16296e-07
0.00533006 -0.00159774 -0.00159957 5.00906e-08
0.00380496 -0.0011516 -0.00113715 -4.4715e-05
0.00455018 -0.00136957 -0.00136312 -2.36728e-05
0.00531986 -0.00159506 -0.00159635 -5.36996e-07
0.00457061 -0.00137635 -0.00136897 -1.98544e-05
0.00456045 -0.001373 -0.00136605 -2.18909e-05
0.00379437 -0.00114757 -0.00113434 -4.66149e-05
0.00377366 -0.0011402 -0.00112863 -4.93129e-05
0.00528562 -0.00158545 -0.00158579 -4.0664e-08
0.00530927 -0.0015929 -0.00159273 -3.16296e-07
0.00378385 -0.00114379 -0.00113146 -4.8091e-05
0.00452856 -0.00136256 -0.00135686 -2.59739e-05
0.00529796 -0.00158951 -0.00158934 1.12108e-08
0.00455018 -0.00136957 -0.00136312 -2.36728e-05
0.00453961 -0.00136608 -0.00136009 -2.50219e-05
0.00377366 -0.0011402 -0.00112863 -4.93129e-05
0.00375351 -0.00113329 -0.00112295 -5.10519e-05
0.00525951 -0.0015779 -0.00157783 -8.96182e-08
0.00528562 -0.00158545 -0.00158579 -4.0664e-08
0.00376361 -0.0011367 -0.00112582 -5.03121e-05
0.00450576 -0.00135544 -0.00135014 -2.73236e-05
0.00527267 -0.00158164 -0.00158187 -1.57783e-07
0.00452856 -0.00136256 -0.00135686 -2.59739e-05
0.00451721 -0.00135901 -0.00135351 -2.67322e-05
0.00375351 -0.00113329 -0.00112295 -5.10519e-05
0.00373341 -0.00112675 -0.00111714 -5.20191e-05
0.00523249 -0.00156973 -0.00156975 -2.2064e-08
0.00525951 -0.0015779 -0.00157783 -8.96182e-08
0.00374343 -0.00112998 -0.00112005 -5.15983e-05
0.00448245 -0.00134825 -0.00134323 -2.80466e-05
0.00524613 -0.00157389 -0.00157381 -1.06242e-08
0.00450576 -0.00135544 -0.00135014 -2.73236e-05
0.00449419 -0.00135185 -0.00134672 -2.77478e-05
0.00373341 -0.00112675 -0.00111714 -5.20191e-05
0.00371341 -0.00112041 -0.00111128 -5.25764e-05
0.00520483 -0.00156149 -0.00156143 -2.26714e-08
0.00523249 -0.00156973 -0.00156975 -2.2064e-08
0.00372341 -0.00112356 -0.00111422 -5.23429e-05
0.00445875 -0.00134103 -0.00133617 -2.84405e-05
0.00521869 -0.00156561 -0.00156561 -4.23206e-08
0.00448245 -0.00134825 -0.00134323 -2.80466e-05
0.00447062 -0.00134464 -0.0013397 -2.82737e-05
0.00371341 -0.00112041 -0.00111128 -5.25764e-05
0.00369339 -0.0011142 -0.00110537 -5.28674e-05
0.00517692 -0.0015531 -0.00155306 -7.55654e-09
0.00520483 -0.00156149 -0.00156143 -2.26714e-08
0.00370339 -0.00111729 -0.00110833 -5.27437e-05
0.00443488 -0.00133378 -0.00132904 -2.86356e-05
0.0051909 -0.00155731 -0.00155725 -4.89339e-09
0.00445875 -0.00134103 -0.00133617 -2.84405e-05
0.00444684 -0.00133741 -0.00133261 -2.85557e-05
0.00369339 -0.0011142 -0.00110537 -5.28674e-05
0.00367338 -0.00110805 -0.00109943 -5.30243e-05
0.00514887 -0.0015447 -0.00154464 -5.15482e-09
0.00517692 -0.0015531 -0.00155306 -7.55654e-09
0.00368339 -0.00111112 -0.0011024 -5.29592e-05
0.00441089 -0.00132653 -0.00132187 -2.87355e-05
0.0051629 -0.0015489 -0.00154886 -1.02589e-08
0.00443488 -0.00133378 -0.00132904 -2.86356e-05
0.00442289 -0.00133016 -0.00132545 -2.86941e-05
0.00367338 -0.00110805 -0.00109943 -5.30243e-05
0.00365336 -0.00110194 -0.00109347 -5.3103e-05
0.00512076 -0.00153626 -0.00153621 -2.14757e-09
0.00514887 -0.0015447 -0.00154464 -5.15482e-09
0.00366337 -0.00110499 -0.00109645 -5.307e-05
0.00438685 -0.00131928 -0.00131468 -2.8782e-05
0.00513482 -0.00154048 -0.00154043 -1.50841e-09
0.00441089 -0.00132653 -0.00132187 -2.87355e-05
0.00439888 -0.0013229 -0.00131827 -2.87631e-05
0.00365336 -0.00110194 -0.00109347 -5.3103e-05
0.00363334 -0.00109585 -0.00108749 -5.31438e-05
0.00509262 -0.00152782 -0.00152777 -1.12633e-09
0.00512076 -0.00153626 -0.00153621 -2.14757e-09
0.00364335 -0.00109889 -0.00109048 -5.3127e-05
0.00436278 -0.00131202 -0.00130747 -2.88044e-05
0.00510669 -0.00153204 -0.00153199 -2.29861e-09
0.00438685 -0.00131928 -0.00131468 -2.8782e-05
0.00437482 -0.00131565 -0.00131107 -2.87953e-05
0.00363334 -0.00109585 -0.00108749 -5.31438e-05
0.0036133 -0.00108977 -0.00108152 -5.31637e-05
0.00506448 -0.00151938 -0.00151933 -6.28553e-10
0.00509262 -0.00152782 -0.00152777 -1.12633e-09
0.00362332 -0.00109281 -0.00108451 -5.31554e-05
0.0043387 -0.00130475 -0.00130026 -2.88143e-05
0.00507855 -0.0015236 -0.00152355 -4.74063e-10
0.00436278 -0.00131202 -0.00130747 -2.88044e-05
0.00435074 -0.00130838 -0.00130387 -2.88104e-05
0.0036133 -0.00108977 -0.00108152 -5.31637e-05
0.00359326 -0.00108368 -0.00107553 -5.31736e-05
0.00503633 -0.00151093 -0.00151088 -3.31822e-10
0.00506448 -0.00151938 -0.00151933 -6.28553e-10
0.00360328 -0.00108672 -0.00107853 -5.31696e-05
0.00431461 -0.00129749 -0.00129305 -2.88186e-05
0.0050504 -0.00151515 -0.00151511 -5.6635e-10
0.0043387 -0.00130475 -0.00130026 -2.88143e-05
0.00432666 -0.00130112 -0.00129666 -2.88169e-05
0.00359326 -0.00108368 -0.00107553 -5.31736e-05
0.00357322 -0.00107761 -0.00106955 -5.31779e-05
0.00500817 -0.00150248 -0.00150244 -2.73877e-10
0.00503633 -0.00151093 -0.00151088 -3.31822e-10
0.00358324 -0.00108065 -0.00107254 -5.31762e-05
0.00429052 -0.00129023 -0.00128584 -2.882e-05
0.00502225 -0.00150671 -0.00150666 -2.38949e-10
0.00431461 -0.00129749 -0.00129305 -2.88186e-05
0.00430256 -0.00129386 -0.00128945 -2.88195e-05
0.00357322 -0.00107761 -0.00106955 -5.31779e-05
0.00355318 -0.00107153 -0.00106356 -5.31795e-05
0.00498002 -0.00149404 -0.00149399 -1.99708e-10
0.00500817 -0.00150248 -0.00150244 -2.73877e-10
0.0035632 -0.00107457 -0.00106656 -5.3179e-05
0.00426642 -0.00128296 -0.00127862 -2.88202e-05
0.0049941 -0.00149826 -0.00149821 -2.40465e-10
0.00429052 -0.00129023 -0.00128584 -2.882e-05
0.00427847 -0.0012866 -0.00128223 -2.88202e-05
0.00355318 -0.00107153 -0.00106356 -5.31795e-05
0.00353313 -0.00106545 -0.00105758 -5.31795e-05
0.00495187 -0.00148559 -0.00148555 -1.97345e-10
0.00498002 -0.00149404 -0.00149399 -1.99708e-10
0.00354316 -0.00106849 -0.00106057 -5.31796e-05
0.00424232 -0.0012757 -0.00127141 -2.88198e-05
0.00496594 -0.00148982 -0.00148977 -1.91483e-10
0.00426642 -0.00128296 -0.00127862 -2.88202e-05
0.00425437 -0.00127933 -0.00127502 -2.88201e-05
0.00353313 -0.00106545 -0.00105758 -5.31795e-05
0.00351309 -0.00105937 -0.00105159 -5.31786e-05
0.00492371 -0.00147715 -0.0014771 -1.78172e-10
0.00495187 -0.00148559 -0.00148555 -1.97345e-10
0.00352311 -0.00106241 -0.00105458 -5.31791e-05
0.00421823 -0.00126844 -0.0012642 -2.8819e-05
0.00493779 -0.00148137 -0.00148132 -1.84858e-10
0.00424232 -0.0012757 -0.00127141 -2.88198e-05
0.00423028 -0.00127207 -0.0012678 -2.88194e-05
0.00351309 -0.00105937 -0.00105159 -5.31786e-05
0.00349304 -0.0010533 -0.0010456 -5.31772e-05
0.00489556 -0.0014687 -0.00146865 -1.77819e-10
0.00492371 -0.00147715 -0.0014771 -1.78172e-10
0.00350306 -0.00105634 -0.0010486 -5.31779e-05
0.00419413 -0.00126117 -0.00125698 -2.88179e-05
0.00490964 -0.00147292 -0.00147288 -1.77982e-10
0.00421823 -0.00126844 -0.0012642 -2.8819e-05
0.00420618 -0.00126481 -0.00126059 -2.88185e-05
0.00349304 -0.0010533 -0.0010456 -5.31772e-05
0.00347299 -0.00104722 -0.00103962 -5.31755e-05
0.00486741 -0.00146025 -0.00146021 -1.71677e-10
0.00489556 -0.0014687 -0.00146865 -1.77819e-10
0.00348302 -0.00105026 -0.00104261 -5.31764e-05
0.00417003 -0.00125391 -0.00124977 -2.88168e-05
0.00488148 -0.00146448 -0.00146443 -1.73154e-10
0.00419413 -0.00126117 -0.00125698 -2.88179e-05
0.00418208 -0.00125754 -0.00125337 -2.88174e-05
0.00347299 -0.00104722 -0.00103962 -5.31755e-05
0.00345294 -0.00104115 -0.00103363 -5.31737e-05
0.00483926 -0.00145181 -0.00145176 -1.70584e-10
0.00486741 -0.00146025 -0.00146021 -1.7168e-10
0.00346297 -0.00104418 -0.00103662 -5.31746e-05
0.00414593 -0.00124665 -0.00124255 -2.88157e-05
0.00485333 -0.00145603 -0.00145599 -1.71337e-10
0.00417003 -0.00125391 -0.00124977 -2.88168e-05
0.00415798 -0.00125028 -0.00124616 -2.88163e-05
0.00345294 -0.00104115 -0.00103363 -5.31737e-05
0.0034329 -0.00103507 -0.00102764 -5.31718e-05
0.0048111 -0.00144336 -0.00144332 -1.68204e-10
0.00483926 -0.00145181 -0.00145176 -1.70584e-10
0.00344292 -0.00103811 -0.00103063 -5.31727e-05
0.00412184 -0.00123939 -0.00123534 -2.88145e-05
0.00482518 -0.00144759 -0.00144754 -1.68778e-10
0.00414593 -0.00124665 -0.00124255 -2.88157e-05
0.00413388 -0.00124302 -0.00123894 -2.88151e-05
0.0034329 -0.00103507 -0.00102764 -5.31718e-05
0.00341285 -0.001029 -0.00102165 -5.31698e-05
0.00478295 -0.00143492 -0.00143487 -1.67304e-10
0.0048111 -0.00144336 -0.00144332 -1.68204e-10
0.00342287 -0.00103203 -0.00102465 -5.31708e-05
0.00409774 -0.00123212 -0.00122812 -2.88134e-05
0.00479703 -0.00143914 -0.0014391 -1.67797e-10
0.00412184 -0.00123939 -0.00123534 -2.88145e-05
0.00410979 -0.00123575 -0.00123173 -2.88139e-05
0.00341285 -0.001029 -0.00102165 -5.31698e-05
0.0033928 -0.00102292 -0.00101566 -5.31679e-05
0.0047548 -0.00142647 -0.00142643 -1.66253e-10
0.00478295 -0.00143492 -0.00143487 -1.67304e-10
0.00340282 -0.00102596 -0.00101866 -5.31688e-05
0.00407364 -0.00122486 -0.00122091 -2.88122e-05
0.00476888 -0.00143069 -0.00143065 -1.66591e-10
0.00409774 -0.00123212 -0.00122812 -2.88134e-05
0.00408569 -0.00122849 -0.00122451 -2.88128e-05
0.0033928 -0.00102292 -0.00101566 -5.31679e-05
0.00337275 -0.00101685 -0.00100967 -5.31659e-05
0.00472665 -0.00141803 -0.00141798 -1.65633e-10
0.0047548 -0.00142647 -0.00142643 -1.6626e-10
0.00338278 -0.00101988 -0.00101267 -5.31669e-05
0.00404954 -0.0012176 -0.00121369 -2.8811e-05
0.00474073 -0.00142225 -0.00142221 -1.65972e-10
0.00407364 -0.00122486 -0.00122091 -2.88122e-05
0.00406159 -0.00122123 -0.0012173 -2.88116e-05
0.00337275 -0.00101685 -0.00100967 -5.31659e-05
0.0033527 -0.00101077 -0.00100369 -5.3164e-05
0.0046985 -0.00140958 -0.00140954 -1.64988e-10
0.00472665 -0.00141803 -0.00141798 -1.65633e-10
0.00336273 -0.00101381 -0.00100668 -5.31649e-05
0.00402545 -0.00121034 -0.00120648 -2.88099e-05
0.00471258 -0.0014138 -0.00141376 -1.65301e-10
0.00404954 -0.0012176 -0.00121369 -2.8811e-05
0.0040375 -0.00121397 -0.00121008 -2.88105e-05
0.0033527 -0.00101077 -0.00100369 -5.3164e-05
0.00333266 -0.0010047 -0.000997696 -5.3162e-05
0.00467036 -0.00140114 -0.00140109 -1.64422e-10
0.0046985 -0.00140958 -0.00140954 -1.64995e-10
0.00334268 -0.00100773 -0.00100069 -5.3163e-05
0.00400135 -0.00120308 -0.00119926 -2.88088e-05
0.00468443 -0.00140536 -0.00140532 -1.6477e-10
0.00402545 -0.00121034 -0.00120648 -2.88099e-05
0.0040134 -0.00120671 -0.00120287 -2.88093e-05
0.00333266 -0.0010047 -0.000997696 -5.3162e-05
0.00331261 -0.000998624 -0.000991707 -5.31601e-05
0.00464221 -0.00139269 -0.00139265 -1.63812e-10
0.00467036 -0.00140114 -0.00140109 -1.64422e-10
0.00332263 -0.00100166 -0.000994702 -5.3161e-05
0.00397725 -0.00119582 -0.00119205 -2.88076e-05
0.00465628 -0.00139691 -0.00139687 -1.6418e-10
0.00400135 -0.00120308 -0.00119926 -2.88088e-05
0.0039893 -0.00119945 -0.00119565 -2.88082e-05
0.00331261 -0.000998624 -0.000991707 -5.31601e-05
0.00329256 -0.000992551 -0.000985718 -5.31581e-05
0.00461406 -0.00138425 -0.00138421 -1.6316e-10
0.00464221 -0.00139269 -0.00139265 -1.63812e-10
0.00330258 -0.000995587 -0.000988712 -5.31591e-05
0.00395316 -0.00118855 -0.00118483 -2.88065e-05
0.00462813 -0.00138847 -0.00138843 -1.63581e-10
0.00397725 -0.00119582 -0.00119205 -2.88076e-05
0.00396521 -0.00119218 -0.00118844 -2.8807e-05
0.00329256 -0.000992551 -0.000985718 -5.31581e-05
0.00327251 -0.000986478 -0.000979728 -5.31561e-05
0.00458591 -0.0013758 -0.00137576 -1.6244e-10
0.00461406 -0.00138425 -0.00138421 -1.6316e-10
0.00328253 -0.000989514 -0.000982723 -5.31571e-05
0.00392906 -0.00118129 -0.00117761 -2.88053e-05
0.00459998 -0.00138002 -0.00137998 -1.62887e-10
0.00395316 -0.00118855 -0.00118483 -2.88065e-05
0.00394111 -0.00118492 -0.00118122 -2.88059e-05
0.00327251 -0.000986478 -0.000979728 -5.31561e-05
0.00325246 -0.000980405 -0.000973738 -5.31542e-05
0.00455776 -0.00136736 -0.00136732 -1.61677e-10
0.00458591 -0.0013758 -0.00137576 -1.6244e-10
0.00326249 -0.000983441 -0.000976733 -5.31552e-05
0.00390496 -0.00117403 -0.0011704 -2.88042e-05
0.00457184 -0.00137158 -0.00137154 -1.62159e-10
0.00392906 -0.00118129 -0.00117761 -2.88053e-05
0.00391701 -0.00117766 -0.00117401 -2.88048e-05
0.00325246 -0.000980405 -0.000973738 -5.31542e-05
0.00323241 -0.000974333 -0.000967748 -5.31522e-05
0.00452962 -0.00135891 -0.00135887 -1.60864e-10
0.00455776 -0.00136736 -0.00136732 -1.61677e-10
0.00324244 -0.000977369 -0.000970743 -5.31532e-05
0.00388087 -0.00116677 -0.00116318 -2.8803e-05
0.00454369 -0.00136314 -0.00136309 -1.61375e-10
0.00390496 -0.00117403 -0.0011704 -2.88042e-05
0.00389292 -0.0011704 -0.00116679 -2.88036e-05
0.00323241 -0.000974333 -0.000967748 -5.31522e-05
0.00321236 -0.000968261 -0.000961758 -5.31502e-05
0.00450147 -0.00135047 -0.00135043 -1.5999e-10
0.00452962 -0.00135891 -0.00135887 -1.60868e-10
0.00322239 -0.000971297 -0.000964753 -5.31512e-05
0.00385677 -0.00115951 -0.00115597 -2.88019e-05
0.00451554 -0.00135469 -0.00135465 -1.60532e-10
0.00388087 -0.00116677 -0.00116318 -2.8803e-05
0.00386882 -0.00116314 -0.00115958 -2.88025e-05
0.00321236 -0.000968261 -0.000961758 -5.31502e-05
0.00319231 -0.000962189 -0.000955768 -5.31481e-05
0.00447332 -0.00134203 -0.00134199 -1.59099e-10
0.00450147 -0.00135047 -0.00135043 -1.5999e-10
0.00320234 -0.000965225 -0.000958763 -5.31492e-05
0.00383268 -0.00115225 -0.00114875 -2.88007e-05
0.0044874 -0.00134625 -0.00134621 -1.59641e-10
0.00385677 -0.00115951 -0.00115597 -2.88019e-05
0.00384472 -0.00115588 -0.00115236 -2.88013e-05
0.00319231 -0.000962189 -0.000955768 -5.31481e-05
0.00317227 -0.000956118 -0.000949777 -5.31461e-05
0.00444518 -0.00133358 -0.00133354 -1.58219e-10
0.00447332 -0.00134203 -0.00134199 -1.59103e-10
0.00318229 -0.000959154 -0.000952773 -5.31471e-05
0.00380858 -0.00114499 -0.00114154 -2.87995e-05
0.00445925 -0.0013378 -0.00133776 -1.5877e-10
0.00383268 -0.00115225 -0.00114875 -2.88007e-05
0.00382063 -0.00114862 -0.00114515 -2.88001e-05
0.00317227 -0.000956118 -0.000949777 -5.31461e-05
0.00315222 -0.000950047 -0.000943787 -5.3144e-05
0.00441703 -0.00132514 -0.0013251 -1.57221e-10
0.00444518 -0.00133358 -0.00133354 -1.58219e-10
0.00316224 -0.000953083 -0.000946782 -5.31451e-05
0.00378449 -0.00113773 -0.00113432 -2.87983e-05
0.00443111 -0.00132936 -0.00132932 -1.57811e-10
0.00380858 -0.00114499 -0.00114154 -2.87995e-05
0.00379653 -0.00114136 -0.00113793 -2.87989e-05
0.00315222 -0.000950047 -0.000943787 -5.3144e-05
0.00313217 -0.000943977 -0.000937796 -5.31419e-05
0.00438889 -0.00131669 -0.00131666 -1.56302e-10
0.00441703 -0.00132514 -0.0013251 -1.57221e-10
0.00314219 -0.000947012 -0.000940791 -5.3143e-05
0.00376039 -0.00113048 -0.00112711 -2.87971e-05
0.00440296 -0.00132092 -0.00132088 -1.5684e-10
0.00378449 -0.00113773 -0.00113432 -2.87983e-05
0.00377244 -0.00113411 -0.00113071 -2.87977e-05
0.00313217 -0.000943977 -0.000937796 -5.31419e-05
0.00311212 -0.000937907 -0.000931805 -5.31398e-05
0.00436075 -0.00130825 -0.00130821 -1.55341e-10
0.00438889 -0.00131669 -0.00131666 -1.5631e-10
0.00312214 -0.000940942 -0.000934801 -5.31409e-05
0.0037363 -0.00112322 -0.00111989 -2.87959e-05
0.00437482 -0.00131247 -0.00131243 -1.5594e-10
0.00376039 -0.00113048 -0.00112711 -2.87971e-05
0.00374834 -0.00112685 -0.0011235 -2.87965e-05
0.00311212 -0.000937907 -0.000931805 -5.31398e-05
0.00309207 -0.000931837 -0.000925814 -5.31377e-05
0.0043326 -0.00129981 -0.00129977 -1.54375e-10
0.00436075 -0.00130825 -0.00130821 -1.55341e-10
0.00310209 -0.000934872 -0.00092881 -5.31388e-05
0.0037122 -0.00111596 -0.00111268 -2.87947e-05
0.00434667 -0.00130403 -0.00130399 -1.54941e-10
0.0037363 -0.00112322 -0.00111989 -2.87959e-05
0.00372425 -0.00111959 -0.00111628 -2.87953e-05
0.00309207 -0.000931837 -0.000925814 -5.31377e-05
0.00307202 -0.000925768 -0.000919823 -5.31356e-05
0.00430446 -0.00129136 -0.00129133 -1.53405e-10
0.0043326 -0.00129981 -0.00129977 -1.54382e-10
0.00308205 -0.000928802 -0.000922819 -5.31366e-05
0.00368811 -0.0011087 -0.00110546 -2.87934e-05
0.00431853 -0.00129559 -0.00129555 -1.53976e-10
0.0037122 -0.00111596 -0.00111268 -2.87947e-05
0.00370016 -0.00111233 -0.00110907 -2.87941e-05
0.00307202 -0.000925768 -0.000919823 -5.31356e-05
0.00305197 -0.000919699 -0.000913832 -5.31334e-05
0.00427632 -0.00128292 -0.00128288 -1.52444e-10
0.00430446 -0.00129136 -0.00129133 -1.53405e-10
0.003062 -0.000922733 -0.000916827 -5.31345e-05
0.00366401 -0.00110144 -0.00109824 -2.87922e-05
0.00429039 -0.00128714 -0.0012871 -1.52992e-10
0.00368811 -0.0011087 -0.00110546 -2.87934e-05
0.00367606 -0.00110507 -0.00110185 -2.87928e-05
0.00305197 -0.000919699 -0.000913832 -5.31334e-05
0.00303192 -0.00091363 -0.00090784 -5.31312e-05
0.00424817 -0.00127448 -0.00127444 -1.51454e-10
0.00427632 -0.00128292 -0.00128288 -1.52431e-10
0.00304195 -0.000916664 -0.000910836 -5.31323e-05
0.00363992 -0.00109419 -0.00109103 -2.87909e-05
0.00426224 -0.0012787 -0.00127866 -1.52036e-10
0.00366401 -0.00110144 -0.00109824 -2.87922e-05
0.00365197 -0.00109781 -0.00109464 -2.87916e-05
0.00303192 -0.00091363 -0.00090784 -5.31312e-05
0.00301187 -0.000907562 -0.000901848 -5.3129e-05
0.00422003 -0.00126604 -0.001266 -1.50499e-10
0.00424817 -0.00127448 -0.00127444 -1.51454e-10
0.0030219 -0.000910596 -0.000904844 -5.31301e-05
0.00361583 -0.00108693 -0.00108381 -2.87897e-05
0.0042341 -0.00127026 -0.00127022 -1.51031e-10
0.00363992 -0.00109419 -0.00109103 -2.87909e-05
0.00362787 -0.00109056 -0.00108742 -2.87903e-05
0.00301187 -0.000907562 -0.000901848 -5.3129e-05
0.00299183 -0.000901494 -0.000895857 -5.31268e-05
0.00419189 -0.00125759 -0.00125756 -1.49522e-10
0.00422003 -0.00126604 -0.001266 -1.50493e-10
0.00300185 -0.000904528 -0.000898853 -5.31279e-05
0.00359173 -0.00107967 -0.0010766 -2.87884e-05
0.00420596 -0.00126181 -0.00126178 -1.50124e-10
0.00361583 -0.00108693 -0.00108381 -2.87897e-05
0.00360378 -0.0010833 -0.00108021 -2.8789e-05
0.00299183 -0.000901494 -0.000895857 -5.31268e-05
0.00297178 -0.000895426 -0.000889865 -5.31246e-05
0.00416375 -0.00124915 -0.00124911 -1.4847e-10
0.00419189 -0.00125759 -0.00125756 -1.49522e-10
0.0029818 -0.00089846 -0.000892861 -5.31257e-05
0.00356764 -0.00107241 -0.00106938 -2.87871e-05
0.00417782 -0.00125337 -0.00125334 -1.4905e-10
0.00359173 -0.00107967 -0.0010766 -2.87884e-05
0.00357969 -0.00107604 -0.00107299 -2.87877e-05
0.00297178 -0.000895426 -0.000889865 -5.31246e-05
0.00295173 -0.000889359 -0.000883873 -5.31223e-05
0.00413561 -0.00124071 -0.00124067 -1.47636e-10
0.00416375 -0.00124915 -0.00124911 -1.48463e-10
0.00296175 -0.000892392 -0.000886869 -5.31235e-05
0.00354355 -0.00106516 -0.00106217 -2.87858e-05
0.00414968 -0.00124493 -0.00124489 -1.48131e-10
0.00356764 -0.00107241 -0.00106938 -2.87871e-05
0.00355559 -0.00106879 -0.00106577 -2.87865e-05
0.00295173 -0.000889359 -0.000883873 -5.31223e-05
0.00293168 -0.000883292 -0.00087788 -5.31201e-05
0.00410747 -0.00123227 -0.00123223 -1.46573e-10
0.00413561 -0.00124071 -0.00124067 -1.47636e-10
0.0029417 -0.000886325 -0.000880877 -5.31212e-05
0.00351946 -0.0010579 -0.00105495 -2.87845e-05
0.00412154 -0.00123649 -0.00123645 -1.47223e-10
0.00354355 -0.00106516 -0.00106217 -2.87858e-05
0.0035315 -0.00106153 -0.00105856 -2.87852e-05
0.00293168 -0.000883292 -0.00087788 -5.31201e-05
0.00291163 -0.000877226 -0.000871888 -5.31178e-05
0.00407933 -0.00122382 -0.00122379 -1.45597e-10
0.00410747 -0.00123227 -0.00123223 -1.46573e-10
0.00292166 -0.000880259 -0.000874884 -5.31189e-05
0.00349536 -0.00105065 -0.00104774 -2.87832e-05
0.0040934 -0.00122805 -0.00122801 -1.46131e-10
0.00351946 -0.0010579 -0.00105495 -2.87845e-05
0.00350741 -0.00105427 -0.00105134 -2.87838e-05
0.00291163 -0.000877226 -0.000871888 -5.31178e-05
0.00289158 -0.00087116 -0.000865896 -5.31155e-05
0.00405119 -0.00121538 -0.00121535 -1.44631e-10
0.00407933 -0.00122382 -0.00122379 -1.45592e-10
0.00290161 -0.000874193 -0.000868892 -5.31166e-05
0.00347127 -0.00104339 -0.00104052 -2.87819e-05
0.00406526 -0.0012196 -0.00121957 -1.45214e-10
0.00349536 -0.00105065 -0.00104774 -2.87832e-05
0.00348332 -0.00104702 -0.00104413 -2.87825e-05
0.00289158 -0.00087116 -0.000865896 -5.31155e-05
0.00287153 -0.000865094 -0.000859903 -5.31132e-05
0.00402306 -0.00120694 -0.00120691 -1.43663e-10
0.00405119 -0.00121538 -0.00121535 -1.44634e-10
0.00288156 -0.000868127 -0.000862899 -5.31143e-05
0.00344718 -0.00103614 -0.00103331 -2.87805e-05
0.00403713 -0.00121116 -0.00121113 -1.44205e-10
0.00347127 -0.00104339 -0.00104052 -2.87819e-05
0.00345923 -0.00103976 -0.00103691 -2.87812e-05
0.00287153 -0.000865094 -0.000859903 -5.31132e-05
0.00285149 -0.000859029 -0.00085391 -5.31109e-05
0.00399492 -0.0011985 -0.00119847 -1.42672e-10
0.00402306 -0.00120694 -0.00120691 -1.43663e-10
0.00286151 -0.000862061 -0.000856907 -5.3112e-05
0.00342309 -0.00102888 -0.00102609 -2.87792e-05
0.00400899 -0.00120272 -0.00120269 -1.4325e-10
0.00344718 -0.00103614 -0.00103331 -2.87805e-05
0.00343514 -0.00103251 -0.0010297 -2.87799e-05
0.00285149 -0.000859029 -0.00085391 -5.31109e-05
0.00283144 -0.000852964 -0.000847917 -5.31085e-05
0.00396678 -0.00119006 -0.00119003 -1.41703e-10
0.00399492 -0.0011985 -0.00119847 -1.42672e-10
0.00284146 -0.000855996 -0.000850914 -5.31097e-05
0.003399 -0.00102163 -0.00101887 -2.87779e-05
0.00398085 -0.00119428 -0.00119425 -1.42252e-10
0.00342309 -0.00102888 -0.00102609 -2.87792e-05
0.00341104 -0.00102525 -0.00102248 -2.87785e-05
0.00283144 -0.000852964 -0.000847917 -5.31085e-05
0.00281139 -0.000846899 -0.000841924 -5.31062e-05
0.00393865 -0.00118162 -0.00118158 -1.40721e-10
0.00396678 -0.00119006 -0.00119003 -1.4171e-10
0.00282141 -0.000849931 -0.000844921 -5.31074e-05
0.00337491 -0.00101437 -0.00101166 -2.87765e-05
0.00395272 -0.00118584 -0.0011858 -1.41291e-10
0.003399 -0.00102163 -0.00101887 -2.87779e-05
0.00338695 -0.001018 -0.00101527 -2.87772e-05
0.00281139 -0.000846899 -0.000841924 -5.31062e-05
0.00279134 -0.000840835 -0.000835931 -5.31038e-05
0.00391051 -0.00117318 -0.00117314 -1.39749e-10
0.00393865 -0.00118162 -0.00118158 -1.40728e-10
0.00280137 -0.000843867 -0.000838928 -5.3105e-05
0.00335082 -0.00100712 -0.00100444 -2.87752e-05
0.00392458 -0.0011774 -0.00117736 -1.4031e-10
0.00337491 -0.00101437 -0.00101166 -2.87765e-05
0.00336286 -0.00101074 -0.00100805 -2.87759e-05
0.00279134 -0.000840835 -0.000835931 -5.31038e-05
0.00277129 -0.000834771 -0.000829938 -5.31015e-05
0.00388238 -0.00116474 -0.0011647 -1.38763e-10
0.00391051 -0.00117318 -0.00117314 -1.39749e-10
0.00278132 -0.000837803 -0.000832935 -5.31026e-05
0.00332673 -0.000999863 -0.000997228 -2.87738e-05
0.00389645 -0.00116896 -0.00116892 -1.39341e-10
0.00335082 -0.00100712 -0.00100444 -2.87752e-05
0.00333877 -0.00100349 -0.00100084 -2.87745e-05
0.00277129 -0.000834771 -0.000829938 -5.31015e-05
0.00275125 -0.000828708 -0.000823945 -5.30991e-05
0.00385424 -0.0011563 -0.00115626 -1.37795e-10
0.00388238 -0.00116474 -0.0011647 -1.38763e-10
0.00276127 -0.000831739 -0.000826941 -5.31003e-05
0.00330264 -0.00099261 -0.000990013 -2.87725e-05
0.00386831 -0.00116052 -0.00116048 -1.38346e-10
0.00332673 -0.000999863 -0.000997228 -2.87738e-05
0.00331468 -0.000996237 -0.00099362 -2.87731e-05
0.00275125 -0.000828708 -0.000823945 -5.30991e-05
0.0027312 -0.000822645 -0.000817951 -5.30967e-05
0.00382611 -0.00114786 -0.00114782 -1.36808e-10
0.00385424 -0.0011563 -0.00115626 -1.3779e-10
0.00274122 -0.000825676 -0.000820948 -5.30979e-05
0.00327855 -0.000985357 -0.000982797 -2.87711e-05
0.00384018 -0.00115208 -0.00115204 -1.37363e-10
0.00330264 -0.00099261 -0.000990013 -2.87725e-05
0.0032906 -0.000988983 -0.000986405 -2.87718e-05
0.0027312 -0.000822645 -0.000817951 -5.30967e-05
0.00271115 -0.000816582 -0.000811958 -5.30943e-05
0.00379798 -0.00113942 -0.00113938 -1.35832e-10
0.00382611 -0.00114786 -0.00114782 -1.36803e-10
0.00272117 -0.000819613 -0.000814954 -5.30955e-05
0.00325446 -0.000978104 -0.000975582 -2.87697e-05
0.00381205 -0.00114364 -0.0011436 -1.36386e-10
0.00327855 -0.000985357 -0.000982797 -2.87711e-05
0.00326651 -0.00098173 -0.00097919 -2.87704e-05
0.00271115 -0.000816582 -0.000811958 -5.30943e-05
0.0026911 -0.00081052 -0.000805964 -5.30919e-05
0.00376985 -0.00113098 -0.00113094 -1.34853e-10
0.00379798 -0.00113942 -0.00113938 -1.35832e-10
0.00270113 -0.000813551 -0.000808961 -5.30931e-05
0.00323037 -0.000970851 -0.000968367 -2.87683e-05
0.00378391 -0.0011352 -0.00113516 -1.35405e-10
0.00325446 -0.000978104 -0.000975582 -2.87697e-05
0.00324242 -0.000974477 -0.000971975 -2.8769e-05
0.0026911 -0.00081052 -0.000805964 -5.30919e-05
0.00267105 -0.000804458 -0.00079997 -5.30895e-05
0.00374172 -0.00112254 -0.00112251 -1.33861e-10
0.00376985 -0.00113098 -0.00113094 -1.34853e-10
0.00268108 -0.000807489 -0.000802967 -5.30907e-05
0.00320629 -0.000963599 -0.000961152 -2.87669e-05
0.00375578 -0.00112676 -0.00112673 -1.34411e-10
0.00323037 -0.000970851 -0.000968367 -2.87683e-05
0.00321833 -0.000967225 -0.000964759 -2.87676e-05
0.00267105 -0.000804458 -0.00079997 -5.30895e-05
0.00265101 -0.000798397 -0.000793976 -5.3087e-05
0.00371358 -0.0011141 -0.00111407 -1.32874e-10
0.00374172 -0.00112254 -0.00112251 -1.33871e-10
0.00266103 -0.000801427 -0.000796973 -5.30883e-05
0.0031822 -0.000956347 -0.000953936 -2.87655e-05
0.00372765 -0.00111832 -0.00111829 -1.33442e-10
0.00320629 -0.000963599 -0.000961152 -2.87669e-05
0.00319424 -0.000959973 -0.000957544 -2.87662e-05
0.00265101 -0.000798397 -0.000793976 -5.3087e-05
0.00263096 -0.000792336 -0.000787982 -5.30846e-05
0.00368545 -0.00110566 -0.00110563 -1.31901e-10
0.00371358 -0.0011141 -0.00111407 -1.32896e-10
0.00264098 -0.000795366 -0.000790979 -5.30858e-05
0.00315811 -0.000949095 -0.000946721 -2.87642e-05
0.00369952 -0.00110988 -0.00110985 -1.32454e-10
0.0031822 -0.000956347 -0.000953936 -2.87655e-05
0.00317015 -0.000952721 -0.000950329 -2.87649e-05
0.00263096 -0.000792336 -0.000787982 -5.30846e-05
0.00261091 -0.000786275 -0.000781988 -5.30822e-05
0.00365733 -0.00109722 -0.00109719 -1.3092e-10
0.00368545 -0.00110566 -0.00110563 -1.31901e-10
0.00262094 -0.000789305 -0.000784985 -5.30834e-05
0.00313402 -0.000941844 -0.000939506 -2.87628e-05
0.00367139 -0.00110144 -0.00110141 -1.31481e-10
0.00315811 -0.000949095 -0.000946721 -2.87642e-05
0.00314607 -0.000945469 -0.000943114 -2.87635e-05
0.00261091 -0.000786275 -0.000781988 -5.30822e-05
0.00259087 -0.000780215 -0.000775993 -5.30797e-05
0.0036292 -0.00108878 -0.00108875 -1.29925e-10
0.00365733 -0.00109722 -0.00109719 -1.3092e-10
0.00260089 -0.000783245 -0.000778991 -5.3081e-05
0.00310994 -0.000934593 -0.000932291 -2.87614e-05
0.00364326 -0.001093 -0.00109297 -1.30476e-10
0.00313402 -0.000941844 -0.000939506 -2.87628e-05
0.00312198 -0.000938218 -0.000935898 -2.87621e-05
0.00259087 -0.000780215 -0.000775993 -5.30797e-05
0.00257082 -0.000774155 -0.000769999 -5.30773e-05
0.00360107 -0.00108034 -0.00108031 -1.28947e-10
0.0036292 -0.00108878 -0.00108875 -1.29918e-10
0.00258084 -0.000777185 -0.000772996 -5.30785e-05
0.00308585 -0.000927342 -0.000925076 -2.87599e-05
0.00361513 -0.00108456 -0.00108453 -1.29513e-10
0.00310994 -0.000934593 -0.000932291 -2.87614e-05
0.0030979 -0.000930967 -0.000928683 -2.87607e-05
0.00257082 -0.000774155 -0.000769999 -5.30773e-05
0.00255077 -0.000768096 -0.000764005 -5.30748e-05
0.00357294 -0.0010719 -0.00107187 -1.27974e-10
0.00360107 -0.00108034 -0.00108031 -1.28962e-10
0.0025608 -0.000771125 -0.000767002 -5.3076e-05
0.00306177 -0.000920092 -0.000917861 -2.87585e-05
0.00358701 -0.00107612 -0.00107609 -1.2854e-10
0.00308585 -0.000927342 -0.000925076 -2.87599e-05
0.00307381 -0.000923717 -0.000921468 -2.87592e-05
0.00255077 -0.000768096 -0.000764005 -5.30748e-05
0.00253073 -0.000762036 -0.00075801 -5.30723e-05
0.00354481 -0.00106346 -0.00106344 -1.26978e-10
0.00357294 -0.0010719 -0.00107187 -1.27974e-10
0.00254075 -0.000765066 -0.000761007 -5.30736e-05
0.00303768 -0.000912841 -0.000910646 -2.87571e-05
0.00355888 -0.00106768 -0.00106766 -1.27533e-10
0.00306177 -0.000920092 -0.000917861 -2.87585e-05
0.00304972 -0.000916466 -0.000914253 -2.87578e-05
0.00253073 -0.000762036 -0.00075801 -5.30723e-05
0.00251068 -0.000755978 -0.000752015 -5.30699e-05
0.00351669 -0.00105503 -0.001055 -1.26005e-10
0.00354481 -0.00106346 -0.00106344 -1.26978e-10
0.0025207 -0.000759007 -0.000755012 -5.30711e-05
0.0030136 -0.000905592 -0.000903431 -2.87557e-05
0.00353075 -0.00105924 -0.00105922 -1.26543e-10
0.00303768 -0.000912841 -0.000910646 -2.87571e-05
0.00302564 -0.000909216 -0.000907038 -2.87564e-05
0.00251068 -0.000755978 -0.000752015 -5.30699e-05
0.00249063 -0.00074992 -0.00074602 -5.30674e-05
0.00348856 -0.00104659 -0.00104656 -1.25006e-10
0.00351669 -0.00105503 -0.001055 -1.26007e-10
0.00250066 -0.000752949 -0.000749018 -5.30686e-05
0.00298951 -0.000898342 -0.000896216 -2.87543e-05
0.00350263 -0.00105081 -0.00105078 -1.25577e-10
0.0030136 -0.000905592 -0.000903431 -2.87557e-05
0.00300155 -0.000901967 -0.000899823 -2.8755e-05
0.00249063 -0.00074992 -0.00074602 -5.30674e-05
0.00247059 -0.000743862 -0.000740025 -5.30649e-05
0.00346044 -0.00103815 -0.00103812 -1.24029e-10
0.00348856 -0.00104659 -0.00104656 -1.25027e-10
0.00248061 -0.000746891 -0.000743023 -5.30662e-05
0.00296543 -0.000891093 -0.000889001 -2.87529e-05
0.0034745 -0.00104237 -0.00104234 -1.24586e-10
0.00298951 -0.000898342 -0.000896216 -2.87543e-05
0.00297747 -0.000894717 -0.000892608 -2.87536e-05
0.00247059 -0.000743862 -0.000740025 -5.30649e-05
0.00245054 -0.000737804 -0.00073403 -5.30624e-05
0.00343232 -0.00102971 -0.00102969 -1.23038e-10
0.00346044 -0.00103815 -0.00103812 -1.24029e-10
0.00246056 -0.000740833 -0.000737028 -5.30637e-05
0.00294134 -0.000883844 -0.000881786 -2.87515e-05
0.00344638 -0.00103393 -0.00103391 -1.2361e-10
0.00296543 -0.000891093 -0.000889001 -2.87529e-05
0.00295339 -0.000887468 -0.000885393 -2.87522e-05
0.00245054 -0.000737804 -0.00073403 -5.30624e-05
0.0024305 -0.000731747 -0.000728035 -5.306e-05
0.00340419 -0.00102128 -0.00102125 -1.22046e-10
0.00343232 -0.00102971 -0.00102969 -1.23038e-10
0.00244052 -0.000734776 -0.000731033 -5.30612e-05
0.00291726 -0.000876595 -0.000874571 -2.875e-05
0.00341825 -0.00102549 -0.00102547 -1.2259e-10
0.00294134 -0.000883844 -0.000881786 -2.87515e-05
0.0029293 -0.00088022 -0.000878179 -2.87507e-05
0.0024305 -0.000731747 -0.000728035 -5.306e-05
0.00241045 -0.000725691 -0.00072204 -5.30575e-05
0.00337607 -0.00101284 -0.00101281 -1.21068e-10
0.00340419 -0.00102128 -0.00102125 -1.22053e-10
0.00242047 -0.000728719 -0.000725037 -5.30587e-05
0.00289318 -0.000869347 -0.000867356 -2.87486e-05
0.00339013 -0.00101706 -0.00101703 -1.21615e-10
0.00291726 -0.000876595 -0.000874571 -2.875e-05
0.00290522 -0.000872971 -0.000870964 -2.87493e-05
0.00241045 -0.000725691 -0.00072204 -5.30575e-05
0.0023904 -0.000719634 -0.000716044 -5.3055e-05
0.00334795 -0.0010044 -0.00100438 -1.20089e-10
0.00337607 -0.00101284 -0.00101281 -1.21076e-10
0.00240043 -0.000722662 -0.000719042 -5.30562e-05
0.0028691 -0.000862099 -0.000860142 -2.87472e-05
0.00336201 -0.00100862 -0.0010086 -1.20623e-10
0.00289318 -0.000869347 -0.000867356 -2.87486e-05
0.00288114 -0.000865723 -0.000863749 -2.87479e-05
0.0023904 -0.000719634 -0.000716044 -5.3055e-05
0.00237036 -0.000713578 -0.000710049 -5.30525e-05
0.00331983 -0.000995965 -0.000995941 -1.19092e-10
0.00334795 -0.0010044 -0.00100438 -1.20089e-10
0.00238038 -0.000716606 -0.000713046 -5.30537e-05
0.00284501 -0.000854852 -0.000852927 -2.87458e-05
0.00333389 -0.00100018 -0.00100016 -1.19629e-10
0.0028691 -0.000862099 -0.000860142 -2.87472e-05
0.00285706 -0.000858475 -0.000856534 -2.87465e-05
0.00237036 -0.000713578 -0.000710049 -5.30525e-05
0.00235031 -0.000707523 -0.000704053 -5.305e-05
0.00329171 -0.000987528 -0.000987505 -1.18085e-10
0.00331983 -0.000995965 -0.000995941 -1.19092e-10
0.00236034 -0.000710551 -0.000707051 -5.30512e-05
0.00282093 -0.000847604 -0.000845712 -2.87443e-05
0.00330577 -0.000991746 -0.000991723 -1.18648e-10
0.00284501 -0.000854852 -0.000852927 -2.87458e-05
0.00283297 -0.000851228 -0.00084932 -2.8745e-05
0.00235031 -0.000707523 -0.000704053 -5.305e-05
0.00233027 -0.000701468 -0.000698057 -5.30475e-05
0.00326359 -0.000979092 -0.000979069 -1.17122e-10
0.00329171 -0.000987528 -0.000987505 -1.18093e-10
0.00234029 -0.000704495 -0.000701055 -5.30487e-05
0.00279685 -0.000840357 -0.000838498 -2.87429e-05
0.00327765 -0.00098331 -0.000983287 -1.17657e-10
0.00282093 -0.000847604 -0.000845712 -2.87443e-05
0.00280889 -0.000843981 -0.000842105 -2.87436e-05
0.00233027 -0.000701468 -0.000698057 -5.30475e-05
0.00231022 -0.000695413 -0.000692061 -5.3045e-05
0.00323547 -0.000970656 -0.000970633 -1.16135e-10
0.00326359 -0.000979092 -0.000979069 -1.17098e-10
0.00232025 -0.000698441 -0.000695059 -5.30462e-05
0.00277277 -0.000833111 -0.000831283 -2.87415e-05
0.00324953 -0.000974874 -0.000974851 -1.16663e-10
0.00279685 -0.000840357 -0.000838498 -2.87429e-05
0.00278481 -0.000836734 -0.00083489 -2.87422e-05
0.00231022 -0.000695413 -0.000692061 -5.3045e-05
0.00229018 -0.000689359 -0.000686065 -5.30425e-05
0.00320735 -0.00096222 -0.000962198 -1.15141e-10
0.00323547 -0.000970656 -0.000970633 -1.16135e-10
0.0023002 -0.000692386 -0.000689063 -5.30438e-05
0.00274869 -0.000825864 -0.000824068 -2.874e-05
0.00322141 -0.000966438 -0.000966416 -1.15661e-10
0.00277277 -0.000833111 -0.000831283 -2.87415e-05
0.00276073 -0.000829488 -0.000827676 -2.87408e-05
0.00229018 -0.000689359 -0.000686065 -5.30425e-05
0.00227013 -0.000683305 -0.000680069 -5.304e-05
0.00317923 -0.000953785 -0.000953763 -1.14141e-10
0.00320735 -0.00096222 -0.000962198 -1.15141e-10
0.00228016 -0.000686332 -0.000683067 -5.30413e-05
0.00272461 -0.000818618 -0.000816854 -2.87386e-05
0.00319329 -0.000958002 -0.00095798 -1.14694e-10
0.00274869 -0.000825864 -0.000824068 -2.874e-05
0.00273665 -0.000822241 -0.000820461 -2.87393e-05
0.00227013 -0.000683305 -0.000680069 -5.304e-05
0.00225009 -0.000677252 -0.000674073 -5.30375e-05
0.00315111 -0.000945349 -0.000945328 -1.13149e-10
0.00317923 -0.000953785 -0.000953763 -1.14136e-10
0.00226011 -0.000680278 -0.000677071 -5.30388e-05
0.00270053 -0.000811373 -0.000809639 -2.87372e-05
0.00316517 -0.000949567 -0.000949545 -1.13677e-10
0.00272461 -0.000818618 -0.000816854 -2.87386e-05
0.00271257 -0.000814995 -0.000813247 -2.87379e-05
0.00225009 -0.000677252 -0.000674073 -5.30375e-05
0.00223004 -0.000671199 -0.000668077 -5.3035e-05
0.003123 -0.000936914 -0.000936893 -1.12181e-10
0.00315111 -0.000945349 -0.000945328 -1.13144e-10
0.00224007 -0.000674225 -0.000671075 -5.30363e-05
0.00267645 -0.000804127 -0.000802425 -2.87358e-05
0.00313706 -0.000941132 -0.00094111 -1.1269e-10
0.00270053 -0.000811373 -0.000809639 -2.87372e-05
0.00268849 -0.00080775 -0.000806032 -2.87365e-05
0.00223004 -0.000671199 -0.000668077 -5.3035e-05
0.00221 -0.000665146 -0.00066208 -5.30325e-05
0.00309488 -0.000928479 -0.000928458 -1.11179e-10
0.003123 -0.000936914 -0.000936893 -1.12181e-10
0.00222002 -0.000668172 -0.000665079 -5.30338e-05
0.00265237 -0.000796882 -0.00079521 -2.87343e-05
0.00310894 -0.000932696 -0.000932676 -1.11715e-10
0.00267645 -0.000804127 -0.000802425 -2.87358e-05
0.00266441 -0.000800505 -0.000798818 -2.87351e-05
0.00221 -0.000665146 -0.00066208 -5.30325e-05
0.00218996 -0.000659094 -0.000656084 -5.303e-05
0.00306677 -0.000920044 -0.000920024 -1.10185e-10
0.00309488 -0.000928479 -0.000928458 -1.11179e-10
0.00219998 -0.00066212 -0.000659082 -5.30313e-05
0.0026283 -0.000789637 -0.000787996 -2.87329e-05
0.00308082 -0.000924262 -0.000924241 -1.10714e-10
0.00265237 -0.000796882 -0.00079521 -2.87343e-05
0.00264033 -0.00079326 -0.000791603 -2.87336e-05
0.00218996 -0.000659094 -0.000656084 -5.303e-05
0.00216991 -0.000653042 -0.000650087 -5.30275e-05
0.00303865 -0.00091161 -0.00091159 -1.09217e-10
0.00306677 -0.000920044 -0.000920024 -1.10187e-10
0.00217993 -0.000656068 -0.000653085 -5.30288e-05
0.00260422 -0.000782393 -0.000780782 -2.87315e-05
0.00305271 -0.000915827 -0.000915807 -1.09747e-10
0.0026283 -0.000789637 -0.000787996 -2.87329e-05
0.00261626 -0.000786015 -0.000784389 -2.87322e-05
0.00216991 -0.000653042 -0.000650087 -5.30275e-05
0.00214987 -0.00064699 -0.00064409 -5.30251e-05
0.00301054 -0.000903175 -0.000903156 -1.08199e-10
0.00303865 -0.00091161 -0.00091159 -1.09212e-10
0.00215989 -0.000650016 -0.000647089 -5.30263e-05
0.00258014 -0.000775149 -0.000773567 -2.87301e-05
0.0030246 -0.000907392 -0.000907373 -1.08751e-10
0.00260422 -0.000782393 -0.000780782 -2.87315e-05
0.00259218 -0.000778771 -0.000777175 -2.87308e-05
0.00214987 -0.00064699 -0.00064409 -5.30251e-05
0.00212982 -0.000640939 -0.000638094 -5.30226e-05
0.00298243 -0.000894741 -0.000894722 -1.07202e-10
0.00301054 -0.000903175 -0.000903156 -1.08199e-10
0.00213985 -0.000643965 -0.000641092 -5.30238e-05
0.00255606 -0.000767905 -0.000766353 -2.87286e-05
0.00299648 -0.000898958 -0.000898939 -1.07743e-10
0.00258014 -0.000775149 -0.000773567 -2.87301e-05
0.0025681 -0.000771527 -0.00076996 -2.87294e-05
0.00212982 -0.000640939 -0.000638094 -5.30226e-05
0.00210978 -0.000634889 -0.000632097 -5.30201e-05
0.00295431 -0.000886307 -0.000886289 -1.06222e-10
0.00298243 -0.000894741 -0.000894722 -1.07202e-10
0.0021198 -0.000637914 -0.000635095 -5.30213e-05
0.00253199 -0.000760661 -0.000759139 -2.87272e-05
0.00296837 -0.000890524 -0.000890505 -1.06759e-10
0.00255606 -0.000767905 -0.000766353 -2.87286e-05
0.00254402 -0.000764283 -0.000762746 -2.87279e-05
0.00210978 -0.000634889 -0.000632097 -5.30201e-05
0.00208974 -0.000628839 -0.000626099 -5.30176e-05
0.0029262 -0.000877873 -0.000877855 -1.05217e-10
0.00295431 -0.000886307 -0.000886289 -1.06223e-10
0.00209976 -0.000631864 -0.000629098 -5.30189e-05
0.00250791 -0.000753418 -0.000751925 -2.87258e-05
0.00294026 -0.00088209 -0.000882072 -1.05766e-10
0.00253199 -0.000760661 -0.000759139 -2.87272e-05
0.00251995 -0.00075704 -0.000755532 -2.87265e-05
0.00208974 -0.000628839 -0.000626099 -5.30176e-05
0.00206969 -0.000622789 -0.000620102 -5.30151e-05
0.00289809 -0.00086944 -0.000869422 -1.04215e-10
0.0029262 -0.000877873 -0.000877855 -1.0524e-10
0.00207972 -0.000625814 -0.000623101 -5.30164e-05
0.00248383 -0.000746175 -0.000744711 -2.87244e-05
0.00291215 -0.000873657 -0.000873639 -1.04773e-10
0.00250791 -0.000753418 -0.000751925 -2.87258e-05
0.00249587 -0.000749797 -0.000748318 -2.87251e-05
0.00206969 -0.000622789 -0.000620102 -5.30151e-05
0.00204965 -0.000616739 -0.000614105 -5.30127e-05
0.00286998 -0.000861007 -0.000860989 -1.03198e-10
0.00289809 -0.00086944 -0.000869422 -1.04215e-10
0.00205967 -0.000619764 -0.000617104 -5.30139e-05
0.00245976 -0.000738933 -0.000737497 -2.8723e-05
0.00288404 -0.000865223 -0.000865206 -1.03757e-10
0.00248383 -0.000746175 -0.000744711 -2.87244e-05
0.0024718 -0.000742554 -0.000741104 -2.87237e-05
0.00204965 -0.000616739 -0.000614105 -5.30127e-05
0.00202961 -0.00061069 -0.000608108 -5.30102e-05
0.00284187 -0.000852573 -0.000852557 -1.02242e-10
0.00286998 -0.000861007 -0.000860989 -1.03198e-10
0.00203963 -0.000613715 -0.000611106 -5.30115e-05
0.00243568 -0.000731691 -0.000730283 -2.87216e-05
0.00285593 -0.00085679 -0.000856773 -1.02758e-10
0.00245976 -0.000738933 -0.000737497 -2.8723e-05
0.00244772 -0.000735312 -0.00073389 -2.87223e-05
0.00202961 -0.00061069 -0.000608108 -5.30102e-05
0.00200956 -0.000604642 -0.00060211 -5.30078e-05
0.00281376 -0.000844141 -0.000844124 -1.01229e-10
0.00284187 -0.000852573 -0.000852557 -1.02218e-10
0.00201959 -0.000607666 -0.000605109 -5.3009e-05
0.00241161 -0.000724449 -0.000723068 -2.87202e-05
0.00282782 -0.000848357 -0.00084834 -1.01732e-10
0.00243568 -0.000731691 -0.000730283 -2.87216e-05
0.00242365 -0.00072807 -0.000726675 -2.87209e-05
0.00200956 -0.000604642 -0.00060211 -5.30078e-05
0.00198952 -0.000598593 -0.000596112 -5.30053e-05
0.00278566 -0.000835708 -0.000835692 -1.00262e-10
0.00281376 -0.000844141 -0.000844124 -1.01251e-10
0.00199954 -0.000601617 -0.000599111 -5.30065e-05
0.00238753 -0.000717207 -0.000715854 -2.87188e-05
0.00279971 -0.000839924 -0.000839908 -1.00775e-10
0.00241161 -0.000724449 -0.000723068 -2.87202e-05
0.00239957 -0.000720828 -0.000719461 -2.87195e-05
0.00198952 -0.000598593 -0.000596112 -5.30053e-05
0.00196948 -0.000592545 -0.000590115 -5.30029e-05
0.00275755 -0.000827275 -0.00082726 -9.92413e-11
0.00278566 -0.000835708 -0.000835692 -1.00262e-10
0.0019795 -0.000595569 -0.000593114 -5.30041e-05
0.00236346 -0.000709966 -0.00070864 -2.87174e-05
0.0027716 -0.000831492 -0.000831476 -9.9774e-11
0.00238753 -0.000717207 -0.000715854 -2.87188e-05
0.0023755 -0.000713586 -0.000712247 -2.87181e-05
0.00196948 -0.000592545 -0.000590115 -5.30029e-05
0.00194944 -0.000586498 -0.000584117 -5.30004e-05
0.00272944 -0.000818843 -0.000818828 -9.82291e-11
0.00275755 -0.000827275 -0.00082726 -9.92413e-11
0.00195946 -0.000589522 -0.000587116 -5.30016e-05
0.00233939 -0.000702725 -0.000701427 -2.8716e-05
0.00274349 -0.000823059 -0.000823044 -9.87718e-11
0.00236346 -0.000709966 -0.00070864 -2.87174e-05
0.00235142 -0.000706345 -0.000705034 -2.87167e-05
0.00194944 -0.000586498 -0.000584117 -5.30004e-05
0.00192939 -0.000580451 -0.000578119 -5.2998e-05
0.00270134 -0.000810411 -0.000810396 -9.72428e-11
0.00272944 -0.000818843 -0.000818828 -9.82419e-11
0.00193942 -0.000583474 -0.000581118 -5.29992e-05
0.00231531 -0.000695484 -0.000694213 -2.87146e-05
0.00271539 -0.000814627 -0.000814612 -9.77746e-11
0.00233939 -0.000702725 -0.000701427 -2.8716e-05
0.00232735 -0.000699104 -0.00069782 -2.87153e-05
0.00192939 -0.000580451 -0.000578119 -5.2998e-05
0.00190935 -0.000574404 -0.000572121 -5.29956e-05
0.00267323 -0.000801979 -0.000801965 -9.62627e-11
0.00270134 -0.000810411 -0.000810396 -9.7243e-11
0.00191937 -0.000577427 -0.00057512 -5.29968e-05
0.00229124 -0.000688243 -0.000686999 -2.87132e-05
0.00268728 -0.000806195 -0.00080618 -9.67719e-11
0.00231531 -0.000695484 -0.000694213 -2.87146e-05
0.00230328 -0.000691864 -0.000690606 -2.87139e-05
0.00190935 -0.000574404 -0.000572121 -5.29956e-05
0.00188931 -0.000568358 -0.000566122 -5.29931e-05
0.00264512 -0.000793547 -0.000793533 -9.52597e-11
0.00267323 -0.000801979 -0.000801965 -9.62627e-11
0.00189933 -0.000571381 -0.000569122 -5.29944e-05
0.00226717 -0.000681003 -0.000679785 -2.87118e-05
0.00265918 -0.000797763 -0.000797749 -9.57924e-11
0.00229124 -0.000688243 -0.000686999 -2.87132e-05
0.0022792 -0.000684623 -0.000683392 -2.87125e-05
0.00188931 -0.000568358 -0.000566122 -5.29931e-05
0.00186927 -0.000562312 -0.000560124 -5.29907e-05
0.00261702 -0.000785116 -0.000785102 -9.42402e-11
0.00264512 -0.000793547 -0.000793533 -9.52597e-11
0.00187929 -0.000565335 -0.000563123 -5.29919e-05
0.0022431 -0.000673764 -0.000672571 -2.87104e-05
0.00263107 -0.000789331 -0.000789318 -9.47542e-11
0.00226717 -0.000681003 -0.000679785 -2.87118e-05
0.00225513 -0.000677383 -0.000676178 -2.87111e-05
0.00186927 -0.000562312 -0.000560124 -5.29907e-05
0.00184923 -0.000556266 -0.000554126 -5.29883e-05
0.00258892 -0.000776684 -0.000776671 -9.32119e-11
0.00261702 -0.000785116 -0.000785102 -9.42406e-11
0.00185925 -0.000559289 -0.000557125 -5.29895e-05
0.00221902 -0.000666524 -0.000665357 -2.8709e-05
0.00260297 -0.0007809 -0.000780887 -9.37758e-11
0.0022431 -0.000673764 -0.000672571 -2.87104e-05
0.00223106 -0.000670144 -0.000668964 -2.87097e-05
0.00184923 -0.000556266 -0.000554126 -5.29883e-05
0.00182918 -0.000550221 -0.000548127 -5.29859e-05
0.00256081 -0.000768253 -0.00076824 -9.22223e-11
0.00258892 -0.000776684 -0.000776671 -9.32343e-11
0.00183921 -0.000553244 -0.000551126 -5.29871e-05
0.00219495 -0.000659285 -0.000658144 -2.87077e-05
0.00257487 -0.000772469 -0.000772456 -9.27408e-11
0.00221902 -0.000666524 -0.000665357 -2.8709e-05
0.00220699 -0.000662904 -0.00066175 -2.87083e-05
0.00182918 -0.000550221 -0.000548127 -5.29859e-05
0.00180914 -0.000544177 -0.000542128 -5.29835e-05
0.00253271 -0.000759822 -0.00075981 -9.12205e-11
0.00256081 -0.000768253 -0.00076824 -9.22223e-11
0.00181916 -0.000547199 -0.000545128 -5.29847e-05
0.00217088 -0.000652046 -0.00065093 -2.87063e-05
0.00254676 -0.000764038 -0.000764025 -9.17718e-11
0.00219495 -0.000659285 -0.000658144 -2.87077e-05
0.00218292 -0.000655665 -0.000654537 -2.8707e-05
0.00180914 -0.000544177 -0.000542128 -5.29835e-05
0.0017891 -0.000538132 -0.00053613 -5.29812e-05
0.00250461 -0.000751392 -0.00075138 -9.02364e-11
0.00253271 -0.000759822 -0.00075981 -9.12205e-11
0.00179912 -0.000541154 -0.000539129 -5.29824e-05
0.00214681 -0.000644807 -0.000643716 -2.87049e-05
0.00251866 -0.000755607 -0.000755595 -9.07667e-11
0.00217088 -0.000652046 -0.00065093 -2.87063e-05
0.00215885 -0.000648427 -0.000647323 -2.87056e-05
0.0017891 -0.000538132 -0.00053613 -5.29812e-05
0.00176906 -0.000532088 -0.000530131 -5.29788e-05
0.00247651 -0.000742961 -0.000742949 -8.92493e-11
0.00250461 -0.000751392 -0.00075138 -9.02328e-11
0.00177908 -0.00053511 -0.00053313 -5.298e-05
0.00212274 -0.000637569 -0.000636502 -2.87036e-05
0.00249056 -0.000747176 -0.000747164 -8.97594e-11
0.00214681 -0.000644807 -0.000643716 -2.87049e-05
0.00213478 -0.000641188 -0.000640109 -2.87042e-05
0.00176906 -0.000532088 -0.000530131 -5.29788e-05
0.00174902 -0.000526045 -0.000524132 -5.29764e-05
0.00244841 -0.000734531 -0.000734519 -8.82415e-11
0.00247651 -0.000742961 -0.000742949 -8.92496e-11
0.00175904 -0.000529066 -0.000527131 -5.29776e-05
0.00209867 -0.000630331 -0.000629289 -2.87022e-05
0.00246246 -0.000738746 -0.000738734 -8.87683e-11
0.00212274 -0.000637569 -0.000636502 -2.87036e-05
0.00211071 -0.00063395 -0.000632896 -2.87029e-05
0.00174902 -0.000526045 -0.000524132 -5.29764e-05
0.00172898 -0.000520001 -0.000518132 -5.29741e-05
0.00242031 -0.0007261 -0.00072609 -8.72136e-11
0.00244841 -0.000734531 -0.000734519 -8.82415e-11
0.001739 -0.000523023 -0.000521132 -5.29753e-05
0.0020746 -0.000623093 -0.000622075 -2.87009e-05
0.00243436 -0.000730315 -0.000730304 -8.77472e-11
0.00209867 -0.000630331 -0.000629289 -2.87022e-05
0.00208664 -0.000626712 -0.000625682 -2.87015e-05
0.00172898 -0.000520001 -0.000518132 -5.29741e-05
0.00170894 -0.000513959 -0.000512133 -5.29718e-05
0.00239221 -0.00071767 -0.00071766 -8.62427e-11
0.00242031 -0.0007261 -0.00072609 -8.72136e-11
0.00171896 -0.00051698 -0.000515133 -5.29729e-05
0.00205053 -0.000615856 -0.000614861 -2.86995e-05
0.00240626 -0.000721885 -0.000721875 -8.67476e-11
0.0020746 -0.000623093 -0.000622075 -2.87009e-05
0.00206257 -0.000619475 -0.000618468 -2.87002e-05
0.00170894 -0.000513959 -0.000512133 -5.29718e-05
0.00168889 -0.000507916 -0.000506134 -5.29694e-05
0.00236411 -0.00070924 -0.000709231 -8.52225e-11
0.00239221 -0.00071767 -0.00071766 -8.6243e-11
0.00169892 -0.000510937 -0.000509133 -5.29706e-05
0.00202646 -0.000608619 -0.000607648 -2.86982e-05
0.00237816 -0.000713455 -0.000713445 -8.57381e-11
0.00205053 -0.000615856 -0.000614861 -2.86995e-05
0.0020385 -0.000612237 -0.000611255 -2.86988e-05
0.00168889 -0.000507916 -0.000506134 -5.29694e-05
0.00166885 -0.000501874 -0.000500134 -5.29671e-05
0.00233601 -0.000700811 -0.000700801 -8.42232e-11
0.00236411 -0.00070924 -0.000709231 -8.52313e-11
0.00167887 -0.000504895 -0.000503134 -5.29683e-05
0.0020024 -0.000601382 -0.000600434 -2.86968e-05
0.00235006 -0.000705026 -0.000705016 -8.47535e-11
0.00202646 -0.000608619 -0.000607648 -2.86982e-05
0.00201443 -0.000605001 -0.000604041 -2.86975e-05
0.00166885 -0.000501874 -0.000500134 -5.29671e-05
0.00164881 -0.000495833 -0.000494134 -5.29648e-05
0.00230792 -0.000692381 -0.000692372 -8.32122e-11
0.00233601 -0.000700811 -0.000700801 -8.42232e-11
0.00165883 -0.000498853 -0.000497134 -5.2966e-05
0.00197833 -0.000594146 -0.000593221 -2.86955e-05
0.00232197 -0.000696596 -0.000696587 -8.37358e-11
0.0020024 -0.000601382 -0.000600434 -2.86968e-05
0.00199036 -0.000597764 -0.000596827 -2.86962e-05
0.00164881 -0.000495833 -0.000494134 -5.29648e-05
0.00162877 -0.000489791 -0.000488134 -5.29625e-05
0.00227982 -0.000683952 -0.000683943 -8.22026e-11
0.00230792 -0.000692381 -0.000692372 -8.32122e-11
0.00163879 -0.000492812 -0.000491134 -5.29637e-05
0.00195426 -0.000586909 -0.000586007 -2.86942e-05
0.00229387 -0.000688167 -0.000688158 -8.27567e-11
0.00197833 -0.000594146 -0.000593221 -2.86955e-05
0.00196629 -0.000590527 -0.000589614 -2.86949e-05
0.00162877 -0.000489791 -0.000488134 -5.29625e-05
0.00160873 -0.00048375 -0.000482134 -5.29602e-05
0.00225172 -0.000675523 -0.000675515 -8.12018e-11
0.00227982 -0.000683952 -0.000683943 -8.22244e-11
0.00161875 -0.000486771 -0.000485134 -5.29614e-05
0.00193019 -0.000579673 -0.000578793 -2.86929e-05
0.00226577 -0.000679737 -0.000679729 -8.17276e-11
0.00195426 -0.000586909 -0.000586007 -2.86942e-05
0.00194223 -0.000583291 -0.0005824 -2.86935e-05
0.00160873 -0.00048375 -0.000482134 -5.29602e-05
0.00158869 -0.00047771 -0.000476134 -5.2958e-05
0.00222363 -0.000667094 -0.000667086 -8.01972e-11
0.00225172 -0.000675523 -0.000675515 -8.12017e-11
0.00159871 -0.00048073 -0.000479134 -5.29591e-05
0.00190612 -0.000572438 -0.00057158 -2.86916e-05
0.00223768 -0.000671308 -0.0006713 -8.0682e-11
0.00193019 -0.000579673 -0.000578793 -2.86929e-05
0.00191816 -0.000576056 -0.000575187 -2.86922e-05
0.00158869 -0.00047771 -0.000476134 -5.2958e-05
0.00156865 -0.00047167 -0.000470134 -5.29557e-05
0.00219553 -0.000658665 -0.000658658 -7.92e-11
0.00222363 -0.000667094 -0.000667086 -8.01972e-11
0.00157867 -0.00047469 -0.000473134 -5.29568e-05
0.00188206 -0.000565202 -0.000564366 -2.86903e-05
0.00220958 -0.00066288 -0.000662872 -7.97161e-11
0.00190612 -0.000572438 -0.00057158 -2.86916e-05
0.00189409 -0.00056882 -0.000567973 -2.86909e-05
0.00156865 -0.00047167 -0.000470134 -5.29557e-05
0.00154861 -0.00046563 -0.000464134 -5.29535e-05
0.00216744 -0.000650237 -0.000650229 -7.81732e-11
0.00219553 -0.000658665 -0.000658658 -7.92e-11
0.00155863 -0.00046865 -0.000467134 -5.29546e-05
0.00185799 -0.000557967 -0.000557153 -2.8689e-05
0.00218149 -0.000654451 -0.000654443 -7.87088e-11
0.00188206 -0.000565202 -0.000564366 -2.86903e-05
0.00187002 -0.000561585 -0.00056076 -2.86896e-05
0.00154861 -0.00046563 -0.000464134 -5.29535e-05
0.00152857 -0.00045959 -0.000458133 -5.29512e-05
0.00213934 -0.000641808 -0.000641801 -7.71863e-11
0.00216744 -0.000650237 -0.000650229 -7.81735e-11
0.00153859 -0.00046261 -0.000461134 -5.29523e-05
0.00183392 -0.000550733 -0.000549939 -2.86877e-05
0.00215339 -0.000646022 -0.000646015 -7.77128e-11
0.00185799 -0.000557967 -0.000557153 -2.8689e-05
0.00184596 -0.00055435 -0.000553546 -2.86883e-05
0.00152857 -0.00045959 -0.000458133 -5.29512e-05
0.00150853 -0.000453551 -0.000452133 -5.2949e-05
0.00211125 -0.00063338 -0.000633373 -7.61704e-11
0.00213934 -0.000641808 -0.000641801 -7.71819e-11
0.00151855 -0.000456571 -0.000455133 -5.29501e-05
0.00180986 -0.000543498 -0.000542726 -2.86864e-05
0.0021253 -0.000637594 -0.000637587 -7.66805e-11
0.00183392 -0.000550733 -0.000549939 -2.86877e-05
0.00182189 -0.000547115 -0.000546332 -2.86871e-05
0.00150853 -0.000453551 -0.000452133 -5.2949e-05
0.00148849 -0.000447513 -0.000446132 -5.29468e-05
0.00208316 -0.000624952 -0.000624946 -7.5167e-11
0.00211125 -0.00063338 -0.000633373 -7.61704e-11
0.00149851 -0.000450532 -0.000449132 -5.29479e-05
0.00178579 -0.000536264 -0.000535512 -2.86852e-05
0.0020972 -0.000629166 -0.00062916 -7.56697e-11
0.00180986 -0.000543498 -0.000542726 -2.86864e-05
0.00179783 -0.000539881 -0.000539119 -2.86858e-05
0.00148849 -0.000447513 -0.000446132 -5.29468e-05
0.00146845 -0.000441474 -0.000440131 -5.29446e-05
0.00205507 -0.000616524 -0.000616518 -7.41561e-11
0.00208316 -0.000624952 -0.000624946 -7.5167e-11
0.00147847 -0.000444493 -0.000443131 -5.29457e-05
0.00176173 -0.00052903 -0.000528299 -2.86839e-05
0.00206911 -0.000620738 -0.000620732 -7.46663e-11
0.00178579 -0.000536264 -0.000535512 -2.86852e-05
0.00177376 -0.000532647 -0.000531905 -2.86845e-05
0.00146845 -0.000441474 -0.000440131 -5.29446e-05
0.00144841 -0.000435436 -0.00043413 -5.29424e-05
0.00202697 -0.000608096 -0.000608091 -7.31498e-11
0.00205507 -0.000616524 -0.000616518 -7.41523e-11
0.00145843 -0.000438455 -0.00043713 -5.29435e-05
0.00173766 -0.000521796 -0.000521085 -2.86826e-05
0.00204102 -0.00061231 -0.000612304 -7.36819e-11
0.00176173 -0.00052903 -0.000528299 -2.86839e-05
0.00174969 -0.000525413 -0.000524692 -2.86833e-05
0.00144841 -0.000435436 -0.00043413 -5.29424e-05
0.00142837 -0.000429399 -0.000428129 -5.29403e-05
0.00199888 -0.000599668 -0.000599664 -7.2147e-11
0.00202697 -0.000608096 -0.000608091 -7.31501e-11
0.00143839 -0.000432417 -0.000431129 -5.29413e-05
0.0017136 -0.000514563 -0.000513872 -2.86814e-05
0.00201293 -0.000603882 -0.000603877 -7.26484e-11
0.00173766 -0.000521796 -0.000521085 -2.86826e-05
0.00172563 -0.000518179 -0.000517478 -2.8682e-05
0.00142837 -0.000429399 -0.000428129 -5.29403e-05
0.00140832 -0.000423361 -0.000422127 -5.29381e-05
0.00197079 -0.000591241 -0.000591236 -7.11215e-11
0.00199888 -0.000599668 -0.000599664 -7.2147e-11
0.00141835 -0.00042638 -0.000425128 -5.29392e-05
0.00168953 -0.000507329 -0.000506658 -2.86801e-05
0.00198484 -0.000595455 -0.00059545 -7.1645e-11
0.0017136 -0.000514563 -0.000513872 -2.86814e-05
0.00170156 -0.000510946 -0.000510265 -2.86808e-05
0.00140832 -0.000423361 -0.000422127 -5.29381e-05
0.00138828 -0.000417325 -0.000416126 -5.2936e-05
0.0019427 -0.000582814 -0.000582809 -7.01066e-11
0.00197079 -0.000591241 -0.000591236 -7.11215e-11
0.0013983 -0.000420343 -0.000419126 -5.2937e-05
0.00166547 -0.000500097 -0.000499444 -2.86789e-05
0.00195675 -0.000587027 -0.000587023 -7.06208e-11
0.00168953 -0.000507329 -0.000506658 -2.86801e-05
0.0016775 -0.000503713 -0.000503051 -2.86795e-05
0.00138828 -0.000417325 -0.000416126 -5.2936e-05
0.00136824 -0.000411288 -0.000410124 -5.29339e-05
0.00191461 -0.000574386 -0.000574383 -6.91076e-11
0.0019427 -0.000582814 -0.000582809 -7.01066e-11
0.00137826 -0.000414306 -0.000413125 -5.29349e-05
0.0016414 -0.000492864 -0.000492231 -2.86777e-05
0.00192866 -0.0005786 -0.000578596 -6.96163e-11
0.00166547 -0.000500097 -0.000499444 -2.86789e-05
0.00165343 -0.00049648 -0.000495838 -2.86783e-05
0.00136824 -0.000411288 -0.000410124 -5.29339e-05
0.0013482 -0.000405252 -0.000404122 -5.29318e-05
0.00188652 -0.000565959 -0.000565956 -6.81013e-11
0.00191461 -0.000574386 -0.000574383 -6.90907e-11
0.00135822 -0.00040827 -0.000407123 -5.29328e-05
0.00161734 -0.000485631 -0.000485017 -2.86765e-05
0.00190057 -0.000570173 -0.000570169 -6.86042e-11
0.0016414 -0.000492864 -0.000492231 -2.86777e-05
0.00162937 -0.000489248 -0.000488624 -2.86771e-05
0.0013482 -0.000405252 -0.000404122 -5.29318e-05
0.00132816 -0.000399216 -0.00039812 -5.29297e-05
0.00185843 -0.000557532 -0.000557529 -6.70851e-11
0.00188652 -0.000565959 -0.000565956 -6.81013e-11
0.00133818 -0.000402234 -0.000401121 -5.29307e-05
0.00159327 -0.000478399 -0.000477804 -2.86753e-05
0.00187248 -0.000561746 -0.000561743 -6.759e-11
0.00161734 -0.000485631 -0.000485017 -2.86765e-05
0.00160531 -0.000482015 -0.000481411 -2.86759e-05
0.00132816 -0.000399216 -0.00039812 -5.29297e-05
0.00130812 -0.000393181 -0.000392118 -5.29276e-05
0.00183035 -0.000549106 -0.000549103 -6.6072e-11
0.00185843 -0.000557532 -0.000557529 -6.70851e-11
0.00131814 -0.000396198 -0.000395119 -5.29286e-05
0.00156921 -0.000471168 -0.00047059 -2.86741e-05
0.00184439 -0.000553319 -0.000553316 -6.65843e-11
0.00159327 -0.000478399 -0.000477804 -2.86753e-05
0.00158124 -0.000474783 -0.000474197 -2.86747e-05
0.00130812 -0.000393181 -0.000392118 -5.29276e-05
0.00128808 -0.000387146 -0.000386116 -5.29255e-05
0.00180226 -0.000540679 -0.000540677 -6.50373e-11
0.00183035 -0.000549106 -0.000549103 -6.60679e-11
0.0012981 -0.000390163 -0.000389117 -5.29266e-05
0.00154515 -0.000463936 -0.000463376 -2.86729e-05
0.0018163 -0.000544892 -0.00054489 -6.5599e-11
0.00156921 -0.000471168 -0.00047059 -2.86741e-05
0.00155718 -0.000467552 -0.000466983 -2.86735e-05
0.00128808 -0.000387146 -0.000386116 -5.29255e-05
0.00126804 -0.000381111 -0.000380113 -5.29235e-05
0.00177417 -0.000532253 -0.000532251 -6.40521e-11
0.00180226 -0.000540679 -0.000540677 -6.50378e-11
0.00127806 -0.000384128 -0.000383115 -5.29245e-05
0.00152108 -0.000456705 -0.000456163 -2.86717e-05
0.00178821 -0.000536466 -0.000536464 -6.45493e-11
0.00154515 -0.000463936 -0.000463376 -2.86729e-05
0.00153312 -0.00046032 -0.00045977 -2.86723e-05
0.00126804 -0.000381111 -0.000380113 -5.29235e-05
0.001248 -0.000375076 -0.000374111 -5.29215e-05
0.00174608 -0.000523826 -0.000523825 -6.30501e-11
0.00177417 -0.000532253 -0.000532251 -6.40521e-11
0.00125802 -0.000378094 -0.000377112 -5.29225e-05
0.00149702 -0.000449473 -0.000448949 -2.86705e-05
0.00176013 -0.000528039 -0.000528038 -6.35372e-11
0.00152108 -0.000456705 -0.000456163 -2.86717e-05
0.00150905 -0.000453089 -0.000452556 -2.86711e-05
0.001248 -0.000375076 -0.000374111 -5.29215e-05
0.00122796 -0.000369042 -0.000368108 -5.29195e-05
0.001718 -0.0005154 -0.000515399 -6.20066e-11
0.00174608 -0.000523826 -0.000523825 -6.30501e-11
0.00123798 -0.000372059 -0.000371109 -5.29205e-05
0.00147296 -0.000442243 -0.000441735 -2.86694e-05
0.00173204 -0.000519613 -0.000519612 -6.25093e-11
0.00149702 -0.000449473 -0.000448949 -2.86705e-05
0.00148499 -0.000445858 -0.000445342 -2.86699e-05
0.00122796 -0.000369042 -0.000368108 -5.29195e-05
0.00120792 -0.000363009 -0.000362105 -5.29175e-05
0.00168991 -0.000506974 -0.000506973 -6.10051e-11
0.001718 -0.0005154 -0.000515399 -6.20064e-11
0.00121794 -0.000366025 -0.000365107 -5.29185e-05
0.0014489 -0.000435012 -0.000434522 -2.86682e-05
0.00170395 -0.000511187 -0.000511186 -6.15161e-11
0.00147296 -0.000442243 -0.000441735 -2.86694e-05
0.00146093 -0.000438627 -0.000438129 -2.86688e-05
0.00120792 -0.000363009 -0.000362105 -5.29175e-05
0.00118788 -0.000356975 -0.000356102 -5.29155e-05
0.00166183 -0.000498548 -0.000498548 -5.99652e-11
0.00168991 -0.000506974 -0.000506973 -6.10144e-11
0.0011979 -0.000359992 -0.000359104 -5.29165e-05
0.00142483 -0.000427782 -0.000427308 -2.86671e-05
0.00167587 -0.000502761 -0.00050276 -6.04977e-11
0.0014489 -0.000435012 -0.000434522 -2.86682e-05
0.00143686 -0.000431397 -0.000430915 -2.86676e-05
0.00118788 -0.000356975 -0.000356102 -5.29155e-05
0.00116784 -0.000350942 -0.000350099 -5.29135e-05
0.00163374 -0.000490122 -0.000490122 -5.89543e-11
0.00166183 -0.000498548 -0.000498548 -5.99652e-11
0.00117786 -0.000353959 -0.0003531 -5.29145e-05
0.00140077 -0.000420552 -0.000420094 -2.86659e-05
0.00164778 -0.000494335 -0.000494335 -5.9458e-11
0.00142483 -0.000427782 -0.000427308 -2.86671e-05
0.0014128 -0.000424167 -0.000423701 -2.86665e-05
0.00116784 -0.000350942 -0.000350099 -5.29135e-05
0.0011478 -0.000344909 -0.000344095 -5.29116e-05
0.00160566 -0.000481697 -0.000481697 -5.79455e-11
0.00163374 -0.000490122 -0.000490122 -5.89543e-11
0.00115782 -0.000347926 -0.000347097 -5.29126e-05
0.00137671 -0.000413322 -0.00041288 -2.86648e-05
0.0016197 -0.000485909 -0.00048591 -5.84026e-11
0.00140077 -0.000420552 -0.000420094 -2.86659e-05
0.00138874 -0.000416937 -0.000416487 -2.86653e-05
0.0011478 -0.000344909 -0.000344095 -5.29116e-05
0.00112776 -0.000338877 -0.000338092 -5.29097e-05
0.00157757 -0.000473271 -0.000473272 -5.69193e-11
0.00160566 -0.000481697 -0.000481697 -5.79449e-11
0.00113778 -0.000341893 -0.000341093 -5.29106e-05
0.00135265 -0.000406092 -0.000405666 -2.86637e-05
0.00159161 -0.000477484 -0.000477484 -5.74364e-11
0.00137671 -0.000413322 -0.00041288 -2.86648e-05
0.00136468 -0.000409707 -0.000409273 -2.86642e-05
0.00112776 -0.000338877 -0.000338092 -5.29097e-05
0.00110772 -0.000332845 -0.000332088 -5.29078e-05
0.00154949 -0.000464845 -0.000464847 -5.58919e-11
0.00157757 -0.000473271 -0.000473272 -5.69193e-11
0.00111774 -0.000335861 -0.00033509 -5.29087e-05
0.00132859 -0.000398863 -0.000398453 -2.86626e-05
0.00156353 -0.000469058 -0.000469059 -5.64451e-11
0.00135265 -0.000406092 -0.000405666 -2.86637e-05
0.00134062 -0.000402477 -0.000402059 -2.86631e-05
0.00110772 -0.000332845 -0.000332088 -5.29078e-05
0.00108768 -0.000326813 -0.000326084 -5.29059e-05
0.0015214 -0.00045642 -0.000456422 -5.48868e-11
0.00154949 -0.000464845 -0.000464847 -5.58919e-11
0.0010977 -0.000329829 -0.000329086 -5.29068e-05
0.00130452 -0.000391634 -0.000391239 -2.86615e-05
0.00153545 -0.000460633 -0.000460634 -5.54413e-11
0.00132859 -0.000398863 -0.000398453 -2.86626e-05
0.00131655 -0.000395248 -0.000394846 -2.8662e-05
0.00108768 -0.000326813 -0.000326084 -5.29059e-05
0.00106763 -0.000320782 -0.00032008 -5.2904e-05
0.00149332 -0.000447995 -0.000447997 -5.38624e-11
0.0015214 -0.00045642 -0.000456422 -5.48868e-11
0.00107766 -0.000323798 -0.000323082 -5.29049e-05
0.00128046 -0.000384405 -0.000384025 -2.86604e-05
0.00150736 -0.000452207 -0.000452209 -5.43927e-11
0.00130452 -0.000391634 -0.000391239 -2.86615e-05
0.00129249 -0.000388019 -0.000387632 -2.86609e-05
0.00106763 -0.000320782 -0.00032008 -5.2904e-05
0.00104759 -0.000314751 -0.000314075 -5.29022e-05
0.00146524 -0.00043957 -0.000439572 -5.28711e-11
0.00149332 -0.000447995 -0.000447997 -5.38622e-11
0.00105761 -0.000317766 -0.000317078 -5.29031e-05
0.0012564 -0.000377176 -0.000376811 -2.86593e-05
0.00147928 -0.000443782 -0.000443784 -5.33926e-11
0.00128046 -0.000384405 -0.000384025 -2.86604e-05
0.00126843 -0.00038079 -0.000380418 -2.86598e-05
0.00104759 -0.000314751 -0.000314075 -5.29022e-05
0.00102755 -0.00030872 -0.000308071 -5.29003e-05
0.00143715 -0.000431145 -0.000431147 -5.18281e-11
0.00146524 -0.00043957 -0.000439572 -5.28699e-11
0.00103757 -0.000311735 -0.000311073 -5.29012e-05
0.00123234 -0.000369947 -0.000369596 -2.86582e-05
0.0014512 -0.000435357 -0.00043536 -5.23362e-11
0.0012564 -0.000377176 -0.000376811 -2.86593e-05
0.00124437 -0.000373562 -0.000373204 -2.86588e-05
0.00102755 -0.00030872 -0.000308071 -5.29003e-05
0.00100751 -0.00030269 -0.000302066 -5.28985e-05
0.00140907 -0.00042272 -0.000422723 -5.08178e-11
0.00143715 -0.000431145 -0.000431147 -5.18281e-11
0.00101753 -0.000305705 -0.000305069 -5.28994e-05
0.00120828 -0.000362719 -0.000362382 -2.86572e-05
0.00142311 -0.000426932 -0.000426935 -5.12918e-11
0.00123234 -0.000369947 -0.000369596 -2.86582e-05
0.00122031 -0.000366333 -0.000365989 -2.86577e-05
0.00100751 -0.00030269 -0.000302066 -5.28985e-05
0.000987469 -0.00029666 -0.000296061 -5.28967e-05
0.00138099 -0.000414295 -0.000414298 -4.98363e-11
0.00140907 -0.00042272 -0.000422723 -5.07911e-11
0.00099749 -0.000299675 -0.000299064 -5.28976e-05
0.00118422 -0.000355491 -0.000355168 -2.86561e-05
0.00139503 -0.000418507 -0.00041851 -5.0279e-11
0.00120828 -0.000362719 -0.000362382 -2.86572e-05
0.00119625 -0.000359105 -0.000358775 -2.86566e-05
0.000987469 -0.00029666 -0.000296061 -5.28967e-05
0.000967428 -0.00029063 -0.000290056 -5.28949e-05
0.00135291 -0.00040587 -0.000405874 -4.87655e-11
0.00138099 -0.000414295 -0.000414298 -4.98363e-11
0.000977449 -0.000293645 -0.000293059 -5.28958e-05
0.00116016 -0.000348263 -0.000347954 -2.86551e-05
0.00136695 -0.000410083 -0.000410086 -4.92814e-11
0.00118422 -0.000355491 -0.000355168 -2.86561e-05
0.00117219 -0.000351877 -0.000351561 -2.86556e-05
0.000967428 -0.00029063 -0.000290056 -5.28949e-05
0.000947386 -0.0002846 -0.000284051 -5.28932e-05
0.00132483 -0.000397445 -0.00039745 -4.77468e-11
0.00135291 -0.00040587 -0.000405874 -4.87655e-11
0.000957407 -0.000287615 -0.000287054 -5.28941e-05
0.00113609 -0.000341036 -0.00034074 -2.86541e-05
0.00133887 -0.000401658 -0.000401662 -4.8213e-11
0.00116016 -0.000348263 -0.000347954 -2.86551e-05
0.00114813 -0.000344649 -0.000344347 -2.86546e-05
0.000947386 -0.0002846 -0.000284051 -5.28932e-05
0.000927344 -0.000278571 -0.000278046 -5.28915e-05
0.00129675 -0.000389021 -0.000389025 -4.67292e-11
0.00132483 -0.000397445 -0.00039745 -4.77464e-11
0.000937365 -0.000281586 -0.000281048 -5.28923e-05
0.00111203 -0.000333808 -0.000333525 -2.8653e-05
0.00131079 -0.000393233 -0.000393237 -4.72865e-11
0.00113609 -0.000341036 -0.00034074 -2.86541e-05
0.00112406 -0.000337422 -0.000337132 -2.86535e-05
0.000927344 -0.000278571 -0.000278046 -5.28915e-05
0.000907302 -0.000272542 -0.00027204 -5.28897e-05
0.00126867 -0.000380596 -0.000380601 -4.57304e-11
0.00129675 -0.000389021 -0.000389025 -4.67387e-11
0.000917323 -0.000275557 -0.000275043 -5.28906e-05
0.00108797 -0.000326581 -0.000326311 -2.8652e-05
0.00128271 -0.000384809 -0.000384813 -4.62232e-11
0.00111203 -0.000333808 -0.000333525 -2.8653e-05
0.0011 -0.000330195 -0.000329918 -2.86525e-05
0.000907302 -0.000272542 -0.00027204 -5.28897e-05
0.00088726 -0.000266514 -0.000266034 -5.2888e-05
0.00124059 -0.000372172 -0.000372177 -4.46949e-11
0.00126867 -0.000380596 -0.000380601 -4.57304e-11
0.000897281 -0.000269528 -0.000269037 -5.28889e-05
0.00106391 -0.000319354 -0.000319096 -2.8651e-05
0.00125463 -0.000376384 -0.000376389 -4.51957e-11
0.00108797 -0.000326581 -0.000326311 -2.8652e-05
0.00107594 -0.000322968 -0.000322703 -2.86515e-05
0.00088726 -0.000266514 -0.000266034 -5.2888e-05
0.000867218 -0.000260486 -0.000260028 -5.28864e-05
0.00121251 -0.000363748 -0.000363753 -4.36683e-11
0.00124059 -0.000372172 -0.000372177 -4.46949e-11
0.000877239 -0.0002635 -0.000263031 -5.28872e-05
0.00103985 -0.000312127 -0.000311882 -2.86501e-05
0.00122655 -0.00036796 -0.000367965 -4.41248e-11
0.00106391 -0.000319354 -0.000319096 -2.8651e-05
0.00105188 -0.000315741 -0.000315489 -2.86505e-05
0.000867218 -0.000260486 -0.000260028 -5.28864e-05
0.000847175 -0.000254458 -0.000254022 -5.28847e-05
0.00118443 -0.000355323 -0.000355329 -4.26732e-11
0.00121251 -0.000363748 -0.000363753 -4.36908e-11
0.000857196 -0.000257472 -0.000257025 -5.28855e-05
0.00101579 -0.000304901 -0.000304667 -2.86491e-05
0.00119847 -0.000359536 -0.000359541 -4.31688e-11
0.00103985 -0.000312127 -0.000311882 -2.86501e-05
0.00102782 -0.000308514 -0.000308274 -2.86496e-05
0.000847175 -0.000254458 -0.000254022 -5.28847e-05
0.000827133 -0.00024843 -0.000248015 -5.28831e-05
0.00115635 -0.000346899 -0.000346905 -4.16309e-11
0.00118443 -0.000355323 -0.000355329 -4.2673e-11
0.000837154 -0.000251444 -0.000251019 -5.28839e-05
0.00099173 -0.000297674 -0.000297452 -2.86481e-05
0.00117039 -0.000351111 -0.000351117 -4.21423e-11
0.00101579 -0.000304901 -0.000304667 -2.86491e-05
0.00100376 -0.000301288 -0.00030106 -2.86486e-05
0.000827133 -0.00024843 -0.000248015 -5.28831e-05
0.00080709 -0.000242403 -0.000242009 -5.28815e-05
0.00112827 -0.000338475 -0.000338482 -4.0603e-11
0.00115635 -0.000346899 -0.000346905 -4.16309e-11
0.000817111 -0.000245416 -0.000245012 -5.28823e-05
0.000967669 -0.000290448 -0.000290237 -2.86472e-05
0.00114231 -0.000342687 -0.000342694 -4.11029e-11
0.00099173 -0.000297674 -0.000297452 -2.86481e-05
0.000979699 -0.000294061 -0.000293845 -2.86476e-05
0.00080709 -0.000242403 -0.000242009 -5.28815e-05
0.000787047 -0.000236376 -0.000236002 -5.28799e-05
0.00110019 -0.000330051 -0.000330058 -3.95732e-11
0.00112827 -0.000338475 -0.000338482 -4.0603e-11
0.000797068 -0.000239389 -0.000239005 -5.28807e-05
0.000943608 -0.000283222 -0.000283023 -2.86462e-05
0.00111423 -0.000334263 -0.00033427 -4.0082e-11
0.000967669 -0.000290448 -0.000290237 -2.86472e-05
0.000955638 -0.000286835 -0.00028663 -2.86467e-05
0.000787047 -0.000236376 -0.000236002 -5.28799e-05
0.000767003 -0.000230349 -0.000229995 -5.28783e-05
0.00107211 -0.000321627 -0.000321634 -3.85456e-11
0.00110019 -0.000330051 -0.000330058 -3.9573e-11
0.000777025 -0.000233362 -0.000232998 -5.28791e-05
0.000919547 -0.000275996 -0.000275808 -2.86453e-05
0.00108615 -0.000325839 -0.000325846 -3.90895e-11
0.000943608 -0.000283222 -0.000283023 -2.86462e-05
0.000931578 -0.000279609 -0.000279415 -2.86458e-05
0.000767003 -0.000230349 -0.000229995 -5.28783e-05
0.00074696 -0.000224322 -0.000223988 -5.28767e-05
0.00104403 -0.000313203 -0.000313211 -3.75048e-11
0.00107211 -0.000321627 -0.000321634 -3.85682e-11
0.000756982 -0.000227336 -0.000226991 -5.28775e-05
0.000895487 -0.000268771 -0.000268592 -2.86444e-05
0.00105807 -0.000317415 -0.000317423 -3.80564e-11
0.000919547 -0.000275996 -0.000275808 -2.86453e-05
0.000907517 -0.000272384 -0.0002722 -2.86448e-05
0.00074696 -0.000224322 -0.000223988 -5.28767e-05
0.000726916 -0.000218296 -0.00021798 -5.28752e-05
0.00101595 -0.000304779 -0.000304787 -3.64607e-11
0.00104403 -0.000313203 -0.000313211 -3.75048e-11
0.000736938 -0.000221309 -0.000220984 -5.2876e-05
0.000871426 -0.000261545 -0.000261377 -2.86435e-05
0.00102999 -0.000308991 -0.000308999 -3.69939e-11
0.000895487 -0.000268771 -0.000268592 -2.86444e-05
0.000883456 -0.000265158 -0.000264985 -2.86439e-05
0.000726916 -0.000218296 -0.00021798 -5.28752e-05
0.000706872 -0.00021227 -0.000211972 -5.28737e-05
0.000987871 -0.000296356 -0.000296364 -3.54115e-11
0.00101595 -0.000304779 -0.000304787 -3.64607e-11
0.000716894 -0.000215283 -0.000214976 -5.28744e-05
0.000847365 -0.00025432 -0.000254162 -2.86426e-05
0.00100191 -0.000300568 -0.000300576 -3.59656e-11
0.000871426 -0.000261545 -0.000261377 -2.86435e-05
0.000859395 -0.000257933 -0.00025777 -2.8643e-05
0.000706872 -0.00021227 -0.000211972 -5.28737e-05
0.000686828 -0.000206245 -0.000205964 -5.28722e-05
0.000959793 -0.000287932 -0.00028794 -3.42768e-11
0.000987871 -0.000296356 -0.000296364 -3.54111e-11
0.00069685 -0.000209258 -0.000208968 -5.28729e-05
0.000823304 -0.000247095 -0.000246947 -2.86417e-05
0.000973832 -0.000292144 -0.000292152 -3.48641e-11
0.000847365 -0.00025432 -0.000254162 -2.86426e-05
0.000835335 -0.000250708 -0.000250554 -2.86421e-05
0.000686828 -0.000206245 -0.000205964 -5.28722e-05
0.000666784 -0.00020022 -0.000199956 -5.28707e-05
0.000931715 -0.000279508 -0.000279517 -3.3127e-11
0.000959793 -0.000287932 -0.00028794 -3.42773e-11
0.000676806 -0.000203232 -0.00020296 -5.28715e-05
0.000799243 -0.00023987 -0.000239731 -2.86408e-05
0.000945754 -0.00028372 -0.000283729 -3.37051e-11
0.000823304 -0.000247095 -0.000246947 -2.86417e-05
0.000811274 -0.000243483 -0.000243339 -2.86413e-05
0.000666784 -0.00020022 -0.000199956 -5.28707e-05
0.000646739 -0.000194195 -0.000193948 -5.28693e-05
0.000903637 -0.000271085 -0.000271094 -3.19261e-11
0.000931715 -0.000279508 -0.000279517 -3.3127e-11
0.000656762 -0.000197207 -0.000196952 -5.287e-05
0.000775182 -0.000232646 -0.000232516 -2.864e-05
0.000917676 -0.000275296 -0.000275305 -3.25659e-11
0.000799243 -0.00023987 -0.000239731 -2.86408e-05
0.000787213 -0.000236258 -0.000236124 -2.86404e-05
0.000646739 -0.000194195 -0.000193948 -5.28693e-05
0.000626694 -0.00018817 -0.000187939 -5.28679e-05
0.000875559 -0.000262661 -0.00026267 -3.06137e-11
0.000903637 -0.000271085 -0.000271094 -3.19261e-11
0.000636717 -0.000191182 -0.000190943 -5.28686e-05
0.000751121 -0.000225421 -0.0002253 -2.86391e-05
0.000889598 -0.000266873 -0.000266882 -3.12813e-11
0.000775182 -0.000232646 -0.000232516 -2.864e-05
0.000763152 -0.000229033 -0.000228908 -2.86395e-05
0.000626694 -0.00018817 -0.000187939 -5.28679e-05
0.000606649 -0.000182145 -0.00018193 -5.28665e-05
0.000847481 -0.000254237 -0.000254247 -2.91706e-11
0.000875559 -0.000262661 -0.00026267 -3.06138e-11
0.000616672 -0.000185158 -0.000184935 -5.28672e-05
0.00072706 -0.000218197 -0.000218084 -2.86383e-05
0.00086152 -0.000258449 -0.000258459 -2.99256e-11
0.000751121 -0.000225421 -0.0002253 -2.86391e-05
0.000739091 -0.000221809 -0.000221692 -2.86387e-05
0.000606649 -0.000182145 -0.00018193 -5.28665e-05
0.000586604 -0.000176121 -0.000175921 -5.28652e-05
0.000819403 -0.000245814 -0.000245824 -2.76317e-11
0.000847481 -0.000254237 -0.000254247 -2.91967e-11
0.000596627 -0.000179133 -0.000178926 -5.28659e-05
0.000702999 -0.000210972 -0.000210868 -2.86375e-05
0.000833442 -0.000250026 -0.000250036 -2.84318e-11
0.00072706 -0.000218197 -0.000218084 -2.86383e-05
0.000715029 -0.000214584 -0.000214476 -2.86379e-05
0.000586604 -0.000176121 -0.000175921 -5.28652e-05
0.000566558 -0.000170097 -0.000169912 -5.28639e-05
0.000791325 -0.00023739 -0.000237401 -2.5831e-11
0.000819403 -0.000245814 -0.000245824 -2.76317e-11
0.000576581 -0.000173109 -0.000172917 -5.28646e-05
0.000678937 -0.000203748 -0.000203652 -2.86368e-05
0.000805364 -0.000241602 -0.000241612 -2.67392e-11
0.000702999 -0.000210972 -0.000210868 -2.86375e-05
0.000690968 -0.00020736 -0.00020726 -2.86371e-05
0.000566558 -0.000170097 -0.000169912 -5.28639e-05
0.000546512 -0.000164074 -0.000163902 -5.28627e-05
0.000763247 -0.000228967 -0.000228977 -2.38138e-11
0.000791325 -0.00023739 -0.000237401 -2.5831e-11
0.000556535 -0.000167085 -0.000166907 -5.28633e-05
0.000654876 -0.000196524 -0.000196436 -2.8636e-05
0.000777286 -0.000233178 -0.000233189 -2.48158e-11
0.000678937 -0.000203748 -0.000203652 -2.86368e-05
0.000666906 -0.000200136 -0.000200044 -2.86364e-05
0.000546512 -0.000164074 -0.000163902 -5.28627e-05
0.000526466 -0.00015805 -0.000157892 -5.28616e-05
0.00073517 -0.000220543 -0.000220554 -2.14249e-11
0.000763247 -0.000228967 -0.000228977 -2.38136e-11
0.000536489 -0.000161062 -0.000160897 -5.28622e-05
0.000630814 -0.000189301 -0.00018922 -2.86354e-05
0.000749209 -0.000224755 -0.000224766 -2.25932e-11
0.000654876 -0.000196524 -0.000196436 -2.8636e-05
0.000642845 -0.000192912 -0.000192828 -2.86357e-05
0.000526466 -0.00015805 -0.000157892 -5.28616e-05
0.000506419 -0.000152027 -0.000151882 -5.28606e-05
0.000707092 -0.00021212 -0.000212131 -1.88845e-11
0.00073517 -0.000220543 -0.000220554 -2.1425e-11
0.000516442 -0.000155039 -0.000154887 -5.28611e-05
0.000606752 -0.000182077 -0.000182003 -2.86348e-05
0.000721131 -0.000216331 -0.000216343 -1.9961e-11
0.000630814 -0.000189301 -0.00018922 -2.86354e-05
0.000618783 -0.000185689 -0.000185612 -2.86351e-05
0.000506419 -0.000152027 -0.000151882 -5.28606e-05
0.000486372 -0.000146004 -0.000145872 -5.28597e-05
0.000679014 -0.000203696 -0.000203708 -1.57569e-11
0.000707092 -0.00021212 -0.000212131 -1.88845e-11
0.000496395 -0.000149016 -0.000148877 -5.28601e-05
0.000582689 -0.000174853 -0.000174787 -2.86342e-05
0.000693053 -0.000207908 -0.000207919 -1.71668e-11
0.000606752 -0.000182077 -0.000182003 -2.86348e-05
0.000594721 -0.000178465 -0.000178395 -2.86345e-05
0.000486372 -0.000146004 -0.000145872 -5.28597e-05
0.000466324 -0.000139982 -0.000139861 -5.2859e-05
0.000650935 -0.000195272 -0.000195284 -1.2899e-11
0.000679014 -0.000203696 -0.000203708 -1.57569e-11
0.000476348 -0.000142993 -0.000142867 -5.28593e-05
0.000558627 -0.00016763 -0.00016757 -2.86338e-05
0.000664975 -0.000199484 -0.000199496 -1.39452e-11
0.000582689 -0.000174853 -0.000174787 -2.86342e-05
0.000570658 -0.000171242 -0.000171178 -2.8634e-05
0.000466324 -0.000139982 -0.000139861 -5.2859e-05
0.000446276 -0.000133959 -0.00013385 -5.28584e-05
0.000622857 -0.000186848 -0.000186861 -8.96645e-12
0.000650935 -0.000195272 -0.000195284 -1.2899e-11
0.0004563 -0.00013697 -0.000136856 -5.28586e-05
0.000534564 -0.000160406 -0.000160353 -2.86335e-05
0.000636896 -0.00019106 -0.000191073 -1.04341e-11
0.000558627 -0.00016763 -0.00016757 -2.86338e-05
0.000546595 -0.000164018 -0.000163962 -2.86336e-05
0.000446276 -0.000133959 -0.00013385 -5.28584e-05
0.000426228 -0.000127937 -0.000127839 -5.28579e-05
0.000594777 -0.000178424 -0.000178437 -7.3534e-12
0.000622857 -0.000186848 -0.000186861 -9.01579e-12
0.000436252 -0.000130948 -0.000130845 -5.28581e-05
0.0005105 -0.000153183 -0.000153136 -2.86333e-05
0.000608817 -0.000182636 -0.000182649 -7.41066e-12
0.000534564 -0.000160406 -0.000160353 -2.86335e-05
0.000522532 -0.000156795 -0.000156744 -2.86334e-05
0.000426228 -0.000127937 -0.000127839 -5.28579e-05
0.000406179 -0.000121915 -0.000121827 -5.28576e-05
0.000566697 -0.00017 -0.000170013 -4.45997e-12
0.000594777 -0.000178424 -0.000178437 -7.3534e-12
0.000416204 -0.000124926 -0.000124833 -5.28578e-05
0.000486436 -0.00014596 -0.000145918 -2.86333e-05
0.000580738 -0.000174212 -0.000174225 -3.3754e-12
0.0005105 -0.000153183 -0.000153136 -2.86333e-05
0.000498468 -0.000149571 -0.000149527 -2.86333e-05
0.000406179 -0.000121915 -0.000121827 -5.28576e-05
0.00038613 -0.000115893 -0.000115816 -5.28573e-05
0.000538617 -0.000161576 -0.000161589 -1.04509e-11
0.000566697 -0.00017 -0.000170013 -4.45997e-12
0.000396155 -0.000118904 -0.000118822 -5.28574e-05
0.000462371 -0.000138737 -0.0001387 -2.86333e-05
0.000552657 -0.000165788 -0.000165801 -7.39682e-12
0.000486436 -0.00014596 -0.000145918 -2.86333e-05
0.000474403 -0.000142348 -0.000142309 -2.86333e-05
0.00038613 -0.000115893 -0.000115816 -5.28573e-05
0.000366081 -0.000109872 -0.000109804 -5.28567e-05
0.000510534 -0.000153151 -0.000153164 -2.2552e-11
0.000538617 -0.000161576 -0.000161589 -1.04474e-11
0.000376106 -0.000112883 -0.00011281 -5.2857e-05
0.000438306 -0.000131513 -0.000131483 -2.86333e-05
0.000524576 -0.000157363 -0.000157377 -3.39509e-12
0.000462371 -0.000138737 -0.0001387 -2.86333e-05
0.000450338 -0.000135125 -0.000135092 -2.86333e-05
0.000366081 -0.000109872 -0.000109804 -5.28567e-05
0.000346032 -0.00010385 -0.000103792 -5.28552e-05
0.000482451 -0.000144725 -0.00014474 -6.04549e-11
0.000510534 -0.000153151 -0.000153164 -2.25515e-11
0.000356056 -0.000106861 -0.000106798 -5.28561e-05
0.00041424 -0.00012429 -0.000124264 -2.86331e-05
0.000496493 -0.000148938 -0.000148952 -5.17722e-11
0.000438306 -0.000131513 -0.000131483 -2.86333e-05
0.000426273 -0.000127902 -0.000127873 -2.86333e-05
0.000346032 -0.00010385 -0.000103792 -5.28552e-05
0.000325983 -9.78277e-05 -9.7781e-05 -5.28518e-05
0.000454367 -0.0001363 -0.000136314 -1.70473e-10
0.000482451 -0.000144725 -0.00014474 -6.04549e-11
0.000336007 -0.000100839 -0.000100787 -5.28538e-05
0.000390175 -0.000117067 -0.000117046 -2.8632e-05
0.000468409 -0.000140513 -0.000140527 -4.95436e-11
0.00041424 -0.00012429 -0.000124264 -2.86331e-05
0.000402208 -0.000120678 -0.000120655 -2.86327e-05
0.000325983 -9.78277e-05 -9.7781e-05 -5.28518e-05
0.000305937 -9.18043e-05 -9.1771e-05 -5.2844e-05
0.000426282 -0.000127874 -0.000127889 -3.1735e-10
0.000454367 -0.0001363 -0.000136314 -1.70473e-10
0.00031596 -9.48162e-05 -9.47758e-05 -5.28487e-05
0.000366112 -0.000109844 -0.000109829 -2.86287e-05
0.000440324 -0.000132087 -0.000132102 -3.2271e-10
0.000390175 -0.000117067 -0.000117046 -2.8632e-05
0.000378143 -0.000113455 -0.000113438 -2.86308e-05
0.000305937 -9.18043e-05 -9.1771e-05 -5.2844e-05
0.000285892 -8.57779e-05 -8.57633e-05 -5.28279e-05
0.000398199 -0.000119448 -0.000119465 -9.39127e-10
0.000426282 -0.000127874 -0.000127889 -3.1735e-10
0.000295914 -8.87916e-05 -8.87668e-05 -5.28374e-05
0.000342054 -0.000102622 -0.000102614 -2.86208e-05
0.00041224 -0.000123661 -0.000123677 -3.18425e-10
0.000366112 -0.000109844 -0.000109829 -2.86287e-05
0.000354082 -0.000106233 -0.000106221 -2.86256e-05
0.000285892 -8.57779e-05 -8.57633e-05 -5.28279e-05
0.000265853 -7.97451e-05 -7.97605e-05 -5.27946e-05
0.000370123 -0.000111026 -0.000111041 -1.36215e-09
0.000398199 -0.000119448 -0.000119465 -9.39126e-10
0.000275872 -8.27626e-05 -8.2761e-05 -5.28142e-05
0.000318006 -9.54008e-05 -9.54022e-05 -2.86025e-05
0.00038416 -0.000115237 -0.000115253 -1.60198e-09
0.000342054 -0.000102622 -0.000102614 -2.86208e-05
0.000330029 -9.9011e-05 -9.90075e-05 -2.86134e-05
0.000265853 -7.97451e-05 -7.97605e-05 -5.27946e-05
0.000245818 -7.36995e-05 -7.37651e-05 -5.27305e-05
0.000342071 -0.000102608 -0.000102627 -4.29977e-09
0.000370123 -0.000111026 -0.000111041 -1.36215e-09
0.000255835 -7.67246e-05 -7.67618e-05 -5.27675e-05
0.000293981 -8.81823e-05 -8.81996e-05 -2.85646e-05
0.000356092 -0.000106815 -0.000106833 -1.46147e-09
0.000318006 -9.54008e-05 -9.54022e-05 -2.86025e-05
0.000305989 -9.17912e-05 -9.17992e-05 -2.85871e-05
0.000245818 -7.36995e-05 -7.37651e-05 -5.27305e-05
0.000225794 -6.76287e-05 -6.77853e-05 -5.26051e-05
0.00031406 -9.42126e-05 -9.42205e-05 -4.96552e-09
0.000342071 -0.000102608 -0.000102627 -4.29977e-09
0.000235804 -7.06681e-05 -7.07724e-05 -5.26783e-05
0.000269997 -8.09688e-05 -8.10119e-05 -2.84856e-05
0.00032806 -9.84105e-05 -9.84213e-05 -6.92217e-09
0.000293981 -8.81823e-05 -8.81996e-05 -2.85646e-05
0.000281983 -8.45746e-05 -8.46038e-05 -2.85315e-05
0.000225794 -6.76287e-05 -6.77853e-05 -5.26051e-05
0.000205769 -6.15121e-05 -6.18242e-05 -5.23782e-05
0.000286168 -8.5835e-05 -8.58572e-05 -1.72454e-08
0.00031406 -9.42126e-05 -9.42205e-05 -4.96549e-09
0.000215785 -6.45788e-05 -6.48025e-05 -5.25075e-05
0.000246098 -7.37646e-05 -7.38574e-05 -2.83328e-05
0.00030009 -9.00114e-05 -9.00339e-05 -5.26644e-09
0.000269997 -8.09688e-05 -8.10119e-05 -2.84856e-05
0.000258032 -7.73656e-05 -7.74283e-05 -2.8423e-05
0.000205769 -6.15121e-05 -6.18242e-05 -5.23782e-05
0.000185756 -5.53095e-05 -5.59058e-05 -5.19573e-05
0.000258462 -7.75662e-05 -7.75267e-05 -1.54205e-08
0.000286168 -8.5835e-05 -8.58572e-05 -1.72454e-08
0.000195756 -5.84225e-05 -5.88572e-05 -5.22009e-05
0.000222334 -6.65755e-05 -6.67535e-05 -2.80393e-05
0.000272293 -8.17026e-05 -8.16816e-05 -2.72588e-08
0.000246098 -7.37646e-05 -7.38574e-05 -2.83328e-05
0.000234199 -7.01664e-05 -7.02996e-05 -2.8206e-05
0.000185756 -5.53095e-05 -5.59058e-05 -5.19573e-05
0.000165678 -4.89739e-05 -5.00159e-05 -5.12495e-05
0.000231238 -6.93505e-05 -6.93802e-05 -6.19986e-08
0.000258462 -7.75662e-05 -7.75267e-05 -1.54205e-08
0.00017574 -5.21686e-05 -5.29593e-05 -5.16455e-05
0.000198854 -5.94194e-05 -5.97577e-05 -2.74995e-05
0.000244751 -7.34021e-05 -7.34354e-05 -1.38797e-08
0.000222334 -6.65755e-05 -6.67535e-05 -2.80393e-05
0.00021054 -6.29954e-05 -6.32334e-05 -2.78184e-05
0.000165678 -4.89739e-05 -5.00159e-05 -5.12495e-05
0.000145565 -4.23877e-05 -4.42188e-05 -5.00238e-05
0.000204714 -6.16137e-05 -6.13288e-05 -3.99815e-08
0.000231238 -6.93505e-05 -6.93802e-05 -6.19986e-08
0.000155607 -4.57055e-05 -4.71005e-05 -5.07238e-05
0.000175745 -5.22969e-05 -5.29065e-05 -2.65474e-05
0.000217899 -6.55055e-05 -6.53115e-05 -1.01911e-07
0.000198854 -5.94194e-05 -5.97577e-05 -2.74995e-05
0.000187261 -5.58452e-05 -5.63209e-05 -2.70709e-05
0.000145565 -4.23877e-05 -4.42188e-05 -5.00238e-05
0.000125036 -3.55223e-05 -3.8363e-05 -4.8192e-05
0.00017988 -5.39353e-05 -5.39763e-05 -2.02844e-07
0.000204714 -6.16137e-05 -6.13288e-05 -3.99815e-08
0.000135419 -3.90282e-05 -4.13104e-05 -4.91845e-05
0.000153456 -4.52777e-05 -4.63622e-05 -2.48777e-05
0.000191952 -5.75356e-05 -5.76069e-05 -1.30906e-08
0.000175745 -5.22969e-05 -5.29065e-05 -2.65474e-05
0.000164435 -4.87896e-05 -4.95623e-05 -2.5874e-05
0.000125036 -3.55223e-05 -3.8363e-05 -4.8192e-05
0.000104112 -2.80834e-05 -3.25837e-05 -4.54125e-05
0.000157435 -4.82402e-05 -4.67978e-05 -7.65656e-08
0.00017988 -5.39353e-05 -5.39763e-05 -2.02844e-07
0.000114554 -3.18052e-05 -3.54637e-05 -4.69505e-05
0.000131873 -3.82595e-05 -4.012e-05 -2.22685e-05
0.000168405 -5.12543e-05 -5.02076e-05 -3.78655e-07
0.000153456 -4.52777e-05 -4.63622e-05 -2.48777e-05
0.000142654 -4.17332e-05 -4.32517e-05 -2.36177e-05
0.000104112 -2.80834e-05 -3.25837e-05 -4.54125e-05
8.12602e-05 -2.06726e-05 -2.59661e-05 -4.24053e-05
0.000140082 -4.19995e-05 -4.20353e-05 -5.57629e-07
0.000157435 -4.82402e-05 -4.67978e-05 -7.65656e-08
9.31882e-05 -2.44999e-05 -2.94378e-05 -4.38598e-05
0.000112137 -3.14939e-05 -3.45613e-05 -1.80124e-05
0.000147738 -4.41533e-05 -4.43933e-05 1.56701e-07
0.000131873 -3.82595e-05 -4.012e-05 -2.22685e-05
0.000121554 -3.4921e-05 -3.71283e-05 -2.06133e-05
8.12602e-05 -2.06726e-05 -2.59661e-05 -4.24053e-05
5.65697e-05 -1.32887e-05 -1.8549e-05 -4.03635e-05
0.00013089 -4.33708e-05 -3.75081e-05 8.5153e-07
0.000140082 -4.19995e-05 -4.20353e-05 -5.57629e-07
6.88726e-05 -1.64701e-05 -2.24582e-05 -4.10826e-05
9.16167e-05 -2.41836e-05 -2.88999e-05 -1.33301e-05
0.000134466 -4.37351e-05 -3.88849e-05 -1.23079e-06
0.000112137 -3.14939e-05 -3.45613e-05 -1.80124e-05
0.000102524 -2.78068e-05 -3.20217e-05 -1.51841e-05
5.65697e-05 -1.32887e-05 -1.8549e-05 -4.03635e-05
2.76319e-05 -1.39282e-05 -5.87299e-06 -4.73204e-05
0.000139682 -3.84253e-05 -4.33959e-05 5.31547e-06
0.00013089 -4.33708e-05 -3.75081e-05 8.5153e-07
4.32049e-05 -1.25099e-05 -1.3155e-05 -4.19452e-05
6.9781e-05 -1.80679e-05 -2.21627e-05 -1.0222e-05
0.000131809 -3.71792e-05 -4.05557e-05 3.76878e-06
9.16167e-05 -2.41836e-05 -2.88999e-05 -1.33301e-05
8.03805e-05 -2.09658e-05 -2.54634e-05 -1.21414e-05
2.76319e-05 -1.39282e-05 -5.87299e-06 -4.73204e-05
1.38463e-05 -4.74715e-05 1.44108e-05 -7.39287e-05
0.000190752 -3.96237e-05 -6.47693e-05 4.21616e-05
0.000139682 -3.84253e-05 -4.33959e-05 5.31547e-06
1.5847e-05 -2.02572e-05 1.89009e-06 -5.67262e-05
2.30182e-05 -3.08813e-05 3.36991e-06 -4.16826e-05
0.000158125 -5.29153e-05 -4.50898e-05 1.12304e-05
6.9781e-05 -1.80679e-05 -2.21627e-05 -1.0222e-05
5.29484e-05 -1.76e-05 -1.51494e-05 -1.60572e-05
1.38463e-05 -4.74715e-05 1.44108e-05 -7.39287e-05
6.88856e-05 -0.000206601 5.9021e-05 -7.61725e-05
0.000127362 -0.000274394 6.30137e-05 -0.000202564
0.000190752 -3.96237e-05 -6.47693e-05 4.21616e-05
2.90517e-05 -0.000110471 3.48939e-05 -8.80198e-05
6.314e-05 -0.000254056 8.18211e-05 -0.000122475
0.000194704 -1.52577e-05 -7.69057e-05 2.04425e-05
2.30182e-05 -3.08813e-05 3.36991e-06 -4.16826e-05
1.4811e-05 -8.41453e-05 2.97147e-05 -7.96159e-05
      </DataArray> 
    </PointData>
    <CellData>
      <DataArray type="Float64" NumberOfComponents="1" Name="Process" format="ascii">
3
3
3
3
3
3
3
3
3
3
3
3
3
3
3
3
3
3
3
3
3
3
3
3
3
2
2
2
2
2
2
2
2
2
2
2
2
2
2
2
2
2
2
2
2
2
2
2
2
1
1
1
1
1
1
1
1
1
1
1
1
1
1
1
1
1
1
1
1
1
1
1
1
1
0
0
0
0
0
0
0
0
0
0
0
0
0
0
0
0
0
0
0
0
0
0
0
0
0
5
5
5
5
5
5
5
5
5
5
5
5
5
5
5
5
5
5
5
5
5
5
5
5
5
4
4
4
4
4
4
4
4
4
4
4
4
4
4
4
4
4
4
4
4
4
4
4
4
7
7
7
7
7
7
7
7
7
7
7
7
7
7
7
7
7
7
7
7
7
7
7
7
7
6
6
6
6
6
6
6
6
6
6
6
6
6
6
6
6
6
6
6
6
6
6
6
6
3
3
3
3
3
3
3
3
3
3
3
3
3
3
3
3
3
3
3
3
3
3
3
3
3
2
2
2
2
2
2
2
2
2
2
2
2
2
2
2
2
2
2
2
2
2
2
2
2
1
1
1
1
1
1
1
1
1
1
1
1
1
1
1
1
1
1
1
1
1
1
1
1
1
0
0
0
0
0
0
0
0
0
0
0
0
0
0
0
0
0
0
0
0
0
0
0
0
0
5
5
5
5
5
5
5
5
5
5
5
5
5
5
5
5
5
5
5
5
5
5
5
5
5
4
4
4
4
4
4
4
4
4
4
4
4
4
4
4
4
4
4
4
4
4
4
4
4
7
7
7
7
7
7
7
7
7
7
7
7
7
7
7
7
7
7
7
7
7
7
7
7
7
6
6
6
6
6
6
6
6
6
6
6
6
6
6
6
6
6
6
6
6
6
6
6
6
3
3
3
3
3
3
3
3
3
3
3
3
3
3
3
3
3
3
3
3
3
3
3
3
3
2
2
2
2
2
2
2
2
2
2
2
2
2
2
2
2
2
2
2
2
2
2
2
2
1
1
1
1
1
1
1
1
1
1
1
1
1
1
1
1
1
1
1
1
1
1
1
1
1
0
0
0
0
0
0
0
0
0
0
0
0
0
0
0
0
0
0
0
0
0
0
0
0
0
5
5
5
5
5
5
5
5
5
5
5
5
5
5
5
5
5
5
5
5
5
5
5
5
5
4
4
4
4
4
4
4
4
4
4
4
4
4
4
4
4
4
4
4
4
4
4
4
4
7
7
7
7
7
7
7
7
7
7
7
7
7
7
7
7
7
7
7
7
7
7
7
7
7
6
6
6
6
6
6
6
6
6
6
6
6
6
6
6
6
6
6
6
6
6
6
6
6
3
3
3
3
3
3
3
3
3
3
3
3
3
3
3
3
3
3
3
3
3
3
3
3
3
2
2
2
2
2
2
2
2
2
2
2
2
2
2
2
2
2
2
2
2
2
2
2
2
1
1
1
1
1
1
1
1
1
1
1
1
1
1
1
1
1
1
1
1
1
1
1
1
1
0
0
0
0
0
0
0
0
0
0
0
0
0
0
0
0
0
0
0
0
0
0
0
0
0
5
5
5
5
5
5
5
5
5
5
5
5
5
5
5
5
5
5
5
5
5
5
5
5
5
4
4
4
4
4
4
4
4
4
4
4
4
4
4
4
4
4
4
4
4
4
4
4
4
7
7
7
7
7
7
7
7
7
7
7
7
7
7
7
7
7
7
7
7
7
7
7
7
7
6
6
6
6
6
6
6
6
6
6
6
6
6
6
6
6
6
6
6
6
6
6
6
6
3
3
3
3
3
3
3
3
3
3
3
3
3
3
3
3
3
3
3
3
3
3
3
3
3
2
2
2
2
2
2
2
2
2
2
2
2
2
2
2
2
2
2
2
2
2
2
2
2
1
1
1
1
1
1
1
1
1
1
1
1
1
1
1
1
1
1
1
1
1
1
1
1
1
0
0
0
0
0
0
0
0
0
0
0
0
0
0
0
0
0
0
0
0
0
0
0
0
0
5
5
5
5
5
5
5
5
5
5
5
5
5
5
5
5
5
5
5
5
5
5
5
5
5
4
4
4
4
4
4
4
4
4
4
4
4
4
4
4
4
4
4
4
4
4
4
4
4
7
7
7
7
7
7
7
7
7
7
7
7
7
7
7
7
7
7
7
7
7
7
7
7
7
6
6
6
6
6
6
6
6
6
6
6
6
6
6
6
6
6
6
6
6
6
6
6
6
3
3
3
3
3
3
3
3
3
3
3
3
3
3
3
3
3
3
3
3
3
3
3
3
3
2
2
2
2
2
2
2
2
2
2
2
2
2
2
2
2
2
2
2
2
2
2
2
2
1
1
1
1
1
1
1
1
1
1
1
1
1
1
1
1
1
1
1
1
1
1
1
1
1
0
0
0
0
0
0
0
0
0
0
0
0
0
0
0
0
0
0
0
0
0
0
0
0
0
5
5
5
5
5
5
5
5
5
5
5
5
5
5
5
5
5
5
5
5
5
5
5
5
5
4
4
4
4
4
4
4
4
4
4
4
4
4
4
4
4
4
4
4
4
4
4
4
4
7
7
7
7
7
7
7
7
7
7
7
7
7
7
7
7
7
7
7
7
7
7
7
7
7
6
6
6
6
6
6
6
6
6
6
6
6
6
6
6
6
6
6
6
6
6
6
6
6
3
3
3
3
3
3
3
3
3
3
3
3
3
3
3
3
3
3
3
3
3
3
3
3
3
2
2
2
2
2
2
2
2
2
2
2
2
2
2
2
2
2
2
2
2
2
2
2
2
1
1
1
1
1
1
1
1
1
1
1
1
1
1
1
1
1
1
1
1
1
1
1
1
1
0
0
0
0
0
0
0
0
0
0
0
0
0
0
0
0
0
0
0
0
0
0
0
0
0
5
5
5
5
5
5
5
5
5
5
5
5
5
5
5
5
5
5
5
5
5
5
5
5
5
4
4
4
4
4
4
4
4
4
4
4
4
4
4
4
4
4
4
4
4
4
4
4
4
7
7
7
7
7
7
7
7
7
7
7
7
7
7
7
7
7
7
7
7
7
7
7
7
7
6
6
6
6
6
6
6
6
6
6
6
6
6
6
6
6
6
6
6
6
6
6
6
6
      </DataArray> 
    </CellData>
  </Piece>
  </UnstructuredGrid>
</VTKFile>
