<?xml version="1.0"?>
<VTKFile type="UnstructuredGrid">
  <UnstructuredGrid>
  <Piece NumberOfPoints="193"  NumberOfCells="36">
    <Points>
      <DataArray type="Float64" NumberOfComponents="3" format="ascii">
0 0 0
194.699 0 0
191.224 10 0
0 10 0
20.7144 -3.05846 0
41.5614 -9.51438 0
62.8771 -16.4887 0
85.0877 -21.7123 0
108.031 -23.5814 0
130.971 -21.422 0
153.125 -15.6789 0
174.228 -7.74114 0
6.86479 -0.458699 0
13.7867 -1.50706 0
27.6473 -4.98701 0
34.5894 -7.17515 0
48.5857 -11.906 0
55.6845 -14.2586 0
70.1746 -18.5192 0
77.58 -20.2804 0
92.6822 -22.7635 0
100.34 -23.3951 0
115.722 -23.3102 0
123.379 -22.5847 0
138.471 -19.8528 0
145.858 -17.9207 0
160.269 -13.1889 0
167.302 -10.5219 0
181.109 -4.97213 0
187.9 -2.23324 0
193.672 3.33333 0
192.483 6.66667 0
170.526 1.51027 0
150.018 -6.17699 0
129.196 -11.586 0
107.975 -13.587 0
86.7022 -11.8483 0
65.6831 -6.89427 0
44.7399 -0.0366525 0
23.1145 6.64249 0
184.346 7.03882 0
177.403 4.31939 0
163.693 -1.19835 0
156.866 -3.79005 0
143.129 -8.30472 0
136.189 -10.1216 0
122.155 -12.6654 0
115.075 -13.3367 0
100.869 -13.4146 0
93.7731 -12.8283 0
79.6637 -10.5046 0
72.6591 -8.83675 0
58.7209 -4.73431 0
51.7497 -2.42308 0
37.6563 2.339 0
30.4597 4.60418 0
15.5884 8.32092 0
7.88041 9.47697 0
0 6.66667 0
0 3.33333 0
11.047 4.07021 0
182.684 1.05589 0
32.5996 -1.2684 0
162.044 -7.20414 0
53.6789 -8.34866 0
140.929 -14.1139 0
75.0054 -14.5925 0
119.091 -18.057 0
96.9091 -18.1808 0
108.012 -20.2763 0
107.993 -16.9453 0
104.381 -15.2356 0
100.69 -16.7672 0
100.515 -20.0936 0
104.223 -21.8961 0
104.301 -18.5787 0
111.821 -21.8549 0
115.508 -20.0115 0
115.293 -16.6875 0
111.586 -15.1967 0
111.704 -18.5388 0
85.6231 -18.4466 0
86.1586 -15.1585 0
82.8644 -12.8696 0
78.9627 -13.7821 0
78.2716 -17.0413 0
81.6302 -19.4174 0
82.2452 -16.1538 0
134.397 -19.0691 0
137.714 -16.6304 0
136.957 -13.3862 0
133.043 -12.5453 0
129.793 -14.8884 0
130.383 -18.1671 0
133.722 -15.8183 0
63.8105 -13.3034 0
64.7413 -10.1041 0
61.7072 -7.43591 0
57.7031 -7.91587 0
56.6964 -11.0923 0
59.7578 -13.8085 0
60.7308 -10.627 0
156.168 -12.8944 0
159.137 -10.0674 0
158.008 -6.93301 0
153.996 -6.59576 0
151.061 -9.35897 0
152.093 -12.5273 0
155.085 -9.75137 0
24.6275 -2.36581 0
28.5937 -1.77601 0
29.5232 1.42332 0
26.3682 4.06502 0
22.3163 3.43354 0
21.5262 0.197794 0
25.5007 0.859324 0
3.52611 1.54 0
7.21475 2.89554 0
7.54176 6.20738 0
3.86092 8.18949 0
3.69359 4.88356 0
177.059 -4.82642 0
179.858 -1.88112 0
178.627 1.2256 0
174.575 1.39044 0
171.772 -1.56857 0
173.001 -4.65786 0
175.817 -1.71787 0
19.0195 5.9294 0
14.9904 5.07642 0
14.3994 1.79965 0
17.6163 -0.582797 0
18.3211 2.68635 0
188.436 6.91856 0
185.562 3.96635 0
186.737 0.882688 0
190.753 0.578212 0
189.634 3.76241 0
42.6248 -6.35405 0
43.6778 -3.19264 0
40.6834 -0.419052 0
36.6331 -0.822822 0
35.6183 -3.99645 0
38.5989 -6.74888 0
39.642 -3.58112 0
167.723 -1.40393 0
164.901 -4.3125 0
166.098 -7.42205 0
170.163 -7.59705 0
168.946 -4.50178 0
45.6002 -9.13207 0
49.6419 -8.74881 0
50.6908 -5.58595 0
47.7164 -2.81253 0
46.6582 -5.97233 0
147.074 -8.87976 0
144.046 -11.5279 0
144.953 -14.7338 0
149.02 -15.2531 0
148.05 -12.0746 0
66.9547 -15.937 0
71 -15.3079 0
71.8243 -12.0797 0
68.7199 -9.51097 0
67.8352 -12.7309 0
125.935 -13.838 0
122.567 -15.9971 0
122.974 -19.3032 0
126.936 -20.4251 0
126.438 -17.1436 0
89.101 -20.6526 0
93.0437 -19.4757 0
93.4056 -16.1643 0
90.0037 -14.0511 0
89.5506 -17.3633 0
10.5714 0.755942 0
183.894 -2.0267 0
181.48 4.13329 0
11.5158 7.34706 0
31.6163 -4.45832 0
52.6456 -11.5136 0
74.2456 -17.8271 0
96.6399 -21.4885 0
119.402 -21.3606 0
141.762 -17.3291 0
163.212 -10.3206 0
160.872 -4.07867 0
140.09 -10.879 0
118.777 -14.7276 0
97.1807 -14.848 0
75.77 -11.3403 0
54.7144 -5.17835 0
33.579 1.90996 0
      </DataArray>
    </Points>
    <Cells>
      <DataArray type="Int32" Name="connectivity" format="ascii">
8 35 68 69 70 71 72 73 74 75 
8 67 35 76 77 78 79 70 69 80 
7 36 66 81 82 83 84 85 86 87 
9 65 34 88 89 90 91 92 93 94 
6 37 64 95 96 97 98 99 100 101 
10 63 33 102 103 104 105 106 107 108 
4 62 39 109 110 111 112 113 114 115 
0 60 3 116 117 118 119 58 59 120 
11 61 32 121 122 123 124 125 126 127 
4 39 60 114 113 128 129 130 131 132 
1 2 61 30 31 133 134 135 136 137 
5 38 62 138 139 140 141 142 143 144 
11 32 63 126 125 145 146 147 148 149 
5 64 38 150 151 152 153 139 138 154 
10 33 65 107 106 155 156 157 158 159 
6 66 37 160 161 162 163 96 95 164 
9 34 67 93 92 165 166 167 168 169 
7 68 36 170 171 172 173 82 81 174 
0 4 60 12 13 131 130 117 116 175 
1 61 11 136 135 122 121 28 29 176 
2 32 61 40 41 124 123 134 133 177 
3 60 39 119 118 129 128 56 57 178 
4 5 62 14 15 143 142 110 109 179 
5 6 64 16 17 100 99 151 150 180 
6 7 66 18 19 86 85 161 160 181 
7 8 68 20 21 74 73 171 170 182 
8 9 67 22 23 168 167 77 76 183 
9 10 65 24 25 158 157 89 88 184 
10 11 63 26 27 148 147 103 102 185 
32 33 63 42 43 105 104 146 145 186 
33 34 65 44 45 91 90 156 155 187 
34 35 67 46 47 79 78 166 165 188 
35 36 68 48 49 173 172 72 71 189 
36 37 66 50 51 163 162 84 83 190 
37 38 64 52 53 153 152 98 97 191 
38 39 62 54 55 112 111 141 140 192 
      </DataArray>
      <DataArray type="Int32" Name="offsets" format="ascii">
10
20
30
40
50
60
70
80
90
100
110
120
130
140
150
160
170
180
190
200
210
220
230
240
250
260
270
280
290
300
310
320
330
340
350
360
      </DataArray>
      <DataArray type="UInt8" Name="types" format="ascii">
69
69
69
69
69
69
69
69
69
69
69
69
69
69
69
69
69
69
69
69
69
69
69
69
69
69
69
69
69
69
69
69
69
69
69
69
      </DataArray>
    </Cells>
    <PointData>
      <DataArray type="Float64" NumberOfComponents="2" Name="Displacement" format="ascii">
0 0
-5.30112 0
-8.77553 0
0 0
-1.50786 -3.05846
-2.88301 -9.51438
-3.7896 -16.4887
-3.80116 -21.7123
-3.08029 -23.5814
-2.36228 -21.422
-2.43038 -15.6789
-3.55014 -7.74114
-0.542615 -0.458699
-1.02807 -1.50706
-1.98234 -4.98701
-2.44763 -7.17515
-3.26614 -11.906
-3.57471 -14.2586
-3.8995 -18.5192
-3.90151 -20.2804
-3.61409 -22.7635
-3.36416 -23.3951
-2.79628 -23.3102
-2.54662 -22.5847
-2.27024 -19.8528
-2.28998 -17.9207
-2.69361 -13.1889
-3.06796 -10.5219
-4.07614 -4.97213
-4.69249 -2.23324
-6.32772 0
-7.51699 0
-7.25207 -8.48973
-5.53748 -16.177
-4.1374 -21.586
-3.13632 -23.587
-2.18667 -21.8483
-0.98352 -16.8943
0.295502 -10.0367
0.892256 -3.35751
-8.247 -2.96118
-7.78238 -5.68061
-6.6769 -11.1983
-6.09721 -13.7901
-5.01881 -18.3047
-4.55153 -20.1216
-3.77135 -22.6654
-3.44304 -23.3367
-2.83494 -23.4146
-2.52318 -22.8283
-1.81777 -20.5046
-1.41494 -18.8367
-0.538359 -14.7343
-0.102201 -12.4231
0.619283 -7.661
0.830025 -5.39582
0.773546 -1.67908
0.473001 -0.523029
0 0
0 0
-0.0641158 -0.929789
-6.20514 -3.94411
-0.733697 -6.2684
-4.62294 -12.2041
-1.87667 -13.3487
-3.51555 -19.1139
-2.77237 -19.5925
-3.13136 -23.057
-3.09087 -23.1808
-3.09872 -23.6096
-3.11769 -23.612
-3.02662 -23.5689
-3.01353 -23.4338
-3.18867 -23.427
-3.18481 -23.5627
-3.10603 -23.5787
-2.99414 -23.5216
-3.0104 -23.3449
-3.2253 -23.3541
-3.22868 -23.53
-3.11097 -23.5388
-3.26583 -21.7799
-2.73033 -21.8252
-2.32078 -21.203
-2.51873 -20.4488
-3.20984 -20.3746
-3.55499 -21.0841
-2.93999 -21.1538
-2.64052 -20.7358
-3.02665 -19.9637
-3.78417 -20.0529
-3.99401 -20.8786
-3.53987 -21.5551
-2.95026 -21.5004
-3.3148 -20.8183
-2.85613 -16.6368
-1.92541 -16.7707
-1.25578 -15.7692
-1.55612 -14.5825
-2.56288 -14.4257
-3.20521 -15.4752
-2.23221 -15.627
-3.09129 -14.5611
-3.82572 -13.4007
-4.95542 -13.5997
-5.26283 -14.9291
-4.49464 -16.0256
-3.46303 -15.8606
-4.17456 -14.7514
-1.29843 -4.03247
-1.03592 -5.10935
-0.106444 -5.24334
0.442253 -4.26831
0.0941087 -3.23312
-0.695974 -3.13554
-0.425182 -4.14068
-0.177592 -0.126667
-0.192653 -0.437795
0.134355 -0.459287
0.157221 -0.143843
-0.0101147 -0.116437
-4.42241 -6.49309
-5.32678 -5.21445
-6.55825 -5.44106
-6.9067 -6.9429
-6.00573 -8.23523
-4.77715 -7.9912
-5.66466 -6.71787
0.501011 -2.40393
0.175597 -1.59024
-0.415407 -1.53368
-0.902263 -2.24946
-0.197381 -2.31365
-7.8603 -1.41478
-7.03076 -2.70031
-5.85515 -2.45064
-5.54345 -1.08845
-6.66249 -1.23759
-1.81962 -9.68738
-0.76663 -9.85931
-0.0573611 -8.75239
-0.403897 -7.48949
-1.41875 -7.32978
-2.14182 -8.41555
-1.09875 -8.58112
-6.35074 -9.73727
-5.46977 -10.9792
-4.27199 -10.7554
-3.9111 -9.26372
-5.12843 -9.50178
-2.54797 -10.7987
-2.20993 -12.0821
-1.16104 -12.2526
-0.431703 -11.1459
-1.48994 -10.9723
-4.77821 -17.2131
-4.10171 -18.1945
-3.19542 -18.0671
-2.83135 -16.9197
-3.80213 -17.0746
-3.41564 -17.6037
-3.07403 -18.6412
-2.24974 -18.7464
-1.65044 -17.8443
-2.53517 -17.7309
-3.69438 -22.1713
-3.35913 -22.6638
-2.95205 -22.6365
-2.69365 -22.0918
-3.19201 -22.1436
-3.49162 -22.3193
-3.25258 -22.8091
-2.89069 -22.831
-2.58888 -22.3844
-3.042 -22.3633
-0.53967 -0.910724
-4.99517 -3.69336
-7.40892 -4.20005
0.404657 -0.986277
-1.71705 -6.12499
-2.90995 -13.1803
-3.53213 -19.4938
-3.36006 -23.1552
-2.82051 -23.0273
-2.68272 -18.9957
-3.45465 -11.9873
-5.79459 -12.412
-4.3542 -19.2123
-3.44486 -23.0609
-2.81932 -23.1813
-2.00781 -19.6736
-0.841137 -13.5117
0.245636 -6.42337
      </DataArray> 
      <DataArray type="Float64" NumberOfComponents="4" Name="CauchyStress" format="ascii">
-139.619 -26.7572 0 -2.43057
-42.0103 55.7935 0 -43.1202
25.0641 142.773 0 -1.33355
168.724 26.1584 0 -9.68638
-62.3905 -4.39789 0 15.192
-4.6468 -0.669988 0 1.52337
37.8181 3.36067 0 -11.196
70.0257 2.09221 0 -11.5696
84.4006 0.235861 0 0.453756
74.4842 2.65852 0 13.5086
45.1762 5.00462 0 15.246
11.2883 2.18747 0 0.96956
-110.399 -2.69482 0 12.6554
-82.8553 -1.05976 0 16.7993
-40.4196 -3.90548 0 11.858
-21.0478 -2.02807 0 7.10858
10.606 1.35487 0 -3.62563
24.4945 2.36242 0 -7.88183
49.8082 3.57412 0 -12.9196
60.1263 2.48463 0 -12.9628
76.8839 1.03025 0 -8.56939
81.4653 0.0354498 0 -4.3438
83.0651 0.20162 0 5.37948
79.8599 1.26526 0 9.96458
65.729 3.37152 0 15.5743
56.6144 4.83382 0 16.1914
34.6238 4.56039 0 12.0198
20.9795 3.53817 0 8.27487
-9.88499 -9.6584 0 0.964723
-37.5297 -7.38069 0 -12.8501
10.0612 94.6993 0 -54.0083
28.7306 138.078 0 -44.9444
-3.05129 5.63563 0 1.22513
-41.8045 -5.63722 0 -14.0062
-67.0698 -2.7774 0 -12.2079
-75.7492 -0.513519 0 -0.4087
-63.4043 -2.3305 0 10.5086
-34.5466 -3.77717 0 10.2049
6.64542 -0.190454 0 -2.32941
70.1507 4.41842 0 -18.5934
15.4009 0.953103 0 5.47402
5.15351 -14.2524 0 3.80651
-18.2456 -3.19595 0 -7.2978
-30.0655 -3.97116 0 -10.7333
-51.0876 -4.52872 0 -14.6364
-60.0568 -4.27633 0 -14.2197
-72.0171 -1.60172 0 -8.8825
-75.068 -1.02378 0 -4.97143
-73.8325 -0.972911 0 4.04471
-69.4543 -1.28959 0 7.65033
-55.2346 -3.46028 0 11.9093
-45.1575 -3.36278 0 11.7354
-22.0083 -3.04174 0 7.10787
-8.0961 -1.38982 0 2.76407
25.2128 2.5113 0 -8.14919
45.0511 3.13962 0 -13.5703
97.9273 2.37189 0 -17.6734
128.777 0.0993248 0 -13.4356
47.5061 13.681 0 -1.86378
-53.5192 -16.8998 0 -0.391844
-4.00133 -0.979528 0 -7.12183
0.0418678 -9.04853 0 10.9789
-3.03776 3.68419 0 -6.20866
-2.24979 3.53284 0 3.48246
-2.11735 2.81554 0 -4.44757
-1.86164 0.0406809 0 2.5512
-1.74251 0.404809 0 -3.05186
-1.6101 -1.74921 0 0.780319
-1.56573 -1.59231 0 -1.28883
25.7672 -1.63604 0 -0.0912725
-27.5738 -1.78163 0 -0.363084
-51.4958 -1.49761 0 0.749344
-26.6924 -1.84097 0 0.398801
24.7504 -1.24745 0 -2.33989
53.3458 -0.720891 0 -1.72203
-1.59299 -1.86536 0 -0.613975
53.8244 -0.731022 0 2.05803
25.2034 -1.31444 0 2.21809
-27.1798 -1.98555 0 -1.16923
-51.9611 -1.5839 0 -1.60813
-1.59533 -1.89749 0 0.101001
21.1178 0.0430809 0 -5.79619
-23.2946 -1.35694 0 1.69166
-40.949 -1.99635 0 6.10638
-20.3537 -1.00892 0 1.47217
17.8518 1.17516 0 -6.69784
41.6897 1.66059 0 -9.54198
-1.73327 -0.455992 0 -2.52644
44.9155 1.9566 0 10.7194
19.5383 1.16814 0 7.0702
-22.1541 -1.56273 0 -2.7095
-43.9272 -2.56467 0 -7.72508
-24.6773 -1.7669 0 -2.72269
22.4367 -0.0215861 0 5.96295
-1.8334 -0.730001 0 2.01932
10.5155 2.61928 0 -7.04517
-13.532 0.293293 0 0.226187
-20.126 -1.05346 0 3.56751
-9.33544 1.2454 0 -1.42751
5.95275 3.23914 0 -6.29563
19.2022 3.38289 0 -8.54197
-1.99548 1.98529 0 -4.01619
24.2122 4.10567 0 11.2445
8.73787 3.6832 0 7.23632
-12.3567 0.352435 0 -0.498041
-25.6468 -3.08163 0 -6.58766
-16.1646 -0.393214 0 -2.02578
12.8369 3.00178 0 7.74934
-2.0721 1.40229 0 3.60437
-36.1264 -0.665378 0 6.02293
-16.8336 1.84529 0 -1.47211
11.9339 4.21029 0 -10.0971
35.7301 3.96978 0 -14.073
18.6408 3.63561 0 -13.1456
-24.9853 1.29508 0 -1.48093
-3.6283 2.81434 0 -7.16442
-89.045 -4.05887 0 -4.39068
-43.1417 4.60024 0 -5.86327
36.8879 -6.55363 0 -14.8937
94.1867 2.09837 0 -16.3057
-5.52064 -3.02681 0 -8.17938
0.799931 14.0917 0 -4.254
-6.19728 8.86911 0 1.26693
1.18109 9.31577 0 1.19529
1.62045 19.6485 0 -0.503886
-3.12736 0.26471 0 6.35827
1.75116 0.406131 0 6.91998
-4.04516 11.4182 0 0.369094
52.7814 4.48777 0 -16.4596
27.284 2.16895 0 -12.269
-32.7279 -1.83884 0 -1.16097
-52.6001 -3.12495 0 6.50876
-3.79274 2.01873 0 -7.80914
16.9805 31.1784 0 16.1018
9.60415 -14.5056 0 18.8395
-7.20146 -5.46427 0 13.2237
-24.4178 10.4969 0 -5.34847
12.4619 30.3995 0 -6.10883
-3.96268 2.90383 0 -4.03913
-0.205046 3.23373 0 -5.32746
8.72878 2.53533 0 -6.60924
5.47172 3.85991 0 -7.96086
-10.1973 2.65385 0 -2.78665
-10.6655 1.19175 0 -0.145955
-2.54656 3.67425 0 -5.55678
-10.328 -3.67712 0 -1.46596
-8.78631 1.36424 0 0.893786
4.10291 3.57932 0 5.86736
5.22889 1.59602 0 7.04274
-1.62121 2.67988 0 5.09796
0.398358 2.12277 0 -3.17386
1.24242 3.21125 0 -5.13675
-4.81133 2.12827 0 -3.18156
-1.88408 1.25451 0 -2.55829
-2.2987 3.33676 0 -4.96037
-32.3893 -2.94107 0 -7.97128
-19.199 -1.3347 0 -2.57546
16.4621 2.0136 0 7.54805
32.3893 3.81441 0 11.776
-1.95597 1.06037 0 2.95963
27.5363 2.94261 0 -9.77094
14.386 1.87079 0 -6.9601
-17.0331 -0.657969 0 1.11557
-27.9456 -2.0137 0 5.53459
-1.76844 1.33514 0 -3.52179
-48.0369 -2.40905 0 -6.51922
-26.1754 -2.06929 0 -2.17937
24.124 -0.841662 0 4.04218
49.4312 0.616607 0 8.38136
-1.65601 -1.22824 0 1.40612
47.0492 0.470611 0 -7.58002
23.2241 -0.763047 0 -4.04869
-25.2336 -1.81182 0 1.30033
-45.8682 -2.04324 0 5.24221
-1.57188 -0.972242 0 -1.9107
-68.686 -0.725555 0 5.76282
-17.3506 -7.03528 0 5.28597
8.19322 -12.4927 0 7.17089
70.5347 -0.388357 0 -16.205
-22.3992 -0.0937073 0 3.22974
10.2881 2.91899 0 -6.32793
35.1723 2.37827 0 -10.4054
51.1998 -0.471235 0 -5.07372
52.6648 -0.435729 0 5.54802
39.1278 2.89802 0 12.042
17.3105 4.4147 0 8.7513
-17.5606 -0.594024 0 -4.00916
-38.7507 -2.95209 0 -8.57103
-50.94 -1.75218 0 -4.3488
-49.6004 -1.55014 0 3.36761
-34.9981 -2.08948 0 6.51425
-11.5379 0.0469831 0 1.02122
21.0128 4.07164 0 -10.7316
      </DataArray> 
    </PointData>
    <CellData>
      <DataArray type="Float64" NumberOfComponents="1" Name="Process" format="ascii">
1
1
3
1
3
0
2
2
0
2
0
2
0
2
0
3
1
3
2
0
0
2
2
3
3
1
1
1
0
0
1
1
3
3
3
2
      </DataArray> 
    </CellData>
  </Piece>
  </UnstructuredGrid>
</VTKFile>
