<?xml version="1.0"?>
<VTKFile type="UnstructuredGrid">
  <UnstructuredGrid>
  <Piece NumberOfPoints="193"  NumberOfCells="36">
    <Points>
      <DataArray type="Float64" NumberOfComponents="3" format="ascii">
0 0 0
175.484 0 0
170.44 10 0
0 10 0
18.2668 -6.25072 0
35.6148 -19.0084 0
53.8302 -32.678 0
75.0687 -42.7763 0
98.7912 -45.333 0
121.741 -39.0538 0
141.397 -26.4873 0
158.383 -11.7829 0
6.10289 -0.951123 0
12.2555 -3.11151 0
24.1254 -10.1006 0
29.8749 -14.4199 0
41.4517 -23.6903 0
47.4928 -28.3001 0
60.5282 -36.6595 0
67.6134 -40.0778 0
82.8284 -44.6129 0
90.7813 -45.4832 0
106.707 -44.1621 0
114.392 -42.0338 0
128.693 -35.3633 0
135.234 -31.1214 0
147.247 -21.6199 0
152.885 -16.6728 0
163.971 -7.17697 0
169.542 -2.93017 0
174.04 3.33333 0
172.263 6.66667 0
151.959 -4.22119 0
135.222 -18.6356 0
117.533 -30.0025 0
97.9677 -35.3893 0
77.911 -33.2096 0
59.2014 -24.2596 0
41.8218 -11.184 0
23.2515 2.38797 0
164.085 5.26462 0
157.827 0.707709 0
146.321 -9.14302 0
140.786 -14.0045 0
129.532 -22.9228 0
123.647 -26.7489 0
111.19 -32.5814 0
104.647 -34.3995 0
91.2299 -35.5162 0
84.5162 -34.7783 0
71.4723 -30.8725 0
65.2348 -27.8538 0
53.3375 -20.2018 0
47.577 -15.8004 0
35.9488 -6.49323 0
29.81 -1.8962 0
16.1234 6.0735 0
8.35594 8.73254 0
0 6.66667 0
0 3.33333 0
10.7892 2.91396 0
163.8 -0.94703 0
29.9808 -8.17249 0
146.823 -15.3742 0
47.4331 -22.0371 0
129.339 -29.1315 0
66.1523 -33.9862 0
109.28 -38.4573 0
87.319 -40.2752 0
98.5214 -42.0746 0
98.2482 -38.7621 0
94.6331 -37.2621 0
91.0765 -38.8958 0
90.9288 -42.216 0
94.7576 -43.9097 0
94.6961 -40.6138 0
102.533 -43.2612 0
106.031 -40.9602 0
105.348 -37.7071 0
101.569 -36.6827 0
102.055 -39.9991 0
76.0021 -39.636 0
76.9438 -36.4472 0
74.09 -33.726 0
70.1624 -33.9803 0
68.8836 -37.0506 0
71.8512 -39.9891 0
72.9618 -36.8796 0
124.504 -35.8393 0
127.029 -32.5252 0
125.355 -29.6499 0
121.414 -29.9474 0
118.961 -33.0592 0
120.357 -36.078 0
122.969 -32.9112 0
55.6063 -29.8983 0
57.3877 -27.0872 0
55.2963 -23.6647 0
51.3706 -22.9127 0
49.4319 -25.6189 0
51.5534 -29.1693 0
53.4169 -26.4266 0
143.3 -22.7975 0
145.098 -19.0918 0
142.954 -16.5456 0
139.086 -17.6465 0
137.3 -21.2656 0
139.349 -23.8892 0
141.199 -20.2273 0
22.1362 -6.68985 0
26.0463 -7.34719 0
27.9265 -4.6024 0
25.7 -1.07603 0
21.6084 -0.446009 0
19.9672 -3.33573 0
23.9298 -3.86668 0
3.27727 1.39743 0
6.89848 2.36584 0
7.61982 5.59469 0
4.02578 7.97834 0
3.65222 4.73063 0
160.125 -8.18286 0
161.88 -4.55385 0
159.84 -1.90229 0
155.886 -2.97198 0
154.112 -6.71207 0
156.244 -9.24854 0
157.998 -5.56947 0
19.0283 2.88559 0
14.8565 3.0732 0
13.5901 0.00672245 0
16.0665 -3.06452 0
17.5614 -0.0654201 0
168.208 6.20049 0
165.946 2.60086 0
167.742 -0.124125 0
171.646 0.288957 0
169.995 3.29017 0
37.6894 -16.403 0
39.7473 -13.7862 0
37.8759 -10.1384 0
33.9267 -9.11863 0
31.9154 -11.7704 0
33.7778 -15.3852 0
35.8292 -12.7578 0
150.211 -7.92785 0
148.512 -11.6495 0
150.69 -14.168 0
154.547 -12.959 0
152.38 -10.4381 0
39.55 -20.0489 0
43.491 -21.0705 0
45.5227 -18.433 0
43.6644 -14.8134 0
41.6057 -17.4322 0
133.409 -22.1737 0
131.457 -25.6764 0
133.349 -28.414 0
137.372 -27.5238 0
135.399 -24.8584 0
57.9673 -33.315 0
62.0806 -33.7577 0
63.6414 -30.8197 0
61.3317 -27.5714 0
59.6401 -30.457 0
115.027 -32.9529 0
112.278 -35.7796 0
113.34 -38.93 0
117.502 -39.1278 0
116.274 -36.0619 0
79.2903 -42.2234 0
83.3819 -41.3871 0
83.9415 -38.1107 0
80.8038 -35.7471 0
80.0403 -39.0103 0
9.74347 -0.275988 0
165.734 -3.61506 0
161.89 1.69465 0
11.8011 6.02791 0
28.0107 -10.8689 0
45.4416 -24.6956 0
64.7327 -36.9718 0
86.9656 -43.5524 0
110.151 -41.6385 0
131.122 -31.9208 0
148.995 -17.8964 0
144.647 -12.8483 0
127.534 -26.3149 0
108.393 -35.2254 0
87.6796 -36.9423 0
67.5928 -30.9642 0
49.4358 -19.3679 0
31.9366 -5.49327 0
      </DataArray>
    </Points>
    <Cells>
      <DataArray type="Int32" Name="connectivity" format="ascii">
8 35 68 69 70 71 72 73 74 75 
8 67 35 76 77 78 79 70 69 80 
7 36 66 81 82 83 84 85 86 87 
9 65 34 88 89 90 91 92 93 94 
6 37 64 95 96 97 98 99 100 101 
10 63 33 102 103 104 105 106 107 108 
4 62 39 109 110 111 112 113 114 115 
0 60 3 116 117 118 119 58 59 120 
11 61 32 121 122 123 124 125 126 127 
4 39 60 114 113 128 129 130 131 132 
1 2 61 30 31 133 134 135 136 137 
5 38 62 138 139 140 141 142 143 144 
11 32 63 126 125 145 146 147 148 149 
5 64 38 150 151 152 153 139 138 154 
10 33 65 107 106 155 156 157 158 159 
6 66 37 160 161 162 163 96 95 164 
9 34 67 93 92 165 166 167 168 169 
7 68 36 170 171 172 173 82 81 174 
0 4 60 12 13 131 130 117 116 175 
1 61 11 136 135 122 121 28 29 176 
2 32 61 40 41 124 123 134 133 177 
3 60 39 119 118 129 128 56 57 178 
4 5 62 14 15 143 142 110 109 179 
5 6 64 16 17 100 99 151 150 180 
6 7 66 18 19 86 85 161 160 181 
7 8 68 20 21 74 73 171 170 182 
8 9 67 22 23 168 167 77 76 183 
9 10 65 24 25 158 157 89 88 184 
10 11 63 26 27 148 147 103 102 185 
32 33 63 42 43 105 104 146 145 186 
33 34 65 44 45 91 90 156 155 187 
34 35 67 46 47 79 78 166 165 188 
35 36 68 48 49 173 172 72 71 189 
36 37 66 50 51 163 162 84 83 190 
37 38 64 52 53 153 152 98 97 191 
38 39 62 54 55 112 111 141 140 192 
      </DataArray>
      <DataArray type="Int32" Name="offsets" format="ascii">
10
20
30
40
50
60
70
80
90
100
110
120
130
140
150
160
170
180
190
200
210
220
230
240
250
260
270
280
290
300
310
320
330
340
350
360
      </DataArray>
      <DataArray type="UInt8" Name="types" format="ascii">
69
69
69
69
69
69
69
69
69
69
69
69
69
69
69
69
69
69
69
69
69
69
69
69
69
69
69
69
69
69
69
69
69
69
69
69
      </DataArray>
    </Cells>
    <PointData>
      <DataArray type="Float64" NumberOfComponents="2" Name="Displacement" format="ascii">
0 0
-24.5157 0
-29.5601 0
0 0
-3.95544 -6.25072
-8.82967 -19.0084
-12.8364 -32.678
-13.8202 -42.7763
-12.3199 -45.333
-11.5923 -39.0538
-14.1583 -26.4873
-19.3943 -11.7829
-1.30452 -0.951123
-2.5593 -3.11151
-5.5042 -10.1006
-7.16218 -14.4199
-10.4002 -23.6903
-11.7665 -28.3001
-13.5459 -36.6595
-13.8681 -40.0778
-13.4679 -44.6129
-12.9224 -45.4832
-11.8114 -44.1621
-11.5344 -42.0338
-12.0479 -35.3633
-12.9141 -31.1214
-15.7155 -21.6199
-17.4852 -16.6728
-21.2145 -7.17697
-23.0505 -2.93017
-25.96 0
-27.7371 0
-25.8189 -14.2212
-20.3332 -28.6356
-15.8005 -40.0025
-13.1434 -45.3893
-10.9779 -43.2096
-7.46522 -34.2596
-2.62266 -21.184
1.02931 -7.61203
-28.5074 -4.73538
-27.3582 -9.29229
-24.0497 -19.143
-22.1774 -24.0045
-18.6157 -32.9228
-17.0933 -36.7489
-14.7364 -42.5814
-13.8718 -44.3995
-12.4738 -45.5162
-11.78 -44.7783
-10.0092 -40.8725
-8.83929 -37.8538
-5.92172 -30.2018
-4.27488 -25.8004
-1.08823 -16.4932
0.180342 -11.8962
1.3086 -3.9265
0.948532 -1.26746
0 0
0 0
-0.321951 -2.08604
-25.0888 -5.94703
-3.35255 -13.1725
-19.8441 -20.3742
-8.12243 -27.0371
-15.1056 -34.1315
-11.6255 -38.9862
-12.9421 -43.4573
-12.681 -45.2752
-12.5898 -45.4079
-12.8629 -45.4288
-12.7743 -45.5954
-12.6272 -45.5624
-12.7749 -45.5494
-12.6498 -45.5764
-12.7113 -45.6138
-12.2817 -44.9279
-12.4876 -44.2936
-13.1703 -44.3737
-13.2459 -45.016
-12.7596 -44.9991
-12.8868 -42.9693
-11.9451 -43.1139
-11.0952 -42.0593
-11.319 -40.647
-12.5979 -40.3839
-13.334 -41.6558
-12.2234 -41.8796
-12.5334 -37.5059
-13.7118 -35.8585
-15.3856 -36.3165
-15.6234 -38.2808
-14.3721 -39.7259
-12.9765 -39.4113
-14.0678 -37.9112
-11.0604 -33.2316
-9.27901 -33.7539
-7.66667 -31.9981
-7.88868 -29.5794
-9.82736 -28.9522
-11.4096 -30.836
-9.54603 -31.4266
-15.9596 -24.4641
-17.8654 -22.4251
-20.0094 -23.2123
-20.1735 -25.9799
-18.2556 -27.9322
-16.2065 -27.2226
-18.0606 -25.2273
-3.78977 -8.35651
-3.58329 -10.6805
-1.70318 -11.2691
-0.225884 -9.40936
-0.613817 -7.11268
-2.25498 -6.66907
-1.9961 -8.86668
-0.426436 -0.269234
-0.508931 -0.967496
0.212418 -1.07198
0.322077 -0.354991
-0.0514865 -0.269369
-21.357 -9.84952
-23.3047 -7.88718
-25.3447 -8.56895
-25.5954 -11.3053
-23.6658 -13.3787
-21.5336 -12.5819
-23.4831 -10.5695
0.509799 -5.44774
0.0417092 -3.59346
-1.22472 -3.32661
-2.45199 -4.73118
-0.957102 -5.06542
-28.0884 -2.13284
-26.6464 -4.06581
-24.8504 -3.45746
-24.6503 -1.37771
-26.3016 -1.70983
-6.75501 -19.7363
-4.6971 -20.4528
-2.86484 -18.4717
-3.1103 -15.7853
-5.12162 -15.1037
-6.9629 -17.0518
-4.91153 -17.7578
-23.8627 -16.2612
-21.858 -18.3161
-19.6805 -17.5013
-19.5273 -14.6256
-21.6945 -15.4381
-8.59819 -21.7155
-8.36087 -24.4038
-6.32917 -25.0997
-4.48372 -23.1467
-6.54249 -22.4322
-18.4429 -30.5071
-16.6912 -32.3431
-14.7991 -31.7473
-14.4796 -29.1905
-16.453 -29.8584
-12.4031 -34.9817
-11.9935 -37.0911
-10.4327 -37.4864
-9.03869 -35.9047
-10.7303 -35.457
-14.6027 -41.2862
-13.6481 -42.4463
-12.5859 -42.2634
-12.1277 -40.7945
-13.3554 -41.0619
-13.3022 -43.8901
-12.9144 -44.7205
-12.3548 -44.7774
-11.7888 -44.0804
-12.5523 -44.0103
-1.36764 -1.94265
-23.1549 -5.28172
-26.9992 -6.63869
0.690016 -2.30543
-5.32258 -12.5355
-10.1139 -26.3623
-13.0451 -38.6384
-13.0344 -45.2191
-12.0712 -43.3052
-13.3228 -33.5875
-17.672 -19.5631
-22.02 -21.1817
-16.91 -34.6482
-13.8292 -43.5587
-12.3204 -45.2756
-10.185 -39.2975
-6.11979 -27.7012
-1.39671 -13.8266
      </DataArray> 
      <DataArray type="Float64" NumberOfComponents="4" Name="CauchyStress" format="ascii">
-271.578 -59.5044 0 1.95487
-74.9727 93.9479 0 -125.484
101.39 377.659 0 21.0436
423.048 58.9252 0 -36.9532
-91.7092 -33.5532 0 52.0552
0.982011 0.459952 0 -1.52632
71.0542 29.8762 0 -46.0581
157.486 15.0011 0 -47.2578
191.252 2.36392 0 15.9146
125.517 28.2552 0 58.8851
43.2812 28.3828 0 35.7009
-11.1613 -14.9579 0 -16.0794
-205.594 -20.7299 0 51.441
-132.599 -19.4924 0 63.9649
-51.8667 -26.3534 0 35.4037
-20.0704 -12.3821 0 17.1898
23.8016 15.3658 0 -18.4496
45.3806 23.7213 0 -33.5799
99.7879 30.0779 0 -53.5703
126.476 21.5784 0 -54.0918
177.602 5.48754 0 -30.8688
188.276 -0.336049 0 -8.57969
173.777 6.86799 0 37.1669
152.915 18.4028 0 52.2141
94.1173 32.115 0 56.4241
69.6376 35.2289 0 48.4291
26.2448 17.7297 0 20.7318
4.1811 4.00385 0 3.64927
-44.7554 -33.2626 0 -24.4705
-105.914 -56.155 0 -57.3942
63.2739 171.078 0 -169.831
116.055 294.394 0 -145.491
29.1541 41.3561 0 26.7732
-35.7881 -26.1659 0 -28.4195
-101.167 -24.0282 0 -47.8354
-150.737 -1.59993 0 -12.7103
-125.945 -12.5786 0 38.1954
-58.3187 -26.6755 0 37.6255
5.11385 0.56167 0 -4.93881
115.697 40.8212 0 -71.359
82.8657 39.4505 0 57.4796
44.2884 -4.20436 0 45.2524
3.99683 0.684778 0 2.84352
-15.654 -11.9284 0 -13.3895
-54.6767 -28.3614 0 -39.3859
-78.8124 -30.7136 0 -46.0697
-122.524 -15.0844 0 -42.0264
-140.96 -9.23276 0 -30.1316
-151.677 -2.6162 0 7.25097
-142.356 -5.37941 0 24.5147
-105.129 -22.0959 0 44.2059
-80.0386 -24.2005 0 43.9822
-36.703 -22.1076 0 26.4255
-14.5374 -10.806 0 12.1042
33.7356 19.5596 0 -25.2488
66.0148 30.5499 0 -47.5139
196.26 35.7107 0 -82.3656
287.695 11.8897 0 -71.0216
97.1458 26.9926 0 -7.76555
-125.976 -43.0625 0 0.0288065
-19.4665 -1.22214 0 -15.9765
-16.498 -3.20396 0 28.0095
-10.5785 15.5097 0 -7.52368
-6.83075 14.1961 0 3.62537
-7.35762 10.8222 0 -5.36258
-7.68861 4.69152 0 4.96368
-7.62675 0.931879 0 -5.29862
-7.56709 -5.48542 0 3.49106
-7.21463 -7.80243 0 -1.97176
52.5827 -6.38109 0 5.88183
-60.9588 -7.7786 0 -3.73265
-108.809 -5.91871 0 -2.49794
-60.459 -8.01652 0 1.15358
51.5881 -6.50745 0 -3.87551
117.481 -3.73885 0 2.05262
-7.35014 -8.21281 0 -0.0651114
112.893 -0.663048 0 18.3928
47.0431 -2.63802 0 14.0677
-56.8477 -8.50693 0 -7.86842
-105.121 -7.26358 0 -13.4023
-7.58418 -7.57349 0 1.92313
41.9973 1.23716 0 -18.7793
-51.9339 -8.16449 0 10.0801
-83.6435 -12.3957 0 25.9097
-43.894 -7.56819 0 11.0465
32.7571 7.17763 0 -21.2184
87.1537 11.4339 0 -35.4624
-7.90464 -2.91944 0 -4.74066
66.4836 21.3447 0 39.9558
22.7197 13.7493 0 21.7828
-34.6443 -7.2269 0 -11.9231
-65.8837 -17.2336 0 -29.8645
-43.1509 -9.05464 0 -13.0722
31.7645 8.73034 0 22.8918
-8.14639 0.811085 0 4.94919
15.2512 15.3956 0 -19.4874
-27.2659 -3.83154 0 8.78629
-36.4176 -11.9214 0 19.1982
-19.5939 1.09986 0 4.63203
7.55505 16.5255 0 -14.9673
33.2329 22.8266 0 -28.5986
-7.64551 7.52352 0 -5.55085
16.0534 21.2209 0 20.8279
0.234837 16.4871 0 10.1716
-12.7307 5.59556 0 -0.982027
-22.2381 -8.98268 0 -11.928
-19.2775 -0.425779 0 -6.36046
6.89773 17.7694 0 15.2204
-7.68815 10.2849 0 5.31887
-54.1344 -12.3124 0 26.7159
-28.6964 3.95945 0 6.03327
10.8514 23.2698 0 -22.2614
51.3673 30.9142 0 -43.429
19.8915 24.9719 0 -33.4539
-46.7814 0.158791 0 8.96006
-14.2094 13.331 0 -10.6448
-186.319 -13.4515 0 2.70321
-98.1785 7.01064 0 -3.07288
66.6349 -10.6769 0 -46.2207
210.285 7.04099 0 -56.8879
-27.6802 -14.3012 0 -19.3729
-14.5471 9.22693 0 -29.3344
-26.313 12.1418 0 -11.7203
12.5501 31.2018 0 12.4192
29.0452 58.0299 0 12.8676
-1.30951 18.6418 0 18.7399
-14.2091 4.01509 0 5.62476
-6.09414 24.5091 0 -5.664
88.2576 31.7664 0 -57.5752
41.7859 16.0038 0 -37.8319
-67.7065 -8.66189 0 8.52397
-91.2679 -19.7825 0 32.3259
-16.0594 11.0801 0 -13.6168
56.1759 107.685 0 61.0206
16.8026 0.116036 0 58.9564
-44.6407 -0.457029 0 16.948
-77.8872 1.5429 0 -33.8703
29.8324 58.126 0 -26.6876
-7.5483 12.1376 0 -5.11317
-6.17642 12.5217 0 -6.11907
6.36856 13.5977 0 -13.2358
1.01054 18.8129 0 -14.1822
-17.391 8.7876 0 0.522739
-13.3449 3.74538 0 2.58418
-8.53155 14.7844 0 -6.52898
2.45977 6.25755 0 11.5858
-7.25339 11.6109 0 4.6271
-6.97269 12.5846 0 3.99486
-16.0299 2.05258 0 -0.392584
-8.46448 14.9268 0 7.74223
3.19063 11.7637 0 -8.80059
0.316893 14.9633 0 -10.0983
-12.4917 6.27442 0 -0.426958
-8.28487 3.39537 0 -0.328206
-7.60512 13.1287 0 -5.72601
-35.5971 -14.6943 0 -20.5528
-26.5696 -5.0872 0 -9.44107
14.7512 16.2158 0 19.2226
32.3019 24.5855 0 29.5676
-7.18491 8.33213 0 4.67371
50.1499 21.3984 0 -35.0059
24.1045 11.3496 0 -21.2158
-35.4474 -7.07409 0 10.628
-52.0637 -16.2683 0 25.0974
-7.16422 4.92945 0 -5.36782
-81.6392 -16.0526 0 -28.9569
-50.5373 -9.8156 0 -11.5379
40.3157 2.05828 0 19.2877
84.4955 13.3667 0 38.0486
-7.50787 -1.89473 0 4.30486
102.92 3.26348 0 -26.9066
48.1446 -4.11188 0 -11.5574
-57.2529 -8.63042 0 6.62815
-96.9658 -10.196 0 20.3203
-7.28003 -5.21193 0 -3.45952
-131.079 -13.5084 0 33.8854
-62.8586 -24.0188 0 -13.6786
35.7941 -0.375277 0 44.1244
136.899 14.8404 0 -64.5194
-30.178 -5.88095 0 14.6065
17.5935 19.3143 0 -19.8348
68.4103 18.1387 0 -38.5893
114.486 -2.7938 0 -14.2923
101.328 5.36636 0 31.5907
47.9217 25.4979 0 37.1799
5.76394 14.571 0 10.019
-8.82269 3.77956 0 -1.68032
-49.8283 -18.377 0 -27.3805
-95.6665 -11.1938 0 -23.8236
-106.479 -6.46816 0 10.3552
-67.7941 -15.8441 0 28.3251
-21.8259 -5.91777 0 10.872
24.6196 25.5549 0 -27.5661
      </DataArray> 
    </PointData>
    <CellData>
      <DataArray type="Float64" NumberOfComponents="1" Name="Process" format="ascii">
1
1
3
1
3
0
2
2
0
2
0
2
0
2
0
3
1
3
2
0
0
2
2
3
3
1
1
1
0
0
1
1
3
3
3
2
      </DataArray> 
    </CellData>
  </Piece>
  </UnstructuredGrid>
</VTKFile>
