<?xml version="1.0"?>
<VTKFile type="UnstructuredGrid">
  <UnstructuredGrid>
  <Piece NumberOfPoints="12411"  NumberOfCells="1379">
    <Points>
      <DataArray type="Float64" NumberOfComponents="3" format="ascii">
0 0 0
2.52422 -0.00688144 0
2.52981 4.2834 0
0 4.28571 0
1.2615 -0.00429562 0
2.52764 2.1387 0
1.26503 4.28489 0
0 2.14286 0
1.26406 2.14102 0
2.52422 -0.00688144 0
5.05031 -0.0119346 0
5.05893 4.27902 0
2.52981 4.2834 0
3.78725 -0.00931254 0
5.05484 2.13381 0
3.79441 4.28142 0
2.52764 2.1387 0
3.79121 2.13633 0
5.05031 -0.0119346 0
7.57629 -0.0180328 0
7.58797 4.273 0
5.05893 4.27902 0
6.31332 -0.0148045 0
7.58219 2.12769 0
6.32345 4.27622 0
5.05484 2.13381 0
6.3185 2.13095 0
7.57629 -0.0180328 0
10.1022 -0.0258864 0
10.1171 4.26515 0
7.58797 4.273 0
8.83923 -0.0217217 0
10.1096 2.11985 0
8.85251 4.26932 0
7.58219 2.12769 0
8.84591 2.124 0
10.1022 -0.0258864 0
12.628 -0.0356571 0
12.6462 4.25535 0
10.1171 4.26515 0
11.3651 -0.0305255 0
12.6371 2.11006 0
11.3816 4.2605 0
10.1096 2.11985 0
11.3734 2.1152 0
12.628 -0.0356571 0
15.1538 -0.0474544 0
15.1754 4.24352 0
12.6462 4.25535 0
13.8909 -0.0412999 0
15.1646 2.09825 0
13.9108 4.24969 0
12.6371 2.11006 0
13.9009 2.10441 0
15.1538 -0.0474544 0
17.6796 -0.0612927 0
17.7047 4.22964 0
15.1754 4.24352 0
16.4166 -0.0541177 0
17.6921 2.08439 0
16.44 4.23684 0
15.1646 2.09825 0
16.4284 2.09158 0
17.6796 -0.0612927 0
20.2054 -0.077185 0
20.234 4.2137 0
17.7047 4.22964 0
18.9425 -0.0689822 0
20.2197 2.06848 0
18.9693 4.22193 0
17.6921 2.08439 0
18.9559 2.07669 0
20.2054 -0.077185 0
22.7313 -0.095123 0
22.7633 4.19571 0
20.234 4.2137 0
21.4683 -0.0858988 0
22.7473 2.05051 0
21.4986 4.20496 0
20.2197 2.06848 0
21.4835 2.05975 0
22.7313 -0.095123 0
25.2572 -0.115099 0
25.2926 4.17568 0
22.7633 4.19571 0
23.9942 -0.104857 0
25.2749 2.03051 0
24.028 4.18595 0
22.7473 2.05051 0
24.0111 2.04076 0
25.2572 -0.115099 0
27.7831 -0.137102 0
27.822 4.15362 0
25.2926 4.17568 0
26.5201 -0.125848 0
27.8026 2.00847 0
26.5573 4.1649 0
25.2749 2.03051 0
26.5388 2.01974 0
27.7831 -0.137102 0
30.3091 -0.161121 0
30.3514 4.12954 0
27.822 4.15362 0
29.0461 -0.14886 0
30.3303 1.98442 0
29.0867 4.14183 0
27.8026 2.00847 0
29.0665 1.9967 0
30.3091 -0.161121 0
32.8352 -0.187144 0
32.8809 4.10345 0
30.3514 4.12954 0
31.5721 -0.173883 0
32.8581 1.95837 0
31.6162 4.11674 0
30.3303 1.98442 0
31.5942 1.97165 0
32.8352 -0.187144 0
35.3613 -0.215161 0
35.4103 4.07537 0
32.8809 4.10345 0
34.0982 -0.200904 0
35.3859 1.93032 0
34.1456 4.08966 0
32.8581 1.95837 0
34.122 1.94459 0
35.3613 -0.215161 0
37.8874 -0.24516 0
37.9398 4.0453 0
35.4103 4.07537 0
36.6243 -0.229914 0
37.9137 1.90028 0
36.6751 4.06058 0
35.3859 1.93032 0
36.6498 1.91555 0
37.8874 -0.24516 0
40.4136 -0.277131 0
40.4693 4.01326 0
37.9398 4.0453 0
39.1505 -0.2609 0
40.4415 1.86828 0
39.2046 4.02953 0
37.9137 1.90028 0
39.1776 1.88453 0
40.4136 -0.277131 0
42.9398 -0.311062 0
42.9989 3.97926 0
40.4693 4.01326 0
41.6767 -0.293852 0
42.9694 1.83431 0
41.7341 3.9965 0
40.4415 1.86828 0
41.7054 1.85154 0
42.9398 -0.311062 0
45.466 -0.346943 0
45.5284 3.9433 0
42.9989 3.97926 0
44.2029 -0.328759 0
45.4973 1.79839 0
44.2637 3.96152 0
42.9694 1.83431 0
44.2333 1.81659 0
45.466 -0.346943 0
47.9923 -0.384763 0
48.058 3.90541 0
45.5284 3.9433 0
46.7292 -0.365611 0
48.0252 1.76053 0
46.7932 3.9246 0
45.4973 1.79839 0
46.7612 1.7797 0
47.9923 -0.384763 0
50.5187 -0.424511 0
50.5876 3.86558 0
48.058 3.90541 0
49.2555 -0.404397 0
50.5532 1.72074 0
49.3228 3.88573 0
48.0252 1.76053 0
49.2892 1.74088 0
50.5187 -0.424511 0
53.045 -0.466177 0
53.1172 3.82383 0
50.5876 3.86558 0
51.7818 -0.445105 0
53.0811 1.67903 0
51.8524 3.84494 0
50.5532 1.72074 0
51.8172 1.70013 0
53.045 -0.466177 0
55.5714 -0.50975 0
55.6468 3.78018 0
53.1172 3.82383 0
54.3082 -0.487726 0
55.6092 1.63542 0
54.382 3.80224 0
53.0811 1.67903 0
54.3451 1.65746 0
55.5714 -0.50975 0
58.0978 -0.555218 0
58.1764 3.73462 0
55.6468 3.78018 0
56.8346 -0.532248 0
58.1372 1.5899 0
56.9116 3.75763 0
55.6092 1.63542 0
56.8732 1.6129 0
58.0978 -0.555218 0
60.6243 -0.602572 0
60.7061 3.68718 0
58.1764 3.73462 0
59.361 -0.57866 0
60.6652 1.54251 0
59.4413 3.71114 0
58.1372 1.5899 0
59.4012 1.56644 0
60.6243 -0.602572 0
63.1508 -0.6518 0
63.2357 3.63786 0
60.7061 3.68718 0
61.8875 -0.626952 0
63.1933 1.49323 0
61.9709 3.66275 0
60.6652 1.54251 0
61.9293 1.5181 0
63.1508 -0.6518 0
65.6773 -0.702892 0
65.7654 3.58668 0
63.2357 3.63786 0
64.414 -0.677114 0
65.7214 1.44209 0
64.5006 3.6125 0
63.1933 1.49323 0
64.4573 1.46789 0
65.6773 -0.702892 0
68.2038 -0.755836 0
68.2951 3.53364 0
65.7654 3.58668 0
66.9405 -0.729133 0
68.2495 1.3891 0
67.0302 3.56039 0
65.7214 1.44209 0
66.9854 1.41583 0
68.2038 -0.755836 0
70.7304 -0.810623 0
70.8247 3.47876 0
68.2951 3.53364 0
69.4671 -0.783 0
70.7776 1.33427 0
69.5599 3.50643 0
68.2495 1.3891 0
69.5135 1.36191 0
70.7304 -0.810623 0
73.2569 -0.86724 0
73.3544 3.42204 0
70.8247 3.47876 0
71.9936 -0.838703 0
73.3057 1.2776 0
72.0896 3.45063 0
70.7776 1.33427 0
72.0417 1.30616 0
73.2569 -0.86724 0
75.7836 -0.925679 0
75.8841 3.36351 0
73.3544 3.42204 0
74.5202 -0.896233 0
75.8339 1.21911 0
74.6193 3.393 0
73.3057 1.2776 0
74.5698 1.24858 0
75.7836 -0.925679 0
78.3102 -0.985927 0
78.4138 3.30316 0
75.8841 3.36351 0
77.0469 -0.955577 0
78.362 1.15881 0
77.1489 3.33356 0
75.8339 1.21911 0
77.098 1.18918 0
78.3102 -0.985927 0
80.8368 -1.04797 0
80.9435 3.24101 0
78.4138 3.30316 0
79.5735 -1.01673 0
80.8902 1.09671 0
79.6786 3.27231 0
78.362 1.15881 0
79.6261 1.12798 0
80.8368 -1.04797 0
83.3635 -1.11181 0
83.4732 3.17707 0
80.9435 3.24101 0
82.1002 -1.07967 0
83.4184 1.03282 0
82.2083 3.20926 0
80.8902 1.09671 0
82.1543 1.06499 0
83.3635 -1.11181 0
85.8902 -1.17742 0
86.0029 3.11135 0
83.4732 3.17707 0
84.6268 -1.14439 0
85.9466 0.967155 0
84.738 3.14443 0
83.4184 1.03282 0
84.6825 1.00021 0
85.8902 -1.17742 0
88.4169 -1.2448 0
88.5326 3.04387 0
86.0029 3.11135 0
87.1535 -1.21089 0
88.4748 0.899722 0
87.2677 3.07783 0
85.9466 0.967155 0
87.2107 0.933659 0
88.4169 -1.2448 0
90.9436 -1.31393 0
91.0623 2.97462 0
88.5326 3.04387 0
89.6803 -1.27915 0
91.003 0.830531 0
89.7974 3.00946 0
88.4748 0.899722 0
89.7389 0.865345 0
90.9436 -1.31393 0
93.4704 -1.38481 0
93.592 2.90363 0
91.0623 2.97462 0
92.207 -1.34916 0
93.5312 0.759595 0
92.3271 2.93935 0
91.003 0.830531 0
92.2671 0.795281 0
93.4704 -1.38481 0
95.9971 -1.45743 0
96.1216 2.83091 0
93.592 2.90363 0
94.7338 -1.4209 0
96.0594 0.686924 0
94.8568 2.86749 0
93.5312 0.759595 0
94.7953 0.723476 0
95.9971 -1.45743 0
98.5239 -1.53176 0
98.6513 2.75646 0
96.1216 2.83091 0
97.2605 -1.49438 0
98.5877 0.612529 0
97.3865 2.7939 0
96.0594 0.686924 0
97.3236 0.649942 0
98.5239 -1.53176 0
101.051 -1.60781 0
101.181 2.68029 0
98.6513 2.75646 0
99.7873 -1.56958 0
101.116 0.536421 0
99.9162 2.71859 0
98.5877 0.612529 0
99.8518 0.574689 0
101.051 -1.60781 0
103.577 -1.68557 0
103.711 2.60242 0
101.181 2.68029 0
102.314 -1.64648 0
103.644 0.45861 0
102.446 2.64157 0
101.116 0.536421 0
102.38 0.497728 0
103.577 -1.68557 0
106.104 -1.76501 0
106.24 2.52286 0
103.711 2.60242 0
104.841 -1.72508 0
106.172 0.379108 0
104.976 2.56286 0
103.644 0.45861 0
104.908 0.41907 0
106.104 -1.76501 0
108.631 -1.84613 0
108.77 2.44162 0
106.24 2.52286 0
107.368 -1.80536 0
108.701 0.297925 0
107.505 2.48245 0
106.172 0.379108 0
107.437 0.338726 0
108.631 -1.84613 0
111.158 -1.92892 0
111.3 2.35871 0
108.77 2.44162 0
109.895 -1.88732 0
111.229 0.215072 0
110.035 2.40037 0
108.701 0.297925 0
109.965 0.256706 0
111.158 -1.92892 0
113.685 -2.01337 0
113.829 2.27414 0
111.3 2.35871 0
112.421 -1.97094 0
113.757 0.130559 0
112.564 2.31663 0
111.229 0.215072 0
112.493 0.173022 0
113.685 -2.01337 0
116.212 -2.09947 0
116.359 2.18792 0
113.829 2.27414 0
114.948 -2.05622 0
116.285 0.0443983 0
115.094 2.23123 0
113.757 0.130559 0
115.021 0.0876841 0
116.212 -2.09947 0
118.739 -2.18721 0
118.889 2.10006 0
116.359 2.18792 0
117.475 -2.14313 0
118.814 -0.0434001 0
117.624 2.14419 0
116.285 0.0443983 0
117.549 0.000703126 0
118.739 -2.18721 0
121.265 -2.27657 0
121.418 2.01057 0
118.889 2.10006 0
120.002 -2.23168 0
121.342 -0.132825 0
120.153 2.05552 0
118.814 -0.0434001 0
120.078 -0.08791 0
121.265 -2.27657 0
123.792 -2.36755 0
123.948 1.91947 0
121.418 2.01057 0
122.529 -2.32186 0
123.87 -0.223866 0
122.683 1.96522 0
121.342 -0.132825 0
122.606 -0.178145 0
123.792 -2.36755 0
126.319 -2.46013 0
126.477 1.82676 0
123.948 1.91947 0
125.056 -2.41364 0
126.398 -0.316513 0
125.213 1.87332 0
123.87 -0.223866 0
125.134 -0.26999 0
126.319 -2.46013 0
128.846 -2.5543 0
129.007 1.73246 0
126.477 1.82676 0
127.583 -2.50702 0
128.927 -0.410753 0
127.742 1.77981 0
126.398 -0.316513 0
127.662 -0.363434 0
128.846 -2.5543 0
131.373 -2.65006 0
131.537 1.63657 0
129.007 1.73246 0
130.109 -2.60198 0
131.455 -0.506577 0
130.272 1.68471 0
128.927 -0.410753 0
130.191 -0.458468 0
131.373 -2.65006 0
133.9 -2.74739 0
134.066 1.53911 0
131.537 1.63657 0
132.636 -2.69853 0
133.983 -0.603974 0
132.801 1.58804 0
131.455 -0.506577 0
132.719 -0.55508 0
133.9 -2.74739 0
136.427 -2.84628 0
136.596 1.44009 0
134.066 1.53911 0
135.163 -2.79664 0
136.511 -0.702932 0
135.331 1.48979 0
133.983 -0.603974 0
135.247 -0.653259 0
136.427 -2.84628 0
138.954 -2.94673 0
139.125 1.33951 0
136.596 1.44009 0
137.69 -2.89631 0
139.039 -0.803442 0
137.86 1.38999 0
136.511 -0.702932 0
137.775 -0.752994 0
138.954 -2.94673 0
141.481 -3.04871 0
141.655 1.2374 0
139.125 1.33951 0
140.217 -2.99752 0
141.568 -0.905492 0
140.39 1.28865 0
139.039 -0.803442 0
140.304 -0.854275 0
141.481 -3.04871 0
144.007 -3.15222 0
144.184 1.13375 0
141.655 1.2374 0
142.744 -3.10027 0
144.096 -1.00907 0
142.919 1.18577 0
141.568 -0.905492 0
142.832 -0.957091 0
144.007 -3.15222 0
146.534 -3.25725 0
146.714 1.02859 0
144.184 1.13375 0
145.271 -3.20454 0
146.624 -1.11417 0
145.449 1.08136 0
144.096 -1.00907 0
145.36 -1.06143 0
146.534 -3.25725 0
149.061 -3.36378 0
149.243 0.921918 0
146.714 1.02859 0
147.798 -3.31033 0
149.152 -1.22077 0
147.978 0.975441 0
146.624 -1.11417 0
147.888 -1.16728 0
149.061 -3.36378 0
151.588 -3.47182 0
151.773 0.813749 0
149.243 0.921918 0
150.325 -3.41762 0
151.68 -1.32888 0
150.508 0.86802 0
149.152 -1.22077 0
150.416 -1.27464 0
151.588 -3.47182 0
154.115 -3.58134 0
154.302 0.704093 0
151.773 0.813749 0
152.852 -3.52639 0
154.209 -1.43847 0
153.037 0.759106 0
151.68 -1.32888 0
152.945 -1.38349 0
154.115 -3.58134 0
156.642 -3.69233 0
156.831 0.592962 0
154.302 0.704093 0
155.379 -3.63665 0
156.737 -1.54953 0
155.567 0.648711 0
154.209 -1.43847 0
155.473 -1.49381 0
156.642 -3.69233 0
159.169 -3.80479 0
159.361 0.480366 0
156.831 0.592962 0
157.906 -3.74838 0
159.265 -1.66206 0
158.096 0.536846 0
156.737 -1.54953 0
158.001 -1.60561 0
159.169 -3.80479 0
161.696 -3.9187 0
161.89 0.366316 0
159.361 0.480366 0
160.432 -3.86156 0
161.793 -1.77604 0
160.625 0.423522 0
159.265 -1.66206 0
160.529 -1.71887 0
161.696 -3.9187 0
164.223 -4.03406 0
164.419 0.250823 0
161.89 0.366316 0
162.959 -3.9762 0
164.321 -1.89146 0
163.155 0.30875 0
161.793 -1.77604 0
163.057 -1.83357 0
164.223 -4.03406 0
166.75 -4.15084 0
166.949 0.133898 0
164.419 0.250823 0
165.486 -4.09227 0
166.849 -2.00832 0
165.684 0.192539 0
164.321 -1.89146 0
165.585 -1.94971 0
166.75 -4.15084 0
169.277 -4.26905 0
169.478 0.0155515 0
166.949 0.133898 0
168.013 -4.20977 0
169.377 -2.1266 0
168.213 0.0749019 0
166.849 -2.00832 0
168.113 -2.06728 0
169.277 -4.26905 0
171.804 -4.38867 0
172.007 -0.104206 0
169.478 0.0155515 0
170.54 -4.32868 0
171.906 -2.24629 0
170.743 -0.0441514 0
169.377 -2.1266 0
170.641 -2.18627 0
171.804 -4.38867 0
174.33 -4.50968 0
174.537 -0.225363 0
172.007 -0.104206 0
173.067 -4.449 0
174.434 -2.36737 0
173.272 -0.16461 0
171.906 -2.24629 0
173.17 -2.30666 0
174.33 -4.50968 0
176.857 -4.63209 0
177.066 -0.347909 0
174.537 -0.225363 0
175.594 -4.57071 0
176.962 -2.48985 0
175.801 -0.286463 0
174.434 -2.36737 0
175.698 -2.42844 0
176.857 -4.63209 0
179.384 -4.75587 0
179.595 -0.471833 0
177.066 -0.347909 0
178.121 -4.69381 0
179.49 -2.61371 0
178.331 -0.409699 0
176.962 -2.48985 0
178.226 -2.55161 0
179.384 -4.75587 0
181.911 -4.88102 0
182.124 -0.597124 0
179.595 -0.471833 0
180.648 -4.81827 0
182.018 -2.73893 0
180.86 -0.534308 0
179.49 -2.61371 0
180.754 -2.67615 0
181.911 -4.88102 0
184.438 -5.00752 0
184.654 -0.723771 0
182.124 -0.597124 0
183.175 -4.9441 0
184.546 -2.86551 0
183.389 -0.660279 0
182.018 -2.73893 0
183.282 -2.80205 0
184.438 -5.00752 0
186.965 -5.13537 0
187.183 -0.851765 0
184.654 -0.723771 0
185.702 -5.07128 0
187.074 -2.99343 0
185.918 -0.7876 0
184.546 -2.86551 0
185.81 -2.9293 0
186.965 -5.13537 0
189.492 -5.26456 0
189.712 -0.981093 0
187.183 -0.851765 0
188.228 -5.1998 0
189.602 -3.12269 0
188.447 -0.916262 0
187.074 -2.99343 0
188.338 -3.05789 0
189.492 -5.26456 0
192.019 -5.39507 0
192.241 -1.11174 0
189.712 -0.981093 0
190.755 -5.32965 0
192.13 -3.25327 0
190.976 -1.04625 0
189.602 -3.12269 0
190.866 -3.18781 0
192.019 -5.39507 0
194.546 -5.52689 0
194.77 -1.24371 0
192.241 -1.11174 0
193.282 -5.46082 0
194.658 -3.38516 0
193.505 -1.17756 0
192.13 -3.25327 0
193.394 -3.31905 0
194.546 -5.52689 0
197.073 -5.66001 0
197.299 -1.37698 0
194.77 -1.24371 0
195.809 -5.59329 0
197.186 -3.51836 0
196.035 -1.31018 0
194.658 -3.38516 0
195.922 -3.4516 0
197.073 -5.66001 0
199.599 -5.79443 0
199.828 -1.51154 0
197.299 -1.37698 0
198.336 -5.72706 0
199.714 -3.65285 0
198.564 -1.4441 0
197.186 -3.51836 0
198.45 -3.58544 0
199.599 -5.79443 0
202.126 -5.93013 0
202.357 -1.64737 0
199.828 -1.51154 0
200.863 -5.86212 0
202.242 -3.78862 0
201.093 -1.5793 0
199.714 -3.65285 0
200.978 -3.72057 0
202.126 -5.93013 0
204.653 -6.06709 0
204.886 -1.78448 0
202.357 -1.64737 0
203.39 -5.99845 0
204.77 -3.92565 0
203.622 -1.71577 0
202.242 -3.78862 0
203.506 -3.85698 0
204.653 -6.06709 0
207.18 -6.20532 0
207.415 -1.92285 0
204.886 -1.78448 0
205.917 -6.13605 0
207.298 -4.06395 0
206.151 -1.85351 0
204.77 -3.92565 0
206.034 -3.99465 0
207.18 -6.20532 0
209.707 -6.34479 0
209.944 -2.06247 0
207.415 -1.92285 0
208.443 -6.2749 0
209.826 -4.2035 0
208.68 -1.9925 0
207.298 -4.06395 0
208.562 -4.13357 0
209.707 -6.34479 0
212.234 -6.4855 0
212.473 -2.20332 0
209.944 -2.06247 0
210.97 -6.41499 0
212.353 -4.34428 0
211.209 -2.13274 0
209.826 -4.2035 0
211.09 -4.27373 0
212.234 -6.4855 0
214.761 -6.62743 0
215.002 -2.3454 0
212.473 -2.20332 0
213.497 -6.55631 0
214.881 -4.48629 0
213.738 -2.27421 0
212.353 -4.34428 0
213.617 -4.41513 0
214.761 -6.62743 0
217.287 -6.77058 0
217.531 -2.48869 0
215.002 -2.3454 0
216.024 -6.69886 0
217.409 -4.62951 0
216.266 -2.4169 0
214.881 -4.48629 0
216.145 -4.55775 0
217.287 -6.77058 0
219.814 -6.91494 0
220.06 -2.63319 0
217.531 -2.48869 0
218.551 -6.84261 0
219.937 -4.77394 0
218.795 -2.56079 0
217.409 -4.62951 0
218.673 -4.70158 0
219.814 -6.91494 0
222.341 -7.06049 0
222.589 -2.77889 0
220.06 -2.63319 0
221.078 -6.98757 0
222.465 -4.91956 0
221.324 -2.70589 0
219.937 -4.77394 0
221.201 -4.8466 0
222.341 -7.06049 0
224.868 -7.20722 0
225.117 -2.92576 0
222.589 -2.77889 0
223.605 -7.13371 0
224.993 -5.06637 0
223.853 -2.85218 0
222.465 -4.91956 0
223.729 -4.99282 0
224.868 -7.20722 0
227.395 -7.35513 0
227.646 -3.07381 0
225.117 -2.92576 0
226.131 -7.28103 0
227.521 -5.21435 0
226.382 -2.99964 0
224.993 -5.06637 0
226.257 -5.14021 0
227.395 -7.35513 0
229.922 -7.5042 0
230.175 -3.22302 0
227.646 -3.07381 0
228.658 -7.42952 0
230.048 -5.36349 0
228.911 -3.14827 0
227.521 -5.21435 0
228.785 -5.28878 0
229.922 -7.5042 0
232.449 -7.65442 0
232.704 -3.37338 0
230.175 -3.22302 0
231.185 -7.57916 0
232.576 -5.51378 0
231.439 -3.29806 0
230.048 -5.36349 0
231.312 -5.43849 0
232.449 -7.65442 0
234.975 -7.80577 0
235.233 -3.52489 0
232.704 -3.37338 0
233.712 -7.72995 0
235.104 -5.66521 0
233.968 -3.44899 0
232.576 -5.51378 0
233.84 -5.58935 0
234.975 -7.80577 0
237.502 -7.95826 0
237.761 -3.67752 0
235.233 -3.52489 0
236.239 -7.88188 0
237.632 -5.81777 0
236.497 -3.60106 0
235.104 -5.66521 0
236.368 -5.74135 0
237.502 -7.95826 0
240.029 -8.11187 0
240.29 -3.83126 0
237.761 -3.67752 0
238.766 -8.03493 0
240.16 -5.97145 0
239.026 -3.75425 0
237.632 -5.81777 0
238.896 -5.89447 0
240.029 -8.11187 0
242.556 -8.26658 0
242.819 -3.98612 0
240.29 -3.83126 0
241.292 -8.18909 0
242.687 -6.12623 0
241.554 -3.90855 0
240.16 -5.97145 0
241.423 -6.0487 0
242.556 -8.26658 0
245.083 -8.42239 0
245.347 -4.14207 0
242.819 -3.98612 0
243.819 -8.34435 0
245.215 -6.28212 0
244.083 -4.06396 0
242.687 -6.12623 0
243.951 -6.20404 0
245.083 -8.42239 0
247.609 -8.57929 0
247.876 -4.29911 0
245.347 -4.14207 0
246.346 -8.5007 0
247.743 -6.43908 0
246.612 -4.22045 0
245.215 -6.28212 0
246.479 -6.36047 0
247.609 -8.57929 0
250.136 -8.73726 0
250.405 -4.45722 0
247.876 -4.29911 0
248.873 -8.65814 0
250.27 -6.59713 0
249.14 -4.37803 0
247.743 -6.43908 0
249.007 -6.51797 0
250.136 -8.73726 0
252.663 -8.89629 0
252.933 -4.61639 0
250.405 -4.45722 0
251.4 -8.81664 0
252.798 -6.75623 0
251.669 -4.53667 0
250.27 -6.59713 0
251.534 -6.67655 0
252.663 -8.89629 0
255.19 -9.05638 0
255.462 -4.77662 0
252.933 -4.61639 0
253.926 -8.97621 0
255.326 -6.91639 0
254.197 -4.69638 0
252.798 -6.75623 0
254.062 -6.83618 0
255.19 -9.05638 0
257.717 -9.21751 0
257.99 -4.93789 0
255.462 -4.77662 0
256.453 -9.13682 0
257.854 -7.0776 0
256.726 -4.85713 0
255.326 -6.91639 0
256.59 -6.99687 0
257.717 -9.21751 0
260.243 -9.37968 0
260.519 -5.1002 0
257.99 -4.93789 0
258.98 -9.29847 0
260.381 -7.23983 0
259.255 -5.01892 0
257.854 -7.0776 0
259.117 -7.15859 0
260.243 -9.37968 0
262.77 -9.54286 0
263.047 -5.26352 0
260.519 -5.1002 0
261.507 -9.46114 0
262.909 -7.40309 0
261.783 -5.18173 0
260.381 -7.23983 0
261.645 -7.32133 0
262.77 -9.54286 0
265.297 -9.70706 0
265.576 -5.42785 0
263.047 -5.26352 0
264.034 -9.62483 0
265.437 -7.56735 0
264.312 -5.34556 0
262.909 -7.40309 0
264.173 -7.48509 0
265.297 -9.70706 0
267.824 -9.87225 0
268.104 -5.59319 0
265.576 -5.42785 0
266.561 -9.78953 0
267.964 -7.73262 0
266.84 -5.51039 0
265.437 -7.56735 0
266.7 -7.64986 0
267.824 -9.87225 0
270.351 -10.0384 0
270.633 -5.75951 0
268.104 -5.59319 0
269.087 -9.95522 0
270.492 -7.89887 0
269.369 -5.67622 0
267.964 -7.73262 0
269.228 -7.81562 0
270.351 -10.0384 0
272.878 -10.2056 0
273.161 -5.9268 0
270.633 -5.75951 0
271.614 -10.1219 0
273.019 -8.0661 0
271.897 -5.84303 0
270.492 -7.89887 0
271.756 -7.98236 0
272.878 -10.2056 0
275.404 -10.3737 0
275.69 -6.09507 0
273.161 -5.9268 0
274.141 -10.2895 0
275.547 -8.2343 0
274.425 -6.01081 0
273.019 -8.0661 0
274.283 -8.15008 0
275.404 -10.3737 0
277.931 -10.5428 0
278.218 -6.26429 0
275.69 -6.09507 0
276.668 -10.4581 0
278.075 -8.40345 0
276.954 -6.17956 0
275.547 -8.2343 0
276.811 -8.31876 0
277.931 -10.5428 0
280.458 -10.7128 0
280.746 -6.43445 0
278.218 -6.26429 0
279.195 -10.6277 0
280.602 -8.57355 0
279.482 -6.34925 0
278.075 -8.40345 0
279.338 -8.48838 0
280.458 -10.7128 0
282.985 -10.8838 0
283.275 -6.60555 0
280.746 -6.43445 0
281.721 -10.7982 0
283.13 -8.74458 0
282.011 -6.51988 0
280.602 -8.57355 0
281.866 -8.65895 0
282.985 -10.8838 0
285.512 -11.0557 0
285.803 -6.77757 0
283.275 -6.60555 0
284.248 -10.9696 0
285.657 -8.91654 0
284.539 -6.69145 0
283.13 -8.74458 0
284.394 -8.83045 0
285.512 -11.0557 0
288.038 -11.2285 0
288.331 -6.95051 0
285.803 -6.77757 0
286.775 -11.142 0
288.185 -9.08941 0
287.067 -6.86393 0
285.657 -8.91654 0
286.921 -9.00286 0
288.038 -11.2285 0
290.565 -11.4022 0
290.86 -7.12434 0
288.331 -6.95051 0
289.302 -11.3152 0
290.713 -9.26318 0
289.596 -7.03731 0
288.185 -9.08941 0
289.449 -9.17618 0
290.565 -11.4022 0
293.092 -11.5768 0
293.388 -7.29907 0
290.86 -7.12434 0
291.829 -11.4894 0
293.24 -9.43784 0
292.124 -7.21159 0
290.713 -9.26318 0
291.976 -9.3504 0
293.092 -11.5768 0
295.619 -11.7523 0
295.916 -7.47468 0
293.388 -7.29907 0
294.355 -11.6644 0
295.768 -9.61338 0
294.652 -7.38676 0
293.24 -9.43784 0
294.504 -9.5255 0
295.619 -11.7523 0
298.146 -11.9286 0
298.445 -7.65115 0
295.916 -7.47468 0
296.882 -11.8403 0
298.295 -9.7898 0
297.181 -7.56281 0
295.768 -9.61338 0
297.031 -9.70148 0
298.146 -11.9286 0
300.672 -12.1058 0
300.973 -7.82848 0
298.445 -7.65115 0
299.409 -12.0171 0
300.823 -9.96707 0
299.709 -7.73971 0
298.295 -9.7898 0
299.559 -9.87833 0
300.672 -12.1058 0
303.199 -12.2839 0
303.501 -8.00667 0
300.973 -7.82848 0
301.936 -12.1947 0
303.35 -10.1452 0
302.237 -7.91747 0
300.823 -9.96707 0
302.087 -10.056 0
303.199 -12.2839 0
305.726 -12.4628 0
306.029 -8.18568 0
303.501 -8.00667 0
304.463 -12.3732 0
305.878 -10.3241 0
304.765 -8.09607 0
303.35 -10.1452 0
304.614 -10.2346 0
305.726 -12.4628 0
308.253 -12.6425 0
308.558 -8.36553 0
306.029 -8.18568 0
306.99 -12.5525 0
308.405 -10.5039 0
307.294 -8.2755 0
305.878 -10.3241 0
307.142 -10.4139 0
308.253 -12.6425 0
310.78 -12.823 0
311.086 -8.54619 0
308.558 -8.36553 0
309.516 -12.7327 0
310.933 -10.6845 0
309.822 -8.45576 0
308.405 -10.5039 0
309.669 -10.5941 0
310.78 -12.823 0
313.307 -13.0044 0
313.614 -8.72765 0
311.086 -8.54619 0
312.043 -12.9136 0
313.46 -10.8659 0
312.35 -8.63682 0
310.933 -10.6845 0
312.197 -10.7751 0
313.307 -13.0044 0
315.834 -13.1865 0
316.142 -8.90991 0
313.614 -8.72765 0
314.57 -13.0953 0
315.988 -11.0481 0
314.878 -8.81868 0
313.46 -10.8659 0
314.724 -10.9569 0
315.834 -13.1865 0
318.36 -13.3694 0
318.67 -9.09295 0
316.142 -8.90991 0
317.097 -13.2779 0
318.515 -11.2311 0
317.406 -9.00133 0
315.988 -11.0481 0
317.252 -11.1395 0
318.36 -13.3694 0
320.887 -13.5531 0
321.199 -9.27676 0
318.67 -9.09295 0
319.624 -13.4612 0
321.043 -11.4148 0
319.935 -9.18476 0
318.515 -11.2311 0
319.779 -11.3229 0
320.887 -13.5531 0
323.414 -13.7375 0
323.727 -9.46133 0
321.199 -9.27676 0
322.151 -13.6452 0
323.571 -11.5994 0
322.463 -9.36895 0
321.043 -11.4148 0
322.307 -11.507 0
323.414 -13.7375 0
325.941 -13.9228 0
326.255 -9.64665 0
323.727 -9.46133 0
324.678 -13.8301 0
326.098 -11.7846 0
324.991 -9.5539 0
323.571 -11.5994 0
324.834 -11.6919 0
325.941 -13.9228 0
328.468 -14.1087 0
328.783 -9.83271 0
326.255 -9.64665 0
327.205 -14.0156 0
328.626 -11.9706 0
327.519 -9.73959 0
326.098 -11.7846 0
327.362 -11.8775 0
328.468 -14.1087 0
330.995 -14.2954 0
331.311 -10.0195 0
328.783 -9.83271 0
329.731 -14.2019 0
331.153 -12.1574 0
330.047 -9.92602 0
328.626 -11.9706 0
329.889 -12.0639 0
330.995 -14.2954 0
333.522 -14.4828 0
333.839 -10.207 0
331.311 -10.0195 0
332.258 -14.389 0
333.681 -12.3448 0
332.575 -10.1132 0
331.153 -12.1574 0
332.417 -12.251 0
333.522 -14.4828 0
336.049 -14.6709 0
336.367 -10.3952 0
333.839 -10.207 0
334.785 -14.5767 0
336.208 -12.533 0
335.103 -10.301 0
333.681 -12.3448 0
334.944 -12.4388 0
336.049 -14.6709 0
338.576 -14.8597 0
338.896 -10.5841 0
336.367 -10.3952 0
337.312 -14.7652 0
338.736 -12.7218 0
337.632 -10.4896 0
336.208 -12.533 0
337.472 -12.6273 0
338.576 -14.8597 0
341.103 -15.0491 0
341.424 -10.7737 0
338.896 -10.5841 0
339.839 -14.9543 0
341.263 -12.9114 0
340.16 -10.6788 0
338.736 -12.7218 0
339.999 -12.8165 0
341.103 -15.0491 0
343.63 -15.2393 0
343.952 -10.964 0
341.424 -10.7737 0
342.366 -15.1441 0
343.791 -13.1016 0
342.688 -10.8688 0
341.263 -12.9114 0
342.527 -13.0064 0
343.63 -15.2393 0
346.157 -15.4301 0
346.48 -11.1549 0
343.952 -10.964 0
344.893 -15.3346 0
346.318 -13.2925 0
345.216 -11.0594 0
343.791 -13.1016 0
345.055 -13.1969 0
346.157 -15.4301 0
348.684 -15.6216 0
349.008 -11.3465 0
346.48 -11.1549 0
347.42 -15.5258 0
348.846 -13.484 0
347.744 -11.2506 0
346.318 -13.2925 0
347.582 -13.3881 0
348.684 -15.6216 0
351.211 -15.8137 0
351.536 -11.5387 0
349.008 -11.3465 0
349.947 -15.7176 0
351.373 -13.6762 0
350.272 -11.4425 0
348.846 -13.484 0
350.11 -13.58 0
351.211 -15.8137 0
353.738 -16.0065 0
354.064 -11.7316 0
351.536 -11.5387 0
352.474 -15.91 0
353.901 -13.869 0
352.8 -11.6351 0
351.373 -13.6762 0
352.637 -13.7725 0
353.738 -16.0065 0
356.265 -16.1998 0
356.592 -11.9251 0
354.064 -11.7316 0
355.001 -16.1031 0
356.429 -14.0624 0
355.328 -11.8283 0
353.901 -13.869 0
355.165 -13.9656 0
356.265 -16.1998 0
358.792 -16.3938 0
359.12 -12.1192 0
356.592 -11.9251 0
357.528 -16.2967 0
358.956 -14.2564 0
357.856 -12.022 0
356.429 -14.0624 0
357.692 -14.1593 0
358.792 -16.3938 0
361.319 -16.5884 0
361.648 -12.3139 0
359.12 -12.1192 0
360.055 -16.491 0
361.484 -14.4511 0
360.384 -12.2164 0
358.956 -14.2564 0
360.22 -14.3537 0
361.319 -16.5884 0
363.846 -16.7836 0
364.177 -12.5091 0
361.648 -12.3139 0
362.583 -16.6859 0
364.011 -14.6463 0
362.913 -12.4114 0
361.484 -14.4511 0
362.748 -14.5486 0
363.846 -16.7836 0
366.373 -16.9793 0
366.705 -12.705 0
364.177 -12.5091 0
365.11 -16.8814 0
366.539 -14.8421 0
365.441 -12.607 0
364.011 -14.6463 0
365.275 -14.7441 0
366.373 -16.9793 0
368.9 -17.1756 0
369.233 -12.9014 0
366.705 -12.705 0
367.637 -17.0774 0
369.067 -15.0385 0
367.969 -12.8031 0
366.539 -14.8421 0
367.803 -14.9402 0
368.9 -17.1756 0
371.428 -17.3725 0
371.761 -13.0984 0
369.233 -12.9014 0
370.164 -17.274 0
371.594 -15.2354 0
370.497 -12.9998 0
369.067 -15.0385 0
370.33 -15.1369 0
371.428 -17.3725 0
373.955 -17.5699 0
374.289 -13.2959 0
371.761 -13.0984 0
372.691 -17.4712 0
374.122 -15.4329 0
373.025 -13.1971 0
371.594 -15.2354 0
372.858 -15.3341 0
373.955 -17.5699 0
376.482 -17.7679 0
376.817 -13.4939 0
374.289 -13.2959 0
375.218 -17.6688 0
376.65 -15.6309 0
375.553 -13.3949 0
374.122 -15.4329 0
375.386 -15.5318 0
376.482 -17.7679 0
379.009 -17.9664 0
379.345 -13.6925 0
376.817 -13.4939 0
377.746 -17.8671 0
379.177 -15.8294 0
378.081 -13.5932 0
376.65 -15.6309 0
377.913 -15.7301 0
379.009 -17.9664 0
381.537 -18.1654 0
381.873 -13.8916 0
379.345 -13.6925 0
380.273 -18.0658 0
381.705 -16.0284 0
380.609 -13.792 0
379.177 -15.8294 0
380.441 -15.9288 0
381.537 -18.1654 0
384.064 -18.3649 0
384.401 -14.0912 0
381.873 -13.8916 0
382.8 -18.265 0
384.233 -16.228 0
383.137 -13.9913 0
381.705 -16.0284 0
382.969 -16.1281 0
384.064 -18.3649 0
386.591 -18.5648 0
386.93 -14.2913 0
384.401 -14.0912 0
385.328 -18.4648 0
386.76 -16.428 0
385.665 -14.1912 0
384.233 -16.228 0
385.497 -16.3279 0
386.591 -18.5648 0
389.119 -18.7653 0
389.458 -14.4918 0
386.93 -14.2913 0
387.855 -18.665 0
389.288 -16.6285 0
388.194 -14.3915 0
386.76 -16.428 0
388.024 -16.5282 0
389.119 -18.7653 0
391.646 -18.9662 0
391.986 -14.6929 0
389.458 -14.4918 0
390.382 -18.8657 0
391.816 -16.8295 0
390.722 -14.5923 0
389.288 -16.6285 0
390.552 -16.729 0
391.646 -18.9662 0
394.173 -19.1676 0
394.514 -14.8944 0
391.986 -14.6929 0
392.91 -19.0669 0
394.344 -17.031 0
393.25 -14.7936 0
391.816 -16.8295 0
393.08 -16.9302 0
394.173 -19.1676 0
396.701 -19.3695 0
397.042 -15.0963 0
394.514 -14.8944 0
395.437 -19.2685 0
396.872 -17.2328 0
395.778 -14.9953 0
394.344 -17.031 0
395.608 -17.1318 0
396.701 -19.3695 0
399.228 -19.5718 0
399.57 -15.2987 0
397.042 -15.0963 0
397.964 -19.4706 0
399.399 -17.4352 0
398.306 -15.1974 0
396.872 -17.2328 0
398.135 -17.334 0
399.228 -19.5718 0
401.756 -19.7745 0
402.099 -15.5015 0
399.57 -15.2987 0
400.492 -19.6731 0
401.927 -17.6379 0
400.834 -15.4 0
399.399 -17.4352 0
400.663 -17.5365 0
401.756 -19.7745 0
404.283 -19.9776 0
404.627 -15.7047 0
402.099 -15.5015 0
403.019 -19.876 0
404.455 -17.8411 0
403.363 -15.603 0
401.927 -17.6379 0
403.191 -17.7395 0
404.283 -19.9776 0
406.811 -20.1811 0
407.155 -15.9083 0
404.627 -15.7047 0
405.547 -20.0793 0
406.983 -18.0447 0
405.891 -15.8064 0
404.455 -17.8411 0
405.719 -17.9428 0
406.811 -20.1811 0
409.338 -20.3851 0
409.683 -16.1123 0
407.155 -15.9083 0
408.075 -20.2831 0
409.511 -18.2486 0
408.419 -16.0102 0
406.983 -18.0447 0
408.247 -18.1466 0
409.338 -20.3851 0
411.866 -20.5894 0
412.211 -16.3167 0
409.683 -16.1123 0
410.602 -20.4872 0
412.039 -18.453 0
410.947 -16.2144 0
409.511 -18.2486 0
410.775 -18.3508 0
411.866 -20.5894 0
414.394 -20.7941 0
414.74 -16.5214 0
412.211 -16.3167 0
413.13 -20.6917 0
414.567 -18.6577 0
413.476 -16.419 0
412.039 -18.453 0
413.303 -18.5553 0
414.394 -20.7941 0
416.921 -20.9991 0
417.268 -16.7266 0
414.74 -16.5214 0
415.657 -20.8965 0
417.095 -18.8628 0
416.004 -16.624 0
414.567 -18.6577 0
415.831 -18.7602 0
416.921 -20.9991 0
419.449 -21.2045 0
419.796 -16.932 0
417.268 -16.7266 0
418.185 -21.1018 0
419.623 -19.0682 0
418.532 -16.8293 0
417.095 -18.8628 0
418.359 -18.9655 0
419.449 -21.2045 0
421.977 -21.4103 0
422.325 -17.1378 0
419.796 -16.932 0
420.713 -21.3073 0
422.151 -19.274 0
421.06 -17.0349 0
419.623 -19.0682 0
420.887 -19.1711 0
421.977 -21.4103 0
424.505 -21.6163 0
424.853 -17.344 0
422.325 -17.1378 0
423.241 -21.5132 0
424.679 -19.4801 0
423.589 -17.2409 0
422.151 -19.274 0
423.415 -19.377 0
424.505 -21.6163 0
427.032 -21.8227 0
427.381 -17.5504 0
424.853 -17.344 0
425.769 -21.7195 0
427.207 -19.6865 0
426.117 -17.4472 0
424.679 -19.4801 0
425.943 -19.5833 0
427.032 -21.8227 0
429.56 -22.0294 0
429.91 -17.7572 0
427.381 -17.5504 0
428.296 -21.926 0
429.735 -19.8933 0
428.646 -17.6538 0
427.207 -19.6865 0
428.471 -19.7899 0
429.56 -22.0294 0
432.088 -22.2364 0
432.438 -17.9643 0
429.91 -17.7572 0
430.824 -22.1329 0
432.263 -20.1003 0
431.174 -17.8607 0
429.735 -19.8933 0
430.999 -19.9968 0
432.088 -22.2364 0
434.616 -22.4437 0
434.967 -18.1716 0
432.438 -17.9643 0
433.352 -22.34 0
434.791 -20.3076 0
433.702 -18.0679 0
432.263 -20.1003 0
433.527 -20.2039 0
434.616 -22.4437 0
437.144 -22.6512 0
437.495 -18.3792 0
434.967 -18.1716 0
435.88 -22.5474 0
437.32 -20.5152 0
436.231 -18.2754 0
434.791 -20.3076 0
436.056 -20.4114 0
437.144 -22.6512 0
439.672 -22.859 0
440.023 -18.5871 0
437.495 -18.3792 0
438.408 -22.7551 0
439.848 -20.7231 0
438.759 -18.4831 0
437.32 -20.5152 0
438.584 -20.6191 0
439.672 -22.859 0
442.2 -23.0671 0
442.552 -18.7952 0
440.023 -18.5871 0
440.936 -22.9631 0
442.376 -20.9312 0
441.288 -18.6911 0
439.848 -20.7231 0
441.112 -20.8271 0
442.2 -23.0671 0
444.728 -23.2754 0
445.08 -19.0036 0
442.552 -18.7952 0
443.464 -23.1713 0
444.905 -21.1395 0
443.816 -18.8994 0
442.376 -20.9312 0
443.64 -21.0353 0
444.728 -23.2754 0
447.257 -23.484 0
447.609 -19.2122 0
445.08 -19.0036 0
445.993 -23.3797 0
447.433 -21.3481 0
446.345 -19.1079 0
444.905 -21.1395 0
446.169 -21.2438 0
447.257 -23.484 0
449.785 -23.6928 0
450.138 -19.4211 0
447.609 -19.2122 0
448.521 -23.5883 0
449.961 -21.5569 0
448.873 -19.3166 0
447.433 -21.3481 0
448.697 -21.4525 0
449.785 -23.6928 0
452.313 -23.9017 0
452.666 -19.6301 0
450.138 -19.4211 0
451.049 -23.7972 0
452.49 -21.7659 0
451.402 -19.5256 0
449.961 -21.5569 0
451.226 -21.6614 0
452.313 -23.9017 0
454.841 -24.1109 0
455.195 -19.8393 0
452.666 -19.6301 0
453.577 -24.0063 0
455.018 -21.9751 0
453.931 -19.7347 0
452.49 -21.7659 0
453.754 -21.8705 0
454.841 -24.1109 0
457.37 -24.3203 0
457.724 -20.0488 0
455.195 -19.8393 0
456.106 -24.2156 0
457.547 -22.1845 0
456.459 -19.944 0
455.018 -21.9751 0
456.282 -22.0798 0
457.37 -24.3203 0
459.898 -24.5298 0
460.252 -20.2584 0
457.724 -20.0488 0
458.634 -24.4251 0
460.075 -22.3941 0
458.988 -20.1535 0
457.547 -22.1845 0
458.811 -22.2893 0
459.898 -24.5298 0
462.427 -24.7396 0
462.781 -20.4681 0
460.252 -20.2584 0
461.162 -24.6347 0
462.604 -22.6038 0
461.517 -20.3632 0
460.075 -22.3941 0
461.34 -22.4989 0
462.427 -24.7396 0
464.955 -24.9494 0
465.31 -20.6781 0
462.781 -20.4681 0
463.691 -24.8445 0
465.133 -22.8137 0
464.045 -20.5731 0
462.604 -22.6038 0
463.868 -22.7088 0
464.955 -24.9494 0
467.484 -25.1595 0
467.839 -20.8881 0
465.31 -20.6781 0
466.22 -25.0544 0
467.661 -23.0238 0
466.574 -20.7831 0
465.133 -22.8137 0
466.397 -22.9187 0
467.484 -25.1595 0
470.012 -25.3696 0
470.367 -21.0983 0
467.839 -20.8881 0
468.748 -25.2645 0
470.19 -23.234 0
469.103 -20.9932 0
467.661 -23.0238 0
468.926 -23.1289 0
470.012 -25.3696 0
472.541 -25.5799 0
472.896 -21.3086 0
470.367 -21.0983 0
471.277 -25.4747 0
472.719 -23.4443 0
471.632 -21.2035 0
470.19 -23.234 0
471.454 -23.3391 0
472.541 -25.5799 0
475.07 -25.7903 0
475.425 -21.5191 0
472.896 -21.3086 0
473.805 -25.6851 0
475.248 -23.6547 0
474.161 -21.4138 0
472.719 -23.4443 0
473.983 -23.5495 0
475.07 -25.7903 0
477.599 -26.0008 0
477.954 -21.7296 0
475.425 -21.5191 0
476.334 -25.8955 0
477.776 -23.8652 0
476.69 -21.6243 0
475.248 -23.6547 0
476.512 -23.7599 0
477.599 -26.0008 0
480.127 -26.2114 0
480.483 -21.9402 0
477.954 -21.7296 0
478.863 -26.1061 0
480.305 -24.0758 0
479.219 -21.8349 0
477.776 -23.8652 0
479.041 -23.9705 0
480.127 -26.2114 0
482.656 -26.422 0
483.012 -22.1509 0
480.483 -21.9402 0
481.392 -26.3167 0
482.834 -24.2865 0
481.748 -22.0456 0
480.305 -24.0758 0
481.57 -24.1811 0
482.656 -26.422 0
485.185 -26.6328 0
485.541 -22.3617 0
483.012 -22.1509 0
483.921 -26.5274 0
485.363 -24.4972 0
484.277 -22.2563 0
482.834 -24.2865 0
484.099 -24.3919 0
485.185 -26.6328 0
487.714 -26.8436 0
488.07 -22.5726 0
485.541 -22.3617 0
486.45 -26.7382 0
487.892 -24.7081 0
486.806 -22.4671 0
485.363 -24.4972 0
486.628 -24.6026 0
487.714 -26.8436 0
490.243 -27.0544 0
490.599 -22.7835 0
488.07 -22.5726 0
488.979 -26.949 0
490.421 -24.9189 0
489.335 -22.678 0
487.892 -24.7081 0
489.157 -24.8135 0
490.243 -27.0544 0
492.772 -27.2654 0
493.129 -22.9944 0
490.599 -22.7835 0
491.508 -27.1599 0
492.951 -25.1299 0
491.864 -22.8889 0
490.421 -24.9189 0
491.686 -25.0244 0
492.772 -27.2654 0
495.301 -27.4765 0
495.658 -23.2056 0
493.129 -22.9944 0
494.037 -27.3709 0
495.48 -25.3411 0
494.393 -23.1 0
492.951 -25.1299 0
494.215 -25.2355 0
495.301 -27.4765 0
497.83 -27.6885 0
498.187 -23.4168 0
495.658 -23.2056 0
496.566 -27.5823 0
498.009 -25.5526 0
496.923 -23.3112 0
495.48 -25.3411 0
496.744 -25.4468 0
0 4.28571 0
2.52981 4.2834 0
2.53326 8.57095 0
0 8.57143 0
1.26503 4.28489 0
2.5316 6.4274 0
1.2667 8.57158 0
0 6.42857 0
1.26585 6.42833 0
2.52981 4.2834 0
5.05893 4.27902 0
5.06614 8.56773 0
2.53326 8.57095 0
3.79441 4.28142 0
5.06266 6.42364 0
3.79973 8.56965 0
2.5316 6.4274 0
3.79718 6.42581 0
5.05893 4.27902 0
7.58797 4.273 0
7.59881 8.56216 0
5.06614 8.56773 0
6.32345 4.27622 0
7.5935 6.41783 0
6.3325 8.56523 0
5.06266 6.42364 0
6.32809 6.42097 0
7.58797 4.273 0
10.1171 4.26515 0
10.1314 8.55445 0
7.59881 8.56216 0
8.85251 4.26932 0
10.1243 6.41003 0
8.86513 8.55857 0
7.5935 6.41783 0
8.85891 6.41418 0
10.1171 4.26515 0
12.6462 4.25535 0
12.6641 8.54464 0
10.1314 8.55445 0
11.3816 4.2605 0
12.6552 6.40022 0
11.3978 8.5498 0
10.1243 6.41003 0
11.3898 6.40538 0
12.6462 4.25535 0
15.1754 4.24352 0
15.1968 8.53277 0
12.6641 8.54464 0
13.9108 4.24969 0
15.1861 6.38836 0
13.9304 8.53896 0
12.6552 6.40022 0
13.9207 6.39455 0
15.1754 4.24352 0
17.7047 4.22964 0
17.7295 8.51883 0
15.1968 8.53277 0
16.44 4.23684 0
17.7171 6.37445 0
16.4631 8.52606 0
15.1861 6.38836 0
16.4516 6.38167 0
17.7047 4.22964 0
20.234 4.2137 0
20.2622 8.50284 0
17.7295 8.51883 0
18.9693 4.22193 0
20.2481 6.35849 0
18.9958 8.51109 0
17.7171 6.37445 0
18.9826 6.36673 0
20.234 4.2137 0
22.7633 4.19571 0
22.795 8.48479 0
20.2622 8.50284 0
21.4986 4.20496 0
22.7792 6.34047 0
21.5286 8.49407 0
20.2481 6.35849 0
21.5136 6.34973 0
22.7633 4.19571 0
25.2926 4.17568 0
25.3278 8.46471 0
22.795 8.48479 0
24.028 4.18595 0
25.3103 6.32041 0
24.0614 8.47501 0
22.7792 6.34047 0
24.0447 6.33069 0
25.2926 4.17568 0
27.822 4.15362 0
27.8606 8.4426 0
25.3278 8.46471 0
26.5573 4.1649 0
27.8413 6.29832 0
26.5942 8.45391 0
25.3103 6.32041 0
26.5758 6.30962 0
27.822 4.15362 0
30.3514 4.12954 0
30.3934 8.41847 0
27.8606 8.4426 0
29.0867 4.14183 0
30.3725 6.27422 0
29.127 8.43078 0
27.8413 6.29832 0
29.1069 6.28652 0
30.3514 4.12954 0
32.8809 4.10345 0
32.9263 8.39233 0
30.3934 8.41847 0
31.6162 4.11674 0
32.9036 6.2481 0
31.6598 8.40565 0
30.3725 6.27422 0
31.638 6.26141 0
32.8809 4.10345 0
35.4103 4.07537 0
35.4591 8.36419 0
32.9263 8.39233 0
34.1456 4.08966 0
35.4348 6.21999 0
34.1927 8.37851 0
32.9036 6.2481 0
34.1692 6.2343 0
35.4103 4.07537 0
37.9398 4.0453 0
37.9919 8.33406 0
35.4591 8.36419 0
36.6751 4.06058 0
37.9659 6.1899 0
36.7255 8.34937 0
35.4348 6.21999 0
36.7003 6.20519 0
37.9398 4.0453 0
40.4693 4.01326 0
40.5248 8.30196 0
37.9919 8.33406 0
39.2046 4.02953 0
40.4971 6.15782 0
39.2584 8.31826 0
37.9659 6.1899 0
39.2315 6.17411 0
40.4693 4.01326 0
42.9989 3.97926 0
43.0576 8.2679 0
40.5248 8.30196 0
41.7341 3.9965 0
43.0283 6.12379 0
41.7912 8.28517 0
40.4971 6.15782 0
41.7627 6.14105 0
42.9989 3.97926 0
45.5284 3.9433 0
45.5905 8.23188 0
43.0576 8.2679 0
44.2637 3.96152 0
45.5595 6.0878 0
44.3241 8.25013 0
43.0283 6.12379 0
44.2939 6.10604 0
45.5284 3.9433 0
48.058 3.90541 0
48.1233 8.19391 0
45.5905 8.23188 0
46.7932 3.9246 0
48.0907 6.04987 0
46.8569 8.21314 0
45.5595 6.0878 0
46.8251 6.06907 0
48.058 3.90541 0
50.5876 3.86558 0
50.6562 8.15402 0
48.1233 8.19391 0
49.3228 3.88573 0
50.6219 6.01 0
49.3898 8.1742 0
48.0907 6.04987 0
49.3563 6.03018 0
50.5876 3.86558 0
53.1172 3.82383 0
53.189 8.1122 0
50.6562 8.15402 0
51.8524 3.84494 0
53.1532 5.96822 0
51.9226 8.13335 0
50.6219 6.01 0
51.8875 5.98935 0
53.1172 3.82383 0
55.6468 3.78018 0
55.7219 8.06847 0
53.189 8.1122 0
54.382 3.80224 0
55.6844 5.92452 0
54.4555 8.09057 0
53.1532 5.96822 0
54.4188 5.94661 0
55.6468 3.78018 0
58.1764 3.73462 0
58.2547 8.02284 0
55.7219 8.06847 0
56.9116 3.75763 0
58.2156 5.87893 0
56.9883 8.04589 0
55.6844 5.92452 0
56.95 5.90197 0
58.1764 3.73462 0
60.7061 3.68718 0
60.7876 7.97532 0
58.2547 8.02284 0
59.4413 3.71114 0
60.7468 5.83145 0
59.5211 7.99931 0
58.2156 5.87893 0
59.4812 5.85543 0
60.7061 3.68718 0
63.2357 3.63786 0
63.3204 7.92592 0
60.7876 7.97532 0
61.9709 3.66275 0
63.2781 5.78209 0
62.054 7.95085 0
60.7468 5.83145 0
62.0125 5.80701 0
63.2357 3.63786 0
65.7654 3.58668 0
65.8532 7.87466 0
63.3204 7.92592 0
64.5006 3.6125 0
65.8093 5.73087 0
64.5868 7.90052 0
63.2781 5.78209 0
64.5437 5.75671 0
65.7654 3.58668 0
68.2951 3.53364 0
68.386 7.82153 0
65.8532 7.87466 0
67.0302 3.56039 0
68.3406 5.67779 0
67.1196 7.84833 0
65.8093 5.73087 0
67.0749 5.70456 0
68.2951 3.53364 0
70.8247 3.47876 0
70.9188 7.76657 0
68.386 7.82153 0
69.5599 3.50643 0
70.8718 5.62286 0
69.6524 7.79428 0
68.3406 5.67779 0
69.6062 5.65055 0
70.8247 3.47876 0
73.3544 3.42204 0
73.4516 7.70976 0
70.9188 7.76657 0
72.0896 3.45063 0
73.403 5.5661 0
72.1852 7.73839 0
70.8718 5.62286 0
72.1374 5.59471 0
73.3544 3.42204 0
75.8841 3.36351 0
75.9843 7.65114 0
73.4516 7.70976 0
74.6193 3.393 0
75.9342 5.50752 0
74.7179 7.68068 0
73.403 5.5661 0
74.6686 5.53704 0
75.8841 3.36351 0
78.4138 3.30316 0
78.5171 7.5907 0
75.9843 7.65114 0
77.1489 3.33356 0
78.4655 5.44712 0
77.2507 7.62114 0
75.9342 5.50752 0
77.1999 5.47755 0
78.4138 3.30316 0
80.9435 3.24101 0
81.0498 7.52846 0
78.5171 7.5907 0
79.6786 3.27231 0
80.9967 5.38492 0
79.7834 7.5598 0
78.4655 5.44712 0
79.7311 5.41625 0
80.9435 3.24101 0
83.4732 3.17707 0
83.5825 7.46442 0
81.0498 7.52846 0
82.2083 3.20926 0
83.5279 5.32094 0
82.3162 7.49666 0
80.9967 5.38492 0
82.2623 5.35315 0
83.4732 3.17707 0
86.0029 3.11135 0
86.1152 7.39861 0
83.5825 7.46442 0
84.738 3.14443 0
86.0591 5.25517 0
84.8489 7.43174 0
83.5279 5.32094 0
84.7935 5.28828 0
86.0029 3.11135 0
88.5326 3.04387 0
88.6479 7.33102 0
86.1152 7.39861 0
87.2677 3.07783 0
88.5903 5.18763 0
87.3816 7.36504 0
86.0591 5.25517 0
87.3247 5.22162 0
88.5326 3.04387 0
91.0623 2.97462 0
91.1806 7.26168 0
88.6479 7.33102 0
89.7974 3.00946 0
91.1214 5.11834 0
89.9142 7.29657 0
88.5903 5.18763 0
89.8559 5.15321 0
91.0623 2.97462 0
93.592 2.90363 0
93.7132 7.19059 0
91.1806 7.26168 0
92.3271 2.93935 0
93.6526 5.0473 0
92.4469 7.22635 0
91.1214 5.11834 0
92.387 5.08304 0
93.592 2.90363 0
96.1216 2.83091 0
96.2458 7.11776 0
93.7132 7.19059 0
94.8568 2.86749 0
96.1838 4.97452 0
94.9795 7.15439 0
93.6526 5.0473 0
94.9182 5.01112 0
96.1216 2.83091 0
98.6513 2.75646 0
98.7784 7.04321 0
96.2458 7.11776 0
97.3865 2.7939 0
98.7149 4.90002 0
97.5121 7.0807 0
96.1838 4.97452 0
97.4493 4.93748 0
98.6513 2.75646 0
101.181 2.68029 0
101.311 6.96694 0
98.7784 7.04321 0
99.9162 2.71859 0
101.246 4.8238 0
100.045 7.00529 0
98.7149 4.90002 0
99.9805 4.86212 0
101.181 2.68029 0
103.711 2.60242 0
103.844 6.88896 0
101.311 6.96694 0
102.446 2.64157 0
103.777 4.74588 0
102.577 6.92816 0
101.246 4.8238 0
102.512 4.78505 0
103.711 2.60242 0
106.24 2.52286 0
106.376 6.8093 0
103.844 6.88896 0
104.976 2.56286 0
106.308 4.66626 0
105.11 6.84934 0
103.777 4.74588 0
105.043 4.70628 0
106.24 2.52286 0
108.77 2.44162 0
108.909 6.72795 0
106.376 6.8093 0
107.505 2.48245 0
108.839 4.58496 0
107.642 6.76883 0
106.308 4.66626 0
107.574 4.62582 0
108.77 2.44162 0
111.3 2.35871 0
111.441 6.64492 0
108.909 6.72795 0
110.035 2.40037 0
111.37 4.50199 0
110.175 6.68664 0
108.839 4.58496 0
110.105 4.54369 0
111.3 2.35871 0
113.829 2.27414 0
113.973 6.56024 0
111.441 6.64492 0
112.564 2.31663 0
113.901 4.41737 0
112.707 6.60279 0
111.37 4.50199 0
112.636 4.45989 0
113.829 2.27414 0
116.359 2.18792 0
116.506 6.47391 0
113.973 6.56024 0
115.094 2.23123 0
116.432 4.33109 0
115.24 6.51728 0
113.901 4.41737 0
115.167 4.37443 0
116.359 2.18792 0
118.889 2.10006 0
119.038 6.38593 0
116.506 6.47391 0
117.624 2.14419 0
118.963 4.24317 0
117.772 6.43012 0
116.432 4.33109 0
117.698 4.28733 0
118.889 2.10006 0
121.418 2.01057 0
121.571 6.29633 0
119.038 6.38593 0
120.153 2.05552 0
121.494 4.15362 0
120.304 6.34133 0
118.963 4.24317 0
120.229 4.1986 0
121.418 2.01057 0
123.948 1.91947 0
124.103 6.20511 0
121.571 6.29633 0
122.683 1.96522 0
124.025 4.06246 0
122.837 6.25092 0
121.494 4.15362 0
122.76 4.10824 0
123.948 1.91947 0
126.477 1.82676 0
126.635 6.11229 0
124.103 6.20511 0
125.213 1.87332 0
126.556 3.96969 0
125.369 6.1589 0
124.025 4.06246 0
125.291 4.01628 0
126.477 1.82676 0
129.007 1.73246 0
129.168 6.01786 0
126.635 6.11229 0
127.742 1.77981 0
129.087 3.87533 0
127.901 6.06527 0
126.556 3.96969 0
127.822 3.92271 0
129.007 1.73246 0
131.537 1.63657 0
131.7 5.92186 0
129.168 6.01786 0
130.272 1.68471 0
131.618 3.77938 0
130.434 5.97006 0
129.087 3.87533 0
130.353 3.82755 0
131.537 1.63657 0
134.066 1.53911 0
134.232 5.82428 0
131.7 5.92186 0
132.801 1.58804 0
134.149 3.68186 0
132.966 5.87326 0
131.618 3.77938 0
132.884 3.73082 0
134.066 1.53911 0
136.596 1.44009 0
136.764 5.72513 0
134.232 5.82428 0
135.331 1.48979 0
136.68 3.58278 0
135.498 5.7749 0
134.149 3.68186 0
135.414 3.63251 0
136.596 1.44009 0
139.125 1.33951 0
139.296 5.62444 0
136.764 5.72513 0
137.86 1.38999 0
139.211 3.48214 0
138.03 5.67498 0
136.68 3.58278 0
137.945 3.53265 0
139.125 1.33951 0
141.655 1.2374 0
141.828 5.5222 0
139.296 5.62444 0
140.39 1.28865 0
141.742 3.37996 0
140.562 5.57351 0
139.211 3.48214 0
140.476 3.43124 0
141.655 1.2374 0
144.184 1.13375 0
144.36 5.41843 0
141.828 5.5222 0
142.919 1.18577 0
144.272 3.27625 0
143.094 5.4705 0
141.742 3.37996 0
143.007 3.3283 0
144.184 1.13375 0
146.714 1.02859 0
146.892 5.31314 0
144.36 5.41843 0
145.449 1.08136 0
146.803 3.17103 0
145.626 5.36597 0
144.272 3.27625 0
145.538 3.22383 0
146.714 1.02859 0
149.243 0.921918 0
149.424 5.20634 0
146.892 5.31314 0
147.978 0.975441 0
149.334 3.06429 0
148.158 5.25993 0
146.803 3.17103 0
148.068 3.11785 0
149.243 0.921918 0
151.773 0.813749 0
151.956 5.09805 0
149.424 5.20634 0
150.508 0.86802 0
151.865 2.95606 0
150.69 5.15238 0
149.334 3.06429 0
150.599 3.01036 0
151.773 0.813749 0
154.302 0.704093 0
154.488 4.98827 0
151.956 5.09805 0
153.037 0.759106 0
154.395 2.84634 0
153.222 5.04334 0
151.865 2.95606 0
153.13 2.90138 0
154.302 0.704093 0
156.831 0.592962 0
157.02 4.87701 0
154.488 4.98827 0
155.567 0.648711 0
156.926 2.73514 0
155.754 4.93282 0
154.395 2.84634 0
155.661 2.79092 0
156.831 0.592962 0
159.361 0.480366 0
159.552 4.76428 0
157.02 4.87701 0
158.096 0.536846 0
159.456 2.62248 0
158.286 4.82083 0
156.926 2.73514 0
158.191 2.67899 0
159.361 0.480366 0
161.89 0.366316 0
162.084 4.65011 0
159.552 4.76428 0
160.625 0.423522 0
161.987 2.50836 0
160.818 4.70738 0
159.456 2.62248 0
160.722 2.5656 0
161.89 0.366316 0
164.419 0.250823 0
164.616 4.53448 0
162.084 4.65011 0
163.155 0.30875 0
164.518 2.39281 0
163.35 4.59247 0
161.987 2.50836 0
163.252 2.45077 0
164.419 0.250823 0
166.949 0.133898 0
167.147 4.41743 0
164.616 4.53448 0
165.684 0.192539 0
167.048 2.27581 0
165.882 4.47613 0
164.518 2.39281 0
165.783 2.33449 0
166.949 0.133898 0
169.478 0.0155515 0
169.679 4.29895 0
167.147 4.41743 0
168.213 0.0749019 0
169.579 2.1574 0
168.413 4.35837 0
167.048 2.27581 0
168.313 2.21679 0
169.478 0.0155515 0
172.007 -0.104206 0
172.211 4.17906 0
169.679 4.29895 0
170.743 -0.0441514 0
172.109 2.03758 0
170.945 4.23918 0
169.579 2.1574 0
170.844 2.09767 0
172.007 -0.104206 0
174.537 -0.225363 0
174.742 4.05778 0
172.211 4.17906 0
173.272 -0.16461 0
174.64 1.91635 0
173.477 4.11859 0
172.109 2.03758 0
173.374 1.97714 0
174.537 -0.225363 0
177.066 -0.347909 0
177.274 3.9351 0
174.742 4.05778 0
175.801 -0.286463 0
177.17 1.79374 0
176.008 3.99661 0
174.64 1.91635 0
175.905 1.85522 0
177.066 -0.347909 0
179.595 -0.471833 0
179.806 3.81104 0
177.274 3.9351 0
178.331 -0.409699 0
179.7 1.66975 0
178.54 3.87324 0
177.17 1.79374 0
178.435 1.73192 0
179.595 -0.471833 0
182.124 -0.597124 0
182.337 3.68562 0
179.806 3.81104 0
180.86 -0.534308 0
182.231 1.54439 0
181.071 3.7485 0
179.7 1.66975 0
180.966 1.60724 0
182.124 -0.597124 0
184.654 -0.723771 0
184.869 3.55884 0
182.337 3.68562 0
183.389 -0.660279 0
184.761 1.41768 0
183.603 3.6224 0
182.231 1.54439 0
183.496 1.4812 0
184.654 -0.723771 0
187.183 -0.851765 0
187.4 3.43071 0
184.869 3.55884 0
185.918 -0.7876 0
187.291 1.28962 0
186.134 3.49494 0
184.761 1.41768 0
186.026 1.35381 0
187.183 -0.851765 0
189.712 -0.981093 0
189.931 3.30125 0
187.4 3.43071 0
188.447 -0.916262 0
189.822 1.16022 0
188.666 3.36615 0
187.291 1.28962 0
188.556 1.22508 0
189.712 -0.981093 0
192.241 -1.11174 0
192.463 3.17047 0
189.931 3.30125 0
190.976 -1.04625 0
192.352 1.0295 0
191.197 3.23602 0
189.822 1.16022 0
191.087 1.09503 0
192.241 -1.11174 0
194.77 -1.24371 0
194.994 3.03837 0
192.463 3.17047 0
193.505 -1.17756 0
194.882 0.897468 0
193.728 3.10458 0
192.352 1.0295 0
193.617 0.963648 0
194.77 -1.24371 0
197.299 -1.37698 0
197.525 2.90497 0
194.994 3.03837 0
196.035 -1.31018 0
197.412 0.764133 0
196.26 2.97183 0
194.882 0.897468 0
196.147 0.830962 0
197.299 -1.37698 0
199.828 -1.51154 0
200.057 2.77028 0
197.525 2.90497 0
198.564 -1.4441 0
199.942 0.629506 0
198.791 2.83778 0
197.412 0.764133 0
198.677 0.69698 0
199.828 -1.51154 0
202.357 -1.64737 0
202.588 2.6343 0
200.057 2.77028 0
201.093 -1.5793 0
202.472 0.493599 0
201.322 2.70245 0
199.942 0.629506 0
201.207 0.561712 0
202.357 -1.64737 0
204.886 -1.78448 0
205.119 2.49706 0
202.588 2.6343 0
203.622 -1.71577 0
205.003 0.356422 0
203.853 2.56584 0
202.472 0.493599 0
203.738 0.425168 0
204.886 -1.78448 0
207.415 -1.92285 0
207.65 2.35856 0
205.119 2.49706 0
206.151 -1.85351 0
207.533 0.217986 0
206.384 2.42797 0
205.003 0.356422 0
206.268 0.28736 0
207.415 -1.92285 0
209.944 -2.06247 0
210.181 2.21881 0
207.65 2.35856 0
208.68 -1.9925 0
210.063 0.0783016 0
208.915 2.28884 0
207.533 0.217986 0
208.798 0.148299 0
209.944 -2.06247 0
212.473 -2.20332 0
212.712 2.07782 0
210.181 2.21881 0
211.209 -2.13274 0
212.593 -0.0626198 0
211.447 2.14847 0
210.063 0.0783016 0
211.328 0.00799488 0
212.473 -2.20332 0
215.002 -2.3454 0
215.243 1.93561 0
212.712 2.07782 0
213.738 -2.27421 0
215.123 -0.204767 0
213.978 2.00687 0
212.593 -0.0626198 0
213.858 -0.133541 0
215.002 -2.3454 0
217.531 -2.48869 0
217.774 1.79218 0
215.243 1.93561 0
216.266 -2.4169 0
217.652 -0.348131 0
216.508 1.86404 0
215.123 -0.204767 0
216.388 -0.276298 0
217.531 -2.48869 0
220.06 -2.63319 0
220.305 1.64754 0
217.774 1.79218 0
218.795 -2.56079 0
220.182 -0.492699 0
219.039 1.72001 0
217.652 -0.348131 0
218.917 -0.420265 0
220.06 -2.63319 0
222.589 -2.77889 0
222.836 1.50172 0
220.305 1.64754 0
221.324 -2.70589 0
222.712 -0.63846 0
221.57 1.57478 0
220.182 -0.492699 0
221.447 -0.565431 0
222.589 -2.77889 0
225.117 -2.92576 0
225.367 1.35471 0
222.836 1.50172 0
223.853 -2.85218 0
225.242 -0.785405 0
224.101 1.42836 0
222.712 -0.63846 0
223.977 -0.711786 0
225.117 -2.92576 0
227.646 -3.07381 0
227.897 1.20652 0
225.367 1.35471 0
226.382 -2.99964 0
227.772 -0.933522 0
226.632 1.28076 0
225.242 -0.785405 0
226.507 -0.859318 0
227.646 -3.07381 0
230.175 -3.22302 0
230.428 1.05718 0
227.897 1.20652 0
228.911 -3.14827 0
230.302 -1.0828 0
229.163 1.132 0
227.772 -0.933522 0
229.037 -1.00802 0
230.175 -3.22302 0
232.704 -3.37338 0
232.959 0.906686 0
230.428 1.05718 0
231.439 -3.29806 0
232.831 -1.23323 0
231.693 0.982076 0
230.302 -1.0828 0
231.566 -1.15787 0
232.704 -3.37338 0
235.233 -3.52489 0
235.489 0.755052 0
232.959 0.906686 0
233.968 -3.44899 0
235.361 -1.3848 0
234.224 0.83101 0
232.831 -1.23323 0
234.096 -1.30887 0
235.233 -3.52489 0
237.761 -3.67752 0
238.02 0.60229 0
235.489 0.755052 0
236.497 -3.60106 0
237.891 -1.53749 0
236.755 0.678811 0
235.361 -1.3848 0
236.626 -1.46101 0
237.761 -3.67752 0
240.29 -3.83126 0
240.551 0.448409 0
238.02 0.60229 0
239.026 -3.75425 0
240.42 -1.69131 0
239.285 0.525488 0
237.891 -1.53749 0
239.156 -1.61426 0
240.29 -3.83126 0
242.819 -3.98612 0
243.081 0.293422 0
240.551 0.448409 0
241.554 -3.90855 0
242.95 -1.84623 0
241.816 0.371053 0
240.42 -1.69131 0
241.685 -1.76863 0
242.819 -3.98612 0
245.347 -4.14207 0
245.612 0.137339 0
243.081 0.293422 0
244.083 -4.06396 0
245.48 -2.00225 0
244.346 0.215517 0
242.95 -1.84623 0
244.215 -1.92411 0
245.347 -4.14207 0
247.876 -4.29911 0
248.142 -0.0198296 0
245.612 0.137339 0
246.612 -4.22045 0
248.009 -2.15935 0
246.877 0.0588897 0
245.48 -2.00225 0
246.744 -2.08067 0
247.876 -4.29911 0
250.405 -4.45722 0
250.672 -0.178072 0
248.142 -0.0198296 0
249.14 -4.37803 0
250.539 -2.31753 0
249.407 -0.0988174 0
248.009 -2.15935 0
249.274 -2.23831 0
250.405 -4.45722 0
252.933 -4.61639 0
253.203 -0.337379 0
250.672 -0.178072 0
251.669 -4.53667 0
253.068 -2.47678 0
251.938 -0.257593 0
250.539 -2.31753 0
251.803 -2.39702 0
252.933 -4.61639 0
255.462 -4.77662 0
255.733 -0.497738 0
253.203 -0.337379 0
254.197 -4.69638 0
255.598 -2.63707 0
254.468 -0.417428 0
253.068 -2.47678 0
254.333 -2.55679 0
255.462 -4.77662 0
257.99 -4.93789 0
258.264 -0.659139 0
255.733 -0.497738 0
256.726 -4.85713 0
258.127 -2.79841 0
256.998 -0.578309 0
255.598 -2.63707 0
256.862 -2.71761 0
257.99 -4.93789 0
260.519 -5.1002 0
260.794 -0.821571 0
258.264 -0.659139 0
259.255 -5.01892 0
260.656 -2.96078 0
259.529 -0.740227 0
258.127 -2.79841 0
259.392 -2.87946 0
260.519 -5.1002 0
263.047 -5.26352 0
263.324 -0.985023 0
260.794 -0.821571 0
261.783 -5.18173 0
263.186 -3.12417 0
262.059 -0.90317 0
260.656 -2.96078 0
261.921 -3.04234 0
263.047 -5.26352 0
265.576 -5.42785 0
265.854 -1.14948 0
263.324 -0.985023 0
264.312 -5.34556 0
265.715 -3.28856 0
264.589 -1.06713 0
263.186 -3.12417 0
264.45 -3.20624 0
265.576 -5.42785 0
268.104 -5.59319 0
268.384 -1.31494 0
265.854 -1.14948 0
266.84 -5.51039 0
268.244 -3.45396 0
267.119 -1.23209 0
265.715 -3.28856 0
266.98 -3.37114 0
268.104 -5.59319 0
270.633 -5.75951 0
270.914 -1.48139 0
268.384 -1.31494 0
269.369 -5.67622 0
270.774 -3.62035 0
269.649 -1.39805 0
268.244 -3.45396 0
269.509 -3.53703 0
270.633 -5.75951 0
273.161 -5.9268 0
273.445 -1.64882 0
270.914 -1.48139 0
271.897 -5.84303 0
273.303 -3.78771 0
272.18 -1.56498 0
270.774 -3.62035 0
272.038 -3.70391 0
273.161 -5.9268 0
275.69 -6.09507 0
275.975 -1.81721 0
273.445 -1.64882 0
274.425 -6.01081 0
275.832 -3.95604 0
274.71 -1.73289 0
273.303 -3.78771 0
274.568 -3.87175 0
275.69 -6.09507 0
278.218 -6.26429 0
278.505 -1.98655 0
275.975 -1.81721 0
276.954 -6.17956 0
278.361 -4.12532 0
277.24 -1.90176 0
275.832 -3.95604 0
277.097 -4.04056 0
278.218 -6.26429 0
280.746 -6.43445 0
281.035 -2.15684 0
278.505 -1.98655 0
279.482 -6.34925 0
280.891 -4.29555 0
279.77 -2.07158 0
278.361 -4.12532 0
279.626 -4.21032 0
280.746 -6.43445 0
283.275 -6.60555 0
283.564 -2.32806 0
281.035 -2.15684 0
282.011 -6.51988 0
283.42 -4.46671 0
282.3 -2.24234 0
280.891 -4.29555 0
282.155 -4.38101 0
283.275 -6.60555 0
285.803 -6.77757 0
286.094 -2.50021 0
283.564 -2.32806 0
284.539 -6.69145 0
285.949 -4.6388 0
284.829 -2.41402 0
283.42 -4.46671 0
284.684 -4.55264 0
285.803 -6.77757 0
288.331 -6.95051 0
288.624 -2.67327 0
286.094 -2.50021 0
287.067 -6.86393 0
288.478 -4.81179 0
287.359 -2.58663 0
285.949 -4.6388 0
287.213 -4.72518 0
288.331 -6.95051 0
290.86 -7.12434 0
291.154 -2.84723 0
288.624 -2.67327 0
289.596 -7.03731 0
291.007 -4.98569 0
289.889 -2.76013 0
288.478 -4.81179 0
289.742 -4.89863 0
290.86 -7.12434 0
293.388 -7.29907 0
293.684 -3.02207 0
291.154 -2.84723 0
292.124 -7.21159 0
293.536 -5.16048 0
292.419 -2.93454 0
291.007 -4.98569 0
292.272 -5.07297 0
293.388 -7.29907 0
295.916 -7.47468 0
296.214 -3.1978 0
293.684 -3.02207 0
294.652 -7.38676 0
296.065 -5.33615 0
294.949 -3.10983 0
293.536 -5.16048 0
294.801 -5.2482 0
295.916 -7.47468 0
298.445 -7.65115 0
298.743 -3.3744 0
296.214 -3.1978 0
297.181 -7.56281 0
298.594 -5.51268 0
297.479 -3.28599 0
296.065 -5.33615 0
297.33 -5.42431 0
298.445 -7.65115 0
300.973 -7.82848 0
301.273 -3.55185 0
298.743 -3.3744 0
299.709 -7.73971 0
301.123 -5.69008 0
300.008 -3.46302 0
298.594 -5.51268 0
299.859 -5.60127 0
300.973 -7.82848 0
303.501 -8.00667 0
303.803 -3.73015 0
301.273 -3.55185 0
302.237 -7.91747 0
303.652 -5.86832 0
302.538 -3.64089 0
301.123 -5.69008 0
302.388 -5.77909 0
303.501 -8.00667 0
306.029 -8.18568 0
306.332 -3.90928 0
303.803 -3.73015 0
304.765 -8.09607 0
306.181 -6.0474 0
305.068 -3.81961 0
303.652 -5.86832 0
304.916 -5.95776 0
306.029 -8.18568 0
308.558 -8.36553 0
308.862 -4.08924 0
306.332 -3.90928 0
307.294 -8.2755 0
308.71 -6.2273 0
307.597 -3.99916 0
306.181 -6.0474 0
307.445 -6.13725 0
308.558 -8.36553 0
311.086 -8.54619 0
311.392 -4.27002 0
308.862 -4.08924 0
309.822 -8.45576 0
311.239 -6.40802 0
310.127 -4.17953 0
308.71 -6.2273 0
309.974 -6.31756 0
311.086 -8.54619 0
313.614 -8.72765 0
313.921 -4.4516 0
311.392 -4.27002 0
312.35 -8.63682 0
313.768 -6.58954 0
312.656 -4.36071 0
311.239 -6.40802 0
312.503 -6.49868 0
313.614 -8.72765 0
316.142 -8.90991 0
316.451 -4.63397 0
313.921 -4.4516 0
314.878 -8.81868 0
316.296 -6.77186 0
315.186 -4.54268 0
313.768 -6.58954 0
315.032 -6.6806 0
316.142 -8.90991 0
318.67 -9.09295 0
318.98 -4.81712 0
316.451 -4.63397 0
317.406 -9.00133 0
318.825 -6.95495 0
317.715 -4.72545 0
316.296 -6.77186 0
317.561 -6.86331 0
318.67 -9.09295 0
321.199 -9.27676 0
321.51 -5.00104 0
318.98 -4.81712 0
319.935 -9.18476 0
321.354 -7.13882 0
320.245 -4.90899 0
318.825 -6.95495 0
320.09 -7.04679 0
321.199 -9.27676 0
323.727 -9.46133 0
324.039 -5.18573 0
321.51 -5.00104 0
322.463 -9.36895 0
323.883 -7.32345 0
322.774 -5.09329 0
321.354 -7.13882 0
322.619 -7.23104 0
323.727 -9.46133 0
326.255 -9.64665 0
326.568 -5.37116 0
324.039 -5.18573 0
324.991 -9.5539 0
326.412 -7.50883 0
325.304 -5.27835 0
323.883 -7.32345 0
325.147 -7.41604 0
326.255 -9.64665 0
328.783 -9.83271 0
329.098 -5.55733 0
326.568 -5.37116 0
327.519 -9.73959 0
328.94 -7.69494 0
327.833 -5.46415 0
326.412 -7.50883 0
327.676 -7.60179 0
328.783 -9.83271 0
331.311 -10.0195 0
331.627 -5.74423 0
329.098 -5.55733 0
330.047 -9.92602 0
331.469 -7.88179 0
330.362 -5.65069 0
328.94 -7.69494 0
330.205 -7.78828 0
331.311 -10.0195 0
333.839 -10.207 0
334.156 -5.93184 0
331.627 -5.74423 0
332.575 -10.1132 0
333.998 -8.06935 0
332.892 -5.83794 0
331.469 -7.88179 0
332.734 -7.97548 0
333.839 -10.207 0
336.367 -10.3952 0
336.686 -6.12016 0
334.156 -5.93184 0
335.103 -10.301 0
336.527 -8.25762 0
335.421 -6.02591 0
333.998 -8.06935 0
335.262 -8.1634 0
336.367 -10.3952 0
338.896 -10.5841 0
339.215 -6.30917 0
336.686 -6.12016 0
337.632 -10.4896 0
339.055 -8.44658 0
337.95 -6.21458 0
336.527 -8.25762 0
337.791 -8.35201 0
338.896 -10.5841 0
341.424 -10.7737 0
341.744 -6.49887 0
339.215 -6.30917 0
340.16 -10.6788 0
341.584 -8.63623 0
340.48 -6.40394 0
339.055 -8.44658 0
340.32 -8.54132 0
341.424 -10.7737 0
343.952 -10.964 0
344.274 -6.68925 0
341.744 -6.49887 0
342.688 -10.8688 0
344.113 -8.82655 0
343.009 -6.59398 0
341.584 -8.63623 0
342.848 -8.73131 0
343.952 -10.964 0
346.48 -11.1549 0
346.803 -6.88028 0
344.274 -6.68925 0
345.216 -11.0594 0
346.641 -9.01754 0
345.538 -6.78468 0
344.113 -8.82655 0
345.377 -8.92196 0
346.48 -11.1549 0
349.008 -11.3465 0
349.332 -7.07197 0
346.803 -6.88028 0
347.744 -11.2506 0
349.17 -9.20918 0
348.067 -6.97604 0
346.641 -9.01754 0
347.906 -9.11328 0
349.008 -11.3465 0
351.536 -11.5387 0
351.861 -7.2643 0
349.332 -7.07197 0
350.272 -11.4425 0
351.699 -9.40145 0
350.597 -7.16805 0
349.17 -9.20918 0
350.434 -9.30524 0
351.536 -11.5387 0
354.064 -11.7316 0
354.39 -7.45725 0
351.861 -7.2643 0
352.8 -11.6351 0
354.227 -9.59436 0
353.126 -7.3607 0
351.699 -9.40145 0
352.963 -9.49783 0
354.064 -11.7316 0
356.592 -11.9251 0
356.919 -7.65083 0
354.39 -7.45725 0
355.328 -11.8283 0
356.756 -9.78789 0
355.655 -7.55397 0
354.227 -9.59436 0
355.492 -9.69105 0
356.592 -11.9251 0
359.12 -12.1192 0
359.448 -7.84502 0
356.919 -7.65083 0
357.856 -12.022 0
359.284 -9.98203 0
358.184 -7.74785 0
356.756 -9.78789 0
358.02 -9.88489 0
359.12 -12.1192 0
361.648 -12.3139 0
361.978 -8.0398 0
359.448 -7.84502 0
360.384 -12.2164 0
361.813 -10.1768 0
360.713 -7.94233 0
359.284 -9.98203 0
360.549 -10.0793 0
361.648 -12.3139 0
364.177 -12.5091 0
364.507 -8.23517 0
361.978 -8.0398 0
362.913 -12.4114 0
364.342 -10.3721 0
363.242 -8.13741 0
361.813 -10.1768 0
363.077 -10.2744 0
364.177 -12.5091 0
366.705 -12.705 0
367.036 -8.43111 0
364.507 -8.23517 0
365.441 -12.607 0
366.87 -10.568 0
365.771 -8.33307 0
364.342 -10.3721 0
365.606 -10.47 0
366.705 -12.705 0
369.233 -12.9014 0
369.565 -8.62762 0
367.036 -8.43111 0
367.969 -12.8031 0
369.399 -10.7645 0
368.3 -8.5293 0
366.87 -10.568 0
368.134 -10.6662 0
369.233 -12.9014 0
371.761 -13.0984 0
372.094 -8.82469 0
369.565 -8.62762 0
370.497 -12.9998 0
371.927 -10.9615 0
370.829 -8.72609 0
369.399 -10.7645 0
370.663 -10.8629 0
371.761 -13.0984 0
374.289 -13.2959 0
374.623 -9.02229 0
372.094 -8.82469 0
373.025 -13.1971 0
374.456 -11.159 0
373.358 -8.92342 0
371.927 -10.9615 0
373.192 -11.0602 0
374.289 -13.2959 0
376.817 -13.4939 0
377.152 -9.22043 0
374.623 -9.02229 0
375.553 -13.3949 0
376.984 -11.3571 0
375.887 -9.1213 0
374.456 -11.159 0
375.72 -11.258 0
376.817 -13.4939 0
379.345 -13.6925 0
379.681 -9.4191 0
377.152 -9.22043 0
378.081 -13.5932 0
379.513 -11.5558 0
378.416 -9.3197 0
376.984 -11.3571 0
378.249 -11.4564 0
379.345 -13.6925 0
381.873 -13.8916 0
382.21 -9.61827 0
379.681 -9.4191 0
380.609 -13.792 0
382.042 -11.7549 0
380.945 -9.51862 0
379.513 -11.5558 0
380.777 -11.6553 0
381.873 -13.8916 0
384.401 -14.0912 0
384.739 -9.81794 0
382.21 -9.61827 0
383.137 -13.9913 0
384.57 -11.9545 0
383.474 -9.71804 0
382.042 -11.7549 0
383.306 -11.8546 0
384.401 -14.0912 0
386.93 -14.2913 0
387.268 -10.0181 0
384.739 -9.81794 0
385.665 -14.1912 0
387.099 -12.1546 0
386.003 -9.91796 0
384.57 -11.9545 0
385.834 -12.0545 0
386.93 -14.2913 0
389.458 -14.4918 0
389.797 -10.2187 0
387.268 -10.0181 0
388.194 -14.3915 0
389.627 -12.3552 0
388.532 -10.1184 0
387.099 -12.1546 0
388.363 -12.2549 0
389.458 -14.4918 0
391.986 -14.6929 0
392.325 -10.4199 0
389.797 -10.2187 0
390.722 -14.5923 0
392.156 -12.5563 0
391.061 -10.3192 0
389.627 -12.3552 0
390.891 -12.4557 0
391.986 -14.6929 0
394.514 -14.8944 0
394.854 -10.6214 0
392.325 -10.4199 0
393.25 -14.7936 0
394.684 -12.7578 0
393.59 -10.5206 0
392.156 -12.5563 0
393.42 -12.657 0
394.514 -14.8944 0
397.042 -15.0963 0
397.383 -10.8234 0
394.854 -10.6214 0
395.778 -14.9953 0
397.213 -12.9598 0
396.119 -10.7224 0
394.684 -12.7578 0
395.949 -12.8588 0
397.042 -15.0963 0
399.57 -15.2987 0
399.912 -11.0259 0
397.383 -10.8234 0
398.306 -15.1974 0
399.741 -13.1622 0
398.648 -10.9246 0
397.213 -12.9598 0
398.477 -13.061 0
399.57 -15.2987 0
402.099 -15.5015 0
402.441 -11.2287 0
399.912 -11.0259 0
400.834 -15.4 0
402.27 -13.3651 0
401.177 -11.1273 0
399.741 -13.1622 0
401.006 -13.2636 0
402.099 -15.5015 0
404.627 -15.7047 0
404.97 -11.432 0
402.441 -11.2287 0
403.363 -15.603 0
404.798 -13.5683 0
403.706 -11.3303 0
402.27 -13.3651 0
403.534 -13.4666 0
404.627 -15.7047 0
407.155 -15.9083 0
407.499 -11.6357 0
404.97 -11.432 0
405.891 -15.8064 0
407.327 -13.772 0
406.234 -11.5338 0
404.798 -13.5683 0
406.063 -13.6701 0
407.155 -15.9083 0
409.683 -16.1123 0
410.028 -11.8398 0
407.499 -11.6357 0
408.419 -16.0102 0
409.856 -13.976 0
408.763 -11.7377 0
407.327 -13.772 0
408.591 -13.8739 0
409.683 -16.1123 0
412.211 -16.3167 0
412.557 -12.0443 0
410.028 -11.8398 0
410.947 -16.2144 0
412.384 -14.1804 0
411.292 -11.942 0
409.856 -13.976 0
411.12 -14.0782 0
412.211 -16.3167 0
414.74 -16.5214 0
415.086 -12.2491 0
412.557 -12.0443 0
413.476 -16.419 0
414.913 -14.3852 0
413.821 -12.1466 0
412.384 -14.1804 0
413.648 -14.2828 0
414.74 -16.5214 0
417.268 -16.7266 0
417.614 -12.4543 0
415.086 -12.2491 0
416.004 -16.624 0
417.441 -14.5904 0
416.35 -12.3516 0
414.913 -14.3852 0
416.177 -14.4878 0
417.268 -16.7266 0
419.796 -16.932 0
420.143 -12.6598 0
417.614 -12.4543 0
418.532 -16.8293 0
419.97 -14.7959 0
418.879 -12.557 0
417.441 -14.5904 0
418.706 -14.6931 0
419.796 -16.932 0
422.325 -17.1378 0
422.672 -12.8657 0
420.143 -12.6598 0
421.06 -17.0349 0
422.498 -15.0017 0
421.408 -12.7627 0
419.97 -14.7959 0
421.234 -14.8988 0
422.325 -17.1378 0
424.853 -17.344 0
425.201 -13.0719 0
422.672 -12.8657 0
423.589 -17.2409 0
425.027 -15.2079 0
423.937 -12.9687 0
422.498 -15.0017 0
423.763 -15.1048 0
424.853 -17.344 0
427.381 -17.5504 0
427.73 -13.2784 0
425.201 -13.0719 0
426.117 -17.4472 0
427.556 -15.4144 0
426.465 -13.1751 0
425.027 -15.2079 0
426.291 -15.3111 0
427.381 -17.5504 0
429.91 -17.7572 0
430.259 -13.4852 0
427.73 -13.2784 0
428.646 -17.6538 0
430.084 -15.6212 0
428.994 -13.3818 0
427.556 -15.4144 0
428.82 -15.5178 0
429.91 -17.7572 0
432.438 -17.9643 0
432.788 -13.6923 0
430.259 -13.4852 0
431.174 -17.8607 0
432.613 -15.8283 0
431.523 -13.5888 0
430.084 -15.6212 0
431.349 -15.7247 0
432.438 -17.9643 0
434.967 -18.1716 0
435.317 -13.8998 0
432.788 -13.6923 0
433.702 -18.0679 0
435.142 -16.0357 0
434.052 -13.796 0
432.613 -15.8283 0
433.877 -15.9319 0
434.967 -18.1716 0
437.495 -18.3792 0
437.845 -14.1074 0
435.317 -13.8998 0
436.231 -18.2754 0
437.67 -16.2433 0
436.581 -14.0036 0
435.142 -16.0357 0
436.406 -16.1394 0
437.495 -18.3792 0
440.023 -18.5871 0
440.374 -14.3154 0
437.845 -14.1074 0
438.759 -18.4831 0
440.199 -16.4512 0
439.11 -14.2114 0
437.67 -16.2433 0
438.935 -16.3472 0
440.023 -18.5871 0
442.552 -18.7952 0
442.903 -14.5235 0
440.374 -14.3154 0
441.288 -18.6911 0
442.728 -16.6594 0
441.639 -14.4194 0
440.199 -16.4512 0
441.463 -16.5553 0
442.552 -18.7952 0
445.08 -19.0036 0
445.432 -14.732 0
442.903 -14.5235 0
443.816 -18.8994 0
445.256 -16.8678 0
444.168 -14.6277 0
442.728 -16.6594 0
443.992 -16.7635 0
445.08 -19.0036 0
447.609 -19.2122 0
447.961 -14.9406 0
445.432 -14.732 0
446.345 -19.1079 0
447.785 -17.0764 0
446.697 -14.8363 0
445.256 -16.8678 0
446.521 -16.9721 0
447.609 -19.2122 0
450.138 -19.4211 0
450.49 -15.1495 0
447.961 -14.9406 0
448.873 -19.3166 0
450.314 -17.2853 0
449.226 -15.045 0
447.785 -17.0764 0
449.049 -17.1808 0
450.138 -19.4211 0
452.666 -19.6301 0
453.019 -15.3586 0
450.49 -15.1495 0
451.402 -19.5256 0
452.843 -17.4943 0
451.755 -15.254 0
450.314 -17.2853 0
451.578 -17.3898 0
452.666 -19.6301 0
455.195 -19.8393 0
455.548 -15.5679 0
453.019 -15.3586 0
453.931 -19.7347 0
455.371 -17.7036 0
454.283 -15.4632 0
452.843 -17.4943 0
454.107 -17.5989 0
455.195 -19.8393 0
457.724 -20.0488 0
458.077 -15.7773 0
455.548 -15.5679 0
456.459 -19.944 0
457.9 -17.913 0
456.812 -15.6726 0
455.371 -17.7036 0
456.636 -17.8083 0
457.724 -20.0488 0
460.252 -20.2584 0
460.606 -15.987 0
458.077 -15.7773 0
458.988 -20.1535 0
460.429 -18.1227 0
459.341 -15.8821 0
457.9 -17.913 0
459.165 -18.0178 0
460.252 -20.2584 0
462.781 -20.4681 0
463.135 -16.1968 0
460.606 -15.987 0
461.517 -20.3632 0
462.958 -18.3324 0
461.87 -16.0919 0
460.429 -18.1227 0
461.694 -18.2275 0
462.781 -20.4681 0
465.31 -20.6781 0
465.664 -16.4068 0
463.135 -16.1968 0
464.045 -20.5731 0
465.487 -18.5424 0
464.399 -16.3018 0
462.958 -18.3324 0
464.222 -18.4374 0
465.31 -20.6781 0
467.839 -20.8881 0
468.193 -16.6169 0
465.664 -16.4068 0
466.574 -20.7831 0
468.016 -18.7525 0
466.928 -16.5118 0
465.487 -18.5424 0
466.751 -18.6474 0
467.839 -20.8881 0
470.367 -21.0983 0
470.722 -16.8271 0
468.193 -16.6169 0
469.103 -20.9932 0
470.545 -18.9627 0
469.457 -16.722 0
468.016 -18.7525 0
469.28 -18.8576 0
470.367 -21.0983 0
472.896 -21.3086 0
473.251 -17.0375 0
470.722 -16.8271 0
471.632 -21.2035 0
473.074 -19.173 0
471.986 -16.9323 0
470.545 -18.9627 0
471.809 -19.0679 0
472.896 -21.3086 0
475.425 -21.5191 0
475.78 -17.2479 0
473.251 -17.0375 0
474.161 -21.4138 0
475.603 -19.3835 0
474.516 -17.1427 0
473.074 -19.173 0
474.338 -19.2783 0
475.425 -21.5191 0
477.954 -21.7296 0
478.309 -17.4585 0
475.78 -17.2479 0
476.69 -21.6243 0
478.132 -19.594 0
477.045 -17.3532 0
475.603 -19.3835 0
476.867 -19.4888 0
477.954 -21.7296 0
480.483 -21.9402 0
480.838 -17.6692 0
478.309 -17.4585 0
479.219 -21.8349 0
480.661 -19.8047 0
479.574 -17.5638 0
478.132 -19.594 0
479.396 -19.6994 0
480.483 -21.9402 0
483.012 -22.1509 0
483.367 -17.8799 0
480.838 -17.6692 0
481.748 -22.0456 0
483.19 -20.0154 0
482.103 -17.7745 0
480.661 -19.8047 0
481.925 -19.91 0
483.012 -22.1509 0
485.541 -22.3617 0
485.897 -18.0907 0
483.367 -17.8799 0
484.277 -22.2563 0
485.719 -20.2262 0
484.632 -17.9853 0
483.19 -20.0154 0
484.454 -20.1208 0
485.541 -22.3617 0
488.07 -22.5726 0
488.426 -18.3016 0
485.897 -18.0907 0
486.806 -22.4671 0
488.248 -20.4371 0
487.161 -18.1961 0
485.719 -20.2262 0
486.984 -20.3316 0
488.07 -22.5726 0
490.599 -22.7835 0
490.955 -18.5125 0
488.426 -18.3016 0
489.335 -22.678 0
490.777 -20.648 0
489.69 -18.407 0
488.248 -20.4371 0
489.513 -20.5425 0
490.599 -22.7835 0
493.129 -22.9944 0
493.484 -18.7235 0
490.955 -18.5125 0
491.864 -22.8889 0
493.307 -20.859 0
492.22 -18.618 0
490.777 -20.648 0
492.042 -20.7535 0
493.129 -22.9944 0
495.658 -23.2056 0
496.014 -18.9344 0
493.484 -18.7235 0
494.393 -23.1 0
495.836 -21.07 0
494.749 -18.8289 0
493.307 -20.859 0
494.571 -20.9645 0
495.658 -23.2056 0
498.187 -23.4168 0
498.543 -19.1453 0
496.014 -18.9344 0
496.923 -23.3112 0
498.365 -21.281 0
497.278 -19.0399 0
495.836 -21.07 0
497.1 -21.1755 0
0 8.57143 0
2.53326 8.57095 0
2.53647 12.8574 0
0 12.8571 0
1.2667 8.57158 0
2.53487 10.7143 0
1.26824 12.8577 0
0 10.7143 0
1.26748 10.7147 0
2.53326 8.57095 0
5.06614 8.56773 0
5.0728 12.8547 0
2.53647 12.8574 0
3.79973 8.56965 0
5.0695 10.7114 0
3.80465 12.8564 0
2.53487 10.7143 0
3.80221 10.7132 0
5.06614 8.56773 0
7.59881 8.56216 0
7.60908 12.8495 0
5.0728 12.8547 0
6.3325 8.56523 0
7.60399 10.706 0
6.34095 12.8524 0
5.0695 10.7114 0
6.33676 10.709 0
7.59881 8.56216 0
10.1314 8.55445 0
10.1453 12.8419 0
7.60908 12.8495 0
8.86513 8.55857 0
10.1384 10.6984 0
8.8772 12.846 0
7.60399 10.706 0
8.87121 10.7025 0
10.1314 8.55445 0
12.6641 8.54464 0
12.6815 12.8321 0
10.1453 12.8419 0
11.3978 8.5498 0
12.6728 10.6886 0
11.4134 12.8373 0
10.1384 10.6984 0
11.4056 10.6938 0
12.6641 8.54464 0
15.1968 8.53277 0
15.2178 12.8202 0
12.6815 12.8321 0
13.9304 8.53896 0
15.2073 10.6767 0
13.9497 12.8264 0
12.6728 10.6886 0
13.9401 10.6829 0
15.1968 8.53277 0
17.7295 8.51883 0
17.754 12.8062 0
15.2178 12.8202 0
16.4631 8.52606 0
17.7418 10.6628 0
16.4859 12.8135 0
15.2073 10.6767 0
16.4745 10.67 0
17.7295 8.51883 0
20.2622 8.50284 0
20.2903 12.7902 0
17.754 12.8062 0
18.9958 8.51109 0
20.2763 10.6467 0
19.0221 12.7985 0
17.7418 10.6628 0
19.009 10.655 0
20.2622 8.50284 0
22.795 8.48479 0
22.8265 12.7721 0
20.2903 12.7902 0
21.5286 8.49407 0
22.8108 10.6287 0
21.5584 12.7814 0
20.2763 10.6467 0
21.5435 10.638 0
22.795 8.48479 0
25.3278 8.46471 0
25.3628 12.752 0
22.8265 12.7721 0
24.0614 8.47501 0
25.3453 10.6086 0
24.0946 12.7623 0
22.8108 10.6287 0
24.078 10.6189 0
25.3278 8.46471 0
27.8606 8.4426 0
27.899 12.7298 0
25.3628 12.752 0
26.5942 8.45391 0
27.8798 10.5864 0
26.6309 12.7412 0
25.3453 10.6086 0
26.6126 10.5978 0
27.8606 8.4426 0
30.3934 8.41847 0
30.4352 12.7057 0
27.899 12.7298 0
29.127 8.43078 0
30.4143 10.5623 0
29.1671 12.718 0
27.8798 10.5864 0
29.1471 10.5746 0
30.3934 8.41847 0
32.9263 8.39233 0
32.9714 12.6795 0
30.4352 12.7057 0
31.6598 8.40565 0
32.9489 10.5361 0
31.7033 12.6928 0
30.4143 10.5623 0
31.6816 10.5495 0
32.9263 8.39233 0
35.4591 8.36419 0
35.5077 12.6513 0
32.9714 12.6795 0
34.1927 8.37851 0
35.4834 10.508 0
34.2396 12.6656 0
32.9489 10.5361 0
34.2161 10.5223 0
35.4591 8.36419 0
37.9919 8.33406 0
38.0439 12.6211 0
35.5077 12.6513 0
36.7255 8.34937 0
38.0179 10.4778 0
36.7758 12.6365 0
35.4834 10.508 0
36.7507 10.4931 0
37.9919 8.33406 0
40.5248 8.30196 0
40.58 12.589 0
38.0439 12.6211 0
39.2584 8.31826 0
40.5524 10.4457 0
39.312 12.6053 0
38.0179 10.4778 0
39.2852 10.462 0
40.5248 8.30196 0
43.0576 8.2679 0
43.1162 12.5549 0
40.58 12.589 0
41.7912 8.28517 0
43.0869 10.4116 0
41.8481 12.5722 0
40.5524 10.4457 0
41.8197 10.4289 0
43.0576 8.2679 0
45.5905 8.23188 0
45.6524 12.5188 0
43.1162 12.5549 0
44.3241 8.25013 0
45.6214 10.3755 0
44.3843 12.5371 0
43.0869 10.4116 0
44.3542 10.3938 0
45.5905 8.23188 0
48.1233 8.19391 0
48.1885 12.4808 0
45.6524 12.5188 0
46.8569 8.21314 0
48.1559 10.3375 0
46.9204 12.5 0
45.6214 10.3755 0
46.8887 10.3568 0
48.1233 8.19391 0
50.6562 8.15402 0
50.7246 12.4408 0
48.1885 12.4808 0
49.3898 8.1742 0
50.6904 10.2976 0
49.4565 12.461 0
48.1559 10.3375 0
49.4232 10.3178 0
50.6562 8.15402 0
53.189 8.1122 0
53.2607 12.3989 0
50.7246 12.4408 0
51.9226 8.13335 0
53.2249 10.2558 0
51.9926 12.4201 0
50.6904 10.2976 0
51.9577 10.2769 0
53.189 8.1122 0
55.7219 8.06847 0
55.7968 12.3551 0
53.2607 12.3989 0
54.4555 8.09057 0
55.7593 10.212 0
54.5287 12.3773 0
53.2249 10.2558 0
54.4921 10.2341 0
55.7219 8.06847 0
58.2547 8.02284 0
58.3328 12.3094 0
55.7968 12.3551 0
56.9883 8.04589 0
58.2938 10.1663 0
57.0648 12.3325 0
55.7593 10.212 0
57.0266 10.1894 0
58.2547 8.02284 0
60.7876 7.97532 0
60.8688 12.2618 0
58.3328 12.3094 0
59.5211 7.99931 0
60.8282 10.1188 0
59.6008 12.2859 0
58.2938 10.1663 0
59.561 10.1428 0
60.7876 7.97532 0
63.3204 7.92592 0
63.4048 12.2124 0
60.8688 12.2618 0
62.054 7.95085 0
63.3626 10.0693 0
62.1368 12.2373 0
60.8282 10.1188 0
62.0954 10.0943 0
63.3204 7.92592 0
65.8532 7.87466 0
65.9408 12.161 0
63.4048 12.2124 0
64.5868 7.90052 0
65.897 10.018 0
64.6728 12.1869 0
63.3626 10.0693 0
64.6298 10.0439 0
65.8532 7.87466 0
68.386 7.82153 0
68.4767 12.1078 0
65.9408 12.161 0
67.1196 7.84833 0
68.4314 9.96489 0
67.2087 12.1347 0
65.897 10.018 0
67.1642 9.9917 0
68.386 7.82153 0
70.9188 7.76657 0
71.0126 12.0528 0
68.4767 12.1078 0
69.6524 7.79428 0
70.9657 9.90988 0
69.7447 12.0806 0
68.4314 9.96489 0
69.6985 9.93761 0
70.9188 7.76657 0
73.4516 7.70976 0
73.5485 11.9959 0
71.0126 12.0528 0
72.1852 7.73839 0
73.5 9.85304 0
72.2805 12.0246 0
70.9657 9.90988 0
72.2329 9.88169 0
73.4516 7.70976 0
75.9843 7.65114 0
76.0843 11.9372 0
73.5485 11.9959 0
74.7179 7.68068 0
76.0343 9.79437 0
74.8164 11.9668 0
73.5 9.85304 0
74.7672 9.82393 0
75.9843 7.65114 0
78.5171 7.5907 0
78.6201 11.8767 0
76.0843 11.9372 0
77.2507 7.62114 0
78.5686 9.73389 0
77.3522 11.9072 0
76.0343 9.79437 0
77.3015 9.76435 0
78.5171 7.5907 0
81.0498 7.52846 0
81.1559 11.8144 0
78.6201 11.8767 0
79.7834 7.5598 0
81.1029 9.6716 0
79.888 11.8458 0
78.5686 9.73389 0
79.8357 9.70297 0
81.0498 7.52846 0
83.5825 7.46442 0
83.6916 11.7502 0
81.1559 11.8144 0
82.3162 7.49666 0
83.6371 9.60753 0
82.4238 11.7825 0
81.1029 9.6716 0
82.37 9.63979 0
83.5825 7.46442 0
86.1152 7.39861 0
86.2273 11.6843 0
83.6916 11.7502 0
84.8489 7.43174 0
86.1713 9.54167 0
84.9595 11.7175 0
83.6371 9.60753 0
84.9042 9.57482 0
86.1152 7.39861 0
88.6479 7.33102 0
88.763 11.6167 0
86.2273 11.6843 0
87.3816 7.36504 0
88.7055 9.47404 0
87.4952 11.6507 0
86.1713 9.54167 0
87.4384 9.50807 0
88.6479 7.33102 0
91.1806 7.26168 0
91.2986 11.5472 0
88.763 11.6167 0
89.9142 7.29657 0
91.2396 9.40465 0
90.0308 11.5822 0
88.7055 9.47404 0
89.9725 9.43956 0
91.1806 7.26168 0
93.7132 7.19059 0
93.8342 11.4761 0
91.2986 11.5472 0
92.4469 7.22635 0
93.7737 9.33351 0
92.5664 11.5119 0
91.2396 9.40465 0
92.5067 9.3693 0
93.7132 7.19059 0
96.2458 7.11776 0
96.3698 11.4031 0
93.8342 11.4761 0
94.9795 7.15439 0
96.3078 9.26064 0
95.102 11.4398 0
93.7737 9.33351 0
95.0408 9.29729 0
96.2458 7.11776 0
98.7784 7.04321 0
98.9053 11.3285 0
96.3698 11.4031 0
97.5121 7.0807 0
98.8419 9.18603 0
97.6375 11.366 0
96.3078 9.26064 0
97.5748 9.22355 0
98.7784 7.04321 0
101.311 6.96694 0
101.441 11.2521 0
98.9053 11.3285 0
100.045 7.00529 0
101.376 9.10971 0
100.173 11.2905 0
98.8419 9.18603 0
100.109 9.14809 0
101.311 6.96694 0
103.844 6.88896 0
103.976 11.1741 0
101.441 11.2521 0
102.577 6.92816 0
103.91 9.03169 0
102.708 11.2133 0
101.376 9.10971 0
102.643 9.07092 0
103.844 6.88896 0
106.376 6.8093 0
106.512 11.0943 0
103.976 11.1741 0
105.11 6.84934 0
106.444 8.95197 0
105.244 11.1344 0
103.91 9.03169 0
105.177 8.99204 0
106.376 6.8093 0
108.909 6.72795 0
109.047 11.0128 0
106.512 11.0943 0
107.642 6.76883 0
108.978 8.87057 0
107.779 11.0538 0
106.444 8.95197 0
107.711 8.91148 0
108.909 6.72795 0
111.441 6.64492 0
111.582 10.9297 0
109.047 11.0128 0
110.175 6.68664 0
111.512 8.7875 0
110.315 10.9715 0
108.978 8.87057 0
110.245 8.82924 0
111.441 6.64492 0
113.973 6.56024 0
114.117 10.8449 0
111.582 10.9297 0
112.707 6.60279 0
114.045 8.70276 0
112.85 10.8875 0
111.512 8.7875 0
112.779 8.74534 0
113.973 6.56024 0
116.506 6.47391 0
116.653 10.7585 0
114.117 10.8449 0
115.24 6.51728 0
116.579 8.61637 0
115.385 10.8019 0
114.045 8.70276 0
115.312 8.65977 0
116.506 6.47391 0
119.038 6.38593 0
119.188 10.6704 0
116.653 10.7585 0
117.772 6.43012 0
119.113 8.52835 0
117.92 10.7147 0
116.579 8.61637 0
117.846 8.57256 0
119.038 6.38593 0
121.571 6.29633 0
121.723 10.5807 0
119.188 10.6704 0
120.304 6.34133 0
121.647 8.43869 0
120.455 10.6258 0
119.113 8.52835 0
120.38 8.48372 0
121.571 6.29633 0
124.103 6.20511 0
124.258 10.4894 0
121.723 10.5807 0
122.837 6.25092 0
124.18 8.34742 0
122.99 10.5352 0
121.647 8.43869 0
122.914 8.39326 0
124.103 6.20511 0
126.635 6.11229 0
126.793 10.3964 0
124.258 10.4894 0
125.369 6.1589 0
126.714 8.25454 0
125.525 10.4431 0
124.18 8.34742 0
125.447 8.30118 0
126.635 6.11229 0
129.168 6.01786 0
129.328 10.3019 0
126.793 10.3964 0
127.901 6.06527 0
129.248 8.16006 0
128.06 10.3494 0
126.714 8.25454 0
127.981 8.2075 0
129.168 6.01786 0
131.7 5.92186 0
131.863 10.2058 0
129.328 10.3019 0
130.434 5.97006 0
131.781 8.064 0
130.595 10.2541 0
129.248 8.16006 0
130.515 8.11223 0
131.7 5.92186 0
134.232 5.82428 0
134.398 10.1081 0
131.863 10.2058 0
132.966 5.87326 0
134.315 7.96636 0
133.13 10.1571 0
131.781 8.064 0
133.048 8.01537 0
134.232 5.82428 0
136.764 5.72513 0
136.932 10.0089 0
134.398 10.1081 0
135.498 5.7749 0
136.848 7.86716 0
135.665 10.0587 0
134.315 7.96636 0
135.582 7.91695 0
136.764 5.72513 0
139.296 5.62444 0
139.467 9.90804 0
136.932 10.0089 0
138.03 5.67498 0
139.382 7.7664 0
138.2 9.95864 0
136.848 7.86716 0
138.115 7.81697 0
139.296 5.62444 0
141.828 5.5222 0
142.002 9.80569 0
139.467 9.90804 0
140.562 5.57351 0
141.915 7.66411 0
140.735 9.85706 0
139.382 7.7664 0
140.648 7.71545 0
141.828 5.5222 0
144.36 5.41843 0
144.537 9.70181 0
142.002 9.80569 0
143.094 5.4705 0
144.449 7.56028 0
143.269 9.75394 0
141.915 7.66411 0
143.182 7.61239 0
144.36 5.41843 0
146.892 5.31314 0
147.071 9.59641 0
144.537 9.70181 0
145.626 5.36597 0
146.982 7.45493 0
145.804 9.6493 0
144.449 7.56028 0
145.715 7.5078 0
146.892 5.31314 0
149.424 5.20634 0
149.606 9.48949 0
147.071 9.59641 0
148.158 5.25993 0
149.515 7.34808 0
148.338 9.54314 0
146.982 7.45493 0
148.248 7.40169 0
149.424 5.20634 0
151.956 5.09805 0
152.14 9.38108 0
149.606 9.48949 0
150.69 5.15238 0
152.048 7.23972 0
150.873 9.43547 0
149.515 7.34808 0
150.782 7.29409 0
151.956 5.09805 0
154.488 4.98827 0
154.675 9.27118 0
152.14 9.38108 0
153.222 5.04334 0
154.582 7.12988 0
153.407 9.32632 0
152.048 7.23972 0
153.315 7.18499 0
154.488 4.98827 0
157.02 4.87701 0
157.209 9.1598 0
154.675 9.27118 0
155.754 4.93282 0
157.115 7.01856 0
155.942 9.21568 0
154.582 7.12988 0
155.848 7.07441 0
157.02 4.87701 0
159.552 4.76428 0
159.743 9.04696 0
157.209 9.1598 0
158.286 4.82083 0
159.648 6.90578 0
158.476 9.10357 0
157.115 7.01856 0
158.381 6.96235 0
159.552 4.76428 0
162.084 4.65011 0
162.278 8.93266 0
159.743 9.04696 0
160.818 4.70738 0
162.181 6.79154 0
161.01 8.98999 0
159.648 6.90578 0
160.914 6.84884 0
162.084 4.65011 0
164.616 4.53448 0
164.812 8.81692 0
162.278 8.93266 0
163.35 4.59247 0
164.714 6.67586 0
163.545 8.87497 0
162.181 6.79154 0
163.447 6.73388 0
164.616 4.53448 0
167.147 4.41743 0
167.346 8.69975 0
164.812 8.81692 0
165.882 4.47613 0
167.247 6.55874 0
166.079 8.75851 0
164.714 6.67586 0
165.98 6.61748 0
167.147 4.41743 0
169.679 4.29895 0
169.88 8.58115 0
167.346 8.69975 0
168.413 4.35837 0
169.78 6.4402 0
168.613 8.64063 0
167.247 6.55874 0
168.513 6.49965 0
169.679 4.29895 0
172.211 4.17906 0
172.414 8.46114 0
169.88 8.58115 0
170.945 4.23918 0
172.312 6.32025 0
171.147 8.52132 0
169.78 6.4402 0
171.046 6.3804 0
172.211 4.17906 0
174.742 4.05778 0
174.948 8.33973 0
172.414 8.46114 0
173.477 4.11859 0
174.845 6.1989 0
173.681 8.40061 0
172.312 6.32025 0
173.579 6.25975 0
174.742 4.05778 0
177.274 3.9351 0
177.482 8.21693 0
174.948 8.33973 0
176.008 3.99661 0
177.378 6.07616 0
176.215 8.2785 0
174.845 6.1989 0
176.112 6.13771 0
177.274 3.9351 0
179.806 3.81104 0
180.016 8.09275 0
177.482 8.21693 0
178.54 3.87324 0
179.911 5.95204 0
178.749 8.15501 0
177.378 6.07616 0
178.644 6.01428 0
179.806 3.81104 0
182.337 3.68562 0
182.55 7.96721 0
180.016 8.09275 0
181.071 3.7485 0
182.443 5.82656 0
181.283 8.03015 0
179.911 5.95204 0
181.177 5.88947 0
182.337 3.68562 0
184.869 3.55884 0
185.083 7.8403 0
182.55 7.96721 0
183.603 3.6224 0
184.976 5.69972 0
183.817 7.90393 0
182.443 5.82656 0
183.71 5.76331 0
184.869 3.55884 0
187.4 3.43071 0
187.617 7.71206 0
185.083 7.8403 0
186.134 3.49494 0
187.509 5.57153 0
186.35 7.77635 0
184.976 5.69972 0
186.242 5.63579 0
187.4 3.43071 0
189.931 3.30125 0
190.151 7.58247 0
187.617 7.71206 0
188.666 3.36615 0
190.041 5.442 0
188.884 7.64743 0
187.509 5.57153 0
188.775 5.50693 0
189.931 3.30125 0
192.463 3.17047 0
192.684 7.45156 0
190.151 7.58247 0
191.197 3.23602 0
192.574 5.31115 0
191.417 7.51718 0
190.041 5.442 0
191.307 5.37674 0
192.463 3.17047 0
194.994 3.03837 0
195.218 7.31934 0
192.684 7.45156 0
193.728 3.10458 0
195.106 5.17899 0
193.951 7.38561 0
192.574 5.31115 0
193.84 5.24524 0
194.994 3.03837 0
197.525 2.90497 0
197.751 7.18581 0
195.218 7.31934 0
196.26 2.97183 0
197.638 5.04553 0
196.485 7.25274 0
195.106 5.17899 0
196.372 5.11242 0
197.525 2.90497 0
200.057 2.77028 0
200.285 7.051 0
197.751 7.18581 0
198.791 2.83778 0
200.171 4.91077 0
199.018 7.11857 0
197.638 5.04553 0
198.904 4.97831 0
200.057 2.77028 0
202.588 2.6343 0
202.818 6.9149 0
200.285 7.051 0
201.322 2.70245 0
202.703 4.77474 0
201.551 6.98311 0
200.171 4.91077 0
201.437 4.84291 0
202.588 2.6343 0
205.119 2.49706 0
205.351 6.77753 0
202.818 6.9149 0
203.853 2.56584 0
205.235 4.63743 0
204.085 6.84637 0
202.703 4.77474 0
203.969 4.70624 0
205.119 2.49706 0
207.65 2.35856 0
207.884 6.63891 0
205.351 6.77753 0
206.384 2.42797 0
207.767 4.49886 0
206.618 6.70838 0
205.235 4.63743 0
206.501 4.5683 0
207.65 2.35856 0
210.181 2.21881 0
210.418 6.49903 0
207.884 6.63891 0
208.915 2.28884 0
210.299 4.35905 0
209.151 6.56912 0
207.767 4.49886 0
209.033 4.42911 0
210.181 2.21881 0
212.712 2.07782 0
212.951 6.35792 0
210.418 6.49903 0
211.447 2.14847 0
212.831 4.218 0
211.684 6.42863 0
210.299 4.35905 0
211.565 4.28868 0
212.712 2.07782 0
215.243 1.93561 0
215.484 6.21558 0
212.951 6.35792 0
213.978 2.00687 0
215.363 4.07572 0
214.217 6.2869 0
212.831 4.218 0
214.097 4.14701 0
215.243 1.93561 0
217.774 1.79218 0
218.017 6.07203 0
215.484 6.21558 0
216.508 1.86404 0
217.895 3.93223 0
216.75 6.14396 0
215.363 4.07572 0
216.629 4.00413 0
217.774 1.79218 0
220.305 1.64754 0
220.55 5.92727 0
218.017 6.07203 0
219.039 1.72001 0
220.427 3.78753 0
219.283 5.9998 0
217.895 3.93223 0
219.161 3.86003 0
220.305 1.64754 0
222.836 1.50172 0
223.083 5.78132 0
220.55 5.92727 0
221.57 1.57478 0
222.959 3.64164 0
221.816 5.85444 0
220.427 3.78753 0
221.693 3.71474 0
222.836 1.50172 0
225.367 1.35471 0
225.615 5.63418 0
223.083 5.78132 0
224.101 1.42836 0
225.491 3.49457 0
224.349 5.7079 0
222.959 3.64164 0
224.225 3.56825 0
225.367 1.35471 0
227.897 1.20652 0
228.148 5.48588 0
225.615 5.63418 0
226.632 1.28076 0
228.023 3.34632 0
226.882 5.56017 0
225.491 3.49457 0
226.757 3.42059 0
227.897 1.20652 0
230.428 1.05718 0
230.681 5.33641 0
228.148 5.48588 0
229.163 1.132 0
230.554 3.19692 0
229.414 5.41129 0
228.023 3.34632 0
229.289 3.27176 0
230.428 1.05718 0
232.959 0.906686 0
233.213 5.18579 0
230.681 5.33641 0
231.693 0.982076 0
233.086 3.04636 0
231.947 5.26124 0
230.554 3.19692 0
231.82 3.12178 0
232.959 0.906686 0
235.489 0.755052 0
235.746 5.03403 0
233.213 5.18579 0
234.224 0.83101 0
235.618 2.89466 0
234.48 5.11005 0
233.086 3.04636 0
234.352 2.97065 0
235.489 0.755052 0
238.02 0.60229 0
238.279 4.88115 0
235.746 5.03403 0
236.755 0.678811 0
238.149 2.74184 0
237.012 4.95773 0
235.618 2.89466 0
236.884 2.81839 0
238.02 0.60229 0
240.551 0.448409 0
240.811 4.72714 0
238.279 4.88115 0
239.285 0.525488 0
240.681 2.58789 0
239.545 4.80428 0
238.149 2.74184 0
239.415 2.665 0
240.551 0.448409 0
243.081 0.293422 0
243.343 4.57203 0
240.811 4.72714 0
241.816 0.371053 0
243.212 2.43284 0
242.077 4.64973 0
240.681 2.58789 0
241.947 2.51051 0
243.081 0.293422 0
245.612 0.137339 0
245.876 4.41583 0
243.343 4.57203 0
244.346 0.215517 0
245.744 2.2767 0
244.61 4.49407 0
243.212 2.43284 0
244.478 2.35491 0
245.612 0.137339 0
248.142 -0.0198296 0
248.408 4.25854 0
245.876 4.41583 0
246.877 0.0588897 0
248.275 2.11947 0
247.142 4.33732 0
245.744 2.2767 0
247.009 2.19822 0
248.142 -0.0198296 0
250.672 -0.178072 0
250.94 4.10017 0
248.408 4.25854 0
249.407 -0.0988174 0
250.806 1.96116 0
249.674 4.17949 0
248.275 2.11947 0
249.541 2.04045 0
250.672 -0.178072 0
253.203 -0.337379 0
253.472 3.94075 0
250.94 4.10017 0
251.938 -0.257593 0
253.338 1.8018 0
252.206 4.02059 0
250.806 1.96116 0
252.072 1.88161 0
253.203 -0.337379 0
255.733 -0.497738 0
256.004 3.78027 0
253.472 3.94075 0
254.468 -0.417428 0
255.869 1.64137 0
254.738 3.86064 0
253.338 1.8018 0
254.603 1.72172 0
255.733 -0.497738 0
258.264 -0.659139 0
258.537 3.61874 0
256.004 3.78027 0
256.998 -0.578309 0
258.4 1.47991 0
257.27 3.69963 0
255.869 1.64137 0
257.134 1.56077 0
258.264 -0.659139 0
260.794 -0.821571 0
261.069 3.45619 0
258.537 3.61874 0
259.529 -0.740227 0
260.931 1.31742 0
259.803 3.5376 0
258.4 1.47991 0
259.666 1.39879 0
260.794 -0.821571 0
263.324 -0.985023 0
263.6 3.29262 0
261.069 3.45619 0
262.059 -0.90317 0
263.462 1.15391 0
262.334 3.37453 0
260.931 1.31742 0
262.197 1.23579 0
263.324 -0.985023 0
265.854 -1.14948 0
266.132 3.12804 0
263.6 3.29262 0
264.589 -1.06713 0
265.993 0.989384 0
264.866 3.21046 0
263.462 1.15391 0
264.728 1.07177 0
265.854 -1.14948 0
268.384 -1.31494 0
268.664 2.96246 0
266.132 3.12804 0
267.119 -1.23209 0
268.524 0.823863 0
267.398 3.04538 0
265.993 0.989384 0
267.259 0.906748 0
268.384 -1.31494 0
270.914 -1.48139 0
271.196 2.7959 0
268.664 2.96246 0
269.649 -1.39805 0
271.055 0.657356 0
269.93 2.8793 0
268.524 0.823863 0
269.79 0.740732 0
270.914 -1.48139 0
273.445 -1.64882 0
273.728 2.62835 0
271.196 2.7959 0
272.18 -1.56498 0
273.586 0.489872 0
272.462 2.71225 0
271.055 0.657356 0
272.321 0.573735 0
273.445 -1.64882 0
275.975 -1.81721 0
276.259 2.45985 0
273.728 2.62835 0
274.71 -1.73289 0
276.117 0.321422 0
274.993 2.54422 0
273.586 0.489872 0
274.852 0.405767 0
275.975 -1.81721 0
278.505 -1.98655 0
278.791 2.29039 0
276.259 2.45985 0
277.24 -1.90176 0
278.648 0.152017 0
277.525 2.37524 0
276.117 0.321422 0
277.382 0.236838 0
278.505 -1.98655 0
281.035 -2.15684 0
281.322 2.11998 0
278.791 2.29039 0
279.77 -2.07158 0
281.179 -0.0183312 0
280.057 2.2053 0
278.648 0.152017 0
279.913 0.0669604 0
281.035 -2.15684 0
283.564 -2.32806 0
283.854 1.94864 0
281.322 2.11998 0
282.3 -2.24234 0
283.709 -0.189613 0
282.588 2.03443 0
281.179 -0.0183312 0
282.444 -0.103856 0
283.564 -2.32806 0
286.094 -2.50021 0
286.385 1.77638 0
283.854 1.94864 0
284.829 -2.41402 0
286.24 -0.361816 0
285.12 1.86263 0
283.709 -0.189613 0
284.975 -0.2756 0
286.094 -2.50021 0
288.624 -2.67327 0
288.917 1.60321 0
286.385 1.77638 0
287.359 -2.58663 0
288.771 -0.534931 0
287.651 1.68991 0
286.24 -0.361816 0
287.505 -0.448261 0
288.624 -2.67327 0
291.154 -2.84723 0
291.448 1.42914 0
288.917 1.60321 0
289.889 -2.76013 0
291.301 -0.708947 0
290.182 1.51629 0
288.771 -0.534931 0
290.036 -0.621827 0
291.154 -2.84723 0
293.684 -3.02207 0
293.979 1.25418 0
291.448 1.42914 0
292.419 -2.93454 0
293.832 -0.883852 0
292.714 1.34177 0
291.301 -0.708947 0
292.566 -0.796289 0
293.684 -3.02207 0
296.214 -3.1978 0
296.511 1.07834 0
293.979 1.25418 0
294.949 -3.10983 0
296.362 -1.05964 0
295.245 1.16637 0
293.832 -0.883852 0
295.097 -0.971635 0
296.214 -3.1978 0
298.743 -3.3744 0
299.042 0.901638 0
296.511 1.07834 0
297.479 -3.28599 0
298.893 -1.23629 0
297.776 0.990099 0
296.362 -1.05964 0
297.627 -1.14785 0
298.743 -3.3744 0
301.273 -3.55185 0
301.573 0.724075 0
299.042 0.901638 0
300.008 -3.46302 0
301.423 -1.4138 0
300.307 0.812963 0
298.893 -1.23629 0
300.158 -1.32494 0
301.273 -3.55185 0
303.803 -3.73015 0
304.104 0.545667 0
301.573 0.724075 0
302.538 -3.64089 0
303.953 -1.59215 0
302.839 0.634976 0
301.423 -1.4138 0
302.688 -1.50287 0
303.803 -3.73015 0
306.332 -3.90928 0
306.635 0.366423 0
304.104 0.545667 0
305.068 -3.81961 0
306.484 -1.77134 0
305.37 0.456149 0
303.953 -1.59215 0
305.219 -1.68164 0
306.332 -3.90928 0
308.862 -4.08924 0
309.166 0.186356 0
306.635 0.366423 0
307.597 -3.99916 0
309.014 -1.95136 0
307.901 0.276492 0
306.484 -1.77134 0
307.749 -1.86125 0
308.862 -4.08924 0
311.392 -4.27002 0
311.697 0.0054745 0
309.166 0.186356 0
310.127 -4.17953 0
311.544 -2.13219 0
310.432 0.096016 0
309.014 -1.95136 0
310.279 -2.04167 0
311.392 -4.27002 0
313.921 -4.4516 0
314.228 -0.176209 0
311.697 0.0054745 0
312.656 -4.36071 0
314.075 -2.31382 0
312.962 -0.0852676 0
311.544 -2.13219 0
312.809 -2.2229 0
313.921 -4.4516 0
316.451 -4.63397 0
316.759 -0.358684 0
314.228 -0.176209 0
315.186 -4.54268 0
316.605 -2.49624 0
315.493 -0.267348 0
314.075 -2.31382 0
315.34 -2.40493 0
316.451 -4.63397 0
318.98 -4.81712 0
319.29 -0.54194 0
316.759 -0.358684 0
317.715 -4.72545 0
319.135 -2.67945 0
318.024 -0.450215 0
316.605 -2.49624 0
317.87 -2.58775 0
318.98 -4.81712 0
321.51 -5.00104 0
321.82 -0.725965 0
319.29 -0.54194 0
320.245 -4.90899 0
321.665 -2.86342 0
320.555 -0.633857 0
319.135 -2.67945 0
320.4 -2.77134 0
321.51 -5.00104 0
324.039 -5.18573 0
324.351 -0.91075 0
321.82 -0.725965 0
322.774 -5.09329 0
324.195 -3.04816 0
323.086 -0.818263 0
321.665 -2.86342 0
322.93 -2.9557 0
324.039 -5.18573 0
326.568 -5.37116 0
326.882 -1.09628 0
324.351 -0.91075 0
325.304 -5.27835 0
326.725 -3.23364 0
325.616 -1.00342 0
324.195 -3.04816 0
325.46 -3.14081 0
326.568 -5.37116 0
329.098 -5.55733 0
329.412 -1.28255 0
326.882 -1.09628 0
327.833 -5.46415 0
329.255 -3.41986 0
328.147 -1.18933 0
326.725 -3.23364 0
327.99 -3.32666 0
329.098 -5.55733 0
331.627 -5.74423 0
331.943 -1.46955 0
329.412 -1.28255 0
330.362 -5.65069 0
331.785 -3.60681 0
330.678 -1.37596 0
329.255 -3.41986 0
330.52 -3.51325 0
331.627 -5.74423 0
334.156 -5.93184 0
334.473 -1.65726 0
331.943 -1.46955 0
332.892 -5.83794 0
334.315 -3.79448 0
333.208 -1.56332 0
331.785 -3.60681 0
333.05 -3.70056 0
334.156 -5.93184 0
336.686 -6.12016 0
337.004 -1.84568 0
334.473 -1.65726 0
335.421 -6.02591 0
336.845 -3.98285 0
335.739 -1.75138 0
334.315 -3.79448 0
335.58 -3.88857 0
336.686 -6.12016 0
339.215 -6.30917 0
339.534 -2.03479 0
337.004 -1.84568 0
337.95 -6.21458 0
339.375 -4.17191 0
338.269 -1.94015 0
336.845 -3.98285 0
338.11 -4.07729 0
339.215 -6.30917 0
341.744 -6.49887 0
342.065 -2.22458 0
339.534 -2.03479 0
340.48 -6.40394 0
341.905 -4.36166 0
340.8 -2.1296 0
339.375 -4.17191 0
340.64 -4.2667 0
341.744 -6.49887 0
344.274 -6.68925 0
344.595 -2.41505 0
342.065 -2.22458 0
343.009 -6.59398 0
344.434 -4.55208 0
343.33 -2.31973 0
341.905 -4.36166 0
343.169 -4.45679 0
344.274 -6.68925 0
346.803 -6.88028 0
347.125 -2.60618 0
344.595 -2.41505 0
345.538 -6.78468 0
346.964 -4.74316 0
345.86 -2.51053 0
344.434 -4.55208 0
345.699 -4.64754 0
346.803 -6.88028 0
349.332 -7.07197 0
349.656 -2.79796 0
347.125 -2.60618 0
348.067 -6.97604 0
349.494 -4.93489 0
348.391 -2.70199 0
346.964 -4.74316 0
348.229 -4.83895 0
349.332 -7.07197 0
351.861 -7.2643 0
352.186 -2.99037 0
349.656 -2.79796 0
350.597 -7.16805 0
352.024 -5.12727 0
350.921 -2.89409 0
349.494 -4.93489 0
350.759 -5.031 0
351.861 -7.2643 0
354.39 -7.45725 0
354.716 -3.18342 0
352.186 -2.99037 0
353.126 -7.3607 0
354.553 -5.32027 0
353.451 -3.08682 0
352.024 -5.12727 0
353.288 -5.22369 0
354.39 -7.45725 0
356.919 -7.65083 0
357.246 -3.37709 0
354.716 -3.18342 0
355.655 -7.55397 0
357.083 -5.51389 0
355.981 -3.28018 0
354.553 -5.32027 0
355.818 -5.41701 0
356.919 -7.65083 0
359.448 -7.84502 0
359.776 -3.57136 0
357.246 -3.37709 0
358.184 -7.74785 0
359.612 -5.70812 0
358.511 -3.47415 0
357.083 -5.51389 0
358.348 -5.61093 0
359.448 -7.84502 0
361.978 -8.0398 0
362.306 -3.76623 0
359.776 -3.57136 0
360.713 -7.94233 0
362.142 -5.90295 0
361.041 -3.66872 0
359.612 -5.70812 0
360.877 -5.80546 0
361.978 -8.0398 0
364.507 -8.23517 0
364.836 -3.96168 0
362.306 -3.76623 0
363.242 -8.13741 0
364.672 -6.09836 0
363.571 -3.86388 0
362.142 -5.90295 0
363.407 -6.00058 0
364.507 -8.23517 0
367.036 -8.43111 0
367.367 -4.15771 0
364.836 -3.96168 0
365.771 -8.33307 0
367.201 -6.29435 0
366.102 -4.05962 0
364.672 -6.09836 0
365.936 -6.19629 0
367.036 -8.43111 0
369.565 -8.62762 0
369.896 -4.3543 0
367.367 -4.15771 0
368.3 -8.5293 0
369.731 -6.4909 0
368.632 -4.25593 0
367.201 -6.29435 0
368.466 -6.39256 0
369.565 -8.62762 0
372.094 -8.82469 0
372.426 -4.55145 0
369.896 -4.3543 0
370.829 -8.72609 0
372.26 -6.68801 0
371.161 -4.4528 0
369.731 -6.4909 0
370.995 -6.58939 0
372.094 -8.82469 0
374.623 -9.02229 0
374.956 -4.74913 0
372.426 -4.55145 0
373.358 -8.92342 0
374.79 -6.88566 0
373.691 -4.65022 0
372.26 -6.68801 0
373.525 -6.78677 0
374.623 -9.02229 0
377.152 -9.22043 0
377.486 -4.94735 0
374.956 -4.74913 0
375.887 -9.1213 0
377.319 -7.08384 0
376.221 -4.84818 0
374.79 -6.88566 0
376.054 -6.98468 0
377.152 -9.22043 0
379.681 -9.4191 0
380.016 -5.14609 0
377.486 -4.94735 0
378.416 -9.3197 0
379.848 -7.28254 0
378.751 -5.04666 0
377.319 -7.08384 0
378.584 -7.18313 0
379.681 -9.4191 0
382.21 -9.61827 0
382.546 -5.34534 0
380.016 -5.14609 0
380.945 -9.51862 0
382.378 -7.48175 0
381.281 -5.24565 0
379.848 -7.28254 0
381.113 -7.38208 0
382.21 -9.61827 0
384.739 -9.81794 0
385.076 -5.54509 0
382.546 -5.34534 0
383.474 -9.71804 0
384.907 -7.68146 0
383.811 -5.44515 0
382.378 -7.48175 0
383.643 -7.58155 0
384.739 -9.81794 0
387.268 -10.0181 0
387.605 -5.74532 0
385.076 -5.54509 0
386.003 -9.91796 0
387.437 -7.88166 0
386.341 -5.64515 0
384.907 -7.68146 0
386.172 -7.7815 0
387.268 -10.0181 0
389.797 -10.2187 0
390.135 -5.94604 0
387.605 -5.74532 0
388.532 -10.1184 0
389.966 -8.08234 0
388.87 -5.84562 0
387.437 -7.88166 0
388.701 -7.98194 0
389.797 -10.2187 0
392.325 -10.4199 0
392.665 -6.14722 0
390.135 -5.94604 0
391.061 -10.3192 0
392.495 -8.28349 0
391.4 -6.04657 0
389.966 -8.08234 0
391.231 -8.18286 0
392.325 -10.4199 0
394.854 -10.6214 0
395.195 -6.34885 0
392.665 -6.14722 0
393.59 -10.5206 0
395.024 -8.48509 0
393.93 -6.24798 0
392.495 -8.28349 0
393.76 -8.38423 0
394.854 -10.6214 0
397.383 -10.8234 0
397.724 -6.55093 0
395.195 -6.34885 0
396.119 -10.7224 0
397.554 -8.68713 0
396.459 -6.44983 0
395.024 -8.48509 0
396.289 -8.58606 0
397.383 -10.8234 0
399.912 -11.0259 0
400.254 -6.75344 0
397.724 -6.55093 0
398.648 -10.9246 0
400.083 -8.88961 0
398.989 -6.65213 0
397.554 -8.68713 0
398.818 -8.78832 0
399.912 -11.0259 0
402.441 -11.2287 0
402.783 -6.95638 0
400.254 -6.75344 0
401.177 -11.1273 0
402.612 -9.09252 0
401.519 -6.85486 0
400.083 -8.88961 0
401.348 -8.99101 0
402.441 -11.2287 0
404.97 -11.432 0
405.313 -7.15973 0
402.783 -6.95638 0
403.706 -11.3303 0
405.142 -9.29584 0
404.048 -7.058 0
402.612 -9.09252 0
403.877 -9.19413 0
404.97 -11.432 0
407.499 -11.6357 0
407.843 -7.36348 0
405.313 -7.15973 0
406.234 -11.5338 0
407.671 -9.49956 0
406.578 -7.26155 0
405.142 -9.29584 0
406.406 -9.39765 0
407.499 -11.6357 0
410.028 -11.8398 0
410.372 -7.56762 0
407.843 -7.36348 0
408.763 -11.7377 0
410.2 -9.70367 0
409.107 -7.4655 0
407.671 -9.49956 0
408.935 -9.60156 0
410.028 -11.8398 0
412.557 -12.0443 0
412.902 -7.77214 0
410.372 -7.56762 0
411.292 -11.942 0
412.729 -9.90816 0
411.637 -7.66983 0
410.2 -9.70367 0
411.465 -9.80586 0
412.557 -12.0443 0
415.086 -12.2491 0
415.431 -7.97702 0
412.902 -7.77214 0
413.821 -12.1466 0
415.258 -10.113 0
414.166 -7.87453 0
412.729 -9.90816 0
413.994 -10.0105 0
415.086 -12.2491 0
417.614 -12.4543 0
417.961 -8.18227 0
415.431 -7.97702 0
416.35 -12.3516 0
417.788 -10.3182 0
416.696 -8.0796 0
415.258 -10.113 0
416.523 -10.2156 0
417.614 -12.4543 0
420.143 -12.6598 0
420.49 -8.38786 0
417.961 -8.18227 0
418.879 -12.557 0
420.317 -10.5238 0
419.225 -8.28502 0
417.788 -10.3182 0
419.052 -10.421 0
420.143 -12.6598 0
422.672 -12.8657 0
423.019 -8.59379 0
420.49 -8.38786 0
421.408 -12.7627 0
422.846 -10.7297 0
421.755 -8.49079 0
420.317 -10.5238 0
421.581 -10.6267 0
422.672 -12.8657 0
425.201 -13.0719 0
425.549 -8.80005 0
423.019 -8.59379 0
423.937 -12.9687 0
425.375 -10.9359 0
424.284 -8.69688 0
422.846 -10.7297 0
424.11 -10.8328 0
425.201 -13.0719 0
427.73 -13.2784 0
428.078 -9.00662 0
425.549 -8.80005 0
426.465 -13.1751 0
427.904 -11.1425 0
426.814 -8.9033 0
425.375 -10.9359 0
426.64 -11.0392 0
427.73 -13.2784 0
430.259 -13.4852 0
430.608 -9.21349 0
428.078 -9.00662 0
428.994 -13.3818 0
430.433 -11.3493 0
429.343 -9.11002 0
427.904 -11.1425 0
429.169 -11.2459 0
430.259 -13.4852 0
432.788 -13.6923 0
433.137 -9.42066 0
430.608 -9.21349 0
431.523 -13.5888 0
432.962 -11.5565 0
431.872 -9.31704 0
430.433 -11.3493 0
431.698 -11.4529 0
432.788 -13.6923 0
435.317 -13.8998 0
435.666 -9.62811 0
433.137 -9.42066 0
434.052 -13.796 0
435.491 -11.7639 0
434.402 -9.52435 0
432.962 -11.5565 0
434.227 -11.6602 0
435.317 -13.8998 0
437.845 -14.1074 0
438.196 -9.83583 0
435.666 -9.62811 0
436.581 -14.0036 0
438.021 -11.9716 0
436.931 -9.73194 0
435.491 -11.7639 0
436.756 -11.8677 0
437.845 -14.1074 0
440.374 -14.3154 0
440.725 -10.0438 0
438.196 -9.83583 0
439.11 -14.2114 0
440.55 -12.1796 0
439.46 -9.93979 0
438.021 -11.9716 0
439.285 -12.0755 0
440.374 -14.3154 0
442.903 -14.5235 0
443.254 -10.252 0
440.725 -10.0438 0
441.639 -14.4194 0
443.079 -12.3878 0
441.99 -10.1479 0
440.55 -12.1796 0
441.814 -12.2836 0
442.903 -14.5235 0
445.432 -14.732 0
445.784 -10.4605 0
443.254 -10.252 0
444.168 -14.6277 0
445.608 -12.5962 0
444.519 -10.3562 0
443.079 -12.3878 0
444.343 -12.492 0
445.432 -14.732 0
447.961 -14.9406 0
448.313 -10.6692 0
445.784 -10.4605 0
446.697 -14.8363 0
448.137 -12.8049 0
447.048 -10.5648 0
445.608 -12.5962 0
446.872 -12.7005 0
447.961 -14.9406 0
450.49 -15.1495 0
450.842 -10.8781 0
448.313 -10.6692 0
449.226 -15.045 0
450.666 -13.0138 0
449.578 -10.7736 0
448.137 -12.8049 0
449.402 -12.9093 0
450.49 -15.1495 0
453.019 -15.3586 0
453.372 -11.0872 0
450.842 -10.8781 0
451.755 -15.254 0
453.195 -13.2229 0
452.107 -10.9827 0
450.666 -13.0138 0
451.931 -13.1183 0
453.019 -15.3586 0
455.548 -15.5679 0
455.901 -11.2966 0
453.372 -11.0872 0
454.283 -15.4632 0
455.724 -13.4322 0
454.636 -11.1919 0
453.195 -13.2229 0
454.46 -13.3275 0
455.548 -15.5679 0
458.077 -15.7773 0
458.43 -11.5061 0
455.901 -11.2966 0
456.812 -15.6726 0
458.254 -13.6417 0
457.165 -11.4013 0
455.724 -13.4322 0
456.989 -13.5369 0
458.077 -15.7773 0
460.606 -15.987 0
460.959 -11.7157 0
458.43 -11.5061 0
459.341 -15.8821 0
460.783 -13.8513 0
459.695 -11.6109 0
458.254 -13.6417 0
459.518 -13.7465 0
460.606 -15.987 0
463.135 -16.1968 0
463.489 -11.9256 0
460.959 -11.7157 0
461.87 -16.0919 0
463.312 -14.0612 0
462.224 -11.8206 0
460.783 -13.8513 0
462.047 -13.9562 0
463.135 -16.1968 0
465.664 -16.4068 0
466.018 -12.1356 0
463.489 -11.9256 0
464.399 -16.3018 0
465.841 -14.2712 0
464.753 -12.0306 0
463.312 -14.0612 0
464.576 -14.1661 0
465.664 -16.4068 0
468.193 -16.6169 0
468.547 -12.3457 0
466.018 -12.1356 0
466.928 -16.5118 0
468.37 -14.4813 0
467.282 -12.2406 0
465.841 -14.2712 0
467.105 -14.3762 0
468.193 -16.6169 0
470.722 -16.8271 0
471.076 -12.556 0
468.547 -12.3457 0
469.457 -16.722 0
470.899 -14.6915 0
469.812 -12.4508 0
468.37 -14.4813 0
469.635 -14.5864 0
470.722 -16.8271 0
473.251 -17.0375 0
473.606 -12.7664 0
471.076 -12.556 0
471.986 -16.9323 0
473.428 -14.9019 0
472.341 -12.6611 0
470.899 -14.6915 0
472.164 -14.7967 0
473.251 -17.0375 0
475.78 -17.2479 0
476.135 -12.9768 0
473.606 -12.7664 0
474.516 -17.1427 0
475.957 -15.1124 0
474.87 -12.8716 0
473.428 -14.9019 0
474.693 -15.0071 0
475.78 -17.2479 0
478.309 -17.4585 0
478.664 -13.1874 0
476.135 -12.9768 0
477.045 -17.3532 0
478.487 -15.323 0
477.399 -13.0821 0
475.957 -15.1124 0
477.222 -15.2177 0
478.309 -17.4585 0
480.838 -17.6692 0
481.193 -13.3981 0
478.664 -13.1874 0
479.574 -17.5638 0
481.016 -15.5336 0
479.929 -13.2928 0
478.487 -15.323 0
479.751 -15.4283 0
480.838 -17.6692 0
483.367 -17.8799 0
483.723 -13.6089 0
481.193 -13.3981 0
482.103 -17.7745 0
483.545 -15.7444 0
482.458 -13.5035 0
481.016 -15.5336 0
482.28 -15.639 0
483.367 -17.8799 0
485.897 -18.0907 0
486.252 -13.8197 0
483.723 -13.6089 0
484.632 -17.9853 0
486.074 -15.9552 0
484.987 -13.7143 0
483.545 -15.7444 0
484.81 -15.8498 0
485.897 -18.0907 0
488.426 -18.3016 0
488.781 -14.0306 0
486.252 -13.8197 0
487.161 -18.1961 0
488.604 -16.1661 0
487.517 -13.9252 0
486.074 -15.9552 0
487.339 -16.0606 0
488.426 -18.3016 0
490.955 -18.5125 0
491.31 -14.2415 0
488.781 -14.0306 0
489.69 -18.407 0
491.133 -16.377 0
490.046 -14.1361 0
488.604 -16.1661 0
489.868 -16.2715 0
490.955 -18.5125 0
493.484 -18.7235 0
493.84 -14.4525 0
491.31 -14.2415 0
492.22 -18.618 0
493.662 -16.588 0
492.575 -14.347 0
491.133 -16.377 0
492.397 -16.4825 0
493.484 -18.7235 0
496.014 -18.9344 0
496.369 -14.6633 0
493.84 -14.4525 0
494.749 -18.8289 0
496.191 -16.7989 0
495.104 -14.5579 0
493.662 -16.588 0
494.927 -16.6934 0
496.014 -18.9344 0
498.543 -19.1453 0
498.898 -14.8741 0
496.369 -14.6633 0
497.278 -19.0399 0
498.721 -17.0097 0
497.634 -14.7687 0
496.191 -16.7989 0
497.456 -16.9043 0
0 12.8571 0
2.53647 12.8574 0
2.53962 17.1431 0
0 17.1429 0
1.26824 12.8577 0
2.53804 15.0003 0
1.2698 17.1434 0
0 15 0
1.26902 15.0006 0
2.53647 12.8574 0
5.0728 12.8547 0
5.07936 17.1404 0
2.53962 17.1431 0
3.80465 12.8564 0
5.07608 14.9977 0
3.80947 17.1421 0
2.53804 15.0003 0
3.80706 14.9994 0
5.0728 12.8547 0
7.60908 12.8495 0
7.61917 17.1352 0
5.07936 17.1404 0
6.34095 12.8524 0
7.61413 14.9925 0
6.34926 17.1381 0
5.07608 14.9977 0
6.34511 14.9954 0
7.60908 12.8495 0
10.1453 12.8419 0
10.159 17.1276 0
7.61917 17.1352 0
8.8772 12.846 0
10.1522 14.985 0
8.88909 17.1316 0
7.61413 14.9925 0
8.88314 14.989 0
10.1453 12.8419 0
12.6815 12.8321 0
12.6988 17.1178 0
10.159 17.1276 0
11.4134 12.8373 0
12.6902 14.9752 0
11.4289 17.1229 0
10.1522 14.985 0
11.4212 14.9803 0
12.6815 12.8321 0
15.2178 12.8202 0
15.2387 17.1059 0
12.6988 17.1178 0
13.9497 12.8264 0
15.2282 14.9633 0
13.9688 17.1121 0
12.6902 14.9752 0
13.9592 14.9695 0
15.2178 12.8202 0
17.754 12.8062 0
17.7784 17.0919 0
15.2387 17.1059 0
16.4859 12.8135 0
17.7662 14.9493 0
16.5086 17.0991 0
15.2282 14.9633 0
16.4972 14.9565 0
17.754 12.8062 0
20.2903 12.7902 0
20.3182 17.0758 0
17.7784 17.0919 0
19.0221 12.7985 0
20.3042 14.9332 0
19.0483 17.0841 0
17.7662 14.9493 0
19.0352 14.9415 0
20.2903 12.7902 0
22.8265 12.7721 0
22.8579 17.0577 0
20.3182 17.0758 0
21.5584 12.7814 0
22.8422 14.9151 0
21.5881 17.067 0
20.3042 14.9332 0
21.5732 14.9244 0
22.8265 12.7721 0
25.3628 12.752 0
25.3976 17.0375 0
22.8579 17.0577 0
24.0946 12.7623 0
25.3802 14.895 0
24.1278 17.0479 0
22.8422 14.9151 0
24.1112 14.9053 0
25.3628 12.752 0
27.899 12.7298 0
27.9373 17.0154 0
25.3976 17.0375 0
26.6309 12.7412 0
27.9181 14.8728 0
26.6675 17.0267 0
25.3802 14.895 0
26.6492 14.8842 0
27.899 12.7298 0
30.4352 12.7057 0
30.4769 16.9911 0
27.9373 17.0154 0
29.1671 12.718 0
30.4561 14.8486 0
29.2071 17.0035 0
27.9181 14.8728 0
29.1871 14.861 0
30.4352 12.7057 0
32.9714 12.6795 0
33.0166 16.9649 0
30.4769 16.9911 0
31.7033 12.6928 0
32.994 14.8224 0
31.7468 16.9783 0
30.4561 14.8486 0
31.725 14.8358 0
32.9714 12.6795 0
35.5077 12.6513 0
35.5561 16.9367 0
33.0166 16.9649 0
34.2396 12.6656 0
35.5319 14.7942 0
34.2863 16.9511 0
32.994 14.8224 0
34.263 14.8086 0
35.5077 12.6513 0
38.0439 12.6211 0
38.0957 16.9065 0
35.5561 16.9367 0
36.7758 12.6365 0
38.0698 14.764 0
36.8259 16.9218 0
35.5319 14.7942 0
36.8008 14.7794 0
38.0439 12.6211 0
40.58 12.589 0
40.6352 16.8743 0
38.0957 16.9065 0
39.312 12.6053 0
40.6076 14.7318 0
39.3654 16.8906 0
38.0698 14.764 0
39.3387 14.7482 0
40.58 12.589 0
43.1162 12.5549 0
43.1747 16.8401 0
40.6352 16.8743 0
41.8481 12.5722 0
43.1455 14.6977 0
41.9049 16.8575 0
40.6076 14.7318 0
41.8765 14.715 0
43.1162 12.5549 0
45.6524 12.5188 0
45.7141 16.804 0
43.1747 16.8401 0
44.3843 12.5371 0
45.6832 14.6616 0
44.4444 16.8223 0
43.1455 14.6977 0
44.4144 14.6799 0
45.6524 12.5188 0
48.1885 12.4808 0
48.2535 16.7659 0
45.7141 16.804 0
46.9204 12.5 0
48.221 14.6236 0
46.9838 16.7852 0
45.6832 14.6616 0
46.9521 14.6428 0
48.1885 12.4808 0
50.7246 12.4408 0
50.7929 16.7259 0
48.2535 16.7659 0
49.4565 12.461 0
50.7588 14.5836 0
49.5232 16.7462 0
48.221 14.6236 0
49.4899 14.6038 0
50.7246 12.4408 0
53.2607 12.3989 0
53.3322 16.684 0
50.7929 16.7259 0
51.9926 12.4201 0
53.2965 14.5417 0
52.0626 16.7052 0
50.7588 14.5836 0
52.0276 14.5629 0
53.2607 12.3989 0
55.7968 12.3551 0
55.8715 16.6402 0
53.3322 16.684 0
54.5287 12.3773 0
55.8341 14.4978 0
54.6019 16.6623 0
53.2965 14.5417 0
54.5653 14.52 0
55.7968 12.3551 0
58.3328 12.3094 0
58.4108 16.5944 0
55.8715 16.6402 0
57.0648 12.3325 0
58.3718 14.4521 0
57.1412 16.6175 0
55.8341 14.4978 0
57.103 14.4752 0
58.3328 12.3094 0
60.8688 12.2618 0
60.95 16.5468 0
58.4108 16.5944 0
59.6008 12.2859 0
60.9094 14.4045 0
59.6804 16.5708 0
58.3718 14.4521 0
59.6406 14.4285 0
60.8688 12.2618 0
63.4048 12.2124 0
63.4891 16.4972 0
60.95 16.5468 0
62.1368 12.2373 0
63.447 14.355 0
62.2196 16.5222 0
60.9094 14.4045 0
62.1782 14.38 0
63.4048 12.2124 0
65.9408 12.161 0
66.0282 16.4458 0
63.4891 16.4972 0
64.6728 12.1869 0
65.9845 14.3036 0
64.7587 16.4718 0
63.447 14.355 0
64.7157 14.3296 0
65.9408 12.161 0
68.4767 12.1078 0
68.5673 16.3926 0
66.0282 16.4458 0
67.2087 12.1347 0
68.522 14.2504 0
67.2978 16.4194 0
65.9845 14.3036 0
67.2533 14.2773 0
68.4767 12.1078 0
71.0126 12.0528 0
71.1063 16.3375 0
68.5673 16.3926 0
69.7447 12.0806 0
71.0595 14.1953 0
69.8368 16.3652 0
68.522 14.2504 0
69.7907 14.2231 0
71.0126 12.0528 0
73.5485 11.9959 0
73.6453 16.2805 0
71.1063 16.3375 0
72.2805 12.0246 0
73.5969 14.1384 0
72.3758 16.3092 0
71.0595 14.1953 0
72.3282 14.1671 0
73.5485 11.9959 0
76.0843 11.9372 0
76.1842 16.2217 0
73.6453 16.2805 0
74.8164 11.9668 0
76.1343 14.0797 0
74.9148 16.2514 0
73.5969 14.1384 0
74.8656 14.1093 0
76.0843 11.9372 0
78.6201 11.8767 0
78.7231 16.1611 0
76.1842 16.2217 0
77.3522 11.9072 0
78.6716 14.0191 0
77.4536 16.1917 0
76.1343 14.0797 0
77.4029 14.0496 0
78.6201 11.8767 0
81.1559 11.8144 0
81.2619 16.0987 0
78.7231 16.1611 0
79.888 11.8458 0
81.2089 13.9567 0
79.9925 16.1302 0
78.6716 14.0191 0
79.9403 13.9882 0
81.1559 11.8144 0
83.6916 11.7502 0
83.8006 16.0345 0
81.2619 16.0987 0
82.4238 11.7825 0
83.7461 13.8926 0
82.5313 16.0669 0
81.2089 13.9567 0
82.4775 13.9249 0
83.6916 11.7502 0
86.2273 11.6843 0
86.3393 15.9686 0
83.8006 16.0345 0
84.9595 11.7175 0
86.2833 13.8266 0
85.07 16.0018 0
83.7461 13.8926 0
85.0147 13.8598 0
86.2273 11.6843 0
88.763 11.6167 0
88.878 15.9008 0
86.3393 15.9686 0
87.4952 11.6507 0
88.8205 13.7589 0
87.6087 15.9349 0
86.2833 13.8266 0
87.5519 13.793 0
88.763 11.6167 0
91.2986 11.5472 0
91.4166 15.8313 0
88.878 15.9008 0
90.0308 11.5822 0
91.3576 13.6895 0
90.1473 15.8663 0
88.8205 13.7589 0
90.0891 13.7244 0
91.2986 11.5472 0
93.8342 11.4761 0
93.9551 15.76 0
91.4166 15.8313 0
92.5664 11.5119 0
93.8947 13.6182 0
92.6859 15.7959 0
91.3576 13.6895 0
92.6261 13.6541 0
93.8342 11.4761 0
96.3698 11.4031 0
96.4936 15.687 0
93.9551 15.76 0
95.102 11.4398 0
96.4317 13.5453 0
95.2244 15.7238 0
93.8947 13.6182 0
95.1632 13.582 0
96.3698 11.4031 0
98.9053 11.3285 0
99.032 15.6123 0
96.4936 15.687 0
97.6375 11.366 0
98.9686 13.4706 0
97.7628 15.6499 0
96.4317 13.5453 0
97.7002 13.5081 0
98.9053 11.3285 0
101.441 11.2521 0
101.57 15.5359 0
99.032 15.6123 0
100.173 11.2905 0
101.506 13.3942 0
100.301 15.5743 0
98.9686 13.4706 0
100.237 13.4326 0
101.441 11.2521 0
103.976 11.1741 0
104.109 15.4577 0
101.57 15.5359 0
102.708 11.2133 0
104.042 13.3161 0
102.84 15.497 0
101.506 13.3942 0
102.774 13.3553 0
103.976 11.1741 0
106.512 11.0943 0
106.647 15.3778 0
104.109 15.4577 0
105.244 11.1344 0
106.579 13.2362 0
105.378 15.418 0
104.042 13.3161 0
105.311 13.2764 0
106.512 11.0943 0
109.047 11.0128 0
109.185 15.2963 0
106.647 15.3778 0
107.779 11.0538 0
109.116 13.1547 0
107.916 15.3373 0
106.579 13.2362 0
107.848 13.1957 0
109.047 11.0128 0
111.582 10.9297 0
111.723 15.2131 0
109.185 15.2963 0
110.315 10.9715 0
111.653 13.0716 0
110.454 15.2549 0
109.116 13.1547 0
110.384 13.1134 0
111.582 10.9297 0
114.117 10.8449 0
114.261 15.1282 0
111.723 15.2131 0
112.85 10.8875 0
114.189 12.9867 0
112.992 15.1709 0
111.653 13.0716 0
112.921 13.0294 0
114.117 10.8449 0
116.653 10.7585 0
116.799 15.0417 0
114.261 15.1282 0
115.385 10.8019 0
116.726 12.9003 0
115.53 15.0851 0
114.189 12.9867 0
115.458 12.9437 0
116.653 10.7585 0
119.188 10.6704 0
119.337 14.9535 0
116.799 15.0417 0
117.92 10.7147 0
119.262 12.8121 0
118.068 14.9978 0
116.726 12.9003 0
117.994 12.8564 0
119.188 10.6704 0
121.723 10.5807 0
121.875 14.8637 0
119.337 14.9535 0
120.455 10.6258 0
121.799 12.7224 0
120.606 14.9088 0
119.262 12.8121 0
120.531 12.7675 0
121.723 10.5807 0
124.258 10.4894 0
124.413 14.7723 0
121.875 14.8637 0
122.99 10.5352 0
124.335 12.631 0
123.144 14.8182 0
121.799 12.7224 0
123.067 12.6769 0
124.258 10.4894 0
126.793 10.3964 0
126.95 14.6792 0
124.413 14.7723 0
125.525 10.4431 0
126.872 12.538 0
125.682 14.726 0
124.335 12.631 0
125.604 12.5847 0
126.793 10.3964 0
129.328 10.3019 0
129.488 14.5846 0
126.95 14.6792 0
128.06 10.3494 0
129.408 12.4434 0
128.219 14.6321 0
126.872 12.538 0
128.14 12.4909 0
129.328 10.3019 0
131.863 10.2058 0
132.026 14.4884 0
129.488 14.5846 0
130.595 10.2541 0
131.944 12.3473 0
130.757 14.5367 0
129.408 12.4434 0
130.676 12.3955 0
131.863 10.2058 0
134.398 10.1081 0
134.563 14.3906 0
132.026 14.4884 0
133.13 10.1571 0
134.48 12.2495 0
133.294 14.4397 0
131.944 12.3473 0
133.212 12.2986 0
134.398 10.1081 0
136.932 10.0089 0
137.101 14.2912 0
134.563 14.3906 0
135.665 10.0587 0
137.017 12.1502 0
135.832 14.3411 0
134.48 12.2495 0
135.748 12.2001 0
136.932 10.0089 0
139.467 9.90804 0
139.638 14.1903 0
137.101 14.2912 0
138.2 9.95864 0
139.553 12.0494 0
138.369 14.241 0
137.017 12.1502 0
138.285 12.1 0
139.467 9.90804 0
142.002 9.80569 0
142.175 14.0879 0
139.638 14.1903 0
140.735 9.85706 0
142.089 11.9469 0
140.907 14.1393 0
139.553 12.0494 0
140.821 11.9983 0
142.002 9.80569 0
144.537 9.70181 0
144.712 13.9839 0
142.175 14.0879 0
143.269 9.75394 0
144.625 11.843 0
143.444 14.0361 0
142.089 11.9469 0
143.357 11.8952 0
144.537 9.70181 0
147.071 9.59641 0
147.25 13.8784 0
144.712 13.9839 0
145.804 9.6493 0
147.16 11.7376 0
145.981 13.9313 0
144.625 11.843 0
145.892 11.7905 0
147.071 9.59641 0
149.606 9.48949 0
149.787 13.7714 0
147.25 13.8784 0
148.338 9.54314 0
149.696 11.6306 0
148.518 13.8251 0
147.16 11.7376 0
148.428 11.6843 0
149.606 9.48949 0
152.14 9.38108 0
152.324 13.6628 0
149.787 13.7714 0
150.873 9.43547 0
152.232 11.5221 0
151.055 13.7173 0
149.696 11.6306 0
150.964 11.5765 0
152.14 9.38108 0
154.675 9.27118 0
154.861 13.5528 0
152.324 13.6628 0
153.407 9.32632 0
154.768 11.4122 0
153.592 13.608 0
152.232 11.5221 0
153.5 11.4673 0
154.675 9.27118 0
157.209 9.1598 0
157.398 13.4413 0
154.861 13.5528 0
155.942 9.21568 0
157.303 11.3007 0
156.129 13.4973 0
154.768 11.4122 0
156.035 11.3566 0
157.209 9.1598 0
159.743 9.04696 0
159.934 13.3284 0
157.398 13.4413 0
158.476 9.10357 0
159.839 11.1878 0
158.666 13.3851 0
157.303 11.3007 0
158.571 11.2445 0
159.743 9.04696 0
162.278 8.93266 0
162.471 13.214 0
159.934 13.3284 0
161.01 8.98999 0
162.374 11.0735 0
161.203 13.2714 0
159.839 11.1878 0
161.107 11.1308 0
162.278 8.93266 0
164.812 8.81692 0
165.008 13.0981 0
162.471 13.214 0
163.545 8.87497 0
164.91 10.9577 0
163.739 13.1562 0
162.374 11.0735 0
163.642 11.0158 0
164.812 8.81692 0
167.346 8.69975 0
167.544 12.9809 0
165.008 13.0981 0
166.079 8.75851 0
167.445 10.8405 0
166.276 13.0397 0
164.91 10.9577 0
166.177 10.8992 0
167.346 8.69975 0
169.88 8.58115 0
170.081 12.8621 0
167.544 12.9809 0
168.613 8.64063 0
169.98 10.7218 0
168.812 12.9217 0
167.445 10.8405 0
168.713 10.7813 0
169.88 8.58115 0
172.414 8.46114 0
172.617 12.742 0
170.081 12.8621 0
171.147 8.52132 0
172.516 10.6017 0
171.349 12.8023 0
169.98 10.7218 0
171.248 10.6619 0
172.414 8.46114 0
174.948 8.33973 0
175.153 12.6205 0
172.617 12.742 0
173.681 8.40061 0
175.051 10.4803 0
173.885 12.6814 0
172.516 10.6017 0
173.783 10.5412 0
174.948 8.33973 0
177.482 8.21693 0
177.69 12.4976 0
175.153 12.6205 0
176.215 8.2785 0
177.586 10.3574 0
176.422 12.5592 0
175.051 10.4803 0
176.318 10.419 0
177.482 8.21693 0
180.016 8.09275 0
180.226 12.3733 0
177.69 12.4976 0
178.749 8.15501 0
180.121 10.2332 0
178.958 12.4356 0
177.586 10.3574 0
178.853 10.2955 0
180.016 8.09275 0
182.55 7.96721 0
182.762 12.2476 0
180.226 12.3733 0
181.283 8.03015 0
182.656 10.1076 0
181.494 12.3106 0
180.121 10.2332 0
181.388 10.1705 0
182.55 7.96721 0
185.083 7.8403 0
185.298 12.1206 0
182.762 12.2476 0
183.817 7.90393 0
185.191 9.98061 0
184.03 12.1843 0
182.656 10.1076 0
183.923 10.0443 0
185.083 7.8403 0
187.617 7.71206 0
187.834 11.9923 0
185.298 12.1206 0
186.35 7.77635 0
187.726 9.8523 0
186.566 12.0566 0
185.191 9.98061 0
186.458 9.91662 0
187.617 7.71206 0
190.151 7.58247 0
190.37 11.8626 0
187.834 11.9923 0
188.884 7.64743 0
190.26 9.72266 0
189.102 11.9276 0
187.726 9.8523 0
188.993 9.78764 0
190.151 7.58247 0
192.684 7.45156 0
192.906 11.7315 0
190.37 11.8626 0
191.417 7.51718 0
192.795 9.59169 0
191.638 11.7972 0
190.26 9.72266 0
191.528 9.65734 0
192.684 7.45156 0
195.218 7.31934 0
195.441 11.5992 0
192.906 11.7315 0
193.951 7.38561 0
195.33 9.45941 0
194.174 11.6655 0
192.795 9.59169 0
194.062 9.52571 0
195.218 7.31934 0
197.751 7.18581 0
197.977 11.4656 0
195.441 11.5992 0
196.485 7.25274 0
197.864 9.32582 0
196.709 11.5325 0
195.33 9.45941 0
196.597 9.39278 0
197.751 7.18581 0
200.285 7.051 0
200.513 11.3306 0
197.977 11.4656 0
199.018 7.11857 0
200.399 9.19095 0
199.245 11.3983 0
197.864 9.32582 0
199.131 9.25855 0
200.285 7.051 0
202.818 6.9149 0
203.048 11.1944 0
200.513 11.3306 0
201.551 6.98311 0
202.933 9.05479 0
201.78 11.2627 0
200.399 9.19095 0
201.666 9.12303 0
202.818 6.9149 0
205.351 6.77753 0
205.584 11.0569 0
203.048 11.1944 0
204.085 6.84637 0
205.467 8.91737 0
204.316 11.1258 0
202.933 9.05479 0
204.2 8.98624 0
205.351 6.77753 0
207.884 6.63891 0
208.119 10.9182 0
205.584 11.0569 0
206.618 6.70838 0
208.002 8.77868 0
206.851 10.9877 0
205.467 8.91737 0
206.735 8.84818 0
207.884 6.63891 0
210.418 6.49903 0
210.654 10.7782 0
208.119 10.9182 0
209.151 6.56912 0
210.536 8.63875 0
209.387 10.8483 0
208.002 8.77868 0
209.269 8.70887 0
210.418 6.49903 0
212.951 6.35792 0
213.189 10.637 0
210.654 10.7782 0
211.684 6.42863 0
213.07 8.49758 0
211.922 10.7077 0
210.536 8.63875 0
211.803 8.56832 0
212.951 6.35792 0
215.484 6.21558 0
215.724 10.4945 0
213.189 10.637 0
214.217 6.2869 0
215.604 8.35518 0
214.457 10.5659 0
213.07 8.49758 0
214.337 8.42653 0
215.484 6.21558 0
218.017 6.07203 0
218.259 10.3508 0
215.724 10.4945 0
216.75 6.14396 0
218.138 8.21157 0
216.992 10.4228 0
215.604 8.35518 0
216.871 8.28352 0
218.017 6.07203 0
220.55 5.92727 0
220.794 10.206 0
218.259 10.3508 0
219.283 5.9998 0
220.672 8.06675 0
219.527 10.2786 0
218.138 8.21157 0
219.405 8.13931 0
220.55 5.92727 0
223.083 5.78132 0
223.329 10.0599 0
220.794 10.206 0
221.816 5.85444 0
223.206 7.92074 0
222.062 10.1331 0
220.672 8.06675 0
221.939 7.99389 0
223.083 5.78132 0
225.615 5.63418 0
225.864 9.91266 0
223.329 10.0599 0
224.349 5.7079 0
225.74 7.77355 0
224.597 9.98643 0
223.206 7.92074 0
224.473 7.84729 0
225.615 5.63418 0
228.148 5.48588 0
228.399 9.76424 0
225.864 9.91266 0
226.882 5.56017 0
228.273 7.62518 0
227.131 9.83859 0
225.74 7.77355 0
227.007 7.69951 0
228.148 5.48588 0
230.681 5.33641 0
230.933 9.61466 0
228.399 9.76424 0
229.414 5.41129 0
230.807 7.47565 0
229.666 9.68959 0
228.273 7.62518 0
229.54 7.55056 0
230.681 5.33641 0
233.213 5.18579 0
233.468 9.46392 0
230.933 9.61466 0
231.947 5.26124 0
233.341 7.32498 0
232.201 9.53943 0
230.807 7.47565 0
232.074 7.40046 0
233.213 5.18579 0
235.746 5.03403 0
236.002 9.31205 0
233.468 9.46392 0
234.48 5.11005 0
235.874 7.17316 0
234.735 9.38813 0
233.341 7.32498 0
234.607 7.24921 0
235.746 5.03403 0
238.279 4.88115 0
238.537 9.15905 0
236.002 9.31205 0
237.012 4.95773 0
238.408 7.02022 0
237.27 9.23569 0
235.874 7.17316 0
237.141 7.09683 0
238.279 4.88115 0
240.811 4.72714 0
241.071 9.00494 0
238.537 9.15905 0
239.545 4.80428 0
240.941 6.86616 0
239.804 9.08213 0
238.408 7.02022 0
239.674 6.94333 0
240.811 4.72714 0
243.343 4.57203 0
243.605 8.84971 0
241.071 9.00494 0
242.077 4.64973 0
243.474 6.71099 0
242.338 8.92746 0
240.941 6.86616 0
242.208 6.78871 0
243.343 4.57203 0
245.876 4.41583 0
246.14 8.69339 0
243.605 8.84971 0
244.61 4.49407 0
246.008 6.55473 0
244.873 8.77169 0
243.474 6.71099 0
244.741 6.63299 0
245.876 4.41583 0
248.408 4.25854 0
248.674 8.53599 0
246.14 8.69339 0
247.142 4.33732 0
248.541 6.39738 0
247.407 8.61483 0
246.008 6.55473 0
247.274 6.47619 0
248.408 4.25854 0
250.94 4.10017 0
251.208 8.37751 0
248.674 8.53599 0
249.674 4.17949 0
251.074 6.23896 0
249.941 8.45689 0
248.541 6.39738 0
249.807 6.3183 0
250.94 4.10017 0
253.472 3.94075 0
253.742 8.21797 0
251.208 8.37751 0
252.206 4.02059 0
253.607 6.07947 0
252.475 8.29788 0
251.074 6.23896 0
252.341 6.15935 0
253.472 3.94075 0
256.004 3.78027 0
256.276 8.05738 0
253.742 8.21797 0
254.738 3.86064 0
256.14 5.91894 0
255.009 8.13781 0
253.607 6.07947 0
254.874 5.99933 0
256.004 3.78027 0
258.537 3.61874 0
258.809 7.89575 0
256.276 8.05738 0
257.27 3.69963 0
258.673 5.75736 0
257.543 7.9767 0
256.14 5.91894 0
257.407 5.83828 0
258.537 3.61874 0
261.069 3.45619 0
261.343 7.73309 0
258.809 7.89575 0
259.803 3.5376 0
261.206 5.59475 0
260.076 7.81455 0
258.673 5.75736 0
259.939 5.67618 0
261.069 3.45619 0
263.6 3.29262 0
263.877 7.56941 0
261.343 7.73309 0
262.334 3.37453 0
263.739 5.43112 0
262.61 7.65137 0
261.206 5.59475 0
262.472 5.51306 0
263.6 3.29262 0
266.132 3.12804 0
266.41 7.40472 0
263.877 7.56941 0
264.866 3.21046 0
266.271 5.26648 0
265.144 7.48719 0
263.739 5.43112 0
265.005 5.34893 0
266.132 3.12804 0
268.664 2.96246 0
268.944 7.23903 0
266.41 7.40472 0
267.398 3.04538 0
268.804 5.10085 0
267.677 7.322 0
266.271 5.26648 0
267.538 5.18379 0
268.664 2.96246 0
271.196 2.7959 0
271.477 7.07235 0
268.944 7.23903 0
269.93 2.8793 0
271.337 4.93423 0
270.211 7.15581 0
268.804 5.10085 0
270.07 5.01766 0
271.196 2.7959 0
273.728 2.62835 0
274.011 6.9047 0
271.477 7.07235 0
272.462 2.71225 0
273.869 4.76663 0
272.744 6.98865 0
271.337 4.93423 0
272.603 4.85055 0
273.728 2.62835 0
276.259 2.45985 0
276.544 6.73609 0
274.011 6.9047 0
274.993 2.54422 0
276.402 4.59807 0
275.277 6.82052 0
273.869 4.76663 0
275.135 4.68247 0
276.259 2.45985 0
278.791 2.29039 0
279.077 6.56652 0
276.544 6.73609 0
277.525 2.37524 0
278.934 4.42855 0
277.811 6.65142 0
276.402 4.59807 0
277.668 4.51343 0
278.791 2.29039 0
281.322 2.11998 0
281.61 6.39601 0
279.077 6.56652 0
280.057 2.2053 0
281.466 4.2581 0
280.344 6.48138 0
278.934 4.42855 0
280.2 4.34344 0
281.322 2.11998 0
283.854 1.94864 0
284.143 6.22457 0
281.61 6.39601 0
282.588 2.03443 0
283.999 4.0867 0
282.877 6.3104 0
281.466 4.2581 0
282.733 4.17252 0
283.854 1.94864 0
286.385 1.77638 0
286.676 6.0522 0
284.143 6.22457 0
285.12 1.86263 0
286.531 3.91439 0
285.41 6.1385 0
283.999 4.0867 0
285.265 4.00066 0
286.385 1.77638 0
288.917 1.60321 0
289.209 5.87893 0
286.676 6.0522 0
287.651 1.68991 0
289.063 3.74117 0
287.943 5.96568 0
286.531 3.91439 0
287.797 3.82789 0
288.917 1.60321 0
291.448 1.42914 0
291.742 5.70475 0
289.209 5.87893 0
290.182 1.51629 0
291.595 3.56704 0
290.476 5.79195 0
289.063 3.74117 0
290.329 3.65422 0
291.448 1.42914 0
293.979 1.25418 0
294.275 5.52969 0
291.742 5.70475 0
292.714 1.34177 0
294.127 3.39203 0
293.008 5.61733 0
291.595 3.56704 0
292.861 3.47965 0
293.979 1.25418 0
296.511 1.07834 0
296.808 5.35375 0
294.275 5.52969 0
295.245 1.16637 0
296.659 3.21614 0
295.541 5.44183 0
294.127 3.39203 0
295.393 3.30419 0
296.511 1.07834 0
299.042 0.901638 0
299.34 5.17694 0
296.808 5.35375 0
297.776 0.990099 0
299.191 3.03938 0
298.074 5.26545 0
296.659 3.21614 0
297.925 3.12787 0
299.042 0.901638 0
301.573 0.724075 0
301.873 4.99928 0
299.34 5.17694 0
300.307 0.812963 0
301.723 2.86177 0
300.607 5.08822 0
299.191 3.03938 0
300.457 2.95068 0
301.573 0.724075 0
304.104 0.545667 0
304.405 4.82077 0
301.873 4.99928 0
302.839 0.634976 0
304.255 2.68331 0
303.139 4.91013 0
301.723 2.86177 0
302.989 2.77264 0
304.104 0.545667 0
306.635 0.366423 0
306.938 4.64143 0
304.405 4.82077 0
305.37 0.456149 0
306.786 2.50401 0
305.672 4.7312 0
304.255 2.68331 0
305.521 2.59377 0
306.635 0.366423 0
309.166 0.186356 0
309.47 4.46126 0
306.938 4.64143 0
307.901 0.276492 0
309.318 2.3239 0
308.204 4.55145 0
306.786 2.50401 0
308.052 2.41406 0
309.166 0.186356 0
311.697 0.0054745 0
312.002 4.28029 0
309.47 4.46126 0
310.432 0.096016 0
311.85 2.14297 0
310.736 4.37088 0
309.318 2.3239 0
310.584 2.23353 0
311.697 0.0054745 0
314.228 -0.176209 0
314.535 4.09851 0
312.002 4.28029 0
312.962 -0.0852676 0
314.381 1.96123 0
313.269 4.1895 0
311.85 2.14297 0
313.116 2.0522 0
314.228 -0.176209 0
316.759 -0.358684 0
317.067 3.91594 0
314.535 4.09851 0
315.493 -0.267348 0
316.913 1.77871 0
315.801 4.00732 0
314.381 1.96123 0
315.647 1.87007 0
316.759 -0.358684 0
319.29 -0.54194 0
319.599 3.73259 0
317.067 3.91594 0
318.024 -0.450215 0
319.444 1.59541 0
318.333 3.82436 0
316.913 1.77871 0
318.179 1.68715 0
319.29 -0.54194 0
321.82 -0.725965 0
322.131 3.54847 0
319.599 3.73259 0
320.555 -0.633857 0
321.976 1.41133 0
320.865 3.64062 0
319.444 1.59541 0
320.71 1.50346 0
321.82 -0.725965 0
324.351 -0.91075 0
324.663 3.36359 0
322.131 3.54847 0
323.086 -0.818263 0
324.507 1.2265 0
323.397 3.45612 0
321.976 1.41133 0
323.241 1.31901 0
324.351 -0.91075 0
326.882 -1.09628 0
327.195 3.17797 0
324.663 3.36359 0
325.616 -1.00342 0
327.038 1.04092 0
325.929 3.27087 0
324.507 1.2265 0
325.773 1.1338 0
326.882 -1.09628 0
329.412 -1.28255 0
329.727 2.9916 0
327.195 3.17797 0
328.147 -1.18933 0
329.569 0.854604 0
328.461 3.08488 0
327.038 1.04092 0
328.304 0.947853 0
329.412 -1.28255 0
331.943 -1.46955 0
332.258 2.80452 0
329.727 2.9916 0
330.678 -1.37596 0
332.101 0.667561 0
330.993 2.89815 0
329.569 0.854604 0
330.835 0.761172 0
331.943 -1.46955 0
334.473 -1.65726 0
334.79 2.61672 0
332.258 2.80452 0
333.208 -1.56332 0
334.632 0.479803 0
333.524 2.71071 0
332.101 0.667561 0
333.366 0.573771 0
334.473 -1.65726 0
337.004 -1.84568 0
337.322 2.42821 0
334.79 2.61672 0
335.739 -1.75138 0
337.163 0.291341 0
336.056 2.52255 0
334.632 0.479803 0
335.897 0.38566 0
337.004 -1.84568 0
339.534 -2.03479 0
339.853 2.23902 0
337.322 2.42821 0
338.269 -1.94015 0
339.694 0.102186 0
338.588 2.3337 0
337.163 0.291341 0
338.428 0.19685 0
339.534 -2.03479 0
342.065 -2.22458 0
342.385 2.04914 0
339.853 2.23902 0
340.8 -2.1296 0
342.225 -0.0876518 0
341.119 2.14416 0
339.694 0.102186 0
340.959 0.00735176 0
342.065 -2.22458 0
344.595 -2.41505 0
344.916 1.85859 0
342.385 2.04914 0
343.33 -2.31973 0
344.756 -0.278161 0
343.651 1.95394 0
342.225 -0.0876518 0
343.49 -0.182823 0
344.595 -2.41505 0
347.125 -2.60618 0
347.448 1.66737 0
344.916 1.85859 0
345.86 -2.51053 0
347.287 -0.469332 0
346.182 1.76306 0
344.756 -0.278161 0
346.021 -0.373665 0
347.125 -2.60618 0
349.656 -2.79796 0
349.979 1.47551 0
347.448 1.66737 0
348.391 -2.70199 0
349.817 -0.661152 0
348.714 1.57153 0
347.287 -0.469332 0
348.552 -0.565162 0
349.656 -2.79796 0
352.186 -2.99037 0
352.511 1.28302 0
349.979 1.47551 0
350.921 -2.89409 0
352.348 -0.853612 0
351.245 1.37934 0
349.817 -0.661152 0
351.083 -0.757303 0
352.186 -2.99037 0
354.716 -3.18342 0
355.042 1.08989 0
352.511 1.28302 0
353.451 -3.08682 0
354.879 -1.0467 0
353.776 1.18653 0
352.348 -0.853612 0
353.614 -0.950078 0
354.716 -3.18342 0
357.246 -3.37709 0
357.573 0.896145 0
355.042 1.08989 0
355.981 -3.28018 0
357.41 -1.24041 0
356.307 0.993093 0
354.879 -1.0467 0
356.144 -1.14348 0
357.246 -3.37709 0
359.776 -3.57136 0
360.104 0.701795 0
357.573 0.896145 0
358.511 -3.47415 0
359.94 -1.43472 0
358.839 0.799045 0
357.41 -1.24041 0
358.675 -1.33749 0
359.776 -3.57136 0
362.306 -3.76623 0
362.635 0.506851 0
360.104 0.701795 0
361.041 -3.66872 0
362.471 -1.62962 0
361.37 0.604397 0
359.94 -1.43472 0
361.206 -1.5321 0
362.306 -3.76623 0
364.836 -3.96168 0
365.166 0.311322 0
362.635 0.506851 0
363.571 -3.86388 0
365.001 -1.82512 0
363.901 0.409158 0
362.471 -1.62962 0
363.736 -1.7273 0
364.836 -3.96168 0
367.367 -4.15771 0
367.697 0.115219 0
365.166 0.311322 0
366.102 -4.05962 0
367.532 -2.02118 0
366.432 0.213341 0
365.001 -1.82512 0
366.267 -1.92308 0
367.367 -4.15771 0
369.896 -4.3543 0
370.228 -0.0814463 0
367.697 0.115219 0
368.632 -4.25593 0
370.062 -2.21781 0
368.963 0.0169559 0
367.532 -2.02118 0
368.797 -2.11943 0
369.896 -4.3543 0
372.426 -4.55145 0
372.759 -0.278663 0
370.228 -0.0814463 0
371.161 -4.4528 0
372.593 -2.415 0
371.494 -0.179987 0
370.062 -2.21781 0
371.328 -2.31634 0
372.426 -4.55145 0
374.956 -4.74913 0
375.29 -0.476421 0
372.759 -0.278663 0
373.691 -4.65022 0
375.123 -2.61272 0
374.024 -0.377475 0
372.593 -2.415 0
373.858 -2.51379 0
374.956 -4.74913 0
377.486 -4.94735 0
377.821 -0.674709 0
375.29 -0.476421 0
376.221 -4.84818 0
377.653 -2.81097 0
376.555 -0.5755 0
375.123 -2.61272 0
376.388 -2.71178 0
377.486 -4.94735 0
380.016 -5.14609 0
380.351 -0.873517 0
377.821 -0.674709 0
378.751 -5.04666 0
380.184 -3.00975 0
379.086 -0.774049 0
377.653 -2.81097 0
378.919 -2.9103 0
380.016 -5.14609 0
382.546 -5.34534 0
382.882 -1.07283 0
380.351 -0.873517 0
381.281 -5.24565 0
382.714 -3.20903 0
381.617 -0.973111 0
380.184 -3.00975 0
381.449 -3.10933 0
382.546 -5.34534 0
385.076 -5.54509 0
385.413 -1.27265 0
382.882 -1.07283 0
383.811 -5.44515 0
385.244 -3.40881 0
384.147 -1.17268 0
382.714 -3.20903 0
383.979 -3.30886 0
385.076 -5.54509 0
387.605 -5.74532 0
387.943 -1.47295 0
385.413 -1.27265 0
386.341 -5.64515 0
387.774 -3.60908 0
386.678 -1.37274 0
385.244 -3.40881 0
386.509 -3.50889 0
387.605 -5.74532 0
390.135 -5.94604 0
390.474 -1.67372 0
387.943 -1.47295 0
388.87 -5.84562 0
390.304 -3.80983 0
389.208 -1.57327 0
387.774 -3.60908 0
389.039 -3.7094 0
390.135 -5.94604 0
392.665 -6.14722 0
393.004 -1.87496 0
390.474 -1.67372 0
391.4 -6.04657 0
392.835 -4.01104 0
391.739 -1.77428 0
390.304 -3.80983 0
391.57 -3.91038 0
392.665 -6.14722 0
395.195 -6.34885 0
395.535 -2.07666 0
393.004 -1.87496 0
393.93 -6.24798 0
395.365 -4.21271 0
394.269 -1.97575 0
392.835 -4.01104 0
394.1 -4.11182 0
395.195 -6.34885 0
397.724 -6.55093 0
398.065 -2.27879 0
395.535 -2.07666 0
396.459 -6.44983 0
397.895 -4.41482 0
396.8 -2.17767 0
395.365 -4.21271 0
396.63 -4.31371 0
397.724 -6.55093 0
400.254 -6.75344 0
400.595 -2.48137 0
398.065 -2.27879 0
398.989 -6.65213 0
400.425 -4.61736 0
399.33 -2.38003 0
397.895 -4.41482 0
399.16 -4.51603 0
400.254 -6.75344 0
402.783 -6.95638 0
403.126 -2.68436 0
400.595 -2.48137 0
401.519 -6.85486 0
402.955 -4.82032 0
401.861 -2.58281 0
400.425 -4.61736 0
401.69 -4.71879 0
402.783 -6.95638 0
405.313 -7.15973 0
405.656 -2.88776 0
403.126 -2.68436 0
404.048 -7.058 0
405.484 -5.0237 0
404.391 -2.78601 0
402.955 -4.82032 0
404.22 -4.92196 0
405.313 -7.15973 0
407.843 -7.36348 0
408.186 -3.09156 0
405.656 -2.88776 0
406.578 -7.26155 0
408.014 -5.22748 0
406.921 -2.98961 0
405.484 -5.0237 0
406.749 -5.12554 0
407.843 -7.36348 0
410.372 -7.56762 0
410.716 -3.29576 0
408.186 -3.09156 0
409.107 -7.4655 0
410.544 -5.43165 0
409.451 -3.19361 0
408.014 -5.22748 0
409.279 -5.32951 0
410.372 -7.56762 0
412.902 -7.77214 0
413.246 -3.50033 0
410.716 -3.29576 0
411.637 -7.66983 0
413.074 -5.63619 0
411.981 -3.39799 0
410.544 -5.43165 0
411.809 -5.53387 0
412.902 -7.77214 0
415.431 -7.97702 0
415.777 -3.70526 0
413.246 -3.50033 0
414.166 -7.87453 0
415.604 -5.84111 0
414.512 -3.60275 0
413.074 -5.63619 0
414.339 -5.7386 0
415.431 -7.97702 0
417.961 -8.18227 0
418.307 -3.91056 0
415.777 -3.70526 0
416.696 -8.0796 0
418.134 -6.04638 0
417.042 -3.80787 0
415.604 -5.84111 0
416.869 -5.9437 0
417.961 -8.18227 0
420.49 -8.38786 0
420.837 -4.1162 0
418.307 -3.91056 0
419.225 -8.28502 0
420.663 -6.252 0
419.572 -4.01334 0
418.134 -6.04638 0
419.398 -6.14914 0
420.49 -8.38786 0
423.019 -8.59379 0
423.367 -4.32217 0
420.837 -4.1162 0
421.755 -8.49079 0
423.193 -6.45795 0
422.102 -4.21914 0
420.663 -6.252 0
421.928 -6.35493 0
423.019 -8.59379 0
425.549 -8.80005 0
425.897 -4.52847 0
423.367 -4.32217 0
424.284 -8.69688 0
425.723 -6.66423 0
424.632 -4.42528 0
423.193 -6.45795 0
424.458 -6.56105 0
425.549 -8.80005 0
428.078 -9.00662 0
428.427 -4.73509 0
425.897 -4.52847 0
426.814 -8.9033 0
428.252 -6.87082 0
427.162 -4.63174 0
425.723 -6.66423 0
426.988 -6.76748 0
428.078 -9.00662 0
430.608 -9.21349 0
430.956 -4.942 0
428.427 -4.73509 0
429.343 -9.11002 0
430.782 -7.07772 0
429.691 -4.83851 0
428.252 -6.87082 0
429.517 -6.97423 0
430.608 -9.21349 0
433.137 -9.42066 0
433.486 -5.14921 0
430.956 -4.942 0
431.872 -9.31704 0
433.312 -7.2849 0
432.221 -5.04557 0
430.782 -7.07772 0
432.047 -7.18127 0
433.137 -9.42066 0
435.666 -9.62811 0
436.016 -5.35669 0
433.486 -5.14921 0
434.402 -9.52435 0
435.841 -7.49237 0
434.751 -5.25292 0
433.312 -7.2849 0
434.576 -7.3886 0
435.666 -9.62811 0
438.196 -9.83583 0
438.546 -5.56445 0
436.016 -5.35669 0
436.931 -9.73194 0
438.371 -7.70011 0
437.281 -5.46054 0
435.841 -7.49237 0
437.106 -7.59621 0
438.196 -9.83583 0
440.725 -10.0438 0
441.076 -5.77247 0
438.546 -5.56445 0
439.46 -9.93979 0
440.9 -7.90811 0
439.811 -5.66843 0
438.371 -7.70011 0
439.636 -7.80408 0
440.725 -10.0438 0
443.254 -10.252 0
443.605 -5.98073 0
441.076 -5.77247 0
441.99 -10.1479 0
443.43 -8.11636 0
442.341 -5.87657 0
440.9 -7.90811 0
442.165 -8.01221 0
443.254 -10.252 0
445.784 -10.4605 0
446.135 -6.18923 0
443.605 -5.98073 0
444.519 -10.3562 0
445.959 -8.32485 0
444.87 -6.08495 0
443.43 -8.11636 0
444.695 -8.22058 0
445.784 -10.4605 0
448.313 -10.6692 0
448.665 -6.39796 0
446.135 -6.18923 0
447.048 -10.5648 0
448.489 -8.53356 0
447.4 -6.29357 0
445.959 -8.32485 0
447.224 -8.42918 0
448.313 -10.6692 0
450.842 -10.8781 0
451.194 -6.60691 0
448.665 -6.39796 0
449.578 -10.7736 0
451.018 -8.74249 0
449.93 -6.50241 0
448.489 -8.53356 0
449.754 -8.638 0
450.842 -10.8781 0
453.372 -11.0872 0
453.724 -6.81606 0
451.194 -6.60691 0
452.107 -10.9827 0
453.548 -8.95163 0
452.459 -6.71146 0
451.018 -8.74249 0
452.283 -8.84704 0
453.372 -11.0872 0
455.901 -11.2966 0
456.254 -7.0254 0
453.724 -6.81606 0
454.636 -11.1919 0
456.077 -9.16096 0
454.989 -6.9207 0
453.548 -8.95163 0
454.812 -9.05627 0
455.901 -11.2966 0
458.43 -11.5061 0
458.783 -7.23493 0
456.254 -7.0254 0
457.165 -11.4013 0
458.607 -9.37048 0
457.518 -7.13014 0
456.077 -9.16096 0
457.342 -9.2657 0
458.43 -11.5061 0
460.959 -11.7157 0
461.313 -7.44463 0
458.783 -7.23493 0
459.695 -11.6109 0
461.136 -9.58017 0
460.048 -7.33976 0
458.607 -9.37048 0
459.871 -9.4753 0
460.959 -11.7157 0
463.489 -11.9256 0
463.842 -7.65449 0
461.313 -7.44463 0
462.224 -11.8206 0
463.665 -9.79002 0
462.577 -7.54954 0
461.136 -9.58017 0
462.401 -9.68507 0
463.489 -11.9256 0
466.018 -12.1356 0
466.372 -7.8645 0
463.842 -7.65449 0
464.753 -12.0306 0
466.195 -10 0
465.107 -7.75947 0
463.665 -9.79002 0
464.93 -9.895 0
466.018 -12.1356 0
468.547 -12.3457 0
468.901 -8.07465 0
466.372 -7.8645 0
467.282 -12.2406 0
468.724 -10.2102 0
467.636 -7.96956 0
466.195 -10 0
467.459 -10.1051 0
468.547 -12.3457 0
471.076 -12.556 0
471.431 -8.28493 0
468.901 -8.07465 0
469.812 -12.4508 0
471.254 -10.4204 0
470.166 -8.17977 0
468.724 -10.2102 0
469.989 -10.3153 0
471.076 -12.556 0
473.606 -12.7664 0
473.96 -8.49533 0
471.431 -8.28493 0
472.341 -12.6611 0
473.783 -10.6308 0
472.695 -8.39012 0
471.254 -10.4204 0
472.518 -10.5256 0
473.606 -12.7664 0
476.135 -12.9768 0
476.49 -8.70584 0
473.96 -8.49533 0
474.87 -12.8716 0
476.312 -10.8413 0
475.225 -8.60057 0
473.783 -10.6308 0
475.048 -10.7361 0
476.135 -12.9768 0
478.664 -13.1874 0
479.019 -8.91644 0
476.49 -8.70584 0
477.399 -13.0821 0
478.842 -11.0519 0
477.754 -8.81113 0
476.312 -10.8413 0
477.577 -10.9466 0
478.664 -13.1874 0
481.193 -13.3981 0
481.548 -9.12714 0
479.019 -8.91644 0
479.929 -13.2928 0
481.371 -11.2626 0
480.284 -9.02178 0
478.842 -11.0519 0
480.106 -11.1573 0
481.193 -13.3981 0
483.723 -13.6089 0
484.078 -9.33791 0
481.548 -9.12714 0
482.458 -13.5035 0
483.9 -11.4734 0
482.813 -9.23251 0
481.371 -11.2626 0
482.636 -11.368 0
483.723 -13.6089 0
486.252 -13.8197 0
486.607 -9.54875 0
484.078 -9.33791 0
484.987 -13.7143 0
486.429 -11.6842 0
485.342 -9.44332 0
483.9 -11.4734 0
485.165 -11.5788 0
486.252 -13.8197 0
488.781 -14.0306 0
489.136 -9.75964 0
486.607 -9.54875 0
487.517 -13.9252 0
488.959 -11.8951 0
487.872 -9.65419 0
486.429 -11.6842 0
487.694 -11.7897 0
488.781 -14.0306 0
491.31 -14.2415 0
491.666 -9.97057 0
489.136 -9.75964 0
490.046 -14.1361 0
491.488 -12.106 0
490.401 -9.8651 0
488.959 -11.8951 0
490.223 -12.0006 0
491.31 -14.2415 0
493.84 -14.4525 0
494.195 -10.1815 0
491.666 -9.97057 0
492.575 -14.347 0
494.017 -12.317 0
492.93 -10.076 0
491.488 -12.106 0
492.753 -12.2115 0
493.84 -14.4525 0
496.369 -14.6633 0
496.724 -10.3924 0
494.195 -10.1815 0
495.104 -14.5579 0
496.547 -12.5278 0
495.46 -10.2869 0
494.017 -12.317 0
495.282 -12.4224 0
496.369 -14.6633 0
498.898 -14.8741 0
499.254 -10.6032 0
496.724 -10.3924 0
497.634 -14.7687 0
499.076 -12.7386 0
497.989 -10.4978 0
496.547 -12.5278 0
497.811 -12.6332 0
0 17.1429 0
2.53962 17.1431 0
2.54283 21.4281 0
0 21.4286 0
1.2698 17.1434 0
2.54121 19.2857 0
1.27134 21.4287 0
0 19.2857 0
1.27056 19.2861 0
2.53962 17.1431 0
5.07936 17.1404 0
5.08603 21.4248 0
2.54283 21.4281 0
3.80947 17.1421 0
5.08266 19.2828 0
3.8144 21.4267 0
2.54121 19.2857 0
3.81192 19.2846 0
5.07936 17.1404 0
7.61917 17.1352 0
7.62943 21.4192 0
5.08603 21.4248 0
6.34926 17.1381 0
7.62426 19.2774 0
6.35771 21.4223 0
5.08266 19.2828 0
6.35345 19.2804 0
7.61917 17.1352 0
10.159 17.1276 0
10.1729 21.4114 0
7.62943 21.4192 0
8.88909 17.1316 0
10.1659 19.2697 0
8.90116 21.4156 0
7.62426 19.2774 0
8.89508 19.2738 0
10.159 17.1276 0
12.6988 17.1178 0
12.7163 21.4016 0
10.1729 21.4114 0
11.4289 17.1229 0
12.7075 19.2599 0
11.4446 21.4068 0
10.1659 19.2697 0
11.4367 19.2651 0
12.6988 17.1178 0
15.2387 17.1059 0
15.2597 21.3897 0
12.7163 21.4016 0
13.9688 17.1121 0
15.2491 19.248 0
13.988 21.3959 0
12.7075 19.2599 0
13.9783 19.2542 0
15.2387 17.1059 0
17.7784 17.0919 0
17.803 21.3757 0
15.2597 21.3897 0
16.5086 17.0991 0
17.7907 19.234 0
16.5313 21.3829 0
15.2491 19.248 0
16.5199 19.2412 0
17.7784 17.0919 0
20.3182 17.0758 0
20.3462 21.3596 0
17.803 21.3757 0
19.0483 17.0841 0
20.3322 19.2179 0
19.0746 21.3679 0
17.7907 19.234 0
19.0614 19.2262 0
20.3182 17.0758 0
22.8579 17.0577 0
22.8894 21.3415 0
20.3462 21.3596 0
21.5881 17.067 0
22.8737 19.1998 0
21.6178 21.3508 0
20.3322 19.2179 0
21.6029 19.2091 0
22.8579 17.0577 0
25.3976 17.0375 0
25.4326 21.3213 0
22.8894 21.3415 0
24.1278 17.0479 0
25.4151 19.1796 0
24.161 21.3317 0
22.8737 19.1998 0
24.1444 19.19 0
25.3976 17.0375 0
27.9373 17.0154 0
27.9757 21.2991 0
25.4326 21.3213 0
26.6675 17.0267 0
27.9565 19.1575 0
26.7041 21.3105 0
25.4151 19.1796 0
26.6858 19.1688 0
27.9373 17.0154 0
30.4769 16.9911 0
30.5187 21.2749 0
27.9757 21.2991 0
29.2071 17.0035 0
30.4978 19.1332 0
29.2472 21.2873 0
27.9565 19.1575 0
29.2271 19.1456 0
30.4769 16.9911 0
33.0166 16.9649 0
33.0617 21.2487 0
30.5187 21.2749 0
31.7468 16.9783 0
33.0391 19.107 0
31.7902 21.262 0
30.4978 19.1332 0
31.7685 19.1204 0
33.0166 16.9649 0
35.5561 16.9367 0
35.6047 21.2204 0
33.0617 21.2487 0
34.2863 16.9511 0
35.5804 19.0788 0
34.3332 21.2348 0
33.0391 19.107 0
34.3098 19.0931 0
35.5561 16.9367 0
38.0957 16.9065 0
38.1476 21.1902 0
35.6047 21.2204 0
36.8259 16.9218 0
38.1216 19.0485 0
36.8761 21.2055 0
35.5804 19.0788 0
36.851 19.0639 0
38.0957 16.9065 0
40.6352 16.8743 0
40.6904 21.1579 0
38.1476 21.1902 0
39.3654 16.8906 0
40.6628 19.0163 0
39.419 21.1743 0
38.1216 19.0485 0
39.3922 19.0327 0
40.6352 16.8743 0
43.1747 16.8401 0
43.2332 21.1237 0
40.6904 21.1579 0
41.9049 16.8575 0
43.2039 18.9822 0
41.9618 21.1411 0
40.6628 19.0163 0
41.9334 18.9995 0
43.1747 16.8401 0
45.7141 16.804 0
45.7759 21.0876 0
43.2332 21.1237 0
44.4444 16.8223 0
45.745 18.946 0
44.5046 21.1059 0
43.2039 18.9822 0
44.4745 18.9643 0
45.7141 16.804 0
48.2535 16.7659 0
48.3186 21.0495 0
45.7759 21.0876 0
46.9838 16.7852 0
48.2861 18.9079 0
47.0473 21.0688 0
45.745 18.946 0
47.0156 18.9272 0
48.2535 16.7659 0
50.7929 16.7259 0
50.8613 21.0094 0
48.3186 21.0495 0
49.5232 16.7462 0
50.8271 18.8679 0
49.5899 21.0297 0
48.2861 18.9079 0
49.5566 18.8881 0
50.7929 16.7259 0
53.3322 16.684 0
53.4038 20.9675 0
50.8613 21.0094 0
52.0626 16.7052 0
53.368 18.8259 0
52.1325 20.9887 0
50.8271 18.8679 0
52.0976 18.8472 0
53.3322 16.684 0
55.8715 16.6402 0
55.9463 20.9236 0
53.4038 20.9675 0
54.6019 16.6623 0
55.9089 18.7821 0
54.6751 20.9457 0
53.368 18.8259 0
54.6385 18.8042 0
55.8715 16.6402 0
58.4108 16.5944 0
58.4888 20.8778 0
55.9463 20.9236 0
57.1412 16.6175 0
58.4498 18.7363 0
57.2176 20.9009 0
55.9089 18.7821 0
57.1794 18.7594 0
58.4108 16.5944 0
60.95 16.5468 0
61.0312 20.8301 0
58.4888 20.8778 0
59.6804 16.5708 0
60.9906 18.6886 0
59.76 20.8542 0
58.4498 18.7363 0
59.7202 18.7127 0
60.95 16.5468 0
63.4891 16.4972 0
63.5735 20.7805 0
61.0312 20.8301 0
62.2196 16.5222 0
63.5313 18.6391 0
62.3023 20.8055 0
60.9906 18.6886 0
62.2609 18.6641 0
63.4891 16.4972 0
66.0282 16.4458 0
66.1158 20.729 0
63.5735 20.7805 0
64.7587 16.4718 0
66.072 18.5876 0
64.8446 20.755 0
63.5313 18.6391 0
64.8017 18.6136 0
66.0282 16.4458 0
68.5673 16.3926 0
68.658 20.6757 0
66.1158 20.729 0
67.2978 16.4194 0
68.6126 18.5343 0
67.3869 20.7026 0
66.072 18.5876 0
67.3423 18.5612 0
68.5673 16.3926 0
71.1063 16.3375 0
71.2001 20.6205 0
68.658 20.6757 0
69.8368 16.3652 0
71.1532 18.4792 0
69.929 20.6484 0
68.6126 18.5343 0
69.8829 18.507 0
71.1063 16.3375 0
73.6453 16.2805 0
73.7421 20.5635 0
71.2001 20.6205 0
72.3758 16.3092 0
73.6937 18.4222 0
72.4711 20.5923 0
71.1532 18.4792 0
72.4235 18.4509 0
73.6453 16.2805 0
76.1842 16.2217 0
76.2841 20.5047 0
73.7421 20.5635 0
74.9148 16.2514 0
76.2342 18.3634 0
75.0131 20.5344 0
73.6937 18.4222 0
74.9639 18.393 0
76.1842 16.2217 0
78.7231 16.1611 0
78.826 20.444 0
76.2841 20.5047 0
77.4536 16.1917 0
78.7745 18.3028 0
77.5551 20.4746 0
76.2342 18.3634 0
77.5044 18.3333 0
78.7231 16.1611 0
81.2619 16.0987 0
81.3679 20.3816 0
78.826 20.444 0
79.9925 16.1302 0
81.3149 18.2404 0
80.097 20.413 0
78.7745 18.3028 0
80.0447 18.2718 0
81.2619 16.0987 0
83.8006 16.0345 0
83.9097 20.3173 0
81.3679 20.3816 0
82.5313 16.0669 0
83.8551 18.1761 0
82.6388 20.3497 0
81.3149 18.2404 0
82.585 18.2085 0
83.8006 16.0345 0
86.3393 15.9686 0
86.4514 20.2513 0
83.9097 20.3173 0
85.07 16.0018 0
86.3954 18.1101 0
85.1805 20.2845 0
83.8551 18.1761 0
85.1253 18.1433 0
86.3393 15.9686 0
88.878 15.9008 0
88.993 20.1835 0
86.4514 20.2513 0
87.6087 15.9349 0
88.9355 18.0423 0
87.7222 20.2176 0
86.3954 18.1101 0
87.6654 18.0764 0
88.878 15.9008 0
91.4166 15.8313 0
91.5346 20.1139 0
88.993 20.1835 0
90.1473 15.8663 0
91.4756 17.9728 0
90.2638 20.1489 0
88.9355 18.0423 0
90.2055 18.0078 0
91.4166 15.8313 0
93.9551 15.76 0
94.076 20.0425 0
91.5346 20.1139 0
92.6859 15.7959 0
94.0156 17.9015 0
92.8053 20.0784 0
91.4756 17.9728 0
92.7456 17.9373 0
93.9551 15.76 0
96.4936 15.687 0
96.6174 19.9695 0
94.076 20.0425 0
95.2244 15.7238 0
96.5555 17.8284 0
95.3468 20.0062 0
94.0156 17.9015 0
95.2855 17.8652 0
96.4936 15.687 0
99.032 15.6123 0
99.1588 19.8946 0
96.6174 19.9695 0
97.7628 15.6499 0
99.0954 17.7537 0
97.8881 19.9323 0
96.5555 17.8284 0
97.8255 17.7913 0
99.032 15.6123 0
101.57 15.5359 0
101.7 19.8181 0
99.1588 19.8946 0
100.301 15.5743 0
101.635 17.6772 0
100.429 19.8566 0
99.0954 17.7537 0
100.365 17.7156 0
101.57 15.5359 0
104.109 15.4577 0
104.241 19.7399 0
101.7 19.8181 0
102.84 15.497 0
104.175 17.599 0
102.971 19.7792 0
101.635 17.6772 0
102.905 17.6383 0
104.109 15.4577 0
106.647 15.3778 0
106.782 19.6599 0
104.241 19.7399 0
105.378 15.418 0
106.715 17.5191 0
105.512 19.7001 0
104.175 17.599 0
105.445 17.5592 0
106.647 15.3778 0
109.185 15.2963 0
109.323 19.5783 0
106.782 19.6599 0
107.916 15.3373 0
109.254 17.4375 0
108.053 19.6193 0
106.715 17.5191 0
107.984 17.4785 0
109.185 15.2963 0
111.723 15.2131 0
111.864 19.495 0
109.323 19.5783 0
110.454 15.2549 0
111.794 17.3542 0
110.594 19.5369 0
109.254 17.4375 0
110.524 17.3961 0
111.723 15.2131 0
114.261 15.1282 0
114.405 19.4101 0
111.864 19.495 0
112.992 15.1709 0
114.333 17.2693 0
113.135 19.4528 0
111.794 17.3542 0
113.063 17.312 0
114.261 15.1282 0
116.799 15.0417 0
116.946 19.3235 0
114.405 19.4101 0
115.53 15.0851 0
116.872 17.1827 0
115.675 19.367 0
114.333 17.2693 0
115.603 17.2262 0
116.799 15.0417 0
119.337 14.9535 0
119.486 19.2352 0
116.946 19.3235 0
118.068 14.9978 0
119.412 17.0945 0
118.216 19.2795 0
116.872 17.1827 0
118.142 17.1388 0
119.337 14.9535 0
121.875 14.8637 0
122.027 19.1453 0
119.486 19.2352 0
120.606 14.9088 0
121.951 17.0047 0
120.757 19.1905 0
119.412 17.0945 0
120.681 17.0498 0
121.875 14.8637 0
124.413 14.7723 0
124.568 19.0538 0
122.027 19.1453 0
123.144 14.8182 0
124.49 16.9132 0
123.297 19.0997 0
121.951 17.0047 0
123.221 16.9591 0
124.413 14.7723 0
126.95 14.6792 0
127.108 18.9607 0
124.568 19.0538 0
125.682 14.726 0
127.029 16.8201 0
125.838 19.0074 0
124.49 16.9132 0
125.76 16.8669 0
126.95 14.6792 0
129.488 14.5846 0
129.648 18.8659 0
127.108 18.9607 0
128.219 14.6321 0
129.568 16.7254 0
128.378 18.9135 0
127.029 16.8201 0
128.299 16.773 0
129.488 14.5846 0
132.026 14.4884 0
132.189 18.7696 0
129.648 18.8659 0
130.757 14.5367 0
132.107 16.6292 0
130.918 18.818 0
129.568 16.7254 0
130.838 16.6775 0
132.026 14.4884 0
134.563 14.3906 0
134.729 18.6718 0
132.189 18.7696 0
133.294 14.4397 0
134.646 16.5313 0
133.459 18.7209 0
132.107 16.6292 0
133.377 16.5805 0
134.563 14.3906 0
137.101 14.2912 0
137.269 18.5723 0
134.729 18.6718 0
135.832 14.3411 0
137.185 16.4319 0
135.999 18.6222 0
134.646 16.5313 0
135.915 16.4818 0
137.101 14.2912 0
139.638 14.1903 0
139.809 18.4713 0
137.269 18.5723 0
138.369 14.241 0
139.723 16.331 0
138.539 18.522 0
137.185 16.4319 0
138.454 16.3817 0
139.638 14.1903 0
142.175 14.0879 0
142.349 18.3687 0
139.809 18.4713 0
140.907 14.1393 0
142.262 16.2285 0
141.079 18.4202 0
139.723 16.331 0
140.993 16.2799 0
142.175 14.0879 0
144.712 13.9839 0
144.888 18.2647 0
142.349 18.3687 0
143.444 14.0361 0
144.8 16.1244 0
143.619 18.3169 0
142.262 16.2285 0
143.531 16.1766 0
144.712 13.9839 0
147.25 13.8784 0
147.428 18.1591 0
144.888 18.2647 0
145.981 13.9313 0
147.339 16.0189 0
146.158 18.2121 0
144.8 16.1244 0
146.07 16.0718 0
147.25 13.8784 0
149.787 13.7714 0
149.968 18.0519 0
147.428 18.1591 0
148.518 13.8251 0
149.877 15.9118 0
148.698 18.1057 0
147.339 16.0189 0
148.608 15.9655 0
149.787 13.7714 0
152.324 13.6628 0
152.507 17.9433 0
149.968 18.0519 0
151.055 13.7173 0
152.416 15.8032 0
151.238 17.9978 0
149.877 15.9118 0
151.146 15.8577 0
152.324 13.6628 0
154.861 13.5528 0
155.047 17.8332 0
152.507 17.9433 0
153.592 13.608 0
154.954 15.6932 0
153.777 17.8885 0
152.416 15.8032 0
153.685 15.7484 0
154.861 13.5528 0
157.398 13.4413 0
157.586 17.7216 0
155.047 17.8332 0
156.129 13.4973 0
157.492 15.5816 0
156.316 17.7776 0
154.954 15.6932 0
156.223 15.6376 0
157.398 13.4413 0
159.934 13.3284 0
160.125 17.6086 0
157.586 17.7216 0
158.666 13.3851 0
160.03 15.4686 0
158.856 17.6653 0
157.492 15.5816 0
158.761 15.5253 0
159.934 13.3284 0
162.471 13.214 0
162.665 17.4941 0
160.125 17.6086 0
161.203 13.2714 0
162.568 15.3542 0
161.395 17.5515 0
160.03 15.4686 0
161.299 15.4116 0
162.471 13.214 0
165.008 13.0981 0
165.204 17.3781 0
162.665 17.4941 0
163.739 13.1562 0
165.106 15.2383 0
163.934 17.4363 0
162.568 15.3542 0
163.837 15.2964 0
165.008 13.0981 0
167.544 12.9809 0
167.743 17.2607 0
165.204 17.3781 0
166.276 13.0397 0
167.643 15.1209 0
166.473 17.3196 0
165.106 15.2383 0
166.375 15.1798 0
167.544 12.9809 0
170.081 12.8621 0
170.281 17.1419 0
167.743 17.2607 0
168.812 12.9217 0
170.181 15.0022 0
169.012 17.2015 0
167.643 15.1209 0
168.912 15.0617 0
170.081 12.8621 0
172.617 12.742 0
172.82 17.0217 0
170.281 17.1419 0
171.349 12.8023 0
172.719 14.882 0
171.551 17.082 0
170.181 15.0022 0
171.45 14.9423 0
172.617 12.742 0
175.153 12.6205 0
175.359 16.9001 0
172.82 17.0217 0
173.885 12.6814 0
175.256 14.7604 0
174.09 16.9611 0
172.719 14.882 0
173.987 14.8214 0
175.153 12.6205 0
177.69 12.4976 0
177.898 16.7771 0
175.359 16.9001 0
176.422 12.5592 0
177.794 14.6375 0
176.628 16.8387 0
175.256 14.7604 0
176.525 14.6991 0
177.69 12.4976 0
180.226 12.3733 0
180.436 16.6527 0
177.898 16.7771 0
178.958 12.4356 0
180.331 14.5131 0
179.167 16.715 0
177.794 14.6375 0
179.062 14.5755 0
180.226 12.3733 0
182.762 12.2476 0
182.974 16.5269 0
180.436 16.6527 0
181.494 12.3106 0
182.868 14.3874 0
181.705 16.59 0
180.331 14.5131 0
181.6 14.4504 0
182.762 12.2476 0
185.298 12.1206 0
185.513 16.3998 0
182.974 16.5269 0
184.03 12.1843 0
185.405 14.2603 0
184.244 16.4635 0
182.868 14.3874 0
184.137 14.324 0
185.298 12.1206 0
187.834 11.9923 0
188.051 16.2713 0
185.513 16.3998 0
186.566 12.0566 0
187.942 14.1319 0
186.782 16.3357 0
185.405 14.2603 0
186.674 14.1963 0
187.834 11.9923 0
190.37 11.8626 0
190.589 16.1415 0
188.051 16.2713 0
189.102 11.9276 0
190.479 14.0022 0
189.32 16.2066 0
187.942 14.1319 0
189.211 14.0672 0
190.37 11.8626 0
192.906 11.7315 0
193.127 16.0104 0
190.589 16.1415 0
191.638 11.7972 0
193.016 13.8711 0
191.858 16.0761 0
190.479 14.0022 0
191.748 13.9368 0
192.906 11.7315 0
195.441 11.5992 0
195.665 15.8779 0
193.127 16.0104 0
194.174 11.6655 0
195.553 13.7387 0
194.396 15.9443 0
193.016 13.8711 0
194.285 13.8051 0
195.441 11.5992 0
197.977 11.4656 0
198.203 15.7442 0
195.665 15.8779 0
196.709 11.5325 0
198.09 13.605 0
196.934 15.8112 0
195.553 13.7387 0
196.822 13.672 0
197.977 11.4656 0
200.513 11.3306 0
200.741 15.6092 0
198.203 15.7442 0
199.245 11.3983 0
200.627 13.47 0
199.472 15.6768 0
198.09 13.605 0
199.358 13.5377 0
200.513 11.3306 0
203.048 11.1944 0
203.278 15.4728 0
200.741 15.6092 0
201.78 11.2627 0
203.163 13.3338 0
202.009 15.5412 0
200.627 13.47 0
201.895 13.4021 0
203.048 11.1944 0
205.584 11.0569 0
205.816 15.3352 0
203.278 15.4728 0
204.316 11.1258 0
205.7 13.1962 0
204.547 15.4042 0
203.163 13.3338 0
204.431 13.2652 0
205.584 11.0569 0
208.119 10.9182 0
208.353 15.1964 0
205.816 15.3352 0
206.851 10.9877 0
208.236 13.0574 0
207.085 15.266 0
205.7 13.1962 0
206.968 13.127 0
208.119 10.9182 0
210.654 10.7782 0
210.891 15.0563 0
208.353 15.1964 0
209.387 10.8483 0
210.772 12.9174 0
209.622 15.1265 0
208.236 13.0574 0
209.504 12.9876 0
210.654 10.7782 0
213.189 10.637 0
213.428 14.915 0
210.891 15.0563 0
211.922 10.7077 0
213.309 12.7761 0
212.159 14.9858 0
210.772 12.9174 0
212.041 12.8469 0
213.189 10.637 0
215.724 10.4945 0
215.965 14.7724 0
213.428 14.915 0
214.457 10.5659 0
215.845 12.6336 0
214.697 14.8438 0
213.309 12.7761 0
214.577 12.705 0
215.724 10.4945 0
218.259 10.3508 0
218.502 14.6286 0
215.965 14.7724 0
216.992 10.4228 0
218.381 12.4899 0
217.234 14.7007 0
215.845 12.6336 0
217.113 12.5619 0
218.259 10.3508 0
220.794 10.206 0
221.039 14.4837 0
218.502 14.6286 0
219.527 10.2786 0
220.917 12.3449 0
219.771 14.5563 0
218.381 12.4899 0
219.649 12.4176 0
220.794 10.206 0
223.329 10.0599 0
223.576 14.3375 0
221.039 14.4837 0
222.062 10.1331 0
223.453 12.1988 0
222.308 14.4107 0
220.917 12.3449 0
222.185 12.272 0
223.329 10.0599 0
225.864 9.91266 0
226.113 14.1901 0
223.576 14.3375 0
224.597 9.98643 0
225.988 12.0515 0
224.844 14.264 0
223.453 12.1988 0
224.721 12.1253 0
225.864 9.91266 0
228.399 9.76424 0
228.649 14.0416 0
226.113 14.1901 0
227.131 9.83859 0
228.524 11.903 0
227.381 14.116 0
225.988 12.0515 0
227.256 11.9774 0
228.399 9.76424 0
230.933 9.61466 0
231.186 13.8919 0
228.649 14.0416 0
229.666 9.68959 0
231.06 11.7534 0
229.918 13.9669 0
228.524 11.903 0
229.792 11.8284 0
230.933 9.61466 0
233.468 9.46392 0
233.723 13.7411 0
231.186 13.8919 0
232.201 9.53943 0
233.595 11.6026 0
232.454 13.8166 0
231.06 11.7534 0
232.328 11.6782 0
233.468 9.46392 0
236.002 9.31205 0
236.259 13.5891 0
233.723 13.7411 0
234.735 9.38813 0
236.131 11.4507 0
234.991 13.6652 0
233.595 11.6026 0
234.863 11.5268 0
236.002 9.31205 0
238.537 9.15905 0
238.795 13.436 0
236.259 13.5891 0
237.27 9.23569 0
238.666 11.2976 0
237.527 13.5127 0
236.131 11.4507 0
237.398 11.3743 0
238.537 9.15905 0
241.071 9.00494 0
241.331 13.2818 0
238.795 13.436 0
239.804 9.08213 0
241.201 11.1435 0
240.063 13.359 0
238.666 11.2976 0
239.934 11.2207 0
241.071 9.00494 0
243.605 8.84971 0
243.868 13.1264 0
241.331 13.2818 0
242.338 8.92746 0
243.737 10.9882 0
242.6 13.2043 0
241.201 11.1435 0
242.469 11.066 0
243.605 8.84971 0
246.14 8.69339 0
246.404 12.97 0
243.868 13.1264 0
244.873 8.77169 0
246.272 10.8318 0
245.136 13.0484 0
243.737 10.9882 0
245.004 10.9101 0
246.14 8.69339 0
248.674 8.53599 0
248.94 12.8125 0
246.404 12.97 0
247.407 8.61483 0
248.807 10.6744 0
247.672 12.8914 0
246.272 10.8318 0
247.539 10.7532 0
248.674 8.53599 0
251.208 8.37751 0
251.475 12.6539 0
248.94 12.8125 0
249.941 8.45689 0
251.342 10.5158 0
250.207 12.7334 0
248.807 10.6744 0
250.074 10.5952 0
251.208 8.37751 0
253.742 8.21797 0
254.011 12.4943 0
251.475 12.6539 0
252.475 8.29788 0
253.876 10.3562 0
252.743 12.5743 0
251.342 10.5158 0
252.609 10.4362 0
253.742 8.21797 0
256.276 8.05738 0
256.547 12.3336 0
254.011 12.4943 0
255.009 8.13781 0
256.411 10.1956 0
255.279 12.4141 0
253.876 10.3562 0
255.144 10.2761 0
256.276 8.05738 0
258.809 7.89575 0
259.082 12.1719 0
256.547 12.3336 0
257.543 7.9767 0
258.946 10.0339 0
257.815 12.2529 0
256.411 10.1956 0
257.679 10.1149 0
258.809 7.89575 0
261.343 7.73309 0
261.618 12.0091 0
259.082 12.1719 0
260.076 7.81455 0
261.48 9.87121 0
260.35 12.0906 0
258.946 10.0339 0
260.213 9.95269 0
261.343 7.73309 0
263.877 7.56941 0
264.153 11.8453 0
261.618 12.0091 0
262.61 7.65137 0
264.015 9.70747 0
262.885 11.9273 0
261.48 9.87121 0
262.748 9.78947 0
263.877 7.56941 0
266.41 7.40472 0
266.688 11.6805 0
264.153 11.8453 0
265.144 7.48719 0
266.549 9.54273 0
265.421 11.7631 0
264.015 9.70747 0
265.282 9.62523 0
266.41 7.40472 0
268.944 7.23903 0
269.224 11.5147 0
266.688 11.6805 0
267.677 7.322 0
269.084 9.37699 0
267.956 11.5978 0
266.549 9.54273 0
267.817 9.45999 0
268.944 7.23903 0
271.477 7.07235 0
271.759 11.348 0
269.224 11.5147 0
270.211 7.15581 0
271.618 9.21027 0
270.491 11.4315 0
269.084 9.37699 0
270.351 9.29375 0
271.477 7.07235 0
274.011 6.9047 0
274.294 11.1802 0
271.759 11.348 0
272.744 6.98865 0
274.152 9.04257 0
273.026 11.2642 0
271.618 9.21027 0
272.885 9.12654 0
274.011 6.9047 0
276.544 6.73609 0
276.829 11.0115 0
274.294 11.1802 0
275.277 6.82052 0
276.686 8.8739 0
275.561 11.096 0
274.152 9.04257 0
275.419 8.95836 0
276.544 6.73609 0
279.077 6.56652 0
279.363 10.8418 0
276.829 11.0115 0
277.811 6.65142 0
279.22 8.70429 0
278.096 10.9268 0
276.686 8.8739 0
277.953 8.78921 0
279.077 6.56652 0
281.61 6.39601 0
281.898 10.6712 0
279.363 10.8418 0
280.344 6.48138 0
281.754 8.53373 0
280.631 10.7567 0
279.22 8.70429 0
280.487 8.61912 0
281.61 6.39601 0
284.143 6.22457 0
284.433 10.4997 0
281.898 10.6712 0
282.877 6.3104 0
284.288 8.36223 0
283.165 10.5856 0
281.754 8.53373 0
283.021 8.44809 0
284.143 6.22457 0
286.676 6.0522 0
286.967 10.3272 0
284.433 10.4997 0
285.41 6.1385 0
286.822 8.18982 0
285.7 10.4136 0
284.288 8.36223 0
285.555 8.27614 0
286.676 6.0522 0
289.209 5.87893 0
289.502 10.1539 0
286.967 10.3272 0
287.943 5.96568 0
289.355 8.0165 0
288.234 10.2407 0
286.822 8.18982 0
288.089 8.10327 0
289.209 5.87893 0
291.742 5.70475 0
292.036 9.9796 0
289.502 10.1539 0
290.476 5.79195 0
291.889 7.84227 0
290.769 10.0668 0
289.355 8.0165 0
290.622 7.9295 0
291.742 5.70475 0
294.275 5.52969 0
294.57 9.80444 0
292.036 9.9796 0
293.008 5.61733 0
294.423 7.66716 0
293.303 9.89213 0
291.889 7.84227 0
293.156 7.75483 0
294.275 5.52969 0
296.808 5.35375 0
297.105 9.62841 0
294.57 9.80444 0
295.541 5.44183 0
296.956 7.49117 0
295.837 9.71654 0
294.423 7.66716 0
295.689 7.57928 0
296.808 5.35375 0
299.34 5.17694 0
299.639 9.45151 0
297.105 9.62841 0
298.074 5.26545 0
299.489 7.31432 0
298.372 9.54007 0
296.956 7.49117 0
298.223 7.40286 0
299.34 5.17694 0
301.873 4.99928 0
302.173 9.27376 0
299.639 9.45151 0
300.607 5.08822 0
302.023 7.13661 0
300.906 9.36274 0
299.489 7.31432 0
300.756 7.22557 0
301.873 4.99928 0
304.405 4.82077 0
304.707 9.09516 0
302.173 9.27376 0
303.139 4.91013 0
304.556 6.95806 0
303.44 9.18456 0
302.023 7.13661 0
303.289 7.04744 0
304.405 4.82077 0
306.938 4.64143 0
307.24 8.91573 0
304.707 9.09516 0
305.672 4.7312 0
307.089 6.77867 0
305.973 9.00555 0
304.556 6.95806 0
305.822 6.86847 0
306.938 4.64143 0
309.47 4.46126 0
309.774 8.73547 0
307.24 8.91573 0
308.204 4.55145 0
309.622 6.59846 0
308.507 8.8257 0
307.089 6.77867 0
308.356 6.68866 0
309.47 4.46126 0
312.002 4.28029 0
312.308 8.55441 0
309.774 8.73547 0
310.736 4.37088 0
312.155 6.41743 0
311.041 8.64504 0
309.622 6.59846 0
310.889 6.50805 0
312.002 4.28029 0
314.535 4.09851 0
314.841 8.37254 0
312.308 8.55441 0
313.269 4.1895 0
314.688 6.23561 0
313.575 8.46357 0
312.155 6.41743 0
313.422 6.32662 0
314.535 4.09851 0
317.067 3.91594 0
317.375 8.18988 0
314.841 8.37254 0
315.801 4.00732 0
317.221 6.05299 0
316.108 8.28131 0
314.688 6.23561 0
315.954 6.1444 0
317.067 3.91594 0
319.599 3.73259 0
319.908 8.00645 0
317.375 8.18988 0
318.333 3.82436 0
319.754 5.8696 0
318.642 8.09826 0
317.221 6.05299 0
318.487 5.96139 0
319.599 3.73259 0
322.131 3.54847 0
322.442 7.82225 0
319.908 8.00645 0
320.865 3.64062 0
322.286 5.68544 0
321.175 7.91444 0
319.754 5.8696 0
321.02 5.77762 0
322.131 3.54847 0
324.663 3.36359 0
324.975 7.63729 0
322.442 7.82225 0
323.397 3.45612 0
324.819 5.50052 0
323.708 7.72986 0
322.286 5.68544 0
323.553 5.59307 0
324.663 3.36359 0
327.195 3.17797 0
327.508 7.45158 0
324.975 7.63729 0
325.929 3.27087 0
327.351 5.31485 0
326.241 7.54453 0
324.819 5.50052 0
326.085 5.40778 0
327.195 3.17797 0
329.727 2.9916 0
330.041 7.26514 0
327.508 7.45158 0
328.461 3.08488 0
329.884 5.12845 0
328.775 7.35845 0
327.351 5.31485 0
328.618 5.22174 0
329.727 2.9916 0
332.258 2.80452 0
332.574 7.07797 0
330.041 7.26514 0
330.993 2.89815 0
332.416 4.94132 0
331.308 7.17164 0
329.884 5.12845 0
331.15 5.03498 0
332.258 2.80452 0
334.79 2.61672 0
335.107 6.89009 0
332.574 7.07797 0
333.524 2.71071 0
334.949 4.75348 0
333.841 6.98412 0
332.416 4.94132 0
333.682 4.84749 0
334.79 2.61672 0
337.322 2.42821 0
337.64 6.70151 0
335.107 6.89009 0
336.056 2.52255 0
337.481 4.56494 0
336.373 6.79589 0
334.949 4.75348 0
336.215 4.6593 0
337.322 2.42821 0
339.853 2.23902 0
340.173 6.51223 0
337.64 6.70151 0
338.588 2.3337 0
340.013 4.3757 0
338.906 6.60696 0
337.481 4.56494 0
338.747 4.4704 0
339.853 2.23902 0
342.385 2.04914 0
342.705 6.32228 0
340.173 6.51223 0
341.119 2.14416 0
342.545 4.18578 0
341.439 6.41734 0
340.013 4.3757 0
341.279 4.28082 0
342.385 2.04914 0
344.916 1.85859 0
345.238 6.13165 0
342.705 6.32228 0
343.651 1.95394 0
345.077 3.99519 0
343.972 6.22705 0
342.545 4.18578 0
343.811 4.09057 0
344.916 1.85859 0
347.448 1.66737 0
347.77 5.94037 0
345.238 6.13165 0
346.182 1.76306 0
347.609 3.80394 0
346.504 6.03609 0
345.077 3.99519 0
346.343 3.89965 0
347.448 1.66737 0
349.979 1.47551 0
350.303 5.74843 0
347.77 5.94037 0
348.714 1.57153 0
350.141 3.61204 0
349.037 5.84448 0
347.609 3.80394 0
348.875 3.70807 0
349.979 1.47551 0
352.511 1.28302 0
352.835 5.55586 0
350.303 5.74843 0
351.245 1.37934 0
352.673 3.41951 0
351.569 5.65223 0
350.141 3.61204 0
351.407 3.51585 0
352.511 1.28302 0
355.042 1.08989 0
355.368 5.36267 0
352.835 5.55586 0
353.776 1.18653 0
355.205 3.22634 0
354.101 5.45934 0
352.673 3.41951 0
353.939 3.323 0
355.042 1.08989 0
357.573 0.896145 0
357.9 5.16885 0
355.368 5.36267 0
356.307 0.993093 0
357.736 3.03256 0
356.634 5.26584 0
355.205 3.22634 0
356.471 3.12953 0
357.573 0.896145 0
360.104 0.701795 0
360.432 4.97443 0
357.9 5.16885 0
358.839 0.799045 0
360.268 2.83818 0
359.166 5.07172 0
357.736 3.03256 0
359.002 2.93545 0
360.104 0.701795 0
362.635 0.506851 0
362.964 4.77942 0
360.432 4.97443 0
361.37 0.604397 0
362.8 2.6432 0
361.698 4.877 0
360.268 2.83818 0
361.534 2.74076 0
362.635 0.506851 0
365.166 0.311322 0
365.496 4.58383 0
362.964 4.77942 0
363.901 0.409158 0
365.331 2.44764 0
364.23 4.6817 0
362.8 2.6432 0
364.065 2.54549 0
365.166 0.311322 0
367.697 0.115219 0
368.028 4.38766 0
365.496 4.58383 0
366.432 0.213341 0
367.863 2.2515 0
366.762 4.48581 0
365.331 2.44764 0
366.597 2.34964 0
367.697 0.115219 0
370.228 -0.0814463 0
370.56 4.19093 0
368.028 4.38766 0
368.963 0.0169559 0
370.394 2.0548 0
369.294 4.28936 0
367.863 2.2515 0
369.128 2.15322 0
370.228 -0.0814463 0
372.759 -0.278663 0
373.092 3.99365 0
370.56 4.19093 0
371.494 -0.179987 0
372.925 1.85755 0
371.826 4.09236 0
370.394 2.0548 0
371.66 1.95625 0
372.759 -0.278663 0
375.29 -0.476421 0
375.623 3.79583 0
373.092 3.99365 0
374.024 -0.377475 0
375.457 1.65976 0
374.358 3.89481 0
372.925 1.85755 0
374.191 1.75872 0
375.29 -0.476421 0
377.821 -0.674709 0
378.155 3.59748 0
375.623 3.79583 0
376.555 -0.5755 0
377.988 1.46144 0
376.889 3.69672 0
375.457 1.65976 0
376.722 1.56067 0
377.821 -0.674709 0
380.351 -0.873517 0
380.687 3.39862 0
378.155 3.59748 0
379.086 -0.774049 0
380.519 1.26261 0
379.421 3.49812 0
377.988 1.46144 0
379.253 1.36209 0
380.351 -0.873517 0
382.882 -1.07283 0
383.218 3.19924 0
380.687 3.39862 0
381.617 -0.973111 0
383.05 1.06326 0
381.952 3.29899 0
380.519 1.26261 0
381.785 1.163 0
382.882 -1.07283 0
385.413 -1.27265 0
385.75 2.99938 0
383.218 3.19924 0
384.147 -1.17268 0
385.581 0.863418 0
384.484 3.09937 0
383.05 1.06326 0
384.316 0.963401 0
385.413 -1.27265 0
387.943 -1.47295 0
388.281 2.79902 0
385.75 2.99938 0
386.678 -1.37274 0
388.112 0.66309 0
387.015 2.89926 0
385.581 0.863418 0
386.847 0.763314 0
387.943 -1.47295 0
390.474 -1.67372 0
390.812 2.59819 0
388.281 2.79902 0
389.208 -1.57327 0
390.643 0.462286 0
389.547 2.69866 0
388.112 0.66309 0
389.378 0.562747 0
390.474 -1.67372 0
393.004 -1.87496 0
393.344 2.3969 0
390.812 2.59819 0
391.739 -1.77428 0
393.174 0.261018 0
392.078 2.4976 0
390.643 0.462286 0
391.908 0.36171 0
393.004 -1.87496 0
395.535 -2.07666 0
395.875 2.19515 0
393.344 2.3969 0
394.269 -1.97575 0
395.705 0.0592968 0
394.609 2.29608 0
393.174 0.261018 0
394.439 0.160214 0
395.535 -2.07666 0
398.065 -2.27879 0
398.406 1.99296 0
395.875 2.19515 0
396.8 -2.17767 0
398.235 -0.142867 0
397.14 2.09411 0
395.705 0.0592968 0
396.97 -0.0417306 0
398.065 -2.27879 0
400.595 -2.48137 0
400.937 1.79035 0
398.406 1.99296 0
399.33 -2.38003 0
400.766 -0.345463 0
399.671 1.89171 0
398.235 -0.142867 0
399.501 -0.244112 0
400.595 -2.48137 0
403.126 -2.68436 0
403.468 1.58731 0
400.937 1.79035 0
401.861 -2.58281 0
403.297 -0.54848 0
402.202 1.68888 0
400.766 -0.345463 0
402.031 -0.44692 0
403.126 -2.68436 0
405.656 -2.88776 0
405.999 1.38386 0
403.468 1.58731 0
404.391 -2.78601 0
405.827 -0.751907 0
404.733 1.48563 0
403.297 -0.54848 0
404.562 -0.650143 0
405.656 -2.88776 0
408.186 -3.09156 0
408.53 1.18001 0
405.999 1.38386 0
406.921 -2.98961 0
408.358 -0.955734 0
407.264 1.28198 0
405.827 -0.751907 0
407.093 -0.853771 0
408.186 -3.09156 0
410.716 -3.29576 0
411.061 0.975775 0
408.53 1.18001 0
409.451 -3.19361 0
410.888 -1.15995 0
409.795 1.07794 0
408.358 -0.955734 0
409.623 -1.05779 0
410.716 -3.29576 0
413.246 -3.50033 0
413.591 0.771163 0
411.061 0.975775 0
411.981 -3.39799 0
413.419 -1.36454 0
412.326 0.873516 0
410.888 -1.15995 0
412.154 -1.2622 0
413.246 -3.50033 0
415.777 -3.70526 0
416.122 0.566185 0
413.591 0.771163 0
414.512 -3.60275 0
415.949 -1.5695 0
414.857 0.66872 0
413.419 -1.36454 0
414.684 -1.46698 0
415.777 -3.70526 0
418.307 -3.91056 0
418.653 0.360852 0
416.122 0.566185 0
417.042 -3.80787 0
418.48 -1.77481 0
417.387 0.463563 0
415.949 -1.5695 0
417.215 -1.67211 0
418.307 -3.91056 0
420.837 -4.1162 0
421.183 0.155175 0
418.653 0.360852 0
419.572 -4.01334 0
421.01 -1.98047 0
419.918 0.258056 0
418.48 -1.77481 0
419.745 -1.8776 0
420.837 -4.1162 0
423.367 -4.32217 0
423.714 -0.0508365 0
421.183 0.155175 0
422.102 -4.21914 0
423.54 -2.18647 0
422.449 0.05221 0
421.01 -1.98047 0
422.275 -2.08343 0
423.367 -4.32217 0
425.897 -4.52847 0
426.244 -0.25717 0
423.714 -0.0508365 0
424.632 -4.42528 0
426.071 -2.39279 0
424.979 -0.153964 0
423.54 -2.18647 0
424.805 -2.28959 0
425.897 -4.52847 0
428.427 -4.73509 0
428.775 -0.463816 0
426.244 -0.25717 0
427.162 -4.63174 0
428.601 -2.59942 0
427.51 -0.360455 0
426.071 -2.39279 0
427.336 -2.49606 0
428.427 -4.73509 0
430.956 -4.942 0
431.305 -0.670763 0
428.775 -0.463816 0
429.691 -4.83851 0
431.131 -2.80635 0
430.04 -0.567252 0
428.601 -2.59942 0
429.866 -2.70285 0
430.956 -4.942 0
433.486 -5.14921 0
433.836 -0.877999 0
431.305 -0.670763 0
432.221 -5.04557 0
433.661 -3.01357 0
432.57 -0.774345 0
431.131 -2.80635 0
432.396 -2.90992 0
433.486 -5.14921 0
436.016 -5.35669 0
436.366 -1.08552 0
433.836 -0.877999 0
434.751 -5.25292 0
436.191 -3.22107 0
435.101 -0.981723 0
433.661 -3.01357 0
434.926 -3.11729 0
436.016 -5.35669 0
438.546 -5.56445 0
438.896 -1.2933 0
436.366 -1.08552 0
437.281 -5.46054 0
438.721 -3.42885 0
437.631 -1.18937 0
436.191 -3.22107 0
437.456 -3.32493 0
438.546 -5.56445 0
441.076 -5.77247 0
441.426 -1.50134 0
438.896 -1.2933 0
439.811 -5.66843 0
441.251 -3.63688 0
440.161 -1.39729 0
438.721 -3.42885 0
439.986 -3.53283 0
441.076 -5.77247 0
443.605 -5.98073 0
443.956 -1.70963 0
441.426 -1.50134 0
442.341 -5.87657 0
443.781 -3.84516 0
442.691 -1.60546 0
441.251 -3.63688 0
442.516 -3.74099 0
443.605 -5.98073 0
446.135 -6.18923 0
446.487 -1.91816 0
443.956 -1.70963 0
444.87 -6.08495 0
446.311 -4.05367 0
445.221 -1.81387 0
443.781 -3.84516 0
445.046 -3.94938 0
446.135 -6.18923 0
448.665 -6.39796 0
449.017 -2.12691 0
446.487 -1.91816 0
447.4 -6.29357 0
448.841 -4.26241 0
447.752 -2.0225 0
446.311 -4.05367 0
447.576 -4.15801 0
448.665 -6.39796 0
451.194 -6.60691 0
451.547 -2.33587 0
449.017 -2.12691 0
449.93 -6.50241 0
451.37 -4.47137 0
450.282 -2.23136 0
448.841 -4.26241 0
450.106 -4.36686 0
451.194 -6.60691 0
453.724 -6.81606 0
454.077 -2.54504 0
451.547 -2.33587 0
452.459 -6.71146 0
453.9 -4.68053 0
452.812 -2.44043 0
451.37 -4.47137 0
452.635 -4.57592 0
453.724 -6.81606 0
456.254 -7.0254 0
456.606 -2.7544 0
454.077 -2.54504 0
454.989 -6.9207 0
456.43 -4.88988 0
455.342 -2.6497 0
453.9 -4.68053 0
455.165 -4.78518 0
456.254 -7.0254 0
458.783 -7.23493 0
459.136 -2.96394 0
456.606 -2.7544 0
457.518 -7.13014 0
458.96 -5.09941 0
457.871 -2.85915 0
456.43 -4.88988 0
457.695 -4.99462 0
458.783 -7.23493 0
461.313 -7.44463 0
461.666 -3.17366 0
459.136 -2.96394 0
460.048 -7.33976 0
461.489 -5.30912 0
460.401 -3.06878 0
458.96 -5.09941 0
460.225 -5.20425 0
461.313 -7.44463 0
463.842 -7.65449 0
464.196 -3.38353 0
461.666 -3.17366 0
462.577 -7.54954 0
464.019 -5.51899 0
462.931 -3.27857 0
461.489 -5.30912 0
462.754 -5.41404 0
463.842 -7.65449 0
466.372 -7.8645 0
466.726 -3.59355 0
464.196 -3.38353 0
465.107 -7.75947 0
466.549 -5.72901 0
465.461 -3.48852 0
464.019 -5.51899 0
465.284 -5.62398 0
466.372 -7.8645 0
468.901 -8.07465 0
469.255 -3.80371 0
466.726 -3.59355 0
467.636 -7.96956 0
469.078 -5.93917 0
467.991 -3.69862 0
466.549 -5.72901 0
467.814 -5.83407 0
468.901 -8.07465 0
471.431 -8.28493 0
471.785 -4.014 0
469.255 -3.80371 0
470.166 -8.17977 0
471.608 -6.14945 0
470.52 -3.90884 0
469.078 -5.93917 0
470.343 -6.04429 0
471.431 -8.28493 0
473.96 -8.49533 0
474.315 -4.22441 0
471.785 -4.014 0
472.695 -8.39012 0
474.137 -6.35986 0
473.05 -4.11919 0
471.608 -6.14945 0
472.873 -6.25464 0
473.96 -8.49533 0
476.49 -8.70584 0
476.844 -4.43492 0
474.315 -4.22441 0
475.225 -8.60057 0
476.667 -6.57037 0
475.58 -4.32965 0
474.137 -6.35986 0
475.402 -6.4651 0
476.49 -8.70584 0
479.019 -8.91644 0
479.374 -4.64552 0
476.844 -4.43492 0
477.754 -8.81113 0
479.196 -6.78097 0
478.109 -4.54021 0
476.667 -6.57037 0
477.932 -6.67566 0
479.019 -8.91644 0
481.548 -9.12714 0
481.903 -4.85621 0
479.374 -4.64552 0
480.284 -9.02178 0
481.726 -6.99167 0
480.639 -4.75086 0
479.196 -6.78097 0
480.461 -6.88631 0
481.548 -9.12714 0
484.078 -9.33791 0
484.433 -5.06698 0
481.903 -4.85621 0
482.813 -9.23251 0
484.255 -7.20244 0
483.168 -4.96159 0
481.726 -6.99167 0
482.991 -7.09704 0
484.078 -9.33791 0
486.607 -9.54875 0
486.962 -5.27781 0
484.433 -5.06698 0
485.342 -9.44332 0
486.785 -7.41327 0
485.698 -5.17239 0
484.255 -7.20244 0
485.52 -7.30785 0
486.607 -9.54875 0
489.136 -9.75964 0
489.492 -5.4887 0
486.962 -5.27781 0
487.872 -9.65419 0
489.314 -7.62417 0
488.227 -5.38325 0
486.785 -7.41327 0
488.049 -7.51871 0
489.136 -9.75964 0
491.666 -9.97057 0
492.021 -5.69964 0
489.492 -5.4887 0
490.401 -9.8651 0
491.843 -7.8351 0
490.756 -5.59416 0
489.314 -7.62417 0
490.579 -7.72963 0
491.666 -9.97057 0
494.195 -10.1815 0
494.55 -5.91061 0
492.021 -5.69964 0
492.93 -10.076 0
494.373 -8.04605 0
493.286 -5.80512 0
491.843 -7.8351 0
493.108 -7.94057 0
494.195 -10.1815 0
496.724 -10.3924 0
497.08 -6.12158 0
494.55 -5.91061 0
495.46 -10.2869 0
496.902 -8.25696 0
495.815 -6.0161 0
494.373 -8.04605 0
495.637 -8.15151 0
496.724 -10.3924 0
499.254 -10.6032 0
499.609 -6.33246 0
497.08 -6.12158 0
497.989 -10.4978 0
499.431 -8.46777 0
498.344 -6.22704 0
496.902 -8.25696 0
498.167 -8.36239 0
0 21.4286 0
2.54283 21.4281 0
2.54628 25.7119 0
0 25.7143 0
1.27134 21.4287 0
2.54449 23.5702 0
1.27302 25.7134 0
0 23.5714 0
1.2722 23.5712 0
2.54283 21.4281 0
5.08603 21.4248 0
5.09323 25.7075 0
2.54628 25.7119 0
3.8144 21.4267 0
5.08951 23.5664 0
3.81971 25.7099 0
2.54449 23.5702 0
3.81694 23.5686 0
5.08603 21.4248 0
7.62943 21.4192 0
7.64026 25.7014 0
5.09323 25.7075 0
6.35771 21.4223 0
7.63474 23.5606 0
6.36675 25.7047 0
5.08951 23.5664 0
6.36212 23.5637 0
7.62943 21.4192 0
10.1729 21.4114 0
10.1872 25.6935 0
7.64026 25.7014 0
8.90116 21.4156 0
10.18 23.5527 0
8.91376 25.6977 0
7.63474 23.5606 0
8.90737 23.5569 0
10.1729 21.4114 0
12.7163 21.4016 0
12.7341 25.6836 0
10.1872 25.6935 0
11.4446 21.4068 0
12.7252 23.5428 0
11.4607 25.6888 0
10.18 23.5527 0
11.4526 23.548 0
12.7163 21.4016 0
15.2597 21.3897 0
15.281 25.6717 0
12.7341 25.6836 0
13.988 21.3959 0
15.2703 23.5309 0
14.0076 25.6779 0
12.7252 23.5428 0
13.9977 23.5371 0
15.2597 21.3897 0
17.803 21.3757 0
17.8277 25.6577 0
15.281 25.6717 0
16.5313 21.3829 0
17.8153 23.5169 0
16.5544 25.665 0
15.2703 23.5309 0
16.5428 23.5242 0
17.803 21.3757 0
20.3462 21.3596 0
20.3744 25.6417 0
17.8277 25.6577 0
19.0746 21.3679 0
20.3603 23.5008 0
19.1011 25.6499 0
17.8153 23.5169 0
19.0878 23.5091 0
20.3462 21.3596 0
22.8894 21.3415 0
22.9211 25.6235 0
20.3744 25.6417 0
21.6178 21.3508 0
22.9052 23.4827 0
21.6478 25.6329 0
20.3603 23.5008 0
21.6328 23.492 0
22.8894 21.3415 0
25.4326 21.3213 0
25.4677 25.6034 0
22.9211 25.6235 0
24.161 21.3317 0
25.4501 23.4626 0
24.1944 25.6137 0
22.9052 23.4827 0
24.1777 23.4729 0
25.4326 21.3213 0
27.9757 21.2991 0
28.0142 25.5812 0
25.4677 25.6034 0
26.7041 21.3105 0
27.9949 23.4404 0
26.7409 25.5925 0
25.4501 23.4626 0
26.7225 23.4517 0
27.9757 21.2991 0
30.5187 21.2749 0
30.5606 25.5569 0
28.0142 25.5812 0
29.2472 21.2873 0
30.5396 23.4161 0
29.2874 25.5693 0
27.9949 23.4404 0
29.2673 23.4285 0
30.5187 21.2749 0
33.0617 21.2487 0
33.107 25.5307 0
30.5606 25.5569 0
31.7902 21.262 0
33.0843 23.3899 0
31.8338 25.5441 0
30.5396 23.4161 0
31.812 23.4033 0
33.0617 21.2487 0
35.6047 21.2204 0
35.6533 25.5024 0
33.107 25.5307 0
34.3332 21.2348 0
35.629 23.3616 0
34.3802 25.5168 0
33.0843 23.3899 0
34.3567 23.376 0
35.6047 21.2204 0
38.1476 21.1902 0
38.1996 25.4722 0
35.6533 25.5024 0
36.8761 21.2055 0
38.1735 23.3314 0
36.9265 25.4875 0
35.629 23.3616 0
36.9013 23.3468 0
38.1476 21.1902 0
40.6904 21.1579 0
40.7458 25.4399 0
38.1996 25.4722 0
39.419 21.1743 0
40.7181 23.2991 0
39.4727 25.4563 0
38.1735 23.3314 0
39.4458 23.3155 0
40.6904 21.1579 0
43.2332 21.1237 0
43.2919 25.4057 0
40.7458 25.4399 0
41.9618 21.1411 0
43.2625 23.2649 0
42.0188 25.423 0
40.7181 23.2991 0
41.9903 23.2823 0
43.2332 21.1237 0
45.7759 21.0876 0
45.8379 25.3695 0
43.2919 25.4057 0
44.5046 21.1059 0
45.8069 23.2288 0
44.5649 25.3878 0
43.2625 23.2649 0
44.5347 23.2471 0
45.7759 21.0876 0
48.3186 21.0495 0
48.3839 25.3314 0
45.8379 25.3695 0
47.0473 21.0688 0
48.3512 23.1906 0
47.1109 25.3507 0
45.8069 23.2288 0
47.0791 23.2099 0
48.3186 21.0495 0
50.8613 21.0094 0
50.9298 25.2913 0
48.3839 25.3314 0
49.5899 21.0297 0
50.8955 23.1506 0
49.6568 25.3116 0
48.3512 23.1906 0
49.6234 23.1708 0
50.8613 21.0094 0
53.4038 20.9675 0
53.4756 25.2493 0
50.9298 25.2913 0
52.1325 20.9887 0
53.4397 23.1086 0
52.2027 25.2705 0
50.8955 23.1506 0
52.1676 23.1298 0
53.4038 20.9675 0
55.9463 20.9236 0
56.0213 25.2053 0
53.4756 25.2493 0
54.6751 20.9457 0
55.9838 23.0647 0
54.7484 25.2275 0
53.4397 23.1086 0
54.7117 23.0869 0
55.9463 20.9236 0
58.4888 20.8778 0
58.5669 25.1595 0
56.0213 25.2053 0
57.2176 20.9009 0
58.5278 23.0188 0
57.2941 25.1827 0
55.9838 23.0647 0
57.2558 23.042 0
58.4888 20.8778 0
61.0312 20.8301 0
61.1125 25.1118 0
58.5669 25.1595 0
59.76 20.8542 0
61.0718 22.9711 0
59.8397 25.1359 0
58.5278 23.0188 0
59.7998 22.9952 0
61.0312 20.8301 0
63.5735 20.7805 0
63.658 25.0621 0
61.1125 25.1118 0
62.3023 20.8055 0
63.6157 22.9215 0
62.3853 25.0872 0
61.0718 22.9711 0
62.3438 22.9466 0
63.5735 20.7805 0
66.1158 20.729 0
66.2034 25.0106 0
63.658 25.0621 0
64.8446 20.755 0
66.1596 22.87 0
64.9307 25.0366 0
63.6157 22.9215 0
64.8877 22.896 0
66.1158 20.729 0
68.658 20.6757 0
68.7487 24.9573 0
66.2034 25.0106 0
67.3869 20.7026 0
68.7033 22.8167 0
67.4761 24.9842 0
66.1596 22.87 0
67.4314 22.8436 0
68.658 20.6757 0
71.2001 20.6205 0
71.294 24.9021 0
68.7487 24.9573 0
69.929 20.6484 0
71.247 22.7615 0
70.0214 24.9299 0
68.7033 22.8167 0
69.9752 22.7893 0
71.2001 20.6205 0
73.7421 20.5635 0
73.8391 24.845 0
71.294 24.9021 0
72.4711 20.5923 0
73.7906 22.7045 0
72.5666 24.8738 0
71.247 22.7615 0
72.5188 22.7332 0
73.7421 20.5635 0
76.2841 20.5047 0
76.3842 24.7861 0
73.8391 24.845 0
75.0131 20.5344 0
76.3341 22.6456 0
75.1117 24.8158 0
73.7906 22.7045 0
75.0624 22.6753 0
76.2841 20.5047 0
78.826 20.444 0
78.9292 24.7254 0
76.3842 24.7861 0
77.5551 20.4746 0
78.8776 22.5849 0
77.6567 24.756 0
76.3341 22.6456 0
77.6059 22.6155 0
78.826 20.444 0
81.3679 20.3816 0
81.4741 24.6629 0
78.9292 24.7254 0
80.097 20.413 0
81.4209 22.5224 0
80.2016 24.6944 0
78.8776 22.5849 0
80.1493 22.5539 0
81.3679 20.3816 0
83.9097 20.3173 0
84.0188 24.5986 0
81.4741 24.6629 0
82.6388 20.3497 0
83.9642 22.4581 0
82.7465 24.631 0
81.4209 22.5224 0
82.6926 22.4905 0
83.9097 20.3173 0
86.4514 20.2513 0
86.5636 24.5325 0
84.0188 24.5986 0
85.1805 20.2845 0
86.5074 22.3921 0
85.2912 24.5657 0
83.9642 22.4581 0
85.2358 22.4253 0
86.4514 20.2513 0
88.993 20.1835 0
89.1082 24.4646 0
86.5636 24.5325 0
87.7222 20.2176 0
89.0506 22.3242 0
87.8359 24.4988 0
86.5074 22.3921 0
87.779 22.3584 0
88.993 20.1835 0
91.5346 20.1139 0
91.6527 24.3949 0
89.1082 24.4646 0
90.2638 20.1489 0
91.5936 22.2546 0
90.3804 24.43 0
89.0506 22.3242 0
90.3221 22.2896 0
91.5346 20.1139 0
94.076 20.0425 0
94.1971 24.3235 0
91.6527 24.3949 0
92.8053 20.0784 0
94.1365 22.1832 0
92.9249 24.3595 0
91.5936 22.2546 0
92.8651 22.2191 0
94.076 20.0425 0
96.6174 19.9695 0
96.7414 24.2504 0
94.1971 24.3235 0
95.3468 20.0062 0
96.6794 22.1101 0
95.4693 24.2872 0
94.1365 22.1832 0
95.408 22.1469 0
96.6174 19.9695 0
99.1588 19.8946 0
99.2857 24.1755 0
96.7414 24.2504 0
97.8881 19.9323 0
99.2222 22.0353 0
98.0136 24.2132 0
96.6794 22.1101 0
97.9508 22.0729 0
99.1588 19.8946 0
101.7 19.8181 0
101.83 24.0989 0
99.2857 24.1755 0
100.429 19.8566 0
101.765 21.9587 0
100.558 24.1374 0
99.2222 22.0353 0
100.494 21.9972 0
101.7 19.8181 0
104.241 19.7399 0
104.374 24.0206 0
101.83 24.0989 0
102.971 19.7792 0
104.307 21.8804 0
103.102 24.06 0
101.765 21.9587 0
103.036 21.9198 0
104.241 19.7399 0
106.782 19.6599 0
106.918 23.9406 0
104.374 24.0206 0
105.512 19.7001 0
106.85 21.8005 0
105.646 23.9808 0
104.307 21.8804 0
105.579 21.8407 0
106.782 19.6599 0
109.323 19.5783 0
109.462 23.8589 0
106.918 23.9406 0
108.053 19.6193 0
109.392 21.7188 0
108.19 23.9 0
106.85 21.8005 0
108.121 21.7598 0
109.323 19.5783 0
111.864 19.495 0
112.005 23.7756 0
109.462 23.8589 0
110.594 19.5369 0
111.935 21.6355 0
110.734 23.8174 0
109.392 21.7188 0
110.664 21.6773 0
111.864 19.495 0
114.405 19.4101 0
114.549 23.6905 0
112.005 23.7756 0
113.135 19.4528 0
114.477 21.5505 0
113.277 23.7332 0
111.935 21.6355 0
113.206 21.5932 0
114.405 19.4101 0
116.946 19.3235 0
117.093 23.6038 0
114.549 23.6905 0
115.675 19.367 0
117.019 21.4638 0
115.821 23.6474 0
114.477 21.5505 0
115.748 21.5073 0
116.946 19.3235 0
119.486 19.2352 0
119.636 23.5155 0
117.093 23.6038 0
118.216 19.2795 0
119.561 21.3755 0
118.364 23.5599 0
117.019 21.4638 0
118.29 21.4199 0
119.486 19.2352 0
122.027 19.1453 0
122.179 23.4255 0
119.636 23.5155 0
120.757 19.1905 0
122.103 21.2856 0
120.908 23.4707 0
119.561 21.3755 0
120.832 21.3308 0
122.027 19.1453 0
124.568 19.0538 0
124.723 23.3339 0
122.179 23.4255 0
123.297 19.0997 0
124.645 21.194 0
123.451 23.3799 0
122.103 21.2856 0
123.374 21.24 0
124.568 19.0538 0
127.108 18.9607 0
127.266 23.2407 0
124.723 23.3339 0
125.838 19.0074 0
127.187 21.1009 0
125.994 23.2875 0
124.645 21.194 0
125.916 21.1477 0
127.108 18.9607 0
129.648 18.8659 0
129.809 23.1459 0
127.266 23.2407 0
128.378 18.9135 0
129.728 21.0061 0
128.537 23.1935 0
127.187 21.1009 0
128.458 21.0537 0
129.648 18.8659 0
132.189 18.7696 0
132.352 23.0495 0
129.809 23.1459 0
130.918 18.818 0
132.27 20.9098 0
131.08 23.0979 0
129.728 21.0061 0
130.999 20.9581 0
132.189 18.7696 0
134.729 18.6718 0
134.894 22.9516 0
132.352 23.0495 0
133.459 18.7209 0
134.812 20.8118 0
133.623 23.0007 0
132.27 20.9098 0
133.541 20.861 0
134.729 18.6718 0
137.269 18.5723 0
137.437 22.852 0
134.894 22.9516 0
135.999 18.6222 0
137.353 20.7123 0
136.166 22.902 0
134.812 20.8118 0
136.082 20.7623 0
137.269 18.5723 0
139.809 18.4713 0
139.98 22.7509 0
137.437 22.852 0
138.539 18.522 0
139.894 20.6113 0
138.708 22.8017 0
137.353 20.7123 0
138.624 20.662 0
139.809 18.4713 0
142.349 18.3687 0
142.522 22.6483 0
139.98 22.7509 0
141.079 18.4202 0
142.435 20.5087 0
141.251 22.6998 0
139.894 20.6113 0
141.165 20.5602 0
142.349 18.3687 0
144.888 18.2647 0
145.065 22.5441 0
142.522 22.6483 0
143.619 18.3169 0
144.976 20.4046 0
143.793 22.5964 0
142.435 20.5087 0
143.706 20.4568 0
144.888 18.2647 0
147.428 18.1591 0
147.607 22.4384 0
145.065 22.5441 0
146.158 18.2121 0
147.517 20.2989 0
146.336 22.4915 0
144.976 20.4046 0
146.247 20.3519 0
147.428 18.1591 0
149.968 18.0519 0
150.149 22.3312 0
147.607 22.4384 0
148.698 18.1057 0
150.058 20.1918 0
148.878 22.385 0
147.517 20.2989 0
148.788 20.2455 0
149.968 18.0519 0
152.507 17.9433 0
152.691 22.2225 0
150.149 22.3312 0
151.238 17.9978 0
152.599 20.0831 0
151.42 22.2771 0
150.058 20.1918 0
151.329 20.1376 0
152.507 17.9433 0
155.047 17.8332 0
155.233 22.1123 0
152.691 22.2225 0
153.777 17.8885 0
155.14 19.9729 0
153.962 22.1676 0
152.599 20.0831 0
153.87 20.0282 0
155.047 17.8332 0
157.586 17.7216 0
157.775 22.0007 0
155.233 22.1123 0
156.316 17.7776 0
157.68 19.8613 0
156.504 22.0567 0
155.14 19.9729 0
156.41 19.9173 0
157.586 17.7216 0
160.125 17.6086 0
160.317 21.8875 0
157.775 22.0007 0
158.856 17.6653 0
160.221 19.7482 0
159.046 21.9443 0
157.68 19.8613 0
158.951 19.8049 0
160.125 17.6086 0
162.665 17.4941 0
162.858 21.7729 0
160.317 21.8875 0
161.395 17.5515 0
162.761 19.6337 0
161.587 21.8304 0
160.221 19.7482 0
161.491 19.6911 0
162.665 17.4941 0
165.204 17.3781 0
165.4 21.6569 0
162.858 21.7729 0
163.934 17.4363 0
165.302 19.5177 0
164.129 21.7151 0
162.761 19.6337 0
164.031 19.5758 0
165.204 17.3781 0
167.743 17.2607 0
167.941 21.5394 0
165.4 21.6569 0
166.473 17.3196 0
167.842 19.4002 0
166.67 21.5983 0
165.302 19.5177 0
166.572 19.4591 0
167.743 17.2607 0
170.281 17.1419 0
170.482 21.4205 0
167.941 21.5394 0
169.012 17.2015 0
170.382 19.2814 0
169.212 21.4801 0
167.842 19.4002 0
169.112 19.341 0
170.281 17.1419 0
172.82 17.0217 0
173.023 21.3002 0
170.482 21.4205 0
171.551 17.082 0
172.922 19.1611 0
171.753 21.3605 0
170.382 19.2814 0
171.652 19.2214 0
172.82 17.0217 0
175.359 16.9001 0
175.565 21.1785 0
173.023 21.3002 0
174.09 16.9611 0
175.462 19.0394 0
174.294 21.2395 0
172.922 19.1611 0
174.192 19.1004 0
175.359 16.9001 0
177.898 16.7771 0
178.105 21.0554 0
175.565 21.1785 0
176.628 16.8387 0
178.001 18.9164 0
176.835 21.1171 0
175.462 19.0394 0
176.732 18.9781 0
177.898 16.7771 0
180.436 16.6527 0
180.646 20.9309 0
178.105 21.0554 0
179.167 16.715 0
180.541 18.7919 0
179.376 20.9933 0
178.001 18.9164 0
179.271 18.8543 0
180.436 16.6527 0
182.974 16.5269 0
183.187 20.805 0
180.646 20.9309 0
181.705 16.59 0
183.081 18.6661 0
181.917 20.8681 0
180.541 18.7919 0
181.811 18.7292 0
182.974 16.5269 0
185.513 16.3998 0
185.728 20.6778 0
183.187 20.805 0
184.244 16.4635 0
185.62 18.5389 0
184.457 20.7416 0
183.081 18.6661 0
184.35 18.6027 0
185.513 16.3998 0
188.051 16.2713 0
188.268 20.5492 0
185.728 20.6778 0
186.782 16.3357 0
188.159 18.4104 0
186.998 20.6137 0
185.62 18.5389 0
186.89 18.4748 0
188.051 16.2713 0
190.589 16.1415 0
190.808 20.4193 0
188.268 20.5492 0
189.32 16.2066 0
190.699 18.2806 0
189.538 20.4844 0
188.159 18.4104 0
189.429 18.3457 0
190.589 16.1415 0
193.127 16.0104 0
193.349 20.2881 0
190.808 20.4193 0
191.858 16.0761 0
193.238 18.1494 0
192.079 20.3539 0
190.699 18.2806 0
191.968 18.2151 0
193.127 16.0104 0
195.665 15.8779 0
195.889 20.1556 0
193.349 20.2881 0
194.396 15.9443 0
195.777 18.0169 0
194.619 20.222 0
193.238 18.1494 0
194.507 18.0833 0
195.665 15.8779 0
198.203 15.7442 0
198.429 20.0217 0
195.889 20.1556 0
196.934 15.8112 0
198.316 17.8831 0
197.159 20.0888 0
195.777 18.0169 0
197.046 17.9502 0
198.203 15.7442 0
200.741 15.6092 0
200.969 19.8866 0
198.429 20.0217 0
199.472 15.6768 0
200.855 17.748 0
199.699 19.9543 0
198.316 17.8831 0
199.585 17.8157 0
200.741 15.6092 0
203.278 15.4728 0
203.509 19.7502 0
200.969 19.8866 0
202.009 15.5412 0
203.393 17.6116 0
202.239 19.8185 0
200.855 17.748 0
202.124 17.68 0
203.278 15.4728 0
205.816 15.3352 0
206.048 19.6125 0
203.509 19.7502 0
204.547 15.4042 0
205.932 17.474 0
204.778 19.6815 0
203.393 17.6116 0
204.663 17.543 0
205.816 15.3352 0
208.353 15.1964 0
208.588 19.4735 0
206.048 19.6125 0
207.085 15.266 0
208.471 17.3351 0
207.318 19.5432 0
205.932 17.474 0
207.201 17.4047 0
208.353 15.1964 0
210.891 15.0563 0
211.127 19.3333 0
208.588 19.4735 0
209.622 15.1265 0
211.009 17.195 0
209.858 19.4036 0
208.471 17.3351 0
209.74 17.2652 0
210.891 15.0563 0
213.428 14.915 0
213.667 19.1919 0
211.127 19.3333 0
212.159 14.9858 0
213.547 17.0536 0
212.397 19.2628 0
211.009 17.195 0
212.278 17.1244 0
213.428 14.915 0
215.965 14.7724 0
216.206 19.0493 0
213.667 19.1919 0
214.697 14.8438 0
216.085 16.911 0
214.936 19.1207 0
213.547 17.0536 0
214.816 16.9824 0
215.965 14.7724 0
218.502 14.6286 0
218.745 18.9054 0
216.206 19.0493 0
217.234 14.7007 0
218.624 16.7671 0
217.475 18.9775 0
216.085 16.911 0
217.354 16.8392 0
218.502 14.6286 0
221.039 14.4837 0
221.284 18.7603 0
218.745 18.9054 0
219.771 14.5563 0
221.162 16.6221 0
220.014 18.833 0
218.624 16.7671 0
219.893 16.6948 0
221.039 14.4837 0
223.576 14.3375 0
223.823 18.614 0
221.284 18.7603 0
222.308 14.4107 0
223.699 16.4759 0
222.553 18.6873 0
221.162 16.6221 0
222.43 16.5492 0
223.576 14.3375 0
226.113 14.1901 0
226.362 18.4666 0
223.823 18.614 0
224.844 14.264 0
226.237 16.3285 0
225.092 18.5405 0
223.699 16.4759 0
224.968 16.4023 0
226.113 14.1901 0
228.649 14.0416 0
228.9 18.318 0
226.362 18.4666 0
227.381 14.116 0
228.775 16.1799 0
227.631 18.3924 0
226.237 16.3285 0
227.506 16.2543 0
228.649 14.0416 0
231.186 13.8919 0
231.439 18.1682 0
228.9 18.318 0
229.918 13.9669 0
231.312 16.0302 0
230.17 18.2432 0
228.775 16.1799 0
230.044 16.1052 0
231.186 13.8919 0
233.723 13.7411 0
233.977 18.0173 0
231.439 18.1682 0
232.454 13.8166 0
233.85 15.8793 0
232.708 18.0929 0
231.312 16.0302 0
232.581 15.9549 0
233.723 13.7411 0
236.259 13.5891 0
236.516 17.8652 0
233.977 18.0173 0
234.991 13.6652 0
236.387 15.7273 0
235.246 17.9414 0
233.85 15.8793 0
235.119 15.8034 0
236.259 13.5891 0
238.795 13.436 0
239.054 17.712 0
236.516 17.8652 0
237.527 13.5127 0
238.924 15.5741 0
237.785 17.7887 0
236.387 15.7273 0
237.656 15.6508 0
238.795 13.436 0
241.331 13.2818 0
241.592 17.5577 0
239.054 17.712 0
240.063 13.359 0
241.462 15.4198 0
240.323 17.635 0
238.924 15.5741 0
240.193 15.4971 0
241.331 13.2818 0
243.868 13.1264 0
244.13 17.4022 0
241.592 17.5577 0
242.6 13.2043 0
243.999 15.2645 0
242.861 17.4801 0
241.462 15.4198 0
242.73 15.3423 0
243.868 13.1264 0
246.404 12.97 0
246.668 17.2457 0
244.13 17.4022 0
245.136 13.0484 0
246.536 15.108 0
245.399 17.3241 0
243.999 15.2645 0
245.267 15.1864 0
246.404 12.97 0
248.94 12.8125 0
249.205 17.0881 0
246.668 17.2457 0
247.672 12.8914 0
249.072 14.9504 0
247.937 17.1671 0
246.536 15.108 0
247.804 15.0294 0
248.94 12.8125 0
251.475 12.6539 0
251.743 16.9294 0
249.205 17.0881 0
250.207 12.7334 0
251.609 14.7918 0
250.474 17.0089 0
249.072 14.9504 0
250.341 14.8713 0
251.475 12.6539 0
254.011 12.4943 0
254.281 16.7697 0
251.743 16.9294 0
252.743 12.5743 0
254.146 14.6321 0
253.012 16.8497 0
251.609 14.7918 0
252.878 14.7121 0
254.011 12.4943 0
256.547 12.3336 0
256.818 16.6089 0
254.281 16.7697 0
255.279 12.4141 0
256.682 14.4714 0
255.549 16.6895 0
254.146 14.6321 0
255.414 14.5519 0
256.547 12.3336 0
259.082 12.1719 0
259.355 16.4471 0
256.818 16.6089 0
257.815 12.2529 0
259.219 14.3096 0
258.087 16.5281 0
256.682 14.4714 0
257.951 14.3906 0
259.082 12.1719 0
261.618 12.0091 0
261.892 16.2842 0
259.355 16.4471 0
260.35 12.0906 0
261.755 14.1468 0
260.624 16.3658 0
259.219 14.3096 0
260.487 14.2283 0
261.618 12.0091 0
264.153 11.8453 0
264.43 16.1204 0
261.892 16.2842 0
262.885 11.9273 0
264.291 13.983 0
263.161 16.2024 0
261.755 14.1468 0
263.023 14.065 0
264.153 11.8453 0
266.688 11.6805 0
266.967 15.9555 0
264.43 16.1204 0
265.421 11.7631 0
266.827 13.8181 0
265.698 16.0381 0
264.291 13.983 0
265.559 13.9007 0
266.688 11.6805 0
269.224 11.5147 0
269.503 15.7896 0
266.967 15.9555 0
267.956 11.5978 0
269.363 13.6523 0
268.235 15.8727 0
266.827 13.8181 0
268.095 13.7353 0
269.224 11.5147 0
271.759 11.348 0
272.04 15.6227 0
269.503 15.7896 0
270.491 11.4315 0
271.899 13.4855 0
270.772 15.7063 0
269.363 13.6523 0
270.631 13.569 0
271.759 11.348 0
274.294 11.1802 0
274.577 15.4549 0
272.04 15.6227 0
273.026 11.2642 0
274.435 13.3177 0
273.308 15.5389 0
271.899 13.4855 0
273.167 13.4017 0
274.294 11.1802 0
276.829 11.0115 0
277.113 15.2861 0
274.577 15.4549 0
275.561 11.096 0
276.971 13.1489 0
275.845 15.3706 0
274.435 13.3177 0
275.703 13.2334 0
276.829 11.0115 0
279.363 10.8418 0
279.65 15.1164 0
277.113 15.2861 0
278.096 10.9268 0
279.506 12.9792 0
278.381 15.2013 0
276.971 13.1489 0
278.239 13.0642 0
279.363 10.8418 0
281.898 10.6712 0
282.186 14.9457 0
279.65 15.1164 0
280.631 10.7567 0
282.042 12.8085 0
280.918 15.0311 0
279.506 12.9792 0
280.774 12.894 0
281.898 10.6712 0
284.433 10.4997 0
284.722 14.774 0
282.186 14.9457 0
283.165 10.5856 0
284.577 12.637 0
283.454 14.86 0
282.042 12.8085 0
283.31 12.7229 0
284.433 10.4997 0
286.967 10.3272 0
287.258 14.6015 0
284.722 14.774 0
285.7 10.4136 0
287.113 12.4645 0
285.99 14.6879 0
284.577 12.637 0
285.845 12.5508 0
286.967 10.3272 0
289.502 10.1539 0
289.794 14.428 0
287.258 14.6015 0
288.234 10.2407 0
289.648 12.291 0
288.526 14.5149 0
287.113 12.4645 0
288.38 12.3779 0
289.502 10.1539 0
292.036 9.9796 0
292.33 14.2537 0
289.794 14.428 0
290.769 10.0668 0
292.183 12.1167 0
291.062 14.341 0
289.648 12.291 0
290.916 12.204 0
292.036 9.9796 0
294.57 9.80444 0
294.866 14.0784 0
292.33 14.2537 0
293.303 9.89213 0
294.718 11.9415 0
293.598 14.1662 0
292.183 12.1167 0
293.451 12.0292 0
294.57 9.80444 0
297.105 9.62841 0
297.402 13.9023 0
294.866 14.0784 0
295.837 9.71654 0
297.253 11.7655 0
296.134 13.9905 0
294.718 11.9415 0
295.986 11.8536 0
297.105 9.62841 0
299.639 9.45151 0
299.937 13.7253 0
297.402 13.9023 0
298.372 9.54007 0
299.788 11.5885 0
298.669 13.8139 0
297.253 11.7655 0
298.52 11.6771 0
299.639 9.45151 0
302.173 9.27376 0
302.473 13.5475 0
299.937 13.7253 0
300.906 9.36274 0
302.323 11.4107 0
301.205 13.6365 0
299.788 11.5885 0
301.055 11.4997 0
302.173 9.27376 0
304.707 9.09516 0
305.008 13.3688 0
302.473 13.5475 0
303.44 9.18456 0
304.857 11.2321 0
303.74 13.4583 0
302.323 11.4107 0
303.59 11.3215 0
304.707 9.09516 0
307.24 8.91573 0
307.543 13.1893 0
305.008 13.3688 0
305.973 9.00555 0
307.392 11.0526 0
306.276 13.2792 0
304.857 11.2321 0
306.124 11.1424 0
307.24 8.91573 0
309.774 8.73547 0
310.078 13.009 0
307.543 13.1893 0
308.507 8.8257 0
309.926 10.8723 0
308.811 13.0992 0
307.392 11.0526 0
308.659 10.9626 0
309.774 8.73547 0
312.308 8.55441 0
312.613 12.8278 0
310.078 13.009 0
311.041 8.64504 0
312.461 10.6912 0
311.346 12.9185 0
309.926 10.8723 0
311.193 10.7819 0
312.308 8.55441 0
314.841 8.37254 0
315.148 12.6459 0
312.613 12.8278 0
313.575 8.46357 0
314.995 10.5093 0
313.881 12.737 0
312.461 10.6912 0
313.728 10.6004 0
314.841 8.37254 0
317.375 8.18988 0
317.683 12.4632 0
315.148 12.6459 0
316.108 8.28131 0
317.529 10.3266 0
316.416 12.5546 0
314.995 10.5093 0
316.262 10.4181 0
317.375 8.18988 0
319.908 8.00645 0
320.218 12.2796 0
317.683 12.4632 0
318.642 8.09826 0
320.063 10.1431 0
318.95 12.3715 0
317.529 10.3266 0
318.796 10.235 0
319.908 8.00645 0
322.442 7.82225 0
322.752 12.0954 0
320.218 12.2796 0
321.175 7.91444 0
322.597 9.95889 0
321.485 12.1876 0
320.063 10.1431 0
321.33 10.0511 0
322.442 7.82225 0
324.975 7.63729 0
325.287 11.9103 0
322.752 12.0954 0
323.708 7.72986 0
325.131 9.77389 0
324.02 12.0029 0
322.597 9.95889 0
323.864 9.86648 0
324.975 7.63729 0
327.508 7.45158 0
327.821 11.7246 0
325.287 11.9103 0
326.241 7.54453 0
327.665 9.58815 0
326.554 11.8175 0
325.131 9.77389 0
326.398 9.68111 0
327.508 7.45158 0
330.041 7.26514 0
330.356 11.538 0
327.821 11.7246 0
328.775 7.35845 0
330.198 9.40167 0
329.088 11.6314 0
327.665 9.58815 0
328.932 9.495 0
330.041 7.26514 0
332.574 7.07797 0
332.89 11.3508 0
330.356 11.538 0
331.308 7.17164 0
332.732 9.21446 0
331.623 11.4445 0
330.198 9.40167 0
331.465 9.30816 0
332.574 7.07797 0
335.107 6.89009 0
335.424 11.1628 0
332.89 11.3508 0
333.841 6.98412 0
335.265 9.02655 0
334.157 11.2569 0
332.732 9.21446 0
333.999 9.12059 0
335.107 6.89009 0
337.64 6.70151 0
337.958 10.9742 0
335.424 11.1628 0
336.373 6.79589 0
337.799 8.83793 0
336.691 11.0686 0
335.265 9.02655 0
336.532 8.93233 0
337.64 6.70151 0
340.173 6.51223 0
340.492 10.7849 0
337.958 10.9742 0
338.906 6.60696 0
340.332 8.64862 0
339.225 10.8796 0
337.799 8.83793 0
339.066 8.74336 0
340.173 6.51223 0
342.705 6.32228 0
343.026 10.5948 0
340.492 10.7849 0
341.439 6.41734 0
342.866 8.45863 0
341.759 10.6899 0
340.332 8.64862 0
341.599 8.55371 0
342.705 6.32228 0
345.238 6.13165 0
345.559 10.4041 0
343.026 10.5948 0
343.972 6.22705 0
345.399 8.26797 0
344.293 10.4996 0
342.866 8.45863 0
344.132 8.36338 0
345.238 6.13165 0
347.77 5.94037 0
348.093 10.2128 0
345.559 10.4041 0
346.504 6.03609 0
347.932 8.07665 0
346.826 10.3085 0
345.399 8.26797 0
346.665 8.17239 0
347.77 5.94037 0
350.303 5.74843 0
350.627 10.0208 0
348.093 10.2128 0
349.037 5.84448 0
350.465 7.88468 0
349.36 10.1169 0
347.932 8.07665 0
349.198 7.98075 0
350.303 5.74843 0
352.835 5.55586 0
353.16 9.82816 0
350.627 10.0208 0
351.569 5.65223 0
352.998 7.69208 0
351.893 9.92456 0
350.465 7.88468 0
351.731 7.78846 0
352.835 5.55586 0
355.368 5.36267 0
355.693 9.6349 0
353.16 9.82816 0
354.101 5.45934 0
355.531 7.49885 0
354.427 9.73161 0
352.998 7.69208 0
354.264 7.59554 0
355.368 5.36267 0
357.9 5.16885 0
358.227 9.44103 0
355.693 9.6349 0
356.634 5.26584 0
358.063 7.30501 0
356.96 9.53804 0
355.531 7.49885 0
356.797 7.40201 0
357.9 5.16885 0
360.432 4.97443 0
360.76 9.24655 0
358.227 9.44103 0
359.166 5.07172 0
360.596 7.11056 0
359.493 9.34386 0
358.063 7.30501 0
359.33 7.20786 0
360.432 4.97443 0
362.964 4.77942 0
363.293 9.05148 0
360.76 9.24655 0
361.698 4.877 0
363.128 6.91552 0
362.026 9.14909 0
360.596 7.11056 0
361.862 7.01311 0
362.964 4.77942 0
365.496 4.58383 0
365.826 8.85583 0
363.293 9.05148 0
364.23 4.6817 0
365.661 6.71989 0
364.559 8.95373 0
363.128 6.91552 0
364.395 6.81778 0
365.496 4.58383 0
368.028 4.38766 0
368.359 8.65961 0
365.826 8.85583 0
366.762 4.48581 0
368.193 6.52369 0
367.092 8.75779 0
365.661 6.71989 0
366.927 6.62186 0
368.028 4.38766 0
370.56 4.19093 0
370.892 8.46282 0
368.359 8.65961 0
369.294 4.28936 0
370.726 6.32694 0
369.625 8.56128 0
368.193 6.52369 0
369.46 6.42539 0
370.56 4.19093 0
373.092 3.99365 0
373.424 8.26549 0
370.892 8.46282 0
371.826 4.09236 0
373.258 6.12963 0
372.158 8.36422 0
370.726 6.32694 0
371.992 6.22835 0
373.092 3.99365 0
375.623 3.79583 0
375.957 8.06762 0
373.424 8.26549 0
374.358 3.89481 0
375.79 5.93178 0
374.691 8.16662 0
373.258 6.12963 0
374.524 6.03077 0
375.623 3.79583 0
378.155 3.59748 0
378.49 7.86922 0
375.957 8.06762 0
376.889 3.69672 0
378.322 5.73341 0
377.223 7.96848 0
375.79 5.93178 0
377.056 5.83266 0
378.155 3.59748 0
380.687 3.39862 0
381.022 7.6703 0
378.49 7.86922 0
379.421 3.49812 0
380.854 5.53452 0
379.756 7.76983 0
378.322 5.73341 0
379.588 5.63403 0
380.687 3.39862 0
383.218 3.19924 0
383.554 7.47088 0
381.022 7.6703 0
381.952 3.29899 0
383.386 5.33512 0
382.288 7.57066 0
380.854 5.53452 0
382.12 5.43488 0
383.218 3.19924 0
385.75 2.99938 0
386.087 7.27097 0
383.554 7.47088 0
384.484 3.09937 0
385.918 5.13523 0
384.821 7.37099 0
383.386 5.33512 0
384.652 5.23523 0
385.75 2.99938 0
388.281 2.79902 0
388.619 7.07057 0
386.087 7.27097 0
387.015 2.89926 0
388.45 4.93485 0
387.353 7.17083 0
385.918 5.13523 0
387.184 5.0351 0
388.281 2.79902 0
390.812 2.59819 0
391.151 6.86969 0
388.619 7.07057 0
389.547 2.69866 0
390.982 4.73399 0
389.885 6.97019 0
388.45 4.93485 0
389.716 4.83448 0
390.812 2.59819 0
393.344 2.3969 0
393.683 6.66836 0
391.151 6.86969 0
392.078 2.4976 0
393.513 4.53268 0
392.417 6.76908 0
390.982 4.73399 0
392.247 4.63339 0
393.344 2.3969 0
395.875 2.19515 0
396.215 6.46657 0
393.683 6.66836 0
394.609 2.29608 0
396.045 4.33091 0
394.949 6.56752 0
393.513 4.53268 0
394.779 4.43185 0
395.875 2.19515 0
398.406 1.99296 0
398.747 6.26434 0
396.215 6.46657 0
397.14 2.09411 0
398.576 4.1287 0
397.481 6.36551 0
396.045 4.33091 0
397.311 4.22986 0
398.406 1.99296 0
400.937 1.79035 0
401.279 6.06168 0
398.747 6.26434 0
399.671 1.89171 0
401.108 3.92606 0
400.013 6.16306 0
398.576 4.1287 0
399.842 4.02743 0
400.937 1.79035 0
403.468 1.58731 0
403.81 5.8586 0
401.279 6.06168 0
402.202 1.68888 0
403.639 3.723 0
402.545 5.96019 0
401.108 3.92606 0
402.373 3.82458 0
403.468 1.58731 0
405.999 1.38386 0
406.342 5.65512 0
403.81 5.8586 0
404.733 1.48563 0
406.17 3.51953 0
405.076 5.75691 0
403.639 3.723 0
404.905 3.62132 0
405.999 1.38386 0
408.53 1.18001 0
408.874 5.45124 0
406.342 5.65512 0
407.264 1.28198 0
408.702 3.31567 0
407.608 5.55323 0
406.17 3.51953 0
407.436 3.41765 0
408.53 1.18001 0
411.061 0.975775 0
411.405 5.24697 0
408.874 5.45124 0
409.795 1.07794 0
411.233 3.11141 0
410.139 5.34915 0
408.702 3.31567 0
409.967 3.21359 0
411.061 0.975775 0
413.591 0.771163 0
413.936 5.04232 0
411.405 5.24697 0
412.326 0.873516 0
413.764 2.90679 0
412.671 5.14469 0
411.233 3.11141 0
412.498 3.00915 0
413.591 0.771163 0
416.122 0.566185 0
416.468 4.83731 0
413.936 5.04232 0
414.857 0.66872 0
416.295 2.70179 0
415.202 4.93986 0
413.764 2.90679 0
415.029 2.80433 0
416.122 0.566185 0
418.653 0.360852 0
418.999 4.63195 0
416.468 4.83731 0
417.387 0.463563 0
418.826 2.49644 0
417.733 4.73468 0
416.295 2.70179 0
417.56 2.59916 0
418.653 0.360852 0
421.183 0.155175 0
421.53 4.42625 0
418.999 4.63195 0
419.918 0.258056 0
421.357 2.29075 0
420.265 4.52914 0
418.826 2.49644 0
420.091 2.39364 0
421.183 0.155175 0
423.714 -0.0508365 0
424.061 4.22021 0
421.53 4.42625 0
422.449 0.05221 0
423.888 2.08472 0
422.796 4.32327 0
421.357 2.29075 0
422.622 2.18778 0
423.714 -0.0508365 0
426.244 -0.25717 0
426.592 4.01385 0
424.061 4.22021 0
424.979 -0.153964 0
426.418 1.87838 0
425.327 4.11707 0
423.888 2.08472 0
425.153 1.98159 0
426.244 -0.25717 0
428.775 -0.463816 0
429.123 3.80718 0
426.592 4.01385 0
427.51 -0.360455 0
428.949 1.67172 0
427.858 3.91055 0
426.418 1.87838 0
427.684 1.77508 0
428.775 -0.463816 0
431.305 -0.670763 0
431.654 3.60021 0
429.123 3.80718 0
430.04 -0.567252 0
431.48 1.46476 0
430.389 3.70373 0
428.949 1.67172 0
430.214 1.56827 0
431.305 -0.670763 0
433.836 -0.877999 0
434.185 3.39295 0
431.654 3.60021 0
432.57 -0.774345 0
434.01 1.25751 0
432.92 3.49662 0
431.48 1.46476 0
432.745 1.36117 0
433.836 -0.877999 0
436.366 -1.08552 0
436.716 3.18542 0
434.185 3.39295 0
435.101 -0.981723 0
436.541 1.04998 0
435.45 3.28922 0
434.01 1.25751 0
435.276 1.15378 0
436.366 -1.08552 0
438.896 -1.2933 0
439.246 2.97761 0
436.716 3.18542 0
437.631 -1.18937 0
439.071 0.842187 0
437.981 3.08155 0
436.541 1.04998 0
437.806 0.946117 0
438.896 -1.2933 0
441.426 -1.50134 0
441.777 2.76956 0
439.246 2.97761 0
440.161 -1.39729 0
441.602 0.634135 0
440.512 2.87362 0
439.071 0.842187 0
440.336 0.738193 0
441.426 -1.50134 0
443.956 -1.70963 0
444.308 2.56125 0
441.777 2.76956 0
442.691 -1.60546 0
444.132 0.425838 0
443.042 2.66543 0
441.602 0.634135 0
442.867 0.530017 0
443.956 -1.70963 0
446.487 -1.91816 0
446.838 2.35271 0
444.308 2.56125 0
445.221 -1.81387 0
446.662 0.217304 0
445.573 2.45701 0
444.132 0.425838 0
445.397 0.3216 0
446.487 -1.91816 0
449.017 -2.12691 0
449.369 2.14395 0
446.838 2.35271 0
447.752 -2.0225 0
449.193 0.00854701 0
448.103 2.24836 0
446.662 0.217304 0
447.927 0.112953 0
449.017 -2.12691 0
451.547 -2.33587 0
451.899 1.93497 0
449.369 2.14395 0
450.282 -2.23136 0
451.723 -0.200424 0
450.634 2.03949 0
449.193 0.00854701 0
450.458 -0.0959125 0
451.547 -2.33587 0
454.077 -2.54504 0
454.429 1.7258 0
451.899 1.93497 0
452.812 -2.44043 0
454.253 -0.409598 0
453.164 1.83041 0
451.723 -0.200424 0
452.988 -0.304986 0
454.077 -2.54504 0
456.606 -2.7544 0
456.959 1.51643 0
454.429 1.7258 0
455.342 -2.6497 0
456.783 -0.618963 0
455.694 1.62114 0
454.253 -0.409598 0
455.518 -0.514257 0
456.606 -2.7544 0
459.136 -2.96394 0
459.49 1.30688 0
456.959 1.51643 0
457.871 -2.85915 0
459.313 -0.82851 0
458.225 1.41168 0
456.783 -0.618963 0
458.048 -0.723715 0
459.136 -2.96394 0
461.666 -3.17366 0
462.02 1.09716 0
459.49 1.30688 0
460.401 -3.06878 0
461.843 -1.03823 0
460.755 1.20204 0
459.313 -0.82851 0
460.578 -0.933348 0
461.666 -3.17366 0
464.196 -3.38353 0
464.55 0.887285 0
462.02 1.09716 0
462.931 -3.27857 0
464.373 -1.2481 0
463.285 0.992242 0
461.843 -1.03823 0
463.108 -1.14315 0
464.196 -3.38353 0
466.726 -3.59355 0
467.08 0.67726 0
464.55 0.887285 0
465.461 -3.48852 0
466.903 -1.45813 0
465.815 0.78229 0
464.373 -1.2481 0
465.638 -1.3531 0
466.726 -3.59355 0
469.255 -3.80371 0
469.61 0.467099 0
467.08 0.67726 0
467.991 -3.69862 0
469.433 -1.66829 0
468.345 0.572196 0
466.903 -1.45813 0
468.168 -1.56319 0
469.255 -3.80371 0
471.785 -4.014 0
472.14 0.256812 0
469.61 0.467099 0
470.52 -3.90884 0
471.962 -1.87858 0
470.875 0.361971 0
469.433 -1.66829 0
470.697 -1.77342 0
471.785 -4.014 0
474.315 -4.22441 0
474.669 0.0464102 0
472.14 0.256812 0
473.05 -4.11919 0
474.492 -2.08898 0
473.405 0.151625 0
471.962 -1.87858 0
473.227 -1.98377 0
474.315 -4.22441 0
476.844 -4.43492 0
477.199 -0.164096 0
474.669 0.0464102 0
475.58 -4.32965 0
477.022 -2.29949 0
475.934 -0.0588304 0
474.492 -2.08898 0
475.757 -2.19423 0
476.844 -4.43492 0
479.374 -4.64552 0
479.729 -0.374694 0
477.199 -0.164096 0
478.109 -4.54021 0
479.551 -2.5101 0
478.464 -0.269384 0
477.022 -2.29949 0
478.287 -2.40478 0
479.374 -4.64552 0
481.903 -4.85621 0
482.259 -0.585375 0
479.729 -0.374694 0
480.639 -4.75086 0
482.081 -2.72078 0
480.994 -0.480025 0
479.551 -2.5101 0
480.816 -2.61543 0
481.903 -4.85621 0
484.433 -5.06698 0
484.788 -0.796127 0
482.259 -0.585375 0
483.168 -4.96159 0
484.611 -2.93154 0
483.523 -0.690742 0
482.081 -2.72078 0
483.346 -2.82615 0
484.433 -5.06698 0
486.962 -5.27781 0
487.318 -1.00694 0
484.788 -0.796127 0
485.698 -5.17239 0
487.14 -3.14237 0
486.053 -0.901526 0
484.611 -2.93154 0
485.875 -3.03695 0
486.962 -5.27781 0
489.492 -5.4887 0
489.847 -1.21781 0
487.318 -1.00694 0
488.227 -5.38325 0
489.669 -3.35325 0
488.583 -1.11237 0
487.14 -3.14237 0
488.405 -3.2478 0
489.492 -5.4887 0
492.021 -5.69964 0
492.377 -1.42874 0
489.847 -1.21781 0
490.756 -5.59416 0
492.199 -3.56418 0
491.112 -1.32327 0
489.669 -3.35325 0
490.934 -3.45871 0
492.021 -5.69964 0
494.55 -5.91061 0
494.906 -1.63975 0
492.377 -1.42874 0
493.286 -5.80512 0
494.728 -3.77518 0
493.641 -1.53423 0
492.199 -3.56418 0
493.464 -3.66967 0
494.55 -5.91061 0
497.08 -6.12158 0
497.435 -1.85089 0
494.906 -1.63975 0
495.815 -6.0161 0
497.258 -3.98623 0
496.171 -1.7453 0
494.728 -3.77518 0
495.993 -3.8807 0
497.08 -6.12158 0
499.609 -6.33246 0
499.965 -2.06212 0
497.435 -1.85089 0
498.344 -6.22704 0
499.787 -4.19724 0
498.7 -1.95651 0
497.258 -3.98623 0
498.522 -4.09175 0
0 25.7143 0
2.54628 25.7119 0
2.55185 29.9931 0
0 30 0
1.27302 25.7134 0
2.54844 27.853 0
1.27653 29.9957 0
0 27.8571 0
1.27398 27.8553 0
2.54628 25.7119 0
5.09323 25.7075 0
5.10185 29.9879 0
2.55185 29.9931 0
3.81971 25.7099 0
5.09732 27.848 0
3.82687 29.9906 0
2.54844 27.853 0
3.82291 27.8505 0
5.09323 25.7075 0
7.64026 25.7014 0
7.65195 29.9818 0
5.10185 29.9879 0
6.36675 25.7047 0
7.64604 27.8418 0
6.37688 29.985 0
5.09732 27.848 0
6.3717 27.8451 0
7.64026 25.7014 0
10.1872 25.6935 0
10.2021 29.9738 0
7.65195 29.9818 0
8.91376 25.6977 0
10.1947 27.8339 0
8.92703 29.978 0
7.64604 27.8418 0
8.92036 27.8381 0
10.1872 25.6935 0
12.7341 25.6836 0
12.7524 29.9639 0
10.2021 29.9738 0
11.4607 25.6888 0
12.7432 27.824 0
11.4772 29.9691 0
10.1947 27.8339 0
11.4689 27.8292 0
12.7341 25.6836 0
15.281 25.6717 0
15.3026 29.952 0
12.7524 29.9639 0
14.0076 25.6779 0
15.2918 27.8121 0
14.0275 29.9582 0
12.7432 27.824 0
14.0175 27.8183 0
15.281 25.6717 0
17.8277 25.6577 0
17.8528 29.938 0
15.3026 29.952 0
16.5544 25.665 0
17.8402 27.7981 0
16.5777 29.9453 0
15.2918 27.8121 0
16.566 27.8053 0
17.8277 25.6577 0
20.3744 25.6417 0
20.4029 29.922 0
17.8528 29.938 0
19.1011 25.6499 0
20.3887 27.782 0
19.1279 29.9303 0
17.8402 27.7981 0
19.1145 27.7903 0
20.3744 25.6417 0
22.9211 25.6235 0
22.953 29.9039 0
20.4029 29.922 0
21.6478 25.6329 0
22.937 27.7639 0
21.678 29.9132 0
20.3887 27.782 0
21.6628 27.7732 0
22.9211 25.6235 0
25.4677 25.6034 0
25.503 29.8837 0
22.953 29.9039 0
24.1944 25.6137 0
25.4853 27.7438 0
24.228 29.8941 0
22.937 27.7639 0
24.2112 27.7541 0
25.4677 25.6034 0
28.0142 25.5812 0
28.053 29.8615 0
25.503 29.8837 0
26.7409 25.5925 0
28.0335 27.7216 0
26.778 29.8729 0
25.4853 27.7438 0
26.7594 27.7329 0
28.0142 25.5812 0
30.5606 25.5569 0
30.6028 29.8373 0
28.053 29.8615 0
29.2874 25.5693 0
30.5817 27.6973 0
29.3279 29.8496 0
28.0335 27.7216 0
29.3076 27.7097 0
30.5606 25.5569 0
33.107 25.5307 0
33.1526 29.811 0
30.6028 29.8373 0
31.8338 25.5441 0
33.1298 27.6711 0
31.8777 29.8244 0
30.5817 27.6973 0
31.8557 27.6844 0
33.107 25.5307 0
35.6533 25.5024 0
35.7023 29.7827 0
33.1526 29.811 0
34.3802 25.5168 0
35.6778 27.6428 0
34.4275 29.7971 0
33.1298 27.6711 0
34.4038 27.6572 0
35.6533 25.5024 0
38.1996 25.4722 0
38.2519 29.7525 0
35.7023 29.7827 0
36.9265 25.4875 0
38.2257 27.6125 0
36.9771 29.7678 0
35.6778 27.6428 0
36.9517 27.6279 0
38.1996 25.4722 0
40.7458 25.4399 0
40.8014 29.7202 0
38.2519 29.7525 0
39.4727 25.4563 0
40.7735 27.5803 0
39.5267 29.7366 0
38.2257 27.6125 0
39.4996 27.5966 0
40.7458 25.4399 0
43.2919 25.4057 0
43.3508 29.686 0
40.8014 29.7202 0
42.0188 25.423 0
43.3213 27.546 0
42.0761 29.7033 0
40.7735 27.5803 0
42.0474 27.5634 0
43.2919 25.4057 0
45.8379 25.3695 0
45.9001 29.6498 0
43.3508 29.686 0
44.5649 25.3878 0
45.869 27.5098 0
44.6255 29.6681 0
43.3213 27.546 0
44.5952 27.5282 0
45.8379 25.3695 0
48.3839 25.3314 0
48.4494 29.6116 0
45.9001 29.6498 0
47.1109 25.3507 0
48.4166 27.4717 0
47.1748 29.6309 0
45.869 27.5098 0
47.1428 27.491 0
48.3839 25.3314 0
50.9298 25.2913 0
50.9985 29.5715 0
48.4494 29.6116 0
49.6568 25.3116 0
50.9641 27.4316 0
49.724 29.5918 0
48.4166 27.4717 0
49.6904 27.4519 0
50.9298 25.2913 0
53.4756 25.2493 0
53.5476 29.5295 0
50.9985 29.5715 0
52.2027 25.2705 0
53.5115 27.3896 0
52.2731 29.5507 0
50.9641 27.4316 0
52.2378 27.4108 0
53.4756 25.2493 0
56.0213 25.2053 0
56.0965 29.4855 0
53.5476 29.5295 0
54.7484 25.2275 0
56.0589 27.3456 0
54.8221 29.5077 0
53.5115 27.3896 0
54.7852 27.3678 0
56.0213 25.2053 0
58.5669 25.1595 0
58.6454 29.4396 0
56.0965 29.4855 0
57.2941 25.1827 0
58.6061 27.2998 0
57.371 29.4628 0
56.0589 27.3456 0
57.3325 27.3229 0
58.5669 25.1595 0
61.1125 25.1118 0
61.1941 29.3919 0
58.6454 29.4396 0
59.8397 25.1359 0
61.1533 27.252 0
59.9198 29.416 0
58.6061 27.2998 0
59.8797 27.2761 0
61.1125 25.1118 0
63.658 25.0621 0
63.7428 29.3422 0
61.1941 29.3919 0
62.3853 25.0872 0
63.7004 27.2024 0
62.4685 29.3673 0
61.1533 27.252 0
62.4268 27.2274 0
63.658 25.0621 0
66.2034 25.0106 0
66.2913 29.2907 0
63.7428 29.3422 0
64.9307 25.0366 0
66.2473 27.1509 0
65.0171 29.3167 0
63.7004 27.2024 0
64.9739 27.1769 0
66.2034 25.0106 0
68.7487 24.9573 0
68.8398 29.2373 0
66.2913 29.2907 0
67.4761 24.9842 0
68.7942 27.0975 0
67.5656 29.2642 0
66.2473 27.1509 0
67.5208 27.1244 0
68.7487 24.9573 0
71.294 24.9021 0
71.3881 29.182 0
68.8398 29.2373 0
70.0214 24.9299 0
71.341 27.0422 0
70.114 29.2099 0
68.7942 27.0975 0
70.0676 27.0701 0
71.294 24.9021 0
73.8391 24.845 0
73.9364 29.1249 0
71.3881 29.182 0
72.5666 24.8738 0
73.8877 26.9852 0
72.6623 29.1537 0
71.341 27.0422 0
72.6144 27.0139 0
73.8391 24.845 0
76.3842 24.7861 0
76.4845 29.066 0
73.9364 29.1249 0
75.1117 24.8158 0
76.4343 26.9262 0
75.2105 29.0957 0
73.8877 26.9852 0
75.161 26.9559 0
76.3842 24.7861 0
78.9292 24.7254 0
79.0325 29.0052 0
76.4845 29.066 0
77.6567 24.756 0
78.9808 26.8655 0
77.7585 29.0358 0
76.4343 26.9262 0
77.7076 26.8961 0
78.9292 24.7254 0
81.4741 24.6629 0
81.5805 28.9427 0
79.0325 29.0052 0
80.2016 24.6944 0
81.5272 26.803 0
80.3065 28.9742 0
78.9808 26.8655 0
80.254 26.8345 0
81.4741 24.6629 0
84.0188 24.5986 0
84.1283 28.8783 0
81.5805 28.9427 0
82.7465 24.631 0
84.0735 26.7386 0
82.8544 28.9107 0
81.5272 26.803 0
82.8004 26.771 0
84.0188 24.5986 0
86.5636 24.5325 0
86.676 28.8121 0
84.1283 28.8783 0
85.2912 24.5657 0
86.6197 26.6725 0
85.4021 28.8454 0
84.0735 26.7386 0
85.3466 26.7058 0
86.5636 24.5325 0
89.1082 24.4646 0
89.2236 28.7442 0
86.676 28.8121 0
87.8359 24.4988 0
89.1658 26.6046 0
87.9498 28.7784 0
86.6197 26.6725 0
87.8928 26.6388 0
89.1082 24.4646 0
91.6527 24.3949 0
91.7711 28.6745 0
89.2236 28.7442 0
90.3804 24.43 0
91.7118 26.5349 0
90.4973 28.7096 0
89.1658 26.6046 0
90.4388 26.57 0
91.6527 24.3949 0
94.1971 24.3235 0
94.3184 28.6031 0
91.7711 28.6745 0
92.9249 24.3595 0
94.2577 26.4635 0
93.0448 28.639 0
91.7118 26.5349 0
92.9848 26.4994 0
94.1971 24.3235 0
96.7414 24.2504 0
96.8657 28.5299 0
94.3184 28.6031 0
95.4693 24.2872 0
96.8035 26.3903 0
95.5921 28.5667 0
94.2577 26.4635 0
95.5306 26.4271 0
96.7414 24.2504 0
99.2857 24.1755 0
99.4128 28.4549 0
96.8657 28.5299 0
98.0136 24.2132 0
99.3492 26.3154 0
98.1393 28.4926 0
96.8035 26.3903 0
98.0764 26.3531 0
99.2857 24.1755 0
101.83 24.0989 0
101.96 28.3783 0
99.4128 28.4549 0
100.558 24.1374 0
101.895 26.2388 0
100.686 28.4168 0
99.3492 26.3154 0
100.622 26.2773 0
101.83 24.0989 0
104.374 24.0206 0
104.507 28.2999 0
101.96 28.3783 0
103.102 24.06 0
104.44 26.1604 0
103.233 28.3393 0
101.895 26.2388 0
103.168 26.1998 0
104.374 24.0206 0
106.918 23.9406 0
107.054 28.2198 0
104.507 28.2999 0
105.646 23.9808 0
106.986 26.0804 0
105.78 28.2601 0
104.44 26.1604 0
105.713 26.1206 0
106.918 23.9406 0
109.462 23.8589 0
109.6 28.1381 0
107.054 28.2198 0
108.19 23.9 0
109.531 25.9987 0
108.327 28.1792 0
106.986 26.0804 0
108.258 26.0398 0
109.462 23.8589 0
112.005 23.7756 0
112.147 28.0547 0
109.6 28.1381 0
110.734 23.8174 0
112.076 25.9153 0
110.874 28.0966 0
109.531 25.9987 0
110.803 25.9572 0
112.005 23.7756 0
114.549 23.6905 0
114.693 27.9695 0
112.147 28.0547 0
113.277 23.7332 0
114.621 25.8302 0
113.42 28.0123 0
112.076 25.9153 0
113.349 25.873 0
114.549 23.6905 0
117.093 23.6038 0
117.24 27.8828 0
114.693 27.9695 0
115.821 23.6474 0
117.166 25.7435 0
115.966 27.9264 0
114.621 25.8302 0
115.894 25.7871 0
117.093 23.6038 0
119.636 23.5155 0
119.786 27.7944 0
117.24 27.8828 0
118.364 23.5599 0
119.711 25.6551 0
118.513 27.8388 0
117.166 25.7435 0
118.438 25.6995 0
119.636 23.5155 0
122.179 23.4255 0
122.332 27.7044 0
119.786 27.7944 0
120.908 23.4707 0
122.256 25.5651 0
121.059 27.7496 0
119.711 25.6551 0
120.983 25.6103 0
122.179 23.4255 0
124.723 23.3339 0
124.878 27.6127 0
122.332 27.7044 0
123.451 23.3799 0
124.8 25.4735 0
123.605 27.6587 0
122.256 25.5651 0
123.528 25.5195 0
124.723 23.3339 0
127.266 23.2407 0
127.424 27.5194 0
124.878 27.6127 0
125.994 23.2875 0
127.345 25.3802 0
126.151 27.5663 0
124.8 25.4735 0
126.072 25.4271 0
127.266 23.2407 0
129.809 23.1459 0
129.969 27.4245 0
127.424 27.5194 0
128.537 23.1935 0
129.889 25.2854 0
128.696 27.4722 0
127.345 25.3802 0
128.617 25.333 0
129.809 23.1459 0
132.352 23.0495 0
132.515 27.3281 0
129.969 27.4245 0
131.08 23.0979 0
132.433 25.189 0
131.242 27.3765 0
129.889 25.2854 0
131.161 25.2374 0
132.352 23.0495 0
134.894 22.9516 0
135.06 27.23 0
132.515 27.3281 0
133.623 23.0007 0
134.977 25.091 0
133.788 27.2793 0
132.433 25.189 0
133.705 25.1402 0
134.894 22.9516 0
137.437 22.852 0
137.606 27.1304 0
135.06 27.23 0
136.166 22.902 0
137.521 24.9914 0
136.333 27.1804 0
134.977 25.091 0
136.249 25.0414 0
137.437 22.852 0
139.98 22.7509 0
140.151 27.0293 0
137.606 27.1304 0
138.708 22.8017 0
140.065 24.8903 0
138.878 27.08 0
137.521 24.9914 0
138.793 24.941 0
139.98 22.7509 0
142.522 22.6483 0
142.696 26.9266 0
140.151 27.0293 0
141.251 22.6998 0
142.609 24.7876 0
141.423 26.9781 0
140.065 24.8903 0
141.337 24.8391 0
142.522 22.6483 0
145.065 22.5441 0
145.241 26.8223 0
142.696 26.9266 0
143.793 22.5964 0
145.153 24.6834 0
143.968 26.8746 0
142.609 24.7876 0
143.881 24.7357 0
145.065 22.5441 0
147.607 22.4384 0
147.786 26.7165 0
145.241 26.8223 0
146.336 22.4915 0
147.696 24.5777 0
146.513 26.7696 0
145.153 24.6834 0
146.424 24.6307 0
147.607 22.4384 0
150.149 22.3312 0
150.33 26.6092 0
147.786 26.7165 0
148.878 22.385 0
150.24 24.4704 0
149.058 26.6631 0
147.696 24.5777 0
148.968 24.5242 0
150.149 22.3312 0
152.691 22.2225 0
152.875 26.5005 0
150.33 26.6092 0
151.42 22.2771 0
152.783 24.3617 0
151.603 26.555 0
150.24 24.4704 0
151.511 24.4162 0
152.691 22.2225 0
155.233 22.1123 0
155.419 26.3902 0
152.875 26.5005 0
153.962 22.1676 0
155.326 24.2514 0
154.147 26.4455 0
152.783 24.3617 0
154.055 24.3067 0
155.233 22.1123 0
157.775 22.0007 0
157.964 26.2784 0
155.419 26.3902 0
156.504 22.0567 0
157.869 24.1397 0
156.692 26.3345 0
155.326 24.2514 0
156.598 24.1957 0
157.775 22.0007 0
160.317 21.8875 0
160.508 26.1652 0
157.964 26.2784 0
159.046 21.9443 0
160.412 24.0265 0
159.236 26.222 0
157.869 24.1397 0
159.141 24.0833 0
160.317 21.8875 0
162.858 21.7729 0
163.052 26.0505 0
160.508 26.1652 0
161.587 21.8304 0
162.955 23.9119 0
161.78 26.1081 0
160.412 24.0265 0
161.684 23.9694 0
162.858 21.7729 0
165.4 21.6569 0
165.596 25.9344 0
163.052 26.0505 0
164.129 21.7151 0
165.498 23.7958 0
164.324 25.9926 0
162.955 23.9119 0
164.226 23.854 0
165.4 21.6569 0
167.941 21.5394 0
168.14 25.8168 0
165.596 25.9344 0
166.67 21.5983 0
168.04 23.6783 0
166.868 25.8758 0
165.498 23.7958 0
166.769 23.7372 0
167.941 21.5394 0
170.482 21.4205 0
170.683 25.6978 0
168.14 25.8168 0
169.212 21.4801 0
170.583 23.5593 0
169.412 25.7575 0
168.04 23.6783 0
169.312 23.619 0
170.482 21.4205 0
173.023 21.3002 0
173.227 25.5774 0
170.683 25.6978 0
171.753 21.3605 0
173.125 23.439 0
171.955 25.6378 0
170.583 23.5593 0
171.854 23.4993 0
173.023 21.3002 0
175.565 21.1785 0
175.77 25.4556 0
173.227 25.5774 0
174.294 21.2395 0
175.667 23.3172 0
174.499 25.5167 0
173.125 23.439 0
174.396 23.3783 0
175.565 21.1785 0
178.105 21.0554 0
178.314 25.3325 0
175.77 25.4556 0
176.835 21.1171 0
178.209 23.194 0
177.042 25.3942 0
175.667 23.3172 0
176.938 23.2558 0
178.105 21.0554 0
180.646 20.9309 0
180.857 25.2079 0
178.314 25.3325 0
179.376 20.9933 0
180.751 23.0695 0
179.585 25.2703 0
178.209 23.194 0
179.48 23.132 0
180.646 20.9309 0
183.187 20.805 0
183.4 25.0819 0
180.857 25.2079 0
181.917 20.8681 0
183.293 22.9436 0
182.128 25.1451 0
180.751 23.0695 0
182.022 23.0067 0
183.187 20.805 0
185.728 20.6778 0
185.943 24.9546 0
183.4 25.0819 0
184.457 20.7416 0
185.835 22.8164 0
184.671 25.0184 0
183.293 22.9436 0
184.564 22.8802 0
185.728 20.6778 0
188.268 20.5492 0
188.485 24.826 0
185.943 24.9546 0
186.998 20.6137 0
188.377 22.6877 0
187.214 24.8905 0
185.835 22.8164 0
187.106 22.7522 0
188.268 20.5492 0
190.808 20.4193 0
191.028 24.696 0
188.485 24.826 0
189.538 20.4844 0
190.918 22.5578 0
189.757 24.7612 0
188.377 22.6877 0
189.647 22.6229 0
190.808 20.4193 0
193.349 20.2881 0
193.57 24.5647 0
191.028 24.696 0
192.079 20.3539 0
193.46 22.4265 0
192.299 24.6305 0
190.918 22.5578 0
192.189 22.4923 0
193.349 20.2881 0
195.889 20.1556 0
196.113 24.4321 0
193.57 24.5647 0
194.619 20.222 0
196.001 22.2939 0
194.842 24.4985 0
193.46 22.4265 0
194.73 22.3604 0
195.889 20.1556 0
198.429 20.0217 0
198.655 24.2981 0
196.113 24.4321 0
197.159 20.0888 0
198.542 22.1601 0
197.384 24.3653 0
196.001 22.2939 0
197.271 22.2272 0
198.429 20.0217 0
200.969 19.8866 0
201.197 24.1629 0
198.655 24.2981 0
199.699 19.9543 0
201.083 22.0249 0
199.926 24.2307 0
198.542 22.1601 0
199.812 22.0926 0
200.969 19.8866 0
203.509 19.7502 0
203.739 24.0264 0
201.197 24.1629 0
202.239 19.8185 0
203.624 21.8884 0
202.468 24.0948 0
201.083 22.0249 0
202.353 21.9568 0
203.509 19.7502 0
206.048 19.6125 0
206.281 23.8886 0
203.739 24.0264 0
204.778 19.6815 0
206.165 21.7507 0
205.01 23.9577 0
203.624 21.8884 0
204.894 21.8197 0
206.048 19.6125 0
208.588 19.4735 0
208.823 23.7496 0
206.281 23.8886 0
207.318 19.5432 0
208.705 21.6117 0
207.552 23.8193 0
206.165 21.7507 0
207.435 21.6814 0
208.588 19.4735 0
211.127 19.3333 0
211.364 23.6093 0
208.823 23.7496 0
209.858 19.4036 0
211.246 21.4715 0
210.093 23.6796 0
208.705 21.6117 0
209.975 21.5417 0
211.127 19.3333 0
213.667 19.1919 0
213.906 23.4678 0
211.364 23.6093 0
212.397 19.2628 0
213.786 21.33 0
212.635 23.5387 0
211.246 21.4715 0
212.516 21.4009 0
213.667 19.1919 0
216.206 19.0493 0
216.447 23.3251 0
213.906 23.4678 0
214.936 19.1207 0
216.326 21.1873 0
215.176 23.3966 0
213.786 21.33 0
215.056 21.2588 0
216.206 19.0493 0
218.745 18.9054 0
218.988 23.1811 0
216.447 23.3251 0
217.475 18.9775 0
218.866 21.0434 0
217.717 23.2532 0
216.326 21.1873 0
217.596 21.1155 0
218.745 18.9054 0
221.284 18.7603 0
221.529 23.0359 0
218.988 23.1811 0
220.014 18.833 0
221.406 20.8983 0
220.259 23.1087 0
218.866 21.0434 0
220.136 20.971 0
221.284 18.7603 0
223.823 18.614 0
224.07 22.8896 0
221.529 23.0359 0
222.553 18.6873 0
223.946 20.7519 0
222.799 22.9629 0
221.406 20.8983 0
222.676 20.8252 0
223.823 18.614 0
226.362 18.4666 0
226.611 22.742 0
224.07 22.8896 0
225.092 18.5405 0
226.486 20.6044 0
225.34 22.816 0
223.946 20.7519 0
225.216 20.6783 0
226.362 18.4666 0
228.9 18.318 0
229.151 22.5933 0
226.611 22.742 0
227.631 18.3924 0
229.026 20.4558 0
227.881 22.6678 0
226.486 20.6044 0
227.756 20.5303 0
228.9 18.318 0
231.439 18.1682 0
231.692 22.4435 0
229.151 22.5933 0
230.17 18.2432 0
231.565 20.3059 0
230.422 22.5185 0
229.026 20.4558 0
230.296 20.381 0
231.439 18.1682 0
233.977 18.0173 0
234.232 22.2924 0
231.692 22.4435 0
232.708 18.0929 0
234.105 20.155 0
232.962 22.3681 0
231.565 20.3059 0
232.835 20.2306 0
233.977 18.0173 0
236.516 17.8652 0
236.772 22.1403 0
234.232 22.2924 0
235.246 17.9414 0
236.644 20.0029 0
235.502 22.2165 0
234.105 20.155 0
235.374 20.0791 0
236.516 17.8652 0
239.054 17.712 0
239.312 21.987 0
236.772 22.1403 0
237.785 17.7887 0
239.183 19.8496 0
238.042 22.0638 0
236.644 20.0029 0
237.914 19.9264 0
239.054 17.712 0
241.592 17.5577 0
241.852 21.8326 0
239.312 21.987 0
240.323 17.635 0
241.722 19.6952 0
240.582 21.9099 0
239.183 19.8496 0
240.453 19.7726 0
241.592 17.5577 0
244.13 17.4022 0
244.392 21.6771 0
241.852 21.8326 0
242.861 17.4801 0
244.261 19.5398 0
243.122 21.755 0
241.722 19.6952 0
242.992 19.6177 0
244.13 17.4022 0
246.668 17.2457 0
246.932 21.5205 0
244.392 21.6771 0
245.399 17.3241 0
246.8 19.3832 0
245.662 21.5989 0
244.261 19.5398 0
245.53 19.4616 0
246.668 17.2457 0
249.205 17.0881 0
249.472 21.3628 0
246.932 21.5205 0
247.937 17.1671 0
249.338 19.2256 0
248.202 21.4418 0
246.8 19.3832 0
248.069 19.3045 0
249.205 17.0881 0
251.743 16.9294 0
252.011 21.204 0
249.472 21.3628 0
250.474 17.0089 0
251.877 19.0669 0
250.741 21.2835 0
249.338 19.2256 0
250.608 19.1463 0
251.743 16.9294 0
254.281 16.7697 0
254.55 21.0442 0
252.011 21.204 0
253.012 16.8497 0
254.415 18.9071 0
253.281 21.1243 0
251.877 19.0669 0
253.146 18.9871 0
254.281 16.7697 0
256.818 16.6089 0
257.089 20.8833 0
254.55 21.0442 0
255.549 16.6895 0
256.954 18.7462 0
255.82 20.9639 0
254.415 18.9071 0
255.685 18.8268 0
256.818 16.6089 0
259.355 16.4471 0
259.629 20.7214 0
257.089 20.8833 0
258.087 16.5281 0
259.492 18.5844 0
258.359 20.8025 0
256.954 18.7462 0
258.223 18.6654 0
259.355 16.4471 0
261.892 16.2842 0
262.167 20.5585 0
259.629 20.7214 0
260.624 16.3658 0
262.03 18.4215 0
260.898 20.6401 0
259.492 18.5844 0
260.761 18.5031 0
261.892 16.2842 0
264.43 16.1204 0
264.706 20.3945 0
262.167 20.5585 0
263.161 16.2024 0
264.568 18.2576 0
263.437 20.4766 0
262.03 18.4215 0
263.299 18.3396 0
264.43 16.1204 0
266.967 15.9555 0
267.245 20.2296 0
264.706 20.3945 0
265.698 16.0381 0
267.106 18.0926 0
265.976 20.3122 0
264.568 18.2576 0
265.837 18.1752 0
266.967 15.9555 0
269.503 15.7896 0
269.783 20.0636 0
267.245 20.2296 0
268.235 15.8727 0
269.643 17.9267 0
268.514 20.1467 0
267.106 18.0926 0
268.375 18.0098 0
269.503 15.7896 0
272.04 15.6227 0
272.322 19.8967 0
269.783 20.0636 0
270.772 15.7063 0
272.181 17.7598 0
271.053 19.9803 0
269.643 17.9267 0
270.912 17.8434 0
272.04 15.6227 0
274.577 15.4549 0
274.86 19.7288 0
272.322 19.8967 0
273.308 15.5389 0
274.718 17.5919 0
273.591 19.8128 0
272.181 17.7598 0
273.45 17.676 0
274.577 15.4549 0
277.113 15.2861 0
277.398 19.5599 0
274.86 19.7288 0
275.845 15.3706 0
277.256 17.4231 0
276.129 19.6444 0
274.718 17.5919 0
275.987 17.5076 0
277.113 15.2861 0
279.65 15.1164 0
279.936 19.39 0
277.398 19.5599 0
278.381 15.2013 0
279.793 17.2533 0
278.667 19.4751 0
277.256 17.4231 0
278.524 17.3383 0
279.65 15.1164 0
282.186 14.9457 0
282.474 19.2193 0
279.936 19.39 0
280.918 15.0311 0
282.33 17.0826 0
281.205 19.3048 0
279.793 17.2533 0
281.062 17.168 0
282.186 14.9457 0
284.722 14.774 0
285.012 19.0476 0
282.474 19.2193 0
283.454 14.86 0
284.867 16.9109 0
283.743 19.1335 0
282.33 17.0826 0
283.599 16.9968 0
284.722 14.774 0
287.258 14.6015 0
287.55 18.8749 0
285.012 19.0476 0
285.99 14.6879 0
287.404 16.7383 0
286.281 18.9614 0
284.867 16.9109 0
286.135 16.8247 0
287.258 14.6015 0
289.794 14.428 0
290.087 18.7014 0
287.55 18.8749 0
288.526 14.5149 0
289.941 16.5648 0
288.818 18.7883 0
287.404 16.7383 0
288.672 16.6517 0
289.794 14.428 0
292.33 14.2537 0
292.624 18.527 0
290.087 18.7014 0
291.062 14.341 0
292.477 16.3904 0
291.356 18.6143 0
289.941 16.5648 0
291.209 16.4777 0
292.33 14.2537 0
294.866 14.0784 0
295.162 18.3517 0
292.624 18.527 0
293.598 14.1662 0
295.014 16.2151 0
293.893 18.4394 0
292.477 16.3904 0
293.746 16.3029 0
294.866 14.0784 0
297.402 13.9023 0
297.699 18.1755 0
295.162 18.3517 0
296.134 13.9905 0
297.55 16.039 0
296.43 18.2637 0
295.014 16.2151 0
296.282 16.1272 0
297.402 13.9023 0
299.937 13.7253 0
300.236 17.9984 0
297.699 18.1755 0
298.669 13.8139 0
300.086 15.862 0
298.967 18.087 0
297.55 16.039 0
298.818 15.9506 0
299.937 13.7253 0
302.473 13.5475 0
302.773 17.8205 0
300.236 17.9984 0
301.205 13.6365 0
302.623 15.6841 0
301.504 17.9096 0
300.086 15.862 0
301.355 15.7731 0
302.473 13.5475 0
305.008 13.3688 0
305.31 17.6418 0
302.773 17.8205 0
303.74 13.4583 0
305.159 15.5054 0
304.041 17.7312 0
302.623 15.6841 0
303.891 15.5948 0
305.008 13.3688 0
307.543 13.1893 0
307.846 17.4622 0
305.31 17.6418 0
306.276 13.2792 0
307.695 15.3258 0
306.578 17.5521 0
305.159 15.5054 0
306.427 15.4157 0
307.543 13.1893 0
310.078 13.009 0
310.383 17.2818 0
307.846 17.4622 0
308.811 13.0992 0
310.23 15.1455 0
309.114 17.3721 0
307.695 15.3258 0
308.963 15.2357 0
310.078 13.009 0
312.613 12.8278 0
312.919 17.1006 0
310.383 17.2818 0
311.346 12.9185 0
312.766 14.9643 0
311.651 17.1913 0
310.23 15.1455 0
311.498 15.055 0
312.613 12.8278 0
315.148 12.6459 0
315.455 16.9185 0
312.919 17.1006 0
313.881 12.737 0
315.302 14.7823 0
314.187 17.0096 0
312.766 14.9643 0
314.034 14.8734 0
315.148 12.6459 0
317.683 12.4632 0
317.991 16.7357 0
315.455 16.9185 0
316.416 12.5546 0
317.837 14.5995 0
316.723 16.8272 0
315.302 14.7823 0
316.569 14.691 0
317.683 12.4632 0
320.218 12.2796 0
320.528 16.5522 0
317.991 16.7357 0
318.95 12.3715 0
320.373 14.416 0
319.26 16.644 0
317.837 14.5995 0
319.105 14.5079 0
320.218 12.2796 0
322.752 12.0954 0
323.063 16.3678 0
320.528 16.5522 0
321.485 12.1876 0
322.908 14.2317 0
321.795 16.4601 0
320.373 14.416 0
321.64 14.3239 0
322.752 12.0954 0
325.287 11.9103 0
325.599 16.1827 0
323.063 16.3678 0
324.02 12.0029 0
325.443 14.0466 0
324.331 16.2754 0
322.908 14.2317 0
324.175 14.1392 0
325.287 11.9103 0
327.821 11.7246 0
328.135 15.9969 0
325.599 16.1827 0
326.554 11.8175 0
327.978 13.8608 0
326.867 16.0899 0
325.443 14.0466 0
326.711 13.9538 0
327.821 11.7246 0
330.356 11.538 0
330.67 15.8103 0
328.135 15.9969 0
329.088 11.6314 0
330.513 13.6742 0
329.403 15.9037 0
327.978 13.8608 0
329.246 13.7676 0
330.356 11.538 0
332.89 11.3508 0
333.206 15.623 0
330.67 15.8103 0
331.623 11.4445 0
333.048 13.487 0
331.938 15.7167 0
330.513 13.6742 0
331.78 13.5807 0
332.89 11.3508 0
335.424 11.1628 0
335.741 15.435 0
333.206 15.623 0
334.157 11.2569 0
335.583 13.299 0
334.474 15.5291 0
333.048 13.487 0
334.315 13.3931 0
335.424 11.1628 0
337.958 10.9742 0
338.276 15.2463 0
335.741 15.435 0
336.691 11.0686 0
338.117 13.1103 0
337.009 15.3407 0
335.583 13.299 0
336.85 13.2047 0
337.958 10.9742 0
340.492 10.7849 0
340.811 15.0569 0
338.276 15.2463 0
339.225 10.8796 0
340.652 12.9209 0
339.544 15.1517 0
338.117 13.1103 0
339.384 13.0157 0
340.492 10.7849 0
343.026 10.5948 0
343.346 14.8668 0
340.811 15.0569 0
341.759 10.6899 0
343.186 12.7309 0
342.079 14.9619 0
340.652 12.9209 0
341.919 12.826 0
343.026 10.5948 0
345.559 10.4041 0
345.881 14.676 0
343.346 14.8668 0
344.293 10.4996 0
345.72 12.5402 0
344.614 14.7715 0
343.186 12.7309 0
344.453 12.6356 0
345.559 10.4041 0
348.093 10.2128 0
348.416 14.4846 0
345.881 14.676 0
346.826 10.3085 0
348.255 12.3488 0
347.149 14.5804 0
345.72 12.5402 0
346.987 12.4446 0
348.093 10.2128 0
350.627 10.0208 0
350.951 14.2926 0
348.416 14.4846 0
349.36 10.1169 0
350.789 12.1568 0
349.683 14.3887 0
348.255 12.3488 0
349.522 12.2529 0
350.627 10.0208 0
353.16 9.82816 0
353.485 14.0999 0
350.951 14.2926 0
351.893 9.92456 0
353.323 11.9641 0
352.218 14.1963 0
350.789 12.1568 0
352.056 12.0605 0
353.16 9.82816 0
355.693 9.6349 0
356.02 13.9066 0
353.485 14.0999 0
354.427 9.73161 0
355.857 11.7708 0
354.752 14.0033 0
353.323 11.9641 0
354.59 11.8675 0
355.693 9.6349 0
358.227 9.44103 0
358.554 13.7127 0
356.02 13.9066 0
356.96 9.53804 0
358.39 11.5769 0
357.287 13.8097 0
355.857 11.7708 0
357.123 11.6739 0
358.227 9.44103 0
360.76 9.24655 0
361.088 13.5181 0
358.554 13.7127 0
359.493 9.34386 0
360.924 11.3824 0
359.821 13.6155 0
358.39 11.5769 0
359.657 11.4797 0
360.76 9.24655 0
363.293 9.05148 0
363.622 13.323 0
361.088 13.5181 0
362.026 9.14909 0
363.458 11.1873 0
362.355 13.4206 0
360.924 11.3824 0
362.191 11.2849 0
363.293 9.05148 0
365.826 8.85583 0
366.156 13.1273 0
363.622 13.323 0
364.559 8.95373 0
365.991 10.9916 0
364.889 13.2252 0
363.458 11.1873 0
364.724 11.0895 0
365.826 8.85583 0
368.359 8.65961 0
368.69 12.931 0
366.156 13.1273 0
367.092 8.75779 0
368.524 10.7954 0
367.423 13.0293 0
365.991 10.9916 0
367.258 10.8936 0
368.359 8.65961 0
370.892 8.46282 0
371.224 12.7342 0
368.69 12.931 0
369.625 8.56128 0
371.058 10.5986 0
369.957 12.8327 0
368.524 10.7954 0
369.791 10.6971 0
370.892 8.46282 0
373.424 8.26549 0
373.757 12.5368 0
371.224 12.7342 0
372.158 8.36422 0
373.591 10.4012 0
372.491 12.6356 0
371.058 10.5986 0
372.324 10.5 0
373.424 8.26549 0
375.957 8.06762 0
376.291 12.3389 0
373.757 12.5368 0
374.691 8.16662 0
376.124 10.2033 0
375.024 12.438 0
373.591 10.4012 0
374.857 10.3023 0
375.957 8.06762 0
378.49 7.86922 0
378.824 12.1405 0
376.291 12.3389 0
377.223 7.96848 0
378.657 10.0049 0
377.558 12.2398 0
376.124 10.2033 0
377.39 10.1042 0
378.49 7.86922 0
381.022 7.6703 0
381.358 11.9415 0
378.824 12.1405 0
379.756 7.76983 0
381.19 9.80598 0
380.091 12.0411 0
378.657 10.0049 0
379.923 9.90551 0
381.022 7.6703 0
383.554 7.47088 0
383.891 11.7421 0
381.358 11.9415 0
382.288 7.57066 0
383.723 9.60653 0
382.624 11.8419 0
381.19 9.80598 0
382.456 9.70632 0
383.554 7.47088 0
386.087 7.27097 0
386.424 11.5421 0
383.891 11.7421 0
384.821 7.37099 0
386.255 9.4066 0
385.158 11.6422 0
383.723 9.60653 0
384.989 9.50663 0
386.087 7.27097 0
388.619 7.07057 0
388.957 11.3417 0
386.424 11.5421 0
387.353 7.17083 0
388.788 9.20618 0
387.691 11.442 0
386.255 9.4066 0
387.522 9.30645 0
388.619 7.07057 0
391.151 6.86969 0
391.49 11.1408 0
388.957 11.3417 0
389.885 6.97019 0
391.32 9.00528 0
390.224 11.2413 0
388.788 9.20618 0
390.054 9.10579 0
391.151 6.86969 0
393.683 6.66836 0
394.023 10.9394 0
391.49 11.1408 0
392.417 6.76908 0
393.853 8.80393 0
392.756 11.0401 0
391.32 9.00528 0
392.587 8.90466 0
393.683 6.66836 0
396.215 6.46657 0
396.556 10.7376 0
394.023 10.9394 0
394.949 6.56752 0
396.385 8.60213 0
395.289 10.8385 0
393.853 8.80393 0
395.119 8.70308 0
396.215 6.46657 0
398.747 6.26434 0
399.088 10.5353 0
396.556 10.7376 0
397.481 6.36551 0
398.917 8.39988 0
397.822 10.6365 0
396.385 8.60213 0
397.651 8.50106 0
398.747 6.26434 0
401.279 6.06168 0
401.621 10.3326 0
399.088 10.5353 0
400.013 6.16306 0
401.45 8.19721 0
400.354 10.434 0
398.917 8.39988 0
400.184 8.2986 0
401.279 6.06168 0
403.81 5.8586 0
404.153 10.1295 0
401.621 10.3326 0
402.545 5.96019 0
403.982 7.99411 0
402.887 10.2311 0
401.45 8.19721 0
402.716 8.09571 0
403.81 5.8586 0
406.342 5.65512 0
406.685 9.92601 0
404.153 10.1295 0
405.076 5.75691 0
406.514 7.79061 0
405.419 10.0278 0
403.982 7.99411 0
405.248 7.89241 0
406.342 5.65512 0
408.874 5.45124 0
409.218 9.72211 0
406.685 9.92601 0
407.608 5.55323 0
409.046 7.58672 0
407.952 9.82411 0
406.514 7.79061 0
407.78 7.68871 0
408.874 5.45124 0
411.405 5.24697 0
411.75 9.51781 0
409.218 9.72211 0
410.139 5.34915 0
411.577 7.38243 0
410.484 9.62001 0
409.046 7.58672 0
410.311 7.48462 0
411.405 5.24697 0
413.936 5.04232 0
414.282 9.31315 0
411.75 9.51781 0
412.671 5.14469 0
414.109 7.17778 0
413.016 9.41553 0
411.577 7.38243 0
412.843 7.28015 0
413.936 5.04232 0
416.468 4.83731 0
416.814 9.10811 0
414.282 9.31315 0
415.202 4.93986 0
416.641 6.97276 0
415.548 9.21067 0
414.109 7.17778 0
415.375 7.07531 0
416.468 4.83731 0
418.999 4.63195 0
419.346 8.90273 0
416.814 9.10811 0
417.733 4.73468 0
419.172 6.76738 0
418.08 9.00547 0
416.641 6.97276 0
417.907 6.87011 0
418.999 4.63195 0
421.53 4.42625 0
421.877 8.69701 0
419.346 8.90273 0
420.265 4.52914 0
421.704 6.56167 0
420.611 8.79991 0
419.172 6.76738 0
420.438 6.66457 0
421.53 4.42625 0
424.061 4.22021 0
424.409 8.49095 0
421.877 8.69701 0
422.796 4.32327 0
424.235 6.35562 0
423.143 8.59402 0
421.704 6.56167 0
422.969 6.45868 0
424.061 4.22021 0
426.592 4.01385 0
426.941 8.28458 0
424.409 8.49095 0
425.327 4.11707 0
426.766 6.14925 0
425.675 8.3878 0
424.235 6.35562 0
425.501 6.25247 0
426.592 4.01385 0
429.123 3.80718 0
429.472 8.07789 0
426.941 8.28458 0
427.858 3.91055 0
429.298 5.94257 0
428.206 8.18127 0
426.766 6.14925 0
428.032 6.04595 0
429.123 3.80718 0
431.654 3.60021 0
432.003 7.87091 0
429.472 8.07789 0
430.389 3.70373 0
431.829 5.73559 0
430.738 7.97444 0
429.298 5.94257 0
430.563 5.83912 0
431.654 3.60021 0
434.185 3.39295 0
434.535 7.66364 0
432.003 7.87091 0
432.92 3.49662 0
434.36 5.52833 0
433.269 7.76731 0
431.829 5.73559 0
433.094 5.632 0
434.185 3.39295 0
436.716 3.18542 0
437.066 7.45609 0
434.535 7.66364 0
435.45 3.28922 0
436.891 5.32079 0
435.8 7.5599 0
434.36 5.52833 0
435.625 5.42459 0
436.716 3.18542 0
439.246 2.97761 0
439.597 7.24828 0
437.066 7.45609 0
437.981 3.08155 0
439.422 5.11298 0
438.332 7.35222 0
436.891 5.32079 0
438.156 5.21692 0
439.246 2.97761 0
441.777 2.76956 0
442.128 7.04022 0
439.597 7.24828 0
440.512 2.87362 0
441.953 4.90492 0
440.863 7.14428 0
439.422 5.11298 0
440.687 5.00898 0
441.777 2.76956 0
444.308 2.56125 0
444.659 6.8319 0
442.128 7.04022 0
443.042 2.66543 0
444.483 4.69661 0
443.394 6.93609 0
441.953 4.90492 0
443.218 4.80079 0
444.308 2.56125 0
446.838 2.35271 0
447.19 6.62336 0
444.659 6.8319 0
445.573 2.45701 0
447.014 4.48806 0
445.925 6.72766 0
444.483 4.69661 0
445.749 4.59236 0
446.838 2.35271 0
449.369 2.14395 0
449.721 6.4146 0
447.19 6.62336 0
448.103 2.24836 0
449.545 4.2793 0
448.455 6.51901 0
447.014 4.48806 0
448.279 4.38371 0
449.369 2.14395 0
451.899 1.93497 0
452.252 6.20562 0
449.721 6.4146 0
450.634 2.03949 0
452.075 4.07032 0
450.986 6.31013 0
449.545 4.2793 0
450.81 4.17484 0
451.899 1.93497 0
454.429 1.7258 0
454.782 5.99644 0
452.252 6.20562 0
453.164 1.83041 0
454.606 3.86114 0
453.517 6.10105 0
452.075 4.07032 0
453.34 3.96576 0
454.429 1.7258 0
456.959 1.51643 0
457.313 5.78707 0
454.782 5.99644 0
455.694 1.62114 0
457.136 3.65177 0
456.048 5.89178 0
454.606 3.86114 0
455.871 3.75648 0
456.959 1.51643 0
459.49 1.30688 0
459.843 5.57753 0
457.313 5.78707 0
458.225 1.41168 0
459.666 3.44223 0
458.578 5.68232 0
457.136 3.65177 0
458.401 3.54702 0
459.49 1.30688 0
462.02 1.09716 0
462.374 5.36781 0
459.843 5.57753 0
460.755 1.20204 0
462.197 3.23251 0
461.108 5.47269 0
459.666 3.44223 0
460.932 3.33739 0
462.02 1.09716 0
464.55 0.887285 0
464.904 5.15794 0
462.374 5.36781 0
463.285 0.992242 0
464.727 3.02263 0
463.639 5.2629 0
462.197 3.23251 0
463.462 3.12759 0
464.55 0.887285 0
467.08 0.67726 0
467.434 4.94793 0
464.904 5.15794 0
465.815 0.78229 0
467.257 2.81261 0
466.169 5.05295 0
464.727 3.02263 0
465.992 2.91764 0
467.08 0.67726 0
469.61 0.467099 0
469.964 4.73777 0
467.434 4.94793 0
468.345 0.572196 0
469.787 2.60245 0
468.699 4.84287 0
467.257 2.81261 0
468.522 2.70755 0
469.61 0.467099 0
472.14 0.256812 0
472.494 4.5275 0
469.964 4.73777 0
470.875 0.361971 0
472.317 2.39217 0
471.229 4.63265 0
469.787 2.60245 0
471.052 2.49733 0
472.14 0.256812 0
474.669 0.0464102 0
475.025 4.31711 0
472.494 4.5275 0
473.405 0.151625 0
474.847 2.18177 0
473.76 4.42232 0
472.317 2.39217 0
473.582 2.28699 0
474.669 0.0464102 0
477.199 -0.164096 0
477.554 4.10661 0
475.025 4.31711 0
475.934 -0.0588304 0
477.377 1.97127 0
476.29 4.21187 0
474.847 2.18177 0
476.112 2.07654 0
477.199 -0.164096 0
479.729 -0.374694 0
480.084 3.89603 0
477.554 4.10661 0
478.464 -0.269384 0
479.907 1.76068 0
478.819 4.00133 0
477.377 1.97127 0
478.642 1.86599 0
479.729 -0.374694 0
482.259 -0.585375 0
482.614 3.68537 0
480.084 3.89603 0
480.994 -0.480025 0
482.436 1.55001 0
481.349 3.79071 0
479.907 1.76068 0
481.171 1.65535 0
482.259 -0.585375 0
484.788 -0.796127 0
485.144 3.47463 0
482.614 3.68537 0
483.523 -0.690742 0
484.966 1.33926 0
483.879 3.58001 0
482.436 1.55001 0
483.701 1.44464 0
484.788 -0.796127 0
487.318 -1.00694 0
487.674 3.26383 0
485.144 3.47463 0
486.053 -0.901526 0
487.496 1.12846 0
486.409 3.36924 0
484.966 1.33926 0
486.231 1.23387 0
487.318 -1.00694 0
489.847 -1.21781 0
490.203 3.05298 0
487.674 3.26383 0
488.583 -1.11237 0
490.025 0.917597 0
488.938 3.15841 0
487.496 1.12846 0
488.76 1.02303 0
489.847 -1.21781 0
492.377 -1.42874 0
492.733 2.84206 0
490.203 3.05298 0
491.112 -1.32327 0
492.555 0.706676 0
491.468 2.94753 0
490.025 0.917597 0
491.29 0.812145 0
492.377 -1.42874 0
494.906 -1.63975 0
495.262 2.63105 0
492.733 2.84206 0
493.641 -1.53423 0
495.084 0.495667 0
493.998 2.73657 0
492.555 0.706676 0
493.82 0.601185 0
494.906 -1.63975 0
497.435 -1.85089 0
497.792 2.41983 0
495.262 2.63105 0
496.171 -1.7453 0
497.614 0.284481 0
496.527 2.52548 0
495.084 0.495667 0
496.349 0.390111 0
497.435 -1.85089 0
499.965 -2.06212 0
500.322 2.20775 0
497.792 2.41983 0
498.7 -1.95651 0
500.143 0.0728735 0
499.057 2.31403 0
497.614 0.284481 0
498.878 0.178737 0
      </DataArray>
    </Points>
    <Cells>
      <DataArray type="Int32" Name="connectivity" format="ascii">
0 1 2 3 4 5 6 7 8 
9 10 11 12 13 14 15 16 17 
18 19 20 21 22 23 24 25 26 
27 28 29 30 31 32 33 34 35 
36 37 38 39 40 41 42 43 44 
45 46 47 48 49 50 51 52 53 
54 55 56 57 58 59 60 61 62 
63 64 65 66 67 68 69 70 71 
72 73 74 75 76 77 78 79 80 
81 82 83 84 85 86 87 88 89 
90 91 92 93 94 95 96 97 98 
99 100 101 102 103 104 105 106 107 
108 109 110 111 112 113 114 115 116 
117 118 119 120 121 122 123 124 125 
126 127 128 129 130 131 132 133 134 
135 136 137 138 139 140 141 142 143 
144 145 146 147 148 149 150 151 152 
153 154 155 156 157 158 159 160 161 
162 163 164 165 166 167 168 169 170 
171 172 173 174 175 176 177 178 179 
180 181 182 183 184 185 186 187 188 
189 190 191 192 193 194 195 196 197 
198 199 200 201 202 203 204 205 206 
207 208 209 210 211 212 213 214 215 
216 217 218 219 220 221 222 223 224 
225 226 227 228 229 230 231 232 233 
234 235 236 237 238 239 240 241 242 
243 244 245 246 247 248 249 250 251 
252 253 254 255 256 257 258 259 260 
261 262 263 264 265 266 267 268 269 
270 271 272 273 274 275 276 277 278 
279 280 281 282 283 284 285 286 287 
288 289 290 291 292 293 294 295 296 
297 298 299 300 301 302 303 304 305 
306 307 308 309 310 311 312 313 314 
315 316 317 318 319 320 321 322 323 
324 325 326 327 328 329 330 331 332 
333 334 335 336 337 338 339 340 341 
342 343 344 345 346 347 348 349 350 
351 352 353 354 355 356 357 358 359 
360 361 362 363 364 365 366 367 368 
369 370 371 372 373 374 375 376 377 
378 379 380 381 382 383 384 385 386 
387 388 389 390 391 392 393 394 395 
396 397 398 399 400 401 402 403 404 
405 406 407 408 409 410 411 412 413 
414 415 416 417 418 419 420 421 422 
423 424 425 426 427 428 429 430 431 
432 433 434 435 436 437 438 439 440 
441 442 443 444 445 446 447 448 449 
450 451 452 453 454 455 456 457 458 
459 460 461 462 463 464 465 466 467 
468 469 470 471 472 473 474 475 476 
477 478 479 480 481 482 483 484 485 
486 487 488 489 490 491 492 493 494 
495 496 497 498 499 500 501 502 503 
504 505 506 507 508 509 510 511 512 
513 514 515 516 517 518 519 520 521 
522 523 524 525 526 527 528 529 530 
531 532 533 534 535 536 537 538 539 
540 541 542 543 544 545 546 547 548 
549 550 551 552 553 554 555 556 557 
558 559 560 561 562 563 564 565 566 
567 568 569 570 571 572 573 574 575 
576 577 578 579 580 581 582 583 584 
585 586 587 588 589 590 591 592 593 
594 595 596 597 598 599 600 601 602 
603 604 605 606 607 608 609 610 611 
612 613 614 615 616 617 618 619 620 
621 622 623 624 625 626 627 628 629 
630 631 632 633 634 635 636 637 638 
639 640 641 642 643 644 645 646 647 
648 649 650 651 652 653 654 655 656 
657 658 659 660 661 662 663 664 665 
666 667 668 669 670 671 672 673 674 
675 676 677 678 679 680 681 682 683 
684 685 686 687 688 689 690 691 692 
693 694 695 696 697 698 699 700 701 
702 703 704 705 706 707 708 709 710 
711 712 713 714 715 716 717 718 719 
720 721 722 723 724 725 726 727 728 
729 730 731 732 733 734 735 736 737 
738 739 740 741 742 743 744 745 746 
747 748 749 750 751 752 753 754 755 
756 757 758 759 760 761 762 763 764 
765 766 767 768 769 770 771 772 773 
774 775 776 777 778 779 780 781 782 
783 784 785 786 787 788 789 790 791 
792 793 794 795 796 797 798 799 800 
801 802 803 804 805 806 807 808 809 
810 811 812 813 814 815 816 817 818 
819 820 821 822 823 824 825 826 827 
828 829 830 831 832 833 834 835 836 
837 838 839 840 841 842 843 844 845 
846 847 848 849 850 851 852 853 854 
855 856 857 858 859 860 861 862 863 
864 865 866 867 868 869 870 871 872 
873 874 875 876 877 878 879 880 881 
882 883 884 885 886 887 888 889 890 
891 892 893 894 895 896 897 898 899 
900 901 902 903 904 905 906 907 908 
909 910 911 912 913 914 915 916 917 
918 919 920 921 922 923 924 925 926 
927 928 929 930 931 932 933 934 935 
936 937 938 939 940 941 942 943 944 
945 946 947 948 949 950 951 952 953 
954 955 956 957 958 959 960 961 962 
963 964 965 966 967 968 969 970 971 
972 973 974 975 976 977 978 979 980 
981 982 983 984 985 986 987 988 989 
990 991 992 993 994 995 996 997 998 
999 1000 1001 1002 1003 1004 1005 1006 1007 
1008 1009 1010 1011 1012 1013 1014 1015 1016 
1017 1018 1019 1020 1021 1022 1023 1024 1025 
1026 1027 1028 1029 1030 1031 1032 1033 1034 
1035 1036 1037 1038 1039 1040 1041 1042 1043 
1044 1045 1046 1047 1048 1049 1050 1051 1052 
1053 1054 1055 1056 1057 1058 1059 1060 1061 
1062 1063 1064 1065 1066 1067 1068 1069 1070 
1071 1072 1073 1074 1075 1076 1077 1078 1079 
1080 1081 1082 1083 1084 1085 1086 1087 1088 
1089 1090 1091 1092 1093 1094 1095 1096 1097 
1098 1099 1100 1101 1102 1103 1104 1105 1106 
1107 1108 1109 1110 1111 1112 1113 1114 1115 
1116 1117 1118 1119 1120 1121 1122 1123 1124 
1125 1126 1127 1128 1129 1130 1131 1132 1133 
1134 1135 1136 1137 1138 1139 1140 1141 1142 
1143 1144 1145 1146 1147 1148 1149 1150 1151 
1152 1153 1154 1155 1156 1157 1158 1159 1160 
1161 1162 1163 1164 1165 1166 1167 1168 1169 
1170 1171 1172 1173 1174 1175 1176 1177 1178 
1179 1180 1181 1182 1183 1184 1185 1186 1187 
1188 1189 1190 1191 1192 1193 1194 1195 1196 
1197 1198 1199 1200 1201 1202 1203 1204 1205 
1206 1207 1208 1209 1210 1211 1212 1213 1214 
1215 1216 1217 1218 1219 1220 1221 1222 1223 
1224 1225 1226 1227 1228 1229 1230 1231 1232 
1233 1234 1235 1236 1237 1238 1239 1240 1241 
1242 1243 1244 1245 1246 1247 1248 1249 1250 
1251 1252 1253 1254 1255 1256 1257 1258 1259 
1260 1261 1262 1263 1264 1265 1266 1267 1268 
1269 1270 1271 1272 1273 1274 1275 1276 1277 
1278 1279 1280 1281 1282 1283 1284 1285 1286 
1287 1288 1289 1290 1291 1292 1293 1294 1295 
1296 1297 1298 1299 1300 1301 1302 1303 1304 
1305 1306 1307 1308 1309 1310 1311 1312 1313 
1314 1315 1316 1317 1318 1319 1320 1321 1322 
1323 1324 1325 1326 1327 1328 1329 1330 1331 
1332 1333 1334 1335 1336 1337 1338 1339 1340 
1341 1342 1343 1344 1345 1346 1347 1348 1349 
1350 1351 1352 1353 1354 1355 1356 1357 1358 
1359 1360 1361 1362 1363 1364 1365 1366 1367 
1368 1369 1370 1371 1372 1373 1374 1375 1376 
1377 1378 1379 1380 1381 1382 1383 1384 1385 
1386 1387 1388 1389 1390 1391 1392 1393 1394 
1395 1396 1397 1398 1399 1400 1401 1402 1403 
1404 1405 1406 1407 1408 1409 1410 1411 1412 
1413 1414 1415 1416 1417 1418 1419 1420 1421 
1422 1423 1424 1425 1426 1427 1428 1429 1430 
1431 1432 1433 1434 1435 1436 1437 1438 1439 
1440 1441 1442 1443 1444 1445 1446 1447 1448 
1449 1450 1451 1452 1453 1454 1455 1456 1457 
1458 1459 1460 1461 1462 1463 1464 1465 1466 
1467 1468 1469 1470 1471 1472 1473 1474 1475 
1476 1477 1478 1479 1480 1481 1482 1483 1484 
1485 1486 1487 1488 1489 1490 1491 1492 1493 
1494 1495 1496 1497 1498 1499 1500 1501 1502 
1503 1504 1505 1506 1507 1508 1509 1510 1511 
1512 1513 1514 1515 1516 1517 1518 1519 1520 
1521 1522 1523 1524 1525 1526 1527 1528 1529 
1530 1531 1532 1533 1534 1535 1536 1537 1538 
1539 1540 1541 1542 1543 1544 1545 1546 1547 
1548 1549 1550 1551 1552 1553 1554 1555 1556 
1557 1558 1559 1560 1561 1562 1563 1564 1565 
1566 1567 1568 1569 1570 1571 1572 1573 1574 
1575 1576 1577 1578 1579 1580 1581 1582 1583 
1584 1585 1586 1587 1588 1589 1590 1591 1592 
1593 1594 1595 1596 1597 1598 1599 1600 1601 
1602 1603 1604 1605 1606 1607 1608 1609 1610 
1611 1612 1613 1614 1615 1616 1617 1618 1619 
1620 1621 1622 1623 1624 1625 1626 1627 1628 
1629 1630 1631 1632 1633 1634 1635 1636 1637 
1638 1639 1640 1641 1642 1643 1644 1645 1646 
1647 1648 1649 1650 1651 1652 1653 1654 1655 
1656 1657 1658 1659 1660 1661 1662 1663 1664 
1665 1666 1667 1668 1669 1670 1671 1672 1673 
1674 1675 1676 1677 1678 1679 1680 1681 1682 
1683 1684 1685 1686 1687 1688 1689 1690 1691 
1692 1693 1694 1695 1696 1697 1698 1699 1700 
1701 1702 1703 1704 1705 1706 1707 1708 1709 
1710 1711 1712 1713 1714 1715 1716 1717 1718 
1719 1720 1721 1722 1723 1724 1725 1726 1727 
1728 1729 1730 1731 1732 1733 1734 1735 1736 
1737 1738 1739 1740 1741 1742 1743 1744 1745 
1746 1747 1748 1749 1750 1751 1752 1753 1754 
1755 1756 1757 1758 1759 1760 1761 1762 1763 
1764 1765 1766 1767 1768 1769 1770 1771 1772 
1773 1774 1775 1776 1777 1778 1779 1780 1781 
1782 1783 1784 1785 1786 1787 1788 1789 1790 
1791 1792 1793 1794 1795 1796 1797 1798 1799 
1800 1801 1802 1803 1804 1805 1806 1807 1808 
1809 1810 1811 1812 1813 1814 1815 1816 1817 
1818 1819 1820 1821 1822 1823 1824 1825 1826 
1827 1828 1829 1830 1831 1832 1833 1834 1835 
1836 1837 1838 1839 1840 1841 1842 1843 1844 
1845 1846 1847 1848 1849 1850 1851 1852 1853 
1854 1855 1856 1857 1858 1859 1860 1861 1862 
1863 1864 1865 1866 1867 1868 1869 1870 1871 
1872 1873 1874 1875 1876 1877 1878 1879 1880 
1881 1882 1883 1884 1885 1886 1887 1888 1889 
1890 1891 1892 1893 1894 1895 1896 1897 1898 
1899 1900 1901 1902 1903 1904 1905 1906 1907 
1908 1909 1910 1911 1912 1913 1914 1915 1916 
1917 1918 1919 1920 1921 1922 1923 1924 1925 
1926 1927 1928 1929 1930 1931 1932 1933 1934 
1935 1936 1937 1938 1939 1940 1941 1942 1943 
1944 1945 1946 1947 1948 1949 1950 1951 1952 
1953 1954 1955 1956 1957 1958 1959 1960 1961 
1962 1963 1964 1965 1966 1967 1968 1969 1970 
1971 1972 1973 1974 1975 1976 1977 1978 1979 
1980 1981 1982 1983 1984 1985 1986 1987 1988 
1989 1990 1991 1992 1993 1994 1995 1996 1997 
1998 1999 2000 2001 2002 2003 2004 2005 2006 
2007 2008 2009 2010 2011 2012 2013 2014 2015 
2016 2017 2018 2019 2020 2021 2022 2023 2024 
2025 2026 2027 2028 2029 2030 2031 2032 2033 
2034 2035 2036 2037 2038 2039 2040 2041 2042 
2043 2044 2045 2046 2047 2048 2049 2050 2051 
2052 2053 2054 2055 2056 2057 2058 2059 2060 
2061 2062 2063 2064 2065 2066 2067 2068 2069 
2070 2071 2072 2073 2074 2075 2076 2077 2078 
2079 2080 2081 2082 2083 2084 2085 2086 2087 
2088 2089 2090 2091 2092 2093 2094 2095 2096 
2097 2098 2099 2100 2101 2102 2103 2104 2105 
2106 2107 2108 2109 2110 2111 2112 2113 2114 
2115 2116 2117 2118 2119 2120 2121 2122 2123 
2124 2125 2126 2127 2128 2129 2130 2131 2132 
2133 2134 2135 2136 2137 2138 2139 2140 2141 
2142 2143 2144 2145 2146 2147 2148 2149 2150 
2151 2152 2153 2154 2155 2156 2157 2158 2159 
2160 2161 2162 2163 2164 2165 2166 2167 2168 
2169 2170 2171 2172 2173 2174 2175 2176 2177 
2178 2179 2180 2181 2182 2183 2184 2185 2186 
2187 2188 2189 2190 2191 2192 2193 2194 2195 
2196 2197 2198 2199 2200 2201 2202 2203 2204 
2205 2206 2207 2208 2209 2210 2211 2212 2213 
2214 2215 2216 2217 2218 2219 2220 2221 2222 
2223 2224 2225 2226 2227 2228 2229 2230 2231 
2232 2233 2234 2235 2236 2237 2238 2239 2240 
2241 2242 2243 2244 2245 2246 2247 2248 2249 
2250 2251 2252 2253 2254 2255 2256 2257 2258 
2259 2260 2261 2262 2263 2264 2265 2266 2267 
2268 2269 2270 2271 2272 2273 2274 2275 2276 
2277 2278 2279 2280 2281 2282 2283 2284 2285 
2286 2287 2288 2289 2290 2291 2292 2293 2294 
2295 2296 2297 2298 2299 2300 2301 2302 2303 
2304 2305 2306 2307 2308 2309 2310 2311 2312 
2313 2314 2315 2316 2317 2318 2319 2320 2321 
2322 2323 2324 2325 2326 2327 2328 2329 2330 
2331 2332 2333 2334 2335 2336 2337 2338 2339 
2340 2341 2342 2343 2344 2345 2346 2347 2348 
2349 2350 2351 2352 2353 2354 2355 2356 2357 
2358 2359 2360 2361 2362 2363 2364 2365 2366 
2367 2368 2369 2370 2371 2372 2373 2374 2375 
2376 2377 2378 2379 2380 2381 2382 2383 2384 
2385 2386 2387 2388 2389 2390 2391 2392 2393 
2394 2395 2396 2397 2398 2399 2400 2401 2402 
2403 2404 2405 2406 2407 2408 2409 2410 2411 
2412 2413 2414 2415 2416 2417 2418 2419 2420 
2421 2422 2423 2424 2425 2426 2427 2428 2429 
2430 2431 2432 2433 2434 2435 2436 2437 2438 
2439 2440 2441 2442 2443 2444 2445 2446 2447 
2448 2449 2450 2451 2452 2453 2454 2455 2456 
2457 2458 2459 2460 2461 2462 2463 2464 2465 
2466 2467 2468 2469 2470 2471 2472 2473 2474 
2475 2476 2477 2478 2479 2480 2481 2482 2483 
2484 2485 2486 2487 2488 2489 2490 2491 2492 
2493 2494 2495 2496 2497 2498 2499 2500 2501 
2502 2503 2504 2505 2506 2507 2508 2509 2510 
2511 2512 2513 2514 2515 2516 2517 2518 2519 
2520 2521 2522 2523 2524 2525 2526 2527 2528 
2529 2530 2531 2532 2533 2534 2535 2536 2537 
2538 2539 2540 2541 2542 2543 2544 2545 2546 
2547 2548 2549 2550 2551 2552 2553 2554 2555 
2556 2557 2558 2559 2560 2561 2562 2563 2564 
2565 2566 2567 2568 2569 2570 2571 2572 2573 
2574 2575 2576 2577 2578 2579 2580 2581 2582 
2583 2584 2585 2586 2587 2588 2589 2590 2591 
2592 2593 2594 2595 2596 2597 2598 2599 2600 
2601 2602 2603 2604 2605 2606 2607 2608 2609 
2610 2611 2612 2613 2614 2615 2616 2617 2618 
2619 2620 2621 2622 2623 2624 2625 2626 2627 
2628 2629 2630 2631 2632 2633 2634 2635 2636 
2637 2638 2639 2640 2641 2642 2643 2644 2645 
2646 2647 2648 2649 2650 2651 2652 2653 2654 
2655 2656 2657 2658 2659 2660 2661 2662 2663 
2664 2665 2666 2667 2668 2669 2670 2671 2672 
2673 2674 2675 2676 2677 2678 2679 2680 2681 
2682 2683 2684 2685 2686 2687 2688 2689 2690 
2691 2692 2693 2694 2695 2696 2697 2698 2699 
2700 2701 2702 2703 2704 2705 2706 2707 2708 
2709 2710 2711 2712 2713 2714 2715 2716 2717 
2718 2719 2720 2721 2722 2723 2724 2725 2726 
2727 2728 2729 2730 2731 2732 2733 2734 2735 
2736 2737 2738 2739 2740 2741 2742 2743 2744 
2745 2746 2747 2748 2749 2750 2751 2752 2753 
2754 2755 2756 2757 2758 2759 2760 2761 2762 
2763 2764 2765 2766 2767 2768 2769 2770 2771 
2772 2773 2774 2775 2776 2777 2778 2779 2780 
2781 2782 2783 2784 2785 2786 2787 2788 2789 
2790 2791 2792 2793 2794 2795 2796 2797 2798 
2799 2800 2801 2802 2803 2804 2805 2806 2807 
2808 2809 2810 2811 2812 2813 2814 2815 2816 
2817 2818 2819 2820 2821 2822 2823 2824 2825 
2826 2827 2828 2829 2830 2831 2832 2833 2834 
2835 2836 2837 2838 2839 2840 2841 2842 2843 
2844 2845 2846 2847 2848 2849 2850 2851 2852 
2853 2854 2855 2856 2857 2858 2859 2860 2861 
2862 2863 2864 2865 2866 2867 2868 2869 2870 
2871 2872 2873 2874 2875 2876 2877 2878 2879 
2880 2881 2882 2883 2884 2885 2886 2887 2888 
2889 2890 2891 2892 2893 2894 2895 2896 2897 
2898 2899 2900 2901 2902 2903 2904 2905 2906 
2907 2908 2909 2910 2911 2912 2913 2914 2915 
2916 2917 2918 2919 2920 2921 2922 2923 2924 
2925 2926 2927 2928 2929 2930 2931 2932 2933 
2934 2935 2936 2937 2938 2939 2940 2941 2942 
2943 2944 2945 2946 2947 2948 2949 2950 2951 
2952 2953 2954 2955 2956 2957 2958 2959 2960 
2961 2962 2963 2964 2965 2966 2967 2968 2969 
2970 2971 2972 2973 2974 2975 2976 2977 2978 
2979 2980 2981 2982 2983 2984 2985 2986 2987 
2988 2989 2990 2991 2992 2993 2994 2995 2996 
2997 2998 2999 3000 3001 3002 3003 3004 3005 
3006 3007 3008 3009 3010 3011 3012 3013 3014 
3015 3016 3017 3018 3019 3020 3021 3022 3023 
3024 3025 3026 3027 3028 3029 3030 3031 3032 
3033 3034 3035 3036 3037 3038 3039 3040 3041 
3042 3043 3044 3045 3046 3047 3048 3049 3050 
3051 3052 3053 3054 3055 3056 3057 3058 3059 
3060 3061 3062 3063 3064 3065 3066 3067 3068 
3069 3070 3071 3072 3073 3074 3075 3076 3077 
3078 3079 3080 3081 3082 3083 3084 3085 3086 
3087 3088 3089 3090 3091 3092 3093 3094 3095 
3096 3097 3098 3099 3100 3101 3102 3103 3104 
3105 3106 3107 3108 3109 3110 3111 3112 3113 
3114 3115 3116 3117 3118 3119 3120 3121 3122 
3123 3124 3125 3126 3127 3128 3129 3130 3131 
3132 3133 3134 3135 3136 3137 3138 3139 3140 
3141 3142 3143 3144 3145 3146 3147 3148 3149 
3150 3151 3152 3153 3154 3155 3156 3157 3158 
3159 3160 3161 3162 3163 3164 3165 3166 3167 
3168 3169 3170 3171 3172 3173 3174 3175 3176 
3177 3178 3179 3180 3181 3182 3183 3184 3185 
3186 3187 3188 3189 3190 3191 3192 3193 3194 
3195 3196 3197 3198 3199 3200 3201 3202 3203 
3204 3205 3206 3207 3208 3209 3210 3211 3212 
3213 3214 3215 3216 3217 3218 3219 3220 3221 
3222 3223 3224 3225 3226 3227 3228 3229 3230 
3231 3232 3233 3234 3235 3236 3237 3238 3239 
3240 3241 3242 3243 3244 3245 3246 3247 3248 
3249 3250 3251 3252 3253 3254 3255 3256 3257 
3258 3259 3260 3261 3262 3263 3264 3265 3266 
3267 3268 3269 3270 3271 3272 3273 3274 3275 
3276 3277 3278 3279 3280 3281 3282 3283 3284 
3285 3286 3287 3288 3289 3290 3291 3292 3293 
3294 3295 3296 3297 3298 3299 3300 3301 3302 
3303 3304 3305 3306 3307 3308 3309 3310 3311 
3312 3313 3314 3315 3316 3317 3318 3319 3320 
3321 3322 3323 3324 3325 3326 3327 3328 3329 
3330 3331 3332 3333 3334 3335 3336 3337 3338 
3339 3340 3341 3342 3343 3344 3345 3346 3347 
3348 3349 3350 3351 3352 3353 3354 3355 3356 
3357 3358 3359 3360 3361 3362 3363 3364 3365 
3366 3367 3368 3369 3370 3371 3372 3373 3374 
3375 3376 3377 3378 3379 3380 3381 3382 3383 
3384 3385 3386 3387 3388 3389 3390 3391 3392 
3393 3394 3395 3396 3397 3398 3399 3400 3401 
3402 3403 3404 3405 3406 3407 3408 3409 3410 
3411 3412 3413 3414 3415 3416 3417 3418 3419 
3420 3421 3422 3423 3424 3425 3426 3427 3428 
3429 3430 3431 3432 3433 3434 3435 3436 3437 
3438 3439 3440 3441 3442 3443 3444 3445 3446 
3447 3448 3449 3450 3451 3452 3453 3454 3455 
3456 3457 3458 3459 3460 3461 3462 3463 3464 
3465 3466 3467 3468 3469 3470 3471 3472 3473 
3474 3475 3476 3477 3478 3479 3480 3481 3482 
3483 3484 3485 3486 3487 3488 3489 3490 3491 
3492 3493 3494 3495 3496 3497 3498 3499 3500 
3501 3502 3503 3504 3505 3506 3507 3508 3509 
3510 3511 3512 3513 3514 3515 3516 3517 3518 
3519 3520 3521 3522 3523 3524 3525 3526 3527 
3528 3529 3530 3531 3532 3533 3534 3535 3536 
3537 3538 3539 3540 3541 3542 3543 3544 3545 
3546 3547 3548 3549 3550 3551 3552 3553 3554 
3555 3556 3557 3558 3559 3560 3561 3562 3563 
3564 3565 3566 3567 3568 3569 3570 3571 3572 
3573 3574 3575 3576 3577 3578 3579 3580 3581 
3582 3583 3584 3585 3586 3587 3588 3589 3590 
3591 3592 3593 3594 3595 3596 3597 3598 3599 
3600 3601 3602 3603 3604 3605 3606 3607 3608 
3609 3610 3611 3612 3613 3614 3615 3616 3617 
3618 3619 3620 3621 3622 3623 3624 3625 3626 
3627 3628 3629 3630 3631 3632 3633 3634 3635 
3636 3637 3638 3639 3640 3641 3642 3643 3644 
3645 3646 3647 3648 3649 3650 3651 3652 3653 
3654 3655 3656 3657 3658 3659 3660 3661 3662 
3663 3664 3665 3666 3667 3668 3669 3670 3671 
3672 3673 3674 3675 3676 3677 3678 3679 3680 
3681 3682 3683 3684 3685 3686 3687 3688 3689 
3690 3691 3692 3693 3694 3695 3696 3697 3698 
3699 3700 3701 3702 3703 3704 3705 3706 3707 
3708 3709 3710 3711 3712 3713 3714 3715 3716 
3717 3718 3719 3720 3721 3722 3723 3724 3725 
3726 3727 3728 3729 3730 3731 3732 3733 3734 
3735 3736 3737 3738 3739 3740 3741 3742 3743 
3744 3745 3746 3747 3748 3749 3750 3751 3752 
3753 3754 3755 3756 3757 3758 3759 3760 3761 
3762 3763 3764 3765 3766 3767 3768 3769 3770 
3771 3772 3773 3774 3775 3776 3777 3778 3779 
3780 3781 3782 3783 3784 3785 3786 3787 3788 
3789 3790 3791 3792 3793 3794 3795 3796 3797 
3798 3799 3800 3801 3802 3803 3804 3805 3806 
3807 3808 3809 3810 3811 3812 3813 3814 3815 
3816 3817 3818 3819 3820 3821 3822 3823 3824 
3825 3826 3827 3828 3829 3830 3831 3832 3833 
3834 3835 3836 3837 3838 3839 3840 3841 3842 
3843 3844 3845 3846 3847 3848 3849 3850 3851 
3852 3853 3854 3855 3856 3857 3858 3859 3860 
3861 3862 3863 3864 3865 3866 3867 3868 3869 
3870 3871 3872 3873 3874 3875 3876 3877 3878 
3879 3880 3881 3882 3883 3884 3885 3886 3887 
3888 3889 3890 3891 3892 3893 3894 3895 3896 
3897 3898 3899 3900 3901 3902 3903 3904 3905 
3906 3907 3908 3909 3910 3911 3912 3913 3914 
3915 3916 3917 3918 3919 3920 3921 3922 3923 
3924 3925 3926 3927 3928 3929 3930 3931 3932 
3933 3934 3935 3936 3937 3938 3939 3940 3941 
3942 3943 3944 3945 3946 3947 3948 3949 3950 
3951 3952 3953 3954 3955 3956 3957 3958 3959 
3960 3961 3962 3963 3964 3965 3966 3967 3968 
3969 3970 3971 3972 3973 3974 3975 3976 3977 
3978 3979 3980 3981 3982 3983 3984 3985 3986 
3987 3988 3989 3990 3991 3992 3993 3994 3995 
3996 3997 3998 3999 4000 4001 4002 4003 4004 
4005 4006 4007 4008 4009 4010 4011 4012 4013 
4014 4015 4016 4017 4018 4019 4020 4021 4022 
4023 4024 4025 4026 4027 4028 4029 4030 4031 
4032 4033 4034 4035 4036 4037 4038 4039 4040 
4041 4042 4043 4044 4045 4046 4047 4048 4049 
4050 4051 4052 4053 4054 4055 4056 4057 4058 
4059 4060 4061 4062 4063 4064 4065 4066 4067 
4068 4069 4070 4071 4072 4073 4074 4075 4076 
4077 4078 4079 4080 4081 4082 4083 4084 4085 
4086 4087 4088 4089 4090 4091 4092 4093 4094 
4095 4096 4097 4098 4099 4100 4101 4102 4103 
4104 4105 4106 4107 4108 4109 4110 4111 4112 
4113 4114 4115 4116 4117 4118 4119 4120 4121 
4122 4123 4124 4125 4126 4127 4128 4129 4130 
4131 4132 4133 4134 4135 4136 4137 4138 4139 
4140 4141 4142 4143 4144 4145 4146 4147 4148 
4149 4150 4151 4152 4153 4154 4155 4156 4157 
4158 4159 4160 4161 4162 4163 4164 4165 4166 
4167 4168 4169 4170 4171 4172 4173 4174 4175 
4176 4177 4178 4179 4180 4181 4182 4183 4184 
4185 4186 4187 4188 4189 4190 4191 4192 4193 
4194 4195 4196 4197 4198 4199 4200 4201 4202 
4203 4204 4205 4206 4207 4208 4209 4210 4211 
4212 4213 4214 4215 4216 4217 4218 4219 4220 
4221 4222 4223 4224 4225 4226 4227 4228 4229 
4230 4231 4232 4233 4234 4235 4236 4237 4238 
4239 4240 4241 4242 4243 4244 4245 4246 4247 
4248 4249 4250 4251 4252 4253 4254 4255 4256 
4257 4258 4259 4260 4261 4262 4263 4264 4265 
4266 4267 4268 4269 4270 4271 4272 4273 4274 
4275 4276 4277 4278 4279 4280 4281 4282 4283 
4284 4285 4286 4287 4288 4289 4290 4291 4292 
4293 4294 4295 4296 4297 4298 4299 4300 4301 
4302 4303 4304 4305 4306 4307 4308 4309 4310 
4311 4312 4313 4314 4315 4316 4317 4318 4319 
4320 4321 4322 4323 4324 4325 4326 4327 4328 
4329 4330 4331 4332 4333 4334 4335 4336 4337 
4338 4339 4340 4341 4342 4343 4344 4345 4346 
4347 4348 4349 4350 4351 4352 4353 4354 4355 
4356 4357 4358 4359 4360 4361 4362 4363 4364 
4365 4366 4367 4368 4369 4370 4371 4372 4373 
4374 4375 4376 4377 4378 4379 4380 4381 4382 
4383 4384 4385 4386 4387 4388 4389 4390 4391 
4392 4393 4394 4395 4396 4397 4398 4399 4400 
4401 4402 4403 4404 4405 4406 4407 4408 4409 
4410 4411 4412 4413 4414 4415 4416 4417 4418 
4419 4420 4421 4422 4423 4424 4425 4426 4427 
4428 4429 4430 4431 4432 4433 4434 4435 4436 
4437 4438 4439 4440 4441 4442 4443 4444 4445 
4446 4447 4448 4449 4450 4451 4452 4453 4454 
4455 4456 4457 4458 4459 4460 4461 4462 4463 
4464 4465 4466 4467 4468 4469 4470 4471 4472 
4473 4474 4475 4476 4477 4478 4479 4480 4481 
4482 4483 4484 4485 4486 4487 4488 4489 4490 
4491 4492 4493 4494 4495 4496 4497 4498 4499 
4500 4501 4502 4503 4504 4505 4506 4507 4508 
4509 4510 4511 4512 4513 4514 4515 4516 4517 
4518 4519 4520 4521 4522 4523 4524 4525 4526 
4527 4528 4529 4530 4531 4532 4533 4534 4535 
4536 4537 4538 4539 4540 4541 4542 4543 4544 
4545 4546 4547 4548 4549 4550 4551 4552 4553 
4554 4555 4556 4557 4558 4559 4560 4561 4562 
4563 4564 4565 4566 4567 4568 4569 4570 4571 
4572 4573 4574 4575 4576 4577 4578 4579 4580 
4581 4582 4583 4584 4585 4586 4587 4588 4589 
4590 4591 4592 4593 4594 4595 4596 4597 4598 
4599 4600 4601 4602 4603 4604 4605 4606 4607 
4608 4609 4610 4611 4612 4613 4614 4615 4616 
4617 4618 4619 4620 4621 4622 4623 4624 4625 
4626 4627 4628 4629 4630 4631 4632 4633 4634 
4635 4636 4637 4638 4639 4640 4641 4642 4643 
4644 4645 4646 4647 4648 4649 4650 4651 4652 
4653 4654 4655 4656 4657 4658 4659 4660 4661 
4662 4663 4664 4665 4666 4667 4668 4669 4670 
4671 4672 4673 4674 4675 4676 4677 4678 4679 
4680 4681 4682 4683 4684 4685 4686 4687 4688 
4689 4690 4691 4692 4693 4694 4695 4696 4697 
4698 4699 4700 4701 4702 4703 4704 4705 4706 
4707 4708 4709 4710 4711 4712 4713 4714 4715 
4716 4717 4718 4719 4720 4721 4722 4723 4724 
4725 4726 4727 4728 4729 4730 4731 4732 4733 
4734 4735 4736 4737 4738 4739 4740 4741 4742 
4743 4744 4745 4746 4747 4748 4749 4750 4751 
4752 4753 4754 4755 4756 4757 4758 4759 4760 
4761 4762 4763 4764 4765 4766 4767 4768 4769 
4770 4771 4772 4773 4774 4775 4776 4777 4778 
4779 4780 4781 4782 4783 4784 4785 4786 4787 
4788 4789 4790 4791 4792 4793 4794 4795 4796 
4797 4798 4799 4800 4801 4802 4803 4804 4805 
4806 4807 4808 4809 4810 4811 4812 4813 4814 
4815 4816 4817 4818 4819 4820 4821 4822 4823 
4824 4825 4826 4827 4828 4829 4830 4831 4832 
4833 4834 4835 4836 4837 4838 4839 4840 4841 
4842 4843 4844 4845 4846 4847 4848 4849 4850 
4851 4852 4853 4854 4855 4856 4857 4858 4859 
4860 4861 4862 4863 4864 4865 4866 4867 4868 
4869 4870 4871 4872 4873 4874 4875 4876 4877 
4878 4879 4880 4881 4882 4883 4884 4885 4886 
4887 4888 4889 4890 4891 4892 4893 4894 4895 
4896 4897 4898 4899 4900 4901 4902 4903 4904 
4905 4906 4907 4908 4909 4910 4911 4912 4913 
4914 4915 4916 4917 4918 4919 4920 4921 4922 
4923 4924 4925 4926 4927 4928 4929 4930 4931 
4932 4933 4934 4935 4936 4937 4938 4939 4940 
4941 4942 4943 4944 4945 4946 4947 4948 4949 
4950 4951 4952 4953 4954 4955 4956 4957 4958 
4959 4960 4961 4962 4963 4964 4965 4966 4967 
4968 4969 4970 4971 4972 4973 4974 4975 4976 
4977 4978 4979 4980 4981 4982 4983 4984 4985 
4986 4987 4988 4989 4990 4991 4992 4993 4994 
4995 4996 4997 4998 4999 5000 5001 5002 5003 
5004 5005 5006 5007 5008 5009 5010 5011 5012 
5013 5014 5015 5016 5017 5018 5019 5020 5021 
5022 5023 5024 5025 5026 5027 5028 5029 5030 
5031 5032 5033 5034 5035 5036 5037 5038 5039 
5040 5041 5042 5043 5044 5045 5046 5047 5048 
5049 5050 5051 5052 5053 5054 5055 5056 5057 
5058 5059 5060 5061 5062 5063 5064 5065 5066 
5067 5068 5069 5070 5071 5072 5073 5074 5075 
5076 5077 5078 5079 5080 5081 5082 5083 5084 
5085 5086 5087 5088 5089 5090 5091 5092 5093 
5094 5095 5096 5097 5098 5099 5100 5101 5102 
5103 5104 5105 5106 5107 5108 5109 5110 5111 
5112 5113 5114 5115 5116 5117 5118 5119 5120 
5121 5122 5123 5124 5125 5126 5127 5128 5129 
5130 5131 5132 5133 5134 5135 5136 5137 5138 
5139 5140 5141 5142 5143 5144 5145 5146 5147 
5148 5149 5150 5151 5152 5153 5154 5155 5156 
5157 5158 5159 5160 5161 5162 5163 5164 5165 
5166 5167 5168 5169 5170 5171 5172 5173 5174 
5175 5176 5177 5178 5179 5180 5181 5182 5183 
5184 5185 5186 5187 5188 5189 5190 5191 5192 
5193 5194 5195 5196 5197 5198 5199 5200 5201 
5202 5203 5204 5205 5206 5207 5208 5209 5210 
5211 5212 5213 5214 5215 5216 5217 5218 5219 
5220 5221 5222 5223 5224 5225 5226 5227 5228 
5229 5230 5231 5232 5233 5234 5235 5236 5237 
5238 5239 5240 5241 5242 5243 5244 5245 5246 
5247 5248 5249 5250 5251 5252 5253 5254 5255 
5256 5257 5258 5259 5260 5261 5262 5263 5264 
5265 5266 5267 5268 5269 5270 5271 5272 5273 
5274 5275 5276 5277 5278 5279 5280 5281 5282 
5283 5284 5285 5286 5287 5288 5289 5290 5291 
5292 5293 5294 5295 5296 5297 5298 5299 5300 
5301 5302 5303 5304 5305 5306 5307 5308 5309 
5310 5311 5312 5313 5314 5315 5316 5317 5318 
5319 5320 5321 5322 5323 5324 5325 5326 5327 
5328 5329 5330 5331 5332 5333 5334 5335 5336 
5337 5338 5339 5340 5341 5342 5343 5344 5345 
5346 5347 5348 5349 5350 5351 5352 5353 5354 
5355 5356 5357 5358 5359 5360 5361 5362 5363 
5364 5365 5366 5367 5368 5369 5370 5371 5372 
5373 5374 5375 5376 5377 5378 5379 5380 5381 
5382 5383 5384 5385 5386 5387 5388 5389 5390 
5391 5392 5393 5394 5395 5396 5397 5398 5399 
5400 5401 5402 5403 5404 5405 5406 5407 5408 
5409 5410 5411 5412 5413 5414 5415 5416 5417 
5418 5419 5420 5421 5422 5423 5424 5425 5426 
5427 5428 5429 5430 5431 5432 5433 5434 5435 
5436 5437 5438 5439 5440 5441 5442 5443 5444 
5445 5446 5447 5448 5449 5450 5451 5452 5453 
5454 5455 5456 5457 5458 5459 5460 5461 5462 
5463 5464 5465 5466 5467 5468 5469 5470 5471 
5472 5473 5474 5475 5476 5477 5478 5479 5480 
5481 5482 5483 5484 5485 5486 5487 5488 5489 
5490 5491 5492 5493 5494 5495 5496 5497 5498 
5499 5500 5501 5502 5503 5504 5505 5506 5507 
5508 5509 5510 5511 5512 5513 5514 5515 5516 
5517 5518 5519 5520 5521 5522 5523 5524 5525 
5526 5527 5528 5529 5530 5531 5532 5533 5534 
5535 5536 5537 5538 5539 5540 5541 5542 5543 
5544 5545 5546 5547 5548 5549 5550 5551 5552 
5553 5554 5555 5556 5557 5558 5559 5560 5561 
5562 5563 5564 5565 5566 5567 5568 5569 5570 
5571 5572 5573 5574 5575 5576 5577 5578 5579 
5580 5581 5582 5583 5584 5585 5586 5587 5588 
5589 5590 5591 5592 5593 5594 5595 5596 5597 
5598 5599 5600 5601 5602 5603 5604 5605 5606 
5607 5608 5609 5610 5611 5612 5613 5614 5615 
5616 5617 5618 5619 5620 5621 5622 5623 5624 
5625 5626 5627 5628 5629 5630 5631 5632 5633 
5634 5635 5636 5637 5638 5639 5640 5641 5642 
5643 5644 5645 5646 5647 5648 5649 5650 5651 
5652 5653 5654 5655 5656 5657 5658 5659 5660 
5661 5662 5663 5664 5665 5666 5667 5668 5669 
5670 5671 5672 5673 5674 5675 5676 5677 5678 
5679 5680 5681 5682 5683 5684 5685 5686 5687 
5688 5689 5690 5691 5692 5693 5694 5695 5696 
5697 5698 5699 5700 5701 5702 5703 5704 5705 
5706 5707 5708 5709 5710 5711 5712 5713 5714 
5715 5716 5717 5718 5719 5720 5721 5722 5723 
5724 5725 5726 5727 5728 5729 5730 5731 5732 
5733 5734 5735 5736 5737 5738 5739 5740 5741 
5742 5743 5744 5745 5746 5747 5748 5749 5750 
5751 5752 5753 5754 5755 5756 5757 5758 5759 
5760 5761 5762 5763 5764 5765 5766 5767 5768 
5769 5770 5771 5772 5773 5774 5775 5776 5777 
5778 5779 5780 5781 5782 5783 5784 5785 5786 
5787 5788 5789 5790 5791 5792 5793 5794 5795 
5796 5797 5798 5799 5800 5801 5802 5803 5804 
5805 5806 5807 5808 5809 5810 5811 5812 5813 
5814 5815 5816 5817 5818 5819 5820 5821 5822 
5823 5824 5825 5826 5827 5828 5829 5830 5831 
5832 5833 5834 5835 5836 5837 5838 5839 5840 
5841 5842 5843 5844 5845 5846 5847 5848 5849 
5850 5851 5852 5853 5854 5855 5856 5857 5858 
5859 5860 5861 5862 5863 5864 5865 5866 5867 
5868 5869 5870 5871 5872 5873 5874 5875 5876 
5877 5878 5879 5880 5881 5882 5883 5884 5885 
5886 5887 5888 5889 5890 5891 5892 5893 5894 
5895 5896 5897 5898 5899 5900 5901 5902 5903 
5904 5905 5906 5907 5908 5909 5910 5911 5912 
5913 5914 5915 5916 5917 5918 5919 5920 5921 
5922 5923 5924 5925 5926 5927 5928 5929 5930 
5931 5932 5933 5934 5935 5936 5937 5938 5939 
5940 5941 5942 5943 5944 5945 5946 5947 5948 
5949 5950 5951 5952 5953 5954 5955 5956 5957 
5958 5959 5960 5961 5962 5963 5964 5965 5966 
5967 5968 5969 5970 5971 5972 5973 5974 5975 
5976 5977 5978 5979 5980 5981 5982 5983 5984 
5985 5986 5987 5988 5989 5990 5991 5992 5993 
5994 5995 5996 5997 5998 5999 6000 6001 6002 
6003 6004 6005 6006 6007 6008 6009 6010 6011 
6012 6013 6014 6015 6016 6017 6018 6019 6020 
6021 6022 6023 6024 6025 6026 6027 6028 6029 
6030 6031 6032 6033 6034 6035 6036 6037 6038 
6039 6040 6041 6042 6043 6044 6045 6046 6047 
6048 6049 6050 6051 6052 6053 6054 6055 6056 
6057 6058 6059 6060 6061 6062 6063 6064 6065 
6066 6067 6068 6069 6070 6071 6072 6073 6074 
6075 6076 6077 6078 6079 6080 6081 6082 6083 
6084 6085 6086 6087 6088 6089 6090 6091 6092 
6093 6094 6095 6096 6097 6098 6099 6100 6101 
6102 6103 6104 6105 6106 6107 6108 6109 6110 
6111 6112 6113 6114 6115 6116 6117 6118 6119 
6120 6121 6122 6123 6124 6125 6126 6127 6128 
6129 6130 6131 6132 6133 6134 6135 6136 6137 
6138 6139 6140 6141 6142 6143 6144 6145 6146 
6147 6148 6149 6150 6151 6152 6153 6154 6155 
6156 6157 6158 6159 6160 6161 6162 6163 6164 
6165 6166 6167 6168 6169 6170 6171 6172 6173 
6174 6175 6176 6177 6178 6179 6180 6181 6182 
6183 6184 6185 6186 6187 6188 6189 6190 6191 
6192 6193 6194 6195 6196 6197 6198 6199 6200 
6201 6202 6203 6204 6205 6206 6207 6208 6209 
6210 6211 6212 6213 6214 6215 6216 6217 6218 
6219 6220 6221 6222 6223 6224 6225 6226 6227 
6228 6229 6230 6231 6232 6233 6234 6235 6236 
6237 6238 6239 6240 6241 6242 6243 6244 6245 
6246 6247 6248 6249 6250 6251 6252 6253 6254 
6255 6256 6257 6258 6259 6260 6261 6262 6263 
6264 6265 6266 6267 6268 6269 6270 6271 6272 
6273 6274 6275 6276 6277 6278 6279 6280 6281 
6282 6283 6284 6285 6286 6287 6288 6289 6290 
6291 6292 6293 6294 6295 6296 6297 6298 6299 
6300 6301 6302 6303 6304 6305 6306 6307 6308 
6309 6310 6311 6312 6313 6314 6315 6316 6317 
6318 6319 6320 6321 6322 6323 6324 6325 6326 
6327 6328 6329 6330 6331 6332 6333 6334 6335 
6336 6337 6338 6339 6340 6341 6342 6343 6344 
6345 6346 6347 6348 6349 6350 6351 6352 6353 
6354 6355 6356 6357 6358 6359 6360 6361 6362 
6363 6364 6365 6366 6367 6368 6369 6370 6371 
6372 6373 6374 6375 6376 6377 6378 6379 6380 
6381 6382 6383 6384 6385 6386 6387 6388 6389 
6390 6391 6392 6393 6394 6395 6396 6397 6398 
6399 6400 6401 6402 6403 6404 6405 6406 6407 
6408 6409 6410 6411 6412 6413 6414 6415 6416 
6417 6418 6419 6420 6421 6422 6423 6424 6425 
6426 6427 6428 6429 6430 6431 6432 6433 6434 
6435 6436 6437 6438 6439 6440 6441 6442 6443 
6444 6445 6446 6447 6448 6449 6450 6451 6452 
6453 6454 6455 6456 6457 6458 6459 6460 6461 
6462 6463 6464 6465 6466 6467 6468 6469 6470 
6471 6472 6473 6474 6475 6476 6477 6478 6479 
6480 6481 6482 6483 6484 6485 6486 6487 6488 
6489 6490 6491 6492 6493 6494 6495 6496 6497 
6498 6499 6500 6501 6502 6503 6504 6505 6506 
6507 6508 6509 6510 6511 6512 6513 6514 6515 
6516 6517 6518 6519 6520 6521 6522 6523 6524 
6525 6526 6527 6528 6529 6530 6531 6532 6533 
6534 6535 6536 6537 6538 6539 6540 6541 6542 
6543 6544 6545 6546 6547 6548 6549 6550 6551 
6552 6553 6554 6555 6556 6557 6558 6559 6560 
6561 6562 6563 6564 6565 6566 6567 6568 6569 
6570 6571 6572 6573 6574 6575 6576 6577 6578 
6579 6580 6581 6582 6583 6584 6585 6586 6587 
6588 6589 6590 6591 6592 6593 6594 6595 6596 
6597 6598 6599 6600 6601 6602 6603 6604 6605 
6606 6607 6608 6609 6610 6611 6612 6613 6614 
6615 6616 6617 6618 6619 6620 6621 6622 6623 
6624 6625 6626 6627 6628 6629 6630 6631 6632 
6633 6634 6635 6636 6637 6638 6639 6640 6641 
6642 6643 6644 6645 6646 6647 6648 6649 6650 
6651 6652 6653 6654 6655 6656 6657 6658 6659 
6660 6661 6662 6663 6664 6665 6666 6667 6668 
6669 6670 6671 6672 6673 6674 6675 6676 6677 
6678 6679 6680 6681 6682 6683 6684 6685 6686 
6687 6688 6689 6690 6691 6692 6693 6694 6695 
6696 6697 6698 6699 6700 6701 6702 6703 6704 
6705 6706 6707 6708 6709 6710 6711 6712 6713 
6714 6715 6716 6717 6718 6719 6720 6721 6722 
6723 6724 6725 6726 6727 6728 6729 6730 6731 
6732 6733 6734 6735 6736 6737 6738 6739 6740 
6741 6742 6743 6744 6745 6746 6747 6748 6749 
6750 6751 6752 6753 6754 6755 6756 6757 6758 
6759 6760 6761 6762 6763 6764 6765 6766 6767 
6768 6769 6770 6771 6772 6773 6774 6775 6776 
6777 6778 6779 6780 6781 6782 6783 6784 6785 
6786 6787 6788 6789 6790 6791 6792 6793 6794 
6795 6796 6797 6798 6799 6800 6801 6802 6803 
6804 6805 6806 6807 6808 6809 6810 6811 6812 
6813 6814 6815 6816 6817 6818 6819 6820 6821 
6822 6823 6824 6825 6826 6827 6828 6829 6830 
6831 6832 6833 6834 6835 6836 6837 6838 6839 
6840 6841 6842 6843 6844 6845 6846 6847 6848 
6849 6850 6851 6852 6853 6854 6855 6856 6857 
6858 6859 6860 6861 6862 6863 6864 6865 6866 
6867 6868 6869 6870 6871 6872 6873 6874 6875 
6876 6877 6878 6879 6880 6881 6882 6883 6884 
6885 6886 6887 6888 6889 6890 6891 6892 6893 
6894 6895 6896 6897 6898 6899 6900 6901 6902 
6903 6904 6905 6906 6907 6908 6909 6910 6911 
6912 6913 6914 6915 6916 6917 6918 6919 6920 
6921 6922 6923 6924 6925 6926 6927 6928 6929 
6930 6931 6932 6933 6934 6935 6936 6937 6938 
6939 6940 6941 6942 6943 6944 6945 6946 6947 
6948 6949 6950 6951 6952 6953 6954 6955 6956 
6957 6958 6959 6960 6961 6962 6963 6964 6965 
6966 6967 6968 6969 6970 6971 6972 6973 6974 
6975 6976 6977 6978 6979 6980 6981 6982 6983 
6984 6985 6986 6987 6988 6989 6990 6991 6992 
6993 6994 6995 6996 6997 6998 6999 7000 7001 
7002 7003 7004 7005 7006 7007 7008 7009 7010 
7011 7012 7013 7014 7015 7016 7017 7018 7019 
7020 7021 7022 7023 7024 7025 7026 7027 7028 
7029 7030 7031 7032 7033 7034 7035 7036 7037 
7038 7039 7040 7041 7042 7043 7044 7045 7046 
7047 7048 7049 7050 7051 7052 7053 7054 7055 
7056 7057 7058 7059 7060 7061 7062 7063 7064 
7065 7066 7067 7068 7069 7070 7071 7072 7073 
7074 7075 7076 7077 7078 7079 7080 7081 7082 
7083 7084 7085 7086 7087 7088 7089 7090 7091 
7092 7093 7094 7095 7096 7097 7098 7099 7100 
7101 7102 7103 7104 7105 7106 7107 7108 7109 
7110 7111 7112 7113 7114 7115 7116 7117 7118 
7119 7120 7121 7122 7123 7124 7125 7126 7127 
7128 7129 7130 7131 7132 7133 7134 7135 7136 
7137 7138 7139 7140 7141 7142 7143 7144 7145 
7146 7147 7148 7149 7150 7151 7152 7153 7154 
7155 7156 7157 7158 7159 7160 7161 7162 7163 
7164 7165 7166 7167 7168 7169 7170 7171 7172 
7173 7174 7175 7176 7177 7178 7179 7180 7181 
7182 7183 7184 7185 7186 7187 7188 7189 7190 
7191 7192 7193 7194 7195 7196 7197 7198 7199 
7200 7201 7202 7203 7204 7205 7206 7207 7208 
7209 7210 7211 7212 7213 7214 7215 7216 7217 
7218 7219 7220 7221 7222 7223 7224 7225 7226 
7227 7228 7229 7230 7231 7232 7233 7234 7235 
7236 7237 7238 7239 7240 7241 7242 7243 7244 
7245 7246 7247 7248 7249 7250 7251 7252 7253 
7254 7255 7256 7257 7258 7259 7260 7261 7262 
7263 7264 7265 7266 7267 7268 7269 7270 7271 
7272 7273 7274 7275 7276 7277 7278 7279 7280 
7281 7282 7283 7284 7285 7286 7287 7288 7289 
7290 7291 7292 7293 7294 7295 7296 7297 7298 
7299 7300 7301 7302 7303 7304 7305 7306 7307 
7308 7309 7310 7311 7312 7313 7314 7315 7316 
7317 7318 7319 7320 7321 7322 7323 7324 7325 
7326 7327 7328 7329 7330 7331 7332 7333 7334 
7335 7336 7337 7338 7339 7340 7341 7342 7343 
7344 7345 7346 7347 7348 7349 7350 7351 7352 
7353 7354 7355 7356 7357 7358 7359 7360 7361 
7362 7363 7364 7365 7366 7367 7368 7369 7370 
7371 7372 7373 7374 7375 7376 7377 7378 7379 
7380 7381 7382 7383 7384 7385 7386 7387 7388 
7389 7390 7391 7392 7393 7394 7395 7396 7397 
7398 7399 7400 7401 7402 7403 7404 7405 7406 
7407 7408 7409 7410 7411 7412 7413 7414 7415 
7416 7417 7418 7419 7420 7421 7422 7423 7424 
7425 7426 7427 7428 7429 7430 7431 7432 7433 
7434 7435 7436 7437 7438 7439 7440 7441 7442 
7443 7444 7445 7446 7447 7448 7449 7450 7451 
7452 7453 7454 7455 7456 7457 7458 7459 7460 
7461 7462 7463 7464 7465 7466 7467 7468 7469 
7470 7471 7472 7473 7474 7475 7476 7477 7478 
7479 7480 7481 7482 7483 7484 7485 7486 7487 
7488 7489 7490 7491 7492 7493 7494 7495 7496 
7497 7498 7499 7500 7501 7502 7503 7504 7505 
7506 7507 7508 7509 7510 7511 7512 7513 7514 
7515 7516 7517 7518 7519 7520 7521 7522 7523 
7524 7525 7526 7527 7528 7529 7530 7531 7532 
7533 7534 7535 7536 7537 7538 7539 7540 7541 
7542 7543 7544 7545 7546 7547 7548 7549 7550 
7551 7552 7553 7554 7555 7556 7557 7558 7559 
7560 7561 7562 7563 7564 7565 7566 7567 7568 
7569 7570 7571 7572 7573 7574 7575 7576 7577 
7578 7579 7580 7581 7582 7583 7584 7585 7586 
7587 7588 7589 7590 7591 7592 7593 7594 7595 
7596 7597 7598 7599 7600 7601 7602 7603 7604 
7605 7606 7607 7608 7609 7610 7611 7612 7613 
7614 7615 7616 7617 7618 7619 7620 7621 7622 
7623 7624 7625 7626 7627 7628 7629 7630 7631 
7632 7633 7634 7635 7636 7637 7638 7639 7640 
7641 7642 7643 7644 7645 7646 7647 7648 7649 
7650 7651 7652 7653 7654 7655 7656 7657 7658 
7659 7660 7661 7662 7663 7664 7665 7666 7667 
7668 7669 7670 7671 7672 7673 7674 7675 7676 
7677 7678 7679 7680 7681 7682 7683 7684 7685 
7686 7687 7688 7689 7690 7691 7692 7693 7694 
7695 7696 7697 7698 7699 7700 7701 7702 7703 
7704 7705 7706 7707 7708 7709 7710 7711 7712 
7713 7714 7715 7716 7717 7718 7719 7720 7721 
7722 7723 7724 7725 7726 7727 7728 7729 7730 
7731 7732 7733 7734 7735 7736 7737 7738 7739 
7740 7741 7742 7743 7744 7745 7746 7747 7748 
7749 7750 7751 7752 7753 7754 7755 7756 7757 
7758 7759 7760 7761 7762 7763 7764 7765 7766 
7767 7768 7769 7770 7771 7772 7773 7774 7775 
7776 7777 7778 7779 7780 7781 7782 7783 7784 
7785 7786 7787 7788 7789 7790 7791 7792 7793 
7794 7795 7796 7797 7798 7799 7800 7801 7802 
7803 7804 7805 7806 7807 7808 7809 7810 7811 
7812 7813 7814 7815 7816 7817 7818 7819 7820 
7821 7822 7823 7824 7825 7826 7827 7828 7829 
7830 7831 7832 7833 7834 7835 7836 7837 7838 
7839 7840 7841 7842 7843 7844 7845 7846 7847 
7848 7849 7850 7851 7852 7853 7854 7855 7856 
7857 7858 7859 7860 7861 7862 7863 7864 7865 
7866 7867 7868 7869 7870 7871 7872 7873 7874 
7875 7876 7877 7878 7879 7880 7881 7882 7883 
7884 7885 7886 7887 7888 7889 7890 7891 7892 
7893 7894 7895 7896 7897 7898 7899 7900 7901 
7902 7903 7904 7905 7906 7907 7908 7909 7910 
7911 7912 7913 7914 7915 7916 7917 7918 7919 
7920 7921 7922 7923 7924 7925 7926 7927 7928 
7929 7930 7931 7932 7933 7934 7935 7936 7937 
7938 7939 7940 7941 7942 7943 7944 7945 7946 
7947 7948 7949 7950 7951 7952 7953 7954 7955 
7956 7957 7958 7959 7960 7961 7962 7963 7964 
7965 7966 7967 7968 7969 7970 7971 7972 7973 
7974 7975 7976 7977 7978 7979 7980 7981 7982 
7983 7984 7985 7986 7987 7988 7989 7990 7991 
7992 7993 7994 7995 7996 7997 7998 7999 8000 
8001 8002 8003 8004 8005 8006 8007 8008 8009 
8010 8011 8012 8013 8014 8015 8016 8017 8018 
8019 8020 8021 8022 8023 8024 8025 8026 8027 
8028 8029 8030 8031 8032 8033 8034 8035 8036 
8037 8038 8039 8040 8041 8042 8043 8044 8045 
8046 8047 8048 8049 8050 8051 8052 8053 8054 
8055 8056 8057 8058 8059 8060 8061 8062 8063 
8064 8065 8066 8067 8068 8069 8070 8071 8072 
8073 8074 8075 8076 8077 8078 8079 8080 8081 
8082 8083 8084 8085 8086 8087 8088 8089 8090 
8091 8092 8093 8094 8095 8096 8097 8098 8099 
8100 8101 8102 8103 8104 8105 8106 8107 8108 
8109 8110 8111 8112 8113 8114 8115 8116 8117 
8118 8119 8120 8121 8122 8123 8124 8125 8126 
8127 8128 8129 8130 8131 8132 8133 8134 8135 
8136 8137 8138 8139 8140 8141 8142 8143 8144 
8145 8146 8147 8148 8149 8150 8151 8152 8153 
8154 8155 8156 8157 8158 8159 8160 8161 8162 
8163 8164 8165 8166 8167 8168 8169 8170 8171 
8172 8173 8174 8175 8176 8177 8178 8179 8180 
8181 8182 8183 8184 8185 8186 8187 8188 8189 
8190 8191 8192 8193 8194 8195 8196 8197 8198 
8199 8200 8201 8202 8203 8204 8205 8206 8207 
8208 8209 8210 8211 8212 8213 8214 8215 8216 
8217 8218 8219 8220 8221 8222 8223 8224 8225 
8226 8227 8228 8229 8230 8231 8232 8233 8234 
8235 8236 8237 8238 8239 8240 8241 8242 8243 
8244 8245 8246 8247 8248 8249 8250 8251 8252 
8253 8254 8255 8256 8257 8258 8259 8260 8261 
8262 8263 8264 8265 8266 8267 8268 8269 8270 
8271 8272 8273 8274 8275 8276 8277 8278 8279 
8280 8281 8282 8283 8284 8285 8286 8287 8288 
8289 8290 8291 8292 8293 8294 8295 8296 8297 
8298 8299 8300 8301 8302 8303 8304 8305 8306 
8307 8308 8309 8310 8311 8312 8313 8314 8315 
8316 8317 8318 8319 8320 8321 8322 8323 8324 
8325 8326 8327 8328 8329 8330 8331 8332 8333 
8334 8335 8336 8337 8338 8339 8340 8341 8342 
8343 8344 8345 8346 8347 8348 8349 8350 8351 
8352 8353 8354 8355 8356 8357 8358 8359 8360 
8361 8362 8363 8364 8365 8366 8367 8368 8369 
8370 8371 8372 8373 8374 8375 8376 8377 8378 
8379 8380 8381 8382 8383 8384 8385 8386 8387 
8388 8389 8390 8391 8392 8393 8394 8395 8396 
8397 8398 8399 8400 8401 8402 8403 8404 8405 
8406 8407 8408 8409 8410 8411 8412 8413 8414 
8415 8416 8417 8418 8419 8420 8421 8422 8423 
8424 8425 8426 8427 8428 8429 8430 8431 8432 
8433 8434 8435 8436 8437 8438 8439 8440 8441 
8442 8443 8444 8445 8446 8447 8448 8449 8450 
8451 8452 8453 8454 8455 8456 8457 8458 8459 
8460 8461 8462 8463 8464 8465 8466 8467 8468 
8469 8470 8471 8472 8473 8474 8475 8476 8477 
8478 8479 8480 8481 8482 8483 8484 8485 8486 
8487 8488 8489 8490 8491 8492 8493 8494 8495 
8496 8497 8498 8499 8500 8501 8502 8503 8504 
8505 8506 8507 8508 8509 8510 8511 8512 8513 
8514 8515 8516 8517 8518 8519 8520 8521 8522 
8523 8524 8525 8526 8527 8528 8529 8530 8531 
8532 8533 8534 8535 8536 8537 8538 8539 8540 
8541 8542 8543 8544 8545 8546 8547 8548 8549 
8550 8551 8552 8553 8554 8555 8556 8557 8558 
8559 8560 8561 8562 8563 8564 8565 8566 8567 
8568 8569 8570 8571 8572 8573 8574 8575 8576 
8577 8578 8579 8580 8581 8582 8583 8584 8585 
8586 8587 8588 8589 8590 8591 8592 8593 8594 
8595 8596 8597 8598 8599 8600 8601 8602 8603 
8604 8605 8606 8607 8608 8609 8610 8611 8612 
8613 8614 8615 8616 8617 8618 8619 8620 8621 
8622 8623 8624 8625 8626 8627 8628 8629 8630 
8631 8632 8633 8634 8635 8636 8637 8638 8639 
8640 8641 8642 8643 8644 8645 8646 8647 8648 
8649 8650 8651 8652 8653 8654 8655 8656 8657 
8658 8659 8660 8661 8662 8663 8664 8665 8666 
8667 8668 8669 8670 8671 8672 8673 8674 8675 
8676 8677 8678 8679 8680 8681 8682 8683 8684 
8685 8686 8687 8688 8689 8690 8691 8692 8693 
8694 8695 8696 8697 8698 8699 8700 8701 8702 
8703 8704 8705 8706 8707 8708 8709 8710 8711 
8712 8713 8714 8715 8716 8717 8718 8719 8720 
8721 8722 8723 8724 8725 8726 8727 8728 8729 
8730 8731 8732 8733 8734 8735 8736 8737 8738 
8739 8740 8741 8742 8743 8744 8745 8746 8747 
8748 8749 8750 8751 8752 8753 8754 8755 8756 
8757 8758 8759 8760 8761 8762 8763 8764 8765 
8766 8767 8768 8769 8770 8771 8772 8773 8774 
8775 8776 8777 8778 8779 8780 8781 8782 8783 
8784 8785 8786 8787 8788 8789 8790 8791 8792 
8793 8794 8795 8796 8797 8798 8799 8800 8801 
8802 8803 8804 8805 8806 8807 8808 8809 8810 
8811 8812 8813 8814 8815 8816 8817 8818 8819 
8820 8821 8822 8823 8824 8825 8826 8827 8828 
8829 8830 8831 8832 8833 8834 8835 8836 8837 
8838 8839 8840 8841 8842 8843 8844 8845 8846 
8847 8848 8849 8850 8851 8852 8853 8854 8855 
8856 8857 8858 8859 8860 8861 8862 8863 8864 
8865 8866 8867 8868 8869 8870 8871 8872 8873 
8874 8875 8876 8877 8878 8879 8880 8881 8882 
8883 8884 8885 8886 8887 8888 8889 8890 8891 
8892 8893 8894 8895 8896 8897 8898 8899 8900 
8901 8902 8903 8904 8905 8906 8907 8908 8909 
8910 8911 8912 8913 8914 8915 8916 8917 8918 
8919 8920 8921 8922 8923 8924 8925 8926 8927 
8928 8929 8930 8931 8932 8933 8934 8935 8936 
8937 8938 8939 8940 8941 8942 8943 8944 8945 
8946 8947 8948 8949 8950 8951 8952 8953 8954 
8955 8956 8957 8958 8959 8960 8961 8962 8963 
8964 8965 8966 8967 8968 8969 8970 8971 8972 
8973 8974 8975 8976 8977 8978 8979 8980 8981 
8982 8983 8984 8985 8986 8987 8988 8989 8990 
8991 8992 8993 8994 8995 8996 8997 8998 8999 
9000 9001 9002 9003 9004 9005 9006 9007 9008 
9009 9010 9011 9012 9013 9014 9015 9016 9017 
9018 9019 9020 9021 9022 9023 9024 9025 9026 
9027 9028 9029 9030 9031 9032 9033 9034 9035 
9036 9037 9038 9039 9040 9041 9042 9043 9044 
9045 9046 9047 9048 9049 9050 9051 9052 9053 
9054 9055 9056 9057 9058 9059 9060 9061 9062 
9063 9064 9065 9066 9067 9068 9069 9070 9071 
9072 9073 9074 9075 9076 9077 9078 9079 9080 
9081 9082 9083 9084 9085 9086 9087 9088 9089 
9090 9091 9092 9093 9094 9095 9096 9097 9098 
9099 9100 9101 9102 9103 9104 9105 9106 9107 
9108 9109 9110 9111 9112 9113 9114 9115 9116 
9117 9118 9119 9120 9121 9122 9123 9124 9125 
9126 9127 9128 9129 9130 9131 9132 9133 9134 
9135 9136 9137 9138 9139 9140 9141 9142 9143 
9144 9145 9146 9147 9148 9149 9150 9151 9152 
9153 9154 9155 9156 9157 9158 9159 9160 9161 
9162 9163 9164 9165 9166 9167 9168 9169 9170 
9171 9172 9173 9174 9175 9176 9177 9178 9179 
9180 9181 9182 9183 9184 9185 9186 9187 9188 
9189 9190 9191 9192 9193 9194 9195 9196 9197 
9198 9199 9200 9201 9202 9203 9204 9205 9206 
9207 9208 9209 9210 9211 9212 9213 9214 9215 
9216 9217 9218 9219 9220 9221 9222 9223 9224 
9225 9226 9227 9228 9229 9230 9231 9232 9233 
9234 9235 9236 9237 9238 9239 9240 9241 9242 
9243 9244 9245 9246 9247 9248 9249 9250 9251 
9252 9253 9254 9255 9256 9257 9258 9259 9260 
9261 9262 9263 9264 9265 9266 9267 9268 9269 
9270 9271 9272 9273 9274 9275 9276 9277 9278 
9279 9280 9281 9282 9283 9284 9285 9286 9287 
9288 9289 9290 9291 9292 9293 9294 9295 9296 
9297 9298 9299 9300 9301 9302 9303 9304 9305 
9306 9307 9308 9309 9310 9311 9312 9313 9314 
9315 9316 9317 9318 9319 9320 9321 9322 9323 
9324 9325 9326 9327 9328 9329 9330 9331 9332 
9333 9334 9335 9336 9337 9338 9339 9340 9341 
9342 9343 9344 9345 9346 9347 9348 9349 9350 
9351 9352 9353 9354 9355 9356 9357 9358 9359 
9360 9361 9362 9363 9364 9365 9366 9367 9368 
9369 9370 9371 9372 9373 9374 9375 9376 9377 
9378 9379 9380 9381 9382 9383 9384 9385 9386 
9387 9388 9389 9390 9391 9392 9393 9394 9395 
9396 9397 9398 9399 9400 9401 9402 9403 9404 
9405 9406 9407 9408 9409 9410 9411 9412 9413 
9414 9415 9416 9417 9418 9419 9420 9421 9422 
9423 9424 9425 9426 9427 9428 9429 9430 9431 
9432 9433 9434 9435 9436 9437 9438 9439 9440 
9441 9442 9443 9444 9445 9446 9447 9448 9449 
9450 9451 9452 9453 9454 9455 9456 9457 9458 
9459 9460 9461 9462 9463 9464 9465 9466 9467 
9468 9469 9470 9471 9472 9473 9474 9475 9476 
9477 9478 9479 9480 9481 9482 9483 9484 9485 
9486 9487 9488 9489 9490 9491 9492 9493 9494 
9495 9496 9497 9498 9499 9500 9501 9502 9503 
9504 9505 9506 9507 9508 9509 9510 9511 9512 
9513 9514 9515 9516 9517 9518 9519 9520 9521 
9522 9523 9524 9525 9526 9527 9528 9529 9530 
9531 9532 9533 9534 9535 9536 9537 9538 9539 
9540 9541 9542 9543 9544 9545 9546 9547 9548 
9549 9550 9551 9552 9553 9554 9555 9556 9557 
9558 9559 9560 9561 9562 9563 9564 9565 9566 
9567 9568 9569 9570 9571 9572 9573 9574 9575 
9576 9577 9578 9579 9580 9581 9582 9583 9584 
9585 9586 9587 9588 9589 9590 9591 9592 9593 
9594 9595 9596 9597 9598 9599 9600 9601 9602 
9603 9604 9605 9606 9607 9608 9609 9610 9611 
9612 9613 9614 9615 9616 9617 9618 9619 9620 
9621 9622 9623 9624 9625 9626 9627 9628 9629 
9630 9631 9632 9633 9634 9635 9636 9637 9638 
9639 9640 9641 9642 9643 9644 9645 9646 9647 
9648 9649 9650 9651 9652 9653 9654 9655 9656 
9657 9658 9659 9660 9661 9662 9663 9664 9665 
9666 9667 9668 9669 9670 9671 9672 9673 9674 
9675 9676 9677 9678 9679 9680 9681 9682 9683 
9684 9685 9686 9687 9688 9689 9690 9691 9692 
9693 9694 9695 9696 9697 9698 9699 9700 9701 
9702 9703 9704 9705 9706 9707 9708 9709 9710 
9711 9712 9713 9714 9715 9716 9717 9718 9719 
9720 9721 9722 9723 9724 9725 9726 9727 9728 
9729 9730 9731 9732 9733 9734 9735 9736 9737 
9738 9739 9740 9741 9742 9743 9744 9745 9746 
9747 9748 9749 9750 9751 9752 9753 9754 9755 
9756 9757 9758 9759 9760 9761 9762 9763 9764 
9765 9766 9767 9768 9769 9770 9771 9772 9773 
9774 9775 9776 9777 9778 9779 9780 9781 9782 
9783 9784 9785 9786 9787 9788 9789 9790 9791 
9792 9793 9794 9795 9796 9797 9798 9799 9800 
9801 9802 9803 9804 9805 9806 9807 9808 9809 
9810 9811 9812 9813 9814 9815 9816 9817 9818 
9819 9820 9821 9822 9823 9824 9825 9826 9827 
9828 9829 9830 9831 9832 9833 9834 9835 9836 
9837 9838 9839 9840 9841 9842 9843 9844 9845 
9846 9847 9848 9849 9850 9851 9852 9853 9854 
9855 9856 9857 9858 9859 9860 9861 9862 9863 
9864 9865 9866 9867 9868 9869 9870 9871 9872 
9873 9874 9875 9876 9877 9878 9879 9880 9881 
9882 9883 9884 9885 9886 9887 9888 9889 9890 
9891 9892 9893 9894 9895 9896 9897 9898 9899 
9900 9901 9902 9903 9904 9905 9906 9907 9908 
9909 9910 9911 9912 9913 9914 9915 9916 9917 
9918 9919 9920 9921 9922 9923 9924 9925 9926 
9927 9928 9929 9930 9931 9932 9933 9934 9935 
9936 9937 9938 9939 9940 9941 9942 9943 9944 
9945 9946 9947 9948 9949 9950 9951 9952 9953 
9954 9955 9956 9957 9958 9959 9960 9961 9962 
9963 9964 9965 9966 9967 9968 9969 9970 9971 
9972 9973 9974 9975 9976 9977 9978 9979 9980 
9981 9982 9983 9984 9985 9986 9987 9988 9989 
9990 9991 9992 9993 9994 9995 9996 9997 9998 
9999 10000 10001 10002 10003 10004 10005 10006 10007 
10008 10009 10010 10011 10012 10013 10014 10015 10016 
10017 10018 10019 10020 10021 10022 10023 10024 10025 
10026 10027 10028 10029 10030 10031 10032 10033 10034 
10035 10036 10037 10038 10039 10040 10041 10042 10043 
10044 10045 10046 10047 10048 10049 10050 10051 10052 
10053 10054 10055 10056 10057 10058 10059 10060 10061 
10062 10063 10064 10065 10066 10067 10068 10069 10070 
10071 10072 10073 10074 10075 10076 10077 10078 10079 
10080 10081 10082 10083 10084 10085 10086 10087 10088 
10089 10090 10091 10092 10093 10094 10095 10096 10097 
10098 10099 10100 10101 10102 10103 10104 10105 10106 
10107 10108 10109 10110 10111 10112 10113 10114 10115 
10116 10117 10118 10119 10120 10121 10122 10123 10124 
10125 10126 10127 10128 10129 10130 10131 10132 10133 
10134 10135 10136 10137 10138 10139 10140 10141 10142 
10143 10144 10145 10146 10147 10148 10149 10150 10151 
10152 10153 10154 10155 10156 10157 10158 10159 10160 
10161 10162 10163 10164 10165 10166 10167 10168 10169 
10170 10171 10172 10173 10174 10175 10176 10177 10178 
10179 10180 10181 10182 10183 10184 10185 10186 10187 
10188 10189 10190 10191 10192 10193 10194 10195 10196 
10197 10198 10199 10200 10201 10202 10203 10204 10205 
10206 10207 10208 10209 10210 10211 10212 10213 10214 
10215 10216 10217 10218 10219 10220 10221 10222 10223 
10224 10225 10226 10227 10228 10229 10230 10231 10232 
10233 10234 10235 10236 10237 10238 10239 10240 10241 
10242 10243 10244 10245 10246 10247 10248 10249 10250 
10251 10252 10253 10254 10255 10256 10257 10258 10259 
10260 10261 10262 10263 10264 10265 10266 10267 10268 
10269 10270 10271 10272 10273 10274 10275 10276 10277 
10278 10279 10280 10281 10282 10283 10284 10285 10286 
10287 10288 10289 10290 10291 10292 10293 10294 10295 
10296 10297 10298 10299 10300 10301 10302 10303 10304 
10305 10306 10307 10308 10309 10310 10311 10312 10313 
10314 10315 10316 10317 10318 10319 10320 10321 10322 
10323 10324 10325 10326 10327 10328 10329 10330 10331 
10332 10333 10334 10335 10336 10337 10338 10339 10340 
10341 10342 10343 10344 10345 10346 10347 10348 10349 
10350 10351 10352 10353 10354 10355 10356 10357 10358 
10359 10360 10361 10362 10363 10364 10365 10366 10367 
10368 10369 10370 10371 10372 10373 10374 10375 10376 
10377 10378 10379 10380 10381 10382 10383 10384 10385 
10386 10387 10388 10389 10390 10391 10392 10393 10394 
10395 10396 10397 10398 10399 10400 10401 10402 10403 
10404 10405 10406 10407 10408 10409 10410 10411 10412 
10413 10414 10415 10416 10417 10418 10419 10420 10421 
10422 10423 10424 10425 10426 10427 10428 10429 10430 
10431 10432 10433 10434 10435 10436 10437 10438 10439 
10440 10441 10442 10443 10444 10445 10446 10447 10448 
10449 10450 10451 10452 10453 10454 10455 10456 10457 
10458 10459 10460 10461 10462 10463 10464 10465 10466 
10467 10468 10469 10470 10471 10472 10473 10474 10475 
10476 10477 10478 10479 10480 10481 10482 10483 10484 
10485 10486 10487 10488 10489 10490 10491 10492 10493 
10494 10495 10496 10497 10498 10499 10500 10501 10502 
10503 10504 10505 10506 10507 10508 10509 10510 10511 
10512 10513 10514 10515 10516 10517 10518 10519 10520 
10521 10522 10523 10524 10525 10526 10527 10528 10529 
10530 10531 10532 10533 10534 10535 10536 10537 10538 
10539 10540 10541 10542 10543 10544 10545 10546 10547 
10548 10549 10550 10551 10552 10553 10554 10555 10556 
10557 10558 10559 10560 10561 10562 10563 10564 10565 
10566 10567 10568 10569 10570 10571 10572 10573 10574 
10575 10576 10577 10578 10579 10580 10581 10582 10583 
10584 10585 10586 10587 10588 10589 10590 10591 10592 
10593 10594 10595 10596 10597 10598 10599 10600 10601 
10602 10603 10604 10605 10606 10607 10608 10609 10610 
10611 10612 10613 10614 10615 10616 10617 10618 10619 
10620 10621 10622 10623 10624 10625 10626 10627 10628 
10629 10630 10631 10632 10633 10634 10635 10636 10637 
10638 10639 10640 10641 10642 10643 10644 10645 10646 
10647 10648 10649 10650 10651 10652 10653 10654 10655 
10656 10657 10658 10659 10660 10661 10662 10663 10664 
10665 10666 10667 10668 10669 10670 10671 10672 10673 
10674 10675 10676 10677 10678 10679 10680 10681 10682 
10683 10684 10685 10686 10687 10688 10689 10690 10691 
10692 10693 10694 10695 10696 10697 10698 10699 10700 
10701 10702 10703 10704 10705 10706 10707 10708 10709 
10710 10711 10712 10713 10714 10715 10716 10717 10718 
10719 10720 10721 10722 10723 10724 10725 10726 10727 
10728 10729 10730 10731 10732 10733 10734 10735 10736 
10737 10738 10739 10740 10741 10742 10743 10744 10745 
10746 10747 10748 10749 10750 10751 10752 10753 10754 
10755 10756 10757 10758 10759 10760 10761 10762 10763 
10764 10765 10766 10767 10768 10769 10770 10771 10772 
10773 10774 10775 10776 10777 10778 10779 10780 10781 
10782 10783 10784 10785 10786 10787 10788 10789 10790 
10791 10792 10793 10794 10795 10796 10797 10798 10799 
10800 10801 10802 10803 10804 10805 10806 10807 10808 
10809 10810 10811 10812 10813 10814 10815 10816 10817 
10818 10819 10820 10821 10822 10823 10824 10825 10826 
10827 10828 10829 10830 10831 10832 10833 10834 10835 
10836 10837 10838 10839 10840 10841 10842 10843 10844 
10845 10846 10847 10848 10849 10850 10851 10852 10853 
10854 10855 10856 10857 10858 10859 10860 10861 10862 
10863 10864 10865 10866 10867 10868 10869 10870 10871 
10872 10873 10874 10875 10876 10877 10878 10879 10880 
10881 10882 10883 10884 10885 10886 10887 10888 10889 
10890 10891 10892 10893 10894 10895 10896 10897 10898 
10899 10900 10901 10902 10903 10904 10905 10906 10907 
10908 10909 10910 10911 10912 10913 10914 10915 10916 
10917 10918 10919 10920 10921 10922 10923 10924 10925 
10926 10927 10928 10929 10930 10931 10932 10933 10934 
10935 10936 10937 10938 10939 10940 10941 10942 10943 
10944 10945 10946 10947 10948 10949 10950 10951 10952 
10953 10954 10955 10956 10957 10958 10959 10960 10961 
10962 10963 10964 10965 10966 10967 10968 10969 10970 
10971 10972 10973 10974 10975 10976 10977 10978 10979 
10980 10981 10982 10983 10984 10985 10986 10987 10988 
10989 10990 10991 10992 10993 10994 10995 10996 10997 
10998 10999 11000 11001 11002 11003 11004 11005 11006 
11007 11008 11009 11010 11011 11012 11013 11014 11015 
11016 11017 11018 11019 11020 11021 11022 11023 11024 
11025 11026 11027 11028 11029 11030 11031 11032 11033 
11034 11035 11036 11037 11038 11039 11040 11041 11042 
11043 11044 11045 11046 11047 11048 11049 11050 11051 
11052 11053 11054 11055 11056 11057 11058 11059 11060 
11061 11062 11063 11064 11065 11066 11067 11068 11069 
11070 11071 11072 11073 11074 11075 11076 11077 11078 
11079 11080 11081 11082 11083 11084 11085 11086 11087 
11088 11089 11090 11091 11092 11093 11094 11095 11096 
11097 11098 11099 11100 11101 11102 11103 11104 11105 
11106 11107 11108 11109 11110 11111 11112 11113 11114 
11115 11116 11117 11118 11119 11120 11121 11122 11123 
11124 11125 11126 11127 11128 11129 11130 11131 11132 
11133 11134 11135 11136 11137 11138 11139 11140 11141 
11142 11143 11144 11145 11146 11147 11148 11149 11150 
11151 11152 11153 11154 11155 11156 11157 11158 11159 
11160 11161 11162 11163 11164 11165 11166 11167 11168 
11169 11170 11171 11172 11173 11174 11175 11176 11177 
11178 11179 11180 11181 11182 11183 11184 11185 11186 
11187 11188 11189 11190 11191 11192 11193 11194 11195 
11196 11197 11198 11199 11200 11201 11202 11203 11204 
11205 11206 11207 11208 11209 11210 11211 11212 11213 
11214 11215 11216 11217 11218 11219 11220 11221 11222 
11223 11224 11225 11226 11227 11228 11229 11230 11231 
11232 11233 11234 11235 11236 11237 11238 11239 11240 
11241 11242 11243 11244 11245 11246 11247 11248 11249 
11250 11251 11252 11253 11254 11255 11256 11257 11258 
11259 11260 11261 11262 11263 11264 11265 11266 11267 
11268 11269 11270 11271 11272 11273 11274 11275 11276 
11277 11278 11279 11280 11281 11282 11283 11284 11285 
11286 11287 11288 11289 11290 11291 11292 11293 11294 
11295 11296 11297 11298 11299 11300 11301 11302 11303 
11304 11305 11306 11307 11308 11309 11310 11311 11312 
11313 11314 11315 11316 11317 11318 11319 11320 11321 
11322 11323 11324 11325 11326 11327 11328 11329 11330 
11331 11332 11333 11334 11335 11336 11337 11338 11339 
11340 11341 11342 11343 11344 11345 11346 11347 11348 
11349 11350 11351 11352 11353 11354 11355 11356 11357 
11358 11359 11360 11361 11362 11363 11364 11365 11366 
11367 11368 11369 11370 11371 11372 11373 11374 11375 
11376 11377 11378 11379 11380 11381 11382 11383 11384 
11385 11386 11387 11388 11389 11390 11391 11392 11393 
11394 11395 11396 11397 11398 11399 11400 11401 11402 
11403 11404 11405 11406 11407 11408 11409 11410 11411 
11412 11413 11414 11415 11416 11417 11418 11419 11420 
11421 11422 11423 11424 11425 11426 11427 11428 11429 
11430 11431 11432 11433 11434 11435 11436 11437 11438 
11439 11440 11441 11442 11443 11444 11445 11446 11447 
11448 11449 11450 11451 11452 11453 11454 11455 11456 
11457 11458 11459 11460 11461 11462 11463 11464 11465 
11466 11467 11468 11469 11470 11471 11472 11473 11474 
11475 11476 11477 11478 11479 11480 11481 11482 11483 
11484 11485 11486 11487 11488 11489 11490 11491 11492 
11493 11494 11495 11496 11497 11498 11499 11500 11501 
11502 11503 11504 11505 11506 11507 11508 11509 11510 
11511 11512 11513 11514 11515 11516 11517 11518 11519 
11520 11521 11522 11523 11524 11525 11526 11527 11528 
11529 11530 11531 11532 11533 11534 11535 11536 11537 
11538 11539 11540 11541 11542 11543 11544 11545 11546 
11547 11548 11549 11550 11551 11552 11553 11554 11555 
11556 11557 11558 11559 11560 11561 11562 11563 11564 
11565 11566 11567 11568 11569 11570 11571 11572 11573 
11574 11575 11576 11577 11578 11579 11580 11581 11582 
11583 11584 11585 11586 11587 11588 11589 11590 11591 
11592 11593 11594 11595 11596 11597 11598 11599 11600 
11601 11602 11603 11604 11605 11606 11607 11608 11609 
11610 11611 11612 11613 11614 11615 11616 11617 11618 
11619 11620 11621 11622 11623 11624 11625 11626 11627 
11628 11629 11630 11631 11632 11633 11634 11635 11636 
11637 11638 11639 11640 11641 11642 11643 11644 11645 
11646 11647 11648 11649 11650 11651 11652 11653 11654 
11655 11656 11657 11658 11659 11660 11661 11662 11663 
11664 11665 11666 11667 11668 11669 11670 11671 11672 
11673 11674 11675 11676 11677 11678 11679 11680 11681 
11682 11683 11684 11685 11686 11687 11688 11689 11690 
11691 11692 11693 11694 11695 11696 11697 11698 11699 
11700 11701 11702 11703 11704 11705 11706 11707 11708 
11709 11710 11711 11712 11713 11714 11715 11716 11717 
11718 11719 11720 11721 11722 11723 11724 11725 11726 
11727 11728 11729 11730 11731 11732 11733 11734 11735 
11736 11737 11738 11739 11740 11741 11742 11743 11744 
11745 11746 11747 11748 11749 11750 11751 11752 11753 
11754 11755 11756 11757 11758 11759 11760 11761 11762 
11763 11764 11765 11766 11767 11768 11769 11770 11771 
11772 11773 11774 11775 11776 11777 11778 11779 11780 
11781 11782 11783 11784 11785 11786 11787 11788 11789 
11790 11791 11792 11793 11794 11795 11796 11797 11798 
11799 11800 11801 11802 11803 11804 11805 11806 11807 
11808 11809 11810 11811 11812 11813 11814 11815 11816 
11817 11818 11819 11820 11821 11822 11823 11824 11825 
11826 11827 11828 11829 11830 11831 11832 11833 11834 
11835 11836 11837 11838 11839 11840 11841 11842 11843 
11844 11845 11846 11847 11848 11849 11850 11851 11852 
11853 11854 11855 11856 11857 11858 11859 11860 11861 
11862 11863 11864 11865 11866 11867 11868 11869 11870 
11871 11872 11873 11874 11875 11876 11877 11878 11879 
11880 11881 11882 11883 11884 11885 11886 11887 11888 
11889 11890 11891 11892 11893 11894 11895 11896 11897 
11898 11899 11900 11901 11902 11903 11904 11905 11906 
11907 11908 11909 11910 11911 11912 11913 11914 11915 
11916 11917 11918 11919 11920 11921 11922 11923 11924 
11925 11926 11927 11928 11929 11930 11931 11932 11933 
11934 11935 11936 11937 11938 11939 11940 11941 11942 
11943 11944 11945 11946 11947 11948 11949 11950 11951 
11952 11953 11954 11955 11956 11957 11958 11959 11960 
11961 11962 11963 11964 11965 11966 11967 11968 11969 
11970 11971 11972 11973 11974 11975 11976 11977 11978 
11979 11980 11981 11982 11983 11984 11985 11986 11987 
11988 11989 11990 11991 11992 11993 11994 11995 11996 
11997 11998 11999 12000 12001 12002 12003 12004 12005 
12006 12007 12008 12009 12010 12011 12012 12013 12014 
12015 12016 12017 12018 12019 12020 12021 12022 12023 
12024 12025 12026 12027 12028 12029 12030 12031 12032 
12033 12034 12035 12036 12037 12038 12039 12040 12041 
12042 12043 12044 12045 12046 12047 12048 12049 12050 
12051 12052 12053 12054 12055 12056 12057 12058 12059 
12060 12061 12062 12063 12064 12065 12066 12067 12068 
12069 12070 12071 12072 12073 12074 12075 12076 12077 
12078 12079 12080 12081 12082 12083 12084 12085 12086 
12087 12088 12089 12090 12091 12092 12093 12094 12095 
12096 12097 12098 12099 12100 12101 12102 12103 12104 
12105 12106 12107 12108 12109 12110 12111 12112 12113 
12114 12115 12116 12117 12118 12119 12120 12121 12122 
12123 12124 12125 12126 12127 12128 12129 12130 12131 
12132 12133 12134 12135 12136 12137 12138 12139 12140 
12141 12142 12143 12144 12145 12146 12147 12148 12149 
12150 12151 12152 12153 12154 12155 12156 12157 12158 
12159 12160 12161 12162 12163 12164 12165 12166 12167 
12168 12169 12170 12171 12172 12173 12174 12175 12176 
12177 12178 12179 12180 12181 12182 12183 12184 12185 
12186 12187 12188 12189 12190 12191 12192 12193 12194 
12195 12196 12197 12198 12199 12200 12201 12202 12203 
12204 12205 12206 12207 12208 12209 12210 12211 12212 
12213 12214 12215 12216 12217 12218 12219 12220 12221 
12222 12223 12224 12225 12226 12227 12228 12229 12230 
12231 12232 12233 12234 12235 12236 12237 12238 12239 
12240 12241 12242 12243 12244 12245 12246 12247 12248 
12249 12250 12251 12252 12253 12254 12255 12256 12257 
12258 12259 12260 12261 12262 12263 12264 12265 12266 
12267 12268 12269 12270 12271 12272 12273 12274 12275 
12276 12277 12278 12279 12280 12281 12282 12283 12284 
12285 12286 12287 12288 12289 12290 12291 12292 12293 
12294 12295 12296 12297 12298 12299 12300 12301 12302 
12303 12304 12305 12306 12307 12308 12309 12310 12311 
12312 12313 12314 12315 12316 12317 12318 12319 12320 
12321 12322 12323 12324 12325 12326 12327 12328 12329 
12330 12331 12332 12333 12334 12335 12336 12337 12338 
12339 12340 12341 12342 12343 12344 12345 12346 12347 
12348 12349 12350 12351 12352 12353 12354 12355 12356 
12357 12358 12359 12360 12361 12362 12363 12364 12365 
12366 12367 12368 12369 12370 12371 12372 12373 12374 
12375 12376 12377 12378 12379 12380 12381 12382 12383 
12384 12385 12386 12387 12388 12389 12390 12391 12392 
12393 12394 12395 12396 12397 12398 12399 12400 12401 
12402 12403 12404 12405 12406 12407 12408 12409 12410 
      </DataArray>
      <DataArray type="Int32" Name="offsets" format="ascii">
9
18
27
36
45
54
63
72
81
90
99
108
117
126
135
144
153
162
171
180
189
198
207
216
225
234
243
252
261
270
279
288
297
306
315
324
333
342
351
360
369
378
387
396
405
414
423
432
441
450
459
468
477
486
495
504
513
522
531
540
549
558
567
576
585
594
603
612
621
630
639
648
657
666
675
684
693
702
711
720
729
738
747
756
765
774
783
792
801
810
819
828
837
846
855
864
873
882
891
900
909
918
927
936
945
954
963
972
981
990
999
1008
1017
1026
1035
1044
1053
1062
1071
1080
1089
1098
1107
1116
1125
1134
1143
1152
1161
1170
1179
1188
1197
1206
1215
1224
1233
1242
1251
1260
1269
1278
1287
1296
1305
1314
1323
1332
1341
1350
1359
1368
1377
1386
1395
1404
1413
1422
1431
1440
1449
1458
1467
1476
1485
1494
1503
1512
1521
1530
1539
1548
1557
1566
1575
1584
1593
1602
1611
1620
1629
1638
1647
1656
1665
1674
1683
1692
1701
1710
1719
1728
1737
1746
1755
1764
1773
1782
1791
1800
1809
1818
1827
1836
1845
1854
1863
1872
1881
1890
1899
1908
1917
1926
1935
1944
1953
1962
1971
1980
1989
1998
2007
2016
2025
2034
2043
2052
2061
2070
2079
2088
2097
2106
2115
2124
2133
2142
2151
2160
2169
2178
2187
2196
2205
2214
2223
2232
2241
2250
2259
2268
2277
2286
2295
2304
2313
2322
2331
2340
2349
2358
2367
2376
2385
2394
2403
2412
2421
2430
2439
2448
2457
2466
2475
2484
2493
2502
2511
2520
2529
2538
2547
2556
2565
2574
2583
2592
2601
2610
2619
2628
2637
2646
2655
2664
2673
2682
2691
2700
2709
2718
2727
2736
2745
2754
2763
2772
2781
2790
2799
2808
2817
2826
2835
2844
2853
2862
2871
2880
2889
2898
2907
2916
2925
2934
2943
2952
2961
2970
2979
2988
2997
3006
3015
3024
3033
3042
3051
3060
3069
3078
3087
3096
3105
3114
3123
3132
3141
3150
3159
3168
3177
3186
3195
3204
3213
3222
3231
3240
3249
3258
3267
3276
3285
3294
3303
3312
3321
3330
3339
3348
3357
3366
3375
3384
3393
3402
3411
3420
3429
3438
3447
3456
3465
3474
3483
3492
3501
3510
3519
3528
3537
3546
3555
3564
3573
3582
3591
3600
3609
3618
3627
3636
3645
3654
3663
3672
3681
3690
3699
3708
3717
3726
3735
3744
3753
3762
3771
3780
3789
3798
3807
3816
3825
3834
3843
3852
3861
3870
3879
3888
3897
3906
3915
3924
3933
3942
3951
3960
3969
3978
3987
3996
4005
4014
4023
4032
4041
4050
4059
4068
4077
4086
4095
4104
4113
4122
4131
4140
4149
4158
4167
4176
4185
4194
4203
4212
4221
4230
4239
4248
4257
4266
4275
4284
4293
4302
4311
4320
4329
4338
4347
4356
4365
4374
4383
4392
4401
4410
4419
4428
4437
4446
4455
4464
4473
4482
4491
4500
4509
4518
4527
4536
4545
4554
4563
4572
4581
4590
4599
4608
4617
4626
4635
4644
4653
4662
4671
4680
4689
4698
4707
4716
4725
4734
4743
4752
4761
4770
4779
4788
4797
4806
4815
4824
4833
4842
4851
4860
4869
4878
4887
4896
4905
4914
4923
4932
4941
4950
4959
4968
4977
4986
4995
5004
5013
5022
5031
5040
5049
5058
5067
5076
5085
5094
5103
5112
5121
5130
5139
5148
5157
5166
5175
5184
5193
5202
5211
5220
5229
5238
5247
5256
5265
5274
5283
5292
5301
5310
5319
5328
5337
5346
5355
5364
5373
5382
5391
5400
5409
5418
5427
5436
5445
5454
5463
5472
5481
5490
5499
5508
5517
5526
5535
5544
5553
5562
5571
5580
5589
5598
5607
5616
5625
5634
5643
5652
5661
5670
5679
5688
5697
5706
5715
5724
5733
5742
5751
5760
5769
5778
5787
5796
5805
5814
5823
5832
5841
5850
5859
5868
5877
5886
5895
5904
5913
5922
5931
5940
5949
5958
5967
5976
5985
5994
6003
6012
6021
6030
6039
6048
6057
6066
6075
6084
6093
6102
6111
6120
6129
6138
6147
6156
6165
6174
6183
6192
6201
6210
6219
6228
6237
6246
6255
6264
6273
6282
6291
6300
6309
6318
6327
6336
6345
6354
6363
6372
6381
6390
6399
6408
6417
6426
6435
6444
6453
6462
6471
6480
6489
6498
6507
6516
6525
6534
6543
6552
6561
6570
6579
6588
6597
6606
6615
6624
6633
6642
6651
6660
6669
6678
6687
6696
6705
6714
6723
6732
6741
6750
6759
6768
6777
6786
6795
6804
6813
6822
6831
6840
6849
6858
6867
6876
6885
6894
6903
6912
6921
6930
6939
6948
6957
6966
6975
6984
6993
7002
7011
7020
7029
7038
7047
7056
7065
7074
7083
7092
7101
7110
7119
7128
7137
7146
7155
7164
7173
7182
7191
7200
7209
7218
7227
7236
7245
7254
7263
7272
7281
7290
7299
7308
7317
7326
7335
7344
7353
7362
7371
7380
7389
7398
7407
7416
7425
7434
7443
7452
7461
7470
7479
7488
7497
7506
7515
7524
7533
7542
7551
7560
7569
7578
7587
7596
7605
7614
7623
7632
7641
7650
7659
7668
7677
7686
7695
7704
7713
7722
7731
7740
7749
7758
7767
7776
7785
7794
7803
7812
7821
7830
7839
7848
7857
7866
7875
7884
7893
7902
7911
7920
7929
7938
7947
7956
7965
7974
7983
7992
8001
8010
8019
8028
8037
8046
8055
8064
8073
8082
8091
8100
8109
8118
8127
8136
8145
8154
8163
8172
8181
8190
8199
8208
8217
8226
8235
8244
8253
8262
8271
8280
8289
8298
8307
8316
8325
8334
8343
8352
8361
8370
8379
8388
8397
8406
8415
8424
8433
8442
8451
8460
8469
8478
8487
8496
8505
8514
8523
8532
8541
8550
8559
8568
8577
8586
8595
8604
8613
8622
8631
8640
8649
8658
8667
8676
8685
8694
8703
8712
8721
8730
8739
8748
8757
8766
8775
8784
8793
8802
8811
8820
8829
8838
8847
8856
8865
8874
8883
8892
8901
8910
8919
8928
8937
8946
8955
8964
8973
8982
8991
9000
9009
9018
9027
9036
9045
9054
9063
9072
9081
9090
9099
9108
9117
9126
9135
9144
9153
9162
9171
9180
9189
9198
9207
9216
9225
9234
9243
9252
9261
9270
9279
9288
9297
9306
9315
9324
9333
9342
9351
9360
9369
9378
9387
9396
9405
9414
9423
9432
9441
9450
9459
9468
9477
9486
9495
9504
9513
9522
9531
9540
9549
9558
9567
9576
9585
9594
9603
9612
9621
9630
9639
9648
9657
9666
9675
9684
9693
9702
9711
9720
9729
9738
9747
9756
9765
9774
9783
9792
9801
9810
9819
9828
9837
9846
9855
9864
9873
9882
9891
9900
9909
9918
9927
9936
9945
9954
9963
9972
9981
9990
9999
10008
10017
10026
10035
10044
10053
10062
10071
10080
10089
10098
10107
10116
10125
10134
10143
10152
10161
10170
10179
10188
10197
10206
10215
10224
10233
10242
10251
10260
10269
10278
10287
10296
10305
10314
10323
10332
10341
10350
10359
10368
10377
10386
10395
10404
10413
10422
10431
10440
10449
10458
10467
10476
10485
10494
10503
10512
10521
10530
10539
10548
10557
10566
10575
10584
10593
10602
10611
10620
10629
10638
10647
10656
10665
10674
10683
10692
10701
10710
10719
10728
10737
10746
10755
10764
10773
10782
10791
10800
10809
10818
10827
10836
10845
10854
10863
10872
10881
10890
10899
10908
10917
10926
10935
10944
10953
10962
10971
10980
10989
10998
11007
11016
11025
11034
11043
11052
11061
11070
11079
11088
11097
11106
11115
11124
11133
11142
11151
11160
11169
11178
11187
11196
11205
11214
11223
11232
11241
11250
11259
11268
11277
11286
11295
11304
11313
11322
11331
11340
11349
11358
11367
11376
11385
11394
11403
11412
11421
11430
11439
11448
11457
11466
11475
11484
11493
11502
11511
11520
11529
11538
11547
11556
11565
11574
11583
11592
11601
11610
11619
11628
11637
11646
11655
11664
11673
11682
11691
11700
11709
11718
11727
11736
11745
11754
11763
11772
11781
11790
11799
11808
11817
11826
11835
11844
11853
11862
11871
11880
11889
11898
11907
11916
11925
11934
11943
11952
11961
11970
11979
11988
11997
12006
12015
12024
12033
12042
12051
12060
12069
12078
12087
12096
12105
12114
12123
12132
12141
12150
12159
12168
12177
12186
12195
12204
12213
12222
12231
12240
12249
12258
12267
12276
12285
12294
12303
12312
12321
12330
12339
12348
12357
12366
12375
12384
12393
12402
12411
      </DataArray>
      <DataArray type="UInt8" Name="types" format="ascii">
70
70
70
70
70
70
70
70
70
70
70
70
70
70
70
70
70
70
70
70
70
70
70
70
70
70
70
70
70
70
70
70
70
70
70
70
70
70
70
70
70
70
70
70
70
70
70
70
70
70
70
70
70
70
70
70
70
70
70
70
70
70
70
70
70
70
70
70
70
70
70
70
70
70
70
70
70
70
70
70
70
70
70
70
70
70
70
70
70
70
70
70
70
70
70
70
70
70
70
70
70
70
70
70
70
70
70
70
70
70
70
70
70
70
70
70
70
70
70
70
70
70
70
70
70
70
70
70
70
70
70
70
70
70
70
70
70
70
70
70
70
70
70
70
70
70
70
70
70
70
70
70
70
70
70
70
70
70
70
70
70
70
70
70
70
70
70
70
70
70
70
70
70
70
70
70
70
70
70
70
70
70
70
70
70
70
70
70
70
70
70
70
70
70
70
70
70
70
70
70
70
70
70
70
70
70
70
70
70
70
70
70
70
70
70
70
70
70
70
70
70
70
70
70
70
70
70
70
70
70
70
70
70
70
70
70
70
70
70
70
70
70
70
70
70
70
70
70
70
70
70
70
70
70
70
70
70
70
70
70
70
70
70
70
70
70
70
70
70
70
70
70
70
70
70
70
70
70
70
70
70
70
70
70
70
70
70
70
70
70
70
70
70
70
70
70
70
70
70
70
70
70
70
70
70
70
70
70
70
70
70
70
70
70
70
70
70
70
70
70
70
70
70
70
70
70
70
70
70
70
70
70
70
70
70
70
70
70
70
70
70
70
70
70
70
70
70
70
70
70
70
70
70
70
70
70
70
70
70
70
70
70
70
70
70
70
70
70
70
70
70
70
70
70
70
70
70
70
70
70
70
70
70
70
70
70
70
70
70
70
70
70
70
70
70
70
70
70
70
70
70
70
70
70
70
70
70
70
70
70
70
70
70
70
70
70
70
70
70
70
70
70
70
70
70
70
70
70
70
70
70
70
70
70
70
70
70
70
70
70
70
70
70
70
70
70
70
70
70
70
70
70
70
70
70
70
70
70
70
70
70
70
70
70
70
70
70
70
70
70
70
70
70
70
70
70
70
70
70
70
70
70
70
70
70
70
70
70
70
70
70
70
70
70
70
70
70
70
70
70
70
70
70
70
70
70
70
70
70
70
70
70
70
70
70
70
70
70
70
70
70
70
70
70
70
70
70
70
70
70
70
70
70
70
70
70
70
70
70
70
70
70
70
70
70
70
70
70
70
70
70
70
70
70
70
70
70
70
70
70
70
70
70
70
70
70
70
70
70
70
70
70
70
70
70
70
70
70
70
70
70
70
70
70
70
70
70
70
70
70
70
70
70
70
70
70
70
70
70
70
70
70
70
70
70
70
70
70
70
70
70
70
70
70
70
70
70
70
70
70
70
70
70
70
70
70
70
70
70
70
70
70
70
70
70
70
70
70
70
70
70
70
70
70
70
70
70
70
70
70
70
70
70
70
70
70
70
70
70
70
70
70
70
70
70
70
70
70
70
70
70
70
70
70
70
70
70
70
70
70
70
70
70
70
70
70
70
70
70
70
70
70
70
70
70
70
70
70
70
70
70
70
70
70
70
70
70
70
70
70
70
70
70
70
70
70
70
70
70
70
70
70
70
70
70
70
70
70
70
70
70
70
70
70
70
70
70
70
70
70
70
70
70
70
70
70
70
70
70
70
70
70
70
70
70
70
70
70
70
70
70
70
70
70
70
70
70
70
70
70
70
70
70
70
70
70
70
70
70
70
70
70
70
70
70
70
70
70
70
70
70
70
70
70
70
70
70
70
70
70
70
70
70
70
70
70
70
70
70
70
70
70
70
70
70
70
70
70
70
70
70
70
70
70
70
70
70
70
70
70
70
70
70
70
70
70
70
70
70
70
70
70
70
70
70
70
70
70
70
70
70
70
70
70
70
70
70
70
70
70
70
70
70
70
70
70
70
70
70
70
70
70
70
70
70
70
70
70
70
70
70
70
70
70
70
70
70
70
70
70
70
70
70
70
70
70
70
70
70
70
70
70
70
70
70
70
70
70
70
70
70
70
70
70
70
70
70
70
70
70
70
70
70
70
70
70
70
70
70
70
70
70
70
70
70
70
70
70
70
70
70
70
70
70
70
70
70
70
70
70
70
70
70
70
70
70
70
70
70
70
70
70
70
70
70
70
70
70
70
70
70
70
70
70
70
70
70
70
70
70
70
70
70
70
70
70
70
70
70
70
70
70
70
70
70
70
70
70
70
70
70
70
70
70
70
70
70
70
70
70
70
70
70
70
70
70
70
70
70
70
70
70
70
70
70
70
70
70
70
70
70
70
70
70
70
70
70
70
70
70
70
70
70
70
70
70
70
70
70
70
70
70
70
70
70
70
70
70
70
70
70
70
70
70
70
70
70
70
70
70
70
70
70
70
70
70
70
70
70
70
70
70
70
70
70
70
70
70
70
70
70
70
70
70
70
70
70
70
70
70
70
70
70
70
70
70
70
70
70
70
70
70
70
70
70
70
70
70
70
70
70
70
70
70
70
70
70
70
70
70
70
70
70
70
70
70
70
70
70
70
70
70
70
70
70
70
70
70
70
70
70
70
70
70
70
70
70
70
70
70
70
70
70
70
70
70
70
70
70
70
70
70
70
70
70
70
70
70
70
70
70
70
70
70
70
70
70
70
70
70
70
70
70
70
70
70
70
70
70
70
70
70
70
70
70
70
70
70
70
70
70
70
70
70
70
70
70
70
70
70
70
70
70
70
70
70
70
70
70
70
70
70
70
70
70
70
70
70
70
70
70
70
70
70
70
70
70
70
70
70
70
70
70
70
70
70
70
70
70
70
70
70
70
70
70
70
70
70
70
70
70
70
70
70
70
70
70
70
70
70
70
70
70
70
70
70
70
70
70
70
70
70
70
70
70
70
70
70
70
70
70
70
70
70
70
70
70
70
70
70
70
70
70
70
70
70
70
70
70
70
70
70
70
70
70
70
70
70
70
70
70
70
70
70
70
70
70
70
70
70
70
70
70
70
70
70
70
70
70
70
70
70
70
70
70
70
70
70
70
70
70
70
70
70
70
70
70
70
70
70
70
70
70
70
70
70
70
70
70
      </DataArray>
    </Cells>
    <PointData>
      <DataArray type="Float64" NumberOfComponents="3" Name="Displacement" format="ascii">
0 0 0
-0.0138492 -0.00688144 -0.00688144
-0.00826198 -0.00231652 -0.00231652
0 0 0
-0.0075392 -0.00429562 -0.00429562
-0.0104337 -0.00415586 -0.00415586
-0.00400839 -0.000828278 -0.000828278
0 0 0
-0.00497511 -0.00183321 -0.00183321
-0.0138492 -0.00688144 -0.00688144
-0.0258308 -0.0119346 -0.0119346
-0.0172105 -0.00669574 -0.00669574
-0.00826198 -0.00231652 -0.00231652
-0.0198563 -0.00931254 -0.00931254
-0.0213053 -0.00904954 -0.00904954
-0.0126936 -0.00429455 -0.00429455
-0.0104337 -0.00415586 -0.00415586
-0.0159002 -0.00652957 -0.00652957
-0.0258308 -0.0119346 -0.0119346
-0.0379255 -0.0180328 -0.0180328
-0.0262406 -0.0127151 -0.0127151
-0.0172105 -0.00669574 -0.00669574
-0.031856 -0.0148045 -0.0148045
-0.0320198 -0.0151719 -0.0151719
-0.0217307 -0.00949315 -0.00949315
-0.0213053 -0.00904954 -0.00904954
-0.026676 -0.0119106 -0.0119106
-0.0379255 -0.0180328 -0.0180328
-0.0501248 -0.0258864 -0.0258864
-0.0352287 -0.0205599 -0.0205599
-0.0262406 -0.0127151 -0.0127151
-0.0440156 -0.0217217 -0.0217217
-0.0426469 -0.0230115 -0.0230115
-0.0307419 -0.0163985 -0.0163985
-0.0320198 -0.0151719 -0.0151719
-0.0373403 -0.0188608 -0.0188608
-0.0501248 -0.0258864 -0.0258864
-0.0623946 -0.0356571 -0.0356571
-0.0441459 -0.0303606 -0.0303606
-0.0352287 -0.0205599 -0.0205599
-0.0562543 -0.0305255 -0.0305255
-0.0532436 -0.0327988 -0.0327988
-0.0396955 -0.0252102 -0.0252102
-0.0426469 -0.0230115 -0.0230115
-0.0479481 -0.0276545 -0.0276545
-0.0623946 -0.0356571 -0.0356571
-0.0746751 -0.0474544 -0.0474544
-0.0530117 -0.0421923 -0.0421923
-0.0441459 -0.0303606 -0.0303606
-0.0685354 -0.0412999 -0.0412999
-0.0638117 -0.0446069 -0.0446069
-0.0485846 -0.0360205 -0.0360205
-0.0532436 -0.0327988 -0.0327988
-0.0585313 -0.038448 -0.038448
-0.0746751 -0.0474544 -0.0474544
-0.0869463 -0.0612927 -0.0612927
-0.0618311 -0.0560756 -0.0560756
-0.0530117 -0.0421923 -0.0421923
-0.0808132 -0.0541177 -0.0541177
-0.0743519 -0.0584666 -0.0584666
-0.0574268 -0.048877 -0.048877
-0.0638117 -0.0446069 -0.0446069
-0.0690856 -0.0512796 -0.0512796
-0.0869463 -0.0612927 -0.0612927
-0.0991869 -0.077185 -0.077185
-0.0706126 -0.0720157 -0.0720157
-0.0618311 -0.0560756 -0.0560756
-0.0930712 -0.0689822 -0.0689822
-0.0848587 -0.0743813 -0.0743813
-0.0662263 -0.0637888 -0.0637888
-0.0743519 -0.0584666 -0.0584666
-0.0796096 -0.0661674 -0.0661674
-0.0991869 -0.077185 -0.077185
-0.111389 -0.095123 -0.095123
-0.079359 -0.090006 -0.090006
-0.0706126 -0.0720157 -0.0720157
-0.105293 -0.0858988 -0.0858988
-0.0953303 -0.0923457 -0.0923457
-0.07499 -0.0807551 -0.0807551
-0.0848587 -0.0743813 -0.0743813
-0.090099 -0.0831079 -0.0831079
-0.111389 -0.095123 -0.095123
-0.123547 -0.115099 -0.115099
-0.0880736 -0.110037 -0.110037
-0.079359 -0.090006 -0.090006
-0.117474 -0.104857 -0.104857
-0.105765 -0.11235 -0.11235
-0.0837202 -0.0997671 -0.0997671
-0.0953303 -0.0923457 -0.0923457
-0.100552 -0.102093 -0.102093
-0.123547 -0.115099 -0.115099
-0.13566 -0.137102 -0.137102
-0.0967582 -0.132098 -0.132098
-0.0880736 -0.110037 -0.110037
-0.12961 -0.125848 -0.125848
-0.116163 -0.134383 -0.134383
-0.0924196 -0.120814 -0.120814
-0.105765 -0.11235 -0.11235
-0.110968 -0.123113 -0.123113
-0.13566 -0.137102 -0.137102
-0.147728 -0.161121 -0.161121
-0.105415 -0.156177 -0.156177
-0.0967582 -0.132098 -0.132098
-0.1417 -0.14886 -0.14886
-0.126524 -0.158433 -0.158433
-0.10109 -0.143886 -0.143886
-0.116163 -0.134383 -0.134383
-0.121348 -0.146156 -0.146156
-0.147728 -0.161121 -0.161121
-0.159751 -0.187144 -0.187144
-0.114045 -0.182263 -0.182263
-0.105415 -0.156177 -0.156177
-0.153745 -0.173883 -0.173883
-0.13685 -0.184489 -0.184489
-0.109733 -0.16897 -0.16897
-0.126524 -0.158433 -0.158433
-0.131692 -0.171211 -0.171211
-0.159751 -0.187144 -0.187144
-0.17173 -0.215161 -0.215161
-0.122649 -0.210345 -0.210345
-0.114045 -0.182263 -0.182263
-0.165746 -0.200904 -0.200904
-0.147142 -0.212539 -0.212539
-0.11835 -0.196055 -0.196055
-0.13685 -0.184489 -0.184489
-0.142 -0.198265 -0.198265
-0.17173 -0.215161 -0.215161
-0.183667 -0.24516 -0.24516
-0.131231 -0.240412 -0.240412
-0.122649 -0.210345 -0.210345
-0.177704 -0.229914 -0.229914
-0.157401 -0.242573 -0.242573
-0.126943 -0.225131 -0.225131
-0.147142 -0.212539 -0.212539
-0.152276 -0.227309 -0.227309
-0.183667 -0.24516 -0.24516
-0.195564 -0.277131 -0.277131
-0.13979 -0.272452 -0.272452
-0.131231 -0.240412 -0.240412
-0.189621 -0.2609 -0.2609
-0.167629 -0.27458 -0.27458
-0.135513 -0.256186 -0.256186
-0.157401 -0.242573 -0.242573
-0.162519 -0.258331 -0.258331
-0.195564 -0.277131 -0.277131
-0.207421 -0.311062 -0.311062
-0.148328 -0.306456 -0.306456
-0.13979 -0.272452 -0.272452
-0.201497 -0.293852 -0.293852
-0.177826 -0.308549 -0.308549
-0.144062 -0.28921 -0.28921
-0.167629 -0.27458 -0.27458
-0.172731 -0.29132 -0.29132
-0.207421 -0.311062 -0.311062
-0.21924 -0.346943 -0.346943
-0.156847 -0.342412 -0.342412
-0.148328 -0.306456 -0.306456
-0.213335 -0.328759 -0.328759
-0.187995 -0.344468 -0.344468
-0.15259 -0.324191 -0.324191
-0.177826 -0.308549 -0.308549
-0.182914 -0.326265 -0.326265
-0.21924 -0.346943 -0.346943
-0.231023 -0.384763 -0.384763
-0.165348 -0.380309 -0.380309
-0.156847 -0.342412 -0.342412
-0.225136 -0.365611 -0.365611
-0.198137 -0.382328 -0.382328
-0.1611 -0.361118 -0.361118
-0.187995 -0.344468 -0.344468
-0.19307 -0.363156 -0.363156
-0.231023 -0.384763 -0.384763
-0.242771 -0.424511 -0.424511
-0.173832 -0.420136 -0.420136
-0.165348 -0.380309 -0.380309
-0.236901 -0.404397 -0.404397
-0.208253 -0.422117 -0.422117
-0.169592 -0.399982 -0.399982
-0.198137 -0.382328 -0.382328
-0.203198 -0.401982 -0.401982
-0.242771 -0.424511 -0.424511
-0.254484 -0.466177 -0.466177
-0.182301 -0.461883 -0.461883
-0.173832 -0.420136 -0.420136
-0.248631 -0.445105 -0.445105
-0.218344 -0.463825 -0.463825
-0.178069 -0.44077 -0.44077
-0.208253 -0.422117 -0.422117
-0.213301 -0.442732 -0.442732
-0.254484 -0.466177 -0.466177
-0.266165 -0.50975 -0.50975
-0.190756 -0.505539 -0.505539
-0.182301 -0.461883 -0.461883
-0.260329 -0.487726 -0.487726
-0.228412 -0.50744 -0.50744
-0.18653 -0.483473 -0.483473
-0.218344 -0.463825 -0.463825
-0.223381 -0.485395 -0.485395
-0.266165 -0.50975 -0.50975
-0.277814 -0.555218 -0.555218
-0.199198 -0.551093 -0.551093
-0.190756 -0.505539 -0.505539
-0.271994 -0.532248 -0.532248
-0.238457 -0.552953 -0.552953
-0.194978 -0.52808 -0.52808
-0.228412 -0.50744 -0.50744
-0.233437 -0.52996 -0.52996
-0.277814 -0.555218 -0.555218
-0.289434 -0.602572 -0.602572
-0.207628 -0.598534 -0.598534
-0.199198 -0.551093 -0.551093
-0.283628 -0.57866 -0.57866
-0.248482 -0.600351 -0.600351
-0.203414 -0.574579 -0.574579
-0.238457 -0.552953 -0.552953
-0.243472 -0.576417 -0.576417
-0.289434 -0.602572 -0.602572
-0.301024 -0.6518 -0.6518
-0.216048 -0.647852 -0.647852
-0.207628 -0.598534 -0.598534
-0.295233 -0.626952 -0.626952
-0.258487 -0.649625 -0.649625
-0.211839 -0.622959 -0.622959
-0.248482 -0.600351 -0.600351
-0.253486 -0.624755 -0.624755
-0.301024 -0.6518 -0.6518
-0.312587 -0.702892 -0.702892
-0.224458 -0.699035 -0.699035
-0.216048 -0.647852 -0.647852
-0.306809 -0.677114 -0.677114
-0.268473 -0.700764 -0.700764
-0.220254 -0.673211 -0.673211
-0.258487 -0.649625 -0.649625
-0.263482 -0.674962 -0.674962
-0.312587 -0.702892 -0.702892
-0.324123 -0.755836 -0.755836
-0.23286 -0.752073 -0.752073
-0.224458 -0.699035 -0.699035
-0.318358 -0.729133 -0.729133
-0.278442 -0.753756 -0.753756
-0.22866 -0.725323 -0.725323
-0.268473 -0.700764 -0.700764
-0.273459 -0.727029 -0.727029
-0.324123 -0.755836 -0.755836
-0.335633 -0.810623 -0.810623
-0.241255 -0.806955 -0.806955
-0.23286 -0.752073 -0.752073
-0.329881 -0.783 -0.783
-0.288395 -0.808592 -0.808592
-0.237059 -0.779284 -0.779284
-0.278442 -0.753756 -0.753756
-0.28342 -0.780944 -0.780944
-0.335633 -0.810623 -0.810623
-0.347119 -0.86724 -0.86724
-0.249645 -0.86367 -0.86367
-0.241255 -0.806955 -0.806955
-0.341379 -0.838703 -0.838703
-0.298332 -0.865259 -0.865259
-0.245451 -0.835084 -0.835084
-0.288395 -0.808592 -0.808592
-0.293365 -0.836697 -0.836697
-0.347119 -0.86724 -0.86724
-0.358582 -0.925679 -0.925679
-0.258029 -0.922207 -0.922207
-0.249645 -0.86367 -0.86367
-0.352853 -0.896233 -0.896233
-0.308255 -0.923748 -0.923748
-0.253837 -0.892711 -0.892711
-0.298332 -0.865259 -0.865259
-0.303295 -0.894277 -0.894277
-0.358582 -0.925679 -0.925679
-0.370022 -0.985927 -0.985927
-0.26641 -0.982556 -0.982556
-0.258029 -0.922207 -0.922207
-0.364305 -0.955577 -0.955577
-0.318166 -0.984048 -0.984048
-0.26222 -0.952156 -0.952156
-0.308255 -0.923748 -0.923748
-0.313212 -0.953672 -0.953672
-0.370022 -0.985927 -0.985927
-0.381441 -1.04797 -1.04797
-0.274788 -1.0447 -1.0447
-0.26641 -0.982556 -0.982556
-0.375734 -1.01673 -1.01673
-0.328064 -1.04615 -1.04615
-0.270599 -1.01341 -1.01341
-0.318166 -0.984048 -0.984048
-0.323117 -1.01487 -1.01487
-0.381441 -1.04797 -1.04797
-0.39284 -1.11181 -1.11181
-0.283164 -1.10864 -1.10864
-0.274788 -1.0447 -1.0447
-0.387143 -1.07967 -1.07967
-0.337952 -1.11004 -1.11004
-0.278976 -1.07645 -1.07645
-0.328064 -1.04615 -1.04615
-0.333009 -1.07787 -1.07787
-0.39284 -1.11181 -1.11181
-0.40422 -1.17742 -1.17742
-0.29154 -1.17436 -1.17436
-0.283164 -1.10864 -1.10864
-0.398532 -1.14439 -1.14439
-0.347829 -1.1757 -1.1757
-0.287352 -1.14128 -1.14128
-0.337952 -1.11004 -1.11004
-0.342892 -1.14265 -1.14265
-0.40422 -1.17742 -1.17742
-0.415581 -1.2448 -1.2448
-0.299915 -1.24185 -1.24185
-0.29154 -1.17436 -1.17436
-0.409902 -1.21089 -1.21089
-0.357698 -1.24314 -1.24314
-0.295727 -1.20788 -1.20788
-0.347829 -1.1757 -1.1757
-0.352765 -1.2092 -1.2092
-0.415581 -1.2448 -1.2448
-0.426925 -1.31393 -1.31393
-0.308292 -1.31109 -1.31109
-0.299915 -1.24185 -1.24185
-0.421255 -1.27915 -1.27915
-0.367558 -1.31233 -1.31233
-0.304104 -1.27625 -1.27625
-0.357698 -1.24314 -1.24314
-0.362629 -1.27751 -1.27751
-0.426925 -1.31393 -1.31393
-0.438252 -1.38481 -1.38481
-0.316671 -1.38208 -1.38208
-0.308292 -1.31109 -1.31109
-0.432591 -1.34916 -1.34916
-0.377411 -1.38326 -1.38326
-0.312481 -1.34637 -1.34637
-0.367558 -1.31233 -1.31233
-0.372485 -1.34758 -1.34758
-0.438252 -1.38481 -1.38481
-0.449564 -1.45743 -1.45743
-0.325053 -1.45481 -1.45481
-0.316671 -1.38208 -1.38208
-0.44391 -1.4209 -1.4209
-0.387258 -1.45593 -1.45593
-0.320862 -1.41823 -1.41823
-0.377411 -1.38326 -1.38326
-0.382335 -1.41938 -1.41938
-0.449564 -1.45743 -1.45743
-0.460862 -1.53176 -1.53176
-0.333439 -1.52926 -1.52926
-0.325053 -1.45481 -1.45481
-0.455215 -1.49438 -1.49438
-0.397099 -1.53033 -1.53033
-0.329245 -1.49182 -1.49182
-0.387258 -1.45593 -1.45593
-0.392179 -1.49292 -1.49292
-0.460862 -1.53176 -1.53176
-0.472145 -1.60781 -1.60781
-0.341829 -1.60542 -1.60542
-0.333439 -1.52926 -1.52926
-0.466505 -1.56958 -1.56958
-0.406936 -1.60644 -1.60644
-0.337633 -1.56713 -1.56713
-0.397099 -1.53033 -1.53033
-0.402018 -1.56817 -1.56817
-0.472145 -1.60781 -1.60781
-0.483416 -1.68557 -1.68557
-0.350225 -1.68329 -1.68329
-0.341829 -1.60542 -1.60542
-0.477782 -1.64648 -1.64648
-0.41677 -1.68425 -1.68425
-0.346027 -1.64414 -1.64414
-0.406936 -1.60644 -1.60644
-0.411853 -1.64513 -1.64513
-0.483416 -1.68557 -1.68557
-0.494674 -1.76501 -1.76501
-0.358628 -1.76285 -1.76285
-0.350225 -1.68329 -1.68329
-0.489047 -1.72508 -1.72508
-0.4266 -1.76375 -1.76375
-0.354426 -1.72286 -1.72286
-0.41677 -1.68425 -1.68425
-0.421685 -1.72379 -1.72379
-0.494674 -1.76501 -1.76501
-0.505921 -1.84613 -1.84613
-0.367037 -1.84409 -1.84409
-0.358628 -1.76285 -1.76285
-0.500299 -1.80536 -1.80536
-0.436428 -1.84493 -1.84493
-0.362831 -1.80326 -1.80326
-0.4266 -1.76375 -1.76375
-0.431514 -1.80413 -1.80413
-0.505921 -1.84613 -1.84613
-0.517158 -1.92892 -1.92892
-0.375454 -1.927 -1.927
-0.367037 -1.84409 -1.84409
-0.511541 -1.88732 -1.88732
-0.446255 -1.92779 -1.92779
-0.371245 -1.88534 -1.88534
-0.436428 -1.84493 -1.84493
-0.441342 -1.88615 -1.88615
-0.517158 -1.92892 -1.92892
-0.528384 -2.01337 -2.01337
-0.38388 -2.01158 -2.01158
-0.375454 -1.927 -1.927
-0.522772 -1.97094 -1.97094
-0.456081 -2.0123 -2.0123
-0.379666 -1.96908 -1.96908
-0.446255 -1.92779 -1.92779
-0.451168 -1.96984 -1.96984
-0.528384 -2.01337 -2.01337
-0.539602 -2.09947 -2.09947
-0.392316 -2.0978 -2.0978
-0.38388 -2.01158 -2.01158
-0.533994 -2.05622 -2.05622
-0.465907 -2.09846 -2.09846
-0.388097 -2.05448 -2.05448
-0.456081 -2.0123 -2.0123
-0.460994 -2.05517 -2.05517
-0.539602 -2.09947 -2.09947
-0.550811 -2.18721 -2.18721
-0.400761 -2.18566 -2.18566
-0.392316 -2.0978 -2.0978
-0.545207 -2.14313 -2.14313
-0.475735 -2.18626 -2.18626
-0.396537 -2.14152 -2.14152
-0.465907 -2.09846 -2.09846
-0.470821 -2.14215 -2.14215
-0.550811 -2.18721 -2.18721
-0.562012 -2.27657 -2.27657
-0.409217 -2.27514 -2.27514
-0.400761 -2.18566 -2.18566
-0.556412 -2.23168 -2.23168
-0.485563 -2.27568 -2.27568
-0.404988 -2.2302 -2.2302
-0.475735 -2.18626 -2.18626
-0.480649 -2.23077 -2.23077
-0.562012 -2.27657 -2.27657
-0.573206 -2.36755 -2.36755
-0.417685 -2.36624 -2.36624
-0.409217 -2.27514 -2.27514
-0.56761 -2.32186 -2.32186
-0.495394 -2.36672 -2.36672
-0.41345 -2.32049 -2.32049
-0.485563 -2.27568 -2.27568
-0.490478 -2.321 -2.321
-0.573206 -2.36755 -2.36755
-0.584394 -2.46013 -2.46013
-0.426165 -2.45895 -2.45895
-0.417685 -2.36624 -2.36624
-0.578801 -2.41364 -2.41364
-0.505227 -2.45937 -2.45937
-0.421923 -2.4124 -2.4124
-0.495394 -2.36672 -2.36672
-0.50031 -2.41285 -2.41285
-0.584394 -2.46013 -2.46013
-0.595575 -2.5543 -2.5543
-0.434657 -2.55326 -2.55326
-0.426165 -2.45895 -2.45895
-0.589985 -2.50702 -2.50702
-0.515064 -2.55361 -2.55361
-0.430409 -2.50591 -2.50591
-0.505227 -2.45937 -2.45937
-0.510146 -2.50629 -2.50629
-0.595575 -2.5543 -2.5543
-0.606752 -2.65006 -2.65006
-0.443162 -2.64914 -2.64914
-0.434657 -2.55326 -2.55326
-0.601164 -2.60198 -2.60198
-0.524905 -2.64943 -2.64943
-0.438908 -2.601 -2.601
-0.515064 -2.55361 -2.55361
-0.519984 -2.60133 -2.60133
-0.606752 -2.65006 -2.65006
-0.617924 -2.74739 -2.74739
-0.451682 -2.7466 -2.7466
-0.443162 -2.64914 -2.64914
-0.612339 -2.69853 -2.69853
-0.534751 -2.74683 -2.74683
-0.44742 -2.69768 -2.69768
-0.524905 -2.64943 -2.64943
-0.529828 -2.69794 -2.69794
-0.617924 -2.74739 -2.74739
-0.629092 -2.84628 -2.84628
-0.460215 -2.84563 -2.84563
-0.451682 -2.7466 -2.7466
-0.623508 -2.79664 -2.79664
-0.544602 -2.84579 -2.84579
-0.455947 -2.79592 -2.79592
-0.534751 -2.74683 -2.74683
-0.539676 -2.79612 -2.79612
-0.629092 -2.84628 -2.84628
-0.640256 -2.94673 -2.94673
-0.468764 -2.9462 -2.9462
-0.460215 -2.84563 -2.84563
-0.634674 -2.89631 -2.89631
-0.554458 -2.9463 -2.9463
-0.464488 -2.89572 -2.89572
-0.544602 -2.84579 -2.84579
-0.549529 -2.89585 -2.89585
-0.640256 -2.94673 -2.94673
-0.651417 -3.04871 -3.04871
-0.477328 -3.04832 -3.04832
-0.468764 -2.9462 -2.9462
-0.645837 -2.99752 -2.99752
-0.56432 -3.04835 -3.04835
-0.473044 -2.99707 -2.99707
-0.554458 -2.9463 -2.9463
-0.559388 -2.99713 -2.99713
-0.651417 -3.04871 -3.04871
-0.662576 -3.15222 -3.15222
-0.485908 -3.15196 -3.15196
-0.477328 -3.04832 -3.04832
-0.656997 -3.10027 -3.10027
-0.57419 -3.15193 -3.15193
-0.481616 -3.09995 -3.09995
-0.56432 -3.04835 -3.04835
-0.569254 -3.09995 -3.09995
-0.662576 -3.15222 -3.15222
-0.673732 -3.25725 -3.25725
-0.494504 -3.25712 -3.25712
-0.485908 -3.15196 -3.15196
-0.668154 -3.20454 -3.20454
-0.584066 -3.25703 -3.25703
-0.490204 -3.20435 -3.20435
-0.57419 -3.15193 -3.15193
-0.579127 -3.20429 -3.20429
-0.673732 -3.25725 -3.25725
-0.684887 -3.36378 -3.36378
-0.503117 -3.3638 -3.3638
-0.494504 -3.25712 -3.25712
-0.67931 -3.31033 -3.31033
-0.59395 -3.36363 -3.36363
-0.498809 -3.31027 -3.31027
-0.584066 -3.25703 -3.25703
-0.589007 -3.31014 -3.31014
-0.684887 -3.36378 -3.36378
-0.696041 -3.47182 -3.47182
-0.511748 -3.47197 -3.47197
-0.503117 -3.3638 -3.3638
-0.690464 -3.41762 -3.41762
-0.603842 -3.47173 -3.47173
-0.507431 -3.41769 -3.41769
-0.59395 -3.36363 -3.36363
-0.598895 -3.4175 -3.4175
-0.696041 -3.47182 -3.47182
-0.707194 -3.58134 -3.58134
-0.520396 -3.58162 -3.58162
-0.511748 -3.47197 -3.47197
-0.701617 -3.52639 -3.52639
-0.613743 -3.58132 -3.58132
-0.51607 -3.52661 -3.52661
-0.603842 -3.47173 -3.47173
-0.608791 -3.52634 -3.52634
-0.707194 -3.58134 -3.58134
-0.718346 -3.69233 -3.69233
-0.529063 -3.69275 -3.69275
-0.520396 -3.58162 -3.58162
-0.71277 -3.63665 -3.63665
-0.623652 -3.69239 -3.69239
-0.524727 -3.637 -3.637
-0.613743 -3.58132 -3.58132
-0.618696 -3.63667 -3.63667
-0.718346 -3.69233 -3.69233
-0.729499 -3.80479 -3.80479
-0.537748 -3.80535 -3.80535
-0.529063 -3.69275 -3.69275
-0.723922 -3.74838 -3.74838
-0.633571 -3.80491 -3.80491
-0.533403 -3.74887 -3.74887
-0.623652 -3.69239 -3.69239
-0.62861 -3.74847 -3.74847
-0.729499 -3.80479 -3.80479
-0.740652 -3.9187 -3.9187
-0.546451 -3.9194 -3.9194
-0.537748 -3.80535 -3.80535
-0.735075 -3.86156 -3.86156
-0.643499 -3.9189 -3.9189
-0.542097 -3.86219 -3.86219
-0.633571 -3.80491 -3.80491
-0.638534 -3.86172 -3.86172
-0.740652 -3.9187 -3.9187
-0.751805 -4.03406 -4.03406
-0.555174 -4.03489 -4.03489
-0.546451 -3.9194 -3.9194
-0.746228 -3.9762 -3.9762
-0.653438 -4.03432 -4.03432
-0.55081 -3.97696 -3.97696
-0.643499 -3.9189 -3.9189
-0.648467 -3.97643 -3.97643
-0.751805 -4.03406 -4.03406
-0.76296 -4.15084 -4.15084
-0.563917 -4.15182 -4.15182
-0.555174 -4.03489 -4.03489
-0.757383 -4.09227 -4.09227
-0.663386 -4.15118 -4.15118
-0.559543 -4.09318 -4.09318
-0.653438 -4.03432 -4.03432
-0.658411 -4.09257 -4.09257
-0.76296 -4.15084 -4.15084
-0.774116 -4.26905 -4.26905
-0.572679 -4.27016 -4.27016
-0.563917 -4.15182 -4.15182
-0.768538 -4.20977 -4.20977
-0.673345 -4.26946 -4.26946
-0.568296 -4.21081 -4.21081
-0.663386 -4.15118 -4.15118
-0.668364 -4.21014 -4.21014
-0.774116 -4.26905 -4.26905
-0.785274 -4.38867 -4.38867
-0.581462 -4.38992 -4.38992
-0.572679 -4.27016 -4.27016
-0.779695 -4.32868 -4.32868
-0.683315 -4.38914 -4.38914
-0.577068 -4.32987 -4.32987
-0.673345 -4.26946 -4.26946
-0.678329 -4.32912 -4.32912
-0.785274 -4.38867 -4.38867
-0.796434 -4.50968 -4.50968
-0.590265 -4.51108 -4.51108
-0.581462 -4.38992 -4.38992
-0.790854 -4.449 -4.449
-0.693297 -4.51023 -4.51023
-0.585861 -4.45032 -4.45032
-0.683315 -4.38914 -4.38914
-0.688305 -4.44951 -4.44951
-0.796434 -4.50968 -4.50968
-0.807596 -4.63209 -4.63209
-0.599088 -4.63362 -4.63362
-0.590265 -4.51108 -4.51108
-0.802014 -4.57071 -4.57071
-0.703289 -4.63271 -4.63271
-0.594674 -4.57218 -4.57218
-0.693297 -4.51023 -4.51023
-0.698292 -4.5713 -4.5713
-0.807596 -4.63209 -4.63209
-0.81876 -4.75587 -4.75587
-0.607932 -4.75755 -4.75755
-0.599088 -4.63362 -4.63362
-0.813177 -4.69381 -4.69381
-0.713294 -4.75656 -4.75656
-0.603508 -4.69541 -4.69541
-0.703289 -4.63271 -4.63271
-0.70829 -4.69446 -4.69446
-0.81876 -4.75587 -4.75587
-0.829927 -4.88102 -4.88102
-0.616798 -4.88284 -4.88284
-0.607932 -4.75755 -4.75755
-0.824343 -4.81827 -4.81827
-0.72331 -4.88178 -4.88178
-0.612363 -4.82002 -4.82002
-0.713294 -4.75656 -4.75656
-0.7183 -4.819 -4.819
-0.829927 -4.88102 -4.88102
-0.841097 -5.00752 -5.00752
-0.625685 -5.00949 -5.00949
-0.616798 -4.88284 -4.88284
-0.835511 -4.9441 -4.9441
-0.733338 -5.00836 -5.00836
-0.621239 -4.94599 -4.94599
-0.72331 -4.88178 -4.88178
-0.728323 -4.9449 -4.9449
-0.841097 -5.00752 -5.00752
-0.852269 -5.13537 -5.13537
-0.634593 -5.13748 -5.13748
-0.625685 -5.00949 -5.00949
-0.846683 -5.07128 -5.07128
-0.743379 -5.13629 -5.13629
-0.630136 -5.07331 -5.07331
-0.733338 -5.00836 -5.00836
-0.738357 -5.07216 -5.07216
-0.852269 -5.13537 -5.13537
-0.863445 -5.26456 -5.26456
-0.643523 -5.26681 -5.26681
-0.634593 -5.13748 -5.13748
-0.857857 -5.1998 -5.1998
-0.753432 -5.26554 -5.26554
-0.639055 -5.20198 -5.20198
-0.743379 -5.13629 -5.13629
-0.748404 -5.20075 -5.20075
-0.863445 -5.26456 -5.26456
-0.874625 -5.39507 -5.39507
-0.652475 -5.39746 -5.39746
-0.643523 -5.26681 -5.26681
-0.869035 -5.32965 -5.32965
-0.763497 -5.39612 -5.39612
-0.647996 -5.33197 -5.33197
-0.753432 -5.26554 -5.26554
-0.758463 -5.33067 -5.33067
-0.874625 -5.39507 -5.39507
-0.885807 -5.52689 -5.52689
-0.661448 -5.52942 -5.52942
-0.652475 -5.39746 -5.39746
-0.880216 -5.46082 -5.46082
-0.773575 -5.52802 -5.52802
-0.656959 -5.46328 -5.46328
-0.763497 -5.39612 -5.39612
-0.768535 -5.46191 -5.46191
-0.885807 -5.52689 -5.52689
-0.896994 -5.66001 -5.66001
-0.670444 -5.66269 -5.66269
-0.661448 -5.52942 -5.52942
-0.8914 -5.59329 -5.59329
-0.783666 -5.66122 -5.66122
-0.665943 -5.5959 -5.5959
-0.773575 -5.52802 -5.52802
-0.778619 -5.59446 -5.59446
-0.896994 -5.66001 -5.66001
-0.908184 -5.79443 -5.79443
-0.679462 -5.79725 -5.79725
-0.670444 -5.66269 -5.66269
-0.902588 -5.72706 -5.72706
-0.79377 -5.7957 -5.7957
-0.67495 -5.72981 -5.72981
-0.783666 -5.66122 -5.66122
-0.788717 -5.7283 -5.7283
-0.908184 -5.79443 -5.79443
-0.919378 -5.93013 -5.93013
-0.688502 -5.93309 -5.93309
-0.679462 -5.79725 -5.79725
-0.91378 -5.86212 -5.86212
-0.803887 -5.93147 -5.93147
-0.683979 -5.86501 -5.86501
-0.79377 -5.7957 -5.7957
-0.798827 -5.86343 -5.86343
-0.919378 -5.93013 -5.93013
-0.930575 -6.06709 -6.06709
-0.697564 -6.0702 -6.0702
-0.688502 -5.93309 -5.93309
-0.924976 -5.99845 -5.99845
-0.814017 -6.06851 -6.06851
-0.69303 -6.00148 -6.00148
-0.803887 -5.93147 -5.93147
-0.808951 -5.99983 -5.99983
-0.930575 -6.06709 -6.06709
-0.941777 -6.20532 -6.20532
-0.706649 -6.20857 -6.20857
-0.697564 -6.0702 -6.0702
-0.936175 -6.13605 -6.13605
-0.82416 -6.20681 -6.20681
-0.702104 -6.13922 -6.13922
-0.814017 -6.06851 -6.06851
-0.819087 -6.1375 -6.1375
-0.941777 -6.20532 -6.20532
-0.952982 -6.34479 -6.34479
-0.715756 -6.34818 -6.34818
-0.706649 -6.20857 -6.20857
-0.947379 -6.2749 -6.2749
-0.834316 -6.34635 -6.34635
-0.7112 -6.27822 -6.27822
-0.82416 -6.20681 -6.20681
-0.829237 -6.27643 -6.27643
-0.952982 -6.34479 -6.34479
-0.964191 -6.4855 -6.4855
-0.724885 -6.48903 -6.48903
-0.715756 -6.34818 -6.34818
-0.958586 -6.41499 -6.41499
-0.844486 -6.48714 -6.48714
-0.720318 -6.41845 -6.41845
-0.834316 -6.34635 -6.34635
-0.839399 -6.41659 -6.41659
-0.964191 -6.4855 -6.4855
-0.975405 -6.62743 -6.62743
-0.734037 -6.63111 -6.63111
-0.724885 -6.48903 -6.48903
-0.969797 -6.55631 -6.55631
-0.854668 -6.62914 -6.62914
-0.729458 -6.55992 -6.55992
-0.844486 -6.48714 -6.48714
-0.849575 -6.55799 -6.55799
-0.975405 -6.62743 -6.62743
-0.986622 -6.77058 -6.77058
-0.743211 -6.77441 -6.77441
-0.734037 -6.63111 -6.63111
-0.981013 -6.69886 -6.69886
-0.864864 -6.77237 -6.77237
-0.738621 -6.70261 -6.70261
-0.854668 -6.62914 -6.62914
-0.859764 -6.70061 -6.70061
-0.986622 -6.77058 -6.77058
-0.997843 -6.91494 -6.91494
-0.752407 -6.91891 -6.91891
-0.743211 -6.77441 -6.77441
-0.992232 -6.84261 -6.84261
-0.875073 -6.9168 -6.9168
-0.747807 -6.84651 -6.84651
-0.864864 -6.77237 -6.77237
-0.869967 -6.84443 -6.84443
-0.997843 -6.91494 -6.91494
-1.00907 -7.06049 -7.06049
-0.761626 -7.0646 -7.0646
-0.752407 -6.91891 -6.91891
-1.00345 -6.98757 -6.98757
-0.885294 -7.06242 -7.06242
-0.757014 -6.99161 -6.99161
-0.875073 -6.9168 -6.9168
-0.880182 -6.98946 -6.98946
-1.00907 -7.06049 -7.06049
-1.0203 -7.20722 -7.20722
-0.770867 -7.21148 -7.21148
-0.761626 -7.0646 -7.0646
-1.01468 -7.13371 -7.13371
-0.895529 -7.20923 -7.20923
-0.766244 -7.13789 -7.13789
-0.885294 -7.06242 -7.06242
-0.89041 -7.13568 -7.13568
-1.0203 -7.20722 -7.20722
-1.03153 -7.35513 -7.35513
-0.78013 -7.35953 -7.35953
-0.770867 -7.21148 -7.21148
-1.02591 -7.28103 -7.28103
-0.905777 -7.35721 -7.35721
-0.775496 -7.28536 -7.28536
-0.895529 -7.20923 -7.20923
-0.900651 -7.28307 -7.28307
-1.03153 -7.35513 -7.35513
-1.04276 -7.5042 -7.5042
-0.789415 -7.50874 -7.50874
-0.78013 -7.35953 -7.35953
-1.03715 -7.42952 -7.42952
-0.916037 -7.50635 -7.50635
-0.78477 -7.43399 -7.43399
-0.905777 -7.35721 -7.35721
-0.910906 -7.43163 -7.43163
-1.04276 -7.5042 -7.5042
-1.054 -7.65442 -7.65442
-0.798722 -7.6591 -7.6591
-0.789415 -7.50874 -7.50874
-1.04838 -7.57916 -7.57916
-0.926311 -7.65664 -7.65664
-0.794066 -7.58378 -7.58378
-0.916037 -7.50635 -7.50635
-0.921172 -7.58135 -7.58135
-1.054 -7.65442 -7.65442
-1.06525 -7.80577 -7.80577
-0.808051 -7.8106 -7.8106
-0.798722 -7.6591 -7.6591
-1.05962 -7.72995 -7.72995
-0.936596 -7.80807 -7.80807
-0.803384 -7.73471 -7.73471
-0.926311 -7.65664 -7.65664
-0.931452 -7.73221 -7.73221
-1.06525 -7.80577 -7.80577
-1.07649 -7.95826 -7.95826
-0.817401 -7.96323 -7.96323
-0.808051 -7.8106 -7.8106
-1.07087 -7.88188 -7.88188
-0.946895 -7.96063 -7.96063
-0.812724 -7.88677 -7.88677
-0.936596 -7.80807 -7.80807
-0.941744 -7.88421 -7.88421
-1.07649 -7.95826 -7.95826
-1.08774 -8.11187 -8.11187
-0.826773 -8.11698 -8.11698
-0.817401 -7.96323 -7.96323
-1.08212 -8.03493 -8.03493
-0.957205 -8.11431 -8.11431
-0.822085 -8.03996 -8.03996
-0.946895 -7.96063 -7.96063
-0.952049 -8.03733 -8.03733
-1.08774 -8.11187 -8.11187
-1.09899 -8.26658 -8.26658
-0.836167 -8.27183 -8.27183
-0.826773 -8.11698 -8.11698
-1.09337 -8.18909 -8.18909
-0.967528 -8.26909 -8.26909
-0.831468 -8.19427 -8.19427
-0.957205 -8.11431 -8.11431
-0.962365 -8.19156 -8.19156
-1.09899 -8.26658 -8.26658
-1.11025 -8.42239 -8.42239
-0.845581 -8.42778 -8.42778
-0.836167 -8.27183 -8.27183
-1.10462 -8.34435 -8.34435
-0.977863 -8.42497 -8.42497
-0.840871 -8.34967 -8.34967
-0.967528 -8.26909 -8.26909
-0.972694 -8.3469 -8.3469
-1.11025 -8.42239 -8.42239
-1.12151 -8.57929 -8.57929
-0.855017 -8.58482 -8.58482
-0.845581 -8.42778 -8.42778
-1.11588 -8.5007 -8.5007
-0.988209 -8.58194 -8.58194
-0.850297 -8.50617 -8.50617
-0.977863 -8.42497 -8.42497
-0.983035 -8.50332 -8.50332
-1.12151 -8.57929 -8.57929
-1.13277 -8.73726 -8.73726
-0.864473 -8.74293 -8.74293
-0.855017 -8.58482 -8.58482
-1.12714 -8.65814 -8.65814
-0.998567 -8.73998 -8.73998
-0.859742 -8.66374 -8.66374
-0.988209 -8.58194 -8.58194
-0.993387 -8.66083 -8.66083
-1.13277 -8.73726 -8.73726
-1.14403 -8.89629 -8.89629
-0.87395 -8.90211 -8.90211
-0.864473 -8.74293 -8.74293
-1.1384 -8.81664 -8.81664
-1.00894 -8.89909 -8.89909
-0.869209 -8.82239 -8.82239
-0.998567 -8.73998 -8.73998
-1.00375 -8.8194 -8.8194
-1.14403 -8.89629 -8.89629
-1.15529 -9.05638 -9.05638
-0.883447 -9.06234 -9.06234
-0.87395 -8.90211 -8.90211
-1.14966 -8.97621 -8.97621
-1.01932 -9.05925 -9.05925
-0.878696 -8.98209 -8.98209
-1.00894 -8.89909 -8.89909
-1.01413 -8.97904 -8.97904
-1.15529 -9.05638 -9.05638
-1.16656 -9.21751 -9.21751
-0.892964 -9.22361 -9.22361
-0.883447 -9.06234 -9.06234
-1.16092 -9.13682 -9.13682
-1.02971 -9.22045 -9.22045
-0.888203 -9.14284 -9.14284
-1.01932 -9.05925 -9.05925
-1.02451 -9.13972 -9.13972
-1.16656 -9.21751 -9.21751
-1.17782 -9.37968 -9.37968
-0.902501 -9.38591 -9.38591
-0.892964 -9.22361 -9.22361
-1.17219 -9.29847 -9.29847
-1.04011 -9.38269 -9.38269
-0.89773 -9.30463 -9.30463
-1.02971 -9.22045 -9.22045
-1.03491 -9.30144 -9.30144
-1.17782 -9.37968 -9.37968
-1.18909 -9.54286 -9.54286
-0.912058 -9.54923 -9.54923
-0.902501 -9.38591 -9.38591
-1.18346 -9.46114 -9.46114
-1.05052 -9.54594 -9.54594
-0.907277 -9.46745 -9.46745
-1.04011 -9.38269 -9.38269
-1.04532 -9.46419 -9.46419
-1.18909 -9.54286 -9.54286
-1.20036 -9.70706 -9.70706
-0.921634 -9.71357 -9.71357
-0.912058 -9.54923 -9.54923
-1.19473 -9.62483 -9.62483
-1.06095 -9.71021 -9.71021
-0.916843 -9.63128 -9.63128
-1.05052 -9.54594 -9.54594
-1.05573 -9.62795 -9.62795
-1.20036 -9.70706 -9.70706
-1.21163 -9.87225 -9.87225
-0.931228 -9.8789 -9.8789
-0.921634 -9.71357 -9.71357
-1.206 -9.78953 -9.78953
-1.07138 -9.87547 -9.87547
-0.926429 -9.79611 -9.79611
-1.06095 -9.71021 -9.71021
-1.06616 -9.79272 -9.79272
-1.21163 -9.87225 -9.87225
-1.2229 -10.0384 -10.0384
-0.940842 -10.0452 -10.0452
-0.931228 -9.8789 -9.8789
-1.21726 -9.95522 -9.95522
-1.08182 -10.0417 -10.0417
-0.936033 -9.96194 -9.96194
-1.07138 -9.87547 -9.87547
-1.0766 -9.95848 -9.95848
-1.2229 -10.0384 -10.0384
-1.23417 -10.2056 -10.2056
-0.950473 -10.2125 -10.2125
-0.940842 -10.0452 -10.0452
-1.22853 -10.1219 -10.1219
-1.09227 -10.209 -10.209
-0.945655 -10.1287 -10.1287
-1.08182 -10.0417 -10.0417
-1.08704 -10.1252 -10.1252
-1.23417 -10.2056 -10.2056
-1.24544 -10.3737 -10.3737
-0.960123 -10.3808 -10.3808
-0.950473 -10.2125 -10.2125
-1.2398 -10.2895 -10.2895
-1.10273 -10.3772 -10.3772
-0.955296 -10.2965 -10.2965
-1.09227 -10.209 -10.209
-1.0975 -10.2929 -10.2929
-1.24544 -10.3737 -10.3737
-1.25671 -10.5428 -10.5428
-0.96979 -10.55 -10.55
-0.960123 -10.3808 -10.3808
-1.25107 -10.4581 -10.4581
-1.1132 -10.5463 -10.5463
-0.964954 -10.4653 -10.4653
-1.10273 -10.3772 -10.3772
-1.10796 -10.4616 -10.4616
-1.25671 -10.5428 -10.5428
-1.26797 -10.7128 -10.7128
-0.979474 -10.7202 -10.7202
-0.96979 -10.55 -10.55
-1.26234 -10.6277 -10.6277
-1.12367 -10.7164 -10.7164
-0.97463 -10.635 -10.635
-1.1132 -10.5463 -10.5463
-1.11843 -10.6312 -10.6312
-1.26797 -10.7128 -10.7128
-1.27924 -10.8838 -10.8838
-0.989176 -10.8913 -10.8913
-0.979474 -10.7202 -10.7202
-1.27361 -10.7982 -10.7982
-1.13416 -10.8874 -10.8874
-0.984323 -10.8056 -10.8056
-1.12367 -10.7164 -10.7164
-1.12891 -10.8018 -10.8018
-1.27924 -10.8838 -10.8838
-1.2905 -11.0557 -11.0557
-0.998893 -11.0633 -11.0633
-0.989176 -10.8913 -10.8913
-1.28487 -10.9696 -10.9696
-1.14465 -11.0594 -11.0594
-0.994032 -10.9772 -10.9772
-1.13416 -10.8874 -10.8874
-1.1394 -10.9733 -10.9733
-1.2905 -11.0557 -11.0557
-1.30176 -11.2285 -11.2285
-1.00863 -11.2362 -11.2362
-0.998893 -11.0633 -11.0633
-1.29613 -11.142 -11.142
-1.15514 -11.2323 -11.2323
-1.00376 -11.1496 -11.1496
-1.14465 -11.0594 -11.0594
-1.14989 -11.1457 -11.1457
-1.30176 -11.2285 -11.2285
-1.31302 -11.4022 -11.4022
-1.01838 -11.4101 -11.4101
-1.00863 -11.2362 -11.2362
-1.30739 -11.3152 -11.3152
-1.16565 -11.406 -11.406
-1.0135 -11.323 -11.323
-1.15514 -11.2323 -11.2323
-1.16039 -11.319 -11.319
-1.31302 -11.4022 -11.4022
-1.32428 -11.5768 -11.5768
-1.02814 -11.5848 -11.5848
-1.01838 -11.4101 -11.4101
-1.31865 -11.4894 -11.4894
-1.17616 -11.5807 -11.5807
-1.02326 -11.4973 -11.4973
-1.16565 -11.406 -11.406
-1.1709 -11.4933 -11.4933
-1.32428 -11.5768 -11.5768
-1.33553 -11.7523 -11.7523
-1.03792 -11.7604 -11.7604
-1.02814 -11.5848 -11.5848
-1.3299 -11.6644 -11.6644
-1.18667 -11.7562 -11.7562
-1.03303 -11.6725 -11.6725
-1.17616 -11.5807 -11.5807
-1.18141 -11.6684 -11.6684
-1.33553 -11.7523 -11.7523
-1.34678 -11.9286 -11.9286
-1.04771 -11.9369 -11.9369
-1.03792 -11.7604 -11.7604
-1.34115 -11.8403 -11.8403
-1.19719 -11.9327 -11.9327
-1.04282 -11.8485 -11.8485
-1.18667 -11.7562 -11.7562
-1.19193 -11.8443 -11.8443
-1.34678 -11.9286 -11.9286
-1.35802 -12.1058 -12.1058
-1.05752 -12.1142 -12.1142
-1.04771 -11.9369 -11.9369
-1.3524 -12.0171 -12.0171
-1.20772 -12.1099 -12.1099
-1.05262 -12.0254 -12.0254
-1.19719 -11.9327 -11.9327
-1.20246 -12.0212 -12.0212
-1.35802 -12.1058 -12.1058
-1.36926 -12.2839 -12.2839
-1.06734 -12.2924 -12.2924
-1.05752 -12.1142 -12.1142
-1.36364 -12.1947 -12.1947
-1.21825 -12.288 -12.288
-1.06243 -12.2032 -12.2032
-1.20772 -12.1099 -12.1099
-1.21298 -12.1989 -12.1989
-1.36926 -12.2839 -12.2839
-1.38049 -12.4628 -12.4628
-1.07718 -12.4714 -12.4714
-1.06734 -12.2924 -12.2924
-1.37487 -12.3732 -12.3732
-1.22878 -12.467 -12.467
-1.07226 -12.3818 -12.3818
-1.21825 -12.288 -12.288
-1.22352 -12.3774 -12.3774
-1.38049 -12.4628 -12.4628
-1.39172 -12.6425 -12.6425
-1.08702 -12.6512 -12.6512
-1.07718 -12.4714 -12.4714
-1.3861 -12.5525 -12.5525
-1.23932 -12.6468 -12.6468
-1.0821 -12.5612 -12.5612
-1.22878 -12.467 -12.467
-1.23405 -12.5568 -12.5568
-1.39172 -12.6425 -12.6425
-1.40294 -12.823 -12.823
-1.09688 -12.8319 -12.8319
-1.08702 -12.6512 -12.6512
-1.39733 -12.7327 -12.7327
-1.24986 -12.8274 -12.8274
-1.09195 -12.7415 -12.7415
-1.23932 -12.6468 -12.6468
-1.24459 -12.737 -12.737
-1.40294 -12.823 -12.823
-1.41415 -13.0044 -13.0044
-1.10675 -13.0134 -13.0134
-1.09688 -12.8319 -12.8319
-1.40855 -12.9136 -12.9136
-1.2604 -13.0088 -13.0088
-1.10182 -12.9225 -12.9225
-1.24986 -12.8274 -12.8274
-1.25513 -12.918 -12.918
-1.41415 -13.0044 -13.0044
-1.42536 -13.1865 -13.1865
-1.11663 -13.1956 -13.1956
-1.10675 -13.0134 -13.0134
-1.41976 -13.0953 -13.0953
-1.27094 -13.191 -13.191
-1.11169 -13.1044 -13.1044
-1.2604 -13.0088 -13.0088
-1.26567 -13.0998 -13.0998
-1.42536 -13.1865 -13.1865
-1.43656 -13.3694 -13.3694
-1.12652 -13.3787 -13.3787
-1.11663 -13.1956 -13.1956
-1.43096 -13.2779 -13.2779
-1.28149 -13.374 -13.374
-1.12158 -13.287 -13.287
-1.27094 -13.191 -13.191
-1.27622 -13.2824 -13.2824
-1.43656 -13.3694 -13.3694
-1.44775 -13.5531 -13.5531
-1.13642 -13.5625 -13.5625
-1.12652 -13.3787 -13.3787
-1.44215 -13.4612 -13.4612
-1.29203 -13.5577 -13.5577
-1.13147 -13.4705 -13.4705
-1.28149 -13.374 -13.374
-1.28676 -13.4657 -13.4657
-1.44775 -13.5531 -13.5531
-1.45893 -13.7375 -13.7375
-1.14634 -13.747 -13.747
-1.13642 -13.5625 -13.5625
-1.45334 -13.6452 -13.6452
-1.30258 -13.7422 -13.7422
-1.14138 -13.6547 -13.6547
-1.29203 -13.5577 -13.5577
-1.29731 -13.6499 -13.6499
-1.45893 -13.7375 -13.7375
-1.4701 -13.9228 -13.9228
-1.15625 -13.9324 -13.9324
-1.14634 -13.747 -13.747
-1.46451 -13.8301 -13.8301
-1.31312 -13.9275 -13.9275
-1.15129 -13.8396 -13.8396
-1.30258 -13.7422 -13.7422
-1.30785 -13.8348 -13.8348
-1.4701 -13.9228 -13.9228
-1.48126 -14.1087 -14.1087
-1.16618 -14.1184 -14.1184
-1.15625 -13.9324 -13.9324
-1.47568 -14.0156 -14.0156
-1.32367 -14.1135 -14.1135
-1.16122 -14.0253 -14.0253
-1.31312 -13.9275 -13.9275
-1.3184 -14.0204 -14.0204
-1.48126 -14.1087 -14.1087
-1.49241 -14.2954 -14.2954
-1.17612 -14.3052 -14.3052
-1.16618 -14.1184 -14.1184
-1.48683 -14.2019 -14.2019
-1.33421 -14.3002 -14.3002
-1.17115 -14.2117 -14.2117
-1.32367 -14.1135 -14.1135
-1.32894 -14.2068 -14.2068
-1.49241 -14.2954 -14.2954
-1.50355 -14.4828 -14.4828
-1.18606 -14.4927 -14.4927
-1.17612 -14.3052 -14.3052
-1.49798 -14.389 -14.389
-1.34475 -14.4877 -14.4877
-1.18109 -14.3989 -14.3989
-1.33421 -14.3002 -14.3002
-1.33948 -14.3939 -14.3939
-1.50355 -14.4828 -14.4828
-1.51467 -14.6709 -14.6709
-1.19601 -14.6809 -14.6809
-1.18606 -14.4927 -14.4927
-1.50911 -14.5767 -14.5767
-1.35529 -14.6758 -14.6758
-1.19103 -14.5867 -14.5867
-1.34475 -14.4877 -14.4877
-1.35002 -14.5817 -14.5817
-1.51467 -14.6709 -14.6709
-1.52579 -14.8597 -14.8597
-1.20596 -14.8698 -14.8698
-1.19601 -14.6809 -14.6809
-1.52023 -14.7652 -14.7652
-1.36582 -14.8647 -14.8647
-1.20098 -14.7753 -14.7753
-1.35529 -14.6758 -14.6758
-1.36056 -14.7702 -14.7702
-1.52579 -14.8597 -14.8597
-1.53689 -15.0491 -15.0491
-1.21592 -15.0594 -15.0594
-1.20596 -14.8698 -14.8698
-1.53134 -14.9543 -14.9543
-1.37635 -15.0542 -15.0542
-1.21094 -14.9646 -14.9646
-1.36582 -14.8647 -14.8647
-1.37109 -14.9594 -14.9594
-1.53689 -15.0491 -15.0491
-1.54797 -15.2393 -15.2393
-1.22588 -15.2497 -15.2497
-1.21592 -15.0594 -15.0594
-1.54243 -15.1441 -15.1441
-1.38688 -15.2444 -15.2444
-1.2209 -15.1545 -15.1545
-1.37635 -15.0542 -15.0542
-1.38162 -15.1492 -15.1492
-1.54797 -15.2393 -15.2393
-1.55905 -15.4301 -15.4301
-1.23585 -15.4406 -15.4406
-1.22588 -15.2497 -15.2497
-1.55351 -15.3346 -15.3346
-1.3974 -15.4353 -15.4353
-1.23087 -15.3451 -15.3451
-1.38688 -15.2444 -15.2444
-1.39214 -15.3398 -15.3398
-1.55905 -15.4301 -15.4301
-1.5701 -15.6216 -15.6216
-1.24582 -15.6322 -15.6322
-1.23585 -15.4406 -15.4406
-1.56458 -15.5258 -15.5258
-1.40791 -15.6268 -15.6268
-1.24083 -15.5364 -15.5364
-1.3974 -15.4353 -15.4353
-1.40266 -15.531 -15.531
-1.5701 -15.6216 -15.6216
-1.58115 -15.8137 -15.8137
-1.25579 -15.8245 -15.8245
-1.24582 -15.6322 -15.6322
-1.57563 -15.7176 -15.7176
-1.41842 -15.819 -15.819
-1.25081 -15.7283 -15.7283
-1.40791 -15.6268 -15.6268
-1.41317 -15.7229 -15.7229
-1.58115 -15.8137 -15.8137
-1.59217 -16.0065 -16.0065
-1.26577 -16.0173 -16.0173
-1.25579 -15.8245 -15.8245
-1.58666 -15.91 -15.91
-1.42892 -16.0118 -16.0118
-1.26078 -15.9208 -15.9208
-1.41842 -15.819 -15.819
-1.42367 -15.9153 -15.9153
-1.59217 -16.0065 -16.0065
-1.60318 -16.1998 -16.1998
-1.27575 -16.2108 -16.2108
-1.26577 -16.0173 -16.0173
-1.59768 -16.1031 -16.1031
-1.43941 -16.2053 -16.2053
-1.27076 -16.114 -16.114
-1.42892 -16.0118 -16.0118
-1.43417 -16.1085 -16.1085
-1.60318 -16.1998 -16.1998
-1.61417 -16.3938 -16.3938
-1.28572 -16.4049 -16.4049
-1.27575 -16.2108 -16.2108
-1.60868 -16.2967 -16.2967
-1.4499 -16.3993 -16.3993
-1.28073 -16.3078 -16.3078
-1.43941 -16.2053 -16.2053
-1.44466 -16.3022 -16.3022
-1.61417 -16.3938 -16.3938
-1.62514 -16.5884 -16.5884
-1.2957 -16.5996 -16.5996
-1.28572 -16.4049 -16.4049
-1.61966 -16.491 -16.491
-1.46037 -16.5939 -16.5939
-1.29071 -16.5022 -16.5022
-1.4499 -16.3993 -16.3993
-1.45513 -16.4965 -16.4965
-1.62514 -16.5884 -16.5884
-1.63609 -16.7836 -16.7836
-1.30568 -16.7948 -16.7948
-1.2957 -16.5996 -16.5996
-1.63062 -16.6859 -16.6859
-1.47084 -16.7891 -16.7891
-1.30069 -16.6971 -16.6971
-1.46037 -16.5939 -16.5939
-1.4656 -16.6915 -16.6915
-1.63609 -16.7836 -16.7836
-1.64703 -16.9793 -16.9793
-1.31565 -16.9907 -16.9907
-1.30568 -16.7948 -16.7948
-1.64156 -16.8814 -16.8814
-1.48129 -16.985 -16.985
-1.31066 -16.8927 -16.8927
-1.47084 -16.7891 -16.7891
-1.47606 -16.887 -16.887
-1.64703 -16.9793 -16.9793
-1.65794 -17.1756 -17.1756
-1.32562 -17.1871 -17.1871
-1.31565 -16.9907 -16.9907
-1.65249 -17.0774 -17.0774
-1.49173 -17.1813 -17.1813
-1.32064 -17.0888 -17.0888
-1.48129 -16.985 -16.985
-1.48651 -17.0831 -17.0831
-1.65794 -17.1756 -17.1756
-1.66883 -17.3725 -17.3725
-1.33559 -17.3841 -17.3841
-1.32562 -17.1871 -17.1871
-1.66339 -17.274 -17.274
-1.50216 -17.3782 -17.3782
-1.33061 -17.2855 -17.2855
-1.49173 -17.1813 -17.1813
-1.49695 -17.2797 -17.2797
-1.66883 -17.3725 -17.3725
-1.6797 -17.5699 -17.5699
-1.34556 -17.5816 -17.5816
-1.33559 -17.3841 -17.3841
-1.67427 -17.4712 -17.4712
-1.51258 -17.5757 -17.5757
-1.34058 -17.4828 -17.4828
-1.50216 -17.3782 -17.3782
-1.50737 -17.4769 -17.4769
-1.6797 -17.5699 -17.5699
-1.69055 -17.7679 -17.7679
-1.35552 -17.7797 -17.7797
-1.34556 -17.5816 -17.5816
-1.68513 -17.6688 -17.6688
-1.52299 -17.7737 -17.7737
-1.35054 -17.6806 -17.6806
-1.51258 -17.5757 -17.5757
-1.51778 -17.6747 -17.6747
-1.69055 -17.7679 -17.7679
-1.70137 -17.9664 -17.9664
-1.36548 -17.9782 -17.9782
-1.35552 -17.7797 -17.7797
-1.69596 -17.8671 -17.8671
-1.53338 -17.9722 -17.9722
-1.3605 -17.8789 -17.8789
-1.52299 -17.7737 -17.7737
-1.52818 -17.8729 -17.8729
-1.70137 -17.9664 -17.9664
-1.71217 -18.1654 -18.1654
-1.37543 -18.1773 -18.1773
-1.36548 -17.9782 -17.9782
-1.70677 -18.0658 -18.0658
-1.54375 -18.1713 -18.1713
-1.37045 -18.0777 -18.0777
-1.53338 -17.9722 -17.9722
-1.53856 -18.0717 -18.0717
-1.71217 -18.1654 -18.1654
-1.72295 -18.3649 -18.3649
-1.38537 -18.3769 -18.3769
-1.37543 -18.1773 -18.1773
-1.71756 -18.265 -18.265
-1.55411 -18.3708 -18.3708
-1.3804 -18.2771 -18.2771
-1.54375 -18.1713 -18.1713
-1.54893 -18.271 -18.271
-1.72295 -18.3649 -18.3649
-1.73369 -18.5648 -18.5648
-1.39531 -18.577 -18.577
-1.38537 -18.3769 -18.3769
-1.72832 -18.4648 -18.4648
-1.56445 -18.5709 -18.5709
-1.39034 -18.4769 -18.4769
-1.55411 -18.3708 -18.3708
-1.55928 -18.4708 -18.4708
-1.73369 -18.5648 -18.5648
-1.74442 -18.7653 -18.7653
-1.40524 -18.7776 -18.7776
-1.39531 -18.577 -18.577
-1.73906 -18.665 -18.665
-1.57478 -18.7714 -18.7714
-1.40028 -18.6772 -18.6772
-1.56445 -18.5709 -18.5709
-1.56962 -18.6711 -18.6711
-1.74442 -18.7653 -18.7653
-1.75511 -18.9662 -18.9662
-1.41516 -18.9786 -18.9786
-1.40524 -18.7776 -18.7776
-1.74977 -18.8657 -18.8657
-1.58509 -18.9724 -18.9724
-1.4102 -18.878 -18.878
-1.57478 -18.7714 -18.7714
-1.57993 -18.8718 -18.8718
-1.75511 -18.9662 -18.9662
-1.76578 -19.1676 -19.1676
-1.42507 -19.1801 -19.1801
-1.41516 -18.9786 -18.9786
-1.76045 -19.0669 -19.0669
-1.59538 -19.1738 -19.1738
-1.42012 -19.0793 -19.0793
-1.58509 -18.9724 -18.9724
-1.59023 -19.073 -19.073
-1.76578 -19.1676 -19.1676
-1.77642 -19.3695 -19.3695
-1.43497 -19.382 -19.382
-1.42507 -19.1801 -19.1801
-1.7711 -19.2685 -19.2685
-1.60564 -19.3757 -19.3757
-1.43002 -19.281 -19.281
-1.59538 -19.1738 -19.1738
-1.60051 -19.2747 -19.2747
-1.77642 -19.3695 -19.3695
-1.78703 -19.5718 -19.5718
-1.44486 -19.5844 -19.5844
-1.43497 -19.382 -19.382
-1.78173 -19.4706 -19.4706
-1.61589 -19.578 -19.578
-1.43992 -19.4831 -19.4831
-1.60564 -19.3757 -19.3757
-1.61077 -19.4768 -19.4768
-1.78703 -19.5718 -19.5718
-1.7976 -19.7745 -19.7745
-1.45473 -19.7872 -19.7872
-1.44486 -19.5844 -19.5844
-1.79232 -19.6731 -19.6731
-1.62612 -19.7808 -19.7808
-1.4498 -19.6857 -19.6857
-1.61589 -19.578 -19.578
-1.62101 -19.6794 -19.6794
-1.7976 -19.7745 -19.7745
-1.80815 -19.9776 -19.9776
-1.4646 -19.9904 -19.9904
-1.45473 -19.7872 -19.7872
-1.80288 -19.876 -19.876
-1.63633 -19.984 -19.984
-1.45967 -19.8887 -19.8887
-1.62612 -19.7808 -19.7808
-1.63123 -19.8823 -19.8823
-1.80815 -19.9776 -19.9776
-1.81867 -20.1811 -20.1811
-1.47445 -20.194 -20.194
-1.4646 -19.9904 -19.9904
-1.81341 -20.0793 -20.0793
-1.64651 -20.1875 -20.1875
-1.46953 -20.0921 -20.0921
-1.63633 -19.984 -19.984
-1.64142 -20.0857 -20.0857
-1.81867 -20.1811 -20.1811
-1.82915 -20.3851 -20.3851
-1.48429 -20.398 -20.398
-1.47445 -20.194 -20.194
-1.82391 -20.2831 -20.2831
-1.65667 -20.3915 -20.3915
-1.47937 -20.2959 -20.2959
-1.64651 -20.1875 -20.1875
-1.65159 -20.2895 -20.2895
-1.82915 -20.3851 -20.3851
-1.8396 -20.5894 -20.5894
-1.49411 -20.6024 -20.6024
-1.48429 -20.398 -20.398
-1.83438 -20.4872 -20.4872
-1.66681 -20.5959 -20.5959
-1.4892 -20.5001 -20.5001
-1.65667 -20.3915 -20.3915
-1.66174 -20.4936 -20.4936
-1.8396 -20.5894 -20.5894
-1.85002 -20.7941 -20.7941
-1.50391 -20.8072 -20.8072
-1.49411 -20.6024 -20.6024
-1.84481 -20.6917 -20.6917
-1.67692 -20.8006 -20.8006
-1.49901 -20.7047 -20.7047
-1.66681 -20.5959 -20.5959
-1.67186 -20.6982 -20.6982
-1.85002 -20.7941 -20.7941
-1.8604 -20.9991 -20.9991
-1.5137 -21.0123 -21.0123
-1.50391 -20.8072 -20.8072
-1.85521 -20.8965 -20.8965
-1.687 -21.0057 -21.0057
-1.50881 -20.9097 -20.9097
-1.67692 -20.8006 -20.8006
-1.68196 -20.9031 -20.9031
-1.8604 -20.9991 -20.9991
-1.87074 -21.2045 -21.2045
-1.52347 -21.2177 -21.2177
-1.5137 -21.0123 -21.0123
-1.86557 -21.1018 -21.1018
-1.69706 -21.2111 -21.2111
-1.51859 -21.115 -21.115
-1.687 -21.0057 -21.0057
-1.69203 -21.1083 -21.1083
-1.87074 -21.2045 -21.2045
-1.88105 -21.4103 -21.4103
-1.53322 -21.4236 -21.4236
-1.52347 -21.2177 -21.2177
-1.8759 -21.3073 -21.3073
-1.70709 -21.4169 -21.4169
-1.52835 -21.3206 -21.3206
-1.69706 -21.2111 -21.2111
-1.70208 -21.3139 -21.3139
-1.88105 -21.4103 -21.4103
-1.89132 -21.6163 -21.6163
-1.54295 -21.6297 -21.6297
-1.53322 -21.4236 -21.4236
-1.88619 -21.5132 -21.5132
-1.71709 -21.623 -21.623
-1.53809 -21.5266 -21.5266
-1.70709 -21.4169 -21.4169
-1.71209 -21.5199 -21.5199
-1.89132 -21.6163 -21.6163
-1.90155 -21.8227 -21.8227
-1.55267 -21.8362 -21.8362
-1.54295 -21.6297 -21.6297
-1.89644 -21.7195 -21.7195
-1.72706 -21.8294 -21.8294
-1.54781 -21.7329 -21.7329
-1.71709 -21.623 -21.623
-1.72208 -21.7262 -21.7262
-1.90155 -21.8227 -21.8227
-1.91174 -22.0294 -22.0294
-1.56236 -22.0429 -22.0429
-1.55267 -21.8362 -21.8362
-1.90665 -21.926 -21.926
-1.737 -22.0361 -22.0361
-1.55751 -21.9395 -21.9395
-1.72706 -21.8294 -21.8294
-1.73203 -21.9327 -21.9327
-1.91174 -22.0294 -22.0294
-1.92189 -22.2364 -22.2364
-1.57203 -22.25 -22.25
-1.56236 -22.0429 -22.0429
-1.91682 -22.1329 -22.1329
-1.74691 -22.2432 -22.2432
-1.5672 -22.1464 -22.1464
-1.737 -22.0361 -22.0361
-1.74196 -22.1396 -22.1396
-1.92189 -22.2364 -22.2364
-1.932 -22.4437 -22.4437
-1.58167 -22.4573 -22.4573
-1.57203 -22.25 -22.25
-1.92695 -22.34 -22.34
-1.75679 -22.4505 -22.4505
-1.57685 -22.3536 -22.3536
-1.74691 -22.2432 -22.2432
-1.75186 -22.3468 -22.3468
-1.932 -22.4437 -22.4437
-1.94207 -22.6512 -22.6512
-1.5913 -22.6649 -22.6649
-1.58167 -22.4573 -22.4573
-1.93704 -22.5474 -22.5474
-1.76664 -22.6581 -22.6581
-1.58649 -22.5611 -22.5611
-1.75679 -22.4505 -22.4505
-1.76172 -22.5542 -22.5542
-1.94207 -22.6512 -22.6512
-1.9521 -22.859 -22.859
-1.6009 -22.8728 -22.8728
-1.5913 -22.6649 -22.6649
-1.94709 -22.7551 -22.7551
-1.77645 -22.8659 -22.8659
-1.5961 -22.7689 -22.7689
-1.76664 -22.6581 -22.6581
-1.77155 -22.762 -22.762
-1.9521 -22.859 -22.859
-1.96208 -23.0671 -23.0671
-1.61047 -23.081 -23.081
-1.6009 -22.8728 -22.8728
-1.95709 -22.9631 -22.9631
-1.78623 -23.074 -23.074
-1.60569 -22.9769 -22.9769
-1.77645 -22.8659 -22.8659
-1.78134 -22.9699 -22.9699
-1.96208 -23.0671 -23.0671
-1.97202 -23.2754 -23.2754
-1.62002 -23.2893 -23.2893
-1.61047 -23.081 -23.081
-1.96706 -23.1713 -23.1713
-1.79597 -23.2824 -23.2824
-1.61525 -23.1851 -23.1851
-1.78623 -23.074 -23.074
-1.7911 -23.1782 -23.1782
-1.97202 -23.2754 -23.2754
-1.98191 -23.484 -23.484
-1.62954 -23.4979 -23.4979
-1.62002 -23.2893 -23.2893
-1.97697 -23.3797 -23.3797
-1.80568 -23.4909 -23.4909
-1.62478 -23.3936 -23.3936
-1.79597 -23.2824 -23.2824
-1.80083 -23.3866 -23.3866
-1.98191 -23.484 -23.484
-1.99176 -23.6928 -23.6928
-1.63903 -23.7068 -23.7068
-1.62954 -23.4979 -23.4979
-1.98684 -23.5883 -23.5883
-1.81535 -23.6997 -23.6997
-1.63429 -23.6023 -23.6023
-1.80568 -23.4909 -23.4909
-1.81052 -23.5953 -23.5953
-1.99176 -23.6928 -23.6928
-2.00156 -23.9017 -23.9017
-1.64849 -23.9158 -23.9158
-1.63903 -23.7068 -23.7068
-1.99666 -23.7972 -23.7972
-1.82498 -23.9088 -23.9088
-1.64377 -23.8113 -23.8113
-1.81535 -23.6997 -23.6997
-1.82017 -23.8042 -23.8042
-2.00156 -23.9017 -23.9017
-2.01131 -24.1109 -24.1109
-1.65793 -24.125 -24.125
-1.64849 -23.9158 -23.9158
-2.00644 -24.0063 -24.0063
-1.83457 -24.118 -24.118
-1.65322 -24.0204 -24.0204
-1.82498 -23.9088 -23.9088
-1.82978 -24.0133 -24.0133
-2.01131 -24.1109 -24.1109
-2.02101 -24.3203 -24.3203
-1.66733 -24.3345 -24.3345
-1.65793 -24.125 -24.125
-2.01617 -24.2156 -24.2156
-1.84413 -24.3274 -24.3274
-1.66263 -24.2297 -24.2297
-1.83457 -24.118 -24.118
-1.83935 -24.2226 -24.2226
-2.02101 -24.3203 -24.3203
-2.03067 -24.5298 -24.5298
-1.6767 -24.5441 -24.5441
-1.66733 -24.3345 -24.3345
-2.02585 -24.4251 -24.4251
-1.85364 -24.5369 -24.5369
-1.67202 -24.4393 -24.4393
-1.84413 -24.3274 -24.3274
-1.84889 -24.4321 -24.4321
-2.03067 -24.5298 -24.5298
-2.04027 -24.7396 -24.7396
-1.68604 -24.7538 -24.7538
-1.6767 -24.5441 -24.5441
-2.03547 -24.6347 -24.6347
-1.86311 -24.7467 -24.7467
-1.68138 -24.6489 -24.6489
-1.85364 -24.5369 -24.5369
-1.85838 -24.6418 -24.6418
-2.04027 -24.7396 -24.7396
-2.04982 -24.9494 -24.9494
-1.69535 -24.9638 -24.9638
-1.68604 -24.7538 -24.7538
-2.04505 -24.8445 -24.8445
-1.87254 -24.9566 -24.9566
-1.6907 -24.8588 -24.8588
-1.86311 -24.7467 -24.7467
-1.86783 -24.8516 -24.8516
-2.04982 -24.9494 -24.9494
-2.05932 -25.1595 -25.1595
-1.70462 -25.1738 -25.1738
-1.69535 -24.9638 -24.9638
-2.05458 -25.0544 -25.0544
-1.88193 -25.1666 -25.1666
-1.69999 -25.0688 -25.0688
-1.87254 -24.9566 -24.9566
-1.87724 -25.0616 -25.0616
-2.05932 -25.1595 -25.1595
-2.06877 -25.3696 -25.3696
-1.71386 -25.384 -25.384
-1.70462 -25.1738 -25.1738
-2.06405 -25.2645 -25.2645
-1.89127 -25.3768 -25.3768
-1.70925 -25.2789 -25.2789
-1.88193 -25.1666 -25.1666
-1.8866 -25.2717 -25.2717
-2.06877 -25.3696 -25.3696
-2.07816 -25.5799 -25.5799
-1.72306 -25.5944 -25.5944
-1.71386 -25.384 -25.384
-2.07347 -25.4747 -25.4747
-1.90057 -25.5871 -25.5871
-1.71847 -25.4892 -25.4892
-1.89127 -25.3768 -25.3768
-1.89592 -25.482 -25.482
-2.07816 -25.5799 -25.5799
-2.08749 -25.7903 -25.7903
-1.73223 -25.8048 -25.8048
-1.72306 -25.5944 -25.5944
-2.08283 -25.6851 -25.6851
-1.90982 -25.7975 -25.7975
-1.72765 -25.6996 -25.6996
-1.90057 -25.5871 -25.5871
-1.9052 -25.6923 -25.6923
-2.08749 -25.7903 -25.7903
-2.09678 -26.0008 -26.0008
-1.74136 -26.0153 -26.0153
-1.73223 -25.8048 -25.8048
-2.09214 -25.8955 -25.8955
-1.91902 -26.008 -26.008
-1.7368 -25.91 -25.91
-1.90982 -25.7975 -25.7975
-1.91443 -25.9028 -25.9028
-2.09678 -26.0008 -26.0008
-2.106 -26.2114 -26.2114
-1.75045 -26.226 -26.226
-1.74136 -26.0153 -26.0153
-2.1014 -26.1061 -26.1061
-1.92818 -26.2187 -26.2187
-1.74591 -26.1206 -26.1206
-1.91902 -26.008 -26.008
-1.92361 -26.1133 -26.1133
-2.106 -26.2114 -26.2114
-2.11518 -26.422 -26.422
-1.75949 -26.4367 -26.4367
-1.75045 -26.226 -26.226
-2.1106 -26.3167 -26.3167
-1.93729 -26.4293 -26.4293
-1.75497 -26.3313 -26.3313
-1.92818 -26.2187 -26.2187
-1.93274 -26.324 -26.324
-2.11518 -26.422 -26.422
-2.1243 -26.6328 -26.6328
-1.7685 -26.6474 -26.6474
-1.75949 -26.4367 -26.4367
-2.11974 -26.5274 -26.5274
-1.94636 -26.6401 -26.6401
-1.764 -26.542 -26.542
-1.93729 -26.4293 -26.4293
-1.94183 -26.5347 -26.5347
-2.1243 -26.6328 -26.6328
-2.13338 -26.8436 -26.8436
-1.77746 -26.8583 -26.8583
-1.7685 -26.6474 -26.6474
-2.12884 -26.7382 -26.7382
-1.95538 -26.8509 -26.8509
-1.77299 -26.7528 -26.7528
-1.94636 -26.6401 -26.6401
-1.95087 -26.7455 -26.7455
-2.13338 -26.8436 -26.8436
-2.14242 -27.0544 -27.0544
-1.78637 -27.0692 -27.0692
-1.77746 -26.8583 -26.8583
-2.1379 -26.949 -26.949
-1.96436 -27.0618 -27.0618
-1.78192 -26.9637 -26.9637
-1.95538 -26.8509 -26.8509
-1.95987 -26.9563 -26.9563
-2.14242 -27.0544 -27.0544
-2.15147 -27.2654 -27.2654
-1.79523 -27.2802 -27.2802
-1.78637 -27.0692 -27.0692
-2.14694 -27.1599 -27.1599
-1.97329 -27.2728 -27.2728
-1.79081 -27.1747 -27.1747
-1.96436 -27.0618 -27.0618
-1.96883 -27.1673 -27.1673
-2.15147 -27.2654 -27.2654
-2.16058 -27.4765 -27.4765
-1.80404 -27.4913 -27.4913
-1.79523 -27.2802 -27.2802
-2.15601 -27.3709 -27.3709
-1.98217 -27.4839 -27.4839
-1.79964 -27.3857 -27.3857
-1.97329 -27.2728 -27.2728
-1.97774 -27.3783 -27.3783
-2.16058 -27.4765 -27.4765
-2.16978 -27.6885 -27.6885
-1.81289 -27.7025 -27.7025
-1.80404 -27.4913 -27.4913
-2.16519 -27.5823 -27.5823
-1.99103 -27.6955 -27.6955
-1.80845 -27.5969 -27.5969
-1.98217 -27.4839 -27.4839
-1.98659 -27.5896 -27.5896
0 0 0
-0.00826198 -0.00231652 -0.00231652
-0.00481564 -0.000478497 -0.000478497
0 0 0
-0.00400839 -0.000828278 -0.000828278
-0.00647447 -0.00117308 -0.00117308
-0.00233503 0.000152898 0.000152898
0 0 0
-0.00318786 -0.000243803 -0.000243803
-0.00826198 -0.00231652 -0.00231652
-0.0172105 -0.00669574 -0.00669574
-0.00999855 -0.00369405 -0.00369405
-0.00481564 -0.000478497 -0.000478497
-0.0126936 -0.00429455 -0.00429455
-0.0134823 -0.00493528 -0.00493528
-0.00737467 -0.00177666 -0.00177666
-0.00647447 -0.00117308 -0.00117308
-0.00992213 -0.00276597 -0.00276597
-0.0172105 -0.00669574 -0.00669574
-0.0262406 -0.0127151 -0.0127151
-0.0153988 -0.00926463 -0.00926463
-0.00999855 -0.00369405 -0.00369405
-0.0217307 -0.00949315 -0.00949315
-0.0207132 -0.0107464 -0.0107464
-0.0126819 -0.00620039 -0.00620039
-0.0134823 -0.00493528 -0.00493528
-0.0170884 -0.00759717 -0.00759717
-0.0262406 -0.0127151 -0.0127151
-0.0352287 -0.0205599 -0.0205599
-0.0208464 -0.0169811 -0.0169811
-0.0153988 -0.00926463 -0.00926463
-0.0307419 -0.0163985 -0.0163985
-0.0279601 -0.018544 -0.018544
-0.0181226 -0.0128604 -0.0128604
-0.0207132 -0.0107464 -0.0107464
-0.0243404 -0.0143947 -0.0143947
-0.0352287 -0.0205599 -0.0205599
-0.0441459 -0.0303606 -0.0303606
-0.0262808 -0.026787 -0.026787
-0.0208464 -0.0169811 -0.0169811
-0.0396955 -0.0252102 -0.0252102
-0.0351561 -0.0283525 -0.0283525
-0.0235675 -0.0216244 -0.0216244
-0.0279601 -0.018544 -0.018544
-0.0315655 -0.0231947 -0.0231947
-0.0441459 -0.0303606 -0.0303606
-0.0530117 -0.0421923 -0.0421923
-0.0316723 -0.0386607 -0.0386607
-0.0262808 -0.026787 -0.026787
-0.0485846 -0.0360205 -0.0360205
-0.0422971 -0.0402074 -0.0402074
-0.0289821 -0.0324658 -0.0324658
-0.0351561 -0.0283525 -0.0283525
-0.038733 -0.0340231 -0.0340231
-0.0530117 -0.0421923 -0.0421923
-0.0618311 -0.0560756 -0.0560756
-0.0370251 -0.0525982 -0.0525982
-0.0316723 -0.0386607 -0.0386607
-0.0574268 -0.048877 -0.048877
-0.0493898 -0.054118 -0.054118
-0.0343531 -0.0453718 -0.0453718
-0.0422971 -0.0402074 -0.0402074
-0.0458489 -0.0469056 -0.0469056
-0.0618311 -0.0560756 -0.0560756
-0.0706126 -0.0720157 -0.0720157
-0.0423442 -0.0685921 -0.0685921
-0.0370251 -0.0525982 -0.0525982
-0.0662263 -0.0637888 -0.0637888
-0.0564435 -0.0700852 -0.0700852
-0.0396883 -0.0603386 -0.0603386
-0.0493898 -0.054118 -0.054118
-0.0529211 -0.0618448 -0.0618448
-0.0706126 -0.0720157 -0.0720157
-0.079359 -0.090006 -0.090006
-0.047638 -0.0866351 -0.0866351
-0.0423442 -0.0685921 -0.0685921
-0.07499 -0.0807551 -0.0807551
-0.0634653 -0.0881022 -0.0881022
-0.0449938 -0.077358 -0.077358
-0.0564435 -0.0700852 -0.0700852
-0.059958 -0.078838 -0.078838
-0.079359 -0.090006 -0.090006
-0.0880736 -0.110037 -0.110037
-0.0529123 -0.106718 -0.106718
-0.047638 -0.0866351 -0.0866351
-0.0837202 -0.0997671 -0.0997671
-0.0704604 -0.10816 -0.10816
-0.0502773 -0.0964221 -0.0964221
-0.0634653 -0.0881022 -0.0881022
-0.0669659 -0.0978765 -0.0978765
-0.0880736 -0.110037 -0.110037
-0.0967582 -0.132098 -0.132098
-0.0581719 -0.12883 -0.12883
-0.0529123 -0.106718 -0.106718
-0.0924196 -0.120814 -0.120814
-0.0774326 -0.130247 -0.130247
-0.0555437 -0.117521 -0.117521
-0.0704604 -0.10816 -0.10816
-0.0739492 -0.11895 -0.11895
-0.0967582 -0.132098 -0.132098
-0.105415 -0.156177 -0.156177
-0.0634198 -0.152962 -0.152962
-0.0581719 -0.12883 -0.12883
-0.10109 -0.143886 -0.143886
-0.0843848 -0.154353 -0.154353
-0.0607971 -0.140644 -0.140644
-0.0774326 -0.130247 -0.130247
-0.0809111 -0.142049 -0.142049
-0.105415 -0.156177 -0.156177
-0.114045 -0.182263 -0.182263
-0.0686588 -0.179102 -0.179102
-0.0634198 -0.152962 -0.152962
-0.109733 -0.16897 -0.16897
-0.0913191 -0.180468 -0.180468
-0.0660403 -0.165781 -0.165781
-0.0843848 -0.154353 -0.154353
-0.0878541 -0.16716 -0.16716
-0.114045 -0.182263 -0.182263
-0.122649 -0.210345 -0.210345
-0.0738908 -0.20724 -0.20724
-0.0686588 -0.179102 -0.179102
-0.11835 -0.196055 -0.196055
-0.0982374 -0.208579 -0.208579
-0.0712755 -0.192922 -0.192922
-0.0913191 -0.180468 -0.180468
-0.0947802 -0.194274 -0.194274
-0.122649 -0.210345 -0.210345
-0.131231 -0.240412 -0.240412
-0.0791175 -0.237365 -0.237365
-0.0738908 -0.20724 -0.20724
-0.126943 -0.225131 -0.225131
-0.105141 -0.238676 -0.238676
-0.0765047 -0.222054 -0.222054
-0.0982374 -0.208579 -0.208579
-0.101691 -0.22338 -0.22338
-0.131231 -0.240412 -0.240412
-0.13979 -0.272452 -0.272452
-0.0843405 -0.269466 -0.269466
-0.0791175 -0.237365 -0.237365
-0.135513 -0.256186 -0.256186
-0.112032 -0.270748 -0.270748
-0.0817294 -0.253169 -0.253169
-0.105141 -0.238676 -0.238676
-0.108588 -0.254466 -0.254466
-0.13979 -0.272452 -0.272452
-0.148328 -0.306456 -0.306456
-0.0895612 -0.303532 -0.303532
-0.0843405 -0.269466 -0.269466
-0.144062 -0.28921 -0.28921
-0.118912 -0.304784 -0.304784
-0.086951 -0.286254 -0.286254
-0.112032 -0.270748 -0.270748
-0.115473 -0.287521 -0.287521
-0.148328 -0.306456 -0.306456
-0.156847 -0.342412 -0.342412
-0.0947811 -0.339552 -0.339552
-0.0895612 -0.303532 -0.303532
-0.15259 -0.324191 -0.324191
-0.125781 -0.340773 -0.340773
-0.0921712 -0.321298 -0.321298
-0.118912 -0.304784 -0.304784
-0.122347 -0.322535 -0.322535
-0.156847 -0.342412 -0.342412
-0.165348 -0.380309 -0.380309
-0.100001 -0.377517 -0.377517
-0.0947811 -0.339552 -0.339552
-0.1611 -0.361118 -0.361118
-0.132641 -0.378705 -0.378705
-0.0973911 -0.358292 -0.358292
-0.125781 -0.340773 -0.340773
-0.129212 -0.359497 -0.359497
-0.165348 -0.380309 -0.380309
-0.173832 -0.420136 -0.420136
-0.105223 -0.417413 -0.417413
-0.100001 -0.377517 -0.377517
-0.169592 -0.399982 -0.399982
-0.139494 -0.418568 -0.418568
-0.102612 -0.397224 -0.397224
-0.132641 -0.378705 -0.378705
-0.136069 -0.398396 -0.398396
-0.173832 -0.420136 -0.420136
-0.182301 -0.461883 -0.461883
-0.110449 -0.459232 -0.459232
-0.105223 -0.417413 -0.417413
-0.178069 -0.44077 -0.44077
-0.146341 -0.460352 -0.460352
-0.107836 -0.438083 -0.438083
-0.139494 -0.418568 -0.418568
-0.142918 -0.439221 -0.439221
-0.182301 -0.461883 -0.461883
-0.190756 -0.505539 -0.505539
-0.115678 -0.502962 -0.502962
-0.110449 -0.459232 -0.459232
-0.18653 -0.483473 -0.483473
-0.153183 -0.504046 -0.504046
-0.113063 -0.480859 -0.480859
-0.146341 -0.460352 -0.460352
-0.149763 -0.481961 -0.481961
-0.190756 -0.505539 -0.505539
-0.199198 -0.551093 -0.551093
-0.120913 -0.548591 -0.548591
-0.115678 -0.502962 -0.502962
-0.194978 -0.52808 -0.52808
-0.160022 -0.54964 -0.54964
-0.118295 -0.52554 -0.52554
-0.153183 -0.504046 -0.504046
-0.156603 -0.526606 -0.526606
-0.199198 -0.551093 -0.551093
-0.207628 -0.598534 -0.598534
-0.126155 -0.596111 -0.596111
-0.120913 -0.548591 -0.548591
-0.203414 -0.574579 -0.574579
-0.166857 -0.597121 -0.597121
-0.123533 -0.572116 -0.572116
-0.160022 -0.54964 -0.54964
-0.16344 -0.573145 -0.573145
-0.207628 -0.598534 -0.598534
-0.216048 -0.647852 -0.647852
-0.131405 -0.645508 -0.645508
-0.126155 -0.596111 -0.596111
-0.211839 -0.622959 -0.622959
-0.173692 -0.64648 -0.64648
-0.128779 -0.620575 -0.620575
-0.166857 -0.597121 -0.597121
-0.170275 -0.621566 -0.621566
-0.216048 -0.647852 -0.647852
-0.224458 -0.699035 -0.699035
-0.136664 -0.696773 -0.696773
-0.131405 -0.645508 -0.645508
-0.220254 -0.673211 -0.673211
-0.180527 -0.697705 -0.697705
-0.134034 -0.670908 -0.670908
-0.173692 -0.64648 -0.64648
-0.177109 -0.67186 -0.67186
-0.224458 -0.699035 -0.699035
-0.23286 -0.752073 -0.752073
-0.141934 -0.749895 -0.749895
-0.136664 -0.696773 -0.696773
-0.22866 -0.725323 -0.725323
-0.187363 -0.750786 -0.750786
-0.139298 -0.723102 -0.723102
-0.180527 -0.697705 -0.697705
-0.183944 -0.724014 -0.724014
-0.23286 -0.752073 -0.752073
-0.241255 -0.806955 -0.806955
-0.147215 -0.804862 -0.804862
-0.141934 -0.749895 -0.749895
-0.237059 -0.779284 -0.779284
-0.194201 -0.805712 -0.805712
-0.144573 -0.777148 -0.777148
-0.187363 -0.750786 -0.750786
-0.190781 -0.778019 -0.778019
-0.241255 -0.806955 -0.806955
-0.249645 -0.86367 -0.86367
-0.152509 -0.861664 -0.861664
-0.147215 -0.804862 -0.804862
-0.245451 -0.835084 -0.835084
-0.201042 -0.862472 -0.862472
-0.14986 -0.833035 -0.833035
-0.194201 -0.805712 -0.805712
-0.197621 -0.833863 -0.833863
-0.249645 -0.86367 -0.86367
-0.258029 -0.922207 -0.922207
-0.157816 -0.920291 -0.920291
-0.152509 -0.861664 -0.861664
-0.253837 -0.892711 -0.892711
-0.207888 -0.921055 -0.921055
-0.15516 -0.89075 -0.89075
-0.201042 -0.862472 -0.862472
-0.204464 -0.891536 -0.891536
-0.258029 -0.922207 -0.922207
-0.26641 -0.982556 -0.982556
-0.163138 -0.980731 -0.980731
-0.157816 -0.920291 -0.920291
-0.26222 -0.952156 -0.952156
-0.214739 -0.98145 -0.98145
-0.160475 -0.950285 -0.950285
-0.207888 -0.921055 -0.921055
-0.211312 -0.951026 -0.951026
-0.26641 -0.982556 -0.982556
-0.274788 -1.0447 -1.0447
-0.168475 -1.04297 -1.04297
-0.163138 -0.980731 -0.980731
-0.270599 -1.01341 -1.01341
-0.221597 -1.04365 -1.04365
-0.165805 -1.01163 -1.01163
-0.214739 -0.98145 -0.98145
-0.218167 -1.01232 -1.01232
-0.274788 -1.0447 -1.0447
-0.283164 -1.10864 -1.10864
-0.17383 -1.10701 -1.10701
-0.168475 -1.04297 -1.04297
-0.278976 -1.07645 -1.07645
-0.228462 -1.10763 -1.10763
-0.17115 -1.07477 -1.07477
-0.221597 -1.04365 -1.04365
-0.225028 -1.07542 -1.07542
-0.283164 -1.10864 -1.10864
-0.29154 -1.17436 -1.17436
-0.179202 -1.17282 -1.17282
-0.17383 -1.10701 -1.10701
-0.287352 -1.14128 -1.14128
-0.235336 -1.1734 -1.1734
-0.176514 -1.13969 -1.13969
-0.228462 -1.10763 -1.10763
-0.231898 -1.1403 -1.1403
-0.29154 -1.17436 -1.17436
-0.299915 -1.24185 -1.24185
-0.184593 -1.2404 -1.2404
-0.179202 -1.17282 -1.17282
-0.295727 -1.20788 -1.20788
-0.242219 -1.24094 -1.24094
-0.181895 -1.20639 -1.20639
-0.235336 -1.1734 -1.1734
-0.238776 -1.20695 -1.20695
-0.299915 -1.24185 -1.24185
-0.308292 -1.31109 -1.31109
-0.190003 -1.30975 -1.30975
-0.184593 -1.2404 -1.2404
-0.304104 -1.27625 -1.27625
-0.249112 -1.31023 -1.31023
-0.187296 -1.27486 -1.27486
-0.242219 -1.24094 -1.24094
-0.245664 -1.27537 -1.27537
-0.308292 -1.31109 -1.31109
-0.316671 -1.38208 -1.38208
-0.195435 -1.38084 -1.38084
-0.190003 -1.30975 -1.30975
-0.312481 -1.34637 -1.34637
-0.256017 -1.38127 -1.38127
-0.192716 -1.34507 -1.34507
-0.249112 -1.31023 -1.31023
-0.252563 -1.34554 -1.34554
-0.316671 -1.38208 -1.38208
-0.325053 -1.45481 -1.45481
-0.200887 -1.45367 -1.45367
-0.195435 -1.38084 -1.38084
-0.320862 -1.41823 -1.41823
-0.262934 -1.45405 -1.45405
-0.198158 -1.41704 -1.41704
-0.256017 -1.38127 -1.38127
-0.259474 -1.41745 -1.41745
-0.325053 -1.45481 -1.45481
-0.333439 -1.52926 -1.52926
-0.206362 -1.52822 -1.52822
-0.200887 -1.45367 -1.45367
-0.329245 -1.49182 -1.49182
-0.269865 -1.52856 -1.52856
-0.203622 -1.49073 -1.49073
-0.262934 -1.45405 -1.45405
-0.266398 -1.49109 -1.49109
-0.333439 -1.52926 -1.52926
-0.341829 -1.60542 -1.60542
-0.21186 -1.60449 -1.60449
-0.206362 -1.52822 -1.52822
-0.337633 -1.56713 -1.56713
-0.276809 -1.60477 -1.60477
-0.209108 -1.56614 -1.56614
-0.269865 -1.52856 -1.52856
-0.273335 -1.56645 -1.56645
-0.341829 -1.60542 -1.60542
-0.350225 -1.68329 -1.68329
-0.217382 -1.68246 -1.68246
-0.21186 -1.60449 -1.60449
-0.346027 -1.64414 -1.64414
-0.283768 -1.6827 -1.6827
-0.214618 -1.64326 -1.64326
-0.276809 -1.60477 -1.60477
-0.280286 -1.64352 -1.64352
-0.350225 -1.68329 -1.68329
-0.358628 -1.76285 -1.76285
-0.222929 -1.76213 -1.76213
-0.217382 -1.68246 -1.68246
-0.354426 -1.72286 -1.72286
-0.290742 -1.76231 -1.76231
-0.220153 -1.72209 -1.72209
-0.283768 -1.6827 -1.6827
-0.287253 -1.72229 -1.72229
-0.358628 -1.76285 -1.76285
-0.367037 -1.84409 -1.84409
-0.228502 -1.84348 -1.84348
-0.222929 -1.76213 -1.76213
-0.362831 -1.80326 -1.80326
-0.297733 -1.84361 -1.84361
-0.225712 -1.8026 -1.8026
-0.290742 -1.76231 -1.76231
-0.294236 -1.80275 -1.80275
-0.367037 -1.84409 -1.84409
-0.375454 -1.927 -1.927
-0.234101 -1.92651 -1.92651
-0.228502 -1.84348 -1.84348
-0.371245 -1.88534 -1.88534
-0.304741 -1.92658 -1.92658
-0.231298 -1.88479 -1.88479
-0.297733 -1.84361 -1.84361
-0.301235 -1.88488 -1.88488
-0.375454 -1.927 -1.927
-0.38388 -2.01158 -2.01158
-0.239727 -2.01119 -2.01119
-0.234101 -1.92651 -1.92651
-0.379666 -1.96908 -1.96908
-0.311767 -2.01121 -2.01121
-0.23691 -1.96864 -1.96864
-0.304741 -1.92658 -1.92658
-0.308252 -1.96868 -1.96868
-0.38388 -2.01158 -2.01158
-0.392316 -2.0978 -2.0978
-0.245381 -2.09752 -2.09752
-0.239727 -2.01119 -2.01119
-0.388097 -2.05448 -2.05448
-0.318812 -2.09748 -2.09748
-0.24255 -2.05415 -2.05415
-0.311767 -2.01121 -2.01121
-0.315287 -2.05414 -2.05414
-0.392316 -2.0978 -2.0978
-0.400761 -2.18566 -2.18566
-0.251063 -2.1855 -2.1855
-0.245381 -2.09752 -2.09752
-0.396537 -2.14152 -2.14152
-0.325876 -2.1854 -2.1854
-0.248218 -2.14131 -2.14131
-0.318812 -2.09748 -2.09748
-0.322341 -2.14124 -2.14124
-0.400761 -2.18566 -2.18566
-0.409217 -2.27514 -2.27514
-0.256775 -2.2751 -2.2751
-0.251063 -2.1855 -2.1855
-0.404988 -2.2302 -2.2302
-0.33296 -2.27495 -2.27495
-0.253915 -2.23009 -2.23009
-0.325876 -2.1854 -2.1854
-0.329415 -2.22997 -2.22997
-0.409217 -2.27514 -2.27514
-0.417685 -2.36624 -2.36624
-0.262516 -2.36632 -2.36632
-0.256775 -2.2751 -2.2751
-0.41345 -2.32049 -2.32049
-0.340064 -2.36611 -2.36611
-0.259642 -2.32051 -2.32051
-0.33296 -2.27495 -2.27495
-0.336509 -2.32033 -2.32033
-0.417685 -2.36624 -2.36624
-0.426165 -2.45895 -2.45895
-0.268288 -2.45914 -2.45914
-0.262516 -2.36632 -2.36632
-0.421923 -2.4124 -2.4124
-0.34719 -2.45888 -2.45888
-0.265398 -2.41253 -2.41253
-0.340064 -2.36611 -2.36611
-0.343624 -2.41229 -2.41229
-0.426165 -2.45895 -2.45895
-0.434657 -2.55326 -2.55326
-0.274091 -2.55356 -2.55356
-0.268288 -2.45914 -2.45914
-0.430409 -2.50591 -2.50591
-0.354337 -2.55324 -2.55324
-0.271186 -2.50615 -2.50615
-0.34719 -2.45888 -2.45888
-0.350761 -2.50586 -2.50586
-0.434657 -2.55326 -2.55326
-0.443162 -2.64914 -2.64914
-0.279926 -2.64957 -2.64957
-0.274091 -2.55356 -2.55356
-0.438908 -2.601 -2.601
-0.361508 -2.64919 -2.64919
-0.277005 -2.60137 -2.60137
-0.354337 -2.55324 -2.55324
-0.35792 -2.60102 -2.60102
-0.443162 -2.64914 -2.64914
-0.451682 -2.7466 -2.7466
-0.285793 -2.74715 -2.74715
-0.279926 -2.64957 -2.64957
-0.44742 -2.69768 -2.69768
-0.368701 -2.74671 -2.74671
-0.282856 -2.69817 -2.69817
-0.361508 -2.64919 -2.64919
-0.365101 -2.69775 -2.69775
-0.451682 -2.7466 -2.7466
-0.460215 -2.84563 -2.84563
-0.291693 -2.8463 -2.8463
-0.285793 -2.74715 -2.74715
-0.455947 -2.79592 -2.79592
-0.375918 -2.8458 -2.8458
-0.288739 -2.79653 -2.79653
-0.368701 -2.74671 -2.74671
-0.372306 -2.79606 -2.79606
-0.460215 -2.84563 -2.84563
-0.468764 -2.9462 -2.9462
-0.297627 -2.94699 -2.94699
-0.291693 -2.8463 -2.8463
-0.464488 -2.89572 -2.89572
-0.383159 -2.94643 -2.94643
-0.294656 -2.89645 -2.89645
-0.375918 -2.8458 -2.8458
-0.379535 -2.89592 -2.89592
-0.468764 -2.9462 -2.9462
-0.477328 -3.04832 -3.04832
-0.303594 -3.04923 -3.04923
-0.297627 -2.94699 -2.94699
-0.473044 -2.99707 -2.99707
-0.390424 -3.04861 -3.04861
-0.300606 -2.99792 -2.99792
-0.383159 -2.94643 -2.94643
-0.386788 -2.99733 -2.99733
-0.477328 -3.04832 -3.04832
-0.485908 -3.15196 -3.15196
-0.309596 -3.153 -3.153
-0.303594 -3.04923 -3.04923
-0.481616 -3.09995 -3.09995
-0.397715 -3.15232 -3.15232
-0.306591 -3.10092 -3.10092
-0.390424 -3.04861 -3.04861
-0.394066 -3.10027 -3.10027
-0.485908 -3.15196 -3.15196
-0.494504 -3.25712 -3.25712
-0.315633 -3.25829 -3.25829
-0.309596 -3.153 -3.153
-0.490204 -3.20435 -3.20435
-0.405031 -3.25755 -3.25755
-0.31261 -3.20545 -3.20545
-0.397715 -3.15232 -3.15232
-0.40137 -3.20474 -3.20474
-0.494504 -3.25712 -3.25712
-0.503117 -3.3638 -3.3638
-0.321705 -3.36508 -3.36508
-0.315633 -3.25829 -3.25829
-0.498809 -3.31027 -3.31027
-0.412374 -3.36428 -3.36428
-0.318664 -3.3115 -3.3115
-0.405031 -3.25755 -3.25755
-0.408699 -3.31073 -3.31073
-0.503117 -3.3638 -3.3638
-0.511748 -3.47197 -3.47197
-0.327812 -3.47338 -3.47338
-0.321705 -3.36508 -3.36508
-0.507431 -3.41769 -3.41769
-0.419743 -3.47251 -3.47251
-0.324754 -3.41905 -3.41905
-0.412374 -3.36428 -3.36428
-0.416055 -3.41821 -3.41821
-0.511748 -3.47197 -3.47197
-0.520396 -3.58162 -3.58162
-0.333956 -3.58316 -3.58316
-0.327812 -3.47338 -3.47338
-0.51607 -3.52661 -3.52661
-0.427139 -3.58223 -3.58223
-0.33088 -3.52809 -3.52809
-0.419743 -3.47251 -3.47251
-0.423438 -3.52719 -3.52719
-0.520396 -3.58162 -3.58162
-0.529063 -3.69275 -3.69275
-0.340137 -3.69442 -3.69442
-0.333956 -3.58316 -3.58316
-0.524727 -3.637 -3.637
-0.434563 -3.69343 -3.69343
-0.337042 -3.63861 -3.63861
-0.427139 -3.58223 -3.58223
-0.430847 -3.63765 -3.63765
-0.529063 -3.69275 -3.69275
-0.537748 -3.80535 -3.80535
-0.346354 -3.80714 -3.80714
-0.340137 -3.69442 -3.69442
-0.533403 -3.74887 -3.74887
-0.442014 -3.80609 -3.80609
-0.343241 -3.7506 -3.7506
-0.434563 -3.69343 -3.69343
-0.438285 -3.74958 -3.74958
-0.537748 -3.80535 -3.80535
-0.546451 -3.9194 -3.9194
-0.352609 -3.92132 -3.92132
-0.346354 -3.80714 -3.80714
-0.542097 -3.86219 -3.86219
-0.449493 -3.92021 -3.92021
-0.349477 -3.86405 -3.86405
-0.442014 -3.80609 -3.80609
-0.44575 -3.86297 -3.86297
-0.546451 -3.9194 -3.9194
-0.555174 -4.03489 -4.03489
-0.358902 -4.03694 -4.03694
-0.352609 -3.92132 -3.92132
-0.55081 -3.97696 -3.97696
-0.457001 -4.03577 -4.03577
-0.355751 -3.97895 -3.97895
-0.449493 -3.92021 -3.92021
-0.453243 -3.97781 -3.97781
-0.555174 -4.03489 -4.03489
-0.563917 -4.15182 -4.15182
-0.365232 -4.154 -4.154
-0.358902 -4.03694 -4.03694
-0.559543 -4.09318 -4.09318
-0.464537 -4.15276 -4.15276
-0.362062 -4.09529 -4.09529
-0.457001 -4.03577 -4.03577
-0.460765 -4.09408 -4.09408
-0.563917 -4.15182 -4.15182
-0.572679 -4.27016 -4.27016
-0.371601 -4.27248 -4.27248
-0.365232 -4.154 -4.154
-0.568296 -4.21081 -4.21081
-0.472103 -4.27117 -4.27117
-0.368412 -4.21306 -4.21306
-0.464537 -4.15276 -4.15276
-0.468316 -4.21179 -4.21179
-0.572679 -4.27016 -4.27016
-0.581462 -4.38992 -4.38992
-0.378008 -4.39236 -4.39236
-0.371601 -4.27248 -4.27248
-0.577068 -4.32987 -4.32987
-0.479698 -4.39099 -4.39099
-0.3748 -4.33224 -4.33224
-0.472103 -4.27117 -4.27117
-0.475896 -4.33091 -4.33091
-0.581462 -4.38992 -4.38992
-0.590265 -4.51108 -4.51108
-0.384454 -4.51365 -4.51365
-0.378008 -4.39236 -4.39236
-0.585861 -4.45032 -4.45032
-0.487322 -4.51222 -4.51222
-0.381226 -4.45283 -4.45283
-0.479698 -4.39099 -4.39099
-0.483506 -4.45143 -4.45143
-0.590265 -4.51108 -4.51108
-0.599088 -4.63362 -4.63362
-0.39094 -4.63633 -4.63633
-0.384454 -4.51365 -4.51365
-0.594674 -4.57218 -4.57218
-0.494977 -4.63483 -4.63483
-0.387692 -4.57482 -4.57482
-0.487322 -4.51222 -4.51222
-0.491146 -4.57335 -4.57335
-0.599088 -4.63362 -4.63362
-0.607932 -4.75755 -4.75755
-0.397464 -4.76039 -4.76039
-0.39094 -4.63633 -4.63633
-0.603508 -4.69541 -4.69541
-0.502661 -4.75882 -4.75882
-0.394197 -4.69819 -4.69819
-0.494977 -4.63483 -4.63483
-0.498815 -4.69665 -4.69665
-0.607932 -4.75755 -4.75755
-0.616798 -4.88284 -4.88284
-0.404029 -4.88581 -4.88581
-0.397464 -4.76039 -4.76039
-0.612363 -4.82002 -4.82002
-0.510376 -4.88418 -4.88418
-0.400742 -4.82293 -4.82293
-0.502661 -4.75882 -4.75882
-0.506515 -4.82133 -4.82133
-0.616798 -4.88284 -4.88284
-0.625685 -5.00949 -5.00949
-0.410633 -5.01259 -5.01259
-0.404029 -4.88581 -4.88581
-0.621239 -4.94599 -4.94599
-0.518121 -5.01089 -5.01089
-0.407326 -4.94903 -4.94903
-0.510376 -4.88418 -4.88418
-0.514245 -4.94737 -4.94737
-0.625685 -5.00949 -5.00949
-0.634593 -5.13748 -5.13748
-0.417277 -5.14072 -5.14072
-0.410633 -5.01259 -5.01259
-0.630136 -5.07331 -5.07331
-0.525897 -5.13896 -5.13896
-0.41395 -5.07648 -5.07648
-0.518121 -5.01089 -5.01089
-0.522005 -5.07476 -5.07476
-0.634593 -5.13748 -5.13748
-0.643523 -5.26681 -5.26681
-0.423961 -5.27018 -5.27018
-0.417277 -5.14072 -5.14072
-0.639055 -5.20198 -5.20198
-0.533704 -5.26835 -5.26835
-0.420614 -5.20528 -5.20528
-0.525897 -5.13896 -5.13896
-0.529797 -5.20349 -5.20349
-0.643523 -5.26681 -5.26681
-0.652475 -5.39746 -5.39746
-0.430685 -5.40096 -5.40096
-0.423961 -5.27018 -5.27018
-0.647996 -5.33197 -5.33197
-0.541542 -5.39907 -5.39907
-0.427318 -5.3354 -5.3354
-0.533704 -5.26835 -5.26835
-0.537619 -5.33355 -5.33355
-0.652475 -5.39746 -5.39746
-0.661448 -5.52942 -5.52942
-0.437449 -5.53306 -5.53306
-0.430685 -5.40096 -5.40096
-0.656959 -5.46328 -5.46328
-0.549411 -5.5311 -5.5311
-0.434062 -5.46685 -5.46685
-0.541542 -5.39907 -5.39907
-0.545473 -5.46492 -5.46492
-0.661448 -5.52942 -5.52942
-0.670444 -5.66269 -5.66269
-0.444255 -5.66646 -5.66646
-0.437449 -5.53306 -5.53306
-0.665943 -5.5959 -5.5959
-0.557312 -5.66444 -5.66444
-0.440847 -5.5996 -5.5996
-0.549411 -5.5311 -5.5311
-0.553358 -5.59761 -5.59761
-0.670444 -5.66269 -5.66269
-0.679462 -5.79725 -5.79725
-0.4511 -5.80115 -5.80115
-0.444255 -5.66646 -5.66646
-0.67495 -5.72981 -5.72981
-0.565244 -5.79907 -5.79907
-0.447672 -5.73365 -5.73365
-0.557312 -5.66444 -5.66444
-0.561274 -5.73159 -5.73159
-0.679462 -5.79725 -5.79725
-0.688502 -5.93309 -5.93309
-0.457987 -5.93713 -5.93713
-0.4511 -5.80115 -5.80115
-0.683979 -5.86501 -5.86501
-0.573207 -5.93497 -5.93497
-0.454538 -5.86898 -5.86898
-0.565244 -5.79907 -5.79907
-0.569221 -5.86686 -5.86686
-0.688502 -5.93309 -5.93309
-0.697564 -6.0702 -6.0702
-0.464914 -6.07437 -6.07437
-0.457987 -5.93713 -5.93713
-0.69303 -6.00148 -6.00148
-0.581201 -6.07215 -6.07215
-0.461445 -6.00559 -6.00559
-0.573207 -5.93497 -5.93497
-0.5772 -6.0034 -6.0034
-0.697564 -6.0702 -6.0702
-0.706649 -6.20857 -6.20857
-0.471881 -6.21287 -6.21287
-0.464914 -6.07437 -6.07437
-0.702104 -6.13922 -6.13922
-0.589228 -6.21059 -6.21059
-0.468392 -6.14346 -6.14346
-0.581201 -6.07215 -6.07215
-0.585211 -6.14121 -6.14121
-0.706649 -6.20857 -6.20857
-0.715756 -6.34818 -6.34818
-0.47889 -6.35262 -6.35262
-0.471881 -6.21287 -6.21287
-0.7112 -6.27822 -6.27822
-0.597285 -6.35027 -6.35027
-0.475381 -6.28259 -6.28259
-0.589228 -6.21059 -6.21059
-0.593253 -6.28027 -6.28027
-0.715756 -6.34818 -6.34818
-0.724885 -6.48903 -6.48903
-0.485939 -6.49361 -6.49361
-0.47889 -6.35262 -6.35262
-0.720318 -6.41845 -6.41845
-0.605375 -6.49119 -6.49119
-0.48241 -6.42296 -6.42296
-0.597285 -6.35027 -6.35027
-0.601326 -6.42058 -6.42058
-0.724885 -6.48903 -6.48903
-0.734037 -6.63111 -6.63111
-0.49303 -6.63582 -6.63582
-0.485939 -6.49361 -6.49361
-0.729458 -6.55992 -6.55992
-0.613496 -6.63334 -6.63334
-0.489479 -6.56456 -6.56456
-0.605375 -6.49119 -6.49119
-0.609431 -6.56211 -6.56211
-0.734037 -6.63111 -6.63111
-0.743211 -6.77441 -6.77441
-0.500161 -6.77925 -6.77925
-0.49303 -6.63582 -6.63582
-0.738621 -6.70261 -6.70261
-0.621648 -6.7767 -6.7767
-0.49659 -6.70738 -6.70738
-0.613496 -6.63334 -6.63334
-0.617568 -6.70487 -6.70487
-0.743211 -6.77441 -6.77441
-0.752407 -6.91891 -6.91891
-0.507332 -6.92388 -6.92388
-0.500161 -6.77925 -6.77925
-0.747807 -6.84651 -6.84651
-0.629832 -6.92127 -6.92127
-0.503741 -6.85142 -6.85142
-0.621648 -6.7767 -6.7767
-0.625736 -6.84884 -6.84884
-0.752407 -6.91891 -6.91891
-0.761626 -7.0646 -7.0646
-0.514545 -7.06971 -7.06971
-0.507332 -6.92388 -6.92388
-0.757014 -6.99161 -6.99161
-0.638048 -7.06703 -7.06703
-0.510933 -6.99665 -6.99665
-0.629832 -6.92127 -6.92127
-0.633936 -6.994 -6.994
-0.761626 -7.0646 -7.0646
-0.770867 -7.21148 -7.21148
-0.521798 -7.21672 -7.21672
-0.514545 -7.06971 -7.06971
-0.766244 -7.13789 -7.13789
-0.646295 -7.21398 -7.21398
-0.518166 -7.14307 -7.14307
-0.638048 -7.06703 -7.06703
-0.642168 -7.14036 -7.14036
-0.770867 -7.21148 -7.21148
-0.78013 -7.35953 -7.35953
-0.529091 -7.36491 -7.36491
-0.521798 -7.21672 -7.21672
-0.775496 -7.28536 -7.28536
-0.654573 -7.36209 -7.36209
-0.52544 -7.29067 -7.29067
-0.646295 -7.21398 -7.21398
-0.65043 -7.28789 -7.28789
-0.78013 -7.35953 -7.35953
-0.789415 -7.50874 -7.50874
-0.536426 -7.51425 -7.51425
-0.529091 -7.36491 -7.36491
-0.78477 -7.43399 -7.43399
-0.662883 -7.51137 -7.51137
-0.532753 -7.43943 -7.43943
-0.654573 -7.36209 -7.36209
-0.658724 -7.43659 -7.43659
-0.789415 -7.50874 -7.50874
-0.798722 -7.6591 -7.6591
-0.5438 -7.66474 -7.66474
-0.536426 -7.51425 -7.51425
-0.794066 -7.58378 -7.58378
-0.671224 -7.6618 -7.6618
-0.540108 -7.58935 -7.58935
-0.662883 -7.51137 -7.51137
-0.667049 -7.58644 -7.58644
-0.798722 -7.6591 -7.6591
-0.808051 -7.8106 -7.8106
-0.551215 -7.81638 -7.81638
-0.5438 -7.66474 -7.66474
-0.803384 -7.73471 -7.73471
-0.679595 -7.81337 -7.81337
-0.547502 -7.74042 -7.74042
-0.671224 -7.6618 -7.6618
-0.675406 -7.73744 -7.73744
-0.808051 -7.8106 -7.8106
-0.817401 -7.96323 -7.96323
-0.558669 -7.96914 -7.96914
-0.551215 -7.81638 -7.81638
-0.812724 -7.88677 -7.88677
-0.687998 -7.96607 -7.96607
-0.554937 -7.89262 -7.89262
-0.679595 -7.81337 -7.81337
-0.683793 -7.88958 -7.88958
-0.817401 -7.96323 -7.96323
-0.826773 -8.11698 -8.11698
-0.566164 -8.12302 -8.12302
-0.558669 -7.96914 -7.96914
-0.822085 -8.03996 -8.03996
-0.696431 -8.11988 -8.11988
-0.562412 -8.04594 -8.04594
-0.687998 -7.96607 -7.96607
-0.692211 -8.04283 -8.04283
-0.826773 -8.11698 -8.11698
-0.836167 -8.27183 -8.27183
-0.573699 -8.27801 -8.27801
-0.566164 -8.12302 -8.12302
-0.831468 -8.19427 -8.19427
-0.704895 -8.2748 -8.2748
-0.569926 -8.20038 -8.20038
-0.696431 -8.11988 -8.11988
-0.70066 -8.1972 -8.1972
-0.836167 -8.27183 -8.27183
-0.845581 -8.42778 -8.42778
-0.581273 -8.43409 -8.43409
-0.573699 -8.27801 -8.27801
-0.840871 -8.34967 -8.34967
-0.71339 -8.43082 -8.43082
-0.577481 -8.35591 -8.35591
-0.704895 -8.2748 -8.2748
-0.709139 -8.35268 -8.35268
-0.845581 -8.42778 -8.42778
-0.855017 -8.58482 -8.58482
-0.588886 -8.59126 -8.59126
-0.581273 -8.43409 -8.43409
-0.850297 -8.50617 -8.50617
-0.721914 -8.58793 -8.58793
-0.585074 -8.51254 -8.51254
-0.71339 -8.43082 -8.43082
-0.717648 -8.50924 -8.50924
-0.855017 -8.58482 -8.58482
-0.864473 -8.74293 -8.74293
-0.596539 -8.7495 -8.7495
-0.588886 -8.59126 -8.59126
-0.859742 -8.66374 -8.66374
-0.730469 -8.7461 -8.7461
-0.592707 -8.67025 -8.67025
-0.721914 -8.58793 -8.58793
-0.726188 -8.66688 -8.66688
-0.864473 -8.74293 -8.74293
-0.87395 -8.90211 -8.90211
-0.60423 -8.90881 -8.90881
-0.596539 -8.7495 -8.7495
-0.869209 -8.82239 -8.82239
-0.739053 -8.90535 -8.90535
-0.600379 -8.82902 -8.82902
-0.730469 -8.7461 -8.7461
-0.734757 -8.82559 -8.82559
-0.87395 -8.90211 -8.90211
-0.883447 -9.06234 -9.06234
-0.61196 -9.06917 -9.06917
-0.60423 -8.90881 -8.90881
-0.878696 -8.98209 -8.98209
-0.747667 -9.06564 -9.06564
-0.60809 -8.98886 -8.98886
-0.739053 -8.90535 -8.90535
-0.743356 -8.98536 -8.98536
-0.883447 -9.06234 -9.06234
-0.892964 -9.22361 -9.22361
-0.619729 -9.23057 -9.23057
-0.61196 -9.06917 -9.06917
-0.888203 -9.14284 -9.14284
-0.75631 -9.22698 -9.22698
-0.61584 -9.14974 -9.14974
-0.747667 -9.06564 -9.06564
-0.751984 -9.14618 -9.14618
-0.892964 -9.22361 -9.22361
-0.902501 -9.38591 -9.38591
-0.627536 -9.393 -9.393
-0.619729 -9.23057 -9.23057
-0.89773 -9.30463 -9.30463
-0.764982 -9.38935 -9.38935
-0.623628 -9.31166 -9.31166
-0.75631 -9.22698 -9.22698
-0.760642 -9.30804 -9.30804
-0.902501 -9.38591 -9.38591
-0.912058 -9.54923 -9.54923
-0.635381 -9.55645 -9.55645
-0.627536 -9.393 -9.393
-0.907277 -9.46745 -9.46745
-0.773682 -9.55274 -9.55274
-0.631454 -9.4746 -9.4746
-0.764982 -9.38935 -9.38935
-0.769328 -9.47092 -9.47092
-0.912058 -9.54923 -9.54923
-0.921634 -9.71357 -9.71357
-0.643263 -9.72091 -9.72091
-0.635381 -9.55645 -9.55645
-0.916843 -9.63128 -9.63128
-0.782411 -9.71714 -9.71714
-0.639317 -9.63856 -9.63856
-0.773682 -9.55274 -9.55274
-0.778043 -9.63481 -9.63481
-0.921634 -9.71357 -9.71357
-0.931228 -9.8789 -9.8789
-0.651183 -9.88637 -9.88637
-0.643263 -9.72091 -9.72091
-0.926429 -9.79611 -9.79611
-0.791169 -9.88253 -9.88253
-0.647219 -9.80352 -9.80352
-0.782411 -9.71714 -9.71714
-0.786787 -9.79971 -9.79971
-0.931228 -9.8789 -9.8789
-0.940842 -10.0452 -10.0452
-0.65914 -10.0528 -10.0528
-0.651183 -9.88637 -9.88637
-0.936033 -9.96194 -9.96194
-0.799954 -10.0489 -10.0489
-0.655157 -9.96947 -9.96947
-0.791169 -9.88253 -9.88253
-0.795558 -9.9656 -9.9656
-0.940842 -10.0452 -10.0452
-0.950473 -10.2125 -10.2125
-0.667133 -10.2202 -10.2202
-0.65914 -10.0528 -10.0528
-0.945655 -10.1287 -10.1287
-0.808766 -10.2163 -10.2163
-0.663132 -10.1364 -10.1364
-0.799954 -10.0489 -10.0489
-0.804357 -10.1325 -10.1325
-0.950473 -10.2125 -10.2125
-0.960123 -10.3808 -10.3808
-0.675163 -10.3886 -10.3886
-0.667133 -10.2202 -10.2202
-0.955296 -10.2965 -10.2965
-0.817606 -10.3846 -10.3846
-0.671144 -10.3043 -10.3043
-0.808766 -10.2163 -10.2163
-0.813183 -10.3003 -10.3003
-0.960123 -10.3808 -10.3808
-0.96979 -10.55 -10.55
-0.683229 -10.558 -10.558
-0.675163 -10.3886 -10.3886
-0.964954 -10.4653 -10.4653
-0.826473 -10.5539 -10.5539
-0.679192 -10.4732 -10.4732
-0.817606 -10.3846 -10.3846
-0.822036 -10.4691 -10.4691
-0.96979 -10.55 -10.55
-0.979474 -10.7202 -10.7202
-0.69133 -10.7283 -10.7283
-0.683229 -10.558 -10.558
-0.97463 -10.635 -10.635
-0.835366 -10.7241 -10.7241
-0.687275 -10.643 -10.643
-0.826473 -10.5539 -10.5539
-0.830916 -10.6389 -10.6389
-0.979474 -10.7202 -10.7202
-0.989176 -10.8913 -10.8913
-0.699467 -10.8995 -10.8995
-0.69133 -10.7283 -10.7283
-0.984323 -10.8056 -10.8056
-0.844284 -10.8953 -10.8953
-0.695394 -10.8138 -10.8138
-0.835366 -10.7241 -10.7241
-0.839822 -10.8096 -10.8096
-0.989176 -10.8913 -10.8913
-0.998893 -11.0633 -11.0633
-0.707639 -11.0716 -11.0716
-0.699467 -10.8995 -10.8995
-0.994032 -10.9772 -10.9772
-0.853229 -11.0674 -11.0674
-0.703548 -10.9855 -10.9855
-0.844284 -10.8953 -10.8953
-0.848754 -10.9812 -10.9812
-0.998893 -11.0633 -11.0633
-1.00863 -11.2362 -11.2362
-0.715844 -11.2447 -11.2447
-0.707639 -11.0716 -11.0716
-1.00376 -11.1496 -11.1496
-0.862199 -11.2404 -11.2404
-0.711737 -11.1581 -11.1581
-0.853229 -11.0674 -11.0674
-0.857711 -11.1538 -11.1538
-1.00863 -11.2362 -11.2362
-1.01838 -11.4101 -11.4101
-0.724084 -11.4187 -11.4187
-0.715844 -11.2447 -11.2447
-1.0135 -11.323 -11.323
-0.871194 -11.4143 -11.4143
-0.71996 -11.3316 -11.3316
-0.862199 -11.2404 -11.2404
-0.866693 -11.3272 -11.3272
-1.01838 -11.4101 -11.4101
-1.02814 -11.5848 -11.5848
-0.732358 -11.5935 -11.5935
-0.724084 -11.4187 -11.4187
-1.02326 -11.4973 -11.4973
-0.880213 -11.5891 -11.5891
-0.728217 -11.506 -11.506
-0.871194 -11.4143 -11.4143
-0.8757 -11.5015 -11.5015
-1.02814 -11.5848 -11.5848
-1.03792 -11.7604 -11.7604
-0.740665 -11.7692 -11.7692
-0.732358 -11.5935 -11.5935
-1.03303 -11.6725 -11.6725
-0.889256 -11.7647 -11.7647
-0.736507 -11.6813 -11.6813
-0.880213 -11.5891 -11.5891
-0.884732 -11.6768 -11.6768
-1.03792 -11.7604 -11.7604
-1.04771 -11.9369 -11.9369
-0.749004 -11.9458 -11.9458
-0.740665 -11.7692 -11.7692
-1.04282 -11.8485 -11.8485
-0.898323 -11.9413 -11.9413
-0.74483 -11.8574 -11.8574
-0.889256 -11.7647 -11.7647
-0.893786 -11.8529 -11.8529
-1.04771 -11.9369 -11.9369
-1.05752 -12.1142 -12.1142
-0.757376 -12.1233 -12.1233
-0.749004 -11.9458 -11.9458
-1.05262 -12.0254 -12.0254
-0.907412 -12.1186 -12.1186
-0.753186 -12.0344 -12.0344
-0.898323 -11.9413 -11.9413
-0.902865 -12.0298 -12.0298
-1.05752 -12.1142 -12.1142
-1.06734 -12.2924 -12.2924
-0.765779 -12.3016 -12.3016
-0.757376 -12.1233 -12.1233
-1.06243 -12.2032 -12.2032
-0.916525 -12.2969 -12.2969
-0.761574 -12.2123 -12.2123
-0.907412 -12.1186 -12.1186
-0.911966 -12.2077 -12.2077
-1.06734 -12.2924 -12.2924
-1.07718 -12.4714 -12.4714
-0.774214 -12.4807 -12.4807
-0.765779 -12.3016 -12.3016
-1.07226 -12.3818 -12.3818
-0.925659 -12.476 -12.476
-0.769993 -12.391 -12.391
-0.916525 -12.2969 -12.2969
-0.921089 -12.3863 -12.3863
-1.07718 -12.4714 -12.4714
-1.08702 -12.6512 -12.6512
-0.78268 -12.6607 -12.6607
-0.774214 -12.4807 -12.4807
-1.0821 -12.5612 -12.5612
-0.934815 -12.6559 -12.6559
-0.778443 -12.5706 -12.5706
-0.925659 -12.476 -12.476
-0.930235 -12.5658 -12.5658
-1.08702 -12.6512 -12.6512
-1.09688 -12.8319 -12.8319
-0.791176 -12.8414 -12.8414
-0.78268 -12.6607 -12.6607
-1.09195 -12.7415 -12.7415
-0.943993 -12.8366 -12.8366
-0.786924 -12.751 -12.751
-0.934815 -12.6559 -12.6559
-0.939401 -12.7461 -12.7461
-1.09688 -12.8319 -12.8319
-1.10675 -13.0134 -13.0134
-0.799701 -13.023 -13.023
-0.791176 -12.8414 -12.8414
-1.10182 -12.9225 -12.9225
-0.95319 -13.0181 -13.0181
-0.795435 -12.9321 -12.9321
-0.943993 -12.8366 -12.8366
-0.948589 -12.9273 -12.9273
-1.10675 -13.0134 -13.0134
-1.11663 -13.1956 -13.1956
-0.808256 -13.2054 -13.2054
-0.799701 -13.023 -13.023
-1.11169 -13.1044 -13.1044
-0.962408 -13.2004 -13.2004
-0.803975 -13.1141 -13.1141
-0.95319 -13.0181 -13.0181
-0.957797 -13.1092 -13.1092
-1.11663 -13.1956 -13.1956
-1.12652 -13.3787 -13.3787
-0.81684 -13.3885 -13.3885
-0.808256 -13.2054 -13.2054
-1.12158 -13.287 -13.287
-0.971646 -13.3835 -13.3835
-0.812545 -13.2969 -13.2969
-0.962408 -13.2004 -13.2004
-0.967025 -13.2919 -13.2919
-1.12652 -13.3787 -13.3787
-1.13642 -13.5625 -13.5625
-0.825452 -13.5725 -13.5725
-0.81684 -13.3885 -13.3885
-1.13147 -13.4705 -13.4705
-0.980902 -13.5674 -13.5674
-0.821143 -13.4804 -13.4804
-0.971646 -13.3835 -13.3835
-0.976272 -13.4754 -13.4754
-1.13642 -13.5625 -13.5625
-1.14634 -13.747 -13.747
-0.834092 -13.7572 -13.7572
-0.825452 -13.5725 -13.5725
-1.14138 -13.6547 -13.6547
-0.990177 -13.752 -13.752
-0.829769 -13.6647 -13.6647
-0.980902 -13.5674 -13.5674
-0.985538 -13.6596 -13.6596
-1.14634 -13.747 -13.747
-1.15625 -13.9324 -13.9324
-0.842758 -13.9426 -13.9426
-0.834092 -13.7572 -13.7572
-1.15129 -13.8396 -13.8396
-0.99947 -13.9374 -13.9374
-0.838422 -13.8498 -13.8498
-0.990177 -13.752 -13.752
-0.994822 -13.8446 -13.8446
-1.15625 -13.9324 -13.9324
-1.16618 -14.1184 -14.1184
-0.851451 -14.1288 -14.1288
-0.842758 -13.9426 -13.9426
-1.16122 -14.0253 -14.0253
-1.00878 -14.1235 -14.1235
-0.847102 -14.0356 -14.0356
-0.99947 -13.9374 -13.9374
-1.00412 -14.0304 -14.0304
-1.16618 -14.1184 -14.1184
-1.17612 -14.3052 -14.3052
-0.860171 -14.3157 -14.3157
-0.851451 -14.1288 -14.1288
-1.17115 -14.2117 -14.2117
-1.01811 -14.3104 -14.3104
-0.855808 -14.2221 -14.2221
-1.00878 -14.1235 -14.1235
-1.01344 -14.2168 -14.2168
-1.17612 -14.3052 -14.3052
-1.18606 -14.4927 -14.4927
-0.868915 -14.5033 -14.5033
-0.860171 -14.3157 -14.3157
-1.18109 -14.3989 -14.3989
-1.02745 -14.4979 -14.4979
-0.86454 -14.4094 -14.4094
-1.01811 -14.3104 -14.3104
-1.02278 -14.4041 -14.4041
-1.18606 -14.4927 -14.4927
-1.19601 -14.6809 -14.6809
-0.877684 -14.6916 -14.6916
-0.868915 -14.5033 -14.5033
-1.19103 -14.5867 -14.5867
-1.03681 -14.6862 -14.6862
-0.873296 -14.5973 -14.5973
-1.02745 -14.4979 -14.4979
-1.03213 -14.592 -14.592
-1.19601 -14.6809 -14.6809
-1.20596 -14.8698 -14.8698
-0.886477 -14.8806 -14.8806
-0.877684 -14.6916 -14.6916
-1.20098 -14.7753 -14.7753
-1.04618 -14.8752 -14.8752
-0.882078 -14.786 -14.786
-1.03681 -14.6862 -14.6862
-1.04149 -14.7806 -14.7806
-1.20596 -14.8698 -14.8698
-1.21592 -15.0594 -15.0594
-0.895294 -15.0703 -15.0703
-0.886477 -14.8806 -14.8806
-1.21094 -14.9646 -14.9646
-1.05557 -15.0648 -15.0648
-0.890883 -14.9754 -14.9754
-1.04618 -14.8752 -14.8752
-1.05088 -14.9699 -14.9699
-1.21592 -15.0594 -15.0594
-1.22588 -15.2497 -15.2497
-0.904134 -15.2607 -15.2607
-0.895294 -15.0703 -15.0703
-1.2209 -15.1545 -15.1545
-1.06497 -15.2551 -15.2551
-0.899711 -15.1654 -15.1654
-1.05557 -15.0648 -15.0648
-1.06027 -15.1599 -15.1599
-1.22588 -15.2497 -15.2497
-1.23585 -15.4406 -15.4406
-0.912996 -15.4517 -15.4517
-0.904134 -15.2607 -15.2607
-1.23087 -15.3451 -15.3451
-1.07439 -15.4461 -15.4461
-0.908562 -15.3561 -15.3561
-1.06497 -15.2551 -15.2551
-1.06968 -15.3505 -15.3505
-1.23585 -15.4406 -15.4406
-1.24582 -15.6322 -15.6322
-0.921879 -15.6434 -15.6434
-0.912996 -15.4517 -15.4517
-1.24083 -15.5364 -15.5364
-1.08381 -15.6377 -15.6377
-0.917435 -15.5475 -15.5475
-1.07439 -15.4461 -15.4461
-1.0791 -15.5418 -15.5418
-1.24582 -15.6322 -15.6322
-1.25579 -15.8245 -15.8245
-0.930783 -15.8357 -15.8357
-0.921879 -15.6434 -15.6434
-1.25081 -15.7283 -15.7283
-1.09325 -15.83 -15.83
-0.926329 -15.7395 -15.7395
-1.08381 -15.6377 -15.6377
-1.08853 -15.7338 -15.7338
-1.25579 -15.8245 -15.8245
-1.26577 -16.0173 -16.0173
-0.939708 -16.0287 -16.0287
-0.930783 -15.8357 -15.8357
-1.26078 -15.9208 -15.9208
-1.1027 -16.0229 -16.0229
-0.935243 -15.9321 -15.9321
-1.09325 -15.83 -15.83
-1.09798 -15.9264 -15.9264
-1.26577 -16.0173 -16.0173
-1.27575 -16.2108 -16.2108
-0.948652 -16.2223 -16.2223
-0.939708 -16.0287 -16.0287
-1.27076 -16.114 -16.114
-1.11216 -16.2165 -16.2165
-0.944178 -16.1254 -16.1254
-1.1027 -16.0229 -16.0229
-1.10743 -16.1196 -16.1196
-1.27575 -16.2108 -16.2108
-1.28572 -16.4049 -16.4049
-0.957615 -16.4164 -16.4164
-0.948652 -16.2223 -16.2223
-1.28073 -16.3078 -16.3078
-1.12163 -16.4106 -16.4106
-0.953132 -16.3193 -16.3193
-1.11216 -16.2165 -16.2165
-1.1169 -16.3135 -16.3135
-1.28572 -16.4049 -16.4049
-1.2957 -16.5996 -16.5996
-0.966597 -16.6112 -16.6112
-0.957615 -16.4164 -16.4164
-1.29071 -16.5022 -16.5022
-1.13111 -16.6053 -16.6053
-0.962104 -16.5138 -16.5138
-1.12163 -16.4106 -16.4106
-1.12637 -16.5079 -16.5079
-1.2957 -16.5996 -16.5996
-1.30568 -16.7948 -16.7948
-0.975596 -16.8066 -16.8066
-0.966597 -16.6112 -16.6112
-1.30069 -16.6971 -16.6971
-1.1406 -16.8007 -16.8007
-0.971094 -16.7088 -16.7088
-1.13111 -16.6053 -16.6053
-1.13586 -16.7029 -16.7029
-1.30568 -16.7948 -16.7948
-1.31565 -16.9907 -16.9907
-0.984612 -17.0025 -17.0025
-0.975596 -16.8066 -16.8066
-1.31066 -16.8927 -16.8927
-1.1501 -16.9966 -16.9966
-0.980102 -16.9045 -16.9045
-1.1406 -16.8007 -16.8007
-1.14535 -16.8985 -16.8985
-1.31565 -16.9907 -16.9907
-1.32562 -17.1871 -17.1871
-0.993644 -17.1991 -17.1991
-0.984612 -17.0025 -17.0025
-1.32064 -17.0888 -17.0888
-1.1596 -17.193 -17.193
-0.989126 -17.1007 -17.1007
-1.1501 -16.9966 -16.9966
-1.15485 -17.0947 -17.0947
-1.32562 -17.1871 -17.1871
-1.33559 -17.3841 -17.3841
-1.00269 -17.3961 -17.3961
-0.993644 -17.1991 -17.1991
-1.33061 -17.2855 -17.2855
-1.16911 -17.39 -17.39
-0.998165 -17.2975 -17.2975
-1.1596 -17.193 -17.193
-1.16435 -17.2915 -17.2915
-1.33559 -17.3841 -17.3841
-1.34556 -17.5816 -17.5816
-1.01175 -17.5937 -17.5937
-1.00269 -17.3961 -17.3961
-1.34058 -17.4828 -17.4828
-1.17862 -17.5876 -17.5876
-1.00722 -17.4949 -17.4949
-1.16911 -17.39 -17.39
-1.17386 -17.4888 -17.4888
-1.34556 -17.5816 -17.5816
-1.35552 -17.7797 -17.7797
-1.02083 -17.7919 -17.7919
-1.01175 -17.5937 -17.5937
-1.35054 -17.6806 -17.6806
-1.18814 -17.7857 -17.7857
-1.01629 -17.6927 -17.6927
-1.17862 -17.5876 -17.5876
-1.18338 -17.6866 -17.6866
-1.35552 -17.7797 -17.7797
-1.36548 -17.9782 -17.9782
-1.02992 -17.9905 -17.9905
-1.02083 -17.7919 -17.7919
-1.3605 -17.8789 -17.8789
-1.19766 -17.9843 -17.9843
-1.02537 -17.8911 -17.8911
-1.18814 -17.7857 -17.7857
-1.1929 -17.885 -17.885
-1.36548 -17.9782 -17.9782
-1.37543 -18.1773 -18.1773
-1.03902 -18.1897 -18.1897
-1.02992 -17.9905 -17.9905
-1.37045 -18.0777 -18.0777
-1.20719 -18.1835 -18.1835
-1.03447 -18.09 -18.09
-1.19766 -17.9843 -17.9843
-1.20243 -18.0838 -18.0838
-1.37543 -18.1773 -18.1773
-1.38537 -18.3769 -18.3769
-1.04813 -18.3894 -18.3894
-1.03902 -18.1897 -18.1897
-1.3804 -18.2771 -18.2771
-1.21672 -18.3831 -18.3831
-1.04358 -18.2895 -18.2895
-1.20719 -18.1835 -18.1835
-1.21195 -18.2832 -18.2832
-1.38537 -18.3769 -18.3769
-1.39531 -18.577 -18.577
-1.05726 -18.5895 -18.5895
-1.04813 -18.3894 -18.3894
-1.39034 -18.4769 -18.4769
-1.22625 -18.5832 -18.5832
-1.05269 -18.4894 -18.4894
-1.21672 -18.3831 -18.3831
-1.22148 -18.4831 -18.4831
-1.39531 -18.577 -18.577
-1.40524 -18.7776 -18.7776
-1.06639 -18.7902 -18.7902
-1.05726 -18.5895 -18.5895
-1.40028 -18.6772 -18.6772
-1.23578 -18.7838 -18.7838
-1.06182 -18.6898 -18.6898
-1.22625 -18.5832 -18.5832
-1.23102 -18.6835 -18.6835
-1.40524 -18.7776 -18.7776
-1.41516 -18.9786 -18.9786
-1.07554 -18.9913 -18.9913
-1.06639 -18.7902 -18.7902
-1.4102 -18.878 -18.878
-1.24531 -18.9849 -18.9849
-1.07096 -18.8907 -18.8907
-1.23578 -18.7838 -18.7838
-1.24055 -18.8843 -18.8843
-1.41516 -18.9786 -18.9786
-1.42507 -19.1801 -19.1801
-1.08469 -19.1928 -19.1928
-1.07554 -18.9913 -18.9913
-1.42012 -19.0793 -19.0793
-1.25485 -19.1864 -19.1864
-1.08011 -19.092 -19.092
-1.24531 -18.9849 -18.9849
-1.25008 -19.0856 -19.0856
-1.42507 -19.1801 -19.1801
-1.43497 -19.382 -19.382
-1.09385 -19.3949 -19.3949
-1.08469 -19.1928 -19.1928
-1.43002 -19.281 -19.281
-1.26438 -19.3884 -19.3884
-1.08927 -19.2938 -19.2938
-1.25485 -19.1864 -19.1864
-1.25961 -19.2873 -19.2873
-1.43497 -19.382 -19.382
-1.44486 -19.5844 -19.5844
-1.10302 -19.5973 -19.5973
-1.09385 -19.3949 -19.3949
-1.43992 -19.4831 -19.4831
-1.2739 -19.5908 -19.5908
-1.09843 -19.496 -19.496
-1.26438 -19.3884 -19.3884
-1.26914 -19.4895 -19.4895
-1.44486 -19.5844 -19.5844
-1.45473 -19.7872 -19.7872
-1.11219 -19.8002 -19.8002
-1.10302 -19.5973 -19.5973
-1.4498 -19.6857 -19.6857
-1.28343 -19.7936 -19.7936
-1.10761 -19.6987 -19.6987
-1.2739 -19.5908 -19.5908
-1.27867 -19.6922 -19.6922
-1.45473 -19.7872 -19.7872
-1.4646 -19.9904 -19.9904
-1.12137 -20.0035 -20.0035
-1.11219 -19.8002 -19.8002
-1.45967 -19.8887 -19.8887
-1.29295 -19.9969 -19.9969
-1.11678 -19.9018 -19.9018
-1.28343 -19.7936 -19.7936
-1.28819 -19.8952 -19.8952
-1.4646 -19.9904 -19.9904
-1.47445 -20.194 -20.194
-1.13056 -20.2071 -20.2071
-1.12137 -20.0035 -20.0035
-1.46953 -20.0921 -20.0921
-1.30247 -20.2005 -20.2005
-1.12596 -20.1053 -20.1053
-1.29295 -19.9969 -19.9969
-1.29771 -20.0987 -20.0987
-1.47445 -20.194 -20.194
-1.48429 -20.398 -20.398
-1.13975 -20.4112 -20.4112
-1.13056 -20.2071 -20.2071
-1.47937 -20.2959 -20.2959
-1.31198 -20.4046 -20.4046
-1.13515 -20.3091 -20.3091
-1.30247 -20.2005 -20.2005
-1.30723 -20.3025 -20.3025
-1.48429 -20.398 -20.398
-1.49411 -20.6024 -20.6024
-1.14894 -20.6157 -20.6157
-1.13975 -20.4112 -20.4112
-1.4892 -20.5001 -20.5001
-1.32149 -20.609 -20.609
-1.14434 -20.5134 -20.5134
-1.31198 -20.4046 -20.4046
-1.31674 -20.5067 -20.5067
-1.49411 -20.6024 -20.6024
-1.50391 -20.8072 -20.8072
-1.15813 -20.8205 -20.8205
-1.14894 -20.6157 -20.6157
-1.49901 -20.7047 -20.7047
-1.33099 -20.8138 -20.8138
-1.15353 -20.7181 -20.7181
-1.32149 -20.609 -20.609
-1.32624 -20.7114 -20.7114
-1.50391 -20.8072 -20.8072
-1.5137 -21.0123 -21.0123
-1.16733 -21.0257 -21.0257
-1.15813 -20.8205 -20.8205
-1.50881 -20.9097 -20.9097
-1.34048 -21.019 -21.019
-1.16273 -20.9231 -20.9231
-1.33099 -20.8138 -20.8138
-1.33573 -20.9163 -20.9163
-1.5137 -21.0123 -21.0123
-1.52347 -21.2177 -21.2177
-1.17652 -21.2312 -21.2312
-1.16733 -21.0257 -21.0257
-1.51859 -21.115 -21.115
-1.34996 -21.2245 -21.2245
-1.17192 -21.1284 -21.1284
-1.34048 -21.019 -21.019
-1.34522 -21.1217 -21.1217
-1.52347 -21.2177 -21.2177
-1.53322 -21.4236 -21.4236
-1.18572 -21.4371 -21.4371
-1.17652 -21.2312 -21.2312
-1.52835 -21.3206 -21.3206
-1.35944 -21.4303 -21.4303
-1.18112 -21.3341 -21.3341
-1.34996 -21.2245 -21.2245
-1.3547 -21.3273 -21.3273
-1.53322 -21.4236 -21.4236
-1.54295 -21.6297 -21.6297
-1.19491 -21.6433 -21.6433
-1.18572 -21.4371 -21.4371
-1.53809 -21.5266 -21.5266
-1.3689 -21.6365 -21.6365
-1.19032 -21.5402 -21.5402
-1.35944 -21.4303 -21.4303
-1.36417 -21.5333 -21.5333
-1.54295 -21.6297 -21.6297
-1.55267 -21.8362 -21.8362
-1.20411 -21.8498 -21.8498
-1.19491 -21.6433 -21.6433
-1.54781 -21.7329 -21.7329
-1.37835 -21.843 -21.843
-1.19951 -21.7465 -21.7465
-1.3689 -21.6365 -21.6365
-1.37363 -21.7397 -21.7397
-1.55267 -21.8362 -21.8362
-1.56236 -22.0429 -22.0429
-1.2133 -22.0567 -22.0567
-1.20411 -21.8498 -21.8498
-1.55751 -21.9395 -21.9395
-1.38779 -22.0498 -22.0498
-1.2087 -21.9532 -21.9532
-1.37835 -21.843 -21.843
-1.38308 -21.9463 -21.9463
-1.56236 -22.0429 -22.0429
-1.57203 -22.25 -22.25
-1.22248 -22.2638 -22.2638
-1.2133 -22.0567 -22.0567
-1.5672 -22.1464 -22.1464
-1.39722 -22.2569 -22.2569
-1.21789 -22.1602 -22.1602
-1.38779 -22.0498 -22.0498
-1.39251 -22.1533 -22.1533
-1.57203 -22.25 -22.25
-1.58167 -22.4573 -22.4573
-1.23166 -22.4712 -22.4712
-1.22248 -22.2638 -22.2638
-1.57685 -22.3536 -22.3536
-1.40664 -22.4642 -22.4642
-1.22707 -22.3674 -22.3674
-1.39722 -22.2569 -22.2569
-1.40193 -22.3605 -22.3605
-1.58167 -22.4573 -22.4573
-1.5913 -22.6649 -22.6649
-1.24084 -22.6789 -22.6789
-1.23166 -22.4712 -22.4712
-1.58649 -22.5611 -22.5611
-1.41604 -22.6719 -22.6719
-1.23625 -22.575 -22.575
-1.40664 -22.4642 -22.4642
-1.41134 -22.568 -22.568
-1.5913 -22.6649 -22.6649
-1.6009 -22.8728 -22.8728
-1.25001 -22.8868 -22.8868
-1.24084 -22.6789 -22.6789
-1.5961 -22.7689 -22.7689
-1.42542 -22.8798 -22.8798
-1.24543 -22.7828 -22.7828
-1.41604 -22.6719 -22.6719
-1.42073 -22.7758 -22.7758
-1.6009 -22.8728 -22.8728
-1.61047 -23.081 -23.081
-1.25918 -23.095 -23.095
-1.25001 -22.8868 -22.8868
-1.60569 -22.9769 -22.9769
-1.43479 -23.0879 -23.0879
-1.2546 -22.9909 -22.9909
-1.42542 -22.8798 -22.8798
-1.43011 -22.9838 -22.9838
-1.61047 -23.081 -23.081
-1.62002 -23.2893 -23.2893
-1.26833 -23.3034 -23.3034
-1.25918 -23.095 -23.095
-1.61525 -23.1851 -23.1851
-1.44414 -23.2964 -23.2964
-1.26376 -23.1992 -23.1992
-1.43479 -23.0879 -23.0879
-1.43947 -23.1921 -23.1921
-1.62002 -23.2893 -23.2893
-1.62954 -23.4979 -23.4979
-1.27748 -23.5121 -23.5121
-1.26833 -23.3034 -23.3034
-1.62478 -23.3936 -23.3936
-1.45348 -23.505 -23.505
-1.27291 -23.4077 -23.4077
-1.44414 -23.2964 -23.2964
-1.44881 -23.4006 -23.4006
-1.62954 -23.4979 -23.4979
-1.63903 -23.7068 -23.7068
-1.28662 -23.7209 -23.7209
-1.27748 -23.5121 -23.5121
-1.63429 -23.6023 -23.6023
-1.46279 -23.7138 -23.7138
-1.28205 -23.6165 -23.6165
-1.45348 -23.505 -23.505
-1.45814 -23.6094 -23.6094
-1.63903 -23.7068 -23.7068
-1.64849 -23.9158 -23.9158
-1.29574 -23.93 -23.93
-1.28662 -23.7209 -23.7209
-1.64377 -23.8113 -23.8113
-1.47209 -23.9229 -23.9229
-1.29118 -23.8255 -23.8255
-1.46279 -23.7138 -23.7138
-1.46744 -23.8183 -23.8183
-1.64849 -23.9158 -23.9158
-1.65793 -24.125 -24.125
-1.30486 -24.1393 -24.1393
-1.29574 -23.93 -23.93
-1.65322 -24.0204 -24.0204
-1.48136 -24.1322 -24.1322
-1.3003 -24.0346 -24.0346
-1.47209 -23.9229 -23.9229
-1.47673 -24.0275 -24.0275
-1.65793 -24.125 -24.125
-1.66733 -24.3345 -24.3345
-1.31396 -24.3488 -24.3488
-1.30486 -24.1393 -24.1393
-1.66263 -24.2297 -24.2297
-1.49062 -24.3416 -24.3416
-1.30941 -24.244 -24.244
-1.48136 -24.1322 -24.1322
-1.48599 -24.2369 -24.2369
-1.66733 -24.3345 -24.3345
-1.6767 -24.5441 -24.5441
-1.32305 -24.5584 -24.5584
-1.31396 -24.3488 -24.3488
-1.67202 -24.4393 -24.4393
-1.49985 -24.5512 -24.5512
-1.31851 -24.4536 -24.4536
-1.49062 -24.3416 -24.3416
-1.49524 -24.4464 -24.4464
-1.6767 -24.5441 -24.5441
-1.68604 -24.7538 -24.7538
-1.33213 -24.7682 -24.7682
-1.32305 -24.5584 -24.5584
-1.68138 -24.6489 -24.6489
-1.50906 -24.761 -24.761
-1.32759 -24.6633 -24.6633
-1.49985 -24.5512 -24.5512
-1.50446 -24.6561 -24.6561
-1.68604 -24.7538 -24.7538
-1.69535 -24.9638 -24.9638
-1.34119 -24.9782 -24.9782
-1.33213 -24.7682 -24.7682
-1.6907 -24.8588 -24.8588
-1.51824 -24.971 -24.971
-1.33666 -24.8732 -24.8732
-1.50906 -24.761 -24.761
-1.51365 -24.866 -24.866
-1.69535 -24.9638 -24.9638
-1.70462 -25.1738 -25.1738
-1.35024 -25.1883 -25.1883
-1.34119 -24.9782 -24.9782
-1.69999 -25.0688 -25.0688
-1.5274 -25.1811 -25.1811
-1.34572 -25.0832 -25.0832
-1.51824 -24.971 -24.971
-1.52282 -25.076 -25.076
-1.70462 -25.1738 -25.1738
-1.71386 -25.384 -25.384
-1.35927 -25.3985 -25.3985
-1.35024 -25.1883 -25.1883
-1.70925 -25.2789 -25.2789
-1.53653 -25.3913 -25.3913
-1.35476 -25.2934 -25.2934
-1.5274 -25.1811 -25.1811
-1.53197 -25.2861 -25.2861
-1.71386 -25.384 -25.384
-1.72306 -25.5944 -25.5944
-1.36828 -25.6089 -25.6089
-1.35927 -25.3985 -25.3985
-1.71847 -25.4892 -25.4892
-1.54564 -25.6016 -25.6016
-1.36378 -25.5037 -25.5037
-1.53653 -25.3913 -25.3913
-1.54109 -25.4964 -25.4964
-1.72306 -25.5944 -25.5944
-1.73223 -25.8048 -25.8048
-1.37727 -25.8194 -25.8194
-1.36828 -25.6089 -25.6089
-1.72765 -25.6996 -25.6996
-1.55472 -25.8121 -25.8121
-1.37278 -25.7141 -25.7141
-1.54564 -25.6016 -25.6016
-1.55018 -25.7068 -25.7068
-1.73223 -25.8048 -25.8048
-1.74136 -26.0153 -26.0153
-1.38624 -26.0299 -26.0299
-1.37727 -25.8194 -25.8194
-1.7368 -25.91 -25.91
-1.56377 -26.0226 -26.0226
-1.38176 -25.9246 -25.9246
-1.55472 -25.8121 -25.8121
-1.55925 -25.9173 -25.9173
-1.74136 -26.0153 -26.0153
-1.75045 -26.226 -26.226
-1.39519 -26.2406 -26.2406
-1.38624 -26.0299 -26.0299
-1.74591 -26.1206 -26.1206
-1.57279 -26.2333 -26.2333
-1.39072 -26.1352 -26.1352
-1.56377 -26.0226 -26.0226
-1.56828 -26.1279 -26.1279
-1.75045 -26.226 -26.226
-1.75949 -26.4367 -26.4367
-1.40412 -26.4513 -26.4513
-1.39519 -26.2406 -26.2406
-1.75497 -26.3313 -26.3313
-1.58177 -26.444 -26.444
-1.39966 -26.3459 -26.3459
-1.57279 -26.2333 -26.2333
-1.57728 -26.3386 -26.3386
-1.75949 -26.4367 -26.4367
-1.7685 -26.6474 -26.6474
-1.41301 -26.6621 -26.6621
-1.40412 -26.4513 -26.4513
-1.764 -26.542 -26.542
-1.59072 -26.6548 -26.6548
-1.40857 -26.5567 -26.5567
-1.58177 -26.444 -26.444
-1.58625 -26.5494 -26.5494
-1.7685 -26.6474 -26.6474
-1.77746 -26.8583 -26.8583
-1.42188 -26.873 -26.873
-1.41301 -26.6621 -26.6621
-1.77299 -26.7528 -26.7528
-1.59963 -26.8656 -26.8656
-1.41745 -26.7676 -26.7676
-1.59072 -26.6548 -26.6548
-1.59518 -26.7602 -26.7602
-1.77746 -26.8583 -26.8583
-1.78637 -27.0692 -27.0692
-1.43071 -27.0839 -27.0839
-1.42188 -26.873 -26.873
-1.78192 -26.9637 -26.9637
-1.60849 -27.0766 -27.0766
-1.4263 -26.9785 -26.9785
-1.59963 -26.8656 -26.8656
-1.60406 -26.9711 -26.9711
-1.78637 -27.0692 -27.0692
-1.79523 -27.2802 -27.2802
-1.43951 -27.2949 -27.2949
-1.43071 -27.0839 -27.0839
-1.79081 -27.1747 -27.1747
-1.61731 -27.2875 -27.2875
-1.43511 -27.1894 -27.1894
-1.60849 -27.0766 -27.0766
-1.61291 -27.182 -27.182
-1.79523 -27.2802 -27.2802
-1.80404 -27.4913 -27.4913
-1.44832 -27.5058 -27.5058
-1.43951 -27.2949 -27.2949
-1.79964 -27.3857 -27.3857
-1.62611 -27.4986 -27.4986
-1.44391 -27.4004 -27.4004
-1.61731 -27.2875 -27.2875
-1.62171 -27.393 -27.393
-1.80404 -27.4913 -27.4913
-1.81289 -27.7025 -27.7025
-1.45713 -27.7167 -27.7167
-1.44832 -27.5058 -27.5058
-1.80845 -27.5969 -27.5969
-1.63496 -27.7095 -27.7095
-1.45272 -27.6113 -27.6113
-1.62611 -27.4986 -27.4986
-1.63053 -27.6041 -27.6041
0 0 0
-0.00481564 -0.000478497 -0.000478497
-0.00160434 0.000260534 0.000260534
0 0 0
-0.00233503 0.000152898 0.000152898
-0.00319824 -1.50768e-05 -1.50768e-05
-0.000799054 0.000517606 0.000517606
0 0 0
-0.00155308 0.000394453 0.000394453
-0.00481564 -0.000478497 -0.000478497
-0.00999855 -0.00369405 -0.00369405
-0.0033379 -0.00241292 -0.00241292
-0.00160434 0.000260534 0.000260534
-0.00737467 -0.00177666 -0.00177666
-0.00663769 -0.00287343 -0.00287343
-0.00245515 -0.000732802 -0.000732802
-0.00319824 -1.50768e-05 -1.50768e-05
-0.00489641 -0.00111697 -0.00111697
-0.00999855 -0.00369405 -0.00369405
-0.0153988 -0.00926463 -0.00926463
-0.00513456 -0.00765915 -0.00765915
-0.0033379 -0.00241292 -0.00241292
-0.0126819 -0.00620039 -0.00620039
-0.0102232 -0.00824585 -0.00824585
-0.00423112 -0.00473191 -0.00473191
-0.00663769 -0.00287343 -0.00287343
-0.00841746 -0.00526175 -0.00526175
-0.0153988 -0.00926463 -0.00926463
-0.0208464 -0.0169811 -0.0169811
-0.00697356 -0.0152435 -0.0152435
-0.00513456 -0.00765915 -0.00765915
-0.0181226 -0.0128604 -0.0128604
-0.0138657 -0.0158839 -0.0158839
-0.00605094 -0.0111696 -0.0111696
-0.0102232 -0.00824585 -0.00824585
-0.0120417 -0.0117913 -0.0117913
-0.0208464 -0.0169811 -0.0169811
-0.0262808 -0.026787 -0.026787
-0.00881553 -0.0250208 -0.0250208
-0.00697356 -0.0152435 -0.0152435
-0.0235675 -0.0216244 -0.0216244
-0.0175103 -0.0256753 -0.0256753
-0.00789515 -0.0198638 -0.0198638
-0.0138657 -0.0158839 -0.0158839
-0.0156898 -0.0205147 -0.0205147
-0.0262808 -0.026787 -0.026787
-0.0316723 -0.0386607 -0.0386607
-0.0106544 -0.0369174 -0.0369174
-0.00881553 -0.0250208 -0.0250208
-0.0289821 -0.0324658 -0.0324658
-0.0211324 -0.0375621 -0.0375621
-0.00973571 -0.0307071 -0.0307071
-0.0175103 -0.0256753 -0.0256753
-0.0193246 -0.0313587 -0.0313587
-0.0316723 -0.0386607 -0.0386607
-0.0370251 -0.0525982 -0.0525982
-0.012484 -0.0508941 -0.0508941
-0.0106544 -0.0369174 -0.0369174
-0.0343531 -0.0453718 -0.0453718
-0.0247292 -0.0515218 -0.0515218
-0.0115702 -0.0436472 -0.0436472
-0.0211324 -0.0375621 -0.0375621
-0.0229338 -0.0442838 -0.0442838
-0.0370251 -0.0525982 -0.0525982
-0.0423442 -0.0685921 -0.0685921
-0.0143088 -0.0669319 -0.0669319
-0.012484 -0.0508941 -0.0508941
-0.0396883 -0.0603386 -0.0603386
-0.0283048 -0.0675398 -0.0675398
-0.0133968 -0.0586562 -0.0586562
-0.0247292 -0.0515218 -0.0515218
-0.0265193 -0.0592742 -0.0592742
-0.0423442 -0.0685921 -0.0685921
-0.047638 -0.0866351 -0.0866351
-0.0161317 -0.0850182 -0.0850182
-0.0143088 -0.0669319 -0.0669319
-0.0449938 -0.077358 -0.077358
-0.0318654 -0.0856064 -0.0856064
-0.0152202 -0.0757196 -0.0757196
-0.0283048 -0.0675398 -0.0675398
-0.0300866 -0.0763176 -0.0763176
-0.047638 -0.0866351 -0.0866351
-0.0529123 -0.106718 -0.106718
-0.0179569 -0.105143 -0.105143
-0.0161317 -0.0850182 -0.0850182
-0.0502773 -0.0964221 -0.0964221
-0.0354163 -0.105712 -0.105712
-0.0170438 -0.0948265 -0.0948265
-0.0318654 -0.0856064 -0.0856064
-0.0336417 -0.0954049 -0.0954049
-0.0529123 -0.106718 -0.106718
-0.0581719 -0.12883 -0.12883
-0.0197873 -0.127298 -0.127298
-0.0179569 -0.105143 -0.105143
-0.0555437 -0.117521 -0.117521
-0.0389618 -0.127847 -0.127847
-0.0188713 -0.115968 -0.115968
-0.0354163 -0.105712 -0.105712
-0.0371895 -0.116526 -0.116526
-0.0581719 -0.12883 -0.12883
-0.0634198 -0.152962 -0.152962
-0.0216257 -0.151473 -0.151473
-0.0197873 -0.127298 -0.127298
-0.0607971 -0.140644 -0.140644
-0.0425051 -0.152002 -0.152002
-0.0207054 -0.139134 -0.139134
-0.0389618 -0.127847 -0.127847
-0.0407336 -0.139672 -0.139672
-0.0634198 -0.152962 -0.152962
-0.0686588 -0.179102 -0.179102
-0.0234739 -0.177658 -0.177658
-0.0216257 -0.151473 -0.151473
-0.0660403 -0.165781 -0.165781
-0.0460487 -0.178165 -0.178165
-0.0225484 -0.164315 -0.164315
-0.0425051 -0.152002 -0.152002
-0.0442768 -0.164833 -0.164833
-0.0686588 -0.179102 -0.179102
-0.0738908 -0.20724 -0.20724
-0.0253339 -0.205842 -0.205842
-0.0234739 -0.177658 -0.177658
-0.0712755 -0.192922 -0.192922
-0.0495946 -0.206328 -0.206328
-0.0244023 -0.191501 -0.191501
-0.0460487 -0.178165 -0.178165
-0.0478213 -0.191997 -0.191997
-0.0738908 -0.20724 -0.20724
-0.0791175 -0.237365 -0.237365
-0.0272071 -0.236016 -0.236016
-0.0253339 -0.205842 -0.205842
-0.0765047 -0.222054 -0.222054
-0.0531445 -0.236478 -0.236478
-0.0262688 -0.220681 -0.220681
-0.0495946 -0.206328 -0.206328
-0.051369 -0.221155 -0.221155
-0.0791175 -0.237365 -0.237365
-0.0843405 -0.269466 -0.269466
-0.0290952 -0.268167 -0.268167
-0.0272071 -0.236016 -0.236016
-0.0817294 -0.253169 -0.253169
-0.0566999 -0.268606 -0.268606
-0.0281492 -0.251845 -0.251845
-0.0531445 -0.236478 -0.236478
-0.0549214 -0.252295 -0.252295
-0.0843405 -0.269466 -0.269466
-0.0895612 -0.303532 -0.303532
-0.0309995 -0.302287 -0.302287
-0.0290952 -0.268167 -0.268167
-0.086951 -0.286254 -0.286254
-0.0602622 -0.302699 -0.302699
-0.0300452 -0.284982 -0.284982
-0.0566999 -0.268606 -0.268606
-0.0584801 -0.285407 -0.285407
-0.0895612 -0.303532 -0.303532
-0.0947811 -0.339552 -0.339552
-0.0329214 -0.338363 -0.338363
-0.0309995 -0.302287 -0.302287
-0.0921712 -0.321298 -0.321298
-0.063833 -0.338749 -0.338749
-0.0319582 -0.320081 -0.320081
-0.0602622 -0.302699 -0.302699
-0.0620465 -0.32048 -0.32048
-0.0947811 -0.339552 -0.339552
-0.100001 -0.377517 -0.377517
-0.0348622 -0.376384 -0.376384
-0.0329214 -0.338363 -0.338363
-0.0973911 -0.358292 -0.358292
-0.0674134 -0.376743 -0.376743
-0.0338893 -0.357131 -0.357131
-0.063833 -0.338749 -0.338749
-0.0656219 -0.357504 -0.357504
-0.100001 -0.377517 -0.377517
-0.105223 -0.417413 -0.417413
-0.0368233 -0.416341 -0.416341
-0.0348622 -0.376384 -0.376384
-0.102612 -0.397224 -0.397224
-0.0710048 -0.416671 -0.416671
-0.0358401 -0.396121 -0.396121
-0.0674134 -0.376743 -0.376743
-0.0692076 -0.396466 -0.396466
-0.105223 -0.417413 -0.417413
-0.110449 -0.459232 -0.459232
-0.0388059 -0.458222 -0.458222
-0.0368233 -0.416341 -0.416341
-0.107836 -0.438083 -0.438083
-0.0746086 -0.458522 -0.458522
-0.0378118 -0.437041 -0.437041
-0.0710048 -0.416671 -0.416671
-0.0728051 -0.437357 -0.437357
-0.110449 -0.459232 -0.459232
-0.115678 -0.502962 -0.502962
-0.0408114 -0.502015 -0.502015
-0.0388059 -0.458222 -0.458222
-0.113063 -0.480859 -0.480859
-0.078226 -0.502285 -0.502285
-0.0398057 -0.47988 -0.47988
-0.0746086 -0.458522 -0.458522
-0.0764155 -0.480165 -0.480165
-0.115678 -0.502962 -0.502962
-0.120913 -0.548591 -0.548591
-0.0428409 -0.547711 -0.547711
-0.0408114 -0.502015 -0.502015
-0.118295 -0.52554 -0.52554
-0.0818582 -0.547949 -0.547949
-0.041823 -0.524626 -0.524626
-0.078226 -0.502285 -0.502285
-0.0800401 -0.52488 -0.52488
-0.120913 -0.548591 -0.548591
-0.126155 -0.596111 -0.596111
-0.0448957 -0.595299 -0.595299
-0.0428409 -0.547711 -0.547711
-0.123533 -0.572116 -0.572116
-0.0855064 -0.595503 -0.595503
-0.043865 -0.571269 -0.571269
-0.0818582 -0.547949 -0.547949
-0.0836802 -0.57149 -0.57149
-0.126155 -0.596111 -0.596111
-0.131405 -0.645508 -0.645508
-0.046977 -0.644766 -0.644766
-0.0448957 -0.595299 -0.595299
-0.128779 -0.620575 -0.620575
-0.0891719 -0.644937 -0.644937
-0.0459329 -0.619798 -0.619798
-0.0855064 -0.595503 -0.595503
-0.0873369 -0.619986 -0.619986
-0.131405 -0.645508 -0.645508
-0.136664 -0.696773 -0.696773
-0.0490859 -0.696104 -0.696104
-0.046977 -0.644766 -0.644766
-0.134034 -0.670908 -0.670908
-0.0928559 -0.696239 -0.696239
-0.0480279 -0.670202 -0.670202
-0.0891719 -0.644937 -0.644937
-0.0910115 -0.670355 -0.670355
-0.136664 -0.696773 -0.696773
-0.141934 -0.749895 -0.749895
-0.0512237 -0.7493 -0.7493
-0.0490859 -0.696104 -0.696104
-0.139298 -0.723102 -0.723102
-0.0965594 -0.749399 -0.749399
-0.0501511 -0.72247 -0.72247
-0.0928559 -0.696239 -0.696239
-0.0947051 -0.722588 -0.722588
-0.141934 -0.749895 -0.749895
-0.147215 -0.804862 -0.804862
-0.0533914 -0.804343 -0.804343
-0.0512237 -0.7493 -0.7493
-0.144573 -0.777148 -0.777148
-0.100284 -0.804406 -0.804406
-0.0523037 -0.776591 -0.776591
-0.0965594 -0.749399 -0.749399
-0.0984188 -0.776672 -0.776672
-0.147215 -0.804862 -0.804862
-0.152509 -0.861664 -0.861664
-0.0555901 -0.861223 -0.861223
-0.0533914 -0.804343 -0.804343
-0.14986 -0.833035 -0.833035
-0.10403 -0.861248 -0.861248
-0.0544868 -0.832554 -0.832554
-0.100284 -0.804406 -0.804406
-0.102154 -0.832598 -0.832598
-0.152509 -0.861664 -0.861664
-0.157816 -0.920291 -0.920291
-0.057821 -0.91993 -0.91993
-0.0555901 -0.861223 -0.861223
-0.15516 -0.89075 -0.89075
-0.107799 -0.919916 -0.919916
-0.0567015 -0.890349 -0.890349
-0.10403 -0.861248 -0.861248
-0.105911 -0.890355 -0.890355
-0.157816 -0.920291 -0.920291
-0.163138 -0.980731 -0.980731
-0.060085 -0.980451 -0.980451
-0.057821 -0.91993 -0.91993
-0.160475 -0.950285 -0.950285
-0.111591 -0.980398 -0.980398
-0.0589488 -0.949964 -0.949964
-0.107799 -0.919916 -0.919916
-0.109692 -0.949931 -0.949931
-0.163138 -0.980731 -0.980731
-0.168475 -1.04297 -1.04297
-0.0623833 -1.04278 -1.04278
-0.060085 -0.980451 -0.980451
-0.165805 -1.01163 -1.01163
-0.115409 -1.04268 -1.04268
-0.0612298 -1.01139 -1.01139
-0.111591 -0.980398 -0.980398
-0.113497 -1.01132 -1.01132
-0.168475 -1.04297 -1.04297
-0.17383 -1.10701 -1.10701
-0.0647168 -1.10689 -1.10689
-0.0623833 -1.04278 -1.04278
-0.17115 -1.07477 -1.07477
-0.119253 -1.10676 -1.10676
-0.0635455 -1.07461 -1.07461
-0.115409 -1.04268 -1.04268
-0.117328 -1.0745 -1.0745
-0.17383 -1.10701 -1.10701
-0.179202 -1.17282 -1.17282
-0.0670864 -1.1728 -1.1728
-0.0647168 -1.10689 -1.10689
-0.176514 -1.13969 -1.13969
-0.123124 -1.17262 -1.17262
-0.065897 -1.13962 -1.13962
-0.119253 -1.10676 -1.10676
-0.121185 -1.13947 -1.13947
-0.179202 -1.17282 -1.17282
-0.184593 -1.2404 -1.2404
-0.0694933 -1.24047 -1.24047
-0.0670864 -1.1728 -1.1728
-0.181895 -1.20639 -1.20639
-0.127023 -1.24025 -1.24025
-0.0682852 -1.20641 -1.20641
-0.123124 -1.17262 -1.17262
-0.12507 -1.20621 -1.20621
-0.184593 -1.2404 -1.2404
-0.190003 -1.30975 -1.30975
-0.0719383 -1.3099 -1.3099
-0.0694933 -1.24047 -1.24047
-0.187296 -1.27486 -1.27486
-0.13095 -1.30964 -1.30964
-0.070711 -1.27496 -1.27496
-0.127023 -1.24025 -1.24025
-0.128983 -1.27472 -1.27472
-0.190003 -1.30975 -1.30975
-0.195435 -1.38084 -1.38084
-0.0744223 -1.38108 -1.38108
-0.0719383 -1.3099 -1.3099
-0.192716 -1.34507 -1.34507
-0.134908 -1.38077 -1.38077
-0.0731754 -1.34527 -1.34527
-0.13095 -1.30964 -1.30964
-0.132925 -1.34499 -1.34499
-0.195435 -1.38084 -1.38084
-0.200887 -1.45367 -1.45367
-0.0769463 -1.454 -1.454
-0.0744223 -1.38108 -1.38108
-0.198158 -1.41704 -1.41704
-0.138896 -1.45365 -1.45365
-0.0756792 -1.41733 -1.41733
-0.134908 -1.38077 -1.38077
-0.136898 -1.417 -1.417
-0.200887 -1.45367 -1.45367
-0.206362 -1.52822 -1.52822
-0.079511 -1.52865 -1.52865
-0.0769463 -1.454 -1.454
-0.203622 -1.49073 -1.49073
-0.142916 -1.52825 -1.52825
-0.0782235 -1.49111 -1.49111
-0.138896 -1.45365 -1.45365
-0.140902 -1.49074 -1.49074
-0.206362 -1.52822 -1.52822
-0.21186 -1.60449 -1.60449
-0.0821174 -1.60502 -1.60502
-0.079511 -1.52865 -1.52865
-0.209108 -1.56614 -1.56614
-0.146968 -1.60457 -1.60457
-0.080809 -1.56662 -1.56662
-0.142916 -1.52825 -1.52825
-0.144938 -1.5662 -1.5662
-0.21186 -1.60449 -1.60449
-0.217382 -1.68246 -1.68246
-0.0847663 -1.68309 -1.68309
-0.0821174 -1.60502 -1.60502
-0.214618 -1.64326 -1.64326
-0.151053 -1.68259 -1.68259
-0.0834365 -1.64384 -1.64384
-0.146968 -1.60457 -1.60457
-0.149007 -1.64337 -1.64337
-0.217382 -1.68246 -1.68246
-0.222929 -1.76213 -1.76213
-0.0874585 -1.76285 -1.76285
-0.0847663 -1.68309 -1.68309
-0.220153 -1.72209 -1.72209
-0.155173 -1.76231 -1.76231
-0.0861069 -1.72276 -1.72276
-0.151053 -1.68259 -1.68259
-0.153109 -1.72224 -1.72224
-0.222929 -1.76213 -1.76213
-0.228502 -1.84348 -1.84348
-0.0901948 -1.8443 -1.8443
-0.0874585 -1.76285 -1.76285
-0.225712 -1.8026 -1.8026
-0.159327 -1.84371 -1.84371
-0.0888211 -1.80337 -1.80337
-0.155173 -1.76231 -1.76231
-0.157246 -1.8028 -1.8028
-0.228502 -1.84348 -1.84348
-0.234101 -1.92651 -1.92651
-0.0929759 -1.92743 -1.92743
-0.0901948 -1.8443 -1.8443
-0.231298 -1.88479 -1.88479
-0.163517 -1.92679 -1.92679
-0.0915797 -1.88566 -1.88566
-0.159327 -1.84371 -1.84371
-0.161418 -1.88504 -1.88504
-0.234101 -1.92651 -1.92651
-0.239727 -2.01119 -2.01119
-0.0958025 -2.01221 -2.01221
-0.0929759 -1.92743 -1.92743
-0.23691 -1.96864 -1.96864
-0.167743 -2.01153 -2.01153
-0.0943835 -1.96961 -1.96961
-0.163517 -1.92679 -1.92679
-0.165626 -1.96895 -1.96895
-0.239727 -2.01119 -2.01119
-0.245381 -2.09752 -2.09752
-0.0986755 -2.09865 -2.09865
-0.0958025 -2.01221 -2.01221
-0.24255 -2.05415 -2.05415
-0.172007 -2.09791 -2.09791
-0.0972332 -2.05523 -2.05523
-0.167743 -2.01153 -2.01153
-0.16987 -2.05451 -2.05451
-0.245381 -2.09752 -2.09752
-0.251063 -2.1855 -2.1855
-0.101596 -2.18673 -2.18673
-0.0986755 -2.09865 -2.09865
-0.248218 -2.14131 -2.14131
-0.176308 -2.18594 -2.18594
-0.10013 -2.14249 -2.14249
-0.172007 -2.09791 -2.09791
-0.174153 -2.14172 -2.14172
-0.251063 -2.1855 -2.1855
-0.256775 -2.2751 -2.2751
-0.104563 -2.27644 -2.27644
-0.101596 -2.18673 -2.18673
-0.253915 -2.23009 -2.23009
-0.180648 -2.27559 -2.27559
-0.103073 -2.23138 -2.23138
-0.176308 -2.18594 -2.18594
-0.178473 -2.23056 -2.23056
-0.256775 -2.2751 -2.2751
-0.262516 -2.36632 -2.36632
-0.107579 -2.36776 -2.36776
-0.104563 -2.27644 -2.27644
-0.259642 -2.32051 -2.32051
-0.185026 -2.36687 -2.36687
-0.106065 -2.3219 -2.3219
-0.180648 -2.27559 -2.27559
-0.182832 -2.32103 -2.32103
-0.262516 -2.36632 -2.36632
-0.268288 -2.45914 -2.45914
-0.110644 -2.4607 -2.4607
-0.107579 -2.36776 -2.36776
-0.265398 -2.41253 -2.41253
-0.189445 -2.45975 -2.45975
-0.109106 -2.41403 -2.41403
-0.185026 -2.36687 -2.36687
-0.18723 -2.41311 -2.41311
-0.268288 -2.45914 -2.45914
-0.274091 -2.55356 -2.55356
-0.113759 -2.55523 -2.55523
-0.110644 -2.4607 -2.4607
-0.271186 -2.50615 -2.50615
-0.193903 -2.55423 -2.55423
-0.112195 -2.50776 -2.50776
-0.189445 -2.45975 -2.45975
-0.191669 -2.50679 -2.50679
-0.274091 -2.55356 -2.55356
-0.279926 -2.64957 -2.64957
-0.116924 -2.65134 -2.65134
-0.113759 -2.55523 -2.55523
-0.277005 -2.60137 -2.60137
-0.198403 -2.65029 -2.65029
-0.115335 -2.60309 -2.60309
-0.193903 -2.55423 -2.55423
-0.196148 -2.60206 -2.60206
-0.279926 -2.64957 -2.64957
-0.285793 -2.74715 -2.74715
-0.120139 -2.74904 -2.74904
-0.116924 -2.65134 -2.65134
-0.282856 -2.69817 -2.69817
-0.202945 -2.74793 -2.74793
-0.118525 -2.69999 -2.69999
-0.198403 -2.65029 -2.65029
-0.200669 -2.69891 -2.69891
-0.285793 -2.74715 -2.74715
-0.291693 -2.8463 -2.8463
-0.123406 -2.84829 -2.84829
-0.120139 -2.74904 -2.74904
-0.288739 -2.79653 -2.79653
-0.207528 -2.84713 -2.84713
-0.121766 -2.79847 -2.79847
-0.202945 -2.74793 -2.74793
-0.205231 -2.79733 -2.79733
-0.291693 -2.8463 -2.8463
-0.297627 -2.94699 -2.94699
-0.126725 -2.9491 -2.9491
-0.123406 -2.84829 -2.84829
-0.294656 -2.89645 -2.89645
-0.212154 -2.94788 -2.94788
-0.125059 -2.8985 -2.8985
-0.207528 -2.84713 -2.84713
-0.209836 -2.89731 -2.89731
-0.297627 -2.94699 -2.94699
-0.303594 -3.04923 -3.04923
-0.130096 -3.05145 -3.05145
-0.126725 -2.9491 -2.9491
-0.300606 -2.99792 -2.99792
-0.216823 -3.05018 -3.05018
-0.128404 -3.00008 -3.00008
-0.212154 -2.94788 -2.94788
-0.214483 -2.99884 -2.99884
-0.303594 -3.04923 -3.04923
-0.309596 -3.153 -3.153
-0.13352 -3.15533 -3.15533
-0.130096 -3.05145 -3.05145
-0.306591 -3.10092 -3.10092
-0.221536 -3.154 -3.154
-0.131801 -3.1032 -3.1032
-0.216823 -3.05018 -3.05018
-0.219174 -3.1019 -3.1019
-0.309596 -3.153 -3.153
-0.315633 -3.25829 -3.25829
-0.136997 -3.26074 -3.26074
-0.13352 -3.15533 -3.15533
-0.31261 -3.20545 -3.20545
-0.226293 -3.25935 -3.25935
-0.135252 -3.20785 -3.20785
-0.221536 -3.154 -3.154
-0.223909 -3.20649 -3.20649
-0.315633 -3.25829 -3.25829
-0.321705 -3.36508 -3.36508
-0.140528 -3.36765 -3.36765
-0.136997 -3.26074 -3.26074
-0.318664 -3.3115 -3.3115
-0.231094 -3.36621 -3.36621
-0.138756 -3.31401 -3.31401
-0.226293 -3.25935 -3.25935
-0.228688 -3.31259 -3.31259
-0.321705 -3.36508 -3.36508
-0.327812 -3.47338 -3.47338
-0.144113 -3.47606 -3.47606
-0.140528 -3.36765 -3.36765
-0.324754 -3.41905 -3.41905
-0.235941 -3.47456 -3.47456
-0.142314 -3.42167 -3.42167
-0.231094 -3.36621 -3.36621
-0.233512 -3.4202 -3.4202
-0.327812 -3.47338 -3.47338
-0.333956 -3.58316 -3.58316
-0.147753 -3.58596 -3.58596
-0.144113 -3.47606 -3.47606
-0.33088 -3.52809 -3.52809
-0.240833 -3.5844 -3.5844
-0.145926 -3.53083 -3.53083
-0.235941 -3.47456 -3.47456
-0.238381 -3.5293 -3.5293
-0.333956 -3.58316 -3.58316
-0.340137 -3.69442 -3.69442
-0.151448 -3.69734 -3.69734
-0.147753 -3.58596 -3.58596
-0.337042 -3.63861 -3.63861
-0.24577 -3.69572 -3.69572
-0.149594 -3.64147 -3.64147
-0.240833 -3.5844 -3.5844
-0.243296 -3.63988 -3.63988
-0.340137 -3.69442 -3.69442
-0.346354 -3.80714 -3.80714
-0.155198 -3.81018 -3.81018
-0.151448 -3.69734 -3.69734
-0.343241 -3.7506 -3.7506
-0.250754 -3.80851 -3.80851
-0.153316 -3.75358 -3.75358
-0.24577 -3.69572 -3.69572
-0.248256 -3.75193 -3.75193
-0.346354 -3.80714 -3.80714
-0.352609 -3.92132 -3.92132
-0.159005 -3.92448 -3.92448
-0.155198 -3.81018 -3.81018
-0.349477 -3.86405 -3.86405
-0.255785 -3.92275 -3.92275
-0.157095 -3.86715 -3.86715
-0.250754 -3.80851 -3.80851
-0.253264 -3.86545 -3.86545
-0.352609 -3.92132 -3.92132
-0.358902 -4.03694 -4.03694
-0.162867 -4.04022 -4.04022
-0.159005 -3.92448 -3.92448
-0.355751 -3.97895 -3.97895
-0.260862 -4.03843 -4.03843
-0.160929 -3.98217 -3.98217
-0.255785 -3.92275 -3.92275
-0.258317 -3.98041 -3.98041
-0.358902 -4.03694 -4.03694
-0.365232 -4.154 -4.154
-0.166786 -4.1574 -4.1574
-0.162867 -4.04022 -4.04022
-0.362062 -4.09529 -4.09529
-0.265987 -4.15555 -4.15555
-0.164819 -4.09863 -4.09863
-0.260862 -4.03843 -4.03843
-0.263418 -4.09681 -4.09681
-0.365232 -4.154 -4.154
-0.371601 -4.27248 -4.27248
-0.170761 -4.27599 -4.27599
-0.166786 -4.1574 -4.1574
-0.368412 -4.21306 -4.21306
-0.271159 -4.27408 -4.27408
-0.168766 -4.21652 -4.21652
-0.265987 -4.15555 -4.15555
-0.268567 -4.21464 -4.21464
-0.371601 -4.27248 -4.27248
-0.378008 -4.39236 -4.39236
-0.174793 -4.396 -4.396
-0.170761 -4.27599 -4.27599
-0.3748 -4.33224 -4.33224
-0.276379 -4.39403 -4.39403
-0.17277 -4.33582 -4.33582
-0.271159 -4.27408 -4.27408
-0.273763 -4.33388 -4.33388
-0.378008 -4.39236 -4.39236
-0.384454 -4.51365 -4.51365
-0.178883 -4.51741 -4.51741
-0.174793 -4.396 -4.396
-0.381226 -4.45283 -4.45283
-0.281647 -4.51538 -4.51538
-0.176831 -4.45653 -4.45653
-0.276379 -4.39403 -4.39403
-0.279007 -4.45453 -4.45453
-0.384454 -4.51365 -4.51365
-0.39094 -4.63633 -4.63633
-0.183031 -4.64021 -4.64021
-0.178883 -4.51741 -4.51741
-0.387692 -4.57482 -4.57482
-0.286963 -4.63812 -4.63812
-0.18095 -4.57864 -4.57864
-0.281647 -4.51538 -4.51538
-0.284299 -4.57658 -4.57658
-0.39094 -4.63633 -4.63633
-0.397464 -4.76039 -4.76039
-0.187236 -4.76439 -4.76439
-0.183031 -4.64021 -4.64021
-0.394197 -4.69819 -4.69819
-0.292328 -4.76224 -4.76224
-0.185126 -4.70213 -4.70213
-0.286963 -4.63812 -4.63812
-0.289639 -4.70001 -4.70001
-0.397464 -4.76039 -4.76039
-0.404029 -4.88581 -4.88581
-0.191499 -4.88994 -4.88994
-0.187236 -4.76439 -4.76439
-0.400742 -4.82293 -4.82293
-0.297741 -4.88773 -4.88773
-0.18936 -4.82699 -4.82699
-0.292328 -4.76224 -4.76224
-0.295028 -4.82481 -4.82481
-0.404029 -4.88581 -4.88581
-0.410633 -5.01259 -5.01259
-0.19582 -5.01684 -5.01684
-0.191499 -4.88994 -4.88994
-0.407326 -4.94903 -4.94903
-0.303204 -5.01457 -5.01457
-0.193652 -4.95322 -4.95322
-0.297741 -4.88773 -4.88773
-0.300467 -4.95098 -4.95098
-0.410633 -5.01259 -5.01259
-0.417277 -5.14072 -5.14072
-0.2002 -5.14509 -5.14509
-0.19582 -5.01684 -5.01684
-0.41395 -5.07648 -5.07648
-0.308716 -5.14276 -5.14276
-0.198003 -5.0808 -5.0808
-0.303204 -5.01457 -5.01457
-0.305954 -5.0785 -5.0785
-0.417277 -5.14072 -5.14072
-0.423961 -5.27018 -5.27018
-0.204638 -5.27467 -5.27467
-0.2002 -5.14509 -5.14509
-0.420614 -5.20528 -5.20528
-0.314277 -5.27228 -5.27228
-0.202412 -5.20971 -5.20971
-0.308716 -5.14276 -5.14276
-0.31149 -5.20736 -5.20736
-0.423961 -5.27018 -5.27018
-0.430685 -5.40096 -5.40096
-0.209135 -5.40558 -5.40558
-0.204638 -5.27467 -5.27467
-0.427318 -5.3354 -5.3354
-0.319887 -5.40313 -5.40313
-0.206879 -5.33996 -5.33996
-0.314277 -5.27228 -5.27228
-0.317076 -5.33754 -5.33754
-0.430685 -5.40096 -5.40096
-0.437449 -5.53306 -5.53306
-0.21369 -5.5378 -5.5378
-0.209135 -5.40558 -5.40558
-0.434062 -5.46685 -5.46685
-0.325548 -5.53529 -5.53529
-0.211405 -5.47153 -5.47153
-0.319887 -5.40313 -5.40313
-0.322711 -5.46905 -5.46905
-0.437449 -5.53306 -5.53306
-0.444255 -5.66646 -5.66646
-0.218305 -5.67133 -5.67133
-0.21369 -5.5378 -5.5378
-0.440847 -5.5996 -5.5996
-0.331257 -5.66876 -5.66876
-0.21599 -5.6044 -5.6044
-0.325548 -5.53529 -5.53529
-0.328396 -5.60186 -5.60186
-0.444255 -5.66646 -5.66646
-0.4511 -5.80115 -5.80115
-0.222979 -5.80615 -5.80615
-0.218305 -5.67133 -5.67133
-0.447672 -5.73365 -5.73365
-0.337017 -5.80351 -5.80351
-0.220634 -5.73858 -5.73858
-0.331257 -5.66876 -5.66876
-0.334131 -5.73597 -5.73597
-0.4511 -5.80115 -5.80115
-0.457987 -5.93713 -5.93713
-0.227711 -5.94224 -5.94224
-0.222979 -5.80615 -5.80615
-0.454538 -5.86898 -5.86898
-0.342826 -5.93955 -5.93955
-0.225338 -5.87404 -5.87404
-0.337017 -5.80351 -5.80351
-0.339915 -5.87137 -5.87137
-0.457987 -5.93713 -5.93713
-0.464914 -6.07437 -6.07437
-0.232503 -6.07961 -6.07961
-0.227711 -5.94224 -5.94224
-0.461445 -6.00559 -6.00559
-0.348686 -6.07686 -6.07686
-0.2301 -6.01077 -6.01077
-0.342826 -5.93955 -5.93955
-0.34575 -6.00804 -6.00804
-0.464914 -6.07437 -6.07437
-0.471881 -6.21287 -6.21287
-0.237354 -6.21824 -6.21824
-0.232503 -6.07961 -6.07961
-0.468392 -6.14346 -6.14346
-0.354595 -6.21542 -6.21542
-0.234921 -6.14877 -6.14877
-0.348686 -6.07686 -6.07686
-0.351634 -6.14598 -6.14598
-0.471881 -6.21287 -6.21287
-0.47889 -6.35262 -6.35262
-0.242264 -6.35811 -6.35811
-0.237354 -6.21824 -6.21824
-0.475381 -6.28259 -6.28259
-0.360555 -6.35523 -6.35523
-0.239802 -6.28802 -6.28802
-0.354595 -6.21542 -6.21542
-0.357569 -6.28517 -6.28517
-0.47889 -6.35262 -6.35262
-0.485939 -6.49361 -6.49361
-0.247234 -6.49922 -6.49922
-0.242264 -6.35811 -6.35811
-0.48241 -6.42296 -6.42296
-0.366564 -6.49629 -6.49629
-0.244741 -6.42851 -6.42851
-0.360555 -6.35523 -6.35523
-0.363553 -6.42561 -6.42561
-0.485939 -6.49361 -6.49361
-0.49303 -6.63582 -6.63582
-0.252262 -6.64156 -6.64156
-0.247234 -6.49922 -6.49922
-0.489479 -6.56456 -6.56456
-0.372623 -6.63856 -6.63856
-0.24974 -6.57024 -6.57024
-0.366564 -6.49629 -6.49629
-0.369587 -6.56727 -6.56727
-0.49303 -6.63582 -6.63582
-0.500161 -6.77925 -6.77925
-0.25735 -6.78512 -6.78512
-0.252262 -6.64156 -6.64156
-0.49659 -6.70738 -6.70738
-0.378733 -6.78205 -6.78205
-0.254799 -6.71319 -6.71319
-0.372623 -6.63856 -6.63856
-0.375672 -6.71016 -6.71016
-0.500161 -6.77925 -6.77925
-0.507332 -6.92388 -6.92388
-0.262497 -6.92987 -6.92987
-0.25735 -6.78512 -6.78512
-0.503741 -6.85142 -6.85142
-0.384892 -6.92675 -6.92675
-0.259916 -6.85734 -6.85734
-0.378733 -6.78205 -6.78205
-0.381806 -6.85425 -6.85425
-0.507332 -6.92388 -6.92388
-0.514545 -7.06971 -7.06971
-0.267703 -7.07583 -7.07583
-0.262497 -6.92987 -6.92987
-0.510933 -6.99665 -6.99665
-0.391101 -7.07264 -7.07264
-0.265093 -7.0027 -7.0027
-0.384892 -6.92675 -6.92675
-0.387991 -6.99955 -6.99955
-0.514545 -7.06971 -7.06971
-0.521798 -7.21672 -7.21672
-0.272968 -7.22296 -7.22296
-0.267703 -7.07583 -7.07583
-0.518166 -7.14307 -7.14307
-0.397361 -7.21972 -7.21972
-0.270328 -7.14925 -7.14925
-0.391101 -7.07264 -7.07264
-0.394225 -7.14603 -7.14603
-0.521798 -7.21672 -7.21672
-0.529091 -7.36491 -7.36491
-0.278292 -7.37127 -7.37127
-0.272968 -7.22296 -7.22296
-0.52544 -7.29067 -7.29067
-0.403669 -7.36796 -7.36796
-0.275623 -7.29697 -7.29697
-0.397361 -7.21972 -7.21972
-0.400509 -7.29369 -7.29369
-0.529091 -7.36491 -7.36491
-0.536426 -7.51425 -7.51425
-0.283675 -7.52073 -7.52073
-0.278292 -7.37127 -7.37127
-0.532753 -7.43943 -7.43943
-0.410028 -7.51737 -7.51737
-0.280977 -7.44586 -7.44586
-0.403669 -7.36796 -7.36796
-0.406843 -7.44252 -7.44252
-0.536426 -7.51425 -7.51425
-0.5438 -7.66474 -7.66474
-0.289117 -7.67135 -7.67135
-0.283675 -7.52073 -7.52073
-0.540108 -7.58935 -7.58935
-0.416436 -7.66793 -7.66793
-0.286389 -7.5959 -7.5959
-0.410028 -7.51737 -7.51737
-0.413226 -7.59251 -7.59251
-0.5438 -7.66474 -7.66474
-0.551215 -7.81638 -7.81638
-0.294617 -7.82311 -7.82311
-0.289117 -7.67135 -7.67135
-0.547502 -7.74042 -7.74042
-0.422894 -7.81962 -7.81962
-0.29186 -7.74709 -7.74709
-0.416436 -7.66793 -7.66793
-0.419659 -7.74363 -7.74363
-0.551215 -7.81638 -7.81638
-0.558669 -7.96914 -7.96914
-0.300176 -7.976 -7.976
-0.294617 -7.82311 -7.82311
-0.554937 -7.89262 -7.89262
-0.4294 -7.97245 -7.97245
-0.29739 -7.89941 -7.89941
-0.422894 -7.81962 -7.81962
-0.426141 -7.8959 -7.8959
-0.558669 -7.96914 -7.96914
-0.566164 -8.12302 -8.12302
-0.305794 -8.13 -8.13
-0.300176 -7.976 -7.976
-0.562412 -8.04594 -8.04594
-0.435956 -8.12639 -8.12639
-0.302978 -8.05286 -8.05286
-0.4294 -7.97245 -7.97245
-0.432672 -8.04928 -8.04928
-0.566164 -8.12302 -8.12302
-0.573699 -8.27801 -8.27801
-0.311469 -8.28511 -8.28511
-0.305794 -8.13 -8.13
-0.569926 -8.20038 -8.20038
-0.442561 -8.28144 -8.28144
-0.308624 -8.20742 -8.20742
-0.435956 -8.12639 -8.12639
-0.439253 -8.20378 -8.20378
-0.573699 -8.27801 -8.27801
-0.581273 -8.43409 -8.43409
-0.317202 -8.44131 -8.44131
-0.311469 -8.28511 -8.28511
-0.577481 -8.35591 -8.35591
-0.449215 -8.43759 -8.43759
-0.314328 -8.36308 -8.36308
-0.442561 -8.28144 -8.28144
-0.445882 -8.35938 -8.35938
-0.581273 -8.43409 -8.43409
-0.588886 -8.59126 -8.59126
-0.322993 -8.5986 -8.5986
-0.317202 -8.44131 -8.44131
-0.585074 -8.51254 -8.51254
-0.455917 -8.59482 -8.59482
-0.320091 -8.51982 -8.51982
-0.449215 -8.43759 -8.43759
-0.45256 -8.51607 -8.51607
-0.588886 -8.59126 -8.59126
-0.596539 -8.7495 -8.7495
-0.328842 -8.75697 -8.75697
-0.322993 -8.5986 -8.5986
-0.592707 -8.67025 -8.67025
-0.462668 -8.75312 -8.75312
-0.325911 -8.67765 -8.67765
-0.455917 -8.59482 -8.59482
-0.459287 -8.67384 -8.67384
-0.596539 -8.7495 -8.7495
-0.60423 -8.90881 -8.90881
-0.334748 -8.9164 -8.9164
-0.328842 -8.75697 -8.75697
-0.600379 -8.82902 -8.82902
-0.469467 -8.91249 -8.91249
-0.331788 -8.83655 -8.83655
-0.462668 -8.75312 -8.75312
-0.466061 -8.83267 -8.83267
-0.60423 -8.90881 -8.90881
-0.61196 -9.06917 -9.06917
-0.340711 -9.07688 -9.07688
-0.334748 -8.9164 -8.9164
-0.60809 -8.98886 -8.98886
-0.476314 -9.07291 -9.07291
-0.337723 -8.99651 -8.99651
-0.469467 -8.91249 -8.91249
-0.472884 -8.99257 -8.99257
-0.61196 -9.06917 -9.06917
-0.619729 -9.23057 -9.23057
-0.346731 -9.2384 -9.2384
-0.340711 -9.07688 -9.07688
-0.61584 -9.14974 -9.14974
-0.483208 -9.23437 -9.23437
-0.343714 -9.15751 -9.15751
-0.476314 -9.07291 -9.07291
-0.479755 -9.15351 -9.15351
-0.619729 -9.23057 -9.23057
-0.627536 -9.393 -9.393
-0.352808 -9.40095 -9.40095
-0.346731 -9.2384 -9.2384
-0.623628 -9.31166 -9.31166
-0.49015 -9.39687 -9.39687
-0.349762 -9.31955 -9.31955
-0.483208 -9.23437 -9.23437
-0.486673 -9.31549 -9.31549
-0.627536 -9.393 -9.393
-0.635381 -9.55645 -9.55645
-0.358941 -9.56452 -9.56452
-0.352808 -9.40095 -9.40095
-0.631454 -9.4746 -9.4746
-0.497139 -9.56038 -9.56038
-0.355867 -9.48261 -9.48261
-0.49015 -9.39687 -9.39687
-0.493638 -9.4785 -9.4785
-0.635381 -9.55645 -9.55645
-0.643263 -9.72091 -9.72091
-0.36513 -9.7291 -9.7291
-0.358941 -9.56452 -9.56452
-0.639317 -9.63856 -9.63856
-0.504174 -9.7249 -9.7249
-0.362028 -9.64669 -9.64669
-0.497139 -9.56038 -9.56038
-0.500651 -9.64252 -9.64252
-0.643263 -9.72091 -9.72091
-0.651183 -9.88637 -9.88637
-0.371374 -9.89468 -9.89468
-0.36513 -9.7291 -9.7291
-0.647219 -9.80352 -9.80352
-0.511257 -9.89042 -9.89042
-0.368245 -9.81177 -9.81177
-0.504174 -9.7249 -9.7249
-0.50771 -9.80754 -9.80754
-0.651183 -9.88637 -9.88637
-0.65914 -10.0528 -10.0528
-0.377674 -10.0612 -10.0612
-0.371374 -9.89468 -9.89468
-0.655157 -9.96947 -9.96947
-0.518385 -10.0569 -10.0569
-0.374517 -9.97784 -9.97784
-0.511257 -9.89042 -9.89042
-0.514815 -9.97355 -9.97355
-0.65914 -10.0528 -10.0528
-0.667133 -10.2202 -10.2202
-0.384029 -10.2288 -10.2288
-0.377674 -10.0612 -10.0612
-0.663132 -10.1364 -10.1364
-0.525559 -10.2244 -10.2244
-0.380845 -10.1449 -10.1449
-0.518385 -10.0569 -10.0569
-0.521966 -10.1406 -10.1406
-0.667133 -10.2202 -10.2202
-0.675163 -10.3886 -10.3886
-0.390439 -10.3973 -10.3973
-0.384029 -10.2288 -10.2288
-0.671144 -10.3043 -10.3043
-0.532779 -10.3929 -10.3929
-0.387227 -10.3129 -10.3129
-0.525559 -10.2244 -10.2244
-0.529164 -10.3085 -10.3085
-0.675163 -10.3886 -10.3886
-0.683229 -10.558 -10.558
-0.396903 -10.5668 -10.5668
-0.390439 -10.3973 -10.3973
-0.679192 -10.4732 -10.4732
-0.540044 -10.5623 -10.5623
-0.393664 -10.4819 -10.4819
-0.532779 -10.3929 -10.3929
-0.536406 -10.4774 -10.4774
-0.683229 -10.558 -10.558
-0.69133 -10.7283 -10.7283
-0.403421 -10.7372 -10.7372
-0.396903 -10.5668 -10.5668
-0.687275 -10.643 -10.643
-0.547354 -10.7326 -10.7326
-0.400155 -10.6518 -10.6518
-0.540044 -10.5623 -10.5623
-0.543693 -10.6473 -10.6473
-0.69133 -10.7283 -10.7283
-0.699467 -10.8995 -10.8995
-0.409993 -10.9085 -10.9085
-0.403421 -10.7372 -10.7372
-0.695394 -10.8138 -10.8138
-0.554708 -10.9039 -10.9039
-0.4067 -10.8227 -10.8227
-0.547354 -10.7326 -10.7326
-0.551026 -10.8181 -10.8181
-0.699467 -10.8995 -10.8995
-0.707639 -11.0716 -11.0716
-0.416618 -11.0808 -11.0808
-0.409993 -10.9085 -10.9085
-0.703548 -10.9855 -10.9855
-0.562106 -11.0761 -11.0761
-0.413299 -10.9945 -10.9945
-0.554708 -10.9039 -10.9039
-0.558402 -10.9899 -10.9899
-0.707639 -11.0716 -11.0716
-0.715844 -11.2447 -11.2447
-0.423296 -11.2539 -11.2539
-0.416618 -11.0808 -11.0808
-0.711737 -11.1581 -11.1581
-0.569548 -11.2492 -11.2492
-0.41995 -11.1672 -11.1672
-0.562106 -11.0761 -11.0761
-0.565822 -11.1625 -11.1625
-0.715844 -11.2447 -11.2447
-0.724084 -11.4187 -11.4187
-0.430026 -11.428 -11.428
-0.423296 -11.2539 -11.2539
-0.71996 -11.3316 -11.3316
-0.577033 -11.4232 -11.4232
-0.426654 -11.3409 -11.3409
-0.569548 -11.2492 -11.2492
-0.573286 -11.3361 -11.3361
-0.724084 -11.4187 -11.4187
-0.732358 -11.5935 -11.5935
-0.436808 -11.603 -11.603
-0.430026 -11.428 -11.428
-0.728217 -11.506 -11.506
-0.584561 -11.5981 -11.5981
-0.43341 -11.5154 -11.5154
-0.577033 -11.4232 -11.4232
-0.580792 -11.5106 -11.5106
-0.732358 -11.5935 -11.5935
-0.740665 -11.7692 -11.7692
-0.443641 -11.7788 -11.7788
-0.436808 -11.603 -11.603
-0.736507 -11.6813 -11.6813
-0.592132 -11.7739 -11.7739
-0.440218 -11.6908 -11.6908
-0.584561 -11.5981 -11.5981
-0.588341 -11.6859 -11.6859
-0.740665 -11.7692 -11.7692
-0.749004 -11.9458 -11.9458
-0.450526 -11.9555 -11.9555
-0.443641 -11.7788 -11.7788
-0.74483 -11.8574 -11.8574
-0.599744 -11.9506 -11.9506
-0.447077 -11.867 -11.867
-0.592132 -11.7739 -11.7739
-0.595932 -11.8621 -11.8621
-0.749004 -11.9458 -11.9458
-0.757376 -12.1233 -12.1233
-0.457461 -12.1331 -12.1331
-0.450526 -11.9555 -11.9555
-0.753186 -12.0344 -12.0344
-0.607397 -12.1281 -12.1281
-0.453988 -12.0442 -12.0442
-0.599744 -11.9506 -11.9506
-0.603565 -12.0392 -12.0392
-0.757376 -12.1233 -12.1233
-0.765779 -12.3016 -12.3016
-0.464447 -12.3115 -12.3115
-0.457461 -12.1331 -12.1331
-0.761574 -12.2123 -12.2123
-0.615092 -12.3064 -12.3064
-0.460948 -12.2222 -12.2222
-0.607397 -12.1281 -12.1281
-0.611239 -12.2172 -12.2172
-0.765779 -12.3016 -12.3016
-0.774214 -12.4807 -12.4807
-0.471482 -12.4907 -12.4907
-0.464447 -12.3115 -12.3115
-0.769993 -12.391 -12.391
-0.622827 -12.4856 -12.4856
-0.467958 -12.401 -12.401
-0.615092 -12.3064 -12.3064
-0.618954 -12.3959 -12.3959
-0.774214 -12.4807 -12.4807
-0.78268 -12.6607 -12.6607
-0.478566 -12.6708 -12.6708
-0.471482 -12.4907 -12.4907
-0.778443 -12.5706 -12.5706
-0.630602 -12.6656 -12.6656
-0.475018 -12.5807 -12.5807
-0.622827 -12.4856 -12.4856
-0.626709 -12.5755 -12.5755
-0.78268 -12.6607 -12.6607
-0.791176 -12.8414 -12.8414
-0.485699 -12.8517 -12.8517
-0.478566 -12.6708 -12.6708
-0.786924 -12.751 -12.751
-0.638416 -12.8465 -12.8465
-0.482127 -12.7611 -12.7611
-0.630602 -12.6656 -12.6656
-0.634504 -12.756 -12.756
-0.791176 -12.8414 -12.8414
-0.799701 -13.023 -13.023
-0.49288 -13.0334 -13.0334
-0.485699 -12.8517 -12.8517
-0.795435 -12.9321 -12.9321
-0.64627 -13.0281 -13.0281
-0.489284 -12.9424 -12.9424
-0.638416 -12.8465 -12.8465
-0.642338 -12.9372 -12.9372
-0.799701 -13.023 -13.023
-0.808256 -13.2054 -13.2054
-0.500109 -13.2158 -13.2158
-0.49288 -13.0334 -13.0334
-0.803975 -13.1141 -13.1141
-0.654162 -13.2105 -13.2105
-0.496489 -13.1245 -13.1245
-0.64627 -13.0281 -13.0281
-0.650211 -13.1192 -13.1192
-0.808256 -13.2054 -13.2054
-0.81684 -13.3885 -13.3885
-0.507385 -13.3991 -13.3991
-0.500109 -13.2158 -13.2158
-0.812545 -13.2969 -13.2969
-0.662092 -13.3937 -13.3937
-0.503741 -13.3074 -13.3074
-0.654162 -13.2105 -13.2105
-0.658122 -13.302 -13.302
-0.81684 -13.3885 -13.3885
-0.825452 -13.5725 -13.5725
-0.514707 -13.5831 -13.5831
-0.507385 -13.3991 -13.3991
-0.821143 -13.4804 -13.4804
-0.670059 -13.5777 -13.5777
-0.51104 -13.491 -13.491
-0.662092 -13.3937 -13.3937
-0.666071 -13.4856 -13.4856
-0.825452 -13.5725 -13.5725
-0.834092 -13.7572 -13.7572
-0.522076 -13.7679 -13.7679
-0.514707 -13.5831 -13.5831
-0.829769 -13.6647 -13.6647
-0.678063 -13.7624 -13.7624
-0.518386 -13.6754 -13.6754
-0.670059 -13.5777 -13.5777
-0.674056 -13.67 -13.67
-0.834092 -13.7572 -13.7572
-0.842758 -13.9426 -13.9426
-0.529489 -13.9534 -13.9534
-0.522076 -13.7679 -13.7679
-0.838422 -13.8498 -13.8498
-0.686103 -13.9479 -13.9479
-0.525777 -13.8606 -13.8606
-0.678063 -13.7624 -13.7624
-0.682078 -13.8551 -13.8551
-0.842758 -13.9426 -13.9426
-0.851451 -14.1288 -14.1288
-0.536948 -14.1397 -14.1397
-0.529489 -13.9534 -13.9534
-0.847102 -14.0356 -14.0356
-0.694179 -14.1341 -14.1341
-0.533213 -14.0465 -14.0465
-0.686103 -13.9479 -13.9479
-0.690137 -14.0409 -14.0409
-0.851451 -14.1288 -14.1288
-0.860171 -14.3157 -14.3157
-0.544451 -14.3267 -14.3267
-0.536948 -14.1397 -14.1397
-0.855808 -14.2221 -14.2221
-0.70229 -14.3211 -14.3211
-0.540694 -14.2331 -14.2331
-0.694179 -14.1341 -14.1341
-0.69823 -14.2275 -14.2275
-0.860171 -14.3157 -14.3157
-0.868915 -14.5033 -14.5033
-0.551997 -14.5144 -14.5144
-0.544451 -14.3267 -14.3267
-0.86454 -14.4094 -14.4094
-0.710436 -14.5088 -14.5088
-0.548219 -14.4205 -14.4205
-0.70229 -14.3211 -14.3211
-0.706359 -14.4148 -14.4148
-0.868915 -14.5033 -14.5033
-0.877684 -14.6916 -14.6916
-0.559587 -14.7028 -14.7028
-0.551997 -14.5144 -14.5144
-0.873296 -14.5973 -14.5973
-0.718615 -14.6971 -14.6971
-0.555787 -14.6085 -14.6085
-0.710436 -14.5088 -14.5088
-0.714521 -14.6029 -14.6029
-0.877684 -14.6916 -14.6916
-0.886477 -14.8806 -14.8806
-0.567219 -14.8919 -14.8919
-0.559587 -14.7028 -14.7028
-0.882078 -14.786 -14.786
-0.726828 -14.8862 -14.8862
-0.563398 -14.7973 -14.7973
-0.718615 -14.6971 -14.6971
-0.722717 -14.7916 -14.7916
-0.886477 -14.8806 -14.8806
-0.895294 -15.0703 -15.0703
-0.574893 -15.0817 -15.0817
-0.567219 -14.8919 -14.8919
-0.890883 -14.9754 -14.9754
-0.735073 -15.0759 -15.0759
-0.571051 -14.9867 -14.9867
-0.726828 -14.8862 -14.8862
-0.730946 -14.981 -14.981
-0.895294 -15.0703 -15.0703
-0.904134 -15.2607 -15.2607
-0.582608 -15.2722 -15.2722
-0.574893 -15.0817 -15.0817
-0.899711 -15.1654 -15.1654
-0.743351 -15.2664 -15.2664
-0.578745 -15.1769 -15.1769
-0.735073 -15.0759 -15.0759
-0.739208 -15.1711 -15.1711
-0.904134 -15.2607 -15.2607
-0.912996 -15.4517 -15.4517
-0.590364 -15.4633 -15.4633
-0.582608 -15.2722 -15.2722
-0.908562 -15.3561 -15.3561
-0.751659 -15.4574 -15.4574
-0.586481 -15.3677 -15.3677
-0.743351 -15.2664 -15.2664
-0.747501 -15.3618 -15.3618
-0.912996 -15.4517 -15.4517
-0.921879 -15.6434 -15.6434
-0.598159 -15.6551 -15.6551
-0.590364 -15.4633 -15.4633
-0.917435 -15.5475 -15.5475
-0.759999 -15.6492 -15.6492
-0.594257 -15.5591 -15.5591
-0.751659 -15.4574 -15.4574
-0.755825 -15.5532 -15.5532
-0.921879 -15.6434 -15.6434
-0.930783 -15.8357 -15.8357
-0.605994 -15.8475 -15.8475
-0.598159 -15.6551 -15.6551
-0.926329 -15.7395 -15.7395
-0.768369 -15.8416 -15.8416
-0.602072 -15.7512 -15.7512
-0.759999 -15.6492 -15.6492
-0.76418 -15.7453 -15.7453
-0.930783 -15.8357 -15.8357
-0.939708 -16.0287 -16.0287
-0.613868 -16.0406 -16.0406
-0.605994 -15.8475 -15.8475
-0.935243 -15.9321 -15.9321
-0.776768 -16.0346 -16.0346
-0.609926 -15.944 -15.944
-0.768369 -15.8416 -15.8416
-0.772565 -15.938 -15.938
-0.939708 -16.0287 -16.0287
-0.948652 -16.2223 -16.2223
-0.621779 -16.2342 -16.2342
-0.613868 -16.0406 -16.0406
-0.944178 -16.1254 -16.1254
-0.785196 -16.2282 -16.2282
-0.617819 -16.1373 -16.1373
-0.776768 -16.0346 -16.0346
-0.780978 -16.1313 -16.1313
-0.948652 -16.2223 -16.2223
-0.957615 -16.4164 -16.4164
-0.629728 -16.4285 -16.4285
-0.621779 -16.2342 -16.2342
-0.953132 -16.3193 -16.3193
-0.793652 -16.4224 -16.4224
-0.625749 -16.3313 -16.3313
-0.785196 -16.2282 -16.2282
-0.78942 -16.3252 -16.3252
-0.957615 -16.4164 -16.4164
-0.966597 -16.6112 -16.6112
-0.637713 -16.6234 -16.6234
-0.629728 -16.4285 -16.4285
-0.962104 -16.5138 -16.5138
-0.802135 -16.6172 -16.6172
-0.633716 -16.5259 -16.5259
-0.793652 -16.4224 -16.4224
-0.79789 -16.5197 -16.5197
-0.966597 -16.6112 -16.6112
-0.975596 -16.8066 -16.8066
-0.645734 -16.8188 -16.8188
-0.637713 -16.6234 -16.6234
-0.971094 -16.7088 -16.7088
-0.810645 -16.8126 -16.8126
-0.641719 -16.721 -16.721
-0.802135 -16.6172 -16.6172
-0.806387 -16.7149 -16.7149
-0.975596 -16.8066 -16.8066
-0.984612 -17.0025 -17.0025
-0.65379 -17.0149 -17.0149
-0.645734 -16.8188 -16.8188
-0.980102 -16.9045 -16.9045
-0.819181 -17.0086 -17.0086
-0.649758 -16.9168 -16.9168
-0.810645 -16.8126 -16.8126
-0.81491 -16.9106 -16.9106
-0.984612 -17.0025 -17.0025
-0.993644 -17.1991 -17.1991
-0.661881 -17.2114 -17.2114
-0.65379 -17.0149 -17.0149
-0.989126 -17.1007 -17.1007
-0.827743 -17.2052 -17.2052
-0.657831 -17.1131 -17.1131
-0.819181 -17.0086 -17.0086
-0.823459 -17.1068 -17.1068
-0.993644 -17.1991 -17.1991
-1.00269 -17.3961 -17.3961
-0.670005 -17.4086 -17.4086
-0.661881 -17.2114 -17.2114
-0.998165 -17.2975 -17.2975
-0.836329 -17.4023 -17.4023
-0.665939 -17.3099 -17.3099
-0.827743 -17.2052 -17.2052
-0.832033 -17.3037 -17.3037
-1.00269 -17.3961 -17.3961
-1.01175 -17.5937 -17.5937
-0.678163 -17.6063 -17.6063
-0.670005 -17.4086 -17.4086
-1.00722 -17.4949 -17.4949
-0.844938 -17.5999 -17.5999
-0.67408 -17.5074 -17.5074
-0.836329 -17.4023 -17.4023
-0.840631 -17.5011 -17.5011
-1.01175 -17.5937 -17.5937
-1.02083 -17.7919 -17.7919
-0.686352 -17.8045 -17.8045
-0.678163 -17.6063 -17.6063
-1.01629 -17.6927 -17.6927
-0.853571 -17.7981 -17.7981
-0.682254 -17.7053 -17.7053
-0.844938 -17.5999 -17.5999
-0.849252 -17.699 -17.699
-1.02083 -17.7919 -17.7919
-1.02992 -17.9905 -17.9905
-0.694574 -18.0032 -18.0032
-0.686352 -17.8045 -17.8045
-1.02537 -17.8911 -17.8911
-0.862227 -17.9968 -17.9968
-0.690459 -17.9038 -17.9038
-0.853571 -17.7981 -17.7981
-0.857896 -17.8974 -17.8974
-1.02992 -17.9905 -17.9905
-1.03902 -18.1897 -18.1897
-0.702826 -18.2025 -18.2025
-0.694574 -18.0032 -18.0032
-1.03447 -18.09 -18.09
-0.870904 -18.196 -18.196
-0.698696 -18.1028 -18.1028
-0.862227 -17.9968 -17.9968
-0.866563 -18.0964 -18.0964
-1.03902 -18.1897 -18.1897
-1.04813 -18.3894 -18.3894
-0.711108 -18.4022 -18.4022
-0.702826 -18.2025 -18.2025
-1.04358 -18.2895 -18.2895
-0.879602 -18.3957 -18.3957
-0.706963 -18.3023 -18.3023
-0.870904 -18.196 -18.196
-0.87525 -18.2958 -18.2958
-1.04813 -18.3894 -18.3894
-1.05726 -18.5895 -18.5895
-0.719419 -18.6025 -18.6025
-0.711108 -18.4022 -18.4022
-1.05269 -18.4894 -18.4894
-0.88832 -18.5959 -18.5959
-0.71526 -18.5023 -18.5023
-0.879602 -18.3957 -18.3957
-0.883958 -18.4958 -18.4958
-1.05726 -18.5895 -18.5895
-1.06639 -18.7902 -18.7902
-0.727759 -18.8032 -18.8032
-0.719419 -18.6025 -18.6025
-1.06182 -18.6898 -18.6898
-0.897057 -18.7966 -18.7966
-0.723586 -18.7028 -18.7028
-0.88832 -18.5959 -18.5959
-0.892686 -18.6962 -18.6962
-1.06639 -18.7902 -18.7902
-1.07554 -18.9913 -18.9913
-0.736127 -19.0044 -19.0044
-0.727759 -18.8032 -18.8032
-1.07096 -18.8907 -18.8907
-0.905813 -18.9978 -18.9978
-0.73194 -18.9037 -18.9037
-0.897057 -18.7966 -18.7966
-0.901433 -18.8971 -18.8971
-1.07554 -18.9913 -18.9913
-1.08469 -19.1928 -19.1928
-0.744522 -19.206 -19.206
-0.736127 -19.0044 -19.0044
-1.08011 -19.092 -19.092
-0.914587 -19.1994 -19.1994
-0.740321 -19.1051 -19.1051
-0.905813 -18.9978 -18.9978
-0.910198 -19.0985 -19.0985
-1.08469 -19.1928 -19.1928
-1.09385 -19.3949 -19.3949
-0.752943 -19.4081 -19.4081
-0.744522 -19.206 -19.206
-1.08927 -19.2938 -19.2938
-0.923378 -19.4014 -19.4014
-0.748729 -19.307 -19.307
-0.914587 -19.1994 -19.1994
-0.918981 -19.3003 -19.3003
-1.09385 -19.3949 -19.3949
-1.10302 -19.5973 -19.5973
-0.761389 -19.6106 -19.6106
-0.752943 -19.4081 -19.4081
-1.09843 -19.496 -19.496
-0.932185 -19.6039 -19.6039
-0.757163 -19.5093 -19.5093
-0.923378 -19.4014 -19.4014
-0.92778 -19.5026 -19.5026
-1.10302 -19.5973 -19.5973
-1.11219 -19.8002 -19.8002
-0.76986 -19.8135 -19.8135
-0.761389 -19.6106 -19.6106
-1.10761 -19.6987 -19.6987
-0.941008 -19.8068 -19.8068
-0.765622 -19.712 -19.712
-0.932185 -19.6039 -19.6039
-0.936595 -19.7053 -19.7053
-1.11219 -19.8002 -19.8002
-1.12137 -20.0035 -20.0035
-0.778355 -20.0169 -20.0169
-0.76986 -19.8135 -19.8135
-1.11678 -19.9018 -19.9018
-0.949845 -20.0101 -20.0101
-0.774105 -19.9151 -19.9151
-0.941008 -19.8068 -19.8068
-0.945425 -19.9084 -19.9084
-1.12137 -20.0035 -20.0035
-1.13056 -20.2071 -20.2071
-0.786873 -20.2206 -20.2206
-0.778355 -20.0169 -20.0169
-1.12596 -20.1053 -20.1053
-0.958697 -20.2138 -20.2138
-0.782611 -20.1187 -20.1187
-0.949845 -20.0101 -20.0101
-0.954269 -20.1119 -20.1119
-1.13056 -20.2071 -20.2071
-1.13975 -20.4112 -20.4112
-0.795413 -20.4248 -20.4248
-0.786873 -20.2206 -20.2206
-1.13515 -20.3091 -20.3091
-0.967561 -20.418 -20.418
-0.79114 -20.3226 -20.3226
-0.958697 -20.2138 -20.2138
-0.963127 -20.3158 -20.3158
-1.13975 -20.4112 -20.4112
-1.14894 -20.6157 -20.6157
-0.803974 -20.6293 -20.6293
-0.795413 -20.4248 -20.4248
-1.14434 -20.5134 -20.5134
-0.976438 -20.6224 -20.6224
-0.799691 -20.527 -20.527
-0.967561 -20.418 -20.418
-0.971998 -20.5202 -20.5202
-1.14894 -20.6157 -20.6157
-1.15813 -20.8205 -20.8205
-0.812556 -20.8342 -20.8342
-0.803974 -20.6293 -20.6293
-1.15353 -20.7181 -20.7181
-0.985326 -20.8273 -20.8273
-0.808263 -20.7317 -20.7317
-0.976438 -20.6224 -20.6224
-0.98088 -20.7248 -20.7248
-1.15813 -20.8205 -20.8205
-1.16733 -21.0257 -21.0257
-0.821158 -21.0394 -21.0394
-0.812556 -20.8342 -20.8342
-1.16273 -20.9231 -20.9231
-0.994224 -21.0325 -21.0325
-0.816855 -20.9367 -20.9367
-0.985326 -20.8273 -20.8273
-0.989774 -20.9299 -20.9299
-1.16733 -21.0257 -21.0257
-1.17652 -21.2312 -21.2312
-0.829779 -21.245 -21.245
-0.821158 -21.0394 -21.0394
-1.17192 -21.1284 -21.1284
-1.00313 -21.2381 -21.2381
-0.825466 -21.1422 -21.1422
-0.994224 -21.0325 -21.0325
-0.998677 -21.1353 -21.1353
-1.17652 -21.2312 -21.2312
-1.18572 -21.4371 -21.4371
-0.838418 -21.4509 -21.4509
-0.829779 -21.245 -21.245
-1.18112 -21.3341 -21.3341
-1.01205 -21.444 -21.444
-0.834096 -21.3479 -21.3479
-1.00313 -21.2381 -21.2381
-1.00759 -21.341 -21.341
-1.18572 -21.4371 -21.4371
-1.19491 -21.6433 -21.6433
-0.847074 -21.6572 -21.6572
-0.838418 -21.4509 -21.4509
-1.19032 -21.5402 -21.5402
-1.02098 -21.6502 -21.6502
-0.842744 -21.554 -21.554
-1.01205 -21.444 -21.444
-1.01651 -21.5471 -21.5471
-1.19491 -21.6433 -21.6433
-1.20411 -21.8498 -21.8498
-0.855746 -21.8638 -21.8638
-0.847074 -21.6572 -21.6572
-1.19951 -21.7465 -21.7465
-1.02991 -21.8568 -21.8568
-0.851408 -21.7604 -21.7604
-1.02098 -21.6502 -21.6502
-1.02544 -21.7535 -21.7535
-1.20411 -21.8498 -21.8498
-1.2133 -22.0567 -22.0567
-0.864434 -22.0706 -22.0706
-0.855746 -21.8638 -21.8638
-1.2087 -21.9532 -21.9532
-1.03885 -22.0636 -22.0636
-0.860089 -21.9672 -21.9672
-1.02991 -21.8568 -21.8568
-1.03438 -21.9602 -21.9602
-1.2133 -22.0567 -22.0567
-1.22248 -22.2638 -22.2638
-0.873137 -22.2778 -22.2778
-0.864434 -22.0706 -22.0706
-1.21789 -22.1602 -22.1602
-1.04779 -22.2708 -22.2708
-0.868784 -22.1742 -22.1742
-1.03885 -22.0636 -22.0636
-1.04332 -22.1672 -22.1672
-1.22248 -22.2638 -22.2638
-1.23166 -22.4712 -22.4712
-0.881854 -22.4853 -22.4853
-0.873137 -22.2778 -22.2778
-1.22707 -22.3674 -22.3674
-1.05674 -22.4782 -22.4782
-0.877494 -22.3815 -22.3815
-1.04779 -22.2708 -22.2708
-1.05227 -22.3744 -22.3744
-1.23166 -22.4712 -22.4712
-1.24084 -22.6789 -22.6789
-0.890584 -22.693 -22.693
-0.881854 -22.4853 -22.4853
-1.23625 -22.575 -22.575
-1.0657 -22.6859 -22.6859
-0.886217 -22.5891 -22.5891
-1.05674 -22.4782 -22.4782
-1.06122 -22.582 -22.582
-1.24084 -22.6789 -22.6789
-1.25001 -22.8868 -22.8868
-0.899326 -22.901 -22.901
-0.890584 -22.693 -22.693
-1.24543 -22.7828 -22.7828
-1.07465 -22.8938 -22.8938
-0.894953 -22.7969 -22.7969
-1.0657 -22.6859 -22.6859
-1.07017 -22.7898 -22.7898
-1.25001 -22.8868 -22.8868
-1.25918 -23.095 -23.095
-0.908079 -23.1092 -23.1092
-0.899326 -22.901 -22.901
-1.2546 -22.9909 -22.9909
-1.08361 -23.1021 -23.1021
-0.903701 -23.005 -23.005
-1.07465 -22.8938 -22.8938
-1.07913 -22.9979 -22.9979
-1.25918 -23.095 -23.095
-1.26833 -23.3034 -23.3034
-0.916843 -23.3177 -23.3177
-0.908079 -23.1092 -23.1092
-1.26376 -23.1992 -23.1992
-1.09257 -23.3105 -23.3105
-0.91246 -23.2134 -23.2134
-1.08361 -23.1021 -23.1021
-1.08809 -23.2063 -23.2063
-1.26833 -23.3034 -23.3034
-1.27748 -23.5121 -23.5121
-0.925616 -23.5264 -23.5264
-0.916843 -23.3177 -23.3177
-1.27291 -23.4077 -23.4077
-1.10153 -23.5192 -23.5192
-0.921228 -23.422 -23.422
-1.09257 -23.3105 -23.3105
-1.09705 -23.4148 -23.4148
-1.27748 -23.5121 -23.5121
-1.28662 -23.7209 -23.7209
-0.934398 -23.7353 -23.7353
-0.925616 -23.5264 -23.5264
-1.28205 -23.6165 -23.6165
-1.11049 -23.7281 -23.7281
-0.930006 -23.6308 -23.6308
-1.10153 -23.5192 -23.5192
-1.10601 -23.6236 -23.6236
-1.28662 -23.7209 -23.7209
-1.29574 -23.93 -23.93
-0.943188 -23.9444 -23.9444
-0.934398 -23.7353 -23.7353
-1.29118 -23.8255 -23.8255
-1.11945 -23.9372 -23.9372
-0.938792 -23.8398 -23.8398
-1.11049 -23.7281 -23.7281
-1.11497 -23.8326 -23.8326
-1.29574 -23.93 -23.93
-1.30486 -24.1393 -24.1393
-0.951984 -24.1537 -24.1537
-0.943188 -23.9444 -23.9444
-1.3003 -24.0346 -24.0346
-1.12841 -24.1465 -24.1465
-0.947585 -24.049 -24.049
-1.11945 -23.9372 -23.9372
-1.12393 -24.0418 -24.0418
-1.30486 -24.1393 -24.1393
-1.31396 -24.3488 -24.3488
-0.960787 -24.3632 -24.3632
-0.951984 -24.1537 -24.1537
-1.30941 -24.244 -24.244
-1.13736 -24.356 -24.356
-0.956385 -24.2584 -24.2584
-1.12841 -24.1465 -24.1465
-1.13288 -24.2512 -24.2512
-1.31396 -24.3488 -24.3488
-1.32305 -24.5584 -24.5584
-0.969595 -24.5729 -24.5729
-0.960787 -24.3632 -24.3632
-1.31851 -24.4536 -24.4536
-1.14631 -24.5656 -24.5656
-0.965191 -24.468 -24.468
-1.13736 -24.356 -24.356
-1.14183 -24.4608 -24.4608
-1.32305 -24.5584 -24.5584
-1.33213 -24.7682 -24.7682
-0.978408 -24.7827 -24.7827
-0.969595 -24.5729 -24.5729
-1.32759 -24.6633 -24.6633
-1.15525 -24.7755 -24.7755
-0.974001 -24.6778 -24.6778
-1.14631 -24.5656 -24.5656
-1.15078 -24.6705 -24.6705
-1.33213 -24.7682 -24.7682
-1.34119 -24.9782 -24.9782
-0.987223 -24.9927 -24.9927
-0.978408 -24.7827 -24.7827
-1.33666 -24.8732 -24.8732
-1.16419 -24.9854 -24.9854
-0.982815 -24.8877 -24.8877
-1.15525 -24.7755 -24.7755
-1.15972 -24.8804 -24.8804
-1.34119 -24.9782 -24.9782
-1.35024 -25.1883 -25.1883
-0.996042 -25.2028 -25.2028
-0.987223 -24.9927 -24.9927
-1.34572 -25.0832 -25.0832
-1.17312 -25.1956 -25.1956
-0.991632 -25.0978 -25.0978
-1.16419 -24.9854 -24.9854
-1.16866 -25.0905 -25.0905
-1.35024 -25.1883 -25.1883
-1.35927 -25.3985 -25.3985
-1.00486 -25.4131 -25.4131
-0.996042 -25.2028 -25.2028
-1.35476 -25.2934 -25.2934
-1.18205 -25.4058 -25.4058
-1.00045 -25.308 -25.308
-1.17312 -25.1956 -25.1956
-1.17759 -25.3007 -25.3007
-1.35927 -25.3985 -25.3985
-1.36828 -25.6089 -25.6089
-1.01368 -25.6235 -25.6235
-1.00486 -25.4131 -25.4131
-1.36378 -25.5037 -25.5037
-1.19096 -25.6162 -25.6162
-1.00927 -25.5183 -25.5183
-1.18205 -25.4058 -25.4058
-1.18651 -25.511 -25.511
-1.36828 -25.6089 -25.6089
-1.37727 -25.8194 -25.8194
-1.0225 -25.834 -25.834
-1.01368 -25.6235 -25.6235
-1.37278 -25.7141 -25.7141
-1.19987 -25.8267 -25.8267
-1.01809 -25.7287 -25.7287
-1.19096 -25.6162 -25.6162
-1.19542 -25.7214 -25.7214
-1.37727 -25.8194 -25.8194
-1.38624 -26.0299 -26.0299
-1.03132 -26.0446 -26.0446
-1.0225 -25.834 -25.834
-1.38176 -25.9246 -25.9246
-1.20877 -26.0372 -26.0372
-1.02691 -25.9393 -25.9393
-1.19987 -25.8267 -25.8267
-1.20432 -25.9319 -25.9319
-1.38624 -26.0299 -26.0299
-1.39519 -26.2406 -26.2406
-1.04014 -26.2553 -26.2553
-1.03132 -26.0446 -26.0446
-1.39072 -26.1352 -26.1352
-1.21765 -26.2479 -26.2479
-1.03573 -26.1499 -26.1499
-1.20877 -26.0372 -26.0372
-1.21321 -26.1426 -26.1426
-1.39519 -26.2406 -26.2406
-1.40412 -26.4513 -26.4513
-1.04895 -26.466 -26.466
-1.04014 -26.2553 -26.2553
-1.39966 -26.3459 -26.3459
-1.22651 -26.4587 -26.4587
-1.04454 -26.3606 -26.3606
-1.21765 -26.2479 -26.2479
-1.22208 -26.3533 -26.3533
-1.40412 -26.4513 -26.4513
-1.41301 -26.6621 -26.6621
-1.05775 -26.6769 -26.6769
-1.04895 -26.466 -26.466
-1.40857 -26.5567 -26.5567
-1.23536 -26.6695 -26.6695
-1.05335 -26.5714 -26.5714
-1.22651 -26.4587 -26.4587
-1.23094 -26.5641 -26.5641
-1.41301 -26.6621 -26.6621
-1.42188 -26.873 -26.873
-1.06655 -26.8877 -26.8877
-1.05775 -26.6769 -26.6769
-1.41745 -26.7676 -26.7676
-1.24419 -26.8804 -26.8804
-1.06215 -26.7823 -26.7823
-1.23536 -26.6695 -26.6695
-1.23978 -26.7749 -26.7749
-1.42188 -26.873 -26.873
-1.43071 -27.0839 -27.0839
-1.07534 -27.0987 -27.0987
-1.06655 -26.8877 -26.8877
-1.4263 -26.9785 -26.9785
-1.253 -27.0913 -27.0913
-1.07095 -26.9932 -26.9932
-1.24419 -26.8804 -26.8804
-1.2486 -26.9858 -26.9858
-1.43071 -27.0839 -27.0839
-1.43951 -27.2949 -27.2949
-1.08413 -27.3096 -27.3096
-1.07534 -27.0987 -27.0987
-1.43511 -27.1894 -27.1894
-1.2618 -27.3022 -27.3022
-1.07974 -27.2041 -27.2041
-1.253 -27.0913 -27.0913
-1.2574 -27.1968 -27.1968
-1.43951 -27.2949 -27.2949
-1.44832 -27.5058 -27.5058
-1.09291 -27.5205 -27.5205
-1.08413 -27.3096 -27.3096
-1.44391 -27.4004 -27.4004
-1.27059 -27.5131 -27.5131
-1.08852 -27.415 -27.415
-1.2618 -27.3022 -27.3022
-1.26619 -27.4077 -27.4077
-1.44832 -27.5058 -27.5058
-1.45713 -27.7167 -27.7167
-1.10168 -27.7312 -27.7312
-1.09291 -27.5205 -27.5205
-1.45272 -27.6113 -27.6113
-1.27938 -27.7239 -27.7239
-1.09729 -27.6259 -27.6259
-1.27059 -27.5131 -27.5131
-1.27498 -27.6186 -27.6186
0 0 0
-0.00160434 0.000260534 0.000260534
0.00154547 0.000248508 0.000248508
0 0 0
-0.000799054 0.000517606 0.000517606
-2.95696e-05 0.000348248 0.000348248
0.000768764 0.000510856 0.000510856
0 0 0
-1.52865e-05 0.000554011 0.000554011
-0.00160434 0.000260534 0.000260534
-0.0033379 -0.00241292 -0.00241292
0.0032225 -0.00243577 -0.00243577
0.00154547 0.000248508 0.000248508
-0.00245515 -0.000732802 -0.000732802
-5.7766e-05 -0.00226999 -0.00226999
0.00236817 -0.000750084 -0.000750084
-2.95696e-05 0.000348248 0.000348248
-4.36061e-05 -0.000611441 -0.000611441
-0.0033379 -0.00241292 -0.00241292
-0.00513456 -0.00765915 -0.00765915
0.00495876 -0.00769431 -0.00769431
0.0032225 -0.00243577 -0.00243577
-0.00423112 -0.00473191 -0.00473191
-8.76502e-05 -0.0074773 -0.0074773
0.00408629 -0.0047607 -0.0047607
-5.7766e-05 -0.00226999 -0.00226999
-7.2335e-05 -0.00456791 -0.00456791
-0.00513456 -0.00765915 -0.00765915
-0.00697356 -0.0152435 -0.0152435
0.00672911 -0.0152928 -0.0152928
0.00495876 -0.00769431 -0.00769431
-0.00605094 -0.0111696 -0.0111696
-0.000121706 -0.0150474 -0.0150474
0.00584208 -0.0112116 -0.0112116
-8.76502e-05 -0.0074773 -0.0074773
-0.000104034 -0.0109777 -0.0109777
-0.00697356 -0.0152435 -0.0152435
-0.00881553 -0.0250208 -0.0250208
0.00849051 -0.0250865 -0.0250865
0.00672911 -0.0152928 -0.0152928
-0.00789515 -0.0198638 -0.0198638
-0.00016176 -0.0248246 -0.0248246
0.00761214 -0.019921 -0.019921
-0.000121706 -0.0150474 -0.0150474
-0.000140865 -0.0196664 -0.0196664
-0.00881553 -0.0250208 -0.0250208
-0.0106544 -0.0369174 -0.0369174
0.010233 -0.0370012 -0.0370012
0.00849051 -0.0250865 -0.0250865
-0.00973571 -0.0307071 -0.0307071
-0.000209742 -0.0367302 -0.0367302
0.00936473 -0.0307816 -0.0307816
-0.00016176 -0.0248246 -0.0248246
-0.000184641 -0.0305146 -0.0305146
-0.0106544 -0.0369174 -0.0369174
-0.012484 -0.0508941 -0.0508941
0.0119466 -0.050998 -0.050998
0.010233 -0.0370012 -0.0370012
-0.0115702 -0.0436472 -0.0436472
-0.00026753 -0.0507194 -0.0507194
0.0110936 -0.0437408 -0.0437408
-0.000209742 -0.0367302 -0.0367302
-0.000237292 -0.043466 -0.043466
-0.012484 -0.0508941 -0.0508941
-0.0143088 -0.0669319 -0.0669319
0.013632 -0.0670579 -0.0670579
0.0119466 -0.050998 -0.050998
-0.0133968 -0.0586562 -0.0586562
-0.000337006 -0.0667712 -0.0667712
0.0127929 -0.0587709 -0.0587709
-0.00026753 -0.0507194 -0.0507194
-0.000300693 -0.0584884 -0.0584884
-0.0143088 -0.0669319 -0.0669319
-0.0161317 -0.0850182 -0.0850182
0.0152886 -0.0851684 -0.0851684
0.013632 -0.0670579 -0.0670579
-0.0152202 -0.0757196 -0.0757196
-0.000419952 -0.0848722 -0.0848722
0.0144639 -0.0758574 -0.0758574
-0.000337006 -0.0667712 -0.0667712
-0.000376688 -0.0755662 -0.0755662
-0.0161317 -0.0850182 -0.0850182
-0.0179569 -0.105143 -0.105143
0.0169172 -0.10532 -0.10532
0.0152886 -0.0851684 -0.0851684
-0.0170438 -0.0948265 -0.0948265
-0.000518061 -0.105013 -0.105013
0.0161064 -0.0949898 -0.0949898
-0.000419952 -0.0848722 -0.0848722
-0.000467009 -0.0946882 -0.0946882
-0.0179569 -0.105143 -0.105143
-0.0197873 -0.127298 -0.127298
0.0185175 -0.127504 -0.127504
0.0169172 -0.10532 -0.10532
-0.0188713 -0.115968 -0.115968
-0.000632943 -0.127184 -0.127184
0.0177209 -0.116159 -0.116159
-0.000518061 -0.105013 -0.105013
-0.000573308 -0.115845 -0.115845
-0.0197873 -0.127298 -0.127298
-0.0216257 -0.151473 -0.151473
0.020089 -0.15171 -0.15171
0.0185175 -0.127504 -0.127504
-0.0207054 -0.139134 -0.139134
-0.00076614 -0.151376 -0.151376
0.0193069 -0.139355 -0.139355
-0.000632943 -0.127184 -0.127184
-0.000697158 -0.139028 -0.139028
-0.0216257 -0.151473 -0.151473
-0.0234739 -0.177658 -0.177658
0.0216309 -0.177929 -0.177929
0.020089 -0.15171 -0.15171
-0.0225484 -0.164315 -0.164315
-0.000919145 -0.177579 -0.177579
0.0208637 -0.164569 -0.164569
-0.00076614 -0.151376 -0.151376
-0.000840075 -0.164227 -0.164227
-0.0234739 -0.177658 -0.177658
-0.0253339 -0.205842 -0.205842
0.0231419 -0.20615 -0.20615
0.0216309 -0.177929 -0.177929
-0.0244023 -0.191501 -0.191501
-0.00109341 -0.205783 -0.205783
0.0223903 -0.19179 -0.19179
-0.000919145 -0.177579 -0.177579
-0.00100353 -0.191432 -0.191432
-0.0253339 -0.205842 -0.205842
-0.0272071 -0.236016 -0.236016
0.0246209 -0.236362 -0.236362
0.0231419 -0.20615 -0.20615
-0.0262688 -0.220681 -0.220681
-0.00129037 -0.235977 -0.235977
0.0238855 -0.221007 -0.221007
-0.00109341 -0.205783 -0.205783
-0.00118897 -0.220632 -0.220632
-0.0272071 -0.236016 -0.236016
-0.0290952 -0.268167 -0.268167
0.0260666 -0.268555 -0.268555
0.0246209 -0.236362 -0.236362
-0.0281492 -0.251845 -0.251845
-0.00151142 -0.26815 -0.26815
0.025348 -0.252211 -0.252211
-0.00129037 -0.235977 -0.235977
-0.0013978 -0.251817 -0.251817
-0.0290952 -0.268167 -0.268167
-0.0309995 -0.302287 -0.302287
0.0274775 -0.302718 -0.302718
0.0260666 -0.268555 -0.268555
-0.0300452 -0.284982 -0.284982
-0.00175794 -0.302293 -0.302293
0.0267765 -0.285391 -0.285391
-0.00151142 -0.26815 -0.26815
-0.00163141 -0.284976 -0.284976
-0.0309995 -0.302287 -0.302287
-0.0329214 -0.338363 -0.338363
0.0288524 -0.338839 -0.338839
0.0274775 -0.302718 -0.302718
-0.0319582 -0.320081 -0.320081
-0.00203129 -0.338393 -0.338393
0.0281696 -0.320534 -0.320534
-0.00175794 -0.302293 -0.302293
-0.00189118 -0.320099 -0.320099
-0.0329214 -0.338363 -0.338363
-0.0348622 -0.376384 -0.376384
0.03019 -0.376909 -0.376909
0.0288524 -0.338839 -0.338839
-0.0338893 -0.357131 -0.357131
-0.0023328 -0.37644 -0.37644
0.029526 -0.357632 -0.357632
-0.00203129 -0.338393 -0.338393
-0.00217844 -0.357174 -0.357174
-0.0348622 -0.376384 -0.376384
-0.0368233 -0.416341 -0.416341
0.0314888 -0.416916 -0.416916
0.03019 -0.376909 -0.376909
-0.0358401 -0.396121 -0.396121
-0.00266379 -0.416423 -0.416423
0.0308443 -0.396671 -0.396671
-0.0023328 -0.37644 -0.37644
-0.00249453 -0.39619 -0.39619
-0.0368233 -0.416341 -0.416341
-0.0388059 -0.458222 -0.458222
0.0327476 -0.45885 -0.45885
0.0314888 -0.416916 -0.416916
-0.0378118 -0.437041 -0.437041
-0.00302555 -0.458331 -0.458331
0.0321233 -0.437643 -0.437643
-0.00266379 -0.416423 -0.416423
-0.00284074 -0.437137 -0.437137
-0.0388059 -0.458222 -0.458222
-0.0408114 -0.502015 -0.502015
0.0339652 -0.502698 -0.502698
0.0327476 -0.45885 -0.45885
-0.0398057 -0.47988 -0.47988
-0.00341935 -0.502153 -0.502153
0.0333616 -0.480535 -0.480535
-0.00302555 -0.458331 -0.458331
-0.00321837 -0.480004 -0.480004
-0.0408114 -0.502015 -0.502015
-0.0428409 -0.547711 -0.547711
0.0351403 -0.548451 -0.548451
0.0339652 -0.502698 -0.502698
-0.041823 -0.524626 -0.524626
-0.00384644 -0.547879 -0.547879
0.0345581 -0.525337 -0.525337
-0.00341935 -0.502153 -0.502153
-0.00362866 -0.524779 -0.524779
-0.0428409 -0.547711 -0.547711
-0.0448957 -0.595299 -0.595299
0.0362716 -0.596097 -0.596097
0.0351403 -0.548451 -0.548451
-0.043865 -0.571269 -0.571269
-0.00430804 -0.595497 -0.595497
0.0357115 -0.572038 -0.572038
-0.00384644 -0.547879 -0.547879
-0.00407285 -0.571452 -0.571452
-0.0448957 -0.595299 -0.595299
-0.046977 -0.644766 -0.644766
0.037358 -0.645626 -0.645626
0.0362716 -0.596097 -0.596097
-0.0459329 -0.619798 -0.619798
-0.00480535 -0.644996 -0.644996
0.0368205 -0.620627 -0.620627
-0.00430804 -0.595497 -0.595497
-0.00455216 -0.620012 -0.620012
-0.046977 -0.644766 -0.644766
-0.0490859 -0.696104 -0.696104
0.0383983 -0.697026 -0.697026
0.037358 -0.645626 -0.645626
-0.0480279 -0.670202 -0.670202
-0.00533955 -0.696366 -0.696366
0.037884 -0.671093 -0.671093
-0.00480535 -0.644996 -0.644996
-0.00506776 -0.670448 -0.670448
-0.0490859 -0.696104 -0.696104
-0.0512237 -0.7493 -0.7493
0.0393914 -0.750287 -0.750287
0.0383983 -0.697026 -0.697026
-0.0501511 -0.72247 -0.72247
-0.00591178 -0.749595 -0.749595
0.0389008 -0.723424 -0.723424
-0.00533955 -0.696366 -0.696366
-0.00562084 -0.722749 -0.722749
-0.0512237 -0.7493 -0.7493
-0.0533914 -0.804343 -0.804343
0.0403361 -0.805397 -0.805397
0.0393914 -0.750287 -0.750287
-0.0523037 -0.776591 -0.776591
-0.00652318 -0.804673 -0.804673
0.0398698 -0.777611 -0.777611
-0.00591178 -0.749595 -0.749595
-0.00621251 -0.776904 -0.776904
-0.0533914 -0.804343 -0.804343
-0.0555901 -0.861223 -0.861223
0.0412312 -0.862346 -0.862346
0.0403361 -0.805397 -0.805397
-0.0544868 -0.832554 -0.832554
-0.00717484 -0.861589 -0.861589
0.0407899 -0.833642 -0.833642
-0.00652318 -0.804673 -0.804673
-0.00684391 -0.832902 -0.832902
-0.0555901 -0.861223 -0.861223
-0.057821 -0.91993 -0.91993
0.0420758 -0.921122 -0.921122
0.0412312 -0.862346 -0.862346
-0.0567015 -0.890349 -0.890349
-0.00786786 -0.920332 -0.920332
0.0416599 -0.891506 -0.891506
-0.00717484 -0.861589 -0.861589
-0.00751612 -0.890733 -0.890733
-0.057821 -0.91993 -0.91993
-0.060085 -0.980451 -0.980451
0.0428688 -0.981716 -0.981716
0.0420758 -0.921122 -0.921122
-0.0589488 -0.949964 -0.949964
-0.00860328 -0.98089 -0.98089
0.0424788 -0.951193 -0.951193
-0.00786786 -0.920332 -0.920332
-0.0082302 -0.950385 -0.950385
-0.060085 -0.980451 -0.980451
-0.0623833 -1.04278 -1.04278
0.0436091 -1.04411 -1.04411
0.0428688 -0.981716 -0.981716
-0.0612298 -1.01139 -1.01139
-0.00938214 -1.04325 -1.04325
0.0432456 -1.01269 -1.01269
-0.00860328 -0.98089 -0.98089
-0.00898722 -1.01185 -1.01185
-0.0623833 -1.04278 -1.04278
-0.0647168 -1.10689 -1.10689
0.0442958 -1.10831 -1.10831
0.0436091 -1.04411 -1.04411
-0.0635455 -1.07461 -1.07461
-0.0102055 -1.10741 -1.10741
0.0439592 -1.07599 -1.07599
-0.00938214 -1.04325 -1.04325
-0.00978818 -1.07511 -1.07511
-0.0647168 -1.10689 -1.10689
-0.0670864 -1.1728 -1.1728
0.0449278 -1.17429 -1.17429
0.0442958 -1.10831 -1.10831
-0.065897 -1.13962 -1.13962
-0.0110742 -1.17335 -1.17335
0.0446187 -1.14108 -1.14108
-0.0102055 -1.10741 -1.10741
-0.0106341 -1.14016 -1.14016
-0.0670864 -1.1728 -1.1728
-0.0694933 -1.24047 -1.24047
0.0455041 -1.24204 -1.24204
0.0449278 -1.17429 -1.17429
-0.0682852 -1.20641 -1.20641
-0.0119894 -1.24106 -1.24106
0.045223 -1.20794 -1.20794
-0.0110742 -1.17335 -1.17335
-0.0115259 -1.20699 -1.20699
-0.0694933 -1.24047 -1.24047
-0.0719383 -1.3099 -1.3099
0.0460239 -1.31155 -1.31155
0.0455041 -1.24204 -1.24204
-0.070711 -1.27496 -1.27496
-0.0129519 -1.31054 -1.31054
0.0457712 -1.27657 -1.27657
-0.0119894 -1.24106 -1.24106
-0.0124646 -1.27558 -1.27558
-0.0719383 -1.3099 -1.3099
-0.0744223 -1.38108 -1.38108
0.0464862 -1.38281 -1.38281
0.0460239 -1.31155 -1.31155
-0.0731754 -1.34527 -1.34527
-0.0139626 -1.38176 -1.38176
0.0462623 -1.34696 -1.34696
-0.0129519 -1.31054 -1.31054
-0.0134511 -1.34593 -1.34593
-0.0744223 -1.38108 -1.38108
-0.0769463 -1.454 -1.454
0.0468902 -1.45582 -1.45582
0.0464862 -1.38281 -1.38281
-0.0756792 -1.41733 -1.41733
-0.0150225 -1.45473 -1.45473
0.0466956 -1.4191 -1.4191
-0.0139626 -1.38176 -1.38176
-0.0144864 -1.41803 -1.41803
-0.0769463 -1.454 -1.454
-0.079511 -1.52865 -1.52865
0.0472349 -1.53055 -1.53055
0.0468902 -1.45582 -1.45582
-0.0782235 -1.49111 -1.49111
-0.0161325 -1.52942 -1.52942
0.04707 -1.49297 -1.49297
-0.0150225 -1.45473 -1.45473
-0.0155712 -1.49186 -1.49186
-0.079511 -1.52865 -1.52865
-0.0821174 -1.60502 -1.60502
0.0475195 -1.607 -1.607
0.0472349 -1.53055 -1.53055
-0.080809 -1.56662 -1.56662
-0.0172933 -1.60583 -1.60583
0.0473847 -1.56856 -1.56856
-0.0161325 -1.52942 -1.52942
-0.0167065 -1.56741 -1.56741
-0.0821174 -1.60502 -1.60502
-0.0847663 -1.68309 -1.68309
0.0477431 -1.68516 -1.68516
0.0475195 -1.607 -1.607
-0.0834365 -1.64384 -1.64384
-0.0185058 -1.68394 -1.68394
0.0476389 -1.64587 -1.64587
-0.0172933 -1.60583 -1.60583
-0.017893 -1.64467 -1.64467
-0.0847663 -1.68309 -1.68309
-0.0874585 -1.76285 -1.76285
0.047905 -1.76502 -1.76502
0.0477431 -1.68516 -1.68516
-0.0861069 -1.72276 -1.72276
-0.0197709 -1.76376 -1.76376
0.0478318 -1.72488 -1.72488
-0.0185058 -1.68394 -1.68394
-0.0191317 -1.72364 -1.72364
-0.0874585 -1.76285 -1.76285
-0.0901948 -1.8443 -1.8443
0.0480044 -1.84656 -1.84656
0.047905 -1.76502 -1.76502
-0.0888211 -1.80337 -1.80337
-0.0210892 -1.84525 -1.84525
0.0479626 -1.80558 -1.80558
-0.0197709 -1.76376 -1.76376
-0.0204233 -1.80429 -1.80429
-0.0901948 -1.8443 -1.8443
-0.0929759 -1.92743 -1.92743
0.0480405 -1.92977 -1.92977
0.0480044 -1.84656 -1.84656
-0.0915797 -1.88566 -1.88566
-0.0224617 -1.92842 -1.92842
0.0480304 -1.88796 -1.88796
-0.0210892 -1.84525 -1.84525
-0.0217686 -1.88663 -1.88663
-0.0929759 -1.92743 -1.92743
-0.0958025 -2.01221 -2.01221
0.0480126 -2.01465 -2.01465
0.0480405 -1.92977 -1.92977
-0.0943835 -1.96961 -1.96961
-0.0238889 -2.01326 -2.01326
0.0480346 -1.97201 -1.97201
-0.0224617 -1.92842 -1.92842
-0.0231684 -1.97063 -1.97063
-0.0958025 -2.01221 -2.01221
-0.0986755 -2.09865 -2.09865
0.0479199 -2.10118 -2.10118
0.0480126 -2.01465 -2.01465
-0.0972332 -2.05523 -2.05523
-0.0253717 -2.09974 -2.09974
0.0479744 -2.05771 -2.05771
-0.0238889 -2.01326 -2.01326
-0.0246233 -2.05629 -2.05629
-0.0986755 -2.09865 -2.09865
-0.101596 -2.18673 -2.18673
0.0477617 -2.18936 -2.18936
0.0479199 -2.10118 -2.10118
-0.10013 -2.14249 -2.14249
-0.0269107 -2.18787 -2.18787
0.047849 -2.14507 -2.14507
-0.0253717 -2.09974 -2.09974
-0.0261341 -2.1436 -2.1436
-0.101596 -2.18673 -2.18673
-0.104563 -2.27644 -2.27644
0.0475375 -2.27916 -2.27916
0.0477617 -2.18936 -2.18936
-0.103073 -2.23138 -2.23138
-0.0285065 -2.27763 -2.27763
0.0476579 -2.23406 -2.23406
-0.0269107 -2.18787 -2.18787
-0.0277014 -2.23254 -2.23254
-0.104563 -2.27644 -2.27644
-0.107579 -2.36776 -2.36776
0.0472464 -2.37058 -2.37058
0.0475375 -2.27916 -2.27916
-0.106065 -2.3219 -2.3219
-0.03016 -2.369 -2.369
0.0474003 -2.32467 -2.32467
-0.0285065 -2.27763 -2.27763
-0.029326 -2.32311 -2.32311
-0.107579 -2.36776 -2.36776
-0.110644 -2.4607 -2.4607
0.046888 -2.46362 -2.46362
0.0472464 -2.37058 -2.37058
-0.109106 -2.41403 -2.41403
-0.0318717 -2.46199 -2.46199
0.0470757 -2.4169 -2.4169
-0.03016 -2.369 -2.369
-0.0310085 -2.41529 -2.41529
-0.110644 -2.4607 -2.4607
-0.113759 -2.55523 -2.55523
0.0464615 -2.55825 -2.55825
0.046888 -2.46362 -2.46362
-0.112195 -2.50776 -2.50776
-0.0336422 -2.55657 -2.55657
0.0466833 -2.51073 -2.51073
-0.0318717 -2.46199 -2.46199
-0.0327495 -2.50908 -2.50908
-0.113759 -2.55523 -2.55523
-0.116924 -2.65134 -2.65134
0.0459663 -2.65446 -2.65446
0.0464615 -2.55825 -2.55825
-0.115335 -2.60309 -2.60309
-0.035472 -2.65273 -2.65273
0.0462225 -2.60616 -2.60616
-0.0336422 -2.55657 -2.55657
-0.0345496 -2.60445 -2.60445
-0.116924 -2.65134 -2.65134
-0.120139 -2.74904 -2.74904
0.045402 -2.75226 -2.75226
0.0459663 -2.65446 -2.65446
-0.118525 -2.69999 -2.69999
-0.0373619 -2.75048 -2.75048
0.0456929 -2.70316 -2.70316
-0.035472 -2.65273 -2.65273
-0.0364094 -2.70141 -2.70141
-0.120139 -2.74904 -2.74904
-0.123406 -2.84829 -2.84829
0.0447679 -2.85161 -2.85161
0.045402 -2.75226 -2.75226
-0.121766 -2.79847 -2.79847
-0.0393123 -2.84979 -2.84979
0.0450937 -2.80174 -2.80174
-0.0373619 -2.75048 -2.75048
-0.0383295 -2.79994 -2.79994
-0.123406 -2.84829 -2.84829
-0.126725 -2.9491 -2.9491
0.0440635 -2.95253 -2.95253
0.0447679 -2.85161 -2.85161
-0.125059 -2.8985 -2.8985
-0.0413238 -2.95065 -2.95065
0.0444245 -2.90188 -2.90188
-0.0393123 -2.84979 -2.84979
-0.0403104 -2.90002 -2.90002
-0.126725 -2.9491 -2.9491
-0.130096 -3.05145 -3.05145
0.0432883 -3.05498 -3.05498
0.0440635 -2.95253 -2.95253
-0.128404 -3.00008 -3.00008
-0.0433969 -3.05305 -3.05305
0.0436848 -3.00356 -3.00356
-0.0413238 -2.95065 -2.95065
-0.0423526 -3.00166 -3.00166
-0.130096 -3.05145 -3.05145
-0.13352 -3.15533 -3.15533
0.0424419 -3.15897 -3.15897
0.0432883 -3.05498 -3.05498
-0.131801 -3.1032 -3.1032
-0.045532 -3.15699 -3.15699
0.042874 -3.10678 -3.10678
-0.0433969 -3.05305 -3.05305
-0.0444567 -3.10483 -3.10483
-0.13352 -3.15533 -3.15533
-0.136997 -3.26074 -3.26074
0.0415236 -3.26448 -3.26448
0.0424419 -3.15897 -3.15897
-0.135252 -3.20785 -3.20785
-0.0477297 -3.26245 -3.26245
0.0419917 -3.21153 -3.21153
-0.045532 -3.15699 -3.15699
-0.046623 -3.20953 -3.20953
-0.136997 -3.26074 -3.26074
-0.140528 -3.36765 -3.36765
0.0405331 -3.3715 -3.3715
0.0415236 -3.26448 -3.26448
-0.138756 -3.31401 -3.31401
-0.0499905 -3.36941 -3.36941
0.0410374 -3.3178 -3.3178
-0.0477297 -3.26245 -3.26245
-0.0488522 -3.31574 -3.31574
-0.140528 -3.36765 -3.36765
-0.144113 -3.47606 -3.47606
0.03947 -3.48002 -3.48002
0.0405331 -3.3715 -3.3715
-0.142314 -3.42167 -3.42167
-0.0523146 -3.47788 -3.47788
0.0400106 -3.42557 -3.42557
-0.0499905 -3.36941 -3.36941
-0.0511446 -3.42346 -3.42346
-0.144113 -3.47606 -3.47606
-0.147753 -3.58596 -3.58596
0.0383337 -3.59002 -3.59002
0.03947 -3.48002 -3.48002
-0.145926 -3.53083 -3.53083
-0.0547027 -3.58783 -3.58783
0.038911 -3.53484 -3.53484
-0.0523146 -3.47788 -3.47788
-0.0535006 -3.53267 -3.53267
-0.147753 -3.58596 -3.58596
-0.151448 -3.69734 -3.69734
0.037124 -3.70151 -3.70151
0.0383337 -3.59002 -3.59002
-0.149594 -3.64147 -3.64147
-0.057155 -3.69927 -3.69927
0.0377381 -3.64558 -3.64558
-0.0547027 -3.58783 -3.58783
-0.0559208 -3.64337 -3.64337
-0.151448 -3.69734 -3.69734
-0.155198 -3.81018 -3.81018
0.0358405 -3.81446 -3.81446
0.037124 -3.70151 -3.70151
-0.153316 -3.75358 -3.75358
-0.0596719 -3.81216 -3.81216
0.0364915 -3.7578 -3.7578
-0.057155 -3.69927 -3.69927
-0.0584053 -3.75553 -3.75553
-0.155198 -3.81018 -3.81018
-0.159005 -3.92448 -3.92448
0.0344827 -3.92887 -3.92887
0.0358405 -3.81446 -3.81446
-0.157095 -3.86715 -3.86715
-0.0622538 -3.92652 -3.92652
0.0351709 -3.87148 -3.87148
-0.0596719 -3.81216 -3.81216
-0.0609547 -3.86916 -3.86916
-0.159005 -3.92448 -3.92448
-0.162867 -4.04022 -4.04022
0.0330504 -4.04472 -4.04472
0.0344827 -3.92887 -3.92887
-0.160929 -3.98217 -3.98217
-0.0649011 -4.04232 -4.04232
0.0337759 -3.98661 -3.98661
-0.0622538 -3.92652 -3.92652
-0.0635692 -3.98424 -3.98424
-0.162867 -4.04022 -4.04022
-0.166786 -4.1574 -4.1574
0.0315432 -4.16201 -4.16201
0.0330504 -4.04472 -4.04472
-0.164819 -4.09863 -4.09863
-0.067614 -4.15955 -4.15955
0.0323062 -4.10318 -4.10318
-0.0649011 -4.04232 -4.04232
-0.0662493 -4.10075 -4.10075
-0.166786 -4.1574 -4.1574
-0.170761 -4.27599 -4.27599
0.0299609 -4.28071 -4.28071
0.0315432 -4.16201 -4.16201
-0.168766 -4.21652 -4.21652
-0.0703929 -4.2782 -4.2782
0.0307615 -4.22118 -4.22118
-0.067614 -4.15955 -4.15955
-0.0689952 -4.2187 -4.2187
-0.170761 -4.27599 -4.27599
-0.174793 -4.396 -4.396
0.0283031 -4.40084 -4.40084
0.0299609 -4.28071 -4.28071
-0.17277 -4.33582 -4.33582
-0.073238 -4.39827 -4.39827
0.0291414 -4.3406 -4.3406
-0.0703929 -4.2782 -4.2782
-0.0718071 -4.33806 -4.33806
-0.174793 -4.396 -4.396
-0.178883 -4.51741 -4.51741
0.0265695 -4.52236 -4.52236
0.0283031 -4.40084 -4.40084
-0.176831 -4.45653 -4.45653
-0.0761496 -4.51974 -4.51974
0.0274458 -4.46142 -4.46142
-0.073238 -4.39827 -4.39827
-0.0746855 -4.45883 -4.45883
-0.178883 -4.51741 -4.51741
-0.183031 -4.64021 -4.64021
0.02476 -4.64527 -4.64527
0.0265695 -4.52236 -4.52236
-0.18095 -4.57864 -4.57864
-0.079128 -4.64259 -4.64259
0.0256743 -4.58364 -4.58364
-0.0761496 -4.51974 -4.51974
-0.0776304 -4.58099 -4.58099
-0.183031 -4.64021 -4.64021
-0.187236 -4.76439 -4.76439
0.0228743 -4.76956 -4.76956
0.02476 -4.64527 -4.64527
-0.185126 -4.70213 -4.70213
-0.0821734 -4.76683 -4.76683
0.0238267 -4.70724 -4.70724
-0.079128 -4.64259 -4.64259
-0.0806423 -4.70454 -4.70454
-0.187236 -4.76439 -4.76439
-0.191499 -4.88994 -4.88994
0.0209122 -4.89522 -4.89522
0.0228743 -4.76956 -4.76956
-0.18936 -4.82699 -4.82699
-0.085286 -4.89243 -4.89243
0.0219028 -4.83222 -4.83222
-0.0821734 -4.76683 -4.76683
-0.0837213 -4.82946 -4.82946
-0.191499 -4.88994 -4.88994
-0.19582 -5.01684 -5.01684
0.0188734 -5.02224 -5.02224
0.0209122 -4.89522 -4.89522
-0.193652 -4.95322 -4.95322
-0.088466 -5.01939 -5.01939
0.0199024 -4.95856 -4.95856
-0.085286 -4.89243 -4.89243
-0.0868676 -4.95574 -4.95574
-0.19582 -5.01684 -5.01684
-0.2002 -5.14509 -5.14509
0.0167579 -5.1506 -5.1506
0.0188734 -5.02224 -5.02224
-0.198003 -5.0808 -5.0808
-0.0917136 -5.1477 -5.1477
0.0178253 -5.08625 -5.08625
-0.088466 -5.01939 -5.01939
-0.0900813 -5.08338 -5.08338
-0.2002 -5.14509 -5.14509
-0.204638 -5.27467 -5.27467
0.0145654 -5.2803 -5.2803
0.0167579 -5.1506 -5.1506
-0.202412 -5.20971 -5.20971
-0.0950289 -5.27734 -5.27734
0.0156713 -5.21528 -5.21528
-0.0917136 -5.1477 -5.1477
-0.0933627 -5.21236 -5.21236
-0.204638 -5.27467 -5.27467
-0.209135 -5.40558 -5.40558
0.0122959 -5.41132 -5.41132
0.0145654 -5.2803 -5.2803
-0.206879 -5.33996 -5.33996
-0.0984121 -5.40831 -5.40831
0.0134403 -5.34565 -5.34565
-0.0950289 -5.27734 -5.27734
-0.096712 -5.34266 -5.34266
-0.209135 -5.40558 -5.40558
-0.21369 -5.5378 -5.5378
0.0099491 -5.54366 -5.54366
0.0122959 -5.41132 -5.41132
-0.211405 -5.47153 -5.47153
-0.101863 -5.54059 -5.54059
0.0111321 -5.47733 -5.47733
-0.0984121 -5.40831 -5.40831
-0.100129 -5.47429 -5.47429
-0.21369 -5.5378 -5.5378
-0.218305 -5.67133 -5.67133
0.007525 -5.6773 -5.6773
0.0099491 -5.54366 -5.54366
-0.21599 -5.6044 -5.6044
-0.105383 -5.67418 -5.67418
0.00874672 -5.61032 -5.61032
-0.101863 -5.54059 -5.54059
-0.103614 -5.60722 -5.60722
-0.218305 -5.67133 -5.67133
-0.222979 -5.80615 -5.80615
0.00502349 -5.81223 -5.81223
0.007525 -5.6773 -5.6773
-0.220634 -5.73858 -5.73858
-0.10897 -5.80905 -5.80905
0.00628393 -5.7446 -5.7446
-0.105383 -5.67418 -5.67418
-0.107168 -5.74145 -5.74145
-0.222979 -5.80615 -5.80615
-0.227711 -5.94224 -5.94224
0.00244448 -5.94844 -5.94844
0.00502349 -5.81223 -5.81223
-0.225338 -5.87404 -5.87404
-0.112626 -5.94521 -5.94521
0.00374368 -5.88018 -5.88018
-0.10897 -5.80905 -5.80905
-0.110789 -5.87697 -5.87697
-0.227711 -5.94224 -5.94224
-0.232503 -6.07961 -6.07961
-0.000212074 -6.08593 -6.08593
0.00244448 -5.94844 -5.94844
-0.2301 -6.01077 -6.01077
-0.11635 -6.08263 -6.08263
0.0011259 -6.01703 -6.01703
-0.112626 -5.94521 -5.94521
-0.114479 -6.01376 -6.01376
-0.232503 -6.07961 -6.07961
-0.237354 -6.21824 -6.21824
-0.00294622 -6.22467 -6.22467
-0.000212074 -6.08593 -6.08593
-0.234921 -6.14877 -6.14877
-0.120143 -6.22132 -6.22132
-0.00156945 -6.15514 -6.15514
-0.11635 -6.08263 -6.08263
-0.118238 -6.15182 -6.15182
-0.237354 -6.21824 -6.21824
-0.242264 -6.35811 -6.35811
-0.00575799 -6.36466 -6.36466
-0.00294622 -6.22467 -6.22467
-0.239802 -6.28802 -6.28802
-0.124004 -6.36125 -6.36125
-0.0043424 -6.29451 -6.29451
-0.120143 -6.22132 -6.22132
-0.122065 -6.29113 -6.29113
-0.242264 -6.35811 -6.35811
-0.247234 -6.49922 -6.49922
-0.00864739 -6.50589 -6.50589
-0.00575799 -6.36466 -6.36466
-0.244741 -6.42851 -6.42851
-0.127933 -6.50242 -6.50242
-0.00719299 -6.43512 -6.43512
-0.124004 -6.36125 -6.36125
-0.12596 -6.43168 -6.43168
-0.247234 -6.49922 -6.49922
-0.252262 -6.64156 -6.64156
-0.0116144 -6.64834 -6.64834
-0.00864739 -6.50589 -6.50589
-0.24974 -6.57024 -6.57024
-0.131931 -6.64482 -6.64482
-0.0101212 -6.57696 -6.57696
-0.127933 -6.50242 -6.50242
-0.129923 -6.57347 -6.57347
-0.252262 -6.64156 -6.64156
-0.25735 -6.78512 -6.78512
-0.014659 -6.79201 -6.79201
-0.0116144 -6.64834 -6.64834
-0.254799 -6.71319 -6.71319
-0.135997 -6.78843 -6.78843
-0.013127 -6.72002 -6.72002
-0.131931 -6.64482 -6.64482
-0.133955 -6.71648 -6.71648
-0.25735 -6.78512 -6.78512
-0.262497 -6.92987 -6.92987
-0.0177812 -6.93688 -6.93688
-0.014659 -6.79201 -6.79201
-0.259916 -6.85734 -6.85734
-0.140132 -6.93325 -6.93325
-0.0162104 -6.86429 -6.86429
-0.135997 -6.78843 -6.78843
-0.138056 -6.86069 -6.86069
-0.262497 -6.92987 -6.92987
-0.267703 -7.07583 -7.07583
-0.0209809 -7.08295 -7.08295
-0.0177812 -6.93688 -6.93688
-0.265093 -7.0027 -7.0027
-0.144335 -7.07926 -7.07926
-0.0193714 -7.00977 -7.00977
-0.140132 -6.93325 -6.93325
-0.142225 -7.00611 -7.00611
-0.267703 -7.07583 -7.07583
-0.272968 -7.22296 -7.22296
-0.0242581 -7.2302 -7.2302
-0.0209809 -7.08295 -7.08295
-0.270328 -7.14925 -7.14925
-0.148606 -7.22645 -7.22645
-0.0226098 -7.15643 -7.15643
-0.144335 -7.07926 -7.07926
-0.146462 -7.15271 -7.15271
-0.272968 -7.22296 -7.22296
-0.278292 -7.37127 -7.37127
-0.0276126 -7.37862 -7.37862
-0.0242581 -7.2302 -7.2302
-0.275623 -7.29697 -7.29697
-0.152945 -7.37482 -7.37482
-0.0259257 -7.30426 -7.30426
-0.148606 -7.22645 -7.22645
-0.150767 -7.30049 -7.30049
-0.278292 -7.37127 -7.37127
-0.283675 -7.52073 -7.52073
-0.0310444 -7.5282 -7.5282
-0.0276126 -7.37862 -7.37862
-0.280977 -7.44586 -7.44586
-0.157352 -7.52435 -7.52435
-0.0293188 -7.45327 -7.45327
-0.152945 -7.37482 -7.37482
-0.15514 -7.44944 -7.44944
-0.283675 -7.52073 -7.52073
-0.289117 -7.67135 -7.67135
-0.0345533 -7.67893 -7.67893
-0.0310444 -7.5282 -7.5282
-0.286389 -7.5959 -7.5959
-0.161828 -7.67502 -7.67502
-0.0327892 -7.60342 -7.60342
-0.157352 -7.52435 -7.52435
-0.159582 -7.59954 -7.59954
-0.289117 -7.67135 -7.67135
-0.294617 -7.82311 -7.82311
-0.0381392 -7.83081 -7.83081
-0.0345533 -7.67893 -7.67893
-0.29186 -7.74709 -7.74709
-0.166371 -7.82684 -7.82684
-0.0363366 -7.75473 -7.75473
-0.161828 -7.67502 -7.67502
-0.164091 -7.75079 -7.75079
-0.294617 -7.82311 -7.82311
-0.300176 -7.976 -7.976
-0.0418021 -7.98381 -7.98381
-0.0381392 -7.83081 -7.83081
-0.29739 -7.89941 -7.89941
-0.170982 -7.97978 -7.97978
-0.039961 -7.90716 -7.90716
-0.166371 -7.82684 -7.82684
-0.168668 -7.90317 -7.90317
-0.300176 -7.976 -7.976
-0.305794 -8.13 -8.13
-0.0455416 -8.13792 -8.13792
-0.0418021 -7.98381 -7.98381
-0.302978 -8.05286 -8.05286
-0.17566 -8.13384 -8.13384
-0.0436622 -8.06072 -8.06072
-0.170982 -7.97978 -7.97978
-0.173313 -8.05667 -8.05667
-0.305794 -8.13 -8.13
-0.311469 -8.28511 -8.28511
-0.0493577 -8.29315 -8.29315
-0.0455416 -8.13792 -8.13792
-0.308624 -8.20742 -8.20742
-0.180406 -8.28901 -8.28901
-0.0474401 -8.2154 -8.2154
-0.17566 -8.13384 -8.13384
-0.178025 -8.21129 -8.21129
-0.311469 -8.28511 -8.28511
-0.317202 -8.44131 -8.44131
-0.0532502 -8.44946 -8.44946
-0.0493577 -8.29315 -8.29315
-0.314328 -8.36308 -8.36308
-0.185219 -8.44527 -8.44527
-0.0512944 -8.37117 -8.37117
-0.180406 -8.28901 -8.28901
-0.182804 -8.36701 -8.36701
-0.317202 -8.44131 -8.44131
-0.322993 -8.5986 -8.5986
-0.0572188 -8.60687 -8.60687
-0.0532502 -8.44946 -8.44946
-0.320091 -8.51982 -8.51982
-0.190099 -8.60262 -8.60262
-0.055225 -8.52803 -8.52803
-0.185219 -8.44527 -8.44527
-0.187651 -8.52381 -8.52381
-0.322993 -8.5986 -8.5986
-0.328842 -8.75697 -8.75697
-0.0612634 -8.76534 -8.76534
-0.0572188 -8.60687 -8.60687
-0.325911 -8.67765 -8.67765
-0.195045 -8.76104 -8.76104
-0.0592316 -8.68597 -8.68597
-0.190099 -8.60262 -8.60262
-0.192564 -8.6817 -8.6817
-0.328842 -8.75697 -8.75697
-0.334748 -8.9164 -8.9164
-0.0653837 -8.92488 -8.92488
-0.0612634 -8.76534 -8.76534
-0.331788 -8.83655 -8.83655
-0.200059 -8.92053 -8.92053
-0.0633141 -8.84498 -8.84498
-0.195045 -8.76104 -8.76104
-0.197544 -8.84065 -8.84065
-0.334748 -8.9164 -8.9164
-0.340711 -9.07688 -9.07688
-0.0695795 -9.08548 -9.08548
-0.0653837 -8.92488 -8.92488
-0.337723 -8.99651 -8.99651
-0.205138 -9.08106 -9.08106
-0.0674722 -9.00505 -9.00505
-0.200059 -8.92053 -8.92053
-0.20259 -9.00067 -9.00067
-0.340711 -9.07688 -9.07688
-0.346731 -9.2384 -9.2384
-0.0738505 -9.24711 -9.24711
-0.0695795 -9.08548 -9.08548
-0.343714 -9.15751 -9.15751
-0.210284 -9.24264 -9.24264
-0.0717056 -9.16616 -9.16616
-0.205138 -9.08106 -9.08106
-0.207703 -9.16172 -9.16172
-0.346731 -9.2384 -9.2384
-0.352808 -9.40095 -9.40095
-0.0781965 -9.40977 -9.40977
-0.0738505 -9.24711 -9.24711
-0.349762 -9.31955 -9.31955
-0.215495 -9.40525 -9.40525
-0.0760141 -9.32831 -9.32831
-0.210284 -9.24264 -9.24264
-0.212881 -9.32382 -9.32382
-0.352808 -9.40095 -9.40095
-0.358941 -9.56452 -9.56452
-0.0826172 -9.57345 -9.57345
-0.0781965 -9.40977 -9.40977
-0.355867 -9.48261 -9.48261
-0.220772 -9.56888 -9.56888
-0.0803975 -9.49148 -9.49148
-0.215495 -9.40525 -9.40525
-0.218125 -9.48694 -9.48694
-0.358941 -9.56452 -9.56452
-0.36513 -9.7291 -9.7291
-0.0871122 -9.73814 -9.73814
-0.0826172 -9.57345 -9.57345
-0.362028 -9.64669 -9.64669
-0.226114 -9.73352 -9.73352
-0.0848554 -9.65567 -9.65567
-0.220772 -9.56888 -9.56888
-0.223435 -9.65107 -9.65107
-0.36513 -9.7291 -9.7291
-0.371374 -9.89468 -9.89468
-0.0916813 -9.90383 -9.90383
-0.0871122 -9.73814 -9.73814
-0.368245 -9.81177 -9.81177
-0.231521 -9.89915 -9.89915
-0.0893875 -9.82086 -9.82086
-0.226114 -9.73352 -9.73352
-0.228809 -9.81621 -9.81621
-0.371374 -9.89468 -9.89468
-0.377674 -10.0612 -10.0612
-0.0963242 -10.0705 -10.0705
-0.0916813 -9.90383 -9.90383
-0.374517 -9.97784 -9.97784
-0.236992 -10.0658 -10.0658
-0.0939936 -9.98704 -9.98704
-0.231521 -9.89915 -9.89915
-0.234248 -9.98234 -9.98234
-0.377674 -10.0612 -10.0612
-0.384029 -10.2288 -10.2288
-0.101041 -10.2382 -10.2382
-0.0963242 -10.0705 -10.0705
-0.380845 -10.1449 -10.1449
-0.242528 -10.2334 -10.2334
-0.0986732 -10.1542 -10.1542
-0.236992 -10.0658 -10.0658
-0.239752 -10.1494 -10.1494
-0.384029 -10.2288 -10.2288
-0.390439 -10.3973 -10.3973
-0.10583 -10.4068 -10.4068
-0.101041 -10.2382 -10.2382
-0.387227 -10.3129 -10.3129
-0.248128 -10.4019 -10.4019
-0.103426 -10.3223 -10.3223
-0.242528 -10.2334 -10.2334
-0.24532 -10.3175 -10.3175
-0.390439 -10.3973 -10.3973
-0.396903 -10.5668 -10.5668
-0.110692 -10.5763 -10.5763
-0.10583 -10.4068 -10.4068
-0.393664 -10.4819 -10.4819
-0.253791 -10.5714 -10.5714
-0.108252 -10.4914 -10.4914
-0.248128 -10.4019 -10.4019
-0.250951 -10.4866 -10.4866
-0.396903 -10.5668 -10.5668
-0.403421 -10.7372 -10.7372
-0.115626 -10.7468 -10.7468
-0.110692 -10.5763 -10.5763
-0.400155 -10.6518 -10.6518
-0.259517 -10.7419 -10.7419
-0.11315 -10.6615 -10.6615
-0.253791 -10.5714 -10.5714
-0.256646 -10.6566 -10.6566
-0.403421 -10.7372 -10.7372
-0.409993 -10.9085 -10.9085
-0.120633 -10.9183 -10.9183
-0.115626 -10.7468 -10.7468
-0.4067 -10.8227 -10.8227
-0.265306 -10.9133 -10.9133
-0.118121 -10.8325 -10.8325
-0.259517 -10.7419 -10.7419
-0.262404 -10.8275 -10.8275
-0.409993 -10.9085 -10.9085
-0.416618 -11.0808 -11.0808
-0.125711 -11.0907 -11.0907
-0.120633 -10.9183 -10.9183
-0.413299 -10.9945 -10.9945
-0.271158 -11.0856 -11.0856
-0.123163 -11.0044 -11.0044
-0.265306 -10.9133 -10.9133
-0.268224 -10.9993 -10.9993
-0.416618 -11.0808 -11.0808
-0.423296 -11.2539 -11.2539
-0.13086 -11.2639 -11.2639
-0.125711 -11.0907 -11.0907
-0.41995 -11.1672 -11.1672
-0.277071 -11.2588 -11.2588
-0.128277 -11.1772 -11.1772
-0.271158 -11.0856 -11.0856
-0.274107 -11.1721 -11.1721
-0.423296 -11.2539 -11.2539
-0.430026 -11.428 -11.428
-0.13608 -11.4381 -11.4381
-0.13086 -11.2639 -11.2639
-0.426654 -11.3409 -11.3409
-0.283046 -11.433 -11.433
-0.133461 -11.3509 -11.3509
-0.277071 -11.2588 -11.2588
-0.280051 -11.3458 -11.3458
-0.430026 -11.428 -11.428
-0.436808 -11.603 -11.603
-0.14137 -11.6132 -11.6132
-0.13608 -11.4381 -11.4381
-0.43341 -11.5154 -11.5154
-0.289082 -11.608 -11.608
-0.138716 -11.5255 -11.5255
-0.283046 -11.433 -11.433
-0.286057 -11.5204 -11.5204
-0.436808 -11.603 -11.603
-0.443641 -11.7788 -11.7788
-0.14673 -11.7891 -11.7891
-0.14137 -11.6132 -11.6132
-0.440218 -11.6908 -11.6908
-0.295179 -11.7839 -11.7839
-0.144042 -11.701 -11.701
-0.289082 -11.608 -11.608
-0.292123 -11.6958 -11.6958
-0.443641 -11.7788 -11.7788
-0.450526 -11.9555 -11.9555
-0.15216 -11.9659 -11.9659
-0.14673 -11.7891 -11.7891
-0.447077 -11.867 -11.867
-0.301337 -11.9606 -11.9606
-0.149437 -11.8774 -11.8774
-0.295179 -11.7839 -11.7839
-0.29825 -11.8721 -11.8721
-0.450526 -11.9555 -11.9555
-0.457461 -12.1331 -12.1331
-0.157658 -12.1436 -12.1436
-0.15216 -11.9659 -11.9659
-0.453988 -12.0442 -12.0442
-0.307554 -12.1382 -12.1382
-0.154901 -12.0546 -12.0546
-0.301337 -11.9606 -11.9606
-0.304438 -12.0493 -12.0493
-0.457461 -12.1331 -12.1331
-0.464447 -12.3115 -12.3115
-0.163226 -12.3221 -12.3221
-0.157658 -12.1436 -12.1436
-0.460948 -12.2222 -12.2222
-0.31383 -12.3167 -12.3167
-0.160433 -12.2327 -12.2327
-0.307554 -12.1382 -12.1382
-0.310684 -12.2274 -12.2274
-0.464447 -12.3115 -12.3115
-0.471482 -12.4907 -12.4907
-0.168861 -12.5014 -12.5014
-0.163226 -12.3221 -12.3221
-0.467958 -12.401 -12.401
-0.320165 -12.496 -12.496
-0.166035 -12.4117 -12.4117
-0.31383 -12.3167 -12.3167
-0.31699 -12.4062 -12.4062
-0.471482 -12.4907 -12.4907
-0.478566 -12.6708 -12.6708
-0.174563 -12.6816 -12.6816
-0.168861 -12.5014 -12.5014
-0.475018 -12.5807 -12.5807
-0.326558 -12.6761 -12.6761
-0.171703 -12.5914 -12.5914
-0.320165 -12.496 -12.496
-0.323354 -12.5859 -12.5859
-0.478566 -12.6708 -12.6708
-0.485699 -12.8517 -12.8517
-0.180333 -12.8626 -12.8626
-0.174563 -12.6816 -12.6816
-0.482127 -12.7611 -12.7611
-0.33301 -12.857 -12.857
-0.17744 -12.772 -12.772
-0.326558 -12.6761 -12.6761
-0.329777 -12.7665 -12.7665
-0.485699 -12.8517 -12.8517
-0.49288 -13.0334 -13.0334
-0.186169 -13.0444 -13.0444
-0.180333 -12.8626 -12.8626
-0.489284 -12.9424 -12.9424
-0.339518 -13.0388 -13.0388
-0.183242 -12.9534 -12.9534
-0.33301 -12.857 -12.857
-0.336257 -12.9478 -12.9478
-0.49288 -13.0334 -13.0334
-0.500109 -13.2158 -13.2158
-0.192071 -13.2269 -13.2269
-0.186169 -13.0444 -13.0444
-0.496489 -13.1245 -13.1245
-0.346084 -13.2213 -13.2213
-0.189111 -13.1355 -13.1355
-0.339518 -13.0388 -13.0388
-0.342794 -13.1299 -13.1299
-0.500109 -13.2158 -13.2158
-0.507385 -13.3991 -13.3991
-0.198038 -13.4103 -13.4103
-0.192071 -13.2269 -13.2269
-0.503741 -13.3074 -13.3074
-0.352706 -13.4046 -13.4046
-0.195046 -13.3185 -13.3185
-0.346084 -13.2213 -13.2213
-0.349388 -13.3128 -13.3128
-0.507385 -13.3991 -13.3991
-0.514707 -13.5831 -13.5831
-0.20407 -13.5944 -13.5944
-0.198038 -13.4103 -13.4103
-0.51104 -13.491 -13.491
-0.359383 -13.5887 -13.5887
-0.201046 -13.5022 -13.5022
-0.352706 -13.4046 -13.4046
-0.356037 -13.4965 -13.4965
-0.514707 -13.5831 -13.5831
-0.522076 -13.7679 -13.7679
-0.210167 -13.7793 -13.7793
-0.20407 -13.5944 -13.5944
-0.518386 -13.6754 -13.6754
-0.366115 -13.7735 -13.7735
-0.207111 -13.6867 -13.6867
-0.359383 -13.5887 -13.5887
-0.362742 -13.681 -13.681
-0.522076 -13.7679 -13.7679
-0.529489 -13.9534 -13.9534
-0.216327 -13.9649 -13.9649
-0.210167 -13.7793 -13.7793
-0.525777 -13.8606 -13.8606
-0.372903 -13.9591 -13.9591
-0.213239 -13.872 -13.872
-0.366115 -13.7735 -13.7735
-0.369502 -13.8662 -13.8662
-0.529489 -13.9534 -13.9534
-0.536948 -14.1397 -14.1397
-0.222551 -14.1513 -14.1513
-0.216327 -13.9649 -13.9649
-0.533213 -14.0465 -14.0465
-0.379744 -14.1454 -14.1454
-0.219431 -14.058 -14.058
-0.372903 -13.9591 -13.9591
-0.376316 -14.0521 -14.0521
-0.536948 -14.1397 -14.1397
-0.544451 -14.3267 -14.3267
-0.228837 -14.3383 -14.3383
-0.222551 -14.1513 -14.1513
-0.540694 -14.2331 -14.2331
-0.386638 -14.3324 -14.3324
-0.225686 -14.2447 -14.2447
-0.379744 -14.1454 -14.1454
-0.383184 -14.2388 -14.2388
-0.544451 -14.3267 -14.3267
-0.551997 -14.5144 -14.5144
-0.235185 -14.5261 -14.5261
-0.228837 -14.3383 -14.3383
-0.548219 -14.4205 -14.4205
-0.393586 -14.5202 -14.5202
-0.232003 -14.4322 -14.4322
-0.386638 -14.3324 -14.3324
-0.390105 -14.4262 -14.4262
-0.551997 -14.5144 -14.5144
-0.559587 -14.7028 -14.7028
-0.241595 -14.7146 -14.7146
-0.235185 -14.5261 -14.5261
-0.555787 -14.6085 -14.6085
-0.400585 -14.7087 -14.7087
-0.238382 -14.6203 -14.6203
-0.393586 -14.5202 -14.5202
-0.397079 -14.6143 -14.6143
-0.559587 -14.7028 -14.7028
-0.567219 -14.8919 -14.8919
-0.248065 -14.9038 -14.9038
-0.241595 -14.7146 -14.7146
-0.563398 -14.7973 -14.7973
-0.407637 -14.8978 -14.8978
-0.244822 -14.8092 -14.8092
-0.400585 -14.7087 -14.7087
-0.404105 -14.8032 -14.8032
-0.567219 -14.8919 -14.8919
-0.574893 -15.0817 -15.0817
-0.254596 -15.0937 -15.0937
-0.248065 -14.9038 -14.9038
-0.571051 -14.9867 -14.9867
-0.414739 -15.0877 -15.0877
-0.251323 -14.9987 -14.9987
-0.407637 -14.8978 -14.8978
-0.411181 -14.9926 -14.9926
-0.574893 -15.0817 -15.0817
-0.582608 -15.2722 -15.2722
-0.261186 -15.2843 -15.2843
-0.254596 -15.0937 -15.0937
-0.578745 -15.1769 -15.1769
-0.421892 -15.2782 -15.2782
-0.257883 -15.1889 -15.1889
-0.414739 -15.0877 -15.0877
-0.418309 -15.1828 -15.1828
-0.582608 -15.2722 -15.2722
-0.590364 -15.4633 -15.4633
-0.267835 -15.4755 -15.4755
-0.261186 -15.2843 -15.2843
-0.586481 -15.3677 -15.3677
-0.429094 -15.4693 -15.4693
-0.264503 -15.3798 -15.3798
-0.421892 -15.2782 -15.2782
-0.425487 -15.3737 -15.3737
-0.590364 -15.4633 -15.4633
-0.598159 -15.6551 -15.6551
-0.274542 -15.6673 -15.6673
-0.267835 -15.4755 -15.4755
-0.594257 -15.5591 -15.5591
-0.436345 -15.6612 -15.6612
-0.271181 -15.5713 -15.5713
-0.429094 -15.4693 -15.4693
-0.432713 -15.5652 -15.5652
-0.598159 -15.6551 -15.6551
-0.605994 -15.8475 -15.8475
-0.281306 -15.8598 -15.8598
-0.274542 -15.6673 -15.6673
-0.602072 -15.7512 -15.7512
-0.443645 -15.8536 -15.8536
-0.277917 -15.7635 -15.7635
-0.436345 -15.6612 -15.6612
-0.439989 -15.7573 -15.7573
-0.605994 -15.8475 -15.8475
-0.613868 -16.0406 -16.0406
-0.288128 -16.053 -16.053
-0.281306 -15.8598 -15.8598
-0.609926 -15.944 -15.944
-0.450993 -16.0467 -16.0467
-0.28471 -15.9563 -15.9563
-0.443645 -15.8536 -15.8536
-0.447313 -15.9501 -15.9501
-0.613868 -16.0406 -16.0406
-0.621779 -16.2342 -16.2342
-0.295006 -16.2467 -16.2467
-0.288128 -16.053 -16.053
-0.617819 -16.1373 -16.1373
-0.458387 -16.2404 -16.2404
-0.29156 -16.1498 -16.1498
-0.450993 -16.0467 -16.0467
-0.454684 -16.1435 -16.1435
-0.621779 -16.2342 -16.2342
-0.629728 -16.4285 -16.4285
-0.301939 -16.4411 -16.4411
-0.295006 -16.2467 -16.2467
-0.625749 -16.3313 -16.3313
-0.465829 -16.4347 -16.4347
-0.298466 -16.3438 -16.3438
-0.458387 -16.2404 -16.2404
-0.462102 -16.3375 -16.3375
-0.629728 -16.4285 -16.4285
-0.637713 -16.6234 -16.6234
-0.308928 -16.636 -16.636
-0.301939 -16.4411 -16.4411
-0.633716 -16.5259 -16.5259
-0.473315 -16.6296 -16.6296
-0.305427 -16.5385 -16.5385
-0.465829 -16.4347 -16.4347
-0.469566 -16.5321 -16.5321
-0.637713 -16.6234 -16.6234
-0.645734 -16.8188 -16.8188
-0.31597 -16.8315 -16.8315
-0.308928 -16.636 -16.636
-0.641719 -16.721 -16.721
-0.480847 -16.8251 -16.8251
-0.312442 -16.7337 -16.7337
-0.473315 -16.6296 -16.6296
-0.477076 -16.7273 -16.7273
-0.645734 -16.8188 -16.8188
-0.65379 -17.0149 -17.0149
-0.323066 -17.0276 -17.0276
-0.31597 -16.8315 -16.8315
-0.649758 -16.9168 -16.9168
-0.488423 -17.0212 -17.0212
-0.319512 -16.9295 -16.9295
-0.480847 -16.8251 -16.8251
-0.48463 -16.9231 -16.9231
-0.65379 -17.0149 -17.0149
-0.661881 -17.2114 -17.2114
-0.330215 -17.2243 -17.2243
-0.323066 -17.0276 -17.0276
-0.657831 -17.1131 -17.1131
-0.496043 -17.2178 -17.2178
-0.326634 -17.1259 -17.1259
-0.488423 -17.0212 -17.0212
-0.492228 -17.1194 -17.1194
-0.661881 -17.2114 -17.2114
-0.670005 -17.4086 -17.4086
-0.337416 -17.4215 -17.4215
-0.330215 -17.2243 -17.2243
-0.665939 -17.3099 -17.3099
-0.503706 -17.415 -17.415
-0.333809 -17.3228 -17.3228
-0.496043 -17.2178 -17.2178
-0.499869 -17.3163 -17.3163
-0.670005 -17.4086 -17.4086
-0.678163 -17.6063 -17.6063
-0.344668 -17.6193 -17.6193
-0.337416 -17.4215 -17.4215
-0.67408 -17.5074 -17.5074
-0.511411 -17.6127 -17.6127
-0.341036 -17.5203 -17.5203
-0.503706 -17.415 -17.415
-0.507553 -17.5138 -17.5138
-0.678163 -17.6063 -17.6063
-0.686352 -17.8045 -17.8045
-0.351971 -17.8176 -17.8176
-0.344668 -17.6193 -17.6193
-0.682254 -17.7053 -17.7053
-0.519157 -17.811 -17.811
-0.348313 -17.7184 -17.7184
-0.511411 -17.6127 -17.6127
-0.515279 -17.7118 -17.7118
-0.686352 -17.8045 -17.8045
-0.694574 -18.0032 -18.0032
-0.359323 -18.0164 -18.0164
-0.351971 -17.8176 -17.8176
-0.690459 -17.9038 -17.9038
-0.526944 -18.0097 -18.0097
-0.355641 -17.9169 -17.9169
-0.519157 -17.811 -17.811
-0.523046 -17.9103 -17.9103
-0.694574 -18.0032 -18.0032
-0.702826 -18.2025 -18.2025
-0.366725 -18.2157 -18.2157
-0.359323 -18.0164 -18.0164
-0.698696 -18.1028 -18.1028
-0.534771 -18.209 -18.209
-0.363018 -18.116 -18.116
-0.526944 -18.0097 -18.0097
-0.530853 -18.1093 -18.1093
-0.702826 -18.2025 -18.2025
-0.711108 -18.4022 -18.4022
-0.374175 -18.4155 -18.4155
-0.366725 -18.2157 -18.2157
-0.706963 -18.3023 -18.3023
-0.542637 -18.4088 -18.4088
-0.370444 -18.3155 -18.3155
-0.534771 -18.209 -18.209
-0.538699 -18.3089 -18.3089
-0.711108 -18.4022 -18.4022
-0.719419 -18.6025 -18.6025
-0.381673 -18.6158 -18.6158
-0.374175 -18.4155 -18.4155
-0.71526 -18.5023 -18.5023
-0.550542 -18.6091 -18.6091
-0.377918 -18.5156 -18.5156
-0.542637 -18.4088 -18.4088
-0.546585 -18.5089 -18.5089
-0.719419 -18.6025 -18.6025
-0.727759 -18.8032 -18.8032
-0.389217 -18.8166 -18.8166
-0.381673 -18.6158 -18.6158
-0.723586 -18.7028 -18.7028
-0.558484 -18.8098 -18.8098
-0.385439 -18.7161 -18.7161
-0.550542 -18.6091 -18.6091
-0.554509 -18.7094 -18.7094
-0.727759 -18.8032 -18.8032
-0.736127 -19.0044 -19.0044
-0.396808 -19.0178 -19.0178
-0.389217 -18.8166 -18.8166
-0.73194 -18.9037 -18.9037
-0.566464 -19.011 -19.011
-0.393007 -18.9171 -18.9171
-0.558484 -18.8098 -18.8098
-0.562469 -18.9104 -18.9104
-0.736127 -19.0044 -19.0044
-0.744522 -19.206 -19.206
-0.404444 -19.2195 -19.2195
-0.396808 -19.0178 -19.0178
-0.740321 -19.1051 -19.1051
-0.574479 -19.2127 -19.2127
-0.40062 -19.1186 -19.1186
-0.566464 -19.011 -19.011
-0.570467 -19.1118 -19.1118
-0.744522 -19.206 -19.206
-0.752943 -19.4081 -19.4081
-0.412124 -19.4217 -19.4217
-0.404444 -19.2195 -19.2195
-0.748729 -19.307 -19.307
-0.58253 -19.4148 -19.4148
-0.408279 -19.3205 -19.3205
-0.574479 -19.2127 -19.2127
-0.5785 -19.3137 -19.3137
-0.752943 -19.4081 -19.4081
-0.761389 -19.6106 -19.6106
-0.419848 -19.6242 -19.6242
-0.412124 -19.4217 -19.4217
-0.757163 -19.5093 -19.5093
-0.590615 -19.6174 -19.6174
-0.415981 -19.5229 -19.5229
-0.58253 -19.4148 -19.4148
-0.586568 -19.516 -19.516
-0.761389 -19.6106 -19.6106
-0.76986 -19.8135 -19.8135
-0.427615 -19.8272 -19.8272
-0.419848 -19.6242 -19.6242
-0.765622 -19.712 -19.712
-0.598734 -19.8203 -19.8203
-0.423727 -19.7257 -19.7257
-0.590615 -19.6174 -19.6174
-0.59467 -19.7188 -19.7188
-0.76986 -19.8135 -19.8135
-0.778355 -20.0169 -20.0169
-0.435425 -20.0306 -20.0306
-0.427615 -19.8272 -19.8272
-0.774105 -19.9151 -19.9151
-0.606886 -20.0237 -20.0237
-0.431515 -19.9289 -19.9289
-0.598734 -19.8203 -19.8203
-0.602806 -19.922 -19.922
-0.778355 -20.0169 -20.0169
-0.786873 -20.2206 -20.2206
-0.443275 -20.2344 -20.2344
-0.435425 -20.0306 -20.0306
-0.782611 -20.1187 -20.1187
-0.61507 -20.2275 -20.2275
-0.439345 -20.1325 -20.1325
-0.606886 -20.0237 -20.0237
-0.610974 -20.1255 -20.1255
-0.786873 -20.2206 -20.2206
-0.795413 -20.4248 -20.4248
-0.451166 -20.4386 -20.4386
-0.443275 -20.2344 -20.2344
-0.79114 -20.3226 -20.3226
-0.623286 -20.4316 -20.4316
-0.447215 -20.3365 -20.3365
-0.61507 -20.2275 -20.2275
-0.619174 -20.3295 -20.3295
-0.795413 -20.4248 -20.4248
-0.803974 -20.6293 -20.6293
-0.459097 -20.6432 -20.6432
-0.451166 -20.4386 -20.4386
-0.799691 -20.527 -20.527
-0.631532 -20.6362 -20.6362
-0.455126 -20.5409 -20.5409
-0.623286 -20.4316 -20.4316
-0.627405 -20.5339 -20.5339
-0.803974 -20.6293 -20.6293
-0.812556 -20.8342 -20.8342
-0.467066 -20.8481 -20.8481
-0.459097 -20.6432 -20.6432
-0.808263 -20.7317 -20.7317
-0.639808 -20.8411 -20.8411
-0.463077 -20.7456 -20.7456
-0.631532 -20.6362 -20.6362
-0.635667 -20.7386 -20.7386
-0.812556 -20.8342 -20.8342
-0.821158 -21.0394 -21.0394
-0.475074 -21.0534 -21.0534
-0.467066 -20.8481 -20.8481
-0.816855 -20.9367 -20.9367
-0.648113 -21.0464 -21.0464
-0.471065 -20.9507 -20.9507
-0.639808 -20.8411 -20.8411
-0.643957 -20.9437 -20.9437
-0.821158 -21.0394 -21.0394
-0.829779 -21.245 -21.245
-0.483119 -21.2591 -21.2591
-0.475074 -21.0534 -21.0534
-0.825466 -21.1422 -21.1422
-0.656446 -21.252 -21.252
-0.479092 -21.1562 -21.1562
-0.648113 -21.0464 -21.0464
-0.652276 -21.1491 -21.1491
-0.829779 -21.245 -21.245
-0.838418 -21.4509 -21.4509
-0.4912 -21.465 -21.465
-0.483119 -21.2591 -21.2591
-0.834096 -21.3479 -21.3479
-0.664806 -21.4579 -21.4579
-0.487155 -21.362 -21.362
-0.656446 -21.252 -21.252
-0.660623 -21.3549 -21.3549
-0.838418 -21.4509 -21.4509
-0.847074 -21.6572 -21.6572
-0.499317 -21.6713 -21.6713
-0.4912 -21.465 -21.465
-0.842744 -21.554 -21.554
-0.673193 -21.6642 -21.6642
-0.495254 -21.5681 -21.5681
-0.664806 -21.4579 -21.4579
-0.668996 -21.561 -21.561
-0.847074 -21.6572 -21.6572
-0.855746 -21.8638 -21.8638
-0.507468 -21.8779 -21.8779
-0.499317 -21.6713 -21.6713
-0.851408 -21.7604 -21.7604
-0.681605 -21.8708 -21.8708
-0.503388 -21.7746 -21.7746
-0.673193 -21.6642 -21.6642
-0.677395 -21.7675 -21.7675
-0.855746 -21.8638 -21.8638
-0.864434 -22.0706 -22.0706
-0.515654 -22.0849 -22.0849
-0.507468 -21.8779 -21.8779
-0.860089 -21.9672 -21.9672
-0.690042 -22.0777 -22.0777
-0.511557 -21.9814 -21.9814
-0.681605 -21.8708 -21.8708
-0.68582 -21.9742 -21.9742
-0.864434 -22.0706 -22.0706
-0.873137 -22.2778 -22.2778
-0.523872 -22.2921 -22.2921
-0.515654 -22.0849 -22.0849
-0.868784 -22.1742 -22.1742
-0.698502 -22.2849 -22.2849
-0.519759 -22.1884 -22.1884
-0.690042 -22.0777 -22.0777
-0.694269 -22.1813 -22.1813
-0.873137 -22.2778 -22.2778
-0.881854 -22.4853 -22.4853
-0.532123 -22.4996 -22.4996
-0.523872 -22.2921 -22.2921
-0.877494 -22.3815 -22.3815
-0.706986 -22.4924 -22.4924
-0.527993 -22.3958 -22.3958
-0.698502 -22.2849 -22.2849
-0.702741 -22.3886 -22.3886
-0.881854 -22.4853 -22.4853
-0.890584 -22.693 -22.693
-0.540405 -22.7073 -22.7073
-0.532123 -22.4996 -22.4996
-0.886217 -22.5891 -22.5891
-0.715492 -22.7001 -22.7001
-0.53626 -22.6034 -22.6034
-0.706986 -22.4924 -22.4924
-0.711236 -22.5962 -22.5962
-0.890584 -22.693 -22.693
-0.899326 -22.901 -22.901
-0.548717 -22.9153 -22.9153
-0.540405 -22.7073 -22.7073
-0.894953 -22.7969 -22.7969
-0.724019 -22.9081 -22.9081
-0.544557 -22.8113 -22.8113
-0.715492 -22.7001 -22.7001
-0.719753 -22.8041 -22.8041
-0.899326 -22.901 -22.901
-0.908079 -23.1092 -23.1092
-0.557059 -23.1236 -23.1236
-0.548717 -22.9153 -22.9153
-0.903701 -23.005 -23.005
-0.732567 -23.1164 -23.1164
-0.552884 -23.0194 -23.0194
-0.724019 -22.9081 -22.9081
-0.728291 -23.0122 -23.0122
-0.908079 -23.1092 -23.1092
-0.916843 -23.3177 -23.3177
-0.56543 -23.3321 -23.3321
-0.557059 -23.1236 -23.1236
-0.91246 -23.2134 -23.2134
-0.741134 -23.3248 -23.3248
-0.561241 -23.2278 -23.2278
-0.732567 -23.1164 -23.1164
-0.736848 -23.2206 -23.2206
-0.916843 -23.3177 -23.3177
-0.925616 -23.5264 -23.5264
-0.573828 -23.5408 -23.5408
-0.56543 -23.3321 -23.3321
-0.921228 -23.422 -23.422
-0.74972 -23.5336 -23.5336
-0.569625 -23.4364 -23.4364
-0.741134 -23.3248 -23.3248
-0.745425 -23.4292 -23.4292
-0.925616 -23.5264 -23.5264
-0.934398 -23.7353 -23.7353
-0.582254 -23.7498 -23.7498
-0.573828 -23.5408 -23.5408
-0.930006 -23.6308 -23.6308
-0.758324 -23.7425 -23.7425
-0.578037 -23.6453 -23.6453
-0.74972 -23.5336 -23.5336
-0.75402 -23.638 -23.638
-0.934398 -23.7353 -23.7353
-0.943188 -23.9444 -23.9444
-0.590705 -23.9589 -23.9589
-0.582254 -23.7498 -23.7498
-0.938792 -23.8398 -23.8398
-0.766945 -23.9516 -23.9516
-0.586476 -23.8543 -23.8543
-0.758324 -23.7425 -23.7425
-0.762632 -23.847 -23.847
-0.943188 -23.9444 -23.9444
-0.951984 -24.1537 -24.1537
-0.599182 -24.1683 -24.1683
-0.590705 -23.9589 -23.9589
-0.947585 -24.049 -24.049
-0.775582 -24.161 -24.161
-0.59494 -24.0636 -24.0636
-0.766945 -23.9516 -23.9516
-0.771261 -24.0563 -24.0563
-0.951984 -24.1537 -24.1537
-0.960787 -24.3632 -24.3632
-0.607683 -24.3778 -24.3778
-0.599182 -24.1683 -24.1683
-0.956385 -24.2584 -24.2584
-0.784234 -24.3705 -24.3705
-0.60343 -24.273 -24.273
-0.775582 -24.161 -24.161
-0.779906 -24.2657 -24.2657
-0.960787 -24.3632 -24.3632
-0.969595 -24.5729 -24.5729
-0.616208 -24.5875 -24.5875
-0.607683 -24.3778 -24.3778
-0.965191 -24.468 -24.468
-0.7929 -24.5802 -24.5802
-0.611943 -24.4826 -24.4826
-0.784234 -24.3705 -24.3705
-0.788565 -24.4753 -24.4753
-0.969595 -24.5729 -24.5729
-0.978408 -24.7827 -24.7827
-0.624755 -24.7973 -24.7973
-0.616208 -24.5875 -24.5875
-0.974001 -24.6778 -24.6778
-0.80158 -24.79 -24.79
-0.620479 -24.6924 -24.6924
-0.7929 -24.5802 -24.5802
-0.797238 -24.6851 -24.6851
-0.978408 -24.7827 -24.7827
-0.987223 -24.9927 -24.9927
-0.633324 -25.0074 -25.0074
-0.624755 -24.7973 -24.7973
-0.982815 -24.8877 -24.8877
-0.810272 -25 -25
-0.629037 -24.9023 -24.9023
-0.80158 -24.79 -24.79
-0.805925 -24.895 -24.895
-0.987223 -24.9927 -24.9927
-0.996042 -25.2028 -25.2028
-0.641914 -25.2175 -25.2175
-0.633324 -25.0074 -25.0074
-0.991632 -25.0978 -25.0978
-0.818977 -25.2102 -25.2102
-0.637616 -25.1124 -25.1124
-0.810272 -25 -25
-0.814623 -25.1051 -25.1051
-0.996042 -25.2028 -25.2028
-1.00486 -25.4131 -25.4131
-0.650524 -25.4278 -25.4278
-0.641914 -25.2175 -25.2175
-1.00045 -25.308 -25.308
-0.827692 -25.4204 -25.4204
-0.646217 -25.3226 -25.3226
-0.818977 -25.2102 -25.2102
-0.823333 -25.3153 -25.3153
-1.00486 -25.4131 -25.4131
-1.01368 -25.6235 -25.6235
-0.659153 -25.6382 -25.6382
-0.650524 -25.4278 -25.4278
-1.00927 -25.5183 -25.5183
-0.836417 -25.6308 -25.6308
-0.654836 -25.533 -25.533
-0.827692 -25.4204 -25.4204
-0.832053 -25.5256 -25.5256
-1.01368 -25.6235 -25.6235
-1.0225 -25.834 -25.834
-0.667802 -25.8487 -25.8487
-0.659153 -25.6382 -25.6382
-1.01809 -25.7287 -25.7287
-0.845151 -25.8413 -25.8413
-0.663475 -25.7434 -25.7434
-0.836417 -25.6308 -25.6308
-0.840783 -25.7361 -25.7361
-1.0225 -25.834 -25.834
-1.03132 -26.0446 -26.0446
-0.676468 -26.0593 -26.0593
-0.667802 -25.8487 -25.8487
-1.02691 -25.9393 -25.9393
-0.853894 -26.0519 -26.0519
-0.672133 -25.954 -25.954
-0.845151 -25.8413 -25.8413
-0.849522 -25.9466 -25.9466
-1.03132 -26.0446 -26.0446
-1.04014 -26.2553 -26.2553
-0.685153 -26.27 -26.27
-0.676468 -26.0593 -26.0593
-1.03573 -26.1499 -26.1499
-0.862645 -26.2626 -26.2626
-0.680809 -26.1646 -26.1646
-0.853894 -26.0519 -26.0519
-0.858269 -26.1573 -26.1573
-1.04014 -26.2553 -26.2553
-1.04895 -26.466 -26.466
-0.693857 -26.4808 -26.4808
-0.685153 -26.27 -26.27
-1.04454 -26.3606 -26.3606
-0.871403 -26.4734 -26.4734
-0.689503 -26.3754 -26.3754
-0.862645 -26.2626 -26.2626
-0.867023 -26.368 -26.368
-1.04895 -26.466 -26.466
-1.05775 -26.6769 -26.6769
-0.702578 -26.6916 -26.6916
-0.693857 -26.4808 -26.4808
-1.05335 -26.5714 -26.5714
-0.880166 -26.6842 -26.6842
-0.698215 -26.5862 -26.5862
-0.871403 -26.4734 -26.4734
-0.875784 -26.5788 -26.5788
-1.05775 -26.6769 -26.6769
-1.06655 -26.8877 -26.8877
-0.711317 -26.9025 -26.9025
-0.702578 -26.6916 -26.6916
-1.06215 -26.7823 -26.7823
-0.888935 -26.8951 -26.8951
-0.706945 -26.797 -26.797
-0.880166 -26.6842 -26.6842
-0.88455 -26.7897 -26.7897
-1.06655 -26.8877 -26.8877
-1.07534 -27.0987 -27.0987
-0.720071 -27.1134 -27.1134
-0.711317 -26.9025 -26.9025
-1.07095 -26.9932 -26.9932
-0.897707 -27.106 -27.106
-0.715693 -27.008 -27.008
-0.888935 -26.8951 -26.8951
-0.893321 -27.0006 -27.0006
-1.07534 -27.0987 -27.0987
-1.08413 -27.3096 -27.3096
-0.728831 -27.3244 -27.3244
-0.720071 -27.1134 -27.1134
-1.07974 -27.2041 -27.2041
-0.906479 -27.317 -27.317
-0.724451 -27.2189 -27.2189
-0.897707 -27.106 -27.106
-0.902093 -27.2115 -27.2115
-1.08413 -27.3096 -27.3096
-1.09291 -27.5205 -27.5205
-0.737589 -27.5352 -27.5352
-0.728831 -27.3244 -27.3244
-1.08852 -27.415 -27.415
-0.915246 -27.5278 -27.5278
-0.733212 -27.4298 -27.4298
-0.906479 -27.317 -27.317
-0.910864 -27.4224 -27.4224
-1.09291 -27.5205 -27.5205
-1.10168 -27.7312 -27.7312
-0.746327 -27.746 -27.746
-0.737589 -27.5352 -27.5352
-1.09729 -27.6259 -27.6259
-0.924003 -27.7386 -27.7386
-0.741961 -27.6406 -27.6406
-0.915246 -27.5278 -27.5278
-0.919627 -27.6332 -27.6332
0 0 0
0.00154547 0.000248508 0.000248508
0.00475922 -0.000510381 -0.000510381
0 0 0
0.000768764 0.000510856 0.000510856
0.00314022 -3.80286e-05 -3.80286e-05
0.00230685 0.000136626 0.000136626
0 0 0
0.00152362 0.000382523 0.000382523
0.00154547 0.000248508 0.000248508
0.0032225 -0.00243577 -0.00243577
0.00988291 -0.00375774 -0.00375774
0.00475922 -0.000510381 -0.000510381
0.00236817 -0.000750084 -0.000750084
0.00652252 -0.0029181 -0.0029181
0.00728922 -0.00182407 -0.00182407
0.00314022 -3.80286e-05 -3.80286e-05
0.00481011 -0.00115065 -0.00115065
0.0032225 -0.00243577 -0.00243577
0.00495876 -0.00769431 -0.00769431
0.0152183 -0.00936563 -0.00936563
0.00988291 -0.00375774 -0.00375774
0.00408629 -0.0047607 -0.0047607
0.0100458 -0.00831493 -0.00831493
0.0125347 -0.00628189 -0.00628189
0.00652252 -0.0029181 -0.0029181
0.00827202 -0.00531814 -0.00531814
0.00495876 -0.00769431 -0.00769431
0.00672911 -0.0152928 -0.0152928
0.0205936 -0.0171258 -0.0171258
0.0152183 -0.00936563 -0.00936563
0.00584208 -0.0112116 -0.0112116
0.0136182 -0.0159817 -0.0159817
0.0179071 -0.0129826 -0.0129826
0.0100458 -0.00831493 -0.00831493
0.0118304 -0.0118742 -0.0118742
0.00672911 -0.0152928 -0.0152928
0.00849051 -0.0250865 -0.0250865
0.0259441 -0.026981 -0.026981
0.0205936 -0.0171258 -0.0171258
0.00761214 -0.019921 -0.019921
0.0171808 -0.0258058 -0.0258058
0.0232744 -0.0217931 -0.0217931
0.0136182 -0.0159817 -0.0159817
0.015403 -0.0206284 -0.0206284
0.00849051 -0.0250865 -0.0250865
0.010233 -0.0370012 -0.0370012
0.031236 -0.038909 -0.038909
0.0259441 -0.026981 -0.026981
0.00936473 -0.0307816 -0.0307816
0.0207054 -0.0377289 -0.0377289
0.0285978 -0.0326863 -0.0326863
0.0171808 -0.0258058 -0.0258058
0.0189486 -0.0315069 -0.0315069
0.010233 -0.0370012 -0.0370012
0.0119466 -0.050998 -0.050998
0.0364694 -0.0529064 -0.0529064
0.031236 -0.038909 -0.038909
0.0110936 -0.0437408 -0.0437408
0.0241849 -0.0517288 -0.0517288
0.0338599 -0.0456494 -0.0456494
0.0207054 -0.0377289 -0.0377289
0.0224508 -0.0444702 -0.0444702
0.0119466 -0.050998 -0.050998
0.013632 -0.0670579 -0.0670579
0.0416456 -0.0689663 -0.0689663
0.0364694 -0.0529064 -0.0529064
0.0127929 -0.0587709 -0.0587709
0.0276199 -0.0677909 -0.0677909
0.0390644 -0.060679 -0.060679
0.0241849 -0.0517288 -0.0517288
0.0259078 -0.0595027 -0.0595027
0.013632 -0.0670579 -0.0670579
0.0152886 -0.0851684 -0.0851684
0.0467697 -0.0870819 -0.0870819
0.0416456 -0.0689663 -0.0689663
0.0144639 -0.0758574 -0.0758574
0.0310128 -0.0859059 -0.0859059
0.044214 -0.0777677 -0.0777677
0.0276199 -0.0677909 -0.0677909
0.0293215 -0.0765924 -0.0765924
0.0152886 -0.0851684 -0.0851684
0.0169172 -0.10532 -0.10532
0.0518439 -0.107244 -0.107244
0.0467697 -0.0870819 -0.0870819
0.0161064 -0.0949898 -0.0949898
0.0343658 -0.106065 -0.106065
0.0493129 -0.0969078 -0.0969078
0.0310128 -0.0859059 -0.0859059
0.0326942 -0.0957304 -0.0957304
0.0169172 -0.10532 -0.10532
0.0185175 -0.127504 -0.127504
0.0568699 -0.129443 -0.129443
0.0518439 -0.107244 -0.107244
0.0177209 -0.116159 -0.116159
0.0376799 -0.128258 -0.128258
0.0543629 -0.11809 -0.11809
0.0343658 -0.106065 -0.106065
0.0360277 -0.116907 -0.116907
0.0185175 -0.127504 -0.127504
0.020089 -0.15171 -0.15171
0.0618479 -0.153669 -0.153669
0.0568699 -0.129443 -0.129443
0.0193069 -0.139355 -0.139355
0.0409553 -0.152475 -0.152475
0.0593649 -0.141304 -0.141304
0.0376799 -0.128258 -0.128258
0.0393225 -0.140114 -0.140114
0.020089 -0.15171 -0.15171
0.0216309 -0.177929 -0.177929
0.0667775 -0.179911 -0.179911
0.0618479 -0.153669 -0.153669
0.0208637 -0.164569 -0.164569
0.0441914 -0.178706 -0.178706
0.0643188 -0.166539 -0.166539
0.0409553 -0.152475 -0.152475
0.0425783 -0.16534 -0.16534
0.0216309 -0.177929 -0.177929
0.0231419 -0.20615 -0.20615
0.0716578 -0.208159 -0.208159
0.0667775 -0.179911 -0.179911
0.0223903 -0.19179 -0.19179
0.0473873 -0.206942 -0.206942
0.0692239 -0.193785 -0.193785
0.0441914 -0.178706 -0.178706
0.0457944 -0.192574 -0.192574
0.0231419 -0.20615 -0.20615
0.0246209 -0.236362 -0.236362
0.0764876 -0.2384 -0.2384
0.0716578 -0.208159 -0.208159
0.0238855 -0.221007 -0.221007
0.0505419 -0.23717 -0.23717
0.0740791 -0.223031 -0.223031
0.0473873 -0.206942 -0.206942
0.0489699 -0.221807 -0.221807
0.0246209 -0.236362 -0.236362
0.0260666 -0.268555 -0.268555
0.0812657 -0.270625 -0.270625
0.0764876 -0.2384 -0.2384
0.025348 -0.252211 -0.252211
0.0536539 -0.26938 -0.26938
0.0788832 -0.254265 -0.254265
0.0505419 -0.23717 -0.23717
0.0521033 -0.253028 -0.253028
0.0260666 -0.268555 -0.268555
0.0274775 -0.302718 -0.302718
0.0859906 -0.304822 -0.304822
0.0812657 -0.270625 -0.270625
0.0267765 -0.285391 -0.285391
0.056722 -0.303561 -0.303561
0.0836349 -0.287478 -0.287478
0.0536539 -0.26938 -0.26938
0.0551936 -0.286225 -0.286225
0.0274775 -0.302718 -0.302718
0.0288524 -0.338839 -0.338839
0.0906611 -0.34098 -0.34098
0.0859906 -0.304822 -0.304822
0.0281696 -0.320534 -0.320534
0.0597449 -0.339702 -0.339702
0.0883328 -0.322657 -0.322657
0.056722 -0.303561 -0.303561
0.0582392 -0.321387 -0.321387
0.0288524 -0.338839 -0.338839
0.03019 -0.376909 -0.376909
0.0952758 -0.379089 -0.379089
0.0906611 -0.34098 -0.34098
0.029526 -0.357632 -0.357632
0.0627211 -0.377793 -0.377793
0.0929755 -0.359792 -0.359792
0.0597449 -0.339702 -0.339702
0.0612389 -0.358504 -0.358504
0.03019 -0.376909 -0.376909
0.0314888 -0.416916 -0.416916
0.0998335 -0.419138 -0.419138
0.0952758 -0.379089 -0.379089
0.0308443 -0.396671 -0.396671
0.0656495 -0.417821 -0.417821
0.0975619 -0.398872 -0.398872
0.0627211 -0.377793 -0.377793
0.0641914 -0.397565 -0.397565
0.0314888 -0.416916 -0.416916
0.0327476 -0.45885 -0.45885
0.104333 -0.461114 -0.461114
0.0998335 -0.419138 -0.419138
0.0321233 -0.437643 -0.437643
0.0685287 -0.459777 -0.459777
0.10209 -0.439885 -0.439885
0.0656495 -0.417821 -0.417821
0.0670953 -0.438559 -0.438559
0.0327476 -0.45885 -0.45885
0.0339652 -0.502698 -0.502698
0.108772 -0.505008 -0.505008
0.104333 -0.461114 -0.461114
0.0333616 -0.480535 -0.480535
0.0713573 -0.50365 -0.50365
0.10656 -0.482822 -0.482822
0.0685287 -0.459777 -0.459777
0.0699494 -0.481475 -0.481475
0.0339652 -0.502698 -0.502698
0.0351403 -0.548451 -0.548451
0.113151 -0.550808 -0.550808
0.108772 -0.505008 -0.505008
0.0345581 -0.525337 -0.525337
0.0741343 -0.549428 -0.549428
0.110969 -0.527671 -0.527671
0.0713573 -0.50365 -0.50365
0.0727524 -0.526301 -0.526301
0.0351403 -0.548451 -0.548451
0.0362716 -0.596097 -0.596097
0.117467 -0.598504 -0.598504
0.113151 -0.550808 -0.550808
0.0357115 -0.572038 -0.572038
0.0768584 -0.5971 -0.5971
0.115317 -0.57442 -0.57442
0.0741343 -0.549428 -0.549428
0.075503 -0.573028 -0.573028
0.0362716 -0.596097 -0.596097
0.037358 -0.645626 -0.645626
0.12172 -0.648085 -0.648085
0.117467 -0.598504 -0.598504
0.0368205 -0.620627 -0.620627
0.0795283 -0.646655 -0.646655
0.119602 -0.62306 -0.62306
0.0768584 -0.5971 -0.5971
0.0782001 -0.621643 -0.621643
0.037358 -0.645626 -0.645626
0.0383983 -0.697026 -0.697026
0.125909 -0.699538 -0.699538
0.12172 -0.648085 -0.648085
0.037884 -0.671093 -0.671093
0.0821428 -0.698083 -0.698083
0.123823 -0.673578 -0.673578
0.0795283 -0.646655 -0.646655
0.0808425 -0.672136 -0.672136
0.0383983 -0.697026 -0.697026
0.0393914 -0.750287 -0.750287
0.130032 -0.752854 -0.752854
0.125909 -0.699538 -0.699538
0.0389008 -0.723424 -0.723424
0.0847009 -0.751373 -0.751373
0.127979 -0.725964 -0.725964
0.0821428 -0.698083 -0.698083
0.083429 -0.724496 -0.724496
0.0393914 -0.750287 -0.750287
0.0403361 -0.805397 -0.805397
0.134088 -0.808022 -0.808022
0.130032 -0.752854 -0.752854
0.0398698 -0.777611 -0.777611
0.0872014 -0.806513 -0.806513
0.132068 -0.780207 -0.780207
0.0847009 -0.751373 -0.751373
0.0859584 -0.778712 -0.778712
0.0403361 -0.805397 -0.805397
0.0412312 -0.862346 -0.862346
0.138076 -0.86503 -0.86503
0.134088 -0.808022 -0.808022
0.0407899 -0.833642 -0.833642
0.0896432 -0.863493 -0.863493
0.136091 -0.836297 -0.836297
0.0872014 -0.806513 -0.806513
0.0884297 -0.834774 -0.834774
0.0412312 -0.862346 -0.862346
0.0420758 -0.921122 -0.921122
0.141995 -0.923868 -0.923868
0.138076 -0.86503 -0.86503
0.0416599 -0.891506 -0.891506
0.0920252 -0.922301 -0.922301
0.140044 -0.894221 -0.894221
0.0896432 -0.863493 -0.863493
0.0908418 -0.892669 -0.892669
0.0420758 -0.921122 -0.921122
0.0428688 -0.981716 -0.981716
0.145845 -0.984524 -0.984524
0.141995 -0.923868 -0.923868
0.0424788 -0.951193 -0.951193
0.0943464 -0.982927 -0.982927
0.143929 -0.953969 -0.953969
0.0920252 -0.922301 -0.922301
0.0931935 -0.952387 -0.952387
0.0428688 -0.981716 -0.981716
0.0436091 -1.04411 -1.04411
0.149623 -1.04699 -1.04699
0.145845 -0.984524 -0.984524
0.0432456 -1.01269 -1.01269
0.0966057 -1.04536 -1.04536
0.147742 -1.01553 -1.01553
0.0943464 -0.982927 -0.982927
0.0954838 -1.01392 -1.01392
0.0436091 -1.04411 -1.04411
0.0442958 -1.10831 -1.10831
0.153328 -1.11125 -1.11125
0.149623 -1.04699 -1.04699
0.0439592 -1.07599 -1.07599
0.0988021 -1.10959 -1.10959
0.151485 -1.07889 -1.07889
0.0966057 -1.04536 -1.04536
0.0977118 -1.07725 -1.07725
0.0442958 -1.10831 -1.10831
0.0449278 -1.17429 -1.17429
0.156961 -1.17729 -1.17729
0.153328 -1.11125 -1.11125
0.0446187 -1.14108 -1.14108
0.100935 -1.1756 -1.1756
0.155154 -1.14405 -1.14405
0.0988021 -1.10959 -1.10959
0.0998764 -1.14237 -1.14237
0.0449278 -1.17429 -1.17429
0.0455041 -1.24204 -1.24204
0.16052 -1.24511 -1.24511
0.156961 -1.17729 -1.17729
0.045223 -1.20794 -1.20794
0.103002 -1.24339 -1.24339
0.15875 -1.21098 -1.21098
0.100935 -1.1756 -1.1756
0.101977 -1.20927 -1.20927
0.0455041 -1.24204 -1.24204
0.0460239 -1.31155 -1.31155
0.164004 -1.3147 -1.3147
0.16052 -1.24511 -1.24511
0.0457712 -1.27657 -1.27657
0.105004 -1.31294 -1.31294
0.162271 -1.27969 -1.27969
0.103002 -1.24339 -1.24339
0.104011 -1.27794 -1.27794
0.0460239 -1.31155 -1.31155
0.0464862 -1.38281 -1.38281
0.167412 -1.38603 -1.38603
0.164004 -1.3147 -1.3147
0.0462623 -1.34696 -1.34696
0.106939 -1.38424 -1.38424
0.165717 -1.35015 -1.35015
0.105004 -1.31294 -1.31294
0.10598 -1.34837 -1.34837
0.0464862 -1.38281 -1.38281
0.0468902 -1.45582 -1.45582
0.170743 -1.45911 -1.45911
0.167412 -1.38603 -1.38603
0.0466956 -1.4191 -1.4191
0.108807 -1.45728 -1.45728
0.169087 -1.42236 -1.42236
0.106939 -1.38424 -1.38424
0.107882 -1.42054 -1.42054
0.0468902 -1.45582 -1.45582
0.0472349 -1.53055 -1.53055
0.173996 -1.53392 -1.53392
0.170743 -1.45911 -1.45911
0.04707 -1.49297 -1.49297
0.110606 -1.53205 -1.53205
0.172379 -1.4963 -1.4963
0.108807 -1.45728 -1.45728
0.109715 -1.49445 -1.49445
0.0472349 -1.53055 -1.53055
0.0475195 -1.607 -1.607
0.177171 -1.61045 -1.61045
0.173996 -1.53392 -1.53392
0.0473847 -1.56856 -1.56856
0.112336 -1.60854 -1.60854
0.175594 -1.57197 -1.57197
0.110606 -1.53205 -1.53205
0.11148 -1.57008 -1.57008
0.0475195 -1.607 -1.607
0.0477431 -1.68516 -1.68516
0.180267 -1.68869 -1.68869
0.177171 -1.61045 -1.61045
0.0476389 -1.64587 -1.64587
0.113996 -1.68674 -1.68674
0.178729 -1.64936 -1.64936
0.112336 -1.60854 -1.60854
0.113175 -1.64743 -1.64743
0.0477431 -1.68516 -1.68516
0.047905 -1.76502 -1.76502
0.183282 -1.76862 -1.76862
0.180267 -1.68869 -1.68869
0.0478318 -1.72488 -1.72488
0.115584 -1.76664 -1.76664
0.181784 -1.72844 -1.72844
0.113996 -1.68674 -1.68674
0.114799 -1.72648 -1.72648
0.047905 -1.76502 -1.76502
0.0480044 -1.84656 -1.84656
0.186216 -1.85024 -1.85024
0.183282 -1.76862 -1.76862
0.0479626 -1.80558 -1.80558
0.117101 -1.84822 -1.84822
0.184759 -1.80922 -1.80922
0.115584 -1.76664 -1.76664
0.116352 -1.80722 -1.80722
0.0480044 -1.84656 -1.84656
0.0480405 -1.92977 -1.92977
0.189069 -1.93354 -1.93354
0.186216 -1.85024 -1.85024
0.0480304 -1.88796 -1.88796
0.118546 -1.93148 -1.93148
0.187653 -1.89168 -1.89168
0.117101 -1.84822 -1.84822
0.117833 -1.88964 -1.88964
0.0480405 -1.92977 -1.92977
0.0480126 -2.01465 -2.01465
0.191839 -2.0185 -2.0185
0.189069 -1.93354 -1.93354
0.0480346 -1.97201 -1.97201
0.119917 -2.0164 -2.0164
0.190465 -1.97582 -1.97582
0.118546 -1.93148 -1.93148
0.119241 -1.97373 -1.97373
0.0480126 -2.01465 -2.01465
0.0479199 -2.10118 -2.10118
0.194526 -2.10512 -2.10512
0.191839 -2.0185 -2.0185
0.0479744 -2.05771 -2.05771
0.121214 -2.10298 -2.10298
0.193193 -2.06161 -2.06161
0.119917 -2.0164 -2.0164
0.120575 -2.05948 -2.05948
0.0479199 -2.10118 -2.10118
0.0477617 -2.18936 -2.18936
0.197129 -2.19338 -2.19338
0.194526 -2.10512 -2.10512
0.047849 -2.14507 -2.14507
0.122437 -2.19119 -2.19119
0.195838 -2.14904 -2.14904
0.121214 -2.10298 -2.10298
0.121835 -2.14688 -2.14688
0.0477617 -2.18936 -2.18936
0.0475375 -2.27916 -2.27916
0.199648 -2.28327 -2.28327
0.197129 -2.19338 -2.19338
0.0476579 -2.23406 -2.23406
0.123584 -2.28104 -2.28104
0.198399 -2.23812 -2.23812
0.122437 -2.19119 -2.19119
0.12302 -2.23591 -2.23591
0.0475375 -2.27916 -2.27916
0.0472464 -2.37058 -2.37058
0.202081 -2.37478 -2.37478
0.199648 -2.28327 -2.28327
0.0474003 -2.32467 -2.32467
0.124655 -2.37251 -2.37251
0.200875 -2.32882 -2.32882
0.123584 -2.28104 -2.28104
0.124129 -2.32657 -2.32657
0.0472464 -2.37058 -2.37058
0.046888 -2.46362 -2.46362
0.204429 -2.4679 -2.4679
0.202081 -2.37478 -2.37478
0.0470757 -2.4169 -2.4169
0.12565 -2.46559 -2.46559
0.203266 -2.42114 -2.42114
0.124655 -2.37251 -2.37251
0.125162 -2.41885 -2.41885
0.046888 -2.46362 -2.46362
0.0464615 -2.55825 -2.55825
0.20669 -2.56262 -2.56262
0.204429 -2.4679 -2.4679
0.0466833 -2.51073 -2.51073
0.126567 -2.56026 -2.56026
0.20557 -2.51506 -2.51506
0.12565 -2.46559 -2.46559
0.126118 -2.51273 -2.51273
0.0464615 -2.55825 -2.55825
0.0459663 -2.65446 -2.65446
0.208864 -2.65893 -2.65893
0.20669 -2.56262 -2.56262
0.0462225 -2.60616 -2.60616
0.127407 -2.65653 -2.65653
0.207788 -2.61058 -2.61058
0.126567 -2.56026 -2.56026
0.126997 -2.6082 -2.6082
0.0459663 -2.65446 -2.65446
0.045402 -2.75226 -2.75226
0.21095 -2.75682 -2.75682
0.208864 -2.65893 -2.65893
0.0456929 -2.70316 -2.70316
0.128168 -2.75437 -2.75437
0.209918 -2.70768 -2.70768
0.127407 -2.65653 -2.65653
0.127797 -2.70525 -2.70525
0.045402 -2.75226 -2.75226
0.0447679 -2.85161 -2.85161
0.212949 -2.85627 -2.85627
0.21095 -2.75682 -2.75682
0.0450937 -2.80174 -2.80174
0.12885 -2.85377 -2.85377
0.211961 -2.80635 -2.80635
0.128168 -2.75437 -2.75437
0.128519 -2.80388 -2.80388
0.0447679 -2.85161 -2.85161
0.0440635 -2.95253 -2.95253
0.214858 -2.95727 -2.95727
0.212949 -2.85627 -2.85627
0.0444245 -2.90188 -2.90188
0.129452 -2.95473 -2.95473
0.213915 -2.90658 -2.90658
0.12885 -2.85377 -2.85377
0.129161 -2.90406 -2.90406
0.0440635 -2.95253 -2.95253
0.0432883 -3.05498 -3.05498
0.216678 -3.05982 -3.05982
0.214858 -2.95727 -2.95727
0.0436848 -3.00356 -3.00356
0.129975 -3.05724 -3.05724
0.215779 -3.00836 -3.00836
0.129452 -2.95473 -2.95473
0.129724 -3.00579 -3.00579
0.0432883 -3.05498 -3.05498
0.0424419 -3.15897 -3.15897
0.218409 -3.16391 -3.16391
0.216678 -3.05982 -3.05982
0.042874 -3.10678 -3.10678
0.130417 -3.16128 -3.16128
0.217555 -3.11167 -3.11167
0.129975 -3.05724 -3.05724
0.130206 -3.10907 -3.10907
0.0424419 -3.15897 -3.15897
0.0415236 -3.26448 -3.26448
0.220049 -3.26951 -3.26951
0.218409 -3.16391 -3.16391
0.0419917 -3.21153 -3.21153
0.130778 -3.26683 -3.26683
0.21924 -3.21652 -3.21652
0.130417 -3.16128 -3.16128
0.130608 -3.21386 -3.21386
0.0415236 -3.26448 -3.26448
0.0405331 -3.3715 -3.3715
0.221599 -3.37663 -3.37663
0.220049 -3.26951 -3.26951
0.0410374 -3.3178 -3.3178
0.131058 -3.3739 -3.3739
0.220836 -3.32288 -3.32288
0.130778 -3.26683 -3.26683
0.130928 -3.32018 -3.32018
0.0405331 -3.3715 -3.3715
0.03947 -3.48002 -3.48002
0.223058 -3.48525 -3.48525
0.221599 -3.37663 -3.37663
0.0400106 -3.42557 -3.42557
0.131256 -3.48247 -3.48247
0.22234 -3.43075 -3.43075
0.131058 -3.3739 -3.3739
0.131167 -3.428 -3.428
0.03947 -3.48002 -3.48002
0.0383337 -3.59002 -3.59002
0.224425 -3.59535 -3.59535
0.223058 -3.48525 -3.48525
0.038911 -3.53484 -3.53484
0.131371 -3.59253 -3.59253
0.223753 -3.54011 -3.54011
0.131256 -3.48247 -3.48247
0.131324 -3.53732 -3.53732
0.0383337 -3.59002 -3.59002
0.037124 -3.70151 -3.70151
0.2257 -3.70694 -3.70694
0.224425 -3.59535 -3.59535
0.0377381 -3.64558 -3.64558
0.131404 -3.70407 -3.70407
0.225074 -3.65096 -3.65096
0.131371 -3.59253 -3.59253
0.131398 -3.64811 -3.64811
0.037124 -3.70151 -3.70151
0.0358405 -3.81446 -3.81446
0.226883 -3.81999 -3.81999
0.2257 -3.70694 -3.70694
0.0364915 -3.7578 -3.7578
0.131354 -3.81707 -3.81707
0.226303 -3.76328 -3.76328
0.131404 -3.70407 -3.70407
0.131389 -3.76038 -3.76038
0.0358405 -3.81446 -3.81446
0.0344827 -3.92887 -3.92887
0.227973 -3.93449 -3.93449
0.226883 -3.81999 -3.81999
0.0351709 -3.87148 -3.87148
0.13122 -3.93153 -3.93153
0.22744 -3.87706 -3.87706
0.131354 -3.81707 -3.81707
0.131297 -3.87412 -3.87412
0.0344827 -3.92887 -3.92887
0.0330504 -4.04472 -4.04472
0.228971 -4.05045 -4.05045
0.227973 -3.93449 -3.93449
0.0337759 -3.98661 -3.98661
0.131003 -4.04743 -4.04743
0.228484 -3.99229 -3.99229
0.13122 -3.93153 -3.93153
0.131122 -3.9893 -3.9893
0.0330504 -4.04472 -4.04472
0.0315432 -4.16201 -4.16201
0.229875 -4.16784 -4.16784
0.228971 -4.05045 -4.05045
0.0323062 -4.10318 -4.10318
0.130701 -4.16477 -4.16477
0.229434 -4.10896 -4.10896
0.131003 -4.04743 -4.04743
0.130862 -4.10592 -4.10592
0.0315432 -4.16201 -4.16201
0.0299609 -4.28071 -4.28071
0.230685 -4.28665 -4.28665
0.229875 -4.16784 -4.16784
0.0307615 -4.22118 -4.22118
0.130315 -4.28353 -4.28353
0.230292 -4.22706 -4.22706
0.130701 -4.16477 -4.16477
0.130519 -4.22397 -4.22397
0.0299609 -4.28071 -4.28071
0.0283031 -4.40084 -4.40084
0.231402 -4.40687 -4.40687
0.230685 -4.28665 -4.28665
0.0291414 -4.3406 -4.3406
0.129845 -4.4037 -4.4037
0.231055 -4.34658 -4.34658
0.130315 -4.28353 -4.28353
0.130091 -4.34344 -4.34344
0.0283031 -4.40084 -4.40084
0.0265695 -4.52236 -4.52236
0.232024 -4.52849 -4.52849
0.231402 -4.40687 -4.40687
0.0274458 -4.46142 -4.46142
0.129289 -4.52528 -4.52528
0.231725 -4.46751 -4.46751
0.129845 -4.4037 -4.4037
0.129578 -4.46432 -4.46432
0.0265695 -4.52236 -4.52236
0.02476 -4.64527 -4.64527
0.232553 -4.65151 -4.65151
0.232024 -4.52849 -4.52849
0.0256743 -4.58364 -4.58364
0.128648 -4.64824 -4.64824
0.2323 -4.58983 -4.58983
0.129289 -4.52528 -4.52528
0.128979 -4.58659 -4.58659
0.02476 -4.64527 -4.64527
0.0228743 -4.76956 -4.76956
0.232986 -4.7759 -4.7759
0.232553 -4.65151 -4.65151
0.0238267 -4.70724 -4.70724
0.127922 -4.77259 -4.77259
0.232781 -4.71354 -4.71354
0.128648 -4.64824 -4.64824
0.128296 -4.71024 -4.71024
0.0228743 -4.76956 -4.76956
0.0209122 -4.89522 -4.89522
0.233325 -4.90167 -4.90167
0.232986 -4.7759 -4.7759
0.0219028 -4.83222 -4.83222
0.127111 -4.8983 -4.8983
0.233167 -4.83862 -4.83862
0.127922 -4.77259 -4.77259
0.127527 -4.83527 -4.83527
0.0209122 -4.89522 -4.89522
0.0188734 -5.02224 -5.02224
0.233568 -5.02879 -5.02879
0.233325 -4.90167 -4.90167
0.0199024 -4.95856 -4.95856
0.126213 -5.02537 -5.02537
0.233458 -4.96506 -4.96506
0.127111 -4.8983 -4.8983
0.126673 -4.96166 -4.96166
0.0188734 -5.02224 -5.02224
0.0167579 -5.1506 -5.1506
0.233717 -5.15726 -5.15726
0.233568 -5.02879 -5.02879
0.0178253 -5.08625 -5.08625
0.12523 -5.15379 -5.15379
0.233655 -5.09286 -5.09286
0.126213 -5.02537 -5.02537
0.125732 -5.08941 -5.08941
0.0167579 -5.1506 -5.1506
0.0145654 -5.2803 -5.2803
0.23377 -5.28706 -5.28706
0.233717 -5.15726 -5.15726
0.0156713 -5.21528 -5.21528
0.12416 -5.28354 -5.28354
0.233755 -5.22199 -5.22199
0.12523 -5.15379 -5.15379
0.124706 -5.2185 -5.2185
0.0145654 -5.2803 -5.2803
0.0122959 -5.41132 -5.41132
0.233728 -5.41819 -5.41819
0.23377 -5.28706 -5.28706
0.0134403 -5.34565 -5.34565
0.123004 -5.41462 -5.41462
0.233761 -5.35246 -5.35246
0.12416 -5.28354 -5.28354
0.123593 -5.34891 -5.34891
0.0122959 -5.41132 -5.41132
0.0099491 -5.54366 -5.54366
0.23359 -5.55063 -5.55063
0.233728 -5.41819 -5.41819
0.0111321 -5.47733 -5.47733
0.121762 -5.54701 -5.54701
0.233671 -5.48425 -5.48425
0.123004 -5.41462 -5.41462
0.122394 -5.48065 -5.48065
0.0099491 -5.54366 -5.54366
0.007525 -5.6773 -5.6773
0.233356 -5.68438 -5.68438
0.23359 -5.55063 -5.55063
0.00874672 -5.61032 -5.61032
0.120433 -5.6807 -5.6807
0.233485 -5.61734 -5.61734
0.121762 -5.54701 -5.54701
0.121108 -5.61369 -5.61369
0.007525 -5.6773 -5.6773
0.00502349 -5.81223 -5.81223
0.233026 -5.81942 -5.81942
0.233356 -5.68438 -5.68438
0.00628393 -5.7446 -5.7446
0.119017 -5.81569 -5.81569
0.233203 -5.75174 -5.75174
0.120433 -5.6807 -5.6807
0.119736 -5.74803 -5.74803
0.00502349 -5.81223 -5.81223
0.00244448 -5.94844 -5.94844
0.232601 -5.95573 -5.95573
0.233026 -5.81942 -5.81942
0.00374368 -5.88018 -5.88018
0.117515 -5.95195 -5.95195
0.232826 -5.88742 -5.88742
0.119017 -5.81569 -5.81569
0.118277 -5.88366 -5.88366
0.00244448 -5.94844 -5.94844
-0.000212074 -6.08593 -6.08593
0.23208 -6.09332 -6.09332
0.232601 -5.95573 -5.95573
0.0011259 -6.01703 -6.01703
0.115926 -6.08949 -6.08949
0.232352 -6.02437 -6.02437
0.117515 -5.95195 -5.95195
0.116731 -6.02056 -6.02056
-0.000212074 -6.08593 -6.08593
-0.00294622 -6.22467 -6.22467
0.231462 -6.23217 -6.23217
0.23208 -6.09332 -6.09332
-0.00156945 -6.15514 -6.15514
0.11425 -6.22829 -6.22829
0.231783 -6.16259 -6.16259
0.115926 -6.08949 -6.08949
0.115099 -6.15873 -6.15873
-0.00294622 -6.22467 -6.22467
-0.00575799 -6.36466 -6.36466
0.230749 -6.37227 -6.37227
0.231462 -6.23217 -6.23217
-0.0043424 -6.29451 -6.29451
0.112488 -6.36833 -6.36833
0.231118 -6.30206 -6.30206
0.11425 -6.22829 -6.22829
0.11338 -6.29815 -6.29815
-0.00575799 -6.36466 -6.36466
-0.00864739 -6.50589 -6.50589
0.22994 -6.5136 -6.5136
0.230749 -6.37227 -6.37227
-0.00719299 -6.43512 -6.43512
0.110638 -6.50961 -6.50961
0.230356 -6.44278 -6.44278
0.112488 -6.36833 -6.36833
0.111574 -6.43882 -6.43882
-0.00864739 -6.50589 -6.50589
-0.0116144 -6.64834 -6.64834
0.229034 -6.65616 -6.65616
0.22994 -6.5136 -6.5136
-0.0101212 -6.57696 -6.57696
0.108702 -6.65212 -6.65212
0.229499 -6.58473 -6.58473
0.110638 -6.50961 -6.50961
0.109681 -6.58071 -6.58071
-0.0116144 -6.64834 -6.64834
-0.014659 -6.79201 -6.79201
0.228033 -6.79993 -6.79993
0.229034 -6.65616 -6.65616
-0.013127 -6.72002 -6.72002
0.106679 -6.79584 -6.79584
0.228545 -6.72789 -6.72789
0.108702 -6.65212 -6.65212
0.107702 -6.72383 -6.72383
-0.014659 -6.79201 -6.79201
-0.0177812 -6.93688 -6.93688
0.226935 -6.94491 -6.94491
0.228033 -6.79993 -6.79993
-0.0162104 -6.86429 -6.86429
0.104569 -6.94077 -6.94077
0.227496 -6.87227 -6.87227
0.106679 -6.79584 -6.79584
0.105635 -6.86815 -6.86815
-0.0177812 -6.93688 -6.93688
-0.0209809 -7.08295 -7.08295
0.225742 -7.09109 -7.09109
0.226935 -6.94491 -6.94491
-0.0193714 -7.00977 -7.00977
0.102373 -7.08689 -7.08689
0.226351 -7.01785 -7.01785
0.104569 -6.94077 -6.94077
0.103482 -7.01368 -7.01368
-0.0209809 -7.08295 -7.08295
-0.0242581 -7.2302 -7.2302
0.224453 -7.23844 -7.23844
0.225742 -7.09109 -7.09109
-0.0226098 -7.15643 -7.15643
0.10009 -7.23419 -7.23419
0.22511 -7.16462 -7.16462
0.102373 -7.08689 -7.08689
0.101242 -7.16039 -7.16039
-0.0242581 -7.2302 -7.2302
-0.0276126 -7.37862 -7.37862
0.223068 -7.38697 -7.38697
0.224453 -7.23844 -7.23844
-0.0259257 -7.30426 -7.30426
0.0977202 -7.38267 -7.38267
0.223773 -7.31256 -7.31256
0.10009 -7.23419 -7.23419
0.0989159 -7.30829 -7.30829
-0.0276126 -7.37862 -7.37862
-0.0310444 -7.5282 -7.5282
0.221588 -7.53666 -7.53666
0.223068 -7.38697 -7.38697
-0.0293188 -7.45327 -7.45327
0.0952641 -7.5323 -7.5323
0.22234 -7.46167 -7.46167
0.0977202 -7.38267 -7.38267
0.0965029 -7.45734 -7.45734
-0.0310444 -7.5282 -7.5282
-0.0345533 -7.67893 -7.67893
0.220012 -7.68749 -7.68749
0.221588 -7.53666 -7.53666
-0.0327892 -7.60342 -7.60342
0.0927216 -7.68309 -7.68309
0.220812 -7.61193 -7.61193
0.0952641 -7.5323 -7.5323
0.0940036 -7.60755 -7.60755
-0.0345533 -7.67893 -7.67893
-0.0381392 -7.83081 -7.83081
0.21834 -7.83947 -7.83947
0.220012 -7.68749 -7.68749
-0.0363366 -7.75473 -7.75473
0.0900929 -7.83502 -7.83502
0.219188 -7.76334 -7.76334
0.0927216 -7.68309 -7.68309
0.091418 -7.75891 -7.75891
-0.0381392 -7.83081 -7.83081
-0.0418021 -7.98381 -7.98381
0.216574 -7.99257 -7.99257
0.21834 -7.83947 -7.83947
-0.039961 -7.90716 -7.90716
0.0873782 -7.98807 -7.98807
0.217469 -7.91588 -7.91588
0.0900929 -7.83502 -7.83502
0.0887463 -7.9114 -7.9114
-0.0418021 -7.98381 -7.98381
-0.0455416 -8.13792 -8.13792
0.214712 -8.14679 -8.14679
0.216574 -7.99257 -7.99257
-0.0436622 -8.06072 -8.06072
0.0845775 -8.14224 -8.14224
0.215655 -8.06954 -8.06954
0.0873782 -7.98807 -7.98807
0.0859886 -8.06502 -8.06502
-0.0455416 -8.13792 -8.13792
-0.0493577 -8.29315 -8.29315
0.212755 -8.30212 -8.30212
0.214712 -8.14679 -8.14679
-0.0474401 -8.2154 -8.2154
0.0816911 -8.29752 -8.29752
0.213746 -8.22432 -8.22432
0.0845775 -8.14224 -8.14224
0.083145 -8.21974 -8.21974
-0.0493577 -8.29315 -8.29315
-0.0532502 -8.44946 -8.44946
0.210704 -8.45854 -8.45854
0.212755 -8.30212 -8.30212
-0.0512944 -8.37117 -8.37117
0.0787191 -8.45389 -8.45389
0.211741 -8.3802 -8.3802
0.0816911 -8.29752 -8.29752
0.0802158 -8.37557 -8.37557
-0.0532502 -8.44946 -8.44946
-0.0572188 -8.60687 -8.60687
0.208558 -8.61605 -8.61605
0.210704 -8.45854 -8.45854
-0.055225 -8.52803 -8.52803
0.0756618 -8.61134 -8.61134
0.209643 -8.53716 -8.53716
0.0787191 -8.45389 -8.45389
0.0772011 -8.53248 -8.53248
-0.0572188 -8.60687 -8.60687
-0.0612634 -8.76534 -8.76534
0.206318 -8.77463 -8.77463
0.208558 -8.61605 -8.61605
-0.0592316 -8.68597 -8.68597
0.0725193 -8.76987 -8.76987
0.20745 -8.69521 -8.69521
0.0756618 -8.61134 -8.61134
0.0741012 -8.69047 -8.69047
-0.0612634 -8.76534 -8.76534
-0.0653837 -8.92488 -8.92488
0.203983 -8.93427 -8.93427
0.206318 -8.77463 -8.77463
-0.0633141 -8.84498 -8.84498
0.069292 -8.92946 -8.92946
0.205162 -8.85432 -8.85432
0.0725193 -8.76987 -8.76987
0.0709163 -8.84954 -8.84954
-0.0653837 -8.92488 -8.92488
-0.0695795 -9.08548 -9.08548
0.201555 -9.09497 -9.09497
0.203983 -8.93427 -8.93427
-0.0674722 -9.00505 -9.00505
0.0659799 -9.09011 -9.09011
0.202781 -9.01449 -9.01449
0.069292 -8.92946 -8.92946
0.0676465 -9.00966 -9.00966
-0.0695795 -9.08548 -9.08548
-0.0738505 -9.24711 -9.24711
0.199033 -9.2567 -9.2567
0.201555 -9.09497 -9.09497
-0.0717056 -9.16616 -9.16616
0.0625835 -9.25179 -9.25179
0.200306 -9.1757 -9.1757
0.0659799 -9.09011 -9.09011
0.0642922 -9.17082 -9.17082
-0.0738505 -9.24711 -9.24711
-0.0781965 -9.40977 -9.40977
0.196418 -9.41946 -9.41946
0.199033 -9.2567 -9.2567
-0.0760141 -9.32831 -9.32831
0.0591029 -9.41451 -9.41451
0.197737 -9.33795 -9.33795
0.0625835 -9.25179 -9.25179
0.0608537 -9.33302 -9.33302
-0.0781965 -9.40977 -9.40977
-0.0826172 -9.57345 -9.57345
0.19371 -9.58325 -9.58325
0.196418 -9.41946 -9.41946
-0.0803975 -9.49148 -9.49148
0.0555384 -9.57824 -9.57824
0.195076 -9.50123 -9.50123
0.0591029 -9.41451 -9.41451
0.0573311 -9.49625 -9.49625
-0.0826172 -9.57345 -9.57345
-0.0871122 -9.73814 -9.73814
0.190909 -9.74804 -9.74804
0.19371 -9.58325 -9.58325
-0.0848554 -9.65567 -9.65567
0.0518904 -9.74298 -9.74298
0.192321 -9.66552 -9.66552
0.0555384 -9.57824 -9.57824
0.0537248 -9.66049 -9.66049
-0.0871122 -9.73814 -9.73814
-0.0916813 -9.90383 -9.90383
0.188016 -9.91383 -9.91383
0.190909 -9.74804 -9.74804
-0.0893875 -9.82086 -9.82086
0.0481591 -9.90872 -9.90872
0.189474 -9.83081 -9.83081
0.0518904 -9.74298 -9.74298
0.0500352 -9.82573 -9.82573
-0.0916813 -9.90383 -9.90383
-0.0963242 -10.0705 -10.0705
0.18503 -10.0806 -10.0806
0.188016 -9.91383 -9.91383
-0.0939936 -9.98704 -9.98704
0.0443449 -10.0754 -10.0754
0.186534 -9.99709 -9.99709
0.0481591 -9.90872 -9.90872
0.0462624 -9.99196 -9.99196
-0.0963242 -10.0705 -10.0705
-0.101041 -10.2382 -10.2382
0.181953 -10.2483 -10.2483
0.18503 -10.0806 -10.0806
-0.0986732 -10.1542 -10.1542
0.0404481 -10.2431 -10.2431
0.183503 -10.1644 -10.1644
0.0443449 -10.0754 -10.0754
0.0424068 -10.1592 -10.1592
-0.101041 -10.2382 -10.2382
-0.10583 -10.4068 -10.4068
0.178784 -10.4171 -10.4171
0.181953 -10.2483 -10.2483
-0.103426 -10.3223 -10.3223
0.036469 -10.4118 -10.4118
0.18038 -10.3326 -10.3326
0.0404481 -10.2431 -10.2431
0.0384688 -10.3274 -10.3274
-0.10583 -10.4068 -10.4068
-0.110692 -10.5763 -10.5763
0.175524 -10.5867 -10.5867
0.178784 -10.4171 -10.4171
-0.108252 -10.4914 -10.4914
0.032408 -10.5814 -10.5814
0.177166 -10.5018 -10.5018
0.036469 -10.4118 -10.4118
0.0344487 -10.4965 -10.4965
-0.110692 -10.5763 -10.5763
-0.115626 -10.7468 -10.7468
0.172174 -10.7573 -10.7573
0.175524 -10.5867 -10.5867
-0.11315 -10.6615 -10.6615
0.0282655 -10.752 -10.752
0.17386 -10.6719 -10.6719
0.032408 -10.5814 -10.5814
0.0303469 -10.6666 -10.6666
-0.115626 -10.7468 -10.7468
-0.120633 -10.9183 -10.9183
0.168733 -10.9289 -10.9289
0.172174 -10.7573 -10.7573
-0.118121 -10.8325 -10.8325
0.0240418 -10.9235 -10.9235
0.170465 -10.843 -10.843
0.0282655 -10.752 -10.752
0.0261638 -10.8376 -10.8376
-0.120633 -10.9183 -10.9183
-0.125711 -11.0907 -11.0907
0.165202 -11.1013 -11.1013
0.168733 -10.9289 -10.9289
-0.123163 -11.0044 -11.0044
0.0197374 -11.0959 -11.0959
0.166979 -11.015 -11.015
0.0240418 -10.9235 -10.9235
0.0218997 -11.0096 -11.0096
-0.125711 -11.0907 -11.0907
-0.13086 -11.2639 -11.2639
0.161582 -11.2747 -11.2747
0.165202 -11.1013 -11.1013
-0.128277 -11.1772 -11.1772
0.0153527 -11.2692 -11.2692
0.163403 -11.1879 -11.1879
0.0197374 -11.0959 -11.0959
0.0175551 -11.1824 -11.1824
-0.13086 -11.2639 -11.2639
-0.13608 -11.4381 -11.4381
0.157873 -11.449 -11.449
0.161582 -11.2747 -11.2747
-0.133461 -11.3509 -11.3509
0.010888 -11.4434 -11.4434
0.159739 -11.3617 -11.3617
0.0153527 -11.2692 -11.2692
0.0131303 -11.3562 -11.3562
-0.13608 -11.4381 -11.4381
-0.14137 -11.6132 -11.6132
0.154075 -11.6241 -11.6241
0.157873 -11.449 -11.449
-0.138716 -11.5255 -11.5255
0.00634381 -11.6186 -11.6186
0.155985 -11.5364 -11.5364
0.010888 -11.4434 -11.4434
0.00862581 -11.5309 -11.5309
-0.14137 -11.6132 -11.6132
-0.14673 -11.7891 -11.7891
0.150189 -11.8002 -11.8002
0.154075 -11.6241 -11.6241
-0.144042 -11.701 -11.701
0.00172057 -11.7945 -11.7945
0.152143 -11.712 -11.712
0.00634381 -11.6186 -11.6186
0.00404204 -11.7064 -11.7064
-0.14673 -11.7891 -11.7891
-0.15216 -11.9659 -11.9659
0.146215 -11.9771 -11.9771
0.150189 -11.8002 -11.8002
-0.149437 -11.8774 -11.8774
-0.00298126 -11.9714 -11.9714
0.148212 -11.8885 -11.8885
0.00172057 -11.7945 -11.7945
-0.000620547 -11.8829 -11.8829
-0.15216 -11.9659 -11.9659
-0.157658 -12.1436 -12.1436
0.142153 -12.1548 -12.1548
0.146215 -11.9771 -11.9771
-0.154901 -12.0546 -12.0546
-0.00776123 -12.1491 -12.1491
0.144195 -12.0658 -12.0658
-0.00298126 -11.9714 -11.9714
-0.00536151 -12.0601 -12.0601
-0.157658 -12.1436 -12.1436
-0.163226 -12.3221 -12.3221
0.138005 -12.3334 -12.3334
0.142153 -12.1548 -12.1548
-0.160433 -12.2327 -12.2327
-0.0126189 -12.3277 -12.3277
0.14009 -12.244 -12.244
-0.00776123 -12.1491 -12.1491
-0.0101804 -12.2383 -12.2383
-0.163226 -12.3221 -12.3221
-0.168861 -12.5014 -12.5014
0.133771 -12.5128 -12.5128
0.138005 -12.3334 -12.3334
-0.166035 -12.4117 -12.4117
-0.0175537 -12.507 -12.507
0.135899 -12.423 -12.423
-0.0126189 -12.3277 -12.3277
-0.0150767 -12.4172 -12.4172
-0.168861 -12.5014 -12.5014
-0.174563 -12.6816 -12.6816
0.12945 -12.6931 -12.6931
0.133771 -12.5128 -12.5128
-0.171703 -12.5914 -12.5914
-0.0225652 -12.6873 -12.6873
0.131621 -12.6029 -12.6029
-0.0175537 -12.507 -12.507
-0.0200499 -12.597 -12.597
-0.174563 -12.6816 -12.6816
-0.180333 -12.8626 -12.8626
0.125045 -12.8742 -12.8742
0.12945 -12.6931 -12.6931
-0.17744 -12.772 -12.772
-0.0276529 -12.8683 -12.8683
0.127258 -12.7835 -12.7835
-0.0225652 -12.6873 -12.6873
-0.0250995 -12.7777 -12.7777
-0.180333 -12.8626 -12.8626
-0.186169 -13.0444 -13.0444
0.120554 -13.056 -13.056
0.125045 -12.8742 -12.8742
-0.183242 -12.9534 -12.9534
-0.0328162 -13.0501 -13.0501
0.12281 -12.965 -12.965
-0.0276529 -12.8683 -12.8683
-0.0302251 -12.9591 -12.9591
-0.186169 -13.0444 -13.0444
-0.192071 -13.2269 -13.2269
0.115979 -13.2387 -13.2387
0.120554 -13.056 -13.056
-0.189111 -13.1355 -13.1355
-0.0380546 -13.2327 -13.2327
0.118277 -13.1473 -13.1473
-0.0328162 -13.0501 -13.0501
-0.0354261 -13.1413 -13.1413
-0.192071 -13.2269 -13.2269
-0.198038 -13.4103 -13.4103
0.111321 -13.4221 -13.4221
0.115979 -13.2387 -13.2387
-0.195046 -13.3185 -13.3185
-0.0433677 -13.4161 -13.4161
0.11366 -13.3303 -13.3303
-0.0380546 -13.2327 -13.2327
-0.0407019 -13.3243 -13.3243
-0.198038 -13.4103 -13.4103
-0.20407 -13.5944 -13.5944
0.106579 -13.6063 -13.6063
0.111321 -13.4221 -13.4221
-0.201046 -13.5022 -13.5022
-0.0487548 -13.6003 -13.6003
0.10896 -13.5141 -13.5141
-0.0433677 -13.4161 -13.4161
-0.046052 -13.5081 -13.5081
-0.20407 -13.5944 -13.5944
-0.210167 -13.7793 -13.7793
0.101754 -13.7913 -13.7913
0.106579 -13.6063 -13.6063
-0.207111 -13.6867 -13.6867
-0.0542154 -13.7852 -13.7852
0.104177 -13.6987 -13.6987
-0.0487548 -13.6003 -13.6003
-0.0514759 -13.6926 -13.6926
-0.210167 -13.7793 -13.7793
-0.216327 -13.9649 -13.9649
0.096848 -13.977 -13.977
0.101754 -13.7913 -13.7913
-0.213239 -13.872 -13.872
-0.0597489 -13.9709 -13.9709
0.0993115 -13.884 -13.884
-0.0542154 -13.7852 -13.7852
-0.056973 -13.8779 -13.8779
-0.216327 -13.9649 -13.9649
-0.222551 -14.1513 -14.1513
0.09186 -14.1634 -14.1634
0.096848 -13.977 -13.977
-0.219431 -14.058 -14.058
-0.0653547 -14.1573 -14.1573
0.0943641 -14.0701 -14.0701
-0.0597489 -13.9709 -13.9709
-0.0625428 -14.064 -14.064
-0.222551 -14.1513 -14.1513
-0.228837 -14.3383 -14.3383
0.0867911 -14.3506 -14.3506
0.09186 -14.1634 -14.1634
-0.225686 -14.2447 -14.2447
-0.0710323 -14.3444 -14.3444
0.0893356 -14.2569 -14.2569
-0.0653547 -14.1573 -14.1573
-0.0681846 -14.2507 -14.2507
-0.228837 -14.3383 -14.3383
-0.235185 -14.5261 -14.5261
0.0816418 -14.5385 -14.5385
0.0867911 -14.3506 -14.3506
-0.232003 -14.4322 -14.4322
-0.0767811 -14.5322 -14.5322
0.0842264 -14.4445 -14.4445
-0.0710323 -14.3444 -14.3444
-0.0738978 -14.4382 -14.4382
-0.235185 -14.5261 -14.5261
-0.241595 -14.7146 -14.7146
0.0764129 -14.7271 -14.7271
0.0816418 -14.5385 -14.5385
-0.238382 -14.6203 -14.6203
-0.0826004 -14.7208 -14.7208
0.0790373 -14.6327 -14.6327
-0.0767811 -14.5322 -14.5322
-0.079682 -14.6264 -14.6264
-0.241595 -14.7146 -14.7146
-0.248065 -14.9038 -14.9038
0.0711048 -14.9163 -14.9163
0.0764129 -14.7271 -14.7271
-0.244822 -14.8092 -14.8092
-0.0884897 -14.91 -14.91
0.0737687 -14.8216 -14.8216
-0.0826004 -14.7208 -14.7208
-0.0855363 -14.8153 -14.8153
-0.248065 -14.9038 -14.9038
-0.254596 -15.0937 -15.0937
0.0657183 -15.1063 -15.1063
0.0711048 -14.9163 -14.9163
-0.251323 -14.9987 -14.9987
-0.0944482 -15.0999 -15.0999
0.0684213 -15.0112 -15.0112
-0.0884897 -14.91 -14.91
-0.0914603 -15.0049 -15.0049
-0.254596 -15.0937 -15.0937
-0.261186 -15.2843 -15.2843
0.0602539 -15.2969 -15.2969
0.0657183 -15.1063 -15.1063
-0.257883 -15.1889 -15.1889
-0.100476 -15.2905 -15.2905
0.0629958 -15.2015 -15.2015
-0.0944482 -15.0999 -15.0999
-0.0974533 -15.1951 -15.1951
-0.261186 -15.2843 -15.2843
-0.267835 -15.4755 -15.4755
0.0547123 -15.4882 -15.4882
0.0602539 -15.2969 -15.2969
-0.264503 -15.3798 -15.3798
-0.106571 -15.4818 -15.4818
0.0574927 -15.3925 -15.3925
-0.100476 -15.2905 -15.2905
-0.103515 -15.3861 -15.3861
-0.267835 -15.4755 -15.4755
-0.274542 -15.6673 -15.6673
0.0490942 -15.6801 -15.6801
0.0547123 -15.4882 -15.4882
-0.271181 -15.5713 -15.5713
-0.112734 -15.6737 -15.6737
0.0519128 -15.5841 -15.5841
-0.106571 -15.4818 -15.4818
-0.109644 -15.5776 -15.5776
-0.274542 -15.6673 -15.6673
-0.281306 -15.8598 -15.8598
0.0434001 -15.8727 -15.8727
0.0490942 -15.6801 -15.6801
-0.277917 -15.7635 -15.7635
-0.118963 -15.8662 -15.8662
0.0462566 -15.7763 -15.7763
-0.112734 -15.6737 -15.6737
-0.11584 -15.7699 -15.7699
-0.281306 -15.8598 -15.8598
-0.288128 -16.053 -16.053
0.0376308 -16.0659 -16.0659
0.0434001 -15.8727 -15.8727
-0.28471 -15.9563 -15.9563
-0.125259 -16.0594 -16.0594
0.0405248 -15.9692 -15.9692
-0.118963 -15.8662 -15.8662
-0.122103 -15.9627 -15.9627
-0.288128 -16.053 -16.053
-0.295006 -16.2467 -16.2467
0.031787 -16.2597 -16.2597
0.0376308 -16.0659 -16.0659
-0.29156 -16.1498 -16.1498
-0.131619 -16.2531 -16.2531
0.0347182 -16.1627 -16.1627
-0.125259 -16.0594 -16.0594
-0.128431 -16.1562 -16.1562
-0.295006 -16.2467 -16.2467
-0.301939 -16.4411 -16.4411
0.0258693 -16.4541 -16.4541
0.031787 -16.2597 -16.2597
-0.298466 -16.3438 -16.3438
-0.138045 -16.4475 -16.4475
0.0288373 -16.3569 -16.3569
-0.131619 -16.2531 -16.2531
-0.134824 -16.3503 -16.3503
-0.301939 -16.4411 -16.4411
-0.308928 -16.636 -16.636
0.0198784 -16.6491 -16.6491
0.0258693 -16.4541 -16.4541
-0.305427 -16.5385 -16.5385
-0.144535 -16.6425 -16.6425
0.022883 -16.5516 -16.5516
-0.138045 -16.4475 -16.4475
-0.141282 -16.545 -16.545
-0.308928 -16.636 -16.636
-0.31597 -16.8315 -16.8315
0.013815 -16.8447 -16.8447
0.0198784 -16.6491 -16.6491
-0.312442 -16.7337 -16.7337
-0.151088 -16.8381 -16.8381
0.0168557 -16.7469 -16.7469
-0.144535 -16.6425 -16.6425
-0.147803 -16.7402 -16.7402
-0.31597 -16.8315 -16.8315
-0.323066 -17.0276 -17.0276
0.00767984 -17.0409 -17.0409
0.013815 -16.8447 -16.8447
-0.319512 -16.9295 -16.9295
-0.157704 -17.0342 -17.0342
0.0107564 -16.9428 -16.9428
-0.151088 -16.8381 -16.8381
-0.154388 -16.9361 -16.9361
-0.323066 -17.0276 -17.0276
-0.330215 -17.2243 -17.2243
0.00147358 -17.2376 -17.2376
0.00767984 -17.0409 -17.0409
-0.326634 -17.1259 -17.1259
-0.164381 -17.2309 -17.2309
0.00458555 -17.1392 -17.1392
-0.157704 -17.0342 -17.0342
-0.161035 -17.1325 -17.1325
-0.330215 -17.2243 -17.2243
-0.337416 -17.4215 -17.4215
-0.00480302 -17.4349 -17.4349
0.00147358 -17.2376 -17.2376
-0.333809 -17.3228 -17.3228
-0.17112 -17.4282 -17.4282
-0.00165597 -17.3362 -17.3362
-0.164381 -17.2309 -17.2309
-0.167743 -17.3295 -17.3295
-0.337416 -17.4215 -17.4215
-0.344668 -17.6193 -17.6193
-0.0111493 -17.6327 -17.6327
-0.00480302 -17.4349 -17.4349
-0.341036 -17.5203 -17.5203
-0.177919 -17.626 -17.626
-0.00796749 -17.5338 -17.5338
-0.17112 -17.4282 -17.4282
-0.174512 -17.527 -17.527
-0.344668 -17.6193 -17.6193
-0.351971 -17.8176 -17.8176
-0.0175644 -17.8311 -17.8311
-0.0111493 -17.6327 -17.6327
-0.348313 -17.7184 -17.7184
-0.184778 -17.8243 -17.8243
-0.0143483 -17.7318 -17.7318
-0.177919 -17.626 -17.626
-0.181341 -17.725 -17.725
-0.351971 -17.8176 -17.8176
-0.359323 -18.0164 -18.0164
-0.0240477 -18.03 -18.03
-0.0175644 -17.8311 -17.8311
-0.355641 -17.9169 -17.9169
-0.191696 -18.0231 -18.0231
-0.0207976 -17.9305 -17.9305
-0.184778 -17.8243 -17.8243
-0.18823 -17.9236 -17.9236
-0.359323 -18.0164 -18.0164
-0.366725 -18.2157 -18.2157
-0.0305984 -18.2293 -18.2293
-0.0240477 -18.03 -18.03
-0.363018 -18.116 -18.116
-0.198673 -18.2225 -18.2225
-0.0273147 -18.1296 -18.1296
-0.191696 -18.0231 -18.0231
-0.195177 -18.1227 -18.1227
-0.366725 -18.2157 -18.2157
-0.374175 -18.4155 -18.4155
-0.0372158 -18.4292 -18.4292
-0.0305984 -18.2293 -18.2293
-0.370444 -18.3155 -18.3155
-0.205706 -18.4223 -18.4223
-0.0338988 -18.3292 -18.3292
-0.198673 -18.2225 -18.2225
-0.202182 -18.3223 -18.3223
-0.374175 -18.4155 -18.4155
-0.381673 -18.6158 -18.6158
-0.043899 -18.6296 -18.6296
-0.0372158 -18.4292 -18.4292
-0.377918 -18.5156 -18.5156
-0.212797 -18.6226 -18.6226
-0.0405492 -18.5293 -18.5293
-0.205706 -18.4223 -18.4223
-0.209245 -18.5224 -18.5224
-0.381673 -18.6158 -18.6158
-0.389217 -18.8166 -18.8166
-0.0506474 -18.8304 -18.8304
-0.043899 -18.6296 -18.6296
-0.385439 -18.7161 -18.7161
-0.219943 -18.8234 -18.8234
-0.0472651 -18.7299 -18.7299
-0.212797 -18.6226 -18.6226
-0.216363 -18.723 -18.723
-0.389217 -18.8166 -18.8166
-0.396808 -19.0178 -19.0178
-0.0574602 -19.0317 -19.0317
-0.0506474 -18.8304 -18.8304
-0.393007 -18.9171 -18.9171
-0.227145 -19.0247 -19.0247
-0.0540458 -18.931 -18.931
-0.219943 -18.8234 -18.8234
-0.223537 -18.924 -18.924
-0.396808 -19.0178 -19.0178
-0.404444 -19.2195 -19.2195
-0.0643365 -19.2334 -19.2334
-0.0574602 -19.0317 -19.0317
-0.40062 -19.1186 -19.1186
-0.234401 -19.2264 -19.2264
-0.0608905 -19.1325 -19.1325
-0.227145 -19.0247 -19.0247
-0.230767 -19.1255 -19.1255
-0.404444 -19.2195 -19.2195
-0.412124 -19.4217 -19.4217
-0.0712757 -19.4356 -19.4356
-0.0643365 -19.2334 -19.2334
-0.408279 -19.3205 -19.3205
-0.241711 -19.4286 -19.4286
-0.0677983 -19.3345 -19.3345
-0.234401 -19.2264 -19.2264
-0.23805 -19.3274 -19.3274
-0.412124 -19.4217 -19.4217
-0.419848 -19.6242 -19.6242
-0.0782768 -19.6382 -19.6382
-0.0712757 -19.4356 -19.4356
-0.415981 -19.5229 -19.5229
-0.249074 -19.6312 -19.6312
-0.0747686 -19.5369 -19.5369
-0.241711 -19.4286 -19.4286
-0.245386 -19.5298 -19.5298
-0.419848 -19.6242 -19.6242
-0.427615 -19.8272 -19.8272
-0.0853392 -19.8413 -19.8413
-0.0782768 -19.6382 -19.6382
-0.423727 -19.7257 -19.7257
-0.256489 -19.8342 -19.8342
-0.0818004 -19.7397 -19.7397
-0.249074 -19.6312 -19.6312
-0.252775 -19.7326 -19.7326
-0.427615 -19.8272 -19.8272
-0.435425 -20.0306 -20.0306
-0.092462 -20.0447 -20.0447
-0.0853392 -19.8413 -19.8413
-0.431515 -19.9289 -19.9289
-0.263955 -20.0376 -20.0376
-0.0888931 -19.9429 -19.9429
-0.256489 -19.8342 -19.8342
-0.260215 -19.9359 -19.9359
-0.435425 -20.0306 -20.0306
-0.443275 -20.2344 -20.2344
-0.0996444 -20.2486 -20.2486
-0.092462 -20.0447 -20.0447
-0.439345 -20.1325 -20.1325
-0.271471 -20.2414 -20.2414
-0.0960458 -20.1466 -20.1466
-0.263955 -20.0376 -20.0376
-0.267707 -20.1395 -20.1395
-0.443275 -20.2344 -20.2344
-0.451166 -20.4386 -20.4386
-0.106886 -20.4528 -20.4528
-0.0996444 -20.2486 -20.2486
-0.447215 -20.3365 -20.3365
-0.279037 -20.4457 -20.4457
-0.103258 -20.3506 -20.3506
-0.271471 -20.2414 -20.2414
-0.275248 -20.3435 -20.3435
-0.451166 -20.4386 -20.4386
-0.459097 -20.6432 -20.6432
-0.114185 -20.6574 -20.6574
-0.106886 -20.4528 -20.4528
-0.455126 -20.5409 -20.5409
-0.286653 -20.6503 -20.6503
-0.110528 -20.5551 -20.5551
-0.279037 -20.4457 -20.4457
-0.282839 -20.5479 -20.5479
-0.459097 -20.6432 -20.6432
-0.467066 -20.8481 -20.8481
-0.121541 -20.8624 -20.8624
-0.114185 -20.6574 -20.6574
-0.463077 -20.7456 -20.7456
-0.294316 -20.8552 -20.8552
-0.117856 -20.7599 -20.7599
-0.286653 -20.6503 -20.6503
-0.290478 -20.7527 -20.7527
-0.467066 -20.8481 -20.8481
-0.475074 -21.0534 -21.0534
-0.128954 -21.0677 -21.0677
-0.121541 -20.8624 -20.8624
-0.471065 -20.9507 -20.9507
-0.302026 -21.0605 -21.0605
-0.125241 -20.965 -20.965
-0.294316 -20.8552 -20.8552
-0.298165 -20.9578 -20.9578
-0.475074 -21.0534 -21.0534
-0.483119 -21.2591 -21.2591
-0.136422 -21.2734 -21.2734
-0.128954 -21.0677 -21.0677
-0.479092 -21.1562 -21.1562
-0.309782 -21.2662 -21.2662
-0.132681 -21.1705 -21.1705
-0.302026 -21.0605 -21.0605
-0.305898 -21.1633 -21.1633
-0.483119 -21.2591 -21.2591
-0.4912 -21.465 -21.465
-0.143945 -21.4794 -21.4794
-0.136422 -21.2734 -21.2734
-0.487155 -21.362 -21.362
-0.317585 -21.4722 -21.4722
-0.140177 -21.3764 -21.3764
-0.309782 -21.2662 -21.2662
-0.313678 -21.3691 -21.3691
-0.4912 -21.465 -21.465
-0.499317 -21.6713 -21.6713
-0.151522 -21.6857 -21.6857
-0.143945 -21.4794 -21.4794
-0.495254 -21.5681 -21.5681
-0.325432 -21.6785 -21.6785
-0.147727 -21.5825 -21.5825
-0.317585 -21.4722 -21.4722
-0.321503 -21.5753 -21.5753
-0.499317 -21.6713 -21.6713
-0.507468 -21.8779 -21.8779
-0.159152 -21.8924 -21.8924
-0.151522 -21.6857 -21.6857
-0.503388 -21.7746 -21.7746
-0.333322 -21.8851 -21.8851
-0.15533 -21.789 -21.789
-0.325432 -21.6785 -21.6785
-0.329371 -21.7818 -21.7818
-0.507468 -21.8779 -21.8779
-0.515654 -22.0849 -22.0849
-0.166834 -22.0993 -22.0993
-0.159152 -21.8924 -21.8924
-0.511557 -21.9814 -21.9814
-0.341256 -22.0921 -22.0921
-0.162986 -21.9958 -21.9958
-0.333322 -21.8851 -21.8851
-0.337284 -21.9886 -21.9886
-0.515654 -22.0849 -22.0849
-0.523872 -22.2921 -22.2921
-0.174567 -22.3066 -22.3066
-0.166834 -22.0993 -22.0993
-0.519759 -22.1884 -22.1884
-0.349232 -22.2993 -22.2993
-0.170694 -22.2029 -22.2029
-0.341256 -22.0921 -22.0921
-0.345239 -22.1956 -22.1956
-0.523872 -22.2921 -22.2921
-0.532123 -22.4996 -22.4996
-0.18235 -22.5141 -22.5141
-0.174567 -22.3066 -22.3066
-0.527993 -22.3958 -22.3958
-0.357249 -22.5068 -22.5068
-0.178452 -22.4103 -22.4103
-0.349232 -22.2993 -22.2993
-0.353235 -22.403 -22.403
-0.532123 -22.4996 -22.4996
-0.540405 -22.7073 -22.7073
-0.190184 -22.7219 -22.7219
-0.18235 -22.5141 -22.5141
-0.53626 -22.6034 -22.6034
-0.365307 -22.7146 -22.7146
-0.186261 -22.6179 -22.6179
-0.357249 -22.5068 -22.5068
-0.361273 -22.6106 -22.6106
-0.540405 -22.7073 -22.7073
-0.548717 -22.9153 -22.9153
-0.198066 -22.9299 -22.9299
-0.190184 -22.7219 -22.7219
-0.544557 -22.8113 -22.8113
-0.373404 -22.9226 -22.9226
-0.194119 -22.8259 -22.8259
-0.365307 -22.7146 -22.7146
-0.369351 -22.8185 -22.8185
-0.548717 -22.9153 -22.9153
-0.557059 -23.1236 -23.1236
-0.205996 -23.1382 -23.1382
-0.198066 -22.9299 -22.9299
-0.552884 -23.0194 -23.0194
-0.38154 -23.1309 -23.1309
-0.202025 -23.034 -23.034
-0.373404 -22.9226 -22.9226
-0.377467 -23.0267 -23.0267
-0.557059 -23.1236 -23.1236
-0.56543 -23.3321 -23.3321
-0.213973 -23.3467 -23.3467
-0.205996 -23.1382 -23.1382
-0.561241 -23.2278 -23.2278
-0.389714 -23.3394 -23.3394
-0.209978 -23.2424 -23.2424
-0.38154 -23.1309 -23.1309
-0.385622 -23.2351 -23.2351
-0.56543 -23.3321 -23.3321
-0.573828 -23.5408 -23.5408
-0.221996 -23.5555 -23.5555
-0.213973 -23.3467 -23.3467
-0.569625 -23.4364 -23.4364
-0.397925 -23.5481 -23.5481
-0.217978 -23.4511 -23.4511
-0.389714 -23.3394 -23.3394
-0.393815 -23.4437 -23.4437
-0.573828 -23.5408 -23.5408
-0.582254 -23.7498 -23.7498
-0.230064 -23.7644 -23.7644
-0.221996 -23.5555 -23.5555
-0.578037 -23.6453 -23.6453
-0.406172 -23.7571 -23.7571
-0.226024 -23.6599 -23.6599
-0.397925 -23.5481 -23.5481
-0.402044 -23.6526 -23.6526
-0.582254 -23.7498 -23.7498
-0.590705 -23.9589 -23.9589
-0.238177 -23.9736 -23.9736
-0.230064 -23.7644 -23.7644
-0.586476 -23.8543 -23.8543
-0.414454 -23.9662 -23.9662
-0.234115 -23.869 -23.869
-0.406172 -23.7571 -23.7571
-0.410309 -23.8616 -23.8616
-0.590705 -23.9589 -23.9589
-0.599182 -24.1683 -24.1683
-0.246333 -24.183 -24.183
-0.238177 -23.9736 -23.9736
-0.59494 -24.0636 -24.0636
-0.422771 -24.1756 -24.1756
-0.242249 -24.0783 -24.0783
-0.414454 -23.9662 -23.9662
-0.418608 -24.0709 -24.0709
-0.599182 -24.1683 -24.1683
-0.607683 -24.3778 -24.3778
-0.254531 -24.3925 -24.3925
-0.246333 -24.183 -24.183
-0.60343 -24.273 -24.273
-0.431121 -24.3851 -24.3851
-0.250427 -24.2877 -24.2877
-0.422771 -24.1756 -24.1756
-0.426942 -24.2803 -24.2803
-0.607683 -24.3778 -24.3778
-0.616208 -24.5875 -24.5875
-0.262772 -24.6022 -24.6022
-0.254531 -24.3925 -24.3925
-0.611943 -24.4826 -24.4826
-0.439503 -24.5948 -24.5948
-0.258647 -24.4973 -24.4973
-0.431121 -24.3851 -24.3851
-0.435308 -24.49 -24.49
-0.616208 -24.5875 -24.5875
-0.624755 -24.7973 -24.7973
-0.271053 -24.8121 -24.8121
-0.262772 -24.6022 -24.6022
-0.620479 -24.6924 -24.6924
-0.447918 -24.8047 -24.8047
-0.266908 -24.7071 -24.7071
-0.439503 -24.5948 -24.5948
-0.443707 -24.6998 -24.6998
-0.624755 -24.7973 -24.7973
-0.633324 -25.0074 -25.0074
-0.279375 -25.0221 -25.0221
-0.271053 -24.8121 -24.8121
-0.629037 -24.9023 -24.9023
-0.456363 -25.0147 -25.0147
-0.275209 -24.9171 -24.9171
-0.447918 -24.8047 -24.8047
-0.452137 -24.9097 -24.9097
-0.633324 -25.0074 -25.0074
-0.641914 -25.2175 -25.2175
-0.287735 -25.2323 -25.2323
-0.279375 -25.0221 -25.0221
-0.637616 -25.1124 -25.1124
-0.464839 -25.2249 -25.2249
-0.28355 -25.1272 -25.1272
-0.456363 -25.0147 -25.0147
-0.460597 -25.1198 -25.1198
-0.641914 -25.2175 -25.2175
-0.650524 -25.4278 -25.4278
-0.296134 -25.4426 -25.4426
-0.287735 -25.2323 -25.2323
-0.646217 -25.3226 -25.3226
-0.473343 -25.4352 -25.4352
-0.29193 -25.3374 -25.3374
-0.464839 -25.2249 -25.2249
-0.469087 -25.33 -25.33
-0.650524 -25.4278 -25.4278
-0.659153 -25.6382 -25.6382
-0.304571 -25.653 -25.653
-0.296134 -25.4426 -25.4426
-0.654836 -25.533 -25.533
-0.481877 -25.6456 -25.6456
-0.300348 -25.5478 -25.5478
-0.473343 -25.4352 -25.4352
-0.477606 -25.5404 -25.5404
-0.659153 -25.6382 -25.6382
-0.667802 -25.8487 -25.8487
-0.313045 -25.8635 -25.8635
-0.304571 -25.653 -25.653
-0.663475 -25.7434 -25.7434
-0.490438 -25.8561 -25.8561
-0.308803 -25.7582 -25.7582
-0.481877 -25.6456 -25.6456
-0.486154 -25.7508 -25.7508
-0.667802 -25.8487 -25.8487
-0.676468 -26.0593 -26.0593
-0.321556 -26.0741 -26.0741
-0.313045 -25.8635 -25.8635
-0.672133 -25.954 -25.954
-0.499027 -26.0667 -26.0667
-0.317296 -25.9688 -25.9688
-0.490438 -25.8561 -25.8561
-0.494729 -25.9614 -25.9614
-0.676468 -26.0593 -26.0593
-0.685153 -26.27 -26.27
-0.330104 -26.2848 -26.2848
-0.321556 -26.0741 -26.0741
-0.680809 -26.1646 -26.1646
-0.507645 -26.2774 -26.2774
-0.325825 -26.1794 -26.1794
-0.499027 -26.0667 -26.0667
-0.503333 -26.172 -26.172
-0.685153 -26.27 -26.27
-0.693857 -26.4808 -26.4808
-0.338691 -26.4956 -26.4956
-0.330104 -26.2848 -26.2848
-0.689503 -26.3754 -26.3754
-0.516292 -26.4882 -26.4882
-0.334393 -26.3902 -26.3902
-0.507645 -26.2774 -26.2774
-0.511965 -26.3828 -26.3828
-0.693857 -26.4808 -26.4808
-0.702578 -26.6916 -26.6916
-0.347318 -26.7064 -26.7064
-0.338691 -26.4956 -26.4956
-0.698215 -26.5862 -26.5862
-0.524968 -26.699 -26.699
-0.342999 -26.601 -26.601
-0.516292 -26.4882 -26.4882
-0.520626 -26.5936 -26.5936
-0.702578 -26.6916 -26.6916
-0.711317 -26.9025 -26.9025
-0.355987 -26.9173 -26.9173
-0.347318 -26.7064 -26.7064
-0.706945 -26.797 -26.797
-0.533675 -26.9099 -26.9099
-0.351647 -26.8118 -26.8118
-0.524968 -26.699 -26.699
-0.529318 -26.8044 -26.8044
-0.711317 -26.9025 -26.9025
-0.720071 -27.1134 -27.1134
-0.364697 -27.1282 -27.1282
-0.355987 -26.9173 -26.9173
-0.715693 -27.008 -27.008
-0.54241 -27.1208 -27.1208
-0.360337 -27.0227 -27.0227
-0.533675 -26.9099 -26.9099
-0.538039 -27.0153 -27.0153
-0.720071 -27.1134 -27.1134
-0.728831 -27.3244 -27.3244
-0.373441 -27.3392 -27.3392
-0.364697 -27.1282 -27.1282
-0.724451 -27.2189 -27.2189
-0.551162 -27.3318 -27.3318
-0.369067 -27.2337 -27.2337
-0.54241 -27.1208 -27.1208
-0.546785 -27.2263 -27.2263
-0.728831 -27.3244 -27.3244
-0.737589 -27.5352 -27.5352
-0.38219 -27.5502 -27.5502
-0.373441 -27.3392 -27.3392
-0.733212 -27.4298 -27.4298
-0.55991 -27.5427 -27.5427
-0.377817 -27.4447 -27.4447
-0.551162 -27.3318 -27.3318
-0.555537 -27.4372 -27.4372
-0.737589 -27.5352 -27.5352
-0.746327 -27.746 -27.746
-0.390911 -27.761 -27.761
-0.38219 -27.5502 -27.5502
-0.741961 -27.6406 -27.6406
-0.568641 -27.7535 -27.7535
-0.386556 -27.6556 -27.6556
-0.55991 -27.5427 -27.5427
-0.564279 -27.6481 -27.6481
0 0 0
0.00475922 -0.000510381 -0.000510381
0.00820706 -0.00235494 -0.00235494
0 0 0
0.00230685 0.000136626 0.000136626
0.00642001 -0.00121082 -0.00121082
0.00398365 -0.000847298 -0.000847298
0 0 0
0.0031613 -0.000263805 -0.000263805
0.00475922 -0.000510381 -0.000510381
0.00988291 -0.00375774 -0.00375774
0.0170892 -0.00678738 -0.00678738
0.00820706 -0.00235494 -0.00235494
0.00728922 -0.00182407 -0.00182407
0.0133647 -0.00501401 -0.00501401
0.012606 -0.00435727 -0.00435727
0.00642001 -0.00121082 -0.00121082
0.00983702 -0.0028229 -0.0028229
0.00988291 -0.00375774 -0.00375774
0.0152183 -0.00936563 -0.00936563
0.0260499 -0.0128735 -0.0128735
0.0170892 -0.00678738 -0.00678738
0.0125347 -0.00628189 -0.00628189
0.0205279 -0.0108769 -0.0108769
0.0215753 -0.00961699 -0.00961699
0.0133647 -0.00501401 -0.00501401
0.0169376 -0.0077006 -0.0077006
0.0152183 -0.00936563 -0.00936563
0.0205936 -0.0171258 -0.0171258
0.0349606 -0.0207924 -0.0207924
0.0260499 -0.0128735 -0.0128735
0.0179071 -0.0129826 -0.0129826
0.0277001 -0.0187338 -0.0187338
0.0305138 -0.0165932 -0.0165932
0.0205279 -0.0108769 -0.0108769
0.0241189 -0.0145541 -0.0145541
0.0205936 -0.0171258 -0.0171258
0.0259441 -0.026981 -0.026981
0.0437878 -0.0306741 -0.0306741
0.0349606 -0.0207924 -0.0207924
0.0232744 -0.0217931 -0.0217931
0.0348096 -0.0286078 -0.0286078
0.0393842 -0.0254823 -0.0254823
0.0277001 -0.0187338 -0.0187338
0.031264 -0.0234165 -0.0234165
0.0259441 -0.026981 -0.026981
0.031236 -0.038909 -0.038909
0.0525468 -0.0425947 -0.0425947
0.0437878 -0.0306741 -0.0306741
0.0285978 -0.0326863 -0.0326863
0.0418482 -0.0405347 -0.0405347
0.0481754 -0.0363773 -0.0363773
0.0348096 -0.0286078 -0.0286078
0.0383376 -0.0343135 -0.0343135
0.031236 -0.038909 -0.038909
0.0364694 -0.0529064 -0.0529064
0.0612392 -0.0565765 -0.0565765
0.0525468 -0.0425947 -0.0425947
0.0338599 -0.0456494 -0.0456494
0.0488184 -0.0545247 -0.0545247
0.0569011 -0.0493274 -0.0493274
0.0418482 -0.0405347 -0.0405347
0.0453415 -0.0472716 -0.0472716
0.0364694 -0.0529064 -0.0529064
0.0416456 -0.0689663 -0.0689663
0.0698701 -0.0726258 -0.0726258
0.0612392 -0.0565765 -0.0565765
0.0390644 -0.060679 -0.060679
0.0557259 -0.0705795 -0.0705795
0.0655622 -0.0643429 -0.0643429
0.0488184 -0.0545247 -0.0545247
0.0522797 -0.0622942 -0.0622942
0.0416456 -0.0689663 -0.0689663
0.0467697 -0.0870819 -0.0870819
0.0784393 -0.0907369 -0.0907369
0.0698701 -0.0726258 -0.0726258
0.044214 -0.0777677 -0.0777677
0.0625746 -0.0886931 -0.0886931
0.0741624 -0.0814242 -0.0814242
0.0557259 -0.0705795 -0.0705795
0.0591575 -0.0793795 -0.0793795
0.0467697 -0.0870819 -0.0870819
0.0518439 -0.107244 -0.107244
0.0869468 -0.110901 -0.110901
0.0784393 -0.0907369 -0.0907369
0.0493129 -0.0969078 -0.0969078
0.0693665 -0.108857 -0.108857
0.0827008 -0.100563 -0.100563
0.0625746 -0.0886931 -0.0886931
0.0659776 -0.0985194 -0.0985194
0.0518439 -0.107244 -0.107244
0.0568699 -0.129443 -0.129443
0.0953914 -0.133107 -0.133107
0.0869468 -0.110901 -0.110901
0.0543629 -0.11809 -0.11809
0.0761024 -0.13106 -0.13106
0.091177 -0.121749 -0.121749
0.0693665 -0.108857 -0.108857
0.0727415 -0.119704 -0.119704
0.0568699 -0.129443 -0.129443
0.0618479 -0.153669 -0.153669
0.103772 -0.157344 -0.157344
0.0953914 -0.133107 -0.133107
0.0593649 -0.141304 -0.141304
0.0827819 -0.155293 -0.155293
0.0995897 -0.144972 -0.144972
0.0761024 -0.13106 -0.13106
0.0794492 -0.142924 -0.142924
0.0618479 -0.153669 -0.153669
0.0667775 -0.179911 -0.179911
0.112087 -0.183601 -0.183601
0.103772 -0.157344 -0.157344
0.0643188 -0.166539 -0.166539
0.0894043 -0.181543 -0.181543
0.107937 -0.170221 -0.170221
0.0827819 -0.155293 -0.155293
0.0861003 -0.168166 -0.168166
0.0667775 -0.179911 -0.179911
0.0716578 -0.208159 -0.208159
0.120334 -0.211865 -0.211865
0.112087 -0.183601 -0.183601
0.0692239 -0.193785 -0.193785
0.0959685 -0.2098 -0.2098
0.116219 -0.197483 -0.197483
0.0894043 -0.181543 -0.181543
0.0926938 -0.195421 -0.195421
0.0716578 -0.208159 -0.208159
0.0764876 -0.2384 -0.2384
0.128514 -0.242127 -0.242127
0.120334 -0.211865 -0.211865
0.0740791 -0.223031 -0.223031
0.102473 -0.240053 -0.240053
0.124433 -0.226747 -0.226747
0.0959685 -0.2098 -0.2098
0.0992284 -0.224678 -0.224678
0.0764876 -0.2384 -0.2384
0.0812657 -0.270625 -0.270625
0.136623 -0.274375 -0.274375
0.128514 -0.242127 -0.242127
0.0788832 -0.254265 -0.254265
0.108917 -0.27229 -0.27229
0.132577 -0.258003 -0.258003
0.102473 -0.240053 -0.240053
0.105703 -0.255924 -0.255924
0.0812657 -0.270625 -0.270625
0.0859906 -0.304822 -0.304822
0.14466 -0.308597 -0.308597
0.136623 -0.274375 -0.274375
0.0836349 -0.287478 -0.287478
0.115298 -0.306501 -0.306501
0.140651 -0.29124 -0.29124
0.108917 -0.27229 -0.27229
0.112116 -0.289149 -0.289149
0.0859906 -0.304822 -0.304822
0.0906611 -0.34098 -0.34098
0.152625 -0.344783 -0.344783
0.14466 -0.308597 -0.308597
0.0883328 -0.322657 -0.322657
0.121616 -0.342674 -0.342674
0.148652 -0.326445 -0.326445
0.115298 -0.306501 -0.306501
0.118465 -0.324343 -0.324343
0.0906611 -0.34098 -0.34098
0.0952758 -0.379089 -0.379089
0.160516 -0.382922 -0.382922
0.152625 -0.344783 -0.344783
0.0929755 -0.359792 -0.359792
0.127869 -0.380799 -0.380799
0.15658 -0.363609 -0.363609
0.121616 -0.342674 -0.342674
0.124751 -0.361493 -0.361493
0.0952758 -0.379089 -0.379089
0.0998335 -0.419138 -0.419138
0.168332 -0.423002 -0.423002
0.160516 -0.382922 -0.382922
0.0975619 -0.398872 -0.398872
0.134056 -0.420864 -0.420864
0.164433 -0.40272 -0.40272
0.127869 -0.380799 -0.380799
0.130971 -0.40059 -0.40059
0.0998335 -0.419138 -0.419138
0.104333 -0.461114 -0.461114
0.17607 -0.465013 -0.465013
0.168332 -0.423002 -0.423002
0.10209 -0.439885 -0.439885
0.140175 -0.462859 -0.462859
0.172211 -0.443767 -0.443767
0.134056 -0.420864 -0.420864
0.137124 -0.441621 -0.441621
0.104333 -0.461114 -0.461114
0.108772 -0.505008 -0.505008
0.183731 -0.508943 -0.508943
0.17607 -0.465013 -0.465013
0.10656 -0.482822 -0.482822
0.146225 -0.506773 -0.506773
0.17991 -0.486738 -0.486738
0.140175 -0.462859 -0.462859
0.143209 -0.484577 -0.484577
0.108772 -0.505008 -0.505008
0.113151 -0.550808 -0.550808
0.191312 -0.554782 -0.554782
0.183731 -0.508943 -0.508943
0.110969 -0.527671 -0.527671
0.152205 -0.552593 -0.552593
0.187531 -0.531624 -0.531624
0.146225 -0.506773 -0.506773
0.149224 -0.529445 -0.529445
0.113151 -0.550808 -0.550808
0.117467 -0.598504 -0.598504
0.198812 -0.602518 -0.602518
0.191312 -0.554782 -0.554782
0.115317 -0.57442 -0.57442
0.158114 -0.60031 -0.60031
0.195072 -0.578413 -0.578413
0.152205 -0.552593 -0.552593
0.155168 -0.576215 -0.576215
0.117467 -0.598504 -0.598504
0.12172 -0.648085 -0.648085
0.206231 -0.652141 -0.652141
0.198812 -0.602518 -0.602518
0.119602 -0.62306 -0.62306
0.16395 -0.649913 -0.649913
0.202532 -0.627094 -0.627094
0.158114 -0.60031 -0.60031
0.161041 -0.624877 -0.624877
0.12172 -0.648085 -0.648085
0.125909 -0.699538 -0.699538
0.213567 -0.703639 -0.703639
0.206231 -0.652141 -0.652141
0.123823 -0.673578 -0.673578
0.169712 -0.70139 -0.70139
0.20991 -0.677656 -0.677656
0.16395 -0.649913 -0.649913
0.16684 -0.675418 -0.675418
0.125909 -0.699538 -0.699538
0.130032 -0.752854 -0.752854
0.220819 -0.757001 -0.757001
0.213567 -0.703639 -0.703639
0.127979 -0.725964 -0.725964
0.1754 -0.754731 -0.754731
0.217204 -0.730088 -0.730088
0.169712 -0.70139 -0.70139
0.172565 -0.727828 -0.727828
0.130032 -0.752854 -0.752854
0.134088 -0.808022 -0.808022
0.227985 -0.812217 -0.812217
0.220819 -0.757001 -0.757001
0.132068 -0.780207 -0.780207
0.181011 -0.809923 -0.809923
0.224413 -0.784378 -0.784378
0.1754 -0.754731 -0.754731
0.178215 -0.782096 -0.782096
0.134088 -0.808022 -0.808022
0.138076 -0.86503 -0.86503
0.235066 -0.869275 -0.869275
0.227985 -0.812217 -0.812217
0.136091 -0.836297 -0.836297
0.186545 -0.866958 -0.866958
0.231536 -0.840517 -0.840517
0.181011 -0.809923 -0.809923
0.183788 -0.838211 -0.838211
0.138076 -0.86503 -0.86503
0.141995 -0.923868 -0.923868
0.242059 -0.928165 -0.928165
0.235066 -0.869275 -0.869275
0.140044 -0.894221 -0.894221
0.192001 -0.925822 -0.925822
0.238573 -0.898492 -0.898492
0.186545 -0.866958 -0.866958
0.189283 -0.896162 -0.896162
0.141995 -0.923868 -0.923868
0.145845 -0.984524 -0.984524
0.248963 -0.988875 -0.988875
0.242059 -0.928165 -0.928165
0.143929 -0.953969 -0.953969
0.197378 -0.986507 -0.986507
0.245522 -0.958293 -0.958293
0.192001 -0.925822 -0.925822
0.1947 -0.955938 -0.955938
0.145845 -0.984524 -0.984524
0.149623 -1.04699 -1.04699
0.255778 -1.05139 -1.05139
0.248963 -0.988875 -0.988875
0.147742 -1.01553 -1.01553
0.202675 -1.049 -1.049
0.252382 -1.01991 -1.01991
0.197378 -0.986507 -0.986507
0.200037 -1.01753 -1.01753
0.149623 -1.04699 -1.04699
0.153328 -1.11125 -1.11125
0.262502 -1.11571 -1.11571
0.255778 -1.05139 -1.05139
0.151485 -1.07889 -1.07889
0.20789 -1.11329 -1.11329
0.259151 -1.08333 -1.08333
0.202675 -1.049 -1.049
0.205293 -1.08092 -1.08092
0.153328 -1.11125 -1.11125
0.156961 -1.17729 -1.17729
0.269135 -1.18182 -1.18182
0.262502 -1.11571 -1.11571
0.155154 -1.14405 -1.14405
0.213023 -1.17937 -1.17937
0.26583 -1.14854 -1.14854
0.20789 -1.11329 -1.11329
0.210467 -1.1461 -1.1461
0.156961 -1.17729 -1.17729
0.16052 -1.24511 -1.24511
0.275675 -1.2497 -1.2497
0.269135 -1.18182 -1.18182
0.15875 -1.21098 -1.21098
0.218073 -1.24722 -1.24722
0.272417 -1.21553 -1.21553
0.213023 -1.17937 -1.17937
0.215558 -1.21307 -1.21307
0.16052 -1.24511 -1.24511
0.164004 -1.3147 -1.3147
0.282123 -1.31934 -1.31934
0.275675 -1.2497 -1.2497
0.162271 -1.27969 -1.27969
0.223038 -1.31683 -1.31683
0.278911 -1.2843 -1.2843
0.218073 -1.24722 -1.24722
0.220566 -1.28181 -1.28181
0.164004 -1.3147 -1.3147
0.167412 -1.38603 -1.38603
0.288475 -1.39074 -1.39074
0.282123 -1.31934 -1.31934
0.165717 -1.35015 -1.35015
0.227919 -1.3882 -1.3882
0.285311 -1.35482 -1.35482
0.223038 -1.31683 -1.31683
0.225489 -1.3523 -1.3523
0.167412 -1.38603 -1.38603
0.170743 -1.45911 -1.45911
0.294733 -1.46389 -1.46389
0.288475 -1.39074 -1.39074
0.169087 -1.42236 -1.42236
0.232713 -1.46131 -1.46131
0.291616 -1.4271 -1.4271
0.227919 -1.3882 -1.3882
0.230327 -1.42454 -1.42454
0.170743 -1.45911 -1.45911
0.173996 -1.53392 -1.53392
0.300894 -1.53876 -1.53876
0.294733 -1.46389 -1.46389
0.172379 -1.4963 -1.4963
0.237421 -1.53616 -1.53616
0.297825 -1.50111 -1.50111
0.232713 -1.46131 -1.46131
0.235078 -1.49852 -1.49852
0.173996 -1.53392 -1.53392
0.177171 -1.61045 -1.61045
0.306959 -1.61536 -1.61536
0.300894 -1.53876 -1.53876
0.175594 -1.57197 -1.57197
0.24204 -1.61272 -1.61272
0.303938 -1.57684 -1.57684
0.237421 -1.53616 -1.53616
0.239741 -1.57422 -1.57422
0.177171 -1.61045 -1.61045
0.180267 -1.68869 -1.68869
0.312925 -1.69366 -1.69366
0.306959 -1.61536 -1.61536
0.178729 -1.64936 -1.64936
0.246572 -1.69099 -1.69099
0.309954 -1.6543 -1.6543
0.24204 -1.61272 -1.61272
0.244317 -1.65164 -1.65164
0.180267 -1.68869 -1.68869
0.183282 -1.76862 -1.76862
0.318793 -1.77367 -1.77367
0.312925 -1.69366 -1.69366
0.181784 -1.72844 -1.72844
0.251013 -1.77097 -1.77097
0.315872 -1.73345 -1.73345
0.246572 -1.69099 -1.69099
0.248804 -1.73077 -1.73077
0.183282 -1.76862 -1.76862
0.186216 -1.85024 -1.85024
0.324562 -1.85536 -1.85536
0.318793 -1.77367 -1.77367
0.184759 -1.80922 -1.80922
0.255365 -1.85262 -1.85262
0.32169 -1.81431 -1.81431
0.251013 -1.77097 -1.77097
0.2532 -1.81158 -1.81158
0.186216 -1.85024 -1.85024
0.189069 -1.93354 -1.93354
0.330231 -1.93873 -1.93873
0.324562 -1.85536 -1.85536
0.187653 -1.89168 -1.89168
0.259626 -1.93596 -1.93596
0.327409 -1.89684 -1.89684
0.255365 -1.85262 -1.85262
0.257507 -1.89408 -1.89408
0.189069 -1.93354 -1.93354
0.191839 -2.0185 -2.0185
0.335798 -2.02377 -2.02377
0.330231 -1.93873 -1.93873
0.190465 -1.97582 -1.97582
0.263795 -2.02096 -2.02096
0.333027 -1.98104 -1.98104
0.259626 -1.93596 -1.93596
0.261722 -1.97825 -1.97825
0.191839 -2.0185 -2.0185
0.194526 -2.10512 -2.10512
0.341264 -2.11046 -2.11046
0.335798 -2.02377 -2.02377
0.193193 -2.06161 -2.06161
0.267871 -2.10761 -2.10761
0.338544 -2.06691 -2.06691
0.263795 -2.02096 -2.02096
0.265845 -2.06408 -2.06408
0.194526 -2.10512 -2.10512
0.197129 -2.19338 -2.19338
0.346628 -2.1988 -2.1988
0.341264 -2.11046 -2.11046
0.195838 -2.14904 -2.14904
0.271855 -2.19591 -2.19591
0.343959 -2.15442 -2.15442
0.267871 -2.10761 -2.10761
0.269875 -2.15156 -2.15156
0.197129 -2.19338 -2.19338
0.199648 -2.28327 -2.28327
0.351889 -2.28877 -2.28877
0.346628 -2.1988 -2.1988
0.198399 -2.23812 -2.23812
0.275745 -2.28584 -2.28584
0.349272 -2.24358 -2.24358
0.271855 -2.19591 -2.19591
0.273812 -2.24068 -2.24068
0.199648 -2.28327 -2.28327
0.202081 -2.37478 -2.37478
0.357047 -2.38036 -2.38036
0.351889 -2.28877 -2.28877
0.200875 -2.32882 -2.32882
0.27954 -2.3774 -2.3774
0.354481 -2.33436 -2.33436
0.275745 -2.28584 -2.28584
0.277654 -2.33142 -2.33142
0.202081 -2.37478 -2.37478
0.204429 -2.4679 -2.4679
0.3621 -2.47356 -2.47356
0.357047 -2.38036 -2.38036
0.203266 -2.42114 -2.42114
0.28324 -2.47056 -2.47056
0.359586 -2.42676 -2.42676
0.27954 -2.3774 -2.3774
0.281402 -2.42378 -2.42378
0.204429 -2.4679 -2.4679
0.20669 -2.56262 -2.56262
0.367048 -2.56836 -2.56836
0.3621 -2.47356 -2.47356
0.20557 -2.51506 -2.51506
0.286845 -2.56532 -2.56532
0.364587 -2.52076 -2.52076
0.28324 -2.47056 -2.47056
0.285055 -2.51774 -2.51774
0.20669 -2.56262 -2.56262
0.208864 -2.65893 -2.65893
0.37189 -2.66475 -2.66475
0.367048 -2.56836 -2.56836
0.207788 -2.61058 -2.61058
0.290354 -2.66167 -2.66167
0.369482 -2.61636 -2.61636
0.286845 -2.56532 -2.56532
0.288611 -2.6133 -2.6133
0.208864 -2.65893 -2.65893
0.21095 -2.75682 -2.75682
0.376627 -2.76272 -2.76272
0.37189 -2.66475 -2.66475
0.209918 -2.70768 -2.70768
0.293765 -2.7596 -2.7596
0.374272 -2.71354 -2.71354
0.290354 -2.66167 -2.66167
0.292072 -2.71044 -2.71044
0.21095 -2.75682 -2.75682
0.212949 -2.85627 -2.85627
0.381257 -2.86225 -2.86225
0.376627 -2.76272 -2.76272
0.211961 -2.80635 -2.80635
0.297079 -2.85909 -2.85909
0.378955 -2.81229 -2.81229
0.293765 -2.7596 -2.7596
0.295434 -2.80915 -2.80915
0.212949 -2.85627 -2.85627
0.214858 -2.95727 -2.95727
0.38578 -2.96334 -2.96334
0.381257 -2.86225 -2.86225
0.213915 -2.90658 -2.90658
0.300296 -2.96014 -2.96014
0.383532 -2.9126 -2.9126
0.297079 -2.85909 -2.85909
0.2987 -2.90942 -2.90942
0.214858 -2.95727 -2.95727
0.216678 -3.05982 -3.05982
0.390195 -3.06598 -3.06598
0.38578 -2.96334 -2.96334
0.215779 -3.00836 -3.00836
0.303413 -3.06274 -3.06274
0.388001 -3.01447 -3.01447
0.300296 -2.96014 -2.96014
0.301867 -3.01125 -3.01125
0.216678 -3.05982 -3.05982
0.218409 -3.16391 -3.16391
0.394502 -3.17015 -3.17015
0.390195 -3.06598 -3.06598
0.217555 -3.11167 -3.11167
0.306432 -3.16686 -3.16686
0.392362 -3.11787 -3.11787
0.303413 -3.06274 -3.06274
0.304935 -3.11461 -3.11461
0.218409 -3.16391 -3.16391
0.220049 -3.26951 -3.26951
0.398701 -3.27584 -3.27584
0.394502 -3.17015 -3.17015
0.21924 -3.21652 -3.21652
0.309352 -3.27251 -3.27251
0.396615 -3.22281 -3.22281
0.306432 -3.16686 -3.16686
0.307905 -3.2195 -3.2195
0.220049 -3.26951 -3.26951
0.221599 -3.37663 -3.37663
0.402791 -3.38305 -3.38305
0.398701 -3.27584 -3.27584
0.220836 -3.32288 -3.32288
0.312172 -3.37968 -3.37968
0.400759 -3.32926 -3.32926
0.309352 -3.27251 -3.27251
0.310774 -3.32591 -3.32591
0.221599 -3.37663 -3.37663
0.223058 -3.48525 -3.48525
0.406771 -3.49175 -3.49175
0.402791 -3.38305 -3.38305
0.22234 -3.43075 -3.43075
0.314891 -3.48834 -3.48834
0.404794 -3.43721 -3.43721
0.312172 -3.37968 -3.37968
0.313544 -3.43382 -3.43382
0.223058 -3.48525 -3.48525
0.224425 -3.59535 -3.59535
0.410641 -3.60195 -3.60195
0.406771 -3.49175 -3.49175
0.223753 -3.54011 -3.54011
0.31751 -3.59849 -3.59849
0.408719 -3.54666 -3.54666
0.314891 -3.48834 -3.48834
0.316213 -3.54323 -3.54323
0.224425 -3.59535 -3.59535
0.2257 -3.70694 -3.70694
0.414401 -3.71362 -3.71362
0.410641 -3.60195 -3.60195
0.225074 -3.65096 -3.65096
0.320027 -3.71012 -3.71012
0.412534 -3.6576 -3.6576
0.31751 -3.59849 -3.59849
0.318781 -3.65412 -3.65412
0.2257 -3.70694 -3.70694
0.226883 -3.81999 -3.81999
0.41805 -3.82676 -3.82676
0.414401 -3.71362 -3.71362
0.226303 -3.76328 -3.76328
0.322443 -3.82322 -3.82322
0.416239 -3.77001 -3.77001
0.320027 -3.71012 -3.71012
0.321248 -3.76649 -3.76649
0.226883 -3.81999 -3.81999
0.227973 -3.93449 -3.93449
0.421588 -3.94136 -3.94136
0.41805 -3.82676 -3.82676
0.22744 -3.87706 -3.87706
0.324758 -3.93777 -3.93777
0.419833 -3.88388 -3.88388
0.322443 -3.82322 -3.82322
0.323613 -3.88031 -3.88031
0.227973 -3.93449 -3.93449
0.228971 -4.05045 -4.05045
0.425015 -4.05741 -4.05741
0.421588 -3.94136 -3.94136
0.228484 -3.99229 -3.99229
0.32697 -4.05377 -4.05377
0.423315 -3.9992 -3.9992
0.324758 -3.93777 -3.93777
0.325876 -3.99559 -3.99559
0.228971 -4.05045 -4.05045
0.229875 -4.16784 -4.16784
0.42833 -4.17489 -4.17489
0.425015 -4.05741 -4.05741
0.229434 -4.10896 -4.10896
0.329079 -4.17121 -4.17121
0.426686 -4.11597 -4.11597
0.32697 -4.05377 -4.05377
0.328037 -4.11231 -4.11231
0.229875 -4.16784 -4.16784
0.230685 -4.28665 -4.28665
0.431533 -4.29379 -4.29379
0.42833 -4.17489 -4.17489
0.230292 -4.22706 -4.22706
0.331086 -4.29007 -4.29007
0.429945 -4.23416 -4.23416
0.329079 -4.17121 -4.17121
0.330096 -4.23046 -4.23046
0.230685 -4.28665 -4.28665
0.231402 -4.40687 -4.40687
0.434624 -4.41411 -4.41411
0.431533 -4.29379 -4.29379
0.231055 -4.34658 -4.34658
0.33299 -4.41034 -4.41034
0.433092 -4.35377 -4.35377
0.331086 -4.29007 -4.29007
0.332051 -4.35003 -4.35003
0.231402 -4.40687 -4.40687
0.232024 -4.52849 -4.52849
0.437602 -4.53583 -4.53583
0.434624 -4.41411 -4.41411
0.231725 -4.46751 -4.46751
0.33479 -4.53201 -4.53201
0.436127 -4.47479 -4.47479
0.33299 -4.41034 -4.41034
0.333903 -4.471 -4.471
0.232024 -4.52849 -4.52849
0.232553 -4.65151 -4.65151
0.440468 -4.65894 -4.65894
0.437602 -4.53583 -4.53583
0.2323 -4.58983 -4.58983
0.336487 -4.65507 -4.65507
0.439049 -4.59721 -4.59721
0.33479 -4.53201 -4.53201
0.335652 -4.59337 -4.59337
0.232553 -4.65151 -4.65151
0.232986 -4.7759 -4.7759
0.44322 -4.78342 -4.78342
0.440468 -4.65894 -4.65894
0.232781 -4.71354 -4.71354
0.33808 -4.77952 -4.77952
0.441858 -4.72101 -4.72101
0.336487 -4.65507 -4.65507
0.337297 -4.71712 -4.71712
0.232986 -4.7759 -4.7759
0.233325 -4.90167 -4.90167
0.44586 -4.90928 -4.90928
0.44322 -4.78342 -4.78342
0.233167 -4.83862 -4.83862
0.339569 -4.90533 -4.90533
0.444554 -4.84618 -4.84618
0.33808 -4.77952 -4.77952
0.338838 -4.84225 -4.84225
0.233325 -4.90167 -4.90167
0.233568 -5.02879 -5.02879
0.448385 -5.0365 -5.0365
0.44586 -4.90928 -4.90928
0.233458 -4.96506 -4.96506
0.340954 -5.0325 -5.0325
0.447137 -4.97272 -4.97272
0.339569 -4.90533 -4.90533
0.340275 -4.96875 -4.96875
0.233568 -5.02879 -5.02879
0.233717 -5.15726 -5.15726
0.450798 -5.16506 -5.16506
0.448385 -5.0365 -5.0365
0.233655 -5.09286 -5.09286
0.342235 -5.16102 -5.16102
0.449606 -5.10061 -5.10061
0.340954 -5.0325 -5.0325
0.341607 -5.09659 -5.09659
0.233717 -5.15726 -5.15726
0.23377 -5.28706 -5.28706
0.453096 -5.29496 -5.29496
0.450798 -5.16506 -5.16506
0.233755 -5.22199 -5.22199
0.34341 -5.29087 -5.29087
0.451961 -5.22985 -5.22985
0.342235 -5.16102 -5.16102
0.342836 -5.22578 -5.22578
0.23377 -5.28706 -5.28706
0.233728 -5.41819 -5.41819
0.455281 -5.42619 -5.42619
0.453096 -5.29496 -5.29496
0.233761 -5.35246 -5.35246
0.344482 -5.42205 -5.42205
0.454203 -5.36041 -5.36041
0.34341 -5.29087 -5.29087
0.343959 -5.35629 -5.35629
0.233728 -5.41819 -5.41819
0.23359 -5.55063 -5.55063
0.457352 -5.55873 -5.55873
0.455281 -5.42619 -5.42619
0.233671 -5.48425 -5.48425
0.345448 -5.55454 -5.55454
0.456331 -5.49229 -5.49229
0.344482 -5.42205 -5.42205
0.344978 -5.48813 -5.48813
0.23359 -5.55063 -5.55063
0.233356 -5.68438 -5.68438
0.459308 -5.69257 -5.69257
0.457352 -5.55873 -5.55873
0.233485 -5.61734 -5.61734
0.346309 -5.68833 -5.68833
0.458344 -5.62548 -5.62548
0.345448 -5.55454 -5.55454
0.345892 -5.62127 -5.62127
0.233356 -5.68438 -5.68438
0.233026 -5.81942 -5.81942
0.461151 -5.8277 -5.8277
0.459308 -5.69257 -5.69257
0.233203 -5.75174 -5.75174
0.347066 -5.82342 -5.82342
0.460244 -5.75997 -5.75997
0.346309 -5.68833 -5.68833
0.346701 -5.75572 -5.75572
0.233026 -5.81942 -5.81942
0.232601 -5.95573 -5.95573
0.462879 -5.96412 -5.96412
0.461151 -5.8277 -5.8277
0.232826 -5.88742 -5.88742
0.347717 -5.95979 -5.95979
0.462029 -5.89575 -5.89575
0.347066 -5.82342 -5.82342
0.347405 -5.89144 -5.89144
0.232601 -5.95573 -5.95573
0.23208 -6.09332 -6.09332
0.464493 -6.1018 -6.1018
0.462879 -5.96412 -5.96412
0.232352 -6.02437 -6.02437
0.348263 -6.09743 -6.09743
0.4637 -6.0328 -6.0328
0.347717 -5.95979 -5.95979
0.348004 -6.02845 -6.02845
0.23208 -6.09332 -6.09332
0.231462 -6.23217 -6.23217
0.465992 -6.24075 -6.24075
0.464493 -6.1018 -6.1018
0.231783 -6.16259 -6.16259
0.348705 -6.23632 -6.23632
0.465257 -6.17112 -6.17112
0.348263 -6.09743 -6.09743
0.348497 -6.16672 -6.16672
0.231462 -6.23217 -6.23217
0.230749 -6.37227 -6.37227
0.467377 -6.38094 -6.38094
0.465992 -6.24075 -6.24075
0.231118 -6.30206 -6.30206
0.34904 -6.37647 -6.37647
0.466699 -6.31069 -6.31069
0.348705 -6.23632 -6.23632
0.348886 -6.30624 -6.30624
0.230749 -6.37227 -6.37227
0.22994 -6.5136 -6.5136
0.468648 -6.52237 -6.52237
0.467377 -6.38094 -6.38094
0.230356 -6.44278 -6.44278
0.349271 -6.51785 -6.51785
0.468027 -6.4515 -6.4515
0.34904 -6.37647 -6.37647
0.349169 -6.44701 -6.44701
0.22994 -6.5136 -6.5136
0.229034 -6.65616 -6.65616
0.469804 -6.66503 -6.66503
0.468648 -6.52237 -6.52237
0.229499 -6.58473 -6.58473
0.349396 -6.66046 -6.66046
0.46924 -6.59354 -6.59354
0.349271 -6.51785 -6.51785
0.349347 -6.589 -6.589
0.229034 -6.65616 -6.65616
0.228033 -6.79993 -6.79993
0.470846 -6.8089 -6.8089
0.469804 -6.66503 -6.66503
0.228545 -6.72789 -6.72789
0.349417 -6.80428 -6.80428
0.470339 -6.73681 -6.73681
0.349396 -6.66046 -6.66046
0.34942 -6.73222 -6.73222
0.228033 -6.79993 -6.79993
0.226935 -6.94491 -6.94491
0.471773 -6.95397 -6.95397
0.470846 -6.8089 -6.8089
0.227496 -6.87227 -6.87227
0.349332 -6.94931 -6.94931
0.471324 -6.88128 -6.88128
0.349417 -6.80428 -6.80428
0.349387 -6.87665 -6.87665
0.226935 -6.94491 -6.94491
0.225742 -7.09109 -7.09109
0.472587 -7.10024 -7.10024
0.471773 -6.95397 -6.95397
0.226351 -7.01785 -7.01785
0.349142 -7.09554 -7.09554
0.472194 -7.02696 -7.02696
0.349332 -6.94931 -6.94931
0.34925 -7.02228 -7.02228
0.225742 -7.09109 -7.09109
0.224453 -7.23844 -7.23844
0.473286 -7.24769 -7.24769
0.472587 -7.10024 -7.10024
0.22511 -7.16462 -7.16462
0.348847 -7.24294 -7.24294
0.472951 -7.17382 -7.17382
0.349142 -7.09554 -7.09554
0.349007 -7.16909 -7.16909
0.224453 -7.23844 -7.23844
0.223068 -7.38697 -7.38697
0.473871 -7.39632 -7.39632
0.473286 -7.24769 -7.24769
0.223773 -7.31256 -7.31256
0.348447 -7.39152 -7.39152
0.473593 -7.32186 -7.32186
0.348847 -7.24294 -7.24294
0.34866 -7.31708 -7.31708
0.223068 -7.38697 -7.38697
0.221588 -7.53666 -7.53666
0.474342 -7.5461 -7.5461
0.473871 -7.39632 -7.39632
0.22234 -7.46167 -7.46167
0.347942 -7.54125 -7.54125
0.47412 -7.47106 -7.47106
0.348447 -7.39152 -7.39152
0.348208 -7.46624 -7.46624
0.221588 -7.53666 -7.53666
0.220012 -7.68749 -7.68749
0.474699 -7.69703 -7.69703
0.474342 -7.5461 -7.5461
0.220812 -7.61193 -7.61193
0.347333 -7.69214 -7.69214
0.474534 -7.62142 -7.62142
0.347942 -7.54125 -7.54125
0.34765 -7.61655 -7.61655
0.220012 -7.68749 -7.68749
0.21834 -7.83947 -7.83947
0.474942 -7.84911 -7.84911
0.474699 -7.69703 -7.69703
0.219188 -7.76334 -7.76334
0.346618 -7.84417 -7.84417
0.474835 -7.77293 -7.77293
0.347333 -7.69214 -7.69214
0.346989 -7.76801 -7.76801
0.21834 -7.83947 -7.83947
0.216574 -7.99257 -7.99257
0.475072 -8.00231 -8.00231
0.474942 -7.84911 -7.84911
0.217469 -7.91588 -7.91588
0.3458 -7.99732 -7.99732
0.475021 -7.92557 -7.92557
0.346618 -7.84417 -7.84417
0.346222 -7.9206 -7.9206
0.216574 -7.99257 -7.99257
0.214712 -8.14679 -8.14679
0.475088 -8.15662 -8.15662
0.475072 -8.00231 -8.00231
0.215655 -8.06954 -8.06954
0.344877 -8.15159 -8.15159
0.475094 -8.07933 -8.07933
0.3458 -7.99732 -7.99732
0.345352 -8.07431 -8.07431
0.214712 -8.14679 -8.14679
0.212755 -8.30212 -8.30212
0.474991 -8.31204 -8.31204
0.475088 -8.15662 -8.15662
0.213746 -8.22432 -8.22432
0.34385 -8.30696 -8.30696
0.475053 -8.2342 -8.2342
0.344877 -8.15159 -8.15159
0.344377 -8.22914 -8.22914
0.212755 -8.30212 -8.30212
0.210704 -8.45854 -8.45854
0.474781 -8.46856 -8.46856
0.474991 -8.31204 -8.31204
0.211741 -8.3802 -8.3802
0.342719 -8.46344 -8.46344
0.4749 -8.39017 -8.39017
0.34385 -8.30696 -8.30696
0.343298 -8.38506 -8.38506
0.210704 -8.45854 -8.45854
0.208558 -8.61605 -8.61605
0.474457 -8.62616 -8.62616
0.474781 -8.46856 -8.46856
0.209643 -8.53716 -8.53716
0.341485 -8.62099 -8.62099
0.474633 -8.54723 -8.54723
0.342719 -8.46344 -8.46344
0.342115 -8.54208 -8.54208
0.208558 -8.61605 -8.61605
0.206318 -8.77463 -8.77463
0.474022 -8.78484 -8.78484
0.474457 -8.62616 -8.62616
0.20745 -8.69521 -8.69521
0.340147 -8.77962 -8.77962
0.474254 -8.70537 -8.70537
0.341485 -8.62099 -8.62099
0.340829 -8.70017 -8.70017
0.206318 -8.77463 -8.77463
0.203983 -8.93427 -8.93427
0.473473 -8.94457 -8.94457
0.474022 -8.78484 -8.78484
0.205162 -8.85432 -8.85432
0.338705 -8.93931 -8.93931
0.473762 -8.86457 -8.86457
0.340147 -8.77962 -8.77962
0.339439 -8.85933 -8.85933
0.203983 -8.93427 -8.93427
0.201555 -9.09497 -9.09497
0.472813 -9.10536 -9.10536
0.473473 -8.94457 -8.94457
0.202781 -9.01449 -9.01449
0.337161 -9.10005 -9.10005
0.473157 -9.02483 -9.02483
0.338705 -8.93931 -8.93931
0.337946 -9.01955 -9.01955
0.201555 -9.09497 -9.09497
0.199033 -9.2567 -9.2567
0.472041 -9.26719 -9.26719
0.472813 -9.10536 -9.10536
0.200306 -9.1757 -9.1757
0.335514 -9.26183 -9.26183
0.472441 -9.18614 -9.18614
0.337161 -9.10005 -9.10005
0.33635 -9.18081 -9.18081
0.199033 -9.2567 -9.2567
0.196418 -9.41946 -9.41946
0.471157 -9.43004 -9.43004
0.472041 -9.26719 -9.26719
0.197737 -9.33795 -9.33795
0.333764 -9.42464 -9.42464
0.471612 -9.34849 -9.34849
0.335514 -9.26183 -9.26183
0.334652 -9.34311 -9.34311
0.196418 -9.41946 -9.41946
0.19371 -9.58325 -9.58325
0.470161 -9.59392 -9.59392
0.471157 -9.43004 -9.43004
0.195076 -9.50123 -9.50123
0.331912 -9.58847 -9.58847
0.470673 -9.51185 -9.51185
0.333764 -9.42464 -9.42464
0.332851 -9.50643 -9.50643
0.19371 -9.58325 -9.58325
0.190909 -9.74804 -9.74804
0.469054 -9.7588 -9.7588
0.470161 -9.59392 -9.59392
0.192321 -9.66552 -9.66552
0.329959 -9.75331 -9.75331
0.469622 -9.67623 -9.67623
0.331912 -9.58847 -9.58847
0.330948 -9.67077 -9.67077
0.190909 -9.74804 -9.74804
0.188016 -9.91383 -9.91383
0.467837 -9.92468 -9.92468
0.469054 -9.7588 -9.7588
0.189474 -9.83081 -9.83081
0.327903 -9.91914 -9.91914
0.46846 -9.84161 -9.84161
0.329959 -9.75331 -9.75331
0.328944 -9.8361 -9.8361
0.188016 -9.91383 -9.91383
0.18503 -10.0806 -10.0806
0.466509 -10.0915 -10.0915
0.467837 -9.92468 -9.92468
0.186534 -9.99709 -9.99709
0.325747 -10.086 -10.086
0.467187 -10.008 -10.008
0.327903 -9.91914 -9.91914
0.326838 -10.0024 -10.0024
0.18503 -10.0806 -10.0806
0.181953 -10.2483 -10.2483
0.465071 -10.2594 -10.2594
0.466509 -10.0915 -10.0915
0.183503 -10.1644 -10.1644
0.323489 -10.2538 -10.2538
0.465804 -10.1753 -10.1753
0.325747 -10.086 -10.086
0.32463 -10.1697 -10.1697
0.181953 -10.2483 -10.2483
0.178784 -10.4171 -10.4171
0.463524 -10.4282 -10.4282
0.465071 -10.2594 -10.2594
0.18038 -10.3326 -10.3326
0.321131 -10.4225 -10.4225
0.464311 -10.3437 -10.3437
0.323489 -10.2538 -10.2538
0.322322 -10.338 -10.338
0.178784 -10.4171 -10.4171
0.175524 -10.5867 -10.5867
0.461867 -10.5979 -10.5979
0.463524 -10.4282 -10.4282
0.177166 -10.5018 -10.5018
0.318672 -10.5922 -10.5922
0.462709 -10.5129 -10.5129
0.321131 -10.4225 -10.4225
0.319914 -10.5073 -10.5073
0.175524 -10.5867 -10.5867
0.172174 -10.7573 -10.7573
0.4601 -10.7686 -10.7686
0.461867 -10.5979 -10.5979
0.17386 -10.6719 -10.6719
0.316114 -10.7629 -10.7629
0.460997 -10.6832 -10.6832
0.318672 -10.5922 -10.5922
0.317406 -10.6774 -10.6774
0.172174 -10.7573 -10.7573
0.168733 -10.9289 -10.9289
0.458225 -10.9403 -10.9403
0.4601 -10.7686 -10.7686
0.170465 -10.843 -10.843
0.313456 -10.9345 -10.9345
0.459176 -10.8543 -10.8543
0.316114 -10.7629 -10.7629
0.314797 -10.8486 -10.8486
0.168733 -10.9289 -10.9289
0.165202 -11.1013 -11.1013
0.456242 -11.1128 -11.1128
0.458225 -10.9403 -10.9403
0.166979 -11.015 -11.015
0.310699 -11.107 -11.107
0.457247 -11.0264 -11.0264
0.313456 -10.9345 -10.9345
0.31209 -11.0206 -11.0206
0.165202 -11.1013 -11.1013
0.161582 -11.2747 -11.2747
0.454151 -11.2863 -11.2863
0.456242 -11.1128 -11.1128
0.163403 -11.1879 -11.1879
0.307843 -11.2804 -11.2804
0.45521 -11.1994 -11.1994
0.310699 -11.107 -11.107
0.309284 -11.1936 -11.1936
0.161582 -11.2747 -11.2747
0.157873 -11.449 -11.449
0.451953 -11.4606 -11.4606
0.454151 -11.2863 -11.2863
0.159739 -11.3617 -11.3617
0.304889 -11.4547 -11.4547
0.453066 -11.3733 -11.3733
0.307843 -11.2804 -11.2804
0.306379 -11.3674 -11.3674
0.157873 -11.449 -11.449
0.154075 -11.6241 -11.6241
0.449648 -11.6358 -11.6358
0.451953 -11.4606 -11.4606
0.155985 -11.5364 -11.5364
0.301838 -11.6299 -11.6299
0.450814 -11.5481 -11.5481
0.304889 -11.4547 -11.4547
0.303376 -11.5422 -11.5422
0.154075 -11.6241 -11.6241
0.150189 -11.8002 -11.8002
0.447236 -11.812 -11.812
0.449648 -11.6358 -11.6358
0.152143 -11.712 -11.712
0.298689 -11.806 -11.806
0.448455 -11.7238 -11.7238
0.301838 -11.6299 -11.6299
0.300275 -11.7178 -11.7178
0.150189 -11.8002 -11.8002
0.146215 -11.9771 -11.9771
0.444718 -11.9889 -11.9889
0.447236 -11.812 -11.812
0.148212 -11.8885 -11.8885
0.295442 -11.9829 -11.9829
0.44599 -11.9003 -11.9003
0.298689 -11.806 -11.806
0.297078 -11.8943 -11.8943
0.146215 -11.9771 -11.9771
0.142153 -12.1548 -12.1548
0.442094 -12.1668 -12.1668
0.444718 -11.9889 -11.9889
0.144195 -12.0658 -12.0658
0.2921 -12.1607 -12.1607
0.443419 -12.0778 -12.0778
0.295442 -11.9829 -11.9829
0.293783 -12.0717 -12.0717
0.142153 -12.1548 -12.1548
0.138005 -12.3334 -12.3334
0.439365 -12.3455 -12.3455
0.442094 -12.1668 -12.1668
0.14009 -12.244 -12.244
0.288661 -12.3393 -12.3393
0.440743 -12.256 -12.256
0.2921 -12.1607 -12.1607
0.290393 -12.2499 -12.2499
0.138005 -12.3334 -12.3334
0.133771 -12.5128 -12.5128
0.436531 -12.525 -12.525
0.439365 -12.3455 -12.3455
0.135899 -12.423 -12.423
0.285127 -12.5188 -12.5188
0.437961 -12.4351 -12.4351
0.288661 -12.3393 -12.3393
0.286906 -12.429 -12.429
0.133771 -12.5128 -12.5128
0.12945 -12.6931 -12.6931
0.433594 -12.7053 -12.7053
0.436531 -12.525 -12.525
0.131621 -12.6029 -12.6029
0.281498 -12.6991 -12.6991
0.435076 -12.615 -12.615
0.285127 -12.5188 -12.5188
0.283325 -12.6089 -12.6089
0.12945 -12.6931 -12.6931
0.125045 -12.8742 -12.8742
0.430552 -12.8865 -12.8865
0.433594 -12.7053 -12.7053
0.127258 -12.7835 -12.7835
0.277775 -12.8802 -12.8802
0.432086 -12.7958 -12.7958
0.281498 -12.6991 -12.6991
0.279648 -12.7896 -12.7896
0.125045 -12.8742 -12.8742
0.120554 -13.056 -13.056
0.427408 -13.0684 -13.0684
0.430552 -12.8865 -12.8865
0.12281 -12.965 -12.965
0.273957 -13.0621 -13.0621
0.428993 -12.9773 -12.9773
0.277775 -12.8802 -12.8802
0.275878 -12.9711 -12.9711
0.120554 -13.056 -13.056
0.115979 -13.2387 -13.2387
0.424161 -13.2511 -13.2511
0.427408 -13.0684 -13.0684
0.118277 -13.1473 -13.1473
0.270046 -13.2448 -13.2448
0.425797 -13.1597 -13.1597
0.273957 -13.0621 -13.0621
0.272013 -13.1534 -13.1534
0.115979 -13.2387 -13.2387
0.111321 -13.4221 -13.4221
0.420811 -13.4346 -13.4346
0.424161 -13.2511 -13.2511
0.11366 -13.3303 -13.3303
0.266042 -13.4283 -13.4283
0.422499 -13.3428 -13.3428
0.270046 -13.2448 -13.2448
0.268056 -13.3365 -13.3365
0.111321 -13.4221 -13.4221
0.106579 -13.6063 -13.6063
0.417361 -13.6189 -13.6189
0.420811 -13.4346 -13.4346
0.10896 -13.5141 -13.5141
0.261946 -13.6125 -13.6125
0.419099 -13.5267 -13.5267
0.266042 -13.4283 -13.4283
0.264005 -13.5203 -13.5203
0.106579 -13.6063 -13.6063
0.101754 -13.7913 -13.7913
0.413809 -13.804 -13.804
0.417361 -13.6189 -13.6189
0.104177 -13.6987 -13.6987
0.257758 -13.7975 -13.7975
0.415597 -13.7113 -13.7113
0.261946 -13.6125 -13.6125
0.259863 -13.7049 -13.7049
0.101754 -13.7913 -13.7913
0.096848 -13.977 -13.977
0.410157 -13.9897 -13.9897
0.413809 -13.804 -13.804
0.0993115 -13.884 -13.884
0.253478 -13.9833 -13.9833
0.411995 -13.8968 -13.8968
0.257758 -13.7975 -13.7975
0.255629 -13.8903 -13.8903
0.096848 -13.977 -13.977
0.09186 -14.1634 -14.1634
0.406405 -14.1762 -14.1762
0.410157 -13.9897 -13.9897
0.0943641 -14.0701 -14.0701
0.249108 -14.1698 -14.1698
0.408293 -14.0829 -14.0829
0.253478 -13.9833 -13.9833
0.251304 -14.0764 -14.0764
0.09186 -14.1634 -14.1634
0.0867911 -14.3506 -14.3506
0.402554 -14.3635 -14.3635
0.406405 -14.1762 -14.1762
0.0893356 -14.2569 -14.2569
0.244648 -14.357 -14.357
0.404492 -14.2698 -14.2698
0.249108 -14.1698 -14.1698
0.246889 -14.2633 -14.2633
0.0867911 -14.3506 -14.3506
0.0816418 -14.5385 -14.5385
0.398604 -14.5514 -14.5514
0.402554 -14.3635 -14.3635
0.0842264 -14.4445 -14.4445
0.240098 -14.5449 -14.5449
0.400591 -14.4574 -14.4574
0.244648 -14.357 -14.357
0.242384 -14.4508 -14.4508
0.0816418 -14.5385 -14.5385
0.0764129 -14.7271 -14.7271
0.394556 -14.7401 -14.7401
0.398604 -14.5514 -14.5514
0.0790373 -14.6327 -14.6327
0.23546 -14.7335 -14.7335
0.396592 -14.6457 -14.6457
0.240098 -14.5449 -14.5449
0.23779 -14.6391 -14.6391
0.0764129 -14.7271 -14.7271
0.0711048 -14.9163 -14.9163
0.390411 -14.9294 -14.9294
0.394556 -14.7401 -14.7401
0.0737687 -14.8216 -14.8216
0.230733 -14.9228 -14.9228
0.392496 -14.8347 -14.8347
0.23546 -14.7335 -14.7335
0.233108 -14.8281 -14.8281
0.0711048 -14.9163 -14.9163
0.0657183 -15.1063 -15.1063
0.386169 -15.1195 -15.1195
0.390411 -14.9294 -14.9294
0.0684213 -15.0112 -15.0112
0.225919 -15.1128 -15.1128
0.388302 -15.0244 -15.0244
0.230733 -14.9228 -14.9228
0.228337 -15.0177 -15.0177
0.0657183 -15.1063 -15.1063
0.0602539 -15.2969 -15.2969
0.381831 -15.3101 -15.3101
0.386169 -15.1195 -15.1195
0.0629958 -15.2015 -15.2015
0.221018 -15.3035 -15.3035
0.384012 -15.2147 -15.2147
0.225919 -15.1128 -15.1128
0.223479 -15.208 -15.208
0.0602539 -15.2969 -15.2969
0.0547123 -15.4882 -15.4882
0.377397 -15.5015 -15.5015
0.381831 -15.3101 -15.3101
0.0574927 -15.3925 -15.3925
0.21603 -15.4948 -15.4948
0.379626 -15.4057 -15.4057
0.221018 -15.3035 -15.3035
0.218534 -15.399 -15.399
0.0547123 -15.4882 -15.4882
0.0490942 -15.6801 -15.6801
0.372868 -15.6935 -15.6935
0.377397 -15.5015 -15.5015
0.0519128 -15.5841 -15.5841
0.210956 -15.6867 -15.6867
0.375144 -15.5974 -15.5974
0.21603 -15.4948 -15.4948
0.213504 -15.5907 -15.5907
0.0490942 -15.6801 -15.6801
0.0434001 -15.8727 -15.8727
0.368245 -15.8861 -15.8861
0.372868 -15.6935 -15.6935
0.0462566 -15.7763 -15.7763
0.205798 -15.8793 -15.8793
0.370569 -15.7897 -15.7897
0.210956 -15.6867 -15.6867
0.208388 -15.783 -15.783
0.0434001 -15.8727 -15.8727
0.0376308 -16.0659 -16.0659
0.363529 -16.0794 -16.0794
0.368245 -15.8861 -15.8861
0.0405248 -15.9692 -15.9692
0.200555 -16.0726 -16.0726
0.365899 -15.9827 -15.9827
0.205798 -15.8793 -15.8793
0.203187 -15.9759 -15.9759
0.0376308 -16.0659 -16.0659
0.031787 -16.2597 -16.2597
0.35872 -16.2733 -16.2733
0.363529 -16.0794 -16.0794
0.0347182 -16.1627 -16.1627
0.195228 -16.2664 -16.2664
0.361136 -16.1762 -16.1762
0.200555 -16.0726 -16.0726
0.197902 -16.1694 -16.1694
0.031787 -16.2597 -16.2597
0.0258693 -16.4541 -16.4541
0.353819 -16.4677 -16.4677
0.35872 -16.2733 -16.2733
0.0288373 -16.3569 -16.3569
0.189819 -16.4609 -16.4609
0.356281 -16.3704 -16.3704
0.195228 -16.2664 -16.2664
0.192534 -16.3636 -16.3636
0.0258693 -16.4541 -16.4541
0.0198784 -16.6491 -16.6491
0.348826 -16.6628 -16.6628
0.353819 -16.4677 -16.4677
0.022883 -16.5516 -16.5516
0.184327 -16.6559 -16.6559
0.351333 -16.5652 -16.5652
0.189819 -16.4609 -16.4609
0.187083 -16.5583 -16.5583
0.0198784 -16.6491 -16.6491
0.013815 -16.8447 -16.8447
0.343742 -16.8585 -16.8585
0.348826 -16.6628 -16.6628
0.0168557 -16.7469 -16.7469
0.178753 -16.8515 -16.8515
0.346295 -16.7606 -16.7606
0.184327 -16.6559 -16.6559
0.18155 -16.7537 -16.7537
0.013815 -16.8447 -16.8447
0.00767984 -17.0409 -17.0409
0.338568 -17.0547 -17.0547
0.343742 -16.8585 -16.8585
0.0107564 -16.9428 -16.9428
0.173099 -17.0477 -17.0477
0.341166 -16.9565 -16.9565
0.178753 -16.8515 -16.8515
0.175936 -16.9496 -16.9496
0.00767984 -17.0409 -17.0409
0.00147358 -17.2376 -17.2376
0.333305 -17.2515 -17.2515
0.338568 -17.0547 -17.0547
0.00458555 -17.1392 -17.1392
0.167364 -17.2445 -17.2445
0.335948 -17.153 -17.153
0.173099 -17.0477 -17.0477
0.170241 -17.146 -17.146
0.00147358 -17.2376 -17.2376
-0.00480302 -17.4349 -17.4349
0.327953 -17.4488 -17.4488
0.333305 -17.2515 -17.2515
-0.00165597 -17.3362 -17.3362
0.16155 -17.4418 -17.4418
0.33064 -17.3501 -17.3501
0.167364 -17.2445 -17.2445
0.164467 -17.3431 -17.3431
-0.00480302 -17.4349 -17.4349
-0.0111493 -17.6327 -17.6327
0.322514 -17.6467 -17.6467
0.327953 -17.4488 -17.4488
-0.00796749 -17.5338 -17.5338
0.155657 -17.6396 -17.6396
0.325244 -17.5477 -17.5477
0.16155 -17.4418 -17.4418
0.158613 -17.5407 -17.5407
-0.0111493 -17.6327 -17.6327
-0.0175644 -17.8311 -17.8311
0.316987 -17.8451 -17.8451
0.322514 -17.6467 -17.6467
-0.0143483 -17.7318 -17.7318
0.149686 -17.838 -17.838
0.319761 -17.7458 -17.7458
0.155657 -17.6396 -17.6396
0.152681 -17.7388 -17.7388
-0.0175644 -17.8311 -17.8311
-0.0240477 -18.03 -18.03
0.311373 -18.044 -18.044
0.316987 -17.8451 -17.8451
-0.0207976 -17.9305 -17.9305
0.143637 -18.0369 -18.0369
0.314191 -17.9445 -17.9445
0.149686 -17.838 -17.838
0.146671 -17.9374 -17.9374
-0.0240477 -18.03 -18.03
-0.0305984 -18.2293 -18.2293
0.305674 -18.2434 -18.2434
0.311373 -18.044 -18.044
-0.0273147 -18.1296 -18.1296
0.137512 -18.2363 -18.2363
0.308535 -18.1436 -18.1436
0.143637 -18.0369 -18.0369
0.140584 -18.1365 -18.1365
-0.0305984 -18.2293 -18.2293
-0.0372158 -18.4292 -18.4292
0.29989 -18.4433 -18.4433
0.305674 -18.2434 -18.2434
-0.0338988 -18.3292 -18.3292
0.131311 -18.4362 -18.4362
0.302793 -18.3433 -18.3433
0.137512 -18.2363 -18.2363
0.134421 -18.3362 -18.3362
-0.0372158 -18.4292 -18.4292
-0.043899 -18.6296 -18.6296
0.294022 -18.6437 -18.6437
0.29989 -18.4433 -18.4433
-0.0405492 -18.5293 -18.5293
0.125036 -18.6366 -18.6366
0.296967 -18.5435 -18.5435
0.131311 -18.4362 -18.4362
0.128183 -18.5363 -18.5363
-0.043899 -18.6296 -18.6296
-0.0506474 -18.8304 -18.8304
0.288071 -18.8446 -18.8446
0.294022 -18.6437 -18.6437
-0.0472651 -18.7299 -18.7299
0.118686 -18.8374 -18.8374
0.291057 -18.7441 -18.7441
0.125036 -18.6366 -18.6366
0.12187 -18.7369 -18.7369
-0.0506474 -18.8304 -18.8304
-0.0574602 -19.0317 -19.0317
0.282036 -19.0459 -19.0459
0.288071 -18.8446 -18.8446
-0.0540458 -18.931 -18.931
0.112262 -19.0388 -19.0388
0.285064 -18.9452 -18.9452
0.118686 -18.8374 -18.8374
0.115483 -18.938 -18.938
-0.0574602 -19.0317 -19.0317
-0.0643365 -19.2334 -19.2334
0.27592 -19.2477 -19.2477
0.282036 -19.0459 -19.0459
-0.0608905 -19.1325 -19.1325
0.105766 -19.2405 -19.2405
0.278988 -19.1468 -19.1468
0.112262 -19.0388 -19.0388
0.109023 -19.1396 -19.1396
-0.0643365 -19.2334 -19.2334
-0.0712757 -19.4356 -19.4356
0.269723 -19.4499 -19.4499
0.27592 -19.2477 -19.2477
-0.0677983 -19.3345 -19.3345
0.0991974 -19.4427 -19.4427
0.272832 -19.3488 -19.3488
0.105766 -19.2405 -19.2405
0.10249 -19.3416 -19.3416
-0.0712757 -19.4356 -19.4356
-0.0782768 -19.6382 -19.6382
0.263445 -19.6526 -19.6526
0.269723 -19.4499 -19.4499
-0.0747686 -19.5369 -19.5369
0.0925579 -19.6454 -19.6454
0.266594 -19.5512 -19.5512
0.0991974 -19.4427 -19.4427
0.0958865 -19.544 -19.544
-0.0782768 -19.6382 -19.6382
-0.0853392 -19.8413 -19.8413
0.257088 -19.8557 -19.8557
0.263445 -19.6526 -19.6526
-0.0818004 -19.7397 -19.7397
0.0858481 -19.8484 -19.8484
0.260277 -19.7541 -19.7541
0.0925579 -19.6454 -19.6454
0.0892118 -19.7468 -19.7468
-0.0853392 -19.8413 -19.8413
-0.092462 -20.0447 -20.0447
0.250653 -20.0592 -20.0592
0.257088 -19.8557 -19.8557
-0.0888931 -19.9429 -19.9429
0.0790688 -20.0519 -20.0519
0.25388 -19.9574 -19.9574
0.0858481 -19.8484 -19.8484
0.0824671 -19.9501 -19.9501
-0.092462 -20.0447 -20.0447
-0.0996444 -20.2486 -20.2486
0.244139 -20.263 -20.263
0.250653 -20.0592 -20.0592
-0.0960458 -20.1466 -20.1466
0.0722207 -20.2558 -20.2558
0.247405 -20.1611 -20.1611
0.0790688 -20.0519 -20.0519
0.0756533 -20.1538 -20.1538
-0.0996444 -20.2486 -20.2486
-0.106886 -20.4528 -20.4528
0.237548 -20.4673 -20.4673
0.244139 -20.263 -20.263
-0.103258 -20.3506 -20.3506
0.0653046 -20.46 -20.46
0.240853 -20.3651 -20.3651
0.0722207 -20.2558 -20.2558
0.0687711 -20.3578 -20.3578
-0.106886 -20.4528 -20.4528
-0.114185 -20.6574 -20.6574
0.230881 -20.672 -20.672
0.237548 -20.4673 -20.4673
-0.110528 -20.5551 -20.5551
0.0583214 -20.6646 -20.6646
0.234224 -20.5696 -20.5696
0.0653046 -20.46 -20.46
0.0618213 -20.5623 -20.5623
-0.114185 -20.6574 -20.6574
-0.121541 -20.8624 -20.8624
0.224139 -20.877 -20.877
0.230881 -20.672 -20.672
-0.117856 -20.7599 -20.7599
0.0512719 -20.8696 -20.8696
0.227519 -20.7744 -20.7744
0.0583214 -20.6646 -20.6646
0.0548049 -20.7671 -20.7671
-0.121541 -20.8624 -20.8624
-0.128954 -21.0677 -21.0677
0.217322 -21.0823 -21.0823
0.224139 -20.877 -20.877
-0.125241 -20.965 -20.965
0.0441569 -21.075 -21.075
0.220739 -20.9796 -20.9796
0.0512719 -20.8696 -20.8696
0.0477225 -20.9723 -20.9723
-0.128954 -21.0677 -21.0677
-0.136422 -21.2734 -21.2734
0.210431 -21.288 -21.288
0.217322 -21.0823 -21.0823
-0.132681 -21.1705 -21.1705
0.0369772 -21.2807 -21.2807
0.213885 -21.1851 -21.1851
0.0441569 -21.075 -21.075
0.0405751 -21.1778 -21.1778
-0.136422 -21.2734 -21.2734
-0.143945 -21.4794 -21.4794
0.203467 -21.4941 -21.4941
0.210431 -21.288 -21.288
-0.140177 -21.3764 -21.3764
0.0297337 -21.4867 -21.4867
0.206958 -21.391 -21.391
0.0369772 -21.2807 -21.2807
0.0333634 -21.3837 -21.3837
-0.143945 -21.4794 -21.4794
-0.151522 -21.6857 -21.6857
0.196431 -21.7004 -21.7004
0.203467 -21.4941 -21.4941
-0.147727 -21.5825 -21.5825
0.0224272 -21.6931 -21.6931
0.199958 -21.5972 -21.5972
0.0297337 -21.4867 -21.4867
0.0260883 -21.5898 -21.5898
-0.151522 -21.6857 -21.6857
-0.159152 -21.8924 -21.8924
0.189324 -21.9071 -21.9071
0.196431 -21.7004 -21.7004
-0.15533 -21.789 -21.789
0.0150586 -21.8997 -21.8997
0.192886 -21.8037 -21.8037
0.0224272 -21.6931 -21.6931
0.0187507 -21.7963 -21.7963
-0.159152 -21.8924 -21.8924
-0.166834 -22.0993 -22.0993
0.182146 -22.1141 -22.1141
0.189324 -21.9071 -21.9071
-0.162986 -21.9958 -21.9958
0.00762872 -22.1067 -22.1067
0.185743 -22.0106 -22.0106
0.0150586 -21.8997 -21.8997
0.0113513 -22.0032 -22.0032
-0.166834 -22.0993 -22.0993
-0.174567 -22.3066 -22.3066
0.174898 -22.3213 -22.3213
0.182146 -22.1141 -22.1141
-0.170694 -22.2029 -22.2029
0.000138363 -22.3139 -22.3139
0.178531 -22.2177 -22.2177
0.00762872 -22.1067 -22.1067
0.00389105 -22.2103 -22.2103
-0.174567 -22.3066 -22.3066
-0.18235 -22.5141 -22.5141
0.167582 -22.5289 -22.5289
0.174898 -22.3213 -22.3213
-0.178452 -22.4103 -22.4103
-0.00741159 -22.5214 -22.5214
0.171249 -22.4251 -22.4251
0.000138363 -22.3139 -22.3139
-0.00362922 -22.4176 -22.4176
-0.18235 -22.5141 -22.5141
-0.190184 -22.7219 -22.7219
0.160199 -22.7367 -22.7367
0.167582 -22.5289 -22.5289
-0.186261 -22.6179 -22.6179
-0.0150203 -22.7292 -22.7292
0.163899 -22.6327 -22.6327
-0.00741159 -22.5214 -22.5214
-0.0112086 -22.6253 -22.6253
-0.190184 -22.7219 -22.7219
-0.198066 -22.9299 -22.9299
0.152748 -22.9447 -22.9447
0.160199 -22.7367 -22.7367
-0.194119 -22.8259 -22.8259
-0.0226868 -22.9373 -22.9373
0.156481 -22.8407 -22.8407
-0.0150203 -22.7292 -22.7292
-0.0188464 -22.8332 -22.8332
-0.198066 -22.9299 -22.9299
-0.205996 -23.1382 -23.1382
0.145231 -23.153 -23.153
0.152748 -22.9447 -22.9447
-0.202025 -23.034 -23.034
-0.0304104 -23.1456 -23.1456
0.148997 -23.0489 -23.0489
-0.0226868 -22.9373 -22.9373
-0.0265416 -23.0414 -23.0414
-0.205996 -23.1382 -23.1382
-0.213973 -23.3467 -23.3467
0.137648 -23.3616 -23.3616
0.145231 -23.153 -23.153
-0.209978 -23.2424 -23.2424
-0.0381901 -23.3541 -23.3541
0.141447 -23.2573 -23.2573
-0.0304104 -23.1456 -23.1456
-0.0342933 -23.2498 -23.2498
-0.213973 -23.3467 -23.3467
-0.221996 -23.5555 -23.5555
0.130001 -23.5703 -23.5703
0.137648 -23.3616 -23.3616
-0.217978 -23.4511 -23.4511
-0.0460251 -23.5629 -23.5629
0.133833 -23.4659 -23.4659
-0.0381901 -23.3541 -23.3541
-0.0421008 -23.4585 -23.4585
-0.221996 -23.5555 -23.5555
-0.230064 -23.7644 -23.7644
0.122291 -23.7793 -23.7793
0.130001 -23.5703 -23.5703
-0.226024 -23.6599 -23.6599
-0.0539145 -23.7719 -23.7719
0.126154 -23.6748 -23.6748
-0.0460251 -23.5629 -23.5629
-0.0499631 -23.6673 -23.6673
-0.230064 -23.7644 -23.7644
-0.238177 -23.9736 -23.9736
0.114518 -23.9885 -23.9885
0.122291 -23.7793 -23.7793
-0.234115 -23.869 -23.869
-0.0618575 -23.981 -23.981
0.118412 -23.8839 -23.8839
-0.0539145 -23.7719 -23.7719
-0.0578794 -23.8764 -23.8764
-0.238177 -23.9736 -23.9736
-0.246333 -24.183 -24.183
0.106683 -24.1979 -24.1979
0.114518 -23.9885 -23.9885
-0.242249 -24.0783 -24.0783
-0.069853 -24.1904 -24.1904
0.110608 -24.0931 -24.0931
-0.0618575 -23.981 -23.981
-0.0658487 -24.0857 -24.0857
-0.246333 -24.183 -24.183
-0.254531 -24.3925 -24.3925
0.0987876 -24.4074 -24.4074
0.106683 -24.1979 -24.1979
-0.250427 -24.2877 -24.2877
-0.0779004 -24.3999 -24.3999
0.102743 -24.3026 -24.3026
-0.069853 -24.1904 -24.1904
-0.0738703 -24.2951 -24.2951
-0.254531 -24.3925 -24.3925
-0.262772 -24.6022 -24.6022
0.0908319 -24.6171 -24.6171
0.0987876 -24.4074 -24.4074
-0.258647 -24.4973 -24.4973
-0.0859986 -24.6097 -24.6097
0.0948172 -24.5122 -24.5122
-0.0779004 -24.3999 -24.3999
-0.0819432 -24.5048 -24.5048
-0.262772 -24.6022 -24.6022
-0.271053 -24.8121 -24.8121
0.082817 -24.827 -24.827
0.0908319 -24.6171 -24.6171
-0.266908 -24.7071 -24.7071
-0.0941468 -24.8195 -24.8195
0.0868318 -24.722 -24.722
-0.0859986 -24.6097 -24.6097
-0.0900665 -24.7146 -24.7146
-0.271053 -24.8121 -24.8121
-0.279375 -25.0221 -25.0221
0.074744 -25.037 -25.037
0.082817 -24.827 -24.827
-0.275209 -24.9171 -24.9171
-0.102344 -25.0296 -25.0296
0.0787877 -24.932 -24.932
-0.0941468 -24.8195 -24.8195
-0.0982394 -24.9245 -24.9245
-0.279375 -25.0221 -25.0221
-0.287735 -25.2323 -25.2323
0.0666136 -25.2472 -25.2472
0.074744 -25.037 -25.037
-0.28355 -25.1272 -25.1272
-0.11059 -25.2397 -25.2397
0.0706859 -25.1421 -25.1421
-0.102344 -25.0296 -25.0296
-0.106461 -25.1346 -25.1346
-0.287735 -25.2323 -25.2323
-0.296134 -25.4426 -25.4426
0.0584269 -25.4575 -25.4575
0.0666136 -25.2472 -25.2472
-0.29193 -25.3374 -25.3374
-0.118883 -25.45 -25.45
0.0625272 -25.3523 -25.3523
-0.11059 -25.2397 -25.2397
-0.11473 -25.3448 -25.3448
-0.296134 -25.4426 -25.4426
-0.304571 -25.653 -25.653
0.0501846 -25.6679 -25.6679
0.0584269 -25.4575 -25.4575
-0.300348 -25.5478 -25.5478
-0.127222 -25.6604 -25.6604
0.0543126 -25.5627 -25.5627
-0.118883 -25.45 -25.45
-0.123047 -25.5552 -25.5552
-0.304571 -25.653 -25.653
-0.313045 -25.8635 -25.8635
0.0418878 -25.8784 -25.8784
0.0501846 -25.6679 -25.6679
-0.308803 -25.7582 -25.7582
-0.135608 -25.8709 -25.8709
0.046043 -25.7731 -25.7731
-0.127222 -25.6604 -25.6604
-0.131409 -25.7657 -25.7657
-0.313045 -25.8635 -25.8635
-0.321556 -26.0741 -26.0741
0.0335373 -26.089 -26.089
0.0418878 -25.8784 -25.8784
-0.317296 -25.9688 -25.9688
-0.144039 -26.0815 -26.0815
0.0377192 -25.9837 -25.9837
-0.135608 -25.8709 -25.8709
-0.139818 -25.9762 -25.9762
-0.321556 -26.0741 -26.0741
-0.330104 -26.2848 -26.2848
0.0251338 -26.2997 -26.2997
0.0335373 -26.089 -26.089
-0.325825 -26.1794 -26.1794
-0.152515 -26.2922 -26.2922
0.0293421 -26.1943 -26.1943
-0.144039 -26.0815 -26.0815
-0.148271 -26.1869 -26.1869
-0.330104 -26.2848 -26.2848
-0.338691 -26.4956 -26.4956
0.016678 -26.5104 -26.5104
0.0251338 -26.2997 -26.2997
-0.334393 -26.3902 -26.3902
-0.161038 -26.503 -26.503
0.0209125 -26.405 -26.405
-0.152515 -26.2922 -26.2922
-0.156771 -26.3976 -26.3976
-0.338691 -26.4956 -26.4956
-0.347318 -26.7064 -26.7064
0.00816912 -26.7212 -26.7212
0.016678 -26.5104 -26.5104
-0.342999 -26.601 -26.601
-0.169609 -26.7138 -26.7138
0.0124302 -26.6158 -26.6158
-0.161038 -26.503 -26.503
-0.165317 -26.6084 -26.6084
-0.347318 -26.7064 -26.7064
-0.355987 -26.9173 -26.9173
-0.00039384 -26.9321 -26.9321
0.00816912 -26.7212 -26.7212
-0.351647 -26.8118 -26.8118
-0.17823 -26.9247 -26.9247
0.00389478 -26.8267 -26.8267
-0.169609 -26.7138 -26.7138
-0.173913 -26.8192 -26.8192
-0.355987 -26.9173 -26.9173
-0.364697 -27.1282 -27.1282
-0.00901714 -27.143 -27.143
-0.00039384 -26.9321 -26.9321
-0.360337 -27.0227 -27.0227
-0.186907 -27.1356 -27.1356
-0.00469774 -27.0376 -27.0376
-0.17823 -26.9247 -26.9247
-0.182561 -27.0301 -27.0301
-0.364697 -27.1282 -27.1282
-0.373441 -27.3392 -27.3392
-0.0177067 -27.354 -27.354
-0.00901714 -27.143 -27.143
-0.369067 -27.2337 -27.2337
-0.195637 -27.3466 -27.3466
-0.0133526 -27.2485 -27.2485
-0.186907 -27.1356 -27.1356
-0.191266 -27.2411 -27.2411
-0.373441 -27.3392 -27.3392
-0.38219 -27.5502 -27.5502
-0.0264651 -27.5652 -27.5652
-0.0177067 -27.354 -27.354
-0.377817 -27.4447 -27.4447
-0.204399 -27.5577 -27.5577
-0.0220804 -27.4596 -27.4596
-0.195637 -27.3466 -27.3466
-0.20002 -27.4521 -27.4521
-0.38219 -27.5502 -27.5502
-0.390911 -27.761 -27.761
-0.0351957 -27.7764 -27.7764
-0.0264651 -27.5652 -27.5652
-0.386556 -27.6556 -27.6556
-0.213101 -27.7687 -27.7687
-0.0308466 -27.6708 -27.6708
-0.204399 -27.5577 -27.5577
-0.208762 -27.6632 -27.6632
0 0 0
0.00820706 -0.00235494 -0.00235494
0.0137829 -0.0069243 -0.0069243
0 0 0
0.00398365 -0.000847298 -0.000847298
0.0103739 -0.00419097 -0.00419097
0.00749378 -0.00430675 -0.00430675
0 0 0
0.0049492 -0.00184497 -0.00184497
0.00820706 -0.00235494 -0.00235494
0.0170892 -0.00678738 -0.00678738
0.0257114 -0.0120545 -0.0120545
0.0137829 -0.0069243 -0.0069243
0.012606 -0.00435727 -0.00435727
0.0211804 -0.00915438 -0.00915438
0.0197668 -0.0093925 -0.0093925
0.0103739 -0.00419097 -0.00419097
0.0158075 -0.00659694 -0.00659694
0.0170892 -0.00678738 -0.00678738
0.0260499 -0.0128735 -0.0128735
0.0377321 -0.018241 -0.018241
0.0257114 -0.0120545 -0.0120545
0.0215753 -0.00961699 -0.00961699
0.0318249 -0.0153569 -0.0153569
0.0317018 -0.0149674 -0.0149674
0.0211804 -0.00915438 -0.00915438
0.0265173 -0.0120547 -0.0120547
0.0260499 -0.0128735 -0.0128735
0.0349606 -0.0207924 -0.0207924
0.049842 -0.0261912 -0.0261912
0.0377321 -0.018241 -0.018241
0.0305138 -0.0165932 -0.0165932
0.0423711 -0.0232833 -0.0232833
0.0437794 -0.021977 -0.021977
0.0318249 -0.0153569 -0.0153569
0.0371066 -0.0190883 -0.0190883
0.0349606 -0.0207924 -0.0207924
0.0437878 -0.0306741 -0.0306741
0.062007 -0.0360702 -0.0360702
0.049842 -0.0261912 -0.0261912
0.0393842 -0.0254823 -0.0254823
0.0528721 -0.0331657 -0.0331657
0.0559211 -0.0308828 -0.0308828
0.0423711 -0.0232833 -0.0232833
0.0476264 -0.0279728 -0.0279728
0.0437878 -0.0306741 -0.0306741
0.0525468 -0.0425947 -0.0425947
0.0741663 -0.0479889 -0.0479889
0.062007 -0.0360702 -0.0360702
0.0481754 -0.0363773 -0.0363773
0.0633273 -0.0450791 -0.0450791
0.0680895 -0.0417719 -0.0417719
0.0528721 -0.0331657 -0.0331657
0.0581056 -0.0388661 -0.0388661
0.0525468 -0.0425947 -0.0425947
0.0612392 -0.0565765 -0.0565765
0.0862971 -0.0619638 -0.0619638
0.0741663 -0.0479889 -0.0479889
0.0569011 -0.0493274 -0.0493274
0.0737344 -0.0590562 -0.0590562
0.0802367 -0.0547186 -0.0547186
0.0633273 -0.0450791 -0.0450791
0.0685373 -0.0518089 -0.0518089
0.0612392 -0.0565765 -0.0565765
0.0698701 -0.0726258 -0.0726258
0.0983749 -0.0780089 -0.0780089
0.0862971 -0.0619638 -0.0619638
0.0655622 -0.0643429 -0.0643429
0.084085 -0.0751018 -0.0751018
0.0923435 -0.0697277 -0.0697277
0.0737344 -0.0590562 -0.0590562
0.0789171 -0.0668206 -0.0668206
0.0698701 -0.0726258 -0.0726258
0.0784393 -0.0907369 -0.0907369
0.110389 -0.0961167 -0.0961167
0.0983749 -0.0780089 -0.0780089
0.0741624 -0.0814242 -0.0814242
0.0943742 -0.0932112 -0.0932112
0.10439 -0.0868054 -0.0868054
0.084085 -0.0751018 -0.0751018
0.0892376 -0.083899 -0.083899
0.0784393 -0.0907369 -0.0907369
0.0869468 -0.110901 -0.110901
0.12233 -0.11628 -0.11628
0.110389 -0.0961167 -0.0961167
0.0827008 -0.100563 -0.100563
0.104597 -0.113375 -0.113375
0.116369 -0.105942 -0.105942
0.0943742 -0.0932112 -0.0932112
0.0994942 -0.103037 -0.103037
0.0869468 -0.110901 -0.110901
0.0953914 -0.133107 -0.133107
0.134194 -0.138488 -0.138488
0.12233 -0.11628 -0.11628
0.091177 -0.121749 -0.121749
0.114751 -0.135583 -0.135583
0.128272 -0.127129 -0.127129
0.104597 -0.113375 -0.113375
0.109683 -0.124224 -0.124224
0.0953914 -0.133107 -0.133107
0.103772 -0.157344 -0.157344
0.145977 -0.162729 -0.162729
0.134194 -0.138488 -0.138488
0.0995897 -0.144972 -0.144972
0.124832 -0.159823 -0.159823
0.140096 -0.150355 -0.150355
0.114751 -0.135583 -0.135583
0.1198 -0.14745 -0.14745
0.103772 -0.157344 -0.157344
0.112087 -0.183601 -0.183601
0.157677 -0.188992 -0.188992
0.145977 -0.162729 -0.162729
0.107937 -0.170221 -0.170221
0.134839 -0.186084 -0.186084
0.151837 -0.175609 -0.175609
0.124832 -0.159823 -0.159823
0.129845 -0.172701 -0.172701
0.112087 -0.183601 -0.183601
0.120334 -0.211865 -0.211865
0.169291 -0.217266 -0.217266
0.157677 -0.188992 -0.188992
0.116219 -0.197483 -0.197483
0.14477 -0.214354 -0.214354
0.163495 -0.202879 -0.202879
0.134839 -0.186084 -0.186084
0.139814 -0.199968 -0.199968
0.120334 -0.211865 -0.211865
0.128514 -0.242127 -0.242127
0.180819 -0.247539 -0.247539
0.169291 -0.217266 -0.217266
0.124433 -0.226747 -0.226747
0.154624 -0.244623 -0.244623
0.175066 -0.232154 -0.232154
0.14477 -0.214354 -0.214354
0.149707 -0.229239 -0.229239
0.128514 -0.242127 -0.242127
0.136623 -0.274375 -0.274375
0.192258 -0.279801 -0.279801
0.180819 -0.247539 -0.247539
0.132577 -0.258003 -0.258003
0.164398 -0.276878 -0.276878
0.18655 -0.263422 -0.263422
0.154624 -0.244623 -0.244623
0.159521 -0.260503 -0.260503
0.136623 -0.274375 -0.274375
0.14466 -0.308597 -0.308597
0.203608 -0.31404 -0.31404
0.192258 -0.279801 -0.279801
0.140651 -0.29124 -0.29124
0.174092 -0.31111 -0.31111
0.197945 -0.296674 -0.296674
0.164398 -0.276878 -0.276878
0.169255 -0.293748 -0.293748
0.14466 -0.308597 -0.308597
0.152625 -0.344783 -0.344783
0.214866 -0.350244 -0.350244
0.203608 -0.31404 -0.31404
0.148652 -0.326445 -0.326445
0.183704 -0.347306 -0.347306
0.209249 -0.331897 -0.331897
0.174092 -0.31111 -0.31111
0.178908 -0.328963 -0.328963
0.152625 -0.344783 -0.344783
0.160516 -0.382922 -0.382922
0.226032 -0.388404 -0.388404
0.214866 -0.350244 -0.350244
0.15658 -0.363609 -0.363609
0.193232 -0.385457 -0.385457
0.220461 -0.36908 -0.36908
0.183704 -0.347306 -0.347306
0.188479 -0.366138 -0.366138
0.160516 -0.382922 -0.382922
0.168332 -0.423002 -0.423002
0.237104 -0.428507 -0.428507
0.226032 -0.388404 -0.388404
0.164433 -0.40272 -0.40272
0.202676 -0.425549 -0.425549
0.23158 -0.408213 -0.408213
0.193232 -0.385457 -0.385457
0.197965 -0.405261 -0.405261
0.168332 -0.423002 -0.423002
0.17607 -0.465013 -0.465013
0.248081 -0.470543 -0.470543
0.237104 -0.428507 -0.428507
0.172211 -0.443767 -0.443767
0.212034 -0.467574 -0.467574
0.242605 -0.449284 -0.449284
0.202676 -0.425549 -0.425549
0.207366 -0.446321 -0.446321
0.17607 -0.465013 -0.465013
0.183731 -0.508943 -0.508943
0.258961 -0.514501 -0.514501
0.248081 -0.470543 -0.470543
0.17991 -0.486738 -0.486738
0.221304 -0.511519 -0.511519
0.253533 -0.492282 -0.492282
0.212034 -0.467574 -0.467574
0.21668 -0.489307 -0.489307
0.183731 -0.508943 -0.508943
0.191312 -0.554782 -0.554782
0.269744 -0.560369 -0.560369
0.258961 -0.514501 -0.514501
0.187531 -0.531624 -0.531624
0.230486 -0.557374 -0.557374
0.264365 -0.537196 -0.537196
0.221304 -0.511519 -0.511519
0.225906 -0.534208 -0.534208
0.191312 -0.554782 -0.554782
0.198812 -0.602518 -0.602518
0.280428 -0.608136 -0.608136
0.269744 -0.560369 -0.560369
0.195072 -0.578413 -0.578413
0.239579 -0.605127 -0.605127
0.275098 -0.584016 -0.584016
0.230486 -0.557374 -0.557374
0.235044 -0.581014 -0.581014
0.198812 -0.602518 -0.602518
0.206231 -0.652141 -0.652141
0.291011 -0.657793 -0.657793
0.280428 -0.608136 -0.608136
0.202532 -0.627094 -0.627094
0.24858 -0.654767 -0.654767
0.285732 -0.632729 -0.632729
0.239579 -0.605127 -0.605127
0.244091 -0.629712 -0.629712
0.206231 -0.652141 -0.652141
0.213567 -0.703639 -0.703639
0.301493 -0.709326 -0.709326
0.291011 -0.657793 -0.657793
0.20991 -0.677656 -0.677656
0.257489 -0.706284 -0.706284
0.296265 -0.683325 -0.683325
0.24858 -0.654767 -0.654767
0.253046 -0.680292 -0.680292
0.213567 -0.703639 -0.703639
0.220819 -0.757001 -0.757001
0.311873 -0.762726 -0.762726
0.301493 -0.709326 -0.709326
0.217204 -0.730088 -0.730088
0.266305 -0.759667 -0.759667
0.306696 -0.735794 -0.735794
0.257489 -0.706284 -0.706284
0.261909 -0.732743 -0.732743
0.220819 -0.757001 -0.757001
0.227985 -0.812217 -0.812217
0.322149 -0.817981 -0.817981
0.311873 -0.762726 -0.762726
0.224413 -0.784378 -0.784378
0.275026 -0.814903 -0.814903
0.317024 -0.790122 -0.790122
0.266305 -0.759667 -0.759667
0.270678 -0.787054 -0.787054
0.227985 -0.812217 -0.812217
0.235066 -0.869275 -0.869275
0.332321 -0.875081 -0.875081
0.322149 -0.817981 -0.817981
0.231536 -0.840517 -0.840517
0.283652 -0.871983 -0.871983
0.327248 -0.846301 -0.846301
0.275026 -0.814903 -0.814903
0.279351 -0.843213 -0.843213
0.235066 -0.869275 -0.869275
0.242059 -0.928165 -0.928165
0.342386 -0.934013 -0.934013
0.332321 -0.875081 -0.875081
0.238573 -0.898492 -0.898492
0.292182 -0.930895 -0.930895
0.337367 -0.904318 -0.904318
0.283652 -0.871983 -0.871983
0.287929 -0.901211 -0.901211
0.242059 -0.928165 -0.928165
0.248963 -0.988875 -0.988875
0.352345 -0.994767 -0.994767
0.342386 -0.934013 -0.934013
0.245522 -0.958293 -0.958293
0.300613 -0.991628 -0.991628
0.347379 -0.964163 -0.964163
0.292182 -0.930895 -0.930895
0.29641 -0.961035 -0.961035
0.248963 -0.988875 -0.988875
0.255778 -1.05139 -1.05139
0.362196 -1.05733 -1.05733
0.352345 -0.994767 -0.994767
0.252382 -1.01991 -1.01991
0.308946 -1.05417 -1.05417
0.357284 -1.02582 -1.02582
0.300613 -0.991628 -0.991628
0.304792 -1.02267 -1.02267
0.255778 -1.05139 -1.05139
0.262502 -1.11571 -1.11571
0.371938 -1.1217 -1.1217
0.362196 -1.05733 -1.05733
0.259151 -1.08333 -1.08333
0.31718 -1.11851 -1.11851
0.367081 -1.08929 -1.08929
0.308946 -1.05417 -1.05417
0.313076 -1.08612 -1.08612
0.262502 -1.11571 -1.11571
0.269135 -1.18182 -1.18182
0.38157 -1.18785 -1.18785
0.371938 -1.1217 -1.1217
0.26583 -1.14854 -1.14854
0.325312 -1.18464 -1.18464
0.376768 -1.15455 -1.15455
0.31718 -1.11851 -1.11851
0.321259 -1.15136 -1.15136
0.269135 -1.18182 -1.18182
0.275675 -1.2497 -1.2497
0.391091 -1.25578 -1.25578
0.38157 -1.18785 -1.18785
0.272417 -1.21553 -1.21553
0.333343 -1.25255 -1.25255
0.386345 -1.2216 -1.2216
0.325312 -1.18464 -1.18464
0.329341 -1.21838 -1.21838
0.275675 -1.2497 -1.2497
0.282123 -1.31934 -1.31934
0.400501 -1.32548 -1.32548
0.391091 -1.25578 -1.25578
0.278911 -1.2843 -1.2843
0.341272 -1.32223 -1.32223
0.39581 -1.29041 -1.29041
0.333343 -1.25255 -1.25255
0.33732 -1.28717 -1.28717
0.282123 -1.31934 -1.31934
0.288475 -1.39074 -1.39074
0.409797 -1.39694 -1.39694
0.400501 -1.32548 -1.32548
0.285311 -1.35482 -1.35482
0.349096 -1.39365 -1.39365
0.405163 -1.36099 -1.36099
0.341272 -1.32223 -1.32223
0.345197 -1.35772 -1.35772
0.288475 -1.39074 -1.39074
0.294733 -1.46389 -1.46389
0.418981 -1.47014 -1.47014
0.409797 -1.39694 -1.39694
0.291616 -1.4271 -1.4271
0.356817 -1.46683 -1.46683
0.414403 -1.43332 -1.43332
0.349096 -1.39365 -1.39365
0.35297 -1.43002 -1.43002
0.294733 -1.46389 -1.46389
0.300894 -1.53876 -1.53876
0.428049 -1.54507 -1.54507
0.418981 -1.47014 -1.47014
0.297825 -1.50111 -1.50111
0.364432 -1.54173 -1.54173
0.423529 -1.50739 -1.50739
0.356817 -1.46683 -1.46683
0.360638 -1.50406 -1.50406
0.300894 -1.53876 -1.53876
0.306959 -1.61536 -1.61536
0.437003 -1.62172 -1.62172
0.428049 -1.54507 -1.54507
0.303938 -1.57684 -1.57684
0.371941 -1.61836 -1.61836
0.43254 -1.58318 -1.58318
0.364432 -1.54173 -1.54173
0.3682 -1.57983 -1.57983
0.306959 -1.61536 -1.61536
0.312925 -1.69366 -1.69366
0.44584 -1.70009 -1.70009
0.437003 -1.62172 -1.62172
0.309954 -1.6543 -1.6543
0.379343 -1.6967 -1.6967
0.441436 -1.66069 -1.66069
0.371941 -1.61836 -1.61836
0.375655 -1.65731 -1.65731
0.312925 -1.69366 -1.69366
0.318793 -1.77367 -1.77367
0.45456 -1.78016 -1.78016
0.44584 -1.70009 -1.70009
0.315872 -1.73345 -1.73345
0.386637 -1.77673 -1.77673
0.450214 -1.73991 -1.73991
0.379343 -1.6967 -1.6967
0.383004 -1.7365 -1.7365
0.318793 -1.77367 -1.77367
0.324562 -1.85536 -1.85536
0.463162 -1.86191 -1.86191
0.45456 -1.78016 -1.78016
0.32169 -1.81431 -1.81431
0.393823 -1.85846 -1.85846
0.458876 -1.82083 -1.82083
0.386637 -1.77673 -1.77673
0.390244 -1.81739 -1.81739
0.324562 -1.85536 -1.85536
0.330231 -1.93873 -1.93873
0.471646 -1.94535 -1.94535
0.463162 -1.86191 -1.86191
0.327409 -1.89684 -1.89684
0.400899 -1.94186 -1.94186
0.467419 -1.90342 -1.90342
0.393823 -1.85846 -1.85846
0.397375 -1.89995 -1.89995
0.330231 -1.93873 -1.93873
0.335798 -2.02377 -2.02377
0.480011 -2.03045 -2.03045
0.471646 -1.94535 -1.94535
0.333027 -1.98104 -1.98104
0.407865 -2.02693 -2.02693
0.475843 -1.98769 -1.98769
0.400899 -1.94186 -1.94186
0.404396 -1.98419 -1.98419
0.335798 -2.02377 -2.02377
0.341264 -2.11046 -2.11046
0.488255 -2.11721 -2.11721
0.480011 -2.03045 -2.03045
0.338544 -2.06691 -2.06691
0.414721 -2.11366 -2.11366
0.484148 -2.07362 -2.07362
0.407865 -2.02693 -2.02693
0.411307 -2.07009 -2.07009
0.341264 -2.11046 -2.11046
0.346628 -2.1988 -2.1988
0.496379 -2.20561 -2.20561
0.488255 -2.11721 -2.11721
0.343959 -2.15442 -2.15442
0.421465 -2.20203 -2.20203
0.492333 -2.16121 -2.16121
0.414721 -2.11366 -2.11366
0.418107 -2.15764 -2.15764
0.346628 -2.1988 -2.1988
0.351889 -2.28877 -2.28877
0.504382 -2.29565 -2.29565
0.496379 -2.20561 -2.20561
0.349272 -2.24358 -2.24358
0.428097 -2.29203 -2.29203
0.500396 -2.25043 -2.25043
0.421465 -2.20203 -2.20203
0.424795 -2.24683 -2.24683
0.351889 -2.28877 -2.28877
0.357047 -2.38036 -2.38036
0.512263 -2.38731 -2.38731
0.504382 -2.29565 -2.29565
0.354481 -2.33436 -2.33436
0.434616 -2.38366 -2.38366
0.508338 -2.34128 -2.34128
0.428097 -2.29203 -2.29203
0.43137 -2.33764 -2.33764
0.357047 -2.38036 -2.38036
0.3621 -2.47356 -2.47356
0.520021 -2.48058 -2.48058
0.512263 -2.38731 -2.38731
0.359586 -2.42676 -2.42676
0.441021 -2.4769 -2.4769
0.516157 -2.43375 -2.43375
0.434616 -2.38366 -2.38366
0.437833 -2.43008 -2.43008
0.3621 -2.47356 -2.47356
0.367048 -2.56836 -2.56836
0.527655 -2.57546 -2.57546
0.520021 -2.48058 -2.48058
0.364587 -2.52076 -2.52076
0.447313 -2.57174 -2.57174
0.523853 -2.52782 -2.52782
0.441021 -2.4769 -2.4769
0.444181 -2.52412 -2.52412
0.367048 -2.56836 -2.56836
0.37189 -2.66475 -2.66475
0.535166 -2.67192 -2.67192
0.527655 -2.57546 -2.57546
0.369482 -2.61636 -2.61636
0.45349 -2.66816 -2.66816
0.531426 -2.62349 -2.62349
0.447313 -2.57174 -2.57174
0.450415 -2.61975 -2.61975
0.37189 -2.66475 -2.66475
0.376627 -2.76272 -2.76272
0.542553 -2.76996 -2.76996
0.535166 -2.67192 -2.67192
0.374272 -2.71354 -2.71354
0.459551 -2.76617 -2.76617
0.538875 -2.72074 -2.72074
0.45349 -2.66816 -2.66816
0.456535 -2.71697 -2.71697
0.376627 -2.76272 -2.76272
0.381257 -2.86225 -2.86225
0.549814 -2.86957 -2.86957
0.542553 -2.76996 -2.76996
0.378955 -2.81229 -2.81229
0.465497 -2.86574 -2.86574
0.546199 -2.81957 -2.81957
0.459551 -2.76617 -2.76617
0.462539 -2.81576 -2.81576
0.381257 -2.86225 -2.86225
0.38578 -2.96334 -2.96334
0.55695 -2.97074 -2.97074
0.549814 -2.86957 -2.86957
0.383532 -2.9126 -2.9126
0.471326 -2.96687 -2.96687
0.553398 -2.91996 -2.91996
0.465497 -2.86574 -2.86574
0.468426 -2.91612 -2.91612
0.38578 -2.96334 -2.96334
0.390195 -3.06598 -3.06598
0.56396 -3.07345 -3.07345
0.55695 -2.97074 -2.97074
0.388001 -3.01447 -3.01447
0.477039 -3.06955 -3.06955
0.560471 -3.0219 -3.0219
0.471326 -2.96687 -2.96687
0.474197 -3.01802 -3.01802
0.390195 -3.06598 -3.06598
0.394502 -3.17015 -3.17015
0.570843 -3.1777 -3.1777
0.56396 -3.07345 -3.07345
0.392362 -3.11787 -3.11787
0.482634 -3.17376 -3.17376
0.567417 -3.12538 -3.12538
0.477039 -3.06955 -3.06955
0.479851 -3.12146 -3.12146
0.394502 -3.17015 -3.17015
0.398701 -3.27584 -3.27584
0.5776 -3.28347 -3.28347
0.570843 -3.1777 -3.1777
0.396615 -3.22281 -3.22281
0.488112 -3.27949 -3.27949
0.574237 -3.23039 -3.23039
0.482634 -3.17376 -3.17376
0.485388 -3.22644 -3.22644
0.398701 -3.27584 -3.27584
0.402791 -3.38305 -3.38305
0.584229 -3.39075 -3.39075
0.5776 -3.28347 -3.28347
0.400759 -3.32926 -3.32926
0.493471 -3.38674 -3.38674
0.58093 -3.33692 -3.33692
0.488112 -3.27949 -3.27949
0.490806 -3.33293 -3.33293
0.402791 -3.38305 -3.38305
0.406771 -3.49175 -3.49175
0.59073 -3.49954 -3.49954
0.584229 -3.39075 -3.39075
0.404794 -3.43721 -3.43721
0.498712 -3.49548 -3.49548
0.587495 -3.44496 -3.44496
0.493471 -3.38674 -3.38674
0.496106 -3.44092 -3.44092
0.406771 -3.49175 -3.49175
0.410641 -3.60195 -3.60195
0.597102 -3.60981 -3.60981
0.59073 -3.49954 -3.49954
0.408719 -3.54666 -3.54666
0.503833 -3.60572 -3.60572
0.593932 -3.55449 -3.55449
0.498712 -3.49548 -3.49548
0.501287 -3.55042 -3.55042
0.410641 -3.60195 -3.60195
0.414401 -3.71362 -3.71362
0.603347 -3.72157 -3.72157
0.597102 -3.60981 -3.60981
0.412534 -3.6576 -3.6576
0.508835 -3.71744 -3.71744
0.600241 -3.66551 -3.66551
0.503833 -3.60572 -3.60572
0.506349 -3.66139 -3.66139
0.414401 -3.71362 -3.71362
0.41805 -3.82676 -3.82676
0.609462 -3.83479 -3.83479
0.603347 -3.72157 -3.72157
0.416239 -3.77001 -3.77001
0.513718 -3.83062 -3.83062
0.60642 -3.778 -3.778
0.508835 -3.71744 -3.71744
0.511291 -3.77385 -3.77385
0.41805 -3.82676 -3.82676
0.421588 -3.94136 -3.94136
0.615447 -3.94947 -3.94947
0.609462 -3.83479 -3.83479
0.419833 -3.88388 -3.88388
0.518479 -3.94526 -3.94526
0.612471 -3.89195 -3.89195
0.513718 -3.83062 -3.83062
0.516114 -3.88776 -3.88776
0.421588 -3.94136 -3.94136
0.425015 -4.05741 -4.05741
0.621303 -4.0656 -4.0656
0.615447 -3.94947 -3.94947
0.423315 -3.9992 -3.9992
0.523121 -4.06135 -4.06135
0.618391 -4.00736 -4.00736
0.518479 -3.94526 -3.94526
0.520815 -4.00312 -4.00312
0.425015 -4.05741 -4.05741
0.42833 -4.17489 -4.17489
0.627029 -4.18316 -4.18316
0.621303 -4.0656 -4.0656
0.426686 -4.11597 -4.11597
0.527641 -4.17887 -4.17887
0.624182 -4.1242 -4.1242
0.523121 -4.06135 -4.06135
0.525396 -4.11993 -4.11993
0.42833 -4.17489 -4.17489
0.431533 -4.29379 -4.29379
0.632625 -4.30215 -4.30215
0.627029 -4.18316 -4.18316
0.429945 -4.23416 -4.23416
0.532041 -4.29782 -4.29782
0.629843 -4.24248 -4.24248
0.527641 -4.17887 -4.17887
0.529856 -4.23817 -4.23817
0.431533 -4.29379 -4.29379
0.434624 -4.41411 -4.41411
0.638089 -4.42255 -4.42255
0.632625 -4.30215 -4.30215
0.433092 -4.35377 -4.35377
0.536319 -4.41818 -4.41818
0.635373 -4.36217 -4.36217
0.532041 -4.29782 -4.29782
0.534195 -4.35782 -4.35782
0.434624 -4.41411 -4.41411
0.437602 -4.53583 -4.53583
0.643423 -4.54435 -4.54435
0.638089 -4.42255 -4.42255
0.436127 -4.47479 -4.47479
0.540475 -4.53994 -4.53994
0.640773 -4.48328 -4.48328
0.536319 -4.41818 -4.41818
0.538412 -4.47888 -4.47888
0.437602 -4.53583 -4.53583
0.440468 -4.65894 -4.65894
0.648626 -4.66755 -4.66755
0.643423 -4.54435 -4.54435
0.439049 -4.59721 -4.59721
0.544509 -4.66309 -4.66309
0.646041 -4.60578 -4.60578
0.540475 -4.53994 -4.53994
0.542507 -4.60134 -4.60134
0.440468 -4.65894 -4.65894
0.44322 -4.78342 -4.78342
0.653697 -4.79212 -4.79212
0.648626 -4.66755 -4.66755
0.441858 -4.72101 -4.72101
0.548421 -4.78763 -4.78763
0.651178 -4.72966 -4.72966
0.544509 -4.66309 -4.66309
0.54648 -4.72519 -4.72519
0.44322 -4.78342 -4.78342
0.44586 -4.90928 -4.90928
0.658637 -4.91807 -4.91807
0.653697 -4.79212 -4.79212
0.444554 -4.84618 -4.84618
0.55221 -4.91353 -4.91353
0.656184 -4.85493 -4.85493
0.548421 -4.78763 -4.78763
0.550331 -4.85041 -4.85041
0.44586 -4.90928 -4.90928
0.448385 -5.0365 -5.0365
0.663445 -5.04537 -5.04537
0.658637 -4.91807 -4.91807
0.447137 -4.97272 -4.97272
0.555877 -5.04079 -5.04079
0.661058 -4.98155 -4.98155
0.55221 -4.91353 -4.91353
0.554059 -4.97699 -4.97699
0.448385 -5.0365 -5.0365
0.450798 -5.16506 -5.16506
0.668121 -5.17402 -5.17402
0.663445 -5.04537 -5.04537
0.449606 -5.10061 -5.10061
0.559422 -5.1694 -5.1694
0.6658 -5.10953 -5.10953
0.555877 -5.04079 -5.04079
0.557665 -5.10493 -5.10493
0.450798 -5.16506 -5.16506
0.453096 -5.29496 -5.29496
0.672665 -5.30401 -5.30401
0.668121 -5.17402 -5.17402
0.451961 -5.22985 -5.22985
0.562843 -5.29934 -5.29934
0.67041 -5.23885 -5.23885
0.559422 -5.1694 -5.1694
0.561148 -5.2342 -5.2342
0.453096 -5.29496 -5.29496
0.455281 -5.42619 -5.42619
0.677077 -5.43532 -5.43532
0.672665 -5.30401 -5.30401
0.454203 -5.36041 -5.36041
0.566141 -5.43061 -5.43061
0.674888 -5.3695 -5.3695
0.562843 -5.29934 -5.29934
0.564507 -5.36481 -5.36481
0.455281 -5.42619 -5.42619
0.457352 -5.55873 -5.55873
0.681356 -5.56794 -5.56794
0.677077 -5.43532 -5.43532
0.456331 -5.49229 -5.49229
0.569316 -5.56319 -5.56319
0.679233 -5.50147 -5.50147
0.566141 -5.43061 -5.43061
0.567744 -5.49674 -5.49674
0.457352 -5.55873 -5.55873
0.459308 -5.69257 -5.69257
0.685503 -5.70187 -5.70187
0.681356 -5.56794 -5.56794
0.458344 -5.62548 -5.62548
0.572368 -5.69708 -5.69708
0.683446 -5.63475 -5.63475
0.569316 -5.56319 -5.56319
0.570857 -5.62998 -5.62998
0.459308 -5.69257 -5.69257
0.461151 -5.8277 -5.8277
0.689517 -5.83709 -5.83709
0.685503 -5.70187 -5.70187
0.460244 -5.75997 -5.75997
0.575296 -5.83226 -5.83226
0.687527 -5.76932 -5.76932
0.572368 -5.69708 -5.69708
0.573847 -5.76451 -5.76451
0.461151 -5.8277 -5.8277
0.462879 -5.96412 -5.96412
0.693399 -5.9736 -5.9736
0.689517 -5.83709 -5.83709
0.462029 -5.89575 -5.89575
0.578101 -5.96872 -5.96872
0.691475 -5.90519 -5.90519
0.575296 -5.83226 -5.83226
0.576714 -5.90033 -5.90033
0.462879 -5.96412 -5.96412
0.464493 -6.1018 -6.1018
0.697148 -6.11137 -6.11137
0.693399 -5.9736 -5.9736
0.4637 -6.0328 -6.0328
0.580782 -6.10645 -6.10645
0.69529 -6.04233 -6.04233
0.578101 -5.96872 -5.96872
0.579457 -6.03743 -6.03743
0.464493 -6.1018 -6.1018
0.465992 -6.24075 -6.24075
0.700764 -6.2504 -6.2504
0.697148 -6.11137 -6.11137
0.465257 -6.17112 -6.17112
0.58334 -6.24544 -6.24544
0.698972 -6.18073 -6.18073
0.580782 -6.10645 -6.10645
0.582077 -6.17579 -6.17579
0.465992 -6.24075 -6.24075
0.467377 -6.38094 -6.38094
0.704247 -6.39068 -6.39068
0.700764 -6.2504 -6.2504
0.466699 -6.31069 -6.31069
0.585774 -6.38568 -6.38568
0.702522 -6.32039 -6.32039
0.58334 -6.24544 -6.24544
0.584573 -6.3154 -6.3154
0.467377 -6.38094 -6.38094
0.468648 -6.52237 -6.52237
0.707598 -6.5322 -6.5322
0.704247 -6.39068 -6.39068
0.468027 -6.4515 -6.4515
0.588085 -6.52715 -6.52715
0.705939 -6.46129 -6.46129
0.585774 -6.38568 -6.38568
0.586945 -6.45626 -6.45626
0.468648 -6.52237 -6.52237
0.469804 -6.66503 -6.66503
0.710816 -6.67494 -6.67494
0.707598 -6.5322 -6.5322
0.46924 -6.59354 -6.59354
0.590272 -6.66985 -6.66985
0.709223 -6.60342 -6.60342
0.588085 -6.52715 -6.52715
0.589194 -6.59835 -6.59835
0.469804 -6.66503 -6.66503
0.470846 -6.8089 -6.8089
0.713901 -6.8189 -6.8189
0.710816 -6.67494 -6.67494
0.470339 -6.73681 -6.73681
0.592336 -6.81377 -6.81377
0.712375 -6.74677 -6.74677
0.590272 -6.66985 -6.66985
0.591319 -6.74166 -6.74166
0.470846 -6.8089 -6.8089
0.471773 -6.95397 -6.95397
0.716853 -6.96407 -6.96407
0.713901 -6.8189 -6.8189
0.471324 -6.88128 -6.88128
0.594276 -6.95889 -6.95889
0.715394 -6.89134 -6.89134
0.592336 -6.81377 -6.81377
0.593321 -6.88618 -6.88618
0.471773 -6.95397 -6.95397
0.472587 -7.10024 -7.10024
0.719673 -7.11042 -7.11042
0.716853 -6.96407 -6.96407
0.472194 -7.02696 -7.02696
0.596092 -7.1052 -7.1052
0.71828 -7.0371 -7.0371
0.594276 -6.95889 -6.95889
0.595199 -7.0319 -7.0319
0.472587 -7.10024 -7.10024
0.473286 -7.24769 -7.24769
0.722361 -7.25796 -7.25796
0.719673 -7.11042 -7.11042
0.472951 -7.17382 -7.17382
0.597785 -7.2527 -7.2527
0.721033 -7.18405 -7.18405
0.596092 -7.1052 -7.1052
0.596954 -7.17881 -7.17881
0.473286 -7.24769 -7.24769
0.473871 -7.39632 -7.39632
0.724915 -7.40667 -7.40667
0.722361 -7.25796 -7.25796
0.473593 -7.32186 -7.32186
0.599355 -7.40137 -7.40137
0.723654 -7.33217 -7.33217
0.597785 -7.2527 -7.2527
0.598586 -7.32689 -7.32689
0.473871 -7.39632 -7.39632
0.474342 -7.5461 -7.5461
0.727338 -7.55654 -7.55654
0.724915 -7.40667 -7.40667
0.47412 -7.47106 -7.47106
0.600802 -7.5512 -7.5512
0.726143 -7.48146 -7.48146
0.599355 -7.40137 -7.40137
0.600094 -7.47614 -7.47614
0.474342 -7.5461 -7.5461
0.474699 -7.69703 -7.69703
0.729628 -7.70756 -7.70756
0.727338 -7.55654 -7.55654
0.474534 -7.62142 -7.62142
0.602126 -7.70218 -7.70218
0.728499 -7.63191 -7.63191
0.600802 -7.5512 -7.5512
0.601479 -7.62654 -7.62654
0.474699 -7.69703 -7.69703
0.474942 -7.84911 -7.84911
0.731786 -7.85972 -7.85972
0.729628 -7.70756 -7.70756
0.474835 -7.77293 -7.77293
0.603326 -7.85429 -7.85429
0.730723 -7.7835 -7.7835
0.602126 -7.70218 -7.70218
0.602741 -7.77809 -7.77809
0.474942 -7.84911 -7.84911
0.475072 -8.00231 -8.00231
0.733812 -8.01301 -8.01301
0.731786 -7.85972 -7.85972
0.475021 -7.92557 -7.92557
0.604404 -8.00754 -8.00754
0.732816 -7.93623 -7.93623
0.603326 -7.85429 -7.85429
0.60388 -7.93077 -7.93077
0.475072 -8.00231 -8.00231
0.475088 -8.15662 -8.15662
0.735706 -8.16741 -8.16741
0.733812 -8.01301 -8.01301
0.475094 -8.07933 -8.07933
0.605359 -8.1619 -8.1619
0.734776 -8.09007 -8.09007
0.604404 -8.00754 -8.00754
0.604897 -8.08458 -8.08458
0.475088 -8.15662 -8.15662
0.474991 -8.31204 -8.31204
0.737469 -8.32292 -8.32292
0.735706 -8.16741 -8.16741
0.475053 -8.2342 -8.2342
0.606192 -8.31736 -8.31736
0.736604 -8.24503 -8.24503
0.605359 -8.1619 -8.1619
0.605791 -8.23949 -8.23949
0.474991 -8.31204 -8.31204
0.474781 -8.46856 -8.46856
0.7391 -8.47952 -8.47952
0.737469 -8.32292 -8.32292
0.4749 -8.39017 -8.39017
0.606902 -8.47392 -8.47392
0.738301 -8.40108 -8.40108
0.606192 -8.31736 -8.31736
0.606562 -8.39551 -8.39551
0.474781 -8.46856 -8.46856
0.474457 -8.62616 -8.62616
0.7406 -8.63721 -8.63721
0.7391 -8.47952 -8.47952
0.474633 -8.54723 -8.54723
0.607491 -8.63157 -8.63157
0.739866 -8.55823 -8.55823
0.606902 -8.47392 -8.47392
0.607212 -8.55261 -8.55261
0.474457 -8.62616 -8.62616
0.474022 -8.78484 -8.78484
0.741969 -8.79597 -8.79597
0.7406 -8.63721 -8.63721
0.474254 -8.70537 -8.70537
0.607957 -8.79029 -8.79029
0.741301 -8.71645 -8.71645
0.607491 -8.63157 -8.63157
0.607739 -8.71079 -8.71079
0.474022 -8.78484 -8.78484
0.473473 -8.94457 -8.94457
0.743207 -8.95579 -8.95579
0.741969 -8.79597 -8.79597
0.473762 -8.86457 -8.86457
0.608302 -8.95006 -8.95006
0.742604 -8.87574 -8.87574
0.607957 -8.79029 -8.79029
0.608145 -8.87004 -8.87004
0.473473 -8.94457 -8.94457
0.472813 -9.10536 -9.10536
0.744315 -9.11666 -9.11666
0.743207 -8.95579 -8.95579
0.473157 -9.02483 -9.02483
0.608526 -9.11089 -9.11089
0.743777 -9.03609 -9.03609
0.608302 -8.95006 -8.95006
0.608429 -9.03035 -9.03035
0.472813 -9.10536 -9.10536
0.472041 -9.26719 -9.26719
0.745292 -9.27857 -9.27857
0.744315 -9.11666 -9.11666
0.472441 -9.18614 -9.18614
0.608628 -9.27276 -9.27276
0.744819 -9.19748 -9.19748
0.608526 -9.11089 -9.11089
0.608592 -9.1917 -9.1917
0.472041 -9.26719 -9.26719
0.471157 -9.43004 -9.43004
0.746139 -9.44151 -9.44151
0.745292 -9.27857 -9.27857
0.471612 -9.34849 -9.34849
0.60861 -9.43566 -9.43566
0.745732 -9.35991 -9.35991
0.608628 -9.27276 -9.27276
0.608634 -9.35409 -9.35409
0.471157 -9.43004 -9.43004
0.470161 -9.59392 -9.59392
0.746857 -9.60546 -9.60546
0.746139 -9.44151 -9.44151
0.470673 -9.51185 -9.51185
0.608471 -9.59958 -9.59958
0.746514 -9.52336 -9.52336
0.60861 -9.43566 -9.43566
0.608555 -9.51749 -9.51749
0.470161 -9.59392 -9.59392
0.469054 -9.7588 -9.7588
0.747445 -9.77043 -9.77043
0.746857 -9.60546 -9.60546
0.469622 -9.67623 -9.67623
0.608211 -9.7645 -9.7645
0.747167 -9.68782 -9.68782
0.608471 -9.59958 -9.59958
0.608356 -9.68192 -9.68192
0.469054 -9.7588 -9.7588
0.467837 -9.92468 -9.92468
0.747904 -9.93639 -9.93639
0.747445 -9.77043 -9.77043
0.46846 -9.84161 -9.84161
0.607832 -9.93042 -9.93042
0.74769 -9.85328 -9.85328
0.608211 -9.7645 -9.7645
0.608037 -9.84734 -9.84734
0.467837 -9.92468 -9.92468
0.466509 -10.0915 -10.0915
0.748234 -10.1033 -10.1033
0.747904 -9.93639 -9.93639
0.467187 -10.008 -10.008
0.607333 -10.0973 -10.0973
0.748085 -10.0197 -10.0197
0.607832 -9.93042 -9.93042
0.607598 -10.0138 -10.0138
0.466509 -10.0915 -10.0915
0.465071 -10.2594 -10.2594
0.748435 -10.2712 -10.2712
0.748234 -10.1033 -10.1033
0.465804 -10.1753 -10.1753
0.606715 -10.2652 -10.2652
0.748351 -10.1872 -10.1872
0.607333 -10.0973 -10.0973
0.607039 -10.1811 -10.1811
0.465071 -10.2594 -10.2594
0.463524 -10.4282 -10.4282
0.748509 -10.4401 -10.4401
0.748435 -10.2712 -10.2712
0.464311 -10.3437 -10.3437
0.605978 -10.434 -10.434
0.748488 -10.3556 -10.3556
0.606715 -10.2652 -10.2652
0.606361 -10.3495 -10.3495
0.463524 -10.4282 -10.4282
0.461867 -10.5979 -10.5979
0.748455 -10.61 -10.61
0.748509 -10.4401 -10.4401
0.462709 -10.5129 -10.5129
0.605122 -10.6038 -10.6038
0.748498 -10.5249 -10.5249
0.605978 -10.434 -10.434
0.605565 -10.5188 -10.5188
0.461867 -10.5979 -10.5979
0.4601 -10.7686 -10.7686
0.748273 -10.7807 -10.7807
0.748455 -10.61 -10.61
0.460997 -10.6832 -10.6832
0.604148 -10.7746 -10.7746
0.74838 -10.6952 -10.6952
0.605122 -10.6038 -10.6038
0.60465 -10.6891 -10.6891
0.4601 -10.7686 -10.7686
0.458225 -10.9403 -10.9403
0.747965 -10.9524 -10.9524
0.748273 -10.7807 -10.7807
0.459176 -10.8543 -10.8543
0.603057 -10.9462 -10.9462
0.748135 -10.8665 -10.8665
0.604148 -10.7746 -10.7746
0.603617 -10.8603 -10.8603
0.458225 -10.9403 -10.9403
0.456242 -11.1128 -11.1128
0.747529 -11.1251 -11.1251
0.747965 -10.9524 -10.9524
0.457247 -11.0264 -11.0264
0.601847 -11.1188 -11.1188
0.747763 -11.0386 -11.0386
0.603057 -10.9462 -10.9462
0.602467 -11.0324 -11.0324
0.456242 -11.1128 -11.1128
0.454151 -11.2863 -11.2863
0.746968 -11.2986 -11.2986
0.747529 -11.1251 -11.1251
0.45521 -11.1994 -11.1994
0.600521 -11.2923 -11.2923
0.747264 -11.2117 -11.2117
0.601847 -11.1188 -11.1188
0.601199 -11.2055 -11.2055
0.454151 -11.2863 -11.2863
0.451953 -11.4606 -11.4606
0.746281 -11.473 -11.473
0.746968 -11.2986 -11.2986
0.453066 -11.3733 -11.3733
0.599078 -11.4667 -11.4667
0.74664 -11.3857 -11.3857
0.600521 -11.2923 -11.2923
0.599814 -11.3794 -11.3794
0.451953 -11.4606 -11.4606
0.449648 -11.6358 -11.6358
0.745468 -11.6483 -11.6483
0.746281 -11.473 -11.473
0.450814 -11.5481 -11.5481
0.59752 -11.642 -11.642
0.74589 -11.5606 -11.5606
0.599078 -11.4667 -11.4667
0.598313 -11.5542 -11.5542
0.449648 -11.6358 -11.6358
0.447236 -11.812 -11.812
0.744531 -11.8245 -11.8245
0.745468 -11.6483 -11.6483
0.448455 -11.7238 -11.7238
0.595845 -11.8182 -11.8182
0.745015 -11.7363 -11.7363
0.59752 -11.642 -11.642
0.596697 -11.73 -11.73
0.447236 -11.812 -11.812
0.444718 -11.9889 -11.9889
0.743469 -12.0016 -12.0016
0.744531 -11.8245 -11.8245
0.44599 -11.9003 -11.9003
0.594055 -11.9952 -11.9952
0.744016 -11.913 -11.913
0.595845 -11.8182 -11.8182
0.594964 -11.9066 -11.9066
0.444718 -11.9889 -11.9889
0.442094 -12.1668 -12.1668
0.742284 -12.1795 -12.1795
0.743469 -12.0016 -12.0016
0.443419 -12.0778 -12.0778
0.59215 -12.173 -12.173
0.742892 -12.0904 -12.0904
0.594055 -11.9952 -11.9952
0.593117 -12.084 -12.084
0.442094 -12.1668 -12.1668
0.439365 -12.3455 -12.3455
0.740975 -12.3582 -12.3582
0.742284 -12.1795 -12.1795
0.440743 -12.256 -12.256
0.590131 -12.3518 -12.3518
0.741645 -12.2688 -12.2688
0.59215 -12.173 -12.173
0.591155 -12.2623 -12.2623
0.439365 -12.3455 -12.3455
0.436531 -12.525 -12.525
0.739542 -12.5378 -12.5378
0.740975 -12.3582 -12.3582
0.437961 -12.4351 -12.4351
0.587998 -12.5313 -12.5313
0.740274 -12.4479 -12.4479
0.590131 -12.3518 -12.3518
0.589079 -12.4414 -12.4414
0.436531 -12.525 -12.525
0.433594 -12.7053 -12.7053
0.737988 -12.7182 -12.7182
0.739542 -12.5378 -12.5378
0.435076 -12.615 -12.615
0.585752 -12.7117 -12.7117
0.73878 -12.6279 -12.6279
0.587998 -12.5313 -12.5313
0.586889 -12.6214 -12.6214
0.433594 -12.7053 -12.7053
0.430552 -12.8865 -12.8865
0.736311 -12.8994 -12.8994
0.737988 -12.7182 -12.7182
0.432086 -12.7958 -12.7958
0.583393 -12.8929 -12.8929
0.737165 -12.8087 -12.8087
0.585752 -12.7117 -12.7117
0.584586 -12.8022 -12.8022
0.430552 -12.8865 -12.8865
0.427408 -13.0684 -13.0684
0.734513 -13.0815 -13.0815
0.736311 -12.8994 -12.8994
0.428993 -12.9773 -12.9773
0.580921 -13.0748 -13.0748
0.735427 -12.9904 -12.9904
0.583393 -12.8929 -12.8929
0.582171 -12.9838 -12.9838
0.427408 -13.0684 -13.0684
0.424161 -13.2511 -13.2511
0.732594 -13.2643 -13.2643
0.734513 -13.0815 -13.0815
0.425797 -13.1597 -13.1597
0.578338 -13.2576 -13.2576
0.733568 -13.1728 -13.1728
0.580921 -13.0748 -13.0748
0.579644 -13.1661 -13.1661
0.424161 -13.2511 -13.2511
0.420811 -13.4346 -13.4346
0.730554 -13.4478 -13.4478
0.732594 -13.2643 -13.2643
0.422499 -13.3428 -13.3428
0.575644 -13.4412 -13.4412
0.731589 -13.356 -13.356
0.578338 -13.2576 -13.2576
0.577005 -13.3493 -13.3493
0.420811 -13.4346 -13.4346
0.417361 -13.6189 -13.6189
0.728395 -13.6322 -13.6322
0.730554 -13.4478 -13.4478
0.419099 -13.5267 -13.5267
0.572839 -13.6255 -13.6255
0.72949 -13.5399 -13.5399
0.575644 -13.4412 -13.4412
0.574255 -13.5332 -13.5332
0.417361 -13.6189 -13.6189
0.413809 -13.804 -13.804
0.726117 -13.8173 -13.8173
0.728395 -13.6322 -13.6322
0.415597 -13.7113 -13.7113
0.569924 -13.8105 -13.8105
0.727271 -13.7246 -13.7246
0.572839 -13.6255 -13.6255
0.571395 -13.7179 -13.7179
0.413809 -13.804 -13.804
0.410157 -13.9897 -13.9897
0.723719 -14.0031 -14.0031
0.726117 -13.8173 -13.8173
0.411995 -13.8968 -13.8968
0.566899 -13.9963 -13.9963
0.724933 -13.9101 -13.9101
0.569924 -13.8105 -13.8105
0.568425 -13.9034 -13.9034
0.410157 -13.9897 -13.9897
0.406405 -14.1762 -14.1762
0.721204 -14.1897 -14.1897
0.723719 -14.0031 -14.0031
0.408293 -14.0829 -14.0829
0.563765 -14.1829 -14.1829
0.722476 -14.0963 -14.0963
0.566899 -13.9963 -13.9963
0.565346 -14.0895 -14.0895
0.406405 -14.1762 -14.1762
0.402554 -14.3635 -14.3635
0.718571 -14.377 -14.377
0.721204 -14.1897 -14.1897
0.404492 -14.2698 -14.2698
0.560523 -14.3702 -14.3702
0.719902 -14.2833 -14.2833
0.563765 -14.1829 -14.1829
0.562158 -14.2764 -14.2764
0.402554 -14.3635 -14.3635
0.398604 -14.5514 -14.5514
0.715821 -14.565 -14.565
0.718571 -14.377 -14.377
0.400591 -14.4574 -14.4574
0.557173 -14.5581 -14.5581
0.717211 -14.4709 -14.4709
0.560523 -14.3702 -14.3702
0.558861 -14.4641 -14.4641
0.398604 -14.5514 -14.5514
0.394556 -14.7401 -14.7401
0.712955 -14.7537 -14.7537
0.715821 -14.565 -14.565
0.396592 -14.6457 -14.6457
0.553716 -14.7468 -14.7468
0.714402 -14.6593 -14.6593
0.557173 -14.5581 -14.5581
0.555458 -14.6524 -14.6524
0.394556 -14.7401 -14.7401
0.390411 -14.9294 -14.9294
0.709973 -14.9431 -14.9431
0.712955 -14.7537 -14.7537
0.392496 -14.8347 -14.8347
0.550152 -14.9362 -14.9362
0.711478 -14.8483 -14.8483
0.553716 -14.7468 -14.7468
0.551947 -14.8414 -14.8414
0.390411 -14.9294 -14.9294
0.386169 -15.1195 -15.1195
0.706876 -15.1332 -15.1332
0.709973 -14.9431 -14.9431
0.388302 -15.0244 -15.0244
0.546483 -15.1263 -15.1263
0.708439 -15.0381 -15.0381
0.550152 -14.9362 -14.9362
0.548331 -15.0311 -15.0311
0.386169 -15.1195 -15.1195
0.381831 -15.3101 -15.3101
0.703664 -15.324 -15.324
0.706876 -15.1332 -15.1332
0.384012 -15.2147 -15.2147
0.542708 -15.317 -15.317
0.705284 -15.2285 -15.2285
0.546483 -15.1263 -15.1263
0.544608 -15.2215 -15.2215
0.381831 -15.3101 -15.3101
0.377397 -15.5015 -15.5015
0.700339 -15.5154 -15.5154
0.703664 -15.324 -15.324
0.379626 -15.4057 -15.4057
0.538828 -15.5084 -15.5084
0.702016 -15.4196 -15.4196
0.542708 -15.317 -15.317
0.540781 -15.4126 -15.4126
0.377397 -15.5015 -15.5015
0.372868 -15.6935 -15.6935
0.696901 -15.7074 -15.7074
0.700339 -15.5154 -15.5154
0.375144 -15.5974 -15.5974
0.534845 -15.7004 -15.7004
0.698634 -15.6113 -15.6113
0.538828 -15.5084 -15.5084
0.536849 -15.6043 -15.6043
0.372868 -15.6935 -15.6935
0.368245 -15.8861 -15.8861
0.69335 -15.9001 -15.9001
0.696901 -15.7074 -15.7074
0.370569 -15.7897 -15.7897
0.530758 -15.893 -15.893
0.695139 -15.8037 -15.8037
0.534845 -15.7004 -15.7004
0.532814 -15.7966 -15.7966
0.368245 -15.8861 -15.8861
0.363529 -16.0794 -16.0794
0.689687 -16.0934 -16.0934
0.69335 -15.9001 -15.9001
0.365899 -15.9827 -15.9827
0.526568 -16.0863 -16.0863
0.691532 -15.9967 -15.9967
0.530758 -15.893 -15.893
0.528676 -15.9896 -15.9896
0.363529 -16.0794 -16.0794
0.35872 -16.2733 -16.2733
0.685913 -16.2873 -16.2873
0.689687 -16.0934 -16.0934
0.361136 -16.1762 -16.1762
0.522276 -16.2802 -16.2802
0.687814 -16.1903 -16.1903
0.526568 -16.0863 -16.0863
0.524435 -16.1832 -16.1832
0.35872 -16.2733 -16.2733
0.353819 -16.4677 -16.4677
0.682028 -16.4819 -16.4819
0.685913 -16.2873 -16.2873
0.356281 -16.3704 -16.3704
0.517883 -16.4747 -16.4747
0.683984 -16.3845 -16.3845
0.522276 -16.2802 -16.2802
0.520092 -16.3774 -16.3774
0.353819 -16.4677 -16.4677
0.348826 -16.6628 -16.6628
0.678034 -16.677 -16.677
0.682028 -16.4819 -16.4819
0.351333 -16.5652 -16.5652
0.51339 -16.6698 -16.6698
0.680045 -16.5794 -16.5794
0.517883 -16.4747 -16.4747
0.515649 -16.5722 -16.5722
0.348826 -16.6628 -16.6628
0.343742 -16.8585 -16.8585
0.673931 -16.8727 -16.8727
0.678034 -16.677 -16.677
0.346295 -16.7606 -16.7606
0.508796 -16.8655 -16.8655
0.675996 -16.7748 -16.7748
0.51339 -16.6698 -16.6698
0.511105 -16.7676 -16.7676
0.343742 -16.8585 -16.8585
0.338568 -17.0547 -17.0547
0.669719 -17.069 -17.069
0.673931 -16.8727 -16.8727
0.341166 -16.9565 -16.9565
0.504103 -17.0618 -17.0618
0.671838 -16.9707 -16.9707
0.508796 -16.8655 -16.8655
0.506462 -16.9636 -16.9636
0.338568 -17.0547 -17.0547
0.333305 -17.2515 -17.2515
0.6654 -17.2658 -17.2658
0.669719 -17.069 -17.069
0.335948 -17.153 -17.153
0.499312 -17.2586 -17.2586
0.667573 -17.1673 -17.1673
0.504103 -17.0618 -17.0618
0.50172 -17.1601 -17.1601
0.333305 -17.2515 -17.2515
0.327953 -17.4488 -17.4488
0.660973 -17.4632 -17.4632
0.6654 -17.2658 -17.2658
0.33064 -17.3501 -17.3501
0.494423 -17.4559 -17.4559
0.6632 -17.3644 -17.3644
0.499312 -17.2586 -17.2586
0.49688 -17.3572 -17.3572
0.327953 -17.4488 -17.4488
0.322514 -17.6467 -17.6467
0.656441 -17.6611 -17.6611
0.660973 -17.4632 -17.4632
0.325244 -17.5477 -17.5477
0.489437 -17.6538 -17.6538
0.65872 -17.562 -17.562
0.494423 -17.4559 -17.4559
0.491942 -17.5548 -17.5548
0.322514 -17.6467 -17.6467
0.316987 -17.8451 -17.8451
0.651803 -17.8595 -17.8595
0.656441 -17.6611 -17.6611
0.319761 -17.7458 -17.7458
0.484354 -17.8522 -17.8522
0.654135 -17.7602 -17.7602
0.489437 -17.6538 -17.6538
0.486908 -17.753 -17.753
0.316987 -17.8451 -17.8451
0.311373 -18.044 -18.044
0.64706 -18.0585 -18.0585
0.651803 -17.8595 -17.8595
0.314191 -17.9445 -17.9445
0.479176 -18.0512 -18.0512
0.649445 -17.9589 -17.9589
0.484354 -17.8522 -17.8522
0.481777 -17.9516 -17.9516
0.311373 -18.044 -18.044
0.305674 -18.2434 -18.2434
0.642213 -18.2579 -18.2579
0.64706 -18.0585 -18.0585
0.308535 -18.1436 -18.1436
0.473903 -18.2506 -18.2506
0.64465 -18.1581 -18.1581
0.479176 -18.0512 -18.0512
0.476551 -18.1508 -18.1508
0.305674 -18.2434 -18.2434
0.29989 -18.4433 -18.4433
0.637263 -18.4579 -18.4579
0.642213 -18.2579 -18.2579
0.302793 -18.3433 -18.3433
0.468536 -18.4505 -18.4505
0.639751 -18.3578 -18.3578
0.473903 -18.2506 -18.2506
0.471231 -18.3505 -18.3505
0.29989 -18.4433 -18.4433
0.294022 -18.6437 -18.6437
0.632211 -18.6583 -18.6583
0.637263 -18.4579 -18.4579
0.296967 -18.5435 -18.5435
0.463076 -18.651 -18.651
0.63475 -18.558 -18.558
0.468536 -18.4505 -18.4505
0.465817 -18.5507 -18.5507
0.294022 -18.6437 -18.6437
0.288071 -18.8446 -18.8446
0.627057 -18.8592 -18.8592
0.632211 -18.6583 -18.6583
0.291057 -18.7441 -18.7441
0.457523 -18.8519 -18.8519
0.629646 -18.7587 -18.7587
0.463076 -18.651 -18.651
0.460311 -18.7514 -18.7514
0.288071 -18.8446 -18.8446
0.282036 -19.0459 -19.0459
0.621802 -19.0606 -19.0606
0.627057 -18.8592 -18.8592
0.285064 -18.9452 -18.9452
0.451878 -19.0532 -19.0532
0.624442 -18.9599 -18.9599
0.457523 -18.8519 -18.8519
0.454712 -18.9525 -18.9525
0.282036 -19.0459 -19.0459
0.27592 -19.2477 -19.2477
0.616446 -19.2624 -19.2624
0.621802 -19.0606 -19.0606
0.278988 -19.1468 -19.1468
0.446142 -19.255 -19.255
0.619136 -19.1615 -19.1615
0.451878 -19.0532 -19.0532
0.449021 -19.1541 -19.1541
0.27592 -19.2477 -19.2477
0.269723 -19.4499 -19.4499
0.610992 -19.4647 -19.4647
0.616446 -19.2624 -19.2624
0.272832 -19.3488 -19.3488
0.440316 -19.4573 -19.4573
0.613731 -19.3635 -19.3635
0.446142 -19.255 -19.255
0.44324 -19.3561 -19.3561
0.269723 -19.4499 -19.4499
0.263445 -19.6526 -19.6526
0.605438 -19.6674 -19.6674
0.610992 -19.4647 -19.4647
0.266594 -19.5512 -19.5512
0.434401 -19.6599 -19.6599
0.608227 -19.566 -19.566
0.440316 -19.4573 -19.4573
0.437369 -19.5585 -19.5585
0.263445 -19.6526 -19.6526
0.257088 -19.8557 -19.8557
0.599787 -19.8705 -19.8705
0.605438 -19.6674 -19.6674
0.260277 -19.7541 -19.7541
0.428396 -19.863 -19.863
0.602625 -19.7689 -19.7689
0.434401 -19.6599 -19.6599
0.43141 -19.7614 -19.7614
0.257088 -19.8557 -19.8557
0.250653 -20.0592 -20.0592
0.594039 -20.074 -20.074
0.599787 -19.8705 -19.8705
0.25388 -19.9574 -19.9574
0.422304 -20.0665 -20.0665
0.596925 -19.9722 -19.9722
0.428396 -19.863 -19.863
0.425361 -19.9647 -19.9647
0.250653 -20.0592 -20.0592
0.244139 -20.263 -20.263
0.588195 -20.2779 -20.2779
0.594039 -20.074 -20.074
0.247405 -20.1611 -20.1611
0.416125 -20.2704 -20.2704
0.591129 -20.1759 -20.1759
0.422304 -20.0665 -20.0665
0.419226 -20.1684 -20.1684
0.244139 -20.263 -20.263
0.237548 -20.4673 -20.4673
0.582256 -20.4822 -20.4822
0.588195 -20.2779 -20.2779
0.240853 -20.3651 -20.3651
0.40986 -20.4747 -20.4747
0.585237 -20.38 -20.38
0.416125 -20.2704 -20.2704
0.413004 -20.3725 -20.3725
0.237548 -20.4673 -20.4673
0.230881 -20.672 -20.672
0.576221 -20.6869 -20.6869
0.582256 -20.4822 -20.4822
0.234224 -20.5696 -20.5696
0.403509 -20.6794 -20.6794
0.57925 -20.5845 -20.5845
0.40986 -20.4747 -20.4747
0.406695 -20.577 -20.577
0.230881 -20.672 -20.672
0.224139 -20.877 -20.877
0.570093 -20.8919 -20.8919
0.576221 -20.6869 -20.6869
0.227519 -20.7744 -20.7744
0.397074 -20.8844 -20.8844
0.573169 -20.7893 -20.7893
0.403509 -20.6794 -20.6794
0.400302 -20.7818 -20.7818
0.224139 -20.877 -20.877
0.217322 -21.0823 -21.0823
0.563873 -21.0973 -21.0973
0.570093 -20.8919 -20.8919
0.220739 -20.9796 -20.9796
0.390555 -21.0898 -21.0898
0.566995 -20.9945 -20.9945
0.397074 -20.8844 -20.8844
0.393825 -20.987 -20.987
0.217322 -21.0823 -21.0823
0.210431 -21.288 -21.288
0.55756 -21.303 -21.303
0.563873 -21.0973 -21.0973
0.213885 -21.1851 -21.1851
0.383953 -21.2955 -21.2955
0.560728 -21.2001 -21.2001
0.390555 -21.0898 -21.0898
0.387265 -21.1926 -21.1926
0.210431 -21.288 -21.288
0.203467 -21.4941 -21.4941
0.551156 -21.509 -21.509
0.55756 -21.303 -21.303
0.206958 -21.391 -21.391
0.377269 -21.5015 -21.5015
0.554369 -21.406 -21.406
0.383953 -21.2955 -21.2955
0.380621 -21.3985 -21.3985
0.203467 -21.4941 -21.4941
0.196431 -21.7004 -21.7004
0.544661 -21.7154 -21.7154
0.551156 -21.509 -21.509
0.199958 -21.5972 -21.5972
0.370504 -21.7079 -21.7079
0.54792 -21.6122 -21.6122
0.377269 -21.5015 -21.5015
0.373897 -21.6047 -21.6047
0.196431 -21.7004 -21.7004
0.189324 -21.9071 -21.9071
0.538077 -21.9221 -21.9221
0.544661 -21.7154 -21.7154
0.192886 -21.8037 -21.8037
0.363658 -21.9146 -21.9146
0.54138 -21.8187 -21.8187
0.370504 -21.7079 -21.7079
0.367091 -21.8112 -21.8112
0.189324 -21.9071 -21.9071
0.182146 -22.1141 -22.1141
0.531404 -22.1291 -22.1291
0.538077 -21.9221 -21.9221
0.185743 -22.0106 -22.0106
0.356733 -22.1215 -22.1215
0.534752 -22.0256 -22.0256
0.363658 -21.9146 -21.9146
0.360205 -22.018 -22.018
0.182146 -22.1141 -22.1141
0.174898 -22.3213 -22.3213
0.524644 -22.3364 -22.3364
0.531404 -22.1291 -22.1291
0.178531 -22.2177 -22.2177
0.349729 -22.3288 -22.3288
0.528035 -22.2327 -22.2327
0.356733 -22.1215 -22.1215
0.35324 -22.2251 -22.2251
0.174898 -22.3213 -22.3213
0.167582 -22.5289 -22.5289
0.517796 -22.5439 -22.5439
0.524644 -22.3364 -22.3364
0.171249 -22.4251 -22.4251
0.342647 -22.5364 -22.5364
0.521231 -22.4401 -22.4401
0.349729 -22.3288 -22.3288
0.346197 -22.4326 -22.4326
0.167582 -22.5289 -22.5289
0.160199 -22.7367 -22.7367
0.510862 -22.7517 -22.7517
0.517796 -22.5439 -22.5439
0.163899 -22.6327 -22.6327
0.335488 -22.7442 -22.7442
0.51434 -22.6478 -22.6478
0.342647 -22.5364 -22.5364
0.339077 -22.6402 -22.6402
0.160199 -22.7367 -22.7367
0.152748 -22.9447 -22.9447
0.503843 -22.9598 -22.9598
0.510862 -22.7517 -22.7517
0.156481 -22.8407 -22.8407
0.328253 -22.9522 -22.9522
0.507363 -22.8557 -22.8557
0.335488 -22.7442 -22.7442
0.33188 -22.8482 -22.8482
0.152748 -22.9447 -22.9447
0.145231 -23.153 -23.153
0.49674 -23.1681 -23.1681
0.503843 -22.9598 -22.9598
0.148997 -23.0489 -23.0489
0.320942 -23.1605 -23.1605
0.500302 -23.0639 -23.0639
0.328253 -22.9522 -22.9522
0.324607 -23.0564 -23.0564
0.145231 -23.153 -23.153
0.137648 -23.3616 -23.3616
0.489552 -23.3766 -23.3766
0.49674 -23.1681 -23.1681
0.141447 -23.2573 -23.2573
0.313557 -23.3691 -23.3691
0.493156 -23.2723 -23.2723
0.320942 -23.1605 -23.1605
0.317259 -23.2648 -23.2648
0.137648 -23.3616 -23.3616
0.130001 -23.5703 -23.5703
0.482283 -23.5854 -23.5854
0.489552 -23.3766 -23.3766
0.133833 -23.4659 -23.4659
0.306099 -23.5778 -23.5778
0.485928 -23.481 -23.481
0.313557 -23.3691 -23.3691
0.309837 -23.4734 -23.4734
0.130001 -23.5703 -23.5703
0.122291 -23.7793 -23.7793
0.474931 -23.7944 -23.7944
0.482283 -23.5854 -23.5854
0.126154 -23.6748 -23.6748
0.298568 -23.7868 -23.7868
0.478617 -23.6899 -23.6899
0.306099 -23.5778 -23.5778
0.302342 -23.6823 -23.6823
0.122291 -23.7793 -23.7793
0.114518 -23.9885 -23.9885
0.467498 -24.0036 -24.0036
0.474931 -23.7944 -23.7944
0.118412 -23.8839 -23.8839
0.290965 -23.996 -23.996
0.471225 -23.8989 -23.8989
0.298568 -23.7868 -23.7868
0.294775 -23.8914 -23.8914
0.114518 -23.9885 -23.9885
0.106683 -24.1979 -24.1979
0.459986 -24.2129 -24.2129
0.467498 -24.0036 -24.0036
0.110608 -24.0931 -24.0931
0.283291 -24.2054 -24.2054
0.463752 -24.1082 -24.1082
0.290965 -23.996 -23.996
0.287137 -24.1007 -24.1007
0.106683 -24.1979 -24.1979
0.0987876 -24.4074 -24.4074
0.452394 -24.4225 -24.4225
0.459986 -24.2129 -24.2129
0.102743 -24.3026 -24.3026
0.275547 -24.4149 -24.4149
0.4562 -24.3177 -24.3177
0.283291 -24.2054 -24.2054
0.279428 -24.3101 -24.3101
0.0987876 -24.4074 -24.4074
0.0908319 -24.6171 -24.6171
0.444724 -24.6322 -24.6322
0.452394 -24.4225 -24.4225
0.0948172 -24.5122 -24.5122
0.267734 -24.6246 -24.6246
0.448569 -24.5273 -24.5273
0.275547 -24.4149 -24.4149
0.271649 -24.5198 -24.5198
0.0908319 -24.6171 -24.6171
0.082817 -24.827 -24.827
0.436976 -24.8421 -24.8421
0.444724 -24.6322 -24.6322
0.0868318 -24.722 -24.722
0.259853 -24.8345 -24.8345
0.44086 -24.7371 -24.7371
0.267734 -24.6246 -24.6246
0.263802 -24.7296 -24.7296
0.082817 -24.827 -24.827
0.074744 -25.037 -25.037
0.429152 -25.0521 -25.0521
0.436976 -24.8421 -24.8421
0.0787877 -24.932 -24.932
0.251904 -25.0445 -25.0445
0.433074 -24.947 -24.947
0.259853 -24.8345 -24.8345
0.255887 -24.9395 -24.9395
0.074744 -25.037 -25.037
0.0666136 -25.2472 -25.2472
0.421252 -25.2622 -25.2622
0.429152 -25.0521 -25.0521
0.0706859 -25.1421 -25.1421
0.243889 -25.2547 -25.2547
0.425212 -25.1571 -25.1571
0.251904 -25.0445 -25.0445
0.247905 -25.1496 -25.1496
0.0666136 -25.2472 -25.2472
0.0584269 -25.4575 -25.4575
0.413278 -25.4725 -25.4725
0.421252 -25.2622 -25.2622
0.0625272 -25.3523 -25.3523
0.235809 -25.465 -25.465
0.417274 -25.3673 -25.3673
0.243889 -25.2547 -25.2547
0.239857 -25.3598 -25.3598
0.0584269 -25.4575 -25.4575
0.0501846 -25.6679 -25.6679
0.40523 -25.6829 -25.6829
0.413278 -25.4725 -25.4725
0.0543126 -25.5627 -25.5627
0.227664 -25.6754 -25.6754
0.409263 -25.5777 -25.5777
0.235809 -25.465 -25.465
0.231744 -25.5702 -25.5702
0.0501846 -25.6679 -25.6679
0.0418878 -25.8784 -25.8784
0.39711 -25.8934 -25.8934
0.40523 -25.6829 -25.6829
0.046043 -25.7731 -25.7731
0.219456 -25.8859 -25.8859
0.401179 -25.7881 -25.7881
0.227664 -25.6754 -25.6754
0.223568 -25.7806 -25.7806
0.0418878 -25.8784 -25.8784
0.0335373 -26.089 -26.089
0.388919 -26.104 -26.104
0.39711 -25.8934 -25.8934
0.0377192 -25.9837 -25.9837
0.211186 -26.0965 -26.0965
0.393023 -25.9987 -25.9987
0.219456 -25.8859 -25.8859
0.215328 -25.9912 -25.9912
0.0335373 -26.089 -26.089
0.0251338 -26.2997 -26.2997
0.38066 -26.3146 -26.3146
0.388919 -26.104 -26.104
0.0293421 -26.1943 -26.1943
0.202855 -26.3071 -26.3071
0.384798 -26.2093 -26.2093
0.211186 -26.0965 -26.0965
0.207028 -26.2018 -26.2018
0.0251338 -26.2997 -26.2997
0.016678 -26.5104 -26.5104
0.372335 -26.5254 -26.5254
0.38066 -26.3146 -26.3146
0.0209125 -26.405 -26.405
0.194467 -26.5179 -26.5179
0.376505 -26.42 -26.42
0.202855 -26.3071 -26.3071
0.198668 -26.4125 -26.4125
0.016678 -26.5104 -26.5104
0.00816912 -26.7212 -26.7212
0.363951 -26.7362 -26.7362
0.372335 -26.5254 -26.5254
0.0124302 -26.6158 -26.6158
0.186023 -26.7287 -26.7287
0.36815 -26.6308 -26.6308
0.194467 -26.5179 -26.5179
0.190252 -26.6233 -26.6233
0.00816912 -26.7212 -26.7212
-0.00039384 -26.9321 -26.9321
0.355515 -26.947 -26.947
0.363951 -26.7362 -26.7362
0.00389478 -26.8267 -26.8267
0.177526 -26.9395 -26.9395
0.359739 -26.8416 -26.8416
0.186023 -26.7287 -26.7287
0.181781 -26.8341 -26.8341
-0.00039384 -26.9321 -26.9321
-0.00901714 -27.143 -27.143
0.347044 -27.1579 -27.1579
0.355515 -26.947 -26.947
-0.00469774 -27.0376 -27.0376
0.16898 -27.1505 -27.1505
0.351283 -27.0525 -27.0525
0.177526 -26.9395 -26.9395
0.17326 -27.045 -27.045
-0.00901714 -27.143 -27.143
-0.0177067 -27.354 -27.354
0.33856 -27.3689 -27.3689
0.347044 -27.1579 -27.1579
-0.0133526 -27.2485 -27.2485
0.160376 -27.3615 -27.3615
0.342801 -27.2634 -27.2634
0.16898 -27.1505 -27.1505
0.164686 -27.256 -27.256
-0.0177067 -27.354 -27.354
-0.0264651 -27.5652 -27.5652
0.330121 -27.5802 -27.5802
0.33856 -27.3689 -27.3689
-0.0220804 -27.4596 -27.4596
0.15169 -27.5727 -27.5727
0.334329 -27.4745 -27.4745
0.160376 -27.3615 -27.3615
0.15605 -27.467 -27.467
-0.0264651 -27.5652 -27.5652
-0.0351957 -27.7764 -27.7764
0.32166 -27.7923 -27.7923
0.330121 -27.5802 -27.5802
-0.0308466 -27.6708 -27.6708
0.142907 -27.7843 -27.7843
0.325929 -27.686 -27.686
0.15169 -27.5727 -27.5727
0.147292 -27.6784 -27.6784
      </DataArray> 
      <DataArray type="Float64" NumberOfComponents="4" Name="CauchyStress" format="ascii">
-14580.1 -4401.62 0 -3430.56
-9409.18 178.504 0 153.934
-7052.34 -767.138 0 -379.177
-6663.9 -2011.23 0 -260.153
-10457.3 214.935 0 -463.494
-8774.11 -541.678 0 -488.081
-6922.59 -1445.29 0 -444.963
-7820.89 -2361.29 0 -838.692
-8667.2 -1189.28 0 -778.498
-9409.18 178.504 0 153.934
-9330.16 101.771 0 61.6755
-7154.81 -233.057 0 -169.167
-7052.34 -767.138 0 -379.177
-9340.42 -35.0924 0 77.1364
-8442.64 -81.4509 0 -64.6324
-7149.76 -396.684 0 -267.121
-8774.11 -541.678 0 -488.081
-8548.7 -195.671 0 -185.964
-9330.16 101.771 0 61.6755
-9505.4 -34.2129 0 45.0661
-7063.93 -49.0025 0 -48.4429
-7154.81 -233.057 0 -169.167
-9431.05 65.5026 0 64.7772
-8332.94 -6.59403 0 15.2766
-7100.15 -119.052 0 -90.5487
-8442.64 -81.4509 0 -64.6324
-8382.9 -33.2729 0 -19.282
-9505.4 -34.2129 0 45.0661
-9546.85 9.52076 0 30.9308
-7002.42 -10.1721 0 -18.3015
-7063.93 -49.0025 0 -48.4429
-9528.94 -31.2767 0 25.481
-8282.36 2.77434 0 31.4011
-7036.63 -20.4965 0 -28.9424
-8332.94 -6.59403 0 15.2766
-8297.85 3.46322 0 32.0247
-9546.85 9.52076 0 30.9308
-9580.52 -11.5066 0 42.3001
-6940.98 4.15526 0 -12.5286
-7002.42 -10.1721 0 -18.3015
-9571.12 6.51107 0 40.7198
-8258.87 1.64324 0 26.083
-6966.69 -0.901304 0 -12.8946
-8282.36 2.77434 0 31.4011
-8273.1 1.23964 0 27.0432
-9580.52 -11.5066 0 42.3001
-9565.53 1.23195 0 47.1492
-6898.57 1.2879 0 -16.4062
-6940.98 4.15526 0 -12.5286
-9573.96 -8.44438 0 42.2985
-8229.54 -0.430652 0 21.9918
-6920.45 3.46982 0 -14.7267
-8258.87 1.64324 0 26.083
-8243.36 1.23618 0 24.5922
-9565.53 1.23195 0 47.1492
-9542.75 -2.88275 0 56.2231
-6857.45 -1.38561 0 -18.674
-6898.57 1.2879 0 -16.4062
-9556.92 0.824657 0 52.7902
-8198.23 -2.66668 0 20.2359
-6876.75 0.00407089 0 -17.5659
-8229.54 -0.430652 0 21.9918
-8215.16 -1.9168 0 20.328
-9542.75 -2.88275 0 56.2231
-9503.47 -0.10685 0 63.2017
-6820.8 -4.90327 0 -19.4915
-6857.45 -1.38561 0 -18.674
-9523.63 -2.14505 0 59.1582
-8161.52 -3.88945 0 21.3728
-6839.36 -3.26659 0 -19.4859
-8198.23 -2.66668 0 20.2359
-8179.97 -3.22347 0 20.6251
-9503.47 -0.10685 0 63.2017
-9460.38 -0.983476 0 70.9542
-6784.09 -6.96995 0 -17.9298
-6820.8 -4.90327 0 -19.4915
-9482.72 -0.192597 0 67.3661
-8122.51 -4.81369 0 24.5869
-6802.19 -6.04254 0 -18.8883
-8161.52 -3.88945 0 21.3728
-8142.49 -4.46601 0 22.7149
-9460.38 -0.983476 0 70.9542
-9412.66 -0.516421 0 78.1003
-6748.16 -8.39701 0 -15.0555
-6784.09 -6.96995 0 -17.9298
-9436.71 -0.878464 0 74.4126
-8081.29 -5.24315 0 29.0266
-6766.2 -7.78758 0 -16.6673
-8122.51 -4.81369 0 24.5869
-8101.98 -5.03458 0 26.7035
-9412.66 -0.516421 0 78.1003
-9363.72 -0.785016 0 85.2813
-6712.05 -9.11213 0 -11.1771
-6748.16 -8.39701 0 -15.0555
-9388.37 -0.575565 0 81.7722
-8039.15 -5.5252 0 34.2228
-6730.06 -8.81076 0 -13.1922
-8081.29 -5.24315 0 29.0266
-8060.36 -5.4174 0 31.5538
-9363.72 -0.785016 0 85.2813
-9313.71 -0.817007 0 92.2341
-6676.03 -9.47598 0 -6.82733
-6712.05 -9.11213 0 -11.1771
-9338.76 -0.825756 0 88.7451
-7996.33 -5.64531 0 39.749
-6694.07 -9.33505 0 -9.05194
-8039.15 -5.5252 0 34.2228
-8017.77 -5.58939 0 36.9598
-9313.71 -0.817007 0 92.2341
-9263.45 -0.989632 0 99.0862
-6639.92 -9.59353 0 -2.21599
-6676.03 -9.47598 0 -6.82733
-9288.61 -0.887121 0 95.6903
-7953.26 -5.71935 0 45.4253
-6657.97 -9.55402 0 -4.53772
-7996.33 -5.64531 0 39.749
-7974.83 -5.69072 0 42.5787
-9263.45 -0.989632 0 99.0862
-9213.01 -1.13033 0 105.798
-6603.81 -9.59545 0 2.46945
-6639.92 -9.59353 0 -2.21599
-9238.23 -1.06408 0 102.451
-7910.02 -5.75501 0 51.1091
-6621.87 -9.60617 0 0.122101
-7953.26 -5.71935 0 45.4253
-7931.64 -5.73764 0 48.2706
-9213.01 -1.13033 0 105.798
-9162.54 -1.29981 0 112.391
-6567.67 -9.53336 0 7.15364
-6603.81 -9.59545 0 2.46945
-9187.78 -1.21119 0 109.112
-7866.73 -5.78414 0 56.7469
-6585.74 -9.56895 0 4.81636
-7910.02 -5.75501 0 51.1091
-7888.38 -5.77085 0 53.9367
-9162.54 -1.29981 0 112.391
-9112.07 -1.47142 0 118.863
-6531.51 -9.44695 0 11.7845
-6567.67 -9.53336 0 7.15364
-9137.31 -1.38565 0 115.64
-7823.41 -5.81096 0 62.302
-6549.59 -9.49219 0 9.47709
-7866.73 -5.78414 0 56.7469
-7845.07 -5.7968 0 59.5358
-9112.07 -1.47142 0 118.863
-9061.61 -1.65292 0 125.216
-6495.35 -9.35227 0 16.3433
-6531.51 -9.44695 0 11.7845
-9086.84 -1.56077 0 122.055
-7780.09 -5.84265 0 67.7628
-6513.43 -9.39978 0 14.074
-7823.41 -5.81096 0 62.302
-7801.75 -5.82631 0 65.0448
-9061.61 -1.65292 0 125.216
-9011.16 -1.84117 0 131.453
-6459.18 -9.25908 0 20.8193
-6495.35 -9.35227 0 16.3433
-9036.38 -1.74634 0 128.349
-7736.77 -5.8802 0 73.1228
-6477.27 -9.30526 0 18.5918
-7780.09 -5.84265 0 67.7628
-7758.43 -5.86049 0 70.4555
-9011.16 -1.84117 0 131.453
-8960.71 -2.03645 0 137.574
-6423.01 -9.17081 0 25.2103
-6459.18 -9.25908 0 20.8193
-8985.93 -1.93789 0 134.528
-7693.45 -5.92466 0 78.3814
-6441.1 -9.21417 0 23.0255
-7736.77 -5.8802 0 73.1228
-7715.11 -5.90162 0 75.7648
-8960.71 -2.03645 0 137.574
-8910.26 -2.23851 0 143.58
-6386.84 -9.08901 0 29.5157
-6423.01 -9.17081 0 25.2103
-8935.48 -2.13668 0 140.591
-7650.12 -5.9759 0 83.5386
-6404.93 -9.12909 0 27.3736
-7693.45 -5.92466 0 78.3814
-7671.78 -5.94942 0 80.9726
-8910.26 -2.23851 0 143.58
-8859.8 -2.44694 0 149.47
-6350.66 -9.01385 0 33.7366
-6386.84 -9.08901 0 29.5157
-8885.03 -2.34194 0 146.539
-7606.79 -6.03375 0 88.5957
-6368.75 -9.0506 0 31.6366
-7650.12 -5.9759 0 83.5386
-7628.46 -6.00404 0 86.0796
-8859.8 -2.44694 0 149.47
-8809.35 -2.6616 0 155.247
-6314.47 -8.94513 0 37.8739
-6350.66 -9.01385 0 33.7366
-8834.58 -2.55352 0 152.373
-7563.46 -6.09786 0 93.5535
-6332.57 -8.97871 0 35.8156
-7606.79 -6.03375 0 88.5957
-7585.12 -6.06504 0 91.0869
-8809.35 -2.6616 0 155.247
-8758.88 -2.8821 0 160.91
-6278.28 -8.88246 0 41.9289
-6314.47 -8.94513 0 37.8739
-8784.11 -2.77113 0 158.093
-7520.12 -6.1679 0 98.4133
-6296.38 -8.91306 0 39.9117
-7563.46 -6.09786 0 93.5535
-7541.79 -6.13216 0 95.9956
-8758.88 -2.8821 0 160.91
-8708.41 -3.10819 0 166.46
-6242.09 -8.82545 0 45.9024
-6278.28 -8.88246 0 41.9289
-8733.64 -2.99447 0 163.699
-7476.77 -6.24353 0 103.176
-6260.19 -8.85327 0 43.9258
-7520.12 -6.1679 0 98.4133
-7498.44 -6.20503 0 100.807
-8708.41 -3.10819 0 166.46
-8657.92 -3.33956 0 171.898
-6205.89 -8.77375 0 49.7952
-6242.09 -8.82545 0 45.9024
-8683.17 -3.22324 0 169.193
-7433.42 -6.32445 0 107.842
-6223.99 -8.79896 0 47.8589
-7476.77 -6.24353 0 103.176
-7455.1 -6.28335 0 105.521
-8657.92 -3.33956 0 171.898
-8607.44 -3.57591 0 177.225
-6169.69 -8.72703 0 53.608
-6205.89 -8.77375 0 49.7952
-8632.68 -3.45713 0 174.575
-7390.06 -6.41037 0 112.412
-6187.79 -8.74978 0 51.7116
-7433.42 -6.32445 0 107.842
-7411.74 -6.3668 0 110.139
-8607.44 -3.57591 0 177.225
-8556.94 -3.81694 0 182.44
-6133.49 -8.68501 0 57.3414
-6169.69 -8.72703 0 53.608
-8582.19 -3.69586 0 179.846
-7346.7 -6.50101 0 116.887
-6151.59 -8.70545 0 55.4846
-7390.06 -6.41037 0 112.412
-7368.38 -6.45512 0 114.661
-8556.94 -3.81694 0 182.44
-8506.44 -4.06236 0 187.545
-6097.28 -8.64745 0 60.996
-6133.49 -8.68501 0 57.3414
-8531.69 -3.93912 0 185.006
-7303.33 -6.59611 0 121.267
-6115.38 -8.66569 0 59.1785
-7346.7 -6.50101 0 116.887
-7325.02 -6.54802 0 119.089
-8506.44 -4.06236 0 187.545
-8455.93 -4.31188 0 192.541
-6061.07 -8.61409 0 64.5721
-6097.28 -8.64745 0 60.996
-8481.19 -4.18663 0 190.057
-7259.96 -6.69541 0 125.553
-6079.17 -8.63026 0 62.7938
-7303.33 -6.59611 0 121.267
-7281.65 -6.64525 0 123.422
-8455.93 -4.31188 0 192.541
-8405.42 -4.56521 0 197.427
-6024.85 -8.58474 0 68.0703
-6061.07 -8.61409 0 64.5721
-8430.67 -4.43809 0 194.998
-7216.59 -6.79867 0 129.746
-6042.96 -8.59893 0 66.3309
-7259.96 -6.69541 0 125.553
-7238.27 -6.74656 0 127.661
-8405.42 -4.56521 0 197.427
-8354.9 -4.82206 0 202.205
-5988.63 -8.55916 0 71.4911
-6024.85 -8.58474 0 68.0703
-8380.16 -4.69321 0 199.83
-7173.2 -6.90563 0 133.846
-6006.74 -8.57149 0 69.7903
-7216.59 -6.79867 0 129.746
-7194.9 -6.8517 0 131.808
-8354.9 -4.82206 0 202.205
-8304.37 -5.08217 0 206.876
-5952.41 -8.53718 0 74.8349
-5988.63 -8.55916 0 71.4911
-8329.63 -4.95173 0 204.554
-7129.82 -7.01607 0 137.853
-5970.52 -8.54774 0 73.1726
-7173.2 -6.90563 0 133.846
-7151.51 -6.96043 0 135.861
-8304.37 -5.08217 0 206.876
-8253.84 -5.34526 0 211.439
-5916.18 -8.51858 0 78.1021
-5952.41 -8.53718 0 74.8349
-8279.11 -5.21336 0 209.17
-7086.43 -7.12974 0 141.769
-5934.29 -8.52747 0 76.478
-7129.82 -7.01607 0 137.853
-7108.13 -7.07251 0 139.823
-8253.84 -5.34526 0 211.439
-8203.3 -5.61105 0 215.896
-5879.95 -8.50318 0 81.2933
-5916.18 -8.51858 0 78.1021
-8228.57 -5.47783 0 213.68
-7043.04 -7.24642 0 145.593
-5898.07 -8.5105 0 79.7072
-7086.43 -7.12974 0 141.769
-7064.73 -7.18772 0 143.693
-8203.3 -5.61105 0 215.896
-8152.76 -5.87929 0 220.246
-5843.72 -8.4908 0 84.4089
-5879.95 -8.50318 0 81.2933
-8178.04 -5.74488 0 218.084
-6999.64 -7.36588 0 149.327
-5861.84 -8.49663 0 82.8605
-7043.04 -7.24642 0 145.593
-7021.34 -7.30582 0 147.472
-8152.76 -5.87929 0 220.246
-8102.22 -6.14972 0 224.492
-5807.49 -8.48124 0 87.4493
-5843.72 -8.4908 0 84.4089
-8127.49 -6.01425 0 222.382
-6956.24 -7.4879 0 152.971
-5825.61 -8.48568 0 85.9384
-6999.64 -7.36588 0 149.327
-6977.94 -7.42658 0 151.16
-8102.22 -6.14972 0 224.492
-8051.67 -6.42209 0 228.634
-5771.25 -8.47432 0 90.415
-5807.49 -8.48124 0 87.4493
-8076.95 -6.28568 0 226.576
-6912.84 -7.61227 0 156.525
-5789.37 -8.47746 0 88.9414
-6956.24 -7.4879 0 152.971
-6934.54 -7.54981 0 154.759
-8051.67 -6.42209 0 228.634
-8001.12 -6.69614 0 232.671
-5735.02 -8.46987 0 93.3065
-5771.25 -8.47432 0 90.415
-8026.4 -6.55892 0 230.665
-6869.43 -7.73876 0 159.989
-5753.14 -8.4718 0 91.87
-6912.84 -7.61227 0 156.525
-6891.14 -7.67526 0 158.268
-8001.12 -6.69614 0 232.671
-7950.57 -6.97162 0 236.605
-5698.78 -8.46772 0 96.1242
-5735.02 -8.46987 0 93.3065
-7975.84 -6.83371 0 234.651
-6826.03 -7.86717 0 163.366
-5716.9 -8.46852 0 94.7245
-6869.43 -7.73876 0 159.989
-6847.73 -7.80274 0 161.689
-7950.57 -6.97162 0 236.605
-7900.01 -7.24831 0 240.437
-5662.54 -8.46768 0 98.8686
-5698.78 -8.46772 0 96.1242
-7925.29 -7.10983 0 238.534
-6782.62 -7.99729 0 166.654
-5680.66 -8.46745 0 97.5055
-6826.03 -7.86717 0 163.366
-6804.32 -7.93203 0 165.021
-7900.01 -7.24831 0 240.437
-7849.45 -7.52595 0 244.167
-5626.3 -8.4696 0 101.54
-5662.54 -8.46768 0 98.8686
-7874.73 -7.38702 0 242.315
-6739.21 -8.12893 0 169.855
-5644.42 -8.46841 0 100.213
-6782.62 -7.99729 0 166.654
-6760.91 -8.06293 0 168.266
-7849.45 -7.52595 0 244.167
-7798.88 -7.80433 0 247.795
-5590.06 -8.4733 0 104.139
-5626.3 -8.4696 0 101.54
-7824.17 -7.66506 0 245.994
-6695.79 -8.26187 0 172.969
-5608.18 -8.47124 0 102.849
-6739.21 -8.12893 0 169.855
-6717.5 -8.19524 0 171.423
-7798.88 -7.80433 0 247.795
-7748.32 -8.0832 0 251.323
-5553.82 -8.47863 0 106.667
-5590.06 -8.4733 0 104.139
-7773.6 -7.94371 0 249.572
-6652.38 -8.39592 0 175.997
-5571.94 -8.47577 0 105.412
-6695.79 -8.26187 0 172.969
-6674.09 -8.32877 0 174.494
-7748.32 -8.0832 0 251.323
-7697.75 -8.36235 0 254.751
-5517.57 -8.48541 0 109.122
-5553.82 -8.47863 0 106.667
-7723.04 -8.22276 0 253.05
-6608.96 -8.5309 0 178.94
-5535.69 -8.48185 0 107.903
-6652.38 -8.39592 0 175.997
-6630.67 -8.46331 0 177.479
-7697.75 -8.36235 0 254.751
-7647.18 -8.64156 0 258.08
-5481.33 -8.49351 0 111.507
-5517.57 -8.48541 0 109.122
-7672.47 -8.50197 0 256.428
-6565.55 -8.66661 0 181.797
-5499.45 -8.48931 0 110.324
-6608.96 -8.5309 0 178.94
-6587.25 -8.59868 0 180.379
-7647.18 -8.64156 0 258.08
-7596.61 -8.92062 0 261.31
-5445.08 -8.50276 0 113.821
-5481.33 -8.49351 0 111.507
-7621.9 -8.78112 0 259.707
-6522.13 -8.80288 0 184.569
-5463.21 -8.498 0 112.673
-6565.55 -8.66661 0 181.797
-6543.84 -8.73469 0 183.193
-7596.61 -8.92062 0 261.31
-7546.04 -9.19931 0 264.442
-5408.84 -8.51301 0 116.066
-5445.08 -8.50276 0 113.821
-7571.32 -9.06002 0 262.888
-6478.71 -8.93951 0 187.258
-5426.96 -8.50777 0 114.952
-6522.13 -8.80288 0 184.569
-6500.42 -8.87116 0 185.924
-7546.04 -9.19931 0 264.442
-7495.46 -9.47742 0 267.477
-5372.59 -8.52411 0 118.24
-5408.84 -8.51301 0 116.066
-7520.75 -9.33845 0 265.972
-6435.29 -9.07633 0 189.863
-5390.72 -8.51846 0 117.162
-6478.71 -8.93951 0 187.258
-6457 -9.00791 0 188.57
-7495.46 -9.47742 0 267.477
-7444.89 -9.75476 0 270.415
-5336.35 -8.53593 0 120.346
-5372.59 -8.52411 0 118.24
-7470.18 -9.6162 0 268.958
-6391.87 -9.21318 0 192.385
-5354.47 -8.52994 0 119.302
-6435.29 -9.07633 0 189.863
-6413.58 -9.14477 0 191.134
-7444.89 -9.75476 0 270.415
-7394.31 -10.0311 0 273.257
-5300.11 -8.54831 0 122.383
-5336.35 -8.53593 0 120.346
-7419.6 -9.89307 0 271.848
-6348.45 -9.34987 0 194.824
-5318.23 -8.54206 0 121.373
-6391.87 -9.21318 0 192.385
-6370.16 -9.28155 0 193.615
-7394.31 -10.0311 0 273.257
-7343.74 -10.3063 0 276.004
-5263.86 -8.56112 0 124.352
-5300.11 -8.54831 0 122.383
-7369.02 -10.1689 0 274.642
-6305.03 -9.48625 0 197.182
-5281.98 -8.55467 0 123.376
-6348.45 -9.34987 0 194.824
-6326.74 -9.41811 0 196.014
-7343.74 -10.3063 0 276.004
-7293.16 -10.5802 0 278.656
-5227.62 -8.57423 0 126.253
-5263.86 -8.56112 0 124.352
-7318.45 -10.4434 0 277.341
-6261.61 -9.62214 0 199.459
-5245.74 -8.56765 0 125.311
-6305.03 -9.48625 0 197.182
-6283.32 -9.55427 0 198.331
-7293.16 -10.5802 0 278.656
-7242.58 -10.8524 0 281.213
-5191.38 -8.58749 0 128.086
-5227.62 -8.57423 0 126.253
-7267.87 -10.7165 0 279.946
-6218.19 -9.7574 0 201.655
-5209.5 -8.58085 0 127.178
-6261.61 -9.62214 0 199.459
-6239.9 -9.68986 0 200.567
-7242.58 -10.8524 0 281.213
-7192.01 -11.123 0 283.678
-5155.14 -8.60079 0 129.853
-5191.38 -8.58749 0 128.086
-7217.29 -10.988 0 282.457
-6174.77 -9.89186 0 203.771
-5173.26 -8.59415 0 128.978
-6218.19 -9.7574 0 201.655
-6196.48 -9.82474 0 202.723
-7192.01 -11.123 0 283.678
-7141.43 -11.3917 0 286.05
-5118.89 -8.61399 0 131.554
-5155.14 -8.60079 0 129.853
-7166.72 -11.2576 0 284.875
-6131.35 -10.0254 0 205.807
-5137.01 -8.60741 0 130.712
-6174.77 -9.89186 0 203.771
-6153.06 -9.95874 0 204.799
-7141.43 -11.3917 0 286.05
-7090.85 -11.6583 0 288.329
-5082.65 -8.62697 0 133.189
-5118.89 -8.61399 0 131.554
-7116.14 -11.5252 0 287.201
-6087.94 -10.1578 0 207.765
-5100.77 -8.62051 0 132.38
-6131.35 -10.0254 0 205.807
-6109.64 -10.0917 0 206.796
-7090.85 -11.6583 0 288.329
-7040.28 -11.9226 0 290.517
-5046.42 -8.6396 0 134.758
-5082.65 -8.62697 0 133.189
-7065.57 -11.7907 0 289.435
-6044.52 -10.289 0 209.644
-5064.54 -8.63334 0 133.982
-6087.94 -10.1578 0 207.765
-6066.23 -10.2235 0 208.714
-7040.28 -11.9226 0 290.517
-6989.7 -12.1845 0 292.615
-5010.18 -8.65178 0 136.263
-5046.42 -8.6396 0 134.758
-7014.99 -12.0539 0 291.577
-6001.1 -10.4187 0 211.445
-5028.3 -8.64576 0 135.519
-6044.52 -10.289 0 209.644
-6022.81 -10.354 0 210.554
-6989.7 -12.1845 0 292.615
-6939.13 -12.4439 0 294.622
-4973.94 -8.66337 0 137.703
-5010.18 -8.65178 0 136.263
-6964.42 -12.3145 0 293.63
-5957.69 -10.547 0 213.169
-4992.06 -8.65766 0 136.991
-6001.1 -10.4187 0 211.445
-5979.4 -10.4831 0 212.316
-6939.13 -12.4439 0 294.622
-6888.56 -12.7005 0 296.54
-4937.71 -8.67428 0 139.079
-4973.94 -8.66337 0 137.703
-6913.84 -12.5725 0 295.592
-5914.28 -10.6736 0 214.816
-4955.83 -8.66892 0 138.399
-5957.69 -10.547 0 213.169
-5935.98 -10.6105 0 214.002
-6888.56 -12.7005 0 296.54
-6837.99 -12.9542 0 298.369
-4901.48 -8.68439 0 140.392
-4937.71 -8.67428 0 139.079
-6863.27 -12.8277 0 297.465
-5870.87 -10.7984 0 216.387
-4919.59 -8.67944 0 139.743
-5914.28 -10.6736 0 214.816
-5892.57 -10.7362 0 215.611
-6837.99 -12.9542 0 298.369
-6787.42 -13.2049 0 300.109
-4865.25 -8.69358 0 141.641
-4901.48 -8.68439 0 140.392
-6812.7 -13.0799 0 299.25
-5827.46 -10.9213 0 217.882
-4883.36 -8.6891 0 141.024
-5870.87 -10.7984 0 216.387
-5849.16 -10.8601 0 217.144
-6787.42 -13.2049 0 300.109
-6736.85 -13.4524 0 301.763
-4829.02 -8.70177 0 142.828
-4865.25 -8.69358 0 141.641
-6762.13 -13.3291 0 300.947
-5784.05 -11.0421 0 219.302
-4847.13 -8.69781 0 142.242
-5827.46 -10.9213 0 217.882
-5805.75 -10.982 0 218.602
-6736.85 -13.4524 0 301.763
-6686.28 -13.6966 0 303.329
-4792.79 -8.70883 0 143.953
-4829.02 -8.70177 0 142.828
-6711.56 -13.5749 0 302.557
-5740.64 -11.1608 0 220.648
-4810.9 -8.70544 0 143.398
-5784.05 -11.0421 0 219.302
-5762.35 -11.1018 0 219.985
-6686.28 -13.6966 0 303.329
-6635.72 -13.9373 0 304.809
-4756.57 -8.71468 0 145.016
-4792.79 -8.70883 0 143.953
-6661 -13.8174 0 304.08
-5697.24 -11.2772 0 221.92
-4774.68 -8.71192 0 144.492
-5740.64 -11.1608 0 220.648
-5718.94 -11.2193 0 221.293
-6635.72 -13.9373 0 304.809
-6585.15 -14.1744 0 306.204
-4720.34 -8.71922 0 146.018
-4756.57 -8.71468 0 145.016
-6610.43 -14.0563 0 305.517
-5653.84 -11.3912 0 223.119
-4738.46 -8.71712 0 145.525
-5697.24 -11.2772 0 221.92
-5675.54 -11.3345 0 222.528
-6585.15 -14.1744 0 306.204
-6534.59 -14.4078 0 307.514
-4684.13 -8.72235 0 146.96
-4720.34 -8.71922 0 146.018
-6559.87 -14.2916 0 306.869
-5610.44 -11.5026 0 224.244
-4702.23 -8.72097 0 146.497
-5653.84 -11.3912 0 223.119
-5632.14 -11.4472 0 223.69
-6534.59 -14.4078 0 307.514
-6484.03 -14.6373 0 308.739
-4647.91 -8.72399 0 147.841
-4684.13 -8.72235 0 146.96
-6509.31 -14.523 0 308.137
-5567.04 -11.6114 0 225.298
-4666.02 -8.72336 0 147.408
-5610.44 -11.5026 0 224.244
-5588.74 -11.5574 0 224.78
-6484.03 -14.6373 0 308.739
-6433.48 -14.8628 0 309.881
-4611.69 -8.72403 0 148.663
-4647.91 -8.72399 0 147.841
-6458.76 -14.7505 0 309.321
-5523.65 -11.7175 0 226.28
-4629.8 -8.72421 0 148.259
-5567.04 -11.6114 0 225.298
-5545.34 -11.6648 0 225.798
-6433.48 -14.8628 0 309.881
-6382.92 -15.0842 0 310.94
-4575.48 -8.7224 0 149.425
-4611.69 -8.72403 0 148.663
-6408.2 -14.974 0 310.421
-5480.26 -11.8208 0 227.19
-4593.59 -8.72343 0 149.051
-5523.65 -11.7175 0 226.28
-5501.95 -11.7695 0 226.744
-6382.92 -15.0842 0 310.94
-6332.37 -15.3014 0 311.917
-4539.27 -8.71901 0 150.128
-4575.48 -8.7224 0 149.425
-6357.65 -15.1933 0 311.439
-5436.87 -11.9211 0 228.03
-4557.38 -8.72093 0 149.784
-5480.26 -11.8208 0 227.19
-5458.56 -11.8713 0 227.619
-6332.37 -15.3014 0 311.917
-6281.83 -15.5142 0 312.812
-4503.06 -8.71378 0 150.773
-4539.27 -8.71901 0 150.128
-6307.1 -15.4084 0 312.375
-5393.48 -12.0184 0 228.801
-4521.17 -8.71663 0 150.458
-5436.87 -11.9211 0 228.03
-5415.17 -11.9701 0 228.424
-6281.83 -15.5142 0 312.812
-6231.28 -15.7226 0 313.626
-4466.86 -8.70664 0 151.36
-4503.06 -8.71378 0 150.773
-6256.55 -15.619 0 313.229
-5350.1 -12.1125 0 229.501
-4484.96 -8.71046 0 151.074
-5393.48 -12.0184 0 228.801
-5371.79 -12.0658 0 229.16
-6231.28 -15.7226 0 313.626
-6180.74 -15.9265 0 314.36
-4430.66 -8.69749 0 151.89
-4466.86 -8.70664 0 151.36
-6206.01 -15.8251 0 314.003
-5306.72 -12.2034 0 230.133
-4448.76 -8.70232 0 151.632
-5350.1 -12.1125 0 229.501
-5328.41 -12.1584 0 229.826
-6180.74 -15.9265 0 314.36
-6130.2 -16.1257 0 315.015
-4394.46 -8.68628 0 152.363
-4430.66 -8.69749 0 151.89
-6155.47 -16.0267 0 314.697
-5263.34 -12.291 0 230.697
-4412.56 -8.69215 0 152.133
-5306.72 -12.2034 0 230.133
-5285.03 -12.2476 0 230.424
-6130.2 -16.1257 0 315.015
-6079.66 -16.3201 0 315.59
-4358.27 -8.67293 0 152.779
-4394.46 -8.68628 0 152.363
-6104.93 -16.2235 0 315.312
-5219.97 -12.3752 0 231.193
-4376.36 -8.67988 0 152.578
-5263.34 -12.291 0 230.697
-5241.65 -12.3336 0 230.953
-6079.66 -16.3201 0 315.59
-6029.13 -16.5097 0 316.087
-4322.07 -8.65736 0 153.139
-4358.27 -8.67293 0 152.779
-6054.4 -16.4155 0 315.848
-5176.6 -12.4559 0 231.621
-4340.17 -8.66543 0 152.966
-5219.97 -12.3752 0 231.193
-5198.28 -12.416 0 231.415
-6029.13 -16.5097 0 316.087
-5978.6 -16.6943 0 316.506
-4285.89 -8.63952 0 153.444
-4322.07 -8.65736 0 153.139
-6003.87 -16.6026 0 316.306
-5133.23 -12.5331 0 231.984
-4303.98 -8.64873 0 153.299
-5176.6 -12.4559 0 231.621
-5154.91 -12.495 0 231.811
-5978.6 -16.6943 0 316.506
-5928.08 -16.8738 0 316.849
-4249.7 -8.61934 0 153.694
-4285.89 -8.63952 0 153.444
-5953.34 -16.7847 0 316.687
-5089.87 -12.6066 0 232.28
-4267.79 -8.62973 0 153.576
-5133.23 -12.5331 0 231.984
-5111.55 -12.5703 0 232.14
-5928.08 -16.8738 0 316.849
-5877.55 -17.0483 0 317.115
-4213.52 -8.59675 0 153.889
-4249.7 -8.61934 0 153.694
-5902.82 -16.9617 0 316.991
-5046.51 -12.6764 0 232.51
-4231.61 -8.60835 0 153.798
-5089.87 -12.6066 0 232.28
-5068.19 -12.642 0 232.403
-5877.55 -17.0483 0 317.115
-5827.04 -17.2175 0 317.305
-4177.34 -8.5717 0 154.03
-4213.52 -8.59675 0 153.889
-5852.29 -17.1336 0 317.219
-5003.15 -12.7425 0 232.676
-4195.43 -8.58454 0 153.966
-5046.51 -12.6764 0 232.51
-5024.83 -12.7099 0 232.601
-5827.04 -17.2175 0 317.305
-5776.52 -17.3815 0 317.42
-4141.17 -8.54413 0 154.117
-4177.34 -8.5717 0 154.03
-5801.78 -17.3002 0 317.372
-4959.8 -12.8046 0 232.777
-4159.25 -8.55823 0 154.08
-5003.15 -12.7425 0 232.676
-4981.48 -12.774 0 232.735
-5776.52 -17.3815 0 317.42
-5726.01 -17.54 0 317.461
-4105 -8.51398 0 154.152
-4141.17 -8.54413 0 154.117
-5751.27 -17.4614 0 317.45
-4916.45 -12.8629 0 232.815
-4123.08 -8.52938 0 154.141
-4959.8 -12.8046 0 232.777
-4938.12 -12.8342 0 232.804
-5726.01 -17.54 0 317.461
-5675.5 -17.6932 0 317.428
-4068.83 -8.4812 0 154.133
-4105 -8.51398 0 154.152
-5700.76 -17.6173 0 317.454
-4873.11 -12.9171 0 232.789
-4086.91 -8.49792 0 154.149
-4916.45 -12.8629 0 232.815
-4894.78 -12.8905 0 232.81
-5675.5 -17.6932 0 317.428
-5625 -17.8408 0 317.322
-4032.66 -8.44575 0 154.062
-4068.83 -8.4812 0 154.133
-5650.25 -17.7677 0 317.384
-4829.76 -12.9674 0 232.701
-4050.75 -8.46381 0 154.104
-4873.11 -12.9171 0 232.789
-4851.43 -12.9428 0 232.753
-5625 -17.8408 0 317.322
-5574.5 -17.9829 0 317.144
-3996.5 -8.40757 0 153.94
-4032.66 -8.44575 0 154.062
-5599.75 -17.9125 0 317.242
-4786.43 -13.0135 0 232.55
-4014.58 -8.427 0 154.007
-4829.76 -12.9674 0 232.701
-4808.1 -12.9909 0 232.633
-5574.5 -17.9829 0 317.144
-5524.01 -18.1193 0 316.894
-3960.35 -8.36661 0 153.766
-3996.5 -8.40757 0 153.94
-5549.25 -18.0518 0 317.028
-4743.09 -13.0554 0 232.338
-3978.42 -8.38744 0 153.859
-4786.43 -13.0135 0 232.55
-4764.76 -13.035 0 232.452
-5524.01 -18.1193 0 316.894
-5473.52 -18.25 0 316.572
-3924.19 -8.32283 0 153.541
-3960.35 -8.36661 0 153.766
-5498.76 -18.1853 0 316.742
-4699.77 -13.0932 0 232.065
-3942.27 -8.34508 0 153.66
-4743.09 -13.0554 0 232.338
-4721.43 -13.0748 0 232.209
-5473.52 -18.25 0 316.572
-5423.03 -18.3749 0 316.181
-3888.04 -8.2762 0 153.266
-3924.19 -8.32283 0 153.541
-5448.27 -18.3132 0 316.385
-4656.44 -13.1267 0 231.732
-3906.12 -8.29988 0 153.41
-4699.77 -13.0932 0 232.065
-4678.1 -13.1105 0 231.906
-5423.03 -18.3749 0 316.181
-5372.55 -18.494 0 315.719
-3851.9 -8.22667 0 152.941
-3888.04 -8.2762 0 153.266
-5397.79 -18.4352 0 315.959
-4613.12 -13.1559 0 231.338
-3869.97 -8.2518 0 153.109
-4656.44 -13.1267 0 231.732
-4634.78 -13.1418 0 231.542
-5372.55 -18.494 0 315.719
-5322.07 -18.6073 0 315.188
-3815.76 -8.1742 0 152.566
-3851.9 -8.22667 0 152.941
-5347.31 -18.5514 0 315.462
-4569.8 -13.1807 0 230.886
-3833.83 -8.2008 0 152.76
-4613.12 -13.1559 0 231.338
-4591.46 -13.1688 0 231.119
-5322.07 -18.6073 0 315.188
-5271.6 -18.7146 0 314.589
-3779.62 -8.11876 0 152.143
-3815.76 -8.1742 0 152.566
-5296.83 -18.6617 0 314.897
-4526.49 -13.2012 0 230.374
-3797.69 -8.14685 0 152.36
-4569.8 -13.1807 0 230.886
-4548.15 -13.1915 0 230.637
-5271.6 -18.7146 0 314.589
-5221.13 -18.816 0 313.922
-3743.49 -8.06032 0 151.671
-3779.62 -8.11876 0 152.143
-5246.36 -18.766 0 314.264
-4483.18 -13.2172 0 229.805
-3761.55 -8.08991 0 151.913
-4526.49 -13.2012 0 230.374
-4504.84 -13.2097 0 230.097
-5221.13 -18.816 0 313.922
-5170.66 -18.9113 0 313.188
-3707.36 -7.99884 0 151.151
-3743.49 -8.06032 0 151.671
-5195.9 -18.8644 0 313.564
-4439.88 -13.2287 0 229.178
-3725.42 -8.02996 0 151.417
-4483.18 -13.2172 0 229.805
-4461.53 -13.2235 0 229.498
-5170.66 -18.9113 0 313.188
-5120.21 -19.0007 0 312.387
-3671.23 -7.93429 0 150.583
-3707.36 -7.99884 0 151.151
-5145.43 -18.9568 0 312.796
-4396.58 -13.2358 0 228.493
-3689.3 -7.96695 0 150.873
-4439.88 -13.2287 0 229.178
-4418.23 -13.2328 0 228.843
-5120.21 -19.0007 0 312.387
-5069.75 -19.0839 0 311.521
-3635.11 -7.86665 0 149.968
-3671.23 -7.93429 0 150.583
-5094.98 -19.043 0 311.962
-4353.28 -13.2383 0 227.753
-3653.17 -7.90086 0 150.281
-4396.58 -13.2358 0 228.493
-4374.93 -13.2376 0 228.13
-5069.75 -19.0839 0 311.521
-5019.3 -19.161 0 310.589
-3598.99 -7.7959 0 149.307
-3635.11 -7.86665 0 149.968
-5044.52 -19.1232 0 311.063
-4309.99 -13.2362 0 226.956
-3617.05 -7.83167 0 149.643
-4353.28 -13.2383 0 227.753
-4331.64 -13.2378 0 227.361
-5019.3 -19.161 0 310.589
-4968.85 -19.2319 0 309.593
-3562.88 -7.72201 0 148.599
-3598.99 -7.7959 0 149.307
-4994.08 -19.1972 0 310.099
-4266.71 -13.2295 0 226.104
-3580.94 -7.75935 0 148.959
-4309.99 -13.2362 0 226.956
-4288.35 -13.2334 0 226.537
-4968.85 -19.2319 0 309.593
-4918.41 -19.2967 0 308.532
-3526.77 -7.64496 0 147.846
-3562.88 -7.72201 0 148.599
-4943.63 -19.2651 0 309.071
-4223.42 -13.2182 0 225.197
-3544.83 -7.68388 0 148.228
-4266.71 -13.2295 0 226.104
-4245.06 -13.2245 0 225.657
-4918.41 -19.2967 0 308.532
-4867.97 -19.3553 0 307.409
-3490.67 -7.56472 0 147.047
-3526.77 -7.64496 0 147.846
-4893.19 -19.3268 0 307.979
-4180.15 -13.2023 0 224.236
-3508.72 -7.60524 0 147.452
-4223.42 -13.2182 0 225.197
-4201.79 -13.2109 0 224.723
-4867.97 -19.3553 0 307.409
-4817.54 -19.4076 0 306.223
-3454.57 -7.4813 0 146.204
-3490.67 -7.56472 0 147.047
-4842.76 -19.3822 0 306.824
-4136.87 -13.1817 0 223.221
-3472.62 -7.52341 0 146.631
-4180.15 -13.2023 0 224.236
-4158.51 -13.1926 0 223.735
-4817.54 -19.4076 0 306.223
-4767.11 -19.4537 0 304.975
-3418.47 -7.39465 0 145.317
-3454.57 -7.4813 0 146.204
-4792.33 -19.4314 0 305.606
-4093.61 -13.1565 0 222.153
-3436.52 -7.43838 0 145.766
-4136.87 -13.1817 0 223.221
-4115.24 -13.1697 0 222.694
-4767.11 -19.4537 0 304.975
-4716.69 -19.4935 0 303.665
-3382.38 -7.30479 0 144.385
-3418.47 -7.39465 0 145.317
-4741.9 -19.4744 0 304.328
-4050.34 -13.1265 0 221.033
-3400.42 -7.35013 0 144.856
-4093.61 -13.1565 0 222.153
-4071.97 -13.1421 0 221.6
-4716.69 -19.4935 0 303.665
-4666.27 -19.527 0 302.295
-3346.29 -7.21169 0 143.41
-3382.38 -7.30479 0 144.385
-4691.48 -19.511 0 302.988
-4007.08 -13.0918 0 219.86
-3364.33 -7.25864 0 143.903
-4050.34 -13.1265 0 221.033
-4028.71 -13.1098 0 220.453
-4666.27 -19.527 0 302.295
-4615.86 -19.5542 0 300.865
-3310.21 -7.11534 0 142.393
-3346.29 -7.21169 0 143.41
-4641.07 -19.5414 0 301.588
-3963.83 -13.0524 0 218.636
-3328.25 -7.16392 0 142.907
-4007.08 -13.0918 0 219.86
-3985.45 -13.0727 0 219.255
-4615.86 -19.5542 0 300.865
-4565.45 -19.5751 0 299.376
-3274.13 -7.01574 0 141.332
-3310.21 -7.11534 0 142.393
-4590.65 -19.5655 0 300.128
-3920.58 -13.0083 0 217.361
-3292.16 -7.06594 0 141.868
-3963.83 -13.0524 0 218.636
-3942.2 -13.031 0 218.005
-4565.45 -19.5751 0 299.376
-4515.05 -19.5897 0 297.828
-3238.05 -6.91288 0 140.23
-3274.13 -7.01574 0 141.332
-4540.25 -19.5832 0 298.609
-3877.33 -12.9595 0 216.036
-3256.09 -6.96471 0 140.787
-3920.58 -13.0083 0 217.361
-3898.95 -12.9845 0 216.705
-4515.05 -19.5897 0 297.828
-4464.65 -19.598 0 296.222
-3201.98 -6.80675 0 139.087
-3238.05 -6.91288 0 140.23
-4489.85 -19.5947 0 297.032
-3834.09 -12.9058 0 214.661
-3220.01 -6.86022 0 139.664
-3877.33 -12.9595 0 216.036
-3855.71 -12.9332 0 215.355
-4464.65 -19.598 0 296.222
-4414.25 -19.5999 0 294.558
-3165.91 -6.69736 0 137.902
-3201.98 -6.80675 0 139.087
-4439.45 -19.5998 0 295.397
-3790.85 -12.8475 0 213.237
-3183.94 -6.75246 0 138.499
-3834.09 -12.9058 0 214.661
-3812.47 -12.8773 0 213.955
-4414.25 -19.5999 0 294.558
-4363.86 -19.5955 0 292.838
-3129.85 -6.5847 0 136.677
-3165.91 -6.69736 0 137.902
-4389.06 -19.5985 0 293.705
-3747.62 -12.7844 0 211.764
-3147.88 -6.64144 0 137.294
-3790.85 -12.8475 0 213.237
-3769.23 -12.8165 0 212.507
-4363.86 -19.5955 0 292.838
-4313.48 -19.5848 0 291.061
-3093.79 -6.46878 0 135.411
-3129.85 -6.5847 0 136.677
-4338.67 -19.591 0 291.956
-3704.39 -12.7166 0 210.243
-3111.82 -6.52715 0 136.049
-3747.62 -12.7844 0 211.764
-3726 -12.7511 0 211.009
-4313.48 -19.5848 0 291.061
-4263.1 -19.5678 0 289.229
-3057.73 -6.3496 0 134.106
-3093.79 -6.46878 0 135.411
-4288.29 -19.5771 0 290.152
-3661.17 -12.644 0 208.674
-3075.76 -6.4096 0 134.763
-3704.39 -12.7166 0 210.243
-3682.78 -12.6809 0 209.465
-4263.1 -19.5678 0 289.229
-4212.72 -19.5444 0 287.343
-3021.68 -6.22715 0 132.762
-3057.73 -6.3496 0 134.106
-4237.91 -19.5569 0 288.293
-3617.95 -12.5667 0 207.059
-3039.71 -6.28878 0 133.439
-3661.17 -12.644 0 208.674
-3639.56 -12.6059 0 207.872
-4212.72 -19.5444 0 287.343
-4162.35 -19.5148 0 285.402
-2985.64 -6.10146 0 131.379
-3021.68 -6.22715 0 132.762
-4187.53 -19.5304 0 286.379
-3574.73 -12.4846 0 205.397
-3003.66 -6.16471 0 132.075
-3617.95 -12.5667 0 207.059
-3596.34 -12.5262 0 206.234
-4162.35 -19.5148 0 285.402
-4111.98 -19.4788 0 283.408
-2949.59 -5.97252 0 129.957
-2985.64 -6.10146 0 131.379
-4137.17 -19.4976 0 284.412
-3531.52 -12.3979 0 203.689
-2967.61 -6.0374 0 130.673
-3574.73 -12.4846 0 205.397
-3553.13 -12.4418 0 204.549
-4111.98 -19.4788 0 283.408
-4061.62 -19.4366 0 281.361
-2913.55 -5.84035 0 128.498
-2949.59 -5.97252 0 129.957
-4086.8 -19.4585 0 282.391
-3488.32 -12.3064 0 201.936
-2931.57 -5.90684 0 129.233
-3531.52 -12.3979 0 203.689
-3509.92 -12.3527 0 202.818
-4061.62 -19.4366 0 281.361
-4011.26 -19.3881 0 279.261
-2877.52 -5.70496 0 127.002
-2913.55 -5.84035 0 128.498
-4036.44 -19.4131 0 280.318
-3445.12 -12.2103 0 200.138
-2895.54 -5.77306 0 127.755
-3488.32 -12.3064 0 201.936
-3466.72 -12.2589 0 201.042
-4011.26 -19.3881 0 279.261
-3960.91 -19.3334 0 277.111
-2841.49 -5.56636 0 125.469
-2877.52 -5.70496 0 127.002
-3986.09 -19.3615 0 278.192
-3401.92 -12.1094 0 198.296
-2859.5 -5.63606 0 126.24
-3445.12 -12.2103 0 200.138
-3423.52 -12.1604 0 199.222
-3960.91 -19.3334 0 277.111
-3910.56 -19.2724 0 274.909
-2805.46 -5.42456 0 123.899
-2841.49 -5.56636 0 125.469
-3935.74 -19.3036 0 276.016
-3358.73 -12.0039 0 196.41
-2823.48 -5.49586 0 124.688
-3401.92 -12.1094 0 198.296
-3380.32 -12.0573 0 197.358
-3910.56 -19.2724 0 274.909
-3860.22 -19.2052 0 272.657
-2769.44 -5.27958 0 122.293
-2805.46 -5.42456 0 123.899
-3885.39 -19.2396 0 273.789
-3315.54 -11.8938 0 194.481
-2787.45 -5.35247 0 123.101
-3358.73 -12.0039 0 196.41
-3337.13 -11.9495 0 195.451
-3860.22 -19.2052 0 272.657
-3809.88 -19.1318 0 270.355
-2733.42 -5.13144 0 120.652
-2769.44 -5.27958 0 122.293
-3835.05 -19.1693 0 271.512
-3272.35 -11.7791 0 192.509
-2751.43 -5.2059 0 121.477
-3315.54 -11.8938 0 194.481
-3293.95 -11.837 0 193.5
-3809.88 -19.1318 0 270.355
-3759.54 -19.0523 0 268.005
-2697.41 -4.98016 0 118.976
-2733.42 -5.13144 0 120.652
-3784.71 -19.0929 0 269.186
-3229.17 -11.6597 0 190.496
-2715.42 -5.05619 0 119.818
-3272.35 -11.7791 0 192.509
-3250.76 -11.72 0 191.508
-3759.54 -19.0523 0 268.005
-3709.21 -18.9667 0 265.606
-2661.4 -4.82575 0 117.265
-2697.41 -4.98016 0 118.976
-3734.38 -19.0103 0 266.811
-3186 -11.5358 0 188.441
-2679.4 -4.90334 0 118.125
-3229.17 -11.6597 0 190.496
-3207.59 -11.5983 0 189.473
-3709.21 -18.9667 0 265.606
-3658.89 -18.875 0 263.159
-2625.39 -4.66825 0 115.52
-2661.4 -4.82575 0 117.265
-3684.05 -18.9216 0 264.389
-3142.83 -11.4073 0 186.345
-2643.39 -4.74738 0 116.397
-3186 -11.5358 0 188.441
-3164.41 -11.4721 0 187.398
-3658.89 -18.875 0 263.159
-3608.57 -18.7772 0 260.666
-2589.39 -4.50766 0 113.742
-2625.39 -4.66825 0 115.52
-3633.73 -18.8268 0 261.919
-3099.66 -11.2744 0 184.209
-2607.39 -4.58834 0 114.635
-3142.83 -11.4073 0 186.345
-3121.24 -11.3414 0 185.282
-3608.57 -18.7772 0 260.666
-3558.25 -18.6734 0 258.126
-2553.39 -4.34403 0 111.93
-2589.39 -4.50766 0 113.742
-3583.41 -18.726 0 259.402
-3056.5 -11.1369 0 182.033
-2571.39 -4.42622 0 112.84
-3099.66 -11.2744 0 184.209
-3078.08 -11.2062 0 183.126
-3558.25 -18.6734 0 258.126
-3507.93 -18.5636 0 255.541
-2517.4 -4.17737 0 110.086
-2553.39 -4.34403 0 111.93
-3533.09 -18.6192 0 256.839
-3013.34 -10.995 0 179.818
-2535.39 -4.26107 0 111.012
-3056.5 -11.1369 0 182.033
-3034.92 -11.0665 0 180.93
-3507.93 -18.5636 0 255.541
-3457.62 -18.4478 0 252.91
-2481.4 -4.00771 0 108.21
-2517.4 -4.17737 0 110.086
-3482.78 -18.5064 0 254.231
-2970.18 -10.8486 0 177.564
-2499.4 -4.09291 0 109.152
-3013.34 -10.995 0 179.818
-2991.76 -10.9223 0 178.696
-3457.62 -18.4478 0 252.91
-3407.32 -18.3262 0 250.235
-2445.42 -3.83508 0 106.301
-2481.4 -4.00771 0 108.21
-3432.47 -18.3877 0 251.578
-2927.03 -10.6979 0 175.272
-2463.41 -3.92176 0 107.259
-2970.18 -10.8486 0 177.564
-2948.61 -10.7738 0 176.423
-3407.32 -18.3262 0 250.235
-3357.02 -18.1986 0 247.516
-2409.43 -3.65951 0 104.362
-2445.42 -3.83508 0 106.301
-3382.17 -18.2631 0 248.881
-2883.89 -10.5428 0 172.943
-2427.42 -3.74766 0 105.335
-2927.03 -10.6979 0 175.272
-2905.46 -10.6209 0 174.112
-3357.02 -18.1986 0 247.516
-3306.72 -18.0653 0 244.754
-2373.45 -3.48104 0 102.391
-2409.43 -3.65951 0 104.362
-3331.87 -18.1327 0 246.14
-2840.74 -10.3834 0 170.577
-2391.44 -3.57063 0 103.38
-2883.89 -10.5428 0 172.943
-2862.31 -10.4637 0 171.764
-3306.72 -18.0653 0 244.754
-3256.43 -17.9262 0 241.95
-2337.48 -3.29969 0 100.39
-2373.45 -3.48104 0 102.391
-3281.57 -17.9965 0 243.357
-2797.6 -10.2198 0 168.174
-2355.46 -3.39072 0 101.394
-2840.74 -10.3834 0 170.577
-2819.17 -10.3021 0 169.38
-3256.43 -17.9262 0 241.95
-3206.14 -17.7813 0 239.103
-2301.5 -3.1155 0 98.3592
-2337.48 -3.29969 0 100.39
-3231.28 -17.8545 0 240.532
-2754.47 -10.0519 0 165.735
-2319.49 -3.20795 0 99.3783
-2797.6 -10.2198 0 168.174
-2776.03 -10.1363 0 166.959
-3206.14 -17.7813 0 239.103
-3155.85 -17.6308 0 236.216
-2265.53 -2.92851 0 96.2988
-2301.5 -3.1155 0 98.3592
-3181 -17.7068 0 237.665
-2711.34 -9.87977 0 163.261
-2283.52 -3.02235 0 97.3327
-2754.47 -10.0519 0 165.735
-2732.9 -9.96634 0 164.502
-3155.85 -17.6308 0 236.216
-3105.57 -17.4747 0 233.288
-2229.57 -2.73875 0 94.2095
-2265.53 -2.92851 0 96.2988
-3130.71 -17.5534 0 234.757
-2668.21 -9.70355 0 160.752
-2247.55 -2.83397 0 95.2578
-2711.34 -9.87977 0 163.261
-2689.77 -9.79217 0 162.011
-3105.57 -17.4747 0 233.288
-3055.29 -17.3129 0 230.32
-2193.61 -2.54626 0 92.0916
-2229.57 -2.73875 0 94.2095
-3080.43 -17.3945 0 231.809
-2625.08 -9.52322 0 158.209
-2211.59 -2.64284 0 93.1541
-2668.21 -9.70355 0 160.752
-2646.64 -9.61389 0 159.485
-3055.29 -17.3129 0 230.32
-3005.02 -17.1457 0 227.313
-2157.65 -2.35109 0 89.9455
-2193.61 -2.54626 0 92.0916
-3030.16 -17.23 0 228.821
-2581.96 -9.33884 0 155.632
-2175.63 -2.44901 0 91.022
-2625.08 -9.52322 0 158.209
-2603.52 -9.43153 0 156.925
-3005.02 -17.1457 0 227.313
-2954.75 -16.973 0 224.267
-2121.69 -2.15326 0 87.7719
-2157.65 -2.35109 0 89.9455
-2979.88 -17.06 0 225.795
-2538.84 -9.15046 0 153.022
-2139.67 -2.2525 0 88.8621
-2581.96 -9.33884 0 155.632
-2560.4 -9.24515 0 154.331
-2954.75 -16.973 0 224.267
-2904.48 -16.7949 0 221.183
-2085.74 -1.95283 0 85.5711
-2121.69 -2.15326 0 87.7719
-2929.61 -16.8846 0 222.73
-2495.73 -8.95813 0 150.38
-2103.71 -2.05337 0 86.6748
-2538.84 -9.15046 0 153.022
-2517.29 -9.05479 0 151.705
-2904.48 -16.7949 0 221.183
-2854.22 -16.6115 0 218.062
-2049.79 -1.74983 0 83.3435
-2085.74 -1.95283 0 85.5711
-2879.35 -16.7039 0 219.627
-2452.62 -8.7619 0 147.705
-2067.76 -1.85165 0 84.4606
-2495.73 -8.95813 0 150.38
-2474.18 -8.8605 0 149.046
-2854.22 -16.6115 0 218.062
-2803.96 -16.4228 0 214.904
-2013.84 -1.54431 0 81.0897
-2049.79 -1.74983 0 83.3435
-2829.09 -16.5178 0 216.488
-2409.51 -8.56182 0 144.999
-2031.82 -1.64738 0 82.2199
-2452.62 -8.7619 0 147.705
-2431.07 -8.66234 0 146.356
-2803.96 -16.4228 0 214.904
-2753.7 -16.2289 0 211.71
-1977.9 -1.33632 0 78.8101
-2013.84 -1.54431 0 81.0897
-2778.83 -16.3265 0 213.312
-2366.41 -8.35795 0 142.262
-1995.87 -1.44062 0 79.9531
-2409.51 -8.56182 0 144.999
-2387.96 -8.46035 0 143.635
-2753.7 -16.2289 0 211.71
-2703.44 -16.0298 0 208.481
-1941.96 -1.1259 0 76.5052
-1977.9 -1.33632 0 78.8101
-2728.57 -16.13 0 210.1
-2323.31 -8.15034 0 139.495
-1959.93 -1.23141 0 77.6608
-2366.41 -8.35795 0 142.262
-2344.86 -8.25461 0 140.883
-2703.44 -16.0298 0 208.481
-2653.19 -15.8256 0 205.217
-1906.02 -0.913099 0 74.1754
-1941.96 -1.1259 0 76.5052
-2678.32 -15.9283 0 206.853
-2280.21 -7.93905 0 136.698
-1923.99 -1.01979 0 75.3434
-2323.31 -8.15034 0 139.495
-2301.76 -8.04515 0 138.1
-2653.19 -15.8256 0 205.217
-2602.94 -15.6165 0 201.919
-1870.09 -0.697964 0 71.8211
-1906.02 -0.913099 0 74.1754
-2628.07 -15.7217 0 203.572
-2237.12 -7.72414 0 133.872
-1888.06 -0.80582 0 73.0013
-2280.21 -7.93905 0 136.698
-2258.66 -7.83204 0 135.289
-2602.94 -15.6165 0 201.919
-2552.7 -15.4023 0 198.588
-1834.16 -0.480546 0 69.443
-1870.09 -0.697964 0 71.8211
-2577.82 -15.51 0 200.257
-2194.03 -7.50566 0 131.017
-1852.12 -0.589537 0 70.635
-2237.12 -7.72414 0 133.872
-2215.57 -7.61534 0 132.448
-2552.7 -15.4023 0 198.588
-2502.46 -15.1833 0 195.223
-1798.23 -0.260895 0 67.0413
-1834.16 -0.480546 0 69.443
-2527.58 -15.2934 0 196.909
-2150.94 -7.28368 0 128.133
-1816.2 -0.370997 0 68.245
-2194.03 -7.50566 0 131.017
-2172.48 -7.39511 0 129.579
-2502.46 -15.1833 0 195.223
-2452.22 -14.9595 0 191.827
-1762.31 -0.0390627 0 64.6165
-1798.23 -0.260895 0 67.0413
-2477.34 -15.072 0 193.529
-2107.85 -7.05827 0 125.223
-1780.27 -0.150248 0 65.8318
-2150.94 -7.28368 0 128.133
-2129.39 -7.1714 0 126.681
-2452.22 -14.9595 0 191.827
-2401.98 -14.731 0 188.398
-1726.38 0.184899 0 62.1692
-1762.31 -0.0390627 0 64.6165
-2427.1 -14.8459 0 190.116
-2064.77 -6.82947 0 122.285
-1744.34 0.0726551 0 63.3957
-2107.85 -7.05827 0 125.223
-2086.31 -6.94429 0 123.757
-2401.98 -14.731 0 188.398
-2351.75 -14.4978 0 184.94
-1690.46 0.410935 0 59.6998
-1726.38 0.184899 0 62.1692
-2376.86 -14.615 0 186.673
-2021.69 -6.59736 0 119.32
-1708.42 0.297661 0 60.9372
-2064.77 -6.82947 0 122.285
-2043.23 -6.71383 0 120.806
-2351.75 -14.4978 0 184.94
-2301.51 -14.2601 0 181.45
-1654.55 0.638993 0 57.2087
-1690.46 0.410935 0 59.6998
-2326.63 -14.3795 0 183.199
-1978.61 -6.36201 0 116.33
-1672.51 0.524715 0 58.4569
-2021.69 -6.59736 0 119.32
-2000.15 -6.48009 0 117.828
-2301.51 -14.2601 0 181.45
-2251.28 -14.0178 0 177.931
-1618.63 0.869017 0 54.6964
-1654.55 0.638993 0 57.2087
-2276.4 -14.1395 0 179.694
-1935.53 -6.12347 0 113.314
-1636.59 0.753763 0 55.9552
-1978.61 -6.36201 0 116.33
-1957.07 -6.24313 0 114.825
-2251.28 -14.0178 0 177.931
-2201.06 -13.7711 0 174.384
-1582.72 1.10095 0 52.1633
-1618.63 0.869017 0 54.6964
-2226.17 -13.895 0 176.161
-1892.46 -5.88182 0 110.274
-1600.68 0.984749 0 53.4324
-1935.53 -6.12347 0 113.314
-1914 -6.00303 0 111.797
-2201.06 -13.7711 0 174.384
-2150.83 -13.5201 0 170.807
-1546.81 1.33474 0 49.61
-1582.72 1.10095 0 52.1633
-2175.94 -13.6461 0 172.599
-1849.39 -5.63712 0 107.209
-1564.76 1.21762 0 50.8892
-1892.46 -5.88182 0 110.274
-1870.93 -5.75984 0 108.744
-2150.83 -13.5201 0 170.807
-2100.61 -13.2648 0 167.204
-1510.9 1.57032 0 47.0368
-1546.81 1.33474 0 49.61
-2125.72 -13.393 0 169.009
-1806.32 -5.38945 0 104.12
-1528.86 1.45231 0 48.3258
-1849.39 -5.63712 0 107.209
-1827.86 -5.51365 0 105.667
-2100.61 -13.2648 0 167.204
-2050.39 -13.0053 0 163.573
-1475 1.80763 0 44.4443
-1510.9 1.57032 0 47.0368
-2075.5 -13.1356 0 165.391
-1763.26 -5.13887 0 101.008
-1492.95 1.68876 0 45.7429
-1806.32 -5.38945 0 104.12
-1784.79 -5.26452 0 102.567
-2050.39 -13.0053 0 163.573
-2000.17 -12.7418 0 159.915
-1439.09 2.04663 0 41.8328
-1475 1.80763 0 44.4443
-2025.28 -12.8741 0 161.747
-1720.19 -4.88546 0 97.8734
-1457.04 1.92692 0 43.1409
-1763.26 -5.13887 0 101.008
-1741.72 -5.01251 0 99.4435
-2000.17 -12.7418 0 159.915
-1949.95 -12.4742 0 156.232
-1403.19 2.28723 0 39.2029
-1439.09 2.04663 0 41.8328
-1975.06 -12.6085 0 158.077
-1677.13 -4.62928 0 94.7168
-1421.14 2.16673 0 40.5201
-1720.19 -4.88546 0 97.8734
-1698.66 -4.75771 0 96.2978
-1949.95 -12.4742 0 156.232
-1899.74 -12.2027 0 152.524
-1367.29 2.5294 0 36.5549
-1403.19 2.28723 0 39.2029
-1924.84 -12.3389 0 154.381
-1634.07 -4.37042 0 91.5385
-1385.24 2.40812 0 37.8811
-1677.13 -4.62928 0 94.7168
-1655.6 -4.50018 0 93.1303
-1899.74 -12.2027 0 152.524
-1849.52 -11.9274 0 148.791
-1331.4 2.77305 0 33.8894
-1367.29 2.5294 0 36.5549
-1874.63 -12.0655 0 150.661
-1591.01 -4.10895 0 88.3392
-1349.34 2.65104 0 35.2243
-1634.07 -4.37042 0 91.5385
-1612.54 -4.24001 0 89.9414
-1849.52 -11.9274 0 148.791
-1799.31 -11.6483 0 145.035
-1295.5 3.01813 0 31.2069
-1331.4 2.77305 0 33.8894
-1824.42 -11.7883 0 146.916
-1547.96 -3.84494 0 85.1195
-1313.45 2.89542 0 32.5503
-1591.01 -4.10895 0 88.3392
-1569.48 -3.97726 0 86.7319
-1799.31 -11.6483 0 145.035
-1749.1 -11.3655 0 141.255
-1259.61 3.26458 0 28.5077
-1295.5 3.01813 0 31.2069
-1774.2 -11.5074 0 143.148
-1504.9 -3.57847 0 81.8798
-1277.55 3.14119 0 29.8593
-1547.96 -3.84494 0 85.1195
-1526.43 -3.71201 0 83.5021
-1749.1 -11.3655 0 141.255
-1698.89 -11.0792 0 137.453
-1223.71 3.51233 0 25.7923
-1259.61 3.26458 0 28.5077
-1723.99 -11.2228 0 139.357
-1461.85 -3.30961 0 78.6208
-1241.66 3.3883 0 27.152
-1504.9 -3.57847 0 81.8798
-1483.38 -3.44433 0 80.2527
-1698.89 -11.0792 0 137.453
-1648.68 -10.7894 0 133.628
-1187.82 3.76132 0 23.0613
-1223.71 3.51233 0 25.7923
-1673.78 -10.9347 0 135.543
-1418.8 -3.03845 0 75.3429
-1205.77 3.63667 0 24.4287
-1461.85 -3.30961 0 78.6208
-1440.32 -3.17431 0 76.9842
-1648.68 -10.7894 0 133.628
-1598.47 -10.4962 0 129.783
-1151.94 4.01147 0 20.3149
-1187.82 3.76132 0 23.0613
-1623.58 -10.6432 0 131.708
-1375.75 -2.76506 0 72.0468
-1169.88 3.88625 0 21.69
-1418.8 -3.03845 0 75.3429
-1397.27 -2.90203 0 73.6971
-1598.47 -10.4962 0 129.783
-1548.27 -10.1998 0 125.917
-1116.05 4.26271 0 17.5538
-1151.94 4.01147 0 20.3149
-1573.37 -10.3484 0 127.852
-1332.7 -2.48953 0 68.733
-1133.99 4.13696 0 18.9362
-1375.75 -2.76506 0 72.0468
-1354.22 -2.62756 0 70.3921
-1548.27 -10.1998 0 125.917
-1498.06 -9.90008 0 122.031
-1080.16 4.51499 0 14.7784
-1116.05 4.26271 0 17.5538
-1523.16 -10.0503 0 123.976
-1289.65 -2.21193 0 65.402
-1098.11 4.38873 0 16.1679
-1332.7 -2.48953 0 68.733
-1311.17 -2.35098 0 67.0696
-1498.06 -9.90008 0 122.031
-1447.86 -9.59729 0 118.125
-1044.28 4.76822 0 11.9891
-1080.16 4.51499 0 14.7784
-1472.96 -9.74907 0 120.08
-1246.6 -1.93235 0 62.0544
-1062.22 4.64149 0 13.3854
-1289.65 -2.21193 0 65.402
-1268.13 -2.07238 0 63.7302
-1447.86 -9.59729 0 118.125
-1397.65 -9.29149 0 114.201
-1008.4 5.02234 0 9.18641
-1044.28 4.76822 0 11.9891
-1422.75 -9.44476 0 116.165
-1203.56 -1.65088 0 58.6907
-1026.34 4.89517 0 10.5894
-1246.6 -1.93235 0 62.0544
-1225.08 -1.79185 0 60.3745
-1397.65 -9.29149 0 114.201
-1347.45 -8.98277 0 110.258
-972.515 5.27726 0 6.3708
-1008.4 5.02234 0 9.18641
-1372.55 -9.13749 0 112.232
-1160.51 -1.36759 0 55.3116
-990.455 5.1497 0 7.78019
-1203.56 -1.65088 0 58.6907
-1182.04 -1.50945 0 57.0031
-1347.45 -8.98277 0 110.258
-1297.25 -8.67124 0 106.299
-936.634 5.53292 0 3.54275
-972.515 5.27726 0 6.3708
-1322.35 -8.82735 0 108.281
-1117.47 -1.08257 0 51.9175
-954.574 5.405 0 4.9583
-1160.51 -1.36759 0 55.3116
-1138.99 -1.22529 0 53.6164
-1297.25 -8.67124 0 106.299
-1247.04 -8.35698 0 102.322
-900.755 5.78925 0 0.702728
-936.634 5.53292 0 3.54275
-1272.14 -8.51444 0 104.312
-1074.43 -0.795916 0 48.509
-918.694 5.66101 0 2.12421
-1117.47 -1.08257 0 51.9175
-1095.95 -0.939444 0 50.215
-1247.04 -8.35698 0 102.322
-1196.84 -8.0401 0 98.3294
-864.876 6.04618 0 -2.1488
-900.755 5.78925 0 0.702728
-1221.94 -8.19886 0 100.328
-1031.39 -0.507703 0 45.0868
-882.815 5.91764 0 -0.721626
-1074.43 -0.795916 0 48.509
-1052.91 -0.651999 0 46.7996
-1196.84 -8.0401 0 98.3294
-1146.64 -7.7207 0 94.3212
-828.999 6.30366 0 -5.01137
-864.876 6.04618 0 -2.1488
-1171.74 -7.88071 0 96.3272
-988.345 -0.218013 0 41.6513
-846.937 6.17485 0 -3.57873
-1031.39 -0.507703 0 45.0868
-1009.87 -0.363038 0 43.3707
-1146.64 -7.7207 0 94.3212
-1096.44 -7.39888 0 90.2981
-793.122 6.56166 0 -7.88455
-828.999 6.30366 0 -5.01137
-1121.54 -7.56008 0 92.3114
-945.305 0.0730788 0 38.203
-811.06 6.43259 0 -6.44666
-988.345 -0.218013 0 41.6513
-966.825 -0.072638 0 39.9287
-1096.44 -7.39888 0 90.2981
-1046.24 -7.07474 0 86.2608
-757.246 6.82017 0 -10.768
-793.122 6.56166 0 -7.88455
-1071.34 -7.23709 0 88.2812
-902.265 0.365513 0 34.7426
-775.184 6.69085 0 -9.325
-945.305 0.0730788 0 38.203
-923.785 0.219131 0 36.4743
-1046.24 -7.07474 0 86.2608
-996.038 -6.74839 0 82.21
-721.371 7.07925 0 -13.6613
-757.246 6.82017 0 -10.768
-1021.14 -6.91183 0 84.2371
-859.226 0.659246 0 31.2704
-739.309 6.94963 0 -12.2134
-902.265 0.365513 0 34.7426
-880.746 0.51222 0 33.0079
-996.038 -6.74839 0 82.21
-945.838 -6.41995 0 78.1462
-685.497 7.33896 0 -16.5643
-721.371 7.07925 0 -13.6613
-970.938 -6.58442 0 80.1797
-816.187 0.954262 0 27.7868
-703.434 7.20902 0 -15.1116
-859.226 0.659246 0 31.2704
-837.707 0.806592 0 29.53
-945.838 -6.41995 0 78.1462
-895.637 -6.0895 0 74.0701
-649.623 7.59943 0 -19.477
-685.497 7.33896 0 -16.5643
-920.737 -6.25497 0 76.1097
-773.148 1.25056 0 24.2921
-667.56 7.46909 0 -18.0194
-816.187 0.954262 0 27.7868
-794.668 1.10225 0 26.0408
-895.637 -6.0895 0 74.0701
-845.434 -5.7572 0 69.9822
-613.749 7.86067 0 -22.3991
-649.623 7.59943 0 -19.477
-870.536 -5.92355 0 72.0276
-730.108 1.54815 0 20.7864
-631.686 7.72997 0 -20.9369
-773.148 1.25056 0 24.2921
-751.628 1.39919 0 22.5406
-845.434 -5.7572 0 69.9822
-795.228 -5.4232 0 65.883
-577.875 8.12246 0 -25.3309
-613.749 7.86067 0 -22.3991
-820.332 -5.59047 0 67.9341
-687.066 1.84694 0 17.2701
-595.812 7.99152 0 -23.8638
-730.108 1.54815 0 20.7864
-708.587 1.69742 0 19.0296
-795.228 -5.4232 0 65.883
-745.016 -5.08732 0 61.7729
-542.001 8.3836 0 -28.2714
-577.875 8.12246 0 -25.3309
-770.123 -5.25532 0 63.8292
-644.022 2.14674 0 13.7436
-559.938 8.25327 0 -26.8002
-687.066 1.84694 0 17.2701
-665.545 1.99671 0 15.5081
-745.016 -5.08732 0 61.7729
-694.797 -4.75064 0 57.652
-506.125 8.64151 0 -31.2192
-542.001 8.3836 0 -28.2714
-719.908 -4.91953 0 59.7141
-600.976 2.44635 0 10.2083
-524.063 8.51321 0 -29.7446
-644.022 2.14674 0 13.7436
-622.499 2.29673 0 11.9769
-694.797 -4.75064 0 57.652
-644.568 -4.41001 0 53.5217
-470.248 8.88876 0 -34.168
-506.125 8.64151 0 -31.2192
-669.684 -4.57979 0 55.5875
-557.927 2.74409 0 6.66918
-488.186 8.76724 0 -32.6942
-600.976 2.44635 0 10.2083
-579.452 2.59549 0 8.43895
-644.568 -4.41001 0 53.5217
-594.344 -4.07328 0 49.3798
-434.364 9.11342 0 -37.1077
-470.248 8.88876 0 -34.168
-619.454 -4.24389 0 51.4533
-514.888 3.03359 0 3.13505
-452.308 9.00505 0 -35.6398
-557.927 2.74409 0 6.66918
-536.405 2.8907 0 4.90024
-594.344 -4.07328 0 49.3798
-544.128 -3.7183 0 45.2352
-398.477 9.28461 0 -40.0081
-434.364 9.11342 0 -37.1077
-569.235 -3.89229 0 47.3055
-471.866 3.30692 0 -0.370314
-416.419 9.2084 0 -38.5659
-514.888 3.03359 0 3.13505
-493.375 3.17223 0 1.37749
-544.128 -3.7183 0 45.2352
-494.037 -3.39342 0 41.0759
-362.554 9.36572 0 -42.8307
-398.477 9.28461 0 -40.0081
-519.056 -3.56687 0 43.1614
-428.92 3.53925 0 -3.80614
-380.525 9.3404 0 -41.4318
-471.866 3.30692 0 -0.370314
-450.376 3.43212 0 -2.10288
-494.037 -3.39342 0 41.0759
-444.097 -2.97181 0 36.9499
-326.616 9.25293 0 -45.4688
-362.554 9.36572 0 -42.8307
-469.045 -3.16353 0 38.9985
-386.092 3.7024 0 -7.08786
-344.58 9.34009 0 -44.184
-428.92 3.53925 0 -3.80614
-407.494 3.62705 0 -5.46899
-444.097 -2.97181 0 36.9499
-394.865 -2.71787 0 32.7976
-290.502 8.88491 0 -47.8255
-326.616 9.25293 0 -45.4688
-419.349 -2.90017 0 34.8929
-343.603 3.71843 0 -10.0688
-308.606 9.11283 0 -46.687
-386.092 3.7024 0 -7.08786
-364.776 3.74679 0 -8.64091
-394.865 -2.71787 0 32.7976
-346.408 -1.97538 0 28.8406
-254.276 7.96818 0 -49.6161
-290.502 8.88491 0 -47.8255
-370.526 -2.24616 0 30.7494
-301.539 3.50668 0 -12.5297
-272.376 8.49869 0 -48.8232
-343.603 3.71843 0 -10.0688
-322.538 3.61994 0 -11.3583
-346.408 -1.97538 0 28.8406
-300.837 -2.06737 0 24.7978
-217.198 6.65075 0 -50.7739
-254.276 7.96818 0 -49.6161
-323.126 -2.29778 0 26.9024
-260.595 2.86891 0 -14.0263
-235.949 7.39288 0 -50.2633
-301.539 3.50668 0 -12.5297
-280.817 3.32094 0 -13.497
-300.837 -2.06737 0 24.7978
-258.115 0.159893 0 21.5895
-179.418 4.29165 0 -50.876
-217.198 6.65075 0 -50.7739
-279.026 -0.437833 0 22.8752
-220.534 1.64259 0 -14.2987
-198.308 5.51648 0 -51.0124
-260.595 2.86891 0 -14.0263
-240.605 2.20238 0 -14.214
-258.115 0.159893 0 21.5895
-225.01 -1.522 0 18.0222
-137.878 3.10253 0 -50.9663
-179.418 4.29165 0 -50.876
-240.138 -2.02013 0 20.2124
-183.142 -0.50182 0 -12.3008
-159.521 3.61623 0 -50.7756
-220.534 1.64259 0 -14.2987
-201.112 1.01115 0 -13.9466
-225.01 -1.522 0 18.0222
-201.646 6.08047 0 18.6875
-93.1914 3.33793 0 -52.568
-137.878 3.10253 0 -50.9663
-211.249 5.17887 0 16.5599
-144.183 -3.20952 0 -10.0823
-115.648 2.19135 0 -51.4342
-183.142 -0.50182 0 -12.3008
-164.826 -2.42264 0 -10.45
-201.646 6.08047 0 18.6875
-214.421 -9.70334 0 24.4513
-38.2477 23.4794 0 -65.5415
-93.1914 3.33793 0 -52.568
-203.546 -6.97167 0 21.6863
-101.922 -2.11771 0 -10.3019
-67.9502 10.225 0 -56.5612
-144.183 -3.20952 0 -10.0823
-122.713 -2.7883 0 -10.6661
-214.421 -9.70334 0 24.4513
-291.159 -44.442 0 76.2336
1.61637 101.765 0 -97.9946
-38.2477 23.4794 0 -65.5415
-235.232 5.93667 0 35.3776
-10.0812 58.1107 0 -57.0567
-14.0571 44.7755 0 -78.6339
-101.922 -2.11771 0 -10.3019
-69.9061 8.66833 0 -20.6439
-291.159 -44.442 0 76.2336
-51.9292 505.671 0 -243.181
-11.0849 370.372 0 -74.0757
1.61637 101.765 0 -97.9946
-304.668 -85.4212 0 40.8012
19.3417 474.4 0 -132.322
6.15967 215.801 0 -106.805
-10.0812 58.1107 0 -57.0567
27.0489 173.381 0 -101.929
-6663.9 -2011.23 0 -260.153
-7052.34 -767.138 0 -379.177
-4189.52 -740.595 0 -6.89297
-3860.93 -1162.04 0 355.861
-6922.59 -1445.29 0 -444.963
-5534.25 -849.677 0 -154.662
-4084.26 -937.186 0 136.461
-5466.84 -1648.26 0 60.6571
-5408.82 -1177.16 0 -46.2175
-7052.34 -767.138 0 -379.177
-7154.81 -233.057 0 -169.167
-4267.48 -331.279 0 -117.052
-4189.52 -740.595 0 -6.89297
-7149.76 -396.684 0 -267.121
-5729.32 -337.937 0 -176.7
-4224.28 -520.832 0 -78.5635
-5534.25 -849.677 0 -154.662
-5685.65 -574.378 0 -202.551
-7154.81 -233.057 0 -169.167
-7063.93 -49.0025 0 -48.4429
-4306.97 -126.079 0 -135.306
-4267.48 -331.279 0 -117.052
-7100.15 -119.052 0 -90.5487
-5714.26 -106.402 0 -110.429
-4305.56 -207.713 0 -135.018
-5729.32 -337.937 0 -176.7
-5725.48 -188.163 0 -134.902
-7063.93 -49.0025 0 -48.4429
-7002.42 -10.1721 0 -18.3015
-4273.83 -31.8075 0 -121.054
-4306.97 -126.079 0 -135.306
-7036.63 -20.4965 0 -28.9424
-5659.55 -18.5161 0 -76.2507
-4288.83 -67.55 0 -127.476
-5714.26 -106.402 0 -110.429
-5690.75 -52.6282 0 -92.1809
-7002.42 -10.1721 0 -18.3015
-6940.98 4.15526 0 -12.5286
-4235.47 -5.04166 0 -110.616
-4273.83 -31.8075 0 -121.054
-6966.69 -0.901304 0 -12.8946
-5601.28 2.08937 0 -63.0465
-4257.8 -13.859 0 -115.848
-5659.55 -18.5161 0 -76.2507
-5627.86 -2.50093 0 -66.4778
-6940.98 4.15526 0 -12.5286
-6898.57 1.2879 0 -16.4062
-4191.4 1.10582 0 -102.689
-4235.47 -5.04166 0 -110.616
-6920.45 3.46982 0 -14.7267
-5552.91 4.3471 0 -59.9167
-4211.3 -0.0200246 0 -105.873
-5601.28 2.08937 0 -63.0465
-5576.59 3.9878 0 -61.4775
-6898.57 1.2879 0 -16.4062
-6857.45 -1.38561 0 -18.674
-4155.92 -2.6153 0 -98.2
-4191.4 1.10582 0 -102.689
-6876.75 0.00407089 0 -17.5659
-5511.52 -0.443913 0 -59.2454
-4173.7 -0.398734 0 -100.38
-5552.91 4.3471 0 -59.9167
-5531.11 2.4953 0 -59.2177
-6857.45 -1.38561 0 -18.674
-6820.8 -4.90327 0 -19.4915
-4123.95 -6.8143 0 -94.5137
-4155.92 -2.6153 0 -98.2
-6839.36 -3.26659 0 -19.4859
-5475.61 -4.91219 0 -58.4621
-4138.93 -4.67227 0 -96.1878
-5511.52 -0.443913 0 -59.2454
-5493.18 -2.91522 0 -59.0881
-6820.8 -4.90327 0 -19.4915
-6784.09 -6.96995 0 -17.9298
-4096.78 -10.6135 0 -91.4757
-4123.95 -6.8143 0 -94.5137
-6802.19 -6.04254 0 -18.8883
-5442.81 -8.50393 0 -56.7874
-4110.18 -8.9018 0 -93.0049
-5475.61 -4.91219 0 -58.4621
-5458.86 -6.81556 0 -57.6862
-6784.09 -6.96995 0 -17.9298
-6748.16 -8.39701 0 -15.0555
-4071.7 -12.9568 0 -88.4727
-4096.78 -10.6135 0 -91.4757
-6766.2 -7.78758 0 -16.6673
-5411.9 -10.6785 0 -54.2456
-4083.9 -11.9165 0 -89.9506
-5442.81 -8.50393 0 -56.7874
-5427.22 -9.76568 0 -55.6395
-6748.16 -8.39701 0 -15.0555
-6712.05 -9.11213 0 -11.1771
-4048.36 -14.3527 0 -85.5384
-4071.7 -12.9568 0 -88.4727
-6730.06 -8.81076 0 -13.1922
-5381.98 -11.9361 0 -51.1049
-4059.94 -13.7769 0 -87.0137
-5411.9 -10.6785 0 -54.2456
-5396.85 -11.3961 0 -52.7228
-6712.05 -9.11213 0 -11.1771
-6676.03 -9.47598 0 -6.82733
-4025.74 -14.9757 0 -82.5898
-4048.36 -14.3527 0 -85.5384
-6694.07 -9.33505 0 -9.05194
-5352.58 -12.5158 0 -47.5955
-4036.95 -14.7317 0 -84.0595
-5381.98 -11.9361 0 -51.1049
-5367.24 -12.2955 0 -49.3889
-6676.03 -9.47598 0 -6.82733
-6639.92 -9.59353 0 -2.21599
-4003.61 -15.1712 0 -79.6669
-4025.74 -14.9757 0 -82.5898
-6657.97 -9.55402 0 -4.53772
-5323.42 -12.7186 0 -43.9076
-4014.65 -15.1191 0 -81.1272
-5352.58 -12.5158 0 -47.5955
-5337.98 -12.6513 0 -45.7631
-6639.92 -9.59353 0 -2.21599
-6603.81 -9.59545 0 2.46945
-3981.67 -15.0993 0 -76.7708
-4003.61 -15.1712 0 -79.6669
-6621.87 -9.60617 0 0.122101
-5294.37 -12.698 0 -40.1524
-3992.61 -15.1575 0 -78.2136
-5323.42 -12.7186 0 -43.9076
-5308.89 -12.7291 0 -42.0343
-6603.81 -9.59545 0 2.46945
-6567.67 -9.53336 0 7.15364
-3959.83 -14.8973 0 -73.9188
-3981.67 -15.0993 0 -76.7708
-6585.74 -9.56895 0 4.81636
-5265.37 -12.5683 0 -36.401
-3970.74 -15.0107 0 -75.3394
-5294.37 -12.698 0 -40.1524
-5279.87 -12.6423 0 -38.2729
-6567.67 -9.53336 0 7.15364
-6531.51 -9.44695 0 11.7845
-3938.03 -14.6283 0 -71.1149
-3959.83 -14.8973 0 -73.9188
-6549.59 -9.49219 0 9.47709
-5236.38 -12.3856 0 -32.6889
-3948.93 -14.7677 0 -72.5103
-5265.37 -12.5683 0 -36.401
-5250.88 -12.4813 0 -34.5388
-6531.51 -9.44695 0 11.7845
-6495.35 -9.35227 0 16.3433
-3916.24 -14.3344 0 -68.3637
-3938.03 -14.6283 0 -71.1149
-6513.43 -9.39978 0 14.074
-5207.4 -12.1836 0 -29.035
-3927.13 -14.4833 0 -69.7327
-5236.38 -12.3856 0 -32.6889
-5221.89 -12.2858 0 -30.8539
-6495.35 -9.35227 0 16.3433
-6459.18 -9.25908 0 20.8193
-3894.44 -14.0331 0 -65.6657
-3916.24 -14.3344 0 -68.3637
-6477.27 -9.30526 0 18.5918
-5178.41 -11.9774 0 -25.4469
-3905.34 -14.1838 0 -67.008
-5207.4 -12.1836 0 -29.035
-5192.9 -12.0805 0 -27.2325
-6459.18 -9.25908 0 20.8193
-6423.01 -9.17081 0 25.2103
-3872.64 -13.7342 0 -63.0209
-3894.44 -14.0331 0 -65.6657
-6441.1 -9.21417 0 23.0255
-5149.41 -11.7745 0 -21.9276
-3883.54 -13.8831 0 -64.3367
-5178.41 -11.9774 0 -25.4469
-5163.91 -11.8753 0 -23.6786
-6423.01 -9.17081 0 25.2103
-6386.84 -9.08901 0 29.5157
-3850.84 -13.441 0 -60.4285
-3872.64 -13.7342 0 -63.0209
-6404.93 -9.12909 0 27.3736
-5120.41 -11.5776 0 -18.4772
-3861.74 -13.5868 0 -61.7182
-5149.41 -11.7745 0 -21.9276
-5134.91 -11.6753 0 -20.1938
-6386.84 -9.08901 0 29.5157
-6350.66 -9.01385 0 33.7366
-3829.04 -13.1545 0 -57.8876
-3850.84 -13.441 0 -60.4285
-6368.75 -9.0506 0 31.6366
-5091.41 -11.3875 0 -15.0951
-3839.94 -13.2969 0 -59.1517
-5120.41 -11.5776 0 -18.4772
-5105.91 -11.4817 0 -16.7777
-6350.66 -9.01385 0 33.7366
-6314.47 -8.94513 0 37.8739
-3807.22 -12.8745 0 -55.3973
-3829.04 -13.1545 0 -57.8876
-6332.57 -8.97871 0 35.8156
-5062.4 -11.2039 0 -11.7802
-3818.13 -13.0137 0 -56.6362
-5091.41 -11.3875 0 -15.0951
-5076.9 -11.2949 0 -13.4293
-6314.47 -8.94513 0 37.8739
-6278.28 -8.88246 0 41.9289
-3785.41 -12.6008 0 -52.9568
-3807.22 -12.8745 0 -55.3973
-6296.38 -8.91306 0 39.9117
-5033.38 -11.0266 0 -8.53159
-3796.32 -12.7369 0 -54.1709
-5062.4 -11.2039 0 -11.7802
-5047.89 -11.1145 0 -10.1477
-6278.28 -8.88246 0 41.9289
-6242.09 -8.82545 0 45.9024
-3763.59 -12.3325 0 -50.5654
-3785.41 -12.6008 0 -52.9568
-6260.19 -8.85327 0 43.9258
-5004.37 -10.8549 0 -5.34838
-3774.5 -12.466 0 -51.755
-5033.38 -11.0266 0 -8.53159
-5018.87 -10.9401 0 -6.93186
-6242.09 -8.82545 0 45.9024
-6205.89 -8.77375 0 49.7952
-3741.78 -12.0694 0 -48.2225
-3763.59 -12.3325 0 -50.5654
-6223.99 -8.79896 0 47.8589
-4975.35 -10.6885 0 -2.22986
-3752.69 -12.2004 0 -49.3879
-5004.37 -10.8549 0 -5.34838
-4989.86 -10.7711 0 -3.78107
-6205.89 -8.77375 0 49.7952
-6169.69 -8.72703 0 53.608
-3719.95 -11.811 0 -45.9277
-3741.78 -12.0694 0 -48.2225
-6187.79 -8.74978 0 51.7116
-4946.32 -10.527 0 0.824564
-3730.87 -11.9397 0 -47.0691
-4975.35 -10.6885 0 -2.22986
-4960.84 -10.6072 0 -0.69467
-6169.69 -8.72703 0 53.608
-6133.49 -8.68501 0 57.3414
-3698.13 -11.557 0 -43.6805
-3719.95 -11.811 0 -45.9277
-6151.59 -8.70545 0 55.4846
-4917.3 -10.3701 0 3.8154
-3709.04 -11.6835 0 -44.7982
-4946.32 -10.527 0 0.824564
-4931.81 -10.448 0 2.3279
-6133.49 -8.68501 0 57.3414
-6097.28 -8.64745 0 60.996
-3676.31 -11.3071 0 -41.4807
-3698.13 -11.557 0 -43.6805
-6115.38 -8.66569 0 59.1785
-4888.27 -10.2175 0 6.74311
-3687.22 -11.4315 0 -42.5747
-4917.3 -10.3701 0 3.8154
-4902.78 -10.2933 0 5.28712
-6097.28 -8.64745 0 60.996
-6061.07 -8.61409 0 64.5721
-3654.48 -11.0611 0 -39.328
-3676.31 -11.3071 0 -41.4807
-6079.17 -8.63026 0 62.7938
-4859.24 -10.0691 0 9.60811
-3665.39 -11.1836 0 -40.3985
-4888.27 -10.2175 0 6.74311
-4873.75 -10.1428 0 8.18343
-6061.07 -8.61409 0 64.5721
-6024.85 -8.58474 0 68.0703
-3632.65 -10.8189 0 -37.2219
-3654.48 -11.0611 0 -39.328
-6042.96 -8.59893 0 66.3309
-4830.2 -9.92457 0 12.4108
-3643.57 -10.9396 0 -38.2691
-4859.24 -10.0691 0 9.60811
-4844.72 -9.99634 0 11.0172
-6024.85 -8.58474 0 68.0703
-5988.63 -8.55916 0 71.4911
-3610.83 -10.5804 0 -35.1623
-3632.65 -10.8189 0 -37.2219
-6006.74 -8.57149 0 69.7903
-4801.17 -9.78382 0 15.1515
-3621.74 -10.6992 0 -36.1863
-4830.2 -9.92457 0 12.4108
-4815.69 -9.85373 0 13.7888
-5988.63 -8.55916 0 71.4911
-5952.41 -8.53718 0 74.8349
-3589 -10.3453 0 -33.1489
-3610.83 -10.5804 0 -35.1623
-5970.52 -8.54774 0 73.1726
-4772.13 -9.64667 0 17.8306
-3599.91 -10.4624 0 -34.1498
-4801.17 -9.78382 0 15.1515
-4786.65 -9.71481 0 16.4987
-5952.41 -8.53718 0 74.8349
-5916.18 -8.51858 0 78.1021
-3567.16 -10.1136 0 -31.1813
-3589 -10.3453 0 -33.1489
-5934.29 -8.52747 0 76.478
-4743.09 -9.51295 0 20.4485
-3578.08 -10.2291 0 -32.1594
-4772.13 -9.64667 0 17.8306
-4757.61 -9.57939 0 19.1472
-5916.18 -8.51858 0 78.1021
-5879.95 -8.50318 0 81.2933
-3545.33 -9.88521 0 -29.2594
-3567.16 -10.1136 0 -31.1813
-5898.07 -8.5105 0 79.7072
-4714.05 -9.38252 0 23.0055
-3556.25 -9.99902 0 -30.2147
-4743.09 -9.51295 0 20.4485
-4728.57 -9.44734 0 21.7346
-5879.95 -8.50318 0 81.2933
-5843.72 -8.4908 0 84.4089
-3523.5 -9.65994 0 -27.3828
-3545.33 -9.88521 0 -29.2594
-5861.84 -8.49663 0 82.8605
-4685.01 -9.25522 0 25.5021
-3534.42 -9.77219 0 -28.3155
-4714.05 -9.38252 0 23.0055
-4699.53 -9.31849 0 24.2614
-5843.72 -8.4908 0 84.4089
-5807.49 -8.48124 0 87.4493
-3501.67 -9.43772 0 -25.5513
-3523.5 -9.65994 0 -27.3828
-5825.61 -8.48568 0 85.9384
-4655.96 -9.13091 0 27.9385
-3512.58 -9.54846 0 -26.4615
-4685.01 -9.25522 0 25.5021
-4670.49 -9.1927 0 26.7278
-5807.49 -8.48124 0 87.4493
-5771.25 -8.47432 0 90.415
-3479.83 -9.21842 0 -23.7647
-3501.67 -9.43772 0 -25.5513
-5789.37 -8.47746 0 88.9414
-4626.92 -9.00944 0 30.3152
-3490.75 -9.32771 0 -24.6524
-4655.96 -9.13091 0 27.9385
-4641.44 -9.06983 0 29.1343
-5771.25 -8.47432 0 90.415
-5735.02 -8.46987 0 93.3065
-3458 -9.00196 0 -22.0225
-3479.83 -9.21842 0 -23.7647
-5753.14 -8.4718 0 91.87
-4597.87 -8.89067 0 32.6325
-3468.91 -9.10984 0 -22.888
-4626.92 -9.00944 0 30.3152
-4612.4 -8.94972 0 31.4812
-5735.02 -8.46987 0 93.3065
-5698.78 -8.46772 0 96.1242
-3436.16 -8.78822 0 -20.3246
-3458 -9.00196 0 -22.0225
-5716.9 -8.46852 0 94.7245
-4568.82 -8.77446 0 34.8907
-3447.08 -8.89475 0 -21.168
-4597.87 -8.89067 0 32.6325
-4583.35 -8.83225 0 33.7689
-5698.78 -8.46772 0 96.1242
-5662.54 -8.46768 0 98.8686
-3414.33 -8.5771 0 -18.6707
-3436.16 -8.78822 0 -20.3246
-5680.66 -8.46745 0 97.5055
-4539.78 -8.66068 0 37.0903
-3425.24 -8.68234 0 -19.4921
-4568.82 -8.77446 0 34.8907
-4554.3 -8.71727 0 35.9978
-5662.54 -8.46768 0 98.8686
-5626.3 -8.4696 0 101.54
-3392.49 -8.36851 0 -17.0604
-3414.33 -8.5771 0 -18.6707
-5644.42 -8.46841 0 100.213
-4510.73 -8.54918 0 39.2316
-3403.41 -8.4725 0 -17.8601
-4539.78 -8.66068 0 37.0903
-4525.25 -8.60465 0 38.1682
-5626.3 -8.4696 0 101.54
-5590.06 -8.4733 0 104.139
-3370.66 -8.16234 0 -15.4936
-3392.49 -8.36851 0 -17.0604
-5608.18 -8.47124 0 102.849
-4481.68 -8.43985 0 41.315
-3381.57 -8.26513 0 -16.2716
-4510.73 -8.54918 0 39.2316
-4496.2 -8.49425 0 40.2805
-5590.06 -8.4733 0 104.139
-5553.82 -8.47863 0 106.667
-3348.82 -7.9585 0 -13.97
-3370.66 -8.16234 0 -15.4936
-5571.94 -8.47577 0 105.412
-4452.63 -8.33254 0 43.3408
-3359.74 -8.06013 0 -14.7264
-4481.68 -8.43985 0 41.315
-4467.15 -8.38595 0 42.3351
-5553.82 -8.47863 0 106.667
-5517.57 -8.48541 0 109.122
-3326.98 -7.75689 0 -12.4892
-3348.82 -7.9585 0 -13.97
-5535.69 -8.48185 0 107.903
-4423.58 -8.22713 0 45.3095
-3337.9 -7.85742 0 -13.2242
-4452.63 -8.33254 0 43.3408
-4438.1 -8.2796 0 44.3323
-5517.57 -8.48541 0 109.122
-5481.33 -8.49351 0 111.507
-3305.15 -7.55741 0 -11.051
-3326.98 -7.75689 0 -12.4892
-5499.45 -8.48931 0 110.324
-4394.53 -8.12349 0 47.2214
-3316.07 -7.65689 0 -11.7648
-4423.58 -8.22713 0 45.3095
-4409.05 -8.17509 0 46.2725
-5481.33 -8.49351 0 111.507
-5445.08 -8.50276 0 113.821
-3283.31 -7.35998 0 -9.65511
-3305.15 -7.55741 0 -11.051
-5463.21 -8.498 0 112.673
-4365.48 -8.0215 0 49.0769
-3294.23 -7.45844 0 -10.3478
-4394.53 -8.12349 0 47.2214
-4380 -8.0723 0 48.1562
-5445.08 -8.50276 0 113.821
-5408.84 -8.51301 0 116.066
-3261.48 -7.1645 0 -8.30125
-3283.31 -7.35998 0 -9.65511
-5426.96 -8.50777 0 114.952
-4336.43 -7.92105 0 50.8763
-3272.4 -7.262 0 -8.97294
-4365.48 -8.0215 0 49.0769
-4350.95 -7.97109 0 49.9835
-5408.84 -8.51301 0 116.066
-5372.59 -8.52411 0 118.24
-3239.65 -6.97089 0 -6.98915
-3261.48 -7.1645 0 -8.30125
-5390.72 -8.51846 0 117.162
-4307.38 -7.82201 0 52.62
-3250.56 -7.06747 0 -7.64
-4336.43 -7.92105 0 50.8763
-4321.91 -7.87136 0 51.7551
-5372.59 -8.52411 0 118.24
-5336.35 -8.53593 0 120.346
-3217.81 -6.77906 0 -5.71853
-3239.65 -6.97089 0 -6.98915
-5354.47 -8.52994 0 119.302
-4278.33 -7.72426 0 54.3084
-3228.73 -6.87476 0 -6.34867
-4307.38 -7.82201 0 52.62
-4292.86 -7.77298 0 53.4711
-5336.35 -8.53593 0 120.346
-5300.11 -8.54831 0 122.383
-3195.98 -6.58892 0 -4.4891
-3217.81 -6.77906 0 -5.71853
-5318.23 -8.54206 0 121.373
-4249.28 -7.6277 0 55.9419
-3206.9 -6.68378 0 -5.09868
-4278.33 -7.72426 0 54.3084
-4263.81 -7.67584 0 55.132
-5300.11 -8.54831 0 122.383
-5263.86 -8.56112 0 124.352
-3174.15 -6.40039 0 -3.30059
-3195.98 -6.58892 0 -4.4891
-5281.98 -8.55467 0 123.376
-4220.24 -7.53221 0 57.5208
-3185.07 -6.49445 0 -3.88975
-4249.28 -7.6277 0 55.9419
-4234.76 -7.57983 0 56.7382
-5263.86 -8.56112 0 124.352
-5227.62 -8.57423 0 126.253
-3152.32 -6.21338 0 -2.15271
-3174.15 -6.40039 0 -3.30059
-5245.74 -8.56765 0 125.311
-4191.19 -7.43768 0 59.0456
-3163.23 -6.3067 0 -2.72158
-4220.24 -7.53221 0 57.5208
-4205.71 -7.48483 0 58.29
-5227.62 -8.57423 0 126.253
-5191.38 -8.58749 0 128.086
-3130.49 -6.02783 0 -1.04519
-3152.32 -6.21338 0 -2.15271
-5209.5 -8.58085 0 127.178
-4162.14 -7.34401 0 60.5165
-3141.4 -6.12043 0 -1.59392
-4191.19 -7.43768 0 59.0456
-4176.67 -7.39074 0 59.7877
-5191.38 -8.58749 0 128.086
-5155.14 -8.60079 0 129.853
-3108.66 -5.84364 0 0.0222561
-3130.49 -6.02783 0 -1.04519
-5173.26 -8.59415 0 128.978
-4133.1 -7.25109 0 61.934
-3119.57 -5.93557 0 -0.506474
-4162.14 -7.34401 0 60.5165
-4147.62 -7.29746 0 61.2319
-5155.14 -8.60079 0 129.853
-5118.89 -8.61399 0 131.554
-3086.83 -5.66075 0 1.0499
-3108.66 -5.84364 0 0.0222561
-5137.01 -8.60741 0 130.712
-4104.05 -7.15882 0 63.2984
-3097.75 -5.75204 0 0.541036
-4133.1 -7.25109 0 61.934
-4118.58 -7.20488 0 62.6228
-5118.89 -8.61399 0 131.554
-5082.65 -8.62697 0 133.189
-3065.01 -5.47908 0 2.03803
-3086.83 -5.66075 0 1.0499
-5100.77 -8.62051 0 132.38
-4075.01 -7.0671 0 64.6102
-3075.92 -5.56977 0 1.54889
-4104.05 -7.15882 0 63.2984
-4089.53 -7.11289 0 63.9609
-5082.65 -8.62697 0 133.189
-5046.42 -8.6396 0 134.758
-3043.18 -5.29855 0 2.98692
-3065.01 -5.47908 0 2.03803
-5064.54 -8.63334 0 133.982
-4045.97 -6.97583 0 65.8696
-3054.09 -5.38867 0 2.51736
-4075.01 -7.0671 0 64.6102
-4060.49 -7.02141 0 65.2464
-5046.42 -8.6396 0 134.758
-5010.18 -8.65178 0 136.263
-3021.36 -5.1191 0 3.89686
-3043.18 -5.29855 0 2.98692
-5028.3 -8.64576 0 135.519
-4016.93 -6.88492 0 67.0771
-3032.27 -5.20869 0 3.44674
-4045.97 -6.97583 0 65.8696
-4031.45 -6.93034 0 66.4798
-5010.18 -8.65178 0 136.263
-4973.94 -8.66337 0 137.703
-2999.54 -4.94065 0 4.76811
-3021.36 -5.1191 0 3.89686
-4992.06 -8.65766 0 136.991
-3987.89 -6.79428 0 68.233
-3010.45 -5.02975 0 4.3373
-4016.93 -6.88492 0 67.0771
-4002.41 -6.83958 0 67.6615
-4973.94 -8.66337 0 137.703
-4937.71 -8.67428 0 139.079
-2977.72 -4.76313 0 5.60097
-2999.54 -4.94065 0 4.76811
-4955.83 -8.66892 0 138.399
-3958.86 -6.70382 0 69.3377
-2988.63 -4.85178 0 5.18932
-3987.89 -6.79428 0 68.233
-3973.37 -6.74903 0 68.7917
-4937.71 -8.67428 0 139.079
-4901.48 -8.68439 0 140.392
-2955.9 -4.58649 0 6.39571
-2977.72 -4.76313 0 5.60097
-4919.59 -8.67944 0 139.743
-3929.82 -6.61344 0 70.3916
-2966.81 -4.67471 0 6.00309
-3958.86 -6.70382 0 69.3377
-3944.34 -6.65862 0 69.871
-4901.48 -8.68439 0 140.392
-4865.25 -8.69358 0 141.641
-2934.08 -4.41065 0 7.15262
-2955.9 -4.58649 0 6.39571
-4883.36 -8.6891 0 141.024
-3900.79 -6.52306 0 71.3951
-2944.99 -4.49847 0 6.77888
-3929.82 -6.61344 0 70.3916
-3915.3 -6.56825 0 70.8996
-4865.25 -8.69358 0 141.641
-4829.02 -8.70177 0 142.828
-2912.26 -4.23555 0 7.87197
-2934.08 -4.41065 0 7.15262
-4847.13 -8.69781 0 142.242
-3871.76 -6.43259 0 72.3485
-2923.17 -4.32301 0 7.51697
-3900.79 -6.52306 0 71.3951
-3886.27 -6.47784 0 71.878
-4829.02 -8.70177 0 142.828
-4792.79 -8.70883 0 143.953
-2890.45 -4.06114 0 8.55404
-2912.26 -4.23555 0 7.87197
-4810.9 -8.70544 0 143.398
-3842.73 -6.34196 0 73.2522
-2901.36 -4.14827 0 8.21765
-3871.76 -6.43259 0 72.3485
-3857.24 -6.38731 0 72.8065
-4792.79 -8.70883 0 143.953
-4756.57 -8.71468 0 145.016
-2868.64 -3.88734 0 9.19912
-2890.45 -4.06114 0 8.55404
-4774.68 -8.71192 0 144.492
-3813.7 -6.25109 0 74.1065
-2879.54 -3.97417 0 8.88119
-3842.73 -6.34196 0 73.2522
-3828.21 -6.29656 0 73.6855
-4756.57 -8.71468 0 145.016
-4720.34 -8.71922 0 146.018
-2846.83 -3.71411 0 9.80748
-2868.64 -3.88734 0 9.19912
-4738.46 -8.71712 0 145.525
-3784.67 -6.15989 0 74.912
-2857.73 -3.80066 0 9.50787
-3813.7 -6.25109 0 74.1065
-3799.19 -6.20554 0 74.5154
-4720.34 -8.71922 0 146.018
-4684.13 -8.72235 0 146.96
-2825.02 -3.54138 0 10.3794
-2846.83 -3.71411 0 9.80748
-4702.23 -8.72097 0 146.497
-3755.65 -6.06829 0 75.6688
-2835.92 -3.62768 0 10.098
-3784.67 -6.15989 0 74.912
-3770.16 -6.11415 0 75.2965
-4684.13 -8.72235 0 146.96
-4647.91 -8.72399 0 147.841
-2803.21 -3.3691 0 10.9152
-2825.02 -3.54138 0 10.3794
-4666.02 -8.72336 0 147.408
-3726.63 -5.97623 0 76.3775
-2814.12 -3.45519 0 10.6518
-3755.65 -6.06829 0 75.6688
-3741.14 -6.02232 0 76.0292
-4647.91 -8.72399 0 147.841
-4611.69 -8.72403 0 148.663
-2781.41 -3.19722 0 11.4151
-2803.21 -3.3691 0 10.9152
-4629.8 -8.72421 0 148.259
-3697.61 -5.88361 0 77.0383
-2792.31 -3.28311 0 11.1696
-3726.63 -5.97623 0 76.3775
-3712.12 -5.92999 0 76.7139
-4611.69 -8.72403 0 148.663
-4575.48 -8.7224 0 149.425
-2759.61 -3.02568 0 11.8794
-2781.41 -3.19722 0 11.4151
-4593.59 -8.72343 0 149.051
-3668.6 -5.79039 0 77.6517
-2770.51 -3.11141 0 11.6517
-3697.61 -5.88361 0 77.0383
-3683.11 -5.83708 0 77.351
-4575.48 -8.7224 0 149.425
-4539.27 -8.71901 0 150.128
-2737.81 -2.85443 0 12.3084
-2759.61 -3.02568 0 11.8794
-4557.38 -8.72093 0 149.784
-3639.58 -5.69648 0 78.2181
-2748.71 -2.94002 0 12.0983
-3668.6 -5.79039 0 77.6517
-3654.09 -5.74352 0 77.9408
-4539.27 -8.71901 0 150.128
-4503.06 -8.71378 0 150.773
-2716.01 -2.68343 0 12.7023
-2737.81 -2.85443 0 12.3084
-4521.17 -8.71663 0 150.458
-3610.57 -5.60183 0 78.7377
-2726.91 -2.76891 0 12.5097
-3639.58 -5.69648 0 78.2181
-3625.08 -5.64925 0 78.4837
-4503.06 -8.71378 0 150.773
-4466.86 -8.70664 0 151.36
-2694.22 -2.51263 0 13.0616
-2716.01 -2.68343 0 12.7023
-4484.96 -8.71046 0 151.074
-3581.57 -5.50636 0 79.211
-2705.11 -2.59801 0 12.8863
-3610.57 -5.60183 0 78.7377
-3596.07 -5.5542 0 78.9801
-4466.86 -8.70664 0 151.36
-4430.66 -8.69749 0 151.89
-2672.42 -2.34198 0 13.3863
-2694.22 -2.51263 0 13.0616
-4448.76 -8.70232 0 151.632
-3552.56 -5.41003 0 79.6384
-2683.32 -2.42729 0 13.2282
-3581.57 -5.50636 0 79.211
-3567.06 -5.45831 0 79.4304
-4430.66 -8.69749 0 151.89
-4394.46 -8.68628 0 152.363
-2650.63 -2.17143 0 13.6768
-2672.42 -2.34198 0 13.3863
-4412.56 -8.69215 0 152.133
-3523.56 -5.31277 0 80.0202
-2661.53 -2.25669 0 13.5358
-3552.56 -5.41003 0 79.6384
-3538.06 -5.36152 0 79.8349
-4394.46 -8.68628 0 152.363
-4358.27 -8.67293 0 152.779
-2628.85 -2.00094 0 13.9335
-2650.63 -2.17143 0 13.6768
-4376.36 -8.67988 0 152.578
-3494.56 -5.21452 0 80.3568
-2639.74 -2.08618 0 13.8094
-3523.56 -5.31277 0 80.0202
-3509.06 -5.26377 0 80.1941
-4358.27 -8.67293 0 152.779
-4322.07 -8.65736 0 153.139
-2607.06 -1.83048 0 14.1565
-2628.85 -2.00094 0 13.9335
-4340.17 -8.66543 0 152.966
-3465.56 -5.11522 0 80.6485
-2617.95 -1.91571 0 14.0492
-3494.56 -5.21452 0 80.3568
-3480.06 -5.165 0 80.5082
-4322.07 -8.65736 0 153.139
-4285.89 -8.63952 0 153.444
-2585.28 -1.66 0 14.3461
-2607.06 -1.83048 0 14.1565
-4303.98 -8.64873 0 153.299
-3436.57 -5.01484 0 80.8959
-2596.17 -1.74524 0 14.2555
-3465.56 -5.11522 0 80.6485
-3451.06 -5.06517 0 80.7777
-4285.89 -8.63952 0 153.444
-4249.7 -8.61934 0 153.694
-2563.5 -1.48945 0 14.5027
-2585.28 -1.66 0 14.3461
-4267.79 -8.62973 0 153.576
-3407.58 -4.9133 0 81.0991
-2574.39 -1.57473 0 14.4285
-3436.57 -5.01484 0 80.8959
-3422.07 -4.96421 0 81.003
-4249.7 -8.61934 0 153.694
-4213.52 -8.59675 0 153.889
-2541.72 -1.31882 0 14.6265
-2563.5 -1.48945 0 14.5027
-4231.61 -8.60835 0 153.798
-3378.59 -4.81056 0 81.2587
-2552.61 -1.40415 0 14.5687
-3407.58 -4.9133 0 81.0991
-3393.08 -4.86208 0 81.1843
-4213.52 -8.59675 0 153.889
-4177.34 -8.5717 0 154.03
-2519.95 -1.14805 0 14.7178
-2541.72 -1.31882 0 14.6265
-4195.43 -8.58454 0 153.966
-3349.61 -4.70658 0 81.3749
-2530.83 -1.23345 0 14.6762
-3378.59 -4.81056 0 81.2587
-3364.1 -4.75873 0 81.3222
-4177.34 -8.5717 0 154.03
-4141.17 -8.54413 0 154.117
-2498.17 -0.977115 0 14.7769
-2519.95 -1.14805 0 14.7178
-4159.25 -8.55823 0 154.08
-3320.62 -4.60131 0 81.4482
-2509.06 -1.0626 0 14.7514
-3349.61 -4.70658 0 81.3749
-3335.11 -4.65411 0 81.4169
-4141.17 -8.54413 0 154.117
-4105 -8.51398 0 154.152
-2476.4 -0.805981 0 14.804
-2498.17 -0.977115 0 14.7769
-4123.08 -8.52938 0 154.141
-3291.65 -4.4947 0 81.4789
-2487.29 -0.891575 0 14.7944
-3320.62 -4.60131 0 81.4482
-3306.13 -4.54818 0 81.4688
-4105 -8.51398 0 154.152
-4068.83 -8.4812 0 154.133
-2454.64 -0.634615 0 14.7994
-2476.4 -0.805981 0 14.804
-4086.91 -8.49792 0 154.149
-3262.67 -4.38672 0 81.4674
-2465.52 -0.720329 0 14.8057
-3291.65 -4.4947 0 81.4789
-3277.16 -4.44088 0 81.4784
-4068.83 -8.4812 0 154.133
-4032.66 -8.44575 0 154.062
-2432.87 -0.462988 0 14.7635
-2454.64 -0.634615 0 14.7994
-4050.75 -8.46381 0 154.104
-3233.7 -4.27731 0 81.4141
-2443.75 -0.548836 0 14.7854
-3262.67 -4.38672 0 81.4674
-3248.18 -4.33219 0 81.4459
-4032.66 -8.44575 0 154.062
-3996.5 -8.40757 0 153.94
-2411.11 -0.29107 0 14.6965
-2432.87 -0.462988 0 14.7635
-4014.58 -8.427 0 154.007
-3204.73 -4.16645 0 81.3193
-2421.99 -0.377067 0 14.7339
-3233.7 -4.27731 0 81.4141
-3219.21 -4.22206 0 81.3719
-3996.5 -8.40757 0 153.94
-3960.35 -8.36661 0 153.766
-2389.35 -0.118833 0 14.5986
-2411.11 -0.29107 0 14.6965
-3978.42 -8.38744 0 153.859
-3175.77 -4.05409 0 81.1835
-2400.23 -0.204993 0 14.6514
-3204.73 -4.16645 0 81.3193
-3190.25 -4.11046 0 81.2565
-3960.35 -8.36661 0 153.766
-3924.19 -8.32283 0 153.541
-2367.6 0.0537496 0 14.4702
-2389.35 -0.118833 0 14.5986
-3942.27 -8.34508 0 153.66
-3146.8 -3.94021 0 81.0069
-2378.47 -0.0325864 0 14.5382
-3175.77 -4.05409 0 81.1835
-3161.28 -3.99734 0 81.1002
-3924.19 -8.32283 0 153.541
-3888.04 -8.2762 0 153.266
-2345.84 0.226703 0 14.3115
-2367.6 0.0537496 0 14.4702
-3906.12 -8.29988 0 153.41
-3117.85 -3.82476 0 80.79
-2356.72 0.140178 0 14.3946
-3146.8 -3.94021 0 81.0069
-3132.32 -3.88268 0 80.9035
-3888.04 -8.2762 0 153.266
-3851.9 -8.22667 0 152.941
-2324.09 0.400051 0 14.1228
-2345.84 0.226703 0 14.3115
-3869.97 -8.2518 0 153.109
-3088.89 -3.70771 0 80.5332
-2334.97 0.313326 0 14.2209
-3117.85 -3.82476 0 80.79
-3103.37 -3.76644 0 80.6666
-3851.9 -8.22667 0 152.941
-3815.76 -8.1742 0 152.566
-2302.35 0.573816 0 13.9044
-2324.09 0.400051 0 14.1228
-3833.83 -8.2008 0 152.76
-3059.94 -3.58904 0 80.2368
-2313.22 0.48688 0 14.0173
-3088.89 -3.70771 0 80.5332
-3074.41 -3.64858 0 80.3899
-3815.76 -8.1742 0 152.566
-3779.62 -8.11876 0 152.143
-2280.6 0.748019 0 13.6566
-2302.35 0.573816 0 13.9044
-3797.69 -8.14685 0 152.36
-3030.99 -3.46872 0 79.9011
-2291.48 0.660861 0 13.7842
-3059.94 -3.58904 0 80.2368
-3045.47 -3.52909 0 80.0738
-3779.62 -8.11876 0 152.143
-3743.49 -8.06032 0 151.671
-2258.86 0.922682 0 13.3797
-2280.6 0.748019 0 13.6566
-3761.55 -8.08991 0 151.913
-3002.05 -3.34672 0 79.5267
-2269.73 0.835292 0 13.5218
-3030.99 -3.46872 0 79.9011
-3016.52 -3.40793 0 79.7187
-3743.49 -8.06032 0 151.671
-3707.36 -7.99884 0 151.151
-2237.12 1.09782 0 13.0738
-2258.86 0.922682 0 13.3797
-3725.42 -8.02996 0 151.417
-2973.11 -3.22301 0 79.1138
-2247.99 1.01019 0 13.2303
-3002.05 -3.34672 0 79.5267
-2987.58 -3.28508 0 79.325
-3707.36 -7.99884 0 151.151
-3671.23 -7.93429 0 150.583
-2215.39 1.27346 0 12.7394
-2237.12 1.09782 0 13.0738
-3689.3 -7.96695 0 150.873
-2944.17 -3.09758 0 78.6628
-2226.26 1.18558 0 12.9102
-2973.11 -3.22301 0 79.1138
-2958.64 -3.16051 0 78.893
-3671.23 -7.93429 0 150.583
-3635.11 -7.86665 0 149.968
-2193.66 1.4496 0 12.3767
-2215.39 1.27346 0 12.7394
-3653.17 -7.90086 0 150.281
-2915.24 -2.97039 0 78.174
-2204.52 1.36146 0 12.5616
-2944.17 -3.09758 0 78.6628
-2929.7 -3.03421 0 78.4231
-3635.11 -7.86665 0 149.968
-3598.99 -7.7959 0 149.307
-2171.93 1.62628 0 11.986
-2193.66 1.4496 0 12.3767
-3617.05 -7.83167 0 149.643
-2886.31 -2.84144 0 77.648
-2182.79 1.53787 0 12.1848
-2915.24 -2.97039 0 78.174
-2900.77 -2.90614 0 77.9156
-3598.99 -7.7959 0 149.307
-3562.88 -7.72201 0 148.599
-2150.2 1.80349 0 11.5675
-2171.93 1.62628 0 11.986
-3580.94 -7.75935 0 148.959
-2857.38 -2.7107 0 77.0849
-2161.07 1.71482 0 11.7802
-2886.31 -2.84144 0 77.648
-2871.84 -2.77629 0 77.3711
-3562.88 -7.72201 0 148.599
-3526.77 -7.64496 0 147.846
-2128.48 1.98126 0 11.1215
-2150.2 1.80349 0 11.5675
-3544.83 -7.68388 0 148.228
-2828.46 -2.57815 0 76.4853
-2139.34 1.8923 0 11.3479
-2857.38 -2.7107 0 77.0849
-2842.92 -2.64465 0 76.7897
-3526.77 -7.64496 0 147.846
-3490.67 -7.56472 0 147.047
-2106.76 2.15959 0 10.6483
-2128.48 1.98126 0 11.1215
-3508.72 -7.60524 0 147.452
-2799.54 -2.44378 0 75.8495
-2117.62 2.07035 0 10.8883
-2828.46 -2.57815 0 76.4853
-2814 -2.51119 0 76.1719
-3490.67 -7.56472 0 147.047
-3454.57 -7.4813 0 146.204
-2085.04 2.3385 0 10.1483
-2106.76 2.15959 0 10.6483
-3472.62 -7.52341 0 146.631
-2770.62 -2.30758 0 75.1778
-2095.9 2.24897 0 10.4016
-2799.54 -2.44378 0 75.8495
-2785.08 -2.37591 0 75.5181
-3454.57 -7.4813 0 146.204
-3418.47 -7.39465 0 145.317
-2063.33 2.51799 0 9.62156
-2085.04 2.3385 0 10.1483
-3436.52 -7.43838 0 145.766
-2741.71 -2.16953 0 74.4706
-2074.19 2.42817 0 9.88822
-2770.62 -2.30758 0 75.1778
-2756.17 -2.23879 0 74.8286
-3418.47 -7.39465 0 145.317
-3382.38 -7.30479 0 144.385
-2041.62 2.69808 0 9.0685
-2063.33 2.51799 0 9.62156
-3400.42 -7.35013 0 144.856
-2712.8 -2.02963 0 73.7283
-2052.47 2.60796 0 9.34831
-2741.71 -2.16953 0 74.4706
-2727.26 -2.09981 0 74.1038
-3382.38 -7.30479 0 144.385
-3346.29 -7.21169 0 143.41
-2019.91 2.87877 0 8.48937
-2041.62 2.69808 0 9.0685
-3364.33 -7.25864 0 143.903
-2683.9 -1.88785 0 72.9513
-2030.76 2.78835 0 8.78217
-2712.8 -2.02963 0 73.7283
-2698.35 -1.95897 0 73.3442
-3346.29 -7.21169 0 143.41
-3310.21 -7.11534 0 142.393
-1998.21 3.06006 0 7.88444
-2019.91 2.87877 0 8.48937
-3328.25 -7.16392 0 142.907
-2655 -1.74421 0 72.14
-2009.06 2.96934 0 8.19011
-2683.9 -1.88785 0 72.9513
-2669.45 -1.81626 0 72.5499
-3310.21 -7.11534 0 142.393
-3274.13 -7.01574 0 141.332
-1976.5 3.24196 0 7.25399
-1998.21 3.06006 0 7.88444
-3292.16 -7.06594 0 141.868
-2626.1 -1.59868 0 71.2946
-1987.36 3.15093 0 7.57238
-2655 -1.74421 0 72.14
-2640.55 -1.67168 0 71.7215
-3274.13 -7.01574 0 141.332
-3238.05 -6.91288 0 140.23
-1954.81 3.42448 0 6.5983
-1976.5 3.24196 0 7.25399
-3256.09 -6.96471 0 140.787
-2597.21 -1.45127 0 70.4157
-1965.66 3.33315 0 6.92928
-2626.1 -1.59868 0 71.2946
-2611.65 -1.52521 0 70.8593
-3238.05 -6.91288 0 140.23
-3201.98 -6.80675 0 139.087
-1933.11 3.60762 0 5.91765
-1954.81 3.42448 0 6.5983
-3220.01 -6.86022 0 139.664
-2568.32 -1.30197 0 69.5035
-1943.96 3.51597 0 6.26108
-2597.21 -1.45127 0 70.4157
-2582.76 -1.37685 0 69.9637
-3201.98 -6.80675 0 139.087
-3165.91 -6.69736 0 137.902
-1911.42 3.79137 0 5.21233
-1933.11 3.60762 0 5.91765
-3183.94 -6.75246 0 138.499
-2539.43 -1.15077 0 68.5584
-1922.26 3.69942 0 5.56806
-2568.32 -1.30197 0 69.5035
-2553.88 -1.22661 0 69.035
-3165.91 -6.69736 0 137.902
-3129.85 -6.5847 0 136.677
-1889.73 3.97575 0 4.48259
-1911.42 3.79137 0 5.21233
-3147.88 -6.64144 0 137.294
-2510.55 -0.997692 0 67.5808
-1900.57 3.88348 0 4.85049
-2539.43 -1.15077 0 68.5584
-2524.99 -1.07447 0 68.0737
-3129.85 -6.5847 0 136.677
-3093.79 -6.46878 0 135.411
-1868.04 4.16074 0 3.72874
-1889.73 3.97575 0 4.48259
-3111.82 -6.52715 0 136.049
-2481.67 -0.84272 0 66.5711
-1878.89 4.06816 0 4.10866
-2510.55 -0.997692 0 67.5808
-2496.11 -0.920442 0 67.08
-3093.79 -6.46878 0 135.411
-3057.73 -6.3496 0 134.106
-1846.36 4.34635 0 2.95103
-1868.04 4.16074 0 3.72874
-3075.76 -6.4096 0 134.763
-2452.8 -0.685859 0 65.5297
-1857.2 4.25347 0 3.34285
-2481.67 -0.84272 0 66.5711
-2467.23 -0.764525 0 66.0544
-3057.73 -6.3496 0 134.106
-3021.68 -6.22715 0 132.762
-1824.68 4.53257 0 2.14976
-1846.36 4.34635 0 2.95103
-3039.71 -6.28878 0 133.439
-2423.93 -0.527114 0 64.4568
-1835.52 4.43938 0 2.55333
-2452.8 -0.685859 0 65.5297
-2438.36 -0.606722 0 64.9972
-3021.68 -6.22715 0 132.762
-2985.64 -6.10146 0 131.379
-1803 4.71941 0 1.3252
-1824.68 4.53257 0 2.14976
-3003.66 -6.16471 0 132.075
-2395.06 -0.36649 0 63.353
-1813.84 4.62591 0 1.74037
-2423.93 -0.527114 0 64.4568
-2409.49 -0.447037 0 63.9088
-2985.64 -6.10146 0 131.379
-2949.59 -5.97252 0 129.957
-1781.33 4.90685 0 0.477622
-1803 4.71941 0 1.3252
-2967.61 -6.0374 0 130.673
-2366.19 -0.203993 0 62.2185
-1792.17 4.81305 0 0.90427
-2395.06 -0.36649 0 63.353
-2380.63 -0.285475 0 62.7896
-2949.59 -5.97252 0 129.957
-2913.55 -5.84035 0 128.498
-1759.66 5.0949 0 -0.392688
-1781.33 4.90685 0 0.477622
-2931.57 -5.90684 0 129.233
-2337.33 -0.03963 0 61.0537
-1770.49 5.0008 0 0.0452915
-2366.19 -0.203993 0 62.2185
-2351.76 -0.122044 0 61.6399
-2913.55 -5.84035 0 128.498
-2877.52 -5.70496 0 127.002
-1737.99 5.28353 0 -1.28546
-1759.66 5.0949 0 -0.392688
-2895.54 -5.77306 0 127.755
-2308.48 0.12659 0 59.8591
-1748.83 5.18914 0 -0.836283
-2337.33 -0.03963 0 61.0537
-2322.91 0.0432484 0 60.4601
-2877.52 -5.70496 0 127.002
-2841.49 -5.56636 0 125.469
-1716.33 5.47276 0 -2.2004
-1737.99 5.28353 0 -1.28546
-2859.5 -5.63606 0 126.24
-2279.63 0.294656 0 58.6349
-1727.16 5.37807 0 -1.74018
-2308.48 0.12659 0 59.8591
-2294.05 0.210393 0 59.2507
-2841.49 -5.56636 0 125.469
-2805.46 -5.42456 0 123.899
-1694.67 5.66256 0 -3.13725
-1716.33 5.47276 0 -2.2004
-2823.48 -5.49586 0 124.688
-2250.78 0.464557 0 57.3815
-1705.5 5.56759 0 -2.66611
-2279.63 0.294656 0 58.6349
-2265.2 0.379378 0 58.0118
-2805.46 -5.42456 0 123.899
-2769.44 -5.27958 0 122.293
-1673.01 5.85293 0 -4.09573
-1694.67 5.66256 0 -3.13725
-2787.45 -5.35247 0 123.101
-2221.93 0.636281 0 56.0994
-1683.84 5.75768 0 -3.61381
-2250.78 0.464557 0 57.3815
-2236.35 0.550192 0 56.7441
-2769.44 -5.27958 0 122.293
-2733.42 -5.13144 0 120.652
-1651.35 6.04387 0 -5.07555
-1673.01 5.85293 0 -4.09573
-2751.43 -5.2059 0 121.477
-2193.09 0.809813 0 54.7889
-1662.18 5.94833 0 -4.58299
-2221.93 0.636281 0 56.0994
-2207.51 0.722822 0 55.4477
-2733.42 -5.13144 0 120.652
-2697.41 -4.98016 0 118.976
-1629.7 6.23535 0 -6.07644
-1651.35 6.04387 0 -5.07555
-2715.42 -5.05619 0 119.818
-2164.25 0.985139 0 53.4503
-1640.52 6.13954 0 -5.57338
-2193.09 0.809813 0 54.7889
-2178.67 0.897253 0 54.123
-2697.41 -4.98016 0 118.976
-2661.4 -4.82575 0 117.265
-1608.05 6.42736 0 -7.09813
-1629.7 6.23535 0 -6.07644
-2679.4 -4.90334 0 118.125
-2135.41 1.16224 0 52.084
-1618.87 6.33129 0 -6.5847
-2164.25 0.985139 0 53.4503
-2149.83 1.07347 0 52.7706
-2661.4 -4.82575 0 117.265
-2625.39 -4.66825 0 115.52
-1586.4 6.6199 0 -8.14033
-1608.05 6.42736 0 -7.09813
-2643.39 -4.74738 0 116.397
-2106.58 1.3411 0 50.6904
-1597.22 6.52357 0 -7.61668
-2135.41 1.16224 0 52.084
-2121 1.25145 0 51.3906
-2625.39 -4.66825 0 115.52
-2589.39 -4.50766 0 113.742
-1564.76 6.81294 0 -9.20276
-1586.4 6.6199 0 -8.14033
-2607.39 -4.58834 0 114.635
-2077.75 1.52171 0 49.2699
-1575.58 6.71636 0 -8.66903
-2106.58 1.3411 0 50.6904
-2092.17 1.43119 0 49.9835
-2589.39 -4.50766 0 113.742
-2553.39 -4.34403 0 111.93
-1543.12 7.00649 0 -10.2852
-1564.76 6.81294 0 -9.20276
-2571.39 -4.42622 0 112.84
-2048.93 1.70403 0 47.8228
-1553.94 6.90965 0 -9.74149
-2077.75 1.52171 0 49.2699
-2063.34 1.61266 0 48.5496
-2553.39 -4.34403 0 111.93
-2517.4 -4.17737 0 110.086
-1521.48 7.2005 0 -11.3873
-1543.12 7.00649 0 -10.2852
-2535.39 -4.26107 0 111.012
-2020.11 1.88806 0 46.3495
-1532.3 7.10344 0 -10.8338
-2048.93 1.70403 0 47.8228
-2034.52 1.79583 0 47.0894
-2517.4 -4.17737 0 110.086
-2481.4 -4.00771 0 108.21
-1499.84 7.39498 0 -12.5087
-1521.48 7.2005 0 -11.3873
-2499.4 -4.09291 0 109.152
-1991.29 2.07376 0 44.8504
-1510.66 7.29769 0 -11.9456
-2020.11 1.88806 0 46.3495
-2005.7 1.9807 0 45.6031
-2481.4 -4.00771 0 108.21
-2445.42 -3.83508 0 106.301
-1478.21 7.58991 0 -13.6494
-1499.84 7.39498 0 -12.5087
-2463.41 -3.92176 0 107.259
-1962.48 2.26112 0 43.3258
-1489.03 7.49239 0 -13.0767
-1991.29 2.07376 0 44.8504
-1976.88 2.16723 0 44.0912
-2445.42 -3.83508 0 106.301
-2409.43 -3.65951 0 104.362
-1456.58 7.78526 0 -14.8089
-1478.21 7.58991 0 -13.6494
-2427.42 -3.74766 0 105.335
-1933.66 2.45011 0 41.7761
-1467.4 7.68753 0 -14.2268
-1962.48 2.26112 0 43.3258
-1948.07 2.35541 0 42.5541
-2409.43 -3.65951 0 104.362
-2373.45 -3.48104 0 102.391
-1434.95 7.98102 0 -15.9869
-1456.58 7.78526 0 -14.8089
-2391.44 -3.57063 0 103.38
-1904.86 2.6407 0 40.2017
-1445.77 7.88309 0 -15.3956
-1933.66 2.45011 0 41.7761
-1919.26 2.54521 0 40.992
-2373.45 -3.48104 0 102.391
-2337.48 -3.29969 0 100.39
-1413.33 8.17717 0 -17.1833
-1434.95 7.98102 0 -15.9869
-2355.46 -3.39072 0 101.394
-1876.05 2.83288 0 38.603
-1424.14 8.07905 0 -16.5828
-1904.86 2.6407 0 40.2017
-1890.45 2.73659 0 39.4054
-2337.48 -3.29969 0 100.39
-2301.5 -3.1155 0 98.3592
-1391.71 8.37368 0 -18.3977
-1413.33 8.17717 0 -17.1833
-2319.49 -3.20795 0 99.3783
-1847.25 3.0266 0 36.9803
-1402.52 8.27538 0 -17.7882
-1876.05 2.83288 0 38.603
-1861.65 2.92955 0 37.7946
-2301.5 -3.1155 0 98.3592
-2265.53 -2.92851 0 96.2988
-1370.09 8.57055 0 -19.6298
-1391.71 8.37368 0 -18.3977
-2283.52 -3.02235 0 97.3327
-1818.45 3.22185 0 35.3339
-1380.9 8.47207 0 -19.0115
-1847.25 3.0266 0 36.9803
-1832.85 3.12404 0 36.16
-2265.53 -2.92851 0 96.2988
-2229.57 -2.73875 0 94.2095
-1348.47 8.76773 0 -20.8794
-1370.09 8.57055 0 -19.6298
-2247.55 -2.83397 0 95.2578
-1789.66 3.41859 0 33.6643
-1359.28 8.6691 0 -20.2524
-1818.45 3.22185 0 35.3339
-1804.05 3.32004 0 34.502
-2229.57 -2.73875 0 94.2095
-2193.61 -2.54626 0 92.0916
-1326.86 8.96522 0 -22.1462
-1348.47 8.76773 0 -20.8794
-2211.59 -2.64284 0 93.1541
-1760.86 3.6168 0 31.9718
-1337.67 8.86644 0 -21.5107
-1789.66 3.41859 0 33.6643
-1775.26 3.51751 0 32.8209
-2193.61 -2.54626 0 92.0916
-2157.65 -2.35109 0 89.9455
-1305.25 9.16299 0 -23.43
-1326.86 8.96522 0 -22.1462
-2175.63 -2.44901 0 91.022
-1732.08 3.81644 0 30.2569
-1316.05 9.06407 0 -22.786
-1760.86 3.6168 0 31.9718
-1746.47 3.71644 0 31.1171
-2157.65 -2.35109 0 89.9455
-2121.69 -2.15326 0 87.7719
-1283.64 9.36101 0 -24.7303
-1305.25 9.16299 0 -23.43
-2139.67 -2.2525 0 88.8621
-1703.29 4.01747 0 28.5197
-1294.44 9.26197 0 -24.0781
-1732.08 3.81644 0 30.2569
-1717.68 3.91678 0 29.391
-2121.69 -2.15326 0 87.7719
-2085.74 -1.95283 0 85.5711
-1262.04 9.55926 0 -26.0471
-1283.64 9.36101 0 -24.7303
-2103.71 -2.05337 0 86.6748
-1674.51 4.21988 0 26.7608
-1272.84 9.4601 0 -25.3867
-1703.29 4.01747 0 28.5197
-1688.9 4.11851 0 27.643
-2085.74 -1.95283 0 85.5711
-2049.79 -1.74983 0 83.3435
-1240.43 9.75771 0 -27.3799
-1262.04 9.55926 0 -26.0471
-2067.76 -1.85165 0 84.4606
-1645.73 4.42361 0 24.9805
-1251.23 9.65846 0 -26.7115
-1674.51 4.21988 0 26.7608
-1660.12 4.32158 0 25.8733
-2049.79 -1.74983 0 83.3435
-2013.84 -1.54431 0 81.0897
-1218.83 9.95634 0 -28.7286
-1240.43 9.75771 0 -27.3799
-2031.82 -1.64738 0 82.2199
-1616.95 4.62864 0 23.1792
-1229.63 9.857 0 -28.0523
-1645.73 4.42361 0 24.9805
-1631.34 4.52597 0 24.0825
-2013.84 -1.54431 0 81.0897
-1977.9 -1.33632 0 78.8101
-1197.23 10.1551 0 -30.0928
-1218.83 9.95634 0 -28.7286
-1995.87 -1.44062 0 79.9531
-1588.18 4.83493 0 21.3572
-1208.03 10.0557 0 -29.4088
-1616.95 4.62864 0 23.1792
-1602.56 4.73163 0 22.2707
-1977.9 -1.33632 0 78.8101
-1941.96 -1.1259 0 76.5052
-1175.64 10.354 0 -31.4723
-1197.23 10.1551 0 -30.0928
-1959.93 -1.23141 0 77.6608
-1559.4 5.04245 0 19.5149
-1186.44 10.2546 0 -30.7807
-1588.18 4.83493 0 21.3572
-1573.79 4.93854 0 20.4385
-1941.96 -1.1259 0 76.5052
-1906.02 -0.913099 0 74.1754
-1154.04 10.553 0 -32.8668
-1175.64 10.354 0 -31.4723
-1923.99 -1.01979 0 75.3434
-1530.64 5.25115 0 17.6526
-1164.84 10.4535 0 -32.1677
-1559.4 5.04245 0 19.5149
-1545.02 5.14666 0 18.5862
-1906.02 -0.913099 0 74.1754
-1870.09 -0.697964 0 71.8211
-1132.45 10.7521 0 -34.2759
-1154.04 10.553 0 -32.8668
-1888.06 -0.80582 0 73.0013
-1501.87 5.461 0 15.7708
-1143.25 10.6525 0 -33.5695
-1530.64 5.25115 0 17.6526
-1516.25 5.35594 0 16.7141
-1870.09 -0.697964 0 71.8211
-1834.16 -0.480546 0 69.443
-1110.86 10.9512 0 -35.6996
-1132.45 10.7521 0 -34.2759
-1852.12 -0.589537 0 70.635
-1473.11 5.67196 0 13.8697
-1121.66 10.8516 0 -34.986
-1501.87 5.461 0 15.7708
-1487.49 5.56634 0 14.8226
-1834.16 -0.480546 0 69.443
-1798.23 -0.260895 0 67.0413
-1089.28 11.1503 0 -37.1374
-1110.86 10.9512 0 -35.6996
-1816.2 -0.370997 0 68.245
-1444.35 5.88398 0 11.9499
-1100.07 11.0507 0 -36.4167
-1473.11 5.67196 0 13.8697
-1458.73 5.77784 0 12.9121
-1798.23 -0.260895 0 67.0413
-1762.31 -0.0390627 0 64.6165
-1067.69 11.3494 0 -38.5891
-1089.28 11.1503 0 -37.1374
-1780.27 -0.150248 0 65.8318
-1415.59 6.09703 0 10.0116
-1078.49 11.2498 0 -37.8615
-1444.35 5.88398 0 11.9499
-1429.97 5.99038 0 10.983
-1762.31 -0.0390627 0 64.6165
-1726.38 0.184899 0 62.1692
-1046.11 11.5484 0 -40.0544
-1067.69 11.3494 0 -38.5891
-1744.34 0.0726551 0 63.3957
-1386.83 6.31107 0 8.05512
-1056.9 11.4489 0 -39.32
-1415.59 6.09703 0 10.0116
-1401.21 6.20393 0 9.03558
-1726.38 0.184899 0 62.1692
-1690.46 0.410935 0 59.6998
-1024.53 11.7473 0 -41.533
-1046.11 11.5484 0 -40.0544
-1708.42 0.297661 0 60.9372
-1358.08 6.52605 0 6.08095
-1035.32 11.6479 0 -40.7921
-1386.83 6.31107 0 8.05512
-1372.45 6.41844 0 7.07023
-1690.46 0.410935 0 59.6998
-1654.55 0.638993 0 57.2087
-1002.96 11.9461 0 -43.0248
-1024.53 11.7473 0 -41.533
-1672.51 0.524715 0 58.4569
-1329.33 6.74192 0 4.08942
-1013.74 11.8467 0 -42.2773
-1358.08 6.52605 0 6.08095
-1343.7 6.63387 0 5.08734
-1654.55 0.638993 0 57.2087
-1618.63 0.869017 0 54.6964
-981.38 12.1448 0 -44.5293
-1002.96 11.9461 0 -43.0248
-1636.59 0.753763 0 55.9552
-1300.58 6.95865 0 2.08089
-992.167 12.0455 0 -43.7754
-1329.33 6.74192 0 4.08942
-1314.95 6.85018 0 3.08726
-1618.63 0.869017 0 54.6964
-1582.72 1.10095 0 52.1633
-959.806 12.3433 0 -46.0463
-981.38 12.1448 0 -44.5293
-1600.68 0.984749 0 53.4324
-1271.83 7.17619 0 0.0557174
-970.593 12.2441 0 -45.2862
-1300.58 6.95865 0 2.08089
-1286.21 7.06732 0 1.07036
-1582.72 1.10095 0 52.1633
-1546.81 1.33474 0 49.61
-938.235 12.5415 0 -47.5756
-959.806 12.3433 0 -46.0463
-1564.76 1.21762 0 50.8892
-1243.09 7.39449 0 -1.98572
-949.02 12.4424 0 -46.8094
-1271.83 7.17619 0 0.0557174
-1257.46 7.28525 0 -0.962991
-1546.81 1.33474 0 49.61
-1510.9 1.57032 0 47.0368
-916.665 12.7395 0 -49.1168
-938.235 12.5415 0 -47.5756
-1528.86 1.45231 0 48.3258
-1214.35 7.61351 0 -4.04306
-927.45 12.6406 0 -48.3447
-1243.09 7.39449 0 -1.98572
-1228.72 7.50391 0 -3.01242
-1510.9 1.57032 0 47.0368
-1475 1.80763 0 44.4443
-895.098 12.9372 0 -50.6698
-916.665 12.7395 0 -49.1168
-1492.95 1.68876 0 45.7429
-1185.61 7.8332 0 -6.11593
-905.881 12.8384 0 -49.8919
-1214.35 7.61351 0 -4.04306
-1199.98 7.72327 0 -5.07758
-1475 1.80763 0 44.4443
-1439.09 2.04663 0 41.8328
-873.532 13.1346 0 -52.2342
-895.098 12.9372 0 -50.6698
-1457.04 1.92692 0 43.1409
-1156.87 8.05351 0 -8.20398
-884.315 13.036 0 -51.4506
-1185.61 7.8332 0 -6.11593
-1171.24 7.94328 0 -7.15808
-1439.09 2.04663 0 41.8328
-1403.19 2.28723 0 39.2029
-851.968 13.3316 0 -53.8097
-873.532 13.1346 0 -52.2342
-1421.14 2.16673 0 40.5201
-1128.14 8.2744 0 -10.3068
-862.75 13.2332 0 -53.0205
-1156.87 8.05351 0 -8.20398
-1142.5 8.16388 0 -9.25358
-1403.19 2.28723 0 39.2029
-1367.29 2.5294 0 36.5549
-830.406 13.5282 0 -55.3961
-851.968 13.3316 0 -53.8097
-1385.24 2.40812 0 37.8811
-1099.4 8.49581 0 -12.4241
-841.187 13.43 0 -54.6015
-1128.14 8.2744 0 -10.3068
-1113.77 8.38504 0 -11.3637
-1367.29 2.5294 0 36.5549
-1331.4 2.77305 0 33.8894
-808.846 13.7244 0 -56.993
-830.406 13.5282 0 -55.3961
-1349.34 2.65104 0 35.2243
-1070.67 8.71769 0 -14.5555
-819.626 13.6264 0 -56.1932
-1099.4 8.49581 0 -12.4241
-1085.04 8.60669 0 -13.4881
-1331.4 2.77305 0 33.8894
-1295.5 3.01813 0 31.2069
-787.288 13.9201 0 -58.6004
-808.846 13.7244 0 -56.993
-1313.45 2.89542 0 32.5503
-1041.94 8.94 0 -16.7005
-798.067 13.8223 0 -57.7954
-1070.67 8.71769 0 -14.5555
-1056.31 8.8288 0 -15.6263
-1295.5 3.01813 0 31.2069
-1259.61 3.26458 0 28.5077
-765.731 14.1153 0 -60.2177
-787.288 13.9201 0 -58.6004
-1277.55 3.14119 0 29.8593
-1013.22 9.16269 0 -18.8589
-776.509 14.0178 0 -59.4078
-1041.94 8.94 0 -16.7005
-1027.58 9.0513 0 -17.7781
-1259.61 3.26458 0 28.5077
-1223.71 3.51233 0 25.7923
-744.175 14.3099 0 -61.8448
-765.731 14.1153 0 -60.2177
-1241.66 3.3883 0 27.152
-984.49 9.38569 0 -21.0303
-754.953 14.2127 0 -61.0301
-1013.22 9.16269 0 -18.8589
-998.853 9.27415 0 -19.943
-1223.71 3.51233 0 25.7923
-1187.82 3.76132 0 23.0613
-722.622 14.504 0 -63.4815
-744.175 14.3099 0 -61.8448
-1205.77 3.63667 0 24.4287
-955.766 9.60896 0 -23.2143
-733.398 14.407 0 -62.662
-984.49 9.38569 0 -21.0303
-970.128 9.4973 0 -22.1207
-1187.82 3.76132 0 23.0613
-1151.94 4.01147 0 20.3149
-701.07 14.6973 0 -65.1273
-722.622 14.504 0 -63.4815
-1169.88 3.88625 0 21.69
-927.043 9.83244 0 -25.4105
-711.846 14.6007 0 -64.3033
-955.766 9.60896 0 -23.2143
-941.404 9.72068 0 -24.3109
-1151.94 4.01147 0 20.3149
-1116.05 4.26271 0 17.5538
-679.519 14.89 0 -66.7821
-701.07 14.6973 0 -65.1273
-1133.99 4.13696 0 18.9362
-898.322 10.0561 0 -27.6186
-690.294 14.7938 0 -65.9536
-927.043 9.83244 0 -25.4105
-912.682 9.94424 0 -26.5131
-1116.05 4.26271 0 17.5538
-1080.16 4.51499 0 14.7784
-657.97 15.082 0 -68.4456
-679.519 14.89 0 -66.7821
-1098.11 4.38873 0 16.1679
-869.603 10.2798 0 -29.8381
-668.744 14.9861 0 -67.6128
-898.322 10.0561 0 -27.6186
-883.962 10.1679 0 -28.7269
-1080.16 4.51499 0 14.7784
-1044.28 4.76822 0 11.9891
-636.422 15.2732 0 -70.1174
-657.97 15.082 0 -68.4456
-1062.22 4.64149 0 13.3854
-840.885 10.5036 0 -32.0688
-647.196 15.1777 0 -69.2804
-869.603 10.2798 0 -29.8381
-855.244 10.3917 0 -30.9521
-1044.28 4.76822 0 11.9891
-1008.4 5.02234 0 9.18641
-614.875 15.4636 0 -71.7973
-636.422 15.2732 0 -70.1174
-1026.34 4.89517 0 10.5894
-812.168 10.7273 0 -34.3102
-625.649 15.3685 0 -70.9564
-840.885 10.5036 0 -32.0688
-826.526 10.6154 0 -33.1882
-1008.4 5.02234 0 9.18641
-972.515 5.27726 0 6.3708
-593.33 15.653 0 -73.485
-614.875 15.4636 0 -71.7973
-990.455 5.1497 0 7.78019
-783.453 10.9509 0 -36.562
-604.103 15.5584 0 -72.6402
-812.168 10.7273 0 -34.3102
-797.81 10.8391 0 -35.4349
-972.515 5.27726 0 6.3708
-936.634 5.53292 0 3.54275
-571.786 15.8416 0 -75.1803
-593.33 15.653 0 -73.485
-954.574 5.405 0 4.9583
-754.739 11.1744 0 -38.8238
-582.558 15.7474 0 -74.3317
-783.453 10.9509 0 -36.562
-769.095 11.0627 0 -37.6917
-936.634 5.53292 0 3.54275
-900.755 5.78925 0 0.702728
-550.243 16.0291 0 -76.8827
-571.786 15.8416 0 -75.1803
-918.694 5.66101 0 2.12421
-726.026 11.3977 0 -41.0951
-561.014 15.9355 0 -76.0306
-754.739 11.1744 0 -38.8238
-740.382 11.2861 0 -39.9583
-900.755 5.78925 0 0.702728
-864.876 6.04618 0 -2.1488
-528.701 16.2157 0 -78.5922
-550.243 16.0291 0 -76.8827
-882.815 5.91764 0 -0.721626
-697.314 11.6208 0 -43.3757
-539.472 16.1226 0 -77.7366
-726.026 11.3977 0 -41.0951
-711.67 11.5093 0 -42.2343
-864.876 6.04618 0 -2.1488
-828.999 6.30366 0 -5.01137
-507.16 16.4013 0 -80.3083
-528.701 16.2157 0 -78.5922
-846.937 6.17485 0 -3.57873
-668.603 11.8436 0 -45.6651
-517.931 16.3086 0 -79.4494
-697.314 11.6208 0 -43.3757
-682.958 11.7322 0 -44.5193
-828.999 6.30366 0 -5.01137
-793.122 6.56166 0 -7.88455
-485.621 16.586 0 -82.0307
-507.16 16.4013 0 -80.3083
-811.06 6.43259 0 -6.44666
-639.893 12.0661 0 -47.963
-496.39 16.4938 0 -81.1687
-668.603 11.8436 0 -45.6651
-654.248 11.9548 0 -46.813
-793.122 6.56166 0 -7.88455
-757.246 6.82017 0 -10.768
-464.082 16.7699 0 -83.7594
-485.621 16.586 0 -82.0307
-775.184 6.69085 0 -9.325
-611.184 12.2884 0 -50.2692
-474.851 16.678 0 -82.8943
-639.893 12.0661 0 -47.963
-625.539 12.1773 0 -49.1151
-757.246 6.82017 0 -10.768
-721.371 7.07925 0 -13.6613
-442.544 16.9532 0 -85.4941
-464.082 16.7699 0 -83.7594
-739.309 6.94963 0 -12.2134
-582.476 12.5107 0 -52.5833
-453.312 16.8616 0 -84.626
-611.184 12.2884 0 -50.2692
-596.83 12.3996 0 -51.4253
-721.371 7.07925 0 -13.6613
-685.497 7.33896 0 -16.5643
-421.007 17.1362 0 -87.2348
-442.544 16.9532 0 -85.4941
-703.434 7.20902 0 -15.1116
-553.769 12.7332 0 -54.9054
-431.775 17.0447 0 -86.3637
-582.476 12.5107 0 -52.5833
-568.123 12.6219 0 -53.7434
-685.497 7.33896 0 -16.5643
-649.623 7.59943 0 -19.477
-399.471 17.3194 0 -88.9814
-421.007 17.1362 0 -87.2348
-667.56 7.46909 0 -18.0194
-525.063 12.956 0 -57.2353
-410.239 17.2278 0 -88.1073
-553.769 12.7332 0 -54.9054
-539.416 12.8445 0 -56.0693
-649.623 7.59943 0 -19.477
-613.749 7.86067 0 -22.3991
-377.937 17.5028 0 -90.7343
-399.471 17.3194 0 -88.9814
-631.686 7.72997 0 -20.9369
-496.358 13.1792 0 -59.5732
-388.704 17.4111 0 -89.8571
-525.063 12.956 0 -57.2353
-510.711 13.0676 0 -58.4032
-613.749 7.86067 0 -22.3991
-577.875 8.12246 0 -25.3309
-356.404 17.6863 0 -92.494
-377.937 17.5028 0 -90.7343
-595.812 7.99152 0 -23.8638
-467.654 13.4026 0 -61.9192
-367.17 17.5947 0 -91.6133
-496.358 13.1792 0 -59.5732
-482.006 13.291 0 -60.7451
-577.875 8.12246 0 -25.3309
-542.001 8.3836 0 -28.2714
-334.872 17.8684 0 -94.2616
-356.404 17.6863 0 -92.494
-559.938 8.25327 0 -26.8002
-438.95 13.6243 0 -64.2732
-345.638 17.7777 0 -93.3767
-467.654 13.4026 0 -61.9192
-453.302 13.5139 0 -63.0953
-542.001 8.3836 0 -28.2714
-506.125 8.64151 0 -31.2192
-313.338 18.0438 0 -96.0384
-334.872 17.8684 0 -94.2616
-524.063 8.51321 0 -29.7446
-410.244 13.8397 0 -66.6344
-324.105 17.9575 0 -95.1488
-438.95 13.6243 0 -64.2732
-424.597 13.7332 0 -65.4529
-506.125 8.64151 0 -31.2192
-470.248 8.88876 0 -34.168
-291.792 18.203 0 -97.8278
-313.338 18.0438 0 -96.0384
-488.186 8.76724 0 -32.6942
-381.53 14.0391 0 -68.9999
-302.568 18.1264 0 -96.9312
-410.244 13.8397 0 -66.6344
-395.888 13.9427 0 -67.8171
-470.248 8.88876 0 -34.168
-434.364 9.11342 0 -37.1077
-270.221 18.3217 0 -99.6329
-291.792 18.203 0 -97.8278
-452.308 9.00505 0 -35.6398
-352.796 14.2 0 -71.3627
-281.01 18.2698 0 -98.7283
-381.53 14.0391 0 -68.9999
-367.167 14.1258 0 -70.1819
-434.364 9.11342 0 -37.1077
-398.477 9.28461 0 -40.0081
-248.574 18.3654 0 -101.464
-270.221 18.3217 0 -99.6329
-416.419 9.2084 0 -38.5659
-324.016 14.2864 0 -73.7088
-259.413 18.3564 0 -100.544
-352.796 14.2 0 -71.3627
-338.414 14.2576 0 -72.54
-398.477 9.28461 0 -40.0081
-362.554 9.36572 0 -42.8307
-226.799 18.2548 0 -103.33
-248.574 18.3654 0 -101.464
-380.525 9.3404 0 -41.4318
-295.131 14.2234 0 -76.0123
-237.704 18.336 0 -102.393
-324.016 14.2864 0 -73.7088
-309.592 14.2766 0 -74.8662
-362.554 9.36572 0 -42.8307
-326.616 9.25293 0 -45.4688
-204.707 17.912 0 -105.268
-226.799 18.2548 0 -103.33
-344.58 9.34009 0 -44.184
-266.04 13.9176 0 -78.2296
-215.814 18.12 0 -104.285
-295.131 14.2234 0 -76.0123
-280.617 14.117 0 -77.1397
-326.616 9.25293 0 -45.4688
-290.502 8.88491 0 -47.8255
-182.148 17.154 0 -107.303
-204.707 17.912 0 -105.268
-308.606 9.11283 0 -46.687
-236.532 13.1826 0 -80.3083
-193.485 17.5949 0 -106.275
-266.04 13.9176 0 -78.2296
-251.361 13.6005 0 -79.2816
-290.502 8.88491 0 -47.8255
-254.276 7.96818 0 -49.6161
-158.566 15.9781 0 -109.584
-182.148 17.154 0 -107.303
-272.376 8.49869 0 -48.8232
-206.302 11.9144 0 -82.182
-170.552 16.6209 0 -108.392
-236.532 13.1826 0 -80.3083
-221.517 12.6578 0 -81.2938
-254.276 7.96818 0 -49.6161
-217.198 6.65075 0 -50.7739
-133.774 14.238 0 -112.197
-158.566 15.9781 0 -109.584
-235.949 7.39288 0 -50.2633
-174.691 9.88975 0 -83.9174
-146.289 15.153 0 -110.855
-206.302 11.9144 0 -82.182
-190.755 10.9244 0 -83.0186
-217.198 6.65075 0 -50.7739
-179.418 4.29165 0 -50.876
-106.638 13.043 0 -115.686
-133.774 14.238 0 -112.197
-198.308 5.51648 0 -51.0124
-141.077 7.75815 0 -85.7376
-120.665 13.4899 0 -113.759
-174.691 9.88975 0 -83.9174
-158.109 8.91056 0 -84.8675
-179.418 4.29165 0 -50.876
-137.878 3.10253 0 -50.9663
-78.2073 13.73 0 -120.186
-106.638 13.043 0 -115.686
-159.521 3.61623 0 -50.7756
-103.823 6.75463 0 -88.8727
-92.3458 12.8509 0 -117.844
-141.077 7.75815 0 -85.7376
-123.2 6.61123 0 -86.8591
-137.878 3.10253 0 -50.9663
-93.1914 3.33793 0 -52.568
-48.4049 23.5446 0 -126.333
-78.2073 13.73 0 -120.186
-115.648 2.19135 0 -51.4342
-63.5605 13.933 0 -95.2612
-63.7095 16.9653 0 -122.966
-103.823 6.75463 0 -88.8727
-83.676 9.06902 0 -91.7877
-93.1914 3.33793 0 -52.568
-38.2477 23.4794 0 -65.5415
-25.9887 51.3129 0 -128.938
-48.4049 23.5446 0 -126.333
-67.9502 10.225 0 -56.5612
-21.6311 44.7333 0 -108.51
-35.1836 33.7989 0 -128.806
-63.5605 13.933 0 -95.2612
-43.3749 23.3604 0 -100.231
-38.2477 23.4794 0 -65.5415
1.61637 101.765 0 -97.9946
-10.8264 117.041 0 -113.185
-25.9887 51.3129 0 -128.938
-14.0571 44.7755 0 -78.6339
-7.60226 131.654 0 -111.559
-18.1768 80.1113 0 -124.927
-21.6311 44.7333 0 -108.51
-6.68396 81.2888 0 -114.978
1.61637 101.765 0 -97.9946
-11.0849 370.372 0 -74.0757
0.260456 183.804 0 -49.9961
-10.8264 117.041 0 -113.185
6.15967 215.801 0 -106.805
-13.4952 261.071 0 -39.4361
-3.9614 155.533 0 -88.8855
-7.60226 131.654 0 -111.559
-12.3952 196.175 0 -89.0276
-3860.93 -1162.04 0 355.861
-4189.52 -740.595 0 -6.89297
-1372.26 -242.35 0 184.719
-1406.85 -421.794 0 554.722
-4084.26 -937.186 0 136.461
-2781.63 -491.148 0 111.203
-1348.92 -333.602 0 350.109
-2578.17 -774.6 0 507.342
-2723.02 -654.504 0 252.711
-4189.52 -740.595 0 -6.89297
-4267.48 -331.279 0 -117.052
-1444.32 -153.662 0 -35.7711
-1372.26 -242.35 0 184.719
-4224.28 -520.832 0 -78.5635
-2846.51 -263.137 0 -64.229
-1428.06 -193.069 0 54.9653
-2781.63 -491.148 0 111.203
-2810.87 -359.078 0 15.9994
-4267.48 -331.279 0 -117.052
-4306.97 -126.079 0 -135.306
-1448.88 -72.5506 0 -134.924
-1444.32 -153.662 0 -35.7711
-4305.56 -207.713 0 -135.018
-2880.01 -114.821 0 -138.102
-1441.53 -108.86 0 -95.6944
-2846.51 -263.137 0 -64.229
-2872.68 -181.715 0 -115.748
-4306.97 -126.079 0 -135.306
-4273.83 -31.8075 0 -121.054
-1452.6 -35.1924 0 -169.522
-1448.88 -72.5506 0 -134.924
-4288.83 -67.55 0 -127.476
-2870.66 -42.2563 0 -152.661
-1457.04 -50.5825 0 -158.29
-2880.01 -114.821 0 -138.102
-2877.59 -69.9871 0 -147.498
-4273.83 -31.8075 0 -121.054
-4235.47 -5.04166 0 -110.616
-1436.98 -16.088 0 -172.238
-1452.6 -35.1924 0 -169.522
-4257.8 -13.859 0 -115.848
-2844.35 -12.0212 0 -148.005
-1442.92 -22.999 0 -172.859
-2870.66 -42.2563 0 -152.661
-2859.04 -23.6065 0 -152.306
-4235.47 -5.04166 0 -110.616
-4191.4 1.10582 0 -102.689
-1423.91 -12.9818 0 -164.901
-1436.98 -16.088 0 -172.238
-4211.3 -0.0200246 0 -105.873
-2814.34 -5.46845 0 -139.352
-1431.85 -13.719 0 -169.21
-2844.35 -12.0212 0 -148.005
-2828.84 -6.70472 0 -143.218
-4191.4 1.10582 0 -102.689
-4155.92 -2.6153 0 -98.2
-1408.67 -13.1188 0 -155.734
-1423.91 -12.9818 0 -164.901
-4173.7 -0.398734 0 -100.38
-2787.33 -6.63463 0 -131.432
-1415.29 -12.6066 0 -160.149
-2814.34 -5.46845 0 -139.352
-2800.43 -5.63544 0 -135.422
-4155.92 -2.6153 0 -98.2
-4123.95 -6.8143 0 -94.5137
-1397 -15.287 0 -148.248
-1408.67 -13.1188 0 -155.734
-4138.93 -4.67227 0 -96.1878
-2764.18 -10.1806 0 -125.258
-1402.97 -14.2427 0 -151.751
-2787.33 -6.63463 0 -131.432
-2775.22 -8.29242 0 -128.007
-4123.95 -6.8143 0 -94.5137
-4096.78 -10.6135 0 -91.4757
-1386.28 -16.7754 0 -142.748
-1397 -15.287 0 -148.248
-4110.18 -8.9018 0 -93.0049
-2744.35 -13.1703 0 -120.576
-1391.24 -16.0615 0 -145.236
-2764.18 -10.1806 0 -125.258
-2753.94 -11.8142 0 -122.81
-4096.78 -10.6135 0 -91.4757
-4071.7 -12.9568 0 -88.4727
-1377.32 -17.866 0 -138.971
-1386.28 -16.7754 0 -142.748
-4083.9 -11.9165 0 -89.9506
-2726.79 -15.2528 0 -116.99
-1381.77 -17.4178 0 -140.686
-2744.35 -13.1703 0 -120.576
-2735.34 -14.3241 0 -118.646
-4071.7 -12.9568 0 -88.4727
-4048.36 -14.3527 0 -85.5384
-1368.97 -18.2991 0 -136.348
-1377.32 -17.866 0 -138.971
-4059.94 -13.7769 0 -87.0137
-2710.63 -16.3915 0 -114.09
-1373.01 -18.1329 0 -137.54
-2726.79 -15.2528 0 -116.99
-2718.58 -15.9279 0 -115.485
-4048.36 -14.3527 0 -85.5384
-4025.74 -14.9757 0 -82.5898
-1361.22 -18.3831 0 -134.469
-1368.97 -18.2991 0 -136.348
-4036.95 -14.7317 0 -84.0595
-2695.27 -16.8931 0 -111.622
-1365.08 -18.3868 0 -135.34
-2710.63 -16.3915 0 -114.09
-2702.88 -16.7059 0 -112.809
-4025.74 -14.9757 0 -82.5898
-4003.61 -15.1712 0 -79.6669
-1353.67 -18.1927 0 -133.021
-1361.22 -18.3831 0 -134.469
-4014.65 -15.1191 0 -81.1272
-2680.35 -16.9718 0 -109.406
-1357.41 -18.3092 0 -133.704
-2695.27 -16.8931 0 -111.622
-2687.78 -16.9737 0 -110.493
-4003.61 -15.1712 0 -79.6669
-3981.67 -15.0993 0 -76.7708
-1346.28 -17.8708 0 -131.821
-1353.67 -18.1927 0 -133.021
-3992.61 -15.1575 0 -78.2136
-2665.63 -16.8137 0 -107.345
-1349.97 -18.0461 0 -132.399
-2680.35 -16.9718 0 -109.406
-2672.97 -16.9144 0 -108.359
-3981.67 -15.0993 0 -76.7708
-3959.83 -14.8973 0 -73.9188
-1338.93 -17.4703 0 -130.758
-1346.28 -17.8708 0 -131.821
-3970.74 -15.0107 0 -75.3394
-2651.01 -16.5263 0 -105.379
-1342.6 -17.6761 0 -131.277
-2665.63 -16.8137 0 -107.345
-2658.32 -16.6814 0 -106.353
-3959.83 -14.8973 0 -73.9188
-3938.03 -14.6283 0 -71.1149
-1331.61 -17.0397 0 -129.772
-1338.93 -17.4703 0 -130.758
-3948.93 -14.7677 0 -72.5103
-2636.43 -16.1783 0 -103.481
-1335.27 -17.2577 0 -130.258
-2651.01 -16.5263 0 -105.379
-2643.72 -16.3572 0 -104.423
-3938.03 -14.6283 0 -71.1149
-3916.24 -14.3344 0 -68.3637
-1324.28 -16.5977 0 -128.832
-1331.61 -17.0397 0 -129.772
-3927.13 -14.4833 0 -69.7327
-2621.86 -15.8054 0 -101.633
-1327.94 -16.819 0 -129.297
-2636.43 -16.1783 0 -103.481
-2629.15 -15.9936 0 -102.551
-3916.24 -14.3344 0 -68.3637
-3894.44 -14.0331 0 -65.6657
-1316.95 -16.1566 0 -127.921
-1324.28 -16.5977 0 -128.832
-3905.34 -14.1838 0 -67.008
-2607.29 -15.4265 0 -99.8272
-1320.62 -16.3768 0 -128.373
-2621.86 -15.8054 0 -101.633
-2614.58 -15.616 0 -100.725
-3894.44 -14.0331 0 -65.6657
-3872.64 -13.7342 0 -63.0209
-1309.62 -15.7206 0 -127.033
-1316.95 -16.1566 0 -127.921
-3883.54 -13.8831 0 -64.3367
-2592.71 -15.0499 0 -98.0595
-1313.29 -15.9378 0 -127.475
-2607.29 -15.4265 0 -99.8272
-2600 -15.2376 0 -98.9388
-3872.64 -13.7342 0 -63.0209
-3850.84 -13.441 0 -60.4285
-1302.28 -15.2913 0 -126.164
-1309.62 -15.7206 0 -127.033
-3861.74 -13.5868 0 -61.7182
-2578.13 -14.6791 0 -96.3276
-1305.95 -15.5051 0 -126.596
-2592.71 -15.0499 0 -98.0595
-2585.42 -14.8637 0 -97.1891
-3850.84 -13.441 0 -60.4285
-3829.04 -13.1545 0 -57.8876
-1294.94 -14.8686 0 -125.312
-1302.28 -15.2913 0 -126.164
-3839.94 -13.2969 0 -59.1517
-2563.55 -14.315 0 -94.6301
-1298.61 -15.0791 0 -125.736
-2578.13 -14.6791 0 -96.3276
-2570.84 -14.4962 0 -95.4746
-3829.04 -13.1545 0 -57.8876
-3807.22 -12.8745 0 -55.3973
-1287.6 -14.452 0 -124.476
-1294.94 -14.8686 0 -125.312
-3818.13 -13.0137 0 -56.6362
-2548.96 -13.9573 0 -92.9662
-1291.27 -14.6595 0 -124.892
-2563.55 -14.315 0 -94.6301
-2556.25 -14.1353 0 -93.794
-3807.22 -12.8745 0 -55.3973
-3785.41 -12.6008 0 -52.9568
-1280.26 -14.0408 0 -123.656
-1287.6 -14.452 0 -124.476
-3796.32 -12.7369 0 -54.1709
-2534.37 -13.6055 0 -91.3355
-1283.93 -14.2457 0 -124.064
-2548.96 -13.9573 0 -92.9662
-2541.66 -13.7807 0 -92.1467
-3785.41 -12.6008 0 -52.9568
-3763.59 -12.3325 0 -50.5654
-1272.91 -13.6343 0 -122.853
-1280.26 -14.0408 0 -123.656
-3774.5 -12.466 0 -51.755
-2519.78 -13.2589 0 -89.7373
-1276.58 -13.837 0 -123.253
-2534.37 -13.6055 0 -91.3355
-2527.07 -13.4316 0 -90.5323
-3763.59 -12.3325 0 -50.5654
-3741.78 -12.0694 0 -48.2225
-1265.56 -13.2321 0 -122.066
-1272.91 -13.6343 0 -122.853
-3752.69 -12.2004 0 -49.3879
-2505.18 -12.9172 0 -88.1714
-1269.24 -13.4327 0 -122.457
-2519.78 -13.2589 0 -89.7373
-2512.48 -13.0875 0 -88.9503
-3741.78 -12.0694 0 -48.2225
-3719.95 -11.811 0 -45.9277
-1258.22 -12.8337 0 -121.294
-1265.56 -13.2321 0 -122.066
-3730.87 -11.9397 0 -47.0691
-2490.59 -12.5798 0 -86.6375
-1261.89 -13.0324 0 -121.678
-2505.18 -12.9172 0 -88.1714
-2497.88 -12.748 0 -87.4005
-3719.95 -11.811 0 -45.9277
-3698.13 -11.557 0 -43.6805
-1250.87 -12.4389 0 -120.538
-1258.22 -12.8337 0 -121.294
-3709.04 -11.6835 0 -44.7982
-2475.99 -12.2465 0 -85.1353
-1254.54 -12.6359 0 -120.914
-2490.59 -12.5798 0 -86.6375
-2483.29 -12.4126 0 -85.8825
-3698.13 -11.557 0 -43.6805
-3676.31 -11.3071 0 -41.4807
-1243.52 -12.0474 0 -119.798
-1250.87 -12.4389 0 -120.538
-3687.22 -11.4315 0 -42.5747
-2461.39 -11.9169 0 -83.6647
-1247.2 -12.2428 0 -120.166
-2475.99 -12.2465 0 -85.1353
-2468.69 -12.0812 0 -84.3961
-3676.31 -11.3071 0 -41.4807
-3654.48 -11.0611 0 -39.328
-1236.18 -11.6592 0 -119.073
-1243.52 -12.0474 0 -119.798
-3665.39 -11.1836 0 -40.3985
-2446.79 -11.591 0 -82.2253
-1239.85 -11.8529 0 -119.433
-2461.39 -11.9169 0 -83.6647
-2454.09 -11.7535 0 -82.9411
-3654.48 -11.0611 0 -39.328
-3632.65 -10.8189 0 -37.2219
-1228.83 -11.2741 0 -118.364
-1236.18 -11.6592 0 -119.073
-3643.57 -10.9396 0 -38.2691
-2432.2 -11.2686 0 -80.817
-1232.5 -11.4663 0 -118.716
-2446.79 -11.591 0 -82.2253
-2439.5 -11.4294 0 -81.5172
-3632.65 -10.8189 0 -37.2219
-3610.83 -10.5804 0 -35.1623
-1221.48 -10.892 0 -117.67
-1228.83 -11.2741 0 -118.364
-3621.74 -10.6992 0 -36.1863
-2417.6 -10.9496 0 -79.4396
-1225.16 -11.0827 0 -118.015
-2432.2 -11.2686 0 -80.817
-2424.9 -11.1087 0 -80.1244
-3610.83 -10.5804 0 -35.1623
-3589 -10.3453 0 -33.1489
-1214.14 -10.513 0 -116.991
-1221.48 -10.892 0 -117.67
-3599.91 -10.4624 0 -34.1498
-2403 -10.6339 0 -78.0929
-1217.81 -10.7021 0 -117.328
-2417.6 -10.9496 0 -79.4396
-2410.3 -10.7914 0 -78.7624
-3589 -10.3453 0 -33.1489
-3567.16 -10.1136 0 -31.1813
-1206.79 -10.1368 0 -116.327
-1214.14 -10.513 0 -116.991
-3578.08 -10.2291 0 -32.1594
-2388.4 -10.3214 0 -76.7768
-1210.46 -10.3245 0 -116.657
-2403 -10.6339 0 -78.0929
-2395.7 -10.4773 0 -77.431
-3567.16 -10.1136 0 -31.1813
-3545.33 -9.88521 0 -29.2594
-1199.44 -9.7636 0 -115.679
-1206.79 -10.1368 0 -116.327
-3556.25 -9.99902 0 -30.2147
-2373.8 -10.0121 0 -75.491
-1203.11 -9.94985 0 -116.001
-2388.4 -10.3214 0 -76.7768
-2381.1 -10.1664 0 -76.1301
-3545.33 -9.88521 0 -29.2594
-3523.5 -9.65994 0 -27.3828
-1192.1 -9.39324 0 -115.045
-1199.44 -9.7636 0 -115.679
-3534.42 -9.77219 0 -28.3155
-2359.2 -9.7058 0 -74.2355
-1195.77 -9.57806 0 -115.36
-2373.8 -10.0121 0 -75.491
-2366.5 -9.85857 0 -74.8595
-3523.5 -9.65994 0 -27.3828
-3501.67 -9.43772 0 -25.5513
-1184.75 -9.02572 0 -114.427
-1192.1 -9.39324 0 -115.045
-3512.58 -9.54846 0 -26.4615
-2344.59 -9.4025 0 -73.0099
-1188.42 -9.20913 0 -114.734
-2359.2 -9.7058 0 -74.2355
-2351.89 -9.55378 0 -73.6189
-3501.67 -9.43772 0 -25.5513
-3479.83 -9.21842 0 -23.7647
-1177.4 -8.66101 0 -113.823
-1184.75 -9.02572 0 -114.427
-3490.75 -9.32771 0 -24.6524
-2329.99 -9.10212 0 -71.8142
-1181.08 -8.84302 0 -114.123
-2344.59 -9.4025 0 -73.0099
-2337.29 -9.25195 0 -72.4083
-3479.83 -9.21842 0 -23.7647
-3458 -9.00196 0 -22.0225
-1170.06 -8.29906 0 -113.234
-1177.4 -8.66101 0 -113.823
-3468.91 -9.10984 0 -22.888
-2315.39 -8.8046 0 -70.6481
-1173.73 -8.47969 0 -113.527
-2329.99 -9.10212 0 -71.8142
-2322.69 -8.95301 0 -71.2274
-3458 -9.00196 0 -22.0225
-3436.16 -8.78822 0 -20.3246
-1162.71 -7.93986 0 -112.66
-1170.06 -8.29906 0 -113.234
-3447.08 -8.89475 0 -21.168
-2300.79 -8.50986 0 -69.5114
-1166.38 -8.11912 0 -112.945
-2315.39 -8.8046 0 -70.6481
-2308.09 -8.65688 0 -70.0761
-3436.16 -8.78822 0 -20.3246
-3414.33 -8.5771 0 -18.6707
-1155.37 -7.58336 0 -112.1
-1162.71 -7.93986 0 -112.66
-3425.24 -8.68234 0 -19.4921
-2286.19 -8.21783 0 -68.4041
-1159.04 -7.76127 0 -112.378
-2300.79 -8.50986 0 -69.5114
-2293.49 -8.36351 0 -68.9541
-3414.33 -8.5771 0 -18.6707
-3392.49 -8.36851 0 -17.0604
-1148.02 -7.22954 0 -111.555
-1155.37 -7.58336 0 -112.1
-3403.41 -8.4725 0 -17.8601
-2271.59 -7.92846 0 -67.3259
-1151.69 -7.40612 0 -111.825
-2286.19 -8.21783 0 -68.4041
-2278.89 -8.07282 0 -67.8614
-3392.49 -8.36851 0 -17.0604
-3370.66 -8.16234 0 -15.4936
-1140.68 -6.87835 0 -111.024
-1148.02 -7.22954 0 -111.555
-3381.57 -8.26513 0 -16.2716
-2256.99 -7.64167 0 -66.2765
-1144.35 -7.05362 0 -111.287
-2271.59 -7.92846 0 -67.3259
-2264.29 -7.78475 0 -66.7976
-3370.66 -8.16234 0 -15.4936
-3348.82 -7.9585 0 -13.97
-1133.33 -6.52978 0 -110.507
-1140.68 -6.87835 0 -111.024
-3359.74 -8.06013 0 -14.7264
-2242.39 -7.35741 0 -65.2559
-1137 -6.70374 0 -110.764
-2256.99 -7.64167 0 -66.2765
-2249.69 -7.49923 0 -65.7626
-3348.82 -7.9585 0 -13.97
-3326.98 -7.75689 0 -12.4892
-1125.99 -6.18378 0 -110.005
-1133.33 -6.52978 0 -110.507
-3337.9 -7.85742 0 -13.2242
-2227.79 -7.0756 0 -64.2639
-1129.66 -6.35646 0 -110.254
-2242.39 -7.35741 0 -65.2559
-2235.09 -7.2162 0 -64.7563
-3326.98 -7.75689 0 -12.4892
-3305.15 -7.55741 0 -11.051
-1118.65 -5.84033 0 -109.516
-1125.99 -6.18378 0 -110.005
-3316.07 -7.65689 0 -11.7648
-2213.19 -6.79618 0 -63.3002
-1122.32 -6.01174 0 -109.759
-2227.79 -7.0756 0 -64.2639
-2220.49 -6.93559 0 -63.7785
-3305.15 -7.55741 0 -11.051
-3283.31 -7.35998 0 -9.65511
-1111.3 -5.4994 0 -109.042
-1118.65 -5.84033 0 -109.516
-3294.23 -7.45844 0 -10.3478
-2198.59 -6.5191 0 -62.3646
-1114.97 -5.66956 0 -109.277
-2213.19 -6.79618 0 -63.3002
-2205.89 -6.65735 0 -62.8289
-3283.31 -7.35998 0 -9.65511
-3261.48 -7.1645 0 -8.30125
-1103.96 -5.16096 0 -108.582
-1111.3 -5.4994 0 -109.042
-3272.4 -7.262 0 -8.97294
-2183.99 -6.24429 0 -61.4571
-1107.63 -5.32987 0 -108.81
-2198.59 -6.5191 0 -62.3646
-2191.29 -6.38141 0 -61.9074
-3261.48 -7.1645 0 -8.30125
-3239.65 -6.97089 0 -6.98915
-1096.62 -4.82497 0 -108.135
-1103.96 -5.16096 0 -108.582
-3250.56 -7.06747 0 -7.64
-2169.39 -5.97169 0 -60.5774
-1100.29 -4.99266 0 -108.357
-2183.99 -6.24429 0 -61.4571
-2176.69 -6.10772 0 -61.0138
-3239.65 -6.97089 0 -6.98915
-3217.81 -6.77906 0 -5.71853
-1089.28 -4.4914 0 -107.702
-1096.62 -4.82497 0 -108.135
-3228.73 -6.87476 0 -6.34867
-2154.8 -5.70125 0 -59.7253
-1092.95 -4.65788 0 -107.917
-2169.39 -5.97169 0 -60.5774
-2162.09 -5.83621 0 -60.1479
-3217.81 -6.77906 0 -5.71853
-3195.98 -6.58892 0 -4.4891
-1081.94 -4.16024 0 -107.283
-1089.28 -4.4914 0 -107.702
-3206.9 -6.68378 0 -5.09868
-2140.2 -5.43291 0 -58.9006
-1085.61 -4.32553 0 -107.491
-2154.8 -5.70125 0 -59.7253
-2147.5 -5.56682 0 -59.3096
-3195.98 -6.58892 0 -4.4891
-3174.15 -6.40039 0 -3.30059
-1074.6 -3.83145 0 -106.878
-1081.94 -4.16024 0 -107.283
-3185.07 -6.49445 0 -3.88975
-2125.6 -5.16661 0 -58.1032
-1078.27 -3.99555 0 -107.079
-2140.2 -5.43291 0 -58.9006
-2132.9 -5.29951 0 -58.4986
-3174.15 -6.40039 0 -3.30059
-3152.32 -6.21338 0 -2.15271
-1067.26 -3.505 0 -106.486
-1074.6 -3.83145 0 -106.878
-3163.23 -6.3067 0 -2.72158
-2111.01 -4.9023 0 -57.3329
-1070.93 -3.66794 0 -106.68
-2125.6 -5.16661 0 -58.1032
-2118.31 -5.03421 0 -57.7147
-3152.32 -6.21338 0 -2.15271
-3130.49 -6.02783 0 -1.04519
-1059.92 -3.18087 0 -106.107
-1067.26 -3.505 0 -106.486
-3141.4 -6.12043 0 -1.59392
-2096.42 -4.63992 0 -56.5895
-1063.59 -3.34265 0 -106.295
-2111.01 -4.9023 0 -57.3329
-2103.71 -4.77087 0 -56.9578
-3130.49 -6.02783 0 -1.04519
-3108.66 -5.84364 0 0.0222561
-1052.58 -2.85903 0 -105.742
-1059.92 -3.18087 0 -106.107
-3119.57 -5.93557 0 -0.506474
-2081.82 -4.37943 0 -55.8727
-1056.25 -3.01967 0 -105.923
-2096.42 -4.63992 0 -56.5895
-2089.12 -4.50944 0 -56.2278
-3108.66 -5.84364 0 0.0222561
-3086.83 -5.66075 0 1.0499
-1045.25 -2.53946 0 -105.389
-1052.58 -2.85903 0 -105.742
-3097.75 -5.75204 0 0.541036
-2067.23 -4.12077 0 -55.1825
-1048.92 -2.69896 0 -105.564
-2081.82 -4.37943 0 -55.8727
-2074.53 -4.24987 0 -55.5243
-3086.83 -5.66075 0 1.0499
-3065.01 -5.47908 0 2.03803
-1037.91 -2.22212 0 -105.05
-1045.25 -2.53946 0 -105.389
-3075.92 -5.56977 0 1.54889
-2052.64 -3.86389 0 -54.5185
-1041.58 -2.38051 0 -105.218
-2067.23 -4.12077 0 -55.1825
-2059.94 -3.99211 0 -54.8472
-3065.01 -5.47908 0 2.03803
-3043.18 -5.29855 0 2.98692
-1030.58 -1.90701 0 -104.724
-1037.91 -2.22212 0 -105.05
-3054.09 -5.38867 0 2.51736
-2038.05 -3.60874 0 -53.8808
-1034.25 -2.06429 0 -104.886
-2052.64 -3.86389 0 -54.5185
-2045.35 -3.7361 0 -54.1964
-3043.18 -5.29855 0 2.98692
-3021.36 -5.1191 0 3.89686
-1023.24 -1.59408 0 -104.411
-1030.58 -1.90701 0 -104.724
-3032.27 -5.20869 0 3.44674
-2023.46 -3.35528 0 -53.2689
-1026.91 -1.75027 0 -104.566
-2038.05 -3.60874 0 -53.8808
-2030.76 -3.4818 0 -53.5716
-3021.36 -5.1191 0 3.89686
-2999.54 -4.94065 0 4.76811
-1015.91 -1.28332 0 -104.111
-1023.24 -1.59408 0 -104.411
-3010.45 -5.02975 0 4.3373
-2008.88 -3.10345 0 -52.6829
-1019.58 -1.43843 0 -104.26
-2023.46 -3.35528 0 -53.2689
-2016.17 -3.22916 0 -52.9727
-2999.54 -4.94065 0 4.76811
-2977.72 -4.76313 0 5.60097
-1008.58 -0.974708 0 -103.824
-1015.91 -1.28332 0 -104.111
-2988.63 -4.85178 0 5.18932
-1994.29 -2.85322 0 -52.1224
-1012.24 -1.12875 0 -103.966
-2008.88 -3.10345 0 -52.6829
-2001.58 -2.97814 0 -52.3995
-2977.72 -4.76313 0 5.60097
-2955.9 -4.58649 0 6.39571
-1001.25 -0.668219 0 -103.549
-1008.58 -0.974708 0 -103.824
-2966.81 -4.67471 0 6.00309
-1979.71 -2.60454 0 -51.5874
-1004.91 -0.821199 0 -103.685
-1994.29 -2.85322 0 -52.1224
-1987 -2.72869 0 -51.8517
-2955.9 -4.58649 0 6.39571
-2934.08 -4.41065 0 7.15262
-993.917 -0.36383 0 -103.287
-1001.25 -0.668219 0 -103.549
-2944.99 -4.49847 0 6.77888
-1965.12 -2.35737 0 -51.0775
-997.582 -0.515763 0 -103.416
-1979.71 -2.60454 0 -51.5874
-1972.41 -2.48077 0 -51.3293
-2934.08 -4.41065 0 7.15262
-2912.26 -4.23555 0 7.87197
-986.588 -0.0615221 0 -103.037
-993.917 -0.36383 0 -103.287
-2923.17 -4.32301 0 7.51697
-1950.54 -2.11165 0 -50.5927
-990.253 -0.212417 0 -103.16
-1965.12 -2.35737 0 -51.0775
-1957.83 -2.23433 0 -50.832
-2912.26 -4.23555 0 7.87197
-2890.45 -4.06114 0 8.55404
-979.26 0.238727 0 -102.8
-986.588 -0.0615221 0 -103.037
-2901.36 -4.14827 0 8.21765
-1935.96 -1.86736 0 -50.1327
-982.924 0.0888585 0 -102.917
-1950.54 -2.11165 0 -50.5927
-1943.25 -1.98933 0 -50.3596
-2890.45 -4.06114 0 8.55404
-2868.64 -3.88734 0 9.19912
-971.933 0.536936 0 -102.574
-979.26 0.238727 0 -102.8
-2879.54 -3.97417 0 8.88119
-1921.38 -1.62445 0 -49.6974
-975.596 0.388085 0 -102.685
-1935.96 -1.86736 0 -50.1327
-1928.67 -1.74574 0 -49.912
-2868.64 -3.88734 0 9.19912
-2846.83 -3.71411 0 9.80748
-964.607 0.833127 0 -102.362
-971.933 0.536936 0 -102.574
-2857.73 -3.80066 0 9.50787
-1906.81 -1.38289 0 -49.2865
-968.27 0.685283 0 -102.467
-1921.38 -1.62445 0 -49.6974
-1914.09 -1.50351 0 -49.4889
-2846.83 -3.71411 0 9.80748
-2825.02 -3.54138 0 10.3794
-957.282 1.12732 0 -102.161
-964.607 0.833127 0 -102.362
-2835.92 -3.62768 0 10.098
-1892.23 -1.14263 0 -48.9
-960.944 0.98047 0 -102.26
-1906.81 -1.38289 0 -49.2865
-1899.52 -1.2626 0 -49.0902
-2825.02 -3.54138 0 10.3794
-2803.21 -3.3691 0 10.9152
-949.958 1.41952 0 -101.972
-957.282 1.12732 0 -102.161
-2814.12 -3.45519 0 10.6518
-1877.66 -0.903635 0 -48.5375
-953.62 1.27367 0 -102.065
-1892.23 -1.14263 0 -48.9
-1884.94 -1.02298 0 -48.7157
-2803.21 -3.3691 0 10.9152
-2781.41 -3.19722 0 11.4151
-942.635 1.70977 0 -101.795
-949.958 1.41952 0 -101.972
-2792.31 -3.28311 0 11.1696
-1863.08 -0.665874 0 -48.1989
-946.296 1.56489 0 -101.882
-1877.66 -0.903635 0 -48.5375
-1870.37 -0.784603 0 -48.3652
-2781.41 -3.19722 0 11.4151
-2759.61 -3.02568 0 11.8794
-935.313 1.99807 0 -101.63
-942.635 1.70977 0 -101.795
-2770.51 -3.11141 0 11.6517
-1848.51 -0.429311 0 -47.8841
-938.974 1.85416 0 -101.711
-1863.08 -0.665874 0 -48.1989
-1855.8 -0.547445 0 -48.0386
-2759.61 -3.02568 0 11.8794
-2737.81 -2.85443 0 12.3084
-927.993 2.28444 0 -101.477
-935.313 1.99807 0 -101.63
-2748.71 -2.94002 0 12.0983
-1833.95 -0.193911 0 -47.5928
-931.653 2.14149 0 -101.552
-1848.51 -0.429311 0 -47.8841
-1841.23 -0.311468 0 -47.7355
-2737.81 -2.85443 0 12.3084
-2716.01 -2.68343 0 12.7023
-920.673 2.56889 0 -101.336
-927.993 2.28444 0 -101.477
-2726.91 -2.76891 0 12.5097
-1819.38 0.040359 0 -47.3249
-924.333 2.4269 0 -101.405
-1833.95 -0.193911 0 -47.5928
-1826.66 -0.0766365 0 -47.4559
-2716.01 -2.68343 0 12.7023
-2694.22 -2.51263 0 13.0616
-913.355 2.85146 0 -101.206
-920.673 2.56889 0 -101.336
-2705.11 -2.59801 0 12.8863
-1804.81 0.27353 0 -47.0801
-917.014 2.71041 0 -101.269
-1819.38 0.040359 0 -47.3249
-1812.1 0.15708 0 -47.1996
-2694.22 -2.51263 0 13.0616
-2672.42 -2.34198 0 13.3863
-906.038 3.13214 0 -101.087
-913.355 2.85146 0 -101.206
-2683.32 -2.42729 0 13.2282
-1790.25 0.505634 0 -46.8583
-909.697 2.99203 0 -101.145
-1804.81 0.27353 0 -47.0801
-1797.53 0.389714 0 -46.9663
-2672.42 -2.34198 0 13.3863
-2650.63 -2.17143 0 13.6768
-898.723 3.41095 0 -100.98
-906.038 3.13214 0 -101.087
-2661.53 -2.25669 0 13.5358
-1775.69 0.7367 0 -46.6593
-902.38 3.27178 0 -101.032
-1790.25 0.505634 0 -46.8583
-1782.97 0.621295 0 -46.756
-2650.63 -2.17143 0 13.6768
-2628.85 -2.00094 0 13.9335
-891.408 3.68792 0 -100.885
-898.723 3.41095 0 -100.98
-2639.74 -2.08618 0 13.8094
-1761.13 0.966757 0 -46.4829
-895.065 3.54967 0 -100.931
-1775.69 0.7367 0 -46.6593
-1768.41 0.851853 0 -46.5683
-2628.85 -2.00094 0 13.9335
-2607.06 -1.83048 0 14.1565
-884.095 3.96305 0 -100.8
-891.408 3.68792 0 -100.885
-2617.95 -1.91571 0 14.0492
-1746.57 1.19583 0 -46.329
-887.751 3.82571 0 -100.841
-1761.13 0.966757 0 -46.4829
-1753.85 1.08142 0 -46.4032
-2607.06 -1.83048 0 14.1565
-2585.28 -1.66 0 14.3461
-876.783 4.23635 0 -100.727
-884.095 3.96305 0 -100.8
-2596.17 -1.74524 0 14.2555
-1732.02 1.42396 0 -46.1973
-880.439 4.09993 0 -100.762
-1746.57 1.19583 0 -46.329
-1739.29 1.31001 0 -46.2603
-2585.28 -1.66 0 14.3461
-2563.5 -1.48945 0 14.5027
-869.472 4.50785 0 -100.664
-876.783 4.23635 0 -100.727
-2574.39 -1.57473 0 14.4285
-1717.46 1.65115 0 -46.0876
-873.127 4.37233 0 -100.694
-1732.02 1.42396 0 -46.1973
-1724.74 1.53767 0 -46.1397
-2563.5 -1.48945 0 14.5027
-2541.72 -1.31882 0 14.6265
-862.163 4.77755 0 -100.613
-869.472 4.50785 0 -100.664
-2552.61 -1.40415 0 14.5687
-1702.91 1.87744 0 -45.9998
-865.817 4.64292 0 -100.637
-1717.46 1.65115 0 -46.0876
-1710.19 1.76441 0 -46.041
-2541.72 -1.31882 0 14.6265
-2519.95 -1.14805 0 14.7178
-854.854 5.04546 0 -100.572
-862.163 4.77755 0 -100.613
-2530.83 -1.23345 0 14.6762
-1688.36 2.10286 0 -45.9337
-858.508 4.91173 0 -100.591
-1702.91 1.87744 0 -45.9998
-1695.64 1.99026 0 -45.964
-2519.95 -1.14805 0 14.7178
-2498.17 -0.977115 0 14.7769
-847.548 5.3116 0 -100.542
-854.854 5.04546 0 -100.572
-2509.06 -1.0626 0 14.7514
-1673.81 2.32741 0 -45.889
-851.201 5.17875 0 -100.556
-1688.36 2.10286 0 -45.9337
-1681.09 2.21524 0 -45.9087
-2498.17 -0.977115 0 14.7769
-2476.4 -0.805981 0 14.804
-840.242 5.57599 0 -100.523
-847.548 5.3116 0 -100.542
-2487.29 -0.891575 0 14.7944
-1659.27 2.55114 0 -45.8657
-843.895 5.44402 0 -100.531
-1673.81 2.32741 0 -45.889
-1666.54 2.43938 0 -45.8747
-2476.4 -0.805981 0 14.804
-2454.64 -0.634615 0 14.7994
-832.938 5.83862 0 -100.514
-840.242 5.57599 0 -100.523
-2465.52 -0.720329 0 14.8057
-1644.73 2.77405 0 -45.8635
-836.59 5.70752 0 -100.517
-1659.27 2.55114 0 -45.8657
-1652 2.6627 0 -45.862
-2454.64 -0.634615 0 14.7994
-2432.87 -0.462988 0 14.7635
-825.635 6.09951 0 -100.516
-832.938 5.83862 0 -100.514
-2443.75 -0.548836 0 14.7854
-1630.18 2.99617 0 -45.8823
-829.286 5.96928 0 -100.514
-1644.73 2.77405 0 -45.8635
-1637.45 2.88521 0 -45.8703
-2432.87 -0.462988 0 14.7635
-2411.11 -0.29107 0 14.6965
-818.333 6.35867 0 -100.528
-825.635 6.09951 0 -100.516
-2421.99 -0.377067 0 14.7339
-1615.65 3.21753 0 -45.9218
-821.984 6.2293 0 -100.521
-1630.18 2.99617 0 -45.8823
-1622.91 3.10695 0 -45.8995
-2411.11 -0.29107 0 14.6965
-2389.35 -0.118833 0 14.5986
-811.033 6.61611 0 -100.551
-818.333 6.35867 0 -100.528
-2400.23 -0.204993 0 14.6514
-1601.11 3.43812 0 -45.9819
-814.683 6.4876 0 -100.538
-1615.65 3.21753 0 -45.9218
-1608.38 3.32792 0 -45.9493
-2389.35 -0.118833 0 14.5986
-2367.6 0.0537496 0 14.4702
-803.734 6.87184 0 -100.583
-811.033 6.61611 0 -100.551
-2378.47 -0.0325864 0 14.5382
-1586.57 3.65799 0 -46.0623
-807.384 6.74419 0 -100.566
-1601.11 3.43812 0 -45.9819
-1593.84 3.54815 0 -46.0195
-2367.6 0.0537496 0 14.4702
-2345.84 0.226703 0 14.3115
-796.437 7.12587 0 -100.626
-803.734 6.87184 0 -100.583
-2356.72 0.140178 0 14.3946
-1572.04 3.87713 0 -46.1629
-800.086 6.99907 0 -100.604
-1586.57 3.65799 0 -46.0623
-1579.31 3.76765 0 -46.1101
-2345.84 0.226703 0 14.3115
-2324.09 0.400051 0 14.1228
-789.141 7.3782 0 -100.679
-796.437 7.12587 0 -100.626
-2334.97 0.313326 0 14.2209
-1557.51 4.09558 0 -46.2836
-792.789 7.25225 0 -100.651
-1572.04 3.87713 0 -46.1629
-1564.78 3.98644 0 -46.2208
-2324.09 0.400051 0 14.1228
-2302.35 0.573816 0 13.9044
-781.846 7.62885 0 -100.742
-789.141 7.3782 0 -100.679
-2313.22 0.48688 0 14.0173
-1542.98 4.31334 0 -46.424
-785.494 7.50374 0 -100.709
-1557.51 4.09558 0 -46.2836
-1550.25 4.20454 0 -46.3513
-2302.35 0.573816 0 13.9044
-2280.6 0.748019 0 13.6566
-774.553 7.87782 0 -100.814
-781.846 7.62885 0 -100.742
-2291.48 0.660861 0 13.7842
-1528.46 4.53042 0 -46.5842
-778.2 7.75354 0 -100.777
-1542.98 4.31334 0 -46.424
-1535.72 4.42196 0 -46.5017
-2280.6 0.748019 0 13.6566
-2258.86 0.922682 0 13.3797
-767.261 8.12512 0 -100.897
-774.553 7.87782 0 -100.814
-2269.73 0.835292 0 13.5218
-1513.93 4.74685 0 -46.7637
-770.907 8.00168 0 -100.854
-1528.46 4.53042 0 -46.5842
-1521.2 4.63872 0 -46.6715
-2258.86 0.922682 0 13.3797
-2237.12 1.09782 0 13.0738
-759.971 8.37075 0 -100.989
-767.261 8.12512 0 -100.897
-2247.99 1.01019 0 13.2303
-1499.41 4.96263 0 -46.9625
-763.616 8.24814 0 -100.942
-1513.93 4.74685 0 -46.7637
-1506.67 4.85482 0 -46.8607
-2237.12 1.09782 0 13.0738
-2215.39 1.27346 0 12.7394
-752.682 8.61472 0 -101.09
-759.971 8.37075 0 -100.989
-2226.26 1.18558 0 12.9102
-1484.89 5.17778 0 -47.1804
-756.326 8.49294 0 -101.038
-1499.41 4.96263 0 -46.9625
-1492.15 5.07028 0 -47.0691
-2215.39 1.27346 0 12.7394
-2193.66 1.4496 0 12.3767
-745.394 8.85704 0 -101.201
-752.682 8.61472 0 -101.09
-2204.52 1.36146 0 12.5616
-1470.38 5.3923 0 -47.4172
-749.038 8.73609 0 -101.145
-1484.89 5.17778 0 -47.1804
-1477.63 5.28512 0 -47.2965
-2193.66 1.4496 0 12.3767
-2171.93 1.62628 0 11.986
-738.108 9.09772 0 -101.322
-745.394 8.85704 0 -101.201
-2182.79 1.53787 0 12.1848
-1455.86 5.60621 0 -47.6727
-741.751 8.97759 0 -101.26
-1470.38 5.3923 0 -47.4172
-1463.12 5.49933 0 -47.5427
-2171.93 1.62628 0 11.986
-2150.2 1.80349 0 11.5675
-730.823 9.33675 0 -101.451
-738.108 9.09772 0 -101.322
-2161.07 1.71482 0 11.7802
-1441.35 5.81952 0 -47.9468
-734.466 9.21744 0 -101.385
-1455.86 5.60621 0 -47.6727
-1448.61 5.71294 0 -47.8075
-2150.2 1.80349 0 11.5675
-2128.48 1.98126 0 11.1215
-723.54 9.57414 0 -101.59
-730.823 9.33675 0 -101.451
-2139.34 1.8923 0 11.3479
-1426.84 6.03224 0 -48.2391
-727.182 9.45565 0 -101.52
-1441.35 5.81952 0 -47.9468
-1434.1 5.92596 0 -48.0907
-2128.48 1.98126 0 11.1215
-2106.76 2.15959 0 10.6483
-716.258 9.8099 0 -101.738
-723.54 9.57414 0 -101.59
-2117.62 2.07035 0 10.8883
-1412.33 6.24437 0 -48.5497
-719.899 9.69222 0 -101.663
-1426.84 6.03224 0 -48.2391
-1419.59 6.13838 0 -48.3921
-2106.76 2.15959 0 10.6483
-2085.04 2.3385 0 10.1483
-708.978 10.044 0 -101.895
-716.258 9.8099 0 -101.738
-2095.9 2.24897 0 10.4016
-1397.83 6.45592 0 -48.8781
-712.618 9.92717 0 -101.816
-1412.33 6.24437 0 -48.5497
-1405.08 6.35022 0 -48.7117
-2085.04 2.3385 0 10.1483
-2063.33 2.51799 0 9.62156
-701.699 10.2765 0 -102.061
-708.978 10.044 0 -101.895
-2074.19 2.42817 0 9.88822
-1383.32 6.6669 0 -49.2244
-705.338 10.1605 0 -101.977
-1397.83 6.45592 0 -48.8781
-1390.58 6.56148 0 -49.0491
-2063.33 2.51799 0 9.62156
-2041.62 2.69808 0 9.0685
-694.422 10.5074 0 -102.236
-701.699 10.2765 0 -102.061
-2052.47 2.60796 0 9.34831
-1368.82 6.87731 0 -49.5883
-698.06 10.3922 0 -102.147
-1383.32 6.6669 0 -49.2244
-1376.07 6.77217 0 -49.4042
-2041.62 2.69808 0 9.0685
-2019.91 2.87877 0 8.48937
-687.146 10.7367 0 -102.419
-694.422 10.5074 0 -102.236
-2030.76 2.78835 0 8.78217
-1354.33 7.08715 0 -49.9696
-690.783 10.6222 0 -102.327
-1368.82 6.87731 0 -49.5883
-1361.57 6.9823 0 -49.7768
-2019.91 2.87877 0 8.48937
-1998.21 3.06006 0 7.88444
-679.871 10.9643 0 -102.612
-687.146 10.7367 0 -102.419
-2009.06 2.96934 0 8.19011
-1339.83 7.29644 0 -50.3681
-683.508 10.8507 0 -102.514
-1354.33 7.08715 0 -49.9696
-1347.08 7.19187 0 -50.1667
-1998.21 3.06006 0 7.88444
-1976.5 3.24196 0 7.25399
-672.598 11.1903 0 -102.812
-679.871 10.9643 0 -102.612
-1987.36 3.15093 0 7.57238
-1325.34 7.50518 0 -50.7836
-676.234 11.0775 0 -102.711
-1339.83 7.29644 0 -50.3681
-1332.58 7.40088 0 -50.5737
-1976.5 3.24196 0 7.25399
-1954.81 3.42448 0 6.5983
-665.326 11.4147 0 -103.021
-672.598 11.1903 0 -102.812
-1965.66 3.33315 0 6.92928
-1310.85 7.71336 0 -51.216
-668.962 11.3027 0 -102.916
-1325.34 7.50518 0 -50.7836
-1318.09 7.60934 0 -50.9977
-1954.81 3.42448 0 6.5983
-1933.11 3.60762 0 5.91765
-658.056 11.6375 0 -103.239
-665.326 11.4147 0 -103.021
-1943.96 3.51597 0 6.26108
-1296.36 7.92099 0 -51.6651
-661.691 11.5263 0 -103.129
-1310.85 7.71336 0 -51.216
-1303.6 7.81724 0 -51.4385
-1933.11 3.60762 0 5.91765
-1911.42 3.79137 0 5.21233
-650.787 11.8587 0 -103.465
-658.056 11.6375 0 -103.239
-1922.26 3.69942 0 5.56806
-1281.87 8.12808 0 -52.1307
-654.421 11.7483 0 -103.351
-1296.36 7.92099 0 -51.6651
-1289.11 8.0246 0 -51.8958
-1911.42 3.79137 0 5.21233
-1889.73 3.97575 0 4.48259
-643.52 12.0783 0 -103.699
-650.787 11.8587 0 -103.465
-1900.57 3.88348 0 4.85049
-1267.39 8.33461 0 -52.6125
-647.153 11.9687 0 -103.581
-1281.87 8.12808 0 -52.1307
-1274.63 8.23141 0 -52.3696
-1889.73 3.97575 0 4.48259
-1868.04 4.16074 0 3.72874
-636.254 12.2962 0 -103.941
-643.52 12.0783 0 -103.699
-1878.89 4.06816 0 4.10866
-1252.9 8.5406 0 -53.1105
-639.887 12.1875 0 -103.819
-1267.39 8.33461 0 -52.6125
-1260.14 8.43767 0 -52.8595
-1868.04 4.16074 0 3.72874
-1846.36 4.34635 0 2.95103
-628.989 12.5126 0 -104.191
-636.254 12.2962 0 -103.941
-1857.2 4.25347 0 3.34285
-1238.42 8.74603 0 -53.6244
-632.621 12.4046 0 -104.065
-1252.9 8.5406 0 -53.1105
-1245.66 8.64338 0 -53.3655
-1846.36 4.34635 0 2.95103
-1824.68 4.53257 0 2.14976
-621.726 12.7273 0 -104.449
-628.989 12.5126 0 -104.191
-1835.52 4.43938 0 2.55333
-1223.95 8.95092 0 -54.1541
-625.358 12.6201 0 -104.319
-1238.42 8.74603 0 -53.6244
-1231.19 8.84855 0 -53.8873
-1824.68 4.53257 0 2.14976
-1803 4.71941 0 1.3252
-614.465 12.9404 0 -104.715
-621.726 12.7273 0 -104.449
-1813.84 4.62591 0 1.74037
-1209.47 9.15525 0 -54.6993
-618.095 12.8341 0 -104.581
-1223.95 8.95092 0 -54.1541
-1216.71 9.05316 0 -54.4248
-1803 4.71941 0 1.3252
-1781.33 4.90685 0 0.477622
-607.205 13.1519 0 -104.989
-614.465 12.9404 0 -104.715
-1792.17 4.81305 0 0.90427
-1195 9.35903 0 -55.2599
-610.835 13.0464 0 -104.851
-1209.47 9.15525 0 -54.6993
-1202.24 9.25721 0 -54.9777
-1781.33 4.90685 0 0.477622
-1759.66 5.0949 0 -0.392688
-599.946 13.3618 0 -105.27
-607.205 13.1519 0 -104.989
-1770.49 5.0008 0 0.0452915
-1180.53 9.56225 0 -55.8357
-603.575 13.2571 0 -105.129
-1195 9.35903 0 -55.2599
-1187.76 9.46071 0 -55.5459
-1759.66 5.0949 0 -0.392688
-1737.99 5.28353 0 -1.28546
-592.689 13.5701 0 -105.559
-599.946 13.3618 0 -105.27
-1748.83 5.18914 0 -0.836283
-1166.06 9.7649 0 -56.4265
-596.317 13.4662 0 -105.414
-1180.53 9.56225 0 -55.8357
-1173.3 9.66364 0 -56.1293
-1737.99 5.28353 0 -1.28546
-1716.33 5.47276 0 -2.2004
-585.433 13.7767 0 -105.855
-592.689 13.5701 0 -105.559
-1727.16 5.37807 0 -1.74018
-1151.6 9.96698 0 -57.0322
-589.061 13.6736 0 -105.706
-1166.06 9.7649 0 -56.4265
-1158.83 9.86601 0 -56.7275
-1716.33 5.47276 0 -2.2004
-1694.67 5.66256 0 -3.13725
-578.179 13.9818 0 -106.159
-585.433 13.7767 0 -105.855
-1705.5 5.56759 0 -2.66611
-1137.13 10.1685 0 -57.6524
-581.806 13.8795 0 -106.006
-1151.6 9.96698 0 -57.0322
-1144.36 10.0678 0 -57.3405
-1694.67 5.66256 0 -3.13725
-1673.01 5.85293 0 -4.09573
-570.926 14.1852 0 -106.47
-578.179 13.9818 0 -106.159
-1683.84 5.75768 0 -3.61381
-1122.67 10.3694 0 -58.2872
-574.552 14.0837 0 -106.314
-1137.13 10.1685 0 -57.6524
-1129.9 10.269 0 -57.968
-1673.01 5.85293 0 -4.09573
-1651.35 6.04387 0 -5.07555
-563.674 14.3869 0 -106.788
-570.926 14.1852 0 -106.47
-1662.18 5.94833 0 -4.58299
-1108.21 10.5698 0 -58.9362
-567.3 14.2863 0 -106.628
-1122.67 10.3694 0 -58.2872
-1115.44 10.4697 0 -58.6099
-1651.35 6.04387 0 -5.07555
-1629.7 6.23535 0 -6.07644
-556.424 14.5871 0 -107.113
-563.674 14.3869 0 -106.788
-1640.52 6.13954 0 -5.57338
-1093.76 10.7695 0 -59.5993
-560.049 14.4872 0 -106.95
-1108.21 10.5698 0 -58.9362
-1100.98 10.6697 0 -59.266
-1629.7 6.23535 0 -6.07644
-1608.05 6.42736 0 -7.09813
-549.175 14.7856 0 -107.446
-556.424 14.5871 0 -107.113
-1618.87 6.33129 0 -6.5847
-1079.3 10.9687 0 -60.2762
-552.799 14.6865 0 -107.279
-1093.76 10.7695 0 -59.5993
-1086.53 10.8692 0 -59.936
-1608.05 6.42736 0 -7.09813
-1586.4 6.6199 0 -8.14033
-541.928 14.9824 0 -107.785
-549.175 14.7856 0 -107.446
-1597.22 6.52357 0 -7.61668
-1064.85 11.1672 0 -60.967
-545.551 14.8842 0 -107.614
-1079.3 10.9687 0 -60.2762
-1072.08 11.068 0 -60.6199
-1586.4 6.6199 0 -8.14033
-1564.76 6.81294 0 -9.20276
-534.682 15.1777 0 -108.131
-541.928 14.9824 0 -107.785
-1575.58 6.71636 0 -8.66903
-1050.4 11.3651 0 -61.6712
-538.305 15.0803 0 -107.957
-1064.85 11.1672 0 -60.967
-1057.62 11.2662 0 -61.3174
-1564.76 6.81294 0 -9.20276
-1543.12 7.00649 0 -10.2852
-527.437 15.3712 0 -108.484
-534.682 15.1777 0 -108.131
-1553.94 6.90965 0 -9.74149
-1035.95 11.5624 0 -62.3888
-531.06 15.2747 0 -108.306
-1050.4 11.3651 0 -61.6712
-1043.18 11.4638 0 -62.0283
-1543.12 7.00649 0 -10.2852
-1521.48 7.2005 0 -11.3873
-520.194 15.5631 0 -108.843
-527.437 15.3712 0 -108.484
-1532.3 7.10344 0 -10.8338
-1021.51 11.759 0 -63.1196
-523.816 15.4674 0 -108.662
-1035.95 11.5624 0 -62.3888
-1028.73 11.6608 0 -62.7526
-1521.48 7.2005 0 -11.3873
-1499.84 7.39498 0 -12.5087
-512.953 15.7534 0 -109.209
-520.194 15.5631 0 -108.843
-1510.66 7.29769 0 -11.9456
-1007.06 11.955 0 -63.8633
-516.573 15.6585 0 -109.025
-1021.51 11.759 0 -63.1196
-1014.29 11.8571 0 -63.4898
-1499.84 7.39498 0 -12.5087
-1478.21 7.58991 0 -13.6494
-505.712 15.942 0 -109.581
-512.953 15.7534 0 -109.209
-1489.03 7.49239 0 -13.0767
-992.623 12.1504 0 -64.6199
-509.332 15.8479 0 -109.394
-1007.06 11.955 0 -63.8633
-999.843 12.0528 0 -64.24
-1478.21 7.58991 0 -13.6494
-1456.58 7.78526 0 -14.8089
-498.473 16.1289 0 -109.96
-505.712 15.942 0 -109.581
-1467.4 7.68753 0 -14.2268
-978.184 12.345 0 -65.389
-502.092 16.0357 0 -109.77
-992.623 12.1504 0 -64.6199
-985.403 12.2478 0 -65.0029
-1456.58 7.78526 0 -14.8089
-1434.95 7.98102 0 -15.9869
-491.235 16.3142 0 -110.345
-498.473 16.1289 0 -109.96
-1445.77 7.88309 0 -15.3956
-963.747 12.539 0 -66.1706
-494.854 16.2218 0 -110.152
-978.184 12.345 0 -65.389
-970.965 12.4421 0 -65.7783
-1434.95 7.98102 0 -15.9869
-1413.33 8.17717 0 -17.1833
-483.999 16.4977 0 -110.736
-491.235 16.3142 0 -110.345
-1424.14 8.07905 0 -16.5828
-949.312 12.7323 0 -66.9645
-487.617 16.4062 0 -110.54
-963.747 12.539 0 -66.1706
-956.529 12.6357 0 -66.566
-1413.33 8.17717 0 -17.1833
-1391.71 8.37368 0 -18.3977
-476.764 16.6796 0 -111.134
-483.999 16.4977 0 -110.736
-1402.52 8.27538 0 -17.7882
-934.879 12.9249 0 -67.7704
-480.381 16.5889 0 -110.934
-949.312 12.7323 0 -66.9645
-942.096 12.8287 0 -67.3659
-1391.71 8.37368 0 -18.3977
-1370.09 8.57055 0 -19.6298
-469.53 16.8598 0 -111.537
-476.764 16.6796 0 -111.134
-1380.9 8.47207 0 -19.0115
-920.449 13.1167 0 -68.5882
-473.147 16.7699 0 -111.335
-934.879 12.9249 0 -67.7704
-927.664 13.0209 0 -68.1778
-1370.09 8.57055 0 -19.6298
-1348.47 8.76773 0 -20.8794
-462.298 17.0383 0 -111.946
-469.53 16.8598 0 -111.537
-1359.28 8.6691 0 -20.2524
-906.021 13.3078 0 -69.4177
-465.914 16.9492 0 -111.741
-920.449 13.1167 0 -68.5882
-913.234 13.2123 0 -69.0015
-1348.47 8.76773 0 -20.8794
-1326.86 8.96522 0 -22.1462
-455.067 17.215 0 -112.361
-462.298 17.0383 0 -111.946
-1337.67 8.86644 0 -21.5107
-891.594 13.4981 0 -70.2587
-458.682 17.1269 0 -112.153
-906.021 13.3078 0 -69.4177
-898.807 13.4031 0 -69.8367
-1326.86 8.96522 0 -22.1462
-1305.25 9.16299 0 -23.43
-447.837 17.3901 0 -112.782
-455.067 17.215 0 -112.361
-1316.05 9.06407 0 -22.786
-877.17 13.6877 0 -71.111
-451.452 17.3028 0 -112.571
-891.594 13.4981 0 -70.2587
-884.382 13.593 0 -70.6834
-1305.25 9.16299 0 -23.43
-1283.64 9.36101 0 -24.7303
-440.609 17.5634 0 -113.209
-447.837 17.3901 0 -112.782
-1294.44 9.26197 0 -24.0781
-862.747 13.8765 0 -71.9745
-444.223 17.477 0 -112.995
-877.17 13.6877 0 -71.111
-869.958 13.7822 0 -71.5414
-1283.64 9.36101 0 -24.7303
-1262.04 9.55926 0 -26.0471
-433.382 17.735 0 -113.641
-440.609 17.5634 0 -113.209
-1272.84 9.4601 0 -25.3867
-848.327 14.0645 0 -72.8489
-436.995 17.6494 0 -113.424
-862.747 13.8765 0 -71.9745
-855.537 13.9706 0 -72.4103
-1262.04 9.55926 0 -26.0471
-1240.43 9.75771 0 -27.3799
-426.156 17.9049 0 -114.078
-433.382 17.735 0 -113.641
-1251.23 9.65846 0 -26.7115
-833.909 14.2516 0 -73.7342
-429.769 17.8202 0 -113.859
-848.327 14.0645 0 -72.8489
-841.118 14.1581 0 -73.2902
-1240.43 9.75771 0 -27.3799
-1218.83 9.95634 0 -28.7286
-418.931 18.073 0 -114.521
-426.156 17.9049 0 -114.078
-1229.63 9.857 0 -28.0523
-819.492 14.4379 0 -74.63
-422.543 17.9891 0 -114.299
-833.909 14.2516 0 -73.7342
-826.7 14.3449 0 -74.1808
-1218.83 9.95634 0 -28.7286
-1197.23 10.1551 0 -30.0928
-411.708 18.2393 0 -114.969
-418.931 18.073 0 -114.521
-1208.03 10.0557 0 -29.4088
-805.078 14.6234 0 -75.5362
-415.319 18.1564 0 -114.745
-819.492 14.4379 0 -74.63
-812.285 14.5308 0 -75.0818
-1197.23 10.1551 0 -30.0928
-1175.64 10.354 0 -31.4723
-404.486 18.4039 0 -115.423
-411.708 18.2393 0 -114.969
-1186.44 10.2546 0 -30.7807
-790.665 14.808 0 -76.4527
-408.097 18.3218 0 -115.195
-805.078 14.6234 0 -75.5362
-797.871 14.7158 0 -75.9932
-1175.64 10.354 0 -31.4723
-1154.04 10.553 0 -32.8668
-397.265 18.5667 0 -115.881
-404.486 18.4039 0 -115.423
-1164.84 10.4535 0 -32.1677
-776.254 14.9917 0 -77.3792
-400.875 18.4855 0 -115.651
-790.665 14.808 0 -76.4527
-783.459 14.8999 0 -76.9147
-1154.04 10.553 0 -32.8668
-1132.45 10.7521 0 -34.2759
-390.045 18.7277 0 -116.345
-397.265 18.5667 0 -115.881
-1143.25 10.6525 0 -33.5695
-761.845 15.1745 0 -78.3156
-393.655 18.6474 0 -116.112
-776.254 14.9917 0 -77.3792
-769.05 15.0832 0 -77.8462
-1132.45 10.7521 0 -34.2759
-1110.86 10.9512 0 -35.6996
-382.827 18.8869 0 -116.813
-390.045 18.7277 0 -116.345
-1121.66 10.8516 0 -34.986
-747.438 15.3563 0 -79.2617
-386.436 18.8075 0 -116.578
-761.845 15.1745 0 -78.3156
-754.642 15.2655 0 -78.7874
-1110.86 10.9512 0 -35.6996
-1089.28 11.1503 0 -37.1374
-375.609 19.0443 0 -117.286
-382.827 18.8869 0 -116.813
-1100.07 11.0507 0 -36.4167
-733.033 15.5372 0 -80.2172
-379.218 18.9659 0 -117.049
-747.438 15.3563 0 -79.2617
-740.235 15.4469 0 -79.7383
-1089.28 11.1503 0 -37.1374
-1067.69 11.3494 0 -38.5891
-368.393 19.1999 0 -117.764
-375.609 19.0443 0 -117.286
-1078.49 11.2498 0 -37.8615
-718.629 15.7171 0 -81.1821
-372.001 19.1224 0 -117.525
-733.033 15.5372 0 -80.2172
-725.831 15.6273 0 -80.6985
-1067.69 11.3494 0 -38.5891
-1046.11 11.5484 0 -40.0544
-361.178 19.3537 0 -118.247
-368.393 19.1999 0 -117.764
-1056.9 11.4489 0 -39.32
-704.228 15.8961 0 -82.1561
-364.786 19.277 0 -118.005
-718.629 15.7171 0 -81.1821
-711.428 15.8067 0 -81.668
-1046.11 11.5484 0 -40.0544
-1024.53 11.7473 0 -41.533
-353.964 19.5056 0 -118.734
-361.178 19.3537 0 -118.247
-1035.32 11.6479 0 -40.7921
-689.828 16.074 0 -83.1391
-357.571 19.4299 0 -118.49
-704.228 15.8961 0 -82.1561
-697.028 15.9852 0 -82.6465
-1024.53 11.7473 0 -41.533
-1002.96 11.9461 0 -43.0248
-346.752 19.6557 0 -119.226
-353.964 19.5056 0 -118.734
-1013.74 11.8467 0 -42.2773
-675.429 16.2509 0 -84.1308
-350.358 19.5809 0 -118.979
-689.828 16.074 0 -83.1391
-682.628 16.1626 0 -83.6339
-1002.96 11.9461 0 -43.0248
-981.38 12.1448 0 -44.5293
-339.54 19.804 0 -119.722
-346.752 19.6557 0 -119.226
-992.167 12.0455 0 -43.7754
-661.033 16.4267 0 -85.1311
-343.146 19.7301 0 -119.473
-675.429 16.2509 0 -84.1308
-668.231 16.3389 0 -84.6299
-981.38 12.1448 0 -44.5293
-959.806 12.3433 0 -46.0463
-332.33 19.9503 0 -120.222
-339.54 19.804 0 -119.722
-970.593 12.2441 0 -45.2862
-646.638 16.6014 0 -86.1398
-335.935 19.8774 0 -119.971
-661.033 16.4267 0 -85.1311
-653.835 16.5142 0 -85.6344
-959.806 12.3433 0 -46.0463
-938.235 12.5415 0 -47.5756
-325.121 20.0948 0 -120.726
-332.33 19.9503 0 -120.222
-949.02 12.4424 0 -46.8094
-632.245 16.7751 0 -87.1568
-328.725 20.0228 0 -120.474
-646.638 16.6014 0 -86.1398
-639.441 16.6884 0 -86.6473
-938.235 12.5415 0 -47.5756
-916.665 12.7395 0 -49.1168
-317.912 20.2374 0 -121.235
-325.121 20.0948 0 -120.726
-927.45 12.6406 0 -48.3447
-617.853 16.9476 0 -88.1818
-321.516 20.1664 0 -120.98
-632.245 16.7751 0 -87.1568
-625.049 16.8615 0 -87.6683
-916.665 12.7395 0 -49.1168
-895.098 12.9372 0 -50.6698
-310.705 20.3781 0 -121.748
-317.912 20.2374 0 -121.235
-905.881 12.8384 0 -49.8919
-603.463 17.119 0 -89.2146
-314.309 20.308 0 -121.491
-617.853 16.9476 0 -88.1818
-610.658 17.0334 0 -88.6972
-895.098 12.9372 0 -50.6698
-873.532 13.1346 0 -52.2342
-303.499 20.5169 0 -122.264
-310.705 20.3781 0 -121.748
-884.315 13.036 0 -51.4506
-589.074 17.2892 0 -90.2551
-307.102 20.4477 0 -122.005
-603.463 17.119 0 -89.2146
-596.268 17.2042 0 -89.7339
-873.532 13.1346 0 -52.2342
-851.968 13.3316 0 -53.8097
-296.294 20.6537 0 -122.784
-303.499 20.5169 0 -122.264
-862.75 13.2332 0 -53.0205
-574.687 17.4582 0 -91.3031
-299.897 20.5856 0 -122.524
-589.074 17.2892 0 -90.2551
-581.88 17.3738 0 -90.7782
-851.968 13.3316 0 -53.8097
-830.406 13.5282 0 -55.3961
-289.09 20.7887 0 -123.309
-296.294 20.6537 0 -122.784
-841.187 13.43 0 -54.6015
-560.301 17.626 0 -92.3584
-292.692 20.7214 0 -123.046
-574.687 17.4582 0 -91.3031
-567.494 17.5422 0 -91.8298
-830.406 13.5282 0 -55.3961
-808.846 13.7244 0 -56.993
-281.887 20.9216 0 -123.836
-289.09 20.7887 0 -123.309
-819.626 13.6264 0 -56.1932
-545.917 17.7925 0 -93.4208
-285.489 20.8554 0 -123.572
-560.301 17.626 0 -92.3584
-553.109 17.7094 0 -92.8887
-808.846 13.7244 0 -56.993
-787.288 13.9201 0 -58.6004
-274.685 21.0526 0 -124.368
-281.887 20.9216 0 -123.836
-798.067 13.8223 0 -57.7954
-531.535 17.9578 0 -94.4902
-278.286 20.9874 0 -124.101
-545.917 17.7925 0 -93.4208
-538.726 17.8753 0 -93.9546
-787.288 13.9201 0 -58.6004
-765.731 14.1153 0 -60.2177
-267.484 21.1816 0 -124.902
-274.685 21.0526 0 -124.368
-776.509 14.0178 0 -59.4078
-517.153 18.1217 0 -95.5663
-271.085 21.1174 0 -124.635
-531.535 17.9578 0 -94.4902
-524.344 18.0399 0 -95.0274
-765.731 14.1153 0 -60.2177
-744.175 14.3099 0 -61.8448
-260.284 21.3087 0 -125.44
-267.484 21.1816 0 -124.902
-754.953 14.2127 0 -61.0301
-502.773 18.2843 0 -96.649
-263.884 21.2454 0 -125.171
-517.153 18.1217 0 -95.5663
-509.963 18.2032 0 -96.1068
-744.175 14.3099 0 -61.8448
-722.622 14.504 0 -63.4815
-253.085 21.4337 0 -125.982
-260.284 21.3087 0 -125.44
-733.398 14.407 0 -62.662
-488.395 18.4456 0 -97.7381
-256.685 21.3714 0 -125.711
-502.773 18.2843 0 -96.649
-495.584 18.3652 0 -97.1927
-722.622 14.504 0 -63.4815
-701.07 14.6973 0 -65.1273
-245.887 21.5567 0 -126.526
-253.085 21.4337 0 -125.982
-711.846 14.6007 0 -64.3033
-474.017 18.6055 0 -98.8334
-249.486 21.4954 0 -126.254
-488.395 18.4456 0 -97.7381
-481.206 18.5257 0 -98.2849
-701.07 14.6973 0 -65.1273
-679.519 14.89 0 -66.7821
-238.69 21.6776 0 -127.074
-245.887 21.5567 0 -126.526
-690.294 14.7938 0 -65.9536
-459.641 18.764 0 -99.9347
-242.288 21.6174 0 -126.8
-474.017 18.6055 0 -98.8334
-466.829 18.6849 0 -99.3833
-679.519 14.89 0 -66.7821
-657.97 15.082 0 -68.4456
-231.493 21.7965 0 -127.625
-238.69 21.6776 0 -127.074
-668.744 14.9861 0 -67.6128
-445.266 18.921 0 -101.042
-235.092 21.7373 0 -127.349
-459.641 18.764 0 -99.9347
-452.454 18.8427 0 -100.488
-657.97 15.082 0 -68.4456
-636.422 15.2732 0 -70.1174
-224.298 21.9132 0 -128.179
-231.493 21.7965 0 -127.625
-647.196 15.1777 0 -69.2804
-430.893 19.0765 0 -102.155
-227.896 21.8551 0 -127.901
-445.266 18.921 0 -101.042
-438.079 18.9989 0 -101.598
-636.422 15.2732 0 -70.1174
-614.875 15.4636 0 -71.7973
-217.103 22.0279 0 -128.735
-224.298 21.9132 0 -128.179
-625.649 15.3685 0 -70.9564
-416.52 19.2305 0 -103.273
-220.701 21.9708 0 -128.456
-430.893 19.0765 0 -102.155
-423.706 19.1537 0 -102.713
-614.875 15.4636 0 -71.7973
-593.33 15.653 0 -73.485
-209.91 22.1403 0 -129.294
-217.103 22.0279 0 -128.735
-604.103 15.5584 0 -72.6402
-402.149 19.3829 0 -104.396
-213.506 22.0844 0 -129.014
-416.52 19.2305 0 -103.273
-409.334 19.3069 0 -103.834
-593.33 15.653 0 -73.485
-571.786 15.8416 0 -75.1803
-202.716 22.2507 0 -129.856
-209.91 22.1403 0 -129.294
-582.558 15.7474 0 -74.3317
-387.778 19.5337 0 -105.525
-206.313 22.1958 0 -129.575
-402.149 19.3829 0 -104.396
-394.963 19.4585 0 -104.96
-571.786 15.8416 0 -75.1803
-550.243 16.0291 0 -76.8827
-195.524 22.3588 0 -130.42
-202.716 22.2507 0 -129.856
-561.014 15.9355 0 -76.0306
-373.409 19.6829 0 -106.658
-199.12 22.305 0 -130.138
-387.778 19.5337 0 -105.525
-380.594 19.6085 0 -106.091
-550.243 16.0291 0 -76.8827
-528.701 16.2157 0 -78.5922
-188.332 22.4648 0 -130.987
-195.524 22.3588 0 -130.42
-539.472 16.1226 0 -77.7366
-359.04 19.8304 0 -107.797
-191.928 22.4121 0 -130.703
-373.409 19.6829 0 -106.658
-366.225 19.7569 0 -107.227
-528.701 16.2157 0 -78.5922
-507.16 16.4013 0 -80.3083
-181.141 22.5687 0 -131.556
-188.332 22.4648 0 -130.987
-517.931 16.3086 0 -79.4494
-344.673 19.9764 0 -108.939
-184.736 22.517 0 -131.271
-359.04 19.8304 0 -107.797
-351.856 19.9036 0 -108.367
-507.16 16.4013 0 -80.3083
-485.621 16.586 0 -82.0307
-173.95 22.6706 0 -132.127
-181.141 22.5687 0 -131.556
-496.39 16.4938 0 -81.1687
-330.306 20.1209 0 -110.086
-177.546 22.6199 0 -131.842
-344.673 19.9764 0 -108.939
-337.489 20.0488 0 -109.512
-485.621 16.586 0 -82.0307
-464.082 16.7699 0 -83.7594
-166.76 22.7706 0 -132.701
-173.95 22.6706 0 -132.127
-474.851 16.678 0 -82.8943
-315.94 20.264 0 -111.237
-170.355 22.7208 0 -132.414
-330.306 20.1209 0 -110.086
-323.123 20.1926 0 -110.661
-464.082 16.7699 0 -83.7594
-442.544 16.9532 0 -85.4941
-159.571 22.8692 0 -133.276
-166.76 22.7706 0 -132.701
-453.312 16.8616 0 -84.626
-301.575 20.4061 0 -112.392
-163.165 22.8201 0 -132.988
-315.94 20.264 0 -111.237
-308.757 20.3352 0 -111.814
-442.544 16.9532 0 -85.4941
-421.007 17.1362 0 -87.2348
-152.382 22.9668 0 -133.853
-159.571 22.8692 0 -133.276
-431.775 17.0447 0 -86.3637
-287.211 20.5476 0 -113.551
-155.976 22.9181 0 -133.565
-301.575 20.4061 0 -112.392
-294.392 20.4769 0 -112.971
-421.007 17.1362 0 -87.2348
-399.471 17.3194 0 -88.9814
-145.194 23.0642 0 -134.433
-152.382 22.9668 0 -133.853
-410.239 17.2278 0 -88.1073
-272.848 20.6889 0 -114.714
-148.788 23.0155 0 -134.143
-287.211 20.5476 0 -113.551
-280.029 20.6182 0 -114.132
-399.471 17.3194 0 -88.9814
-377.937 17.5028 0 -90.7343
-138.009 23.1622 0 -135.014
-145.194 23.0642 0 -134.433
-388.704 17.4111 0 -89.8571
-258.487 20.8307 0 -115.882
-141.601 23.1131 0 -134.723
-272.848 20.6889 0 -114.714
-265.667 20.7597 0 -115.297
-377.937 17.5028 0 -90.7343
-356.404 17.6863 0 -92.494
-130.825 23.2619 0 -135.599
-138.009 23.1622 0 -135.014
-367.17 17.5947 0 -91.6133
-244.128 20.9729 0 -117.054
-134.417 23.2118 0 -135.306
-258.487 20.8307 0 -115.882
-251.307 20.9018 0 -116.467
-356.404 17.6863 0 -92.494
-334.872 17.8684 0 -94.2616
-123.646 23.3639 0 -136.19
-130.825 23.2619 0 -135.599
-345.638 17.7777 0 -93.3767
-229.771 21.1148 0 -118.235
-127.235 23.3126 0 -135.894
-244.128 20.9729 0 -117.054
-236.949 21.044 0 -117.643
-334.872 17.8684 0 -94.2616
-313.338 18.0438 0 -96.0384
-116.469 23.4688 0 -136.793
-123.646 23.3639 0 -136.19
-324.105 17.9575 0 -95.1488
-215.414 21.253 0 -119.427
-120.057 23.416 0 -136.489
-229.771 21.1148 0 -118.235
-222.592 21.1848 0 -118.829
-313.338 18.0438 0 -96.0384
-291.792 18.203 0 -97.8278
-109.298 23.5738 0 -137.421
-116.469 23.4688 0 -136.793
-302.568 18.1264 0 -96.9312
-201.051 21.3792 0 -120.639
-112.882 23.5217 0 -137.103
-215.414 21.253 0 -119.427
-208.233 21.3184 0 -120.029
-291.792 18.203 0 -97.8278
-270.221 18.3217 0 -99.6329
-102.121 23.6761 0 -138.097
-109.298 23.5738 0 -137.421
-281.01 18.2698 0 -98.7283
-186.667 21.477 0 -121.889
-105.712 23.6258 0 -137.75
-201.051 21.3792 0 -120.639
-193.862 21.4337 0 -121.258
-270.221 18.3217 0 -99.6329
-248.574 18.3654 0 -101.464
-94.9399 23.7589 0 -138.866
-102.121 23.6761 0 -138.097
-259.413 18.3564 0 -100.544
-172.23 21.5135 0 -123.206
-98.5293 23.7214 0 -138.466
-186.667 21.477 0 -121.889
-179.458 21.5051 0 -122.535
-248.574 18.3654 0 -101.464
-226.799 18.2548 0 -103.33
-87.7037 23.8137 0 -139.807
-94.9399 23.7589 0 -138.866
-237.704 18.336 0 -102.393
-157.678 21.4405 0 -124.644
-91.336 23.7912 0 -139.308
-172.23 21.5135 0 -123.206
-164.973 21.4969 0 -123.907
-226.799 18.2548 0 -103.33
-204.707 17.912 0 -105.268
-80.4108 23.7873 0 -141.045
-87.7037 23.8137 0 -139.807
-215.814 18.12 0 -104.285
-142.893 21.1745 0 -126.293
-84.0578 23.8136 0 -140.38
-157.678 21.4405 0 -124.644
-150.324 21.3338 0 -125.43
-204.707 17.912 0 -105.268
-182.148 17.154 0 -107.303
-72.8853 23.6988 0 -142.78
-80.4108 23.7873 0 -141.045
-193.485 17.5949 0 -106.275
-127.686 20.6496 0 -128.295
-76.7036 23.7515 0 -141.833
-142.893 21.1745 0 -126.293
-135.356 20.9572 0 -127.247
-182.148 17.154 0 -107.303
-158.566 15.9781 0 -109.584
-65.1742 23.4485 0 -145.234
-72.8853 23.6988 0 -142.78
-170.552 16.6209 0 -108.392
-111.759 19.7926 0 -130.853
-69.0248 23.5905 0 -143.906
-127.686 20.6496 0 -128.295
-119.839 20.2419 0 -129.471
-158.566 15.9781 0 -109.584
-133.774 14.238 0 -112.197
-56.8228 23.347 0 -148.648
-65.1742 23.4485 0 -145.234
-146.289 15.153 0 -110.855
-94.7814 18.8674 0 -134.19
-61.1578 23.362 0 -146.799
-111.759 19.7926 0 -130.853
-103.414 19.3402 0 -132.443
-133.774 14.238 0 -112.197
-106.638 13.043 0 -115.686
-48.3204 23.4343 0 -152.833
-56.8228 23.347 0 -148.648
-120.665 13.4899 0 -113.759
-76.442 18.4984 0 -138.466
-52.4719 23.3072 0 -150.692
-94.7814 18.8674 0 -134.19
-85.8272 18.4465 0 -136.142
-106.638 13.043 0 -115.686
-78.2073 13.73 0 -120.186
-38.929 25.4656 0 -156.827
-48.3204 23.4343 0 -152.833
-92.3458 12.8509 0 -117.844
-57.2642 21.0791 0 -143.225
-43.93 24.113 0 -154.938
-76.442 18.4984 0 -138.466
-66.8498 19.3213 0 -140.968
-78.2073 13.73 0 -120.186
-48.4049 23.5446 0 -126.333
-30.8387 30.0033 0 -157.168
-38.929 25.4656 0 -156.827
-63.7095 16.9653 0 -122.966
-38.767 30.0279 0 -146.354
-34.3197 27.2387 0 -157.83
-57.2642 21.0791 0 -143.225
-47.9088 24.1748 0 -145.007
-48.4049 23.5446 0 -126.333
-25.9887 51.3129 0 -128.938
-21.8395 40.5179 0 -147.821
-30.8387 30.0033 0 -157.168
-35.1836 33.7989 0 -128.806
-25.4546 50.777 0 -140.584
-26.9947 34.7496 0 -154.117
-38.767 30.0279 0 -146.354
-30.8409 39.2657 0 -145.694
-25.9887 51.3129 0 -128.938
-10.8264 117.041 0 -113.185
-16.0141 48.7455 0 -119.382
-21.8395 40.5179 0 -147.821
-18.1768 80.1113 0 -124.927
-14.7703 81.0805 0 -113.893
-17.6041 45.2401 0 -136.691
-25.4546 50.777 0 -140.584
-20.7256 64.4738 0 -129.969
-10.8264 117.041 0 -113.185
0.260456 183.804 0 -49.9961
-10.2363 57.5697 0 -65.9939
-16.0141 48.7455 0 -119.382
-3.9614 155.533 0 -88.8855
-3.31271 116.28 0 -62.0523
-14.3707 52.6518 0 -95.8756
-14.7703 81.0805 0 -113.893
-8.40762 99.7648 0 -91.6979
-1406.85 -421.794 0 554.722
-1372.26 -242.35 0 184.719
1324.21 216.723 0 181.596
1355.87 407.05 0 551.82
-1348.92 -333.602 0 350.109
-25.5222 -13.1049 0 207.663
1299.63 312.488 0 347.66
-27.243 -7.34378 0 564.761
-26.0971 -10.9885 0 390.657
-1372.26 -242.35 0 184.719
-1444.32 -153.662 0 -35.7711
1397.71 122.73 0 -41.2574
1324.21 216.723 0 181.596
-1428.06 -193.069 0 54.9653
-24.9451 -15.7643 0 -26.8751
1380.87 164.319 0 50.6569
-25.5222 -13.1049 0 207.663
-25.2652 -14.6086 0 63.2615
-1444.32 -153.662 0 -35.7711
-1448.88 -72.5506 0 -134.924
1403.11 38.5916 0 -142.984
1397.71 122.73 0 -41.2574
-1441.53 -108.86 0 -95.6944
-24.6039 -17.4819 0 -135.579
1395.33 76.2695 0 -102.438
-24.9451 -15.7643 0 -26.8751
-24.7024 -16.7094 0 -88.6521
-1448.88 -72.5506 0 -134.924
-1452.6 -35.1924 0 -169.522
1407.61 -1.21111 0 -179.992
1403.11 38.5916 0 -142.984
-1457.04 -50.5825 0 -158.29
-24.325 -18.6476 0 -177.583
1411.67 15.3528 0 -167.601
-24.6039 -17.4819 0 -135.579
-24.5108 -18.1096 0 -164.437
-1452.6 -35.1924 0 -169.522
-1436.98 -16.088 0 -172.238
1392.66 -22.2619 0 -184.855
1407.61 -1.21111 0 -179.992
-1442.92 -22.999 0 -172.859
-23.9958 -19.5869 0 -184.759
1398.28 -14.4518 0 -184.429
-24.325 -18.6476 0 -177.583
-24.138 -19.1483 0 -182.935
-1436.98 -16.088 0 -172.238
-1423.91 -12.9818 0 -164.901
1380.05 -26.7008 0 -179.48
1392.66 -22.2619 0 -184.855
-1431.85 -13.719 0 -169.21
-23.7331 -20.215 0 -178.554
1387.79 -25.3788 0 -182.822
-23.9958 -19.5869 0 -184.759
-23.8642 -19.9398 0 -182.874
-1423.91 -12.9818 0 -164.901
-1408.67 -13.1188 0 -155.734
1365.05 -27.2345 0 -172.246
1380.05 -26.7008 0 -179.48
-1415.29 -12.6066 0 -160.149
-23.5694 -20.5584 0 -169.764
1371.58 -27.4924 0 -175.691
-23.7331 -20.215 0 -178.554
-23.6313 -20.4237 0 -173.866
-1408.67 -13.1188 0 -155.734
-1397 -15.287 0 -148.248
1353.43 -25.1622 0 -166.718
1365.05 -27.2345 0 -172.246
-1402.97 -14.2427 0 -151.751
-23.5038 -20.6124 0 -162.334
1359.4 -26.2222 0 -169.237
-23.5694 -20.5584 0 -169.764
-23.5296 -20.6177 0 -165.885
-1397 -15.287 0 -148.248
-1386.28 -16.7754 0 -142.748
1342.66 -23.3299 0 -163.218
1353.43 -25.1622 0 -166.718
-1391.24 -16.0615 0 -145.236
-23.5031 -20.4511 0 -157.163
1347.65 -24.2626 0 -164.701
-23.5038 -20.6124 0 -162.334
-23.4959 -20.5553 0 -159.412
-1386.28 -16.7754 0 -142.748
-1377.32 -17.866 0 -138.971
1333.6 -21.5923 0 -161.467
1342.66 -23.3299 0 -163.218
-1381.77 -17.4178 0 -140.686
-23.5343 -20.13 0 -153.905
1338.1 -22.3942 0 -162.168
-23.5031 -20.4511 0 -157.163
-23.5176 -20.3065 0 -155.355
-1377.32 -17.866 0 -138.971
-1368.97 -18.2991 0 -136.348
1325.15 -20.323 0 -160.877
1333.6 -21.5923 0 -161.467
-1373.01 -18.1329 0 -137.54
-23.5721 -19.7106 0 -152.011
1329.24 -20.9254 0 -161.053
-23.5343 -20.13 0 -153.905
-23.5533 -19.9298 0 -152.809
-1368.97 -18.2991 0 -136.348
-1361.22 -18.3831 0 -134.469
1317.32 -19.2969 0 -161.016
1325.15 -20.323 0 -160.877
-1365.08 -18.3868 0 -135.34
-23.6003 -19.2334 0 -150.966
1321.21 -19.7735 0 -160.88
-23.5721 -19.7106 0 -152.011
-23.5883 -19.4771 0 -151.414
-1361.22 -18.3831 0 -134.469
-1353.67 -18.1927 0 -133.021
1309.73 -18.496 0 -161.56
1317.32 -19.2969 0 -161.016
-1357.41 -18.3092 0 -133.704
-23.6118 -18.7294 0 -150.424
1313.49 -18.8788 0 -161.251
-23.6003 -19.2334 0 -150.966
-23.6084 -18.9835 0 -150.646
-1353.67 -18.1927 0 -133.021
-1346.28 -17.8708 0 -131.821
1302.34 -17.8122 0 -162.319
1309.73 -18.496 0 -161.56
-1349.97 -18.0461 0 -132.399
-23.6042 -18.2165 0 -150.154
1306.03 -18.1401 0 -161.922
-23.6118 -18.7294 0 -150.424
-23.6104 -18.4733 0 -150.266
-1346.28 -17.8708 0 -131.821
-1338.93 -17.4703 0 -130.758
1295.02 -17.2122 0 -163.177
1302.34 -17.8122 0 -162.319
-1342.6 -17.6761 0 -131.277
-23.579 -17.7057 0 -150.029
1298.67 -17.5052 0 -162.74
-23.6042 -18.2165 0 -150.154
-23.5936 -17.9604 0 -150.079
-1338.93 -17.4703 0 -130.758
-1331.61 -17.0397 0 -129.772
1287.76 -16.6569 0 -164.072
1295.02 -17.2122 0 -163.177
-1335.27 -17.2577 0 -130.258
-23.5388 -17.202 0 -149.973
1291.39 -16.9296 0 -163.622
-23.579 -17.7057 0 -150.029
-23.5606 -17.4528 0 -149.995
-1331.61 -17.0397 0 -129.772
-1324.28 -16.5977 0 -128.832
1280.52 -16.1316 0 -164.974
1287.76 -16.6569 0 -164.072
-1327.94 -16.819 0 -129.297
-23.4871 -16.7077 0 -149.949
1284.14 -16.3916 0 -164.524
-23.5388 -17.202 0 -149.973
-23.5142 -16.9537 0 -149.958
-1324.28 -16.5977 0 -128.832
-1316.95 -16.1566 0 -127.921
1273.29 -15.6236 0 -165.868
1280.52 -16.1316 0 -164.974
-1320.62 -16.3768 0 -128.373
-23.4267 -16.2228 0 -149.938
1276.9 -15.8757 0 -165.423
-23.4871 -16.7077 0 -149.949
-23.4578 -16.4641 0 -149.943
-1316.95 -16.1566 0 -127.921
-1309.62 -15.7206 0 -127.033
1266.07 -15.1276 0 -166.746
1273.29 -15.6236 0 -165.868
-1313.29 -15.9378 0 -127.475
-23.3604 -15.7466 0 -149.932
1269.68 -15.3745 0 -166.309
-23.4267 -16.2228 0 -149.938
-23.3941 -15.9837 0 -149.935
-1309.62 -15.7206 0 -127.033
-1302.28 -15.2913 0 -126.164
1258.85 -14.6395 0 -167.607
1266.07 -15.1276 0 -166.746
-1305.95 -15.5051 0 -126.596
-23.29 -15.2781 0 -149.927
1262.46 -14.8827 0 -167.178
-23.3604 -15.7466 0 -149.932
-23.3256 -15.5115 0 -149.929
-1302.28 -15.2913 0 -126.164
-1294.94 -14.8686 0 -125.312
1251.63 -14.1573 0 -168.449
1258.85 -14.6395 0 -167.607
-1298.61 -15.0791 0 -125.736
-23.2173 -14.816 0 -149.922
1255.24 -14.3978 0 -168.03
-23.29 -15.2781 0 -149.927
-23.2539 -15.0463 0 -149.924
-1294.94 -14.8686 0 -125.312
-1287.6 -14.452 0 -124.476
1244.41 -13.6796 0 -169.274
1251.63 -14.1573 0 -168.449
-1291.27 -14.6595 0 -124.892
-23.1432 -14.3593 0 -149.915
1248.02 -13.918 0 -168.864
-23.2173 -14.816 0 -149.922
-23.1804 -14.587 0 -149.919
-1287.6 -14.452 0 -124.476
-1280.26 -14.0408 0 -123.656
1237.19 -13.2054 0 -170.082
1244.41 -13.6796 0 -169.274
-1283.93 -14.2457 0 -124.064
-23.0685 -13.9073 0 -149.909
1240.8 -13.4421 0 -169.68
-23.1432 -14.3593 0 -149.915
-23.1059 -14.1328 0 -149.912
-1280.26 -14.0408 0 -123.656
-1272.91 -13.6343 0 -122.853
1229.97 -12.7342 0 -170.872
1237.19 -13.2054 0 -170.082
-1276.58 -13.837 0 -123.253
-22.9937 -13.4593 0 -149.902
1233.58 -12.9694 0 -170.479
-23.0685 -13.9073 0 -149.909
-23.0311 -13.6828 0 -149.905
-1272.91 -13.6343 0 -122.853
-1265.56 -13.2321 0 -122.066
1222.75 -12.2655 0 -171.645
1229.97 -12.7342 0 -170.872
-1269.24 -13.4327 0 -122.457
-22.919 -13.0148 0 -149.894
1226.36 -12.4995 0 -171.261
-22.9937 -13.4593 0 -149.902
-22.9563 -13.2366 0 -149.898
-1265.56 -13.2321 0 -122.066
-1258.22 -12.8337 0 -121.294
1215.53 -11.7991 0 -172.402
1222.75 -12.2655 0 -171.645
-1261.89 -13.0324 0 -121.678
-22.8447 -12.5734 0 -149.886
1219.14 -12.032 0 -172.026
-22.919 -13.0148 0 -149.894
-22.8818 -12.7937 0 -149.89
-1258.22 -12.8337 0 -121.294
-1250.87 -12.4389 0 -120.538
1208.31 -11.335 0 -173.143
1215.53 -11.7991 0 -172.402
-1254.54 -12.6359 0 -120.914
-22.7708 -12.135 0 -149.878
1211.92 -11.5668 0 -172.775
-22.8447 -12.5734 0 -149.886
-22.8077 -12.3538 0 -149.882
-1250.87 -12.4389 0 -120.538
-1243.52 -12.0474 0 -119.798
1201.09 -10.8728 0 -173.867
1208.31 -11.335 0 -173.143
-1247.2 -12.2428 0 -120.166
-22.6974 -11.6993 0 -149.869
1204.7 -11.1036 0 -173.507
-22.7708 -12.135 0 -149.878
-22.7341 -11.9168 0 -149.873
-1243.52 -12.0474 0 -119.798
-1236.18 -11.6592 0 -119.073
1193.86 -10.4128 0 -174.576
1201.09 -10.8728 0 -173.867
-1239.85 -11.8529 0 -119.433
-22.6246 -11.2664 0 -149.86
1197.47 -10.6425 0 -174.224
-22.6974 -11.6993 0 -149.869
-22.6609 -11.4825 0 -149.864
-1236.18 -11.6592 0 -119.073
-1228.83 -11.2741 0 -118.364
1186.64 -9.95468 0 -175.268
1193.86 -10.4128 0 -174.576
-1232.5 -11.4663 0 -118.716
-22.5522 -10.836 0 -149.851
1190.25 -10.1835 0 -174.924
-22.6246 -11.2664 0 -149.86
-22.5883 -11.0509 0 -149.855
-1228.83 -11.2741 0 -118.364
-1221.48 -10.892 0 -117.67
1179.41 -9.49864 0 -175.945
1186.64 -9.95468 0 -175.268
-1225.16 -11.0827 0 -118.015
-22.4803 -10.4083 0 -149.842
1183.02 -9.72641 0 -175.609
-22.5522 -10.836 0 -149.851
-22.5162 -10.6218 0 -149.846
-1221.48 -10.892 0 -117.67
-1214.14 -10.513 0 -116.991
1172.18 -9.04466 0 -176.606
1179.41 -9.49864 0 -175.945
-1217.81 -10.7021 0 -117.328
-22.4088 -9.98309 0 -149.832
1175.8 -9.2714 0 -176.277
-22.4803 -10.4083 0 -149.842
-22.4445 -10.1954 0 -149.837
-1214.14 -10.513 0 -116.991
-1206.79 -10.1368 0 -116.327
1164.96 -8.59278 0 -177.251
1172.18 -9.04466 0 -176.606
-1210.46 -10.3245 0 -116.657
-22.3378 -9.56049 0 -149.822
1168.57 -8.81846 0 -176.93
-22.4088 -9.98309 0 -149.832
-22.3733 -9.77147 0 -149.827
-1206.79 -10.1368 0 -116.327
-1199.44 -9.7636 0 -115.679
1157.73 -8.14302 0 -177.881
1164.96 -8.59278 0 -177.251
-1203.11 -9.94985 0 -116.001
-22.2673 -9.14046 0 -149.812
1161.34 -8.36763 0 -177.568
-22.3378 -9.56049 0 -149.822
-22.3025 -9.35015 0 -149.817
-1199.44 -9.7636 0 -115.679
-1192.1 -9.39324 0 -115.045
1150.5 -7.69544 0 -178.495
1157.73 -8.14302 0 -177.881
-1195.77 -9.57806 0 -115.36
-22.1972 -8.723 0 -149.802
1154.11 -7.91896 0 -178.19
-22.2673 -9.14046 0 -149.812
-22.2322 -8.93141 0 -149.807
-1192.1 -9.39324 0 -115.045
-1184.75 -9.02572 0 -114.427
1143.27 -7.25008 0 -179.094
1150.5 -7.69544 0 -178.495
-1188.42 -9.20913 0 -114.734
-22.1275 -8.30813 0 -149.792
1146.89 -7.47248 0 -178.797
-22.1972 -8.723 0 -149.802
-22.1623 -8.51524 0 -149.797
-1184.75 -9.02572 0 -114.427
-1177.4 -8.66101 0 -113.823
1136.04 -6.80696 0 -179.678
1143.27 -7.25008 0 -179.094
-1181.08 -8.84302 0 -114.123
-22.0583 -7.89583 0 -149.781
1139.66 -7.02824 0 -179.388
-22.1275 -8.30813 0 -149.792
-22.0929 -8.10166 0 -149.786
-1177.4 -8.66101 0 -113.823
-1170.06 -8.29906 0 -113.234
1128.81 -6.36614 0 -180.246
1136.04 -6.80696 0 -179.678
-1173.73 -8.47969 0 -113.527
-21.9895 -7.48612 0 -149.77
1132.43 -6.58627 0 -179.964
-22.0583 -7.89583 0 -149.781
-22.0238 -7.69065 0 -149.776
-1170.06 -8.29906 0 -113.234
-1162.71 -7.93986 0 -112.66
1121.58 -5.92766 0 -180.8
1128.81 -6.36614 0 -180.246
-1166.38 -8.11912 0 -112.945
-21.9211 -7.079 0 -149.759
1125.2 -6.14661 0 -180.525
-21.9895 -7.48612 0 -149.77
-21.9552 -7.28224 0 -149.765
-1162.71 -7.93986 0 -112.66
-1155.37 -7.58336 0 -112.1
1114.35 -5.49154 0 -181.338
1121.58 -5.92766 0 -180.8
-1159.04 -7.76127 0 -112.378
-21.8531 -6.67446 0 -149.748
1117.97 -5.7093 0 -181.071
-21.9211 -7.079 0 -149.759
-21.887 -6.87641 0 -149.754
-1155.37 -7.58336 0 -112.1
-1148.02 -7.22954 0 -111.555
1107.12 -5.05782 0 -181.862
1114.35 -5.49154 0 -181.338
-1151.69 -7.40612 0 -111.825
-21.7855 -6.27252 0 -149.737
1110.73 -5.27437 0 -181.602
-21.8531 -6.67446 0 -149.748
-21.8192 -6.47317 0 -149.742
-1148.02 -7.22954 0 -111.555
-1140.68 -6.87835 0 -111.024
1099.89 -4.62654 0 -182.371
1107.12 -5.05782 0 -181.862
-1144.35 -7.05362 0 -111.287
-21.7183 -5.87317 0 -149.725
1103.5 -4.84187 0 -182.118
-21.7855 -6.27252 0 -149.737
-21.7519 -6.07252 0 -149.731
-1140.68 -6.87835 0 -111.024
-1133.33 -6.52978 0 -110.507
1092.66 -4.19773 0 -182.865
1099.89 -4.62654 0 -182.371
-1137 -6.70374 0 -110.764
-21.6516 -5.47641 0 -149.714
1096.27 -4.41182 0 -182.62
-21.7183 -5.87317 0 -149.725
-21.6849 -5.67447 0 -149.719
-1133.33 -6.52978 0 -110.507
-1125.99 -6.18378 0 -110.005
1085.42 -3.77143 0 -183.345
1092.66 -4.19773 0 -182.865
-1129.66 -6.35646 0 -110.254
-21.5853 -5.08225 0 -149.702
1089.04 -3.98426 0 -183.107
-21.6516 -5.47641 0 -149.714
-21.6184 -5.27901 0 -149.708
-1125.99 -6.18378 0 -110.005
-1118.65 -5.84033 0 -109.516
1078.19 -3.34766 0 -183.811
1085.42 -3.77143 0 -183.345
-1122.32 -6.01174 0 -109.759
-21.5193 -4.69068 0 -149.69
1081.81 -3.55922 0 -183.58
-21.5853 -5.08225 0 -149.702
-21.5522 -4.88614 0 -149.696
-1118.65 -5.84033 0 -109.516
-1111.3 -5.4994 0 -109.042
1070.96 -2.92646 0 -184.262
1078.19 -3.34766 0 -183.811
-1114.97 -5.66956 0 -109.277
-21.4538 -4.30171 0 -149.678
1074.58 -3.13674 0 -184.038
-21.5193 -4.69068 0 -149.69
-21.4865 -4.49587 0 -149.684
-1111.3 -5.4994 0 -109.042
-1103.96 -5.16096 0 -108.582
1063.73 -2.50786 0 -184.698
1070.96 -2.92646 0 -184.262
-1107.63 -5.32987 0 -108.81
-21.3887 -3.91533 0 -149.665
1067.34 -2.71683 0 -184.482
-21.4538 -4.30171 0 -149.678
-21.4212 -4.1082 0 -149.671
-1103.96 -5.16096 0 -108.582
-1096.62 -4.82497 0 -108.135
1056.49 -2.09188 0 -185.121
1063.73 -2.50786 0 -184.698
-1100.29 -4.99266 0 -108.357
-21.3241 -3.53155 0 -149.653
1060.11 -2.29954 0 -184.911
-21.3887 -3.91533 0 -149.665
-21.3563 -3.72311 0 -149.659
-1096.62 -4.82497 0 -108.135
-1089.28 -4.4914 0 -107.702
1049.26 -1.67856 0 -185.529
1056.49 -2.09188 0 -185.121
-1092.95 -4.65788 0 -107.917
-21.2598 -3.15036 0 -149.64
1052.88 -1.88489 0 -185.327
-21.3241 -3.53155 0 -149.653
-21.2919 -3.34063 0 -149.647
-1089.28 -4.4914 0 -107.702
-1081.94 -4.16024 0 -107.283
1042.03 -1.26793 0 -185.924
1049.26 -1.67856 0 -185.529
-1085.61 -4.32553 0 -107.491
-21.1959 -2.77176 0 -149.628
1045.65 -1.47291 0 -185.728
-21.2598 -3.15036 0 -149.64
-21.2278 -2.96073 0 -149.634
-1081.94 -4.16024 0 -107.283
-1074.6 -3.83145 0 -106.878
1034.8 -0.860004 0 -186.305
1042.03 -1.26793 0 -185.924
-1078.27 -3.99555 0 -107.079
-21.1325 -2.39576 0 -149.615
1038.41 -1.06362 0 -186.116
-21.1959 -2.77176 0 -149.628
-21.1642 -2.58344 0 -149.621
-1074.6 -3.83145 0 -106.878
-1067.26 -3.505 0 -106.486
1027.56 -0.454822 0 -186.672
1034.8 -0.860004 0 -186.305
-1070.93 -3.66794 0 -106.68
-21.0695 -2.02235 0 -149.602
1031.18 -0.657069 0 -186.49
-21.1325 -2.39576 0 -149.615
-21.1009 -2.20873 0 -149.608
-1067.26 -3.505 0 -106.486
-1059.92 -3.18087 0 -106.107
1020.33 -0.052405 0 -187.025
1027.56 -0.454822 0 -186.672
-1063.59 -3.34265 0 -106.295
-21.0069 -1.65154 0 -149.589
1023.95 -0.253266 0 -186.85
-21.0695 -2.02235 0 -149.602
-21.0381 -1.83662 0 -149.595
-1059.92 -3.18087 0 -106.107
-1052.58 -2.85903 0 -105.742
1013.1 0.34722 0 -187.365
1020.33 -0.052405 0 -187.025
-1056.25 -3.01967 0 -105.923
-20.9447 -1.28332 0 -149.575
1016.71 0.147758 0 -187.197
-21.0069 -1.65154 0 -149.589
-20.9757 -1.46711 0 -149.582
-1052.58 -2.85903 0 -105.742
-1045.25 -2.53946 0 -105.389
1005.87 0.744027 0 -187.691
1013.1 0.34722 0 -187.365
-1048.92 -2.69896 0 -105.564
-20.8829 -0.917697 0 -149.562
1009.48 0.545977 0 -187.53
-20.9447 -1.28332 0 -149.575
-20.9137 -1.10019 0 -149.569
-1045.25 -2.53946 0 -105.389
-1037.91 -2.22212 0 -105.05
998.634 1.13799 0 -188.004
1005.87 0.744027 0 -187.691
-1041.58 -2.38051 0 -105.218
-20.8215 -0.554667 0 -149.549
1002.25 0.941366 0 -187.849
-20.8829 -0.917697 0 -149.562
-20.8522 -0.735858 0 -149.555
-1037.91 -2.22212 0 -105.05
-1030.58 -1.90701 0 -104.724
991.402 1.52909 0 -188.304
998.634 1.13799 0 -188.004
-1034.25 -2.06429 0 -104.886
-20.7606 -0.19423 0 -149.535
995.018 1.3339 0 -188.156
-20.8215 -0.554667 0 -149.549
-20.791 -0.374124 0 -149.542
-1030.58 -1.90701 0 -104.724
-1023.24 -1.59408 0 -104.411
984.17 1.9173 0 -188.59
991.402 1.52909 0 -188.304
-1026.91 -1.75027 0 -104.566
-20.7001 0.163614 0 -149.521
987.786 1.72356 0 -188.449
-20.7606 -0.19423 0 -149.535
-20.7303 -0.0149837 0 -149.528
-1023.24 -1.59408 0 -104.411
-1015.91 -1.28332 0 -104.111
976.938 2.30259 0 -188.864
984.17 1.9173 0 -188.59
-1019.58 -1.43843 0 -104.26
-20.64 0.518864 0 -149.508
980.554 2.11031 0 -188.729
-20.7001 0.163614 0 -149.521
-20.67 0.341563 0 -149.515
-1015.91 -1.28332 0 -104.111
-1008.58 -0.974708 0 -103.824
969.706 2.68495 0 -189.125
976.938 2.30259 0 -188.864
-1012.24 -1.12875 0 -103.966
-20.5802 0.871522 0 -149.494
973.322 2.49414 0 -188.996
-20.64 0.518864 0 -149.508
-20.61 0.695517 0 -149.501
-1008.58 -0.974708 0 -103.824
-1001.25 -0.668219 0 -103.549
962.475 3.06435 0 -189.372
969.706 2.68495 0 -189.125
-1004.91 -0.821199 0 -103.685
-20.521 1.22159 0 -149.48
966.091 2.87502 0 -189.25
-20.5802 0.871522 0 -149.494
-20.5506 1.04688 0 -149.487
-1001.25 -0.668219 0 -103.549
-993.917 -0.36383 0 -103.287
955.244 3.44078 0 -189.607
962.475 3.06435 0 -189.372
-997.582 -0.515763 0 -103.416
-20.4621 1.56906 0 -149.466
958.86 3.25294 0 -189.491
-20.521 1.22159 0 -149.48
-20.4915 1.39565 0 -149.473
-993.917 -0.36383 0 -103.287
-986.588 -0.0615221 0 -103.037
948.013 3.8142 0 -189.83
955.244 3.44078 0 -189.607
-990.253 -0.212417 0 -103.16
-20.4036 1.91394 0 -149.452
951.629 3.62787 0 -189.72
-20.4621 1.56906 0 -149.466
-20.4328 1.74182 0 -149.459
-986.588 -0.0615221 0 -103.037
-979.26 0.238727 0 -102.8
940.783 4.18461 0 -190.039
948.013 3.8142 0 -189.83
-982.924 0.0888585 0 -102.917
-20.3456 2.25623 0 -149.438
944.398 3.99978 0 -189.936
-20.4036 1.91394 0 -149.452
-20.3746 2.08541 0 -149.445
-979.26 0.238727 0 -102.8
-971.933 0.536936 0 -102.574
933.553 4.55197 0 -190.237
940.783 4.18461 0 -190.039
-975.596 0.388085 0 -102.685
-20.288 2.59592 0 -149.424
937.168 4.36867 0 -190.139
-20.3456 2.25623 0 -149.438
-20.3167 2.4264 0 -149.431
-971.933 0.536936 0 -102.574
-964.607 0.833127 0 -102.362
926.323 4.91627 0 -190.421
933.553 4.55197 0 -190.237
-968.27 0.685283 0 -102.467
-20.2308 2.93303 0 -149.409
929.938 4.73451 0 -190.331
-20.288 2.59592 0 -149.424
-20.2593 2.7648 0 -149.417
-964.607 0.833127 0 -102.362
-957.282 1.12732 0 -102.161
919.094 5.2775 0 -190.594
926.323 4.91627 0 -190.421
-960.944 0.98047 0 -102.26
-20.174 3.26754 0 -149.395
922.709 5.09727 0 -190.509
-20.2308 2.93303 0 -149.409
-20.2023 3.10061 0 -149.402
-957.282 1.12732 0 -102.161
-949.958 1.41952 0 -101.972
911.865 5.63564 0 -190.755
919.094 5.2775 0 -190.594
-953.62 1.27367 0 -102.065
-20.1176 3.59946 0 -149.381
915.48 5.45696 0 -190.676
-20.174 3.26754 0 -149.395
-20.1458 3.43382 0 -149.388
-949.958 1.41952 0 -101.972
-942.635 1.70977 0 -101.795
904.637 5.99066 0 -190.903
911.865 5.63564 0 -190.755
-946.296 1.56489 0 -101.882
-20.0617 3.92879 0 -149.366
908.251 5.81354 0 -190.83
-20.1176 3.59946 0 -149.381
-20.0896 3.76445 0 -149.373
-942.635 1.70977 0 -101.795
-935.313 1.99807 0 -101.63
897.409 6.34255 0 -191.04
904.637 5.99066 0 -190.903
-938.974 1.85416 0 -101.711
-20.0062 4.25553 0 -149.352
901.023 6.16699 0 -190.973
-20.0617 3.92879 0 -149.366
-20.0339 4.09249 0 -149.359
-935.313 1.99807 0 -101.63
-927.993 2.28444 0 -101.477
890.181 6.69129 0 -191.164
897.409 6.34255 0 -191.04
-931.653 2.14149 0 -101.552
-19.951 4.57969 0 -149.337
893.795 6.51731 0 -191.103
-20.0062 4.25553 0 -149.352
-19.9785 4.41793 0 -149.344
-927.993 2.28444 0 -101.477
-920.673 2.56889 0 -101.336
882.954 7.03687 0 -191.277
890.181 6.69129 0 -191.164
-924.333 2.4269 0 -101.405
-19.8963 4.90125 0 -149.323
886.568 6.86448 0 -191.222
-19.951 4.57969 0 -149.337
-19.9236 4.74079 0 -149.33
-920.673 2.56889 0 -101.336
-913.355 2.85146 0 -101.206
875.727 7.37928 0 -191.378
882.954 7.03687 0 -191.277
-917.014 2.71041 0 -101.269
-19.8421 5.22022 0 -149.308
879.341 7.20847 0 -191.329
-19.8963 4.90125 0 -149.323
-19.8692 5.06106 0 -149.315
-913.355 2.85146 0 -101.206
-906.038 3.13214 0 -101.087
868.501 7.71849 0 -191.468
875.727 7.37928 0 -191.378
-909.697 2.99203 0 -101.145
-19.7882 5.53661 0 -149.293
872.114 7.54928 0 -191.425
-19.8421 5.22022 0 -149.308
-19.8151 5.37874 0 -149.301
-906.038 3.13214 0 -101.087
-898.723 3.41095 0 -100.98
861.276 8.05449 0 -191.546
868.501 7.71849 0 -191.468
-902.38 3.27178 0 -101.032
-19.7348 5.8504 0 -149.279
864.888 7.88689 0 -191.508
-19.7882 5.53661 0 -149.293
-19.7614 5.69383 0 -149.286
-898.723 3.41095 0 -100.98
-891.408 3.68792 0 -100.885
854.051 8.38728 0 -191.613
861.276 8.05449 0 -191.546
-895.065 3.54967 0 -100.931
-19.6818 6.16161 0 -149.264
857.663 8.22129 0 -191.581
-19.7348 5.8504 0 -149.279
-19.7082 6.00633 0 -149.271
-891.408 3.68792 0 -100.885
-884.095 3.96305 0 -100.8
846.826 8.71682 0 -191.668
854.051 8.38728 0 -191.613
-887.751 3.82571 0 -100.841
-19.6292 6.47023 0 -149.249
850.438 8.55246 0 -191.642
-19.6818 6.16161 0 -149.264
-19.6554 6.31624 0 -149.256
-884.095 3.96305 0 -100.8
-876.783 4.23635 0 -100.727
839.602 9.04313 0 -191.713
846.826 8.71682 0 -191.668
-880.439 4.09993 0 -100.762
-19.577 6.77626 0 -149.234
843.214 8.88038 0 -191.692
-19.6292 6.47023 0 -149.249
-19.603 6.62357 0 -149.242
-876.783 4.23635 0 -100.727
-869.472 4.50785 0 -100.664
832.379 9.36617 0 -191.746
839.602 9.04313 0 -191.713
-873.127 4.37233 0 -100.694
-19.5252 7.07971 0 -149.22
835.99 9.20506 0 -191.731
-19.577 6.77626 0 -149.234
-19.551 6.92831 0 -149.227
-869.472 4.50785 0 -100.664
-862.163 4.77755 0 -100.613
825.156 9.68594 0 -191.768
832.379 9.36617 0 -191.746
-865.817 4.64292 0 -100.637
-19.4739 7.38057 0 -149.205
828.767 9.52646 0 -191.759
-19.5252 7.07971 0 -149.22
-19.4995 7.23046 0 -149.212
-862.163 4.77755 0 -100.613
-854.854 5.04546 0 -100.572
817.933 10.0024 0 -191.78
825.156 9.68594 0 -191.768
-858.508 4.91173 0 -100.591
-19.423 7.67884 0 -149.19
821.545 9.84459 0 -191.776
-19.4739 7.38057 0 -149.205
-19.4484 7.53002 0 -149.197
-854.854 5.04546 0 -100.572
-847.548 5.3116 0 -100.542
810.712 10.3156 0 -191.781
817.933 10.0024 0 -191.78
-851.201 5.17875 0 -100.556
-19.3725 7.97453 0 -149.175
814.323 10.1594 0 -191.782
-19.423 7.67884 0 -149.19
-19.3977 7.82701 0 -149.183
-847.548 5.3116 0 -100.542
-840.242 5.57599 0 -100.523
803.491 10.6255 0 -191.771
810.712 10.3156 0 -191.781
-843.895 5.44402 0 -100.531
-19.3224 8.26763 0 -149.16
807.101 10.471 0 -191.777
-19.3725 7.97453 0 -149.175
-19.3474 8.1214 0 -149.168
-840.242 5.57599 0 -100.523
-832.938 5.83862 0 -100.514
796.27 10.9321 0 -191.75
803.491 10.6255 0 -191.771
-836.59 5.70752 0 -100.517
-19.2727 8.55814 0 -149.145
799.881 10.7792 0 -191.762
-19.3224 8.26763 0 -149.16
-19.2975 8.41321 0 -149.153
-832.938 5.83862 0 -100.514
-825.635 6.09951 0 -100.516
789.051 11.2353 0 -191.719
796.27 10.9321 0 -191.75
-829.286 5.96928 0 -100.514
-19.2235 8.84608 0 -149.131
792.66 11.0841 0 -191.736
-19.2727 8.55814 0 -149.145
-19.2481 8.70243 0 -149.138
-825.635 6.09951 0 -100.516
-818.333 6.35867 0 -100.528
781.832 11.5352 0 -191.677
789.051 11.2353 0 -191.719
-821.984 6.2293 0 -100.521
-19.1747 9.13143 0 -149.116
785.441 11.3857 0 -191.7
-19.2235 8.84608 0 -149.131
-19.199 8.98908 0 -149.123
-818.333 6.35867 0 -100.528
-811.033 6.61611 0 -100.551
774.613 11.8318 0 -191.626
781.832 11.5352 0 -191.677
-814.683 6.4876 0 -100.538
-19.1263 9.41419 0 -149.101
778.222 11.6839 0 -191.653
-19.1747 9.13143 0 -149.116
-19.1504 9.27313 0 -149.108
-811.033 6.61611 0 -100.551
-803.734 6.87184 0 -100.583
767.395 12.125 0 -191.564
774.613 11.8318 0 -191.626
-807.384 6.74419 0 -100.566
-19.0783 9.69437 0 -149.086
771.004 11.9788 0 -191.596
-19.1263 9.41419 0 -149.101
-19.1023 9.55461 0 -149.094
-803.734 6.87184 0 -100.583
-796.437 7.12587 0 -100.626
760.178 12.4149 0 -191.492
767.395 12.125 0 -191.564
-800.086 6.99907 0 -100.604
-19.0308 9.97197 0 -149.072
763.787 12.2704 0 -191.529
-19.0783 9.69437 0 -149.086
-19.0545 9.8335 0 -149.079
-796.437 7.12587 0 -100.626
-789.141 7.3782 0 -100.679
752.962 12.7014 0 -191.41
760.178 12.4149 0 -191.492
-792.789 7.25225 0 -100.651
-18.9837 10.247 0 -149.057
756.57 12.5586 0 -191.452
-19.0308 9.97197 0 -149.072
-19.0072 10.1098 0 -149.064
-789.141 7.3782 0 -100.679
-781.846 7.62885 0 -100.742
745.746 12.9845 0 -191.318
752.962 12.7014 0 -191.41
-785.494 7.50374 0 -100.709
-18.937 10.5194 0 -149.042
749.354 12.8434 0 -191.365
-18.9837 10.247 0 -149.057
-18.9603 10.3835 0 -149.049
-781.846 7.62885 0 -100.742
-774.553 7.87782 0 -100.814
738.531 13.2643 0 -191.216
745.746 12.9845 0 -191.318
-778.2 7.75354 0 -100.777
-18.8907 10.7893 0 -149.027
742.138 13.1248 0 -191.268
-18.937 10.5194 0 -149.042
-18.9138 10.6547 0 -149.035
-774.553 7.87782 0 -100.814
-767.261 8.12512 0 -100.897
731.316 13.5406 0 -191.105
738.531 13.2643 0 -191.216
-770.907 8.00168 0 -100.854
-18.8449 11.0566 0 -149.013
734.923 13.4029 0 -191.162
-18.8907 10.7893 0 -149.027
-18.8677 10.9232 0 -149.02
-767.261 8.12512 0 -100.897
-759.971 8.37075 0 -100.989
724.103 13.8136 0 -190.984
731.316 13.5406 0 -191.105
-763.616 8.24814 0 -100.942
-18.7994 11.3213 0 -148.998
727.709 13.6775 0 -191.046
-18.8449 11.0566 0 -149.013
-18.8221 11.1892 0 -149.005
-759.971 8.37075 0 -100.989
-752.682 8.61472 0 -101.09
716.89 14.0832 0 -190.854
724.103 13.8136 0 -190.984
-756.326 8.49294 0 -101.038
-18.7544 11.5834 0 -148.983
720.496 13.9488 0 -190.92
-18.7994 11.3213 0 -148.998
-18.7769 11.4526 0 -148.991
-752.682 8.61472 0 -101.09
-745.394 8.85704 0 -101.201
709.677 14.3493 0 -190.714
716.89 14.0832 0 -190.854
-749.038 8.73609 0 -101.145
-18.7099 11.8429 0 -148.969
713.283 14.2167 0 -190.785
-18.7544 11.5834 0 -148.983
-18.7321 11.7135 0 -148.976
-745.394 8.85704 0 -101.201
-738.108 9.09772 0 -101.322
702.466 14.6121 0 -190.565
709.677 14.3493 0 -190.714
-741.751 8.97759 0 -101.26
-18.6657 12.0999 0 -148.954
706.071 14.4811 0 -190.64
-18.7099 11.8429 0 -148.969
-18.6877 11.9717 0 -148.962
-738.108 9.09772 0 -101.322
-730.823 9.33675 0 -101.451
695.255 14.8715 0 -190.406
702.466 14.6121 0 -190.565
-734.466 9.21744 0 -101.385
-18.622 12.3542 0 -148.94
698.86 14.7422 0 -190.487
-18.6657 12.0999 0 -148.954
-18.6438 12.2274 0 -148.947
-730.823 9.33675 0 -101.451
-723.54 9.57414 0 -101.59
688.045 15.1274 0 -190.239
695.255 14.8715 0 -190.406
-727.182 9.45565 0 -101.52
-18.5787 12.606 0 -148.926
691.65 14.9999 0 -190.324
-18.622 12.3542 0 -148.94
-18.6003 12.4805 0 -148.933
-723.54 9.57414 0 -101.59
-716.258 9.8099 0 -101.738
680.835 15.3799 0 -190.062
688.045 15.1274 0 -190.239
-719.899 9.69222 0 -101.663
-18.5358 12.8553 0 -148.911
684.44 15.2541 0 -190.152
-18.5787 12.606 0 -148.926
-18.5572 12.731 0 -148.918
-716.258 9.8099 0 -101.738
-708.978 10.044 0 -101.895
673.627 15.629 0 -189.877
680.835 15.3799 0 -190.062
-712.618 9.92717 0 -101.816
-18.4934 13.1019 0 -148.897
677.231 15.5049 0 -189.971
-18.5358 12.8553 0 -148.911
-18.5146 12.9789 0 -148.904
-708.978 10.044 0 -101.895
-701.699 10.2765 0 -102.061
666.419 15.8747 0 -189.683
673.627 15.629 0 -189.877
-705.338 10.1605 0 -101.977
-18.4514 13.346 0 -148.883
670.023 15.7523 0 -189.781
-18.4934 13.1019 0 -148.897
-18.4723 13.2243 0 -148.89
-701.699 10.2765 0 -102.061
-694.422 10.5074 0 -102.236
659.212 16.117 0 -189.48
666.419 15.8747 0 -189.683
-698.06 10.3922 0 -102.147
-18.4098 13.5875 0 -148.868
662.815 15.9963 0 -189.582
-18.4514 13.346 0 -148.883
-18.4305 13.4671 0 -148.875
-694.422 10.5074 0 -102.236
-687.146 10.7367 0 -102.419
652.005 16.3558 0 -189.268
659.212 16.117 0 -189.48
-690.783 10.6222 0 -102.327
-18.3686 13.8264 0 -148.854
655.608 16.2368 0 -189.375
-18.4098 13.5875 0 -148.868
-18.3892 13.7073 0 -148.861
-687.146 10.7367 0 -102.419
-679.871 10.9643 0 -102.612
644.799 16.5912 0 -189.048
652.005 16.3558 0 -189.268
-683.508 10.8507 0 -102.514
-18.3279 14.0627 0 -148.84
648.402 16.474 0 -189.159
-18.3686 13.8264 0 -148.854
-18.3482 13.9449 0 -148.847
-679.871 10.9643 0 -102.612
-672.598 11.1903 0 -102.812
637.594 16.8232 0 -188.82
644.799 16.5912 0 -189.048
-676.234 11.0775 0 -102.711
-18.2876 14.2965 0 -148.826
641.197 16.7077 0 -188.935
-18.3279 14.0627 0 -148.84
-18.3077 14.18 0 -148.833
-672.598 11.1903 0 -102.812
-665.326 11.4147 0 -103.021
630.39 17.0518 0 -188.583
637.594 16.8232 0 -188.82
-668.962 11.3027 0 -102.916
-18.2477 14.5277 0 -148.812
633.992 16.9379 0 -188.702
-18.2876 14.2965 0 -148.826
-18.2676 14.4124 0 -148.819
-665.326 11.4147 0 -103.021
-658.056 11.6375 0 -103.239
623.186 17.2769 0 -188.338
630.39 17.0518 0 -188.583
-661.691 11.5263 0 -103.129
-18.2083 14.7563 0 -148.798
626.788 17.1648 0 -188.461
-18.2477 14.5277 0 -148.812
-18.228 14.6423 0 -148.805
-658.056 11.6375 0 -103.239
-650.787 11.8587 0 -103.465
615.984 17.4986 0 -188.084
623.186 17.2769 0 -188.338
-654.421 11.7483 0 -103.351
-18.1693 14.9824 0 -148.785
619.585 17.3882 0 -188.212
-18.2083 14.7563 0 -148.798
-18.1887 14.8697 0 -148.792
-650.787 11.8587 0 -103.465
-643.52 12.0783 0 -103.699
608.781 17.7169 0 -187.823
615.984 17.4986 0 -188.084
-647.153 11.9687 0 -103.581
-18.1307 15.2059 0 -148.771
612.382 17.6082 0 -187.955
-18.1693 14.9824 0 -148.785
-18.1499 15.0945 0 -148.778
-643.52 12.0783 0 -103.699
-636.254 12.2962 0 -103.941
601.58 17.9317 0 -187.554
608.781 17.7169 0 -187.823
-639.887 12.1875 0 -103.819
-18.0925 15.4268 0 -148.757
605.181 17.8247 0 -187.69
-18.1307 15.2059 0 -148.771
-18.1116 15.3166 0 -148.764
-636.254 12.2962 0 -103.941
-628.989 12.5126 0 -104.191
594.379 18.1431 0 -187.277
601.58 17.9317 0 -187.554
-632.621 12.4046 0 -104.065
-18.0548 15.6451 0 -148.744
597.98 18.0379 0 -187.416
-18.0925 15.4268 0 -148.757
-18.0736 15.5363 0 -148.751
-628.989 12.5126 0 -104.191
-621.726 12.7273 0 -104.449
587.179 18.3511 0 -186.992
594.379 18.1431 0 -187.277
-625.358 12.6201 0 -104.319
-18.0175 15.8609 0 -148.73
590.779 18.2476 0 -187.135
-18.0548 15.6451 0 -148.744
-18.0361 15.7533 0 -148.737
-621.726 12.7273 0 -104.449
-614.465 12.9404 0 -104.715
579.98 18.5557 0 -186.7
587.179 18.3511 0 -186.992
-618.095 12.8341 0 -104.581
-17.9807 16.0741 0 -148.717
583.58 18.4538 0 -186.847
-18.0175 15.8609 0 -148.73
-17.999 15.9678 0 -148.724
-614.465 12.9404 0 -104.715
-607.205 13.1519 0 -104.989
572.782 18.7569 0 -186.4
579.98 18.5557 0 -186.7
-610.835 13.0464 0 -104.851
-17.9442 16.2847 0 -148.704
576.381 18.6567 0 -186.551
-17.9807 16.0741 0 -148.717
-17.9624 16.1797 0 -148.71
-607.205 13.1519 0 -104.989
-599.946 13.3618 0 -105.27
565.584 18.9546 0 -186.092
572.782 18.7569 0 -186.4
-603.575 13.2571 0 -105.129
-17.9082 16.4928 0 -148.691
569.183 18.8561 0 -186.247
-17.9442 16.2847 0 -148.704
-17.9262 16.3891 0 -148.697
-599.946 13.3618 0 -105.27
-592.689 13.5701 0 -105.559
558.387 19.1489 0 -185.777
565.584 18.9546 0 -186.092
-596.317 13.4662 0 -105.414
-17.8727 16.6983 0 -148.678
561.985 19.0522 0 -185.936
-17.9082 16.4928 0 -148.691
-17.8904 16.5958 0 -148.684
-592.689 13.5701 0 -105.559
-585.433 13.7767 0 -105.855
551.19 19.3398 0 -185.455
558.387 19.1489 0 -185.777
-589.061 13.6736 0 -105.706
-17.8375 16.9012 0 -148.665
554.789 19.2448 0 -185.617
-17.8727 16.6983 0 -148.678
-17.8551 16.8 0 -148.671
-585.433 13.7767 0 -105.855
-578.179 13.9818 0 -106.159
543.995 19.5273 0 -185.126
551.19 19.3398 0 -185.455
-581.806 13.8795 0 -106.006
-17.8028 17.1015 0 -148.652
547.593 19.434 0 -185.291
-17.8375 16.9012 0 -148.665
-17.8201 17.0017 0 -148.658
-578.179 13.9818 0 -106.159
-570.926 14.1852 0 -106.47
536.8 19.7114 0 -184.789
543.995 19.5273 0 -185.126
-574.552 14.0837 0 -106.314
-17.7686 17.2993 0 -148.639
540.397 19.6198 0 -184.959
-17.8028 17.1015 0 -148.652
-17.7857 17.2007 0 -148.645
-570.926 14.1852 0 -106.47
-563.674 14.3869 0 -106.788
529.606 19.8921 0 -184.446
536.8 19.7114 0 -184.789
-567.3 14.2863 0 -106.628
-17.7347 17.4945 0 -148.626
533.203 19.8022 0 -184.619
-17.7686 17.2993 0 -148.639
-17.7516 17.3972 0 -148.633
-563.674 14.3869 0 -106.788
-556.424 14.5871 0 -107.113
522.412 20.0694 0 -184.096
529.606 19.8921 0 -184.446
-560.049 14.4872 0 -106.95
-17.7013 17.6872 0 -148.614
526.009 19.9812 0 -184.272
-17.7347 17.4945 0 -148.626
-17.718 17.5912 0 -148.62
-556.424 14.5871 0 -107.113
-549.175 14.7856 0 -107.446
515.219 20.2433 0 -183.739
522.412 20.0694 0 -184.096
-552.799 14.6865 0 -107.279
-17.6684 17.8773 0 -148.601
518.815 20.1568 0 -183.918
-17.7013 17.6872 0 -148.614
-17.6848 17.7826 0 -148.608
-549.175 14.7856 0 -107.446
-541.928 14.9824 0 -107.785
508.027 20.4138 0 -183.375
515.219 20.2433 0 -183.739
-545.551 14.8842 0 -107.614
-17.6358 18.0648 0 -148.589
511.623 20.329 0 -183.558
-17.6684 17.8773 0 -148.601
-17.652 17.9714 0 -148.595
-541.928 14.9824 0 -107.785
-534.682 15.1777 0 -108.131
500.835 20.581 0 -183.005
508.027 20.4138 0 -183.375
-538.305 15.0803 0 -107.957
-17.6037 18.2498 0 -148.577
504.431 20.4978 0 -183.191
-17.6358 18.0648 0 -148.589
-17.6197 18.1576 0 -148.583
-534.682 15.1777 0 -108.131
-527.437 15.3712 0 -108.484
493.644 20.7447 0 -182.628
500.835 20.581 0 -183.005
-531.06 15.2747 0 -108.306
-17.5721 18.4322 0 -148.565
497.24 20.6633 0 -182.817
-17.6037 18.2498 0 -148.577
-17.5878 18.3413 0 -148.571
-527.437 15.3712 0 -108.484
-520.194 15.5631 0 -108.843
486.454 20.9051 0 -182.245
493.644 20.7447 0 -182.628
-523.816 15.4674 0 -108.662
-17.5408 18.612 0 -148.553
490.049 20.8254 0 -182.437
-17.5721 18.4322 0 -148.565
-17.5564 18.5224 0 -148.559
-520.194 15.5631 0 -108.843
-512.953 15.7534 0 -109.209
479.264 21.0622 0 -181.855
486.454 20.9051 0 -182.245
-516.573 15.6585 0 -109.025
-17.51 18.7893 0 -148.541
482.859 20.9841 0 -182.051
-17.5408 18.612 0 -148.553
-17.5254 18.7009 0 -148.547
-512.953 15.7534 0 -109.209
-505.712 15.942 0 -109.581
472.075 21.2159 0 -181.459
479.264 21.0622 0 -181.855
-509.332 15.8479 0 -109.394
-17.4797 18.964 0 -148.529
475.67 21.1394 0 -181.658
-17.51 18.7893 0 -148.541
-17.4948 18.8769 0 -148.535
-505.712 15.942 0 -109.581
-498.473 16.1289 0 -109.96
464.887 21.3662 0 -181.057
472.075 21.2159 0 -181.459
-502.092 16.0357 0 -109.77
-17.4498 19.1361 0 -148.518
468.481 21.2914 0 -181.259
-17.4797 18.964 0 -148.529
-17.4647 19.0504 0 -148.523
-498.473 16.1289 0 -109.96
-491.235 16.3142 0 -110.345
457.699 21.5132 0 -180.649
464.887 21.3662 0 -181.057
-494.854 16.2218 0 -110.152
-17.4203 19.3057 0 -148.506
461.293 21.4401 0 -180.854
-17.4498 19.1361 0 -148.518
-17.435 19.2212 0 -148.512
-491.235 16.3142 0 -110.345
-483.999 16.4977 0 -110.736
450.512 21.6568 0 -180.236
457.699 21.5132 0 -180.649
-487.617 16.4062 0 -110.54
-17.3912 19.4727 0 -148.495
454.105 21.5854 0 -180.443
-17.4203 19.3057 0 -148.506
-17.4057 19.3895 0 -148.5
-483.999 16.4977 0 -110.736
-476.764 16.6796 0 -111.134
443.325 21.7971 0 -179.816
450.512 21.6568 0 -180.236
-480.381 16.5889 0 -110.934
-17.3626 19.6372 0 -148.484
446.919 21.7274 0 -180.026
-17.3912 19.4727 0 -148.495
-17.3769 19.5553 0 -148.489
-476.764 16.6796 0 -111.134
-469.53 16.8598 0 -111.537
436.139 21.9341 0 -179.39
443.325 21.7971 0 -179.816
-473.147 16.7699 0 -111.335
-17.3344 19.7991 0 -148.472
439.732 21.866 0 -179.604
-17.3626 19.6372 0 -148.484
-17.3485 19.7184 0 -148.478
-469.53 16.8598 0 -111.537
-462.298 17.0383 0 -111.946
428.954 22.0678 0 -178.959
436.139 21.9341 0 -179.39
-465.914 16.9492 0 -111.741
-17.3067 19.9584 0 -148.462
432.547 22.0014 0 -179.176
-17.3344 19.7991 0 -148.472
-17.3205 19.8791 0 -148.467
-462.298 17.0383 0 -111.946
-455.067 17.215 0 -112.361
421.769 22.1982 0 -178.523
428.954 22.0678 0 -178.959
-458.682 17.1269 0 -112.153
-17.2794 20.1152 0 -148.451
425.362 22.1334 0 -178.742
-17.3067 19.9584 0 -148.462
-17.293 20.0371 0 -148.456
-455.067 17.215 0 -112.361
-447.837 17.3901 0 -112.782
414.585 22.3253 0 -178.08
421.769 22.1982 0 -178.523
-451.452 17.3028 0 -112.571
-17.2526 20.2694 0 -148.44
418.177 22.2622 0 -178.302
-17.2794 20.1152 0 -148.451
-17.2659 20.1926 0 -148.445
-447.837 17.3901 0 -112.782
-440.609 17.5634 0 -113.209
407.401 22.4491 0 -177.633
414.585 22.3253 0 -178.08
-444.223 17.477 0 -112.995
-17.2261 20.4211 0 -148.43
410.993 22.3876 0 -177.857
-17.2526 20.2694 0 -148.44
-17.2393 20.3456 0 -148.435
-440.609 17.5634 0 -113.209
-433.382 17.735 0 -113.641
400.218 22.5696 0 -177.18
407.401 22.4491 0 -177.633
-436.995 17.6494 0 -113.424
-17.2001 20.5702 0 -148.419
403.81 22.5097 0 -177.407
-17.2261 20.4211 0 -148.43
-17.2131 20.4959 0 -148.424
-433.382 17.735 0 -113.641
-426.156 17.9049 0 -114.078
393.036 22.6868 0 -176.722
400.218 22.5696 0 -177.18
-429.769 17.8202 0 -113.859
-17.1746 20.7167 0 -148.409
396.627 22.6286 0 -176.952
-17.2001 20.5702 0 -148.419
-17.1873 20.6438 0 -148.414
-426.156 17.9049 0 -114.078
-418.931 18.073 0 -114.521
385.853 22.8008 0 -176.259
393.036 22.6868 0 -176.722
-422.543 17.9891 0 -114.299
-17.1495 20.8607 0 -148.399
389.444 22.7442 0 -176.491
-17.1746 20.7167 0 -148.409
-17.162 20.789 0 -148.404
-418.931 18.073 0 -114.521
-411.708 18.2393 0 -114.969
378.672 22.9116 0 -175.791
385.853 22.8008 0 -176.259
-415.319 18.1564 0 -114.745
-17.1248 21.0021 0 -148.389
382.263 22.8566 0 -176.026
-17.1495 20.8607 0 -148.399
-17.1371 20.9318 0 -148.394
-411.708 18.2393 0 -114.969
-404.486 18.4039 0 -115.423
371.491 23.0191 0 -175.318
378.672 22.9116 0 -175.791
-408.097 18.3218 0 -115.195
-17.1006 21.141 0 -148.379
375.081 22.9657 0 -175.555
-17.1248 21.0021 0 -148.389
-17.1127 21.0719 0 -148.384
-404.486 18.4039 0 -115.423
-397.265 18.5667 0 -115.881
364.31 23.1233 0 -174.841
371.491 23.0191 0 -175.318
-400.875 18.4855 0 -115.651
-17.0768 21.2773 0 -148.37
367.9 23.0716 0 -175.08
-17.1006 21.141 0 -148.379
-17.0886 21.2095 0 -148.374
-397.265 18.5667 0 -115.881
-390.045 18.7277 0 -116.345
357.13 23.2244 0 -174.358
364.31 23.1233 0 -174.841
-393.655 18.6474 0 -116.112
-17.0535 21.4111 0 -148.36
360.72 23.1743 0 -174.6
-17.0768 21.2773 0 -148.37
-17.0651 21.3446 0 -148.365
-390.045 18.7277 0 -116.345
-382.827 18.8869 0 -116.813
349.95 23.3222 0 -173.871
357.13 23.2244 0 -174.358
-386.436 18.8075 0 -116.578
-17.0306 21.5423 0 -148.351
353.54 23.2737 0 -174.115
-17.0535 21.4111 0 -148.36
-17.042 21.477 0 -148.355
-382.827 18.8869 0 -116.813
-375.609 19.0443 0 -117.286
342.771 23.4168 0 -173.38
349.95 23.3222 0 -173.871
-379.218 18.9659 0 -117.049
-17.0081 21.671 0 -148.342
346.361 23.3699 0 -173.626
-17.0306 21.5423 0 -148.351
-17.0193 21.607 0 -148.346
-375.609 19.0443 0 -117.286
-368.393 19.1999 0 -117.764
335.592 23.5083 0 -172.884
342.771 23.4168 0 -173.38
-372.001 19.1224 0 -117.525
-16.9861 21.7971 0 -148.333
339.182 23.463 0 -173.132
-17.0081 21.671 0 -148.342
-16.997 21.7344 0 -148.337
-368.393 19.1999 0 -117.764
-361.178 19.3537 0 -118.247
328.414 23.5966 0 -172.383
335.592 23.5083 0 -172.884
-364.786 19.277 0 -118.005
-16.9645 21.9206 0 -148.324
332.003 23.5528 0 -172.634
-16.9861 21.7971 0 -148.333
-16.9752 21.8592 0 -148.328
-361.178 19.3537 0 -118.247
-353.964 19.5056 0 -118.734
321.236 23.6816 0 -171.879
328.414 23.5966 0 -172.383
-357.571 19.4299 0 -118.49
-16.9433 22.0416 0 -148.315
324.825 23.6395 0 -172.132
-16.9645 21.9206 0 -148.324
-16.9538 21.9814 0 -148.319
-353.964 19.5056 0 -118.734
-346.752 19.6557 0 -119.226
314.058 23.7636 0 -171.37
321.236 23.6816 0 -171.879
-350.358 19.5809 0 -118.979
-16.9226 22.1601 0 -148.306
317.647 23.723 0 -171.625
-16.9433 22.0416 0 -148.315
-16.9329 22.1012 0 -148.311
-346.752 19.6557 0 -119.226
-339.54 19.804 0 -119.722
306.881 23.8424 0 -170.857
314.058 23.7636 0 -171.37
-343.146 19.7301 0 -119.473
-16.9024 22.276 0 -148.298
310.47 23.8034 0 -171.114
-16.9226 22.1601 0 -148.306
-16.9124 22.2183 0 -148.302
-339.54 19.804 0 -119.722
-332.33 19.9503 0 -120.222
299.704 23.9181 0 -170.341
306.881 23.8424 0 -170.857
-335.935 19.8774 0 -119.971
-16.8825 22.3893 0 -148.29
303.293 23.8806 0 -170.599
-16.9024 22.276 0 -148.298
-16.8924 22.3329 0 -148.294
-332.33 19.9503 0 -120.222
-325.121 20.0948 0 -120.726
292.528 23.9906 0 -169.82
299.704 23.9181 0 -170.341
-328.725 20.0228 0 -120.474
-16.8632 22.5001 0 -148.282
296.116 23.9547 0 -170.081
-16.8825 22.3893 0 -148.29
-16.8728 22.445 0 -148.286
-325.121 20.0948 0 -120.726
-317.912 20.2374 0 -121.235
285.352 24.06 0 -169.296
292.528 23.9906 0 -169.82
-321.516 20.1664 0 -120.98
-16.8442 22.6083 0 -148.274
288.94 24.0257 0 -169.558
-16.8632 22.5001 0 -148.282
-16.8537 22.5545 0 -148.278
-317.912 20.2374 0 -121.235
-310.705 20.3781 0 -121.748
278.176 24.1264 0 -168.768
285.352 24.06 0 -169.296
-314.309 20.308 0 -121.491
-16.8258 22.714 0 -148.266
281.764 24.0936 0 -169.032
-16.8442 22.6083 0 -148.274
-16.8349 22.6615 0 -148.27
-310.705 20.3781 0 -121.748
-303.499 20.5169 0 -122.264
271 24.1896 0 -168.236
278.176 24.1264 0 -168.768
-307.102 20.4477 0 -122.005
-16.8077 22.8171 0 -148.259
274.588 24.1584 0 -168.502
-16.8258 22.714 0 -148.266
-16.8167 22.7659 0 -148.262
-303.499 20.5169 0 -122.264
-296.294 20.6537 0 -122.784
263.825 24.2498 0 -167.701
271 24.1896 0 -168.236
-299.897 20.5856 0 -122.524
-16.7901 22.9177 0 -148.251
267.413 24.2201 0 -167.969
-16.8077 22.8171 0 -148.259
-16.7988 22.8677 0 -148.255
-296.294 20.6537 0 -122.784
-289.09 20.7887 0 -123.309
256.65 24.307 0 -167.163
263.825 24.2498 0 -167.701
-292.692 20.7214 0 -123.046
-16.7729 23.0157 0 -148.244
260.238 24.2788 0 -167.432
-16.7901 22.9177 0 -148.251
-16.7815 22.967 0 -148.248
-289.09 20.7887 0 -123.309
-281.887 20.9216 0 -123.836
249.476 24.361 0 -166.621
256.65 24.307 0 -167.163
-285.489 20.8554 0 -123.572
-16.7562 23.1112 0 -148.237
253.063 24.3344 0 -166.892
-16.7729 23.0157 0 -148.244
-16.7645 23.0638 0 -148.241
-281.887 20.9216 0 -123.836
-274.685 21.0526 0 -124.368
242.301 24.4121 0 -166.076
249.476 24.361 0 -166.621
-278.286 20.9874 0 -124.101
-16.74 23.2041 0 -148.23
245.888 24.3869 0 -166.349
-16.7562 23.1112 0 -148.237
-16.748 23.158 0 -148.234
-274.685 21.0526 0 -124.368
-267.484 21.1816 0 -124.902
235.127 24.4601 0 -165.528
242.301 24.4121 0 -166.076
-271.085 21.1174 0 -124.635
-16.7241 23.2945 0 -148.224
238.714 24.4365 0 -165.802
-16.74 23.2041 0 -148.23
-16.732 23.2496 0 -148.227
-267.484 21.1816 0 -124.902
-260.284 21.3087 0 -125.44
227.953 24.5051 0 -164.977
235.127 24.4601 0 -165.528
-263.884 21.2454 0 -125.171
-16.7087 23.3823 0 -148.217
231.54 24.483 0 -165.253
-16.7241 23.2945 0 -148.224
-16.7164 23.3387 0 -148.22
-260.284 21.3087 0 -125.44
-253.085 21.4337 0 -125.982
220.779 24.5471 0 -164.423
227.953 24.5051 0 -164.977
-256.685 21.3714 0 -125.711
-16.6938 23.4676 0 -148.211
224.366 24.5265 0 -164.7
-16.7087 23.3823 0 -148.217
-16.7012 23.4253 0 -148.214
-253.085 21.4337 0 -125.982
-245.887 21.5567 0 -126.526
213.606 24.5861 0 -163.866
220.779 24.5471 0 -164.423
-249.486 21.4954 0 -126.254
-16.6793 23.5502 0 -148.205
217.193 24.567 0 -164.144
-16.6938 23.4676 0 -148.211
-16.6865 23.5092 0 -148.208
-245.887 21.5567 0 -126.526
-238.69 21.6776 0 -127.074
206.432 24.6221 0 -163.306
213.606 24.5861 0 -163.866
-242.288 21.6174 0 -126.8
-16.6652 23.6304 0 -148.199
210.019 24.6045 0 -163.586
-16.6793 23.5502 0 -148.205
-16.6722 23.5906 0 -148.202
-238.69 21.6776 0 -127.074
-231.493 21.7965 0 -127.625
199.259 24.6552 0 -162.744
206.432 24.6221 0 -163.306
-235.092 21.7373 0 -127.349
-16.6516 23.7079 0 -148.193
202.846 24.639 0 -163.025
-16.6652 23.6304 0 -148.199
-16.6583 23.6695 0 -148.196
-231.493 21.7965 0 -127.625
-224.298 21.9132 0 -128.179
192.086 24.6852 0 -162.179
199.259 24.6552 0 -162.744
-227.896 21.8551 0 -127.901
-16.6383 23.7828 0 -148.187
195.673 24.6706 0 -162.462
-16.6516 23.7079 0 -148.193
-16.6449 23.7457 0 -148.19
-224.298 21.9132 0 -128.179
-217.103 22.0279 0 -128.735
184.914 24.7123 0 -161.612
192.086 24.6852 0 -162.179
-220.701 21.9708 0 -128.456
-16.6255 23.8552 0 -148.182
188.5 24.6991 0 -161.896
-16.6383 23.7828 0 -148.187
-16.6318 23.8193 0 -148.185
-217.103 22.0279 0 -128.735
-209.91 22.1403 0 -129.294
177.741 24.7364 0 -161.042
184.914 24.7123 0 -161.612
-213.506 22.0844 0 -129.014
-16.613 23.9249 0 -148.177
181.327 24.7247 0 -161.327
-16.6255 23.8552 0 -148.182
-16.6192 23.8904 0 -148.179
-209.91 22.1403 0 -129.294
-202.716 22.2507 0 -129.856
170.568 24.7575 0 -160.47
177.741 24.7364 0 -161.042
-206.313 22.1958 0 -129.575
-16.6008 23.992 0 -148.172
174.155 24.7473 0 -160.756
-16.613 23.9249 0 -148.177
-16.6068 23.9588 0 -148.174
-202.716 22.2507 0 -129.856
-195.524 22.3588 0 -130.42
163.396 24.7757 0 -159.896
170.568 24.7575 0 -160.47
-199.12 22.305 0 -130.138
-16.5889 24.0565 0 -148.167
166.982 24.767 0 -160.184
-16.6008 23.992 0 -148.172
-16.5948 24.0245 0 -148.169
-195.524 22.3588 0 -130.42
-188.332 22.4648 0 -130.987
156.224 24.7909 0 -159.32
163.396 24.7757 0 -159.896
-191.928 22.4121 0 -130.703
-16.5773 24.1183 0 -148.162
159.81 24.7837 0 -159.608
-16.5889 24.0565 0 -148.167
-16.5831 24.0877 0 -148.165
-188.332 22.4648 0 -130.987
-181.141 22.5687 0 -131.556
149.053 24.8033 0 -158.742
156.224 24.7909 0 -159.32
-184.736 22.517 0 -131.271
-16.5658 24.1777 0 -148.158
152.638 24.7975 0 -159.031
-16.5773 24.1183 0 -148.162
-16.5715 24.1483 0 -148.16
-181.141 22.5687 0 -131.556
-173.95 22.6706 0 -132.127
141.881 24.813 0 -158.162
149.053 24.8033 0 -158.742
-177.546 22.6199 0 -131.842
-16.5545 24.2346 0 -148.153
145.467 24.8085 0 -158.452
-16.5658 24.1777 0 -148.158
-16.5602 24.2064 0 -148.156
-173.95 22.6706 0 -132.127
-166.76 22.7706 0 -132.701
134.71 24.8201 0 -157.58
141.881 24.813 0 -158.162
-170.355 22.7208 0 -132.414
-16.5434 24.2893 0 -148.149
138.296 24.8168 0 -157.871
-16.5545 24.2346 0 -148.153
-16.5489 24.2622 0 -148.151
-166.76 22.7706 0 -132.701
-159.571 22.8692 0 -133.276
127.54 24.8249 0 -156.996
134.71 24.8201 0 -157.58
-163.165 22.8201 0 -132.988
-16.5324 24.3422 0 -148.145
131.125 24.8227 0 -157.289
-16.5434 24.2893 0 -148.149
-16.5379 24.3159 0 -148.147
-159.571 22.8692 0 -133.276
-152.382 22.9668 0 -133.853
120.37 24.8281 0 -156.41
127.54 24.8249 0 -156.996
-155.976 22.9181 0 -133.565
-16.5217 24.3937 0 -148.14
123.955 24.8267 0 -156.704
-16.5324 24.3422 0 -148.145
-16.527 24.368 0 -148.143
-152.382 22.9668 0 -133.853
-145.194 23.0642 0 -134.433
113.199 24.8305 0 -155.822
120.37 24.8281 0 -156.41
-148.788 23.0155 0 -134.143
-16.5118 24.4448 0 -148.136
116.785 24.8293 0 -156.116
-16.5217 24.3937 0 -148.14
-16.5166 24.4192 0 -148.138
-145.194 23.0642 0 -134.433
-138.009 23.1622 0 -135.014
106.029 24.8338 0 -155.231
113.199 24.8305 0 -155.822
-141.601 23.1131 0 -134.723
-16.5032 24.4967 0 -148.131
109.614 24.8319 0 -155.527
-16.5118 24.4448 0 -148.136
-16.5073 24.4706 0 -148.133
-138.009 23.1622 0 -135.014
-130.825 23.2619 0 -135.599
98.8557 24.8403 0 -154.638
106.029 24.8338 0 -155.231
-134.417 23.2118 0 -135.306
-16.4973 24.5514 0 -148.127
102.443 24.8364 0 -154.935
-16.5032 24.4967 0 -148.131
-16.4998 24.5236 0 -148.129
-130.825 23.2619 0 -135.599
-123.646 23.3639 0 -136.19
91.6781 24.8547 0 -154.044
98.8557 24.8403 0 -154.638
-127.235 23.3126 0 -135.894
-16.4963 24.6117 0 -148.127
95.2676 24.8461 0 -154.341
-16.4973 24.5514 0 -148.127
-16.496 24.5806 0 -148.126
-123.646 23.3639 0 -136.19
-116.469 23.4688 0 -136.793
84.4881 24.8838 0 -153.452
91.6781 24.8547 0 -154.044
-120.057 23.416 0 -136.489
-16.5039 24.6814 0 -148.135
88.0854 24.8668 0 -153.747
-16.4963 24.6117 0 -148.127
-16.4987 24.645 0 -148.129
-116.469 23.4688 0 -136.793
-109.298 23.5738 0 -137.421
77.2772 24.9409 0 -152.87
84.4881 24.8838 0 -153.452
-112.882 23.5217 0 -137.103
-16.5264 24.7666 0 -148.164
80.8855 24.9077 0 -153.159
-16.5039 24.6814 0 -148.135
-16.5129 24.7216 0 -148.146
-109.298 23.5738 0 -137.421
-102.121 23.6761 0 -138.097
70.0172 25.0442 0 -152.314
77.2772 24.9409 0 -152.87
-105.712 23.6258 0 -137.75
-16.5737 24.8755 0 -148.24
73.6564 24.9852 0 -152.587
-16.5264 24.7666 0 -148.164
-16.5461 24.8173 0 -148.194
-102.121 23.6761 0 -138.097
-94.9399 23.7589 0 -138.866
62.6811 25.2315 0 -151.818
70.0172 25.0442 0 -152.314
-98.5293 23.7214 0 -138.466
-16.6614 25.0201 0 -148.407
66.359 25.1243 0 -152.056
-16.5737 24.8755 0 -148.24
-16.6115 24.9425 0 -148.309
-94.9399 23.7589 0 -138.866
-87.7037 23.8137 0 -139.807
55.1756 25.5416 0 -151.443
62.6811 25.2315 0 -151.818
-91.336 23.7912 0 -139.308
-16.8136 25.2176 0 -148.748
58.9604 25.3675 0 -151.61
-16.6614 25.0201 0 -148.407
-16.7272 25.1107 0 -148.547
-87.7037 23.8137 0 -139.807
-80.4108 23.7873 0 -141.045
47.4378 26.0664 0 -151.29
55.1756 25.5416 0 -151.443
-84.0578 23.8136 0 -140.38
-17.0652 25.4898 0 -149.397
51.3337 25.7717 0 -151.33
-16.8136 25.2176 0 -148.748
-16.9251 25.3433 0 -149.027
-80.4108 23.7873 0 -141.045
-72.8853 23.6988 0 -142.78
39.2035 26.8367 0 -151.523
47.4378 26.0664 0 -151.29
-76.7036 23.7515 0 -141.833
-17.4628 25.8644 0 -150.551
43.4162 26.4165 0 -151.345
-17.0652 25.4898 0 -149.397
-17.2405 25.6614 0 -149.886
-72.8853 23.6988 0 -142.78
-65.1742 23.4485 0 -145.234
30.4249 27.9899 0 -152.348
39.2035 26.8367 0 -151.523
-69.0248 23.5905 0 -143.906
-18.0588 26.3605 0 -152.456
34.8599 27.3681 0 -151.846
-17.4628 25.8644 0 -150.551
-17.7359 26.0989 0 -151.41
-65.1742 23.4485 0 -145.234
-56.8228 23.347 0 -148.648
20.5526 29.2197 0 -153.999
30.4249 27.9899 0 -152.348
-61.1578 23.362 0 -146.799
-18.8893 26.9714 0 -155.296
25.7114 28.614 0 -153.058
-18.0588 26.3605 0 -152.456
-18.437 26.6496 0 -153.717
-56.8228 23.347 0 -148.648
-48.3204 23.4343 0 -152.833
10.1372 30.3094 0 -156.429
20.5526 29.2197 0 -153.999
-52.4719 23.3072 0 -150.692
-19.9039 27.5827 0 -158.883
15.2812 29.865 0 -155.129
-18.8893 26.9714 0 -155.296
-19.3933 27.2989 0 -157.095
-48.3204 23.4343 0 -152.833
-38.929 25.4656 0 -156.827
-1.2194 28.9954 0 -158.996
10.1372 30.3094 0 -156.429
-43.93 24.113 0 -154.938
-20.8459 27.8729 0 -161.955
4.7367 30.0949 0 -157.783
-19.9039 27.5827 0 -158.883
-20.3887 27.7827 0 -160.502
-38.929 25.4656 0 -156.827
-30.8387 30.0033 0 -157.168
-10.1146 23.3542 0 -158.984
-1.2194 28.9954 0 -158.996
-34.3197 27.2387 0 -157.83
-21.046 27.1145 0 -161.174
-6.49746 27.0281 0 -159.565
-20.8459 27.8729 0 -161.955
-21.1376 27.718 0 -162.56
-30.8387 30.0033 0 -157.168
-21.8395 40.5179 0 -147.821
-16.6205 7.64009 0 -150.96
-10.1146 23.3542 0 -158.984
-26.9947 34.7496 0 -154.117
-19.4721 24.2484 0 -150.917
-13.2947 16.6863 0 -156.494
-21.046 27.1145 0 -161.174
-20.4869 25.9582 0 -157.272
-21.8395 40.5179 0 -147.821
-16.0141 48.7455 0 -119.382
-13.2295 -12.9853 0 -125.279
-16.6205 7.64009 0 -150.96
-17.6041 45.2401 0 -136.691
-14.801 18.0175 0 -124.013
-17.323 -2.2141 0 -140.892
-19.4721 24.2484 0 -150.917
-17.7272 21.7426 0 -140.665
-16.0141 48.7455 0 -119.382
-10.2363 57.5697 0 -65.9939
-0.917429 -42.5584 0 -74.8197
-13.2295 -12.9853 0 -125.279
-14.3707 52.6518 0 -95.8756
-4.60476 7.67604 0 -68.41
-6.99711 -26.2585 0 -103.534
-14.801 18.0175 0 -124.013
-10.4992 13.048 0 -99.9193
1355.87 407.05 0 551.82
1324.21 216.723 0 181.596
4166.8 719.085 0 -18.2797
3832.4 1146.04 0 349.224
1299.63 312.488 0 347.66
2743.03 467.111 0 104.12
4059.26 916.997 0 127.528
2535.92 759.682 0 503.065
2682.68 634.396 0 247.195
1324.21 216.723 0 181.596
1397.71 122.73 0 -41.2574
4247.88 308.021 0 -135.28
4166.8 719.085 0 -18.2797
1380.87 164.319 0 50.6569
2809.86 234.674 0 -75.5282
4203.02 498.543 0 -92.9998
2743.03 467.111 0 104.12
2773.54 332.431 0 7.03151
1397.71 122.73 0 -41.2574
1403.11 38.5916 0 -142.984
4289.89 99.2898 0 -160.774
4247.88 308.021 0 -135.28
1395.33 76.2695 0 -102.438
2844.74 83.6156 0 -154.531
4287.4 182.839 0 -157.048
2809.86 234.674 0 -75.5282
2836.57 151.815 0 -129.623
1403.11 38.5916 0 -142.984
1407.61 -1.21111 0 -179.992
4258.13 1.74378 0 -152.762
4289.89 99.2898 0 -160.774
1411.67 15.3528 0 -167.601
2836.6 8.31211 0 -173.711
4272.58 39.0082 0 -156.149
2844.74 83.6156 0 -154.531
2843.06 37.3919 0 -166.326
1407.61 -1.21111 0 -179.992
1392.66 -22.2619 0 -184.855
4220.12 -27.3678 0 -148.057
4258.13 1.74378 0 -152.762
1398.28 -14.4518 0 -184.429
2810.96 -24.012 0 -173.162
4242.38 -17.5051 0 -150.455
2836.6 8.31211 0 -173.711
2825.34 -11.4797 0 -175.455
1392.66 -22.2619 0 -184.855
1380.05 -26.7008 0 -179.48
4175.89 -34.7807 0 -145.846
4220.12 -27.3678 0 -148.057
1387.79 -25.3788 0 -182.822
2781.21 -31.9555 0 -168.374
4195.91 -33.1478 0 -146.153
2810.96 -24.012 0 -173.162
2795.65 -30.119 0 -170.318
1380.05 -26.7008 0 -179.48
1365.05 -27.2345 0 -172.246
4140.02 -31.5274 0 -147.227
4175.89 -34.7807 0 -145.846
1371.58 -27.4924 0 -175.691
2754.19 -31.3936 0 -164.327
4158.01 -33.5909 0 -146.451
2781.21 -31.9555 0 -168.374
2767.31 -32.1778 0 -166.37
1365.05 -27.2345 0 -172.246
1353.43 -25.1622 0 -166.718
4107.62 -27.2383 0 -149.577
4140.02 -31.5274 0 -147.227
1359.4 -26.2222 0 -169.237
2730.89 -27.8896 0 -162.107
4122.82 -29.483 0 -148.214
2754.19 -31.3936 0 -164.327
2742.02 -29.8183 0 -162.867
1353.43 -25.1622 0 -166.718
1342.66 -23.3299 0 -163.218
4080.08 -22.997 0 -152.681
4107.62 -27.2383 0 -149.577
1347.65 -24.2626 0 -164.701
2710.86 -24.5126 0 -161.461
4093.65 -24.9628 0 -151.131
2730.89 -27.8896 0 -162.107
2720.55 -26.1055 0 -161.668
1342.66 -23.3299 0 -163.218
1333.6 -21.5923 0 -161.467
4054.68 -20.0025 0 -155.854
4080.08 -22.997 0 -152.681
1338.1 -22.3942 0 -162.168
2693.09 -21.7794 0 -161.952
4067.02 -21.3885 0 -154.244
2710.86 -24.5126 0 -161.461
2701.74 -23.0595 0 -161.568
1333.6 -21.5923 0 -161.467
1325.15 -20.323 0 -160.877
4031.08 -17.8404 0 -159.068
4054.68 -20.0025 0 -155.854
1329.24 -20.9254 0 -161.053
2676.77 -19.8253 0 -163.131
4042.78 -18.809 0 -157.476
2693.09 -21.7794 0 -161.952
2684.8 -20.7116 0 -162.489
1325.15 -20.323 0 -160.877
1317.32 -19.2969 0 -161.016
4008.26 -16.3965 0 -162.198
4031.08 -17.8404 0 -159.068
1321.21 -19.7735 0 -160.88
2661.28 -18.4247 0 -164.707
4019.56 -17.0553 0 -160.639
2676.77 -19.8253 0 -163.131
2668.95 -19.0685 0 -163.878
1317.32 -19.2969 0 -161.016
1309.73 -18.496 0 -161.56
3985.97 -15.3606 0 -165.256
4008.26 -16.3965 0 -162.198
1313.49 -18.8788 0 -161.251
2646.27 -17.409 0 -166.477
3997.08 -15.8337 0 -163.739
2661.28 -18.4247 0 -164.707
2653.73 -17.8781 0 -165.579
1309.73 -18.496 0 -161.56
1302.34 -17.8122 0 -162.319
3963.9 -14.5929 0 -168.229
3985.97 -15.3606 0 -165.256
1306.03 -18.1401 0 -161.922
2631.5 -16.6228 0 -168.332
3974.91 -14.9537 0 -166.751
2646.27 -17.409 0 -166.477
2638.87 -16.994 0 -167.398
1302.34 -17.8122 0 -162.319
1295.02 -17.2122 0 -163.177
3941.96 -13.9658 0 -171.128
3963.9 -14.5929 0 -168.229
1298.67 -17.5052 0 -162.74
2616.87 -15.9734 0 -170.205
3952.92 -14.2652 0 -169.688
2631.5 -16.6228 0 -168.332
2624.18 -16.2851 0 -169.269
1295.02 -17.2122 0 -163.177
1287.76 -16.6569 0 -164.072
3920.06 -13.4202 0 -173.958
3941.96 -13.9658 0 -171.128
1291.39 -16.9296 0 -163.622
2602.29 -15.3997 0 -172.067
3931 -13.6861 0 -172.551
2616.87 -15.9734 0 -170.205
2609.57 -15.6796 0 -171.139
1287.76 -16.6569 0 -164.072
1280.52 -16.1316 0 -164.974
3898.19 -12.915 0 -176.724
3920.06 -13.4202 0 -173.958
1284.14 -16.3916 0 -164.524
2587.74 -14.8684 0 -173.901
3909.12 -13.1638 0 -175.349
2602.29 -15.3997 0 -172.067
2595.01 -15.1301 0 -172.988
1280.52 -16.1316 0 -164.974
1273.29 -15.6236 0 -165.868
3876.32 -12.4316 0 -179.429
3898.19 -12.915 0 -176.724
1276.9 -15.8757 0 -165.423
2573.2 -14.3601 0 -175.701
3887.25 -12.6715 0 -178.084
2587.74 -14.8684 0 -173.901
2580.47 -14.6121 0 -174.806
1273.29 -15.6236 0 -165.868
1266.07 -15.1276 0 -166.746
3854.45 -11.9585 0 -182.078
3876.32 -12.4316 0 -179.429
1269.68 -15.3745 0 -166.309
2558.67 -13.8647 0 -177.465
3865.39 -12.1941 0 -180.761
2573.2 -14.3601 0 -175.701
2565.94 -14.1112 0 -176.587
1266.07 -15.1276 0 -166.746
1258.85 -14.6395 0 -167.607
3832.58 -11.4907 0 -184.673
3854.45 -11.9585 0 -182.078
1262.46 -14.8827 0 -167.178
2544.14 -13.3769 0 -179.192
3843.52 -11.7241 0 -183.382
2558.67 -13.8647 0 -177.465
2551.4 -13.6201 0 -178.333
1258.85 -14.6395 0 -167.607
1251.63 -14.1573 0 -168.449
3810.71 -11.0255 0 -187.214
3832.58 -11.4907 0 -184.673
1255.24 -14.3978 0 -168.03
2529.61 -12.8937 0 -180.884
3821.65 -11.2579 0 -185.95
2544.14 -13.3769 0 -179.192
2536.87 -13.1348 0 -180.042
1251.63 -14.1573 0 -168.449
1244.41 -13.6796 0 -169.274
3788.83 -10.5616 0 -189.704
3810.71 -11.0255 0 -187.214
1248.02 -13.918 0 -168.864
2515.07 -12.4135 0 -182.541
3799.77 -10.7934 0 -188.466
2529.61 -12.8937 0 -180.884
2522.34 -12.6533 0 -181.717
1244.41 -13.6796 0 -169.274
1237.19 -13.2054 0 -170.082
3766.96 -10.0984 0 -192.144
3788.83 -10.5616 0 -189.704
1240.8 -13.4421 0 -169.68
2500.53 -11.9356 0 -184.164
3777.9 -10.3299 0 -190.93
2515.07 -12.4135 0 -182.541
2507.8 -12.1743 0 -183.356
1237.19 -13.2054 0 -170.082
1229.97 -12.7342 0 -170.872
3745.08 -9.63548 0 -194.533
3766.96 -10.0984 0 -192.144
1233.58 -12.9694 0 -170.479
2486 -11.4595 0 -185.753
3756.02 -9.86688 0 -193.345
2500.53 -11.9356 0 -184.164
2493.27 -11.6974 0 -184.962
1229.97 -12.7342 0 -170.872
1222.75 -12.2655 0 -171.645
3723.19 -9.17287 0 -196.874
3745.08 -9.63548 0 -194.533
1226.36 -12.4995 0 -171.261
2471.46 -10.9848 0 -187.309
3734.14 -9.40415 0 -195.71
2486 -11.4595 0 -185.753
2478.73 -11.222 0 -186.535
1222.75 -12.2655 0 -171.645
1215.53 -11.7991 0 -172.402
3701.31 -8.71047 0 -199.165
3723.19 -9.17287 0 -196.874
1219.14 -12.032 0 -172.026
2456.92 -10.5115 0 -188.832
3712.25 -8.94164 0 -198.026
2471.46 -10.9848 0 -187.309
2464.19 -10.748 0 -188.075
1215.53 -11.7991 0 -172.402
1208.31 -11.335 0 -173.143
3679.43 -8.24831 0 -201.408
3701.31 -8.71047 0 -199.165
1211.92 -11.5668 0 -172.775
2442.37 -10.0394 0 -190.324
3690.37 -8.47935 0 -200.293
2456.92 -10.5115 0 -188.832
2449.65 -10.2753 0 -189.582
1208.31 -11.335 0 -173.143
1201.09 -10.8728 0 -173.867
3657.54 -7.78645 0 -203.603
3679.43 -8.24831 0 -201.408
1204.7 -11.1036 0 -173.507
2427.83 -9.56851 0 -191.783
3668.48 -8.01734 0 -202.512
2442.37 -10.0394 0 -190.324
2435.1 -9.80378 0 -191.057
1201.09 -10.8728 0 -173.867
1193.86 -10.4128 0 -174.576
3635.65 -7.32498 0 -205.751
3657.54 -7.78645 0 -203.603
1197.47 -10.6425 0 -174.224
2413.29 -9.09892 0 -193.21
3646.59 -7.55566 0 -204.683
2427.83 -9.56851 0 -191.783
2420.56 -9.33356 0 -192.5
1193.86 -10.4128 0 -174.576
1186.64 -9.95468 0 -175.268
3613.76 -6.86399 0 -207.851
3635.65 -7.32498 0 -205.751
1190.25 -10.1835 0 -174.924
2398.74 -8.63063 0 -194.605
3624.71 -7.09442 0 -206.807
2413.29 -9.09892 0 -193.21
2406.01 -8.86461 0 -193.911
1186.64 -9.95468 0 -175.268
1179.41 -9.49864 0 -175.945
3591.87 -6.40359 0 -209.904
3613.76 -6.86399 0 -207.851
1183.02 -9.72641 0 -175.609
2384.19 -8.16371 0 -195.969
3602.82 -6.63371 0 -208.883
2398.74 -8.63063 0 -194.605
2391.47 -8.39699 0 -195.291
1179.41 -9.49864 0 -175.945
1172.18 -9.04466 0 -176.606
3569.98 -5.9439 0 -211.91
3591.87 -6.40359 0 -209.904
1175.8 -9.2714 0 -176.277
2369.65 -7.69822 0 -197.302
3580.93 -6.17365 0 -210.912
2384.19 -8.16371 0 -195.969
2376.92 -7.93078 0 -196.639
1172.18 -9.04466 0 -176.606
1164.96 -8.59278 0 -177.251
3548.09 -5.48503 0 -213.869
3569.98 -5.9439 0 -211.91
1168.57 -8.81846 0 -176.93
2355.1 -7.23424 0 -198.604
3559.03 -5.71435 0 -212.895
2369.65 -7.69822 0 -197.302
2362.37 -7.46603 0 -197.957
1164.96 -8.59278 0 -177.251
1157.73 -8.14302 0 -177.881
3526.2 -5.0271 0 -215.782
3548.09 -5.48503 0 -213.869
1161.34 -8.36763 0 -177.568
2340.55 -6.77185 0 -199.874
3537.14 -5.25594 0 -214.831
2355.1 -7.23424 0 -198.604
2347.82 -7.00284 0 -199.243
1157.73 -8.14302 0 -177.881
1150.5 -7.69544 0 -178.495
3504.3 -4.57023 0 -217.65
3526.2 -5.0271 0 -215.782
1154.11 -7.91896 0 -178.19
2326 -6.31112 0 -201.114
3515.25 -4.79853 0 -216.722
2340.55 -6.77185 0 -199.874
2333.27 -6.54127 0 -200.498
1150.5 -7.69544 0 -178.495
1143.27 -7.25008 0 -179.094
3482.41 -4.11452 0 -219.471
3504.3 -4.57023 0 -217.65
1146.89 -7.47248 0 -178.797
2311.45 -5.85214 0 -202.324
3493.36 -4.34222 0 -218.566
2326 -6.31112 0 -201.114
2318.72 -6.08141 0 -201.723
1143.27 -7.25008 0 -179.094
1136.04 -6.80696 0 -179.678
3460.52 -3.6601 0 -221.247
3482.41 -4.11452 0 -219.471
1139.66 -7.02824 0 -179.388
2296.9 -5.39499 0 -203.503
3471.46 -3.88715 0 -220.365
2311.45 -5.85214 0 -202.324
2304.17 -5.62333 0 -202.917
1136.04 -6.80696 0 -179.678
1128.81 -6.36614 0 -180.246
3438.62 -3.20708 0 -222.978
3460.52 -3.6601 0 -221.247
1132.43 -6.58627 0 -179.964
2282.35 -4.93973 0 -204.652
3449.57 -3.43341 0 -222.118
2296.9 -5.39499 0 -203.503
2289.62 -5.16712 0 -204.082
1128.81 -6.36614 0 -180.246
1121.58 -5.92766 0 -180.8
3416.73 -2.75555 0 -224.664
3438.62 -3.20708 0 -222.978
1125.2 -6.14661 0 -180.525
2267.8 -4.48643 0 -205.772
3427.68 -2.98112 0 -223.827
2282.35 -4.93973 0 -204.652
2275.07 -4.71283 0 -205.216
1121.58 -5.92766 0 -180.8
1114.35 -5.49154 0 -181.338
3394.84 -2.30563 0 -226.306
3416.73 -2.75555 0 -224.664
1117.97 -5.7093 0 -181.071
2253.25 -4.03518 0 -206.861
3405.78 -2.53039 0 -225.491
2267.8 -4.48643 0 -205.772
2260.52 -4.26055 0 -206.32
1114.35 -5.49154 0 -181.338
1107.12 -5.05782 0 -181.862
3372.94 -1.85743 0 -227.903
3394.84 -2.30563 0 -226.306
1110.73 -5.27437 0 -181.602
2238.69 -3.58604 0 -207.921
3383.89 -2.08131 0 -227.11
2253.25 -4.03518 0 -206.861
2245.97 -3.81034 0 -207.395
1107.12 -5.05782 0 -181.862
1099.89 -4.62654 0 -182.371
3351.05 -1.41103 0 -229.457
3372.94 -1.85743 0 -227.903
1103.5 -4.84187 0 -182.118
2224.14 -3.13908 0 -208.952
3362 -1.634 0 -228.686
2238.69 -3.58604 0 -207.921
2231.42 -3.36228 0 -208.44
1099.89 -4.62654 0 -182.371
1092.66 -4.19773 0 -182.865
3329.16 -0.966545 0 -230.967
3351.05 -1.41103 0 -229.457
1096.27 -4.41182 0 -182.62
2209.59 -2.69436 0 -209.953
3340.1 -1.18854 0 -230.217
2224.14 -3.13908 0 -208.952
2216.87 -2.91643 0 -209.456
1092.66 -4.19773 0 -182.865
1085.42 -3.77143 0 -183.345
3307.27 -0.524067 0 -232.433
3329.16 -0.966545 0 -230.967
1089.04 -3.98426 0 -183.107
2195.04 -2.25195 0 -210.926
3318.21 -0.745049 0 -231.705
2209.59 -2.69436 0 -209.953
2202.32 -2.47286 0 -210.443
1085.42 -3.77143 0 -183.345
1078.19 -3.34766 0 -183.811
3285.38 -0.0836908 0 -233.856
3307.27 -0.524067 0 -232.433
1081.81 -3.55922 0 -183.58
2180.49 -1.81191 0 -211.869
3296.32 -0.30361 0 -233.15
2195.04 -2.25195 0 -210.926
2187.76 -2.03163 0 -211.401
1078.19 -3.34766 0 -183.811
1070.96 -2.92646 0 -184.262
3263.49 0.35449 0 -235.237
3285.38 -0.0836908 0 -233.856
1074.58 -3.13674 0 -184.038
2165.94 -1.3743 0 -212.785
3274.43 0.13568 0 -234.552
2180.49 -1.81191 0 -211.869
2173.21 -1.5928 0 -212.33
1070.96 -2.92646 0 -184.262
1063.73 -2.50786 0 -184.698
3241.6 0.790385 0 -236.575
3263.49 0.35449 0 -235.237
1067.34 -2.71683 0 -184.482
2151.39 -0.939192 0 -213.671
3252.54 0.572729 0 -235.911
2165.94 -1.3743 0 -212.785
2158.66 -1.15643 0 -213.231
1063.73 -2.50786 0 -184.698
1056.49 -2.09188 0 -185.121
3219.71 1.2239 0 -237.87
3241.6 0.790385 0 -236.575
1060.11 -2.29954 0 -184.911
2136.84 -0.506636 0 -214.53
3230.65 1.00745 0 -237.228
2151.39 -0.939192 0 -213.671
2144.11 -0.722591 0 -214.104
1056.49 -2.09188 0 -185.121
1049.26 -1.67856 0 -185.529
3197.82 1.65496 0 -239.124
3219.71 1.2239 0 -237.87
1052.88 -1.88489 0 -185.327
2122.29 -0.0766919 0 -215.361
3208.76 1.43975 0 -238.503
2136.84 -0.506636 0 -214.53
2129.56 -0.291334 0 -214.949
1049.26 -1.67856 0 -185.529
1042.03 -1.26793 0 -185.924
3175.93 2.08347 0 -240.336
3197.82 1.65496 0 -239.124
1045.65 -1.47291 0 -185.728
2107.74 0.350583 0 -216.163
3186.88 1.86954 0 -239.736
2122.29 -0.0766919 0 -215.361
2115.01 0.137282 0 -215.765
1042.03 -1.26793 0 -185.924
1034.8 -0.860004 0 -186.305
3154.05 2.50935 0 -241.507
3175.93 2.08347 0 -240.336
1038.41 -1.06362 0 -186.116
2093.19 0.775133 0 -216.939
3164.99 2.29674 0 -240.927
2107.74 0.350583 0 -216.163
2100.46 0.563202 0 -216.555
1034.8 -0.860004 0 -186.305
1027.56 -0.454822 0 -186.672
3132.17 2.93251 0 -242.637
3154.05 2.50935 0 -241.507
1031.18 -0.657069 0 -186.49
2078.64 1.1969 0 -217.687
3143.11 2.72127 0 -242.077
2093.19 0.775133 0 -216.939
2085.91 0.986368 0 -217.316
1027.56 -0.454822 0 -186.672
1020.33 -0.052405 0 -187.025
3110.28 3.35288 0 -243.726
3132.17 2.93251 0 -242.637
1023.95 -0.253266 0 -186.85
2064.09 1.61584 0 -218.407
3121.22 3.14305 0 -243.187
2078.64 1.1969 0 -217.687
2071.37 1.40673 0 -218.05
1020.33 -0.052405 0 -187.025
1013.1 0.34722 0 -187.365
3088.4 3.77038 0 -244.775
3110.28 3.35288 0 -243.726
1016.71 0.147758 0 -187.197
2049.55 2.03189 0 -219.101
3099.34 3.562 0 -244.255
2064.09 1.61584 0 -218.407
2056.82 1.82423 0 -218.757
1013.1 0.34722 0 -187.365
1005.87 0.744027 0 -187.691
3066.52 4.18493 0 -245.783
3088.4 3.77038 0 -244.775
1009.48 0.545977 0 -187.53
2035 2.44501 0 -219.768
3077.46 3.97803 0 -245.284
2049.55 2.03189 0 -219.101
2042.27 2.23882 0 -219.438
1005.87 0.744027 0 -187.691
998.634 1.13799 0 -188.004
3044.64 4.59646 0 -246.751
3066.52 4.18493 0 -245.783
1002.25 0.941366 0 -187.849
2020.45 2.85514 0 -220.408
3055.58 4.39108 0 -246.272
2035 2.44501 0 -219.768
2027.73 2.65045 0 -220.091
998.634 1.13799 0 -188.004
991.402 1.52909 0 -188.304
3022.77 5.00489 0 -247.68
3044.64 4.59646 0 -246.751
995.018 1.3339 0 -188.156
2005.91 3.26224 0 -221.022
3033.71 4.80107 0 -247.221
2020.45 2.85514 0 -220.408
2013.18 3.05907 0 -220.718
991.402 1.52909 0 -188.304
984.17 1.9173 0 -188.59
3000.89 5.41015 0 -248.57
3022.77 5.00489 0 -247.68
987.786 1.72356 0 -188.449
1991.37 3.66626 0 -221.609
3011.83 5.20792 0 -248.13
2005.91 3.26224 0 -221.022
1998.64 3.46464 0 -221.319
984.17 1.9173 0 -188.59
976.938 2.30259 0 -188.864
2979.02 5.81218 0 -249.42
3000.89 5.41015 0 -248.57
980.554 2.11031 0 -188.729
1976.82 4.06715 0 -222.171
2989.96 5.61158 0 -249
1991.37 3.66626 0 -221.609
1984.1 3.8671 0 -221.893
976.938 2.30259 0 -188.864
969.706 2.68495 0 -189.125
2957.15 6.2109 0 -250.232
2979.02 5.81218 0 -249.42
973.322 2.49414 0 -188.996
1962.28 4.46486 0 -222.707
2968.09 6.01196 0 -249.831
1976.82 4.06715 0 -222.171
1969.55 4.2664 0 -222.442
969.706 2.68495 0 -189.125
962.475 3.06435 0 -189.372
2935.28 6.60625 0 -251.005
2957.15 6.2109 0 -250.232
966.091 2.87502 0 -189.25
1947.74 4.85936 0 -223.217
2946.22 6.409 0 -250.623
1962.28 4.46486 0 -222.707
1955.01 4.66252 0 -222.965
962.475 3.06435 0 -189.372
955.244 3.44078 0 -189.607
2913.42 6.99816 0 -251.74
2935.28 6.60625 0 -251.005
958.86 3.25294 0 -189.491
1933.2 5.2506 0 -223.702
2924.35 6.80264 0 -251.378
1947.74 4.85936 0 -223.217
1940.47 5.05539 0 -223.462
955.244 3.44078 0 -189.607
948.013 3.8142 0 -189.83
2891.55 7.38658 0 -252.438
2913.42 6.99816 0 -251.74
951.629 3.62787 0 -189.72
1918.66 5.63853 0 -224.161
2902.48 7.19281 0 -252.094
1933.2 5.2506 0 -223.702
1925.93 5.44498 0 -223.934
948.013 3.8142 0 -189.83
940.783 4.18461 0 -190.039
2869.69 7.77143 0 -253.097
2891.55 7.38658 0 -252.438
944.398 3.99978 0 -189.936
1904.13 6.02313 0 -224.595
2880.62 7.57946 0 -252.772
1918.66 5.63853 0 -224.161
1911.4 5.83125 0 -224.381
940.783 4.18461 0 -190.039
933.553 4.55197 0 -190.237
2847.83 8.15267 0 -253.72
2869.69 7.77143 0 -253.097
937.168 4.36867 0 -190.139
1889.59 6.40434 0 -225.005
2858.76 7.96251 0 -253.413
1904.13 6.02313 0 -224.595
1896.86 6.21416 0 -224.803
933.553 4.55197 0 -190.237
926.323 4.91627 0 -190.421
2825.97 8.53023 0 -254.305
2847.83 8.15267 0 -253.72
929.938 4.73451 0 -190.331
1875.06 6.78213 0 -225.39
2836.9 8.34191 0 -254.017
1889.59 6.40434 0 -225.005
1882.32 6.59366 0 -225.2
926.323 4.91627 0 -190.421
919.094 5.2775 0 -190.594
2804.12 8.90405 0 -254.854
2825.97 8.53023 0 -254.305
922.709 5.09727 0 -190.509
1860.52 7.15646 0 -225.75
2815.05 8.71761 0 -254.584
1875.06 6.78213 0 -225.39
1867.79 6.96973 0 -225.573
919.094 5.2775 0 -190.594
911.865 5.63564 0 -190.755
2782.27 9.27408 0 -255.367
2804.12 8.90405 0 -254.854
915.48 5.45696 0 -190.676
1845.99 7.5273 0 -226.086
2793.19 9.08954 0 -255.115
1860.52 7.15646 0 -225.75
1853.26 7.34232 0 -225.921
911.865 5.63564 0 -190.755
904.637 5.99066 0 -190.903
2760.42 9.64027 0 -255.843
2782.27 9.27408 0 -255.367
908.251 5.81354 0 -190.83
1831.46 7.89461 0 -226.398
2771.34 9.45766 0 -255.609
1845.99 7.5273 0 -226.086
1838.73 7.7114 0 -226.245
904.637 5.99066 0 -190.903
897.409 6.34255 0 -191.04
2738.57 10.0026 0 -256.283
2760.42 9.64027 0 -255.843
901.023 6.16699 0 -190.973
1816.93 8.25835 0 -226.686
2749.49 9.82191 0 -256.068
1831.46 7.89461 0 -226.398
1824.2 8.07693 0 -226.545
897.409 6.34255 0 -191.04
890.181 6.69129 0 -191.164
2716.72 10.3609 0 -256.688
2738.57 10.0026 0 -256.283
893.795 6.51731 0 -191.103
1802.41 8.61849 0 -226.951
2727.65 10.1822 0 -256.49
1816.93 8.25835 0 -226.686
1809.67 8.43887 0 -226.821
890.181 6.69129 0 -191.164
882.954 7.03687 0 -191.277
2694.88 10.7153 0 -257.058
2716.72 10.3609 0 -256.688
886.568 6.86448 0 -191.222
1787.88 8.97501 0 -227.192
2705.8 10.5386 0 -256.877
1802.41 8.61849 0 -226.951
1795.14 8.79721 0 -227.074
882.954 7.03687 0 -191.277
875.727 7.37928 0 -191.378
2673.04 11.0656 0 -257.393
2694.88 10.7153 0 -257.058
879.341 7.20847 0 -191.329
1773.35 9.32786 0 -227.409
2683.96 10.8909 0 -257.23
1787.88 8.97501 0 -227.192
1780.62 9.1519 0 -227.303
875.727 7.37928 0 -191.378
868.501 7.71849 0 -191.468
2651.2 11.4118 0 -257.693
2673.04 11.0656 0 -257.393
872.114 7.54928 0 -191.425
1758.83 9.67702 0 -227.604
2662.12 11.2392 0 -257.547
1773.35 9.32786 0 -227.409
1766.09 9.50291 0 -227.509
868.501 7.71849 0 -191.468
861.276 8.05449 0 -191.546
2629.37 11.7539 0 -257.958
2651.2 11.4118 0 -257.693
864.888 7.88689 0 -191.508
1744.31 10.0225 0 -227.775
2640.29 11.5834 0 -257.83
1758.83 9.67702 0 -227.604
1751.57 9.85021 0 -227.692
861.276 8.05449 0 -191.546
854.051 8.38728 0 -191.613
2607.54 12.0919 0 -258.19
2629.37 11.7539 0 -257.958
857.663 8.22129 0 -191.581
1729.79 10.3642 0 -227.924
2618.45 11.9234 0 -258.078
1744.31 10.0225 0 -227.775
1737.05 10.1938 0 -227.853
854.051 8.38728 0 -191.613
846.826 8.71682 0 -191.668
2585.71 12.4256 0 -258.388
2607.54 12.0919 0 -258.19
850.438 8.55246 0 -191.642
1715.27 10.7021 0 -228.05
2596.62 12.2592 0 -258.293
1729.79 10.3642 0 -227.924
1722.53 10.5336 0 -227.99
846.826 8.71682 0 -191.668
839.602 9.04313 0 -191.713
2563.89 12.755 0 -258.552
2585.71 12.4256 0 -258.388
843.214 8.88038 0 -191.692
1700.76 11.0362 0 -228.155
2574.8 12.5908 0 -258.474
1715.27 10.7021 0 -228.05
1708.01 10.8696 0 -228.105
839.602 9.04313 0 -191.713
832.379 9.36617 0 -191.746
2542.06 13.0802 0 -258.683
2563.89 12.755 0 -258.552
835.99 9.20506 0 -191.731
1686.24 11.3665 0 -228.236
2552.97 12.9182 0 -258.622
1700.76 11.0362 0 -228.155
1693.5 11.2018 0 -228.198
832.379 9.36617 0 -191.746
825.156 9.68594 0 -191.768
2520.24 13.4011 0 -258.781
2542.06 13.0802 0 -258.683
828.767 9.52646 0 -191.759
1671.73 11.6929 0 -228.296
2531.15 13.2412 0 -258.736
1686.24 11.3665 0 -228.236
1678.98 11.5302 0 -228.269
825.156 9.68594 0 -191.768
817.933 10.0024 0 -191.78
2498.43 13.7175 0 -258.847
2520.24 13.4011 0 -258.781
821.545 9.84459 0 -191.776
1657.22 12.0155 0 -228.335
2509.34 13.5598 0 -258.818
1671.73 11.6929 0 -228.296
1664.47 11.8547 0 -228.318
817.933 10.0024 0 -191.78
810.712 10.3156 0 -191.781
2476.61 14.0296 0 -258.88
2498.43 13.7175 0 -258.847
814.323 10.1594 0 -191.782
1642.71 12.3341 0 -228.351
2487.52 13.8741 0 -258.867
1657.22 12.0155 0 -228.335
1649.96 12.1753 0 -228.346
810.712 10.3156 0 -191.781
803.491 10.6255 0 -191.771
2454.8 14.3373 0 -258.881
2476.61 14.0296 0 -258.88
807.101 10.471 0 -191.777
1628.2 12.6488 0 -228.347
2465.71 14.184 0 -258.884
1642.71 12.3341 0 -228.351
1635.45 12.492 0 -228.352
803.491 10.6255 0 -191.771
796.27 10.9321 0 -191.75
2433 14.6405 0 -258.85
2454.8 14.3373 0 -258.881
799.881 10.7792 0 -191.762
1613.69 12.9596 0 -228.321
2443.9 14.4894 0 -258.87
1628.2 12.6488 0 -228.347
1620.95 12.8047 0 -228.336
796.27 10.9321 0 -191.75
789.051 11.2353 0 -191.719
2411.19 14.9392 0 -258.788
2433 14.6405 0 -258.85
792.66 11.0841 0 -191.736
1599.19 13.2665 0 -228.274
2422.09 14.7904 0 -258.823
1613.69 12.9596 0 -228.321
1606.44 13.1136 0 -228.3
789.051 11.2353 0 -191.719
781.832 11.5352 0 -191.677
2389.39 15.2333 0 -258.695
2411.19 14.9392 0 -258.788
785.441 11.3857 0 -191.7
1584.69 13.5693 0 -228.206
2400.29 15.0868 0 -258.745
1599.19 13.2665 0 -228.274
1591.94 13.4184 0 -228.243
781.832 11.5352 0 -191.677
774.613 11.8318 0 -191.626
2367.59 15.523 0 -258.571
2389.39 15.2333 0 -258.695
778.222 11.6839 0 -191.653
1570.19 13.8682 0 -228.118
2378.49 15.3787 0 -258.637
1584.69 13.5693 0 -228.206
1577.44 13.7193 0 -228.165
774.613 11.8318 0 -191.626
767.395 12.125 0 -191.564
2345.8 15.808 0 -258.416
2367.59 15.523 0 -258.571
771.004 11.9788 0 -191.596
1555.69 14.1631 0 -228.009
2356.7 15.6661 0 -258.497
1570.19 13.8682 0 -228.118
1562.94 14.0161 0 -228.066
767.395 12.125 0 -191.564
760.178 12.4149 0 -191.492
2324.01 16.0885 0 -258.231
2345.8 15.808 0 -258.416
763.787 12.2704 0 -191.529
1541.19 14.4539 0 -227.881
2334.9 15.9489 0 -258.327
1555.69 14.1631 0 -228.009
1548.44 14.309 0 -227.947
760.178 12.4149 0 -191.492
752.962 12.7014 0 -191.41
2302.22 16.3644 0 -258.015
2324.01 16.0885 0 -258.231
756.57 12.5586 0 -191.452
1526.7 14.7406 0 -227.732
2313.11 16.227 0 -258.127
1541.19 14.4539 0 -227.881
1533.94 14.5978 0 -227.809
752.962 12.7014 0 -191.41
745.746 12.9845 0 -191.318
2280.44 16.6356 0 -257.77
2302.22 16.3644 0 -258.015
749.354 12.8434 0 -191.365
1512.2 15.0234 0 -227.563
2291.33 16.5005 0 -257.897
1526.7 14.7406 0 -227.732
1519.45 14.8825 0 -227.65
745.746 12.9845 0 -191.318
738.531 13.2643 0 -191.216
2258.66 16.9021 0 -257.496
2280.44 16.6356 0 -257.77
742.138 13.1248 0 -191.268
1497.71 15.302 0 -227.375
2269.55 16.7694 0 -257.637
1512.2 15.0234 0 -227.563
1504.96 15.1632 0 -227.471
738.531 13.2643 0 -191.216
731.316 13.5406 0 -191.105
2236.88 17.164 0 -257.192
2258.66 16.9021 0 -257.496
734.923 13.4029 0 -191.162
1483.22 15.5766 0 -227.167
2247.77 17.0336 0 -257.348
1497.71 15.302 0 -227.375
1490.47 15.4398 0 -227.273
731.316 13.5406 0 -191.105
724.103 13.8136 0 -190.984
2215.1 17.4211 0 -256.86
2236.88 17.164 0 -257.192
727.709 13.6775 0 -191.046
1468.74 15.847 0 -226.94
2225.99 17.2931 0 -257.03
1483.22 15.5766 0 -227.167
1475.98 15.7123 0 -227.056
724.103 13.8136 0 -190.984
716.89 14.0832 0 -190.854
2193.33 17.6736 0 -256.499
2215.1 17.4211 0 -256.86
720.496 13.9488 0 -190.92
1454.25 16.1134 0 -226.694
2204.22 17.5479 0 -256.683
1468.74 15.847 0 -226.94
1461.49 15.9807 0 -226.82
716.89 14.0832 0 -190.854
709.677 14.3493 0 -190.714
2171.57 17.9213 0 -256.109
2193.33 17.6736 0 -256.499
713.283 14.2167 0 -190.785
1439.77 16.3756 0 -226.429
2182.45 17.798 0 -256.308
1454.25 16.1134 0 -226.694
1447.01 16.245 0 -226.564
709.677 14.3493 0 -190.714
702.466 14.6121 0 -190.565
2149.8 18.1643 0 -255.692
2171.57 17.9213 0 -256.109
706.071 14.4811 0 -190.64
1425.29 16.6337 0 -226.146
2160.68 18.0434 0 -255.904
1439.77 16.3756 0 -226.429
1432.53 16.5052 0 -226.29
702.466 14.6121 0 -190.565
695.255 14.8715 0 -190.406
2128.04 18.4025 0 -255.247
2149.8 18.1643 0 -255.692
698.86 14.7422 0 -190.487
1410.81 16.8877 0 -225.844
2138.92 18.284 0 -255.473
1425.29 16.6337 0 -226.146
1418.05 16.7612 0 -225.997
695.255 14.8715 0 -190.406
688.045 15.1274 0 -190.239
2106.28 18.6359 0 -254.774
2128.04 18.4025 0 -255.247
691.65 14.9999 0 -190.324
1396.33 17.1375 0 -225.524
2117.16 18.5198 0 -255.014
1410.81 16.8877 0 -225.844
1403.57 17.0131 0 -225.686
688.045 15.1274 0 -190.239
680.835 15.3799 0 -190.062
2084.53 18.8646 0 -254.274
2106.28 18.6359 0 -254.774
684.44 15.2541 0 -190.152
1381.86 17.3832 0 -225.185
2095.41 18.7508 0 -254.528
1396.33 17.1375 0 -225.524
1389.09 17.2608 0 -225.357
680.835 15.3799 0 -190.062
673.627 15.629 0 -189.877
2062.78 19.0884 0 -253.748
2084.53 18.8646 0 -254.274
677.231 15.5049 0 -189.971
1367.38 17.6247 0 -224.829
2073.65 18.9771 0 -254.015
1381.86 17.3832 0 -225.185
1374.62 17.5044 0 -225.01
673.627 15.629 0 -189.877
666.419 15.8747 0 -189.683
2041.03 19.3075 0 -253.195
2062.78 19.0884 0 -253.748
670.023 15.7523 0 -189.781
1352.91 17.862 0 -224.455
2051.9 19.1986 0 -253.475
1367.38 17.6247 0 -224.829
1360.15 17.7439 0 -224.644
666.419 15.8747 0 -189.683
659.212 16.117 0 -189.48
2019.29 19.5218 0 -252.615
2041.03 19.3075 0 -253.195
662.815 15.9963 0 -189.582
1338.44 18.0952 0 -224.064
2030.16 19.4152 0 -252.908
1352.91 17.862 0 -224.455
1345.68 17.9791 0 -224.262
659.212 16.117 0 -189.48
652.005 16.3558 0 -189.268
1997.55 19.7312 0 -252.01
2019.29 19.5218 0 -252.615
655.608 16.2368 0 -189.375
1323.98 18.3242 0 -223.655
2008.42 19.6271 0 -252.316
1338.44 18.0952 0 -224.064
1331.21 18.2102 0 -223.862
652.005 16.3558 0 -189.268
644.799 16.5912 0 -189.048
1975.81 19.9358 0 -251.378
1997.55 19.7312 0 -252.01
648.402 16.474 0 -189.159
1309.51 18.5491 0 -223.229
1986.68 19.8341 0 -251.697
1323.98 18.3242 0 -223.655
1316.74 18.4372 0 -223.444
644.799 16.5912 0 -189.048
637.594 16.8232 0 -188.82
1954.08 20.1356 0 -250.722
1975.81 19.9358 0 -251.378
641.197 16.7077 0 -188.935
1295.05 18.7697 0 -222.787
1964.94 20.0363 0 -251.053
1309.51 18.5491 0 -223.229
1302.28 18.6599 0 -223.01
637.594 16.8232 0 -188.82
630.39 17.0518 0 -188.583
1932.35 20.3306 0 -250.04
1954.08 20.1356 0 -250.722
633.992 16.9379 0 -188.702
1280.59 18.9862 0 -222.327
1943.21 20.2337 0 -250.384
1295.05 18.7697 0 -222.787
1287.82 18.8785 0 -222.559
630.39 17.0518 0 -188.583
623.186 17.2769 0 -188.338
1910.62 20.5208 0 -249.333
1932.35 20.3306 0 -250.04
626.788 17.1648 0 -188.461
1266.13 19.1985 0 -221.851
1921.48 20.4263 0 -249.689
1280.59 18.9862 0 -222.327
1273.36 19.0929 0 -222.091
623.186 17.2769 0 -188.338
615.984 17.4986 0 -188.084
1888.9 20.7061 0 -248.602
1910.62 20.5208 0 -249.333
619.585 17.3882 0 -188.212
1251.67 19.4066 0 -221.359
1899.76 20.6141 0 -248.97
1266.13 19.1985 0 -221.851
1258.9 19.3031 0 -221.607
615.984 17.4986 0 -188.084
608.781 17.7169 0 -187.823
1867.18 20.8866 0 -247.846
1888.9 20.7061 0 -248.602
612.382 17.6082 0 -187.955
1237.22 19.6106 0 -220.85
1878.04 20.797 0 -248.227
1251.67 19.4066 0 -221.359
1244.44 19.5091 0 -221.106
608.781 17.7169 0 -187.823
601.58 17.9317 0 -187.554
1845.46 21.0623 0 -247.066
1867.18 20.8866 0 -247.846
605.181 17.8247 0 -187.69
1222.76 19.8103 0 -220.325
1856.32 20.9751 0 -247.459
1237.22 19.6106 0 -220.85
1229.99 19.711 0 -220.59
601.58 17.9317 0 -187.554
594.379 18.1431 0 -187.277
1823.75 21.2332 0 -246.263
1845.46 21.0623 0 -247.066
597.98 18.0379 0 -187.416
1208.31 20.0059 0 -219.785
1834.61 21.1483 0 -246.668
1222.76 19.8103 0 -220.325
1215.54 19.9087 0 -220.057
594.379 18.1431 0 -187.277
587.179 18.3511 0 -186.992
1802.04 21.3992 0 -245.436
1823.75 21.2332 0 -246.263
590.779 18.2476 0 -187.135
1193.87 20.1974 0 -219.229
1812.9 21.3168 0 -245.852
1208.31 20.0059 0 -219.785
1201.09 20.1022 0 -219.509
587.179 18.3511 0 -186.992
579.98 18.5557 0 -186.7
1780.34 21.5604 0 -244.586
1802.04 21.3992 0 -245.436
583.58 18.4538 0 -186.847
1179.42 20.3846 0 -218.658
1791.19 21.4804 0 -245.014
1193.87 20.1974 0 -219.229
1186.64 20.2915 0 -218.945
579.98 18.5557 0 -186.7
572.782 18.7569 0 -186.4
1758.63 21.7169 0 -243.713
1780.34 21.5604 0 -244.586
576.381 18.6567 0 -186.551
1164.97 20.5677 0 -218.071
1769.49 21.6393 0 -244.152
1179.42 20.3846 0 -218.658
1172.2 20.4767 0 -218.366
572.782 18.7569 0 -186.4
565.584 18.9546 0 -186.092
1736.94 21.8685 0 -242.818
1758.63 21.7169 0 -243.713
569.183 18.8561 0 -186.247
1150.53 20.7466 0 -217.47
1747.78 21.7933 0 -243.268
1164.97 20.5677 0 -218.071
1157.75 20.6577 0 -217.772
565.584 18.9546 0 -186.092
558.387 19.1489 0 -185.777
1715.24 22.0153 0 -241.9
1736.94 21.8685 0 -242.818
561.985 19.0522 0 -185.936
1136.09 20.9214 0 -216.853
1726.09 21.9425 0 -242.362
1150.53 20.7466 0 -217.47
1143.31 20.8345 0 -217.163
558.387 19.1489 0 -185.777
551.19 19.3398 0 -185.455
1693.55 22.1574 0 -240.96
1715.24 22.0153 0 -241.9
554.789 19.2448 0 -185.617
1121.65 21.092 0 -216.222
1704.39 22.0869 0 -241.433
1136.09 20.9214 0 -216.853
1128.87 21.0072 0 -216.539
551.19 19.3398 0 -185.455
543.995 19.5273 0 -185.126
1671.86 22.2946 0 -239.998
1693.55 22.1574 0 -240.96
547.593 19.434 0 -185.291
1107.22 21.2584 0 -215.576
1682.7 22.2266 0 -240.482
1121.65 21.092 0 -216.222
1114.43 21.1757 0 -215.901
543.995 19.5273 0 -185.126
536.8 19.7114 0 -184.789
1650.17 22.4271 0 -239.015
1671.86 22.2946 0 -239.998
540.397 19.6198 0 -184.959
1092.78 21.4208 0 -214.917
1661.02 22.3615 0 -239.51
1107.22 21.2584 0 -215.576
1100 21.3401 0 -215.248
536.8 19.7114 0 -184.789
529.606 19.8921 0 -184.446
1628.49 22.5549 0 -238.011
1650.17 22.4271 0 -239.015
533.203 19.8022 0 -184.619
1078.35 21.579 0 -214.243
1639.33 22.4916 0 -238.516
1092.78 21.4208 0 -214.917
1085.56 21.5004 0 -214.581
529.606 19.8921 0 -184.446
522.412 20.0694 0 -184.096
1606.81 22.6779 0 -236.986
1628.49 22.5549 0 -238.011
526.009 19.9812 0 -184.272
1063.92 21.7331 0 -213.555
1617.65 22.617 0 -237.501
1078.35 21.579 0 -214.243
1071.13 21.6565 0 -213.9
522.412 20.0694 0 -184.096
515.219 20.2433 0 -183.739
1585.14 22.7961 0 -235.94
1606.81 22.6779 0 -236.986
518.815 20.1568 0 -183.918
1049.49 21.883 0 -212.853
1595.98 22.7376 0 -236.466
1063.92 21.7331 0 -213.555
1056.7 21.8086 0 -213.206
515.219 20.2433 0 -183.739
508.027 20.4138 0 -183.375
1563.47 22.9097 0 -234.874
1585.14 22.7961 0 -235.94
511.623 20.329 0 -183.558
1035.06 22.0289 0 -212.138
1574.3 22.8535 0 -235.41
1049.49 21.883 0 -212.853
1042.27 21.9565 0 -212.498
508.027 20.4138 0 -183.375
500.835 20.581 0 -183.005
1541.8 23.0186 0 -233.788
1563.47 22.9097 0 -234.874
504.431 20.4978 0 -183.191
1020.64 22.1707 0 -211.41
1552.63 22.9647 0 -234.334
1035.06 22.0289 0 -212.138
1027.85 22.1003 0 -211.776
500.835 20.581 0 -183.005
493.644 20.7447 0 -182.628
1520.13 23.1227 0 -232.682
1541.8 23.0186 0 -233.788
497.24 20.6633 0 -182.817
1006.21 22.3084 0 -210.669
1530.97 23.0712 0 -233.238
1020.64 22.1707 0 -211.41
1013.42 22.24 0 -211.041
493.644 20.7447 0 -182.628
486.454 20.9051 0 -182.245
1498.47 23.2222 0 -231.557
1520.13 23.1227 0 -232.682
490.049 20.8254 0 -182.437
991.791 22.442 0 -209.914
1509.3 23.1731 0 -232.122
1006.21 22.3084 0 -210.669
999.001 22.3757 0 -210.293
486.454 20.9051 0 -182.245
479.264 21.0622 0 -181.855
1476.81 23.3171 0 -230.412
1498.47 23.2222 0 -231.557
482.859 20.9841 0 -182.051
977.371 22.5715 0 -209.147
1487.64 23.2702 0 -230.987
991.791 22.442 0 -209.914
984.581 22.5073 0 -209.532
479.264 21.0622 0 -181.855
472.075 21.2159 0 -181.459
1455.16 23.4073 0 -229.249
1476.81 23.3171 0 -230.412
475.67 21.1394 0 -181.658
962.953 22.6971 0 -208.367
1465.98 23.3628 0 -229.833
977.371 22.5715 0 -209.147
970.162 22.6348 0 -208.759
472.075 21.2159 0 -181.459
464.887 21.3662 0 -181.057
1433.5 23.4929 0 -228.067
1455.16 23.4073 0 -229.249
468.481 21.2914 0 -181.259
948.537 22.8185 0 -207.575
1444.33 23.4507 0 -228.66
962.953 22.6971 0 -208.367
955.745 22.7583 0 -207.973
464.887 21.3662 0 -181.057
457.699 21.5132 0 -180.649
1411.85 23.5739 0 -226.866
1433.5 23.4929 0 -228.067
461.293 21.4401 0 -180.854
934.123 22.936 0 -206.771
1422.68 23.534 0 -227.469
948.537 22.8185 0 -207.575
941.33 22.8778 0 -207.175
457.699 21.5132 0 -180.649
450.512 21.6568 0 -180.236
1390.21 23.6504 0 -225.648
1411.85 23.5739 0 -226.866
454.105 21.5854 0 -180.443
919.711 23.0494 0 -205.955
1401.03 23.6127 0 -226.259
934.123 22.936 0 -206.771
926.917 22.9932 0 -206.364
450.512 21.6568 0 -180.236
443.325 21.7971 0 -179.816
1368.56 23.7223 0 -224.412
1390.21 23.6504 0 -225.648
446.919 21.7274 0 -180.026
905.301 23.1589 0 -205.126
1379.39 23.6869 0 -225.032
919.711 23.0494 0 -205.955
912.506 23.1047 0 -205.542
443.325 21.7971 0 -179.816
436.139 21.9341 0 -179.39
1346.92 23.7896 0 -223.158
1368.56 23.7223 0 -224.412
439.732 21.866 0 -179.604
890.892 23.2644 0 -204.287
1357.74 23.7565 0 -223.787
905.301 23.1589 0 -205.126
898.096 23.2121 0 -204.708
436.139 21.9341 0 -179.39
428.954 22.0678 0 -178.959
1325.29 23.8525 0 -221.887
1346.92 23.7896 0 -223.158
432.547 22.0014 0 -179.176
876.485 23.3659 0 -203.436
1336.11 23.8216 0 -222.524
890.892 23.2644 0 -204.287
883.688 23.3156 0 -203.863
428.954 22.0678 0 -178.959
421.769 22.1982 0 -178.523
1303.65 23.9108 0 -220.599
1325.29 23.8525 0 -221.887
425.362 22.1334 0 -178.742
862.079 23.4635 0 -202.573
1314.47 23.8822 0 -221.245
876.485 23.3659 0 -203.436
869.282 23.4152 0 -203.006
421.769 22.1982 0 -178.523
414.585 22.3253 0 -178.08
1282.02 23.9648 0 -219.294
1303.65 23.9108 0 -220.599
418.177 22.2622 0 -178.302
847.676 23.5571 0 -201.7
1292.84 23.9384 0 -219.948
862.079 23.4635 0 -202.573
854.877 23.5108 0 -202.138
414.585 22.3253 0 -178.08
407.401 22.4491 0 -177.633
1260.39 24.0142 0 -217.973
1282.02 23.9648 0 -219.294
410.993 22.3876 0 -177.857
833.274 23.6469 0 -200.815
1271.21 23.99 0 -218.635
847.676 23.5571 0 -201.7
840.475 23.6025 0 -201.259
407.401 22.4491 0 -177.633
400.218 22.5696 0 -177.18
1238.77 24.0593 0 -216.636
1260.39 24.0142 0 -217.973
403.81 22.5097 0 -177.407
818.874 23.7327 0 -199.92
1249.58 24.0373 0 -217.306
833.274 23.6469 0 -200.815
826.074 23.6903 0 -200.369
400.218 22.5696 0 -177.18
393.036 22.6868 0 -176.722
1217.15 24.1 0 -215.283
1238.77 24.0593 0 -216.636
396.627 22.6286 0 -176.952
804.475 23.8147 0 -199.015
1227.96 24.0802 0 -215.961
818.874 23.7327 0 -199.92
811.674 23.7742 0 -199.469
393.036 22.6868 0 -176.722
385.853 22.8008 0 -176.259
1195.53 24.1363 0 -213.914
1217.15 24.1 0 -215.283
389.444 22.7442 0 -176.491
790.078 23.8928 0 -198.099
1206.34 24.1187 0 -214.6
804.475 23.8147 0 -199.015
797.276 23.8542 0 -198.558
385.853 22.8008 0 -176.259
378.672 22.9116 0 -175.791
1173.91 24.1683 0 -212.53
1195.53 24.1363 0 -213.914
382.263 22.8566 0 -176.026
775.683 23.967 0 -197.173
1184.72 24.1529 0 -213.224
790.078 23.8928 0 -198.099
782.88 23.9304 0 -197.637
378.672 22.9116 0 -175.791
371.491 23.0191 0 -175.318
1152.29 24.1961 0 -211.131
1173.91 24.1683 0 -212.53
375.081 22.9657 0 -175.555
761.289 24.0375 0 -196.237
1163.1 24.1827 0 -211.833
775.683 23.967 0 -197.173
768.485 24.0027 0 -196.706
371.491 23.0191 0 -175.318
364.31 23.1233 0 -174.841
1130.68 24.2195 0 -209.718
1152.29 24.1961 0 -211.131
367.9 23.0716 0 -175.08
746.896 24.1041 0 -195.291
1141.49 24.2083 0 -210.426
761.289 24.0375 0 -196.237
754.092 24.0713 0 -195.765
364.31 23.1233 0 -174.841
357.13 23.2244 0 -174.358
1109.07 24.2387 0 -208.29
1130.68 24.2195 0 -209.718
360.72 23.1743 0 -174.6
732.506 24.167 0 -194.336
1119.88 24.2296 0 -209.006
746.896 24.1041 0 -195.291
739.701 24.136 0 -194.815
357.13 23.2244 0 -174.358
349.95 23.3222 0 -173.871
1087.47 24.2537 0 -206.848
1109.07 24.2387 0 -208.29
353.54 23.2737 0 -174.115
718.116 24.2261 0 -193.371
1098.27 24.2467 0 -207.571
732.506 24.167 0 -194.336
725.311 24.197 0 -193.855
349.95 23.3222 0 -173.871
342.771 23.4168 0 -173.38
1065.87 24.2645 0 -205.392
1087.47 24.2537 0 -206.848
346.361 23.3699 0 -173.626
703.729 24.2814 0 -192.397
1076.67 24.2596 0 -206.121
718.116 24.2261 0 -193.371
710.922 24.2542 0 -192.885
342.771 23.4168 0 -173.38
335.592 23.5083 0 -172.884
1044.26 24.2712 0 -203.922
1065.87 24.2645 0 -205.392
339.182 23.463 0 -173.132
689.342 24.333 0 -191.415
1055.06 24.2684 0 -204.659
703.729 24.2814 0 -192.397
696.535 24.3077 0 -191.907
335.592 23.5083 0 -172.884
328.414 23.5966 0 -172.383
1022.67 24.2738 0 -202.439
1044.26 24.2712 0 -203.922
332.003 23.5528 0 -172.634
674.957 24.381 0 -190.423
1033.47 24.273 0 -203.182
689.342 24.333 0 -191.415
682.15 24.3575 0 -190.92
328.414 23.5966 0 -172.383
321.236 23.6816 0 -171.879
1001.07 24.2722 0 -200.943
1022.67 24.2738 0 -202.439
324.825 23.6395 0 -172.132
660.574 24.4252 0 -189.423
1011.87 24.2735 0 -201.693
674.957 24.381 0 -190.423
667.765 24.4036 0 -189.924
321.236 23.6816 0 -171.879
314.058 23.7636 0 -171.37
979.478 24.2667 0 -199.435
1001.07 24.2722 0 -200.943
317.647 23.723 0 -171.625
646.191 24.4658 0 -188.414
990.274 24.27 0 -200.191
660.574 24.4252 0 -189.423
653.382 24.446 0 -188.919
314.058 23.7636 0 -171.37
306.881 23.8424 0 -170.857
957.887 24.2571 0 -197.913
979.478 24.2667 0 -199.435
310.47 23.8034 0 -171.114
631.811 24.5028 0 -187.397
968.682 24.2624 0 -198.676
646.191 24.4658 0 -188.414
639.001 24.4848 0 -187.906
306.881 23.8424 0 -170.857
299.704 23.9181 0 -170.341
936.299 24.2435 0 -196.38
957.887 24.2571 0 -197.913
303.293 23.8806 0 -170.599
617.431 24.5362 0 -186.372
947.093 24.2508 0 -197.148
631.811 24.5028 0 -187.397
624.621 24.5199 0 -186.885
299.704 23.9181 0 -170.341
292.528 23.9906 0 -169.82
914.713 24.226 0 -194.835
936.299 24.2435 0 -196.38
296.116 23.9547 0 -170.081
603.053 24.566 0 -185.339
925.506 24.2353 0 -195.609
617.431 24.5362 0 -186.372
610.242 24.5515 0 -185.856
292.528 23.9906 0 -169.82
285.352 24.06 0 -169.296
893.129 24.2046 0 -193.278
914.713 24.226 0 -194.835
288.94 24.0257 0 -169.558
588.676 24.5922 0 -184.298
903.921 24.2158 0 -194.058
603.053 24.566 0 -185.339
595.864 24.5795 0 -184.819
285.352 24.06 0 -169.296
278.176 24.1264 0 -168.768
871.548 24.1793 0 -191.709
893.129 24.2046 0 -193.278
281.764 24.0936 0 -169.032
574.3 24.6149 0 -183.25
882.338 24.1925 0 -192.495
588.676 24.5922 0 -184.298
581.488 24.604 0 -183.775
278.176 24.1264 0 -168.768
271 24.1896 0 -168.236
849.969 24.1502 0 -190.13
871.548 24.1793 0 -191.709
274.588 24.1584 0 -168.502
559.926 24.634 0 -182.194
860.758 24.1652 0 -190.921
574.3 24.6149 0 -183.25
567.113 24.6249 0 -182.723
271 24.1896 0 -168.236
263.825 24.2498 0 -167.701
828.392 24.1173 0 -188.54
849.969 24.1502 0 -190.13
267.413 24.2201 0 -167.969
545.552 24.6497 0 -181.131
839.18 24.1342 0 -189.336
559.926 24.634 0 -182.194
552.739 24.6423 0 -181.664
263.825 24.2498 0 -167.701
256.65 24.307 0 -167.163
806.817 24.0806 0 -186.939
828.392 24.1173 0 -188.54
260.238 24.2788 0 -167.432
531.18 24.6619 0 -180.062
817.604 24.0994 0 -187.741
545.552 24.6497 0 -181.131
538.366 24.6563 0 -180.597
256.65 24.307 0 -167.163
249.476 24.361 0 -166.621
785.244 24.0402 0 -185.328
806.817 24.0806 0 -186.939
253.063 24.3344 0 -166.892
516.809 24.6707 0 -178.985
796.031 24.0608 0 -186.135
531.18 24.6619 0 -180.062
523.994 24.6667 0 -179.524
249.476 24.361 0 -166.621
242.301 24.4121 0 -166.076
763.674 23.9961 0 -183.707
785.244 24.0402 0 -185.328
245.888 24.3869 0 -166.349
502.439 24.6761 0 -177.902
774.459 24.0186 0 -184.519
516.809 24.6707 0 -178.985
509.624 24.6738 0 -178.444
242.301 24.4121 0 -166.076
235.127 24.4601 0 -165.528
742.105 23.9483 0 -182.076
763.674 23.9961 0 -183.707
238.714 24.4365 0 -165.802
488.07 24.6781 0 -176.813
752.889 23.9727 0 -182.893
502.439 24.6761 0 -177.902
495.254 24.6775 0 -177.358
235.127 24.4601 0 -165.528
227.953 24.5051 0 -164.977
720.538 23.897 0 -180.436
742.105 23.9483 0 -182.076
231.54 24.483 0 -165.253
473.702 24.6767 0 -175.717
731.321 23.9231 0 -181.257
488.07 24.6781 0 -176.813
480.886 24.6778 0 -176.266
227.953 24.5051 0 -164.977
220.779 24.5471 0 -164.423
698.974 23.842 0 -178.787
720.538 23.897 0 -180.436
224.366 24.5265 0 -164.7
459.335 24.6719 0 -174.615
709.756 23.8699 0 -179.613
473.702 24.6767 0 -175.717
466.518 24.6747 0 -175.167
220.779 24.5471 0 -164.423
213.606 24.5861 0 -163.866
677.411 23.7835 0 -177.129
698.974 23.842 0 -178.787
217.193 24.567 0 -164.144
444.969 24.6639 0 -173.508
688.192 23.8132 0 -177.959
459.335 24.6719 0 -174.615
452.152 24.6683 0 -174.062
213.606 24.5861 0 -163.866
206.432 24.6221 0 -163.306
655.85 23.7215 0 -175.462
677.411 23.7835 0 -177.129
210.019 24.6045 0 -163.586
430.604 24.6525 0 -172.394
666.63 23.753 0 -176.296
444.969 24.6639 0 -173.508
437.786 24.6586 0 -172.952
206.432 24.6221 0 -163.306
199.259 24.6552 0 -162.744
634.29 23.6561 0 -173.787
655.85 23.7215 0 -175.462
202.846 24.639 0 -163.025
416.24 24.6379 0 -171.276
645.07 23.6892 0 -174.625
430.604 24.6525 0 -172.394
423.422 24.6456 0 -171.836
199.259 24.6552 0 -162.744
192.086 24.6852 0 -162.179
612.733 23.5872 0 -172.104
634.29 23.6561 0 -173.787
195.673 24.6706 0 -162.462
401.876 24.62 0 -170.152
623.511 23.6221 0 -172.946
416.24 24.6379 0 -171.276
409.058 24.6293 0 -170.714
192.086 24.6852 0 -162.179
184.914 24.7123 0 -161.612
591.177 23.5149 0 -170.413
612.733 23.5872 0 -172.104
188.5 24.6991 0 -161.896
387.514 24.5989 0 -169.023
601.955 23.5515 0 -171.259
401.876 24.62 0 -170.152
394.695 24.6098 0 -169.588
184.914 24.7123 0 -161.612
177.741 24.7364 0 -161.042
569.623 23.4393 0 -168.715
591.177 23.5149 0 -170.413
181.327 24.7247 0 -161.327
373.152 24.5745 0 -167.889
580.399 23.4775 0 -169.565
387.514 24.5989 0 -169.023
380.333 24.5871 0 -168.456
177.741 24.7364 0 -161.042
170.568 24.7575 0 -160.47
548.07 23.3603 0 -167.009
569.623 23.4393 0 -168.715
174.155 24.7473 0 -160.756
358.792 24.5469 0 -166.75
558.846 23.4002 0 -167.863
373.152 24.5745 0 -167.889
365.972 24.5611 0 -167.32
170.568 24.7575 0 -160.47
163.396 24.7757 0 -159.896
526.519 23.278 0 -165.297
548.07 23.3603 0 -167.009
166.982 24.767 0 -160.184
344.432 24.5162 0 -165.607
537.294 23.3195 0 -166.154
358.792 24.5469 0 -166.75
351.612 24.532 0 -166.179
163.396 24.7757 0 -159.896
156.224 24.7909 0 -159.32
504.969 23.1925 0 -163.578
526.519 23.278 0 -165.297
159.81 24.7837 0 -159.608
330.073 24.4823 0 -164.459
515.744 23.2356 0 -164.439
344.432 24.5162 0 -165.607
337.252 24.4996 0 -165.034
156.224 24.7909 0 -159.32
149.053 24.8033 0 -158.742
483.421 23.1038 0 -161.853
504.969 23.1925 0 -163.578
152.638 24.7975 0 -159.031
315.715 24.4453 0 -163.308
494.195 23.1485 0 -162.717
330.073 24.4823 0 -164.459
322.894 24.4642 0 -163.884
149.053 24.8033 0 -158.742
141.881 24.813 0 -158.162
461.875 23.012 0 -160.122
483.421 23.1038 0 -161.853
145.467 24.8085 0 -158.452
301.357 24.4054 0 -162.152
472.648 23.0582 0 -160.989
315.715 24.4453 0 -163.308
308.536 24.4257 0 -162.731
141.881 24.813 0 -158.162
134.71 24.8201 0 -157.58
440.33 22.9172 0 -158.386
461.875 23.012 0 -160.122
138.296 24.8168 0 -157.871
287.001 24.3626 0 -160.993
451.102 22.9649 0 -159.255
301.357 24.4054 0 -162.152
294.179 24.3843 0 -161.573
134.71 24.8201 0 -157.58
127.54 24.8249 0 -156.996
418.787 22.8197 0 -156.643
440.33 22.9172 0 -158.386
131.125 24.8227 0 -157.289
272.646 24.3173 0 -159.83
429.559 22.8688 0 -157.515
287.001 24.3626 0 -160.993
279.824 24.3403 0 -160.412
127.54 24.8249 0 -156.996
120.37 24.8281 0 -156.41
397.246 22.7198 0 -154.895
418.787 22.8197 0 -156.643
123.955 24.8267 0 -156.704
258.292 24.27 0 -158.662
408.017 22.77 0 -155.77
272.646 24.3173 0 -159.83
265.469 24.2939 0 -159.247
120.37 24.8281 0 -156.41
113.199 24.8305 0 -155.822
375.707 22.6183 0 -153.141
397.246 22.7198 0 -154.895
116.785 24.8293 0 -156.116
243.939 24.2216 0 -157.491
386.476 22.6692 0 -154.018
258.292 24.27 0 -158.662
251.115 24.2459 0 -158.077
113.199 24.8305 0 -155.822
106.029 24.8338 0 -155.231
354.17 22.5163 0 -151.38
375.707 22.6183 0 -153.141
109.614 24.8319 0 -155.527
229.587 24.1735 0 -156.314
364.939 22.5672 0 -152.261
243.939 24.2216 0 -157.491
236.763 24.1973 0 -156.903
106.029 24.8338 0 -155.231
98.8557 24.8403 0 -154.638
332.635 22.4165 0 -149.611
354.17 22.5163 0 -151.38
102.443 24.8364 0 -154.935
215.234 24.1287 0 -155.133
343.403 22.4659 0 -150.496
229.587 24.1735 0 -156.314
222.411 24.1505 0 -155.724
98.8557 24.8403 0 -154.638
91.6781 24.8547 0 -154.044
311.1 22.323 0 -147.832
332.635 22.4165 0 -149.611
95.2676 24.8461 0 -154.341
200.878 24.0923 0 -153.945
321.868 22.3685 0 -148.723
215.234 24.1287 0 -155.133
208.057 24.109 0 -154.54
91.6781 24.8547 0 -154.044
84.4881 24.8838 0 -153.452
289.562 22.2447 0 -146.038
311.1 22.323 0 -147.832
88.0854 24.8668 0 -153.747
186.512 24.0733 0 -152.75
300.331 22.2811 0 -146.937
200.878 24.0923 0 -153.945
193.697 24.0798 0 -153.349
84.4881 24.8838 0 -153.452
77.2772 24.9409 0 -152.87
268.008 22.1957 0 -144.224
289.562 22.2447 0 -146.038
80.8855 24.9077 0 -153.159
172.124 24.0883 0 -151.55
278.788 22.2152 0 -145.134
186.512 24.0733 0 -152.75
179.322 24.0752 0 -152.151
77.2772 24.9409 0 -152.87
70.0172 25.0442 0 -152.314
246.423 22.2049 0 -142.378
268.008 22.1957 0 -144.224
73.6564 24.9852 0 -152.587
157.687 24.1641 0 -150.348
257.22 22.1905 0 -143.306
172.124 24.0883 0 -151.55
164.914 24.1158 0 -150.949
70.0172 25.0442 0 -152.314
62.6811 25.2315 0 -151.818
224.751 22.3129 0 -140.487
246.423 22.2049 0 -142.378
66.359 25.1243 0 -152.056
143.151 24.3486 0 -149.153
235.604 22.2427 0 -141.439
157.687 24.1641 0 -150.348
150.436 24.2392 0 -149.748
62.6811 25.2315 0 -151.818
55.1756 25.5416 0 -151.443
202.932 22.6017 0 -138.524
224.751 22.3129 0 -140.487
58.9604 25.3675 0 -151.61
128.425 24.7086 0 -147.99
213.861 22.4282 0 -139.517
143.151 24.3486 0 -149.153
135.818 24.4995 0 -148.568
55.1756 25.5416 0 -151.443
47.4378 26.0664 0 -151.29
180.763 23.1562 0 -136.472
202.932 22.6017 0 -138.524
51.3337 25.7717 0 -151.33
113.349 25.354 0 -146.903
191.915 22.8373 0 -137.51
128.425 24.7086 0 -147.99
120.945 24.9906 0 -147.429
47.4378 26.0664 0 -151.29
39.2035 26.8367 0 -151.523
158.08 24.1557 0 -134.289
180.763 23.1562 0 -136.472
43.4162 26.4165 0 -151.345
97.6703 26.38 0 -145.979
169.485 23.5918 0 -135.401
113.349 25.354 0 -146.903
105.599 25.807 0 -146.423
39.2035 26.8367 0 -151.523
30.4249 27.9899 0 -152.348
134.26 25.6245 0 -132.028
158.08 24.1557 0 -134.289
34.8599 27.3681 0 -151.846
81.0041 27.8982 0 -145.359
146.386 24.8251 0 -133.159
97.6703 26.38 0 -145.979
89.5014 27.0913 0 -145.6
30.4249 27.9899 0 -152.348
20.5526 29.2197 0 -153.999
109.064 27.7059 0 -129.736
134.26 25.6245 0 -132.028
25.7114 28.614 0 -153.058
62.9202 29.6578 0 -145.275
121.804 26.6176 0 -130.881
81.0041 27.8982 0 -145.359
72.1462 28.7559 0 -145.268
20.5526 29.2197 0 -153.999
10.1372 30.3094 0 -156.429
81.0992 29.4098 0 -127.996
109.064 27.7059 0 -129.736
15.2812 29.865 0 -155.129
43.0068 31.0119 0 -146
95.6226 28.67 0 -128.734
62.9202 29.6578 0 -145.275
53.2693 30.5391 0 -145.443
10.1372 30.3094 0 -156.429
-1.2194 28.9954 0 -158.996
51.2395 29.4224 0 -127.455
81.0992 29.4098 0 -127.996
4.7367 30.0949 0 -157.783
21.8596 29.298 0 -147.724
66.1744 29.9367 0 -127.507
43.0068 31.0119 0 -146
32.4187 30.7032 0 -146.866
-1.2194 28.9954 0 -158.996
-10.1146 23.3542 0 -158.984
18.878 20.6339 0 -130.15
51.2395 29.4224 0 -127.455
-6.49746 27.0281 0 -159.565
1.57549 20.2602 0 -149.446
35.6536 26.6463 0 -128.245
21.8596 29.298 0 -147.724
11.6073 26.299 0 -148.483
-10.1146 23.3542 0 -158.984
-16.6205 7.64009 0 -150.96
-5.89269 -7.53909 0 -134.331
18.878 20.6339 0 -130.15
-13.2947 16.6863 0 -156.494
-10.9483 -4.12325 0 -146.045
4.26663 10.5999 0 -132.314
1.57549 20.2602 0 -149.446
-6.67991 10.0252 0 -149.396
-16.6205 7.64009 0 -150.96
-13.2295 -12.9853 0 -125.279
-18.6937 -80.9223 0 -128.99
-5.89269 -7.53909 0 -134.331
-17.323 -2.2141 0 -140.892
-14.078 -45.8615 0 -125.002
-13.6786 -38.5932 0 -134.639
-10.9483 -4.12325 0 -146.045
-12.7865 -22.5476 0 -137.991
-13.2295 -12.9853 0 -125.279
-0.917429 -42.5584 0 -74.8197
-12.2505 -174.099 0 -79.202
-18.6937 -80.9223 0 -128.99
-6.99711 -26.2585 0 -103.534
-10.8975 -103.105 0 -80.2993
-19.2684 -129.83 0 -111.727
-14.078 -45.8615 0 -125.002
-13.9996 -73.5773 0 -106.344
3832.4 1146.04 0 349.224
4166.8 719.085 0 -18.2797
7085.47 760.983 0 -405.43
6688.82 1994.74 0 -277.377
4059.26 916.997 0 127.528
5533.83 833.289 0 -171.083
6949.89 1435.42 0 -465.226
5461.66 1630.42 0 47.7333
5405.91 1159.38 0 -59.0068
4166.8 719.085 0 -18.2797
4247.88 308.021 0 -135.28
7195.47 222.287 0 -205.189
7085.47 760.983 0 -405.43
4203.02 498.543 0 -92.9998
5734.79 320.946 0 -203.412
7188.05 389.55 0 -299.179
5533.83 833.289 0 -171.083
5687.98 558.212 0 -224.335
4247.88 308.021 0 -135.28
4289.89 99.2898 0 -160.774
7106.11 33.3559 0 -91.5808
7195.47 222.287 0 -205.189
4287.4 182.839 0 -157.048
5723.32 85.0509 0 -145.211
7141.96 105.469 0 -130.013
5734.79 320.946 0 -203.412
5733.39 169.225 0 -165.885
4289.89 99.2898 0 -160.774
4258.13 1.74378 0 -152.762
7043.6 -8.82008 0 -69.4171
7106.11 33.3559 0 -91.5808
4272.58 39.0082 0 -156.149
5669.39 -6.41028 0 -118.236
7078.48 2.99275 0 -75.9364
5723.32 85.0509 0 -145.211
5700.34 29.2823 0 -130.582
4258.13 1.74378 0 -152.762
4220.12 -27.3678 0 -148.057
6980.77 -24.6162 0 -72.8122
7043.6 -8.82008 0 -69.4171
4242.38 -17.5051 0 -150.455
5610.65 -29.345 0 -112.271
7007.15 -19.0171 0 -68.4473
5669.39 -6.41028 0 -118.236
5637.59 -23.7482 0 -112.041
4220.12 -27.3678 0 -148.057
4175.89 -34.7807 0 -145.846
6937.14 -22.3177 0 -86.658
6980.77 -24.6162 0 -72.8122
4195.91 -33.1478 0 -146.153
5561.49 -32.5975 0 -116.817
6959.61 -24.2915 0 -79.9282
5610.65 -29.345 0 -112.271
5585.56 -31.8741 0 -114.485
4175.89 -34.7807 0 -145.846
4140.02 -31.5274 0 -147.227
6895.14 -19.6286 0 -99.315
6937.14 -22.3177 0 -86.658
4158.01 -33.5909 0 -146.451
5519.32 -28.0846 0 -124.155
6914.84 -21.0831 0 -92.9754
5561.49 -32.5975 0 -116.817
5539.3 -30.9559 0 -120.088
4140.02 -31.5274 0 -147.227
4107.62 -27.2383 0 -149.577
6857.84 -15.8133 0 -110.686
6895.14 -19.6286 0 -99.315
4122.82 -29.483 0 -148.214
5482.76 -23.3897 0 -131.608
6876.69 -17.6193 0 -105.397
5519.32 -28.0846 0 -124.155
5500.63 -25.5455 0 -128.097
4107.62 -27.2383 0 -149.577
4080.08 -22.997 0 -152.681
6820.65 -13.312 0 -119.678
6857.84 -15.8133 0 -110.686
4093.65 -24.9628 0 -151.131
5449.46 -19.3301 0 -138.254
6838.97 -14.4696 0 -115.367
5482.76 -23.3897 0 -131.608
5465.74 -21.2747 0 -134.989
4080.08 -22.997 0 -152.681
4054.68 -20.0025 0 -155.854
6784.31 -11.3896 0 -127.261
6820.65 -13.312 0 -119.678
4067.02 -21.3885 0 -154.244
5418.15 -16.5427 0 -144.024
6802.55 -12.2498 0 -123.661
5449.46 -19.3301 0 -138.254
5433.65 -17.7739 0 -141.268
4054.68 -20.0025 0 -155.854
4031.08 -17.8404 0 -159.068
6747.85 -10.1617 0 -133.689
6784.31 -11.3896 0 -127.261
4042.78 -18.809 0 -157.476
5387.91 -14.6137 0 -149.115
6766.04 -10.7208 0 -130.572
5418.15 -16.5427 0 -144.024
5402.93 -15.494 0 -146.63
4031.08 -17.8404 0 -159.068
4008.26 -16.3965 0 -162.198
6711.47 -9.28338 0 -139.464
6747.85 -10.1617 0 -133.689
4019.56 -17.0553 0 -160.639
5358.23 -13.3367 0 -153.717
6729.69 -9.68072 0 -136.65
5387.91 -14.6137 0 -149.115
5373.03 -13.907 0 -151.472
4008.26 -16.3965 0 -162.198
3985.97 -15.3606 0 -165.256
6675 -8.65896 0 -144.784
6711.47 -9.28338 0 -139.464
3997.08 -15.8337 0 -163.739
5328.82 -12.4353 0 -157.996
6693.23 -8.95093 0 -142.164
5358.23 -13.3367 0 -153.717
5343.5 -12.8513 0 -155.887
3985.97 -15.3606 0 -165.256
3963.9 -14.5929 0 -168.229
6638.5 -8.15942 0 -149.834
6675 -8.65896 0 -144.784
3974.91 -14.9537 0 -166.751
5299.54 -11.7644 0 -162.053
6656.76 -8.39619 0 -147.338
5328.82 -12.4353 0 -157.996
5314.17 -12.0778 0 -160.048
3963.9 -14.5929 0 -168.229
3941.96 -13.9658 0 -171.128
6601.95 -7.73382 0 -154.69
6638.5 -8.15942 0 -149.834
3952.92 -14.2652 0 -169.688
5270.3 -11.2148 0 -165.955
6620.23 -7.94093 0 -152.281
5299.54 -11.7644 0 -162.053
5284.92 -11.4789 0 -164.02
3941.96 -13.9658 0 -171.128
3920.06 -13.4202 0 -173.958
6565.39 -7.34145 0 -159.41
6601.95 -7.73382 0 -154.69
3931 -13.6861 0 -172.551
5241.08 -10.731 0 -169.741
6583.67 -7.53452 0 -157.066
5270.3 -11.2148 0 -165.955
5255.69 -10.967 0 -167.861
3920.06 -13.4202 0 -173.958
3898.19 -12.915 0 -176.724
6528.79 -6.96526 0 -164.016
6565.39 -7.34145 0 -159.41
3909.12 -13.1638 0 -175.349
5211.87 -10.2789 0 -173.432
6547.09 -7.15229 0 -161.726
5241.08 -10.731 0 -169.741
5226.48 -10.5023 0 -171.598
3898.19 -12.915 0 -176.724
3876.32 -12.4316 0 -179.429
6492.19 -6.59434 0 -168.525
6528.79 -6.96526 0 -164.016
3887.25 -12.6715 0 -178.084
5182.65 -9.84183 0 -177.041
6510.49 -6.77944 0 -166.282
5211.87 -10.2789 0 -173.432
5197.26 -10.0591 0 -175.247
3876.32 -12.4316 0 -179.429
3854.45 -11.9585 0 -182.078
6455.58 -6.22428 0 -172.941
6492.19 -6.59434 0 -168.525
3865.39 -12.1941 0 -180.761
5153.42 -9.41099 0 -180.575
6473.88 -6.40942 0 -170.744
5182.65 -9.84183 0 -177.041
5168.03 -9.62597 0 -178.817
3854.45 -11.9585 0 -182.078
3832.58 -11.4907 0 -184.673
6418.96 -5.85268 0 -177.271
6455.58 -6.22428 0 -172.941
3843.52 -11.7241 0 -183.382
5124.19 -8.98225 0 -184.037
6437.27 -6.03873 0 -175.117
5153.42 -9.41099 0 -180.575
5138.8 -9.1965 0 -182.314
3832.58 -11.4907 0 -184.673
3810.71 -11.0255 0 -187.214
6382.33 -5.4787 0 -181.515
6418.96 -5.85268 0 -177.271
3821.65 -11.2579 0 -185.95
5094.95 -8.55363 0 -187.429
6400.64 -5.66602 0 -179.404
5124.19 -8.98225 0 -184.037
5109.57 -8.76799 0 -185.741
3810.71 -11.0255 0 -187.214
3788.83 -10.5616 0 -189.704
6345.7 -5.10201 0 -185.676
6382.33 -5.4787 0 -181.515
3799.77 -10.7934 0 -188.466
5065.71 -8.12431 0 -190.753
6364.01 -5.29069 0 -183.606
5094.95 -8.55363 0 -187.429
5080.33 -8.33908 0 -189.099
3788.83 -10.5616 0 -189.704
3766.96 -10.0984 0 -192.144
6309.06 -4.72262 0 -189.753
6345.7 -5.10201 0 -185.676
3777.9 -10.3299 0 -190.93
5036.46 -7.69397 0 -194.011
6327.38 -4.91265 0 -187.725
5065.71 -8.12431 0 -190.753
5051.09 -7.90927 0 -192.39
3766.96 -10.0984 0 -192.144
3745.08 -9.63548 0 -194.533
6272.43 -4.34062 0 -193.748
6309.06 -4.72262 0 -189.753
3756.02 -9.86688 0 -193.345
5007.22 -7.26252 0 -197.202
6290.74 -4.53194 0 -191.761
5036.46 -7.69397 0 -194.011
5021.84 -7.47838 0 -195.615
3745.08 -9.63548 0 -194.533
3723.19 -9.17287 0 -196.874
6235.79 -3.95618 0 -197.662
6272.43 -4.34062 0 -193.748
3734.14 -9.40415 0 -195.71
4977.97 -6.83 0 -200.328
6254.11 -4.1487 0 -195.715
5007.22 -7.26252 0 -197.202
4992.59 -7.04639 0 -198.774
3723.19 -9.17287 0 -196.874
3701.31 -8.71047 0 -199.165
6199.15 -3.56948 0 -201.495
6235.79 -3.95618 0 -197.662
3712.25 -8.94164 0 -198.026
4948.72 -6.39649 0 -203.39
6217.47 -3.7631 0 -199.588
4977.97 -6.83 0 -200.328
4963.35 -6.61336 0 -201.867
3701.31 -8.71047 0 -199.165
3679.43 -8.24831 0 -201.408
6162.5 -3.18071 0 -205.247
6199.15 -3.56948 0 -201.495
3690.37 -8.47935 0 -200.293
4919.47 -5.9621 0 -206.386
6180.83 -3.37534 0 -203.381
4948.72 -6.39649 0 -203.39
4934.09 -6.1794 0 -204.896
3679.43 -8.24831 0 -201.408
3657.54 -7.78645 0 -203.603
6125.86 -2.79007 0 -208.919
6162.5 -3.18071 0 -205.247
3668.48 -8.01734 0 -202.512
4890.21 -5.52698 0 -209.319
6144.18 -2.98561 0 -207.093
4919.47 -5.9621 0 -206.386
4904.84 -5.74463 0 -207.861
3657.54 -7.78645 0 -203.603
3635.65 -7.32498 0 -205.751
6089.22 -2.39776 0 -212.512
6125.86 -2.79007 0 -208.919
3646.59 -7.55566 0 -204.683
4860.96 -5.09127 0 -212.188
6107.54 -2.59411 0 -210.725
4890.21 -5.52698 0 -209.319
4875.59 -5.30919 0 -210.762
3635.65 -7.32498 0 -205.751
3613.76 -6.86399 0 -207.851
6052.57 -2.00398 0 -216.026
6089.22 -2.39776 0 -212.512
3624.71 -7.09442 0 -206.807
4831.7 -4.65511 0 -214.994
6070.89 -2.20104 0 -214.279
4860.96 -5.09127 0 -212.188
4846.33 -4.87323 0 -213.599
3613.76 -6.86399 0 -207.851
3591.87 -6.40359 0 -209.904
6015.92 -1.60893 0 -219.461
6052.57 -2.00398 0 -216.026
3602.82 -6.63371 0 -208.883
4802.45 -4.21867 0 -217.738
6034.25 -1.8066 0 -217.753
4831.7 -4.65511 0 -214.994
4817.08 -4.43692 0 -216.374
3591.87 -6.40359 0 -209.904
3569.98 -5.9439 0 -211.91
5979.28 -1.21282 0 -222.818
6015.92 -1.60893 0 -219.461
3580.93 -6.17365 0 -210.912
4773.19 -3.7821 0 -220.419
5997.6 -1.411 0 -221.149
4802.45 -4.21867 0 -217.738
4787.82 -4.00039 0 -219.086
3569.98 -5.9439 0 -211.91
3548.09 -5.48503 0 -213.869
5942.63 -0.815831 0 -226.098
5979.28 -1.21282 0 -222.818
3559.03 -5.71435 0 -212.895
4743.93 -3.34555 0 -223.037
5960.95 -1.01442 0 -224.468
4773.19 -3.7821 0 -220.419
4758.56 -3.56381 0 -221.736
3548.09 -5.48503 0 -213.869
3526.2 -5.0271 0 -215.782
5905.99 -0.418167 0 -229.3
5942.63 -0.815831 0 -226.098
3537.14 -5.25594 0 -214.831
4714.67 -2.9092 0 -225.594
5924.31 -0.617072 0 -227.709
4743.93 -3.34555 0 -223.037
4729.3 -3.12734 0 -224.324
3526.2 -5.0271 0 -215.782
3504.3 -4.57023 0 -217.65
5869.34 -0.020018 0 -232.426
5905.99 -0.418167 0 -229.3
3515.25 -4.79853 0 -216.722
4685.42 -2.47318 0 -228.09
5887.66 -0.219142 0 -230.873
4714.67 -2.9092 0 -225.594
4700.04 -2.69114 0 -226.85
3504.3 -4.57023 0 -217.65
3482.41 -4.11452 0 -219.471
5832.69 0.378428 0 -235.476
5869.34 -0.020018 0 -232.426
3493.36 -4.34222 0 -218.566
4656.16 -2.03765 0 -230.525
5851.02 0.17918 0 -233.961
4685.42 -2.47318 0 -228.09
4670.79 -2.25534 0 -229.315
3482.41 -4.11452 0 -219.471
3460.52 -3.6601 0 -221.247
5796.05 0.776987 0 -238.45
5832.69 0.378428 0 -235.476
3471.46 -3.88715 0 -220.365
4626.9 -1.60276 0 -232.9
5814.37 0.577705 0 -236.972
4656.16 -2.03765 0 -230.525
4641.53 -1.82011 0 -231.72
3460.52 -3.6601 0 -221.247
3438.62 -3.20708 0 -222.978
5759.4 1.17548 0 -241.349
5796.05 0.776987 0 -238.45
3449.57 -3.43341 0 -222.118
4597.64 -1.16865 0 -235.214
5777.73 0.976252 0 -239.909
4626.9 -1.60276 0 -232.9
4612.27 -1.3856 0 -234.064
3438.62 -3.20708 0 -222.978
3416.73 -2.75555 0 -224.664
5722.76 1.57372 0 -244.173
5759.4 1.17548 0 -241.349
3427.68 -2.98112 0 -223.827
4568.38 -0.735473 0 -237.468
5741.08 1.37464 0 -242.77
4597.64 -1.16865 0 -235.214
4583.01 -0.951937 0 -236.348
3416.73 -2.75555 0 -224.664
3394.84 -2.30563 0 -226.306
5686.12 1.97154 0 -246.923
5722.76 1.57372 0 -244.173
3405.78 -2.53039 0 -225.491
4539.13 -0.303362 0 -239.663
5704.44 1.7727 0 -245.557
4568.38 -0.735473 0 -237.468
4553.75 -0.519275 0 -238.573
3394.84 -2.30563 0 -226.306
3372.94 -1.85743 0 -227.903
5649.48 2.36877 0 -249.599
5686.12 1.97154 0 -246.923
3383.89 -2.08131 0 -227.11
4509.87 0.127545 0 -241.799
5667.8 2.17024 0 -248.27
4539.13 -0.303362 0 -239.663
4524.5 -0.0877492 0 -240.739
3372.94 -1.85743 0 -227.903
3351.05 -1.41103 0 -229.457
5612.84 2.76525 0 -252.202
5649.48 2.36877 0 -249.599
3362 -1.634 0 -228.686
4480.61 0.557113 0 -243.877
5631.16 2.56712 0 -250.91
4509.87 0.127545 0 -241.799
4495.24 0.342505 0 -242.846
3351.05 -1.41103 0 -229.457
3329.16 -0.966545 0 -230.967
5576.2 3.16079 0 -254.732
5612.84 2.76525 0 -252.202
3340.1 -1.18854 0 -230.217
4451.36 0.98521 0 -245.896
5594.52 2.96314 0 -253.476
4480.61 0.557113 0 -243.877
4465.99 0.771354 0 -244.894
3329.16 -0.966545 0 -230.967
3307.27 -0.524067 0 -232.433
5539.56 3.55525 0 -257.19
5576.2 3.16079 0 -254.732
3318.21 -0.745049 0 -231.705
4422.11 1.41171 0 -247.858
5557.88 3.35817 0 -255.97
4451.36 0.98521 0 -245.896
4436.73 1.19867 0 -246.884
3307.27 -0.524067 0 -232.433
3285.38 -0.0836908 0 -233.856
5502.93 3.94847 0 -259.576
5539.56 3.55525 0 -257.19
3296.32 -0.30361 0 -233.15
4392.86 1.83648 0 -249.762
5521.25 3.75203 0 -258.392
4422.11 1.41171 0 -247.858
4407.48 1.62432 0 -248.817
3285.38 -0.0836908 0 -233.856
3263.49 0.35449 0 -235.237
5466.3 4.34029 0 -261.891
5502.93 3.94847 0 -259.576
3274.43 0.13568 0 -234.552
4363.6 2.2594 0 -251.609
5484.61 4.14456 0 -260.742
4392.86 1.83648 0 -249.762
4378.23 2.04818 0 -250.692
3263.49 0.35449 0 -235.237
3241.6 0.790385 0 -236.575
5429.67 4.73056 0 -264.135
5466.3 4.34029 0 -261.891
3252.54 0.572729 0 -235.911
4334.36 2.68035 0 -253.399
5447.98 4.53563 0 -263.022
4363.6 2.2594 0 -251.609
4348.98 2.47013 0 -252.511
3241.6 0.790385 0 -236.575
3219.71 1.2239 0 -237.87
5393.04 5.11913 0 -266.308
5429.67 4.73056 0 -264.135
3230.65 1.00745 0 -237.228
4305.11 3.09921 0 -255.133
5411.36 4.92506 0 -265.23
4334.36 2.68035 0 -253.399
4319.73 2.89005 0 -254.273
3219.71 1.2239 0 -237.87
3197.82 1.65496 0 -239.124
5356.42 5.50585 0 -268.412
5393.04 5.11913 0 -266.308
3208.76 1.43975 0 -238.503
4275.86 3.51586 0 -256.811
5374.73 5.31273 0 -267.369
4305.11 3.09921 0 -255.133
4290.49 3.30782 0 -255.979
3197.82 1.65496 0 -239.124
3175.93 2.08347 0 -240.336
5319.8 5.89059 0 -270.446
5356.42 5.50585 0 -268.412
3186.88 1.86954 0 -239.736
4246.62 3.93019 0 -258.434
5338.11 5.69848 0 -269.437
4275.86 3.51586 0 -256.811
4261.24 3.72333 0 -257.629
3175.93 2.08347 0 -240.336
3154.05 2.50935 0 -241.507
5283.18 6.2732 0 -272.411
5319.8 5.89059 0 -270.446
3164.99 2.29674 0 -240.927
4217.38 4.34209 0 -260.001
5301.49 6.08217 0 -271.437
4246.62 3.93019 0 -258.434
4232 4.13646 0 -259.224
3154.05 2.50935 0 -241.507
3132.17 2.93251 0 -242.637
5246.57 6.65354 0 -274.308
5283.18 6.2732 0 -272.411
3143.11 2.72127 0 -242.077
4188.14 4.75145 0 -261.514
5264.87 6.46366 0 -273.368
4217.38 4.34209 0 -260.001
4202.76 4.5471 0 -260.764
3132.17 2.93251 0 -242.637
3110.28 3.35288 0 -243.726
5209.95 7.03149 0 -276.137
5246.57 6.65354 0 -274.308
3121.22 3.14305 0 -243.187
4158.9 5.15816 0 -262.972
5228.26 6.84283 0 -275.231
4188.14 4.75145 0 -261.514
4173.52 4.95514 0 -262.25
3110.28 3.35288 0 -243.726
3088.4 3.77038 0 -244.775
5173.35 7.40691 0 -277.898
5209.95 7.03149 0 -276.137
3099.34 3.562 0 -244.255
4129.67 5.56212 0 -264.377
5191.65 7.21953 0 -277.026
4158.9 5.15816 0 -262.972
4144.28 5.36049 0 -263.681
3088.4 3.77038 0 -244.775
3066.52 4.18493 0 -245.783
5136.74 7.77967 0 -279.592
5173.35 7.40691 0 -277.898
3077.46 3.97803 0 -245.284
4100.44 5.96322 0 -265.727
5155.04 7.59363 0 -278.754
4129.67 5.56212 0 -264.377
4115.05 5.76303 0 -265.059
3066.52 4.18493 0 -245.783
3044.64 4.59646 0 -246.751
5100.14 8.14966 0 -281.22
5136.74 7.77967 0 -279.592
3055.58 4.39108 0 -246.272
4071.21 6.36136 0 -267.025
5118.44 7.96502 0 -280.415
4100.44 5.96322 0 -265.727
4085.82 6.16267 0 -266.383
3044.64 4.59646 0 -246.751
3022.77 5.00489 0 -247.68
5063.54 8.51673 0 -282.782
5100.14 8.14966 0 -281.22
3033.71 4.80107 0 -247.221
4041.98 6.75646 0 -268.27
5081.84 8.33357 0 -282.009
4071.21 6.36136 0 -267.025
4056.59 6.5593 0 -267.654
3022.77 5.00489 0 -247.68
3000.89 5.41015 0 -248.57
5026.95 8.88079 0 -284.278
5063.54 8.51673 0 -282.782
3011.83 5.20792 0 -248.13
4012.75 7.1484 0 -269.462
5045.25 8.69915 0 -283.538
4041.98 6.75646 0 -268.27
4027.37 6.95283 0 -268.873
3000.89 5.41015 0 -248.57
2979.02 5.81218 0 -249.42
4990.36 9.24171 0 -285.71
5026.95 8.88079 0 -284.278
2989.96 5.61158 0 -249
3983.53 7.5371 0 -270.603
5008.66 9.06165 0 -285.002
4012.75 7.1484 0 -269.462
3998.14 7.34316 0 -270.039
2979.02 5.81218 0 -249.42
2957.15 6.2109 0 -250.232
4953.78 9.59937 0 -287.076
4990.36 9.24171 0 -285.71
2968.09 6.01196 0 -249.831
3954.32 7.92248 0 -271.691
4972.07 9.42095 0 -286.401
3983.53 7.5371 0 -270.603
3968.92 7.73021 0 -271.153
2957.15 6.2109 0 -250.232
2935.28 6.60625 0 -251.005
4917.2 9.95367 0 -288.379
4953.78 9.59937 0 -287.076
2946.22 6.409 0 -250.623
3925.1 8.30443 0 -272.729
4935.49 9.77695 0 -287.736
3954.32 7.92248 0 -271.691
3939.71 8.11389 0 -272.216
2935.28 6.60625 0 -251.005
2913.42 6.99816 0 -251.74
4880.62 10.3045 0 -289.618
4917.2 9.95367 0 -288.379
2924.35 6.80264 0 -251.378
3895.89 8.68287 0 -273.715
4898.91 10.1295 0 -289.006
3925.1 8.30443 0 -272.729
3910.49 8.4941 0 -273.228
2913.42 6.99816 0 -251.74
2891.55 7.38658 0 -252.438
4844.05 10.6518 0 -290.794
4880.62 10.3045 0 -289.618
2902.48 7.19281 0 -252.094
3866.68 9.05773 0 -274.651
4862.33 10.4786 0 -290.214
3895.89 8.68287 0 -273.715
3881.28 8.87076 0 -274.19
2891.55 7.38658 0 -252.438
2869.69 7.77143 0 -253.097
4807.48 10.9953 0 -291.907
4844.05 10.6518 0 -290.794
2880.62 7.57946 0 -252.772
3837.47 9.42891 0 -275.537
4825.77 10.824 0 -291.358
3866.68 9.05773 0 -274.651
3852.08 9.24378 0 -275.101
2869.69 7.77143 0 -253.097
2847.83 8.15267 0 -253.72
4770.92 11.3351 0 -292.958
4807.48 10.9953 0 -291.907
2858.76 7.96251 0 -253.413
3808.27 9.79634 0 -276.374
4789.2 11.1657 0 -292.44
3837.47 9.42891 0 -275.537
3822.87 9.6131 0 -275.962
2847.83 8.15267 0 -253.72
2825.97 8.53023 0 -254.305
4734.36 11.671 0 -293.947
4770.92 11.3351 0 -292.958
2836.9 8.34191 0 -254.017
3779.07 10.1599 0 -277.161
4752.64 11.5036 0 -293.46
3808.27 9.79634 0 -276.374
3793.67 9.97863 0 -276.773
2825.97 8.53023 0 -254.305
2804.12 8.90405 0 -254.854
4697.81 12.003 0 -294.875
4734.36 11.671 0 -293.947
2815.05 8.71761 0 -254.584
3749.88 10.5196 0 -277.899
4716.09 11.8375 0 -294.419
3779.07 10.1599 0 -277.161
3764.48 10.3403 0 -277.536
2804.12 8.90405 0 -254.854
2782.27 9.27408 0 -255.367
4661.26 12.3309 0 -295.743
4697.81 12.003 0 -294.875
2793.19 9.08954 0 -255.115
3720.69 10.8754 0 -278.588
4679.54 12.1675 0 -295.317
3749.88 10.5196 0 -277.899
3735.28 10.698 0 -278.249
2782.27 9.27408 0 -255.367
2760.42 9.64027 0 -255.843
4624.72 12.6546 0 -296.55
4661.26 12.3309 0 -295.743
2771.34 9.45766 0 -255.609
3691.5 11.227 0 -279.229
4642.99 12.4933 0 -296.154
3720.69 10.8754 0 -278.588
3706.09 11.0517 0 -278.915
2760.42 9.64027 0 -255.843
2738.57 10.0026 0 -256.283
4588.18 12.9741 0 -297.297
4624.72 12.6546 0 -296.55
2749.49 9.82191 0 -256.068
3662.32 11.5746 0 -279.823
4606.45 12.8149 0 -296.931
3691.5 11.227 0 -279.229
3676.91 11.4013 0 -279.532
2738.57 10.0026 0 -256.283
2716.72 10.3609 0 -256.688
4551.65 13.2893 0 -297.986
4588.18 12.9741 0 -297.297
2727.65 10.1822 0 -256.49
3633.14 11.9179 0 -280.369
4569.92 13.1322 0 -297.649
3662.32 11.5746 0 -279.823
3647.73 11.7468 0 -280.102
2716.72 10.3609 0 -256.688
2694.88 10.7153 0 -257.058
4515.13 13.6001 0 -298.615
4551.65 13.2893 0 -297.986
2705.8 10.5386 0 -256.877
3603.96 12.257 0 -280.868
4533.39 13.4452 0 -298.308
3633.14 11.9179 0 -280.369
3618.55 12.088 0 -280.625
2694.88 10.7153 0 -257.058
2673.04 11.0656 0 -257.393
4478.61 13.9064 0 -299.186
4515.13 13.6001 0 -298.615
2683.96 10.8909 0 -257.23
3574.79 12.5918 0 -281.321
4496.87 13.7538 0 -298.908
3603.96 12.257 0 -280.868
3589.38 12.425 0 -281.1
2673.04 11.0656 0 -257.393
2651.2 11.4118 0 -257.693
4442.09 14.2081 0 -299.699
4478.61 13.9064 0 -299.186
2662.12 11.2392 0 -257.547
3545.62 12.9223 0 -281.727
4460.35 14.0578 0 -299.45
3574.79 12.5918 0 -281.321
3560.21 12.7576 0 -281.53
2651.2 11.4118 0 -257.693
2629.37 11.7539 0 -257.958
4405.58 14.5052 0 -300.155
4442.09 14.2081 0 -299.699
2640.29 11.5834 0 -257.83
3516.46 13.2483 0 -282.088
4423.83 14.3572 0 -299.934
3545.62 12.9223 0 -281.727
3531.04 13.0858 0 -281.913
2629.37 11.7539 0 -257.958
2607.54 12.0919 0 -258.19
4369.08 14.7976 0 -300.554
4405.58 14.5052 0 -300.155
2618.45 11.9234 0 -258.078
3487.3 13.5698 0 -282.402
4387.33 14.652 0 -300.362
3516.46 13.2483 0 -282.088
3501.88 13.4096 0 -282.251
2607.54 12.0919 0 -258.19
2585.71 12.4256 0 -258.388
4332.58 15.0852 0 -300.897
4369.08 14.7976 0 -300.554
2596.62 12.2592 0 -258.293
3458.15 13.8867 0 -282.672
4350.83 14.942 0 -300.733
3487.3 13.5698 0 -282.402
3472.72 13.7288 0 -282.543
2585.71 12.4256 0 -258.388
2563.89 12.755 0 -258.552
4296.09 15.368 0 -301.184
4332.58 15.0852 0 -300.897
2574.8 12.5908 0 -258.474
3428.99 14.1991 0 -282.898
4314.33 15.2272 0 -301.047
3458.15 13.8867 0 -282.672
3443.57 14.0435 0 -282.791
2563.89 12.755 0 -258.552
2542.06 13.0802 0 -258.683
4259.6 15.6459 0 -301.415
4296.09 15.368 0 -301.184
2552.97 12.9182 0 -258.622
3399.85 14.5068 0 -283.078
4277.84 15.5075 0 -301.306
3428.99 14.1991 0 -282.898
3414.42 14.3535 0 -282.994
2542.06 13.0802 0 -258.683
2520.24 13.4011 0 -258.781
4223.12 15.9188 0 -301.592
4259.6 15.6459 0 -301.415
2531.15 13.2412 0 -258.736
3370.71 14.8098 0 -283.215
4241.36 15.7829 0 -301.51
3399.85 14.5068 0 -283.078
3385.28 14.6589 0 -283.152
2520.24 13.4011 0 -258.781
2498.43 13.7175 0 -258.847
4186.64 16.1867 0 -301.714
4223.12 15.9188 0 -301.592
2509.34 13.5598 0 -258.818
3341.57 15.108 0 -283.309
4204.88 16.0534 0 -301.66
3370.71 14.8098 0 -283.215
3356.14 14.9595 0 -283.268
2498.43 13.7175 0 -258.847
2476.61 14.0296 0 -258.88
4150.18 16.4495 0 -301.782
4186.64 16.1867 0 -301.714
2487.52 13.8741 0 -258.867
3312.44 15.4015 0 -283.359
4168.41 16.3187 0 -301.755
3341.57 15.108 0 -283.309
3327 15.2554 0 -283.339
2476.61 14.0296 0 -258.88
2454.8 14.3373 0 -258.881
4113.71 16.7072 0 -301.797
4150.18 16.4495 0 -301.782
2465.71 14.184 0 -258.884
3283.31 15.6901 0 -283.367
4131.94 16.579 0 -301.796
3312.44 15.4015 0 -283.359
3297.87 15.5464 0 -283.368
2454.8 14.3373 0 -258.881
2433 14.6405 0 -258.85
4077.26 16.9596 0 -301.758
4113.71 16.7072 0 -301.797
2443.9 14.4894 0 -258.87
3254.18 15.9739 0 -283.332
4095.49 16.8341 0 -301.784
3283.31 15.6901 0 -283.367
3268.75 15.8326 0 -283.355
2433 14.6405 0 -258.85
2411.19 14.9392 0 -258.788
4040.81 17.2069 0 -301.667
4077.26 16.9596 0 -301.758
2422.09 14.7904 0 -258.823
3225.07 16.2527 0 -283.255
4059.03 17.0839 0 -301.719
3254.18 15.9739 0 -283.332
3239.62 16.1139 0 -283.299
2411.19 14.9392 0 -258.788
2389.39 15.2333 0 -258.695
4004.36 17.4489 0 -301.524
4040.81 17.2069 0 -301.667
2400.29 15.0868 0 -258.745
3195.95 16.5266 0 -283.136
4022.59 17.3285 0 -301.602
3225.07 16.2527 0 -283.255
3210.51 16.3903 0 -283.201
2389.39 15.2333 0 -258.695
2367.59 15.523 0 -258.571
3967.93 17.6855 0 -301.33
4004.36 17.4489 0 -301.524
2378.49 15.3787 0 -258.637
3166.84 16.7955 0 -282.977
3986.15 17.5678 0 -301.433
3195.95 16.5266 0 -283.136
3181.4 16.6617 0 -283.062
2367.59 15.523 0 -258.571
2345.8 15.808 0 -258.416
3931.5 17.9167 0 -301.084
3967.93 17.6855 0 -301.33
2356.7 15.6661 0 -258.497
3137.74 17.0594 0 -282.776
3949.71 17.8018 0 -301.213
3166.84 16.7955 0 -282.977
3152.29 16.9281 0 -282.882
2345.8 15.808 0 -258.416
2324.01 16.0885 0 -258.231
3895.07 18.1426 0 -300.788
3931.5 17.9167 0 -301.084
2334.9 15.9489 0 -258.327
3108.64 17.3182 0 -282.535
3913.28 18.0303 0 -300.942
3137.74 17.0594 0 -282.776
3123.19 17.1894 0 -282.661
2324.01 16.0885 0 -258.231
2302.22 16.3644 0 -258.015
3858.65 18.363 0 -300.441
3895.07 18.1426 0 -300.788
2313.11 16.227 0 -258.127
3079.54 17.5719 0 -282.254
3876.86 18.2535 0 -300.621
3108.64 17.3182 0 -282.535
3094.09 17.4457 0 -282.4
2302.22 16.3644 0 -258.015
2280.44 16.6356 0 -257.77
3822.24 18.5779 0 -300.045
3858.65 18.363 0 -300.441
2291.33 16.5005 0 -257.897
3050.45 17.8205 0 -281.933
3840.45 18.4711 0 -300.25
3079.54 17.5719 0 -282.254
3064.99 17.6968 0 -282.099
2280.44 16.6356 0 -257.77
2258.66 16.9021 0 -257.496
3785.84 18.7872 0 -299.6
3822.24 18.5779 0 -300.045
2269.55 16.7694 0 -257.637
3021.36 18.0639 0 -281.573
3804.04 18.6832 0 -299.829
3050.45 17.8205 0 -281.933
3035.91 17.9429 0 -281.758
2258.66 16.9021 0 -257.496
2236.88 17.164 0 -257.192
3749.44 18.991 0 -299.106
3785.84 18.7872 0 -299.6
2247.77 17.0336 0 -257.348
2992.28 18.3022 0 -281.174
3767.64 18.8898 0 -299.359
3021.36 18.0639 0 -281.573
3006.82 18.1837 0 -281.379
2236.88 17.164 0 -257.192
2215.1 17.4211 0 -256.86
3713.05 19.1893 0 -298.564
3749.44 18.991 0 -299.106
2225.99 17.2931 0 -257.03
2963.21 18.5353 0 -280.737
3731.24 19.0909 0 -298.841
2992.28 18.3022 0 -281.174
2977.74 18.4194 0 -280.96
2215.1 17.4211 0 -256.86
2193.33 17.6736 0 -256.499
3676.66 19.3819 0 -297.974
3713.05 19.1893 0 -298.564
2204.22 17.5479 0 -256.683
2934.14 18.7632 0 -280.261
3694.85 19.2863 0 -298.275
2963.21 18.5353 0 -280.737
2948.67 18.6499 0 -280.504
2193.33 17.6736 0 -256.499
2171.57 17.9213 0 -256.109
3640.28 19.5688 0 -297.337
3676.66 19.3819 0 -297.974
2182.45 17.798 0 -256.308
2905.07 18.9858 0 -279.748
3658.47 19.4761 0 -297.662
2934.14 18.7632 0 -280.261
2919.6 18.8751 0 -280.009
2171.57 17.9213 0 -256.109
2149.8 18.1643 0 -255.692
3603.91 19.7501 0 -296.654
3640.28 19.5688 0 -297.337
2160.68 18.0434 0 -255.904
2876.01 19.2031 0 -279.197
3622.1 19.6602 0 -297.001
2905.07 18.9858 0 -279.748
2890.54 19.0951 0 -279.477
2149.8 18.1643 0 -255.692
2128.04 18.4025 0 -255.247
3567.55 19.9257 0 -295.923
3603.91 19.7501 0 -296.654
2138.92 18.284 0 -255.473
2846.95 19.4152 0 -278.609
3585.73 19.8386 0 -296.294
2876.01 19.2031 0 -279.197
2861.48 19.3099 0 -278.907
2128.04 18.4025 0 -255.247
2106.28 18.6359 0 -254.774
3531.19 20.0956 0 -295.147
3567.55 19.9257 0 -295.923
2117.16 18.5198 0 -255.014
2817.9 19.622 0 -277.984
3549.37 20.0114 0 -295.541
2846.95 19.4152 0 -278.609
2832.43 19.5193 0 -278.301
2106.28 18.6359 0 -254.774
2084.53 18.8646 0 -254.274
3494.84 20.2598 0 -294.326
3531.19 20.0956 0 -295.147
2095.41 18.7508 0 -254.528
2788.85 19.8235 0 -277.323
3513.01 20.1784 0 -294.742
2817.9 19.622 0 -277.984
2803.38 19.7234 0 -277.658
2084.53 18.8646 0 -254.274
2062.78 19.0884 0 -253.748
3458.49 20.4182 0 -293.46
3494.84 20.2598 0 -294.326
2073.65 18.9771 0 -254.015
2759.81 20.0197 0 -276.627
3476.66 20.3397 0 -293.899
2788.85 19.8235 0 -277.323
2774.33 19.9223 0 -276.98
2062.78 19.0884 0 -253.748
2041.03 19.3075 0 -253.195
3422.15 20.5709 0 -292.549
3458.49 20.4182 0 -293.46
2051.9 19.1986 0 -253.475
2730.78 20.2105 0 -275.895
3440.32 20.4953 0 -293.01
2759.81 20.0197 0 -276.627
2745.29 20.1158 0 -276.265
2041.03 19.3075 0 -253.195
2019.29 19.5218 0 -252.615
3385.82 20.7178 0 -291.595
3422.15 20.5709 0 -292.549
2030.16 19.4152 0 -252.908
2701.75 20.396 0 -275.127
3403.99 20.6451 0 -292.078
2730.78 20.2105 0 -275.895
2716.26 20.3039 0 -275.515
2019.29 19.5218 0 -252.615
1997.55 19.7312 0 -252.01
3349.5 20.8589 0 -290.597
3385.82 20.7178 0 -291.595
2008.42 19.6271 0 -252.316
2672.72 20.5762 0 -274.325
3367.66 20.7891 0 -291.101
2701.75 20.396 0 -275.127
2687.23 20.4868 0 -274.731
1997.55 19.7312 0 -252.01
1975.81 19.9358 0 -251.378
3313.18 20.9942 0 -289.556
3349.5 20.8589 0 -290.597
1986.68 19.8341 0 -251.697
2643.7 20.751 0 -273.489
3331.34 20.9273 0 -290.082
2672.72 20.5762 0 -274.325
2658.21 20.6642 0 -273.911
1975.81 19.9358 0 -251.378
1954.08 20.1356 0 -250.722
3276.87 21.1237 0 -288.473
3313.18 20.9942 0 -289.556
1964.94 20.0363 0 -251.053
2614.68 20.9204 0 -272.619
3295.02 21.0597 0 -289.02
2643.7 20.751 0 -273.489
2629.19 20.8364 0 -273.058
1954.08 20.1356 0 -250.722
1932.35 20.3306 0 -250.04
3240.56 21.2475 0 -287.347
3276.87 21.1237 0 -288.473
1943.21 20.2337 0 -250.384
2585.67 21.0845 0 -271.715
3258.71 21.1863 0 -287.915
2614.68 20.9204 0 -272.619
2600.18 21.0031 0 -272.171
1932.35 20.3306 0 -250.04
1910.62 20.5208 0 -249.333
3204.26 21.3654 0 -286.18
3240.56 21.2475 0 -287.347
1921.48 20.4263 0 -249.689
2556.67 21.2432 0 -270.778
3222.41 21.3072 0 -286.769
2585.67 21.0845 0 -271.715
2571.17 21.1645 0 -271.251
1910.62 20.5208 0 -249.333
1888.9 20.7061 0 -248.602
3167.97 21.4775 0 -284.972
3204.26 21.3654 0 -286.18
1899.76 20.6141 0 -248.97
2527.66 21.3965 0 -269.808
3186.12 21.4222 0 -285.581
2556.67 21.2432 0 -270.778
2542.16 21.3205 0 -270.297
1888.9 20.7061 0 -248.602
1867.18 20.8866 0 -247.846
3131.69 21.5838 0 -283.724
3167.97 21.4775 0 -284.972
1878.04 20.797 0 -248.227
2498.67 21.5444 0 -268.806
3149.83 21.5314 0 -284.353
2527.66 21.3965 0 -269.808
2513.17 21.4711 0 -269.311
1867.18 20.8866 0 -247.846
1845.46 21.0623 0 -247.066
3095.41 21.6843 0 -282.435
3131.69 21.5838 0 -283.724
1856.32 20.9751 0 -247.459
2469.68 21.687 0 -267.771
3113.55 21.6348 0 -283.084
2498.67 21.5444 0 -268.806
2484.17 21.6164 0 -268.292
1845.46 21.0623 0 -247.066
1823.75 21.2332 0 -246.263
3059.14 21.779 0 -281.106
3095.41 21.6843 0 -282.435
1834.61 21.1483 0 -246.668
2440.69 21.8243 0 -266.705
3077.27 21.7324 0 -281.776
2469.68 21.687 0 -267.771
2455.18 21.7563 0 -267.242
1823.75 21.2332 0 -246.263
1802.04 21.3992 0 -245.436
3022.88 21.8679 0 -279.739
3059.14 21.779 0 -281.106
1812.9 21.3168 0 -245.852
2411.71 21.9561 0 -265.608
3041.01 21.8242 0 -280.428
2440.69 21.8243 0 -266.705
2426.2 21.8909 0 -266.16
1802.04 21.3992 0 -245.436
1780.34 21.5604 0 -244.586
2986.62 21.9511 0 -278.333
3022.88 21.8679 0 -279.739
1791.19 21.4804 0 -245.014
2382.74 22.0827 0 -264.479
3004.75 21.9102 0 -279.041
2411.71 21.9561 0 -265.608
2397.22 22.0201 0 -265.047
1780.34 21.5604 0 -244.586
1758.63 21.7169 0 -243.713
2950.37 22.0284 0 -276.888
2986.62 21.9511 0 -278.333
1769.49 21.6393 0 -244.152
2353.76 22.2038 0 -263.321
2968.49 21.9904 0 -277.615
2382.74 22.0827 0 -264.479
2368.25 22.1439 0 -263.904
1758.63 21.7169 0 -243.713
1736.94 21.8685 0 -242.818
2914.12 22.1 0 -275.406
2950.37 22.0284 0 -276.888
1747.78 21.7933 0 -243.268
2324.8 22.3197 0 -262.131
2932.24 22.0649 0 -276.152
2353.76 22.2038 0 -263.321
2339.28 22.2624 0 -262.73
1736.94 21.8685 0 -242.818
1715.24 22.0153 0 -241.9
2877.88 22.1658 0 -273.886
2914.12 22.1 0 -275.406
1726.09 21.9425 0 -242.362
2295.84 22.4302 0 -260.913
2896 22.1336 0 -274.651
2324.8 22.3197 0 -262.131
2310.32 22.3756 0 -261.526
1715.24 22.0153 0 -241.9
1693.55 22.1574 0 -240.96
2841.65 22.2259 0 -272.33
2877.88 22.1658 0 -273.886
1704.39 22.0869 0 -241.433
2266.88 22.5354 0 -259.664
2859.77 22.1966 0 -273.113
2295.84 22.4302 0 -260.913
2281.36 22.4834 0 -260.292
1693.55 22.1574 0 -240.96
1671.86 22.2946 0 -239.998
2805.43 22.2802 0 -270.738
2841.65 22.2259 0 -272.33
1682.7 22.2266 0 -240.482
2237.93 22.6353 0 -258.387
2823.54 22.2538 0 -271.538
2266.88 22.5354 0 -259.664
2252.41 22.586 0 -259.029
1671.86 22.2946 0 -239.998
1650.17 22.4271 0 -239.015
2769.21 22.3289 0 -269.109
2805.43 22.2802 0 -270.738
1661.02 22.3615 0 -239.51
2208.98 22.7299 0 -257.081
2787.32 22.3053 0 -269.928
2237.93 22.6353 0 -258.387
2223.46 22.6832 0 -257.738
1650.17 22.4271 0 -239.015
1628.49 22.5549 0 -238.011
2733 22.3718 0 -267.445
2769.21 22.3289 0 -269.109
1639.33 22.4916 0 -238.516
2180.04 22.8192 0 -255.747
2751.11 22.3511 0 -268.281
2208.98 22.7299 0 -257.081
2194.51 22.7752 0 -256.418
1628.49 22.5549 0 -238.011
1606.81 22.6779 0 -236.986
2696.8 22.4091 0 -265.746
2733 22.3718 0 -267.445
1617.65 22.617 0 -237.501
2151.11 22.9033 0 -254.385
2714.9 22.3912 0 -266.6
2180.04 22.8192 0 -255.747
2165.57 22.8619 0 -255.069
1606.81 22.6779 0 -236.986
1585.14 22.7961 0 -235.94
2660.6 22.4407 0 -264.013
2696.8 22.4091 0 -265.746
1595.98 22.7376 0 -236.466
2122.17 22.9821 0 -252.995
2678.7 22.4256 0 -264.884
2151.11 22.9033 0 -254.385
2136.64 22.9433 0 -253.693
1585.14 22.7961 0 -235.94
1563.47 22.9097 0 -234.874
2624.41 22.4668 0 -262.246
2660.6 22.4407 0 -264.013
1574.3 22.8535 0 -235.41
2093.25 23.0557 0 -251.578
2642.5 22.4545 0 -263.134
2122.17 22.9821 0 -252.995
2107.71 23.0195 0 -252.29
1563.47 22.9097 0 -234.874
1541.8 23.0186 0 -233.788
2588.22 22.4872 0 -260.445
2624.41 22.4668 0 -262.246
1552.63 22.9647 0 -234.334
2064.33 23.1241 0 -250.135
2606.31 22.4777 0 -261.35
2093.25 23.0557 0 -251.578
2078.79 23.0905 0 -250.86
1541.8 23.0186 0 -233.788
1520.13 23.1227 0 -232.682
2552.04 22.502 0 -258.611
2588.22 22.4872 0 -260.445
1530.97 23.0712 0 -233.238
2035.41 23.1873 0 -248.665
2570.13 22.4953 0 -259.532
2064.33 23.1241 0 -250.135
2049.87 23.1564 0 -249.403
1520.13 23.1227 0 -232.682
1498.47 23.2222 0 -231.557
2515.87 22.5113 0 -256.745
2552.04 22.502 0 -258.611
1509.3 23.1731 0 -232.122
2006.5 23.2454 0 -247.169
2533.95 22.5073 0 -257.682
2035.41 23.1873 0 -248.665
2020.95 23.217 0 -247.92
1498.47 23.2222 0 -231.557
1476.81 23.3171 0 -230.412
2479.7 22.515 0 -254.846
2515.87 22.5113 0 -256.745
1487.64 23.2702 0 -230.987
1977.59 23.2983 0 -245.647
2497.78 22.5138 0 -255.8
2006.5 23.2454 0 -247.169
1992.04 23.2725 0 -246.411
1476.81 23.3171 0 -230.412
1455.16 23.4073 0 -229.249
2443.54 22.5133 0 -252.916
2479.7 22.515 0 -254.846
1465.98 23.3628 0 -229.833
1948.68 23.3461 0 -244.1
2461.62 22.5148 0 -253.885
1977.59 23.2983 0 -245.647
1963.14 23.3228 0 -244.877
1455.16 23.4073 0 -229.249
1433.5 23.4929 0 -228.067
2407.39 22.5061 0 -250.955
2443.54 22.5133 0 -252.916
1444.33 23.4507 0 -228.66
1919.79 23.3888 0 -242.528
2425.46 22.5104 0 -251.939
1948.68 23.3461 0 -244.1
1934.23 23.3681 0 -243.317
1433.5 23.4929 0 -228.067
1411.85 23.5739 0 -226.866
2371.24 22.4935 0 -248.963
2407.39 22.5061 0 -250.955
1422.68 23.534 0 -227.469
1890.89 23.4265 0 -240.932
2389.31 22.5005 0 -249.963
1919.79 23.3888 0 -242.528
1905.34 23.4083 0 -241.733
1411.85 23.5739 0 -226.866
1390.21 23.6504 0 -225.648
2335.1 22.4755 0 -246.941
2371.24 22.4935 0 -248.963
1401.03 23.6127 0 -226.259
1862 23.4591 0 -239.311
2353.17 22.4852 0 -247.956
1890.89 23.4265 0 -240.932
1876.45 23.4434 0 -240.124
1390.21 23.6504 0 -225.648
1368.56 23.7223 0 -224.412
2298.96 22.4521 0 -244.889
2335.1 22.4755 0 -246.941
1379.39 23.6869 0 -225.032
1833.12 23.4867 0 -237.667
2317.03 22.4645 0 -245.918
1862 23.4591 0 -239.311
1847.56 23.4735 0 -238.492
1368.56 23.7223 0 -224.412
1346.92 23.7896 0 -223.158
2262.83 22.4234 0 -242.808
2298.96 22.4521 0 -244.889
1357.74 23.7565 0 -223.787
1804.24 23.5093 0 -235.999
2280.9 22.4384 0 -243.852
1833.12 23.4867 0 -237.667
1818.68 23.4986 0 -236.836
1346.92 23.7896 0 -223.158
1325.29 23.8525 0 -221.887
2226.71 22.3895 0 -240.697
2262.83 22.4234 0 -242.808
1336.11 23.8216 0 -222.524
1775.36 23.527 0 -234.309
2244.77 22.4071 0 -241.756
1804.24 23.5093 0 -235.999
1789.8 23.5188 0 -235.157
1325.29 23.8525 0 -221.887
1303.65 23.9108 0 -220.599
2190.59 22.3503 0 -238.559
2226.71 22.3895 0 -240.697
1314.47 23.8822 0 -221.245
1746.49 23.5398 0 -232.595
2208.65 22.3705 0 -239.632
1775.36 23.527 0 -234.309
1760.93 23.534 0 -233.455
1303.65 23.9108 0 -220.599
1282.02 23.9648 0 -219.294
2154.48 22.3059 0 -236.393
2190.59 22.3503 0 -238.559
1292.84 23.9384 0 -219.948
1717.62 23.5477 0 -230.859
2172.54 22.3287 0 -237.479
1746.49 23.5398 0 -232.595
1732.06 23.5444 0 -231.73
1282.02 23.9648 0 -219.294
1260.39 24.0142 0 -217.973
2118.38 22.2563 0 -234.199
2154.48 22.3059 0 -236.393
1271.21 23.99 0 -218.635
1688.76 23.5507 0 -229.102
2136.43 22.2817 0 -235.299
1717.62 23.5477 0 -230.859
1703.19 23.5498 0 -229.983
1260.39 24.0142 0 -217.973
1238.77 24.0593 0 -216.636
2082.28 22.2016 0 -231.978
2118.38 22.2563 0 -234.199
1249.58 24.0373 0 -217.306
1659.9 23.549 0 -227.323
2100.33 22.2296 0 -233.092
1688.76 23.5507 0 -229.102
1674.33 23.5504 0 -228.215
1238.77 24.0593 0 -216.636
1217.15 24.1 0 -215.283
2046.18 22.1418 0 -229.731
2082.28 22.2016 0 -231.978
1227.96 24.0802 0 -215.961
1631.05 23.5424 0 -225.523
2064.23 22.1723 0 -230.858
1659.9 23.549 0 -227.323
1645.47 23.5463 0 -226.425
1217.15 24.1 0 -215.283
1195.53 24.1363 0 -213.914
2010.1 22.077 0 -227.458
2046.18 22.1418 0 -229.731
1206.34 24.1187 0 -214.6
1602.2 23.5311 0 -223.702
2028.14 22.1101 0 -228.598
1631.05 23.5424 0 -225.523
1616.62 23.5374 0 -224.615
1195.53 24.1363 0 -213.914
1173.91 24.1683 0 -212.53
1974.01 22.0073 0 -225.159
2010.1 22.077 0 -227.458
1184.72 24.1529 0 -213.224
1573.35 23.5151 0 -221.86
1992.05 22.0428 0 -226.312
1602.2 23.5311 0 -223.702
1587.77 23.5237 0 -222.783
1173.91 24.1683 0 -212.53
1152.29 24.1961 0 -211.131
1937.94 21.9325 0 -222.835
1974.01 22.0073 0 -225.159
1163.1 24.1827 0 -211.833
1544.51 23.4944 0 -219.999
1955.97 21.9705 0 -224
1573.35 23.5151 0 -221.86
1558.93 23.5054 0 -220.932
1152.29 24.1961 0 -211.131
1130.68 24.2195 0 -209.718
1901.87 21.8529 0 -220.487
1937.94 21.9325 0 -222.835
1141.49 24.2083 0 -210.426
1515.67 23.4691 0 -218.117
1919.9 21.8933 0 -221.664
1544.51 23.4944 0 -219.999
1530.09 23.4824 0 -219.06
1130.68 24.2195 0 -209.718
1109.07 24.2387 0 -208.29
1865.8 21.7685 0 -218.114
1901.87 21.8529 0 -220.487
1119.88 24.2296 0 -209.006
1486.84 23.4392 0 -216.217
1883.83 21.8113 0 -219.303
1515.67 23.4691 0 -218.117
1501.26 23.4548 0 -217.17
1109.07 24.2387 0 -208.29
1087.47 24.2537 0 -206.848
1829.74 21.6793 0 -215.718
1865.8 21.7685 0 -218.114
1098.27 24.2467 0 -207.571
1458.01 23.4048 0 -214.298
1847.77 21.7245 0 -216.919
1486.84 23.4392 0 -216.217
1472.42 23.4226 0 -215.26
1087.47 24.2537 0 -206.848
1065.87 24.2645 0 -205.392
1793.69 21.5853 0 -213.298
1829.74 21.6793 0 -215.718
1076.67 24.2596 0 -206.121
1429.18 23.3658 0 -212.36
1811.71 21.6329 0 -214.511
1458.01 23.4048 0 -214.298
1443.6 23.3859 0 -213.331
1065.87 24.2645 0 -205.392
1044.26 24.2712 0 -203.922
1757.64 21.4866 0 -210.856
1793.69 21.5853 0 -213.298
1055.06 24.2684 0 -204.659
1400.36 23.3224 0 -210.403
1775.66 21.5365 0 -212.08
1429.18 23.3658 0 -212.36
1414.77 23.3447 0 -211.384
1044.26 24.2712 0 -203.922
1022.67 24.2738 0 -202.439
1721.59 21.3834 0 -208.391
1757.64 21.4866 0 -210.856
1033.47 24.273 0 -203.182
1371.54 23.2746 0 -208.43
1739.61 21.4356 0 -209.626
1400.36 23.3224 0 -210.403
1385.95 23.299 0 -209.419
1022.67 24.2738 0 -202.439
1001.07 24.2722 0 -200.943
1685.55 21.2755 0 -205.904
1721.59 21.3834 0 -208.391
1011.87 24.2735 0 -201.693
1342.73 23.2223 0 -206.438
1703.57 21.33 0 -207.15
1371.54 23.2746 0 -208.43
1357.14 23.249 0 -207.436
1001.07 24.2722 0 -200.943
979.478 24.2667 0 -199.435
1649.52 21.1631 0 -203.396
1685.55 21.2755 0 -205.904
990.274 24.27 0 -200.191
1313.92 23.1658 0 -204.43
1667.53 21.2199 0 -204.653
1342.73 23.2223 0 -206.438
1328.32 23.1946 0 -205.436
979.478 24.2667 0 -199.435
957.887 24.2571 0 -197.913
1613.49 21.0463 0 -200.868
1649.52 21.1631 0 -203.396
968.682 24.2624 0 -198.676
1285.11 23.1049 0 -202.405
1631.5 21.1052 0 -202.135
1313.92 23.1658 0 -204.43
1299.52 23.1359 0 -203.419
957.887 24.2571 0 -197.913
936.299 24.2435 0 -196.38
1577.46 20.925 0 -198.318
1613.49 21.0463 0 -200.868
947.093 24.2508 0 -197.148
1256.31 23.0398 0 -200.363
1595.48 20.9862 0 -199.595
1285.11 23.1049 0 -202.405
1270.71 23.0729 0 -201.386
936.299 24.2435 0 -196.38
914.713 24.226 0 -194.835
1541.45 20.7994 0 -195.749
1577.46 20.925 0 -198.318
925.506 24.2353 0 -195.609
1227.51 22.9705 0 -198.306
1559.45 20.8627 0 -197.036
1256.31 23.0398 0 -200.363
1241.91 23.0057 0 -199.336
914.713 24.226 0 -194.835
893.129 24.2046 0 -193.278
1505.43 20.6695 0 -193.16
1541.45 20.7994 0 -195.749
903.921 24.2158 0 -194.058
1198.71 22.897 0 -196.233
1523.44 20.735 0 -194.457
1227.51 22.9705 0 -198.306
1213.11 22.9343 0 -197.271
893.129 24.2046 0 -193.278
871.548 24.1793 0 -191.709
1469.42 20.5353 0 -190.552
1505.43 20.6695 0 -193.16
882.338 24.1925 0 -192.495
1169.92 22.8195 0 -194.144
1487.43 20.6029 0 -191.859
1198.71 22.897 0 -196.233
1184.32 22.8588 0 -195.19
871.548 24.1793 0 -191.709
849.969 24.1502 0 -190.13
1433.42 20.397 0 -187.926
1469.42 20.5353 0 -190.552
860.758 24.1652 0 -190.921
1141.13 22.7379 0 -192.041
1451.42 20.4667 0 -189.241
1169.92 22.8195 0 -194.144
1155.53 22.7792 0 -193.095
849.969 24.1502 0 -190.13
828.392 24.1173 0 -188.54
1397.42 20.2546 0 -185.281
1433.42 20.397 0 -187.926
839.18 24.1342 0 -189.336
1112.35 22.6522 0 -189.924
1415.42 20.3263 0 -186.606
1141.13 22.7379 0 -192.041
1126.74 22.6955 0 -190.984
828.392 24.1173 0 -188.54
806.817 24.0806 0 -186.939
1361.42 20.1081 0 -182.619
1397.42 20.2546 0 -185.281
817.604 24.0994 0 -187.741
1083.56 22.5626 0 -187.792
1379.42 20.1819 0 -183.952
1112.35 22.6522 0 -189.924
1097.95 22.6079 0 -188.86
806.817 24.0806 0 -186.939
785.244 24.0402 0 -185.328
1325.43 19.9577 0 -179.939
1361.42 20.1081 0 -182.619
796.031 24.0608 0 -186.135
1054.78 22.4691 0 -185.647
1343.42 20.0334 0 -181.281
1083.56 22.5626 0 -187.792
1069.17 22.5164 0 -186.721
785.244 24.0402 0 -185.328
763.674 23.9961 0 -183.707
1289.44 19.8033 0 -177.243
1325.43 19.9577 0 -179.939
774.459 24.0186 0 -184.519
1026.01 22.3718 0 -183.488
1307.44 19.881 0 -178.593
1054.78 22.4691 0 -185.647
1040.4 22.4209 0 -184.569
763.674 23.9961 0 -183.707
742.105 23.9483 0 -182.076
1253.46 19.6451 0 -174.53
1289.44 19.8033 0 -177.243
752.889 23.9727 0 -182.893
997.234 22.2706 0 -181.316
1271.45 19.7247 0 -175.889
1026.01 22.3718 0 -183.488
1011.62 22.3217 0 -182.404
742.105 23.9483 0 -182.076
720.538 23.897 0 -180.436
1217.48 19.483 0 -171.802
1253.46 19.6451 0 -174.53
731.321 23.9231 0 -181.257
968.464 22.1657 0 -179.132
1235.47 19.5645 0 -173.168
997.234 22.2706 0 -181.316
982.849 22.2186 0 -180.226
720.538 23.897 0 -180.436
698.974 23.842 0 -178.787
1181.51 19.3173 0 -169.058
1217.48 19.483 0 -171.802
709.756 23.8699 0 -179.613
939.697 22.0571 0 -176.935
1199.49 19.4006 0 -170.432
968.464 22.1657 0 -179.132
954.08 22.1119 0 -178.035
698.974 23.842 0 -178.787
677.411 23.7835 0 -177.129
1145.54 19.1478 0 -166.3
1181.51 19.3173 0 -169.058
688.192 23.8132 0 -177.959
910.933 21.9448 0 -174.727
1163.52 19.233 0 -167.681
939.697 22.0571 0 -176.935
925.315 22.0014 0 -175.832
677.411 23.7835 0 -177.129
655.85 23.7215 0 -175.462
1109.57 18.9748 0 -163.526
1145.54 19.1478 0 -166.3
666.63 23.753 0 -176.296
882.171 21.8289 0 -172.506
1127.55 19.0618 0 -164.915
910.933 21.9448 0 -174.727
896.552 21.8873 0 -173.618
655.85 23.7215 0 -175.462
634.29 23.6561 0 -173.787
1073.61 18.7982 0 -160.739
1109.57 18.9748 0 -163.526
645.07 23.6892 0 -174.625
853.413 21.7095 0 -170.275
1091.59 18.887 0 -162.135
882.171 21.8289 0 -172.506
867.792 21.7696 0 -171.392
634.29 23.6561 0 -173.787
612.733 23.5872 0 -172.104
1037.65 18.6182 0 -157.939
1073.61 18.7982 0 -160.739
623.511 23.6221 0 -172.946
824.657 21.5866 0 -168.033
1055.63 18.7087 0 -159.341
853.413 21.7095 0 -170.275
839.034 21.6485 0 -169.156
612.733 23.5872 0 -172.104
591.177 23.5149 0 -170.413
1001.7 18.4348 0 -155.125
1037.65 18.6182 0 -157.939
601.955 23.5515 0 -171.259
795.903 21.4602 0 -165.781
1019.67 18.5269 0 -156.533
824.657 21.5866 0 -168.033
810.28 21.5238 0 -166.908
591.177 23.5149 0 -170.413
569.623 23.4393 0 -168.715
965.745 18.248 0 -152.299
1001.7 18.4348 0 -155.125
580.399 23.4775 0 -169.565
767.153 21.3304 0 -163.519
983.72 18.3418 0 -153.713
795.903 21.4602 0 -165.781
781.528 21.3957 0 -164.651
569.623 23.4393 0 -168.715
548.07 23.3603 0 -167.009
929.798 18.058 0 -149.46
965.745 18.248 0 -152.299
558.846 23.4002 0 -167.863
738.404 21.1972 0 -161.247
947.771 18.1534 0 -150.881
767.153 21.3304 0 -163.519
752.778 21.2642 0 -162.384
548.07 23.3603 0 -167.009
526.519 23.278 0 -165.297
893.853 17.8648 0 -146.611
929.798 18.058 0 -149.46
537.294 23.3195 0 -166.154
709.659 21.0608 0 -158.966
911.825 17.9618 0 -148.037
738.404 21.1972 0 -161.247
724.031 21.1294 0 -160.107
526.519 23.278 0 -165.297
504.969 23.1925 0 -163.578
857.913 17.6684 0 -143.75
893.853 17.8648 0 -146.611
515.744 23.2356 0 -164.439
680.915 20.9211 0 -156.676
875.883 17.767 0 -145.181
709.659 21.0608 0 -158.966
695.287 20.9914 0 -157.822
504.969 23.1925 0 -163.578
483.421 23.1038 0 -161.853
821.975 17.469 0 -140.878
857.913 17.6684 0 -143.75
494.195 23.1485 0 -162.717
652.174 20.7783 0 -154.377
839.944 17.5691 0 -142.315
680.915 20.9211 0 -156.676
666.544 20.8501 0 -155.527
483.421 23.1038 0 -161.853
461.875 23.012 0 -160.122
786.041 17.2667 0 -137.996
821.975 17.469 0 -140.878
472.648 23.0582 0 -160.989
623.435 20.6323 0 -152.071
804.008 17.3682 0 -139.438
652.174 20.7783 0 -154.377
637.804 20.7057 0 -153.225
461.875 23.012 0 -160.122
440.33 22.9172 0 -158.386
750.109 17.0614 0 -135.104
786.041 17.2667 0 -137.996
451.102 22.9649 0 -159.255
594.699 20.4834 0 -149.757
768.075 17.1644 0 -136.551
623.435 20.6323 0 -152.071
609.067 20.5582 0 -150.915
440.33 22.9172 0 -158.386
418.787 22.8197 0 -156.643
714.181 16.8534 0 -132.204
750.109 17.0614 0 -135.104
429.559 22.8688 0 -157.515
565.965 20.3316 0 -147.435
732.145 16.9578 0 -133.655
594.699 20.4834 0 -149.757
580.332 20.4079 0 -148.597
418.787 22.8197 0 -156.643
397.246 22.7198 0 -154.895
678.256 16.6428 0 -129.294
714.181 16.8534 0 -132.204
408.017 22.77 0 -155.77
537.233 20.1773 0 -145.106
696.218 16.7484 0 -130.75
565.965 20.3316 0 -147.435
551.599 20.2547 0 -146.271
397.246 22.7198 0 -154.895
375.707 22.6183 0 -153.141
642.334 16.4298 0 -126.375
678.256 16.6428 0 -129.294
386.476 22.6692 0 -154.018
508.505 20.0208 0 -142.769
660.294 16.5366 0 -127.836
537.233 20.1773 0 -145.106
522.869 20.0992 0 -143.939
375.707 22.6183 0 -153.141
354.17 22.5163 0 -151.38
606.416 16.215 0 -123.448
642.334 16.4298 0 -126.375
364.939 22.5672 0 -152.261
479.78 19.863 0 -140.425
624.375 16.3226 0 -124.913
508.505 20.0208 0 -142.769
494.142 19.942 0 -141.598
354.17 22.5163 0 -151.38
332.635 22.4165 0 -149.611
570.504 15.999 0 -120.51
606.416 16.215 0 -123.448
343.403 22.4659 0 -150.496
451.059 19.7057 0 -138.071
588.46 16.1071 0 -121.98
479.78 19.863 0 -140.425
465.419 19.7842 0 -139.249
332.635 22.4165 0 -149.611
311.1 22.323 0 -147.832
534.6 15.7837 0 -117.559
570.504 15.999 0 -120.51
321.868 22.3685 0 -148.723
422.343 19.552 0 -135.704
552.551 15.8911 0 -119.036
451.059 19.7057 0 -138.071
436.7 19.6281 0 -136.889
311.1 22.323 0 -147.832
289.562 22.2447 0 -146.038
498.708 15.5719 0 -114.592
534.6 15.7837 0 -117.559
300.331 22.2811 0 -146.937
393.631 19.4082 0 -133.318
516.653 15.6771 0 -116.078
422.343 19.552 0 -135.704
407.986 19.4784 0 -134.514
289.562 22.2447 0 -146.038
268.008 22.1957 0 -144.224
462.836 15.3698 0 -111.595
498.708 15.5719 0 -114.592
278.788 22.2152 0 -145.134
364.923 19.2852 0 -130.903
480.768 15.469 0 -113.098
393.631 19.4082 0 -133.318
379.277 19.3428 0 -132.116
268.008 22.1957 0 -144.224
246.423 22.2049 0 -142.378
426.989 15.1869 0 -108.55
462.836 15.3698 0 -111.595
257.22 22.1905 0 -143.306
336.21 19.2051 0 -128.439
444.91 15.2751 0 -110.08
364.923 19.2852 0 -130.903
350.568 19.2384 0 -129.678
246.423 22.2049 0 -142.378
224.751 22.3129 0 -140.487
391.195 15.0446 0 -105.417
426.989 15.1869 0 -108.55
235.604 22.2427 0 -141.439
307.477 19.2003 0 -125.89
409.082 15.1089 0 -106.998
336.21 19.2051 0 -128.439
321.847 19.1889 0 -127.179
224.751 22.3129 0 -140.487
202.932 22.6017 0 -138.524
355.448 14.9659 0 -102.137
391.195 15.0446 0 -105.417
213.861 22.4282 0 -139.517
278.679 19.3372 0 -123.199
373.319 14.9944 0 -103.8
307.477 19.2003 0 -125.89
293.091 19.2485 0 -124.565
202.932 22.6017 0 -138.524
180.763 23.1562 0 -136.472
319.823 15.0189 0 -98.5821
355.448 14.9659 0 -102.137
191.915 22.8373 0 -137.51
249.738 19.6901 0 -120.28
337.608 14.9732 0 -100.405
278.679 19.3372 0 -123.199
264.229 19.4733 0 -121.781
180.763 23.1562 0 -136.472
158.08 24.1557 0 -134.289
284.212 15.226 0 -94.6124
319.823 15.0189 0 -98.5821
169.485 23.5918 0 -135.401
220.465 20.4206 0 -117.004
302.038 15.0934 0 -96.6604
249.738 19.6901 0 -120.28
235.168 20.0113 0 -118.686
158.08 24.1557 0 -134.289
134.26 25.6245 0 -132.028
248.801 15.7858 0 -89.904
284.212 15.226 0 -94.6124
146.386 24.8251 0 -133.159
190.58 21.5935 0 -113.234
266.443 15.4686 0 -92.3782
220.465 20.4206 0 -117.004
205.6 20.9168 0 -115.212
134.26 25.6245 0 -132.028
109.064 27.7059 0 -129.736
212.874 16.5043 0 -84.2898
248.801 15.7858 0 -89.904
121.804 26.6176 0 -130.881
159.385 23.4339 0 -108.894
231.01 16.0904 0 -87.2233
190.58 21.5935 0 -113.234
175.253 22.49 0 -111.09
109.064 27.7059 0 -129.736
81.0992 29.4098 0 -127.996
176.731 17.8942 0 -77.2735
212.874 16.5043 0 -84.2898
95.6226 28.67 0 -128.734
126.129 25.3393 0 -104.233
194.728 17.2166 0 -80.9818
159.385 23.4339 0 -108.894
142.971 24.3196 0 -106.658
81.0992 29.4098 0 -127.996
51.2395 29.4224 0 -127.455
136.831 18.014 0 -69.7309
176.731 17.8942 0 -77.2735
66.1744 29.9367 0 -127.507
88.5961 26.4552 0 -100.443
157.706 18.0059 0 -73.5063
126.129 25.3393 0 -104.233
108.315 26.4145 0 -101.915
51.2395 29.4224 0 -127.455
18.878 20.6339 0 -130.15
93.0875 17.1906 0 -63.2999
136.831 18.014 0 -69.7309
35.6536 26.6463 0 -128.245
46.3866 20.3949 0 -100.847
115.25 18.5123 0 -66.0404
88.5961 26.4552 0 -100.443
67.6576 24.6075 0 -100.122
18.878 20.6339 0 -130.15
-5.89269 -7.53909 0 -134.331
34.1281 0.0860407 0 -69.5756
93.0875 17.1906 0 -63.2999
4.26663 10.5999 0 -132.314
-1.29604 -7.21332 0 -112.084
66.8702 11.0301 0 -63.8509
46.3866 20.3949 0 -100.847
24.2081 12.0807 0 -103.897
-5.89269 -7.53909 0 -134.331
-18.6937 -80.9223 0 -128.99
-19.2763 -68.099 0 -108.112
34.1281 0.0860407 0 -69.5756
-13.6786 -38.5932 0 -134.639
-20.0425 -94.7789 0 -128.731
4.9736 -17.3114 0 -81.7843
-1.29604 -7.21332 0 -112.084
-19.9896 -42.2945 0 -122.497
-18.6937 -80.9223 0 -128.99
-12.2505 -174.099 0 -79.202
-7.32955 -347.201 0 -135.511
-19.2763 -68.099 0 -108.112
-19.2684 -129.83 0 -111.727
7.73518 -252.1 0 -83.3311
-30.5227 -179.587 0 -136.229
-20.0425 -94.7789 0 -128.731
-9.66825 -168.68 0 -119.613
6688.82 1994.74 0 -277.377
7085.47 760.983 0 -405.43
9551.43 -175.93 0 113.311
14801.3 4413.69 0 -3560.87
6949.89 1435.42 0 -465.226
8858.28 543.242 0 -528.261
10629.9 -193.775 0 -522.426
7876.4 2348.05 0 -859.141
8742.39 1189.04 0 -814.026
7085.47 760.983 0 -405.43
7195.47 222.287 0 -205.189
9448.77 -101.273 0 21.2684
9551.43 -175.93 0 113.311
7188.05 389.55 0 -299.179
8526.59 77.0351 0 -106.957
9464.26 30.625 0 39.9704
8858.28 543.242 0 -528.261
8634.31 194.931 0 -226.6
7195.47 222.287 0 -205.189
7106.11 33.3559 0 -91.5808
9619.61 32.3315 0 -6.75308
9448.77 -101.273 0 21.2684
7141.96 105.469 0 -130.013
8412.41 -2.31494 0 -33.8404
9547.54 -65.1276 0 19.1903
8526.59 77.0351 0 -106.957
8464.36 26.1188 0 -64.4973
7106.11 33.3559 0 -91.5808
7043.6 -8.82008 0 -69.4171
9661.02 -9.17926 0 -35.8268
9619.61 32.3315 0 -6.75308
7078.48 2.99275 0 -75.9364
8358.84 -13.7417 0 -27.6749
9642.61 30.1642 0 -33.5646
8412.41 -2.31494 0 -33.8404
8375.65 -13.619 0 -21.7299
7043.6 -8.82008 0 -69.4171
6980.77 -24.6162 0 -72.8122
9695.15 11.1724 0 -39.8325
9661.02 -9.17926 0 -35.8268
7007.15 -19.0171 0 -68.4473
8333.78 -13.2488 0 -44.9094
9685.61 -6.31294 0 -33.7587
8358.84 -13.7417 0 -27.6749
8348.66 -12.6368 0 -37.8594
6980.77 -24.6162 0 -72.8122
6937.14 -22.3177 0 -86.658
9681.04 -1.05145 0 -50.494
9695.15 11.1724 0 -39.8325
6959.61 -24.2915 0 -79.9282
8303.61 -11.2789 0 -61.6224
9688.98 8.31854 0 -47.5622
8333.78 -13.2488 0 -44.9094
8317.79 -12.9364 0 -52.6461
6937.14 -22.3177 0 -86.658
6895.14 -19.6286 0 -99.315
9658.83 2.84581 0 -56.7614
9681.04 -1.05145 0 -50.494
6914.84 -21.0831 0 -92.9754
8271.87 -8.8839 0 -76.2958
9672.77 -0.725607 0 -52.5754
8303.61 -11.2789 0 -61.6224
8288.99 -9.73244 0 -69.7407
6895.14 -19.6286 0 -99.315
6857.84 -15.8133 0 -110.686
9619.95 0.182733 0 -64.8655
9658.83 2.84581 0 -56.7614
6876.69 -17.6193 0 -105.397
8234.86 -7.39767 0 -88.0448
9639.94 2.15846 0 -61.3891
8271.87 -8.8839 0 -76.2958
8253.45 -8.20203 0 -82.3575
6857.84 -15.8133 0 -110.686
6820.65 -13.312 0 -119.678
9576.9 0.997261 0 -71.9229
9619.95 0.182733 0 -64.8655
6838.97 -14.4696 0 -115.367
8195.6 -6.18172 0 -97.5888
9599.26 0.2406 0 -68.1494
8234.86 -7.39767 0 -88.0448
8215.7 -6.67655 0 -93.1069
6820.65 -13.312 0 -119.678
6784.31 -11.3896 0 -127.261
9528.99 0.552585 0 -79.3008
9576.9 0.997261 0 -71.9229
6802.55 -12.2498 0 -123.661
8154.06 -5.45339 0 -105.7
9553.17 0.902744 0 -75.7571
8195.6 -6.18172 0 -97.5888
8174.92 -5.81063 0 -101.774
6784.31 -11.3896 0 -127.261
6747.85 -10.1617 0 -133.689
9479.62 0.804153 0 -86.3775
9528.99 0.552585 0 -79.3008
6766.04 -10.7208 0 -130.572
8111.56 -4.88215 0 -112.833
9504.52 0.603375 0 -82.7933
8154.06 -5.45339 0 -105.7
8132.96 -5.1334 0 -109.368
6747.85 -10.1617 0 -133.689
6711.47 -9.28338 0 -139.464
9429.02 0.840284 0 -93.42
9479.62 0.804153 0 -86.3775
6729.69 -9.68072 0 -136.65
8068.29 -4.48063 0 -119.401
9454.39 0.846723 0 -89.9424
8111.56 -4.88215 0 -112.833
8089.96 -4.676 0 -116.172
6711.47 -9.28338 0 -139.464
6675 -8.65896 0 -144.784
9378.01 1.00898 0 -100.313
9429.02 0.840284 0 -93.42
6693.23 -8.95093 0 -142.164
8024.69 -4.1345 0 -125.587
9403.56 0.908339 0 -96.8678
8068.29 -4.48063 0 -119.401
8046.53 -4.29824 0 -122.532
6675 -8.65896 0 -144.784
6638.5 -8.15942 0 -149.834
9326.72 1.15121 0 -107.099
9378.01 1.00898 0 -100.313
6656.76 -8.39619 0 -147.338
7980.87 -3.83326 0 -131.536
9352.38 1.08403 0 -103.727
8024.69 -4.1345 0 -125.587
8002.79 -3.98262 0 -128.586
6638.5 -8.15942 0 -149.834
6601.95 -7.73382 0 -154.69
9275.34 1.32086 0 -113.762
9326.72 1.15121 0 -107.099
6620.23 -7.94093 0 -152.281
7936.96 -3.54417 0 -137.307
9301.04 1.23209 0 -110.443
7980.87 -3.83326 0 -131.536
7958.93 -3.68687 0 -134.44
6601.95 -7.73382 0 -154.69
6565.39 -7.34145 0 -159.41
9223.9 1.49419 0 -120.307
9275.34 1.32086 0 -113.762
6583.67 -7.53452 0 -157.066
7892.99 -3.26154 0 -142.942
9249.62 1.40746 0 -117.05
7936.96 -3.54417 0 -137.307
7914.98 -3.40313 0 -140.14
6565.39 -7.34145 0 -159.41
6528.79 -6.96526 0 -164.016
9172.44 1.67734 0 -126.733
9223.9 1.49419 0 -120.307
6547.09 -7.15229 0 -161.726
7848.98 -2.97746 0 -148.457
9198.17 1.58432 0 -123.534
7892.99 -3.26154 0 -142.942
7870.99 -3.11963 0 -145.713
6528.79 -6.96526 0 -164.016
6492.19 -6.59434 0 -168.525
9120.97 1.86773 0 -133.04
9172.44 1.67734 0 -126.733
6510.49 -6.77944 0 -166.282
7804.96 -2.69026 0 -153.863
9146.7 1.77177 0 -129.901
7848.98 -2.97746 0 -148.457
7826.98 -2.83448 0 -151.173
6492.19 -6.59434 0 -168.525
6455.58 -6.22428 0 -172.941
9069.49 2.06525 0 -139.229
9120.97 1.86773 0 -133.04
6473.88 -6.40942 0 -170.744
7760.93 -2.39848 0 -159.164
9095.23 1.96555 0 -136.149
7804.96 -2.69026 0 -153.863
7782.95 -2.54492 0 -156.527
6455.58 -6.22428 0 -172.941
6418.96 -5.85268 0 -177.271
9018.01 2.26976 0 -145.301
9069.49 2.06525 0 -139.229
6437.27 -6.03873 0 -175.117
7716.89 -2.10194 0 -164.364
9043.75 2.16668 0 -142.28
7760.93 -2.39848 0 -159.164
7738.91 -2.25084 0 -161.777
6418.96 -5.85268 0 -177.271
6382.33 -5.4787 0 -181.515
8966.52 2.48073 0 -151.256
9018.01 2.26976 0 -145.301
6400.64 -5.66602 0 -179.404
7672.85 -1.80059 0 -169.462
8992.26 2.37444 0 -148.293
7716.89 -2.10194 0 -164.364
7694.87 -1.95185 0 -166.925
6382.33 -5.4787 0 -181.515
6345.7 -5.10201 0 -185.676
8915.04 2.69802 0 -157.095
8966.52 2.48073 0 -151.256
6364.01 -5.29069 0 -183.606
7628.8 -1.49464 0 -174.46
8940.78 2.58861 0 -154.19
7672.85 -1.80059 0 -169.462
7650.83 -1.64819 0 -171.973
6345.7 -5.10201 0 -185.676
6309.06 -4.72262 0 -189.753
8863.55 2.92121 0 -162.819
8915.04 2.69802 0 -157.095
6327.38 -4.91265 0 -187.725
7584.76 -1.18431 0 -179.36
8889.29 2.80889 0 -159.972
7628.8 -1.49464 0 -174.46
7606.78 -1.34 0 -176.922
6309.06 -4.72262 0 -189.753
6272.43 -4.34062 0 -193.748
8812.06 3.15007 0 -168.428
8863.55 2.92121 0 -162.819
6290.74 -4.53194 0 -191.761
7540.7 -0.869844 0 -184.161
8837.8 3.03496 0 -165.638
7584.76 -1.18431 0 -179.36
7562.73 -1.02758 0 -181.772
6272.43 -4.34062 0 -193.748
6235.79 -3.95618 0 -197.662
8760.56 3.38425 0 -173.923
8812.06 3.15007 0 -168.428
6254.11 -4.1487 0 -195.715
7496.65 -0.551515 0 -188.864
8786.31 3.26652 0 -171.189
7540.7 -0.869844 0 -184.161
7518.68 -0.711147 0 -186.524
6235.79 -3.95618 0 -197.662
6199.15 -3.56948 0 -201.495
8709.07 3.62346 0 -179.304
8760.56 3.38425 0 -173.923
6217.47 -3.7631 0 -199.588
7452.6 -0.229577 0 -193.47
8734.82 3.50325 0 -176.627
7496.65 -0.551515 0 -188.864
7474.62 -0.390981 0 -191.179
6199.15 -3.56948 0 -201.495
6162.5 -3.18071 0 -205.247
8657.58 3.86739 0 -184.573
8709.07 3.62346 0 -179.304
6180.83 -3.37534 0 -203.381
7408.54 0.0957145 0 -197.979
8683.32 3.74485 0 -181.952
7452.6 -0.229577 0 -193.47
7430.57 -0.0673342 0 -195.737
6162.5 -3.18071 0 -205.247
6125.86 -2.79007 0 -208.919
8606.08 4.11574 0 -189.729
8657.58 3.86739 0 -184.573
6144.18 -2.98561 0 -207.093
7364.48 0.424105 0 -202.393
8631.83 3.99103 0 -187.165
7408.54 0.0957145 0 -197.979
7386.51 0.259538 0 -200.198
6125.86 -2.79007 0 -208.919
6089.22 -2.39776 0 -212.512
8554.59 4.36822 0 -194.774
8606.08 4.11574 0 -189.729
6107.54 -2.59411 0 -210.725
7320.42 0.755343 0 -206.711
8580.34 4.24148 0 -192.266
7364.48 0.424105 0 -202.393
7342.45 0.589383 0 -204.564
6089.22 -2.39776 0 -212.512
6052.57 -2.00398 0 -216.026
8503.1 4.62454 0 -199.709
8554.59 4.36822 0 -194.774
6070.89 -2.20104 0 -214.279
7276.37 1.08918 0 -210.934
8528.84 4.49592 0 -197.255
7320.42 0.755343 0 -206.711
7298.4 0.921953 0 -208.834
6052.57 -2.00398 0 -216.026
6015.92 -1.60893 0 -219.461
8451.6 4.88441 0 -204.533
8503.1 4.62454 0 -199.709
6034.25 -1.8066 0 -217.753
7232.31 1.42538 0 -215.063
8477.35 4.75405 0 -202.135
7276.37 1.08918 0 -210.934
7254.34 1.257 0 -213.01
6015.92 -1.60893 0 -219.461
5979.28 -1.21282 0 -222.818
8400.11 5.14755 0 -209.248
8451.6 4.88441 0 -204.533
5997.6 -1.411 0 -221.149
7188.25 1.76369 0 -219.098
8425.86 5.01559 0 -206.904
7232.31 1.42538 0 -215.063
7210.28 1.59428 0 -217.092
5979.28 -1.21282 0 -222.818
5942.63 -0.815831 0 -226.098
8348.62 5.41369 0 -213.854
8400.11 5.14755 0 -209.248
5960.95 -1.01442 0 -224.468
7144.19 2.10388 0 -223.04
8374.36 5.28026 0 -211.565
7188.25 1.76369 0 -219.098
7166.22 1.93356 0 -221.081
5942.63 -0.815831 0 -226.098
5905.99 -0.418167 0 -229.3
8297.13 5.68255 0 -218.353
8348.62 5.41369 0 -213.854
5924.31 -0.617072 0 -227.709
7100.14 2.44571 0 -226.89
8322.87 5.5478 0 -216.117
7144.19 2.10388 0 -223.04
7122.16 2.2746 0 -224.976
5905.99 -0.418167 0 -229.3
5869.34 -0.020018 0 -232.426
8245.64 5.95387 0 -222.743
8297.13 5.68255 0 -218.353
5887.66 -0.219142 0 -230.873
7056.08 2.78897 0 -230.647
8271.38 5.81792 0 -220.561
7100.14 2.44571 0 -226.89
7078.11 2.61718 0 -228.78
5869.34 -0.020018 0 -232.426
5832.69 0.378428 0 -235.476
8194.15 6.22739 0 -227.028
8245.64 5.95387 0 -222.743
5851.02 0.17918 0 -233.961
7012.02 3.13341 0 -234.313
8219.9 6.09037 0 -224.899
7056.08 2.78897 0 -230.647
7034.05 2.96105 0 -232.492
5832.69 0.378428 0 -235.476
5796.05 0.776987 0 -238.45
8142.67 6.50284 0 -231.206
8194.15 6.22739 0 -227.028
5814.37 0.577705 0 -236.972
6967.97 3.47883 0 -237.889
8168.41 6.36489 0 -229.13
7012.02 3.13341 0 -234.313
6990 3.30601 0 -236.112
5796.05 0.776987 0 -238.45
5759.4 1.17548 0 -241.349
8091.18 6.77998 0 -235.278
8142.67 6.50284 0 -231.206
5777.73 0.976252 0 -239.909
6923.92 3.825 0 -241.374
8116.92 6.64122 0 -233.255
6967.97 3.47883 0 -237.889
6945.94 3.65183 0 -239.642
5759.4 1.17548 0 -241.349
5722.76 1.57372 0 -244.173
8039.7 7.05856 0 -239.246
8091.18 6.77998 0 -235.278
5741.08 1.37464 0 -242.77
6879.87 4.17171 0 -244.769
8065.44 6.91911 0 -237.275
6923.92 3.825 0 -241.374
6901.89 3.9983 0 -243.083
5722.76 1.57372 0 -244.173
5686.12 1.97154 0 -246.923
7988.23 7.33833 0 -243.11
8039.7 7.05856 0 -239.246
5704.44 1.7727 0 -245.557
6835.82 4.51876 0 -248.075
8013.96 7.19832 0 -241.191
6879.87 4.17171 0 -244.769
6857.84 4.34521 0 -246.433
5686.12 1.97154 0 -246.923
5649.48 2.36877 0 -249.599
7936.75 7.61906 0 -246.871
7988.23 7.33833 0 -243.11
5667.8 2.17024 0 -248.27
6791.77 4.86593 0 -251.293
7962.49 7.47859 0 -245.004
6835.82 4.51876 0 -248.075
6813.79 4.69234 0 -249.695
5649.48 2.36877 0 -249.599
5612.84 2.76525 0 -252.202
7885.28 7.90051 0 -250.529
7936.75 7.61906 0 -246.871
5631.16 2.56712 0 -250.91
6747.72 5.21303 0 -254.423
7911.01 7.75971 0 -248.713
6791.77 4.86593 0 -251.293
6769.75 5.0395 0 -252.869
5612.84 2.76525 0 -252.202
5576.2 3.16079 0 -254.732
7833.81 8.18244 0 -254.085
7885.28 7.90051 0 -250.529
5594.52 2.96314 0 -253.476
6703.68 5.55986 0 -257.465
7859.54 8.04143 0 -252.32
6747.72 5.21303 0 -254.423
6725.7 5.38649 0 -255.955
5576.2 3.16079 0 -254.732
5539.56 3.55525 0 -257.19
7782.35 8.46464 0 -257.54
7833.81 8.18244 0 -254.085
5557.88 3.35817 0 -255.97
6659.64 5.90622 0 -260.421
7808.08 8.32352 0 -255.825
6703.68 5.55986 0 -257.465
6681.66 5.73311 0 -258.954
5539.56 3.55525 0 -257.19
5502.93 3.94847 0 -259.576
7730.89 8.74688 0 -260.894
7782.35 8.46464 0 -257.54
5521.25 3.75203 0 -258.392
6615.61 6.25193 0 -263.29
7756.62 8.60577 0 -259.23
6659.64 5.90622 0 -260.421
6637.62 6.07917 0 -261.866
5502.93 3.94847 0 -259.576
5466.3 4.34029 0 -261.891
7679.43 9.02894 0 -264.148
7730.89 8.74688 0 -260.894
5484.61 4.14456 0 -260.742
6571.57 6.5968 0 -266.074
7705.16 8.88794 0 -262.534
6615.61 6.25193 0 -263.29
6593.59 6.42448 0 -264.693
5466.3 4.34029 0 -261.891
5429.67 4.73056 0 -264.135
7627.98 9.31062 0 -267.303
7679.43 9.02894 0 -264.148
5447.98 4.53563 0 -263.022
6527.54 6.94064 0 -268.773
7653.7 9.16984 0 -265.738
6571.57 6.5968 0 -266.074
6549.56 6.76886 0 -267.434
5429.67 4.73056 0 -264.135
5393.04 5.11913 0 -266.308
7576.53 9.59169 0 -270.359
7627.98 9.31062 0 -267.303
5411.36 4.92506 0 -265.23
6483.52 7.28329 0 -271.387
7602.26 9.45124 0 -268.844
6527.54 6.94064 0 -268.773
6505.53 7.11213 0 -270.09
5393.04 5.11913 0 -266.308
5356.42 5.50585 0 -268.412
7525.09 9.87197 0 -273.318
7576.53 9.59169 0 -270.359
5374.73 5.31273 0 -267.369
6439.49 7.62455 0 -273.917
7550.81 9.73194 0 -271.851
6483.52 7.28329 0 -271.387
6461.51 7.4541 0 -272.662
5356.42 5.50585 0 -268.412
5319.8 5.89059 0 -270.446
7473.65 10.1512 0 -276.179
7525.09 9.87197 0 -273.318
5338.11 5.69848 0 -269.437
6395.48 7.96427 0 -276.364
7499.37 10.0117 0 -274.76
6439.49 7.62455 0 -273.917
6417.48 7.79462 0 -275.151
5319.8 5.89059 0 -270.446
5283.18 6.2732 0 -272.411
7422.22 10.4293 0 -278.943
7473.65 10.1512 0 -276.179
5301.49 6.08217 0 -271.437
6351.46 8.30228 0 -278.728
7447.94 10.2904 0 -277.573
6395.48 7.96427 0 -276.364
6373.47 8.1335 0 -277.556
5283.18 6.2732 0 -272.411
5246.57 6.65354 0 -274.308
7370.8 10.706 0 -281.612
7422.22 10.4293 0 -278.943
5264.87 6.46366 0 -273.368
6307.45 8.6384 0 -281.01
7396.51 10.5678 0 -280.29
6351.46 8.30228 0 -278.728
6329.46 8.47058 0 -279.879
5246.57 6.65354 0 -274.308
5209.95 7.03149 0 -276.137
7319.38 10.9811 0 -284.185
7370.8 10.706 0 -281.612
5228.26 6.84283 0 -275.231
6263.44 8.97248 0 -283.211
7345.09 10.8438 0 -282.91
6307.45 8.6384 0 -281.01
6285.45 8.8057 0 -282.121
5209.95 7.03149 0 -276.137
5173.35 7.40691 0 -277.898
7267.96 11.2545 0 -286.664
7319.38 10.9811 0 -284.185
5191.65 7.21953 0 -277.026
6219.44 9.30437 0 -285.33
7293.67 11.118 0 -285.436
6263.44 8.97248 0 -283.211
6241.44 9.13871 0 -284.281
5173.35 7.40691 0 -277.898
5136.74 7.77967 0 -279.592
7216.55 11.5259 0 -289.049
7267.96 11.2545 0 -286.664
5155.04 7.59363 0 -278.754
6175.45 9.6339 0 -287.369
7242.26 11.3904 0 -287.868
6219.44 9.30437 0 -285.33
6197.44 9.46944 0 -286.36
5136.74 7.77967 0 -279.592
5100.14 8.14966 0 -281.22
7165.15 11.7952 0 -291.341
7216.55 11.5259 0 -289.049
5118.44 7.96502 0 -280.415
6131.46 9.96093 0 -289.328
7190.85 11.6608 0 -290.206
6175.45 9.6339 0 -287.369
6153.45 9.79774 0 -288.359
5100.14 8.14966 0 -281.22
5063.54 8.51673 0 -282.782
7113.76 12.0622 0 -293.54
7165.15 11.7952 0 -291.341
5081.84 8.33357 0 -282.009
6087.47 10.2853 0 -291.208
7139.45 11.929 0 -292.452
6131.46 9.96093 0 -289.328
6109.46 10.1235 0 -290.278
5063.54 8.51673 0 -282.782
5026.95 8.88079 0 -284.278
7062.37 12.3267 0 -295.647
7113.76 12.0622 0 -293.54
5045.25 8.69915 0 -283.538
6043.49 10.6069 0 -293.01
7088.06 12.1948 0 -294.605
6087.47 10.2853 0 -291.208
6065.48 10.4465 0 -292.119
5026.95 8.88079 0 -284.278
4990.36 9.24171 0 -285.71
7010.99 12.5887 0 -297.664
7062.37 12.3267 0 -295.647
5008.66 9.06165 0 -285.002
5999.51 10.9256 0 -294.733
7036.68 12.458 0 -296.667
6043.49 10.6069 0 -293.01
6021.5 10.7666 0 -293.881
4990.36 9.24171 0 -285.71
4953.78 9.59937 0 -287.076
6959.61 12.8478 0 -299.589
7010.99 12.5887 0 -297.664
4972.07 9.42095 0 -286.401
5955.54 11.2412 0 -296.378
6985.3 12.7186 0 -298.638
5999.51 10.9256 0 -294.733
5977.53 11.0838 0 -295.565
4953.78 9.59937 0 -287.076
4917.2 9.95367 0 -288.379
6908.24 13.1041 0 -301.425
6959.61 12.8478 0 -299.589
4935.49 9.77695 0 -287.736
5911.58 11.5536 0 -297.947
6933.93 12.9763 0 -300.518
5955.54 11.2412 0 -296.378
5933.56 11.3978 0 -297.172
4917.2 9.95367 0 -288.379
4880.62 10.3045 0 -289.618
6856.88 13.3572 0 -303.172
6908.24 13.1041 0 -301.425
4898.91 10.1295 0 -289.006
5867.62 11.8626 0 -299.439
6882.56 13.231 0 -302.31
5911.58 11.5536 0 -297.947
5889.6 11.7085 0 -298.703
4880.62 10.3045 0 -289.618
4844.05 10.6518 0 -290.794
6805.53 13.6071 0 -304.83
6856.88 13.3572 0 -303.172
4862.33 10.4786 0 -290.214
5823.67 12.1682 0 -300.856
6831.21 13.4826 0 -304.012
5867.62 11.8626 0 -299.439
5845.64 12.0159 0 -300.157
4844.05 10.6518 0 -290.794
4807.48 10.9953 0 -291.907
6754.19 13.8536 0 -306.401
6805.53 13.6071 0 -304.83
4825.77 10.824 0 -291.358
5779.72 12.4703 0 -302.197
6779.86 13.7308 0 -305.626
5823.67 12.1682 0 -300.856
5801.69 12.3197 0 -301.536
4807.48 10.9953 0 -291.907
4770.92 11.3351 0 -292.958
6702.85 14.0967 0 -307.884
6754.19 13.8536 0 -306.401
4789.2 11.1657 0 -292.44
5735.78 12.7686 0 -303.464
6728.52 13.9756 0 -307.153
5779.72 12.4703 0 -302.197
5757.75 12.6199 0 -302.84
4770.92 11.3351 0 -292.958
4734.36 11.671 0 -293.947
6651.52 14.336 0 -309.281
6702.85 14.0967 0 -307.884
4752.64 11.5036 0 -293.46
5691.84 13.0631 0 -304.657
6677.18 14.2168 0 -308.593
5735.78 12.7686 0 -303.464
5713.81 12.9163 0 -304.07
4734.36 11.671 0 -293.947
4697.81 12.003 0 -294.875
6600.2 14.5716 0 -310.592
6651.52 14.336 0 -309.281
4716.09 11.8375 0 -294.419
5647.92 13.3537 0 -305.776
6625.86 14.4543 0 -309.947
5691.84 13.0631 0 -304.657
5669.88 13.2089 0 -305.225
4697.81 12.003 0 -294.875
4661.26 12.3309 0 -295.743
6548.88 14.8033 0 -311.819
6600.2 14.5716 0 -310.592
4679.54 12.1675 0 -295.317
5603.99 13.6402 0 -306.822
6574.54 14.688 0 -311.216
5647.92 13.3537 0 -305.776
5625.95 13.4975 0 -306.308
4661.26 12.3309 0 -295.743
4624.72 12.6546 0 -296.55
6497.58 15.0309 0 -312.96
6548.88 14.8033 0 -311.819
4642.99 12.4933 0 -296.154
5560.08 13.9226 0 -307.796
6523.23 14.9176 0 -312.4
5603.99 13.6402 0 -306.822
5582.04 13.7819 0 -307.318
4624.72 12.6546 0 -296.55
4588.18 12.9741 0 -297.297
6446.28 15.2544 0 -314.018
6497.58 15.0309 0 -312.96
4606.45 12.8149 0 -296.931
5516.17 14.2008 0 -308.698
6471.93 15.1432 0 -313.5
5560.08 13.9226 0 -307.796
5538.12 14.0622 0 -308.256
4588.18 12.9741 0 -297.297
4551.65 13.2893 0 -297.986
6394.99 15.4736 0 -314.993
6446.28 15.2544 0 -314.018
4569.92 13.1322 0 -297.649
5472.27 14.4745 0 -309.529
6420.64 15.3646 0 -314.516
5516.17 14.2008 0 -308.698
5494.22 14.3382 0 -309.123
4551.65 13.2893 0 -297.986
4515.13 13.6001 0 -298.615
6343.72 15.6884 0 -315.886
6394.99 15.4736 0 -314.993
4533.39 13.4452 0 -298.308
5428.38 14.7439 0 -310.29
6369.35 15.5816 0 -315.45
5472.27 14.4745 0 -309.529
5450.32 14.6098 0 -309.919
4515.13 13.6001 0 -298.615
4478.61 13.9064 0 -299.186
6292.44 15.8987 0 -316.697
6343.72 15.6884 0 -315.886
4496.87 13.7538 0 -298.908
5384.49 15.0087 0 -310.981
6318.08 15.7942 0 -316.302
5428.38 14.7439 0 -310.29
5406.43 14.8769 0 -310.644
4478.61 13.9064 0 -299.186
4442.09 14.2081 0 -299.699
6241.18 16.1044 0 -317.427
6292.44 15.8987 0 -316.697
4460.35 14.0578 0 -299.45
5340.61 15.2688 0 -311.602
6266.81 16.0022 0 -317.072
5384.49 15.0087 0 -310.981
5362.55 15.1393 0 -311.3
4442.09 14.2081 0 -299.699
4405.58 14.5052 0 -300.155
6189.93 16.3054 0 -318.076
6241.18 16.1044 0 -317.427
4423.83 14.3572 0 -299.934
5296.74 15.5243 0 -312.154
6215.56 16.2055 0 -317.761
5340.61 15.2688 0 -311.602
5318.67 15.3971 0 -311.886
4405.58 14.5052 0 -300.155
4369.08 14.7976 0 -300.554
6138.69 16.5016 0 -318.646
6189.93 16.3054 0 -318.076
4387.33 14.652 0 -300.362
5252.87 15.7749 0 -312.638
6164.31 16.4041 0 -318.371
5296.74 15.5243 0 -312.154
5274.8 15.6502 0 -312.404
4369.08 14.7976 0 -300.554
4332.58 15.0852 0 -300.897
6087.45 16.6929 0 -319.137
6138.69 16.5016 0 -318.646
4350.83 14.942 0 -300.733
5209.01 16.0206 0 -313.054
6113.07 16.5979 0 -318.901
5252.87 15.7749 0 -312.638
5230.94 15.8984 0 -312.855
4332.58 15.0852 0 -300.897
4296.09 15.368 0 -301.184
6036.23 16.8791 0 -319.549
6087.45 16.6929 0 -319.137
4314.33 15.2272 0 -301.047
5165.16 16.2614 0 -313.404
6061.84 16.7866 0 -319.353
5209.01 16.0206 0 -313.054
5187.09 16.1416 0 -313.237
4296.09 15.368 0 -301.184
4259.6 15.6459 0 -301.415
5985.01 17.0603 0 -319.884
6036.23 16.8791 0 -319.549
4277.84 15.5075 0 -301.306
5121.32 16.4971 0 -313.686
6010.62 16.9703 0 -319.726
5165.16 16.2614 0 -313.404
5143.24 16.3798 0 -313.553
4259.6 15.6459 0 -301.415
4223.12 15.9188 0 -301.592
5933.81 17.2363 0 -320.142
5985.01 17.0603 0 -319.884
4241.36 15.7829 0 -301.51
5077.48 16.7276 0 -313.903
5959.41 17.1489 0 -320.023
5121.32 16.4971 0 -313.686
5099.4 16.613 0 -313.803
4223.12 15.9188 0 -301.592
4186.64 16.1867 0 -301.714
5882.61 17.407 0 -320.324
5933.81 17.2363 0 -320.142
4204.88 16.0534 0 -301.66
5033.66 16.953 0 -314.054
5908.21 17.3223 0 -320.242
5077.48 16.7276 0 -313.903
5055.57 16.841 0 -313.987
4186.64 16.1867 0 -301.714
4150.18 16.4495 0 -301.782
5831.42 17.5724 0 -320.43
5882.61 17.407 0 -320.324
4168.41 16.3187 0 -301.755
4989.84 17.1731 0 -314.141
5857.02 17.4903 0 -320.386
5033.66 16.953 0 -314.054
5011.75 17.0637 0 -314.106
4150.18 16.4495 0 -301.782
4113.71 16.7072 0 -301.797
5780.25 17.7323 0 -320.461
5831.42 17.5724 0 -320.43
4131.94 16.579 0 -301.796
4946.03 17.3879 0 -314.163
5805.83 17.653 0 -320.454
4989.84 17.1731 0 -314.141
4967.93 17.2812 0 -314.16
4113.71 16.7072 0 -301.797
4077.26 16.9596 0 -301.758
5729.08 17.8868 0 -320.417
5780.25 17.7323 0 -320.461
4095.49 16.8341 0 -301.784
4902.22 17.5973 0 -314.122
5754.66 17.8102 0 -320.448
4946.03 17.3879 0 -314.163
4924.12 17.4933 0 -314.151
4077.26 16.9596 0 -301.758
4040.81 17.2069 0 -301.667
5677.92 18.0357 0 -320.3
5729.08 17.8868 0 -320.417
4059.03 17.0839 0 -301.719
4858.43 17.8012 0 -314.018
5703.5 17.9619 0 -320.368
4902.22 17.5973 0 -314.122
4880.32 17.6999 0 -314.078
4040.81 17.2069 0 -301.667
4004.36 17.4489 0 -301.524
5626.77 18.1789 0 -320.11
5677.92 18.0357 0 -320.3
4022.59 17.3285 0 -301.602
4814.64 17.9996 0 -313.851
5652.35 18.108 0 -320.214
4858.43 17.8012 0 -314.018
4836.53 17.9011 0 -313.942
4004.36 17.4489 0 -301.524
3967.93 17.6855 0 -301.33
5575.64 18.3165 0 -319.848
5626.77 18.1789 0 -320.11
3986.15 17.5678 0 -301.433
4770.86 18.1925 0 -313.622
5601.2 18.2484 0 -319.988
4814.64 17.9996 0 -313.851
4792.75 18.0968 0 -313.744
3967.93 17.6855 0 -301.33
3931.5 17.9167 0 -301.084
5524.51 18.4483 0 -319.515
5575.64 18.3165 0 -319.848
3949.71 17.8018 0 -301.213
4727.09 18.3797 0 -313.332
5550.07 18.3831 0 -319.69
4770.86 18.1925 0 -313.622
4748.97 18.2868 0 -313.485
3931.5 17.9167 0 -301.084
3895.07 18.1426 0 -300.788
5473.39 18.5743 0 -319.11
5524.51 18.4483 0 -319.515
3913.28 18.0303 0 -300.942
4683.32 18.5613 0 -312.982
5498.95 18.512 0 -319.321
4727.09 18.3797 0 -313.332
4705.2 18.4712 0 -313.164
3895.07 18.1426 0 -300.788
3858.65 18.363 0 -300.441
5422.28 18.6944 0 -318.635
5473.39 18.5743 0 -319.11
3876.86 18.2535 0 -300.621
4639.57 18.7372 0 -312.571
5447.84 18.6351 0 -318.881
4683.32 18.5613 0 -312.982
4661.44 18.65 0 -312.783
3858.65 18.363 0 -300.441
3822.24 18.5779 0 -300.045
5371.19 18.8086 0 -318.09
5422.28 18.6944 0 -318.635
3840.45 18.4711 0 -300.25
4595.82 18.9073 0 -312.1
5396.73 18.7523 0 -318.371
4639.57 18.7372 0 -312.571
4617.69 18.8229 0 -312.343
3822.24 18.5779 0 -300.045
3785.84 18.7872 0 -299.6
5320.1 18.9169 0 -317.477
5371.19 18.8086 0 -318.09
3804.04 18.6832 0 -299.829
4552.08 19.0716 0 -311.57
5345.64 18.8635 0 -317.792
4595.82 18.9073 0 -312.1
4573.95 18.9901 0 -311.842
3785.84 18.7872 0 -299.6
3749.44 18.991 0 -299.106
5269.02 19.0191 0 -316.795
5320.1 18.9169 0 -317.477
3767.64 18.8898 0 -299.359
4508.35 19.23 0 -310.982
5294.56 18.9687 0 -317.145
4552.08 19.0716 0 -311.57
4530.22 19.1515 0 -311.283
3749.44 18.991 0 -299.106
3713.05 19.1893 0 -298.564
5217.96 19.1153 0 -316.046
5269.02 19.0191 0 -316.795
3731.24 19.0909 0 -298.841
4464.63 19.3826 0 -310.336
5243.49 19.0679 0 -316.429
4508.35 19.23 0 -310.982
4486.49 19.3071 0 -310.666
3713.05 19.1893 0 -298.564
3676.66 19.3819 0 -297.974
5166.9 19.2053 0 -315.23
5217.96 19.1153 0 -316.046
3694.85 19.2863 0 -298.275
4420.92 19.5293 0 -309.633
5192.43 19.1611 0 -315.646
4464.63 19.3826 0 -310.336
4442.77 19.4567 0 -309.992
3676.66 19.3819 0 -297.974
3640.28 19.5688 0 -297.337
5115.86 19.2893 0 -314.348
5166.9 19.2053 0 -315.23
3658.47 19.4761 0 -297.662
4377.21 19.67 0 -308.873
5141.38 19.2481 0 -314.797
4420.92 19.5293 0 -309.633
4399.06 19.6004 0 -309.26
3640.28 19.5688 0 -297.337
3603.91 19.7501 0 -296.654
5064.82 19.367 0 -313.4
5115.86 19.2893 0 -314.348
3622.1 19.6602 0 -297.001
4333.52 19.8048 0 -308.057
5090.34 19.3289 0 -313.882
4377.21 19.67 0 -308.873
4355.36 19.7381 0 -308.472
3603.91 19.7501 0 -296.654
3567.55 19.9257 0 -295.923
5013.8 19.4386 0 -312.387
5064.82 19.367 0 -313.4
3585.73 19.8386 0 -296.294
4289.83 19.9335 0 -307.185
5039.31 19.4036 0 -312.901
4333.52 19.8048 0 -308.057
4311.67 19.8699 0 -307.628
3567.55 19.9257 0 -295.923
3531.19 20.0956 0 -295.147
4962.78 19.5039 0 -311.31
5013.8 19.4386 0 -312.387
3549.37 20.0114 0 -295.541
4246.15 20.0563 0 -306.258
4988.29 19.472 0 -311.856
4289.83 19.9335 0 -307.185
4267.99 19.9957 0 -306.728
3531.19 20.0956 0 -295.147
3494.84 20.2598 0 -294.326
4911.78 19.563 0 -310.169
4962.78 19.5039 0 -311.31
3513.01 20.1784 0 -294.742
4202.48 20.173 0 -305.277
4937.28 19.5342 0 -310.747
4246.15 20.0563 0 -306.258
4224.31 20.1154 0 -305.774
3494.84 20.2598 0 -294.326
3458.49 20.4182 0 -293.46
4860.79 19.6158 0 -308.965
4911.78 19.563 0 -310.169
3476.66 20.3397 0 -293.899
4158.82 20.2836 0 -304.241
4886.28 19.5902 0 -309.575
4202.48 20.173 0 -305.277
4180.65 20.229 0 -304.766
3458.49 20.4182 0 -293.46
3422.15 20.5709 0 -292.549
4809.81 19.6623 0 -307.7
4860.79 19.6158 0 -308.965
3440.32 20.4953 0 -293.01
4115.16 20.3882 0 -303.153
4835.3 19.6398 0 -308.34
4158.82 20.2836 0 -304.241
4136.99 20.3366 0 -303.704
3422.15 20.5709 0 -292.549
3385.82 20.7178 0 -291.595
4758.83 19.7025 0 -306.372
4809.81 19.6623 0 -307.7
3403.99 20.6451 0 -292.078
4071.52 20.4866 0 -302.012
4784.32 19.6832 0 -307.044
4115.16 20.3882 0 -303.153
4093.34 20.4381 0 -302.589
3385.82 20.7178 0 -291.595
3349.5 20.8589 0 -290.597
4707.87 19.7363 0 -304.984
4758.83 19.7025 0 -306.372
3367.66 20.7891 0 -291.101
4027.88 20.579 0 -300.818
4733.35 19.7202 0 -305.686
4071.52 20.4866 0 -302.012
4049.7 20.5335 0 -301.421
3349.5 20.8589 0 -290.597
3313.18 20.9942 0 -289.556
4656.92 19.7639 0 -303.536
4707.87 19.7363 0 -304.984
3331.34 20.9273 0 -290.082
3984.25 20.6652 0 -299.573
4682.4 19.7509 0 -304.267
4027.88 20.579 0 -300.818
4006.06 20.6228 0 -300.202
3313.18 20.9942 0 -289.556
3276.87 21.1237 0 -288.473
4605.98 19.785 0 -302.028
4656.92 19.7639 0 -303.536
3295.02 21.0597 0 -289.02
3940.63 20.7453 0 -298.277
4631.45 19.7752 0 -302.789
3984.25 20.6652 0 -299.573
3962.44 20.706 0 -298.932
3276.87 21.1237 0 -288.473
3240.56 21.2475 0 -287.347
4555.05 19.7998 0 -300.461
4605.98 19.785 0 -302.028
3258.71 21.1863 0 -287.915
3897.02 20.8193 0 -296.931
4580.52 19.7932 0 -301.251
3940.63 20.7453 0 -298.277
3918.83 20.783 0 -297.61
3240.56 21.2475 0 -287.347
3204.26 21.3654 0 -286.18
4504.14 19.8083 0 -298.835
4555.05 19.7998 0 -300.461
3222.41 21.3072 0 -286.769
3853.42 20.8871 0 -295.535
4529.59 19.8048 0 -299.655
3897.02 20.8193 0 -296.931
3875.22 20.8539 0 -296.239
3204.26 21.3654 0 -286.18
3167.97 21.4775 0 -284.972
4453.23 19.8103 0 -297.153
4504.14 19.8083 0 -298.835
3186.12 21.4222 0 -285.581
3809.83 20.9488 0 -294.089
4478.68 19.8101 0 -298.001
3853.42 20.8871 0 -295.535
3831.62 20.9187 0 -294.818
3167.97 21.4775 0 -284.972
3131.69 21.5838 0 -283.724
4402.33 19.806 0 -295.413
4453.23 19.8103 0 -297.153
3149.83 21.5314 0 -284.353
3766.24 21.0043 0 -292.594
4427.78 19.809 0 -296.29
3809.83 20.9488 0 -294.089
3788.03 20.9773 0 -293.348
3131.69 21.5838 0 -283.724
3095.41 21.6843 0 -282.435
4351.44 19.7954 0 -293.617
4402.33 19.806 0 -295.413
3113.55 21.6348 0 -283.084
3722.66 21.0538 0 -291.052
4376.88 19.8015 0 -294.522
3766.24 21.0043 0 -292.594
3744.45 21.0298 0 -291.829
3095.41 21.6843 0 -282.435
3059.14 21.779 0 -281.106
4300.57 19.7783 0 -291.766
4351.44 19.7954 0 -293.617
3077.27 21.7324 0 -281.776
3679.1 21.097 0 -289.462
4326 19.7876 0 -292.698
3722.66 21.0538 0 -291.052
3700.88 21.0762 0 -290.263
3059.14 21.779 0 -281.106
3022.88 21.8679 0 -279.739
4249.7 19.755 0 -289.859
4300.57 19.7783 0 -291.766
3041.01 21.8242 0 -280.428
3635.54 21.1342 0 -287.824
4275.13 19.7674 0 -290.819
3679.1 21.097 0 -289.462
3657.32 21.1164 0 -288.649
3022.88 21.8679 0 -279.739
2986.62 21.9511 0 -278.333
4198.84 19.7253 0 -287.899
4249.7 19.755 0 -289.859
3004.75 21.9102 0 -279.041
3591.99 21.1652 0 -286.141
4224.27 19.7409 0 -288.886
3635.54 21.1342 0 -287.824
3613.76 21.1505 0 -286.988
2986.62 21.9511 0 -278.333
2950.37 22.0284 0 -276.888
4148 19.6892 0 -285.884
4198.84 19.7253 0 -287.899
2968.49 21.9904 0 -277.615
3548.44 21.1902 0 -284.411
4173.42 19.708 0 -286.898
3591.99 21.1652 0 -286.141
3570.21 21.1785 0 -285.282
2950.37 22.0284 0 -276.888
2914.12 22.1 0 -275.406
4097.17 19.6469 0 -283.817
4148 19.6892 0 -285.884
2932.24 22.0649 0 -276.152
3504.91 21.209 0 -282.636
4122.58 19.6688 0 -284.857
3548.44 21.1902 0 -284.411
3526.68 21.2004 0 -283.529
2914.12 22.1 0 -275.406
2877.88 22.1658 0 -273.886
4046.34 19.5982 0 -281.698
4097.17 19.6469 0 -283.817
2896 22.1336 0 -274.651
3461.38 21.2218 0 -280.816
4071.75 19.6233 0 -282.764
3504.91 21.209 0 -282.636
3483.15 21.2162 0 -281.732
2877.88 22.1658 0 -273.886
2841.65 22.2259 0 -272.33
3995.53 19.5433 0 -279.527
4046.34 19.5982 0 -281.698
2859.77 22.1966 0 -273.113
3417.87 21.2285 0 -278.953
4020.93 19.5715 0 -280.619
3461.38 21.2218 0 -280.816
3439.63 21.2259 0 -279.89
2841.65 22.2259 0 -272.33
2805.43 22.2802 0 -270.738
3944.72 19.4821 0 -277.305
3995.53 19.5433 0 -279.527
2823.54 22.2538 0 -271.538
3374.36 21.2291 0 -277.045
3970.12 19.5134 0 -278.422
3417.87 21.2285 0 -278.953
3396.11 21.2296 0 -278.004
2805.43 22.2802 0 -270.738
2769.21 22.3289 0 -269.109
3893.93 19.4146 0 -275.032
3944.72 19.4821 0 -277.305
2787.32 22.3053 0 -269.928
3330.86 21.2238 0 -275.094
3919.33 19.4491 0 -276.175
3374.36 21.2291 0 -277.045
3352.61 21.2272 0 -276.075
2769.21 22.3289 0 -269.109
2733 22.3718 0 -267.445
3843.15 19.341 0 -272.711
3893.93 19.4146 0 -275.032
2751.11 22.3511 0 -268.281
3287.37 21.2124 0 -273.101
3868.54 19.3786 0 -273.878
3330.86 21.2238 0 -275.094
3309.11 21.2188 0 -274.103
2733 22.3718 0 -267.445
2696.8 22.4091 0 -265.746
3792.38 19.2612 0 -270.34
3843.15 19.341 0 -272.711
2714.9 22.3912 0 -266.6
3243.88 21.1951 0 -271.066
3817.76 19.3019 0 -271.531
3287.37 21.2124 0 -273.101
3265.62 21.2045 0 -272.089
2696.8 22.4091 0 -265.746
2660.6 22.4407 0 -264.013
3741.61 19.1752 0 -267.92
3792.38 19.2612 0 -270.34
2678.7 22.4256 0 -264.884
3200.41 21.1718 0 -268.99
3766.99 19.219 0 -269.136
3243.88 21.1951 0 -271.066
3222.15 21.1842 0 -270.033
2660.6 22.4407 0 -264.013
2624.41 22.4668 0 -262.246
3690.86 19.0831 0 -265.454
3741.61 19.1752 0 -267.92
2642.5 22.4545 0 -263.134
3156.94 21.1425 0 -266.872
3716.24 19.13 0 -266.693
3200.41 21.1718 0 -268.99
3178.67 21.1579 0 -267.936
2624.41 22.4668 0 -262.246
2588.22 22.4872 0 -260.445
3640.12 18.985 0 -262.94
3690.86 19.0831 0 -265.454
2606.31 22.4777 0 -261.35
3113.48 21.1074 0 -264.715
3665.49 19.0348 0 -264.203
3156.94 21.1425 0 -266.872
3135.21 21.1257 0 -265.799
2588.22 22.4872 0 -260.445
2552.04 22.502 0 -258.611
3589.39 18.8808 0 -260.38
3640.12 18.985 0 -262.94
2570.13 22.4953 0 -259.532
3070.03 21.0664 0 -262.518
3614.75 18.9336 0 -261.666
3113.48 21.1074 0 -264.715
3091.76 21.0877 0 -263.621
2552.04 22.502 0 -258.611
2515.87 22.5113 0 -256.745
3538.67 18.7705 0 -257.774
3589.39 18.8808 0 -260.38
2533.95 22.5073 0 -257.682
3026.59 21.0196 0 -260.281
3564.03 18.8264 0 -259.082
3070.03 21.0664 0 -262.518
3048.31 21.0438 0 -261.404
2515.87 22.5113 0 -256.745
2479.7 22.515 0 -254.846
3487.95 18.6543 0 -255.123
3538.67 18.7705 0 -257.774
2497.78 22.5138 0 -255.8
2983.16 20.967 0 -258.006
3513.31 18.7132 0 -256.454
3026.59 21.0196 0 -260.281
3004.87 20.994 0 -259.149
2479.7 22.515 0 -254.846
2443.54 22.5133 0 -252.916
3437.25 18.5322 0 -252.428
3487.95 18.6543 0 -255.123
2461.62 22.5148 0 -253.885
2939.73 20.9086 0 -255.693
3462.6 18.594 0 -253.781
2983.16 20.967 0 -258.006
2961.44 20.9385 0 -256.855
2443.54 22.5133 0 -252.916
2407.39 22.5061 0 -250.955
3386.56 18.4042 0 -249.689
3437.25 18.5322 0 -252.428
2425.46 22.5104 0 -251.939
2896.31 20.8445 0 -253.343
3411.91 18.4689 0 -251.064
2939.73 20.9086 0 -255.693
2918.02 20.8773 0 -254.523
2407.39 22.5061 0 -250.955
2371.24 22.4935 0 -248.963
3335.88 18.2703 0 -246.907
3386.56 18.4042 0 -249.689
2389.31 22.5005 0 -249.963
2852.9 20.7747 0 -250.956
3361.22 18.338 0 -248.303
2896.31 20.8445 0 -253.343
2874.61 20.8103 0 -252.154
2371.24 22.4935 0 -248.963
2335.1 22.4755 0 -246.941
3285.21 18.1307 0 -244.082
3335.88 18.2703 0 -246.907
2353.17 22.4852 0 -247.956
2809.5 20.6993 0 -248.532
3310.54 18.2012 0 -245.5
2852.9 20.7747 0 -250.956
2831.2 20.7377 0 -249.749
2335.1 22.4755 0 -246.941
2298.96 22.4521 0 -244.889
3234.54 17.9853 0 -241.216
3285.21 18.1307 0 -244.082
2317.03 22.4645 0 -245.918
2766.11 20.6183 0 -246.073
3259.87 18.0587 0 -242.655
2809.5 20.6993 0 -248.532
2787.8 20.6595 0 -247.307
2298.96 22.4521 0 -244.889
2262.83 22.4234 0 -242.808
3183.89 17.8342 0 -238.309
3234.54 17.9853 0 -241.216
2280.9 22.4384 0 -243.852
2722.72 20.5317 0 -243.579
3209.22 17.9104 0 -239.768
2766.11 20.6183 0 -246.073
2744.41 20.5757 0 -244.83
2262.83 22.4234 0 -242.808
2226.71 22.3895 0 -240.697
3133.25 17.6775 0 -235.362
3183.89 17.8342 0 -238.309
2244.77 22.4071 0 -241.756
2679.34 20.4396 0 -241.05
3158.57 17.7565 0 -236.84
2722.72 20.5317 0 -243.579
2701.03 20.4863 0 -242.318
2226.71 22.3895 0 -240.697
2190.59 22.3503 0 -238.559
3082.61 17.5152 0 -232.374
3133.25 17.6775 0 -235.362
2208.65 22.3705 0 -239.632
2635.97 20.342 0 -238.487
3107.93 17.597 0 -233.873
2679.34 20.4396 0 -241.05
2657.65 20.3915 0 -239.772
2190.59 22.3503 0 -238.559
2154.48 22.3059 0 -236.393
3031.99 17.3473 0 -229.348
3082.61 17.5152 0 -232.374
2172.54 22.3287 0 -237.479
2592.6 20.239 0 -235.89
3057.3 17.4319 0 -230.866
2635.97 20.342 0 -238.487
2614.29 20.2912 0 -237.192
2154.48 22.3059 0 -236.393
2118.38 22.2563 0 -234.199
2981.37 17.174 0 -226.283
3031.99 17.3473 0 -229.348
2136.43 22.2817 0 -235.299
2549.25 20.1307 0 -233.26
3006.68 17.2613 0 -227.82
2592.6 20.239 0 -235.89
2570.93 20.1855 0 -234.579
2118.38 22.2563 0 -234.199
2082.28 22.2016 0 -231.978
2930.77 16.9953 0 -223.18
2981.37 17.174 0 -226.283
2100.33 22.2296 0 -233.092
2505.9 20.017 0 -230.598
2956.07 17.0853 0 -224.736
2549.25 20.1307 0 -233.26
2527.57 20.0745 0 -231.933
2082.28 22.2016 0 -231.978
2046.18 22.1418 0 -229.731
2880.17 16.8112 0 -220.04
2930.77 16.9953 0 -223.18
2064.23 22.1723 0 -230.858
2462.56 19.898 0 -227.905
2905.47 16.9039 0 -221.614
2505.9 20.017 0 -230.598
2484.23 19.9582 0 -229.255
2046.18 22.1418 0 -229.731
2010.1 22.077 0 -227.458
2829.58 16.6219 0 -216.863
2880.17 16.8112 0 -220.04
2028.14 22.1101 0 -228.598
2419.22 19.7739 0 -225.179
2854.88 16.7172 0 -218.456
2462.56 19.898 0 -227.905
2440.89 19.8366 0 -226.546
2010.1 22.077 0 -227.458
1974.01 22.0073 0 -225.159
2779.01 16.4273 0 -213.651
2829.58 16.6219 0 -216.863
1992.05 22.0428 0 -226.312
2375.9 19.6446 0 -222.424
2804.29 16.5252 0 -215.262
2419.22 19.7739 0 -225.179
2397.56 19.7099 0 -223.805
1974.01 22.0073 0 -225.159
1937.94 21.9325 0 -222.835
2728.44 16.2276 0 -210.403
2779.01 16.4273 0 -213.651
1955.97 21.9705 0 -224
2332.58 19.5102 0 -219.638
2753.72 16.3281 0 -212.031
2375.9 19.6446 0 -222.424
2354.24 19.578 0 -221.034
1937.94 21.9325 0 -222.835
1901.87 21.8529 0 -220.487
2677.88 16.0227 0 -207.121
2728.44 16.2276 0 -210.403
1919.9 21.8933 0 -221.664
2289.27 19.3707 0 -216.822
2703.16 16.1258 0 -208.767
2332.58 19.5102 0 -219.638
2310.92 19.4411 0 -218.234
1901.87 21.8529 0 -220.487
1865.8 21.7685 0 -218.114
2627.32 15.8129 0 -203.805
2677.88 16.0227 0 -207.121
1883.83 21.8113 0 -219.303
2245.96 19.2263 0 -213.978
2652.6 15.9184 0 -205.467
2289.27 19.3707 0 -216.822
2267.61 19.2991 0 -215.404
1865.8 21.7685 0 -218.114
1829.74 21.6793 0 -215.718
2576.78 15.5981 0 -200.456
2627.32 15.8129 0 -203.805
1847.77 21.7245 0 -216.919
2202.66 19.077 0 -211.105
2602.05 15.7061 0 -202.135
2245.96 19.2263 0 -213.978
2224.31 19.1522 0 -212.545
1829.74 21.6793 0 -215.718
1793.69 21.5853 0 -213.298
2526.25 15.3784 0 -197.074
2576.78 15.5981 0 -200.456
1811.71 21.6329 0 -214.511
2159.37 18.9227 0 -208.204
2551.51 15.4888 0 -198.769
2202.66 19.077 0 -211.105
2181.02 19.0004 0 -209.658
1793.69 21.5853 0 -213.298
1757.64 21.4866 0 -210.856
2475.72 15.1539 0 -193.66
2526.25 15.3784 0 -197.074
1775.66 21.5365 0 -212.08
2116.09 18.7637 0 -205.275
2500.98 15.2668 0 -195.371
2159.37 18.9227 0 -208.204
2137.73 18.8438 0 -206.743
1757.64 21.4866 0 -210.856
1721.59 21.3834 0 -208.391
2425.2 14.9247 0 -190.215
2475.72 15.1539 0 -193.66
1739.61 21.4356 0 -209.626
2072.81 18.6 0 -202.32
2450.46 15.0399 0 -191.941
2116.09 18.7637 0 -205.275
2094.45 18.6824 0 -203.801
1721.59 21.3834 0 -208.391
1685.55 21.2755 0 -205.904
2374.7 14.6908 0 -186.739
2425.2 14.9247 0 -190.215
1703.57 21.33 0 -207.15
2029.54 18.4316 0 -199.339
2399.95 14.8083 0 -188.481
2072.81 18.6 0 -202.32
2051.17 18.5164 0 -200.833
1685.55 21.2755 0 -205.904
1649.52 21.1631 0 -203.396
2324.2 14.4524 0 -183.233
2374.7 14.6908 0 -186.739
1667.53 21.2199 0 -204.653
1986.28 18.2586 0 -196.332
2349.44 14.5722 0 -184.99
2029.54 18.4316 0 -199.339
2007.91 18.3456 0 -197.839
1649.52 21.1631 0 -203.396
1613.49 21.0463 0 -200.868
2273.7 14.2094 0 -179.698
2324.2 14.4524 0 -183.233
1631.5 21.1052 0 -202.135
1943.02 18.081 0 -193.3
2298.95 14.3315 0 -181.469
1986.28 18.2586 0 -196.332
1964.65 18.1703 0 -194.819
1613.49 21.0463 0 -200.868
1577.46 20.925 0 -198.318
2223.22 13.9621 0 -176.134
2273.7 14.2094 0 -179.698
1595.48 20.9862 0 -199.595
1899.77 17.899 0 -190.243
2248.46 14.0863 0 -177.92
1943.02 18.081 0 -193.3
1921.39 17.9906 0 -191.774
1577.46 20.925 0 -198.318
1541.45 20.7994 0 -195.749
2172.74 13.7104 0 -172.542
2223.22 13.9621 0 -176.134
1559.45 20.8627 0 -197.036
1856.52 17.7126 0 -187.162
2197.98 13.8367 0 -174.342
1899.77 17.899 0 -190.243
1878.14 17.8063 0 -188.705
1541.45 20.7994 0 -195.749
1505.43 20.6695 0 -193.16
2122.27 13.4544 0 -168.923
2172.74 13.7104 0 -172.542
1523.44 20.735 0 -194.457
1813.28 17.5218 0 -184.058
2147.51 13.5829 0 -170.736
1856.52 17.7126 0 -187.162
1834.9 17.6177 0 -185.613
1505.43 20.6695 0 -193.16
1469.42 20.5353 0 -190.552
2071.81 13.1942 0 -165.277
2122.27 13.4544 0 -168.923
1487.43 20.6029 0 -191.859
1770.05 17.3268 0 -180.931
2097.04 13.3248 0 -167.103
1813.28 17.5218 0 -184.058
1791.67 17.4249 0 -182.497
1469.42 20.5353 0 -190.552
1433.42 20.397 0 -187.926
2021.36 12.93 0 -161.605
2071.81 13.1942 0 -165.277
1451.42 20.4667 0 -189.241
1726.82 17.1277 0 -177.781
2046.59 13.0626 0 -163.444
1770.05 17.3268 0 -180.931
1748.44 17.2278 0 -179.359
1433.42 20.397 0 -187.926
1397.42 20.2546 0 -185.281
1970.92 12.6618 0 -157.907
2021.36 12.93 0 -161.605
1415.42 20.3263 0 -186.606
1683.6 16.9244 0 -174.61
1996.14 12.7964 0 -159.759
1726.82 17.1277 0 -177.781
1705.21 17.0265 0 -176.198
1397.42 20.2546 0 -185.281
1361.42 20.1081 0 -182.619
1920.48 12.3896 0 -154.184
1970.92 12.6618 0 -157.907
1379.42 20.1819 0 -183.952
1640.39 16.717 0 -171.417
1945.7 12.5262 0 -156.049
1683.6 16.9244 0 -174.61
1662 16.8212 0 -173.016
1361.42 20.1081 0 -182.619
1325.43 19.9577 0 -179.939
1870.05 12.1136 0 -150.437
1920.48 12.3896 0 -154.184
1343.42 20.0334 0 -181.281
1597.18 16.5057 0 -168.204
1895.26 12.2521 0 -152.314
1640.39 16.717 0 -171.417
1618.79 16.6119 0 -169.813
1325.43 19.9577 0 -179.939
1289.44 19.8033 0 -177.243
1819.62 11.8339 0 -146.667
1870.05 12.1136 0 -150.437
1307.44 19.881 0 -178.593
1553.98 16.2906 0 -164.97
1844.83 11.9742 0 -148.555
1597.18 16.5057 0 -168.204
1575.58 16.3986 0 -166.589
1289.44 19.8033 0 -177.243
1253.46 19.6451 0 -174.53
1769.21 11.5505 0 -142.874
1819.62 11.8339 0 -146.667
1271.45 19.7247 0 -175.889
1510.78 16.0716 0 -161.717
1794.41 11.6927 0 -144.773
1553.98 16.2906 0 -164.97
1532.38 16.1816 0 -163.346
1253.46 19.6451 0 -174.53
1217.48 19.483 0 -171.802
1718.8 11.2636 0 -139.059
1769.21 11.5505 0 -142.874
1235.47 19.5645 0 -173.168
1467.59 15.8489 0 -158.445
1744 11.4075 0 -140.969
1510.78 16.0716 0 -161.717
1489.19 15.9607 0 -160.083
1217.48 19.483 0 -171.802
1181.51 19.3173 0 -169.058
1668.4 10.9732 0 -135.222
1718.8 11.2636 0 -139.059
1199.49 19.4006 0 -170.432
1424.41 15.6225 0 -155.154
1693.6 11.1188 0 -137.143
1467.59 15.8489 0 -158.445
1446 15.7362 0 -156.802
1181.51 19.3173 0 -169.058
1145.54 19.1478 0 -166.3
1618 10.6794 0 -131.364
1668.4 10.9732 0 -135.222
1163.52 19.233 0 -167.681
1381.23 15.3926 0 -151.846
1643.2 10.8267 0 -133.295
1424.41 15.6225 0 -155.154
1402.82 15.508 0 -153.502
1145.54 19.1478 0 -166.3
1109.57 18.9748 0 -163.526
1567.61 10.3823 0 -127.485
1618 10.6794 0 -131.364
1127.55 19.0618 0 -164.915
1338.05 15.1592 0 -148.52
1592.81 10.5313 0 -129.427
1381.23 15.3926 0 -151.846
1359.64 15.2763 0 -150.185
1109.57 18.9748 0 -163.526
1073.61 18.7982 0 -160.739
1517.23 10.0821 0 -123.587
1567.61 10.3823 0 -127.485
1091.59 18.887 0 -162.135
1294.88 14.9223 0 -145.177
1542.42 10.2326 0 -125.539
1338.05 15.1592 0 -148.52
1316.47 15.0412 0 -146.851
1073.61 18.7982 0 -160.739
1037.65 18.6182 0 -157.939
1466.86 9.77873 0 -119.67
1517.23 10.0821 0 -123.587
1055.63 18.7087 0 -159.341
1251.72 14.6821 0 -141.818
1492.04 9.93078 0 -121.631
1294.88 14.9223 0 -145.177
1273.3 14.8026 0 -143.5
1037.65 18.6182 0 -157.939
1001.7 18.4348 0 -155.125
1416.49 9.47237 0 -115.735
1466.86 9.77873 0 -119.67
1019.67 18.5269 0 -156.533
1208.56 14.4387 0 -138.443
1441.67 9.62592 0 -117.705
1251.72 14.6821 0 -141.818
1230.14 14.5608 0 -140.133
1001.7 18.4348 0 -155.125
965.745 18.248 0 -152.299
1366.13 9.16312 0 -111.782
1416.49 9.47237 0 -115.735
983.72 18.3418 0 -153.713
1165.4 14.1921 0 -135.054
1391.31 9.3181 0 -113.761
1208.56 14.4387 0 -138.443
1186.98 14.3158 0 -136.75
965.745 18.248 0 -152.299
929.798 18.058 0 -149.46
1315.77 8.85106 0 -107.812
1366.13 9.16312 0 -111.782
947.771 18.1534 0 -150.881
1122.25 13.9425 0 -131.649
1340.95 9.00743 0 -109.799
1165.4 14.1921 0 -135.054
1143.83 14.0677 0 -133.353
929.798 18.058 0 -149.46
893.853 17.8648 0 -146.611
1265.42 8.5363 0 -103.825
1315.77 8.85106 0 -107.812
911.825 17.9618 0 -148.037
1079.11 13.6898 0 -128.231
1290.59 8.69401 0 -105.82
1122.25 13.9425 0 -131.649
1100.68 13.8165 0 -129.942
893.853 17.8648 0 -146.611
857.913 17.6684 0 -143.75
1215.07 8.21892 0 -99.8223
1265.42 8.5363 0 -103.825
875.883 17.767 0 -145.181
1035.96 13.4342 0 -124.799
1240.24 8.37793 0 -101.826
1079.11 13.6898 0 -128.231
1057.53 13.5624 0 -126.516
857.913 17.6684 0 -143.75
821.975 17.469 0 -140.878
1164.73 7.89904 0 -95.8046
1215.07 8.21892 0 -99.8223
839.944 17.5691 0 -142.315
992.827 13.1759 0 -121.354
1189.9 8.05929 0 -97.8153
1035.96 13.4342 0 -124.799
1014.4 13.3054 0 -123.078
821.975 17.469 0 -140.878
786.041 17.2667 0 -137.996
1114.4 7.57676 0 -91.7722
1164.73 7.89904 0 -95.8046
804.008 17.3682 0 -139.438
949.694 12.9147 0 -117.897
1139.57 7.73819 0 -93.7902
992.827 13.1759 0 -121.354
971.26 13.0456 0 -119.627
786.041 17.2667 0 -137.996
750.109 17.0614 0 -135.104
1064.07 7.25217 0 -87.7259
1114.4 7.57676 0 -91.7722
768.075 17.1644 0 -136.551
906.565 12.6509 0 -114.428
1089.23 7.41474 0 -89.7508
949.694 12.9147 0 -117.897
928.129 12.7832 0 -116.164
750.109 17.0614 0 -135.104
714.181 16.8534 0 -132.204
1013.74 6.92537 0 -83.6663
1064.07 7.25217 0 -87.7259
732.145 16.9578 0 -133.655
863.439 12.3846 0 -110.948
1038.9 7.08904 0 -85.6977
906.565 12.6509 0 -114.428
885.001 12.5181 0 -112.689
714.181 16.8534 0 -132.204
678.256 16.6428 0 -129.294
963.42 6.5965 0 -79.5939
1013.74 6.92537 0 -83.6663
696.218 16.7484 0 -130.75
820.316 12.1158 0 -107.457
988.581 6.76119 0 -81.6317
863.439 12.3846 0 -110.948
841.877 12.2505 0 -109.204
678.256 16.6428 0 -129.294
642.334 16.4298 0 -126.375
913.102 6.26564 0 -75.5095
963.42 6.5965 0 -79.5939
660.294 16.5366 0 -127.836
777.198 11.8447 0 -103.956
938.261 6.43132 0 -77.5532
820.316 12.1158 0 -107.457
798.757 11.9806 0 -105.708
642.334 16.4298 0 -126.375
606.416 16.215 0 -123.448
862.786 5.93292 0 -71.4135
913.102 6.26564 0 -75.5095
624.375 16.3226 0 -124.913
734.083 11.5714 0 -100.445
887.943 6.09949 0 -73.4629
777.198 11.8447 0 -103.956
755.64 11.7083 0 -102.202
606.416 16.215 0 -123.448
570.504 15.999 0 -120.51
812.473 5.59855 0 -67.3068
862.786 5.93292 0 -71.4135
588.46 16.1071 0 -121.98
690.973 11.2961 0 -96.9236
837.629 5.76599 0 -69.3614
734.083 11.5714 0 -100.445
712.527 11.434 0 -98.6855
570.504 15.999 0 -120.51
534.6 15.7837 0 -117.559
762.164 5.26225 0 -63.1901
812.473 5.59855 0 -67.3068
552.551 15.8911 0 -119.036
647.871 11.019 0 -93.3912
787.318 5.43051 0 -65.2498
690.973 11.2961 0 -96.9236
669.421 11.1578 0 -95.1589
534.6 15.7837 0 -117.559
498.708 15.5719 0 -114.592
711.864 4.92546 0 -59.0649
762.164 5.26225 0 -63.1901
516.653 15.6771 0 -116.078
604.784 10.7412 0 -89.8455
737.013 5.0943 0 -61.1281
647.871 11.019 0 -93.3912
626.325 10.8801 0 -91.6203
498.708 15.5719 0 -114.592
462.836 15.3698 0 -111.595
661.579 4.58438 0 -54.9317
711.864 4.92546 0 -59.0649
480.768 15.469 0 -113.098
561.721 10.4628 0 -86.2798
686.719 4.7546 0 -56.9998
604.784 10.7412 0 -89.8455
583.249 10.6022 0 -88.0656
462.836 15.3698 0 -111.595
426.989 15.1869 0 -108.55
611.34 4.24874 0 -50.7968
661.579 4.58438 0 -54.9317
444.91 15.2751 0 -110.08
518.709 10.1876 0 -82.6839
636.452 4.41826 0 -52.8625
561.721 10.4628 0 -86.2798
540.205 10.3244 0 -84.4869
426.989 15.1869 0 -108.55
391.195 15.0446 0 -105.417
561.172 3.89296 0 -46.6584
611.34 4.24874 0 -50.7968
409.082 15.1089 0 -106.998
475.783 9.91599 0 -79.0316
586.245 4.06832 0 -48.731
518.709 10.1876 0 -82.6839
497.234 10.0519 0 -80.8664
391.195 15.0446 0 -105.417
355.448 14.9659 0 -102.137
511.224 3.57424 0 -42.5443
561.172 3.89296 0 -46.6584
373.319 14.9944 0 -103.8
433.038 9.66005 0 -75.2848
536.16 3.74227 0 -44.5901
475.783 9.91599 0 -79.0316
454.376 9.7839 0 -77.1756
355.448 14.9659 0 -102.137
319.823 15.0189 0 -98.5821
461.575 3.14874 0 -38.4378
511.224 3.57424 0 -42.5443
337.608 14.9732 0 -100.405
390.577 9.42131 0 -71.3593
486.352 3.34682 0 -40.5044
433.038 9.66005 0 -75.2848
411.771 9.54222 0 -73.3473
319.823 15.0189 0 -98.5821
284.212 15.226 0 -94.6124
412.826 2.91967 0 -34.4523
461.575 3.14874 0 -38.4378
302.038 15.0934 0 -96.6604
348.709 9.23209 0 -67.1309
437.047 3.07994 0 -36.3942
390.577 9.42131 0 -71.3593
369.528 9.30972 0 -69.3059
284.212 15.226 0 -94.6124
248.801 15.7858 0 -89.904
365.174 2.15438 0 -30.5023
412.826 2.91967 0 -34.4523
266.443 15.4686 0 -92.3782
307.639 9.10493 0 -62.3844
388.824 2.45646 0 -32.5414
348.709 9.23209 0 -67.1309
328.095 9.18135 0 -64.8167
248.801 15.7858 0 -89.904
212.874 16.5043 0 -84.2898
320.753 2.33348 0 -26.9993
365.174 2.15438 0 -30.5023
231.01 16.0904 0 -87.2233
268.274 9.10296 0 -56.7634
342.454 2.48086 0 -28.5367
307.639 9.10493 0 -62.3844
287.593 9.03666 0 -59.7755
212.874 16.5043 0 -84.2898
176.731 17.8942 0 -77.2735
279.882 -0.015009 0 -23.5967
320.753 2.33348 0 -26.9993
194.728 17.2166 0 -80.9818
230.5 9.30808 0 -49.9418
299.67 0.734752 0 -25.6149
268.274 9.10296 0 -56.7634
249.378 9.27897 0 -53.4081
176.731 17.8942 0 -77.2735
136.831 18.014 0 -69.7309
249.192 1.91684 0 -21.5401
279.882 -0.015009 0 -23.5967
157.706 18.0059 0 -73.5063
196.568 9.75082 0 -41.1162
263.223 2.1276 0 -21.695
230.5 9.30808 0 -49.9418
212.514 9.27939 0 -46.1269
136.831 18.014 0 -69.7309
93.0875 17.1906 0 -63.2999
230.357 -6.63597 0 -18.7031
249.192 1.91684 0 -21.5401
115.25 18.5123 0 -66.0404
161.503 10.6917 0 -31.5643
236.83 -4.72242 0 -22.0051
196.568 9.75082 0 -41.1162
180.44 10.5629 0 -35.7446
93.0875 17.1906 0 -63.2999
34.1281 0.0860407 0 -69.5756
251.344 7.37676 0 -13.0435
230.357 -6.63597 0 -18.7031
66.8702 11.0301 0 -63.8509
122.743 8.83586 0 -24.1625
236.414 5.42908 0 -14.1127
161.503 10.6917 0 -31.5643
141.515 9.97391 0 -28.3043
34.1281 0.0860407 0 -69.5756
-19.2763 -68.099 0 -108.112
358.911 27.3045 0 31.1482
251.344 7.37676 0 -13.0435
4.9736 -17.3114 0 -81.7843
15.6874 -37.3606 0 -63.2561
280.011 -11.3647 0 -8.75443
122.743 8.83586 0 -24.1625
88.4869 0.938699 0 -30.1701
-19.2763 -68.099 0 -108.112
-7.32955 -347.201 0 -135.511
34.1808 -416.107 0 -323.098
358.911 27.3045 0 31.1482
-30.5227 -179.587 0 -136.229
-58.0409 -433.193 0 -203.576
375.62 82.4889 0 3.6595
15.6874 -37.3606 0 -63.2561
-41.1891 -138.344 0 -120.169
      </DataArray> 
      <DataArray type="Float64" NumberOfComponents="4" Name="GreenStrain" format="ascii">
-0.00667876 -1.11022e-16 0.00286232 -0.00227324
-0.00476127 0.00150933 0.00139369 8.844e-05
-0.00342562 0.000679591 0.00117687 -0.00025238
-0.00304134 0 0.00130343 -0.000170581
-0.00529621 0.00168491 0.0015477 -0.000318386
-0.00432911 0.00105275 0.00140415 -0.000327548
-0.00325744 0.000321599 0.00125822 -0.00029313
-0.00357128 0 0.00153055 -0.00055077
-0.00417646 0.000713239 0.00148424 -0.000515181
-0.00476127 0.00150933 0.00139369 8.844e-05
-0.00470936 0.00145893 0.00139304 2.68239e-05
-0.00355843 0.000961638 0.00111291 -0.000119242
-0.00342562 0.000679591 0.00117687 -0.00025238
-0.00469376 0.00139238 0.00141488 3.80755e-05
-0.00423218 0.00123265 0.00128551 -5.34967e-05
-0.00353097 0.000879165 0.00113649 -0.000181346
-0.00432911 0.00105275 0.00140415 -0.000327548
-0.0042682 0.00119158 0.00131855 -0.000131259
-0.00470936 0.00145893 0.00139304 2.68239e-05
-0.00477735 0.00141781 0.0014398 1.24821e-05
-0.0035407 0.00103987 0.00107178 -4.3924e-05
-0.00355843 0.000961638 0.00111291 -0.000119242
-0.00475494 0.00145622 0.00141374 2.73012e-05
-0.0041883 0.00125352 0.00125777 -4.93136e-06
-0.00354827 0.00101035 0.00108768 -6.96417e-05
-0.00423218 0.00123265 0.00128551 -5.34967e-05
-0.0042094 0.0012477 0.0012693 -2.56631e-05
-0.00477735 0.00141781 0.0014398 1.24821e-05
-0.00480494 0.00144583 0.00143962 -1.53902e-06
-0.00351562 0.00104998 0.0010567 -2.77243e-05
-0.0035407 0.00103987 0.00107178 -4.3924e-05
-0.00478964 0.00142278 0.00144294 -2.63795e-06
-0.00416422 0.00125058 0.00124871 1.68736e-06
-0.00353129 0.00104999 0.00106341 -3.29521e-05
-0.0041883 0.00125352 0.00125777 -4.93136e-06
-0.00417215 0.00125327 0.00125095 4.10474e-06
-0.00480494 0.00144583 0.00143962 -1.53902e-06
-0.00481885 0.00144054 0.00144785 9.69914e-07
-0.00348677 0.00104781 0.00104527 -2.74345e-05
-0.00351562 0.00104998 0.0010567 -2.77243e-05
-0.00481682 0.00144807 0.00144375 2.40437e-06
-0.00415215 0.00124642 0.00124531 -5.97271e-06
-0.003499 0.0010492 0.00104991 -2.592e-05
-0.00416422 0.00125058 0.00124871 1.68736e-06
-0.00415929 0.00124839 0.00124753 -3.24674e-06
-0.00481885 0.00144054 0.00144785 9.69914e-07
-0.00481323 0.00144463 0.00144368 -9.10779e-07
-0.00346487 0.00103989 0.00103928 -3.34599e-05
-0.00348677 0.00104781 0.00104527 -2.74345e-05
-0.00481599 0.00144106 0.0014464 -1.55065e-06
-0.00413697 0.0012409 0.00124117 -1.2859e-05
-0.00347628 0.00104432 0.00104227 -3.06245e-05
-0.00415215 0.00124642 0.00124531 -5.97271e-06
-0.00414423 0.00124385 0.00124302 -9.04797e-06
-0.00481323 0.00144463 0.00144368 -9.10779e-07
-0.00480113 0.00143919 0.00144083 5.18237e-08
-0.00344364 0.00103226 0.00103345 -3.84103e-05
-0.00346487 0.00103989 0.00103928 -3.34599e-05
-0.00480884 0.00144316 0.00144244 2.78788e-07
-0.00412076 0.001235 0.00123676 -1.82246e-05
-0.00345363 0.00103591 0.00103617 -3.59514e-05
-0.00413697 0.0012409 0.00124117 -1.2859e-05
-0.00412945 0.00123796 0.00123921 -1.60613e-05
-0.00480113 0.00143919 0.00144083 5.18237e-08
-0.00478173 0.00143466 0.00143446 -2.92813e-07
-0.00342455 0.00102489 0.00102843 -4.23862e-05
-0.00344364 0.00103226 0.00103345 -3.84103e-05
-0.00479159 0.00143667 0.00143782 -4.91128e-07
-0.004102 0.0012288 0.00123137 -2.16465e-05
-0.00343419 0.00102854 0.00103099 -4.06683e-05
-0.00412076 0.001235 0.00123676 -1.82246e-05
-0.00411144 0.00123194 0.00123407 -2.0059e-05
-0.00478173 0.00143466 0.00143446 -2.92813e-07
-0.00475985 0.00142775 0.00142804 -3.18407e-08
-0.00340566 0.00101825 0.00102318 -4.47639e-05
-0.00342455 0.00102489 0.00102843 -4.23862e-05
-0.00477125 0.0014315 0.00143132 1.30668e-08
-0.00408214 0.00122242 0.00122559 -2.36524e-05
-0.00341496 0.00102147 0.00102578 -4.36958e-05
-0.004102 0.0012288 0.00123137 -2.16465e-05
-0.00409229 0.00122563 0.00122857 -2.28314e-05
-0.00475985 0.00142775 0.00142804 -3.18407e-08
-0.00473584 0.00142081 0.00142073 -8.06136e-08
-0.00338728 0.00101205 0.00101795 -4.62374e-05
-0.00340566 0.00101825 0.00102318 -4.47639e-05
-0.00474792 0.00142424 0.00142443 -1.41557e-07
-0.00406125 0.00121597 0.00121941 -2.47875e-05
-0.00339649 0.00101511 0.00102059 -4.56215e-05
-0.00408214 0.00122242 0.00122559 -2.36524e-05
-0.00407174 0.0012192 0.00122251 -2.42958e-05
-0.00473584 0.00142081 0.00142073 -8.06136e-08
-0.00471111 0.00141333 0.00141333 -1.68245e-08
-0.00336893 0.00100621 0.0010126 -4.70026e-05
-0.00338728 0.00101205 0.00101795 -4.62374e-05
-0.00472357 0.00141713 0.00141705 -6.65411e-09
-0.00403994 0.00120946 0.00121306 -2.53594e-05
-0.00337807 0.00100909 0.00101528 -4.6676e-05
-0.00406125 0.00121597 0.00121941 -2.47875e-05
-0.00405066 0.00121272 0.00121626 -2.51287e-05
-0.00471111 0.00141333 0.00141333 -1.68245e-08
-0.00468588 0.00140581 0.00140575 -1.88952e-08
-0.00335068 0.00100055 0.0010072 -4.74066e-05
-0.00336893 0.00100621 0.0010126 -4.70026e-05
-0.00469851 0.00140956 0.00140955 -3.63095e-08
-0.00401832 0.00120294 0.00120659 -2.56457e-05
-0.00335981 0.00100336 0.00100991 -4.7244e-05
-0.00403994 0.00120946 0.00121306 -2.53594e-05
-0.00402914 0.0012062 0.00120983 -2.55281e-05
-0.00468588 0.00140581 0.00140575 -1.88952e-08
-0.00466051 0.00139818 0.00139814 -4.83571e-09
-0.00333244 0.000995021 0.00100175 -4.75847e-05
-0.00335068 0.00100055 0.0010072 -4.74066e-05
-0.00467321 0.00140201 0.00140194 -2.27412e-09
-0.00399658 0.00119641 0.00120007 -2.57657e-05
-0.00334156 0.000997776 0.00100448 -4.75129e-05
-0.00401832 0.00120294 0.00120659 -2.56457e-05
-0.00400746 0.00119968 0.00120334 -2.57198e-05
-0.00466051 0.00139818 0.00139814 -4.83571e-09
-0.00463506 0.00139056 0.0013905 -3.28669e-09
-0.00331422 0.000989551 0.000996288 -4.76595e-05
-0.00333244 0.000995021 0.00100175 -4.75847e-05
-0.00464779 0.00139437 0.00139432 -7.68498e-09
-0.00397477 0.00118989 0.00119352 -2.58128e-05
-0.00332333 0.00099228 0.000999023 -4.7632e-05
-0.00399658 0.00119641 0.00120007 -2.57657e-05
-0.00398568 0.00119315 0.0011968 -2.57954e-05
-0.00463506 0.00139056 0.0013905 -3.28669e-09
-0.0046096 0.00138292 0.00138287 -6.70755e-10
-0.003296 0.000984114 0.00099081 -4.76799e-05
-0.00331422 0.000989551 0.000996288 -4.76595e-05
-0.00462233 0.00138674 0.00138668 5.71206e-11
-0.00395295 0.00118336 0.00118697 -2.58232e-05
-0.00330511 0.000986829 0.00099355 -4.76734e-05
-0.00397477 0.00118989 0.00119352 -2.58128e-05
-0.00396386 0.00118662 0.00119025 -2.58206e-05
-0.0046096 0.00138292 0.00138287 -6.70755e-10
-0.00458415 0.00137528 0.00137523 -5.83353e-11
-0.00327779 0.000978693 0.000985328 -4.76801e-05
-0.003296 0.000984114 0.00099081 -4.76799e-05
-0.00459687 0.0013791 0.00137905 -9.84243e-10
-0.00393112 0.00117684 0.00118041 -2.58212e-05
-0.0032869 0.000981402 0.00098807 -4.76817e-05
-0.00395295 0.00118336 0.00118697 -2.58232e-05
-0.00394204 0.0011801 0.00118369 -2.5823e-05
-0.00458415 0.00137528 0.00137523 -5.83353e-11
-0.00455871 0.00136765 0.0013676 2.46033e-10
-0.00325958 0.00097328 0.000979843 -4.76727e-05
-0.00327779 0.000978693 0.000985328 -4.76801e-05
-0.00457143 0.00137146 0.00137141 4.82972e-10
-0.00390929 0.00117032 0.00117385 -2.58149e-05
-0.00326869 0.000975986 0.000982585 -4.76767e-05
-0.00393112 0.00117684 0.00118041 -2.58212e-05
-0.00392021 0.00117358 0.00117713 -2.58182e-05
-0.00455871 0.00136765 0.0013676 2.46033e-10
-0.00453327 0.00136002 0.00135997 3.4848e-10
-0.00324137 0.000967869 0.000974358 -4.76649e-05
-0.00325958 0.00097328 0.000979843 -4.76727e-05
-0.00454599 0.00136383 0.00136378 2.12268e-10
-0.00388747 0.0011638 0.00116729 -2.58091e-05
-0.00325048 0.000970574 0.0009771 -4.76687e-05
-0.00390929 0.00117032 0.00117385 -2.58149e-05
-0.00389838 0.00116706 0.00117057 -2.58119e-05
-0.00453327 0.00136002 0.00135997 3.4848e-10
-0.00450784 0.00135239 0.00135234 3.0142e-10
-0.00322316 0.000962459 0.000968873 -4.76583e-05
-0.00324137 0.000967869 0.000974358 -4.76649e-05
-0.00452056 0.0013562 0.00135615 3.86493e-10
-0.00386565 0.00115728 0.00116073 -2.58046e-05
-0.00323227 0.000965164 0.000971616 -4.76613e-05
-0.00388747 0.0011638 0.00116729 -2.58091e-05
-0.00387656 0.00116054 0.00116401 -2.58066e-05
-0.00450784 0.00135239 0.00135234 3.0142e-10
-0.00448242 0.00134476 0.00134471 2.83138e-10
-0.00320496 0.000957049 0.000963389 -4.76537e-05
-0.00322316 0.000962459 0.000968873 -4.76583e-05
-0.00449513 0.00134857 0.00134853 2.8484e-10
-0.00384384 0.00115077 0.00115417 -2.58016e-05
-0.00321406 0.000959754 0.000966131 -4.76558e-05
-0.00386565 0.00115728 0.00116073 -2.58046e-05
-0.00385474 0.00115402 0.00115745 -2.58029e-05
-0.00448242 0.00134476 0.00134471 2.83138e-10
-0.004457 0.00133714 0.00133709 2.31014e-10
-0.00318675 0.000951638 0.000957906 -4.76508e-05
-0.00320496 0.000957049 0.000963389 -4.76537e-05
-0.00446971 0.00134095 0.0013409 2.62326e-10
-0.00382202 0.00114425 0.00114762 -2.57997e-05
-0.00319585 0.000954344 0.000960647 -4.76521e-05
-0.00384384 0.00115077 0.00115417 -2.58016e-05
-0.00383293 0.00114751 0.00115089 -2.58005e-05
-0.004457 0.00133714 0.00133709 2.31014e-10
-0.00443159 0.00132951 0.00132946 2.07778e-10
-0.00316855 0.000946228 0.000952423 -4.7649e-05
-0.00318675 0.000951638 0.000957906 -4.76508e-05
-0.0044443 0.00133332 0.00133327 2.19248e-10
-0.00380021 0.00113773 0.00114106 -2.57987e-05
-0.00317765 0.000948933 0.000955164 -4.76497e-05
-0.00382202 0.00114425 0.00114762 -2.57997e-05
-0.00381112 0.00114099 0.00114434 -2.57991e-05
-0.00443159 0.00132951 0.00132946 2.07778e-10
-0.00440617 0.00132189 0.00132184 1.82453e-10
-0.00315034 0.000940817 0.00094694 -4.7648e-05
-0.00316855 0.000946228 0.000952423 -4.7649e-05
-0.00441888 0.0013257 0.00132565 1.93526e-10
-0.0037784 0.00113122 0.00113451 -2.57982e-05
-0.00315945 0.000943522 0.000949681 -4.76484e-05
-0.00380021 0.00113773 0.00114106 -2.57987e-05
-0.0037893 0.00113447 0.00113778 -2.57984e-05
-0.00440617 0.00132189 0.00132184 1.82453e-10
-0.00438076 0.00131426 0.00131421 1.70455e-10
-0.00313214 0.000935406 0.000941458 -4.76475e-05
-0.00315034 0.000940817 0.00094694 -4.7648e-05
-0.00439347 0.00131807 0.00131803 1.76195e-10
-0.00375659 0.0011247 0.00112795 -2.5798e-05
-0.00314124 0.000938111 0.000944199 -4.76477e-05
-0.0037784 0.00113122 0.00113451 -2.57982e-05
-0.00376749 0.00112796 0.00113123 -2.57981e-05
-0.00438076 0.00131426 0.00131421 1.70458e-10
-0.00435535 0.00130664 0.00130659 1.60667e-10
-0.00311394 0.000929995 0.000935977 -4.76473e-05
-0.00313214 0.000935406 0.000941458 -4.76475e-05
-0.00436805 0.00131045 0.0013104 1.64267e-10
-0.00373478 0.00111818 0.0011214 -2.5798e-05
-0.00312304 0.0009327 0.000938718 -4.76474e-05
-0.00375659 0.0011247 0.00112795 -2.5798e-05
-0.00374568 0.00112144 0.00112468 -2.5798e-05
-0.00435535 0.00130664 0.00130659 1.60667e-10
-0.00432993 0.00129901 0.00129897 1.55889e-10
-0.00309574 0.000924583 0.000930496 -4.76472e-05
-0.00311394 0.000929995 0.000935977 -4.76473e-05
-0.00434264 0.00130282 0.00130278 1.57913e-10
-0.00371297 0.00111167 0.00111484 -2.5798e-05
-0.00310484 0.000927289 0.000933236 -4.76472e-05
-0.00373478 0.00111818 0.0011214 -2.5798e-05
-0.00372387 0.00111492 0.00111812 -2.5798e-05
-0.00432993 0.00129901 0.00129897 1.5589e-10
-0.00430452 0.00129139 0.00129134 1.52497e-10
-0.00307754 0.000919172 0.000925015 -4.76471e-05
-0.00309574 0.000924583 0.000930496 -4.76472e-05
-0.00431723 0.0012952 0.00129515 1.53563e-10
-0.00369116 0.00110515 0.00110829 -2.57981e-05
-0.00308664 0.000921877 0.000927755 -4.76472e-05
-0.00371297 0.00111167 0.00111484 -2.5798e-05
-0.00370207 0.00110841 0.00111157 -2.57981e-05
-0.00430452 0.00129139 0.00129134 1.52497e-10
-0.00427911 0.00128376 0.00128372 1.50729e-10
-0.00305934 0.00091376 0.000919534 -4.76471e-05
-0.00307754 0.000919172 0.000925015 -4.76471e-05
-0.00429181 0.00128758 0.00128753 1.51356e-10
-0.00366936 0.00109863 0.00110174 -2.57981e-05
-0.00306844 0.000916466 0.000922275 -4.76471e-05
-0.00369116 0.00110515 0.00110829 -2.57981e-05
-0.00368026 0.00110189 0.00110501 -2.57981e-05
-0.00427911 0.00128376 0.00128372 1.5073e-10
-0.0042537 0.00127614 0.00127609 1.49477e-10
-0.00304114 0.000908348 0.000914054 -4.7647e-05
-0.00305934 0.00091376 0.000919534 -4.76471e-05
-0.0042664 0.00127995 0.00127991 1.49806e-10
-0.00364755 0.00109212 0.00109518 -2.57982e-05
-0.00305024 0.000911054 0.000916794 -4.7647e-05
-0.00366936 0.00109863 0.00110174 -2.57981e-05
-0.00365845 0.00109538 0.00109846 -2.57982e-05
-0.0042537 0.00127614 0.00127609 1.49477e-10
-0.00422828 0.00126852 0.00126847 1.4865e-10
-0.00302294 0.000902937 0.000908574 -4.76469e-05
-0.00304114 0.000908348 0.000914054 -4.7647e-05
-0.00424099 0.00127233 0.00127228 1.48902e-10
-0.00362574 0.0010856 0.00108863 -2.57982e-05
-0.00303204 0.000905643 0.000911314 -4.76469e-05
-0.00364755 0.00109212 0.00109518 -2.57982e-05
-0.00363665 0.00108886 0.00109191 -2.57982e-05
-0.00422828 0.00126852 0.00126847 1.48647e-10
-0.00420287 0.00126089 0.00126085 1.47918e-10
-0.00300475 0.000897525 0.000903095 -4.76467e-05
-0.00302294 0.000902937 0.000908574 -4.76469e-05
-0.00421558 0.00126471 0.00126466 1.48128e-10
-0.00360394 0.00107909 0.00108208 -2.57981e-05
-0.00301384 0.000900231 0.000905835 -4.76468e-05
-0.00362574 0.0010856 0.00108863 -2.57982e-05
-0.00361484 0.00108234 0.00108536 -2.57982e-05
-0.00420287 0.00126089 0.00126085 1.47918e-10
-0.00417746 0.00125327 0.00125323 1.47245e-10
-0.00298655 0.000892113 0.000897616 -4.76465e-05
-0.00300475 0.000897525 0.000903095 -4.76467e-05
-0.00419017 0.00125708 0.00125704 1.47475e-10
-0.00358213 0.00107257 0.00107553 -2.57981e-05
-0.00299565 0.000894819 0.000900355 -4.76466e-05
-0.00360394 0.00107909 0.00108208 -2.57981e-05
-0.00359303 0.00107583 0.0010788 -2.57981e-05
-0.00417746 0.00125327 0.00125323 1.47242e-10
-0.00415206 0.00124565 0.0012456 1.46543e-10
-0.00296835 0.000886701 0.000892137 -4.76462e-05
-0.00298655 0.000892113 0.000897616 -4.76465e-05
-0.00416476 0.00124946 0.00124941 1.46796e-10
-0.00356033 0.00106605 0.00106897 -2.5798e-05
-0.00297745 0.000889407 0.000894876 -4.76464e-05
-0.00358213 0.00107257 0.00107553 -2.57981e-05
-0.00357123 0.00106931 0.00107225 -2.57981e-05
-0.00415206 0.00124565 0.0012456 1.46543e-10
-0.00412665 0.00123803 0.00123798 1.45826e-10
-0.00295016 0.000881289 0.000886659 -4.7646e-05
-0.00296835 0.000886701 0.000892137 -4.76462e-05
-0.00413935 0.00124184 0.00124179 1.46102e-10
-0.00353853 0.00105954 0.00106242 -2.5798e-05
-0.00295926 0.000883995 0.000889398 -4.76461e-05
-0.00356033 0.00106605 0.00106897 -2.5798e-05
-0.00354943 0.0010628 0.0010657 -2.5798e-05
-0.00412665 0.00123803 0.00123798 1.45819e-10
-0.00410124 0.0012304 0.00123036 1.45032e-10
-0.00293196 0.000875877 0.000881181 -4.76456e-05
-0.00295016 0.000881289 0.000886659 -4.7646e-05
-0.00411394 0.00123421 0.00123417 1.45347e-10
-0.00351672 0.00105302 0.00105587 -2.57979e-05
-0.00294106 0.000878583 0.00088392 -4.76458e-05
-0.00353853 0.00105954 0.00106242 -2.5798e-05
-0.00352762 0.00105628 0.00105915 -2.57979e-05
-0.00410124 0.0012304 0.00123036 1.45032e-10
-0.00407583 0.00122278 0.00122274 1.44219e-10
-0.00291377 0.000870465 0.000875703 -4.76453e-05
-0.00293196 0.000875877 0.000881181 -4.76456e-05
-0.00408854 0.00122659 0.00122655 1.44568e-10
-0.00349492 0.00104651 0.00104932 -2.57977e-05
-0.00292287 0.000873171 0.000878442 -4.76455e-05
-0.00351672 0.00105302 0.00105587 -2.57979e-05
-0.00350582 0.00104976 0.0010526 -2.57978e-05
-0.00407583 0.00122278 0.00122274 1.44223e-10
-0.00405043 0.00121516 0.00121511 1.43381e-10
-0.00289558 0.000865053 0.000870226 -4.7645e-05
-0.00291377 0.000870465 0.000875703 -4.76453e-05
-0.00406313 0.00121897 0.00121892 1.4374e-10
-0.00347312 0.00103999 0.00104277 -2.57976e-05
-0.00290468 0.000867759 0.000872964 -4.76451e-05
-0.00349492 0.00104651 0.00104932 -2.57977e-05
-0.00348402 0.00104325 0.00104604 -2.57977e-05
-0.00405043 0.00121516 0.00121511 1.43381e-10
-0.00402502 0.00120754 0.00120749 1.42492e-10
-0.00287739 0.000859641 0.000864749 -4.76446e-05
-0.00289558 0.000865053 0.000870226 -4.7645e-05
-0.00403772 0.00121135 0.0012113 1.42884e-10
-0.00345132 0.00103348 0.00103622 -2.57975e-05
-0.00288648 0.000862347 0.000867487 -4.76448e-05
-0.00347312 0.00103999 0.00104277 -2.57976e-05
-0.00346222 0.00103673 0.00103949 -2.57975e-05
-0.00402502 0.00120754 0.00120749 1.42495e-10
-0.00399961 0.00119992 0.00119987 1.41569e-10
-0.0028592 0.000854228 0.000859272 -4.76442e-05
-0.00287739 0.000859641 0.000864749 -4.76446e-05
-0.00401232 0.00120373 0.00120368 1.41952e-10
-0.00342952 0.00102696 0.00102967 -2.57973e-05
-0.00286829 0.000856934 0.00086201 -4.76444e-05
-0.00345132 0.00103348 0.00103622 -2.57975e-05
-0.00344042 0.00103022 0.00103294 -2.57974e-05
-0.00399961 0.00119992 0.00119987 1.41569e-10
-0.00397421 0.00119229 0.00119225 1.40724e-10
-0.00284101 0.000848816 0.000853796 -4.76438e-05
-0.0028592 0.000854228 0.000859272 -4.76442e-05
-0.00398691 0.00119611 0.00119606 1.41079e-10
-0.00340772 0.00102044 0.00102312 -2.57972e-05
-0.0028501 0.000851522 0.000856534 -4.7644e-05
-0.00342952 0.00102696 0.00102967 -2.57973e-05
-0.00341862 0.0010237 0.00102639 -2.57973e-05
-0.00397421 0.00119229 0.00119225 1.40724e-10
-0.00394881 0.00118467 0.00118463 1.39771e-10
-0.00282282 0.000843404 0.00084832 -4.76434e-05
-0.00284101 0.000848816 0.000853796 -4.76438e-05
-0.00396151 0.00118848 0.00118844 1.40191e-10
-0.00338592 0.00101393 0.00101657 -2.5797e-05
-0.00283191 0.00084611 0.000851058 -4.76436e-05
-0.00340772 0.00102044 0.00102312 -2.57972e-05
-0.00339682 0.00101719 0.00101984 -2.57971e-05
-0.00394881 0.00118467 0.00118463 1.39771e-10
-0.0039234 0.00117705 0.00117701 1.38837e-10
-0.00280463 0.000837992 0.000842844 -4.76429e-05
-0.00282282 0.000843404 0.00084832 -4.76434e-05
-0.00393611 0.00118086 0.00118082 1.39229e-10
-0.00336413 0.00100741 0.00101002 -2.57968e-05
-0.00281372 0.000840698 0.000845582 -4.76432e-05
-0.00338592 0.00101393 0.00101657 -2.5797e-05
-0.00337503 0.00101067 0.00101329 -2.57969e-05
-0.0039234 0.00117705 0.00117701 1.38837e-10
-0.003898 0.00116943 0.00116939 1.37918e-10
-0.00278644 0.000832579 0.000837369 -4.76425e-05
-0.00280463 0.000837992 0.000842844 -4.76429e-05
-0.0039107 0.00117324 0.0011732 1.3833e-10
-0.00334233 0.0010009 0.00100347 -2.57967e-05
-0.00279553 0.000835285 0.000840107 -4.76427e-05
-0.00336413 0.00100741 0.00101002 -2.57968e-05
-0.00335323 0.00100416 0.00100675 -2.57967e-05
-0.003898 0.00116943 0.00116939 1.37912e-10
-0.0038726 0.00116181 0.00116177 1.36989e-10
-0.00276825 0.000827167 0.000831894 -4.7642e-05
-0.00278644 0.000832579 0.000837369 -4.76425e-05
-0.0038853 0.00116562 0.00116558 1.37373e-10
-0.00332054 0.000994384 0.000996922 -2.57965e-05
-0.00277735 0.000829873 0.000834632 -4.76423e-05
-0.00334233 0.0010009 0.00100347 -2.57967e-05
-0.00333143 0.000997641 0.0010002 -2.57966e-05
-0.0038726 0.00116181 0.00116177 1.36989e-10
-0.0038472 0.00115419 0.00115415 1.36044e-10
-0.00275007 0.000821754 0.00082642 -4.76416e-05
-0.00276825 0.000827167 0.000831894 -4.7642e-05
-0.0038599 0.001158 0.00115796 1.3647e-10
-0.00329874 0.000987869 0.000990374 -2.57963e-05
-0.00275916 0.000824461 0.000829157 -4.76418e-05
-0.00332054 0.000994384 0.000996922 -2.57965e-05
-0.00330964 0.000991126 0.000993648 -2.57964e-05
-0.0038472 0.00115419 0.00115415 1.36052e-10
-0.0038218 0.00114657 0.00114653 1.35129e-10
-0.00273188 0.000816342 0.000820946 -4.76411e-05
-0.00275007 0.000821754 0.00082642 -4.76416e-05
-0.0038345 0.00115038 0.00115034 1.35505e-10
-0.00327695 0.000981354 0.000983825 -2.57961e-05
-0.00274097 0.000819048 0.000823683 -4.76413e-05
-0.00329874 0.000987869 0.000990374 -2.57963e-05
-0.00328784 0.000984612 0.000987099 -2.57962e-05
-0.0038218 0.00114657 0.00114653 1.35129e-10
-0.0037964 0.00113895 0.00113891 1.34182e-10
-0.0027137 0.000810929 0.000815472 -4.76406e-05
-0.00273188 0.000816342 0.000820946 -4.76411e-05
-0.0038091 0.00114276 0.00114272 1.3461e-10
-0.00325515 0.000974839 0.000977278 -2.57959e-05
-0.00272279 0.000813636 0.000818209 -4.76408e-05
-0.00327695 0.000981354 0.000983825 -2.57961e-05
-0.00326605 0.000978097 0.000980552 -2.5796e-05
-0.0037964 0.00113895 0.00113891 1.3417e-10
-0.003771 0.00113133 0.00113129 1.33244e-10
-0.00269551 0.000805517 0.000809999 -4.764e-05
-0.0027137 0.000810929 0.000815472 -4.76406e-05
-0.0037837 0.00113514 0.0011351 1.33602e-10
-0.00323336 0.000968325 0.00097073 -2.57956e-05
-0.00270461 0.000808223 0.000812736 -4.76403e-05
-0.00325515 0.000974839 0.000977278 -2.57959e-05
-0.00324426 0.000971582 0.000974004 -2.57958e-05
-0.003771 0.00113133 0.00113129 1.33244e-10
-0.00374561 0.00112371 0.00112367 1.32376e-10
-0.00267733 0.000800104 0.000804526 -4.76395e-05
-0.00269551 0.000805517 0.000809999 -4.764e-05
-0.00375831 0.00112752 0.00112748 1.32784e-10
-0.00321157 0.00096181 0.000964183 -2.57954e-05
-0.00268642 0.000802811 0.000807262 -4.76398e-05
-0.00323336 0.000968325 0.00097073 -2.57956e-05
-0.00322247 0.000965067 0.000967457 -2.57955e-05
-0.00374561 0.00112371 0.00112367 1.32389e-10
-0.00372021 0.00111609 0.00111605 1.31342e-10
-0.00265915 0.000794692 0.000799054 -4.7639e-05
-0.00267733 0.000800104 0.000804526 -4.76395e-05
-0.00373291 0.0011199 0.00111986 1.318e-10
-0.00318978 0.000955296 0.000957636 -2.57952e-05
-0.00266824 0.000797398 0.00080179 -4.76392e-05
-0.00321157 0.00096181 0.000964183 -2.57954e-05
-0.00320068 0.000958553 0.00096091 -2.57953e-05
-0.00372021 0.00111609 0.00111605 1.31342e-10
-0.00369482 0.00110847 0.00110843 1.30465e-10
-0.00264097 0.000789279 0.000793581 -4.76384e-05
-0.00265915 0.000794692 0.000799054 -4.7639e-05
-0.00370751 0.00111228 0.00111224 1.30813e-10
-0.00316799 0.000948781 0.00095109 -2.5795e-05
-0.00265006 0.000791986 0.000796317 -4.76387e-05
-0.00318978 0.000955296 0.000957636 -2.57952e-05
-0.00317889 0.000952038 0.000954363 -2.57951e-05
-0.00369482 0.00110847 0.00110843 1.30465e-10
-0.00366942 0.00110086 0.00110081 1.29539e-10
-0.00262279 0.000783867 0.00078811 -4.76379e-05
-0.00264097 0.000789279 0.000793581 -4.76384e-05
-0.00368212 0.00110467 0.00110462 1.29988e-10
-0.0031462 0.000942267 0.000944544 -2.57947e-05
-0.00263188 0.000786573 0.000790845 -4.76381e-05
-0.00316799 0.000948781 0.00095109 -2.5795e-05
-0.0031571 0.000945524 0.000947817 -2.57948e-05
-0.00366942 0.00110086 0.00110081 1.29541e-10
-0.00364403 0.00109324 0.0010932 1.28602e-10
-0.00260461 0.000778454 0.000782638 -4.76373e-05
-0.00262279 0.000783867 0.00078811 -4.76379e-05
-0.00365672 0.00109705 0.001097 1.28995e-10
-0.00312441 0.000935753 0.000937998 -2.57945e-05
-0.0026137 0.00078116 0.000785374 -4.76376e-05
-0.0031462 0.000942267 0.000944544 -2.57947e-05
-0.00313531 0.00093901 0.000941271 -2.57946e-05
-0.00364403 0.00109324 0.0010932 1.28604e-10
-0.00361863 0.00108562 0.00108558 1.27675e-10
-0.00258643 0.000773041 0.000777167 -4.76367e-05
-0.00260461 0.000778454 0.000782638 -4.76373e-05
-0.00363133 0.00108943 0.00108939 1.28096e-10
-0.00310263 0.000929239 0.000931452 -2.57942e-05
-0.00259552 0.000775748 0.000779903 -4.7637e-05
-0.00312441 0.000935753 0.000937998 -2.57945e-05
-0.00311352 0.000932496 0.000934725 -2.57943e-05
-0.00361863 0.00108562 0.00108558 1.27675e-10
-0.00359324 0.001078 0.00107796 1.26747e-10
-0.00256825 0.000767629 0.000771697 -4.76361e-05
-0.00258643 0.000773041 0.000777167 -4.76367e-05
-0.00360594 0.00108181 0.00108177 1.27153e-10
-0.00308084 0.000922725 0.000924907 -2.5794e-05
-0.00257734 0.000770335 0.000774432 -4.76364e-05
-0.00310263 0.000929239 0.000931452 -2.57942e-05
-0.00309173 0.000925982 0.000928179 -2.57941e-05
-0.00359324 0.001078 0.00107796 1.26747e-10
-0.00356785 0.00107038 0.00107034 1.2582e-10
-0.00255008 0.000762216 0.000766227 -4.76355e-05
-0.00256825 0.000767629 0.000771697 -4.76361e-05
-0.00358055 0.00107419 0.00107415 1.26232e-10
-0.00305906 0.000916211 0.000918362 -2.57937e-05
-0.00255917 0.000764922 0.000768962 -4.76358e-05
-0.00308084 0.000922725 0.000924907 -2.5794e-05
-0.00306995 0.000919468 0.000921634 -2.57938e-05
-0.00356785 0.00107038 0.00107034 1.25828e-10
-0.00354246 0.00106277 0.00106273 1.24884e-10
-0.0025319 0.000756803 0.000760757 -4.76349e-05
-0.00255008 0.000762216 0.000766227 -4.76355e-05
-0.00355515 0.00106658 0.00106653 1.25299e-10
-0.00303727 0.000909697 0.000911817 -2.57934e-05
-0.00254099 0.00075951 0.000763492 -4.76352e-05
-0.00305906 0.000916211 0.000918362 -2.57937e-05
-0.00304816 0.000912954 0.00091509 -2.57936e-05
-0.00354246 0.00106277 0.00106273 1.24886e-10
-0.00351707 0.00105515 0.00105511 1.23962e-10
-0.00251373 0.000751391 0.000755287 -4.76343e-05
-0.0025319 0.000756803 0.000760757 -4.76349e-05
-0.00352976 0.00105896 0.00105892 1.24372e-10
-0.00301549 0.000903184 0.000905273 -2.57932e-05
-0.00252281 0.000754097 0.000758022 -4.76346e-05
-0.00303727 0.000909697 0.000911817 -2.57934e-05
-0.00302638 0.000906441 0.000908545 -2.57933e-05
-0.00351707 0.00105515 0.00105511 1.23962e-10
-0.00349168 0.00104753 0.00104749 1.23049e-10
-0.00249555 0.000745978 0.000749818 -4.76336e-05
-0.00251373 0.000751391 0.000755287 -4.76343e-05
-0.00350438 0.00105134 0.0010513 1.2345e-10
-0.00299371 0.00089667 0.000898729 -2.57929e-05
-0.00250464 0.000748684 0.000752553 -4.7634e-05
-0.00301549 0.000903184 0.000905273 -2.57932e-05
-0.0030046 0.000899927 0.000902001 -2.5793e-05
-0.00349168 0.00104753 0.00104749 1.23049e-10
-0.00346629 0.00103992 0.00103988 1.22117e-10
-0.00247738 0.000740565 0.00074435 -4.7633e-05
-0.00249555 0.000745978 0.000749818 -4.76336e-05
-0.00347899 0.00104373 0.00104368 1.22535e-10
-0.00297192 0.000890157 0.000892186 -2.57926e-05
-0.00248647 0.000743272 0.000747084 -4.76333e-05
-0.00299371 0.00089667 0.000898729 -2.57929e-05
-0.00298281 0.000893414 0.000895458 -2.57927e-05
-0.00346629 0.00103992 0.00103988 1.22112e-10
-0.00344091 0.0010323 0.00103226 1.21192e-10
-0.00245921 0.000735152 0.000738881 -4.76324e-05
-0.00247738 0.000740565 0.00074435 -4.7633e-05
-0.0034536 0.00103611 0.00103607 1.21608e-10
-0.00295014 0.000883644 0.000885643 -2.57923e-05
-0.00246829 0.000737859 0.000741615 -4.76327e-05
-0.00297192 0.000890157 0.000892186 -2.57926e-05
-0.00296103 0.0008869 0.000888914 -2.57925e-05
-0.00344091 0.0010323 0.00103226 1.21207e-10
-0.00341552 0.00102469 0.00102464 1.20277e-10
-0.00244104 0.00072974 0.000733414 -4.76317e-05
-0.00245921 0.000735152 0.000738881 -4.76324e-05
-0.00342821 0.00102849 0.00102845 1.20688e-10
-0.00292836 0.000877131 0.0008791 -2.5792e-05
-0.00245012 0.000732446 0.000736147 -4.7632e-05
-0.00295014 0.000883644 0.000885643 -2.57923e-05
-0.00293925 0.000880387 0.000882371 -2.57922e-05
-0.00341552 0.00102469 0.00102464 1.20277e-10
-0.00339014 0.00101707 0.00101703 1.19349e-10
-0.00242287 0.000724327 0.000727946 -4.7631e-05
-0.00244104 0.00072974 0.000733414 -4.76317e-05
-0.00340283 0.00102088 0.00102084 1.19765e-10
-0.00290658 0.000870618 0.000872557 -2.57917e-05
-0.00243195 0.000727033 0.00073068 -4.76314e-05
-0.00292836 0.000877131 0.0008791 -2.5792e-05
-0.00291747 0.000873874 0.000875828 -2.57919e-05
-0.00339014 0.00101707 0.00101703 1.19349e-10
-0.00336475 0.00100945 0.00100941 1.18419e-10
-0.0024047 0.000718914 0.000722479 -4.76304e-05
-0.00242287 0.000724327 0.000727946 -4.7631e-05
-0.00337744 0.00101326 0.00101322 1.18839e-10
-0.00288481 0.000864105 0.000866015 -2.57914e-05
-0.00241378 0.00072162 0.000725213 -4.76307e-05
-0.00290658 0.000870618 0.000872557 -2.57917e-05
-0.0028957 0.000867361 0.000869286 -2.57916e-05
-0.00336475 0.00100945 0.00100941 1.18419e-10
-0.00333937 0.00100184 0.0010018 1.175e-10
-0.00238653 0.000713501 0.000717012 -4.76297e-05
-0.0024047 0.000718914 0.000722479 -4.76304e-05
-0.00335206 0.00100565 0.00100561 1.17911e-10
-0.00286303 0.000857592 0.000859473 -2.57911e-05
-0.00239561 0.000716208 0.000719746 -4.763e-05
-0.00288481 0.000864105 0.000866015 -2.57914e-05
-0.00287392 0.000860848 0.000862744 -2.57913e-05
-0.00333937 0.00100184 0.0010018 1.17494e-10
-0.00331398 0.000994224 0.000994183 1.16584e-10
-0.00236836 0.000708088 0.000711546 -4.7629e-05
-0.00238653 0.000713501 0.000717012 -4.76297e-05
-0.00332668 0.000998032 0.00099799 1.17003e-10
-0.00284125 0.000851079 0.000852932 -2.57908e-05
-0.00237745 0.000710795 0.000714279 -4.76294e-05
-0.00286303 0.000857592 0.000859473 -2.57911e-05
-0.00285214 0.000854336 0.000856202 -2.5791e-05
-0.00331398 0.000994224 0.000994183 1.16584e-10
-0.0032886 0.00098661 0.000986569 1.1565e-10
-0.0023502 0.000702676 0.00070608 -4.76284e-05
-0.00236836 0.000708088 0.000711546 -4.7629e-05
-0.00330129 0.000990417 0.000990376 1.16067e-10
-0.00281948 0.000844567 0.00084639 -2.57905e-05
-0.00235928 0.000705382 0.000708813 -4.76287e-05
-0.00284125 0.000851079 0.000852932 -2.57908e-05
-0.00283037 0.000847823 0.000849661 -2.57907e-05
-0.0032886 0.00098661 0.000986569 1.1565e-10
-0.00326322 0.000978995 0.000978954 1.14726e-10
-0.00233203 0.000697263 0.000700615 -4.76277e-05
-0.0023502 0.000702676 0.00070608 -4.76284e-05
-0.00327591 0.000982802 0.000982761 1.1515e-10
-0.0027977 0.000838054 0.00083985 -2.57902e-05
-0.00234111 0.000699969 0.000703347 -4.7628e-05
-0.00281948 0.000844567 0.00084639 -2.57905e-05
-0.00280859 0.00084131 0.00084312 -2.57904e-05
-0.00326322 0.000978995 0.000978954 1.14734e-10
-0.00323784 0.000971381 0.00097134 1.13808e-10
-0.00231387 0.00069185 0.00069515 -4.7627e-05
-0.00233203 0.000697263 0.000700615 -4.76277e-05
-0.00325053 0.000975188 0.000975147 1.1421e-10
-0.00277593 0.000831542 0.000833309 -2.57899e-05
-0.00232295 0.000694556 0.000697882 -4.76273e-05
-0.0027977 0.000838054 0.00083985 -2.57902e-05
-0.00278682 0.000834798 0.000836579 -2.57901e-05
-0.00323784 0.000971381 0.00097134 1.13816e-10
-0.00321246 0.000963767 0.000963727 1.12896e-10
-0.0022957 0.000686437 0.000689685 -4.76263e-05
-0.00231387 0.00069185 0.00069515 -4.7627e-05
-0.00322515 0.000967574 0.000967534 1.13302e-10
-0.00275416 0.00082503 0.000826769 -2.57896e-05
-0.00230478 0.000689143 0.000692417 -4.76266e-05
-0.00277593 0.000831542 0.000833309 -2.57899e-05
-0.00276504 0.000828286 0.000830039 -2.57897e-05
-0.00321246 0.000963767 0.000963727 1.12896e-10
-0.00318709 0.000956154 0.000956113 1.11972e-10
-0.00227754 0.000681024 0.000684221 -4.76256e-05
-0.0022957 0.000686437 0.000689685 -4.76263e-05
-0.00319977 0.000959961 0.00095992 1.12382e-10
-0.00273239 0.000818518 0.000820229 -2.57893e-05
-0.00228662 0.000683731 0.000686953 -4.76259e-05
-0.00275416 0.00082503 0.000826769 -2.57896e-05
-0.00274327 0.000821774 0.000823499 -2.57894e-05
-0.00318709 0.000956154 0.000956113 1.11972e-10
-0.00316171 0.000948541 0.0009485 1.11061e-10
-0.00225938 0.000675611 0.000678757 -4.76249e-05
-0.00227754 0.000681024 0.000684221 -4.76256e-05
-0.0031744 0.000952347 0.000952307 1.1149e-10
-0.00271061 0.000812006 0.00081369 -2.5789e-05
-0.00226846 0.000678318 0.000681489 -4.76252e-05
-0.00273239 0.000818518 0.000820229 -2.57893e-05
-0.0027215 0.000815262 0.000816959 -2.57891e-05
-0.00316171 0.000948541 0.0009485 1.1105e-10
-0.00313633 0.000940928 0.000940887 1.10156e-10
-0.00224122 0.000670198 0.000673293 -4.76242e-05
-0.00225938 0.000675611 0.000678757 -4.76249e-05
-0.00314902 0.000944734 0.000944694 1.10565e-10
-0.00268885 0.000805494 0.00080715 -2.57886e-05
-0.0022503 0.000672905 0.000676025 -4.76245e-05
-0.00271061 0.000812006 0.00081369 -2.5789e-05
-0.00269973 0.00080875 0.00081042 -2.57888e-05
-0.00313633 0.000940928 0.000940887 1.10136e-10
-0.00311096 0.000933315 0.000933275 1.09219e-10
-0.00222306 0.000664786 0.00066783 -4.76235e-05
-0.00224122 0.000670198 0.000673293 -4.76242e-05
-0.00312364 0.000937121 0.000937081 1.09642e-10
-0.00266708 0.000798982 0.000800612 -2.57883e-05
-0.00223214 0.000667492 0.000670562 -4.76238e-05
-0.00268885 0.000805494 0.00080715 -2.57886e-05
-0.00267796 0.000802238 0.000803881 -2.57885e-05
-0.00311096 0.000933315 0.000933275 1.09219e-10
-0.00308558 0.000925703 0.000925663 1.08316e-10
-0.0022049 0.000659373 0.000662368 -4.76227e-05
-0.00222306 0.000664786 0.00066783 -4.76235e-05
-0.00309827 0.000929509 0.000929469 1.08755e-10
-0.00264531 0.000792471 0.000794073 -2.5788e-05
-0.00221398 0.000662079 0.000665099 -4.76231e-05
-0.00266708 0.000798982 0.000800612 -2.57883e-05
-0.00265619 0.000795727 0.000797342 -2.57881e-05
-0.00308558 0.000925703 0.000925663 1.08316e-10
-0.00306021 0.00091809 0.00091805 1.07383e-10
-0.00218674 0.00065396 0.000656905 -4.7622e-05
-0.0022049 0.000659373 0.000662368 -4.76227e-05
-0.00307289 0.000921896 0.000921856 1.07829e-10
-0.00262354 0.000785959 0.000787535 -2.57877e-05
-0.00219582 0.000656666 0.000659637 -4.76224e-05
-0.00264531 0.000792471 0.000794073 -2.5788e-05
-0.00263442 0.000789215 0.000790804 -2.57878e-05
-0.00306021 0.00091809 0.00091805 1.07386e-10
-0.00303484 0.000910479 0.000910439 1.06474e-10
-0.00216858 0.000648547 0.000651444 -4.76213e-05
-0.00218674 0.00065396 0.000656905 -4.7622e-05
-0.00304752 0.000914284 0.000914245 1.06888e-10
-0.00260178 0.000779448 0.000780997 -2.57873e-05
-0.00217766 0.000651253 0.000654174 -4.76217e-05
-0.00262354 0.000785959 0.000787535 -2.57877e-05
-0.00261266 0.000782704 0.000784266 -2.57875e-05
-0.00303484 0.000910479 0.000910439 1.06454e-10
-0.00300946 0.000902867 0.000902827 1.05571e-10
-0.00215043 0.000643134 0.000645982 -4.76206e-05
-0.00216858 0.000648547 0.000651444 -4.76213e-05
-0.00302215 0.000906673 0.000906633 1.05978e-10
-0.00258001 0.000772937 0.00077446 -2.5787e-05
-0.0021595 0.000645841 0.000648713 -4.76209e-05
-0.00260178 0.000779448 0.000780997 -2.57873e-05
-0.00259089 0.000776192 0.000777729 -2.57872e-05
-0.00300946 0.000902867 0.000902827 1.05571e-10
-0.00298409 0.000895256 0.000895216 1.04661e-10
-0.00213227 0.000637721 0.000640521 -4.76199e-05
-0.00215043 0.000643134 0.000645982 -4.76206e-05
-0.00299678 0.000899061 0.000899022 1.05059e-10
-0.00255825 0.000766426 0.000767923 -2.57867e-05
-0.00214135 0.000640428 0.000643252 -4.76202e-05
-0.00258001 0.000772937 0.00077446 -2.5787e-05
-0.00256913 0.000769681 0.000771191 -2.57868e-05
-0.00298409 0.000895256 0.000895216 1.04661e-10
-0.00295872 0.000887645 0.000887605 1.03735e-10
-0.00211412 0.000632308 0.00063506 -4.76191e-05
-0.00213227 0.000637721 0.000640521 -4.76199e-05
-0.00297141 0.00089145 0.00089141 1.04176e-10
-0.00253648 0.000759915 0.000761386 -2.57864e-05
-0.00212319 0.000635015 0.000637791 -4.76195e-05
-0.00255825 0.000766426 0.000767923 -2.57867e-05
-0.00254736 0.00076317 0.000764655 -2.57865e-05
-0.00295872 0.000887645 0.000887605 1.03735e-10
-0.00293335 0.000880034 0.000879994 1.02811e-10
-0.00209596 0.000626895 0.0006296 -4.76184e-05
-0.00211412 0.000632308 0.00063506 -4.76191e-05
-0.00294604 0.000883839 0.0008838 1.03252e-10
-0.00251472 0.000753404 0.00075485 -2.5786e-05
-0.00210504 0.000629602 0.00063233 -4.76188e-05
-0.00253648 0.000759915 0.000761386 -2.57864e-05
-0.0025256 0.00075666 0.000758118 -2.57862e-05
-0.00293335 0.000880034 0.000879994 1.02814e-10
-0.00290799 0.000872423 0.000872384 1.01909e-10
-0.00207781 0.000621482 0.00062414 -4.76177e-05
-0.00209596 0.000626895 0.0006296 -4.76184e-05
-0.00292067 0.000876228 0.000876189 1.02312e-10
-0.00249296 0.000746893 0.000748314 -2.57857e-05
-0.00208689 0.000624189 0.00062687 -4.76181e-05
-0.00251472 0.000753404 0.00075485 -2.5786e-05
-0.00250384 0.000750149 0.000751582 -2.57859e-05
-0.00290799 0.000872423 0.000872384 1.01909e-10
-0.00288262 0.000864813 0.000864774 1.00978e-10
-0.00205966 0.00061607 0.000618681 -4.7617e-05
-0.00207781 0.000621482 0.00062414 -4.76177e-05
-0.0028953 0.000868618 0.000868579 1.01402e-10
-0.0024712 0.000740383 0.000741778 -2.57854e-05
-0.00206873 0.000618776 0.000621411 -4.76173e-05
-0.00249296 0.000746893 0.000748314 -2.57857e-05
-0.00248208 0.000743638 0.000745046 -2.57855e-05
-0.00288262 0.000864813 0.000864774 1.00978e-10
-0.00285725 0.000857203 0.000857164 1.00088e-10
-0.00204151 0.000610657 0.000613222 -4.76162e-05
-0.00205966 0.00061607 0.000618681 -4.7617e-05
-0.00286994 0.000861008 0.000860969 1.00495e-10
-0.00244944 0.000733872 0.000735243 -2.5785e-05
-0.00205058 0.000613363 0.000615951 -4.76166e-05
-0.0024712 0.000740383 0.000741778 -2.57854e-05
-0.00246032 0.000737128 0.00073851 -2.57852e-05
-0.00285725 0.000857203 0.000857164 1.00083e-10
-0.00283189 0.000849593 0.000849554 9.91692e-11
-0.00202336 0.000605244 0.000607763 -4.76155e-05
-0.00204151 0.000610657 0.000613222 -4.76162e-05
-0.00284457 0.000853398 0.000853359 9.96002e-11
-0.00242768 0.000727362 0.000728708 -2.57847e-05
-0.00203243 0.00060795 0.000610492 -4.76159e-05
-0.00244944 0.000733872 0.000735243 -2.5785e-05
-0.00243856 0.000730617 0.000731975 -2.57849e-05
-0.00283189 0.000849593 0.000849554 9.91772e-11
-0.00280652 0.000841984 0.000841945 9.82729e-11
-0.00200521 0.000599831 0.000602305 -4.76148e-05
-0.00202336 0.000605244 0.000607763 -4.76155e-05
-0.0028192 0.000845789 0.00084575 9.87059e-11
-0.00240592 0.000720852 0.000722173 -2.57844e-05
-0.00201428 0.000602537 0.000605034 -4.76152e-05
-0.00242768 0.000727362 0.000728708 -2.57847e-05
-0.0024168 0.000724107 0.000725441 -2.57845e-05
-0.00280652 0.000841984 0.000841945 9.82729e-11
-0.00278116 0.000834375 0.000834336 9.7355e-11
-0.00198706 0.000594418 0.000596847 -4.76141e-05
-0.00200521 0.000599831 0.000602305 -4.76148e-05
-0.00279384 0.000838179 0.000838141 9.77986e-11
-0.00238417 0.000714342 0.000715639 -2.57841e-05
-0.00199613 0.000597124 0.000599576 -4.76144e-05
-0.00240592 0.000720852 0.000722173 -2.57844e-05
-0.00239504 0.000717597 0.000718906 -2.57842e-05
-0.00278116 0.000834375 0.000834336 9.7355e-11
-0.0027558 0.000826766 0.000826727 9.64481e-11
-0.00196891 0.000589005 0.00059139 -4.76134e-05
-0.00198706 0.000594418 0.000596847 -4.76141e-05
-0.00276848 0.00083057 0.000830532 9.68805e-11
-0.00236241 0.000707832 0.000709105 -2.57837e-05
-0.00197799 0.000591711 0.000594118 -4.76137e-05
-0.00238417 0.000714342 0.000715639 -2.57841e-05
-0.00237329 0.000711087 0.000712372 -2.57839e-05
-0.0027558 0.000826766 0.000826727 9.64301e-11
-0.00273043 0.000819157 0.000819119 9.55283e-11
-0.00195077 0.000583592 0.000585933 -4.76126e-05
-0.00196891 0.000589005 0.00059139 -4.76134e-05
-0.00274312 0.000822962 0.000822923 9.59439e-11
-0.00234066 0.000701322 0.000702571 -2.57834e-05
-0.00195984 0.000586298 0.000588661 -4.7613e-05
-0.00236241 0.000707832 0.000709105 -2.57837e-05
-0.00235153 0.000704577 0.000705838 -2.57836e-05
-0.00273043 0.000819157 0.000819119 9.55166e-11
-0.00270507 0.000811549 0.000811511 9.46473e-11
-0.00193262 0.000578179 0.000580476 -4.76119e-05
-0.00195077 0.000583592 0.000585933 -4.76126e-05
-0.00271775 0.000815353 0.000815315 9.5069e-11
-0.0023189 0.000694813 0.000696038 -2.57831e-05
-0.0019417 0.000580885 0.000583204 -4.76123e-05
-0.00234066 0.000701322 0.000702571 -2.57834e-05
-0.00232978 0.000698067 0.000699305 -2.57832e-05
-0.00270507 0.000811549 0.000811511 9.46473e-11
-0.00267971 0.000803941 0.000803903 9.37213e-11
-0.00191448 0.000572766 0.00057502 -4.76112e-05
-0.00193262 0.000578179 0.000580476 -4.76119e-05
-0.00269239 0.000807745 0.000807707 9.41761e-11
-0.00229715 0.000688303 0.000689505 -2.57827e-05
-0.00192355 0.000575473 0.000577748 -4.76116e-05
-0.0023189 0.000694813 0.000696038 -2.57831e-05
-0.00230802 0.000691558 0.000692772 -2.57829e-05
-0.00267971 0.000803941 0.000803903 9.37213e-11
-0.00265436 0.000796333 0.000796295 9.28074e-11
-0.00189634 0.000567353 0.000569564 -4.76105e-05
-0.00191448 0.000572766 0.00057502 -4.76112e-05
-0.00266703 0.000800137 0.000800099 9.32542e-11
-0.0022754 0.000681794 0.000682973 -2.57824e-05
-0.00190541 0.00057006 0.000572292 -4.76108e-05
-0.00229715 0.000688303 0.000689505 -2.57827e-05
-0.00228627 0.000685048 0.000686239 -2.57826e-05
-0.00265436 0.000796333 0.000796295 9.2796e-11
-0.002629 0.000788726 0.000788688 9.18869e-11
-0.00187819 0.00056194 0.000564108 -4.76098e-05
-0.00189634 0.000567353 0.000569564 -4.76105e-05
-0.00264168 0.000792529 0.000792491 9.2338e-11
-0.00225365 0.000675284 0.00067644 -2.57821e-05
-0.00188726 0.000564647 0.000566836 -4.76101e-05
-0.0022754 0.000681794 0.000682973 -2.57824e-05
-0.00226452 0.000678539 0.000679707 -2.57823e-05
-0.002629 0.000788726 0.000788688 9.19148e-11
-0.00260364 0.000781118 0.000781081 9.09838e-11
-0.00186005 0.000556527 0.000558653 -4.76091e-05
-0.00187819 0.00056194 0.000564108 -4.76098e-05
-0.00261632 0.000784922 0.000784884 9.1438e-11
-0.0022319 0.000668775 0.000669909 -2.57818e-05
-0.00186912 0.000559234 0.000561381 -4.76094e-05
-0.00225365 0.000675284 0.00067644 -2.57821e-05
-0.00224277 0.00067203 0.000673174 -2.57819e-05
-0.00260364 0.000781118 0.000781081 9.09838e-11
-0.00257828 0.000773511 0.000773474 9.01056e-11
-0.00184191 0.000551114 0.000553199 -4.76084e-05
-0.00186005 0.000556527 0.000558653 -4.76091e-05
-0.00259096 0.000777315 0.000777277 9.05235e-11
-0.00221015 0.000662266 0.000663377 -2.57815e-05
-0.00185098 0.000553821 0.000555926 -4.76087e-05
-0.0022319 0.000668775 0.000669909 -2.57818e-05
-0.00222102 0.000665521 0.000666643 -2.57816e-05
-0.00257828 0.000773511 0.000773474 9.01056e-11
-0.00255293 0.000765905 0.000765867 8.91889e-11
-0.00182377 0.000545701 0.000547745 -4.76077e-05
-0.00184191 0.000551114 0.000553199 -4.76084e-05
-0.00256561 0.000769708 0.00076967 8.96319e-11
-0.0021884 0.000655757 0.000656846 -2.57811e-05
-0.00183284 0.000548408 0.000550472 -4.7608e-05
-0.00221015 0.000662266 0.000663377 -2.57815e-05
-0.00219927 0.000659012 0.000660111 -2.57813e-05
-0.00255293 0.000765905 0.000765867 8.91908e-11
-0.00252757 0.000758298 0.000758261 8.82782e-11
-0.00180563 0.000540288 0.000542291 -4.7607e-05
-0.00182377 0.000545701 0.000547745 -4.76077e-05
-0.00254025 0.000762102 0.000762064 8.87411e-11
-0.00216665 0.000649248 0.000650315 -2.57808e-05
-0.0018147 0.000542995 0.000545018 -4.76073e-05
-0.0021884 0.000655757 0.000656846 -2.57811e-05
-0.00217752 0.000652503 0.00065358 -2.5781e-05
-0.00252757 0.000758298 0.000758261 8.82814e-11
-0.00250222 0.000750692 0.000750655 8.73767e-11
-0.0017875 0.000534875 0.000536837 -4.76063e-05
-0.00180563 0.000540288 0.000542291 -4.7607e-05
-0.0025149 0.000754495 0.000754458 8.78265e-11
-0.0021449 0.00064274 0.000643784 -2.57805e-05
-0.00179656 0.000537582 0.000539564 -4.76066e-05
-0.00216665 0.000649248 0.000650315 -2.57808e-05
-0.00215578 0.000645994 0.00064705 -2.57807e-05
-0.00250222 0.000750692 0.000750655 8.73767e-11
-0.00247687 0.000743086 0.000743049 8.64905e-11
-0.00176936 0.000529462 0.000531384 -4.76056e-05
-0.0017875 0.000534875 0.000536837 -4.76063e-05
-0.00248954 0.000746889 0.000746852 8.69015e-11
-0.00212316 0.000636231 0.000637254 -2.57802e-05
-0.00177843 0.000532169 0.000534111 -4.76059e-05
-0.0021449 0.00064274 0.000643784 -2.57805e-05
-0.00213403 0.000639485 0.000640519 -2.57804e-05
-0.00247687 0.000743086 0.000743049 8.64905e-11
-0.00245152 0.000735481 0.000735444 8.55652e-11
-0.00175122 0.000524049 0.000525932 -4.76049e-05
-0.00176936 0.000529462 0.000531384 -4.76056e-05
-0.00246419 0.000739283 0.000739246 8.59909e-11
-0.00210141 0.000629723 0.000630725 -2.57799e-05
-0.00176029 0.000526756 0.000528658 -4.76052e-05
-0.00212316 0.000636231 0.000637254 -2.57802e-05
-0.00211229 0.000632977 0.000633989 -2.57801e-05
-0.00245152 0.000735481 0.000735444 8.55931e-11
-0.00242616 0.000727875 0.000727838 8.46858e-11
-0.00173309 0.000518636 0.000520479 -4.76042e-05
-0.00175122 0.000524049 0.000525932 -4.76049e-05
-0.00243884 0.000731678 0.000731641 8.5123e-11
-0.00207967 0.000623214 0.000624195 -2.57796e-05
-0.00174216 0.000521343 0.000523206 -4.76046e-05
-0.00210141 0.000629723 0.000630725 -2.57799e-05
-0.00209054 0.000626468 0.00062746 -2.57797e-05
-0.00242616 0.000727875 0.000727838 8.46858e-11
-0.00240081 0.00072027 0.000720233 8.3766e-11
-0.00171495 0.000513223 0.000515028 -4.76035e-05
-0.00173309 0.000518636 0.000520479 -4.76042e-05
-0.00241349 0.000724073 0.000724036 8.42002e-11
-0.00205793 0.000616706 0.000617666 -2.57793e-05
-0.00172402 0.00051593 0.000517754 -4.76039e-05
-0.00207967 0.000623214 0.000624195 -2.57796e-05
-0.0020688 0.00061996 0.00062093 -2.57794e-05
-0.00240081 0.00072027 0.000720233 8.3766e-11
-0.00237547 0.000712665 0.000712629 8.28675e-11
-0.00169682 0.00050781 0.000509576 -4.76029e-05
-0.00171495 0.000513223 0.000515028 -4.76035e-05
-0.00238814 0.000716468 0.000716431 8.32979e-11
-0.00203618 0.000610198 0.000611137 -2.5779e-05
-0.00170589 0.000510516 0.000512302 -4.76032e-05
-0.00205793 0.000616706 0.000617666 -2.57793e-05
-0.00204706 0.000613452 0.000614401 -2.57791e-05
-0.00237547 0.000712665 0.000712629 8.28675e-11
-0.00235012 0.000705061 0.000705024 8.1968e-11
-0.00167869 0.000502397 0.000504125 -4.76022e-05
-0.00169682 0.00050781 0.000509576 -4.76029e-05
-0.00236279 0.000708863 0.000708827 8.23984e-11
-0.00201444 0.00060369 0.000604609 -2.57787e-05
-0.00168775 0.000505103 0.000506851 -4.76025e-05
-0.00203618 0.000610198 0.000611137 -2.5779e-05
-0.00202531 0.000606944 0.000607873 -2.57788e-05
-0.00235012 0.000705061 0.000705024 8.19678e-11
-0.00232477 0.000697457 0.00069742 8.10843e-11
-0.00166056 0.000496984 0.000498675 -4.76015e-05
-0.00167869 0.000502397 0.000504125 -4.76022e-05
-0.00233744 0.000701259 0.000701222 8.1507e-11
-0.0019927 0.000597182 0.00059808 -2.57784e-05
-0.00166962 0.00049969 0.0005014 -4.76019e-05
-0.00201444 0.00060369 0.000604609 -2.57787e-05
-0.00200357 0.000600436 0.000601345 -2.57785e-05
-0.00232477 0.000697457 0.00069742 8.10777e-11
-0.00229942 0.000689853 0.000689816 8.01565e-11
-0.00164243 0.000491571 0.000493224 -4.76009e-05
-0.00166056 0.000496984 0.000498675 -4.76015e-05
-0.0023121 0.000693654 0.000693618 8.06158e-11
-0.00197096 0.000590674 0.000591553 -2.57781e-05
-0.00165149 0.000494277 0.000495949 -4.76012e-05
-0.0019927 0.000597182 0.00059808 -2.57784e-05
-0.00198183 0.000593928 0.000594817 -2.57783e-05
-0.00229942 0.000689853 0.000689816 8.01565e-11
-0.00227408 0.000682249 0.000682213 7.92594e-11
-0.0016243 0.000486158 0.000487774 -4.76002e-05
-0.00164243 0.000491571 0.000493224 -4.76009e-05
-0.00228675 0.000686051 0.000686014 7.97094e-11
-0.00194923 0.000584167 0.000585025 -2.57778e-05
-0.00163336 0.000488864 0.000490499 -4.76006e-05
-0.00197096 0.000590674 0.000591553 -2.57781e-05
-0.00196009 0.000587421 0.000588289 -2.5778e-05
-0.00227408 0.000682249 0.000682213 7.92594e-11
-0.00224873 0.000674645 0.000674609 7.8365e-11
-0.00160617 0.000480744 0.000482325 -4.75996e-05
-0.0016243 0.000486158 0.000487774 -4.76002e-05
-0.00226141 0.000678447 0.000678411 7.87979e-11
-0.00192749 0.000577659 0.000578498 -2.57775e-05
-0.00161523 0.000483451 0.00048505 -4.75999e-05
-0.00194923 0.000584167 0.000585025 -2.57778e-05
-0.00193836 0.000580913 0.000581762 -2.57777e-05
-0.00224873 0.000674645 0.000674609 7.83749e-11
-0.00222339 0.000667042 0.000667006 7.7467e-11
-0.00158804 0.000475331 0.000476876 -4.7599e-05
-0.00160617 0.000480744 0.000482325 -4.75996e-05
-0.00223606 0.000670844 0.000670808 7.78934e-11
-0.00190575 0.000571152 0.000571971 -2.57773e-05
-0.00159711 0.000478038 0.0004796 -4.75993e-05
-0.00192749 0.000577659 0.000578498 -2.57775e-05
-0.00191662 0.000574406 0.000575235 -2.57774e-05
-0.00222339 0.000667042 0.000667006 7.74665e-11
-0.00219805 0.000659439 0.000659403 7.65845e-11
-0.00156991 0.000469918 0.000471427 -4.75983e-05
-0.00158804 0.000475331 0.000476876 -4.7599e-05
-0.00221072 0.00066324 0.000663205 7.70156e-11
-0.00188402 0.000564645 0.000565445 -2.5777e-05
-0.00157898 0.000472625 0.000474151 -4.75987e-05
-0.00190575 0.000571152 0.000571971 -2.57773e-05
-0.00189488 0.000567898 0.000568708 -2.57771e-05
-0.00219805 0.000659439 0.000659403 7.65845e-11
-0.0021727 0.000651836 0.000651801 7.56733e-11
-0.00155179 0.000464505 0.000465979 -4.75977e-05
-0.00156991 0.000469918 0.000471427 -4.75983e-05
-0.00218538 0.000655638 0.000655602 7.61065e-11
-0.00186228 0.000558137 0.000558919 -2.57767e-05
-0.00156085 0.000467212 0.000468703 -4.7598e-05
-0.00188402 0.000564645 0.000565445 -2.5777e-05
-0.00187315 0.000561391 0.000562182 -2.57768e-05
-0.0021727 0.000651836 0.000651801 7.56733e-11
-0.00214736 0.000644234 0.000644198 7.47809e-11
-0.00153366 0.000459092 0.000460531 -4.75971e-05
-0.00155179 0.000464505 0.000465979 -4.75977e-05
-0.00216003 0.000648035 0.000647999 7.52079e-11
-0.00184055 0.00055163 0.000552393 -2.57764e-05
-0.00154273 0.000461798 0.000463255 -4.75974e-05
-0.00186228 0.000558137 0.000558919 -2.57767e-05
-0.00185141 0.000554884 0.000555656 -2.57766e-05
-0.00214736 0.000644234 0.000644198 7.47805e-11
-0.00212202 0.000636632 0.000636596 7.3885e-11
-0.00151554 0.000453679 0.000455083 -4.75965e-05
-0.00153366 0.000459092 0.000460531 -4.75971e-05
-0.00213469 0.000640433 0.000640397 7.43353e-11
-0.00181881 0.000545123 0.000545868 -2.57762e-05
-0.0015246 0.000456385 0.000457807 -4.75968e-05
-0.00184055 0.00055163 0.000552393 -2.57764e-05
-0.00182968 0.000548377 0.00054913 -2.57763e-05
-0.00212202 0.000636632 0.000636596 7.38915e-11
-0.00209668 0.00062903 0.000628994 7.30161e-11
-0.00149742 0.000448265 0.000449636 -4.75959e-05
-0.00151554 0.000453679 0.000455083 -4.75965e-05
-0.00210935 0.000632831 0.000632795 7.34139e-11
-0.00179708 0.000538617 0.000539342 -2.57759e-05
-0.00150648 0.000450972 0.00045236 -4.75962e-05
-0.00181881 0.000545123 0.000545868 -2.57762e-05
-0.00180795 0.00054187 0.000542605 -2.5776e-05
-0.00209668 0.00062903 0.000628994 7.30161e-11
-0.00207134 0.000621428 0.000621393 7.20854e-11
-0.00147929 0.000442852 0.00044419 -4.75953e-05
-0.00149742 0.000448265 0.000449636 -4.75959e-05
-0.00208401 0.000625229 0.000625194 7.25161e-11
-0.00177535 0.00053211 0.000532818 -2.57757e-05
-0.00148836 0.000445559 0.000446913 -4.75956e-05
-0.00179708 0.000538617 0.000539342 -2.57759e-05
-0.00178622 0.000535363 0.00053608 -2.57758e-05
-0.00207134 0.000621428 0.000621393 7.20854e-11
-0.00204601 0.000613826 0.000613791 7.11955e-11
-0.00146117 0.000437439 0.000438743 -4.75947e-05
-0.00147929 0.000442852 0.00044419 -4.75953e-05
-0.00205868 0.000617627 0.000617592 7.1638e-11
-0.00175362 0.000525603 0.000526293 -2.57754e-05
-0.00147023 0.000440145 0.000441466 -4.7595e-05
-0.00177535 0.00053211 0.000532818 -2.57757e-05
-0.00176449 0.000528856 0.000529555 -2.57755e-05
-0.00204601 0.000613826 0.000613791 7.12285e-11
-0.00202067 0.000606225 0.00060619 7.03134e-11
-0.00144305 0.000432025 0.000433297 -4.75942e-05
-0.00146117 0.000437439 0.000438743 -4.75947e-05
-0.00203334 0.000610026 0.000609991 7.07437e-11
-0.00173189 0.000519097 0.000519769 -2.57752e-05
-0.00145211 0.000434732 0.00043602 -4.75944e-05
-0.00175362 0.000525603 0.000526293 -2.57754e-05
-0.00174276 0.00052235 0.000523031 -2.57753e-05
-0.00202067 0.000606225 0.00060619 7.03136e-11
-0.00199533 0.000598624 0.00059859 6.94007e-11
-0.00142493 0.000426612 0.000427852 -4.75936e-05
-0.00144305 0.000432025 0.000433297 -4.75942e-05
-0.002008 0.000602425 0.00060239 6.98575e-11
-0.00171016 0.00051259 0.000513245 -2.57749e-05
-0.00143399 0.000429319 0.000430574 -4.75939e-05
-0.00173189 0.000519097 0.000519769 -2.57752e-05
-0.00172103 0.000515843 0.000516507 -2.5775e-05
-0.00199533 0.000598624 0.00059859 6.94007e-11
-0.00197 0.000591023 0.000590989 6.8525e-11
-0.00140681 0.000421199 0.000422406 -4.7593e-05
-0.00142493 0.000426612 0.000427852 -4.75936e-05
-0.00198267 0.000594824 0.000594789 6.89838e-11
-0.00168843 0.000506084 0.000506722 -2.57747e-05
-0.00141587 0.000423905 0.000425129 -4.75933e-05
-0.00171016 0.00051259 0.000513245 -2.57749e-05
-0.0016993 0.000509337 0.000509983 -2.57748e-05
-0.00197 0.000591023 0.000590989 6.8525e-11
-0.00194466 0.000583423 0.000583389 6.76458e-11
-0.0013887 0.000415785 0.000416962 -4.75925e-05
-0.00140681 0.000421199 0.000422406 -4.7593e-05
-0.00195733 0.000587223 0.000587189 6.80706e-11
-0.00166671 0.000499578 0.000500198 -2.57744e-05
-0.00139775 0.000418492 0.000419684 -4.75928e-05
-0.00168843 0.000506084 0.000506722 -2.57747e-05
-0.00167757 0.000502831 0.00050346 -2.57746e-05
-0.00194466 0.000583423 0.000583389 6.76458e-11
-0.00191933 0.000575823 0.000575789 6.67522e-11
-0.00137058 0.000410372 0.000411517 -4.7592e-05
-0.0013887 0.000415785 0.000416962 -4.75925e-05
-0.001932 0.000579623 0.000579589 6.71847e-11
-0.00164498 0.000493071 0.000493676 -2.57742e-05
-0.00137964 0.000413079 0.000414239 -4.75922e-05
-0.00166671 0.000499578 0.000500198 -2.57744e-05
-0.00165584 0.000496325 0.000496937 -2.57743e-05
-0.00191933 0.000575823 0.000575789 6.67619e-11
-0.001894 0.000568223 0.000568189 6.58549e-11
-0.00135246 0.000404959 0.000406073 -4.75914e-05
-0.00137058 0.000410372 0.000411517 -4.7592e-05
-0.00190666 0.000572023 0.000571989 6.63098e-11
-0.00162326 0.000486565 0.000487153 -2.5774e-05
-0.00136152 0.000407665 0.000408795 -4.75917e-05
-0.00164498 0.000493071 0.000493676 -2.57742e-05
-0.00163412 0.000489818 0.000490414 -2.57741e-05
-0.001894 0.000568223 0.000568189 6.58549e-11
-0.00186866 0.000560623 0.000560589 6.4985e-11
-0.00133435 0.000399545 0.00040063 -4.75909e-05
-0.00135246 0.000404959 0.000406073 -4.75914e-05
-0.00188133 0.000564423 0.000564389 6.54199e-11
-0.00160153 0.00048006 0.000480631 -2.57738e-05
-0.0013434 0.000402252 0.000403351 -4.75912e-05
-0.00162326 0.000486565 0.000487153 -2.5774e-05
-0.00161239 0.000483312 0.000483892 -2.57739e-05
-0.00186866 0.000560623 0.000560589 6.4985e-11
-0.00184333 0.000553023 0.00055299 6.41056e-11
-0.00131623 0.000394132 0.000395186 -4.75904e-05
-0.00133435 0.000399545 0.00040063 -4.75909e-05
-0.001856 0.000556823 0.000556789 6.45236e-11
-0.00157981 0.000473554 0.000474109 -2.57736e-05
-0.00132529 0.000396838 0.000397908 -4.75907e-05
-0.00160153 0.00048006 0.000480631 -2.57738e-05
-0.00159067 0.000476807 0.00047737 -2.57737e-05
-0.00184333 0.000553023 0.00055299 6.40768e-11
-0.001818 0.000545424 0.000545391 6.3195e-11
-0.00129812 0.000388718 0.000389743 -4.75899e-05
-0.00131623 0.000394132 0.000395186 -4.75904e-05
-0.00183067 0.000549224 0.00054919 6.36403e-11
-0.00155808 0.000467048 0.000467587 -2.57734e-05
-0.00130718 0.000391425 0.000392465 -4.75902e-05
-0.00157981 0.000473554 0.000474109 -2.57736e-05
-0.00156895 0.000470301 0.000470848 -2.57735e-05
-0.001818 0.000545424 0.000545391 6.31954e-11
-0.00179267 0.000537825 0.000537792 6.2294e-11
-0.00128001 0.000383305 0.000384301 -4.75894e-05
-0.00129812 0.000388718 0.000389743 -4.75899e-05
-0.00180534 0.000541625 0.000541591 6.27549e-11
-0.00153636 0.000460542 0.000461066 -2.57732e-05
-0.00128906 0.000386011 0.000387022 -4.75897e-05
-0.00155808 0.000467048 0.000467587 -2.57734e-05
-0.00154722 0.000463795 0.000464327 -2.57733e-05
-0.00179267 0.000537825 0.000537792 6.2294e-11
-0.00176734 0.000530226 0.000530193 6.14193e-11
-0.00126189 0.000377891 0.000378859 -4.75889e-05
-0.00128001 0.000383305 0.000384301 -4.75894e-05
-0.00178001 0.000534026 0.000533992 6.18372e-11
-0.00151464 0.000454037 0.000454545 -2.5773e-05
-0.00127095 0.000380598 0.00038158 -4.75892e-05
-0.00153636 0.000460542 0.000461066 -2.57732e-05
-0.0015255 0.000457289 0.000457805 -2.57731e-05
-0.00176734 0.000530226 0.000530193 6.14193e-11
-0.00174201 0.000522628 0.000522595 6.05595e-11
-0.00124378 0.000372477 0.000373417 -4.75885e-05
-0.00126189 0.000377891 0.000378859 -4.75889e-05
-0.00175468 0.000526427 0.000526394 6.09733e-11
-0.00149292 0.000447531 0.000448024 -2.57728e-05
-0.00125284 0.000375184 0.000376138 -4.75887e-05
-0.00151464 0.000454037 0.000454545 -2.5773e-05
-0.00150378 0.000450784 0.000451285 -2.57729e-05
-0.00174201 0.000522628 0.000522595 6.05595e-11
-0.00171669 0.000515029 0.000514996 5.96734e-11
-0.00122567 0.000367064 0.000367975 -4.7588e-05
-0.00124378 0.000372477 0.000373417 -4.75885e-05
-0.00172935 0.000518829 0.000518795 6.00872e-11
-0.0014712 0.000441026 0.000441504 -2.57726e-05
-0.00123473 0.000369771 0.000370696 -4.75883e-05
-0.00149292 0.000447531 0.000448024 -2.57728e-05
-0.00148206 0.000444279 0.000444764 -2.57727e-05
-0.00171669 0.000515029 0.000514996 5.96534e-11
-0.00169136 0.000507431 0.000507398 5.87579e-11
-0.00120756 0.00036165 0.000362534 -4.75876e-05
-0.00122567 0.000367064 0.000367975 -4.7588e-05
-0.00170402 0.00051123 0.000511197 5.92226e-11
-0.00144948 0.000434521 0.000434984 -2.57724e-05
-0.00121662 0.000364357 0.000365255 -4.75878e-05
-0.0014712 0.000441026 0.000441504 -2.57726e-05
-0.00146034 0.000437773 0.000438244 -2.57725e-05
-0.00169136 0.000507431 0.000507398 5.87579e-11
-0.00166603 0.000499833 0.000499801 5.78782e-11
-0.00118945 0.000356236 0.000357094 -4.75871e-05
-0.00120756 0.00036165 0.000362534 -4.75876e-05
-0.0016787 0.000503632 0.000503599 5.82936e-11
-0.00142777 0.000428015 0.000428464 -2.57722e-05
-0.00119851 0.000358943 0.000359814 -4.75874e-05
-0.00144948 0.000434521 0.000434984 -2.57724e-05
-0.00143862 0.000431268 0.000431724 -2.57723e-05
-0.00166603 0.000499833 0.000499801 5.78782e-11
-0.00164071 0.000492236 0.000492203 5.70106e-11
-0.00117135 0.000350823 0.000351653 -4.75867e-05
-0.00118945 0.000356236 0.000357094 -4.75871e-05
-0.00165337 0.000496034 0.000496002 5.74272e-11
-0.00140605 0.00042151 0.000421945 -2.57721e-05
-0.0011804 0.000353529 0.000354373 -4.75869e-05
-0.00142777 0.000428015 0.000428464 -2.57722e-05
-0.00141691 0.000424763 0.000425204 -2.57722e-05
-0.00164071 0.000492236 0.000492203 5.69942e-11
-0.00161539 0.000484638 0.000484606 5.61235e-11
-0.00115324 0.000345409 0.000346213 -4.75863e-05
-0.00117135 0.000350823 0.000351653 -4.75867e-05
-0.00162805 0.000488437 0.000488404 5.65477e-11
-0.00138433 0.000415005 0.000415426 -2.57719e-05
-0.00116229 0.000348116 0.000348933 -4.75865e-05
-0.00140605 0.00042151 0.000421945 -2.57721e-05
-0.00139519 0.000418258 0.000418685 -2.5772e-05
-0.00161539 0.000484638 0.000484606 5.61235e-11
-0.00159006 0.000477041 0.000477009 5.52263e-11
-0.00113513 0.000339995 0.000340774 -4.75859e-05
-0.00115324 0.000345409 0.000346213 -4.75863e-05
-0.00160272 0.00048084 0.000480807 5.56853e-11
-0.00136262 0.0004085 0.000408907 -2.57718e-05
-0.00114419 0.000342702 0.000343493 -4.75861e-05
-0.00138433 0.000415005 0.000415426 -2.57719e-05
-0.00137347 0.000411753 0.000412166 -2.57718e-05
-0.00159006 0.000477041 0.000477009 5.52263e-11
-0.00156474 0.000469444 0.000469412 5.43377e-11
-0.00111703 0.000334581 0.000335334 -4.75855e-05
-0.00113513 0.000339995 0.000340774 -4.75859e-05
-0.0015774 0.000473242 0.00047321 5.47819e-11
-0.0013409 0.000401995 0.000402388 -2.57716e-05
-0.00112608 0.000337288 0.000338054 -4.75857e-05
-0.00136262 0.0004085 0.000408907 -2.57718e-05
-0.00135176 0.000405248 0.000405648 -2.57717e-05
-0.00156474 0.000469444 0.000469412 5.43377e-11
-0.00153942 0.000461847 0.000461815 5.34642e-11
-0.00109892 0.000329167 0.000329896 -4.75852e-05
-0.00111703 0.000334581 0.000335334 -4.75855e-05
-0.00155208 0.000465646 0.000465614 5.39001e-11
-0.00131919 0.00039549 0.00039587 -2.57715e-05
-0.00110798 0.000331874 0.000332615 -4.75853e-05
-0.0013409 0.000401995 0.000402388 -2.57716e-05
-0.00133004 0.000398743 0.000399129 -2.57715e-05
-0.00153942 0.000461847 0.000461815 5.34642e-11
-0.00151409 0.000454251 0.000454219 5.256e-11
-0.00108082 0.000323753 0.000324457 -4.75848e-05
-0.00109892 0.000329167 0.000329896 -4.75852e-05
-0.00152676 0.000458049 0.000458017 5.29773e-11
-0.00129747 0.000388986 0.000389352 -2.57713e-05
-0.00108987 0.00032646 0.000327176 -4.7585e-05
-0.00131919 0.00039549 0.00039587 -2.57715e-05
-0.00130833 0.000392238 0.000392611 -2.57714e-05
-0.00151409 0.000454251 0.000454219 5.25664e-11
-0.00148877 0.000446654 0.000446623 5.16993e-11
-0.00106272 0.000318339 0.000319019 -4.75844e-05
-0.00108082 0.000323753 0.000324457 -4.75848e-05
-0.00150143 0.000450452 0.000450421 5.21452e-11
-0.00127576 0.000382481 0.000382835 -2.57712e-05
-0.00107177 0.000321046 0.000321738 -4.75846e-05
-0.00129747 0.000388986 0.000389352 -2.57713e-05
-0.00128662 0.000385733 0.000386093 -2.57713e-05
-0.00148877 0.000446654 0.000446623 5.16993e-11
-0.00146345 0.000439058 0.000439027 5.08174e-11
-0.00104461 0.000312925 0.000313581 -4.75841e-05
-0.00106272 0.000318339 0.000319019 -4.75844e-05
-0.00147611 0.000442856 0.000442825 5.12278e-11
-0.00125405 0.000375976 0.000376317 -2.57711e-05
-0.00105367 0.000315632 0.0003163 -4.75843e-05
-0.00127576 0.000382481 0.000382835 -2.57712e-05
-0.00126491 0.000379229 0.000379576 -2.57712e-05
-0.00146345 0.000439058 0.000439027 5.08174e-11
-0.00143813 0.000431462 0.000431431 4.9946e-11
-0.00102651 0.000307511 0.000308144 -4.75838e-05
-0.00104461 0.000312925 0.000313581 -4.75841e-05
-0.00145079 0.00043526 0.000435229 5.03963e-11
-0.00123234 0.000369472 0.0003698 -2.5771e-05
-0.00103556 0.000310218 0.000310862 -4.75839e-05
-0.00125405 0.000375976 0.000376317 -2.57711e-05
-0.00124319 0.000372724 0.000373059 -2.5771e-05
-0.00143813 0.000431462 0.000431431 4.99523e-11
-0.00141282 0.000423866 0.000423835 4.90447e-11
-0.00100841 0.000302097 0.000302707 -4.75835e-05
-0.00102651 0.000307511 0.000308144 -4.75838e-05
-0.00142547 0.000427664 0.000427633 4.95151e-11
-0.00121063 0.000362967 0.000363283 -2.57709e-05
-0.00101746 0.000304804 0.000305425 -4.75836e-05
-0.00123234 0.000369472 0.0003698 -2.5771e-05
-0.00122148 0.00036622 0.000366542 -2.57709e-05
-0.00141282 0.000423866 0.000423835 4.9044e-11
-0.0013875 0.000416271 0.00041624 4.8162e-11
-0.000990312 0.000296682 0.00029727 -4.75832e-05
-0.00100841 0.000302097 0.000302707 -4.75835e-05
-0.00140016 0.000420069 0.000420038 4.86177e-11
-0.00118892 0.000356463 0.000356767 -2.57708e-05
-0.000999362 0.000299389 0.000299988 -4.75833e-05
-0.00121063 0.000362967 0.000363283 -2.57709e-05
-0.00119977 0.000359715 0.000360025 -2.57708e-05
-0.0013875 0.000416271 0.00041624 4.8162e-11
-0.00136218 0.000408676 0.000408645 4.72827e-11
-0.000972213 0.000291268 0.000291834 -4.75829e-05
-0.000990312 0.000296682 0.00029727 -4.75832e-05
-0.00137484 0.000412473 0.000412442 4.77578e-11
-0.00116721 0.000349959 0.000350251 -2.57707e-05
-0.000981262 0.000293975 0.000294552 -4.7583e-05
-0.00118892 0.000356463 0.000356767 -2.57708e-05
-0.00117806 0.000353211 0.000353509 -2.57707e-05
-0.00136218 0.000408676 0.000408645 4.72827e-11
-0.00133686 0.00040108 0.00040105 4.64552e-11
-0.000954115 0.000285854 0.000286398 -4.75826e-05
-0.000972213 0.000291268 0.000291834 -4.75829e-05
-0.00134952 0.000404878 0.000404847 4.68132e-11
-0.0011455 0.000343454 0.000343735 -2.57706e-05
-0.000963164 0.000288561 0.000289116 -4.75827e-05
-0.00116721 0.000349959 0.000350251 -2.57707e-05
-0.00115636 0.000346707 0.000346993 -2.57706e-05
-0.00133686 0.00040108 0.00040105 4.64552e-11
-0.00131155 0.000393485 0.000393455 4.55227e-11
-0.000936017 0.000280439 0.000280962 -4.75823e-05
-0.000954115 0.000285854 0.000286398 -4.75826e-05
-0.00132421 0.000397283 0.000397252 4.6024e-11
-0.00112379 0.00033695 0.000337219 -2.57705e-05
-0.000945066 0.000283146 0.00028368 -4.75825e-05
-0.0011455 0.000343454 0.000343735 -2.57706e-05
-0.00113465 0.000340202 0.000340477 -2.57706e-05
-0.00131155 0.000393485 0.000393455 4.55196e-11
-0.00128623 0.000385891 0.000385861 4.46629e-11
-0.00091792 0.000275025 0.000275527 -4.75821e-05
-0.000936017 0.000280439 0.000280962 -4.75823e-05
-0.00129889 0.000389688 0.000389658 4.50796e-11
-0.00110209 0.000330446 0.000330704 -2.57704e-05
-0.000926968 0.000277732 0.000278244 -4.75822e-05
-0.00112379 0.00033695 0.000337219 -2.57705e-05
-0.00111294 0.000333698 0.000333961 -2.57705e-05
-0.00128623 0.000385891 0.000385861 4.46629e-11
-0.00126092 0.000378296 0.000378266 4.38135e-11
-0.000899824 0.00026961 0.000270092 -4.75819e-05
-0.00091792 0.000275025 0.000275527 -4.75821e-05
-0.00127357 0.000382093 0.000382063 4.42494e-11
-0.00108038 0.000323942 0.000324189 -2.57704e-05
-0.000908872 0.000272317 0.000272809 -4.7582e-05
-0.00110209 0.000330446 0.000330704 -2.57704e-05
-0.00109124 0.000327194 0.000327446 -2.57704e-05
-0.00126092 0.000378296 0.000378266 4.38337e-11
-0.0012356 0.000370702 0.000370672 4.29272e-11
-0.000881728 0.000264195 0.000264657 -4.75817e-05
-0.000899824 0.00026961 0.000270092 -4.75819e-05
-0.00124826 0.000374499 0.000374469 4.34054e-11
-0.00105868 0.000317438 0.000317674 -2.57703e-05
-0.000890776 0.000266903 0.000267374 -4.75818e-05
-0.00108038 0.000323942 0.000324189 -2.57704e-05
-0.00106953 0.00032069 0.000320931 -2.57704e-05
-0.0012356 0.000370702 0.000370672 4.29272e-11
-0.00121029 0.000363108 0.000363078 4.20798e-11
-0.000863634 0.000258781 0.000259223 -4.75814e-05
-0.000881728 0.000264195 0.000264657 -4.75817e-05
-0.00122295 0.000366905 0.000366875 4.2461e-11
-0.00103697 0.000310934 0.000311159 -2.57703e-05
-0.000872681 0.000261488 0.00026194 -4.75815e-05
-0.00105868 0.000317438 0.000317674 -2.57703e-05
-0.00104782 0.000314186 0.000314417 -2.57703e-05
-0.00121029 0.000363108 0.000363078 4.20798e-11
-0.00118498 0.000355514 0.000355484 4.11705e-11
-0.00084554 0.000253366 0.000253789 -4.75813e-05
-0.000863634 0.000258781 0.000259223 -4.75814e-05
-0.00119763 0.000359311 0.000359281 4.16519e-11
-0.00101527 0.00030443 0.000304645 -2.57702e-05
-0.000854587 0.000256073 0.000256506 -4.75813e-05
-0.00103697 0.000310934 0.000311159 -2.57703e-05
-0.00102612 0.000307682 0.000307902 -2.57703e-05
-0.00118498 0.000355514 0.000355484 4.1171e-11
-0.00115966 0.00034792 0.000347891 4.02781e-11
-0.000827447 0.000247951 0.000248355 -4.75811e-05
-0.00084554 0.000253366 0.000253789 -4.75813e-05
-0.00117232 0.000351717 0.000351687 4.07082e-11
-0.000993566 0.000297926 0.000298131 -2.57702e-05
-0.000836493 0.000250659 0.000251072 -4.75812e-05
-0.00101527 0.00030443 0.000304645 -2.57702e-05
-0.00100442 0.000301178 0.000301388 -2.57702e-05
-0.00115966 0.00034792 0.000347891 4.02882e-11
-0.00113435 0.000340326 0.000340297 3.94254e-11
-0.000809354 0.000242536 0.000242922 -4.75809e-05
-0.000827447 0.000247951 0.000248355 -4.75811e-05
-0.00114701 0.000344123 0.000344094 3.98535e-11
-0.000971863 0.000291422 0.000291618 -2.57702e-05
-0.0008184 0.000245244 0.000245638 -4.7581e-05
-0.000993566 0.000297926 0.000298131 -2.57702e-05
-0.000982714 0.000294674 0.000294874 -2.57702e-05
-0.00113435 0.000340326 0.000340297 3.94254e-11
-0.00110904 0.000332733 0.000332704 3.8546e-11
-0.000791262 0.000237121 0.000237489 -4.75808e-05
-0.000809354 0.000242536 0.000242922 -4.75809e-05
-0.0011217 0.00033653 0.000336501 3.89643e-11
-0.000950161 0.000284919 0.000285104 -2.57702e-05
-0.000800308 0.000239829 0.000240205 -4.75808e-05
-0.000971863 0.000291422 0.000291618 -2.57702e-05
-0.000961012 0.00028817 0.000288361 -2.57702e-05
-0.00110904 0.000332733 0.000332704 3.8546e-11
-0.00108373 0.00032514 0.000325111 3.7671e-11
-0.000773171 0.000231706 0.000232056 -4.75806e-05
-0.000791262 0.000237121 0.000237489 -4.75808e-05
-0.00109639 0.000328936 0.000328907 3.81262e-11
-0.00092846 0.000278415 0.000278591 -2.57702e-05
-0.000782217 0.000234414 0.000234773 -4.75807e-05
-0.000950161 0.000284919 0.000285104 -2.57702e-05
-0.000939311 0.000281667 0.000281848 -2.57702e-05
-0.00108373 0.00032514 0.000325111 3.76777e-11
-0.00105842 0.000317547 0.000317518 3.68373e-11
-0.000755081 0.000226291 0.000226624 -4.75805e-05
-0.000773171 0.000231706 0.000232056 -4.75806e-05
-0.00107108 0.000321343 0.000321314 3.72125e-11
-0.00090676 0.000271911 0.000272078 -2.57702e-05
-0.000764126 0.000228999 0.00022934 -4.75806e-05
-0.00092846 0.000278415 0.000278591 -2.57702e-05
-0.00091761 0.000275163 0.000275334 -2.57702e-05
-0.00105842 0.000317547 0.000317518 3.68374e-11
-0.00103311 0.000309954 0.000309925 3.59532e-11
-0.000736991 0.000220876 0.000221192 -4.75804e-05
-0.000755081 0.000226291 0.000226624 -4.75805e-05
-0.00104577 0.00031375 0.000313722 3.63819e-11
-0.00088506 0.000265407 0.000265565 -2.57702e-05
-0.000746036 0.000223584 0.000223908 -4.75805e-05
-0.00090676 0.000271911 0.000272078 -2.57702e-05
-0.00089591 0.000268659 0.000268822 -2.57702e-05
-0.00103311 0.000309954 0.000309925 3.59532e-11
-0.0010078 0.000302361 0.000302333 3.50741e-11
-0.000718902 0.000215461 0.000215761 -4.75803e-05
-0.000736991 0.000220876 0.000221192 -4.75804e-05
-0.00102046 0.000306157 0.000306129 3.55419e-11
-0.000863361 0.000258904 0.000259053 -2.57702e-05
-0.000727946 0.000218168 0.000218476 -4.75804e-05
-0.00088506 0.000265407 0.000265565 -2.57702e-05
-0.00087421 0.000262156 0.000262309 -2.57702e-05
-0.0010078 0.000302361 0.000302333 3.50741e-11
-0.000982496 0.000294768 0.00029474 3.41953e-11
-0.000700814 0.000210045 0.000210329 -4.75803e-05
-0.000718902 0.000215461 0.000215761 -4.75803e-05
-0.00099515 0.000298565 0.000298537 3.46104e-11
-0.000841662 0.0002524 0.000252541 -2.57702e-05
-0.000709858 0.000212753 0.000213045 -4.75803e-05
-0.000863361 0.000258904 0.000259053 -2.57702e-05
-0.000852511 0.000255652 0.000255797 -2.57702e-05
-0.000982496 0.000294768 0.00029474 3.41949e-11
-0.000957188 0.000287176 0.000287148 3.33115e-11
-0.000682726 0.00020463 0.000204898 -4.75802e-05
-0.000700814 0.000210045 0.000210329 -4.75803e-05
-0.000969842 0.000290972 0.000290944 3.378e-11
-0.000819964 0.000245897 0.000246029 -2.57702e-05
-0.00069177 0.000207338 0.000207614 -4.75802e-05
-0.000841662 0.0002524 0.000252541 -2.57702e-05
-0.000830813 0.000249148 0.000249285 -2.57702e-05
-0.000957188 0.000287176 0.000287148 3.33442e-11
-0.000931881 0.000279584 0.000279556 3.24683e-11
-0.000664639 0.000199215 0.000199468 -4.75802e-05
-0.000682726 0.00020463 0.000204898 -4.75802e-05
-0.000944535 0.00028338 0.000283352 3.29335e-11
-0.000798267 0.000239393 0.000239517 -2.57703e-05
-0.000673683 0.000201922 0.000202183 -4.75802e-05
-0.000819964 0.000245897 0.000246029 -2.57702e-05
-0.000809116 0.000242645 0.000242773 -2.57702e-05
-0.000931881 0.000279584 0.000279556 3.24683e-11
-0.000906575 0.000271992 0.000271964 3.15799e-11
-0.000646553 0.000193799 0.000194037 -4.75801e-05
-0.000664639 0.000199215 0.000199468 -4.75802e-05
-0.000919228 0.000275788 0.00027576 3.20341e-11
-0.00077657 0.00023289 0.000233006 -2.57703e-05
-0.000655596 0.000196507 0.000196752 -4.75801e-05
-0.000798267 0.000239393 0.000239517 -2.57703e-05
-0.000787419 0.000236141 0.000236262 -2.57703e-05
-0.000906575 0.000271992 0.000271964 3.15799e-11
-0.000881269 0.0002644 0.000264373 3.06465e-11
-0.000628467 0.000188383 0.000188607 -4.75801e-05
-0.000646553 0.000193799 0.000194037 -4.75801e-05
-0.000893922 0.000268196 0.000268168 3.10998e-11
-0.000754874 0.000226386 0.000226495 -2.57704e-05
-0.00063751 0.000191091 0.000191322 -4.75801e-05
-0.00077657 0.00023289 0.000233006 -2.57703e-05
-0.000765722 0.000229638 0.00022975 -2.57703e-05
-0.000881269 0.0002644 0.000264373 3.06697e-11
-0.000855964 0.000256808 0.000256781 2.97677e-11
-0.000610382 0.000182967 0.000183178 -4.75801e-05
-0.000628467 0.000188383 0.000188607 -4.75801e-05
-0.000868616 0.000260604 0.000260577 3.01965e-11
-0.000733179 0.000219883 0.000219984 -2.57704e-05
-0.000619425 0.000185675 0.000185893 -4.75801e-05
-0.000754874 0.000226386 0.000226495 -2.57704e-05
-0.000744026 0.000223134 0.000223239 -2.57704e-05
-0.000855964 0.000256808 0.000256781 2.97677e-11
-0.000830659 0.000249216 0.00024919 2.87837e-11
-0.000592298 0.000177552 0.000177748 -4.75801e-05
-0.000610382 0.000182967 0.000183178 -4.75801e-05
-0.000843311 0.000253012 0.000252985 2.92923e-11
-0.000711484 0.000213379 0.000213473 -2.57705e-05
-0.00060134 0.00018026 0.000180463 -4.75801e-05
-0.000733179 0.000219883 0.000219984 -2.57704e-05
-0.000722331 0.000216631 0.000216729 -2.57705e-05
-0.000830659 0.000249216 0.00024919 2.87837e-11
-0.000805355 0.000241625 0.000241598 2.77573e-11
-0.000574214 0.000172136 0.000172319 -4.75802e-05
-0.000592298 0.000177552 0.000177748 -4.75801e-05
-0.000818007 0.000245421 0.000245394 2.82721e-11
-0.000689789 0.000206876 0.000206963 -2.57706e-05
-0.000583256 0.000174844 0.000175034 -4.75801e-05
-0.000711484 0.000213379 0.000213473 -2.57705e-05
-0.000700636 0.000210127 0.000210218 -2.57705e-05
-0.000805355 0.000241625 0.000241598 2.77573e-11
-0.000780051 0.000234034 0.000234007 2.66611e-11
-0.000556131 0.00016672 0.000166891 -4.75802e-05
-0.000574214 0.000172136 0.000172319 -4.75802e-05
-0.000792703 0.000237829 0.000237803 2.71953e-11
-0.000668096 0.000200372 0.000200453 -2.57707e-05
-0.000565173 0.000169428 0.000169605 -4.75802e-05
-0.000689789 0.000206876 0.000206963 -2.57706e-05
-0.000678942 0.000203624 0.000203708 -2.57706e-05
-0.000780051 0.000234034 0.000234007 2.66608e-11
-0.000754747 0.000226442 0.000226416 2.54984e-11
-0.000538049 0.000161303 0.000161462 -4.75802e-05
-0.000556131 0.00016672 0.000166891 -4.75802e-05
-0.000767399 0.000230238 0.000230212 2.60959e-11
-0.000646403 0.000193869 0.000193943 -2.57707e-05
-0.00054709 0.000164012 0.000164176 -4.75802e-05
-0.000668096 0.000200372 0.000200453 -2.57707e-05
-0.000657249 0.000197121 0.000197198 -2.57707e-05
-0.000754747 0.000226442 0.000226416 2.55183e-11
-0.000729444 0.000218851 0.000218826 2.41499e-11
-0.000519967 0.000155887 0.000156034 -4.75803e-05
-0.000538049 0.000161303 0.000161462 -4.75802e-05
-0.000742096 0.000222647 0.000222621 2.48425e-11
-0.00062471 0.000187366 0.000187433 -2.57708e-05
-0.000529008 0.000158595 0.000158748 -4.75802e-05
-0.000646403 0.000193869 0.000193943 -2.57707e-05
-0.000635556 0.000190617 0.000190688 -2.57708e-05
-0.000729444 0.000218851 0.000218826 2.41499e-11
-0.000704142 0.000211261 0.000211235 2.28001e-11
-0.000501886 0.000150471 0.000150606 -4.75803e-05
-0.000519967 0.000155887 0.000156034 -4.75803e-05
-0.000716793 0.000215056 0.00021503 2.34428e-11
-0.000603018 0.000180862 0.000180924 -2.57709e-05
-0.000510926 0.000153179 0.00015332 -4.75803e-05
-0.00062471 0.000187366 0.000187433 -2.57708e-05
-0.000613864 0.000184114 0.000184179 -2.57709e-05
-0.000704142 0.000211261 0.000211235 2.28001e-11
-0.00067884 0.00020367 0.000203644 2.1268e-11
-0.000483805 0.000145054 0.000145179 -4.75803e-05
-0.000501886 0.000150471 0.000150606 -4.75803e-05
-0.000691491 0.000207465 0.00020744 2.20076e-11
-0.000581327 0.000174359 0.000174415 -2.5771e-05
-0.000492845 0.000147763 0.000147893 -4.75803e-05
-0.000603018 0.000180862 0.000180924 -2.57709e-05
-0.000592172 0.000177611 0.000177669 -2.57709e-05
-0.00067884 0.00020367 0.000203644 2.12349e-11
-0.000653539 0.000196079 0.000196054 1.9699e-11
-0.000465725 0.000139638 0.000139752 -4.75803e-05
-0.000483805 0.000145054 0.000145179 -4.75803e-05
-0.00066619 0.000199875 0.000199849 2.03649e-11
-0.000559636 0.000167856 0.000167906 -2.5771e-05
-0.000474765 0.000142346 0.000142465 -4.75803e-05
-0.000581327 0.000174359 0.000174415 -2.5771e-05
-0.000570481 0.000171107 0.00017116 -2.5771e-05
-0.000653539 0.000196079 0.000196054 1.9699e-11
-0.000628238 0.000188489 0.000188464 1.81938e-11
-0.000447646 0.000134221 0.000134325 -4.75802e-05
-0.000465725 0.000139638 0.000139752 -4.75803e-05
-0.000640889 0.000192284 0.000192259 1.88548e-11
-0.000537946 0.000161352 0.000161397 -2.5771e-05
-0.000456686 0.000136929 0.000137038 -4.75802e-05
-0.000559636 0.000167856 0.000167906 -2.5771e-05
-0.000548791 0.000164604 0.000164651 -2.5771e-05
-0.000628238 0.000188489 0.000188464 1.81938e-11
-0.000602938 0.000180899 0.000180874 1.72667e-11
-0.000429568 0.000128804 0.000128899 -4.75801e-05
-0.000447646 0.000134221 0.000134325 -4.75802e-05
-0.000615588 0.000184694 0.000184669 1.74297e-11
-0.000516256 0.000154849 0.000154889 -2.5771e-05
-0.000438607 0.000131513 0.000131612 -4.75802e-05
-0.000537946 0.000161352 0.000161397 -2.5771e-05
-0.000527101 0.000158101 0.000158143 -2.5771e-05
-0.000602938 0.000180899 0.000180874 1.72667e-11
-0.000577639 0.000173309 0.000173284 1.68244e-11
-0.00041149 0.000123388 0.000123472 -4.75799e-05
-0.000429568 0.000128804 0.000128899 -4.75801e-05
-0.000590288 0.000177104 0.000177079 1.67649e-11
-0.000494567 0.000148346 0.00014838 -2.57709e-05
-0.000420529 0.000126096 0.000126185 -4.758e-05
-0.000516256 0.000154849 0.000154889 -2.5771e-05
-0.000505411 0.000151598 0.000151635 -2.5771e-05
-0.000577639 0.000173309 0.000173284 1.68236e-11
-0.00055234 0.000165719 0.000165695 1.90132e-11
-0.000393412 0.000117971 0.000118046 -4.75798e-05
-0.00041149 0.000123388 0.000123472 -4.75799e-05
-0.000564989 0.000169514 0.000169489 1.7232e-11
-0.000472879 0.000141843 0.000141873 -2.57709e-05
-0.000402451 0.000120679 0.000120759 -4.75799e-05
-0.000494567 0.000148346 0.00014838 -2.57709e-05
-0.000483723 0.000145094 0.000145127 -2.57709e-05
-0.00055234 0.000165719 0.000165695 1.90498e-11
-0.000527042 0.000158129 0.000158105 2.23465e-11
-0.000375336 0.000112554 0.000112621 -4.75796e-05
-0.000393412 0.000117971 0.000118046 -4.75798e-05
-0.000539691 0.000161924 0.0001619 1.98247e-11
-0.000451191 0.00013534 0.000135365 -2.57708e-05
-0.000384374 0.000115262 0.000115334 -4.75797e-05
-0.000472879 0.000141843 0.000141873 -2.57709e-05
-0.000462035 0.000138591 0.000138619 -2.57708e-05
-0.000527042 0.000158129 0.000158105 2.23465e-11
-0.000501744 0.00015054 0.000150516 3.32283e-11
-0.00035726 0.000107137 0.000107196 -4.75796e-05
-0.000375336 0.000112554 0.000112621 -4.75796e-05
-0.000514393 0.000154335 0.000154311 2.75604e-11
-0.000429504 0.000128837 0.000128858 -2.57708e-05
-0.000366298 0.000109845 0.000109908 -4.75796e-05
-0.000451191 0.00013534 0.000135365 -2.57708e-05
-0.000440348 0.000132088 0.000132111 -2.57708e-05
-0.000501744 0.00015054 0.000150516 3.32283e-11
-0.000476448 0.000142951 0.000142927 4.49273e-11
-0.000339185 0.00010172 0.000101771 -4.75799e-05
-0.00035726 0.000107137 0.000107196 -4.75796e-05
-0.000489096 0.000146745 0.000146722 3.62196e-11
-0.000407818 0.000122334 0.00012235 -2.5771e-05
-0.000348222 0.000104428 0.000104483 -4.75797e-05
-0.000429504 0.000128837 0.000128858 -2.57708e-05
-0.000418661 0.000125585 0.000125604 -2.57709e-05
-0.000476448 0.000142951 0.000142927 4.49175e-11
-0.000451151 0.000135362 0.000135338 6.86291e-11
-0.00032111 9.6303e-05 9.63458e-05 -4.75806e-05
-0.000339185 0.00010172 0.000101771 -4.75799e-05
-0.000463799 0.000139156 0.000139133 6.35081e-11
-0.000386132 0.000115831 0.000115843 -2.57715e-05
-0.000330147 9.90114e-05 9.90582e-05 -4.75802e-05
-0.000407818 0.000122334 0.00012235 -2.5771e-05
-0.000396975 0.000119082 0.000119097 -2.57712e-05
-0.000451151 0.000135362 0.000135338 6.86295e-11
-0.000425854 0.000127772 0.000127749 8.78525e-11
-0.000303036 9.08863e-05 9.09212e-05 -4.75822e-05
-0.00032111 9.6303e-05 9.63458e-05 -4.75806e-05
-0.000438503 0.000131567 0.000131544 6.44888e-11
-0.000364446 0.000109328 0.000109336 -2.57726e-05
-0.000312073 9.35946e-05 9.36335e-05 -4.75813e-05
-0.000386132 0.000115831 0.000115843 -2.57715e-05
-0.000375289 0.000112579 0.00011259 -2.5772e-05
-0.000425854 0.000127772 0.000127749 8.78525e-11
-0.000400557 0.000120183 0.00012016 8.48119e-11
-0.000284962 8.54694e-05 8.54966e-05 -4.75848e-05
-0.000303036 9.08863e-05 9.09212e-05 -4.75822e-05
-0.000413206 0.000123978 0.000123955 1.36667e-10
-0.00034276 0.000102825 0.000102829 -2.57744e-05
-0.000293999 8.81779e-05 8.82089e-05 -4.75833e-05
-0.000364446 0.000109328 0.000109336 -2.57726e-05
-0.000353603 0.000106076 0.000106083 -2.57734e-05
-0.000400557 0.000120183 0.00012016 8.48119e-11
-0.000375257 0.000112593 0.00011257 7.79475e-11
-0.000266888 8.00519e-05 8.00725e-05 -4.75882e-05
-0.000284962 8.54694e-05 8.54966e-05 -4.75848e-05
-0.000387907 0.000116388 0.000116365 6.46627e-12
-0.000321073 9.63209e-05 9.63221e-05 -2.57768e-05
-0.000275925 8.27608e-05 8.27845e-05 -4.75864e-05
-0.00034276 0.000102825 0.000102829 -2.57744e-05
-0.000331916 9.95728e-05 9.95758e-05 -2.57755e-05
-0.000375257 0.000112593 0.00011257 7.79475e-11
-0.000349955 0.000105001 0.00010498 -2.57663e-10
-0.000248813 7.46324e-05 7.46487e-05 -4.75915e-05
-0.000266888 8.00519e-05 8.00725e-05 -4.75882e-05
-0.000362606 0.000108797 0.000108775 1.74383e-10
-0.000299385 8.98166e-05 8.9815e-05 -2.57793e-05
-0.00025785 7.73425e-05 7.73605e-05 -4.75899e-05
-0.000321073 9.63209e-05 9.63221e-05 -2.57768e-05
-0.000310229 9.30689e-05 9.30685e-05 -2.57781e-05
-0.000349955 0.000105001 0.00010498 -2.57676e-10
-0.000324648 9.74098e-05 9.73878e-05 -3.98526e-10
-0.000230737 6.92081e-05 6.92267e-05 -4.75906e-05
-0.000248813 7.46324e-05 7.46487e-05 -4.75915e-05
-0.000337302 0.000101206 0.000101184 -7.28204e-10
-0.000277697 8.33112e-05 8.33082e-05 -2.57791e-05
-0.000239775 7.19211e-05 7.19373e-05 -4.7592e-05
-0.000299385 8.98166e-05 8.9815e-05 -2.57793e-05
-0.000288541 8.6564e-05 8.65616e-05 -2.57797e-05
-0.000324648 9.74098e-05 9.73878e-05 -3.98526e-10
-0.000299344 8.98165e-05 8.97976e-05 -2.57077e-09
-0.000212657 6.37731e-05 6.38072e-05 -4.75783e-05
-0.000230737 6.92081e-05 6.92267e-05 -4.75906e-05
-0.000311995 9.36119e-05 9.35926e-05 -2.76978e-10
-0.000256014 7.68041e-05 7.68043e-05 -2.5771e-05
-0.000221698 6.64926e-05 6.65167e-05 -4.75865e-05
-0.000277697 8.33112e-05 8.33082e-05 -2.57791e-05
-0.000266854 8.00579e-05 8.00555e-05 -2.57767e-05
-0.000299344 8.98165e-05 8.97976e-05 -2.57077e-09
-0.000274048 8.22335e-05 8.22062e-05 -2.80141e-09
-0.000194573 5.83161e-05 5.83956e-05 -4.75343e-05
-0.000212657 6.37731e-05 6.38072e-05 -4.75783e-05
-0.000286696 8.60263e-05 8.60012e-05 -4.69591e-09
-0.000234342 7.02953e-05 7.03059e-05 -2.57402e-05
-0.000203614 6.10481e-05 6.10998e-05 -4.75623e-05
-0.000256014 7.68041e-05 7.68043e-05 -2.5771e-05
-0.000245177 7.35498e-05 7.35545e-05 -2.57593e-05
-0.000274048 8.22335e-05 8.22062e-05 -2.80142e-09
-0.00024881 7.46527e-05 7.46386e-05 -1.29155e-08
-0.000176468 5.28184e-05 5.29925e-05 -4.74303e-05
-0.000194573 5.83161e-05 5.83956e-05 -4.75343e-05
-0.000261415 7.84344e-05 7.84201e-05 -2.67716e-09
-0.000212711 6.37853e-05 6.38254e-05 -2.56628e-05
-0.000185526 5.55748e-05 5.56932e-05 -4.7492e-05
-0.000234342 7.02953e-05 7.03059e-05 -2.57402e-05
-0.000223518 6.70407e-05 6.70617e-05 -2.57109e-05
-0.00024881 7.46527e-05 7.46386e-05 -1.29155e-08
-0.000223666 6.7146e-05 6.70798e-05 -1.08295e-08
-0.000158348 4.72429e-05 4.76163e-05 -4.71938e-05
-0.000176468 5.28184e-05 5.29925e-05 -4.74303e-05
-0.000236228 7.09041e-05 7.08531e-05 -2.14619e-08
-0.000191147 5.72754e-05 5.73733e-05 -2.54855e-05
-0.000167406 5.00414e-05 5.0299e-05 -4.73358e-05
-0.000212711 6.37853e-05 6.38254e-05 -2.56628e-05
-0.000201921 6.05292e-05 6.05965e-05 -2.55883e-05
-0.000223666 6.7146e-05 6.70798e-05 -1.08295e-08
-0.000198847 5.96569e-05 5.96528e-05 -5.08486e-08
-0.000140134 4.15461e-05 4.22521e-05 -4.6751e-05
-0.000158348 4.72429e-05 4.76163e-05 -4.71938e-05
-0.000211184 6.33568e-05 6.33547e-05 -8.92729e-09
-0.000169762 5.07748e-05 5.09945e-05 -2.51226e-05
-0.000149266 4.44187e-05 4.49347e-05 -4.70032e-05
-0.000191147 5.72754e-05 5.73733e-05 -2.54855e-05
-0.000180417 5.40259e-05 5.41676e-05 -2.53427e-05
-0.000198847 5.96569e-05 5.96528e-05 -5.08486e-08
-0.000174506 5.25442e-05 5.22694e-05 -3.03314e-08
-0.000121848 3.56228e-05 3.69538e-05 -4.59075e-05
-0.000140134 4.15461e-05 4.22521e-05 -4.6751e-05
-0.000186629 5.61267e-05 5.59294e-05 -8.51648e-08
-0.000148612 4.42798e-05 4.4714e-05 -2.4434e-05
-0.000130984 3.86072e-05 3.95902e-05 -4.63984e-05
-0.000169762 5.07748e-05 5.09945e-05 -2.51226e-05
-0.000159166 4.75198e-05 4.78482e-05 -2.48151e-05
-0.000174506 5.25442e-05 5.22694e-05 -3.03314e-08
-0.000151467 4.54295e-05 4.54447e-05 -1.72428e-07
-0.000103151 2.94457e-05 3.1588e-05 -4.45889e-05
-0.000121848 3.56228e-05 3.69538e-05 -4.59075e-05
-0.000162709 4.87865e-05 4.88239e-05 -6.75288e-09
-0.000128061 3.78411e-05 3.86658e-05 -2.31622e-05
-0.00011261 3.2599e-05 3.42902e-05 -4.53081e-05
-0.000148612 4.42798e-05 4.4714e-05 -2.4434e-05
-0.000138209 4.10664e-05 4.16324e-05 -2.39325e-05
-0.000151467 4.54295e-05 4.54447e-05 -1.72428e-07
-0.000130269 3.99686e-05 3.87e-05 -5.52623e-08
-8.40688e-05 2.27645e-05 2.62733e-05 -4.24979e-05
-0.000103151 2.94457e-05 3.1588e-05 -4.45889e-05
-0.000140685 4.28548e-05 4.19273e-05 -3.21788e-07
-0.000107995 3.13716e-05 3.28386e-05 -2.11196e-05
-9.35962e-05 2.61073e-05 2.89238e-05 -4.36662e-05
-0.000128061 3.78411e-05 3.86658e-05 -2.31622e-05
-0.000118035 3.45802e-05 3.57663e-05 -2.21734e-05
-0.000130269 3.99686e-05 3.87e-05 -5.52623e-08
-0.00011323 3.39326e-05 3.39848e-05 -4.74078e-07
-6.32958e-05 1.61175e-05 2.02192e-05 -4.02586e-05
-8.40688e-05 2.27645e-05 2.62733e-05 -4.24979e-05
-0.000120892 3.61235e-05 3.63293e-05 1.44636e-07
-8.93635e-05 2.50805e-05 2.75499e-05 -1.77143e-05
-7.41187e-05 1.95436e-05 2.33893e-05 -4.13278e-05
-0.000107995 3.13716e-05 3.28386e-05 -2.11196e-05
-9.83137e-05 2.82691e-05 3.00191e-05 -1.98164e-05
-0.00011323 3.39326e-05 3.39848e-05 -4.74078e-07
-0.000102828 3.43702e-05 2.93391e-05 7.97121e-07
-4.10096e-05 9.55623e-06 1.348e-05 -3.88943e-05
-6.32958e-05 1.61175e-05 2.02192e-05 -4.02586e-05
-0.000107228 3.50923e-05 3.09153e-05 -1.03341e-06
-6.98987e-05 1.83066e-05 2.21109e-05 -1.40523e-05
-5.20945e-05 1.23793e-05 1.70208e-05 -3.93139e-05
-8.93635e-05 2.50805e-05 2.75499e-05 -1.77143e-05
-8.0205e-05 2.16618e-05 2.50899e-05 -1.544e-05
-0.000102828 3.43702e-05 2.93391e-05 7.97121e-07
-0.000107484 2.90304e-05 3.3623e-05 4.64699e-06
-1.53145e-05 1.01409e-05 2.21729e-06 -4.53369e-05
-4.10096e-05 9.55623e-06 1.348e-05 -3.88943e-05
-0.000102193 2.85028e-05 3.15816e-05 3.31741e-06
-4.90886e-05 1.26724e-05 1.56069e-05 -1.19792e-05
-2.90724e-05 8.86433e-06 8.66062e-06 -4.04662e-05
-6.98987e-05 1.83066e-05 2.21109e-05 -1.40523e-05
-5.9256e-05 1.53272e-05 1.88266e-05 -1.32948e-05
-0.000107484 2.90304e-05 3.3623e-05 4.64699e-06
-0.000146055 2.85757e-05 5.03484e-05 3.55611e-05
-3.45575e-06 3.9628e-05 -1.55024e-05 -6.82047e-05
-1.53145e-05 1.01409e-05 2.21729e-06 -4.53369e-05
-0.000121254 4.09863e-05 3.44005e-05 9.67998e-06
-7.29999e-06 2.41063e-05 -7.20269e-06 -4.0248e-05
-5.0156e-06 1.57606e-05 -4.60501e-06 -5.35724e-05
-4.90886e-05 1.26724e-05 1.56069e-05 -1.19792e-05
-3.36774e-05 1.22424e-05 9.18644e-06 -1.74668e-05
-0.000146055 2.85757e-05 5.03484e-05 3.55611e-05
-7.28867e-05 0.000231572 -6.80079e-05 -0.00018606
-5.14015e-05 0.000177114 -5.38768e-05 -6.80052e-05
-3.45575e-06 3.9628e-05 -1.55024e-05 -6.82047e-05
-0.000142966 6.42189e-06 5.85188e-05 1.42984e-05
-4.51408e-05 0.000217887 -7.40342e-05 -0.000109341
-1.68472e-05 9.45132e-05 -3.32854e-05 -7.97415e-05
-7.29999e-06 2.41063e-05 -7.20269e-06 -4.0248e-05
-8.2848e-07 7.09647e-05 -3.00584e-05 -7.3219e-05
-0.00304134 0 0.00130343 -0.000170581
-0.00342562 0.000679591 0.00117687 -0.00025238
-0.00198864 0.000260373 0.000740685 -6.2185e-06
-0.00175982 0 0.00075421 0.000232479
-0.00325744 0.000321599 0.00125822 -0.00029313
-0.00264838 0.000408952 0.000959756 -0.000103701
-0.0019061 0.000146313 0.000754196 8.8385e-05
-0.00249364 0 0.0010687 3.97101e-05
-0.00253579 0.000226589 0.000989659 -3.1366e-05
-0.00342562 0.000679591 0.00117687 -0.00025238
-0.00355843 0.000961638 0.00111291 -0.000119242
-0.00208941 0.000476287 0.000691339 -8.05973e-05
-0.00198864 0.000260373 0.000740685 -6.2185e-06
-0.00353097 0.000879165 0.00113649 -0.000181346
-0.00282386 0.000693621 0.000912958 -0.000121618
-0.00203919 0.000375258 0.000713114 -5.41684e-05
-0.00264838 0.000408952 0.000959756 -0.000103701
-0.00276613 0.000569088 0.000941589 -0.000136744
-0.00355843 0.000961638 0.00111291 -0.000119242
-0.0035407 0.00103987 0.00107178 -4.3924e-05
-0.00214006 0.000584471 0.000666679 -9.51156e-05
-0.00208941 0.000476287 0.000691339 -8.05973e-05
-0.00354827 0.00101035 0.00108768 -6.96417e-05
-0.00285133 0.000806876 0.000876195 -8.15764e-05
-0.0021271 0.000543594 0.000678646 -9.36558e-05
-0.00282386 0.000693621 0.000912958 -0.000121618
-0.00284461 0.000767783 0.000890067 -9.59663e-05
-0.0035407 0.00103987 0.00107178 -4.3924e-05
-0.00351562 0.00104998 0.0010567 -2.77243e-05
-0.00213753 0.000626423 0.000647616 -8.82292e-05
-0.00214006 0.000584471 0.000666679 -9.51156e-05
-0.00353129 0.00104999 0.00106341 -3.29521e-05
-0.00283708 0.00084246 0.000854839 -6.23111e-05
-0.00213972 0.000610896 0.000655212 -9.12265e-05
-0.00285133 0.000806876 0.000876195 -8.15764e-05
-0.00284762 0.000830148 0.000864633 -7.12131e-05
-0.00351562 0.00104998 0.0010567 -2.77243e-05
-0.00348677 0.00104781 0.00104527 -2.74345e-05
-0.00212219 0.000633904 0.000637836 -8.36696e-05
-0.00213753 0.000626423 0.000647616 -8.82292e-05
-0.003499 0.0010492 0.00104991 -2.592e-05
-0.00281082 0.000843901 0.000842964 -5.65596e-05
-0.00213213 0.000632914 0.000642521 -8.59826e-05
-0.00283708 0.00084246 0.000854839 -6.23111e-05
-0.00282354 0.000845657 0.000847665 -5.73768e-05
-0.00348677 0.00104781 0.00104527 -2.74345e-05
-0.00346487 0.00103989 0.00103928 -3.34599e-05
-0.00210087 0.00063024 0.000630272 -8.06306e-05
-0.00212219 0.000633904 0.000637836 -8.36696e-05
-0.00347628 0.00104432 0.00104227 -3.06245e-05
-0.00278673 0.000837647 0.00083532 -5.73292e-05
-0.00211075 0.000632724 0.000633441 -8.16474e-05
-0.00281082 0.000843901 0.000842964 -5.65596e-05
-0.00279863 0.000841081 0.000838951 -5.69488e-05
-0.00346487 0.00103989 0.00103928 -3.34599e-05
-0.00344364 0.00103226 0.00103345 -3.84103e-05
-0.00208238 0.000622934 0.000625476 -7.97789e-05
-0.00210087 0.00063024 0.000630272 -8.06306e-05
-0.00345363 0.00103591 0.00103617 -3.59514e-05
-0.00276506 0.000828914 0.000829779 -5.96503e-05
-0.0020917 0.00062677 0.000627827 -8.0171e-05
-0.00278673 0.000837647 0.00083532 -5.73292e-05
-0.00277543 0.000833388 0.000832302 -5.82569e-05
-0.00344364 0.00103226 0.00103345 -3.84103e-05
-0.00342455 0.00102489 0.00102843 -4.23862e-05
-0.00206557 0.000615918 0.00062128 -7.94116e-05
-0.00208238 0.000622934 0.000625476 -7.97789e-05
-0.00343419 0.00102854 0.00103099 -4.06683e-05
-0.00274621 0.000821169 0.000825019 -6.18713e-05
-0.00207348 0.000619297 0.00062322 -7.9487e-05
-0.00276506 0.000828914 0.000829779 -5.96503e-05
-0.00275541 0.000824863 0.000827376 -6.09175e-05
-0.00342455 0.00102489 0.00102843 -4.23862e-05
-0.00340566 0.00101825 0.00102318 -4.47639e-05
-0.00205124 0.000609827 0.00061775 -7.94446e-05
-0.00206557 0.000615918 0.00062128 -7.94116e-05
-0.00341496 0.00102147 0.00102578 -4.36958e-05
-0.00272907 0.000814338 0.000820599 -6.34772e-05
-0.00205828 0.00061275 0.000619514 -7.94385e-05
-0.00274621 0.000821169 0.000825019 -6.18713e-05
-0.00273745 0.000817646 0.000822771 -6.27183e-05
-0.00340566 0.00101825 0.00102318 -4.47639e-05
-0.00338728 0.00101205 0.00101795 -4.62374e-05
-0.00203818 0.000604779 0.000614317 -7.94763e-05
-0.00205124 0.000609827 0.00061775 -7.94446e-05
-0.00339649 0.00101511 0.00102059 -4.56215e-05
-0.0027131 0.000808509 0.000816253 -6.44853e-05
-0.00204452 0.000607185 0.000616001 -7.94475e-05
-0.00272907 0.000814338 0.000820599 -6.34772e-05
-0.00272099 0.000811314 0.000818431 -6.40658e-05
-0.00338728 0.00101205 0.00101795 -4.62374e-05
-0.00336893 0.00100621 0.0010126 -4.70026e-05
-0.00202615 0.000600469 0.000611004 -7.95293e-05
-0.00203818 0.000604779 0.000614317 -7.94763e-05
-0.00337807 0.00100909 0.00101528 -4.6676e-05
-0.00269778 0.000803295 0.00081192 -6.50654e-05
-0.0020321 0.00060255 0.000612666 -7.95115e-05
-0.0027131 0.000808509 0.000816253 -6.44853e-05
-0.00270538 0.000805843 0.000814086 -6.48112e-05
-0.00336893 0.00100621 0.0010126 -4.70026e-05
-0.00335068 0.00100055 0.0010072 -4.74066e-05
-0.00201459 0.000596659 0.000607686 -7.95457e-05
-0.00202615 0.000600469 0.000611004 -7.95293e-05
-0.00335981 0.00100336 0.00100991 -4.7244e-05
-0.00268282 0.000798506 0.000807565 -6.53661e-05
-0.00202031 0.000598515 0.000609341 -7.95379e-05
-0.00269778 0.000803295 0.00081192 -6.50654e-05
-0.00269027 0.000800859 0.000809747 -6.52461e-05
-0.00335068 0.00100055 0.0010072 -4.74066e-05
-0.00333244 0.000995021 0.00100175 -4.75847e-05
-0.00200336 0.000593139 0.000604379 -7.95502e-05
-0.00201459 0.000596659 0.000607686 -7.95457e-05
-0.00334156 0.000997776 0.00100448 -4.75129e-05
-0.00266806 0.000793949 0.000803191 -6.55089e-05
-0.00200896 0.000594872 0.000606036 -7.9551e-05
-0.00268282 0.000798506 0.000807565 -6.53661e-05
-0.00267543 0.000796206 0.00080538 -6.54503e-05
-0.00333244 0.000995021 0.00100175 -4.75847e-05
-0.00331422 0.000989551 0.000996288 -4.76595e-05
-0.00199226 0.000589785 0.000601059 -7.95414e-05
-0.00200336 0.000593139 0.000604379 -7.95502e-05
-0.00332333 0.00099228 0.000999023 -4.7632e-05
-0.00265339 0.000789525 0.000798801 -6.55654e-05
-0.00199779 0.000591447 0.000602719 -7.95462e-05
-0.00266806 0.000793949 0.000803191 -6.55089e-05
-0.00266072 0.000791725 0.000800998 -6.55453e-05
-0.00331422 0.000989551 0.000996288 -4.76595e-05
-0.003296 0.000984114 0.00099081 -4.76799e-05
-0.00198123 0.000586515 0.000597737 -7.95297e-05
-0.00199226 0.000589785 0.000601059 -7.95414e-05
-0.00330511 0.000986829 0.00099355 -4.76734e-05
-0.00263877 0.000785167 0.000794401 -6.5581e-05
-0.00198674 0.000588143 0.000599399 -7.9536e-05
-0.00265339 0.000789525 0.000798801 -6.55654e-05
-0.00264608 0.000787341 0.000796602 -6.55761e-05
-0.003296 0.000984114 0.00099081 -4.76799e-05
-0.00327779 0.000978693 0.000985328 -4.76801e-05
-0.00197024 0.000583286 0.000594409 -7.95172e-05
-0.00198123 0.000586515 0.000597737 -7.95297e-05
-0.0032869 0.000981402 0.00098807 -4.76817e-05
-0.00262416 0.000780842 0.000789995 -6.55788e-05
-0.00197573 0.000584897 0.000596073 -7.95232e-05
-0.00263877 0.000785167 0.000794401 -6.5581e-05
-0.00263147 0.000783002 0.000792199 -6.55813e-05
-0.00327779 0.000978693 0.000985328 -4.76801e-05
-0.00325958 0.00097328 0.000979843 -4.76727e-05
-0.00195926 0.000580075 0.000591079 -7.95065e-05
-0.00197024 0.000583286 0.000594409 -7.95172e-05
-0.00326869 0.000975986 0.000982585 -4.76767e-05
-0.00260957 0.000776531 0.000785587 -6.55709e-05
-0.00196475 0.00058168 0.000592745 -7.95116e-05
-0.00262416 0.000780842 0.000789995 -6.55788e-05
-0.00261687 0.000778685 0.000787792 -6.5575e-05
-0.00325958 0.00097328 0.000979843 -4.76727e-05
-0.00324137 0.000967869 0.000974358 -4.76649e-05
-0.00194828 0.00057687 0.000587749 -7.94979e-05
-0.00195926 0.000580075 0.000591079 -7.95065e-05
-0.00325048 0.000970574 0.0009771 -4.76687e-05
-0.00259497 0.000772224 0.000781178 -6.55625e-05
-0.00195377 0.000578472 0.000589414 -7.95019e-05
-0.00260957 0.000776531 0.000785587 -6.55709e-05
-0.00260227 0.000774377 0.000783383 -6.55666e-05
-0.00324137 0.000967869 0.000974358 -4.76649e-05
-0.00322316 0.000962459 0.000968873 -4.76583e-05
-0.00193731 0.000573666 0.000584418 -7.94917e-05
-0.00194828 0.00057687 0.000587749 -7.94979e-05
-0.00323227 0.000965164 0.000971616 -4.76613e-05
-0.00258038 0.000767919 0.000776769 -6.55557e-05
-0.0019428 0.000575268 0.000586083 -7.94946e-05
-0.00259497 0.000772224 0.000781178 -6.55625e-05
-0.00258768 0.000770072 0.000778974 -6.55588e-05
-0.00322316 0.000962459 0.000968873 -4.76583e-05
-0.00320496 0.000957049 0.000963389 -4.76537e-05
-0.00192633 0.000570461 0.000581087 -7.94872e-05
-0.00193731 0.000573666 0.000584418 -7.94917e-05
-0.00321406 0.000959754 0.000966131 -4.76558e-05
-0.00256579 0.000763613 0.000772361 -6.55507e-05
-0.00193182 0.000572064 0.000582752 -7.94892e-05
-0.00258038 0.000767919 0.000776769 -6.55557e-05
-0.00257308 0.000765766 0.000774565 -6.5553e-05
-0.00320496 0.000957049 0.000963389 -4.76537e-05
-0.00318675 0.000951638 0.000957906 -4.76508e-05
-0.00191535 0.000567255 0.000577757 -7.94842e-05
-0.00192633 0.000570461 0.000581087 -7.94872e-05
-0.00319585 0.000954344 0.000960647 -4.76521e-05
-0.0025512 0.000759307 0.000767952 -6.55473e-05
-0.00192084 0.000568858 0.000579422 -7.94856e-05
-0.00256579 0.000763613 0.000772361 -6.55507e-05
-0.00255849 0.00076146 0.000770156 -6.55488e-05
-0.00318675 0.000951638 0.000957906 -4.76508e-05
-0.00316855 0.000946228 0.000952423 -4.7649e-05
-0.00190438 0.000564047 0.000574427 -7.94822e-05
-0.00191535 0.000567255 0.000577757 -7.94842e-05
-0.00317765 0.000948933 0.000955164 -4.76497e-05
-0.0025366 0.000754999 0.000763545 -6.55452e-05
-0.00190987 0.000565651 0.000576092 -7.94831e-05
-0.0025512 0.000759307 0.000767952 -6.55473e-05
-0.0025439 0.000757153 0.000765748 -6.55462e-05
-0.00316855 0.000946228 0.000952423 -4.7649e-05
-0.00315034 0.000940817 0.00094694 -4.7648e-05
-0.0018934 0.000560838 0.000571098 -7.94808e-05
-0.00190438 0.000564047 0.000574427 -7.94822e-05
-0.00315945 0.000943522 0.000949681 -4.76484e-05
-0.00252201 0.000750691 0.000759137 -6.55439e-05
-0.00189889 0.000562443 0.000572762 -7.94814e-05
-0.0025366 0.000754999 0.000763545 -6.55452e-05
-0.00252931 0.000752845 0.000761341 -6.55445e-05
-0.00315034 0.000940817 0.00094694 -4.7648e-05
-0.00313214 0.000935406 0.000941458 -4.76475e-05
-0.00188242 0.000557628 0.000567769 -7.94799e-05
-0.0018934 0.000560838 0.000571098 -7.94808e-05
-0.00314124 0.000938111 0.000944199 -4.76477e-05
-0.00250742 0.000746382 0.000754731 -6.55432e-05
-0.00188791 0.000559233 0.000569433 -7.94803e-05
-0.00252201 0.000750691 0.000759137 -6.55439e-05
-0.00251472 0.000748536 0.000756934 -6.55435e-05
-0.00313214 0.000935406 0.000941458 -4.76475e-05
-0.00311394 0.000929995 0.000935977 -4.76473e-05
-0.00187145 0.000554418 0.000564441 -7.94791e-05
-0.00188242 0.000557628 0.000567769 -7.94799e-05
-0.00312304 0.0009327 0.000938718 -4.76474e-05
-0.00249283 0.000742073 0.000750324 -6.55427e-05
-0.00187693 0.000556023 0.000566105 -7.94795e-05
-0.00250742 0.000746382 0.000754731 -6.55432e-05
-0.00250012 0.000744227 0.000752527 -6.55429e-05
-0.00311394 0.000929995 0.000935977 -4.76473e-05
-0.00309574 0.000924583 0.000930496 -4.76472e-05
-0.00186047 0.000551207 0.000561113 -7.94785e-05
-0.00187145 0.000554418 0.000564441 -7.94791e-05
-0.00310484 0.000927289 0.000933236 -4.76472e-05
-0.00247824 0.000737763 0.000745919 -6.55424e-05
-0.00186596 0.000552812 0.000562777 -7.94788e-05
-0.00249283 0.000742073 0.000750324 -6.55427e-05
-0.00248553 0.000739918 0.000748121 -6.55425e-05
-0.00309574 0.000924583 0.000930496 -4.76472e-05
-0.00307754 0.000919172 0.000925015 -4.76471e-05
-0.0018495 0.000547995 0.000557786 -7.9478e-05
-0.00186047 0.000551207 0.000561113 -7.94785e-05
-0.00308664 0.000921877 0.000927755 -4.76472e-05
-0.00246365 0.000733453 0.000741513 -6.55421e-05
-0.00185498 0.000549601 0.000559449 -7.94783e-05
-0.00247824 0.000737763 0.000745919 -6.55424e-05
-0.00247095 0.000735608 0.000743716 -6.55422e-05
-0.00307754 0.000919172 0.000925015 -4.76471e-05
-0.00305934 0.00091376 0.000919534 -4.76471e-05
-0.00183852 0.000544784 0.000554459 -7.94774e-05
-0.0018495 0.000547995 0.000557786 -7.9478e-05
-0.00306844 0.000916466 0.000922275 -4.76471e-05
-0.00244906 0.000729143 0.000737108 -6.55418e-05
-0.00184401 0.00054639 0.000556122 -7.94777e-05
-0.00246365 0.000733453 0.000741513 -6.55421e-05
-0.00245636 0.000731298 0.000739311 -6.55419e-05
-0.00305934 0.00091376 0.000919534 -4.76471e-05
-0.00304114 0.000908348 0.000914054 -4.7647e-05
-0.00182755 0.000541572 0.000551133 -7.94768e-05
-0.00183852 0.000544784 0.000554459 -7.94774e-05
-0.00305024 0.000911054 0.000916794 -4.7647e-05
-0.00243447 0.000724833 0.000732704 -6.55415e-05
-0.00183303 0.000543178 0.000552796 -7.94771e-05
-0.00244906 0.000729143 0.000737108 -6.55418e-05
-0.00244177 0.000726988 0.000734906 -6.55416e-05
-0.00304114 0.000908348 0.000914054 -4.7647e-05
-0.00302294 0.000902937 0.000908574 -4.76469e-05
-0.00181658 0.00053836 0.000547807 -7.94761e-05
-0.00182755 0.000541572 0.000551133 -7.94768e-05
-0.00303204 0.000905643 0.000911314 -4.76469e-05
-0.00241989 0.000720522 0.0007283 -6.55411e-05
-0.00182206 0.000539966 0.00054947 -7.94764e-05
-0.00243447 0.000724833 0.000732704 -6.55415e-05
-0.00242718 0.000722678 0.000730502 -6.55413e-05
-0.00302294 0.000902937 0.000908574 -4.76469e-05
-0.00300475 0.000897525 0.000903095 -4.76467e-05
-0.0018056 0.000535147 0.000544481 -7.94754e-05
-0.00181658 0.00053836 0.000547807 -7.94761e-05
-0.00301384 0.000900231 0.000905835 -4.76468e-05
-0.0024053 0.000716212 0.000723896 -6.55407e-05
-0.00181109 0.000536754 0.000546144 -7.94757e-05
-0.00241989 0.000720522 0.0007283 -6.55411e-05
-0.00241259 0.000718367 0.000726098 -6.55409e-05
-0.00300475 0.000897525 0.000903095 -4.76467e-05
-0.00298655 0.000892113 0.000897616 -4.76465e-05
-0.00179463 0.000531935 0.000541156 -7.94746e-05
-0.0018056 0.000535147 0.000544481 -7.94754e-05
-0.00299565 0.000894819 0.000900355 -4.76466e-05
-0.00239072 0.000711901 0.000719492 -6.55402e-05
-0.00180012 0.000533541 0.000542819 -7.9475e-05
-0.0024053 0.000716212 0.000723896 -6.55407e-05
-0.00239801 0.000714056 0.000721694 -6.55405e-05
-0.00298655 0.000892113 0.000897616 -4.76465e-05
-0.00296835 0.000886701 0.000892137 -4.76462e-05
-0.00178366 0.000528722 0.000537832 -7.94738e-05
-0.00179463 0.000531935 0.000541156 -7.94746e-05
-0.00297745 0.000889407 0.000894876 -4.76464e-05
-0.00237613 0.00070759 0.000715089 -6.55397e-05
-0.00178915 0.000530328 0.000539494 -7.94742e-05
-0.00239072 0.000711901 0.000719492 -6.55402e-05
-0.00238342 0.000709745 0.000717291 -6.554e-05
-0.00296835 0.000886701 0.000892137 -4.76462e-05
-0.00295016 0.000881289 0.000886659 -4.7646e-05
-0.00177269 0.000525509 0.000534507 -7.94729e-05
-0.00178366 0.000528722 0.000537832 -7.94738e-05
-0.00295926 0.000883995 0.000889398 -4.76461e-05
-0.00236155 0.000703279 0.000710687 -6.55392e-05
-0.00177818 0.000527115 0.000536169 -7.94733e-05
-0.00237613 0.00070759 0.000715089 -6.55397e-05
-0.00236884 0.000705435 0.000712888 -6.55394e-05
-0.00295016 0.000881289 0.000886659 -4.7646e-05
-0.00293196 0.000875877 0.000881181 -4.76456e-05
-0.00176172 0.000522296 0.000531184 -7.9472e-05
-0.00177269 0.000525509 0.000534507 -7.94729e-05
-0.00294106 0.000878583 0.00088392 -4.76458e-05
-0.00234697 0.000698968 0.000706285 -6.55386e-05
-0.00176721 0.000523902 0.000532845 -7.94724e-05
-0.00236155 0.000703279 0.000710687 -6.55392e-05
-0.00235426 0.000701123 0.000708486 -6.55389e-05
-0.00293196 0.000875877 0.000881181 -4.76456e-05
-0.00291377 0.000870465 0.000875703 -4.76453e-05
-0.00175076 0.000519082 0.00052786 -7.9471e-05
-0.00176172 0.000522296 0.000531184 -7.9472e-05
-0.00292287 0.000873171 0.000878442 -4.76455e-05
-0.00233238 0.000694656 0.000701883 -6.5538e-05
-0.00175624 0.000520689 0.000529522 -7.94715e-05
-0.00234697 0.000698968 0.000706285 -6.55386e-05
-0.00233967 0.000696812 0.000704084 -6.55383e-05
-0.00291377 0.000870465 0.000875703 -4.76453e-05
-0.00289558 0.000865053 0.000870226 -4.7645e-05
-0.00173979 0.000515868 0.000524538 -7.94701e-05
-0.00175076 0.000519082 0.00052786 -7.9471e-05
-0.00290468 0.000867759 0.000872964 -4.76451e-05
-0.0023178 0.000690345 0.000697482 -6.55373e-05
-0.00174527 0.000517475 0.000526199 -7.94706e-05
-0.00233238 0.000694656 0.000701883 -6.5538e-05
-0.00232509 0.000692501 0.000699682 -6.55376e-05
-0.00289558 0.000865053 0.000870226 -4.7645e-05
-0.00287739 0.000859641 0.000864749 -4.76446e-05
-0.00172882 0.000512654 0.000521215 -7.94691e-05
-0.00173979 0.000515868 0.000524538 -7.94701e-05
-0.00288648 0.000862347 0.000867487 -4.76448e-05
-0.00230322 0.000686033 0.000693081 -6.55367e-05
-0.00173431 0.000514261 0.000522876 -7.94696e-05
-0.0023178 0.000690345 0.000697482 -6.55373e-05
-0.00231051 0.000688189 0.000695281 -6.5537e-05
-0.00287739 0.000859641 0.000864749 -4.76446e-05
-0.0028592 0.000854228 0.000859272 -4.76442e-05
-0.00171786 0.00050944 0.000517893 -7.9468e-05
-0.00172882 0.000512654 0.000521215 -7.94691e-05
-0.00286829 0.000856934 0.00086201 -4.76444e-05
-0.00228864 0.000681721 0.00068868 -6.5536e-05
-0.00172334 0.000511047 0.000519554 -7.94685e-05
-0.00230322 0.000686033 0.000693081 -6.55367e-05
-0.00229593 0.000683877 0.00069088 -6.55363e-05
-0.0028592 0.000854228 0.000859272 -4.76442e-05
-0.00284101 0.000848816 0.000853796 -4.76438e-05
-0.00170689 0.000506226 0.000514572 -7.9467e-05
-0.00171786 0.00050944 0.000517893 -7.9468e-05
-0.0028501 0.000851522 0.000856534 -4.7644e-05
-0.00227406 0.00067741 0.00068428 -6.55352e-05
-0.00171238 0.000507833 0.000516232 -7.94675e-05
-0.00228864 0.000681721 0.00068868 -6.5536e-05
-0.00228135 0.000679566 0.00068648 -6.55356e-05
-0.00284101 0.000848816 0.000853796 -4.76438e-05
-0.00282282 0.000843404 0.00084832 -4.76434e-05
-0.00169593 0.000503011 0.000511251 -7.94659e-05
-0.00170689 0.000506226 0.000514572 -7.9467e-05
-0.00283191 0.00084611 0.000851058 -4.76436e-05
-0.00225948 0.000673097 0.00067988 -6.55345e-05
-0.00170141 0.000504618 0.000512911 -7.94664e-05
-0.00227406 0.00067741 0.00068428 -6.55352e-05
-0.00226677 0.000675254 0.00068208 -6.55349e-05
-0.00282282 0.000843404 0.00084832 -4.76434e-05
-0.00280463 0.000837992 0.000842844 -4.76429e-05
-0.00168497 0.000499796 0.00050793 -7.94647e-05
-0.00169593 0.000503011 0.000511251 -7.94659e-05
-0.00281372 0.000840698 0.000845582 -4.76432e-05
-0.00224491 0.000668785 0.000675481 -6.55337e-05
-0.00169045 0.000501403 0.00050959 -7.94653e-05
-0.00225948 0.000673097 0.00067988 -6.55345e-05
-0.0022522 0.000670941 0.000677681 -6.55341e-05
-0.00280463 0.000837992 0.000842844 -4.76429e-05
-0.00278644 0.000832579 0.000837369 -4.76425e-05
-0.001674 0.000496581 0.00050461 -7.94636e-05
-0.00168497 0.000499796 0.00050793 -7.94647e-05
-0.00279553 0.000835285 0.000840107 -4.76427e-05
-0.00223033 0.000664473 0.000671082 -6.5533e-05
-0.00167948 0.000498188 0.00050627 -7.94642e-05
-0.00224491 0.000668785 0.000675481 -6.55337e-05
-0.00223762 0.000666629 0.000673282 -6.55333e-05
-0.00278644 0.000832579 0.000837369 -4.76425e-05
-0.00276825 0.000827167 0.000831894 -4.7642e-05
-0.00166304 0.000493365 0.00050129 -7.94624e-05
-0.001674 0.000496581 0.00050461 -7.94636e-05
-0.00277735 0.000829873 0.000834632 -4.76423e-05
-0.00221576 0.00066016 0.000666684 -6.55322e-05
-0.00166852 0.000494973 0.00050295 -7.9463e-05
-0.00223033 0.000664473 0.000671082 -6.5533e-05
-0.00222304 0.000662317 0.000668883 -6.55326e-05
-0.00276825 0.000827167 0.000831894 -4.7642e-05
-0.00275007 0.000821754 0.00082642 -4.76416e-05
-0.00165208 0.00049015 0.000497971 -7.94613e-05
-0.00166304 0.000493365 0.00050129 -7.94624e-05
-0.00275916 0.000824461 0.000829157 -4.76418e-05
-0.00220118 0.000655848 0.000662286 -6.55313e-05
-0.00165756 0.000491758 0.000499631 -7.94618e-05
-0.00221576 0.00066016 0.000666684 -6.55322e-05
-0.00220847 0.000658004 0.000664485 -6.55317e-05
-0.00275007 0.000821754 0.00082642 -4.76416e-05
-0.00273188 0.000816342 0.000820946 -4.76411e-05
-0.00164112 0.000486934 0.000494652 -7.946e-05
-0.00165208 0.00049015 0.000497971 -7.94613e-05
-0.00274097 0.000819048 0.000823683 -4.76413e-05
-0.00218661 0.000651535 0.000657888 -6.55305e-05
-0.0016466 0.000488542 0.000496312 -7.94607e-05
-0.00220118 0.000655848 0.000662286 -6.55313e-05
-0.00219389 0.000653691 0.000660087 -6.55309e-05
-0.00273188 0.000816342 0.000820946 -4.76411e-05
-0.0027137 0.000810929 0.000815472 -4.76406e-05
-0.00163016 0.000483718 0.000491334 -7.94588e-05
-0.00164112 0.000486934 0.000494652 -7.946e-05
-0.00272279 0.000813636 0.000818209 -4.76408e-05
-0.00217203 0.000647222 0.000653491 -6.55296e-05
-0.00163564 0.000485326 0.000492993 -7.94594e-05
-0.00218661 0.000651535 0.000657888 -6.55305e-05
-0.00217932 0.000649379 0.00065569 -6.55301e-05
-0.0027137 0.000810929 0.000815472 -4.76406e-05
-0.00269551 0.000805517 0.000809999 -4.764e-05
-0.00161921 0.000480502 0.000488016 -7.94576e-05
-0.00163016 0.000483718 0.000491334 -7.94588e-05
-0.00270461 0.000808223 0.000812736 -4.76403e-05
-0.00215746 0.000642909 0.000649094 -6.55288e-05
-0.00162468 0.00048211 0.000489675 -7.94582e-05
-0.00217203 0.000647222 0.000653491 -6.55296e-05
-0.00216475 0.000645066 0.000651293 -6.55292e-05
-0.00269551 0.000805517 0.000809999 -4.764e-05
-0.00267733 0.000800104 0.000804526 -4.76395e-05
-0.00160825 0.000477285 0.000484699 -7.94563e-05
-0.00161921 0.000480502 0.000488016 -7.94576e-05
-0.00268642 0.000802811 0.000807262 -4.76398e-05
-0.00214289 0.000638596 0.000644698 -6.55279e-05
-0.00161373 0.000478893 0.000486357 -7.94569e-05
-0.00215746 0.000642909 0.000649094 -6.55288e-05
-0.00215018 0.000640752 0.000646896 -6.55283e-05
-0.00267733 0.000800104 0.000804526 -4.76395e-05
-0.00265915 0.000794692 0.000799054 -4.7639e-05
-0.00159729 0.000474068 0.000481382 -7.9455e-05
-0.00160825 0.000477285 0.000484699 -7.94563e-05
-0.00266824 0.000797398 0.00080179 -4.76392e-05
-0.00212832 0.000634283 0.000640302 -6.5527e-05
-0.00160277 0.000475677 0.00048304 -7.94556e-05
-0.00214289 0.000638596 0.000644698 -6.55279e-05
-0.00213561 0.000636439 0.0006425 -6.55274e-05
-0.00265915 0.000794692 0.000799054 -4.7639e-05
-0.00264097 0.000789279 0.000793581 -4.76384e-05
-0.00158634 0.000470851 0.000478065 -7.94537e-05
-0.00159729 0.000474068 0.000481382 -7.9455e-05
-0.00265006 0.000791986 0.000796317 -4.76387e-05
-0.00211375 0.000629969 0.000635907 -6.55261e-05
-0.00159181 0.00047246 0.000479723 -7.94543e-05
-0.00212832 0.000634283 0.000640302 -6.5527e-05
-0.00212104 0.000632126 0.000638104 -6.55265e-05
-0.00264097 0.000789279 0.000793581 -4.76384e-05
-0.00262279 0.000783867 0.00078811 -4.76379e-05
-0.00157538 0.000467634 0.000474749 -7.94524e-05
-0.00158634 0.000470851 0.000478065 -7.94537e-05
-0.00263188 0.000786573 0.000790845 -4.76381e-05
-0.00209918 0.000625655 0.000631512 -6.55251e-05
-0.00158086 0.000469243 0.000476407 -7.9453e-05
-0.00211375 0.000629969 0.000635907 -6.55261e-05
-0.00210647 0.000627812 0.000633709 -6.55256e-05
-0.00262279 0.000783867 0.00078811 -4.76379e-05
-0.00260461 0.000778454 0.000782638 -4.76373e-05
-0.00156443 0.000464417 0.000471433 -7.9451e-05
-0.00157538 0.000467634 0.000474749 -7.94524e-05
-0.0026137 0.00078116 0.000785374 -4.76376e-05
-0.00208461 0.000621342 0.000627117 -6.55242e-05
-0.0015699 0.000466026 0.000473091 -7.94517e-05
-0.00209918 0.000625655 0.000631512 -6.55251e-05
-0.0020919 0.000623499 0.000629314 -6.55247e-05
-0.00260461 0.000778454 0.000782638 -4.76373e-05
-0.00258643 0.000773041 0.000777167 -4.76367e-05
-0.00155348 0.000461199 0.000468118 -7.94497e-05
-0.00156443 0.000464417 0.000471433 -7.9451e-05
-0.00259552 0.000775748 0.000779903 -4.7637e-05
-0.00207005 0.000617028 0.000622723 -6.55232e-05
-0.00155895 0.000462808 0.000469776 -7.94503e-05
-0.00208461 0.000621342 0.000627117 -6.55242e-05
-0.00207733 0.000619185 0.00062492 -6.55237e-05
-0.00258643 0.000773041 0.000777167 -4.76367e-05
-0.00256825 0.000767629 0.000771697 -4.76361e-05
-0.00154252 0.000457981 0.000464804 -7.94483e-05
-0.00155348 0.000461199 0.000468118 -7.94497e-05
-0.00257734 0.000770335 0.000774432 -4.76364e-05
-0.00205548 0.000612714 0.000618329 -6.55222e-05
-0.001548 0.00045959 0.000466461 -7.9449e-05
-0.00207005 0.000617028 0.000622723 -6.55232e-05
-0.00206276 0.000614871 0.000620526 -6.55227e-05
-0.00256825 0.000767629 0.000771697 -4.76361e-05
-0.00255008 0.000762216 0.000766227 -4.76355e-05
-0.00153157 0.000454763 0.000461489 -7.94469e-05
-0.00154252 0.000457981 0.000464804 -7.94483e-05
-0.00255917 0.000764922 0.000768962 -4.76358e-05
-0.00204092 0.0006084 0.000613936 -6.55212e-05
-0.00153705 0.000456372 0.000463146 -7.94476e-05
-0.00205548 0.000612714 0.000618329 -6.55222e-05
-0.0020482 0.000610557 0.000616132 -6.55217e-05
-0.00255008 0.000762216 0.000766227 -4.76355e-05
-0.0025319 0.000756803 0.000760757 -4.76349e-05
-0.00152062 0.000451545 0.000458176 -7.94455e-05
-0.00153157 0.000454763 0.000461489 -7.94469e-05
-0.00254099 0.00075951 0.000763492 -4.76352e-05
-0.00202635 0.000604086 0.000609543 -6.55202e-05
-0.0015261 0.000453154 0.000459832 -7.94462e-05
-0.00204092 0.0006084 0.000613936 -6.55212e-05
-0.00203363 0.000606243 0.000611739 -6.55207e-05
-0.0025319 0.000756803 0.000760757 -4.76349e-05
-0.00251373 0.000751391 0.000755287 -4.76343e-05
-0.00150967 0.000448327 0.000454862 -7.9444e-05
-0.00152062 0.000451545 0.000458176 -7.94455e-05
-0.00252281 0.000754097 0.000758022 -4.76346e-05
-0.00201179 0.000599771 0.00060515 -6.55192e-05
-0.00151515 0.000449936 0.000456519 -7.94448e-05
-0.00202635 0.000604086 0.000609543 -6.55202e-05
-0.00201907 0.000601929 0.000607347 -6.55197e-05
-0.00251373 0.000751391 0.000755287 -4.76343e-05
-0.00249555 0.000745978 0.000749818 -4.76336e-05
-0.00149872 0.000445108 0.000451549 -7.94426e-05
-0.00150967 0.000448327 0.000454862 -7.9444e-05
-0.00250464 0.000748684 0.000752553 -4.7634e-05
-0.00199723 0.000595457 0.000600758 -6.55182e-05
-0.0015042 0.000446717 0.000453206 -7.94433e-05
-0.00201179 0.000599771 0.00060515 -6.55192e-05
-0.00200451 0.000597614 0.000602954 -6.55187e-05
-0.00249555 0.000745978 0.000749818 -4.76336e-05
-0.00247738 0.000740565 0.00074435 -4.7633e-05
-0.00148778 0.000441889 0.000448237 -7.94412e-05
-0.00149872 0.000445108 0.000451549 -7.94426e-05
-0.00248647 0.000743272 0.000747084 -4.76333e-05
-0.00198266 0.000591142 0.000596367 -6.55172e-05
-0.00149325 0.000443498 0.000449893 -7.94419e-05
-0.00199723 0.000595457 0.000600758 -6.55182e-05
-0.00198995 0.0005933 0.000598562 -6.55177e-05
-0.00247738 0.000740565 0.00074435 -4.7633e-05
-0.00245921 0.000735152 0.000738881 -4.76324e-05
-0.00147683 0.00043867 0.000444925 -7.94397e-05
-0.00148778 0.000441889 0.000448237 -7.94412e-05
-0.00246829 0.000737859 0.000741615 -4.76327e-05
-0.0019681 0.000586828 0.000591976 -6.55161e-05
-0.0014823 0.000440279 0.000446581 -7.94404e-05
-0.00198266 0.000591142 0.000596367 -6.55172e-05
-0.00197538 0.000588985 0.000594171 -6.55166e-05
-0.00245921 0.000735152 0.000738881 -4.76324e-05
-0.00244104 0.00072974 0.000733414 -4.76317e-05
-0.00146588 0.00043545 0.000441614 -7.94382e-05
-0.00147683 0.00043867 0.000444925 -7.94397e-05
-0.00245012 0.000732446 0.000736147 -4.7632e-05
-0.00195354 0.000582513 0.000587585 -6.55151e-05
-0.00147136 0.00043706 0.000443269 -7.9439e-05
-0.0019681 0.000586828 0.000591976 -6.55161e-05
-0.00196082 0.00058467 0.00058978 -6.55156e-05
-0.00244104 0.00072974 0.000733414 -4.76317e-05
-0.00242287 0.000724327 0.000727946 -4.7631e-05
-0.00145494 0.000432231 0.000438303 -7.94367e-05
-0.00146588 0.00043545 0.000441614 -7.94382e-05
-0.00243195 0.000727033 0.00073068 -4.76314e-05
-0.00193899 0.000578198 0.000583195 -6.5514e-05
-0.00146041 0.000433841 0.000439958 -7.94375e-05
-0.00195354 0.000582513 0.000587585 -6.55151e-05
-0.00194626 0.000580355 0.00058539 -6.55145e-05
-0.00242287 0.000724327 0.000727946 -4.7631e-05
-0.0024047 0.000718914 0.000722479 -4.76304e-05
-0.00144399 0.000429011 0.000434992 -7.94352e-05
-0.00145494 0.000432231 0.000438303 -7.94367e-05
-0.00241378 0.00072162 0.000725213 -4.76307e-05
-0.00192443 0.000573883 0.000578805 -6.55129e-05
-0.00144946 0.000430621 0.000436647 -7.9436e-05
-0.00193899 0.000578198 0.000583195 -6.5514e-05
-0.00193171 0.00057604 0.000581 -6.55135e-05
-0.0024047 0.000718914 0.000722479 -4.76304e-05
-0.00238653 0.000713501 0.000717012 -4.76297e-05
-0.00143305 0.000425791 0.000431682 -7.94337e-05
-0.00144399 0.000429011 0.000434992 -7.94352e-05
-0.00239561 0.000716208 0.000719746 -4.763e-05
-0.00190987 0.000569567 0.000574415 -6.55118e-05
-0.00143852 0.000427401 0.000433337 -7.94345e-05
-0.00192443 0.000573883 0.000578805 -6.55129e-05
-0.00191715 0.000571725 0.00057661 -6.55124e-05
-0.00238653 0.000713501 0.000717012 -4.76297e-05
-0.00236836 0.000708088 0.000711546 -4.7629e-05
-0.00142211 0.000422571 0.000428372 -7.94322e-05
-0.00143305 0.000425791 0.000431682 -7.94337e-05
-0.00237745 0.000710795 0.000714279 -4.76294e-05
-0.00189531 0.000565252 0.000570026 -6.55108e-05
-0.00142758 0.000424181 0.000430027 -7.9433e-05
-0.00190987 0.000569567 0.000574415 -6.55118e-05
-0.00190259 0.00056741 0.000572221 -6.55113e-05
-0.00236836 0.000708088 0.000711546 -4.7629e-05
-0.0023502 0.000702676 0.00070608 -4.76284e-05
-0.00141116 0.00041935 0.000425063 -7.94307e-05
-0.00142211 0.000422571 0.000428372 -7.94322e-05
-0.00235928 0.000705382 0.000708813 -4.76287e-05
-0.00188076 0.000560937 0.000565638 -6.55097e-05
-0.00141664 0.000420961 0.000426718 -7.94315e-05
-0.00189531 0.000565252 0.000570026 -6.55108e-05
-0.00188804 0.000563094 0.000567832 -6.55102e-05
-0.0023502 0.000702676 0.00070608 -4.76284e-05
-0.00233203 0.000697263 0.000700615 -4.76277e-05
-0.00140022 0.00041613 0.000421755 -7.94292e-05
-0.00141116 0.00041935 0.000425063 -7.94307e-05
-0.00234111 0.000699969 0.000703347 -4.7628e-05
-0.0018662 0.000556621 0.00056125 -6.55085e-05
-0.00140569 0.00041774 0.000423409 -7.94299e-05
-0.00188076 0.000560937 0.000565638 -6.55097e-05
-0.00187348 0.000558779 0.000563444 -6.55091e-05
-0.00233203 0.000697263 0.000700615 -4.76277e-05
-0.00231387 0.00069185 0.00069515 -4.7627e-05
-0.00138928 0.000412909 0.000418447 -7.94276e-05
-0.00140022 0.00041613 0.000421755 -7.94292e-05
-0.00232295 0.000694556 0.000697882 -4.76273e-05
-0.00185165 0.000552305 0.000556862 -6.55074e-05
-0.00139475 0.000414519 0.000420101 -7.94284e-05
-0.0018662 0.000556621 0.00056125 -6.55085e-05
-0.00185893 0.000554463 0.000559056 -6.5508e-05
-0.00231387 0.00069185 0.00069515 -4.7627e-05
-0.0022957 0.000686437 0.000689685 -4.76263e-05
-0.00137834 0.000409688 0.000415139 -7.94261e-05
-0.00138928 0.000412909 0.000418447 -7.94276e-05
-0.00230478 0.000689143 0.000692417 -4.76266e-05
-0.0018371 0.00054799 0.000552475 -6.55063e-05
-0.00138381 0.000411298 0.000416793 -7.94268e-05
-0.00185165 0.000552305 0.000556862 -6.55074e-05
-0.00184437 0.000550147 0.000554669 -6.55069e-05
-0.0022957 0.000686437 0.000689685 -4.76263e-05
-0.00227754 0.000681024 0.000684221 -4.76256e-05
-0.00136741 0.000406466 0.000411832 -7.94245e-05
-0.00137834 0.000409688 0.000415139 -7.94261e-05
-0.00228662 0.000683731 0.000686953 -4.76259e-05
-0.00182255 0.000543674 0.000548088 -6.55052e-05
-0.00137288 0.000408077 0.000413485 -7.94253e-05
-0.0018371 0.00054799 0.000552475 -6.55063e-05
-0.00182982 0.000545832 0.000550282 -6.55058e-05
-0.00227754 0.000681024 0.000684221 -4.76256e-05
-0.00225938 0.000675611 0.000678757 -4.76249e-05
-0.00135647 0.000403245 0.000408525 -7.94229e-05
-0.00136741 0.000406466 0.000411832 -7.94245e-05
-0.00226846 0.000678318 0.000681489 -4.76252e-05
-0.001808 0.000539358 0.000543702 -6.55041e-05
-0.00136194 0.000404856 0.000410178 -7.94237e-05
-0.00182255 0.000543674 0.000548088 -6.55052e-05
-0.00181527 0.000541516 0.000545895 -6.55046e-05
-0.00225938 0.000675611 0.000678757 -4.76249e-05
-0.00224122 0.000670198 0.000673293 -4.76242e-05
-0.00134553 0.000400023 0.000405218 -7.94214e-05
-0.00135647 0.000403245 0.000408525 -7.94229e-05
-0.0022503 0.000672905 0.000676025 -4.76245e-05
-0.00179345 0.000535041 0.000539316 -6.55029e-05
-0.001351 0.000401634 0.000406872 -7.94222e-05
-0.001808 0.000539358 0.000543702 -6.55041e-05
-0.00180072 0.000537199 0.000541509 -6.55035e-05
-0.00224122 0.000670198 0.000673293 -4.76242e-05
-0.00222306 0.000664786 0.00066783 -4.76235e-05
-0.0013346 0.000396801 0.000401913 -7.94198e-05
-0.00134553 0.000400023 0.000405218 -7.94214e-05
-0.00223214 0.000667492 0.000670562 -4.76238e-05
-0.0017789 0.000530725 0.000534931 -6.55018e-05
-0.00134006 0.000398412 0.000403565 -7.94206e-05
-0.00179345 0.000535041 0.000539316 -6.55029e-05
-0.00178617 0.000532883 0.000537123 -6.55024e-05
-0.00222306 0.000664786 0.00066783 -4.76235e-05
-0.0022049 0.000659373 0.000662368 -4.76227e-05
-0.00132366 0.000393579 0.000398607 -7.94182e-05
-0.0013346 0.000396801 0.000401913 -7.94198e-05
-0.00221398 0.000662079 0.000665099 -4.76231e-05
-0.00176435 0.000526409 0.000530546 -6.55007e-05
-0.00132913 0.00039519 0.00040026 -7.9419e-05
-0.0017789 0.000530725 0.000534931 -6.55018e-05
-0.00177162 0.000528567 0.000532738 -6.55012e-05
-0.0022049 0.000659373 0.000662368 -4.76227e-05
-0.00218674 0.00065396 0.000656905 -4.7622e-05
-0.00131273 0.000390357 0.000395302 -7.94166e-05
-0.00132366 0.000393579 0.000398607 -7.94182e-05
-0.00219582 0.000656666 0.000659637 -4.76224e-05
-0.0017498 0.000522092 0.000526161 -6.54995e-05
-0.0013182 0.000391968 0.000396955 -7.94174e-05
-0.00176435 0.000526409 0.000530546 -6.55007e-05
-0.00175707 0.00052425 0.000528353 -6.55001e-05
-0.00218674 0.00065396 0.000656905 -4.7622e-05
-0.00216858 0.000648547 0.000651444 -4.76213e-05
-0.0013018 0.000387134 0.000391998 -7.94151e-05
-0.00131273 0.000390357 0.000395302 -7.94166e-05
-0.00217766 0.000651253 0.000654174 -4.76217e-05
-0.00173526 0.000517775 0.000521777 -6.54984e-05
-0.00130726 0.000388745 0.00039365 -7.94159e-05
-0.0017498 0.000522092 0.000526161 -6.54995e-05
-0.00174253 0.000519934 0.000523969 -6.54989e-05
-0.00216858 0.000648547 0.000651444 -4.76213e-05
-0.00215043 0.000643134 0.000645982 -4.76206e-05
-0.00129086 0.000383911 0.000388694 -7.94135e-05
-0.0013018 0.000387134 0.000391998 -7.94151e-05
-0.0021595 0.000645841 0.000648713 -4.76209e-05
-0.00172071 0.000513459 0.000517393 -6.54972e-05
-0.00129633 0.000385523 0.000390346 -7.94143e-05
-0.00173526 0.000517775 0.000521777 -6.54984e-05
-0.00172798 0.000515617 0.000519585 -6.54978e-05
-0.00215043 0.000643134 0.000645982 -4.76206e-05
-0.00213227 0.000637721 0.000640521 -4.76199e-05
-0.00127993 0.000380688 0.00038539 -7.94119e-05
-0.00129086 0.000383911 0.000388694 -7.94135e-05
-0.00214135 0.000640428 0.000643252 -4.76202e-05
-0.00170617 0.000509142 0.00051301 -6.54961e-05
-0.0012854 0.0003823 0.000387042 -7.94127e-05
-0.00172071 0.000513459 0.000517393 -6.54972e-05
-0.00171344 0.0005113 0.000515202 -6.54966e-05
-0.00213227 0.000637721 0.000640521 -4.76199e-05
-0.00211412 0.000632308 0.00063506 -4.76191e-05
-0.001269 0.000377465 0.000382087 -7.94103e-05
-0.00127993 0.000380688 0.00038539 -7.94119e-05
-0.00212319 0.000635015 0.000637791 -4.76195e-05
-0.00169162 0.000504825 0.000508627 -6.54949e-05
-0.00127447 0.000379077 0.000383739 -7.94111e-05
-0.00170617 0.000509142 0.00051301 -6.54961e-05
-0.00169889 0.000506983 0.000510819 -6.54955e-05
-0.00211412 0.000632308 0.00063506 -4.76191e-05
-0.00209596 0.000626895 0.0006296 -4.76184e-05
-0.00125807 0.000374242 0.000378785 -7.94087e-05
-0.001269 0.000377465 0.000382087 -7.94103e-05
-0.00210504 0.000629602 0.00063233 -4.76188e-05
-0.00167708 0.000500508 0.000504245 -6.54938e-05
-0.00126354 0.000375853 0.000380436 -7.94095e-05
-0.00169162 0.000504825 0.000508627 -6.54949e-05
-0.00168435 0.000502666 0.000506436 -6.54943e-05
-0.00209596 0.000626895 0.0006296 -4.76184e-05
-0.00207781 0.000621482 0.00062414 -4.76177e-05
-0.00124714 0.000371018 0.000375483 -7.94071e-05
-0.00125807 0.000374242 0.000378785 -7.94087e-05
-0.00208689 0.000624189 0.00062687 -4.76181e-05
-0.00166254 0.000496191 0.000499863 -6.54926e-05
-0.00125261 0.00037263 0.000377134 -7.94079e-05
-0.00167708 0.000500508 0.000504245 -6.54938e-05
-0.00166981 0.000498349 0.000502054 -6.54932e-05
-0.00207781 0.000621482 0.00062414 -4.76177e-05
-0.00205966 0.00061607 0.000618681 -4.7617e-05
-0.00123622 0.000367794 0.000372181 -7.94055e-05
-0.00124714 0.000371018 0.000375483 -7.94071e-05
-0.00206873 0.000618776 0.000621411 -4.76173e-05
-0.001648 0.000491873 0.000495482 -6.54914e-05
-0.00124168 0.000369406 0.000373832 -7.94063e-05
-0.00166254 0.000496191 0.000499863 -6.54926e-05
-0.00165527 0.000494032 0.000497672 -6.5492e-05
-0.00205966 0.00061607 0.000618681 -4.7617e-05
-0.00204151 0.000610657 0.000613222 -4.76162e-05
-0.00122529 0.00036457 0.00036888 -7.94039e-05
-0.00123622 0.000367794 0.000372181 -7.94055e-05
-0.00205058 0.000613363 0.000615951 -4.76166e-05
-0.00163346 0.000487556 0.000491101 -6.54903e-05
-0.00123075 0.000366182 0.00037053 -7.94047e-05
-0.001648 0.000491873 0.000495482 -6.54914e-05
-0.00164073 0.000489714 0.000493291 -6.54909e-05
-0.00204151 0.000610657 0.000613222 -4.76162e-05
-0.00202336 0.000605244 0.000607763 -4.76155e-05
-0.00121436 0.000361346 0.000365579 -7.94023e-05
-0.00122529 0.00036457 0.00036888 -7.94039e-05
-0.00203243 0.00060795 0.000610492 -4.76159e-05
-0.00161892 0.000483238 0.00048672 -6.54891e-05
-0.00121983 0.000362958 0.000367229 -7.94031e-05
-0.00163346 0.000487556 0.000491101 -6.54903e-05
-0.00162619 0.000485397 0.000488911 -6.54897e-05
-0.00202336 0.000605244 0.000607763 -4.76155e-05
-0.00200521 0.000599831 0.000602305 -4.76148e-05
-0.00120344 0.000358121 0.000362279 -7.94007e-05
-0.00121436 0.000361346 0.000365579 -7.94023e-05
-0.00201428 0.000602537 0.000605034 -4.76152e-05
-0.00160438 0.00047892 0.00048234 -6.5488e-05
-0.0012089 0.000359734 0.000363929 -7.94015e-05
-0.00161892 0.000483238 0.00048672 -6.54891e-05
-0.00161165 0.000481079 0.00048453 -6.54885e-05
-0.00200521 0.000599831 0.000602305 -4.76148e-05
-0.00198706 0.000594418 0.000596847 -4.76141e-05
-0.00119251 0.000354897 0.000358979 -7.93991e-05
-0.00120344 0.000358121 0.000362279 -7.94007e-05
-0.00199613 0.000597124 0.000599576 -4.76144e-05
-0.00158984 0.000474603 0.000477961 -6.54868e-05
-0.00119798 0.000356509 0.000360629 -7.93999e-05
-0.00160438 0.00047892 0.00048234 -6.5488e-05
-0.00159711 0.000476762 0.00048015 -6.54874e-05
-0.00198706 0.000594418 0.000596847 -4.76141e-05
-0.00196891 0.000589005 0.00059139 -4.76134e-05
-0.00118159 0.000351672 0.00035568 -7.93975e-05
-0.00119251 0.000354897 0.000358979 -7.93991e-05
-0.00197799 0.000591711 0.000594118 -4.76137e-05
-0.00157531 0.000470285 0.000473581 -6.54857e-05
-0.00118705 0.000353284 0.000357329 -7.93983e-05
-0.00158984 0.000474603 0.000477961 -6.54868e-05
-0.00158258 0.000472444 0.000475771 -6.54862e-05
-0.00196891 0.000589005 0.00059139 -4.76134e-05
-0.00195077 0.000583592 0.000585933 -4.76126e-05
-0.00117067 0.000348447 0.000352381 -7.9396e-05
-0.00118159 0.000351672 0.00035568 -7.93975e-05
-0.00195984 0.000586298 0.000588661 -4.7613e-05
-0.00156077 0.000465967 0.000469203 -6.54845e-05
-0.00117613 0.000350059 0.00035403 -7.93967e-05
-0.00157531 0.000470285 0.000473581 -6.54857e-05
-0.00156804 0.000468126 0.000471392 -6.54851e-05
-0.00195077 0.000583592 0.000585933 -4.76126e-05
-0.00193262 0.000578179 0.000580476 -4.76119e-05
-0.00115975 0.000345221 0.000349083 -7.93944e-05
-0.00117067 0.000348447 0.000352381 -7.9396e-05
-0.0019417 0.000580885 0.000583204 -4.76123e-05
-0.00154624 0.000461648 0.000464824 -6.54834e-05
-0.00116521 0.000346834 0.000350732 -7.93952e-05
-0.00156077 0.000465967 0.000469203 -6.54845e-05
-0.00155351 0.000463808 0.000467013 -6.54839e-05
-0.00193262 0.000578179 0.000580476 -4.76119e-05
-0.00191448 0.000572766 0.00057502 -4.76112e-05
-0.00114883 0.000341996 0.000345785 -7.93928e-05
-0.00115975 0.000345221 0.000349083 -7.93944e-05
-0.00192355 0.000575473 0.000577748 -4.76116e-05
-0.0015317 0.00045733 0.000460446 -6.54822e-05
-0.00115429 0.000343608 0.000347434 -7.93936e-05
-0.00154624 0.000461648 0.000464824 -6.54834e-05
-0.00153897 0.000459489 0.000462635 -6.54828e-05
-0.00191448 0.000572766 0.00057502 -4.76112e-05
-0.00189634 0.000567353 0.000569564 -4.76105e-05
-0.00113791 0.00033877 0.000342487 -7.93912e-05
-0.00114883 0.000341996 0.000345785 -7.93928e-05
-0.00190541 0.00057006 0.000572292 -4.76108e-05
-0.00151717 0.000453012 0.000456069 -6.54811e-05
-0.00114337 0.000340383 0.000344136 -7.9392e-05
-0.0015317 0.00045733 0.000460446 -6.54822e-05
-0.00152444 0.000455171 0.000458258 -6.54817e-05
-0.00189634 0.000567353 0.000569564 -4.76105e-05
-0.00187819 0.00056194 0.000564108 -4.76098e-05
-0.00112699 0.000335544 0.00033919 -7.93896e-05
-0.00113791 0.00033877 0.000342487 -7.93912e-05
-0.00188726 0.000564647 0.000566836 -4.76101e-05
-0.00150264 0.000448693 0.000451692 -6.54799e-05
-0.00113245 0.000337157 0.000340839 -7.93904e-05
-0.00151717 0.000453012 0.000456069 -6.54811e-05
-0.00150991 0.000450852 0.00045388 -6.54805e-05
-0.00187819 0.00056194 0.000564108 -4.76098e-05
-0.00186005 0.000556527 0.000558653 -4.76091e-05
-0.00111607 0.000332318 0.000335894 -7.93881e-05
-0.00112699 0.000335544 0.00033919 -7.93896e-05
-0.00186912 0.000559234 0.000561381 -4.76094e-05
-0.00148811 0.000444375 0.000447315 -6.54788e-05
-0.00112153 0.000333931 0.000337542 -7.93889e-05
-0.00150264 0.000448693 0.000451692 -6.54799e-05
-0.00149538 0.000446534 0.000449504 -6.54794e-05
-0.00186005 0.000556527 0.000558653 -4.76091e-05
-0.00184191 0.000551114 0.000553199 -4.76084e-05
-0.00110515 0.000329091 0.000332598 -7.93865e-05
-0.00111607 0.000332318 0.000335894 -7.93881e-05
-0.00185098 0.000553821 0.000555926 -4.76087e-05
-0.00147358 0.000440056 0.000442939 -6.54777e-05
-0.00111061 0.000330705 0.000334246 -7.93873e-05
-0.00148811 0.000444375 0.000447315 -6.54788e-05
-0.00148085 0.000442215 0.000445127 -6.54782e-05
-0.00184191 0.000551114 0.000553199 -4.76084e-05
-0.00182377 0.000545701 0.000547745 -4.76077e-05
-0.00109424 0.000325865 0.000329302 -7.9385e-05
-0.00110515 0.000329091 0.000332598 -7.93865e-05
-0.00183284 0.000548408 0.000550472 -4.7608e-05
-0.00145905 0.000435737 0.000438563 -6.54766e-05
-0.00109969 0.000327478 0.00033095 -7.93857e-05
-0.00147358 0.000440056 0.000442939 -6.54777e-05
-0.00146632 0.000437896 0.000440751 -6.54771e-05
-0.00182377 0.000545701 0.000547745 -4.76077e-05
-0.00180563 0.000540288 0.000542291 -4.7607e-05
-0.00108332 0.000322638 0.000326007 -7.93834e-05
-0.00109424 0.000325865 0.000329302 -7.9385e-05
-0.0018147 0.000542995 0.000545018 -4.76073e-05
-0.00144452 0.000431418 0.000434188 -6.54754e-05
-0.00108878 0.000324251 0.000327655 -7.93842e-05
-0.00145905 0.000435737 0.000438563 -6.54766e-05
-0.00145179 0.000433577 0.000436376 -6.5476e-05
-0.00180563 0.000540288 0.000542291 -4.7607e-05
-0.0017875 0.000534875 0.000536837 -4.76063e-05
-0.00107241 0.000319411 0.000322713 -7.93819e-05
-0.00108332 0.000322638 0.000326007 -7.93834e-05
-0.00179656 0.000537582 0.000539564 -4.76066e-05
-0.00143 0.000427099 0.000429813 -6.54743e-05
-0.00107786 0.000321024 0.00032436 -7.93826e-05
-0.00144452 0.000431418 0.000434188 -6.54754e-05
-0.00143726 0.000429258 0.000432001 -6.54749e-05
-0.0017875 0.000534875 0.000536837 -4.76063e-05
-0.00176936 0.000529462 0.000531384 -4.76056e-05
-0.00106149 0.000316184 0.000319419 -7.93803e-05
-0.00107241 0.000319411 0.000322713 -7.93819e-05
-0.00177843 0.000532169 0.000534111 -4.76059e-05
-0.00141547 0.00042278 0.000425439 -6.54732e-05
-0.00106695 0.000317797 0.000321066 -7.93811e-05
-0.00143 0.000427099 0.000429813 -6.54743e-05
-0.00142273 0.000424939 0.000427626 -6.54738e-05
-0.00176936 0.000529462 0.000531384 -4.76056e-05
-0.00175122 0.000524049 0.000525932 -4.76049e-05
-0.00105058 0.000312956 0.000316125 -7.93788e-05
-0.00106149 0.000316184 0.000319419 -7.93803e-05
-0.00176029 0.000526756 0.000528658 -4.76052e-05
-0.00140095 0.00041846 0.000421065 -6.54721e-05
-0.00105604 0.00031457 0.000317772 -7.93796e-05
-0.00141547 0.00042278 0.000425439 -6.54732e-05
-0.00140821 0.00042062 0.000423252 -6.54727e-05
-0.00175122 0.000524049 0.000525932 -4.76049e-05
-0.00173309 0.000518636 0.000520479 -4.76042e-05
-0.00103967 0.000309728 0.000312832 -7.93773e-05
-0.00105058 0.000312956 0.000316125 -7.93788e-05
-0.00174216 0.000521343 0.000523206 -4.76046e-05
-0.00138642 0.000414141 0.000416692 -6.5471e-05
-0.00104512 0.000311342 0.000314478 -7.9378e-05
-0.00140095 0.00041846 0.000421065 -6.54721e-05
-0.00139368 0.0004163 0.000418878 -6.54716e-05
-0.00173309 0.000518636 0.000520479 -4.76042e-05
-0.00171495 0.000513223 0.000515028 -4.76035e-05
-0.00102876 0.0003065 0.000309539 -7.93758e-05
-0.00103967 0.000309728 0.000312832 -7.93773e-05
-0.00172402 0.00051593 0.000517754 -4.76039e-05
-0.0013719 0.000409821 0.000412319 -6.54699e-05
-0.00103421 0.000308114 0.000311185 -7.93765e-05
-0.00138642 0.000414141 0.000416692 -6.5471e-05
-0.00137916 0.000411981 0.000414505 -6.54705e-05
-0.00171495 0.000513223 0.000515028 -4.76035e-05
-0.00169682 0.00050781 0.000509576 -4.76029e-05
-0.00101785 0.000303272 0.000306247 -7.93743e-05
-0.00102876 0.0003065 0.000309539 -7.93758e-05
-0.00170589 0.000510516 0.000512302 -4.76032e-05
-0.00135738 0.000405501 0.000407946 -6.54688e-05
-0.0010233 0.000304886 0.000307893 -7.9375e-05
-0.0013719 0.000409821 0.000412319 -6.54699e-05
-0.00136464 0.000407661 0.000410132 -6.54694e-05
-0.00169682 0.00050781 0.000509576 -4.76029e-05
-0.00167869 0.000502397 0.000504125 -4.76022e-05
-0.00100694 0.000300044 0.000302955 -7.93728e-05
-0.00101785 0.000303272 0.000306247 -7.93743e-05
-0.00168775 0.000505103 0.000506851 -4.76025e-05
-0.00134285 0.000401181 0.000403574 -6.54678e-05
-0.00101239 0.000301658 0.000304601 -7.93735e-05
-0.00135738 0.000405501 0.000407946 -6.54688e-05
-0.00135011 0.000403341 0.00040576 -6.54683e-05
-0.00167869 0.000502397 0.000504125 -4.76022e-05
-0.00166056 0.000496984 0.000498675 -4.76015e-05
-0.00099603 0.000296815 0.000299663 -7.93713e-05
-0.00100694 0.000300044 0.000302955 -7.93728e-05
-0.00166962 0.00049969 0.0005014 -4.76019e-05
-0.00132833 0.000396861 0.000399202 -6.54667e-05
-0.00100148 0.00029843 0.000301309 -7.9372e-05
-0.00134285 0.000401181 0.000403574 -6.54678e-05
-0.00133559 0.000399021 0.000401388 -6.54672e-05
-0.00166056 0.000496984 0.000498675 -4.76015e-05
-0.00164243 0.000491571 0.000493224 -4.76009e-05
-0.000985123 0.000293587 0.000296373 -7.93698e-05
-0.00099603 0.000296815 0.000299663 -7.93713e-05
-0.00165149 0.000494277 0.000495949 -4.76012e-05
-0.00131381 0.000392541 0.000394831 -6.54657e-05
-0.000990576 0.000295201 0.000298018 -7.93705e-05
-0.00132833 0.000396861 0.000399202 -6.54667e-05
-0.00132107 0.000394701 0.000397016 -6.54662e-05
-0.00164243 0.000491571 0.000493224 -4.76009e-05
-0.0016243 0.000486158 0.000487774 -4.76002e-05
-0.000974216 0.000290358 0.000293082 -7.93683e-05
-0.000985123 0.000293587 0.000296373 -7.93698e-05
-0.00163336 0.000488864 0.000490499 -4.76006e-05
-0.00129929 0.000388221 0.00039046 -6.54646e-05
-0.000979669 0.000291972 0.000294727 -7.93691e-05
-0.00131381 0.000392541 0.000394831 -6.54657e-05
-0.00130655 0.000390381 0.000392645 -6.54651e-05
-0.0016243 0.000486158 0.000487774 -4.76002e-05
-0.00160617 0.000480744 0.000482325 -4.75996e-05
-0.00096331 0.000287129 0.000289792 -7.93669e-05
-0.000974216 0.000290358 0.000293082 -7.93683e-05
-0.00161523 0.000483451 0.00048505 -4.75999e-05
-0.00128478 0.000383901 0.00038609 -6.54636e-05
-0.000968763 0.000288743 0.000291437 -7.93676e-05
-0.00129929 0.000388221 0.00039046 -6.54646e-05
-0.00129204 0.000386061 0.000388275 -6.54641e-05
-0.00160617 0.000480744 0.000482325 -4.75996e-05
-0.00158804 0.000475331 0.000476876 -4.7599e-05
-0.000952405 0.000283899 0.000286503 -7.93654e-05
-0.00096331 0.000287129 0.000289792 -7.93669e-05
-0.00159711 0.000478038 0.0004796 -4.75993e-05
-0.00127026 0.00037958 0.00038172 -6.54625e-05
-0.000957858 0.000285514 0.000288147 -7.93662e-05
-0.00128478 0.000383901 0.00038609 -6.54636e-05
-0.00127752 0.000381741 0.000383905 -6.5463e-05
-0.00158804 0.000475331 0.000476876 -4.7599e-05
-0.00156991 0.000469918 0.000471427 -4.75983e-05
-0.000941501 0.000280669 0.000283214 -7.9364e-05
-0.000952405 0.000283899 0.000286503 -7.93654e-05
-0.00157898 0.000472625 0.000474151 -4.75987e-05
-0.00125574 0.00037526 0.00037735 -6.54615e-05
-0.000946953 0.000282284 0.000284858 -7.93647e-05
-0.00127026 0.00037958 0.00038172 -6.54625e-05
-0.001263 0.00037742 0.000379535 -6.5462e-05
-0.00156991 0.000469918 0.000471427 -4.75983e-05
-0.00155179 0.000464505 0.000465979 -4.75977e-05
-0.000930598 0.00027744 0.000279925 -7.93626e-05
-0.000941501 0.000280669 0.000283214 -7.9364e-05
-0.00156085 0.000467212 0.000468703 -4.7598e-05
-0.00124123 0.000370939 0.000372981 -6.54605e-05
-0.00093605 0.000279055 0.000281569 -7.93633e-05
-0.00125574 0.00037526 0.00037735 -6.54615e-05
-0.00124849 0.000373099 0.000375165 -6.5461e-05
-0.00155179 0.000464505 0.000465979 -4.75977e-05
-0.00153366 0.000459092 0.000460531 -4.75971e-05
-0.000919696 0.00027421 0.000276637 -7.93612e-05
-0.000930598 0.00027744 0.000279925 -7.93626e-05
-0.00154273 0.000461798 0.000463255 -4.75974e-05
-0.00122671 0.000366618 0.000368612 -6.54595e-05
-0.000925147 0.000275825 0.000278281 -7.93619e-05
-0.00124123 0.000370939 0.000372981 -6.54605e-05
-0.00123397 0.000368779 0.000370797 -6.546e-05
-0.00153366 0.000459092 0.000460531 -4.75971e-05
-0.00151554 0.000453679 0.000455083 -4.75965e-05
-0.000908794 0.000270979 0.000273349 -7.93598e-05
-0.000919696 0.00027421 0.000276637 -7.93612e-05
-0.0015246 0.000456385 0.000457807 -4.75968e-05
-0.0012122 0.000362297 0.000364244 -6.54585e-05
-0.000914245 0.000272594 0.000274993 -7.93605e-05
-0.00122671 0.000366618 0.000368612 -6.54595e-05
-0.00121946 0.000364458 0.000366428 -6.5459e-05
-0.00151554 0.000453679 0.000455083 -4.75965e-05
-0.00149742 0.000448265 0.000449636 -4.75959e-05
-0.000897894 0.000267749 0.000270062 -7.93584e-05
-0.000908794 0.000270979 0.000273349 -7.93598e-05
-0.00150648 0.000450972 0.00045236 -4.75962e-05
-0.00119769 0.000357976 0.000359876 -6.54575e-05
-0.000903344 0.000269364 0.000271706 -7.93591e-05
-0.0012122 0.000362297 0.000364244 -6.54585e-05
-0.00120494 0.000360137 0.00036206 -6.5458e-05
-0.00149742 0.000448265 0.000449636 -4.75959e-05
-0.00147929 0.000442852 0.00044419 -4.75953e-05
-0.000886994 0.000264518 0.000266775 -7.9357e-05
-0.000897894 0.000267749 0.000270062 -7.93584e-05
-0.00148836 0.000445559 0.000446913 -4.75956e-05
-0.00118318 0.000353655 0.000355509 -6.54566e-05
-0.000892444 0.000266133 0.000268419 -7.93577e-05
-0.00119769 0.000357976 0.000359876 -6.54575e-05
-0.00119043 0.000355815 0.000357693 -6.5457e-05
-0.00147929 0.000442852 0.00044419 -4.75953e-05
-0.00146117 0.000437439 0.000438743 -4.75947e-05
-0.000876095 0.000261287 0.000263489 -7.93557e-05
-0.000886994 0.000264518 0.000266775 -7.9357e-05
-0.00147023 0.000440145 0.000441466 -4.7595e-05
-0.00116866 0.000349333 0.000351142 -6.54556e-05
-0.000881544 0.000262903 0.000265132 -7.93564e-05
-0.00118318 0.000353655 0.000355509 -6.54566e-05
-0.00117592 0.000351494 0.000353325 -6.54561e-05
-0.00146117 0.000437439 0.000438743 -4.75947e-05
-0.00144305 0.000432025 0.000433297 -4.75942e-05
-0.000865197 0.000258056 0.000260203 -7.93543e-05
-0.000876095 0.000261287 0.000263489 -7.93557e-05
-0.00145211 0.000434732 0.00043602 -4.75944e-05
-0.00115415 0.000345012 0.000346775 -6.54547e-05
-0.000870646 0.000259671 0.000261846 -7.9355e-05
-0.00116866 0.000349333 0.000351142 -6.54556e-05
-0.00116141 0.000347173 0.000348959 -6.54551e-05
-0.00144305 0.000432025 0.000433297 -4.75942e-05
-0.00142493 0.000426612 0.000427852 -4.75936e-05
-0.000854299 0.000254824 0.000256918 -7.9353e-05
-0.000865197 0.000258056 0.000260203 -7.93543e-05
-0.00143399 0.000429319 0.000430574 -4.75939e-05
-0.00113965 0.00034069 0.000342409 -6.54537e-05
-0.000859748 0.00025644 0.00025856 -7.93537e-05
-0.00115415 0.000345012 0.000346775 -6.54547e-05
-0.0011469 0.000342851 0.000344592 -6.54542e-05
-0.00142493 0.000426612 0.000427852 -4.75936e-05
-0.00140681 0.000421199 0.000422406 -4.7593e-05
-0.000843403 0.000251593 0.000253633 -7.93517e-05
-0.000854299 0.000254824 0.000256918 -7.9353e-05
-0.00141587 0.000423905 0.000425129 -4.75933e-05
-0.00112514 0.000336368 0.000338044 -6.54528e-05
-0.000848851 0.000253209 0.000255275 -7.93524e-05
-0.00113965 0.00034069 0.000342409 -6.54537e-05
-0.00113239 0.000338529 0.000340226 -6.54533e-05
-0.00140681 0.000421199 0.000422406 -4.7593e-05
-0.0013887 0.000415785 0.000416962 -4.75925e-05
-0.000832507 0.000248361 0.000250349 -7.93504e-05
-0.000843403 0.000251593 0.000253633 -7.93517e-05
-0.00139775 0.000418492 0.000419684 -4.75928e-05
-0.00111063 0.000332046 0.000333678 -6.54519e-05
-0.000837955 0.000249977 0.000251991 -7.93511e-05
-0.00112514 0.000336368 0.000338044 -6.54528e-05
-0.00111788 0.000334207 0.000335861 -6.54523e-05
-0.0013887 0.000415785 0.000416962 -4.75925e-05
-0.00137058 0.000410372 0.000411517 -4.7592e-05
-0.000821613 0.000245129 0.000247065 -7.93491e-05
-0.000832507 0.000248361 0.000250349 -7.93504e-05
-0.00137964 0.000413079 0.000414239 -4.75922e-05
-0.00109612 0.000327724 0.000329314 -6.5451e-05
-0.00082706 0.000246745 0.000248706 -7.93498e-05
-0.00111063 0.000332046 0.000333678 -6.54519e-05
-0.00110338 0.000329885 0.000331496 -6.54514e-05
-0.00137058 0.000410372 0.000411517 -4.7592e-05
-0.00135246 0.000404959 0.000406073 -4.75914e-05
-0.000810719 0.000241897 0.000243781 -7.93479e-05
-0.000821613 0.000245129 0.000247065 -7.93491e-05
-0.00136152 0.000407665 0.000408795 -4.75917e-05
-0.00108162 0.000323402 0.000324949 -6.54501e-05
-0.000816166 0.000243513 0.000245423 -7.93485e-05
-0.00109612 0.000327724 0.000329314 -6.5451e-05
-0.00108887 0.000325563 0.000327131 -6.54505e-05
-0.00135246 0.000404959 0.000406073 -4.75914e-05
-0.00133435 0.000399545 0.00040063 -4.75909e-05
-0.000799826 0.000238664 0.000240498 -7.93466e-05
-0.000810719 0.000241897 0.000243781 -7.93479e-05
-0.0013434 0.000402252 0.000403351 -4.75912e-05
-0.00106711 0.00031908 0.000320585 -6.54492e-05
-0.000805272 0.00024028 0.000242139 -7.93472e-05
-0.00108162 0.000323402 0.000324949 -6.54501e-05
-0.00107436 0.000321241 0.000322767 -6.54497e-05
-0.00133435 0.000399545 0.00040063 -4.75909e-05
-0.00131623 0.000394132 0.000395186 -4.75904e-05
-0.000788933 0.000235431 0.000237215 -7.93454e-05
-0.000799826 0.000238664 0.000240498 -7.93466e-05
-0.00132529 0.000396838 0.000397908 -4.75907e-05
-0.00105261 0.000314757 0.000316222 -6.54484e-05
-0.000794379 0.000237048 0.000238856 -7.9346e-05
-0.00106711 0.00031908 0.000320585 -6.54492e-05
-0.00105986 0.000316919 0.000318403 -6.54488e-05
-0.00131623 0.000394132 0.000395186 -4.75904e-05
-0.00129812 0.000388718 0.000389743 -4.75899e-05
-0.000778042 0.000232198 0.000233933 -7.93442e-05
-0.000788933 0.000235431 0.000237215 -7.93454e-05
-0.00130718 0.000391425 0.000392465 -4.75902e-05
-0.0010381 0.000310435 0.000311859 -6.54475e-05
-0.000783488 0.000233815 0.000235574 -7.93448e-05
-0.00105261 0.000314757 0.000316222 -6.54484e-05
-0.00104536 0.000312596 0.00031404 -6.5448e-05
-0.00129812 0.000388718 0.000389743 -4.75899e-05
-0.00128001 0.000383305 0.000384301 -4.75894e-05
-0.000767151 0.000228965 0.000230651 -7.9343e-05
-0.000778042 0.000232198 0.000233933 -7.93442e-05
-0.00128906 0.000386011 0.000387022 -4.75897e-05
-0.0010236 0.000306112 0.000307496 -6.54467e-05
-0.000772597 0.000230582 0.000232292 -7.93436e-05
-0.0010381 0.000310435 0.000311859 -6.54475e-05
-0.00103085 0.000308274 0.000309677 -6.54471e-05
-0.00128001 0.000383305 0.000384301 -4.75894e-05
-0.00126189 0.000377891 0.000378859 -4.75889e-05
-0.000756262 0.000225732 0.00022737 -7.93418e-05
-0.000767151 0.000228965 0.000230651 -7.9343e-05
-0.00127095 0.000380598 0.00038158 -4.75892e-05
-0.0010091 0.000301789 0.000303134 -6.54459e-05
-0.000761706 0.000227348 0.000229011 -7.93424e-05
-0.0010236 0.000306112 0.000307496 -6.54467e-05
-0.00101635 0.000303951 0.000305315 -6.54463e-05
-0.00126189 0.000377891 0.000378859 -4.75889e-05
-0.00124378 0.000372477 0.000373417 -4.75885e-05
-0.000745373 0.000222498 0.000224089 -7.93406e-05
-0.000756262 0.000225732 0.00022737 -7.93418e-05
-0.00125284 0.000375184 0.000376138 -4.75887e-05
-0.0009946 0.000297466 0.000298772 -6.54451e-05
-0.000750817 0.000224115 0.00022573 -7.93412e-05
-0.0010091 0.000301789 0.000303134 -6.54459e-05
-0.00100185 0.000299628 0.000300953 -6.54455e-05
-0.00124378 0.000372477 0.000373417 -4.75885e-05
-0.00122567 0.000367064 0.000367975 -4.7588e-05
-0.000734485 0.000219264 0.000220809 -7.93395e-05
-0.000745373 0.000222498 0.000224089 -7.93406e-05
-0.00123473 0.000369771 0.000370696 -4.75883e-05
-0.0009801 0.000293143 0.00029441 -6.54443e-05
-0.000739929 0.000220881 0.000222449 -7.93401e-05
-0.0009946 0.000297466 0.000298772 -6.54451e-05
-0.00098735 0.000295305 0.000296591 -6.54447e-05
-0.00122567 0.000367064 0.000367975 -4.7588e-05
-0.00120756 0.00036165 0.000362534 -4.75876e-05
-0.000723597 0.00021603 0.000217529 -7.93384e-05
-0.000734485 0.000219264 0.000220809 -7.93395e-05
-0.00121662 0.000364357 0.000365255 -4.75878e-05
-0.000965601 0.00028882 0.000290049 -6.54435e-05
-0.000729041 0.000217647 0.000219169 -7.93389e-05
-0.0009801 0.000293143 0.00029441 -6.54443e-05
-0.000972851 0.000290981 0.00029223 -6.54439e-05
-0.00120756 0.00036165 0.000362534 -4.75876e-05
-0.00118945 0.000356236 0.000357094 -4.75871e-05
-0.000712711 0.000212795 0.000214249 -7.93373e-05
-0.000723597 0.00021603 0.000217529 -7.93384e-05
-0.00119851 0.000358943 0.000359814 -4.75874e-05
-0.000951103 0.000284496 0.000285689 -6.54428e-05
-0.000718154 0.000214413 0.000215889 -7.93378e-05
-0.000965601 0.00028882 0.000290049 -6.54435e-05
-0.000958352 0.000286658 0.000287869 -6.54432e-05
-0.00118945 0.000356236 0.000357094 -4.75871e-05
-0.00117135 0.000350823 0.000351653 -4.75867e-05
-0.000701825 0.000209561 0.00021097 -7.93362e-05
-0.000712711 0.000212795 0.000214249 -7.93373e-05
-0.0011804 0.000353529 0.000354373 -4.75869e-05
-0.000936606 0.000280173 0.000281328 -6.5442e-05
-0.000707268 0.000211178 0.00021261 -7.93367e-05
-0.000951103 0.000284496 0.000285689 -6.54428e-05
-0.000943854 0.000282335 0.000283509 -6.54424e-05
-0.00117135 0.000350823 0.000351653 -4.75867e-05
-0.00115324 0.000345409 0.000346213 -4.75863e-05
-0.00069094 0.000206326 0.000207692 -7.93351e-05
-0.000701825 0.000209561 0.00021097 -7.93362e-05
-0.00116229 0.000348116 0.000348933 -4.75865e-05
-0.000922109 0.000275849 0.000276969 -6.54413e-05
-0.000696383 0.000207943 0.000209331 -7.93356e-05
-0.000936606 0.000280173 0.000281328 -6.5442e-05
-0.000929357 0.000278011 0.000279149 -6.54417e-05
-0.00115324 0.000345409 0.000346213 -4.75863e-05
-0.00113513 0.000339995 0.000340774 -4.75859e-05
-0.000680056 0.000203091 0.000204414 -7.93341e-05
-0.00069094 0.000206326 0.000207692 -7.93351e-05
-0.00114419 0.000342702 0.000343493 -4.75861e-05
-0.000907613 0.000271525 0.000272609 -6.54406e-05
-0.000685498 0.000204708 0.000206053 -7.93346e-05
-0.000922109 0.000275849 0.000276969 -6.54413e-05
-0.000914861 0.000273687 0.000274789 -6.5441e-05
-0.00113513 0.000339995 0.000340774 -4.75859e-05
-0.00111703 0.000334581 0.000335334 -4.75855e-05
-0.000669173 0.000199856 0.000201136 -7.9333e-05
-0.000680056 0.000203091 0.000204414 -7.93341e-05
-0.00112608 0.000337288 0.000338054 -4.75857e-05
-0.000893119 0.000267201 0.00026825 -6.54399e-05
-0.000674614 0.000201473 0.000202775 -7.93335e-05
-0.000907613 0.000271525 0.000272609 -6.54406e-05
-0.000900366 0.000269363 0.00027043 -6.54403e-05
-0.00111703 0.000334581 0.000335334 -4.75855e-05
-0.00109892 0.000329167 0.000329896 -4.75852e-05
-0.00065829 0.00019662 0.000197859 -7.9332e-05
-0.000669173 0.000199856 0.000201136 -7.9333e-05
-0.00110798 0.000331874 0.000332615 -4.75853e-05
-0.000878624 0.000262877 0.000263892 -6.54392e-05
-0.000663732 0.000198238 0.000199497 -7.93325e-05
-0.000893119 0.000267201 0.00026825 -6.54399e-05
-0.000885871 0.000265039 0.000266071 -6.54396e-05
-0.00109892 0.000329167 0.000329896 -4.75852e-05
-0.00108082 0.000323753 0.000324457 -4.75848e-05
-0.000647409 0.000193384 0.000194582 -7.9331e-05
-0.00065829 0.00019662 0.000197859 -7.9332e-05
-0.00108987 0.00032646 0.000327176 -4.7585e-05
-0.000864131 0.000258552 0.000259534 -6.54386e-05
-0.000652849 0.000195002 0.00019622 -7.93315e-05
-0.000878624 0.000262877 0.000263892 -6.54392e-05
-0.000871378 0.000260715 0.000261713 -6.54389e-05
-0.00108082 0.000323753 0.000324457 -4.75848e-05
-0.00106272 0.000318339 0.000319019 -4.75844e-05
-0.000636528 0.000190148 0.000191306 -7.93301e-05
-0.000647409 0.000193384 0.000194582 -7.9331e-05
-0.00107177 0.000321046 0.000321738 -4.75846e-05
-0.000849639 0.000254228 0.000255176 -6.5438e-05
-0.000641968 0.000191766 0.000192944 -7.93305e-05
-0.000864131 0.000258552 0.000259534 -6.54386e-05
-0.000856885 0.00025639 0.000257355 -6.54383e-05
-0.00106272 0.000318339 0.000319019 -4.75844e-05
-0.00104461 0.000312925 0.000313581 -4.75841e-05
-0.000625648 0.000186912 0.00018803 -7.93291e-05
-0.000636528 0.000190148 0.000191306 -7.93301e-05
-0.00105367 0.000315632 0.0003163 -4.75843e-05
-0.000835147 0.000249903 0.000250819 -6.54373e-05
-0.000631088 0.00018853 0.000189668 -7.93296e-05
-0.000849639 0.000254228 0.000255176 -6.5438e-05
-0.000842393 0.000252066 0.000252997 -6.54376e-05
-0.00104461 0.000312925 0.000313581 -4.75841e-05
-0.00102651 0.000307511 0.000308144 -4.75838e-05
-0.000614768 0.000183676 0.000184754 -7.93282e-05
-0.000625648 0.000186912 0.00018803 -7.93291e-05
-0.00103556 0.000310218 0.000310862 -4.75839e-05
-0.000820656 0.000245579 0.000246462 -6.54367e-05
-0.000620208 0.000185294 0.000186392 -7.93286e-05
-0.000835147 0.000249903 0.000250819 -6.54373e-05
-0.000827901 0.000247741 0.00024864 -6.5437e-05
-0.00102651 0.000307511 0.000308144 -4.75838e-05
-0.00100841 0.000302097 0.000302707 -4.75835e-05
-0.00060389 0.000180439 0.000181479 -7.93273e-05
-0.000614768 0.000183676 0.000184754 -7.93282e-05
-0.00101746 0.000304804 0.000305425 -4.75836e-05
-0.000806166 0.000241254 0.000242105 -6.54361e-05
-0.000609329 0.000182057 0.000183117 -7.93277e-05
-0.000820656 0.000245579 0.000246462 -6.54367e-05
-0.000813411 0.000243416 0.000244283 -6.54364e-05
-0.00100841 0.000302097 0.000302707 -4.75835e-05
-0.000990312 0.000296682 0.00029727 -4.75832e-05
-0.000593012 0.000177202 0.000178204 -7.93264e-05
-0.00060389 0.000180439 0.000181479 -7.93273e-05
-0.000999362 0.000299389 0.000299988 -4.75833e-05
-0.000791677 0.000236928 0.000237749 -6.54356e-05
-0.000598451 0.00017882 0.000179842 -7.93268e-05
-0.000806166 0.000241254 0.000242105 -6.54361e-05
-0.000798921 0.000239091 0.000239927 -6.54358e-05
-0.000990312 0.000296682 0.00029727 -4.75832e-05
-0.000972213 0.000291268 0.000291834 -4.75829e-05
-0.000582135 0.000173965 0.00017493 -7.93255e-05
-0.000593012 0.000177202 0.000178204 -7.93264e-05
-0.000981262 0.000293975 0.000294552 -4.7583e-05
-0.000777188 0.000232603 0.000233393 -6.5435e-05
-0.000587574 0.000175583 0.000176567 -7.9326e-05
-0.000791677 0.000236928 0.000237749 -6.54356e-05
-0.000784432 0.000234766 0.000235571 -6.54353e-05
-0.000972213 0.000291268 0.000291834 -4.75829e-05
-0.000954115 0.000285854 0.000286398 -4.75826e-05
-0.000571259 0.000170727 0.000171657 -7.93247e-05
-0.000582135 0.000173965 0.00017493 -7.93255e-05
-0.000963164 0.000288561 0.000289116 -4.75827e-05
-0.0007627 0.000228278 0.000229038 -6.54345e-05
-0.000576697 0.000172346 0.000173293 -7.93251e-05
-0.000777188 0.000232603 0.000233393 -6.5435e-05
-0.000769944 0.00023044 0.000231216 -6.54347e-05
-0.000954115 0.000285854 0.000286398 -4.75826e-05
-0.000936017 0.000280439 0.000280962 -4.75823e-05
-0.000560384 0.000167489 0.000168383 -7.93239e-05
-0.000571259 0.000170727 0.000171657 -7.93247e-05
-0.000945066 0.000283146 0.00028368 -4.75825e-05
-0.000748213 0.000223952 0.000224683 -6.5434e-05
-0.000565821 0.000169108 0.00017002 -7.93243e-05
-0.0007627 0.000228278 0.000229038 -6.54345e-05
-0.000755457 0.000226115 0.000226861 -6.54342e-05
-0.000936017 0.000280439 0.000280962 -4.75823e-05
-0.00091792 0.000275025 0.000275527 -4.75821e-05
-0.000549509 0.000164251 0.00016511 -7.93231e-05
-0.000560384 0.000167489 0.000168383 -7.93239e-05
-0.000926968 0.000277732 0.000278244 -4.75822e-05
-0.000733727 0.000219626 0.000220329 -6.54335e-05
-0.000554946 0.00016587 0.000166747 -7.93235e-05
-0.000748213 0.000223952 0.000224683 -6.5434e-05
-0.00074097 0.000221789 0.000222506 -6.54337e-05
-0.00091792 0.000275025 0.000275527 -4.75821e-05
-0.000899824 0.00026961 0.000270092 -4.75819e-05
-0.000538635 0.000161013 0.000161838 -7.93223e-05
-0.000549509 0.000164251 0.00016511 -7.93231e-05
-0.000908872 0.000272317 0.000272809 -4.7582e-05
-0.000719241 0.0002153 0.000215975 -6.5433e-05
-0.000544072 0.000162632 0.000163474 -7.93227e-05
-0.000733727 0.000219626 0.000220329 -6.54335e-05
-0.000726484 0.000217463 0.000218152 -6.54332e-05
-0.000899824 0.00026961 0.000270092 -4.75819e-05
-0.000881728 0.000264195 0.000264657 -4.75817e-05
-0.000527762 0.000157775 0.000158566 -7.93216e-05
-0.000538635 0.000161013 0.000161838 -7.93223e-05
-0.000890776 0.000266903 0.000267374 -4.75818e-05
-0.000704757 0.000210974 0.000211621 -6.54325e-05
-0.000533199 0.000159394 0.000160202 -7.93219e-05
-0.000719241 0.0002153 0.000215975 -6.5433e-05
-0.000711999 0.000213137 0.000213798 -6.54328e-05
-0.000881728 0.000264195 0.000264657 -4.75817e-05
-0.000863634 0.000258781 0.000259223 -4.75814e-05
-0.00051689 0.000154536 0.000155294 -7.93208e-05
-0.000527762 0.000157775 0.000158566 -7.93216e-05
-0.000872681 0.000261488 0.00026194 -4.75815e-05
-0.000690273 0.000206648 0.000207268 -6.54321e-05
-0.000522326 0.000156155 0.00015693 -7.93212e-05
-0.000704757 0.000210974 0.000211621 -6.54325e-05
-0.000697515 0.000208811 0.000209444 -6.54323e-05
-0.000863634 0.000258781 0.000259223 -4.75814e-05
-0.00084554 0.000253366 0.000253789 -4.75813e-05
-0.000506018 0.000151297 0.000152023 -7.93201e-05
-0.00051689 0.000154536 0.000155294 -7.93208e-05
-0.000854587 0.000256073 0.000256506 -4.75813e-05
-0.00067579 0.000202322 0.000202915 -6.54317e-05
-0.000511454 0.000152917 0.000153659 -7.93205e-05
-0.000690273 0.000206648 0.000207268 -6.54321e-05
-0.000683031 0.000204485 0.000205091 -6.54319e-05
-0.00084554 0.000253366 0.000253789 -4.75813e-05
-0.000827447 0.000247951 0.000248355 -4.75811e-05
-0.000495147 0.000148058 0.000148753 -7.93195e-05
-0.000506018 0.000151297 0.000152023 -7.93201e-05
-0.000836493 0.000250659 0.000251072 -4.75812e-05
-0.000661307 0.000197995 0.000198562 -6.54313e-05
-0.000500583 0.000149678 0.000150388 -7.93198e-05
-0.00067579 0.000202322 0.000202915 -6.54317e-05
-0.000668548 0.000200158 0.000200738 -6.54315e-05
-0.000827447 0.000247951 0.000248355 -4.75811e-05
-0.000809354 0.000242536 0.000242922 -4.75809e-05
-0.000484277 0.000144818 0.000145482 -7.93188e-05
-0.000495147 0.000148058 0.000148753 -7.93195e-05
-0.0008184 0.000245244 0.000245638 -4.7581e-05
-0.000646825 0.000193668 0.00019421 -6.54309e-05
-0.000489712 0.000146438 0.000147117 -7.93191e-05
-0.000661307 0.000197995 0.000198562 -6.54313e-05
-0.000654066 0.000195832 0.000196386 -6.54311e-05
-0.000809354 0.000242536 0.000242922 -4.75809e-05
-0.000791262 0.000237121 0.000237489 -4.75808e-05
-0.000473408 0.000141579 0.000142213 -7.93182e-05
-0.000484277 0.000144818 0.000145482 -7.93188e-05
-0.000800308 0.000239829 0.000240205 -4.75808e-05
-0.000632344 0.000189341 0.000189858 -6.54305e-05
-0.000478843 0.000143199 0.000143847 -7.93185e-05
-0.000646825 0.000193668 0.00019421 -6.54309e-05
-0.000639585 0.000191505 0.000192034 -6.54307e-05
-0.000791262 0.000237121 0.000237489 -4.75808e-05
-0.000773171 0.000231706 0.000232056 -4.75806e-05
-0.000462539 0.000138339 0.000138943 -7.93176e-05
-0.000473408 0.000141579 0.000142213 -7.93182e-05
-0.000782217 0.000234414 0.000234773 -4.75807e-05
-0.000617864 0.000185014 0.000185507 -6.54302e-05
-0.000467974 0.000139959 0.000140578 -7.93179e-05
-0.000632344 0.000189341 0.000189858 -6.54305e-05
-0.000625104 0.000187178 0.000187683 -6.54304e-05
-0.000773171 0.000231706 0.000232056 -4.75806e-05
-0.000755081 0.000226291 0.000226624 -4.75805e-05
-0.000451672 0.000135099 0.000135674 -7.9317e-05
-0.000462539 0.000138339 0.000138943 -7.93176e-05
-0.000764126 0.000228999 0.00022934 -4.75806e-05
-0.000603385 0.000180687 0.000181156 -6.54299e-05
-0.000457105 0.000136719 0.000137309 -7.93173e-05
-0.000617864 0.000185014 0.000185507 -6.54302e-05
-0.000610624 0.000182851 0.000183332 -6.543e-05
-0.000755081 0.000226291 0.000226624 -4.75805e-05
-0.000736991 0.000220876 0.000221192 -4.75804e-05
-0.000440804 0.000131858 0.000132406 -7.93164e-05
-0.000451672 0.000135099 0.000135674 -7.9317e-05
-0.000746036 0.000223584 0.000223908 -4.75805e-05
-0.000588906 0.00017636 0.000176806 -6.54296e-05
-0.000446238 0.000133478 0.00013404 -7.93167e-05
-0.000603385 0.000180687 0.000181156 -6.54299e-05
-0.000596145 0.000178523 0.000178981 -6.54297e-05
-0.000736991 0.000220876 0.000221192 -4.75804e-05
-0.000718902 0.000215461 0.000215761 -4.75803e-05
-0.000429938 0.000128617 0.000129137 -7.93159e-05
-0.000440804 0.000131858 0.000132406 -7.93164e-05
-0.000727946 0.000218168 0.000218476 -4.75804e-05
-0.000574428 0.000172032 0.000172455 -6.54293e-05
-0.000435371 0.000130238 0.000130771 -7.93162e-05
-0.000588906 0.00017636 0.000176806 -6.54296e-05
-0.000581667 0.000174196 0.00017463 -6.54294e-05
-0.000718902 0.000215461 0.000215761 -4.75803e-05
-0.000700814 0.000210045 0.000210329 -4.75803e-05
-0.000419072 0.000125376 0.00012587 -7.93154e-05
-0.000429938 0.000128617 0.000129137 -7.93159e-05
-0.000709858 0.000212753 0.000213045 -4.75803e-05
-0.00055995 0.000167704 0.000168106 -6.5429e-05
-0.000424505 0.000126997 0.000127504 -7.93156e-05
-0.000574428 0.000172032 0.000172455 -6.54293e-05
-0.000567189 0.000169868 0.00017028 -6.54292e-05
-0.000700814 0.000210045 0.000210329 -4.75803e-05
-0.000682726 0.00020463 0.000204898 -4.75802e-05
-0.000408208 0.000122135 0.000122602 -7.93149e-05
-0.000419072 0.000125376 0.00012587 -7.93154e-05
-0.00069177 0.000207338 0.000207614 -4.75802e-05
-0.000545474 0.000163376 0.000163756 -6.54288e-05
-0.00041364 0.000123756 0.000124236 -7.93152e-05
-0.00055995 0.000167704 0.000168106 -6.5429e-05
-0.000552712 0.00016554 0.000165931 -6.54289e-05
-0.000682726 0.00020463 0.000204898 -4.75802e-05
-0.000664639 0.000199215 0.000199468 -4.75802e-05
-0.000397343 0.000118894 0.000119336 -7.93145e-05
-0.000408208 0.000122135 0.000122602 -7.93149e-05
-0.000673683 0.000201922 0.000202183 -4.75802e-05
-0.000530998 0.000159048 0.000159407 -6.54286e-05
-0.000402775 0.000120515 0.000120969 -7.93147e-05
-0.000545474 0.000163376 0.000163756 -6.54288e-05
-0.000538236 0.000161212 0.000161582 -6.54287e-05
-0.000664639 0.000199215 0.000199468 -4.75802e-05
-0.000646553 0.000193799 0.000194037 -4.75801e-05
-0.00038648 0.000115652 0.000116069 -7.9314e-05
-0.000397343 0.000118894 0.000119336 -7.93145e-05
-0.000655596 0.000196507 0.000196752 -4.75801e-05
-0.000516523 0.00015472 0.000155058 -6.54284e-05
-0.000391912 0.000117273 0.000117702 -7.93142e-05
-0.000530998 0.000159048 0.000159407 -6.54286e-05
-0.00052376 0.000156884 0.000157233 -6.54285e-05
-0.000646553 0.000193799 0.000194037 -4.75801e-05
-0.000628467 0.000188383 0.000188607 -4.75801e-05
-0.000375617 0.00011241 0.000112803 -7.93136e-05
-0.00038648 0.000115652 0.000116069 -7.9314e-05
-0.00063751 0.000191091 0.000191322 -4.75801e-05
-0.000502048 0.000150391 0.00015071 -6.54282e-05
-0.000381048 0.000114031 0.000114436 -7.93138e-05
-0.000516523 0.00015472 0.000155058 -6.54284e-05
-0.000509285 0.000152555 0.000152884 -6.54283e-05
-0.000628467 0.000188383 0.000188607 -4.75801e-05
-0.000610382 0.000182967 0.000183178 -4.75801e-05
-0.000364755 0.000109168 0.000109537 -7.93132e-05
-0.000375617 0.00011241 0.000112803 -7.93136e-05
-0.000619425 0.000185675 0.000185893 -4.75801e-05
-0.000487574 0.000146062 0.000146362 -6.5428e-05
-0.000370186 0.000110789 0.00011117 -7.93134e-05
-0.000502048 0.000150391 0.00015071 -6.54282e-05
-0.000494811 0.000148227 0.000148536 -6.54281e-05
-0.000610382 0.000182967 0.000183178 -4.75801e-05
-0.000592298 0.000177552 0.000177748 -4.75801e-05
-0.000353894 0.000105925 0.000106272 -7.93129e-05
-0.000364755 0.000109168 0.000109537 -7.93132e-05
-0.00060134 0.00018026 0.000180463 -4.75801e-05
-0.000473101 0.000141734 0.000142015 -6.54279e-05
-0.000359324 0.000107546 0.000107905 -7.93131e-05
-0.000487574 0.000146062 0.000146362 -6.5428e-05
-0.000480338 0.000143898 0.000144188 -6.5428e-05
-0.000592298 0.000177552 0.000177748 -4.75801e-05
-0.000574214 0.000172136 0.000172319 -4.75802e-05
-0.000343033 0.000102682 0.000103007 -7.93125e-05
-0.000353894 0.000105925 0.000106272 -7.93129e-05
-0.000583256 0.000174844 0.000175034 -4.75801e-05
-0.000458629 0.000137404 0.000137668 -6.54278e-05
-0.000348463 0.000104304 0.00010464 -7.93127e-05
-0.000473101 0.000141734 0.000142015 -6.54279e-05
-0.000465865 0.000139569 0.000139841 -6.54278e-05
-0.000574214 0.000172136 0.000172319 -4.75802e-05
-0.000556131 0.00016672 0.000166891 -4.75802e-05
-0.000332173 9.94392e-05 9.97431e-05 -7.93122e-05
-0.000343033 0.000102682 0.000103007 -7.93125e-05
-0.000565173 0.000169428 0.000169605 -4.75802e-05
-0.000444157 0.000133075 0.000133321 -6.54277e-05
-0.000337603 0.000101061 0.000101375 -7.93124e-05
-0.000458629 0.000137404 0.000137668 -6.54278e-05
-0.000451393 0.00013524 0.000135494 -6.54277e-05
-0.000556131 0.00016672 0.000166891 -4.75802e-05
-0.000538049 0.000161303 0.000161462 -4.75802e-05
-0.000321314 9.61959e-05 9.64792e-05 -7.93119e-05
-0.000332173 9.94392e-05 9.97431e-05 -7.93122e-05
-0.00054709 0.000164012 0.000164176 -4.75802e-05
-0.000429686 0.000128746 0.000128974 -6.54276e-05
-0.000326744 9.78176e-05 9.81111e-05 -7.93121e-05
-0.000444157 0.000133075 0.000133321 -6.54277e-05
-0.000436921 0.00013091 0.000131148 -6.54276e-05
-0.000538049 0.000161303 0.000161462 -4.75802e-05
-0.000519967 0.000155887 0.000156034 -4.75803e-05
-0.000310455 9.29522e-05 9.32157e-05 -7.93116e-05
-0.000321314 9.61959e-05 9.64792e-05 -7.93119e-05
-0.000529008 0.000158595 0.000158748 -4.75802e-05
-0.000415215 0.000124416 0.000124628 -6.54275e-05
-0.000315885 9.45741e-05 9.48474e-05 -7.93118e-05
-0.000429686 0.000128746 0.000128974 -6.54276e-05
-0.000422451 0.000126581 0.000126801 -6.54275e-05
-0.000519967 0.000155887 0.000156034 -4.75803e-05
-0.000501886 0.000150471 0.000150606 -4.75803e-05
-0.000299598 8.97083e-05 8.99526e-05 -7.93113e-05
-0.000310455 9.29522e-05 9.32157e-05 -7.93116e-05
-0.000510926 0.000153179 0.00015332 -4.75803e-05
-0.000400746 0.000120086 0.000120283 -6.54273e-05
-0.000305026 9.13303e-05 9.15841e-05 -7.93114e-05
-0.000415215 0.000124416 0.000124628 -6.54275e-05
-0.00040798 0.000122251 0.000122455 -6.54274e-05
-0.000501886 0.000150471 0.000150606 -4.75803e-05
-0.000483805 0.000145054 0.000145179 -4.75803e-05
-0.00028874 8.6464e-05 8.66899e-05 -7.9311e-05
-0.000299598 8.97083e-05 8.99526e-05 -7.93113e-05
-0.000492845 0.000147763 0.000147893 -4.75803e-05
-0.000386277 0.000115756 0.000115937 -6.54272e-05
-0.000294169 8.80862e-05 8.83212e-05 -7.93111e-05
-0.000400746 0.000120086 0.000120283 -6.54273e-05
-0.000393511 0.000117921 0.00011811 -6.54273e-05
-0.000483805 0.000145054 0.000145179 -4.75803e-05
-0.000465725 0.000139638 0.000139752 -4.75803e-05
-0.000277884 8.32195e-05 8.34276e-05 -7.93106e-05
-0.00028874 8.6464e-05 8.66899e-05 -7.9311e-05
-0.000474765 0.000142346 0.000142465 -4.75803e-05
-0.000371808 0.000111426 0.000111592 -6.54271e-05
-0.000283312 8.48418e-05 8.50587e-05 -7.93108e-05
-0.000386277 0.000115756 0.000115937 -6.54272e-05
-0.000379042 0.000113591 0.000113765 -6.54271e-05
-0.000465725 0.000139638 0.000139752 -4.75803e-05
-0.000447646 0.000134221 0.000134325 -4.75802e-05
-0.000267028 7.99747e-05 8.01657e-05 -7.93103e-05
-0.000277884 8.32195e-05 8.34276e-05 -7.93106e-05
-0.000456686 0.000136929 0.000137038 -4.75802e-05
-0.00035734 0.000107095 0.000107248 -6.54269e-05
-0.000272456 8.15971e-05 8.17966e-05 -7.93105e-05
-0.000371808 0.000111426 0.000111592 -6.54271e-05
-0.000364574 0.00010926 0.00010942 -6.5427e-05
-0.000447646 0.000134221 0.000134325 -4.75802e-05
-0.000429568 0.000128804 0.000128899 -4.75801e-05
-0.000256173 7.67295e-05 7.69042e-05 -7.93099e-05
-0.000267028 7.99747e-05 8.01657e-05 -7.93103e-05
-0.000438607 0.000131513 0.000131612 -4.75802e-05
-0.000342873 0.000102764 0.000102904 -6.54266e-05
-0.0002616 7.83521e-05 7.85349e-05 -7.93101e-05
-0.00035734 0.000107095 0.000107248 -6.54269e-05
-0.000350107 0.00010493 0.000105076 -6.54267e-05
-0.000429568 0.000128804 0.000128899 -4.75801e-05
-0.00041149 0.000123388 0.000123472 -4.75799e-05
-0.000245318 7.34841e-05 7.36431e-05 -7.93094e-05
-0.000256173 7.67295e-05 7.69042e-05 -7.93099e-05
-0.000420529 0.000126096 0.000126185 -4.758e-05
-0.000328407 9.84336e-05 9.85599e-05 -6.54263e-05
-0.000250745 7.51069e-05 7.52736e-05 -7.93096e-05
-0.000342873 0.000102764 0.000102904 -6.54266e-05
-0.00033564 0.000100599 0.000100732 -6.54265e-05
-0.00041149 0.000123388 0.000123472 -4.75799e-05
-0.000393412 0.000117971 0.000118046 -4.75798e-05
-0.000234464 7.02385e-05 7.03824e-05 -7.93089e-05
-0.000245318 7.34841e-05 7.36431e-05 -7.93094e-05
-0.000402451 0.000120679 0.000120759 -4.75799e-05
-0.000313941 9.41025e-05 9.42164e-05 -6.5426e-05
-0.000239891 7.18614e-05 7.20127e-05 -7.93092e-05
-0.000328407 9.84336e-05 9.85599e-05 -6.54263e-05
-0.000321174 9.62681e-05 9.63881e-05 -6.54262e-05
-0.000393412 0.000117971 0.000118046 -4.75798e-05
-0.000375336 0.000112554 0.000112621 -4.75796e-05
-0.000223611 6.69928e-05 6.7122e-05 -7.93085e-05
-0.000234464 7.02385e-05 7.03824e-05 -7.93089e-05
-0.000384374 0.000115262 0.000115334 -4.75797e-05
-0.000299476 8.97714e-05 8.98733e-05 -6.54257e-05
-0.000229037 6.86157e-05 6.87522e-05 -7.93087e-05
-0.000313941 9.41025e-05 9.42164e-05 -6.5426e-05
-0.000306708 9.19369e-05 9.20448e-05 -6.54259e-05
-0.000375336 0.000112554 0.000112621 -4.75796e-05
-0.00035726 0.000107137 0.000107196 -4.75796e-05
-0.000212758 6.3747e-05 6.3862e-05 -7.93082e-05
-0.000223611 6.69928e-05 6.7122e-05 -7.93085e-05
-0.000366298 0.000109845 0.000109908 -4.75796e-05
-0.000285011 8.54402e-05 8.55305e-05 -6.54256e-05
-0.000218185 6.53699e-05 6.5492e-05 -7.93083e-05
-0.000299476 8.97714e-05 8.98733e-05 -6.54257e-05
-0.000292243 8.76058e-05 8.77018e-05 -6.54256e-05
-0.00035726 0.000107137 0.000107196 -4.75796e-05
-0.000339185 0.00010172 0.000101771 -4.75799e-05
-0.000201907 6.05014e-05 6.06023e-05 -7.93081e-05
-0.000212758 6.3747e-05 6.3862e-05 -7.93082e-05
-0.000348222 0.000104428 0.000104483 -4.75797e-05
-0.000270548 8.11091e-05 8.11879e-05 -6.54258e-05
-0.000207332 6.21242e-05 6.22321e-05 -7.93081e-05
-0.000285011 8.54402e-05 8.55305e-05 -6.54256e-05
-0.000277779 8.32746e-05 8.33592e-05 -6.54256e-05
-0.000339185 0.00010172 0.000101771 -4.75799e-05
-0.00032111 9.6303e-05 9.63458e-05 -4.75806e-05
-0.000191056 5.72562e-05 5.73428e-05 -7.93085e-05
-0.000201907 6.05014e-05 6.06023e-05 -7.93081e-05
-0.000330147 9.90114e-05 9.90582e-05 -4.75802e-05
-0.000256085 7.67782e-05 7.68456e-05 -6.54265e-05
-0.000196481 5.88788e-05 5.89725e-05 -7.93082e-05
-0.000270548 8.11091e-05 8.11879e-05 -6.54258e-05
-0.000263316 7.89436e-05 7.90167e-05 -6.54261e-05
-0.00032111 9.6303e-05 9.63458e-05 -4.75806e-05
-0.000303036 9.08863e-05 9.09212e-05 -4.75822e-05
-0.000180207 5.40115e-05 5.40836e-05 -7.93098e-05
-0.000191056 5.72562e-05 5.73428e-05 -7.93085e-05
-0.000312073 9.35946e-05 9.36335e-05 -4.75813e-05
-0.000241623 7.24476e-05 7.25036e-05 -6.54281e-05
-0.000185631 5.56338e-05 5.57132e-05 -7.9309e-05
-0.000256085 7.67782e-05 7.68456e-05 -6.54265e-05
-0.000248854 7.46129e-05 7.46746e-05 -6.54272e-05
-0.000303036 9.08863e-05 9.09212e-05 -4.75822e-05
-0.000284962 8.54694e-05 8.54966e-05 -4.75848e-05
-0.000169358 5.0767e-05 5.08247e-05 -7.93125e-05
-0.000180207 5.40115e-05 5.40836e-05 -7.93098e-05
-0.000293999 8.81779e-05 8.82089e-05 -4.75833e-05
-0.000227161 6.8117e-05 6.81618e-05 -6.54309e-05
-0.000174782 5.23892e-05 5.24541e-05 -7.9311e-05
-0.000241623 7.24476e-05 7.25036e-05 -6.54281e-05
-0.000234392 7.02824e-05 7.03326e-05 -6.54294e-05
-0.000284962 8.54694e-05 8.54966e-05 -4.75848e-05
-0.000266888 8.00519e-05 8.00725e-05 -4.75882e-05
-0.000158509 4.75218e-05 4.75662e-05 -7.93173e-05
-0.000169358 5.0767e-05 5.08247e-05 -7.93125e-05
-0.000275925 8.27608e-05 8.27845e-05 -4.75864e-05
-0.0002127 6.37855e-05 6.38204e-05 -6.5435e-05
-0.000163934 4.91446e-05 4.91954e-05 -7.93146e-05
-0.000227161 6.8117e-05 6.81618e-05 -6.54309e-05
-0.000219931 6.59515e-05 6.5991e-05 -6.54328e-05
-0.000266888 8.00519e-05 8.00725e-05 -4.75882e-05
-0.000248813 7.46324e-05 7.46487e-05 -4.75915e-05
-0.000147659 4.42728e-05 4.43085e-05 -7.9325e-05
-0.000158509 4.75218e-05 4.75662e-05 -7.93173e-05
-0.00025785 7.73425e-05 7.73605e-05 -4.75899e-05
-0.000198237 5.94505e-05 5.94799e-05 -6.54395e-05
-0.000153085 4.58981e-05 4.59371e-05 -7.93208e-05
-0.0002127 6.37855e-05 6.38204e-05 -6.5435e-05
-0.000205469 6.16187e-05 6.165e-05 -6.54372e-05
-0.000248813 7.46324e-05 7.46487e-05 -4.75915e-05
-0.000230737 6.92081e-05 6.92267e-05 -4.75906e-05
-0.0001368 4.10135e-05 4.10515e-05 -7.93366e-05
-0.000147659 4.42728e-05 4.43085e-05 -7.9325e-05
-0.000239775 7.19211e-05 7.19373e-05 -4.7592e-05
-0.000183769 5.51068e-05 5.51408e-05 -6.54422e-05
-0.000142232 4.26452e-05 4.26799e-05 -7.93302e-05
-0.000198237 5.94505e-05 5.94799e-05 -6.54395e-05
-0.000191004 5.72804e-05 5.731e-05 -6.54415e-05
-0.000230737 6.92081e-05 6.92267e-05 -4.75906e-05
-0.000212657 6.37731e-05 6.38072e-05 -4.75783e-05
-0.000125922 3.77296e-05 3.77969e-05 -7.93525e-05
-0.0001368 4.10135e-05 4.10515e-05 -7.93366e-05
-0.000221698 6.64926e-05 6.65167e-05 -4.75865e-05
-0.000169286 5.07421e-05 5.08046e-05 -6.5437e-05
-0.000131364 3.93758e-05 3.94236e-05 -7.93441e-05
-0.000183769 5.51068e-05 5.51408e-05 -6.54422e-05
-0.00017653 5.29279e-05 5.29723e-05 -6.54409e-05
-0.000212657 6.37731e-05 6.38072e-05 -4.75783e-05
-0.000194573 5.83161e-05 5.83956e-05 -4.75343e-05
-0.000114994 3.43954e-05 3.45423e-05 -7.9375e-05
-0.000125922 3.77296e-05 3.77969e-05 -7.93525e-05
-0.000203614 6.10481e-05 6.10998e-05 -4.75623e-05
-0.000154772 4.63361e-05 4.64727e-05 -6.54116e-05
-0.000120468 3.60714e-05 3.61699e-05 -7.93626e-05
-0.000169286 5.07421e-05 5.08046e-05 -6.5437e-05
-0.000162035 4.85468e-05 4.86376e-05 -6.54286e-05
-0.000194573 5.83161e-05 5.83956e-05 -4.75343e-05
-0.000176468 5.28184e-05 5.29925e-05 -4.74303e-05
-0.000103977 3.09631e-05 3.12916e-05 -7.94023e-05
-0.000114994 3.43954e-05 3.45423e-05 -7.9375e-05
-0.000185526 5.55748e-05 5.56932e-05 -4.7492e-05
-0.000140191 4.18463e-05 4.21477e-05 -6.53427e-05
-0.000109498 3.26949e-05 3.29156e-05 -7.93887e-05
-0.000154772 4.63361e-05 4.64727e-05 -6.54116e-05
-0.000147493 4.41039e-05 4.43097e-05 -6.53833e-05
-0.000176468 5.28184e-05 5.29925e-05 -4.74303e-05
-0.000158348 4.72429e-05 4.76163e-05 -4.71938e-05
-9.27621e-05 2.73626e-05 2.80283e-05 -7.94449e-05
-0.000103977 3.09631e-05 3.12916e-05 -7.94023e-05
-0.000167406 5.00414e-05 5.0299e-05 -4.73358e-05
-0.000125482 3.7216e-05 3.78283e-05 -6.51921e-05
-9.84064e-05 2.91913e-05 2.96636e-05 -7.94199e-05
-0.000140191 4.18463e-05 4.21477e-05 -6.53427e-05
-0.000132857 3.95567e-05 3.99858e-05 -6.52839e-05
-0.000158348 4.72429e-05 4.76163e-05 -4.71938e-05
-0.000140134 4.15461e-05 4.22521e-05 -4.6751e-05
-8.12462e-05 2.34789e-05 2.47574e-05 -7.95002e-05
-9.27621e-05 2.73626e-05 2.80283e-05 -7.94449e-05
-0.000149266 4.44187e-05 4.49347e-05 -4.70032e-05
-0.000110521 3.23282e-05 3.3511e-05 -6.49049e-05
-8.70426e-05 2.54608e-05 2.63922e-05 -7.94726e-05
-0.000125482 3.7216e-05 3.78283e-05 -6.51921e-05
-0.000118044 3.48065e-05 3.56733e-05 -6.50636e-05
-0.000140134 4.15461e-05 4.22521e-05 -4.6751e-05
-0.000121848 3.56228e-05 3.69538e-05 -4.59075e-05
-6.9137e-05 1.92134e-05 2.13958e-05 -7.96348e-05
-8.12462e-05 2.34789e-05 2.47574e-05 -7.95002e-05
-0.000130984 3.86072e-05 3.95902e-05 -4.63984e-05
-9.51465e-05 2.70938e-05 2.91655e-05 -6.44169e-05
-7.53016e-05 2.14071e-05 2.30976e-05 -7.95482e-05
-0.000110521 3.23282e-05 3.3511e-05 -6.49049e-05
-0.000102894 2.97744e-05 3.13369e-05 -6.47036e-05
-0.000121848 3.56228e-05 3.69538e-05 -4.59075e-05
-0.000103151 2.94457e-05 3.1588e-05 -4.45889e-05
-5.63115e-05 1.44573e-05 1.79375e-05 -7.98852e-05
-6.9137e-05 1.92134e-05 2.13958e-05 -7.96348e-05
-0.00011261 3.2599e-05 3.42902e-05 -4.53081e-05
-7.89937e-05 2.12991e-05 2.47263e-05 -6.37236e-05
-6.27933e-05 1.68786e-05 1.96777e-05 -7.97464e-05
-9.51465e-05 2.70938e-05 2.91655e-05 -6.44169e-05
-8.72046e-05 2.42484e-05 2.69812e-05 -6.40656e-05
-0.000103151 2.94457e-05 3.1588e-05 -4.45889e-05
-8.40688e-05 2.27645e-05 2.62733e-05 -4.24979e-05
-4.231e-05 9.53646e-06 1.40458e-05 -8.05992e-05
-5.63115e-05 1.44573e-05 1.79375e-05 -7.98852e-05
-9.35962e-05 2.61073e-05 2.89238e-05 -4.36662e-05
-6.1825e-05 1.51515e-05 2.00029e-05 -6.29696e-05
-4.95357e-05 1.20086e-05 1.6083e-05 -8.01419e-05
-7.89937e-05 2.12991e-05 2.47263e-05 -6.37236e-05
-7.05289e-05 1.82966e-05 2.23853e-05 -6.33892e-05
-8.40688e-05 2.27645e-05 2.62733e-05 -4.24979e-05
-6.32958e-05 1.61175e-05 2.02192e-05 -4.02586e-05
-2.78339e-05 5.25177e-06 9.67804e-06 -8.19916e-05
-4.231e-05 9.53646e-06 1.40458e-05 -8.05992e-05
-7.41187e-05 1.95436e-05 2.33893e-05 -4.13278e-05
-4.28759e-05 8.89211e-06 1.45645e-05 -6.29219e-05
-3.49657e-05 7.12737e-06 1.19307e-05 -8.12036e-05
-6.1825e-05 1.51515e-05 2.00029e-05 -6.29696e-05
-5.2676e-05 1.18592e-05 1.74929e-05 -6.26656e-05
-6.32958e-05 1.61175e-05 2.02192e-05 -4.02586e-05
-4.10096e-05 9.55623e-06 1.348e-05 -3.88943e-05
-1.38306e-05 5.1138e-06 3.73577e-06 -8.48552e-05
-2.78339e-05 5.25177e-06 9.67804e-06 -8.19916e-05
-5.20945e-05 1.23793e-05 1.70208e-05 -3.93139e-05
-2.32787e-05 5.89941e-06 7.44825e-06 -6.52366e-05
-2.08202e-05 4.4445e-06 7.01817e-06 -8.31672e-05
-4.28759e-05 8.89211e-06 1.45645e-05 -6.29219e-05
-3.29139e-05 6.7918e-06 1.11952e-05 -6.38311e-05
-4.10096e-05 9.55623e-06 1.348e-05 -3.88943e-05
-1.53145e-05 1.01409e-05 2.21729e-06 -4.53369e-05
-6.4825e-06 1.53295e-05 -3.79156e-06 -8.68107e-05
-1.38306e-05 5.1138e-06 3.73577e-06 -8.48552e-05
-2.90724e-05 8.86433e-06 8.66062e-06 -4.04662e-05
-5.55624e-06 1.36303e-05 -3.46031e-06 -7.3128e-05
-8.50473e-06 8.00389e-06 2.14644e-07 -8.62795e-05
-2.32787e-05 5.89941e-06 7.44825e-06 -6.52366e-05
-1.41122e-05 7.09695e-06 3.00654e-06 -6.78425e-05
-1.53145e-05 1.01409e-05 2.21729e-06 -4.53369e-05
-3.45575e-06 3.9628e-05 -1.55024e-05 -6.82047e-05
-1.02277e-05 4.73875e-05 -1.59256e-05 -7.94271e-05
-6.4825e-06 1.53295e-05 -3.79156e-06 -8.68107e-05
-5.0156e-06 1.57606e-05 -4.60501e-06 -5.35724e-05
-1.09239e-05 5.43263e-05 -1.8601e-05 -7.89997e-05
-7.23363e-06 2.88943e-05 -9.28315e-06 -8.53662e-05
-5.55624e-06 1.36303e-05 -3.46031e-06 -7.3128e-05
-2.77276e-06 2.88707e-05 -1.11848e-05 -7.84344e-05
-3.45575e-06 3.9628e-05 -1.55024e-05 -6.82047e-05
-5.14015e-05 0.000177114 -5.38768e-05 -6.80052e-05
-2.12411e-05 8.56539e-05 -2.76055e-05 -4.19128e-05
-1.02277e-05 4.73875e-05 -1.59256e-05 -7.94271e-05
-1.68472e-05 9.45132e-05 -3.32854e-05 -7.97415e-05
-4.0431e-05 0.000127064 -3.71285e-05 -4.00423e-05
-1.5039e-05 6.80761e-05 -2.27302e-05 -6.55495e-05
-1.09239e-05 5.43263e-05 -1.8601e-05 -7.89997e-05
-2.51103e-05 8.94162e-05 -2.75596e-05 -6.8283e-05
-0.00175982 0 0.00075421 0.000232479
-0.00198864 0.000260373 0.000740685 -6.2185e-06
-0.000650475 8.50382e-05 0.00024233 0.000119738
-0.000640527 -1.11022e-16 0.000274512 0.00036123
-0.0019061 0.000146313 0.000754196 8.8385e-05
-0.00131944 0.000172753 0.000491436 7.14254e-05
-0.000625012 3.5784e-05 0.000252526 0.000227734
-0.00117445 0 0.000503335 0.000330882
-0.0012654 8.22263e-05 0.000507073 0.000164371
-0.00198864 0.000260373 0.000740685 -6.2185e-06
-0.00208941 0.000476287 0.000691339 -8.05973e-05
-0.000699665 0.000139989 0.000239861 -2.45831e-05
-0.000650475 8.50382e-05 0.00024233 0.000119738
-0.00203919 0.000375258 0.000713114 -5.41684e-05
-0.00138612 0.00029621 0.000467102 -4.45164e-05
-0.000685745 0.000118 0.000243319 3.48845e-05
-0.00131944 0.000172753 0.000491436 7.14254e-05
-0.00135393 0.000243074 0.00047608 8.60232e-06
-0.00208941 0.000476287 0.000691339 -8.05973e-05
-0.00214006 0.000584471 0.000666679 -9.51156e-05
-0.000713788 0.00018084 0.000228407 -8.99816e-05
-0.000699665 0.000139989 0.000239861 -2.45831e-05
-0.0021271 0.000543594 0.000678646 -9.36558e-05
-0.00142496 0.000375008 0.000449981 -9.44156e-05
-0.000704824 0.000161776 0.000232735 -6.40047e-05
-0.00138612 0.00029621 0.000467102 -4.45164e-05
-0.00141134 0.000340638 0.000458873 -7.8971e-05
-0.00214006 0.000584471 0.000666679 -9.51156e-05
-0.00213753 0.000626423 0.000647616 -8.82292e-05
-0.00072097 0.000199757 0.000223377 -0.000113352
-0.000713788 0.00018084 0.000228407 -8.99816e-05
-0.00213972 0.000610896 0.000655212 -9.12265e-05
-0.00143098 0.00040961 0.00043773 -0.000105563
-0.000721018 0.000192875 0.000226347 -0.000105629
-0.00142496 0.000375008 0.000449981 -9.44156e-05
-0.00143038 0.000396914 0.000442916 -0.000101383
-0.00213753 0.000626423 0.000647616 -8.82292e-05
-0.00212219 0.000633904 0.000637836 -8.36696e-05
-0.00071581 0.000206748 0.000218169 -0.000115902
-0.00072097 0.000199757 0.000223377 -0.000113352
-0.00213213 0.000632914 0.000642521 -8.59826e-05
-0.00142217 0.000420594 0.000429249 -0.000104079
-0.000717838 0.000204281 0.000220096 -0.000115917
-0.00143098 0.00040961 0.00043773 -0.000105563
-0.00142787 0.000417086 0.000433193 -0.000106122
-0.00212219 0.000633904 0.000637836 -8.36696e-05
-0.00210087 0.00063024 0.000630272 -8.06306e-05
-0.000709582 0.000206191 0.000215739 -0.000111861
-0.00071581 0.000206748 0.000218169 -0.000115902
-0.00211075 0.000632724 0.000633441 -8.16474e-05
-0.00140798 0.000419233 0.00042375 -9.98863e-05
-0.000713515 0.000207082 0.000217043 -0.000114308
-0.00142217 0.000420594 0.000429249 -0.000104079
-0.00141513 0.000420857 0.000426119 -0.000101692
-0.00210087 0.00063024 0.000630272 -8.06306e-05
-0.00208238 0.000622934 0.000625476 -7.97789e-05
-0.000701813 0.00020372 0.000213468 -0.00010659
-0.000709582 0.000206191 0.000215739 -0.000111861
-0.0020917 0.00062677 0.000627827 -8.0171e-05
-0.00139415 0.000414481 0.000419858 -9.61164e-05
-0.000705263 0.000205027 0.000214387 -0.000109117
-0.00140798 0.000419233 0.00042375 -9.98863e-05
-0.00140092 0.000417001 0.000421681 -9.80256e-05
-0.00208238 0.000622934 0.000625476 -7.97789e-05
-0.00206557 0.000615918 0.00062128 -7.94116e-05
-0.000695531 0.000200775 0.000212038 -0.000102397
-0.000701813 0.00020372 0.000213468 -0.00010659
-0.00207348 0.000619297 0.00062322 -7.9487e-05
-0.0013819 0.000409124 0.000416903 -9.34494e-05
-0.000698734 0.000202248 0.00021278 -0.00010434
-0.00139415 0.000414481 0.000419858 -9.61164e-05
-0.00138777 0.000411781 0.000418282 -9.45653e-05
-0.00206557 0.000615918 0.00062128 -7.94116e-05
-0.00205124 0.000609827 0.00061775 -7.94446e-05
-0.000689823 0.000198308 0.000210649 -9.94838e-05
-0.000695531 0.000200775 0.000212038 -0.000102397
-0.00205828 0.00061275 0.000619514 -7.94385e-05
-0.00137139 0.00040454 0.000414364 -9.17362e-05
-0.000692471 0.000199467 0.000211288 -0.000100771
-0.0013819 0.000409124 0.000416903 -9.34494e-05
-0.00137646 0.000406713 0.000415605 -9.25249e-05
-0.00205124 0.000609827 0.00061775 -7.94446e-05
-0.00203818 0.000604779 0.000614317 -7.94763e-05
-0.00068505 0.000196297 0.000209466 -9.76864e-05
-0.000689823 0.000198308 0.000210649 -9.94838e-05
-0.00204452 0.000607185 0.000616001 -7.94475e-05
-0.00136215 0.000400747 0.000412031 -9.07219e-05
-0.000687409 0.000197251 0.000210068 -9.84736e-05
-0.00137139 0.00040454 0.000414364 -9.17362e-05
-0.00136664 0.000402553 0.00041318 -9.11419e-05
-0.00203818 0.000604779 0.000614317 -7.94763e-05
-0.00202615 0.000600469 0.000611004 -7.95293e-05
-0.000680677 0.000194701 0.000208276 -9.66328e-05
-0.00068505 0.000196297 0.000209466 -9.76864e-05
-0.0020321 0.00060255 0.000612666 -7.95115e-05
-0.00135376 0.000397635 0.000409768 -9.01402e-05
-0.000682792 0.000195455 0.000208859 -9.70825e-05
-0.00136215 0.000400747 0.000412031 -9.07219e-05
-0.00135788 0.000399119 0.000410897 -9.03974e-05
-0.00202615 0.000600469 0.000611004 -7.95293e-05
-0.00201459 0.000596659 0.000607686 -7.95457e-05
-0.000676653 0.000193365 0.000207123 -9.60554e-05
-0.000680677 0.000194701 0.000208276 -9.66328e-05
-0.00202031 0.000598515 0.000609341 -7.95379e-05
-0.00134587 0.000394962 0.000407532 -8.98234e-05
-0.00067865 0.000194008 0.000207704 -9.63006e-05
-0.00135376 0.000397635 0.000409768 -9.01402e-05
-0.00134977 0.000396256 0.000408649 -8.99537e-05
-0.00201459 0.000596659 0.000607686 -7.95457e-05
-0.00200336 0.000593139 0.000604379 -7.95502e-05
-0.00067277 0.000192194 0.000205961 -9.575e-05
-0.000676653 0.000193365 0.000207123 -9.60554e-05
-0.00200896 0.000594872 0.000606036 -7.9551e-05
-0.00133826 0.000392564 0.000405297 -8.96522e-05
-0.000674691 0.000192764 0.00020654 -9.58772e-05
-0.00134587 0.000394962 0.000407532 -8.98234e-05
-0.00134204 0.000393737 0.000406415 -8.97264e-05
-0.00200336 0.000593139 0.000604379 -7.95502e-05
-0.00199226 0.000589785 0.000601059 -7.95414e-05
-0.000668983 0.000191112 0.000204802 -9.55968e-05
-0.00067277 0.000192194 0.000205961 -9.575e-05
-0.00199779 0.000591447 0.000602719 -7.95462e-05
-0.00133079 0.000390318 0.000403058 -8.95626e-05
-0.000670872 0.000191645 0.000205383 -9.56603e-05
-0.00133826 0.000392564 0.000405297 -8.96522e-05
-0.00133451 0.000391428 0.000404178 -8.95995e-05
-0.00199226 0.000589785 0.000601059 -7.95414e-05
-0.00198123 0.000586515 0.000597737 -7.95297e-05
-0.000665229 0.000190075 0.000203637 -9.55225e-05
-0.000668983 0.000191112 0.000204802 -9.55968e-05
-0.00198674 0.000588143 0.000599399 -7.9536e-05
-0.00132339 0.000388153 0.000400815 -8.95149e-05
-0.000667102 0.00019059 0.000204219 -9.55527e-05
-0.00133079 0.000390318 0.000403058 -8.95626e-05
-0.00132708 0.000389229 0.000401937 -8.95355e-05
-0.00198123 0.000586515 0.000597737 -7.95297e-05
-0.00197024 0.000583286 0.000594409 -7.95172e-05
-0.000661493 0.000189058 0.000202472 -9.5488e-05
-0.000665229 0.000190075 0.000203637 -9.55225e-05
-0.00197573 0.000584897 0.000596073 -7.95232e-05
-0.00131602 0.000386025 0.000398568 -8.94895e-05
-0.000663361 0.000189565 0.000203055 -9.5502e-05
-0.00132339 0.000388153 0.000400815 -8.95149e-05
-0.0013197 0.000387086 0.000399692 -8.95001e-05
-0.00197024 0.000583286 0.000594409 -7.95172e-05
-0.00195926 0.000580075 0.000591079 -7.95065e-05
-0.00065776 0.000188048 0.000201305 -9.54724e-05
-0.000661493 0.000189058 0.000202472 -9.5488e-05
-0.00196475 0.00058168 0.000592745 -7.95116e-05
-0.00130866 0.000383914 0.000396319 -8.94752e-05
-0.000659626 0.000188553 0.000201889 -9.54787e-05
-0.00131602 0.000386025 0.000398568 -8.94895e-05
-0.00131234 0.000384968 0.000397443 -8.94815e-05
-0.00195926 0.000580075 0.000591079 -7.95065e-05
-0.00194828 0.00057687 0.000587749 -7.94979e-05
-0.000654027 0.000187038 0.000200138 -9.54655e-05
-0.00065776 0.000188048 0.000201305 -9.54724e-05
-0.00195377 0.000578472 0.000589414 -7.95019e-05
-0.0013013 0.000381807 0.000394069 -8.9467e-05
-0.000655894 0.000187543 0.000200722 -9.54683e-05
-0.00130866 0.000383914 0.000396319 -8.94752e-05
-0.00130498 0.00038286 0.000395194 -8.94706e-05
-0.00194828 0.00057687 0.000587749 -7.94979e-05
-0.00193731 0.000573666 0.000584418 -7.94917e-05
-0.000650292 0.000186026 0.000198971 -9.54623e-05
-0.000654027 0.000187038 0.000200138 -9.54655e-05
-0.0019428 0.000575268 0.000586083 -7.94946e-05
-0.00129394 0.000379701 0.000391818 -8.9462e-05
-0.00065216 0.000186532 0.000199554 -9.54636e-05
-0.0013013 0.000381807 0.000394069 -8.9467e-05
-0.00129762 0.000380754 0.000392944 -8.94642e-05
-0.00193731 0.000573666 0.000584418 -7.94917e-05
-0.00192633 0.000570461 0.000581087 -7.94872e-05
-0.000646555 0.000185012 0.000197804 -9.54605e-05
-0.000650292 0.000186026 0.000198971 -9.54623e-05
-0.00193182 0.000572064 0.000582752 -7.94892e-05
-0.00128659 0.000377593 0.000389568 -8.94587e-05
-0.000648424 0.00018552 0.000198388 -9.54613e-05
-0.00129394 0.000379701 0.000391818 -8.9462e-05
-0.00129027 0.000378648 0.000390693 -8.94602e-05
-0.00192633 0.000570461 0.000581087 -7.94872e-05
-0.00191535 0.000567255 0.000577757 -7.94842e-05
-0.000642817 0.000183995 0.000196638 -9.54593e-05
-0.000646555 0.000185012 0.000197804 -9.54605e-05
-0.00192084 0.000568858 0.000579422 -7.94856e-05
-0.00127923 0.000375484 0.000387319 -8.94564e-05
-0.000644686 0.000184504 0.000197221 -9.54599e-05
-0.00128659 0.000377593 0.000389568 -8.94587e-05
-0.00128291 0.000376539 0.000388444 -8.94575e-05
-0.00191535 0.000567255 0.000577757 -7.94842e-05
-0.00190438 0.000564047 0.000574427 -7.94822e-05
-0.000639078 0.000182977 0.000195472 -9.54582e-05
-0.000642817 0.000183995 0.000196638 -9.54593e-05
-0.00190987 0.000565651 0.000576092 -7.94831e-05
-0.00127187 0.000373372 0.00038507 -8.94548e-05
-0.000640948 0.000183486 0.000196055 -9.54588e-05
-0.00127923 0.000375484 0.000387319 -8.94564e-05
-0.00127555 0.000374428 0.000386194 -8.94556e-05
-0.00190438 0.000564047 0.000574427 -7.94822e-05
-0.0018934 0.000560838 0.000571098 -7.94808e-05
-0.000635339 0.000181957 0.000194307 -9.54572e-05
-0.000639078 0.000182977 0.000195472 -9.54582e-05
-0.00189889 0.000562443 0.000572762 -7.94814e-05
-0.00126451 0.000371259 0.000382821 -8.94536e-05
-0.000637209 0.000182467 0.000194889 -9.54577e-05
-0.00127187 0.000373372 0.00038507 -8.94548e-05
-0.00126819 0.000372316 0.000383945 -8.94542e-05
-0.0018934 0.000560838 0.000571098 -7.94808e-05
-0.00188242 0.000557628 0.000567769 -7.94799e-05
-0.000631601 0.000180935 0.000193142 -9.54561e-05
-0.000635339 0.000181957 0.000194307 -9.54572e-05
-0.00188791 0.000559233 0.000569433 -7.94803e-05
-0.00125715 0.000369146 0.000380573 -8.94525e-05
-0.00063347 0.000181446 0.000193725 -9.54567e-05
-0.00126451 0.000371259 0.000382821 -8.94536e-05
-0.00126083 0.000370203 0.000381697 -8.9453e-05
-0.00188242 0.000557628 0.000567769 -7.94799e-05
-0.00187145 0.000554418 0.000564441 -7.94791e-05
-0.000627862 0.000179913 0.000191978 -9.5455e-05
-0.000631601 0.000180935 0.000193142 -9.54561e-05
-0.00187693 0.000556023 0.000566105 -7.94795e-05
-0.00124979 0.000367031 0.000378325 -8.94516e-05
-0.000629731 0.000180424 0.00019256 -9.54556e-05
-0.00125715 0.000369146 0.000380573 -8.94525e-05
-0.00125347 0.000368088 0.000379449 -8.94521e-05
-0.00187145 0.000554418 0.000564441 -7.94791e-05
-0.00186047 0.000551207 0.000561113 -7.94785e-05
-0.000624125 0.00017889 0.000190815 -9.54538e-05
-0.000627862 0.000179913 0.000191978 -9.5455e-05
-0.00186596 0.000552812 0.000562777 -7.94788e-05
-0.00124243 0.000364915 0.000376079 -8.94507e-05
-0.000625993 0.000179402 0.000191396 -9.54544e-05
-0.00124979 0.000367031 0.000378325 -8.94516e-05
-0.00124611 0.000365973 0.000377202 -8.94512e-05
-0.00186047 0.000551207 0.000561113 -7.94785e-05
-0.0018495 0.000547995 0.000557786 -7.9478e-05
-0.000620388 0.000177867 0.000189652 -9.54526e-05
-0.000624125 0.00017889 0.000190815 -9.54538e-05
-0.00185498 0.000549601 0.000559449 -7.94783e-05
-0.00123507 0.0003628 0.000373832 -8.94498e-05
-0.000622256 0.000178378 0.000190233 -9.54532e-05
-0.00124243 0.000364915 0.000376079 -8.94507e-05
-0.00123875 0.000363858 0.000374955 -8.94503e-05
-0.0018495 0.000547995 0.000557786 -7.9478e-05
-0.00183852 0.000544784 0.000554459 -7.94774e-05
-0.000616651 0.000176843 0.000188489 -9.54514e-05
-0.000620388 0.000177867 0.000189652 -9.54526e-05
-0.00184401 0.00054639 0.000556122 -7.94777e-05
-0.00122772 0.000360683 0.000371586 -8.94489e-05
-0.000618519 0.000177355 0.00018907 -9.5452e-05
-0.00123507 0.0003628 0.000373832 -8.94498e-05
-0.0012314 0.000361742 0.000372709 -8.94494e-05
-0.00183852 0.000544784 0.000554459 -7.94774e-05
-0.00182755 0.000541572 0.000551133 -7.94768e-05
-0.000612915 0.000175819 0.000187327 -9.54501e-05
-0.000616651 0.000176843 0.000188489 -9.54514e-05
-0.00183303 0.000543178 0.000552796 -7.94771e-05
-0.00122036 0.000358567 0.000369341 -8.94479e-05
-0.000614783 0.000176331 0.000187908 -9.54507e-05
-0.00122772 0.000360683 0.000371586 -8.94489e-05
-0.00122404 0.000359625 0.000370463 -8.94484e-05
-0.00182755 0.000541572 0.000551133 -7.94768e-05
-0.00181658 0.00053836 0.000547807 -7.94761e-05
-0.000609181 0.000174794 0.000186166 -9.54487e-05
-0.000612915 0.000175819 0.000187327 -9.54501e-05
-0.00182206 0.000539966 0.00054947 -7.94764e-05
-0.00121301 0.00035645 0.000367096 -8.94469e-05
-0.000611048 0.000175306 0.000186746 -9.54494e-05
-0.00122036 0.000358567 0.000369341 -8.94479e-05
-0.00121668 0.000357509 0.000368218 -8.94474e-05
-0.00181658 0.00053836 0.000547807 -7.94761e-05
-0.0018056 0.000535147 0.000544481 -7.94754e-05
-0.000605446 0.000173769 0.000185005 -9.54473e-05
-0.000609181 0.000174794 0.000186166 -9.54487e-05
-0.00181109 0.000536754 0.000546144 -7.94757e-05
-0.00120565 0.000354333 0.000364851 -8.94459e-05
-0.000607313 0.000174281 0.000185585 -9.5448e-05
-0.00121301 0.00035645 0.000367096 -8.94469e-05
-0.00120933 0.000355391 0.000365973 -8.94464e-05
-0.0018056 0.000535147 0.000544481 -7.94754e-05
-0.00179463 0.000531935 0.000541156 -7.94746e-05
-0.000601713 0.000172744 0.000183844 -9.54459e-05
-0.000605446 0.000173769 0.000185005 -9.54473e-05
-0.00180012 0.000533541 0.000542819 -7.9475e-05
-0.0011983 0.000352215 0.000362607 -8.94447e-05
-0.00060358 0.000173256 0.000184424 -9.54466e-05
-0.00120565 0.000354333 0.000364851 -8.94459e-05
-0.00120197 0.000353274 0.000363729 -8.94453e-05
-0.00179463 0.000531935 0.000541156 -7.94746e-05
-0.00178366 0.000528722 0.000537832 -7.94738e-05
-0.00059798 0.000171718 0.000182684 -9.54444e-05
-0.000601713 0.000172744 0.000183844 -9.54459e-05
-0.00178915 0.000530328 0.000539494 -7.94742e-05
-0.00119094 0.000350098 0.000360363 -8.94436e-05
-0.000599847 0.000172231 0.000183264 -9.54452e-05
-0.0011983 0.000352215 0.000362607 -8.94447e-05
-0.00119462 0.000351157 0.000361485 -8.94442e-05
-0.00178366 0.000528722 0.000537832 -7.94738e-05
-0.00177269 0.000525509 0.000534507 -7.94729e-05
-0.000594248 0.000170692 0.000181524 -9.54429e-05
-0.00059798 0.000171718 0.000182684 -9.54444e-05
-0.00177818 0.000527115 0.000536169 -7.94733e-05
-0.00118359 0.00034798 0.00035812 -8.94424e-05
-0.000596114 0.000171205 0.000182104 -9.54436e-05
-0.00119094 0.000350098 0.000360363 -8.94436e-05
-0.00118727 0.000349039 0.000359241 -8.9443e-05
-0.00177269 0.000525509 0.000534507 -7.94729e-05
-0.00176172 0.000522296 0.000531184 -7.9472e-05
-0.000590517 0.000169665 0.000180365 -9.54413e-05
-0.000594248 0.000170692 0.000181524 -9.54429e-05
-0.00176721 0.000523902 0.000532845 -7.94724e-05
-0.00117624 0.000345861 0.000355877 -8.94411e-05
-0.000592383 0.000170179 0.000180945 -9.54421e-05
-0.00118359 0.00034798 0.00035812 -8.94424e-05
-0.00117992 0.00034692 0.000356999 -8.94418e-05
-0.00176172 0.000522296 0.000531184 -7.9472e-05
-0.00175076 0.000519082 0.00052786 -7.9471e-05
-0.000586787 0.000168639 0.000179206 -9.54397e-05
-0.000590517 0.000169665 0.000180365 -9.54413e-05
-0.00175624 0.000520689 0.000529522 -7.94715e-05
-0.00116889 0.000343743 0.000353635 -8.94399e-05
-0.000588652 0.000169152 0.000179786 -9.54405e-05
-0.00117624 0.000345861 0.000355877 -8.94411e-05
-0.00117257 0.000344802 0.000354756 -8.94405e-05
-0.00175076 0.000519082 0.00052786 -7.9471e-05
-0.00173979 0.000515868 0.000524538 -7.94701e-05
-0.000583057 0.000167612 0.000178048 -9.5438e-05
-0.000586787 0.000168639 0.000179206 -9.54397e-05
-0.00174527 0.000517475 0.000526199 -7.94706e-05
-0.00116154 0.000341624 0.000351393 -8.94385e-05
-0.000584922 0.000168125 0.000178627 -9.54389e-05
-0.00116889 0.000343743 0.000353635 -8.94399e-05
-0.00116522 0.000342683 0.000352514 -8.94392e-05
-0.00173979 0.000515868 0.000524538 -7.94701e-05
-0.00172882 0.000512654 0.000521215 -7.94691e-05
-0.000579328 0.000166584 0.00017689 -9.54364e-05
-0.000583057 0.000167612 0.000178048 -9.5438e-05
-0.00173431 0.000514261 0.000522876 -7.94696e-05
-0.00115419 0.000339504 0.000349152 -8.94372e-05
-0.000581192 0.000167098 0.000177469 -9.54372e-05
-0.00116154 0.000341624 0.000351393 -8.94385e-05
-0.00115787 0.000340564 0.000350272 -8.94379e-05
-0.00172882 0.000512654 0.000521215 -7.94691e-05
-0.00171786 0.00050944 0.000517893 -7.9468e-05
-0.0005756 0.000165557 0.000175733 -9.54347e-05
-0.000579328 0.000166584 0.00017689 -9.54364e-05
-0.00172334 0.000511047 0.000519554 -7.94685e-05
-0.00114684 0.000337385 0.000346911 -8.94358e-05
-0.000577464 0.00016607 0.000176311 -9.54355e-05
-0.00115419 0.000339504 0.000349152 -8.94372e-05
-0.00115052 0.000338445 0.000348031 -8.94365e-05
-0.00171786 0.00050944 0.000517893 -7.9468e-05
-0.00170689 0.000506226 0.000514572 -7.9467e-05
-0.000571872 0.000164528 0.000174576 -9.54329e-05
-0.0005756 0.000165557 0.000175733 -9.54347e-05
-0.00171238 0.000507833 0.000516232 -7.94675e-05
-0.0011395 0.000335265 0.00034467 -8.94344e-05
-0.000573736 0.000165043 0.000175154 -9.54338e-05
-0.00114684 0.000337385 0.000346911 -8.94358e-05
-0.00114317 0.000336325 0.000345791 -8.94351e-05
-0.00170689 0.000506226 0.000514572 -7.9467e-05
-0.00169593 0.000503011 0.000511251 -7.94659e-05
-0.000568145 0.0001635 0.000173419 -9.54311e-05
-0.000571872 0.000164528 0.000174576 -9.54329e-05
-0.00170141 0.000504618 0.000512911 -7.94664e-05
-0.00113215 0.000333145 0.00034243 -8.94329e-05
-0.000570009 0.000164014 0.000173998 -9.5432e-05
-0.0011395 0.000335265 0.00034467 -8.94344e-05
-0.00113582 0.000334205 0.00034355 -8.94337e-05
-0.00169593 0.000503011 0.000511251 -7.94659e-05
-0.00168497 0.000499796 0.00050793 -7.94647e-05
-0.000564419 0.000162471 0.000172264 -9.54293e-05
-0.000568145 0.0001635 0.000173419 -9.54311e-05
-0.00169045 0.000501403 0.00050959 -7.94653e-05
-0.0011248 0.000331024 0.000340191 -8.94314e-05
-0.000566282 0.000162986 0.000172841 -9.54302e-05
-0.00113215 0.000333145 0.00034243 -8.94329e-05
-0.00112848 0.000332085 0.000341311 -8.94322e-05
-0.00168497 0.000499796 0.00050793 -7.94647e-05
-0.001674 0.000496581 0.00050461 -7.94636e-05
-0.000560694 0.000161442 0.000171108 -9.54275e-05
-0.000564419 0.000162471 0.000172264 -9.54293e-05
-0.00167948 0.000498188 0.00050627 -7.94642e-05
-0.00111746 0.000328904 0.000337952 -8.94299e-05
-0.000562557 0.000161957 0.000171686 -9.54284e-05
-0.0011248 0.000331024 0.000340191 -8.94314e-05
-0.00112113 0.000329964 0.000339071 -8.94307e-05
-0.001674 0.000496581 0.00050461 -7.94636e-05
-0.00166304 0.000493365 0.00050129 -7.94624e-05
-0.00055697 0.000160413 0.000169953 -9.54256e-05
-0.000560694 0.000161442 0.000171108 -9.54275e-05
-0.00166852 0.000494973 0.00050295 -7.9463e-05
-0.00111011 0.000326783 0.000335713 -8.94284e-05
-0.000558832 0.000160927 0.00017053 -9.54266e-05
-0.00111746 0.000328904 0.000337952 -8.94299e-05
-0.00111379 0.000327843 0.000336833 -8.94292e-05
-0.00166304 0.000493365 0.00050129 -7.94624e-05
-0.00165208 0.00049015 0.000497971 -7.94613e-05
-0.000553246 0.000159383 0.000168798 -9.54237e-05
-0.00055697 0.000160413 0.000169953 -9.54256e-05
-0.00165756 0.000491758 0.000499631 -7.94618e-05
-0.00110277 0.000324661 0.000333475 -8.94269e-05
-0.000555108 0.000159898 0.000169376 -9.54247e-05
-0.00111011 0.000326783 0.000335713 -8.94284e-05
-0.00110644 0.000325722 0.000334594 -8.94276e-05
-0.00165208 0.00049015 0.000497971 -7.94613e-05
-0.00164112 0.000486934 0.000494652 -7.946e-05
-0.000549523 0.000158352 0.000167644 -9.54218e-05
-0.000553246 0.000159383 0.000168798 -9.54237e-05
-0.0016466 0.000488542 0.000496312 -7.94607e-05
-0.00109543 0.00032254 0.000331238 -8.94253e-05
-0.000551384 0.000158868 0.000168221 -9.54228e-05
-0.00110277 0.000324661 0.000333475 -8.94269e-05
-0.0010991 0.0003236 0.000332356 -8.94261e-05
-0.00164112 0.000486934 0.000494652 -7.946e-05
-0.00163016 0.000483718 0.000491334 -7.94588e-05
-0.0005458 0.000157322 0.000166491 -9.54199e-05
-0.000549523 0.000158352 0.000167644 -9.54218e-05
-0.00163564 0.000485326 0.000492993 -7.94594e-05
-0.00108809 0.000320418 0.000329 -8.94237e-05
-0.000547661 0.000157837 0.000167067 -9.54208e-05
-0.00109543 0.00032254 0.000331238 -8.94253e-05
-0.00109176 0.000321479 0.000330119 -8.94245e-05
-0.00163016 0.000483718 0.000491334 -7.94588e-05
-0.00161921 0.000480502 0.000488016 -7.94576e-05
-0.000542079 0.000156291 0.000165338 -9.54179e-05
-0.0005458 0.000157322 0.000166491 -9.54199e-05
-0.00162468 0.00048211 0.000489675 -7.94582e-05
-0.00108074 0.000318295 0.000326764 -8.94221e-05
-0.000543939 0.000156806 0.000165914 -9.54189e-05
-0.00108809 0.000320418 0.000329 -8.94237e-05
-0.00108441 0.000319357 0.000327882 -8.94229e-05
-0.00161921 0.000480502 0.000488016 -7.94576e-05
-0.00160825 0.000477285 0.000484699 -7.94563e-05
-0.000538358 0.00015526 0.000164185 -9.54159e-05
-0.000542079 0.000156291 0.000165338 -9.54179e-05
-0.00161373 0.000478893 0.000486357 -7.94569e-05
-0.0010734 0.000316173 0.000324528 -8.94204e-05
-0.000540218 0.000155775 0.000164761 -9.54169e-05
-0.00108074 0.000318295 0.000326764 -8.94221e-05
-0.00107707 0.000317234 0.000325646 -8.94212e-05
-0.00160825 0.000477285 0.000484699 -7.94563e-05
-0.00159729 0.000474068 0.000481382 -7.9455e-05
-0.000534638 0.000154228 0.000163033 -9.54139e-05
-0.000538358 0.00015526 0.000164185 -9.54159e-05
-0.00160277 0.000475677 0.00048304 -7.94556e-05
-0.00106606 0.00031405 0.000322292 -8.94187e-05
-0.000536498 0.000154744 0.000163609 -9.54149e-05
-0.0010734 0.000316173 0.000324528 -8.94204e-05
-0.00106973 0.000315111 0.00032341 -8.94196e-05
-0.00159729 0.000474068 0.000481382 -7.9455e-05
-0.00158634 0.000470851 0.000478065 -7.94537e-05
-0.000530918 0.000153196 0.000161881 -9.54119e-05
-0.000534638 0.000154228 0.000163033 -9.54139e-05
-0.00159181 0.00047246 0.000479723 -7.94543e-05
-0.00105873 0.000311927 0.000320057 -8.9417e-05
-0.000532778 0.000153712 0.000162457 -9.54129e-05
-0.00106606 0.00031405 0.000322292 -8.94187e-05
-0.00106239 0.000312988 0.000321174 -8.94179e-05
-0.00158634 0.000470851 0.000478065 -7.94537e-05
-0.00157538 0.000467634 0.000474749 -7.94524e-05
-0.0005272 0.000152164 0.00016073 -9.54098e-05
-0.000530918 0.000153196 0.000161881 -9.54119e-05
-0.00158086 0.000469243 0.000476407 -7.9453e-05
-0.00105139 0.000309803 0.000317822 -8.94153e-05
-0.000529059 0.00015268 0.000161305 -9.54108e-05
-0.00105873 0.000311927 0.000320057 -8.9417e-05
-0.00105506 0.000310865 0.000318939 -8.94162e-05
-0.00157538 0.000467634 0.000474749 -7.94524e-05
-0.00156443 0.000464417 0.000471433 -7.9451e-05
-0.000523482 0.000151131 0.000159579 -9.54077e-05
-0.0005272 0.000152164 0.00016073 -9.54098e-05
-0.0015699 0.000466026 0.000473091 -7.94517e-05
-0.00104405 0.00030768 0.000315587 -8.94136e-05
-0.000525341 0.000151648 0.000160154 -9.54088e-05
-0.00105139 0.000309803 0.000317822 -8.94153e-05
-0.00104772 0.000308742 0.000316705 -8.94145e-05
-0.00156443 0.000464417 0.000471433 -7.9451e-05
-0.00155348 0.000461199 0.000468118 -7.94497e-05
-0.000519765 0.000150098 0.000158429 -9.54056e-05
-0.000523482 0.000151131 0.000159579 -9.54077e-05
-0.00155895 0.000462808 0.000469776 -7.94503e-05
-0.00103671 0.000305556 0.000313354 -8.94118e-05
-0.000521623 0.000150615 0.000159004 -9.54067e-05
-0.00104405 0.00030768 0.000315587 -8.94136e-05
-0.00104038 0.000306618 0.00031447 -8.94127e-05
-0.00155348 0.000461199 0.000468118 -7.94497e-05
-0.00154252 0.000457981 0.000464804 -7.94483e-05
-0.000516048 0.000149065 0.000157279 -9.54035e-05
-0.000519765 0.000150098 0.000158429 -9.54056e-05
-0.001548 0.00045959 0.000466461 -7.9449e-05
-0.00102938 0.000303431 0.00031112 -8.94101e-05
-0.000517906 0.000149581 0.000157854 -9.54046e-05
-0.00103671 0.000305556 0.000313354 -8.94118e-05
-0.00103305 0.000304494 0.000312237 -8.9411e-05
-0.00154252 0.000457981 0.000464804 -7.94483e-05
-0.00153157 0.000454763 0.000461489 -7.94469e-05
-0.000512333 0.000148031 0.000156129 -9.54014e-05
-0.000516048 0.000149065 0.000157279 -9.54035e-05
-0.00153705 0.000456372 0.000463146 -7.94476e-05
-0.00102204 0.000301307 0.000308887 -8.94083e-05
-0.00051419 0.000148548 0.000156704 -9.54024e-05
-0.00102938 0.000303431 0.00031112 -8.94101e-05
-0.00102571 0.000302369 0.000310004 -8.94092e-05
-0.00153157 0.000454763 0.000461489 -7.94469e-05
-0.00152062 0.000451545 0.000458176 -7.94455e-05
-0.000508618 0.000146997 0.00015498 -9.53992e-05
-0.000512333 0.000148031 0.000156129 -9.54014e-05
-0.0015261 0.000453154 0.000459832 -7.94462e-05
-0.00101471 0.000299182 0.000306655 -8.94065e-05
-0.000510475 0.000147514 0.000155555 -9.54003e-05
-0.00102204 0.000301307 0.000308887 -8.94083e-05
-0.00101838 0.000300244 0.000307771 -8.94074e-05
-0.00152062 0.000451545 0.000458176 -7.94455e-05
-0.00150967 0.000448327 0.000454862 -7.9444e-05
-0.000504904 0.000145963 0.000153832 -9.5397e-05
-0.000508618 0.000146997 0.00015498 -9.53992e-05
-0.00151515 0.000449936 0.000456519 -7.94448e-05
-0.00100738 0.000297057 0.000304423 -8.94047e-05
-0.000506761 0.00014648 0.000154406 -9.53981e-05
-0.00101471 0.000299182 0.000306655 -8.94065e-05
-0.00101104 0.000298119 0.000305539 -8.94056e-05
-0.00150967 0.000448327 0.000454862 -7.9444e-05
-0.00149872 0.000445108 0.000451549 -7.94426e-05
-0.00050119 0.000144928 0.000152684 -9.53948e-05
-0.000504904 0.000145963 0.000153832 -9.5397e-05
-0.0015042 0.000446717 0.000453206 -7.94433e-05
-0.00100004 0.000294931 0.000302191 -8.94028e-05
-0.000503047 0.000145445 0.000153258 -9.53959e-05
-0.00100738 0.000297057 0.000304423 -8.94047e-05
-0.00100371 0.000295994 0.000303307 -8.94038e-05
-0.00149872 0.000445108 0.000451549 -7.94426e-05
-0.00148778 0.000441889 0.000448237 -7.94412e-05
-0.000497477 0.000143893 0.000151536 -9.53926e-05
-0.00050119 0.000144928 0.000152684 -9.53948e-05
-0.00149325 0.000443498 0.000449893 -7.94419e-05
-0.000992713 0.000292805 0.00029996 -8.9401e-05
-0.000499334 0.00014441 0.00015211 -9.53937e-05
-0.00100004 0.000294931 0.000302191 -8.94028e-05
-0.000996378 0.000293868 0.000301076 -8.94019e-05
-0.00148778 0.000441889 0.000448237 -7.94412e-05
-0.00147683 0.00043867 0.000444925 -7.94397e-05
-0.000493766 0.000142857 0.000150389 -9.53904e-05
-0.000497477 0.000143893 0.000151536 -9.53926e-05
-0.0014823 0.000440279 0.000446581 -7.94404e-05
-0.000985382 0.000290679 0.00029773 -8.93991e-05
-0.000495621 0.000143375 0.000150963 -9.53915e-05
-0.000992713 0.000292805 0.00029996 -8.9401e-05
-0.000989047 0.000291742 0.000298845 -8.94001e-05
-0.00147683 0.00043867 0.000444925 -7.94397e-05
-0.00146588 0.00043545 0.000441614 -7.94382e-05
-0.000490054 0.000141821 0.000149243 -9.53882e-05
-0.000493766 0.000142857 0.000150389 -9.53904e-05
-0.00147136 0.00043706 0.000443269 -7.9439e-05
-0.000978052 0.000288553 0.0002955 -8.93972e-05
-0.00049191 0.000142339 0.000149816 -9.53893e-05
-0.000985382 0.000290679 0.00029773 -8.93991e-05
-0.000981717 0.000289616 0.000296615 -8.93982e-05
-0.00146588 0.00043545 0.000441614 -7.94382e-05
-0.00145494 0.000432231 0.000438303 -7.94367e-05
-0.000486344 0.000140785 0.000148097 -9.53859e-05
-0.000490054 0.000141821 0.000149243 -9.53882e-05
-0.00146041 0.000433841 0.000439958 -7.94375e-05
-0.000970723 0.000286426 0.00029327 -8.93954e-05
-0.000488199 0.000141303 0.00014867 -9.53871e-05
-0.000978052 0.000288553 0.0002955 -8.93972e-05
-0.000974388 0.00028749 0.000294385 -8.93963e-05
-0.00145494 0.000432231 0.000438303 -7.94367e-05
-0.00144399 0.000429011 0.000434992 -7.94352e-05
-0.000482634 0.000139749 0.000146951 -9.53837e-05
-0.000486344 0.000140785 0.000148097 -9.53859e-05
-0.00144946 0.000430621 0.000436647 -7.9436e-05
-0.000963395 0.000284299 0.000291041 -8.93934e-05
-0.000484489 0.000140267 0.000147524 -9.53848e-05
-0.000970723 0.000286426 0.00029327 -8.93954e-05
-0.000967059 0.000285363 0.000292155 -8.93944e-05
-0.00144399 0.000429011 0.000434992 -7.94352e-05
-0.00143305 0.000425791 0.000431682 -7.94337e-05
-0.000478925 0.000138712 0.000145806 -9.53814e-05
-0.000482634 0.000139749 0.000146951 -9.53837e-05
-0.00143852 0.000427401 0.000433337 -7.94345e-05
-0.000956068 0.000282172 0.000288812 -8.93915e-05
-0.00048078 0.00013923 0.000146378 -9.53825e-05
-0.000963395 0.000284299 0.000291041 -8.93934e-05
-0.000959731 0.000283236 0.000289927 -8.93925e-05
-0.00143305 0.000425791 0.000431682 -7.94337e-05
-0.00142211 0.000422571 0.000428372 -7.94322e-05
-0.000475217 0.000137675 0.000144661 -9.53791e-05
-0.000478925 0.000138712 0.000145806 -9.53814e-05
-0.00142758 0.000424181 0.000430027 -7.9433e-05
-0.000948741 0.000280045 0.000286584 -8.93896e-05
-0.000477071 0.000138193 0.000145233 -9.53803e-05
-0.000956068 0.000282172 0.000288812 -8.93915e-05
-0.000952404 0.000281109 0.000287698 -8.93906e-05
-0.00142211 0.000422571 0.000428372 -7.94322e-05
-0.00141116 0.00041935 0.000425063 -7.94307e-05
-0.00047151 0.000136637 0.000143517 -9.53768e-05
-0.000475217 0.000137675 0.000144661 -9.53791e-05
-0.00141664 0.000420961 0.000426718 -7.94315e-05
-0.000941415 0.000277917 0.000284356 -8.93877e-05
-0.000473364 0.000137156 0.000144089 -9.5378e-05
-0.000948741 0.000280045 0.000286584 -8.93896e-05
-0.000945078 0.000278981 0.00028547 -8.93886e-05
-0.00141116 0.00041935 0.000425063 -7.94307e-05
-0.00140022 0.00041613 0.000421755 -7.94292e-05
-0.000467803 0.000135599 0.000142373 -9.53745e-05
-0.00047151 0.000136637 0.000143517 -9.53768e-05
-0.00140569 0.00041774 0.000423409 -7.94299e-05
-0.00093409 0.000275789 0.000282129 -8.93857e-05
-0.000469657 0.000136118 0.000142945 -9.53757e-05
-0.000941415 0.000277917 0.000284356 -8.93877e-05
-0.000937753 0.000276853 0.000283243 -8.93867e-05
-0.00140022 0.00041613 0.000421755 -7.94292e-05
-0.00138928 0.000412909 0.000418447 -7.94276e-05
-0.000464097 0.000134561 0.00014123 -9.53722e-05
-0.000467803 0.000135599 0.000142373 -9.53745e-05
-0.00139475 0.000414519 0.000420101 -7.94284e-05
-0.000926766 0.00027366 0.000279902 -8.93838e-05
-0.00046595 0.00013508 0.000141801 -9.53734e-05
-0.00093409 0.000275789 0.000282129 -8.93857e-05
-0.000930428 0.000274725 0.000281016 -8.93848e-05
-0.00138928 0.000412909 0.000418447 -7.94276e-05
-0.00137834 0.000409688 0.000415139 -7.94261e-05
-0.000460392 0.000133522 0.000140087 -9.53699e-05
-0.000464097 0.000134561 0.00014123 -9.53722e-05
-0.00138381 0.000411298 0.000416793 -7.94268e-05
-0.000919443 0.000271532 0.000277676 -8.93818e-05
-0.000462245 0.000134042 0.000140658 -9.5371e-05
-0.000926766 0.00027366 0.000279902 -8.93838e-05
-0.000923104 0.000272596 0.000278789 -8.93828e-05
-0.00137834 0.000409688 0.000415139 -7.94261e-05
-0.00136741 0.000406466 0.000411832 -7.94245e-05
-0.000456688 0.000132483 0.000138945 -9.53675e-05
-0.000460392 0.000133522 0.000140087 -9.53699e-05
-0.00137288 0.000408077 0.000413485 -7.94253e-05
-0.00091212 0.000269403 0.00027545 -8.93798e-05
-0.00045854 0.000133003 0.000139516 -9.53687e-05
-0.000919443 0.000271532 0.000277676 -8.93818e-05
-0.000915782 0.000270467 0.000276563 -8.93808e-05
-0.00136741 0.000406466 0.000411832 -7.94245e-05
-0.00135647 0.000403245 0.000408525 -7.94229e-05
-0.000452984 0.000131444 0.000137803 -9.53652e-05
-0.000456688 0.000132483 0.000138945 -9.53675e-05
-0.00136194 0.000404856 0.000410178 -7.94237e-05
-0.000904799 0.000267274 0.000273225 -8.93779e-05
-0.000454836 0.000131964 0.000138374 -9.53664e-05
-0.00091212 0.000269403 0.00027545 -8.93798e-05
-0.00090846 0.000268338 0.000274338 -8.93789e-05
-0.00135647 0.000403245 0.000408525 -7.94229e-05
-0.00134553 0.000400023 0.000405218 -7.94214e-05
-0.000449281 0.000130405 0.000136662 -9.53629e-05
-0.000452984 0.000131444 0.000137803 -9.53652e-05
-0.001351 0.000401634 0.000406872 -7.94222e-05
-0.000897478 0.000265144 0.000271 -8.93759e-05
-0.000451133 0.000130924 0.000137232 -9.5364e-05
-0.000904799 0.000267274 0.000273225 -8.93779e-05
-0.000901138 0.000266209 0.000272113 -8.93769e-05
-0.00134553 0.000400023 0.000405218 -7.94214e-05
-0.0013346 0.000396801 0.000401913 -7.94198e-05
-0.000445579 0.000129365 0.000135521 -9.53605e-05
-0.000449281 0.000130405 0.000136662 -9.53629e-05
-0.00134006 0.000398412 0.000403565 -7.94206e-05
-0.000890158 0.000263014 0.000268776 -8.93739e-05
-0.00044743 0.000129885 0.000136091 -9.53617e-05
-0.000897478 0.000265144 0.000271 -8.93759e-05
-0.000893818 0.000264079 0.000269888 -8.93749e-05
-0.0013346 0.000396801 0.000401913 -7.94198e-05
-0.00132366 0.000393579 0.000398607 -7.94182e-05
-0.000441878 0.000128324 0.00013438 -9.53582e-05
-0.000445579 0.000129365 0.000135521 -9.53605e-05
-0.00132913 0.00039519 0.00040026 -7.9419e-05
-0.000882839 0.000260884 0.000266552 -8.93719e-05
-0.000443729 0.000128844 0.00013495 -9.53593e-05
-0.000890158 0.000263014 0.000268776 -8.93739e-05
-0.000886498 0.000261949 0.000267664 -8.93729e-05
-0.00132366 0.000393579 0.000398607 -7.94182e-05
-0.00131273 0.000390357 0.000395302 -7.94166e-05
-0.000438177 0.000127284 0.00013324 -9.53558e-05
-0.000441878 0.000128324 0.00013438 -9.53582e-05
-0.0013182 0.000391968 0.000396955 -7.94174e-05
-0.000875521 0.000258754 0.000264329 -8.93699e-05
-0.000440028 0.000127804 0.00013381 -9.5357e-05
-0.000882839 0.000260884 0.000266552 -8.93719e-05
-0.00087918 0.000259819 0.00026544 -8.93709e-05
-0.00131273 0.000390357 0.000395302 -7.94166e-05
-0.0013018 0.000387134 0.000391998 -7.94151e-05
-0.000434478 0.000126243 0.000132101 -9.53534e-05
-0.000438177 0.000127284 0.00013324 -9.53558e-05
-0.00130726 0.000388745 0.00039365 -7.94159e-05
-0.000868203 0.000256623 0.000262106 -8.93679e-05
-0.000436327 0.000126763 0.00013267 -9.53546e-05
-0.000875521 0.000258754 0.000264329 -8.93699e-05
-0.000871862 0.000257688 0.000263217 -8.93689e-05
-0.0013018 0.000387134 0.000391998 -7.94151e-05
-0.00129086 0.000383911 0.000388694 -7.94135e-05
-0.000430778 0.000125201 0.000130962 -9.53511e-05
-0.000434478 0.000126243 0.000132101 -9.53534e-05
-0.00129633 0.000385523 0.000390346 -7.94143e-05
-0.000860886 0.000254492 0.000259883 -8.93659e-05
-0.000432628 0.000125722 0.000131531 -9.53522e-05
-0.000868203 0.000256623 0.000262106 -8.93679e-05
-0.000864545 0.000255557 0.000260994 -8.93669e-05
-0.00129086 0.000383911 0.000388694 -7.94135e-05
-0.00127993 0.000380688 0.00038539 -7.94119e-05
-0.00042708 0.00012416 0.000129823 -9.53487e-05
-0.000430778 0.000125201 0.000130962 -9.53511e-05
-0.0012854 0.0003823 0.000387042 -7.94127e-05
-0.000853571 0.000252361 0.000257661 -8.93639e-05
-0.000428929 0.00012468 0.000130392 -9.53499e-05
-0.000860886 0.000254492 0.000259883 -8.93659e-05
-0.000857228 0.000253426 0.000258772 -8.93649e-05
-0.00127993 0.000380688 0.00038539 -7.94119e-05
-0.001269 0.000377465 0.000382087 -7.94103e-05
-0.000423383 0.000123117 0.000128685 -9.53463e-05
-0.00042708 0.00012416 0.000129823 -9.53487e-05
-0.00127447 0.000379077 0.000383739 -7.94111e-05
-0.000846255 0.000250229 0.00025544 -8.93619e-05
-0.000425231 0.000123639 0.000129254 -9.53475e-05
-0.000853571 0.000252361 0.000257661 -8.93639e-05
-0.000849913 0.000251295 0.000256551 -8.93629e-05
-0.001269 0.000377465 0.000382087 -7.94103e-05
-0.00125807 0.000374242 0.000378785 -7.94087e-05
-0.000419686 0.000122075 0.000127547 -9.53439e-05
-0.000423383 0.000123117 0.000128685 -9.53463e-05
-0.00126354 0.000375853 0.000380436 -7.94095e-05
-0.000838941 0.000248097 0.000253219 -8.93599e-05
-0.000421534 0.000122596 0.000128116 -9.53451e-05
-0.000846255 0.000250229 0.00025544 -8.93619e-05
-0.000842598 0.000249163 0.000254329 -8.93609e-05
-0.00125807 0.000374242 0.000378785 -7.94087e-05
-0.00124714 0.000371018 0.000375483 -7.94071e-05
-0.00041599 0.000121032 0.00012641 -9.53416e-05
-0.000419686 0.000122075 0.000127547 -9.53439e-05
-0.00125261 0.00037263 0.000377134 -7.94079e-05
-0.000831628 0.000245965 0.000250998 -8.93579e-05
-0.000417838 0.000121554 0.000126979 -9.53427e-05
-0.000838941 0.000248097 0.000253219 -8.93599e-05
-0.000835285 0.000247031 0.000252109 -8.93589e-05
-0.00124714 0.000371018 0.000375483 -7.94071e-05
-0.00123622 0.000367794 0.000372181 -7.94055e-05
-0.000412294 0.000119989 0.000125274 -9.53392e-05
-0.00041599 0.000121032 0.00012641 -9.53416e-05
-0.00124168 0.000369406 0.000373832 -7.94063e-05
-0.000824315 0.000243833 0.000248778 -8.93559e-05
-0.000414142 0.000120511 0.000125842 -9.53404e-05
-0.000831628 0.000245965 0.000250998 -8.93579e-05
-0.000827972 0.000244899 0.000249888 -8.93569e-05
-0.00123622 0.000367794 0.000372181 -7.94055e-05
-0.00122529 0.00036457 0.00036888 -7.94039e-05
-0.0004086 0.000118946 0.000124137 -9.53368e-05
-0.000412294 0.000119989 0.000125274 -9.53392e-05
-0.00123075 0.000366182 0.00037053 -7.94047e-05
-0.000817004 0.0002417 0.000246559 -8.93538e-05
-0.000410447 0.000119468 0.000124706 -9.5338e-05
-0.000824315 0.000243833 0.000248778 -8.93559e-05
-0.000820659 0.000242766 0.000247668 -8.93549e-05
-0.00122529 0.00036457 0.00036888 -7.94039e-05
-0.00121436 0.000361346 0.000365579 -7.94023e-05
-0.000404906 0.000117902 0.000123002 -9.53344e-05
-0.0004086 0.000118946 0.000124137 -9.53368e-05
-0.00121983 0.000362958 0.000367229 -7.94031e-05
-0.000809693 0.000239567 0.00024434 -8.93518e-05
-0.000406753 0.000118424 0.00012357 -9.53356e-05
-0.000817004 0.0002417 0.000246559 -8.93538e-05
-0.000813348 0.000240633 0.000245449 -8.93528e-05
-0.00121436 0.000361346 0.000365579 -7.94023e-05
-0.00120344 0.000358121 0.000362279 -7.94007e-05
-0.000401213 0.000116858 0.000121867 -9.5332e-05
-0.000404906 0.000117902 0.000123002 -9.53344e-05
-0.0012089 0.000359734 0.000363929 -7.94015e-05
-0.000802383 0.000237434 0.000242121 -8.93498e-05
-0.000403059 0.00011738 0.000122434 -9.53332e-05
-0.000809693 0.000239567 0.00024434 -8.93518e-05
-0.000806038 0.0002385 0.00024323 -8.93508e-05
-0.00120344 0.000358121 0.000362279 -7.94007e-05
-0.00119251 0.000354897 0.000358979 -7.93991e-05
-0.000397521 0.000115813 0.000120732 -9.53297e-05
-0.000401213 0.000116858 0.000121867 -9.5332e-05
-0.00119798 0.000356509 0.000360629 -7.93999e-05
-0.000795074 0.0002353 0.000239903 -8.93478e-05
-0.000399367 0.000116336 0.000121299 -9.53309e-05
-0.000802383 0.000237434 0.000242121 -8.93498e-05
-0.000798728 0.000236367 0.000241012 -8.93488e-05
-0.00119251 0.000354897 0.000358979 -7.93991e-05
-0.00118159 0.000351672 0.00035568 -7.93975e-05
-0.000393829 0.000114768 0.000119597 -9.53273e-05
-0.000397521 0.000115813 0.000120732 -9.53297e-05
-0.00118705 0.000353284 0.000357329 -7.93983e-05
-0.000787765 0.000233166 0.000237685 -8.93458e-05
-0.000395675 0.000115291 0.000120165 -9.53285e-05
-0.000795074 0.0002353 0.000239903 -8.93478e-05
-0.000791419 0.000234233 0.000238794 -8.93468e-05
-0.00118159 0.000351672 0.00035568 -7.93975e-05
-0.00117067 0.000348447 0.000352381 -7.9396e-05
-0.000390138 0.000113723 0.000118464 -9.53249e-05
-0.000393829 0.000114768 0.000119597 -9.53273e-05
-0.00117613 0.000350059 0.00035403 -7.93967e-05
-0.000780458 0.000231032 0.000235468 -8.93438e-05
-0.000391984 0.000114246 0.000119031 -9.53261e-05
-0.000787765 0.000233166 0.000237685 -8.93458e-05
-0.000784111 0.000232099 0.000236577 -8.93448e-05
-0.00117067 0.000348447 0.000352381 -7.9396e-05
-0.00115975 0.000345221 0.000349083 -7.93944e-05
-0.000386448 0.000112678 0.00011733 -9.53226e-05
-0.000390138 0.000113723 0.000118464 -9.53249e-05
-0.00116521 0.000346834 0.000350732 -7.93952e-05
-0.000773151 0.000228898 0.000233251 -8.93418e-05
-0.000388293 0.000113201 0.000117897 -9.53237e-05
-0.000780458 0.000231032 0.000235468 -8.93438e-05
-0.000776804 0.000229965 0.00023436 -8.93428e-05
-0.00115975 0.000345221 0.000349083 -7.93944e-05
-0.00114883 0.000341996 0.000345785 -7.93928e-05
-0.000382759 0.000111632 0.000116197 -9.53202e-05
-0.000386448 0.000112678 0.00011733 -9.53226e-05
-0.00115429 0.000343608 0.000347434 -7.93936e-05
-0.000765845 0.000226763 0.000231035 -8.93398e-05
-0.000384604 0.000112155 0.000116764 -9.53214e-05
-0.000773151 0.000228898 0.000233251 -8.93418e-05
-0.000769498 0.00022783 0.000232143 -8.93408e-05
-0.00114883 0.000341996 0.000345785 -7.93928e-05
-0.00113791 0.00033877 0.000342487 -7.93912e-05
-0.000379071 0.000110586 0.000115065 -9.53178e-05
-0.000382759 0.000111632 0.000116197 -9.53202e-05
-0.00114337 0.000340383 0.000344136 -7.9392e-05
-0.00075854 0.000224628 0.000228819 -8.93378e-05
-0.000380915 0.000111109 0.000115631 -9.5319e-05
-0.000765845 0.000226763 0.000231035 -8.93398e-05
-0.000762192 0.000225695 0.000229927 -8.93388e-05
-0.00113791 0.00033877 0.000342487 -7.93912e-05
-0.00112699 0.000335544 0.00033919 -7.93896e-05
-0.000375383 0.000109539 0.000113933 -9.53155e-05
-0.000379071 0.000110586 0.000115065 -9.53178e-05
-0.00113245 0.000337157 0.000340839 -7.93904e-05
-0.000751236 0.000222492 0.000226604 -8.93358e-05
-0.000377227 0.000110062 0.000114499 -9.53167e-05
-0.00075854 0.000224628 0.000228819 -8.93378e-05
-0.000754888 0.00022356 0.000227712 -8.93368e-05
-0.00112699 0.000335544 0.00033919 -7.93896e-05
-0.00111607 0.000332318 0.000335894 -7.93881e-05
-0.000371696 0.000108492 0.000112802 -9.53132e-05
-0.000375383 0.000109539 0.000113933 -9.53155e-05
-0.00112153 0.000333931 0.000337542 -7.93889e-05
-0.000743932 0.000220357 0.000224389 -8.93338e-05
-0.000373539 0.000109016 0.000113367 -9.53143e-05
-0.000751236 0.000222492 0.000226604 -8.93358e-05
-0.000747584 0.000221425 0.000225497 -8.93348e-05
-0.00111607 0.000332318 0.000335894 -7.93881e-05
-0.00110515 0.000329091 0.000332598 -7.93865e-05
-0.00036801 0.000107445 0.000111671 -9.53108e-05
-0.000371696 0.000108492 0.000112802 -9.53132e-05
-0.00111061 0.000330705 0.000334246 -7.93873e-05
-0.00073663 0.000218221 0.000222175 -8.93319e-05
-0.000369853 0.000107969 0.000112236 -9.5312e-05
-0.000743932 0.000220357 0.000224389 -8.93338e-05
-0.000740281 0.000219289 0.000223282 -8.93329e-05
-0.00110515 0.000329091 0.000332598 -7.93865e-05
-0.00109424 0.000325865 0.000329302 -7.9385e-05
-0.000364324 0.000106397 0.00011054 -9.53085e-05
-0.00036801 0.000107445 0.000111671 -9.53108e-05
-0.00109969 0.000327478 0.00033095 -7.93857e-05
-0.000729328 0.000216085 0.000219961 -8.93299e-05
-0.000366167 0.000106921 0.000111105 -9.53096e-05
-0.00073663 0.000218221 0.000222175 -8.93319e-05
-0.000732979 0.000217153 0.000221068 -8.93309e-05
-0.00109424 0.000325865 0.000329302 -7.9385e-05
-0.00108332 0.000322638 0.000326007 -7.93834e-05
-0.00036064 0.000105349 0.00010941 -9.53062e-05
-0.000364324 0.000106397 0.00011054 -9.53085e-05
-0.00108878 0.000324251 0.000327655 -7.93842e-05
-0.000722027 0.000213948 0.000217748 -8.93279e-05
-0.000362482 0.000105873 0.000109975 -9.53073e-05
-0.000729328 0.000216085 0.000219961 -8.93299e-05
-0.000725677 0.000215017 0.000218855 -8.93289e-05
-0.00108332 0.000322638 0.000326007 -7.93834e-05
-0.00107241 0.000319411 0.000322713 -7.93819e-05
-0.000356956 0.000104301 0.00010828 -9.53038e-05
-0.00036064 0.000105349 0.00010941 -9.53062e-05
-0.00107786 0.000321024 0.00032436 -7.93826e-05
-0.000714727 0.000211811 0.000215535 -8.9326e-05
-0.000358797 0.000104825 0.000108845 -9.5305e-05
-0.000722027 0.000213948 0.000217748 -8.93279e-05
-0.000718377 0.00021288 0.000216641 -8.9327e-05
-0.00107241 0.000319411 0.000322713 -7.93819e-05
-0.00106149 0.000316184 0.000319419 -7.93803e-05
-0.000353272 0.000103252 0.000107151 -9.53015e-05
-0.000356956 0.000104301 0.00010828 -9.53038e-05
-0.00106695 0.000317797 0.000321066 -7.93811e-05
-0.000707427 0.000209674 0.000213323 -8.9324e-05
-0.000355114 0.000103777 0.000107716 -9.53027e-05
-0.000714727 0.000211811 0.000215535 -8.9326e-05
-0.000711077 0.000210743 0.000214429 -8.9325e-05
-0.00106149 0.000316184 0.000319419 -7.93803e-05
-0.00105058 0.000312956 0.000316125 -7.93788e-05
-0.00034959 0.000102203 0.000106023 -9.52992e-05
-0.000353272 0.000103252 0.000107151 -9.53015e-05
-0.00105604 0.00031457 0.000317772 -7.93796e-05
-0.000700129 0.000207537 0.000211111 -8.93221e-05
-0.000351431 0.000102728 0.000106587 -9.53004e-05
-0.000707427 0.000209674 0.000213323 -8.9324e-05
-0.000703778 0.000208606 0.000212217 -8.93231e-05
-0.00105058 0.000312956 0.000316125 -7.93788e-05
-0.00103967 0.000309728 0.000312832 -7.93773e-05
-0.000345908 0.000101154 0.000104895 -9.5297e-05
-0.00034959 0.000102203 0.000106023 -9.52992e-05
-0.00104512 0.000311342 0.000314478 -7.9378e-05
-0.000692831 0.000205399 0.000208899 -8.93202e-05
-0.000347749 0.000101679 0.000105459 -9.52981e-05
-0.000700129 0.000207537 0.000211111 -8.93221e-05
-0.00069648 0.000206468 0.000210005 -8.93211e-05
-0.00103967 0.000309728 0.000312832 -7.93773e-05
-0.00102876 0.0003065 0.000309539 -7.93758e-05
-0.000342227 0.000100104 0.000103767 -9.52947e-05
-0.000345908 0.000101154 0.000104895 -9.5297e-05
-0.00103421 0.000308114 0.000311185 -7.93765e-05
-0.000685534 0.000203262 0.000206688 -8.93183e-05
-0.000344068 0.000100629 0.000104331 -9.52958e-05
-0.000692831 0.000205399 0.000208899 -8.93202e-05
-0.000689183 0.000204331 0.000207794 -8.93192e-05
-0.00102876 0.0003065 0.000309539 -7.93758e-05
-0.00101785 0.000303272 0.000306247 -7.93743e-05
-0.000338547 9.90544e-05 0.00010264 -9.52924e-05
-0.000342227 0.000100104 0.000103767 -9.52947e-05
-0.0010233 0.000304886 0.000307893 -7.9375e-05
-0.000678238 0.000201123 0.000204478 -8.93163e-05
-0.000340387 9.95794e-05 0.000103203 -9.52935e-05
-0.000685534 0.000203262 0.000206688 -8.93183e-05
-0.000681886 0.000202192 0.000205583 -8.93173e-05
-0.00101785 0.000303272 0.000306247 -7.93743e-05
-0.00100694 0.000300044 0.000302955 -7.93728e-05
-0.000334868 9.8004e-05 0.000101513 -9.52901e-05
-0.000338547 9.90544e-05 0.00010264 -9.52924e-05
-0.00101239 0.000301658 0.000304601 -7.93735e-05
-0.000670943 0.000198985 0.000202268 -8.93145e-05
-0.000336707 9.85292e-05 0.000102076 -9.52913e-05
-0.000678238 0.000201123 0.000204478 -8.93163e-05
-0.000674591 0.000200054 0.000203373 -8.93154e-05
-0.00100694 0.000300044 0.000302955 -7.93728e-05
-0.00099603 0.000296815 0.000299663 -7.93713e-05
-0.000331189 9.69533e-05 0.000100387 -9.52879e-05
-0.000334868 9.8004e-05 0.000101513 -9.52901e-05
-0.00100148 0.00029843 0.000301309 -7.9372e-05
-0.000663649 0.000196846 0.000200058 -8.93126e-05
-0.000333028 9.74787e-05 0.00010095 -9.5289e-05
-0.000670943 0.000198985 0.000202268 -8.93145e-05
-0.000667296 0.000197915 0.000201163 -8.93135e-05
-0.00099603 0.000296815 0.000299663 -7.93713e-05
-0.000985123 0.000293587 0.000296373 -7.93698e-05
-0.000327511 9.59022e-05 9.92609e-05 -9.52857e-05
-0.000331189 9.69533e-05 0.000100387 -9.52879e-05
-0.000990576 0.000295201 0.000298018 -7.93705e-05
-0.000656355 0.000194707 0.000197849 -8.93107e-05
-0.00032935 9.64278e-05 9.98237e-05 -9.52868e-05
-0.000663649 0.000196846 0.000200058 -8.93126e-05
-0.000660002 0.000195776 0.000198954 -8.93116e-05
-0.000985123 0.000293587 0.000296373 -7.93698e-05
-0.000974216 0.000290358 0.000293082 -7.93683e-05
-0.000323834 9.48507e-05 9.81355e-05 -9.52835e-05
-0.000327511 9.59022e-05 9.92609e-05 -9.52857e-05
-0.000979669 0.000291972 0.000294727 -7.93691e-05
-0.000649062 0.000192568 0.000195641 -8.93088e-05
-0.000325672 9.53765e-05 9.86981e-05 -9.52846e-05
-0.000656355 0.000194707 0.000197849 -8.93107e-05
-0.000652709 0.000193637 0.000196745 -8.93098e-05
-0.000974216 0.000290358 0.000293082 -7.93683e-05
-0.00096331 0.000287129 0.000289792 -7.93669e-05
-0.000320157 9.3799e-05 9.70107e-05 -9.52812e-05
-0.000323834 9.48507e-05 9.81355e-05 -9.52835e-05
-0.000968763 0.000288743 0.000291437 -7.93676e-05
-0.00064177 0.000190428 0.000193433 -8.9307e-05
-0.000321995 9.43249e-05 9.7573e-05 -9.52823e-05
-0.000649062 0.000192568 0.000195641 -8.93088e-05
-0.000645416 0.000191498 0.000194537 -8.93079e-05
-0.00096331 0.000287129 0.000289792 -7.93669e-05
-0.000952405 0.000283899 0.000286503 -7.93654e-05
-0.000316481 9.27468e-05 9.58863e-05 -9.52791e-05
-0.000320157 9.3799e-05 9.70107e-05 -9.52812e-05
-0.000957858 0.000285514 0.000288147 -7.93662e-05
-0.000634479 0.000188288 0.000191225 -8.93051e-05
-0.000318319 9.32729e-05 9.64484e-05 -9.52801e-05
-0.00064177 0.000190428 0.000193433 -8.9307e-05
-0.000638125 0.000189358 0.000192329 -8.9306e-05
-0.000952405 0.000283899 0.000286503 -7.93654e-05
-0.000941501 0.000280669 0.000283214 -7.9364e-05
-0.000312807 9.16944e-05 9.47623e-05 -9.52769e-05
-0.000316481 9.27468e-05 9.58863e-05 -9.52791e-05
-0.000946953 0.000282284 0.000284858 -7.93647e-05
-0.000627189 0.000186148 0.000189018 -8.93033e-05
-0.000314644 9.22206e-05 9.53243e-05 -9.5278e-05
-0.000634479 0.000188288 0.000191225 -8.93051e-05
-0.000630834 0.000187218 0.000190121 -8.93042e-05
-0.000941501 0.000280669 0.000283214 -7.9364e-05
-0.000930598 0.00027744 0.000279925 -7.93626e-05
-0.000309132 9.06415e-05 9.36389e-05 -9.52747e-05
-0.000312807 9.16944e-05 9.47623e-05 -9.52769e-05
-0.00093605 0.000279055 0.000281569 -7.93633e-05
-0.000619899 0.000184007 0.000186811 -8.93015e-05
-0.000310969 9.1168e-05 9.42006e-05 -9.52758e-05
-0.000627189 0.000186148 0.000189018 -8.93033e-05
-0.000623544 0.000185077 0.000187914 -8.93024e-05
-0.000930598 0.00027744 0.000279925 -7.93626e-05
-0.000919696 0.00027421 0.000276637 -7.93612e-05
-0.000305459 8.95884e-05 9.25159e-05 -9.52726e-05
-0.000309132 9.06415e-05 9.36389e-05 -9.52747e-05
-0.000925147 0.000275825 0.000278281 -7.93619e-05
-0.000612611 0.000181866 0.000184605 -8.92997e-05
-0.000307295 9.0115e-05 9.30773e-05 -9.52736e-05
-0.000619899 0.000184007 0.000186811 -8.93015e-05
-0.000616255 0.000182937 0.000185708 -8.93006e-05
-0.000919696 0.00027421 0.000276637 -7.93612e-05
-0.000908794 0.000270979 0.000273349 -7.93598e-05
-0.000301786 8.85348e-05 9.13934e-05 -9.52704e-05
-0.000305459 8.95884e-05 9.25159e-05 -9.52726e-05
-0.000914245 0.000272594 0.000274993 -7.93605e-05
-0.000605323 0.000179725 0.000182399 -8.92979e-05
-0.000303622 8.90616e-05 9.19546e-05 -9.52715e-05
-0.000612611 0.000181866 0.000184605 -8.92997e-05
-0.000608967 0.000180796 0.000183502 -8.92988e-05
-0.000908794 0.000270979 0.000273349 -7.93598e-05
-0.000897894 0.000267749 0.000270062 -7.93584e-05
-0.000298114 8.7481e-05 9.02713e-05 -9.52683e-05
-0.000301786 8.85348e-05 9.13934e-05 -9.52704e-05
-0.000903344 0.000269364 0.000271706 -7.93591e-05
-0.000598036 0.000177584 0.000180194 -8.92961e-05
-0.00029995 8.80079e-05 9.08323e-05 -9.52694e-05
-0.000605323 0.000179725 0.000182399 -8.92979e-05
-0.000601679 0.000178654 0.000181296 -8.9297e-05
-0.000897894 0.000267749 0.000270062 -7.93584e-05
-0.000886994 0.000264518 0.000266775 -7.9357e-05
-0.000294443 8.64267e-05 8.91498e-05 -9.52662e-05
-0.000298114 8.7481e-05 9.02713e-05 -9.52683e-05
-0.000892444 0.000266133 0.000268419 -7.93577e-05
-0.00059075 0.000175442 0.000177989 -8.92944e-05
-0.000296278 8.69539e-05 8.97105e-05 -9.52672e-05
-0.000598036 0.000177584 0.000180194 -8.92961e-05
-0.000594393 0.000176513 0.000179091 -8.92953e-05
-0.000886994 0.000264518 0.000266775 -7.9357e-05
-0.000876095 0.000261287 0.000263489 -7.93557e-05
-0.000290772 8.53722e-05 8.80287e-05 -9.52641e-05
-0.000294443 8.64267e-05 8.91498e-05 -9.52662e-05
-0.000881544 0.000262903 0.000265132 -7.93564e-05
-0.000583464 0.0001733 0.000175785 -8.92926e-05
-0.000292608 8.58995e-05 8.85892e-05 -9.52651e-05
-0.00059075 0.000175442 0.000177989 -8.92944e-05
-0.000587107 0.000174371 0.000176887 -8.92935e-05
-0.000876095 0.000261287 0.000263489 -7.93557e-05
-0.000865197 0.000258056 0.000260203 -7.93543e-05
-0.000287103 8.43173e-05 8.6908e-05 -9.5262e-05
-0.000290772 8.53722e-05 8.80287e-05 -9.52641e-05
-0.000870646 0.000259671 0.000261846 -7.9355e-05
-0.000576179 0.000171158 0.000173581 -8.92909e-05
-0.000288937 8.48448e-05 8.74683e-05 -9.52631e-05
-0.000583464 0.0001733 0.000175785 -8.92926e-05
-0.000579822 0.000172229 0.000174683 -8.92918e-05
-0.000865197 0.000258056 0.000260203 -7.93543e-05
-0.000854299 0.000254824 0.000256918 -7.9353e-05
-0.000283434 8.3262e-05 8.57878e-05 -9.526e-05
-0.000287103 8.43173e-05 8.6908e-05 -9.5262e-05
-0.000859748 0.00025644 0.00025856 -7.93537e-05
-0.000568896 0.000169015 0.000171377 -8.92892e-05
-0.000285268 8.37897e-05 8.63479e-05 -9.5261e-05
-0.000576179 0.000171158 0.000173581 -8.92909e-05
-0.000572537 0.000170086 0.000172479 -8.92901e-05
-0.000854299 0.000254824 0.000256918 -7.9353e-05
-0.000843403 0.000251593 0.000253633 -7.93517e-05
-0.000279765 8.22064e-05 8.46681e-05 -9.5258e-05
-0.000283434 8.3262e-05 8.57878e-05 -9.526e-05
-0.000848851 0.000253209 0.000255275 -7.93524e-05
-0.000561612 0.000166872 0.000169174 -8.92875e-05
-0.000281599 8.27342e-05 8.52279e-05 -9.5259e-05
-0.000568896 0.000169015 0.000171377 -8.92892e-05
-0.000565254 0.000167943 0.000170276 -8.92884e-05
-0.000843403 0.000251593 0.000253633 -7.93517e-05
-0.000832507 0.000248361 0.000250349 -7.93504e-05
-0.000276098 8.11504e-05 8.35489e-05 -9.52559e-05
-0.000279765 8.22064e-05 8.46681e-05 -9.5258e-05
-0.000837955 0.000249977 0.000251991 -7.93511e-05
-0.00055433 0.000164729 0.000166972 -8.92858e-05
-0.000277931 8.16784e-05 8.41085e-05 -9.52569e-05
-0.000561612 0.000166872 0.000169174 -8.92875e-05
-0.000557971 0.0001658 0.000168073 -8.92867e-05
-0.000832507 0.000248361 0.000250349 -7.93504e-05
-0.000821613 0.000245129 0.000247065 -7.93491e-05
-0.000272431 8.00941e-05 8.24301e-05 -9.52539e-05
-0.000276098 8.11504e-05 8.35489e-05 -9.52559e-05
-0.00082706 0.000246745 0.000248706 -7.93498e-05
-0.000547049 0.000162585 0.00016477 -8.92842e-05
-0.000274264 8.06223e-05 8.29895e-05 -9.52549e-05
-0.00055433 0.000164729 0.000166972 -8.92858e-05
-0.000550689 0.000163657 0.000165871 -8.9285e-05
-0.000821613 0.000245129 0.000247065 -7.93491e-05
-0.000810719 0.000241897 0.000243781 -7.93479e-05
-0.000268765 7.90374e-05 8.13118e-05 -9.5252e-05
-0.000272431 8.00941e-05 8.24301e-05 -9.52539e-05
-0.000816166 0.000243513 0.000245423 -7.93485e-05
-0.000539768 0.000160441 0.000162569 -8.92825e-05
-0.000270598 7.95658e-05 8.18709e-05 -9.52529e-05
-0.000547049 0.000162585 0.00016477 -8.92842e-05
-0.000543408 0.000161513 0.000163669 -8.92834e-05
-0.000810719 0.000241897 0.000243781 -7.93479e-05
-0.000799826 0.000238664 0.000240498 -7.93466e-05
-0.0002651 7.79804e-05 8.0194e-05 -9.525e-05
-0.000268765 7.90374e-05 8.13118e-05 -9.5252e-05
-0.000805272 0.00024028 0.000242139 -7.93472e-05
-0.000532488 0.000158297 0.000160367 -8.92809e-05
-0.000266932 7.85089e-05 8.07528e-05 -9.5251e-05
-0.000539768 0.000160441 0.000162569 -8.92825e-05
-0.000536128 0.000159369 0.000161468 -8.92817e-05
-0.000799826 0.000238664 0.000240498 -7.93466e-05
-0.000788933 0.000235431 0.000237215 -7.93454e-05
-0.000261435 7.6923e-05 7.90766e-05 -9.52481e-05
-0.0002651 7.79804e-05 8.0194e-05 -9.525e-05
-0.000794379 0.000237048 0.000238856 -7.9346e-05
-0.000525209 0.000156153 0.000158167 -8.92793e-05
-0.000263267 7.74517e-05 7.96352e-05 -9.5249e-05
-0.000532488 0.000158297 0.000160367 -8.92809e-05
-0.000528849 0.000157225 0.000159267 -8.92801e-05
-0.000788933 0.000235431 0.000237215 -7.93454e-05
-0.000778042 0.000232198 0.000233933 -7.93442e-05
-0.000257771 7.58653e-05 7.79597e-05 -9.52461e-05
-0.000261435 7.6923e-05 7.90766e-05 -9.52481e-05
-0.000783488 0.000233815 0.000235574 -7.93448e-05
-0.000517931 0.000154008 0.000155967 -8.92777e-05
-0.000259603 7.63942e-05 7.85181e-05 -9.52471e-05
-0.000525209 0.000156153 0.000158167 -8.92793e-05
-0.00052157 0.000155081 0.000157067 -8.92785e-05
-0.000778042 0.000232198 0.000233933 -7.93442e-05
-0.000767151 0.000228965 0.000230651 -7.9343e-05
-0.000254108 7.48072e-05 7.68433e-05 -9.52442e-05
-0.000257771 7.58653e-05 7.79597e-05 -9.52461e-05
-0.000772597 0.000230582 0.000232292 -7.93436e-05
-0.000510653 0.000151863 0.000153767 -8.92762e-05
-0.00025594 7.53363e-05 7.74014e-05 -9.52452e-05
-0.000517931 0.000154008 0.000155967 -8.92777e-05
-0.000514292 0.000152936 0.000154867 -8.9277e-05
-0.000767151 0.000228965 0.000230651 -7.9343e-05
-0.000756262 0.000225732 0.00022737 -7.93418e-05
-0.000250446 7.37488e-05 7.57273e-05 -9.52424e-05
-0.000254108 7.48072e-05 7.68433e-05 -9.52442e-05
-0.000761706 0.000227348 0.000229011 -7.93424e-05
-0.000503377 0.000149718 0.000151568 -8.92746e-05
-0.000252277 7.4278e-05 7.62852e-05 -9.52433e-05
-0.000510653 0.000151863 0.000153767 -8.92762e-05
-0.000507015 0.000150791 0.000152668 -8.92754e-05
-0.000756262 0.000225732 0.00022737 -7.93418e-05
-0.000745373 0.000222498 0.000224089 -7.93406e-05
-0.000246784 7.269e-05 7.46118e-05 -9.52405e-05
-0.000250446 7.37488e-05 7.57273e-05 -9.52424e-05
-0.000750817 0.000224115 0.00022573 -7.93412e-05
-0.000496101 0.000147572 0.000149369 -8.92731e-05
-0.000248615 7.32194e-05 7.51695e-05 -9.52414e-05
-0.000503377 0.000149718 0.000151568 -8.92746e-05
-0.000499739 0.000148645 0.000150469 -8.92739e-05
-0.000745373 0.000222498 0.000224089 -7.93406e-05
-0.000734485 0.000219264 0.000220809 -7.93395e-05
-0.000243123 7.16309e-05 7.34968e-05 -9.52387e-05
-0.000246784 7.269e-05 7.46118e-05 -9.52405e-05
-0.000739929 0.000220881 0.000222449 -7.93401e-05
-0.000488826 0.000145426 0.000147171 -8.92716e-05
-0.000244954 7.21605e-05 7.40542e-05 -9.52396e-05
-0.000496101 0.000147572 0.000149369 -8.92731e-05
-0.000492463 0.000146499 0.00014827 -8.92724e-05
-0.000734485 0.000219264 0.000220809 -7.93395e-05
-0.000723597 0.00021603 0.000217529 -7.93384e-05
-0.000239463 7.05714e-05 7.23822e-05 -9.52369e-05
-0.000243123 7.16309e-05 7.34968e-05 -9.52387e-05
-0.000729041 0.000217647 0.000219169 -7.93389e-05
-0.000481551 0.00014328 0.000144973 -8.92701e-05
-0.000241293 7.11012e-05 7.29394e-05 -9.52378e-05
-0.000488826 0.000145426 0.000147171 -8.92716e-05
-0.000485188 0.000144353 0.000146072 -8.92709e-05
-0.000723597 0.00021603 0.000217529 -7.93384e-05
-0.000712711 0.000212795 0.000214249 -7.93373e-05
-0.000235804 6.95115e-05 7.12681e-05 -9.52351e-05
-0.000239463 7.05714e-05 7.23822e-05 -9.52369e-05
-0.000718154 0.000214413 0.000215889 -7.93378e-05
-0.000474278 0.000141134 0.000142776 -8.92687e-05
-0.000237633 7.00415e-05 7.18251e-05 -9.5236e-05
-0.000481551 0.00014328 0.000144973 -8.92701e-05
-0.000477914 0.000142207 0.000143875 -8.92694e-05
-0.000712711 0.000212795 0.000214249 -7.93373e-05
-0.000701825 0.000209561 0.00021097 -7.93362e-05
-0.000232145 6.84513e-05 7.01544e-05 -9.52333e-05
-0.000235804 6.95115e-05 7.12681e-05 -9.52351e-05
-0.000707268 0.000211178 0.00021261 -7.93367e-05
-0.000467005 0.000138987 0.000140579 -8.92672e-05
-0.000233974 6.89815e-05 7.07112e-05 -9.52342e-05
-0.000474278 0.000141134 0.000142776 -8.92687e-05
-0.000470641 0.00014006 0.000141677 -8.92679e-05
-0.000701825 0.000209561 0.00021097 -7.93362e-05
-0.00069094 0.000206326 0.000207692 -7.93351e-05
-0.000228487 6.73908e-05 6.90413e-05 -9.52316e-05
-0.000232145 6.84513e-05 7.01544e-05 -9.52333e-05
-0.000696383 0.000207943 0.000209331 -7.93356e-05
-0.000459733 0.00013684 0.000138383 -8.92658e-05
-0.000230316 6.79211e-05 6.95978e-05 -9.52324e-05
-0.000467005 0.000138987 0.000140579 -8.92672e-05
-0.000463369 0.000137913 0.000139481 -8.92665e-05
-0.00069094 0.000206326 0.000207692 -7.93351e-05
-0.000680056 0.000203091 0.000204414 -7.93341e-05
-0.00022483 6.63299e-05 6.79285e-05 -9.52298e-05
-0.000228487 6.73908e-05 6.90413e-05 -9.52316e-05
-0.000685498 0.000204708 0.000206053 -7.93346e-05
-0.000452462 0.000134692 0.000136187 -8.92644e-05
-0.000226658 6.68604e-05 6.84848e-05 -9.52307e-05
-0.000459733 0.00013684 0.000138383 -8.92658e-05
-0.000456097 0.000135766 0.000137285 -8.92651e-05
-0.000680056 0.000203091 0.000204414 -7.93341e-05
-0.000669173 0.000199856 0.000201136 -7.9333e-05
-0.000221173 6.52686e-05 6.68163e-05 -9.52282e-05
-0.00022483 6.63299e-05 6.79285e-05 -9.52298e-05
-0.000674614 0.000201473 0.000202775 -7.93335e-05
-0.000445191 0.000132545 0.000133991 -8.9263e-05
-0.000223001 6.57993e-05 6.73724e-05 -9.5229e-05
-0.000452462 0.000134692 0.000136187 -8.92644e-05
-0.000448826 0.000133619 0.000135089 -8.92637e-05
-0.000669173 0.000199856 0.000201136 -7.9333e-05
-0.00065829 0.00019662 0.000197859 -7.9332e-05
-0.000217518 6.4207e-05 6.57045e-05 -9.52265e-05
-0.000221173 6.52686e-05 6.68163e-05 -9.52282e-05
-0.000663732 0.000198238 0.000199497 -7.93325e-05
-0.000437921 0.000130397 0.000131796 -8.92617e-05
-0.000219345 6.47379e-05 6.62603e-05 -9.52273e-05
-0.000445191 0.000132545 0.000133991 -8.9263e-05
-0.000441556 0.000131471 0.000132894 -8.92624e-05
-0.00065829 0.00019662 0.000197859 -7.9332e-05
-0.000647409 0.000193384 0.000194582 -7.9331e-05
-0.000213862 6.31451e-05 6.45932e-05 -9.52248e-05
-0.000217518 6.4207e-05 6.57045e-05 -9.52265e-05
-0.000652849 0.000195002 0.00019622 -7.93315e-05
-0.000430653 0.000128248 0.000129602 -8.92604e-05
-0.00021569 6.36761e-05 6.51488e-05 -9.52257e-05
-0.000437921 0.000130397 0.000131796 -8.92617e-05
-0.000434287 0.000129323 0.000130699 -8.9261e-05
-0.000647409 0.000193384 0.000194582 -7.9331e-05
-0.000636528 0.000190148 0.000191306 -7.93301e-05
-0.000210208 6.20828e-05 6.34823e-05 -9.52232e-05
-0.000213862 6.31451e-05 6.45932e-05 -9.52248e-05
-0.000641968 0.000191766 0.000192944 -7.93305e-05
-0.000423384 0.0001261 0.000127408 -8.9259e-05
-0.000212035 6.2614e-05 6.40377e-05 -9.5224e-05
-0.000430653 0.000128248 0.000129602 -8.92604e-05
-0.000427018 0.000127174 0.000128505 -8.92597e-05
-0.000636528 0.000190148 0.000191306 -7.93301e-05
-0.000625648 0.000186912 0.00018803 -7.93291e-05
-0.000206555 6.10201e-05 6.23719e-05 -9.52216e-05
-0.000210208 6.20828e-05 6.34823e-05 -9.52232e-05
-0.000631088 0.00018853 0.000189668 -7.93296e-05
-0.000416117 0.000123951 0.000125214 -8.92578e-05
-0.000208381 6.15515e-05 6.2927e-05 -9.52224e-05
-0.000423384 0.0001261 0.000127408 -8.9259e-05
-0.000419751 0.000125025 0.000126311 -8.92584e-05
-0.000625648 0.000186912 0.00018803 -7.93291e-05
-0.000614768 0.000183676 0.000184754 -7.93282e-05
-0.000202902 5.99571e-05 6.1262e-05 -9.522e-05
-0.000206555 6.10201e-05 6.23719e-05 -9.52216e-05
-0.000620208 0.000185294 0.000186392 -7.93286e-05
-0.00040885 0.000121802 0.000123021 -8.92565e-05
-0.000204728 6.04886e-05 6.18169e-05 -9.52208e-05
-0.000416117 0.000123951 0.000125214 -8.92578e-05
-0.000412484 0.000122876 0.000124117 -8.92571e-05
-0.000614768 0.000183676 0.000184754 -7.93282e-05
-0.00060389 0.000180439 0.000181479 -7.93273e-05
-0.00019925 5.88937e-05 6.01525e-05 -9.52185e-05
-0.000202902 5.99571e-05 6.1262e-05 -9.522e-05
-0.000609329 0.000182057 0.000183117 -7.93277e-05
-0.000401585 0.000119652 0.000120828 -8.92553e-05
-0.000201075 5.94254e-05 6.07072e-05 -9.52193e-05
-0.00040885 0.000121802 0.000123021 -8.92565e-05
-0.000405217 0.000120727 0.000121924 -8.92559e-05
-0.00060389 0.000180439 0.000181479 -7.93273e-05
-0.000593012 0.000177202 0.000178204 -7.93264e-05
-0.000195598 5.783e-05 5.90435e-05 -9.5217e-05
-0.00019925 5.88937e-05 6.01525e-05 -9.52185e-05
-0.000598451 0.00017882 0.000179842 -7.93268e-05
-0.000394319 0.000117502 0.000118636 -8.92541e-05
-0.000197424 5.83619e-05 5.95979e-05 -9.52177e-05
-0.000401585 0.000119652 0.000120828 -8.92553e-05
-0.000397952 0.000118577 0.000119732 -8.92547e-05
-0.000593012 0.000177202 0.000178204 -7.93264e-05
-0.000582135 0.000173965 0.00017493 -7.93255e-05
-0.000191947 5.67659e-05 5.79349e-05 -9.52155e-05
-0.000195598 5.783e-05 5.90435e-05 -9.5217e-05
-0.000587574 0.000175583 0.000176567 -7.9326e-05
-0.000387055 0.000115352 0.000116444 -8.92529e-05
-0.000193773 5.7298e-05 5.84891e-05 -9.52162e-05
-0.000394319 0.000117502 0.000118636 -8.92541e-05
-0.000390687 0.000116427 0.00011754 -8.92535e-05
-0.000582135 0.000173965 0.00017493 -7.93255e-05
-0.000571259 0.000170727 0.000171657 -7.93247e-05
-0.000188297 5.57014e-05 5.68268e-05 -9.5214e-05
-0.000191947 5.67659e-05 5.79349e-05 -9.52155e-05
-0.000576697 0.000172346 0.000173293 -7.93251e-05
-0.000379792 0.000113202 0.000114253 -8.92517e-05
-0.000190122 5.62337e-05 5.73808e-05 -9.52147e-05
-0.000387055 0.000115352 0.000116444 -8.92529e-05
-0.000383423 0.000114277 0.000115348 -8.92523e-05
-0.000571259 0.000170727 0.000171657 -7.93247e-05
-0.000560384 0.000167489 0.000168383 -7.93239e-05
-0.000184648 5.46366e-05 5.57192e-05 -9.52126e-05
-0.000188297 5.57014e-05 5.68268e-05 -9.5214e-05
-0.000565821 0.000169108 0.00017002 -7.93243e-05
-0.000372529 0.000111051 0.000112062 -8.92506e-05
-0.000186473 5.51691e-05 5.6273e-05 -9.52133e-05
-0.000379792 0.000113202 0.000114253 -8.92517e-05
-0.00037616 0.000112126 0.000113157 -8.92511e-05
-0.000560384 0.000167489 0.000168383 -7.93239e-05
-0.000549509 0.000164251 0.00016511 -7.93231e-05
-0.000181 5.35714e-05 5.4612e-05 -9.52112e-05
-0.000184648 5.46366e-05 5.57192e-05 -9.52126e-05
-0.000554946 0.00016587 0.000166747 -7.93235e-05
-0.000365267 0.0001089 0.000109872 -8.92495e-05
-0.000182824 5.41041e-05 5.51656e-05 -9.52119e-05
-0.000372529 0.000111051 0.000112062 -8.92506e-05
-0.000368898 0.000109975 0.000110967 -8.925e-05
-0.000549509 0.000164251 0.00016511 -7.93231e-05
-0.000538635 0.000161013 0.000161838 -7.93223e-05
-0.000177352 5.25059e-05 5.35053e-05 -9.52098e-05
-0.000181 5.35714e-05 5.4612e-05 -9.52112e-05
-0.000544072 0.000162632 0.000163474 -7.93227e-05
-0.000358005 0.000106748 0.000107682 -8.92484e-05
-0.000179175 5.30387e-05 5.40586e-05 -9.52105e-05
-0.000365267 0.0001089 0.000109872 -8.92495e-05
-0.000361636 0.000107824 0.000108776 -8.92489e-05
-0.000538635 0.000161013 0.000161838 -7.93223e-05
-0.000527762 0.000157775 0.000158566 -7.93216e-05
-0.000173705 5.14401e-05 5.23991e-05 -9.52084e-05
-0.000177352 5.25059e-05 5.35053e-05 -9.52098e-05
-0.000533199 0.000159394 0.000160202 -7.93219e-05
-0.000350745 0.000104597 0.000105492 -8.92473e-05
-0.000175528 5.1973e-05 5.29521e-05 -9.52091e-05
-0.000358005 0.000106748 0.000107682 -8.92484e-05
-0.000354375 0.000105673 0.000106587 -8.92479e-05
-0.000527762 0.000157775 0.000158566 -7.93216e-05
-0.00051689 0.000154536 0.000155294 -7.93208e-05
-0.000170058 5.03738e-05 5.12933e-05 -9.52071e-05
-0.000173705 5.14401e-05 5.23991e-05 -9.52084e-05
-0.000522326 0.000156155 0.00015693 -7.93212e-05
-0.000343485 0.000102445 0.000103303 -8.92463e-05
-0.000171881 5.0907e-05 5.18461e-05 -9.52077e-05
-0.000350745 0.000104597 0.000105492 -8.92473e-05
-0.000347115 0.000103521 0.000104397 -8.92468e-05
-0.00051689 0.000154536 0.000155294 -7.93208e-05
-0.000506018 0.000151297 0.000152023 -7.93201e-05
-0.000166412 4.93072e-05 5.01879e-05 -9.52058e-05
-0.000170058 5.03738e-05 5.12933e-05 -9.52071e-05
-0.000511454 0.000152917 0.000153659 -7.93205e-05
-0.000336226 0.000100292 0.000101114 -8.92453e-05
-0.000168235 4.98406e-05 5.07405e-05 -9.52064e-05
-0.000343485 0.000102445 0.000103303 -8.92463e-05
-0.000339855 0.000101368 0.000102209 -8.92458e-05
-0.000506018 0.000151297 0.000152023 -7.93201e-05
-0.000495147 0.000148058 0.000148753 -7.93195e-05
-0.000162767 4.82403e-05 4.90831e-05 -9.52045e-05
-0.000166412 4.93072e-05 5.01879e-05 -9.52058e-05
-0.000500583 0.000149678 0.000150388 -7.93198e-05
-0.000328967 9.81396e-05 9.89262e-05 -8.92443e-05
-0.00016459 4.87738e-05 4.96354e-05 -9.52051e-05
-0.000336226 0.000100292 0.000101114 -8.92453e-05
-0.000332597 9.9216e-05 0.00010002 -8.92448e-05
-0.000495147 0.000148058 0.000148753 -7.93195e-05
-0.000484277 0.000144818 0.000145482 -7.93188e-05
-0.000159123 4.7173e-05 4.79786e-05 -9.52033e-05
-0.000162767 4.82403e-05 4.90831e-05 -9.52045e-05
-0.000489712 0.000146438 0.000147117 -7.93191e-05
-0.00032171 9.59866e-05 9.67385e-05 -8.92434e-05
-0.000160945 4.77067e-05 4.85308e-05 -9.52039e-05
-0.000328967 9.81396e-05 9.89262e-05 -8.92443e-05
-0.000325339 9.70632e-05 9.78323e-05 -8.92438e-05
-0.000484277 0.000144818 0.000145482 -7.93188e-05
-0.000473408 0.000141579 0.000142213 -7.93182e-05
-0.00015548 4.61053e-05 4.68747e-05 -9.5202e-05
-0.000159123 4.7173e-05 4.79786e-05 -9.52033e-05
-0.000478843 0.000143199 0.000143847 -7.93185e-05
-0.000314453 9.38333e-05 9.45513e-05 -8.92424e-05
-0.000157301 4.66392e-05 4.74266e-05 -9.52027e-05
-0.00032171 9.59866e-05 9.67385e-05 -8.92434e-05
-0.000318081 9.491e-05 9.56449e-05 -8.92429e-05
-0.000473408 0.000141579 0.000142213 -7.93182e-05
-0.000462539 0.000138339 0.000138943 -7.93176e-05
-0.000151837 4.50373e-05 4.57712e-05 -9.52009e-05
-0.00015548 4.61053e-05 4.68747e-05 -9.5202e-05
-0.000467974 0.000139959 0.000140578 -7.93179e-05
-0.000307197 9.16798e-05 9.23645e-05 -8.92415e-05
-0.000153658 4.55713e-05 4.63229e-05 -9.52014e-05
-0.000314453 9.38333e-05 9.45513e-05 -8.92424e-05
-0.000310825 9.27566e-05 9.34578e-05 -8.9242e-05
-0.000462539 0.000138339 0.000138943 -7.93176e-05
-0.000451672 0.000135099 0.000135674 -7.9317e-05
-0.000148195 4.39689e-05 4.46681e-05 -9.51997e-05
-0.000151837 4.50373e-05 4.57712e-05 -9.52009e-05
-0.000457105 0.000136719 0.000137309 -7.93173e-05
-0.000299942 8.95258e-05 9.01781e-05 -8.92407e-05
-0.000150016 4.45031e-05 4.52196e-05 -9.52003e-05
-0.000307197 9.16798e-05 9.23645e-05 -8.92415e-05
-0.000303569 9.06028e-05 9.12713e-05 -8.92411e-05
-0.000451672 0.000135099 0.000135674 -7.9317e-05
-0.000440804 0.000131858 0.000132406 -7.93164e-05
-0.000144553 4.29001e-05 4.35655e-05 -9.51986e-05
-0.000148195 4.39689e-05 4.46681e-05 -9.51997e-05
-0.000446238 0.000133478 0.00013404 -7.93167e-05
-0.000292687 8.73716e-05 8.79922e-05 -8.92398e-05
-0.000146374 4.34346e-05 4.41168e-05 -9.51991e-05
-0.000299942 8.95258e-05 9.01781e-05 -8.92407e-05
-0.000296314 8.84488e-05 8.90851e-05 -8.92402e-05
-0.000440804 0.000131858 0.000132406 -7.93164e-05
-0.000429938 0.000128617 0.000129137 -7.93159e-05
-0.000140912 4.1831e-05 4.24634e-05 -9.51975e-05
-0.000144553 4.29001e-05 4.35655e-05 -9.51986e-05
-0.000435371 0.000130238 0.000130771 -7.93162e-05
-0.000285433 8.52171e-05 8.58068e-05 -8.9239e-05
-0.000142733 4.23656e-05 4.30144e-05 -9.5198e-05
-0.000292687 8.73716e-05 8.79922e-05 -8.92398e-05
-0.00028906 8.62944e-05 8.68995e-05 -8.92394e-05
-0.000429938 0.000128617 0.000129137 -7.93159e-05
-0.000419072 0.000125376 0.00012587 -7.93154e-05
-0.000137272 4.07616e-05 4.13617e-05 -9.51964e-05
-0.000140912 4.1831e-05 4.24634e-05 -9.51975e-05
-0.000424505 0.000126997 0.000127504 -7.93156e-05
-0.00027818 8.30622e-05 8.36218e-05 -8.92382e-05
-0.000139092 4.12963e-05 4.19125e-05 -9.51969e-05
-0.000285433 8.52171e-05 8.58068e-05 -8.9239e-05
-0.000281806 8.41397e-05 8.47142e-05 -8.92386e-05
-0.000419072 0.000125376 0.00012587 -7.93154e-05
-0.000408208 0.000122135 0.000122602 -7.93149e-05
-0.000133633 3.96917e-05 4.02605e-05 -9.51954e-05
-0.000137272 4.07616e-05 4.13617e-05 -9.51964e-05
-0.00041364 0.000123756 0.000124236 -7.93152e-05
-0.000270927 8.0907e-05 8.14372e-05 -8.92375e-05
-0.000135453 4.02267e-05 4.08111e-05 -9.51959e-05
-0.00027818 8.30622e-05 8.36218e-05 -8.92382e-05
-0.000274553 8.19847e-05 8.25295e-05 -8.92378e-05
-0.000408208 0.000122135 0.000122602 -7.93149e-05
-0.000397343 0.000118894 0.000119336 -7.93145e-05
-0.000129994 3.86215e-05 3.91598e-05 -9.51944e-05
-0.000133633 3.96917e-05 4.02605e-05 -9.51954e-05
-0.000402775 0.000120515 0.000120969 -7.93147e-05
-0.000263675 7.87515e-05 7.92531e-05 -8.92367e-05
-0.000131814 3.91567e-05 3.97101e-05 -9.51949e-05
-0.000270927 8.0907e-05 8.14372e-05 -8.92375e-05
-0.000267301 7.98293e-05 8.03451e-05 -8.92371e-05
-0.000397343 0.000118894 0.000119336 -7.93145e-05
-0.00038648 0.000115652 0.000116069 -7.9314e-05
-0.000126356 3.7551e-05 3.80595e-05 -9.51934e-05
-0.000129994 3.86215e-05 3.91598e-05 -9.51944e-05
-0.000391912 0.000117273 0.000117702 -7.93142e-05
-0.000256424 7.65957e-05 7.70695e-05 -8.9236e-05
-0.000128175 3.80863e-05 3.86095e-05 -9.51939e-05
-0.000263675 7.87515e-05 7.92531e-05 -8.92367e-05
-0.00026005 7.76737e-05 7.81612e-05 -8.92364e-05
-0.00038648 0.000115652 0.000116069 -7.9314e-05
-0.000375617 0.00011241 0.000112803 -7.93136e-05
-0.000122719 3.64801e-05 3.69596e-05 -9.51924e-05
-0.000126356 3.7551e-05 3.80595e-05 -9.51934e-05
-0.000381048 0.000114031 0.000114436 -7.93138e-05
-0.000249174 7.44396e-05 7.48862e-05 -8.92354e-05
-0.000124538 3.70156e-05 3.75095e-05 -9.51929e-05
-0.000256424 7.65957e-05 7.70695e-05 -8.9236e-05
-0.000252799 7.55177e-05 7.59778e-05 -8.92357e-05
-0.000375617 0.00011241 0.000112803 -7.93136e-05
-0.000364755 0.000109168 0.000109537 -7.93132e-05
-0.000119083 3.54088e-05 3.58602e-05 -9.51915e-05
-0.000122719 3.64801e-05 3.69596e-05 -9.51924e-05
-0.000370186 0.000110789 0.00011117 -7.93134e-05
-0.000241925 7.22831e-05 7.27035e-05 -8.92347e-05
-0.000120901 3.59445e-05 3.64098e-05 -9.5192e-05
-0.000249174 7.44396e-05 7.48862e-05 -8.92354e-05
-0.000245549 7.33614e-05 7.37948e-05 -8.9235e-05
-0.000364755 0.000109168 0.000109537 -7.93132e-05
-0.000353894 0.000105925 0.000106272 -7.93129e-05
-0.000115447 3.43371e-05 3.47613e-05 -9.51906e-05
-0.000119083 3.54088e-05 3.58602e-05 -9.51915e-05
-0.000359324 0.000107546 0.000107905 -7.93131e-05
-0.000234676 7.01263e-05 7.05211e-05 -8.92341e-05
-0.000117265 3.4873e-05 3.53107e-05 -9.51911e-05
-0.000241925 7.22831e-05 7.27035e-05 -8.92347e-05
-0.0002383 7.12047e-05 7.16123e-05 -8.92344e-05
-0.000353894 0.000105925 0.000106272 -7.93129e-05
-0.000343033 0.000102682 0.000103007 -7.93125e-05
-0.000111812 3.32651e-05 3.36628e-05 -9.51898e-05
-0.000115447 3.43371e-05 3.47613e-05 -9.51906e-05
-0.000348463 0.000104304 0.00010464 -7.93127e-05
-0.000227427 6.79692e-05 6.83393e-05 -8.92335e-05
-0.000113629 3.38012e-05 3.4212e-05 -9.51902e-05
-0.000234676 7.01263e-05 7.05211e-05 -8.92341e-05
-0.000231051 6.90478e-05 6.94301e-05 -8.92338e-05
-0.000343033 0.000102682 0.000103007 -7.93125e-05
-0.000332173 9.94392e-05 9.97431e-05 -7.93122e-05
-0.000108177 3.21927e-05 3.25647e-05 -9.51889e-05
-0.000111812 3.32651e-05 3.36628e-05 -9.51898e-05
-0.000337603 0.000101061 0.000101375 -7.93124e-05
-0.00022018 6.58117e-05 6.61578e-05 -8.92329e-05
-0.000109994 3.2729e-05 3.31137e-05 -9.51894e-05
-0.000227427 6.79692e-05 6.83393e-05 -8.92335e-05
-0.000223804 6.68905e-05 6.72485e-05 -8.92332e-05
-0.000332173 9.94392e-05 9.97431e-05 -7.93122e-05
-0.000321314 9.61959e-05 9.64792e-05 -7.93119e-05
-0.000104543 3.11199e-05 3.14672e-05 -9.51881e-05
-0.000108177 3.21927e-05 3.25647e-05 -9.51889e-05
-0.000326744 9.78176e-05 9.81111e-05 -7.93121e-05
-0.000212933 6.36539e-05 6.39768e-05 -8.92324e-05
-0.00010636 3.16564e-05 3.20159e-05 -9.51885e-05
-0.00022018 6.58117e-05 6.61578e-05 -8.92329e-05
-0.000216556 6.47329e-05 6.50673e-05 -8.92327e-05
-0.000321314 9.61959e-05 9.64792e-05 -7.93119e-05
-0.000310455 9.29522e-05 9.32157e-05 -7.93116e-05
-0.00010091 3.00467e-05 3.037e-05 -9.51874e-05
-0.000104543 3.11199e-05 3.14672e-05 -9.51881e-05
-0.000315885 9.45741e-05 9.48474e-05 -7.93118e-05
-0.000205687 6.14958e-05 6.17963e-05 -8.92319e-05
-0.000102727 3.05834e-05 3.09185e-05 -9.51877e-05
-0.000212933 6.36539e-05 6.39768e-05 -8.92324e-05
-0.00020931 6.25749e-05 6.28865e-05 -8.92321e-05
-0.000310455 9.29522e-05 9.32157e-05 -7.93116e-05
-0.000299598 8.97083e-05 8.99526e-05 -7.93113e-05
-9.72777e-05 2.89732e-05 2.92734e-05 -9.51866e-05
-0.00010091 3.00467e-05 3.037e-05 -9.51874e-05
-0.000305026 9.13303e-05 9.15841e-05 -7.93114e-05
-0.000198442 5.93373e-05 5.96161e-05 -8.92313e-05
-9.90938e-05 2.951e-05 2.98216e-05 -9.5187e-05
-0.000205687 6.14958e-05 6.17963e-05 -8.92319e-05
-0.000202064 6.04165e-05 6.07061e-05 -8.92316e-05
-0.000299598 8.97083e-05 8.99526e-05 -7.93113e-05
-0.00028874 8.6464e-05 8.66899e-05 -7.9311e-05
-9.36459e-05 2.78992e-05 2.81771e-05 -9.51858e-05
-9.72777e-05 2.89732e-05 2.92734e-05 -9.51866e-05
-0.000294169 8.80862e-05 8.83212e-05 -7.93111e-05
-0.000191197 5.71784e-05 5.74365e-05 -8.92308e-05
-9.54617e-05 2.84362e-05 2.87252e-05 -9.51862e-05
-0.000198442 5.93373e-05 5.96161e-05 -8.92313e-05
-0.000194819 5.82579e-05 5.85262e-05 -8.92311e-05
-0.00028874 8.6464e-05 8.66899e-05 -7.9311e-05
-0.000277884 8.32195e-05 8.34276e-05 -7.93106e-05
-9.00146e-05 2.68248e-05 2.70814e-05 -9.51851e-05
-9.36459e-05 2.78992e-05 2.81771e-05 -9.51858e-05
-0.000283312 8.48418e-05 8.50587e-05 -7.93108e-05
-0.000183953 5.50191e-05 5.52572e-05 -8.92302e-05
-9.18302e-05 2.7362e-05 2.76292e-05 -9.51855e-05
-0.000191197 5.71784e-05 5.74365e-05 -8.92308e-05
-0.000187575 5.60988e-05 5.63468e-05 -8.92305e-05
-0.000277884 8.32195e-05 8.34276e-05 -7.93106e-05
-0.000267028 7.99747e-05 8.01657e-05 -7.93103e-05
-8.6384e-05 2.575e-05 2.5986e-05 -9.51844e-05
-9.00146e-05 2.68248e-05 2.70814e-05 -9.51851e-05
-0.000272456 8.15971e-05 8.17966e-05 -7.93105e-05
-0.000176709 5.28595e-05 5.30784e-05 -8.92297e-05
-8.81993e-05 2.62874e-05 2.65336e-05 -9.51847e-05
-0.000183953 5.50191e-05 5.52572e-05 -8.92302e-05
-0.000180331 5.39394e-05 5.41678e-05 -8.923e-05
-0.000267028 7.99747e-05 8.01657e-05 -7.93103e-05
-0.000256173 7.67295e-05 7.69042e-05 -7.93099e-05
-8.2754e-05 2.46747e-05 2.48911e-05 -9.51836e-05
-8.6384e-05 2.575e-05 2.5986e-05 -9.51844e-05
-0.0002616 7.83521e-05 7.85349e-05 -7.93101e-05
-0.000169466 5.06996e-05 5.09e-05 -8.92291e-05
-8.4569e-05 2.52124e-05 2.54385e-05 -9.5184e-05
-0.000176709 5.28595e-05 5.30784e-05 -8.92297e-05
-0.000173088 5.17796e-05 5.19892e-05 -8.92294e-05
-0.000256173 7.67295e-05 7.69042e-05 -7.93099e-05
-0.000245318 7.34841e-05 7.36431e-05 -7.93094e-05
-7.91246e-05 2.35991e-05 2.37966e-05 -9.51829e-05
-8.2754e-05 2.46747e-05 2.48911e-05 -9.51836e-05
-0.000250745 7.51069e-05 7.52736e-05 -7.93096e-05
-0.000162224 4.85393e-05 4.8722e-05 -8.92285e-05
-8.09393e-05 2.4137e-05 2.43438e-05 -9.51833e-05
-0.000169466 5.06996e-05 5.09e-05 -8.92291e-05
-0.000165845 4.96195e-05 4.9811e-05 -8.92288e-05
-0.000245318 7.34841e-05 7.36431e-05 -7.93094e-05
-0.000234464 7.02385e-05 7.03824e-05 -7.93089e-05
-7.54958e-05 2.25232e-05 2.27025e-05 -9.51821e-05
-7.91246e-05 2.35991e-05 2.37966e-05 -9.51829e-05
-0.000239891 7.18614e-05 7.20127e-05 -7.93092e-05
-0.000154982 4.63787e-05 4.65445e-05 -8.92279e-05
-7.73101e-05 2.30612e-05 2.32495e-05 -9.51825e-05
-0.000162224 4.85393e-05 4.8722e-05 -8.92285e-05
-0.000158603 4.7459e-05 4.76332e-05 -8.92282e-05
-0.000234464 7.02385e-05 7.03824e-05 -7.93089e-05
-0.000223611 6.69928e-05 6.7122e-05 -7.93085e-05
-7.18676e-05 2.14471e-05 2.16088e-05 -9.51813e-05
-7.54958e-05 2.25232e-05 2.27025e-05 -9.51821e-05
-0.000229037 6.86157e-05 6.87522e-05 -7.93087e-05
-0.000147741 4.4218e-05 4.43672e-05 -8.92272e-05
-7.36816e-05 2.19851e-05 2.21556e-05 -9.51817e-05
-0.000154982 4.63787e-05 4.65445e-05 -8.92279e-05
-0.000151362 4.52984e-05 4.54558e-05 -8.92275e-05
-0.000223611 6.69928e-05 6.7122e-05 -7.93085e-05
-0.000212758 6.3747e-05 6.3862e-05 -7.93082e-05
-6.82401e-05 2.03709e-05 2.05154e-05 -9.51804e-05
-7.18676e-05 2.14471e-05 2.16088e-05 -9.51813e-05
-0.000218185 6.53699e-05 6.5492e-05 -7.93083e-05
-0.000140501 4.20572e-05 4.21903e-05 -8.92266e-05
-7.00538e-05 2.0909e-05 2.10621e-05 -9.51808e-05
-0.000147741 4.4218e-05 4.43672e-05 -8.92272e-05
-0.000144121 4.31376e-05 4.32787e-05 -8.92269e-05
-0.000212758 6.3747e-05 6.3862e-05 -7.93082e-05
-0.000201907 6.05014e-05 6.06023e-05 -7.93081e-05
-6.46136e-05 1.9295e-05 1.94223e-05 -9.51796e-05
-6.82401e-05 2.03709e-05 2.05154e-05 -9.51804e-05
-0.000207332 6.21242e-05 6.22321e-05 -7.93081e-05
-0.000133262 3.98967e-05 4.00137e-05 -8.92262e-05
-6.64267e-05 1.98329e-05 1.99688e-05 -9.518e-05
-0.000140501 4.20572e-05 4.21903e-05 -8.92266e-05
-0.000136882 4.09769e-05 4.1102e-05 -8.92264e-05
-0.000201907 6.05014e-05 6.06023e-05 -7.93081e-05
-0.000191056 5.72562e-05 5.73428e-05 -7.93085e-05
-6.09882e-05 1.82198e-05 1.83293e-05 -9.5179e-05
-6.46136e-05 1.9295e-05 1.94223e-05 -9.51796e-05
-0.000196481 5.88788e-05 5.89725e-05 -7.93082e-05
-0.000126024 3.77367e-05 3.78374e-05 -8.92261e-05
-6.28008e-05 1.87573e-05 1.88758e-05 -9.51793e-05
-0.000133262 3.98967e-05 4.00137e-05 -8.92262e-05
-0.000129643 3.88166e-05 3.89255e-05 -8.92261e-05
-0.000191056 5.72562e-05 5.73428e-05 -7.93085e-05
-0.000180207 5.40115e-05 5.40836e-05 -7.93098e-05
-5.73644e-05 1.71457e-05 1.72366e-05 -9.51789e-05
-6.09882e-05 1.82198e-05 1.83293e-05 -9.5179e-05
-0.000185631 5.56338e-05 5.57132e-05 -7.9309e-05
-0.000118787 3.55775e-05 3.56613e-05 -8.92269e-05
-5.91761e-05 1.76825e-05 1.77829e-05 -9.51788e-05
-0.000126024 3.77367e-05 3.78374e-05 -8.92261e-05
-0.000122405 3.6657e-05 3.67493e-05 -8.92264e-05
-0.000180207 5.40115e-05 5.40836e-05 -7.93098e-05
-0.000169358 5.0767e-05 5.08247e-05 -7.93125e-05
-5.37425e-05 1.60732e-05 1.6144e-05 -9.51802e-05
-5.73644e-05 1.71457e-05 1.72366e-05 -9.51789e-05
-0.000174782 5.23892e-05 5.24541e-05 -7.9311e-05
-0.000111552 3.34191e-05 3.34855e-05 -8.92291e-05
-5.55533e-05 1.66092e-05 1.66903e-05 -9.51793e-05
-0.000118787 3.55775e-05 3.56613e-05 -8.92269e-05
-0.000115169 3.44982e-05 3.45733e-05 -8.92278e-05
-0.000169358 5.0767e-05 5.08247e-05 -7.93125e-05
-0.000158509 4.75218e-05 4.75662e-05 -7.93173e-05
-5.01231e-05 1.50027e-05 1.50516e-05 -9.51848e-05
-5.37425e-05 1.60732e-05 1.6144e-05 -9.51802e-05
-0.000163934 4.91446e-05 4.91954e-05 -7.93146e-05
-0.000104317 3.12608e-05 3.131e-05 -8.92343e-05
-5.19324e-05 1.55377e-05 1.55977e-05 -9.51819e-05
-0.000111552 3.34191e-05 3.34855e-05 -8.92291e-05
-0.000107935 3.234e-05 3.23977e-05 -8.92312e-05
-0.000158509 4.75218e-05 4.75662e-05 -7.93173e-05
-0.000147659 4.42728e-05 4.43085e-05 -7.9325e-05
-4.65051e-05 1.39335e-05 1.39593e-05 -9.51966e-05
-5.01231e-05 1.50027e-05 1.50516e-05 -9.51848e-05
-0.000153085 4.58981e-05 4.59371e-05 -7.93208e-05
-9.70821e-05 2.91002e-05 2.91351e-05 -8.92452e-05
-4.83141e-05 1.4468e-05 1.45055e-05 -9.51894e-05
-0.000104317 3.12608e-05 3.131e-05 -8.92343e-05
-0.0001007 3.0181e-05 3.02225e-05 -8.92389e-05
-0.000147659 4.42728e-05 4.43085e-05 -7.9325e-05
-0.0001368 4.10135e-05 4.10515e-05 -7.93366e-05
-4.28879e-05 1.28634e-05 1.28677e-05 -9.52234e-05
-4.65051e-05 1.39335e-05 1.39593e-05 -9.51966e-05
-0.000142232 4.26452e-05 4.26799e-05 -7.93302e-05
-8.98409e-05 2.69313e-05 2.69612e-05 -8.92664e-05
-4.46963e-05 1.33988e-05 1.34132e-05 -9.52075e-05
-9.70821e-05 2.91002e-05 2.91351e-05 -8.92452e-05
-9.34627e-05 2.80173e-05 2.8048e-05 -8.92539e-05
-0.0001368 4.10135e-05 4.10515e-05 -7.93366e-05
-0.000125922 3.77296e-05 3.77969e-05 -7.93525e-05
-3.92634e-05 1.17867e-05 1.17757e-05 -9.52804e-05
-4.28879e-05 1.28634e-05 1.28677e-05 -9.52234e-05
-0.000131364 3.93758e-05 3.94236e-05 -7.93441e-05
-8.2582e-05 2.47422e-05 2.47885e-05 -8.93074e-05
-4.10777e-05 1.23266e-05 1.23219e-05 -9.52468e-05
-8.98409e-05 2.69313e-05 2.69612e-05 -8.92664e-05
-8.62146e-05 2.58406e-05 2.58746e-05 -8.9284e-05
-0.000125922 3.77296e-05 3.77969e-05 -7.93525e-05
-0.000114994 3.43954e-05 3.45423e-05 -7.9375e-05
-3.56246e-05 1.06905e-05 1.0686e-05 -9.53947e-05
-3.92634e-05 1.17867e-05 1.17757e-05 -9.52804e-05
-0.000120468 3.60714e-05 3.61699e-05 -7.93626e-05
-7.52818e-05 2.25086e-05 2.26171e-05 -8.93839e-05
-3.74455e-05 1.12419e-05 1.12301e-05 -9.53282e-05
-8.2582e-05 2.47422e-05 2.47885e-05 -8.93074e-05
-7.8939e-05 2.36328e-05 2.37027e-05 -8.93391e-05
-0.000114994 3.43954e-05 3.45423e-05 -7.9375e-05
-0.000103977 3.09631e-05 3.12916e-05 -7.94023e-05
-3.19369e-05 9.55477e-06 9.59234e-06 -9.56149e-05
-3.56246e-05 1.06905e-05 1.0686e-05 -9.53947e-05
-0.000109498 3.26949e-05 3.29156e-05 -7.93887e-05
-6.78961e-05 2.01917e-05 2.04448e-05 -8.95248e-05
-3.37915e-05 1.01302e-05 1.01406e-05 -9.54873e-05
-7.52818e-05 2.25086e-05 2.26171e-05 -8.93839e-05
-7.16033e-05 2.13646e-05 2.15308e-05 -8.94453e-05
-0.000103977 3.09631e-05 3.12916e-05 -7.94023e-05
-9.27621e-05 2.73626e-05 2.80283e-05 -7.94449e-05
-2.81783e-05 8.33948e-06 8.50234e-06 -9.60168e-05
-3.19369e-05 9.55477e-06 9.59234e-06 -9.56149e-05
-9.84064e-05 2.91913e-05 2.96636e-05 -7.94199e-05
-6.03457e-05 1.77235e-05 1.82667e-05 -8.97771e-05
-3.00645e-05 8.9585e-06 9.04545e-06 -9.57873e-05
-6.78961e-05 2.01917e-05 2.04448e-05 -8.95248e-05
-6.41478e-05 1.89802e-05 1.93576e-05 -8.96301e-05
-9.27621e-05 2.73626e-05 2.80283e-05 -7.94449e-05
-8.12462e-05 2.34789e-05 2.47574e-05 -7.95002e-05
-2.42428e-05 7.00686e-06 7.38683e-06 -9.67212e-05
-2.81783e-05 8.33948e-06 8.50234e-06 -9.60168e-05
-8.70426e-05 2.54608e-05 2.63922e-05 -7.94726e-05
-5.25111e-05 1.50283e-05 1.60641e-05 -9.02173e-05
-2.62478e-05 7.69396e-06 7.95163e-06 -9.63211e-05
-6.03457e-05 1.77235e-05 1.82667e-05 -8.97771e-05
-5.64726e-05 1.64127e-05 1.71685e-05 -8.99735e-05
-8.12462e-05 2.34789e-05 2.47574e-05 -7.95002e-05
-6.9137e-05 1.92134e-05 2.13958e-05 -7.96348e-05
-2.01156e-05 5.4906e-06 6.26784e-06 -9.78667e-05
-2.42428e-05 7.00686e-06 7.38683e-06 -9.67212e-05
-7.53016e-05 2.14071e-05 2.30976e-05 -7.95482e-05
-4.42122e-05 1.20046e-05 1.38033e-05 -9.09568e-05
-2.21899e-05 6.26706e-06 6.82406e-06 -9.72302e-05
-5.25111e-05 1.50283e-05 1.60641e-05 -9.02173e-05
-4.84336e-05 1.35548e-05 1.49481e-05 -9.05288e-05
-6.9137e-05 1.92134e-05 2.13958e-05 -7.96348e-05
-5.63115e-05 1.44573e-05 1.79375e-05 -7.98852e-05
-1.55904e-05 3.85225e-06 5.03062e-06 -9.96012e-05
-2.01156e-05 5.4906e-06 6.26784e-06 -9.78667e-05
-6.27933e-05 1.68786e-05 1.96777e-05 -7.97464e-05
-3.53005e-05 8.71132e-06 1.13954e-05 -9.21349e-05
-1.79418e-05 4.69197e-06 5.67848e-06 -9.86502e-05
-4.42122e-05 1.20046e-05 1.38033e-05 -9.09568e-05
-3.98377e-05 1.03923e-05 1.26194e-05 -9.15043e-05
-5.63115e-05 1.44573e-05 1.79375e-05 -7.98852e-05
-4.231e-05 9.53646e-06 1.40458e-05 -8.05992e-05
-1.09359e-05 2.20336e-06 3.74253e-06 -0.000101832
-1.55904e-05 3.85225e-06 5.03062e-06 -9.96012e-05
-4.95357e-05 1.20086e-05 1.6083e-05 -8.01419e-05
-2.56949e-05 5.39512e-06 8.6999e-06 -9.38702e-05
-1.32066e-05 2.97703e-06 4.38412e-06 -0.000100676
-3.53005e-05 8.71132e-06 1.13954e-05 -9.21349e-05
-3.05899e-05 6.98734e-06 1.01154e-05 -9.28822e-05
-4.231e-05 9.53646e-06 1.40458e-05 -8.05992e-05
-2.78339e-05 5.25177e-06 9.67804e-06 -8.19916e-05
-6.14547e-06 1.40996e-06 2.02951e-06 -0.000103996
-1.09359e-05 2.20336e-06 3.74253e-06 -0.000101832
-3.49657e-05 7.12737e-06 1.19307e-05 -8.12036e-05
-1.60523e-05 3.36744e-06 5.43637e-06 -9.60279e-05
-8.6312e-06 1.67236e-06 2.98236e-06 -0.000102982
-2.56949e-05 5.39512e-06 8.6999e-06 -9.38702e-05
-2.07906e-05 4.13584e-06 7.13775e-06 -9.50023e-05
-2.78339e-05 5.25177e-06 9.67804e-06 -8.19916e-05
-1.38306e-05 5.1138e-06 3.73577e-06 -8.48552e-05
-2.75845e-06 2.44274e-06 1.35303e-07 -0.000104023
-6.14547e-06 1.40996e-06 2.02951e-06 -0.000103996
-2.08202e-05 4.4445e-06 7.01817e-06 -8.31672e-05
-7.85023e-06 4.77096e-06 1.31969e-06 -9.75186e-05
-4.0106e-06 1.5087e-06 1.07224e-06 -0.000104486
-1.60523e-05 3.36744e-06 5.43637e-06 -9.60279e-05
-1.16741e-05 3.34695e-06 3.5688e-06 -9.68329e-05
-1.38306e-05 5.1138e-06 3.73577e-06 -8.48552e-05
-6.4825e-06 1.53295e-05 -3.79156e-06 -8.68107e-05
-8.33163e-07 7.34982e-06 -2.79285e-06 -9.81112e-05
-2.75845e-06 2.44274e-06 1.35303e-07 -0.000104023
-8.50473e-06 8.00389e-06 2.14644e-07 -8.62795e-05
-4.89267e-06 1.37362e-05 -3.79008e-06 -9.42176e-05
-1.87174e-06 4.56351e-06 -1.15361e-06 -0.000102115
-7.85023e-06 4.77096e-06 1.31969e-06 -9.75186e-05
-5.33745e-06 8.26569e-06 -1.25496e-06 -9.71651e-05
-6.4825e-06 1.53295e-05 -3.79156e-06 -8.68107e-05
-1.02277e-05 4.73875e-05 -1.59256e-05 -7.94271e-05
-2.20036e-06 1.36424e-05 -4.90375e-06 -8.0009e-05
-8.33163e-07 7.34982e-06 -2.79285e-06 -9.81112e-05
-7.23363e-06 2.88943e-05 -9.28315e-06 -8.53662e-05
-6.87703e-06 3.00717e-05 -9.94057e-06 -7.81603e-05
-6.17741e-07 1.02724e-05 -4.13773e-06 -9.10021e-05
-4.89267e-06 1.37362e-05 -3.79008e-06 -9.42176e-05
-5.6834e-06 2.09783e-05 -6.55494e-06 -8.78942e-05
-1.02277e-05 4.73875e-05 -1.59256e-05 -7.94271e-05
-2.12411e-05 8.56539e-05 -2.76055e-05 -4.19128e-05
-6.35921e-06 2.29209e-05 -7.09787e-06 -4.59481e-05
-2.20036e-06 1.36424e-05 -4.90375e-06 -8.0009e-05
-1.5039e-05 6.80761e-05 -2.27302e-05 -6.55495e-05
-1.18937e-05 5.14253e-05 -1.69421e-05 -4.62031e-05
-4.48093e-06 1.78699e-05 -5.73814e-06 -6.50618e-05
-6.87703e-06 3.00717e-05 -9.94057e-06 -7.81603e-05
-8.8288e-06 4.07935e-05 -1.36992e-05 -6.4594e-05
-0.000640527 0 0.000274512 0.00036123
-0.000650475 8.50382e-05 0.00024233 0.000119738
0.000628936 -8.9918e-05 -0.000231008 0.000118366
0.000616542 0 -0.000264232 0.000358052
-0.000625012 3.5784e-05 0.000252526 0.000227734
-1.09766e-05 -2.58216e-06 5.81089e-06 0.000134979
0.000602381 -3.84709e-05 -0.000241676 0.000225827
-1.23957e-05 0 5.31246e-06 0.000367107
-1.15287e-05 -1.59016e-06 5.62238e-06 0.000253932
-0.000650475 8.50382e-05 0.00024233 0.000119738
-0.000699665 0.000139989 0.000239861 -2.45831e-05
0.000679934 -0.00014815 -0.000227907 -2.55002e-05
0.000628936 -8.9918e-05 -0.000231008 0.000118366
-0.000685745 0.000118 0.000243319 3.48845e-05
-1.00543e-05 -4.19473e-06 6.10671e-06 -1.74784e-05
0.000665146 -0.00012467 -0.000231633 3.37608e-05
-1.09766e-05 -2.58216e-06 5.81089e-06 0.000134979
-1.05322e-05 -3.42732e-06 5.98264e-06 4.11135e-05
-0.000699665 0.000139989 0.000239861 -2.45831e-05
-0.000713788 0.00018084 0.000228407 -8.99816e-05
0.00069558 -0.000191426 -0.000216066 -9.06784e-05
0.000679934 -0.00014815 -0.000227907 -2.55002e-05
-0.000704824 0.000161776 0.000232735 -6.40047e-05
-9.25798e-06 -5.4888e-06 6.32005e-06 -8.81389e-05
0.000685878 -0.000171222 -0.000220567 -6.47996e-05
-1.00543e-05 -4.19473e-06 6.10671e-06 -1.74784e-05
-9.6183e-06 -4.88299e-06 6.21484e-06 -5.76353e-05
-0.000713788 0.00018084 0.000228407 -8.99816e-05
-0.00072097 0.000199757 0.000223377 -0.000113352
0.000704093 -0.000212334 -0.000210754 -0.000113851
0.00069558 -0.000191426 -0.000216066 -9.06784e-05
-0.000721018 0.000192875 0.000226347 -0.000105629
-8.61559e-06 -6.45352e-06 6.45819e-06 -0.000115442
0.000703498 -0.000204509 -0.000213852 -0.000106219
-9.25798e-06 -5.4888e-06 6.32005e-06 -8.81389e-05
-8.93593e-06 -6.00585e-06 6.40362e-06 -0.000106897
-0.00072097 0.000199757 0.000223377 -0.000113352
-0.00071581 0.000206748 0.000218169 -0.000115902
0.000700001 -0.000220847 -0.000205352 -0.000116221
0.000704093 -0.000212334 -0.000210754 -0.000113851
-0.000717838 0.000204281 0.000220096 -0.000115917
-8.07741e-06 -7.20762e-06 6.55072e-06 -0.000120104
0.000701535 -0.000217681 -0.000207366 -0.000116336
-8.61559e-06 -6.45352e-06 6.45819e-06 -0.000115442
-8.3239e-06 -6.85676e-06 6.506e-06 -0.00011892
-0.00071581 0.000206748 0.000218169 -0.000115902
-0.000709582 0.000206191 0.000215739 -0.000111861
0.00069453 -0.000221337 -0.000202797 -0.000111994
0.000700001 -0.000220847 -0.000205352 -0.000116221
-0.000713515 0.000207082 0.000217043 -0.000114308
-7.69109e-06 -7.71973e-06 6.60464e-06 -0.000116069
0.000698121 -0.000221761 -0.000204154 -0.000114524
-8.07741e-06 -7.20762e-06 6.55072e-06 -0.000120104
-7.86918e-06 -7.49265e-06 6.58364e-06 -0.000118878
-0.000709582 0.000206191 0.000215739 -0.000111861
-0.000701813 0.00020372 0.000213468 -0.00010659
0.000687254 -0.000219485 -0.000200472 -0.0001066
0.00069453 -0.000221337 -0.000202797 -0.000111994
-0.000705263 0.000205027 0.000214387 -0.000109117
-7.43205e-06 -8.03892e-06 6.63041e-06 -0.000110353
0.000690488 -0.000220529 -0.000201411 -0.000109184
-7.69109e-06 -7.71973e-06 6.60464e-06 -0.000116069
-7.54547e-06 -7.90126e-06 6.62003e-06 -0.000113021
-0.000701813 0.00020372 0.000213468 -0.00010659
-0.000695531 0.000200775 0.000212038 -0.000102397
0.000681273 -0.000216834 -0.000199045 -0.000102332
0.000687254 -0.000219485 -0.000200472 -0.0001066
-0.000698734 0.000202248 0.00021278 -0.00010434
-7.27422e-06 -8.19046e-06 6.62772e-06 -0.000105523
0.000684344 -0.000218194 -0.000199778 -0.000104304
-7.43205e-06 -8.03892e-06 6.63041e-06 -0.000110353
-7.34396e-06 -8.13267e-06 6.63284e-06 -0.000107832
-0.000695531 0.000200775 0.000212038 -0.000102397
-0.000689823 0.000198308 0.000210649 -9.94838e-05
0.000675752 -0.000214435 -0.000197707 -9.93944e-05
0.000681273 -0.000216834 -0.000199045 -0.000102332
-0.000692471 0.000199467 0.000211288 -0.000100771
-7.17658e-06 -8.22989e-06 6.60277e-06 -0.000102163
0.000678317 -0.000215582 -0.000198315 -0.00010069
-7.27422e-06 -8.19046e-06 6.62772e-06 -0.000105523
-7.21964e-06 -8.22142e-06 6.6176e-06 -0.000103624
-0.000689823 0.000198308 0.000210649 -9.94838e-05
-0.00068505 0.000196297 0.000209466 -9.76864e-05
0.00067111 -0.000212349 -0.000196612 -9.76004e-05
0.000675752 -0.000214435 -0.000197707 -9.93944e-05
-0.000687409 0.000197251 0.000210068 -9.84736e-05
-7.11048e-06 -8.19358e-06 6.55888e-06 -0.000100046
0.000673407 -0.000213353 -0.000197166 -9.83824e-05
-7.17658e-06 -8.22989e-06 6.60277e-06 -0.000102163
-7.14138e-06 -8.21902e-06 6.58303e-06 -0.000100988
-0.00068505 0.000196297 0.000209466 -9.76864e-05
-0.000680677 0.000194701 0.000208276 -9.66328e-05
0.000666851 -0.000210597 -0.000195537 -9.65681e-05
0.00067111 -0.000212349 -0.000196612 -9.76004e-05
-0.000682792 0.000195455 0.000208859 -9.70825e-05
-7.05429e-06 -8.11568e-06 6.50142e-06 -9.88164e-05
0.000668909 -0.000211436 -0.00019606 -9.70061e-05
-7.11048e-06 -8.19358e-06 6.55888e-06 -0.000100046
-7.08206e-06 -8.15827e-06 6.53157e-06 -9.93342e-05
-0.000680677 0.000194701 0.000208276 -9.66328e-05
-0.000676653 0.000193365 0.000207123 -9.60554e-05
0.000662946 -0.000209068 -0.00019452 -9.60176e-05
0.000666851 -0.000210597 -0.000195537 -9.65681e-05
-0.00067865 0.000194008 0.000207704 -9.63006e-05
-6.99606e-06 -8.01652e-06 6.43396e-06 -9.81396e-05
0.000664882 -0.00020981 -0.000195031 -9.62488e-05
-7.05429e-06 -8.11568e-06 6.50142e-06 -9.88164e-05
-7.026e-06 -8.06776e-06 6.46875e-06 -9.84293e-05
-0.000676653 0.000193365 0.000207123 -9.60554e-05
-0.00067277 0.000192194 0.000205961 -9.575e-05
0.0006592 -0.00020769 -0.000193504 -9.57398e-05
0.000662946 -0.000209068 -0.00019452 -9.60176e-05
-0.000674691 0.000192764 0.00020654 -9.58772e-05
-6.92955e-06 -7.91047e-06 6.36001e-06 -9.77897e-05
0.00066105 -0.000208364 -0.000194009 -9.58535e-05
-6.99606e-06 -8.01652e-06 6.43396e-06 -9.81396e-05
-6.96404e-06 -7.96376e-06 6.39763e-06 -9.7933e-05
-0.00067277 0.000192194 0.000205961 -9.575e-05
-0.000668983 0.000191112 0.000204802 -9.55968e-05
0.000655569 -0.000206403 -0.0001925 -9.56108e-05
0.0006592 -0.00020769 -0.000193504 -9.57398e-05
-0.000670872 0.000191645 0.000205383 -9.56603e-05
-6.8528e-06 -7.80498e-06 6.2819e-06 -9.76176e-05
0.000657378 -0.000207038 -0.000193003 -9.56626e-05
-6.92955e-06 -7.91047e-06 6.36001e-06 -9.77897e-05
-6.89249e-06 -7.85735e-06 6.32136e-06 -9.76888e-05
-0.000668983 0.000191112 0.000204802 -9.55968e-05
-0.000665229 0.000190075 0.000203637 -9.55225e-05
0.00065199 -0.000205171 -0.000191494 -9.55564e-05
0.000655569 -0.000206403 -0.0001925 -9.56108e-05
-0.000667102 0.00019059 0.000204219 -9.55527e-05
-6.76603e-06 -7.70409e-06 6.20148e-06 -9.75389e-05
0.000653773 -0.000205782 -0.000191996 -9.55773e-05
-6.8528e-06 -7.80498e-06 6.2819e-06 -9.76176e-05
-6.8106e-06 -7.75383e-06 6.2419e-06 -9.757e-05
-0.000665229 0.000190075 0.000203637 -9.55225e-05
-0.000661493 0.000189058 0.000202472 -9.5488e-05
0.000648445 -0.00020397 -0.00019049 -9.55373e-05
0.00065199 -0.000205171 -0.000191494 -9.55564e-05
-0.000663361 0.000189565 0.000203055 -9.5502e-05
-6.67065e-06 -7.60913e-06 6.11991e-06 -9.75055e-05
0.000650215 -0.000204567 -0.000190992 -9.55441e-05
-6.76603e-06 -7.70409e-06 6.20148e-06 -9.75389e-05
-6.71931e-06 -7.65584e-06 6.16078e-06 -9.75187e-05
-0.000661493 0.000189058 0.000202472 -9.5488e-05
-0.00065776 0.000188048 0.000201305 -9.54724e-05
0.000644916 -0.000202787 -0.000189484 -9.5533e-05
0.000648445 -0.00020397 -0.00019049 -9.55373e-05
-0.000659626 0.000188553 0.000201889 -9.54787e-05
-6.56843e-06 -7.52021e-06 6.03799e-06 -9.7493e-05
0.000646679 -0.000203376 -0.000189987 -9.55341e-05
-6.67065e-06 -7.60913e-06 6.11991e-06 -9.75055e-05
-6.62028e-06 -7.56395e-06 6.07896e-06 -9.74975e-05
-0.00065776 0.000188048 0.000201305 -9.54724e-05
-0.000654027 0.000187038 0.000200138 -9.54655e-05
0.000641396 -0.000201615 -0.000188478 -9.5534e-05
0.000644916 -0.000202787 -0.000189484 -9.5533e-05
-0.000655894 0.000187543 0.000200722 -9.54683e-05
-6.46112e-06 -7.43668e-06 5.9562e-06 -9.74891e-05
0.000643155 -0.0002022 -0.000188981 -9.55332e-05
-6.56843e-06 -7.52021e-06 6.03799e-06 -9.7493e-05
-6.51531e-06 -7.47783e-06 5.99706e-06 -9.74905e-05
-0.000654027 0.000187038 0.000200138 -9.54655e-05
-0.000650292 0.000186026 0.000198971 -9.54623e-05
0.000637881 -0.000200449 -0.000187471 -9.5536e-05
0.000641396 -0.000201615 -0.000188478 -9.5534e-05
-0.00065216 0.000186532 0.000199554 -9.54636e-05
-6.35027e-06 -7.35765e-06 5.87482e-06 -9.74883e-05
0.000639638 -0.000201031 -0.000187974 -9.5535e-05
-6.46112e-06 -7.43668e-06 5.9562e-06 -9.74891e-05
-6.40605e-06 -7.39666e-06 5.91545e-06 -9.74885e-05
-0.000650292 0.000186026 0.000198971 -9.54623e-05
-0.000646555 0.000185012 0.000197804 -9.54605e-05
0.000634368 -0.000199288 -0.000186463 -9.55376e-05
0.000637881 -0.000200449 -0.000187471 -9.5536e-05
-0.000648424 0.00018552 0.000198388 -9.54613e-05
-6.23712e-06 -7.28219e-06 5.79399e-06 -9.74883e-05
0.000636124 -0.000199868 -0.000186967 -9.55369e-05
-6.35027e-06 -7.35765e-06 5.87482e-06 -9.74883e-05
-6.29391e-06 -7.31953e-06 5.83433e-06 -9.74883e-05
-0.000646555 0.000185012 0.000197804 -9.54605e-05
-0.000642817 0.000183995 0.000196638 -9.54593e-05
0.000630856 -0.00019813 -0.000185454 -9.55383e-05
0.000634368 -0.000199288 -0.000186463 -9.55376e-05
-0.000644686 0.000184504 0.000197221 -9.54599e-05
-6.12262e-06 -7.2095e-06 5.71376e-06 -9.74881e-05
0.000632612 -0.000198709 -0.000185958 -9.5538e-05
-6.23712e-06 -7.28219e-06 5.79399e-06 -9.74883e-05
-6.17998e-06 -7.24555e-06 5.7538e-06 -9.74882e-05
-0.000642817 0.000183995 0.000196638 -9.54593e-05
-0.000639078 0.000182977 0.000195472 -9.54582e-05
0.000627345 -0.000196974 -0.000184445 -9.55381e-05
0.000630856 -0.00019813 -0.000185454 -9.55383e-05
-0.000640948 0.000183486 0.000196055 -9.54588e-05
-6.00748e-06 -7.13888e-06 5.63415e-06 -9.74876e-05
0.0006291 -0.000197552 -0.000184949 -9.55383e-05
-6.12262e-06 -7.2095e-06 5.71376e-06 -9.74881e-05
-6.06509e-06 -7.17396e-06 5.67388e-06 -9.74879e-05
-0.000639078 0.000182977 0.000195472 -9.54582e-05
-0.000635339 0.000181957 0.000194307 -9.54572e-05
0.000623833 -0.000195819 -0.000183435 -9.55374e-05
0.000627345 -0.000196974 -0.000184445 -9.55381e-05
-0.000637209 0.000182467 0.000194889 -9.54577e-05
-5.89219e-06 -7.06981e-06 5.55514e-06 -9.74868e-05
0.000625589 -0.000196396 -0.00018394 -9.55378e-05
-6.00748e-06 -7.13888e-06 5.63415e-06 -9.74876e-05
-5.94983e-06 -7.10418e-06 5.59457e-06 -9.74872e-05
-0.000635339 0.000181957 0.000194307 -9.54572e-05
-0.000631601 0.000180935 0.000193142 -9.54561e-05
0.000620322 -0.000194665 -0.000182424 -9.55362e-05
0.000623833 -0.000195819 -0.000183435 -9.55374e-05
-0.00063347 0.000181446 0.000193725 -9.54567e-05
-5.7771e-06 -7.0019e-06 5.47671e-06 -9.74857e-05
0.000622078 -0.000195242 -0.00018293 -9.55369e-05
-5.89219e-06 -7.06981e-06 5.55514e-06 -9.74868e-05
-5.83461e-06 -7.03573e-06 5.51586e-06 -9.74862e-05
-0.000631601 0.000180935 0.000193142 -9.54561e-05
-0.000627862 0.000179913 0.000191978 -9.5455e-05
0.000616809 -0.000193512 -0.000181413 -9.55348e-05
0.000620322 -0.000194665 -0.000182424 -9.55362e-05
-0.000629731 0.000180424 0.00019256 -9.54556e-05
-5.66242e-06 -6.93487e-06 5.39884e-06 -9.74844e-05
0.000618566 -0.000194088 -0.000181919 -9.55356e-05
-5.7771e-06 -7.0019e-06 5.47671e-06 -9.74857e-05
-5.7197e-06 -6.96829e-06 5.43771e-06 -9.7485e-05
-0.000627862 0.000179913 0.000191978 -9.5455e-05
-0.000624125 0.00017889 0.000190815 -9.54538e-05
0.000613297 -0.000192359 -0.000180402 -9.55332e-05
0.000616809 -0.000193512 -0.000181413 -9.55348e-05
-0.000625993 0.000179402 0.000191396 -9.54544e-05
-5.54829e-06 -6.86851e-06 5.32149e-06 -9.7483e-05
0.000615053 -0.000192936 -0.000180908 -9.5534e-05
-5.66242e-06 -6.93487e-06 5.39884e-06 -9.74844e-05
-5.60528e-06 -6.90161e-06 5.3601e-06 -9.74837e-05
-0.000624125 0.00017889 0.000190815 -9.54538e-05
-0.000620388 0.000177867 0.000189652 -9.54526e-05
0.000609784 -0.000191208 -0.00017939 -9.55315e-05
0.000613297 -0.000192359 -0.000180402 -9.55332e-05
-0.000622256 0.000178378 0.000190233 -9.54532e-05
-5.43479e-06 -6.80271e-06 5.24464e-06 -9.74815e-05
0.00061154 -0.000191783 -0.000179896 -9.55323e-05
-5.54829e-06 -6.86851e-06 5.32149e-06 -9.7483e-05
-5.49146e-06 -6.83555e-06 5.283e-06 -9.74823e-05
-0.000620388 0.000177867 0.000189652 -9.54526e-05
-0.000616651 0.000176843 0.000188489 -9.54514e-05
0.00060627 -0.000190056 -0.000178377 -9.55297e-05
0.000609784 -0.000191208 -0.00017939 -9.55315e-05
-0.000618519 0.000177355 0.00018907 -9.5452e-05
-5.32196e-06 -6.73737e-06 5.16829e-06 -9.74799e-05
0.000608027 -0.000190632 -0.000178884 -9.55306e-05
-5.43479e-06 -6.80271e-06 5.24464e-06 -9.74815e-05
-5.37829e-06 -6.76998e-06 5.2064e-06 -9.74807e-05
-0.000616651 0.000176843 0.000188489 -9.54514e-05
-0.000612915 0.000175819 0.000187327 -9.54501e-05
0.000602755 -0.000188905 -0.000177364 -9.55278e-05
0.00060627 -0.000190056 -0.000178377 -9.55297e-05
-0.000614783 0.000176331 0.000187908 -9.54507e-05
-5.20983e-06 -6.67245e-06 5.09241e-06 -9.74783e-05
0.000604512 -0.00018948 -0.000177871 -9.55287e-05
-5.32196e-06 -6.73737e-06 5.16829e-06 -9.74799e-05
-5.26581e-06 -6.70486e-06 5.13029e-06 -9.74791e-05
-0.000612915 0.000175819 0.000187327 -9.54501e-05
-0.000609181 0.000174794 0.000186166 -9.54487e-05
0.00059924 -0.000187754 -0.000176351 -9.55259e-05
0.000602755 -0.000188905 -0.000177364 -9.55278e-05
-0.000611048 0.000175306 0.000186746 -9.54494e-05
-5.0984e-06 -6.60792e-06 5.017e-06 -9.74767e-05
0.000600998 -0.00018833 -0.000176858 -9.55269e-05
-5.20983e-06 -6.67245e-06 5.09241e-06 -9.74783e-05
-5.15403e-06 -6.64014e-06 5.05465e-06 -9.74775e-05
-0.000609181 0.000174794 0.000186166 -9.54487e-05
-0.000605446 0.000173769 0.000185005 -9.54473e-05
0.000595724 -0.000186604 -0.000175337 -9.5524e-05
0.00059924 -0.000187754 -0.000176351 -9.55259e-05
-0.000607313 0.000174281 0.000185585 -9.5448e-05
-4.98768e-06 -6.54377e-06 4.94205e-06 -9.7475e-05
0.000597482 -0.000187179 -0.000175844 -9.55249e-05
-5.0984e-06 -6.60792e-06 5.017e-06 -9.74767e-05
-5.04295e-06 -6.5758e-06 4.97947e-06 -9.74758e-05
-0.000605446 0.000173769 0.000185005 -9.54473e-05
-0.000601713 0.000172744 0.000183844 -9.54459e-05
0.000592208 -0.000185454 -0.000174323 -9.5522e-05
0.000595724 -0.000186604 -0.000175337 -9.5524e-05
-0.00060358 0.000173256 0.000184424 -9.54466e-05
-4.87764e-06 -6.47999e-06 4.86756e-06 -9.74732e-05
0.000593966 -0.000186029 -0.00017483 -9.5523e-05
-4.98768e-06 -6.54377e-06 4.94205e-06 -9.7475e-05
-4.93257e-06 -6.51184e-06 4.90475e-06 -9.74741e-05
-0.000601713 0.000172744 0.000183844 -9.54459e-05
-0.00059798 0.000171718 0.000182684 -9.54444e-05
0.000588691 -0.000184305 -0.000173308 -9.552e-05
0.000592208 -0.000185454 -0.000174323 -9.5522e-05
-0.000599847 0.000172231 0.000183264 -9.54452e-05
-4.7683e-06 -6.41658e-06 4.79352e-06 -9.74715e-05
0.000590449 -0.000184879 -0.000173816 -9.5521e-05
-4.87764e-06 -6.47999e-06 4.86756e-06 -9.74732e-05
-4.82289e-06 -6.44824e-06 4.83048e-06 -9.74724e-05
-0.00059798 0.000171718 0.000182684 -9.54444e-05
-0.000594248 0.000170692 0.000181524 -9.54429e-05
0.000585173 -0.000183156 -0.000172293 -9.5518e-05
0.000588691 -0.000184305 -0.000173308 -9.552e-05
-0.000596114 0.000171205 0.000182104 -9.54436e-05
-4.65964e-06 -6.35354e-06 4.71994e-06 -9.74696e-05
0.000586932 -0.00018373 -0.000172801 -9.5519e-05
-4.7683e-06 -6.41658e-06 4.79352e-06 -9.74715e-05
-4.71389e-06 -6.38501e-06 4.75667e-06 -9.74706e-05
-0.000594248 0.000170692 0.000181524 -9.54429e-05
-0.000590517 0.000169665 0.000180365 -9.54413e-05
0.000581655 -0.000182007 -0.000171278 -9.55159e-05
0.000585173 -0.000183156 -0.000172293 -9.5518e-05
-0.000592383 0.000170179 0.000180945 -9.54421e-05
-4.55167e-06 -6.29087e-06 4.6468e-06 -9.74678e-05
0.000583414 -0.000182581 -0.000171786 -9.5517e-05
-4.65964e-06 -6.35354e-06 4.71994e-06 -9.74696e-05
-4.60557e-06 -6.32216e-06 4.68331e-06 -9.74687e-05
-0.000590517 0.000169665 0.000180365 -9.54413e-05
-0.000586787 0.000168639 0.000179206 -9.54397e-05
0.000578136 -0.000180859 -0.000170262 -9.55139e-05
0.000581655 -0.000182007 -0.000171278 -9.55159e-05
-0.000588652 0.000169152 0.000179786 -9.54405e-05
-4.44437e-06 -6.22858e-06 4.57412e-06 -9.74659e-05
0.000579896 -0.000181433 -0.00017077 -9.55149e-05
-4.55167e-06 -6.29087e-06 4.6468e-06 -9.74678e-05
-4.49793e-06 -6.25968e-06 4.61041e-06 -9.74669e-05
-0.000586787 0.000168639 0.000179206 -9.54397e-05
-0.000583057 0.000167612 0.000178048 -9.5438e-05
0.000574617 -0.000179711 -0.000169245 -9.55117e-05
0.000578136 -0.000180859 -0.000170262 -9.55139e-05
-0.000584922 0.000168125 0.000178627 -9.54389e-05
-4.33774e-06 -6.16667e-06 4.50189e-06 -9.7464e-05
0.000576377 -0.000180285 -0.000169754 -9.55128e-05
-4.44437e-06 -6.22858e-06 4.57412e-06 -9.74659e-05
-4.39097e-06 -6.19758e-06 4.53795e-06 -9.74649e-05
-0.000583057 0.000167612 0.000178048 -9.5438e-05
-0.000579328 0.000166584 0.00017689 -9.54364e-05
0.000571097 -0.000178563 -0.000168229 -9.55096e-05
0.000574617 -0.000179711 -0.000169245 -9.55117e-05
-0.000581192 0.000167098 0.000177469 -9.54372e-05
-4.23178e-06 -6.10514e-06 4.43011e-06 -9.7462e-05
0.000572857 -0.000179137 -0.000168737 -9.55107e-05
-4.33774e-06 -6.16667e-06 4.50189e-06 -9.7464e-05
-4.28468e-06 -6.13585e-06 4.46594e-06 -9.7463e-05
-0.000579328 0.000166584 0.00017689 -9.54364e-05
-0.0005756 0.000165557 0.000175733 -9.54347e-05
0.000567576 -0.000177416 -0.000167211 -9.55074e-05
0.000571097 -0.000178563 -0.000168229 -9.55096e-05
-0.000577464 0.00016607 0.000176311 -9.54355e-05
-4.1265e-06 -6.04399e-06 4.35878e-06 -9.746e-05
0.000569337 -0.00017799 -0.00016772 -9.55085e-05
-4.23178e-06 -6.10514e-06 4.43011e-06 -9.7462e-05
-4.17906e-06 -6.07451e-06 4.39439e-06 -9.7461e-05
-0.0005756 0.000165557 0.000175733 -9.54347e-05
-0.000571872 0.000164528 0.000174576 -9.54329e-05
0.000564055 -0.000176269 -0.000166194 -9.55052e-05
0.000567576 -0.000177416 -0.000167211 -9.55074e-05
-0.000573736 0.000165043 0.000175154 -9.54338e-05
-4.02188e-06 -5.98322e-06 4.2879e-06 -9.7458e-05
0.000565816 -0.000176843 -0.000166703 -9.55063e-05
-4.1265e-06 -6.04399e-06 4.35878e-06 -9.746e-05
-4.0741e-06 -6.01356e-06 4.32328e-06 -9.7459e-05
-0.000571872 0.000164528 0.000174576 -9.54329e-05
-0.000568145 0.0001635 0.000173419 -9.54311e-05
0.000560533 -0.000175123 -0.000165176 -9.5503e-05
0.000564055 -0.000176269 -0.000166194 -9.55052e-05
-0.000570009 0.000164014 0.000173998 -9.5432e-05
-3.91793e-06 -5.92284e-06 4.21747e-06 -9.7456e-05
0.000562294 -0.000175696 -0.000165685 -9.55041e-05
-4.02188e-06 -5.98322e-06 4.2879e-06 -9.7458e-05
-3.96982e-06 -5.95298e-06 4.25263e-06 -9.7457e-05
-0.000568145 0.0001635 0.000173419 -9.54311e-05
-0.000564419 0.000162471 0.000172264 -9.54293e-05
0.000557011 -0.000173977 -0.000164157 -9.55007e-05
0.000560533 -0.000175123 -0.000165176 -9.5503e-05
-0.000566282 0.000162986 0.000172841 -9.54302e-05
-3.81464e-06 -5.86285e-06 4.14749e-06 -9.74539e-05
0.000558772 -0.00017455 -0.000164667 -9.55018e-05
-3.91793e-06 -5.92284e-06 4.21747e-06 -9.7456e-05
-3.8662e-06 -5.8928e-06 4.18243e-06 -9.74549e-05
-0.000564419 0.000162471 0.000172264 -9.54293e-05
-0.000560694 0.000161442 0.000171108 -9.54275e-05
0.000553488 -0.000172831 -0.000163139 -9.54984e-05
0.000557011 -0.000173977 -0.000164157 -9.55007e-05
-0.000562557 0.000161957 0.000171686 -9.54284e-05
-3.71202e-06 -5.80324e-06 4.07797e-06 -9.74518e-05
0.00055525 -0.000173404 -0.000163648 -9.54995e-05
-3.81464e-06 -5.86285e-06 4.14749e-06 -9.74539e-05
-3.76325e-06 -5.83299e-06 4.11268e-06 -9.74528e-05
-0.000560694 0.000161442 0.000171108 -9.54275e-05
-0.00055697 0.000160413 0.000169953 -9.54256e-05
0.000549965 -0.000171686 -0.000162119 -9.54961e-05
0.000553488 -0.000172831 -0.000163139 -9.54984e-05
-0.000558832 0.000160927 0.00017053 -9.54266e-05
-3.61007e-06 -5.74401e-06 4.00889e-06 -9.74496e-05
0.000551726 -0.000172259 -0.000162629 -9.54972e-05
-3.71202e-06 -5.80324e-06 4.07797e-06 -9.74518e-05
-3.66097e-06 -5.77358e-06 4.04338e-06 -9.74507e-05
-0.00055697 0.000160413 0.000169953 -9.54256e-05
-0.000553246 0.000159383 0.000168798 -9.54237e-05
0.00054644 -0.000170542 -0.0001611 -9.54937e-05
0.000549965 -0.000171686 -0.000162119 -9.54961e-05
-0.000555108 0.000159898 0.000169376 -9.54247e-05
-3.50879e-06 -5.68518e-06 3.94027e-06 -9.74475e-05
0.000548203 -0.000171114 -0.000161609 -9.54949e-05
-3.61007e-06 -5.74401e-06 4.00889e-06 -9.74496e-05
-3.55935e-06 -5.71455e-06 3.97453e-06 -9.74486e-05
-0.000553246 0.000159383 0.000168798 -9.54237e-05
-0.000549523 0.000158352 0.000167644 -9.54218e-05
0.000542916 -0.000169397 -0.000160079 -9.54913e-05
0.00054644 -0.000170542 -0.0001611 -9.54937e-05
-0.000551384 0.000158868 0.000168221 -9.54228e-05
-3.40817e-06 -5.62673e-06 3.8721e-06 -9.74453e-05
0.000544678 -0.000169969 -0.00016059 -9.54925e-05
-3.50879e-06 -5.68518e-06 3.94027e-06 -9.74475e-05
-3.45839e-06 -5.6559e-06 3.90613e-06 -9.74464e-05
-0.000549523 0.000158352 0.000167644 -9.54218e-05
-0.0005458 0.000157322 0.000166491 -9.54199e-05
0.000539391 -0.000168253 -0.000159059 -9.54889e-05
0.000542916 -0.000169397 -0.000160079 -9.54913e-05
-0.000547661 0.000157837 0.000167067 -9.54208e-05
-3.30822e-06 -5.56866e-06 3.80438e-06 -9.74431e-05
0.000541153 -0.000168825 -0.000159569 -9.54901e-05
-3.40817e-06 -5.62673e-06 3.8721e-06 -9.74453e-05
-3.35811e-06 -5.59765e-06 3.83818e-06 -9.74442e-05
-0.0005458 0.000157322 0.000166491 -9.54199e-05
-0.000542079 0.000156291 0.000165338 -9.54179e-05
0.000535865 -0.00016711 -0.000158038 -9.54865e-05
0.000539391 -0.000168253 -0.000159059 -9.54889e-05
-0.000543939 0.000156806 0.000165914 -9.54189e-05
-3.20893e-06 -5.51099e-06 3.73711e-06 -9.74408e-05
0.000537628 -0.000167682 -0.000158548 -9.54877e-05
-3.30822e-06 -5.56866e-06 3.80438e-06 -9.74431e-05
-3.25849e-06 -5.53978e-06 3.77069e-06 -9.74419e-05
-0.000542079 0.000156291 0.000165338 -9.54179e-05
-0.000538358 0.00015526 0.000164185 -9.54159e-05
0.000532338 -0.000165967 -0.000157016 -9.5484e-05
0.000535865 -0.00016711 -0.000158038 -9.54865e-05
-0.000540218 0.000155775 0.000164761 -9.54169e-05
-3.11031e-06 -5.4537e-06 3.67029e-06 -9.74386e-05
0.000534102 -0.000166538 -0.000157527 -9.54853e-05
-3.20893e-06 -5.51099e-06 3.73711e-06 -9.74408e-05
-3.15954e-06 -5.48229e-06 3.70364e-06 -9.74397e-05
-0.000538358 0.00015526 0.000164185 -9.54159e-05
-0.000534638 0.000154228 0.000163033 -9.54139e-05
0.000528812 -0.000164824 -0.000155995 -9.54816e-05
0.000532338 -0.000165967 -0.000157016 -9.5484e-05
-0.000536498 0.000154744 0.000163609 -9.54149e-05
-3.01236e-06 -5.39679e-06 3.60392e-06 -9.74363e-05
0.000530575 -0.000165395 -0.000156506 -9.54828e-05
-3.11031e-06 -5.4537e-06 3.67029e-06 -9.74386e-05
-3.06125e-06 -5.4252e-06 3.63705e-06 -9.74374e-05
-0.000534638 0.000154228 0.000163033 -9.54139e-05
-0.000530918 0.000153196 0.000161881 -9.54119e-05
0.000525284 -0.000163682 -0.000154972 -9.54791e-05
0.000528812 -0.000164824 -0.000155995 -9.54816e-05
-0.000532778 0.000153712 0.000162457 -9.54129e-05
-2.91507e-06 -5.34028e-06 3.538e-06 -9.74339e-05
0.000527048 -0.000164253 -0.000155484 -9.54803e-05
-3.01236e-06 -5.39679e-06 3.60392e-06 -9.74363e-05
-2.96363e-06 -5.36849e-06 3.57091e-06 -9.74351e-05
-0.000530918 0.000153196 0.000161881 -9.54119e-05
-0.0005272 0.000152164 0.00016073 -9.54098e-05
0.000521756 -0.00016254 -0.00015395 -9.54765e-05
0.000525284 -0.000163682 -0.000154972 -9.54791e-05
-0.000529059 0.00015268 0.000161305 -9.54108e-05
-2.81845e-06 -5.28415e-06 3.47254e-06 -9.74316e-05
0.00052352 -0.000163111 -0.000154461 -9.54778e-05
-2.91507e-06 -5.34028e-06 3.538e-06 -9.74339e-05
-2.86667e-06 -5.31216e-06 3.50522e-06 -9.74328e-05
-0.0005272 0.000152164 0.00016073 -9.54098e-05
-0.000523482 0.000151131 0.000159579 -9.54077e-05
0.000518227 -0.000161398 -0.000152927 -9.5474e-05
0.000521756 -0.00016254 -0.00015395 -9.54765e-05
-0.000525341 0.000151648 0.000160154 -9.54088e-05
-2.72249e-06 -5.2284e-06 3.40753e-06 -9.74292e-05
0.000519992 -0.000161969 -0.000153438 -9.54753e-05
-2.81845e-06 -5.28415e-06 3.47254e-06 -9.74316e-05
-2.77039e-06 -5.25623e-06 3.43998e-06 -9.74304e-05
-0.000523482 0.000151131 0.000159579 -9.54077e-05
-0.000519765 0.000150098 0.000158429 -9.54056e-05
0.000514698 -0.000160257 -0.000151903 -9.54714e-05
0.000518227 -0.000161398 -0.000152927 -9.5474e-05
-0.000521623 0.000150615 0.000159004 -9.54067e-05
-2.6272e-06 -5.17305e-06 3.34296e-06 -9.74269e-05
0.000516463 -0.000160828 -0.000152415 -9.54727e-05
-2.72249e-06 -5.2284e-06 3.40753e-06 -9.74292e-05
-2.67477e-06 -5.20068e-06 3.37519e-06 -9.74281e-05
-0.000519765 0.000150098 0.000158429 -9.54056e-05
-0.000516048 0.000149065 0.000157279 -9.54035e-05
0.000511168 -0.000159116 -0.000150879 -9.54689e-05
0.000514698 -0.000160257 -0.000151903 -9.54714e-05
-0.000517906 0.000149581 0.000157854 -9.54046e-05
-2.53258e-06 -5.11808e-06 3.27885e-06 -9.74245e-05
0.000512933 -0.000159687 -0.000151391 -9.54702e-05
-2.6272e-06 -5.17305e-06 3.34296e-06 -9.74269e-05
-2.57981e-06 -5.14551e-06 3.31085e-06 -9.74257e-05
-0.000516048 0.000149065 0.000157279 -9.54035e-05
-0.000512333 0.000148031 0.000156129 -9.54014e-05
0.000507638 -0.000157976 -0.000149855 -9.54663e-05
0.000511168 -0.000159116 -0.000150879 -9.54689e-05
-0.00051419 0.000148548 0.000156704 -9.54024e-05
-2.43863e-06 -5.06349e-06 3.21519e-06 -9.7422e-05
0.000509403 -0.000158546 -0.000150367 -9.54676e-05
-2.53258e-06 -5.11808e-06 3.27885e-06 -9.74245e-05
-2.48552e-06 -5.09074e-06 3.24697e-06 -9.74233e-05
-0.000512333 0.000148031 0.000156129 -9.54014e-05
-0.000508618 0.000146997 0.00015498 -9.53992e-05
0.000504107 -0.000156836 -0.00014883 -9.54636e-05
0.000507638 -0.000157976 -0.000149855 -9.54663e-05
-0.000510475 0.000147514 0.000155555 -9.54003e-05
-2.34534e-06 -5.0093e-06 3.15199e-06 -9.74196e-05
0.000505873 -0.000157406 -0.000149343 -9.5465e-05
-2.43863e-06 -5.06349e-06 3.21519e-06 -9.7422e-05
-2.3919e-06 -5.03635e-06 3.18353e-06 -9.74208e-05
-0.000508618 0.000146997 0.00015498 -9.53992e-05
-0.000504904 0.000145963 0.000153832 -9.5397e-05
0.000500576 -0.000155697 -0.000147805 -9.5461e-05
0.000504107 -0.000156836 -0.00014883 -9.54636e-05
-0.000506761 0.00014648 0.000154406 -9.53981e-05
-2.25272e-06 -4.95549e-06 3.08923e-06 -9.74172e-05
0.000502342 -0.000156267 -0.000148318 -9.54623e-05
-2.34534e-06 -5.0093e-06 3.15199e-06 -9.74196e-05
-2.29894e-06 -4.98234e-06 3.12055e-06 -9.74184e-05
-0.000504904 0.000145963 0.000153832 -9.5397e-05
-0.00050119 0.000144928 0.000152684 -9.53948e-05
0.000497044 -0.000154558 -0.00014678 -9.54584e-05
0.000500576 -0.000155697 -0.000147805 -9.5461e-05
-0.000503047 0.000145445 0.000153258 -9.53959e-05
-2.16076e-06 -4.90206e-06 3.02692e-06 -9.74147e-05
0.00049881 -0.000155127 -0.000147293 -9.54597e-05
-2.25272e-06 -4.95549e-06 3.08923e-06 -9.74172e-05
-2.20665e-06 -4.92873e-06 3.05802e-06 -9.74159e-05
-0.00050119 0.000144928 0.000152684 -9.53948e-05
-0.000497477 0.000143893 0.000151536 -9.53926e-05
0.000493511 -0.000153419 -0.000145754 -9.54557e-05
0.000497044 -0.000154558 -0.00014678 -9.54584e-05
-0.000499334 0.00014441 0.00015211 -9.53937e-05
-2.06947e-06 -4.84903e-06 2.96507e-06 -9.74122e-05
0.000495277 -0.000153988 -0.000146267 -9.5457e-05
-2.16076e-06 -4.90206e-06 3.02692e-06 -9.74147e-05
-2.11503e-06 -4.8755e-06 2.99594e-06 -9.74134e-05
-0.000497477 0.000143893 0.000151536 -9.53926e-05
-0.000493766 0.000142857 0.000150389 -9.53904e-05
0.000489978 -0.000152281 -0.000144727 -9.5453e-05
0.000493511 -0.000153419 -0.000145754 -9.54557e-05
-0.000495621 0.000143375 0.000150963 -9.53915e-05
-1.97885e-06 -4.79638e-06 2.90367e-06 -9.74097e-05
0.000491745 -0.00015285 -0.000145241 -9.54543e-05
-2.06947e-06 -4.84903e-06 2.96507e-06 -9.74122e-05
-2.02407e-06 -4.82265e-06 2.93431e-06 -9.74109e-05
-0.000493766 0.000142857 0.000150389 -9.53904e-05
-0.000490054 0.000141821 0.000149243 -9.53882e-05
0.000486444 -0.000151143 -0.000143701 -9.54503e-05
0.000489978 -0.000152281 -0.000144727 -9.5453e-05
-0.00049191 0.000142339 0.000149816 -9.53893e-05
-1.88889e-06 -4.74412e-06 2.84272e-06 -9.74072e-05
0.000488211 -0.000151712 -0.000144214 -9.54517e-05
-1.97885e-06 -4.79638e-06 2.90367e-06 -9.74097e-05
-1.93378e-06 -4.7702e-06 2.87314e-06 -9.74084e-05
-0.000490054 0.000141821 0.000149243 -9.53882e-05
-0.000486344 0.000140785 0.000148097 -9.53859e-05
0.00048291 -0.000150006 -0.000142673 -9.54476e-05
0.000486444 -0.000151143 -0.000143701 -9.54503e-05
-0.000488199 0.000141303 0.00014867 -9.53871e-05
-1.7996e-06 -4.69224e-06 2.78222e-06 -9.74046e-05
0.000484677 -0.000150574 -0.000143187 -9.5449e-05
-1.88889e-06 -4.74412e-06 2.84272e-06 -9.74072e-05
-1.84416e-06 -4.71813e-06 2.81241e-06 -9.74059e-05
-0.000486344 0.000140785 0.000148097 -9.53859e-05
-0.000482634 0.000139749 0.000146951 -9.53837e-05
0.000479375 -0.000148869 -0.000141646 -9.54449e-05
0.00048291 -0.000150006 -0.000142673 -9.54476e-05
-0.000484489 0.000140267 0.000147524 -9.53848e-05
-1.71097e-06 -4.64075e-06 2.72217e-06 -9.74021e-05
0.000481143 -0.000149437 -0.00014216 -9.54462e-05
-1.7996e-06 -4.69224e-06 2.78222e-06 -9.74046e-05
-1.7552e-06 -4.66645e-06 2.75214e-06 -9.74034e-05
-0.000482634 0.000139749 0.000146951 -9.53837e-05
-0.000478925 0.000138712 0.000145806 -9.53814e-05
0.00047584 -0.000147732 -0.000140618 -9.54421e-05
0.000479375 -0.000148869 -0.000141646 -9.54449e-05
-0.00048078 0.00013923 0.000146378 -9.53825e-05
-1.62301e-06 -4.58965e-06 2.66257e-06 -9.73995e-05
0.000477607 -0.0001483 -0.000141132 -9.54435e-05
-1.71097e-06 -4.64075e-06 2.72217e-06 -9.74021e-05
-1.66691e-06 -4.61515e-06 2.69231e-06 -9.74008e-05
-0.000478925 0.000138712 0.000145806 -9.53814e-05
-0.000475217 0.000137675 0.000144661 -9.53791e-05
0.000472304 -0.000146596 -0.000139589 -9.54394e-05
0.00047584 -0.000147732 -0.000140618 -9.54421e-05
-0.000477071 0.000138193 0.000145233 -9.53803e-05
-1.53572e-06 -4.53893e-06 2.60342e-06 -9.7397e-05
0.000474072 -0.000147164 -0.000140103 -9.54408e-05
-1.62301e-06 -4.58965e-06 2.66257e-06 -9.73995e-05
-1.57929e-06 -4.56424e-06 2.63294e-06 -9.73983e-05
-0.000475217 0.000137675 0.000144661 -9.53791e-05
-0.00047151 0.000136637 0.000143517 -9.53768e-05
0.000468767 -0.00014546 -0.00013856 -9.54366e-05
0.000472304 -0.000146596 -0.000139589 -9.54394e-05
-0.000473364 0.000137156 0.000144089 -9.5378e-05
-1.4491e-06 -4.4886e-06 2.54473e-06 -9.73944e-05
0.000470535 -0.000146028 -0.000139075 -9.5438e-05
-1.53572e-06 -4.53893e-06 2.60342e-06 -9.7397e-05
-1.49233e-06 -4.51372e-06 2.57402e-06 -9.73957e-05
-0.00047151 0.000136637 0.000143517 -9.53768e-05
-0.000467803 0.000135599 0.000142373 -9.53745e-05
0.00046523 -0.000144324 -0.000137531 -9.54339e-05
0.000468767 -0.00014546 -0.00013856 -9.54366e-05
-0.000469657 0.000136118 0.000142945 -9.53757e-05
-1.36314e-06 -4.43866e-06 2.48648e-06 -9.73918e-05
0.000466999 -0.000144892 -0.000138046 -9.54352e-05
-1.4491e-06 -4.4886e-06 2.54473e-06 -9.73944e-05
-1.40603e-06 -4.46358e-06 2.51555e-06 -9.73931e-05
-0.000467803 0.000135599 0.000142373 -9.53745e-05
-0.000464097 0.000134561 0.00014123 -9.53722e-05
0.000461692 -0.000143189 -0.000136501 -9.54311e-05
0.00046523 -0.000144324 -0.000137531 -9.54339e-05
-0.00046595 0.00013508 0.000141801 -9.53734e-05
-1.27784e-06 -4.3891e-06 2.42869e-06 -9.73892e-05
0.000463461 -0.000143757 -0.000137016 -9.54325e-05
-1.36314e-06 -4.43866e-06 2.48648e-06 -9.73918e-05
-1.32041e-06 -4.41383e-06 2.45753e-06 -9.73905e-05
-0.000464097 0.000134561 0.00014123 -9.53722e-05
-0.000460392 0.000133522 0.000140087 -9.53699e-05
0.000458154 -0.000142055 -0.000135471 -9.54283e-05
0.000461692 -0.000143189 -0.000136501 -9.54311e-05
-0.000462245 0.000134042 0.000140658 -9.5371e-05
-1.19322e-06 -4.33993e-06 2.37135e-06 -9.73866e-05
0.000459923 -0.000142622 -0.000135986 -9.54297e-05
-1.27784e-06 -4.3891e-06 2.42869e-06 -9.73892e-05
-1.23545e-06 -4.36447e-06 2.39996e-06 -9.73879e-05
-0.000460392 0.000133522 0.000140087 -9.53699e-05
-0.000456688 0.000132483 0.000138945 -9.53675e-05
0.000454615 -0.000140921 -0.000134441 -9.54255e-05
0.000458154 -0.000142055 -0.000135471 -9.54283e-05
-0.00045854 0.000133003 0.000139516 -9.53687e-05
-1.10925e-06 -4.29115e-06 2.31446e-06 -9.7384e-05
0.000456385 -0.000141488 -0.000134956 -9.54269e-05
-1.19322e-06 -4.33993e-06 2.37135e-06 -9.73866e-05
-1.15115e-06 -4.31549e-06 2.34285e-06 -9.73853e-05
-0.000456688 0.000132483 0.000138945 -9.53675e-05
-0.000452984 0.000131444 0.000137803 -9.53652e-05
0.000451076 -0.000139787 -0.00013341 -9.54227e-05
0.000454615 -0.000140921 -0.000134441 -9.54255e-05
-0.000454836 0.000131964 0.000138374 -9.53664e-05
-1.02596e-06 -4.24276e-06 2.25802e-06 -9.73814e-05
0.000452846 -0.000140354 -0.000133925 -9.54241e-05
-1.10925e-06 -4.29115e-06 2.31446e-06 -9.7384e-05
-1.06752e-06 -4.2669e-06 2.28618e-06 -9.73827e-05
-0.000452984 0.000131444 0.000137803 -9.53652e-05
-0.000449281 0.000130405 0.000136662 -9.53629e-05
0.000447536 -0.000138654 -0.000132378 -9.54199e-05
0.000451076 -0.000139787 -0.00013341 -9.54227e-05
-0.000451133 0.000130924 0.000137232 -9.5364e-05
-9.4333e-07 -4.19475e-06 2.20203e-06 -9.73787e-05
0.000449306 -0.00013922 -0.000132894 -9.54213e-05
-1.02596e-06 -4.24276e-06 2.25802e-06 -9.73814e-05
-9.84562e-07 -4.2187e-06 2.22997e-06 -9.738e-05
-0.000449281 0.000130405 0.000136662 -9.53629e-05
-0.000445579 0.000129365 0.000135521 -9.53605e-05
0.000443996 -0.000137521 -0.000131347 -9.54171e-05
0.000447536 -0.000138654 -0.000132378 -9.54199e-05
-0.00044743 0.000129885 0.000136091 -9.53617e-05
-8.61367e-07 -4.14712e-06 2.1465e-06 -9.73761e-05
0.000445766 -0.000138087 -0.000131862 -9.54185e-05
-9.4333e-07 -4.19475e-06 2.20203e-06 -9.73787e-05
-9.02266e-07 -4.17089e-06 2.17421e-06 -9.73774e-05
-0.000445579 0.000129365 0.000135521 -9.53605e-05
-0.000441878 0.000128324 0.00013438 -9.53582e-05
0.000440455 -0.000136388 -0.000130314 -9.54143e-05
0.000443996 -0.000137521 -0.000131347 -9.54171e-05
-0.000443729 0.000128844 0.00013495 -9.53593e-05
-7.8007e-07 -4.09989e-06 2.09141e-06 -9.73734e-05
0.000442225 -0.000136954 -0.00013083 -9.54157e-05
-8.61367e-07 -4.14712e-06 2.1465e-06 -9.73761e-05
-8.20636e-07 -4.12346e-06 2.1189e-06 -9.73748e-05
-0.000441878 0.000128324 0.00013438 -9.53582e-05
-0.000438177 0.000127284 0.00013324 -9.53558e-05
0.000436913 -0.000135256 -0.000129282 -9.54114e-05
0.000440455 -0.000136388 -0.000130314 -9.54143e-05
-0.000440028 0.000127804 0.00013381 -9.5357e-05
-6.99439e-07 -4.05304e-06 2.03678e-06 -9.73708e-05
0.000438684 -0.000135822 -0.000129798 -9.54128e-05
-7.8007e-07 -4.09989e-06 2.09141e-06 -9.73734e-05
-7.39672e-07 -4.07641e-06 2.06404e-06 -9.73721e-05
-0.000438177 0.000127284 0.00013324 -9.53558e-05
-0.000434478 0.000126243 0.000132101 -9.53534e-05
0.000433371 -0.000134124 -0.000128249 -9.54086e-05
0.000436913 -0.000135256 -0.000129282 -9.54114e-05
-0.000436327 0.000126763 0.00013267 -9.53546e-05
-6.19474e-07 -4.00658e-06 1.98259e-06 -9.73681e-05
0.000435142 -0.00013469 -0.000128765 -9.541e-05
-6.99439e-07 -4.05304e-06 2.03678e-06 -9.73708e-05
-6.59374e-07 -4.02976e-06 2.00963e-06 -9.73695e-05
-0.000434478 0.000126243 0.000132101 -9.53534e-05
-0.000430778 0.000125201 0.000130962 -9.53511e-05
0.000429828 -0.000132993 -0.000127215 -9.54058e-05
0.000433371 -0.000134124 -0.000128249 -9.54086e-05
-0.000432628 0.000125722 0.000131531 -9.53522e-05
-5.40175e-07 -3.9605e-06 1.92886e-06 -9.73655e-05
0.0004316 -0.000133558 -0.000127732 -9.54072e-05
-6.19474e-07 -4.00658e-06 1.98259e-06 -9.73681e-05
-5.79742e-07 -3.98349e-06 1.95567e-06 -9.73668e-05
-0.000430778 0.000125201 0.000130962 -9.53511e-05
-0.00042708 0.00012416 0.000129823 -9.53487e-05
0.000426285 -0.000131862 -0.000126181 -9.54029e-05
0.000429828 -0.000132993 -0.000127215 -9.54058e-05
-0.000428929 0.00012468 0.000130392 -9.53499e-05
-4.61542e-07 -3.91481e-06 1.87558e-06 -9.73628e-05
0.000428057 -0.000132427 -0.000126698 -9.54044e-05
-5.40175e-07 -3.9605e-06 1.92886e-06 -9.73655e-05
-5.00775e-07 -3.93761e-06 1.90216e-06 -9.73642e-05
-0.00042708 0.00012416 0.000129823 -9.53487e-05
-0.000423383 0.000123117 0.000128685 -9.53463e-05
0.000422741 -0.000130731 -0.000125147 -9.54001e-05
0.000426285 -0.000131862 -0.000126181 -9.54029e-05
-0.000425231 0.000123639 0.000129254 -9.53475e-05
-3.83574e-07 -3.86951e-06 1.82275e-06 -9.73602e-05
0.000424513 -0.000131297 -0.000125664 -9.54015e-05
-4.61542e-07 -3.91481e-06 1.87558e-06 -9.73628e-05
-4.22475e-07 -3.89211e-06 1.84911e-06 -9.73615e-05
-0.000423383 0.000123117 0.000128685 -9.53463e-05
-0.000419686 0.000122075 0.000127547 -9.53439e-05
0.000419197 -0.000129601 -0.000124112 -9.53973e-05
0.000422741 -0.000130731 -0.000125147 -9.54001e-05
-0.000421534 0.000122596 0.000128116 -9.53451e-05
-3.06272e-07 -3.82459e-06 1.77037e-06 -9.73575e-05
0.000420969 -0.000130166 -0.00012463 -9.53987e-05
-3.83574e-07 -3.86951e-06 1.82275e-06 -9.73602e-05
-3.4484e-07 -3.847e-06 1.7965e-06 -9.73588e-05
-0.000419686 0.000122075 0.000127547 -9.53439e-05
-0.00041599 0.000121032 0.00012641 -9.53416e-05
0.000415652 -0.000128472 -0.000123077 -9.53944e-05
0.000419197 -0.000129601 -0.000124112 -9.53973e-05
-0.000417838 0.000121554 0.000126979 -9.53427e-05
-2.29637e-07 -3.78006e-06 1.71844e-06 -9.73548e-05
0.000417425 -0.000129036 -0.000123595 -9.53958e-05
-3.06272e-07 -3.82459e-06 1.77037e-06 -9.73575e-05
-2.67872e-07 -3.80228e-06 1.74435e-06 -9.73562e-05
-0.00041599 0.000121032 0.00012641 -9.53416e-05
-0.000412294 0.000119989 0.000125274 -9.53392e-05
0.000412107 -0.000127342 -0.000122042 -9.53916e-05
0.000415652 -0.000128472 -0.000123077 -9.53944e-05
-0.000414142 0.000120511 0.000125842 -9.53404e-05
-1.53666e-07 -3.73592e-06 1.66696e-06 -9.73522e-05
0.000413879 -0.000127907 -0.00012256 -9.5393e-05
-2.29637e-07 -3.78006e-06 1.71844e-06 -9.73548e-05
-1.91569e-07 -3.75794e-06 1.69265e-06 -9.73535e-05
-0.000412294 0.000119989 0.000125274 -9.53392e-05
-0.0004086 0.000118946 0.000124137 -9.53368e-05
0.000408561 -0.000126213 -0.000121006 -9.53887e-05
0.000412107 -0.000127342 -0.000122042 -9.53916e-05
-0.000410447 0.000119468 0.000124706 -9.5338e-05
-7.8362e-08 -3.69216e-06 1.61594e-06 -9.73495e-05
0.000410334 -0.000126778 -0.000121524 -9.53902e-05
-1.53666e-07 -3.73592e-06 1.66696e-06 -9.73522e-05
-1.15931e-07 -3.71399e-06 1.64139e-06 -9.73508e-05
-0.0004086 0.000118946 0.000124137 -9.53368e-05
-0.000404906 0.000117902 0.000123002 -9.53344e-05
0.000405014 -0.000125085 -0.00011997 -9.53859e-05
0.000408561 -0.000126213 -0.000121006 -9.53887e-05
-0.000406753 0.000118424 0.00012357 -9.53356e-05
-3.72326e-09 -3.64879e-06 1.56536e-06 -9.73469e-05
0.000406787 -0.000125649 -0.000120488 -9.53873e-05
-7.8362e-08 -3.69216e-06 1.61594e-06 -9.73495e-05
-4.09599e-08 -3.67043e-06 1.59059e-06 -9.73482e-05
-0.000404906 0.000117902 0.000123002 -9.53344e-05
-0.000401213 0.000116858 0.000121867 -9.5332e-05
0.000401467 -0.000123957 -0.000118933 -9.53831e-05
0.000405014 -0.000125085 -0.00011997 -9.53859e-05
-0.000403059 0.00011738 0.000122434 -9.53332e-05
7.02499e-08 -3.60581e-06 1.51524e-06 -9.73442e-05
0.000403241 -0.000124521 -0.000119451 -9.53845e-05
-3.72326e-09 -3.64879e-06 1.56536e-06 -9.73469e-05
3.33461e-08 -3.62725e-06 1.54024e-06 -9.73455e-05
-0.000401213 0.000116858 0.000121867 -9.5332e-05
-0.000397521 0.000115813 0.000120732 -9.53297e-05
0.000397919 -0.000122829 -0.000117896 -9.53802e-05
0.000401467 -0.000123957 -0.000118933 -9.53831e-05
-0.000399367 0.000116336 0.000121299 -9.53309e-05
1.43557e-07 -3.56321e-06 1.46557e-06 -9.73415e-05
0.000399693 -0.000123393 -0.000118414 -9.53817e-05
7.02499e-08 -3.60581e-06 1.51524e-06 -9.73442e-05
1.06986e-07 -3.58446e-06 1.49035e-06 -9.73429e-05
-0.000397521 0.000115813 0.000120732 -9.53297e-05
-0.000393829 0.000114768 0.000119597 -9.53273e-05
0.000394371 -0.000121702 -0.000116858 -9.53774e-05
0.000397919 -0.000122829 -0.000117896 -9.53802e-05
-0.000395675 0.000115291 0.000120165 -9.53285e-05
2.16199e-07 -3.521e-06 1.41634e-06 -9.73389e-05
0.000396145 -0.000122266 -0.000117377 -9.53788e-05
1.43557e-07 -3.56321e-06 1.46557e-06 -9.73415e-05
1.79961e-07 -3.54206e-06 1.4409e-06 -9.73402e-05
-0.000393829 0.000114768 0.000119597 -9.53273e-05
-0.000390138 0.000113723 0.000118464 -9.53249e-05
0.000390822 -0.000120575 -0.00011582 -9.53746e-05
0.000394371 -0.000121702 -0.000116858 -9.53774e-05
-0.000391984 0.000114246 0.000119031 -9.53261e-05
2.88176e-07 -3.47917e-06 1.36757e-06 -9.73362e-05
0.000392597 -0.000121138 -0.000116339 -9.5376e-05
2.16199e-07 -3.521e-06 1.41634e-06 -9.73389e-05
2.5227e-07 -3.50004e-06 1.3919e-06 -9.73375e-05
-0.000390138 0.000113723 0.000118464 -9.53249e-05
-0.000386448 0.000112678 0.00011733 -9.53226e-05
0.000387273 -0.000119449 -0.000114782 -9.53717e-05
0.000390822 -0.000120575 -0.00011582 -9.53746e-05
-0.000388293 0.000113201 0.000117897 -9.53237e-05
3.59487e-07 -3.43774e-06 1.31925e-06 -9.73336e-05
0.000389048 -0.000120012 -0.000115301 -9.53732e-05
2.88176e-07 -3.47917e-06 1.36757e-06 -9.73362e-05
3.23914e-07 -3.45841e-06 1.34335e-06 -9.73349e-05
-0.000386448 0.000112678 0.00011733 -9.53226e-05
-0.000382759 0.000111632 0.000116197 -9.53202e-05
0.000383723 -0.000118323 -0.000113743 -9.53689e-05
0.000387273 -0.000119449 -0.000114782 -9.53717e-05
-0.000384604 0.000112155 0.000116764 -9.53214e-05
4.30132e-07 -3.39668e-06 1.27138e-06 -9.73309e-05
0.000385498 -0.000118886 -0.000114262 -9.53703e-05
3.59487e-07 -3.43774e-06 1.31925e-06 -9.73336e-05
3.94892e-07 -3.41716e-06 1.29526e-06 -9.73322e-05
-0.000382759 0.000111632 0.000116197 -9.53202e-05
-0.000379071 0.000110586 0.000115065 -9.53178e-05
0.000380173 -0.000117197 -0.000112704 -9.53661e-05
0.000383723 -0.000118323 -0.000113743 -9.53689e-05
-0.000380915 0.000111109 0.000115631 -9.5319e-05
5.00112e-07 -3.35602e-06 1.22396e-06 -9.73283e-05
0.000381948 -0.00011776 -0.000113223 -9.53675e-05
4.30132e-07 -3.39668e-06 1.27138e-06 -9.73309e-05
4.65205e-07 -3.3763e-06 1.24761e-06 -9.73296e-05
-0.000379071 0.000110586 0.000115065 -9.53178e-05
-0.000375383 0.000109539 0.000113933 -9.53155e-05
0.000376621 -0.000116072 -0.000111664 -9.53633e-05
0.000380173 -0.000117197 -0.000112704 -9.53661e-05
-0.000377227 0.000110062 0.000114499 -9.53167e-05
5.69427e-07 -3.31574e-06 1.17699e-06 -9.73256e-05
0.000378397 -0.000116634 -0.000112184 -9.53647e-05
5.00112e-07 -3.35602e-06 1.22396e-06 -9.73283e-05
5.34853e-07 -3.33583e-06 1.20042e-06 -9.7327e-05
-0.000375383 0.000109539 0.000113933 -9.53155e-05
-0.000371696 0.000108492 0.000112802 -9.53132e-05
0.00037307 -0.000114947 -0.000110624 -9.53605e-05
0.000376621 -0.000116072 -0.000111664 -9.53633e-05
-0.000373539 0.000109016 0.000113367 -9.53143e-05
6.38077e-07 -3.27585e-06 1.13047e-06 -9.7323e-05
0.000374846 -0.000115509 -0.000111144 -9.53619e-05
5.69427e-07 -3.31574e-06 1.17699e-06 -9.73256e-05
6.03835e-07 -3.29575e-06 1.15368e-06 -9.73243e-05
-0.000371696 0.000108492 0.000112802 -9.53132e-05
-0.00036801 0.000107445 0.000111671 -9.53108e-05
0.000369518 -0.000113823 -0.000109584 -9.53577e-05
0.00037307 -0.000114947 -0.000110624 -9.53605e-05
-0.000369853 0.000107969 0.000112236 -9.5312e-05
7.06061e-07 -3.23634e-06 1.08441e-06 -9.73204e-05
0.000371294 -0.000114385 -0.000110104 -9.53591e-05
6.38077e-07 -3.27585e-06 1.13047e-06 -9.7323e-05
6.72152e-07 -3.25605e-06 1.10738e-06 -9.73217e-05
-0.00036801 0.000107445 0.000111671 -9.53108e-05
-0.000364324 0.000106397 0.00011054 -9.53085e-05
0.000365965 -0.000112699 -0.000108543 -9.53549e-05
0.000369518 -0.000113823 -0.000109584 -9.53577e-05
-0.000366167 0.000106921 0.000111105 -9.53096e-05
7.7338e-07 -3.19722e-06 1.03879e-06 -9.73178e-05
0.000367741 -0.000113261 -0.000109063 -9.53563e-05
7.06061e-07 -3.23634e-06 1.08441e-06 -9.73204e-05
7.39803e-07 -3.21673e-06 1.06154e-06 -9.73191e-05
-0.000364324 0.000106397 0.00011054 -9.53085e-05
-0.00036064 0.000105349 0.00010941 -9.53062e-05
0.000362412 -0.000111575 -0.000107501 -9.53521e-05
0.000365965 -0.000112699 -0.000108543 -9.53549e-05
-0.000362482 0.000105873 0.000109975 -9.53073e-05
8.40034e-07 -3.15849e-06 9.93624e-07 -9.73152e-05
0.000364188 -0.000112137 -0.000108022 -9.53535e-05
7.7338e-07 -3.19722e-06 1.03879e-06 -9.73178e-05
8.0679e-07 -3.17781e-06 1.01615e-06 -9.73165e-05
-0.00036064 0.000105349 0.00010941 -9.53062e-05
-0.000356956 0.000104301 0.00010828 -9.53038e-05
0.000358858 -0.000110452 -0.00010646 -9.53493e-05
0.000362412 -0.000111575 -0.000107501 -9.53521e-05
-0.000358797 0.000104825 0.000108845 -9.5305e-05
9.06022e-07 -3.12014e-06 9.48909e-07 -9.73126e-05
0.000360635 -0.000111013 -0.000106981 -9.53507e-05
8.40034e-07 -3.15849e-06 9.93624e-07 -9.73152e-05
8.73111e-07 -3.13927e-06 9.7121e-07 -9.73139e-05
-0.000356956 0.000104301 0.00010828 -9.53038e-05
-0.000353272 0.000103252 0.000107151 -9.53015e-05
0.000355304 -0.000109329 -0.000105418 -9.53466e-05
0.000358858 -0.000110452 -0.00010646 -9.53493e-05
-0.000355114 0.000103777 0.000107716 -9.53027e-05
9.71346e-07 -3.08218e-06 9.04644e-07 -9.731e-05
0.000357081 -0.00010989 -0.000105939 -9.53479e-05
9.06022e-07 -3.12014e-06 9.48909e-07 -9.73126e-05
9.38767e-07 -3.10111e-06 9.2672e-07 -9.73113e-05
-0.000353272 0.000103252 0.000107151 -9.53015e-05
-0.00034959 0.000102203 0.000106023 -9.52992e-05
0.000351749 -0.000108207 -0.000104375 -9.53438e-05
0.000355304 -0.000109329 -0.000105418 -9.53466e-05
-0.000351431 0.000102728 0.000106587 -9.53004e-05
1.036e-06 -3.04461e-06 8.6083e-07 -9.73074e-05
0.000353526 -0.000108768 -0.000104896 -9.53452e-05
9.71346e-07 -3.08218e-06 9.04644e-07 -9.731e-05
1.00376e-06 -3.06335e-06 8.82681e-07 -9.73087e-05
-0.00034959 0.000102203 0.000106023 -9.52992e-05
-0.000345908 0.000101154 0.000104895 -9.5297e-05
0.000348193 -0.000107085 -0.000103332 -9.53411e-05
0.000351749 -0.000108207 -0.000104375 -9.53438e-05
-0.000347749 0.000101679 0.000105459 -9.52981e-05
1.1e-06 -3.00742e-06 8.17467e-07 -9.73048e-05
0.000349971 -0.000107646 -0.000103854 -9.53424e-05
1.036e-06 -3.04461e-06 8.6083e-07 -9.73074e-05
1.06808e-06 -3.02597e-06 8.39092e-07 -9.73061e-05
-0.000345908 0.000101154 0.000104895 -9.5297e-05
-0.000342227 0.000100104 0.000103767 -9.52947e-05
0.000344637 -0.000105963 -0.000102289 -9.53383e-05
0.000348193 -0.000107085 -0.000103332 -9.53411e-05
-0.000344068 0.000100629 0.000104331 -9.52958e-05
1.16333e-06 -2.97062e-06 7.74554e-07 -9.73023e-05
0.000346415 -0.000106524 -0.000102811 -9.53397e-05
1.1e-06 -3.00742e-06 8.17467e-07 -9.73048e-05
1.13174e-06 -2.98897e-06 7.95954e-07 -9.73036e-05
-0.000342227 0.000100104 0.000103767 -9.52947e-05
-0.000338547 9.90544e-05 0.00010264 -9.52924e-05
0.00034108 -0.000104842 -0.000101245 -9.53356e-05
0.000344637 -0.000105963 -0.000102289 -9.53383e-05
-0.000340387 9.95794e-05 0.000103203 -9.52935e-05
1.22599e-06 -2.9342e-06 7.32091e-07 -9.72997e-05
0.000342859 -0.000105403 -0.000101767 -9.5337e-05
1.16333e-06 -2.97062e-06 7.74554e-07 -9.73023e-05
1.19474e-06 -2.95236e-06 7.53266e-07 -9.7301e-05
-0.000338547 9.90544e-05 0.00010264 -9.52924e-05
-0.000334868 9.8004e-05 0.000101513 -9.52901e-05
0.000337523 -0.000103721 -0.000100201 -9.53329e-05
0.00034108 -0.000104842 -0.000101245 -9.53356e-05
-0.000336707 9.85292e-05 0.000102076 -9.52913e-05
1.28799e-06 -2.89817e-06 6.90079e-07 -9.72972e-05
0.000339302 -0.000104282 -0.000100723 -9.53342e-05
1.22599e-06 -2.9342e-06 7.32091e-07 -9.72997e-05
1.25707e-06 -2.91614e-06 7.11029e-07 -9.72984e-05
-0.000334868 9.8004e-05 0.000101513 -9.52901e-05
-0.000331189 9.69533e-05 0.000100387 -9.52879e-05
0.000333966 -0.000102601 -9.91562e-05 -9.53302e-05
0.000337523 -0.000103721 -0.000100201 -9.53329e-05
-0.000333028 9.74787e-05 0.00010095 -9.5289e-05
1.34932e-06 -2.86253e-06 6.48517e-07 -9.72947e-05
0.000335745 -0.000103161 -9.96786e-05 -9.53315e-05
1.28799e-06 -2.89817e-06 6.90079e-07 -9.72972e-05
1.31874e-06 -2.8803e-06 6.69242e-07 -9.72959e-05
-0.000331189 9.69533e-05 0.000100387 -9.52879e-05
-0.000327511 9.59022e-05 9.92609e-05 -9.52857e-05
0.000330407 -0.000101481 -9.81112e-05 -9.53275e-05
0.000333966 -0.000102601 -9.91562e-05 -9.53302e-05
-0.00032935 9.64278e-05 9.98237e-05 -9.52868e-05
1.40999e-06 -2.82727e-06 6.07406e-07 -9.72921e-05
0.000332186 -0.000102041 -9.86338e-05 -9.53288e-05
1.34932e-06 -2.86253e-06 6.48517e-07 -9.72947e-05
1.37974e-06 -2.84485e-06 6.27906e-07 -9.72934e-05
-0.000327511 9.59022e-05 9.92609e-05 -9.52857e-05
-0.000323834 9.48507e-05 9.81355e-05 -9.52835e-05
0.000326848 -0.000100362 -9.70658e-05 -9.53248e-05
0.000330407 -0.000101481 -9.81112e-05 -9.53275e-05
-0.000325672 9.53765e-05 9.86981e-05 -9.52846e-05
1.47e-06 -2.7924e-06 5.66745e-07 -9.72896e-05
0.000328628 -0.000100921 -9.75885e-05 -9.53261e-05
1.40999e-06 -2.82727e-06 6.07406e-07 -9.72921e-05
1.44008e-06 -2.80979e-06 5.87019e-07 -9.72909e-05
-0.000323834 9.48507e-05 9.81355e-05 -9.52835e-05
-0.000320157 9.3799e-05 9.70107e-05 -9.52812e-05
0.000323289 -9.92425e-05 -9.60199e-05 -9.53221e-05
0.000326848 -0.000100362 -9.70658e-05 -9.53248e-05
-0.000321995 9.43249e-05 9.7573e-05 -9.52823e-05
1.52934e-06 -2.75792e-06 5.26535e-07 -9.72871e-05
0.000325069 -9.9802e-05 -9.65429e-05 -9.53235e-05
1.47e-06 -2.7924e-06 5.66745e-07 -9.72896e-05
1.49975e-06 -2.77511e-06 5.46584e-07 -9.72884e-05
-0.000320157 9.3799e-05 9.70107e-05 -9.52812e-05
-0.000316481 9.27468e-05 9.58863e-05 -9.52791e-05
0.000319729 -9.81238e-05 -9.49736e-05 -9.53195e-05
0.000323289 -9.92425e-05 -9.60199e-05 -9.53221e-05
-0.000318319 9.32729e-05 9.64484e-05 -9.52801e-05
1.58801e-06 -2.72382e-06 4.86774e-07 -9.72847e-05
0.000321509 -9.86831e-05 -9.54968e-05 -9.53208e-05
1.52934e-06 -2.75792e-06 5.26535e-07 -9.72871e-05
1.55876e-06 -2.74082e-06 5.06598e-07 -9.72859e-05
-0.000316481 9.27468e-05 9.58863e-05 -9.52791e-05
-0.000312807 9.16944e-05 9.47623e-05 -9.52769e-05
0.000316168 -9.70055e-05 -9.3927e-05 -9.53168e-05
0.000319729 -9.81238e-05 -9.49736e-05 -9.53195e-05
-0.000314644 9.22206e-05 9.53243e-05 -9.5278e-05
1.64602e-06 -2.69011e-06 4.47464e-07 -9.72822e-05
0.000317949 -9.75646e-05 -9.44504e-05 -9.53181e-05
1.58801e-06 -2.72382e-06 4.86774e-07 -9.72847e-05
1.6171e-06 -2.70691e-06 4.67063e-07 -9.72834e-05
-0.000312807 9.16944e-05 9.47623e-05 -9.52769e-05
-0.000309132 9.06415e-05 9.36389e-05 -9.52747e-05
0.000312607 -9.58876e-05 -9.28799e-05 -9.53142e-05
0.000316168 -9.70055e-05 -9.3927e-05 -9.53168e-05
-0.000310969 9.1168e-05 9.42006e-05 -9.52758e-05
1.70337e-06 -2.65678e-06 4.08605e-07 -9.72798e-05
0.000314388 -9.64465e-05 -9.34035e-05 -9.53155e-05
1.64602e-06 -2.69011e-06 4.47464e-07 -9.72822e-05
1.67478e-06 -2.67339e-06 4.27978e-07 -9.7281e-05
-0.000309132 9.06415e-05 9.36389e-05 -9.52747e-05
-0.000305459 8.95884e-05 9.25159e-05 -9.52726e-05
0.000309046 -9.47701e-05 -9.18324e-05 -9.53116e-05
0.000312607 -9.58876e-05 -9.28799e-05 -9.53142e-05
-0.000307295 9.0115e-05 9.30773e-05 -9.52736e-05
1.76005e-06 -2.62384e-06 3.70195e-07 -9.72773e-05
0.000310827 -9.53288e-05 -9.23562e-05 -9.53129e-05
1.70337e-06 -2.65678e-06 4.08605e-07 -9.72798e-05
1.73179e-06 -2.64026e-06 3.89344e-07 -9.72785e-05
-0.000305459 8.95884e-05 9.25159e-05 -9.52726e-05
-0.000301786 8.85348e-05 9.13934e-05 -9.52704e-05
0.000305483 -9.36531e-05 -9.07844e-05 -9.5309e-05
0.000309046 -9.47701e-05 -9.18324e-05 -9.53116e-05
-0.000303622 8.90616e-05 9.19546e-05 -9.52715e-05
1.81607e-06 -2.59128e-06 3.32236e-07 -9.72749e-05
0.000307265 -9.42115e-05 -9.13085e-05 -9.53103e-05
1.76005e-06 -2.62384e-06 3.70195e-07 -9.72773e-05
1.78814e-06 -2.60751e-06 3.5116e-07 -9.72761e-05
-0.000301786 8.85348e-05 9.13934e-05 -9.52704e-05
-0.000298114 8.7481e-05 9.02713e-05 -9.52683e-05
0.000301921 -9.25364e-05 -8.97361e-05 -9.53064e-05
0.000305483 -9.36531e-05 -9.07844e-05 -9.5309e-05
-0.00029995 8.80079e-05 9.08323e-05 -9.52694e-05
1.87142e-06 -2.55911e-06 2.94727e-07 -9.72725e-05
0.000303702 -9.30947e-05 -9.02603e-05 -9.53077e-05
1.81607e-06 -2.59128e-06 3.32236e-07 -9.72749e-05
1.84382e-06 -2.57515e-06 3.13425e-07 -9.72737e-05
-0.000298114 8.7481e-05 9.02713e-05 -9.52683e-05
-0.000294443 8.64267e-05 8.91498e-05 -9.52662e-05
0.000298357 -9.14201e-05 -8.86873e-05 -9.53038e-05
0.000301921 -9.25364e-05 -8.97361e-05 -9.53064e-05
-0.000296278 8.69539e-05 8.97105e-05 -9.52672e-05
1.92611e-06 -2.52733e-06 2.57668e-07 -9.72701e-05
0.000300139 -9.19782e-05 -8.92118e-05 -9.53051e-05
1.87142e-06 -2.55911e-06 2.94727e-07 -9.72725e-05
1.89884e-06 -2.54317e-06 2.76141e-07 -9.72713e-05
-0.000294443 8.64267e-05 8.91498e-05 -9.52662e-05
-0.000290772 8.53722e-05 8.80287e-05 -9.52641e-05
0.000294793 -9.03042e-05 -8.76382e-05 -9.53013e-05
0.000298357 -9.14201e-05 -8.86873e-05 -9.53038e-05
-0.000292608 8.58995e-05 8.85892e-05 -9.52651e-05
1.98013e-06 -2.49593e-06 2.21059e-07 -9.72678e-05
0.000296575 -9.08621e-05 -8.81628e-05 -9.53026e-05
1.92611e-06 -2.52733e-06 2.57668e-07 -9.72701e-05
1.9532e-06 -2.51158e-06 2.39308e-07 -9.7269e-05
-0.000290772 8.53722e-05 8.80287e-05 -9.52641e-05
-0.000287103 8.43173e-05 8.6908e-05 -9.5262e-05
0.000291229 -8.91888e-05 -8.65886e-05 -9.52988e-05
0.000294793 -9.03042e-05 -8.76382e-05 -9.53013e-05
-0.000288937 8.48448e-05 8.74683e-05 -9.52631e-05
2.03349e-06 -2.46492e-06 1.84901e-07 -9.72654e-05
0.000293011 -8.97464e-05 -8.71134e-05 -9.53e-05
1.98013e-06 -2.49593e-06 2.21059e-07 -9.72678e-05
2.00689e-06 -2.48038e-06 2.02924e-07 -9.72666e-05
-0.000287103 8.43173e-05 8.6908e-05 -9.5262e-05
-0.000283434 8.3262e-05 8.57878e-05 -9.526e-05
0.000287664 -8.80737e-05 -8.55386e-05 -9.52963e-05
0.000291229 -8.91888e-05 -8.65886e-05 -9.52988e-05
-0.000285268 8.37897e-05 8.63479e-05 -9.5261e-05
2.08618e-06 -2.4343e-06 1.49192e-07 -9.72631e-05
0.000289446 -8.86312e-05 -8.60636e-05 -9.52975e-05
2.03349e-06 -2.46492e-06 1.84901e-07 -9.72654e-05
2.05992e-06 -2.44956e-06 1.6699e-07 -9.72643e-05
-0.000283434 8.3262e-05 8.57878e-05 -9.526e-05
-0.000279765 8.22064e-05 8.46681e-05 -9.5258e-05
0.000284098 -8.6959e-05 -8.44882e-05 -9.52938e-05
0.000287664 -8.80737e-05 -8.55386e-05 -9.52963e-05
-0.000281599 8.27342e-05 8.52279e-05 -9.5259e-05
2.13822e-06 -2.40406e-06 1.13933e-07 -9.72608e-05
0.000285881 -8.75163e-05 -8.50134e-05 -9.5295e-05
2.08618e-06 -2.4343e-06 1.49192e-07 -9.72631e-05
2.11228e-06 -2.41913e-06 1.31506e-07 -9.72619e-05
-0.000279765 8.22064e-05 8.46681e-05 -9.5258e-05
-0.000276098 8.11504e-05 8.35489e-05 -9.52559e-05
0.000280532 -8.58448e-05 -8.34373e-05 -9.52913e-05
0.000284098 -8.6959e-05 -8.44882e-05 -9.52938e-05
-0.000277931 8.16784e-05 8.41085e-05 -9.52569e-05
2.18958e-06 -2.37421e-06 7.91246e-08 -9.72585e-05
0.000282315 -8.64019e-05 -8.39628e-05 -9.52925e-05
2.13822e-06 -2.40406e-06 1.13933e-07 -9.72608e-05
2.16398e-06 -2.38908e-06 9.64728e-08 -9.72596e-05
-0.000276098 8.11504e-05 8.35489e-05 -9.52559e-05
-0.000272431 8.00941e-05 8.24301e-05 -9.52539e-05
0.000276965 -8.47309e-05 -8.23861e-05 -9.52888e-05
0.000280532 -8.58448e-05 -8.34373e-05 -9.52913e-05
-0.000274264 8.06223e-05 8.29895e-05 -9.52549e-05
2.24028e-06 -2.34474e-06 4.4766e-08 -9.72562e-05
0.000278749 -8.52878e-05 -8.29118e-05 -9.52901e-05
2.18958e-06 -2.37421e-06 7.91246e-08 -9.72585e-05
2.21502e-06 -2.35942e-06 6.18892e-08 -9.72573e-05
-0.000272431 8.00941e-05 8.24301e-05 -9.52539e-05
-0.000268765 7.90374e-05 8.13118e-05 -9.5252e-05
0.000273398 -8.36175e-05 -8.13344e-05 -9.52864e-05
0.000276965 -8.47309e-05 -8.23861e-05 -9.52888e-05
-0.000270598 7.95658e-05 8.18709e-05 -9.52529e-05
2.29032e-06 -2.31566e-06 1.08573e-08 -9.7254e-05
0.000275181 -8.41741e-05 -8.18603e-05 -9.52876e-05
2.24028e-06 -2.34474e-06 4.4766e-08 -9.72562e-05
2.26539e-06 -2.33015e-06 2.77555e-08 -9.72551e-05
-0.000268765 7.90374e-05 8.13118e-05 -9.5252e-05
-0.0002651 7.79804e-05 8.0194e-05 -9.525e-05
0.00026983 -8.25044e-05 -8.02823e-05 -9.5284e-05
0.000273398 -8.36175e-05 -8.13344e-05 -9.52864e-05
-0.000266932 7.85089e-05 8.07528e-05 -9.5251e-05
2.3397e-06 -2.28696e-06 -2.26015e-08 -9.72517e-05
0.000271614 -8.30609e-05 -8.08084e-05 -9.52852e-05
2.29032e-06 -2.31566e-06 1.08573e-08 -9.7254e-05
2.31509e-06 -2.30126e-06 -5.92824e-09 -9.72528e-05
-0.0002651 7.79804e-05 8.0194e-05 -9.525e-05
-0.000261435 7.6923e-05 7.90766e-05 -9.52481e-05
0.000266261 -8.13918e-05 -7.92298e-05 -9.52816e-05
0.00026983 -8.25044e-05 -8.02823e-05 -9.5284e-05
-0.000263267 7.74517e-05 7.96352e-05 -9.5249e-05
2.38841e-06 -2.25865e-06 -5.56104e-08 -9.72495e-05
0.000268046 -8.1948e-05 -7.97561e-05 -9.52828e-05
2.3397e-06 -2.28696e-06 -2.26015e-08 -9.72517e-05
2.36414e-06 -2.27276e-06 -3.91621e-08 -9.72506e-05
-0.000261435 7.6923e-05 7.90766e-05 -9.52481e-05
-0.000257771 7.58653e-05 7.79597e-05 -9.52461e-05
0.000262692 -8.02795e-05 -7.81769e-05 -9.52792e-05
0.000266261 -8.13918e-05 -7.92298e-05 -9.52816e-05
-0.000259603 7.63942e-05 7.85181e-05 -9.52471e-05
2.43646e-06 -2.23073e-06 -8.81694e-08 -9.72473e-05
0.000264477 -8.08356e-05 -7.87034e-05 -9.52804e-05
2.38841e-06 -2.25865e-06 -5.56104e-08 -9.72495e-05
2.41251e-06 -2.24464e-06 -7.1946e-08 -9.72484e-05
-0.000257771 7.58653e-05 7.79597e-05 -9.52461e-05
-0.000254108 7.48072e-05 7.68433e-05 -9.52442e-05
0.000259123 -7.91677e-05 -7.71236e-05 -9.52768e-05
0.000262692 -8.02795e-05 -7.81769e-05 -9.52792e-05
-0.00025594 7.53363e-05 7.74014e-05 -9.52452e-05
2.48384e-06 -2.20319e-06 -1.20279e-07 -9.72451e-05
0.000260908 -7.97235e-05 -7.76503e-05 -9.5278e-05
2.43646e-06 -2.23073e-06 -8.81694e-08 -9.72473e-05
2.46023e-06 -2.21691e-06 -1.0428e-07 -9.72462e-05
-0.000254108 7.48072e-05 7.68433e-05 -9.52442e-05
-0.000250446 7.37488e-05 7.57273e-05 -9.52424e-05
0.000255552 -7.80562e-05 -7.60698e-05 -9.52745e-05
0.000259123 -7.91677e-05 -7.71236e-05 -9.52768e-05
-0.000252277 7.4278e-05 7.62852e-05 -9.52433e-05
2.53056e-06 -2.17604e-06 -1.51938e-07 -9.7243e-05
0.000257338 -7.86119e-05 -7.65967e-05 -9.52757e-05
2.48384e-06 -2.20319e-06 -1.20279e-07 -9.72451e-05
2.50728e-06 -2.18956e-06 -1.36164e-07 -9.72441e-05
-0.000250446 7.37488e-05 7.57273e-05 -9.52424e-05
-0.000246784 7.269e-05 7.46118e-05 -9.52405e-05
0.000251982 -7.69452e-05 -7.50156e-05 -9.52722e-05
0.000255552 -7.80562e-05 -7.60698e-05 -9.52745e-05
-0.000248615 7.32194e-05 7.51695e-05 -9.52414e-05
2.57661e-06 -2.14927e-06 -1.83148e-07 -9.72409e-05
0.000253767 -7.75007e-05 -7.55428e-05 -9.52733e-05
2.53056e-06 -2.17604e-06 -1.51938e-07 -9.7243e-05
2.55367e-06 -2.1626e-06 -1.67599e-07 -9.72419e-05
-0.000246784 7.269e-05 7.46118e-05 -9.52405e-05
-0.000243123 7.16309e-05 7.34968e-05 -9.52387e-05
0.00024841 -7.58345e-05 -7.3961e-05 -9.52699e-05
0.000251982 -7.69452e-05 -7.50156e-05 -9.52722e-05
-0.000244954 7.21605e-05 7.40542e-05 -9.52396e-05
2.622e-06 -2.12289e-06 -2.13907e-07 -9.72388e-05
0.000250196 -7.63898e-05 -7.44884e-05 -9.5271e-05
2.57661e-06 -2.14927e-06 -1.83148e-07 -9.72409e-05
2.59939e-06 -2.13603e-06 -1.98584e-07 -9.72398e-05
-0.000243123 7.16309e-05 7.34968e-05 -9.52387e-05
-0.000239463 7.05714e-05 7.23822e-05 -9.52369e-05
0.000244838 -7.47243e-05 -7.2906e-05 -9.52676e-05
0.00024841 -7.58345e-05 -7.3961e-05 -9.52699e-05
-0.000241293 7.11012e-05 7.29394e-05 -9.52378e-05
2.66673e-06 -2.09689e-06 -2.44218e-07 -9.72367e-05
0.000246624 -7.52794e-05 -7.34336e-05 -9.52688e-05
2.622e-06 -2.12289e-06 -2.13907e-07 -9.72388e-05
2.64445e-06 -2.10984e-06 -2.29119e-07 -9.72377e-05
-0.000239463 7.05714e-05 7.23822e-05 -9.52369e-05
-0.000235804 6.95115e-05 7.12681e-05 -9.52351e-05
0.000241266 -7.36145e-05 -7.18506e-05 -9.52654e-05
0.000244838 -7.47243e-05 -7.2906e-05 -9.52676e-05
-0.000237633 7.00415e-05 7.18251e-05 -9.5236e-05
2.7108e-06 -2.07128e-06 -2.74078e-07 -9.72346e-05
0.000243052 -7.41693e-05 -7.23783e-05 -9.52665e-05
2.66673e-06 -2.09689e-06 -2.44218e-07 -9.72367e-05
2.68885e-06 -2.08404e-06 -2.59204e-07 -9.72356e-05
-0.000235804 6.95115e-05 7.12681e-05 -9.52351e-05
-0.000232145 6.84513e-05 7.01544e-05 -9.52333e-05
0.000237693 -7.2505e-05 -7.07947e-05 -9.52631e-05
0.000241266 -7.36145e-05 -7.18506e-05 -9.52654e-05
-0.000233974 6.89815e-05 7.07112e-05 -9.52342e-05
2.7542e-06 -2.04606e-06 -3.03489e-07 -9.72326e-05
0.000239479 -7.30597e-05 -7.13227e-05 -9.52643e-05
2.7108e-06 -2.07128e-06 -2.74078e-07 -9.72346e-05
2.73258e-06 -2.05862e-06 -2.88839e-07 -9.72336e-05
-0.000232145 6.84513e-05 7.01544e-05 -9.52333e-05
-0.000228487 6.73908e-05 6.90413e-05 -9.52316e-05
0.000234119 -7.1396e-05 -6.97385e-05 -9.52609e-05
0.000237693 -7.2505e-05 -7.07947e-05 -9.52631e-05
-0.000230316 6.79211e-05 6.95978e-05 -9.52324e-05
2.79693e-06 -2.02122e-06 -3.3245e-07 -9.72306e-05
0.000235906 -7.19504e-05 -7.02666e-05 -9.5262e-05
2.7542e-06 -2.04606e-06 -3.03489e-07 -9.72326e-05
2.77565e-06 -2.03359e-06 -3.18025e-07 -9.72316e-05
-0.000228487 6.73908e-05 6.90413e-05 -9.52316e-05
-0.00022483 6.63299e-05 6.79285e-05 -9.52298e-05
0.000230545 -7.02873e-05 -6.86818e-05 -9.52588e-05
0.000234119 -7.1396e-05 -6.97385e-05 -9.52609e-05
-0.000226658 6.68604e-05 6.84848e-05 -9.52307e-05
2.83901e-06 -1.99676e-06 -3.60961e-07 -9.72286e-05
0.000232332 -7.08416e-05 -6.92102e-05 -9.52598e-05
2.79693e-06 -2.02122e-06 -3.3245e-07 -9.72306e-05
2.81805e-06 -2.00894e-06 -3.46762e-07 -9.72296e-05
-0.00022483 6.63299e-05 6.79285e-05 -9.52298e-05
-0.000221173 6.52686e-05 6.68163e-05 -9.52282e-05
0.00022697 -6.91791e-05 -6.76247e-05 -9.52566e-05
0.000230545 -7.02873e-05 -6.86818e-05 -9.52588e-05
-0.000223001 6.57993e-05 6.73724e-05 -9.5229e-05
2.88042e-06 -1.9727e-06 -3.89023e-07 -9.72266e-05
0.000228757 -6.97331e-05 -6.81533e-05 -9.52577e-05
2.83901e-06 -1.99676e-06 -3.60961e-07 -9.72286e-05
2.85979e-06 -1.98468e-06 -3.75048e-07 -9.72276e-05
-0.000221173 6.52686e-05 6.68163e-05 -9.52282e-05
-0.000217518 6.4207e-05 6.57045e-05 -9.52265e-05
0.000223395 -6.80712e-05 -6.65671e-05 -9.52545e-05
0.00022697 -6.91791e-05 -6.76247e-05 -9.52566e-05
-0.000219345 6.47379e-05 6.62603e-05 -9.52273e-05
2.92116e-06 -1.94901e-06 -4.16635e-07 -9.72247e-05
0.000225182 -6.86251e-05 -6.7096e-05 -9.52555e-05
2.88042e-06 -1.9727e-06 -3.89023e-07 -9.72266e-05
2.90087e-06 -1.96081e-06 -4.02885e-07 -9.72256e-05
-0.000217518 6.4207e-05 6.57045e-05 -9.52265e-05
-0.000213862 6.31451e-05 6.45932e-05 -9.52248e-05
0.000219819 -6.69638e-05 -6.55092e-05 -9.52524e-05
0.000223395 -6.80712e-05 -6.65671e-05 -9.52545e-05
-0.00021569 6.36761e-05 6.51488e-05 -9.52257e-05
2.96125e-06 -1.92572e-06 -4.43798e-07 -9.72227e-05
0.000221607 -6.75175e-05 -6.60382e-05 -9.52534e-05
2.92116e-06 -1.94901e-06 -4.16635e-07 -9.72247e-05
2.94129e-06 -1.93732e-06 -4.30273e-07 -9.72237e-05
-0.000213862 6.31451e-05 6.45932e-05 -9.52248e-05
-0.000210208 6.20828e-05 6.34823e-05 -9.52232e-05
0.000216242 -6.58567e-05 -6.44508e-05 -9.52503e-05
0.000219819 -6.69638e-05 -6.55092e-05 -9.52524e-05
-0.000212035 6.2614e-05 6.40377e-05 -9.5224e-05
3.00067e-06 -1.90281e-06 -4.70511e-07 -9.72209e-05
0.00021803 -6.64102e-05 -6.49801e-05 -9.52513e-05
2.96125e-06 -1.92572e-06 -4.43798e-07 -9.72227e-05
2.98104e-06 -1.91421e-06 -4.57211e-07 -9.72218e-05
-0.000210208 6.20828e-05 6.34823e-05 -9.52232e-05
-0.000206555 6.10201e-05 6.23719e-05 -9.52216e-05
0.000212665 -6.47501e-05 -6.3392e-05 -9.52482e-05
0.000216242 -6.58567e-05 -6.44508e-05 -9.52503e-05
-0.000208381 6.15515e-05 6.2927e-05 -9.52224e-05
3.03942e-06 -1.88028e-06 -4.96775e-07 -9.7219e-05
0.000214453 -6.53034e-05 -6.39215e-05 -9.52493e-05
3.00067e-06 -1.90281e-06 -4.70511e-07 -9.72209e-05
3.02013e-06 -1.89149e-06 -4.83699e-07 -9.72199e-05
-0.000206555 6.10201e-05 6.23719e-05 -9.52216e-05
-0.000202902 5.99571e-05 6.1262e-05 -9.522e-05
0.000209087 -6.36438e-05 -6.23328e-05 -9.52462e-05
0.000212665 -6.47501e-05 -6.3392e-05 -9.52482e-05
-0.000204728 6.04886e-05 6.18169e-05 -9.52208e-05
3.07751e-06 -1.85814e-06 -5.22589e-07 -9.72171e-05
0.000210876 -6.41969e-05 -6.28625e-05 -9.52472e-05
3.03942e-06 -1.88028e-06 -4.96775e-07 -9.7219e-05
3.05855e-06 -1.86916e-06 -5.09738e-07 -9.72181e-05
-0.000202902 5.99571e-05 6.1262e-05 -9.522e-05
-0.00019925 5.88937e-05 6.01525e-05 -9.52185e-05
0.000205509 -6.2538e-05 -6.12732e-05 -9.52442e-05
0.000209087 -6.36438e-05 -6.23328e-05 -9.52462e-05
-0.000201075 5.94254e-05 6.07072e-05 -9.52193e-05
3.11494e-06 -1.83638e-06 -5.47954e-07 -9.72153e-05
0.000207298 -6.30909e-05 -6.1803e-05 -9.52452e-05
3.07751e-06 -1.85814e-06 -5.22589e-07 -9.72171e-05
3.09631e-06 -1.84721e-06 -5.35328e-07 -9.72162e-05
-0.00019925 5.88937e-05 6.01525e-05 -9.52185e-05
-0.000195598 5.783e-05 5.90435e-05 -9.5217e-05
0.00020193 -6.14325e-05 -6.02131e-05 -9.52422e-05
0.000205509 -6.2538e-05 -6.12732e-05 -9.52442e-05
-0.000197424 5.83619e-05 5.95979e-05 -9.52177e-05
3.15171e-06 -1.81501e-06 -5.7287e-07 -9.72135e-05
0.000203719 -6.19852e-05 -6.07432e-05 -9.52432e-05
3.11494e-06 -1.83638e-06 -5.47954e-07 -9.72153e-05
3.13341e-06 -1.82565e-06 -5.60468e-07 -9.72144e-05
-0.000195598 5.783e-05 5.90435e-05 -9.5217e-05
-0.000191947 5.67659e-05 5.79349e-05 -9.52155e-05
0.00019835 -6.03274e-05 -5.91527e-05 -9.52403e-05
0.00020193 -6.14325e-05 -6.02131e-05 -9.52422e-05
-0.000193773 5.7298e-05 5.84891e-05 -9.52162e-05
3.18781e-06 -1.79403e-06 -5.97336e-07 -9.72118e-05
0.00020014 -6.08799e-05 -5.96829e-05 -9.52412e-05
3.15171e-06 -1.81501e-06 -5.7287e-07 -9.72135e-05
3.16984e-06 -1.80447e-06 -5.85159e-07 -9.72127e-05
-0.000191947 5.67659e-05 5.79349e-05 -9.52155e-05
-0.000188297 5.57014e-05 5.68268e-05 -9.5214e-05
0.00019477 -5.92228e-05 -5.80918e-05 -9.52383e-05
0.00019835 -6.03274e-05 -5.91527e-05 -9.52403e-05
-0.000190122 5.62337e-05 5.73808e-05 -9.52147e-05
3.22325e-06 -1.77343e-06 -6.21352e-07 -9.72101e-05
0.00019656 -5.97751e-05 -5.86223e-05 -9.52393e-05
3.18781e-06 -1.79403e-06 -5.97336e-07 -9.72118e-05
3.20562e-06 -1.78368e-06 -6.094e-07 -9.72109e-05
-0.000188297 5.57014e-05 5.68268e-05 -9.5214e-05
-0.000184648 5.46366e-05 5.57192e-05 -9.52126e-05
0.00019119 -5.81185e-05 -5.70304e-05 -9.52364e-05
0.00019477 -5.92228e-05 -5.80918e-05 -9.52383e-05
-0.000186473 5.51691e-05 5.6273e-05 -9.52133e-05
3.25803e-06 -1.75322e-06 -6.4492e-07 -9.72084e-05
0.00019298 -5.86706e-05 -5.75611e-05 -9.52374e-05
3.22325e-06 -1.77343e-06 -6.21352e-07 -9.72101e-05
3.24072e-06 -1.76328e-06 -6.33192e-07 -9.72092e-05
-0.000184648 5.46366e-05 5.57192e-05 -9.52126e-05
-0.000181 5.35714e-05 5.4612e-05 -9.52112e-05
0.000187608 -5.70146e-05 -5.59687e-05 -9.52346e-05
0.00019119 -5.81185e-05 -5.70304e-05 -9.52364e-05
-0.000182824 5.41041e-05 5.51656e-05 -9.52119e-05
3.29214e-06 -1.73339e-06 -6.68038e-07 -9.72067e-05
0.000189399 -5.75665e-05 -5.64996e-05 -9.52355e-05
3.25803e-06 -1.75322e-06 -6.4492e-07 -9.72084e-05
3.27517e-06 -1.74326e-06 -6.56535e-07 -9.72075e-05
-0.000181 5.35714e-05 5.4612e-05 -9.52112e-05
-0.000177352 5.25059e-05 5.35053e-05 -9.52098e-05
0.000184026 -5.59112e-05 -5.49065e-05 -9.52327e-05
0.000187608 -5.70146e-05 -5.59687e-05 -9.52346e-05
-0.000179175 5.30387e-05 5.40586e-05 -9.52105e-05
3.3256e-06 -1.71395e-06 -6.90706e-07 -9.7205e-05
0.000185817 -5.64628e-05 -5.54377e-05 -9.52336e-05
3.29214e-06 -1.73339e-06 -6.68038e-07 -9.72067e-05
3.30895e-06 -1.72362e-06 -6.79428e-07 -9.72058e-05
-0.000177352 5.25059e-05 5.35053e-05 -9.52098e-05
-0.000173705 5.14401e-05 5.23991e-05 -9.52084e-05
0.000180444 -5.48081e-05 -5.38439e-05 -9.52309e-05
0.000184026 -5.59112e-05 -5.49065e-05 -9.52327e-05
-0.000175528 5.1973e-05 5.29521e-05 -9.52091e-05
3.35838e-06 -1.69489e-06 -7.12926e-07 -9.72034e-05
0.000182235 -5.53596e-05 -5.43753e-05 -9.52318e-05
3.3256e-06 -1.71395e-06 -6.90706e-07 -9.7205e-05
3.34207e-06 -1.70437e-06 -7.01872e-07 -9.72042e-05
-0.000173705 5.14401e-05 5.23991e-05 -9.52084e-05
-0.000170058 5.03738e-05 5.12933e-05 -9.52071e-05
0.000176861 -5.37054e-05 -5.27809e-05 -9.52291e-05
0.000180444 -5.48081e-05 -5.38439e-05 -9.52309e-05
-0.000171881 5.0907e-05 5.18461e-05 -9.52077e-05
3.39051e-06 -1.67622e-06 -7.34696e-07 -9.72018e-05
0.000178652 -5.42567e-05 -5.33125e-05 -9.523e-05
3.35838e-06 -1.69489e-06 -7.12926e-07 -9.72034e-05
3.37453e-06 -1.68551e-06 -7.23867e-07 -9.72026e-05
-0.000170058 5.03738e-05 5.12933e-05 -9.52071e-05
-0.000166412 4.93072e-05 5.01879e-05 -9.52058e-05
0.000173277 -5.26031e-05 -5.17175e-05 -9.52273e-05
0.000176861 -5.37054e-05 -5.27809e-05 -9.52291e-05
-0.000168235 4.98406e-05 5.07405e-05 -9.52064e-05
3.42197e-06 -1.65793e-06 -7.56017e-07 -9.72002e-05
0.000175069 -5.31542e-05 -5.22493e-05 -9.52282e-05
3.39051e-06 -1.67622e-06 -7.34696e-07 -9.72018e-05
3.40632e-06 -1.66703e-06 -7.45413e-07 -9.7201e-05
-0.000166412 4.93072e-05 5.01879e-05 -9.52058e-05
-0.000162767 4.82403e-05 4.90831e-05 -9.52045e-05
0.000169693 -5.15012e-05 -5.06536e-05 -9.52256e-05
0.000173277 -5.26031e-05 -5.17175e-05 -9.52273e-05
-0.00016459 4.87738e-05 4.96354e-05 -9.52051e-05
3.45277e-06 -1.64003e-06 -7.76889e-07 -9.71987e-05
0.000171485 -5.20521e-05 -5.11856e-05 -9.52265e-05
3.42197e-06 -1.65793e-06 -7.56017e-07 -9.72002e-05
3.43745e-06 -1.64893e-06 -7.66509e-07 -9.71995e-05
-0.000162767 4.82403e-05 4.90831e-05 -9.52045e-05
-0.000159123 4.7173e-05 4.79786e-05 -9.52033e-05
0.000166108 -5.03997e-05 -4.95893e-05 -9.52239e-05
0.000169693 -5.15012e-05 -5.06536e-05 -9.52256e-05
-0.000160945 4.77067e-05 4.85308e-05 -9.52039e-05
3.4829e-06 -1.62251e-06 -7.97311e-07 -9.71972e-05
0.000167901 -5.09504e-05 -5.01215e-05 -9.52248e-05
3.45277e-06 -1.64003e-06 -7.76889e-07 -9.71987e-05
3.46792e-06 -1.63122e-06 -7.87156e-07 -9.7198e-05
-0.000159123 4.7173e-05 4.79786e-05 -9.52033e-05
-0.00015548 4.61053e-05 4.68747e-05 -9.5202e-05
0.000162523 -4.92985e-05 -4.85246e-05 -9.52222e-05
0.000166108 -5.03997e-05 -4.95893e-05 -9.52239e-05
-0.000157301 4.66392e-05 4.74266e-05 -9.52026e-05
3.51238e-06 -1.60538e-06 -8.17285e-07 -9.71957e-05
0.000164315 -4.98491e-05 -4.9057e-05 -9.52231e-05
3.4829e-06 -1.62251e-06 -7.97311e-07 -9.71972e-05
3.49772e-06 -1.6139e-06 -8.07354e-07 -9.71965e-05
-0.00015548 4.61053e-05 4.68747e-05 -9.5202e-05
-0.000151837 4.50373e-05 4.57712e-05 -9.52009e-05
0.000158937 -4.81978e-05 -4.74595e-05 -9.52206e-05
0.000162523 -4.92985e-05 -4.85246e-05 -9.52222e-05
-0.000153658 4.55713e-05 4.63229e-05 -9.52014e-05
3.54119e-06 -1.58863e-06 -8.36809e-07 -9.71943e-05
0.00016073 -4.87481e-05 -4.79921e-05 -9.52214e-05
3.51238e-06 -1.60538e-06 -8.17285e-07 -9.71957e-05
3.52687e-06 -1.59696e-06 -8.27103e-07 -9.7195e-05
-0.000151837 4.50373e-05 4.57712e-05 -9.52009e-05
-0.000148195 4.39689e-05 4.46681e-05 -9.51997e-05
0.00015535 -4.70975e-05 -4.63939e-05 -9.5219e-05
0.000158937 -4.81978e-05 -4.74595e-05 -9.52206e-05
-0.000150016 4.45031e-05 4.52196e-05 -9.52003e-05
3.56933e-06 -1.57227e-06 -8.55884e-07 -9.71929e-05
0.000157143 -4.76476e-05 -4.69268e-05 -9.52198e-05
3.54119e-06 -1.58863e-06 -8.36809e-07 -9.71943e-05
3.55534e-06 -1.5804e-06 -8.46402e-07 -9.71936e-05
-0.000148195 4.39689e-05 4.46681e-05 -9.51997e-05
-0.000144553 4.29001e-05 4.35655e-05 -9.51986e-05
0.000151763 -4.59975e-05 -4.53279e-05 -9.52174e-05
0.00015535 -4.70975e-05 -4.63939e-05 -9.5219e-05
-0.000146374 4.34346e-05 4.41168e-05 -9.51991e-05
3.59682e-06 -1.5563e-06 -8.7451e-07 -9.71915e-05
0.000153556 -4.65475e-05 -4.5861e-05 -9.52182e-05
3.56933e-06 -1.57227e-06 -8.55884e-07 -9.71929e-05
3.58316e-06 -1.56424e-06 -8.65253e-07 -9.71922e-05
-0.000144553 4.29001e-05 4.35655e-05 -9.51986e-05
-0.000140912 4.1831e-05 4.24634e-05 -9.51975e-05
0.000148175 -4.4898e-05 -4.42615e-05 -9.52158e-05
0.000151763 -4.59975e-05 -4.53279e-05 -9.52174e-05
-0.000142733 4.23656e-05 4.30144e-05 -9.5198e-05
3.62364e-06 -1.5407e-06 -8.92687e-07 -9.71901e-05
0.000149969 -4.54477e-05 -4.47948e-05 -9.52166e-05
3.59682e-06 -1.5563e-06 -8.7451e-07 -9.71915e-05
3.61031e-06 -1.54845e-06 -8.83654e-07 -9.71908e-05
-0.000140912 4.1831e-05 4.24634e-05 -9.51975e-05
-0.000137272 4.07616e-05 4.13617e-05 -9.51964e-05
0.000144586 -4.37988e-05 -4.31947e-05 -9.52143e-05
0.000148175 -4.4898e-05 -4.42615e-05 -9.52158e-05
-0.000139092 4.12963e-05 4.19125e-05 -9.51969e-05
3.6498e-06 -1.5255e-06 -9.10414e-07 -9.71888e-05
0.000146381 -4.43484e-05 -4.37282e-05 -9.52151e-05
3.62364e-06 -1.5407e-06 -8.92687e-07 -9.71901e-05
3.6368e-06 -1.53305e-06 -9.01606e-07 -9.71895e-05
-0.000137272 4.07616e-05 4.13617e-05 -9.51964e-05
-0.000133633 3.96917e-05 4.02605e-05 -9.51954e-05
0.000140997 -4.27001e-05 -4.21274e-05 -9.52128e-05
0.000144586 -4.37988e-05 -4.31947e-05 -9.52143e-05
-0.000135453 4.02267e-05 4.08111e-05 -9.51959e-05
3.67529e-06 -1.51068e-06 -9.27692e-07 -9.71875e-05
0.000142792 -4.32494e-05 -4.26611e-05 -9.52135e-05
3.6498e-06 -1.5255e-06 -9.10414e-07 -9.71888e-05
3.66263e-06 -1.51804e-06 -9.19109e-07 -9.71881e-05
-0.000133633 3.96917e-05 4.02605e-05 -9.51954e-05
-0.000129994 3.86215e-05 3.91598e-05 -9.51944e-05
0.000137408 -4.16017e-05 -4.10597e-05 -9.52113e-05
0.000140997 -4.27001e-05 -4.21274e-05 -9.52128e-05
-0.000131814 3.91567e-05 3.97101e-05 -9.51949e-05
3.70012e-06 -1.49624e-06 -9.44521e-07 -9.71862e-05
0.000139203 -4.21508e-05 -4.15936e-05 -9.52121e-05
3.67529e-06 -1.51068e-06 -9.27692e-07 -9.71875e-05
3.68779e-06 -1.50341e-06 -9.36163e-07 -9.71869e-05
-0.000129994 3.86215e-05 3.91598e-05 -9.51944e-05
-0.000126356 3.7551e-05 3.80595e-05 -9.51934e-05
0.000133817 -4.05037e-05 -3.99916e-05 -9.52099e-05
0.000137408 -4.16017e-05 -4.10597e-05 -9.52113e-05
-0.000128175 3.80863e-05 3.86095e-05 -9.51939e-05
3.72429e-06 -1.48219e-06 -9.60901e-07 -9.7185e-05
0.000135613 -4.10527e-05 -4.05257e-05 -9.52106e-05
3.70012e-06 -1.49624e-06 -9.44521e-07 -9.71862e-05
3.71229e-06 -1.48917e-06 -9.52767e-07 -9.71856e-05
-0.000126356 3.7551e-05 3.80595e-05 -9.51934e-05
-0.000122719 3.64801e-05 3.69596e-05 -9.51924e-05
0.000130227 -3.94061e-05 -3.89231e-05 -9.52085e-05
0.000133817 -4.05037e-05 -3.99916e-05 -9.52099e-05
-0.000124538 3.70156e-05 3.75095e-05 -9.51929e-05
3.7478e-06 -1.46853e-06 -9.7683e-07 -9.71838e-05
0.000132022 -3.99549e-05 -3.94574e-05 -9.52092e-05
3.72429e-06 -1.48219e-06 -9.60901e-07 -9.7185e-05
3.73613e-06 -1.47531e-06 -9.68922e-07 -9.71844e-05
-0.000122719 3.64801e-05 3.69596e-05 -9.51924e-05
-0.000119083 3.54088e-05 3.58602e-05 -9.51915e-05
0.000126635 -3.83089e-05 -3.78541e-05 -9.52071e-05
0.000130227 -3.94061e-05 -3.89231e-05 -9.52085e-05
-0.000120901 3.59445e-05 3.64098e-05 -9.5192e-05
3.77065e-06 -1.45526e-06 -9.9231e-07 -9.71826e-05
0.000128431 -3.88575e-05 -3.83886e-05 -9.52078e-05
3.7478e-06 -1.46853e-06 -9.7683e-07 -9.71838e-05
3.75931e-06 -1.46185e-06 -9.84627e-07 -9.71832e-05
-0.000119083 3.54088e-05 3.58602e-05 -9.51915e-05
-0.000115447 3.43371e-05 3.47613e-05 -9.51906e-05
0.000123043 -3.72121e-05 -3.67847e-05 -9.52058e-05
0.000126635 -3.83089e-05 -3.78541e-05 -9.52071e-05
-0.000117265 3.4873e-05 3.53107e-05 -9.51911e-05
3.79284e-06 -1.44238e-06 -1.00734e-06 -9.71815e-05
0.000124839 -3.77605e-05 -3.73194e-05 -9.52064e-05
3.77065e-06 -1.45526e-06 -9.9231e-07 -9.71826e-05
3.78183e-06 -1.44877e-06 -9.99881e-07 -9.71821e-05
-0.000115447 3.43371e-05 3.47613e-05 -9.51906e-05
-0.000111812 3.32651e-05 3.36628e-05 -9.51898e-05
0.00011945 -3.61157e-05 -3.57148e-05 -9.52045e-05
0.000123043 -3.72121e-05 -3.67847e-05 -9.52058e-05
-0.000113629 3.38012e-05 3.4212e-05 -9.51902e-05
3.81437e-06 -1.42989e-06 -1.02192e-06 -9.71804e-05
0.000121247 -3.66639e-05 -3.62498e-05 -9.52051e-05
3.79284e-06 -1.44238e-06 -1.00734e-06 -9.71815e-05
3.80369e-06 -1.43609e-06 -1.01469e-06 -9.71809e-05
-0.000111812 3.32651e-05 3.36628e-05 -9.51898e-05
-0.000108177 3.21927e-05 3.25647e-05 -9.51889e-05
0.000115857 -3.50197e-05 -3.46446e-05 -9.52032e-05
0.00011945 -3.61157e-05 -3.57148e-05 -9.52045e-05
-0.000109994 3.2729e-05 3.31137e-05 -9.51894e-05
3.83525e-06 -1.41781e-06 -1.03605e-06 -9.71793e-05
0.000117654 -3.55677e-05 -3.51798e-05 -9.52038e-05
3.81437e-06 -1.42989e-06 -1.02192e-06 -9.71804e-05
3.82489e-06 -1.4238e-06 -1.02904e-06 -9.71799e-05
-0.000108177 3.21927e-05 3.25647e-05 -9.51889e-05
-0.000104543 3.11199e-05 3.14672e-05 -9.51881e-05
0.000112263 -3.39241e-05 -3.35739e-05 -9.5202e-05
0.000115857 -3.50197e-05 -3.46446e-05 -9.52032e-05
-0.00010636 3.16564e-05 3.20159e-05 -9.51885e-05
3.85549e-06 -1.40613e-06 -1.04973e-06 -9.71783e-05
0.00011406 -3.44719e-05 -3.41093e-05 -9.52026e-05
3.83525e-06 -1.41781e-06 -1.03605e-06 -9.71793e-05
3.84545e-06 -1.41191e-06 -1.04294e-06 -9.71788e-05
-0.000104543 3.11199e-05 3.14672e-05 -9.51881e-05
-0.00010091 3.00467e-05 3.037e-05 -9.51874e-05
0.000108669 -3.28289e-05 -3.25027e-05 -9.52008e-05
0.000112263 -3.39241e-05 -3.35739e-05 -9.5202e-05
-0.000102727 3.05834e-05 3.09185e-05 -9.51877e-05
3.87509e-06 -1.39486e-06 -1.06295e-06 -9.71773e-05
0.000110466 -3.33765e-05 -3.30384e-05 -9.52014e-05
3.85549e-06 -1.40613e-06 -1.04973e-06 -9.71783e-05
3.86537e-06 -1.40044e-06 -1.0564e-06 -9.71778e-05
-0.00010091 3.00467e-05 3.037e-05 -9.51874e-05
-9.72777e-05 2.89732e-05 2.92734e-05 -9.51866e-05
0.000105074 -3.17342e-05 -3.14312e-05 -9.51996e-05
0.000108669 -3.28289e-05 -3.25027e-05 -9.52008e-05
-9.90938e-05 2.951e-05 2.98216e-05 -9.5187e-05
3.89406e-06 -1.38401e-06 -1.07573e-06 -9.71763e-05
0.000106871 -3.22815e-05 -3.1967e-05 -9.52002e-05
3.87509e-06 -1.39486e-06 -1.06295e-06 -9.71773e-05
3.88465e-06 -1.38938e-06 -1.0694e-06 -9.71768e-05
-9.72777e-05 2.89732e-05 2.92734e-05 -9.51866e-05
-9.36459e-05 2.78992e-05 2.81771e-05 -9.51858e-05
0.000101478 -3.06398e-05 -3.03592e-05 -9.51985e-05
0.000105074 -3.17342e-05 -3.14312e-05 -9.51996e-05
-9.54617e-05 2.84362e-05 2.87252e-05 -9.51862e-05
3.91242e-06 -1.3736e-06 -1.08807e-06 -9.71754e-05
0.000103276 -3.1187e-05 -3.08952e-05 -9.51991e-05
3.89406e-06 -1.38401e-06 -1.07573e-06 -9.71763e-05
3.90332e-06 -1.37875e-06 -1.08196e-06 -9.71758e-05
-9.36459e-05 2.78992e-05 2.81771e-05 -9.51858e-05
-9.00146e-05 2.68248e-05 2.70814e-05 -9.51851e-05
9.78818e-05 -2.9546e-05 -2.92868e-05 -9.51975e-05
0.000101478 -3.06398e-05 -3.03592e-05 -9.51985e-05
-9.18302e-05 2.7362e-05 2.76292e-05 -9.51855e-05
3.93019e-06 -1.36363e-06 -1.09996e-06 -9.71744e-05
9.96799e-05 -3.00928e-05 -2.9823e-05 -9.5198e-05
3.91242e-06 -1.3736e-06 -1.08807e-06 -9.71754e-05
3.92138e-06 -1.36856e-06 -1.09407e-06 -9.71749e-05
-9.00146e-05 2.68248e-05 2.70814e-05 -9.51851e-05
-8.6384e-05 2.575e-05 2.5986e-05 -9.51844e-05
9.42851e-05 -2.84525e-05 -2.82139e-05 -9.51965e-05
9.78818e-05 -2.9546e-05 -2.92868e-05 -9.51975e-05
-8.81993e-05 2.62874e-05 2.65336e-05 -9.51847e-05
3.94739e-06 -1.3541e-06 -1.11141e-06 -9.71736e-05
9.60835e-05 -2.89992e-05 -2.87504e-05 -9.5197e-05
3.93019e-06 -1.36363e-06 -1.09996e-06 -9.71744e-05
3.93886e-06 -1.35881e-06 -1.10574e-06 -9.7174e-05
-8.6384e-05 2.575e-05 2.5986e-05 -9.51844e-05
-8.2754e-05 2.46747e-05 2.48911e-05 -9.51836e-05
9.06878e-05 -2.73595e-05 -2.71407e-05 -9.51955e-05
9.42851e-05 -2.84525e-05 -2.82139e-05 -9.51965e-05
-8.4569e-05 2.52124e-05 2.54385e-05 -9.5184e-05
3.96403e-06 -1.34501e-06 -1.12244e-06 -9.71727e-05
9.24865e-05 -2.7906e-05 -2.76774e-05 -9.5196e-05
3.94739e-06 -1.3541e-06 -1.11141e-06 -9.71736e-05
3.95578e-06 -1.3495e-06 -1.11697e-06 -9.71731e-05
-8.2754e-05 2.46747e-05 2.48911e-05 -9.51836e-05
-7.91246e-05 2.35991e-05 2.37966e-05 -9.51829e-05
8.70901e-05 -2.6267e-05 -2.60671e-05 -9.51946e-05
9.06878e-05 -2.73595e-05 -2.71407e-05 -9.51955e-05
-8.09393e-05 2.4137e-05 2.43438e-05 -9.51833e-05
3.98013e-06 -1.33634e-06 -1.13305e-06 -9.71718e-05
8.8889e-05 -2.68132e-05 -2.66039e-05 -9.5195e-05
3.96403e-06 -1.34501e-06 -1.12244e-06 -9.71727e-05
3.97215e-06 -1.34063e-06 -1.12779e-06 -9.71722e-05
-7.91246e-05 2.35991e-05 2.37966e-05 -9.51829e-05
-7.54958e-05 2.25232e-05 2.27025e-05 -9.51821e-05
8.34919e-05 -2.51748e-05 -2.4993e-05 -9.51936e-05
8.70901e-05 -2.6267e-05 -2.60671e-05 -9.51946e-05
-7.73101e-05 2.30612e-05 2.32495e-05 -9.51825e-05
3.99569e-06 -1.32802e-06 -1.14329e-06 -9.71709e-05
8.52911e-05 -2.57208e-05 -2.55301e-05 -9.51941e-05
3.98013e-06 -1.33634e-06 -1.13305e-06 -9.71718e-05
3.98798e-06 -1.33214e-06 -1.13822e-06 -9.71714e-05
-7.54958e-05 2.25232e-05 2.27025e-05 -9.51821e-05
-7.18676e-05 2.14471e-05 2.16088e-05 -9.51813e-05
7.98932e-05 -2.40829e-05 -2.39187e-05 -9.51927e-05
8.34919e-05 -2.51748e-05 -2.4993e-05 -9.51936e-05
-7.36816e-05 2.19851e-05 2.21556e-05 -9.51817e-05
4.01068e-06 -1.31995e-06 -1.15317e-06 -9.717e-05
8.16926e-05 -2.46288e-05 -2.44559e-05 -9.51932e-05
3.99569e-06 -1.32802e-06 -1.14329e-06 -9.71709e-05
4.00326e-06 -1.32397e-06 -1.14827e-06 -9.71705e-05
-7.18676e-05 2.14471e-05 2.16088e-05 -9.51813e-05
-6.82401e-05 2.03709e-05 2.05154e-05 -9.51804e-05
7.6294e-05 -2.29911e-05 -2.28441e-05 -9.51916e-05
7.98932e-05 -2.40829e-05 -2.39187e-05 -9.51927e-05
-7.00538e-05 2.0909e-05 2.10621e-05 -9.51808e-05
4.02501e-06 -1.31195e-06 -1.16274e-06 -9.71689e-05
7.80937e-05 -2.3537e-05 -2.33814e-05 -9.51921e-05
4.01068e-06 -1.31995e-06 -1.15317e-06 -9.717e-05
4.01793e-06 -1.31596e-06 -1.15799e-06 -9.71695e-05
-6.82401e-05 2.03709e-05 2.05154e-05 -9.51804e-05
-6.46136e-05 1.9295e-05 1.94223e-05 -9.51796e-05
7.26941e-05 -2.18992e-05 -2.17692e-05 -9.51902e-05
7.6294e-05 -2.29911e-05 -2.28441e-05 -9.51916e-05
-6.64267e-05 1.98329e-05 1.99688e-05 -9.518e-05
4.03853e-06 -1.30369e-06 -1.17207e-06 -9.71678e-05
7.44941e-05 -2.24452e-05 -2.23067e-05 -9.51909e-05
4.02501e-06 -1.31195e-06 -1.16274e-06 -9.71689e-05
4.03189e-06 -1.30788e-06 -1.16743e-06 -9.71684e-05
-6.46136e-05 1.9295e-05 1.94223e-05 -9.51796e-05
-6.09882e-05 1.82198e-05 1.83293e-05 -9.5179e-05
6.90932e-05 -2.08066e-05 -2.06943e-05 -9.51886e-05
7.26941e-05 -2.18992e-05 -2.17692e-05 -9.51902e-05
-6.28008e-05 1.87573e-05 1.88758e-05 -9.51793e-05
4.05092e-06 -1.29471e-06 -1.18123e-06 -9.71666e-05
7.08938e-05 -2.1353e-05 -2.12318e-05 -9.51894e-05
4.03853e-06 -1.30369e-06 -1.17207e-06 -9.71678e-05
4.04489e-06 -1.29933e-06 -1.17667e-06 -9.71672e-05
-6.09882e-05 1.82198e-05 1.83293e-05 -9.5179e-05
-5.73644e-05 1.71457e-05 1.72366e-05 -9.51789e-05
6.54909e-05 -1.97124e-05 -1.96193e-05 -9.51865e-05
6.90932e-05 -2.08066e-05 -2.06943e-05 -9.51886e-05
-5.91761e-05 1.76825e-05 1.77829e-05 -9.51788e-05
4.06166e-06 -1.28427e-06 -1.19031e-06 -9.71655e-05
6.72923e-05 -2.02598e-05 -2.01568e-05 -9.51876e-05
4.05092e-06 -1.29471e-06 -1.18123e-06 -9.71666e-05
4.05654e-06 -1.28973e-06 -1.18577e-06 -9.7166e-05
-5.73644e-05 1.71457e-05 1.72366e-05 -9.51789e-05
-5.37425e-05 1.60732e-05 1.6144e-05 -9.51802e-05
6.18858e-05 -1.86152e-05 -1.85446e-05 -9.51844e-05
6.54909e-05 -1.97124e-05 -1.96193e-05 -9.51865e-05
-5.55533e-05 1.66092e-05 1.66903e-05 -9.51793e-05
4.06994e-06 -1.27134e-06 -1.1994e-06 -9.71653e-05
6.36888e-05 -1.91643e-05 -1.90819e-05 -9.51854e-05
4.06166e-06 -1.28427e-06 -1.19031e-06 -9.71655e-05
4.06617e-06 -1.2782e-06 -1.19485e-06 -9.71652e-05
-5.37425e-05 1.60732e-05 1.6144e-05 -9.51802e-05
-5.01231e-05 1.50027e-05 1.50516e-05 -9.51848e-05
5.82763e-05 -1.75124e-05 -1.74702e-05 -9.51831e-05
6.18858e-05 -1.86152e-05 -1.85446e-05 -9.51844e-05
-5.19324e-05 1.55377e-05 1.55977e-05 -9.51819e-05
4.0745e-06 -1.25447e-06 -1.20858e-06 -9.71677e-05
6.00817e-05 -1.80647e-05 -1.80073e-05 -9.51836e-05
4.06994e-06 -1.27134e-06 -1.1994e-06 -9.71653e-05
4.07278e-06 -1.26351e-06 -1.20397e-06 -9.7166e-05
-5.01231e-05 1.50027e-05 1.50516e-05 -9.51848e-05
-4.65051e-05 1.39335e-05 1.39593e-05 -9.51966e-05
5.4658e-05 -1.64001e-05 -1.63963e-05 -9.51856e-05
5.82763e-05 -1.75124e-05 -1.74702e-05 -9.51831e-05
-4.83141e-05 1.4468e-05 1.45055e-05 -9.51894e-05
4.0735e-06 -1.23173e-06 -1.2179e-06 -9.71768e-05
5.64687e-05 -1.69578e-05 -1.69332e-05 -9.51836e-05
4.0745e-06 -1.25447e-06 -1.20858e-06 -9.71677e-05
4.07483e-06 -1.24398e-06 -1.21322e-06 -9.7171e-05
-4.65051e-05 1.39335e-05 1.39593e-05 -9.51966e-05
-4.28879e-05 1.28634e-05 1.28677e-05 -9.52234e-05
5.10254e-05 -1.52709e-05 -1.53233e-05 -9.51978e-05
5.4658e-05 -1.64001e-05 -1.63963e-05 -9.51856e-05
-4.46963e-05 1.33988e-05 1.34132e-05 -9.52075e-05
4.06436e-06 -1.20067e-06 -1.22729e-06 -9.72012e-05
5.28437e-05 -1.58381e-05 -1.58595e-05 -9.51899e-05
4.0735e-06 -1.23173e-06 -1.2179e-06 -9.71768e-05
4.07013e-06 -1.21742e-06 -1.22259e-06 -9.71865e-05
-4.28879e-05 1.28634e-05 1.28677e-05 -9.52234e-05
-3.92634e-05 1.17867e-05 1.17757e-05 -9.52804e-05
4.73637e-05 -1.41138e-05 -1.425e-05 -9.52331e-05
5.10254e-05 -1.52709e-05 -1.53233e-05 -9.51978e-05
-4.10777e-05 1.23266e-05 1.23219e-05 -9.52468e-05
4.04353e-06 -1.15829e-06 -1.23653e-06 -9.72575e-05
4.91998e-05 -1.46969e-05 -1.47869e-05 -9.52113e-05
4.06436e-06 -1.20067e-06 -1.22729e-06 -9.72012e-05
4.05566e-06 -1.18109e-06 -1.23196e-06 -9.72236e-05
-3.92634e-05 1.17867e-05 1.17757e-05 -9.52804e-05
-3.56246e-05 1.06905e-05 1.0686e-05 -9.53947e-05
4.36577e-05 -1.29096e-05 -1.31778e-05 -9.53158e-05
4.73637e-05 -1.41138e-05 -1.425e-05 -9.52331e-05
-3.74455e-05 1.12419e-05 1.12301e-05 -9.53282e-05
4.0065e-06 -1.1014e-06 -1.24504e-06 -9.73771e-05
4.55166e-05 -1.35188e-05 -1.37133e-05 -9.52664e-05
4.04353e-06 -1.15829e-06 -1.23653e-06 -9.72575e-05
4.02736e-06 -1.13188e-06 -1.24092e-06 -9.73074e-05
-3.56246e-05 1.06905e-05 1.0686e-05 -9.53947e-05
-3.19369e-05 9.55477e-06 9.59234e-06 -9.56149e-05
3.9862e-05 -1.1632e-05 -1.20985e-05 -9.54924e-05
4.36577e-05 -1.29096e-05 -1.31778e-05 -9.53158e-05
-3.37915e-05 1.01302e-05 1.01406e-05 -9.54873e-05
3.94764e-06 -1.02679e-06 -1.25179e-06 -9.76141e-05
4.17764e-05 -1.22828e-05 -1.26401e-05 -9.53882e-05
4.0065e-06 -1.1014e-06 -1.24504e-06 -9.73771e-05
3.98019e-06 -1.06643e-06 -1.24875e-06 -9.74749e-05
-3.19369e-05 9.55477e-06 9.59234e-06 -9.56149e-05
-2.81783e-05 8.33948e-06 8.50234e-06 -9.60168e-05
3.59429e-05 -1.02373e-05 -1.10166e-05 -9.58361e-05
3.9862e-05 -1.1632e-05 -1.20985e-05 -9.54924e-05
-3.00645e-05 8.9585e-06 9.04545e-06 -9.57873e-05
3.86089e-06 -9.32973e-07 -1.25482e-06 -9.80581e-05
3.79167e-05 -1.09508e-05 -1.15568e-05 -9.56377e-05
3.94764e-06 -1.02679e-06 -1.25179e-06 -9.76141e-05
3.90811e-06 -9.8236e-07 -1.25389e-06 -9.78059e-05
-2.81783e-05 8.33948e-06 8.50234e-06 -9.60168e-05
-2.42428e-05 7.00686e-06 7.38683e-06 -9.67212e-05
3.17827e-05 -8.68958e-06 -9.89705e-06 -9.64682e-05
3.59429e-05 -1.02373e-05 -1.10166e-05 -9.58361e-05
-2.62478e-05 7.69396e-06 7.95164e-06 -9.63211e-05
3.74023e-06 -8.2075e-07 -1.2512e-06 -9.88392e-05
3.39088e-05 -9.48824e-06 -1.04659e-05 -9.61058e-05
3.86089e-06 -9.32973e-07 -1.25482e-06 -9.80581e-05
3.80518e-06 -8.78724e-07 -1.2542e-06 -9.83904e-05
-2.42428e-05 7.00686e-06 7.38683e-06 -9.67212e-05
-2.01156e-05 5.4906e-06 6.26784e-06 -9.78667e-05
2.73598e-05 -6.93568e-06 -8.75317e-06 -9.75298e-05
3.17827e-05 -8.68958e-06 -9.89705e-06 -9.64682e-05
-2.21899e-05 6.26706e-06 6.82406e-06 -9.72302e-05
3.58332e-06 -6.9934e-07 -1.23599e-06 -0.000100119
2.95909e-05 -7.83211e-06 -9.3252e-06 -9.69365e-05
3.74023e-06 -8.2075e-07 -1.2512e-06 -9.88392e-05
3.66621e-06 -7.60466e-07 -1.24532e-06 -9.94173e-05
-2.01156e-05 5.4906e-06 6.26784e-06 -9.78667e-05
-1.55904e-05 3.85225e-06 5.03062e-06 -9.96012e-05
2.24715e-05 -5.07277e-06 -7.45659e-06 -9.91839e-05
2.73598e-05 -6.93568e-06 -8.75317e-06 -9.75298e-05
-1.79418e-05 4.69197e-06 5.67848e-06 -9.86502e-05
3.39317e-06 -5.86858e-07 -1.20271e-06 -0.000102017
2.50122e-05 -6.0197e-06 -8.13966e-06 -9.8271e-05
3.58332e-06 -6.9934e-07 -1.23599e-06 -0.000100119
3.49211e-06 -6.39648e-07 -1.22249e-06 -0.000100963
-1.55904e-05 3.85225e-06 5.03062e-06 -9.96012e-05
-1.09359e-05 2.20336e-06 3.74253e-06 -0.000101832
1.74173e-05 -3.28338e-06 -6.05741e-06 -0.00010136
2.24715e-05 -5.07277e-06 -7.45659e-06 -9.91839e-05
-1.32066e-05 2.97703e-06 4.38412e-06 -0.000100676
3.19098e-06 -5.26876e-07 -1.14176e-06 -0.000104403
1.98892e-05 -4.10999e-06 -6.76253e-06 -0.000100226
3.39317e-06 -5.86858e-07 -1.20271e-06 -0.000102017
3.29122e-06 -5.47217e-07 -1.176e-06 -0.000103215
-1.09359e-05 2.20336e-06 3.74253e-06 -0.000101832
-6.14547e-06 1.40996e-06 2.02951e-06 -0.000103996
1.22601e-05 -2.56173e-06 -4.15646e-06 -0.000103546
1.74173e-05 -3.28338e-06 -6.05741e-06 -0.00010136
-8.6312e-06 1.67236e-06 2.98236e-06 -0.000102982
3.01513e-06 -5.80087e-07 -1.04359e-06 -0.000106439
1.49197e-05 -2.75142e-06 -5.21497e-06 -0.000102507
3.19098e-06 -5.26876e-07 -1.14176e-06 -0.000104403
3.09733e-06 -5.33396e-07 -1.09883e-06 -0.000105478
-6.14547e-06 1.40996e-06 2.02951e-06 -0.000103996
-2.75845e-06 2.44274e-06 1.35303e-07 -0.000104023
8.6738e-06 -4.0632e-06 -1.97597e-06 -0.000103714
1.22601e-05 -2.56173e-06 -4.15646e-06 -0.000103546
-4.0106e-06 1.5087e-06 1.07224e-06 -0.000104486
2.94412e-06 -8.44301e-07 -8.99921e-07 -0.000105908
9.99329e-06 -2.83098e-06 -3.06956e-06 -0.00010409
3.01513e-06 -5.80087e-07 -1.04359e-06 -0.000106439
2.95914e-06 -6.80617e-07 -9.7651e-07 -0.000106834
-2.75845e-06 2.44274e-06 1.35303e-07 -0.000104023
-8.33163e-07 7.34982e-06 -2.79285e-06 -9.81112e-05
6.8751e-06 -1.00391e-05 1.35601e-06 -9.80767e-05
8.6738e-06 -4.0632e-06 -1.97597e-06 -0.000103714
-1.87174e-06 4.56351e-06 -1.15361e-06 -0.000102115
3.03953e-06 -1.38898e-06 -7.07379e-07 -9.90945e-05
7.80121e-06 -6.63663e-06 -4.99102e-07 -0.000101931
2.94412e-06 -8.44301e-07 -8.99921e-07 -0.000105908
2.97069e-06 -1.07873e-06 -8.10839e-07 -0.000103315
-8.33163e-07 7.34982e-06 -2.79285e-06 -9.81112e-05
-2.20036e-06 1.36424e-05 -4.90375e-06 -8.0009e-05
8.79687e-06 -1.79863e-05 3.93834e-06 -8.03242e-05
6.8751e-06 -1.00391e-05 1.35601e-06 -9.80767e-05
-6.17741e-07 1.02724e-05 -4.13773e-06 -9.10021e-05
3.36937e-06 -2.25782e-06 -4.76377e-07 -8.12624e-05
6.87907e-06 -1.37352e-05 2.93833e-06 -9.11315e-05
3.03953e-06 -1.38898e-06 -7.07379e-07 -9.90945e-05
3.16693e-06 -1.77988e-06 -5.94451e-07 -9.2294e-05
-2.20036e-06 1.36424e-05 -4.90375e-06 -8.0009e-05
-6.35921e-06 2.29209e-05 -7.09787e-06 -4.59481e-05
1.37783e-05 -2.90004e-05 6.52373e-06 -4.57268e-05
8.79687e-06 -1.79863e-05 3.93834e-06 -8.03242e-05
-4.48093e-06 1.78699e-05 -5.73814e-06 -6.50618e-05
3.95147e-06 -2.88082e-06 -4.58852e-07 -4.45143e-05
1.14795e-05 -2.31288e-05 4.99256e-06 -6.53363e-05
3.36937e-06 -2.25782e-06 -4.76377e-07 -8.12624e-05
3.63482e-06 -2.75193e-06 -3.78381e-07 -6.53187e-05
0.000616542 0 -0.000264232 0.000358052
0.000628936 -8.9918e-05 -0.000231008 0.000118366
0.00197067 -0.000263299 -0.00073173 -1.01205e-05
0.00174071 0 -0.00074602 0.000225872
0.000602381 -3.84709e-05 -0.000241676 0.000225827
0.00129923 -0.00017686 -0.000481014 6.85434e-05
0.00188762 -0.000148178 -0.000745475 8.32398e-05
0.00115252 0 -0.000493936 0.000325919
0.00124419 -8.42151e-05 -0.00049713 0.000160587
0.000628936 -8.9918e-05 -0.000231008 0.000118366
0.000679934 -0.00014815 -0.000227907 -2.55002e-05
0.00207249 -0.000481451 -0.000681874 -8.33996e-05
0.00197067 -0.000263299 -0.00073173 -1.01205e-05
0.000665146 -0.00012467 -0.000231633 3.37608e-05
0.00136748 -0.000303398 -0.000456034 -4.63279e-05
0.00202166 -0.000379222 -0.000703901 -5.73288e-05
0.00129923 -0.00017686 -0.000481014 6.85434e-05
0.00133462 -0.000248883 -0.000465317 6.36977e-06
0.000679934 -0.00014815 -0.000227907 -2.55002e-05
0.00069558 -0.000191426 -0.000216066 -9.06784e-05
0.0021247 -0.000592485 -0.000656665 -9.73073e-05
0.00207249 -0.000481451 -0.000681874 -8.33996e-05
0.000685878 -0.000171222 -0.000220567 -6.47996e-05
0.00140774 -0.000384564 -0.000438504 -9.57982e-05
0.00211092 -0.000550171 -0.000668894 -9.61643e-05
0.00136748 -0.000303398 -0.000456034 -4.63279e-05
0.00139334 -0.000349051 -0.000447551 -8.05241e-05
0.00069558 -0.000191426 -0.000216066 -9.06784e-05
0.000704093 -0.000212334 -0.000210754 -0.000113851
0.00212357 -0.000636735 -0.000637215 -8.97082e-05
0.0021247 -0.000592485 -0.000656665 -9.73073e-05
0.000703498 -0.000204509 -0.000213852 -0.000106219
0.00141517 -0.000421294 -0.000425949 -0.000106574
0.00212514 -0.000620162 -0.000644992 -9.30935e-05
0.00140774 -0.000384564 -0.000438504 -9.57982e-05
0.00141393 -0.00040758 -0.000431292 -0.000102602
0.000704093 -0.000212334 -0.000210754 -0.000113851
0.000700001 -0.000220847 -0.000205352 -0.000116221
0.00210913 -0.00064577 -0.000627156 -8.44118e-05
0.00212357 -0.000636735 -0.000637215 -8.97082e-05
0.000701535 -0.000217681 -0.000207366 -0.000116336
0.0014074 -0.000433818 -0.00041725 -0.000104666
0.00211867 -0.000644091 -0.000631963 -8.7065e-05
0.00141517 -0.000421294 -0.000425949 -0.000106574
0.00141262 -0.000429617 -0.000421286 -0.000106915
0.000700001 -0.000220847 -0.000205352 -0.000116221
0.00069453 -0.000221337 -0.000202797 -0.000111994
0.00208836 -0.000643006 -0.000619439 -8.08491e-05
0.00210913 -0.00064577 -0.000627156 -8.44118e-05
0.000698121 -0.000221761 -0.000204154 -0.000114524
0.00139391 -0.000433489 -0.000411609 -0.000100115
0.00209801 -0.00064511 -0.000622672 -8.21073e-05
0.0014074 -0.000433818 -0.00041725 -0.000104666
0.00140076 -0.000434656 -0.000414043 -0.00010209
0.00069453 -0.000221337 -0.000202797 -0.000111994
0.000687254 -0.000219485 -0.000200472 -0.0001066
0.00207018 -0.000636165 -0.000614578 -7.96705e-05
0.00208836 -0.000643006 -0.000619439 -8.08491e-05
0.000690488 -0.000220529 -0.000201411 -0.000109184
0.0013805 -0.0004293 -0.000407655 -9.60997e-05
0.00207936 -0.000639812 -0.000616951 -8.01962e-05
0.00139391 -0.000433489 -0.000411609 -0.000100115
0.00138708 -0.000431589 -0.000409497 -9.81144e-05
0.000687254 -0.000219485 -0.000200472 -0.0001066
0.000681273 -0.000216834 -0.000199045 -0.000102332
0.00205358 -0.000629332 -0.000610391 -7.91605e-05
0.00207018 -0.000636165 -0.000614578 -7.96705e-05
0.000684344 -0.000218194 -0.000199778 -0.000104304
0.0013685 -0.0004242 -0.000404701 -9.33056e-05
0.00206139 -0.000632647 -0.00061232 -7.92914e-05
0.0013805 -0.0004293 -0.000407655 -9.60997e-05
0.00137426 -0.000426759 -0.000406073 -9.44725e-05
0.000681273 -0.000216834 -0.000199045 -0.000102332
0.000675752 -0.000214435 -0.000197707 -9.93944e-05
0.0020394 -0.000623254 -0.00060692 -7.91626e-05
0.00205358 -0.000629332 -0.000610391 -7.91605e-05
0.000678317 -0.000215582 -0.000198315 -0.00010069
0.00135816 -0.000419659 -0.000402215 -9.15522e-05
0.00204637 -0.000626186 -0.00060865 -7.91592e-05
0.0013685 -0.0004242 -0.000404701 -9.33056e-05
0.00136315 -0.000421832 -0.000403423 -9.23518e-05
0.000675752 -0.000214435 -0.000197707 -9.93944e-05
0.00067111 -0.000212349 -0.000196612 -9.76004e-05
0.00202648 -0.000618125 -0.000603581 -7.92343e-05
0.0020394 -0.000623254 -0.00060692 -7.91626e-05
0.000673407 -0.000213353 -0.000197166 -9.83824e-05
0.00134905 -0.000415787 -0.000399971 -9.05534e-05
0.00203275 -0.000620581 -0.000605215 -7.91804e-05
0.00135816 -0.000419659 -0.000402215 -9.15522e-05
0.00135348 -0.000417644 -0.000401071 -9.09607e-05
0.00067111 -0.000212349 -0.000196612 -9.76004e-05
0.000666851 -0.000210597 -0.000195537 -9.65681e-05
0.00201459 -0.000613685 -0.000600386 -7.9357e-05
0.00202648 -0.000618125 -0.000603581 -7.92343e-05
0.000668909 -0.000211436 -0.00019606 -9.70061e-05
0.00134078 -0.000412527 -0.000397824 -9.00155e-05
0.00202047 -0.000615835 -0.000601987 -7.93018e-05
0.00134905 -0.000415787 -0.000399971 -9.05534e-05
0.00134484 -0.000414091 -0.000398891 -9.02486e-05
0.000666851 -0.000210597 -0.000195537 -9.65681e-05
0.000662946 -0.000209068 -0.00019452 -9.60176e-05
0.00200318 -0.000609723 -0.000597198 -7.94521e-05
0.00201459 -0.000613685 -0.000600386 -7.9357e-05
0.000664882 -0.00020981 -0.000195031 -9.62488e-05
0.00133302 -0.000409674 -0.00039572 -8.97526e-05
0.00200882 -0.000611657 -0.000598786 -7.94052e-05
0.00134078 -0.000412527 -0.000397824 -9.00155e-05
0.00133686 -0.00041106 -0.000396769 -8.98556e-05
0.000662946 -0.000209068 -0.00019452 -9.60176e-05
0.0006592 -0.00020769 -0.000193504 -9.57398e-05
0.00199211 -0.000606046 -0.000594028 -7.953e-05
0.00200318 -0.000609723 -0.000597198 -7.94521e-05
0.00066105 -0.000208364 -0.000194009 -9.58535e-05
0.00132556 -0.000407088 -0.000393629 -8.96342e-05
0.00199763 -0.000607858 -0.000595615 -7.94952e-05
0.00133302 -0.000409674 -0.00039572 -8.97526e-05
0.00132926 -0.000408356 -0.000394674 -8.96826e-05
0.0006592 -0.00020769 -0.000193504 -9.57398e-05
0.000655569 -0.000206403 -0.0001925 -9.56108e-05
0.00198119 -0.000602538 -0.000590849 -7.95838e-05
0.00199211 -0.000606046 -0.000594028 -7.953e-05
0.000657378 -0.000207038 -0.000193003 -9.56626e-05
0.00131825 -0.000404656 -0.00039154 -8.95907e-05
0.00198663 -0.000604277 -0.000592438 -7.95589e-05
0.00132556 -0.000407088 -0.000393629 -8.96342e-05
0.00132189 -0.000405858 -0.000392584 -8.96056e-05
0.000655569 -0.000206403 -0.0001925 -9.56108e-05
0.00065199 -0.000205171 -0.000191494 -9.55564e-05
0.00197035 -0.000599121 -0.000587669 -7.96217e-05
0.00198119 -0.000602538 -0.000590849 -7.95838e-05
0.000653773 -0.000205782 -0.000191996 -9.55773e-05
0.00131103 -0.000402314 -0.000389449 -8.95803e-05
0.00197576 -0.000600821 -0.000589261 -7.96048e-05
0.00131825 -0.000404656 -0.00039154 -8.95907e-05
0.00131463 -0.000403477 -0.000390495 -8.95834e-05
0.00065199 -0.000205171 -0.000191494 -9.55564e-05
0.000648445 -0.00020397 -0.00019049 -9.55373e-05
0.00195955 -0.000595752 -0.000584483 -7.96467e-05
0.00197035 -0.000599121 -0.000587669 -7.96217e-05
0.000650215 -0.000204567 -0.000190992 -9.55441e-05
0.00130385 -0.000400019 -0.000387356 -8.95835e-05
0.00196494 -0.000597432 -0.000586077 -7.96354e-05
0.00131103 -0.000402314 -0.000389449 -8.95803e-05
0.00130744 -0.000401162 -0.000388403 -8.95809e-05
0.000648445 -0.00020397 -0.00019049 -9.55373e-05
0.000644916 -0.000202787 -0.000189484 -9.5533e-05
0.00194876 -0.000592409 -0.000581295 -7.96629e-05
0.00195955 -0.000595752 -0.000584483 -7.96467e-05
0.000646679 -0.000203376 -0.000189987 -9.55341e-05
0.00129669 -0.00039775 -0.000385261 -8.95901e-05
0.00195415 -0.000594079 -0.00058289 -7.96558e-05
0.00130385 -0.000400019 -0.000387356 -8.95835e-05
0.00130027 -0.000398882 -0.000386309 -8.95868e-05
0.000644916 -0.000202787 -0.000189484 -9.5533e-05
0.000641396 -0.000201615 -0.000188478 -9.5534e-05
0.00193799 -0.000589079 -0.000578104 -7.96729e-05
0.00194876 -0.000592409 -0.000581295 -7.96629e-05
0.000643155 -0.0002022 -0.000188981 -9.55332e-05
0.00128954 -0.000395496 -0.000383164 -8.95964e-05
0.00194338 -0.000590743 -0.0005797 -7.96686e-05
0.00129669 -0.00039775 -0.000385261 -8.95901e-05
0.00129312 -0.000396622 -0.000384213 -8.95934e-05
0.000641396 -0.000201615 -0.000188478 -9.5534e-05
0.000637881 -0.000200449 -0.000187471 -9.5536e-05
0.00192721 -0.000585755 -0.000574911 -7.96788e-05
0.00193799 -0.000589079 -0.000578104 -7.96729e-05
0.000639638 -0.000201031 -0.000187974 -9.5535e-05
0.0012824 -0.000393249 -0.000381066 -8.9601e-05
0.0019326 -0.000587416 -0.000576508 -7.96763e-05
0.00128954 -0.000395496 -0.000383164 -8.95964e-05
0.00128597 -0.000394371 -0.000382115 -8.9599e-05
0.000637881 -0.000200449 -0.000187471 -9.5536e-05
0.000634368 -0.000199288 -0.000186463 -9.55376e-05
0.00191644 -0.000582434 -0.000571717 -7.96818e-05
0.00192721 -0.000585755 -0.000574911 -7.96788e-05
0.000636124 -0.000199868 -0.000186967 -9.55369e-05
0.00127526 -0.000391006 -0.000378966 -8.96037e-05
0.00192183 -0.000584094 -0.000573314 -7.96806e-05
0.0012824 -0.000393249 -0.000381066 -8.9601e-05
0.00127883 -0.000392127 -0.000380016 -8.96025e-05
0.000634368 -0.000199288 -0.000186463 -9.55376e-05
0.000630856 -0.00019813 -0.000185454 -9.55383e-05
0.00190567 -0.000579116 -0.000568522 -7.96829e-05
0.00191644 -0.000582434 -0.000571717 -7.96818e-05
0.000632612 -0.000198709 -0.000185958 -9.5538e-05
0.00126812 -0.000388766 -0.000376866 -8.96048e-05
0.00191105 -0.000580775 -0.00057012 -7.96825e-05
0.00127526 -0.000391006 -0.000378966 -8.96037e-05
0.00127169 -0.000389885 -0.000377916 -8.96044e-05
0.000630856 -0.00019813 -0.000185454 -9.55383e-05
0.000627345 -0.000196974 -0.000184445 -9.55381e-05
0.00189489 -0.000575798 -0.000565327 -7.96828e-05
0.00190567 -0.000579116 -0.000568522 -7.96829e-05
0.0006291 -0.000197552 -0.000184949 -9.55383e-05
0.00126098 -0.000386527 -0.000374765 -8.96049e-05
0.00190028 -0.000577457 -0.000566924 -7.9683e-05
0.00126812 -0.000388766 -0.000376866 -8.96048e-05
0.00126455 -0.000387646 -0.000375815 -8.9605e-05
0.000627345 -0.000196974 -0.000184445 -9.55381e-05
0.000623833 -0.000195819 -0.000183435 -9.55374e-05
0.00188412 -0.000572481 -0.00056213 -7.96819e-05
0.00189489 -0.000575798 -0.000565327 -7.96828e-05
0.000625589 -0.000196396 -0.00018394 -9.55378e-05
0.00125384 -0.00038429 -0.000372663 -8.96041e-05
0.00188951 -0.00057414 -0.000563729 -7.96824e-05
0.00126098 -0.000386527 -0.000374765 -8.96049e-05
0.00125741 -0.000385408 -0.000373714 -8.96046e-05
0.000623833 -0.000195819 -0.000183435 -9.55374e-05
0.000620322 -0.000194665 -0.000182424 -9.55362e-05
0.00187334 -0.000569165 -0.000558934 -7.96805e-05
0.00188412 -0.000572481 -0.00056213 -7.96819e-05
0.000622078 -0.000195242 -0.00018293 -9.55369e-05
0.0012467 -0.000382053 -0.000370561 -8.96029e-05
0.00187873 -0.000570823 -0.000560532 -7.96813e-05
0.00125384 -0.00038429 -0.000372663 -8.96041e-05
0.00125027 -0.000383171 -0.000371612 -8.96035e-05
0.000620322 -0.000194665 -0.000182424 -9.55362e-05
0.000616809 -0.000193512 -0.000181413 -9.55348e-05
0.00186257 -0.00056585 -0.000555737 -7.96788e-05
0.00187334 -0.000569165 -0.000558934 -7.96805e-05
0.000618566 -0.000194088 -0.000181919 -9.55356e-05
0.00123955 -0.000379817 -0.000368458 -8.96013e-05
0.00186796 -0.000567507 -0.000557335 -7.96797e-05
0.0012467 -0.000382053 -0.000370561 -8.96029e-05
0.00124312 -0.000380935 -0.00036951 -8.96021e-05
0.000616809 -0.000193512 -0.000181413 -9.55348e-05
0.000613297 -0.000192359 -0.000180402 -9.55332e-05
0.00185179 -0.000562535 -0.000552539 -7.9677e-05
0.00186257 -0.00056585 -0.000555737 -7.96788e-05
0.000615053 -0.000192936 -0.000180908 -9.5534e-05
0.00123241 -0.000377582 -0.000366355 -8.95995e-05
0.00185718 -0.000564192 -0.000554138 -7.96779e-05
0.00123955 -0.000379817 -0.000368458 -8.96013e-05
0.00123598 -0.000378699 -0.000367407 -8.96004e-05
0.000613297 -0.000192359 -0.000180402 -9.55332e-05
0.000609784 -0.000191208 -0.00017939 -9.55315e-05
0.00184102 -0.00055922 -0.000549341 -7.96751e-05
0.00185179 -0.000562535 -0.000552539 -7.9677e-05
0.00061154 -0.000191783 -0.000179896 -9.55323e-05
0.00122527 -0.000375347 -0.000364252 -8.95976e-05
0.0018464 -0.000560877 -0.00055094 -7.9676e-05
0.00123241 -0.000377582 -0.000366355 -8.95995e-05
0.00122884 -0.000376464 -0.000365303 -8.95986e-05
0.000609784 -0.000191208 -0.00017939 -9.55315e-05
0.00060627 -0.000190056 -0.000178377 -9.55297e-05
0.00183024 -0.000555906 -0.000546143 -7.96731e-05
0.00184102 -0.00055922 -0.000549341 -7.96751e-05
0.000608027 -0.000190632 -0.000178884 -9.55306e-05
0.00121812 -0.000373112 -0.000362148 -8.95957e-05
0.00183563 -0.000557563 -0.000547742 -7.96741e-05
0.00122527 -0.000375347 -0.000364252 -8.95976e-05
0.0012217 -0.00037423 -0.0003632 -8.95966e-05
0.00060627 -0.000190056 -0.000178377 -9.55297e-05
0.000602755 -0.000188905 -0.000177364 -9.55278e-05
0.00181946 -0.000552592 -0.000542945 -7.9671e-05
0.00183024 -0.000555906 -0.000546143 -7.96731e-05
0.000604512 -0.00018948 -0.000177871 -9.55287e-05
0.00121098 -0.000370878 -0.000360043 -8.95936e-05
0.00182485 -0.000554249 -0.000544544 -7.96721e-05
0.00121812 -0.000373112 -0.000362148 -8.95957e-05
0.00121455 -0.000371995 -0.000361095 -8.95947e-05
0.000602755 -0.000188905 -0.000177364 -9.55278e-05
0.00059924 -0.000187754 -0.000176351 -9.55259e-05
0.00180868 -0.000549278 -0.000539746 -7.9669e-05
0.00181946 -0.000552592 -0.000542945 -7.9671e-05
0.000600998 -0.00018833 -0.000176858 -9.55269e-05
0.00120383 -0.000368645 -0.000357938 -8.95916e-05
0.00181407 -0.000550935 -0.000541345 -7.967e-05
0.00121098 -0.000370878 -0.000360043 -8.95936e-05
0.00120741 -0.000369762 -0.000358991 -8.95926e-05
0.00059924 -0.000187754 -0.000176351 -9.55259e-05
0.000595724 -0.000186604 -0.000175337 -9.5524e-05
0.00179791 -0.000545965 -0.000536547 -7.9667e-05
0.00180868 -0.000549278 -0.000539746 -7.9669e-05
0.000597482 -0.000187179 -0.000175844 -9.55249e-05
0.00119669 -0.000366411 -0.000355833 -8.95896e-05
0.0018033 -0.000547621 -0.000538146 -7.9668e-05
0.00120383 -0.000368645 -0.000357938 -8.95916e-05
0.00120026 -0.000367528 -0.000356886 -8.95906e-05
0.000595724 -0.000186604 -0.000175337 -9.5524e-05
0.000592208 -0.000185454 -0.000174323 -9.5522e-05
0.00178713 -0.000542652 -0.000533347 -7.96649e-05
0.00179791 -0.000545965 -0.000536547 -7.9667e-05
0.000593966 -0.000186029 -0.00017483 -9.5523e-05
0.00118954 -0.000364179 -0.000353728 -8.95875e-05
0.00179252 -0.000544308 -0.000534947 -7.96659e-05
0.00119669 -0.000366411 -0.000355833 -8.95896e-05
0.00119312 -0.000365295 -0.000354781 -8.95885e-05
0.000592208 -0.000185454 -0.000174323 -9.5522e-05
0.000588691 -0.000184305 -0.000173308 -9.552e-05
0.00177635 -0.000539339 -0.000530147 -7.96628e-05
0.00178713 -0.000542652 -0.000533347 -7.96649e-05
0.000590449 -0.000184879 -0.000173816 -9.5521e-05
0.0011824 -0.000361946 -0.000351622 -8.95854e-05
0.00178174 -0.000540996 -0.000531747 -7.96639e-05
0.00118954 -0.000364179 -0.000353728 -8.95875e-05
0.00118597 -0.000363062 -0.000352675 -8.95864e-05
0.000588691 -0.000184305 -0.000173308 -9.552e-05
0.000585173 -0.000183156 -0.000172293 -9.5518e-05
0.00176557 -0.000536027 -0.000526947 -7.96607e-05
0.00177635 -0.000539339 -0.000530147 -7.96628e-05
0.000586932 -0.00018373 -0.000172801 -9.5519e-05
0.00117525 -0.000359714 -0.000349515 -8.95833e-05
0.00177096 -0.000537683 -0.000528547 -7.96618e-05
0.0011824 -0.000361946 -0.000351622 -8.95854e-05
0.00117882 -0.00036083 -0.000350569 -8.95843e-05
0.000585173 -0.000183156 -0.000172293 -9.5518e-05
0.000581655 -0.000182007 -0.000171278 -9.55159e-05
0.00175479 -0.000532715 -0.000523747 -7.96586e-05
0.00176557 -0.000536027 -0.000526947 -7.96607e-05
0.000583414 -0.000182581 -0.000171786 -9.5517e-05
0.0011681 -0.000357482 -0.000347409 -8.95811e-05
0.00176018 -0.000534371 -0.000525347 -7.96597e-05
0.00117525 -0.000359714 -0.000349515 -8.95833e-05
0.00117168 -0.000358598 -0.000348462 -8.95822e-05
0.000581655 -0.000182007 -0.000171278 -9.55159e-05
0.000578136 -0.000180859 -0.000170262 -9.55139e-05
0.00174401 -0.000529404 -0.000520546 -7.96565e-05
0.00175479 -0.000532715 -0.000523747 -7.96586e-05
0.000579896 -0.000181433 -0.00017077 -9.55149e-05
0.00116095 -0.000355251 -0.000345302 -8.95789e-05
0.0017494 -0.00053106 -0.000522146 -7.96576e-05
0.0011681 -0.000357482 -0.000347409 -8.95811e-05
0.00116453 -0.000356366 -0.000346355 -8.958e-05
0.000578136 -0.000180859 -0.000170262 -9.55139e-05
0.000574617 -0.000179711 -0.000169245 -9.55117e-05
0.00173323 -0.000526093 -0.000517345 -7.96543e-05
0.00174401 -0.000529404 -0.000520546 -7.96565e-05
0.000576377 -0.000180285 -0.000169754 -9.55128e-05
0.00115381 -0.00035302 -0.000343194 -8.95767e-05
0.00173862 -0.000527748 -0.000518945 -7.96554e-05
0.00116095 -0.000355251 -0.000345302 -8.95789e-05
0.00115738 -0.000354135 -0.000344248 -8.95778e-05
0.000574617 -0.000179711 -0.000169245 -9.55117e-05
0.000571097 -0.000178563 -0.000168229 -9.55096e-05
0.00172245 -0.000522782 -0.000514143 -7.96522e-05
0.00173323 -0.000526093 -0.000517345 -7.96543e-05
0.000572857 -0.000179137 -0.000168737 -9.55107e-05
0.00114666 -0.000350789 -0.000341086 -8.95745e-05
0.00172784 -0.000524437 -0.000515744 -7.96533e-05
0.00115381 -0.00035302 -0.000343194 -8.95767e-05
0.00115023 -0.000351904 -0.00034214 -8.95756e-05
0.000571097 -0.000178563 -0.000168229 -9.55096e-05
0.000567576 -0.000177416 -0.000167211 -9.55074e-05
0.00171167 -0.000519472 -0.000510942 -7.965e-05
0.00172245 -0.000522782 -0.000514143 -7.96522e-05
0.000569337 -0.00017799 -0.00016772 -9.55085e-05
0.00113951 -0.000348559 -0.000338978 -8.95722e-05
0.00171706 -0.000521127 -0.000512543 -7.96511e-05
0.00114666 -0.000350789 -0.000341086 -8.95745e-05
0.00114308 -0.000349674 -0.000340032 -8.95734e-05
0.000567576 -0.000177416 -0.000167211 -9.55074e-05
0.000564055 -0.000176269 -0.000166194 -9.55052e-05
0.00170089 -0.000516162 -0.00050774 -7.96477e-05
0.00171167 -0.000519472 -0.000510942 -7.965e-05
0.000565816 -0.000176843 -0.000166703 -9.55063e-05
0.00113236 -0.000346329 -0.00033687 -8.95699e-05
0.00170628 -0.000517817 -0.000509341 -7.96489e-05
0.00113951 -0.000348559 -0.000338978 -8.95722e-05
0.00113593 -0.000347444 -0.000337924 -8.95711e-05
0.000564055 -0.000176269 -0.000166194 -9.55052e-05
0.000560533 -0.000175123 -0.000165176 -9.5503e-05
0.00169011 -0.000512852 -0.000504537 -7.96455e-05
0.00170089 -0.000516162 -0.00050774 -7.96477e-05
0.000562294 -0.000175696 -0.000165685 -9.55041e-05
0.00112521 -0.0003441 -0.000334761 -8.95676e-05
0.0016955 -0.000514507 -0.000506138 -7.96466e-05
0.00113236 -0.000346329 -0.00033687 -8.95699e-05
0.00112878 -0.000345214 -0.000335815 -8.95688e-05
0.000560533 -0.000175123 -0.000165176 -9.5503e-05
0.000557011 -0.000173977 -0.000164157 -9.55007e-05
0.00167932 -0.000509543 -0.000501335 -7.96432e-05
0.00169011 -0.000512852 -0.000504537 -7.96455e-05
0.000558772 -0.00017455 -0.000164667 -9.55018e-05
0.00111806 -0.000341871 -0.000332651 -8.95653e-05
0.00168471 -0.000511197 -0.000502936 -7.96443e-05
0.00112521 -0.0003441 -0.000334761 -8.95676e-05
0.00112163 -0.000342985 -0.000333706 -8.95665e-05
0.000557011 -0.000173977 -0.000164157 -9.55007e-05
0.000553488 -0.000172831 -0.000163139 -9.54984e-05
0.00166854 -0.000506234 -0.000498132 -7.96409e-05
0.00167932 -0.000509543 -0.000501335 -7.96432e-05
0.00055525 -0.000173404 -0.000163648 -9.54995e-05
0.00111091 -0.000339642 -0.000330542 -8.95629e-05
0.00167393 -0.000507888 -0.000499733 -7.96421e-05
0.00111806 -0.000341871 -0.000332651 -8.95653e-05
0.00111448 -0.000340756 -0.000331597 -8.95641e-05
0.000553488 -0.000172831 -0.000163139 -9.54984e-05
0.000549965 -0.000171686 -0.000162119 -9.54961e-05
0.00165776 -0.000502926 -0.000494928 -7.96386e-05
0.00166854 -0.000506234 -0.000498132 -7.96409e-05
0.000551726 -0.000172259 -0.000162629 -9.54972e-05
0.00110375 -0.000337414 -0.000328432 -8.95605e-05
0.00166315 -0.00050458 -0.00049653 -7.96398e-05
0.00111091 -0.000339642 -0.000330542 -8.95629e-05
0.00110733 -0.000338528 -0.000329487 -8.95617e-05
0.000549965 -0.000171686 -0.000162119 -9.54961e-05
0.00054644 -0.000170542 -0.0001611 -9.54937e-05
0.00164698 -0.000499617 -0.000491725 -7.96362e-05
0.00165776 -0.000502926 -0.000494928 -7.96386e-05
0.000548203 -0.000171114 -0.000161609 -9.54949e-05
0.0010966 -0.000335186 -0.000326321 -8.95581e-05
0.00165237 -0.000501271 -0.000493327 -7.96374e-05
0.00110375 -0.000337414 -0.000328432 -8.95605e-05
0.00110018 -0.0003363 -0.000327376 -8.95593e-05
0.00054644 -0.000170542 -0.0001611 -9.54937e-05
0.000542916 -0.000169397 -0.000160079 -9.54913e-05
0.00163619 -0.00049631 -0.000488521 -7.96339e-05
0.00164698 -0.000499617 -0.000491725 -7.96362e-05
0.000544678 -0.000169969 -0.00016059 -9.54925e-05
0.00108945 -0.000332959 -0.00032421 -8.95556e-05
0.00164158 -0.000497964 -0.000490123 -7.96351e-05
0.0010966 -0.000335186 -0.000326321 -8.95581e-05
0.00109303 -0.000334072 -0.000325266 -8.95569e-05
0.000542916 -0.000169397 -0.000160079 -9.54913e-05
0.000539391 -0.000168253 -0.000159059 -9.54889e-05
0.00162541 -0.000493002 -0.000485317 -7.96315e-05
0.00163619 -0.00049631 -0.000488521 -7.96339e-05
0.000541153 -0.000168825 -0.000159569 -9.54901e-05
0.0010823 -0.000330732 -0.000322099 -8.95532e-05
0.0016308 -0.000494656 -0.000486919 -7.96327e-05
0.00108945 -0.000332959 -0.00032421 -8.95556e-05
0.00108587 -0.000331845 -0.000323155 -8.95544e-05
0.000539391 -0.000168253 -0.000159059 -9.54889e-05
0.000535865 -0.00016711 -0.000158038 -9.54865e-05
0.00161462 -0.000489695 -0.000482112 -7.96291e-05
0.00162541 -0.000493002 -0.000485317 -7.96315e-05
0.000537628 -0.000167682 -0.000158548 -9.54877e-05
0.00107514 -0.000328505 -0.000319988 -8.95507e-05
0.00162002 -0.000491349 -0.000483714 -7.96303e-05
0.0010823 -0.000330732 -0.000322099 -8.95532e-05
0.00107872 -0.000329618 -0.000321043 -8.95519e-05
0.000535865 -0.00016711 -0.000158038 -9.54865e-05
0.000532338 -0.000165967 -0.000157016 -9.5484e-05
0.00160384 -0.000486389 -0.000478907 -7.96267e-05
0.00161462 -0.000489695 -0.000482112 -7.96291e-05
0.000534102 -0.000166538 -0.000157527 -9.54853e-05
0.00106799 -0.000326279 -0.000317876 -8.95482e-05
0.00160923 -0.000488042 -0.00048051 -7.96279e-05
0.00107514 -0.000328505 -0.000319988 -8.95507e-05
0.00107157 -0.000327392 -0.000318932 -8.95494e-05
0.000532338 -0.000165967 -0.000157016 -9.5484e-05
0.000528812 -0.000164824 -0.000155995 -9.54816e-05
0.00159305 -0.000483083 -0.000475702 -7.96242e-05
0.00160384 -0.000486389 -0.000478907 -7.96267e-05
0.000530575 -0.000165395 -0.000156506 -9.54828e-05
0.00106083 -0.000324053 -0.000315763 -8.95456e-05
0.00159845 -0.000484736 -0.000477305 -7.96254e-05
0.00106799 -0.000326279 -0.000317876 -8.95482e-05
0.00106441 -0.000325166 -0.000316819 -8.95469e-05
0.000528812 -0.000164824 -0.000155995 -9.54816e-05
0.000525284 -0.000163682 -0.000154972 -9.54791e-05
0.00158227 -0.000479777 -0.000472497 -7.96217e-05
0.00159305 -0.000483083 -0.000475702 -7.96242e-05
0.000527048 -0.000164253 -0.000155484 -9.54803e-05
0.00105368 -0.000321827 -0.000313651 -8.95431e-05
0.00158766 -0.00048143 -0.000474099 -7.9623e-05
0.00106083 -0.000324053 -0.000315763 -8.95456e-05
0.00105726 -0.00032294 -0.000314707 -8.95443e-05
0.000525284 -0.000163682 -0.000154972 -9.54791e-05
0.000521756 -0.00016254 -0.00015395 -9.54765e-05
0.00157148 -0.000476471 -0.000469291 -7.96193e-05
0.00158227 -0.000479777 -0.000472497 -7.96217e-05
0.00052352 -0.000163111 -0.000154461 -9.54778e-05
0.00104652 -0.000319602 -0.000311538 -8.95405e-05
0.00157688 -0.000478124 -0.000470894 -7.96205e-05
0.00105368 -0.000321827 -0.000313651 -8.95431e-05
0.0010501 -0.000320715 -0.000312594 -8.95418e-05
0.000521756 -0.00016254 -0.00015395 -9.54765e-05
0.000518227 -0.000161398 -0.000152927 -9.5474e-05
0.0015607 -0.000473166 -0.000466085 -7.96167e-05
0.00157148 -0.000476471 -0.000469291 -7.96193e-05
0.000519992 -0.000161969 -0.000153438 -9.54753e-05
0.00103937 -0.000317378 -0.000309424 -8.95379e-05
0.00156609 -0.000474819 -0.000467688 -7.9618e-05
0.00104652 -0.000319602 -0.000311538 -8.95405e-05
0.00104295 -0.00031849 -0.000310481 -8.95392e-05
0.000518227 -0.000161398 -0.000152927 -9.5474e-05
0.000514698 -0.000160257 -0.000151903 -9.54714e-05
0.00154991 -0.000469862 -0.000462879 -7.96142e-05
0.0015607 -0.000473166 -0.000466085 -7.96167e-05
0.000516463 -0.000160828 -0.000152415 -9.54727e-05
0.00103221 -0.000315154 -0.00030731 -8.95353e-05
0.00155531 -0.000471514 -0.000464482 -7.96155e-05
0.00103937 -0.000317378 -0.000309424 -8.95379e-05
0.00103579 -0.000316266 -0.000308367 -8.95366e-05
0.000514698 -0.000160257 -0.000151903 -9.54714e-05
0.000511168 -0.000159116 -0.000150879 -9.54689e-05
0.00153913 -0.000466558 -0.000459672 -7.96117e-05
0.00154991 -0.000469862 -0.000462879 -7.96142e-05
0.000512933 -0.000159687 -0.000151391 -9.54702e-05
0.00102505 -0.00031293 -0.000305196 -8.95326e-05
0.00154452 -0.00046821 -0.000461275 -7.9613e-05
0.00103221 -0.000315154 -0.00030731 -8.95353e-05
0.00102863 -0.000314042 -0.000306253 -8.95339e-05
0.000511168 -0.000159116 -0.000150879 -9.54689e-05
0.000507638 -0.000157976 -0.000149855 -9.54663e-05
0.00152834 -0.000463254 -0.000456465 -7.96091e-05
0.00153913 -0.000466558 -0.000459672 -7.96117e-05
0.000509403 -0.000158546 -0.000150367 -9.54676e-05
0.0010179 -0.000310706 -0.000303082 -8.953e-05
0.00153373 -0.000464906 -0.000458069 -7.96104e-05
0.00102505 -0.00031293 -0.000305196 -8.95326e-05
0.00102148 -0.000311818 -0.000304139 -8.95313e-05
0.000507638 -0.000157976 -0.000149855 -9.54663e-05
0.000504107 -0.000156836 -0.00014883 -9.54636e-05
0.00151755 -0.00045995 -0.000453258 -7.96066e-05
0.00152834 -0.000463254 -0.000456465 -7.96091e-05
0.000505873 -0.000157406 -0.000149343 -9.5465e-05
0.00101074 -0.000308483 -0.000300967 -8.95273e-05
0.00152295 -0.000461602 -0.000454861 -7.96079e-05
0.0010179 -0.000310706 -0.000303082 -8.953e-05
0.00101432 -0.000309595 -0.000302024 -8.95286e-05
0.000504107 -0.000156836 -0.00014883 -9.54636e-05
0.000500576 -0.000155697 -0.000147805 -9.5461e-05
0.00150676 -0.000456647 -0.00045005 -7.9604e-05
0.00151755 -0.00045995 -0.000453258 -7.96066e-05
0.000502342 -0.000156267 -0.000148318 -9.54623e-05
0.00100358 -0.000306261 -0.000298852 -8.95246e-05
0.00151216 -0.000458299 -0.000451654 -7.96053e-05
0.00101074 -0.000308483 -0.000300967 -8.95273e-05
0.00100716 -0.000307372 -0.000299909 -8.9526e-05
0.000500576 -0.000155697 -0.000147805 -9.5461e-05
0.000497044 -0.000154558 -0.00014678 -9.54584e-05
0.00149598 -0.000453344 -0.000446842 -7.96014e-05
0.00150676 -0.000456647 -0.00045005 -7.9604e-05
0.00049881 -0.000155127 -0.000147293 -9.54597e-05
0.000996423 -0.000304039 -0.000296736 -8.95219e-05
0.00150137 -0.000454996 -0.000448446 -7.96027e-05
0.00100358 -0.000306261 -0.000298852 -8.95246e-05
0.001 -0.00030515 -0.000297794 -8.95233e-05
0.000497044 -0.000154558 -0.00014678 -9.54584e-05
0.000493511 -0.000153419 -0.000145754 -9.54557e-05
0.00148519 -0.000450042 -0.000443634 -7.95988e-05
0.00149598 -0.000453344 -0.000446842 -7.96014e-05
0.000495277 -0.000153988 -0.000146267 -9.5457e-05
0.000989264 -0.000301817 -0.00029462 -8.95192e-05
0.00149058 -0.000451693 -0.000445238 -7.96001e-05
0.000996423 -0.000304039 -0.000296736 -8.95219e-05
0.000992844 -0.000302928 -0.000295678 -8.95206e-05
0.000493511 -0.000153419 -0.000145754 -9.54557e-05
0.000489978 -0.000152281 -0.000144727 -9.5453e-05
0.0014744 -0.00044674 -0.000440426 -7.95962e-05
0.00148519 -0.000450042 -0.000443634 -7.95988e-05
0.000491745 -0.00015285 -0.000145241 -9.54543e-05
0.000982105 -0.000299596 -0.000292504 -8.95165e-05
0.00147979 -0.000448391 -0.00044203 -7.95975e-05
0.000989264 -0.000301817 -0.00029462 -8.95192e-05
0.000985684 -0.000300706 -0.000293562 -8.95178e-05
0.000489978 -0.000152281 -0.000144727 -9.5453e-05
0.000486444 -0.000151143 -0.000143701 -9.54503e-05
0.00146361 -0.000443439 -0.000437217 -7.95935e-05
0.0014744 -0.00044674 -0.000440426 -7.95962e-05
0.000488211 -0.000151712 -0.000144214 -9.54517e-05
0.000974945 -0.000297375 -0.000290387 -8.95137e-05
0.00146901 -0.000445089 -0.000438822 -7.95949e-05
0.000982105 -0.000299596 -0.000292504 -8.95165e-05
0.000978525 -0.000298485 -0.000291445 -8.95151e-05
0.000486444 -0.000151143 -0.000143701 -9.54503e-05
0.00048291 -0.000150006 -0.000142673 -9.54476e-05
0.00145282 -0.000440138 -0.000434008 -7.95909e-05
0.00146361 -0.000443439 -0.000437217 -7.95935e-05
0.000484677 -0.000150574 -0.000143187 -9.5449e-05
0.000967784 -0.000295154 -0.00028827 -8.9511e-05
0.00145822 -0.000441788 -0.000435613 -7.95922e-05
0.000974945 -0.000297375 -0.000290387 -8.95137e-05
0.000971365 -0.000296264 -0.000289329 -8.95123e-05
0.00048291 -0.000150006 -0.000142673 -9.54476e-05
0.000479375 -0.000148869 -0.000141646 -9.54449e-05
0.00144203 -0.000436837 -0.000430799 -7.95882e-05
0.00145282 -0.000440138 -0.000434008 -7.95909e-05
0.000481143 -0.000149437 -0.00014216 -9.54462e-05
0.000960624 -0.000292934 -0.000286153 -8.95082e-05
0.00144743 -0.000438487 -0.000432404 -7.95896e-05
0.000967784 -0.000295154 -0.00028827 -8.9511e-05
0.000964204 -0.000294044 -0.000287211 -8.95096e-05
0.000479375 -0.000148869 -0.000141646 -9.54449e-05
0.00047584 -0.000147732 -0.000140618 -9.54421e-05
0.00143124 -0.000433536 -0.000427589 -7.95856e-05
0.00144203 -0.000436837 -0.000430799 -7.95882e-05
0.000477607 -0.0001483 -0.000141132 -9.54435e-05
0.000953462 -0.000290714 -0.000284035 -8.95054e-05
0.00143664 -0.000435187 -0.000429194 -7.95869e-05
0.000960624 -0.000292934 -0.000286153 -8.95082e-05
0.000957043 -0.000291824 -0.000285094 -8.95068e-05
0.00047584 -0.000147732 -0.000140618 -9.54421e-05
0.000472304 -0.000146596 -0.000139589 -9.54394e-05
0.00142046 -0.000430236 -0.000424379 -7.95829e-05
0.00143124 -0.000433536 -0.000427589 -7.95856e-05
0.000474072 -0.000147164 -0.000140103 -9.54408e-05
0.000946301 -0.000288495 -0.000281917 -8.95026e-05
0.00142585 -0.000431886 -0.000425984 -7.95843e-05
0.000953462 -0.000290714 -0.000284035 -8.95054e-05
0.000949882 -0.000289605 -0.000282976 -8.9504e-05
0.000472304 -0.000146596 -0.000139589 -9.54394e-05
0.000468767 -0.00014546 -0.00013856 -9.54366e-05
0.00140967 -0.000426937 -0.000421169 -7.95802e-05
0.00142046 -0.000430236 -0.000424379 -7.95829e-05
0.000470535 -0.000146028 -0.000139075 -9.5438e-05
0.000939139 -0.000286276 -0.000279798 -8.94998e-05
0.00141506 -0.000428587 -0.000422774 -7.95816e-05
0.000946301 -0.000288495 -0.000281917 -8.95026e-05
0.00094272 -0.000287386 -0.000280858 -8.95012e-05
0.000468767 -0.00014546 -0.00013856 -9.54366e-05
0.00046523 -0.000144324 -0.000137531 -9.54339e-05
0.00139887 -0.000423638 -0.000417959 -7.95775e-05
0.00140967 -0.000426937 -0.000421169 -7.95802e-05
0.000466999 -0.000144892 -0.000138046 -9.54352e-05
0.000931976 -0.000284058 -0.000277679 -8.9497e-05
0.00140427 -0.000425287 -0.000419564 -7.95789e-05
0.000939139 -0.000286276 -0.000279798 -8.94998e-05
0.000935557 -0.000285167 -0.000278739 -8.94984e-05
0.00046523 -0.000144324 -0.000137531 -9.54339e-05
0.000461692 -0.000143189 -0.000136501 -9.54311e-05
0.00138808 -0.000420339 -0.000414748 -7.95748e-05
0.00139887 -0.000423638 -0.000417959 -7.95775e-05
0.000463461 -0.000143757 -0.000137016 -9.54325e-05
0.000924813 -0.00028184 -0.00027556 -8.94942e-05
0.00139348 -0.000421988 -0.000416353 -7.95762e-05
0.000931976 -0.000284058 -0.000277679 -8.9497e-05
0.000928395 -0.000282949 -0.00027662 -8.94956e-05
0.000461692 -0.000143189 -0.000136501 -9.54311e-05
0.000458154 -0.000142055 -0.000135471 -9.54283e-05
0.00137729 -0.000417041 -0.000411537 -7.95721e-05
0.00138808 -0.000420339 -0.000414748 -7.95748e-05
0.000459923 -0.000142622 -0.000135986 -9.54297e-05
0.00091765 -0.000279622 -0.000273441 -8.94914e-05
0.00138269 -0.00041869 -0.000413142 -7.95735e-05
0.000924813 -0.00028184 -0.00027556 -8.94942e-05
0.000921231 -0.000280731 -0.0002745 -8.94928e-05
0.000458154 -0.000142055 -0.000135471 -9.54283e-05
0.000454615 -0.000140921 -0.000134441 -9.54255e-05
0.0013665 -0.000413743 -0.000408325 -7.95694e-05
0.00137729 -0.000417041 -0.000411537 -7.95721e-05
0.000456385 -0.000141488 -0.000134956 -9.54269e-05
0.000910486 -0.000277405 -0.000271321 -8.94885e-05
0.0013719 -0.000415391 -0.000409931 -7.95708e-05
0.00091765 -0.000279622 -0.000273441 -8.94914e-05
0.000914068 -0.000278513 -0.000272381 -8.94899e-05
0.000454615 -0.000140921 -0.000134441 -9.54255e-05
0.000451076 -0.000139787 -0.00013341 -9.54227e-05
0.00135571 -0.000410445 -0.000405114 -7.95667e-05
0.0013665 -0.000413743 -0.000408325 -7.95694e-05
0.000452846 -0.000140354 -0.000133925 -9.54241e-05
0.000903322 -0.000275188 -0.0002692 -8.94857e-05
0.00136111 -0.000412094 -0.00040672 -7.95681e-05
0.000910486 -0.000277405 -0.000271321 -8.94885e-05
0.000906904 -0.000276296 -0.00027026 -8.94871e-05
0.000451076 -0.000139787 -0.00013341 -9.54227e-05
0.000447536 -0.000138654 -0.000132378 -9.54199e-05
0.00134492 -0.000407148 -0.000401902 -7.9564e-05
0.00135571 -0.000410445 -0.000405114 -7.95667e-05
0.000449306 -0.00013922 -0.000132894 -9.54213e-05
0.000896157 -0.000272971 -0.00026708 -8.94828e-05
0.00135031 -0.000408796 -0.000403508 -7.95653e-05
0.000903322 -0.000275188 -0.0002692 -8.94857e-05
0.000899739 -0.00027408 -0.00026814 -8.94843e-05
0.000447536 -0.000138654 -0.000132378 -9.54199e-05
0.000443996 -0.000137521 -0.000131347 -9.54171e-05
0.00133413 -0.000403851 -0.00039869 -7.95613e-05
0.00134492 -0.000407148 -0.000401902 -7.9564e-05
0.000445766 -0.000138087 -0.000131862 -9.54185e-05
0.000888992 -0.000270755 -0.000264959 -8.948e-05
0.00133952 -0.000405499 -0.000400296 -7.95626e-05
0.000896157 -0.000272971 -0.00026708 -8.94828e-05
0.000892574 -0.000271863 -0.000266019 -8.94814e-05
0.000443996 -0.000137521 -0.000131347 -9.54171e-05
0.000440455 -0.000136388 -0.000130314 -9.54143e-05
0.00132333 -0.000400554 -0.000395477 -7.95585e-05
0.00133413 -0.000403851 -0.00039869 -7.95613e-05
0.000442225 -0.000136954 -0.00013083 -9.54157e-05
0.000881826 -0.00026854 -0.000262837 -8.94771e-05
0.00132873 -0.000402203 -0.000397083 -7.95599e-05
0.000888992 -0.000270755 -0.000264959 -8.948e-05
0.000885409 -0.000269647 -0.000263898 -8.94785e-05
0.000440455 -0.000136388 -0.000130314 -9.54143e-05
0.000436913 -0.000135256 -0.000129282 -9.54114e-05
0.00131254 -0.000397258 -0.000392264 -7.95558e-05
0.00132333 -0.000400554 -0.000395477 -7.95585e-05
0.000438684 -0.000135822 -0.000129798 -9.54128e-05
0.00087466 -0.000266325 -0.000260715 -8.94743e-05
0.00131794 -0.000398906 -0.000393871 -7.95572e-05
0.000881826 -0.00026854 -0.000262837 -8.94771e-05
0.000878243 -0.000267432 -0.000261776 -8.94757e-05
0.000436913 -0.000135256 -0.000129282 -9.54114e-05
0.000433371 -0.000134124 -0.000128249 -9.54086e-05
0.00130175 -0.000393963 -0.000389051 -7.9553e-05
0.00131254 -0.000397258 -0.000392264 -7.95558e-05
0.000435142 -0.00013469 -0.000128765 -9.541e-05
0.000867494 -0.00026411 -0.000258593 -8.94714e-05
0.00130715 -0.000395611 -0.000390658 -7.95544e-05
0.00087466 -0.000266325 -0.000260715 -8.94743e-05
0.000871077 -0.000265217 -0.000259654 -8.94728e-05
0.000433371 -0.000134124 -0.000128249 -9.54086e-05
0.000429828 -0.000132993 -0.000127215 -9.54058e-05
0.00129096 -0.000390668 -0.000385838 -7.95503e-05
0.00130175 -0.000393963 -0.000389051 -7.9553e-05
0.0004316 -0.000133558 -0.000127732 -9.54072e-05
0.000860327 -0.000261895 -0.000256471 -8.94685e-05
0.00129635 -0.000392315 -0.000387444 -7.95517e-05
0.000867494 -0.00026411 -0.000258593 -8.94714e-05
0.000863911 -0.000263002 -0.000257532 -8.947e-05
0.000429828 -0.000132993 -0.000127215 -9.54058e-05
0.000426285 -0.000131862 -0.000126181 -9.54029e-05
0.00128016 -0.000387373 -0.000382624 -7.95476e-05
0.00129096 -0.000390668 -0.000385838 -7.95503e-05
0.000428057 -0.000132427 -0.000126698 -9.54044e-05
0.00085316 -0.000259681 -0.000254348 -8.94656e-05
0.00128556 -0.00038902 -0.000384231 -7.95489e-05
0.000860327 -0.000261895 -0.000256471 -8.94685e-05
0.000856744 -0.000260788 -0.000255409 -8.94671e-05
0.000426285 -0.000131862 -0.000126181 -9.54029e-05
0.000422741 -0.000130731 -0.000125147 -9.54001e-05
0.00126937 -0.000384078 -0.00037941 -7.95448e-05
0.00128016 -0.000387373 -0.000382624 -7.95476e-05
0.000424513 -0.000131297 -0.000125664 -9.54015e-05
0.000845992 -0.000257468 -0.000252225 -8.94628e-05
0.00127477 -0.000385726 -0.000381017 -7.95462e-05
0.00085316 -0.000259681 -0.000254348 -8.94656e-05
0.000849576 -0.000258575 -0.000253286 -8.94642e-05
0.000422741 -0.000130731 -0.000125147 -9.54001e-05
0.000419197 -0.000129601 -0.000124112 -9.53973e-05
0.00125857 -0.000380784 -0.000376196 -7.95421e-05
0.00126937 -0.000384078 -0.00037941 -7.95448e-05
0.000420969 -0.000130166 -0.00012463 -9.53987e-05
0.000838824 -0.000255255 -0.000250101 -8.94599e-05
0.00126397 -0.000382431 -0.000377803 -7.95434e-05
0.000845992 -0.000257468 -0.000252225 -8.94628e-05
0.000842408 -0.000256361 -0.000251163 -8.94613e-05
0.000419197 -0.000129601 -0.000124112 -9.53973e-05
0.000415652 -0.000128472 -0.000123077 -9.53944e-05
0.00124778 -0.000377491 -0.000372981 -7.95393e-05
0.00125857 -0.000380784 -0.000376196 -7.95421e-05
0.000417425 -0.000129036 -0.000123595 -9.53958e-05
0.000831655 -0.000253042 -0.000247977 -8.9457e-05
0.00125318 -0.000379137 -0.000374589 -7.95407e-05
0.000838824 -0.000255255 -0.000250101 -8.94599e-05
0.00083524 -0.000254148 -0.000249039 -8.94585e-05
0.000415652 -0.000128472 -0.000123077 -9.53944e-05
0.000412107 -0.000127342 -0.000122042 -9.53916e-05
0.00123699 -0.000374197 -0.000369766 -7.95366e-05
0.00124778 -0.000377491 -0.000372981 -7.95393e-05
0.000413879 -0.000127907 -0.00012256 -9.5393e-05
0.000824486 -0.00025083 -0.000245853 -8.94541e-05
0.00124238 -0.000375844 -0.000371374 -7.95379e-05
0.000831655 -0.000253042 -0.000247977 -8.9457e-05
0.000828071 -0.000251936 -0.000246915 -8.94556e-05
0.000412107 -0.000127342 -0.000122042 -9.53916e-05
0.000408561 -0.000126213 -0.000121006 -9.53887e-05
0.00122619 -0.000370905 -0.000366551 -7.95338e-05
0.00123699 -0.000374197 -0.000369766 -7.95366e-05
0.000410334 -0.000126778 -0.000121524 -9.53902e-05
0.000817317 -0.000248618 -0.000243728 -8.94513e-05
0.00123159 -0.000372551 -0.000368159 -7.95352e-05
0.000824486 -0.00025083 -0.000245853 -8.94541e-05
0.000820902 -0.000249724 -0.000244791 -8.94527e-05
0.000408561 -0.000126213 -0.000121006 -9.53887e-05
0.000405014 -0.000125085 -0.00011997 -9.53859e-05
0.0012154 -0.000367612 -0.000363336 -7.95311e-05
0.00122619 -0.000370905 -0.000366551 -7.95338e-05
0.000406787 -0.000125649 -0.000120488 -9.53873e-05
0.000810147 -0.000246406 -0.000241603 -8.94484e-05
0.00122079 -0.000369258 -0.000364943 -7.95324e-05
0.000817317 -0.000248618 -0.000243728 -8.94513e-05
0.000813732 -0.000247512 -0.000242666 -8.94498e-05
0.000405014 -0.000125085 -0.00011997 -9.53859e-05
0.000401467 -0.000123957 -0.000118933 -9.53831e-05
0.0012046 -0.00036432 -0.00036012 -7.95283e-05
0.0012154 -0.000367612 -0.000363336 -7.95311e-05
0.000403241 -0.000124521 -0.000119451 -9.53845e-05
0.000802977 -0.000244195 -0.000239478 -8.94455e-05
0.00121 -0.000365966 -0.000361728 -7.95297e-05
0.000810147 -0.000246406 -0.000241603 -8.94484e-05
0.000806562 -0.000245301 -0.000240541 -8.94469e-05
0.000401467 -0.000123957 -0.000118933 -9.53831e-05
0.000397919 -0.000122829 -0.000117896 -9.53802e-05
0.0011938 -0.000361028 -0.000356904 -7.95256e-05
0.0012046 -0.00036432 -0.00036012 -7.95283e-05
0.000399693 -0.000123393 -0.000118414 -9.53817e-05
0.000795806 -0.000241984 -0.000237352 -8.94426e-05
0.0011992 -0.000362674 -0.000358512 -7.95269e-05
0.000802977 -0.000244195 -0.000239478 -8.94455e-05
0.000799392 -0.00024309 -0.000238415 -8.94441e-05
0.000397919 -0.000122829 -0.000117896 -9.53802e-05
0.000394371 -0.000121702 -0.000116858 -9.53774e-05
0.00118301 -0.000357737 -0.000353688 -7.95228e-05
0.0011938 -0.000361028 -0.000356904 -7.95256e-05
0.000396145 -0.000122266 -0.000117377 -9.53788e-05
0.000788635 -0.000239774 -0.000235226 -8.94398e-05
0.00118841 -0.000359383 -0.000355296 -7.95242e-05
0.000795806 -0.000241984 -0.000237352 -8.94426e-05
0.000792221 -0.000240879 -0.000236289 -8.94412e-05
0.000394371 -0.000121702 -0.000116858 -9.53774e-05
0.000390822 -0.000120575 -0.00011582 -9.53746e-05
0.00117221 -0.000354446 -0.000350471 -7.95201e-05
0.00118301 -0.000357737 -0.000353688 -7.95228e-05
0.000392597 -0.000121138 -0.000116339 -9.5376e-05
0.000781464 -0.000237564 -0.0002331 -8.94369e-05
0.00117761 -0.000356092 -0.000352079 -7.95214e-05
0.000788635 -0.000239774 -0.000235226 -8.94398e-05
0.000785049 -0.000238669 -0.000234163 -8.94383e-05
0.000390822 -0.000120575 -0.00011582 -9.53746e-05
0.000387273 -0.000119449 -0.000114782 -9.53717e-05
0.00116142 -0.000351156 -0.000347254 -7.95173e-05
0.00117221 -0.000354446 -0.000350471 -7.95201e-05
0.000389048 -0.000120012 -0.000115301 -9.53732e-05
0.000774292 -0.000235355 -0.000230973 -8.9434e-05
0.00116681 -0.000352801 -0.000348863 -7.95187e-05
0.000781464 -0.000237564 -0.0002331 -8.94369e-05
0.000777878 -0.000236459 -0.000232036 -8.94355e-05
0.000387273 -0.000119449 -0.000114782 -9.53717e-05
0.000383723 -0.000118323 -0.000113743 -9.53689e-05
0.00115062 -0.000347866 -0.000344037 -7.95146e-05
0.00116142 -0.000351156 -0.000347254 -7.95173e-05
0.000385498 -0.000118886 -0.000114262 -9.53703e-05
0.000767119 -0.000233146 -0.000228846 -8.94312e-05
0.00115602 -0.000349511 -0.000345646 -7.9516e-05
0.000774292 -0.000235355 -0.000230973 -8.9434e-05
0.000770705 -0.00023425 -0.000229909 -8.94326e-05
0.000383723 -0.000118323 -0.000113743 -9.53689e-05
0.000380173 -0.000117197 -0.000112704 -9.53661e-05
0.00113982 -0.000344576 -0.000340819 -7.95119e-05
0.00115062 -0.000347866 -0.000344037 -7.95146e-05
0.000381948 -0.00011776 -0.000113223 -9.53675e-05
0.000759946 -0.000230937 -0.000226718 -8.94283e-05
0.00114522 -0.000346221 -0.000342428 -7.95132e-05
0.000767119 -0.000233146 -0.000228846 -8.94312e-05
0.000763533 -0.000232041 -0.000227782 -8.94297e-05
0.000380173 -0.000117197 -0.000112704 -9.53661e-05
0.000376621 -0.000116072 -0.000111664 -9.53633e-05
0.00112902 -0.000341287 -0.000337602 -7.95091e-05
0.00113982 -0.000344576 -0.000340819 -7.95119e-05
0.000378397 -0.000116634 -0.000112184 -9.53647e-05
0.000752773 -0.000228729 -0.00022459 -8.94255e-05
0.00113442 -0.000342931 -0.000339211 -7.95105e-05
0.000759946 -0.000230937 -0.000226718 -8.94283e-05
0.00075636 -0.000229833 -0.000225654 -8.94269e-05
0.000376621 -0.000116072 -0.000111664 -9.53633e-05
0.00037307 -0.000114947 -0.000110624 -9.53605e-05
0.00111823 -0.000337998 -0.000334384 -7.95064e-05
0.00112902 -0.000341287 -0.000337602 -7.95091e-05
0.000374846 -0.000115509 -0.000111144 -9.53619e-05
0.000745599 -0.000226521 -0.000222462 -8.94226e-05
0.00112362 -0.000339642 -0.000335993 -7.95078e-05
0.000752773 -0.000228729 -0.00022459 -8.94255e-05
0.000749186 -0.000227625 -0.000223526 -8.9424e-05
0.00037307 -0.000114947 -0.000110624 -9.53605e-05
0.000369518 -0.000113823 -0.000109584 -9.53577e-05
0.00110743 -0.000334709 -0.000331165 -7.95037e-05
0.00111823 -0.000337998 -0.000334384 -7.95064e-05
0.000371294 -0.000114385 -0.000110104 -9.53591e-05
0.000738425 -0.000224314 -0.000220333 -8.94198e-05
0.00111283 -0.000336353 -0.000332774 -7.95051e-05
0.000745599 -0.000226521 -0.000222462 -8.94226e-05
0.000742012 -0.000225417 -0.000221398 -8.94212e-05
0.000369518 -0.000113823 -0.000109584 -9.53577e-05
0.000365965 -0.000112699 -0.000108543 -9.53549e-05
0.00109663 -0.000331421 -0.000327947 -7.9501e-05
0.00110743 -0.000334709 -0.000331165 -7.95037e-05
0.000367741 -0.000113261 -0.000109063 -9.53563e-05
0.000731251 -0.000222107 -0.000218204 -8.94169e-05
0.00110203 -0.000333065 -0.000329556 -7.95024e-05
0.000738425 -0.000224314 -0.000220333 -8.94198e-05
0.000734838 -0.00022321 -0.000219269 -8.94183e-05
0.000365965 -0.000112699 -0.000108543 -9.53549e-05
0.000362412 -0.000111575 -0.000107501 -9.53521e-05
0.00108583 -0.000328133 -0.000324728 -7.94983e-05
0.00109663 -0.000331421 -0.000327947 -7.9501e-05
0.000364188 -0.000112137 -0.000108022 -9.53535e-05
0.000724076 -0.0002199 -0.000216075 -8.94141e-05
0.00109123 -0.000329777 -0.000326337 -7.94996e-05
0.000731251 -0.000222107 -0.000218204 -8.94169e-05
0.000727663 -0.000221003 -0.00021714 -8.94155e-05
0.000362412 -0.000111575 -0.000107501 -9.53521e-05
0.000358858 -0.000110452 -0.00010646 -9.53493e-05
0.00107503 -0.000324846 -0.000321508 -7.94956e-05
0.00108583 -0.000328133 -0.000324728 -7.94983e-05
0.000360635 -0.000111013 -0.000106981 -9.53507e-05
0.0007169 -0.000217694 -0.000213945 -8.94113e-05
0.00108043 -0.00032649 -0.000323118 -7.94969e-05
0.000724076 -0.0002199 -0.000216075 -8.94141e-05
0.000720488 -0.000218797 -0.00021501 -8.94127e-05
0.000358858 -0.000110452 -0.00010646 -9.53493e-05
0.000355304 -0.000109329 -0.000105418 -9.53466e-05
0.00106423 -0.000321559 -0.000318289 -7.94929e-05
0.00107503 -0.000324846 -0.000321508 -7.94956e-05
0.000357081 -0.00010989 -0.000105939 -9.53479e-05
0.000709724 -0.000215488 -0.000211815 -8.94085e-05
0.00106963 -0.000323202 -0.000319899 -7.94943e-05
0.0007169 -0.000217694 -0.000213945 -8.94113e-05
0.000713312 -0.000216591 -0.00021288 -8.94099e-05
0.000355304 -0.000109329 -0.000105418 -9.53466e-05
0.000351749 -0.000108207 -0.000104375 -9.53438e-05
0.00105343 -0.000318272 -0.000315069 -7.94902e-05
0.00106423 -0.000321559 -0.000318289 -7.94929e-05
0.000353526 -0.000108768 -0.000104896 -9.53452e-05
0.000702548 -0.000213283 -0.000209685 -8.94057e-05
0.00105883 -0.000319916 -0.000316679 -7.94916e-05
0.000709724 -0.000215488 -0.000211815 -8.94085e-05
0.000706136 -0.000214385 -0.00021075 -8.94071e-05
0.000351749 -0.000108207 -0.000104375 -9.53438e-05
0.000348193 -0.000107085 -0.000103332 -9.53411e-05
0.00104263 -0.000314986 -0.000311849 -7.94876e-05
0.00105343 -0.000318272 -0.000315069 -7.94902e-05
0.000349971 -0.000107646 -0.000103854 -9.53424e-05
0.000695371 -0.000211078 -0.000207554 -8.94029e-05
0.00104803 -0.000316629 -0.000313459 -7.94889e-05
0.000702548 -0.000213283 -0.000209685 -8.94057e-05
0.00069896 -0.00021218 -0.00020862 -8.94043e-05
0.000348193 -0.000107085 -0.000103332 -9.53411e-05
0.000344637 -0.000105963 -0.000102289 -9.53383e-05
0.00103183 -0.000311701 -0.000308628 -7.94849e-05
0.00104263 -0.000314986 -0.000311849 -7.94876e-05
0.000346415 -0.000106524 -0.000102811 -9.53397e-05
0.000688194 -0.000208873 -0.000205423 -8.94001e-05
0.00103723 -0.000313343 -0.000310239 -7.94862e-05
0.000695371 -0.000211078 -0.000207554 -8.94029e-05
0.000691783 -0.000209976 -0.000206489 -8.94015e-05
0.000344637 -0.000105963 -0.000102289 -9.53383e-05
0.00034108 -0.000104842 -0.000101245 -9.53356e-05
0.00102103 -0.000308415 -0.000305408 -7.94822e-05
0.00103183 -0.000311701 -0.000308628 -7.94849e-05
0.000342859 -0.000105403 -0.000101767 -9.5337e-05
0.000681016 -0.000206669 -0.000203292 -8.93973e-05
0.00102643 -0.000310058 -0.000307018 -7.94836e-05
0.000688194 -0.000208873 -0.000205423 -8.94001e-05
0.000684605 -0.000207771 -0.000204357 -8.93987e-05
0.00034108 -0.000104842 -0.000101245 -9.53356e-05
0.000337523 -0.000103721 -0.000100201 -9.53329e-05
0.00101023 -0.00030513 -0.000302187 -7.94796e-05
0.00102103 -0.000308415 -0.000305408 -7.94822e-05
0.000339302 -0.000104282 -0.000100723 -9.53342e-05
0.000673838 -0.000204466 -0.00020116 -8.93946e-05
0.00101563 -0.000306773 -0.000303797 -7.94809e-05
0.000681016 -0.000206669 -0.000203292 -8.93973e-05
0.000677427 -0.000205567 -0.000202226 -8.93959e-05
0.000337523 -0.000103721 -0.000100201 -9.53329e-05
0.000333966 -0.000102601 -9.91562e-05 -9.53302e-05
0.000999432 -0.000301846 -0.000298965 -7.94769e-05
0.00101023 -0.00030513 -0.000302187 -7.94796e-05
0.000335745 -0.000103161 -9.96786e-05 -9.53315e-05
0.00066666 -0.000202262 -0.000199028 -8.93918e-05
0.00100483 -0.000303488 -0.000300576 -7.94783e-05
0.000673838 -0.000204466 -0.00020116 -8.93946e-05
0.000670249 -0.000203364 -0.000200094 -8.93932e-05
0.000333966 -0.000102601 -9.91562e-05 -9.53302e-05
0.000330407 -0.000101481 -9.81112e-05 -9.53275e-05
0.00098863 -0.000298561 -0.000295744 -7.94743e-05
0.000999432 -0.000301846 -0.000298965 -7.94769e-05
0.000332186 -0.000102041 -9.86338e-05 -9.53288e-05
0.000659481 -0.000200059 -0.000196895 -8.93891e-05
0.000994031 -0.000300203 -0.000297355 -7.94756e-05
0.00066666 -0.000202262 -0.000199028 -8.93918e-05
0.00066307 -0.000201161 -0.000197961 -8.93904e-05
0.000330407 -0.000101481 -9.81112e-05 -9.53275e-05
0.000326848 -0.000100362 -9.70658e-05 -9.53248e-05
0.000977829 -0.000295278 -0.000292522 -7.94717e-05
0.00098863 -0.000298561 -0.000295744 -7.94743e-05
0.000328628 -0.000100921 -9.75885e-05 -9.53261e-05
0.000652301 -0.000197857 -0.000194762 -8.93863e-05
0.00098323 -0.000296919 -0.000294133 -7.9473e-05
0.000659481 -0.000200059 -0.000196895 -8.93891e-05
0.000655891 -0.000198958 -0.000195828 -8.93877e-05
0.000326848 -0.000100362 -9.70658e-05 -9.53248e-05
0.000323289 -9.92425e-05 -9.60199e-05 -9.53221e-05
0.000967027 -0.000291994 -0.0002893 -7.94691e-05
0.000977829 -0.000295278 -0.000292522 -7.94717e-05
0.000325069 -9.9802e-05 -9.65429e-05 -9.53235e-05
0.000645122 -0.000195655 -0.000192629 -8.93836e-05
0.000972428 -0.000293636 -0.000290911 -7.94704e-05
0.000652301 -0.000197857 -0.000194762 -8.93863e-05
0.000648712 -0.000196756 -0.000193695 -8.9385e-05
0.000323289 -9.92425e-05 -9.60199e-05 -9.53221e-05
0.000319729 -9.81238e-05 -9.49736e-05 -9.53195e-05
0.000956225 -0.000288711 -0.000286077 -7.94665e-05
0.000967027 -0.000291994 -0.0002893 -7.94691e-05
0.000321509 -9.86831e-05 -9.54968e-05 -9.53208e-05
0.000637941 -0.000193453 -0.000190495 -8.93809e-05
0.000961626 -0.000290353 -0.000287689 -7.94678e-05
0.000645122 -0.000195655 -0.000192629 -8.93836e-05
0.000641532 -0.000194554 -0.000191562 -8.93823e-05
0.000319729 -9.81238e-05 -9.49736e-05 -9.53195e-05
0.000316168 -9.70055e-05 -9.3927e-05 -9.53168e-05
0.000945422 -0.000285428 -0.000282855 -7.94639e-05
0.000956225 -0.000288711 -0.000286077 -7.94665e-05
0.000317949 -9.75646e-05 -9.44504e-05 -9.53181e-05
0.000630761 -0.000191252 -0.000188361 -8.93782e-05
0.000950824 -0.00028707 -0.000284466 -7.94652e-05
0.000637941 -0.000193453 -0.000190495 -8.93809e-05
0.000634351 -0.000192352 -0.000189428 -8.93796e-05
0.000316168 -9.70055e-05 -9.3927e-05 -9.53168e-05
0.000312607 -9.58876e-05 -9.28799e-05 -9.53142e-05
0.00093462 -0.000282146 -0.000279631 -7.94613e-05
0.000945422 -0.000285428 -0.000282855 -7.94639e-05
0.000314388 -9.64465e-05 -9.34035e-05 -9.53155e-05
0.000623579 -0.000189051 -0.000186227 -8.93755e-05
0.000940021 -0.000283787 -0.000281243 -7.94626e-05
0.000630761 -0.000191252 -0.000188361 -8.93782e-05
0.00062717 -0.000190151 -0.000187294 -8.93769e-05
0.000312607 -9.58876e-05 -9.28799e-05 -9.53142e-05
0.000309046 -9.47701e-05 -9.18324e-05 -9.53116e-05
0.000923816 -0.000278864 -0.000276408 -7.94588e-05
0.00093462 -0.000282146 -0.000279631 -7.94613e-05
0.000310827 -9.53288e-05 -9.23562e-05 -9.53129e-05
0.000616398 -0.00018685 -0.000184092 -8.93729e-05
0.000929218 -0.000280505 -0.00027802 -7.94601e-05
0.000623579 -0.000189051 -0.000186227 -8.93755e-05
0.000619989 -0.000187951 -0.000185159 -8.93742e-05
0.000309046 -9.47701e-05 -9.18324e-05 -9.53116e-05
0.000305483 -9.36531e-05 -9.07844e-05 -9.5309e-05
0.000913013 -0.000275583 -0.000273184 -7.94562e-05
0.000923816 -0.000278864 -0.000276408 -7.94588e-05
0.000307265 -9.42115e-05 -9.13085e-05 -9.53103e-05
0.000609216 -0.00018465 -0.000181957 -8.93702e-05
0.000918415 -0.000277224 -0.000274796 -7.94575e-05
0.000616398 -0.00018685 -0.000184092 -8.93729e-05
0.000612807 -0.00018575 -0.000183024 -8.93716e-05
0.000305483 -9.36531e-05 -9.07844e-05 -9.5309e-05
0.000301921 -9.25364e-05 -8.97361e-05 -9.53064e-05
0.000902209 -0.000272302 -0.00026996 -7.94537e-05
0.000913013 -0.000275583 -0.000273184 -7.94562e-05
0.000303702 -9.30947e-05 -9.02603e-05 -9.53077e-05
0.000602033 -0.000182451 -0.000179821 -8.93676e-05
0.000907611 -0.000273942 -0.000271572 -7.9455e-05
0.000609216 -0.00018465 -0.000181957 -8.93702e-05
0.000605625 -0.00018355 -0.000180889 -8.93689e-05
0.000301921 -9.25364e-05 -8.97361e-05 -9.53064e-05
0.000298357 -9.14201e-05 -8.86873e-05 -9.53038e-05
0.000891405 -0.000269021 -0.000266736 -7.94512e-05
0.000902209 -0.000272302 -0.00026996 -7.94537e-05
0.000300139 -9.19782e-05 -8.92118e-05 -9.53051e-05
0.00059485 -0.000180251 -0.000177685 -8.9365e-05
0.000896807 -0.000270661 -0.000268348 -7.94524e-05
0.000602033 -0.000182451 -0.000179821 -8.93676e-05
0.000598442 -0.000181351 -0.000178753 -8.93663e-05
0.000298357 -9.14201e-05 -8.86873e-05 -9.53038e-05
0.000294793 -9.03042e-05 -8.76382e-05 -9.53013e-05
0.000880601 -0.000265741 -0.000263512 -7.94487e-05
0.000891405 -0.000269021 -0.000266736 -7.94512e-05
0.000296575 -9.08621e-05 -8.81628e-05 -9.53026e-05
0.000587667 -0.000178053 -0.000175549 -8.93624e-05
0.000886003 -0.000267381 -0.000265124 -7.94499e-05
0.00059485 -0.000180251 -0.000177685 -8.9365e-05
0.000591259 -0.000179152 -0.000176617 -8.93637e-05
0.000294793 -9.03042e-05 -8.76382e-05 -9.53013e-05
0.000291229 -8.91888e-05 -8.65886e-05 -9.52988e-05
0.000869796 -0.000262461 -0.000260287 -7.94462e-05
0.000880601 -0.000265741 -0.000263512 -7.94487e-05
0.000293011 -8.97464e-05 -8.71134e-05 -9.53e-05
0.000580483 -0.000175854 -0.000173412 -8.93598e-05
0.000875199 -0.000264101 -0.000261899 -7.94474e-05
0.000587667 -0.000178053 -0.000175549 -8.93624e-05
0.000584075 -0.000176953 -0.000174481 -8.93611e-05
0.000291229 -8.91888e-05 -8.65886e-05 -9.52988e-05
0.000287664 -8.80737e-05 -8.55386e-05 -9.52963e-05
0.000858991 -0.000259181 -0.000257062 -7.94437e-05
0.000869796 -0.000262461 -0.000260287 -7.94462e-05
0.000289446 -8.86312e-05 -8.60636e-05 -9.52975e-05
0.000573299 -0.000173656 -0.000171275 -8.93572e-05
0.000864394 -0.000260821 -0.000258674 -7.9445e-05
0.000580483 -0.000175854 -0.000173412 -8.93598e-05
0.000576891 -0.000174755 -0.000172344 -8.93585e-05
0.000287664 -8.80737e-05 -8.55386e-05 -9.52963e-05
0.000284098 -8.6959e-05 -8.44882e-05 -9.52938e-05
0.000848186 -0.000255902 -0.000253836 -7.94413e-05
0.000858991 -0.000259181 -0.000257062 -7.94437e-05
0.000285881 -8.75163e-05 -8.50134e-05 -9.5295e-05
0.000566114 -0.000171458 -0.000169138 -8.93547e-05
0.000853589 -0.000257542 -0.000255449 -7.94425e-05
0.000573299 -0.000173656 -0.000171275 -8.93572e-05
0.000569707 -0.000172557 -0.000170207 -8.93559e-05
0.000284098 -8.6959e-05 -8.44882e-05 -9.52938e-05
0.000280532 -8.58448e-05 -8.34373e-05 -9.52913e-05
0.00083738 -0.000252623 -0.00025061 -7.94388e-05
0.000848186 -0.000255902 -0.000253836 -7.94413e-05
0.000282315 -8.64019e-05 -8.39628e-05 -9.52925e-05
0.000558929 -0.000169261 -0.000167 -8.93521e-05
0.000842783 -0.000254263 -0.000252223 -7.944e-05
0.000566114 -0.000171458 -0.000169138 -8.93547e-05
0.000562522 -0.00017036 -0.000168069 -8.93534e-05
0.000280532 -8.58448e-05 -8.34373e-05 -9.52913e-05
0.000276965 -8.47309e-05 -8.23861e-05 -9.52888e-05
0.000826575 -0.000249345 -0.000247384 -7.94364e-05
0.00083738 -0.000252623 -0.00025061 -7.94388e-05
0.000278749 -8.52878e-05 -8.29118e-05 -9.52901e-05
0.000551743 -0.000167064 -0.000164862 -8.93496e-05
0.000831978 -0.000250984 -0.000248997 -7.94376e-05
0.000558929 -0.000169261 -0.000167 -8.93521e-05
0.000555336 -0.000168163 -0.000165931 -8.93509e-05
0.000276965 -8.47309e-05 -8.23861e-05 -9.52888e-05
0.000273398 -8.36175e-05 -8.13344e-05 -9.52864e-05
0.000815768 -0.000246067 -0.000244158 -7.9434e-05
0.000826575 -0.000249345 -0.000247384 -7.94364e-05
0.000275181 -8.41741e-05 -8.18603e-05 -9.52876e-05
0.000544557 -0.000164868 -0.000162724 -8.93471e-05
0.000821171 -0.000247706 -0.000245771 -7.94352e-05
0.000551743 -0.000167064 -0.000164862 -8.93496e-05
0.00054815 -0.000165966 -0.000163793 -8.93484e-05
0.000273398 -8.36175e-05 -8.13344e-05 -9.52864e-05
0.00026983 -8.25044e-05 -8.02823e-05 -9.5284e-05
0.000804962 -0.000242789 -0.000240931 -7.94316e-05
0.000815768 -0.000246067 -0.000244158 -7.9434e-05
0.000271614 -8.30609e-05 -8.08084e-05 -9.52852e-05
0.000537371 -0.000162672 -0.000160585 -8.93446e-05
0.000810365 -0.000244428 -0.000242544 -7.94328e-05
0.000544557 -0.000164868 -0.000162724 -8.93471e-05
0.000540964 -0.00016377 -0.000161655 -8.93459e-05
0.00026983 -8.25044e-05 -8.02823e-05 -9.5284e-05
0.000266261 -8.13918e-05 -7.92298e-05 -9.52816e-05
0.000794155 -0.000239512 -0.000237704 -7.94292e-05
0.000804962 -0.000242789 -0.000240931 -7.94316e-05
0.000268046 -8.1948e-05 -7.97561e-05 -9.52828e-05
0.000530183 -0.000160476 -0.000158446 -8.93422e-05
0.000799558 -0.00024115 -0.000239318 -7.94304e-05
0.000537371 -0.000162672 -0.000160585 -8.93446e-05
0.000533777 -0.000161574 -0.000159516 -8.93434e-05
0.000266261 -8.13918e-05 -7.92298e-05 -9.52816e-05
0.000262692 -8.02795e-05 -7.81769e-05 -9.52792e-05
0.000783347 -0.000236235 -0.000234477 -7.94268e-05
0.000794155 -0.000239512 -0.000237704 -7.94292e-05
0.000264477 -8.08356e-05 -7.87034e-05 -9.52804e-05
0.000522996 -0.000158281 -0.000156306 -8.93397e-05
0.000788751 -0.000237873 -0.000236091 -7.9428e-05
0.000530183 -0.000160476 -0.000158446 -8.93422e-05
0.00052659 -0.000159379 -0.000157376 -8.93409e-05
0.000262692 -8.02795e-05 -7.81769e-05 -9.52792e-05
0.000259123 -7.91677e-05 -7.71236e-05 -9.52768e-05
0.00077254 -0.000232958 -0.000231249 -7.94245e-05
0.000783347 -0.000236235 -0.000234477 -7.94268e-05
0.000260908 -7.97235e-05 -7.76503e-05 -9.5278e-05
0.000515808 -0.000156086 -0.000154167 -8.93373e-05
0.000777944 -0.000234597 -0.000232863 -7.94256e-05
0.000522996 -0.000158281 -0.000156306 -8.93397e-05
0.000519402 -0.000157184 -0.000155237 -8.93385e-05
0.000259123 -7.91677e-05 -7.71236e-05 -9.52768e-05
0.000255552 -7.80562e-05 -7.60698e-05 -9.52745e-05
0.000761732 -0.000229682 -0.000228021 -7.94221e-05
0.00077254 -0.000232958 -0.000231249 -7.94245e-05
0.000257338 -7.86119e-05 -7.65967e-05 -9.52757e-05
0.00050862 -0.000153892 -0.000152026 -8.93349e-05
0.000767136 -0.00023132 -0.000229635 -7.94233e-05
0.000515808 -0.000156086 -0.000154167 -8.93373e-05
0.000512214 -0.000154989 -0.000153096 -8.93361e-05
0.000255552 -7.80562e-05 -7.60698e-05 -9.52745e-05
0.000251982 -7.69452e-05 -7.50156e-05 -9.52722e-05
0.000750924 -0.000226406 -0.000224793 -7.94198e-05
0.000761732 -0.000229682 -0.000228021 -7.94221e-05
0.000253767 -7.75007e-05 -7.55428e-05 -9.52733e-05
0.000501431 -0.000151698 -0.000149886 -8.93325e-05
0.000756328 -0.000228044 -0.000226407 -7.9421e-05
0.00050862 -0.000153892 -0.000152026 -8.93349e-05
0.000505025 -0.000152795 -0.000150956 -8.93337e-05
0.000251982 -7.69452e-05 -7.50156e-05 -9.52722e-05
0.00024841 -7.58345e-05 -7.3961e-05 -9.52699e-05
0.000740115 -0.000223131 -0.000221565 -7.94175e-05
0.000750924 -0.000226406 -0.000224793 -7.94198e-05
0.000250196 -7.63898e-05 -7.44884e-05 -9.5271e-05
0.000494241 -0.000149504 -0.000147745 -8.93301e-05
0.000745519 -0.000224769 -0.000223179 -7.94187e-05
0.000501431 -0.000151698 -0.000149886 -8.93325e-05
0.000497836 -0.000150601 -0.000148815 -8.93313e-05
0.00024841 -7.58345e-05 -7.3961e-05 -9.52699e-05
0.000244838 -7.47243e-05 -7.2906e-05 -9.52676e-05
0.000729306 -0.000219856 -0.000218336 -7.94153e-05
0.000740115 -0.000223131 -0.000221565 -7.94175e-05
0.000246624 -7.52794e-05 -7.34336e-05 -9.52688e-05
0.000487051 -0.000147311 -0.000145603 -8.93278e-05
0.000734711 -0.000221494 -0.00021995 -7.94164e-05
0.000494241 -0.000149504 -0.000147745 -8.93301e-05
0.000490646 -0.000148407 -0.000146674 -8.9329e-05
0.000244838 -7.47243e-05 -7.2906e-05 -9.52676e-05
0.000241266 -7.36145e-05 -7.18506e-05 -9.52654e-05
0.000718497 -0.000216581 -0.000215107 -7.9413e-05
0.000729306 -0.000219856 -0.000218336 -7.94153e-05
0.000243052 -7.41693e-05 -7.23783e-05 -9.52665e-05
0.000479861 -0.000145118 -0.000143461 -8.93255e-05
0.000723901 -0.000218219 -0.000216721 -7.94141e-05
0.000487051 -0.000147311 -0.000145603 -8.93278e-05
0.000483456 -0.000146214 -0.000144532 -8.93266e-05
0.000241266 -7.36145e-05 -7.18506e-05 -9.52654e-05
0.000237693 -7.2505e-05 -7.07947e-05 -9.52631e-05
0.000707687 -0.000213307 -0.000211877 -7.94108e-05
0.000718497 -0.000216581 -0.000215107 -7.9413e-05
0.000239479 -7.30597e-05 -7.13227e-05 -9.52643e-05
0.00047267 -0.000142925 -0.000141319 -8.93232e-05
0.000713092 -0.000214944 -0.000213492 -7.94119e-05
0.000479861 -0.000145118 -0.000143461 -8.93255e-05
0.000476266 -0.000144022 -0.00014239 -8.93243e-05
0.000237693 -7.2505e-05 -7.07947e-05 -9.52631e-05
0.000234119 -7.1396e-05 -6.97385e-05 -9.52609e-05
0.000696877 -0.000210033 -0.000208647 -7.94085e-05
0.000707687 -0.000213307 -0.000211877 -7.94108e-05
0.000235906 -7.19504e-05 -7.02666e-05 -9.5262e-05
0.000465479 -0.000140733 -0.000139177 -8.93209e-05
0.000702282 -0.00021167 -0.000210262 -7.94097e-05
0.00047267 -0.000142925 -0.000141319 -8.93232e-05
0.000469075 -0.000141829 -0.000140248 -8.9322e-05
0.000234119 -7.1396e-05 -6.97385e-05 -9.52609e-05
0.000230545 -7.02873e-05 -6.86818e-05 -9.52588e-05
0.000686067 -0.00020676 -0.000205417 -7.94063e-05
0.000696877 -0.000210033 -0.000208647 -7.94085e-05
0.000232332 -7.08416e-05 -6.92102e-05 -9.52598e-05
0.000458287 -0.000138542 -0.000137034 -8.93186e-05
0.000691472 -0.000208396 -0.000207032 -7.94074e-05
0.000465479 -0.000140733 -0.000139177 -8.93209e-05
0.000461883 -0.000139637 -0.000138105 -8.93197e-05
0.000230545 -7.02873e-05 -6.86818e-05 -9.52588e-05
0.00022697 -6.91791e-05 -6.76247e-05 -9.52566e-05
0.000675256 -0.000203487 -0.000202187 -7.94042e-05
0.000686067 -0.00020676 -0.000205417 -7.94063e-05
0.000228757 -6.97331e-05 -6.81533e-05 -9.52577e-05
0.000451095 -0.00013635 -0.000134891 -8.93164e-05
0.000680661 -0.000205123 -0.000203802 -7.94053e-05
0.000458287 -0.000138542 -0.000137034 -8.93186e-05
0.000454691 -0.000137446 -0.000135962 -8.93175e-05
0.00022697 -6.91791e-05 -6.76247e-05 -9.52566e-05
0.000223395 -6.80712e-05 -6.65671e-05 -9.52545e-05
0.000664445 -0.000200214 -0.000198956 -7.9402e-05
0.000675256 -0.000203487 -0.000202187 -7.94042e-05
0.000225182 -6.86251e-05 -6.7096e-05 -9.52555e-05
0.000443902 -0.00013416 -0.000132747 -8.93142e-05
0.00066985 -0.00020185 -0.000200572 -7.94031e-05
0.000451095 -0.00013635 -0.000134891 -8.93164e-05
0.000447499 -0.000135255 -0.000133819 -8.93153e-05
0.000223395 -6.80712e-05 -6.65671e-05 -9.52545e-05
0.000219819 -6.69638e-05 -6.55092e-05 -9.52524e-05
0.000653633 -0.000196941 -0.000195725 -7.93999e-05
0.000664445 -0.000200214 -0.000198956 -7.9402e-05
0.000221607 -6.75175e-05 -6.60382e-05 -9.52534e-05
0.000436709 -0.000131969 -0.000130603 -8.9312e-05
0.000659039 -0.000198578 -0.000197341 -7.94009e-05
0.000443902 -0.00013416 -0.000132747 -8.93142e-05
0.000440306 -0.000133064 -0.000131675 -8.93131e-05
0.000219819 -6.69638e-05 -6.55092e-05 -9.52524e-05
0.000216242 -6.58567e-05 -6.44508e-05 -9.52503e-05
0.000642822 -0.000193669 -0.000192494 -7.93978e-05
0.000653633 -0.000196941 -0.000195725 -7.93999e-05
0.00021803 -6.64102e-05 -6.49801e-05 -9.52513e-05
0.000429516 -0.000129779 -0.000128459 -8.93098e-05
0.000648228 -0.000195305 -0.00019411 -7.93988e-05
0.000436709 -0.000131969 -0.000130603 -8.9312e-05
0.000433113 -0.000130874 -0.000129531 -8.93109e-05
0.000216242 -6.58567e-05 -6.44508e-05 -9.52503e-05
0.000212665 -6.47501e-05 -6.3392e-05 -9.52482e-05
0.000632009 -0.000190398 -0.000189262 -7.93957e-05
0.000642822 -0.000193669 -0.000192494 -7.93978e-05
0.000214453 -6.53034e-05 -6.39215e-05 -9.52493e-05
0.000422321 -0.000127589 -0.000126314 -8.93077e-05
0.000637415 -0.000192033 -0.000190878 -7.93967e-05
0.000429516 -0.000129779 -0.000128459 -8.93098e-05
0.000425919 -0.000128684 -0.000127386 -8.93087e-05
0.000212665 -6.47501e-05 -6.3392e-05 -9.52482e-05
0.000209087 -6.36438e-05 -6.23328e-05 -9.52462e-05
0.000621197 -0.000187126 -0.00018603 -7.93936e-05
0.000632009 -0.000190398 -0.000189262 -7.93957e-05
0.000210876 -6.41969e-05 -6.28625e-05 -9.52472e-05
0.000415127 -0.0001254 -0.000124169 -8.93055e-05
0.000626603 -0.000188762 -0.000187646 -7.93946e-05
0.000422321 -0.000127589 -0.000126314 -8.93077e-05
0.000418724 -0.000126495 -0.000125241 -8.93066e-05
0.000209087 -6.36438e-05 -6.23328e-05 -9.52462e-05
0.000205509 -6.2538e-05 -6.12732e-05 -9.52442e-05
0.000610384 -0.000183855 -0.000182798 -7.93915e-05
0.000621197 -0.000187126 -0.00018603 -7.93936e-05
0.000207298 -6.30909e-05 -6.1803e-05 -9.52452e-05
0.000407932 -0.000123211 -0.000122023 -8.93035e-05
0.00061579 -0.000185491 -0.000184414 -7.93926e-05
0.000415127 -0.0001254 -0.000124169 -8.93055e-05
0.000411529 -0.000124305 -0.000123096 -8.93045e-05
0.000205509 -6.2538e-05 -6.12732e-05 -9.52442e-05
0.00020193 -6.14325e-05 -6.02131e-05 -9.52422e-05
0.00059957 -0.000180585 -0.000179565 -7.93895e-05
0.000610384 -0.000183855 -0.000182798 -7.93915e-05
0.000203719 -6.19852e-05 -6.07432e-05 -9.52432e-05
0.000400736 -0.000121022 -0.000119877 -8.93014e-05
0.000604977 -0.00018222 -0.000181182 -7.93905e-05
0.000407932 -0.000123211 -0.000122023 -8.93035e-05
0.000404334 -0.000122117 -0.00012095 -8.93024e-05
0.00020193 -6.14325e-05 -6.02131e-05 -9.52422e-05
0.00019835 -6.03274e-05 -5.91527e-05 -9.52403e-05
0.000588757 -0.000177315 -0.000176332 -7.93875e-05
0.00059957 -0.000180585 -0.000179565 -7.93895e-05
0.00020014 -6.08799e-05 -5.96829e-05 -9.52412e-05
0.00039354 -0.000118834 -0.000117731 -8.92993e-05
0.000594164 -0.00017895 -0.000177949 -7.93885e-05
0.000400736 -0.000121022 -0.000119877 -8.93014e-05
0.000397138 -0.000119928 -0.000118804 -8.93004e-05
0.00019835 -6.03274e-05 -5.91527e-05 -9.52403e-05
0.00019477 -5.92228e-05 -5.80918e-05 -9.52383e-05
0.000577943 -0.000174045 -0.000173099 -7.93855e-05
0.000588757 -0.000177315 -0.000176332 -7.93875e-05
0.00019656 -5.97751e-05 -5.86223e-05 -9.52393e-05
0.000386343 -0.000116647 -0.000115584 -8.92973e-05
0.00058335 -0.00017568 -0.000174716 -7.93865e-05
0.00039354 -0.000118834 -0.000117731 -8.92993e-05
0.000389942 -0.00011774 -0.000116658 -8.92983e-05
0.00019477 -5.92228e-05 -5.80918e-05 -9.52383e-05
0.00019119 -5.81185e-05 -5.70304e-05 -9.52364e-05
0.000567128 -0.000170775 -0.000169866 -7.93835e-05
0.000577943 -0.000174045 -0.000173099 -7.93855e-05
0.00019298 -5.86706e-05 -5.75611e-05 -9.52374e-05
0.000379146 -0.000114459 -0.000113437 -8.92953e-05
0.000572535 -0.00017241 -0.000171482 -7.93845e-05
0.000386343 -0.000116647 -0.000115584 -8.92973e-05
0.000382745 -0.000115553 -0.000114511 -8.92963e-05
0.00019119 -5.81185e-05 -5.70304e-05 -9.52364e-05
0.000187608 -5.70146e-05 -5.59687e-05 -9.52346e-05
0.000556313 -0.000167506 -0.000166632 -7.93816e-05
0.000567128 -0.000170775 -0.000169866 -7.93835e-05
0.000189399 -5.75665e-05 -5.64996e-05 -9.52355e-05
0.000371949 -0.000112272 -0.00011129 -8.92933e-05
0.000561721 -0.000169141 -0.000168249 -7.93826e-05
0.000379146 -0.000114459 -0.000113437 -8.92953e-05
0.000375548 -0.000113366 -0.000112364 -8.92943e-05
0.000187608 -5.70146e-05 -5.59687e-05 -9.52346e-05
0.000184026 -5.59112e-05 -5.49065e-05 -9.52327e-05
0.000545498 -0.000164237 -0.000163397 -7.93797e-05
0.000556313 -0.000167506 -0.000166632 -7.93816e-05
0.000185817 -5.64628e-05 -5.54377e-05 -9.52336e-05
0.000364751 -0.000110086 -0.000109142 -8.92914e-05
0.000550906 -0.000165872 -0.000165015 -7.93806e-05
0.000371949 -0.000112272 -0.00011129 -8.92933e-05
0.00036835 -0.000111179 -0.000110216 -8.92924e-05
0.000184026 -5.59112e-05 -5.49065e-05 -9.52327e-05
0.000180444 -5.48081e-05 -5.38439e-05 -9.52309e-05
0.000534682 -0.000160969 -0.000160163 -7.93778e-05
0.000545498 -0.000164237 -0.000163397 -7.93797e-05
0.000182235 -5.53596e-05 -5.43753e-05 -9.52318e-05
0.000357552 -0.000107899 -0.000106994 -8.92895e-05
0.00054009 -0.000162603 -0.00016178 -7.93787e-05
0.000364751 -0.000110086 -0.000109142 -8.92914e-05
0.000361151 -0.000108993 -0.000108068 -8.92904e-05
0.000180444 -5.48081e-05 -5.38439e-05 -9.52309e-05
0.000176861 -5.37054e-05 -5.27809e-05 -9.52291e-05
0.000523866 -0.000157701 -0.000156928 -7.93759e-05
0.000534682 -0.000160969 -0.000160163 -7.93778e-05
0.000178652 -5.42567e-05 -5.33125e-05 -9.523e-05
0.000350353 -0.000105714 -0.000104845 -8.92876e-05
0.000529274 -0.000159335 -0.000158546 -7.93768e-05
0.000357552 -0.000107899 -0.000106994 -8.92895e-05
0.000353952 -0.000106806 -0.00010592 -8.92885e-05
0.000176861 -5.37054e-05 -5.27809e-05 -9.52291e-05
0.000173277 -5.26031e-05 -5.17175e-05 -9.52273e-05
0.00051305 -0.000154433 -0.000153693 -7.9374e-05
0.000523866 -0.000157701 -0.000156928 -7.93759e-05
0.000175069 -5.31542e-05 -5.22493e-05 -9.52282e-05
0.000343153 -0.000103528 -0.000102696 -8.92857e-05
0.000518458 -0.000156067 -0.000155311 -7.9375e-05
0.000350353 -0.000105714 -0.000104845 -8.92876e-05
0.000346753 -0.000104621 -0.000103771 -8.92867e-05
0.000173277 -5.26031e-05 -5.17175e-05 -9.52273e-05
0.000169693 -5.15012e-05 -5.06536e-05 -9.52256e-05
0.000502233 -0.000151166 -0.000150457 -7.93722e-05
0.00051305 -0.000154433 -0.000153693 -7.9374e-05
0.000171485 -5.20521e-05 -5.11856e-05 -9.52265e-05
0.000335953 -0.000101343 -0.000100547 -8.92839e-05
0.000507641 -0.000152799 -0.000152075 -7.93731e-05
0.000343153 -0.000103528 -0.000102696 -8.92857e-05
0.000339553 -0.000102436 -0.000101622 -8.92848e-05
0.000169693 -5.15012e-05 -5.06536e-05 -9.52256e-05
0.000166108 -5.03997e-05 -4.95893e-05 -9.52239e-05
0.000491416 -0.000147899 -0.000147222 -7.93704e-05
0.000502233 -0.000151166 -0.000150457 -7.93722e-05
0.000167901 -5.09504e-05 -5.01215e-05 -9.52248e-05
0.000328752 -9.91585e-05 -9.83974e-05 -8.92821e-05
0.000496824 -0.000149532 -0.000148839 -7.93713e-05
0.000335953 -0.000101343 -0.000100547 -8.92839e-05
0.000332353 -0.000100251 -9.94723e-05 -8.9283e-05
0.000166108 -5.03997e-05 -4.95893e-05 -9.52239e-05
0.000162523 -4.92985e-05 -4.85246e-05 -9.52222e-05
0.000480598 -0.000144632 -0.000143985 -7.93686e-05
0.000491416 -0.000147899 -0.000147222 -7.93704e-05
0.000164315 -4.98491e-05 -4.9057e-05 -9.52231e-05
0.000321551 -9.69742e-05 -9.62473e-05 -8.92803e-05
0.000486007 -0.000146265 -0.000145603 -7.93695e-05
0.000328752 -9.91585e-05 -9.83974e-05 -8.92821e-05
0.000325152 -9.80663e-05 -9.73224e-05 -8.92812e-05
0.000162523 -4.92985e-05 -4.85246e-05 -9.52222e-05
0.000158937 -4.81978e-05 -4.74595e-05 -9.52206e-05
0.00046978 -0.000141366 -0.000140749 -7.93669e-05
0.000480598 -0.000144632 -0.000143985 -7.93686e-05
0.00016073 -4.87481e-05 -4.79921e-05 -9.52214e-05
0.00031435 -9.47903e-05 -9.40968e-05 -8.92785e-05
0.000475189 -0.000142999 -0.000142367 -7.93678e-05
0.000321551 -9.69742e-05 -9.62473e-05 -8.92803e-05
0.00031795 -9.58822e-05 -9.51721e-05 -8.92794e-05
0.000158937 -4.81978e-05 -4.74595e-05 -9.52206e-05
0.00015535 -4.70975e-05 -4.63939e-05 -9.5219e-05
0.000458961 -0.0001381 -0.000137512 -7.93652e-05
0.00046978 -0.000141366 -0.000140749 -7.93669e-05
0.000157143 -4.76476e-05 -4.69268e-05 -9.52198e-05
0.000307147 -9.26067e-05 -9.1946e-05 -8.92768e-05
0.000464371 -0.000139733 -0.00013913 -7.9366e-05
0.00031435 -9.47903e-05 -9.40968e-05 -8.92785e-05
0.000310749 -9.36985e-05 -9.30215e-05 -8.92777e-05
0.00015535 -4.70975e-05 -4.63939e-05 -9.5219e-05
0.000151763 -4.59975e-05 -4.53279e-05 -9.52174e-05
0.000448142 -0.000134834 -0.000134275 -7.93634e-05
0.000458961 -0.0001381 -0.000137512 -7.93652e-05
0.000153556 -4.65475e-05 -4.5861e-05 -9.52182e-05
0.000299945 -9.04236e-05 -8.97947e-05 -8.92751e-05
0.000453552 -0.000136467 -0.000135893 -7.93643e-05
0.000307147 -9.26067e-05 -9.1946e-05 -8.92768e-05
0.000303546 -9.15151e-05 -9.08704e-05 -8.92759e-05
0.000151763 -4.59975e-05 -4.53279e-05 -9.52174e-05
0.000148175 -4.4898e-05 -4.42615e-05 -9.52158e-05
0.000437323 -0.000131569 -0.000131037 -7.93618e-05
0.000448142 -0.000134834 -0.000134275 -7.93634e-05
0.000149969 -4.54477e-05 -4.47948e-05 -9.52166e-05
0.000292741 -8.82408e-05 -8.76431e-05 -8.92734e-05
0.000442733 -0.000133202 -0.000132656 -7.93626e-05
0.000299945 -9.04236e-05 -8.97947e-05 -8.92751e-05
0.000296343 -8.93322e-05 -8.8719e-05 -8.92742e-05
0.000148175 -4.4898e-05 -4.42615e-05 -9.52158e-05
0.000144586 -4.37988e-05 -4.31947e-05 -9.52143e-05
0.000426503 -0.000128304 -0.0001278 -7.93601e-05
0.000437323 -0.000131569 -0.000131037 -7.93618e-05
0.000146381 -4.43484e-05 -4.37282e-05 -9.52151e-05
0.000285538 -8.60585e-05 -8.54911e-05 -8.92718e-05
0.000431913 -0.000129937 -0.000129418 -7.93609e-05
0.000292741 -8.82408e-05 -8.76431e-05 -8.92734e-05
0.00028914 -8.71496e-05 -8.65671e-05 -8.92726e-05
0.000144586 -4.37988e-05 -4.31947e-05 -9.52143e-05
0.000140997 -4.27001e-05 -4.21274e-05 -9.52128e-05
0.000415683 -0.00012504 -0.000124561 -7.93585e-05
0.000426503 -0.000128304 -0.0001278 -7.93601e-05
0.000142792 -4.32494e-05 -4.26611e-05 -9.52135e-05
0.000278333 -8.38764e-05 -8.33386e-05 -8.92701e-05
0.000421093 -0.000126672 -0.00012618 -7.93593e-05
0.000285538 -8.60585e-05 -8.54911e-05 -8.92718e-05
0.000281936 -8.49674e-05 -8.44149e-05 -8.9271e-05
0.000140997 -4.27001e-05 -4.21274e-05 -9.52128e-05
0.000137408 -4.16017e-05 -4.10597e-05 -9.52113e-05
0.000404862 -0.000121775 -0.000121323 -7.93569e-05
0.000415683 -0.00012504 -0.000124561 -7.93585e-05
0.000139203 -4.21508e-05 -4.15936e-05 -9.52121e-05
0.000271128 -8.16948e-05 -8.11858e-05 -8.92686e-05
0.000410273 -0.000123408 -0.000122942 -7.93577e-05
0.000278333 -8.38764e-05 -8.33386e-05 -8.92701e-05
0.000274731 -8.27856e-05 -8.22623e-05 -8.92693e-05
0.000137408 -4.16017e-05 -4.10597e-05 -9.52113e-05
0.000133817 -4.05037e-05 -3.99916e-05 -9.52099e-05
0.000394041 -0.000118512 -0.000118084 -7.93553e-05
0.000404862 -0.000121775 -0.000121323 -7.93569e-05
0.000135613 -4.10527e-05 -4.05257e-05 -9.52106e-05
0.000263923 -7.95136e-05 -7.90327e-05 -8.9267e-05
0.000399452 -0.000120144 -0.000119703 -7.93561e-05
0.000271128 -8.16948e-05 -8.11858e-05 -8.92686e-05
0.000267526 -8.06041e-05 -8.01093e-05 -8.92678e-05
0.000133817 -4.05037e-05 -3.99916e-05 -9.52099e-05
0.000130227 -3.94061e-05 -3.89231e-05 -9.52085e-05
0.000383219 -0.000115248 -0.000114845 -7.93537e-05
0.000394041 -0.000118512 -0.000118084 -7.93553e-05
0.000132022 -3.99549e-05 -3.94574e-05 -9.52092e-05
0.000256717 -7.73327e-05 -7.68791e-05 -8.92655e-05
0.00038863 -0.00011688 -0.000116464 -7.93545e-05
0.000263923 -7.95136e-05 -7.90327e-05 -8.9267e-05
0.00026032 -7.84231e-05 -7.79559e-05 -8.92662e-05
0.000130227 -3.94061e-05 -3.89231e-05 -9.52085e-05
0.000126635 -3.83089e-05 -3.78541e-05 -9.52071e-05
0.000372397 -0.000111985 -0.000111605 -7.93522e-05
0.000383219 -0.000115248 -0.000114845 -7.93537e-05
0.000128431 -3.88575e-05 -3.83886e-05 -9.52078e-05
0.000249511 -7.51522e-05 -7.47251e-05 -8.9264e-05
0.000377809 -0.000113617 -0.000113225 -7.9353e-05
0.000256717 -7.73327e-05 -7.68791e-05 -8.92655e-05
0.000253114 -7.62424e-05 -7.58021e-05 -8.92647e-05
0.000126635 -3.83089e-05 -3.78541e-05 -9.52071e-05
0.000123043 -3.72121e-05 -3.67847e-05 -9.52058e-05
0.000361575 -0.000108722 -0.000108365 -7.93507e-05
0.000372397 -0.000111985 -0.000111605 -7.93522e-05
0.000124839 -3.77605e-05 -3.73194e-05 -9.52064e-05
0.000242304 -7.29721e-05 -7.25707e-05 -8.92625e-05
0.000366986 -0.000110354 -0.000109985 -7.93515e-05
0.000249511 -7.51522e-05 -7.47251e-05 -8.9264e-05
0.000245907 -7.40621e-05 -7.3648e-05 -8.92632e-05
0.000123043 -3.72121e-05 -3.67847e-05 -9.52058e-05
0.00011945 -3.61157e-05 -3.57148e-05 -9.52045e-05
0.000350752 -0.00010546 -0.000105125 -7.93493e-05
0.000361575 -0.000108722 -0.000108365 -7.93507e-05
0.000121247 -3.66639e-05 -3.62498e-05 -9.52051e-05
0.000235096 -7.07924e-05 -7.0416e-05 -8.92611e-05
0.000356164 -0.000107091 -0.000106745 -7.935e-05
0.000242304 -7.29721e-05 -7.25707e-05 -8.92625e-05
0.0002387 -7.18822e-05 -7.14934e-05 -8.92618e-05
0.00011945 -3.61157e-05 -3.57148e-05 -9.52045e-05
0.000115857 -3.50197e-05 -3.46446e-05 -9.52032e-05
0.000339929 -0.000102198 -0.000101885 -7.93478e-05
0.000350752 -0.00010546 -0.000105125 -7.93493e-05
0.000117654 -3.55677e-05 -3.51798e-05 -9.52038e-05
0.000227888 -6.8613e-05 -6.82608e-05 -8.92597e-05
0.00034534 -0.000103829 -0.000103505 -7.93485e-05
0.000235096 -7.07924e-05 -7.0416e-05 -8.92611e-05
0.000231492 -6.97026e-05 -6.93384e-05 -8.92604e-05
0.000115857 -3.50197e-05 -3.46446e-05 -9.52032e-05
0.000112263 -3.39241e-05 -3.35739e-05 -9.5202e-05
0.000329105 -9.89358e-05 -9.86439e-05 -7.93464e-05
0.000339929 -0.000102198 -0.000101885 -7.93478e-05
0.00011406 -3.44719e-05 -3.41093e-05 -9.52026e-05
0.00022068 -6.6434e-05 -6.61052e-05 -8.92583e-05
0.000334517 -0.000100567 -0.000100264 -7.93471e-05
0.000227888 -6.8613e-05 -6.82608e-05 -8.92597e-05
0.000224284 -6.75235e-05 -6.71831e-05 -8.9259e-05
0.000112263 -3.39241e-05 -3.35739e-05 -9.5202e-05
0.000108669 -3.28289e-05 -3.25027e-05 -9.52008e-05
0.000318281 -9.56744e-05 -9.54026e-05 -7.93451e-05
0.000329105 -9.89358e-05 -9.86439e-05 -7.93464e-05
0.000110466 -3.33765e-05 -3.30384e-05 -9.52014e-05
0.000213471 -6.42555e-05 -6.39493e-05 -8.9257e-05
0.000323693 -9.73051e-05 -9.70233e-05 -7.93458e-05
0.00022068 -6.6434e-05 -6.61052e-05 -8.92583e-05
0.000217075 -6.53447e-05 -6.50273e-05 -8.92576e-05
0.000108669 -3.28289e-05 -3.25027e-05 -9.52008e-05
0.000105074 -3.17342e-05 -3.14312e-05 -9.51996e-05
0.000307456 -9.24134e-05 -9.2161e-05 -7.93438e-05
0.000318281 -9.56744e-05 -9.54026e-05 -7.93451e-05
0.000106871 -3.22815e-05 -3.1967e-05 -9.52002e-05
0.000206261 -6.20773e-05 -6.17929e-05 -8.92557e-05
0.000312868 -9.40438e-05 -9.37819e-05 -7.93445e-05
0.000213471 -6.42555e-05 -6.39493e-05 -8.9257e-05
0.000209866 -6.31664e-05 -6.28712e-05 -8.92564e-05
0.000105074 -3.17342e-05 -3.14312e-05 -9.51996e-05
0.000101478 -3.06398e-05 -3.03592e-05 -9.51985e-05
0.000296631 -8.91527e-05 -8.89191e-05 -7.93426e-05
0.000307456 -9.24134e-05 -9.2161e-05 -7.93438e-05
0.000103276 -3.1187e-05 -3.08952e-05 -9.51991e-05
0.000199051 -5.98996e-05 -5.96362e-05 -8.92545e-05
0.000302043 -9.0783e-05 -9.05401e-05 -7.93432e-05
0.000206261 -6.20773e-05 -6.17929e-05 -8.92557e-05
0.000202656 -6.09884e-05 -6.07146e-05 -8.92551e-05
0.000101478 -3.06398e-05 -3.03592e-05 -9.51985e-05
9.78818e-05 -2.9546e-05 -2.92868e-05 -9.51975e-05
0.000285805 -8.58924e-05 -8.56768e-05 -7.93415e-05
0.000296631 -8.91527e-05 -8.89191e-05 -7.93426e-05
9.96799e-05 -3.00928e-05 -2.9823e-05 -9.5198e-05
0.00019184 -5.77222e-05 -5.74791e-05 -8.92534e-05
0.000291218 -8.75225e-05 -8.7298e-05 -7.9342e-05
0.000199051 -5.98996e-05 -5.96362e-05 -8.92545e-05
0.000195445 -5.88109e-05 -5.85577e-05 -8.9254e-05
9.78818e-05 -2.9546e-05 -2.92868e-05 -9.51975e-05
9.42851e-05 -2.84525e-05 -2.82139e-05 -9.51965e-05
0.000274979 -8.26324e-05 -8.24342e-05 -7.93404e-05
0.000285805 -8.58924e-05 -8.56768e-05 -7.93415e-05
9.60835e-05 -2.89992e-05 -2.87504e-05 -9.5197e-05
0.000184629 -5.55453e-05 -5.53215e-05 -8.92523e-05
0.000280392 -8.42623e-05 -8.40556e-05 -7.93409e-05
0.00019184 -5.77222e-05 -5.74791e-05 -8.92534e-05
0.000188235 -5.66337e-05 -5.64003e-05 -8.92529e-05
9.42851e-05 -2.84525e-05 -2.82139e-05 -9.51965e-05
9.06878e-05 -2.73595e-05 -2.71407e-05 -9.51955e-05
0.000264152 -7.93729e-05 -7.91912e-05 -7.93395e-05
0.000274979 -8.26324e-05 -8.24342e-05 -7.93404e-05
9.24865e-05 -2.7906e-05 -2.76774e-05 -9.5196e-05
0.000177417 -5.33689e-05 -5.31636e-05 -8.92513e-05
0.000269566 -8.10026e-05 -8.08127e-05 -7.93399e-05
0.000184629 -5.55453e-05 -5.53215e-05 -8.92523e-05
0.000181023 -5.4457e-05 -5.42426e-05 -8.92518e-05
9.06878e-05 -2.73595e-05 -2.71407e-05 -9.51955e-05
8.70901e-05 -2.6267e-05 -2.60671e-05 -9.51946e-05
0.000253325 -7.61137e-05 -7.59479e-05 -7.93386e-05
0.000264152 -7.93729e-05 -7.91912e-05 -7.93395e-05
8.8889e-05 -2.68132e-05 -2.66039e-05 -9.5195e-05
0.000170205 -5.11928e-05 -5.10053e-05 -8.92504e-05
0.000258739 -7.77432e-05 -7.75696e-05 -7.9339e-05
0.000177417 -5.33689e-05 -5.31636e-05 -8.92513e-05
0.000173811 -5.22808e-05 -5.20845e-05 -8.92509e-05
8.70901e-05 -2.6267e-05 -2.60671e-05 -9.51946e-05
8.34919e-05 -2.51748e-05 -2.4993e-05 -9.51936e-05
0.000242498 -7.28549e-05 -7.27043e-05 -7.93378e-05
0.000253325 -7.61137e-05 -7.59479e-05 -7.93386e-05
8.52911e-05 -2.57208e-05 -2.55301e-05 -9.51941e-05
0.000162993 -4.90171e-05 -4.88467e-05 -8.92495e-05
0.000247912 -7.44842e-05 -7.43261e-05 -7.93382e-05
0.000170205 -5.11928e-05 -5.10053e-05 -8.92504e-05
0.000166599 -5.01049e-05 -4.99261e-05 -8.925e-05
8.34919e-05 -2.51748e-05 -2.4993e-05 -9.51936e-05
7.98932e-05 -2.40829e-05 -2.39187e-05 -9.51927e-05
0.000231671 -6.95964e-05 -6.94604e-05 -7.93371e-05
0.000242498 -7.28549e-05 -7.27043e-05 -7.93378e-05
8.16926e-05 -2.46288e-05 -2.44559e-05 -9.51932e-05
0.00015578 -4.68418e-05 -4.66878e-05 -8.92486e-05
0.000237084 -7.12256e-05 -7.10824e-05 -7.93374e-05
0.000162993 -4.90171e-05 -4.88467e-05 -8.92495e-05
0.000159386 -4.79294e-05 -4.77673e-05 -8.92491e-05
7.98932e-05 -2.40829e-05 -2.39187e-05 -9.51927e-05
7.6294e-05 -2.29911e-05 -2.28441e-05 -9.51916e-05
0.000220843 -6.63381e-05 -6.62162e-05 -7.93363e-05
0.000231671 -6.95964e-05 -6.94604e-05 -7.93371e-05
7.80937e-05 -2.3537e-05 -2.33814e-05 -9.51921e-05
0.000148567 -4.46666e-05 -4.45285e-05 -8.92476e-05
0.000226257 -6.79672e-05 -6.78383e-05 -7.93367e-05
0.00015578 -4.68418e-05 -4.66878e-05 -8.92486e-05
0.000152173 -4.57542e-05 -4.56082e-05 -8.92481e-05
7.6294e-05 -2.29911e-05 -2.28441e-05 -9.51916e-05
7.26941e-05 -2.18992e-05 -2.17692e-05 -9.51902e-05
0.000210014 -6.308e-05 -6.29719e-05 -7.93352e-05
0.000220843 -6.63381e-05 -6.62162e-05 -7.93363e-05
7.44941e-05 -2.24452e-05 -2.23067e-05 -9.51909e-05
0.000141353 -4.24914e-05 -4.23692e-05 -8.92463e-05
0.000215429 -6.4709e-05 -6.45941e-05 -7.93358e-05
0.000148567 -4.46666e-05 -4.45285e-05 -8.92476e-05
0.00014496 -4.3579e-05 -4.34489e-05 -8.9247e-05
7.26941e-05 -2.18992e-05 -2.17692e-05 -9.51902e-05
6.90932e-05 -2.08066e-05 -2.06943e-05 -9.51886e-05
0.000199186 -5.98215e-05 -5.97275e-05 -7.93336e-05
0.000210014 -6.308e-05 -6.29719e-05 -7.93352e-05
7.08938e-05 -2.1353e-05 -2.12318e-05 -9.51894e-05
0.000134138 -4.03157e-05 -4.02097e-05 -8.92444e-05
0.0002046 -6.14508e-05 -6.13497e-05 -7.93345e-05
0.000141353 -4.24914e-05 -4.23692e-05 -8.92463e-05
0.000137746 -4.14036e-05 -4.12894e-05 -8.92454e-05
6.90932e-05 -2.08066e-05 -2.06943e-05 -9.51886e-05
6.54909e-05 -1.97124e-05 -1.96193e-05 -9.51865e-05
0.000188357 -5.65621e-05 -5.64833e-05 -7.93308e-05
0.000199186 -5.98215e-05 -5.97275e-05 -7.93336e-05
6.72923e-05 -2.02598e-05 -2.01568e-05 -9.51876e-05
0.000126923 -3.81385e-05 -3.80504e-05 -8.92417e-05
0.000193771 -5.8192e-05 -5.81054e-05 -7.93324e-05
0.000134138 -4.03157e-05 -4.02097e-05 -8.92444e-05
0.000130531 -3.92273e-05 -3.913e-05 -8.92432e-05
6.54909e-05 -1.97124e-05 -1.96193e-05 -9.51865e-05
6.18858e-05 -1.86152e-05 -1.85446e-05 -9.51844e-05
0.000177526 -5.33002e-05 -5.32397e-05 -7.9326e-05
0.000188357 -5.65621e-05 -5.64833e-05 -7.93308e-05
6.36888e-05 -1.91643e-05 -1.90819e-05 -9.51854e-05
0.000119705 -3.59582e-05 -3.58915e-05 -8.92378e-05
0.000182942 -5.49316e-05 -5.48614e-05 -7.93287e-05
0.000126923 -3.81385e-05 -3.80504e-05 -8.92417e-05
0.000123314 -3.70489e-05 -3.69709e-05 -8.92399e-05
6.18858e-05 -1.86152e-05 -1.85446e-05 -9.51844e-05
5.82763e-05 -1.75124e-05 -1.74702e-05 -9.51831e-05
0.000166693 -5.00334e-05 -4.99968e-05 -7.9318e-05
0.000177526 -5.33002e-05 -5.32397e-05 -7.9326e-05
6.00817e-05 -1.80647e-05 -1.80073e-05 -9.51836e-05
0.000112483 -3.37719e-05 -3.37333e-05 -8.92325e-05
0.00017211 -5.16677e-05 -5.16181e-05 -7.93225e-05
0.000119705 -3.59582e-05 -3.58915e-05 -8.92378e-05
0.000116095 -3.48661e-05 -3.48122e-05 -8.92353e-05
5.82763e-05 -1.75124e-05 -1.74702e-05 -9.51831e-05
5.4658e-05 -1.64001e-05 -1.63963e-05 -9.51856e-05
0.000155853 -4.67562e-05 -4.67557e-05 -7.93044e-05
0.000166693 -5.00334e-05 -4.99968e-05 -7.9318e-05
5.64687e-05 -1.69578e-05 -1.69332e-05 -9.51836e-05
0.000105252 -3.15741e-05 -3.15762e-05 -8.92264e-05
0.000161274 -4.83965e-05 -4.83759e-05 -7.9312e-05
0.000112483 -3.37719e-05 -3.37333e-05 -8.92325e-05
0.000108869 -3.2675e-05 -3.26545e-05 -8.92296e-05
5.4658e-05 -1.64001e-05 -1.63963e-05 -9.51856e-05
5.10254e-05 -1.52709e-05 -1.53233e-05 -9.51978e-05
0.000144998 -4.34593e-05 -4.35166e-05 -7.92826e-05
0.000155853 -4.67562e-05 -4.67557e-05 -7.93044e-05
5.28437e-05 -1.58381e-05 -1.58595e-05 -9.51899e-05
9.80032e-05 -2.93547e-05 -2.94208e-05 -8.92211e-05
0.000150428 -4.51112e-05 -4.51359e-05 -7.92947e-05
0.000105252 -3.15741e-05 -3.15762e-05 -8.92264e-05
0.00010163 -3.04679e-05 -3.04982e-05 -8.92233e-05
5.10254e-05 -1.52709e-05 -1.53233e-05 -9.51978e-05
4.73637e-05 -1.41138e-05 -1.425e-05 -9.52331e-05
0.000134115 -4.01248e-05 -4.02814e-05 -7.92477e-05
0.000144998 -4.34593e-05 -4.35166e-05 -7.92826e-05
4.91998e-05 -1.46969e-05 -1.47869e-05 -9.52113e-05
9.07203e-05 -2.7097e-05 -2.72671e-05 -8.92221e-05
0.00013956 -4.17982e-05 -4.18981e-05 -7.92673e-05
9.80032e-05 -2.93547e-05 -2.94208e-05 -8.92211e-05
9.43674e-05 -2.82323e-05 -2.83436e-05 -8.92206e-05
4.73637e-05 -1.41138e-05 -1.425e-05 -9.52331e-05
4.36577e-05 -1.29096e-05 -1.31778e-05 -9.53158e-05
0.000123168 -3.67231e-05 -3.70478e-05 -7.91958e-05
0.000134115 -4.01248e-05 -4.02814e-05 -7.92477e-05
4.55166e-05 -1.35188e-05 -1.37133e-05 -9.52664e-05
8.33726e-05 -2.47711e-05 -2.51149e-05 -8.92407e-05
0.000128653 -3.84353e-05 -3.86647e-05 -7.9224e-05
9.07203e-05 -2.7097e-05 -2.72671e-05 -8.92221e-05
8.7057e-05 -2.59447e-05 -2.6191e-05 -8.92275e-05
4.36577e-05 -1.29096e-05 -1.31778e-05 -9.53158e-05
3.9862e-05 -1.1632e-05 -1.20985e-05 -9.54924e-05
0.000112114 -3.3202e-05 -3.38194e-05 -7.91176e-05
0.000123168 -3.67231e-05 -3.70478e-05 -7.91958e-05
4.17764e-05 -1.22828e-05 -1.26401e-05 -9.53882e-05
7.59073e-05 -2.23331e-05 -2.29604e-05 -8.93005e-05
0.000117656 -3.4981e-05 -3.54322e-05 -7.91612e-05
8.33726e-05 -2.47711e-05 -2.51149e-05 -8.92407e-05
7.96588e-05 -2.35706e-05 -2.40378e-05 -8.92648e-05
3.9862e-05 -1.1632e-05 -1.20985e-05 -9.54924e-05
3.59429e-05 -1.02373e-05 -1.10166e-05 -9.58361e-05
0.000100837 -2.94878e-05 -3.05782e-05 -7.90172e-05
0.000112114 -3.3202e-05 -3.38194e-05 -7.91176e-05
3.79167e-05 -1.09508e-05 -1.15568e-05 -9.56377e-05
6.82347e-05 -1.97102e-05 -2.07962e-05 -8.94444e-05
0.000106516 -3.13766e-05 -3.22026e-05 -7.90688e-05
7.59073e-05 -2.23331e-05 -2.29604e-05 -8.93005e-05
7.2104e-05 -2.10484e-05 -2.1881e-05 -8.93553e-05
3.59429e-05 -1.02373e-05 -1.10166e-05 -9.58361e-05
3.17827e-05 -8.68958e-06 -9.89705e-06 -9.64682e-05
8.92252e-05 -2.54634e-05 -2.73265e-05 -7.88856e-05
0.000100837 -2.94878e-05 -3.05782e-05 -7.90172e-05
3.39088e-05 -9.48824e-06 -1.04659e-05 -9.61058e-05
6.02248e-05 -1.68278e-05 -1.85987e-05 -8.97467e-05
9.50742e-05 -2.75189e-05 -2.89523e-05 -7.89574e-05
6.82347e-05 -1.97102e-05 -2.07962e-05 -8.94444e-05
6.42812e-05 -1.83099e-05 -1.9702e-05 -8.95756e-05
3.17827e-05 -8.68958e-06 -9.89705e-06 -9.64682e-05
2.73598e-05 -6.93568e-06 -8.75317e-06 -9.75298e-05
7.69732e-05 -2.10321e-05 -2.39747e-05 -7.87929e-05
8.92252e-05 -2.54634e-05 -2.73265e-05 -7.88856e-05
2.95909e-05 -7.83211e-06 -9.3252e-06 -9.69365e-05
5.16856e-05 -1.35896e-05 -1.63268e-05 -9.03244e-05
8.32161e-05 -2.33117e-05 -2.56734e-05 -7.88243e-05
6.02248e-05 -1.68278e-05 -1.85987e-05 -8.97467e-05
5.60361e-05 -1.52489e-05 -1.74803e-05 -8.99795e-05
2.73598e-05 -6.93568e-06 -8.75317e-06 -9.75298e-05
2.24715e-05 -5.07277e-06 -7.45659e-06 -9.91839e-05
6.39456e-05 -1.60929e-05 -2.05083e-05 -7.87879e-05
7.69732e-05 -2.10321e-05 -2.39747e-05 -7.87929e-05
2.50122e-05 -6.0197e-06 -8.13966e-06 -9.8271e-05
4.24653e-05 -1.00825e-05 -1.38784e-05 -9.13356e-05
7.05364e-05 -1.86066e-05 -2.22556e-05 -7.87791e-05
5.16856e-05 -1.35896e-05 -1.63268e-05 -9.03244e-05
4.71647e-05 -1.18686e-05 -1.51269e-05 -9.07874e-05
2.24715e-05 -5.07277e-06 -7.45659e-06 -9.91839e-05
1.74173e-05 -3.28338e-06 -6.05741e-06 -0.00010136
4.96592e-05 -1.09965e-05 -1.65697e-05 -7.92664e-05
6.39456e-05 -1.60929e-05 -2.05083e-05 -7.87879e-05
1.98892e-05 -4.10999e-06 -6.76253e-06 -0.000100226
3.24837e-05 -6.59655e-06 -1.10945e-05 -9.29439e-05
5.70401e-05 -1.35538e-05 -1.8637e-05 -7.89194e-05
4.24653e-05 -1.00825e-05 -1.38784e-05 -9.13356e-05
3.75756e-05 -8.26202e-06 -1.2563e-05 -9.20096e-05
1.74173e-05 -3.28338e-06 -6.05741e-06 -0.00010136
1.22601e-05 -2.56173e-06 -4.15646e-06 -0.000103546
3.48078e-05 -6.59101e-06 -1.20929e-05 -8.05261e-05
4.96592e-05 -1.09965e-05 -1.65697e-05 -7.92664e-05
1.49197e-05 -2.75142e-06 -5.21497e-06 -0.000102507
2.24432e-05 -4.55786e-06 -7.66513e-06 -9.50943e-05
4.2137e-05 -8.51321e-06 -1.44102e-05 -7.97843e-05
3.24837e-05 -6.59655e-06 -1.10945e-05 -9.29439e-05
2.73771e-05 -5.30403e-06 -9.45987e-06 -9.4052e-05
1.22601e-05 -2.56173e-06 -4.15646e-06 -0.000103546
8.6738e-06 -4.0632e-06 -1.97597e-06 -0.000103714
2.03439e-05 -6.53017e-06 -5.92019e-06 -8.35233e-05
3.48078e-05 -6.59101e-06 -1.20929e-05 -8.05261e-05
9.99329e-06 -2.83098e-06 -3.06956e-06 -0.00010409
1.38946e-05 -6.27247e-06 -3.26662e-06 -9.68041e-05
2.75754e-05 -5.78545e-06 -9.33856e-06 -8.17225e-05
2.24432e-05 -4.55786e-06 -7.66513e-06 -9.50943e-05
1.78822e-05 -4.63514e-06 -5.67733e-06 -9.59712e-05
8.6738e-06 -4.0632e-06 -1.97597e-06 -0.000103714
6.8751e-06 -1.00391e-05 1.35601e-06 -9.80767e-05
1.26203e-05 -1.73379e-05 2.0218e-06 -8.60235e-05
2.03439e-05 -6.53017e-06 -5.92019e-06 -8.35233e-05
7.80121e-06 -6.63663e-06 -4.99102e-07 -0.000101931
1.08724e-05 -1.61668e-05 2.26905e-06 -9.39886e-05
1.47975e-05 -9.61018e-06 -2.22314e-06 -8.5158e-05
1.38946e-05 -6.27247e-06 -3.26662e-06 -9.68041e-05
1.12885e-05 -1.0138e-05 -4.93066e-07 -9.6667e-05
6.8751e-06 -1.00391e-05 1.35601e-06 -9.80767e-05
8.79687e-06 -1.79863e-05 3.93834e-06 -8.03242e-05
1.63821e-05 -5.12637e-05 1.49493e-05 -7.93454e-05
1.26203e-05 -1.73379e-05 2.0218e-06 -8.60235e-05
6.87907e-06 -1.37352e-05 2.93833e-06 -9.11315e-05
1.31338e-05 -3.41271e-05 8.99711e-06 -7.84261e-05
1.33144e-05 -3.16262e-05 7.8479e-06 -8.49712e-05
1.08724e-05 -1.61668e-05 2.26905e-06 -9.39886e-05
1.17771e-05 -2.41614e-05 5.30754e-06 -8.79351e-05
8.79687e-06 -1.79863e-05 3.93834e-06 -8.03242e-05
1.37783e-05 -2.90004e-05 6.52373e-06 -4.57268e-05
2.77834e-05 -9.30174e-05 2.79575e-05 -4.20747e-05
1.63821e-05 -5.12637e-05 1.49493e-05 -7.93454e-05
1.14795e-05 -2.31288e-05 4.99256e-06 -6.53363e-05
1.82355e-05 -5.81441e-05 1.71037e-05 -4.65231e-05
2.13594e-05 -7.3558e-05 2.23708e-05 -6.56818e-05
1.31338e-05 -3.41271e-05 8.99711e-06 -7.84261e-05
1.52005e-05 -4.58635e-05 1.31413e-05 -6.49724e-05
0.00174071 0 -0.00074602 0.000225872
0.00197067 -0.000263299 -0.00073173 -1.01205e-05
0.00341422 -0.000677112 -0.00117304 -0.000257546
0.00303422 2.22045e-16 -0.00130038 -0.000178745
0.00188762 -0.000148178 -0.000745475 8.32398e-05
0.00263334 -0.000409858 -0.00095292 -0.000107994
0.00324683 -0.000319006 -0.00125478 -0.000298437
0.00247892 0 -0.00106239 3.08085e-05
0.0025212 -0.000227421 -0.000983049 -3.69849e-05
0.00197067 -0.000263299 -0.00073173 -1.01205e-05
0.00207249 -0.000481451 -0.000681874 -8.33996e-05
0.00354857 -0.000963348 -0.00110795 -0.000123976
0.00341422 -0.000677112 -0.00117304 -0.000257546
0.00202166 -0.000379222 -0.000703901 -5.73288e-05
0.00280952 -0.00069666 -0.000905509 -0.0001254
0.00352016 -0.000878492 -0.00113214 -0.000186657
0.00263334 -0.000409858 -0.00095292 -0.000107994
0.00275094 -0.000570756 -0.000934365 -0.000140687
0.00207249 -0.000481451 -0.000681874 -8.33996e-05
0.0021247 -0.000592485 -0.000656665 -9.73073e-05
0.00353213 -0.0010446 -0.00106609 -4.69487e-05
0.00354857 -0.000963348 -0.00110795 -0.000123976
0.00211092 -0.000550171 -0.000668894 -9.61643e-05
0.00283891 -0.000813171 -0.000868172 -8.45113e-05
0.00353927 -0.00101384 -0.00108233 -7.35937e-05
0.00280952 -0.00069666 -0.000905509 -0.0001254
0.00283137 -0.000772473 -0.000882386 -9.94779e-05
0.0021247 -0.000592485 -0.000656665 -9.73073e-05
0.00212357 -0.000636735 -0.000637215 -8.97082e-05
0.00350739 -0.00105643 -0.00105041 -2.91284e-05
0.00353213 -0.0010446 -0.00106609 -4.69487e-05
0.00212514 -0.000620162 -0.000644992 -9.30935e-05
0.00282575 -0.000850998 -0.000846324 -6.40077e-05
0.00352292 -0.00105569 -0.00105738 -3.50655e-05
0.00283891 -0.000813171 -0.000868172 -8.45113e-05
0.0028358 -0.000837713 -0.000856325 -7.34946e-05
0.00212357 -0.000636735 -0.000637215 -8.97082e-05
0.00210913 -0.00064577 -0.000627156 -8.44118e-05
0.00347866 -0.00105508 -0.00103868 -2.7852e-05
0.00350739 -0.00105643 -0.00105041 -2.91284e-05
0.00211867 -0.000644091 -0.000631963 -8.7065e-05
0.00280008 -0.000853816 -0.000834112 -5.72819e-05
0.00349086 -0.00105614 -0.00104345 -2.67774e-05
0.00282575 -0.000850998 -0.000846324 -6.40077e-05
0.00281257 -0.000854974 -0.000838969 -5.85537e-05
0.00210913 -0.00064577 -0.000627156 -8.44118e-05
0.00208836 -0.000643006 -0.000619439 -8.08491e-05
0.00345684 -0.00104757 -0.00103254 -3.3325e-05
0.00347866 -0.00105508 -0.00103868 -2.7852e-05
0.00209801 -0.00064511 -0.000622672 -8.21073e-05
0.00277628 -0.000848247 -0.0008263 -5.74172e-05
0.00346819 -0.00105183 -0.00103558 -3.07055e-05
0.00280008 -0.000853816 -0.000834112 -5.72819e-05
0.00278806 -0.000851406 -0.000829993 -5.73041e-05
0.00208836 -0.000643006 -0.000619439 -8.08491e-05
0.00207018 -0.000636165 -0.000614578 -7.96705e-05
0.00343576 -0.00104013 -0.0010267 -3.80521e-05
0.00345684 -0.00104757 -0.00103254 -3.3325e-05
0.00207936 -0.000639812 -0.000616951 -8.01962e-05
0.00275482 -0.000839851 -0.0008207 -5.9414e-05
0.00344567 -0.00104371 -0.00102941 -3.56819e-05
0.00277628 -0.000848247 -0.0008263 -5.74172e-05
0.00276509 -0.000844188 -0.000823243 -5.81535e-05
0.00207018 -0.000636165 -0.000614578 -7.96705e-05
0.00205358 -0.000629332 -0.000610391 -7.91605e-05
0.00341687 -0.00103283 -0.00102173 -4.19736e-05
0.00343576 -0.00104013 -0.0010267 -3.80521e-05
0.00206139 -0.000632647 -0.00061232 -7.92914e-05
0.00273613 -0.000832213 -0.000815964 -6.15127e-05
0.00342641 -0.00103646 -0.00102426 -4.02625e-05
0.00275482 -0.000839851 -0.0008207 -5.9414e-05
0.00274524 -0.000835875 -0.0008183 -6.05986e-05
0.00205358 -0.000629332 -0.000610391 -7.91605e-05
0.0020394 -0.000623254 -0.00060692 -7.91626e-05
0.00339822 -0.0010262 -0.00101658 -4.44002e-05
0.00341687 -0.00103283 -0.00102173 -4.19736e-05
0.00204637 -0.000626186 -0.00060865 -7.91592e-05
0.00271915 -0.00082538 -0.000811617 -6.31228e-05
0.0034074 -0.00102942 -0.00101913 -4.33017e-05
0.00273613 -0.000832213 -0.000815964 -6.15127e-05
0.00272745 -0.000828698 -0.000813749 -6.23511e-05
0.0020394 -0.000623254 -0.00060692 -7.91626e-05
0.00202648 -0.000618125 -0.000603581 -7.92343e-05
0.00338008 -0.00101998 -0.00101147 -4.59612e-05
0.00339822 -0.0010262 -0.00101658 -4.44002e-05
0.00203275 -0.000620581 -0.000605215 -7.91804e-05
0.00270336 -0.000819483 -0.000807374 -6.41981e-05
0.00338917 -0.00102305 -0.00101405 -4.52977e-05
0.00271915 -0.00082538 -0.000811617 -6.31228e-05
0.00271115 -0.000822328 -0.000809497 -6.37397e-05
0.00202648 -0.000618125 -0.000603581 -7.92343e-05
0.00201459 -0.000613685 -0.000600386 -7.9357e-05
0.00336197 -0.00101409 -0.00100623 -4.68265e-05
0.00338008 -0.00101998 -0.00101147 -4.59612e-05
0.00202047 -0.000615835 -0.000601987 -7.93018e-05
0.00268821 -0.000814173 -0.00080316 -6.4871e-05
0.00337099 -0.001017 -0.00100885 -4.64504e-05
0.00270336 -0.000819483 -0.000807374 -6.41981e-05
0.00269572 -0.000816771 -0.000805265 -6.45691e-05
0.00201459 -0.000613685 -0.000600386 -7.9357e-05
0.00200318 -0.000609723 -0.000597198 -7.94521e-05
0.00334395 -0.00100839 -0.00100096 -4.73233e-05
0.00336197 -0.00101409 -0.00100623 -4.68265e-05
0.00200882 -0.000611657 -0.000598786 -7.94052e-05
0.00267345 -0.000809274 -0.000798931 -6.5266e-05
0.00335297 -0.00101122 -0.0010036 -4.71156e-05
0.00268821 -0.000814173 -0.00080316 -6.4871e-05
0.0026808 -0.000811683 -0.000801049 -6.50995e-05
0.00200318 -0.000609723 -0.000597198 -7.94521e-05
0.00199211 -0.000606046 -0.000594028 -7.953e-05
0.00332593 -0.0010028 -0.000995625 -4.7581e-05
0.00334395 -0.00100839 -0.00100096 -4.73233e-05
0.00199763 -0.000607858 -0.000595615 -7.94952e-05
0.00265887 -0.000804604 -0.000794686 -6.54933e-05
0.00333494 -0.00100558 -0.000998293 -4.74716e-05
0.00267345 -0.000809274 -0.000798931 -6.5266e-05
0.00266614 -0.000806918 -0.00079681 -6.53942e-05
0.00199211 -0.000606046 -0.000594028 -7.953e-05
0.00198119 -0.000602538 -0.000590849 -7.95838e-05
0.00330791 -0.000997274 -0.000990272 -4.77189e-05
0.00332593 -0.0010028 -0.000995625 -4.7581e-05
0.00198663 -0.000604277 -0.000592438 -7.95589e-05
0.00264439 -0.00080007 -0.000790424 -6.56194e-05
0.00331692 -0.00100003 -0.000992952 -4.76618e-05
0.00265887 -0.000804604 -0.000794686 -6.54933e-05
0.00265162 -0.000802325 -0.000792557 -6.55665e-05
0.00198119 -0.000602538 -0.000590849 -7.95838e-05
0.00197035 -0.000599121 -0.000587669 -7.96217e-05
0.00328988 -0.000991778 -0.000984901 -4.77872e-05
0.00330791 -0.000997274 -0.000990272 -4.77189e-05
0.00197576 -0.000600821 -0.000589261 -7.96048e-05
0.00262996 -0.000795605 -0.000786151 -6.56891e-05
0.0032989 -0.000994523 -0.000987588 -4.77586e-05
0.00264439 -0.00080007 -0.000790424 -6.56194e-05
0.00263717 -0.000797831 -0.000788289 -6.56591e-05
0.00197035 -0.000599121 -0.000587669 -7.96217e-05
0.00195955 -0.000595752 -0.000584483 -7.96467e-05
0.00327185 -0.000986298 -0.000979521 -4.78221e-05
0.00328988 -0.000991778 -0.000984901 -4.77872e-05
0.00196494 -0.000597432 -0.000586077 -7.96354e-05
0.00261554 -0.000791177 -0.000781871 -6.5727e-05
0.00328087 -0.000989037 -0.000982212 -4.78078e-05
0.00262996 -0.000795605 -0.000786151 -6.56891e-05
0.00262275 -0.000793387 -0.000784012 -6.57111e-05
0.00195955 -0.000595752 -0.000584483 -7.96467e-05
0.00194876 -0.000592409 -0.000581295 -7.96629e-05
0.00325381 -0.000980826 -0.000974135 -4.78389e-05
0.00327185 -0.000986298 -0.000979521 -4.78221e-05
0.00195415 -0.000594079 -0.00058289 -7.96558e-05
0.00260113 -0.000786767 -0.000777586 -6.57475e-05
0.00326283 -0.000983562 -0.000976828 -4.78319e-05
0.00261554 -0.000791177 -0.000781871 -6.5727e-05
0.00260834 -0.00078897 -0.000779729 -6.57388e-05
0.00194876 -0.000592409 -0.000581295 -7.96629e-05
0.00193799 -0.000589079 -0.000578104 -7.96729e-05
0.00323576 -0.000975357 -0.000968746 -4.7847e-05
0.00325381 -0.000980826 -0.000974135 -4.78389e-05
0.00194338 -0.000590743 -0.0005797 -7.96686e-05
0.00258673 -0.000782366 -0.000773297 -6.57584e-05
0.00324479 -0.000978091 -0.000971441 -4.78437e-05
0.00260113 -0.000786767 -0.000777586 -6.57475e-05
0.00259393 -0.000784565 -0.000775442 -6.57539e-05
0.00193799 -0.000589079 -0.000578104 -7.96729e-05
0.00192721 -0.000585755 -0.000574911 -7.96788e-05
0.00321772 -0.00096989 -0.000963355 -4.78505e-05
0.00323576 -0.000975357 -0.000968746 -4.7847e-05
0.0019326 -0.000587416 -0.000576508 -7.96763e-05
0.00257232 -0.000777968 -0.000769007 -6.57639e-05
0.00322674 -0.000972623 -0.00096605 -4.78491e-05
0.00258673 -0.000782366 -0.000773297 -6.57584e-05
0.00257952 -0.000780167 -0.000771153 -6.57617e-05
0.00192721 -0.000585755 -0.000574911 -7.96788e-05
0.00191644 -0.000582434 -0.000571717 -7.96818e-05
0.00319967 -0.000964423 -0.000957962 -4.78517e-05
0.00321772 -0.00096989 -0.000963355 -4.78505e-05
0.00192183 -0.000584094 -0.000573314 -7.96806e-05
0.00255791 -0.000773573 -0.000764716 -6.57664e-05
0.00320869 -0.000967156 -0.000960659 -4.78513e-05
0.00257232 -0.000777968 -0.000769007 -6.57639e-05
0.00256511 -0.000775771 -0.000766862 -6.57654e-05
0.00191644 -0.000582434 -0.000571717 -7.96818e-05
0.00190567 -0.000579116 -0.000568522 -7.96829e-05
0.00318162 -0.000958956 -0.00095257 -4.78516e-05
0.00319967 -0.000964423 -0.000957962 -4.78517e-05
0.00191105 -0.000580775 -0.00057012 -7.96825e-05
0.0025435 -0.000769179 -0.000760423 -6.5767e-05
0.00319064 -0.00096169 -0.000955266 -4.78518e-05
0.00255791 -0.000773573 -0.000764716 -6.57664e-05
0.00255071 -0.000771376 -0.00076257 -6.57669e-05
0.00190567 -0.000579116 -0.000568522 -7.96829e-05
0.00189489 -0.000575798 -0.000565327 -7.96828e-05
0.00316357 -0.00095349 -0.000947176 -4.78509e-05
0.00318162 -0.000958956 -0.00095257 -4.78516e-05
0.00190028 -0.000577457 -0.000566924 -7.9683e-05
0.00252909 -0.000764786 -0.00075613 -6.57666e-05
0.00317259 -0.000956223 -0.000949873 -4.78514e-05
0.0025435 -0.000769179 -0.000760423 -6.5767e-05
0.0025363 -0.000766983 -0.000758277 -6.57669e-05
0.00189489 -0.000575798 -0.000565327 -7.96828e-05
0.00188412 -0.000572481 -0.00056213 -7.96819e-05
0.00314552 -0.000948024 -0.000941783 -4.78499e-05
0.00316357 -0.00095349 -0.000947176 -4.78509e-05
0.00188951 -0.00057414 -0.000563729 -7.96824e-05
0.00251468 -0.000760393 -0.000751837 -6.57655e-05
0.00315454 -0.000950757 -0.000944479 -4.78504e-05
0.00252909 -0.000764786 -0.00075613 -6.57666e-05
0.00252188 -0.00076259 -0.000753984 -6.57661e-05
0.00188412 -0.000572481 -0.00056213 -7.96819e-05
0.00187334 -0.000569165 -0.000558934 -7.96805e-05
0.00312747 -0.000942558 -0.000936389 -4.78486e-05
0.00314552 -0.000948024 -0.000941783 -4.78499e-05
0.00187873 -0.000570823 -0.000560532 -7.96813e-05
0.00250027 -0.000756001 -0.000747543 -6.57641e-05
0.00313649 -0.000945291 -0.000939086 -4.78492e-05
0.00251468 -0.000760393 -0.000751837 -6.57655e-05
0.00250747 -0.000758197 -0.00074969 -6.57649e-05
0.00187334 -0.000569165 -0.000558934 -7.96805e-05
0.00186257 -0.00056585 -0.000555737 -7.96788e-05
0.00310941 -0.000937093 -0.000930994 -4.78471e-05
0.00312747 -0.000942558 -0.000936389 -4.78486e-05
0.00186796 -0.000567507 -0.000557335 -7.96797e-05
0.00248586 -0.000751609 -0.000743249 -6.57625e-05
0.00311844 -0.000939826 -0.000933692 -4.78479e-05
0.00250027 -0.000756001 -0.000747543 -6.57641e-05
0.00249306 -0.000753805 -0.000745396 -6.57633e-05
0.00186257 -0.00056585 -0.000555737 -7.96788e-05
0.00185179 -0.000562535 -0.000552539 -7.9677e-05
0.00309136 -0.000931628 -0.0009256 -4.78457e-05
0.00310941 -0.000937093 -0.000930994 -4.78471e-05
0.00185718 -0.000564192 -0.000554138 -7.96779e-05
0.00247144 -0.000747217 -0.000738954 -6.57607e-05
0.00310039 -0.00093436 -0.000928297 -4.78464e-05
0.00248586 -0.000751609 -0.000743249 -6.57625e-05
0.00247865 -0.000749413 -0.000741101 -6.57616e-05
0.00185179 -0.000562535 -0.000552539 -7.9677e-05
0.00184102 -0.00055922 -0.000549341 -7.96751e-05
0.00307331 -0.000926163 -0.000920206 -4.78442e-05
0.00309136 -0.000931628 -0.0009256 -4.78457e-05
0.0018464 -0.000560877 -0.00055094 -7.9676e-05
0.00245703 -0.000742826 -0.000734659 -6.57589e-05
0.00308234 -0.000928895 -0.000922903 -4.78449e-05
0.00247144 -0.000747217 -0.000738954 -6.57607e-05
0.00246424 -0.000745021 -0.000736807 -6.57598e-05
0.00184102 -0.00055922 -0.000549341 -7.96751e-05
0.00183024 -0.000555906 -0.000546143 -7.96731e-05
0.00305526 -0.000920698 -0.000914811 -4.78427e-05
0.00307331 -0.000926163 -0.000920206 -4.78442e-05
0.00183563 -0.000557563 -0.000547742 -7.96741e-05
0.00244262 -0.000738435 -0.000730364 -6.5757e-05
0.00306428 -0.000923431 -0.000917508 -4.78434e-05
0.00245703 -0.000742826 -0.000734659 -6.57589e-05
0.00244982 -0.00074063 -0.000732512 -6.57579e-05
0.00183024 -0.000555906 -0.000546143 -7.96731e-05
0.00181946 -0.000552592 -0.000542945 -7.9671e-05
0.0030372 -0.000915234 -0.000909416 -4.78412e-05
0.00305526 -0.000920698 -0.000914811 -4.78427e-05
0.00182485 -0.000554249 -0.000544544 -7.96721e-05
0.0024282 -0.000734044 -0.000726069 -6.57552e-05
0.00304623 -0.000917966 -0.000912114 -4.78419e-05
0.00244262 -0.000738435 -0.000730364 -6.5757e-05
0.00243541 -0.000736239 -0.000728217 -6.57561e-05
0.00181946 -0.000552592 -0.000542945 -7.9671e-05
0.00180868 -0.000549278 -0.000539746 -7.9669e-05
0.00301915 -0.00090977 -0.000904021 -4.78397e-05
0.0030372 -0.000915234 -0.000909416 -4.78412e-05
0.00181407 -0.000550935 -0.000541345 -7.967e-05
0.00241379 -0.000729653 -0.000721773 -6.57533e-05
0.00302818 -0.000912502 -0.000906719 -4.78404e-05
0.0024282 -0.000734044 -0.000726069 -6.57552e-05
0.002421 -0.000731849 -0.000723921 -6.57542e-05
0.00180868 -0.000549278 -0.000539746 -7.9669e-05
0.00179791 -0.000545965 -0.000536547 -7.9667e-05
0.0030011 -0.000904306 -0.000898626 -4.78382e-05
0.00301915 -0.00090977 -0.000904021 -4.78397e-05
0.0018033 -0.000547621 -0.000538146 -7.9668e-05
0.00239938 -0.000725263 -0.000717477 -6.57514e-05
0.00301013 -0.000907038 -0.000901324 -4.78389e-05
0.00241379 -0.000729653 -0.000721773 -6.57533e-05
0.00240658 -0.000727458 -0.000719625 -6.57524e-05
0.00179791 -0.000545965 -0.000536547 -7.9667e-05
0.00178713 -0.000542652 -0.000533347 -7.96649e-05
0.00298305 -0.000898842 -0.000893231 -4.78367e-05
0.0030011 -0.000904306 -0.000898626 -4.78382e-05
0.00179252 -0.000544308 -0.000534947 -7.96659e-05
0.00238496 -0.000720873 -0.000713181 -6.57495e-05
0.00299207 -0.000901574 -0.000895928 -4.78374e-05
0.00239938 -0.000725263 -0.000717477 -6.57514e-05
0.00239217 -0.000723068 -0.000715329 -6.57505e-05
0.00178713 -0.000542652 -0.000533347 -7.96649e-05
0.00177635 -0.000539339 -0.000530147 -7.96628e-05
0.00296499 -0.000893379 -0.000887835 -4.78352e-05
0.00298305 -0.000898842 -0.000893231 -4.78367e-05
0.00178174 -0.000540996 -0.000531747 -7.96639e-05
0.00237055 -0.000716484 -0.000708885 -6.57477e-05
0.00297402 -0.000896111 -0.000890533 -4.7836e-05
0.00238496 -0.000720873 -0.000713181 -6.57495e-05
0.00237776 -0.000718679 -0.000711033 -6.57486e-05
0.00177635 -0.000539339 -0.000530147 -7.96628e-05
0.00176557 -0.000536027 -0.000526947 -7.96607e-05
0.00294694 -0.000887916 -0.00088244 -4.78337e-05
0.00296499 -0.000893379 -0.000887835 -4.78352e-05
0.00177096 -0.000537683 -0.000528547 -7.96618e-05
0.00235613 -0.000712095 -0.000704588 -6.57458e-05
0.00295597 -0.000890647 -0.000885138 -4.78345e-05
0.00237055 -0.000716484 -0.000708885 -6.57477e-05
0.00236334 -0.000714289 -0.000706737 -6.57467e-05
0.00176557 -0.000536027 -0.000526947 -7.96607e-05
0.00175479 -0.000532715 -0.000523747 -7.96586e-05
0.00292889 -0.000882453 -0.000877044 -4.78322e-05
0.00294694 -0.000887916 -0.00088244 -4.78337e-05
0.00176018 -0.000534371 -0.000525347 -7.96597e-05
0.00234172 -0.000707706 -0.000700292 -6.57439e-05
0.00293792 -0.000885184 -0.000879742 -4.7833e-05
0.00235613 -0.000712095 -0.000704588 -6.57458e-05
0.00234893 -0.0007099 -0.00070244 -6.57448e-05
0.00175479 -0.000532715 -0.000523747 -7.96586e-05
0.00174401 -0.000529404 -0.000520546 -7.96565e-05
0.00291084 -0.00087699 -0.000871648 -4.78307e-05
0.00292889 -0.000882453 -0.000877044 -4.78322e-05
0.0017494 -0.00053106 -0.000522146 -7.96576e-05
0.0023273 -0.000703317 -0.000695995 -6.5742e-05
0.00291986 -0.000879722 -0.000874346 -4.78315e-05
0.00234172 -0.000707706 -0.000700292 -6.57439e-05
0.00233451 -0.000705512 -0.000698143 -6.57429e-05
0.00174401 -0.000529404 -0.000520546 -7.96565e-05
0.00173323 -0.000526093 -0.000517345 -7.96543e-05
0.00289278 -0.000871528 -0.000866252 -4.78292e-05
0.00291084 -0.00087699 -0.000871648 -4.78307e-05
0.00173862 -0.000527748 -0.000518945 -7.96554e-05
0.00231289 -0.000698929 -0.000691697 -6.574e-05
0.00290181 -0.000874259 -0.00086895 -4.78299e-05
0.0023273 -0.000703317 -0.000695995 -6.5742e-05
0.0023201 -0.000701123 -0.000693846 -6.5741e-05
0.00173323 -0.000526093 -0.000517345 -7.96543e-05
0.00172245 -0.000522782 -0.000514143 -7.96522e-05
0.00287473 -0.000866066 -0.000860856 -4.78276e-05
0.00289278 -0.000871528 -0.000866252 -4.78292e-05
0.00172784 -0.000524437 -0.000515744 -7.96533e-05
0.00229847 -0.000694541 -0.0006874 -6.57381e-05
0.00288376 -0.000868797 -0.000863554 -4.78284e-05
0.00231289 -0.000698929 -0.000691697 -6.574e-05
0.00230568 -0.000696735 -0.000689549 -6.5739e-05
0.00172245 -0.000522782 -0.000514143 -7.96522e-05
0.00171167 -0.000519472 -0.000510942 -7.965e-05
0.00285668 -0.000860604 -0.00085546 -4.78261e-05
0.00287473 -0.000866066 -0.000860856 -4.78276e-05
0.00171706 -0.000521127 -0.000512543 -7.96511e-05
0.00228406 -0.000690154 -0.000683102 -6.57361e-05
0.0028657 -0.000863335 -0.000858158 -4.78269e-05
0.00229847 -0.000694541 -0.0006874 -6.57381e-05
0.00229127 -0.000692347 -0.000685251 -6.57371e-05
0.00171167 -0.000519472 -0.000510942 -7.965e-05
0.00170089 -0.000516162 -0.00050774 -7.96477e-05
0.00283862 -0.000855143 -0.000850063 -4.78245e-05
0.00285668 -0.000860604 -0.00085546 -4.78261e-05
0.00170628 -0.000517817 -0.000509341 -7.96489e-05
0.00226964 -0.000685767 -0.000678804 -6.57341e-05
0.00284765 -0.000857873 -0.000852761 -4.78253e-05
0.00228406 -0.000690154 -0.000683102 -6.57361e-05
0.00227685 -0.00068796 -0.000680953 -6.57351e-05
0.00170089 -0.000516162 -0.00050774 -7.96477e-05
0.00169011 -0.000512852 -0.000504537 -7.96455e-05
0.00282057 -0.000849681 -0.000844667 -4.7823e-05
0.00283862 -0.000855143 -0.000850063 -4.78245e-05
0.0016955 -0.000514507 -0.000506138 -7.96466e-05
0.00225523 -0.00068138 -0.000674506 -6.57321e-05
0.0028296 -0.000852412 -0.000847365 -4.78237e-05
0.00226964 -0.000685767 -0.000678804 -6.57341e-05
0.00226243 -0.000683573 -0.000676655 -6.57331e-05
0.00169011 -0.000512852 -0.000504537 -7.96455e-05
0.00167932 -0.000509543 -0.000501335 -7.96432e-05
0.00280252 -0.00084422 -0.00083927 -4.78214e-05
0.00282057 -0.000849681 -0.000844667 -4.7823e-05
0.00168471 -0.000511197 -0.000502936 -7.96443e-05
0.00224081 -0.000676993 -0.000670207 -6.573e-05
0.00281154 -0.000846951 -0.000841968 -4.78222e-05
0.00225523 -0.00068138 -0.000674506 -6.57321e-05
0.00224802 -0.000679186 -0.000672357 -6.57311e-05
0.00167932 -0.000509543 -0.000501335 -7.96432e-05
0.00166854 -0.000506234 -0.000498132 -7.96409e-05
0.00278446 -0.00083876 -0.000833873 -4.78198e-05
0.00280252 -0.00084422 -0.00083927 -4.78214e-05
0.00167393 -0.000507888 -0.000499733 -7.96421e-05
0.00222639 -0.000672607 -0.000665909 -6.5728e-05
0.00279349 -0.00084149 -0.000836571 -4.78206e-05
0.00224081 -0.000676993 -0.000670207 -6.573e-05
0.0022336 -0.0006748 -0.000668058 -6.5729e-05
0.00166854 -0.000506234 -0.000498132 -7.96409e-05
0.00165776 -0.000502926 -0.000494928 -7.96386e-05
0.00276641 -0.000833299 -0.000828476 -4.78181e-05
0.00278446 -0.00083876 -0.000833873 -4.78198e-05
0.00166315 -0.00050458 -0.00049653 -7.96398e-05
0.00221198 -0.000668221 -0.00066161 -6.57259e-05
0.00277544 -0.00083603 -0.000831174 -4.78189e-05
0.00222639 -0.000672607 -0.000665909 -6.5728e-05
0.00221919 -0.000670414 -0.000663759 -6.5727e-05
0.00165776 -0.000502926 -0.000494928 -7.96386e-05
0.00164698 -0.000499617 -0.000491725 -7.96362e-05
0.00274836 -0.000827839 -0.000823079 -4.78165e-05
0.00276641 -0.000833299 -0.000828476 -4.78181e-05
0.00165237 -0.000501271 -0.000493327 -7.96374e-05
0.00219756 -0.000663835 -0.000657311 -6.57238e-05
0.00275738 -0.000830569 -0.000825777 -4.78173e-05
0.00221198 -0.000668221 -0.00066161 -6.57259e-05
0.00220477 -0.000666028 -0.00065946 -6.57249e-05
0.00164698 -0.000499617 -0.000491725 -7.96362e-05
0.00163619 -0.00049631 -0.000488521 -7.96339e-05
0.0027303 -0.000822379 -0.000817682 -4.78148e-05
0.00274836 -0.000827839 -0.000823079 -4.78165e-05
0.00164158 -0.000497964 -0.000490123 -7.96351e-05
0.00218314 -0.00065945 -0.000653011 -6.57217e-05
0.00273933 -0.000825109 -0.00082038 -4.78157e-05
0.00219756 -0.000663835 -0.000657311 -6.57238e-05
0.00219035 -0.000661643 -0.000655161 -6.57228e-05
0.00163619 -0.00049631 -0.000488521 -7.96339e-05
0.00162541 -0.000493002 -0.000485317 -7.96315e-05
0.00271225 -0.00081692 -0.000812284 -4.78132e-05
0.0027303 -0.000822379 -0.000817682 -4.78148e-05
0.0016308 -0.000494656 -0.000486919 -7.96327e-05
0.00216873 -0.000655065 -0.000648712 -6.57196e-05
0.00272128 -0.00081965 -0.000814983 -4.7814e-05
0.00218314 -0.00065945 -0.000653011 -6.57217e-05
0.00217593 -0.000657258 -0.000650861 -6.57207e-05
0.00162541 -0.000493002 -0.000485317 -7.96315e-05
0.00161462 -0.000489695 -0.000482112 -7.96291e-05
0.0026942 -0.000811461 -0.000806887 -4.78115e-05
0.00271225 -0.00081692 -0.000812284 -4.78132e-05
0.00162002 -0.000491349 -0.000483714 -7.96303e-05
0.00215431 -0.000650681 -0.000644412 -6.57174e-05
0.00270322 -0.00081419 -0.000809585 -4.78123e-05
0.00216873 -0.000655065 -0.000648712 -6.57196e-05
0.00216152 -0.000652873 -0.000646562 -6.57185e-05
0.00161462 -0.000489695 -0.000482112 -7.96291e-05
0.00160384 -0.000486389 -0.000478907 -7.96267e-05
0.00267614 -0.000806002 -0.000801489 -4.78098e-05
0.0026942 -0.000811461 -0.000806887 -4.78115e-05
0.00160923 -0.000488042 -0.00048051 -7.96279e-05
0.00213989 -0.000646297 -0.000640112 -6.57153e-05
0.00268517 -0.000808731 -0.000804188 -4.78107e-05
0.00215431 -0.000650681 -0.000644412 -6.57174e-05
0.0021471 -0.000648489 -0.000642262 -6.57164e-05
0.00160384 -0.000486389 -0.000478907 -7.96267e-05
0.00159305 -0.000483083 -0.000475702 -7.96242e-05
0.00265809 -0.000800543 -0.000796091 -4.78081e-05
0.00267614 -0.000806002 -0.000801489 -4.78098e-05
0.00159845 -0.000484736 -0.000477305 -7.96254e-05
0.00212547 -0.000641913 -0.000635811 -6.57131e-05
0.00266712 -0.000803272 -0.00079879 -4.7809e-05
0.00213989 -0.000646297 -0.000640112 -6.57153e-05
0.00213268 -0.000644105 -0.000637962 -6.57142e-05
0.00159305 -0.000483083 -0.000475702 -7.96242e-05
0.00158227 -0.000479777 -0.000472497 -7.96217e-05
0.00264004 -0.000795084 -0.000790693 -4.78064e-05
0.00265809 -0.000800543 -0.000796091 -4.78081e-05
0.00158766 -0.00048143 -0.000474099 -7.9623e-05
0.00211105 -0.000637529 -0.000631511 -6.57109e-05
0.00264906 -0.000797814 -0.000793392 -4.78073e-05
0.00212547 -0.000641913 -0.000635811 -6.57131e-05
0.00211826 -0.000639721 -0.000633661 -6.5712e-05
0.00158227 -0.000479777 -0.000472497 -7.96217e-05
0.00157148 -0.000476471 -0.000469291 -7.96193e-05
0.00262198 -0.000789626 -0.000785295 -4.78047e-05
0.00264004 -0.000795084 -0.000790693 -4.78064e-05
0.00157688 -0.000478124 -0.000470894 -7.96205e-05
0.00209664 -0.000633146 -0.00062721 -6.57087e-05
0.00263101 -0.000792355 -0.000787994 -4.78056e-05
0.00211105 -0.000637529 -0.000631511 -6.57109e-05
0.00210385 -0.000635338 -0.000629361 -6.57098e-05
0.00157148 -0.000476471 -0.000469291 -7.96193e-05
0.0015607 -0.000473166 -0.000466085 -7.96167e-05
0.00260393 -0.000784168 -0.000779897 -4.7803e-05
0.00262198 -0.000789626 -0.000785295 -4.78047e-05
0.00156609 -0.000474819 -0.000467688 -7.9618e-05
0.00208222 -0.000628764 -0.000622909 -6.57065e-05
0.00261296 -0.000786897 -0.000782596 -4.78038e-05
0.00209664 -0.000633146 -0.00062721 -6.57087e-05
0.00208943 -0.000630955 -0.00062506 -6.57076e-05
0.0015607 -0.000473166 -0.000466085 -7.96167e-05
0.00154991 -0.000469862 -0.000462879 -7.96142e-05
0.00258587 -0.000778711 -0.000774499 -4.78012e-05
0.00260393 -0.000784168 -0.000779897 -4.7803e-05
0.00155531 -0.000471514 -0.000464482 -7.96155e-05
0.0020678 -0.000624381 -0.000618608 -6.57042e-05
0.0025949 -0.00078144 -0.000777198 -4.78021e-05
0.00208222 -0.000628764 -0.000622909 -6.57065e-05
0.00207501 -0.000626572 -0.000620759 -6.57054e-05
0.00154991 -0.000469862 -0.000462879 -7.96142e-05
0.00153913 -0.000466558 -0.000459672 -7.96117e-05
0.00256782 -0.000773254 -0.0007691 -4.77995e-05
0.00258587 -0.000778711 -0.000774499 -4.78012e-05
0.00154452 -0.00046821 -0.000461275 -7.9613e-05
0.00205338 -0.000619999 -0.000614307 -6.5702e-05
0.00257685 -0.000775982 -0.0007718 -4.78004e-05
0.0020678 -0.000624381 -0.000618608 -6.57042e-05
0.00206059 -0.00062219 -0.000616457 -6.57031e-05
0.00153913 -0.000466558 -0.000459672 -7.96117e-05
0.00152834 -0.000463254 -0.000456465 -7.96091e-05
0.00254977 -0.000767797 -0.000763702 -4.77977e-05
0.00256782 -0.000773254 -0.0007691 -4.77995e-05
0.00153373 -0.000464906 -0.000458069 -7.96104e-05
0.00203896 -0.000615617 -0.000610005 -6.56997e-05
0.00255879 -0.000770525 -0.000766401 -4.77986e-05
0.00205338 -0.000619999 -0.000614307 -6.5702e-05
0.00204617 -0.000617808 -0.000612156 -6.57009e-05
0.00152834 -0.000463254 -0.000456465 -7.96091e-05
0.00151755 -0.00045995 -0.000453258 -7.96066e-05
0.00253171 -0.00076234 -0.000758303 -4.77959e-05
0.00254977 -0.000767797 -0.000763702 -4.77977e-05
0.00152295 -0.000461602 -0.000454861 -7.96079e-05
0.00202454 -0.000611236 -0.000605703 -6.56975e-05
0.00254074 -0.000765068 -0.000761003 -4.77968e-05
0.00203896 -0.000615617 -0.000610005 -6.56997e-05
0.00203175 -0.000613427 -0.000607854 -6.56986e-05
0.00151755 -0.00045995 -0.000453258 -7.96066e-05
0.00150676 -0.000456647 -0.00045005 -7.9604e-05
0.00251366 -0.000756884 -0.000752905 -4.77942e-05
0.00253171 -0.00076234 -0.000758303 -4.77959e-05
0.00151216 -0.000458299 -0.000451654 -7.96053e-05
0.00201012 -0.000606855 -0.000601401 -6.56952e-05
0.00252269 -0.000759612 -0.000755604 -4.77951e-05
0.00202454 -0.000611236 -0.000605703 -6.56975e-05
0.00201733 -0.000609045 -0.000603552 -6.56963e-05
0.00150676 -0.000456647 -0.00045005 -7.9604e-05
0.00149598 -0.000453344 -0.000446842 -7.96014e-05
0.00249561 -0.000751428 -0.000747506 -4.77924e-05
0.00251366 -0.000756884 -0.000752905 -4.77942e-05
0.00150137 -0.000454996 -0.000448446 -7.96027e-05
0.00199571 -0.000602474 -0.000597099 -6.56929e-05
0.00250463 -0.000754156 -0.000750205 -4.77933e-05
0.00201012 -0.000606855 -0.000601401 -6.56952e-05
0.00200291 -0.000604665 -0.00059925 -6.5694e-05
0.00149598 -0.000453344 -0.000446842 -7.96014e-05
0.00148519 -0.000450042 -0.000443634 -7.95988e-05
0.00247755 -0.000745972 -0.000742107 -4.77906e-05
0.00249561 -0.000751428 -0.000747506 -4.77924e-05
0.00149058 -0.000451693 -0.000445238 -7.96001e-05
0.00198129 -0.000598094 -0.000592797 -6.56906e-05
0.00248658 -0.0007487 -0.000744806 -4.77915e-05
0.00199571 -0.000602474 -0.000597099 -6.56929e-05
0.0019885 -0.000600284 -0.000594948 -6.56917e-05
0.00148519 -0.000450042 -0.000443634 -7.95988e-05
0.0014744 -0.00044674 -0.000440426 -7.95962e-05
0.0024595 -0.000740516 -0.000736708 -4.77888e-05
0.00247755 -0.000745972 -0.000742107 -4.77906e-05
0.00147979 -0.000448391 -0.00044203 -7.95975e-05
0.00196687 -0.000593714 -0.000588494 -6.56883e-05
0.00246853 -0.000743244 -0.000739407 -4.77897e-05
0.00198129 -0.000598094 -0.000592797 -6.56906e-05
0.00197408 -0.000595904 -0.000590645 -6.56894e-05
0.0014744 -0.00044674 -0.000440426 -7.95962e-05
0.00146361 -0.000443439 -0.000437217 -7.95935e-05
0.00244145 -0.000735061 -0.000731309 -4.7787e-05
0.0024595 -0.000740516 -0.000736708 -4.77888e-05
0.00146901 -0.000445089 -0.000438822 -7.95949e-05
0.00195245 -0.000589334 -0.000584191 -6.56859e-05
0.00245047 -0.000737789 -0.000734008 -4.77879e-05
0.00196687 -0.000593714 -0.000588494 -6.56883e-05
0.00195966 -0.000591524 -0.000586342 -6.56871e-05
0.00146361 -0.000443439 -0.000437217 -7.95935e-05
0.00145282 -0.000440138 -0.000434008 -7.95909e-05
0.00242339 -0.000729606 -0.000725909 -4.77852e-05
0.00244145 -0.000735061 -0.000731309 -4.7787e-05
0.00145822 -0.000441788 -0.000435613 -7.95922e-05
0.00193803 -0.000584955 -0.000579888 -6.56836e-05
0.00243242 -0.000732334 -0.000728609 -4.77861e-05
0.00195245 -0.000589334 -0.000584191 -6.56859e-05
0.00194524 -0.000587145 -0.000582039 -6.56848e-05
0.00145282 -0.000440138 -0.000434008 -7.95909e-05
0.00144203 -0.000436837 -0.000430799 -7.95882e-05
0.00240534 -0.000724152 -0.00072051 -4.77833e-05
0.00242339 -0.000729606 -0.000725909 -4.77852e-05
0.00144743 -0.000438487 -0.000432404 -7.95896e-05
0.00192361 -0.000580576 -0.000575585 -6.56812e-05
0.00241437 -0.000726879 -0.000723209 -4.77843e-05
0.00193803 -0.000584955 -0.000579888 -6.56836e-05
0.00193082 -0.000582766 -0.000577736 -6.56824e-05
0.00144203 -0.000436837 -0.000430799 -7.95882e-05
0.00143124 -0.000433536 -0.000427589 -7.95856e-05
0.00238729 -0.000718698 -0.00071511 -4.77815e-05
0.00240534 -0.000724152 -0.00072051 -4.77833e-05
0.00143664 -0.000435187 -0.000429194 -7.95869e-05
0.00190919 -0.000576198 -0.000571281 -6.56789e-05
0.00239631 -0.000721425 -0.00071781 -4.77824e-05
0.00192361 -0.000580576 -0.000575585 -6.56812e-05
0.0019164 -0.000578387 -0.000573433 -6.56801e-05
0.00143124 -0.000433536 -0.000427589 -7.95856e-05
0.00142046 -0.000430236 -0.000424379 -7.95829e-05
0.00236923 -0.000713244 -0.000709711 -4.77797e-05
0.00238729 -0.000718698 -0.00071511 -4.77815e-05
0.00142585 -0.000431886 -0.000425984 -7.95843e-05
0.00189477 -0.00057182 -0.000566977 -6.56765e-05
0.00237826 -0.000715971 -0.00071241 -4.77806e-05
0.00190919 -0.000576198 -0.000571281 -6.56789e-05
0.00190198 -0.000574009 -0.000569129 -6.56777e-05
0.00142046 -0.000430236 -0.000424379 -7.95829e-05
0.00140967 -0.000426937 -0.000421169 -7.95802e-05
0.00235118 -0.00070779 -0.000704311 -4.77779e-05
0.00236923 -0.000713244 -0.000709711 -4.77797e-05
0.00141506 -0.000428587 -0.000422774 -7.95816e-05
0.00188035 -0.000567442 -0.000562673 -6.56741e-05
0.00236021 -0.000710517 -0.000707011 -4.77788e-05
0.00189477 -0.00057182 -0.000566977 -6.56765e-05
0.00188756 -0.000569631 -0.000564825 -6.56753e-05
0.00140967 -0.000426937 -0.000421169 -7.95802e-05
0.00139887 -0.000423638 -0.000417959 -7.95775e-05
0.00233313 -0.000702337 -0.000698911 -4.7776e-05
0.00235118 -0.00070779 -0.000704311 -4.77779e-05
0.00140427 -0.000425287 -0.000419564 -7.95789e-05
0.00186593 -0.000563064 -0.000558369 -6.56718e-05
0.00234216 -0.000705063 -0.000701611 -4.77769e-05
0.00188035 -0.000567442 -0.000562673 -6.56741e-05
0.00187314 -0.000565253 -0.000560521 -6.5673e-05
0.00139887 -0.000423638 -0.000417959 -7.95775e-05
0.00138808 -0.000420339 -0.000414748 -7.95748e-05
0.00231508 -0.000696884 -0.000693511 -4.77742e-05
0.00233313 -0.000702337 -0.000698911 -4.7776e-05
0.00139348 -0.000421988 -0.000416353 -7.95762e-05
0.00185151 -0.000558687 -0.000554065 -6.56694e-05
0.0023241 -0.00069961 -0.000696211 -4.77751e-05
0.00186593 -0.000563064 -0.000558369 -6.56718e-05
0.00185872 -0.000560876 -0.000556217 -6.56706e-05
0.00138808 -0.000420339 -0.000414748 -7.95748e-05
0.00137729 -0.000417041 -0.000411537 -7.95721e-05
0.00229702 -0.000691431 -0.000688111 -4.77723e-05
0.00231508 -0.000696884 -0.000693511 -4.77742e-05
0.00138269 -0.00041869 -0.000413142 -7.95735e-05
0.00183708 -0.00055431 -0.00054976 -6.5667e-05
0.00230605 -0.000694157 -0.000690811 -4.77732e-05
0.00185151 -0.000558687 -0.000554065 -6.56694e-05
0.00184429 -0.000556499 -0.000551913 -6.56682e-05
0.00137729 -0.000417041 -0.000411537 -7.95721e-05
0.0013665 -0.000413743 -0.000408325 -7.95694e-05
0.00227897 -0.000685978 -0.000682711 -4.77705e-05
0.00229702 -0.000691431 -0.000688111 -4.77723e-05
0.0013719 -0.000415391 -0.000409931 -7.95708e-05
0.00182266 -0.000549934 -0.000545456 -6.56646e-05
0.002288 -0.000688705 -0.000685411 -4.77714e-05
0.00183708 -0.00055431 -0.00054976 -6.5667e-05
0.00182987 -0.000552122 -0.000547608 -6.56658e-05
0.0013665 -0.000413743 -0.000408325 -7.95694e-05
0.00135571 -0.000410445 -0.000405114 -7.95667e-05
0.00226092 -0.000680526 -0.00067731 -4.77686e-05
0.00227897 -0.000685978 -0.000682711 -4.77705e-05
0.00136111 -0.000412094 -0.00040672 -7.95681e-05
0.00180824 -0.000545558 -0.000541151 -6.56622e-05
0.00226994 -0.000683252 -0.000680011 -4.77695e-05
0.00182266 -0.000549934 -0.000545456 -6.56646e-05
0.00181545 -0.000547746 -0.000543303 -6.56634e-05
0.00135571 -0.000410445 -0.000405114 -7.95667e-05
0.00134492 -0.000407148 -0.000401902 -7.9564e-05
0.00224286 -0.000675074 -0.00067191 -4.77667e-05
0.00226092 -0.000680526 -0.00067731 -4.77686e-05
0.00135031 -0.000408796 -0.000403508 -7.95653e-05
0.00179382 -0.000541182 -0.000536845 -6.56598e-05
0.00225189 -0.0006778 -0.00067461 -4.77677e-05
0.00180824 -0.000545558 -0.000541151 -6.56622e-05
0.00180103 -0.00054337 -0.000538998 -6.5661e-05
0.00134492 -0.000407148 -0.000401902 -7.9564e-05
0.00133413 -0.000403851 -0.00039869 -7.95613e-05
0.00222481 -0.000669623 -0.00066651 -4.77649e-05
0.00224286 -0.000675074 -0.00067191 -4.77667e-05
0.00133952 -0.000405499 -0.000400296 -7.95626e-05
0.0017794 -0.000536807 -0.00053254 -6.56574e-05
0.00223384 -0.000672349 -0.00066921 -4.77658e-05
0.00179382 -0.000541182 -0.000536845 -6.56598e-05
0.00178661 -0.000538995 -0.000534693 -6.56586e-05
0.00133413 -0.000403851 -0.00039869 -7.95613e-05
0.00132333 -0.000400554 -0.000395477 -7.95585e-05
0.00220676 -0.000664172 -0.000661109 -4.7763e-05
0.00222481 -0.000669623 -0.00066651 -4.77649e-05
0.00132873 -0.000402203 -0.000397083 -7.95599e-05
0.00176498 -0.000532432 -0.000528234 -6.5655e-05
0.00221579 -0.000666897 -0.000663809 -4.77639e-05
0.0017794 -0.000536807 -0.00053254 -6.56574e-05
0.00177219 -0.000534619 -0.000530387 -6.56562e-05
0.00132333 -0.000400554 -0.000395477 -7.95585e-05
0.00131254 -0.000397258 -0.000392264 -7.95558e-05
0.00218871 -0.000658721 -0.000655708 -4.77611e-05
0.00220676 -0.000664172 -0.000661109 -4.7763e-05
0.00131794 -0.000398906 -0.000393871 -7.95572e-05
0.00175056 -0.000528057 -0.000523929 -6.56526e-05
0.00219773 -0.000661446 -0.000658409 -4.77621e-05
0.00176498 -0.000532432 -0.000528234 -6.5655e-05
0.00175777 -0.000530245 -0.000526081 -6.56538e-05
0.00131254 -0.000397258 -0.000392264 -7.95558e-05
0.00130175 -0.000393963 -0.000389051 -7.9553e-05
0.00217065 -0.00065327 -0.000650307 -4.77593e-05
0.00218871 -0.000658721 -0.000655708 -4.77611e-05
0.00130715 -0.000395611 -0.000390658 -7.95544e-05
0.00173614 -0.000523683 -0.000519622 -6.56501e-05
0.00217968 -0.000655995 -0.000653008 -4.77602e-05
0.00175056 -0.000528057 -0.000523929 -6.56526e-05
0.00174335 -0.00052587 -0.000521776 -6.56514e-05
0.00130175 -0.000393963 -0.000389051 -7.9553e-05
0.00129096 -0.000390668 -0.000385838 -7.95503e-05
0.0021526 -0.00064782 -0.000644906 -4.77574e-05
0.00217065 -0.00065327 -0.000650307 -4.77593e-05
0.00129635 -0.000392315 -0.000387444 -7.95517e-05
0.00172171 -0.000519309 -0.000515316 -6.56477e-05
0.00216163 -0.000650545 -0.000647607 -4.77583e-05
0.00173614 -0.000523683 -0.000519622 -6.56501e-05
0.00172892 -0.000521496 -0.000517469 -6.56489e-05
0.00129096 -0.000390668 -0.000385838 -7.95503e-05
0.00128016 -0.000387373 -0.000382624 -7.95476e-05
0.00213455 -0.00064237 -0.000639505 -4.77555e-05
0.0021526 -0.00064782 -0.000644906 -4.77574e-05
0.00128556 -0.00038902 -0.000384231 -7.95489e-05
0.00170729 -0.000514936 -0.00051101 -6.56453e-05
0.00214358 -0.000645095 -0.000642206 -4.77564e-05
0.00172171 -0.000519309 -0.000515316 -6.56477e-05
0.0017145 -0.000517123 -0.000513163 -6.56465e-05
0.00128016 -0.000387373 -0.000382624 -7.95476e-05
0.00126937 -0.000384078 -0.00037941 -7.95448e-05
0.0021165 -0.00063692 -0.000634104 -4.77536e-05
0.00213455 -0.00064237 -0.000639505 -4.77555e-05
0.00127477 -0.000385726 -0.000381017 -7.95462e-05
0.00169287 -0.000510563 -0.000506703 -6.56429e-05
0.00212552 -0.000639645 -0.000636805 -4.77546e-05
0.00170729 -0.000514936 -0.00051101 -6.56453e-05
0.00170008 -0.000512749 -0.000508857 -6.56441e-05
0.00126937 -0.000384078 -0.00037941 -7.95448e-05
0.00125857 -0.000380784 -0.000376196 -7.95421e-05
0.00209844 -0.000631471 -0.000628703 -4.77517e-05
0.0021165 -0.00063692 -0.000634104 -4.77536e-05
0.00126397 -0.000382431 -0.000377803 -7.95434e-05
0.00167845 -0.00050619 -0.000502396 -6.56404e-05
0.00210747 -0.000634196 -0.000631404 -4.77527e-05
0.00169287 -0.000510563 -0.000506703 -6.56429e-05
0.00168566 -0.000508376 -0.00050455 -6.56417e-05
0.00125857 -0.000380784 -0.000376196 -7.95421e-05
0.00124778 -0.000377491 -0.000372981 -7.95393e-05
0.00208039 -0.000626022 -0.000623302 -4.77499e-05
0.00209844 -0.000631471 -0.000628703 -4.77517e-05
0.00125318 -0.000379137 -0.000374589 -7.95407e-05
0.00166403 -0.000501817 -0.000498089 -6.5638e-05
0.00208942 -0.000628746 -0.000626002 -4.77508e-05
0.00167845 -0.00050619 -0.000502396 -6.56404e-05
0.00167124 -0.000504004 -0.000500243 -6.56392e-05
0.00124778 -0.000377491 -0.000372981 -7.95393e-05
0.00123699 -0.000374197 -0.000369766 -7.95366e-05
0.00206234 -0.000620573 -0.0006179 -4.7748e-05
0.00208039 -0.000626022 -0.000623302 -4.77499e-05
0.00124238 -0.000375844 -0.000371374 -7.95379e-05
0.0016496 -0.000497445 -0.000493782 -6.56356e-05
0.00207137 -0.000623297 -0.000620601 -4.77489e-05
0.00166403 -0.000501817 -0.000498089 -6.5638e-05
0.00165681 -0.000499631 -0.000495936 -6.56368e-05
0.00123699 -0.000374197 -0.000369766 -7.95366e-05
0.00122619 -0.000370905 -0.000366551 -7.95338e-05
0.00204429 -0.000615125 -0.000612499 -4.77461e-05
0.00206234 -0.000620573 -0.0006179 -4.7748e-05
0.00123159 -0.000372551 -0.000368159 -7.95352e-05
0.00163518 -0.000493074 -0.000489475 -6.56332e-05
0.00205331 -0.000617849 -0.000615199 -4.7747e-05
0.0016496 -0.000497445 -0.000493782 -6.56356e-05
0.00164239 -0.000495259 -0.000491628 -6.56344e-05
0.00122619 -0.000370905 -0.000366551 -7.95338e-05
0.0012154 -0.000367612 -0.000363336 -7.95311e-05
0.00202624 -0.000609677 -0.000607097 -4.77442e-05
0.00204429 -0.000615125 -0.000612499 -4.77461e-05
0.00122079 -0.000369258 -0.000364943 -7.95324e-05
0.00162076 -0.000488702 -0.000485167 -6.56307e-05
0.00203526 -0.000612401 -0.000609798 -4.77452e-05
0.00163518 -0.000493074 -0.000489475 -6.56332e-05
0.00162797 -0.000490888 -0.000487321 -6.5632e-05
0.0012154 -0.000367612 -0.000363336 -7.95311e-05
0.0012046 -0.00036432 -0.00036012 -7.95283e-05
0.00200818 -0.000604229 -0.000601695 -4.77424e-05
0.00202624 -0.000609677 -0.000607097 -4.77442e-05
0.00121 -0.000365966 -0.000361728 -7.95297e-05
0.00160634 -0.000484331 -0.000480859 -6.56283e-05
0.00201721 -0.000606953 -0.000604396 -4.77433e-05
0.00162076 -0.000488702 -0.000485167 -6.56307e-05
0.00161355 -0.000486517 -0.000483013 -6.56295e-05
0.0012046 -0.00036432 -0.00036012 -7.95283e-05
0.0011938 -0.000361028 -0.000356904 -7.95256e-05
0.00199013 -0.000598781 -0.000596293 -4.77405e-05
0.00200818 -0.000604229 -0.000601695 -4.77424e-05
0.0011992 -0.000362674 -0.000358512 -7.95269e-05
0.00159191 -0.000479961 -0.000476551 -6.56259e-05
0.00199916 -0.000601505 -0.000598994 -4.77414e-05
0.00160634 -0.000484331 -0.000480859 -6.56283e-05
0.00159912 -0.000482146 -0.000478705 -6.56271e-05
0.0011938 -0.000361028 -0.000356904 -7.95256e-05
0.00118301 -0.000357737 -0.000353688 -7.95228e-05
0.00197208 -0.000593334 -0.000590891 -4.77386e-05
0.00199013 -0.000598781 -0.000596293 -4.77405e-05
0.00118841 -0.000359383 -0.000355296 -7.95242e-05
0.00157749 -0.00047559 -0.000472243 -6.56235e-05
0.00198111 -0.000596058 -0.000593592 -4.77395e-05
0.00159191 -0.000479961 -0.000476551 -6.56259e-05
0.0015847 -0.000477776 -0.000474397 -6.56247e-05
0.00118301 -0.000357737 -0.000353688 -7.95228e-05
0.00117221 -0.000354446 -0.000350471 -7.95201e-05
0.00195403 -0.000587887 -0.000585489 -4.77367e-05
0.00197208 -0.000593334 -0.000590891 -4.77386e-05
0.00117761 -0.000356092 -0.000352079 -7.95214e-05
0.00156307 -0.000471221 -0.000467934 -6.56211e-05
0.00196305 -0.000590611 -0.00058819 -4.77377e-05
0.00157749 -0.00047559 -0.000472243 -6.56235e-05
0.00157028 -0.000473405 -0.000470088 -6.56223e-05
0.00117221 -0.000354446 -0.000350471 -7.95201e-05
0.00116142 -0.000351156 -0.000347254 -7.95173e-05
0.00193598 -0.000582441 -0.000580087 -4.77349e-05
0.00195403 -0.000587887 -0.000585489 -4.77367e-05
0.00116681 -0.000352801 -0.000348863 -7.95187e-05
0.00154864 -0.000466851 -0.000463625 -6.56186e-05
0.001945 -0.000585164 -0.000582788 -4.77358e-05
0.00156307 -0.000471221 -0.000467934 -6.56211e-05
0.00155586 -0.000469036 -0.00046578 -6.56198e-05
0.00116142 -0.000351156 -0.000347254 -7.95173e-05
0.00115062 -0.000347866 -0.000344037 -7.95146e-05
0.00191793 -0.000576994 -0.000574685 -4.7733e-05
0.00193598 -0.000582441 -0.000580087 -4.77349e-05
0.00115602 -0.000349511 -0.000345646 -7.9516e-05
0.00153422 -0.000462482 -0.000459317 -6.56162e-05
0.00192695 -0.000579717 -0.000577386 -4.77339e-05
0.00154864 -0.000466851 -0.000463625 -6.56186e-05
0.00154143 -0.000464666 -0.000461471 -6.56174e-05
0.00115062 -0.000347866 -0.000344037 -7.95146e-05
0.00113982 -0.000344576 -0.000340819 -7.95119e-05
0.00189987 -0.000571548 -0.000569282 -4.77311e-05
0.00191793 -0.000576994 -0.000574685 -4.7733e-05
0.00114522 -0.000346221 -0.000342428 -7.95132e-05
0.0015198 -0.000458113 -0.000455007 -6.56138e-05
0.0019089 -0.000574271 -0.000571984 -4.7732e-05
0.00153422 -0.000462482 -0.000459317 -6.56162e-05
0.00152701 -0.000460297 -0.000457162 -6.5615e-05
0.00113982 -0.000344576 -0.000340819 -7.95119e-05
0.00112902 -0.000341287 -0.000337602 -7.95091e-05
0.00188182 -0.000566103 -0.00056388 -4.77293e-05
0.00189987 -0.000571548 -0.000569282 -4.77311e-05
0.00113442 -0.000342931 -0.000339211 -7.95105e-05
0.00150537 -0.000453745 -0.000450698 -6.56114e-05
0.00189085 -0.000568825 -0.000566581 -4.77302e-05
0.0015198 -0.000458113 -0.000455007 -6.56138e-05
0.00151259 -0.000455929 -0.000452853 -6.56126e-05
0.00112902 -0.000341287 -0.000337602 -7.95091e-05
0.00111823 -0.000337998 -0.000334384 -7.95064e-05
0.00186377 -0.000560657 -0.000558477 -4.77274e-05
0.00188182 -0.000566103 -0.00056388 -4.77293e-05
0.00112362 -0.000339642 -0.000335993 -7.95078e-05
0.00149095 -0.000449377 -0.000446389 -6.5609e-05
0.0018728 -0.00056338 -0.000561178 -4.77283e-05
0.00150537 -0.000453745 -0.000450698 -6.56114e-05
0.00149816 -0.000451561 -0.000448543 -6.56102e-05
0.00111823 -0.000337998 -0.000334384 -7.95064e-05
0.00110743 -0.000334709 -0.000331165 -7.95037e-05
0.00184572 -0.000555212 -0.000553074 -4.77255e-05
0.00186377 -0.000560657 -0.000558477 -4.77274e-05
0.00111283 -0.000336353 -0.000332774 -7.95051e-05
0.00147653 -0.000445009 -0.000442079 -6.56066e-05
0.00185474 -0.000557935 -0.000555776 -4.77265e-05
0.00149095 -0.000449377 -0.000446389 -6.5609e-05
0.00148374 -0.000447193 -0.000444234 -6.56078e-05
0.00110743 -0.000334709 -0.000331165 -7.95037e-05
0.00109663 -0.000331421 -0.000327947 -7.9501e-05
0.00182767 -0.000549767 -0.000547672 -4.77237e-05
0.00184572 -0.000555212 -0.000553074 -4.77255e-05
0.00110203 -0.000333065 -0.000329556 -7.95024e-05
0.0014621 -0.000440641 -0.000437769 -6.56042e-05
0.00183669 -0.00055249 -0.000550373 -4.77246e-05
0.00147653 -0.000445009 -0.000442079 -6.56066e-05
0.00146931 -0.000442825 -0.000439924 -6.56054e-05
0.00109663 -0.000331421 -0.000327947 -7.9501e-05
0.00108583 -0.000328133 -0.000324728 -7.94983e-05
0.00180962 -0.000544323 -0.000542269 -4.77218e-05
0.00182767 -0.000549767 -0.000547672 -4.77237e-05
0.00109123 -0.000329777 -0.000326337 -7.94996e-05
0.00144768 -0.000436274 -0.000433459 -6.56018e-05
0.00181864 -0.000547045 -0.00054497 -4.77227e-05
0.0014621 -0.000440641 -0.000437769 -6.56042e-05
0.00145489 -0.000438458 -0.000435614 -6.5603e-05
0.00108583 -0.000328133 -0.000324728 -7.94983e-05
0.00107503 -0.000324846 -0.000321508 -7.94956e-05
0.00179157 -0.000538879 -0.000536866 -4.772e-05
0.00180962 -0.000544323 -0.000542269 -4.77218e-05
0.00108043 -0.00032649 -0.000323118 -7.94969e-05
0.00143325 -0.000431908 -0.000429148 -6.55994e-05
0.00180059 -0.000541601 -0.000539567 -4.77209e-05
0.00144768 -0.000436274 -0.000433459 -6.56018e-05
0.00144047 -0.000434091 -0.000431304 -6.56006e-05
0.00107503 -0.000324846 -0.000321508 -7.94956e-05
0.00106423 -0.000321559 -0.000318289 -7.94929e-05
0.00177351 -0.000533435 -0.000531462 -4.77181e-05
0.00179157 -0.000538879 -0.000536866 -4.772e-05
0.00106963 -0.000323202 -0.000319899 -7.94943e-05
0.00141883 -0.000427541 -0.000424838 -6.55971e-05
0.00178254 -0.000536157 -0.000534164 -4.77191e-05
0.00143325 -0.000431908 -0.000429148 -6.55994e-05
0.00142604 -0.000429725 -0.000426993 -6.55983e-05
0.00106423 -0.000321559 -0.000318289 -7.94929e-05
0.00105343 -0.000318272 -0.000315069 -7.94902e-05
0.00175546 -0.000527991 -0.000526059 -4.77163e-05
0.00177351 -0.000533435 -0.000531462 -4.77181e-05
0.00105883 -0.000319916 -0.000316679 -7.94916e-05
0.00140441 -0.000423175 -0.000420527 -6.55947e-05
0.00176449 -0.000530713 -0.000528761 -4.77172e-05
0.00141883 -0.000427541 -0.000424838 -6.55971e-05
0.00141162 -0.000425358 -0.000422682 -6.55959e-05
0.00105343 -0.000318272 -0.000315069 -7.94902e-05
0.00104263 -0.000314986 -0.000311849 -7.94876e-05
0.00173741 -0.000522548 -0.000520656 -4.77145e-05
0.00175546 -0.000527991 -0.000526059 -4.77163e-05
0.00104803 -0.000316629 -0.000313459 -7.94889e-05
0.00138998 -0.00041881 -0.000416216 -6.55923e-05
0.00174644 -0.00052527 -0.000523358 -4.77154e-05
0.00140441 -0.000423175 -0.000420527 -6.55947e-05
0.00139719 -0.000420993 -0.000418372 -6.55935e-05
0.00104263 -0.000314986 -0.000311849 -7.94876e-05
0.00103183 -0.000311701 -0.000308628 -7.94849e-05
0.00171936 -0.000517105 -0.000515252 -4.77126e-05
0.00173741 -0.000522548 -0.000520656 -4.77145e-05
0.00103723 -0.000313343 -0.000310239 -7.94862e-05
0.00137556 -0.000414445 -0.000411905 -6.559e-05
0.00172839 -0.000519827 -0.000517954 -4.77135e-05
0.00138998 -0.00041881 -0.000416216 -6.55923e-05
0.00138277 -0.000416627 -0.00041406 -6.55912e-05
0.00103183 -0.000311701 -0.000308628 -7.94849e-05
0.00102103 -0.000308415 -0.000305408 -7.94822e-05
0.00170131 -0.000511663 -0.000509849 -4.77108e-05
0.00171936 -0.000517105 -0.000515252 -4.77126e-05
0.00102643 -0.000310058 -0.000307018 -7.94836e-05
0.00136113 -0.00041008 -0.000407593 -6.55876e-05
0.00171034 -0.000514384 -0.000512551 -4.77117e-05
0.00137556 -0.000414445 -0.000411905 -6.559e-05
0.00136834 -0.000412262 -0.000409749 -6.55888e-05
0.00102103 -0.000308415 -0.000305408 -7.94822e-05
0.00101023 -0.00030513 -0.000302187 -7.94796e-05
0.00168326 -0.00050622 -0.000504445 -4.7709e-05
0.00170131 -0.000511663 -0.000509849 -4.77108e-05
0.00101563 -0.000306773 -0.000303797 -7.94809e-05
0.00134671 -0.000405715 -0.000403282 -6.55853e-05
0.00169228 -0.000508941 -0.000507147 -4.77099e-05
0.00136113 -0.00041008 -0.000407593 -6.55876e-05
0.00135392 -0.000407897 -0.000405438 -6.55865e-05
0.00101023 -0.00030513 -0.000302187 -7.94796e-05
0.000999432 -0.000301846 -0.000298965 -7.94769e-05
0.00166521 -0.000500778 -0.000499041 -4.77072e-05
0.00168326 -0.00050622 -0.000504445 -4.7709e-05
0.00100483 -0.000303488 -0.000300576 -7.94783e-05
0.00133228 -0.000401351 -0.00039897 -6.55829e-05
0.00167423 -0.000503499 -0.000501743 -4.77081e-05
0.00134671 -0.000405715 -0.000403282 -6.55853e-05
0.00133949 -0.000403533 -0.000401126 -6.55841e-05
0.000999432 -0.000301846 -0.000298965 -7.94769e-05
0.00098863 -0.000298561 -0.000295744 -7.94743e-05
0.00164716 -0.000495337 -0.000493637 -4.77054e-05
0.00166521 -0.000500778 -0.000499041 -4.77072e-05
0.000994031 -0.000300203 -0.000297355 -7.94756e-05
0.00131786 -0.000396987 -0.000394658 -6.55806e-05
0.00165618 -0.000498057 -0.000496339 -4.77063e-05
0.00133228 -0.000401351 -0.00039897 -6.55829e-05
0.00132507 -0.000399169 -0.000396814 -6.55818e-05
0.00098863 -0.000298561 -0.000295744 -7.94743e-05
0.000977829 -0.000295278 -0.000292522 -7.94717e-05
0.00162911 -0.000489895 -0.000488233 -4.77036e-05
0.00164716 -0.000495337 -0.000493637 -4.77054e-05
0.00098323 -0.000296919 -0.000294133 -7.9473e-05
0.00130343 -0.000392624 -0.000390346 -6.55783e-05
0.00163813 -0.000492616 -0.000490935 -4.77045e-05
0.00131786 -0.000396987 -0.000394658 -6.55806e-05
0.00131064 -0.000394805 -0.000392502 -6.55795e-05
0.000977829 -0.000295278 -0.000292522 -7.94717e-05
0.000967027 -0.000291994 -0.0002893 -7.94691e-05
0.00161106 -0.000484454 -0.000482829 -4.77018e-05
0.00162911 -0.000489895 -0.000488233 -4.77036e-05
0.000972428 -0.000293636 -0.000290911 -7.94704e-05
0.001289 -0.000388261 -0.000386033 -6.5576e-05
0.00162008 -0.000487175 -0.000485531 -4.77027e-05
0.00130343 -0.000392624 -0.000390346 -6.55783e-05
0.00129622 -0.000390442 -0.000388189 -6.55772e-05
0.000967027 -0.000291994 -0.0002893 -7.94691e-05
0.000956225 -0.000288711 -0.000286077 -7.94665e-05
0.001593 -0.000479013 -0.000477425 -4.77e-05
0.00161106 -0.000484454 -0.000482829 -4.77018e-05
0.000961626 -0.000290353 -0.000287689 -7.94678e-05
0.00127458 -0.000383898 -0.000381721 -6.55737e-05
0.00160203 -0.000481734 -0.000480127 -4.77009e-05
0.001289 -0.000388261 -0.000386033 -6.5576e-05
0.00128179 -0.000386079 -0.000383877 -6.55748e-05
0.000956225 -0.000288711 -0.000286077 -7.94665e-05
0.000945422 -0.000285428 -0.000282855 -7.94639e-05
0.00157495 -0.000473573 -0.00047202 -4.76982e-05
0.001593 -0.000479013 -0.000477425 -4.77e-05
0.000950824 -0.00028707 -0.000284466 -7.94652e-05
0.00126015 -0.000379536 -0.000377408 -6.55714e-05
0.00158398 -0.000476293 -0.000474723 -4.76991e-05
0.00127458 -0.000383898 -0.000381721 -6.55737e-05
0.00126737 -0.000381717 -0.000379564 -6.55726e-05
0.000945422 -0.000285428 -0.000282855 -7.94639e-05
0.00093462 -0.000282146 -0.000279631 -7.94613e-05
0.0015569 -0.000468132 -0.000466616 -4.76965e-05
0.00157495 -0.000473573 -0.00047202 -4.76982e-05
0.000940021 -0.000283787 -0.000281243 -7.94626e-05
0.00124573 -0.000375173 -0.000373095 -6.55691e-05
0.00156593 -0.000470852 -0.000469318 -4.76973e-05
0.00126015 -0.000379536 -0.000377408 -6.55714e-05
0.00125294 -0.000377354 -0.000375251 -6.55703e-05
0.00093462 -0.000282146 -0.000279631 -7.94613e-05
0.000923816 -0.000278864 -0.000276408 -7.94588e-05
0.00153885 -0.000462692 -0.000461211 -4.76947e-05
0.0015569 -0.000468132 -0.000466616 -4.76965e-05
0.000929218 -0.000280505 -0.00027802 -7.94601e-05
0.0012313 -0.000370812 -0.000368781 -6.55669e-05
0.00154788 -0.000465412 -0.000463914 -4.76956e-05
0.00124573 -0.000375173 -0.000373095 -6.55691e-05
0.00123851 -0.000372993 -0.000370938 -6.5568e-05
0.000923816 -0.000278864 -0.000276408 -7.94588e-05
0.000913013 -0.000275583 -0.000273184 -7.94562e-05
0.0015208 -0.000457253 -0.000455807 -4.76929e-05
0.00153885 -0.000462692 -0.000461211 -4.76947e-05
0.000918415 -0.000277224 -0.000274796 -7.94575e-05
0.00121688 -0.00036645 -0.000364468 -6.55646e-05
0.00152983 -0.000459973 -0.000458509 -4.76938e-05
0.0012313 -0.000370812 -0.000368781 -6.55669e-05
0.00122409 -0.000368631 -0.000366624 -6.55657e-05
0.000913013 -0.000275583 -0.000273184 -7.94562e-05
0.000902209 -0.000272302 -0.00026996 -7.94537e-05
0.00150275 -0.000451813 -0.000450402 -4.76912e-05
0.0015208 -0.000457253 -0.000455807 -4.76929e-05
0.000907611 -0.000273942 -0.000271572 -7.9455e-05
0.00120245 -0.000362089 -0.000360154 -6.55624e-05
0.00151178 -0.000454533 -0.000453104 -4.76921e-05
0.00121688 -0.00036645 -0.000364468 -6.55646e-05
0.00120966 -0.00036427 -0.000362311 -6.55635e-05
0.000902209 -0.000272302 -0.00026996 -7.94537e-05
0.000891405 -0.000269021 -0.000266736 -7.94512e-05
0.0014847 -0.000446374 -0.000444997 -4.76894e-05
0.00150275 -0.000451813 -0.000450402 -4.76912e-05
0.000896807 -0.000270661 -0.000268348 -7.94524e-05
0.00118802 -0.000357729 -0.00035584 -6.55601e-05
0.00149373 -0.000449094 -0.000447699 -4.76903e-05
0.00120245 -0.000362089 -0.000360154 -6.55624e-05
0.00119524 -0.000359909 -0.000357997 -6.55612e-05
0.000891405 -0.000269021 -0.000266736 -7.94512e-05
0.000880601 -0.000265741 -0.000263512 -7.94487e-05
0.00146665 -0.000440936 -0.000439592 -4.76877e-05
0.0014847 -0.000446374 -0.000444997 -4.76894e-05
0.000886003 -0.000267381 -0.000265124 -7.94499e-05
0.0011736 -0.000353368 -0.000351526 -6.55579e-05
0.00147567 -0.000443655 -0.000442294 -4.76886e-05
0.00118802 -0.000357729 -0.00035584 -6.55601e-05
0.00118081 -0.000355549 -0.000353683 -6.5559e-05
0.000880601 -0.000265741 -0.000263512 -7.94487e-05
0.000869796 -0.000262461 -0.000260287 -7.94462e-05
0.0014486 -0.000435497 -0.000434186 -4.7686e-05
0.00146665 -0.000440936 -0.000439592 -4.76877e-05
0.000875199 -0.000264101 -0.000261899 -7.94474e-05
0.00115917 -0.000349008 -0.000347211 -6.55557e-05
0.00145762 -0.000438216 -0.000436889 -4.76868e-05
0.0011736 -0.000353368 -0.000351526 -6.55579e-05
0.00116638 -0.000351188 -0.000349369 -6.55568e-05
0.000869796 -0.000262461 -0.000260287 -7.94462e-05
0.000858991 -0.000259181 -0.000257062 -7.94437e-05
0.00143055 -0.000430059 -0.000428781 -4.76843e-05
0.0014486 -0.000435497 -0.000434186 -4.7686e-05
0.000864394 -0.000260821 -0.000258674 -7.9445e-05
0.00114474 -0.000344649 -0.000342897 -6.55535e-05
0.00143957 -0.000432778 -0.000431484 -4.76851e-05
0.00115917 -0.000349008 -0.000347211 -6.55557e-05
0.00115195 -0.000346829 -0.000345054 -6.55546e-05
0.000858991 -0.000259181 -0.000257062 -7.94437e-05
0.000848186 -0.000255902 -0.000253836 -7.94413e-05
0.0014125 -0.000424621 -0.000423376 -4.76826e-05
0.00143055 -0.000430059 -0.000428781 -4.76843e-05
0.000853589 -0.000257542 -0.000255449 -7.94425e-05
0.00113031 -0.00034029 -0.000338582 -6.55513e-05
0.00142152 -0.00042734 -0.000426078 -4.76834e-05
0.00114474 -0.000344649 -0.000342897 -6.55535e-05
0.00113753 -0.000342469 -0.000340739 -6.55524e-05
0.000848186 -0.000255902 -0.000253836 -7.94413e-05
0.00083738 -0.000252623 -0.00025061 -7.94388e-05
0.00139445 -0.000419183 -0.00041797 -4.76809e-05
0.0014125 -0.000424621 -0.000423376 -4.76826e-05
0.000842783 -0.000254263 -0.000252223 -7.944e-05
0.00111589 -0.000335931 -0.000334267 -6.55491e-05
0.00140347 -0.000421902 -0.000420673 -4.76817e-05
0.00113031 -0.00034029 -0.000338582 -6.55513e-05
0.0011231 -0.00033811 -0.000336424 -6.55502e-05
0.00083738 -0.000252623 -0.00025061 -7.94388e-05
0.000826575 -0.000249345 -0.000247384 -7.94364e-05
0.0013764 -0.000413746 -0.000412564 -4.76792e-05
0.00139445 -0.000419183 -0.00041797 -4.76809e-05
0.000831978 -0.000250984 -0.000248997 -7.94376e-05
0.00110146 -0.000331572 -0.000329951 -6.5547e-05
0.00138542 -0.000416465 -0.000415267 -4.768e-05
0.00111589 -0.000335931 -0.000334267 -6.55491e-05
0.00110867 -0.000333751 -0.000332109 -6.5548e-05
0.000826575 -0.000249345 -0.000247384 -7.94364e-05
0.000815768 -0.000246067 -0.000244158 -7.9434e-05
0.00135835 -0.000408309 -0.000407158 -4.76775e-05
0.0013764 -0.000413746 -0.000412564 -4.76792e-05
0.000821171 -0.000247706 -0.000245771 -7.94352e-05
0.00108703 -0.000327214 -0.000325636 -6.55448e-05
0.00136737 -0.000411027 -0.000409861 -4.76783e-05
0.00110146 -0.000331572 -0.000329951 -6.5547e-05
0.00109424 -0.000329393 -0.000327794 -6.55459e-05
0.000815768 -0.000246067 -0.000244158 -7.9434e-05
0.000804962 -0.000242789 -0.000240931 -7.94316e-05
0.00134029 -0.000402872 -0.000401752 -4.76758e-05
0.00135835 -0.000408309 -0.000407158 -4.76775e-05
0.000810365 -0.000244428 -0.000242544 -7.94328e-05
0.0010726 -0.000322856 -0.00032132 -6.55427e-05
0.00134932 -0.000405591 -0.000404455 -4.76767e-05
0.00108703 -0.000327214 -0.000325636 -6.55448e-05
0.00107982 -0.000325035 -0.000323478 -6.55437e-05
0.000804962 -0.000242789 -0.000240931 -7.94316e-05
0.000794155 -0.000239512 -0.000237704 -7.94292e-05
0.00132224 -0.000397436 -0.000396346 -4.76742e-05
0.00134029 -0.000402872 -0.000401752 -4.76758e-05
0.000799558 -0.00024115 -0.000239318 -7.94304e-05
0.00105817 -0.000318498 -0.000317004 -6.55405e-05
0.00133127 -0.000400154 -0.000399049 -4.7675e-05
0.0010726 -0.000322856 -0.00032132 -6.55427e-05
0.00106539 -0.000320677 -0.000319162 -6.55416e-05
0.000794155 -0.000239512 -0.000237704 -7.94292e-05
0.000783347 -0.000236235 -0.000234477 -7.94268e-05
0.00130419 -0.000392 -0.00039094 -4.76725e-05
0.00132224 -0.000397436 -0.000396346 -4.76742e-05
0.000788751 -0.000237873 -0.000236091 -7.9428e-05
0.00104375 -0.000314141 -0.000312688 -6.55384e-05
0.00131322 -0.000394718 -0.000393643 -4.76734e-05
0.00105817 -0.000318498 -0.000317004 -6.55405e-05
0.00105096 -0.00031632 -0.000314846 -6.55395e-05
0.000783347 -0.000236235 -0.000234477 -7.94268e-05
0.00077254 -0.000232958 -0.000231249 -7.94245e-05
0.00128614 -0.000386564 -0.000385534 -4.76709e-05
0.00130419 -0.000392 -0.00039094 -4.76725e-05
0.000777944 -0.000234597 -0.000232863 -7.94256e-05
0.00102932 -0.000309784 -0.000308372 -6.55363e-05
0.00129517 -0.000389282 -0.000388237 -4.76717e-05
0.00104375 -0.000314141 -0.000312688 -6.55384e-05
0.00103653 -0.000311963 -0.00031053 -6.55374e-05
0.00077254 -0.000232958 -0.000231249 -7.94245e-05
0.000761732 -0.000229682 -0.000228021 -7.94221e-05
0.00126809 -0.000381128 -0.000380127 -4.76693e-05
0.00128614 -0.000386564 -0.000385534 -4.76709e-05
0.000767136 -0.00023132 -0.000229635 -7.94233e-05
0.00101489 -0.000305428 -0.000304055 -6.55343e-05
0.00127712 -0.000383846 -0.00038283 -4.76701e-05
0.00102932 -0.000309784 -0.000308372 -6.55363e-05
0.0010221 -0.000307606 -0.000306213 -6.55353e-05
0.000761732 -0.000229682 -0.000228021 -7.94221e-05
0.000750924 -0.000226406 -0.000224793 -7.94198e-05
0.00125004 -0.000375693 -0.000374721 -4.76677e-05
0.00126809 -0.000381128 -0.000380127 -4.76693e-05
0.000756328 -0.000228044 -0.000226407 -7.9421e-05
0.00100046 -0.000301072 -0.000299738 -6.55322e-05
0.00125907 -0.00037841 -0.000377424 -4.76685e-05
0.00101489 -0.000305428 -0.000304055 -6.55343e-05
0.00100767 -0.00030325 -0.000301897 -6.55332e-05
0.000750924 -0.000226406 -0.000224793 -7.94198e-05
0.000740115 -0.000223131 -0.000221565 -7.94175e-05
0.00123199 -0.000370258 -0.000369314 -4.7666e-05
0.00125004 -0.000375693 -0.000374721 -4.76677e-05
0.000745519 -0.000224769 -0.000223179 -7.94187e-05
0.000986031 -0.000296716 -0.000295421 -6.55302e-05
0.00124102 -0.000372975 -0.000372017 -4.76668e-05
0.00100046 -0.000301072 -0.000299738 -6.55322e-05
0.000993246 -0.000298894 -0.00029758 -6.55312e-05
0.000740115 -0.000223131 -0.000221565 -7.94175e-05
0.000729306 -0.000219856 -0.000218336 -7.94153e-05
0.00121394 -0.000364823 -0.000363907 -4.76645e-05
0.00123199 -0.000370258 -0.000369314 -4.7666e-05
0.000734711 -0.000221494 -0.00021995 -7.94164e-05
0.000971602 -0.00029236 -0.000291104 -6.55281e-05
0.00122296 -0.00036754 -0.00036661 -4.76652e-05
0.000986031 -0.000296716 -0.000295421 -6.55302e-05
0.000978817 -0.000294538 -0.000293262 -6.55291e-05
0.000729306 -0.000219856 -0.000218336 -7.94153e-05
0.000718497 -0.000216581 -0.000215107 -7.9413e-05
0.00119589 -0.000359388 -0.0003585 -4.76629e-05
0.00121394 -0.000364823 -0.000363907 -4.76645e-05
0.000723901 -0.000218219 -0.000216721 -7.94141e-05
0.000957172 -0.000288005 -0.000286786 -6.55261e-05
0.00120491 -0.000362105 -0.000361203 -4.76637e-05
0.000971602 -0.00029236 -0.000291104 -6.55281e-05
0.000964387 -0.000290182 -0.000288945 -6.55271e-05
0.000718497 -0.000216581 -0.000215107 -7.9413e-05
0.000707687 -0.000213307 -0.000211877 -7.94108e-05
0.00117784 -0.000353954 -0.000353093 -4.76613e-05
0.00119589 -0.000359388 -0.0003585 -4.76629e-05
0.000713092 -0.000214944 -0.000213492 -7.94119e-05
0.000942743 -0.00028365 -0.000282468 -6.55241e-05
0.00118686 -0.000356671 -0.000355796 -4.76621e-05
0.000957172 -0.000288005 -0.000286786 -6.55261e-05
0.000949958 -0.000285827 -0.000284627 -6.55251e-05
0.000707687 -0.000213307 -0.000211877 -7.94108e-05
0.000696877 -0.000210033 -0.000208647 -7.94085e-05
0.00115979 -0.00034852 -0.000347685 -4.76597e-05
0.00117784 -0.000353954 -0.000353093 -4.76613e-05
0.000702282 -0.00021167 -0.000210262 -7.94097e-05
0.000928313 -0.000279295 -0.00027815 -6.55221e-05
0.00116881 -0.000351237 -0.000350389 -4.76605e-05
0.000942743 -0.00028365 -0.000282468 -6.55241e-05
0.000935528 -0.000281473 -0.000280309 -6.55231e-05
0.000696877 -0.000210033 -0.000208647 -7.94085e-05
0.000686067 -0.00020676 -0.000205417 -7.94063e-05
0.00114173 -0.000343086 -0.000342278 -4.76582e-05
0.00115979 -0.00034852 -0.000347685 -4.76597e-05
0.000691472 -0.000208396 -0.000207032 -7.94074e-05
0.000913882 -0.000274941 -0.000273832 -6.55201e-05
0.00115076 -0.000345803 -0.000344982 -4.7659e-05
0.000928313 -0.000279295 -0.00027815 -6.55221e-05
0.000921098 -0.000277118 -0.000275991 -6.55211e-05
0.000686067 -0.00020676 -0.000205417 -7.94063e-05
0.000675256 -0.000203487 -0.000202187 -7.94042e-05
0.00112368 -0.000337653 -0.00033687 -4.76567e-05
0.00114173 -0.000343086 -0.000342278 -4.76582e-05
0.000680661 -0.000205123 -0.000203802 -7.94053e-05
0.000899452 -0.000270587 -0.000269513 -6.55182e-05
0.00113271 -0.000340369 -0.000339574 -4.76574e-05
0.000913882 -0.000274941 -0.000273832 -6.55201e-05
0.000906667 -0.000272764 -0.000271673 -6.55192e-05
0.000675256 -0.000203487 -0.000202187 -7.94042e-05
0.000664445 -0.000200214 -0.000198956 -7.9402e-05
0.00110563 -0.00033222 -0.000331463 -4.76551e-05
0.00112368 -0.000337653 -0.00033687 -4.76567e-05
0.00066985 -0.00020185 -0.000200572 -7.94031e-05
0.000885021 -0.000266234 -0.000265195 -6.55162e-05
0.00111466 -0.000334936 -0.000334166 -4.76559e-05
0.000899452 -0.000270587 -0.000269513 -6.55182e-05
0.000892237 -0.000268411 -0.000267354 -6.55172e-05
0.000664445 -0.000200214 -0.000198956 -7.9402e-05
0.000653633 -0.000196941 -0.000195725 -7.93999e-05
0.00108758 -0.000326787 -0.000326055 -4.76536e-05
0.00110563 -0.00033222 -0.000331463 -4.76551e-05
0.000659039 -0.000198578 -0.000197341 -7.94009e-05
0.000870591 -0.000261881 -0.000260876 -6.55143e-05
0.00109661 -0.000329503 -0.000328759 -4.76544e-05
0.000885021 -0.000266234 -0.000265195 -6.55162e-05
0.000877806 -0.000264057 -0.000263035 -6.55153e-05
0.000653633 -0.000196941 -0.000195725 -7.93999e-05
0.000642822 -0.000193669 -0.000192494 -7.93978e-05
0.00106953 -0.000321354 -0.000320647 -4.76521e-05
0.00108758 -0.000326787 -0.000326055 -4.76536e-05
0.000648228 -0.000195305 -0.00019411 -7.93988e-05
0.00085616 -0.000257528 -0.000256556 -6.55124e-05
0.00107856 -0.00032407 -0.000323351 -4.76529e-05
0.000870591 -0.000261881 -0.000260876 -6.55143e-05
0.000863375 -0.000259704 -0.000258716 -6.55134e-05
0.000642822 -0.000193669 -0.000192494 -7.93978e-05
0.000632009 -0.000190398 -0.000189262 -7.93957e-05
0.00105148 -0.000315922 -0.000315238 -4.76506e-05
0.00106953 -0.000321354 -0.000320647 -4.76521e-05
0.000637415 -0.000192033 -0.000190878 -7.93967e-05
0.000841728 -0.000253175 -0.000252237 -6.55105e-05
0.0010605 -0.000318638 -0.000317943 -4.76514e-05
0.00085616 -0.000257528 -0.000256556 -6.55124e-05
0.000848944 -0.000255351 -0.000254397 -6.55115e-05
0.000632009 -0.000190398 -0.000189262 -7.93957e-05
0.000621197 -0.000187126 -0.00018603 -7.93936e-05
0.00103343 -0.000310489 -0.00030983 -4.76492e-05
0.00105148 -0.000315922 -0.000315238 -4.76506e-05
0.000626603 -0.000188762 -0.000187646 -7.93946e-05
0.000827297 -0.000248823 -0.000247917 -6.55087e-05
0.00104245 -0.000313205 -0.000312534 -4.76499e-05
0.000841728 -0.000253175 -0.000252237 -6.55105e-05
0.000834512 -0.000250999 -0.000250077 -6.55096e-05
0.000621197 -0.000187126 -0.00018603 -7.93936e-05
0.000610384 -0.000183855 -0.000182798 -7.93915e-05
0.00101537 -0.000305058 -0.000304422 -4.76477e-05
0.00103343 -0.000310489 -0.00030983 -4.76492e-05
0.00061579 -0.000185491 -0.000184414 -7.93926e-05
0.000812865 -0.000244471 -0.000243597 -6.55068e-05
0.0010244 -0.000307773 -0.000307126 -4.76484e-05
0.000827297 -0.000248823 -0.000247917 -6.55087e-05
0.000820081 -0.000246647 -0.000245757 -6.55077e-05
0.000610384 -0.000183855 -0.000182798 -7.93915e-05
0.00059957 -0.000180585 -0.000179565 -7.93895e-05
0.000997323 -0.000299626 -0.000299013 -4.76462e-05
0.00101537 -0.000305058 -0.000304422 -4.76477e-05
0.000604977 -0.00018222 -0.000181182 -7.93905e-05
0.000798433 -0.000240119 -0.000239277 -6.5505e-05
0.00100635 -0.000302342 -0.000301717 -4.7647e-05
0.000812865 -0.000244471 -0.000243597 -6.55068e-05
0.000805649 -0.000242295 -0.000241437 -6.55059e-05
0.00059957 -0.000180585 -0.000179565 -7.93895e-05
0.000588757 -0.000177315 -0.000176332 -7.93875e-05
0.000979271 -0.000294195 -0.000293604 -4.76448e-05
0.000997323 -0.000299626 -0.000299013 -4.76462e-05
0.000594164 -0.00017895 -0.000177949 -7.93885e-05
0.000784 -0.000235768 -0.000234957 -6.55032e-05
0.000988297 -0.00029691 -0.000296309 -4.76455e-05
0.000798433 -0.000240119 -0.000239277 -6.5505e-05
0.000791217 -0.000237944 -0.000237117 -6.55041e-05
0.000588757 -0.000177315 -0.000176332 -7.93875e-05
0.000577943 -0.000174045 -0.000173099 -7.93855e-05
0.000961219 -0.000288763 -0.000288195 -4.76434e-05
0.000979271 -0.000294195 -0.000293604 -4.76448e-05
0.00058335 -0.00017568 -0.000174716 -7.93865e-05
0.000769568 -0.000231417 -0.000230636 -6.55014e-05
0.000970245 -0.000291479 -0.0002909 -4.76441e-05
0.000784 -0.000235768 -0.000234957 -6.55032e-05
0.000776784 -0.000233592 -0.000232796 -6.55023e-05
0.000577943 -0.000174045 -0.000173099 -7.93855e-05
0.000567128 -0.000170775 -0.000169866 -7.93835e-05
0.000943167 -0.000283333 -0.000282786 -4.7642e-05
0.000961219 -0.000288763 -0.000288195 -4.76434e-05
0.000572535 -0.00017241 -0.000171482 -7.93845e-05
0.000755135 -0.000227066 -0.000226315 -6.54996e-05
0.000952193 -0.000286048 -0.000285491 -4.76427e-05
0.000769568 -0.000231417 -0.000230636 -6.55014e-05
0.000762352 -0.000229242 -0.000228476 -6.55005e-05
0.000567128 -0.000170775 -0.000169866 -7.93835e-05
0.000556313 -0.000167506 -0.000166632 -7.93816e-05
0.000925115 -0.000277902 -0.000277377 -4.76406e-05
0.000943167 -0.000283333 -0.000282786 -4.7642e-05
0.000561721 -0.000169141 -0.000168249 -7.93826e-05
0.000740702 -0.000222716 -0.000221994 -6.54978e-05
0.000934141 -0.000280617 -0.000280081 -4.76413e-05
0.000755135 -0.000227066 -0.000226315 -6.54996e-05
0.000747919 -0.000224891 -0.000224155 -6.54987e-05
0.000556313 -0.000167506 -0.000166632 -7.93816e-05
0.000545498 -0.000164237 -0.000163397 -7.93797e-05
0.000907062 -0.000272472 -0.000271967 -4.76392e-05
0.000925115 -0.000277902 -0.000277377 -4.76406e-05
0.000550906 -0.000165872 -0.000165015 -7.93806e-05
0.000726269 -0.000218366 -0.000217673 -6.54961e-05
0.000916088 -0.000275187 -0.000274672 -4.76399e-05
0.000740702 -0.000222716 -0.000221994 -6.54978e-05
0.000733485 -0.000220541 -0.000219833 -6.54969e-05
0.000545498 -0.000164237 -0.000163397 -7.93797e-05
0.000534682 -0.000160969 -0.000160163 -7.93778e-05
0.00088901 -0.000267042 -0.000266558 -4.76378e-05
0.000907062 -0.000272472 -0.000271967 -4.76392e-05
0.00054009 -0.000162603 -0.00016178 -7.93787e-05
0.000711835 -0.000214016 -0.000213351 -6.54944e-05
0.000898036 -0.000269757 -0.000269263 -4.76385e-05
0.000726269 -0.000218366 -0.000217673 -6.54961e-05
0.000719052 -0.000216191 -0.000215512 -6.54952e-05
0.000534682 -0.000160969 -0.000160163 -7.93778e-05
0.000523866 -0.000157701 -0.000156928 -7.93759e-05
0.000870957 -0.000261612 -0.000261148 -4.76365e-05
0.00088901 -0.000267042 -0.000266558 -4.76378e-05
0.000529274 -0.000159335 -0.000158546 -7.93768e-05
0.000697401 -0.000209667 -0.000209029 -6.54927e-05
0.000879983 -0.000264327 -0.000263853 -4.76372e-05
0.000711835 -0.000214016 -0.000213351 -6.54944e-05
0.000704618 -0.000211842 -0.00021119 -6.54935e-05
0.000523866 -0.000157701 -0.000156928 -7.93759e-05
0.00051305 -0.000154433 -0.000153693 -7.9374e-05
0.000852904 -0.000256182 -0.000255738 -4.76352e-05
0.000870957 -0.000261612 -0.000261148 -4.76365e-05
0.000518458 -0.000156067 -0.000155311 -7.9375e-05
0.000682967 -0.000205318 -0.000204707 -6.5491e-05
0.000861931 -0.000258897 -0.000258443 -4.76358e-05
0.000697401 -0.000209667 -0.000209029 -6.54927e-05
0.000690184 -0.000207492 -0.000206868 -6.54918e-05
0.00051305 -0.000154433 -0.000153693 -7.9374e-05
0.000502233 -0.000151166 -0.000150457 -7.93722e-05
0.000834852 -0.000250753 -0.000250328 -4.76338e-05
0.000852904 -0.000256182 -0.000255738 -4.76352e-05
0.000507641 -0.000152799 -0.000152075 -7.93731e-05
0.000668532 -0.000200969 -0.000200384 -6.54893e-05
0.000843878 -0.000253467 -0.000253033 -4.76345e-05
0.000682967 -0.000205318 -0.000204707 -6.5491e-05
0.00067575 -0.000203143 -0.000202546 -6.54901e-05
0.000502233 -0.000151166 -0.000150457 -7.93722e-05
0.000491416 -0.000147899 -0.000147222 -7.93704e-05
0.000816798 -0.000245324 -0.000244918 -4.76325e-05
0.000834852 -0.000250753 -0.000250328 -4.76338e-05
0.000496824 -0.000149532 -0.000148839 -7.93713e-05
0.000654098 -0.000196621 -0.000196062 -6.54877e-05
0.000825825 -0.000248038 -0.000247623 -4.76332e-05
0.000668532 -0.000200969 -0.000200384 -6.54893e-05
0.000661315 -0.000198795 -0.000198223 -6.54885e-05
0.000491416 -0.000147899 -0.000147222 -7.93704e-05
0.000480598 -0.000144632 -0.000143985 -7.93686e-05
0.000798745 -0.000239895 -0.000239507 -4.76312e-05
0.000816798 -0.000245324 -0.000244918 -4.76325e-05
0.000486007 -0.000146265 -0.000145603 -7.93695e-05
0.000639663 -0.000192272 -0.000191739 -6.5486e-05
0.000807772 -0.000242609 -0.000242213 -4.76319e-05
0.000654098 -0.000196621 -0.000196062 -6.54877e-05
0.00064688 -0.000194446 -0.0001939 -6.54868e-05
0.000480598 -0.000144632 -0.000143985 -7.93686e-05
0.00046978 -0.000141366 -0.000140749 -7.93669e-05
0.000780692 -0.000234466 -0.000234097 -4.76299e-05
0.000798745 -0.000239895 -0.000239507 -4.76312e-05
0.000475189 -0.000142999 -0.000142367 -7.93678e-05
0.000625227 -0.000187925 -0.000187416 -6.54844e-05
0.000789719 -0.00023718 -0.000236802 -4.76306e-05
0.000639663 -0.000192272 -0.000191739 -6.5486e-05
0.000632445 -0.000190098 -0.000189577 -6.54852e-05
0.00046978 -0.000141366 -0.000140749 -7.93669e-05
0.000458961 -0.0001381 -0.000137512 -7.93652e-05
0.000762638 -0.000229038 -0.000228686 -4.76287e-05
0.000780692 -0.000234466 -0.000234097 -4.76299e-05
0.000464371 -0.000139733 -0.00013913 -7.9366e-05
0.000610792 -0.000183577 -0.000183092 -6.54828e-05
0.000771665 -0.000231752 -0.000231391 -4.76293e-05
0.000625227 -0.000187925 -0.000187416 -6.54844e-05
0.00061801 -0.000185751 -0.000185254 -6.54836e-05
0.000458961 -0.0001381 -0.000137512 -7.93652e-05
0.000448142 -0.000134834 -0.000134275 -7.93634e-05
0.000744585 -0.00022361 -0.000223275 -4.76274e-05
0.000762638 -0.000229038 -0.000228686 -4.76287e-05
0.000453552 -0.000136467 -0.000135893 -7.93643e-05
0.000596356 -0.00017923 -0.000178768 -6.54813e-05
0.000753612 -0.000226324 -0.000225981 -4.7628e-05
0.000610792 -0.000183577 -0.000183092 -6.54828e-05
0.000603574 -0.000181403 -0.00018093 -6.54821e-05
0.000448142 -0.000134834 -0.000134275 -7.93634e-05
0.000437323 -0.000131569 -0.000131037 -7.93618e-05
0.000726531 -0.000218182 -0.000217864 -4.76262e-05
0.000744585 -0.00022361 -0.000223275 -4.76274e-05
0.000442733 -0.000133202 -0.000132656 -7.93626e-05
0.000581919 -0.000174883 -0.000174444 -6.54797e-05
0.000735558 -0.000220896 -0.00022057 -4.76268e-05
0.000596356 -0.00017923 -0.000178768 -6.54813e-05
0.000589138 -0.000177056 -0.000176606 -6.54805e-05
0.000437323 -0.000131569 -0.000131037 -7.93618e-05
0.000426503 -0.000128304 -0.0001278 -7.93601e-05
0.000708477 -0.000212754 -0.000212453 -4.7625e-05
0.000726531 -0.000218182 -0.000217864 -4.76262e-05
0.000431913 -0.000129937 -0.000129418 -7.93609e-05
0.000567483 -0.000170536 -0.00017012 -6.54782e-05
0.000717504 -0.000215468 -0.000215158 -4.76256e-05
0.000581919 -0.000174883 -0.000174444 -6.54797e-05
0.000574701 -0.000172709 -0.000172282 -6.5479e-05
0.000426503 -0.000128304 -0.0001278 -7.93601e-05
0.000415683 -0.00012504 -0.000124561 -7.93585e-05
0.000690423 -0.000207326 -0.000207041 -4.76238e-05
0.000708477 -0.000212754 -0.000212453 -4.7625e-05
0.000421093 -0.000126672 -0.00012618 -7.93593e-05
0.000553046 -0.00016619 -0.000165796 -6.54767e-05
0.00069945 -0.00021004 -0.000209747 -4.76244e-05
0.000567483 -0.000170536 -0.00017012 -6.54782e-05
0.000560264 -0.000168363 -0.000167958 -6.54775e-05
0.000415683 -0.00012504 -0.000124561 -7.93585e-05
0.000404862 -0.000121775 -0.000121323 -7.93569e-05
0.000672368 -0.000201899 -0.00020163 -4.76226e-05
0.000690423 -0.000207326 -0.000207041 -4.76238e-05
0.000410273 -0.000123408 -0.000122942 -7.93577e-05
0.000538609 -0.000161844 -0.000161471 -6.54752e-05
0.000681395 -0.000204613 -0.000204335 -4.76232e-05
0.000553046 -0.00016619 -0.000165796 -6.54767e-05
0.000545827 -0.000164017 -0.000163633 -6.5476e-05
0.000404862 -0.000121775 -0.000121323 -7.93569e-05
0.000394041 -0.000118512 -0.000118084 -7.93553e-05
0.000654313 -0.000196472 -0.000196218 -4.76214e-05
0.000672368 -0.000201899 -0.00020163 -4.76226e-05
0.000399452 -0.000120144 -0.000119703 -7.93561e-05
0.000524171 -0.000157498 -0.000157146 -6.54738e-05
0.000663341 -0.000199186 -0.000198924 -4.7622e-05
0.000538609 -0.000161844 -0.000161471 -6.54752e-05
0.00053139 -0.000159671 -0.000159308 -6.54745e-05
0.000394041 -0.000118512 -0.000118084 -7.93553e-05
0.000383219 -0.000115248 -0.000114845 -7.93537e-05
0.000636259 -0.000191045 -0.000190806 -4.76202e-05
0.000654313 -0.000196472 -0.000196218 -4.76214e-05
0.00038863 -0.00011688 -0.000116464 -7.93545e-05
0.000509733 -0.000153152 -0.00015282 -6.54723e-05
0.000645286 -0.000193759 -0.000193512 -4.76208e-05
0.000524171 -0.000157498 -0.000157146 -6.54738e-05
0.000516952 -0.000155325 -0.000154983 -6.5473e-05
0.000383219 -0.000115248 -0.000114845 -7.93537e-05
0.000372397 -0.000111985 -0.000111605 -7.93522e-05
0.000618204 -0.000185619 -0.000185393 -4.76191e-05
0.000636259 -0.000191045 -0.000190806 -4.76202e-05
0.000377809 -0.000113617 -0.000113225 -7.9353e-05
0.000495295 -0.000148807 -0.000148495 -6.54709e-05
0.000627231 -0.000188332 -0.0001881 -4.76196e-05
0.000509733 -0.000153152 -0.00015282 -6.54723e-05
0.000502514 -0.00015098 -0.000150658 -6.54716e-05
0.000372397 -0.000111985 -0.000111605 -7.93522e-05
0.000361575 -0.000108722 -0.000108365 -7.93507e-05
0.000600148 -0.000180192 -0.000179981 -4.7618e-05
0.000618204 -0.000185619 -0.000185393 -4.76191e-05
0.000366986 -0.000110354 -0.000109985 -7.93515e-05
0.000480857 -0.000144462 -0.000144169 -6.54695e-05
0.000609176 -0.000182906 -0.000182687 -4.76185e-05
0.000495295 -0.000148807 -0.000148495 -6.54709e-05
0.000488076 -0.000146635 -0.000146332 -6.54702e-05
0.000361575 -0.000108722 -0.000108365 -7.93507e-05
0.000350752 -0.00010546 -0.000105125 -7.93493e-05
0.000582093 -0.000174766 -0.000174568 -4.76168e-05
0.000600148 -0.000180192 -0.000179981 -4.7618e-05
0.000356164 -0.000107091 -0.000106745 -7.935e-05
0.000466418 -0.000140118 -0.000139843 -6.54682e-05
0.000591121 -0.000177479 -0.000177275 -4.76174e-05
0.000480857 -0.000144462 -0.000144169 -6.54695e-05
0.000473637 -0.00014229 -0.000142006 -6.54688e-05
0.000350752 -0.00010546 -0.000105125 -7.93493e-05
0.000339929 -0.000102198 -0.000101885 -7.93478e-05
0.000564037 -0.00016934 -0.000169156 -4.76158e-05
0.000582093 -0.000174766 -0.000174568 -4.76168e-05
0.00034534 -0.000103829 -0.000103505 -7.93485e-05
0.000451978 -0.000135773 -0.000135516 -6.54668e-05
0.000573065 -0.000172053 -0.000171862 -4.76163e-05
0.000466418 -0.000140118 -0.000139843 -6.54682e-05
0.000459198 -0.000137946 -0.00013768 -6.54675e-05
0.000339929 -0.000102198 -0.000101885 -7.93478e-05
0.000329105 -9.89358e-05 -9.86439e-05 -7.93464e-05
0.000545981 -0.000163915 -0.000163743 -4.76147e-05
0.000564037 -0.00016934 -0.000169156 -4.76158e-05
0.000334517 -0.000100567 -0.000100264 -7.93471e-05
0.000437539 -0.000131429 -0.00013119 -6.54655e-05
0.000555009 -0.000166628 -0.000166449 -4.76152e-05
0.000451978 -0.000135773 -0.000135516 -6.54668e-05
0.000444759 -0.000133601 -0.000133353 -6.54662e-05
0.000329105 -9.89358e-05 -9.86439e-05 -7.93464e-05
0.000318281 -9.56744e-05 -9.54026e-05 -7.93451e-05
0.000527925 -0.000158489 -0.000158329 -4.76137e-05
0.000545981 -0.000163915 -0.000163743 -4.76147e-05
0.000323693 -9.73051e-05 -9.70233e-05 -7.93458e-05
0.000423099 -0.000127086 -0.000126863 -6.54643e-05
0.000536953 -0.000161202 -0.000161036 -4.76142e-05
0.000437539 -0.000131429 -0.00013119 -6.54655e-05
0.000430319 -0.000129258 -0.000129026 -6.54649e-05
0.000318281 -9.56744e-05 -9.54026e-05 -7.93451e-05
0.000307456 -9.24134e-05 -9.2161e-05 -7.93438e-05
0.000509868 -0.000153064 -0.000152916 -4.76127e-05
0.000527925 -0.000158489 -0.000158329 -4.76137e-05
0.000312868 -9.40438e-05 -9.37819e-05 -7.93445e-05
0.000408658 -0.000122742 -0.000122535 -6.54631e-05
0.000518897 -0.000155777 -0.000155623 -4.76132e-05
0.000423099 -0.000127086 -0.000126863 -6.54643e-05
0.000415879 -0.000124914 -0.000124699 -6.54637e-05
0.000307456 -9.24134e-05 -9.2161e-05 -7.93438e-05
0.000296631 -8.91527e-05 -8.89191e-05 -7.93426e-05
0.000491812 -0.000147639 -0.000147502 -4.76118e-05
0.000509868 -0.000153064 -0.000152916 -4.76127e-05
0.000302043 -9.0783e-05 -9.05401e-05 -7.93432e-05
0.000394218 -0.000118399 -0.000118208 -6.5462e-05
0.00050084 -0.000150352 -0.000150209 -4.76122e-05
0.000408658 -0.000122742 -0.000122535 -6.54631e-05
0.000401438 -0.000120571 -0.000120372 -6.54625e-05
0.000296631 -8.91527e-05 -8.89191e-05 -7.93426e-05
0.000285805 -8.58924e-05 -8.56768e-05 -7.93415e-05
0.000473754 -0.000142214 -0.000142089 -4.76109e-05
0.000491812 -0.000147639 -0.000147502 -4.76118e-05
0.000291218 -8.75225e-05 -8.7298e-05 -7.9342e-05
0.000379776 -0.000114056 -0.00011388 -6.54609e-05
0.000482783 -0.000144927 -0.000144796 -4.76114e-05
0.000394218 -0.000118399 -0.000118208 -6.5462e-05
0.000386997 -0.000116228 -0.000116044 -6.54614e-05
0.000285805 -8.58924e-05 -8.56768e-05 -7.93415e-05
0.000274979 -8.26324e-05 -8.24342e-05 -7.93404e-05
0.000455697 -0.00013679 -0.000136675 -4.76102e-05
0.000473754 -0.000142214 -0.000142089 -4.76109e-05
0.000280392 -8.42623e-05 -8.40556e-05 -7.93409e-05
0.000365335 -0.000109714 -0.000109552 -6.54599e-05
0.000464726 -0.000139502 -0.000139382 -4.76105e-05
0.000379776 -0.000114056 -0.00011388 -6.54609e-05
0.000372556 -0.000111885 -0.000111716 -6.54604e-05
0.000274979 -8.26324e-05 -8.24342e-05 -7.93404e-05
0.000264152 -7.93729e-05 -7.91912e-05 -7.93395e-05
0.000437639 -0.000131365 -0.00013126 -4.76095e-05
0.000455697 -0.00013679 -0.000136675 -4.76102e-05
0.000269566 -8.10026e-05 -8.08127e-05 -7.93399e-05
0.000350893 -0.000105372 -0.000105223 -6.54591e-05
0.000446668 -0.000134077 -0.000133968 -4.76098e-05
0.000365335 -0.000109714 -0.000109552 -6.54599e-05
0.000358114 -0.000107543 -0.000107388 -6.54595e-05
0.000264152 -7.93729e-05 -7.91912e-05 -7.93395e-05
0.000253325 -7.61137e-05 -7.59479e-05 -7.93386e-05
0.000419581 -0.000125941 -0.000125846 -4.76089e-05
0.000437639 -0.000131365 -0.00013126 -4.76095e-05
0.000258739 -7.77432e-05 -7.75696e-05 -7.9339e-05
0.000336451 -0.00010103 -0.000100895 -6.54583e-05
0.00042861 -0.000128653 -0.000128553 -4.76092e-05
0.000350893 -0.000105372 -0.000105223 -6.54591e-05
0.000343672 -0.000103201 -0.000103059 -6.54587e-05
0.000253325 -7.61137e-05 -7.59479e-05 -7.93386e-05
0.000242498 -7.28549e-05 -7.27043e-05 -7.93378e-05
0.000401523 -0.000120517 -0.000120431 -4.76085e-05
0.000419581 -0.000125941 -0.000125846 -4.76089e-05
0.000247912 -7.44842e-05 -7.43261e-05 -7.93382e-05
0.000322008 -9.66881e-05 -9.65657e-05 -6.54577e-05
0.000410552 -0.000123229 -0.000123139 -4.76087e-05
0.000336451 -0.00010103 -0.000100895 -6.54583e-05
0.00032923 -9.88589e-05 -9.87303e-05 -6.5458e-05
0.000242498 -7.28549e-05 -7.27043e-05 -7.93378e-05
0.000231671 -6.95964e-05 -6.94604e-05 -7.93371e-05
0.000383464 -0.000115093 -0.000115016 -4.76082e-05
0.000401523 -0.000120517 -0.000120431 -4.76085e-05
0.000237084 -7.12256e-05 -7.10824e-05 -7.93374e-05
0.000307565 -9.23468e-05 -9.22365e-05 -6.54572e-05
0.000392494 -0.000117805 -0.000117724 -4.76083e-05
0.000322008 -9.66881e-05 -9.65657e-05 -6.54577e-05
0.000314787 -9.45174e-05 -9.44011e-05 -6.54575e-05
0.000231671 -6.95964e-05 -6.94604e-05 -7.93371e-05
0.000220843 -6.63381e-05 -6.62162e-05 -7.93363e-05
0.000365405 -0.000109669 -0.000109601 -4.7608e-05
0.000383464 -0.000115093 -0.000115016 -4.76082e-05
0.000226257 -6.79672e-05 -6.78383e-05 -7.93367e-05
0.000293122 -8.80057e-05 -8.7907e-05 -6.54567e-05
0.000374435 -0.000112381 -0.000112309 -4.76081e-05
0.000307565 -9.23468e-05 -9.22365e-05 -6.54572e-05
0.000300344 -9.01762e-05 -9.00718e-05 -6.54569e-05
0.000220843 -6.63381e-05 -6.62162e-05 -7.93363e-05
0.000210014 -6.308e-05 -6.29719e-05 -7.93352e-05
0.000347346 -0.000104246 -0.000104186 -4.76078e-05
0.000365405 -0.000109669 -0.000109601 -4.7608e-05
0.000215429 -6.4709e-05 -6.45941e-05 -7.93358e-05
0.000278679 -8.36648e-05 -8.35773e-05 -6.5456e-05
0.000356375 -0.000106958 -0.000106893 -4.76079e-05
0.000293122 -8.80057e-05 -8.7907e-05 -6.54567e-05
0.0002859 -8.58353e-05 -8.57422e-05 -6.54564e-05
0.000210014 -6.308e-05 -6.29719e-05 -7.93352e-05
0.000199186 -5.98215e-05 -5.97275e-05 -7.93336e-05
0.000329286 -9.88223e-05 -9.87702e-05 -4.76074e-05
0.000347346 -0.000104246 -0.000104186 -4.76078e-05
0.0002046 -6.14508e-05 -6.13497e-05 -7.93345e-05
0.000264235 -7.93239e-05 -7.92476e-05 -6.54549e-05
0.000338316 -0.000101534 -0.000101478 -4.76076e-05
0.000278679 -8.36648e-05 -8.35773e-05 -6.5456e-05
0.000271457 -8.14944e-05 -8.14125e-05 -6.54556e-05
0.000199186 -5.98215e-05 -5.97275e-05 -7.93336e-05
0.000188357 -5.65621e-05 -5.64833e-05 -7.93308e-05
0.000311227 -9.33988e-05 -9.33548e-05 -4.76063e-05
0.000329286 -9.88223e-05 -9.87702e-05 -4.76074e-05
0.000193771 -5.8192e-05 -5.81054e-05 -7.93324e-05
0.000249791 -7.49825e-05 -7.49181e-05 -6.54528e-05
0.000320256 -9.61106e-05 -9.60625e-05 -4.7607e-05
0.000264235 -7.93239e-05 -7.92476e-05 -6.54549e-05
0.000257013 -7.71533e-05 -7.70828e-05 -6.5454e-05
0.000188357 -5.65621e-05 -5.64833e-05 -7.93308e-05
0.000177526 -5.33002e-05 -5.32397e-05 -7.9326e-05
0.000293168 -8.79749e-05 -8.79399e-05 -4.76036e-05
0.000311227 -9.33988e-05 -9.33548e-05 -4.76063e-05
0.000182942 -5.49316e-05 -5.48614e-05 -7.93287e-05
0.000235348 -7.06397e-05 -7.05891e-05 -6.54484e-05
0.000302197 -9.06869e-05 -9.06473e-05 -4.76052e-05
0.000249791 -7.49825e-05 -7.49181e-05 -6.54528e-05
0.00024257 -7.28113e-05 -7.27535e-05 -6.54509e-05
0.000177526 -5.33002e-05 -5.32397e-05 -7.9326e-05
0.000166693 -5.00334e-05 -4.99968e-05 -7.9318e-05
0.000275111 -8.25498e-05 -8.2526e-05 -4.75972e-05
0.000293168 -8.79749e-05 -8.79399e-05 -4.76036e-05
0.00017211 -5.16677e-05 -5.16181e-05 -7.93225e-05
0.000220903 -6.62937e-05 -6.62612e-05 -6.54397e-05
0.000284139 -8.52626e-05 -8.52327e-05 -4.7601e-05
0.000235348 -7.06397e-05 -7.05891e-05 -6.54484e-05
0.000228126 -6.84673e-05 -6.8425e-05 -6.54448e-05
0.000166693 -5.00334e-05 -4.99968e-05 -7.9318e-05
0.000155853 -4.67562e-05 -4.67557e-05 -7.93044e-05
0.000257055 -7.71221e-05 -7.71141e-05 -4.75837e-05
0.000275111 -8.25498e-05 -8.2526e-05 -4.75972e-05
0.000161274 -4.83965e-05 -4.83759e-05 -7.9312e-05
0.000206457 -6.19409e-05 -6.19353e-05 -6.5423e-05
0.000266083 -7.98365e-05 -7.98198e-05 -4.75916e-05
0.000220903 -6.62937e-05 -6.62612e-05 -6.54397e-05
0.00021368 -6.41185e-05 -6.40979e-05 -6.54327e-05
0.000155853 -4.67562e-05 -4.67557e-05 -7.93044e-05
0.000144998 -4.34593e-05 -4.35166e-05 -7.92826e-05
0.000239004 -7.16888e-05 -7.17065e-05 -4.75552e-05
0.000257055 -7.71221e-05 -7.71141e-05 -4.75837e-05
0.000150428 -4.51112e-05 -4.51359e-05 -7.92947e-05
0.000192004 -5.75742e-05 -5.76129e-05 -6.53918e-05
0.000248029 -7.44064e-05 -7.44095e-05 -4.7572e-05
0.000206457 -6.19409e-05 -6.19353e-05 -6.5423e-05
0.000199232 -5.976e-05 -5.97735e-05 -6.54099e-05
0.000144998 -4.34593e-05 -4.35166e-05 -7.92826e-05
0.000134115 -4.01248e-05 -4.02814e-05 -7.92477e-05
0.000220956 -6.6244e-05 -6.63053e-05 -4.74999e-05
0.000239004 -7.16888e-05 -7.17065e-05 -4.75552e-05
0.00013956 -4.17982e-05 -4.18981e-05 -7.92673e-05
0.000177537 -5.31797e-05 -5.32961e-05 -6.53342e-05
0.00022998 -6.89685e-05 -6.9005e-05 -4.75319e-05
0.000192004 -5.75742e-05 -5.76129e-05 -6.53918e-05
0.000184773 -5.53814e-05 -5.54537e-05 -6.5367e-05
0.000134115 -4.01248e-05 -4.02814e-05 -7.92477e-05
0.000123168 -3.67231e-05 -3.70478e-05 -7.91958e-05
0.000202918 -6.07764e-05 -6.09178e-05 -4.73907e-05
0.000220956 -6.6244e-05 -6.63053e-05 -4.74999e-05
0.000128653 -3.84353e-05 -3.86647e-05 -7.9224e-05
0.000163039 -4.8735e-05 -4.89873e-05 -6.52311e-05
0.000211935 -6.35137e-05 -6.36091e-05 -4.74546e-05
0.000177537 -5.31797e-05 -5.32961e-05 -6.53342e-05
0.000170293 -5.09663e-05 -5.11401e-05 -6.52907e-05
0.000123168 -3.67231e-05 -3.70478e-05 -7.91958e-05
0.000112114 -3.3202e-05 -3.38194e-05 -7.91176e-05
0.000184877 -5.52677e-05 -5.55467e-05 -4.71916e-05
0.000202918 -6.07764e-05 -6.09178e-05 -4.73907e-05
0.000117656 -3.4981e-05 -3.54322e-05 -7.91612e-05
0.000148472 -4.41949e-05 -4.469e-05 -6.50507e-05
0.0001939 -5.80296e-05 -5.82303e-05 -4.73052e-05
0.000163039 -4.8735e-05 -4.89873e-05 -6.52311e-05
0.000155767 -4.64792e-05 -4.68376e-05 -6.51519e-05
0.000112114 -3.3202e-05 -3.38194e-05 -7.91176e-05
0.000100837 -2.94878e-05 -3.05782e-05 -7.90172e-05
0.000166846 -4.96813e-05 -5.02135e-05 -4.68201e-05
0.000184877 -5.52677e-05 -5.55467e-05 -4.71916e-05
0.000106516 -3.13766e-05 -3.22026e-05 -7.90688e-05
0.000133776 -3.95013e-05 -4.04034e-05 -6.47453e-05
0.000175856 -5.2485e-05 -5.28731e-05 -4.70354e-05
0.000148472 -4.41949e-05 -4.469e-05 -6.50507e-05
0.000141144 -4.18755e-05 -4.25437e-05 -6.49206e-05
0.000100837 -2.94878e-05 -3.05782e-05 -7.90172e-05
8.92252e-05 -2.54634e-05 -2.73265e-05 -7.88856e-05
0.000148754 -4.39753e-05 -4.49052e-05 -4.61927e-05
0.000166846 -4.96813e-05 -5.02135e-05 -4.68201e-05
9.50742e-05 -2.75189e-05 -2.89523e-05 -7.89574e-05
0.000118822 -3.45335e-05 -3.61237e-05 -6.42517e-05
0.000157821 -4.68525e-05 -4.7558e-05 -4.65439e-05
0.000133776 -3.95013e-05 -4.04034e-05 -6.47453e-05
0.000126343 -3.70537e-05 -3.82668e-05 -6.45204e-05
8.92252e-05 -2.54634e-05 -2.73265e-05 -7.88856e-05
7.69732e-05 -2.10321e-05 -2.39747e-05 -7.87929e-05
0.000130629 -3.80434e-05 -3.96796e-05 -4.51025e-05
0.000148754 -4.39753e-05 -4.49052e-05 -4.61927e-05
8.32161e-05 -2.33117e-05 -2.56734e-05 -7.88243e-05
0.000103446 -2.92034e-05 -3.18182e-05 -6.35002e-05
0.000139679 -4.10316e-05 -4.22773e-05 -4.57257e-05
0.000118822 -3.45335e-05 -3.61237e-05 -6.42517e-05
0.000111196 -3.19345e-05 -3.3969e-05 -6.39264e-05
7.69732e-05 -2.10321e-05 -2.39747e-05 -7.87929e-05
6.39456e-05 -1.60929e-05 -2.05083e-05 -7.87879e-05
0.000112127 -3.18598e-05 -3.44003e-05 -4.34699e-05
0.000130629 -3.80434e-05 -3.96796e-05 -4.51025e-05
7.05364e-05 -1.86066e-05 -2.22556e-05 -7.87791e-05
8.72616e-05 -2.329e-05 -2.74164e-05 -6.24911e-05
0.000121485 -3.50174e-05 -3.70576e-05 -4.43548e-05
0.000103446 -2.92034e-05 -3.18182e-05 -6.35002e-05
9.54942e-05 -2.63006e-05 -2.96544e-05 -6.29961e-05
6.39456e-05 -1.60929e-05 -2.05083e-05 -7.87879e-05
4.96592e-05 -1.09965e-05 -1.65697e-05 -7.92664e-05
9.3268e-05 -2.51604e-05 -2.9189e-05 -4.09881e-05
0.000112127 -3.18598e-05 -3.44003e-05 -4.34699e-05
5.70401e-05 -1.35538e-05 -1.8637e-05 -7.89194e-05
7.00108e-05 -1.70092e-05 -2.2715e-05 -6.13926e-05
0.00010268 -2.85122e-05 -3.17861e-05 -4.2362e-05
8.72616e-05 -2.329e-05 -2.74164e-05 -6.24911e-05
7.87624e-05 -2.02242e-05 -2.50878e-05 -6.19871e-05
4.96592e-05 -1.09965e-05 -1.65697e-05 -7.92664e-05
3.48078e-05 -6.59101e-06 -1.20929e-05 -8.05261e-05
7.26748e-05 -1.84867e-05 -2.32235e-05 -3.83041e-05
9.3268e-05 -2.51604e-05 -2.9189e-05 -4.09881e-05
4.2137e-05 -8.51321e-06 -1.44102e-05 -7.97843e-05
5.08486e-05 -1.05907e-05 -1.72534e-05 -6.10412e-05
8.34228e-05 -2.19329e-05 -2.63528e-05 -3.96016e-05
7.00108e-05 -1.70092e-05 -2.2715e-05 -6.13926e-05
6.07813e-05 -1.36368e-05 -2.02048e-05 -6.09219e-05
3.48078e-05 -6.59101e-06 -1.20929e-05 -8.05261e-05
2.03439e-05 -6.53017e-06 -5.92019e-06 -8.35233e-05
5.04329e-05 -1.18405e-05 -1.65396e-05 -3.649e-05
7.26748e-05 -1.84867e-05 -2.32235e-05 -3.83041e-05
2.75754e-05 -5.78545e-06 -9.33856e-06 -8.17225e-05
3.08629e-05 -7.49876e-06 -1.00132e-05 -6.32454e-05
6.15146e-05 -1.47039e-05 -2.00618e-05 -3.71257e-05
5.08486e-05 -1.05907e-05 -1.72534e-05 -6.10412e-05
4.071e-05 -8.42674e-06 -1.38357e-05 -6.18623e-05
2.03439e-05 -6.53017e-06 -5.92019e-06 -8.35233e-05
1.26203e-05 -1.73379e-05 2.0218e-06 -8.60235e-05
2.43871e-05 -1.24168e-05 -5.13013e-06 -4.27656e-05
5.04329e-05 -1.18405e-05 -1.65396e-05 -3.649e-05
1.47975e-05 -9.61018e-06 -2.22314e-06 -8.5158e-05
1.24646e-05 -1.54543e-05 1.28131e-06 -7.15312e-05
3.84001e-05 -1.11394e-05 -1.16832e-05 -3.79224e-05
3.08629e-05 -7.49876e-06 -1.00132e-05 -6.32454e-05
2.14126e-05 -8.7214e-06 -5.43909e-06 -6.59471e-05
1.26203e-05 -1.73379e-05 2.0218e-06 -8.60235e-05
1.63821e-05 -5.12637e-05 1.49493e-05 -7.93454e-05
1.19994e-05 -4.25919e-05 1.31111e-05 -6.66749e-05
2.43871e-05 -1.24168e-05 -5.13013e-06 -4.27656e-05
1.33144e-05 -3.16262e-05 7.8479e-06 -8.49712e-05
1.77102e-05 -5.7914e-05 1.72302e-05 -7.8504e-05
1.37887e-05 -1.81132e-05 1.85333e-06 -5.12253e-05
1.24646e-05 -1.54543e-05 1.28131e-06 -7.15312e-05
9.42761e-06 -3.12408e-05 9.34852e-06 -7.73269e-05
1.63821e-05 -5.12637e-05 1.49493e-05 -7.93454e-05
2.77834e-05 -9.30174e-05 2.79575e-05 -4.20747e-05
6.14896e-05 -0.000185618 5.3198e-05 -6.8579e-05
1.19994e-05 -4.25919e-05 1.31111e-05 -6.66749e-05
2.13594e-05 -7.3558e-05 2.23708e-05 -6.56818e-05
4.94873e-05 -0.000135037 3.6664e-05 -3.94462e-05
2.56794e-05 -9.92397e-05 3.15258e-05 -7.93064e-05
1.77102e-05 -5.7914e-05 1.72302e-05 -7.8504e-05
3.26252e-05 -9.5066e-05 2.67603e-05 -6.81271e-05
0.00303422 2.22045e-16 -0.00130038 -0.000178745
0.00341422 -0.000677112 -0.00117304 -0.000257546
0.00477213 -0.00151198 -0.00139721 8.55026e-05
0.00669006 -1.11022e-16 -0.00286717 -0.00227115
0.00324683 -0.000319006 -0.00125478 -0.000298437
0.00432449 -0.00104974 -0.00140346 -0.000332934
0.00530863 -0.00168253 -0.00155404 -0.000322252
0.00357103 0 -0.00153044 -0.000552801
0.00417173 -0.000709138 -0.00148397 -0.000519873
0.00341422 -0.000677112 -0.00117304 -0.000257546
0.00354857 -0.000963348 -0.00110795 -0.000123976
0.00471061 -0.00145948 -0.00139334 2.73311e-05
0.00477213 -0.00151198 -0.00139721 8.55026e-05
0.00352016 -0.000878492 -0.00113214 -0.000186657
0.00422878 -0.00123358 -0.00128366 -5.78446e-05
0.00469872 -0.00139551 -0.00141566 3.82802e-05
0.00432449 -0.00104974 -0.00140346 -0.000332934
0.00426482 -0.00119065 -0.0013175 -0.000136734
0.00354857 -0.000963348 -0.00110795 -0.000123976
0.00353213 -0.0010446 -0.00106609 -4.69487e-05
0.0047753 -0.00141777 -0.00143894 1.26914e-05
0.00471061 -0.00145948 -0.00139334 2.73311e-05
0.00353927 -0.00101384 -0.00108233 -7.35937e-05
0.00418388 -0.00125628 -0.00125469 -6.92375e-06
0.00475404 -0.00145596 -0.00141346 2.75334e-05
0.00422878 -0.00123358 -0.00128366 -5.78446e-05
0.00420545 -0.00124981 -0.0012667 -2.85924e-05
0.00353213 -0.0010446 -0.00106609 -4.69487e-05
0.00350739 -0.00105643 -0.00105041 -2.91284e-05
0.004802 -0.00144486 -0.00143877 -1.34379e-06
0.0047753 -0.00141777 -0.00143894 1.26914e-05
0.00352292 -0.00105569 -0.00105738 -3.50655e-05
0.00415906 -0.00125404 -0.001245 9.68934e-07
0.00478708 -0.00142237 -0.00144202 -2.33349e-06
0.00418388 -0.00125628 -0.00125469 -6.92375e-06
0.00416732 -0.00125645 -0.00124752 2.80937e-06
0.00350739 -0.00105643 -0.00105041 -2.91284e-05
0.00347866 -0.00105508 -0.00103868 -2.7852e-05
0.00481586 -0.00143972 -0.00144692 9.78165e-07
0.004802 -0.00144486 -0.00143877 -1.34379e-06
0.00349086 -0.00105614 -0.00104345 -2.67774e-05
0.00414667 -0.00125017 -0.00124136 -6.00304e-06
0.00481371 -0.00144706 -0.00144285 2.44151e-06
0.00415906 -0.00125404 -0.001245 9.68934e-07
0.0041539 -0.00125203 -0.00124366 -3.53674e-06
0.00347866 -0.00105508 -0.00103868 -2.7852e-05
0.00345684 -0.00104757 -0.00103254 -3.3325e-05
0.00481077 -0.00144383 -0.00144297 -8.7101e-07
0.00481586 -0.00143972 -0.00144692 9.78165e-07
0.00346819 -0.00105183 -0.00103558 -3.07055e-05
0.00413158 -0.00124482 -0.00123718 -1.2607e-05
0.00481328 -0.00144028 -0.00144557 -1.50337e-06
0.00414667 -0.00125017 -0.00124136 -6.00304e-06
0.00413877 -0.00124769 -0.00123903 -8.90997e-06
0.00345684 -0.00104757 -0.00103254 -3.3325e-05
0.00343576 -0.00104013 -0.0010267 -3.80521e-05
0.00479927 -0.00143863 -0.00144027 4.54211e-08
0.00481077 -0.00144383 -0.00144297 -8.7101e-07
0.00344567 -0.00104371 -0.00102941 -3.56819e-05
0.00411565 -0.00123904 -0.00123283 -1.78842e-05
0.00480665 -0.00144246 -0.0014418 2.80178e-07
0.00413158 -0.00124482 -0.00123718 -1.2607e-05
0.00412418 -0.00124194 -0.00123524 -1.57453e-05
0.00343576 -0.00104013 -0.0010267 -3.80521e-05
0.00341687 -0.00103283 -0.00102173 -4.19736e-05
0.00478053 -0.00143427 -0.00143411 -2.85213e-07
0.00479927 -0.00143863 -0.00144027 4.54211e-08
0.00342641 -0.00103646 -0.00102426 -4.02625e-05
0.00409724 -0.00123293 -0.00122756 -2.13214e-05
0.00479008 -0.00143621 -0.00143737 -4.8391e-07
0.00411565 -0.00123904 -0.00123283 -1.78842e-05
0.0041065 -0.00123603 -0.0012302 -1.97179e-05
0.00341687 -0.00103283 -0.00102173 -4.19736e-05
0.00339822 -0.0010262 -0.00101658 -4.44002e-05
0.00475922 -0.00142756 -0.00142785 -3.63741e-08
0.00478053 -0.00143427 -0.00143411 -2.85213e-07
0.0034074 -0.00102942 -0.00101913 -4.33017e-05
0.00407776 -0.00122661 -0.00122192 -2.33899e-05
0.00477033 -0.00143121 -0.00143105 1.02363e-08
0.00409724 -0.00123293 -0.00122756 -2.13214e-05
0.00408772 -0.00122979 -0.00122483 -2.25346e-05
0.00339822 -0.0010262 -0.00101658 -4.44002e-05
0.00338008 -0.00101998 -0.00101147 -4.59612e-05
0.00473569 -0.00142076 -0.00142069 -8.06894e-08
0.00475922 -0.00142756 -0.00142785 -3.63741e-08
0.00338917 -0.00102305 -0.00101405 -4.52977e-05
0.00405723 -0.00122021 -0.00121587 -2.4601e-05
0.00474755 -0.00142413 -0.00142432 -1.42042e-07
0.00407776 -0.00122661 -0.00122192 -2.33899e-05
0.00406754 -0.00122342 -0.00121891 -2.40707e-05
0.00338008 -0.00101998 -0.00101147 -4.59612e-05
0.00336197 -0.00101409 -0.00100623 -4.68265e-05
0.00471135 -0.0014134 -0.00141341 -1.97102e-08
0.00473569 -0.00142076 -0.00142069 -8.06894e-08
0.00337099 -0.001017 -0.00100885 -4.64504e-05
0.00403623 -0.00121373 -0.00120964 -2.52479e-05
0.00472364 -0.00141714 -0.00141707 -9.41823e-09
0.00405723 -0.00122021 -0.00121587 -2.4601e-05
0.0040468 -0.00121698 -0.00121278 -2.49809e-05
0.00336197 -0.00101409 -0.00100623 -4.68265e-05
0.00334395 -0.00100839 -0.00100096 -4.73233e-05
0.00468644 -0.00140597 -0.00140592 -2.03348e-08
0.00471135 -0.0014134 -0.00141341 -1.97102e-08
0.00335297 -0.00101122 -0.0010036 -4.71156e-05
0.00401488 -0.00120723 -0.00120328 -2.5599e-05
0.00469893 -0.00140968 -0.00140968 -3.80121e-08
0.00403623 -0.00121373 -0.00120964 -2.52479e-05
0.00402557 -0.00121049 -0.00120647 -2.54505e-05
0.00334395 -0.00100839 -0.00100096 -4.73233e-05
0.00332593 -0.0010028 -0.000995625 -4.7581e-05
0.00466131 -0.00139842 -0.00139838 -6.70212e-09
0.00468644 -0.00140597 -0.00140592 -2.03348e-08
0.00333494 -0.00100558 -0.000998293 -4.74716e-05
0.00399338 -0.00120072 -0.00119686 -2.57718e-05
0.0046739 -0.00140221 -0.00140215 -4.29611e-09
0.00401488 -0.00120723 -0.00120328 -2.5599e-05
0.00400415 -0.00120398 -0.00120008 -2.57012e-05
0.00332593 -0.0010028 -0.000995625 -4.7581e-05
0.00330791 -0.000997274 -0.000990272 -4.77189e-05
0.00463605 -0.00139085 -0.0013908 -4.57136e-09
0.00466131 -0.00139842 -0.00139838 -6.70212e-09
0.00331692 -0.00100003 -0.000992952 -4.76618e-05
0.00397178 -0.00119419 -0.0011904 -2.58595e-05
0.00464869 -0.00139464 -0.00139459 -9.15655e-09
0.00399338 -0.00120072 -0.00119686 -2.57718e-05
0.00398259 -0.00119745 -0.00119363 -2.58233e-05
0.00330791 -0.000997274 -0.000990272 -4.77189e-05
0.00328988 -0.000991778 -0.000984901 -4.77872e-05
0.00461075 -0.00138326 -0.00138321 -1.86861e-09
0.00463605 -0.00139085 -0.0013908 -4.57136e-09
0.0032989 -0.000994523 -0.000987588 -4.77586e-05
0.00395014 -0.00118766 -0.00118392 -2.58998e-05
0.0046234 -0.00138706 -0.00138701 -1.28517e-09
0.00397178 -0.00119419 -0.0011904 -2.58595e-05
0.00396097 -0.00119092 -0.00118716 -2.58836e-05
0.00328988 -0.000991778 -0.000984901 -4.77872e-05
0.00327185 -0.000986298 -0.000979521 -4.78221e-05
0.00458542 -0.00137566 -0.00137561 -9.65194e-10
0.00461075 -0.00138326 -0.00138321 -1.86861e-09
0.00328087 -0.000989037 -0.000982212 -4.78078e-05
0.00392847 -0.00118112 -0.00117743 -2.59189e-05
0.00459808 -0.00137946 -0.00137941 -2.0138e-09
0.00395014 -0.00118766 -0.00118392 -2.58998e-05
0.00393931 -0.00118439 -0.00118068 -2.59112e-05
0.00327185 -0.000986298 -0.000979521 -4.78221e-05
0.00325381 -0.000980826 -0.000974135 -4.78389e-05
0.00456008 -0.00136806 -0.00136801 -5.24658e-10
0.00458542 -0.00137566 -0.00137561 -9.65194e-10
0.00326283 -0.000983562 -0.000976828 -4.78319e-05
0.00390679 -0.00117459 -0.00117094 -2.5927e-05
0.00457275 -0.00137186 -0.00137181 -3.8037e-10
0.00392847 -0.00118112 -0.00117743 -2.59189e-05
0.00391763 -0.00117786 -0.00117419 -2.59238e-05
0.00325381 -0.000980826 -0.000974135 -4.78389e-05
0.00323576 -0.000975357 -0.000968746 -4.7847e-05
0.00453474 -0.00136045 -0.00136041 -2.66184e-10
0.00456008 -0.00136806 -0.00136801 -5.24658e-10
0.00324479 -0.000978091 -0.000971441 -4.78437e-05
0.0038851 -0.00116805 -0.00116445 -2.59305e-05
0.00454741 -0.00136426 -0.00136421 -4.73348e-10
0.00390679 -0.00117459 -0.00117094 -2.5927e-05
0.00389595 -0.00117132 -0.0011677 -2.59291e-05
0.00323576 -0.000975357 -0.000968746 -4.7847e-05
0.00321772 -0.00096989 -0.000963355 -4.78505e-05
0.00450939 -0.00135285 -0.0013528 -2.19293e-10
0.00453474 -0.00136045 -0.00136041 -2.66184e-10
0.00322674 -0.000972623 -0.00096605 -4.78491e-05
0.00386341 -0.00116152 -0.00115795 -2.59316e-05
0.00452207 -0.00135665 -0.00135661 -1.84981e-10
0.0038851 -0.00116805 -0.00116445 -2.59305e-05
0.00387426 -0.00116479 -0.0011612 -2.59312e-05
0.00321772 -0.00096989 -0.000963355 -4.78505e-05
0.00319967 -0.000964423 -0.000957962 -4.78517e-05
0.00448405 -0.00134525 -0.0013452 -1.57019e-10
0.00450939 -0.00135285 -0.0013528 -2.19293e-10
0.00320869 -0.000967156 -0.000960659 -4.78513e-05
0.00384172 -0.00115498 -0.00115146 -2.59316e-05
0.00449672 -0.00134905 -0.001349 -1.91649e-10
0.00386341 -0.00116152 -0.00115795 -2.59316e-05
0.00385256 -0.00115825 -0.00115471 -2.59317e-05
0.00319967 -0.000964423 -0.000957962 -4.78517e-05
0.00318162 -0.000958956 -0.00095257 -4.78516e-05
0.00445871 -0.00133765 -0.0013376 -1.57774e-10
0.00448405 -0.00134525 -0.0013452 -1.57019e-10
0.00319064 -0.00096169 -0.000955266 -4.78518e-05
0.00382002 -0.00114845 -0.00114496 -2.59312e-05
0.00447138 -0.00134145 -0.0013414 -1.51088e-10
0.00384172 -0.00115498 -0.00115146 -2.59316e-05
0.00383087 -0.00115171 -0.00114821 -2.59315e-05
0.00318162 -0.000958956 -0.00095257 -4.78516e-05
0.00316357 -0.00095349 -0.000947176 -4.78509e-05
0.00443337 -0.00133004 -0.00133 -1.42656e-10
0.00445871 -0.00133765 -0.0013376 -1.57774e-10
0.00317259 -0.000956223 -0.000949873 -4.78514e-05
0.00379833 -0.00114191 -0.00113846 -2.59305e-05
0.00444604 -0.00133384 -0.0013338 -1.47723e-10
0.00382002 -0.00114845 -0.00114496 -2.59312e-05
0.00380917 -0.00114518 -0.00114171 -2.59309e-05
0.00316357 -0.00095349 -0.000947176 -4.78509e-05
0.00314552 -0.000948024 -0.000941783 -4.78499e-05
0.00440802 -0.00132244 -0.00132239 -1.4369e-10
0.00443337 -0.00133004 -0.00133 -1.42656e-10
0.00315454 -0.000950757 -0.000944479 -4.78504e-05
0.00377663 -0.00113537 -0.00113197 -2.59297e-05
0.0044207 -0.00132624 -0.00132619 -1.43219e-10
0.00379833 -0.00114191 -0.00113846 -2.59305e-05
0.00378748 -0.00113864 -0.00113522 -2.59302e-05
0.00314552 -0.000948024 -0.000941783 -4.78499e-05
0.00312747 -0.000942558 -0.000936389 -4.78486e-05
0.00438268 -0.00131484 -0.00131479 -1.39081e-10
0.00440802 -0.00132244 -0.00132239 -1.4369e-10
0.00313649 -0.000945291 -0.000939086 -4.78492e-05
0.00375494 -0.00112884 -0.00112547 -2.59289e-05
0.00439535 -0.00131864 -0.00131859 -1.40018e-10
0.00377663 -0.00113537 -0.00113197 -2.59297e-05
0.00376578 -0.00113211 -0.00112872 -2.59293e-05
0.00312747 -0.000942558 -0.000936389 -4.78486e-05
0.00310941 -0.000937093 -0.000930994 -4.78471e-05
0.00435734 -0.00130723 -0.00130719 -1.38652e-10
0.00438268 -0.00131484 -0.00131479 -1.39085e-10
0.00311844 -0.000939826 -0.000933692 -4.78479e-05
0.00373324 -0.0011223 -0.00111897 -2.5928e-05
0.00437001 -0.00131104 -0.00131099 -1.39097e-10
0.00375494 -0.00112884 -0.00112547 -2.59289e-05
0.00374409 -0.00112557 -0.00112222 -2.59284e-05
0.00310941 -0.000937093 -0.000930994 -4.78471e-05
0.00309136 -0.000931628 -0.0009256 -4.78457e-05
0.004332 -0.00129963 -0.00129959 -1.36861e-10
0.00435734 -0.00130723 -0.00130719 -1.38652e-10
0.00310039 -0.00093436 -0.000928297 -4.78464e-05
0.00371155 -0.00111577 -0.00111248 -2.59271e-05
0.00434467 -0.00130343 -0.00130339 -1.37234e-10
0.00373324 -0.0011223 -0.00111897 -2.5928e-05
0.00372239 -0.00111903 -0.00111573 -2.59275e-05
0.00309136 -0.000931628 -0.0009256 -4.78457e-05
0.00307331 -0.000926163 -0.000920206 -4.78442e-05
0.00430666 -0.00129203 -0.00129198 -1.36257e-10
0.004332 -0.00129963 -0.00129959 -1.36864e-10
0.00308234 -0.000928895 -0.000922903 -4.78449e-05
0.00368985 -0.00110923 -0.00110598 -2.59262e-05
0.00431933 -0.00129583 -0.00129579 -1.36613e-10
0.00371155 -0.00111577 -0.00111248 -2.59271e-05
0.0037007 -0.0011125 -0.00110923 -2.59266e-05
0.00307331 -0.000926163 -0.000920206 -4.78442e-05
0.00305526 -0.000920698 -0.000914811 -4.78427e-05
0.00428132 -0.00128443 -0.00128438 -1.35443e-10
0.00430666 -0.00129203 -0.00129198 -1.36257e-10
0.00306428 -0.000923431 -0.000917508 -4.78434e-05
0.00366816 -0.0011027 -0.00109948 -2.59253e-05
0.00429399 -0.00128823 -0.00128818 -1.35688e-10
0.00368985 -0.00110923 -0.00110598 -2.59262e-05
0.00367901 -0.00110596 -0.00110273 -2.59257e-05
0.00305526 -0.000920698 -0.000914811 -4.78427e-05
0.0030372 -0.000915234 -0.000909416 -4.78412e-05
0.00425598 -0.00127682 -0.00127678 -1.34968e-10
0.00428132 -0.00128443 -0.00128438 -1.3545e-10
0.00304623 -0.000917966 -0.000912114 -4.78419e-05
0.00364646 -0.00109616 -0.00109299 -2.59244e-05
0.00426865 -0.00128063 -0.00128058 -1.35229e-10
0.00366816 -0.0011027 -0.00109948 -2.59253e-05
0.00365731 -0.00109943 -0.00109624 -2.59248e-05
0.0030372 -0.000915234 -0.000909416 -4.78412e-05
0.00301915 -0.00090977 -0.000904021 -4.78397e-05
0.00423064 -0.00126922 -0.00126918 -1.34441e-10
0.00425598 -0.00127682 -0.00127678 -1.34968e-10
0.00302818 -0.000912502 -0.000906719 -4.78404e-05
0.00362477 -0.00108963 -0.00108649 -2.59235e-05
0.00424331 -0.00127302 -0.00127298 -1.34689e-10
0.00364646 -0.00109616 -0.00109299 -2.59244e-05
0.00363562 -0.00109289 -0.00108974 -2.59239e-05
0.00301915 -0.00090977 -0.000904021 -4.78397e-05
0.0030011 -0.000904306 -0.000898626 -4.78382e-05
0.0042053 -0.00126162 -0.00126158 -1.33987e-10
0.00423064 -0.00126922 -0.00126918 -1.34443e-10
0.00301013 -0.000907038 -0.000901324 -4.78389e-05
0.00360307 -0.00108309 -0.00107999 -2.59226e-05
0.00421797 -0.00126542 -0.00126538 -1.34266e-10
0.00362477 -0.00108963 -0.00108649 -2.59235e-05
0.00361392 -0.00108636 -0.00108324 -2.59231e-05
0.0030011 -0.000904306 -0.000898626 -4.78382e-05
0.00298305 -0.000898842 -0.000893231 -4.78367e-05
0.00417996 -0.00125402 -0.00125398 -1.33485e-10
0.0042053 -0.00126162 -0.00126158 -1.33987e-10
0.00299207 -0.000901574 -0.000895928 -4.78374e-05
0.00358138 -0.00107656 -0.0010735 -2.59218e-05
0.00419263 -0.00125782 -0.00125778 -1.33777e-10
0.00360307 -0.00108309 -0.00107999 -2.59226e-05
0.00359223 -0.00107982 -0.00107674 -2.59222e-05
0.00298305 -0.000898842 -0.000893231 -4.78367e-05
0.00296499 -0.000893379 -0.000887835 -4.78352e-05
0.00415462 -0.00124642 -0.00124637 -1.32943e-10
0.00417996 -0.00125402 -0.00125398 -1.33491e-10
0.00297402 -0.000896111 -0.000890533 -4.7836e-05
0.00355969 -0.00107002 -0.001067 -2.59209e-05
0.00416729 -0.00125022 -0.00125018 -1.33287e-10
0.00358138 -0.00107656 -0.0010735 -2.59218e-05
0.00357053 -0.00107329 -0.00107025 -2.59213e-05
0.00296499 -0.000893379 -0.000887835 -4.78352e-05
0.00294694 -0.000887916 -0.00088244 -4.78337e-05
0.00412929 -0.00123881 -0.00123877 -1.32356e-10
0.00415462 -0.00124642 -0.00124637 -1.32943e-10
0.00295597 -0.000890647 -0.000885138 -4.78345e-05
0.00353799 -0.00106349 -0.0010605 -2.592e-05
0.00414195 -0.00124262 -0.00124257 -1.32712e-10
0.00355969 -0.00107002 -0.001067 -2.59209e-05
0.00354884 -0.00106676 -0.00106375 -2.59204e-05
0.00294694 -0.000887916 -0.00088244 -4.78337e-05
0.00292889 -0.000882453 -0.000877044 -4.78322e-05
0.00410395 -0.00123121 -0.00123117 -1.3174e-10
0.00412929 -0.00123881 -0.00123877 -1.3235e-10
0.00293792 -0.000885184 -0.000879742 -4.7833e-05
0.0035163 -0.00105696 -0.001054 -2.59191e-05
0.00411662 -0.00123501 -0.00123497 -1.32122e-10
0.00353799 -0.00106349 -0.0010605 -2.592e-05
0.00352714 -0.00106022 -0.00105725 -2.59196e-05
0.00292889 -0.000882453 -0.000877044 -4.78322e-05
0.00291084 -0.00087699 -0.000871648 -4.78307e-05
0.00407861 -0.00122361 -0.00122357 -1.31066e-10
0.00410395 -0.00123121 -0.00123117 -1.3174e-10
0.00291986 -0.000879722 -0.000874346 -4.78315e-05
0.0034946 -0.00105042 -0.00104751 -2.59183e-05
0.00409128 -0.00122741 -0.00122737 -1.31482e-10
0.0035163 -0.00105696 -0.001054 -2.59191e-05
0.00350545 -0.00105369 -0.00105076 -2.59187e-05
0.00291084 -0.00087699 -0.000871648 -4.78307e-05
0.00289278 -0.000871528 -0.000866252 -4.78292e-05
0.00405327 -0.00121601 -0.00121597 -1.30356e-10
0.00407861 -0.00122361 -0.00122357 -1.31064e-10
0.00290181 -0.000874259 -0.00086895 -4.78299e-05
0.00347291 -0.00104389 -0.00104101 -2.59174e-05
0.00406594 -0.00121981 -0.00121977 -1.30784e-10
0.0034946 -0.00105042 -0.00104751 -2.59183e-05
0.00348376 -0.00104716 -0.00104426 -2.59178e-05
0.00289278 -0.000871528 -0.000866252 -4.78292e-05
0.00287473 -0.000866066 -0.000860856 -4.78276e-05
0.00402793 -0.00120841 -0.00120837 -1.29622e-10
0.00405327 -0.00121601 -0.00121597 -1.30356e-10
0.00288376 -0.000868797 -0.000863554 -4.78284e-05
0.00345122 -0.00103736 -0.00103451 -2.59165e-05
0.0040406 -0.00121221 -0.00121217 -1.30061e-10
0.00347291 -0.00104389 -0.00104101 -2.59174e-05
0.00346206 -0.00104062 -0.00103776 -2.59169e-05
0.00287473 -0.000866066 -0.000860856 -4.78276e-05
0.00285668 -0.000860604 -0.00085546 -4.78261e-05
0.0040026 -0.00120081 -0.00120077 -1.28905e-10
0.00402793 -0.00120841 -0.00120837 -1.29622e-10
0.0028657 -0.000863335 -0.000858158 -4.78269e-05
0.00342952 -0.00103082 -0.00102801 -2.59156e-05
0.00401527 -0.00120461 -0.00120457 -1.29343e-10
0.00345122 -0.00103736 -0.00103451 -2.59165e-05
0.00344037 -0.00103409 -0.00103126 -2.5916e-05
0.00285668 -0.000860604 -0.00085546 -4.78261e-05
0.00283862 -0.000855143 -0.000850063 -4.78245e-05
0.00397726 -0.00119321 -0.00119317 -1.28087e-10
0.0040026 -0.00120081 -0.00120077 -1.28905e-10
0.00284765 -0.000857873 -0.000852761 -4.78253e-05
0.00340783 -0.00102429 -0.00102152 -2.59147e-05
0.00398993 -0.00119701 -0.00119697 -1.2856e-10
0.00342952 -0.00103082 -0.00102801 -2.59156e-05
0.00341868 -0.00102756 -0.00102477 -2.59151e-05
0.00283862 -0.000855143 -0.000850063 -4.78245e-05
0.00282057 -0.000849681 -0.000844667 -4.7823e-05
0.00395192 -0.0011856 -0.00118557 -1.2734e-10
0.00397726 -0.00119321 -0.00119317 -1.28087e-10
0.0028296 -0.000852412 -0.000847365 -4.78237e-05
0.00338614 -0.00101776 -0.00101502 -2.59137e-05
0.00396459 -0.00118941 -0.00118937 -1.27769e-10
0.00340783 -0.00102429 -0.00102152 -2.59147e-05
0.00339698 -0.00102102 -0.00101827 -2.59142e-05
0.00282057 -0.000849681 -0.000844667 -4.7823e-05
0.00280252 -0.00084422 -0.00083927 -4.78214e-05
0.00392659 -0.001178 -0.00117796 -1.26549e-10
0.00395192 -0.0011856 -0.00118557 -1.27341e-10
0.00281154 -0.000846951 -0.000841968 -4.78222e-05
0.00336444 -0.00101122 -0.00100852 -2.59128e-05
0.00393926 -0.0011818 -0.00118177 -1.27032e-10
0.00338614 -0.00101776 -0.00101502 -2.59137e-05
0.00337529 -0.00101449 -0.00101177 -2.59133e-05
0.00280252 -0.00084422 -0.00083927 -4.78214e-05
0.00278446 -0.00083876 -0.000833873 -4.78198e-05
0.00390125 -0.0011704 -0.00117036 -1.25753e-10
0.00392659 -0.001178 -0.00117796 -1.26549e-10
0.00279349 -0.00084149 -0.000836571 -4.78206e-05
0.00334275 -0.00100469 -0.00100202 -2.59119e-05
0.00391392 -0.0011742 -0.00117416 -1.26208e-10
0.00336444 -0.00101122 -0.00100852 -2.59128e-05
0.0033536 -0.00100796 -0.00100527 -2.59124e-05
0.00278446 -0.00083876 -0.000833873 -4.78198e-05
0.00276641 -0.000833299 -0.000828476 -4.78181e-05
0.00387592 -0.0011628 -0.00116276 -1.2496e-10
0.00390125 -0.0011704 -0.00117036 -1.25754e-10
0.00277544 -0.00083603 -0.000831174 -4.78189e-05
0.00332106 -0.00099816 -0.000995527 -2.5911e-05
0.00388859 -0.0011666 -0.00116656 -1.25423e-10
0.00334275 -0.00100469 -0.00100202 -2.59119e-05
0.0033319 -0.00100143 -0.000998776 -2.59114e-05
0.00276641 -0.000833299 -0.000828476 -4.78181e-05
0.00274836 -0.000827839 -0.000823079 -4.78165e-05
0.00385058 -0.0011552 -0.00115516 -1.24183e-10
0.00387592 -0.0011628 -0.00116276 -1.2496e-10
0.00275738 -0.000830569 -0.000825777 -4.78173e-05
0.00329936 -0.000991628 -0.00098903 -2.591e-05
0.00386325 -0.001159 -0.00115896 -1.24616e-10
0.00332106 -0.00099816 -0.000995527 -2.5911e-05
0.00331021 -0.000994894 -0.000992279 -2.59105e-05
0.00274836 -0.000827839 -0.000823079 -4.78165e-05
0.0027303 -0.000822379 -0.000817682 -4.78148e-05
0.00382525 -0.0011476 -0.00114756 -1.23377e-10
0.00385058 -0.0011552 -0.00115516 -1.2417e-10
0.00273933 -0.000825109 -0.00082038 -4.78157e-05
0.00327767 -0.000985096 -0.000982532 -2.5909e-05
0.00383792 -0.0011514 -0.00115136 -1.23846e-10
0.00329936 -0.000991628 -0.00098903 -2.591e-05
0.00328852 -0.000988362 -0.000985781 -2.59095e-05
0.0027303 -0.000822379 -0.000817682 -4.78148e-05
0.00271225 -0.00081692 -0.000812284 -4.78132e-05
0.00379991 -0.00114 -0.00113996 -1.22596e-10
0.00382525 -0.0011476 -0.00114756 -1.23377e-10
0.00272128 -0.00081965 -0.000814983 -4.7814e-05
0.00325598 -0.000978565 -0.000976035 -2.59081e-05
0.00381258 -0.0011438 -0.00114376 -1.23023e-10
0.00327767 -0.000985096 -0.000982532 -2.5909e-05
0.00326683 -0.000981831 -0.000979283 -2.59086e-05
0.00271225 -0.00081692 -0.000812284 -4.78132e-05
0.0026942 -0.000811461 -0.000806887 -4.78115e-05
0.00377458 -0.0011324 -0.00113236 -1.21798e-10
0.00379991 -0.00114 -0.00113996 -1.22597e-10
0.00270322 -0.00081419 -0.000809585 -4.78123e-05
0.00323429 -0.000972034 -0.000969537 -2.59071e-05
0.00378725 -0.0011362 -0.00113616 -1.22285e-10
0.00325598 -0.000978565 -0.000976035 -2.59081e-05
0.00324513 -0.000975299 -0.000972786 -2.59076e-05
0.0026942 -0.000811461 -0.000806887 -4.78115e-05
0.00267614 -0.000806002 -0.000801489 -4.78098e-05
0.00374925 -0.0011248 -0.00112476 -1.20926e-10
0.00377458 -0.0011324 -0.00113236 -1.21798e-10
0.00268517 -0.000808731 -0.000804188 -4.78107e-05
0.00321259 -0.000965503 -0.000963039 -2.59061e-05
0.00376191 -0.0011286 -0.00112856 -1.21392e-10
0.00323429 -0.000972034 -0.000969537 -2.59071e-05
0.00322344 -0.000968768 -0.000966288 -2.59066e-05
0.00267614 -0.000806002 -0.000801489 -4.78098e-05
0.00265809 -0.000800543 -0.000796091 -4.78081e-05
0.00372391 -0.0011172 -0.00111716 -1.20254e-10
0.00374925 -0.0011248 -0.00112476 -1.2092e-10
0.00266712 -0.000803272 -0.00079879 -4.7809e-05
0.0031909 -0.000958972 -0.000956542 -2.59052e-05
0.00373658 -0.001121 -0.00112096 -1.20645e-10
0.00321259 -0.000965503 -0.000963039 -2.59061e-05
0.00320175 -0.000962237 -0.000959791 -2.59057e-05
0.00265809 -0.000800543 -0.000796091 -4.78081e-05
0.00264004 -0.000795084 -0.000790693 -4.78064e-05
0.00369858 -0.0011096 -0.00110956 -1.19395e-10
0.00372391 -0.0011172 -0.00111716 -1.20254e-10
0.00264906 -0.000797814 -0.000793392 -4.78073e-05
0.00316921 -0.000952441 -0.000950044 -2.59042e-05
0.00371125 -0.0011134 -0.00111336 -1.19929e-10
0.0031909 -0.000958972 -0.000956542 -2.59052e-05
0.00318006 -0.000955706 -0.000953293 -2.59047e-05
0.00264004 -0.000795084 -0.000790693 -4.78064e-05
0.00262198 -0.000789626 -0.000785295 -4.78047e-05
0.00367325 -0.001102 -0.00110196 -1.18586e-10
0.00369858 -0.0011096 -0.00110956 -1.19395e-10
0.00263101 -0.000792355 -0.000787994 -4.78056e-05
0.00314752 -0.000945911 -0.000943547 -2.59032e-05
0.00368591 -0.0011058 -0.00110576 -1.19011e-10
0.00316921 -0.000952441 -0.000950044 -2.59042e-05
0.00315837 -0.000949176 -0.000946795 -2.59037e-05
0.00262198 -0.000789626 -0.000785295 -4.78047e-05
0.00260393 -0.000784168 -0.000779897 -4.7803e-05
0.00364792 -0.0010944 -0.00109436 -1.17797e-10
0.00367325 -0.001102 -0.00110196 -1.18582e-10
0.00261296 -0.000786897 -0.000782596 -4.78038e-05
0.00312583 -0.000939381 -0.000937049 -2.59022e-05
0.00366058 -0.0010982 -0.00109816 -1.18273e-10
0.00314752 -0.000945911 -0.000943547 -2.59032e-05
0.00313667 -0.000942646 -0.000940298 -2.59027e-05
0.00260393 -0.000784168 -0.000779897 -4.7803e-05
0.00258587 -0.000778711 -0.000774499 -4.78012e-05
0.00362259 -0.0010868 -0.00108677 -1.16995e-10
0.00364792 -0.0010944 -0.00109436 -1.17813e-10
0.0025949 -0.00078144 -0.000777198 -4.78021e-05
0.00310414 -0.000932851 -0.000930551 -2.59012e-05
0.00363525 -0.0010906 -0.00109056 -1.17439e-10
0.00312583 -0.000939381 -0.000937049 -2.59022e-05
0.00311498 -0.000936116 -0.0009338 -2.59017e-05
0.00258587 -0.000778711 -0.000774499 -4.78012e-05
0.00256782 -0.000773254 -0.0007691 -4.77995e-05
0.00359725 -0.0010792 -0.00107917 -1.162e-10
0.00362259 -0.0010868 -0.00108677 -1.16995e-10
0.00257685 -0.000775982 -0.0007718 -4.78004e-05
0.00308245 -0.000926321 -0.000924054 -2.59002e-05
0.00360992 -0.001083 -0.00108297 -1.16661e-10
0.00310414 -0.000932851 -0.000930551 -2.59012e-05
0.00309329 -0.000929586 -0.000927302 -2.59007e-05
0.00256782 -0.000773254 -0.0007691 -4.77995e-05
0.00254977 -0.000767797 -0.000763702 -4.77977e-05
0.00357192 -0.0010716 -0.00107157 -1.15404e-10
0.00359725 -0.0010792 -0.00107917 -1.162e-10
0.00255879 -0.000770525 -0.000766401 -4.77986e-05
0.00306076 -0.000919791 -0.000917556 -2.58992e-05
0.00358459 -0.0010754 -0.00107537 -1.15853e-10
0.00308245 -0.000926321 -0.000924054 -2.59002e-05
0.0030716 -0.000923056 -0.000920805 -2.58997e-05
0.00254977 -0.000767797 -0.000763702 -4.77977e-05
0.00253171 -0.00076234 -0.000758303 -4.77959e-05
0.00354659 -0.001064 -0.00106397 -1.14605e-10
0.00357192 -0.0010716 -0.00107157 -1.15417e-10
0.00254074 -0.000765068 -0.000761003 -4.77968e-05
0.00303906 -0.000913262 -0.000911058 -2.58981e-05
0.00355926 -0.0010678 -0.00106777 -1.15075e-10
0.00306076 -0.000919791 -0.000917556 -2.58992e-05
0.00304991 -0.000916527 -0.000914307 -2.58986e-05
0.00253171 -0.00076234 -0.000758303 -4.77959e-05
0.00251366 -0.000756884 -0.000752905 -4.77942e-05
0.00352126 -0.0010564 -0.00105637 -1.13813e-10
0.00354659 -0.001064 -0.00106397 -1.14611e-10
0.00252269 -0.000759612 -0.000755604 -4.77951e-05
0.00301737 -0.000906733 -0.000904561 -2.58971e-05
0.00353393 -0.0010602 -0.00106017 -1.14255e-10
0.00303906 -0.000913262 -0.000911058 -2.58981e-05
0.00302822 -0.000909997 -0.000907809 -2.58976e-05
0.00251366 -0.000756884 -0.000752905 -4.77942e-05
0.00249561 -0.000751428 -0.000747506 -4.77924e-05
0.00349593 -0.0010488 -0.00104877 -1.13013e-10
0.00352126 -0.0010564 -0.00105637 -1.13813e-10
0.00250463 -0.000754156 -0.000750205 -4.77933e-05
0.00299568 -0.000900204 -0.000898063 -2.58961e-05
0.0035086 -0.0010526 -0.00105257 -1.13476e-10
0.00301737 -0.000906733 -0.000904561 -2.58971e-05
0.00300653 -0.000903468 -0.000901312 -2.58966e-05
0.00249561 -0.000751428 -0.000747506 -4.77924e-05
0.00247755 -0.000745972 -0.000742107 -4.77906e-05
0.00347061 -0.0010412 -0.00104117 -1.12212e-10
0.00349593 -0.0010488 -0.00104877 -1.13013e-10
0.00248658 -0.0007487 -0.000744806 -4.77915e-05
0.00297399 -0.000893675 -0.000891565 -2.5895e-05
0.00348327 -0.001045 -0.00104497 -1.12677e-10
0.00299568 -0.000900204 -0.000898063 -2.58961e-05
0.00298484 -0.00089694 -0.000894814 -2.58956e-05
0.00247755 -0.000745972 -0.000742107 -4.77906e-05
0.0024595 -0.000740516 -0.000736708 -4.77888e-05
0.00344528 -0.0010336 -0.00103357 -1.11429e-10
0.00347061 -0.0010412 -0.00104117 -1.12219e-10
0.00246853 -0.000743244 -0.000739407 -4.77897e-05
0.0029523 -0.000887147 -0.000885068 -2.5894e-05
0.00345794 -0.0010374 -0.00103737 -1.11861e-10
0.00297399 -0.000893675 -0.000891565 -2.5895e-05
0.00296315 -0.000890411 -0.000888316 -2.58945e-05
0.0024595 -0.000740516 -0.000736708 -4.77888e-05
0.00244145 -0.000735061 -0.000731309 -4.7787e-05
0.00341995 -0.00102601 -0.00102598 -1.10624e-10
0.00344528 -0.0010336 -0.00103357 -1.11424e-10
0.00245047 -0.000737789 -0.000734008 -4.77879e-05
0.00293062 -0.000880619 -0.00087857 -2.5893e-05
0.00343261 -0.00102981 -0.00102977 -1.11074e-10
0.0029523 -0.000887147 -0.000885068 -2.5894e-05
0.00294146 -0.000883883 -0.000881819 -2.58935e-05
0.00244145 -0.000735061 -0.000731309 -4.7787e-05
0.00242339 -0.000729606 -0.000725909 -4.77852e-05
0.00339462 -0.00101841 -0.00101838 -1.09819e-10
0.00341995 -0.00102601 -0.00102598 -1.10624e-10
0.00243242 -0.000732334 -0.000728609 -4.77861e-05
0.00290893 -0.000874091 -0.000872072 -2.58919e-05
0.00340729 -0.00102221 -0.00102218 -1.1027e-10
0.00293062 -0.000880619 -0.00087857 -2.5893e-05
0.00291977 -0.000877355 -0.000875321 -2.58924e-05
0.00242339 -0.000729606 -0.000725909 -4.77852e-05
0.00240534 -0.000724152 -0.00072051 -4.77833e-05
0.00336929 -0.00101081 -0.00101078 -1.09024e-10
0.00339462 -0.00101841 -0.00101838 -1.09819e-10
0.00241437 -0.000726879 -0.000723209 -4.77843e-05
0.00288724 -0.000867563 -0.000865575 -2.58909e-05
0.00338196 -0.00101461 -0.00101458 -1.09455e-10
0.00290893 -0.000874091 -0.000872072 -2.58919e-05
0.00289808 -0.000870827 -0.000868823 -2.58914e-05
0.00240534 -0.000724152 -0.00072051 -4.77833e-05
0.00238729 -0.000718698 -0.00071511 -4.77815e-05
0.00334397 -0.00100321 -0.00100318 -1.0821e-10
0.00336929 -0.00101081 -0.00101078 -1.09019e-10
0.00239631 -0.000721425 -0.00071781 -4.77824e-05
0.00286555 -0.000861036 -0.000859077 -2.58898e-05
0.00335663 -0.00100701 -0.00100698 -1.08666e-10
0.00288724 -0.000867563 -0.000865575 -2.58909e-05
0.00287639 -0.000864299 -0.000862326 -2.58904e-05
0.00238729 -0.000718698 -0.00071511 -4.77815e-05
0.00236923 -0.000713244 -0.000709711 -4.77797e-05
0.00331864 -0.000995613 -0.000995584 -1.07409e-10
0.00334397 -0.00100321 -0.00100318 -1.08211e-10
0.00237826 -0.000715971 -0.00071241 -4.77806e-05
0.00284386 -0.000854508 -0.000852579 -2.58888e-05
0.0033313 -0.000999412 -0.000999383 -1.07861e-10
0.00286555 -0.000861036 -0.000859077 -2.58898e-05
0.0028547 -0.000857772 -0.000855828 -2.58893e-05
0.00236923 -0.000713244 -0.000709711 -4.77797e-05
0.00235118 -0.00070779 -0.000704311 -4.77779e-05
0.00329332 -0.000988015 -0.000987986 -1.06607e-10
0.00331864 -0.000995613 -0.000995584 -1.07409e-10
0.00236021 -0.000710517 -0.000707011 -4.77788e-05
0.00282217 -0.000847981 -0.000846082 -2.58877e-05
0.00330598 -0.000991814 -0.000991785 -1.07062e-10
0.00284386 -0.000854508 -0.000852579 -2.58888e-05
0.00283302 -0.000851245 -0.000849331 -2.58882e-05
0.00235118 -0.00070779 -0.000704311 -4.77779e-05
0.00233313 -0.000702337 -0.000698911 -4.7776e-05
0.00326799 -0.000980417 -0.000980389 -1.05797e-10
0.00329332 -0.000988015 -0.000987986 -1.06607e-10
0.00234216 -0.000705063 -0.000701611 -4.77769e-05
0.00280048 -0.000841454 -0.000839584 -2.58867e-05
0.00328065 -0.000984216 -0.000984187 -1.06247e-10
0.00282217 -0.000847981 -0.000846082 -2.58877e-05
0.00281133 -0.000844718 -0.000842833 -2.58872e-05
0.00233313 -0.000702337 -0.000698911 -4.7776e-05
0.00231508 -0.000696884 -0.000693511 -4.77742e-05
0.00324267 -0.000972819 -0.000972791 -1.05001e-10
0.00326799 -0.000980417 -0.000980389 -1.05797e-10
0.0023241 -0.00069961 -0.000696211 -4.77751e-05
0.0027788 -0.000834928 -0.000833086 -2.58856e-05
0.00325533 -0.000976618 -0.00097659 -1.05441e-10
0.00280048 -0.000841454 -0.000839584 -2.58867e-05
0.00278964 -0.000838191 -0.000836335 -2.58861e-05
0.00231508 -0.000696884 -0.000693511 -4.77742e-05
0.00229702 -0.000691431 -0.000688111 -4.77723e-05
0.00321734 -0.000965222 -0.000965194 -1.04212e-10
0.00324267 -0.000972819 -0.000972791 -1.05014e-10
0.00230605 -0.000694157 -0.000690811 -4.77732e-05
0.00275711 -0.000828401 -0.000826589 -2.58845e-05
0.00323 -0.00096902 -0.000968993 -1.04643e-10
0.0027788 -0.000834928 -0.000833086 -2.58856e-05
0.00276795 -0.000831665 -0.000829838 -2.58851e-05
0.00229702 -0.000691431 -0.000688111 -4.77723e-05
0.00227897 -0.000685978 -0.000682711 -4.77705e-05
0.00319202 -0.000957624 -0.000957597 -1.03387e-10
0.00321734 -0.000965222 -0.000965194 -1.04212e-10
0.002288 -0.000688705 -0.000685411 -4.77714e-05
0.00273542 -0.000821875 -0.000820091 -2.58835e-05
0.00320468 -0.000961423 -0.000961396 -1.03837e-10
0.00275711 -0.000828401 -0.000826589 -2.58845e-05
0.00274627 -0.000825138 -0.00082334 -2.5884e-05
0.00227897 -0.000685978 -0.000682711 -4.77705e-05
0.00226092 -0.000680526 -0.00067731 -4.77686e-05
0.00316669 -0.000950027 -0.00095 -1.02585e-10
0.00319202 -0.000957624 -0.000957597 -1.03387e-10
0.00226994 -0.000683252 -0.000680011 -4.77695e-05
0.00271373 -0.000815349 -0.000813594 -2.58824e-05
0.00317936 -0.000953826 -0.000953799 -1.03031e-10
0.00273542 -0.000821875 -0.000820091 -2.58835e-05
0.00272458 -0.000818612 -0.000816842 -2.58829e-05
0.00226092 -0.000680526 -0.00067731 -4.77686e-05
0.00224286 -0.000675074 -0.00067191 -4.77667e-05
0.00314137 -0.00094243 -0.000942403 -1.0178e-10
0.00316669 -0.000950027 -0.00095 -1.02579e-10
0.00225189 -0.0006778 -0.00067461 -4.77677e-05
0.00269205 -0.000808824 -0.000807096 -2.58813e-05
0.00315403 -0.000946228 -0.000946202 -1.0223e-10
0.00271373 -0.000815349 -0.000813594 -2.58824e-05
0.00270289 -0.000812087 -0.000810345 -2.58819e-05
0.00224286 -0.000675074 -0.00067191 -4.77667e-05
0.00222481 -0.000669623 -0.00066651 -4.77649e-05
0.00311605 -0.000934833 -0.000934807 -1.00997e-10
0.00314137 -0.00094243 -0.000942403 -1.01801e-10
0.00223384 -0.000672349 -0.00066921 -4.77658e-05
0.00267036 -0.000802298 -0.000800598 -2.58802e-05
0.00312871 -0.000938631 -0.000938605 -1.01445e-10
0.00269205 -0.000808824 -0.000807096 -2.58813e-05
0.0026812 -0.000805561 -0.000803847 -2.58808e-05
0.00222481 -0.000669623 -0.00066651 -4.77649e-05
0.00220676 -0.000664172 -0.000661109 -4.7763e-05
0.00309073 -0.000927236 -0.00092721 -1.00179e-10
0.00311605 -0.000934833 -0.000934807 -1.00997e-10
0.00221579 -0.000666897 -0.000663809 -4.77639e-05
0.00264868 -0.000795773 -0.000794101 -2.58792e-05
0.00310339 -0.000931034 -0.000931009 -1.00624e-10
0.00267036 -0.000802298 -0.000800598 -2.58802e-05
0.00265952 -0.000799036 -0.00079735 -2.58797e-05
0.00220676 -0.000664172 -0.000661109 -4.7763e-05
0.00218871 -0.000658721 -0.000655708 -4.77611e-05
0.00306541 -0.000919639 -0.000919614 -9.9376e-11
0.00309073 -0.000927236 -0.00092721 -1.00179e-10
0.00219773 -0.000661446 -0.000658409 -4.77621e-05
0.00262699 -0.000789248 -0.000787603 -2.58781e-05
0.00307807 -0.000923438 -0.000923412 -9.98434e-11
0.00264868 -0.000795773 -0.000794101 -2.58792e-05
0.00263783 -0.000792511 -0.000790852 -2.58786e-05
0.00218871 -0.000658721 -0.000655708 -4.77611e-05
0.00217065 -0.00065327 -0.000650307 -4.77593e-05
0.00304008 -0.000912043 -0.000912018 -9.85641e-11
0.00306541 -0.000919639 -0.000919614 -9.93776e-11
0.00217968 -0.000655995 -0.000653008 -4.77602e-05
0.0026053 -0.000782724 -0.000781106 -2.5877e-05
0.00305274 -0.000915841 -0.000915816 -9.90013e-11
0.00262699 -0.000789248 -0.000787603 -2.58781e-05
0.00261615 -0.000785986 -0.000784355 -2.58776e-05
0.00217065 -0.00065327 -0.000650307 -4.77593e-05
0.0021526 -0.00064782 -0.000644906 -4.77574e-05
0.00301476 -0.000904446 -0.000904422 -9.77608e-11
0.00304008 -0.000912043 -0.000912018 -9.85705e-11
0.00216163 -0.000650545 -0.000647607 -4.77583e-05
0.00258362 -0.000776199 -0.000774608 -2.58759e-05
0.00302742 -0.000908244 -0.00090822 -9.81945e-11
0.0026053 -0.000782724 -0.000781106 -2.5877e-05
0.00259446 -0.000779461 -0.000777857 -2.58765e-05
0.0021526 -0.00064782 -0.000644906 -4.77574e-05
0.00213455 -0.00064237 -0.000639505 -4.77555e-05
0.00298944 -0.00089685 -0.000896826 -9.69504e-11
0.00301476 -0.000904446 -0.000904422 -9.77608e-11
0.00214358 -0.000645095 -0.000642206 -4.77564e-05
0.00256193 -0.000769675 -0.000768111 -2.58749e-05
0.0030021 -0.000900648 -0.000900624 -9.73983e-11
0.00258362 -0.000776199 -0.000774608 -2.58759e-05
0.00257278 -0.000772937 -0.000771359 -2.58754e-05
0.00213455 -0.00064237 -0.000639505 -4.77555e-05
0.0021165 -0.00063692 -0.000634104 -4.77536e-05
0.00296412 -0.000889254 -0.00088923 -9.61416e-11
0.00298944 -0.00089685 -0.000896826 -9.69504e-11
0.00212552 -0.000639645 -0.000636805 -4.77546e-05
0.00254025 -0.000763151 -0.000761613 -2.58738e-05
0.00297678 -0.000893052 -0.000893028 -9.65978e-11
0.00256193 -0.000769675 -0.000768111 -2.58749e-05
0.00255109 -0.000766413 -0.000764862 -2.58743e-05
0.0021165 -0.00063692 -0.000634104 -4.77536e-05
0.00209844 -0.000631471 -0.000628703 -4.77517e-05
0.00293881 -0.000881658 -0.000881635 -9.5355e-11
0.00296412 -0.000889254 -0.00088923 -9.61478e-11
0.00210747 -0.000634196 -0.000631404 -4.77527e-05
0.00251856 -0.000756627 -0.000755116 -2.58727e-05
0.00295146 -0.000885456 -0.000885432 -9.58035e-11
0.00254025 -0.000763151 -0.000761613 -2.58738e-05
0.00252941 -0.000759889 -0.000758364 -2.58732e-05
0.00209844 -0.000631471 -0.000628703 -4.77517e-05
0.00208039 -0.000626022 -0.000623302 -4.77499e-05
0.00291349 -0.000874062 -0.000874039 -9.45332e-11
0.00293881 -0.000881658 -0.000881635 -9.53498e-11
0.00208942 -0.000628746 -0.000626002 -4.77508e-05
0.00249688 -0.000750104 -0.000748618 -2.58716e-05
0.00292615 -0.00087786 -0.000877837 -9.49632e-11
0.00251856 -0.000756627 -0.000755116 -2.58727e-05
0.00250772 -0.000753365 -0.000751867 -2.58722e-05
0.00208039 -0.000626022 -0.000623302 -4.77499e-05
0.00206234 -0.000620573 -0.0006179 -4.7748e-05
0.00288817 -0.000866466 -0.000866444 -9.37379e-11
0.00291349 -0.000874062 -0.000874039 -9.45332e-11
0.00207137 -0.000623297 -0.000620601 -4.77489e-05
0.0024752 -0.00074358 -0.000742121 -2.58705e-05
0.00290083 -0.000870264 -0.000870242 -9.41698e-11
0.00249688 -0.000750104 -0.000748618 -2.58716e-05
0.00248604 -0.000746842 -0.00074537 -2.58711e-05
0.00206234 -0.000620573 -0.0006179 -4.7748e-05
0.00204429 -0.000615125 -0.000612499 -4.77461e-05
0.00286285 -0.000858871 -0.000858849 -9.29185e-11
0.00288817 -0.000866466 -0.000866444 -9.37379e-11
0.00205331 -0.000617849 -0.000615199 -4.7747e-05
0.00245351 -0.000737057 -0.000735623 -2.58695e-05
0.00287551 -0.000862668 -0.000862646 -9.33703e-11
0.0024752 -0.00074358 -0.000742121 -2.58705e-05
0.00246435 -0.000740319 -0.000738872 -2.587e-05
0.00204429 -0.000615125 -0.000612499 -4.77461e-05
0.00202624 -0.000609677 -0.000607097 -4.77442e-05
0.00283753 -0.000851275 -0.000851254 -9.21199e-11
0.00286285 -0.000858871 -0.000858849 -9.29473e-11
0.00203526 -0.000612401 -0.000609798 -4.77452e-05
0.00243183 -0.000730534 -0.000729126 -2.58684e-05
0.00285019 -0.000855073 -0.000855051 -9.254e-11
0.00245351 -0.000737057 -0.000735623 -2.58695e-05
0.00244267 -0.000733796 -0.000732375 -2.58689e-05
0.00202624 -0.000609677 -0.000607097 -4.77442e-05
0.00200818 -0.000604229 -0.000601695 -4.77424e-05
0.00281222 -0.00084368 -0.000843659 -9.13251e-11
0.00283753 -0.000851275 -0.000851254 -9.2108e-11
0.00201721 -0.000606953 -0.000604396 -4.77433e-05
0.00241014 -0.000724012 -0.000722628 -2.58673e-05
0.00282488 -0.000847478 -0.000847456 -9.17352e-11
0.00243183 -0.000730534 -0.000729126 -2.58684e-05
0.00242099 -0.000727273 -0.000725877 -2.58678e-05
0.00200818 -0.000604229 -0.000601695 -4.77424e-05
0.00199013 -0.000598781 -0.000596293 -4.77405e-05
0.0027869 -0.000836085 -0.000836064 -9.05011e-11
0.00281222 -0.00084368 -0.000843659 -9.13251e-11
0.00199916 -0.000601505 -0.000598994 -4.77414e-05
0.00238846 -0.000717489 -0.000716131 -2.58662e-05
0.00279956 -0.000839882 -0.000839862 -9.09478e-11
0.00241014 -0.000724012 -0.000722628 -2.58673e-05
0.0023993 -0.000720751 -0.00071938 -2.58668e-05
0.00199013 -0.000598781 -0.000596293 -4.77405e-05
0.00197208 -0.000593334 -0.000590891 -4.77386e-05
0.00276159 -0.00082849 -0.00082847 -8.97021e-11
0.0027869 -0.000836085 -0.000836064 -9.05011e-11
0.00198111 -0.000596058 -0.000593592 -4.77395e-05
0.00236678 -0.000710967 -0.000709634 -2.58652e-05
0.00277424 -0.000832287 -0.000832267 -9.01158e-11
0.00238846 -0.000717489 -0.000716131 -2.58662e-05
0.00237762 -0.000714228 -0.000712882 -2.58657e-05
0.00197208 -0.000593334 -0.000590891 -4.77386e-05
0.00195403 -0.000587887 -0.000585489 -4.77367e-05
0.00273627 -0.000820895 -0.000820875 -8.88954e-11
0.00276159 -0.00082849 -0.00082847 -8.9696e-11
0.00196305 -0.000590611 -0.00058819 -4.77377e-05
0.0023451 -0.000704445 -0.000703136 -2.58641e-05
0.00274893 -0.000824692 -0.000824672 -8.93151e-11
0.00236678 -0.000710967 -0.000709634 -2.58652e-05
0.00235594 -0.000707706 -0.000706385 -2.58646e-05
0.00195403 -0.000587887 -0.000585489 -4.77367e-05
0.00193598 -0.000582441 -0.000580087 -4.77349e-05
0.00271096 -0.0008133 -0.000813281 -8.80938e-11
0.00273627 -0.000820895 -0.000820875 -8.89084e-11
0.001945 -0.000585164 -0.000582788 -4.77358e-05
0.00232341 -0.000697924 -0.000696639 -2.5863e-05
0.00272361 -0.000817098 -0.000817078 -8.84941e-11
0.0023451 -0.000704445 -0.000703136 -2.58641e-05
0.00233426 -0.000701185 -0.000699888 -2.58635e-05
0.00193598 -0.000582441 -0.000580087 -4.77349e-05
0.00191793 -0.000576994 -0.000574685 -4.7733e-05
0.00268564 -0.000805706 -0.000805687 -8.72559e-11
0.00271096 -0.0008133 -0.000813281 -8.80938e-11
0.00192695 -0.000579717 -0.000577386 -4.77339e-05
0.00230173 -0.000691402 -0.000690141 -2.58619e-05
0.0026983 -0.000809503 -0.000809484 -8.76903e-11
0.00232341 -0.000697924 -0.000696639 -2.5863e-05
0.00231257 -0.000694663 -0.00069339 -2.58625e-05
0.00191793 -0.000576994 -0.000574685 -4.7733e-05
0.00189987 -0.000571548 -0.000569282 -4.77311e-05
0.00266033 -0.000798111 -0.000798093 -8.64741e-11
0.00268564 -0.000805706 -0.000805687 -8.72559e-11
0.0019089 -0.000574271 -0.000571984 -4.7732e-05
0.00228005 -0.000684881 -0.000683644 -2.58608e-05
0.00267298 -0.000801909 -0.00080189 -8.69115e-11
0.00230173 -0.000691402 -0.000690141 -2.58619e-05
0.00229089 -0.000688142 -0.000686893 -2.58614e-05
0.00189987 -0.000571548 -0.000569282 -4.77311e-05
0.00188182 -0.000566103 -0.00056388 -4.77293e-05
0.00263501 -0.000790517 -0.000790499 -8.56523e-11
0.00266033 -0.000798111 -0.000798093 -8.64608e-11
0.00189085 -0.000568825 -0.000566581 -4.77302e-05
0.00225837 -0.00067836 -0.000677147 -2.58598e-05
0.00264767 -0.000794314 -0.000794296 -8.60856e-11
0.00228005 -0.000684881 -0.000683644 -2.58608e-05
0.00226921 -0.000681621 -0.000680395 -2.58603e-05
0.00188182 -0.000566103 -0.00056388 -4.77293e-05
0.00186377 -0.000560657 -0.000558477 -4.77274e-05
0.0026097 -0.000782923 -0.000782905 -8.48156e-11
0.00263501 -0.000790517 -0.000790499 -8.5669e-11
0.0018728 -0.00056338 -0.000561178 -4.77283e-05
0.00223669 -0.00067184 -0.000670649 -2.58587e-05
0.00262236 -0.00078672 -0.000786702 -8.52504e-11
0.00225837 -0.00067836 -0.000677147 -2.58598e-05
0.00224753 -0.0006751 -0.000673898 -2.58592e-05
0.00186377 -0.000560657 -0.000558477 -4.77274e-05
0.00184572 -0.000555212 -0.000553074 -4.77255e-05
0.00258439 -0.000775329 -0.000775312 -8.40415e-11
0.0026097 -0.000782923 -0.000782905 -8.48156e-11
0.00185474 -0.000557935 -0.000555776 -4.77265e-05
0.00221501 -0.000665319 -0.000664152 -2.58576e-05
0.00259705 -0.000779126 -0.000779108 -8.44658e-11
0.00223669 -0.00067184 -0.000670649 -2.58587e-05
0.00222585 -0.000668579 -0.000667401 -2.58582e-05
0.00184572 -0.000555212 -0.000553074 -4.77255e-05
0.00182767 -0.000549767 -0.000547672 -4.77237e-05
0.00255908 -0.000767735 -0.000767718 -8.32255e-11
0.00258439 -0.000775329 -0.000775312 -8.40415e-11
0.00183669 -0.00055249 -0.000550373 -4.77246e-05
0.00219333 -0.000658799 -0.000657655 -2.58566e-05
0.00257173 -0.000771532 -0.000771515 -8.3664e-11
0.00221501 -0.000665319 -0.000664152 -2.58576e-05
0.00220417 -0.000662059 -0.000660903 -2.58571e-05
0.00182767 -0.000549767 -0.000547672 -4.77237e-05
0.00180962 -0.000544323 -0.000542269 -4.77218e-05
0.00253377 -0.000760141 -0.000760125 -8.24026e-11
0.00255908 -0.000767735 -0.000767718 -8.32069e-11
0.00181864 -0.000547045 -0.00054497 -4.77227e-05
0.00217165 -0.000652279 -0.000651157 -2.58555e-05
0.00254642 -0.000763938 -0.000763922 -8.28219e-11
0.00219333 -0.000658799 -0.000657655 -2.58566e-05
0.00218249 -0.000655539 -0.000654406 -2.5856e-05
0.00180962 -0.000544323 -0.000542269 -4.77218e-05
0.00179157 -0.000538879 -0.000536866 -4.772e-05
0.00250846 -0.000752548 -0.000752532 -8.15917e-11
0.00253377 -0.000760141 -0.000760125 -8.24242e-11
0.00180059 -0.000541601 -0.000539567 -4.77209e-05
0.00214997 -0.000645759 -0.00064466 -2.58544e-05
0.00252111 -0.000756345 -0.000756328 -8.20119e-11
0.00217165 -0.000652279 -0.000651157 -2.58555e-05
0.00216081 -0.000649019 -0.000647909 -2.5855e-05
0.00179157 -0.000538879 -0.000536866 -4.772e-05
0.00177351 -0.000533435 -0.000531462 -4.77181e-05
0.00248315 -0.000744955 -0.000744939 -8.07737e-11
0.00250846 -0.000752548 -0.000752532 -8.15917e-11
0.00178254 -0.000536157 -0.000534164 -4.77191e-05
0.00212829 -0.000639239 -0.000638163 -2.58534e-05
0.0024958 -0.000748751 -0.000748735 -8.1217e-11
0.00214997 -0.000645759 -0.00064466 -2.58544e-05
0.00213913 -0.000642499 -0.000641411 -2.58539e-05
0.00177351 -0.000533435 -0.000531462 -4.77181e-05
0.00175546 -0.000527991 -0.000526059 -4.77163e-05
0.00245784 -0.000737361 -0.000737346 -7.99702e-11
0.00248315 -0.000744955 -0.000744939 -8.07737e-11
0.00176449 -0.000530713 -0.000528761 -4.77172e-05
0.00210661 -0.00063272 -0.000631665 -2.58523e-05
0.00247049 -0.000741158 -0.000741142 -8.03975e-11
0.00212829 -0.000639239 -0.000638163 -2.58534e-05
0.00211745 -0.00063598 -0.000634914 -2.58529e-05
0.00175546 -0.000527991 -0.000526059 -4.77163e-05
0.00173741 -0.000522548 -0.000520656 -4.77145e-05
0.00243253 -0.000729768 -0.000729753 -7.91624e-11
0.00245784 -0.000737361 -0.000737346 -7.99567e-11
0.00174644 -0.00052527 -0.000523358 -4.77154e-05
0.00208493 -0.000626201 -0.000625168 -2.58513e-05
0.00244518 -0.000733565 -0.00073355 -7.95829e-11
0.00210661 -0.00063272 -0.000631665 -2.58523e-05
0.00209577 -0.000629461 -0.000628417 -2.58518e-05
0.00173741 -0.000522548 -0.000520656 -4.77145e-05
0.00171936 -0.000517105 -0.000515252 -4.77126e-05
0.00240722 -0.000722175 -0.000722161 -7.83429e-11
0.00243253 -0.000729768 -0.000729753 -7.91623e-11
0.00172839 -0.000519827 -0.000517954 -4.77135e-05
0.00206325 -0.000619682 -0.000618671 -2.58502e-05
0.00241987 -0.000725972 -0.000725957 -7.87813e-11
0.00208493 -0.000626201 -0.000625168 -2.58513e-05
0.00207409 -0.000622942 -0.00062192 -2.58507e-05
0.00171936 -0.000517105 -0.000515252 -4.77126e-05
0.00170131 -0.000511663 -0.000509849 -4.77108e-05
0.00238191 -0.000714582 -0.000714568 -7.754e-11
0.00240722 -0.000722175 -0.000722161 -7.83429e-11
0.00171034 -0.000514384 -0.000512551 -4.77117e-05
0.00204157 -0.000613164 -0.000612174 -2.58492e-05
0.00239456 -0.000718379 -0.000718364 -7.79552e-11
0.00206325 -0.000619682 -0.000618671 -2.58502e-05
0.00205241 -0.000616423 -0.000615422 -2.58497e-05
0.00170131 -0.000511663 -0.000509849 -4.77108e-05
0.00168326 -0.00050622 -0.000504445 -4.7709e-05
0.0023566 -0.00070699 -0.000706976 -7.67333e-11
0.00238191 -0.000714582 -0.000714568 -7.754e-11
0.00169228 -0.000508941 -0.000507147 -4.77099e-05
0.00201989 -0.000606645 -0.000605676 -2.58481e-05
0.00236925 -0.000710786 -0.000710772 -7.71452e-11
0.00204157 -0.000613164 -0.000612174 -2.58492e-05
0.00203073 -0.000609904 -0.000608925 -2.58486e-05
0.00168326 -0.00050622 -0.000504445 -4.7709e-05
0.00166521 -0.000500778 -0.000499041 -4.77072e-05
0.00233129 -0.000699397 -0.000699384 -7.589e-11
0.0023566 -0.00070699 -0.000706976 -7.67333e-11
0.00167423 -0.000503499 -0.000501743 -4.77081e-05
0.00199821 -0.000600127 -0.000599179 -2.58471e-05
0.00234395 -0.000703193 -0.00070318 -7.63274e-11
0.00201989 -0.000606645 -0.000605676 -2.58481e-05
0.00200905 -0.000603386 -0.000602428 -2.58476e-05
0.00166521 -0.000500778 -0.000499041 -4.77072e-05
0.00164716 -0.000495337 -0.000493637 -4.77054e-05
0.00230598 -0.000691804 -0.000691792 -7.509e-11
0.00233129 -0.000699397 -0.000699384 -7.58988e-11
0.00165618 -0.000498057 -0.000496339 -4.77063e-05
0.00197653 -0.000593609 -0.000592682 -2.5846e-05
0.00231864 -0.000695601 -0.000695588 -7.54944e-11
0.00199821 -0.000600127 -0.000599179 -2.58471e-05
0.00198737 -0.000596868 -0.00059593 -2.58466e-05
0.00164716 -0.000495337 -0.000493637 -4.77054e-05
0.00162911 -0.000489895 -0.000488233 -4.77036e-05
0.00228068 -0.000684212 -0.0006842 -7.42288e-11
0.00230598 -0.000691804 -0.000691792 -7.509e-11
0.00163813 -0.000492616 -0.000490935 -4.77045e-05
0.00195486 -0.000587091 -0.000586185 -2.5845e-05
0.00229333 -0.000688008 -0.000687996 -7.47094e-11
0.00197653 -0.000593609 -0.000592682 -2.5846e-05
0.00196569 -0.00059035 -0.000589433 -2.58455e-05
0.00162911 -0.000489895 -0.000488233 -4.77036e-05
0.00161106 -0.000484454 -0.000482829 -4.77018e-05
0.00225537 -0.00067662 -0.000676608 -7.34427e-11
0.00228068 -0.000684212 -0.0006842 -7.42288e-11
0.00162008 -0.000487175 -0.000485531 -4.77027e-05
0.00193318 -0.000580574 -0.000579687 -2.5844e-05
0.00226802 -0.000680416 -0.000680404 -7.38749e-11
0.00195486 -0.000587091 -0.000586185 -2.5845e-05
0.00194402 -0.000583833 -0.000582936 -2.58445e-05
0.00161106 -0.000484454 -0.000482829 -4.77018e-05
0.001593 -0.000479013 -0.000477425 -4.77e-05
0.00223007 -0.000669028 -0.000669016 -7.26278e-11
0.00225537 -0.00067662 -0.000676608 -7.34384e-11
0.00160203 -0.000481734 -0.000480127 -4.77009e-05
0.0019115 -0.000574057 -0.00057319 -2.58429e-05
0.00224272 -0.000672824 -0.000672812 -7.3055e-11
0.00193318 -0.000580574 -0.000579687 -2.5844e-05
0.00192234 -0.000577315 -0.000576439 -2.58435e-05
0.001593 -0.000479013 -0.000477425 -4.77e-05
0.00157495 -0.000473573 -0.00047202 -4.76982e-05
0.00220476 -0.000661436 -0.000661425 -7.18178e-11
0.00223007 -0.000669028 -0.000669016 -7.26277e-11
0.00158398 -0.000476293 -0.000474723 -4.76991e-05
0.00188982 -0.00056754 -0.000566693 -2.58419e-05
0.00221741 -0.000665232 -0.000665221 -7.22341e-11
0.0019115 -0.000574057 -0.00057319 -2.58429e-05
0.00190066 -0.000570798 -0.000569941 -2.58424e-05
0.00157495 -0.000473573 -0.00047202 -4.76982e-05
0.0015569 -0.000468132 -0.000466616 -4.76965e-05
0.00217946 -0.000653844 -0.000653833 -7.0983e-11
0.00220476 -0.000661436 -0.000661425 -7.18178e-11
0.00156593 -0.000470852 -0.000469318 -4.76973e-05
0.00186815 -0.000561023 -0.000560195 -2.58409e-05
0.00219211 -0.00065764 -0.000657629 -7.14283e-11
0.00188982 -0.00056754 -0.000566693 -2.58419e-05
0.00187898 -0.000564281 -0.000563444 -2.58414e-05
0.0015569 -0.000468132 -0.000466616 -4.76965e-05
0.00153885 -0.000462692 -0.000461211 -4.76947e-05
0.00215415 -0.000646253 -0.000646242 -7.01716e-11
0.00217946 -0.000653844 -0.000653833 -7.0983e-11
0.00154788 -0.000465412 -0.000463914 -4.76956e-05
0.00184647 -0.000554506 -0.000553698 -2.58399e-05
0.0021668 -0.000650048 -0.000650038 -7.05976e-11
0.00186815 -0.000561023 -0.000560195 -2.58409e-05
0.00185731 -0.000557764 -0.000556947 -2.58404e-05
0.00153885 -0.000462692 -0.000461211 -4.76947e-05
0.0015208 -0.000457253 -0.000455807 -4.76929e-05
0.00212885 -0.000638661 -0.000638651 -6.9373e-11
0.00215415 -0.000646253 -0.000646242 -7.01713e-11
0.00152983 -0.000459973 -0.000458509 -4.76938e-05
0.00182479 -0.00054799 -0.000547201 -2.58389e-05
0.0021415 -0.000642457 -0.000642447 -6.979e-11
0.00184647 -0.000554506 -0.000553698 -2.58399e-05
0.00183563 -0.000551248 -0.00055045 -2.58394e-05
0.0015208 -0.000457253 -0.000455807 -4.76929e-05
0.00150275 -0.000451813 -0.000450402 -4.76912e-05
0.00210354 -0.00063107 -0.00063106 -6.85357e-11
0.00212885 -0.000638661 -0.000638651 -6.93555e-11
0.00151178 -0.000454533 -0.000453104 -4.76921e-05
0.00180312 -0.000541474 -0.000540704 -2.58379e-05
0.00211619 -0.000634865 -0.000634855 -6.89775e-11
0.00182479 -0.00054799 -0.000547201 -2.58389e-05
0.00181395 -0.000544732 -0.000543952 -2.58384e-05
0.00150275 -0.000451813 -0.000450402 -4.76912e-05
0.0014847 -0.000446374 -0.000444997 -4.76894e-05
0.00207824 -0.000623478 -0.000623469 -6.7721e-11
0.00210354 -0.00063107 -0.00063106 -6.85357e-11
0.00149373 -0.000449094 -0.000447699 -4.76903e-05
0.00178144 -0.000534958 -0.000534206 -2.58369e-05
0.00209089 -0.000627274 -0.000627264 -6.81348e-11
0.00180312 -0.000541474 -0.000540704 -2.58379e-05
0.00179228 -0.000538216 -0.000537455 -2.58374e-05
0.0014847 -0.000446374 -0.000444997 -4.76894e-05
0.00146665 -0.000440936 -0.000439592 -4.76877e-05
0.00205294 -0.000615887 -0.000615878 -6.69107e-11
0.00207824 -0.000623478 -0.000623469 -6.7721e-11
0.00147567 -0.000443655 -0.000442294 -4.76886e-05
0.00175976 -0.000528442 -0.000527709 -2.58359e-05
0.00206559 -0.000619683 -0.000619674 -6.73367e-11
0.00178144 -0.000534958 -0.000534206 -2.58369e-05
0.0017706 -0.0005317 -0.000530958 -2.58364e-05
0.00146665 -0.000440936 -0.000439592 -4.76877e-05
0.0014486 -0.000435497 -0.000434186 -4.7686e-05
0.00202763 -0.000608296 -0.000608288 -6.61005e-11
0.00205294 -0.000615887 -0.000615878 -6.69199e-11
0.00145762 -0.000438216 -0.000436889 -4.76868e-05
0.00173809 -0.000521926 -0.000521212 -2.58349e-05
0.00204029 -0.000612092 -0.000612083 -6.65202e-11
0.00175976 -0.000528442 -0.000527709 -2.58359e-05
0.00174893 -0.000525184 -0.00052446 -2.58354e-05
0.0014486 -0.000435497 -0.000434186 -4.7686e-05
0.00143055 -0.000430059 -0.000428781 -4.76843e-05
0.00200233 -0.000600705 -0.000600697 -6.5259e-11
0.00202763 -0.000608296 -0.000608288 -6.61005e-11
0.00143957 -0.000432778 -0.000431484 -4.76851e-05
0.00171641 -0.000515411 -0.000514714 -2.58339e-05
0.00201498 -0.000604501 -0.000604492 -6.5664e-11
0.00173809 -0.000521926 -0.000521212 -2.58349e-05
0.00172725 -0.000518669 -0.000517963 -2.58344e-05
0.00143055 -0.000430059 -0.000428781 -4.76843e-05
0.0014125 -0.000424621 -0.000423376 -4.76826e-05
0.00197703 -0.000593114 -0.000593107 -6.44606e-11
0.00200233 -0.000600705 -0.000600697 -6.5259e-11
0.00142152 -0.00042734 -0.000426078 -4.76834e-05
0.00169474 -0.000508896 -0.000508217 -2.58329e-05
0.00198968 -0.00059691 -0.000596902 -6.48718e-11
0.00171641 -0.000515411 -0.000514714 -2.58339e-05
0.00170557 -0.000512154 -0.000511466 -2.58334e-05
0.0014125 -0.000424621 -0.000423376 -4.76826e-05
0.00139445 -0.000419183 -0.00041797 -4.76809e-05
0.00195173 -0.000585524 -0.000585516 -6.36355e-11
0.00197703 -0.000593114 -0.000593107 -6.44606e-11
0.00140347 -0.000421902 -0.000420673 -4.76817e-05
0.00167306 -0.000502381 -0.00050172 -2.58319e-05
0.00196438 -0.000589319 -0.000589312 -6.40488e-11
0.00169474 -0.000508896 -0.000508217 -2.58329e-05
0.0016839 -0.000505639 -0.000504968 -2.58324e-05
0.00139445 -0.000419183 -0.00041797 -4.76809e-05
0.0013764 -0.000413746 -0.000412564 -4.76792e-05
0.00192643 -0.000577933 -0.000577926 -6.28028e-11
0.00195173 -0.000585524 -0.000585516 -6.36352e-11
0.00138542 -0.000416465 -0.000415267 -4.768e-05
0.00165139 -0.000495866 -0.000495222 -2.58309e-05
0.00193908 -0.000581728 -0.000581721 -6.32276e-11
0.00167306 -0.000502381 -0.00050172 -2.58319e-05
0.00166222 -0.000499124 -0.000498471 -2.58314e-05
0.0013764 -0.000413746 -0.000412564 -4.76792e-05
0.00135835 -0.000408309 -0.000407158 -4.76775e-05
0.00190113 -0.000570343 -0.000570336 -6.19772e-11
0.00192643 -0.000577933 -0.000577926 -6.28156e-11
0.00136737 -0.000411027 -0.000409861 -4.76783e-05
0.00162971 -0.000489352 -0.000488725 -2.583e-05
0.00191378 -0.000574138 -0.000574131 -6.23851e-11
0.00165139 -0.000495866 -0.000495222 -2.58309e-05
0.00164055 -0.000492609 -0.000491974 -2.58304e-05
0.00135835 -0.000408309 -0.000407158 -4.76775e-05
0.00134029 -0.000402872 -0.000401752 -4.76758e-05
0.00187583 -0.000562752 -0.000562746 -6.11628e-11
0.00190113 -0.000570343 -0.000570336 -6.19772e-11
0.00134932 -0.000405591 -0.000404455 -4.76767e-05
0.00160804 -0.000482838 -0.000482228 -2.5829e-05
0.00188848 -0.000566547 -0.000566541 -6.15715e-11
0.00162971 -0.000489352 -0.000488725 -2.583e-05
0.00161887 -0.000486095 -0.000485476 -2.58295e-05
0.00134029 -0.000402872 -0.000401752 -4.76758e-05
0.00132224 -0.000397436 -0.000396346 -4.76742e-05
0.00185053 -0.000555162 -0.000555156 -6.0358e-11
0.00187583 -0.000562752 -0.000562746 -6.11628e-11
0.00133127 -0.000400154 -0.000399049 -4.7675e-05
0.00158636 -0.000476324 -0.00047573 -2.5828e-05
0.00186318 -0.000558957 -0.000558951 -6.07624e-11
0.00160804 -0.000482838 -0.000482228 -2.5829e-05
0.0015972 -0.000479581 -0.000478979 -2.58285e-05
0.00132224 -0.000397436 -0.000396346 -4.76742e-05
0.00130419 -0.000392 -0.00039094 -4.76725e-05
0.00182523 -0.000547572 -0.000547567 -5.95436e-11
0.00185053 -0.000555162 -0.000555156 -6.03444e-11
0.00131322 -0.000394718 -0.000393643 -4.76734e-05
0.00156469 -0.00046981 -0.000469233 -2.58271e-05
0.00183788 -0.000551367 -0.000551361 -5.99401e-11
0.00158636 -0.000476324 -0.00047573 -2.5828e-05
0.00157552 -0.000473067 -0.000472482 -2.58275e-05
0.00130419 -0.000392 -0.00039094 -4.76725e-05
0.00128614 -0.000386564 -0.000385534 -4.76709e-05
0.00179993 -0.000539982 -0.000539977 -5.87399e-11
0.00182523 -0.000547572 -0.000547567 -5.95436e-11
0.00129517 -0.000389282 -0.000388237 -4.76717e-05
0.00154301 -0.000463296 -0.000462735 -2.58261e-05
0.00181258 -0.000543777 -0.000543772 -5.91287e-11
0.00156469 -0.00046981 -0.000469233 -2.58271e-05
0.00155385 -0.000466553 -0.000465984 -2.58266e-05
0.00128614 -0.000386564 -0.000385534 -4.76709e-05
0.00126809 -0.000381128 -0.000380127 -4.76693e-05
0.00177463 -0.000532392 -0.000532387 -5.79117e-11
0.00179993 -0.000539982 -0.000539977 -5.87399e-11
0.00127712 -0.000383846 -0.00038283 -4.76701e-05
0.00152134 -0.000456783 -0.000456238 -2.58252e-05
0.00178728 -0.000536187 -0.000536182 -5.83148e-11
0.00154301 -0.000463296 -0.000462735 -2.58261e-05
0.00153218 -0.00046004 -0.000459487 -2.58257e-05
0.00126809 -0.000381128 -0.000380127 -4.76693e-05
0.00125004 -0.000375693 -0.000374721 -4.76677e-05
0.00174933 -0.000524802 -0.000524798 -5.70641e-11
0.00177463 -0.000532392 -0.000532387 -5.79117e-11
0.00125907 -0.00037841 -0.000377424 -4.76685e-05
0.00149966 -0.00045027 -0.000449741 -2.58242e-05
0.00176198 -0.000528597 -0.000528593 -5.7479e-11
0.00152134 -0.000456783 -0.000456238 -2.58252e-05
0.0015105 -0.000453526 -0.000452989 -2.58247e-05
0.00125004 -0.000375693 -0.000374721 -4.76677e-05
0.00123199 -0.000370258 -0.000369314 -4.7666e-05
0.00172403 -0.000517212 -0.000517209 -5.62398e-11
0.00174933 -0.000524802 -0.000524798 -5.70641e-11
0.00124102 -0.000372975 -0.000372017 -4.76668e-05
0.00147799 -0.000443757 -0.000443243 -2.58233e-05
0.00173668 -0.000521007 -0.000521003 -5.66618e-11
0.00149966 -0.00045027 -0.000449741 -2.58242e-05
0.00148883 -0.000447013 -0.000446492 -2.58238e-05
0.00123199 -0.000370258 -0.000369314 -4.7666e-05
0.00121394 -0.000364823 -0.000363907 -4.76645e-05
0.00169873 -0.000509623 -0.000509619 -5.53985e-11
0.00172403 -0.000517212 -0.000517209 -5.62387e-11
0.00122296 -0.00036754 -0.00036661 -4.76652e-05
0.00145632 -0.000437244 -0.000436746 -2.58224e-05
0.00171138 -0.000513418 -0.000513414 -5.58296e-11
0.00147799 -0.000443757 -0.000443243 -2.58233e-05
0.00146715 -0.0004405 -0.000439994 -2.58228e-05
0.00121394 -0.000364823 -0.000363907 -4.76645e-05
0.00119589 -0.000359388 -0.0003585 -4.76629e-05
0.00167344 -0.000502033 -0.00050203 -5.45705e-11
0.00169873 -0.000509623 -0.000509619 -5.53985e-11
0.00120491 -0.000362105 -0.000361203 -4.76637e-05
0.00143464 -0.000430731 -0.000430248 -2.58215e-05
0.00168609 -0.000505828 -0.000505825 -5.49947e-11
0.00145632 -0.000437244 -0.000436746 -2.58224e-05
0.00144548 -0.000433987 -0.000433497 -2.58219e-05
0.00119589 -0.000359388 -0.0003585 -4.76629e-05
0.00117784 -0.000353954 -0.000353093 -4.76613e-05
0.00164814 -0.000494444 -0.000494441 -5.37773e-11
0.00167344 -0.000502033 -0.00050203 -5.45705e-11
0.00118686 -0.000356671 -0.000355796 -4.76621e-05
0.00141297 -0.000424219 -0.00042375 -2.58206e-05
0.00166079 -0.000498239 -0.000498236 -5.41652e-11
0.00143464 -0.000430731 -0.000430248 -2.58215e-05
0.00142381 -0.000427475 -0.000426999 -2.5821e-05
0.00117784 -0.000353954 -0.000353093 -4.76613e-05
0.00115979 -0.00034852 -0.000347685 -4.76597e-05
0.00162284 -0.000486855 -0.000486852 -5.2954e-11
0.00164814 -0.000494444 -0.000494441 -5.37732e-11
0.00116881 -0.000351237 -0.000350389 -4.76605e-05
0.0013913 -0.000417706 -0.000417253 -2.58196e-05
0.00163549 -0.000490649 -0.000490647 -5.339e-11
0.00141297 -0.000424219 -0.00042375 -2.58206e-05
0.00140213 -0.000420962 -0.000420502 -2.58201e-05
0.00115979 -0.00034852 -0.000347685 -4.76597e-05
0.00114173 -0.000343086 -0.000342278 -4.76582e-05
0.00159755 -0.000479265 -0.000479264 -5.2122e-11
0.00162284 -0.000486855 -0.000486852 -5.29544e-11
0.00115076 -0.000345803 -0.000344982 -4.7659e-05
0.00136962 -0.000411194 -0.000410755 -2.58187e-05
0.0016102 -0.00048306 -0.000483058 -5.25542e-11
0.0013913 -0.000417706 -0.000417253 -2.58196e-05
0.00138046 -0.00041445 -0.000414004 -2.58192e-05
0.00114173 -0.000343086 -0.000342278 -4.76582e-05
0.00112368 -0.000337653 -0.00033687 -4.76567e-05
0.00157225 -0.000471676 -0.000471675 -5.12981e-11
0.00159755 -0.000479265 -0.000479264 -5.2122e-11
0.00113271 -0.000340369 -0.000339574 -4.76574e-05
0.00134795 -0.000404682 -0.000404257 -2.58179e-05
0.0015849 -0.000475471 -0.000475469 -5.17166e-11
0.00136962 -0.000411194 -0.000410755 -2.58187e-05
0.00135879 -0.000407938 -0.000407506 -2.58183e-05
0.00112368 -0.000337653 -0.00033687 -4.76567e-05
0.00110563 -0.00033222 -0.000331463 -4.76551e-05
0.00154695 -0.000464087 -0.000464086 -5.04779e-11
0.00157225 -0.000471676 -0.000471675 -5.12981e-11
0.00111466 -0.000334936 -0.000334166 -4.76559e-05
0.00132628 -0.000398171 -0.00039776 -2.5817e-05
0.0015596 -0.000467882 -0.00046788 -5.0865e-11
0.00134795 -0.000404682 -0.000404257 -2.58179e-05
0.00133711 -0.000401427 -0.000401009 -2.58174e-05
0.00110563 -0.00033222 -0.000331463 -4.76551e-05
0.00108758 -0.000326787 -0.000326055 -4.76536e-05
0.00152166 -0.000456498 -0.000456498 -4.96847e-11
0.00154695 -0.000464087 -0.000464086 -5.04779e-11
0.00109661 -0.000329503 -0.000328759 -4.76544e-05
0.0013046 -0.000391659 -0.000391262 -2.58161e-05
0.00153431 -0.000460293 -0.000460292 -5.00561e-11
0.00132628 -0.000398171 -0.00039776 -2.5817e-05
0.00131544 -0.000394915 -0.000394511 -2.58165e-05
0.00108758 -0.000326787 -0.000326055 -4.76536e-05
0.00106953 -0.000321354 -0.000320647 -4.76521e-05
0.00149636 -0.000448909 -0.000448909 -4.88238e-11
0.00152166 -0.000456498 -0.000456498 -4.9681e-11
0.00107856 -0.00032407 -0.000323351 -4.76529e-05
0.00128293 -0.000385148 -0.000384764 -2.58152e-05
0.00150901 -0.000452704 -0.000452703 -4.92105e-11
0.0013046 -0.000391659 -0.000391262 -2.58161e-05
0.00129377 -0.000388404 -0.000388013 -2.58156e-05
0.00106953 -0.000321354 -0.000320647 -4.76521e-05
0.00105148 -0.000315922 -0.000315238 -4.76506e-05
0.00147107 -0.000441321 -0.000441321 -4.79574e-11
0.00149636 -0.000448909 -0.000448909 -4.88238e-11
0.0010605 -0.000318638 -0.000317943 -4.76514e-05
0.00126126 -0.000378637 -0.000378266 -2.58143e-05
0.00148372 -0.000445115 -0.000445115 -4.8381e-11
0.00128293 -0.000385148 -0.000384764 -2.58152e-05
0.00127209 -0.000381892 -0.000381515 -2.58148e-05
0.00105148 -0.000315922 -0.000315238 -4.76506e-05
0.00103343 -0.000310489 -0.00030983 -4.76492e-05
0.00144577 -0.000433732 -0.000433732 -4.71762e-11
0.00147107 -0.000441321 -0.000441321 -4.79574e-11
0.00104245 -0.000313205 -0.000312534 -4.76499e-05
0.00123959 -0.000372126 -0.000371768 -2.58135e-05
0.00145842 -0.000437526 -0.000437527 -4.75592e-11
0.00126126 -0.000378637 -0.000378266 -2.58143e-05
0.00125042 -0.000375381 -0.000375017 -2.58139e-05
0.00103343 -0.000310489 -0.00030983 -4.76492e-05
0.00101537 -0.000305058 -0.000304422 -4.76477e-05
0.00142048 -0.000426143 -0.000426144 -4.63396e-11
0.00144577 -0.000433732 -0.000433732 -4.7189e-11
0.0010244 -0.000307773 -0.000307126 -4.76484e-05
0.00121791 -0.000365615 -0.00036527 -2.58126e-05
0.00143313 -0.000429938 -0.000429938 -4.67623e-11
0.00123959 -0.000372126 -0.000371768 -2.58135e-05
0.00122875 -0.00036887 -0.000368519 -2.58131e-05
0.00101537 -0.000305058 -0.000304422 -4.76477e-05
0.000997323 -0.000299626 -0.000299013 -4.76462e-05
0.00139519 -0.000418555 -0.000418556 -4.55063e-11
0.00142048 -0.000426143 -0.000426144 -4.63398e-11
0.00100635 -0.000302342 -0.000301717 -4.7647e-05
0.00119624 -0.000359105 -0.000358773 -2.58118e-05
0.00140783 -0.000422349 -0.00042235 -4.59405e-11
0.00121791 -0.000365615 -0.00036527 -2.58126e-05
0.00120708 -0.00036236 -0.000362022 -2.58122e-05
0.000997323 -0.000299626 -0.000299013 -4.76462e-05
0.000979271 -0.000294195 -0.000293604 -4.76448e-05
0.00136989 -0.000410966 -0.000410968 -4.46721e-11
0.00139519 -0.000418555 -0.000418556 -4.55063e-11
0.000988297 -0.00029691 -0.000296309 -4.76455e-05
0.00117457 -0.000352594 -0.000352275 -2.58109e-05
0.00138254 -0.000414761 -0.000414762 -4.51116e-11
0.00119624 -0.000359105 -0.000358773 -2.58118e-05
0.0011854 -0.000355849 -0.000355524 -2.58114e-05
0.000979271 -0.000294195 -0.000293604 -4.76448e-05
0.000961219 -0.000288763 -0.000288195 -4.76434e-05
0.0013446 -0.000403378 -0.00040338 -4.3859e-11
0.00136989 -0.000410966 -0.000410968 -4.46721e-11
0.000970245 -0.000291479 -0.0002909 -4.76441e-05
0.0011529 -0.000346084 -0.000345776 -2.58101e-05
0.00135724 -0.000407172 -0.000407174 -4.42741e-11
0.00117457 -0.000352594 -0.000352275 -2.58109e-05
0.00116373 -0.000349339 -0.000349025 -2.58105e-05
0.000961219 -0.000288763 -0.000288195 -4.76434e-05
0.000943167 -0.000283333 -0.000282786 -4.7642e-05
0.0013193 -0.00039579 -0.000395792 -4.30466e-11
0.0013446 -0.000403378 -0.00040338 -4.38591e-11
0.000952193 -0.000286048 -0.000285491 -4.76427e-05
0.00113122 -0.000339574 -0.000339278 -2.58093e-05
0.00133195 -0.000399584 -0.000399586 -4.34452e-11
0.0011529 -0.000346084 -0.000345776 -2.58101e-05
0.00114206 -0.000342829 -0.000342527 -2.58097e-05
0.000943167 -0.000283333 -0.000282786 -4.7642e-05
0.000925115 -0.000277902 -0.000277377 -4.76406e-05
0.00129401 -0.000388201 -0.000388204 -4.21881e-11
0.0013193 -0.00039579 -0.000395792 -4.30419e-11
0.000934141 -0.000280617 -0.000280081 -4.76413e-05
0.00110955 -0.000333064 -0.00033278 -2.58085e-05
0.00130666 -0.000391996 -0.000391998 -4.26433e-11
0.00113122 -0.000339574 -0.000339278 -2.58093e-05
0.00112039 -0.000336319 -0.000336029 -2.58089e-05
0.000925115 -0.000277902 -0.000277377 -4.76406e-05
0.000907062 -0.000272472 -0.000271967 -4.76392e-05
0.00126872 -0.000380613 -0.000380616 -4.13751e-11
0.00129401 -0.000388201 -0.000388204 -4.21881e-11
0.000916088 -0.000275187 -0.000274672 -4.76399e-05
0.00108788 -0.000326554 -0.000326282 -2.58077e-05
0.00128136 -0.000384407 -0.00038441 -4.17635e-11
0.00110955 -0.000333064 -0.00033278 -2.58085e-05
0.00109871 -0.000329809 -0.000329531 -2.58081e-05
0.000907062 -0.000272472 -0.000271967 -4.76392e-05
0.00088901 -0.000267042 -0.000266558 -4.76378e-05
0.00124342 -0.000373025 -0.000373028 -4.0584e-11
0.00126872 -0.000380613 -0.000380616 -4.13354e-11
0.000898036 -0.000269757 -0.000269263 -4.76385e-05
0.00106621 -0.000320045 -0.000319784 -2.58069e-05
0.00125607 -0.000376819 -0.000376822 -4.09357e-11
0.00108788 -0.000326554 -0.000326282 -2.58077e-05
0.00107704 -0.000323299 -0.000323033 -2.58073e-05
0.00088901 -0.000267042 -0.000266558 -4.76378e-05
0.000870957 -0.000261612 -0.000261148 -4.76365e-05
0.00121813 -0.000365437 -0.000365441 -3.97007e-11
0.00124342 -0.000373025 -0.000373028 -4.0584e-11
0.000879983 -0.000264327 -0.000263853 -4.76372e-05
0.00104453 -0.000313535 -0.000313285 -2.58061e-05
0.00123078 -0.000369231 -0.000369235 -4.01116e-11
0.00106621 -0.000320045 -0.000319784 -2.58069e-05
0.00105537 -0.00031679 -0.000316534 -2.58065e-05
0.000870957 -0.000261612 -0.000261148 -4.76365e-05
0.000852904 -0.000256182 -0.000255738 -4.76352e-05
0.00119284 -0.000357849 -0.000357853 -3.8852e-11
0.00121813 -0.000365437 -0.000365441 -3.97007e-11
0.000861931 -0.000258897 -0.000258443 -4.76358e-05
0.00102286 -0.000307026 -0.000306787 -2.58053e-05
0.00120549 -0.000361643 -0.000361647 -3.92216e-11
0.00104453 -0.000313535 -0.000313285 -2.58061e-05
0.0010337 -0.000310281 -0.000310036 -2.58057e-05
0.000852904 -0.000256182 -0.000255738 -4.76352e-05
0.000834852 -0.000250753 -0.000250328 -4.76338e-05
0.00116755 -0.000350261 -0.000350266 -3.80416e-11
0.00119284 -0.000357849 -0.000357853 -3.88516e-11
0.000843878 -0.000253467 -0.000253033 -4.76345e-05
0.00100119 -0.000300517 -0.000300288 -2.58045e-05
0.00118019 -0.000354055 -0.000354059 -3.84575e-11
0.00102286 -0.000307026 -0.000306787 -2.58053e-05
0.00101203 -0.000303771 -0.000303538 -2.58049e-05
0.000834852 -0.000250753 -0.000250328 -4.76338e-05
0.000816798 -0.000245324 -0.000244918 -4.76325e-05
0.00114226 -0.000342673 -0.000342678 -3.72239e-11
0.00116755 -0.000350261 -0.000350266 -3.8054e-11
0.000825825 -0.000248038 -0.000247623 -4.76332e-05
0.000979518 -0.000294008 -0.00029379 -2.58037e-05
0.0011549 -0.000346467 -0.000346472 -3.7622e-11
0.00100119 -0.000300517 -0.000300288 -2.58045e-05
0.000990354 -0.000297262 -0.000297039 -2.58041e-05
0.000816798 -0.000245324 -0.000244918 -4.76325e-05
0.000798745 -0.000239895 -0.000239507 -4.76312e-05
0.00111696 -0.000335085 -0.000335091 -3.64132e-11
0.00114226 -0.000342673 -0.000342678 -3.72239e-11
0.000807772 -0.000242609 -0.000242213 -4.76319e-05
0.000957846 -0.000287499 -0.000287291 -2.5803e-05
0.00112961 -0.000338879 -0.000338884 -3.68076e-11
0.000979518 -0.000294008 -0.00029379 -2.58037e-05
0.000968682 -0.000290754 -0.000290541 -2.58033e-05
0.000798745 -0.000239895 -0.000239507 -4.76312e-05
0.000780692 -0.000234466 -0.000234097 -4.76299e-05
0.00109167 -0.000327498 -0.000327503 -3.55476e-11
0.00111696 -0.000335085 -0.000335091 -3.64132e-11
0.000789719 -0.00023718 -0.000236802 -4.76306e-05
0.000936173 -0.000280991 -0.000280793 -2.58022e-05
0.00110432 -0.000331292 -0.000331297 -3.59409e-11
0.000957846 -0.000287499 -0.000287291 -2.5803e-05
0.00094701 -0.000284245 -0.000284042 -2.58026e-05
0.000780692 -0.000234466 -0.000234097 -4.76299e-05
0.000762638 -0.000229038 -0.000228686 -4.76287e-05
0.00106638 -0.00031991 -0.000319916 -3.47457e-11
0.00109167 -0.000327498 -0.000327503 -3.55743e-11
0.000771665 -0.000231752 -0.000231391 -4.76293e-05
0.000914501 -0.000274482 -0.000274294 -2.58015e-05
0.00107903 -0.000323704 -0.000323709 -3.51708e-11
0.000936173 -0.000280991 -0.000280793 -2.58022e-05
0.000925337 -0.000277736 -0.000277543 -2.58018e-05
0.000762638 -0.000229038 -0.000228686 -4.76287e-05
0.000744585 -0.00022361 -0.000223275 -4.76274e-05
0.00104109 -0.000312322 -0.000312328 -3.39312e-11
0.00106638 -0.00031991 -0.000319916 -3.47457e-11
0.000753612 -0.000226324 -0.000225981 -4.7628e-05
0.000892829 -0.000267974 -0.000267795 -2.58007e-05
0.00105373 -0.000316116 -0.000316122 -3.43226e-11
0.000914501 -0.000274482 -0.000274294 -2.58015e-05
0.000903665 -0.000271228 -0.000271045 -2.58011e-05
0.000744585 -0.00022361 -0.000223275 -4.76274e-05
0.000726531 -0.000218182 -0.000217864 -4.76262e-05
0.0010158 -0.000304735 -0.000304741 -3.30649e-11
0.00104109 -0.000312322 -0.000312328 -3.39312e-11
0.000735558 -0.000220896 -0.00022057 -4.76268e-05
0.000871157 -0.000261466 -0.000261296 -2.58e-05
0.00102844 -0.000308529 -0.000308535 -3.3467e-11
0.000892829 -0.000267974 -0.000267795 -2.58007e-05
0.000881993 -0.00026472 -0.000264546 -2.58004e-05
0.000726531 -0.000218182 -0.000217864 -4.76262e-05
0.000708477 -0.000212754 -0.000212453 -4.7625e-05
0.000990506 -0.000297147 -0.000297154 -3.22115e-11
0.0010158 -0.000304735 -0.000304741 -3.30649e-11
0.000717504 -0.000215468 -0.000215158 -4.76256e-05
0.000849485 -0.000254958 -0.000254797 -2.57993e-05
0.00100315 -0.000300941 -0.000300948 -3.26512e-11
0.000871157 -0.000261466 -0.000261296 -2.58e-05
0.000860321 -0.000258212 -0.000258047 -2.57996e-05
0.000708477 -0.000212754 -0.000212453 -4.7625e-05
0.000690423 -0.000207326 -0.000207041 -4.76238e-05
0.000965215 -0.00028956 -0.000289567 -3.14175e-11
0.000990506 -0.000297147 -0.000297154 -3.2212e-11
0.00069945 -0.00021004 -0.000209747 -4.76244e-05
0.000827812 -0.00024845 -0.000248298 -2.57985e-05
0.000977861 -0.000293353 -0.00029336 -3.17902e-11
0.000849485 -0.000254958 -0.000254797 -2.57993e-05
0.000838648 -0.000251704 -0.000251548 -2.57989e-05
0.000690423 -0.000207326 -0.000207041 -4.76238e-05
0.000672368 -0.000201899 -0.00020163 -4.76226e-05
0.000939924 -0.000281972 -0.00028198 -3.05608e-11
0.000965215 -0.00028956 -0.000289567 -3.14142e-11
0.000681395 -0.000204613 -0.000204335 -4.76232e-05
0.00080614 -0.000241942 -0.000241799 -2.57978e-05
0.00095257 -0.000285766 -0.000285773 -3.09894e-11
0.000827812 -0.00024845 -0.000248298 -2.57985e-05
0.000816976 -0.000245196 -0.000245049 -2.57982e-05
0.000672368 -0.000201899 -0.00020163 -4.76226e-05
0.000654313 -0.000196472 -0.000196218 -4.76214e-05
0.000914634 -0.000274385 -0.000274392 -2.97066e-11
0.000939924 -0.000281972 -0.00028198 -3.05608e-11
0.000663341 -0.000199186 -0.000198924 -4.7622e-05
0.000784468 -0.000235434 -0.0002353 -2.57971e-05
0.000927279 -0.000278178 -0.000278186 -3.01099e-11
0.00080614 -0.000241942 -0.000241799 -2.57978e-05
0.000795304 -0.000238688 -0.00023855 -2.57975e-05
0.000654313 -0.000196472 -0.000196218 -4.76214e-05
0.000636259 -0.000191045 -0.000190806 -4.76202e-05
0.000889343 -0.000266797 -0.000266805 -2.88501e-11
0.000914634 -0.000274385 -0.000274392 -2.97066e-11
0.000645286 -0.000193759 -0.000193512 -4.76208e-05
0.000762795 -0.000228927 -0.000228801 -2.57964e-05
0.000901988 -0.000270591 -0.000270599 -2.92957e-11
0.000784468 -0.000235434 -0.0002353 -2.57971e-05
0.000773631 -0.000232181 -0.00023205 -2.57968e-05
0.000636259 -0.000191045 -0.000190806 -4.76202e-05
0.000618204 -0.000185619 -0.000185393 -4.76191e-05
0.000864052 -0.00025921 -0.000259218 -2.79201e-11
0.000889343 -0.000266797 -0.000266805 -2.88234e-11
0.000627231 -0.000188332 -0.0001881 -4.76196e-05
0.000741123 -0.00022242 -0.000222301 -2.57958e-05
0.000876698 -0.000263003 -0.000263012 -2.8428e-11
0.000762795 -0.000228927 -0.000228801 -2.57964e-05
0.000751959 -0.000225673 -0.000225551 -2.57961e-05
0.000618204 -0.000185619 -0.000185393 -4.76191e-05
0.000600148 -0.000180192 -0.000179981 -4.7618e-05
0.000838762 -0.000251622 -0.000251631 -2.70257e-11
0.000864052 -0.00025921 -0.000259218 -2.79199e-11
0.000609176 -0.000182906 -0.000182687 -4.76185e-05
0.00071945 -0.000215913 -0.000215802 -2.57951e-05
0.000851407 -0.000255416 -0.000255425 -2.75138e-11
0.000741123 -0.00022242 -0.000222301 -2.57958e-05
0.000730286 -0.000219166 -0.000219052 -2.57954e-05
0.000600148 -0.000180192 -0.000179981 -4.7618e-05
0.000582093 -0.000174766 -0.000174568 -4.76168e-05
0.000813471 -0.000244035 -0.000244044 -2.60201e-11
0.000838762 -0.000251622 -0.000251631 -2.70257e-11
0.000591121 -0.000177479 -0.000177275 -4.76174e-05
0.000697777 -0.000209406 -0.000209302 -2.57944e-05
0.000826117 -0.000247829 -0.000247838 -2.659e-11
0.00071945 -0.000215913 -0.000215802 -2.57951e-05
0.000708614 -0.000212659 -0.000212552 -2.57948e-05
0.000582093 -0.000174766 -0.000174568 -4.76168e-05
0.000564037 -0.00016934 -0.000169156 -4.76158e-05
0.000788181 -0.000236448 -0.000236457 -2.49606e-11
0.000813471 -0.000244035 -0.000244044 -2.60201e-11
0.000573065 -0.000172053 -0.000171862 -4.76163e-05
0.000676105 -0.000202899 -0.000202803 -2.57938e-05
0.000800826 -0.000240241 -0.000240251 -2.54939e-11
0.000697777 -0.000209406 -0.000209302 -2.57944e-05
0.000686941 -0.000206152 -0.000206052 -2.57941e-05
0.000564037 -0.00016934 -0.000169156 -4.76158e-05
0.000545981 -0.000163915 -0.000163743 -4.76147e-05
0.000762891 -0.00022886 -0.00022887 -2.37767e-11
0.000788181 -0.000236448 -0.000236457 -2.49606e-11
0.000555009 -0.000166628 -0.000166449 -4.76152e-05
0.000654432 -0.000196392 -0.000196303 -2.57931e-05
0.000775536 -0.000232654 -0.000232664 -2.4369e-11
0.000676105 -0.000202899 -0.000202803 -2.57938e-05
0.000665268 -0.000199645 -0.000199553 -2.57935e-05
0.000545981 -0.000163915 -0.000163743 -4.76147e-05
0.000527925 -0.000158489 -0.000158329 -4.76137e-05
0.000737601 -0.000221273 -0.000221283 -2.24939e-11
0.000762891 -0.00022886 -0.00022887 -2.38127e-11
0.000536953 -0.000161202 -0.000161036 -4.76142e-05
0.000632759 -0.000189885 -0.000189803 -2.57925e-05
0.000750246 -0.000225067 -0.000225077 -2.31915e-11
0.000654432 -0.000196392 -0.000196303 -2.57931e-05
0.000643595 -0.000193138 -0.000193053 -2.57928e-05
0.000527925 -0.000158489 -0.000158329 -4.76137e-05
0.000509868 -0.000153064 -0.000152916 -4.76127e-05
0.00071231 -0.000213686 -0.000213696 -2.10843e-11
0.000737601 -0.000221273 -0.000221283 -2.24939e-11
0.000518897 -0.000155777 -0.000155623 -4.76132e-05
0.000611086 -0.000183379 -0.000183303 -2.57919e-05
0.000724955 -0.000217479 -0.00021749 -2.18026e-11
0.000632759 -0.000189885 -0.000189803 -2.57925e-05
0.000621922 -0.000186632 -0.000186553 -2.57922e-05
0.000509868 -0.000153064 -0.000152916 -4.76127e-05
0.000491812 -0.000147639 -0.000147502 -4.76118e-05
0.00068702 -0.000206098 -0.000206109 -1.93951e-11
0.00071231 -0.000213686 -0.000213696 -2.10843e-11
0.00050084 -0.000150352 -0.000150209 -4.76122e-05
0.000589412 -0.000176872 -0.000176803 -2.57914e-05
0.000699665 -0.000209892 -0.000209903 -2.02046e-11
0.000611086 -0.000183379 -0.000183303 -2.57919e-05
0.000600249 -0.000180125 -0.000180053 -2.57917e-05
0.000491812 -0.000147639 -0.000147502 -4.76118e-05
0.000473754 -0.000142214 -0.000142089 -4.76109e-05
0.00066173 -0.000198511 -0.000198522 -1.74689e-11
0.00068702 -0.000206098 -0.000206109 -1.94346e-11
0.000482783 -0.000144927 -0.000144796 -4.76114e-05
0.000567739 -0.000170366 -0.000170303 -2.57909e-05
0.000674375 -0.000202305 -0.000202316 -1.84118e-11
0.000589412 -0.000176872 -0.000176803 -2.57914e-05
0.000578576 -0.000173619 -0.000173553 -2.57911e-05
0.000473754 -0.000142214 -0.000142089 -4.76109e-05
0.000455697 -0.00013679 -0.000136675 -4.76102e-05
0.000636439 -0.000190924 -0.000190935 -1.53707e-11
0.00066173 -0.000198511 -0.000198522 -1.74689e-11
0.000464726 -0.000139502 -0.000139382 -4.76105e-05
0.000546065 -0.00016386 -0.000163802 -2.57904e-05
0.000649085 -0.000194717 -0.000194729 -1.63161e-11
0.000567739 -0.000170366 -0.000170303 -2.57909e-05
0.000556902 -0.000167113 -0.000167053 -2.57906e-05
0.000455697 -0.00013679 -0.000136675 -4.76102e-05
0.000437639 -0.000131365 -0.00013126 -4.76095e-05
0.000611149 -0.000183336 -0.000183348 -1.27488e-11
0.000636439 -0.000190924 -0.000190935 -1.53707e-11
0.000446668 -0.000134077 -0.000133968 -4.76098e-05
0.000524391 -0.000157353 -0.000157302 -2.579e-05
0.000623794 -0.00018713 -0.000187142 -1.39721e-11
0.000546065 -0.00016386 -0.000163802 -2.57904e-05
0.000535228 -0.000160606 -0.000160552 -2.57902e-05
0.000437639 -0.000131365 -0.00013126 -4.76095e-05
0.000419581 -0.000125941 -0.000125846 -4.76089e-05
0.000585858 -0.000175749 -0.000175761 -1.03379e-11
0.000611149 -0.000183336 -0.000183348 -1.27488e-11
0.00042861 -0.000128653 -0.000128553 -4.76092e-05
0.000502717 -0.000150847 -0.000150801 -2.57897e-05
0.000598503 -0.000179543 -0.000179555 -1.12424e-11
0.000524391 -0.000157353 -0.000157302 -2.579e-05
0.000513554 -0.0001541 -0.000154052 -2.57898e-05
0.000419581 -0.000125941 -0.000125846 -4.76089e-05
0.000401523 -0.000120517 -0.000120431 -4.76085e-05
0.000560567 -0.000168161 -0.000168174 -6.92231e-12
0.000585858 -0.000175749 -0.000175761 -1.03383e-11
0.000410552 -0.000123229 -0.000123139 -4.76087e-05
0.000481042 -0.000144341 -0.0001443 -2.57895e-05
0.000573212 -0.000171955 -0.000171967 -8.21627e-12
0.000502717 -0.000150847 -0.000150801 -2.57897e-05
0.00049188 -0.000147594 -0.000147551 -2.57896e-05
0.000401523 -0.000120517 -0.000120431 -4.76085e-05
0.000383464 -0.000115093 -0.000115016 -4.76082e-05
0.000535275 -0.000160574 -0.000160586 -5.28939e-12
0.000560567 -0.000168161 -0.000168174 -6.9219e-12
0.000392494 -0.000117805 -0.000117724 -4.76083e-05
0.000459367 -0.000137835 -0.000137799 -2.57893e-05
0.000547921 -0.000164367 -0.00016438 -5.52473e-12
0.000481042 -0.000144341 -0.0001443 -2.57895e-05
0.000470205 -0.000141088 -0.00014105 -2.57894e-05
0.000383464 -0.000115093 -0.000115016 -4.76082e-05
0.000365405 -0.000109669 -0.000109601 -4.7608e-05
0.000509983 -0.000152986 -0.000152999 -2.22851e-12
0.000535275 -0.000160574 -0.000160586 -5.28939e-12
0.000374435 -0.000112381 -0.000112309 -4.76081e-05
0.000437692 -0.000131329 -0.000131298 -2.57893e-05
0.000522629 -0.00015678 -0.000156793 -1.61499e-12
0.000459367 -0.000137835 -0.000137799 -2.57893e-05
0.00044853 -0.000134582 -0.000134549 -2.57893e-05
0.000365405 -0.000109669 -0.000109601 -4.7608e-05
0.000347346 -0.000104246 -0.000104186 -4.76078e-05
0.00048469 -0.000145397 -0.000145411 -6.73719e-12
0.000509983 -0.000152986 -0.000152999 -2.22851e-12
0.000356375 -0.000106958 -0.000106893 -4.76079e-05
0.000416016 -0.000124823 -0.000124797 -2.57894e-05
0.000497336 -0.000149192 -0.000149205 -4.5963e-12
0.000437692 -0.000131329 -0.000131298 -2.57893e-05
0.000426854 -0.000128076 -0.000128047 -2.57894e-05
0.000347346 -0.000104246 -0.000104186 -4.76078e-05
0.000329286 -9.88223e-05 -9.87702e-05 -4.76074e-05
0.000459395 -0.000137809 -0.000137823 -1.57931e-11
0.00048469 -0.000145397 -0.000145411 -6.76348e-12
0.000338316 -0.000101534 -0.000101478 -4.76076e-05
0.000394339 -0.000118317 -0.000118295 -2.57895e-05
0.000472043 -0.000141603 -0.000141617 2.66292e-13
0.000416016 -0.000124823 -0.000124797 -2.57894e-05
0.000405177 -0.00012157 -0.000121546 -2.57895e-05
0.000329286 -9.88223e-05 -9.87702e-05 -4.76074e-05
0.000311227 -9.33988e-05 -9.33548e-05 -4.76063e-05
0.0004341 -0.00013022 -0.000130234 -4.71359e-11
0.000459395 -0.000137809 -0.000137823 -1.57931e-11
0.000320256 -9.61106e-05 -9.60625e-05 -4.7607e-05
0.000372663 -0.000111811 -0.000111793 -2.57894e-05
0.000446748 -0.000134015 -0.000134029 -4.09711e-11
0.000394339 -0.000118317 -0.000118295 -2.57895e-05
0.000383501 -0.000115064 -0.000115044 -2.57895e-05
0.000311227 -9.33988e-05 -9.33548e-05 -4.76063e-05
0.000293168 -8.79749e-05 -8.79399e-05 -4.76036e-05
0.000408804 -0.000122631 -0.000122646 -1.41126e-10
0.0004341 -0.00013022 -0.000130234 -4.71359e-11
0.000302197 -9.06869e-05 -9.06473e-05 -4.76052e-05
0.000350986 -0.000105305 -0.000105292 -2.57886e-05
0.000421452 -0.000126426 -0.00012644 -3.52804e-11
0.000372663 -0.000111811 -0.000111793 -2.57894e-05
0.000361824 -0.000108558 -0.000108543 -2.57891e-05
0.000293168 -8.79749e-05 -8.79399e-05 -4.76036e-05
0.000275111 -8.25498e-05 -8.2526e-05 -4.75972e-05
0.000383507 -0.000115042 -0.000115057 -2.66846e-10
0.000408804 -0.000122631 -0.000122646 -1.41126e-10
0.000284139 -8.52626e-05 -8.52327e-05 -4.7601e-05
0.000329311 -9.87998e-05 -9.87907e-05 -2.5786e-05
0.000396156 -0.000118836 -0.000118851 -2.75187e-10
0.000350986 -0.000105305 -0.000105292 -2.57886e-05
0.000340149 -0.000102053 -0.000102041 -2.57876e-05
0.000275111 -8.25498e-05 -8.2526e-05 -4.75972e-05
0.000257055 -7.71221e-05 -7.71141e-05 -4.75837e-05
0.000358212 -0.000107452 -0.000107468 -8.15047e-10
0.000383507 -0.000115042 -0.000115057 -2.66846e-10
0.000266083 -7.98365e-05 -7.98198e-05 -4.75916e-05
0.000307641 -9.22946e-05 -9.22912e-05 -2.57794e-05
0.000370859 -0.000111247 -0.000111262 -2.62664e-10
0.000329311 -9.87998e-05 -9.87907e-05 -2.5786e-05
0.000318475 -9.55471e-05 -9.55406e-05 -2.57834e-05
0.000257055 -7.71221e-05 -7.71141e-05 -4.75837e-05
0.000239004 -7.16888e-05 -7.17065e-05 -4.75552e-05
0.000332923 -9.98662e-05 -9.98813e-05 -1.18345e-09
0.000358212 -0.000107452 -0.000107468 -8.15074e-10
0.000248029 -7.44064e-05 -7.44095e-05 -4.7572e-05
0.000285979 -8.57904e-05 -8.5795e-05 -2.57638e-05
0.000345567 -0.000103659 -0.000103675 -1.4055e-09
0.000307641 -9.22946e-05 -9.22912e-05 -2.57794e-05
0.000296809 -8.90423e-05 -8.90427e-05 -2.57731e-05
0.000239004 -7.16888e-05 -7.17065e-05 -4.75552e-05
0.000220956 -6.6244e-05 -6.63053e-05 -4.74999e-05
0.000307653 -9.22834e-05 -9.23014e-05 -3.80446e-09
0.000332923 -9.98662e-05 -9.98813e-05 -1.18345e-09
0.00022998 -6.89685e-05 -6.9005e-05 -4.75319e-05
0.000264337 -7.92883e-05 -7.93066e-05 -2.5731e-05
0.000320284 -9.60727e-05 -9.60905e-05 -1.26171e-09
0.000285979 -8.57904e-05 -8.5795e-05 -2.57638e-05
0.000275154 -8.25391e-05 -8.25493e-05 -2.57505e-05
0.000220956 -6.6244e-05 -6.63053e-05 -4.74999e-05
0.000202918 -6.07764e-05 -6.09178e-05 -4.73907e-05
0.00028242 -8.47199e-05 -8.47287e-05 -4.38458e-09
0.000307653 -9.22834e-05 -9.23014e-05 -3.80446e-09
0.000211935 -6.35137e-05 -6.36091e-05 -4.74546e-05
0.00024273 -7.27903e-05 -7.28312e-05 -2.5662e-05
0.000295032 -8.85017e-05 -8.8513e-05 -6.1541e-09
0.000264337 -7.92883e-05 -7.93066e-05 -2.5731e-05
0.000253529 -7.60385e-05 -7.60672e-05 -2.57022e-05
0.000202918 -6.07764e-05 -6.09178e-05 -4.73907e-05
0.000184877 -5.52677e-05 -5.55467e-05 -4.71916e-05
0.000257291 -7.71721e-05 -7.71939e-05 -1.53957e-08
0.00028242 -8.47199e-05 -8.47287e-05 -4.38458e-09
0.0001939 -5.80296e-05 -5.82303e-05 -4.73052e-05
0.000221199 -6.63002e-05 -6.6385e-05 -2.55275e-05
0.000269834 -8.0935e-05 -8.09569e-05 -4.63475e-09
0.00024273 -7.27903e-05 -7.28312e-05 -2.5662e-05
0.00023195 -6.95443e-05 -6.96025e-05 -2.56071e-05
0.000184877 -5.52677e-05 -5.55467e-05 -4.71916e-05
0.000166846 -4.96813e-05 -5.02135e-05 -4.68201e-05
0.000232325 -6.97211e-05 -6.96875e-05 -1.37283e-08
0.000257291 -7.71721e-05 -7.71939e-05 -1.53957e-08
0.000175856 -5.2485e-05 -5.28731e-05 -4.70354e-05
0.000199785 -5.9823e-05 -5.99836e-05 -2.52678e-05
0.000244789 -7.34486e-05 -7.34315e-05 -2.43903e-08
0.000221199 -6.63002e-05 -6.6385e-05 -2.55275e-05
0.000210476 -6.30584e-05 -6.31792e-05 -2.54155e-05
0.000166846 -4.96813e-05 -5.02135e-05 -4.68201e-05
0.000148754 -4.39753e-05 -4.49052e-05 -4.61927e-05
0.000207788 -6.23163e-05 -6.2345e-05 -5.55813e-08
0.000232325 -6.97211e-05 -6.96875e-05 -1.37283e-08
0.000157821 -4.68525e-05 -4.7558e-05 -4.65439e-05
0.000178624 -5.33744e-05 -5.36782e-05 -2.47881e-05
0.000219969 -6.59684e-05 -6.60002e-05 -1.23131e-08
0.000199785 -5.9823e-05 -5.99836e-05 -2.52678e-05
0.000189156 -5.65969e-05 -5.68111e-05 -2.50718e-05
0.000148754 -4.39753e-05 -4.49052e-05 -4.61927e-05
0.000130629 -3.80434e-05 -3.96796e-05 -4.51025e-05
0.000183874 -5.534e-05 -5.5086e-05 -3.57124e-08
0.000207788 -6.23163e-05 -6.2345e-05 -5.55813e-08
0.000139679 -4.10316e-05 -4.22773e-05 -4.57257e-05
0.000157791 -4.69547e-05 -4.75014e-05 -2.39394e-05
0.000195763 -5.88495e-05 -5.86772e-05 -9.14462e-08
0.000178624 -5.33744e-05 -5.36782e-05 -2.47881e-05
0.000168173 -5.01531e-05 -5.058e-05 -2.44062e-05
0.000130629 -3.80434e-05 -3.96796e-05 -4.51025e-05
0.000112127 -3.18598e-05 -3.44003e-05 -4.34699e-05
0.00016147 -4.84133e-05 -4.84527e-05 -1.82169e-07
0.000183874 -5.534e-05 -5.5086e-05 -3.57124e-08
0.000121485 -3.50174e-05 -3.70576e-05 -4.43548e-05
0.00013769 -4.06262e-05 -4.15987e-05 -2.24477e-05
0.000172363 -5.16623e-05 -5.17287e-05 -1.1524e-08
0.000157791 -4.69547e-05 -4.75014e-05 -2.39394e-05
0.000147592 -4.37927e-05 -4.44855e-05 -2.33384e-05
0.000112127 -3.18598e-05 -3.44003e-05 -4.34699e-05
9.3268e-05 -2.51604e-05 -2.9189e-05 -4.09881e-05
0.000141202 -4.32662e-05 -4.19723e-05 -6.82407e-08
0.00016147 -4.84133e-05 -4.84527e-05 -1.82169e-07
0.00010268 -2.85122e-05 -3.17861e-05 -4.2362e-05
0.000118216 -3.42969e-05 -3.59654e-05 -2.01137e-05
0.000151111 -4.59901e-05 -4.50518e-05 -3.40055e-07
0.00013769 -4.06262e-05 -4.15987e-05 -2.24477e-05
0.000127944 -3.743e-05 -3.87918e-05 -2.13204e-05
9.3268e-05 -2.51604e-05 -2.9189e-05 -4.09881e-05
7.26748e-05 -1.84867e-05 -2.32235e-05 -3.83041e-05
0.000125497 -3.76232e-05 -3.76602e-05 -5.00801e-07
0.000141202 -4.32662e-05 -4.19723e-05 -6.82407e-08
8.34228e-05 -2.19329e-05 -2.63528e-05 -3.96016e-05
0.000100395 -2.81926e-05 -3.09437e-05 -1.63026e-05
0.000132433 -3.95764e-05 -3.97957e-05 1.41334e-07
0.000118216 -3.42969e-05 -3.59654e-05 -2.01137e-05
0.000108901 -3.12848e-05 -3.32642e-05 -1.86327e-05
7.26748e-05 -1.84867e-05 -2.32235e-05 -3.83041e-05
5.04329e-05 -1.18405e-05 -1.65396e-05 -3.649e-05
0.000117106 -3.88164e-05 -3.35525e-05 7.6859e-07
0.000125497 -3.76232e-05 -3.76602e-05 -5.00801e-07
6.15146e-05 -1.47039e-05 -2.00618e-05 -3.71257e-05
8.18599e-05 -2.15979e-05 -2.58265e-05 -1.21143e-05
0.000120389 -3.91653e-05 -3.48103e-05 -1.10467e-06
0.000100395 -2.81926e-05 -3.09437e-05 -1.63026e-05
9.17098e-05 -2.48663e-05 -2.86472e-05 -1.37694e-05
5.04329e-05 -1.18405e-05 -1.65396e-05 -3.649e-05
2.43871e-05 -1.24168e-05 -5.13013e-06 -4.27656e-05
0.000124854 -3.43153e-05 -3.88023e-05 4.78037e-06
0.000117106 -3.88164e-05 -3.35525e-05 7.6859e-07
3.84001e-05 -1.11394e-05 -1.16832e-05 -3.79224e-05
6.21317e-05 -1.60827e-05 -1.97353e-05 -9.35294e-06
0.000117857 -3.32241e-05 -3.62711e-05 3.3906e-06
8.18599e-05 -2.15979e-05 -2.58265e-05 -1.21143e-05
7.17116e-05 -1.86953e-05 -2.27213e-05 -1.10602e-05
2.43871e-05 -1.24168e-05 -5.13013e-06 -4.27656e-05
1.19994e-05 -4.25919e-05 1.31111e-05 -6.66749e-05
0.000170464 -3.53141e-05 -5.79212e-05 3.78495e-05
0.000124854 -3.43153e-05 -3.88023e-05 4.78037e-06
1.37887e-05 -1.81132e-05 1.85333e-06 -5.12253e-05
2.00283e-05 -2.76182e-05 3.25281e-06 -3.7687e-05
0.000141316 -4.73095e-05 -4.02886e-05 1.00926e-05
6.21317e-05 -1.60827e-05 -1.97353e-05 -9.35294e-06
4.6957e-05 -1.56606e-05 -1.34127e-05 -1.46211e-05
1.19994e-05 -4.25919e-05 1.31111e-05 -6.66749e-05
6.14896e-05 -0.000185618 5.3198e-05 -6.8579e-05
0.00011252 -0.000246336 5.73495e-05 -0.000182648
0.000170464 -3.53141e-05 -5.79212e-05 3.78495e-05
2.56794e-05 -9.92397e-05 3.15258e-05 -7.93064e-05
5.62573e-05 -0.000228259 7.37149e-05 -0.000110266
0.000173674 -1.33556e-05 -6.87079e-05 1.81967e-05
2.00283e-05 -2.76182e-05 3.25281e-06 -3.7687e-05
1.26843e-05 -7.5536e-05 2.69365e-05 -7.1792e-05
      </DataArray> 
    </PointData>
    <CellData>
      <DataArray type="Float64" NumberOfComponents="1" Name="Process" format="ascii">
3
3
3
3
3
3
3
3
3
3
3
3
3
3
3
3
3
3
3
3
3
3
3
3
3
2
2
2
2
2
2
2
2
2
2
2
2
2
2
2
2
2
2
2
2
2
2
2
2
1
1
1
1
1
1
1
1
1
1
1
1
1
1
1
1
1
1
1
1
1
1
1
1
1
0
0
0
0
0
0
0
0
0
0
0
0
0
0
0
0
0
0
0
0
0
0
0
0
0
5
5
5
5
5
5
5
5
5
5
5
5
5
5
5
5
5
5
5
5
5
5
5
5
5
4
4
4
4
4
4
4
4
4
4
4
4
4
4
4
4
4
4
4
4
4
4
4
4
7
7
7
7
7
7
7
7
7
7
7
7
7
7
7
7
7
7
7
7
7
7
7
7
7
6
6
6
6
6
6
6
6
6
6
6
6
6
6
6
6
6
6
6
6
6
6
6
6
3
3
3
3
3
3
3
3
3
3
3
3
3
3
3
3
3
3
3
3
3
3
3
3
3
2
2
2
2
2
2
2
2
2
2
2
2
2
2
2
2
2
2
2
2
2
2
2
2
1
1
1
1
1
1
1
1
1
1
1
1
1
1
1
1
1
1
1
1
1
1
1
1
1
0
0
0
0
0
0
0
0
0
0
0
0
0
0
0
0
0
0
0
0
0
0
0
0
0
5
5
5
5
5
5
5
5
5
5
5
5
5
5
5
5
5
5
5
5
5
5
5
5
5
4
4
4
4
4
4
4
4
4
4
4
4
4
4
4
4
4
4
4
4
4
4
4
4
7
7
7
7
7
7
7
7
7
7
7
7
7
7
7
7
7
7
7
7
7
7
7
7
7
6
6
6
6
6
6
6
6
6
6
6
6
6
6
6
6
6
6
6
6
6
6
6
6
3
3
3
3
3
3
3
3
3
3
3
3
3
3
3
3
3
3
3
3
3
3
3
3
3
2
2
2
2
2
2
2
2
2
2
2
2
2
2
2
2
2
2
2
2
2
2
2
2
1
1
1
1
1
1
1
1
1
1
1
1
1
1
1
1
1
1
1
1
1
1
1
1
1
0
0
0
0
0
0
0
0
0
0
0
0
0
0
0
0
0
0
0
0
0
0
0
0
0
5
5
5
5
5
5
5
5
5
5
5
5
5
5
5
5
5
5
5
5
5
5
5
5
5
4
4
4
4
4
4
4
4
4
4
4
4
4
4
4
4
4
4
4
4
4
4
4
4
7
7
7
7
7
7
7
7
7
7
7
7
7
7
7
7
7
7
7
7
7
7
7
7
7
6
6
6
6
6
6
6
6
6
6
6
6
6
6
6
6
6
6
6
6
6
6
6
6
3
3
3
3
3
3
3
3
3
3
3
3
3
3
3
3
3
3
3
3
3
3
3
3
3
2
2
2
2
2
2
2
2
2
2
2
2
2
2
2
2
2
2
2
2
2
2
2
2
1
1
1
1
1
1
1
1
1
1
1
1
1
1
1
1
1
1
1
1
1
1
1
1
1
0
0
0
0
0
0
0
0
0
0
0
0
0
0
0
0
0
0
0
0
0
0
0
0
0
5
5
5
5
5
5
5
5
5
5
5
5
5
5
5
5
5
5
5
5
5
5
5
5
5
4
4
4
4
4
4
4
4
4
4
4
4
4
4
4
4
4
4
4
4
4
4
4
4
7
7
7
7
7
7
7
7
7
7
7
7
7
7
7
7
7
7
7
7
7
7
7
7
7
6
6
6
6
6
6
6
6
6
6
6
6
6
6
6
6
6
6
6
6
6
6
6
6
3
3
3
3
3
3
3
3
3
3
3
3
3
3
3
3
3
3
3
3
3
3
3
3
3
2
2
2
2
2
2
2
2
2
2
2
2
2
2
2
2
2
2
2
2
2
2
2
2
1
1
1
1
1
1
1
1
1
1
1
1
1
1
1
1
1
1
1
1
1
1
1
1
1
0
0
0
0
0
0
0
0
0
0
0
0
0
0
0
0
0
0
0
0
0
0
0
0
0
5
5
5
5
5
5
5
5
5
5
5
5
5
5
5
5
5
5
5
5
5
5
5
5
5
4
4
4
4
4
4
4
4
4
4
4
4
4
4
4
4
4
4
4
4
4
4
4
4
7
7
7
7
7
7
7
7
7
7
7
7
7
7
7
7
7
7
7
7
7
7
7
7
7
6
6
6
6
6
6
6
6
6
6
6
6
6
6
6
6
6
6
6
6
6
6
6
6
3
3
3
3
3
3
3
3
3
3
3
3
3
3
3
3
3
3
3
3
3
3
3
3
3
2
2
2
2
2
2
2
2
2
2
2
2
2
2
2
2
2
2
2
2
2
2
2
2
1
1
1
1
1
1
1
1
1
1
1
1
1
1
1
1
1
1
1
1
1
1
1
1
1
0
0
0
0
0
0
0
0
0
0
0
0
0
0
0
0
0
0
0
0
0
0
0
0
0
5
5
5
5
5
5
5
5
5
5
5
5
5
5
5
5
5
5
5
5
5
5
5
5
5
4
4
4
4
4
4
4
4
4
4
4
4
4
4
4
4
4
4
4
4
4
4
4
4
7
7
7
7
7
7
7
7
7
7
7
7
7
7
7
7
7
7
7
7
7
7
7
7
7
6
6
6
6
6
6
6
6
6
6
6
6
6
6
6
6
6
6
6
6
6
6
6
6
3
3
3
3
3
3
3
3
3
3
3
3
3
3
3
3
3
3
3
3
3
3
3
3
3
2
2
2
2
2
2
2
2
2
2
2
2
2
2
2
2
2
2
2
2
2
2
2
2
1
1
1
1
1
1
1
1
1
1
1
1
1
1
1
1
1
1
1
1
1
1
1
1
1
0
0
0
0
0
0
0
0
0
0
0
0
0
0
0
0
0
0
0
0
0
0
0
0
0
5
5
5
5
5
5
5
5
5
5
5
5
5
5
5
5
5
5
5
5
5
5
5
5
5
4
4
4
4
4
4
4
4
4
4
4
4
4
4
4
4
4
4
4
4
4
4
4
4
7
7
7
7
7
7
7
7
7
7
7
7
7
7
7
7
7
7
7
7
7
7
7
7
7
6
6
6
6
6
6
6
6
6
6
6
6
6
6
6
6
6
6
6
6
6
6
6
6
      </DataArray> 
    </CellData>
  </Piece>
  </UnstructuredGrid>
</VTKFile>
