<?xml version="1.0"?>
<VTKFile type="UnstructuredGrid">
  <UnstructuredGrid>
  <Piece NumberOfPoints="12411"  NumberOfCells="1379">
    <Points>
      <DataArray type="Float64" NumberOfComponents="3" format="ascii">
0 0 0
2.53653 -0.000768132 0
2.53715 4.28545 0
0 4.28571 0
1.2682 -0.000478722 0
2.53691 2.14239 0
1.26859 4.28562 0
0 2.14286 0
1.26848 2.14265 0
2.53653 -0.000768132 0
5.07327 -0.00133439 0
5.07423 4.28496 0
2.53715 4.28545 0
3.8049 -0.00104057 0
5.07378 2.14184 0
3.8057 4.28523 0
2.53691 2.14239 0
3.80534 2.14213 0
5.07327 -0.00133439 0
7.61 -0.00201749 0
7.6113 4.28429 0
5.07423 4.28496 0
6.34164 -0.00165594 0
7.61066 2.14116 0
6.34277 4.28465 0
5.07378 2.14184 0
6.34222 2.14152 0
7.61 -0.00201749 0
10.1467 -0.00289639 0
10.1484 4.28341 0
7.6113 4.28429 0
8.87836 -0.0024304 0
10.1476 2.14028 0
8.87984 4.28388 0
7.61066 2.14116 0
8.8791 2.14075 0
10.1467 -0.00289639 0
12.6834 -0.00398925 0
12.6855 4.28232 0
10.1484 4.28341 0
11.4151 -0.00341533 0
12.6844 2.13919 0
11.4169 4.28289 0
10.1476 2.14028 0
11.416 2.13976 0
12.6834 -0.00398925 0
15.2201 -0.00530835 0
15.2225 4.281 0
12.6855 4.28232 0
13.9518 -0.00462024 0
15.2213 2.13787 0
13.954 4.28169 0
12.6844 2.13919 0
13.9529 2.13856 0
15.2201 -0.00530835 0
17.7569 -0.00685539 0
17.7596 4.27945 0
15.2225 4.281 0
16.4885 -0.0060533 0
17.7583 2.13632 0
16.4911 4.28025 0
15.2213 2.13787 0
16.4898 2.13712 0
17.7569 -0.00685539 0
20.2936 -0.00863187 0
20.2967 4.27767 0
17.7596 4.27945 0
19.0252 -0.00771496 0
20.2952 2.13454 0
19.0282 4.27859 0
17.7583 2.13632 0
19.0267 2.13546 0
20.2936 -0.00863187 0
22.8303 -0.0106369 0
22.8339 4.27566 0
20.2967 4.27767 0
21.5619 -0.00960588 0
22.8321 2.13254 0
21.5653 4.27669 0
20.2952 2.13454 0
21.5636 2.13357 0
22.8303 -0.0106369 0
25.367 -0.0128697 0
25.371 4.27342 0
22.8339 4.27566 0
24.0987 -0.0117249 0
25.369 2.1303 0
24.1024 4.27457 0
22.8321 2.13254 0
24.1005 2.13145 0
25.367 -0.0128697 0
27.9038 -0.015329 0
27.9081 4.27096 0
25.371 4.27342 0
26.6354 -0.0140711 0
27.9059 2.12784 0
26.6395 4.27222 0
25.369 2.1303 0
26.6375 2.1291 0
27.9038 -0.015329 0
30.4405 -0.0180136 0
30.4452 4.26827 0
27.9081 4.27096 0
29.1721 -0.0166432 0
30.4429 2.12515 0
29.1766 4.26965 0
27.9059 2.12784 0
29.1744 2.12653 0
30.4405 -0.0180136 0
32.9772 -0.0209221 0
32.9823 4.26536 0
30.4452 4.26827 0
31.7089 -0.0194399 0
32.9798 2.12224 0
31.7138 4.26684 0
30.4429 2.12515 0
31.7113 2.12373 0
32.9772 -0.0209221 0
35.514 -0.0240535 0
35.5195 4.26223 0
32.9823 4.26536 0
34.2456 -0.02246 0
35.5167 2.11911 0
34.2509 4.26382 0
32.9798 2.12224 0
34.2483 2.1207 0
35.514 -0.0240535 0
38.0508 -0.0274064 0
38.0566 4.25887 0
35.5195 4.26223 0
36.7824 -0.0257023 0
38.0537 2.11576 0
36.788 4.26058 0
35.5167 2.11911 0
36.7852 2.11746 0
38.0508 -0.0274064 0
40.5875 -0.0309796 0
40.5937 4.25529 0
38.0566 4.25887 0
39.3191 -0.0291655 0
40.5906 2.11218 0
39.3252 4.25711 0
38.0537 2.11576 0
39.3222 2.114 0
40.5875 -0.0309796 0
43.1243 -0.0347719 0
43.1309 4.2515 0
40.5937 4.25529 0
41.8559 -0.0328484 0
43.1276 2.10839 0
41.8623 4.25342 0
40.5906 2.11218 0
41.8591 2.11031 0
43.1243 -0.0347719 0
45.6611 -0.0387821 0
45.668 4.24748 0
43.1309 4.2515 0
44.3927 -0.0367498 0
45.6646 2.10437 0
44.3995 4.24952 0
43.1276 2.10839 0
44.3961 2.10641 0
45.6611 -0.0387821 0
48.1979 -0.0430089 0
48.2052 4.24325 0
45.668 4.24748 0
46.9295 -0.0408685 0
48.2015 2.10014 0
46.9366 4.24539 0
45.6646 2.10437 0
46.933 2.10229 0
48.1979 -0.0430089 0
50.7347 -0.0474512 0
50.7423 4.23881 0
48.2052 4.24325 0
49.4663 -0.0452032 0
50.7385 2.0957 0
49.4738 4.24106 0
48.2015 2.10014 0
49.47 2.09795 0
50.7347 -0.0474512 0
53.2715 -0.0521078 0
53.2795 4.23415 0
50.7423 4.23881 0
52.0031 -0.0497528 0
53.2755 2.09104 0
52.0109 4.2365 0
50.7385 2.0957 0
52.007 2.0934 0
53.2715 -0.0521078 0
55.8083 -0.0569774 0
55.8167 4.22927 0
53.2795 4.23415 0
54.5399 -0.0545161 0
55.8125 2.08617 0
54.5481 4.23174 0
53.2755 2.09104 0
54.544 2.08863 0
55.8083 -0.0569774 0
58.3451 -0.0620589 0
58.3538 4.22419 0
55.8167 4.22927 0
57.0767 -0.0594918 0
58.3495 2.08109 0
57.0853 4.22676 0
55.8125 2.08617 0
57.081 2.08365 0
58.3451 -0.0620589 0
60.8819 -0.067351 0
60.891 4.21889 0
58.3538 4.22419 0
59.6135 -0.0646787 0
60.8865 2.07579 0
59.6224 4.22157 0
58.3495 2.08109 0
59.618 2.07847 0
60.8819 -0.067351 0
63.4188 -0.0728525 0
63.4282 4.21339 0
60.891 4.21889 0
62.1503 -0.0700756 0
63.4235 2.07029 0
62.1596 4.21616 0
60.8865 2.07579 0
62.155 2.07307 0
63.4188 -0.0728525 0
65.9556 -0.0785621 0
65.9654 4.20767 0
63.4282 4.21339 0
64.6872 -0.0756813 0
65.9605 2.06458 0
64.6968 4.21056 0
63.4235 2.07029 0
64.692 2.06746 0
65.9556 -0.0785621 0
68.4924 -0.0844788 0
68.5026 4.20175 0
65.9654 4.20767 0
67.224 -0.0814947 0
68.4975 2.05866 0
67.234 4.20474 0
65.9605 2.06458 0
67.229 2.06164 0
68.4924 -0.0844788 0
71.0293 -0.0906013 0
71.0398 4.19563 0
68.5026 4.20175 0
69.7609 -0.0875144 0
71.0345 2.05253 0
69.7712 4.19871 0
68.4975 2.05866 0
69.766 2.05562 0
71.0293 -0.0906013 0
73.5661 -0.0969284 0
73.577 4.18929 0
71.0398 4.19563 0
72.2977 -0.0937394 0
73.5716 2.0462 0
72.3084 4.19249 0
71.0345 2.05253 0
72.3031 2.04939 0
73.5661 -0.0969284 0
76.103 -0.103459 0
76.1142 4.18276 0
73.577 4.18929 0
74.8346 -0.100168 0
76.1086 2.03967 0
74.8456 4.18605 0
73.5716 2.0462 0
74.8401 2.04296 0
76.103 -0.103459 0
78.6399 -0.110191 0
78.6514 4.17602 0
76.1142 4.18276 0
77.3714 -0.1068 0
78.6456 2.03294 0
77.3828 4.17942 0
76.1086 2.03967 0
77.3771 2.03633 0
78.6399 -0.110191 0
81.1768 -0.117125 0
81.1886 4.16909 0
78.6514 4.17602 0
79.9083 -0.113633 0
81.1827 2.026 0
79.92 4.17258 0
78.6456 2.03294 0
79.9142 2.02949 0
81.1768 -0.117125 0
83.7136 -0.124258 0
83.7258 4.16195 0
81.1886 4.16909 0
82.4452 -0.120667 0
83.7197 2.01887 0
82.4572 4.16554 0
81.1827 2.026 0
82.4512 2.02246 0
83.7136 -0.124258 0
86.2505 -0.13159 0
86.2631 4.15461 0
83.7258 4.16195 0
84.9821 -0.127899 0
86.2568 2.01153 0
84.9945 4.15831 0
83.7197 2.01887 0
84.9883 2.01522 0
86.2505 -0.13159 0
88.7874 -0.139119 0
88.8003 4.14708 0
86.2631 4.15461 0
87.519 -0.13533 0
88.7939 2.004 0
87.5317 4.15087 0
86.2568 2.01153 0
87.5253 2.00779 0
88.7874 -0.139119 0
91.3243 -0.146844 0
91.3375 4.13935 0
88.8003 4.14708 0
90.0559 -0.142957 0
91.3309 1.99627 0
90.0689 4.14324 0
88.7939 2.004 0
90.0624 2.00016 0
91.3243 -0.146844 0
93.8612 -0.154765 0
93.8748 4.13143 0
91.3375 4.13935 0
92.5928 -0.15078 0
93.868 1.98835 0
92.6061 4.13541 0
91.3309 1.99627 0
92.5995 1.99234 0
93.8612 -0.154765 0
96.3982 -0.162878 0
96.412 4.12331 0
93.8748 4.13143 0
95.1297 -0.158797 0
96.4051 1.98024 0
95.1434 4.12739 0
93.868 1.98835 0
95.1365 1.98432 0
96.3982 -0.162878 0
98.9351 -0.171185 0
98.9493 4.115 0
96.412 4.12331 0
97.6666 -0.167008 0
98.9422 1.97193 0
97.6806 4.11918 0
96.4051 1.98024 0
97.6736 1.9761 0
98.9351 -0.171185 0
101.472 -0.179682 0
101.487 4.1065 0
98.9493 4.115 0
100.204 -0.17541 0
101.479 1.96343 0
100.218 4.11077 0
98.9422 1.97193 0
100.211 1.9677 0
101.472 -0.179682 0
104.009 -0.18837 0
104.024 4.0978 0
101.487 4.1065 0
102.74 -0.184002 0
104.016 1.95474 0
102.755 4.10217 0
101.479 1.96343 0
102.748 1.95911 0
104.009 -0.18837 0
106.546 -0.197246 0
106.561 4.08892 0
104.024 4.0978 0
105.277 -0.192785 0
106.553 1.94586 0
105.292 4.09339 0
104.016 1.95474 0
105.285 1.95032 0
106.546 -0.197246 0
109.083 -0.206311 0
109.098 4.07985 0
106.561 4.08892 0
107.814 -0.201755 0
109.091 1.93679 0
107.83 4.08441 0
106.553 1.94586 0
107.822 1.94135 0
109.083 -0.206311 0
111.62 -0.215561 0
111.636 4.0706 0
109.098 4.07985 0
110.351 -0.210913 0
111.628 1.92754 0
110.367 4.07525 0
109.091 1.93679 0
110.359 1.93219 0
111.62 -0.215561 0
114.157 -0.224997 0
114.173 4.06116 0
111.636 4.0706 0
112.888 -0.220256 0
114.165 1.9181 0
112.904 4.0659 0
111.628 1.92754 0
112.896 1.92284 0
114.157 -0.224997 0
116.694 -0.234617 0
116.71 4.05154 0
114.173 4.06116 0
115.425 -0.229784 0
116.702 1.90848 0
115.441 4.05637 0
114.165 1.9181 0
115.433 1.91331 0
116.694 -0.234617 0
119.231 -0.24442 0
119.247 4.04173 0
116.71 4.05154 0
117.962 -0.239495 0
119.239 1.89867 0
117.979 4.04665 0
116.702 1.90848 0
117.97 1.9036 0
119.231 -0.24442 0
121.768 -0.254404 0
121.785 4.03174 0
119.247 4.04173 0
120.499 -0.249389 0
121.776 1.88869 0
120.516 4.03676 0
119.239 1.89867 0
120.508 1.8937 0
121.768 -0.254404 0
124.305 -0.264568 0
124.322 4.02157 0
121.785 4.03174 0
123.036 -0.259464 0
124.313 1.87852 0
123.053 4.02668 0
121.776 1.88869 0
123.045 1.88363 0
124.305 -0.264568 0
126.842 -0.274912 0
126.859 4.01122 0
124.322 4.02157 0
125.573 -0.269718 0
126.85 1.86817 0
125.591 4.01642 0
124.313 1.87852 0
125.582 1.87337 0
126.842 -0.274912 0
129.379 -0.285434 0
129.397 4.0007 0
126.859 4.01122 0
128.11 -0.280151 0
129.388 1.85765 0
128.128 4.00598 0
126.85 1.86817 0
128.119 1.86293 0
129.379 -0.285434 0
131.916 -0.296133 0
131.934 3.98999 0
129.397 4.0007 0
130.647 -0.290761 0
131.925 1.84695 0
130.665 3.99537 0
129.388 1.85765 0
130.656 1.85232 0
131.916 -0.296133 0
134.453 -0.307007 0
134.471 3.97912 0
131.934 3.98999 0
133.184 -0.301548 0
134.462 1.83607 0
133.203 3.98458 0
131.925 1.84695 0
133.193 1.84153 0
134.453 -0.307007 0
136.99 -0.318055 0
137.008 3.96806 0
134.471 3.97912 0
135.721 -0.312509 0
136.999 1.82502 0
135.74 3.97361 0
134.462 1.83607 0
135.731 1.83057 0
136.99 -0.318055 0
139.527 -0.329277 0
139.546 3.95684 0
137.008 3.96806 0
138.258 -0.323644 0
139.536 1.8138 0
138.277 3.96247 0
136.999 1.82502 0
138.268 1.81943 0
139.527 -0.329277 0
142.064 -0.34067 0
142.083 3.94544 0
139.546 3.95684 0
140.795 -0.334952 0
142.073 1.8024 0
140.814 3.95116 0
139.536 1.8138 0
140.805 1.80812 0
142.064 -0.34067 0
144.601 -0.352234 0
144.62 3.93387 0
142.083 3.94544 0
143.332 -0.346431 0
144.611 1.79084 0
143.352 3.93968 0
142.073 1.8024 0
143.342 1.79664 0
144.601 -0.352234 0
147.138 -0.363968 0
147.158 3.92213 0
144.62 3.93387 0
145.869 -0.35808 0
147.148 1.7791 0
145.889 3.92802 0
144.611 1.79084 0
145.879 1.78499 0
147.138 -0.363968 0
149.675 -0.37587 0
149.695 3.91023 0
147.158 3.92213 0
148.406 -0.369898 0
149.685 1.7672 0
148.426 3.9162 0
147.148 1.7791 0
148.416 1.77317 0
149.675 -0.37587 0
152.212 -0.387939 0
152.232 3.89815 0
149.695 3.91023 0
150.943 -0.381884 0
152.222 1.75512 0
150.964 3.90421 0
149.685 1.7672 0
150.954 1.76118 0
152.212 -0.387939 0
154.749 -0.400174 0
154.77 3.88591 0
152.232 3.89815 0
153.48 -0.394036 0
154.759 1.74289 0
153.501 3.89205 0
152.222 1.75512 0
153.491 1.74903 0
154.749 -0.400174 0
157.286 -0.412574 0
157.307 3.87351 0
154.77 3.88591 0
156.018 -0.406354 0
157.297 1.73048 0
156.038 3.87973 0
154.759 1.74289 0
156.028 1.73671 0
157.286 -0.412574 0
159.823 -0.425137 0
159.845 3.86094 0
157.307 3.87351 0
158.555 -0.418835 0
159.834 1.71792 0
158.576 3.86724 0
157.297 1.73048 0
158.565 1.72422 0
159.823 -0.425137 0
162.36 -0.437862 0
162.382 3.84821 0
159.845 3.86094 0
161.092 -0.431479 0
162.371 1.70519 0
161.113 3.8546 0
159.834 1.71792 0
161.102 1.71158 0
162.36 -0.437862 0
164.897 -0.450749 0
164.919 3.83532 0
162.382 3.84821 0
163.629 -0.444285 0
164.908 1.6923 0
163.651 3.84179 0
162.371 1.70519 0
163.64 1.69877 0
164.897 -0.450749 0
167.434 -0.463795 0
167.457 3.82227 0
164.919 3.83532 0
166.166 -0.457252 0
167.446 1.67925 0
166.188 3.82881 0
164.908 1.6923 0
166.177 1.6858 0
167.434 -0.463795 0
169.972 -0.477 0
169.994 3.80906 0
167.457 3.82227 0
168.703 -0.470378 0
169.983 1.66605 0
168.725 3.81568 0
167.446 1.67925 0
168.714 1.67267 0
169.972 -0.477 0
172.509 -0.490362 0
172.531 3.79569 0
169.994 3.80906 0
171.24 -0.483661 0
172.52 1.65268 0
171.263 3.8024 0
169.983 1.66605 0
171.251 1.65938 0
172.509 -0.490362 0
175.046 -0.50388 0
175.069 3.78217 0
172.531 3.79569 0
173.777 -0.497102 0
175.057 1.63916 0
173.8 3.78895 0
172.52 1.65268 0
173.789 1.64594 0
175.046 -0.50388 0
177.583 -0.517554 0
177.606 3.76849 0
175.069 3.78217 0
176.314 -0.510698 0
177.594 1.62549 0
176.337 3.77535 0
175.057 1.63916 0
176.326 1.63234 0
177.583 -0.517554 0
180.12 -0.531381 0
180.143 3.75466 0
177.606 3.76849 0
178.851 -0.524448 0
180.132 1.61166 0
178.875 3.7616 0
177.594 1.62549 0
178.863 1.61859 0
180.12 -0.531381 0
182.657 -0.545361 0
182.681 3.74068 0
180.143 3.75466 0
181.389 -0.538352 0
182.669 1.59767 0
181.412 3.74769 0
180.132 1.61166 0
181.4 1.60468 0
182.657 -0.545361 0
185.194 -0.559492 0
185.218 3.72654 0
182.681 3.74068 0
183.926 -0.552407 0
185.206 1.58354 0
183.95 3.73363 0
182.669 1.59767 0
183.938 1.59063 0
185.194 -0.559492 0
187.731 -0.573773 0
187.756 3.71225 0
185.218 3.72654 0
186.463 -0.566614 0
187.744 1.56926 0
186.487 3.71942 0
185.206 1.58354 0
186.475 1.57642 0
187.731 -0.573773 0
190.269 -0.588203 0
190.293 3.69782 0
187.756 3.71225 0
189 -0.58097 0
190.281 1.55482 0
189.024 3.70506 0
187.744 1.56926 0
189.012 1.56206 0
190.269 -0.588203 0
192.806 -0.602781 0
192.83 3.68324 0
190.293 3.69782 0
191.537 -0.595474 0
192.818 1.54024 0
191.562 3.69055 0
190.281 1.55482 0
191.549 1.54755 0
192.806 -0.602781 0
195.343 -0.617506 0
195.368 3.66851 0
192.83 3.68324 0
194.074 -0.610125 0
195.355 1.52552 0
194.099 3.67589 0
192.818 1.54024 0
194.087 1.5329 0
195.343 -0.617506 0
197.88 -0.632375 0
197.905 3.65363 0
195.368 3.66851 0
196.612 -0.624922 0
197.893 1.51065 0
196.637 3.66109 0
195.355 1.52552 0
196.624 1.5181 0
197.88 -0.632375 0
200.417 -0.647389 0
200.443 3.63862 0
197.905 3.65363 0
199.149 -0.639864 0
200.43 1.49563 0
199.174 3.64614 0
197.893 1.51065 0
199.161 1.50315 0
200.417 -0.647389 0
202.954 -0.662546 0
202.98 3.62345 0
200.443 3.63862 0
201.686 -0.65495 0
202.967 1.48047 0
201.711 3.63105 0
200.43 1.49563 0
201.699 1.48807 0
202.954 -0.662546 0
205.492 -0.677844 0
205.518 3.60815 0
202.98 3.62345 0
204.223 -0.670177 0
205.505 1.46517 0
204.249 3.61582 0
202.967 1.48047 0
204.236 1.47284 0
205.492 -0.677844 0
208.029 -0.693283 0
208.055 3.59271 0
205.518 3.60815 0
206.76 -0.685546 0
208.042 1.44973 0
206.786 3.60045 0
205.505 1.46517 0
206.773 1.45747 0
208.029 -0.693283 0
210.566 -0.708861 0
210.592 3.57713 0
208.055 3.59271 0
209.297 -0.701055 0
210.579 1.43415 0
209.324 3.58493 0
208.042 1.44973 0
209.311 1.44195 0
210.566 -0.708861 0
213.103 -0.724578 0
213.13 3.56141 0
210.592 3.57713 0
211.835 -0.716702 0
213.117 1.41843 0
211.861 3.56928 0
210.579 1.43415 0
211.848 1.4263 0
213.103 -0.724578 0
215.64 -0.740431 0
215.667 3.54555 0
213.13 3.56141 0
214.372 -0.732487 0
215.654 1.40257 0
214.399 3.55349 0
213.117 1.41843 0
214.385 1.41052 0
215.64 -0.740431 0
218.178 -0.756419 0
218.205 3.52955 0
215.667 3.54555 0
216.909 -0.748408 0
218.191 1.38658 0
216.936 3.53757 0
215.654 1.40257 0
216.923 1.39459 0
218.178 -0.756419 0
220.715 -0.772542 0
220.742 3.51343 0
218.205 3.52955 0
219.446 -0.764464 0
220.729 1.37046 0
219.474 3.52151 0
218.191 1.38658 0
219.46 1.37854 0
220.715 -0.772542 0
223.252 -0.788799 0
223.28 3.49717 0
220.742 3.51343 0
221.984 -0.780654 0
223.266 1.3542 0
222.011 3.50531 0
220.729 1.37046 0
221.997 1.36234 0
223.252 -0.788799 0
225.789 -0.805187 0
225.817 3.48077 0
223.28 3.49717 0
224.521 -0.796976 0
225.803 1.33781 0
224.548 3.48899 0
223.266 1.3542 0
224.535 1.34602 0
225.789 -0.805187 0
228.327 -0.821706 0
228.355 3.46425 0
225.817 3.48077 0
227.058 -0.81343 0
228.341 1.32129 0
227.086 3.47253 0
225.803 1.33781 0
227.072 1.32956 0
228.327 -0.821706 0
230.864 -0.838355 0
230.892 3.4476 0
228.355 3.46425 0
229.595 -0.830014 0
230.878 1.30463 0
229.623 3.45594 0
228.341 1.32129 0
229.609 1.31298 0
230.864 -0.838355 0
233.401 -0.855132 0
233.43 3.43081 0
230.892 3.4476 0
232.133 -0.846727 0
233.415 1.28786 0
232.161 3.43922 0
230.878 1.30463 0
232.147 1.29626 0
233.401 -0.855132 0
235.938 -0.872036 0
235.967 3.41391 0
233.43 3.43081 0
234.67 -0.863568 0
235.953 1.27095 0
234.698 3.42238 0
233.415 1.28786 0
234.684 1.27942 0
235.938 -0.872036 0
238.476 -0.889066 0
238.505 3.39687 0
235.967 3.41391 0
237.207 -0.880535 0
238.49 1.25392 0
237.236 3.4054 0
235.953 1.27095 0
237.221 1.26245 0
238.476 -0.889066 0
241.013 -0.906221 0
241.042 3.37971 0
238.505 3.39687 0
239.744 -0.897628 0
241.028 1.23676 0
239.773 3.38831 0
238.49 1.25392 0
239.759 1.24535 0
241.013 -0.906221 0
243.55 -0.923499 0
243.58 3.36243 0
241.042 3.37971 0
242.282 -0.914845 0
243.565 1.21948 0
242.311 3.37109 0
241.028 1.23676 0
242.296 1.22813 0
243.55 -0.923499 0
246.088 -0.9409 0
246.117 3.34502 0
243.58 3.36243 0
244.819 -0.932184 0
246.102 1.20207 0
244.848 3.35374 0
243.565 1.21948 0
244.834 1.21079 0
246.088 -0.9409 0
248.625 -0.958422 0
248.655 3.3275 0
246.117 3.34502 0
247.356 -0.949646 0
248.64 1.18455 0
247.386 3.33628 0
246.102 1.20207 0
247.371 1.19333 0
248.625 -0.958422 0
251.162 -0.976064 0
251.192 3.30985 0
248.655 3.3275 0
249.894 -0.967228 0
251.177 1.16691 0
249.923 3.31869 0
248.64 1.18455 0
249.908 1.17574 0
251.162 -0.976064 0
253.699 -0.993824 0
253.73 3.29209 0
251.192 3.30985 0
252.431 -0.984929 0
253.715 1.14914 0
252.461 3.30098 0
251.177 1.16691 0
252.446 1.15804 0
253.699 -0.993824 0
256.237 -1.0117 0
256.267 3.2742 0
253.73 3.29209 0
254.968 -1.00275 0
256.252 1.13126 0
254.998 3.28316 0
253.715 1.14914 0
254.983 1.14022 0
256.237 -1.0117 0
258.774 -1.0297 0
258.805 3.25621 0
256.267 3.2742 0
257.505 -1.02068 0
258.789 1.11327 0
257.536 3.26522 0
256.252 1.13126 0
257.521 1.12228 0
258.774 -1.0297 0
261.311 -1.04781 0
261.342 3.23809 0
258.805 3.25621 0
260.043 -1.03874 0
261.327 1.09516 0
260.073 3.24716 0
258.789 1.11327 0
260.058 1.10423 0
261.311 -1.04781 0
263.849 -1.06603 0
263.88 3.21986 0
261.342 3.23809 0
262.58 -1.0569 0
263.864 1.07693 0
262.611 3.22899 0
261.327 1.09516 0
262.595 1.08606 0
263.849 -1.06603 0
266.386 -1.08436 0
266.417 3.20152 0
263.88 3.21986 0
265.117 -1.07518 0
266.402 1.05859 0
265.148 3.21071 0
263.864 1.07693 0
265.133 1.06777 0
266.386 -1.08436 0
268.923 -1.10281 0
268.955 3.18307 0
266.417 3.20152 0
267.655 -1.09357 0
268.939 1.04014 0
267.686 3.19231 0
266.402 1.05859 0
267.67 1.04938 0
268.923 -1.10281 0
271.461 -1.12137 0
271.492 3.16451 0
268.955 3.18307 0
270.192 -1.11208 0
271.477 1.02158 0
270.223 3.1738 0
268.939 1.04014 0
270.208 1.03088 0
271.461 -1.12137 0
273.998 -1.14004 0
274.03 3.14584 0
271.492 3.16451 0
272.73 -1.13069 0
274.014 1.00291 0
272.761 3.15519 0
271.477 1.02158 0
272.745 1.01226 0
273.998 -1.14004 0
276.536 -1.15881 0
276.567 3.12706 0
274.03 3.14584 0
275.267 -1.14941 0
276.551 0.984137 0
275.299 3.13646 0
274.014 1.00291 0
275.283 0.993539 0
276.536 -1.15881 0
279.073 -1.17769 0
279.105 3.10818 0
276.567 3.12706 0
277.804 -1.16824 0
279.089 0.965254 0
277.836 3.11763 0
276.551 0.984137 0
277.82 0.974709 0
279.073 -1.17769 0
281.61 -1.19668 0
281.642 3.08918 0
279.105 3.10818 0
280.342 -1.18717 0
281.626 0.946265 0
280.374 3.09869 0
279.089 0.965254 0
280.358 0.955773 0
281.61 -1.19668 0
284.148 -1.21577 0
284.18 3.07009 0
281.642 3.08918 0
282.879 -1.20621 0
284.164 0.927173 0
282.911 3.07965 0
281.626 0.946265 0
282.895 0.936732 0
284.148 -1.21577 0
286.685 -1.23496 0
286.718 3.05089 0
284.18 3.07009 0
285.416 -1.22535 0
286.701 0.907977 0
285.449 3.0605 0
284.164 0.927173 0
285.433 0.917588 0
286.685 -1.23496 0
289.222 -1.25426 0
289.255 3.03159 0
286.718 3.05089 0
287.954 -1.24459 0
289.239 0.88868 0
287.986 3.04126 0
286.701 0.907977 0
287.97 0.898341 0
289.222 -1.25426 0
291.76 -1.27365 0
291.793 3.01219 0
289.255 3.03159 0
290.491 -1.26394 0
291.776 0.869282 0
290.524 3.02191 0
289.239 0.88868 0
290.508 0.878993 0
291.76 -1.27365 0
294.297 -1.29315 0
294.33 2.99269 0
291.793 3.01219 0
293.029 -1.28339 0
294.314 0.849784 0
293.062 3.00246 0
291.776 0.869282 0
293.045 0.859545 0
294.297 -1.29315 0
296.835 -1.31274 0
296.868 2.9731 0
294.33 2.99269 0
295.566 -1.30293 0
296.851 0.830189 0
295.599 2.98291 0
294.314 0.849784 0
295.583 0.839999 0
296.835 -1.31274 0
299.372 -1.33243 0
299.405 2.9534 0
296.868 2.9731 0
298.103 -1.32257 0
299.389 0.810497 0
298.137 2.96326 0
296.851 0.830189 0
298.12 0.820355 0
299.372 -1.33243 0
301.91 -1.35221 0
301.943 2.93361 0
299.405 2.9534 0
300.641 -1.34231 0
301.926 0.790709 0
300.674 2.94352 0
299.389 0.810497 0
300.658 0.800615 0
301.91 -1.35221 0
304.447 -1.37209 0
304.481 2.91373 0
301.943 2.93361 0
303.178 -1.36214 0
304.464 0.770826 0
303.212 2.92368 0
301.926 0.790709 0
303.195 0.780779 0
304.447 -1.37209 0
306.984 -1.39207 0
307.018 2.89375 0
304.481 2.91373 0
305.716 -1.38207 0
307.001 0.750851 0
305.749 2.90375 0
304.464 0.770826 0
305.733 0.76085 0
306.984 -1.39207 0
309.522 -1.41213 0
309.556 2.87368 0
307.018 2.89375 0
308.253 -1.40209 0
309.539 0.730783 0
308.287 2.88373 0
307.001 0.750851 0
308.27 0.740828 0
309.522 -1.41213 0
312.059 -1.43229 0
312.093 2.85352 0
309.556 2.87368 0
310.791 -1.4222 0
312.076 0.710624 0
310.825 2.86361 0
309.539 0.730783 0
310.808 0.720715 0
312.059 -1.43229 0
314.597 -1.45254 0
314.631 2.83327 0
312.093 2.85352 0
313.328 -1.4424 0
314.614 0.690376 0
313.362 2.8434 0
312.076 0.710624 0
313.345 0.700511 0
314.597 -1.45254 0
317.134 -1.47287 0
317.169 2.81293 0
314.631 2.83327 0
315.866 -1.46269 0
317.152 0.670039 0
315.9 2.82311 0
314.614 0.690376 0
315.883 0.680219 0
317.134 -1.47287 0
319.672 -1.49329 0
319.706 2.7925 0
317.169 2.81293 0
318.403 -1.48307 0
319.689 0.649615 0
318.438 2.80273 0
317.152 0.670039 0
318.42 0.659838 0
319.672 -1.49329 0
322.209 -1.5138 0
322.244 2.77199 0
319.706 2.7925 0
320.941 -1.50353 0
322.227 0.629105 0
320.975 2.78226 0
319.689 0.649615 0
320.958 0.639371 0
322.209 -1.5138 0
324.747 -1.53439 0
324.782 2.7514 0
322.244 2.77199 0
323.478 -1.52409 0
324.764 0.608511 0
323.513 2.7617 0
322.227 0.629105 0
323.495 0.618819 0
324.747 -1.53439 0
327.284 -1.55507 0
327.319 2.73072 0
324.782 2.7514 0
326.016 -1.54472 0
327.302 0.587832 0
326.05 2.74107 0
324.764 0.608511 0
326.033 0.598182 0
327.284 -1.55507 0
329.822 -1.57583 0
329.857 2.70995 0
327.319 2.73072 0
328.553 -1.56544 0
329.839 0.567072 0
328.588 2.72034 0
327.302 0.587832 0
328.571 0.577462 0
329.822 -1.57583 0
332.359 -1.59667 0
332.395 2.68911 0
329.857 2.70995 0
331.091 -1.58624 0
332.377 0.54623 0
331.126 2.69954 0
329.839 0.567072 0
331.108 0.556661 0
332.359 -1.59667 0
334.897 -1.61759 0
334.932 2.66818 0
332.395 2.68911 0
333.628 -1.60712 0
334.914 0.525308 0
333.663 2.67866 0
332.377 0.54623 0
333.646 0.535779 0
334.897 -1.61759 0
337.434 -1.63858 0
337.47 2.64718 0
334.932 2.66818 0
336.166 -1.62808 0
337.452 0.504307 0
336.201 2.65769 0
334.914 0.525308 0
336.183 0.514817 0
337.434 -1.63858 0
339.972 -1.65966 0
340.007 2.6261 0
337.47 2.64718 0
338.703 -1.64911 0
339.99 0.483229 0
338.739 2.63665 0
337.452 0.504307 0
338.721 0.493778 0
339.972 -1.65966 0
342.509 -1.68081 0
342.545 2.60495 0
340.007 2.6261 0
341.241 -1.67023 0
342.527 0.462075 0
341.276 2.61553 0
339.99 0.483229 0
341.258 0.472661 0
342.509 -1.68081 0
345.047 -1.70204 0
345.083 2.58371 0
342.545 2.60495 0
343.778 -1.69142 0
345.065 0.440845 0
343.814 2.59434 0
342.527 0.462075 0
343.796 0.451469 0
345.047 -1.70204 0
347.584 -1.72334 0
347.62 2.56241 0
345.083 2.58371 0
346.316 -1.71268 0
347.602 0.419542 0
346.352 2.57307 0
345.065 0.440845 0
346.334 0.430203 0
347.584 -1.72334 0
350.122 -1.74471 0
350.158 2.54103 0
347.62 2.56241 0
348.853 -1.73402 0
350.14 0.398165 0
348.889 2.55173 0
347.602 0.419542 0
348.871 0.408863 0
350.122 -1.74471 0
352.66 -1.76616 0
352.696 2.51958 0
350.158 2.54103 0
351.391 -1.75543 0
352.678 0.376718 0
351.427 2.53031 0
350.14 0.398165 0
351.409 0.387451 0
352.66 -1.76616 0
355.197 -1.78768 0
355.234 2.49806 0
352.696 2.51958 0
353.928 -1.77691 0
355.215 0.3552 0
353.965 2.50883 0
352.678 0.376718 0
353.947 0.365968 0
355.197 -1.78768 0
357.735 -1.80926 0
357.771 2.47647 0
355.234 2.49806 0
356.466 -1.79846 0
357.753 0.333613 0
356.502 2.48728 0
355.215 0.3552 0
356.484 0.344415 0
357.735 -1.80926 0
360.272 -1.83091 0
360.309 2.45482 0
357.771 2.47647 0
359.004 -1.82008 0
360.291 0.311958 0
359.04 2.46565 0
357.753 0.333613 0
359.022 0.322794 0
360.272 -1.83091 0
362.81 -1.85263 0
362.847 2.43309 0
360.309 2.45482 0
361.541 -1.84176 0
362.828 0.290236 0
361.578 2.44396 0
360.291 0.311958 0
361.559 0.301105 0
362.81 -1.85263 0
365.348 -1.87442 0
365.384 2.4113 0
362.847 2.43309 0
364.079 -1.86352 0
365.366 0.26845 0
364.115 2.42221 0
362.828 0.290236 0
364.097 0.279351 0
365.348 -1.87442 0
367.885 -1.89627 0
367.922 2.38945 0
365.384 2.4113 0
366.616 -1.88533 0
367.904 0.246598 0
366.653 2.40038 0
365.366 0.26845 0
366.635 0.257532 0
367.885 -1.89627 0
370.423 -1.91818 0
370.46 2.36753 0
367.922 2.38945 0
369.154 -1.90721 0
370.441 0.224684 0
369.191 2.3785 0
367.904 0.246598 0
369.172 0.235649 0
370.423 -1.91818 0
372.96 -1.94015 0
372.997 2.34556 0
370.46 2.36753 0
371.692 -1.92916 0
372.979 0.202708 0
371.729 2.35655 0
370.441 0.224684 0
371.71 0.213704 0
372.96 -1.94015 0
375.498 -1.96219 0
375.535 2.32352 0
372.997 2.34556 0
374.229 -1.95116 0
375.517 0.180672 0
374.266 2.33454 0
372.979 0.202708 0
374.248 0.191697 0
375.498 -1.96219 0
378.036 -1.98428 0
378.073 2.30142 0
375.535 2.32352 0
376.767 -1.97323 0
378.054 0.158576 0
376.804 2.31248 0
375.517 0.180672 0
376.785 0.169631 0
378.036 -1.98428 0
380.573 -2.00643 0
380.611 2.27926 0
378.073 2.30142 0
379.304 -1.99535 0
380.592 0.136422 0
379.342 2.29035 0
378.054 0.158576 0
379.323 0.147506 0
380.573 -2.00643 0
383.111 -2.02864 0
383.148 2.25705 0
380.611 2.27926 0
381.842 -2.01753 0
383.13 0.11421 0
381.88 2.26816 0
380.592 0.136422 0
381.861 0.125323 0
383.111 -2.02864 0
385.648 -2.05091 0
385.686 2.23478 0
383.148 2.25705 0
384.38 -2.03977 0
385.667 0.0919436 0
384.417 2.24592 0
383.13 0.11421 0
384.398 0.103084 0
385.648 -2.05091 0
388.186 -2.07323 0
388.224 2.21246 0
385.686 2.23478 0
386.917 -2.06206 0
388.205 0.0696222 0
386.955 2.22363 0
385.667 0.0919436 0
386.936 0.0807897 0
388.186 -2.07323 0
390.724 -2.0956 0
390.762 2.19008 0
388.224 2.21246 0
389.455 -2.08441 0
390.743 0.0472475 0
389.493 2.20128 0
388.205 0.0696222 0
389.474 0.0584415 0
390.724 -2.0956 0
393.261 -2.11802 0
393.299 2.16765 0
390.762 2.19008 0
391.993 -2.1068 0
393.28 0.0248207 0
392.03 2.17887 0
390.743 0.0472475 0
392.012 0.0360405 0
393.261 -2.11802 0
395.799 -2.1405 0
395.837 2.14517 0
393.299 2.16765 0
394.53 -2.12925 0
395.818 0.00234295 0
394.568 2.15642 0
393.28 0.0248207 0
394.549 0.0135881 0
395.799 -2.1405 0
398.337 -2.16302 0
398.375 2.12265 0
395.837 2.14517 0
397.068 -2.15176 0
398.356 -0.0201845 0
397.106 2.13392 0
395.818 0.00234295 0
397.087 -0.00891463 0
398.337 -2.16302 0
400.875 -2.1856 0
400.913 2.10007 0
398.375 2.12265 0
399.606 -2.17431 0
400.894 -0.0427604 0
399.644 2.11136 0
398.356 -0.0201845 0
399.625 -0.0314665 0
400.875 -2.1856 0
403.412 -2.20822 0
403.45 2.07744 0
400.913 2.10007 0
402.143 -2.1969 0
403.431 -0.0653836 0
402.182 2.08876 0
400.894 -0.0427604 0
402.162 -0.0540662 0
403.412 -2.20822 0
405.95 -2.23089 0
405.988 2.05477 0
403.45 2.07744 0
404.681 -2.21955 0
405.969 -0.0880529 0
404.719 2.06611 0
403.431 -0.0653836 0
404.7 -0.0767125 0
405.95 -2.23089 0
408.488 -2.2536 0
408.526 2.03206 0
405.988 2.05477 0
407.219 -2.24224 0
408.507 -0.110767 0
407.257 2.04342 0
405.969 -0.0880529 0
407.238 -0.0994044 0
408.488 -2.2536 0
411.025 -2.27635 0
411.064 2.0093 0
408.526 2.03206 0
409.756 -2.26497 0
411.045 -0.133525 0
409.795 2.02068 0
408.507 -0.110767 0
409.776 -0.12214 0
411.025 -2.27635 0
413.563 -2.29915 0
413.602 1.98649 0
411.064 2.0093 0
412.294 -2.28775 0
413.582 -0.156325 0
412.333 1.9979 0
411.045 -0.133525 0
412.313 -0.14492 0
413.563 -2.29915 0
416.101 -2.32199 0
416.139 1.96365 0
413.602 1.98649 0
414.832 -2.31057 0
416.12 -0.179166 0
414.87 1.97508 0
413.582 -0.156325 0
414.851 -0.167741 0
416.101 -2.32199 0
418.639 -2.34487 0
418.677 1.94077 0
416.139 1.96365 0
417.37 -2.33343 0
418.658 -0.202048 0
417.408 1.95221 0
416.12 -0.179166 0
417.389 -0.190602 0
418.639 -2.34487 0
421.176 -2.36779 0
421.215 1.91785 0
418.677 1.94077 0
419.907 -2.35633 0
421.196 -0.224968 0
419.946 1.92931 0
418.658 -0.202048 0
419.927 -0.213503 0
421.176 -2.36779 0
423.714 -2.39075 0
423.753 1.89489 0
421.215 1.91785 0
422.445 -2.37926 0
423.733 -0.247926 0
422.484 1.90637 0
421.196 -0.224968 0
422.465 -0.236442 0
423.714 -2.39075 0
426.252 -2.41374 0
426.291 1.87189 0
423.753 1.89489 0
424.983 -2.40224 0
426.271 -0.27092 0
425.022 1.88339 0
423.733 -0.247926 0
425.002 -0.259418 0
426.252 -2.41374 0
428.79 -2.43677 0
428.828 1.84886 0
426.291 1.87189 0
427.521 -2.42525 0
428.809 -0.293949 0
427.56 1.86038 0
426.271 -0.27092 0
427.54 -0.28243 0
428.79 -2.43677 0
431.327 -2.45983 0
431.366 1.82579 0
428.828 1.84886 0
430.058 -2.44829 0
431.347 -0.317013 0
430.097 1.83733 0
428.809 -0.293949 0
430.078 -0.305477 0
431.327 -2.45983 0
433.865 -2.48292 0
433.904 1.8027 0
431.366 1.82579 0
432.596 -2.47137 0
433.885 -0.340109 0
432.635 1.81425 0
431.347 -0.317013 0
432.616 -0.328557 0
433.865 -2.48292 0
436.403 -2.50605 0
436.442 1.77957 0
433.904 1.8027 0
435.134 -2.49448 0
436.422 -0.363236 0
435.173 1.79114 0
433.885 -0.340109 0
435.153 -0.351669 0
436.403 -2.50605 0
438.941 -2.5292 0
438.98 1.75641 0
436.442 1.77957 0
437.672 -2.51762 0
438.96 -0.386394 0
437.711 1.76799 0
436.422 -0.363236 0
437.691 -0.374812 0
438.941 -2.5292 0
441.478 -2.55239 0
441.518 1.73322 0
438.98 1.75641 0
440.21 -2.54079 0
441.498 -0.409581 0
440.249 1.74482 0
438.96 -0.386394 0
440.229 -0.397984 0
441.478 -2.55239 0
444.016 -2.5756 0
444.055 1.71 0
441.518 1.73322 0
442.747 -2.56399 0
444.036 -0.432796 0
442.787 1.72161 0
441.498 -0.409581 0
442.767 -0.421186 0
444.016 -2.5756 0
446.554 -2.59884 0
446.593 1.68676 0
444.055 1.71 0
445.285 -2.58722 0
446.574 -0.456038 0
445.324 1.69838 0
444.036 -0.432796 0
445.305 -0.444414 0
446.554 -2.59884 0
449.092 -2.62211 0
449.131 1.66349 0
446.593 1.68676 0
447.823 -2.61047 0
449.112 -0.479305 0
447.862 1.67513 0
446.574 -0.456038 0
447.843 -0.467669 0
449.092 -2.62211 0
451.63 -2.6454 0
451.669 1.6402 0
449.131 1.66349 0
450.361 -2.63375 0
451.649 -0.502597 0
450.4 1.65185 0
449.112 -0.479305 0
450.38 -0.490948 0
451.63 -2.6454 0
454.168 -2.66871 0
454.207 1.61688 0
451.669 1.6402 0
452.899 -2.65705 0
454.187 -0.525911 0
452.938 1.62854 0
451.649 -0.502597 0
452.918 -0.514251 0
454.168 -2.66871 0
456.705 -2.69204 0
456.745 1.59354 0
454.207 1.61688 0
455.436 -2.68037 0
456.725 -0.549248 0
455.476 1.60521 0
454.187 -0.525911 0
455.456 -0.537577 0
456.705 -2.69204 0
459.243 -2.7154 0
459.283 1.57018 0
456.745 1.59354 0
457.974 -2.70372 0
459.263 -0.572605 0
458.014 1.58187 0
456.725 -0.549248 0
457.994 -0.560924 0
459.243 -2.7154 0
461.781 -2.73877 0
461.821 1.54681 0
459.283 1.57018 0
460.512 -2.72708 0
461.801 -0.595981 0
460.552 1.5585 0
459.263 -0.572605 0
460.532 -0.58429 0
461.781 -2.73877 0
464.319 -2.76217 0
464.358 1.52341 0
461.821 1.54681 0
463.05 -2.75047 0
464.339 -0.619376 0
463.089 1.53511 0
461.801 -0.595981 0
463.07 -0.607676 0
464.319 -2.76217 0
466.857 -2.78558 0
466.896 1.5 0
464.358 1.52341 0
465.588 -2.77387 0
466.877 -0.642787 0
465.627 1.51171 0
464.339 -0.619376 0
465.608 -0.631079 0
466.857 -2.78558 0
469.395 -2.809 0
469.434 1.47657 0
466.896 1.5 0
468.126 -2.79729 0
469.414 -0.666215 0
468.165 1.48828 0
466.877 -0.642787 0
468.146 -0.654499 0
469.395 -2.809 0
471.933 -2.83244 0
471.972 1.45312 0
469.434 1.47657 0
470.664 -2.82072 0
471.952 -0.689657 0
470.703 1.46485 0
469.414 -0.666215 0
470.683 -0.677934 0
471.933 -2.83244 0
474.47 -2.85589 0
474.51 1.42967 0
471.972 1.45312 0
473.202 -2.84417 0
474.49 -0.713112 0
473.241 1.4414 0
471.952 -0.689657 0
473.221 -0.701383 0
474.47 -2.85589 0
477.008 -2.87936 0
477.048 1.4062 0
474.51 1.42967 0
475.739 -2.86763 0
477.028 -0.736579 0
475.779 1.41794 0
474.49 -0.713112 0
475.759 -0.724844 0
477.008 -2.87936 0
479.546 -2.90284 0
479.586 1.38272 0
477.048 1.4062 0
478.277 -2.8911 0
479.566 -0.760058 0
478.317 1.39446 0
477.028 -0.736579 0
478.297 -0.748317 0
479.546 -2.90284 0
482.084 -2.92632 0
482.124 1.35923 0
479.586 1.38272 0
480.815 -2.91458 0
482.104 -0.783546 0
480.855 1.37098 0
479.566 -0.760058 0
480.835 -0.7718 0
482.084 -2.92632 0
484.622 -2.94982 0
484.662 1.33573 0
482.124 1.35923 0
483.353 -2.93807 0
484.642 -0.807042 0
483.393 1.34748 0
482.104 -0.783546 0
483.373 -0.795293 0
484.622 -2.94982 0
487.16 -2.97332 0
487.2 1.31223 0
484.662 1.33573 0
485.891 -2.96157 0
487.18 -0.830546 0
485.931 1.32398 0
484.642 -0.807042 0
485.911 -0.818793 0
487.16 -2.97332 0
489.698 -2.99683 0
489.738 1.28871 0
487.2 1.31223 0
488.429 -2.98507 0
489.718 -0.854056 0
488.469 1.30047 0
487.18 -0.830546 0
488.449 -0.8423 0
489.698 -2.99683 0
492.236 -3.02035 0
492.276 1.2652 0
489.738 1.28871 0
490.967 -3.00859 0
492.256 -0.877574 0
491.007 1.27696 0
489.718 -0.854056 0
490.987 -0.865814 0
492.236 -3.02035 0
494.774 -3.04387 0
494.814 1.24167 0
492.276 1.2652 0
493.505 -3.03211 0
494.794 -0.901101 0
493.545 1.25343 0
492.256 -0.877574 0
493.525 -0.889336 0
494.774 -3.04387 0
497.312 -3.06742 0
497.351 1.21812 0
494.814 1.24167 0
496.043 -3.05564 0
497.332 -0.924648 0
496.082 1.2299 0
494.794 -0.901101 0
496.063 -0.91287 0
497.312 -3.06742 0
499.85 -3.09106 0
499.889 1.19457 0
497.351 1.21812 0
498.581 -3.07921 0
499.87 -0.948241 0
498.62 1.20635 0
497.332 -0.924648 0
498.601 -0.936439 0
0 4.28571 0
2.53715 4.28545 0
2.53754 8.57137 0
0 8.57143 0
1.26859 4.28562 0
2.53735 6.42844 0
1.26878 8.57144 0
0 6.42857 0
1.26868 6.42854 0
2.53715 4.28545 0
5.07423 4.28496 0
5.07503 8.57101 0
2.53754 8.57137 0
3.8057 4.28523 0
5.07465 6.42802 0
3.80629 8.57123 0
2.53735 6.42844 0
3.80601 6.42826 0
5.07423 4.28496 0
7.6113 4.28429 0
7.61251 8.57039 0
5.07503 8.57101 0
6.34277 4.28465 0
7.61192 6.42737 0
6.34377 8.57073 0
5.07465 6.42802 0
6.34328 6.42772 0
7.6113 4.28429 0
10.1484 4.28341 0
10.15 8.56953 0
7.61251 8.57039 0
8.87984 4.28388 0
10.1492 6.4265 0
8.88124 8.56999 0
7.61192 6.42737 0
8.88055 6.42696 0
10.1484 4.28341 0
12.6855 4.28232 0
12.6874 8.56844 0
10.15 8.56953 0
11.4169 4.28289 0
12.6865 6.4254 0
11.4187 8.56901 0
10.1492 6.4265 0
11.4178 6.42598 0
12.6855 4.28232 0
15.2225 4.281 0
15.2249 8.56711 0
12.6874 8.56844 0
13.954 4.28169 0
15.2237 6.42408 0
13.9562 8.5678 0
12.6865 6.4254 0
13.9551 6.42477 0
15.2225 4.281 0
17.7596 4.27945 0
17.7624 8.56556 0
15.2249 8.56711 0
16.4911 4.28025 0
17.761 6.42253 0
16.4937 8.56636 0
15.2237 6.42408 0
16.4924 6.42333 0
17.7596 4.27945 0
20.2967 4.27767 0
20.2999 8.56378 0
17.7624 8.56556 0
19.0282 4.27859 0
20.2983 6.42075 0
19.0311 8.5647 0
17.761 6.42253 0
19.0297 6.42167 0
20.2967 4.27767 0
22.8339 4.27566 0
22.8374 8.56176 0
20.2999 8.56378 0
21.5653 4.27669 0
22.8356 6.41874 0
21.5686 8.5628 0
20.2983 6.42075 0
21.567 6.41977 0
22.8339 4.27566 0
25.371 4.27342 0
25.3749 8.55952 0
22.8374 8.56176 0
24.1024 4.27457 0
25.3729 6.4165 0
24.1061 8.56067 0
22.8356 6.41874 0
24.1043 6.41765 0
25.371 4.27342 0
27.9081 4.27096 0
27.9124 8.55706 0
25.3749 8.55952 0
26.6395 4.27222 0
27.9102 6.41403 0
26.6436 8.55832 0
25.3729 6.4165 0
26.6416 6.41529 0
27.9081 4.27096 0
30.4452 4.26827 0
30.4499 8.55437 0
27.9124 8.55706 0
29.1766 4.26965 0
30.4475 6.41134 0
29.1811 8.55574 0
27.9102 6.41403 0
29.1789 6.41272 0
30.4452 4.26827 0
32.9823 4.26536 0
32.9874 8.55145 0
30.4499 8.55437 0
31.7138 4.26684 0
32.9849 6.40843 0
31.7186 8.55294 0
30.4475 6.41134 0
31.7162 6.40992 0
32.9823 4.26536 0
35.5195 4.26223 0
35.5249 8.54832 0
32.9874 8.55145 0
34.2509 4.26382 0
35.5222 6.40529 0
34.2561 8.54991 0
32.9849 6.40843 0
34.2535 6.40689 0
35.5195 4.26223 0
38.0566 4.25887 0
38.0624 8.54496 0
35.5249 8.54832 0
36.788 4.26058 0
38.0595 6.40194 0
36.7936 8.54666 0
35.5222 6.40529 0
36.7908 6.40364 0
38.0566 4.25887 0
40.5937 4.25529 0
40.5999 8.54138 0
38.0624 8.54496 0
39.3252 4.25711 0
40.5968 6.39836 0
39.3311 8.54319 0
38.0595 6.40194 0
39.3282 6.40018 0
40.5937 4.25529 0
43.1309 4.2515 0
43.1374 8.53758 0
40.5999 8.54138 0
41.8623 4.25342 0
43.1341 6.39456 0
41.8687 8.53951 0
40.5968 6.39836 0
41.8655 6.39649 0
43.1309 4.2515 0
45.668 4.24748 0
45.6749 8.53356 0
43.1374 8.53758 0
44.3995 4.24952 0
45.6715 6.39055 0
44.4062 8.5356 0
43.1341 6.39456 0
44.4028 6.39258 0
45.668 4.24748 0
48.2052 4.24325 0
48.2125 8.52933 0
45.6749 8.53356 0
46.9366 4.24539 0
48.2088 6.38631 0
46.9437 8.53147 0
45.6715 6.39055 0
46.9402 6.38846 0
48.2052 4.24325 0
50.7423 4.23881 0
50.75 8.52488 0
48.2125 8.52933 0
49.4738 4.24106 0
50.7462 6.38187 0
49.4812 8.52713 0
48.2088 6.38631 0
49.4775 6.38412 0
50.7423 4.23881 0
53.2795 4.23415 0
53.2875 8.52022 0
50.75 8.52488 0
52.0109 4.2365 0
53.2835 6.3772 0
52.0187 8.52258 0
50.7462 6.38187 0
52.0148 6.37956 0
53.2795 4.23415 0
55.8167 4.22927 0
55.825 8.51534 0
53.2875 8.52022 0
54.5481 4.23174 0
55.8209 6.37233 0
54.5563 8.51781 0
53.2835 6.3772 0
54.5522 6.37479 0
55.8167 4.22927 0
58.3538 4.22419 0
58.3626 8.51025 0
55.825 8.51534 0
57.0853 4.22676 0
58.3582 6.36724 0
57.0938 8.51282 0
55.8209 6.37233 0
57.0895 6.36981 0
58.3538 4.22419 0
60.891 4.21889 0
60.9001 8.50495 0
58.3626 8.51025 0
59.6224 4.22157 0
60.8956 6.36195 0
59.6313 8.50763 0
58.3582 6.36724 0
59.6269 6.36462 0
60.891 4.21889 0
63.4282 4.21339 0
63.4376 8.49945 0
60.9001 8.50495 0
62.1596 4.21616 0
63.4329 6.35644 0
62.1689 8.50223 0
60.8956 6.36195 0
62.1642 6.35922 0
63.4282 4.21339 0
65.9654 4.20767 0
65.9752 8.49373 0
63.4376 8.49945 0
64.6968 4.21056 0
65.9703 6.35072 0
64.7064 8.49661 0
63.4329 6.35644 0
64.7016 6.35361 0
65.9654 4.20767 0
68.5026 4.20175 0
68.5127 8.48781 0
65.9752 8.49373 0
67.234 4.20474 0
68.5077 6.3448 0
67.2439 8.49079 0
65.9703 6.35072 0
67.239 6.34779 0
68.5026 4.20175 0
71.0398 4.19563 0
71.0502 8.48168 0
68.5127 8.48781 0
69.7712 4.19871 0
71.045 6.33867 0
69.7815 8.48477 0
68.5077 6.3448 0
69.7763 6.34176 0
71.0398 4.19563 0
73.577 4.18929 0
73.5878 8.47534 0
71.0502 8.48168 0
72.3084 4.19249 0
73.5824 6.33234 0
72.319 8.47854 0
71.045 6.33867 0
72.3137 6.33553 0
73.577 4.18929 0
76.1142 4.18276 0
76.1253 8.46881 0
73.5878 8.47534 0
74.8456 4.18605 0
76.1198 6.3258 0
74.8566 8.4721 0
73.5824 6.33234 0
74.8511 6.3291 0
76.1142 4.18276 0
78.6514 4.17602 0
78.6629 8.46207 0
76.1253 8.46881 0
77.3828 4.17942 0
78.6572 6.31907 0
77.3941 8.46546 0
76.1198 6.3258 0
77.3885 6.32246 0
78.6514 4.17602 0
81.1886 4.16909 0
81.2004 8.45513 0
78.6629 8.46207 0
79.92 4.17258 0
81.1945 6.31213 0
79.9317 8.45862 0
78.6572 6.31907 0
79.9258 6.31562 0
81.1886 4.16909 0
83.7258 4.16195 0
83.738 8.44798 0
81.2004 8.45513 0
82.4572 4.16554 0
83.7319 6.30499 0
82.4692 8.45158 0
81.1945 6.31213 0
82.4632 6.30858 0
83.7258 4.16195 0
86.2631 4.15461 0
86.2756 8.44065 0
83.738 8.44798 0
84.9945 4.15831 0
86.2693 6.29765 0
85.0068 8.44434 0
83.7319 6.30499 0
85.0006 6.30134 0
86.2631 4.15461 0
88.8003 4.14708 0
88.8131 8.43311 0
86.2756 8.44065 0
87.5317 4.15087 0
88.8067 6.29012 0
87.5443 8.4369 0
86.2693 6.29765 0
87.538 6.29391 0
88.8003 4.14708 0
91.3375 4.13935 0
91.3507 8.42538 0
88.8131 8.43311 0
90.0689 4.14324 0
91.3441 6.28238 0
90.0819 8.42927 0
88.8067 6.29012 0
90.0754 6.28627 0
91.3375 4.13935 0
93.8748 4.13143 0
93.8883 8.41745 0
91.3507 8.42538 0
92.6061 4.13541 0
93.8815 6.27446 0
92.6195 8.42144 0
91.3441 6.28238 0
92.6128 6.27845 0
93.8748 4.13143 0
96.412 4.12331 0
96.4258 8.40933 0
93.8883 8.41745 0
95.1434 4.12739 0
96.4189 6.26634 0
95.157 8.41341 0
93.8815 6.27446 0
95.1502 6.27042 0
96.412 4.12331 0
98.9493 4.115 0
98.9634 8.40102 0
96.4258 8.40933 0
97.6806 4.11918 0
98.9563 6.25803 0
97.6946 8.4052 0
96.4189 6.26634 0
97.6876 6.26221 0
98.9493 4.115 0
101.487 4.1065 0
101.501 8.39251 0
98.9634 8.40102 0
100.218 4.11077 0
101.494 6.24952 0
100.232 8.39679 0
98.9563 6.25803 0
100.225 6.2538 0
101.487 4.1065 0
104.024 4.0978 0
104.039 8.38382 0
101.501 8.39251 0
102.755 4.10217 0
104.031 6.24083 0
102.77 8.38819 0
101.494 6.24952 0
102.762 6.2452 0
104.024 4.0978 0
106.561 4.08892 0
106.576 8.37493 0
104.039 8.38382 0
105.292 4.09339 0
106.569 6.23195 0
105.307 8.3794 0
104.031 6.24083 0
105.3 6.23641 0
106.561 4.08892 0
109.098 4.07985 0
109.114 8.36586 0
106.576 8.37493 0
107.83 4.08441 0
109.106 6.22288 0
107.845 8.37042 0
106.569 6.23195 0
107.837 6.22744 0
109.098 4.07985 0
111.636 4.0706 0
111.651 8.3566 0
109.114 8.36586 0
110.367 4.07525 0
111.643 6.21362 0
110.382 8.36125 0
109.106 6.22288 0
110.375 6.21827 0
111.636 4.0706 0
114.173 4.06116 0
114.189 8.34716 0
111.651 8.3566 0
112.904 4.0659 0
114.181 6.20418 0
112.92 8.3519 0
111.643 6.21362 0
112.912 6.20892 0
114.173 4.06116 0
116.71 4.05154 0
116.726 8.33753 0
114.189 8.34716 0
115.441 4.05637 0
116.718 6.19455 0
115.458 8.34237 0
114.181 6.20418 0
115.45 6.19939 0
116.71 4.05154 0
119.247 4.04173 0
119.264 8.32772 0
116.726 8.33753 0
117.979 4.04665 0
119.256 6.18474 0
117.995 8.33265 0
116.718 6.19455 0
117.987 6.18967 0
119.247 4.04173 0
121.785 4.03174 0
121.802 8.31773 0
119.264 8.32772 0
120.516 4.03676 0
121.793 6.17475 0
120.533 8.32275 0
119.256 6.18474 0
120.524 6.17977 0
121.785 4.03174 0
124.322 4.02157 0
124.339 8.30756 0
121.802 8.31773 0
123.053 4.02668 0
124.331 6.16458 0
123.07 8.31267 0
121.793 6.17475 0
123.062 6.16969 0
124.322 4.02157 0
126.859 4.01122 0
126.877 8.29721 0
124.339 8.30756 0
125.591 4.01642 0
126.868 6.15423 0
125.608 8.3024 0
124.331 6.16458 0
125.599 6.15943 0
126.859 4.01122 0
129.397 4.0007 0
129.414 8.28668 0
126.877 8.29721 0
128.128 4.00598 0
129.406 6.14371 0
128.146 8.29196 0
126.868 6.15423 0
128.137 6.14899 0
129.397 4.0007 0
131.934 3.98999 0
131.952 8.27597 0
129.414 8.28668 0
130.665 3.99537 0
131.943 6.133 0
130.683 8.28134 0
129.406 6.14371 0
130.674 6.13837 0
131.934 3.98999 0
134.471 3.97912 0
134.49 8.26509 0
131.952 8.27597 0
133.203 3.98458 0
134.48 6.12212 0
133.221 8.27055 0
131.943 6.133 0
133.212 6.12758 0
134.471 3.97912 0
137.008 3.96806 0
137.027 8.25403 0
134.49 8.26509 0
135.74 3.97361 0
137.018 6.11107 0
135.758 8.25958 0
134.48 6.12212 0
135.749 6.11661 0
137.008 3.96806 0
139.546 3.95684 0
139.565 8.2428 0
137.027 8.25403 0
138.277 3.96247 0
139.555 6.09984 0
138.296 8.24844 0
137.018 6.11107 0
138.287 6.10547 0
139.546 3.95684 0
142.083 3.94544 0
142.102 8.2314 0
139.565 8.2428 0
140.814 3.95116 0
142.093 6.08844 0
140.834 8.23712 0
139.555 6.09984 0
140.824 6.09416 0
142.083 3.94544 0
144.62 3.93387 0
144.64 8.21983 0
142.102 8.2314 0
143.352 3.93968 0
144.63 6.07687 0
143.371 8.22564 0
142.093 6.08844 0
143.362 6.08267 0
144.62 3.93387 0
147.158 3.92213 0
147.178 8.20809 0
144.64 8.21983 0
145.889 3.92802 0
147.168 6.06513 0
145.909 8.21398 0
144.63 6.07687 0
145.899 6.07102 0
147.158 3.92213 0
149.695 3.91023 0
149.715 8.19618 0
147.178 8.20809 0
148.426 3.9162 0
149.705 6.05322 0
148.447 8.20215 0
147.168 6.06513 0
148.436 6.05919 0
149.695 3.91023 0
152.232 3.89815 0
152.253 8.1841 0
149.715 8.19618 0
150.964 3.90421 0
152.243 6.04114 0
150.984 8.19016 0
149.705 6.05322 0
150.974 6.0472 0
152.232 3.89815 0
154.77 3.88591 0
154.791 8.17186 0
152.253 8.1841 0
153.501 3.89205 0
154.78 6.0289 0
153.522 8.178 0
152.243 6.04114 0
153.511 6.03504 0
154.77 3.88591 0
157.307 3.87351 0
157.328 8.15945 0
154.791 8.17186 0
156.038 3.87973 0
157.318 6.0165 0
156.059 8.16567 0
154.78 6.0289 0
156.049 6.02272 0
157.307 3.87351 0
159.845 3.86094 0
159.866 8.14688 0
157.328 8.15945 0
158.576 3.86724 0
159.855 6.00393 0
158.597 8.15319 0
157.318 6.0165 0
158.586 6.01023 0
159.845 3.86094 0
162.382 3.84821 0
162.403 8.13415 0
159.866 8.14688 0
161.113 3.8546 0
162.393 5.9912 0
161.135 8.14053 0
159.855 6.00393 0
161.124 5.99758 0
162.382 3.84821 0
164.919 3.83532 0
164.941 8.12125 0
162.403 8.13415 0
163.651 3.84179 0
164.93 5.9783 0
163.672 8.12772 0
162.393 5.9912 0
163.661 5.98477 0
164.919 3.83532 0
167.457 3.82227 0
167.479 8.1082 0
164.941 8.12125 0
166.188 3.82881 0
167.468 5.96525 0
166.21 8.11474 0
164.93 5.9783 0
166.199 5.9718 0
167.457 3.82227 0
169.994 3.80906 0
170.016 8.09498 0
167.479 8.1082 0
168.725 3.81568 0
170.005 5.95204 0
168.748 8.10161 0
167.468 5.96525 0
168.736 5.95866 0
169.994 3.80906 0
172.531 3.79569 0
172.554 8.08161 0
170.016 8.09498 0
171.263 3.8024 0
172.543 5.93867 0
171.285 8.08832 0
170.005 5.95204 0
171.274 5.94537 0
172.531 3.79569 0
175.069 3.78217 0
175.092 8.06809 0
172.554 8.08161 0
173.8 3.78895 0
175.08 5.92515 0
173.823 8.07487 0
172.543 5.93867 0
173.811 5.93193 0
175.069 3.78217 0
177.606 3.76849 0
177.629 8.05441 0
175.092 8.06809 0
176.337 3.77535 0
177.618 5.91147 0
176.36 8.06127 0
175.08 5.92515 0
176.349 5.91833 0
177.606 3.76849 0
180.143 3.75466 0
180.167 8.04057 0
177.629 8.05441 0
178.875 3.7616 0
180.155 5.89763 0
178.898 8.04751 0
177.618 5.91147 0
178.886 5.90457 0
180.143 3.75466 0
182.681 3.74068 0
182.705 8.02658 0
180.167 8.04057 0
181.412 3.74769 0
182.693 5.88365 0
181.436 8.0336 0
180.155 5.89763 0
181.424 5.89066 0
182.681 3.74068 0
185.218 3.72654 0
185.242 8.01244 0
182.705 8.02658 0
183.95 3.73363 0
185.23 5.86951 0
183.973 8.01953 0
182.693 5.88365 0
183.961 5.8766 0
185.218 3.72654 0
187.756 3.71225 0
187.78 7.99816 0
185.242 8.01244 0
186.487 3.71942 0
187.768 5.85522 0
186.511 8.00532 0
185.23 5.86951 0
186.499 5.86238 0
187.756 3.71225 0
190.293 3.69782 0
190.318 7.98372 0
187.78 7.99816 0
189.024 3.70506 0
190.305 5.84078 0
189.049 7.99096 0
187.768 5.85522 0
189.037 5.84802 0
190.293 3.69782 0
192.83 3.68324 0
192.855 7.96913 0
190.318 7.98372 0
191.562 3.69055 0
192.843 5.8262 0
191.586 7.97644 0
190.305 5.84078 0
191.574 5.83351 0
192.83 3.68324 0
195.368 3.66851 0
195.393 7.9544 0
192.855 7.96913 0
194.099 3.67589 0
195.38 5.81147 0
194.124 7.96178 0
192.843 5.8262 0
194.112 5.81885 0
195.368 3.66851 0
197.905 3.65363 0
197.93 7.93952 0
195.393 7.9544 0
196.637 3.66109 0
197.918 5.79659 0
196.662 7.94698 0
195.38 5.81147 0
196.649 5.80405 0
197.905 3.65363 0
200.443 3.63862 0
200.468 7.9245 0
197.93 7.93952 0
199.174 3.64614 0
200.455 5.78157 0
199.199 7.93203 0
197.918 5.79659 0
199.187 5.7891 0
200.443 3.63862 0
202.98 3.62345 0
203.006 7.90933 0
200.468 7.9245 0
201.711 3.63105 0
202.993 5.76641 0
201.737 7.91693 0
200.455 5.78157 0
201.724 5.77401 0
202.98 3.62345 0
205.518 3.60815 0
205.543 7.89403 0
203.006 7.90933 0
204.249 3.61582 0
205.531 5.75111 0
204.275 7.9017 0
202.993 5.76641 0
204.262 5.75878 0
205.518 3.60815 0
208.055 3.59271 0
208.081 7.87858 0
205.543 7.89403 0
206.786 3.60045 0
208.068 5.73566 0
206.812 7.88632 0
205.531 5.75111 0
206.799 5.7434 0
208.055 3.59271 0
210.592 3.57713 0
210.619 7.863 0
208.081 7.87858 0
209.324 3.58493 0
210.606 5.72008 0
209.35 7.87081 0
208.068 5.73566 0
209.337 5.72788 0
210.592 3.57713 0
213.13 3.56141 0
213.157 7.84727 0
210.619 7.863 0
211.861 3.56928 0
213.143 5.70435 0
211.888 7.85515 0
210.606 5.72008 0
211.874 5.71223 0
213.13 3.56141 0
215.667 3.54555 0
215.694 7.83141 0
213.157 7.84727 0
214.399 3.55349 0
215.681 5.68849 0
214.425 7.83936 0
213.143 5.70435 0
214.412 5.69644 0
215.667 3.54555 0
218.205 3.52955 0
218.232 7.81541 0
215.694 7.83141 0
216.936 3.53757 0
218.218 5.6725 0
216.963 7.82343 0
215.681 5.68849 0
216.95 5.68051 0
218.205 3.52955 0
220.742 3.51343 0
220.77 7.79928 0
218.232 7.81541 0
219.474 3.52151 0
220.756 5.65637 0
219.501 7.80736 0
218.218 5.6725 0
219.487 5.66445 0
220.742 3.51343 0
223.28 3.49717 0
223.307 7.78302 0
220.77 7.79928 0
222.011 3.50531 0
223.293 5.64011 0
222.038 7.79117 0
220.756 5.65637 0
222.025 5.64825 0
223.28 3.49717 0
225.817 3.48077 0
225.845 7.76662 0
223.307 7.78302 0
224.548 3.48899 0
225.831 5.62371 0
224.576 7.77484 0
223.293 5.64011 0
224.562 5.63192 0
225.817 3.48077 0
228.355 3.46425 0
228.383 7.75009 0
225.845 7.76662 0
227.086 3.47253 0
228.369 5.60719 0
227.114 7.75837 0
225.831 5.62371 0
227.1 5.61546 0
228.355 3.46425 0
230.892 3.4476 0
230.92 7.73344 0
228.383 7.75009 0
229.623 3.45594 0
230.906 5.59053 0
229.651 7.74178 0
228.369 5.60719 0
229.637 5.59887 0
230.892 3.4476 0
233.43 3.43081 0
233.458 7.71665 0
230.92 7.73344 0
232.161 3.43922 0
233.444 5.57375 0
232.189 7.72506 0
230.906 5.59053 0
232.175 5.58215 0
233.43 3.43081 0
235.967 3.41391 0
235.996 7.69974 0
233.458 7.71665 0
234.698 3.42238 0
235.981 5.55684 0
234.727 7.70821 0
233.444 5.57375 0
234.713 5.56531 0
235.967 3.41391 0
238.505 3.39687 0
238.533 7.6827 0
235.996 7.69974 0
237.236 3.4054 0
238.519 5.5398 0
237.265 7.69124 0
235.981 5.55684 0
237.25 5.54833 0
238.505 3.39687 0
241.042 3.37971 0
241.071 7.66554 0
238.533 7.6827 0
239.773 3.38831 0
241.057 5.52264 0
239.802 7.67414 0
238.519 5.5398 0
239.788 5.53123 0
241.042 3.37971 0
243.58 3.36243 0
243.609 7.64825 0
241.071 7.66554 0
242.311 3.37109 0
243.594 5.50535 0
242.34 7.65691 0
241.057 5.52264 0
242.325 5.51401 0
243.58 3.36243 0
246.117 3.34502 0
246.146 7.63084 0
243.609 7.64825 0
244.848 3.35374 0
246.132 5.48795 0
244.878 7.63956 0
243.594 5.50535 0
244.863 5.49667 0
246.117 3.34502 0
248.655 3.3275 0
248.684 7.61331 0
246.146 7.63084 0
247.386 3.33628 0
248.669 5.47042 0
247.415 7.62209 0
246.132 5.48795 0
247.401 5.4792 0
248.655 3.3275 0
251.192 3.30985 0
251.222 7.59566 0
248.684 7.61331 0
249.923 3.31869 0
251.207 5.45277 0
249.953 7.6045 0
248.669 5.47042 0
249.938 5.46161 0
251.192 3.30985 0
253.73 3.29209 0
253.76 7.5779 0
251.222 7.59566 0
252.461 3.30098 0
253.745 5.435 0
252.491 7.58679 0
251.207 5.45277 0
252.476 5.4439 0
253.73 3.29209 0
256.267 3.2742 0
256.297 7.56001 0
253.76 7.5779 0
254.998 3.28316 0
256.282 5.41712 0
255.028 7.56897 0
253.745 5.435 0
255.013 5.42608 0
256.267 3.2742 0
258.805 3.25621 0
258.835 7.54201 0
256.297 7.56001 0
257.536 3.26522 0
258.82 5.39912 0
257.566 7.55102 0
256.282 5.41712 0
257.551 5.40813 0
258.805 3.25621 0
261.342 3.23809 0
261.373 7.52389 0
258.835 7.54201 0
260.073 3.24716 0
261.357 5.381 0
260.104 7.53296 0
258.82 5.39912 0
260.089 5.39008 0
261.342 3.23809 0
263.88 3.21986 0
263.91 7.50566 0
261.373 7.52389 0
262.611 3.22899 0
263.895 5.36277 0
262.642 7.51479 0
261.357 5.381 0
262.626 5.3719 0
263.88 3.21986 0
266.417 3.20152 0
266.448 7.48732 0
263.91 7.50566 0
265.148 3.21071 0
266.433 5.34443 0
265.179 7.4965 0
263.895 5.36277 0
265.164 5.35362 0
266.417 3.20152 0
268.955 3.18307 0
268.986 7.46886 0
266.448 7.48732 0
267.686 3.19231 0
268.97 5.32598 0
267.717 7.4781 0
266.433 5.34443 0
267.701 5.33522 0
268.955 3.18307 0
271.492 3.16451 0
271.524 7.4503 0
268.986 7.46886 0
270.223 3.1738 0
271.508 5.30741 0
270.255 7.45959 0
268.97 5.32598 0
270.239 5.31671 0
271.492 3.16451 0
274.03 3.14584 0
274.061 7.43162 0
271.524 7.4503 0
272.761 3.15519 0
274.046 5.28874 0
272.792 7.44097 0
271.508 5.30741 0
272.777 5.29809 0
274.03 3.14584 0
276.567 3.12706 0
276.599 7.41284 0
274.061 7.43162 0
275.299 3.13646 0
276.583 5.26996 0
275.33 7.42224 0
274.046 5.28874 0
275.314 5.27937 0
276.567 3.12706 0
279.105 3.10818 0
279.137 7.39395 0
276.599 7.41284 0
277.836 3.11763 0
279.121 5.25107 0
277.868 7.40341 0
276.583 5.26996 0
277.852 5.26053 0
279.105 3.10818 0
281.642 3.08918 0
281.675 7.37496 0
279.137 7.39395 0
280.374 3.09869 0
281.659 5.23208 0
280.406 7.38447 0
279.121 5.25107 0
280.39 5.24159 0
281.642 3.08918 0
284.18 3.07009 0
284.212 7.35586 0
281.675 7.37496 0
282.911 3.07965 0
284.196 5.21299 0
282.943 7.36542 0
281.659 5.23208 0
282.927 5.22255 0
284.18 3.07009 0
286.718 3.05089 0
286.75 7.33666 0
284.212 7.35586 0
285.449 3.0605 0
286.734 5.19379 0
285.481 7.34627 0
284.196 5.21299 0
285.465 5.2034 0
286.718 3.05089 0
289.255 3.03159 0
289.288 7.31735 0
286.75 7.33666 0
287.986 3.04126 0
289.271 5.17448 0
288.019 7.32702 0
286.734 5.19379 0
288.003 5.18415 0
289.255 3.03159 0
291.793 3.01219 0
291.826 7.29795 0
289.288 7.31735 0
290.524 3.02191 0
291.809 5.15508 0
290.557 7.30767 0
289.271 5.17448 0
290.54 5.1648 0
291.793 3.01219 0
294.33 2.99269 0
294.363 7.27845 0
291.826 7.29795 0
293.062 3.00246 0
294.347 5.13558 0
293.094 7.28821 0
291.809 5.15508 0
293.078 5.14534 0
294.33 2.99269 0
296.868 2.9731 0
296.901 7.25885 0
294.363 7.27845 0
295.599 2.98291 0
296.884 5.11598 0
295.632 7.26866 0
294.347 5.13558 0
295.616 5.12579 0
296.868 2.9731 0
299.405 2.9534 0
299.439 7.23915 0
296.901 7.25885 0
298.137 2.96326 0
299.422 5.09629 0
298.17 7.24901 0
296.884 5.11598 0
298.153 5.10615 0
299.405 2.9534 0
301.943 2.93361 0
301.977 7.21936 0
299.439 7.23915 0
300.674 2.94352 0
301.96 5.07649 0
300.708 7.22927 0
299.422 5.09629 0
300.691 5.0864 0
301.943 2.93361 0
304.481 2.91373 0
304.514 7.19947 0
301.977 7.21936 0
303.212 2.92368 0
304.497 5.05661 0
303.245 7.20942 0
301.96 5.07649 0
303.229 5.06656 0
304.481 2.91373 0
307.018 2.89375 0
307.052 7.17949 0
304.514 7.19947 0
305.749 2.90375 0
307.035 5.03663 0
305.783 7.18949 0
304.497 5.05661 0
305.766 5.04663 0
307.018 2.89375 0
309.556 2.87368 0
309.59 7.15942 0
307.052 7.17949 0
308.287 2.88373 0
309.573 5.01656 0
308.321 7.16946 0
307.035 5.03663 0
308.304 5.0266 0
309.556 2.87368 0
312.093 2.85352 0
312.128 7.13925 0
309.59 7.15942 0
310.825 2.86361 0
312.111 4.99639 0
310.859 7.14934 0
309.573 5.01656 0
310.842 5.00649 0
312.093 2.85352 0
314.631 2.83327 0
314.665 7.119 0
312.128 7.13925 0
313.362 2.8434 0
314.648 4.97614 0
313.396 7.12914 0
312.111 4.99639 0
313.379 4.98628 0
314.631 2.83327 0
317.169 2.81293 0
317.203 7.09866 0
314.665 7.119 0
315.9 2.82311 0
317.186 4.9558 0
315.934 7.10884 0
314.648 4.97614 0
315.917 4.96598 0
317.169 2.81293 0
319.706 2.7925 0
319.741 7.07823 0
317.203 7.09866 0
318.438 2.80273 0
319.724 4.93537 0
318.472 7.08845 0
317.186 4.9558 0
318.455 4.9456 0
319.706 2.7925 0
322.244 2.77199 0
322.279 7.05771 0
319.741 7.07823 0
320.975 2.78226 0
322.261 4.91486 0
321.01 7.06798 0
319.724 4.93537 0
320.992 4.92513 0
322.244 2.77199 0
324.782 2.7514 0
324.816 7.03711 0
322.279 7.05771 0
323.513 2.7617 0
324.799 4.89426 0
323.548 7.04742 0
322.261 4.91486 0
323.53 4.90457 0
324.782 2.7514 0
327.319 2.73072 0
327.354 7.01643 0
324.816 7.03711 0
326.05 2.74107 0
327.337 4.87358 0
326.085 7.02678 0
324.799 4.89426 0
326.068 4.88393 0
327.319 2.73072 0
329.857 2.70995 0
329.892 6.99566 0
327.354 7.01643 0
328.588 2.72034 0
329.874 4.85282 0
328.623 7.00606 0
327.337 4.87358 0
328.606 4.86321 0
329.857 2.70995 0
332.395 2.68911 0
332.43 6.97481 0
329.892 6.99566 0
331.126 2.69954 0
332.412 4.83197 0
331.161 6.98525 0
329.874 4.85282 0
331.143 4.8424 0
332.395 2.68911 0
334.932 2.66818 0
334.968 6.95389 0
332.43 6.97481 0
333.663 2.67866 0
334.95 4.81104 0
333.699 6.96436 0
332.412 4.83197 0
333.681 4.82152 0
334.932 2.66818 0
337.47 2.64718 0
337.505 6.93288 0
334.968 6.95389 0
336.201 2.65769 0
337.488 4.79004 0
336.236 6.94339 0
334.95 4.81104 0
336.219 4.80055 0
337.47 2.64718 0
340.007 2.6261 0
340.043 6.9118 0
337.505 6.93288 0
338.739 2.63665 0
340.025 4.76896 0
338.774 6.92235 0
337.488 4.79004 0
338.756 4.77951 0
340.007 2.6261 0
342.545 2.60495 0
342.581 6.89064 0
340.043 6.9118 0
341.276 2.61553 0
342.563 4.7478 0
341.312 6.90123 0
340.025 4.76896 0
341.294 4.75839 0
342.545 2.60495 0
345.083 2.58371 0
345.119 6.8694 0
342.581 6.89064 0
343.814 2.59434 0
345.101 4.72657 0
343.85 6.88003 0
342.563 4.7478 0
343.832 4.73719 0
345.083 2.58371 0
347.62 2.56241 0
347.656 6.8481 0
345.119 6.8694 0
346.352 2.57307 0
347.638 4.70526 0
346.388 6.85876 0
345.101 4.72657 0
346.37 4.71592 0
347.62 2.56241 0
350.158 2.54103 0
350.194 6.82671 0
347.656 6.8481 0
348.889 2.55173 0
350.176 4.68388 0
348.925 6.83741 0
347.638 4.70526 0
348.907 4.69458 0
350.158 2.54103 0
352.696 2.51958 0
352.732 6.80526 0
350.194 6.82671 0
351.427 2.53031 0
352.714 4.66243 0
351.463 6.816 0
350.176 4.68388 0
351.445 4.67316 0
352.696 2.51958 0
355.234 2.49806 0
355.27 6.78374 0
352.732 6.80526 0
353.965 2.50883 0
355.252 4.64091 0
354.001 6.79451 0
352.714 4.66243 0
353.983 4.65168 0
355.234 2.49806 0
357.771 2.47647 0
357.808 6.76215 0
355.27 6.78374 0
356.502 2.48728 0
357.789 4.61932 0
356.539 6.77295 0
355.252 4.64091 0
356.521 4.63012 0
357.771 2.47647 0
360.309 2.45482 0
360.345 6.74049 0
357.808 6.76215 0
359.04 2.46565 0
360.327 4.59766 0
359.077 6.75133 0
357.789 4.61932 0
359.058 4.6085 0
360.309 2.45482 0
362.847 2.43309 0
362.883 6.71876 0
360.345 6.74049 0
361.578 2.44396 0
362.865 4.57593 0
361.614 6.72963 0
360.327 4.59766 0
361.596 4.5868 0
362.847 2.43309 0
365.384 2.4113 0
365.421 6.69697 0
362.883 6.71876 0
364.115 2.42221 0
365.403 4.55414 0
364.152 6.70787 0
362.865 4.57593 0
364.134 4.56505 0
365.384 2.4113 0
367.922 2.38945 0
367.959 6.67511 0
365.421 6.69697 0
366.653 2.40038 0
367.94 4.53229 0
366.69 6.68605 0
365.403 4.55414 0
366.672 4.54322 0
367.922 2.38945 0
370.46 2.36753 0
370.497 6.65319 0
367.959 6.67511 0
369.191 2.3785 0
370.478 4.51037 0
369.228 6.66416 0
367.94 4.53229 0
369.209 4.52134 0
370.46 2.36753 0
372.997 2.34556 0
373.035 6.63121 0
370.497 6.65319 0
371.729 2.35655 0
373.016 4.48839 0
371.766 6.64221 0
370.478 4.51037 0
371.747 4.49939 0
372.997 2.34556 0
375.535 2.32352 0
375.572 6.60917 0
373.035 6.63121 0
374.266 2.33454 0
375.554 4.46635 0
374.303 6.6202 0
373.016 4.48839 0
374.285 4.47738 0
375.535 2.32352 0
378.073 2.30142 0
378.11 6.58707 0
375.572 6.60917 0
376.804 2.31248 0
378.092 4.44425 0
376.841 6.59813 0
375.554 4.46635 0
376.823 4.45531 0
378.073 2.30142 0
380.611 2.27926 0
380.648 6.56491 0
378.11 6.58707 0
379.342 2.29035 0
380.629 4.42209 0
379.379 6.576 0
378.092 4.44425 0
379.36 4.43318 0
380.611 2.27926 0
383.148 2.25705 0
383.186 6.5427 0
380.648 6.56491 0
381.88 2.26816 0
383.167 4.39988 0
381.917 6.55381 0
380.629 4.42209 0
381.898 4.41099 0
383.148 2.25705 0
385.686 2.23478 0
385.724 6.52042 0
383.186 6.5427 0
384.417 2.24592 0
385.705 4.37761 0
384.455 6.53157 0
383.167 4.39988 0
384.436 4.38875 0
385.686 2.23478 0
388.224 2.21246 0
388.262 6.4981 0
385.724 6.52042 0
386.955 2.22363 0
388.243 4.35528 0
386.993 6.50927 0
385.705 4.37761 0
386.974 4.36645 0
388.224 2.21246 0
390.762 2.19008 0
390.799 6.47572 0
388.262 6.4981 0
389.493 2.20128 0
390.781 4.33291 0
389.53 6.48692 0
388.243 4.35528 0
389.512 4.3441 0
390.762 2.19008 0
393.299 2.16765 0
393.337 6.45329 0
390.799 6.47572 0
392.03 2.17887 0
393.318 4.31048 0
392.068 6.46451 0
390.781 4.33291 0
392.049 4.3217 0
393.299 2.16765 0
395.837 2.14517 0
395.875 6.43081 0
393.337 6.45329 0
394.568 2.15642 0
395.856 4.288 0
394.606 6.44205 0
393.318 4.31048 0
394.587 4.29924 0
395.837 2.14517 0
398.375 2.12265 0
398.413 6.40827 0
395.875 6.43081 0
397.106 2.13392 0
398.394 4.26546 0
397.144 6.41955 0
395.856 4.288 0
397.125 4.27674 0
398.375 2.12265 0
400.913 2.10007 0
400.951 6.38569 0
398.413 6.40827 0
399.644 2.11136 0
400.932 4.24289 0
399.682 6.39699 0
398.394 4.26546 0
399.663 4.25418 0
400.913 2.10007 0
403.45 2.07744 0
403.489 6.36307 0
400.951 6.38569 0
402.182 2.08876 0
403.47 4.22026 0
402.22 6.37439 0
400.932 4.24289 0
402.201 4.23158 0
403.45 2.07744 0
405.988 2.05477 0
406.026 6.34039 0
403.489 6.36307 0
404.719 2.06611 0
406.007 4.19759 0
404.758 6.35173 0
403.47 4.22026 0
404.738 4.20893 0
405.988 2.05477 0
408.526 2.03206 0
408.564 6.31767 0
406.026 6.34039 0
407.257 2.04342 0
408.545 4.17487 0
407.295 6.32904 0
406.007 4.19759 0
407.276 4.18623 0
408.526 2.03206 0
411.064 2.0093 0
411.102 6.29491 0
408.564 6.31767 0
409.795 2.02068 0
411.083 4.15211 0
409.833 6.3063 0
408.545 4.17487 0
409.814 4.16349 0
411.064 2.0093 0
413.602 1.98649 0
413.64 6.27211 0
411.102 6.29491 0
412.333 1.9979 0
413.621 4.1293 0
412.371 6.28351 0
411.083 4.15211 0
412.352 4.14071 0
413.602 1.98649 0
416.139 1.96365 0
416.178 6.24926 0
413.64 6.27211 0
414.87 1.97508 0
416.159 4.10646 0
414.909 6.26069 0
413.621 4.1293 0
414.89 4.11789 0
416.139 1.96365 0
418.677 1.94077 0
418.716 6.22637 0
416.178 6.24926 0
417.408 1.95221 0
418.696 4.08358 0
417.447 6.23782 0
416.159 4.10646 0
417.428 4.09502 0
418.677 1.94077 0
421.215 1.91785 0
421.254 6.20345 0
418.716 6.22637 0
419.946 1.92931 0
421.234 4.06065 0
419.985 6.21492 0
418.696 4.08358 0
419.965 4.07212 0
421.215 1.91785 0
423.753 1.89489 0
423.792 6.18049 0
421.254 6.20345 0
422.484 1.90637 0
423.772 4.03769 0
422.523 6.19197 0
421.234 4.06065 0
422.503 4.04918 0
423.753 1.89489 0
426.291 1.87189 0
426.329 6.15749 0
423.792 6.18049 0
425.022 1.88339 0
426.31 4.01469 0
425.06 6.16899 0
423.772 4.03769 0
425.041 4.0262 0
426.291 1.87189 0
428.828 1.84886 0
428.867 6.13446 0
426.329 6.15749 0
427.56 1.86038 0
428.848 3.99166 0
427.598 6.14598 0
426.31 4.01469 0
427.579 4.00318 0
428.828 1.84886 0
431.366 1.82579 0
431.405 6.11139 0
428.867 6.13446 0
430.097 1.83733 0
431.386 3.96859 0
430.136 6.12293 0
428.848 3.99166 0
430.117 3.98013 0
431.366 1.82579 0
433.904 1.8027 0
433.943 6.08829 0
431.405 6.11139 0
432.635 1.81425 0
433.924 3.9455 0
432.674 6.09984 0
431.386 3.96859 0
432.655 3.95705 0
433.904 1.8027 0
436.442 1.77957 0
436.481 6.06516 0
433.943 6.08829 0
435.173 1.79114 0
436.461 3.92236 0
435.212 6.07673 0
433.924 3.9455 0
435.193 3.93393 0
436.442 1.77957 0
438.98 1.75641 0
439.019 6.04199 0
436.481 6.06516 0
437.711 1.76799 0
438.999 3.8992 0
437.75 6.05358 0
436.461 3.92236 0
437.73 3.91079 0
438.98 1.75641 0
441.518 1.73322 0
441.557 6.0188 0
439.019 6.04199 0
440.249 1.74482 0
441.537 3.87601 0
440.288 6.0304 0
438.999 3.8992 0
440.268 3.88761 0
441.518 1.73322 0
444.055 1.71 0
444.095 5.99558 0
441.557 6.0188 0
442.787 1.72161 0
444.075 3.8528 0
442.826 6.0072 0
441.537 3.87601 0
442.806 3.86441 0
444.055 1.71 0
446.593 1.68676 0
446.633 5.97234 0
444.095 5.99558 0
445.324 1.69838 0
446.613 3.82955 0
445.364 5.98396 0
444.075 3.8528 0
445.344 3.84118 0
446.593 1.68676 0
449.131 1.66349 0
449.17 5.94907 0
446.633 5.97234 0
447.862 1.67513 0
449.151 3.80628 0
447.901 5.96071 0
446.613 3.82955 0
447.882 3.81792 0
449.131 1.66349 0
451.669 1.6402 0
451.708 5.92577 0
449.17 5.94907 0
450.4 1.65185 0
451.689 3.78299 0
450.439 5.93742 0
449.151 3.80628 0
450.42 3.79464 0
451.669 1.6402 0
454.207 1.61688 0
454.246 5.90245 0
451.708 5.92577 0
452.938 1.62854 0
454.227 3.75967 0
452.977 5.91411 0
451.689 3.78299 0
452.958 3.77133 0
454.207 1.61688 0
456.745 1.59354 0
456.784 5.87911 0
454.246 5.90245 0
455.476 1.60521 0
456.764 3.73633 0
455.515 5.89078 0
454.227 3.75967 0
455.496 3.748 0
456.745 1.59354 0
459.283 1.57018 0
459.322 5.85575 0
456.784 5.87911 0
458.014 1.58187 0
459.302 3.71297 0
458.053 5.86743 0
456.764 3.73633 0
458.033 3.72465 0
459.283 1.57018 0
461.821 1.54681 0
461.86 5.83237 0
459.322 5.85575 0
460.552 1.5585 0
461.84 3.68959 0
460.591 5.84406 0
459.302 3.71297 0
460.571 3.70128 0
461.821 1.54681 0
464.358 1.52341 0
464.398 5.80897 0
461.86 5.83237 0
463.089 1.53511 0
464.378 3.66619 0
463.129 5.82067 0
461.84 3.68959 0
463.109 3.67789 0
464.358 1.52341 0
466.896 1.5 0
466.936 5.78556 0
464.398 5.80897 0
465.627 1.51171 0
466.916 3.64278 0
465.667 5.79727 0
464.378 3.66619 0
465.647 3.65449 0
466.896 1.5 0
469.434 1.47657 0
469.474 5.76213 0
466.936 5.78556 0
468.165 1.48828 0
469.454 3.61935 0
468.205 5.77384 0
466.916 3.64278 0
468.185 3.63107 0
469.434 1.47657 0
471.972 1.45312 0
472.012 5.73868 0
469.474 5.76213 0
470.703 1.46485 0
471.992 3.5959 0
470.743 5.7504 0
469.454 3.61935 0
470.723 3.60763 0
471.972 1.45312 0
474.51 1.42967 0
474.55 5.71522 0
472.012 5.73868 0
473.241 1.4414 0
474.53 3.57245 0
473.281 5.72695 0
471.992 3.5959 0
473.261 3.58418 0
474.51 1.42967 0
477.048 1.4062 0
477.088 5.69175 0
474.55 5.71522 0
475.779 1.41794 0
477.068 3.54898 0
475.819 5.70349 0
474.53 3.57245 0
475.799 3.56071 0
477.048 1.4062 0
479.586 1.38272 0
479.625 5.66827 0
477.088 5.69175 0
478.317 1.39446 0
479.606 3.52549 0
478.357 5.68001 0
477.068 3.54898 0
478.337 3.53724 0
479.586 1.38272 0
482.124 1.35923 0
482.163 5.64477 0
479.625 5.66827 0
480.855 1.37098 0
482.144 3.502 0
480.894 5.65652 0
479.606 3.52549 0
480.875 3.51375 0
482.124 1.35923 0
484.662 1.33573 0
484.701 5.62127 0
482.163 5.64477 0
483.393 1.34748 0
484.682 3.4785 0
483.432 5.63303 0
482.144 3.502 0
483.413 3.49025 0
484.662 1.33573 0
487.2 1.31223 0
487.239 5.59777 0
484.701 5.62127 0
485.931 1.32398 0
487.219 3.455 0
485.97 5.60952 0
484.682 3.4785 0
485.951 3.46675 0
487.2 1.31223 0
489.738 1.28871 0
489.777 5.57425 0
487.239 5.59777 0
488.469 1.30047 0
489.757 3.43148 0
488.508 5.58601 0
487.219 3.455 0
488.488 3.44324 0
489.738 1.28871 0
492.276 1.2652 0
492.315 5.55073 0
489.777 5.57425 0
491.007 1.27696 0
492.295 3.40796 0
491.046 5.56249 0
489.757 3.43148 0
491.026 3.41972 0
492.276 1.2652 0
494.814 1.24167 0
494.853 5.5272 0
492.315 5.55073 0
493.545 1.25343 0
494.833 3.38444 0
493.584 5.53897 0
492.295 3.40796 0
493.564 3.3962 0
494.814 1.24167 0
497.351 1.21812 0
497.391 5.50368 0
494.853 5.5272 0
496.082 1.2299 0
497.371 3.3609 0
496.122 5.51544 0
494.833 3.38444 0
496.102 3.37267 0
497.351 1.21812 0
499.889 1.19457 0
499.929 5.48017 0
497.391 5.50368 0
498.62 1.20635 0
499.909 3.33737 0
498.66 5.49192 0
497.371 3.3609 0
498.64 3.34914 0
0 8.57143 0
2.53754 8.57137 0
2.5379 12.8572 0
0 12.8571 0
1.26878 8.57144 0
2.53772 10.7143 0
1.26895 12.8572 0
0 10.7143 0
1.26886 10.7143 0
2.53754 8.57137 0
5.07503 8.57101 0
5.07578 12.8569 0
2.5379 12.8572 0
3.80629 8.57123 0
5.07541 10.714 0
3.80684 12.8571 0
2.53772 10.7143 0
3.80657 10.7142 0
5.07503 8.57101 0
7.61251 8.57039 0
7.61365 12.8563 0
5.07578 12.8569 0
6.34377 8.57073 0
7.61308 10.7134 0
6.34471 12.8566 0
5.07541 10.714 0
6.34425 10.7137 0
7.61251 8.57039 0
10.15 8.56953 0
10.1515 12.8554 0
7.61365 12.8563 0
8.88124 8.56999 0
10.1508 10.7125 0
8.88259 12.8559 0
7.61308 10.7134 0
8.88192 10.713 0
10.15 8.56953 0
12.6874 8.56844 0
12.6894 12.8544 0
10.1515 12.8554 0
11.4187 8.56901 0
12.6884 10.7114 0
11.4205 12.8549 0
10.1508 10.7125 0
11.4196 10.712 0
12.6874 8.56844 0
15.2249 8.56711 0
15.2273 12.853 0
12.6894 12.8544 0
13.9562 8.5678 0
15.2261 10.7101 0
13.9583 12.8537 0
12.6884 10.7114 0
13.9573 10.7108 0
15.2249 8.56711 0
17.7624 8.56556 0
17.7651 12.8515 0
15.2273 12.853 0
16.4937 8.56636 0
17.7638 10.7085 0
16.4962 12.8523 0
15.2261 10.7101 0
16.4949 10.7093 0
17.7624 8.56556 0
20.2999 8.56378 0
20.303 12.8497 0
17.7651 12.8515 0
19.0311 8.5647 0
20.3015 10.7068 0
19.0341 12.8506 0
17.7638 10.7085 0
19.0326 10.7077 0
20.2999 8.56378 0
22.8374 8.56176 0
22.8409 12.8477 0
20.303 12.8497 0
21.5686 8.5628 0
22.8391 10.7047 0
21.5719 12.8487 0
20.3015 10.7068 0
21.5703 10.7058 0
22.8374 8.56176 0
25.3749 8.55952 0
25.3788 12.8454 0
22.8409 12.8477 0
24.1061 8.56067 0
25.3768 10.7025 0
24.1098 12.8466 0
22.8391 10.7047 0
24.108 10.7037 0
25.3749 8.55952 0
27.9124 8.55706 0
27.9166 12.843 0
25.3788 12.8454 0
26.6436 8.55832 0
27.9145 10.7 0
26.6477 12.8442 0
25.3768 10.7025 0
26.6457 10.7013 0
27.9124 8.55706 0
30.4499 8.55437 0
30.4545 12.8403 0
27.9166 12.843 0
29.1811 8.55574 0
30.4522 10.6973 0
29.1856 12.8416 0
27.9145 10.7 0
29.1834 10.6987 0
30.4499 8.55437 0
32.9874 8.55145 0
32.9924 12.8374 0
30.4545 12.8403 0
31.7186 8.55294 0
32.9899 10.6944 0
31.7235 12.8388 0
30.4522 10.6973 0
31.721 10.6959 0
32.9874 8.55145 0
35.5249 8.54832 0
35.5303 12.8342 0
32.9924 12.8374 0
34.2561 8.54991 0
35.5276 10.6913 0
34.2613 12.8358 0
32.9899 10.6944 0
34.2587 10.6929 0
35.5249 8.54832 0
38.0624 8.54496 0
38.0682 12.8309 0
35.5303 12.8342 0
36.7936 8.54666 0
38.0653 10.6879 0
36.7992 12.8326 0
35.5276 10.6913 0
36.7964 10.6896 0
38.0624 8.54496 0
40.5999 8.54138 0
40.606 12.8273 0
38.0682 12.8309 0
39.3311 8.54319 0
40.603 10.6843 0
39.3371 12.8291 0
38.0653 10.6879 0
39.3341 10.6862 0
40.5999 8.54138 0
43.1374 8.53758 0
43.1439 12.8235 0
40.606 12.8273 0
41.8687 8.53951 0
43.1407 10.6805 0
41.875 12.8254 0
40.603 10.6843 0
41.8718 10.6825 0
43.1374 8.53758 0
45.6749 8.53356 0
45.6818 12.8195 0
43.1439 12.8235 0
44.4062 8.5356 0
45.6784 10.6765 0
44.4129 12.8215 0
43.1407 10.6805 0
44.4095 10.6786 0
45.6749 8.53356 0
48.2125 8.52933 0
48.2197 12.8152 0
45.6818 12.8195 0
46.9437 8.53147 0
48.2161 10.6723 0
46.9508 12.8174 0
45.6784 10.6765 0
46.9472 10.6744 0
48.2125 8.52933 0
50.75 8.52488 0
50.7576 12.8108 0
48.2197 12.8152 0
49.4812 8.52713 0
50.7538 10.6678 0
49.4886 12.813 0
48.2161 10.6723 0
49.4849 10.6701 0
50.75 8.52488 0
53.2875 8.52022 0
53.2955 12.8061 0
50.7576 12.8108 0
52.0187 8.52258 0
53.2915 10.6632 0
52.0265 12.8085 0
50.7538 10.6678 0
52.0226 10.6655 0
53.2875 8.52022 0
55.825 8.51534 0
55.8334 12.8012 0
53.2955 12.8061 0
54.5563 8.51781 0
55.8292 10.6583 0
54.5644 12.8037 0
53.2915 10.6632 0
54.5603 10.6608 0
55.825 8.51534 0
58.3626 8.51025 0
58.3712 12.7961 0
55.8334 12.8012 0
57.0938 8.51282 0
58.3669 10.6532 0
57.1023 12.7987 0
55.8292 10.6583 0
57.098 10.6558 0
58.3626 8.51025 0
60.9001 8.50495 0
60.9091 12.7908 0
58.3712 12.7961 0
59.6313 8.50763 0
60.9046 10.6479 0
59.6402 12.7935 0
58.3669 10.6532 0
59.6358 10.6506 0
60.9001 8.50495 0
63.4376 8.49945 0
63.447 12.7853 0
60.9091 12.7908 0
62.1689 8.50223 0
63.4423 10.6424 0
62.1781 12.7881 0
60.9046 10.6479 0
62.1735 10.6452 0
63.4376 8.49945 0
65.9752 8.49373 0
65.9849 12.7796 0
63.447 12.7853 0
64.7064 8.49661 0
65.98 10.6367 0
64.716 12.7825 0
63.4423 10.6424 0
64.7112 10.6396 0
65.9752 8.49373 0
68.5127 8.48781 0
68.5228 12.7737 0
65.9849 12.7796 0
67.2439 8.49079 0
68.5178 10.6308 0
67.2539 12.7767 0
65.98 10.6367 0
67.2489 10.6338 0
68.5127 8.48781 0
71.0502 8.48168 0
71.0607 12.7676 0
68.5228 12.7737 0
69.7815 8.48477 0
71.0555 10.6246 0
69.7917 12.7706 0
68.5178 10.6308 0
69.7866 10.6277 0
71.0502 8.48168 0
73.5878 8.47534 0
73.5986 12.7612 0
71.0607 12.7676 0
72.319 8.47854 0
73.5932 10.6183 0
72.3296 12.7644 0
71.0555 10.6246 0
72.3243 10.6215 0
73.5878 8.47534 0
76.1253 8.46881 0
76.1365 12.7547 0
73.5986 12.7612 0
74.8566 8.4721 0
76.1309 10.6118 0
74.8675 12.758 0
73.5932 10.6183 0
74.8621 10.6151 0
76.1253 8.46881 0
78.6629 8.46207 0
78.6744 12.7479 0
76.1365 12.7547 0
77.3941 8.46546 0
78.6686 10.605 0
77.4054 12.7513 0
76.1309 10.6118 0
77.3998 10.6084 0
78.6629 8.46207 0
81.2004 8.45513 0
81.2123 12.741 0
78.6744 12.7479 0
79.9317 8.45862 0
81.2064 10.5981 0
79.9433 12.7445 0
78.6686 10.605 0
79.9375 10.6016 0
81.2004 8.45513 0
83.738 8.44798 0
83.7502 12.7339 0
81.2123 12.741 0
82.4692 8.45158 0
83.7441 10.5909 0
82.4812 12.7374 0
81.2064 10.5981 0
82.4752 10.5945 0
83.738 8.44798 0
86.2756 8.44065 0
86.288 12.7265 0
83.7502 12.7339 0
85.0068 8.44434 0
86.2818 10.5836 0
85.0191 12.7302 0
83.7441 10.5909 0
85.0129 10.5873 0
86.2756 8.44065 0
88.8131 8.43311 0
88.8259 12.719 0
86.288 12.7265 0
87.5443 8.4369 0
88.8195 10.5761 0
87.557 12.7228 0
86.2818 10.5836 0
87.5507 10.5799 0
88.8131 8.43311 0
91.3507 8.42538 0
91.3638 12.7112 0
88.8259 12.719 0
90.0819 8.42927 0
91.3573 10.5683 0
90.0949 12.7151 0
88.8195 10.5761 0
90.0884 10.5722 0
91.3507 8.42538 0
93.8883 8.41745 0
93.9017 12.7033 0
91.3638 12.7112 0
92.6195 8.42144 0
93.895 10.5604 0
92.6328 12.7073 0
91.3573 10.5683 0
92.6261 10.5644 0
93.8883 8.41745 0
96.4258 8.40933 0
96.4396 12.6952 0
93.9017 12.7033 0
95.157 8.41341 0
96.4327 10.5523 0
95.1707 12.6993 0
93.895 10.5604 0
95.1639 10.5564 0
96.4258 8.40933 0
98.9634 8.40102 0
98.9775 12.6869 0
96.4396 12.6952 0
97.6946 8.4052 0
98.9705 10.544 0
97.7086 12.6911 0
96.4327 10.5523 0
97.7016 10.5481 0
98.9634 8.40102 0
101.501 8.39251 0
101.515 12.6784 0
98.9775 12.6869 0
100.232 8.39679 0
101.508 10.5355 0
100.246 12.6826 0
98.9705 10.544 0
100.239 10.5397 0
101.501 8.39251 0
104.039 8.38382 0
104.053 12.6697 0
101.515 12.6784 0
102.77 8.38819 0
104.046 10.5268 0
102.784 12.674 0
101.508 10.5355 0
102.777 10.5311 0
104.039 8.38382 0
106.576 8.37493 0
106.591 12.6608 0
104.053 12.6697 0
105.307 8.3794 0
106.584 10.5179 0
105.322 12.6652 0
104.046 10.5268 0
105.315 10.5223 0
106.576 8.37493 0
109.114 8.36586 0
109.129 12.6517 0
106.591 12.6608 0
107.845 8.37042 0
109.121 10.5088 0
107.86 12.6563 0
106.584 10.5179 0
107.853 10.5134 0
109.114 8.36586 0
111.651 8.3566 0
111.667 12.6424 0
109.129 12.6517 0
110.382 8.36125 0
111.659 10.4995 0
110.398 12.6471 0
109.121 10.5088 0
110.39 10.5042 0
111.651 8.3566 0
114.189 8.34716 0
114.205 12.633 0
111.667 12.6424 0
112.92 8.3519 0
114.197 10.4901 0
112.936 12.6377 0
111.659 10.4995 0
112.928 10.4948 0
114.189 8.34716 0
116.726 8.33753 0
116.743 12.6234 0
114.205 12.633 0
115.458 8.34237 0
116.735 10.4805 0
115.474 12.6282 0
114.197 10.4901 0
115.466 10.4853 0
116.726 8.33753 0
119.264 8.32772 0
119.281 12.6136 0
116.743 12.6234 0
117.995 8.33265 0
119.272 10.4707 0
118.012 12.6185 0
116.735 10.4805 0
118.004 10.4756 0
119.264 8.32772 0
121.802 8.31773 0
121.819 12.6036 0
119.281 12.6136 0
120.533 8.32275 0
121.81 10.4607 0
120.55 12.6086 0
119.272 10.4707 0
120.541 10.4657 0
121.802 8.31773 0
124.339 8.30756 0
124.356 12.5934 0
121.819 12.6036 0
123.07 8.31267 0
124.348 10.4505 0
123.088 12.5985 0
121.81 10.4607 0
123.079 10.4556 0
124.339 8.30756 0
126.877 8.29721 0
126.894 12.583 0
124.356 12.5934 0
125.608 8.3024 0
126.886 10.4401 0
125.625 12.5882 0
124.348 10.4505 0
125.617 10.4453 0
126.877 8.29721 0
129.414 8.28668 0
129.432 12.5725 0
126.894 12.583 0
128.146 8.29196 0
129.423 10.4296 0
128.163 12.5778 0
126.886 10.4401 0
128.154 10.4349 0
129.414 8.28668 0
131.952 8.27597 0
131.97 12.5618 0
129.432 12.5725 0
130.683 8.28134 0
131.961 10.4189 0
130.701 12.5672 0
129.423 10.4296 0
130.692 10.4243 0
131.952 8.27597 0
134.49 8.26509 0
134.508 12.5509 0
131.97 12.5618 0
133.221 8.27055 0
134.499 10.408 0
133.239 12.5564 0
131.961 10.4189 0
133.23 10.4135 0
134.49 8.26509 0
137.027 8.25403 0
137.046 12.5399 0
134.508 12.5509 0
135.758 8.25958 0
137.037 10.397 0
135.777 12.5454 0
134.499 10.408 0
135.768 10.4025 0
137.027 8.25403 0
139.565 8.2428 0
139.584 12.5286 0
137.046 12.5399 0
138.296 8.24844 0
139.574 10.3857 0
138.315 12.5343 0
137.037 10.397 0
138.305 10.3914 0
139.565 8.2428 0
142.102 8.2314 0
142.122 12.5172 0
139.584 12.5286 0
140.834 8.23712 0
142.112 10.3743 0
140.853 12.5229 0
139.574 10.3857 0
140.843 10.3801 0
142.102 8.2314 0
144.64 8.21983 0
144.66 12.5056 0
142.122 12.5172 0
143.371 8.22564 0
144.65 10.3628 0
143.391 12.5115 0
142.112 10.3743 0
143.381 10.3686 0
144.64 8.21983 0
147.178 8.20809 0
147.198 12.4939 0
144.66 12.5056 0
145.909 8.21398 0
147.188 10.351 0
145.929 12.4998 0
144.65 10.3628 0
145.919 10.3569 0
147.178 8.20809 0
149.715 8.19618 0
149.735 12.482 0
147.198 12.4939 0
148.447 8.20215 0
149.725 10.3391 0
148.467 12.488 0
147.188 10.351 0
148.457 10.3451 0
149.715 8.19618 0
152.253 8.1841 0
152.273 12.4699 0
149.735 12.482 0
150.984 8.19016 0
152.263 10.327 0
151.004 12.476 0
149.725 10.3391 0
150.994 10.3331 0
152.253 8.1841 0
154.791 8.17186 0
154.811 12.4577 0
152.273 12.4699 0
153.522 8.178 0
154.801 10.3148 0
153.542 12.4638 0
152.263 10.327 0
153.532 10.3209 0
154.791 8.17186 0
157.328 8.15945 0
157.349 12.4453 0
154.811 12.4577 0
156.059 8.16567 0
157.339 10.3024 0
156.08 12.4515 0
154.801 10.3148 0
156.07 10.3086 0
157.328 8.15945 0
159.866 8.14688 0
159.887 12.4327 0
157.349 12.4453 0
158.597 8.15319 0
159.876 10.2898 0
158.618 12.439 0
157.339 10.3024 0
158.608 10.2961 0
159.866 8.14688 0
162.403 8.13415 0
162.425 12.4199 0
159.887 12.4327 0
161.135 8.14053 0
162.414 10.2771 0
161.156 12.4263 0
159.876 10.2898 0
161.145 10.2834 0
162.403 8.13415 0
164.941 8.12125 0
164.963 12.407 0
162.425 12.4199 0
163.672 8.12772 0
164.952 10.2642 0
163.694 12.4135 0
162.414 10.2771 0
163.683 10.2706 0
164.941 8.12125 0
167.479 8.1082 0
167.501 12.394 0
164.963 12.407 0
166.21 8.11474 0
167.49 10.2511 0
166.232 12.4005 0
164.952 10.2642 0
166.221 10.2577 0
167.479 8.1082 0
170.016 8.09498 0
170.039 12.3808 0
167.501 12.394 0
168.748 8.10161 0
170.028 10.2379 0
168.77 12.3874 0
167.49 10.2511 0
168.759 10.2445 0
170.016 8.09498 0
172.554 8.08161 0
172.577 12.3674 0
170.039 12.3808 0
171.285 8.08832 0
172.565 10.2245 0
171.308 12.3741 0
170.028 10.2379 0
171.296 10.2312 0
172.554 8.08161 0
175.092 8.06809 0
175.115 12.3539 0
172.577 12.3674 0
173.823 8.07487 0
175.103 10.211 0
173.846 12.3607 0
172.565 10.2245 0
173.834 10.2178 0
175.092 8.06809 0
177.629 8.05441 0
177.652 12.3402 0
175.115 12.3539 0
176.36 8.06127 0
177.641 10.1973 0
176.383 12.3471 0
175.103 10.211 0
176.372 10.2042 0
177.629 8.05441 0
180.167 8.04057 0
180.19 12.3264 0
177.652 12.3402 0
178.898 8.04751 0
180.179 10.1835 0
178.921 12.3333 0
177.641 10.1973 0
178.91 10.1904 0
180.167 8.04057 0
182.705 8.02658 0
182.728 12.3124 0
180.19 12.3264 0
181.436 8.0336 0
182.716 10.1695 0
181.459 12.3194 0
180.179 10.1835 0
181.448 10.1765 0
182.705 8.02658 0
185.242 8.01244 0
185.266 12.2982 0
182.728 12.3124 0
183.973 8.01953 0
185.254 10.1553 0
183.997 12.3053 0
182.716 10.1695 0
183.985 10.1624 0
185.242 8.01244 0
187.78 7.99816 0
187.804 12.2839 0
185.266 12.2982 0
186.511 8.00532 0
187.792 10.1411 0
186.535 12.2911 0
185.254 10.1553 0
186.523 10.1482 0
187.78 7.99816 0
190.318 7.98372 0
190.342 12.2695 0
187.804 12.2839 0
189.049 7.99096 0
190.33 10.1266 0
189.073 12.2767 0
187.792 10.1411 0
189.061 10.1339 0
190.318 7.98372 0
192.855 7.96913 0
192.88 12.2549 0
190.342 12.2695 0
191.586 7.97644 0
192.868 10.112 0
191.611 12.2622 0
190.33 10.1266 0
191.599 10.1193 0
192.855 7.96913 0
195.393 7.9544 0
195.418 12.2402 0
192.88 12.2549 0
194.124 7.96178 0
195.405 10.0973 0
194.149 12.2476 0
192.868 10.112 0
194.136 10.1047 0
195.393 7.9544 0
197.93 7.93952 0
197.956 12.2253 0
195.418 12.2402 0
196.662 7.94698 0
197.943 10.0824 0
196.687 12.2327 0
195.405 10.0973 0
196.674 10.0899 0
197.93 7.93952 0
200.468 7.9245 0
200.494 12.2103 0
197.956 12.2253 0
199.199 7.93203 0
200.481 10.0674 0
199.225 12.2178 0
197.943 10.0824 0
199.212 10.0749 0
200.468 7.9245 0
203.006 7.90933 0
203.031 12.1951 0
200.494 12.2103 0
201.737 7.91693 0
203.019 10.0522 0
201.763 12.2027 0
200.481 10.0674 0
201.75 10.0598 0
203.006 7.90933 0
205.543 7.89403 0
205.569 12.1798 0
203.031 12.1951 0
204.275 7.9017 0
205.556 10.0369 0
204.3 12.1875 0
203.019 10.0522 0
204.288 10.0446 0
205.543 7.89403 0
208.081 7.87858 0
208.107 12.1643 0
205.569 12.1798 0
206.812 7.88632 0
208.094 10.0215 0
206.838 12.1721 0
205.556 10.0369 0
206.825 10.0292 0
208.081 7.87858 0
210.619 7.863 0
210.645 12.1487 0
208.107 12.1643 0
209.35 7.87081 0
210.632 10.0059 0
209.376 12.1566 0
208.094 10.0215 0
209.363 10.0137 0
210.619 7.863 0
213.157 7.84727 0
213.183 12.133 0
210.645 12.1487 0
211.888 7.85515 0
213.17 9.99016 0
211.914 12.1409 0
210.632 10.0059 0
211.901 9.99804 0
213.157 7.84727 0
215.694 7.83141 0
215.721 12.1172 0
213.183 12.133 0
214.425 7.83936 0
215.708 9.9743 0
214.452 12.1251 0
213.17 9.99016 0
214.439 9.98225 0
215.694 7.83141 0
218.232 7.81541 0
218.259 12.1012 0
215.721 12.1172 0
216.963 7.82343 0
218.245 9.9583 0
216.99 12.1092 0
215.708 9.9743 0
216.976 9.96632 0
218.232 7.81541 0
220.77 7.79928 0
220.797 12.085 0
218.259 12.1012 0
219.501 7.80736 0
220.783 9.94217 0
219.528 12.0931 0
218.245 9.9583 0
219.514 9.95025 0
220.77 7.79928 0
223.307 7.78302 0
223.335 12.0688 0
220.797 12.085 0
222.038 7.79117 0
223.321 9.9259 0
222.066 12.0769 0
220.783 9.94217 0
222.052 9.93405 0
223.307 7.78302 0
225.845 7.76662 0
225.873 12.0524 0
223.335 12.0688 0
224.576 7.77484 0
225.859 9.9095 0
224.604 12.0606 0
223.321 9.9259 0
224.59 9.91772 0
225.845 7.76662 0
228.383 7.75009 0
228.411 12.0358 0
225.873 12.0524 0
227.114 7.75837 0
228.397 9.89297 0
227.142 12.0441 0
225.859 9.9095 0
227.128 9.90126 0
228.383 7.75009 0
230.92 7.73344 0
230.948 12.0192 0
228.411 12.0358 0
229.651 7.74178 0
230.934 9.87632 0
229.679 12.0275 0
228.397 9.89297 0
229.665 9.88466 0
230.92 7.73344 0
233.458 7.71665 0
233.486 12.0024 0
230.948 12.0192 0
232.189 7.72506 0
233.472 9.85953 0
232.217 12.0108 0
230.934 9.87632 0
232.203 9.86794 0
233.458 7.71665 0
235.996 7.69974 0
236.024 11.9855 0
233.486 12.0024 0
234.727 7.70821 0
236.01 9.84262 0
234.755 11.9939 0
233.472 9.85953 0
234.741 9.85109 0
235.996 7.69974 0
238.533 7.6827 0
238.562 11.9684 0
236.024 11.9855 0
237.265 7.69124 0
238.548 9.82558 0
237.293 11.977 0
236.01 9.84262 0
237.279 9.83411 0
238.533 7.6827 0
241.071 7.66554 0
241.1 11.9513 0
238.562 11.9684 0
239.802 7.67414 0
241.086 9.80841 0
239.831 11.9599 0
238.548 9.82558 0
239.817 9.81701 0
241.071 7.66554 0
243.609 7.64825 0
243.638 11.934 0
241.1 11.9513 0
242.34 7.65691 0
243.623 9.79113 0
242.369 11.9426 0
241.086 9.80841 0
242.354 9.79978 0
243.609 7.64825 0
246.146 7.63084 0
246.176 11.9166 0
243.638 11.934 0
244.878 7.63956 0
246.161 9.77372 0
244.907 11.9253 0
243.623 9.79113 0
244.892 9.78244 0
246.146 7.63084 0
248.684 7.61331 0
248.714 11.899 0
246.176 11.9166 0
247.415 7.62209 0
248.699 9.75618 0
247.445 11.9078 0
246.161 9.77372 0
247.43 9.76496 0
248.684 7.61331 0
251.222 7.59566 0
251.252 11.8814 0
248.714 11.899 0
249.953 7.6045 0
251.237 9.73853 0
249.983 11.8902 0
248.699 9.75618 0
249.968 9.74737 0
251.222 7.59566 0
253.76 7.5779 0
253.79 11.8636 0
251.252 11.8814 0
252.491 7.58679 0
253.775 9.72076 0
252.521 11.8725 0
251.237 9.73853 0
252.506 9.72966 0
253.76 7.5779 0
256.297 7.56001 0
256.328 11.8457 0
253.79 11.8636 0
255.028 7.56897 0
256.312 9.70288 0
255.059 11.8547 0
253.775 9.72076 0
255.044 9.71183 0
256.297 7.56001 0
258.835 7.54201 0
258.865 11.8277 0
256.328 11.8457 0
257.566 7.55102 0
258.85 9.68487 0
257.596 11.8367 0
256.312 9.70288 0
257.581 9.69389 0
258.835 7.54201 0
261.373 7.52389 0
261.403 11.8096 0
258.865 11.8277 0
260.104 7.53296 0
261.388 9.66675 0
260.134 11.8187 0
258.85 9.68487 0
260.119 9.67583 0
261.373 7.52389 0
263.91 7.50566 0
263.941 11.7914 0
261.403 11.8096 0
262.642 7.51479 0
263.926 9.64852 0
262.672 11.8005 0
261.388 9.66675 0
262.657 9.65765 0
263.91 7.50566 0
266.448 7.48732 0
266.479 11.773 0
263.941 11.7914 0
265.179 7.4965 0
266.464 9.63018 0
265.21 11.7822 0
263.926 9.64852 0
265.195 9.63936 0
266.448 7.48732 0
268.986 7.46886 0
269.017 11.7546 0
266.479 11.773 0
267.717 7.4781 0
269.001 9.61172 0
267.748 11.7638 0
266.464 9.63018 0
267.733 9.62096 0
268.986 7.46886 0
271.524 7.4503 0
271.555 11.736 0
269.017 11.7546 0
270.255 7.45959 0
271.539 9.59315 0
270.286 11.7453 0
269.001 9.61172 0
270.27 9.60245 0
271.524 7.4503 0
274.061 7.43162 0
274.093 11.7173 0
271.555 11.736 0
272.792 7.44097 0
274.077 9.57448 0
272.824 11.7267 0
271.539 9.59315 0
272.808 9.58383 0
274.061 7.43162 0
276.599 7.41284 0
276.631 11.6985 0
274.093 11.7173 0
275.33 7.42224 0
276.615 9.55569 0
275.362 11.7079 0
274.077 9.57448 0
275.346 9.5651 0
276.599 7.41284 0
279.137 7.39395 0
279.169 11.6796 0
276.631 11.6985 0
277.868 7.40341 0
279.153 9.5368 0
277.9 11.6891 0
276.615 9.55569 0
277.884 9.54626 0
279.137 7.39395 0
281.675 7.37496 0
281.707 11.6606 0
279.169 11.6796 0
280.406 7.38447 0
281.691 9.51781 0
280.438 11.6702 0
279.153 9.5368 0
280.422 9.52732 0
281.675 7.37496 0
284.212 7.35586 0
284.245 11.6415 0
281.707 11.6606 0
282.943 7.36542 0
284.228 9.49871 0
282.976 11.6511 0
281.691 9.51781 0
282.96 9.50827 0
284.212 7.35586 0
286.75 7.33666 0
286.782 11.6223 0
284.245 11.6415 0
285.481 7.34627 0
286.766 9.47951 0
285.514 11.632 0
284.228 9.49871 0
285.497 9.48912 0
286.75 7.33666 0
289.288 7.31735 0
289.32 11.603 0
286.782 11.6223 0
288.019 7.32702 0
289.304 9.4602 0
288.051 11.6127 0
286.766 9.47951 0
288.035 9.46987 0
289.288 7.31735 0
291.826 7.29795 0
291.858 11.5836 0
289.32 11.603 0
290.557 7.30767 0
291.842 9.4408 0
290.589 11.5933 0
289.304 9.4602 0
290.573 9.45051 0
291.826 7.29795 0
294.363 7.27845 0
294.396 11.5641 0
291.858 11.5836 0
293.094 7.28821 0
294.38 9.4213 0
293.127 11.5739 0
291.842 9.4408 0
293.111 9.43106 0
294.363 7.27845 0
296.901 7.25885 0
296.934 11.5445 0
294.396 11.5641 0
295.632 7.26866 0
296.918 9.40169 0
295.665 11.5543 0
294.38 9.4213 0
295.649 9.41151 0
296.901 7.25885 0
299.439 7.23915 0
299.472 11.5248 0
296.934 11.5445 0
298.17 7.24901 0
299.455 9.38199 0
298.203 11.5347 0
296.918 9.40169 0
298.186 9.39186 0
299.439 7.23915 0
301.977 7.21936 0
302.01 11.505 0
299.472 11.5248 0
300.708 7.22927 0
301.993 9.3622 0
300.741 11.5149 0
299.455 9.38199 0
300.724 9.37211 0
301.977 7.21936 0
304.514 7.19947 0
304.548 11.4851 0
302.01 11.505 0
303.245 7.20942 0
304.531 9.34231 0
303.279 11.4951 0
301.993 9.3622 0
303.262 9.35227 0
304.514 7.19947 0
307.052 7.17949 0
307.086 11.4651 0
304.548 11.4851 0
305.783 7.18949 0
307.069 9.32233 0
305.817 11.4752 0
304.531 9.34231 0
305.8 9.33233 0
307.052 7.17949 0
309.59 7.15942 0
309.624 11.4451 0
307.086 11.4651 0
308.321 7.16946 0
309.607 9.30225 0
308.355 11.4551 0
307.069 9.32233 0
308.338 9.3123 0
309.59 7.15942 0
312.128 7.13925 0
312.162 11.4249 0
309.624 11.4451 0
310.859 7.14934 0
312.145 9.28209 0
310.893 11.435 0
309.607 9.30225 0
310.876 9.29218 0
312.128 7.13925 0
314.665 7.119 0
314.7 11.4047 0
312.162 11.4249 0
313.396 7.12914 0
314.682 9.26183 0
313.431 11.4148 0
312.145 9.28209 0
313.413 9.27197 0
314.665 7.119 0
317.203 7.09866 0
317.237 11.3843 0
314.7 11.4047 0
315.934 7.10884 0
317.22 9.24149 0
315.968 11.3945 0
314.682 9.26183 0
315.951 9.25167 0
317.203 7.09866 0
319.741 7.07823 0
319.775 11.3639 0
317.237 11.3843 0
318.472 7.08845 0
319.758 9.22106 0
318.506 11.3741 0
317.22 9.24149 0
318.489 9.23129 0
319.741 7.07823 0
322.279 7.05771 0
322.313 11.3434 0
319.775 11.3639 0
321.01 7.06798 0
322.296 9.20054 0
321.044 11.3536 0
319.758 9.22106 0
321.027 9.21081 0
322.279 7.05771 0
324.816 7.03711 0
324.851 11.3228 0
322.313 11.3434 0
323.548 7.04742 0
324.834 9.17994 0
323.582 11.3331 0
322.296 9.20054 0
323.565 9.19025 0
324.816 7.03711 0
327.354 7.01643 0
327.389 11.3021 0
324.851 11.3228 0
326.085 7.02678 0
327.372 9.15926 0
326.12 11.3124 0
324.834 9.17994 0
326.103 9.16961 0
327.354 7.01643 0
329.892 6.99566 0
329.927 11.2813 0
327.389 11.3021 0
328.623 7.00606 0
329.909 9.13849 0
328.658 11.2917 0
327.372 9.15926 0
328.641 9.14888 0
329.892 6.99566 0
332.43 6.97481 0
332.465 11.2605 0
329.927 11.2813 0
331.161 6.98525 0
332.447 9.11764 0
331.196 11.2709 0
329.909 9.13849 0
331.178 9.12808 0
332.43 6.97481 0
334.968 6.95389 0
335.003 11.2395 0
332.465 11.2605 0
333.699 6.96436 0
334.985 9.09671 0
333.734 11.25 0
332.447 9.11764 0
333.716 9.10719 0
334.968 6.95389 0
337.505 6.93288 0
337.541 11.2185 0
335.003 11.2395 0
336.236 6.94339 0
337.523 9.07571 0
336.272 11.229 0
334.985 9.09671 0
336.254 9.08622 0
337.505 6.93288 0
340.043 6.9118 0
340.079 11.1974 0
337.541 11.2185 0
338.774 6.92235 0
340.061 9.05462 0
338.81 11.208 0
337.523 9.07571 0
338.792 9.06517 0
340.043 6.9118 0
342.581 6.89064 0
342.617 11.1763 0
340.079 11.1974 0
341.312 6.90123 0
342.599 9.03346 0
341.348 11.1869 0
340.061 9.05462 0
341.33 9.04405 0
342.581 6.89064 0
345.119 6.8694 0
345.155 11.155 0
342.617 11.1763 0
343.85 6.88003 0
345.137 9.01223 0
343.886 11.1657 0
342.599 9.03346 0
343.868 9.02285 0
345.119 6.8694 0
347.656 6.8481 0
347.692 11.1337 0
345.155 11.155 0
346.388 6.85876 0
347.674 8.99092 0
346.423 11.1444 0
345.137 9.01223 0
346.406 9.00158 0
347.656 6.8481 0
350.194 6.82671 0
350.23 11.1123 0
347.692 11.1337 0
348.925 6.83741 0
350.212 8.96953 0
348.961 11.123 0
347.674 8.99092 0
348.943 8.98023 0
350.194 6.82671 0
352.732 6.80526 0
352.768 11.0909 0
350.23 11.1123 0
351.463 6.816 0
352.75 8.94808 0
351.499 11.1016 0
350.212 8.96953 0
351.481 8.95882 0
352.732 6.80526 0
355.27 6.78374 0
355.306 11.0694 0
352.768 11.0909 0
354.001 6.79451 0
355.288 8.92656 0
354.037 11.0801 0
352.75 8.94808 0
354.019 8.93733 0
355.27 6.78374 0
357.808 6.76215 0
357.844 11.0478 0
355.306 11.0694 0
356.539 6.77295 0
357.826 8.90496 0
356.575 11.0586 0
355.288 8.92656 0
356.557 8.91577 0
357.808 6.76215 0
360.345 6.74049 0
360.382 11.0261 0
357.844 11.0478 0
359.077 6.75133 0
360.364 8.8833 0
359.113 11.0369 0
357.826 8.90496 0
359.095 8.89414 0
360.345 6.74049 0
362.883 6.71876 0
362.92 11.0044 0
360.382 11.0261 0
361.614 6.72963 0
362.902 8.86157 0
361.651 11.0152 0
360.364 8.8833 0
361.633 8.87245 0
362.883 6.71876 0
365.421 6.69697 0
365.458 10.9826 0
362.92 11.0044 0
364.152 6.70787 0
365.44 8.83978 0
364.189 10.9935 0
362.902 8.86157 0
364.171 8.85069 0
365.421 6.69697 0
367.959 6.67511 0
367.996 10.9607 0
365.458 10.9826 0
366.69 6.68605 0
367.977 8.81792 0
366.727 10.9717 0
365.44 8.83978 0
366.708 8.82886 0
367.959 6.67511 0
370.497 6.65319 0
370.534 10.9388 0
367.996 10.9607 0
369.228 6.66416 0
370.515 8.796 0
369.265 10.9498 0
367.977 8.81792 0
369.246 8.80697 0
370.497 6.65319 0
373.035 6.63121 0
373.072 10.9168 0
370.534 10.9388 0
371.766 6.64221 0
373.053 8.77402 0
371.803 10.9278 0
370.515 8.796 0
371.784 8.78502 0
373.035 6.63121 0
375.572 6.60917 0
375.61 10.8948 0
373.072 10.9168 0
374.303 6.6202 0
375.591 8.75198 0
374.341 10.9058 0
373.053 8.77402 0
374.322 8.76301 0
375.572 6.60917 0
378.11 6.58707 0
378.148 10.8727 0
375.61 10.8948 0
376.841 6.59813 0
378.129 8.72988 0
376.879 10.8837 0
375.591 8.75198 0
376.86 8.74094 0
378.11 6.58707 0
380.648 6.56491 0
380.685 10.8505 0
378.148 10.8727 0
379.379 6.576 0
380.667 8.70772 0
379.416 10.8616 0
378.129 8.72988 0
379.398 8.71881 0
380.648 6.56491 0
383.186 6.5427 0
383.223 10.8283 0
380.685 10.8505 0
381.917 6.55381 0
383.205 8.6855 0
381.954 10.8394 0
380.667 8.70772 0
381.936 8.69662 0
383.186 6.5427 0
385.724 6.52042 0
385.761 10.806 0
383.223 10.8283 0
384.455 6.53157 0
385.743 8.66323 0
384.492 10.8172 0
383.205 8.6855 0
384.474 8.67437 0
385.724 6.52042 0
388.262 6.4981 0
388.299 10.7837 0
385.761 10.806 0
386.993 6.50927 0
388.28 8.6409 0
387.03 10.7949 0
385.743 8.66323 0
387.011 8.65207 0
388.262 6.4981 0
390.799 6.47572 0
390.837 10.7613 0
388.299 10.7837 0
389.53 6.48692 0
390.818 8.61852 0
389.568 10.7725 0
388.28 8.6409 0
389.549 8.62972 0
390.799 6.47572 0
393.337 6.45329 0
393.375 10.7389 0
390.837 10.7613 0
392.068 6.46451 0
393.356 8.59609 0
392.106 10.7501 0
390.818 8.61852 0
392.087 8.60731 0
393.337 6.45329 0
395.875 6.43081 0
395.913 10.7164 0
393.375 10.7389 0
394.606 6.44205 0
395.894 8.57361 0
394.644 10.7276 0
393.356 8.59609 0
394.625 8.58485 0
395.875 6.43081 0
398.413 6.40827 0
398.451 10.6939 0
395.913 10.7164 0
397.144 6.41955 0
398.432 8.55107 0
397.182 10.7051 0
395.894 8.57361 0
397.163 8.56235 0
398.413 6.40827 0
400.951 6.38569 0
400.989 10.6713 0
398.451 10.6939 0
399.682 6.39699 0
400.97 8.52849 0
399.72 10.6826 0
398.432 8.55107 0
399.701 8.53979 0
400.951 6.38569 0
403.489 6.36307 0
403.527 10.6486 0
400.989 10.6713 0
402.22 6.37439 0
403.508 8.50586 0
402.258 10.66 0
400.97 8.52849 0
402.239 8.51718 0
403.489 6.36307 0
406.026 6.34039 0
406.065 10.626 0
403.527 10.6486 0
404.758 6.35173 0
406.046 8.48319 0
404.796 10.6373 0
403.508 8.50586 0
404.777 8.49453 0
406.026 6.34039 0
408.564 6.31767 0
408.603 10.6033 0
406.065 10.626 0
407.295 6.32904 0
408.584 8.46047 0
407.334 10.6146 0
406.046 8.48319 0
407.315 8.47183 0
408.564 6.31767 0
411.102 6.29491 0
411.141 10.5805 0
408.603 10.6033 0
409.833 6.3063 0
411.121 8.4377 0
409.872 10.5919 0
408.584 8.46047 0
409.852 8.44909 0
411.102 6.29491 0
413.64 6.27211 0
413.679 10.5577 0
411.141 10.5805 0
412.371 6.28351 0
413.659 8.4149 0
412.41 10.5691 0
411.121 8.4377 0
412.39 8.42631 0
413.64 6.27211 0
416.178 6.24926 0
416.216 10.5348 0
413.679 10.5577 0
414.909 6.26069 0
416.197 8.39205 0
414.947 10.5463 0
413.659 8.4149 0
414.928 8.40348 0
416.178 6.24926 0
418.716 6.22637 0
418.754 10.5119 0
416.216 10.5348 0
417.447 6.23782 0
418.735 8.36917 0
417.485 10.5234 0
416.197 8.39205 0
417.466 8.38061 0
418.716 6.22637 0
421.254 6.20345 0
421.292 10.489 0
418.754 10.5119 0
419.985 6.21492 0
421.273 8.34624 0
420.023 10.5005 0
418.735 8.36917 0
420.004 8.35771 0
421.254 6.20345 0
423.792 6.18049 0
423.83 10.4661 0
421.292 10.489 0
422.523 6.19197 0
423.811 8.32328 0
422.561 10.4775 0
421.273 8.34624 0
422.542 8.33476 0
423.792 6.18049 0
426.329 6.15749 0
426.368 10.4431 0
423.83 10.4661 0
425.06 6.16899 0
426.349 8.30028 0
425.099 10.4546 0
423.811 8.32328 0
425.08 8.31178 0
426.329 6.15749 0
428.867 6.13446 0
428.906 10.42 0
426.368 10.4431 0
427.598 6.14598 0
428.887 8.27724 0
427.637 10.4315 0
426.349 8.30028 0
427.618 8.28876 0
428.867 6.13446 0
431.405 6.11139 0
431.444 10.397 0
428.906 10.42 0
430.136 6.12293 0
431.425 8.25417 0
430.175 10.4085 0
428.887 8.27724 0
430.156 8.26571 0
431.405 6.11139 0
433.943 6.08829 0
433.982 10.3739 0
431.444 10.397 0
432.674 6.09984 0
433.963 8.23107 0
432.713 10.3854 0
431.425 8.25417 0
432.694 8.24263 0
433.943 6.08829 0
436.481 6.06516 0
436.52 10.3507 0
433.982 10.3739 0
435.212 6.07673 0
436.5 8.20794 0
435.251 10.3623 0
433.963 8.23107 0
435.231 8.21951 0
436.481 6.06516 0
439.019 6.04199 0
439.058 10.3276 0
436.52 10.3507 0
437.75 6.05358 0
439.038 8.18478 0
437.789 10.3391 0
436.5 8.20794 0
437.769 8.19636 0
439.019 6.04199 0
441.557 6.0188 0
441.596 10.3044 0
439.058 10.3276 0
440.288 6.0304 0
441.576 8.16159 0
440.327 10.316 0
439.038 8.18478 0
440.307 8.17318 0
441.557 6.0188 0
444.095 5.99558 0
444.134 10.2811 0
441.596 10.3044 0
442.826 6.0072 0
444.114 8.13837 0
442.865 10.2928 0
441.576 8.16159 0
442.845 8.14998 0
444.095 5.99558 0
446.633 5.97234 0
446.672 10.2579 0
444.134 10.2811 0
445.364 5.98396 0
446.652 8.11512 0
445.403 10.2695 0
444.114 8.13837 0
445.383 8.12675 0
446.633 5.97234 0
449.17 5.94907 0
449.21 10.2346 0
446.672 10.2579 0
447.901 5.96071 0
449.19 8.09185 0
447.941 10.2463 0
446.652 8.11512 0
447.921 8.10349 0
449.17 5.94907 0
451.708 5.92577 0
451.748 10.2113 0
449.21 10.2346 0
450.439 5.93742 0
451.728 8.06855 0
450.479 10.223 0
449.19 8.09185 0
450.459 8.0802 0
451.708 5.92577 0
454.246 5.90245 0
454.286 10.188 0
451.748 10.2113 0
452.977 5.91411 0
454.266 8.04523 0
453.017 10.1997 0
451.728 8.06855 0
452.997 8.05689 0
454.246 5.90245 0
456.784 5.87911 0
456.824 10.1647 0
454.286 10.188 0
455.515 5.89078 0
456.804 8.02189 0
455.555 10.1763 0
454.266 8.04523 0
455.535 8.03356 0
456.784 5.87911 0
459.322 5.85575 0
459.361 10.1413 0
456.824 10.1647 0
458.053 5.86743 0
459.342 7.99853 0
458.092 10.153 0
456.804 8.02189 0
458.073 8.01021 0
459.322 5.85575 0
461.86 5.83237 0
461.899 10.1179 0
459.361 10.1413 0
460.591 5.84406 0
461.88 7.97515 0
460.63 10.1296 0
459.342 7.99853 0
460.611 7.98684 0
461.86 5.83237 0
464.398 5.80897 0
464.437 10.0945 0
461.899 10.1179 0
463.129 5.82067 0
464.418 7.95175 0
463.168 10.1062 0
461.88 7.97515 0
463.149 7.96345 0
464.398 5.80897 0
466.936 5.78556 0
466.975 10.0711 0
464.437 10.0945 0
465.667 5.79727 0
466.956 7.92833 0
465.706 10.0828 0
464.418 7.95175 0
465.687 7.94004 0
466.936 5.78556 0
469.474 5.76213 0
469.513 10.0477 0
466.975 10.0711 0
468.205 5.77384 0
469.493 7.9049 0
468.244 10.0594 0
466.956 7.92833 0
468.225 7.91662 0
469.474 5.76213 0
472.012 5.73868 0
472.051 10.0242 0
469.513 10.0477 0
470.743 5.7504 0
472.031 7.88145 0
470.782 10.0359 0
469.493 7.9049 0
470.762 7.89318 0
472.012 5.73868 0
474.55 5.71522 0
474.589 10.0008 0
472.051 10.0242 0
473.281 5.72695 0
474.569 7.85799 0
473.32 10.0125 0
472.031 7.88145 0
473.3 7.86972 0
474.55 5.71522 0
477.088 5.69175 0
477.127 9.97729 0
474.589 10.0008 0
475.819 5.70349 0
477.107 7.83452 0
475.858 9.98903 0
474.569 7.85799 0
475.838 7.84626 0
477.088 5.69175 0
479.625 5.66827 0
479.665 9.95381 0
477.127 9.97729 0
478.357 5.68001 0
479.645 7.81104 0
478.396 9.96555 0
477.107 7.83452 0
478.376 7.82278 0
479.625 5.66827 0
482.163 5.64477 0
482.203 9.93031 0
479.665 9.95381 0
480.894 5.65652 0
482.183 7.78754 0
480.934 9.94206 0
479.645 7.81104 0
480.914 7.79929 0
482.163 5.64477 0
484.701 5.62127 0
484.741 9.90681 0
482.203 9.93031 0
483.432 5.63303 0
484.721 7.76404 0
483.472 9.91856 0
482.183 7.78754 0
483.452 7.77579 0
484.701 5.62127 0
487.239 5.59777 0
487.279 9.8833 0
484.741 9.90681 0
485.97 5.60952 0
487.259 7.74053 0
486.01 9.89506 0
484.721 7.76404 0
485.99 7.75229 0
487.239 5.59777 0
489.777 5.57425 0
489.817 9.85978 0
487.279 9.8833 0
488.508 5.58601 0
489.797 7.71702 0
488.548 9.87154 0
487.259 7.74053 0
488.528 7.72878 0
489.777 5.57425 0
492.315 5.55073 0
492.355 9.83626 0
489.817 9.85978 0
491.046 5.56249 0
492.335 7.6935 0
491.086 9.84802 0
489.797 7.71702 0
491.066 7.70526 0
492.315 5.55073 0
494.853 5.5272 0
494.893 9.81274 0
492.355 9.83626 0
493.584 5.53897 0
494.873 7.66997 0
493.624 9.8245 0
492.335 7.6935 0
493.604 7.68174 0
494.853 5.5272 0
497.391 5.50368 0
497.431 9.78923 0
494.893 9.81274 0
496.122 5.51544 0
497.411 7.64646 0
496.162 9.80098 0
494.873 7.66997 0
496.142 7.65821 0
497.391 5.50368 0
499.929 5.48017 0
499.969 9.76572 0
497.431 9.78923 0
498.66 5.49192 0
499.949 7.62295 0
498.7 9.77747 0
497.411 7.64646 0
498.68 7.6347 0
0 12.8571 0
2.5379 12.8572 0
2.53825 17.1429 0
0 17.1429 0
1.26895 12.8572 0
2.53807 15 0
1.26912 17.1429 0
0 15 0
1.26904 15.0001 0
2.5379 12.8572 0
5.07578 12.8569 0
5.07651 17.1426 0
2.53825 17.1429 0
3.80684 12.8571 0
5.07614 14.9997 0
3.80737 17.1428 0
2.53807 15 0
3.80711 14.9999 0
5.07578 12.8569 0
7.61365 12.8563 0
7.61477 17.142 0
5.07651 17.1426 0
6.34471 12.8566 0
7.61421 14.9992 0
6.34564 17.1423 0
5.07614 14.9997 0
6.34518 14.9995 0
7.61365 12.8563 0
10.1515 12.8554 0
10.153 17.1412 0
7.61477 17.142 0
8.88259 12.8559 0
10.1523 14.9983 0
8.88391 17.1416 0
7.61421 14.9992 0
8.88325 14.9988 0
10.1515 12.8554 0
12.6894 12.8544 0
12.6913 17.1401 0
10.153 17.1412 0
11.4205 12.8549 0
12.6904 14.9972 0
11.4222 17.1406 0
10.1523 14.9983 0
11.4213 14.9978 0
12.6894 12.8544 0
15.2273 12.853 0
15.2296 17.1387 0
12.6913 17.1401 0
13.9583 12.8537 0
15.2284 14.9959 0
13.9605 17.1394 0
12.6904 14.9972 0
13.9594 14.9966 0
15.2273 12.853 0
17.7651 12.8515 0
17.7679 17.1372 0
15.2296 17.1387 0
16.4962 12.8523 0
17.7665 14.9944 0
16.4987 17.138 0
15.2284 14.9959 0
16.4975 14.9952 0
17.7651 12.8515 0
20.303 12.8497 0
20.3061 17.1354 0
17.7679 17.1372 0
19.0341 12.8506 0
20.3046 14.9926 0
19.037 17.1363 0
17.7665 14.9944 0
19.0355 14.9935 0
20.303 12.8497 0
22.8409 12.8477 0
22.8444 17.1334 0
20.3061 17.1354 0
21.5719 12.8487 0
22.8426 14.9906 0
21.5753 17.1344 0
20.3046 14.9926 0
21.5736 14.9916 0
22.8409 12.8477 0
25.3788 12.8454 0
25.3826 17.1311 0
22.8444 17.1334 0
24.1098 12.8466 0
25.3807 14.9883 0
24.1135 17.1323 0
22.8426 14.9906 0
24.1117 14.9895 0
25.3788 12.8454 0
27.9166 12.843 0
27.9209 17.1287 0
25.3826 17.1311 0
26.6477 12.8442 0
27.9188 14.9858 0
26.6518 17.1299 0
25.3807 14.9883 0
26.6497 14.9871 0
27.9166 12.843 0
30.4545 12.8403 0
30.4592 17.126 0
27.9209 17.1287 0
29.1856 12.8416 0
30.4568 14.9832 0
29.19 17.1274 0
27.9188 14.9858 0
29.1878 14.9845 0
30.4545 12.8403 0
32.9924 12.8374 0
32.9974 17.1231 0
30.4592 17.126 0
31.7235 12.8388 0
32.9949 14.9802 0
31.7283 17.1246 0
30.4568 14.9832 0
31.7259 14.9817 0
32.9924 12.8374 0
35.5303 12.8342 0
35.5357 17.1199 0
32.9974 17.1231 0
34.2613 12.8358 0
35.533 14.9771 0
34.2666 17.1215 0
32.9949 14.9802 0
34.2639 14.9787 0
35.5303 12.8342 0
38.0682 12.8309 0
38.0739 17.1166 0
35.5357 17.1199 0
36.7992 12.8326 0
38.0711 14.9737 0
36.8048 17.1183 0
35.533 14.9771 0
36.802 14.9754 0
38.0682 12.8309 0
40.606 12.8273 0
40.6122 17.113 0
38.0739 17.1166 0
39.3371 12.8291 0
40.6091 14.9702 0
39.3431 17.1148 0
38.0711 14.9737 0
39.3401 14.972 0
40.606 12.8273 0
43.1439 12.8235 0
43.1504 17.1092 0
40.6122 17.113 0
41.875 12.8254 0
43.1472 14.9664 0
41.8813 17.1111 0
40.6091 14.9702 0
41.8782 14.9683 0
43.1439 12.8235 0
45.6818 12.8195 0
45.6887 17.1052 0
43.1504 17.1092 0
44.4129 12.8215 0
45.6853 14.9623 0
44.4196 17.1072 0
43.1472 14.9664 0
44.4162 14.9644 0
45.6818 12.8195 0
48.2197 12.8152 0
48.2269 17.1009 0
45.6887 17.1052 0
46.9508 12.8174 0
48.2233 14.9581 0
46.9578 17.1031 0
45.6853 14.9623 0
46.9543 14.9602 0
48.2197 12.8152 0
50.7576 12.8108 0
50.7652 17.0965 0
48.2269 17.1009 0
49.4886 12.813 0
50.7614 14.9536 0
49.4961 17.0987 0
48.2233 14.9581 0
49.4924 14.9559 0
50.7576 12.8108 0
53.2955 12.8061 0
53.3034 17.0918 0
50.7652 17.0965 0
52.0265 12.8085 0
53.2995 14.949 0
52.0343 17.0942 0
50.7614 14.9536 0
52.0304 14.9513 0
53.2955 12.8061 0
55.8334 12.8012 0
55.8417 17.0869 0
53.3034 17.0918 0
54.5644 12.8037 0
55.8375 14.9441 0
54.5726 17.0894 0
53.2995 14.949 0
54.5685 14.9466 0
55.8334 12.8012 0
58.3712 12.7961 0
58.3799 17.0818 0
55.8417 17.0869 0
57.1023 12.7987 0
58.3756 14.939 0
57.1108 17.0844 0
55.8375 14.9441 0
57.1066 14.9416 0
58.3712 12.7961 0
60.9091 12.7908 0
60.9182 17.0765 0
58.3799 17.0818 0
59.6402 12.7935 0
60.9137 14.9337 0
59.649 17.0792 0
58.3756 14.939 0
59.6446 14.9364 0
60.9091 12.7908 0
63.447 12.7853 0
63.4564 17.071 0
60.9182 17.0765 0
62.1781 12.7881 0
63.4517 14.9282 0
62.1873 17.0738 0
60.9137 14.9337 0
62.1827 14.931 0
63.447 12.7853 0
65.9849 12.7796 0
65.9947 17.0653 0
63.4564 17.071 0
64.716 12.7825 0
65.9898 14.9225 0
64.7255 17.0682 0
63.4517 14.9282 0
64.7207 14.9254 0
65.9849 12.7796 0
68.5228 12.7737 0
68.5329 17.0594 0
65.9947 17.0653 0
67.2539 12.7767 0
68.5278 14.9166 0
67.2638 17.0624 0
65.9898 14.9225 0
67.2588 14.9195 0
68.5228 12.7737 0
71.0607 12.7676 0
71.0711 17.0533 0
68.5329 17.0594 0
69.7917 12.7706 0
71.0659 14.9104 0
69.802 17.0563 0
68.5278 14.9166 0
69.7969 14.9135 0
71.0607 12.7676 0
73.5986 12.7612 0
73.6094 17.0469 0
71.0711 17.0533 0
72.3296 12.7644 0
73.604 14.9041 0
72.3402 17.0501 0
71.0659 14.9104 0
72.3349 14.9073 0
73.5986 12.7612 0
76.1365 12.7547 0
76.1476 17.0404 0
73.6094 17.0469 0
74.8675 12.758 0
76.142 14.8975 0
74.8785 17.0437 0
73.604 14.9041 0
74.873 14.9008 0
76.1365 12.7547 0
78.6744 12.7479 0
78.6858 17.0336 0
76.1476 17.0404 0
77.4054 12.7513 0
78.6801 14.8908 0
77.4167 17.037 0
76.142 14.8975 0
77.4111 14.8942 0
78.6744 12.7479 0
81.2123 12.741 0
81.2241 17.0267 0
78.6858 17.0336 0
79.9433 12.7445 0
81.2182 14.8839 0
79.9549 17.0302 0
78.6801 14.8908 0
79.9491 14.8874 0
81.2123 12.741 0
83.7502 12.7339 0
83.7623 17.0195 0
81.2241 17.0267 0
82.4812 12.7374 0
83.7562 14.8767 0
82.4932 17.0231 0
81.2182 14.8839 0
82.4872 14.8803 0
83.7502 12.7339 0
86.288 12.7265 0
86.3005 17.0122 0
83.7623 17.0195 0
85.0191 12.7302 0
86.2943 14.8694 0
85.0314 17.0159 0
83.7562 14.8767 0
85.0252 14.8731 0
86.288 12.7265 0
88.8259 12.719 0
88.8387 17.0047 0
86.3005 17.0122 0
87.557 12.7228 0
88.8323 14.8618 0
87.5696 17.0085 0
86.2943 14.8694 0
87.5633 14.8656 0
88.8259 12.719 0
91.3638 12.7112 0
91.377 16.9969 0
88.8387 17.0047 0
90.0949 12.7151 0
91.3704 14.8541 0
90.1079 17.0008 0
88.8323 14.8618 0
90.1014 14.858 0
91.3638 12.7112 0
93.9017 12.7033 0
93.9152 16.989 0
91.377 16.9969 0
92.6328 12.7073 0
93.9085 14.8462 0
92.6461 16.993 0
91.3704 14.8541 0
92.6394 14.8502 0
93.9017 12.7033 0
96.4396 12.6952 0
96.4534 16.9809 0
93.9152 16.989 0
95.1707 12.6993 0
96.4465 14.8381 0
95.1843 16.985 0
93.9085 14.8462 0
95.1775 14.8421 0
96.4396 12.6952 0
98.9775 12.6869 0
98.9916 16.9726 0
96.4534 16.9809 0
97.7086 12.6911 0
98.9846 14.8297 0
97.7225 16.9767 0
96.4465 14.8381 0
97.7155 14.8339 0
98.9775 12.6869 0
101.515 12.6784 0
101.53 16.9641 0
98.9916 16.9726 0
100.246 12.6826 0
101.523 14.8212 0
100.261 16.9683 0
98.9846 14.8297 0
100.254 14.8255 0
101.515 12.6784 0
104.053 12.6697 0
104.068 16.9554 0
101.53 16.9641 0
102.784 12.674 0
104.061 14.8125 0
102.799 16.9597 0
101.523 14.8212 0
102.792 14.8169 0
104.053 12.6697 0
106.591 12.6608 0
106.606 16.9465 0
104.068 16.9554 0
105.322 12.6652 0
106.599 14.8036 0
105.337 16.9509 0
104.061 14.8125 0
105.33 14.8081 0
106.591 12.6608 0
109.129 12.6517 0
109.144 16.9374 0
106.606 16.9465 0
107.86 12.6563 0
109.137 14.7946 0
107.875 16.942 0
106.599 14.8036 0
107.868 14.7991 0
109.129 12.6517 0
111.667 12.6424 0
111.683 16.9281 0
109.144 16.9374 0
110.398 12.6471 0
111.675 14.7853 0
110.414 16.9328 0
109.137 14.7946 0
110.406 14.79 0
111.667 12.6424 0
114.205 12.633 0
114.221 16.9187 0
111.683 16.9281 0
112.936 12.6377 0
114.213 14.7759 0
112.952 16.9234 0
111.675 14.7853 0
112.944 14.7806 0
114.205 12.633 0
116.743 12.6234 0
116.759 16.9091 0
114.221 16.9187 0
115.474 12.6282 0
116.751 14.7662 0
115.49 16.9139 0
114.213 14.7759 0
115.482 14.7711 0
116.743 12.6234 0
119.281 12.6136 0
119.297 16.8992 0
116.759 16.9091 0
118.012 12.6185 0
119.289 14.7564 0
118.028 16.9042 0
116.751 14.7662 0
118.02 14.7613 0
119.281 12.6136 0
121.819 12.6036 0
121.836 16.8892 0
119.297 16.8992 0
120.55 12.6086 0
121.827 14.7464 0
120.566 16.8943 0
119.289 14.7564 0
120.558 14.7514 0
121.819 12.6036 0
124.356 12.5934 0
124.374 16.8791 0
121.836 16.8892 0
123.088 12.5985 0
124.365 14.7362 0
123.105 16.8842 0
121.827 14.7464 0
123.096 14.7414 0
124.356 12.5934 0
126.894 12.583 0
126.912 16.8687 0
124.374 16.8791 0
125.625 12.5882 0
126.903 14.7259 0
125.643 16.8739 0
124.365 14.7362 0
125.634 14.7311 0
126.894 12.583 0
129.432 12.5725 0
129.45 16.8582 0
126.912 16.8687 0
128.163 12.5778 0
129.441 14.7154 0
128.181 16.8635 0
126.903 14.7259 0
128.172 14.7206 0
129.432 12.5725 0
131.97 12.5618 0
131.988 16.8475 0
129.45 16.8582 0
130.701 12.5672 0
131.979 14.7047 0
130.719 16.8528 0
129.441 14.7154 0
130.71 14.71 0
131.97 12.5618 0
134.508 12.5509 0
134.527 16.8366 0
131.988 16.8475 0
133.239 12.5564 0
134.517 14.6938 0
133.257 16.8421 0
131.979 14.7047 0
133.248 14.6992 0
134.508 12.5509 0
137.046 12.5399 0
137.065 16.8255 0
134.527 16.8366 0
135.777 12.5454 0
137.055 14.6827 0
135.796 16.8311 0
134.517 14.6938 0
135.786 14.6883 0
137.046 12.5399 0
139.584 12.5286 0
139.603 16.8143 0
137.065 16.8255 0
138.315 12.5343 0
139.593 14.6715 0
138.334 16.8199 0
137.055 14.6827 0
138.324 14.6771 0
139.584 12.5286 0
142.122 12.5172 0
142.141 16.8029 0
139.603 16.8143 0
140.853 12.5229 0
142.131 14.6601 0
140.872 16.8086 0
139.593 14.6715 0
140.862 14.6658 0
142.122 12.5172 0
144.66 12.5056 0
144.679 16.7913 0
142.141 16.8029 0
143.391 12.5115 0
144.669 14.6485 0
143.41 16.7971 0
142.131 14.6601 0
143.4 14.6543 0
144.66 12.5056 0
147.198 12.4939 0
147.217 16.7796 0
144.679 16.7913 0
145.929 12.4998 0
147.208 14.6368 0
145.948 16.7855 0
144.669 14.6485 0
145.939 14.6426 0
147.198 12.4939 0
149.735 12.482 0
149.756 16.7677 0
147.217 16.7796 0
148.467 12.488 0
149.746 14.6248 0
148.487 16.7736 0
147.208 14.6368 0
148.477 14.6308 0
149.735 12.482 0
152.273 12.4699 0
152.294 16.7556 0
149.756 16.7677 0
151.004 12.476 0
152.284 14.6128 0
151.025 16.7616 0
149.746 14.6248 0
151.015 14.6188 0
152.273 12.4699 0
154.811 12.4577 0
154.832 16.7433 0
152.294 16.7556 0
153.542 12.4638 0
154.822 14.6005 0
153.563 16.7495 0
152.284 14.6128 0
153.553 14.6067 0
154.811 12.4577 0
157.349 12.4453 0
157.37 16.7309 0
154.832 16.7433 0
156.08 12.4515 0
157.36 14.5881 0
156.101 16.7371 0
154.822 14.6005 0
156.091 14.5943 0
157.349 12.4453 0
159.887 12.4327 0
159.908 16.7183 0
157.37 16.7309 0
158.618 12.439 0
159.898 14.5755 0
158.639 16.7246 0
157.36 14.5881 0
158.629 14.5818 0
159.887 12.4327 0
162.425 12.4199 0
162.447 16.7056 0
159.908 16.7183 0
161.156 12.4263 0
162.436 14.5628 0
161.177 16.712 0
159.898 14.5755 0
161.167 14.5692 0
162.425 12.4199 0
164.963 12.407 0
164.985 16.6927 0
162.447 16.7056 0
163.694 12.4135 0
164.974 14.5499 0
163.716 16.6992 0
162.436 14.5628 0
163.705 14.5564 0
164.963 12.407 0
167.501 12.394 0
167.523 16.6796 0
164.985 16.6927 0
166.232 12.4005 0
167.512 14.5368 0
166.254 16.6862 0
164.974 14.5499 0
166.243 14.5434 0
167.501 12.394 0
170.039 12.3808 0
170.061 16.6664 0
167.523 16.6796 0
168.77 12.3874 0
170.05 14.5236 0
168.792 16.6731 0
167.512 14.5368 0
168.781 14.5302 0
170.039 12.3808 0
172.577 12.3674 0
172.599 16.6531 0
170.061 16.6664 0
171.308 12.3741 0
172.588 14.5102 0
171.33 16.6598 0
170.05 14.5236 0
171.319 14.517 0
172.577 12.3674 0
175.115 12.3539 0
175.137 16.6395 0
172.599 16.6531 0
173.846 12.3607 0
175.126 14.4967 0
173.868 16.6463 0
172.588 14.5102 0
173.857 14.5035 0
175.115 12.3539 0
177.652 12.3402 0
177.676 16.6258 0
175.137 16.6395 0
176.383 12.3471 0
177.664 14.483 0
176.406 16.6327 0
175.126 14.4967 0
176.395 14.4899 0
177.652 12.3402 0
180.19 12.3264 0
180.214 16.612 0
177.676 16.6258 0
178.921 12.3333 0
180.202 14.4692 0
178.945 16.6189 0
177.664 14.483 0
178.933 14.4761 0
180.19 12.3264 0
182.728 12.3124 0
182.752 16.598 0
180.214 16.612 0
181.459 12.3194 0
182.74 14.4552 0
181.483 16.605 0
180.202 14.4692 0
181.471 14.4622 0
182.728 12.3124 0
185.266 12.2982 0
185.29 16.5839 0
182.752 16.598 0
183.997 12.3053 0
185.278 14.4411 0
184.021 16.591 0
182.74 14.4552 0
184.009 14.4482 0
185.266 12.2982 0
187.804 12.2839 0
187.828 16.5696 0
185.29 16.5839 0
186.535 12.2911 0
187.816 14.4268 0
186.559 16.5767 0
185.278 14.4411 0
186.547 14.4339 0
187.804 12.2839 0
190.342 12.2695 0
190.366 16.5551 0
187.828 16.5696 0
189.073 12.2767 0
190.354 14.4123 0
189.097 16.5624 0
187.816 14.4268 0
189.085 14.4196 0
190.342 12.2695 0
192.88 12.2549 0
192.905 16.5405 0
190.366 16.5551 0
191.611 12.2622 0
192.892 14.3977 0
191.635 16.5479 0
190.354 14.4123 0
191.623 14.4051 0
192.88 12.2549 0
195.418 12.2402 0
195.443 16.5258 0
192.905 16.5405 0
194.149 12.2476 0
195.43 14.383 0
194.174 16.5332 0
192.892 14.3977 0
194.161 14.3904 0
195.418 12.2402 0
197.956 12.2253 0
197.981 16.5109 0
195.443 16.5258 0
196.687 12.2327 0
197.968 14.3681 0
196.712 16.5184 0
195.43 14.383 0
196.699 14.3756 0
197.956 12.2253 0
200.494 12.2103 0
200.519 16.4959 0
197.981 16.5109 0
199.225 12.2178 0
200.506 14.3531 0
199.25 16.5034 0
197.968 14.3681 0
199.237 14.3606 0
200.494 12.2103 0
203.031 12.1951 0
203.057 16.4807 0
200.519 16.4959 0
201.763 12.2027 0
203.044 14.3379 0
201.788 16.4883 0
200.506 14.3531 0
201.775 14.3455 0
203.031 12.1951 0
205.569 12.1798 0
205.595 16.4654 0
203.057 16.4807 0
204.3 12.1875 0
205.582 14.3226 0
204.326 16.4731 0
203.044 14.3379 0
204.313 14.3303 0
205.569 12.1798 0
208.107 12.1643 0
208.133 16.45 0
205.595 16.4654 0
206.838 12.1721 0
208.12 14.3072 0
206.864 16.4577 0
205.582 14.3226 0
206.851 14.3149 0
208.107 12.1643 0
210.645 12.1487 0
210.672 16.4344 0
208.133 16.45 0
209.376 12.1566 0
210.658 14.2916 0
209.402 16.4422 0
208.12 14.3072 0
209.389 14.2994 0
210.645 12.1487 0
213.183 12.133 0
213.21 16.4187 0
210.672 16.4344 0
211.914 12.1409 0
213.196 14.2759 0
211.941 16.4265 0
210.658 14.2916 0
211.927 14.2837 0
213.183 12.133 0
215.721 12.1172 0
215.748 16.4028 0
213.21 16.4187 0
214.452 12.1251 0
215.734 14.26 0
214.479 16.4107 0
213.196 14.2759 0
214.465 14.2679 0
215.721 12.1172 0
218.259 12.1012 0
218.286 16.3868 0
215.748 16.4028 0
216.99 12.1092 0
218.272 14.244 0
217.017 16.3948 0
215.734 14.26 0
217.003 14.252 0
218.259 12.1012 0
220.797 12.085 0
220.824 16.3707 0
218.286 16.3868 0
219.528 12.0931 0
220.81 14.2279 0
219.555 16.3787 0
218.272 14.244 0
219.541 14.2359 0
220.797 12.085 0
223.335 12.0688 0
223.362 16.3544 0
220.824 16.3707 0
222.066 12.0769 0
223.348 14.2116 0
222.093 16.3625 0
220.81 14.2279 0
222.079 14.2197 0
223.335 12.0688 0
225.873 12.0524 0
225.9 16.338 0
223.362 16.3544 0
224.604 12.0606 0
225.886 14.1952 0
224.631 16.3462 0
223.348 14.2116 0
224.617 14.2034 0
225.873 12.0524 0
228.411 12.0358 0
228.438 16.3215 0
225.9 16.338 0
227.142 12.0441 0
228.424 14.1787 0
227.169 16.3297 0
225.886 14.1952 0
227.155 14.1869 0
228.411 12.0358 0
230.948 12.0192 0
230.977 16.3048 0
228.438 16.3215 0
229.679 12.0275 0
230.963 14.162 0
229.708 16.3131 0
228.424 14.1787 0
229.694 14.1703 0
230.948 12.0192 0
233.486 12.0024 0
233.515 16.288 0
230.977 16.3048 0
232.217 12.0108 0
233.501 14.1452 0
232.246 16.2964 0
230.963 14.162 0
232.232 14.1536 0
233.486 12.0024 0
236.024 11.9855 0
236.053 16.2711 0
233.515 16.288 0
234.755 11.9939 0
236.039 14.1283 0
234.784 16.2796 0
233.501 14.1452 0
234.77 14.1368 0
236.024 11.9855 0
238.562 11.9684 0
238.591 16.254 0
236.053 16.2711 0
237.293 11.977 0
238.577 14.1112 0
237.322 16.2626 0
236.039 14.1283 0
237.308 14.1198 0
238.562 11.9684 0
241.1 11.9513 0
241.129 16.2369 0
238.591 16.254 0
239.831 11.9599 0
241.115 14.0941 0
239.86 16.2455 0
238.577 14.1112 0
239.846 14.1027 0
241.1 11.9513 0
243.638 11.934 0
243.667 16.2196 0
241.129 16.2369 0
242.369 11.9426 0
243.653 14.0768 0
242.398 16.2282 0
241.115 14.0941 0
242.384 14.0855 0
243.638 11.934 0
246.176 11.9166 0
246.205 16.2022 0
243.667 16.2196 0
244.907 11.9253 0
246.191 14.0594 0
244.936 16.2109 0
243.653 14.0768 0
244.922 14.0681 0
246.176 11.9166 0
248.714 11.899 0
248.743 16.1846 0
246.205 16.2022 0
247.445 11.9078 0
248.729 14.0418 0
247.474 16.1934 0
246.191 14.0594 0
247.46 14.0506 0
248.714 11.899 0
251.252 11.8814 0
251.282 16.167 0
248.743 16.1846 0
249.983 11.8902 0
251.267 14.0242 0
250.012 16.1758 0
248.729 14.0418 0
249.998 14.033 0
251.252 11.8814 0
253.79 11.8636 0
253.82 16.1492 0
251.282 16.167 0
252.521 11.8725 0
253.805 14.0064 0
252.551 16.1581 0
251.267 14.0242 0
252.536 14.0153 0
253.79 11.8636 0
256.328 11.8457 0
256.358 16.1313 0
253.82 16.1492 0
255.059 11.8547 0
256.343 13.9885 0
255.089 16.1403 0
253.805 14.0064 0
255.074 13.9975 0
256.328 11.8457 0
258.865 11.8277 0
258.896 16.1133 0
256.358 16.1313 0
257.596 11.8367 0
258.881 13.9705 0
257.627 16.1223 0
256.343 13.9885 0
257.612 13.9795 0
258.865 11.8277 0
261.403 11.8096 0
261.434 16.0952 0
258.896 16.1133 0
260.134 11.8187 0
261.419 13.9524 0
260.165 16.1043 0
258.881 13.9705 0
260.15 13.9615 0
261.403 11.8096 0
263.941 11.7914 0
263.972 16.077 0
261.434 16.0952 0
262.672 11.8005 0
263.957 13.9342 0
262.703 16.0861 0
261.419 13.9524 0
262.688 13.9433 0
263.941 11.7914 0
266.479 11.773 0
266.51 16.0586 0
263.972 16.077 0
265.21 11.7822 0
266.495 13.9158 0
265.241 16.0678 0
263.957 13.9342 0
265.226 13.925 0
266.479 11.773 0
269.017 11.7546 0
269.048 16.0402 0
266.51 16.0586 0
267.748 11.7638 0
269.033 13.8974 0
267.779 16.0494 0
266.495 13.9158 0
267.764 13.9066 0
269.017 11.7546 0
271.555 11.736 0
271.586 16.0216 0
269.048 16.0402 0
270.286 11.7453 0
271.571 13.8788 0
270.317 16.0309 0
269.033 13.8974 0
270.302 13.8881 0
271.555 11.736 0
274.093 11.7173 0
274.124 16.0029 0
271.586 16.0216 0
272.824 11.7267 0
274.109 13.8601 0
272.855 16.0123 0
271.571 13.8788 0
272.84 13.8695 0
274.093 11.7173 0
276.631 11.6985 0
276.663 15.9841 0
274.124 16.0029 0
275.362 11.7079 0
276.647 13.8413 0
275.393 15.9935 0
274.109 13.8601 0
275.378 13.8507 0
276.631 11.6985 0
279.169 11.6796 0
279.201 15.9652 0
276.663 15.9841 0
277.9 11.6891 0
279.185 13.8224 0
277.932 15.9747 0
276.647 13.8413 0
277.916 13.8319 0
279.169 11.6796 0
281.707 11.6606 0
281.739 15.9462 0
279.201 15.9652 0
280.438 11.6702 0
281.723 13.8034 0
280.47 15.9557 0
279.185 13.8224 0
280.454 13.813 0
281.707 11.6606 0
284.245 11.6415 0
284.277 15.9271 0
281.739 15.9462 0
282.976 11.6511 0
284.261 13.7843 0
283.008 15.9367 0
281.723 13.8034 0
282.992 13.7939 0
284.245 11.6415 0
286.782 11.6223 0
286.815 15.9079 0
284.277 15.9271 0
285.514 11.632 0
286.799 13.7651 0
285.546 15.9175 0
284.261 13.7843 0
285.53 13.7748 0
286.782 11.6223 0
289.32 11.603 0
289.353 15.8886 0
286.815 15.9079 0
288.051 11.6127 0
289.337 13.7458 0
288.084 15.8983 0
286.799 13.7651 0
288.068 13.7555 0
289.32 11.603 0
291.858 11.5836 0
291.891 15.8692 0
289.353 15.8886 0
290.589 11.5933 0
291.875 13.7264 0
290.622 15.8789 0
289.337 13.7458 0
290.606 13.7361 0
291.858 11.5836 0
294.396 11.5641 0
294.429 15.8497 0
291.891 15.8692 0
293.127 11.5739 0
294.413 13.7069 0
293.16 15.8595 0
291.875 13.7264 0
293.144 13.7167 0
294.396 11.5641 0
296.934 11.5445 0
296.967 15.8301 0
294.429 15.8497 0
295.665 11.5543 0
296.951 13.6873 0
295.698 15.8399 0
294.413 13.7069 0
295.682 13.6971 0
296.934 11.5445 0
299.472 11.5248 0
299.505 15.8104 0
296.967 15.8301 0
298.203 11.5347 0
299.489 13.6676 0
298.236 15.8203 0
296.951 13.6873 0
298.22 13.6775 0
299.472 11.5248 0
302.01 11.505 0
302.043 15.7906 0
299.505 15.8104 0
300.741 11.5149 0
302.027 13.6478 0
300.774 15.8005 0
299.489 13.6676 0
300.758 13.6577 0
302.01 11.505 0
304.548 11.4851 0
304.581 15.7707 0
302.043 15.7906 0
303.279 11.4951 0
304.565 13.6279 0
303.312 15.7807 0
302.027 13.6478 0
303.296 13.6379 0
304.548 11.4851 0
307.086 11.4651 0
307.119 15.7507 0
304.581 15.7707 0
305.817 11.4752 0
307.103 13.6079 0
305.85 15.7607 0
304.565 13.6279 0
305.834 13.618 0
307.086 11.4651 0
309.624 11.4451 0
309.658 15.7307 0
307.119 15.7507 0
308.355 11.4551 0
309.641 13.5879 0
308.389 15.7407 0
307.103 13.6079 0
308.372 13.5979 0
309.624 11.4451 0
312.162 11.4249 0
312.196 15.7105 0
309.658 15.7307 0
310.893 11.435 0
312.179 13.5677 0
310.927 15.7206 0
309.641 13.5879 0
310.91 13.5778 0
312.162 11.4249 0
314.7 11.4047 0
314.734 15.6902 0
312.196 15.7105 0
313.431 11.4148 0
314.717 13.5474 0
313.465 15.7004 0
312.179 13.5677 0
313.448 13.5576 0
314.7 11.4047 0
317.237 11.3843 0
317.272 15.6699 0
314.734 15.6902 0
315.968 11.3945 0
317.255 13.5271 0
316.003 15.6801 0
314.717 13.5474 0
315.986 13.5373 0
317.237 11.3843 0
319.775 11.3639 0
319.81 15.6495 0
317.272 15.6699 0
318.506 11.3741 0
319.793 13.5067 0
318.541 15.6597 0
317.255 13.5271 0
318.524 13.5169 0
319.775 11.3639 0
322.313 11.3434 0
322.348 15.6289 0
319.81 15.6495 0
321.044 11.3536 0
322.331 13.4862 0
321.079 15.6392 0
319.793 13.5067 0
321.062 13.4964 0
322.313 11.3434 0
324.851 11.3228 0
324.886 15.6083 0
322.348 15.6289 0
323.582 11.3331 0
324.869 13.4656 0
323.617 15.6186 0
322.331 13.4862 0
323.6 13.4759 0
324.851 11.3228 0
327.389 11.3021 0
327.424 15.5876 0
324.886 15.6083 0
326.12 11.3124 0
327.407 13.4449 0
326.155 15.598 0
324.869 13.4656 0
326.138 13.4552 0
327.389 11.3021 0
329.927 11.2813 0
329.962 15.5669 0
327.424 15.5876 0
328.658 11.2917 0
329.945 13.4241 0
328.693 15.5773 0
327.407 13.4449 0
328.676 13.4345 0
329.927 11.2813 0
332.465 11.2605 0
332.5 15.546 0
329.962 15.5669 0
331.196 11.2709 0
332.483 13.4032 0
331.231 15.5565 0
329.945 13.4241 0
331.214 13.4137 0
332.465 11.2605 0
335.003 11.2395 0
335.038 15.5251 0
332.5 15.546 0
333.734 11.25 0
335.02 13.3823 0
333.769 15.5356 0
332.483 13.4032 0
333.752 13.3928 0
335.003 11.2395 0
337.541 11.2185 0
337.576 15.5041 0
335.038 15.5251 0
336.272 11.229 0
337.558 13.3613 0
336.307 15.5146 0
335.02 13.3823 0
336.289 13.3718 0
337.541 11.2185 0
340.079 11.1974 0
340.114 15.483 0
337.576 15.5041 0
338.81 11.208 0
340.096 13.3402 0
338.845 15.4935 0
337.558 13.3613 0
338.827 13.3508 0
340.079 11.1974 0
342.617 11.1763 0
342.652 15.4618 0
340.114 15.483 0
341.348 11.1869 0
342.634 13.3191 0
341.383 15.4724 0
340.096 13.3402 0
341.365 13.3297 0
342.617 11.1763 0
345.155 11.155 0
345.19 15.4406 0
342.652 15.4618 0
343.886 11.1657 0
345.172 13.2978 0
343.921 15.4512 0
342.634 13.3191 0
343.903 13.3085 0
345.155 11.155 0
347.692 11.1337 0
347.728 15.4193 0
345.19 15.4406 0
346.423 11.1444 0
347.71 13.2765 0
346.459 15.43 0
345.172 13.2978 0
346.441 13.2872 0
347.692 11.1337 0
350.23 11.1123 0
350.266 15.3979 0
347.728 15.4193 0
348.961 11.123 0
350.248 13.2551 0
348.997 15.4086 0
347.71 13.2765 0
348.979 13.2658 0
350.23 11.1123 0
352.768 11.0909 0
352.804 15.3764 0
350.266 15.3979 0
351.499 11.1016 0
352.786 13.2337 0
351.535 15.3872 0
350.248 13.2551 0
351.517 13.2444 0
352.768 11.0909 0
355.306 11.0694 0
355.343 15.3549 0
352.804 15.3764 0
354.037 11.0801 0
355.324 13.2121 0
354.073 15.3657 0
352.786 13.2337 0
354.055 13.2229 0
355.306 11.0694 0
357.844 11.0478 0
357.881 15.3333 0
355.343 15.3549 0
356.575 11.0586 0
357.862 13.1906 0
356.612 15.3441 0
355.324 13.2121 0
356.593 13.2014 0
357.844 11.0478 0
360.382 11.0261 0
360.419 15.3117 0
357.881 15.3333 0
359.113 11.0369 0
360.4 13.1689 0
359.15 15.3225 0
357.862 13.1906 0
359.131 13.1797 0
360.382 11.0261 0
362.92 11.0044 0
362.957 15.2899 0
360.419 15.3117 0
361.651 11.0152 0
362.938 13.1472 0
361.688 15.3008 0
360.4 13.1689 0
361.669 13.158 0
362.92 11.0044 0
365.458 10.9826 0
365.495 15.2681 0
362.957 15.2899 0
364.189 10.9935 0
365.476 13.1254 0
364.226 15.279 0
362.938 13.1472 0
364.207 13.1363 0
365.458 10.9826 0
367.996 10.9607 0
368.033 15.2463 0
365.495 15.2681 0
366.727 10.9717 0
368.014 13.1035 0
366.764 15.2572 0
365.476 13.1254 0
366.745 13.1144 0
367.996 10.9607 0
370.534 10.9388 0
370.571 15.2244 0
368.033 15.2463 0
369.265 10.9498 0
370.552 13.0816 0
369.302 15.2353 0
368.014 13.1035 0
369.283 13.0926 0
370.534 10.9388 0
373.072 10.9168 0
373.109 15.2024 0
370.571 15.2244 0
371.803 10.9278 0
373.09 13.0596 0
371.84 15.2134 0
370.552 13.0816 0
371.821 13.0706 0
373.072 10.9168 0
375.61 10.8948 0
375.647 15.1803 0
373.109 15.2024 0
374.341 10.9058 0
375.628 13.0376 0
374.378 15.1914 0
373.09 13.0596 0
374.359 13.0486 0
375.61 10.8948 0
378.148 10.8727 0
378.185 15.1582 0
375.647 15.1803 0
376.879 10.8837 0
378.166 13.0155 0
376.916 15.1693 0
375.628 13.0376 0
376.897 13.0265 0
378.148 10.8727 0
380.685 10.8505 0
380.723 15.1361 0
378.185 15.1582 0
379.416 10.8616 0
380.704 12.9933 0
379.454 15.1472 0
378.166 13.0155 0
379.435 13.0044 0
380.685 10.8505 0
383.223 10.8283 0
383.261 15.1138 0
380.723 15.1361 0
381.954 10.8394 0
383.242 12.9711 0
381.992 15.125 0
380.704 12.9933 0
381.973 12.9822 0
383.223 10.8283 0
385.761 10.806 0
385.799 15.0916 0
383.261 15.1138 0
384.492 10.8172 0
385.78 12.9488 0
384.53 15.1027 0
383.242 12.9711 0
384.511 12.9599 0
385.761 10.806 0
388.299 10.7837 0
388.337 15.0692 0
385.799 15.0916 0
387.03 10.7949 0
388.318 12.9265 0
387.068 15.0804 0
385.78 12.9488 0
387.049 12.9376 0
388.299 10.7837 0
390.837 10.7613 0
390.875 15.0469 0
388.337 15.0692 0
389.568 10.7725 0
390.856 12.9041 0
389.606 15.0581 0
388.318 12.9265 0
389.587 12.9153 0
390.837 10.7613 0
393.375 10.7389 0
393.413 15.0244 0
390.875 15.0469 0
392.106 10.7501 0
393.394 12.8817 0
392.144 15.0356 0
390.856 12.9041 0
392.125 12.8929 0
393.375 10.7389 0
395.913 10.7164 0
395.951 15.0019 0
393.413 15.0244 0
394.644 10.7276 0
395.932 12.8592 0
394.682 15.0132 0
393.394 12.8817 0
394.663 12.8704 0
395.913 10.7164 0
398.451 10.6939 0
398.489 14.9794 0
395.951 15.0019 0
397.182 10.7051 0
398.47 12.8366 0
397.22 14.9907 0
395.932 12.8592 0
397.201 12.8479 0
398.451 10.6939 0
400.989 10.6713 0
401.027 14.9568 0
398.489 14.9794 0
399.72 10.6826 0
401.008 12.8141 0
399.758 14.9681 0
398.47 12.8366 0
399.739 12.8254 0
400.989 10.6713 0
403.527 10.6486 0
403.565 14.9342 0
401.027 14.9568 0
402.258 10.66 0
403.546 12.7914 0
402.296 14.9455 0
401.008 12.8141 0
402.277 12.8027 0
403.527 10.6486 0
406.065 10.626 0
406.103 14.9115 0
403.565 14.9342 0
404.796 10.6373 0
406.084 12.7688 0
404.834 14.9229 0
403.546 12.7914 0
404.815 12.7801 0
406.065 10.626 0
408.603 10.6033 0
408.641 14.8888 0
406.103 14.9115 0
407.334 10.6146 0
408.622 12.746 0
407.372 14.9002 0
406.084 12.7688 0
407.353 12.7574 0
408.603 10.6033 0
411.141 10.5805 0
411.179 14.866 0
408.641 14.8888 0
409.872 10.5919 0
411.16 12.7233 0
409.91 14.8774 0
408.622 12.746 0
409.891 12.7347 0
411.141 10.5805 0
413.679 10.5577 0
413.717 14.8432 0
411.179 14.866 0
412.41 10.5691 0
413.698 12.7005 0
412.448 14.8546 0
411.16 12.7233 0
412.429 12.7119 0
413.679 10.5577 0
416.216 10.5348 0
416.255 14.8204 0
413.717 14.8432 0
414.947 10.5463 0
416.236 12.6776 0
414.986 14.8318 0
413.698 12.7005 0
414.967 12.689 0
416.216 10.5348 0
418.754 10.5119 0
418.793 14.7975 0
416.255 14.8204 0
417.485 10.5234 0
418.774 12.6547 0
417.524 14.8089 0
416.236 12.6776 0
417.505 12.6662 0
418.754 10.5119 0
421.292 10.489 0
421.331 14.7746 0
418.793 14.7975 0
420.023 10.5005 0
421.312 12.6318 0
420.062 14.786 0
418.774 12.6547 0
420.043 12.6433 0
421.292 10.489 0
423.83 10.4661 0
423.869 14.7516 0
421.331 14.7746 0
422.561 10.4775 0
423.85 12.6088 0
422.6 14.7631 0
421.312 12.6318 0
422.581 12.6203 0
423.83 10.4661 0
426.368 10.4431 0
426.407 14.7286 0
423.869 14.7516 0
425.099 10.4546 0
426.388 12.5858 0
425.138 14.7401 0
423.85 12.6088 0
425.119 12.5973 0
426.368 10.4431 0
428.906 10.42 0
428.945 14.7056 0
426.407 14.7286 0
427.637 10.4315 0
428.926 12.5628 0
427.676 14.7171 0
426.388 12.5858 0
427.657 12.5743 0
428.906 10.42 0
431.444 10.397 0
431.483 14.6825 0
428.945 14.7056 0
430.175 10.4085 0
431.464 12.5397 0
430.214 14.694 0
428.926 12.5628 0
430.195 12.5513 0
431.444 10.397 0
433.982 10.3739 0
434.021 14.6594 0
431.483 14.6825 0
432.713 10.3854 0
434.001 12.5166 0
432.752 14.6709 0
431.464 12.5397 0
432.733 12.5282 0
433.982 10.3739 0
436.52 10.3507 0
436.559 14.6363 0
434.021 14.6594 0
435.251 10.3623 0
436.539 12.4935 0
435.29 14.6478 0
434.001 12.5166 0
435.27 12.5051 0
436.52 10.3507 0
439.058 10.3276 0
439.097 14.6131 0
436.559 14.6363 0
437.789 10.3391 0
439.077 12.4703 0
437.828 14.6247 0
436.539 12.4935 0
437.808 12.4819 0
439.058 10.3276 0
441.596 10.3044 0
441.635 14.5899 0
439.097 14.6131 0
440.327 10.316 0
441.615 12.4471 0
440.366 14.6015 0
439.077 12.4703 0
440.346 12.4587 0
441.596 10.3044 0
444.134 10.2811 0
444.173 14.5667 0
441.635 14.5899 0
442.865 10.2928 0
444.153 12.4239 0
442.904 14.5783 0
441.615 12.4471 0
442.884 12.4355 0
444.134 10.2811 0
446.672 10.2579 0
446.711 14.5434 0
444.173 14.5667 0
445.403 10.2695 0
446.691 12.4007 0
445.442 14.5551 0
444.153 12.4239 0
445.422 12.4123 0
446.672 10.2579 0
449.21 10.2346 0
449.249 14.5202 0
446.711 14.5434 0
447.941 10.2463 0
449.229 12.3774 0
447.98 14.5318 0
446.691 12.4007 0
447.96 12.389 0
449.21 10.2346 0
451.748 10.2113 0
451.787 14.4969 0
449.249 14.5202 0
450.479 10.223 0
451.767 12.3541 0
450.518 14.5085 0
449.229 12.3774 0
450.498 12.3657 0
451.748 10.2113 0
454.286 10.188 0
454.325 14.4735 0
451.787 14.4969 0
453.017 10.1997 0
454.305 12.3308 0
453.056 14.4852 0
451.767 12.3541 0
453.036 12.3424 0
454.286 10.188 0
456.824 10.1647 0
456.863 14.4502 0
454.325 14.4735 0
455.555 10.1763 0
456.843 12.3074 0
455.594 14.4619 0
454.305 12.3308 0
455.574 12.3191 0
456.824 10.1647 0
459.361 10.1413 0
459.401 14.4268 0
456.863 14.4502 0
458.092 10.153 0
459.381 12.2841 0
458.132 14.4385 0
456.843 12.3074 0
458.112 12.2958 0
459.361 10.1413 0
461.899 10.1179 0
461.939 14.4035 0
459.401 14.4268 0
460.63 10.1296 0
461.919 12.2607 0
460.67 14.4151 0
459.381 12.2841 0
460.65 12.2724 0
461.899 10.1179 0
464.437 10.0945 0
464.477 14.3801 0
461.939 14.4035 0
463.168 10.1062 0
464.457 12.2373 0
463.208 14.3918 0
461.919 12.2607 0
463.188 12.249 0
464.437 10.0945 0
466.975 10.0711 0
467.015 14.3566 0
464.477 14.3801 0
465.706 10.0828 0
466.995 12.2139 0
465.746 14.3683 0
464.457 12.2373 0
465.726 12.2256 0
466.975 10.0711 0
469.513 10.0477 0
469.553 14.3332 0
467.015 14.3566 0
468.244 10.0594 0
469.533 12.1904 0
468.284 14.3449 0
466.995 12.2139 0
468.264 12.2022 0
469.513 10.0477 0
472.051 10.0242 0
472.091 14.3098 0
469.553 14.3332 0
470.782 10.0359 0
472.071 12.167 0
470.822 14.3215 0
469.533 12.1904 0
470.802 12.1787 0
472.051 10.0242 0
474.589 10.0008 0
474.629 14.2863 0
472.091 14.3098 0
473.32 10.0125 0
474.609 12.1435 0
473.36 14.298 0
472.071 12.167 0
473.34 12.1553 0
474.589 10.0008 0
477.127 9.97729 0
477.167 14.2628 0
474.629 14.2863 0
475.858 9.98903 0
477.147 12.1201 0
475.898 14.2746 0
474.609 12.1435 0
475.878 12.1318 0
477.127 9.97729 0
479.665 9.95381 0
479.705 14.2393 0
477.167 14.2628 0
478.396 9.96555 0
479.685 12.0966 0
478.436 14.2511 0
477.147 12.1201 0
478.416 12.1083 0
479.665 9.95381 0
482.203 9.93031 0
482.243 14.2158 0
479.705 14.2393 0
480.934 9.94206 0
482.223 12.0731 0
480.974 14.2276 0
479.685 12.0966 0
480.954 12.0848 0
482.203 9.93031 0
484.741 9.90681 0
484.781 14.1923 0
482.243 14.2158 0
483.472 9.91856 0
484.761 12.0496 0
483.512 14.2041 0
482.223 12.0731 0
483.492 12.0613 0
484.741 9.90681 0
487.279 9.8833 0
487.319 14.1688 0
484.781 14.1923 0
486.01 9.89506 0
487.299 12.0261 0
486.05 14.1806 0
484.761 12.0496 0
486.03 12.0378 0
487.279 9.8833 0
489.817 9.85978 0
489.856 14.1453 0
487.319 14.1688 0
488.548 9.87154 0
489.837 12.0025 0
488.588 14.1571 0
487.299 12.0261 0
488.568 12.0143 0
489.817 9.85978 0
492.355 9.83626 0
492.394 14.1218 0
489.856 14.1453 0
491.086 9.84802 0
492.375 11.979 0
491.125 14.1336 0
489.837 12.0025 0
491.106 11.9908 0
492.355 9.83626 0
494.893 9.81274 0
494.932 14.0983 0
492.394 14.1218 0
493.624 9.8245 0
494.913 11.9555 0
493.663 14.11 0
492.375 11.979 0
493.644 11.9673 0
494.893 9.81274 0
497.431 9.78923 0
497.47 14.0748 0
494.932 14.0983 0
496.162 9.80098 0
497.451 11.932 0
496.201 14.0865 0
494.913 11.9555 0
496.182 11.9438 0
497.431 9.78923 0
499.969 9.76572 0
500.008 14.0513 0
497.47 14.0748 0
498.7 9.77747 0
499.989 11.9085 0
498.739 14.063 0
497.451 11.932 0
498.72 11.9202 0
0 17.1429 0
2.53825 17.1429 0
2.5386 21.4285 0
0 21.4286 0
1.26912 17.1429 0
2.53842 19.2857 0
1.26929 21.4286 0
0 19.2857 0
1.26921 19.2858 0
2.53825 17.1429 0
5.07651 17.1426 0
5.07725 21.4282 0
2.5386 21.4285 0
3.80737 17.1428 0
5.07687 19.2854 0
3.80792 21.4284 0
2.53842 19.2857 0
3.80765 19.2856 0
5.07651 17.1426 0
7.61477 17.142 0
7.61592 21.4275 0
5.07725 21.4282 0
6.34564 17.1423 0
7.61534 19.2848 0
6.34658 21.4279 0
5.07687 19.2854 0
6.34611 19.2851 0
7.61477 17.142 0
10.153 17.1412 0
10.1546 21.4267 0
7.61592 21.4275 0
8.88391 17.1416 0
10.1538 19.2839 0
8.88525 21.4271 0
7.61534 19.2848 0
8.88458 19.2844 0
10.153 17.1412 0
12.6913 17.1401 0
12.6933 21.4256 0
10.1546 21.4267 0
11.4222 17.1406 0
12.6923 19.2828 0
11.4239 21.4262 0
10.1538 19.2839 0
11.423 19.2834 0
12.6913 17.1401 0
15.2296 17.1387 0
15.2319 21.4243 0
12.6933 21.4256 0
13.9605 17.1394 0
15.2308 19.2815 0
13.9626 21.4249 0
12.6923 19.2828 0
13.9615 19.2822 0
15.2296 17.1387 0
17.7679 17.1372 0
17.7706 21.4227 0
15.2319 21.4243 0
16.4987 17.138 0
17.7692 19.28 0
16.5013 21.4235 0
15.2308 19.2815 0
16.5 19.2808 0
17.7679 17.1372 0
20.3061 17.1354 0
20.3092 21.4209 0
17.7706 21.4227 0
19.037 17.1363 0
20.3077 19.2782 0
19.0399 21.4218 0
17.7692 19.28 0
19.0384 19.2791 0
20.3061 17.1354 0
22.8444 17.1334 0
22.8479 21.4189 0
20.3092 21.4209 0
21.5753 17.1344 0
22.8461 19.2762 0
21.5786 21.4199 0
20.3077 19.2782 0
21.5769 19.2772 0
22.8444 17.1334 0
25.3826 17.1311 0
25.3865 21.4167 0
22.8479 21.4189 0
24.1135 17.1323 0
25.3846 19.2739 0
24.1172 21.4178 0
22.8461 19.2762 0
24.1154 19.2751 0
25.3826 17.1311 0
27.9209 17.1287 0
27.9252 21.4142 0
25.3865 21.4167 0
26.6518 17.1299 0
27.923 19.2715 0
26.6559 21.4155 0
25.3846 19.2739 0
26.6538 19.2727 0
27.9209 17.1287 0
30.4592 17.126 0
30.4638 21.4115 0
27.9252 21.4142 0
29.19 17.1274 0
30.4615 19.2688 0
29.1945 21.4129 0
27.923 19.2715 0
29.1923 19.2701 0
30.4592 17.126 0
32.9974 17.1231 0
33.0025 21.4086 0
30.4638 21.4115 0
31.7283 17.1246 0
32.9999 19.2658 0
31.7331 21.4101 0
30.4615 19.2688 0
31.7307 19.2673 0
32.9974 17.1231 0
35.5357 17.1199 0
35.5411 21.4054 0
33.0025 21.4086 0
34.2666 17.1215 0
35.5384 19.2627 0
34.2718 21.407 0
32.9999 19.2658 0
34.2692 19.2643 0
35.5357 17.1199 0
38.0739 17.1166 0
38.0797 21.4021 0
35.5411 21.4054 0
36.8048 17.1183 0
38.0768 19.2593 0
36.8104 21.4038 0
35.5384 19.2627 0
36.8076 19.2611 0
38.0739 17.1166 0
40.6122 17.113 0
40.6183 21.3985 0
38.0797 21.4021 0
39.3431 17.1148 0
40.6153 19.2558 0
39.349 21.4003 0
38.0768 19.2593 0
39.346 19.2576 0
40.6122 17.113 0
43.1504 17.1092 0
43.157 21.3947 0
40.6183 21.3985 0
41.8813 17.1111 0
43.1537 19.252 0
41.8876 21.3966 0
40.6153 19.2558 0
41.8845 19.2539 0
43.1504 17.1092 0
45.6887 17.1052 0
45.6956 21.3907 0
43.157 21.3947 0
44.4196 17.1072 0
45.6921 19.2479 0
44.4263 21.3927 0
43.1537 19.252 0
44.4229 19.25 0
45.6887 17.1052 0
48.2269 17.1009 0
48.2342 21.3865 0
45.6956 21.3907 0
46.9578 17.1031 0
48.2306 19.2437 0
46.9649 21.3886 0
45.6921 19.2479 0
46.9613 19.2459 0
48.2269 17.1009 0
50.7652 17.0965 0
50.7728 21.382 0
48.2342 21.3865 0
49.4961 17.0987 0
50.769 19.2393 0
49.5035 21.3843 0
48.2306 19.2437 0
49.4998 19.2415 0
50.7652 17.0965 0
53.3034 17.0918 0
53.3114 21.3773 0
50.7728 21.382 0
52.0343 17.0942 0
53.3074 19.2346 0
52.0421 21.3797 0
50.769 19.2393 0
52.0382 19.237 0
53.3034 17.0918 0
55.8417 17.0869 0
55.85 21.3725 0
53.3114 21.3773 0
54.5726 17.0894 0
55.8458 19.2297 0
54.5807 21.3749 0
53.3074 19.2346 0
54.5766 19.2322 0
55.8417 17.0869 0
58.3799 17.0818 0
58.3886 21.3674 0
55.85 21.3725 0
57.1108 17.0844 0
58.3843 19.2246 0
57.1193 21.3699 0
55.8458 19.2297 0
57.1151 19.2272 0
58.3799 17.0818 0
60.9182 17.0765 0
60.9272 21.3621 0
58.3886 21.3674 0
59.649 17.0792 0
60.9227 19.2193 0
59.6579 21.3647 0
58.3843 19.2246 0
59.6535 19.222 0
60.9182 17.0765 0
63.4564 17.071 0
63.4658 21.3566 0
60.9272 21.3621 0
62.1873 17.0738 0
63.4611 19.2138 0
62.1965 21.3593 0
60.9227 19.2193 0
62.1919 19.2166 0
63.4564 17.071 0
65.9947 17.0653 0
66.0044 21.3508 0
63.4658 21.3566 0
64.7255 17.0682 0
65.9995 19.2081 0
64.7351 21.3537 0
63.4611 19.2138 0
64.7303 19.211 0
65.9947 17.0653 0
68.5329 17.0594 0
68.543 21.3449 0
66.0044 21.3508 0
67.2638 17.0624 0
68.5379 19.2022 0
67.2737 21.3479 0
65.9995 19.2081 0
67.2687 19.2052 0
68.5329 17.0594 0
71.0711 17.0533 0
71.0816 21.3388 0
68.543 21.3449 0
69.802 17.0563 0
71.0763 19.196 0
69.8123 21.3419 0
68.5379 19.2022 0
69.8071 19.1991 0
71.0711 17.0533 0
73.6094 17.0469 0
73.6201 21.3324 0
71.0816 21.3388 0
72.3402 17.0501 0
73.6148 19.1897 0
72.3509 21.3356 0
71.0763 19.196 0
72.3455 19.1929 0
73.6094 17.0469 0
76.1476 17.0404 0
76.1587 21.3259 0
73.6201 21.3324 0
74.8785 17.0437 0
76.1532 19.1832 0
74.8894 21.3292 0
73.6148 19.1897 0
74.884 19.1865 0
76.1476 17.0404 0
78.6858 17.0336 0
78.6973 21.3192 0
76.1587 21.3259 0
77.4167 17.037 0
78.6916 19.1764 0
77.428 21.3226 0
76.1532 19.1832 0
77.4224 19.1798 0
78.6858 17.0336 0
81.2241 17.0267 0
81.2359 21.3122 0
78.6973 21.3192 0
79.9549 17.0302 0
81.23 19.1695 0
79.9666 21.3157 0
78.6916 19.1764 0
79.9608 19.173 0
81.2241 17.0267 0
83.7623 17.0195 0
83.7744 21.3051 0
81.2359 21.3122 0
82.4932 17.0231 0
83.7684 19.1623 0
82.5051 21.3087 0
81.23 19.1695 0
82.4992 19.1659 0
83.7623 17.0195 0
86.3005 17.0122 0
86.313 21.2977 0
83.7744 21.3051 0
85.0314 17.0159 0
86.3068 19.155 0
85.0437 21.3014 0
83.7684 19.1623 0
85.0376 19.1587 0
86.3005 17.0122 0
88.8387 17.0047 0
88.8516 21.2902 0
86.313 21.2977 0
87.5696 17.0085 0
88.8451 19.1475 0
87.5823 21.294 0
86.3068 19.155 0
87.5759 19.1512 0
88.8387 17.0047 0
91.377 16.9969 0
91.3901 21.2825 0
88.8516 21.2902 0
90.1079 17.0008 0
91.3835 19.1397 0
90.1208 21.2864 0
88.8451 19.1475 0
90.1143 19.1436 0
91.377 16.9969 0
93.9152 16.989 0
93.9287 21.2745 0
91.3901 21.2825 0
92.6461 16.993 0
93.9219 19.1318 0
92.6594 21.2785 0
91.3835 19.1397 0
92.6527 19.1358 0
93.9152 16.989 0
96.4534 16.9809 0
96.4672 21.2664 0
93.9287 21.2745 0
95.1843 16.985 0
96.4603 19.1237 0
95.1979 21.2705 0
93.9219 19.1318 0
95.1911 19.1277 0
96.4534 16.9809 0
98.9916 16.9726 0
99.0057 21.2581 0
96.4672 21.2664 0
97.7225 16.9767 0
98.9987 19.1153 0
97.7365 21.2623 0
96.4603 19.1237 0
97.7295 19.1195 0
98.9916 16.9726 0
101.53 16.9641 0
101.544 21.2496 0
99.0057 21.2581 0
100.261 16.9683 0
101.537 19.1068 0
100.275 21.2539 0
98.9987 19.1153 0
100.268 19.1111 0
101.53 16.9641 0
104.068 16.9554 0
104.083 21.2409 0
101.544 21.2496 0
102.799 16.9597 0
104.075 19.0981 0
102.814 21.2453 0
101.537 19.1068 0
102.806 19.1025 0
104.068 16.9554 0
106.606 16.9465 0
106.621 21.232 0
104.083 21.2409 0
105.337 16.9509 0
106.614 19.0893 0
105.352 21.2365 0
104.075 19.0981 0
105.345 19.0937 0
106.606 16.9465 0
109.144 16.9374 0
109.16 21.2229 0
106.621 21.232 0
107.875 16.942 0
109.152 19.0802 0
107.891 21.2275 0
106.614 19.0893 0
107.883 19.0847 0
109.144 16.9374 0
111.683 16.9281 0
111.698 21.2137 0
109.16 21.2229 0
110.414 16.9328 0
111.691 19.0709 0
110.429 21.2183 0
109.152 19.0802 0
110.421 19.0756 0
111.683 16.9281 0
114.221 16.9187 0
114.237 21.2042 0
111.698 21.2137 0
112.952 16.9234 0
114.229 19.0615 0
112.968 21.209 0
111.691 19.0709 0
112.96 19.0662 0
114.221 16.9187 0
116.759 16.9091 0
116.775 21.1946 0
114.237 21.2042 0
115.49 16.9139 0
116.767 19.0518 0
115.506 21.1994 0
114.229 19.0615 0
115.498 19.0567 0
116.759 16.9091 0
119.297 16.8992 0
119.314 21.1848 0
116.775 21.1946 0
118.028 16.9042 0
119.306 19.042 0
118.045 21.1897 0
116.767 19.0518 0
118.036 19.047 0
119.297 16.8992 0
121.836 16.8892 0
121.852 21.1748 0
119.314 21.1848 0
120.566 16.8943 0
121.844 19.032 0
120.583 21.1798 0
119.306 19.042 0
120.575 19.037 0
121.836 16.8892 0
124.374 16.8791 0
124.391 21.1646 0
121.852 21.1748 0
123.105 16.8842 0
124.382 19.0219 0
123.122 21.1697 0
121.844 19.032 0
123.113 19.027 0
124.374 16.8791 0
126.912 16.8687 0
126.929 21.1542 0
124.391 21.1646 0
125.643 16.8739 0
126.921 19.0115 0
125.66 21.1594 0
124.382 19.0219 0
125.652 19.0167 0
126.912 16.8687 0
129.45 16.8582 0
129.468 21.1437 0
126.929 21.1542 0
128.181 16.8635 0
129.459 19.001 0
128.199 21.149 0
126.921 19.0115 0
128.19 19.0063 0
129.45 16.8582 0
131.988 16.8475 0
132.006 21.133 0
129.468 21.1437 0
130.719 16.8528 0
131.997 18.9903 0
130.737 21.1384 0
129.459 19.001 0
130.728 18.9956 0
131.988 16.8475 0
134.527 16.8366 0
134.545 21.1221 0
132.006 21.133 0
133.257 16.8421 0
134.536 18.9794 0
133.276 21.1276 0
131.997 18.9903 0
133.267 18.9848 0
134.527 16.8366 0
137.065 16.8255 0
137.083 21.1111 0
134.545 21.1221 0
135.796 16.8311 0
137.074 18.9683 0
135.814 21.1166 0
134.536 18.9794 0
135.805 18.9739 0
137.065 16.8255 0
139.603 16.8143 0
139.622 21.0998 0
137.083 21.1111 0
138.334 16.8199 0
139.612 18.9571 0
138.353 21.1055 0
137.074 18.9683 0
138.343 18.9627 0
139.603 16.8143 0
142.141 16.8029 0
142.16 21.0884 0
139.622 21.0998 0
140.872 16.8086 0
142.151 18.9457 0
140.891 21.0941 0
139.612 18.9571 0
140.882 18.9514 0
142.141 16.8029 0
144.679 16.7913 0
144.699 21.0768 0
142.16 21.0884 0
143.41 16.7971 0
144.689 18.9341 0
143.43 21.0826 0
142.151 18.9457 0
143.42 18.9399 0
144.679 16.7913 0
147.217 16.7796 0
147.237 21.0651 0
144.699 21.0768 0
145.948 16.7855 0
147.227 18.9223 0
145.968 21.071 0
144.689 18.9341 0
145.958 18.9282 0
147.217 16.7796 0
149.756 16.7677 0
149.776 21.0532 0
147.237 21.0651 0
148.487 16.7736 0
149.766 18.9104 0
148.507 21.0592 0
147.227 18.9223 0
148.497 18.9164 0
149.756 16.7677 0
152.294 16.7556 0
152.314 21.0411 0
149.776 21.0532 0
151.025 16.7616 0
152.304 18.8984 0
151.045 21.0472 0
149.766 18.9104 0
151.035 18.9044 0
152.294 16.7556 0
154.832 16.7433 0
154.853 21.0288 0
152.314 21.0411 0
153.563 16.7495 0
154.842 18.8861 0
153.584 21.035 0
152.304 18.8984 0
153.573 18.8922 0
154.832 16.7433 0
157.37 16.7309 0
157.391 21.0164 0
154.853 21.0288 0
156.101 16.7371 0
157.381 18.8737 0
156.122 21.0227 0
154.842 18.8861 0
156.112 18.8799 0
157.37 16.7309 0
159.908 16.7183 0
159.93 21.0039 0
157.391 21.0164 0
158.639 16.7246 0
159.919 18.8611 0
158.66 21.0102 0
157.381 18.8737 0
158.65 18.8674 0
159.908 16.7183 0
162.447 16.7056 0
162.468 20.9911 0
159.93 21.0039 0
161.177 16.712 0
162.457 18.8484 0
161.199 20.9975 0
159.919 18.8611 0
161.188 18.8548 0
162.447 16.7056 0
164.985 16.6927 0
165.007 20.9782 0
162.468 20.9911 0
163.716 16.6992 0
164.996 18.8355 0
163.737 20.9847 0
162.457 18.8484 0
163.726 18.842 0
164.985 16.6927 0
167.523 16.6796 0
167.545 20.9652 0
165.007 20.9782 0
166.254 16.6862 0
167.534 18.8224 0
166.276 20.9717 0
164.996 18.8355 0
166.265 18.829 0
167.523 16.6796 0
170.061 16.6664 0
170.083 20.952 0
167.545 20.9652 0
168.792 16.6731 0
170.072 18.8092 0
168.814 20.9586 0
167.534 18.8224 0
168.803 18.8158 0
170.061 16.6664 0
172.599 16.6531 0
172.622 20.9386 0
170.083 20.952 0
171.33 16.6598 0
172.611 18.7958 0
171.353 20.9453 0
170.072 18.8092 0
171.341 18.8025 0
172.599 16.6531 0
175.137 16.6395 0
175.16 20.925 0
172.622 20.9386 0
173.868 16.6463 0
175.149 18.7823 0
173.891 20.9318 0
172.611 18.7958 0
173.88 18.7891 0
175.137 16.6395 0
177.676 16.6258 0
177.699 20.9114 0
175.16 20.925 0
176.406 16.6327 0
177.687 18.7686 0
176.43 20.9182 0
175.149 18.7823 0
176.418 18.7755 0
177.676 16.6258 0
180.214 16.612 0
180.237 20.8975 0
177.699 20.9114 0
178.945 16.6189 0
180.225 18.7548 0
178.968 20.9045 0
177.687 18.7686 0
178.956 18.7617 0
180.214 16.612 0
182.752 16.598 0
182.776 20.8835 0
180.237 20.8975 0
181.483 16.605 0
182.764 18.7408 0
181.506 20.8905 0
180.225 18.7548 0
181.495 18.7478 0
182.752 16.598 0
185.29 16.5839 0
185.314 20.8694 0
182.776 20.8835 0
184.021 16.591 0
185.302 18.7266 0
184.045 20.8765 0
182.764 18.7408 0
184.033 18.7337 0
185.29 16.5839 0
187.828 16.5696 0
187.852 20.8551 0
185.314 20.8694 0
186.559 16.5767 0
187.84 18.7124 0
186.583 20.8623 0
185.302 18.7266 0
186.571 18.7195 0
187.828 16.5696 0
190.366 16.5551 0
190.391 20.8407 0
187.852 20.8551 0
189.097 16.5624 0
190.379 18.6979 0
189.122 20.8479 0
187.84 18.7124 0
189.109 18.7051 0
190.366 16.5551 0
192.905 16.5405 0
192.929 20.8261 0
190.391 20.8407 0
191.635 16.5479 0
192.917 18.6833 0
191.66 20.8334 0
190.379 18.6979 0
191.648 18.6906 0
192.905 16.5405 0
195.443 16.5258 0
195.468 20.8113 0
192.929 20.8261 0
194.174 16.5332 0
195.455 18.6686 0
194.198 20.8187 0
192.917 18.6833 0
194.186 18.676 0
195.443 16.5258 0
197.981 16.5109 0
198.006 20.7964 0
195.468 20.8113 0
196.712 16.5184 0
197.993 18.6537 0
196.737 20.8039 0
195.455 18.6686 0
196.724 18.6612 0
197.981 16.5109 0
200.519 16.4959 0
200.544 20.7814 0
198.006 20.7964 0
199.25 16.5034 0
200.532 18.6387 0
199.275 20.7889 0
197.993 18.6537 0
199.263 18.6462 0
200.519 16.4959 0
203.057 16.4807 0
203.083 20.7662 0
200.544 20.7814 0
201.788 16.4883 0
203.07 18.6235 0
201.814 20.7738 0
200.532 18.6387 0
201.801 18.6311 0
203.057 16.4807 0
205.595 16.4654 0
205.621 20.7509 0
203.083 20.7662 0
204.326 16.4731 0
205.608 18.6082 0
204.352 20.7586 0
203.07 18.6235 0
204.339 18.6159 0
205.595 16.4654 0
208.133 16.45 0
208.16 20.7355 0
205.621 20.7509 0
206.864 16.4577 0
208.146 18.5927 0
206.89 20.7432 0
205.608 18.6082 0
206.877 18.6005 0
208.133 16.45 0
210.672 16.4344 0
210.698 20.7199 0
208.16 20.7355 0
209.402 16.4422 0
210.685 18.5772 0
209.429 20.7277 0
208.146 18.5927 0
209.416 18.585 0
210.672 16.4344 0
213.21 16.4187 0
213.236 20.7042 0
210.698 20.7199 0
211.941 16.4265 0
213.223 18.5614 0
211.967 20.712 0
210.685 18.5772 0
211.954 18.5693 0
213.21 16.4187 0
215.748 16.4028 0
215.775 20.6883 0
213.236 20.7042 0
214.479 16.4107 0
215.761 18.5456 0
214.505 20.6963 0
213.223 18.5614 0
214.492 18.5535 0
215.748 16.4028 0
218.286 16.3868 0
218.313 20.6723 0
215.775 20.6883 0
217.017 16.3948 0
218.299 18.5296 0
217.044 20.6803 0
215.761 18.5456 0
217.03 18.5376 0
218.286 16.3868 0
220.824 16.3707 0
220.851 20.6562 0
218.313 20.6723 0
219.555 16.3787 0
220.838 18.5134 0
219.582 20.6642 0
218.299 18.5296 0
219.569 18.5215 0
220.824 16.3707 0
223.362 16.3544 0
223.39 20.6399 0
220.851 20.6562 0
222.093 16.3625 0
223.376 18.4972 0
222.121 20.648 0
220.838 18.5134 0
222.107 18.5053 0
223.362 16.3544 0
225.9 16.338 0
225.928 20.6235 0
223.39 20.6399 0
224.631 16.3462 0
225.914 18.4808 0
224.659 20.6317 0
223.376 18.4972 0
224.645 18.489 0
225.9 16.338 0
228.438 16.3215 0
228.466 20.607 0
225.928 20.6235 0
227.169 16.3297 0
228.452 18.4642 0
227.197 20.6152 0
225.914 18.4808 0
227.183 18.4725 0
228.438 16.3215 0
230.977 16.3048 0
231.005 20.5903 0
228.466 20.607 0
229.708 16.3131 0
230.991 18.4476 0
229.736 20.5986 0
228.452 18.4642 0
229.722 18.4559 0
230.977 16.3048 0
233.515 16.288 0
233.543 20.5735 0
231.005 20.5903 0
232.246 16.2964 0
233.529 18.4308 0
232.274 20.5819 0
230.991 18.4476 0
232.26 18.4392 0
233.515 16.288 0
236.053 16.2711 0
236.081 20.5566 0
233.543 20.5735 0
234.784 16.2796 0
236.067 18.4139 0
234.812 20.5651 0
233.529 18.4308 0
234.798 18.4223 0
236.053 16.2711 0
238.591 16.254 0
238.62 20.5396 0
236.081 20.5566 0
237.322 16.2626 0
238.605 18.3968 0
237.351 20.5481 0
236.067 18.4139 0
237.336 18.4053 0
238.591 16.254 0
241.129 16.2369 0
241.158 20.5224 0
238.62 20.5396 0
239.86 16.2455 0
241.144 18.3796 0
239.889 20.531 0
238.605 18.3968 0
239.874 18.3882 0
241.129 16.2369 0
243.667 16.2196 0
243.696 20.5051 0
241.158 20.5224 0
242.398 16.2282 0
243.682 18.3624 0
242.427 20.5138 0
241.144 18.3796 0
242.413 18.371 0
243.667 16.2196 0
246.205 16.2022 0
246.235 20.4877 0
243.696 20.5051 0
244.936 16.2109 0
246.22 18.3449 0
244.966 20.4964 0
243.682 18.3624 0
244.951 18.3537 0
246.205 16.2022 0
248.743 16.1846 0
248.773 20.4701 0
246.235 20.4877 0
247.474 16.1934 0
248.758 18.3274 0
247.504 20.4789 0
246.22 18.3449 0
247.489 18.3362 0
248.743 16.1846 0
251.282 16.167 0
251.311 20.4525 0
248.773 20.4701 0
250.012 16.1758 0
251.296 18.3098 0
250.042 20.4613 0
248.758 18.3274 0
250.027 18.3186 0
251.282 16.167 0
253.82 16.1492 0
253.85 20.4347 0
251.311 20.4525 0
252.551 16.1581 0
253.835 18.292 0
252.581 20.4436 0
251.296 18.3098 0
252.566 18.3009 0
253.82 16.1492 0
256.358 16.1313 0
256.388 20.4168 0
253.85 20.4347 0
255.089 16.1403 0
256.373 18.2741 0
255.119 20.4258 0
253.835 18.292 0
255.104 18.2831 0
256.358 16.1313 0
258.896 16.1133 0
258.926 20.3988 0
256.388 20.4168 0
257.627 16.1223 0
258.911 18.2561 0
257.657 20.4078 0
256.373 18.2741 0
257.642 18.2651 0
258.896 16.1133 0
261.434 16.0952 0
261.465 20.3807 0
258.926 20.3988 0
260.165 16.1043 0
261.449 18.238 0
260.195 20.3898 0
258.911 18.2561 0
260.18 18.247 0
261.434 16.0952 0
263.972 16.077 0
264.003 20.3625 0
261.465 20.3807 0
262.703 16.0861 0
263.987 18.2197 0
262.734 20.3716 0
261.449 18.238 0
262.718 18.2289 0
263.972 16.077 0
266.51 16.0586 0
266.541 20.3441 0
264.003 20.3625 0
265.241 16.0678 0
266.526 18.2014 0
265.272 20.3533 0
263.987 18.2197 0
265.257 18.2106 0
266.51 16.0586 0
269.048 16.0402 0
269.079 20.3257 0
266.541 20.3441 0
267.779 16.0494 0
269.064 18.1829 0
267.81 20.3349 0
266.526 18.2014 0
267.795 18.1922 0
269.048 16.0402 0
271.586 16.0216 0
271.618 20.3071 0
269.079 20.3257 0
270.317 16.0309 0
271.602 18.1644 0
270.349 20.3164 0
269.064 18.1829 0
270.333 18.1737 0
271.586 16.0216 0
274.124 16.0029 0
274.156 20.2884 0
271.618 20.3071 0
272.855 16.0123 0
274.14 18.1457 0
272.887 20.2978 0
271.602 18.1644 0
272.871 18.155 0
274.124 16.0029 0
276.663 15.9841 0
276.694 20.2696 0
274.156 20.2884 0
275.393 15.9935 0
276.678 18.1269 0
275.425 20.279 0
274.14 18.1457 0
275.409 18.1363 0
276.663 15.9841 0
279.201 15.9652 0
279.233 20.2507 0
276.694 20.2696 0
277.932 15.9747 0
279.217 18.108 0
277.963 20.2602 0
276.678 18.1269 0
277.947 18.1175 0
279.201 15.9652 0
281.739 15.9462 0
281.771 20.2317 0
279.233 20.2507 0
280.47 15.9557 0
281.755 18.089 0
280.502 20.2413 0
279.217 18.108 0
280.486 18.0985 0
281.739 15.9462 0
284.277 15.9271 0
284.309 20.2126 0
281.771 20.2317 0
283.008 15.9367 0
284.293 18.0699 0
283.04 20.2222 0
281.755 18.089 0
283.024 18.0795 0
284.277 15.9271 0
286.815 15.9079 0
286.847 20.1934 0
284.309 20.2126 0
285.546 15.9175 0
286.831 18.0507 0
285.578 20.203 0
284.293 18.0699 0
285.562 18.0603 0
286.815 15.9079 0
289.353 15.8886 0
289.386 20.1741 0
286.847 20.1934 0
288.084 15.8983 0
289.369 18.0314 0
288.116 20.1838 0
286.831 18.0507 0
288.1 18.0411 0
289.353 15.8886 0
291.891 15.8692 0
291.924 20.1547 0
289.386 20.1741 0
290.622 15.8789 0
291.907 18.012 0
290.655 20.1644 0
289.369 18.0314 0
290.638 18.0217 0
291.891 15.8692 0
294.429 15.8497 0
294.462 20.1352 0
291.924 20.1547 0
293.16 15.8595 0
294.446 17.9925 0
293.193 20.145 0
291.907 18.012 0
293.177 18.0022 0
294.429 15.8497 0
296.967 15.8301 0
297 20.1156 0
294.462 20.1352 0
295.698 15.8399 0
296.984 17.9729 0
295.731 20.1254 0
294.446 17.9925 0
295.715 17.9827 0
296.967 15.8301 0
299.505 15.8104 0
299.539 20.0959 0
297 20.1156 0
298.236 15.8203 0
299.522 17.9532 0
298.269 20.1058 0
296.984 17.9729 0
298.253 17.963 0
299.505 15.8104 0
302.043 15.7906 0
302.077 20.0761 0
299.539 20.0959 0
300.774 15.8005 0
302.06 17.9334 0
300.808 20.086 0
299.522 17.9532 0
300.791 17.9433 0
302.043 15.7906 0
304.581 15.7707 0
304.615 20.0562 0
302.077 20.0761 0
303.312 15.7807 0
304.598 17.9135 0
303.346 20.0662 0
302.06 17.9334 0
303.329 17.9234 0
304.581 15.7707 0
307.119 15.7507 0
307.153 20.0362 0
304.615 20.0562 0
305.85 15.7607 0
307.136 17.8935 0
305.884 20.0462 0
304.598 17.9135 0
305.867 17.9035 0
307.119 15.7507 0
309.658 15.7307 0
309.691 20.0162 0
307.153 20.0362 0
308.389 15.7407 0
309.675 17.8734 0
308.422 20.0262 0
307.136 17.8935 0
308.405 17.8835 0
309.658 15.7307 0
312.196 15.7105 0
312.23 19.996 0
309.691 20.0162 0
310.927 15.7206 0
312.213 17.8532 0
310.961 20.0061 0
309.675 17.8734 0
310.944 17.8633 0
312.196 15.7105 0
314.734 15.6902 0
314.768 19.9757 0
312.23 19.996 0
313.465 15.7004 0
314.751 17.833 0
313.499 19.9859 0
312.213 17.8532 0
313.482 17.8431 0
314.734 15.6902 0
317.272 15.6699 0
317.306 19.9554 0
314.768 19.9757 0
316.003 15.6801 0
317.289 17.8126 0
316.037 19.9656 0
314.751 17.833 0
316.02 17.8228 0
317.272 15.6699 0
319.81 15.6495 0
319.844 19.935 0
317.306 19.9554 0
318.541 15.6597 0
319.827 17.7922 0
318.575 19.9452 0
317.289 17.8126 0
318.558 17.8024 0
319.81 15.6495 0
322.348 15.6289 0
322.383 19.9144 0
319.844 19.935 0
321.079 15.6392 0
322.365 17.7717 0
321.113 19.9247 0
319.827 17.7922 0
321.096 17.782 0
322.348 15.6289 0
324.886 15.6083 0
324.921 19.8938 0
322.383 19.9144 0
323.617 15.6186 0
324.903 17.7511 0
323.652 19.9041 0
322.365 17.7717 0
323.634 17.7614 0
324.886 15.6083 0
327.424 15.5876 0
327.459 19.8731 0
324.921 19.8938 0
326.155 15.598 0
327.441 17.7304 0
326.19 19.8835 0
324.903 17.7511 0
326.172 17.7408 0
327.424 15.5876 0
329.962 15.5669 0
329.997 19.8524 0
327.459 19.8731 0
328.693 15.5773 0
329.98 17.7096 0
328.728 19.8628 0
327.441 17.7304 0
328.711 17.72 0
329.962 15.5669 0
332.5 15.546 0
332.535 19.8315 0
329.997 19.8524 0
331.231 15.5565 0
332.518 17.6888 0
331.266 19.842 0
329.98 17.7096 0
331.249 17.6992 0
332.5 15.546 0
335.038 15.5251 0
335.073 19.8106 0
332.535 19.8315 0
333.769 15.5356 0
335.056 17.6679 0
333.804 19.8211 0
332.518 17.6888 0
333.787 17.6783 0
335.038 15.5251 0
337.576 15.5041 0
337.612 19.7896 0
335.073 19.8106 0
336.307 15.5146 0
337.594 17.6468 0
336.343 19.8001 0
335.056 17.6679 0
336.325 17.6574 0
337.576 15.5041 0
340.114 15.483 0
340.15 19.7685 0
337.612 19.7896 0
338.845 15.4935 0
340.132 17.6258 0
338.881 19.7791 0
337.594 17.6468 0
338.863 17.6363 0
340.114 15.483 0
342.652 15.4618 0
342.688 19.7473 0
340.15 19.7685 0
341.383 15.4724 0
342.67 17.6046 0
341.419 19.7579 0
340.132 17.6258 0
341.401 17.6152 0
342.652 15.4618 0
345.19 15.4406 0
345.226 19.7261 0
342.688 19.7473 0
343.921 15.4512 0
345.208 17.5834 0
343.957 19.7367 0
342.67 17.6046 0
343.939 17.594 0
345.19 15.4406 0
347.728 15.4193 0
347.764 19.7048 0
345.226 19.7261 0
346.459 15.43 0
347.746 17.562 0
346.495 19.7155 0
345.208 17.5834 0
346.477 17.5727 0
347.728 15.4193 0
350.266 15.3979 0
350.303 19.6834 0
347.764 19.7048 0
348.997 15.4086 0
350.284 17.5407 0
349.033 19.6941 0
347.746 17.562 0
349.015 17.5514 0
350.266 15.3979 0
352.804 15.3764 0
352.841 19.6619 0
350.303 19.6834 0
351.535 15.3872 0
352.823 17.5192 0
351.572 19.6727 0
350.284 17.5407 0
351.554 17.5299 0
352.804 15.3764 0
355.343 15.3549 0
355.379 19.6404 0
352.841 19.6619 0
354.073 15.3657 0
355.361 17.4977 0
354.11 19.6512 0
352.823 17.5192 0
354.092 17.5084 0
355.343 15.3549 0
357.881 15.3333 0
357.917 19.6188 0
355.379 19.6404 0
356.612 15.3441 0
357.899 17.4761 0
356.648 19.6296 0
355.361 17.4977 0
356.63 17.4869 0
357.881 15.3333 0
360.419 15.3117 0
360.455 19.5972 0
357.917 19.6188 0
359.15 15.3225 0
360.437 17.4544 0
359.186 19.608 0
357.899 17.4761 0
359.168 17.4653 0
360.419 15.3117 0
362.957 15.2899 0
362.993 19.5754 0
360.455 19.5972 0
361.688 15.3008 0
362.975 17.4327 0
361.724 19.5863 0
360.437 17.4544 0
361.706 17.4436 0
362.957 15.2899 0
365.495 15.2681 0
365.531 19.5536 0
362.993 19.5754 0
364.226 15.279 0
365.513 17.4109 0
364.262 19.5645 0
362.975 17.4327 0
364.244 17.4218 0
365.495 15.2681 0
368.033 15.2463 0
368.07 19.5318 0
365.531 19.5536 0
366.764 15.2572 0
368.051 17.389 0
366.8 19.5427 0
365.513 17.4109 0
366.782 17.4 0
368.033 15.2463 0
370.571 15.2244 0
370.608 19.5099 0
368.07 19.5318 0
369.302 15.2353 0
370.589 17.3671 0
369.339 19.5208 0
368.051 17.389 0
369.32 17.3781 0
370.571 15.2244 0
373.109 15.2024 0
373.146 19.4879 0
370.608 19.5099 0
371.84 15.2134 0
373.127 17.3451 0
371.877 19.4989 0
370.589 17.3671 0
371.858 17.3561 0
373.109 15.2024 0
375.647 15.1803 0
375.684 19.4658 0
373.146 19.4879 0
374.378 15.1914 0
375.665 17.3231 0
374.415 19.4769 0
373.127 17.3451 0
374.396 17.3341 0
375.647 15.1803 0
378.185 15.1582 0
378.222 19.4437 0
375.684 19.4658 0
376.916 15.1693 0
378.203 17.301 0
376.953 19.4548 0
375.665 17.3231 0
376.934 17.312 0
378.185 15.1582 0
380.723 15.1361 0
380.76 19.4216 0
378.222 19.4437 0
379.454 15.1472 0
380.742 17.2788 0
379.491 19.4327 0
378.203 17.301 0
379.472 17.2899 0
380.723 15.1361 0
383.261 15.1138 0
383.298 19.3993 0
380.76 19.4216 0
381.992 15.125 0
383.28 17.2566 0
382.029 19.4105 0
380.742 17.2788 0
382.011 17.2677 0
383.261 15.1138 0
385.799 15.0916 0
385.836 19.3771 0
383.298 19.3993 0
384.53 15.1027 0
385.818 17.2343 0
384.567 19.3882 0
383.28 17.2566 0
384.549 17.2455 0
385.799 15.0916 0
388.337 15.0692 0
388.375 19.3547 0
385.836 19.3771 0
387.068 15.0804 0
388.356 17.212 0
387.105 19.3659 0
385.818 17.2343 0
387.087 17.2232 0
388.337 15.0692 0
390.875 15.0469 0
390.913 19.3324 0
388.375 19.3547 0
389.606 15.0581 0
390.894 17.1896 0
389.644 19.3436 0
388.356 17.212 0
389.625 17.2008 0
390.875 15.0469 0
393.413 15.0244 0
393.451 19.3099 0
390.913 19.3324 0
392.144 15.0356 0
393.432 17.1672 0
392.182 19.3212 0
390.894 17.1896 0
392.163 17.1784 0
393.413 15.0244 0
395.951 15.0019 0
395.989 19.2874 0
393.451 19.3099 0
394.682 15.0132 0
395.97 17.1447 0
394.72 19.2987 0
393.432 17.1672 0
394.701 17.1559 0
395.951 15.0019 0
398.489 14.9794 0
398.527 19.2649 0
395.989 19.2874 0
397.22 14.9907 0
398.508 17.1222 0
397.258 19.2762 0
395.97 17.1447 0
397.239 17.1334 0
398.489 14.9794 0
401.027 14.9568 0
401.065 19.2423 0
398.527 19.2649 0
399.758 14.9681 0
401.046 17.0996 0
399.796 19.2536 0
398.508 17.1222 0
399.777 17.1109 0
401.027 14.9568 0
403.565 14.9342 0
403.603 19.2197 0
401.065 19.2423 0
402.296 14.9455 0
403.584 17.077 0
402.334 19.231 0
401.046 17.0996 0
402.315 17.0883 0
403.565 14.9342 0
406.103 14.9115 0
406.141 19.197 0
403.603 19.2197 0
404.834 14.9229 0
406.122 17.0543 0
404.872 19.2084 0
403.584 17.077 0
404.853 17.0656 0
406.103 14.9115 0
408.641 14.8888 0
408.679 19.1743 0
406.141 19.197 0
407.372 14.9002 0
408.66 17.0316 0
407.41 19.1857 0
406.122 17.0543 0
407.391 17.0429 0
408.641 14.8888 0
411.179 14.866 0
411.217 19.1515 0
408.679 19.1743 0
409.91 14.8774 0
411.198 17.0088 0
409.948 19.1629 0
408.66 17.0316 0
409.929 17.0202 0
411.179 14.866 0
413.717 14.8432 0
413.755 19.1287 0
411.217 19.1515 0
412.448 14.8546 0
413.736 16.986 0
412.486 19.1401 0
411.198 17.0088 0
412.467 16.9974 0
413.717 14.8432 0
416.255 14.8204 0
416.294 19.1059 0
413.755 19.1287 0
414.986 14.8318 0
416.274 16.9631 0
415.024 19.1173 0
413.736 16.986 0
415.005 16.9746 0
416.255 14.8204 0
418.793 14.7975 0
418.832 19.083 0
416.294 19.1059 0
417.524 14.8089 0
418.812 16.9402 0
417.563 19.0944 0
416.274 16.9631 0
417.543 16.9517 0
418.793 14.7975 0
421.331 14.7746 0
421.37 19.0601 0
418.832 19.083 0
420.062 14.786 0
421.35 16.9173 0
420.101 19.0715 0
418.812 16.9402 0
420.081 16.9288 0
421.331 14.7746 0
423.869 14.7516 0
423.908 19.0371 0
421.37 19.0601 0
422.6 14.7631 0
423.888 16.8944 0
422.639 19.0486 0
421.35 16.9173 0
422.619 16.9058 0
423.869 14.7516 0
426.407 14.7286 0
426.446 19.0141 0
423.908 19.0371 0
425.138 14.7401 0
426.426 16.8714 0
425.177 19.0256 0
423.888 16.8944 0
425.157 16.8829 0
426.407 14.7286 0
428.945 14.7056 0
428.984 18.9911 0
426.446 19.0141 0
427.676 14.7171 0
428.964 16.8483 0
427.715 19.0026 0
426.426 16.8714 0
427.695 16.8598 0
428.945 14.7056 0
431.483 14.6825 0
431.522 18.968 0
428.984 18.9911 0
430.214 14.694 0
431.502 16.8252 0
430.253 18.9795 0
428.964 16.8483 0
430.233 16.8368 0
431.483 14.6825 0
434.021 14.6594 0
434.06 18.9449 0
431.522 18.968 0
432.752 14.6709 0
434.04 16.8021 0
432.791 18.9565 0
431.502 16.8252 0
432.771 16.8137 0
434.021 14.6594 0
436.559 14.6363 0
436.598 18.9218 0
434.06 18.9449 0
435.29 14.6478 0
436.578 16.779 0
435.329 18.9333 0
434.04 16.8021 0
435.309 16.7906 0
436.559 14.6363 0
439.097 14.6131 0
439.136 18.8986 0
436.598 18.9218 0
437.828 14.6247 0
439.116 16.7559 0
437.867 18.9102 0
436.578 16.779 0
437.847 16.7674 0
439.097 14.6131 0
441.635 14.5899 0
441.674 18.8754 0
439.136 18.8986 0
440.366 14.6015 0
441.654 16.7327 0
440.405 18.887 0
439.116 16.7559 0
440.385 16.7443 0
441.635 14.5899 0
444.173 14.5667 0
444.212 18.8522 0
441.674 18.8754 0
442.904 14.5783 0
444.192 16.7094 0
442.943 18.8638 0
441.654 16.7327 0
442.923 16.7211 0
444.173 14.5667 0
446.711 14.5434 0
446.75 18.8289 0
444.212 18.8522 0
445.442 14.5551 0
446.731 16.6862 0
445.481 18.8406 0
444.192 16.7094 0
445.461 16.6978 0
446.711 14.5434 0
449.249 14.5202 0
449.288 18.8057 0
446.75 18.8289 0
447.98 14.5318 0
449.269 16.6629 0
448.019 18.8173 0
446.731 16.6862 0
448 16.6746 0
449.249 14.5202 0
451.787 14.4969 0
451.826 18.7824 0
449.288 18.8057 0
450.518 14.5085 0
451.807 16.6396 0
450.557 18.794 0
449.269 16.6629 0
450.538 16.6513 0
451.787 14.4969 0
454.325 14.4735 0
454.364 18.7591 0
451.826 18.7824 0
453.056 14.4852 0
454.345 16.6163 0
453.095 18.7707 0
451.807 16.6396 0
453.076 16.628 0
454.325 14.4735 0
456.863 14.4502 0
456.902 18.7357 0
454.364 18.7591 0
455.594 14.4619 0
456.883 16.593 0
455.633 18.7474 0
454.345 16.6163 0
455.614 16.6046 0
456.863 14.4502 0
459.401 14.4268 0
459.44 18.7124 0
456.902 18.7357 0
458.132 14.4385 0
459.421 16.5696 0
458.171 18.724 0
456.883 16.593 0
458.152 16.5813 0
459.401 14.4268 0
461.939 14.4035 0
461.978 18.689 0
459.44 18.7124 0
460.67 14.4151 0
461.959 16.5462 0
460.709 18.7007 0
459.421 16.5696 0
460.69 16.5579 0
461.939 14.4035 0
464.477 14.3801 0
464.516 18.6656 0
461.978 18.689 0
463.208 14.3918 0
464.496 16.5228 0
463.247 18.6773 0
461.959 16.5462 0
463.228 16.5345 0
464.477 14.3801 0
467.015 14.3566 0
467.054 18.6422 0
464.516 18.6656 0
465.746 14.3683 0
467.034 16.4994 0
465.785 18.6539 0
464.496 16.5228 0
465.765 16.5111 0
467.015 14.3566 0
469.553 14.3332 0
469.592 18.6187 0
467.054 18.6422 0
468.284 14.3449 0
469.572 16.476 0
468.323 18.6304 0
467.034 16.4994 0
468.303 16.4877 0
469.553 14.3332 0
472.091 14.3098 0
472.13 18.5953 0
469.592 18.6187 0
470.822 14.3215 0
472.11 16.4525 0
470.861 18.607 0
469.572 16.476 0
470.841 16.4642 0
472.091 14.3098 0
474.629 14.2863 0
474.668 18.5718 0
472.13 18.5953 0
473.36 14.298 0
474.648 16.4291 0
473.399 18.5835 0
472.11 16.4525 0
473.379 16.4408 0
474.629 14.2863 0
477.167 14.2628 0
477.206 18.5483 0
474.668 18.5718 0
475.898 14.2746 0
477.186 16.4056 0
475.937 18.5601 0
474.648 16.4291 0
475.917 16.4173 0
477.167 14.2628 0
479.705 14.2393 0
479.744 18.5249 0
477.206 18.5483 0
478.436 14.2511 0
479.724 16.3821 0
478.475 18.5366 0
477.186 16.4056 0
478.455 16.3938 0
479.705 14.2393 0
482.243 14.2158 0
482.282 18.5014 0
479.744 18.5249 0
480.974 14.2276 0
482.262 16.3586 0
481.013 18.5131 0
479.724 16.3821 0
480.993 16.3704 0
482.243 14.2158 0
484.781 14.1923 0
484.82 18.4779 0
482.282 18.5014 0
483.512 14.2041 0
484.8 16.3351 0
483.551 18.4896 0
482.262 16.3586 0
483.531 16.3469 0
484.781 14.1923 0
487.319 14.1688 0
487.358 18.4544 0
484.82 18.4779 0
486.05 14.1806 0
487.338 16.3116 0
486.089 18.4661 0
484.8 16.3351 0
486.069 16.3234 0
487.319 14.1688 0
489.856 14.1453 0
489.896 18.4308 0
487.358 18.4544 0
488.588 14.1571 0
489.876 16.2881 0
488.627 18.4426 0
487.338 16.3116 0
488.607 16.2998 0
489.856 14.1453 0
492.394 14.1218 0
492.434 18.4073 0
489.896 18.4308 0
491.125 14.1336 0
492.414 16.2646 0
491.165 18.4191 0
489.876 16.2881 0
491.145 16.2763 0
492.394 14.1218 0
494.932 14.0983 0
494.972 18.3838 0
492.434 18.4073 0
493.663 14.11 0
494.952 16.241 0
493.703 18.3956 0
492.414 16.2646 0
493.683 16.2528 0
494.932 14.0983 0
497.47 14.0748 0
497.51 18.3603 0
494.972 18.3838 0
496.201 14.0865 0
497.49 16.2175 0
496.241 18.372 0
494.952 16.241 0
496.221 16.2293 0
497.47 14.0748 0
500.008 14.0513 0
500.048 18.3368 0
497.51 18.3603 0
498.739 14.063 0
500.028 16.194 0
498.779 18.3485 0
497.49 16.2175 0
498.759 16.2058 0
0 21.4286 0
2.5386 21.4285 0
2.53899 25.714 0
0 25.7143 0
1.26929 21.4286 0
2.53879 23.5713 0
1.26948 25.7142 0
0 23.5714 0
1.26939 23.5714 0
2.5386 21.4285 0
5.07725 21.4282 0
5.07805 25.7135 0
2.53899 25.714 0
3.80792 21.4284 0
5.07764 23.5709 0
3.80851 25.7138 0
2.53879 23.5713 0
3.80821 23.5711 0
5.07725 21.4282 0
7.61592 21.4275 0
7.61712 25.7129 0
5.07805 25.7135 0
6.34658 21.4279 0
7.61651 23.5702 0
6.34759 25.7132 0
5.07764 23.5709 0
6.34707 23.5706 0
7.61592 21.4275 0
10.1546 21.4267 0
10.1562 25.712 0
7.61712 25.7129 0
8.88525 21.4271 0
10.1554 23.5694 0
8.88666 25.7124 0
7.61651 23.5702 0
8.88594 23.5698 0
10.1546 21.4267 0
12.6933 21.4256 0
12.6952 25.7109 0
10.1562 25.712 0
11.4239 21.4262 0
12.6942 23.5683 0
11.4257 25.7115 0
10.1554 23.5694 0
11.4248 23.5688 0
12.6933 21.4256 0
15.2319 21.4243 0
15.2343 25.7096 0
12.6952 25.7109 0
13.9626 21.4249 0
15.2331 23.5669 0
13.9648 25.7103 0
12.6942 23.5683 0
13.9637 23.5676 0
15.2319 21.4243 0
17.7706 21.4227 0
17.7733 25.708 0
15.2343 25.7096 0
16.5013 21.4235 0
17.772 23.5654 0
16.5038 25.7088 0
15.2331 23.5669 0
16.5025 23.5662 0
17.7706 21.4227 0
20.3092 21.4209 0
20.3124 25.7062 0
17.7733 25.708 0
19.0399 21.4218 0
20.3108 23.5636 0
19.0429 25.7072 0
17.772 23.5654 0
19.0414 23.5645 0
20.3092 21.4209 0
22.8479 21.4189 0
22.8514 25.7042 0
20.3124 25.7062 0
21.5786 21.4199 0
22.8496 23.5616 0
21.5819 25.7053 0
20.3108 23.5636 0
21.5802 23.5626 0
22.8479 21.4189 0
25.3865 21.4167 0
25.3904 25.702 0
22.8514 25.7042 0
24.1172 21.4178 0
25.3885 23.5593 0
24.1209 25.7031 0
22.8496 23.5616 0
24.1191 23.5605 0
25.3865 21.4167 0
27.9252 21.4142 0
27.9295 25.6995 0
25.3904 25.702 0
26.6559 21.4155 0
27.9273 23.5569 0
26.66 25.7008 0
25.3885 23.5593 0
26.6579 23.5581 0
27.9252 21.4142 0
30.4638 21.4115 0
30.4685 25.6968 0
27.9295 25.6995 0
29.1945 21.4129 0
30.4661 23.5542 0
29.199 25.6982 0
27.9273 23.5569 0
29.1967 23.5556 0
30.4638 21.4115 0
33.0025 21.4086 0
33.0075 25.6939 0
30.4685 25.6968 0
31.7331 21.4101 0
33.005 23.5513 0
31.738 25.6954 0
30.4661 23.5542 0
31.7356 23.5528 0
33.0025 21.4086 0
35.5411 21.4054 0
35.5465 25.6908 0
33.0075 25.6939 0
34.2718 21.407 0
35.5438 23.5481 0
34.277 25.6924 0
33.005 23.5513 0
34.2744 23.5497 0
35.5411 21.4054 0
38.0797 21.4021 0
38.0855 25.6874 0
35.5465 25.6908 0
36.8104 21.4038 0
38.0826 23.5448 0
36.816 25.6891 0
35.5438 23.5481 0
36.8132 23.5465 0
38.0797 21.4021 0
40.6183 21.3985 0
40.6245 25.6838 0
38.0855 25.6874 0
39.349 21.4003 0
40.6214 23.5412 0
39.355 25.6857 0
38.0826 23.5448 0
39.352 23.543 0
40.6183 21.3985 0
43.157 21.3947 0
43.1635 25.68 0
40.6245 25.6838 0
41.8876 21.3966 0
43.1602 23.5374 0
41.894 25.682 0
40.6214 23.5412 0
41.8908 23.5393 0
43.157 21.3947 0
45.6956 21.3907 0
45.7025 25.676 0
43.1635 25.68 0
44.4263 21.3927 0
45.699 23.5334 0
44.433 25.6781 0
43.1602 23.5374 0
44.4296 23.5354 0
45.6956 21.3907 0
48.2342 21.3865 0
48.2415 25.6718 0
45.7025 25.676 0
46.9649 21.3886 0
48.2378 23.5291 0
46.972 25.6739 0
45.699 23.5334 0
46.9684 23.5313 0
48.2342 21.3865 0
50.7728 21.382 0
50.7804 25.6673 0
48.2415 25.6718 0
49.5035 21.3843 0
50.7766 23.5247 0
49.5109 25.6696 0
48.2378 23.5291 0
49.5072 23.5269 0
50.7728 21.382 0
53.3114 21.3773 0
53.3194 25.6627 0
50.7804 25.6673 0
52.0421 21.3797 0
53.3154 23.52 0
52.0499 25.665 0
50.7766 23.5247 0
52.046 23.5224 0
53.3114 21.3773 0
55.85 21.3725 0
55.8584 25.6578 0
53.3194 25.6627 0
54.5807 21.3749 0
55.8542 23.5152 0
54.5889 25.6603 0
53.3154 23.52 0
54.5848 23.5176 0
55.85 21.3725 0
58.3886 21.3674 0
58.3973 25.6527 0
55.8584 25.6578 0
57.1193 21.3699 0
58.393 23.5101 0
57.1278 25.6553 0
55.8542 23.5152 0
57.1236 23.5126 0
58.3886 21.3674 0
60.9272 21.3621 0
60.9363 25.6474 0
58.3973 25.6527 0
59.6579 21.3647 0
60.9317 23.5048 0
59.6668 25.6501 0
58.393 23.5101 0
59.6624 23.5074 0
60.9272 21.3621 0
63.4658 21.3566 0
63.4752 25.6419 0
60.9363 25.6474 0
62.1965 21.3593 0
63.4705 23.4993 0
62.2057 25.6447 0
60.9317 23.5048 0
62.2011 23.502 0
63.4658 21.3566 0
66.0044 21.3508 0
66.0142 25.6362 0
63.4752 25.6419 0
64.7351 21.3537 0
66.0093 23.4935 0
64.7447 25.6391 0
63.4705 23.4993 0
64.7399 23.4964 0
66.0044 21.3508 0
68.543 21.3449 0
68.5531 25.6303 0
66.0142 25.6362 0
67.2737 21.3479 0
68.548 23.4876 0
67.2836 25.6333 0
66.0093 23.4935 0
67.2787 23.4906 0
68.543 21.3449 0
71.0816 21.3388 0
71.092 25.6241 0
68.5531 25.6303 0
69.8123 21.3419 0
71.0868 23.4815 0
69.8226 25.6272 0
68.548 23.4876 0
69.8174 23.4846 0
71.0816 21.3388 0
73.6201 21.3324 0
73.631 25.6178 0
71.092 25.6241 0
72.3509 21.3356 0
73.6255 23.4751 0
72.3615 25.621 0
71.0868 23.4815 0
72.3562 23.4783 0
73.6201 21.3324 0
76.1587 21.3259 0
76.1699 25.6113 0
73.631 25.6178 0
74.8894 21.3292 0
76.1643 23.4686 0
74.9004 25.6146 0
73.6255 23.4751 0
74.8949 23.4719 0
76.1587 21.3259 0
78.6973 21.3192 0
78.7088 25.6045 0
76.1699 25.6113 0
77.428 21.3226 0
78.703 23.4619 0
77.4393 25.6079 0
76.1643 23.4686 0
77.4337 23.4653 0
78.6973 21.3192 0
81.2359 21.3122 0
81.2477 25.5976 0
78.7088 25.6045 0
79.9666 21.3157 0
81.2418 23.4549 0
79.9782 25.6011 0
78.703 23.4619 0
79.9724 23.4584 0
81.2359 21.3122 0
83.7744 21.3051 0
83.7866 25.5904 0
81.2477 25.5976 0
82.5051 21.3087 0
83.7805 23.4478 0
82.5171 25.594 0
81.2418 23.4549 0
82.5111 23.4514 0
83.7744 21.3051 0
86.313 21.2977 0
86.3255 25.5831 0
83.7866 25.5904 0
85.0437 21.3014 0
86.3192 23.4404 0
85.056 25.5868 0
83.7805 23.4478 0
85.0499 23.4441 0
86.313 21.2977 0
88.8516 21.2902 0
88.8644 25.5756 0
86.3255 25.5831 0
87.5823 21.294 0
88.858 23.4329 0
87.5949 25.5793 0
86.3192 23.4404 0
87.5886 23.4367 0
88.8516 21.2902 0
91.3901 21.2825 0
91.4033 25.5678 0
88.8644 25.5756 0
90.1208 21.2864 0
91.3967 23.4252 0
90.1338 25.5717 0
88.858 23.4329 0
90.1273 23.4291 0
91.3901 21.2825 0
93.9287 21.2745 0
93.9421 25.5599 0
91.4033 25.5678 0
92.6594 21.2785 0
93.9354 23.4172 0
92.6727 25.5639 0
91.3967 23.4252 0
92.666 23.4212 0
93.9287 21.2745 0
96.4672 21.2664 0
96.481 25.5518 0
93.9421 25.5599 0
95.1979 21.2705 0
96.4741 23.4091 0
95.2116 25.5559 0
93.9354 23.4172 0
95.2048 23.4132 0
96.4672 21.2664 0
99.0057 21.2581 0
99.0199 25.5435 0
96.481 25.5518 0
97.7365 21.2623 0
99.0128 23.4008 0
97.7505 25.5476 0
96.4741 23.4091 0
97.7435 23.405 0
99.0057 21.2581 0
101.544 21.2496 0
101.559 25.5349 0
99.0199 25.5435 0
100.275 21.2539 0
101.552 23.3923 0
100.289 25.5392 0
99.0128 23.4008 0
100.282 23.3966 0
101.544 21.2496 0
104.083 21.2409 0
104.098 25.5262 0
101.559 25.5349 0
102.814 21.2453 0
104.09 23.3836 0
102.828 25.5306 0
101.552 23.3923 0
102.821 23.388 0
104.083 21.2409 0
106.621 21.232 0
106.636 25.5174 0
104.098 25.5262 0
105.352 21.2365 0
106.629 23.3747 0
105.367 25.5218 0
104.09 23.3836 0
105.36 23.3792 0
106.621 21.232 0
109.16 21.2229 0
109.175 25.5083 0
106.636 25.5174 0
107.891 21.2275 0
109.168 23.3656 0
107.906 25.5128 0
106.629 23.3747 0
107.898 23.3702 0
109.16 21.2229 0
111.698 21.2137 0
111.714 25.499 0
109.175 25.5083 0
110.429 21.2183 0
111.706 23.3564 0
110.445 25.5037 0
109.168 23.3656 0
110.437 23.361 0
111.698 21.2137 0
114.237 21.2042 0
114.253 25.4896 0
111.714 25.499 0
112.968 21.209 0
114.245 23.3469 0
112.984 25.4943 0
111.706 23.3564 0
112.976 23.3517 0
114.237 21.2042 0
116.775 21.1946 0
116.792 25.4799 0
114.253 25.4896 0
115.506 21.1994 0
116.784 23.3373 0
115.522 25.4848 0
114.245 23.3469 0
115.514 23.3421 0
116.775 21.1946 0
119.314 21.1848 0
119.331 25.4701 0
116.792 25.4799 0
118.045 21.1897 0
119.322 23.3275 0
118.061 25.4751 0
116.784 23.3373 0
118.053 23.3324 0
119.314 21.1848 0
121.852 21.1748 0
121.869 25.4601 0
119.331 25.4701 0
120.583 21.1798 0
121.861 23.3175 0
120.6 25.4652 0
119.322 23.3275 0
120.592 23.3225 0
121.852 21.1748 0
124.391 21.1646 0
124.408 25.45 0
121.869 25.4601 0
123.122 21.1697 0
124.4 23.3073 0
123.139 25.4551 0
121.861 23.3175 0
123.13 23.3124 0
124.391 21.1646 0
126.929 21.1542 0
126.947 25.4396 0
124.408 25.45 0
125.66 21.1594 0
126.938 23.2969 0
125.678 25.4448 0
124.4 23.3073 0
125.669 23.3021 0
126.929 21.1542 0
129.468 21.1437 0
129.486 25.4291 0
126.947 25.4396 0
128.199 21.149 0
129.477 23.2864 0
128.216 25.4344 0
126.938 23.2969 0
128.208 23.2917 0
129.468 21.1437 0
132.006 21.133 0
132.025 25.4184 0
129.486 25.4291 0
130.737 21.1384 0
132.016 23.2757 0
130.755 25.4237 0
129.477 23.2864 0
130.746 23.2811 0
132.006 21.133 0
134.545 21.1221 0
134.563 25.4075 0
132.025 25.4184 0
133.276 21.1276 0
134.554 23.2648 0
133.294 25.413 0
132.016 23.2757 0
133.285 23.2703 0
134.545 21.1221 0
137.083 21.1111 0
137.102 25.3964 0
134.563 25.4075 0
135.814 21.1166 0
137.093 23.2538 0
135.833 25.402 0
134.554 23.2648 0
135.824 23.2593 0
137.083 21.1111 0
139.622 21.0998 0
139.641 25.3852 0
137.102 25.3964 0
138.353 21.1055 0
139.631 23.2425 0
138.372 25.3908 0
137.093 23.2538 0
138.362 23.2482 0
139.622 21.0998 0
142.16 21.0884 0
142.18 25.3738 0
139.641 25.3852 0
140.891 21.0941 0
142.17 23.2311 0
140.91 25.3795 0
139.631 23.2425 0
140.901 23.2368 0
142.16 21.0884 0
144.699 21.0768 0
144.719 25.3622 0
142.18 25.3738 0
143.43 21.0826 0
144.709 23.2195 0
143.449 25.368 0
142.17 23.2311 0
143.439 23.2254 0
144.699 21.0768 0
147.237 21.0651 0
147.257 25.3505 0
144.719 25.3622 0
145.968 21.071 0
147.247 23.2078 0
145.988 25.3564 0
144.709 23.2195 0
145.978 23.2137 0
147.237 21.0651 0
149.776 21.0532 0
149.796 25.3386 0
147.257 25.3505 0
148.507 21.0592 0
149.786 23.1959 0
148.527 25.3445 0
147.247 23.2078 0
148.517 23.2019 0
149.776 21.0532 0
152.314 21.0411 0
152.335 25.3265 0
149.796 25.3386 0
151.045 21.0472 0
152.325 23.1838 0
151.065 25.3325 0
149.786 23.1959 0
151.055 23.1899 0
152.314 21.0411 0
154.853 21.0288 0
154.874 25.3142 0
152.335 25.3265 0
153.584 21.035 0
154.863 23.1716 0
153.604 25.3204 0
152.325 23.1838 0
153.594 23.1777 0
154.853 21.0288 0
157.391 21.0164 0
157.412 25.3018 0
154.874 25.3142 0
156.122 21.0227 0
157.402 23.1591 0
156.143 25.308 0
154.863 23.1716 0
156.132 23.1654 0
157.391 21.0164 0
159.93 21.0039 0
159.951 25.2892 0
157.412 25.3018 0
158.66 21.0102 0
159.94 23.1466 0
158.682 25.2956 0
157.402 23.1591 0
158.671 23.1529 0
159.93 21.0039 0
162.468 20.9911 0
162.49 25.2765 0
159.951 25.2892 0
161.199 20.9975 0
162.479 23.1338 0
161.22 25.2829 0
159.94 23.1466 0
161.21 23.1402 0
162.468 20.9911 0
165.007 20.9782 0
165.028 25.2636 0
162.49 25.2765 0
163.737 20.9847 0
165.017 23.1209 0
163.759 25.2701 0
162.479 23.1338 0
163.748 23.1274 0
165.007 20.9782 0
167.545 20.9652 0
167.567 25.2506 0
165.028 25.2636 0
166.276 20.9717 0
167.556 23.1079 0
166.298 25.2571 0
165.017 23.1209 0
166.287 23.1144 0
167.545 20.9652 0
170.083 20.952 0
170.106 25.2373 0
167.567 25.2506 0
168.814 20.9586 0
170.095 23.0947 0
168.836 25.244 0
167.556 23.1079 0
168.825 23.1013 0
170.083 20.952 0
172.622 20.9386 0
172.645 25.224 0
170.106 25.2373 0
171.353 20.9453 0
172.633 23.0813 0
171.375 25.2307 0
170.095 23.0947 0
171.364 23.088 0
172.622 20.9386 0
175.16 20.925 0
175.183 25.2104 0
172.645 25.224 0
173.891 20.9318 0
175.172 23.0678 0
173.914 25.2172 0
172.633 23.0813 0
173.902 23.0745 0
175.16 20.925 0
177.699 20.9114 0
177.722 25.1967 0
175.183 25.2104 0
176.43 20.9182 0
177.71 23.0541 0
176.453 25.2036 0
175.172 23.0678 0
176.441 23.0609 0
177.699 20.9114 0
180.237 20.8975 0
180.261 25.1829 0
177.722 25.1967 0
178.968 20.9045 0
180.249 23.0402 0
178.991 25.1898 0
177.71 23.0541 0
178.98 23.0472 0
180.237 20.8975 0
182.776 20.8835 0
182.799 25.1689 0
180.261 25.1829 0
181.506 20.8905 0
182.787 23.0262 0
181.53 25.1759 0
180.249 23.0402 0
181.518 23.0333 0
182.776 20.8835 0
185.314 20.8694 0
185.338 25.1548 0
182.799 25.1689 0
184.045 20.8765 0
185.326 23.0121 0
184.069 25.1619 0
182.787 23.0262 0
184.057 23.0192 0
185.314 20.8694 0
187.852 20.8551 0
187.877 25.1405 0
185.338 25.1548 0
186.583 20.8623 0
187.864 22.9978 0
186.607 25.1476 0
185.326 23.0121 0
186.595 23.005 0
187.852 20.8551 0
190.391 20.8407 0
190.415 25.126 0
187.877 25.1405 0
189.122 20.8479 0
190.403 22.9834 0
189.146 25.1333 0
187.864 22.9978 0
189.134 22.9906 0
190.391 20.8407 0
192.929 20.8261 0
192.954 25.1115 0
190.415 25.126 0
191.66 20.8334 0
192.942 22.9688 0
191.685 25.1188 0
190.403 22.9834 0
191.672 22.9761 0
192.929 20.8261 0
195.468 20.8113 0
195.493 25.0967 0
192.954 25.1115 0
194.198 20.8187 0
195.48 22.954 0
194.223 25.1041 0
192.942 22.9688 0
194.211 22.9614 0
195.468 20.8113 0
198.006 20.7964 0
198.031 25.0818 0
195.493 25.0967 0
196.737 20.8039 0
198.019 22.9392 0
196.762 25.0893 0
195.48 22.954 0
196.749 22.9466 0
198.006 20.7964 0
200.544 20.7814 0
200.57 25.0668 0
198.031 25.0818 0
199.275 20.7889 0
200.557 22.9241 0
199.3 25.0743 0
198.019 22.9392 0
199.288 22.9317 0
200.544 20.7814 0
203.083 20.7662 0
203.108 25.0516 0
200.57 25.0668 0
201.814 20.7738 0
203.096 22.909 0
201.839 25.0592 0
200.557 22.9241 0
201.826 22.9166 0
203.083 20.7662 0
205.621 20.7509 0
205.647 25.0363 0
203.108 25.0516 0
204.352 20.7586 0
205.634 22.8936 0
204.378 25.044 0
203.096 22.909 0
204.365 22.9013 0
205.621 20.7509 0
208.16 20.7355 0
208.186 25.0209 0
205.647 25.0363 0
206.89 20.7432 0
208.173 22.8782 0
206.916 25.0286 0
205.634 22.8936 0
206.903 22.8859 0
208.16 20.7355 0
210.698 20.7199 0
210.724 25.0053 0
208.186 25.0209 0
209.429 20.7277 0
210.711 22.8626 0
209.455 25.0131 0
208.173 22.8782 0
209.442 22.8704 0
210.698 20.7199 0
213.236 20.7042 0
213.263 24.9896 0
210.724 25.0053 0
211.967 20.712 0
213.25 22.8469 0
211.994 24.9974 0
210.711 22.8626 0
211.98 22.8548 0
213.236 20.7042 0
215.775 20.6883 0
215.801 24.9737 0
213.263 24.9896 0
214.505 20.6963 0
215.788 22.831 0
214.532 24.9816 0
213.25 22.8469 0
214.519 22.839 0
215.775 20.6883 0
218.313 20.6723 0
218.34 24.9577 0
215.801 24.9737 0
217.044 20.6803 0
218.327 22.815 0
217.071 24.9657 0
215.788 22.831 0
217.057 22.823 0
218.313 20.6723 0
220.851 20.6562 0
220.879 24.9416 0
218.34 24.9577 0
219.582 20.6642 0
220.865 22.7989 0
219.609 24.9496 0
218.327 22.815 0
219.596 22.807 0
220.851 20.6562 0
223.39 20.6399 0
223.417 24.9253 0
220.879 24.9416 0
222.121 20.648 0
223.403 22.7826 0
222.148 24.9334 0
220.865 22.7989 0
222.134 22.7908 0
223.39 20.6399 0
225.928 20.6235 0
225.956 24.9089 0
223.417 24.9253 0
224.659 20.6317 0
225.942 22.7662 0
224.687 24.9171 0
223.403 22.7826 0
224.673 22.7744 0
225.928 20.6235 0
228.466 20.607 0
228.494 24.8924 0
225.956 24.9089 0
227.197 20.6152 0
228.48 22.7497 0
227.225 24.9006 0
225.942 22.7662 0
227.211 22.758 0
228.466 20.607 0
231.005 20.5903 0
231.033 24.8757 0
228.494 24.8924 0
229.736 20.5986 0
231.019 22.733 0
229.764 24.8841 0
228.48 22.7497 0
229.75 22.7414 0
231.005 20.5903 0
233.543 20.5735 0
233.571 24.8589 0
231.033 24.8757 0
232.274 20.5819 0
233.557 22.7162 0
232.302 24.8673 0
231.019 22.733 0
232.288 22.7246 0
233.543 20.5735 0
236.081 20.5566 0
236.11 24.842 0
233.571 24.8589 0
234.812 20.5651 0
236.096 22.6993 0
234.841 24.8505 0
233.557 22.7162 0
234.826 22.7078 0
236.081 20.5566 0
238.62 20.5396 0
238.649 24.825 0
236.11 24.842 0
237.351 20.5481 0
238.634 22.6823 0
237.379 24.8335 0
236.096 22.6993 0
237.365 22.6908 0
238.62 20.5396 0
241.158 20.5224 0
241.187 24.8078 0
238.649 24.825 0
239.889 20.531 0
241.173 22.6651 0
239.918 24.8164 0
238.634 22.6823 0
239.903 22.6737 0
241.158 20.5224 0
243.696 20.5051 0
243.726 24.7905 0
241.187 24.8078 0
242.427 20.5138 0
243.711 22.6478 0
242.456 24.7992 0
241.173 22.6651 0
242.442 22.6565 0
243.696 20.5051 0
246.235 20.4877 0
246.264 24.7731 0
243.726 24.7905 0
244.966 20.4964 0
246.249 22.6304 0
244.995 24.7818 0
243.711 22.6478 0
244.98 22.6391 0
246.235 20.4877 0
248.773 20.4701 0
248.803 24.7556 0
246.264 24.7731 0
247.504 20.4789 0
248.788 22.6129 0
247.533 24.7643 0
246.249 22.6304 0
247.519 22.6216 0
248.773 20.4701 0
251.311 20.4525 0
251.341 24.7379 0
248.803 24.7556 0
250.042 20.4613 0
251.326 22.5952 0
250.072 24.7467 0
248.788 22.6129 0
250.057 22.6041 0
251.311 20.4525 0
253.85 20.4347 0
253.88 24.7201 0
251.341 24.7379 0
252.581 20.4436 0
253.865 22.5774 0
252.61 24.729 0
251.326 22.5952 0
252.595 22.5863 0
253.85 20.4347 0
256.388 20.4168 0
256.418 24.7022 0
253.88 24.7201 0
255.119 20.4258 0
256.403 22.5595 0
255.149 24.7112 0
253.865 22.5774 0
255.134 22.5685 0
256.388 20.4168 0
258.926 20.3988 0
258.957 24.6842 0
256.418 24.7022 0
257.657 20.4078 0
258.941 22.5415 0
257.687 24.6933 0
256.403 22.5595 0
257.672 22.5506 0
258.926 20.3988 0
261.465 20.3807 0
261.495 24.6661 0
258.957 24.6842 0
260.195 20.3898 0
261.48 22.5234 0
260.226 24.6752 0
258.941 22.5415 0
260.211 22.5325 0
261.465 20.3807 0
264.003 20.3625 0
264.034 24.6479 0
261.495 24.6661 0
262.734 20.3716 0
264.018 22.5052 0
262.764 24.657 0
261.48 22.5234 0
262.749 22.5143 0
264.003 20.3625 0
266.541 20.3441 0
266.572 24.6295 0
264.034 24.6479 0
265.272 20.3533 0
266.557 22.4868 0
265.303 24.6387 0
264.018 22.5052 0
265.287 22.496 0
266.541 20.3441 0
269.079 20.3257 0
269.111 24.6111 0
266.572 24.6295 0
267.81 20.3349 0
269.095 22.4684 0
267.841 24.6203 0
266.557 22.4868 0
267.826 22.4776 0
269.079 20.3257 0
271.618 20.3071 0
271.649 24.5925 0
269.111 24.6111 0
270.349 20.3164 0
271.633 22.4498 0
270.38 24.6018 0
269.095 22.4684 0
270.364 22.4591 0
271.618 20.3071 0
274.156 20.2884 0
274.188 24.5738 0
271.649 24.5925 0
272.887 20.2978 0
274.172 22.4311 0
272.918 24.5832 0
271.633 22.4498 0
272.903 22.4405 0
274.156 20.2884 0
276.694 20.2696 0
276.726 24.555 0
274.188 24.5738 0
275.425 20.279 0
276.71 22.4123 0
275.457 24.5645 0
274.172 22.4311 0
275.441 22.4218 0
276.694 20.2696 0
279.233 20.2507 0
279.264 24.5362 0
276.726 24.555 0
277.963 20.2602 0
279.248 22.3935 0
277.995 24.5456 0
276.71 22.4123 0
277.979 22.4029 0
279.233 20.2507 0
281.771 20.2317 0
281.803 24.5172 0
279.264 24.5362 0
280.502 20.2413 0
281.787 22.3745 0
280.534 24.5267 0
279.248 22.3935 0
280.518 22.384 0
281.771 20.2317 0
284.309 20.2126 0
284.341 24.4981 0
281.803 24.5172 0
283.04 20.2222 0
284.325 22.3554 0
283.072 24.5076 0
281.787 22.3745 0
283.056 22.3649 0
284.309 20.2126 0
286.847 20.1934 0
286.88 24.4788 0
284.341 24.4981 0
285.578 20.203 0
286.864 22.3362 0
285.611 24.4885 0
284.325 22.3554 0
285.594 22.3458 0
286.847 20.1934 0
289.386 20.1741 0
289.418 24.4595 0
286.88 24.4788 0
288.116 20.1838 0
289.402 22.3168 0
288.149 24.4692 0
286.864 22.3362 0
288.133 22.3265 0
289.386 20.1741 0
291.924 20.1547 0
291.957 24.4401 0
289.418 24.4595 0
290.655 20.1644 0
291.94 22.2974 0
290.687 24.4499 0
289.402 22.3168 0
290.671 22.3072 0
291.924 20.1547 0
294.462 20.1352 0
294.495 24.4206 0
291.957 24.4401 0
293.193 20.145 0
294.479 22.2779 0
293.226 24.4304 0
291.94 22.2974 0
293.209 22.2877 0
294.462 20.1352 0
297 20.1156 0
297.033 24.401 0
294.495 24.4206 0
295.731 20.1254 0
297.017 22.2583 0
295.764 24.4108 0
294.479 22.2779 0
295.748 22.2681 0
297 20.1156 0
299.539 20.0959 0
299.572 24.3813 0
297.033 24.401 0
298.269 20.1058 0
299.555 22.2386 0
298.303 24.3912 0
297.017 22.2583 0
298.286 22.2485 0
299.539 20.0959 0
302.077 20.0761 0
302.11 24.3615 0
299.572 24.3813 0
300.808 20.086 0
302.093 22.2188 0
300.841 24.3714 0
299.555 22.2386 0
300.824 22.2287 0
302.077 20.0761 0
304.615 20.0562 0
304.649 24.3416 0
302.11 24.3615 0
303.346 20.0662 0
304.632 22.1989 0
303.379 24.3516 0
302.093 22.2188 0
303.363 22.2089 0
304.615 20.0562 0
307.153 20.0362 0
307.187 24.3217 0
304.649 24.3416 0
305.884 20.0462 0
307.17 22.179 0
305.918 24.3317 0
304.632 22.1989 0
305.901 22.189 0
307.153 20.0362 0
309.691 20.0162 0
309.725 24.3016 0
307.187 24.3217 0
308.422 20.0262 0
309.708 22.1589 0
308.456 24.3116 0
307.17 22.179 0
308.439 22.1689 0
309.691 20.0162 0
312.23 19.996 0
312.264 24.2814 0
309.725 24.3016 0
310.961 20.0061 0
312.247 22.1387 0
310.995 24.2915 0
309.708 22.1589 0
310.978 22.1488 0
312.23 19.996 0
314.768 19.9757 0
314.802 24.2612 0
312.264 24.2814 0
313.499 19.9859 0
314.785 22.1185 0
313.533 24.2713 0
312.247 22.1387 0
313.516 22.1286 0
314.768 19.9757 0
317.306 19.9554 0
317.34 24.2408 0
314.802 24.2612 0
316.037 19.9656 0
317.323 22.0981 0
316.071 24.251 0
314.785 22.1185 0
316.054 22.1083 0
317.306 19.9554 0
319.844 19.935 0
319.879 24.2204 0
317.34 24.2408 0
318.575 19.9452 0
319.862 22.0777 0
318.61 24.2306 0
317.323 22.0981 0
318.592 22.0879 0
319.844 19.935 0
322.383 19.9144 0
322.417 24.1999 0
319.879 24.2204 0
321.113 19.9247 0
322.4 22.0572 0
321.148 24.2101 0
319.862 22.0777 0
321.131 22.0674 0
322.383 19.9144 0
324.921 19.8938 0
324.956 24.1793 0
322.417 24.1999 0
323.652 19.9041 0
324.938 22.0366 0
323.686 24.1896 0
322.4 22.0572 0
323.669 22.0469 0
324.921 19.8938 0
327.459 19.8731 0
327.494 24.1586 0
324.956 24.1793 0
326.19 19.8835 0
327.476 22.0159 0
326.225 24.1689 0
324.938 22.0366 0
326.207 22.0262 0
327.459 19.8731 0
329.997 19.8524 0
330.032 24.1378 0
327.494 24.1586 0
328.728 19.8628 0
330.015 21.9951 0
328.763 24.1482 0
327.476 22.0159 0
328.746 22.0055 0
329.997 19.8524 0
332.535 19.8315 0
332.571 24.117 0
330.032 24.1378 0
331.266 19.842 0
332.553 21.9742 0
331.301 24.1274 0
330.015 21.9951 0
331.284 21.9847 0
332.535 19.8315 0
335.073 19.8106 0
335.109 24.096 0
332.571 24.117 0
333.804 19.8211 0
335.091 21.9533 0
333.84 24.1065 0
332.553 21.9742 0
333.822 21.9638 0
335.073 19.8106 0
337.612 19.7896 0
337.647 24.075 0
335.109 24.096 0
336.343 19.8001 0
337.629 21.9323 0
336.378 24.0855 0
335.091 21.9533 0
336.36 21.9428 0
337.612 19.7896 0
340.15 19.7685 0
340.185 24.0539 0
337.647 24.075 0
338.881 19.7791 0
340.168 21.9112 0
338.916 24.0645 0
337.629 21.9323 0
338.899 21.9218 0
340.15 19.7685 0
342.688 19.7473 0
342.724 24.0328 0
340.185 24.0539 0
341.419 19.7579 0
342.706 21.8901 0
341.455 24.0434 0
340.168 21.9112 0
341.437 21.9007 0
342.688 19.7473 0
345.226 19.7261 0
345.262 24.0115 0
342.724 24.0328 0
343.957 19.7367 0
345.244 21.8688 0
343.993 24.0222 0
342.706 21.8901 0
343.975 21.8795 0
345.226 19.7261 0
347.764 19.7048 0
347.8 23.9902 0
345.262 24.0115 0
346.495 19.7155 0
347.782 21.8475 0
346.531 24.0009 0
345.244 21.8688 0
346.513 21.8582 0
347.764 19.7048 0
350.303 19.6834 0
350.339 23.9688 0
347.8 23.9902 0
349.033 19.6941 0
350.321 21.8261 0
349.069 23.9795 0
347.782 21.8475 0
349.051 21.8368 0
350.303 19.6834 0
352.841 19.6619 0
352.877 23.9474 0
350.339 23.9688 0
351.572 19.6727 0
352.859 21.8047 0
351.608 23.9581 0
350.321 21.8261 0
351.59 21.8154 0
352.841 19.6619 0
355.379 19.6404 0
355.415 23.9259 0
352.877 23.9474 0
354.11 19.6512 0
355.397 21.7831 0
354.146 23.9366 0
352.859 21.8047 0
354.128 21.7939 0
355.379 19.6404 0
357.917 19.6188 0
357.953 23.9043 0
355.415 23.9259 0
356.648 19.6296 0
357.935 21.7616 0
356.684 23.9151 0
355.397 21.7831 0
356.666 21.7724 0
357.917 19.6188 0
360.455 19.5972 0
360.492 23.8826 0
357.953 23.9043 0
359.186 19.608 0
360.473 21.7399 0
359.223 23.8934 0
357.935 21.7616 0
359.204 21.7507 0
360.455 19.5972 0
362.993 19.5754 0
363.03 23.8609 0
360.492 23.8826 0
361.724 19.5863 0
363.012 21.7182 0
361.761 23.8718 0
360.473 21.7399 0
361.743 21.729 0
362.993 19.5754 0
365.531 19.5536 0
365.568 23.8391 0
363.03 23.8609 0
364.262 19.5645 0
365.55 21.6964 0
364.299 23.85 0
363.012 21.7182 0
364.281 21.7073 0
365.531 19.5536 0
368.07 19.5318 0
368.106 23.8172 0
365.568 23.8391 0
366.8 19.5427 0
368.088 21.6745 0
366.837 23.8282 0
365.55 21.6964 0
366.819 21.6854 0
368.07 19.5318 0
370.608 19.5099 0
370.645 23.7953 0
368.106 23.8172 0
369.339 19.5208 0
370.626 21.6526 0
369.376 23.8063 0
368.088 21.6745 0
369.357 21.6636 0
370.608 19.5099 0
373.146 19.4879 0
373.183 23.7733 0
370.645 23.7953 0
371.877 19.4989 0
373.164 21.6306 0
371.914 23.7843 0
370.626 21.6526 0
371.895 21.6416 0
373.146 19.4879 0
375.684 19.4658 0
375.721 23.7513 0
373.183 23.7733 0
374.415 19.4769 0
375.703 21.6086 0
374.452 23.7623 0
373.164 21.6306 0
374.433 21.6196 0
375.684 19.4658 0
378.222 19.4437 0
378.259 23.7292 0
375.721 23.7513 0
376.953 19.4548 0
378.241 21.5865 0
376.99 23.7402 0
375.703 21.6086 0
376.972 21.5975 0
378.222 19.4437 0
380.76 19.4216 0
380.798 23.707 0
378.259 23.7292 0
379.491 19.4327 0
380.779 21.5643 0
379.528 23.7181 0
378.241 21.5865 0
379.51 21.5754 0
380.76 19.4216 0
383.298 19.3993 0
383.336 23.6848 0
380.798 23.707 0
382.029 19.4105 0
383.317 21.5421 0
382.067 23.6959 0
380.779 21.5643 0
382.048 21.5532 0
383.298 19.3993 0
385.836 19.3771 0
385.874 23.6625 0
383.336 23.6848 0
384.567 19.3882 0
385.855 21.5198 0
384.605 23.6737 0
383.317 21.5421 0
384.586 21.531 0
385.836 19.3771 0
388.375 19.3547 0
388.412 23.6402 0
385.874 23.6625 0
387.105 19.3659 0
388.393 21.4975 0
387.143 23.6514 0
385.855 21.5198 0
387.124 21.5087 0
388.375 19.3547 0
390.913 19.3324 0
390.95 23.6178 0
388.412 23.6402 0
389.644 19.3436 0
390.932 21.4751 0
389.681 23.629 0
388.393 21.4975 0
389.662 21.4863 0
390.913 19.3324 0
393.451 19.3099 0
393.489 23.5954 0
390.95 23.6178 0
392.182 19.3212 0
393.47 21.4527 0
392.22 23.6066 0
390.932 21.4751 0
392.201 21.4639 0
393.451 19.3099 0
395.989 19.2874 0
396.027 23.5729 0
393.489 23.5954 0
394.72 19.2987 0
396.008 21.4302 0
394.758 23.5842 0
393.47 21.4527 0
394.739 21.4414 0
395.989 19.2874 0
398.527 19.2649 0
398.565 23.5504 0
396.027 23.5729 0
397.258 19.2762 0
398.546 21.4076 0
397.296 23.5616 0
396.008 21.4302 0
397.277 21.4189 0
398.527 19.2649 0
401.065 19.2423 0
401.103 23.5278 0
398.565 23.5504 0
399.796 19.2536 0
401.084 21.3851 0
399.834 23.5391 0
398.546 21.4076 0
399.815 21.3964 0
401.065 19.2423 0
403.603 19.2197 0
403.641 23.5052 0
401.103 23.5278 0
402.334 19.231 0
403.622 21.3624 0
402.372 23.5165 0
401.084 21.3851 0
402.353 21.3738 0
403.603 19.2197 0
406.141 19.197 0
406.179 23.4825 0
403.641 23.5052 0
404.872 19.2084 0
406.16 21.3398 0
404.91 23.4938 0
403.622 21.3624 0
404.891 21.3511 0
406.141 19.197 0
408.679 19.1743 0
408.718 23.4598 0
406.179 23.4825 0
407.41 19.1857 0
408.698 21.317 0
407.449 23.4711 0
406.16 21.3398 0
407.429 21.3284 0
408.679 19.1743 0
411.217 19.1515 0
411.256 23.437 0
408.718 23.4598 0
409.948 19.1629 0
411.237 21.2943 0
409.987 23.4484 0
408.698 21.317 0
409.968 21.3057 0
411.217 19.1515 0
413.755 19.1287 0
413.794 23.4142 0
411.256 23.437 0
412.486 19.1401 0
413.775 21.2715 0
412.525 23.4256 0
411.237 21.2943 0
412.506 21.2829 0
413.755 19.1287 0
416.294 19.1059 0
416.332 23.3914 0
413.794 23.4142 0
415.024 19.1173 0
416.313 21.2486 0
415.063 23.4028 0
413.775 21.2715 0
415.044 21.2601 0
416.294 19.1059 0
418.832 19.083 0
418.87 23.3685 0
416.332 23.3914 0
417.563 19.0944 0
418.851 21.2257 0
417.601 23.3799 0
416.313 21.2486 0
417.582 21.2372 0
418.832 19.083 0
421.37 19.0601 0
421.408 23.3455 0
418.87 23.3685 0
420.101 19.0715 0
421.389 21.2028 0
420.139 23.357 0
418.851 21.2257 0
420.12 21.2143 0
421.37 19.0601 0
423.908 19.0371 0
423.946 23.3226 0
421.408 23.3455 0
422.639 19.0486 0
423.927 21.1798 0
422.677 23.3341 0
421.389 21.2028 0
422.658 21.1913 0
423.908 19.0371 0
426.446 19.0141 0
426.485 23.2996 0
423.946 23.3226 0
425.177 19.0256 0
426.465 21.1568 0
425.216 23.3111 0
423.927 21.1798 0
425.196 21.1684 0
426.446 19.0141 0
428.984 18.9911 0
429.023 23.2766 0
426.485 23.2996 0
427.715 19.0026 0
429.003 21.1338 0
427.754 23.2881 0
426.465 21.1568 0
427.734 21.1453 0
428.984 18.9911 0
431.522 18.968 0
431.561 23.2535 0
429.023 23.2766 0
430.253 18.9795 0
431.541 21.1107 0
430.292 23.265 0
429.003 21.1338 0
430.272 21.1223 0
431.522 18.968 0
434.06 18.9449 0
434.099 23.2304 0
431.561 23.2535 0
432.791 18.9565 0
434.079 21.0876 0
432.83 23.2419 0
431.541 21.1107 0
432.81 21.0992 0
434.06 18.9449 0
436.598 18.9218 0
436.637 23.2073 0
434.099 23.2304 0
435.329 18.9333 0
436.617 21.0645 0
435.368 23.2188 0
434.079 21.0876 0
435.348 21.0761 0
436.598 18.9218 0
439.136 18.8986 0
439.175 23.1841 0
436.637 23.2073 0
437.867 18.9102 0
439.156 21.0413 0
437.906 23.1957 0
436.617 21.0645 0
437.886 21.0529 0
439.136 18.8986 0
441.674 18.8754 0
441.713 23.1609 0
439.175 23.1841 0
440.405 18.887 0
441.694 21.0182 0
440.444 23.1725 0
439.156 21.0413 0
440.425 21.0298 0
441.674 18.8754 0
444.212 18.8522 0
444.251 23.1377 0
441.713 23.1609 0
442.943 18.8638 0
444.232 20.9949 0
442.982 23.1493 0
441.694 21.0182 0
442.963 21.0066 0
444.212 18.8522 0
446.75 18.8289 0
446.789 23.1144 0
444.251 23.1377 0
445.481 18.8406 0
446.77 20.9717 0
445.52 23.1261 0
444.232 20.9949 0
445.501 20.9833 0
446.75 18.8289 0
449.288 18.8057 0
449.327 23.0912 0
446.789 23.1144 0
448.019 18.8173 0
449.308 20.9484 0
448.058 23.1028 0
446.77 20.9717 0
448.039 20.9601 0
449.288 18.8057 0
451.826 18.7824 0
451.865 23.0679 0
449.327 23.0912 0
450.557 18.794 0
451.846 20.9251 0
450.596 23.0795 0
449.308 20.9484 0
450.577 20.9368 0
451.826 18.7824 0
454.364 18.7591 0
454.404 23.0446 0
451.865 23.0679 0
453.095 18.7707 0
454.384 20.9018 0
453.134 23.0562 0
451.846 20.9251 0
453.115 20.9135 0
454.364 18.7591 0
456.902 18.7357 0
456.942 23.0212 0
454.404 23.0446 0
455.633 18.7474 0
456.922 20.8785 0
455.673 23.0329 0
454.384 20.9018 0
455.653 20.8901 0
456.902 18.7357 0
459.44 18.7124 0
459.48 22.9979 0
456.942 23.0212 0
458.171 18.724 0
459.46 20.8551 0
458.211 23.0095 0
456.922 20.8785 0
458.191 20.8668 0
459.44 18.7124 0
461.978 18.689 0
462.018 22.9745 0
459.48 22.9979 0
460.709 18.7007 0
461.998 20.8317 0
460.749 22.9862 0
459.46 20.8551 0
460.729 20.8434 0
461.978 18.689 0
464.516 18.6656 0
464.556 22.9511 0
462.018 22.9745 0
463.247 18.6773 0
464.536 20.8083 0
463.287 22.9628 0
461.998 20.8317 0
463.267 20.82 0
464.516 18.6656 0
467.054 18.6422 0
467.094 22.9277 0
464.556 22.9511 0
465.785 18.6539 0
467.074 20.7849 0
465.825 22.9394 0
464.536 20.8083 0
465.805 20.7966 0
467.054 18.6422 0
469.592 18.6187 0
469.632 22.9042 0
467.094 22.9277 0
468.323 18.6304 0
469.612 20.7615 0
468.363 22.9159 0
467.074 20.7849 0
468.343 20.7732 0
469.592 18.6187 0
472.13 18.5953 0
472.17 22.8808 0
469.632 22.9042 0
470.861 18.607 0
472.15 20.738 0
470.901 22.8925 0
469.612 20.7615 0
470.881 20.7498 0
472.13 18.5953 0
474.668 18.5718 0
474.708 22.8573 0
472.17 22.8808 0
473.399 18.5835 0
474.688 20.7146 0
473.439 22.8691 0
472.15 20.738 0
473.419 20.7263 0
474.668 18.5718 0
477.206 18.5483 0
477.246 22.8339 0
474.708 22.8573 0
475.937 18.5601 0
477.226 20.6911 0
475.977 22.8456 0
474.688 20.7146 0
475.957 20.7028 0
477.206 18.5483 0
479.744 18.5249 0
479.784 22.8104 0
477.246 22.8339 0
478.475 18.5366 0
479.764 20.6676 0
478.515 22.8221 0
477.226 20.6911 0
478.495 20.6794 0
479.744 18.5249 0
482.282 18.5014 0
482.322 22.7869 0
479.784 22.8104 0
481.013 18.5131 0
482.302 20.6441 0
481.053 22.7986 0
479.764 20.6676 0
481.033 20.6559 0
482.282 18.5014 0
484.82 18.4779 0
484.86 22.7634 0
482.322 22.7869 0
483.551 18.4896 0
484.84 20.6206 0
483.591 22.7751 0
482.302 20.6441 0
483.571 20.6324 0
484.82 18.4779 0
487.358 18.4544 0
487.398 22.7399 0
484.86 22.7634 0
486.089 18.4661 0
487.378 20.5971 0
486.129 22.7516 0
484.84 20.6206 0
486.109 20.6089 0
487.358 18.4544 0
489.896 18.4308 0
489.936 22.7164 0
487.398 22.7399 0
488.627 18.4426 0
489.916 20.5736 0
488.667 22.7281 0
487.378 20.5971 0
488.647 20.5854 0
489.896 18.4308 0
492.434 18.4073 0
492.474 22.6929 0
489.936 22.7164 0
491.165 18.4191 0
492.454 20.5501 0
491.205 22.7046 0
489.916 20.5736 0
491.185 20.5618 0
492.434 18.4073 0
494.972 18.3838 0
495.012 22.6693 0
492.474 22.6929 0
493.703 18.3956 0
494.992 20.5266 0
493.743 22.6811 0
492.454 20.5501 0
493.723 20.5383 0
494.972 18.3838 0
497.51 18.3603 0
497.55 22.6458 0
495.012 22.6693 0
496.241 18.372 0
497.53 20.503 0
496.281 22.6576 0
494.992 20.5266 0
496.261 20.5148 0
497.51 18.3603 0
500.048 18.3368 0
500.088 22.6222 0
497.55 22.6458 0
498.779 18.3485 0
500.068 20.4795 0
498.819 22.634 0
497.53 20.503 0
498.799 20.4913 0
0 25.7143 0
2.53899 25.714 0
2.53961 29.9992 0
0 30 0
1.26948 25.7142 0
2.53923 27.8567 0
1.26987 29.9995 0
0 27.8571 0
1.26959 27.8569 0
2.53899 25.714 0
5.07805 25.7135 0
5.07901 29.9987 0
2.53961 29.9992 0
3.80851 25.7138 0
5.07851 27.8561 0
3.80931 29.999 0
2.53923 27.8567 0
3.80887 27.8564 0
5.07805 25.7135 0
7.61712 25.7129 0
7.61842 29.998 0
5.07901 29.9987 0
6.34759 25.7132 0
7.61777 27.8554 0
6.34871 29.9983 0
5.07851 27.8561 0
6.34814 27.8558 0
7.61712 25.7129 0
10.1562 25.712 0
10.1578 29.9971 0
7.61842 29.998 0
8.88666 25.7124 0
10.157 27.8546 0
8.88813 29.9976 0
7.61777 27.8554 0
8.88739 27.855 0
10.1562 25.712 0
12.6952 25.7109 0
12.6973 29.996 0
10.1578 29.9971 0
11.4257 25.7115 0
12.6963 27.8535 0
11.4276 29.9966 0
10.157 27.8546 0
11.4266 27.854 0
12.6952 25.7109 0
15.2343 25.7096 0
15.2367 29.9947 0
12.6973 29.996 0
13.9648 25.7103 0
15.2355 27.8521 0
13.967 29.9954 0
12.6963 27.8535 0
13.9659 27.8528 0
15.2343 25.7096 0
17.7733 25.708 0
17.7761 29.9931 0
15.2367 29.9947 0
16.5038 25.7088 0
17.7747 27.8506 0
16.5064 29.9939 0
15.2355 27.8521 0
16.5051 27.8514 0
17.7733 25.708 0
20.3124 25.7062 0
20.3156 29.9914 0
17.7761 29.9931 0
19.0429 25.7072 0
20.314 27.8488 0
19.0458 29.9923 0
17.7747 27.8506 0
19.0444 27.8497 0
20.3124 25.7062 0
22.8514 25.7042 0
22.855 29.9894 0
20.3156 29.9914 0
21.5819 25.7053 0
22.8532 27.8468 0
21.5853 29.9904 0
20.314 27.8488 0
21.5836 27.8478 0
22.8514 25.7042 0
25.3904 25.702 0
25.3944 29.9871 0
22.855 29.9894 0
24.1209 25.7031 0
25.3924 27.8446 0
24.1247 29.9883 0
22.8532 27.8468 0
24.1228 27.8457 0
25.3904 25.702 0
27.9295 25.6995 0
27.9338 29.9847 0
25.3944 29.9871 0
26.66 25.7008 0
27.9316 27.8421 0
26.6641 29.9859 0
25.3924 27.8446 0
26.662 27.8434 0
27.9295 25.6995 0
30.4685 25.6968 0
30.4732 29.982 0
27.9338 29.9847 0
29.199 25.6982 0
30.4708 27.8394 0
29.2035 29.9833 0
27.9316 27.8421 0
29.2012 27.8408 0
30.4685 25.6968 0
33.0075 25.6939 0
33.0126 29.9791 0
30.4732 29.982 0
31.738 25.6954 0
33.01 27.8365 0
31.7429 29.9805 0
30.4708 27.8394 0
31.7404 27.838 0
33.0075 25.6939 0
35.5465 25.6908 0
35.552 29.9759 0
33.0126 29.9791 0
34.277 25.6924 0
35.5492 27.8334 0
34.2823 29.9775 0
33.01 27.8365 0
34.2796 27.835 0
35.5465 25.6908 0
38.0855 25.6874 0
38.0913 29.9726 0
35.552 29.9759 0
36.816 25.6891 0
38.0884 27.83 0
36.8216 29.9743 0
35.5492 27.8334 0
36.8188 27.8317 0
38.0855 25.6874 0
40.6245 25.6838 0
40.6307 29.969 0
38.0913 29.9726 0
39.355 25.6857 0
40.6276 27.8264 0
39.361 29.9708 0
38.0884 27.83 0
39.358 27.8283 0
40.6245 25.6838 0
43.1635 25.68 0
43.1701 29.9652 0
40.6307 29.969 0
41.894 25.682 0
43.1668 27.8226 0
41.9004 29.9671 0
40.6276 27.8264 0
41.8972 27.8246 0
43.1635 25.68 0
45.7025 25.676 0
45.7094 29.9612 0
43.1701 29.9652 0
44.433 25.6781 0
45.7059 27.8186 0
44.4397 29.9632 0
43.1668 27.8226 0
44.4364 27.8207 0
45.7025 25.676 0
48.2415 25.6718 0
48.2488 29.9569 0
45.7094 29.9612 0
46.972 25.6739 0
48.2451 27.8144 0
46.9791 29.9591 0
45.7059 27.8186 0
46.9755 27.8165 0
48.2415 25.6718 0
50.7804 25.6673 0
50.7881 29.9525 0
48.2488 29.9569 0
49.5109 25.6696 0
50.7843 27.8099 0
49.5184 29.9547 0
48.2451 27.8144 0
49.5147 27.8122 0
50.7804 25.6673 0
53.3194 25.6627 0
53.3274 29.9478 0
50.7881 29.9525 0
52.0499 25.665 0
53.3234 27.8053 0
52.0578 29.9502 0
50.7843 27.8099 0
52.0538 27.8076 0
53.3194 25.6627 0
55.8584 25.6578 0
55.8667 29.943 0
53.3274 29.9478 0
54.5889 25.6603 0
55.8626 27.8004 0
54.5971 29.9454 0
53.3234 27.8053 0
54.593 27.8029 0
55.8584 25.6578 0
58.3973 25.6527 0
58.4061 29.9379 0
55.8667 29.943 0
57.1278 25.6553 0
58.4017 27.7953 0
57.1364 29.9404 0
55.8626 27.8004 0
57.1321 27.7979 0
58.3973 25.6527 0
60.9363 25.6474 0
60.9454 29.9326 0
58.4061 29.9379 0
59.6668 25.6501 0
60.9408 27.79 0
59.6757 29.9353 0
58.4017 27.7953 0
59.6713 27.7927 0
60.9363 25.6474 0
63.4752 25.6419 0
63.4847 29.9271 0
60.9454 29.9326 0
62.2057 25.6447 0
63.4799 27.7845 0
62.215 29.9299 0
60.9408 27.79 0
62.2104 27.7873 0
63.4752 25.6419 0
66.0142 25.6362 0
66.024 29.9214 0
63.4847 29.9271 0
64.7447 25.6391 0
66.0191 27.7788 0
64.7543 29.9242 0
63.4799 27.7845 0
64.7495 27.7817 0
66.0142 25.6362 0
68.5531 25.6303 0
68.5632 29.9154 0
66.024 29.9214 0
67.2836 25.6333 0
68.5582 27.7729 0
67.2936 29.9184 0
66.0191 27.7788 0
67.2886 27.7759 0
68.5531 25.6303 0
71.092 25.6241 0
71.1025 29.9093 0
68.5632 29.9154 0
69.8226 25.6272 0
71.0973 27.7667 0
69.8329 29.9124 0
68.5582 27.7729 0
69.8277 27.7698 0
71.092 25.6241 0
73.631 25.6178 0
73.6418 29.903 0
71.1025 29.9093 0
72.3615 25.621 0
73.6364 27.7604 0
72.3722 29.9062 0
71.0973 27.7667 0
72.3668 27.7636 0
73.631 25.6178 0
76.1699 25.6113 0
76.1811 29.8964 0
73.6418 29.903 0
74.9004 25.6146 0
76.1755 27.7539 0
74.9114 29.8997 0
73.6364 27.7604 0
74.9059 27.7572 0
76.1699 25.6113 0
78.7088 25.6045 0
78.7203 29.8897 0
76.1811 29.8964 0
77.4393 25.6079 0
78.7145 27.7471 0
77.4507 29.8931 0
76.1755 27.7539 0
77.445 27.7505 0
78.7088 25.6045 0
81.2477 25.5976 0
81.2596 29.8828 0
78.7203 29.8897 0
79.9782 25.6011 0
81.2536 27.7402 0
79.9899 29.8863 0
78.7145 27.7471 0
79.9841 27.7437 0
81.2477 25.5976 0
83.7866 25.5904 0
83.7988 29.8756 0
81.2596 29.8828 0
82.5171 25.594 0
83.7927 27.733 0
82.5292 29.8792 0
81.2536 27.7402 0
82.5232 27.7366 0
83.7866 25.5904 0
86.3255 25.5831 0
86.338 29.8683 0
83.7988 29.8756 0
85.056 25.5868 0
86.3317 27.7257 0
85.0684 29.872 0
83.7927 27.733 0
85.0622 27.7294 0
86.3255 25.5831 0
88.8644 25.5756 0
88.8772 29.8607 0
86.338 29.8683 0
87.5949 25.5793 0
88.8708 27.7182 0
87.6076 29.8645 0
86.3317 27.7257 0
87.6013 27.722 0
88.8644 25.5756 0
91.4033 25.5678 0
91.4165 29.853 0
88.8772 29.8607 0
90.1338 25.5717 0
91.4099 27.7104 0
90.1469 29.8569 0
88.8708 27.7182 0
90.1403 27.7143 0
91.4033 25.5678 0
93.9421 25.5599 0
93.9557 29.8451 0
91.4165 29.853 0
92.6727 25.5639 0
93.9489 27.7025 0
92.6861 29.8491 0
91.4099 27.7104 0
92.6794 27.7065 0
93.9421 25.5599 0
96.481 25.5518 0
96.4949 29.837 0
93.9557 29.8451 0
95.2116 25.5559 0
96.4879 27.6944 0
95.2253 29.841 0
93.9489 27.7025 0
95.2184 27.6985 0
96.481 25.5518 0
99.0199 25.5435 0
99.0341 29.8287 0
96.4949 29.837 0
97.7505 25.5476 0
99.027 27.6861 0
97.7645 29.8328 0
96.4879 27.6944 0
97.7575 27.6903 0
99.0199 25.5435 0
101.559 25.5349 0
101.573 29.8201 0
99.0341 29.8287 0
100.289 25.5392 0
101.566 27.6776 0
100.304 29.8244 0
99.027 27.6861 0
100.296 27.6818 0
101.559 25.5349 0
104.098 25.5262 0
104.112 29.8115 0
101.573 29.8201 0
102.828 25.5306 0
104.105 27.6689 0
102.843 29.8158 0
101.566 27.6776 0
102.835 27.6732 0
104.098 25.5262 0
106.636 25.5174 0
106.652 29.8026 0
104.112 29.8115 0
105.367 25.5218 0
106.644 27.66 0
105.382 29.807 0
104.105 27.6689 0
105.375 27.6644 0
106.636 25.5174 0
109.175 25.5083 0
109.191 29.7935 0
106.652 29.8026 0
107.906 25.5128 0
109.183 27.6509 0
107.921 29.7981 0
106.644 27.66 0
107.914 27.6555 0
109.175 25.5083 0
111.714 25.499 0
111.73 29.7842 0
109.191 29.7935 0
110.445 25.5037 0
111.722 27.6417 0
110.46 29.7889 0
109.183 27.6509 0
110.453 27.6463 0
111.714 25.499 0
114.253 25.4896 0
114.269 29.7748 0
111.73 29.7842 0
112.984 25.4943 0
114.261 27.6322 0
112.999 29.7795 0
111.722 27.6417 0
112.992 27.637 0
114.253 25.4896 0
116.792 25.4799 0
116.808 29.7652 0
114.269 29.7748 0
115.522 25.4848 0
116.8 27.6226 0
115.539 29.77 0
114.261 27.6322 0
115.53 27.6274 0
116.792 25.4799 0
119.331 25.4701 0
119.347 29.7554 0
116.808 29.7652 0
118.061 25.4751 0
119.339 27.6128 0
118.078 29.7603 0
116.8 27.6226 0
118.069 27.6177 0
119.331 25.4701 0
121.869 25.4601 0
121.886 29.7454 0
119.347 29.7554 0
120.6 25.4652 0
121.878 27.6028 0
120.617 29.7504 0
119.339 27.6128 0
120.608 27.6078 0
121.869 25.4601 0
124.408 25.45 0
124.426 29.7352 0
121.886 29.7454 0
123.139 25.4551 0
124.417 27.5926 0
123.156 29.7403 0
121.878 27.6028 0
123.147 27.5977 0
124.408 25.45 0
126.947 25.4396 0
126.965 29.7248 0
124.426 29.7352 0
125.678 25.4448 0
126.956 27.5822 0
125.695 29.73 0
124.417 27.5926 0
125.686 27.5874 0
126.947 25.4396 0
129.486 25.4291 0
129.504 29.7143 0
126.965 29.7248 0
128.216 25.4344 0
129.495 27.5717 0
128.234 29.7196 0
126.956 27.5822 0
128.225 27.577 0
129.486 25.4291 0
132.025 25.4184 0
132.043 29.7036 0
129.504 29.7143 0
130.755 25.4237 0
132.034 27.561 0
130.773 29.709 0
129.495 27.5717 0
130.764 27.5664 0
132.025 25.4184 0
134.563 25.4075 0
134.582 29.6927 0
132.043 29.7036 0
133.294 25.413 0
134.573 27.5501 0
133.312 29.6982 0
132.034 27.561 0
133.303 27.5556 0
134.563 25.4075 0
137.102 25.3964 0
137.121 29.6817 0
134.582 29.6927 0
135.833 25.402 0
137.112 27.5391 0
135.851 29.6872 0
134.573 27.5501 0
135.842 27.5446 0
137.102 25.3964 0
139.641 25.3852 0
139.66 29.6704 0
137.121 29.6817 0
138.372 25.3908 0
139.651 27.5278 0
138.391 29.6761 0
137.112 27.5391 0
138.381 27.5335 0
139.641 25.3852 0
142.18 25.3738 0
142.199 29.659 0
139.66 29.6704 0
140.91 25.3795 0
142.189 27.5164 0
140.93 29.6647 0
139.651 27.5278 0
140.92 27.5221 0
142.18 25.3738 0
144.719 25.3622 0
144.738 29.6474 0
142.199 29.659 0
143.449 25.368 0
144.728 27.5049 0
143.469 29.6533 0
142.189 27.5164 0
143.459 27.5107 0
144.719 25.3622 0
147.257 25.3505 0
147.277 29.6357 0
144.738 29.6474 0
145.988 25.3564 0
147.267 27.4931 0
146.008 29.6416 0
144.728 27.5049 0
145.998 27.499 0
147.257 25.3505 0
149.796 25.3386 0
149.816 29.6238 0
147.277 29.6357 0
148.527 25.3445 0
149.806 27.4812 0
148.547 29.6298 0
147.267 27.4931 0
148.537 27.4872 0
149.796 25.3386 0
152.335 25.3265 0
152.355 29.6117 0
149.816 29.6238 0
151.065 25.3325 0
152.345 27.4691 0
151.086 29.6178 0
149.806 27.4812 0
151.076 27.4752 0
152.335 25.3265 0
154.874 25.3142 0
154.894 29.5995 0
152.355 29.6117 0
153.604 25.3204 0
154.884 27.4569 0
153.625 29.6056 0
152.345 27.4691 0
153.614 27.463 0
154.874 25.3142 0
157.412 25.3018 0
157.433 29.5871 0
154.894 29.5995 0
156.143 25.308 0
157.423 27.4445 0
156.164 29.5933 0
154.884 27.4569 0
156.153 27.4507 0
157.412 25.3018 0
159.951 25.2892 0
159.972 29.5745 0
157.433 29.5871 0
158.682 25.2956 0
159.962 27.4319 0
158.703 29.5808 0
157.423 27.4445 0
158.692 27.4382 0
159.951 25.2892 0
162.49 25.2765 0
162.511 29.5618 0
159.972 29.5745 0
161.22 25.2829 0
162.5 27.4192 0
161.242 29.5681 0
159.962 27.4319 0
161.231 27.4255 0
162.49 25.2765 0
165.028 25.2636 0
165.05 29.5489 0
162.511 29.5618 0
163.759 25.2701 0
165.039 27.4063 0
163.781 29.5553 0
162.5 27.4192 0
163.77 27.4127 0
165.028 25.2636 0
167.567 25.2506 0
167.589 29.5358 0
165.05 29.5489 0
166.298 25.2571 0
167.578 27.3932 0
166.32 29.5424 0
165.039 27.4063 0
166.309 27.3997 0
167.567 25.2506 0
170.106 25.2373 0
170.128 29.5226 0
167.589 29.5358 0
168.836 25.244 0
170.117 27.38 0
168.859 29.5292 0
167.578 27.3932 0
168.848 27.3866 0
170.106 25.2373 0
172.645 25.224 0
172.667 29.5092 0
170.128 29.5226 0
171.375 25.2307 0
172.656 27.3666 0
171.398 29.5159 0
170.117 27.38 0
171.386 27.3733 0
172.645 25.224 0
175.183 25.2104 0
175.206 29.4957 0
172.667 29.5092 0
173.914 25.2172 0
175.195 27.3531 0
173.937 29.5025 0
172.656 27.3666 0
173.925 27.3599 0
175.183 25.2104 0
177.722 25.1967 0
177.745 29.482 0
175.206 29.4957 0
176.453 25.2036 0
177.733 27.3394 0
176.476 29.4889 0
175.195 27.3531 0
176.464 27.3463 0
177.722 25.1967 0
180.261 25.1829 0
180.284 29.4682 0
177.745 29.482 0
178.991 25.1898 0
180.272 27.3256 0
179.015 29.4751 0
177.733 27.3394 0
179.003 27.3325 0
180.261 25.1829 0
182.799 25.1689 0
182.823 29.4542 0
180.284 29.4682 0
181.53 25.1759 0
182.811 27.3116 0
181.553 29.4612 0
180.272 27.3256 0
181.542 27.3186 0
182.799 25.1689 0
185.338 25.1548 0
185.362 29.44 0
182.823 29.4542 0
184.069 25.1619 0
185.35 27.2974 0
184.092 29.4471 0
182.811 27.3116 0
184.08 27.3045 0
185.338 25.1548 0
187.877 25.1405 0
187.901 29.4257 0
185.362 29.44 0
186.607 25.1476 0
187.889 27.2831 0
186.631 29.4329 0
185.35 27.2974 0
186.619 27.2903 0
187.877 25.1405 0
190.415 25.126 0
190.44 29.4113 0
187.901 29.4257 0
189.146 25.1333 0
190.427 27.2687 0
189.17 29.4185 0
187.889 27.2831 0
189.158 27.2759 0
190.415 25.126 0
192.954 25.1115 0
192.979 29.3967 0
190.44 29.4113 0
191.685 25.1188 0
192.966 27.2541 0
191.709 29.404 0
190.427 27.2687 0
191.697 27.2614 0
192.954 25.1115 0
195.493 25.0967 0
195.517 29.382 0
192.979 29.3967 0
194.223 25.1041 0
195.505 27.2394 0
194.248 29.3894 0
192.966 27.2541 0
194.236 27.2468 0
195.493 25.0967 0
198.031 25.0818 0
198.056 29.3671 0
195.517 29.382 0
196.762 25.0893 0
198.044 27.2245 0
196.787 29.3746 0
195.505 27.2394 0
196.774 27.2319 0
198.031 25.0818 0
200.57 25.0668 0
200.595 29.3521 0
198.056 29.3671 0
199.3 25.0743 0
200.583 27.2095 0
199.326 29.3596 0
198.044 27.2245 0
199.313 27.217 0
200.57 25.0668 0
203.108 25.0516 0
203.134 29.3369 0
200.595 29.3521 0
201.839 25.0592 0
203.121 27.1943 0
201.865 29.3445 0
200.583 27.2095 0
201.852 27.2019 0
203.108 25.0516 0
205.647 25.0363 0
205.673 29.3216 0
203.134 29.3369 0
204.378 25.044 0
205.66 27.179 0
204.404 29.3293 0
203.121 27.1943 0
204.391 27.1867 0
205.647 25.0363 0
208.186 25.0209 0
208.212 29.3062 0
205.673 29.3216 0
206.916 25.0286 0
208.199 27.1635 0
206.942 29.3139 0
205.66 27.179 0
206.929 27.1713 0
208.186 25.0209 0
210.724 25.0053 0
210.751 29.2906 0
208.212 29.3062 0
209.455 25.0131 0
210.737 27.1479 0
209.481 29.2984 0
208.199 27.1635 0
209.468 27.1558 0
210.724 25.0053 0
213.263 24.9896 0
213.29 29.2748 0
210.751 29.2906 0
211.994 24.9974 0
213.276 27.1322 0
212.02 29.2827 0
210.737 27.1479 0
212.007 27.1401 0
213.263 24.9896 0
215.801 24.9737 0
215.828 29.259 0
213.29 29.2748 0
214.532 24.9816 0
215.815 27.1164 0
214.559 29.2669 0
213.276 27.1322 0
214.546 27.1243 0
215.801 24.9737 0
218.34 24.9577 0
218.367 29.243 0
215.828 29.259 0
217.071 24.9657 0
218.354 27.1004 0
217.098 29.251 0
215.815 27.1164 0
217.084 27.1084 0
218.34 24.9577 0
220.879 24.9416 0
220.906 29.2268 0
218.367 29.243 0
219.609 24.9496 0
220.892 27.0842 0
219.637 29.2349 0
218.354 27.1004 0
219.623 27.0923 0
220.879 24.9416 0
223.417 24.9253 0
223.445 29.2106 0
220.906 29.2268 0
222.148 24.9334 0
223.431 27.068 0
222.175 29.2187 0
220.892 27.0842 0
222.162 27.0761 0
223.417 24.9253 0
225.956 24.9089 0
225.984 29.1942 0
223.445 29.2106 0
224.687 24.9171 0
225.97 27.0516 0
224.714 29.2024 0
223.431 27.068 0
224.7 27.0598 0
225.956 24.9089 0
228.494 24.8924 0
228.522 29.1777 0
225.984 29.1942 0
227.225 24.9006 0
228.508 27.035 0
227.253 29.1859 0
225.97 27.0516 0
227.239 27.0433 0
228.494 24.8924 0
231.033 24.8757 0
231.061 29.161 0
228.522 29.1777 0
229.764 24.8841 0
231.047 27.0184 0
229.792 29.1693 0
228.508 27.035 0
229.778 27.0267 0
231.033 24.8757 0
233.571 24.8589 0
233.6 29.1442 0
231.061 29.161 0
232.302 24.8673 0
233.586 27.0016 0
232.331 29.1526 0
231.047 27.0184 0
232.316 27.01 0
233.571 24.8589 0
236.11 24.842 0
236.139 29.1273 0
233.6 29.1442 0
234.841 24.8505 0
236.124 26.9847 0
234.869 29.1358 0
233.586 27.0016 0
234.855 26.9931 0
236.11 24.842 0
238.649 24.825 0
238.677 29.1103 0
236.139 29.1273 0
237.379 24.8335 0
238.663 26.9676 0
237.408 29.1188 0
236.124 26.9847 0
237.394 26.9762 0
238.649 24.825 0
241.187 24.8078 0
241.216 29.0931 0
238.677 29.1103 0
239.918 24.8164 0
241.202 26.9505 0
239.947 29.1017 0
238.663 26.9676 0
239.932 26.9591 0
241.187 24.8078 0
243.726 24.7905 0
243.755 29.0758 0
241.216 29.0931 0
242.456 24.7992 0
243.74 26.9332 0
242.486 29.0845 0
241.202 26.9505 0
242.471 26.9418 0
243.726 24.7905 0
246.264 24.7731 0
246.294 29.0584 0
243.755 29.0758 0
244.995 24.7818 0
246.279 26.9158 0
245.024 29.0671 0
243.74 26.9332 0
245.01 26.9245 0
246.264 24.7731 0
248.803 24.7556 0
248.832 29.0409 0
246.294 29.0584 0
247.533 24.7643 0
248.818 26.8982 0
247.563 29.0496 0
246.279 26.9158 0
247.548 26.907 0
248.803 24.7556 0
251.341 24.7379 0
251.371 29.0232 0
248.832 29.0409 0
250.072 24.7467 0
251.356 26.8806 0
250.102 29.032 0
248.818 26.8982 0
250.087 26.8894 0
251.341 24.7379 0
253.88 24.7201 0
253.91 29.0054 0
251.371 29.0232 0
252.61 24.729 0
253.895 26.8628 0
252.64 29.0143 0
251.356 26.8806 0
252.625 26.8717 0
253.88 24.7201 0
256.418 24.7022 0
256.448 28.9876 0
253.91 29.0054 0
255.149 24.7112 0
256.433 26.8449 0
255.179 28.9965 0
253.895 26.8628 0
255.164 26.8539 0
256.418 24.7022 0
258.957 24.6842 0
258.987 28.9695 0
256.448 28.9876 0
257.687 24.6933 0
258.972 26.8269 0
257.718 28.9786 0
256.433 26.8449 0
257.703 26.8359 0
258.957 24.6842 0
261.495 24.6661 0
261.526 28.9514 0
258.987 28.9695 0
260.226 24.6752 0
261.511 26.8088 0
260.257 28.9605 0
258.972 26.8269 0
260.241 26.8179 0
261.495 24.6661 0
264.034 24.6479 0
264.065 28.9332 0
261.526 28.9514 0
262.764 24.657 0
264.049 26.7906 0
262.795 28.9423 0
261.511 26.8088 0
262.78 26.7997 0
264.034 24.6479 0
266.572 24.6295 0
266.603 28.9148 0
264.065 28.9332 0
265.303 24.6387 0
266.588 26.7722 0
265.334 28.924 0
264.049 26.7906 0
265.318 26.7814 0
266.572 24.6295 0
269.111 24.6111 0
269.142 28.8964 0
266.603 28.9148 0
267.841 24.6203 0
269.126 26.7537 0
267.873 28.9056 0
266.588 26.7722 0
267.857 26.763 0
269.111 24.6111 0
271.649 24.5925 0
271.68 28.8778 0
269.142 28.8964 0
270.38 24.6018 0
271.665 26.7352 0
270.411 28.8871 0
269.126 26.7537 0
270.396 26.7445 0
271.649 24.5925 0
274.188 24.5738 0
274.219 28.8592 0
271.68 28.8778 0
272.918 24.5832 0
274.203 26.7165 0
272.95 28.8685 0
271.665 26.7352 0
272.934 26.7259 0
274.188 24.5738 0
276.726 24.555 0
276.758 28.8404 0
274.219 28.8592 0
275.457 24.5645 0
276.742 26.6977 0
275.488 28.8498 0
274.203 26.7165 0
275.473 26.7071 0
276.726 24.555 0
279.264 24.5362 0
279.296 28.8215 0
276.758 28.8404 0
277.995 24.5456 0
279.28 26.6788 0
278.027 28.8309 0
276.742 26.6977 0
278.011 26.6883 0
279.264 24.5362 0
281.803 24.5172 0
281.835 28.8025 0
279.296 28.8215 0
280.534 24.5267 0
281.819 26.6598 0
280.566 28.812 0
279.28 26.6788 0
280.55 26.6693 0
281.803 24.5172 0
284.341 24.4981 0
284.374 28.7834 0
281.835 28.8025 0
283.072 24.5076 0
284.357 26.6407 0
283.104 28.7929 0
281.819 26.6598 0
283.088 26.6503 0
284.341 24.4981 0
286.88 24.4788 0
286.912 28.7642 0
284.374 28.7834 0
285.611 24.4885 0
286.896 26.6215 0
285.643 28.7738 0
284.357 26.6407 0
285.627 26.6311 0
286.88 24.4788 0
289.418 24.4595 0
289.451 28.7449 0
286.912 28.7642 0
288.149 24.4692 0
289.434 26.6022 0
288.182 28.7545 0
286.896 26.6215 0
288.165 26.6119 0
289.418 24.4595 0
291.957 24.4401 0
291.989 28.7255 0
289.451 28.7449 0
290.687 24.4499 0
291.973 26.5828 0
290.72 28.7352 0
289.434 26.6022 0
290.704 26.5925 0
291.957 24.4401 0
294.495 24.4206 0
294.528 28.706 0
291.989 28.7255 0
293.226 24.4304 0
294.511 26.5633 0
293.259 28.7157 0
291.973 26.5828 0
293.242 26.5731 0
294.495 24.4206 0
297.033 24.401 0
297.067 28.6864 0
294.528 28.706 0
295.764 24.4108 0
297.05 26.5437 0
295.797 28.6962 0
294.511 26.5633 0
295.781 26.5535 0
297.033 24.401 0
299.572 24.3813 0
299.605 28.6667 0
297.067 28.6864 0
298.303 24.3912 0
299.588 26.524 0
298.336 28.6765 0
297.05 26.5437 0
298.319 26.5339 0
299.572 24.3813 0
302.11 24.3615 0
302.144 28.6469 0
299.605 28.6667 0
300.841 24.3714 0
302.127 26.5042 0
300.874 28.6568 0
299.588 26.524 0
300.858 26.5141 0
302.11 24.3615 0
304.649 24.3416 0
304.682 28.627 0
302.144 28.6469 0
303.379 24.3516 0
304.665 26.4843 0
303.413 28.6369 0
302.127 26.5042 0
303.396 26.4943 0
304.649 24.3416 0
307.187 24.3217 0
307.221 28.607 0
304.682 28.627 0
305.918 24.3317 0
307.204 26.4643 0
305.952 28.617 0
304.665 26.4843 0
305.935 26.4743 0
307.187 24.3217 0
309.725 24.3016 0
309.759 28.5869 0
307.221 28.607 0
308.456 24.3116 0
309.742 26.4443 0
308.49 28.597 0
307.204 26.4643 0
308.473 26.4543 0
309.725 24.3016 0
312.264 24.2814 0
312.298 28.5668 0
309.759 28.5869 0
310.995 24.2915 0
312.281 26.4241 0
311.029 28.5769 0
309.742 26.4443 0
311.012 26.4342 0
312.264 24.2814 0
314.802 24.2612 0
314.836 28.5465 0
312.298 28.5668 0
313.533 24.2713 0
314.819 26.4038 0
313.567 28.5566 0
312.281 26.4241 0
313.55 26.414 0
314.802 24.2612 0
317.34 24.2408 0
317.375 28.5262 0
314.836 28.5465 0
316.071 24.251 0
317.358 26.3835 0
316.106 28.5363 0
314.819 26.4038 0
316.088 26.3937 0
317.34 24.2408 0
319.879 24.2204 0
319.913 28.5057 0
317.375 28.5262 0
318.61 24.2306 0
319.896 26.3631 0
318.644 28.516 0
317.358 26.3835 0
318.627 26.3733 0
319.879 24.2204 0
322.417 24.1999 0
322.452 28.4852 0
319.913 28.5057 0
321.148 24.2101 0
322.435 26.3426 0
321.183 28.4955 0
319.896 26.3631 0
321.165 26.3528 0
322.417 24.1999 0
324.956 24.1793 0
324.99 28.4646 0
322.452 28.4852 0
323.686 24.1896 0
324.973 26.3219 0
323.721 28.4749 0
322.435 26.3426 0
323.704 26.3323 0
324.956 24.1793 0
327.494 24.1586 0
327.529 28.4439 0
324.99 28.4646 0
326.225 24.1689 0
327.511 26.3013 0
326.26 28.4543 0
324.973 26.3219 0
326.242 26.3116 0
327.494 24.1586 0
330.032 24.1378 0
330.067 28.4232 0
327.529 28.4439 0
328.763 24.1482 0
330.05 26.2805 0
328.798 28.4336 0
327.511 26.3013 0
328.781 26.2909 0
330.032 24.1378 0
332.571 24.117 0
332.606 28.4023 0
330.067 28.4232 0
331.301 24.1274 0
332.588 26.2596 0
331.337 28.4128 0
330.05 26.2805 0
331.319 26.2701 0
332.571 24.117 0
335.109 24.096 0
335.144 28.3814 0
332.606 28.4023 0
333.84 24.1065 0
335.127 26.2387 0
333.875 28.3919 0
332.588 26.2596 0
333.857 26.2492 0
335.109 24.096 0
337.647 24.075 0
337.683 28.3604 0
335.144 28.3814 0
336.378 24.0855 0
337.665 26.2177 0
336.413 28.3709 0
335.127 26.2387 0
336.396 26.2282 0
337.647 24.075 0
340.185 24.0539 0
340.221 28.3393 0
337.683 28.3604 0
338.916 24.0645 0
340.203 26.1966 0
338.952 28.3499 0
337.665 26.2177 0
338.934 26.2072 0
340.185 24.0539 0
342.724 24.0328 0
342.76 28.3181 0
340.221 28.3393 0
341.455 24.0434 0
342.742 26.1755 0
341.49 28.3287 0
340.203 26.1966 0
341.472 26.1861 0
342.724 24.0328 0
345.262 24.0115 0
345.298 28.2969 0
342.76 28.3181 0
343.993 24.0222 0
345.28 26.1542 0
344.029 28.3075 0
342.742 26.1755 0
344.011 26.1649 0
345.262 24.0115 0
347.8 23.9902 0
347.836 28.2756 0
345.298 28.2969 0
346.531 24.0009 0
347.818 26.1329 0
346.567 28.2863 0
345.28 26.1542 0
346.549 26.1436 0
347.8 23.9902 0
350.339 23.9688 0
350.375 28.2542 0
347.836 28.2756 0
349.069 23.9795 0
350.357 26.1115 0
349.106 28.2649 0
347.818 26.1329 0
349.088 26.1222 0
350.339 23.9688 0
352.877 23.9474 0
352.913 28.2328 0
350.375 28.2542 0
351.608 23.9581 0
352.895 26.0901 0
351.644 28.2435 0
350.357 26.1115 0
351.626 26.1008 0
352.877 23.9474 0
355.415 23.9259 0
355.452 28.2112 0
352.913 28.2328 0
354.146 23.9366 0
355.433 26.0686 0
354.182 28.222 0
352.895 26.0901 0
354.164 26.0793 0
355.415 23.9259 0
357.953 23.9043 0
357.99 28.1897 0
355.452 28.2112 0
356.684 23.9151 0
357.972 26.047 0
356.721 28.2005 0
355.433 26.0686 0
356.703 26.0578 0
357.953 23.9043 0
360.492 23.8826 0
360.528 28.168 0
357.99 28.1897 0
359.223 23.8934 0
360.51 26.0253 0
359.259 28.1788 0
357.972 26.047 0
359.241 26.0361 0
360.492 23.8826 0
363.03 23.8609 0
363.067 28.1463 0
360.528 28.168 0
361.761 23.8718 0
363.048 26.0036 0
361.797 28.1571 0
360.51 26.0253 0
361.779 26.0145 0
363.03 23.8609 0
365.568 23.8391 0
365.605 28.1245 0
363.067 28.1463 0
364.299 23.85 0
365.587 25.9818 0
364.336 28.1354 0
363.048 26.0036 0
364.317 25.9927 0
365.568 23.8391 0
368.106 23.8172 0
368.143 28.1026 0
365.605 28.1245 0
366.837 23.8282 0
368.125 25.9599 0
366.874 28.1136 0
365.587 25.9818 0
366.856 25.9709 0
368.106 23.8172 0
370.645 23.7953 0
370.682 28.0807 0
368.143 28.1026 0
369.376 23.8063 0
370.663 25.938 0
369.413 28.0917 0
368.125 25.9599 0
369.394 25.949 0
370.645 23.7953 0
373.183 23.7733 0
373.22 28.0587 0
370.682 28.0807 0
371.914 23.7843 0
373.201 25.916 0
371.951 28.0697 0
370.663 25.938 0
371.932 25.927 0
373.183 23.7733 0
375.721 23.7513 0
375.758 28.0367 0
373.22 28.0587 0
374.452 23.7623 0
375.74 25.894 0
374.489 28.0477 0
373.201 25.916 0
374.471 25.905 0
375.721 23.7513 0
378.259 23.7292 0
378.297 28.0146 0
375.758 28.0367 0
376.99 23.7402 0
378.278 25.8719 0
377.028 28.0256 0
375.74 25.894 0
377.009 25.8829 0
378.259 23.7292 0
380.798 23.707 0
380.835 27.9924 0
378.297 28.0146 0
379.528 23.7181 0
380.816 25.8497 0
379.566 28.0035 0
378.278 25.8719 0
379.547 25.8608 0
380.798 23.707 0
383.336 23.6848 0
383.373 27.9702 0
380.835 27.9924 0
382.067 23.6959 0
383.355 25.8275 0
382.104 27.9813 0
380.816 25.8497 0
382.085 25.8386 0
383.336 23.6848 0
385.874 23.6625 0
385.912 27.9479 0
383.373 27.9702 0
384.605 23.6737 0
385.893 25.8052 0
384.642 27.9591 0
383.355 25.8275 0
384.624 25.8164 0
385.874 23.6625 0
388.412 23.6402 0
388.45 27.9256 0
385.912 27.9479 0
387.143 23.6514 0
388.431 25.7829 0
387.181 27.9368 0
385.893 25.8052 0
387.162 25.7941 0
388.412 23.6402 0
390.95 23.6178 0
390.988 27.9032 0
388.45 27.9256 0
389.681 23.629 0
390.969 25.7605 0
389.719 27.9144 0
388.431 25.7829 0
389.7 25.7717 0
390.95 23.6178 0
393.489 23.5954 0
393.526 27.8808 0
390.988 27.9032 0
392.22 23.6066 0
393.508 25.7381 0
392.257 27.892 0
390.969 25.7605 0
392.238 25.7493 0
393.489 23.5954 0
396.027 23.5729 0
396.065 27.8583 0
393.526 27.8808 0
394.758 23.5842 0
396.046 25.7156 0
394.796 27.8696 0
393.508 25.7381 0
394.777 25.7269 0
396.027 23.5729 0
398.565 23.5504 0
398.603 27.8358 0
396.065 27.8583 0
397.296 23.5616 0
398.584 25.6931 0
397.334 27.8471 0
396.046 25.7156 0
397.315 25.7044 0
398.565 23.5504 0
401.103 23.5278 0
401.141 27.8132 0
398.603 27.8358 0
399.834 23.5391 0
401.122 25.6705 0
399.872 27.8245 0
398.584 25.6931 0
399.853 25.6818 0
401.103 23.5278 0
403.641 23.5052 0
403.68 27.7906 0
401.141 27.8132 0
402.372 23.5165 0
403.66 25.6479 0
402.41 27.8019 0
401.122 25.6705 0
402.391 25.6592 0
403.641 23.5052 0
406.179 23.4825 0
406.218 27.7679 0
403.68 27.7906 0
404.91 23.4938 0
406.199 25.6252 0
404.949 27.7793 0
403.66 25.6479 0
404.93 25.6366 0
406.179 23.4825 0
408.718 23.4598 0
408.756 27.7452 0
406.218 27.7679 0
407.449 23.4711 0
408.737 25.6025 0
407.487 27.7566 0
406.199 25.6252 0
407.468 25.6139 0
408.718 23.4598 0
411.256 23.437 0
411.294 27.7224 0
408.756 27.7452 0
409.987 23.4484 0
411.275 25.5797 0
410.025 27.7338 0
408.737 25.6025 0
410.006 25.5911 0
411.256 23.437 0
413.794 23.4142 0
413.832 27.6996 0
411.294 27.7224 0
412.525 23.4256 0
413.813 25.5569 0
412.563 27.711 0
411.275 25.5797 0
412.544 25.5683 0
413.794 23.4142 0
416.332 23.3914 0
416.371 27.6768 0
413.832 27.6996 0
415.063 23.4028 0
416.351 25.5341 0
415.102 27.6882 0
413.813 25.5569 0
415.082 25.5455 0
416.332 23.3914 0
418.87 23.3685 0
418.909 27.6539 0
416.371 27.6768 0
417.601 23.3799 0
418.89 25.5112 0
417.64 27.6654 0
416.351 25.5341 0
417.62 25.5226 0
418.87 23.3685 0
421.408 23.3455 0
421.447 27.631 0
418.909 27.6539 0
420.139 23.357 0
421.428 25.4883 0
420.178 27.6425 0
418.89 25.5112 0
420.159 25.4997 0
421.408 23.3455 0
423.946 23.3226 0
423.985 27.608 0
421.447 27.631 0
422.677 23.3341 0
423.966 25.4653 0
422.716 27.6195 0
421.428 25.4883 0
422.697 25.4768 0
423.946 23.3226 0
426.485 23.2996 0
426.523 27.585 0
423.985 27.608 0
425.216 23.3111 0
426.504 25.4423 0
425.254 27.5965 0
423.966 25.4653 0
425.235 25.4538 0
426.485 23.2996 0
429.023 23.2766 0
429.062 27.562 0
426.523 27.585 0
427.754 23.2881 0
429.042 25.4193 0
427.792 27.5735 0
426.504 25.4423 0
427.773 25.4308 0
429.023 23.2766 0
431.561 23.2535 0
431.6 27.5389 0
429.062 27.562 0
430.292 23.265 0
431.58 25.3962 0
430.331 27.5505 0
429.042 25.4193 0
430.311 25.4078 0
431.561 23.2535 0
434.099 23.2304 0
434.138 27.5158 0
431.6 27.5389 0
432.83 23.2419 0
434.118 25.3731 0
432.869 27.5274 0
431.58 25.3962 0
432.849 25.3847 0
434.099 23.2304 0
436.637 23.2073 0
436.676 27.4927 0
434.138 27.5158 0
435.368 23.2188 0
436.657 25.35 0
435.407 27.5043 0
434.118 25.3731 0
435.387 25.3616 0
436.637 23.2073 0
439.175 23.1841 0
439.214 27.4696 0
436.676 27.4927 0
437.906 23.1957 0
439.195 25.3268 0
437.945 27.4811 0
436.657 25.35 0
437.926 25.3384 0
439.175 23.1841 0
441.713 23.1609 0
441.752 27.4464 0
439.214 27.4696 0
440.444 23.1725 0
441.733 25.3036 0
440.483 27.458 0
439.195 25.3268 0
440.464 25.3152 0
441.713 23.1609 0
444.251 23.1377 0
444.29 27.4231 0
441.752 27.4464 0
442.982 23.1493 0
444.271 25.2804 0
443.021 27.4348 0
441.733 25.3036 0
443.002 25.292 0
444.251 23.1377 0
446.789 23.1144 0
446.829 27.3999 0
444.29 27.4231 0
445.52 23.1261 0
446.809 25.2572 0
445.559 27.4115 0
444.271 25.2804 0
445.54 25.2688 0
446.789 23.1144 0
449.327 23.0912 0
449.367 27.3766 0
446.829 27.3999 0
448.058 23.1028 0
449.347 25.2339 0
448.098 27.3883 0
446.809 25.2572 0
448.078 25.2455 0
449.327 23.0912 0
451.865 23.0679 0
451.905 27.3533 0
449.367 27.3766 0
450.596 23.0795 0
451.885 25.2106 0
450.636 27.365 0
449.347 25.2339 0
450.616 25.2223 0
451.865 23.0679 0
454.404 23.0446 0
454.443 27.33 0
451.905 27.3533 0
453.134 23.0562 0
454.423 25.1873 0
453.174 27.3417 0
451.885 25.2106 0
453.154 25.199 0
454.404 23.0446 0
456.942 23.0212 0
456.981 27.3067 0
454.443 27.33 0
455.673 23.0329 0
456.961 25.164 0
455.712 27.3184 0
454.423 25.1873 0
455.692 25.1756 0
456.942 23.0212 0
459.48 22.9979 0
459.519 27.2833 0
456.981 27.3067 0
458.211 23.0095 0
459.499 25.1406 0
458.25 27.295 0
456.961 25.164 0
458.23 25.1523 0
459.48 22.9979 0
462.018 22.9745 0
462.057 27.26 0
459.519 27.2833 0
460.749 22.9862 0
462.037 25.1172 0
460.788 27.2716 0
459.499 25.1406 0
460.768 25.1289 0
462.018 22.9745 0
464.556 22.9511 0
464.595 27.2366 0
462.057 27.26 0
463.287 22.9628 0
464.575 25.0938 0
463.326 27.2483 0
462.037 25.1172 0
463.306 25.1055 0
464.556 22.9511 0
467.094 22.9277 0
467.133 27.2132 0
464.595 27.2366 0
465.825 22.9394 0
467.113 25.0704 0
465.864 27.2249 0
464.575 25.0938 0
465.844 25.0821 0
467.094 22.9277 0
469.632 22.9042 0
469.671 27.1897 0
467.133 27.2132 0
468.363 22.9159 0
469.652 25.047 0
468.402 27.2014 0
467.113 25.0704 0
468.382 25.0587 0
469.632 22.9042 0
472.17 22.8808 0
472.209 27.1663 0
469.671 27.1897 0
470.901 22.8925 0
472.19 25.0235 0
470.94 27.178 0
469.652 25.047 0
470.921 25.0353 0
472.17 22.8808 0
474.708 22.8573 0
474.747 27.1428 0
472.209 27.1663 0
473.439 22.8691 0
474.728 25.0001 0
473.478 27.1546 0
472.19 25.0235 0
473.459 25.0118 0
474.708 22.8573 0
477.246 22.8339 0
477.285 27.1194 0
474.747 27.1428 0
475.977 22.8456 0
477.266 24.9766 0
476.016 27.1311 0
474.728 25.0001 0
475.997 24.9883 0
477.246 22.8339 0
479.784 22.8104 0
479.823 27.0959 0
477.285 27.1194 0
478.515 22.8221 0
479.804 24.9531 0
478.554 27.1076 0
477.266 24.9766 0
478.535 24.9649 0
479.784 22.8104 0
482.322 22.7869 0
482.361 27.0724 0
479.823 27.0959 0
481.053 22.7986 0
482.342 24.9296 0
481.092 27.0841 0
479.804 24.9531 0
481.073 24.9414 0
482.322 22.7869 0
484.86 22.7634 0
484.899 27.0489 0
482.361 27.0724 0
483.591 22.7751 0
484.88 24.9061 0
483.63 27.0606 0
482.342 24.9296 0
483.611 24.9179 0
484.86 22.7634 0
487.398 22.7399 0
487.437 27.0254 0
484.899 27.0489 0
486.129 22.7516 0
487.418 24.8826 0
486.168 27.0371 0
484.88 24.9061 0
486.149 24.8944 0
487.398 22.7399 0
489.936 22.7164 0
489.975 27.0019 0
487.437 27.0254 0
488.667 22.7281 0
489.956 24.8591 0
488.706 27.0136 0
487.418 24.8826 0
488.687 24.8709 0
489.936 22.7164 0
492.474 22.6929 0
492.513 26.9784 0
489.975 27.0019 0
491.205 22.7046 0
492.494 24.8356 0
491.244 26.9901 0
489.956 24.8591 0
491.225 24.8474 0
492.474 22.6929 0
495.012 22.6693 0
495.051 26.9548 0
492.513 26.9784 0
493.743 22.6811 0
495.032 24.8121 0
493.782 26.9666 0
492.494 24.8356 0
493.763 24.8238 0
495.012 22.6693 0
497.55 22.6458 0
497.589 26.9313 0
495.051 26.9548 0
496.281 22.6576 0
497.57 24.7885 0
496.32 26.9431 0
495.032 24.8121 0
496.301 24.8003 0
497.55 22.6458 0
500.088 22.6222 0
500.127 26.9077 0
497.589 26.9313 0
498.819 22.634 0
500.108 24.7649 0
498.858 26.9195 0
497.57 24.7885 0
498.839 24.7767 0
      </DataArray>
    </Points>
    <Cells>
      <DataArray type="Int32" Name="connectivity" format="ascii">
0 1 2 3 4 5 6 7 8 
9 10 11 12 13 14 15 16 17 
18 19 20 21 22 23 24 25 26 
27 28 29 30 31 32 33 34 35 
36 37 38 39 40 41 42 43 44 
45 46 47 48 49 50 51 52 53 
54 55 56 57 58 59 60 61 62 
63 64 65 66 67 68 69 70 71 
72 73 74 75 76 77 78 79 80 
81 82 83 84 85 86 87 88 89 
90 91 92 93 94 95 96 97 98 
99 100 101 102 103 104 105 106 107 
108 109 110 111 112 113 114 115 116 
117 118 119 120 121 122 123 124 125 
126 127 128 129 130 131 132 133 134 
135 136 137 138 139 140 141 142 143 
144 145 146 147 148 149 150 151 152 
153 154 155 156 157 158 159 160 161 
162 163 164 165 166 167 168 169 170 
171 172 173 174 175 176 177 178 179 
180 181 182 183 184 185 186 187 188 
189 190 191 192 193 194 195 196 197 
198 199 200 201 202 203 204 205 206 
207 208 209 210 211 212 213 214 215 
216 217 218 219 220 221 222 223 224 
225 226 227 228 229 230 231 232 233 
234 235 236 237 238 239 240 241 242 
243 244 245 246 247 248 249 250 251 
252 253 254 255 256 257 258 259 260 
261 262 263 264 265 266 267 268 269 
270 271 272 273 274 275 276 277 278 
279 280 281 282 283 284 285 286 287 
288 289 290 291 292 293 294 295 296 
297 298 299 300 301 302 303 304 305 
306 307 308 309 310 311 312 313 314 
315 316 317 318 319 320 321 322 323 
324 325 326 327 328 329 330 331 332 
333 334 335 336 337 338 339 340 341 
342 343 344 345 346 347 348 349 350 
351 352 353 354 355 356 357 358 359 
360 361 362 363 364 365 366 367 368 
369 370 371 372 373 374 375 376 377 
378 379 380 381 382 383 384 385 386 
387 388 389 390 391 392 393 394 395 
396 397 398 399 400 401 402 403 404 
405 406 407 408 409 410 411 412 413 
414 415 416 417 418 419 420 421 422 
423 424 425 426 427 428 429 430 431 
432 433 434 435 436 437 438 439 440 
441 442 443 444 445 446 447 448 449 
450 451 452 453 454 455 456 457 458 
459 460 461 462 463 464 465 466 467 
468 469 470 471 472 473 474 475 476 
477 478 479 480 481 482 483 484 485 
486 487 488 489 490 491 492 493 494 
495 496 497 498 499 500 501 502 503 
504 505 506 507 508 509 510 511 512 
513 514 515 516 517 518 519 520 521 
522 523 524 525 526 527 528 529 530 
531 532 533 534 535 536 537 538 539 
540 541 542 543 544 545 546 547 548 
549 550 551 552 553 554 555 556 557 
558 559 560 561 562 563 564 565 566 
567 568 569 570 571 572 573 574 575 
576 577 578 579 580 581 582 583 584 
585 586 587 588 589 590 591 592 593 
594 595 596 597 598 599 600 601 602 
603 604 605 606 607 608 609 610 611 
612 613 614 615 616 617 618 619 620 
621 622 623 624 625 626 627 628 629 
630 631 632 633 634 635 636 637 638 
639 640 641 642 643 644 645 646 647 
648 649 650 651 652 653 654 655 656 
657 658 659 660 661 662 663 664 665 
666 667 668 669 670 671 672 673 674 
675 676 677 678 679 680 681 682 683 
684 685 686 687 688 689 690 691 692 
693 694 695 696 697 698 699 700 701 
702 703 704 705 706 707 708 709 710 
711 712 713 714 715 716 717 718 719 
720 721 722 723 724 725 726 727 728 
729 730 731 732 733 734 735 736 737 
738 739 740 741 742 743 744 745 746 
747 748 749 750 751 752 753 754 755 
756 757 758 759 760 761 762 763 764 
765 766 767 768 769 770 771 772 773 
774 775 776 777 778 779 780 781 782 
783 784 785 786 787 788 789 790 791 
792 793 794 795 796 797 798 799 800 
801 802 803 804 805 806 807 808 809 
810 811 812 813 814 815 816 817 818 
819 820 821 822 823 824 825 826 827 
828 829 830 831 832 833 834 835 836 
837 838 839 840 841 842 843 844 845 
846 847 848 849 850 851 852 853 854 
855 856 857 858 859 860 861 862 863 
864 865 866 867 868 869 870 871 872 
873 874 875 876 877 878 879 880 881 
882 883 884 885 886 887 888 889 890 
891 892 893 894 895 896 897 898 899 
900 901 902 903 904 905 906 907 908 
909 910 911 912 913 914 915 916 917 
918 919 920 921 922 923 924 925 926 
927 928 929 930 931 932 933 934 935 
936 937 938 939 940 941 942 943 944 
945 946 947 948 949 950 951 952 953 
954 955 956 957 958 959 960 961 962 
963 964 965 966 967 968 969 970 971 
972 973 974 975 976 977 978 979 980 
981 982 983 984 985 986 987 988 989 
990 991 992 993 994 995 996 997 998 
999 1000 1001 1002 1003 1004 1005 1006 1007 
1008 1009 1010 1011 1012 1013 1014 1015 1016 
1017 1018 1019 1020 1021 1022 1023 1024 1025 
1026 1027 1028 1029 1030 1031 1032 1033 1034 
1035 1036 1037 1038 1039 1040 1041 1042 1043 
1044 1045 1046 1047 1048 1049 1050 1051 1052 
1053 1054 1055 1056 1057 1058 1059 1060 1061 
1062 1063 1064 1065 1066 1067 1068 1069 1070 
1071 1072 1073 1074 1075 1076 1077 1078 1079 
1080 1081 1082 1083 1084 1085 1086 1087 1088 
1089 1090 1091 1092 1093 1094 1095 1096 1097 
1098 1099 1100 1101 1102 1103 1104 1105 1106 
1107 1108 1109 1110 1111 1112 1113 1114 1115 
1116 1117 1118 1119 1120 1121 1122 1123 1124 
1125 1126 1127 1128 1129 1130 1131 1132 1133 
1134 1135 1136 1137 1138 1139 1140 1141 1142 
1143 1144 1145 1146 1147 1148 1149 1150 1151 
1152 1153 1154 1155 1156 1157 1158 1159 1160 
1161 1162 1163 1164 1165 1166 1167 1168 1169 
1170 1171 1172 1173 1174 1175 1176 1177 1178 
1179 1180 1181 1182 1183 1184 1185 1186 1187 
1188 1189 1190 1191 1192 1193 1194 1195 1196 
1197 1198 1199 1200 1201 1202 1203 1204 1205 
1206 1207 1208 1209 1210 1211 1212 1213 1214 
1215 1216 1217 1218 1219 1220 1221 1222 1223 
1224 1225 1226 1227 1228 1229 1230 1231 1232 
1233 1234 1235 1236 1237 1238 1239 1240 1241 
1242 1243 1244 1245 1246 1247 1248 1249 1250 
1251 1252 1253 1254 1255 1256 1257 1258 1259 
1260 1261 1262 1263 1264 1265 1266 1267 1268 
1269 1270 1271 1272 1273 1274 1275 1276 1277 
1278 1279 1280 1281 1282 1283 1284 1285 1286 
1287 1288 1289 1290 1291 1292 1293 1294 1295 
1296 1297 1298 1299 1300 1301 1302 1303 1304 
1305 1306 1307 1308 1309 1310 1311 1312 1313 
1314 1315 1316 1317 1318 1319 1320 1321 1322 
1323 1324 1325 1326 1327 1328 1329 1330 1331 
1332 1333 1334 1335 1336 1337 1338 1339 1340 
1341 1342 1343 1344 1345 1346 1347 1348 1349 
1350 1351 1352 1353 1354 1355 1356 1357 1358 
1359 1360 1361 1362 1363 1364 1365 1366 1367 
1368 1369 1370 1371 1372 1373 1374 1375 1376 
1377 1378 1379 1380 1381 1382 1383 1384 1385 
1386 1387 1388 1389 1390 1391 1392 1393 1394 
1395 1396 1397 1398 1399 1400 1401 1402 1403 
1404 1405 1406 1407 1408 1409 1410 1411 1412 
1413 1414 1415 1416 1417 1418 1419 1420 1421 
1422 1423 1424 1425 1426 1427 1428 1429 1430 
1431 1432 1433 1434 1435 1436 1437 1438 1439 
1440 1441 1442 1443 1444 1445 1446 1447 1448 
1449 1450 1451 1452 1453 1454 1455 1456 1457 
1458 1459 1460 1461 1462 1463 1464 1465 1466 
1467 1468 1469 1470 1471 1472 1473 1474 1475 
1476 1477 1478 1479 1480 1481 1482 1483 1484 
1485 1486 1487 1488 1489 1490 1491 1492 1493 
1494 1495 1496 1497 1498 1499 1500 1501 1502 
1503 1504 1505 1506 1507 1508 1509 1510 1511 
1512 1513 1514 1515 1516 1517 1518 1519 1520 
1521 1522 1523 1524 1525 1526 1527 1528 1529 
1530 1531 1532 1533 1534 1535 1536 1537 1538 
1539 1540 1541 1542 1543 1544 1545 1546 1547 
1548 1549 1550 1551 1552 1553 1554 1555 1556 
1557 1558 1559 1560 1561 1562 1563 1564 1565 
1566 1567 1568 1569 1570 1571 1572 1573 1574 
1575 1576 1577 1578 1579 1580 1581 1582 1583 
1584 1585 1586 1587 1588 1589 1590 1591 1592 
1593 1594 1595 1596 1597 1598 1599 1600 1601 
1602 1603 1604 1605 1606 1607 1608 1609 1610 
1611 1612 1613 1614 1615 1616 1617 1618 1619 
1620 1621 1622 1623 1624 1625 1626 1627 1628 
1629 1630 1631 1632 1633 1634 1635 1636 1637 
1638 1639 1640 1641 1642 1643 1644 1645 1646 
1647 1648 1649 1650 1651 1652 1653 1654 1655 
1656 1657 1658 1659 1660 1661 1662 1663 1664 
1665 1666 1667 1668 1669 1670 1671 1672 1673 
1674 1675 1676 1677 1678 1679 1680 1681 1682 
1683 1684 1685 1686 1687 1688 1689 1690 1691 
1692 1693 1694 1695 1696 1697 1698 1699 1700 
1701 1702 1703 1704 1705 1706 1707 1708 1709 
1710 1711 1712 1713 1714 1715 1716 1717 1718 
1719 1720 1721 1722 1723 1724 1725 1726 1727 
1728 1729 1730 1731 1732 1733 1734 1735 1736 
1737 1738 1739 1740 1741 1742 1743 1744 1745 
1746 1747 1748 1749 1750 1751 1752 1753 1754 
1755 1756 1757 1758 1759 1760 1761 1762 1763 
1764 1765 1766 1767 1768 1769 1770 1771 1772 
1773 1774 1775 1776 1777 1778 1779 1780 1781 
1782 1783 1784 1785 1786 1787 1788 1789 1790 
1791 1792 1793 1794 1795 1796 1797 1798 1799 
1800 1801 1802 1803 1804 1805 1806 1807 1808 
1809 1810 1811 1812 1813 1814 1815 1816 1817 
1818 1819 1820 1821 1822 1823 1824 1825 1826 
1827 1828 1829 1830 1831 1832 1833 1834 1835 
1836 1837 1838 1839 1840 1841 1842 1843 1844 
1845 1846 1847 1848 1849 1850 1851 1852 1853 
1854 1855 1856 1857 1858 1859 1860 1861 1862 
1863 1864 1865 1866 1867 1868 1869 1870 1871 
1872 1873 1874 1875 1876 1877 1878 1879 1880 
1881 1882 1883 1884 1885 1886 1887 1888 1889 
1890 1891 1892 1893 1894 1895 1896 1897 1898 
1899 1900 1901 1902 1903 1904 1905 1906 1907 
1908 1909 1910 1911 1912 1913 1914 1915 1916 
1917 1918 1919 1920 1921 1922 1923 1924 1925 
1926 1927 1928 1929 1930 1931 1932 1933 1934 
1935 1936 1937 1938 1939 1940 1941 1942 1943 
1944 1945 1946 1947 1948 1949 1950 1951 1952 
1953 1954 1955 1956 1957 1958 1959 1960 1961 
1962 1963 1964 1965 1966 1967 1968 1969 1970 
1971 1972 1973 1974 1975 1976 1977 1978 1979 
1980 1981 1982 1983 1984 1985 1986 1987 1988 
1989 1990 1991 1992 1993 1994 1995 1996 1997 
1998 1999 2000 2001 2002 2003 2004 2005 2006 
2007 2008 2009 2010 2011 2012 2013 2014 2015 
2016 2017 2018 2019 2020 2021 2022 2023 2024 
2025 2026 2027 2028 2029 2030 2031 2032 2033 
2034 2035 2036 2037 2038 2039 2040 2041 2042 
2043 2044 2045 2046 2047 2048 2049 2050 2051 
2052 2053 2054 2055 2056 2057 2058 2059 2060 
2061 2062 2063 2064 2065 2066 2067 2068 2069 
2070 2071 2072 2073 2074 2075 2076 2077 2078 
2079 2080 2081 2082 2083 2084 2085 2086 2087 
2088 2089 2090 2091 2092 2093 2094 2095 2096 
2097 2098 2099 2100 2101 2102 2103 2104 2105 
2106 2107 2108 2109 2110 2111 2112 2113 2114 
2115 2116 2117 2118 2119 2120 2121 2122 2123 
2124 2125 2126 2127 2128 2129 2130 2131 2132 
2133 2134 2135 2136 2137 2138 2139 2140 2141 
2142 2143 2144 2145 2146 2147 2148 2149 2150 
2151 2152 2153 2154 2155 2156 2157 2158 2159 
2160 2161 2162 2163 2164 2165 2166 2167 2168 
2169 2170 2171 2172 2173 2174 2175 2176 2177 
2178 2179 2180 2181 2182 2183 2184 2185 2186 
2187 2188 2189 2190 2191 2192 2193 2194 2195 
2196 2197 2198 2199 2200 2201 2202 2203 2204 
2205 2206 2207 2208 2209 2210 2211 2212 2213 
2214 2215 2216 2217 2218 2219 2220 2221 2222 
2223 2224 2225 2226 2227 2228 2229 2230 2231 
2232 2233 2234 2235 2236 2237 2238 2239 2240 
2241 2242 2243 2244 2245 2246 2247 2248 2249 
2250 2251 2252 2253 2254 2255 2256 2257 2258 
2259 2260 2261 2262 2263 2264 2265 2266 2267 
2268 2269 2270 2271 2272 2273 2274 2275 2276 
2277 2278 2279 2280 2281 2282 2283 2284 2285 
2286 2287 2288 2289 2290 2291 2292 2293 2294 
2295 2296 2297 2298 2299 2300 2301 2302 2303 
2304 2305 2306 2307 2308 2309 2310 2311 2312 
2313 2314 2315 2316 2317 2318 2319 2320 2321 
2322 2323 2324 2325 2326 2327 2328 2329 2330 
2331 2332 2333 2334 2335 2336 2337 2338 2339 
2340 2341 2342 2343 2344 2345 2346 2347 2348 
2349 2350 2351 2352 2353 2354 2355 2356 2357 
2358 2359 2360 2361 2362 2363 2364 2365 2366 
2367 2368 2369 2370 2371 2372 2373 2374 2375 
2376 2377 2378 2379 2380 2381 2382 2383 2384 
2385 2386 2387 2388 2389 2390 2391 2392 2393 
2394 2395 2396 2397 2398 2399 2400 2401 2402 
2403 2404 2405 2406 2407 2408 2409 2410 2411 
2412 2413 2414 2415 2416 2417 2418 2419 2420 
2421 2422 2423 2424 2425 2426 2427 2428 2429 
2430 2431 2432 2433 2434 2435 2436 2437 2438 
2439 2440 2441 2442 2443 2444 2445 2446 2447 
2448 2449 2450 2451 2452 2453 2454 2455 2456 
2457 2458 2459 2460 2461 2462 2463 2464 2465 
2466 2467 2468 2469 2470 2471 2472 2473 2474 
2475 2476 2477 2478 2479 2480 2481 2482 2483 
2484 2485 2486 2487 2488 2489 2490 2491 2492 
2493 2494 2495 2496 2497 2498 2499 2500 2501 
2502 2503 2504 2505 2506 2507 2508 2509 2510 
2511 2512 2513 2514 2515 2516 2517 2518 2519 
2520 2521 2522 2523 2524 2525 2526 2527 2528 
2529 2530 2531 2532 2533 2534 2535 2536 2537 
2538 2539 2540 2541 2542 2543 2544 2545 2546 
2547 2548 2549 2550 2551 2552 2553 2554 2555 
2556 2557 2558 2559 2560 2561 2562 2563 2564 
2565 2566 2567 2568 2569 2570 2571 2572 2573 
2574 2575 2576 2577 2578 2579 2580 2581 2582 
2583 2584 2585 2586 2587 2588 2589 2590 2591 
2592 2593 2594 2595 2596 2597 2598 2599 2600 
2601 2602 2603 2604 2605 2606 2607 2608 2609 
2610 2611 2612 2613 2614 2615 2616 2617 2618 
2619 2620 2621 2622 2623 2624 2625 2626 2627 
2628 2629 2630 2631 2632 2633 2634 2635 2636 
2637 2638 2639 2640 2641 2642 2643 2644 2645 
2646 2647 2648 2649 2650 2651 2652 2653 2654 
2655 2656 2657 2658 2659 2660 2661 2662 2663 
2664 2665 2666 2667 2668 2669 2670 2671 2672 
2673 2674 2675 2676 2677 2678 2679 2680 2681 
2682 2683 2684 2685 2686 2687 2688 2689 2690 
2691 2692 2693 2694 2695 2696 2697 2698 2699 
2700 2701 2702 2703 2704 2705 2706 2707 2708 
2709 2710 2711 2712 2713 2714 2715 2716 2717 
2718 2719 2720 2721 2722 2723 2724 2725 2726 
2727 2728 2729 2730 2731 2732 2733 2734 2735 
2736 2737 2738 2739 2740 2741 2742 2743 2744 
2745 2746 2747 2748 2749 2750 2751 2752 2753 
2754 2755 2756 2757 2758 2759 2760 2761 2762 
2763 2764 2765 2766 2767 2768 2769 2770 2771 
2772 2773 2774 2775 2776 2777 2778 2779 2780 
2781 2782 2783 2784 2785 2786 2787 2788 2789 
2790 2791 2792 2793 2794 2795 2796 2797 2798 
2799 2800 2801 2802 2803 2804 2805 2806 2807 
2808 2809 2810 2811 2812 2813 2814 2815 2816 
2817 2818 2819 2820 2821 2822 2823 2824 2825 
2826 2827 2828 2829 2830 2831 2832 2833 2834 
2835 2836 2837 2838 2839 2840 2841 2842 2843 
2844 2845 2846 2847 2848 2849 2850 2851 2852 
2853 2854 2855 2856 2857 2858 2859 2860 2861 
2862 2863 2864 2865 2866 2867 2868 2869 2870 
2871 2872 2873 2874 2875 2876 2877 2878 2879 
2880 2881 2882 2883 2884 2885 2886 2887 2888 
2889 2890 2891 2892 2893 2894 2895 2896 2897 
2898 2899 2900 2901 2902 2903 2904 2905 2906 
2907 2908 2909 2910 2911 2912 2913 2914 2915 
2916 2917 2918 2919 2920 2921 2922 2923 2924 
2925 2926 2927 2928 2929 2930 2931 2932 2933 
2934 2935 2936 2937 2938 2939 2940 2941 2942 
2943 2944 2945 2946 2947 2948 2949 2950 2951 
2952 2953 2954 2955 2956 2957 2958 2959 2960 
2961 2962 2963 2964 2965 2966 2967 2968 2969 
2970 2971 2972 2973 2974 2975 2976 2977 2978 
2979 2980 2981 2982 2983 2984 2985 2986 2987 
2988 2989 2990 2991 2992 2993 2994 2995 2996 
2997 2998 2999 3000 3001 3002 3003 3004 3005 
3006 3007 3008 3009 3010 3011 3012 3013 3014 
3015 3016 3017 3018 3019 3020 3021 3022 3023 
3024 3025 3026 3027 3028 3029 3030 3031 3032 
3033 3034 3035 3036 3037 3038 3039 3040 3041 
3042 3043 3044 3045 3046 3047 3048 3049 3050 
3051 3052 3053 3054 3055 3056 3057 3058 3059 
3060 3061 3062 3063 3064 3065 3066 3067 3068 
3069 3070 3071 3072 3073 3074 3075 3076 3077 
3078 3079 3080 3081 3082 3083 3084 3085 3086 
3087 3088 3089 3090 3091 3092 3093 3094 3095 
3096 3097 3098 3099 3100 3101 3102 3103 3104 
3105 3106 3107 3108 3109 3110 3111 3112 3113 
3114 3115 3116 3117 3118 3119 3120 3121 3122 
3123 3124 3125 3126 3127 3128 3129 3130 3131 
3132 3133 3134 3135 3136 3137 3138 3139 3140 
3141 3142 3143 3144 3145 3146 3147 3148 3149 
3150 3151 3152 3153 3154 3155 3156 3157 3158 
3159 3160 3161 3162 3163 3164 3165 3166 3167 
3168 3169 3170 3171 3172 3173 3174 3175 3176 
3177 3178 3179 3180 3181 3182 3183 3184 3185 
3186 3187 3188 3189 3190 3191 3192 3193 3194 
3195 3196 3197 3198 3199 3200 3201 3202 3203 
3204 3205 3206 3207 3208 3209 3210 3211 3212 
3213 3214 3215 3216 3217 3218 3219 3220 3221 
3222 3223 3224 3225 3226 3227 3228 3229 3230 
3231 3232 3233 3234 3235 3236 3237 3238 3239 
3240 3241 3242 3243 3244 3245 3246 3247 3248 
3249 3250 3251 3252 3253 3254 3255 3256 3257 
3258 3259 3260 3261 3262 3263 3264 3265 3266 
3267 3268 3269 3270 3271 3272 3273 3274 3275 
3276 3277 3278 3279 3280 3281 3282 3283 3284 
3285 3286 3287 3288 3289 3290 3291 3292 3293 
3294 3295 3296 3297 3298 3299 3300 3301 3302 
3303 3304 3305 3306 3307 3308 3309 3310 3311 
3312 3313 3314 3315 3316 3317 3318 3319 3320 
3321 3322 3323 3324 3325 3326 3327 3328 3329 
3330 3331 3332 3333 3334 3335 3336 3337 3338 
3339 3340 3341 3342 3343 3344 3345 3346 3347 
3348 3349 3350 3351 3352 3353 3354 3355 3356 
3357 3358 3359 3360 3361 3362 3363 3364 3365 
3366 3367 3368 3369 3370 3371 3372 3373 3374 
3375 3376 3377 3378 3379 3380 3381 3382 3383 
3384 3385 3386 3387 3388 3389 3390 3391 3392 
3393 3394 3395 3396 3397 3398 3399 3400 3401 
3402 3403 3404 3405 3406 3407 3408 3409 3410 
3411 3412 3413 3414 3415 3416 3417 3418 3419 
3420 3421 3422 3423 3424 3425 3426 3427 3428 
3429 3430 3431 3432 3433 3434 3435 3436 3437 
3438 3439 3440 3441 3442 3443 3444 3445 3446 
3447 3448 3449 3450 3451 3452 3453 3454 3455 
3456 3457 3458 3459 3460 3461 3462 3463 3464 
3465 3466 3467 3468 3469 3470 3471 3472 3473 
3474 3475 3476 3477 3478 3479 3480 3481 3482 
3483 3484 3485 3486 3487 3488 3489 3490 3491 
3492 3493 3494 3495 3496 3497 3498 3499 3500 
3501 3502 3503 3504 3505 3506 3507 3508 3509 
3510 3511 3512 3513 3514 3515 3516 3517 3518 
3519 3520 3521 3522 3523 3524 3525 3526 3527 
3528 3529 3530 3531 3532 3533 3534 3535 3536 
3537 3538 3539 3540 3541 3542 3543 3544 3545 
3546 3547 3548 3549 3550 3551 3552 3553 3554 
3555 3556 3557 3558 3559 3560 3561 3562 3563 
3564 3565 3566 3567 3568 3569 3570 3571 3572 
3573 3574 3575 3576 3577 3578 3579 3580 3581 
3582 3583 3584 3585 3586 3587 3588 3589 3590 
3591 3592 3593 3594 3595 3596 3597 3598 3599 
3600 3601 3602 3603 3604 3605 3606 3607 3608 
3609 3610 3611 3612 3613 3614 3615 3616 3617 
3618 3619 3620 3621 3622 3623 3624 3625 3626 
3627 3628 3629 3630 3631 3632 3633 3634 3635 
3636 3637 3638 3639 3640 3641 3642 3643 3644 
3645 3646 3647 3648 3649 3650 3651 3652 3653 
3654 3655 3656 3657 3658 3659 3660 3661 3662 
3663 3664 3665 3666 3667 3668 3669 3670 3671 
3672 3673 3674 3675 3676 3677 3678 3679 3680 
3681 3682 3683 3684 3685 3686 3687 3688 3689 
3690 3691 3692 3693 3694 3695 3696 3697 3698 
3699 3700 3701 3702 3703 3704 3705 3706 3707 
3708 3709 3710 3711 3712 3713 3714 3715 3716 
3717 3718 3719 3720 3721 3722 3723 3724 3725 
3726 3727 3728 3729 3730 3731 3732 3733 3734 
3735 3736 3737 3738 3739 3740 3741 3742 3743 
3744 3745 3746 3747 3748 3749 3750 3751 3752 
3753 3754 3755 3756 3757 3758 3759 3760 3761 
3762 3763 3764 3765 3766 3767 3768 3769 3770 
3771 3772 3773 3774 3775 3776 3777 3778 3779 
3780 3781 3782 3783 3784 3785 3786 3787 3788 
3789 3790 3791 3792 3793 3794 3795 3796 3797 
3798 3799 3800 3801 3802 3803 3804 3805 3806 
3807 3808 3809 3810 3811 3812 3813 3814 3815 
3816 3817 3818 3819 3820 3821 3822 3823 3824 
3825 3826 3827 3828 3829 3830 3831 3832 3833 
3834 3835 3836 3837 3838 3839 3840 3841 3842 
3843 3844 3845 3846 3847 3848 3849 3850 3851 
3852 3853 3854 3855 3856 3857 3858 3859 3860 
3861 3862 3863 3864 3865 3866 3867 3868 3869 
3870 3871 3872 3873 3874 3875 3876 3877 3878 
3879 3880 3881 3882 3883 3884 3885 3886 3887 
3888 3889 3890 3891 3892 3893 3894 3895 3896 
3897 3898 3899 3900 3901 3902 3903 3904 3905 
3906 3907 3908 3909 3910 3911 3912 3913 3914 
3915 3916 3917 3918 3919 3920 3921 3922 3923 
3924 3925 3926 3927 3928 3929 3930 3931 3932 
3933 3934 3935 3936 3937 3938 3939 3940 3941 
3942 3943 3944 3945 3946 3947 3948 3949 3950 
3951 3952 3953 3954 3955 3956 3957 3958 3959 
3960 3961 3962 3963 3964 3965 3966 3967 3968 
3969 3970 3971 3972 3973 3974 3975 3976 3977 
3978 3979 3980 3981 3982 3983 3984 3985 3986 
3987 3988 3989 3990 3991 3992 3993 3994 3995 
3996 3997 3998 3999 4000 4001 4002 4003 4004 
4005 4006 4007 4008 4009 4010 4011 4012 4013 
4014 4015 4016 4017 4018 4019 4020 4021 4022 
4023 4024 4025 4026 4027 4028 4029 4030 4031 
4032 4033 4034 4035 4036 4037 4038 4039 4040 
4041 4042 4043 4044 4045 4046 4047 4048 4049 
4050 4051 4052 4053 4054 4055 4056 4057 4058 
4059 4060 4061 4062 4063 4064 4065 4066 4067 
4068 4069 4070 4071 4072 4073 4074 4075 4076 
4077 4078 4079 4080 4081 4082 4083 4084 4085 
4086 4087 4088 4089 4090 4091 4092 4093 4094 
4095 4096 4097 4098 4099 4100 4101 4102 4103 
4104 4105 4106 4107 4108 4109 4110 4111 4112 
4113 4114 4115 4116 4117 4118 4119 4120 4121 
4122 4123 4124 4125 4126 4127 4128 4129 4130 
4131 4132 4133 4134 4135 4136 4137 4138 4139 
4140 4141 4142 4143 4144 4145 4146 4147 4148 
4149 4150 4151 4152 4153 4154 4155 4156 4157 
4158 4159 4160 4161 4162 4163 4164 4165 4166 
4167 4168 4169 4170 4171 4172 4173 4174 4175 
4176 4177 4178 4179 4180 4181 4182 4183 4184 
4185 4186 4187 4188 4189 4190 4191 4192 4193 
4194 4195 4196 4197 4198 4199 4200 4201 4202 
4203 4204 4205 4206 4207 4208 4209 4210 4211 
4212 4213 4214 4215 4216 4217 4218 4219 4220 
4221 4222 4223 4224 4225 4226 4227 4228 4229 
4230 4231 4232 4233 4234 4235 4236 4237 4238 
4239 4240 4241 4242 4243 4244 4245 4246 4247 
4248 4249 4250 4251 4252 4253 4254 4255 4256 
4257 4258 4259 4260 4261 4262 4263 4264 4265 
4266 4267 4268 4269 4270 4271 4272 4273 4274 
4275 4276 4277 4278 4279 4280 4281 4282 4283 
4284 4285 4286 4287 4288 4289 4290 4291 4292 
4293 4294 4295 4296 4297 4298 4299 4300 4301 
4302 4303 4304 4305 4306 4307 4308 4309 4310 
4311 4312 4313 4314 4315 4316 4317 4318 4319 
4320 4321 4322 4323 4324 4325 4326 4327 4328 
4329 4330 4331 4332 4333 4334 4335 4336 4337 
4338 4339 4340 4341 4342 4343 4344 4345 4346 
4347 4348 4349 4350 4351 4352 4353 4354 4355 
4356 4357 4358 4359 4360 4361 4362 4363 4364 
4365 4366 4367 4368 4369 4370 4371 4372 4373 
4374 4375 4376 4377 4378 4379 4380 4381 4382 
4383 4384 4385 4386 4387 4388 4389 4390 4391 
4392 4393 4394 4395 4396 4397 4398 4399 4400 
4401 4402 4403 4404 4405 4406 4407 4408 4409 
4410 4411 4412 4413 4414 4415 4416 4417 4418 
4419 4420 4421 4422 4423 4424 4425 4426 4427 
4428 4429 4430 4431 4432 4433 4434 4435 4436 
4437 4438 4439 4440 4441 4442 4443 4444 4445 
4446 4447 4448 4449 4450 4451 4452 4453 4454 
4455 4456 4457 4458 4459 4460 4461 4462 4463 
4464 4465 4466 4467 4468 4469 4470 4471 4472 
4473 4474 4475 4476 4477 4478 4479 4480 4481 
4482 4483 4484 4485 4486 4487 4488 4489 4490 
4491 4492 4493 4494 4495 4496 4497 4498 4499 
4500 4501 4502 4503 4504 4505 4506 4507 4508 
4509 4510 4511 4512 4513 4514 4515 4516 4517 
4518 4519 4520 4521 4522 4523 4524 4525 4526 
4527 4528 4529 4530 4531 4532 4533 4534 4535 
4536 4537 4538 4539 4540 4541 4542 4543 4544 
4545 4546 4547 4548 4549 4550 4551 4552 4553 
4554 4555 4556 4557 4558 4559 4560 4561 4562 
4563 4564 4565 4566 4567 4568 4569 4570 4571 
4572 4573 4574 4575 4576 4577 4578 4579 4580 
4581 4582 4583 4584 4585 4586 4587 4588 4589 
4590 4591 4592 4593 4594 4595 4596 4597 4598 
4599 4600 4601 4602 4603 4604 4605 4606 4607 
4608 4609 4610 4611 4612 4613 4614 4615 4616 
4617 4618 4619 4620 4621 4622 4623 4624 4625 
4626 4627 4628 4629 4630 4631 4632 4633 4634 
4635 4636 4637 4638 4639 4640 4641 4642 4643 
4644 4645 4646 4647 4648 4649 4650 4651 4652 
4653 4654 4655 4656 4657 4658 4659 4660 4661 
4662 4663 4664 4665 4666 4667 4668 4669 4670 
4671 4672 4673 4674 4675 4676 4677 4678 4679 
4680 4681 4682 4683 4684 4685 4686 4687 4688 
4689 4690 4691 4692 4693 4694 4695 4696 4697 
4698 4699 4700 4701 4702 4703 4704 4705 4706 
4707 4708 4709 4710 4711 4712 4713 4714 4715 
4716 4717 4718 4719 4720 4721 4722 4723 4724 
4725 4726 4727 4728 4729 4730 4731 4732 4733 
4734 4735 4736 4737 4738 4739 4740 4741 4742 
4743 4744 4745 4746 4747 4748 4749 4750 4751 
4752 4753 4754 4755 4756 4757 4758 4759 4760 
4761 4762 4763 4764 4765 4766 4767 4768 4769 
4770 4771 4772 4773 4774 4775 4776 4777 4778 
4779 4780 4781 4782 4783 4784 4785 4786 4787 
4788 4789 4790 4791 4792 4793 4794 4795 4796 
4797 4798 4799 4800 4801 4802 4803 4804 4805 
4806 4807 4808 4809 4810 4811 4812 4813 4814 
4815 4816 4817 4818 4819 4820 4821 4822 4823 
4824 4825 4826 4827 4828 4829 4830 4831 4832 
4833 4834 4835 4836 4837 4838 4839 4840 4841 
4842 4843 4844 4845 4846 4847 4848 4849 4850 
4851 4852 4853 4854 4855 4856 4857 4858 4859 
4860 4861 4862 4863 4864 4865 4866 4867 4868 
4869 4870 4871 4872 4873 4874 4875 4876 4877 
4878 4879 4880 4881 4882 4883 4884 4885 4886 
4887 4888 4889 4890 4891 4892 4893 4894 4895 
4896 4897 4898 4899 4900 4901 4902 4903 4904 
4905 4906 4907 4908 4909 4910 4911 4912 4913 
4914 4915 4916 4917 4918 4919 4920 4921 4922 
4923 4924 4925 4926 4927 4928 4929 4930 4931 
4932 4933 4934 4935 4936 4937 4938 4939 4940 
4941 4942 4943 4944 4945 4946 4947 4948 4949 
4950 4951 4952 4953 4954 4955 4956 4957 4958 
4959 4960 4961 4962 4963 4964 4965 4966 4967 
4968 4969 4970 4971 4972 4973 4974 4975 4976 
4977 4978 4979 4980 4981 4982 4983 4984 4985 
4986 4987 4988 4989 4990 4991 4992 4993 4994 
4995 4996 4997 4998 4999 5000 5001 5002 5003 
5004 5005 5006 5007 5008 5009 5010 5011 5012 
5013 5014 5015 5016 5017 5018 5019 5020 5021 
5022 5023 5024 5025 5026 5027 5028 5029 5030 
5031 5032 5033 5034 5035 5036 5037 5038 5039 
5040 5041 5042 5043 5044 5045 5046 5047 5048 
5049 5050 5051 5052 5053 5054 5055 5056 5057 
5058 5059 5060 5061 5062 5063 5064 5065 5066 
5067 5068 5069 5070 5071 5072 5073 5074 5075 
5076 5077 5078 5079 5080 5081 5082 5083 5084 
5085 5086 5087 5088 5089 5090 5091 5092 5093 
5094 5095 5096 5097 5098 5099 5100 5101 5102 
5103 5104 5105 5106 5107 5108 5109 5110 5111 
5112 5113 5114 5115 5116 5117 5118 5119 5120 
5121 5122 5123 5124 5125 5126 5127 5128 5129 
5130 5131 5132 5133 5134 5135 5136 5137 5138 
5139 5140 5141 5142 5143 5144 5145 5146 5147 
5148 5149 5150 5151 5152 5153 5154 5155 5156 
5157 5158 5159 5160 5161 5162 5163 5164 5165 
5166 5167 5168 5169 5170 5171 5172 5173 5174 
5175 5176 5177 5178 5179 5180 5181 5182 5183 
5184 5185 5186 5187 5188 5189 5190 5191 5192 
5193 5194 5195 5196 5197 5198 5199 5200 5201 
5202 5203 5204 5205 5206 5207 5208 5209 5210 
5211 5212 5213 5214 5215 5216 5217 5218 5219 
5220 5221 5222 5223 5224 5225 5226 5227 5228 
5229 5230 5231 5232 5233 5234 5235 5236 5237 
5238 5239 5240 5241 5242 5243 5244 5245 5246 
5247 5248 5249 5250 5251 5252 5253 5254 5255 
5256 5257 5258 5259 5260 5261 5262 5263 5264 
5265 5266 5267 5268 5269 5270 5271 5272 5273 
5274 5275 5276 5277 5278 5279 5280 5281 5282 
5283 5284 5285 5286 5287 5288 5289 5290 5291 
5292 5293 5294 5295 5296 5297 5298 5299 5300 
5301 5302 5303 5304 5305 5306 5307 5308 5309 
5310 5311 5312 5313 5314 5315 5316 5317 5318 
5319 5320 5321 5322 5323 5324 5325 5326 5327 
5328 5329 5330 5331 5332 5333 5334 5335 5336 
5337 5338 5339 5340 5341 5342 5343 5344 5345 
5346 5347 5348 5349 5350 5351 5352 5353 5354 
5355 5356 5357 5358 5359 5360 5361 5362 5363 
5364 5365 5366 5367 5368 5369 5370 5371 5372 
5373 5374 5375 5376 5377 5378 5379 5380 5381 
5382 5383 5384 5385 5386 5387 5388 5389 5390 
5391 5392 5393 5394 5395 5396 5397 5398 5399 
5400 5401 5402 5403 5404 5405 5406 5407 5408 
5409 5410 5411 5412 5413 5414 5415 5416 5417 
5418 5419 5420 5421 5422 5423 5424 5425 5426 
5427 5428 5429 5430 5431 5432 5433 5434 5435 
5436 5437 5438 5439 5440 5441 5442 5443 5444 
5445 5446 5447 5448 5449 5450 5451 5452 5453 
5454 5455 5456 5457 5458 5459 5460 5461 5462 
5463 5464 5465 5466 5467 5468 5469 5470 5471 
5472 5473 5474 5475 5476 5477 5478 5479 5480 
5481 5482 5483 5484 5485 5486 5487 5488 5489 
5490 5491 5492 5493 5494 5495 5496 5497 5498 
5499 5500 5501 5502 5503 5504 5505 5506 5507 
5508 5509 5510 5511 5512 5513 5514 5515 5516 
5517 5518 5519 5520 5521 5522 5523 5524 5525 
5526 5527 5528 5529 5530 5531 5532 5533 5534 
5535 5536 5537 5538 5539 5540 5541 5542 5543 
5544 5545 5546 5547 5548 5549 5550 5551 5552 
5553 5554 5555 5556 5557 5558 5559 5560 5561 
5562 5563 5564 5565 5566 5567 5568 5569 5570 
5571 5572 5573 5574 5575 5576 5577 5578 5579 
5580 5581 5582 5583 5584 5585 5586 5587 5588 
5589 5590 5591 5592 5593 5594 5595 5596 5597 
5598 5599 5600 5601 5602 5603 5604 5605 5606 
5607 5608 5609 5610 5611 5612 5613 5614 5615 
5616 5617 5618 5619 5620 5621 5622 5623 5624 
5625 5626 5627 5628 5629 5630 5631 5632 5633 
5634 5635 5636 5637 5638 5639 5640 5641 5642 
5643 5644 5645 5646 5647 5648 5649 5650 5651 
5652 5653 5654 5655 5656 5657 5658 5659 5660 
5661 5662 5663 5664 5665 5666 5667 5668 5669 
5670 5671 5672 5673 5674 5675 5676 5677 5678 
5679 5680 5681 5682 5683 5684 5685 5686 5687 
5688 5689 5690 5691 5692 5693 5694 5695 5696 
5697 5698 5699 5700 5701 5702 5703 5704 5705 
5706 5707 5708 5709 5710 5711 5712 5713 5714 
5715 5716 5717 5718 5719 5720 5721 5722 5723 
5724 5725 5726 5727 5728 5729 5730 5731 5732 
5733 5734 5735 5736 5737 5738 5739 5740 5741 
5742 5743 5744 5745 5746 5747 5748 5749 5750 
5751 5752 5753 5754 5755 5756 5757 5758 5759 
5760 5761 5762 5763 5764 5765 5766 5767 5768 
5769 5770 5771 5772 5773 5774 5775 5776 5777 
5778 5779 5780 5781 5782 5783 5784 5785 5786 
5787 5788 5789 5790 5791 5792 5793 5794 5795 
5796 5797 5798 5799 5800 5801 5802 5803 5804 
5805 5806 5807 5808 5809 5810 5811 5812 5813 
5814 5815 5816 5817 5818 5819 5820 5821 5822 
5823 5824 5825 5826 5827 5828 5829 5830 5831 
5832 5833 5834 5835 5836 5837 5838 5839 5840 
5841 5842 5843 5844 5845 5846 5847 5848 5849 
5850 5851 5852 5853 5854 5855 5856 5857 5858 
5859 5860 5861 5862 5863 5864 5865 5866 5867 
5868 5869 5870 5871 5872 5873 5874 5875 5876 
5877 5878 5879 5880 5881 5882 5883 5884 5885 
5886 5887 5888 5889 5890 5891 5892 5893 5894 
5895 5896 5897 5898 5899 5900 5901 5902 5903 
5904 5905 5906 5907 5908 5909 5910 5911 5912 
5913 5914 5915 5916 5917 5918 5919 5920 5921 
5922 5923 5924 5925 5926 5927 5928 5929 5930 
5931 5932 5933 5934 5935 5936 5937 5938 5939 
5940 5941 5942 5943 5944 5945 5946 5947 5948 
5949 5950 5951 5952 5953 5954 5955 5956 5957 
5958 5959 5960 5961 5962 5963 5964 5965 5966 
5967 5968 5969 5970 5971 5972 5973 5974 5975 
5976 5977 5978 5979 5980 5981 5982 5983 5984 
5985 5986 5987 5988 5989 5990 5991 5992 5993 
5994 5995 5996 5997 5998 5999 6000 6001 6002 
6003 6004 6005 6006 6007 6008 6009 6010 6011 
6012 6013 6014 6015 6016 6017 6018 6019 6020 
6021 6022 6023 6024 6025 6026 6027 6028 6029 
6030 6031 6032 6033 6034 6035 6036 6037 6038 
6039 6040 6041 6042 6043 6044 6045 6046 6047 
6048 6049 6050 6051 6052 6053 6054 6055 6056 
6057 6058 6059 6060 6061 6062 6063 6064 6065 
6066 6067 6068 6069 6070 6071 6072 6073 6074 
6075 6076 6077 6078 6079 6080 6081 6082 6083 
6084 6085 6086 6087 6088 6089 6090 6091 6092 
6093 6094 6095 6096 6097 6098 6099 6100 6101 
6102 6103 6104 6105 6106 6107 6108 6109 6110 
6111 6112 6113 6114 6115 6116 6117 6118 6119 
6120 6121 6122 6123 6124 6125 6126 6127 6128 
6129 6130 6131 6132 6133 6134 6135 6136 6137 
6138 6139 6140 6141 6142 6143 6144 6145 6146 
6147 6148 6149 6150 6151 6152 6153 6154 6155 
6156 6157 6158 6159 6160 6161 6162 6163 6164 
6165 6166 6167 6168 6169 6170 6171 6172 6173 
6174 6175 6176 6177 6178 6179 6180 6181 6182 
6183 6184 6185 6186 6187 6188 6189 6190 6191 
6192 6193 6194 6195 6196 6197 6198 6199 6200 
6201 6202 6203 6204 6205 6206 6207 6208 6209 
6210 6211 6212 6213 6214 6215 6216 6217 6218 
6219 6220 6221 6222 6223 6224 6225 6226 6227 
6228 6229 6230 6231 6232 6233 6234 6235 6236 
6237 6238 6239 6240 6241 6242 6243 6244 6245 
6246 6247 6248 6249 6250 6251 6252 6253 6254 
6255 6256 6257 6258 6259 6260 6261 6262 6263 
6264 6265 6266 6267 6268 6269 6270 6271 6272 
6273 6274 6275 6276 6277 6278 6279 6280 6281 
6282 6283 6284 6285 6286 6287 6288 6289 6290 
6291 6292 6293 6294 6295 6296 6297 6298 6299 
6300 6301 6302 6303 6304 6305 6306 6307 6308 
6309 6310 6311 6312 6313 6314 6315 6316 6317 
6318 6319 6320 6321 6322 6323 6324 6325 6326 
6327 6328 6329 6330 6331 6332 6333 6334 6335 
6336 6337 6338 6339 6340 6341 6342 6343 6344 
6345 6346 6347 6348 6349 6350 6351 6352 6353 
6354 6355 6356 6357 6358 6359 6360 6361 6362 
6363 6364 6365 6366 6367 6368 6369 6370 6371 
6372 6373 6374 6375 6376 6377 6378 6379 6380 
6381 6382 6383 6384 6385 6386 6387 6388 6389 
6390 6391 6392 6393 6394 6395 6396 6397 6398 
6399 6400 6401 6402 6403 6404 6405 6406 6407 
6408 6409 6410 6411 6412 6413 6414 6415 6416 
6417 6418 6419 6420 6421 6422 6423 6424 6425 
6426 6427 6428 6429 6430 6431 6432 6433 6434 
6435 6436 6437 6438 6439 6440 6441 6442 6443 
6444 6445 6446 6447 6448 6449 6450 6451 6452 
6453 6454 6455 6456 6457 6458 6459 6460 6461 
6462 6463 6464 6465 6466 6467 6468 6469 6470 
6471 6472 6473 6474 6475 6476 6477 6478 6479 
6480 6481 6482 6483 6484 6485 6486 6487 6488 
6489 6490 6491 6492 6493 6494 6495 6496 6497 
6498 6499 6500 6501 6502 6503 6504 6505 6506 
6507 6508 6509 6510 6511 6512 6513 6514 6515 
6516 6517 6518 6519 6520 6521 6522 6523 6524 
6525 6526 6527 6528 6529 6530 6531 6532 6533 
6534 6535 6536 6537 6538 6539 6540 6541 6542 
6543 6544 6545 6546 6547 6548 6549 6550 6551 
6552 6553 6554 6555 6556 6557 6558 6559 6560 
6561 6562 6563 6564 6565 6566 6567 6568 6569 
6570 6571 6572 6573 6574 6575 6576 6577 6578 
6579 6580 6581 6582 6583 6584 6585 6586 6587 
6588 6589 6590 6591 6592 6593 6594 6595 6596 
6597 6598 6599 6600 6601 6602 6603 6604 6605 
6606 6607 6608 6609 6610 6611 6612 6613 6614 
6615 6616 6617 6618 6619 6620 6621 6622 6623 
6624 6625 6626 6627 6628 6629 6630 6631 6632 
6633 6634 6635 6636 6637 6638 6639 6640 6641 
6642 6643 6644 6645 6646 6647 6648 6649 6650 
6651 6652 6653 6654 6655 6656 6657 6658 6659 
6660 6661 6662 6663 6664 6665 6666 6667 6668 
6669 6670 6671 6672 6673 6674 6675 6676 6677 
6678 6679 6680 6681 6682 6683 6684 6685 6686 
6687 6688 6689 6690 6691 6692 6693 6694 6695 
6696 6697 6698 6699 6700 6701 6702 6703 6704 
6705 6706 6707 6708 6709 6710 6711 6712 6713 
6714 6715 6716 6717 6718 6719 6720 6721 6722 
6723 6724 6725 6726 6727 6728 6729 6730 6731 
6732 6733 6734 6735 6736 6737 6738 6739 6740 
6741 6742 6743 6744 6745 6746 6747 6748 6749 
6750 6751 6752 6753 6754 6755 6756 6757 6758 
6759 6760 6761 6762 6763 6764 6765 6766 6767 
6768 6769 6770 6771 6772 6773 6774 6775 6776 
6777 6778 6779 6780 6781 6782 6783 6784 6785 
6786 6787 6788 6789 6790 6791 6792 6793 6794 
6795 6796 6797 6798 6799 6800 6801 6802 6803 
6804 6805 6806 6807 6808 6809 6810 6811 6812 
6813 6814 6815 6816 6817 6818 6819 6820 6821 
6822 6823 6824 6825 6826 6827 6828 6829 6830 
6831 6832 6833 6834 6835 6836 6837 6838 6839 
6840 6841 6842 6843 6844 6845 6846 6847 6848 
6849 6850 6851 6852 6853 6854 6855 6856 6857 
6858 6859 6860 6861 6862 6863 6864 6865 6866 
6867 6868 6869 6870 6871 6872 6873 6874 6875 
6876 6877 6878 6879 6880 6881 6882 6883 6884 
6885 6886 6887 6888 6889 6890 6891 6892 6893 
6894 6895 6896 6897 6898 6899 6900 6901 6902 
6903 6904 6905 6906 6907 6908 6909 6910 6911 
6912 6913 6914 6915 6916 6917 6918 6919 6920 
6921 6922 6923 6924 6925 6926 6927 6928 6929 
6930 6931 6932 6933 6934 6935 6936 6937 6938 
6939 6940 6941 6942 6943 6944 6945 6946 6947 
6948 6949 6950 6951 6952 6953 6954 6955 6956 
6957 6958 6959 6960 6961 6962 6963 6964 6965 
6966 6967 6968 6969 6970 6971 6972 6973 6974 
6975 6976 6977 6978 6979 6980 6981 6982 6983 
6984 6985 6986 6987 6988 6989 6990 6991 6992 
6993 6994 6995 6996 6997 6998 6999 7000 7001 
7002 7003 7004 7005 7006 7007 7008 7009 7010 
7011 7012 7013 7014 7015 7016 7017 7018 7019 
7020 7021 7022 7023 7024 7025 7026 7027 7028 
7029 7030 7031 7032 7033 7034 7035 7036 7037 
7038 7039 7040 7041 7042 7043 7044 7045 7046 
7047 7048 7049 7050 7051 7052 7053 7054 7055 
7056 7057 7058 7059 7060 7061 7062 7063 7064 
7065 7066 7067 7068 7069 7070 7071 7072 7073 
7074 7075 7076 7077 7078 7079 7080 7081 7082 
7083 7084 7085 7086 7087 7088 7089 7090 7091 
7092 7093 7094 7095 7096 7097 7098 7099 7100 
7101 7102 7103 7104 7105 7106 7107 7108 7109 
7110 7111 7112 7113 7114 7115 7116 7117 7118 
7119 7120 7121 7122 7123 7124 7125 7126 7127 
7128 7129 7130 7131 7132 7133 7134 7135 7136 
7137 7138 7139 7140 7141 7142 7143 7144 7145 
7146 7147 7148 7149 7150 7151 7152 7153 7154 
7155 7156 7157 7158 7159 7160 7161 7162 7163 
7164 7165 7166 7167 7168 7169 7170 7171 7172 
7173 7174 7175 7176 7177 7178 7179 7180 7181 
7182 7183 7184 7185 7186 7187 7188 7189 7190 
7191 7192 7193 7194 7195 7196 7197 7198 7199 
7200 7201 7202 7203 7204 7205 7206 7207 7208 
7209 7210 7211 7212 7213 7214 7215 7216 7217 
7218 7219 7220 7221 7222 7223 7224 7225 7226 
7227 7228 7229 7230 7231 7232 7233 7234 7235 
7236 7237 7238 7239 7240 7241 7242 7243 7244 
7245 7246 7247 7248 7249 7250 7251 7252 7253 
7254 7255 7256 7257 7258 7259 7260 7261 7262 
7263 7264 7265 7266 7267 7268 7269 7270 7271 
7272 7273 7274 7275 7276 7277 7278 7279 7280 
7281 7282 7283 7284 7285 7286 7287 7288 7289 
7290 7291 7292 7293 7294 7295 7296 7297 7298 
7299 7300 7301 7302 7303 7304 7305 7306 7307 
7308 7309 7310 7311 7312 7313 7314 7315 7316 
7317 7318 7319 7320 7321 7322 7323 7324 7325 
7326 7327 7328 7329 7330 7331 7332 7333 7334 
7335 7336 7337 7338 7339 7340 7341 7342 7343 
7344 7345 7346 7347 7348 7349 7350 7351 7352 
7353 7354 7355 7356 7357 7358 7359 7360 7361 
7362 7363 7364 7365 7366 7367 7368 7369 7370 
7371 7372 7373 7374 7375 7376 7377 7378 7379 
7380 7381 7382 7383 7384 7385 7386 7387 7388 
7389 7390 7391 7392 7393 7394 7395 7396 7397 
7398 7399 7400 7401 7402 7403 7404 7405 7406 
7407 7408 7409 7410 7411 7412 7413 7414 7415 
7416 7417 7418 7419 7420 7421 7422 7423 7424 
7425 7426 7427 7428 7429 7430 7431 7432 7433 
7434 7435 7436 7437 7438 7439 7440 7441 7442 
7443 7444 7445 7446 7447 7448 7449 7450 7451 
7452 7453 7454 7455 7456 7457 7458 7459 7460 
7461 7462 7463 7464 7465 7466 7467 7468 7469 
7470 7471 7472 7473 7474 7475 7476 7477 7478 
7479 7480 7481 7482 7483 7484 7485 7486 7487 
7488 7489 7490 7491 7492 7493 7494 7495 7496 
7497 7498 7499 7500 7501 7502 7503 7504 7505 
7506 7507 7508 7509 7510 7511 7512 7513 7514 
7515 7516 7517 7518 7519 7520 7521 7522 7523 
7524 7525 7526 7527 7528 7529 7530 7531 7532 
7533 7534 7535 7536 7537 7538 7539 7540 7541 
7542 7543 7544 7545 7546 7547 7548 7549 7550 
7551 7552 7553 7554 7555 7556 7557 7558 7559 
7560 7561 7562 7563 7564 7565 7566 7567 7568 
7569 7570 7571 7572 7573 7574 7575 7576 7577 
7578 7579 7580 7581 7582 7583 7584 7585 7586 
7587 7588 7589 7590 7591 7592 7593 7594 7595 
7596 7597 7598 7599 7600 7601 7602 7603 7604 
7605 7606 7607 7608 7609 7610 7611 7612 7613 
7614 7615 7616 7617 7618 7619 7620 7621 7622 
7623 7624 7625 7626 7627 7628 7629 7630 7631 
7632 7633 7634 7635 7636 7637 7638 7639 7640 
7641 7642 7643 7644 7645 7646 7647 7648 7649 
7650 7651 7652 7653 7654 7655 7656 7657 7658 
7659 7660 7661 7662 7663 7664 7665 7666 7667 
7668 7669 7670 7671 7672 7673 7674 7675 7676 
7677 7678 7679 7680 7681 7682 7683 7684 7685 
7686 7687 7688 7689 7690 7691 7692 7693 7694 
7695 7696 7697 7698 7699 7700 7701 7702 7703 
7704 7705 7706 7707 7708 7709 7710 7711 7712 
7713 7714 7715 7716 7717 7718 7719 7720 7721 
7722 7723 7724 7725 7726 7727 7728 7729 7730 
7731 7732 7733 7734 7735 7736 7737 7738 7739 
7740 7741 7742 7743 7744 7745 7746 7747 7748 
7749 7750 7751 7752 7753 7754 7755 7756 7757 
7758 7759 7760 7761 7762 7763 7764 7765 7766 
7767 7768 7769 7770 7771 7772 7773 7774 7775 
7776 7777 7778 7779 7780 7781 7782 7783 7784 
7785 7786 7787 7788 7789 7790 7791 7792 7793 
7794 7795 7796 7797 7798 7799 7800 7801 7802 
7803 7804 7805 7806 7807 7808 7809 7810 7811 
7812 7813 7814 7815 7816 7817 7818 7819 7820 
7821 7822 7823 7824 7825 7826 7827 7828 7829 
7830 7831 7832 7833 7834 7835 7836 7837 7838 
7839 7840 7841 7842 7843 7844 7845 7846 7847 
7848 7849 7850 7851 7852 7853 7854 7855 7856 
7857 7858 7859 7860 7861 7862 7863 7864 7865 
7866 7867 7868 7869 7870 7871 7872 7873 7874 
7875 7876 7877 7878 7879 7880 7881 7882 7883 
7884 7885 7886 7887 7888 7889 7890 7891 7892 
7893 7894 7895 7896 7897 7898 7899 7900 7901 
7902 7903 7904 7905 7906 7907 7908 7909 7910 
7911 7912 7913 7914 7915 7916 7917 7918 7919 
7920 7921 7922 7923 7924 7925 7926 7927 7928 
7929 7930 7931 7932 7933 7934 7935 7936 7937 
7938 7939 7940 7941 7942 7943 7944 7945 7946 
7947 7948 7949 7950 7951 7952 7953 7954 7955 
7956 7957 7958 7959 7960 7961 7962 7963 7964 
7965 7966 7967 7968 7969 7970 7971 7972 7973 
7974 7975 7976 7977 7978 7979 7980 7981 7982 
7983 7984 7985 7986 7987 7988 7989 7990 7991 
7992 7993 7994 7995 7996 7997 7998 7999 8000 
8001 8002 8003 8004 8005 8006 8007 8008 8009 
8010 8011 8012 8013 8014 8015 8016 8017 8018 
8019 8020 8021 8022 8023 8024 8025 8026 8027 
8028 8029 8030 8031 8032 8033 8034 8035 8036 
8037 8038 8039 8040 8041 8042 8043 8044 8045 
8046 8047 8048 8049 8050 8051 8052 8053 8054 
8055 8056 8057 8058 8059 8060 8061 8062 8063 
8064 8065 8066 8067 8068 8069 8070 8071 8072 
8073 8074 8075 8076 8077 8078 8079 8080 8081 
8082 8083 8084 8085 8086 8087 8088 8089 8090 
8091 8092 8093 8094 8095 8096 8097 8098 8099 
8100 8101 8102 8103 8104 8105 8106 8107 8108 
8109 8110 8111 8112 8113 8114 8115 8116 8117 
8118 8119 8120 8121 8122 8123 8124 8125 8126 
8127 8128 8129 8130 8131 8132 8133 8134 8135 
8136 8137 8138 8139 8140 8141 8142 8143 8144 
8145 8146 8147 8148 8149 8150 8151 8152 8153 
8154 8155 8156 8157 8158 8159 8160 8161 8162 
8163 8164 8165 8166 8167 8168 8169 8170 8171 
8172 8173 8174 8175 8176 8177 8178 8179 8180 
8181 8182 8183 8184 8185 8186 8187 8188 8189 
8190 8191 8192 8193 8194 8195 8196 8197 8198 
8199 8200 8201 8202 8203 8204 8205 8206 8207 
8208 8209 8210 8211 8212 8213 8214 8215 8216 
8217 8218 8219 8220 8221 8222 8223 8224 8225 
8226 8227 8228 8229 8230 8231 8232 8233 8234 
8235 8236 8237 8238 8239 8240 8241 8242 8243 
8244 8245 8246 8247 8248 8249 8250 8251 8252 
8253 8254 8255 8256 8257 8258 8259 8260 8261 
8262 8263 8264 8265 8266 8267 8268 8269 8270 
8271 8272 8273 8274 8275 8276 8277 8278 8279 
8280 8281 8282 8283 8284 8285 8286 8287 8288 
8289 8290 8291 8292 8293 8294 8295 8296 8297 
8298 8299 8300 8301 8302 8303 8304 8305 8306 
8307 8308 8309 8310 8311 8312 8313 8314 8315 
8316 8317 8318 8319 8320 8321 8322 8323 8324 
8325 8326 8327 8328 8329 8330 8331 8332 8333 
8334 8335 8336 8337 8338 8339 8340 8341 8342 
8343 8344 8345 8346 8347 8348 8349 8350 8351 
8352 8353 8354 8355 8356 8357 8358 8359 8360 
8361 8362 8363 8364 8365 8366 8367 8368 8369 
8370 8371 8372 8373 8374 8375 8376 8377 8378 
8379 8380 8381 8382 8383 8384 8385 8386 8387 
8388 8389 8390 8391 8392 8393 8394 8395 8396 
8397 8398 8399 8400 8401 8402 8403 8404 8405 
8406 8407 8408 8409 8410 8411 8412 8413 8414 
8415 8416 8417 8418 8419 8420 8421 8422 8423 
8424 8425 8426 8427 8428 8429 8430 8431 8432 
8433 8434 8435 8436 8437 8438 8439 8440 8441 
8442 8443 8444 8445 8446 8447 8448 8449 8450 
8451 8452 8453 8454 8455 8456 8457 8458 8459 
8460 8461 8462 8463 8464 8465 8466 8467 8468 
8469 8470 8471 8472 8473 8474 8475 8476 8477 
8478 8479 8480 8481 8482 8483 8484 8485 8486 
8487 8488 8489 8490 8491 8492 8493 8494 8495 
8496 8497 8498 8499 8500 8501 8502 8503 8504 
8505 8506 8507 8508 8509 8510 8511 8512 8513 
8514 8515 8516 8517 8518 8519 8520 8521 8522 
8523 8524 8525 8526 8527 8528 8529 8530 8531 
8532 8533 8534 8535 8536 8537 8538 8539 8540 
8541 8542 8543 8544 8545 8546 8547 8548 8549 
8550 8551 8552 8553 8554 8555 8556 8557 8558 
8559 8560 8561 8562 8563 8564 8565 8566 8567 
8568 8569 8570 8571 8572 8573 8574 8575 8576 
8577 8578 8579 8580 8581 8582 8583 8584 8585 
8586 8587 8588 8589 8590 8591 8592 8593 8594 
8595 8596 8597 8598 8599 8600 8601 8602 8603 
8604 8605 8606 8607 8608 8609 8610 8611 8612 
8613 8614 8615 8616 8617 8618 8619 8620 8621 
8622 8623 8624 8625 8626 8627 8628 8629 8630 
8631 8632 8633 8634 8635 8636 8637 8638 8639 
8640 8641 8642 8643 8644 8645 8646 8647 8648 
8649 8650 8651 8652 8653 8654 8655 8656 8657 
8658 8659 8660 8661 8662 8663 8664 8665 8666 
8667 8668 8669 8670 8671 8672 8673 8674 8675 
8676 8677 8678 8679 8680 8681 8682 8683 8684 
8685 8686 8687 8688 8689 8690 8691 8692 8693 
8694 8695 8696 8697 8698 8699 8700 8701 8702 
8703 8704 8705 8706 8707 8708 8709 8710 8711 
8712 8713 8714 8715 8716 8717 8718 8719 8720 
8721 8722 8723 8724 8725 8726 8727 8728 8729 
8730 8731 8732 8733 8734 8735 8736 8737 8738 
8739 8740 8741 8742 8743 8744 8745 8746 8747 
8748 8749 8750 8751 8752 8753 8754 8755 8756 
8757 8758 8759 8760 8761 8762 8763 8764 8765 
8766 8767 8768 8769 8770 8771 8772 8773 8774 
8775 8776 8777 8778 8779 8780 8781 8782 8783 
8784 8785 8786 8787 8788 8789 8790 8791 8792 
8793 8794 8795 8796 8797 8798 8799 8800 8801 
8802 8803 8804 8805 8806 8807 8808 8809 8810 
8811 8812 8813 8814 8815 8816 8817 8818 8819 
8820 8821 8822 8823 8824 8825 8826 8827 8828 
8829 8830 8831 8832 8833 8834 8835 8836 8837 
8838 8839 8840 8841 8842 8843 8844 8845 8846 
8847 8848 8849 8850 8851 8852 8853 8854 8855 
8856 8857 8858 8859 8860 8861 8862 8863 8864 
8865 8866 8867 8868 8869 8870 8871 8872 8873 
8874 8875 8876 8877 8878 8879 8880 8881 8882 
8883 8884 8885 8886 8887 8888 8889 8890 8891 
8892 8893 8894 8895 8896 8897 8898 8899 8900 
8901 8902 8903 8904 8905 8906 8907 8908 8909 
8910 8911 8912 8913 8914 8915 8916 8917 8918 
8919 8920 8921 8922 8923 8924 8925 8926 8927 
8928 8929 8930 8931 8932 8933 8934 8935 8936 
8937 8938 8939 8940 8941 8942 8943 8944 8945 
8946 8947 8948 8949 8950 8951 8952 8953 8954 
8955 8956 8957 8958 8959 8960 8961 8962 8963 
8964 8965 8966 8967 8968 8969 8970 8971 8972 
8973 8974 8975 8976 8977 8978 8979 8980 8981 
8982 8983 8984 8985 8986 8987 8988 8989 8990 
8991 8992 8993 8994 8995 8996 8997 8998 8999 
9000 9001 9002 9003 9004 9005 9006 9007 9008 
9009 9010 9011 9012 9013 9014 9015 9016 9017 
9018 9019 9020 9021 9022 9023 9024 9025 9026 
9027 9028 9029 9030 9031 9032 9033 9034 9035 
9036 9037 9038 9039 9040 9041 9042 9043 9044 
9045 9046 9047 9048 9049 9050 9051 9052 9053 
9054 9055 9056 9057 9058 9059 9060 9061 9062 
9063 9064 9065 9066 9067 9068 9069 9070 9071 
9072 9073 9074 9075 9076 9077 9078 9079 9080 
9081 9082 9083 9084 9085 9086 9087 9088 9089 
9090 9091 9092 9093 9094 9095 9096 9097 9098 
9099 9100 9101 9102 9103 9104 9105 9106 9107 
9108 9109 9110 9111 9112 9113 9114 9115 9116 
9117 9118 9119 9120 9121 9122 9123 9124 9125 
9126 9127 9128 9129 9130 9131 9132 9133 9134 
9135 9136 9137 9138 9139 9140 9141 9142 9143 
9144 9145 9146 9147 9148 9149 9150 9151 9152 
9153 9154 9155 9156 9157 9158 9159 9160 9161 
9162 9163 9164 9165 9166 9167 9168 9169 9170 
9171 9172 9173 9174 9175 9176 9177 9178 9179 
9180 9181 9182 9183 9184 9185 9186 9187 9188 
9189 9190 9191 9192 9193 9194 9195 9196 9197 
9198 9199 9200 9201 9202 9203 9204 9205 9206 
9207 9208 9209 9210 9211 9212 9213 9214 9215 
9216 9217 9218 9219 9220 9221 9222 9223 9224 
9225 9226 9227 9228 9229 9230 9231 9232 9233 
9234 9235 9236 9237 9238 9239 9240 9241 9242 
9243 9244 9245 9246 9247 9248 9249 9250 9251 
9252 9253 9254 9255 9256 9257 9258 9259 9260 
9261 9262 9263 9264 9265 9266 9267 9268 9269 
9270 9271 9272 9273 9274 9275 9276 9277 9278 
9279 9280 9281 9282 9283 9284 9285 9286 9287 
9288 9289 9290 9291 9292 9293 9294 9295 9296 
9297 9298 9299 9300 9301 9302 9303 9304 9305 
9306 9307 9308 9309 9310 9311 9312 9313 9314 
9315 9316 9317 9318 9319 9320 9321 9322 9323 
9324 9325 9326 9327 9328 9329 9330 9331 9332 
9333 9334 9335 9336 9337 9338 9339 9340 9341 
9342 9343 9344 9345 9346 9347 9348 9349 9350 
9351 9352 9353 9354 9355 9356 9357 9358 9359 
9360 9361 9362 9363 9364 9365 9366 9367 9368 
9369 9370 9371 9372 9373 9374 9375 9376 9377 
9378 9379 9380 9381 9382 9383 9384 9385 9386 
9387 9388 9389 9390 9391 9392 9393 9394 9395 
9396 9397 9398 9399 9400 9401 9402 9403 9404 
9405 9406 9407 9408 9409 9410 9411 9412 9413 
9414 9415 9416 9417 9418 9419 9420 9421 9422 
9423 9424 9425 9426 9427 9428 9429 9430 9431 
9432 9433 9434 9435 9436 9437 9438 9439 9440 
9441 9442 9443 9444 9445 9446 9447 9448 9449 
9450 9451 9452 9453 9454 9455 9456 9457 9458 
9459 9460 9461 9462 9463 9464 9465 9466 9467 
9468 9469 9470 9471 9472 9473 9474 9475 9476 
9477 9478 9479 9480 9481 9482 9483 9484 9485 
9486 9487 9488 9489 9490 9491 9492 9493 9494 
9495 9496 9497 9498 9499 9500 9501 9502 9503 
9504 9505 9506 9507 9508 9509 9510 9511 9512 
9513 9514 9515 9516 9517 9518 9519 9520 9521 
9522 9523 9524 9525 9526 9527 9528 9529 9530 
9531 9532 9533 9534 9535 9536 9537 9538 9539 
9540 9541 9542 9543 9544 9545 9546 9547 9548 
9549 9550 9551 9552 9553 9554 9555 9556 9557 
9558 9559 9560 9561 9562 9563 9564 9565 9566 
9567 9568 9569 9570 9571 9572 9573 9574 9575 
9576 9577 9578 9579 9580 9581 9582 9583 9584 
9585 9586 9587 9588 9589 9590 9591 9592 9593 
9594 9595 9596 9597 9598 9599 9600 9601 9602 
9603 9604 9605 9606 9607 9608 9609 9610 9611 
9612 9613 9614 9615 9616 9617 9618 9619 9620 
9621 9622 9623 9624 9625 9626 9627 9628 9629 
9630 9631 9632 9633 9634 9635 9636 9637 9638 
9639 9640 9641 9642 9643 9644 9645 9646 9647 
9648 9649 9650 9651 9652 9653 9654 9655 9656 
9657 9658 9659 9660 9661 9662 9663 9664 9665 
9666 9667 9668 9669 9670 9671 9672 9673 9674 
9675 9676 9677 9678 9679 9680 9681 9682 9683 
9684 9685 9686 9687 9688 9689 9690 9691 9692 
9693 9694 9695 9696 9697 9698 9699 9700 9701 
9702 9703 9704 9705 9706 9707 9708 9709 9710 
9711 9712 9713 9714 9715 9716 9717 9718 9719 
9720 9721 9722 9723 9724 9725 9726 9727 9728 
9729 9730 9731 9732 9733 9734 9735 9736 9737 
9738 9739 9740 9741 9742 9743 9744 9745 9746 
9747 9748 9749 9750 9751 9752 9753 9754 9755 
9756 9757 9758 9759 9760 9761 9762 9763 9764 
9765 9766 9767 9768 9769 9770 9771 9772 9773 
9774 9775 9776 9777 9778 9779 9780 9781 9782 
9783 9784 9785 9786 9787 9788 9789 9790 9791 
9792 9793 9794 9795 9796 9797 9798 9799 9800 
9801 9802 9803 9804 9805 9806 9807 9808 9809 
9810 9811 9812 9813 9814 9815 9816 9817 9818 
9819 9820 9821 9822 9823 9824 9825 9826 9827 
9828 9829 9830 9831 9832 9833 9834 9835 9836 
9837 9838 9839 9840 9841 9842 9843 9844 9845 
9846 9847 9848 9849 9850 9851 9852 9853 9854 
9855 9856 9857 9858 9859 9860 9861 9862 9863 
9864 9865 9866 9867 9868 9869 9870 9871 9872 
9873 9874 9875 9876 9877 9878 9879 9880 9881 
9882 9883 9884 9885 9886 9887 9888 9889 9890 
9891 9892 9893 9894 9895 9896 9897 9898 9899 
9900 9901 9902 9903 9904 9905 9906 9907 9908 
9909 9910 9911 9912 9913 9914 9915 9916 9917 
9918 9919 9920 9921 9922 9923 9924 9925 9926 
9927 9928 9929 9930 9931 9932 9933 9934 9935 
9936 9937 9938 9939 9940 9941 9942 9943 9944 
9945 9946 9947 9948 9949 9950 9951 9952 9953 
9954 9955 9956 9957 9958 9959 9960 9961 9962 
9963 9964 9965 9966 9967 9968 9969 9970 9971 
9972 9973 9974 9975 9976 9977 9978 9979 9980 
9981 9982 9983 9984 9985 9986 9987 9988 9989 
9990 9991 9992 9993 9994 9995 9996 9997 9998 
9999 10000 10001 10002 10003 10004 10005 10006 10007 
10008 10009 10010 10011 10012 10013 10014 10015 10016 
10017 10018 10019 10020 10021 10022 10023 10024 10025 
10026 10027 10028 10029 10030 10031 10032 10033 10034 
10035 10036 10037 10038 10039 10040 10041 10042 10043 
10044 10045 10046 10047 10048 10049 10050 10051 10052 
10053 10054 10055 10056 10057 10058 10059 10060 10061 
10062 10063 10064 10065 10066 10067 10068 10069 10070 
10071 10072 10073 10074 10075 10076 10077 10078 10079 
10080 10081 10082 10083 10084 10085 10086 10087 10088 
10089 10090 10091 10092 10093 10094 10095 10096 10097 
10098 10099 10100 10101 10102 10103 10104 10105 10106 
10107 10108 10109 10110 10111 10112 10113 10114 10115 
10116 10117 10118 10119 10120 10121 10122 10123 10124 
10125 10126 10127 10128 10129 10130 10131 10132 10133 
10134 10135 10136 10137 10138 10139 10140 10141 10142 
10143 10144 10145 10146 10147 10148 10149 10150 10151 
10152 10153 10154 10155 10156 10157 10158 10159 10160 
10161 10162 10163 10164 10165 10166 10167 10168 10169 
10170 10171 10172 10173 10174 10175 10176 10177 10178 
10179 10180 10181 10182 10183 10184 10185 10186 10187 
10188 10189 10190 10191 10192 10193 10194 10195 10196 
10197 10198 10199 10200 10201 10202 10203 10204 10205 
10206 10207 10208 10209 10210 10211 10212 10213 10214 
10215 10216 10217 10218 10219 10220 10221 10222 10223 
10224 10225 10226 10227 10228 10229 10230 10231 10232 
10233 10234 10235 10236 10237 10238 10239 10240 10241 
10242 10243 10244 10245 10246 10247 10248 10249 10250 
10251 10252 10253 10254 10255 10256 10257 10258 10259 
10260 10261 10262 10263 10264 10265 10266 10267 10268 
10269 10270 10271 10272 10273 10274 10275 10276 10277 
10278 10279 10280 10281 10282 10283 10284 10285 10286 
10287 10288 10289 10290 10291 10292 10293 10294 10295 
10296 10297 10298 10299 10300 10301 10302 10303 10304 
10305 10306 10307 10308 10309 10310 10311 10312 10313 
10314 10315 10316 10317 10318 10319 10320 10321 10322 
10323 10324 10325 10326 10327 10328 10329 10330 10331 
10332 10333 10334 10335 10336 10337 10338 10339 10340 
10341 10342 10343 10344 10345 10346 10347 10348 10349 
10350 10351 10352 10353 10354 10355 10356 10357 10358 
10359 10360 10361 10362 10363 10364 10365 10366 10367 
10368 10369 10370 10371 10372 10373 10374 10375 10376 
10377 10378 10379 10380 10381 10382 10383 10384 10385 
10386 10387 10388 10389 10390 10391 10392 10393 10394 
10395 10396 10397 10398 10399 10400 10401 10402 10403 
10404 10405 10406 10407 10408 10409 10410 10411 10412 
10413 10414 10415 10416 10417 10418 10419 10420 10421 
10422 10423 10424 10425 10426 10427 10428 10429 10430 
10431 10432 10433 10434 10435 10436 10437 10438 10439 
10440 10441 10442 10443 10444 10445 10446 10447 10448 
10449 10450 10451 10452 10453 10454 10455 10456 10457 
10458 10459 10460 10461 10462 10463 10464 10465 10466 
10467 10468 10469 10470 10471 10472 10473 10474 10475 
10476 10477 10478 10479 10480 10481 10482 10483 10484 
10485 10486 10487 10488 10489 10490 10491 10492 10493 
10494 10495 10496 10497 10498 10499 10500 10501 10502 
10503 10504 10505 10506 10507 10508 10509 10510 10511 
10512 10513 10514 10515 10516 10517 10518 10519 10520 
10521 10522 10523 10524 10525 10526 10527 10528 10529 
10530 10531 10532 10533 10534 10535 10536 10537 10538 
10539 10540 10541 10542 10543 10544 10545 10546 10547 
10548 10549 10550 10551 10552 10553 10554 10555 10556 
10557 10558 10559 10560 10561 10562 10563 10564 10565 
10566 10567 10568 10569 10570 10571 10572 10573 10574 
10575 10576 10577 10578 10579 10580 10581 10582 10583 
10584 10585 10586 10587 10588 10589 10590 10591 10592 
10593 10594 10595 10596 10597 10598 10599 10600 10601 
10602 10603 10604 10605 10606 10607 10608 10609 10610 
10611 10612 10613 10614 10615 10616 10617 10618 10619 
10620 10621 10622 10623 10624 10625 10626 10627 10628 
10629 10630 10631 10632 10633 10634 10635 10636 10637 
10638 10639 10640 10641 10642 10643 10644 10645 10646 
10647 10648 10649 10650 10651 10652 10653 10654 10655 
10656 10657 10658 10659 10660 10661 10662 10663 10664 
10665 10666 10667 10668 10669 10670 10671 10672 10673 
10674 10675 10676 10677 10678 10679 10680 10681 10682 
10683 10684 10685 10686 10687 10688 10689 10690 10691 
10692 10693 10694 10695 10696 10697 10698 10699 10700 
10701 10702 10703 10704 10705 10706 10707 10708 10709 
10710 10711 10712 10713 10714 10715 10716 10717 10718 
10719 10720 10721 10722 10723 10724 10725 10726 10727 
10728 10729 10730 10731 10732 10733 10734 10735 10736 
10737 10738 10739 10740 10741 10742 10743 10744 10745 
10746 10747 10748 10749 10750 10751 10752 10753 10754 
10755 10756 10757 10758 10759 10760 10761 10762 10763 
10764 10765 10766 10767 10768 10769 10770 10771 10772 
10773 10774 10775 10776 10777 10778 10779 10780 10781 
10782 10783 10784 10785 10786 10787 10788 10789 10790 
10791 10792 10793 10794 10795 10796 10797 10798 10799 
10800 10801 10802 10803 10804 10805 10806 10807 10808 
10809 10810 10811 10812 10813 10814 10815 10816 10817 
10818 10819 10820 10821 10822 10823 10824 10825 10826 
10827 10828 10829 10830 10831 10832 10833 10834 10835 
10836 10837 10838 10839 10840 10841 10842 10843 10844 
10845 10846 10847 10848 10849 10850 10851 10852 10853 
10854 10855 10856 10857 10858 10859 10860 10861 10862 
10863 10864 10865 10866 10867 10868 10869 10870 10871 
10872 10873 10874 10875 10876 10877 10878 10879 10880 
10881 10882 10883 10884 10885 10886 10887 10888 10889 
10890 10891 10892 10893 10894 10895 10896 10897 10898 
10899 10900 10901 10902 10903 10904 10905 10906 10907 
10908 10909 10910 10911 10912 10913 10914 10915 10916 
10917 10918 10919 10920 10921 10922 10923 10924 10925 
10926 10927 10928 10929 10930 10931 10932 10933 10934 
10935 10936 10937 10938 10939 10940 10941 10942 10943 
10944 10945 10946 10947 10948 10949 10950 10951 10952 
10953 10954 10955 10956 10957 10958 10959 10960 10961 
10962 10963 10964 10965 10966 10967 10968 10969 10970 
10971 10972 10973 10974 10975 10976 10977 10978 10979 
10980 10981 10982 10983 10984 10985 10986 10987 10988 
10989 10990 10991 10992 10993 10994 10995 10996 10997 
10998 10999 11000 11001 11002 11003 11004 11005 11006 
11007 11008 11009 11010 11011 11012 11013 11014 11015 
11016 11017 11018 11019 11020 11021 11022 11023 11024 
11025 11026 11027 11028 11029 11030 11031 11032 11033 
11034 11035 11036 11037 11038 11039 11040 11041 11042 
11043 11044 11045 11046 11047 11048 11049 11050 11051 
11052 11053 11054 11055 11056 11057 11058 11059 11060 
11061 11062 11063 11064 11065 11066 11067 11068 11069 
11070 11071 11072 11073 11074 11075 11076 11077 11078 
11079 11080 11081 11082 11083 11084 11085 11086 11087 
11088 11089 11090 11091 11092 11093 11094 11095 11096 
11097 11098 11099 11100 11101 11102 11103 11104 11105 
11106 11107 11108 11109 11110 11111 11112 11113 11114 
11115 11116 11117 11118 11119 11120 11121 11122 11123 
11124 11125 11126 11127 11128 11129 11130 11131 11132 
11133 11134 11135 11136 11137 11138 11139 11140 11141 
11142 11143 11144 11145 11146 11147 11148 11149 11150 
11151 11152 11153 11154 11155 11156 11157 11158 11159 
11160 11161 11162 11163 11164 11165 11166 11167 11168 
11169 11170 11171 11172 11173 11174 11175 11176 11177 
11178 11179 11180 11181 11182 11183 11184 11185 11186 
11187 11188 11189 11190 11191 11192 11193 11194 11195 
11196 11197 11198 11199 11200 11201 11202 11203 11204 
11205 11206 11207 11208 11209 11210 11211 11212 11213 
11214 11215 11216 11217 11218 11219 11220 11221 11222 
11223 11224 11225 11226 11227 11228 11229 11230 11231 
11232 11233 11234 11235 11236 11237 11238 11239 11240 
11241 11242 11243 11244 11245 11246 11247 11248 11249 
11250 11251 11252 11253 11254 11255 11256 11257 11258 
11259 11260 11261 11262 11263 11264 11265 11266 11267 
11268 11269 11270 11271 11272 11273 11274 11275 11276 
11277 11278 11279 11280 11281 11282 11283 11284 11285 
11286 11287 11288 11289 11290 11291 11292 11293 11294 
11295 11296 11297 11298 11299 11300 11301 11302 11303 
11304 11305 11306 11307 11308 11309 11310 11311 11312 
11313 11314 11315 11316 11317 11318 11319 11320 11321 
11322 11323 11324 11325 11326 11327 11328 11329 11330 
11331 11332 11333 11334 11335 11336 11337 11338 11339 
11340 11341 11342 11343 11344 11345 11346 11347 11348 
11349 11350 11351 11352 11353 11354 11355 11356 11357 
11358 11359 11360 11361 11362 11363 11364 11365 11366 
11367 11368 11369 11370 11371 11372 11373 11374 11375 
11376 11377 11378 11379 11380 11381 11382 11383 11384 
11385 11386 11387 11388 11389 11390 11391 11392 11393 
11394 11395 11396 11397 11398 11399 11400 11401 11402 
11403 11404 11405 11406 11407 11408 11409 11410 11411 
11412 11413 11414 11415 11416 11417 11418 11419 11420 
11421 11422 11423 11424 11425 11426 11427 11428 11429 
11430 11431 11432 11433 11434 11435 11436 11437 11438 
11439 11440 11441 11442 11443 11444 11445 11446 11447 
11448 11449 11450 11451 11452 11453 11454 11455 11456 
11457 11458 11459 11460 11461 11462 11463 11464 11465 
11466 11467 11468 11469 11470 11471 11472 11473 11474 
11475 11476 11477 11478 11479 11480 11481 11482 11483 
11484 11485 11486 11487 11488 11489 11490 11491 11492 
11493 11494 11495 11496 11497 11498 11499 11500 11501 
11502 11503 11504 11505 11506 11507 11508 11509 11510 
11511 11512 11513 11514 11515 11516 11517 11518 11519 
11520 11521 11522 11523 11524 11525 11526 11527 11528 
11529 11530 11531 11532 11533 11534 11535 11536 11537 
11538 11539 11540 11541 11542 11543 11544 11545 11546 
11547 11548 11549 11550 11551 11552 11553 11554 11555 
11556 11557 11558 11559 11560 11561 11562 11563 11564 
11565 11566 11567 11568 11569 11570 11571 11572 11573 
11574 11575 11576 11577 11578 11579 11580 11581 11582 
11583 11584 11585 11586 11587 11588 11589 11590 11591 
11592 11593 11594 11595 11596 11597 11598 11599 11600 
11601 11602 11603 11604 11605 11606 11607 11608 11609 
11610 11611 11612 11613 11614 11615 11616 11617 11618 
11619 11620 11621 11622 11623 11624 11625 11626 11627 
11628 11629 11630 11631 11632 11633 11634 11635 11636 
11637 11638 11639 11640 11641 11642 11643 11644 11645 
11646 11647 11648 11649 11650 11651 11652 11653 11654 
11655 11656 11657 11658 11659 11660 11661 11662 11663 
11664 11665 11666 11667 11668 11669 11670 11671 11672 
11673 11674 11675 11676 11677 11678 11679 11680 11681 
11682 11683 11684 11685 11686 11687 11688 11689 11690 
11691 11692 11693 11694 11695 11696 11697 11698 11699 
11700 11701 11702 11703 11704 11705 11706 11707 11708 
11709 11710 11711 11712 11713 11714 11715 11716 11717 
11718 11719 11720 11721 11722 11723 11724 11725 11726 
11727 11728 11729 11730 11731 11732 11733 11734 11735 
11736 11737 11738 11739 11740 11741 11742 11743 11744 
11745 11746 11747 11748 11749 11750 11751 11752 11753 
11754 11755 11756 11757 11758 11759 11760 11761 11762 
11763 11764 11765 11766 11767 11768 11769 11770 11771 
11772 11773 11774 11775 11776 11777 11778 11779 11780 
11781 11782 11783 11784 11785 11786 11787 11788 11789 
11790 11791 11792 11793 11794 11795 11796 11797 11798 
11799 11800 11801 11802 11803 11804 11805 11806 11807 
11808 11809 11810 11811 11812 11813 11814 11815 11816 
11817 11818 11819 11820 11821 11822 11823 11824 11825 
11826 11827 11828 11829 11830 11831 11832 11833 11834 
11835 11836 11837 11838 11839 11840 11841 11842 11843 
11844 11845 11846 11847 11848 11849 11850 11851 11852 
11853 11854 11855 11856 11857 11858 11859 11860 11861 
11862 11863 11864 11865 11866 11867 11868 11869 11870 
11871 11872 11873 11874 11875 11876 11877 11878 11879 
11880 11881 11882 11883 11884 11885 11886 11887 11888 
11889 11890 11891 11892 11893 11894 11895 11896 11897 
11898 11899 11900 11901 11902 11903 11904 11905 11906 
11907 11908 11909 11910 11911 11912 11913 11914 11915 
11916 11917 11918 11919 11920 11921 11922 11923 11924 
11925 11926 11927 11928 11929 11930 11931 11932 11933 
11934 11935 11936 11937 11938 11939 11940 11941 11942 
11943 11944 11945 11946 11947 11948 11949 11950 11951 
11952 11953 11954 11955 11956 11957 11958 11959 11960 
11961 11962 11963 11964 11965 11966 11967 11968 11969 
11970 11971 11972 11973 11974 11975 11976 11977 11978 
11979 11980 11981 11982 11983 11984 11985 11986 11987 
11988 11989 11990 11991 11992 11993 11994 11995 11996 
11997 11998 11999 12000 12001 12002 12003 12004 12005 
12006 12007 12008 12009 12010 12011 12012 12013 12014 
12015 12016 12017 12018 12019 12020 12021 12022 12023 
12024 12025 12026 12027 12028 12029 12030 12031 12032 
12033 12034 12035 12036 12037 12038 12039 12040 12041 
12042 12043 12044 12045 12046 12047 12048 12049 12050 
12051 12052 12053 12054 12055 12056 12057 12058 12059 
12060 12061 12062 12063 12064 12065 12066 12067 12068 
12069 12070 12071 12072 12073 12074 12075 12076 12077 
12078 12079 12080 12081 12082 12083 12084 12085 12086 
12087 12088 12089 12090 12091 12092 12093 12094 12095 
12096 12097 12098 12099 12100 12101 12102 12103 12104 
12105 12106 12107 12108 12109 12110 12111 12112 12113 
12114 12115 12116 12117 12118 12119 12120 12121 12122 
12123 12124 12125 12126 12127 12128 12129 12130 12131 
12132 12133 12134 12135 12136 12137 12138 12139 12140 
12141 12142 12143 12144 12145 12146 12147 12148 12149 
12150 12151 12152 12153 12154 12155 12156 12157 12158 
12159 12160 12161 12162 12163 12164 12165 12166 12167 
12168 12169 12170 12171 12172 12173 12174 12175 12176 
12177 12178 12179 12180 12181 12182 12183 12184 12185 
12186 12187 12188 12189 12190 12191 12192 12193 12194 
12195 12196 12197 12198 12199 12200 12201 12202 12203 
12204 12205 12206 12207 12208 12209 12210 12211 12212 
12213 12214 12215 12216 12217 12218 12219 12220 12221 
12222 12223 12224 12225 12226 12227 12228 12229 12230 
12231 12232 12233 12234 12235 12236 12237 12238 12239 
12240 12241 12242 12243 12244 12245 12246 12247 12248 
12249 12250 12251 12252 12253 12254 12255 12256 12257 
12258 12259 12260 12261 12262 12263 12264 12265 12266 
12267 12268 12269 12270 12271 12272 12273 12274 12275 
12276 12277 12278 12279 12280 12281 12282 12283 12284 
12285 12286 12287 12288 12289 12290 12291 12292 12293 
12294 12295 12296 12297 12298 12299 12300 12301 12302 
12303 12304 12305 12306 12307 12308 12309 12310 12311 
12312 12313 12314 12315 12316 12317 12318 12319 12320 
12321 12322 12323 12324 12325 12326 12327 12328 12329 
12330 12331 12332 12333 12334 12335 12336 12337 12338 
12339 12340 12341 12342 12343 12344 12345 12346 12347 
12348 12349 12350 12351 12352 12353 12354 12355 12356 
12357 12358 12359 12360 12361 12362 12363 12364 12365 
12366 12367 12368 12369 12370 12371 12372 12373 12374 
12375 12376 12377 12378 12379 12380 12381 12382 12383 
12384 12385 12386 12387 12388 12389 12390 12391 12392 
12393 12394 12395 12396 12397 12398 12399 12400 12401 
12402 12403 12404 12405 12406 12407 12408 12409 12410 
      </DataArray>
      <DataArray type="Int32" Name="offsets" format="ascii">
9
18
27
36
45
54
63
72
81
90
99
108
117
126
135
144
153
162
171
180
189
198
207
216
225
234
243
252
261
270
279
288
297
306
315
324
333
342
351
360
369
378
387
396
405
414
423
432
441
450
459
468
477
486
495
504
513
522
531
540
549
558
567
576
585
594
603
612
621
630
639
648
657
666
675
684
693
702
711
720
729
738
747
756
765
774
783
792
801
810
819
828
837
846
855
864
873
882
891
900
909
918
927
936
945
954
963
972
981
990
999
1008
1017
1026
1035
1044
1053
1062
1071
1080
1089
1098
1107
1116
1125
1134
1143
1152
1161
1170
1179
1188
1197
1206
1215
1224
1233
1242
1251
1260
1269
1278
1287
1296
1305
1314
1323
1332
1341
1350
1359
1368
1377
1386
1395
1404
1413
1422
1431
1440
1449
1458
1467
1476
1485
1494
1503
1512
1521
1530
1539
1548
1557
1566
1575
1584
1593
1602
1611
1620
1629
1638
1647
1656
1665
1674
1683
1692
1701
1710
1719
1728
1737
1746
1755
1764
1773
1782
1791
1800
1809
1818
1827
1836
1845
1854
1863
1872
1881
1890
1899
1908
1917
1926
1935
1944
1953
1962
1971
1980
1989
1998
2007
2016
2025
2034
2043
2052
2061
2070
2079
2088
2097
2106
2115
2124
2133
2142
2151
2160
2169
2178
2187
2196
2205
2214
2223
2232
2241
2250
2259
2268
2277
2286
2295
2304
2313
2322
2331
2340
2349
2358
2367
2376
2385
2394
2403
2412
2421
2430
2439
2448
2457
2466
2475
2484
2493
2502
2511
2520
2529
2538
2547
2556
2565
2574
2583
2592
2601
2610
2619
2628
2637
2646
2655
2664
2673
2682
2691
2700
2709
2718
2727
2736
2745
2754
2763
2772
2781
2790
2799
2808
2817
2826
2835
2844
2853
2862
2871
2880
2889
2898
2907
2916
2925
2934
2943
2952
2961
2970
2979
2988
2997
3006
3015
3024
3033
3042
3051
3060
3069
3078
3087
3096
3105
3114
3123
3132
3141
3150
3159
3168
3177
3186
3195
3204
3213
3222
3231
3240
3249
3258
3267
3276
3285
3294
3303
3312
3321
3330
3339
3348
3357
3366
3375
3384
3393
3402
3411
3420
3429
3438
3447
3456
3465
3474
3483
3492
3501
3510
3519
3528
3537
3546
3555
3564
3573
3582
3591
3600
3609
3618
3627
3636
3645
3654
3663
3672
3681
3690
3699
3708
3717
3726
3735
3744
3753
3762
3771
3780
3789
3798
3807
3816
3825
3834
3843
3852
3861
3870
3879
3888
3897
3906
3915
3924
3933
3942
3951
3960
3969
3978
3987
3996
4005
4014
4023
4032
4041
4050
4059
4068
4077
4086
4095
4104
4113
4122
4131
4140
4149
4158
4167
4176
4185
4194
4203
4212
4221
4230
4239
4248
4257
4266
4275
4284
4293
4302
4311
4320
4329
4338
4347
4356
4365
4374
4383
4392
4401
4410
4419
4428
4437
4446
4455
4464
4473
4482
4491
4500
4509
4518
4527
4536
4545
4554
4563
4572
4581
4590
4599
4608
4617
4626
4635
4644
4653
4662
4671
4680
4689
4698
4707
4716
4725
4734
4743
4752
4761
4770
4779
4788
4797
4806
4815
4824
4833
4842
4851
4860
4869
4878
4887
4896
4905
4914
4923
4932
4941
4950
4959
4968
4977
4986
4995
5004
5013
5022
5031
5040
5049
5058
5067
5076
5085
5094
5103
5112
5121
5130
5139
5148
5157
5166
5175
5184
5193
5202
5211
5220
5229
5238
5247
5256
5265
5274
5283
5292
5301
5310
5319
5328
5337
5346
5355
5364
5373
5382
5391
5400
5409
5418
5427
5436
5445
5454
5463
5472
5481
5490
5499
5508
5517
5526
5535
5544
5553
5562
5571
5580
5589
5598
5607
5616
5625
5634
5643
5652
5661
5670
5679
5688
5697
5706
5715
5724
5733
5742
5751
5760
5769
5778
5787
5796
5805
5814
5823
5832
5841
5850
5859
5868
5877
5886
5895
5904
5913
5922
5931
5940
5949
5958
5967
5976
5985
5994
6003
6012
6021
6030
6039
6048
6057
6066
6075
6084
6093
6102
6111
6120
6129
6138
6147
6156
6165
6174
6183
6192
6201
6210
6219
6228
6237
6246
6255
6264
6273
6282
6291
6300
6309
6318
6327
6336
6345
6354
6363
6372
6381
6390
6399
6408
6417
6426
6435
6444
6453
6462
6471
6480
6489
6498
6507
6516
6525
6534
6543
6552
6561
6570
6579
6588
6597
6606
6615
6624
6633
6642
6651
6660
6669
6678
6687
6696
6705
6714
6723
6732
6741
6750
6759
6768
6777
6786
6795
6804
6813
6822
6831
6840
6849
6858
6867
6876
6885
6894
6903
6912
6921
6930
6939
6948
6957
6966
6975
6984
6993
7002
7011
7020
7029
7038
7047
7056
7065
7074
7083
7092
7101
7110
7119
7128
7137
7146
7155
7164
7173
7182
7191
7200
7209
7218
7227
7236
7245
7254
7263
7272
7281
7290
7299
7308
7317
7326
7335
7344
7353
7362
7371
7380
7389
7398
7407
7416
7425
7434
7443
7452
7461
7470
7479
7488
7497
7506
7515
7524
7533
7542
7551
7560
7569
7578
7587
7596
7605
7614
7623
7632
7641
7650
7659
7668
7677
7686
7695
7704
7713
7722
7731
7740
7749
7758
7767
7776
7785
7794
7803
7812
7821
7830
7839
7848
7857
7866
7875
7884
7893
7902
7911
7920
7929
7938
7947
7956
7965
7974
7983
7992
8001
8010
8019
8028
8037
8046
8055
8064
8073
8082
8091
8100
8109
8118
8127
8136
8145
8154
8163
8172
8181
8190
8199
8208
8217
8226
8235
8244
8253
8262
8271
8280
8289
8298
8307
8316
8325
8334
8343
8352
8361
8370
8379
8388
8397
8406
8415
8424
8433
8442
8451
8460
8469
8478
8487
8496
8505
8514
8523
8532
8541
8550
8559
8568
8577
8586
8595
8604
8613
8622
8631
8640
8649
8658
8667
8676
8685
8694
8703
8712
8721
8730
8739
8748
8757
8766
8775
8784
8793
8802
8811
8820
8829
8838
8847
8856
8865
8874
8883
8892
8901
8910
8919
8928
8937
8946
8955
8964
8973
8982
8991
9000
9009
9018
9027
9036
9045
9054
9063
9072
9081
9090
9099
9108
9117
9126
9135
9144
9153
9162
9171
9180
9189
9198
9207
9216
9225
9234
9243
9252
9261
9270
9279
9288
9297
9306
9315
9324
9333
9342
9351
9360
9369
9378
9387
9396
9405
9414
9423
9432
9441
9450
9459
9468
9477
9486
9495
9504
9513
9522
9531
9540
9549
9558
9567
9576
9585
9594
9603
9612
9621
9630
9639
9648
9657
9666
9675
9684
9693
9702
9711
9720
9729
9738
9747
9756
9765
9774
9783
9792
9801
9810
9819
9828
9837
9846
9855
9864
9873
9882
9891
9900
9909
9918
9927
9936
9945
9954
9963
9972
9981
9990
9999
10008
10017
10026
10035
10044
10053
10062
10071
10080
10089
10098
10107
10116
10125
10134
10143
10152
10161
10170
10179
10188
10197
10206
10215
10224
10233
10242
10251
10260
10269
10278
10287
10296
10305
10314
10323
10332
10341
10350
10359
10368
10377
10386
10395
10404
10413
10422
10431
10440
10449
10458
10467
10476
10485
10494
10503
10512
10521
10530
10539
10548
10557
10566
10575
10584
10593
10602
10611
10620
10629
10638
10647
10656
10665
10674
10683
10692
10701
10710
10719
10728
10737
10746
10755
10764
10773
10782
10791
10800
10809
10818
10827
10836
10845
10854
10863
10872
10881
10890
10899
10908
10917
10926
10935
10944
10953
10962
10971
10980
10989
10998
11007
11016
11025
11034
11043
11052
11061
11070
11079
11088
11097
11106
11115
11124
11133
11142
11151
11160
11169
11178
11187
11196
11205
11214
11223
11232
11241
11250
11259
11268
11277
11286
11295
11304
11313
11322
11331
11340
11349
11358
11367
11376
11385
11394
11403
11412
11421
11430
11439
11448
11457
11466
11475
11484
11493
11502
11511
11520
11529
11538
11547
11556
11565
11574
11583
11592
11601
11610
11619
11628
11637
11646
11655
11664
11673
11682
11691
11700
11709
11718
11727
11736
11745
11754
11763
11772
11781
11790
11799
11808
11817
11826
11835
11844
11853
11862
11871
11880
11889
11898
11907
11916
11925
11934
11943
11952
11961
11970
11979
11988
11997
12006
12015
12024
12033
12042
12051
12060
12069
12078
12087
12096
12105
12114
12123
12132
12141
12150
12159
12168
12177
12186
12195
12204
12213
12222
12231
12240
12249
12258
12267
12276
12285
12294
12303
12312
12321
12330
12339
12348
12357
12366
12375
12384
12393
12402
12411
      </DataArray>
      <DataArray type="UInt8" Name="types" format="ascii">
70
70
70
70
70
70
70
70
70
70
70
70
70
70
70
70
70
70
70
70
70
70
70
70
70
70
70
70
70
70
70
70
70
70
70
70
70
70
70
70
70
70
70
70
70
70
70
70
70
70
70
70
70
70
70
70
70
70
70
70
70
70
70
70
70
70
70
70
70
70
70
70
70
70
70
70
70
70
70
70
70
70
70
70
70
70
70
70
70
70
70
70
70
70
70
70
70
70
70
70
70
70
70
70
70
70
70
70
70
70
70
70
70
70
70
70
70
70
70
70
70
70
70
70
70
70
70
70
70
70
70
70
70
70
70
70
70
70
70
70
70
70
70
70
70
70
70
70
70
70
70
70
70
70
70
70
70
70
70
70
70
70
70
70
70
70
70
70
70
70
70
70
70
70
70
70
70
70
70
70
70
70
70
70
70
70
70
70
70
70
70
70
70
70
70
70
70
70
70
70
70
70
70
70
70
70
70
70
70
70
70
70
70
70
70
70
70
70
70
70
70
70
70
70
70
70
70
70
70
70
70
70
70
70
70
70
70
70
70
70
70
70
70
70
70
70
70
70
70
70
70
70
70
70
70
70
70
70
70
70
70
70
70
70
70
70
70
70
70
70
70
70
70
70
70
70
70
70
70
70
70
70
70
70
70
70
70
70
70
70
70
70
70
70
70
70
70
70
70
70
70
70
70
70
70
70
70
70
70
70
70
70
70
70
70
70
70
70
70
70
70
70
70
70
70
70
70
70
70
70
70
70
70
70
70
70
70
70
70
70
70
70
70
70
70
70
70
70
70
70
70
70
70
70
70
70
70
70
70
70
70
70
70
70
70
70
70
70
70
70
70
70
70
70
70
70
70
70
70
70
70
70
70
70
70
70
70
70
70
70
70
70
70
70
70
70
70
70
70
70
70
70
70
70
70
70
70
70
70
70
70
70
70
70
70
70
70
70
70
70
70
70
70
70
70
70
70
70
70
70
70
70
70
70
70
70
70
70
70
70
70
70
70
70
70
70
70
70
70
70
70
70
70
70
70
70
70
70
70
70
70
70
70
70
70
70
70
70
70
70
70
70
70
70
70
70
70
70
70
70
70
70
70
70
70
70
70
70
70
70
70
70
70
70
70
70
70
70
70
70
70
70
70
70
70
70
70
70
70
70
70
70
70
70
70
70
70
70
70
70
70
70
70
70
70
70
70
70
70
70
70
70
70
70
70
70
70
70
70
70
70
70
70
70
70
70
70
70
70
70
70
70
70
70
70
70
70
70
70
70
70
70
70
70
70
70
70
70
70
70
70
70
70
70
70
70
70
70
70
70
70
70
70
70
70
70
70
70
70
70
70
70
70
70
70
70
70
70
70
70
70
70
70
70
70
70
70
70
70
70
70
70
70
70
70
70
70
70
70
70
70
70
70
70
70
70
70
70
70
70
70
70
70
70
70
70
70
70
70
70
70
70
70
70
70
70
70
70
70
70
70
70
70
70
70
70
70
70
70
70
70
70
70
70
70
70
70
70
70
70
70
70
70
70
70
70
70
70
70
70
70
70
70
70
70
70
70
70
70
70
70
70
70
70
70
70
70
70
70
70
70
70
70
70
70
70
70
70
70
70
70
70
70
70
70
70
70
70
70
70
70
70
70
70
70
70
70
70
70
70
70
70
70
70
70
70
70
70
70
70
70
70
70
70
70
70
70
70
70
70
70
70
70
70
70
70
70
70
70
70
70
70
70
70
70
70
70
70
70
70
70
70
70
70
70
70
70
70
70
70
70
70
70
70
70
70
70
70
70
70
70
70
70
70
70
70
70
70
70
70
70
70
70
70
70
70
70
70
70
70
70
70
70
70
70
70
70
70
70
70
70
70
70
70
70
70
70
70
70
70
70
70
70
70
70
70
70
70
70
70
70
70
70
70
70
70
70
70
70
70
70
70
70
70
70
70
70
70
70
70
70
70
70
70
70
70
70
70
70
70
70
70
70
70
70
70
70
70
70
70
70
70
70
70
70
70
70
70
70
70
70
70
70
70
70
70
70
70
70
70
70
70
70
70
70
70
70
70
70
70
70
70
70
70
70
70
70
70
70
70
70
70
70
70
70
70
70
70
70
70
70
70
70
70
70
70
70
70
70
70
70
70
70
70
70
70
70
70
70
70
70
70
70
70
70
70
70
70
70
70
70
70
70
70
70
70
70
70
70
70
70
70
70
70
70
70
70
70
70
70
70
70
70
70
70
70
70
70
70
70
70
70
70
70
70
70
70
70
70
70
70
70
70
70
70
70
70
70
70
70
70
70
70
70
70
70
70
70
70
70
70
70
70
70
70
70
70
70
70
70
70
70
70
70
70
70
70
70
70
70
70
70
70
70
70
70
70
70
70
70
70
70
70
70
70
70
70
70
70
70
70
70
70
70
70
70
70
70
70
70
70
70
70
70
70
70
70
70
70
70
70
70
70
70
70
70
70
70
70
70
70
70
70
70
70
70
70
70
70
70
70
70
70
70
70
70
70
70
70
70
70
70
70
70
70
70
70
70
70
70
70
70
70
70
70
70
70
70
70
70
70
70
70
70
70
70
70
70
70
70
70
70
70
70
70
70
70
70
70
70
70
70
70
70
70
70
70
70
70
70
70
70
70
70
70
70
70
70
70
70
70
70
70
70
70
70
70
70
70
70
70
70
70
70
70
70
70
70
70
70
70
70
70
70
70
70
70
70
70
70
70
70
70
70
70
70
70
70
70
70
70
70
70
70
70
70
70
70
70
70
70
70
70
70
70
70
70
70
70
70
70
70
70
70
70
70
70
70
70
70
70
70
70
70
70
70
70
70
70
70
70
70
70
70
70
70
70
70
70
70
70
70
70
70
70
70
70
70
70
70
70
70
70
70
70
70
70
70
70
70
70
70
70
70
70
70
70
70
70
70
70
70
70
70
70
70
70
70
70
70
70
70
70
70
70
70
70
70
70
70
70
70
70
70
70
70
70
70
70
70
70
70
70
70
70
70
70
70
70
70
70
70
70
70
70
70
70
70
70
70
70
70
70
70
70
70
70
70
70
70
70
70
70
70
70
70
70
70
70
70
70
70
70
70
70
70
70
70
70
70
70
70
70
70
70
70
70
70
70
      </DataArray>
    </Cells>
    <PointData>
      <DataArray type="Float64" NumberOfComponents="3" Name="Displacement" format="ascii">
0 0 0
-0.00153825 -0.000768132 -0.000768132
-0.000916913 -0.000259712 -0.000259712
0 0 0
-0.00083694 -0.000478722 -0.000478722
-0.0011584 -0.000464314 -0.000464314
-0.000444945 -9.31173e-05 -9.31173e-05
0 0 0
-0.00055249 -0.000204631 -0.000204631
-0.00153825 -0.000768132 -0.000768132
-0.00286926 -0.00133439 -0.00133439
-0.00190968 -0.000749747 -0.000749747
-0.000916913 -0.000259712 -0.000259712
-0.00220574 -0.00104057 -0.00104057
-0.00236527 -0.00101245 -0.00101245
-0.00140857 -0.000481065 -0.000481065
-0.0011584 -0.000464314 -0.000464314
-0.00176524 -0.000730114 -0.000730114
-0.00286926 -0.00133439 -0.00133439
-0.00421183 -0.00201749 -0.00201749
-0.00291138 -0.001423 -0.001423
-0.00190968 -0.000749747 -0.000749747
-0.00353819 -0.00165594 -0.00165594
-0.00355443 -0.00169784 -0.00169784
-0.00241113 -0.00106269 -0.00106269
-0.00236527 -0.00101245 -0.00101245
-0.00296141 -0.00133283 -0.00133283
-0.00421183 -0.00201749 -0.00201749
-0.00556529 -0.00289639 -0.00289639
-0.00390802 -0.0022998 -0.0022998
-0.00291138 -0.001423 -0.001423
-0.00488759 -0.0024304 -0.0024304
-0.00473333 -0.00257469 -0.00257469
-0.00341057 -0.00183477 -0.00183477
-0.00355443 -0.00169784 -0.00169784
-0.00414473 -0.00211052 -0.00211052
-0.00556529 -0.00289639 -0.00289639
-0.00692587 -0.00398925 -0.00398925
-0.00489615 -0.00339465 -0.00339465
-0.00390802 -0.0022998 -0.0022998
-0.00624508 -0.00341533 -0.00341533
-0.00590812 -0.00366875 -0.00366875
-0.00440309 -0.00281935 -0.00281935
-0.00473333 -0.00257469 -0.00257469
-0.00532114 -0.00309376 -0.00309376
-0.00692587 -0.00398925 -0.00398925
-0.00828684 -0.00530835 -0.00530835
-0.00587774 -0.00471596 -0.00471596
-0.00489615 -0.00339465 -0.00339465
-0.00760653 -0.00462024 -0.00462024
-0.0070789 -0.00498825 -0.00498825
-0.00538771 -0.00402676 -0.00402676
-0.00590812 -0.00366875 -0.00366875
-0.00649403 -0.00430006 -0.00430006
-0.00828684 -0.00530835 -0.00530835
-0.00964585 -0.00685539 -0.00685539
-0.00685319 -0.00626612 -0.00626612
-0.00587774 -0.00471596 -0.00471596
-0.00896674 -0.0060533 -0.0060533
-0.00824558 -0.00653671 -0.00653671
-0.00636619 -0.00546237 -0.00546237
-0.0070789 -0.00498825 -0.00498825
-0.00766279 -0.00573378 -0.00573378
-0.00964585 -0.00685539 -0.00685539
-0.0110004 -0.00863187 -0.00863187
-0.00782325 -0.00804575 -0.00804575
-0.00685319 -0.00626612 -0.00626612
-0.0103238 -0.00771496 -0.00771496
-0.00940742 -0.0083146 -0.0083146
-0.00733887 -0.00712727 -0.00712727
-0.00824558 -0.00653671 -0.00653671
-0.00882714 -0.007397 -0.007397
-0.0110004 -0.00863187 -0.00863187
-0.0123494 -0.0106369 -0.0106369
-0.00878811 -0.0100542 -0.0100542
-0.00782325 -0.00804575 -0.00804575
-0.0116756 -0.00960588 -0.00960588
-0.0105641 -0.0103213 -0.0103213
-0.00830632 -0.00902143 -0.00902143
-0.00940742 -0.0083146 -0.0083146
-0.00998642 -0.00928942 -0.00928942
-0.0123494 -0.0106369 -0.0106369
-0.0136921 -0.0128697 -0.0128697
-0.00974797 -0.0122904 -0.0122904
-0.00878811 -0.0100542 -0.0100542
-0.0130215 -0.0117249 -0.0117249
-0.0117152 -0.0125559 -0.0125559
-0.00926866 -0.0111439 -0.0111439
-0.0105641 -0.0103213 -0.0103213
-0.0111403 -0.0114102 -0.0114102
-0.0136921 -0.0128697 -0.0128697
-0.0150282 -0.015329 -0.015329
-0.0107029 -0.0147532 -0.0147532
-0.00974797 -0.0122904 -0.0122904
-0.014361 -0.0140711 -0.0140711
-0.0128606 -0.015017 -0.015017
-0.010226 -0.0134935 -0.0134935
-0.0117152 -0.0125559 -0.0125559
-0.0122886 -0.0137582 -0.0137582
-0.0150282 -0.015329 -0.015329
-0.0163575 -0.0180136 -0.0180136
-0.0116529 -0.0174412 -0.0174412
-0.0107029 -0.0147532 -0.0147532
-0.0156937 -0.0166432 -0.0166432
-0.0140002 -0.0177034 -0.0177034
-0.0111785 -0.0160691 -0.0160691
-0.0128606 -0.015017 -0.015017
-0.0134311 -0.0163321 -0.0163321
-0.0163575 -0.0180136 -0.0180136
-0.01768 -0.0209221 -0.0209221
-0.012598 -0.0203534 -0.0203534
-0.0116529 -0.0174412 -0.0174412
-0.0170196 -0.0194399 -0.0194399
-0.015134 -0.0206139 -0.0206139
-0.0121261 -0.0188694 -0.0188694
-0.0140002 -0.0177034 -0.0177034
-0.0145678 -0.0191307 -0.0191307
-0.01768 -0.0209221 -0.0209221
-0.0189955 -0.0240535 -0.0240535
-0.0135383 -0.0234883 -0.0234883
-0.012598 -0.0203534 -0.0203534
-0.0183386 -0.02246 -0.02246
-0.0162619 -0.0237472 -0.0237472
-0.0130688 -0.021893 -0.021893
-0.015134 -0.0206139 -0.0206139
-0.0156986 -0.0221528 -0.0221528
-0.0189955 -0.0240535 -0.0240535
-0.0203042 -0.0274064 -0.0274064
-0.0144738 -0.0268448 -0.0268448
-0.0135383 -0.0234883 -0.0234883
-0.0196508 -0.0257023 -0.0257023
-0.0173839 -0.027102 -0.027102
-0.0140066 -0.0251389 -0.0251389
-0.0162619 -0.0237472 -0.0237472
-0.0168236 -0.025397 -0.025397
-0.0203042 -0.0274064 -0.0274064
-0.0216061 -0.0309796 -0.0309796
-0.0154044 -0.0304216 -0.0304216
-0.0144738 -0.0268448 -0.0268448
-0.020956 -0.0291655 -0.0291655
-0.0185002 -0.0306771 -0.0306771
-0.0149397 -0.0286057 -0.0286057
-0.0173839 -0.027102 -0.027102
-0.0179428 -0.0288621 -0.0288621
-0.0216061 -0.0309796 -0.0309796
-0.0229011 -0.0347719 -0.0347719
-0.0163302 -0.0342176 -0.0342176
-0.0154044 -0.0304216 -0.0304216
-0.0222544 -0.0328484 -0.0328484
-0.0196106 -0.0344714 -0.0344714
-0.0158679 -0.0322923 -0.0322923
-0.0185002 -0.0306771 -0.0306771
-0.0190561 -0.032547 -0.032547
-0.0229011 -0.0347719 -0.0347719
-0.0241892 -0.0387821 -0.0387821
-0.0172513 -0.0382314 -0.0382314
-0.0163302 -0.0342176 -0.0342176
-0.023546 -0.0367498 -0.0367498
-0.0207152 -0.0384836 -0.0384836
-0.0167914 -0.0361973 -0.0361973
-0.0196106 -0.0344714 -0.0344714
-0.0201636 -0.0364503 -0.0364503
-0.0241892 -0.0387821 -0.0387821
-0.0254706 -0.0430089 -0.0430089
-0.0181676 -0.042462 -0.042462
-0.0172513 -0.0382314 -0.0382314
-0.0248308 -0.0408685 -0.0408685
-0.021814 -0.0427124 -0.0427124
-0.01771 -0.0403197 -0.0403197
-0.0207152 -0.0384836 -0.0384836
-0.0212653 -0.040571 -0.040571
-0.0254706 -0.0430089 -0.0430089
-0.0267451 -0.0474512 -0.0474512
-0.0190791 -0.0469081 -0.0469081
-0.0181676 -0.042462 -0.042462
-0.0261087 -0.0452032 -0.0452032
-0.0229071 -0.0471567 -0.0471567
-0.018624 -0.0446582 -0.0446582
-0.021814 -0.0427124 -0.0427124
-0.0223613 -0.0449077 -0.0449077
-0.0267451 -0.0474512 -0.0474512
-0.0280129 -0.0521078 -0.0521078
-0.019986 -0.0515684 -0.0515684
-0.0190791 -0.0469081 -0.0469081
-0.0273799 -0.0497528 -0.0497528
-0.0239944 -0.0518153 -0.0518153
-0.0195331 -0.0492115 -0.0492115
-0.0229071 -0.0471567 -0.0471567
-0.0234514 -0.0494593 -0.0494593
-0.0280129 -0.0521078 -0.0521078
-0.0292739 -0.0569774 -0.0569774
-0.0208881 -0.0564418 -0.0564418
-0.019986 -0.0515684 -0.0515684
-0.0286443 -0.0545161 -0.0545161
-0.0250759 -0.056687 -0.056687
-0.0204376 -0.0539786 -0.0539786
-0.0239944 -0.0518153 -0.0518153
-0.0245359 -0.0542246 -0.0542246
-0.0292739 -0.0569774 -0.0569774
-0.0305282 -0.0620589 -0.0620589
-0.0217855 -0.0615271 -0.0615271
-0.0208881 -0.0564418 -0.0564418
-0.0299019 -0.0594918 -0.0594918
-0.0261517 -0.0617704 -0.0617704
-0.0213373 -0.0589581 -0.0589581
-0.0250759 -0.056687 -0.056687
-0.0256145 -0.0592023 -0.0592023
-0.0305282 -0.0620589 -0.0620589
-0.0317757 -0.067351 -0.067351
-0.0226782 -0.066823 -0.066823
-0.0217855 -0.0615271 -0.0615271
-0.0311528 -0.0646787 -0.0646787
-0.0272219 -0.0670646 -0.0670646
-0.0222324 -0.0641488 -0.0641488
-0.0261517 -0.0617704 -0.0617704
-0.0266875 -0.0643913 -0.0643913
-0.0317757 -0.067351 -0.067351
-0.0330165 -0.0728525 -0.0728525
-0.0235662 -0.0723284 -0.0723284
-0.0226782 -0.066823 -0.066823
-0.032397 -0.0700756 -0.0700756
-0.0282863 -0.0725681 -0.0725681
-0.0231228 -0.0695496 -0.0695496
-0.0272219 -0.0670646 -0.0670646
-0.0277548 -0.0697903 -0.0697903
-0.0330165 -0.0728525 -0.0728525
-0.0342507 -0.0785621 -0.0785621
-0.0244496 -0.078042 -0.078042
-0.0235662 -0.0723284 -0.0723284
-0.0336344 -0.0756813 -0.0756813
-0.029345 -0.0782799 -0.0782799
-0.0240085 -0.0751592 -0.0751592
-0.0282863 -0.0725681 -0.0725681
-0.0288164 -0.0753981 -0.0753981
-0.0342507 -0.0785621 -0.0785621
-0.0354781 -0.0844788 -0.0844788
-0.0253283 -0.0839626 -0.0839626
-0.0244496 -0.078042 -0.078042
-0.0348652 -0.0814947 -0.0814947
-0.0303981 -0.0841987 -0.0841987
-0.0248896 -0.0809765 -0.0809765
-0.029345 -0.0782799 -0.0782799
-0.0298723 -0.0812135 -0.0812135
-0.0354781 -0.0844788 -0.0844788
-0.0366988 -0.0906013 -0.0906013
-0.0262025 -0.090089 -0.090089
-0.0253283 -0.0839626 -0.0839626
-0.0360893 -0.0875144 -0.0875144
-0.0314456 -0.0903233 -0.0903233
-0.025766 -0.0870001 -0.0870001
-0.0303981 -0.0841987 -0.0841987
-0.0309226 -0.0872353 -0.0872353
-0.0366988 -0.0906013 -0.0906013
-0.0379129 -0.0969284 -0.0969284
-0.027072 -0.09642 -0.09642
-0.0262025 -0.090089 -0.090089
-0.0373067 -0.0937394 -0.0937394
-0.0324874 -0.0966524 -0.0966524
-0.0266378 -0.093229 -0.093229
-0.0314456 -0.0903233 -0.0903233
-0.0319672 -0.0934624 -0.0934624
-0.0379129 -0.0969284 -0.0969284
-0.0391204 -0.103459 -0.103459
-0.0279369 -0.102954 -0.102954
-0.027072 -0.09642 -0.09642
-0.0385175 -0.100168 -0.100168
-0.0335235 -0.103185 -0.103185
-0.027505 -0.0996619 -0.0996619
-0.0324874 -0.0966524 -0.0966524
-0.0330062 -0.0998934 -0.0998934
-0.0391204 -0.103459 -0.103459
-0.0403212 -0.110191 -0.110191
-0.0287972 -0.109691 -0.109691
-0.0279369 -0.102954 -0.102954
-0.0397216 -0.1068 -0.1068
-0.0345541 -0.10992 -0.10992
-0.0283676 -0.106298 -0.106298
-0.0335235 -0.103185 -0.103185
-0.0340395 -0.106527 -0.106527
-0.0403212 -0.110191 -0.110191
-0.0415154 -0.117125 -0.117125
-0.0296529 -0.116629 -0.116629
-0.0287972 -0.109691 -0.109691
-0.0409191 -0.113633 -0.113633
-0.0355791 -0.116855 -0.116855
-0.0292256 -0.113135 -0.113135
-0.0345541 -0.10992 -0.10992
-0.0350673 -0.113363 -0.113363
-0.0415154 -0.117125 -0.117125
-0.042703 -0.124258 -0.124258
-0.0305041 -0.123766 -0.123766
-0.0296529 -0.116629 -0.116629
-0.04211 -0.120667 -0.120667
-0.0365985 -0.123991 -0.123991
-0.0300791 -0.120172 -0.120172
-0.0355791 -0.116855 -0.116855
-0.0360895 -0.120398 -0.120398
-0.042703 -0.124258 -0.124258
-0.043884 -0.13159 -0.13159
-0.0313507 -0.131102 -0.131102
-0.0305041 -0.123766 -0.123766
-0.0432943 -0.127899 -0.127899
-0.0376123 -0.131325 -0.131325
-0.030928 -0.127409 -0.127409
-0.0365985 -0.123991 -0.123991
-0.0371061 -0.127633 -0.127633
-0.043884 -0.13159 -0.13159
-0.0450584 -0.139119 -0.139119
-0.0321928 -0.138635 -0.138635
-0.0313507 -0.131102 -0.131102
-0.044472 -0.13533 -0.13533
-0.0386205 -0.138856 -0.138856
-0.0317723 -0.134844 -0.134844
-0.0376123 -0.131325 -0.131325
-0.0381171 -0.135066 -0.135066
-0.0450584 -0.139119 -0.139119
-0.0462262 -0.146844 -0.146844
-0.0330304 -0.146364 -0.146364
-0.0321928 -0.138635 -0.138635
-0.0456431 -0.142957 -0.142957
-0.0396232 -0.146584 -0.146584
-0.0326122 -0.142475 -0.142475
-0.0386205 -0.138856 -0.138856
-0.0391225 -0.142695 -0.142695
-0.0462262 -0.146844 -0.146844
-0.0473875 -0.154765 -0.154765
-0.0338634 -0.154289 -0.154289
-0.0330304 -0.146364 -0.146364
-0.0468077 -0.15078 -0.15078
-0.0406204 -0.154506 -0.154506
-0.0334475 -0.150302 -0.150302
-0.0396232 -0.146584 -0.146584
-0.0401225 -0.15052 -0.15052
-0.0473875 -0.154765 -0.154765
-0.0485422 -0.162878 -0.162878
-0.034692 -0.162407 -0.162407
-0.0338634 -0.154289 -0.154289
-0.0479657 -0.158797 -0.158797
-0.041612 -0.162622 -0.162622
-0.0342783 -0.158324 -0.158324
-0.0406204 -0.154506 -0.154506
-0.0411169 -0.15854 -0.15854
-0.0485422 -0.162878 -0.162878
-0.0496904 -0.171185 -0.171185
-0.035516 -0.170717 -0.170717
-0.034692 -0.162407 -0.162407
-0.0491171 -0.167008 -0.167008
-0.0425981 -0.17093 -0.17093
-0.0351046 -0.166538 -0.166538
-0.041612 -0.162622 -0.162622
-0.0421057 -0.166752 -0.166752
-0.0496904 -0.171185 -0.171185
-0.0508321 -0.179682 -0.179682
-0.0363356 -0.179219 -0.179219
-0.035516 -0.170717 -0.170717
-0.050262 -0.17541 -0.17541
-0.0435787 -0.17943 -0.17943
-0.0359264 -0.174944 -0.174944
-0.0425981 -0.17093 -0.17093
-0.0430891 -0.175157 -0.175157
-0.0508321 -0.179682 -0.179682
-0.0519672 -0.18837 -0.18837
-0.0371507 -0.187911 -0.187911
-0.0363356 -0.179219 -0.179219
-0.0514004 -0.184002 -0.184002
-0.0445538 -0.18812 -0.18812
-0.0367437 -0.183541 -0.183541
-0.0435787 -0.17943 -0.17943
-0.044067 -0.183752 -0.183752
-0.0519672 -0.18837 -0.18837
-0.0530958 -0.197246 -0.197246
-0.0379613 -0.196792 -0.196792
-0.0371507 -0.187911 -0.187911
-0.0525323 -0.192785 -0.192785
-0.0455235 -0.196999 -0.196999
-0.0375566 -0.192328 -0.192328
-0.0445538 -0.18812 -0.18812
-0.0450393 -0.192536 -0.192536
-0.0530958 -0.197246 -0.197246
-0.054218 -0.206311 -0.206311
-0.0387675 -0.20586 -0.20586
-0.0379613 -0.196792 -0.196792
-0.0536577 -0.201755 -0.201755
-0.0464876 -0.206065 -0.206065
-0.038365 -0.201302 -0.201302
-0.0455235 -0.196999 -0.196999
-0.0460062 -0.201509 -0.201509
-0.054218 -0.206311 -0.206311
-0.0553336 -0.215561 -0.215561
-0.0395692 -0.215115 -0.215115
-0.0387675 -0.20586 -0.20586
-0.0547766 -0.210913 -0.210913
-0.0474463 -0.215318 -0.215318
-0.0391689 -0.210464 -0.210464
-0.0464876 -0.206065 -0.206065
-0.0469677 -0.210669 -0.210669
-0.0553336 -0.215561 -0.215561
-0.0564428 -0.224997 -0.224997
-0.0403666 -0.224555 -0.224555
-0.0395692 -0.215115 -0.215115
-0.055889 -0.220256 -0.220256
-0.0483996 -0.224756 -0.224756
-0.0399685 -0.219812 -0.219812
-0.0474463 -0.215318 -0.215318
-0.0479236 -0.220014 -0.220014
-0.0564428 -0.224997 -0.224997
-0.0575455 -0.234617 -0.234617
-0.0411594 -0.234179 -0.234179
-0.0403666 -0.224555 -0.224555
-0.0569949 -0.229784 -0.229784
-0.0493473 -0.234378 -0.234378
-0.0407635 -0.229344 -0.229344
-0.0483996 -0.224756 -0.224756
-0.0488741 -0.229544 -0.229544
-0.0575455 -0.234617 -0.234617
-0.0586417 -0.24442 -0.24442
-0.0419479 -0.243986 -0.243986
-0.0411594 -0.234179 -0.234179
-0.0580944 -0.239495 -0.239495
-0.0502897 -0.244183 -0.244183
-0.0415542 -0.23906 -0.23906
-0.0493473 -0.234378 -0.234378
-0.0498192 -0.239258 -0.239258
-0.0586417 -0.24442 -0.24442
-0.0597315 -0.254404 -0.254404
-0.042732 -0.253975 -0.253975
-0.0419479 -0.243986 -0.243986
-0.0591874 -0.249389 -0.249389
-0.0512266 -0.25417 -0.25417
-0.0423405 -0.248958 -0.248958
-0.0502897 -0.244183 -0.244183
-0.0507588 -0.249154 -0.249154
-0.0597315 -0.254404 -0.254404
-0.0608148 -0.264568 -0.264568
-0.0435116 -0.264143 -0.264143
-0.042732 -0.253975 -0.253975
-0.060274 -0.259464 -0.259464
-0.0521581 -0.264337 -0.264337
-0.0431223 -0.259037 -0.259037
-0.0512266 -0.25417 -0.25417
-0.051693 -0.259231 -0.259231
-0.0608148 -0.264568 -0.264568
-0.0618917 -0.274912 -0.274912
-0.0442869 -0.274492 -0.274492
-0.0435116 -0.264143 -0.264143
-0.0613541 -0.269718 -0.269718
-0.0530842 -0.274683 -0.274683
-0.0438998 -0.269295 -0.269295
-0.0521581 -0.264337 -0.264337
-0.0526218 -0.269488 -0.269488
-0.0618917 -0.274912 -0.274912
-0.0629622 -0.285434 -0.285434
-0.0450578 -0.285018 -0.285018
-0.0442869 -0.274492 -0.274492
-0.0624278 -0.280151 -0.280151
-0.0540049 -0.285207 -0.285207
-0.0446729 -0.279733 -0.279733
-0.0530842 -0.274683 -0.274683
-0.0535452 -0.279923 -0.279923
-0.0629622 -0.285434 -0.285434
-0.0640262 -0.296133 -0.296133
-0.0458243 -0.295721 -0.295721
-0.0450578 -0.285018 -0.285018
-0.063495 -0.290761 -0.290761
-0.0549201 -0.295908 -0.295908
-0.0454416 -0.290347 -0.290347
-0.0540049 -0.285207 -0.285207
-0.0544632 -0.290535 -0.290535
-0.0640262 -0.296133 -0.296133
-0.0650839 -0.307007 -0.307007
-0.0465864 -0.306599 -0.306599
-0.0458243 -0.295721 -0.295721
-0.0645558 -0.301548 -0.301548
-0.05583 -0.306784 -0.306784
-0.0462059 -0.301138 -0.301138
-0.0549201 -0.295908 -0.295908
-0.0553758 -0.301324 -0.301324
-0.0650839 -0.307007 -0.307007
-0.0661351 -0.318055 -0.318055
-0.0473442 -0.317652 -0.317652
-0.0465864 -0.306599 -0.306599
-0.0656103 -0.312509 -0.312509
-0.0567345 -0.317835 -0.317835
-0.0469658 -0.312104 -0.312104
-0.05583 -0.306784 -0.306784
-0.0562829 -0.312288 -0.312288
-0.0661351 -0.318055 -0.318055
-0.0671799 -0.329277 -0.329277
-0.0480976 -0.328878 -0.328878
-0.0473442 -0.317652 -0.317652
-0.0666583 -0.323644 -0.323644
-0.0576336 -0.329059 -0.329059
-0.0477214 -0.323243 -0.323243
-0.0567345 -0.317835 -0.317835
-0.0571848 -0.323425 -0.323425
-0.0671799 -0.329277 -0.329277
-0.0682183 -0.34067 -0.34067
-0.0488467 -0.340276 -0.340276
-0.0480976 -0.328878 -0.328878
-0.0676999 -0.334952 -0.334952
-0.0585274 -0.340455 -0.340455
-0.0484727 -0.334556 -0.334556
-0.0576336 -0.329059 -0.329059
-0.0580812 -0.334736 -0.334736
-0.0682183 -0.34067 -0.34067
-0.0692504 -0.352234 -0.352234
-0.0495914 -0.351845 -0.351845
-0.0488467 -0.340276 -0.340276
-0.0687352 -0.346431 -0.346431
-0.0594158 -0.352021 -0.352021
-0.0492196 -0.346039 -0.346039
-0.0585274 -0.340455 -0.340455
-0.0589723 -0.346217 -0.346217
-0.0692504 -0.352234 -0.352234
-0.070276 -0.363968 -0.363968
-0.0503318 -0.363583 -0.363583
-0.0495914 -0.351845 -0.351845
-0.069764 -0.35808 -0.35808
-0.0602988 -0.363757 -0.363757
-0.0499621 -0.357692 -0.357692
-0.0594158 -0.352021 -0.352021
-0.059858 -0.357868 -0.357868
-0.070276 -0.363968 -0.363968
-0.0712953 -0.37587 -0.37587
-0.0510678 -0.375489 -0.375489
-0.0503318 -0.363583 -0.363583
-0.0707865 -0.369898 -0.369898
-0.0611765 -0.375662 -0.375662
-0.0507004 -0.369515 -0.369515
-0.0602988 -0.363757 -0.363757
-0.0607383 -0.369689 -0.369689
-0.0712953 -0.37587 -0.37587
-0.0723082 -0.387939 -0.387939
-0.0517996 -0.387563 -0.387563
-0.0510678 -0.375489 -0.375489
-0.0718026 -0.381884 -0.381884
-0.0620488 -0.387733 -0.387733
-0.0514342 -0.381505 -0.381505
-0.0611765 -0.375662 -0.375662
-0.0616133 -0.381677 -0.381677
-0.0723082 -0.387939 -0.387939
-0.0733148 -0.400174 -0.400174
-0.052527 -0.399802 -0.399802
-0.0517996 -0.387563 -0.387563
-0.0728123 -0.394036 -0.394036
-0.0629158 -0.399971 -0.399971
-0.0521638 -0.393662 -0.393662
-0.0620488 -0.387733 -0.387733
-0.0624829 -0.393831 -0.393831
-0.0733148 -0.400174 -0.400174
-0.0743149 -0.412574 -0.412574
-0.0532501 -0.412206 -0.412206
-0.052527 -0.399802 -0.399802
-0.0738156 -0.406354 -0.406354
-0.0637774 -0.412373 -0.412373
-0.0528891 -0.405984 -0.405984
-0.0629158 -0.399971 -0.399971
-0.0633472 -0.406151 -0.406151
-0.0743149 -0.412574 -0.412574
-0.0753088 -0.425137 -0.425137
-0.0539689 -0.424774 -0.424774
-0.0532501 -0.412206 -0.412206
-0.0748126 -0.418835 -0.418835
-0.0646337 -0.424938 -0.424938
-0.05361 -0.41847 -0.41847
-0.0637774 -0.412373 -0.412373
-0.0642062 -0.418635 -0.418635
-0.0753088 -0.425137 -0.425137
-0.0762962 -0.437862 -0.437862
-0.0546833 -0.437504 -0.437504
-0.0539689 -0.424774 -0.424774
-0.0758033 -0.431479 -0.431479
-0.0654847 -0.437666 -0.437666
-0.0543266 -0.431118 -0.431118
-0.0646337 -0.424938 -0.424938
-0.0650598 -0.431282 -0.431282
-0.0762962 -0.437862 -0.437862
-0.0772774 -0.450749 -0.450749
-0.0553935 -0.450394 -0.450394
-0.0546833 -0.437504 -0.437504
-0.0767876 -0.444285 -0.444285
-0.0663303 -0.450554 -0.450554
-0.055039 -0.443929 -0.443929
-0.0654847 -0.437666 -0.437666
-0.0659082 -0.44409 -0.44409
-0.0772774 -0.450749 -0.450749
-0.0782521 -0.463795 -0.463795
-0.0560994 -0.463445 -0.463445
-0.0553935 -0.450394 -0.450394
-0.0777655 -0.457252 -0.457252
-0.0671706 -0.463603 -0.463603
-0.055747 -0.4569 -0.4569
-0.0663303 -0.450554 -0.450554
-0.0667511 -0.457059 -0.457059
-0.0782521 -0.463795 -0.463795
-0.0792206 -0.477 -0.477
-0.056801 -0.476654 -0.476654
-0.0560994 -0.463445 -0.463445
-0.0787371 -0.470378 -0.470378
-0.0680056 -0.47681 -0.47681
-0.0564507 -0.47003 -0.47003
-0.0671706 -0.463603 -0.463603
-0.0675888 -0.470187 -0.470187
-0.0792206 -0.477 -0.477
-0.0801827 -0.490362 -0.490362
-0.0574982 -0.490021 -0.490021
-0.056801 -0.476654 -0.476654
-0.0797024 -0.483661 -0.483661
-0.0688353 -0.490175 -0.490175
-0.0571501 -0.483318 -0.483318
-0.0680056 -0.47681 -0.47681
-0.0684212 -0.483473 -0.483473
-0.0801827 -0.490362 -0.490362
-0.0811384 -0.50388 -0.50388
-0.0581912 -0.503544 -0.503544
-0.0574982 -0.490021 -0.490021
-0.0806613 -0.497102 -0.497102
-0.0696597 -0.503696 -0.503696
-0.0578453 -0.496763 -0.496763
-0.0688353 -0.490175 -0.490175
-0.0692482 -0.496916 -0.496916
-0.0811384 -0.50388 -0.50388
-0.0820879 -0.517554 -0.517554
-0.05888 -0.517222 -0.517222
-0.0581912 -0.503544 -0.503544
-0.0816139 -0.510698 -0.510698
-0.0704788 -0.517371 -0.517371
-0.0585361 -0.510364 -0.510364
-0.0696597 -0.503696 -0.503696
-0.0700699 -0.510514 -0.510514
-0.0820879 -0.517554 -0.517554
-0.083031 -0.531381 -0.531381
-0.0595644 -0.531054 -0.531054
-0.05888 -0.517222 -0.517222
-0.0825602 -0.524448 -0.524448
-0.0712926 -0.531201 -0.531201
-0.0592227 -0.524119 -0.524119
-0.0704788 -0.517371 -0.517371
-0.0708863 -0.524267 -0.524267
-0.083031 -0.531381 -0.531381
-0.0839678 -0.545361 -0.545361
-0.0602445 -0.545038 -0.545038
-0.0595644 -0.531054 -0.531054
-0.0835002 -0.538352 -0.538352
-0.072101 -0.545183 -0.545183
-0.059905 -0.538027 -0.538027
-0.0712926 -0.531201 -0.531201
-0.0716975 -0.538173 -0.538173
-0.0839678 -0.545361 -0.545361
-0.0848982 -0.559492 -0.559492
-0.0609204 -0.559174 -0.559174
-0.0602445 -0.545038 -0.545038
-0.0844338 -0.552407 -0.552407
-0.0729042 -0.559317 -0.559317
-0.060583 -0.552087 -0.552087
-0.072101 -0.545183 -0.545183
-0.0725033 -0.552231 -0.552231
-0.0848982 -0.559492 -0.559492
-0.0858224 -0.573773 -0.573773
-0.061592 -0.573459 -0.573459
-0.0609204 -0.559174 -0.559174
-0.0853611 -0.566614 -0.566614
-0.0737021 -0.5736 -0.5736
-0.0612568 -0.566298 -0.566298
-0.0729042 -0.559317 -0.559317
-0.0733038 -0.56644 -0.56644
-0.0858224 -0.573773 -0.573773
-0.0867402 -0.588203 -0.588203
-0.0622594 -0.587894 -0.587894
-0.061592 -0.573459 -0.573459
-0.0862821 -0.58097 -0.58097
-0.0744947 -0.588033 -0.588033
-0.0619262 -0.580658 -0.580658
-0.0737021 -0.5736 -0.5736
-0.074099 -0.580798 -0.580798
-0.0867402 -0.588203 -0.588203
-0.0876517 -0.602781 -0.602781
-0.0629224 -0.602476 -0.602476
-0.0622594 -0.587894 -0.587894
-0.0871967 -0.595474 -0.595474
-0.0752819 -0.602613 -0.602613
-0.0625914 -0.595167 -0.595167
-0.0744947 -0.588033 -0.588033
-0.074889 -0.595305 -0.595305
-0.0876517 -0.602781 -0.602781
-0.0885569 -0.617506 -0.617506
-0.0635812 -0.617205 -0.617205
-0.0629224 -0.602476 -0.602476
-0.0881051 -0.610125 -0.610125
-0.0760639 -0.61734 -0.61734
-0.0632523 -0.609823 -0.609823
-0.0752819 -0.602613 -0.602613
-0.0756736 -0.609958 -0.609958
-0.0885569 -0.617506 -0.617506
-0.0894558 -0.632375 -0.632375
-0.0642357 -0.63208 -0.63208
-0.0635812 -0.617205 -0.617205
-0.0890071 -0.624922 -0.624922
-0.0768406 -0.632212 -0.632212
-0.063909 -0.624624 -0.624624
-0.0760639 -0.61734 -0.61734
-0.0764529 -0.624758 -0.624758
-0.0894558 -0.632375 -0.632375
-0.0903483 -0.647389 -0.647389
-0.064886 -0.647098 -0.647098
-0.0642357 -0.63208 -0.63208
-0.0899028 -0.639864 -0.639864
-0.077612 -0.647228 -0.647228
-0.0645614 -0.639571 -0.639571
-0.0768406 -0.632212 -0.632212
-0.077227 -0.639702 -0.639702
-0.0903483 -0.647389 -0.647389
-0.0912346 -0.662546 -0.662546
-0.065532 -0.662259 -0.662259
-0.064886 -0.647098 -0.647098
-0.0907923 -0.65495 -0.65495
-0.0783782 -0.662388 -0.662388
-0.0652095 -0.654661 -0.654661
-0.077612 -0.647228 -0.647228
-0.0779958 -0.65479 -0.65479
-0.0912346 -0.662546 -0.662546
-0.0921145 -0.677844 -0.677844
-0.0661737 -0.677562 -0.677562
-0.065532 -0.662259 -0.662259
-0.0916754 -0.670177 -0.670177
-0.079139 -0.677688 -0.677688
-0.0658534 -0.669893 -0.669893
-0.0783782 -0.662388 -0.662388
-0.0787592 -0.67002 -0.67002
-0.0921145 -0.677844 -0.677844
-0.0929882 -0.693283 -0.693283
-0.0668112 -0.693006 -0.693006
-0.0661737 -0.677562 -0.677562
-0.0925522 -0.685546 -0.685546
-0.0798946 -0.69313 -0.69313
-0.066493 -0.685267 -0.685267
-0.079139 -0.677688 -0.677688
-0.0795174 -0.685391 -0.685391
-0.0929882 -0.693283 -0.693283
-0.0938555 -0.708861 -0.708861
-0.0674444 -0.708588 -0.708588
-0.0668112 -0.693006 -0.693006
-0.0934226 -0.701055 -0.701055
-0.0806448 -0.70871 -0.70871
-0.0671283 -0.70078 -0.70078
-0.0798946 -0.69313 -0.69313
-0.0802703 -0.700903 -0.700903
-0.0938555 -0.708861 -0.708861
-0.0947165 -0.724578 -0.724578
-0.0680733 -0.724309 -0.724309
-0.0674444 -0.708588 -0.708588
-0.0942868 -0.716702 -0.716702
-0.0813898 -0.724429 -0.724429
-0.0677594 -0.716432 -0.716432
-0.0806448 -0.70871 -0.70871
-0.081018 -0.716552 -0.716552
-0.0947165 -0.724578 -0.724578
-0.0955712 -0.740431 -0.740431
-0.068698 -0.740167 -0.740167
-0.0680733 -0.724309 -0.724309
-0.0951447 -0.732487 -0.732487
-0.0821295 -0.740284 -0.740284
-0.0683862 -0.732221 -0.732221
-0.0813898 -0.724429 -0.724429
-0.0817603 -0.732339 -0.732339
-0.0955712 -0.740431 -0.740431
-0.0964196 -0.756419 -0.756419
-0.0693184 -0.75616 -0.75616
-0.068698 -0.740167 -0.740167
-0.0959962 -0.748408 -0.748408
-0.0828639 -0.756275 -0.756275
-0.0690087 -0.748146 -0.748146
-0.0821295 -0.740284 -0.740284
-0.0824973 -0.748263 -0.748263
-0.0964196 -0.756419 -0.756419
-0.0972617 -0.772542 -0.772542
-0.0699345 -0.772288 -0.772288
-0.0693184 -0.75616 -0.75616
-0.0968415 -0.764464 -0.764464
-0.083593 -0.772401 -0.772401
-0.069627 -0.764207 -0.764207
-0.0828639 -0.756275 -0.756275
-0.0832291 -0.764321 -0.764321
-0.0972617 -0.772542 -0.772542
-0.0980975 -0.788799 -0.788799
-0.0705464 -0.788548 -0.788548
-0.0699345 -0.772288 -0.772288
-0.0976804 -0.780654 -0.780654
-0.0843168 -0.788659 -0.788659
-0.070241 -0.780401 -0.780401
-0.083593 -0.772401 -0.772401
-0.0839556 -0.780513 -0.780513
-0.0980975 -0.788799 -0.788799
-0.098927 -0.805187 -0.805187
-0.071154 -0.804941 -0.804941
-0.0705464 -0.788548 -0.788548
-0.098513 -0.796976 -0.796976
-0.0850354 -0.80505 -0.80505
-0.0708507 -0.796728 -0.796728
-0.0843168 -0.788659 -0.788659
-0.0846768 -0.796838 -0.796838
-0.098927 -0.805187 -0.805187
-0.0997501 -0.821706 -0.821706
-0.0717574 -0.821465 -0.821465
-0.071154 -0.804941 -0.804941
-0.0993393 -0.81343 -0.81343
-0.0857486 -0.821572 -0.821572
-0.0714562 -0.813187 -0.813187
-0.0850354 -0.80505 -0.80505
-0.0853927 -0.813295 -0.813295
-0.0997501 -0.821706 -0.821706
-0.100567 -0.838355 -0.838355
-0.0723564 -0.838118 -0.838118
-0.0717574 -0.821465 -0.821465
-0.100159 -0.830014 -0.830014
-0.0864566 -0.838223 -0.838223
-0.0720574 -0.829775 -0.829775
-0.0857486 -0.821572 -0.821572
-0.0861033 -0.829881 -0.829881
-0.100567 -0.838355 -0.838355
-0.101378 -0.855132 -0.855132
-0.0729512 -0.8549 -0.8549
-0.0723564 -0.838118 -0.838118
-0.100973 -0.846727 -0.846727
-0.0871593 -0.855002 -0.855002
-0.0726544 -0.846493 -0.846493
-0.0864566 -0.838223 -0.838223
-0.0868086 -0.846596 -0.846596
-0.101378 -0.855132 -0.855132
-0.102182 -0.872036 -0.872036
-0.0735418 -0.871808 -0.871808
-0.0729512 -0.8549 -0.8549
-0.10178 -0.863568 -0.863568
-0.0878566 -0.871909 -0.871909
-0.073247 -0.863338 -0.863338
-0.0871593 -0.855002 -0.855002
-0.0875086 -0.86344 -0.86344
-0.102182 -0.872036 -0.872036
-0.10298 -0.889066 -0.889066
-0.074128 -0.888843 -0.888843
-0.0735418 -0.871808 -0.871808
-0.102581 -0.880535 -0.880535
-0.0885487 -0.888941 -0.888941
-0.0738354 -0.88031 -0.88031
-0.0878566 -0.871909 -0.871909
-0.0882033 -0.880409 -0.880409
-0.10298 -0.889066 -0.889066
-0.103771 -0.906221 -0.906221
-0.07471 -0.906002 -0.906002
-0.074128 -0.888843 -0.888843
-0.103376 -0.897628 -0.897628
-0.0892355 -0.906098 -0.906098
-0.0744196 -0.897407 -0.897407
-0.0885487 -0.888941 -0.888941
-0.0888928 -0.897504 -0.897504
-0.103771 -0.906221 -0.906221
-0.104556 -0.923499 -0.923499
-0.0752877 -0.923285 -0.923285
-0.07471 -0.906002 -0.906002
-0.104165 -0.914845 -0.914845
-0.089917 -0.923379 -0.923379
-0.0749994 -0.914629 -0.914629
-0.0892355 -0.906098 -0.906098
-0.0895769 -0.914723 -0.914723
-0.104556 -0.923499 -0.923499
-0.105335 -0.9409 -0.9409
-0.0758612 -0.940691 -0.940691
-0.0752877 -0.923285 -0.923285
-0.104947 -0.932184 -0.932184
-0.0905932 -0.940782 -0.940782
-0.075575 -0.931973 -0.931973
-0.089917 -0.923379 -0.923379
-0.0902557 -0.932066 -0.932066
-0.105335 -0.9409 -0.9409
-0.106108 -0.958422 -0.958422
-0.0764303 -0.958217 -0.958217
-0.0758612 -0.940691 -0.940691
-0.105722 -0.949646 -0.949646
-0.091264 -0.958307 -0.958307
-0.0761463 -0.949439 -0.949439
-0.0905932 -0.940782 -0.940782
-0.0909293 -0.949529 -0.949529
-0.106108 -0.958422 -0.958422
-0.106874 -0.976064 -0.976064
-0.0769952 -0.975863 -0.975863
-0.0764303 -0.958217 -0.958217
-0.106492 -0.967228 -0.967228
-0.0919296 -0.975951 -0.975951
-0.0767133 -0.967025 -0.967025
-0.091264 -0.958307 -0.958307
-0.0915975 -0.967114 -0.967114
-0.106874 -0.976064 -0.976064
-0.107634 -0.993824 -0.993824
-0.0775558 -0.993628 -0.993628
-0.0769952 -0.975863 -0.975863
-0.107255 -0.984929 -0.984929
-0.0925899 -0.993714 -0.993714
-0.077276 -0.984731 -0.984731
-0.0919296 -0.975951 -0.975951
-0.0922604 -0.984817 -0.984817
-0.107634 -0.993824 -0.993824
-0.108388 -1.0117 -1.0117
-0.0781121 -1.01151 -1.01151
-0.0775558 -0.993628 -0.993628
-0.108012 -1.00275 -1.00275
-0.0932448 -1.01159 -1.01159
-0.0778345 -1.00255 -1.00255
-0.0925899 -0.993714 -0.993714
-0.092918 -1.00264 -1.00264
-0.108388 -1.0117 -1.0117
-0.109135 -1.0297 -1.0297
-0.0786641 -1.02951 -1.02951
-0.0781121 -1.01151 -1.01151
-0.108762 -1.02068 -1.02068
-0.0938944 -1.02959 -1.02959
-0.0783886 -1.0205 -1.0205
-0.0932448 -1.01159 -1.01159
-0.0935703 -1.02058 -1.02058
-0.109135 -1.0297 -1.0297
-0.109876 -1.04781 -1.04781
-0.0792118 -1.04762 -1.04762
-0.0786641 -1.02951 -1.02951
-0.109506 -1.03874 -1.03874
-0.0945388 -1.0477 -1.0477
-0.0789385 -1.03855 -1.03855
-0.0938944 -1.02959 -1.02959
-0.0942173 -1.03863 -1.03863
-0.109876 -1.04781 -1.04781
-0.110611 -1.06603 -1.06603
-0.0797552 -1.06585 -1.06585
-0.0792118 -1.04762 -1.04762
-0.110244 -1.0569 -1.0569
-0.0951778 -1.06593 -1.06593
-0.079484 -1.05672 -1.05672
-0.0945388 -1.0477 -1.0477
-0.0948589 -1.0568 -1.0568
-0.110611 -1.06603 -1.06603
-0.111339 -1.08436 -1.08436
-0.0802943 -1.08419 -1.08419
-0.0797552 -1.06585 -1.06585
-0.110975 -1.07518 -1.07518
-0.0958114 -1.08427 -1.08427
-0.0800253 -1.07501 -1.07501
-0.0951778 -1.06593 -1.06593
-0.0954953 -1.07508 -1.07508
-0.111339 -1.08436 -1.08436
-0.112061 -1.10281 -1.10281
-0.0808291 -1.10264 -1.10264
-0.0802943 -1.08419 -1.08419
-0.111701 -1.09357 -1.09357
-0.0964398 -1.10272 -1.10272
-0.0805622 -1.0934 -1.0934
-0.0958114 -1.08427 -1.08427
-0.0961263 -1.09348 -1.09348
-0.112061 -1.10281 -1.10281
-0.112776 -1.12137 -1.12137
-0.0813596 -1.1212 -1.1212
-0.0808291 -1.10264 -1.10264
-0.112419 -1.11208 -1.11208
-0.0970628 -1.12127 -1.12127
-0.0810949 -1.11191 -1.11191
-0.0964398 -1.10272 -1.10272
-0.0967519 -1.11198 -1.11198
-0.112776 -1.12137 -1.12137
-0.113485 -1.14004 -1.14004
-0.0818857 -1.13988 -1.13988
-0.0813596 -1.1212 -1.1212
-0.113132 -1.13069 -1.13069
-0.0976804 -1.13994 -1.13994
-0.0816232 -1.13053 -1.13053
-0.0970628 -1.12127 -1.12127
-0.0973723 -1.1306 -1.1306
-0.113485 -1.14004 -1.14004
-0.114188 -1.15881 -1.15881
-0.0824076 -1.15865 -1.15865
-0.0818857 -1.13988 -1.13988
-0.113838 -1.14941 -1.14941
-0.0982928 -1.15872 -1.15872
-0.0821472 -1.14925 -1.14925
-0.0976804 -1.13994 -1.13994
-0.0979873 -1.14932 -1.14932
-0.114188 -1.15881 -1.15881
-0.114885 -1.17769 -1.17769
-0.0829251 -1.17754 -1.17754
-0.0824076 -1.15865 -1.15865
-0.114537 -1.16824 -1.16824
-0.0988997 -1.1776 -1.1776
-0.0826669 -1.16808 -1.16808
-0.0982928 -1.15872 -1.15872
-0.0985969 -1.16815 -1.16815
-0.114885 -1.17769 -1.17769
-0.115575 -1.19668 -1.19668
-0.0834383 -1.19653 -1.19653
-0.0829251 -1.17754 -1.17754
-0.11523 -1.18717 -1.18717
-0.0995014 -1.19659 -1.19659
-0.0831822 -1.18702 -1.18702
-0.0988997 -1.1776 -1.1776
-0.0992012 -1.18708 -1.18708
-0.115575 -1.19668 -1.19668
-0.116258 -1.21577 -1.21577
-0.0839472 -1.21562 -1.21562
-0.0834383 -1.19653 -1.19653
-0.115917 -1.20621 -1.20621
-0.100098 -1.21568 -1.21568
-0.0836933 -1.20606 -1.20606
-0.0995014 -1.19659 -1.19659
-0.0998002 -1.20613 -1.20613
-0.116258 -1.21577 -1.21577
-0.116936 -1.23496 -1.23496
-0.0844517 -1.23482 -1.23482
-0.0839472 -1.21562 -1.21562
-0.116598 -1.22535 -1.22535
-0.100689 -1.23488 -1.23488
-0.0842 -1.22521 -1.22521
-0.100098 -1.21568 -1.21568
-0.100394 -1.22527 -1.22527
-0.116936 -1.23496 -1.23496
-0.117607 -1.25426 -1.25426
-0.0849519 -1.25412 -1.25412
-0.0844517 -1.23482 -1.23482
-0.117272 -1.24459 -1.24459
-0.101274 -1.25418 -1.25418
-0.0847023 -1.24446 -1.24446
-0.100689 -1.23488 -1.23488
-0.100982 -1.24452 -1.24452
-0.117607 -1.25426 -1.25426
-0.118271 -1.27365 -1.27365
-0.0854477 -1.27352 -1.27352
-0.0849519 -1.25412 -1.25412
-0.11794 -1.26394 -1.26394
-0.101854 -1.27358 -1.27358
-0.0852003 -1.26381 -1.26381
-0.101274 -1.25418 -1.25418
-0.101565 -1.26386 -1.26386
-0.118271 -1.27365 -1.27365
-0.118929 -1.29315 -1.29315
-0.0859392 -1.29302 -1.29302
-0.0854477 -1.27352 -1.27352
-0.118601 -1.28339 -1.28339
-0.102429 -1.29307 -1.29307
-0.085694 -1.28326 -1.28326
-0.101854 -1.27358 -1.27358
-0.102142 -1.28331 -1.28331
-0.118929 -1.29315 -1.29315
-0.119581 -1.31274 -1.31274
-0.0864263 -1.31262 -1.31262
-0.0859392 -1.29302 -1.29302
-0.119256 -1.30293 -1.30293
-0.102998 -1.31267 -1.31267
-0.0861833 -1.30281 -1.30281
-0.102429 -1.29307 -1.29307
-0.102714 -1.30286 -1.30286
-0.119581 -1.31274 -1.31274
-0.120226 -1.33243 -1.33243
-0.0869091 -1.33231 -1.33231
-0.0864263 -1.31262 -1.31262
-0.119904 -1.32257 -1.32257
-0.103563 -1.33236 -1.33236
-0.0866682 -1.32245 -1.32245
-0.102998 -1.31267 -1.31267
-0.103281 -1.3225 -1.3225
-0.120226 -1.33243 -1.33243
-0.120865 -1.35221 -1.35221
-0.0873875 -1.3521 -1.3521
-0.0869091 -1.33231 -1.33231
-0.120546 -1.34231 -1.34231
-0.104121 -1.35215 -1.35215
-0.0871488 -1.3422 -1.3422
-0.103563 -1.33236 -1.33236
-0.103843 -1.34224 -1.34224
-0.120865 -1.35221 -1.35221
-0.121498 -1.37209 -1.37209
-0.0878615 -1.37199 -1.37199
-0.0873875 -1.3521 -1.3521
-0.121182 -1.36214 -1.36214
-0.104674 -1.37203 -1.37203
-0.087625 -1.36203 -1.36203
-0.104121 -1.35215 -1.35215
-0.104398 -1.36208 -1.36208
-0.121498 -1.37209 -1.37209
-0.122124 -1.39207 -1.39207
-0.0883311 -1.39196 -1.39196
-0.0878615 -1.37199 -1.37199
-0.121811 -1.38207 -1.38207
-0.105222 -1.39201 -1.39201
-0.0880968 -1.38196 -1.38196
-0.104674 -1.37203 -1.37203
-0.104949 -1.38201 -1.38201
-0.122124 -1.39207 -1.39207
-0.122743 -1.41213 -1.41213
-0.0887964 -1.41203 -1.41203
-0.0883311 -1.39196 -1.39196
-0.122434 -1.40209 -1.40209
-0.105765 -1.41207 -1.41207
-0.0885643 -1.40199 -1.40199
-0.105222 -1.39201 -1.39201
-0.105494 -1.40203 -1.40203
-0.122743 -1.41213 -1.41213
-0.123356 -1.43229 -1.43229
-0.0892572 -1.4322 -1.4322
-0.0887964 -1.41203 -1.41203
-0.123051 -1.4222 -1.4222
-0.106302 -1.43223 -1.43223
-0.0890273 -1.4221 -1.4221
-0.105765 -1.41207 -1.41207
-0.106034 -1.42214 -1.42214
-0.123356 -1.43229 -1.43229
-0.123963 -1.45254 -1.45254
-0.0897137 -1.45245 -1.45245
-0.0892572 -1.4322 -1.4322
-0.123661 -1.4424 -1.4424
-0.106833 -1.45248 -1.45248
-0.089486 -1.44231 -1.44231
-0.106302 -1.43223 -1.43223
-0.106568 -1.44235 -1.44235
-0.123963 -1.45254 -1.45254
-0.124563 -1.47287 -1.47287
-0.0901657 -1.47278 -1.47278
-0.0897137 -1.45245 -1.45245
-0.124264 -1.46269 -1.46269
-0.107359 -1.47282 -1.47282
-0.0899402 -1.4626 -1.4626
-0.106833 -1.45248 -1.45248
-0.107097 -1.46264 -1.46264
-0.124563 -1.47287 -1.47287
-0.125157 -1.49329 -1.49329
-0.0906133 -1.49321 -1.49321
-0.0901657 -1.47278 -1.47278
-0.124861 -1.48307 -1.48307
-0.10788 -1.49324 -1.49324
-0.0903901 -1.48299 -1.48299
-0.107359 -1.47282 -1.47282
-0.10762 -1.48302 -1.48302
-0.125157 -1.49329 -1.49329
-0.125745 -1.5138 -1.5138
-0.0910565 -1.51372 -1.51372
-0.0906133 -1.49321 -1.49321
-0.125452 -1.50353 -1.50353
-0.108395 -1.51375 -1.51375
-0.0908355 -1.50346 -1.50346
-0.10788 -1.49324 -1.49324
-0.108138 -1.50349 -1.50349
-0.125745 -1.5138 -1.5138
-0.126325 -1.53439 -1.53439
-0.0914953 -1.53432 -1.53432
-0.0910565 -1.51372 -1.51372
-0.126036 -1.52409 -1.52409
-0.108905 -1.53435 -1.53435
-0.0912765 -1.52401 -1.52401
-0.108395 -1.51375 -1.51375
-0.108651 -1.52404 -1.52404
-0.126325 -1.53439 -1.53439
-0.1269 -1.55507 -1.55507
-0.0919297 -1.555 -1.555
-0.0914953 -1.53432 -1.53432
-0.126613 -1.54472 -1.54472
-0.10941 -1.55502 -1.55502
-0.0917131 -1.54465 -1.54465
-0.108905 -1.53435 -1.53435
-0.109158 -1.54468 -1.54468
-0.1269 -1.55507 -1.55507
-0.127468 -1.57583 -1.57583
-0.0923596 -1.57576 -1.57576
-0.0919297 -1.555 -1.555
-0.127185 -1.56544 -1.56544
-0.109909 -1.57579 -1.57579
-0.0921452 -1.56537 -1.56537
-0.10941 -1.55502 -1.55502
-0.10966 -1.56539 -1.56539
-0.127468 -1.57583 -1.57583
-0.128029 -1.59667 -1.59667
-0.092785 -1.59661 -1.59661
-0.0923596 -1.57576 -1.57576
-0.127749 -1.58624 -1.58624
-0.110402 -1.59663 -1.59663
-0.0925729 -1.58617 -1.58617
-0.109909 -1.57579 -1.57579
-0.110156 -1.5862 -1.5862
-0.128029 -1.59667 -1.59667
-0.128584 -1.61759 -1.61759
-0.093206 -1.61753 -1.61753
-0.092785 -1.59661 -1.59661
-0.128307 -1.60712 -1.60712
-0.11089 -1.61755 -1.61755
-0.0929961 -1.60706 -1.60706
-0.110402 -1.59663 -1.59663
-0.110647 -1.60708 -1.60708
-0.128584 -1.61759 -1.61759
-0.129132 -1.63858 -1.63858
-0.0936226 -1.63853 -1.63853
-0.093206 -1.61753 -1.61753
-0.128859 -1.62808 -1.62808
-0.111372 -1.63855 -1.63855
-0.0934149 -1.62802 -1.62802
-0.11089 -1.61755 -1.61755
-0.111132 -1.62804 -1.62804
-0.129132 -1.63858 -1.63858
-0.129674 -1.65966 -1.65966
-0.0940346 -1.65961 -1.65961
-0.0936226 -1.63853 -1.63853
-0.129404 -1.64911 -1.64911
-0.111849 -1.65963 -1.65963
-0.0938292 -1.64906 -1.64906
-0.111372 -1.63855 -1.63855
-0.111612 -1.64908 -1.64908
-0.129674 -1.65966 -1.65966
-0.13021 -1.68081 -1.68081
-0.0944422 -1.68077 -1.68077
-0.0940346 -1.65961 -1.65961
-0.129943 -1.67023 -1.67023
-0.112321 -1.68078 -1.68078
-0.094239 -1.67018 -1.67018
-0.111849 -1.65963 -1.65963
-0.112086 -1.6702 -1.6702
-0.13021 -1.68081 -1.68081
-0.130739 -1.70204 -1.70204
-0.0948453 -1.702 -1.702
-0.0944422 -1.68077 -1.68077
-0.130475 -1.69142 -1.69142
-0.112787 -1.70201 -1.70201
-0.0946443 -1.69138 -1.69138
-0.112321 -1.68078 -1.68078
-0.112555 -1.69139 -1.69139
-0.130739 -1.70204 -1.70204
-0.131261 -1.72334 -1.72334
-0.0952439 -1.72331 -1.72331
-0.0948453 -1.702 -1.702
-0.131 -1.71268 -1.71268
-0.113247 -1.72332 -1.72332
-0.0950452 -1.71264 -1.71264
-0.112787 -1.70201 -1.70201
-0.113018 -1.71265 -1.71265
-0.131261 -1.72334 -1.72334
-0.131777 -1.74471 -1.74471
-0.095638 -1.74468 -1.74468
-0.0952439 -1.72331 -1.72331
-0.13152 -1.73402 -1.73402
-0.113702 -1.74469 -1.74469
-0.0954416 -1.73399 -1.73399
-0.113247 -1.72332 -1.72332
-0.113475 -1.73399 -1.73399
-0.131777 -1.74471 -1.74471
-0.132286 -1.76616 -1.76616
-0.0960276 -1.76613 -1.76613
-0.095638 -1.74468 -1.74468
-0.132032 -1.75543 -1.75543
-0.114152 -1.76614 -1.76614
-0.0958334 -1.7554 -1.7554
-0.113702 -1.74469 -1.74469
-0.113928 -1.75541 -1.75541
-0.132286 -1.76616 -1.76616
-0.132788 -1.78768 -1.78768
-0.0964127 -1.78765 -1.78765
-0.0960276 -1.76613 -1.76613
-0.132538 -1.77691 -1.77691
-0.114595 -1.78766 -1.78766
-0.0962207 -1.77688 -1.77688
-0.114152 -1.76614 -1.76614
-0.114374 -1.77689 -1.77689
-0.132788 -1.78768 -1.78768
-0.133284 -1.80926 -1.80926
-0.0967933 -1.80924 -1.80924
-0.0964127 -1.78765 -1.78765
-0.133037 -1.79846 -1.79846
-0.115034 -1.80924 -1.80924
-0.0966036 -1.79844 -1.79844
-0.114595 -1.78766 -1.78766
-0.114815 -1.79844 -1.79844
-0.133284 -1.80926 -1.80926
-0.133774 -1.83091 -1.83091
-0.0971693 -1.8309 -1.8309
-0.0967933 -1.80924 -1.80924
-0.13353 -1.82008 -1.82008
-0.115467 -1.8309 -1.8309
-0.0969818 -1.82006 -1.82006
-0.115034 -1.80924 -1.80924
-0.115251 -1.82006 -1.82006
-0.133774 -1.83091 -1.83091
-0.134257 -1.85263 -1.85263
-0.0975407 -1.85262 -1.85262
-0.0971693 -1.8309 -1.8309
-0.134016 -1.84176 -1.84176
-0.115894 -1.85262 -1.85262
-0.0973556 -1.84175 -1.84175
-0.115467 -1.8309 -1.8309
-0.115681 -1.84175 -1.84175
-0.134257 -1.85263 -1.85263
-0.134733 -1.87442 -1.87442
-0.0979077 -1.87441 -1.87441
-0.0975407 -1.85262 -1.85262
-0.134496 -1.86352 -1.86352
-0.116315 -1.87441 -1.87441
-0.0977248 -1.86351 -1.86351
-0.115894 -1.85262 -1.85262
-0.116105 -1.86351 -1.86351
-0.134733 -1.87442 -1.87442
-0.135203 -1.89627 -1.89627
-0.09827 -1.89626 -1.89626
-0.0979077 -1.87441 -1.87441
-0.134969 -1.88533 -1.88533
-0.116731 -1.89626 -1.89626
-0.0980894 -1.88533 -1.88533
-0.116315 -1.87441 -1.87441
-0.116524 -1.88533 -1.88533
-0.135203 -1.89627 -1.89627
-0.135666 -1.91818 -1.91818
-0.0986278 -1.91818 -1.91818
-0.09827 -1.89626 -1.89626
-0.135435 -1.90721 -1.90721
-0.117142 -1.91817 -1.91817
-0.0984495 -1.90721 -1.90721
-0.116731 -1.89626 -1.89626
-0.116937 -1.90721 -1.90721
-0.135666 -1.91818 -1.91818
-0.136122 -1.94015 -1.94015
-0.098981 -1.94016 -1.94016
-0.0986278 -1.91818 -1.91818
-0.135895 -1.92916 -1.92916
-0.117547 -1.94015 -1.94015
-0.098805 -1.92916 -1.92916
-0.117142 -1.91817 -1.91817
-0.117345 -1.92915 -1.92915
-0.136122 -1.94015 -1.94015
-0.136572 -1.96219 -1.96219
-0.0993296 -1.9622 -1.9622
-0.098981 -1.94016 -1.94016
-0.136348 -1.95116 -1.95116
-0.117946 -1.96219 -1.96219
-0.0991559 -1.95117 -1.95117
-0.117547 -1.94015 -1.94015
-0.117747 -1.95116 -1.95116
-0.136572 -1.96219 -1.96219
-0.137015 -1.98428 -1.98428
-0.0996736 -1.98429 -1.98429
-0.0993296 -1.9622 -1.9622
-0.136794 -1.97323 -1.97323
-0.118339 -1.98428 -1.98428
-0.0995022 -1.97324 -1.97324
-0.117946 -1.96219 -1.96219
-0.118143 -1.97323 -1.97323
-0.137015 -1.98428 -1.98428
-0.137452 -2.00643 -2.00643
-0.100013 -2.00645 -2.00645
-0.0996736 -1.98429 -1.98429
-0.137234 -1.99535 -1.99535
-0.118727 -2.00644 -2.00644
-0.0998439 -1.99537 -1.99537
-0.118339 -1.98428 -1.98428
-0.118534 -1.99535 -1.99535
-0.137452 -2.00643 -2.00643
-0.137882 -2.02864 -2.02864
-0.100348 -2.02866 -2.02866
-0.100013 -2.00645 -2.00645
-0.137668 -2.01753 -2.01753
-0.11911 -2.02865 -2.02865
-0.100181 -2.01755 -2.01755
-0.118727 -2.00644 -2.00644
-0.118919 -2.01753 -2.01753
-0.137882 -2.02864 -2.02864
-0.138305 -2.05091 -2.05091
-0.100678 -2.05093 -2.05093
-0.100348 -2.02866 -2.02866
-0.138094 -2.03977 -2.03977
-0.119486 -2.05091 -2.05091
-0.100514 -2.03979 -2.03979
-0.11911 -2.02865 -2.02865
-0.119299 -2.03977 -2.03977
-0.138305 -2.05091 -2.05091
-0.138721 -2.07323 -2.07323
-0.101004 -2.07326 -2.07326
-0.100678 -2.05093 -2.05093
-0.138514 -2.06206 -2.06206
-0.119857 -2.07323 -2.07323
-0.100841 -2.06209 -2.06209
-0.119486 -2.05091 -2.05091
-0.119673 -2.06207 -2.06207
-0.138721 -2.07323 -2.07323
-0.139131 -2.0956 -2.0956
-0.101324 -2.09563 -2.09563
-0.101004 -2.07326 -2.07326
-0.138927 -2.08441 -2.08441
-0.120223 -2.09561 -2.09561
-0.101165 -2.08444 -2.08444
-0.119857 -2.07323 -2.07323
-0.120041 -2.08442 -2.08442
-0.139131 -2.0956 -2.0956
-0.139534 -2.11802 -2.11802
-0.101641 -2.11806 -2.11806
-0.101324 -2.09563 -2.09563
-0.139334 -2.1068 -2.1068
-0.120582 -2.11804 -2.11804
-0.101483 -2.10684 -2.10684
-0.120223 -2.09561 -2.09561
-0.120403 -2.10682 -2.10682
-0.139534 -2.11802 -2.11802
-0.139931 -2.1405 -2.1405
-0.101952 -2.14054 -2.14054
-0.101641 -2.11806 -2.11806
-0.139733 -2.12925 -2.12925
-0.120936 -2.14051 -2.14051
-0.101797 -2.12929 -2.12929
-0.120582 -2.11804 -2.11804
-0.12076 -2.12927 -2.12927
-0.139931 -2.1405 -2.1405
-0.14032 -2.16302 -2.16302
-0.102259 -2.16307 -2.16307
-0.101952 -2.14054 -2.14054
-0.140126 -2.15176 -2.15176
-0.121285 -2.16304 -2.16304
-0.102106 -2.1518 -2.1518
-0.120936 -2.14051 -2.14051
-0.121111 -2.15177 -2.15177
-0.14032 -2.16302 -2.16302
-0.140703 -2.1856 -2.1856
-0.102561 -2.18565 -2.18565
-0.102259 -2.16307 -2.16307
-0.140513 -2.17431 -2.17431
-0.121627 -2.18562 -2.18562
-0.102411 -2.17435 -2.17435
-0.121285 -2.16304 -2.16304
-0.121457 -2.17432 -2.17432
-0.140703 -2.1856 -2.1856
-0.14108 -2.20822 -2.20822
-0.102859 -2.20827 -2.20827
-0.102561 -2.18565 -2.18565
-0.140892 -2.1969 -2.1969
-0.121964 -2.20824 -2.20824
-0.102711 -2.19695 -2.19695
-0.121627 -2.18562 -2.18562
-0.121796 -2.19692 -2.19692
-0.14108 -2.20822 -2.20822
-0.141449 -2.23089 -2.23089
-0.103152 -2.23094 -2.23094
-0.102859 -2.20827 -2.20827
-0.141265 -2.21955 -2.21955
-0.122295 -2.23091 -2.23091
-0.103006 -2.2196 -2.2196
-0.121964 -2.20824 -2.20824
-0.12213 -2.21957 -2.21957
-0.141449 -2.23089 -2.23089
-0.141812 -2.2536 -2.2536
-0.10344 -2.25366 -2.25366
-0.103152 -2.23094 -2.23094
-0.141631 -2.24224 -2.24224
-0.122621 -2.25362 -2.25362
-0.103296 -2.2423 -2.2423
-0.122295 -2.23091 -2.23091
-0.122459 -2.24226 -2.24226
-0.141812 -2.2536 -2.2536
-0.142168 -2.27635 -2.27635
-0.103723 -2.27642 -2.27642
-0.10344 -2.25366 -2.25366
-0.141991 -2.26497 -2.26497
-0.12294 -2.27638 -2.27638
-0.103582 -2.26503 -2.26503
-0.122621 -2.25362 -2.25362
-0.122781 -2.265 -2.265
-0.142168 -2.27635 -2.27635
-0.142517 -2.29915 -2.29915
-0.104002 -2.29922 -2.29922
-0.103723 -2.27642 -2.27642
-0.142343 -2.28775 -2.28775
-0.123254 -2.29918 -2.29918
-0.103863 -2.28781 -2.28781
-0.12294 -2.27638 -2.27638
-0.123098 -2.28778 -2.28778
-0.142517 -2.29915 -2.29915
-0.142859 -2.32199 -2.32199
-0.104276 -2.32206 -2.32206
-0.104002 -2.29922 -2.29922
-0.142689 -2.31057 -2.31057
-0.123562 -2.32202 -2.32202
-0.104139 -2.31064 -2.31064
-0.123254 -2.29918 -2.29918
-0.123409 -2.3106 -2.3106
-0.142859 -2.32199 -2.32199
-0.143195 -2.34487 -2.34487
-0.104545 -2.34495 -2.34495
-0.104276 -2.32206 -2.32206
-0.143028 -2.33343 -2.33343
-0.123865 -2.3449 -2.3449
-0.104411 -2.3335 -2.3335
-0.123562 -2.32202 -2.32202
-0.123714 -2.33346 -2.33346
-0.143195 -2.34487 -2.34487
-0.143524 -2.36779 -2.36779
-0.104809 -2.36787 -2.36787
-0.104545 -2.34495 -2.34495
-0.14336 -2.35633 -2.35633
-0.124161 -2.36783 -2.36783
-0.104678 -2.3564 -2.3564
-0.123865 -2.3449 -2.3449
-0.124014 -2.35636 -2.35636
-0.143524 -2.36779 -2.36779
-0.143846 -2.39075 -2.39075
-0.105069 -2.39083 -2.39083
-0.104809 -2.36787 -2.36787
-0.143685 -2.37926 -2.37926
-0.124452 -2.39078 -2.39078
-0.10494 -2.37934 -2.37934
-0.124161 -2.36783 -2.36783
-0.124308 -2.3793 -2.3793
-0.143846 -2.39075 -2.39075
-0.144161 -2.41374 -2.41374
-0.105324 -2.41382 -2.41382
-0.105069 -2.39083 -2.39083
-0.144004 -2.40224 -2.40224
-0.124737 -2.41378 -2.41378
-0.105197 -2.40232 -2.40232
-0.124452 -2.39078 -2.39078
-0.124595 -2.40228 -2.40228
-0.144161 -2.41374 -2.41374
-0.144469 -2.43677 -2.43677
-0.105574 -2.43685 -2.43685
-0.105324 -2.41382 -2.41382
-0.144316 -2.42525 -2.42525
-0.125016 -2.43681 -2.43681
-0.105449 -2.42534 -2.42534
-0.124737 -2.41378 -2.41378
-0.124878 -2.42529 -2.42529
-0.144469 -2.43677 -2.43677
-0.14477 -2.45983 -2.45983
-0.105819 -2.45992 -2.45992
-0.105574 -2.43685 -2.43685
-0.144621 -2.44829 -2.44829
-0.12529 -2.45987 -2.45987
-0.105697 -2.44838 -2.44838
-0.125016 -2.43681 -2.43681
-0.125154 -2.44833 -2.44833
-0.14477 -2.45983 -2.45983
-0.145065 -2.48292 -2.48292
-0.10606 -2.48302 -2.48302
-0.105819 -2.45992 -2.45992
-0.144919 -2.47137 -2.47137
-0.125557 -2.48297 -2.48297
-0.10594 -2.47146 -2.47146
-0.12529 -2.45987 -2.45987
-0.125424 -2.47141 -2.47141
-0.145065 -2.48292 -2.48292
-0.145353 -2.50605 -2.50605
-0.106295 -2.50615 -2.50615
-0.10606 -2.48302 -2.48302
-0.14521 -2.49448 -2.49448
-0.125819 -2.50609 -2.50609
-0.106178 -2.49458 -2.49458
-0.125557 -2.48297 -2.48297
-0.125689 -2.49453 -2.49453
-0.145353 -2.50605 -2.50605
-0.145634 -2.5292 -2.5292
-0.106526 -2.52931 -2.52931
-0.106295 -2.50615 -2.50615
-0.145494 -2.51762 -2.51762
-0.126075 -2.52925 -2.52925
-0.106411 -2.51772 -2.51772
-0.125819 -2.50609 -2.50609
-0.125948 -2.51767 -2.51767
-0.145634 -2.5292 -2.5292
-0.145908 -2.55239 -2.55239
-0.106752 -2.5525 -2.5525
-0.106526 -2.52931 -2.52931
-0.145771 -2.54079 -2.54079
-0.126325 -2.55244 -2.55244
-0.10664 -2.5409 -2.5409
-0.126075 -2.52925 -2.52925
-0.1262 -2.54084 -2.54084
-0.145908 -2.55239 -2.55239
-0.146175 -2.5756 -2.5756
-0.106973 -2.57571 -2.57571
-0.106752 -2.5525 -2.5525
-0.146042 -2.56399 -2.56399
-0.126569 -2.57565 -2.57565
-0.106863 -2.5641 -2.5641
-0.126325 -2.55244 -2.55244
-0.126447 -2.56404 -2.56404
-0.146175 -2.5756 -2.5756
-0.146435 -2.59884 -2.59884
-0.107189 -2.59896 -2.59896
-0.106973 -2.57571 -2.57571
-0.146306 -2.58722 -2.58722
-0.126807 -2.5989 -2.5989
-0.107082 -2.58733 -2.58733
-0.126569 -2.57565 -2.57565
-0.126689 -2.58727 -2.58727
-0.146435 -2.59884 -2.59884
-0.146688 -2.62211 -2.62211
-0.1074 -2.62222 -2.62222
-0.107189 -2.59896 -2.59896
-0.146562 -2.61047 -2.61047
-0.127039 -2.62216 -2.62216
-0.107295 -2.61059 -2.61059
-0.126807 -2.5989 -2.5989
-0.126924 -2.61053 -2.61053
-0.146688 -2.62211 -2.62211
-0.146934 -2.6454 -2.6454
-0.107607 -2.64552 -2.64552
-0.1074 -2.62222 -2.62222
-0.146812 -2.63375 -2.63375
-0.127266 -2.64545 -2.64545
-0.107504 -2.63387 -2.63387
-0.127039 -2.62216 -2.62216
-0.127153 -2.63381 -2.63381
-0.146934 -2.6454 -2.6454
-0.147174 -2.66871 -2.66871
-0.107808 -2.66883 -2.66883
-0.107607 -2.64552 -2.64552
-0.147055 -2.65705 -2.65705
-0.127486 -2.66877 -2.66877
-0.107708 -2.65717 -2.65717
-0.127266 -2.64545 -2.64545
-0.127376 -2.65711 -2.65711
-0.147174 -2.66871 -2.66871
-0.147406 -2.69204 -2.69204
-0.108005 -2.69217 -2.69217
-0.107808 -2.66883 -2.66883
-0.147291 -2.68037 -2.68037
-0.1277 -2.6921 -2.6921
-0.107907 -2.6805 -2.6805
-0.127486 -2.66877 -2.66877
-0.127594 -2.68043 -2.68043
-0.147406 -2.69204 -2.69204
-0.147631 -2.7154 -2.7154
-0.108197 -2.71553 -2.71553
-0.108005 -2.69217 -2.69217
-0.147519 -2.70372 -2.70372
-0.127909 -2.71546 -2.71546
-0.108101 -2.70385 -2.70385
-0.1277 -2.6921 -2.6921
-0.127805 -2.70378 -2.70378
-0.147631 -2.7154 -2.7154
-0.14785 -2.73877 -2.73877
-0.108383 -2.73891 -2.73891
-0.108197 -2.71553 -2.71553
-0.147741 -2.72708 -2.72708
-0.128112 -2.73884 -2.73884
-0.108291 -2.72722 -2.72722
-0.127909 -2.71546 -2.71546
-0.128011 -2.72715 -2.72715
-0.14785 -2.73877 -2.73877
-0.148061 -2.76217 -2.76217
-0.108565 -2.7623 -2.7623
-0.108383 -2.73891 -2.73891
-0.147956 -2.75047 -2.75047
-0.128308 -2.76223 -2.76223
-0.108475 -2.7506 -2.7506
-0.128112 -2.73884 -2.73884
-0.128211 -2.75053 -2.75053
-0.148061 -2.76217 -2.76217
-0.148266 -2.78558 -2.78558
-0.108742 -2.78572 -2.78572
-0.108565 -2.7623 -2.7623
-0.148164 -2.77387 -2.77387
-0.128499 -2.78564 -2.78564
-0.108654 -2.77401 -2.77401
-0.128308 -2.76223 -2.76223
-0.128404 -2.77394 -2.77394
-0.148266 -2.78558 -2.78558
-0.148463 -2.809 -2.809
-0.108914 -2.80915 -2.80915
-0.108742 -2.78572 -2.78572
-0.148365 -2.79729 -2.79729
-0.128683 -2.80907 -2.80907
-0.108829 -2.79743 -2.79743
-0.128499 -2.78564 -2.78564
-0.128592 -2.79736 -2.79736
-0.148463 -2.809 -2.809
-0.148653 -2.83244 -2.83244
-0.109081 -2.83259 -2.83259
-0.108914 -2.80915 -2.80915
-0.148559 -2.82072 -2.82072
-0.128862 -2.83251 -2.83251
-0.108998 -2.82087 -2.82087
-0.128683 -2.80907 -2.80907
-0.128774 -2.82079 -2.82079
-0.148653 -2.83244 -2.83244
-0.148837 -2.85589 -2.85589
-0.109243 -2.85605 -2.85605
-0.109081 -2.83259 -2.83259
-0.148746 -2.84417 -2.84417
-0.129035 -2.85597 -2.85597
-0.109163 -2.84432 -2.84432
-0.128862 -2.83251 -2.83251
-0.128949 -2.84424 -2.84424
-0.148837 -2.85589 -2.85589
-0.149013 -2.87936 -2.87936
-0.1094 -2.87952 -2.87952
-0.109243 -2.85605 -2.85605
-0.148926 -2.86763 -2.86763
-0.129201 -2.87944 -2.87944
-0.109322 -2.86778 -2.86778
-0.129035 -2.85597 -2.85597
-0.129119 -2.8677 -2.8677
-0.149013 -2.87936 -2.87936
-0.149183 -2.90284 -2.90284
-0.109552 -2.903 -2.903
-0.1094 -2.87952 -2.87952
-0.149099 -2.8911 -2.8911
-0.129362 -2.90291 -2.90291
-0.109476 -2.89125 -2.89125
-0.129201 -2.87944 -2.87944
-0.129283 -2.89117 -2.89117
-0.149183 -2.90284 -2.90284
-0.149345 -2.92632 -2.92632
-0.109699 -2.92648 -2.92648
-0.109552 -2.903 -2.903
-0.149265 -2.91458 -2.91458
-0.129517 -2.9264 -2.9264
-0.109626 -2.91474 -2.91474
-0.129362 -2.90291 -2.90291
-0.12944 -2.91466 -2.91466
-0.149345 -2.92632 -2.92632
-0.149501 -2.94982 -2.94982
-0.10984 -2.94998 -2.94998
-0.109699 -2.92648 -2.92648
-0.149424 -2.93807 -2.93807
-0.129666 -2.9499 -2.9499
-0.10977 -2.93823 -2.93823
-0.129517 -2.9264 -2.9264
-0.129592 -2.93815 -2.93815
-0.149501 -2.94982 -2.94982
-0.149651 -2.97332 -2.97332
-0.109977 -2.97349 -2.97349
-0.10984 -2.94998 -2.94998
-0.149577 -2.96157 -2.96157
-0.12981 -2.9734 -2.9734
-0.109909 -2.96173 -2.96173
-0.129666 -2.9499 -2.9499
-0.129739 -2.96165 -2.96165
-0.149651 -2.97332 -2.97332
-0.149796 -2.99683 -2.99683
-0.110108 -2.997 -2.997
-0.109977 -2.97349 -2.97349
-0.149724 -2.98507 -2.98507
-0.129948 -2.99691 -2.99691
-0.110043 -2.98524 -2.98524
-0.12981 -2.9734 -2.9734
-0.129879 -2.98516 -2.98516
-0.149796 -2.99683 -2.99683
-0.149937 -3.02035 -3.02035
-0.110233 -3.02052 -3.02052
-0.110108 -2.997 -2.997
-0.149867 -3.00859 -3.00859
-0.130081 -3.02043 -3.02043
-0.110171 -3.00876 -3.00876
-0.129948 -2.99691 -2.99691
-0.130015 -3.00867 -3.00867
-0.149937 -3.02035 -3.02035
-0.150077 -3.04387 -3.04387
-0.110351 -3.04405 -3.04405
-0.110233 -3.02052 -3.02052
-0.150007 -3.03211 -3.03211
-0.130208 -3.04396 -3.04396
-0.110293 -3.03228 -3.03228
-0.130081 -3.02043 -3.02043
-0.130145 -3.03219 -3.03219
-0.150077 -3.04387 -3.04387
-0.150223 -3.06742 -3.06742
-0.110463 -3.06759 -3.06759
-0.110351 -3.04405 -3.04405
-0.150149 -3.05564 -3.05564
-0.130328 -3.06751 -3.06751
-0.110407 -3.05582 -3.05582
-0.130208 -3.04396 -3.04396
-0.130269 -3.05573 -3.05573
-0.150223 -3.06742 -3.06742
-0.150375 -3.09106 -3.09106
-0.110579 -3.09114 -3.09114
-0.110463 -3.06759 -3.06759
-0.150301 -3.07921 -3.07921
-0.130442 -3.0911 -3.0911
-0.110519 -3.07937 -3.07937
-0.130328 -3.06751 -3.06751
-0.130383 -3.0793 -3.0793
0 0 0
-0.000916913 -0.000259712 -0.000259712
-0.000533234 -5.47673e-05 -5.47673e-05
0 0 0
-0.000444945 -9.31173e-05 -9.31173e-05
-0.000717973 -0.000132384 -0.000132384
-0.000258516 1.62501e-05 1.62501e-05
0 0 0
-0.000353524 -2.80985e-05 -2.80985e-05
-0.000916913 -0.000259712 -0.000259712
-0.00190968 -0.000749747 -0.000749747
-0.00110721 -0.000414192 -0.000414192
-0.000533234 -5.47673e-05 -5.47673e-05
-0.00140857 -0.000481065 -0.000481065
-0.00149488 -0.000553119 -0.000553119
-0.000816642 -0.000199999 -0.000199999
-0.000717973 -0.000132384 -0.000132384
-0.00110021 -0.000310606 -0.000310606
-0.00190968 -0.000749747 -0.000749747
-0.00291138 -0.001423 -0.001423
-0.0017051 -0.00103603 -0.00103603
-0.00110721 -0.000414192 -0.000414192
-0.00241113 -0.00106269 -0.00106269
-0.0022964 -0.00120245 -0.00120245
-0.00140434 -0.000694018 -0.000694018
-0.00149488 -0.000553119 -0.000553119
-0.00189464 -0.000850603 -0.000850603
-0.00291138 -0.001423 -0.001423
-0.00390802 -0.0022998 -0.0022998
-0.00230791 -0.00189703 -0.00189703
-0.0017051 -0.00103603 -0.00103603
-0.00341057 -0.00183477 -0.00183477
-0.00309937 -0.00207326 -0.00207326
-0.00200656 -0.00143728 -0.00143728
-0.0022964 -0.00120245 -0.00120245
-0.00269836 -0.00160994 -0.00160994
-0.00390802 -0.0022998 -0.0022998
-0.00489615 -0.00339465 -0.00339465
-0.00290867 -0.00299088 -0.00299088
-0.00230791 -0.00189703 -0.00189703
-0.00440309 -0.00281935 -0.00281935
-0.00389609 -0.00316821 -0.00316821
-0.0026088 -0.00241503 -0.00241503
-0.00309937 -0.00207326 -0.00207326
-0.00349864 -0.00259248 -0.00259248
-0.00489615 -0.00339465 -0.00339465
-0.00587774 -0.00471596 -0.00471596
-0.00350389 -0.00431516 -0.00431516
-0.00290867 -0.00299088 -0.00299088
-0.00538771 -0.00402676 -0.00402676
-0.00468591 -0.00449127 -0.00449127
-0.00320701 -0.00362427 -0.00362427
-0.00389609 -0.00316821 -0.00316821
-0.00429183 -0.0038011 -0.0038011
-0.00587774 -0.00471596 -0.00471596
-0.00685319 -0.00626612 -0.00626612
-0.00409383 -0.00586943 -0.00586943
-0.00350389 -0.00431516 -0.00431516
-0.00636619 -0.00546237 -0.00546237
-0.00546937 -0.00604351 -0.00604351
-0.00379949 -0.00506358 -0.00506358
-0.00468591 -0.00449127 -0.00449127
-0.00507838 -0.00523872 -0.00523872
-0.00685319 -0.00626612 -0.00626612
-0.00782325 -0.00804575 -0.00804575
-0.00467886 -0.00765291 -0.00765291
-0.00409383 -0.00586943 -0.00586943
-0.00733887 -0.00712727 -0.00712727
-0.00624733 -0.00782509 -0.00782509
-0.00438691 -0.00673257 -0.00673257
-0.00546937 -0.00604351 -0.00604351
-0.00585899 -0.00690566 -0.00690566
-0.00782325 -0.00804575 -0.00804575
-0.00878811 -0.0100542 -0.0100542
-0.00525976 -0.00966482 -0.00966482
-0.00467886 -0.00765291 -0.00765291
-0.00830632 -0.00902143 -0.00902143
-0.00702041 -0.00983529 -0.00983529
-0.00496979 -0.00863037 -0.00863037
-0.00624733 -0.00782509 -0.00782509
-0.00663445 -0.00880167 -0.00880167
-0.00878811 -0.0100542 -0.0100542
-0.00974797 -0.0122904 -0.0122904
-0.00583699 -0.0119041 -0.0119041
-0.00525976 -0.00966482 -0.00966482
-0.00926866 -0.0111439 -0.0111439
-0.00778905 -0.0120731 -0.0120731
-0.00554881 -0.0107561 -0.0107561
-0.00702041 -0.00983529 -0.00983529
-0.00740526 -0.0109258 -0.0109258
-0.00974797 -0.0122904 -0.0122904
-0.0107029 -0.0147532 -0.0147532
-0.00641094 -0.0143697 -0.0143697
-0.00583699 -0.0119041 -0.0119041
-0.010226 -0.0134935 -0.0134935
-0.00855351 -0.0145374 -0.0145374
-0.00612436 -0.0131087 -0.0131087
-0.00778905 -0.0120731 -0.0120731
-0.00817179 -0.013277 -0.013277
-0.0107029 -0.0147532 -0.0147532
-0.0116529 -0.0174412 -0.0174412
-0.0069818 -0.0170605 -0.0170605
-0.00641094 -0.0143697 -0.0143697
-0.0111785 -0.0160691 -0.0160691
-0.00931396 -0.0172269 -0.0172269
-0.00669674 -0.0156871 -0.0156871
-0.00855351 -0.0145374 -0.0145374
-0.00893423 -0.0158541 -0.0158541
-0.0116529 -0.0174412 -0.0174412
-0.012598 -0.0203534 -0.0203534
-0.00754972 -0.0199752 -0.0199752
-0.0069818 -0.0170605 -0.0170605
-0.0121261 -0.0188694 -0.0188694
-0.0100705 -0.0201405 -0.0201405
-0.00726612 -0.01849 -0.01849
-0.00931396 -0.0172269 -0.0172269
-0.00969271 -0.0186558 -0.0186558
-0.012598 -0.0203534 -0.0203534
-0.0135383 -0.0234883 -0.0234883
-0.00811479 -0.0231128 -0.0231128
-0.00754972 -0.0199752 -0.0199752
-0.0130688 -0.021893 -0.021893
-0.0108232 -0.0232768 -0.0232768
-0.00783261 -0.0215162 -0.0215162
-0.0100705 -0.0201405 -0.0201405
-0.0104473 -0.0216809 -0.0216809
-0.0135383 -0.0234883 -0.0234883
-0.0144738 -0.0268448 -0.0268448
-0.00867704 -0.0264718 -0.0264718
-0.00811479 -0.0231128 -0.0231128
-0.0140066 -0.0251389 -0.0251389
-0.011572 -0.0266347 -0.0266347
-0.00839626 -0.0247647 -0.0247647
-0.0108232 -0.0232768 -0.0232768
-0.0111981 -0.0249281 -0.0249281
-0.0144738 -0.0268448 -0.0268448
-0.0154044 -0.0304216 -0.0304216
-0.00923651 -0.0300513 -0.0300513
-0.00867704 -0.0264718 -0.0264718
-0.0149397 -0.0286057 -0.0286057
-0.0123171 -0.030213 -0.030213
-0.00895712 -0.0282341 -0.0282341
-0.011572 -0.0266347 -0.0266347
-0.011945 -0.0283964 -0.0283964
-0.0154044 -0.0304216 -0.0304216
-0.0163302 -0.0342176 -0.0342176
-0.00979322 -0.0338498 -0.0338498
-0.00923651 -0.0300513 -0.0300513
-0.0158679 -0.0322923 -0.0322923
-0.0130583 -0.0340104 -0.0340104
-0.00951521 -0.0319232 -0.0319232
-0.0123171 -0.030213 -0.030213
-0.0126882 -0.0320844 -0.0320844
-0.0163302 -0.0342176 -0.0342176
-0.0172513 -0.0382314 -0.0382314
-0.0103472 -0.0378664 -0.0378664
-0.00979322 -0.0338498 -0.0338498
-0.0167914 -0.0361973 -0.0361973
-0.0137959 -0.0380257 -0.0380257
-0.0100706 -0.0358309 -0.0358309
-0.0130583 -0.0340104 -0.0340104
-0.0134276 -0.0359909 -0.0359909
-0.0172513 -0.0382314 -0.0382314
-0.0181676 -0.042462 -0.042462
-0.0108985 -0.0420996 -0.0420996
-0.0103472 -0.0378664 -0.0378664
-0.01771 -0.0403197 -0.0403197
-0.0145296 -0.0422577 -0.0422577
-0.0106232 -0.039956 -0.039956
-0.0137959 -0.0380257 -0.0380257
-0.0141632 -0.0401147 -0.0401147
-0.0181676 -0.042462 -0.042462
-0.0190791 -0.0469081 -0.0469081
-0.011447 -0.0465484 -0.0465484
-0.0108985 -0.0420996 -0.0420996
-0.018624 -0.0446582 -0.0446582
-0.0152597 -0.0467053 -0.0467053
-0.0111731 -0.0442971 -0.0442971
-0.0145296 -0.0422577 -0.0422577
-0.0148951 -0.0444547 -0.0444547
-0.0190791 -0.0469081 -0.0469081
-0.019986 -0.0515684 -0.0515684
-0.0119929 -0.0512114 -0.0512114
-0.011447 -0.0465484 -0.0465484
-0.0195331 -0.0492115 -0.0492115
-0.015986 -0.0513671 -0.0513671
-0.0117203 -0.0488532 -0.0488532
-0.0152597 -0.0467053 -0.0467053
-0.0156233 -0.0490095 -0.0490095
-0.019986 -0.0515684 -0.0515684
-0.0208881 -0.0564418 -0.0564418
-0.0125361 -0.0560876 -0.0560876
-0.0119929 -0.0512114 -0.0512114
-0.0204376 -0.0539786 -0.0539786
-0.0167087 -0.056242 -0.056242
-0.0122648 -0.053623 -0.053623
-0.015986 -0.0513671 -0.0513671
-0.0163478 -0.053778 -0.053778
-0.0208881 -0.0564418 -0.0564418
-0.0217855 -0.0615271 -0.0615271
-0.0130766 -0.0611757 -0.0611757
-0.0125361 -0.0560876 -0.0560876
-0.0213373 -0.0589581 -0.0589581
-0.0174276 -0.0613288 -0.0613288
-0.0128067 -0.0586052 -0.0586052
-0.0167087 -0.056242 -0.056242
-0.0170686 -0.058759 -0.058759
-0.0217855 -0.0615271 -0.0615271
-0.0226782 -0.066823 -0.066823
-0.0136145 -0.0664744 -0.0664744
-0.0130766 -0.0611757 -0.0611757
-0.0222324 -0.0641488 -0.0641488
-0.018143 -0.0666263 -0.0666263
-0.0133459 -0.0637988 -0.0637988
-0.0174276 -0.0613288 -0.0613288
-0.0177858 -0.0639513 -0.0639513
-0.0226782 -0.066823 -0.066823
-0.0235662 -0.0723284 -0.0723284
-0.0141498 -0.0719826 -0.0719826
-0.0136145 -0.0664744 -0.0664744
-0.0231228 -0.0695496 -0.0695496
-0.0188546 -0.0721332 -0.0721332
-0.0138825 -0.0692024 -0.0692024
-0.018143 -0.0666263 -0.0666263
-0.0184992 -0.0693536 -0.0693536
-0.0235662 -0.0723284 -0.0723284
-0.0244496 -0.078042 -0.078042
-0.0146825 -0.077699 -0.077699
-0.0141498 -0.0719826 -0.0719826
-0.0240085 -0.0751592 -0.0751592
-0.0195626 -0.0778483 -0.0778483
-0.0144165 -0.0748148 -0.0748148
-0.0188546 -0.0721332 -0.0721332
-0.0192091 -0.0749648 -0.0749648
-0.0244496 -0.078042 -0.078042
-0.0253283 -0.0839626 -0.0839626
-0.0152126 -0.0836225 -0.0836225
-0.0146825 -0.077699 -0.077699
-0.0248896 -0.0809765 -0.0809765
-0.0202671 -0.0837705 -0.0837705
-0.0149479 -0.080635 -0.080635
-0.0195626 -0.0778483 -0.0778483
-0.0199153 -0.0807836 -0.0807836
-0.0253283 -0.0839626 -0.0839626
-0.0262025 -0.090089 -0.090089
-0.0157401 -0.0897518 -0.0897518
-0.0152126 -0.0836225 -0.0836225
-0.025766 -0.0870001 -0.0870001
-0.0209679 -0.0898985 -0.0898985
-0.0154766 -0.0866615 -0.0866615
-0.0202671 -0.0837705 -0.0837705
-0.0206179 -0.0868089 -0.0868089
-0.0262025 -0.090089 -0.090089
-0.027072 -0.09642 -0.09642
-0.016265 -0.0960858 -0.0960858
-0.0157401 -0.0897518 -0.0897518
-0.0266378 -0.093229 -0.093229
-0.0216651 -0.0962311 -0.0962311
-0.0160028 -0.0928933 -0.0928933
-0.0209679 -0.0898985 -0.0898985
-0.0213169 -0.0930393 -0.0930393
-0.027072 -0.09642 -0.09642
-0.0279369 -0.102954 -0.102954
-0.0167874 -0.102623 -0.102623
-0.016265 -0.0960858 -0.0960858
-0.027505 -0.0996619 -0.0996619
-0.0223587 -0.102767 -0.102767
-0.0165265 -0.0993291 -0.0993291
-0.0216651 -0.0962311 -0.0962311
-0.0220123 -0.0994738 -0.0994738
-0.0279369 -0.102954 -0.102954
-0.0287972 -0.109691 -0.109691
-0.0173072 -0.109363 -0.109363
-0.0167874 -0.102623 -0.102623
-0.0283676 -0.106298 -0.106298
-0.0230488 -0.109505 -0.109505
-0.0170476 -0.105968 -0.105968
-0.0223587 -0.102767 -0.102767
-0.0227042 -0.106111 -0.106111
-0.0287972 -0.109691 -0.109691
-0.0296529 -0.116629 -0.116629
-0.0178245 -0.116303 -0.116303
-0.0173072 -0.109363 -0.109363
-0.0292256 -0.113135 -0.113135
-0.0237353 -0.116445 -0.116445
-0.0175661 -0.112808 -0.112808
-0.0230488 -0.109505 -0.109505
-0.0233925 -0.11295 -0.11295
-0.0296529 -0.116629 -0.116629
-0.0305041 -0.123766 -0.123766
-0.0183393 -0.123444 -0.123444
-0.0178245 -0.116303 -0.116303
-0.0300791 -0.120172 -0.120172
-0.0244183 -0.123584 -0.123584
-0.0180822 -0.119849 -0.119849
-0.0237353 -0.116445 -0.116445
-0.0240772 -0.119989 -0.119989
-0.0305041 -0.123766 -0.123766
-0.0313507 -0.131102 -0.131102
-0.0188515 -0.130783 -0.130783
-0.0183393 -0.123444 -0.123444
-0.030928 -0.127409 -0.127409
-0.0250977 -0.130921 -0.130921
-0.0185957 -0.127088 -0.127088
-0.0244183 -0.123584 -0.123584
-0.0247584 -0.127228 -0.127228
-0.0313507 -0.131102 -0.131102
-0.0321928 -0.138635 -0.138635
-0.0193613 -0.138319 -0.138319
-0.0188515 -0.130783 -0.130783
-0.0317723 -0.134844 -0.134844
-0.0257736 -0.138456 -0.138456
-0.0191067 -0.134526 -0.134526
-0.0250977 -0.130921 -0.130921
-0.0254361 -0.134664 -0.134664
-0.0321928 -0.138635 -0.138635
-0.0330304 -0.146364 -0.146364
-0.0198686 -0.146051 -0.146051
-0.0193613 -0.138319 -0.138319
-0.0326122 -0.142475 -0.142475
-0.0264461 -0.146187 -0.146187
-0.0196153 -0.142161 -0.142161
-0.0257736 -0.138456 -0.138456
-0.0261103 -0.142297 -0.142297
-0.0330304 -0.146364 -0.146364
-0.0338634 -0.154289 -0.154289
-0.0203734 -0.153979 -0.153979
-0.0198686 -0.146051 -0.146051
-0.0334475 -0.150302 -0.150302
-0.027115 -0.154113 -0.154113
-0.0201213 -0.149991 -0.149991
-0.0264461 -0.146187 -0.146187
-0.026781 -0.150126 -0.150126
-0.0338634 -0.154289 -0.154289
-0.034692 -0.162407 -0.162407
-0.0208758 -0.1621 -0.1621
-0.0203734 -0.153979 -0.153979
-0.0342783 -0.158324 -0.158324
-0.0277805 -0.162233 -0.162233
-0.0206249 -0.158015 -0.158015
-0.027115 -0.154113 -0.154113
-0.0274482 -0.158149 -0.158149
-0.034692 -0.162407 -0.162407
-0.035516 -0.170717 -0.170717
-0.0213757 -0.170413 -0.170413
-0.0208758 -0.1621 -0.1621
-0.0351046 -0.166538 -0.166538
-0.0284425 -0.170545 -0.170545
-0.0211261 -0.166232 -0.166232
-0.0277805 -0.162233 -0.162233
-0.0281119 -0.166365 -0.166365
-0.035516 -0.170717 -0.170717
-0.0363356 -0.179219 -0.179219
-0.0218732 -0.178918 -0.178918
-0.0213757 -0.170413 -0.170413
-0.0359264 -0.174944 -0.174944
-0.029101 -0.179048 -0.179048
-0.0216248 -0.174642 -0.174642
-0.0284425 -0.170545 -0.170545
-0.0287722 -0.174773 -0.174773
-0.0363356 -0.179219 -0.179219
-0.0371507 -0.187911 -0.187911
-0.0223683 -0.187613 -0.187613
-0.0218732 -0.178918 -0.178918
-0.0367437 -0.183541 -0.183541
-0.0297561 -0.187742 -0.187742
-0.0221211 -0.183242 -0.183242
-0.029101 -0.179048 -0.179048
-0.029429 -0.183371 -0.183371
-0.0371507 -0.187911 -0.187911
-0.0379613 -0.196792 -0.196792
-0.0228609 -0.196497 -0.196497
-0.0223683 -0.187613 -0.187613
-0.0375566 -0.192328 -0.192328
-0.0304077 -0.196624 -0.196624
-0.0226149 -0.192032 -0.192032
-0.0297561 -0.187742 -0.187742
-0.0300823 -0.19216 -0.19216
-0.0379613 -0.196792 -0.196792
-0.0387675 -0.20586 -0.20586
-0.0233512 -0.205569 -0.205569
-0.0228609 -0.196497 -0.196497
-0.038365 -0.201302 -0.201302
-0.0310559 -0.205694 -0.205694
-0.0231064 -0.20101 -0.20101
-0.0304077 -0.196624 -0.196624
-0.0307322 -0.201136 -0.201136
-0.0387675 -0.20586 -0.20586
-0.0395692 -0.215115 -0.215115
-0.023839 -0.214827 -0.214827
-0.0233512 -0.205569 -0.205569
-0.0391689 -0.210464 -0.210464
-0.0317007 -0.214951 -0.214951
-0.0235954 -0.210175 -0.210175
-0.0310559 -0.205694 -0.205694
-0.0313787 -0.210299 -0.210299
-0.0395692 -0.215115 -0.215115
-0.0403666 -0.224555 -0.224555
-0.0243245 -0.22427 -0.22427
-0.023839 -0.214827 -0.214827
-0.0399685 -0.219812 -0.219812
-0.0323421 -0.224393 -0.224393
-0.024082 -0.219525 -0.219525
-0.0317007 -0.214951 -0.214951
-0.0320218 -0.219649 -0.219649
-0.0403666 -0.224555 -0.224555
-0.0411594 -0.234179 -0.234179
-0.0248075 -0.233898 -0.233898
-0.0243245 -0.22427 -0.22427
-0.0407635 -0.229344 -0.229344
-0.0329801 -0.234019 -0.234019
-0.0245663 -0.229061 -0.229061
-0.0323421 -0.224393 -0.224393
-0.0326615 -0.229183 -0.229183
-0.0411594 -0.234179 -0.234179
-0.0419479 -0.243986 -0.243986
-0.0252882 -0.243708 -0.243708
-0.0248075 -0.233898 -0.233898
-0.0415542 -0.23906 -0.23906
-0.0336146 -0.243827 -0.243827
-0.0250482 -0.23878 -0.23878
-0.0329801 -0.234019 -0.234019
-0.0332978 -0.2389 -0.2389
-0.0419479 -0.243986 -0.243986
-0.042732 -0.253975 -0.253975
-0.0257666 -0.2537 -0.2537
-0.0252882 -0.243708 -0.243708
-0.0423405 -0.248958 -0.248958
-0.0342458 -0.253818 -0.253818
-0.0255277 -0.248681 -0.248681
-0.0336146 -0.243827 -0.243827
-0.0339307 -0.2488 -0.2488
-0.042732 -0.253975 -0.253975
-0.0435116 -0.264143 -0.264143
-0.0262426 -0.263872 -0.263872
-0.0257666 -0.2537 -0.2537
-0.0431223 -0.259037 -0.259037
-0.0348737 -0.263988 -0.263988
-0.0260049 -0.258763 -0.258763
-0.0342458 -0.253818 -0.253818
-0.0345602 -0.258881 -0.258881
-0.0435116 -0.264143 -0.264143
-0.0442869 -0.274492 -0.274492
-0.0267162 -0.274223 -0.274223
-0.0262426 -0.263872 -0.263872
-0.0438998 -0.269295 -0.269295
-0.0354981 -0.274338 -0.274338
-0.0264797 -0.269025 -0.269025
-0.0348737 -0.263988 -0.263988
-0.0351863 -0.269141 -0.269141
-0.0442869 -0.274492 -0.274492
-0.0450578 -0.285018 -0.285018
-0.0271875 -0.284753 -0.284753
-0.0267162 -0.274223 -0.274223
-0.0446729 -0.279733 -0.279733
-0.0361192 -0.284866 -0.284866
-0.0269522 -0.279466 -0.279466
-0.0354981 -0.274338 -0.274338
-0.0358091 -0.27958 -0.27958
-0.0450578 -0.285018 -0.285018
-0.0458243 -0.295721 -0.295721
-0.0276565 -0.295459 -0.295459
-0.0271875 -0.284753 -0.284753
-0.0454416 -0.290347 -0.290347
-0.0367369 -0.295571 -0.295571
-0.0274223 -0.290084 -0.290084
-0.0361192 -0.284866 -0.284866
-0.0364285 -0.290197 -0.290197
-0.0458243 -0.295721 -0.295721
-0.0465864 -0.306599 -0.306599
-0.0281231 -0.306341 -0.306341
-0.0276565 -0.295459 -0.295459
-0.0462059 -0.301138 -0.301138
-0.0373513 -0.306451 -0.306451
-0.0278901 -0.300878 -0.300878
-0.0367369 -0.295571 -0.295571
-0.0370446 -0.300989 -0.300989
-0.0465864 -0.306599 -0.306599
-0.0473442 -0.317652 -0.317652
-0.0285875 -0.317397 -0.317397
-0.0281231 -0.306341 -0.306341
-0.0469658 -0.312104 -0.312104
-0.0379624 -0.317506 -0.317506
-0.0283556 -0.311847 -0.311847
-0.0373513 -0.306451 -0.306451
-0.0376573 -0.311957 -0.311957
-0.0473442 -0.317652 -0.317652
-0.0480976 -0.328878 -0.328878
-0.0290495 -0.328626 -0.328626
-0.0285875 -0.317397 -0.317397
-0.0477214 -0.323243 -0.323243
-0.0385701 -0.328734 -0.328734
-0.0288188 -0.32299 -0.32299
-0.0379624 -0.317506 -0.317506
-0.0382667 -0.323098 -0.323098
-0.0480976 -0.328878 -0.328878
-0.0488467 -0.340276 -0.340276
-0.0295092 -0.340028 -0.340028
-0.0290495 -0.328626 -0.328626
-0.0484727 -0.334556 -0.334556
-0.0391745 -0.340133 -0.340133
-0.0292796 -0.334305 -0.334305
-0.0385701 -0.328734 -0.328734
-0.0388727 -0.334412 -0.334412
-0.0488467 -0.340276 -0.340276
-0.0495914 -0.351845 -0.351845
-0.0299666 -0.3516 -0.3516
-0.0295092 -0.340028 -0.340028
-0.0492196 -0.346039 -0.346039
-0.0397756 -0.351704 -0.351704
-0.0297382 -0.345792 -0.345792
-0.0391745 -0.340133 -0.340133
-0.0394754 -0.345897 -0.345897
-0.0495914 -0.351845 -0.351845
-0.0503318 -0.363583 -0.363583
-0.0304217 -0.363341 -0.363341
-0.0299666 -0.3516 -0.3516
-0.0499621 -0.357692 -0.357692
-0.0403733 -0.363444 -0.363444
-0.0301945 -0.357449 -0.357449
-0.0397756 -0.351704 -0.351704
-0.0400749 -0.357553 -0.357553
-0.0503318 -0.363583 -0.363583
-0.0510678 -0.375489 -0.375489
-0.0308746 -0.375251 -0.375251
-0.0304217 -0.363341 -0.363341
-0.0507004 -0.369515 -0.369515
-0.0409678 -0.375352 -0.375352
-0.0306484 -0.369275 -0.369275
-0.0403733 -0.363444 -0.363444
-0.040671 -0.369377 -0.369377
-0.0510678 -0.375489 -0.375489
-0.0517996 -0.387563 -0.387563
-0.0313251 -0.387328 -0.387328
-0.0308746 -0.375251 -0.375251
-0.0514342 -0.381505 -0.381505
-0.0415589 -0.387428 -0.387428
-0.0311001 -0.381269 -0.381269
-0.0409678 -0.375352 -0.375352
-0.0412638 -0.381369 -0.381369
-0.0517996 -0.387563 -0.387563
-0.052527 -0.399802 -0.399802
-0.0317734 -0.399571 -0.399571
-0.0313251 -0.387328 -0.387328
-0.0521638 -0.393662 -0.393662
-0.0421468 -0.399669 -0.399669
-0.0315496 -0.393429 -0.393429
-0.0415589 -0.387428 -0.387428
-0.0418532 -0.393527 -0.393527
-0.052527 -0.399802 -0.399802
-0.0532501 -0.412206 -0.412206
-0.0322194 -0.411978 -0.411978
-0.0317734 -0.399571 -0.399571
-0.0528891 -0.405984 -0.405984
-0.0427313 -0.412075 -0.412075
-0.0319967 -0.405754 -0.405754
-0.0421468 -0.399669 -0.399669
-0.0424394 -0.405851 -0.405851
-0.0532501 -0.412206 -0.412206
-0.0539689 -0.424774 -0.424774
-0.0326632 -0.424549 -0.424549
-0.0322194 -0.411978 -0.411978
-0.05361 -0.41847 -0.41847
-0.0433126 -0.424644 -0.424644
-0.0324416 -0.418243 -0.418243
-0.0427313 -0.412075 -0.412075
-0.0430224 -0.418339 -0.418339
-0.0539689 -0.424774 -0.424774
-0.0546833 -0.437504 -0.437504
-0.0331047 -0.437282 -0.437282
-0.0326632 -0.424549 -0.424549
-0.0543266 -0.431118 -0.431118
-0.0438906 -0.437376 -0.437376
-0.0328842 -0.430896 -0.430896
-0.0433126 -0.424644 -0.424644
-0.043602 -0.43099 -0.43099
-0.0546833 -0.437504 -0.437504
-0.0553935 -0.450394 -0.450394
-0.0335439 -0.450177 -0.450177
-0.0331047 -0.437282 -0.437282
-0.055039 -0.443929 -0.443929
-0.0444653 -0.450268 -0.450268
-0.0333246 -0.44371 -0.44371
-0.0438906 -0.437376 -0.437376
-0.0441783 -0.443802 -0.443802
-0.0553935 -0.450394 -0.450394
-0.0560994 -0.463445 -0.463445
-0.0339809 -0.463231 -0.463231
-0.0335439 -0.450177 -0.450177
-0.055747 -0.4569 -0.4569
-0.0450367 -0.463321 -0.463321
-0.0337627 -0.456684 -0.456684
-0.0444653 -0.450268 -0.450268
-0.0447514 -0.456775 -0.456775
-0.0560994 -0.463445 -0.463445
-0.056801 -0.476654 -0.476654
-0.0344156 -0.476444 -0.476444
-0.0339809 -0.463231 -0.463231
-0.0564507 -0.47003 -0.47003
-0.0456048 -0.476532 -0.476532
-0.0341985 -0.469817 -0.469817
-0.0450367 -0.463321 -0.463321
-0.0453212 -0.469907 -0.469907
-0.056801 -0.476654 -0.476654
-0.0574982 -0.490021 -0.490021
-0.0348481 -0.489814 -0.489814
-0.0344156 -0.476444 -0.476444
-0.0571501 -0.483318 -0.483318
-0.0461697 -0.489901 -0.489901
-0.0346321 -0.483109 -0.483109
-0.0456048 -0.476532 -0.476532
-0.0458877 -0.483197 -0.483197
-0.0574982 -0.490021 -0.490021
-0.0581912 -0.503544 -0.503544
-0.0352783 -0.50334 -0.50334
-0.0348481 -0.489814 -0.489814
-0.0578453 -0.496763 -0.496763
-0.0467313 -0.503426 -0.503426
-0.0350635 -0.496558 -0.496558
-0.0461697 -0.489901 -0.489901
-0.0464509 -0.496644 -0.496644
-0.0581912 -0.503544 -0.503544
-0.05888 -0.517222 -0.517222
-0.0357063 -0.517022 -0.517022
-0.0352783 -0.50334 -0.50334
-0.0585361 -0.510364 -0.510364
-0.0472897 -0.517105 -0.517105
-0.0354926 -0.510162 -0.510162
-0.0467313 -0.503426 -0.503426
-0.0470109 -0.510246 -0.510246
-0.05888 -0.517222 -0.517222
-0.0595644 -0.531054 -0.531054
-0.0361321 -0.530857 -0.530857
-0.0357063 -0.517022 -0.517022
-0.0592227 -0.524119 -0.524119
-0.0478448 -0.530939 -0.530939
-0.0359195 -0.52392 -0.52392
-0.0472897 -0.517105 -0.517105
-0.0475676 -0.524003 -0.524003
-0.0595644 -0.531054 -0.531054
-0.0602445 -0.545038 -0.545038
-0.0365556 -0.544844 -0.544844
-0.0361321 -0.530857 -0.530857
-0.059905 -0.538027 -0.538027
-0.0483966 -0.544925 -0.544925
-0.0363441 -0.537832 -0.537832
-0.0478448 -0.530939 -0.530939
-0.0481211 -0.537913 -0.537913
-0.0602445 -0.545038 -0.545038
-0.0609204 -0.559174 -0.559174
-0.0369769 -0.558984 -0.558984
-0.0365556 -0.544844 -0.544844
-0.060583 -0.552087 -0.552087
-0.0489452 -0.559063 -0.559063
-0.0367665 -0.551895 -0.551895
-0.0483966 -0.544925 -0.544925
-0.0486713 -0.551975 -0.551975
-0.0609204 -0.559174 -0.559174
-0.061592 -0.573459 -0.573459
-0.0373959 -0.573273 -0.573273
-0.0369769 -0.558984 -0.558984
-0.0612568 -0.566298 -0.566298
-0.0494905 -0.57335 -0.57335
-0.0371867 -0.56611 -0.56611
-0.0489452 -0.559063 -0.559063
-0.0492183 -0.566188 -0.566188
-0.061592 -0.573459 -0.573459
-0.0622594 -0.587894 -0.587894
-0.0378128 -0.587711 -0.587711
-0.0373959 -0.573273 -0.573273
-0.0619262 -0.580658 -0.580658
-0.0500326 -0.587787 -0.587787
-0.0376046 -0.580473 -0.580473
-0.0494905 -0.57335 -0.57335
-0.049762 -0.58055 -0.58055
-0.0622594 -0.587894 -0.587894
-0.0629224 -0.602476 -0.602476
-0.0382274 -0.602297 -0.602297
-0.0378128 -0.587711 -0.587711
-0.0625914 -0.595167 -0.595167
-0.0505715 -0.602371 -0.602371
-0.0380204 -0.594986 -0.594986
-0.0500326 -0.587787 -0.587787
-0.0503025 -0.595061 -0.595061
-0.0629224 -0.602476 -0.602476
-0.0635812 -0.617205 -0.617205
-0.0386398 -0.617029 -0.617029
-0.0382274 -0.602297 -0.602297
-0.0632523 -0.609823 -0.609823
-0.0511071 -0.617102 -0.617102
-0.0384339 -0.609645 -0.609645
-0.0505715 -0.602371 -0.602371
-0.0508397 -0.609718 -0.609718
-0.0635812 -0.617205 -0.617205
-0.0642357 -0.63208 -0.63208
-0.03905 -0.631907 -0.631907
-0.0386398 -0.617029 -0.617029
-0.063909 -0.624624 -0.624624
-0.0516394 -0.631978 -0.631978
-0.0388451 -0.62445 -0.62445
-0.0511071 -0.617102 -0.617102
-0.0513736 -0.624522 -0.624522
-0.0642357 -0.63208 -0.63208
-0.064886 -0.647098 -0.647098
-0.0394579 -0.646929 -0.646929
-0.03905 -0.631907 -0.631907
-0.0645614 -0.639571 -0.639571
-0.0521685 -0.646998 -0.646998
-0.0392542 -0.6394 -0.6394
-0.0516394 -0.631978 -0.631978
-0.0519044 -0.63947 -0.63947
-0.064886 -0.647098 -0.647098
-0.065532 -0.662259 -0.662259
-0.0398636 -0.662094 -0.662094
-0.0394579 -0.646929 -0.646929
-0.0652095 -0.654661 -0.654661
-0.0526944 -0.662162 -0.662162
-0.039661 -0.654494 -0.654494
-0.0521685 -0.646998 -0.646998
-0.0524318 -0.654562 -0.654562
-0.065532 -0.662259 -0.662259
-0.0661737 -0.677562 -0.677562
-0.0402671 -0.6774 -0.6774
-0.0398636 -0.662094 -0.662094
-0.0658534 -0.669893 -0.669893
-0.053217 -0.677466 -0.677466
-0.0400657 -0.66973 -0.66973
-0.0526944 -0.662162 -0.662162
-0.0529561 -0.669796 -0.669796
-0.0661737 -0.677562 -0.677562
-0.0668112 -0.693006 -0.693006
-0.0406684 -0.692847 -0.692847
-0.0402671 -0.6774 -0.6774
-0.066493 -0.685267 -0.685267
-0.0537363 -0.692912 -0.692912
-0.0404681 -0.685106 -0.685106
-0.053217 -0.677466 -0.677466
-0.0534771 -0.685172 -0.685172
-0.0668112 -0.693006 -0.693006
-0.0674444 -0.708588 -0.708588
-0.0410675 -0.708434 -0.708434
-0.0406684 -0.692847 -0.692847
-0.0671283 -0.70078 -0.70078
-0.0542525 -0.708496 -0.708496
-0.0408682 -0.700623 -0.700623
-0.0537363 -0.692912 -0.692912
-0.0539948 -0.700687 -0.700687
-0.0674444 -0.708588 -0.708588
-0.0680733 -0.724309 -0.724309
-0.0414643 -0.724158 -0.724158
-0.0410675 -0.708434 -0.708434
-0.0677594 -0.716432 -0.716432
-0.0547654 -0.724219 -0.724219
-0.0412662 -0.716278 -0.716278
-0.0542525 -0.708496 -0.708496
-0.0545093 -0.71634 -0.71634
-0.0680733 -0.724309 -0.724309
-0.068698 -0.740167 -0.740167
-0.041859 -0.740019 -0.740019
-0.0414643 -0.724158 -0.724158
-0.0683862 -0.732221 -0.732221
-0.055275 -0.740078 -0.740078
-0.0416619 -0.732071 -0.732071
-0.0547654 -0.724219 -0.724219
-0.0550206 -0.732132 -0.732132
-0.068698 -0.740167 -0.740167
-0.0693184 -0.75616 -0.75616
-0.0422514 -0.756016 -0.756016
-0.041859 -0.740019 -0.740019
-0.0690087 -0.748146 -0.748146
-0.0557814 -0.756073 -0.756073
-0.0420554 -0.748 -0.748
-0.055275 -0.740078 -0.740078
-0.0555286 -0.748059 -0.748059
-0.0693184 -0.75616 -0.75616
-0.0699345 -0.772288 -0.772288
-0.0426416 -0.772147 -0.772147
-0.0422514 -0.756016 -0.756016
-0.069627 -0.764207 -0.764207
-0.0562846 -0.772203 -0.772203
-0.0424468 -0.764064 -0.764064
-0.0557814 -0.756073 -0.756073
-0.0560334 -0.764121 -0.764121
-0.0699345 -0.772288 -0.772288
-0.0705464 -0.788548 -0.788548
-0.0430295 -0.788411 -0.788411
-0.0426416 -0.772147 -0.772147
-0.070241 -0.780401 -0.780401
-0.0567845 -0.788466 -0.788466
-0.0428358 -0.780262 -0.780262
-0.0562846 -0.772203 -0.772203
-0.056535 -0.780318 -0.780318
-0.0705464 -0.788548 -0.788548
-0.071154 -0.804941 -0.804941
-0.0434153 -0.804807 -0.804807
-0.0430295 -0.788411 -0.788411
-0.0708507 -0.796728 -0.796728
-0.0572812 -0.80486 -0.80486
-0.0432227 -0.796593 -0.796593
-0.0567845 -0.788466 -0.788466
-0.0570333 -0.796647 -0.796647
-0.071154 -0.804941 -0.804941
-0.0717574 -0.821465 -0.821465
-0.0437988 -0.821334 -0.821334
-0.0434153 -0.804807 -0.804807
-0.0714562 -0.813187 -0.813187
-0.0577746 -0.821386 -0.821386
-0.0436073 -0.813055 -0.813055
-0.0572812 -0.80486 -0.80486
-0.0575283 -0.813107 -0.813107
-0.0717574 -0.821465 -0.821465
-0.0723564 -0.838118 -0.838118
-0.0441801 -0.837991 -0.837991
-0.0437988 -0.821334 -0.821334
-0.0720574 -0.829775 -0.829775
-0.0582648 -0.838041 -0.838041
-0.0439898 -0.829647 -0.829647
-0.0577746 -0.821386 -0.821386
-0.0580201 -0.829697 -0.829697
-0.0723564 -0.838118 -0.838118
-0.0729512 -0.8549 -0.8549
-0.0445592 -0.854776 -0.854776
-0.0441801 -0.837991 -0.837991
-0.0726544 -0.846493 -0.846493
-0.0587518 -0.854824 -0.854824
-0.04437 -0.846368 -0.846368
-0.0582648 -0.838041 -0.838041
-0.0585087 -0.846417 -0.846417
-0.0729512 -0.8549 -0.8549
-0.0735418 -0.871808 -0.871808
-0.0449361 -0.871688 -0.871688
-0.0445592 -0.854776 -0.854776
-0.073247 -0.863338 -0.863338
-0.0592355 -0.871735 -0.871735
-0.0447479 -0.863216 -0.863216
-0.0587518 -0.854824 -0.854824
-0.058994 -0.863264 -0.863264
-0.0735418 -0.871808 -0.871808
-0.074128 -0.888843 -0.888843
-0.0453107 -0.888727 -0.888727
-0.0449361 -0.871688 -0.871688
-0.0738354 -0.88031 -0.88031
-0.0597159 -0.888771 -0.888771
-0.0451237 -0.880192 -0.880192
-0.0592355 -0.871735 -0.871735
-0.0594761 -0.880238 -0.880238
-0.074128 -0.888843 -0.888843
-0.07471 -0.906002 -0.906002
-0.0456831 -0.905889 -0.905889
-0.0453107 -0.888727 -0.888727
-0.0744196 -0.897407 -0.897407
-0.0601931 -0.905933 -0.905933
-0.0454972 -0.897292 -0.897292
-0.0597159 -0.888771 -0.888771
-0.0599549 -0.897337 -0.897337
-0.07471 -0.906002 -0.906002
-0.0752877 -0.923285 -0.923285
-0.0460533 -0.923176 -0.923176
-0.0456831 -0.905889 -0.905889
-0.0749994 -0.914629 -0.914629
-0.0606671 -0.923218 -0.923218
-0.0458685 -0.914517 -0.914517
-0.0601931 -0.905933 -0.905933
-0.0604305 -0.91456 -0.91456
-0.0752877 -0.923285 -0.923285
-0.0758612 -0.940691 -0.940691
-0.0464212 -0.940585 -0.940585
-0.0460533 -0.923176 -0.923176
-0.075575 -0.931973 -0.931973
-0.0611378 -0.940625 -0.940625
-0.0462375 -0.931865 -0.931865
-0.0606671 -0.923218 -0.923218
-0.0609028 -0.931906 -0.931906
-0.0758612 -0.940691 -0.940691
-0.0764303 -0.958217 -0.958217
-0.0467869 -0.958114 -0.958114
-0.0464212 -0.940585 -0.940585
-0.0761463 -0.949439 -0.949439
-0.0616052 -0.958153 -0.958153
-0.0466044 -0.949334 -0.949334
-0.0611378 -0.940625 -0.940625
-0.0613719 -0.949374 -0.949374
-0.0764303 -0.958217 -0.958217
-0.0769952 -0.975863 -0.975863
-0.0471504 -0.975764 -0.975764
-0.0467869 -0.958114 -0.958114
-0.0767133 -0.967025 -0.967025
-0.0620693 -0.975801 -0.975801
-0.0469689 -0.966924 -0.966924
-0.0616052 -0.958153 -0.958153
-0.0618377 -0.966962 -0.966962
-0.0769952 -0.975863 -0.975863
-0.0775558 -0.993628 -0.993628
-0.0475116 -0.993533 -0.993533
-0.0471504 -0.975764 -0.975764
-0.077276 -0.984731 -0.984731
-0.0625303 -0.993568 -0.993568
-0.0473313 -0.984634 -0.984634
-0.0620693 -0.975801 -0.975801
-0.0623002 -0.98467 -0.98467
-0.0775558 -0.993628 -0.993628
-0.0781121 -1.01151 -1.01151
-0.0478706 -1.01142 -1.01142
-0.0475116 -0.993533 -0.993533
-0.0778345 -1.00255 -1.00255
-0.0629879 -1.01145 -1.01145
-0.0476914 -1.00246 -1.00246
-0.0625303 -0.993568 -0.993568
-0.0627595 -1.0025 -1.0025
-0.0781121 -1.01151 -1.01151
-0.0786641 -1.02951 -1.02951
-0.0482273 -1.02942 -1.02942
-0.0478706 -1.01142 -1.01142
-0.0783886 -1.0205 -1.0205
-0.0634423 -1.02945 -1.02945
-0.0480492 -1.02041 -1.02041
-0.0629879 -1.01145 -1.01145
-0.0632155 -1.02044 -1.02044
-0.0786641 -1.02951 -1.02951
-0.0792118 -1.04762 -1.04762
-0.0485818 -1.04754 -1.04754
-0.0482273 -1.02942 -1.02942
-0.0789385 -1.03855 -1.03855
-0.0638933 -1.04757 -1.04757
-0.0484048 -1.03846 -1.03846
-0.0634423 -1.02945 -1.02945
-0.0636682 -1.0385 -1.0385
-0.0792118 -1.04762 -1.04762
-0.0797552 -1.06585 -1.06585
-0.048934 -1.06577 -1.06577
-0.0485818 -1.04754 -1.04754
-0.079484 -1.05672 -1.05672
-0.0643412 -1.0658 -1.0658
-0.0487582 -1.05664 -1.05664
-0.0638933 -1.04757 -1.04757
-0.0641177 -1.05667 -1.05667
-0.0797552 -1.06585 -1.06585
-0.0802943 -1.08419 -1.08419
-0.049284 -1.08411 -1.08411
-0.048934 -1.06577 -1.06577
-0.0800253 -1.07501 -1.07501
-0.0647857 -1.08414 -1.08414
-0.0491093 -1.07493 -1.07493
-0.0643412 -1.0658 -1.0658
-0.0645638 -1.07495 -1.07495
-0.0802943 -1.08419 -1.08419
-0.0808291 -1.10264 -1.10264
-0.0496317 -1.10257 -1.10257
-0.049284 -1.08411 -1.08411
-0.0805622 -1.0934 -1.0934
-0.0652269 -1.10259 -1.10259
-0.0494581 -1.09333 -1.09333
-0.0647857 -1.08414 -1.08414
-0.0650067 -1.09335 -1.09335
-0.0808291 -1.10264 -1.10264
-0.0813596 -1.1212 -1.1212
-0.0499771 -1.12113 -1.12113
-0.0496317 -1.10257 -1.10257
-0.0810949 -1.11191 -1.11191
-0.0656649 -1.12116 -1.12116
-0.0498047 -1.11184 -1.11184
-0.0652269 -1.10259 -1.10259
-0.0654463 -1.11186 -1.11186
-0.0813596 -1.1212 -1.1212
-0.0818857 -1.13988 -1.13988
-0.0503203 -1.13981 -1.13981
-0.0499771 -1.12113 -1.12113
-0.0816232 -1.13053 -1.13053
-0.0660996 -1.13983 -1.13983
-0.050149 -1.13046 -1.13046
-0.0656649 -1.12116 -1.12116
-0.0658826 -1.13048 -1.13048
-0.0818857 -1.13988 -1.13988
-0.0824076 -1.15865 -1.15865
-0.0506612 -1.15859 -1.15859
-0.0503203 -1.13981 -1.13981
-0.0821472 -1.14925 -1.14925
-0.0665309 -1.15861 -1.15861
-0.050491 -1.14918 -1.14918
-0.0660996 -1.13983 -1.13983
-0.0663157 -1.14921 -1.14921
-0.0824076 -1.15865 -1.15865
-0.0829251 -1.17754 -1.17754
-0.0509998 -1.17748 -1.17748
-0.0506612 -1.15859 -1.15859
-0.0826669 -1.16808 -1.16808
-0.066959 -1.1775 -1.1775
-0.0508308 -1.16802 -1.16802
-0.0665309 -1.15861 -1.15861
-0.0667454 -1.16804 -1.16804
-0.0829251 -1.17754 -1.17754
-0.0834383 -1.19653 -1.19653
-0.0513361 -1.19647 -1.19647
-0.0509998 -1.17748 -1.17748
-0.0831822 -1.18702 -1.18702
-0.0673838 -1.19649 -1.19649
-0.0511683 -1.18696 -1.18696
-0.066959 -1.1775 -1.1775
-0.0671718 -1.18698 -1.18698
-0.0834383 -1.19653 -1.19653
-0.0839472 -1.21562 -1.21562
-0.0516702 -1.21557 -1.21557
-0.0513361 -1.19647 -1.19647
-0.0836933 -1.20606 -1.20606
-0.0678052 -1.21559 -1.21559
-0.0515034 -1.20601 -1.20601
-0.0673838 -1.19649 -1.19649
-0.0675949 -1.20602 -1.20602
-0.0839472 -1.21562 -1.21562
-0.0844517 -1.23482 -1.23482
-0.0520019 -1.23477 -1.23477
-0.0516702 -1.21557 -1.21557
-0.0842 -1.22521 -1.22521
-0.0682234 -1.23479 -1.23479
-0.0518363 -1.22516 -1.22516
-0.0678052 -1.21559 -1.21559
-0.0680147 -1.22517 -1.22517
-0.0844517 -1.23482 -1.23482
-0.0849519 -1.25412 -1.25412
-0.0523314 -1.25407 -1.25407
-0.0520019 -1.23477 -1.23477
-0.0847023 -1.24446 -1.24446
-0.0686382 -1.25409 -1.25409
-0.0521669 -1.24441 -1.24441
-0.0682234 -1.23479 -1.23479
-0.0684312 -1.24442 -1.24442
-0.0849519 -1.25412 -1.25412
-0.0854477 -1.27352 -1.27352
-0.0526585 -1.27348 -1.27348
-0.0523314 -1.25407 -1.25407
-0.0852003 -1.26381 -1.26381
-0.0690497 -1.27349 -1.27349
-0.0524952 -1.26376 -1.26376
-0.0686382 -1.25409 -1.25409
-0.0688444 -1.26378 -1.26378
-0.0854477 -1.27352 -1.27352
-0.0859392 -1.29302 -1.29302
-0.0529834 -1.29298 -1.29298
-0.0526585 -1.27348 -1.27348
-0.085694 -1.28326 -1.28326
-0.0694579 -1.29299 -1.29299
-0.0528212 -1.28322 -1.28322
-0.0690497 -1.27349 -1.27349
-0.0692542 -1.28323 -1.28323
-0.0859392 -1.29302 -1.29302
-0.0864263 -1.31262 -1.31262
-0.0533059 -1.31258 -1.31258
-0.0529834 -1.29298 -1.29298
-0.0861833 -1.30281 -1.30281
-0.0698627 -1.31259 -1.31259
-0.0531449 -1.30277 -1.30277
-0.0694579 -1.29299 -1.29299
-0.0696607 -1.30278 -1.30278
-0.0864263 -1.31262 -1.31262
-0.0869091 -1.33231 -1.33231
-0.0536261 -1.33228 -1.33228
-0.0533059 -1.31258 -1.31258
-0.0866682 -1.32245 -1.32245
-0.0702642 -1.33229 -1.33229
-0.0534663 -1.32242 -1.32242
-0.0698627 -1.31259 -1.31259
-0.0700638 -1.32243 -1.32243
-0.0869091 -1.33231 -1.33231
-0.0873875 -1.3521 -1.3521
-0.053944 -1.35207 -1.35207
-0.0536261 -1.33228 -1.33228
-0.0871488 -1.3422 -1.3422
-0.0706623 -1.35208 -1.35208
-0.0537854 -1.34216 -1.34216
-0.0702642 -1.33229 -1.33229
-0.0704637 -1.34217 -1.34217
-0.0873875 -1.3521 -1.3521
-0.0878615 -1.37199 -1.37199
-0.0542596 -1.37196 -1.37196
-0.053944 -1.35207 -1.35207
-0.087625 -1.36203 -1.36203
-0.0710571 -1.37196 -1.37196
-0.0541021 -1.362 -1.362
-0.0706623 -1.35208 -1.35208
-0.0708601 -1.36201 -1.36201
-0.0878615 -1.37199 -1.37199
-0.0883311 -1.39196 -1.39196
-0.0545728 -1.39194 -1.39194
-0.0542596 -1.37196 -1.37196
-0.0880968 -1.38196 -1.38196
-0.0714485 -1.39194 -1.39194
-0.0544165 -1.38194 -1.38194
-0.0710571 -1.37196 -1.37196
-0.0712532 -1.38194 -1.38194
-0.0883311 -1.39196 -1.39196
-0.0887964 -1.41203 -1.41203
-0.0548837 -1.41201 -1.41201
-0.0545728 -1.39194 -1.39194
-0.0885643 -1.40199 -1.40199
-0.0718366 -1.41201 -1.41201
-0.0547285 -1.40197 -1.40197
-0.0714485 -1.39194 -1.39194
-0.071643 -1.40197 -1.40197
-0.0887964 -1.41203 -1.41203
-0.0892572 -1.4322 -1.4322
-0.0551922 -1.43218 -1.43218
-0.0548837 -1.41201 -1.41201
-0.0890273 -1.4221 -1.4221
-0.0722213 -1.43218 -1.43218
-0.0550382 -1.42208 -1.42208
-0.0718366 -1.41201 -1.41201
-0.0720293 -1.42208 -1.42208
-0.0892572 -1.4322 -1.4322
-0.0897137 -1.45245 -1.45245
-0.0554984 -1.45243 -1.45243
-0.0551922 -1.43218 -1.43218
-0.089486 -1.44231 -1.44231
-0.0726026 -1.45243 -1.45243
-0.0553456 -1.44229 -1.44229
-0.0722213 -1.43218 -1.43218
-0.0724123 -1.44229 -1.44229
-0.0897137 -1.45245 -1.45245
-0.0901657 -1.47278 -1.47278
-0.0558022 -1.47277 -1.47277
-0.0554984 -1.45243 -1.45243
-0.0899402 -1.4626 -1.4626
-0.0729805 -1.47277 -1.47277
-0.0556506 -1.46259 -1.46259
-0.0726026 -1.45243 -1.45243
-0.072792 -1.46259 -1.46259
-0.0901657 -1.47278 -1.47278
-0.0906133 -1.49321 -1.49321
-0.0561036 -1.4932 -1.4932
-0.0558022 -1.47277 -1.47277
-0.0903901 -1.48299 -1.48299
-0.073355 -1.4932 -1.4932
-0.0559532 -1.48298 -1.48298
-0.0729805 -1.47277 -1.47277
-0.0731682 -1.48297 -1.48297
-0.0906133 -1.49321 -1.49321
-0.0910565 -1.51372 -1.51372
-0.0564027 -1.51372 -1.51372
-0.0561036 -1.4932 -1.4932
-0.0908355 -1.50346 -1.50346
-0.0737262 -1.51371 -1.51371
-0.0562534 -1.50345 -1.50345
-0.073355 -1.4932 -1.4932
-0.073541 -1.50344 -1.50344
-0.0910565 -1.51372 -1.51372
-0.0914953 -1.53432 -1.53432
-0.0566994 -1.53432 -1.53432
-0.0564027 -1.51372 -1.51372
-0.0912765 -1.52401 -1.52401
-0.0740939 -1.53431 -1.53431
-0.0565513 -1.52401 -1.52401
-0.0737262 -1.51371 -1.51371
-0.0739105 -1.524 -1.524
-0.0914953 -1.53432 -1.53432
-0.0919297 -1.555 -1.555
-0.0569936 -1.555 -1.555
-0.0566994 -1.53432 -1.53432
-0.0917131 -1.54465 -1.54465
-0.0744582 -1.55499 -1.55499
-0.0568468 -1.54465 -1.54465
-0.0740939 -1.53431 -1.53431
-0.0742765 -1.54464 -1.54464
-0.0919297 -1.555 -1.555
-0.0923596 -1.57576 -1.57576
-0.0572855 -1.57577 -1.57577
-0.0569936 -1.555 -1.555
-0.0921452 -1.56537 -1.56537
-0.0748191 -1.57576 -1.57576
-0.0571399 -1.56537 -1.56537
-0.0744582 -1.55499 -1.55499
-0.0746391 -1.56536 -1.56536
-0.0923596 -1.57576 -1.57576
-0.092785 -1.59661 -1.59661
-0.057575 -1.59661 -1.59661
-0.0572855 -1.57577 -1.57577
-0.0925729 -1.58617 -1.58617
-0.0751766 -1.5966 -1.5966
-0.0574306 -1.58618 -1.58618
-0.0748191 -1.57576 -1.57576
-0.0749983 -1.58617 -1.58617
-0.092785 -1.59661 -1.59661
-0.093206 -1.61753 -1.61753
-0.0578621 -1.61754 -1.61754
-0.057575 -1.59661 -1.59661
-0.0929961 -1.60706 -1.60706
-0.0755307 -1.61753 -1.61753
-0.0577189 -1.60707 -1.60707
-0.0751766 -1.5966 -1.5966
-0.0753541 -1.60705 -1.60705
-0.093206 -1.61753 -1.61753
-0.0936226 -1.63853 -1.63853
-0.0581468 -1.63855 -1.63855
-0.0578621 -1.61754 -1.61754
-0.0934149 -1.62802 -1.62802
-0.0758813 -1.63853 -1.63853
-0.0580048 -1.62803 -1.62803
-0.0755307 -1.61753 -1.61753
-0.0757064 -1.62802 -1.62802
-0.0936226 -1.63853 -1.63853
-0.0940346 -1.65961 -1.65961
-0.058429 -1.65963 -1.65963
-0.0581468 -1.63855 -1.63855
-0.0938292 -1.64906 -1.64906
-0.0762284 -1.65961 -1.65961
-0.0582882 -1.64908 -1.64908
-0.0758813 -1.63853 -1.63853
-0.0760553 -1.64906 -1.64906
-0.0940346 -1.65961 -1.65961
-0.0944422 -1.68077 -1.68077
-0.0587088 -1.68079 -1.68079
-0.058429 -1.65963 -1.65963
-0.094239 -1.67018 -1.67018
-0.0765721 -1.68077 -1.68077
-0.0585692 -1.6702 -1.6702
-0.0762284 -1.65961 -1.65961
-0.0764007 -1.67018 -1.67018
-0.0944422 -1.68077 -1.68077
-0.0948453 -1.702 -1.702
-0.0589862 -1.70202 -1.70202
-0.0587088 -1.68079 -1.68079
-0.0946443 -1.69138 -1.69138
-0.0769123 -1.702 -1.702
-0.0588478 -1.6914 -1.6914
-0.0765721 -1.68077 -1.68077
-0.0767427 -1.69138 -1.69138
-0.0948453 -1.702 -1.702
-0.0952439 -1.72331 -1.72331
-0.0592611 -1.72333 -1.72333
-0.0589862 -1.70202 -1.70202
-0.0950452 -1.71264 -1.71264
-0.0772491 -1.72331 -1.72331
-0.059124 -1.71267 -1.71267
-0.0769123 -1.702 -1.702
-0.0770812 -1.71265 -1.71265
-0.0952439 -1.72331 -1.72331
-0.095638 -1.74468 -1.74468
-0.0595336 -1.74471 -1.74471
-0.0592611 -1.72333 -1.72333
-0.0954416 -1.73399 -1.73399
-0.0775824 -1.74469 -1.74469
-0.0593976 -1.73401 -1.73401
-0.0772491 -1.72331 -1.72331
-0.0774162 -1.73399 -1.73399
-0.095638 -1.74468 -1.74468
-0.0960276 -1.76613 -1.76613
-0.0598036 -1.76617 -1.76617
-0.0595336 -1.74471 -1.74471
-0.0958334 -1.7554 -1.7554
-0.0779122 -1.76614 -1.76614
-0.0596689 -1.75543 -1.75543
-0.0775824 -1.74469 -1.74469
-0.0777477 -1.75541 -1.75541
-0.0960276 -1.76613 -1.76613
-0.0964127 -1.78765 -1.78765
-0.0600711 -1.78769 -1.78769
-0.0598036 -1.76617 -1.76617
-0.0962207 -1.77688 -1.77688
-0.0782385 -1.78766 -1.78766
-0.0599376 -1.77692 -1.77692
-0.0779122 -1.76614 -1.76614
-0.0780758 -1.77689 -1.77689
-0.0964127 -1.78765 -1.78765
-0.0967933 -1.80924 -1.80924
-0.0603361 -1.80928 -1.80928
-0.0600711 -1.78769 -1.78769
-0.0966036 -1.79844 -1.79844
-0.0785613 -1.80925 -1.80925
-0.0602039 -1.79848 -1.79848
-0.0782385 -1.78766 -1.78766
-0.0784003 -1.79845 -1.79845
-0.0967933 -1.80924 -1.80924
-0.0971693 -1.8309 -1.8309
-0.0605986 -1.83094 -1.83094
-0.0603361 -1.80928 -1.80928
-0.0969818 -1.82006 -1.82006
-0.0788805 -1.83091 -1.83091
-0.0604677 -1.8201 -1.8201
-0.0785613 -1.80925 -1.80925
-0.0787213 -1.82008 -1.82008
-0.0971693 -1.8309 -1.8309
-0.0975407 -1.85262 -1.85262
-0.0608587 -1.85267 -1.85267
-0.0605986 -1.83094 -1.83094
-0.0973556 -1.84175 -1.84175
-0.0791963 -1.85264 -1.85264
-0.060729 -1.8418 -1.8418
-0.0788805 -1.83091 -1.83091
-0.0790389 -1.84177 -1.84177
-0.0975407 -1.85262 -1.85262
-0.0979077 -1.87441 -1.87441
-0.0611162 -1.87446 -1.87446
-0.0608587 -1.85267 -1.85267
-0.0977248 -1.86351 -1.86351
-0.0795085 -1.87443 -1.87443
-0.0609878 -1.86356 -1.86356
-0.0791963 -1.85264 -1.85264
-0.0793529 -1.86353 -1.86353
-0.0979077 -1.87441 -1.87441
-0.09827 -1.89626 -1.89626
-0.0613712 -1.89632 -1.89632
-0.0611162 -1.87446 -1.87446
-0.0980894 -1.88533 -1.88533
-0.0798172 -1.89628 -1.89628
-0.061244 -1.88538 -1.88538
-0.0795085 -1.87443 -1.87443
-0.0796633 -1.88535 -1.88535
-0.09827 -1.89626 -1.89626
-0.0986278 -1.91818 -1.91818
-0.0616237 -1.91823 -1.91823
-0.0613712 -1.89632 -1.89632
-0.0984495 -1.90721 -1.90721
-0.0801224 -1.9182 -1.9182
-0.0614978 -1.90727 -1.90727
-0.0798172 -1.89628 -1.89628
-0.0799702 -1.90723 -1.90723
-0.0986278 -1.91818 -1.91818
-0.098981 -1.94016 -1.94016
-0.0618737 -1.94022 -1.94022
-0.0616237 -1.91823 -1.91823
-0.098805 -1.92916 -1.92916
-0.0804239 -1.94018 -1.94018
-0.061749 -1.92922 -1.92922
-0.0801224 -1.9182 -1.9182
-0.0802736 -1.92918 -1.92918
-0.098981 -1.94016 -1.94016
-0.0993296 -1.9622 -1.9622
-0.0621211 -1.96226 -1.96226
-0.0618737 -1.94022 -1.94022
-0.0991559 -1.95117 -1.95117
-0.080722 -1.96222 -1.96222
-0.0619977 -1.95123 -1.95123
-0.0804239 -1.94018 -1.94018
-0.0805734 -1.95119 -1.95119
-0.0993296 -1.9622 -1.9622
-0.0996736 -1.98429 -1.98429
-0.062366 -1.98436 -1.98436
-0.0621211 -1.96226 -1.96226
-0.0995022 -1.97324 -1.97324
-0.0810164 -1.98432 -1.98432
-0.0622439 -1.9733 -1.9733
-0.080722 -1.96222 -1.96222
-0.0808696 -1.97326 -1.97326
-0.0996736 -1.98429 -1.98429
-0.100013 -2.00645 -2.00645
-0.0626083 -2.00652 -2.00652
-0.062366 -1.98436 -1.98436
-0.0998439 -1.99537 -1.99537
-0.0813073 -2.00648 -2.00648
-0.0624875 -1.99543 -1.99543
-0.0810164 -1.98432 -1.98432
-0.0811623 -1.99539 -1.99539
-0.100013 -2.00645 -2.00645
-0.100348 -2.02866 -2.02866
-0.062848 -2.02873 -2.02873
-0.0626083 -2.00652 -2.00652
-0.100181 -2.01755 -2.01755
-0.0815945 -2.02869 -2.02869
-0.0627285 -2.01762 -2.01762
-0.0813073 -2.00648 -2.00648
-0.0814513 -2.01758 -2.01758
-0.100348 -2.02866 -2.02866
-0.100678 -2.05093 -2.05093
-0.0630852 -2.051 -2.051
-0.062848 -2.02873 -2.02873
-0.100514 -2.03979 -2.03979
-0.0818782 -2.05096 -2.05096
-0.0629669 -2.03986 -2.03986
-0.0815945 -2.02869 -2.02869
-0.0817368 -2.03982 -2.03982
-0.100678 -2.05093 -2.05093
-0.101004 -2.07326 -2.07326
-0.0633197 -2.07333 -2.07333
-0.0630852 -2.051 -2.051
-0.100841 -2.06209 -2.06209
-0.0821582 -2.07329 -2.07329
-0.0632028 -2.06216 -2.06216
-0.0818782 -2.05096 -2.05096
-0.0820187 -2.06212 -2.06212
-0.101004 -2.07326 -2.07326
-0.101324 -2.09563 -2.09563
-0.0635517 -2.09571 -2.09571
-0.0633197 -2.07333 -2.07333
-0.101165 -2.08444 -2.08444
-0.0824347 -2.09566 -2.09566
-0.063436 -2.08451 -2.08451
-0.0821582 -2.07329 -2.07329
-0.0822969 -2.08447 -2.08447
-0.101324 -2.09563 -2.09563
-0.101641 -2.11806 -2.11806
-0.063781 -2.11814 -2.11814
-0.0635517 -2.09571 -2.09571
-0.101483 -2.10684 -2.10684
-0.0827075 -2.1181 -2.1181
-0.0636667 -2.10692 -2.10692
-0.0824347 -2.09566 -2.09566
-0.0825715 -2.10687 -2.10687
-0.101641 -2.11806 -2.11806
-0.101952 -2.14054 -2.14054
-0.0640078 -2.14062 -2.14062
-0.063781 -2.11814 -2.11814
-0.101797 -2.12929 -2.12929
-0.0829766 -2.14058 -2.14058
-0.0638947 -2.12938 -2.12938
-0.0827075 -2.1181 -2.1181
-0.0828425 -2.12933 -2.12933
-0.101952 -2.14054 -2.14054
-0.102259 -2.16307 -2.16307
-0.0642319 -2.16315 -2.16315
-0.0640078 -2.14062 -2.14062
-0.102106 -2.1518 -2.1518
-0.0832421 -2.16311 -2.16311
-0.0641202 -2.15188 -2.15188
-0.0829766 -2.14058 -2.14058
-0.0831098 -2.15184 -2.15184
-0.102259 -2.16307 -2.16307
-0.102561 -2.18565 -2.18565
-0.0644534 -2.18574 -2.18574
-0.0642319 -2.16315 -2.16315
-0.102411 -2.17435 -2.17435
-0.083504 -2.18569 -2.18569
-0.064343 -2.17444 -2.17444
-0.0832421 -2.16311 -2.16311
-0.0833735 -2.17439 -2.17439
-0.102561 -2.18565 -2.18565
-0.102859 -2.20827 -2.20827
-0.0646722 -2.20836 -2.20836
-0.0644534 -2.18574 -2.18574
-0.102711 -2.19695 -2.19695
-0.0837622 -2.20831 -2.20831
-0.0645631 -2.19704 -2.19704
-0.083504 -2.18569 -2.18569
-0.0836335 -2.19699 -2.19699
-0.102859 -2.20827 -2.20827
-0.103152 -2.23094 -2.23094
-0.0648884 -2.23104 -2.23104
-0.0646722 -2.20836 -2.20836
-0.103006 -2.2196 -2.2196
-0.0840167 -2.23099 -2.23099
-0.0647806 -2.21969 -2.21969
-0.0837622 -2.20831 -2.20831
-0.0838899 -2.21964 -2.21964
-0.103152 -2.23094 -2.23094
-0.10344 -2.25366 -2.25366
-0.0651019 -2.25376 -2.25376
-0.0648884 -2.23104 -2.23104
-0.103296 -2.2423 -2.2423
-0.0842675 -2.2537 -2.2537
-0.0649954 -2.24239 -2.24239
-0.0840167 -2.23099 -2.23099
-0.0841425 -2.24234 -2.24234
-0.10344 -2.25366 -2.25366
-0.103723 -2.27642 -2.27642
-0.0653127 -2.27652 -2.27652
-0.0651019 -2.25376 -2.25376
-0.103582 -2.26503 -2.26503
-0.0845146 -2.27646 -2.27646
-0.0652076 -2.26513 -2.26513
-0.0842675 -2.2537 -2.2537
-0.0843915 -2.26508 -2.26508
-0.103723 -2.27642 -2.27642
-0.104002 -2.29922 -2.29922
-0.0655208 -2.29932 -2.29932
-0.0653127 -2.27652 -2.27652
-0.103863 -2.28781 -2.28781
-0.084758 -2.29927 -2.29927
-0.0654171 -2.28791 -2.28791
-0.0845146 -2.27646 -2.27646
-0.0846367 -2.28786 -2.28786
-0.104002 -2.29922 -2.29922
-0.104276 -2.32206 -2.32206
-0.0657262 -2.32217 -2.32217
-0.0655208 -2.29932 -2.29932
-0.104139 -2.31064 -2.31064
-0.0849976 -2.32211 -2.32211
-0.0656239 -2.31074 -2.31074
-0.084758 -2.29927 -2.29927
-0.0848783 -2.31068 -2.31068
-0.104276 -2.32206 -2.32206
-0.104545 -2.34495 -2.34495
-0.065929 -2.34505 -2.34505
-0.0657262 -2.32217 -2.32217
-0.104411 -2.3335 -2.3335
-0.0852336 -2.345 -2.345
-0.065828 -2.33361 -2.33361
-0.0849976 -2.32211 -2.32211
-0.0851161 -2.33355 -2.33355
-0.104545 -2.34495 -2.34495
-0.104809 -2.36787 -2.36787
-0.066129 -2.36798 -2.36798
-0.065929 -2.34505 -2.34505
-0.104678 -2.3564 -2.3564
-0.0854658 -2.36792 -2.36792
-0.0660293 -2.35651 -2.35651
-0.0852336 -2.345 -2.345
-0.0853502 -2.35645 -2.35645
-0.104809 -2.36787 -2.36787
-0.105069 -2.39083 -2.39083
-0.0663263 -2.39094 -2.39094
-0.066129 -2.36798 -2.36798
-0.10494 -2.37934 -2.37934
-0.0856943 -2.39088 -2.39088
-0.066228 -2.37946 -2.37946
-0.0854658 -2.36792 -2.36792
-0.0855805 -2.3794 -2.3794
-0.105069 -2.39083 -2.39083
-0.105324 -2.41382 -2.41382
-0.0665208 -2.41394 -2.41394
-0.0663263 -2.39094 -2.39094
-0.105197 -2.40232 -2.40232
-0.085919 -2.41388 -2.41388
-0.0664239 -2.40244 -2.40244
-0.0856943 -2.39088 -2.39088
-0.0858071 -2.40237 -2.40237
-0.105324 -2.41382 -2.41382
-0.105574 -2.43685 -2.43685
-0.0667126 -2.43697 -2.43697
-0.0665208 -2.41394 -2.41394
-0.105449 -2.42534 -2.42534
-0.0861399 -2.43691 -2.43691
-0.0666171 -2.42545 -2.42545
-0.085919 -2.41388 -2.41388
-0.0860299 -2.42539 -2.42539
-0.105574 -2.43685 -2.43685
-0.105819 -2.45992 -2.45992
-0.0669016 -2.46004 -2.46004
-0.0667126 -2.43697 -2.43697
-0.105697 -2.44838 -2.44838
-0.086357 -2.45998 -2.45998
-0.0668075 -2.4485 -2.4485
-0.0861399 -2.43691 -2.43691
-0.0862489 -2.44844 -2.44844
-0.105819 -2.45992 -2.45992
-0.10606 -2.48302 -2.48302
-0.0670879 -2.48314 -2.48314
-0.0669016 -2.46004 -2.46004
-0.10594 -2.47146 -2.47146
-0.0865704 -2.48308 -2.48308
-0.0669951 -2.47159 -2.47159
-0.086357 -2.45998 -2.45998
-0.0864642 -2.47152 -2.47152
-0.10606 -2.48302 -2.48302
-0.106295 -2.50615 -2.50615
-0.0672714 -2.50627 -2.50627
-0.0670879 -2.48314 -2.48314
-0.106178 -2.49458 -2.49458
-0.0867799 -2.50621 -2.50621
-0.06718 -2.4947 -2.4947
-0.0865704 -2.48308 -2.48308
-0.0866756 -2.49464 -2.49464
-0.106295 -2.50615 -2.50615
-0.106526 -2.52931 -2.52931
-0.0674521 -2.52943 -2.52943
-0.0672714 -2.50627 -2.50627
-0.106411 -2.51772 -2.51772
-0.0869856 -2.52937 -2.52937
-0.0673621 -2.51785 -2.51785
-0.0867799 -2.50621 -2.50621
-0.0868833 -2.51778 -2.51778
-0.106526 -2.52931 -2.52931
-0.106752 -2.5525 -2.5525
-0.06763 -2.55263 -2.55263
-0.0674521 -2.52943 -2.52943
-0.10664 -2.5409 -2.5409
-0.0871875 -2.55256 -2.55256
-0.0675414 -2.54103 -2.54103
-0.0869856 -2.52937 -2.52937
-0.0870871 -2.54096 -2.54096
-0.106752 -2.5525 -2.5525
-0.106973 -2.57571 -2.57571
-0.067805 -2.57585 -2.57585
-0.06763 -2.55263 -2.55263
-0.106863 -2.5641 -2.5641
-0.0873856 -2.57578 -2.57578
-0.0677179 -2.56423 -2.56423
-0.0871875 -2.55256 -2.55256
-0.0872871 -2.56416 -2.56416
-0.106973 -2.57571 -2.57571
-0.107189 -2.59896 -2.59896
-0.0679773 -2.59909 -2.59909
-0.067805 -2.57585 -2.57585
-0.107082 -2.58733 -2.58733
-0.0875798 -2.59902 -2.59902
-0.0678915 -2.58746 -2.58746
-0.0873856 -2.57578 -2.57578
-0.0874832 -2.58739 -2.58739
-0.107189 -2.59896 -2.59896
-0.1074 -2.62222 -2.62222
-0.0681467 -2.62236 -2.62236
-0.0679773 -2.59909 -2.59909
-0.107295 -2.61059 -2.61059
-0.0877702 -2.62229 -2.62229
-0.0680624 -2.61072 -2.61072
-0.0875798 -2.59902 -2.59902
-0.0876755 -2.61065 -2.61065
-0.1074 -2.62222 -2.62222
-0.107607 -2.64552 -2.64552
-0.0683133 -2.64566 -2.64566
-0.0681467 -2.62236 -2.62236
-0.107504 -2.63387 -2.63387
-0.0879567 -2.64558 -2.64558
-0.0682304 -2.63401 -2.63401
-0.0877702 -2.62229 -2.62229
-0.0878639 -2.63393 -2.63393
-0.107607 -2.64552 -2.64552
-0.107808 -2.66883 -2.66883
-0.068477 -2.66898 -2.66898
-0.0683133 -2.64566 -2.64566
-0.107708 -2.65717 -2.65717
-0.0881393 -2.6689 -2.6689
-0.0683955 -2.65731 -2.65731
-0.0879567 -2.64558 -2.64558
-0.0880485 -2.65724 -2.65724
-0.107808 -2.66883 -2.66883
-0.108005 -2.69217 -2.69217
-0.0686378 -2.69232 -2.69232
-0.068477 -2.66898 -2.66898
-0.107907 -2.6805 -2.6805
-0.0883181 -2.69224 -2.69224
-0.0685578 -2.68064 -2.68064
-0.0881393 -2.6689 -2.6689
-0.0882292 -2.68057 -2.68057
-0.108005 -2.69217 -2.69217
-0.108197 -2.71553 -2.71553
-0.0687958 -2.71568 -2.71568
-0.0686378 -2.69232 -2.69232
-0.108101 -2.70385 -2.70385
-0.0884929 -2.7156 -2.7156
-0.0687172 -2.70399 -2.70399
-0.0883181 -2.69224 -2.69224
-0.088406 -2.70392 -2.70392
-0.108197 -2.71553 -2.71553
-0.108383 -2.73891 -2.73891
-0.0689509 -2.73906 -2.73906
-0.0687958 -2.71568 -2.71568
-0.108291 -2.72722 -2.72722
-0.0886638 -2.73898 -2.73898
-0.0688737 -2.72737 -2.72737
-0.0884929 -2.7156 -2.7156
-0.0885788 -2.72729 -2.72729
-0.108383 -2.73891 -2.73891
-0.108565 -2.7623 -2.7623
-0.0691031 -2.76246 -2.76246
-0.0689509 -2.73906 -2.73906
-0.108475 -2.7506 -2.7506
-0.0888308 -2.76238 -2.76238
-0.0690274 -2.75075 -2.75075
-0.0886638 -2.73898 -2.73898
-0.0887478 -2.75068 -2.75068
-0.108565 -2.7623 -2.7623
-0.108742 -2.78572 -2.78572
-0.0692523 -2.78587 -2.78587
-0.0691031 -2.76246 -2.76246
-0.108654 -2.77401 -2.77401
-0.0889939 -2.78579 -2.78579
-0.0691781 -2.77416 -2.77416
-0.0888308 -2.76238 -2.76238
-0.0889128 -2.77408 -2.77408
-0.108742 -2.78572 -2.78572
-0.108914 -2.80915 -2.80915
-0.0693987 -2.8093 -2.8093
-0.0692523 -2.78587 -2.78587
-0.108829 -2.79743 -2.79743
-0.089153 -2.80922 -2.80922
-0.0693259 -2.79759 -2.79759
-0.0889939 -2.78579 -2.78579
-0.0890739 -2.79751 -2.79751
-0.108914 -2.80915 -2.80915
-0.109081 -2.83259 -2.83259
-0.0695421 -2.83275 -2.83275
-0.0693987 -2.8093 -2.8093
-0.108998 -2.82087 -2.82087
-0.0893081 -2.83267 -2.83267
-0.0694708 -2.82102 -2.82102
-0.089153 -2.80922 -2.80922
-0.0892311 -2.82094 -2.82094
-0.109081 -2.83259 -2.83259
-0.109243 -2.85605 -2.85605
-0.0696825 -2.85621 -2.85621
-0.0695421 -2.83275 -2.83275
-0.109163 -2.84432 -2.84432
-0.0894593 -2.85613 -2.85613
-0.0696127 -2.84448 -2.84448
-0.0893081 -2.83267 -2.83267
-0.0893842 -2.8444 -2.8444
-0.109243 -2.85605 -2.85605
-0.1094 -2.87952 -2.87952
-0.0698198 -2.87968 -2.87968
-0.0696825 -2.85621 -2.85621
-0.109322 -2.86778 -2.86778
-0.0896064 -2.8796 -2.8796
-0.0697515 -2.86794 -2.86794
-0.0894593 -2.85613 -2.85613
-0.0895334 -2.86786 -2.86786
-0.1094 -2.87952 -2.87952
-0.109552 -2.903 -2.903
-0.0699541 -2.90316 -2.90316
-0.0698198 -2.87968 -2.87968
-0.109476 -2.89125 -2.89125
-0.0897495 -2.90308 -2.90308
-0.0698874 -2.89142 -2.89142
-0.0896064 -2.8796 -2.8796
-0.0896785 -2.89134 -2.89134
-0.109552 -2.903 -2.903
-0.109699 -2.92648 -2.92648
-0.0700851 -2.92665 -2.92665
-0.0699541 -2.90316 -2.90316
-0.109626 -2.91474 -2.91474
-0.0898883 -2.92657 -2.92657
-0.07002 -2.91491 -2.91491
-0.0897495 -2.90308 -2.90308
-0.0898194 -2.91482 -2.91482
-0.109699 -2.92648 -2.92648
-0.10984 -2.94998 -2.94998
-0.0702126 -2.95015 -2.95015
-0.0700851 -2.92665 -2.92665
-0.10977 -2.93823 -2.93823
-0.0900228 -2.95007 -2.95007
-0.0701493 -2.9384 -2.9384
-0.0898883 -2.92657 -2.92657
-0.0899561 -2.93832 -2.93832
-0.10984 -2.94998 -2.94998
-0.109977 -2.97349 -2.97349
-0.0703364 -2.97366 -2.97366
-0.0702126 -2.95015 -2.95015
-0.109909 -2.96173 -2.96173
-0.0901526 -2.97357 -2.97357
-0.070275 -2.96191 -2.96191
-0.0900228 -2.95007 -2.95007
-0.0900883 -2.96182 -2.96182
-0.109977 -2.97349 -2.97349
-0.110108 -2.997 -2.997
-0.0704561 -2.99718 -2.99718
-0.0703364 -2.97366 -2.97366
-0.110043 -2.98524 -2.98524
-0.0902774 -2.99709 -2.99709
-0.0703967 -2.98542 -2.98542
-0.0901526 -2.97357 -2.97357
-0.0902157 -2.98533 -2.98533
-0.110108 -2.997 -2.997
-0.110233 -3.02052 -3.02052
-0.0705718 -3.0207 -3.0207
-0.0704561 -2.99718 -2.99718
-0.110171 -3.00876 -3.00876
-0.0903967 -3.02061 -3.02061
-0.0705144 -3.00894 -3.00894
-0.0902774 -2.99709 -2.99709
-0.0903377 -3.00885 -3.00885
-0.110233 -3.02052 -3.02052
-0.110351 -3.04405 -3.04405
-0.0706842 -3.04422 -3.04422
-0.0705718 -3.0207 -3.0207
-0.110293 -3.03228 -3.03228
-0.0905106 -3.04414 -3.04414
-0.0706282 -3.03246 -3.03246
-0.0903967 -3.02061 -3.02061
-0.0904543 -3.03237 -3.03237
-0.110351 -3.04405 -3.04405
-0.110463 -3.06759 -3.06759
-0.0707961 -3.06775 -3.06775
-0.0706842 -3.04422 -3.04422
-0.110407 -3.05582 -3.05582
-0.0906218 -3.06767 -3.06767
-0.07074 -3.05599 -3.05599
-0.0905106 -3.04414 -3.04414
-0.090566 -3.0559 -3.0559
-0.110463 -3.06759 -3.06759
-0.110579 -3.09114 -3.09114
-0.0709101 -3.09126 -3.09126
-0.0707961 -3.06775 -3.06775
-0.110519 -3.07937 -3.07937
-0.090739 -3.0912 -3.0912
-0.0708527 -3.07951 -3.07951
-0.0906218 -3.06767 -3.06767
-0.0906794 -3.07944 -3.07944
0 0 0
-0.000533234 -5.47673e-05 -5.47673e-05
-0.000175666 2.84898e-05 2.84898e-05
0 0 0
-0.000258516 1.62501e-05 1.62501e-05
-0.000353124 -2.73368e-06 -2.73368e-06
-8.7444e-05 5.73239e-05 5.73239e-05
0 0 0
-0.000171414 4.33571e-05 4.33571e-05
-0.000533234 -5.47673e-05 -5.47673e-05
-0.00110721 -0.000414192 -0.000414192
-0.000365832 -0.000269547 -0.000269547
-0.000175666 2.84898e-05 2.84898e-05
-0.000816642 -0.000199999 -0.000199999
-0.000733141 -0.000321894 -0.000321894
-0.000268979 -8.22977e-05 -8.22977e-05
-0.000353124 -2.73368e-06 -2.73368e-06
-0.000540748 -0.000125878 -0.000125878
-0.00110721 -0.000414192 -0.000414192
-0.0017051 -0.00103603 -0.00103603
-0.000562832 -0.000854033 -0.000854033
-0.000365832 -0.000269547 -0.000269547
-0.00140434 -0.000694018 -0.000694018
-0.00112917 -0.000921027 -0.000921027
-0.000463802 -0.000527927 -0.000527927
-0.000733141 -0.000321894 -0.000321894
-0.000929752 -0.000588279 -0.000588279
-0.0017051 -0.00103603 -0.00103603
-0.00230791 -0.00189703 -0.00189703
-0.000764139 -0.00169886 -0.00169886
-0.000562832 -0.000854033 -0.000854033
-0.00200656 -0.00143728 -0.00143728
-0.00153115 -0.00177256 -0.00177256
-0.0006632 -0.00124508 -0.00124508
-0.00112917 -0.000921027 -0.000921027
-0.00132991 -0.00131632 -0.00131632
-0.00230791 -0.00189703 -0.00189703
-0.00290867 -0.00299088 -0.00299088
-0.000965187 -0.00278791 -0.00278791
-0.000764139 -0.00169886 -0.00169886
-0.0026088 -0.00241503 -0.00241503
-0.00193278 -0.00286398 -0.00286398
-0.000864815 -0.0022135 -0.0022135
-0.00153115 -0.00177256 -0.00177256
-0.00173225 -0.00228876 -0.00228876
-0.00290867 -0.00299088 -0.00299088
-0.00350389 -0.00431516 -0.00431516
-0.00116511 -0.00411293 -0.00411293
-0.000965187 -0.00278791 -0.00278791
-0.00320701 -0.00362427 -0.00362427
-0.00233115 -0.00418882 -0.00418882
-0.00106534 -0.00342125 -0.00342125
-0.00193278 -0.00286398 -0.00286398
-0.00213244 -0.00349743 -0.00349743
-0.00350389 -0.00431516 -0.00431516
-0.00409383 -0.00586943 -0.00586943
-0.00136304 -0.0056696 -0.0056696
-0.00116511 -0.00411293 -0.00411293
-0.00379949 -0.00506358 -0.00506358
-0.00272573 -0.00574458 -0.00574458
-0.00126432 -0.00486247 -0.00486247
-0.00233115 -0.00418882 -0.00418882
-0.0025289 -0.00493794 -0.00493794
-0.00409383 -0.00586943 -0.00586943
-0.00467886 -0.00765291 -0.00765291
-0.00155927 -0.00745579 -0.00745579
-0.00136304 -0.0056696 -0.0056696
-0.00438691 -0.00673257 -0.00673257
-0.00311679 -0.00752967 -0.00752967
-0.00146135 -0.0065341 -0.0065341
-0.00272573 -0.00574458 -0.00574458
-0.00292167 -0.00660854 -0.00660854
-0.00467886 -0.00765291 -0.00765291
-0.00525976 -0.00966482 -0.00966482
-0.00175396 -0.00947013 -0.00947013
-0.00155927 -0.00745579 -0.00745579
-0.00496979 -0.00863037 -0.00863037
-0.00350485 -0.009543 -0.009543
-0.00165679 -0.00843451 -0.00843451
-0.00311679 -0.00752967 -0.00752967
-0.00331117 -0.00850787 -0.00850787
-0.00525976 -0.00966482 -0.00966482
-0.00583699 -0.0119041 -0.0119041
-0.00194742 -0.0117115 -0.0117115
-0.00175396 -0.00947013 -0.00947013
-0.00554881 -0.0107561 -0.0107561
-0.00389035 -0.0117835 -0.0117835
-0.00185083 -0.0105625 -0.0105625
-0.00350485 -0.009543 -0.009543
-0.0036979 -0.0106349 -0.0106349
-0.00583699 -0.0119041 -0.0119041
-0.00641094 -0.0143697 -0.0143697
-0.0021398 -0.014179 -0.014179
-0.00194742 -0.0117115 -0.0117115
-0.00612436 -0.0131087 -0.0131087
-0.00427359 -0.0142502 -0.0142502
-0.00204373 -0.0129171 -0.0129171
-0.00389035 -0.0117835 -0.0117835
-0.00408224 -0.0129887 -0.0129887
-0.00641094 -0.0143697 -0.0143697
-0.0069818 -0.0170605 -0.0170605
-0.00233125 -0.0168715 -0.0168715
-0.0021398 -0.014179 -0.014179
-0.00669674 -0.0156871 -0.0156871
-0.00465479 -0.016942 -0.016942
-0.00223563 -0.0154972 -0.0154972
-0.00427359 -0.0142502 -0.0142502
-0.00446444 -0.0155681 -0.0155681
-0.0069818 -0.0170605 -0.0170605
-0.00754972 -0.0199752 -0.0199752
-0.00252185 -0.0197878 -0.0197878
-0.00233125 -0.0168715 -0.0168715
-0.00726612 -0.01849 -0.01849
-0.00503407 -0.0198577 -0.0198577
-0.00242665 -0.0183017 -0.0183017
-0.00465479 -0.016942 -0.016942
-0.00484466 -0.0183719 -0.0183719
-0.00754972 -0.0199752 -0.0199752
-0.00811479 -0.0231128 -0.0231128
-0.00271165 -0.0229269 -0.0229269
-0.00252185 -0.0197878 -0.0197878
-0.00783261 -0.0215162 -0.0215162
-0.00541151 -0.0229961 -0.0229961
-0.00261685 -0.0213296 -0.0213296
-0.00503407 -0.0198577 -0.0198577
-0.00522301 -0.0213991 -0.0213991
-0.00811479 -0.0231128 -0.0231128
-0.00867704 -0.0264718 -0.0264718
-0.0029007 -0.0262875 -0.0262875
-0.00271165 -0.0229269 -0.0229269
-0.00839626 -0.0247647 -0.0247647
-0.00578716 -0.0263561 -0.0263561
-0.00280627 -0.0245796 -0.0245796
-0.00541151 -0.0229961 -0.0229961
-0.00559955 -0.0246485 -0.0246485
-0.00867704 -0.0264718 -0.0264718
-0.00923651 -0.0300513 -0.0300513
-0.00308901 -0.0298685 -0.0298685
-0.0029007 -0.0262875 -0.0262875
-0.00895712 -0.0282341 -0.0282341
-0.00616105 -0.0299364 -0.0299364
-0.00299494 -0.0280505 -0.0280505
-0.00578716 -0.0263561 -0.0263561
-0.00597432 -0.0281188 -0.0281188
-0.00923651 -0.0300513 -0.0300513
-0.00979322 -0.0338498 -0.0338498
-0.00327661 -0.0336687 -0.0336687
-0.00308901 -0.0298685 -0.0298685
-0.00951521 -0.0319232 -0.0319232
-0.0065332 -0.0337359 -0.0337359
-0.0031829 -0.0317413 -0.0317413
-0.00616105 -0.0299364 -0.0299364
-0.00634734 -0.0318089 -0.0318089
-0.00979322 -0.0338498 -0.0338498
-0.0103472 -0.0378664 -0.0378664
-0.00346353 -0.0376868 -0.0376868
-0.00327661 -0.0336687 -0.0336687
-0.0100706 -0.0358309 -0.0358309
-0.00690365 -0.0377534 -0.0377534
-0.00337016 -0.0356506 -0.0356506
-0.0065332 -0.0337359 -0.0337359
-0.00671864 -0.0357175 -0.0357175
-0.0103472 -0.0378664 -0.0378664
-0.0108985 -0.0420996 -0.0420996
-0.00364977 -0.0419217 -0.0419217
-0.00346353 -0.0376868 -0.0376868
-0.0106232 -0.039956 -0.039956
-0.0072724 -0.0419876 -0.0419876
-0.00355673 -0.0397772 -0.0397772
-0.00690365 -0.0377534 -0.0377534
-0.00708823 -0.0398435 -0.0398435
-0.0108985 -0.0420996 -0.0420996
-0.011447 -0.0465484 -0.0465484
-0.00383535 -0.0463721 -0.0463721
-0.00364977 -0.0419217 -0.0419217
-0.0111731 -0.0442971 -0.0442971
-0.00763946 -0.0464373 -0.0464373
-0.00374264 -0.04412 -0.04412
-0.0072724 -0.0419876 -0.0419876
-0.00745614 -0.0441856 -0.0441856
-0.011447 -0.0465484 -0.0465484
-0.0119929 -0.0512114 -0.0512114
-0.00402029 -0.0510369 -0.0510369
-0.00383535 -0.0463721 -0.0463721
-0.0117203 -0.0488532 -0.0488532
-0.00800487 -0.0511013 -0.0511013
-0.0039279 -0.0486778 -0.0486778
-0.00763946 -0.0464373 -0.0464373
-0.00782237 -0.0487426 -0.0487426
-0.0119929 -0.0512114 -0.0512114
-0.0125361 -0.0560876 -0.0560876
-0.00420461 -0.0559147 -0.0559147
-0.00402029 -0.0510369 -0.0510369
-0.0122648 -0.053623 -0.053623
-0.00836863 -0.0559785 -0.0559785
-0.00411253 -0.0534492 -0.0534492
-0.00800487 -0.0511013 -0.0511013
-0.00818695 -0.0535134 -0.0535134
-0.0125361 -0.0560876 -0.0560876
-0.0130766 -0.0611757 -0.0611757
-0.00438831 -0.0610045 -0.0610045
-0.00420461 -0.0559147 -0.0559147
-0.0128067 -0.0586052 -0.0586052
-0.00873075 -0.0610675 -0.0610675
-0.00429654 -0.0584332 -0.0584332
-0.00836863 -0.0559785 -0.0559785
-0.00854989 -0.0584966 -0.0584966
-0.0130766 -0.0611757 -0.0611757
-0.0136145 -0.0664744 -0.0664744
-0.00457143 -0.066305 -0.066305
-0.00438831 -0.0610045 -0.0610045
-0.0133459 -0.0637988 -0.0637988
-0.00909126 -0.0663673 -0.0663673
-0.00447994 -0.0636285 -0.0636285
-0.00873075 -0.0610675 -0.0610675
-0.00891121 -0.0636912 -0.0636912
-0.0136145 -0.0664744 -0.0664744
-0.0141498 -0.0719826 -0.0719826
-0.00475396 -0.071815 -0.071815
-0.00457143 -0.066305 -0.066305
-0.0138825 -0.0692024 -0.0692024
-0.00945016 -0.0718765 -0.0718765
-0.00466276 -0.0690339 -0.0690339
-0.00909126 -0.0663673 -0.0663673
-0.00927091 -0.0690958 -0.0690958
-0.0141498 -0.0719826 -0.0719826
-0.0146825 -0.077699 -0.077699
-0.00493592 -0.0775333 -0.0775333
-0.00475396 -0.071815 -0.071815
-0.0144165 -0.0748148 -0.0748148
-0.00980748 -0.077594 -0.077594
-0.00484501 -0.0746482 -0.0746482
-0.00945016 -0.0718765 -0.0718765
-0.00962902 -0.0747093 -0.0747093
-0.0146825 -0.077699 -0.077699
-0.0152126 -0.0836225 -0.0836225
-0.00511734 -0.0834586 -0.0834586
-0.00493592 -0.0775333 -0.0775333
-0.0149479 -0.080635 -0.080635
-0.0101632 -0.0835185 -0.0835185
-0.0050267 -0.0804701 -0.0804701
-0.00980748 -0.077594 -0.077594
-0.00998555 -0.0805305 -0.0805305
-0.0152126 -0.0836225 -0.0836225
-0.0157401 -0.0897518 -0.0897518
-0.00529822 -0.0895898 -0.0895898
-0.00511734 -0.0834586 -0.0834586
-0.0154766 -0.0866615 -0.0866615
-0.0105174 -0.0896489 -0.0896489
-0.00520784 -0.0864985 -0.0864985
-0.0101632 -0.0835185 -0.0835185
-0.0103405 -0.0865581 -0.0865581
-0.0157401 -0.0897518 -0.0897518
-0.016265 -0.0960858 -0.0960858
-0.00547857 -0.0959256 -0.0959256
-0.00529822 -0.0895898 -0.0895898
-0.0160028 -0.0928933 -0.0928933
-0.01087 -0.0959839 -0.0959839
-0.00538846 -0.0927322 -0.0927322
-0.0105174 -0.0896489 -0.0896489
-0.0106939 -0.0927909 -0.0927909
-0.016265 -0.0960858 -0.0960858
-0.0167874 -0.102623 -0.102623
-0.00565841 -0.102465 -0.102465
-0.00547857 -0.0959256 -0.0959256
-0.0165265 -0.0993291 -0.0993291
-0.0112211 -0.102522 -0.102522
-0.00556855 -0.0991699 -0.0991699
-0.01087 -0.0959839 -0.0959839
-0.0110458 -0.0992278 -0.0992278
-0.0167874 -0.102623 -0.102623
-0.0173072 -0.109363 -0.109363
-0.00583776 -0.109206 -0.109206
-0.00565841 -0.102465 -0.102465
-0.0170476 -0.105968 -0.105968
-0.0115707 -0.109263 -0.109263
-0.00574815 -0.10581 -0.10581
-0.0112211 -0.102522 -0.102522
-0.0113961 -0.105868 -0.105868
-0.0173072 -0.109363 -0.109363
-0.0178245 -0.116303 -0.116303
-0.00601662 -0.116149 -0.116149
-0.00583776 -0.109206 -0.109206
-0.0175661 -0.112808 -0.112808
-0.0119188 -0.116205 -0.116205
-0.00592725 -0.112653 -0.112653
-0.0115707 -0.109263 -0.109263
-0.011745 -0.112709 -0.112709
-0.0178245 -0.116303 -0.116303
-0.0183393 -0.123444 -0.123444
-0.00619501 -0.123291 -0.123291
-0.00601662 -0.116149 -0.116149
-0.0180822 -0.119849 -0.119849
-0.0122654 -0.123346 -0.123346
-0.00610588 -0.119695 -0.119695
-0.0119188 -0.116205 -0.116205
-0.0120923 -0.119751 -0.119751
-0.0183393 -0.123444 -0.123444
-0.0188515 -0.130783 -0.130783
-0.00637295 -0.130632 -0.130632
-0.00619501 -0.123291 -0.123291
-0.0185957 -0.127088 -0.127088
-0.0126105 -0.130686 -0.130686
-0.00628404 -0.126937 -0.126937
-0.0122654 -0.123346 -0.123346
-0.0124381 -0.126991 -0.126991
-0.0188515 -0.130783 -0.130783
-0.0193613 -0.138319 -0.138319
-0.00655043 -0.13817 -0.13817
-0.00637295 -0.130632 -0.130632
-0.0191067 -0.134526 -0.134526
-0.0129541 -0.138224 -0.138224
-0.00646174 -0.134377 -0.134377
-0.0126105 -0.130686 -0.130686
-0.0127825 -0.13443 -0.13443
-0.0193613 -0.138319 -0.138319
-0.0198686 -0.146051 -0.146051
-0.00672748 -0.145905 -0.145905
-0.00655043 -0.13817 -0.13817
-0.0196153 -0.142161 -0.142161
-0.0132963 -0.145957 -0.145957
-0.00663901 -0.142013 -0.142013
-0.0129541 -0.138224 -0.138224
-0.0131254 -0.142066 -0.142066
-0.0198686 -0.146051 -0.146051
-0.0203734 -0.153979 -0.153979
-0.0069041 -0.153834 -0.153834
-0.00672748 -0.145905 -0.145905
-0.0201213 -0.149991 -0.149991
-0.013637 -0.153886 -0.153886
-0.00681584 -0.149845 -0.149845
-0.0132963 -0.145957 -0.145957
-0.0134668 -0.149897 -0.149897
-0.0203734 -0.153979 -0.153979
-0.0208758 -0.1621 -0.1621
-0.00708032 -0.161957 -0.161957
-0.0069041 -0.153834 -0.153834
-0.0206249 -0.158015 -0.158015
-0.0139763 -0.162008 -0.162008
-0.00699226 -0.157872 -0.157872
-0.013637 -0.153886 -0.153886
-0.0138069 -0.157923 -0.157923
-0.0208758 -0.1621 -0.1621
-0.0213757 -0.170413 -0.170413
-0.00725612 -0.170273 -0.170273
-0.00708032 -0.161957 -0.161957
-0.0211261 -0.166232 -0.166232
-0.0143142 -0.170323 -0.170323
-0.00716827 -0.166091 -0.166091
-0.0139763 -0.162008 -0.162008
-0.0141454 -0.166141 -0.166141
-0.0213757 -0.170413 -0.170413
-0.0218732 -0.178918 -0.178918
-0.00743154 -0.17878 -0.17878
-0.00725612 -0.170273 -0.170273
-0.0216248 -0.174642 -0.174642
-0.0146506 -0.178829 -0.178829
-0.00734388 -0.174503 -0.174503
-0.0143142 -0.170323 -0.170323
-0.0144826 -0.174552 -0.174552
-0.0218732 -0.178918 -0.178918
-0.0223683 -0.187613 -0.187613
-0.00760658 -0.187477 -0.187477
-0.00743154 -0.17878 -0.17878
-0.0221211 -0.183242 -0.183242
-0.0149857 -0.187525 -0.187525
-0.00751911 -0.183105 -0.183105
-0.0146506 -0.178829 -0.178829
-0.0148183 -0.183153 -0.183153
-0.0223683 -0.187613 -0.187613
-0.0228609 -0.196497 -0.196497
-0.00778124 -0.196363 -0.196363
-0.00760658 -0.187477 -0.187477
-0.0226149 -0.192032 -0.192032
-0.0153193 -0.19641 -0.19641
-0.00769395 -0.191897 -0.191897
-0.0149857 -0.187525 -0.187525
-0.0151527 -0.191944 -0.191944
-0.0228609 -0.196497 -0.196497
-0.0233512 -0.205569 -0.205569
-0.00795554 -0.205437 -0.205437
-0.00778124 -0.196363 -0.196363
-0.0231064 -0.20101 -0.20101
-0.0156516 -0.205483 -0.205483
-0.00786844 -0.200877 -0.200877
-0.0153193 -0.19641 -0.19641
-0.0154856 -0.200923 -0.200923
-0.0233512 -0.205569 -0.205569
-0.023839 -0.214827 -0.214827
-0.00812949 -0.214697 -0.214697
-0.00795554 -0.205437 -0.205437
-0.0235954 -0.210175 -0.210175
-0.0159825 -0.214742 -0.214742
-0.00804256 -0.210044 -0.210044
-0.0156516 -0.205483 -0.205483
-0.0158172 -0.210089 -0.210089
-0.023839 -0.214827 -0.214827
-0.0243245 -0.22427 -0.22427
-0.0083031 -0.224143 -0.224143
-0.00812949 -0.214697 -0.214697
-0.024082 -0.219525 -0.219525
-0.016312 -0.224187 -0.224187
-0.00821634 -0.219397 -0.219397
-0.0159825 -0.214742 -0.214742
-0.0161474 -0.219441 -0.219441
-0.0243245 -0.22427 -0.22427
-0.0248075 -0.233898 -0.233898
-0.00847637 -0.233772 -0.233772
-0.0083031 -0.224143 -0.224143
-0.0245663 -0.229061 -0.229061
-0.0166402 -0.233815 -0.233815
-0.00838978 -0.228935 -0.228935
-0.016312 -0.224187 -0.224187
-0.0164763 -0.228978 -0.228978
-0.0248075 -0.233898 -0.233898
-0.0252882 -0.243708 -0.243708
-0.00864932 -0.243585 -0.243585
-0.00847637 -0.233772 -0.233772
-0.0250482 -0.23878 -0.23878
-0.016967 -0.243627 -0.243627
-0.00856289 -0.238656 -0.238656
-0.0166402 -0.233815 -0.233815
-0.0168038 -0.238698 -0.238698
-0.0252882 -0.243708 -0.243708
-0.0257666 -0.2537 -0.2537
-0.00882195 -0.253579 -0.253579
-0.00864932 -0.243585 -0.243585
-0.0255277 -0.248681 -0.248681
-0.0172925 -0.25362 -0.25362
-0.00873567 -0.248559 -0.248559
-0.016967 -0.243627 -0.243627
-0.0171299 -0.248601 -0.248601
-0.0257666 -0.2537 -0.2537
-0.0262426 -0.263872 -0.263872
-0.00899427 -0.263753 -0.263753
-0.00882195 -0.253579 -0.253579
-0.0260049 -0.258763 -0.258763
-0.0176167 -0.263793 -0.263793
-0.00890815 -0.258644 -0.258644
-0.0172925 -0.25362 -0.25362
-0.0174548 -0.258684 -0.258684
-0.0262426 -0.263872 -0.263872
-0.0267162 -0.274223 -0.274223
-0.00916629 -0.274107 -0.274107
-0.00899427 -0.263753 -0.263753
-0.0264797 -0.269025 -0.269025
-0.0179395 -0.274146 -0.274146
-0.00908032 -0.268908 -0.268908
-0.0176167 -0.263793 -0.263793
-0.0177782 -0.268947 -0.268947
-0.0267162 -0.274223 -0.274223
-0.0271875 -0.284753 -0.284753
-0.00933802 -0.284639 -0.284639
-0.00916629 -0.274107 -0.274107
-0.0269522 -0.279466 -0.279466
-0.018261 -0.284677 -0.284677
-0.00925219 -0.279351 -0.279351
-0.0179395 -0.274146 -0.274146
-0.0181004 -0.279389 -0.279389
-0.0271875 -0.284753 -0.284753
-0.0276565 -0.295459 -0.295459
-0.00950946 -0.295347 -0.295347
-0.00933802 -0.284639 -0.284639
-0.0274223 -0.290084 -0.290084
-0.0185812 -0.295384 -0.295384
-0.00942378 -0.289971 -0.289971
-0.018261 -0.284677 -0.284677
-0.0184213 -0.290009 -0.290009
-0.0276565 -0.295459 -0.295459
-0.0281231 -0.306341 -0.306341
-0.00968063 -0.306231 -0.306231
-0.00950946 -0.295347 -0.295347
-0.0278901 -0.300878 -0.300878
-0.0189001 -0.306267 -0.306267
-0.00959508 -0.300768 -0.300768
-0.0185812 -0.295384 -0.295384
-0.0187408 -0.300804 -0.300804
-0.0281231 -0.306341 -0.306341
-0.0285875 -0.317397 -0.317397
-0.00985152 -0.31729 -0.31729
-0.00968063 -0.306231 -0.306231
-0.0283556 -0.311847 -0.311847
-0.0192177 -0.317325 -0.317325
-0.0097661 -0.311739 -0.311739
-0.0189001 -0.306267 -0.306267
-0.0190591 -0.311774 -0.311774
-0.0285875 -0.317397 -0.317397
-0.0290495 -0.328626 -0.328626
-0.0100221 -0.328522 -0.328522
-0.00985152 -0.31729 -0.31729
-0.0288188 -0.32299 -0.32299
-0.0195341 -0.328556 -0.328556
-0.00993686 -0.322884 -0.322884
-0.0192177 -0.317325 -0.317325
-0.0193761 -0.322919 -0.322919
-0.0290495 -0.328626 -0.328626
-0.0295092 -0.340028 -0.340028
-0.0101925 -0.339925 -0.339925
-0.0100221 -0.328522 -0.328522
-0.0292796 -0.334305 -0.334305
-0.0198491 -0.339958 -0.339958
-0.0101074 -0.334202 -0.334202
-0.0195341 -0.328556 -0.328556
-0.0196917 -0.334235 -0.334235
-0.0295092 -0.340028 -0.340028
-0.0299666 -0.3516 -0.3516
-0.0103626 -0.3515 -0.3515
-0.0101925 -0.339925 -0.339925
-0.0297382 -0.345792 -0.345792
-0.0201629 -0.351531 -0.351531
-0.0102776 -0.345691 -0.345691
-0.0198491 -0.339958 -0.339958
-0.0200061 -0.345724 -0.345724
-0.0299666 -0.3516 -0.3516
-0.0304217 -0.363341 -0.363341
-0.0105325 -0.363243 -0.363243
-0.0103626 -0.3515 -0.3515
-0.0301945 -0.357449 -0.357449
-0.0204754 -0.363274 -0.363274
-0.0104476 -0.35735 -0.35735
-0.0201629 -0.351531 -0.351531
-0.0203193 -0.357382 -0.357382
-0.0304217 -0.363341 -0.363341
-0.0308746 -0.375251 -0.375251
-0.0107021 -0.375156 -0.375156
-0.0105325 -0.363243 -0.363243
-0.0306484 -0.369275 -0.369275
-0.0207866 -0.375185 -0.375185
-0.0106173 -0.369179 -0.369179
-0.0204754 -0.363274 -0.363274
-0.0206311 -0.369209 -0.369209
-0.0308746 -0.375251 -0.375251
-0.0313251 -0.387328 -0.387328
-0.0108715 -0.387235 -0.387235
-0.0107021 -0.375156 -0.375156
-0.0311001 -0.381269 -0.381269
-0.0210966 -0.387264 -0.387264
-0.0107868 -0.381174 -0.381174
-0.0207866 -0.375185 -0.375185
-0.0209417 -0.381204 -0.381204
-0.0313251 -0.387328 -0.387328
-0.0317734 -0.399571 -0.399571
-0.0110407 -0.39948 -0.39948
-0.0108715 -0.387235 -0.387235
-0.0315496 -0.393429 -0.393429
-0.0214053 -0.399508 -0.399508
-0.0109561 -0.393337 -0.393337
-0.0210966 -0.387264 -0.387264
-0.0212511 -0.393365 -0.393365
-0.0317734 -0.399571 -0.399571
-0.0322194 -0.411978 -0.411978
-0.0112096 -0.41189 -0.41189
-0.0110407 -0.39948 -0.39948
-0.0319967 -0.405754 -0.405754
-0.0217128 -0.411917 -0.411917
-0.0111252 -0.405665 -0.405665
-0.0214053 -0.399508 -0.399508
-0.0215592 -0.405692 -0.405692
-0.0322194 -0.411978 -0.411978
-0.0326632 -0.424549 -0.424549
-0.0113783 -0.424463 -0.424463
-0.0112096 -0.41189 -0.41189
-0.0324416 -0.418243 -0.418243
-0.022019 -0.424489 -0.424489
-0.011294 -0.418156 -0.418156
-0.0217128 -0.411917 -0.411917
-0.021866 -0.418182 -0.418182
-0.0326632 -0.424549 -0.424549
-0.0331047 -0.437282 -0.437282
-0.0115468 -0.437199 -0.437199
-0.0113783 -0.424463 -0.424463
-0.0328842 -0.430896 -0.430896
-0.022324 -0.437224 -0.437224
-0.0114626 -0.430811 -0.430811
-0.022019 -0.424489 -0.424489
-0.0221716 -0.430836 -0.430836
-0.0331047 -0.437282 -0.437282
-0.0335439 -0.450177 -0.450177
-0.0117151 -0.450096 -0.450096
-0.0115468 -0.437199 -0.437199
-0.0333246 -0.44371 -0.44371
-0.0226277 -0.450119 -0.450119
-0.011631 -0.443627 -0.443627
-0.022324 -0.437224 -0.437224
-0.022476 -0.443651 -0.443651
-0.0335439 -0.450177 -0.450177
-0.0339809 -0.463231 -0.463231
-0.0118832 -0.463152 -0.463152
-0.0117151 -0.450096 -0.450096
-0.0337627 -0.456684 -0.456684
-0.0229303 -0.463175 -0.463175
-0.0117992 -0.456604 -0.456604
-0.0226277 -0.450119 -0.450119
-0.0227791 -0.456627 -0.456627
-0.0339809 -0.463231 -0.463231
-0.0344156 -0.476444 -0.476444
-0.0120511 -0.476367 -0.476367
-0.0118832 -0.463152 -0.463152
-0.0341985 -0.469817 -0.469817
-0.0232316 -0.476389 -0.476389
-0.0119671 -0.46974 -0.46974
-0.0229303 -0.463175 -0.463175
-0.0230811 -0.469762 -0.469762
-0.0344156 -0.476444 -0.476444
-0.0348481 -0.489814 -0.489814
-0.0122187 -0.48974 -0.48974
-0.0120511 -0.476367 -0.476367
-0.0346321 -0.483109 -0.483109
-0.0235316 -0.48976 -0.48976
-0.0121349 -0.483034 -0.483034
-0.0232316 -0.476389 -0.476389
-0.0233817 -0.483055 -0.483055
-0.0348481 -0.489814 -0.489814
-0.0352783 -0.50334 -0.50334
-0.0123862 -0.503269 -0.503269
-0.0122187 -0.48974 -0.48974
-0.0350635 -0.496558 -0.496558
-0.0238305 -0.503288 -0.503288
-0.0123025 -0.496485 -0.496485
-0.0235316 -0.48976 -0.48976
-0.0236812 -0.496505 -0.496505
-0.0352783 -0.50334 -0.50334
-0.0357063 -0.517022 -0.517022
-0.0125535 -0.516953 -0.516953
-0.0123862 -0.503269 -0.503269
-0.0354926 -0.510162 -0.510162
-0.0241281 -0.516971 -0.516971
-0.0124699 -0.510092 -0.510092
-0.0238305 -0.503288 -0.503288
-0.0239795 -0.51011 -0.51011
-0.0357063 -0.517022 -0.517022
-0.0361321 -0.530857 -0.530857
-0.0127206 -0.53079 -0.53079
-0.0125535 -0.516953 -0.516953
-0.0359195 -0.52392 -0.52392
-0.0244245 -0.530807 -0.530807
-0.012637 -0.523852 -0.523852
-0.0241281 -0.516971 -0.516971
-0.0242765 -0.52387 -0.52387
-0.0361321 -0.530857 -0.530857
-0.0365556 -0.544844 -0.544844
-0.0128875 -0.544781 -0.544781
-0.0127206 -0.53079 -0.53079
-0.0363441 -0.537832 -0.537832
-0.0247198 -0.544796 -0.544796
-0.012804 -0.537766 -0.537766
-0.0244245 -0.530807 -0.530807
-0.0245723 -0.537783 -0.537783
-0.0365556 -0.544844 -0.544844
-0.0369769 -0.558984 -0.558984
-0.0130542 -0.558922 -0.558922
-0.0128875 -0.544781 -0.544781
-0.0367665 -0.551895 -0.551895
-0.0250138 -0.558937 -0.558937
-0.0129708 -0.551832 -0.551832
-0.0247198 -0.544796 -0.544796
-0.0248669 -0.551848 -0.551848
-0.0369769 -0.558984 -0.558984
-0.0373959 -0.573273 -0.573273
-0.0132207 -0.573214 -0.573214
-0.0130542 -0.558922 -0.558922
-0.0371867 -0.56611 -0.56611
-0.0253066 -0.573227 -0.573227
-0.0131375 -0.566049 -0.566049
-0.0250138 -0.558937 -0.558937
-0.0251603 -0.566063 -0.566063
-0.0373959 -0.573273 -0.573273
-0.0378128 -0.587711 -0.587711
-0.0133871 -0.587654 -0.587654
-0.0132207 -0.573214 -0.573214
-0.0376046 -0.580473 -0.580473
-0.0255982 -0.587667 -0.587667
-0.0133039 -0.580416 -0.580416
-0.0253066 -0.573227 -0.573227
-0.0254525 -0.580429 -0.580429
-0.0378128 -0.587711 -0.587711
-0.0382274 -0.602297 -0.602297
-0.0135532 -0.602243 -0.602243
-0.0133871 -0.587654 -0.587654
-0.0380204 -0.594986 -0.594986
-0.0258885 -0.602254 -0.602254
-0.0134702 -0.59493 -0.59493
-0.0255982 -0.587667 -0.587667
-0.0257435 -0.594942 -0.594942
-0.0382274 -0.602297 -0.602297
-0.0386398 -0.617029 -0.617029
-0.0137192 -0.616978 -0.616978
-0.0135532 -0.602243 -0.602243
-0.0384339 -0.609645 -0.609645
-0.0261777 -0.616988 -0.616988
-0.0136362 -0.609592 -0.609592
-0.0258885 -0.602254 -0.602254
-0.0260333 -0.609603 -0.609603
-0.0386398 -0.617029 -0.617029
-0.03905 -0.631907 -0.631907
-0.013885 -0.631858 -0.631858
-0.0137192 -0.616978 -0.616978
-0.0388451 -0.62445 -0.62445
-0.0264657 -0.631867 -0.631867
-0.0138021 -0.6244 -0.6244
-0.0261777 -0.616988 -0.616988
-0.0263219 -0.62441 -0.62441
-0.03905 -0.631907 -0.631907
-0.0394579 -0.646929 -0.646929
-0.0140507 -0.646882 -0.646882
-0.013885 -0.631858 -0.631858
-0.0392542 -0.6394 -0.6394
-0.0267525 -0.64689 -0.64689
-0.0139679 -0.639352 -0.639352
-0.0264657 -0.631867 -0.631867
-0.0266093 -0.639361 -0.639361
-0.0394579 -0.646929 -0.646929
-0.0398636 -0.662094 -0.662094
-0.0142161 -0.66205 -0.66205
-0.0140507 -0.646882 -0.646882
-0.039661 -0.654494 -0.654494
-0.0270381 -0.662057 -0.662057
-0.0141334 -0.654448 -0.654448
-0.0267525 -0.64689 -0.64689
-0.0268955 -0.654456 -0.654456
-0.0398636 -0.662094 -0.662094
-0.0402671 -0.6774 -0.6774
-0.0143814 -0.677359 -0.677359
-0.0142161 -0.66205 -0.66205
-0.0400657 -0.66973 -0.66973
-0.0273225 -0.677364 -0.677364
-0.0142988 -0.669686 -0.669686
-0.0270381 -0.662057 -0.662057
-0.0271805 -0.669693 -0.669693
-0.0402671 -0.6774 -0.6774
-0.0406684 -0.692847 -0.692847
-0.0145465 -0.692808 -0.692808
-0.0143814 -0.677359 -0.677359
-0.0404681 -0.685106 -0.685106
-0.0276057 -0.692813 -0.692813
-0.014464 -0.685066 -0.685066
-0.0273225 -0.677364 -0.677364
-0.0274642 -0.685071 -0.685071
-0.0406684 -0.692847 -0.692847
-0.0410675 -0.708434 -0.708434
-0.0147115 -0.708397 -0.708397
-0.0145465 -0.692808 -0.692808
-0.0408682 -0.700623 -0.700623
-0.0278877 -0.7084 -0.7084
-0.014629 -0.700585 -0.700585
-0.0276057 -0.692813 -0.692813
-0.0277468 -0.700589 -0.700589
-0.0410675 -0.708434 -0.708434
-0.0414643 -0.724158 -0.724158
-0.0148762 -0.724123 -0.724123
-0.0147115 -0.708397 -0.708397
-0.0412662 -0.716278 -0.716278
-0.0281685 -0.724126 -0.724126
-0.0147939 -0.716243 -0.716243
-0.0278877 -0.7084 -0.7084
-0.0280283 -0.716246 -0.716246
-0.0414643 -0.724158 -0.724158
-0.041859 -0.740019 -0.740019
-0.0150408 -0.739987 -0.739987
-0.0148762 -0.724123 -0.724123
-0.0416619 -0.732071 -0.732071
-0.0284481 -0.739988 -0.739988
-0.0149585 -0.732038 -0.732038
-0.0281685 -0.724126 -0.724126
-0.0283085 -0.73204 -0.73204
-0.041859 -0.740019 -0.740019
-0.0422514 -0.756016 -0.756016
-0.0152052 -0.755986 -0.755986
-0.0150408 -0.739987 -0.739987
-0.0420554 -0.748 -0.748
-0.0287265 -0.755986 -0.755986
-0.015123 -0.74797 -0.74797
-0.0284481 -0.739988 -0.739988
-0.0285875 -0.747971 -0.747971
-0.0422514 -0.756016 -0.756016
-0.0426416 -0.772147 -0.772147
-0.0153695 -0.77212 -0.77212
-0.0152052 -0.755986 -0.755986
-0.0424468 -0.764064 -0.764064
-0.0290038 -0.772119 -0.772119
-0.0152874 -0.764036 -0.764036
-0.0287265 -0.755986 -0.755986
-0.0288653 -0.764036 -0.764036
-0.0426416 -0.772147 -0.772147
-0.0430295 -0.788411 -0.788411
-0.0155335 -0.788386 -0.788386
-0.0153695 -0.77212 -0.77212
-0.0428358 -0.780262 -0.780262
-0.0292798 -0.788385 -0.788385
-0.0154515 -0.780236 -0.780236
-0.0290038 -0.772119 -0.772119
-0.0291419 -0.780235 -0.780235
-0.0430295 -0.788411 -0.788411
-0.0434153 -0.804807 -0.804807
-0.0156974 -0.804785 -0.804785
-0.0155335 -0.788386 -0.788386
-0.0432227 -0.796593 -0.796593
-0.0295546 -0.804782 -0.804782
-0.0156155 -0.796569 -0.796569
-0.0292798 -0.788385 -0.788385
-0.0294173 -0.796567 -0.796567
-0.0434153 -0.804807 -0.804807
-0.0437988 -0.821334 -0.821334
-0.0158612 -0.821315 -0.821315
-0.0156974 -0.804785 -0.804785
-0.0436073 -0.813055 -0.813055
-0.0298282 -0.821311 -0.821311
-0.0157793 -0.813034 -0.813034
-0.0295546 -0.804782 -0.804782
-0.0296916 -0.81303 -0.81303
-0.0437988 -0.821334 -0.821334
-0.0441801 -0.837991 -0.837991
-0.0160247 -0.837974 -0.837974
-0.0158612 -0.821315 -0.821315
-0.0439898 -0.829647 -0.829647
-0.0301006 -0.837969 -0.837969
-0.0159429 -0.829628 -0.829628
-0.0298282 -0.821311 -0.821311
-0.0299646 -0.829624 -0.829624
-0.0441801 -0.837991 -0.837991
-0.0445592 -0.854776 -0.854776
-0.0161881 -0.854761 -0.854761
-0.0160247 -0.837974 -0.837974
-0.04437 -0.846368 -0.846368
-0.0303719 -0.854755 -0.854755
-0.0161064 -0.846352 -0.846352
-0.0301006 -0.837969 -0.837969
-0.0302364 -0.846346 -0.846346
-0.0445592 -0.854776 -0.854776
-0.0449361 -0.871688 -0.871688
-0.0163512 -0.871676 -0.871676
-0.0161881 -0.854761 -0.854761
-0.0447479 -0.863216 -0.863216
-0.0306419 -0.871669 -0.871669
-0.0162697 -0.863203 -0.863203
-0.0303719 -0.854755 -0.854755
-0.030507 -0.863196 -0.863196
-0.0449361 -0.871688 -0.871688
-0.0453107 -0.888727 -0.888727
-0.0165142 -0.888717 -0.888717
-0.0163512 -0.871676 -0.871676
-0.0451237 -0.880192 -0.880192
-0.0309107 -0.888708 -0.888708
-0.0164328 -0.880181 -0.880181
-0.0306419 -0.871669 -0.871669
-0.0307764 -0.880173 -0.880173
-0.0453107 -0.888727 -0.888727
-0.0456831 -0.905889 -0.905889
-0.016677 -0.905882 -0.905882
-0.0165142 -0.888717 -0.888717
-0.0454972 -0.897292 -0.897292
-0.0311783 -0.905873 -0.905873
-0.0165957 -0.897284 -0.897284
-0.0309107 -0.888708 -0.888708
-0.0310447 -0.897275 -0.897275
-0.0456831 -0.905889 -0.905889
-0.0460533 -0.923176 -0.923176
-0.0168397 -0.923171 -0.923171
-0.016677 -0.905882 -0.905882
-0.0458685 -0.914517 -0.914517
-0.0314447 -0.92316 -0.92316
-0.0167584 -0.914511 -0.914511
-0.0311783 -0.905873 -0.905873
-0.0313117 -0.914501 -0.914501
-0.0460533 -0.923176 -0.923176
-0.0464212 -0.940585 -0.940585
-0.0170021 -0.940582 -0.940582
-0.0168397 -0.923171 -0.923171
-0.0462375 -0.931865 -0.931865
-0.0317099 -0.94057 -0.94057
-0.0169209 -0.931861 -0.931861
-0.0314447 -0.92316 -0.92316
-0.0315775 -0.93185 -0.93185
-0.0464212 -0.940585 -0.940585
-0.0467869 -0.958114 -0.958114
-0.0171644 -0.958114 -0.958114
-0.0170021 -0.940582 -0.940582
-0.0466044 -0.949334 -0.949334
-0.0319739 -0.958102 -0.958102
-0.0170833 -0.949333 -0.949333
-0.0317099 -0.94057 -0.94057
-0.031842 -0.949321 -0.949321
-0.0467869 -0.958114 -0.958114
-0.0471504 -0.975764 -0.975764
-0.0173264 -0.975767 -0.975767
-0.0171644 -0.958114 -0.958114
-0.0469689 -0.966924 -0.966924
-0.0322366 -0.975753 -0.975753
-0.0172454 -0.966926 -0.966926
-0.0319739 -0.958102 -0.958102
-0.0321054 -0.966912 -0.966912
-0.0471504 -0.975764 -0.975764
-0.0475116 -0.993533 -0.993533
-0.0174883 -0.993537 -0.993537
-0.0173264 -0.975767 -0.975767
-0.0473313 -0.984634 -0.984634
-0.0324982 -0.993522 -0.993522
-0.0174074 -0.984637 -0.984637
-0.0322366 -0.975753 -0.975753
-0.0323676 -0.984623 -0.984623
-0.0475116 -0.993533 -0.993533
-0.0478706 -1.01142 -1.01142
-0.0176499 -1.01143 -1.01143
-0.0174883 -0.993537 -0.993537
-0.0476914 -1.00246 -1.00246
-0.0327585 -1.01141 -1.01141
-0.0175691 -1.00247 -1.00247
-0.0324982 -0.993522 -0.993522
-0.0326285 -1.00245 -1.00245
-0.0478706 -1.01142 -1.01142
-0.0482273 -1.02942 -1.02942
-0.0178114 -1.02943 -1.02943
-0.0176499 -1.01143 -1.01143
-0.0480492 -1.02041 -1.02041
-0.0330176 -1.02941 -1.02941
-0.0177307 -1.02041 -1.02041
-0.0327585 -1.01141 -1.01141
-0.0328882 -1.0204 -1.0204
-0.0482273 -1.02942 -1.02942
-0.0485818 -1.04754 -1.04754
-0.0179726 -1.04755 -1.04755
-0.0178114 -1.02943 -1.02943
-0.0484048 -1.03846 -1.03846
-0.0332754 -1.04753 -1.04753
-0.017892 -1.03848 -1.03848
-0.0330176 -1.02941 -1.02941
-0.0331467 -1.03846 -1.03846
-0.0485818 -1.04754 -1.04754
-0.048934 -1.06577 -1.06577
-0.0181337 -1.06578 -1.06578
-0.0179726 -1.04755 -1.04755
-0.0487582 -1.05664 -1.05664
-0.0335321 -1.06576 -1.06576
-0.0180532 -1.05665 -1.05665
-0.0332754 -1.04753 -1.04753
-0.0334039 -1.05663 -1.05663
-0.048934 -1.06577 -1.06577
-0.049284 -1.08411 -1.08411
-0.0182945 -1.08413 -1.08413
-0.0181337 -1.06578 -1.06578
-0.0491093 -1.07493 -1.07493
-0.0337875 -1.08411 -1.08411
-0.0182141 -1.07494 -1.07494
-0.0335321 -1.06576 -1.06576
-0.0336599 -1.07492 -1.07492
-0.049284 -1.08411 -1.08411
-0.0496317 -1.10257 -1.10257
-0.0184551 -1.10259 -1.10259
-0.0182945 -1.08413 -1.08413
-0.0494581 -1.09333 -1.09333
-0.0340416 -1.10257 -1.10257
-0.0183748 -1.09334 -1.09334
-0.0337875 -1.08411 -1.08411
-0.0339147 -1.09332 -1.09332
-0.0496317 -1.10257 -1.10257
-0.0499771 -1.12113 -1.12113
-0.0186155 -1.12115 -1.12115
-0.0184551 -1.10259 -1.10259
-0.0498047 -1.11184 -1.11184
-0.0342945 -1.12113 -1.12113
-0.0185353 -1.11186 -1.11186
-0.0340416 -1.10257 -1.10257
-0.0341682 -1.11183 -1.11183
-0.0499771 -1.12113 -1.12113
-0.0503203 -1.13981 -1.13981
-0.0187757 -1.13983 -1.13983
-0.0186155 -1.12115 -1.12115
-0.050149 -1.13046 -1.13046
-0.0345462 -1.13981 -1.13981
-0.0186956 -1.13048 -1.13048
-0.0342945 -1.12113 -1.12113
-0.0344205 -1.13046 -1.13046
-0.0503203 -1.13981 -1.13981
-0.0506612 -1.15859 -1.15859
-0.0189356 -1.15862 -1.15862
-0.0187757 -1.13983 -1.13983
-0.050491 -1.14918 -1.14918
-0.0347966 -1.15859 -1.15859
-0.0188557 -1.14921 -1.14921
-0.0345462 -1.13981 -1.13981
-0.0346716 -1.14919 -1.14919
-0.0506612 -1.15859 -1.15859
-0.0509998 -1.17748 -1.17748
-0.0190953 -1.17751 -1.17751
-0.0189356 -1.15862 -1.15862
-0.0508308 -1.16802 -1.16802
-0.0350458 -1.17748 -1.17748
-0.0190155 -1.16805 -1.16805
-0.0347966 -1.15859 -1.15859
-0.0349214 -1.16802 -1.16802
-0.0509998 -1.17748 -1.17748
-0.0513361 -1.19647 -1.19647
-0.0192548 -1.1965 -1.1965
-0.0190953 -1.17751 -1.17751
-0.0511683 -1.18696 -1.18696
-0.0352937 -1.19648 -1.19648
-0.0191751 -1.18699 -1.18699
-0.0350458 -1.17748 -1.17748
-0.0351699 -1.18697 -1.18697
-0.0513361 -1.19647 -1.19647
-0.0516702 -1.21557 -1.21557
-0.019414 -1.2156 -1.2156
-0.0192548 -1.1965 -1.1965
-0.0515034 -1.20601 -1.20601
-0.0355403 -1.21558 -1.21558
-0.0193344 -1.20604 -1.20604
-0.0352937 -1.19648 -1.19648
-0.0354172 -1.20601 -1.20601
-0.0516702 -1.21557 -1.21557
-0.0520019 -1.23477 -1.23477
-0.0195729 -1.23481 -1.23481
-0.019414 -1.2156 -1.2156
-0.0518363 -1.22516 -1.22516
-0.0357857 -1.23478 -1.23478
-0.0194935 -1.22519 -1.22519
-0.0355403 -1.21558 -1.21558
-0.0356632 -1.22516 -1.22516
-0.0520019 -1.23477 -1.23477
-0.0523314 -1.25407 -1.25407
-0.0197317 -1.25411 -1.25411
-0.0195729 -1.23481 -1.23481
-0.0521669 -1.24441 -1.24441
-0.0360298 -1.25408 -1.25408
-0.0196523 -1.24445 -1.24445
-0.0357857 -1.23478 -1.23478
-0.0359079 -1.24442 -1.24442
-0.0523314 -1.25407 -1.25407
-0.0526585 -1.27348 -1.27348
-0.0198901 -1.27352 -1.27352
-0.0197317 -1.25411 -1.25411
-0.0524952 -1.26376 -1.26376
-0.0362726 -1.27349 -1.27349
-0.0198109 -1.2638 -1.2638
-0.0360298 -1.25408 -1.25408
-0.0361513 -1.26377 -1.26377
-0.0526585 -1.27348 -1.27348
-0.0529834 -1.29298 -1.29298
-0.0200483 -1.29302 -1.29302
-0.0198901 -1.27352 -1.27352
-0.0528212 -1.28322 -1.28322
-0.0365141 -1.29299 -1.29299
-0.0199693 -1.28326 -1.28326
-0.0362726 -1.27349 -1.27349
-0.0363935 -1.28323 -1.28323
-0.0529834 -1.29298 -1.29298
-0.0533059 -1.31258 -1.31258
-0.0202063 -1.31263 -1.31263
-0.0200483 -1.29302 -1.29302
-0.0531449 -1.30277 -1.30277
-0.0367543 -1.31259 -1.31259
-0.0201273 -1.30281 -1.30281
-0.0365141 -1.29299 -1.29299
-0.0366344 -1.30278 -1.30278
-0.0533059 -1.31258 -1.31258
-0.0536261 -1.33228 -1.33228
-0.0203639 -1.33233 -1.33233
-0.0202063 -1.31263 -1.31263
-0.0534663 -1.32242 -1.32242
-0.0369933 -1.33229 -1.33229
-0.0202851 -1.32246 -1.32246
-0.0367543 -1.31259 -1.31259
-0.036874 -1.32243 -1.32243
-0.0536261 -1.33228 -1.33228
-0.053944 -1.35207 -1.35207
-0.0205213 -1.35212 -1.35212
-0.0203639 -1.33233 -1.33233
-0.0537854 -1.34216 -1.34216
-0.0372309 -1.35209 -1.35209
-0.0204426 -1.34221 -1.34221
-0.0369933 -1.33229 -1.33229
-0.0371122 -1.34218 -1.34218
-0.053944 -1.35207 -1.35207
-0.0542596 -1.37196 -1.37196
-0.0206784 -1.37201 -1.37201
-0.0205213 -1.35212 -1.35212
-0.0541021 -1.362 -1.362
-0.0374672 -1.37198 -1.37198
-0.0205999 -1.36205 -1.36205
-0.0372309 -1.35209 -1.35209
-0.0373492 -1.36202 -1.36202
-0.0542596 -1.37196 -1.37196
-0.0545728 -1.39194 -1.39194
-0.0208352 -1.39199 -1.39199
-0.0206784 -1.37201 -1.37201
-0.0544165 -1.38194 -1.38194
-0.0377022 -1.39196 -1.39196
-0.0207568 -1.38199 -1.38199
-0.0374672 -1.37198 -1.37198
-0.0375849 -1.38195 -1.38195
-0.0545728 -1.39194 -1.39194
-0.0548837 -1.41201 -1.41201
-0.0209917 -1.41207 -1.41207
-0.0208352 -1.39199 -1.39199
-0.0547285 -1.40197 -1.40197
-0.0379359 -1.41203 -1.41203
-0.0209135 -1.40202 -1.40202
-0.0377022 -1.39196 -1.39196
-0.0378192 -1.40198 -1.40198
-0.0548837 -1.41201 -1.41201
-0.0551922 -1.43218 -1.43218
-0.0211479 -1.43224 -1.43224
-0.0209917 -1.41207 -1.41207
-0.0550382 -1.42208 -1.42208
-0.0381683 -1.4322 -1.4322
-0.0210698 -1.42214 -1.42214
-0.0379359 -1.41203 -1.41203
-0.0380523 -1.4221 -1.4221
-0.0551922 -1.43218 -1.43218
-0.0554984 -1.45243 -1.45243
-0.0213038 -1.45249 -1.45249
-0.0211479 -1.43224 -1.43224
-0.0553456 -1.44229 -1.44229
-0.0383993 -1.45245 -1.45245
-0.0212259 -1.44235 -1.44235
-0.0381683 -1.4322 -1.4322
-0.038284 -1.44231 -1.44231
-0.0554984 -1.45243 -1.45243
-0.0558022 -1.47277 -1.47277
-0.0214593 -1.47284 -1.47284
-0.0213038 -1.45249 -1.45249
-0.0556506 -1.46259 -1.46259
-0.038629 -1.4728 -1.4728
-0.0213816 -1.46265 -1.46265
-0.0383993 -1.45245 -1.45245
-0.0385143 -1.46261 -1.46261
-0.0558022 -1.47277 -1.47277
-0.0561036 -1.4932 -1.4932
-0.0216146 -1.49327 -1.49327
-0.0214593 -1.47284 -1.47284
-0.0559532 -1.48298 -1.48298
-0.0388573 -1.49323 -1.49323
-0.021537 -1.48304 -1.48304
-0.038629 -1.4728 -1.4728
-0.0387433 -1.483 -1.483
-0.0561036 -1.4932 -1.4932
-0.0564027 -1.51372 -1.51372
-0.0217695 -1.51378 -1.51378
-0.0216146 -1.49327 -1.49327
-0.0562534 -1.50345 -1.50345
-0.0390843 -1.51374 -1.51374
-0.0216921 -1.50352 -1.50352
-0.0388573 -1.49323 -1.49323
-0.038971 -1.50347 -1.50347
-0.0564027 -1.51372 -1.51372
-0.0566994 -1.53432 -1.53432
-0.0219241 -1.53439 -1.53439
-0.0217695 -1.51378 -1.51378
-0.0565513 -1.52401 -1.52401
-0.03931 -1.53434 -1.53434
-0.0218468 -1.52408 -1.52408
-0.0390843 -1.51374 -1.51374
-0.0391973 -1.52403 -1.52403
-0.0566994 -1.53432 -1.53432
-0.0569936 -1.555 -1.555
-0.0220783 -1.55507 -1.55507
-0.0219241 -1.53439 -1.53439
-0.0568468 -1.54465 -1.54465
-0.0395342 -1.55503 -1.55503
-0.0220012 -1.54472 -1.54472
-0.03931 -1.53434 -1.53434
-0.0394223 -1.54468 -1.54468
-0.0569936 -1.555 -1.555
-0.0572855 -1.57577 -1.57577
-0.0222322 -1.57584 -1.57584
-0.0220783 -1.55507 -1.55507
-0.0571399 -1.56537 -1.56537
-0.0397571 -1.5758 -1.5758
-0.0221553 -1.56545 -1.56545
-0.0395342 -1.55503 -1.55503
-0.0396459 -1.5654 -1.5654
-0.0572855 -1.57577 -1.57577
-0.057575 -1.59661 -1.59661
-0.0223857 -1.59669 -1.59669
-0.0222322 -1.57584 -1.57584
-0.0574306 -1.58618 -1.58618
-0.0399786 -1.59664 -1.59664
-0.022309 -1.58626 -1.58626
-0.0397571 -1.5758 -1.5758
-0.0398681 -1.58621 -1.58621
-0.057575 -1.59661 -1.59661
-0.0578621 -1.61754 -1.61754
-0.0225389 -1.61762 -1.61762
-0.0223857 -1.59669 -1.59669
-0.0577189 -1.60707 -1.60707
-0.0401988 -1.61757 -1.61757
-0.0224623 -1.60714 -1.60714
-0.0399786 -1.59664 -1.59664
-0.0400889 -1.6071 -1.6071
-0.0578621 -1.61754 -1.61754
-0.0581468 -1.63855 -1.63855
-0.0226917 -1.63863 -1.63863
-0.0225389 -1.61762 -1.61762
-0.0580048 -1.62803 -1.62803
-0.0404175 -1.63858 -1.63858
-0.0226153 -1.62811 -1.62811
-0.0401988 -1.61757 -1.61757
-0.0403083 -1.62807 -1.62807
-0.0581468 -1.63855 -1.63855
-0.058429 -1.65963 -1.65963
-0.0228441 -1.65971 -1.65971
-0.0226917 -1.63863 -1.63863
-0.0582882 -1.64908 -1.64908
-0.0406348 -1.65966 -1.65966
-0.0227679 -1.64916 -1.64916
-0.0404175 -1.63858 -1.63858
-0.0405263 -1.64911 -1.64911
-0.058429 -1.65963 -1.65963
-0.0587088 -1.68079 -1.68079
-0.0229961 -1.68087 -1.68087
-0.0228441 -1.65971 -1.65971
-0.0585692 -1.6702 -1.6702
-0.0408507 -1.68082 -1.68082
-0.0229201 -1.67028 -1.67028
-0.0406348 -1.65966 -1.65966
-0.0407429 -1.67023 -1.67023
-0.0587088 -1.68079 -1.68079
-0.0589862 -1.70202 -1.70202
-0.0231477 -1.70211 -1.70211
-0.0229961 -1.68087 -1.68087
-0.0588478 -1.6914 -1.6914
-0.0410652 -1.70206 -1.70206
-0.0230719 -1.69148 -1.69148
-0.0408507 -1.68082 -1.68082
-0.0409581 -1.69143 -1.69143
-0.0589862 -1.70202 -1.70202
-0.0592611 -1.72333 -1.72333
-0.0232989 -1.72342 -1.72342
-0.0231477 -1.70211 -1.70211
-0.059124 -1.71267 -1.71267
-0.0412783 -1.72337 -1.72337
-0.0232234 -1.71276 -1.71276
-0.0410652 -1.70206 -1.70206
-0.0411719 -1.71271 -1.71271
-0.0592611 -1.72333 -1.72333
-0.0595336 -1.74471 -1.74471
-0.0234497 -1.7448 -1.7448
-0.0232989 -1.72342 -1.72342
-0.0593976 -1.73401 -1.73401
-0.0414899 -1.74475 -1.74475
-0.0233744 -1.7341 -1.7341
-0.0412783 -1.72337 -1.72337
-0.0413843 -1.73405 -1.73405
-0.0595336 -1.74471 -1.74471
-0.0598036 -1.76617 -1.76617
-0.0236001 -1.76626 -1.76626
-0.0234497 -1.7448 -1.7448
-0.0596689 -1.75543 -1.75543
-0.0417001 -1.76621 -1.76621
-0.023525 -1.75552 -1.75552
-0.0414899 -1.74475 -1.74475
-0.0415952 -1.75547 -1.75547
-0.0598036 -1.76617 -1.76617
-0.0600711 -1.78769 -1.78769
-0.02375 -1.78778 -1.78778
-0.0236001 -1.76626 -1.76626
-0.0599376 -1.77692 -1.77692
-0.0419088 -1.78773 -1.78773
-0.0236751 -1.77701 -1.77701
-0.0417001 -1.76621 -1.76621
-0.0418046 -1.77696 -1.77696
-0.0600711 -1.78769 -1.78769
-0.0603361 -1.80928 -1.80928
-0.0238996 -1.80938 -1.80938
-0.02375 -1.78778 -1.78778
-0.0602039 -1.79848 -1.79848
-0.0421161 -1.80932 -1.80932
-0.0238249 -1.79857 -1.79857
-0.0419088 -1.78773 -1.78773
-0.0420126 -1.79852 -1.79852
-0.0603361 -1.80928 -1.80928
-0.0605986 -1.83094 -1.83094
-0.0240486 -1.83104 -1.83104
-0.0238996 -1.80938 -1.80938
-0.0604677 -1.8201 -1.8201
-0.0423219 -1.83098 -1.83098
-0.0239741 -1.8202 -1.8202
-0.0421161 -1.80932 -1.80932
-0.0422192 -1.82014 -1.82014
-0.0605986 -1.83094 -1.83094
-0.0608587 -1.85267 -1.85267
-0.0241972 -1.85277 -1.85277
-0.0240486 -1.83104 -1.83104
-0.060729 -1.8418 -1.8418
-0.0425262 -1.85271 -1.85271
-0.024123 -1.8419 -1.8419
-0.0423219 -1.83098 -1.83098
-0.0424242 -1.84184 -1.84184
-0.0608587 -1.85267 -1.85267
-0.0611162 -1.87446 -1.87446
-0.0243454 -1.87456 -1.87456
-0.0241972 -1.85277 -1.85277
-0.0609878 -1.86356 -1.86356
-0.0427291 -1.8745 -1.8745
-0.0242714 -1.86366 -1.86366
-0.0425262 -1.85271 -1.85271
-0.0426278 -1.8636 -1.8636
-0.0611162 -1.87446 -1.87446
-0.0613712 -1.89632 -1.89632
-0.0244931 -1.89642 -1.89642
-0.0243454 -1.87456 -1.87456
-0.061244 -1.88538 -1.88538
-0.0429304 -1.89636 -1.89636
-0.0244193 -1.88548 -1.88548
-0.0427291 -1.8745 -1.8745
-0.0428299 -1.88542 -1.88542
-0.0613712 -1.89632 -1.89632
-0.0616237 -1.91823 -1.91823
-0.0246403 -1.91834 -1.91834
-0.0244931 -1.89642 -1.89642
-0.0614978 -1.90727 -1.90727
-0.0431303 -1.91828 -1.91828
-0.0245667 -1.90737 -1.90737
-0.0429304 -1.89636 -1.89636
-0.0430305 -1.90731 -1.90731
-0.0616237 -1.91823 -1.91823
-0.0618737 -1.94022 -1.94022
-0.024787 -1.94032 -1.94032
-0.0246403 -1.91834 -1.91834
-0.061749 -1.92922 -1.92922
-0.0433286 -1.94026 -1.94026
-0.0247137 -1.92932 -1.92932
-0.0431303 -1.91828 -1.91828
-0.0432296 -1.92926 -1.92926
-0.0618737 -1.94022 -1.94022
-0.0621211 -1.96226 -1.96226
-0.0249332 -1.96237 -1.96237
-0.024787 -1.94032 -1.94032
-0.0619977 -1.95123 -1.95123
-0.0435254 -1.96231 -1.96231
-0.0248601 -1.95134 -1.95134
-0.0433286 -1.94026 -1.94026
-0.0434272 -1.95128 -1.95128
-0.0621211 -1.96226 -1.96226
-0.062366 -1.98436 -1.98436
-0.0250789 -1.98447 -1.98447
-0.0249332 -1.96237 -1.96237
-0.0622439 -1.9733 -1.9733
-0.0437207 -1.98441 -1.98441
-0.0250061 -1.97341 -1.97341
-0.0435254 -1.96231 -1.96231
-0.0436232 -1.97335 -1.97335
-0.062366 -1.98436 -1.98436
-0.0626083 -2.00652 -2.00652
-0.0252241 -2.00663 -2.00663
-0.0250789 -1.98447 -1.98447
-0.0624875 -1.99543 -1.99543
-0.0439144 -2.00657 -2.00657
-0.0251515 -1.99554 -1.99554
-0.0437207 -1.98441 -1.98441
-0.0438178 -1.99548 -1.99548
-0.0626083 -2.00652 -2.00652
-0.062848 -2.02873 -2.02873
-0.0253687 -2.02885 -2.02885
-0.0252241 -2.00663 -2.00663
-0.0627285 -2.01762 -2.01762
-0.0441066 -2.02878 -2.02878
-0.0252965 -2.01773 -2.01773
-0.0439144 -2.00657 -2.00657
-0.0440107 -2.01767 -2.01767
-0.062848 -2.02873 -2.02873
-0.0630852 -2.051 -2.051
-0.0255128 -2.05112 -2.05112
-0.0253687 -2.02885 -2.02885
-0.0629669 -2.03986 -2.03986
-0.0442973 -2.05106 -2.05106
-0.0254409 -2.03998 -2.03998
-0.0441066 -2.02878 -2.02878
-0.0442022 -2.03991 -2.03991
-0.0630852 -2.051 -2.051
-0.0633197 -2.07333 -2.07333
-0.0256564 -2.07345 -2.07345
-0.0255128 -2.05112 -2.05112
-0.0632028 -2.06216 -2.06216
-0.0444863 -2.07338 -2.07338
-0.0255847 -2.06228 -2.06228
-0.0442973 -2.05106 -2.05106
-0.044392 -2.06221 -2.06221
-0.0633197 -2.07333 -2.07333
-0.0635517 -2.09571 -2.09571
-0.0257994 -2.09583 -2.09583
-0.0256564 -2.07345 -2.07345
-0.063436 -2.08451 -2.08451
-0.0446738 -2.09576 -2.09576
-0.025728 -2.08463 -2.08463
-0.0444863 -2.07338 -2.07338
-0.0445803 -2.08457 -2.08457
-0.0635517 -2.09571 -2.09571
-0.063781 -2.11814 -2.11814
-0.0259419 -2.11826 -2.11826
-0.0257994 -2.09583 -2.09583
-0.0636667 -2.10692 -2.10692
-0.0448598 -2.1182 -2.1182
-0.0258708 -2.10704 -2.10704
-0.0446738 -2.09576 -2.09576
-0.044767 -2.10697 -2.10697
-0.063781 -2.11814 -2.11814
-0.0640078 -2.14062 -2.14062
-0.0260838 -2.14075 -2.14075
-0.0259419 -2.11826 -2.11826
-0.0638947 -2.12938 -2.12938
-0.0450441 -2.14068 -2.14068
-0.0260129 -2.1295 -2.1295
-0.0448598 -2.1182 -2.1182
-0.0449521 -2.12943 -2.12943
-0.0640078 -2.14062 -2.14062
-0.0642319 -2.16315 -2.16315
-0.0262251 -2.16328 -2.16328
-0.0260838 -2.14075 -2.14075
-0.0641202 -2.15188 -2.15188
-0.0452268 -2.16321 -2.16321
-0.0261545 -2.15201 -2.15201
-0.0450441 -2.14068 -2.14068
-0.0451356 -2.15194 -2.15194
-0.0642319 -2.16315 -2.16315
-0.0644534 -2.18574 -2.18574
-0.0263658 -2.18586 -2.18586
-0.0262251 -2.16328 -2.16328
-0.064343 -2.17444 -2.17444
-0.0454079 -2.18579 -2.18579
-0.0262955 -2.17457 -2.17457
-0.0452268 -2.16321 -2.16321
-0.0453175 -2.1745 -2.1745
-0.0644534 -2.18574 -2.18574
-0.0646722 -2.20836 -2.20836
-0.0265059 -2.20849 -2.20849
-0.0263658 -2.18586 -2.18586
-0.0645631 -2.19704 -2.19704
-0.0455873 -2.20842 -2.20842
-0.0264359 -2.19717 -2.19717
-0.0454079 -2.18579 -2.18579
-0.0454978 -2.1971 -2.1971
-0.0646722 -2.20836 -2.20836
-0.0648884 -2.23104 -2.23104
-0.0266454 -2.23117 -2.23117
-0.0265059 -2.20849 -2.20849
-0.0647806 -2.21969 -2.21969
-0.0457652 -2.2311 -2.2311
-0.0265758 -2.21983 -2.21983
-0.0455873 -2.20842 -2.20842
-0.0456765 -2.21976 -2.21976
-0.0648884 -2.23104 -2.23104
-0.0651019 -2.25376 -2.25376
-0.0267843 -2.25389 -2.25389
-0.0266454 -2.23117 -2.23117
-0.0649954 -2.24239 -2.24239
-0.0459414 -2.25382 -2.25382
-0.0267149 -2.24252 -2.24252
-0.0457652 -2.2311 -2.2311
-0.0458535 -2.24245 -2.24245
-0.0651019 -2.25376 -2.25376
-0.0653127 -2.27652 -2.27652
-0.0269225 -2.27665 -2.27665
-0.0267843 -2.25389 -2.25389
-0.0652076 -2.26513 -2.26513
-0.0461159 -2.27658 -2.27658
-0.0268535 -2.26527 -2.26527
-0.0459414 -2.25382 -2.25382
-0.0460288 -2.26519 -2.26519
-0.0653127 -2.27652 -2.27652
-0.0655208 -2.29932 -2.29932
-0.0270601 -2.29946 -2.29946
-0.0269225 -2.27665 -2.27665
-0.0654171 -2.28791 -2.28791
-0.0462888 -2.29939 -2.29939
-0.0269914 -2.28805 -2.28805
-0.0461159 -2.27658 -2.27658
-0.0462025 -2.28798 -2.28798
-0.0655208 -2.29932 -2.29932
-0.0657262 -2.32217 -2.32217
-0.0271971 -2.32231 -2.32231
-0.0270601 -2.29946 -2.29946
-0.0656239 -2.31074 -2.31074
-0.04646 -2.32223 -2.32223
-0.0271287 -2.31088 -2.31088
-0.0462888 -2.29939 -2.29939
-0.0463746 -2.31081 -2.31081
-0.0657262 -2.32217 -2.32217
-0.065929 -2.34505 -2.34505
-0.0273334 -2.34519 -2.34519
-0.0271971 -2.32231 -2.32231
-0.065828 -2.33361 -2.33361
-0.0466295 -2.34512 -2.34512
-0.0272653 -2.33375 -2.33375
-0.04646 -2.32223 -2.32223
-0.0465449 -2.33367 -2.33367
-0.065929 -2.34505 -2.34505
-0.066129 -2.36798 -2.36798
-0.027469 -2.36812 -2.36812
-0.0273334 -2.34519 -2.34519
-0.0660293 -2.35651 -2.35651
-0.0467973 -2.36805 -2.36805
-0.0274013 -2.35665 -2.35665
-0.0466295 -2.34512 -2.34512
-0.0467136 -2.35658 -2.35658
-0.066129 -2.36798 -2.36798
-0.0663263 -2.39094 -2.39094
-0.0276039 -2.39108 -2.39108
-0.027469 -2.36812 -2.36812
-0.066228 -2.37946 -2.37946
-0.0469634 -2.39101 -2.39101
-0.0275365 -2.3796 -2.3796
-0.0467973 -2.36805 -2.36805
-0.0468805 -2.37952 -2.37952
-0.0663263 -2.39094 -2.39094
-0.0665208 -2.41394 -2.41394
-0.0277381 -2.41408 -2.41408
-0.0276039 -2.39108 -2.39108
-0.0664239 -2.40244 -2.40244
-0.0471278 -2.41401 -2.41401
-0.0276711 -2.40258 -2.40258
-0.0469634 -2.39101 -2.39101
-0.0470458 -2.4025 -2.4025
-0.0665208 -2.41394 -2.41394
-0.0667126 -2.43697 -2.43697
-0.0278717 -2.43712 -2.43712
-0.0277381 -2.41408 -2.41408
-0.0666171 -2.42545 -2.42545
-0.0472904 -2.43704 -2.43704
-0.027805 -2.4256 -2.4256
-0.0471278 -2.41401 -2.41401
-0.0472093 -2.42552 -2.42552
-0.0667126 -2.43697 -2.43697
-0.0669016 -2.46004 -2.46004
-0.0280045 -2.46019 -2.46019
-0.0278717 -2.43712 -2.43712
-0.0668075 -2.4485 -2.4485
-0.0474514 -2.46011 -2.46011
-0.0279382 -2.44865 -2.44865
-0.0472904 -2.43704 -2.43704
-0.0473711 -2.44857 -2.44857
-0.0669016 -2.46004 -2.46004
-0.0670879 -2.48314 -2.48314
-0.0281366 -2.48329 -2.48329
-0.0280045 -2.46019 -2.46019
-0.0669951 -2.47159 -2.47159
-0.0476105 -2.48321 -2.48321
-0.0280706 -2.47174 -2.47174
-0.0474514 -2.46011 -2.46011
-0.0475312 -2.47166 -2.47166
-0.0670879 -2.48314 -2.48314
-0.0672714 -2.50627 -2.50627
-0.0282679 -2.50642 -2.50642
-0.0281366 -2.48329 -2.48329
-0.06718 -2.4947 -2.4947
-0.0477679 -2.50635 -2.50635
-0.0282023 -2.49485 -2.49485
-0.0476105 -2.48321 -2.48321
-0.0476895 -2.49478 -2.49478
-0.0672714 -2.50627 -2.50627
-0.0674521 -2.52943 -2.52943
-0.0283985 -2.52959 -2.52959
-0.0282679 -2.50642 -2.50642
-0.0673621 -2.51785 -2.51785
-0.0479236 -2.52951 -2.52951
-0.0283333 -2.518 -2.518
-0.0477679 -2.50635 -2.50635
-0.047846 -2.51792 -2.51792
-0.0674521 -2.52943 -2.52943
-0.06763 -2.55263 -2.55263
-0.0285284 -2.55278 -2.55278
-0.0283985 -2.52959 -2.52959
-0.0675414 -2.54103 -2.54103
-0.0480775 -2.5527 -2.5527
-0.0284635 -2.54118 -2.54118
-0.0479236 -2.52951 -2.52951
-0.0480008 -2.5411 -2.5411
-0.06763 -2.55263 -2.55263
-0.067805 -2.57585 -2.57585
-0.0286575 -2.576 -2.576
-0.0285284 -2.55278 -2.55278
-0.0677179 -2.56423 -2.56423
-0.0482295 -2.57592 -2.57592
-0.028593 -2.56439 -2.56439
-0.0480775 -2.5527 -2.5527
-0.0481537 -2.56431 -2.56431
-0.067805 -2.57585 -2.57585
-0.0679773 -2.59909 -2.59909
-0.0287857 -2.59925 -2.59925
-0.0286575 -2.576 -2.576
-0.0678915 -2.58746 -2.58746
-0.0483798 -2.59917 -2.59917
-0.0287217 -2.58762 -2.58762
-0.0482295 -2.57592 -2.57592
-0.0483049 -2.58754 -2.58754
-0.0679773 -2.59909 -2.59909
-0.0681467 -2.62236 -2.62236
-0.0289133 -2.62252 -2.62252
-0.0287857 -2.59925 -2.59925
-0.0680624 -2.61072 -2.61072
-0.0485283 -2.62244 -2.62244
-0.0288496 -2.61088 -2.61088
-0.0483798 -2.59917 -2.59917
-0.0484543 -2.6108 -2.6108
-0.0681467 -2.62236 -2.62236
-0.0683133 -2.64566 -2.64566
-0.02904 -2.64582 -2.64582
-0.0289133 -2.62252 -2.62252
-0.0682304 -2.63401 -2.63401
-0.0486749 -2.64574 -2.64574
-0.0289767 -2.63417 -2.63417
-0.0485283 -2.62244 -2.62244
-0.0486018 -2.63408 -2.63408
-0.0683133 -2.64566 -2.64566
-0.068477 -2.66898 -2.66898
-0.0291659 -2.66914 -2.66914
-0.02904 -2.64582 -2.64582
-0.0683955 -2.65731 -2.65731
-0.0488197 -2.66905 -2.66905
-0.029103 -2.65748 -2.65748
-0.0486749 -2.64574 -2.64574
-0.0487476 -2.65739 -2.65739
-0.068477 -2.66898 -2.66898
-0.0686378 -2.69232 -2.69232
-0.0292909 -2.69248 -2.69248
-0.0291659 -2.66914 -2.66914
-0.0685578 -2.68064 -2.68064
-0.0489627 -2.6924 -2.6924
-0.0292285 -2.68081 -2.68081
-0.0488197 -2.66905 -2.66905
-0.0488914 -2.68072 -2.68072
-0.0686378 -2.69232 -2.69232
-0.0687958 -2.71568 -2.71568
-0.0294152 -2.71584 -2.71584
-0.0292909 -2.69248 -2.69248
-0.0687172 -2.70399 -2.70399
-0.0491038 -2.71576 -2.71576
-0.0293532 -2.70416 -2.70416
-0.0489627 -2.6924 -2.6924
-0.0490335 -2.70407 -2.70407
-0.0687958 -2.71568 -2.71568
-0.0689509 -2.73906 -2.73906
-0.0295386 -2.73922 -2.73922
-0.0294152 -2.71584 -2.71584
-0.0688737 -2.72737 -2.72737
-0.049243 -2.73914 -2.73914
-0.029477 -2.72753 -2.72753
-0.0491038 -2.71576 -2.71576
-0.0491737 -2.72745 -2.72745
-0.0689509 -2.73906 -2.73906
-0.0691031 -2.76246 -2.76246
-0.0296611 -2.76262 -2.76262
-0.0295386 -2.73922 -2.73922
-0.0690274 -2.75075 -2.75075
-0.0493804 -2.76254 -2.76254
-0.0296 -2.75092 -2.75092
-0.049243 -2.73914 -2.73914
-0.049312 -2.75084 -2.75084
-0.0691031 -2.76246 -2.76246
-0.0692523 -2.78587 -2.78587
-0.0297828 -2.78604 -2.78604
-0.0296611 -2.76262 -2.76262
-0.0691781 -2.77416 -2.77416
-0.0495159 -2.78595 -2.78595
-0.0297221 -2.77433 -2.77433
-0.0493804 -2.76254 -2.76254
-0.0494484 -2.77424 -2.77424
-0.0692523 -2.78587 -2.78587
-0.0693987 -2.8093 -2.8093
-0.0299036 -2.80947 -2.80947
-0.0297828 -2.78604 -2.78604
-0.0693259 -2.79759 -2.79759
-0.0496494 -2.80939 -2.80939
-0.0298433 -2.79775 -2.79775
-0.0495159 -2.78595 -2.78595
-0.0495829 -2.79767 -2.79767
-0.0693987 -2.8093 -2.8093
-0.0695421 -2.83275 -2.83275
-0.0300235 -2.83292 -2.83292
-0.0299036 -2.80947 -2.80947
-0.0694708 -2.82102 -2.82102
-0.0497811 -2.83283 -2.83283
-0.0299636 -2.82119 -2.82119
-0.0496494 -2.80939 -2.80939
-0.0497155 -2.82111 -2.82111
-0.0695421 -2.83275 -2.83275
-0.0696825 -2.85621 -2.85621
-0.0301424 -2.85638 -2.85638
-0.0300235 -2.83292 -2.83292
-0.0696127 -2.84448 -2.84448
-0.0499108 -2.85629 -2.85629
-0.0300831 -2.84465 -2.84465
-0.0497811 -2.83283 -2.83283
-0.0498462 -2.84456 -2.84456
-0.0696825 -2.85621 -2.85621
-0.0698198 -2.87968 -2.87968
-0.0302605 -2.87985 -2.87985
-0.0301424 -2.85638 -2.85638
-0.0697515 -2.86794 -2.86794
-0.0500384 -2.87977 -2.87977
-0.0302016 -2.86812 -2.86812
-0.0499108 -2.85629 -2.85629
-0.0499748 -2.86803 -2.86803
-0.0698198 -2.87968 -2.87968
-0.0699541 -2.90316 -2.90316
-0.0303775 -2.90334 -2.90334
-0.0302605 -2.87985 -2.87985
-0.0698874 -2.89142 -2.89142
-0.050164 -2.90325 -2.90325
-0.0303191 -2.89159 -2.89159
-0.0500384 -2.87977 -2.87977
-0.0501015 -2.89151 -2.89151
-0.0699541 -2.90316 -2.90316
-0.0700851 -2.92665 -2.92665
-0.0304934 -2.92683 -2.92683
-0.0303775 -2.90334 -2.90334
-0.07002 -2.91491 -2.91491
-0.0502873 -2.92674 -2.92674
-0.0304356 -2.91508 -2.91508
-0.050164 -2.90325 -2.90325
-0.050226 -2.91499 -2.91499
-0.0700851 -2.92665 -2.92665
-0.0702126 -2.95015 -2.95015
-0.0306081 -2.95033 -2.95033
-0.0304934 -2.92683 -2.92683
-0.0701493 -2.9384 -2.9384
-0.0504083 -2.95024 -2.95024
-0.0305509 -2.93858 -2.93858
-0.0502873 -2.92674 -2.92674
-0.0503481 -2.93849 -2.93849
-0.0702126 -2.95015 -2.95015
-0.0703364 -2.97366 -2.97366
-0.0307216 -2.97384 -2.97384
-0.0306081 -2.95033 -2.95033
-0.070275 -2.96191 -2.96191
-0.0505267 -2.97375 -2.97375
-0.030665 -2.96209 -2.96209
-0.0504083 -2.95024 -2.95024
-0.0504678 -2.962 -2.962
-0.0703364 -2.97366 -2.97366
-0.0704561 -2.99718 -2.99718
-0.0308337 -2.99736 -2.99736
-0.0307216 -2.97384 -2.97384
-0.0703967 -2.98542 -2.98542
-0.0506423 -2.99727 -2.99727
-0.0307778 -2.9856 -2.9856
-0.0505267 -2.97375 -2.97375
-0.0505849 -2.98551 -2.98551
-0.0704561 -2.99718 -2.99718
-0.0705718 -3.0207 -3.0207
-0.0309446 -3.02088 -3.02088
-0.0308337 -2.99736 -2.99736
-0.0705144 -3.00894 -3.00894
-0.0507554 -3.02079 -3.02079
-0.0308893 -3.00912 -3.00912
-0.0506423 -2.99727 -2.99727
-0.0506992 -3.00903 -3.00903
-0.0705718 -3.0207 -3.0207
-0.0706842 -3.04422 -3.04422
-0.0310549 -3.0444 -3.0444
-0.0309446 -3.02088 -3.02088
-0.0706282 -3.03246 -3.03246
-0.0508667 -3.04431 -3.04431
-0.0309998 -3.03264 -3.03264
-0.0507554 -3.02079 -3.02079
-0.0508112 -3.03255 -3.03255
-0.0706842 -3.04422 -3.04422
-0.0707961 -3.06775 -3.06775
-0.0311648 -3.06792 -3.06792
-0.0310549 -3.0444 -3.0444
-0.07074 -3.05599 -3.05599
-0.0509781 -3.06783 -3.06783
-0.0311098 -3.05616 -3.05616
-0.0508667 -3.04431 -3.04431
-0.0509224 -3.05607 -3.05607
-0.0707961 -3.06775 -3.06775
-0.0709101 -3.09126 -3.09126
-0.0312757 -3.09142 -3.09142
-0.0311648 -3.06792 -3.06792
-0.0708527 -3.07951 -3.07951
-0.0510903 -3.09134 -3.09134
-0.0312201 -3.07967 -3.07967
-0.0509781 -3.06783 -3.06783
-0.051034 -3.07959 -3.07959
0 0 0
-0.000175666 2.84898e-05 2.84898e-05
0.000174937 2.83409e-05 2.83409e-05
0 0 0
-8.7444e-05 5.73239e-05 5.73239e-05
-3.66237e-07 3.88497e-05 3.88497e-05
8.70688e-05 5.72403e-05 5.72403e-05
0 0 0
-1.89336e-07 6.17108e-05 6.17108e-05
-0.000175666 2.84898e-05 2.84898e-05
-0.000365832 -0.000269547 -0.000269547
0.000364403 -0.00026983 -0.00026983
0.000174937 2.83409e-05 2.83409e-05
-0.000268979 -8.22977e-05 -8.22977e-05
-7.15452e-07 -0.000252504 -0.000252504
0.000267902 -8.25117e-05 -8.25117e-05
-3.66237e-07 3.88497e-05 3.88497e-05
-5.40082e-07 -6.79318e-05 -6.79318e-05
-0.000365832 -0.000269547 -0.000269547
-0.000562832 -0.000854033 -0.000854033
0.000560655 -0.000854468 -0.000854468
0.000364403 -0.00026983 -0.00026983
-0.000463802 -0.000527927 -0.000527927
-1.08557e-06 -0.000832049 -0.000832049
0.000462008 -0.000528284 -0.000528284
-7.15452e-07 -0.000252504 -0.000252504
-8.9589e-07 -0.000508245 -0.000508245
-0.000562832 -0.000854033 -0.000854033
-0.000764139 -0.00169886 -0.00169886
0.000761111 -0.00169948 -0.00169948
0.000560655 -0.000854468 -0.000854468
-0.0006632 -0.00124508 -0.00124508
-1.50734e-06 -0.00167459 -0.00167459
0.000660614 -0.0012456 -0.0012456
-1.08557e-06 -0.000832049 -0.000832049
-1.28849e-06 -0.00122164 -0.00122164
-0.000764139 -0.00169886 -0.00169886
-0.000965187 -0.00278791 -0.00278791
0.000961162 -0.00278872 -0.00278872
0.000761111 -0.00169948 -0.00169948
-0.000864815 -0.0022135 -0.0022135
-2.00342e-06 -0.00276281 -0.00276281
0.00086131 -0.00221421 -0.00221421
-1.50734e-06 -0.00167459 -0.00167459
-1.74464e-06 -0.00218869 -0.00218869
-0.000965187 -0.00278791 -0.00278791
-0.00116511 -0.00411293 -0.00411293
0.00115989 -0.00411397 -0.00411397
0.000961162 -0.00278872 -0.00278872
-0.00106534 -0.00342125 -0.00342125
-2.59769e-06 -0.00408795 -0.00408795
0.00106075 -0.00342217 -0.00342217
-2.00342e-06 -0.00276281 -0.00276281
-2.28681e-06 -0.00339613 -0.00339613
-0.00116511 -0.00411293 -0.00411293
-0.00136304 -0.0056696 -0.0056696
0.00135638 -0.00567089 -0.00567089
0.00115989 -0.00411397 -0.00411397
-0.00126432 -0.00486247 -0.00486247
-3.31341e-06 -0.00564501 -0.00564501
0.00125842 -0.00486363 -0.00486363
-2.59769e-06 -0.00408795 -0.00408795
-2.9389e-06 -0.00483767 -0.00483767
-0.00136304 -0.0056696 -0.0056696
-0.00155927 -0.00745579 -0.00745579
0.00155089 -0.00745735 -0.00745735
0.00135638 -0.00567089 -0.00567089
-0.00146135 -0.0065341 -0.0065341
-4.17393e-06 -0.00743167 -0.00743167
0.00145387 -0.00653552 -0.00653552
-3.31341e-06 -0.00564501 -0.00564501
-3.72417e-06 -0.00650974 -0.00650974
-0.00155927 -0.00745579 -0.00745579
-0.00175396 -0.00947013 -0.00947013
0.00174352 -0.00947199 -0.00947199
0.00155089 -0.00745735 -0.00745735
-0.00165679 -0.00843451 -0.00843451
-5.20129e-06 -0.00944644 -0.00944644
0.00164742 -0.00843622 -0.00843622
-4.17393e-06 -0.00743167 -0.00743167
-4.66542e-06 -0.00841061 -0.00841061
-0.00175396 -0.00947013 -0.00947013
-0.00194742 -0.0117115 -0.0117115
0.00193454 -0.0117137 -0.0117137
0.00174352 -0.00947199 -0.00947199
-0.00185083 -0.0105625 -0.0105625
-6.4165e-06 -0.0116883 -0.0116883
0.00183922 -0.0105645 -0.0105645
-5.20129e-06 -0.00944644 -0.00944644
-5.78415e-06 -0.010539 -0.010539
-0.00194742 -0.0117115 -0.0117115
-0.0021398 -0.014179 -0.014179
0.00212407 -0.0141816 -0.0141816
0.00193454 -0.0117137 -0.0117137
-0.00204373 -0.0129171 -0.0129171
-7.83947e-06 -0.0141561 -0.0141561
0.00202948 -0.0129195 -0.0129195
-6.4165e-06 -0.0116883 -0.0116883
-7.1008e-06 -0.012894 -0.012894
-0.0021398 -0.014179 -0.014179
-0.00233125 -0.0168715 -0.0168715
0.00231222 -0.0168744 -0.0168744
0.00212407 -0.0141816 -0.0141816
-0.00223563 -0.0154972 -0.0154972
-9.48934e-06 -0.0168489 -0.0168489
0.00221831 -0.0154999 -0.0154999
-7.83947e-06 -0.0141561 -0.0141561
-8.63488e-06 -0.0154745 -0.0154745
-0.00233125 -0.0168715 -0.0168715
-0.00252185 -0.0197878 -0.0197878
0.00249902 -0.0197912 -0.0197912
0.00231222 -0.0168744 -0.0168744
-0.00242665 -0.0183017 -0.0183017
-1.13846e-05 -0.0197656 -0.0197656
0.00240578 -0.0183049 -0.0183049
-9.48934e-06 -0.0168489 -0.0168489
-1.04052e-05 -0.0182794 -0.0182794
-0.00252185 -0.0197878 -0.0197878
-0.00271165 -0.0229269 -0.0229269
0.0026845 -0.0229307 -0.0229307
0.00249902 -0.0197912 -0.0197912
-0.00261685 -0.0213296 -0.0213296
-1.35433e-05 -0.0229051 -0.0229051
0.00259192 -0.0213331 -0.0213331
-1.13846e-05 -0.0197656 -0.0197656
-1.24299e-05 -0.0213076 -0.0213076
-0.00271165 -0.0229269 -0.0229269
-0.0029007 -0.0262875 -0.0262875
0.00286866 -0.0262918 -0.0262918
0.0026845 -0.0229307 -0.0229307
-0.00280627 -0.0245796 -0.0245796
-1.59831e-05 -0.0262661 -0.0262661
0.00277675 -0.0245836 -0.0245836
-1.35433e-05 -0.0229051 -0.0229051
-1.47269e-05 -0.0245579 -0.0245579
-0.0029007 -0.0262875 -0.0262875
-0.00308901 -0.0298685 -0.0298685
0.0030515 -0.0298733 -0.0298733
0.00286866 -0.0262918 -0.0262918
-0.00299494 -0.0280505 -0.0280505
-1.87213e-05 -0.0298475 -0.0298475
0.00296025 -0.0280551 -0.0280551
-1.59831e-05 -0.0262661 -0.0262661
-1.73138e-05 -0.0280293 -0.0280293
-0.00308901 -0.0298685 -0.0298685
-0.00327661 -0.0336687 -0.0336687
0.00323299 -0.033674 -0.033674
0.0030515 -0.0298733 -0.0298733
-0.0031829 -0.0317413 -0.0317413
-2.17751e-05 -0.033648 -0.033648
0.00314241 -0.0317463 -0.0317463
-1.87213e-05 -0.0298475 -0.0298475
-2.02077e-05 -0.0317204 -0.0317204
-0.00327661 -0.0336687 -0.0336687
-0.00346353 -0.0376868 -0.0376868
0.00341313 -0.0376927 -0.0376927
0.00323299 -0.033674 -0.033674
-0.00337016 -0.0356506 -0.0356506
-2.51613e-05 -0.0376666 -0.0376666
0.00332323 -0.0356562 -0.0356562
-2.17751e-05 -0.033648 -0.033648
-2.34256e-05 -0.0356301 -0.0356301
-0.00346353 -0.0376868 -0.0376868
-0.00364977 -0.0419217 -0.0419217
0.00359189 -0.0419282 -0.0419282
0.00341313 -0.0376927 -0.0376927
-0.00355673 -0.0397772 -0.0397772
-2.88964e-05 -0.0419019 -0.0419019
0.00350268 -0.0397834 -0.0397834
-2.51613e-05 -0.0376666 -0.0376666
-2.69842e-05 -0.0397572 -0.0397572
-0.00364977 -0.0419217 -0.0419217
-0.00383535 -0.0463721 -0.0463721
0.00376927 -0.0463792 -0.0463792
0.00359189 -0.0419282 -0.0419282
-0.00374264 -0.04412 -0.04412
-3.29968e-05 -0.0463527 -0.0463527
0.00368076 -0.0441268 -0.0441268
-2.88964e-05 -0.0419019 -0.0419019
-3.09e-05 -0.0441004 -0.0441004
-0.00383535 -0.0463721 -0.0463721
-0.00402029 -0.0510369 -0.0510369
0.00394524 -0.0510446 -0.0510446
0.00376927 -0.0463792 -0.0463792
-0.0039279 -0.0486778 -0.0486778
-3.74785e-05 -0.0510179 -0.0510179
0.00385743 -0.0486852 -0.0486852
-3.29968e-05 -0.0463527 -0.0463527
-3.5189e-05 -0.0486586 -0.0486586
-0.00402029 -0.0510369 -0.0510369
-0.00420461 -0.0559147 -0.0559147
0.0041198 -0.0559232 -0.0559232
0.00394524 -0.0510446 -0.0510446
-0.00411253 -0.0534492 -0.0534492
-4.23571e-05 -0.0558963 -0.0558963
0.0040327 -0.0534573 -0.0534573
-3.74785e-05 -0.0510179 -0.0510179
-3.98672e-05 -0.0534306 -0.0534306
-0.00420461 -0.0559147 -0.0559147
-0.00438831 -0.0610045 -0.0610045
0.00429292 -0.0610137 -0.0610137
0.0041198 -0.0559232 -0.0559232
-0.00429654 -0.0584332 -0.0584332
-4.76482e-05 -0.0609866 -0.0609866
0.00420654 -0.058442 -0.058442
-4.23571e-05 -0.0558963 -0.0558963
-4.49501e-05 -0.058415 -0.058415
-0.00438831 -0.0610045 -0.0610045
-0.00457143 -0.066305 -0.066305
0.00446459 -0.0663149 -0.0663149
0.00429292 -0.0610137 -0.0610137
-0.00447994 -0.0636285 -0.0636285
-5.33669e-05 -0.0662876 -0.0662876
0.00437894 -0.063638 -0.063638
-4.76482e-05 -0.0609866 -0.0609866
-5.04532e-05 -0.0636108 -0.0636108
-0.00457143 -0.066305 -0.066305
-0.00475396 -0.071815 -0.071815
0.0046348 -0.0718256 -0.0718256
0.00446459 -0.0663149 -0.0663149
-0.00466276 -0.0690339 -0.0690339
-5.95282e-05 -0.071798 -0.071798
0.00454988 -0.0690442 -0.0690442
-5.33669e-05 -0.0662876 -0.0662876
-5.63913e-05 -0.0690167 -0.0690167
-0.00475396 -0.071815 -0.071815
-0.00493592 -0.0775333 -0.0775333
0.00480352 -0.0775447 -0.0775447
0.0046348 -0.0718256 -0.0718256
-0.00484501 -0.0746482 -0.0746482
-6.61465e-05 -0.0775168 -0.0775168
0.00471935 -0.0746592 -0.0746592
-5.95282e-05 -0.071798 -0.071798
-6.27793e-05 -0.0746315 -0.0746315
-0.00493592 -0.0775333 -0.0775333
-0.00511734 -0.0834586 -0.0834586
0.00497076 -0.0834708 -0.0834708
0.00480352 -0.0775447 -0.0775447
-0.0050267 -0.0804701 -0.0804701
-7.32361e-05 -0.0834427 -0.0834427
0.00488733 -0.0804819 -0.0804819
-6.61465e-05 -0.0775168 -0.0775168
-6.96315e-05 -0.0804539 -0.0804539
-0.00511734 -0.0834586 -0.0834586
-0.00529822 -0.0895898 -0.0895898
0.00513648 -0.0896028 -0.0896028
0.00497076 -0.0834708 -0.0834708
-0.00520784 -0.0864985 -0.0864985
-8.08111e-05 -0.0895744 -0.0895744
0.00505381 -0.0865112 -0.0865112
-7.32361e-05 -0.0834427 -0.0834427
-7.69621e-05 -0.0864829 -0.0864829
-0.00529822 -0.0895898 -0.0895898
-0.00547857 -0.0959256 -0.0959256
0.00530068 -0.0959395 -0.0959395
0.00513648 -0.0896028 -0.0896028
-0.00538846 -0.0927322 -0.0927322
-8.88851e-05 -0.0959108 -0.0959108
0.00521877 -0.0927457 -0.0927457
-8.08111e-05 -0.0895744 -0.0895744
-8.47849e-05 -0.0927171 -0.0927171
-0.00547857 -0.0959256 -0.0959256
-0.00565841 -0.102465 -0.102465
0.00546335 -0.10248 -0.10248
0.00530068 -0.0959395 -0.0959395
-0.00556855 -0.0991699 -0.0991699
-9.74715e-05 -0.102451 -0.102451
0.00538221 -0.0991842 -0.0991842
-8.88851e-05 -0.0959108 -0.0959108
-9.31134e-05 -0.0991554 -0.0991554
-0.00565841 -0.102465 -0.102465
-0.00583776 -0.109206 -0.109206
0.00562447 -0.109222 -0.109222
0.00546335 -0.10248 -0.10248
-0.00574815 -0.10581 -0.10581
-0.000106584 -0.109193 -0.109193
0.00554411 -0.105826 -0.105826
-9.74715e-05 -0.102451 -0.102451
-0.000101961 -0.105796 -0.105796
-0.00583776 -0.109206 -0.109206
-0.00601662 -0.116149 -0.116149
0.00578403 -0.116165 -0.116165
0.00562447 -0.109222 -0.109222
-0.00592725 -0.112653 -0.112653
-0.000116234 -0.116136 -0.116136
0.00570445 -0.112669 -0.112669
-0.000106584 -0.109193 -0.109193
-0.000111341 -0.112639 -0.112639
-0.00601662 -0.116149 -0.116149
-0.00619501 -0.123291 -0.123291
0.00594202 -0.123309 -0.123309
0.00578403 -0.116165 -0.116165
-0.00610588 -0.119695 -0.119695
-0.000126435 -0.123279 -0.123279
0.00586322 -0.119712 -0.119712
-0.000116234 -0.116136 -0.116136
-0.000121265 -0.119682 -0.119682
-0.00619501 -0.123291 -0.123291
-0.00637295 -0.130632 -0.130632
0.00609842 -0.130651 -0.130651
0.00594202 -0.123309 -0.123309
-0.00628404 -0.126937 -0.126937
-0.000137199 -0.13062 -0.13062
0.00602042 -0.126955 -0.126955
-0.000126435 -0.123279 -0.123279
-0.000131746 -0.126925 -0.126925
-0.00637295 -0.130632 -0.130632
-0.00655043 -0.13817 -0.13817
0.00625322 -0.13819 -0.13819
0.00609842 -0.130651 -0.130651
-0.00646174 -0.134377 -0.134377
-0.000148539 -0.138159 -0.138159
0.00617602 -0.134396 -0.134396
-0.000137199 -0.13062 -0.13062
-0.000142797 -0.134365 -0.134365
-0.00655043 -0.13817 -0.13817
-0.00672748 -0.145905 -0.145905
0.00640642 -0.145925 -0.145925
0.00625322 -0.13819 -0.13819
-0.00663901 -0.142013 -0.142013
-0.000160465 -0.145894 -0.145894
0.00633002 -0.142033 -0.142033
-0.000148539 -0.138159 -0.138159
-0.000154428 -0.142002 -0.142002
-0.00672748 -0.145905 -0.145905
-0.0069041 -0.153834 -0.153834
0.00655799 -0.153856 -0.153856
0.00640642 -0.145925 -0.145925
-0.00681584 -0.149845 -0.149845
-0.00017299 -0.153824 -0.153824
0.00648241 -0.149866 -0.149866
-0.000160465 -0.145894 -0.145894
-0.000166652 -0.149835 -0.149835
-0.0069041 -0.153834 -0.153834
-0.00708032 -0.161957 -0.161957
0.00670793 -0.16198 -0.16198
0.00655799 -0.153856 -0.153856
-0.00699226 -0.157872 -0.157872
-0.000186123 -0.161948 -0.161948
0.00663317 -0.157894 -0.157894
-0.00017299 -0.153824 -0.153824
-0.00017948 -0.157862 -0.157862
-0.00708032 -0.161957 -0.161957
-0.00725612 -0.170273 -0.170273
0.00685623 -0.170297 -0.170297
0.00670793 -0.16198 -0.16198
-0.00716827 -0.166091 -0.166091
-0.000199877 -0.170264 -0.170264
0.00678229 -0.166114 -0.166114
-0.000186123 -0.161948 -0.161948
-0.000192922 -0.166082 -0.166082
-0.00725612 -0.170273 -0.170273
-0.00743154 -0.17878 -0.17878
0.00700288 -0.178805 -0.178805
0.00685623 -0.170297 -0.170297
-0.00734388 -0.174503 -0.174503
-0.000214262 -0.178772 -0.178772
0.00692976 -0.174527 -0.174527
-0.000199877 -0.170264 -0.170264
-0.00020699 -0.174494 -0.174494
-0.00743154 -0.17878 -0.17878
-0.00760658 -0.187477 -0.187477
0.00714786 -0.187503 -0.187503
0.00700288 -0.178805 -0.178805
-0.00751911 -0.183105 -0.183105
-0.000229287 -0.18747 -0.18747
0.00707558 -0.18313 -0.18313
-0.000214262 -0.178772 -0.178772
-0.000221694 -0.183097 -0.183097
-0.00760658 -0.187477 -0.187477
-0.00778124 -0.196363 -0.196363
0.00729117 -0.19639 -0.19639
0.00714786 -0.187503 -0.187503
-0.00769395 -0.191897 -0.191897
-0.000244964 -0.196357 -0.196357
0.00721972 -0.191923 -0.191923
-0.000229287 -0.18747 -0.18747
-0.000237044 -0.19189 -0.19189
-0.00778124 -0.196363 -0.196363
-0.00795554 -0.205437 -0.205437
0.00743279 -0.205465 -0.205465
0.00729117 -0.19639 -0.19639
-0.00786844 -0.200877 -0.200877
-0.000261301 -0.205431 -0.205431
0.00736219 -0.200904 -0.200904
-0.000244964 -0.196357 -0.196357
-0.000253049 -0.200871 -0.200871
-0.00795554 -0.205437 -0.205437
-0.00812949 -0.214697 -0.214697
0.00757273 -0.214726 -0.214726
0.00743279 -0.205465 -0.205465
-0.00804256 -0.210044 -0.210044
-0.000278309 -0.214692 -0.214692
0.00750297 -0.210073 -0.210073
-0.000261301 -0.205431 -0.205431
-0.000269721 -0.210038 -0.210038
-0.00812949 -0.214697 -0.214697
-0.0083031 -0.224143 -0.224143
0.00771096 -0.224173 -0.224173
0.00757273 -0.214726 -0.214726
-0.00821634 -0.219397 -0.219397
-0.000295996 -0.224138 -0.224138
0.00764205 -0.219427 -0.219427
-0.000278309 -0.214692 -0.214692
-0.000287067 -0.219392 -0.219392
-0.0083031 -0.224143 -0.224143
-0.00847637 -0.233772 -0.233772
0.00784748 -0.233804 -0.233804
0.00771096 -0.224173 -0.224173
-0.00838978 -0.228935 -0.228935
-0.000314371 -0.233769 -0.233769
0.00777943 -0.228966 -0.228966
-0.000295996 -0.224138 -0.224138
-0.000305097 -0.228931 -0.228931
-0.00847637 -0.233772 -0.233772
-0.00864932 -0.243585 -0.243585
0.00798228 -0.243617 -0.243617
0.00784748 -0.233804 -0.233804
-0.00856289 -0.238656 -0.238656
-0.000333444 -0.243582 -0.243582
0.00791509 -0.238688 -0.238688
-0.000314371 -0.233769 -0.233769
-0.00032382 -0.238652 -0.238652
-0.00864932 -0.243585 -0.243585
-0.00882195 -0.253579 -0.253579
0.00811535 -0.253613 -0.253613
0.00798228 -0.243617 -0.243617
-0.00873567 -0.248559 -0.248559
-0.000353222 -0.253577 -0.253577
0.00804903 -0.248592 -0.248592
-0.000333444 -0.243582 -0.243582
-0.000343244 -0.248556 -0.248556
-0.00882195 -0.253579 -0.253579
-0.00899427 -0.263753 -0.263753
0.00824669 -0.263788 -0.263788
0.00811535 -0.253613 -0.253613
-0.00890815 -0.258644 -0.258644
-0.000373714 -0.263752 -0.263752
0.00818124 -0.258678 -0.258678
-0.000353222 -0.253577 -0.253577
-0.000363378 -0.258642 -0.258642
-0.00899427 -0.263753 -0.263753
-0.00916629 -0.274107 -0.274107
0.00837628 -0.274143 -0.274143
0.00824669 -0.263788 -0.263788
-0.00908032 -0.268908 -0.268908
-0.000394927 -0.274106 -0.274106
0.0083117 -0.268944 -0.268944
-0.000373714 -0.263752 -0.263752
-0.00038423 -0.268907 -0.268907
-0.00916629 -0.274107 -0.274107
-0.00933802 -0.284639 -0.284639
0.00850412 -0.284676 -0.284676
0.00837628 -0.274143 -0.274143
-0.00925219 -0.279351 -0.279351
-0.00041687 -0.284639 -0.284639
0.00844042 -0.279388 -0.279388
-0.000394927 -0.274106 -0.274106
-0.000405807 -0.27935 -0.27935
-0.00933802 -0.284639 -0.284639
-0.00950946 -0.295347 -0.295347
0.0086302 -0.295386 -0.295386
0.00850412 -0.284676 -0.284676
-0.00942378 -0.289971 -0.289971
-0.000439549 -0.295348 -0.295348
0.00856738 -0.290009 -0.290009
-0.00041687 -0.284639 -0.284639
-0.000428117 -0.289971 -0.289971
-0.00950946 -0.295347 -0.295347
-0.00968063 -0.306231 -0.306231
0.00875452 -0.306271 -0.306271
0.0086302 -0.295386 -0.295386
-0.00959508 -0.300768 -0.300768
-0.000462972 -0.306233 -0.306233
0.00869258 -0.300807 -0.300807
-0.000439549 -0.295348 -0.295348
-0.000451167 -0.300768 -0.300768
-0.00968063 -0.306231 -0.306231
-0.00985152 -0.31729 -0.31729
0.00887706 -0.317331 -0.317331
0.00875452 -0.306271 -0.306271
-0.0097661 -0.311739 -0.311739
-0.000487146 -0.317292 -0.317292
0.00881601 -0.31178 -0.31178
-0.000462972 -0.306233 -0.306233
-0.000474965 -0.311741 -0.311741
-0.00985152 -0.31729 -0.31729
-0.0100221 -0.328522 -0.328522
0.00899782 -0.328564 -0.328564
0.00887706 -0.317331 -0.317331
-0.00993686 -0.322884 -0.322884
-0.000512077 -0.328524 -0.328524
0.00893766 -0.322926 -0.322926
-0.000487146 -0.317292 -0.317292
-0.000499516 -0.322887 -0.322887
-0.0100221 -0.328522 -0.328522
-0.0101925 -0.339925 -0.339925
0.0091168 -0.339969 -0.339969
0.00899782 -0.328564 -0.328564
-0.0101074 -0.334202 -0.334202
-0.000537772 -0.339929 -0.339929
0.00905753 -0.334245 -0.334245
-0.000512077 -0.328524 -0.328524
-0.000524828 -0.334205 -0.334205
-0.0101925 -0.339925 -0.339925
-0.0103626 -0.3515 -0.3515
0.00923398 -0.351545 -0.351545
0.0091168 -0.339969 -0.339969
-0.0102776 -0.345691 -0.345691
-0.000564236 -0.351504 -0.351504
0.00917561 -0.345736 -0.345736
-0.000537772 -0.339929 -0.339929
-0.000550907 -0.345695 -0.345695
-0.0103626 -0.3515 -0.3515
-0.0105325 -0.363243 -0.363243
0.00934937 -0.36329 -0.36329
0.00923398 -0.351545 -0.351545
-0.0104476 -0.35735 -0.35735
-0.000591476 -0.363249 -0.363249
0.0092919 -0.357396 -0.357396
-0.000564236 -0.351504 -0.351504
-0.000577759 -0.357355 -0.357355
-0.0105325 -0.363243 -0.363243
-0.0107021 -0.375156 -0.375156
0.00946295 -0.375203 -0.375203
0.00934937 -0.36329 -0.36329
-0.0106173 -0.369179 -0.369179
-0.000619498 -0.375162 -0.375162
0.00940638 -0.369226 -0.369226
-0.000591476 -0.363249 -0.363249
-0.000605389 -0.369184 -0.369184
-0.0107021 -0.375156 -0.375156
-0.0108715 -0.387235 -0.387235
0.00957472 -0.387284 -0.387284
0.00946295 -0.375203 -0.375203
-0.0107868 -0.381174 -0.381174
-0.000648307 -0.387242 -0.387242
0.00951906 -0.381223 -0.381223
-0.000619498 -0.375162 -0.375162
-0.000633804 -0.381181 -0.381181
-0.0108715 -0.387235 -0.387235
-0.0110407 -0.39948 -0.39948
0.00968468 -0.399531 -0.399531
0.00957472 -0.387284 -0.387284
-0.0109561 -0.393337 -0.393337
-0.000677907 -0.399488 -0.399488
0.00962993 -0.393387 -0.393387
-0.000648307 -0.387242 -0.387242
-0.000663008 -0.393344 -0.393344
-0.0110407 -0.39948 -0.39948
-0.0112096 -0.41189 -0.41189
0.00979282 -0.411942 -0.411942
0.00968468 -0.399531 -0.399531
-0.0111252 -0.405665 -0.405665
-0.000708305 -0.411898 -0.411898
0.00973898 -0.405716 -0.405716
-0.000677907 -0.399488 -0.399488
-0.000693006 -0.405673 -0.405673
-0.0112096 -0.41189 -0.41189
-0.0113783 -0.424463 -0.424463
0.00989913 -0.424516 -0.424516
0.00979282 -0.411942 -0.411942
-0.011294 -0.418156 -0.418156
-0.000739504 -0.424473 -0.424473
0.0098462 -0.418209 -0.418209
-0.000708305 -0.411898 -0.411898
-0.000723804 -0.418165 -0.418165
-0.0113783 -0.424463 -0.424463
-0.0115468 -0.437199 -0.437199
0.0100036 -0.437253 -0.437253
0.00989913 -0.424516 -0.424516
-0.0114626 -0.430811 -0.430811
-0.000771509 -0.437209 -0.437209
0.00995161 -0.430865 -0.430865
-0.000739504 -0.424473 -0.424473
-0.000755406 -0.430821 -0.430821
-0.0115468 -0.437199 -0.437199
-0.0117151 -0.450096 -0.450096
0.0101063 -0.450152 -0.450152
0.0100036 -0.437253 -0.437253
-0.011631 -0.443627 -0.443627
-0.000804325 -0.450107 -0.450107
0.0100552 -0.443682 -0.443682
-0.000771509 -0.437209 -0.437209
-0.000787816 -0.443638 -0.443638
-0.0117151 -0.450096 -0.450096
-0.0118832 -0.463152 -0.463152
0.0102071 -0.463209 -0.463209
0.0101063 -0.450152 -0.450152
-0.0117992 -0.456604 -0.456604
-0.000837955 -0.463164 -0.463164
0.0101569 -0.456661 -0.456661
-0.000804325 -0.450107 -0.450107
-0.000821038 -0.456615 -0.456615
-0.0118832 -0.463152 -0.463152
-0.0120511 -0.476367 -0.476367
0.0103061 -0.476426 -0.476426
0.0102071 -0.463209 -0.463209
-0.0119671 -0.46974 -0.46974
-0.000872403 -0.47638 -0.47638
0.0102568 -0.469798 -0.469798
-0.000837955 -0.463164 -0.463164
-0.000855077 -0.469752 -0.469752
-0.0120511 -0.476367 -0.476367
-0.0122187 -0.48974 -0.48974
0.0104032 -0.4898 -0.4898
0.0103061 -0.476426 -0.476426
-0.0121349 -0.483034 -0.483034
-0.000907673 -0.489753 -0.489753
0.0103549 -0.483093 -0.483093
-0.000872403 -0.47638 -0.47638
-0.000889935 -0.483047 -0.483047
-0.0122187 -0.48974 -0.48974
-0.0123862 -0.503269 -0.503269
0.0104985 -0.50333 -0.50333
0.0104032 -0.4898 -0.4898
-0.0123025 -0.496485 -0.496485
-0.000943768 -0.503283 -0.503283
0.0104511 -0.496546 -0.496546
-0.000907673 -0.489753 -0.489753
-0.000925617 -0.496499 -0.496499
-0.0123862 -0.503269 -0.503269
-0.0125535 -0.516953 -0.516953
0.0105919 -0.517015 -0.517015
0.0104985 -0.50333 -0.50333
-0.0124699 -0.510092 -0.510092
-0.000980691 -0.516968 -0.516968
0.0105454 -0.510154 -0.510154
-0.000943768 -0.503283 -0.503283
-0.000962126 -0.510106 -0.510106
-0.0125535 -0.516953 -0.516953
-0.0127206 -0.53079 -0.53079
0.0106835 -0.530854 -0.530854
0.0105919 -0.517015 -0.517015
-0.012637 -0.523852 -0.523852
-0.00101845 -0.530806 -0.530806
0.0106379 -0.523916 -0.523916
-0.000980691 -0.516968 -0.516968
-0.000999464 -0.523868 -0.523868
-0.0127206 -0.53079 -0.53079
-0.0128875 -0.544781 -0.544781
0.0107732 -0.544846 -0.544846
0.0106835 -0.530854 -0.530854
-0.012804 -0.537766 -0.537766
-0.00105703 -0.544797 -0.544797
0.0107286 -0.537831 -0.537831
-0.00101845 -0.530806 -0.530806
-0.00103763 -0.537783 -0.537783
-0.0128875 -0.544781 -0.544781
-0.0130542 -0.558922 -0.558922
0.0108611 -0.558989 -0.558989
0.0107732 -0.544846 -0.544846
-0.0129708 -0.551832 -0.551832
-0.00109646 -0.558939 -0.558939
0.0108174 -0.551899 -0.551899
-0.00105703 -0.544797 -0.544797
-0.00107664 -0.551849 -0.551849
-0.0130542 -0.558922 -0.558922
-0.0132207 -0.573214 -0.573214
0.0109471 -0.573282 -0.573282
0.0108611 -0.558989 -0.558989
-0.0131375 -0.566049 -0.566049
-0.00113672 -0.573232 -0.573232
0.0109043 -0.566117 -0.566117
-0.00109646 -0.558939 -0.558939
-0.00111648 -0.566067 -0.566067
-0.0132207 -0.573214 -0.573214
-0.0133871 -0.587654 -0.587654
0.0110312 -0.587724 -0.587724
0.0109471 -0.573282 -0.573282
-0.0133039 -0.580416 -0.580416
-0.00117782 -0.587674 -0.587674
0.0109894 -0.580485 -0.580485
-0.00113672 -0.573232 -0.573232
-0.00115717 -0.580434 -0.580434
-0.0133871 -0.587654 -0.587654
-0.0135532 -0.602243 -0.602243
0.0111135 -0.602314 -0.602314
0.0110312 -0.587724 -0.587724
-0.0134702 -0.59493 -0.59493
-0.00121977 -0.602263 -0.602263
0.0110726 -0.595001 -0.595001
-0.00117782 -0.587674 -0.587674
-0.00119869 -0.59495 -0.59495
-0.0135532 -0.602243 -0.602243
-0.0137192 -0.616978 -0.616978
0.0111939 -0.61705 -0.61705
0.0111135 -0.602314 -0.602314
-0.0136362 -0.609592 -0.609592
-0.00126256 -0.616999 -0.616999
0.0111539 -0.609664 -0.609664
-0.00121977 -0.602263 -0.602263
-0.00124106 -0.609612 -0.609612
-0.0137192 -0.616978 -0.616978
-0.013885 -0.631858 -0.631858
0.0112725 -0.631932 -0.631932
0.0111939 -0.61705 -0.61705
-0.0138021 -0.6244 -0.6244
-0.00130619 -0.63188 -0.63188
0.0112334 -0.624473 -0.624473
-0.00126256 -0.616999 -0.616999
-0.00128427 -0.624421 -0.624421
-0.013885 -0.631858 -0.631858
-0.0140507 -0.646882 -0.646882
0.0113491 -0.646958 -0.646958
0.0112725 -0.631932 -0.631932
-0.0139679 -0.639352 -0.639352
-0.00135067 -0.646905 -0.646905
0.011311 -0.639427 -0.639427
-0.00130619 -0.63188 -0.63188
-0.00132832 -0.639374 -0.639374
-0.0140507 -0.646882 -0.646882
-0.0142161 -0.66205 -0.66205
0.0114239 -0.662127 -0.662127
0.0113491 -0.646958 -0.646958
-0.0141334 -0.654448 -0.654448
-0.001396 -0.662073 -0.662073
0.0113868 -0.654524 -0.654524
-0.00135067 -0.646905 -0.646905
-0.00137323 -0.654471 -0.654471
-0.0142161 -0.66205 -0.66205
-0.0143814 -0.677359 -0.677359
0.0114969 -0.677437 -0.677437
0.0114239 -0.662127 -0.662127
-0.0142988 -0.669686 -0.669686
-0.00144217 -0.677383 -0.677383
0.0114606 -0.669764 -0.669764
-0.001396 -0.662073 -0.662073
-0.00141898 -0.66971 -0.66971
-0.0143814 -0.677359 -0.677359
-0.0145465 -0.692808 -0.692808
0.0115679 -0.692888 -0.692888
0.0114969 -0.677437 -0.677437
-0.014464 -0.685066 -0.685066
-0.0014892 -0.692833 -0.692833
0.0115326 -0.685145 -0.685145
-0.00144217 -0.677383 -0.677383
-0.00146558 -0.68509 -0.68509
-0.0145465 -0.692808 -0.692808
-0.0147115 -0.708397 -0.708397
0.0116371 -0.708478 -0.708478
0.0115679 -0.692888 -0.692888
-0.014629 -0.700585 -0.700585
-0.00153707 -0.708422 -0.708422
0.0116028 -0.700665 -0.700665
-0.0014892 -0.692833 -0.692833
-0.00151303 -0.70061 -0.70061
-0.0147115 -0.708397 -0.708397
-0.0148762 -0.724123 -0.724123
0.0117044 -0.724206 -0.724206
0.0116371 -0.708478 -0.708478
-0.0147939 -0.716243 -0.716243
-0.00158579 -0.72415 -0.72415
0.011671 -0.716325 -0.716325
-0.00153707 -0.708422 -0.708422
-0.00156133 -0.716269 -0.716269
-0.0148762 -0.724123 -0.724123
-0.0150408 -0.739987 -0.739987
0.0117699 -0.740071 -0.740071
0.0117044 -0.724206 -0.724206
-0.0149585 -0.732038 -0.732038
-0.00163536 -0.740014 -0.740014
0.0117374 -0.732121 -0.732121
-0.00158579 -0.72415 -0.72415
-0.00161047 -0.732065 -0.732065
-0.0150408 -0.739987 -0.739987
-0.0152052 -0.755986 -0.755986
0.0118335 -0.756071 -0.756071
0.0117699 -0.740071 -0.740071
-0.015123 -0.74797 -0.74797
-0.00168578 -0.756014 -0.756014
0.0118019 -0.748054 -0.748054
-0.00163536 -0.740014 -0.740014
-0.00166047 -0.747997 -0.747997
-0.0152052 -0.755986 -0.755986
-0.0153695 -0.77212 -0.77212
0.0118952 -0.772207 -0.772207
0.0118335 -0.756071 -0.756071
-0.0152874 -0.764036 -0.764036
-0.00173705 -0.772149 -0.772149
0.0118646 -0.764122 -0.764122
-0.00168578 -0.756014 -0.756014
-0.00171131 -0.764065 -0.764065
-0.0153695 -0.77212 -0.77212
-0.0155335 -0.788386 -0.788386
0.011955 -0.788475 -0.788475
0.0118952 -0.772207 -0.772207
-0.0154515 -0.780236 -0.780236
-0.00178917 -0.788416 -0.788416
0.0119253 -0.780324 -0.780324
-0.00173705 -0.772149 -0.772149
-0.00176301 -0.780266 -0.780266
-0.0155335 -0.788386 -0.788386
-0.0156974 -0.804785 -0.804785
0.012013 -0.804875 -0.804875
0.011955 -0.788475 -0.788475
-0.0156155 -0.796569 -0.796569
-0.00184213 -0.804816 -0.804816
0.0119842 -0.796658 -0.796658
-0.00178917 -0.788416 -0.788416
-0.00181555 -0.7966 -0.7966
-0.0156974 -0.804785 -0.804785
-0.0158612 -0.821315 -0.821315
0.0120691 -0.821406 -0.821406
0.012013 -0.804875 -0.804875
-0.0157793 -0.813034 -0.813034
-0.00189594 -0.821347 -0.821347
0.0120413 -0.813124 -0.813124
-0.00184213 -0.804816 -0.804816
-0.00186893 -0.813065 -0.813065
-0.0158612 -0.821315 -0.821315
-0.0160247 -0.837974 -0.837974
0.0121233 -0.838067 -0.838067
0.0120691 -0.821406 -0.821406
-0.0159429 -0.829628 -0.829628
-0.0019506 -0.838007 -0.838007
0.0120964 -0.82972 -0.82972
-0.00189594 -0.821347 -0.821347
-0.00192316 -0.82966 -0.82966
-0.0160247 -0.837974 -0.837974
-0.0161881 -0.854761 -0.854761
0.0121757 -0.854855 -0.854855
0.0121233 -0.838067 -0.838067
-0.0161064 -0.846352 -0.846352
-0.00200609 -0.854795 -0.854795
0.0121497 -0.846445 -0.846445
-0.0019506 -0.838007 -0.838007
-0.00197824 -0.846385 -0.846385
-0.0161881 -0.854761 -0.854761
-0.0163512 -0.871676 -0.871676
0.0122262 -0.871772 -0.871772
0.0121757 -0.854855 -0.854855
-0.0162697 -0.863203 -0.863203
-0.00206243 -0.87171 -0.87171
0.0122012 -0.863298 -0.863298
-0.00200609 -0.854795 -0.854795
-0.00203416 -0.863237 -0.863237
-0.0163512 -0.871676 -0.871676
-0.0165142 -0.888717 -0.888717
0.0122748 -0.888814 -0.888814
0.0122262 -0.871772 -0.871772
-0.0164328 -0.880181 -0.880181
-0.00211961 -0.888752 -0.888752
0.0122507 -0.880277 -0.880277
-0.00206243 -0.87171 -0.87171
-0.00209092 -0.880215 -0.880215
-0.0165142 -0.888717 -0.888717
-0.016677 -0.905882 -0.905882
0.0123216 -0.90598 -0.90598
0.0122748 -0.888814 -0.888814
-0.0165957 -0.897284 -0.897284
-0.00217763 -0.905918 -0.905918
0.0122984 -0.897381 -0.897381
-0.00211961 -0.888752 -0.888752
-0.00214852 -0.897319 -0.897319
-0.016677 -0.905882 -0.905882
-0.0168397 -0.923171 -0.923171
0.0123665 -0.923271 -0.923271
0.0123216 -0.90598 -0.90598
-0.0167584 -0.914511 -0.914511
-0.00223648 -0.923208 -0.923208
0.0123443 -0.91461 -0.91461
-0.00217763 -0.905918 -0.905918
-0.00220695 -0.914547 -0.914547
-0.0168397 -0.923171 -0.923171
-0.0170021 -0.940582 -0.940582
0.0124096 -0.940683 -0.940683
0.0123665 -0.923271 -0.923271
-0.0169209 -0.931861 -0.931861
-0.00229617 -0.94062 -0.94062
0.0123883 -0.931962 -0.931962
-0.00223648 -0.923208 -0.923208
-0.00226622 -0.931898 -0.931898
-0.0170021 -0.940582 -0.940582
-0.0171644 -0.958114 -0.958114
0.0124508 -0.958217 -0.958217
0.0124096 -0.940683 -0.940683
-0.0170833 -0.949333 -0.949333
-0.00235669 -0.958153 -0.958153
0.0124304 -0.949435 -0.949435
-0.00229617 -0.94062 -0.94062
-0.00232633 -0.949371 -0.949371
-0.0171644 -0.958114 -0.958114
-0.0173264 -0.975767 -0.975767
0.0124901 -0.97587 -0.97587
0.0124508 -0.958217 -0.958217
-0.0172454 -0.966926 -0.966926
-0.00241804 -0.975806 -0.975806
0.0124707 -0.967029 -0.967029
-0.00235669 -0.958153 -0.958153
-0.00238726 -0.966964 -0.966964
-0.0173264 -0.975767 -0.975767
-0.0174883 -0.993537 -0.993537
0.0125277 -0.993643 -0.993643
0.0124901 -0.97587 -0.97587
-0.0174074 -0.984637 -0.984637
-0.00248021 -0.993577 -0.993577
0.0125091 -0.984742 -0.984742
-0.00241804 -0.975806 -0.975806
-0.00244902 -0.984677 -0.984677
-0.0174883 -0.993537 -0.993537
-0.0176499 -1.01143 -1.01143
0.0125633 -1.01153 -1.01153
0.0125277 -0.993643 -0.993643
-0.0175691 -1.00247 -1.00247
-0.00254321 -1.01147 -1.01147
0.0125457 -1.00257 -1.00257
-0.00248021 -0.993577 -0.993577
-0.00251161 -1.00251 -1.00251
-0.0176499 -1.01143 -1.01143
-0.0178114 -1.02943 -1.02943
0.0125971 -1.02954 -1.02954
0.0125633 -1.01153 -1.01153
-0.0177307 -1.02041 -1.02041
-0.00260703 -1.02947 -1.02947
0.0125805 -1.02052 -1.02052
-0.00254321 -1.01147 -1.01147
-0.00257502 -1.02045 -1.02045
-0.0178114 -1.02943 -1.02943
-0.0179726 -1.04755 -1.04755
0.0126291 -1.04766 -1.04766
0.0125971 -1.02954 -1.02954
-0.017892 -1.03848 -1.03848
-0.00267166 -1.04759 -1.04759
0.0126134 -1.03858 -1.03858
-0.00260703 -1.02947 -1.02947
-0.00263924 -1.03852 -1.03852
-0.0179726 -1.04755 -1.04755
-0.0181337 -1.06578 -1.06578
0.0126593 -1.06589 -1.06589
0.0126291 -1.04766 -1.04766
-0.0180532 -1.05665 -1.05665
-0.00273711 -1.06583 -1.06583
0.0126444 -1.05676 -1.05676
-0.00267166 -1.04759 -1.04759
-0.00270428 -1.0567 -1.0567
-0.0181337 -1.06578 -1.06578
-0.0182945 -1.08413 -1.08413
0.0126876 -1.08424 -1.08424
0.0126593 -1.06589 -1.06589
-0.0182141 -1.07494 -1.07494
-0.00280336 -1.08417 -1.08417
0.0126737 -1.07505 -1.07505
-0.00273711 -1.06583 -1.06583
-0.00277013 -1.07499 -1.07499
-0.0182945 -1.08413 -1.08413
-0.0184551 -1.10259 -1.10259
0.0127141 -1.1027 -1.1027
0.0126876 -1.08424 -1.08424
-0.0183748 -1.09334 -1.09334
-0.00287042 -1.10263 -1.10263
0.0127011 -1.09346 -1.09346
-0.00280336 -1.08417 -1.08417
-0.00283679 -1.09339 -1.09339
-0.0184551 -1.10259 -1.10259
-0.0186155 -1.12115 -1.12115
0.0127387 -1.12127 -1.12127
0.0127141 -1.1027 -1.1027
-0.0185353 -1.11186 -1.11186
-0.00293829 -1.1212 -1.1212
0.0127266 -1.11197 -1.11197
-0.00287042 -1.10263 -1.10263
-0.00290426 -1.1119 -1.1119
-0.0186155 -1.12115 -1.12115
-0.0187757 -1.13983 -1.13983
0.0127616 -1.13995 -1.13995
0.0127387 -1.12127 -1.12127
-0.0186956 -1.13048 -1.13048
-0.00300695 -1.13988 -1.13988
0.0127504 -1.13059 -1.13059
-0.00293829 -1.1212 -1.1212
-0.00297252 -1.13053 -1.13053
-0.0187757 -1.13983 -1.13983
-0.0189356 -1.15862 -1.15862
0.0127826 -1.15873 -1.15873
0.0127616 -1.13995 -1.13995
-0.0188557 -1.14921 -1.14921
-0.0030764 -1.15866 -1.15866
0.0127723 -1.14933 -1.14933
-0.00300695 -1.13988 -1.13988
-0.00304158 -1.14926 -1.14926
-0.0189356 -1.15862 -1.15862
-0.0190953 -1.17751 -1.17751
0.0128018 -1.17763 -1.17763
0.0127826 -1.15873 -1.15873
-0.0190155 -1.16805 -1.16805
-0.00314664 -1.17755 -1.17755
0.0127924 -1.16817 -1.16817
-0.0030764 -1.15866 -1.15866
-0.00311142 -1.1681 -1.1681
-0.0190953 -1.17751 -1.17751
-0.0192548 -1.1965 -1.1965
0.0128192 -1.19662 -1.19662
0.0128018 -1.17763 -1.17763
-0.0191751 -1.18699 -1.18699
-0.00321767 -1.19655 -1.19655
0.0128108 -1.18711 -1.18711
-0.00314664 -1.17755 -1.17755
-0.00318206 -1.18704 -1.18704
-0.0192548 -1.1965 -1.1965
-0.019414 -1.2156 -1.2156
0.0128348 -1.21572 -1.21572
0.0128192 -1.19662 -1.19662
-0.0193344 -1.20604 -1.20604
-0.00328948 -1.21565 -1.21565
0.0128273 -1.20616 -1.20616
-0.00321767 -1.19655 -1.19655
-0.00325348 -1.20609 -1.20609
-0.019414 -1.2156 -1.2156
-0.0195729 -1.23481 -1.23481
0.0128487 -1.23493 -1.23493
0.0128348 -1.21572 -1.21572
-0.0194935 -1.22519 -1.22519
-0.00336206 -1.23486 -1.23486
0.012842 -1.22531 -1.22531
-0.00328948 -1.21565 -1.21565
-0.00332567 -1.22524 -1.22524
-0.0195729 -1.23481 -1.23481
-0.0197317 -1.25411 -1.25411
0.0128607 -1.25424 -1.25424
0.0128487 -1.23493 -1.23493
-0.0196523 -1.24445 -1.24445
-0.00343541 -1.25416 -1.25416
0.0128549 -1.24457 -1.24457
-0.00336206 -1.23486 -1.23486
-0.00339864 -1.2445 -1.2445
-0.0197317 -1.25411 -1.25411
-0.0198901 -1.27352 -1.27352
0.0128709 -1.27364 -1.27364
0.0128607 -1.25424 -1.25424
-0.0198109 -1.2638 -1.2638
-0.00350953 -1.27357 -1.27357
0.012866 -1.26393 -1.26393
-0.00343541 -1.25416 -1.25416
-0.00347238 -1.26385 -1.26385
-0.0198901 -1.27352 -1.27352
-0.0200483 -1.29302 -1.29302
0.0128794 -1.29315 -1.29315
0.0128709 -1.27364 -1.27364
-0.0199693 -1.28326 -1.28326
-0.00358441 -1.29308 -1.29308
0.0128754 -1.28338 -1.28338
-0.00350953 -1.27357 -1.27357
-0.00354687 -1.28331 -1.28331
-0.0200483 -1.29302 -1.29302
-0.0202063 -1.31263 -1.31263
0.012886 -1.31275 -1.31275
0.0128794 -1.29315 -1.29315
-0.0201273 -1.30281 -1.30281
-0.00366003 -1.31268 -1.31268
0.0128829 -1.30294 -1.30294
-0.00358441 -1.29308 -1.29308
-0.00362213 -1.30287 -1.30287
-0.0202063 -1.31263 -1.31263
-0.0203639 -1.33233 -1.33233
0.0128909 -1.33245 -1.33245
0.012886 -1.31275 -1.31275
-0.0202851 -1.32246 -1.32246
-0.00373641 -1.33238 -1.33238
0.0128887 -1.32259 -1.32259
-0.00366003 -1.31268 -1.31268
-0.00369813 -1.32252 -1.32252
-0.0203639 -1.33233 -1.33233
-0.0205213 -1.35212 -1.35212
0.0128941 -1.35225 -1.35225
0.0128909 -1.33245 -1.33245
-0.0204426 -1.34221 -1.34221
-0.00381353 -1.35218 -1.35218
0.0128927 -1.34234 -1.34234
-0.00373641 -1.33238 -1.33238
-0.00377488 -1.34227 -1.34227
-0.0205213 -1.35212 -1.35212
-0.0206784 -1.37201 -1.37201
0.0128954 -1.37214 -1.37214
0.0128941 -1.35225 -1.35225
-0.0205999 -1.36205 -1.36205
-0.00389139 -1.37207 -1.37207
0.012895 -1.36219 -1.36219
-0.00381353 -1.35218 -1.35218
-0.00385237 -1.36211 -1.36211
-0.0206784 -1.37201 -1.37201
-0.0208352 -1.39199 -1.39199
0.0128951 -1.39213 -1.39213
0.0128954 -1.37214 -1.37214
-0.0207568 -1.38199 -1.38199
-0.00396998 -1.39205 -1.39205
0.0128955 -1.38212 -1.38212
-0.00389139 -1.37207 -1.37207
-0.00393059 -1.38205 -1.38205
-0.0208352 -1.39199 -1.39199
-0.0209917 -1.41207 -1.41207
0.012893 -1.4122 -1.4122
0.0128951 -1.39213 -1.39213
-0.0209135 -1.40202 -1.40202
-0.00404929 -1.41213 -1.41213
0.0128942 -1.40215 -1.40215
-0.00396998 -1.39205 -1.39205
-0.00400954 -1.40208 -1.40208
-0.0209917 -1.41207 -1.41207
-0.0211479 -1.43224 -1.43224
0.0128891 -1.43237 -1.43237
0.012893 -1.4122 -1.4122
-0.0210698 -1.42214 -1.42214
-0.00412932 -1.43229 -1.43229
0.0128912 -1.42228 -1.42228
-0.00404929 -1.41213 -1.41213
-0.00408922 -1.4222 -1.4222
-0.0211479 -1.43224 -1.43224
-0.0213038 -1.45249 -1.45249
0.0128835 -1.45263 -1.45263
0.0128891 -1.43237 -1.43237
-0.0212259 -1.44235 -1.44235
-0.00421006 -1.45255 -1.45255
0.0128865 -1.44249 -1.44249
-0.00412932 -1.43229 -1.43229
-0.0041696 -1.44241 -1.44241
-0.0213038 -1.45249 -1.45249
-0.0214593 -1.47284 -1.47284
0.0128762 -1.47297 -1.47297
0.0128835 -1.45263 -1.45263
-0.0213816 -1.46265 -1.46265
-0.00429151 -1.4729 -1.4729
0.01288 -1.46279 -1.46279
-0.00421006 -1.45255 -1.45255
-0.0042507 -1.46271 -1.46271
-0.0214593 -1.47284 -1.47284
-0.0216146 -1.49327 -1.49327
0.0128671 -1.49341 -1.49341
0.0128762 -1.47297 -1.47297
-0.021537 -1.48304 -1.48304
-0.00437366 -1.49333 -1.49333
0.0128719 -1.48318 -1.48318
-0.00429151 -1.4729 -1.4729
-0.0043325 -1.4831 -1.4831
-0.0216146 -1.49327 -1.49327
-0.0217695 -1.51378 -1.51378
0.0128564 -1.51392 -1.51392
0.0128671 -1.49341 -1.49341
-0.0216921 -1.50352 -1.50352
-0.0044565 -1.51385 -1.51385
0.012862 -1.50365 -1.50365
-0.00437366 -1.49333 -1.49333
-0.00441499 -1.50358 -1.50358
-0.0217695 -1.51378 -1.51378
-0.0219241 -1.53439 -1.53439
0.0128439 -1.53453 -1.53453
0.0128564 -1.51392 -1.51392
-0.0218468 -1.52408 -1.52408
-0.00454002 -1.53445 -1.53445
0.0128503 -1.52422 -1.52422
-0.0044565 -1.51385 -1.51385
-0.00449817 -1.52414 -1.52414
-0.0219241 -1.53439 -1.53439
-0.0220783 -1.55507 -1.55507
0.0128297 -1.55521 -1.55521
0.0128439 -1.53453 -1.53453
-0.0220012 -1.54472 -1.54472
-0.00462422 -1.55513 -1.55513
0.012837 -1.54486 -1.54486
-0.00454002 -1.53445 -1.53445
-0.00458204 -1.54478 -1.54478
-0.0220783 -1.55507 -1.55507
-0.0222322 -1.57584 -1.57584
0.0128139 -1.57598 -1.57598
0.0128297 -1.55521 -1.55521
-0.0221553 -1.56545 -1.56545
-0.00470909 -1.5759 -1.5759
0.012822 -1.56559 -1.56559
-0.00462422 -1.55513 -1.55513
-0.00466657 -1.56551 -1.56551
-0.0222322 -1.57584 -1.57584
-0.0223857 -1.59669 -1.59669
0.0127963 -1.59683 -1.59683
0.0128139 -1.57598 -1.57598
-0.022309 -1.58626 -1.58626
-0.00479463 -1.59675 -1.59675
0.0128053 -1.5864 -1.5864
-0.00470909 -1.5759 -1.5759
-0.00475178 -1.58632 -1.58632
-0.0223857 -1.59669 -1.59669
-0.0225389 -1.61762 -1.61762
0.0127771 -1.61776 -1.61776
0.0127963 -1.59683 -1.59683
-0.0224623 -1.60714 -1.60714
-0.00488082 -1.61768 -1.61768
0.0127869 -1.60729 -1.60729
-0.00479463 -1.59675 -1.59675
-0.00483765 -1.60721 -1.60721
-0.0225389 -1.61762 -1.61762
-0.0226917 -1.63863 -1.63863
0.0127562 -1.63877 -1.63877
0.0127771 -1.61776 -1.61776
-0.0226153 -1.62811 -1.62811
-0.00496766 -1.63869 -1.63869
0.0127669 -1.62826 -1.62826
-0.00488082 -1.61768 -1.61768
-0.00492416 -1.62818 -1.62818
-0.0226917 -1.63863 -1.63863
-0.0228441 -1.65971 -1.65971
0.0127336 -1.65986 -1.65986
0.0127562 -1.63877 -1.63877
-0.0227679 -1.64916 -1.64916
-0.00505515 -1.65978 -1.65978
0.0127451 -1.64931 -1.64931
-0.00496766 -1.63869 -1.63869
-0.00501133 -1.64923 -1.64923
-0.0228441 -1.65971 -1.65971
-0.0229961 -1.68087 -1.68087
0.0127094 -1.68102 -1.68102
0.0127336 -1.65986 -1.65986
-0.0229201 -1.67028 -1.67028
-0.00514326 -1.68094 -1.68094
0.0127217 -1.67043 -1.67043
-0.00505515 -1.65978 -1.65978
-0.00509913 -1.67035 -1.67035
-0.0229961 -1.68087 -1.68087
-0.0231477 -1.70211 -1.70211
0.0126836 -1.70226 -1.70226
0.0127094 -1.68102 -1.68102
-0.0230719 -1.69148 -1.69148
-0.00523201 -1.70218 -1.70218
0.0126967 -1.69163 -1.69163
-0.00514326 -1.68094 -1.68094
-0.00518756 -1.69155 -1.69155
-0.0231477 -1.70211 -1.70211
-0.0232989 -1.72342 -1.72342
0.012656 -1.72357 -1.72357
0.0126836 -1.70226 -1.70226
-0.0232234 -1.71276 -1.71276
-0.00532136 -1.72349 -1.72349
0.01267 -1.71291 -1.71291
-0.00523201 -1.70218 -1.70218
-0.00527661 -1.71282 -1.71282
-0.0232989 -1.72342 -1.72342
-0.0234497 -1.7448 -1.7448
0.0126269 -1.74496 -1.74496
0.012656 -1.72357 -1.72357
-0.0233744 -1.7341 -1.7341
-0.00541133 -1.74487 -1.74487
0.0126417 -1.73426 -1.73426
-0.00532136 -1.72349 -1.72349
-0.00536627 -1.73417 -1.73417
-0.0234497 -1.7448 -1.7448
-0.0236001 -1.76626 -1.76626
0.0125962 -1.76641 -1.76641
0.0126269 -1.74496 -1.74496
-0.023525 -1.75552 -1.75552
-0.00550191 -1.76633 -1.76633
0.0126117 -1.75568 -1.75568
-0.00541133 -1.74487 -1.74487
-0.00545654 -1.75559 -1.75559
-0.0236001 -1.76626 -1.76626
-0.02375 -1.78778 -1.78778
0.0125638 -1.78794 -1.78794
0.0125962 -1.76641 -1.76641
-0.0236751 -1.77701 -1.77701
-0.00559307 -1.78785 -1.78785
0.0125802 -1.77717 -1.77717
-0.00550191 -1.76633 -1.76633
-0.00554741 -1.77708 -1.77708
-0.02375 -1.78778 -1.78778
-0.0238996 -1.80938 -1.80938
0.0125298 -1.80953 -1.80953
0.0125638 -1.78794 -1.78794
-0.0238249 -1.79857 -1.79857
-0.00568482 -1.80945 -1.80945
0.012547 -1.79873 -1.79873
-0.00559307 -1.78785 -1.78785
-0.00563887 -1.79864 -1.79864
-0.0238996 -1.80938 -1.80938
-0.0240486 -1.83104 -1.83104
0.0124942 -1.8312 -1.8312
0.0125298 -1.80953 -1.80953
-0.0239741 -1.8202 -1.8202
-0.00577714 -1.83111 -1.83111
0.0125122 -1.82036 -1.82036
-0.00568482 -1.80945 -1.80945
-0.00573091 -1.82027 -1.82027
-0.0240486 -1.83104 -1.83104
-0.0241972 -1.85277 -1.85277
0.012457 -1.85293 -1.85293
0.0124942 -1.8312 -1.8312
-0.024123 -1.8419 -1.8419
-0.00587004 -1.85284 -1.85284
0.0124758 -1.84205 -1.84205
-0.00577714 -1.83111 -1.83111
-0.00582352 -1.84197 -1.84197
-0.0241972 -1.85277 -1.85277
-0.0243454 -1.87456 -1.87456
0.0124183 -1.87472 -1.87472
0.012457 -1.85293 -1.85293
-0.0242714 -1.86366 -1.86366
-0.00596349 -1.87463 -1.87463
0.0124379 -1.86381 -1.86381
-0.00587004 -1.85284 -1.85284
-0.0059167 -1.86373 -1.86373
-0.0243454 -1.87456 -1.87456
-0.0244931 -1.89642 -1.89642
0.012378 -1.89658 -1.89658
0.0124183 -1.87472 -1.87472
-0.0244193 -1.88548 -1.88548
-0.0060575 -1.89649 -1.89649
0.0123983 -1.88564 -1.88564
-0.00596349 -1.87463 -1.87463
-0.00601043 -1.88556 -1.88556
-0.0244931 -1.89642 -1.89642
-0.0246403 -1.91834 -1.91834
0.0123361 -1.9185 -1.9185
0.012378 -1.89658 -1.89658
-0.0245667 -1.90737 -1.90737
-0.00615204 -1.91841 -1.91841
0.0123572 -1.90753 -1.90753
-0.0060575 -1.89649 -1.89649
-0.0061047 -1.90745 -1.90745
-0.0246403 -1.91834 -1.91834
-0.024787 -1.94032 -1.94032
0.0122926 -1.94048 -1.94048
0.0123361 -1.9185 -1.9185
-0.0247137 -1.92932 -1.92932
-0.00624712 -1.9404 -1.9404
0.0123145 -1.92948 -1.92948
-0.00615204 -1.91841 -1.91841
-0.00619952 -1.9294 -1.9294
-0.024787 -1.94032 -1.94032
-0.0249332 -1.96237 -1.96237
0.0122476 -1.96253 -1.96253
0.0122926 -1.94048 -1.94048
-0.0248601 -1.95134 -1.95134
-0.00634272 -1.96244 -1.96244
0.0122703 -1.9515 -1.9515
-0.00624712 -1.9404 -1.9404
-0.00629486 -1.95141 -1.95141
-0.0249332 -1.96237 -1.96237
-0.0250789 -1.98447 -1.98447
0.0122011 -1.98463 -1.98463
0.0122476 -1.96253 -1.96253
-0.0250061 -1.97341 -1.97341
-0.00643884 -1.98454 -1.98454
0.0122245 -1.97357 -1.97357
-0.00634272 -1.96244 -1.96244
-0.00639072 -1.97349 -1.97349
-0.0250789 -1.98447 -1.98447
-0.0252241 -2.00663 -2.00663
0.012153 -2.00679 -2.00679
0.0122011 -1.98463 -1.98463
-0.0251515 -1.99554 -1.99554
-0.00653546 -2.00671 -2.00671
0.0121772 -1.99571 -1.99571
-0.00643884 -1.98454 -1.98454
-0.00648709 -1.99562 -1.99562
-0.0252241 -2.00663 -2.00663
-0.0253687 -2.02885 -2.02885
0.0121034 -2.02901 -2.02901
0.012153 -2.00679 -2.00679
-0.0252965 -2.01773 -2.01773
-0.00663259 -2.02892 -2.02892
0.0121284 -2.0179 -2.0179
-0.00653546 -2.00671 -2.00671
-0.00658396 -2.01781 -2.01781
-0.0253687 -2.02885 -2.02885
-0.0255128 -2.05112 -2.05112
0.0120524 -2.05129 -2.05129
0.0121034 -2.02901 -2.02901
-0.0254409 -2.03998 -2.03998
-0.00673019 -2.0512 -2.0512
0.0120781 -2.04014 -2.04014
-0.00663259 -2.02892 -2.02892
-0.00668133 -2.04005 -2.04005
-0.0255128 -2.05112 -2.05112
-0.0256564 -2.07345 -2.07345
0.0119998 -2.07362 -2.07362
0.0120524 -2.05129 -2.05129
-0.0255847 -2.06228 -2.06228
-0.00682828 -2.07353 -2.07353
0.0120262 -2.06244 -2.06244
-0.00673019 -2.0512 -2.0512
-0.00677918 -2.06236 -2.06236
-0.0256564 -2.07345 -2.07345
-0.0257994 -2.09583 -2.09583
0.0119457 -2.096 -2.096
0.0119998 -2.07362 -2.07362
-0.025728 -2.08463 -2.08463
-0.00692683 -2.09591 -2.09591
0.0119729 -2.0848 -2.0848
-0.00682828 -2.07353 -2.07353
-0.0068775 -2.08471 -2.08471
-0.0257994 -2.09583 -2.09583
-0.0259419 -2.11826 -2.11826
0.0118901 -2.11843 -2.11843
0.0119457 -2.096 -2.096
-0.0258708 -2.10704 -2.10704
-0.00702584 -2.11834 -2.11834
0.0119181 -2.10721 -2.10721
-0.00692683 -2.09591 -2.09591
-0.00697628 -2.10712 -2.10712
-0.0259419 -2.11826 -2.11826
-0.0260838 -2.14075 -2.14075
0.0118331 -2.14092 -2.14092
0.0118901 -2.11843 -2.11843
-0.0260129 -2.1295 -2.1295
-0.0071253 -2.14083 -2.14083
0.0118618 -2.12967 -2.12967
-0.00702584 -2.11834 -2.11834
-0.00707552 -2.12958 -2.12958
-0.0260838 -2.14075 -2.14075
-0.0262251 -2.16328 -2.16328
0.0117746 -2.16345 -2.16345
0.0118331 -2.14092 -2.14092
-0.0261545 -2.15201 -2.15201
-0.0072252 -2.16336 -2.16336
0.011804 -2.15218 -2.15218
-0.0071253 -2.14083 -2.14083
-0.0071752 -2.15209 -2.15209
-0.0262251 -2.16328 -2.16328
-0.0263658 -2.18586 -2.18586
0.0117147 -2.18603 -2.18603
0.0117746 -2.16345 -2.16345
-0.0262955 -2.17457 -2.17457
-0.00732553 -2.18594 -2.18594
0.0117448 -2.17474 -2.17474
-0.0072252 -2.16336 -2.16336
-0.00727532 -2.17465 -2.17465
-0.0263658 -2.18586 -2.18586
-0.0265059 -2.20849 -2.20849
0.0116533 -2.20866 -2.20866
0.0117147 -2.18603 -2.18603
-0.0264359 -2.19717 -2.19717
-0.00742628 -2.20857 -2.20857
0.0116841 -2.19734 -2.19734
-0.00732553 -2.18594 -2.18594
-0.00737586 -2.19725 -2.19725
-0.0265059 -2.20849 -2.20849
-0.0266454 -2.23117 -2.23117
0.0115905 -2.23134 -2.23134
0.0116533 -2.20866 -2.20866
-0.0265758 -2.21983 -2.21983
-0.00752744 -2.23125 -2.23125
0.011622 -2.22 -2.22
-0.00742628 -2.20857 -2.20857
-0.00747681 -2.21991 -2.21991
-0.0266454 -2.23117 -2.23117
-0.0267843 -2.25389 -2.25389
0.0115262 -2.25406 -2.25406
0.0115905 -2.23134 -2.23134
-0.0267149 -2.24252 -2.24252
-0.007629 -2.25397 -2.25397
0.0115585 -2.24269 -2.24269
-0.00752744 -2.23125 -2.23125
-0.00757817 -2.2426 -2.2426
-0.0267843 -2.25389 -2.25389
-0.0269225 -2.27665 -2.27665
0.0114606 -2.27683 -2.27683
0.0115262 -2.25406 -2.25406
-0.0268535 -2.26527 -2.26527
-0.00773095 -2.27673 -2.27673
0.0114936 -2.26544 -2.26544
-0.007629 -2.25397 -2.25397
-0.00767993 -2.26535 -2.26535
-0.0269225 -2.27665 -2.27665
-0.0270601 -2.29946 -2.29946
0.0113935 -2.29963 -2.29963
0.0114606 -2.27683 -2.27683
-0.0269914 -2.28805 -2.28805
-0.00783328 -2.29954 -2.29954
0.0114272 -2.28822 -2.28822
-0.00773095 -2.27673 -2.27673
-0.00778207 -2.28813 -2.28813
-0.0270601 -2.29946 -2.29946
-0.0271971 -2.32231 -2.32231
0.0113251 -2.32248 -2.32248
0.0113935 -2.29963 -2.29963
-0.0271287 -2.31088 -2.31088
-0.00793598 -2.32239 -2.32239
0.0113594 -2.31105 -2.31105
-0.00783328 -2.29954 -2.29954
-0.00788459 -2.31096 -2.31096
-0.0271971 -2.32231 -2.32231
-0.0273334 -2.34519 -2.34519
0.0112552 -2.34537 -2.34537
0.0113251 -2.32248 -2.32248
-0.0272653 -2.33375 -2.33375
-0.00803904 -2.34528 -2.34528
0.0112903 -2.33392 -2.33392
-0.00793598 -2.32239 -2.32239
-0.00798746 -2.33383 -2.33383
-0.0273334 -2.34519 -2.34519
-0.027469 -2.36812 -2.36812
0.011184 -2.3683 -2.3683
0.0112552 -2.34537 -2.34537
-0.0274013 -2.35665 -2.35665
-0.00814244 -2.3682 -2.3682
0.0112198 -2.35683 -2.35683
-0.00803904 -2.34528 -2.34528
-0.0080907 -2.35674 -2.35674
-0.027469 -2.36812 -2.36812
-0.0276039 -2.39108 -2.39108
0.0111115 -2.39126 -2.39126
0.011184 -2.3683 -2.3683
-0.0275365 -2.3796 -2.3796
-0.00824619 -2.39117 -2.39117
0.0111479 -2.37977 -2.37977
-0.00814244 -2.3682 -2.3682
-0.00819428 -2.37968 -2.37968
-0.0276039 -2.39108 -2.39108
-0.0277381 -2.41408 -2.41408
0.0110375 -2.41426 -2.41426
0.0111115 -2.39126 -2.39126
-0.0276711 -2.40258 -2.40258
-0.00835026 -2.41417 -2.41417
0.0110747 -2.40276 -2.40276
-0.00824619 -2.39117 -2.39117
-0.00829819 -2.40266 -2.40266
-0.0277381 -2.41408 -2.41408
-0.0278717 -2.43712 -2.43712
0.0109623 -2.4373 -2.4373
0.0110375 -2.41426 -2.41426
-0.027805 -2.4256 -2.4256
-0.00845465 -2.4372 -2.4372
0.0110001 -2.42577 -2.42577
-0.00835026 -2.41417 -2.41417
-0.00840242 -2.42568 -2.42568
-0.0278717 -2.43712 -2.43712
-0.0280045 -2.46019 -2.46019
0.0108857 -2.46037 -2.46037
0.0109623 -2.4373 -2.4373
-0.0279382 -2.44865 -2.44865
-0.00855935 -2.46027 -2.46027
0.0109242 -2.44883 -2.44883
-0.00845465 -2.4372 -2.4372
-0.00850697 -2.44874 -2.44874
-0.0280045 -2.46019 -2.46019
-0.0281366 -2.48329 -2.48329
0.0108078 -2.48347 -2.48347
0.0108857 -2.46037 -2.46037
-0.0280706 -2.47174 -2.47174
-0.00866435 -2.48338 -2.48338
0.0108469 -2.47191 -2.47191
-0.00855935 -2.46027 -2.46027
-0.00861181 -2.47182 -2.47182
-0.0281366 -2.48329 -2.48329
-0.0282679 -2.50642 -2.50642
0.0107286 -2.5066 -2.5066
0.0108078 -2.48347 -2.48347
-0.0282023 -2.49485 -2.49485
-0.00876963 -2.50651 -2.50651
0.0107684 -2.49503 -2.49503
-0.00866435 -2.48338 -2.48338
-0.00871695 -2.49494 -2.49494
-0.0282679 -2.50642 -2.50642
-0.0283985 -2.52959 -2.52959
0.0106481 -2.52977 -2.52977
0.0107286 -2.5066 -2.5066
-0.0283333 -2.518 -2.518
-0.00887519 -2.52967 -2.52967
0.0106885 -2.51818 -2.51818
-0.00876963 -2.50651 -2.50651
-0.00882238 -2.51809 -2.51809
-0.0283985 -2.52959 -2.52959
-0.0285284 -2.55278 -2.55278
0.0105663 -2.55296 -2.55296
0.0106481 -2.52977 -2.52977
-0.0284635 -2.54118 -2.54118
-0.00898101 -2.55287 -2.55287
0.0106074 -2.54136 -2.54136
-0.00887519 -2.52967 -2.52967
-0.00892807 -2.54127 -2.54127
-0.0285284 -2.55278 -2.55278
-0.0286575 -2.576 -2.576
0.0104832 -2.57618 -2.57618
0.0105663 -2.55296 -2.55296
-0.028593 -2.56439 -2.56439
-0.00908709 -2.57609 -2.57609
0.0105249 -2.56457 -2.56457
-0.00898101 -2.55287 -2.55287
-0.00903402 -2.56447 -2.56447
-0.0286575 -2.576 -2.576
-0.0287857 -2.59925 -2.59925
0.0103989 -2.59943 -2.59943
0.0104832 -2.57618 -2.57618
-0.0287217 -2.58762 -2.58762
-0.00919341 -2.59934 -2.59934
0.0104412 -2.5878 -2.5878
-0.00908709 -2.57609 -2.57609
-0.00914022 -2.58771 -2.58771
-0.0287857 -2.59925 -2.59925
-0.0289133 -2.62252 -2.62252
0.0103133 -2.6227 -2.6227
0.0103989 -2.59943 -2.59943
-0.0288496 -2.61088 -2.61088
-0.00929996 -2.62261 -2.62261
0.0103562 -2.61106 -2.61106
-0.00919341 -2.59934 -2.59934
-0.00924665 -2.61097 -2.61097
-0.0289133 -2.62252 -2.62252
-0.02904 -2.64582 -2.64582
0.0102265 -2.646 -2.646
0.0103133 -2.6227 -2.6227
-0.0289767 -2.63417 -2.63417
-0.00940673 -2.64591 -2.64591
0.01027 -2.63435 -2.63435
-0.00929996 -2.62261 -2.62261
-0.00935332 -2.63425 -2.63425
-0.02904 -2.64582 -2.64582
-0.0291659 -2.66914 -2.66914
0.0101384 -2.66932 -2.66932
0.0102265 -2.646 -2.646
-0.029103 -2.65748 -2.65748
-0.00951372 -2.66923 -2.66923
0.0101826 -2.65766 -2.65766
-0.00940673 -2.64591 -2.64591
-0.0094602 -2.65756 -2.65756
-0.0291659 -2.66914 -2.66914
-0.0292909 -2.69248 -2.69248
0.0100491 -2.69266 -2.69266
0.0101384 -2.66932 -2.66932
-0.0292285 -2.68081 -2.68081
-0.0096209 -2.69257 -2.69257
0.0100939 -2.68099 -2.68099
-0.00951372 -2.66923 -2.66923
-0.00956728 -2.68089 -2.68089
-0.0292909 -2.69248 -2.69248
-0.0294152 -2.71584 -2.71584
0.0099586 -2.71602 -2.71602
0.0100491 -2.69266 -2.69266
-0.0293532 -2.70416 -2.70416
-0.00972827 -2.71593 -2.71593
0.010004 -2.70434 -2.70434
-0.0096209 -2.69257 -2.69257
-0.00967456 -2.70425 -2.70425
-0.0294152 -2.71584 -2.71584
-0.0295386 -2.73922 -2.73922
0.00986689 -2.7394 -2.7394
0.0099586 -2.71602 -2.71602
-0.029477 -2.72753 -2.72753
-0.00983583 -2.73931 -2.73931
0.00991289 -2.72771 -2.72771
-0.00972827 -2.71593 -2.71593
-0.00978203 -2.72762 -2.72762
-0.0295386 -2.73922 -2.73922
-0.0296611 -2.76262 -2.76262
0.009774 -2.7628 -2.7628
0.00986689 -2.7394 -2.7394
-0.0296 -2.75092 -2.75092
-0.00994355 -2.76271 -2.76271
0.00982059 -2.7511 -2.7511
-0.00983583 -2.73931 -2.73931
-0.00988967 -2.75101 -2.75101
-0.0296611 -2.76262 -2.76262
-0.0297828 -2.78604 -2.78604
0.00967992 -2.78622 -2.78622
0.009774 -2.7628 -2.7628
-0.0297221 -2.77433 -2.77433
-0.0100514 -2.78613 -2.78613
0.00972711 -2.77451 -2.77451
-0.00994355 -2.76271 -2.76271
-0.00999746 -2.77442 -2.77442
-0.0297828 -2.78604 -2.78604
-0.0299036 -2.80947 -2.80947
0.00958467 -2.80965 -2.80965
0.00967992 -2.78622 -2.78622
-0.0298433 -2.79775 -2.79775
-0.0101594 -2.80956 -2.80956
0.00963244 -2.79794 -2.79794
-0.0100514 -2.78613 -2.78613
-0.0101054 -2.79784 -2.79784
-0.0299036 -2.80947 -2.80947
-0.0300235 -2.83292 -2.83292
0.00948826 -2.8331 -2.8331
0.00958467 -2.80965 -2.80965
-0.0299636 -2.82119 -2.82119
-0.0102676 -2.83301 -2.83301
0.00953661 -2.82138 -2.82138
-0.0101594 -2.80956 -2.80956
-0.0102135 -2.82128 -2.82128
-0.0300235 -2.83292 -2.83292
-0.0301424 -2.85638 -2.85638
0.00939066 -2.85656 -2.85656
0.00948826 -2.8331 -2.8331
-0.0300831 -2.84465 -2.84465
-0.0103759 -2.85647 -2.85647
0.00943961 -2.84483 -2.84483
-0.0102676 -2.83301 -2.83301
-0.0103217 -2.84474 -2.84474
-0.0301424 -2.85638 -2.85638
-0.0302605 -2.87985 -2.87985
0.00929189 -2.88004 -2.88004
0.00939066 -2.85656 -2.85656
-0.0302016 -2.86812 -2.86812
-0.0104843 -2.87994 -2.87994
0.00934143 -2.8683 -2.8683
-0.0103759 -2.85647 -2.85647
-0.0104301 -2.86821 -2.86821
-0.0302605 -2.87985 -2.87985
-0.0303775 -2.90334 -2.90334
0.00919189 -2.90352 -2.90352
0.00929189 -2.88004 -2.88004
-0.0303191 -2.89159 -2.89159
-0.0105928 -2.90343 -2.90343
0.00924205 -2.89178 -2.89178
-0.0104843 -2.87994 -2.87994
-0.0105385 -2.89168 -2.89168
-0.0303775 -2.90334 -2.90334
-0.0304934 -2.92683 -2.92683
0.00909062 -2.92701 -2.92701
0.00919189 -2.90352 -2.90352
-0.0304356 -2.91508 -2.91508
-0.0107014 -2.92692 -2.92692
0.00914142 -2.91527 -2.91527
-0.0105928 -2.90343 -2.90343
-0.0106471 -2.91517 -2.91517
-0.0304934 -2.92683 -2.92683
-0.0306081 -2.95033 -2.95033
0.00898801 -2.95052 -2.95052
0.00909062 -2.92701 -2.92701
-0.0305509 -2.93858 -2.93858
-0.0108101 -2.95042 -2.95042
0.00903949 -2.93876 -2.93876
-0.0107014 -2.92692 -2.92692
-0.0107557 -2.93867 -2.93867
-0.0306081 -2.95033 -2.95033
-0.0307216 -2.97384 -2.97384
0.00888393 -2.97403 -2.97403
0.00898801 -2.95052 -2.95052
-0.030665 -2.96209 -2.96209
-0.0109188 -2.97393 -2.97393
0.00893615 -2.96227 -2.96227
-0.0108101 -2.95042 -2.95042
-0.0108644 -2.96218 -2.96218
-0.0307216 -2.97384 -2.97384
-0.0308337 -2.99736 -2.99736
0.00877844 -2.99754 -2.99754
0.00888393 -2.97403 -2.97403
-0.0307778 -2.9856 -2.9856
-0.0110277 -2.99745 -2.99745
0.00883137 -2.98578 -2.98578
-0.0109188 -2.97393 -2.97393
-0.0109732 -2.98569 -2.98569
-0.0308337 -2.99736 -2.99736
-0.0309446 -3.02088 -3.02088
0.0086716 -3.02106 -3.02106
0.00877844 -2.99754 -2.99754
-0.0308893 -3.00912 -3.00912
-0.0111365 -3.02097 -3.02097
0.00872514 -3.0093 -3.0093
-0.0110277 -2.99745 -2.99745
-0.0110821 -3.00921 -3.00921
-0.0309446 -3.02088 -3.02088
-0.0310549 -3.0444 -3.0444
0.00856409 -3.04458 -3.04458
0.0086716 -3.02106 -3.02106
-0.0309998 -3.03264 -3.03264
-0.0112454 -3.04449 -3.04449
0.00861791 -3.03282 -3.03282
-0.0111365 -3.02097 -3.02097
-0.0111909 -3.03273 -3.03273
-0.0310549 -3.0444 -3.0444
-0.0311648 -3.06792 -3.06792
0.00845642 -3.0681 -3.0681
0.00856409 -3.04458 -3.04458
-0.0311098 -3.05616 -3.05616
-0.0113542 -3.06801 -3.06801
0.00851019 -3.05634 -3.05634
-0.0112454 -3.04449 -3.04449
-0.0112998 -3.05625 -3.05625
-0.0311648 -3.06792 -3.06792
-0.0312757 -3.09142 -3.09142
0.00834998 -3.0916 -3.0916
0.00845642 -3.0681 -3.0681
-0.0312201 -3.07967 -3.07967
-0.0114629 -3.09151 -3.09151
0.00840302 -3.07985 -3.07985
-0.0113542 -3.06801 -3.06801
-0.0114085 -3.07976 -3.07976
0 0 0
0.000174937 2.83409e-05 2.83409e-05
0.000532535 -5.51621e-05 -5.51621e-05
0 0 0
8.70688e-05 5.72403e-05 5.72403e-05
0.000352405 -3.01792e-06 -3.01792e-06
0.000258167 1.60486e-05 1.60486e-05
0 0 0
0.000171049 4.32094e-05 4.32094e-05
0.000174937 2.83409e-05 2.83409e-05
0.000364403 -0.00026983 -0.00026983
0.00110578 -0.000414981 -0.000414981
0.000532535 -5.51621e-05 -5.51621e-05
0.000267902 -8.25117e-05 -8.25117e-05
0.000731715 -0.000322447 -0.000322447
0.000815584 -0.000200586 -0.000200586
0.000352405 -3.01792e-06 -3.01792e-06
0.000539679 -0.000126295 -0.000126295
0.000364403 -0.00026983 -0.00026983
0.000560655 -0.000854468 -0.000854468
0.00170287 -0.00103728 -0.00103728
0.00110578 -0.000414981 -0.000414981
0.000462008 -0.000528284 -0.000528284
0.00112697 -0.000921883 -0.000921883
0.00140251 -0.000695027 -0.000695027
0.000731715 -0.000322447 -0.000322447
0.00092795 -0.000588977 -0.000588977
0.000560655 -0.000854468 -0.000854468
0.000761111 -0.00169948 -0.00169948
0.00230478 -0.00189882 -0.00189882
0.00170287 -0.00103728 -0.00103728
0.000660614 -0.0012456 -0.0012456
0.00152809 -0.00177377 -0.00177377
0.00200389 -0.00143879 -0.00143879
0.00112697 -0.000921883 -0.000921883
0.0013273 -0.00131734 -0.00131734
0.000761111 -0.00169948 -0.00169948
0.000961162 -0.00278872 -0.00278872
0.0029045 -0.00299329 -0.00299329
0.00230478 -0.00189882 -0.00189882
0.00086131 -0.00221421 -0.00221421
0.0019287 -0.0028656 -0.0028656
0.00260517 -0.00241712 -0.00241712
0.00152809 -0.00177377 -0.00177377
0.0017287 -0.00229017 -0.00229017
0.000961162 -0.00278872 -0.00278872
0.00115989 -0.00411397 -0.00411397
0.00349849 -0.00431823 -0.00431823
0.0029045 -0.00299329 -0.00299329
0.00106075 -0.00342217 -0.00342217
0.00232586 -0.00419088 -0.00419088
0.00320225 -0.003627 -0.003627
0.0019287 -0.0028656 -0.0028656
0.00212778 -0.00349927 -0.00349927
0.00115989 -0.00411397 -0.00411397
0.00135638 -0.00567089 -0.00567089
0.00408695 -0.00587325 -0.00587325
0.00349849 -0.00431823 -0.00431823
0.00125842 -0.00486363 -0.00486363
0.00271898 -0.00574715 -0.00574715
0.00379338 -0.00506702 -0.00506702
0.00232586 -0.00419088 -0.00419088
0.00252292 -0.00494025 -0.00494025
0.00135638 -0.00567089 -0.00567089
0.00155089 -0.00745735 -0.00745735
0.00467021 -0.00765755 -0.00765755
0.00408695 -0.00587325 -0.00587325
0.00145387 -0.00653552 -0.00653552
0.00310831 -0.00753278 -0.00753278
0.00437919 -0.00673679 -0.00673679
0.00271898 -0.00574715 -0.00574715
0.00291409 -0.00661136 -0.00661136
0.00155089 -0.00745735 -0.00745735
0.00174352 -0.00947199 -0.00947199
0.005249 -0.00967035 -0.00967035
0.00467021 -0.00765755 -0.00765755
0.00164742 -0.00843622 -0.00843622
0.00349429 -0.00954671 -0.00954671
0.00496013 -0.00863545 -0.00863545
0.00310831 -0.00753278 -0.00753278
0.00330169 -0.00851127 -0.00851127
0.00174352 -0.00947199 -0.00947199
0.00193454 -0.0117137 -0.0117137
0.00582376 -0.0119106 -0.0119106
0.005249 -0.00967035 -0.00967035
0.00183922 -0.0105645 -0.0105645
0.00387734 -0.0117879 -0.0117879
0.00553686 -0.0107621 -0.0107621
0.00349429 -0.00954671 -0.00954671
0.00368616 -0.010639 -0.010639
0.00193454 -0.0117137 -0.0117137
0.00212407 -0.0141816 -0.0141816
0.00639481 -0.0143773 -0.0143773
0.00582376 -0.0119106 -0.0119106
0.00202948 -0.0129195 -0.0129195
0.00425771 -0.0142553 -0.0142553
0.00610973 -0.0131158 -0.0131158
0.00387734 -0.0117879 -0.0117879
0.00406785 -0.0129934 -0.0129934
0.00212407 -0.0141816 -0.0141816
0.00231222 -0.0168744 -0.0168744
0.00696233 -0.0170693 -0.0170693
0.00639481 -0.0143773 -0.0143773
0.00221831 -0.0154999 -0.0154999
0.00463559 -0.0169479 -0.0169479
0.006679 -0.0156952 -0.0156952
0.00425771 -0.0142553 -0.0142553
0.00444696 -0.0155735 -0.0155735
0.00231222 -0.0168744 -0.0168744
0.00249902 -0.0197912 -0.0197912
0.00752642 -0.0199853 -0.0199853
0.00696233 -0.0170693 -0.0170693
0.00240578 -0.0183049 -0.0183049
0.00501106 -0.0198644 -0.0198644
0.0072448 -0.0184993 -0.0184993
0.00463559 -0.0169479 -0.0169479
0.00482362 -0.0183782 -0.0183782
0.00249902 -0.0197912 -0.0197912
0.0026845 -0.0229307 -0.0229307
0.00808713 -0.0231241 -0.0231241
0.00752642 -0.0199853 -0.0199853
0.00259192 -0.0213331 -0.0213331
0.00538417 -0.0230037 -0.0230037
0.0078072 -0.0215269 -0.0215269
0.00501106 -0.0198644 -0.0198644
0.00519791 -0.0214063 -0.0214063
0.0026845 -0.0229307 -0.0229307
0.00286866 -0.0262918 -0.0262918
0.00864446 -0.0264847 -0.0264847
0.00808713 -0.0231241 -0.0231241
0.00277675 -0.0245836 -0.0245836
0.00575492 -0.0263647 -0.0263647
0.00836622 -0.0247768 -0.0247768
0.00538417 -0.0230037 -0.0230037
0.00556984 -0.0246566 -0.0246566
0.00286866 -0.0262918 -0.0262918
0.0030515 -0.0298733 -0.0298733
0.00919842 -0.0300656 -0.0300656
0.00864446 -0.0264847 -0.0264847
0.00296025 -0.0280551 -0.0280551
0.00612332 -0.029946 -0.029946
0.00892186 -0.0282477 -0.0282477
0.00575492 -0.0263647 -0.0263647
0.00593941 -0.0281279 -0.0281279
0.0030515 -0.0298733 -0.0298733
0.00323299 -0.033674 -0.033674
0.00974899 -0.0338658 -0.0338658
0.00919842 -0.0300656 -0.0300656
0.00314241 -0.0317463 -0.0317463
0.00648935 -0.0337466 -0.0337466
0.00947413 -0.0319384 -0.0319384
0.00612332 -0.029946 -0.029946
0.00630663 -0.031819 -0.031819
0.00323299 -0.033674 -0.033674
0.00341313 -0.0376927 -0.0376927
0.0102962 -0.0378841 -0.0378841
0.00974899 -0.0338658 -0.0338658
0.00332323 -0.0356562 -0.0356562
0.00685301 -0.0377652 -0.0377652
0.010023 -0.0358478 -0.0358478
0.00648935 -0.0337466 -0.0337466
0.00667148 -0.0357287 -0.0357287
0.00341313 -0.0376927 -0.0376927
0.00359189 -0.0419282 -0.0419282
0.0108399 -0.0421191 -0.0421191
0.0102962 -0.0378841 -0.0378841
0.00350268 -0.0397834 -0.0397834
0.00721427 -0.0420006 -0.0420006
0.0105685 -0.0399745 -0.0399745
0.00685301 -0.0377652 -0.0377652
0.00703394 -0.0398559 -0.0398559
0.00359189 -0.0419282 -0.0419282
0.00376927 -0.0463792 -0.0463792
0.0113802 -0.0465697 -0.0465697
0.0108399 -0.0421191 -0.0421191
0.00368076 -0.0441268 -0.0441268
0.00757313 -0.0464516 -0.0464516
0.0111105 -0.0443175 -0.0443175
0.00721427 -0.0420006 -0.0420006
0.007394 -0.0441992 -0.0441992
0.00376927 -0.0463792 -0.0463792
0.00394524 -0.0510446 -0.0510446
0.0119171 -0.0512348 -0.0512348
0.0113802 -0.0465697 -0.0465697
0.00385743 -0.0486852 -0.0486852
0.00792956 -0.0511169 -0.0511169
0.0116491 -0.0488755 -0.0488755
0.00757313 -0.0464516 -0.0464516
0.00775165 -0.0487575 -0.0487575
0.00394524 -0.0510446 -0.0510446
0.0041198 -0.0559232 -0.0559232
0.0124505 -0.056113 -0.056113
0.0119171 -0.0512348 -0.0512348
0.0040327 -0.0534573 -0.0534573
0.00828354 -0.0559954 -0.0559954
0.0121843 -0.0536473 -0.0536473
0.00792956 -0.0511169 -0.0511169
0.00810685 -0.0535296 -0.0535296
0.0041198 -0.0559232 -0.0559232
0.00429292 -0.0610137 -0.0610137
0.0129805 -0.0612031 -0.0612031
0.0124505 -0.056113 -0.056113
0.00420654 -0.058442 -0.058442
0.00863507 -0.0610859 -0.0610859
0.0127159 -0.0586316 -0.0586316
0.00828354 -0.0559954 -0.0559954
0.00845961 -0.0585142 -0.0585142
0.00429292 -0.0610137 -0.0610137
0.00446459 -0.0663149 -0.0663149
0.0135069 -0.066504 -0.066504
0.0129805 -0.0612031 -0.0612031
0.00437894 -0.063638 -0.063638
0.00898413 -0.0663871 -0.0663871
0.0132441 -0.0638273 -0.0638273
0.00863507 -0.0610859 -0.0610859
0.00880991 -0.0637102 -0.0637102
0.00446459 -0.0663149 -0.0663149
0.0046348 -0.0718256 -0.0718256
0.0140298 -0.0720145 -0.0720145
0.0135069 -0.066504 -0.066504
0.00454988 -0.0690442 -0.0690442
0.0093307 -0.0718978 -0.0718978
0.0137688 -0.0692331 -0.0692331
0.00898413 -0.0663871 -0.0663871
0.00915773 -0.0691163 -0.0691163
0.0046348 -0.0718256 -0.0718256
0.00480352 -0.0775447 -0.0775447
0.0145493 -0.0777333 -0.0777333
0.0140298 -0.0720145 -0.0720145
0.00471935 -0.0746592 -0.0746592
0.00967477 -0.0776168 -0.0776168
0.01429 -0.0748479 -0.0748479
0.0093307 -0.0718978 -0.0718978
0.00950305 -0.0747314 -0.0747314
0.00480352 -0.0775447 -0.0775447
0.00497076 -0.0834708 -0.0834708
0.0150651 -0.0836592 -0.0836592
0.0145493 -0.0777333 -0.0777333
0.00488733 -0.0804819 -0.0804819
0.0100163 -0.083543 -0.083543
0.0148076 -0.0806704 -0.0806704
0.00967477 -0.0776168 -0.0776168
0.00984586 -0.0805541 -0.0805541
0.00497076 -0.0834708 -0.0834708
0.00513648 -0.0896028 -0.0896028
0.0155774 -0.089791 -0.089791
0.0150651 -0.0836592 -0.0836592
0.00505381 -0.0865112 -0.0865112
0.0103553 -0.089675 -0.089675
0.0153217 -0.0866994 -0.0866994
0.0100163 -0.083543 -0.083543
0.0101861 -0.0865833 -0.0865833
0.00513648 -0.0896028 -0.0896028
0.00530068 -0.0959395 -0.0959395
0.0160862 -0.0961275 -0.0961275
0.0155774 -0.089791 -0.089791
0.00521877 -0.0927457 -0.0927457
0.0106918 -0.0960117 -0.0960117
0.0158323 -0.0929337 -0.0929337
0.0103553 -0.089675 -0.089675
0.0105239 -0.0928179 -0.0928179
0.00530068 -0.0959395 -0.0959395
0.00546335 -0.10248 -0.10248
0.0165914 -0.102667 -0.102667
0.0160862 -0.0961275 -0.0961275
0.00538221 -0.0991842 -0.0991842
0.0110257 -0.102552 -0.102552
0.0163392 -0.0993721 -0.0993721
0.0106918 -0.0960117 -0.0960117
0.0108591 -0.0992565 -0.0992565
0.00546335 -0.10248 -0.10248
0.00562447 -0.109222 -0.109222
0.0170929 -0.10941 -0.10941
0.0165914 -0.102667 -0.102667
0.00554411 -0.105826 -0.105826
0.0113571 -0.109294 -0.109294
0.0168426 -0.106013 -0.106013
0.0110257 -0.102552 -0.102552
0.0111917 -0.105898 -0.105898
0.00562447 -0.109222 -0.109222
0.00578403 -0.116165 -0.116165
0.0175909 -0.116353 -0.116353
0.0170929 -0.10941 -0.10941
0.00570445 -0.112669 -0.112669
0.0116859 -0.116238 -0.116238
0.0173424 -0.112856 -0.112856
0.0113571 -0.109294 -0.109294
0.0115218 -0.112741 -0.112741
0.00578403 -0.116165 -0.116165
0.00594202 -0.123309 -0.123309
0.0180853 -0.123496 -0.123496
0.0175909 -0.116353 -0.116353
0.00586322 -0.119712 -0.119712
0.012012 -0.123381 -0.123381
0.0178385 -0.1199 -0.1199
0.0116859 -0.116238 -0.116238
0.0118493 -0.119785 -0.119785
0.00594202 -0.123309 -0.123309
0.00609842 -0.130651 -0.130651
0.018576 -0.130838 -0.130838
0.0180853 -0.123496 -0.123496
0.00602042 -0.126955 -0.126955
0.0123356 -0.130723 -0.130723
0.0183311 -0.127142 -0.127142
0.012012 -0.123381 -0.123381
0.0121741 -0.127027 -0.127027
0.00609842 -0.130651 -0.130651
0.00625322 -0.13819 -0.13819
0.0190631 -0.138377 -0.138377
0.018576 -0.130838 -0.130838
0.00617602 -0.134396 -0.134396
0.0126565 -0.138263 -0.138263
0.01882 -0.134583 -0.134583
0.0123356 -0.130723 -0.130723
0.0124964 -0.134468 -0.134468
0.00625322 -0.13819 -0.13819
0.00640642 -0.145925 -0.145925
0.0195465 -0.146113 -0.146113
0.0190631 -0.138377 -0.138377
0.00633002 -0.142033 -0.142033
0.0129748 -0.145998 -0.145998
0.0193052 -0.14222 -0.14222
0.0126565 -0.138263 -0.138263
0.012816 -0.142106 -0.142106
0.00640642 -0.145925 -0.145925
0.00655799 -0.153856 -0.153856
0.0200263 -0.154043 -0.154043
0.0195465 -0.146113 -0.146113
0.00648241 -0.149866 -0.149866
0.0132905 -0.153929 -0.153929
0.0197868 -0.150053 -0.150053
0.0129748 -0.145998 -0.145998
0.013133 -0.149939 -0.149939
0.00655799 -0.153856 -0.153856
0.00670793 -0.16198 -0.16198
0.0205023 -0.162167 -0.162167
0.0200263 -0.154043 -0.154043
0.00663317 -0.157894 -0.157894
0.0136035 -0.162053 -0.162053
0.0202648 -0.158081 -0.158081
0.0132905 -0.153929 -0.153929
0.0134474 -0.157967 -0.157967
0.00670793 -0.16198 -0.16198
0.00685623 -0.170297 -0.170297
0.0209747 -0.170484 -0.170484
0.0205023 -0.162167 -0.162167
0.00678229 -0.166114 -0.166114
0.0139139 -0.17037 -0.17037
0.020739 -0.166302 -0.166302
0.0136035 -0.162053 -0.162053
0.013759 -0.166187 -0.166187
0.00685623 -0.170297 -0.170297
0.00700288 -0.178805 -0.178805
0.0214434 -0.178992 -0.178992
0.0209747 -0.170484 -0.170484
0.00692976 -0.174527 -0.174527
0.0142216 -0.178878 -0.178878
0.0212095 -0.174714 -0.174714
0.0139139 -0.17037 -0.17037
0.014068 -0.1746 -0.1746
0.00700288 -0.178805 -0.178805
0.00714786 -0.187503 -0.187503
0.0219084 -0.18769 -0.18769
0.0214434 -0.178992 -0.178992
0.00707558 -0.18313 -0.18313
0.0145265 -0.187576 -0.187576
0.0216764 -0.183318 -0.183318
0.0142216 -0.178878 -0.178878
0.0143744 -0.183204 -0.183204
0.00714786 -0.187503 -0.187503
0.00729117 -0.19639 -0.19639
0.0223697 -0.196578 -0.196578
0.0219084 -0.18769 -0.18769
0.00721972 -0.191923 -0.191923
0.0148288 -0.196464 -0.196464
0.0221395 -0.19211 -0.19211
0.0145265 -0.187576 -0.187576
0.014678 -0.191997 -0.191997
0.00729117 -0.19639 -0.19639
0.00743279 -0.205465 -0.205465
0.0228272 -0.205653 -0.205653
0.0223697 -0.196578 -0.196578
0.00736219 -0.200904 -0.200904
0.0151284 -0.205539 -0.205539
0.0225989 -0.201092 -0.201092
0.0148288 -0.196464 -0.196464
0.014979 -0.200978 -0.200978
0.00743279 -0.205465 -0.205465
0.00757273 -0.214726 -0.214726
0.0232811 -0.214914 -0.214914
0.0228272 -0.205653 -0.205653
0.00750297 -0.210073 -0.210073
0.0154253 -0.2148 -0.2148
0.0230546 -0.21026 -0.21026
0.0151284 -0.205539 -0.205539
0.0152772 -0.210146 -0.210146
0.00757273 -0.214726 -0.214726
0.00771096 -0.224173 -0.224173
0.0237311 -0.224361 -0.224361
0.0232811 -0.214914 -0.214914
0.00764205 -0.219427 -0.219427
0.0157194 -0.224247 -0.224247
0.0235066 -0.219614 -0.219614
0.0154253 -0.2148 -0.2148
0.0155727 -0.219501 -0.219501
0.00771096 -0.224173 -0.224173
0.00784748 -0.233804 -0.233804
0.0241774 -0.233992 -0.233992
0.0237311 -0.224361 -0.224361
0.00777943 -0.228966 -0.228966
0.0160108 -0.233878 -0.233878
0.0239547 -0.229153 -0.229153
0.0157194 -0.224247 -0.224247
0.0158655 -0.22904 -0.22904
0.00784748 -0.233804 -0.233804
0.00798228 -0.243617 -0.243617
0.02462 -0.243805 -0.243805
0.0241774 -0.233992 -0.233992
0.00791509 -0.238688 -0.238688
0.0162995 -0.243692 -0.243692
0.0243992 -0.238876 -0.238876
0.0160108 -0.233878 -0.233878
0.0161555 -0.238762 -0.238762
0.00798228 -0.243617 -0.243617
0.00811535 -0.253613 -0.253613
0.0250587 -0.253801 -0.253801
0.02462 -0.243805 -0.243805
0.00804903 -0.248592 -0.248592
0.0165854 -0.253687 -0.253687
0.0248398 -0.24878 -0.24878
0.0162995 -0.243692 -0.243692
0.0164428 -0.248667 -0.248667
0.00811535 -0.253613 -0.253613
0.00824669 -0.263788 -0.263788
0.0254937 -0.263977 -0.263977
0.0250587 -0.253801 -0.253801
0.00818124 -0.258678 -0.258678
0.0168686 -0.263863 -0.263863
0.0252767 -0.258866 -0.258866
0.0165854 -0.253687 -0.253687
0.0167274 -0.258753 -0.258753
0.00824669 -0.263788 -0.263788
0.00837628 -0.274143 -0.274143
0.0259249 -0.274332 -0.274332
0.0254937 -0.263977 -0.263977
0.0083117 -0.268944 -0.268944
0.017149 -0.274219 -0.274219
0.0257098 -0.269132 -0.269132
0.0168686 -0.263863 -0.263863
0.0170091 -0.269019 -0.269019
0.00837628 -0.274143 -0.274143
0.00850412 -0.284676 -0.284676
0.0263523 -0.284865 -0.284865
0.0259249 -0.274332 -0.274332
0.00844042 -0.279388 -0.279388
0.0174266 -0.284752 -0.284752
0.0261391 -0.279576 -0.279576
0.017149 -0.274219 -0.274219
0.0172882 -0.279463 -0.279463
0.00850412 -0.284676 -0.284676
0.0086302 -0.295386 -0.295386
0.0267759 -0.295575 -0.295575
0.0263523 -0.284865 -0.284865
0.00856738 -0.290009 -0.290009
0.0177015 -0.295462 -0.295462
0.0265646 -0.290198 -0.290198
0.0174266 -0.284752 -0.284752
0.0175644 -0.290085 -0.290085
0.0086302 -0.295386 -0.295386
0.00875452 -0.306271 -0.306271
0.0271957 -0.306461 -0.306461
0.0267759 -0.295575 -0.295575
0.00869258 -0.300807 -0.300807
0.0179735 -0.306347 -0.306347
0.0269863 -0.300996 -0.300996
0.0177015 -0.295462 -0.295462
0.0178378 -0.300883 -0.300883
0.00875452 -0.306271 -0.306271
0.00887706 -0.317331 -0.317331
0.0276117 -0.317521 -0.317521
0.0271957 -0.306461 -0.306461
0.00881601 -0.31178 -0.31178
0.0182428 -0.317407 -0.317407
0.0274042 -0.311969 -0.311969
0.0179735 -0.306347 -0.306347
0.0181085 -0.311856 -0.311856
0.00887706 -0.317331 -0.317331
0.00899782 -0.328564 -0.328564
0.0280238 -0.328754 -0.328754
0.0276117 -0.317521 -0.317521
0.00893766 -0.322926 -0.322926
0.0185092 -0.32864 -0.32864
0.0278182 -0.323116 -0.323116
0.0182428 -0.317407 -0.317407
0.0183764 -0.323002 -0.323002
0.00899782 -0.328564 -0.328564
0.0091168 -0.339969 -0.339969
0.0284321 -0.340159 -0.340159
0.0280238 -0.328754 -0.328754
0.00905753 -0.334245 -0.334245
0.0187729 -0.340046 -0.340046
0.0282285 -0.334435 -0.334435
0.0185092 -0.32864 -0.32864
0.0186414 -0.334322 -0.334322
0.0091168 -0.339969 -0.339969
0.00923398 -0.351545 -0.351545
0.0288366 -0.351735 -0.351735
0.0284321 -0.340159 -0.340159
0.00917561 -0.345736 -0.345736
0.0190337 -0.351622 -0.351622
0.0286349 -0.345926 -0.345926
0.0187729 -0.340046 -0.340046
0.0189036 -0.345812 -0.345812
0.00923398 -0.351545 -0.351545
0.00934937 -0.36329 -0.36329
0.0292372 -0.36348 -0.36348
0.0288366 -0.351735 -0.351735
0.0092919 -0.357396 -0.357396
0.0192917 -0.363367 -0.363367
0.0290374 -0.357586 -0.357586
0.0190337 -0.351622 -0.351622
0.0191631 -0.357473 -0.357473
0.00934937 -0.36329 -0.36329
0.00946295 -0.375203 -0.375203
0.029634 -0.375394 -0.375394
0.0292372 -0.36348 -0.36348
0.00940638 -0.369226 -0.369226
0.0195469 -0.375281 -0.375281
0.0294361 -0.369416 -0.369416
0.0192917 -0.363367 -0.363367
0.0194197 -0.369303 -0.369303
0.00946295 -0.375203 -0.375203
0.00957472 -0.387284 -0.387284
0.030027 -0.387475 -0.387475
0.029634 -0.375394 -0.375394
0.00951906 -0.381223 -0.381223
0.0197993 -0.387362 -0.387362
0.029831 -0.381414 -0.381414
0.0195469 -0.375281 -0.375281
0.0196734 -0.3813 -0.3813
0.00957472 -0.387284 -0.387284
0.00968468 -0.399531 -0.399531
0.030416 -0.399722 -0.399722
0.030027 -0.387475 -0.387475
0.00962993 -0.393387 -0.393387
0.0200488 -0.399609 -0.399609
0.030222 -0.393578 -0.393578
0.0197993 -0.387362 -0.387362
0.0199244 -0.393464 -0.393464
0.00968468 -0.399531 -0.399531
0.00979282 -0.411942 -0.411942
0.0308012 -0.412133 -0.412133
0.030416 -0.399722 -0.399722
0.00973898 -0.405716 -0.405716
0.0202954 -0.41202 -0.41202
0.0306091 -0.405907 -0.405907
0.0200488 -0.399609 -0.399609
0.0201725 -0.405794 -0.405794
0.00979282 -0.411942 -0.411942
0.00989913 -0.424516 -0.424516
0.0311826 -0.424708 -0.424708
0.0308012 -0.412133 -0.412133
0.0098462 -0.418209 -0.418209
0.0205393 -0.424595 -0.424595
0.0309924 -0.4184 -0.4184
0.0202954 -0.41202 -0.41202
0.0204177 -0.418287 -0.418287
0.00989913 -0.424516 -0.424516
0.0100036 -0.437253 -0.437253
0.0315601 -0.437446 -0.437446
0.0311826 -0.424708 -0.424708
0.00995161 -0.430865 -0.430865
0.0207802 -0.437332 -0.437332
0.0313718 -0.431057 -0.431057
0.0205393 -0.424595 -0.424595
0.0206601 -0.430944 -0.430944
0.0100036 -0.437253 -0.437253
0.0101063 -0.450152 -0.450152
0.0319336 -0.450344 -0.450344
0.0315601 -0.437446 -0.437446
0.0100552 -0.443682 -0.443682
0.0210184 -0.450231 -0.450231
0.0317473 -0.443875 -0.443875
0.0207802 -0.437332 -0.437332
0.0208997 -0.443761 -0.443761
0.0101063 -0.450152 -0.450152
0.0102071 -0.463209 -0.463209
0.0323033 -0.463402 -0.463402
0.0319336 -0.450344 -0.450344
0.0101569 -0.456661 -0.456661
0.0212536 -0.463289 -0.463289
0.032119 -0.456853 -0.456853
0.0210184 -0.450231 -0.450231
0.0211364 -0.45674 -0.45674
0.0102071 -0.463209 -0.463209
0.0103061 -0.476426 -0.476426
0.0326692 -0.476619 -0.476619
0.0323033 -0.463402 -0.463402
0.0102568 -0.469798 -0.469798
0.021486 -0.476506 -0.476506
0.0324867 -0.469991 -0.469991
0.0212536 -0.463289 -0.463289
0.0213702 -0.469878 -0.469878
0.0103061 -0.476426 -0.476426
0.0104032 -0.4898 -0.4898
0.0330311 -0.489994 -0.489994
0.0326692 -0.476619 -0.476619
0.0103549 -0.483093 -0.483093
0.0217156 -0.48988 -0.48988
0.0328506 -0.483287 -0.483287
0.021486 -0.476506 -0.476506
0.0216012 -0.483173 -0.483173
0.0104032 -0.4898 -0.4898
0.0104985 -0.50333 -0.50333
0.0333891 -0.503524 -0.503524
0.0330311 -0.489994 -0.489994
0.0104511 -0.496546 -0.496546
0.0219422 -0.503411 -0.503411
0.0332106 -0.496739 -0.496739
0.0217156 -0.48988 -0.48988
0.0218293 -0.496626 -0.496626
0.0104985 -0.50333 -0.50333
0.0105919 -0.517015 -0.517015
0.0337433 -0.51721 -0.51721
0.0333891 -0.503524 -0.503524
0.0105454 -0.510154 -0.510154
0.022166 -0.517096 -0.517096
0.0335667 -0.510348 -0.510348
0.0219422 -0.503411 -0.503411
0.0220545 -0.510234 -0.510234
0.0105919 -0.517015 -0.517015
0.0106835 -0.530854 -0.530854
0.0340935 -0.531049 -0.531049
0.0337433 -0.51721 -0.51721
0.0106379 -0.523916 -0.523916
0.0223869 -0.530935 -0.530935
0.0339189 -0.52411 -0.52411
0.022166 -0.517096 -0.517096
0.0222768 -0.523997 -0.523997
0.0106835 -0.530854 -0.530854
0.0107732 -0.544846 -0.544846
0.0344399 -0.545041 -0.545041
0.0340935 -0.531049 -0.531049
0.0107286 -0.537831 -0.537831
0.022605 -0.544927 -0.544927
0.0342672 -0.538026 -0.538026
0.0223869 -0.530935 -0.530935
0.0224963 -0.537912 -0.537912
0.0107732 -0.544846 -0.544846
0.0108611 -0.558989 -0.558989
0.0347823 -0.559184 -0.559184
0.0344399 -0.545041 -0.545041
0.0108174 -0.551899 -0.551899
0.0228201 -0.559071 -0.559071
0.0346116 -0.552094 -0.552094
0.022605 -0.544927 -0.544927
0.0227129 -0.55198 -0.55198
0.0108611 -0.558989 -0.558989
0.0109471 -0.573282 -0.573282
0.0351209 -0.573478 -0.573478
0.0347823 -0.559184 -0.559184
0.0109043 -0.566117 -0.566117
0.0230324 -0.573364 -0.573364
0.0349521 -0.566313 -0.566313
0.0228201 -0.559071 -0.559071
0.0229266 -0.566199 -0.566199
0.0109471 -0.573282 -0.573282
0.0110312 -0.587724 -0.587724
0.0354555 -0.58792 -0.58792
0.0351209 -0.573478 -0.573478
0.0109894 -0.580485 -0.580485
0.0232418 -0.587807 -0.587807
0.0352887 -0.580681 -0.580681
0.0230324 -0.573364 -0.573364
0.0231374 -0.580567 -0.580567
0.0110312 -0.587724 -0.587724
0.0111135 -0.602314 -0.602314
0.0357862 -0.602511 -0.602511
0.0354555 -0.58792 -0.58792
0.0110726 -0.595001 -0.595001
0.0234483 -0.602397 -0.602397
0.0356213 -0.595197 -0.595197
0.0232418 -0.587807 -0.587807
0.0233454 -0.595083 -0.595083
0.0111135 -0.602314 -0.602314
0.0111939 -0.61705 -0.61705
0.036113 -0.617247 -0.617247
0.0357862 -0.602511 -0.602511
0.0111539 -0.609664 -0.609664
0.0236519 -0.617133 -0.617133
0.0359501 -0.609861 -0.609861
0.0234483 -0.602397 -0.602397
0.0235504 -0.609747 -0.609747
0.0111939 -0.61705 -0.61705
0.0112725 -0.631932 -0.631932
0.0364359 -0.632129 -0.632129
0.036113 -0.617247 -0.617247
0.0112334 -0.624473 -0.624473
0.0238526 -0.632015 -0.632015
0.036275 -0.62467 -0.62467
0.0236519 -0.617133 -0.617133
0.0237526 -0.624556 -0.624556
0.0112725 -0.631932 -0.631932
0.0113491 -0.646958 -0.646958
0.0367549 -0.647156 -0.647156
0.0364359 -0.632129 -0.632129
0.011311 -0.639427 -0.639427
0.0240504 -0.647041 -0.647041
0.0365959 -0.639625 -0.639625
0.0238526 -0.632015 -0.632015
0.0239519 -0.63951 -0.63951
0.0113491 -0.646958 -0.646958
0.0114239 -0.662127 -0.662127
0.03707 -0.662325 -0.662325
0.0367549 -0.647156 -0.647156
0.0113868 -0.654524 -0.654524
0.0242454 -0.66221 -0.66221
0.0369129 -0.654722 -0.654722
0.0240504 -0.647041 -0.647041
0.0241483 -0.654608 -0.654608
0.0114239 -0.662127 -0.662127
0.0114969 -0.677437 -0.677437
0.0373811 -0.677635 -0.677635
0.03707 -0.662325 -0.662325
0.0114606 -0.669764 -0.669764
0.0244374 -0.677521 -0.677521
0.037226 -0.669962 -0.669962
0.0242454 -0.66221 -0.66221
0.0243418 -0.669848 -0.669848
0.0114969 -0.677437 -0.677437
0.0115679 -0.692888 -0.692888
0.0376884 -0.693087 -0.693087
0.0373811 -0.677635 -0.677635
0.0115326 -0.685145 -0.685145
0.0246266 -0.692972 -0.692972
0.0375352 -0.685344 -0.685344
0.0244374 -0.677521 -0.677521
0.0245324 -0.685229 -0.685229
0.0115679 -0.692888 -0.692888
0.0116371 -0.708478 -0.708478
0.0379917 -0.708677 -0.708677
0.0376884 -0.693087 -0.693087
0.0116028 -0.700665 -0.700665
0.0248128 -0.708563 -0.708563
0.0378405 -0.700865 -0.700865
0.0246266 -0.692972 -0.692972
0.0247201 -0.70075 -0.70075
0.0116371 -0.708478 -0.708478
0.0117044 -0.724206 -0.724206
0.0382911 -0.724406 -0.724406
0.0379917 -0.708677 -0.708677
0.011671 -0.716325 -0.716325
0.0249962 -0.724291 -0.724291
0.0381419 -0.716524 -0.716524
0.0248128 -0.708563 -0.708563
0.0249049 -0.71641 -0.71641
0.0117044 -0.724206 -0.724206
0.0117699 -0.740071 -0.740071
0.0385866 -0.740271 -0.740271
0.0382911 -0.724406 -0.724406
0.0117374 -0.732121 -0.732121
0.0251767 -0.740156 -0.740156
0.0384393 -0.732321 -0.732321
0.0249962 -0.724291 -0.724291
0.0250868 -0.732207 -0.732207
0.0117699 -0.740071 -0.740071
0.0118335 -0.756071 -0.756071
0.0388781 -0.756272 -0.756272
0.0385866 -0.740271 -0.740271
0.0118019 -0.748054 -0.748054
0.0253542 -0.756157 -0.756157
0.0387329 -0.748255 -0.748255
0.0251767 -0.740156 -0.740156
0.0252658 -0.74814 -0.74814
0.0118335 -0.756071 -0.756071
0.0118952 -0.772207 -0.772207
0.0391658 -0.772407 -0.772407
0.0388781 -0.756272 -0.756272
0.0118646 -0.764122 -0.764122
0.0255289 -0.772293 -0.772293
0.0390225 -0.764323 -0.764323
0.0253542 -0.756157 -0.756157
0.0254419 -0.764208 -0.764208
0.0118952 -0.772207 -0.772207
0.011955 -0.788475 -0.788475
0.0394495 -0.788676 -0.788676
0.0391658 -0.772407 -0.772407
0.0119253 -0.780324 -0.780324
0.0257007 -0.788561 -0.788561
0.0393082 -0.780525 -0.780525
0.0255289 -0.772293 -0.772293
0.0256152 -0.78041 -0.78041
0.011955 -0.788475 -0.788475
0.012013 -0.804875 -0.804875
0.0397294 -0.805077 -0.805077
0.0394495 -0.788676 -0.788676
0.0119842 -0.796658 -0.796658
0.0258696 -0.804962 -0.804962
0.03959 -0.79686 -0.79686
0.0257007 -0.788561 -0.788561
0.0257855 -0.796745 -0.796745
0.012013 -0.804875 -0.804875
0.0120691 -0.821406 -0.821406
0.0400053 -0.821608 -0.821608
0.0397294 -0.805077 -0.805077
0.0120413 -0.813124 -0.813124
0.0260356 -0.821493 -0.821493
0.0398678 -0.813326 -0.813326
0.0258696 -0.804962 -0.804962
0.025953 -0.813211 -0.813211
0.0120691 -0.821406 -0.821406
0.0121233 -0.838067 -0.838067
0.0402773 -0.838269 -0.838269
0.0400053 -0.821608 -0.821608
0.0120964 -0.82972 -0.82972
0.0261987 -0.838154 -0.838154
0.0401418 -0.829922 -0.829922
0.0260356 -0.821493 -0.821493
0.0261175 -0.829807 -0.829807
0.0121233 -0.838067 -0.838067
0.0121757 -0.854855 -0.854855
0.0405454 -0.855058 -0.855058
0.0402773 -0.838269 -0.838269
0.0121497 -0.846445 -0.846445
0.0263589 -0.854943 -0.854943
0.0404118 -0.846648 -0.846648
0.0261987 -0.838154 -0.838154
0.0262792 -0.846533 -0.846533
0.0121757 -0.854855 -0.854855
0.0122262 -0.871772 -0.871772
0.0408096 -0.871975 -0.871975
0.0405454 -0.855058 -0.855058
0.0122012 -0.863298 -0.863298
0.0265163 -0.87186 -0.87186
0.040678 -0.863501 -0.863501
0.0263589 -0.854943 -0.854943
0.026438 -0.863386 -0.863386
0.0122262 -0.871772 -0.871772
0.0122748 -0.888814 -0.888814
0.0410698 -0.889017 -0.889017
0.0408096 -0.871975 -0.871975
0.0122507 -0.880277 -0.880277
0.0266707 -0.888902 -0.888902
0.0409402 -0.88048 -0.88048
0.0265163 -0.87186 -0.87186
0.0265939 -0.880365 -0.880365
0.0122748 -0.888814 -0.888814
0.0123216 -0.90598 -0.90598
0.0413262 -0.906184 -0.906184
0.0410698 -0.889017 -0.889017
0.0122984 -0.897381 -0.897381
0.0268223 -0.906069 -0.906069
0.0411985 -0.897585 -0.897585
0.0266707 -0.888902 -0.888902
0.0267469 -0.89747 -0.89747
0.0123216 -0.90598 -0.90598
0.0123665 -0.923271 -0.923271
0.0415787 -0.923475 -0.923475
0.0413262 -0.906184 -0.906184
0.0123443 -0.91461 -0.91461
0.026971 -0.92336 -0.92336
0.0414529 -0.914814 -0.914814
0.0268223 -0.906069 -0.906069
0.026897 -0.914699 -0.914699
0.0123665 -0.923271 -0.923271
0.0124096 -0.940683 -0.940683
0.0418273 -0.940888 -0.940888
0.0415787 -0.923475 -0.923475
0.0123883 -0.931962 -0.931962
0.0271168 -0.940773 -0.940773
0.0417035 -0.932166 -0.932166
0.026971 -0.92336 -0.92336
0.0270443 -0.932051 -0.932051
0.0124096 -0.940683 -0.940683
0.0124508 -0.958217 -0.958217
0.0420719 -0.958422 -0.958422
0.0418273 -0.940888 -0.940888
0.0124304 -0.949435 -0.949435
0.0272598 -0.958307 -0.958307
0.0419501 -0.94964 -0.94964
0.0271168 -0.940773 -0.940773
0.0271887 -0.949524 -0.949524
0.0124508 -0.958217 -0.958217
0.0124901 -0.97587 -0.97587
0.0423127 -0.976076 -0.976076
0.0420719 -0.958422 -0.958422
0.0124707 -0.967029 -0.967029
0.0273998 -0.97596 -0.97596
0.0421928 -0.967234 -0.967234
0.0272598 -0.958307 -0.958307
0.0273302 -0.967119 -0.967119
0.0124901 -0.97587 -0.97587
0.0125277 -0.993643 -0.993643
0.0425496 -0.993848 -0.993848
0.0423127 -0.976076 -0.976076
0.0125091 -0.984742 -0.984742
0.027537 -0.993733 -0.993733
0.0424316 -0.984947 -0.984947
0.0273998 -0.97596 -0.97596
0.0274688 -0.984832 -0.984832
0.0125277 -0.993643 -0.993643
0.0125633 -1.01153 -1.01153
0.0427826 -1.01174 -1.01174
0.0425496 -0.993848 -0.993848
0.0125457 -1.00257 -1.00257
0.0276714 -1.01162 -1.01162
0.0426666 -1.00278 -1.00278
0.027537 -0.993733 -0.993733
0.0276046 -1.00266 -1.00266
0.0125633 -1.01153 -1.01153
0.0125971 -1.02954 -1.02954
0.0430117 -1.02974 -1.02974
0.0427826 -1.01174 -1.01174
0.0125805 -1.02052 -1.02052
0.0278028 -1.02963 -1.02963
0.0428976 -1.02073 -1.02073
0.0276714 -1.01162 -1.01162
0.0277374 -1.02061 -1.02061
0.0125971 -1.02954 -1.02954
0.0126291 -1.04766 -1.04766
0.0432369 -1.04787 -1.04787
0.0430117 -1.02974 -1.02974
0.0126134 -1.03858 -1.03858
0.0279314 -1.04775 -1.04775
0.0431248 -1.03879 -1.03879
0.0278028 -1.02963 -1.02963
0.0278675 -1.03868 -1.03868
0.0126291 -1.04766 -1.04766
0.0126593 -1.06589 -1.06589
0.0434582 -1.0661 -1.0661
0.0432369 -1.04787 -1.04787
0.0126444 -1.05676 -1.05676
0.0280572 -1.06599 -1.06599
0.043348 -1.05697 -1.05697
0.0279314 -1.04775 -1.04775
0.0279946 -1.05685 -1.05685
0.0126593 -1.06589 -1.06589
0.0126876 -1.08424 -1.08424
0.0436757 -1.08445 -1.08445
0.0434582 -1.0661 -1.0661
0.0126737 -1.07505 -1.07505
0.02818 -1.08433 -1.08433
0.0435674 -1.07526 -1.07526
0.0280572 -1.06599 -1.06599
0.028119 -1.07515 -1.07515
0.0126876 -1.08424 -1.08424
0.0127141 -1.1027 -1.1027
0.0438893 -1.10291 -1.10291
0.0436757 -1.08445 -1.08445
0.0127011 -1.09346 -1.09346
0.0283001 -1.10279 -1.10279
0.043783 -1.09366 -1.09366
0.02818 -1.08433 -1.08433
0.0282404 -1.09355 -1.09355
0.0127141 -1.1027 -1.1027
0.0127387 -1.12127 -1.12127
0.044099 -1.12148 -1.12148
0.0438893 -1.10291 -1.10291
0.0127266 -1.11197 -1.11197
0.0284173 -1.12136 -1.12136
0.0439946 -1.11218 -1.11218
0.0283001 -1.10279 -1.10279
0.028359 -1.11206 -1.11206
0.0127387 -1.12127 -1.12127
0.0127616 -1.13995 -1.13995
0.0443048 -1.14016 -1.14016
0.044099 -1.12148 -1.12148
0.0127504 -1.13059 -1.13059
0.0285316 -1.14004 -1.14004
0.0442024 -1.1308 -1.1308
0.0284173 -1.12136 -1.12136
0.0284748 -1.13069 -1.13069
0.0127616 -1.13995 -1.13995
0.0127826 -1.15873 -1.15873
0.0445068 -1.15894 -1.15894
0.0443048 -1.14016 -1.14016
0.0127723 -1.14933 -1.14933
0.0286431 -1.15883 -1.15883
0.0444063 -1.14954 -1.14954
0.0285316 -1.14004 -1.14004
0.0285877 -1.14942 -1.14942
0.0127826 -1.15873 -1.15873
0.0128018 -1.17763 -1.17763
0.044705 -1.17783 -1.17783
0.0445068 -1.15894 -1.15894
0.0127924 -1.16817 -1.16817
0.0287518 -1.17772 -1.17772
0.0446064 -1.16837 -1.16837
0.0286431 -1.15883 -1.15883
0.0286978 -1.16826 -1.16826
0.0128018 -1.17763 -1.17763
0.0128192 -1.19662 -1.19662
0.0448993 -1.19683 -1.19683
0.044705 -1.17783 -1.17783
0.0128108 -1.18711 -1.18711
0.0288577 -1.19672 -1.19672
0.0448026 -1.18732 -1.18732
0.0287518 -1.17772 -1.17772
0.0288051 -1.1872 -1.1872
0.0128192 -1.19662 -1.19662
0.0128348 -1.21572 -1.21572
0.0450897 -1.21593 -1.21593
0.0448993 -1.19683 -1.19683
0.0128273 -1.20616 -1.20616
0.0289607 -1.21582 -1.21582
0.044995 -1.20637 -1.20637
0.0288577 -1.19672 -1.19672
0.0289095 -1.20625 -1.20625
0.0128348 -1.21572 -1.21572
0.0128487 -1.23493 -1.23493
0.0452763 -1.23514 -1.23514
0.0450897 -1.21593 -1.21593
0.012842 -1.22531 -1.22531
0.0290609 -1.23502 -1.23502
0.0451835 -1.22552 -1.22552
0.0289607 -1.21582 -1.21582
0.0290111 -1.22541 -1.22541
0.0128487 -1.23493 -1.23493
0.0128607 -1.25424 -1.25424
0.0454591 -1.25445 -1.25445
0.0452763 -1.23514 -1.23514
0.0128549 -1.24457 -1.24457
0.0291583 -1.25433 -1.25433
0.0453682 -1.24478 -1.24478
0.0290609 -1.23502 -1.23502
0.0291099 -1.24466 -1.24466
0.0128607 -1.25424 -1.25424
0.0128709 -1.27364 -1.27364
0.045638 -1.27385 -1.27385
0.0454591 -1.25445 -1.25445
0.012866 -1.26393 -1.26393
0.0292529 -1.27374 -1.27374
0.045549 -1.26414 -1.26414
0.0291583 -1.25433 -1.25433
0.0292059 -1.26402 -1.26402
0.0128709 -1.27364 -1.27364
0.0128794 -1.29315 -1.29315
0.0458131 -1.29336 -1.29336
0.045638 -1.27385 -1.27385
0.0128754 -1.28338 -1.28338
0.0293446 -1.29324 -1.29324
0.045726 -1.28359 -1.28359
0.0292529 -1.27374 -1.27374
0.0292991 -1.28348 -1.28348
0.0128794 -1.29315 -1.29315
0.012886 -1.31275 -1.31275
0.0459844 -1.31296 -1.31296
0.0458131 -1.29336 -1.29336
0.0128829 -1.30294 -1.30294
0.0294336 -1.31285 -1.31285
0.0458992 -1.30315 -1.30315
0.0293446 -1.29324 -1.29324
0.0293895 -1.30303 -1.30303
0.012886 -1.31275 -1.31275
0.0128909 -1.33245 -1.33245
0.0461518 -1.33267 -1.33267
0.0459844 -1.31296 -1.31296
0.0128887 -1.32259 -1.32259
0.0295198 -1.33255 -1.33255
0.0460686 -1.3228 -1.3228
0.0294336 -1.31285 -1.31285
0.029477 -1.32269 -1.32269
0.0128909 -1.33245 -1.33245
0.0128941 -1.35225 -1.35225
0.0463155 -1.35246 -1.35246
0.0461518 -1.33267 -1.33267
0.0128927 -1.34234 -1.34234
0.0296032 -1.35235 -1.35235
0.0462341 -1.34255 -1.34255
0.0295198 -1.33255 -1.33255
0.0295618 -1.34244 -1.34244
0.0128941 -1.35225 -1.35225
0.0128954 -1.37214 -1.37214
0.0464754 -1.37235 -1.37235
0.0463155 -1.35246 -1.35246
0.012895 -1.36219 -1.36219
0.0296838 -1.37224 -1.37224
0.0463959 -1.3624 -1.3624
0.0296032 -1.35235 -1.35235
0.0296438 -1.36228 -1.36228
0.0128954 -1.37214 -1.37214
0.0128951 -1.39213 -1.39213
0.0466314 -1.39234 -1.39234
0.0464754 -1.37235 -1.37235
0.0128955 -1.38212 -1.38212
0.0297616 -1.39222 -1.39222
0.0465539 -1.38233 -1.38233
0.0296838 -1.37224 -1.37224
0.0297231 -1.38222 -1.38222
0.0128951 -1.39213 -1.39213
0.012893 -1.4122 -1.4122
0.0467837 -1.41242 -1.41242
0.0466314 -1.39234 -1.39234
0.0128942 -1.40215 -1.40215
0.0298367 -1.4123 -1.4123
0.046708 -1.40237 -1.40237
0.0297616 -1.39222 -1.39222
0.0297995 -1.40225 -1.40225
0.012893 -1.4122 -1.4122
0.0128891 -1.43237 -1.43237
0.0469322 -1.43258 -1.43258
0.0467837 -1.41242 -1.41242
0.0128912 -1.42228 -1.42228
0.029909 -1.43247 -1.43247
0.0468584 -1.42249 -1.42249
0.0298367 -1.4123 -1.4123
0.0298732 -1.42237 -1.42237
0.0128891 -1.43237 -1.43237
0.0128835 -1.45263 -1.45263
0.0470769 -1.45284 -1.45284
0.0469322 -1.43258 -1.43258
0.0128865 -1.44249 -1.44249
0.0299786 -1.45272 -1.45272
0.047005 -1.4427 -1.4427
0.029909 -1.43247 -1.43247
0.0299441 -1.44259 -1.44259
0.0128835 -1.45263 -1.45263
0.0128762 -1.47297 -1.47297
0.0472178 -1.47319 -1.47319
0.0470769 -1.45284 -1.45284
0.01288 -1.46279 -1.46279
0.0300454 -1.47307 -1.47307
0.0471478 -1.463 -1.463
0.0299786 -1.45272 -1.45272
0.0300123 -1.46289 -1.46289
0.0128762 -1.47297 -1.47297
0.0128671 -1.49341 -1.49341
0.0473549 -1.49362 -1.49362
0.0472178 -1.47319 -1.47319
0.0128719 -1.48318 -1.48318
0.0301094 -1.4935 -1.4935
0.0472868 -1.48339 -1.48339
0.0300454 -1.47307 -1.47307
0.0300777 -1.48328 -1.48328
0.0128671 -1.49341 -1.49341
0.0128564 -1.51392 -1.51392
0.0474883 -1.51414 -1.51414
0.0473549 -1.49362 -1.49362
0.012862 -1.50365 -1.50365
0.0301708 -1.51402 -1.51402
0.0474221 -1.50387 -1.50387
0.0301094 -1.4935 -1.4935
0.0301404 -1.50375 -1.50375
0.0128564 -1.51392 -1.51392
0.0128439 -1.53453 -1.53453
0.047618 -1.53474 -1.53474
0.0474883 -1.51414 -1.51414
0.0128503 -1.52422 -1.52422
0.0302293 -1.53463 -1.53463
0.0475536 -1.52443 -1.52443
0.0301708 -1.51402 -1.51402
0.0302004 -1.52431 -1.52431
0.0128439 -1.53453 -1.53453
0.0128297 -1.55521 -1.55521
0.0477439 -1.55543 -1.55543
0.047618 -1.53474 -1.53474
0.012837 -1.54486 -1.54486
0.0302852 -1.55531 -1.55531
0.0476814 -1.54507 -1.54507
0.0302293 -1.53463 -1.53463
0.0302576 -1.54496 -1.54496
0.0128297 -1.55521 -1.55521
0.0128139 -1.57598 -1.57598
0.0478661 -1.5762 -1.5762
0.0477439 -1.55543 -1.55543
0.012822 -1.56559 -1.56559
0.0303384 -1.57608 -1.57608
0.0478054 -1.5658 -1.5658
0.0302852 -1.55531 -1.55531
0.0303121 -1.56569 -1.56569
0.0128139 -1.57598 -1.57598
0.0127963 -1.59683 -1.59683
0.0479845 -1.59705 -1.59705
0.0478661 -1.5762 -1.5762
0.0128053 -1.5864 -1.5864
0.0303888 -1.59693 -1.59693
0.0479257 -1.58661 -1.58661
0.0303384 -1.57608 -1.57608
0.0303639 -1.5865 -1.5865
0.0127963 -1.59683 -1.59683
0.0127771 -1.61776 -1.61776
0.0480992 -1.61798 -1.61798
0.0479845 -1.59705 -1.59705
0.0127869 -1.60729 -1.60729
0.0304365 -1.61786 -1.61786
0.0480423 -1.6075 -1.6075
0.0303888 -1.59693 -1.59693
0.030413 -1.60739 -1.60739
0.0127771 -1.61776 -1.61776
0.0127562 -1.63877 -1.63877
0.0482102 -1.63899 -1.63899
0.0480992 -1.61798 -1.61798
0.0127669 -1.62826 -1.62826
0.0304816 -1.63887 -1.63887
0.0481552 -1.62847 -1.62847
0.0304365 -1.61786 -1.61786
0.0304594 -1.62836 -1.62836
0.0127562 -1.63877 -1.63877
0.0127336 -1.65986 -1.65986
0.0483175 -1.66007 -1.66007
0.0482102 -1.63899 -1.63899
0.0127451 -1.64931 -1.64931
0.030524 -1.65996 -1.65996
0.0482643 -1.64952 -1.64952
0.0304816 -1.63887 -1.63887
0.0305031 -1.64941 -1.64941
0.0127336 -1.65986 -1.65986
0.0127094 -1.68102 -1.68102
0.0484211 -1.68124 -1.68124
0.0483175 -1.66007 -1.66007
0.0127217 -1.67043 -1.67043
0.0305636 -1.68112 -1.68112
0.0483698 -1.67064 -1.67064
0.030524 -1.65996 -1.65996
0.0305441 -1.67053 -1.67053
0.0127094 -1.68102 -1.68102
0.0126836 -1.70226 -1.70226
0.048521 -1.70247 -1.70247
0.0484211 -1.68124 -1.68124
0.0126967 -1.69163 -1.69163
0.0306007 -1.70236 -1.70236
0.0484715 -1.69185 -1.69185
0.0305636 -1.68112 -1.68112
0.0305825 -1.69173 -1.69173
0.0126836 -1.70226 -1.70226
0.012656 -1.72357 -1.72357
0.0486172 -1.72379 -1.72379
0.048521 -1.70247 -1.70247
0.01267 -1.71291 -1.71291
0.030635 -1.72367 -1.72367
0.0485695 -1.71312 -1.71312
0.0306007 -1.70236 -1.70236
0.0306182 -1.71301 -1.71301
0.012656 -1.72357 -1.72357
0.0126269 -1.74496 -1.74496
0.0487097 -1.74517 -1.74517
0.0486172 -1.72379 -1.72379
0.0126417 -1.73426 -1.73426
0.0306667 -1.74506 -1.74506
0.0486639 -1.73447 -1.73447
0.030635 -1.72367 -1.72367
0.0306512 -1.73435 -1.73435
0.0126269 -1.74496 -1.74496
0.0125962 -1.76641 -1.76641
0.0487986 -1.76663 -1.76663
0.0487097 -1.74517 -1.74517
0.0126117 -1.75568 -1.75568
0.0306958 -1.76651 -1.76651
0.0487546 -1.75589 -1.75589
0.0306667 -1.74506 -1.74506
0.0306816 -1.75577 -1.75577
0.0125962 -1.76641 -1.76641
0.0125638 -1.78794 -1.78794
0.0488838 -1.78815 -1.78815
0.0487986 -1.76663 -1.76663
0.0125802 -1.77717 -1.77717
0.0307222 -1.78804 -1.78804
0.0488416 -1.77738 -1.77738
0.0306958 -1.76651 -1.76651
0.0307093 -1.77727 -1.77727
0.0125638 -1.78794 -1.78794
0.0125298 -1.80953 -1.80953
0.0489653 -1.80975 -1.80975
0.0488838 -1.78815 -1.78815
0.012547 -1.79873 -1.79873
0.030746 -1.80963 -1.80963
0.048925 -1.79894 -1.79894
0.0307222 -1.78804 -1.78804
0.0307344 -1.79883 -1.79883
0.0125298 -1.80953 -1.80953
0.0124942 -1.8312 -1.8312
0.0490432 -1.83141 -1.83141
0.0489653 -1.80975 -1.80975
0.0125122 -1.82036 -1.82036
0.0307671 -1.8313 -1.8313
0.0490047 -1.82057 -1.82057
0.030746 -1.80963 -1.80963
0.0307569 -1.82046 -1.82046
0.0124942 -1.8312 -1.8312
0.012457 -1.85293 -1.85293
0.0491175 -1.85314 -1.85314
0.0490432 -1.83141 -1.83141
0.0124758 -1.84205 -1.84205
0.0307857 -1.85302 -1.85302
0.0490808 -1.84227 -1.84227
0.0307671 -1.8313 -1.8313
0.0307767 -1.84215 -1.84215
0.012457 -1.85293 -1.85293
0.0124183 -1.87472 -1.87472
0.0491882 -1.87493 -1.87493
0.0491175 -1.85314 -1.85314
0.0124379 -1.86381 -1.86381
0.0308016 -1.87482 -1.87482
0.0491533 -1.86403 -1.86403
0.0307857 -1.85302 -1.85302
0.030794 -1.86391 -1.86391
0.0124183 -1.87472 -1.87472
0.012378 -1.89658 -1.89658
0.0492552 -1.89679 -1.89679
0.0491882 -1.87493 -1.87493
0.0123983 -1.88564 -1.88564
0.030815 -1.89668 -1.89668
0.0492221 -1.88585 -1.88585
0.0308016 -1.87482 -1.87482
0.0308086 -1.88574 -1.88574
0.012378 -1.89658 -1.89658
0.0123361 -1.9185 -1.9185
0.0493186 -1.91871 -1.91871
0.0492552 -1.89679 -1.89679
0.0123572 -1.90753 -1.90753
0.0308257 -1.9186 -1.9186
0.0492874 -1.90774 -1.90774
0.030815 -1.89668 -1.89668
0.0308207 -1.90763 -1.90763
0.0123361 -1.9185 -1.9185
0.0122926 -1.94048 -1.94048
0.0493784 -1.9407 -1.9407
0.0493186 -1.91871 -1.91871
0.0123145 -1.92948 -1.92948
0.0308339 -1.94058 -1.94058
0.049349 -1.9297 -1.9297
0.0308257 -1.9186 -1.9186
0.0308301 -1.92958 -1.92958
0.0122926 -1.94048 -1.94048
0.0122476 -1.96253 -1.96253
0.0494347 -1.96274 -1.96274
0.0493784 -1.9407 -1.9407
0.0122703 -1.9515 -1.9515
0.0308395 -1.96263 -1.96263
0.049407 -1.95171 -1.95171
0.0308339 -1.94058 -1.94058
0.030837 -1.9516 -1.9516
0.0122476 -1.96253 -1.96253
0.0122011 -1.98463 -1.98463
0.0494873 -1.98484 -1.98484
0.0494347 -1.96274 -1.96274
0.0122245 -1.97357 -1.97357
0.0308426 -1.98473 -1.98473
0.0494614 -1.97379 -1.97379
0.0308395 -1.96263 -1.96263
0.0308414 -1.97367 -1.97367
0.0122011 -1.98463 -1.98463
0.012153 -2.00679 -2.00679
0.0495364 -2.00701 -2.00701
0.0494873 -1.98484 -1.98484
0.0121772 -1.99571 -1.99571
0.0308431 -2.00689 -2.00689
0.0495123 -1.99592 -1.99592
0.0308426 -1.98473 -1.98473
0.0308431 -1.99581 -1.99581
0.012153 -2.00679 -2.00679
0.0121034 -2.02901 -2.02901
0.0495819 -2.02922 -2.02922
0.0495364 -2.00701 -2.00701
0.0121284 -2.0179 -2.0179
0.030841 -2.02911 -2.02911
0.0495596 -2.01811 -2.01811
0.0308431 -2.00689 -2.00689
0.0308424 -2.018 -2.018
0.0121034 -2.02901 -2.02901
0.0120524 -2.05129 -2.05129
0.0496238 -2.0515 -2.0515
0.0495819 -2.02922 -2.02922
0.0120781 -2.04014 -2.04014
0.0308365 -2.05139 -2.05139
0.0496033 -2.04035 -2.04035
0.030841 -2.02911 -2.02911
0.0308391 -2.04024 -2.04024
0.0120524 -2.05129 -2.05129
0.0119998 -2.07362 -2.07362
0.0496623 -2.07383 -2.07383
0.0496238 -2.0515 -2.0515
0.0120262 -2.06244 -2.06244
0.0308294 -2.07372 -2.07372
0.0496435 -2.06266 -2.06266
0.0308365 -2.05139 -2.05139
0.0308332 -2.06254 -2.06254
0.0119998 -2.07362 -2.07362
0.0119457 -2.096 -2.096
0.0496971 -2.09621 -2.09621
0.0496623 -2.07383 -2.07383
0.0119729 -2.0848 -2.0848
0.0308198 -2.0961 -2.0961
0.0496801 -2.08501 -2.08501
0.0308294 -2.07372 -2.07372
0.0308249 -2.0849 -2.0849
0.0119457 -2.096 -2.096
0.0118901 -2.11843 -2.11843
0.0497285 -2.11864 -2.11864
0.0496971 -2.09621 -2.09621
0.0119181 -2.10721 -2.10721
0.0308077 -2.11853 -2.11853
0.0497133 -2.10742 -2.10742
0.0308198 -2.0961 -2.0961
0.030814 -2.10731 -2.10731
0.0118901 -2.11843 -2.11843
0.0118331 -2.14092 -2.14092
0.0497563 -2.14113 -2.14113
0.0497285 -2.11864 -2.11864
0.0118618 -2.12967 -2.12967
0.0307931 -2.14102 -2.14102
0.0497428 -2.12988 -2.12988
0.0308077 -2.11853 -2.11853
0.0308007 -2.12977 -2.12977
0.0118331 -2.14092 -2.14092
0.0117746 -2.16345 -2.16345
0.0497806 -2.16366 -2.16366
0.0497563 -2.14113 -2.14113
0.011804 -2.15218 -2.15218
0.030776 -2.16355 -2.16355
0.0497689 -2.15239 -2.15239
0.0307931 -2.14102 -2.14102
0.0307848 -2.15228 -2.15228
0.0117746 -2.16345 -2.16345
0.0117147 -2.18603 -2.18603
0.0498015 -2.18624 -2.18624
0.0497806 -2.16366 -2.16366
0.0117448 -2.17474 -2.17474
0.0307564 -2.18613 -2.18613
0.0497915 -2.17495 -2.17495
0.030776 -2.16355 -2.16355
0.0307665 -2.17484 -2.17484
0.0117147 -2.18603 -2.18603
0.0116533 -2.20866 -2.20866
0.0498188 -2.20887 -2.20887
0.0498015 -2.18624 -2.18624
0.0116841 -2.19734 -2.19734
0.0307344 -2.20876 -2.20876
0.0498106 -2.19755 -2.19755
0.0307564 -2.18613 -2.18613
0.0307457 -2.19744 -2.19744
0.0116533 -2.20866 -2.20866
0.0115905 -2.23134 -2.23134
0.0498327 -2.23155 -2.23155
0.0498188 -2.20887 -2.20887
0.011622 -2.22 -2.22
0.0307099 -2.23144 -2.23144
0.0498262 -2.22021 -2.22021
0.0307344 -2.20876 -2.20876
0.0307225 -2.2201 -2.2201
0.0115905 -2.23134 -2.23134
0.0115262 -2.25406 -2.25406
0.0498431 -2.25427 -2.25427
0.0498327 -2.23155 -2.23155
0.0115585 -2.24269 -2.24269
0.030683 -2.25416 -2.25416
0.0498383 -2.2429 -2.2429
0.0307099 -2.23144 -2.23144
0.0306968 -2.24279 -2.24279
0.0115262 -2.25406 -2.25406
0.0114606 -2.27683 -2.27683
0.04985 -2.27703 -2.27703
0.0498431 -2.25427 -2.25427
0.0114936 -2.26544 -2.26544
0.0306537 -2.27693 -2.27693
0.049847 -2.26565 -2.26565
0.030683 -2.25416 -2.25416
0.0306686 -2.26554 -2.26554
0.0114606 -2.27683 -2.27683
0.0113935 -2.29963 -2.29963
0.0498535 -2.29984 -2.29984
0.04985 -2.27703 -2.27703
0.0114272 -2.28822 -2.28822
0.0306219 -2.29973 -2.29973
0.0498522 -2.28843 -2.28843
0.0306537 -2.27693 -2.27693
0.0306381 -2.28832 -2.28832
0.0113935 -2.29963 -2.29963
0.0113251 -2.32248 -2.32248
0.0498536 -2.32269 -2.32269
0.0498535 -2.29984 -2.29984
0.0113594 -2.31105 -2.31105
0.0305877 -2.32258 -2.32258
0.049854 -2.31126 -2.31126
0.0306219 -2.29973 -2.29973
0.0306051 -2.31115 -2.31115
0.0113251 -2.32248 -2.32248
0.0112552 -2.34537 -2.34537
0.0498502 -2.34558 -2.34558
0.0498536 -2.32269 -2.32269
0.0112903 -2.33392 -2.33392
0.0305511 -2.34547 -2.34547
0.0498523 -2.33413 -2.33413
0.0305877 -2.32258 -2.32258
0.0305697 -2.33402 -2.33402
0.0112552 -2.34537 -2.34537
0.011184 -2.3683 -2.3683
0.0498434 -2.3685 -2.3685
0.0498502 -2.34558 -2.34558
0.0112198 -2.35683 -2.35683
0.0305121 -2.36839 -2.36839
0.0498473 -2.35703 -2.35703
0.0305511 -2.34547 -2.34547
0.0305319 -2.35693 -2.35693
0.011184 -2.3683 -2.3683
0.0111115 -2.39126 -2.39126
0.0498333 -2.39147 -2.39147
0.0498434 -2.3685 -2.3685
0.0111479 -2.37977 -2.37977
0.0304707 -2.39136 -2.39136
0.0498388 -2.37998 -2.37998
0.0305121 -2.36839 -2.36839
0.0304917 -2.37987 -2.37987
0.0111115 -2.39126 -2.39126
0.0110375 -2.41426 -2.41426
0.0498197 -2.41447 -2.41447
0.0498333 -2.39147 -2.39147
0.0110747 -2.40276 -2.40276
0.030427 -2.41436 -2.41436
0.0498269 -2.40296 -2.40296
0.0304707 -2.39136 -2.39136
0.0304491 -2.40285 -2.40285
0.0110375 -2.41426 -2.41426
0.0109623 -2.4373 -2.4373
0.0498027 -2.4375 -2.4375
0.0498197 -2.41447 -2.41447
0.0110001 -2.42577 -2.42577
0.0303809 -2.43739 -2.43739
0.0498116 -2.42598 -2.42598
0.030427 -2.41436 -2.41436
0.0304042 -2.42587 -2.42587
0.0109623 -2.4373 -2.4373
0.0108857 -2.46037 -2.46037
0.0497824 -2.46057 -2.46057
0.0498027 -2.4375 -2.4375
0.0109242 -2.44883 -2.44883
0.0303324 -2.46046 -2.46046
0.0497929 -2.44903 -2.44903
0.0303809 -2.43739 -2.43739
0.0303569 -2.44893 -2.44893
0.0108857 -2.46037 -2.46037
0.0108078 -2.48347 -2.48347
0.0497586 -2.48367 -2.48367
0.0497824 -2.46057 -2.46057
0.0108469 -2.47191 -2.47191
0.0302816 -2.48357 -2.48357
0.0497709 -2.47212 -2.47212
0.0303324 -2.46046 -2.46046
0.0303073 -2.47201 -2.47201
0.0108078 -2.48347 -2.48347
0.0107286 -2.5066 -2.5066
0.0497316 -2.50681 -2.50681
0.0497586 -2.48367 -2.48367
0.0107684 -2.49503 -2.49503
0.0302284 -2.5067 -2.5067
0.0497455 -2.49523 -2.49523
0.0302816 -2.48357 -2.48357
0.0302553 -2.49513 -2.49513
0.0107286 -2.5066 -2.5066
0.0106481 -2.52977 -2.52977
0.0497012 -2.52997 -2.52997
0.0497316 -2.50681 -2.50681
0.0106885 -2.51818 -2.51818
0.030173 -2.52986 -2.52986
0.0497168 -2.51838 -2.51838
0.0302284 -2.5067 -2.5067
0.030201 -2.51828 -2.51828
0.0106481 -2.52977 -2.52977
0.0105663 -2.55296 -2.55296
0.0496675 -2.55316 -2.55316
0.0497012 -2.52997 -2.52997
0.0106074 -2.54136 -2.54136
0.0301152 -2.55306 -2.55306
0.0496847 -2.54156 -2.54156
0.030173 -2.52986 -2.52986
0.0301444 -2.54146 -2.54146
0.0105663 -2.55296 -2.55296
0.0104832 -2.57618 -2.57618
0.0496304 -2.57638 -2.57638
0.0496675 -2.55316 -2.55316
0.0105249 -2.56457 -2.56457
0.0300552 -2.57628 -2.57628
0.0496493 -2.56477 -2.56477
0.0301152 -2.55306 -2.55306
0.0300855 -2.56466 -2.56466
0.0104832 -2.57618 -2.57618
0.0103989 -2.59943 -2.59943
0.04959 -2.59963 -2.59963
0.0496304 -2.57638 -2.57638
0.0104412 -2.5878 -2.5878
0.0299928 -2.59953 -2.59953
0.0496106 -2.588 -2.588
0.0300552 -2.57628 -2.57628
0.0300243 -2.5879 -2.5879
0.0103989 -2.59943 -2.59943
0.0103133 -2.6227 -2.6227
0.0495464 -2.6229 -2.6229
0.04959 -2.59963 -2.59963
0.0103562 -2.61106 -2.61106
0.0299282 -2.6228 -2.6228
0.0495686 -2.61126 -2.61126
0.0299928 -2.59953 -2.59953
0.0299608 -2.61116 -2.61116
0.0103133 -2.6227 -2.6227
0.0102265 -2.646 -2.646
0.0494994 -2.6462 -2.6462
0.0495464 -2.6229 -2.6229
0.01027 -2.63435 -2.63435
0.0298613 -2.6461 -2.6461
0.0495233 -2.63455 -2.63455
0.0299282 -2.6228 -2.6228
0.029895 -2.63444 -2.63444
0.0102265 -2.646 -2.646
0.0101384 -2.66932 -2.66932
0.0494492 -2.66952 -2.66952
0.0494994 -2.6462 -2.6462
0.0101826 -2.65766 -2.65766
0.0297921 -2.66942 -2.66942
0.0494747 -2.65785 -2.65785
0.0298613 -2.6461 -2.6461
0.029827 -2.65775 -2.65775
0.0101384 -2.66932 -2.66932
0.0100491 -2.69266 -2.69266
0.0493957 -2.69286 -2.69286
0.0494492 -2.66952 -2.66952
0.0100939 -2.68099 -2.68099
0.0297207 -2.69276 -2.69276
0.0494228 -2.68119 -2.68119
0.0297921 -2.66942 -2.66942
0.0297567 -2.68108 -2.68108
0.0100491 -2.69266 -2.69266
0.0099586 -2.71602 -2.71602
0.0493389 -2.71622 -2.71622
0.0493957 -2.69286 -2.69286
0.010004 -2.70434 -2.70434
0.0296471 -2.71612 -2.71612
0.0493677 -2.70454 -2.70454
0.0297207 -2.69276 -2.69276
0.0296842 -2.70444 -2.70444
0.0099586 -2.71602 -2.71602
0.00986689 -2.7394 -2.7394
0.0492789 -2.7396 -2.7396
0.0493389 -2.71622 -2.71622
0.00991289 -2.72771 -2.72771
0.0295712 -2.7395 -2.7395
0.0493093 -2.72791 -2.72791
0.0296471 -2.71612 -2.71612
0.0296095 -2.72781 -2.72781
0.00986689 -2.7394 -2.7394
0.009774 -2.7628 -2.7628
0.0492157 -2.763 -2.763
0.0492789 -2.7396 -2.7396
0.00982059 -2.7511 -2.7511
0.0294932 -2.7629 -2.7629
0.0492477 -2.7513 -2.7513
0.0295712 -2.7395 -2.7395
0.0295325 -2.7512 -2.7512
0.009774 -2.7628 -2.7628
0.00967992 -2.78622 -2.78622
0.0491492 -2.78642 -2.78642
0.0492157 -2.763 -2.763
0.00972711 -2.77451 -2.77451
0.0294129 -2.78632 -2.78632
0.0491829 -2.77471 -2.77471
0.0294932 -2.7629 -2.7629
0.0294533 -2.77461 -2.77461
0.00967992 -2.78622 -2.78622
0.00958467 -2.80965 -2.80965
0.0490795 -2.80985 -2.80985
0.0491492 -2.78642 -2.78642
0.00963244 -2.79794 -2.79794
0.0293304 -2.80975 -2.80975
0.0491148 -2.79813 -2.79813
0.0294129 -2.78632 -2.78632
0.029372 -2.79803 -2.79803
0.00958467 -2.80965 -2.80965
0.00948826 -2.8331 -2.8331
0.0490066 -2.8333 -2.8333
0.0490795 -2.80985 -2.80985
0.00953661 -2.82138 -2.82138
0.0292458 -2.8332 -2.8332
0.0490435 -2.82157 -2.82157
0.0293304 -2.80975 -2.80975
0.0292884 -2.82147 -2.82147
0.00948826 -2.8331 -2.8331
0.00939066 -2.85656 -2.85656
0.0489305 -2.85676 -2.85676
0.0490066 -2.8333 -2.8333
0.00943961 -2.84483 -2.84483
0.0291589 -2.85666 -2.85666
0.048969 -2.84502 -2.84502
0.0292458 -2.8332 -2.8332
0.0292026 -2.84493 -2.84493
0.00939066 -2.85656 -2.85656
0.00929189 -2.88004 -2.88004
0.0488511 -2.88023 -2.88023
0.0489305 -2.85676 -2.85676
0.00934143 -2.8683 -2.8683
0.0290698 -2.88013 -2.88013
0.0488912 -2.86849 -2.86849
0.0291589 -2.85666 -2.85666
0.0291146 -2.86839 -2.86839
0.00929189 -2.88004 -2.88004
0.00919189 -2.90352 -2.90352
0.0487684 -2.90371 -2.90371
0.0488511 -2.88023 -2.88023
0.00924205 -2.89178 -2.89178
0.0289784 -2.90361 -2.90361
0.0488102 -2.89197 -2.89197
0.0290698 -2.88013 -2.88013
0.0290244 -2.89187 -2.89187
0.00919189 -2.90352 -2.90352
0.00909062 -2.92701 -2.92701
0.0486822 -2.9272 -2.9272
0.0487684 -2.90371 -2.90371
0.00914142 -2.91527 -2.91527
0.0288846 -2.92711 -2.92711
0.0487258 -2.91546 -2.91546
0.0289784 -2.90361 -2.90361
0.0289318 -2.91536 -2.91536
0.00909062 -2.92701 -2.92701
0.00898801 -2.95052 -2.95052
0.0485924 -2.9507 -2.9507
0.0486822 -2.9272 -2.9272
0.00903949 -2.93876 -2.93876
0.0287882 -2.95061 -2.95061
0.0486378 -2.93895 -2.93895
0.0288846 -2.92711 -2.92711
0.0288367 -2.93886 -2.93886
0.00898801 -2.95052 -2.95052
0.00888393 -2.97403 -2.97403
0.0484988 -2.97421 -2.97421
0.0485924 -2.9507 -2.9507
0.00893615 -2.96227 -2.96227
0.0286891 -2.97412 -2.97412
0.0485461 -2.96246 -2.96246
0.0287882 -2.95061 -2.95061
0.028739 -2.96236 -2.96236
0.00888393 -2.97403 -2.97403
0.00877844 -2.99754 -2.99754
0.0484009 -2.99773 -2.99773
0.0484988 -2.97421 -2.97421
0.00883137 -2.98578 -2.98578
0.0285871 -2.99763 -2.99763
0.0484504 -2.98597 -2.98597
0.0286891 -2.97412 -2.97412
0.0286384 -2.98588 -2.98588
0.00877844 -2.99754 -2.99754
0.0086716 -3.02106 -3.02106
0.0482989 -3.02125 -3.02125
0.0484009 -2.99773 -2.99773
0.00872514 -3.0093 -3.0093
0.0284824 -3.02116 -3.02116
0.0483504 -3.00949 -3.00949
0.0285871 -2.99763 -2.99763
0.0285351 -3.00939 -3.00939
0.0086716 -3.02106 -3.02106
0.00856409 -3.04458 -3.04458
0.0481934 -3.04477 -3.04477
0.0482989 -3.02125 -3.02125
0.00861791 -3.03282 -3.03282
0.028376 -3.04468 -3.04468
0.0482464 -3.03301 -3.03301
0.0284824 -3.02116 -3.02116
0.0284293 -3.03292 -3.03292
0.00856409 -3.04458 -3.04458
0.00845642 -3.0681 -3.0681
0.0480875 -3.0683 -3.0683
0.0481934 -3.04477 -3.04477
0.00851019 -3.05634 -3.05634
0.0282696 -3.0682 -3.0682
0.0481403 -3.05654 -3.05654
0.028376 -3.04468 -3.04468
0.0283227 -3.05644 -3.05644
0.00845642 -3.0681 -3.0681
0.00834998 -3.0916 -3.0916
0.047984 -3.09181 -3.09181
0.0480875 -3.0683 -3.0683
0.00840302 -3.07985 -3.07985
0.0281643 -3.0917 -3.0917
0.0480353 -3.08006 -3.08006
0.0282696 -3.0682 -3.0682
0.0282168 -3.07995 -3.07995
0 0 0
0.000532535 -5.51621e-05 -5.51621e-05
0.000916232 -0.000260188 -0.000260188
0 0 0
0.000258167 1.60486e-05 1.60486e-05
0.000717298 -0.000132851 -0.000132851
0.000444639 -9.33528e-05 -9.33528e-05
0 0 0
0.000353195 -2.83462e-05 -2.83462e-05
0.000532535 -5.51621e-05 -5.51621e-05
0.00110578 -0.000414981 -0.000414981
0.00190817 -0.000750881 -0.000750881
0.000916232 -0.000260188 -0.000260188
0.000815584 -0.000200586 -0.000200586
0.00149343 -0.000554094 -0.000554094
0.00140749 -0.000481842 -0.000481842
0.000717298 -0.000132851 -0.000132851
0.00109916 -0.000311311 -0.000311311
0.00110578 -0.000414981 -0.000414981
0.00170287 -0.00103728 -0.00103728
0.00290902 -0.00142496 -0.00142496
0.00190817 -0.000750881 -0.000750881
0.00140251 -0.000695027 -0.000695027
0.00229411 -0.00120406 -0.00120406
0.0024092 -0.00106422 -0.00106422
0.00149343 -0.000554094 -0.000554094
0.00189277 -0.000851884 -0.000851884
0.00170287 -0.00103728 -0.00103728
0.00230478 -0.00189882 -0.00189882
0.0039047 -0.00230268 -0.00230268
0.00290902 -0.00142496 -0.00142496
0.00200389 -0.00143879 -0.00143879
0.00309615 -0.00207561 -0.00207561
0.00340774 -0.00183718 -0.00183718
0.00229411 -0.00120406 -0.00120406
0.00269562 -0.00161191 -0.00161191
0.00230478 -0.00189882 -0.00189882
0.0029045 -0.00299329 -0.00299329
0.00489172 -0.00339854 -0.00339854
0.0039047 -0.00230268 -0.00230268
0.00260517 -0.00241712 -0.00241712
0.0038918 -0.00317137 -0.00317137
0.00439923 -0.00282272 -0.00282272
0.00309615 -0.00207561 -0.00207561
0.0034949 -0.00259522 -0.00259522
0.0029045 -0.00299329 -0.00299329
0.00349849 -0.00431823 -0.00431823
0.00587198 -0.00472095 -0.00472095
0.00489172 -0.00339854 -0.00339854
0.00320225 -0.003627 -0.003627
0.00468035 -0.00449532 -0.00449532
0.00538264 -0.00403118 -0.00403118
0.0038918 -0.00317137 -0.00317137
0.00428693 -0.0038047 -0.0038047
0.00349849 -0.00431823 -0.00431823
0.00408695 -0.00587325 -0.00587325
0.00684586 -0.00627232 -0.00627232
0.00587198 -0.00472095 -0.00472095
0.00379338 -0.00506702 -0.00506702
0.00546229 -0.00604854 -0.00604854
0.00635968 -0.00546795 -0.00546795
0.00468035 -0.00449532 -0.00449532
0.0050721 -0.00524325 -0.00524325
0.00408695 -0.00587325 -0.00587325
0.00467021 -0.00765755 -0.00765755
0.00781406 -0.00805331 -0.00805331
0.00684586 -0.00627232 -0.00627232
0.00437919 -0.00673679 -0.00673679
0.00623844 -0.00783121 -0.00783121
0.00733064 -0.00713414 -0.00713414
0.00546229 -0.00604854 -0.00604854
0.00585105 -0.00691123 -0.00691123
0.00467021 -0.00765755 -0.00765755
0.005249 -0.00967035 -0.00967035
0.00877672 -0.0100632 -0.0100632
0.00781406 -0.00805331 -0.00805331
0.00496013 -0.00863545 -0.00863545
0.00700938 -0.00984261 -0.00984261
0.00829607 -0.00902972 -0.00902972
0.00623844 -0.00783121 -0.00783121
0.00662453 -0.00880838 -0.00880838
0.005249 -0.00967035 -0.00967035
0.00582376 -0.0119106 -0.0119106
0.00973401 -0.0123011 -0.0123011
0.00877672 -0.0100632 -0.0100632
0.00553686 -0.0107621 -0.0107621
0.0077755 -0.0120818 -0.0120818
0.00925603 -0.0111537 -0.0111537
0.00700938 -0.00984261 -0.00984261
0.00739302 -0.0109338 -0.0109338
0.00582376 -0.0119106 -0.0119106
0.00639481 -0.0143773 -0.0143773
0.0106859 -0.0147657 -0.0147657
0.00973401 -0.0123011 -0.0123011
0.00610973 -0.0131158 -0.0131158
0.00853703 -0.0145475 -0.0145475
0.0102106 -0.0135051 -0.0135051
0.0077755 -0.0120818 -0.0120818
0.00815683 -0.0132864 -0.0132864
0.00639481 -0.0143773 -0.0143773
0.00696233 -0.0170693 -0.0170693
0.0116325 -0.0174557 -0.0174557
0.0106859 -0.0147657 -0.0147657
0.006679 -0.0156952 -0.0156952
0.0092941 -0.0172386 -0.0172386
0.0111599 -0.0160826 -0.0160826
0.00853703 -0.0145475 -0.0145475
0.00891612 -0.0158649 -0.0158649
0.00696233 -0.0170693 -0.0170693
0.00752642 -0.0199853 -0.0199853
0.0125738 -0.0203699 -0.0203699
0.0116325 -0.0174557 -0.0174557
0.0072448 -0.0184993 -0.0184993
0.0100468 -0.0201538 -0.0201538
0.0121038 -0.0188849 -0.0188849
0.0092941 -0.0172386 -0.0172386
0.00967099 -0.0186682 -0.0186682
0.00752642 -0.0199853 -0.0199853
0.00808713 -0.0231241 -0.0231241
0.0135096 -0.0235071 -0.0235071
0.0125738 -0.0203699 -0.0203699
0.0078072 -0.0215269 -0.0215269
0.0107951 -0.0232919 -0.0232919
0.0130424 -0.0219107 -0.0219107
0.0100468 -0.0201538 -0.0201538
0.0104215 -0.0216951 -0.0216951
0.00808713 -0.0231241 -0.0231241
0.00864446 -0.0264847 -0.0264847
0.0144401 -0.026866 -0.026866
0.0135096 -0.0235071 -0.0235071
0.00836622 -0.0247768 -0.0247768
0.011539 -0.0266518 -0.0266518
0.0139755 -0.0251589 -0.0251589
0.0107951 -0.0232919 -0.0232919
0.0111676 -0.0249442 -0.0249442
0.00864446 -0.0264847 -0.0264847
0.00919842 -0.0300656 -0.0300656
0.0153652 -0.0304454 -0.0304454
0.0144401 -0.026866 -0.026866
0.00892186 -0.0282477 -0.0282477
0.0122785 -0.0302321 -0.0302321
0.0149033 -0.0286282 -0.0286282
0.011539 -0.0266518 -0.0266518
0.0119093 -0.0284145 -0.0284145
0.00919842 -0.0300656 -0.0300656
0.00974899 -0.0338658 -0.0338658
0.0162848 -0.0342441 -0.0342441
0.0153652 -0.0304454 -0.0304454
0.00947413 -0.0319384 -0.0319384
0.0130136 -0.0340317 -0.0340317
0.0158257 -0.0323174 -0.0323174
0.0122785 -0.0302321 -0.0302321
0.0126466 -0.0321045 -0.0321045
0.00974899 -0.0338658 -0.0338658
0.0102962 -0.0378841 -0.0378841
0.017199 -0.0382608 -0.0382608
0.0162848 -0.0342441 -0.0342441
0.010023 -0.0358478 -0.0358478
0.0137443 -0.0380493 -0.0380493
0.0167426 -0.0362253 -0.0362253
0.0130136 -0.0340317 -0.0340317
0.0133795 -0.0360133 -0.0360133
0.0102962 -0.0378841 -0.0378841
0.0108399 -0.0421191 -0.0421191
0.0181077 -0.0424944 -0.0424944
0.017199 -0.0382608 -0.0382608
0.0105685 -0.0399745 -0.0399745
0.0144705 -0.0422837 -0.0422837
0.0176541 -0.0403506 -0.0403506
0.0137443 -0.0380493 -0.0380493
0.014108 -0.0401394 -0.0401394
0.0108399 -0.0421191 -0.0421191
0.0113802 -0.0465697 -0.0465697
0.019011 -0.0469436 -0.0469436
0.0181077 -0.0424944 -0.0424944
0.0111105 -0.0443175 -0.0443175
0.0151923 -0.0467337 -0.0467337
0.0185601 -0.0446921 -0.0446921
0.0144705 -0.0422837 -0.0422837
0.014832 -0.0444818 -0.0444818
0.0113802 -0.0465697 -0.0465697
0.0119171 -0.0512348 -0.0512348
0.0199088 -0.0516072 -0.0516072
0.019011 -0.0469436 -0.0469436
0.0116491 -0.0488755 -0.0488755
0.0159096 -0.0513982 -0.0513982
0.0194606 -0.0492487 -0.0492487
0.0151923 -0.0467337 -0.0467337
0.0155515 -0.0490392 -0.0490392
0.0119171 -0.0512348 -0.0512348
0.0124505 -0.056113 -0.056113
0.020801 -0.056484 -0.056484
0.0199088 -0.0516072 -0.0516072
0.0121843 -0.0536473 -0.0536473
0.0166225 -0.0562758 -0.0562758
0.0203556 -0.054019 -0.054019
0.0159096 -0.0513982 -0.0513982
0.0162666 -0.0538104 -0.0538104
0.0124505 -0.056113 -0.056113
0.0129805 -0.0612031 -0.0612031
0.0216878 -0.0615728 -0.0615728
0.020801 -0.056484 -0.056484
0.0127159 -0.0586316 -0.0586316
0.0173308 -0.0613654 -0.0613654
0.0212451 -0.059002 -0.059002
0.0166225 -0.0562758 -0.0562758
0.0169772 -0.0587942 -0.0587942
0.0129805 -0.0612031 -0.0612031
0.0135069 -0.066504 -0.066504
0.022569 -0.0668724 -0.0668724
0.0216878 -0.0615728 -0.0615728
0.0132441 -0.0638273 -0.0638273
0.0180346 -0.0666658 -0.0666658
0.0221291 -0.0641963 -0.0641963
0.0173308 -0.0613654 -0.0613654
0.0176833 -0.0639893 -0.0639893
0.0135069 -0.066504 -0.066504
0.0140298 -0.0720145 -0.0720145
0.0234446 -0.0723815 -0.0723815
0.022569 -0.0668724 -0.0668724
0.0137688 -0.0692331 -0.0692331
0.0187339 -0.0721757 -0.0721757
0.0230075 -0.0696008 -0.0696008
0.0180346 -0.0666658 -0.0666658
0.0183849 -0.0693946 -0.0693946
0.0140298 -0.0720145 -0.0720145
0.0145493 -0.0777333 -0.0777333
0.0243147 -0.078099 -0.078099
0.0234446 -0.0723815 -0.0723815
0.01429 -0.0748479 -0.0748479
0.0194287 -0.077894 -0.077894
0.0238803 -0.0752143 -0.0752143
0.0187339 -0.0721757 -0.0721757
0.0190819 -0.0750089 -0.0750089
0.0145493 -0.0777333 -0.0777333
0.0150651 -0.0836592 -0.0836592
0.0251792 -0.0840236 -0.0840236
0.0243147 -0.078099 -0.078099
0.0148076 -0.0806704 -0.0806704
0.0201189 -0.0838194 -0.0838194
0.0247476 -0.0810355 -0.0810355
0.0194287 -0.077894 -0.077894
0.0197743 -0.0808309 -0.0808309
0.0150651 -0.0836592 -0.0836592
0.0155774 -0.089791 -0.089791
0.0260381 -0.0901542 -0.0901542
0.0251792 -0.0840236 -0.0840236
0.0153217 -0.0866994 -0.0866994
0.0208045 -0.0899507 -0.0899507
0.0256093 -0.0870633 -0.0870633
0.0201189 -0.0838194 -0.0838194
0.0204622 -0.0868594 -0.0868594
0.0155774 -0.089791 -0.089791
0.0160862 -0.0961275 -0.0961275
0.0268914 -0.0964895 -0.0964895
0.0260381 -0.0901542 -0.0901542
0.0158323 -0.0929337 -0.0929337
0.0214855 -0.0962867 -0.0962867
0.0264654 -0.0932963 -0.0932963
0.0208045 -0.0899507 -0.0899507
0.0211455 -0.0930932 -0.0930932
0.0160862 -0.0961275 -0.0961275
0.0165914 -0.102667 -0.102667
0.027739 -0.103028 -0.103028
0.0268914 -0.0964895 -0.0964895
0.0163392 -0.0993721 -0.0993721
0.0221619 -0.102826 -0.102826
0.0273159 -0.0997335 -0.0997335
0.0214855 -0.0962867 -0.0962867
0.0218243 -0.0995311 -0.0995311
0.0165914 -0.102667 -0.102667
0.0170929 -0.10941 -0.10941
0.028581 -0.109769 -0.109769
0.027739 -0.103028 -0.103028
0.0168426 -0.106013 -0.106013
0.0228337 -0.109568 -0.109568
0.0281607 -0.106374 -0.106374
0.0221619 -0.102826 -0.102826
0.0224984 -0.106172 -0.106172
0.0170929 -0.10941 -0.10941
0.0175909 -0.116353 -0.116353
0.0294174 -0.116711 -0.116711
0.028581 -0.109769 -0.109769
0.0173424 -0.112856 -0.112856
0.0235009 -0.116511 -0.116511
0.0289999 -0.113215 -0.113215
0.0228337 -0.109568 -0.109568
0.0231679 -0.113014 -0.113014
0.0175909 -0.116353 -0.116353
0.0180853 -0.123496 -0.123496
0.0302481 -0.123853 -0.123853
0.0294174 -0.116711 -0.116711
0.0178385 -0.1199 -0.1199
0.0241634 -0.123654 -0.123654
0.0298335 -0.120258 -0.120258
0.0235009 -0.116511 -0.116511
0.0238327 -0.120057 -0.120057
0.0180853 -0.123496 -0.123496
0.018576 -0.130838 -0.130838
0.0310732 -0.131194 -0.131194
0.0302481 -0.123853 -0.123853
0.0183311 -0.127142 -0.127142
0.0248213 -0.130995 -0.130995
0.0306613 -0.127499 -0.127499
0.0241634 -0.123654 -0.123654
0.0244929 -0.1273 -0.1273
0.018576 -0.130838 -0.130838
0.0190631 -0.138377 -0.138377
0.0318925 -0.138732 -0.138732
0.0310732 -0.131194 -0.131194
0.01882 -0.134583 -0.134583
0.0254745 -0.138534 -0.138534
0.0314835 -0.134939 -0.134939
0.0248213 -0.130995 -0.130995
0.0251485 -0.13474 -0.13474
0.0190631 -0.138377 -0.138377
0.0195465 -0.146113 -0.146113
0.0327062 -0.146467 -0.146467
0.0318925 -0.138732 -0.138732
0.0193052 -0.14222 -0.14222
0.026123 -0.146269 -0.146269
0.0323 -0.142575 -0.142575
0.0254745 -0.138534 -0.138534
0.0257994 -0.142377 -0.142377
0.0195465 -0.146113 -0.146113
0.0200263 -0.154043 -0.154043
0.0335141 -0.154396 -0.154396
0.0327062 -0.146467 -0.146467
0.0197868 -0.150053 -0.150053
0.0267669 -0.154199 -0.154199
0.0331108 -0.150407 -0.150407
0.026123 -0.146269 -0.146269
0.0264455 -0.150209 -0.150209
0.0200263 -0.154043 -0.154043
0.0205023 -0.162167 -0.162167
0.0343163 -0.162519 -0.162519
0.0335141 -0.154396 -0.154396
0.0202648 -0.158081 -0.158081
0.027406 -0.162323 -0.162323
0.0339159 -0.158433 -0.158433
0.0267669 -0.154199 -0.154199
0.0270871 -0.158237 -0.158237
0.0205023 -0.162167 -0.162167
0.0209747 -0.170484 -0.170484
0.0351128 -0.170835 -0.170835
0.0343163 -0.162519 -0.162519
0.020739 -0.166302 -0.166302
0.0280405 -0.170639 -0.170639
0.0347153 -0.166653 -0.166653
0.027406 -0.162323 -0.162323
0.0277239 -0.166457 -0.166457
0.0209747 -0.170484 -0.170484
0.0214434 -0.178992 -0.178992
0.0359035 -0.179342 -0.179342
0.0351128 -0.170835 -0.170835
0.0212095 -0.174714 -0.174714
0.0286702 -0.179147 -0.179147
0.0355089 -0.175065 -0.175065
0.0280405 -0.170639 -0.170639
0.0283559 -0.174869 -0.174869
0.0214434 -0.178992 -0.178992
0.0219084 -0.18769 -0.18769
0.0366885 -0.188039 -0.188039
0.0359035 -0.179342 -0.179342
0.0216764 -0.183318 -0.183318
0.0292952 -0.187845 -0.187845
0.0362968 -0.183667 -0.183667
0.0286702 -0.179147 -0.179147
0.0289833 -0.183472 -0.183472
0.0219084 -0.18769 -0.18769
0.0223697 -0.196578 -0.196578
0.0374678 -0.196926 -0.196926
0.0366885 -0.188039 -0.188039
0.0221395 -0.19211 -0.19211
0.0299155 -0.196732 -0.196732
0.0370789 -0.192459 -0.192459
0.0292952 -0.187845 -0.187845
0.0296059 -0.192265 -0.192265
0.0223697 -0.196578 -0.196578
0.0228272 -0.205653 -0.205653
0.0382412 -0.206 -0.206
0.0374678 -0.196926 -0.196926
0.0225989 -0.201092 -0.201092
0.030531 -0.205806 -0.205806
0.0378552 -0.201439 -0.201439
0.0299155 -0.196732 -0.196732
0.0302238 -0.201245 -0.201245
0.0228272 -0.205653 -0.205653
0.0232811 -0.214914 -0.214914
0.0390089 -0.21526 -0.21526
0.0382412 -0.206 -0.206
0.0230546 -0.21026 -0.21026
0.0311417 -0.215067 -0.215067
0.0386258 -0.210607 -0.210607
0.030531 -0.205806 -0.205806
0.0308369 -0.210413 -0.210413
0.0232811 -0.214914 -0.214914
0.0237311 -0.224361 -0.224361
0.0397708 -0.224706 -0.224706
0.0390089 -0.21526 -0.21526
0.0235066 -0.219614 -0.219614
0.0317477 -0.224514 -0.224514
0.0393906 -0.21996 -0.21996
0.0311417 -0.215067 -0.215067
0.0314453 -0.219767 -0.219767
0.0237311 -0.224361 -0.224361
0.0241774 -0.233992 -0.233992
0.0405269 -0.234336 -0.234336
0.0397708 -0.224706 -0.224706
0.0239547 -0.229153 -0.229153
0.0323489 -0.234144 -0.234144
0.0401496 -0.229498 -0.229498
0.0317477 -0.224514 -0.224514
0.0320489 -0.229306 -0.229306
0.0241774 -0.233992 -0.233992
0.02462 -0.243805 -0.243805
0.0412771 -0.244149 -0.244149
0.0405269 -0.234336 -0.234336
0.0243992 -0.238876 -0.238876
0.0329453 -0.243958 -0.243958
0.0409027 -0.23922 -0.23922
0.0323489 -0.234144 -0.234144
0.0326477 -0.239028 -0.239028
0.02462 -0.243805 -0.243805
0.0250587 -0.253801 -0.253801
0.0420216 -0.254143 -0.254143
0.0412771 -0.244149 -0.244149
0.0248398 -0.24878 -0.24878
0.0335369 -0.253953 -0.253953
0.0416501 -0.249123 -0.249123
0.0329453 -0.243958 -0.243958
0.0332417 -0.248933 -0.248933
0.0250587 -0.253801 -0.253801
0.0254937 -0.263977 -0.263977
0.0427602 -0.264318 -0.264318
0.0420216 -0.254143 -0.254143
0.0252767 -0.258866 -0.258866
0.0341237 -0.264128 -0.264128
0.0423916 -0.259208 -0.259208
0.0335369 -0.253953 -0.253953
0.0338309 -0.259018 -0.259018
0.0254937 -0.263977 -0.263977
0.0259249 -0.274332 -0.274332
0.043493 -0.274673 -0.274673
0.0427602 -0.264318 -0.264318
0.0257098 -0.269132 -0.269132
0.0347057 -0.274483 -0.274483
0.0431274 -0.269473 -0.269473
0.0341237 -0.264128 -0.264128
0.0344153 -0.269283 -0.269283
0.0259249 -0.274332 -0.274332
0.0263523 -0.284865 -0.284865
0.04422 -0.285205 -0.285205
0.043493 -0.274673 -0.274673
0.0261391 -0.279576 -0.279576
0.0352829 -0.285016 -0.285016
0.0438572 -0.279917 -0.279917
0.0347057 -0.274483 -0.274483
0.0349949 -0.279727 -0.279727
0.0263523 -0.284865 -0.284865
0.0267759 -0.295575 -0.295575
0.0449411 -0.295914 -0.295914
0.04422 -0.285205 -0.285205
0.0265646 -0.290198 -0.290198
0.0358552 -0.295726 -0.295726
0.0445813 -0.290538 -0.290538
0.0352829 -0.285016 -0.285016
0.0355697 -0.290349 -0.290349
0.0267759 -0.295575 -0.295575
0.0271957 -0.306461 -0.306461
0.0456564 -0.306799 -0.306799
0.0449411 -0.295914 -0.295914
0.0269863 -0.300996 -0.300996
0.0364228 -0.306611 -0.306611
0.0452995 -0.301335 -0.301335
0.0358552 -0.295726 -0.295726
0.0361396 -0.301147 -0.301147
0.0271957 -0.306461 -0.306461
0.0276117 -0.317521 -0.317521
0.0463657 -0.317858 -0.317858
0.0456564 -0.306799 -0.306799
0.0274042 -0.311969 -0.311969
0.0369854 -0.317671 -0.317671
0.0460118 -0.312307 -0.312307
0.0364228 -0.306611 -0.306611
0.0367047 -0.312119 -0.312119
0.0276117 -0.317521 -0.317521
0.0280238 -0.328754 -0.328754
0.0470693 -0.32909 -0.32909
0.0463657 -0.317858 -0.317858
0.0278182 -0.323116 -0.323116
0.0375433 -0.328904 -0.328904
0.0467182 -0.323453 -0.323453
0.0369854 -0.317671 -0.317671
0.037265 -0.323266 -0.323266
0.0280238 -0.328754 -0.328754
0.0284321 -0.340159 -0.340159
0.0477669 -0.340495 -0.340495
0.0470693 -0.32909 -0.32909
0.0282285 -0.334435 -0.334435
0.0380963 -0.340309 -0.340309
0.0474188 -0.334771 -0.334771
0.0375433 -0.328904 -0.328904
0.0378204 -0.334585 -0.334585
0.0284321 -0.340159 -0.340159
0.0288366 -0.351735 -0.351735
0.0484587 -0.35207 -0.35207
0.0477669 -0.340495 -0.340495
0.0286349 -0.345926 -0.345926
0.0386444 -0.351884 -0.351884
0.0481135 -0.346261 -0.346261
0.0380963 -0.340309 -0.340309
0.0383709 -0.346075 -0.346075
0.0288366 -0.351735 -0.351735
0.0292372 -0.36348 -0.36348
0.0491446 -0.363815 -0.363815
0.0484587 -0.35207 -0.35207
0.0290374 -0.357586 -0.357586
0.0391876 -0.363629 -0.363629
0.0488024 -0.357921 -0.357921
0.0386444 -0.351884 -0.351884
0.0389166 -0.357736 -0.357736
0.0292372 -0.36348 -0.36348
0.029634 -0.375394 -0.375394
0.0498245 -0.375728 -0.375728
0.0491446 -0.363815 -0.363815
0.0294361 -0.369416 -0.369416
0.039726 -0.375543 -0.375543
0.0494853 -0.36975 -0.36975
0.0391876 -0.363629 -0.363629
0.0394574 -0.369565 -0.369565
0.029634 -0.375394 -0.375394
0.030027 -0.387475 -0.387475
0.0504986 -0.387808 -0.387808
0.0498245 -0.375728 -0.375728
0.029831 -0.381414 -0.381414
0.0402595 -0.387624 -0.387624
0.0501623 -0.381747 -0.381747
0.039726 -0.375543 -0.375543
0.0399934 -0.381563 -0.381563
0.030027 -0.387475 -0.387475
0.030416 -0.399722 -0.399722
0.0511668 -0.400054 -0.400054
0.0504986 -0.387808 -0.387808
0.030222 -0.393578 -0.393578
0.0407882 -0.39987 -0.39987
0.0508335 -0.39391 -0.39391
0.0402595 -0.387624 -0.387624
0.0405245 -0.393726 -0.393726
0.030416 -0.399722 -0.399722
0.0308012 -0.412133 -0.412133
0.0518291 -0.412465 -0.412465
0.0511668 -0.400054 -0.400054
0.0306091 -0.405907 -0.405907
0.0413119 -0.412282 -0.412282
0.0514987 -0.406239 -0.406239
0.0407882 -0.39987 -0.39987
0.0410506 -0.406055 -0.406055
0.0308012 -0.412133 -0.412133
0.0311826 -0.424708 -0.424708
0.0524855 -0.425039 -0.425039
0.0518291 -0.412465 -0.412465
0.0309924 -0.4184 -0.4184
0.0418308 -0.424856 -0.424856
0.052158 -0.418732 -0.418732
0.0413119 -0.412282 -0.412282
0.0415719 -0.418549 -0.418549
0.0311826 -0.424708 -0.424708
0.0315601 -0.437446 -0.437446
0.0531359 -0.437776 -0.437776
0.0524855 -0.425039 -0.425039
0.0313718 -0.431057 -0.431057
0.0423447 -0.437594 -0.437594
0.0528114 -0.431387 -0.431387
0.0418308 -0.424856 -0.424856
0.0420883 -0.431205 -0.431205
0.0315601 -0.437446 -0.437446
0.0319336 -0.450344 -0.450344
0.0537804 -0.450673 -0.450673
0.0531359 -0.437776 -0.437776
0.0317473 -0.443875 -0.443875
0.0428538 -0.450492 -0.450492
0.0534589 -0.444205 -0.444205
0.0423447 -0.437594 -0.437594
0.0425998 -0.444023 -0.444023
0.0319336 -0.450344 -0.450344
0.0323033 -0.463402 -0.463402
0.054419 -0.463731 -0.463731
0.0537804 -0.450673 -0.450673
0.032119 -0.456853 -0.456853
0.0433579 -0.46355 -0.46355
0.0541005 -0.457182 -0.457182
0.0428538 -0.450492 -0.450492
0.0431065 -0.457001 -0.457001
0.0323033 -0.463402 -0.463402
0.0326692 -0.476619 -0.476619
0.0550517 -0.476947 -0.476947
0.054419 -0.463731 -0.463731
0.0324867 -0.469991 -0.469991
0.0438572 -0.476766 -0.476766
0.0547361 -0.470319 -0.470319
0.0433579 -0.46355 -0.46355
0.0436081 -0.470138 -0.470138
0.0326692 -0.476619 -0.476619
0.0330311 -0.489994 -0.489994
0.0556784 -0.490321 -0.490321
0.0550517 -0.476947 -0.476947
0.0328506 -0.483287 -0.483287
0.0443515 -0.490141 -0.490141
0.0553658 -0.483615 -0.483615
0.0438572 -0.476766 -0.476766
0.0441049 -0.483434 -0.483434
0.0330311 -0.489994 -0.489994
0.0333891 -0.503524 -0.503524
0.0562992 -0.503851 -0.503851
0.0556784 -0.490321 -0.490321
0.0332106 -0.496739 -0.496739
0.0448409 -0.503671 -0.503671
0.0559895 -0.497066 -0.497066
0.0443515 -0.490141 -0.490141
0.0445968 -0.496886 -0.496886
0.0333891 -0.503524 -0.503524
0.0337433 -0.51721 -0.51721
0.0569141 -0.517536 -0.517536
0.0562992 -0.503851 -0.503851
0.0335667 -0.510348 -0.510348
0.0453254 -0.517356 -0.517356
0.0566074 -0.510674 -0.510674
0.0448409 -0.503671 -0.503671
0.0450838 -0.510494 -0.510494
0.0337433 -0.51721 -0.51721
0.0340935 -0.531049 -0.531049
0.057523 -0.531374 -0.531374
0.0569141 -0.517536 -0.517536
0.0339189 -0.52411 -0.52411
0.045805 -0.531195 -0.531195
0.0572193 -0.524436 -0.524436
0.0453254 -0.517356 -0.517356
0.0455658 -0.524257 -0.524257
0.0340935 -0.531049 -0.531049
0.0344399 -0.545041 -0.545041
0.0581259 -0.545366 -0.545366
0.057523 -0.531374 -0.531374
0.0342672 -0.538026 -0.538026
0.0462796 -0.545187 -0.545187
0.0578252 -0.538351 -0.538351
0.045805 -0.531195 -0.531195
0.0460429 -0.538172 -0.538172
0.0344399 -0.545041 -0.545041
0.0347823 -0.559184 -0.559184
0.0587229 -0.559508 -0.559508
0.0581259 -0.545366 -0.545366
0.0346116 -0.552094 -0.552094
0.0467494 -0.55933 -0.55933
0.0584252 -0.552418 -0.552418
0.0462796 -0.545187 -0.545187
0.0465151 -0.55224 -0.55224
0.0347823 -0.559184 -0.559184
0.0351209 -0.573478 -0.573478
0.059314 -0.573801 -0.573801
0.0587229 -0.559508 -0.559508
0.0349521 -0.566313 -0.566313
0.0472142 -0.573624 -0.573624
0.0590192 -0.566636 -0.566636
0.0467494 -0.55933 -0.55933
0.0469824 -0.566458 -0.566458
0.0351209 -0.573478 -0.573478
0.0354555 -0.58792 -0.58792
0.0598991 -0.588243 -0.588243
0.059314 -0.573801 -0.573801
0.0352887 -0.580681 -0.580681
0.047674 -0.588066 -0.588066
0.0596073 -0.581004 -0.581004
0.0472142 -0.573624 -0.573624
0.0474447 -0.580826 -0.580826
0.0354555 -0.58792 -0.58792
0.0357862 -0.602511 -0.602511
0.0604783 -0.602833 -0.602833
0.0598991 -0.588243 -0.588243
0.0356213 -0.595197 -0.595197
0.048129 -0.602656 -0.602656
0.0601895 -0.595519 -0.595519
0.047674 -0.588066 -0.588066
0.0479021 -0.595343 -0.595343
0.0357862 -0.602511 -0.602511
0.036113 -0.617247 -0.617247
0.0610515 -0.617569 -0.617569
0.0604783 -0.602833 -0.602833
0.0359501 -0.609861 -0.609861
0.048579 -0.617392 -0.617392
0.0607656 -0.610182 -0.610182
0.048129 -0.602656 -0.602656
0.0483546 -0.610006 -0.610006
0.036113 -0.617247 -0.617247
0.0364359 -0.632129 -0.632129
0.0616188 -0.63245 -0.63245
0.0610515 -0.617569 -0.617569
0.036275 -0.62467 -0.62467
0.0490241 -0.632274 -0.632274
0.0613359 -0.624991 -0.624991
0.048579 -0.617392 -0.617392
0.0488022 -0.624815 -0.624815
0.0364359 -0.632129 -0.632129
0.0367549 -0.647156 -0.647156
0.06218 -0.647476 -0.647476
0.0616188 -0.63245 -0.63245
0.0365959 -0.639625 -0.639625
0.0494642 -0.6473 -0.6473
0.0619001 -0.639945 -0.639945
0.0490241 -0.632274 -0.632274
0.0492448 -0.639769 -0.639769
0.0367549 -0.647156 -0.647156
0.03707 -0.662325 -0.662325
0.0627354 -0.662644 -0.662644
0.06218 -0.647476 -0.647476
0.0369129 -0.654722 -0.654722
0.0498994 -0.662469 -0.662469
0.0624585 -0.655042 -0.655042
0.0494642 -0.6473 -0.6473
0.0496824 -0.654867 -0.654867
0.03707 -0.662325 -0.662325
0.0373811 -0.677635 -0.677635
0.0632847 -0.677954 -0.677954
0.0627354 -0.662644 -0.662644
0.037226 -0.669962 -0.669962
0.0503297 -0.67778 -0.67778
0.0630108 -0.670282 -0.670282
0.0498994 -0.662469 -0.662469
0.0501152 -0.670107 -0.670107
0.0373811 -0.677635 -0.677635
0.0376884 -0.693087 -0.693087
0.0638282 -0.693405 -0.693405
0.0632847 -0.677954 -0.677954
0.0375352 -0.685344 -0.685344
0.050755 -0.693231 -0.693231
0.0635572 -0.685662 -0.685662
0.0503297 -0.67778 -0.67778
0.050543 -0.685488 -0.685488
0.0376884 -0.693087 -0.693087
0.0379917 -0.708677 -0.708677
0.0643656 -0.708995 -0.708995
0.0638282 -0.693405 -0.693405
0.0378405 -0.700865 -0.700865
0.0511754 -0.708821 -0.708821
0.0640976 -0.701182 -0.701182
0.050755 -0.693231 -0.693231
0.0509658 -0.701009 -0.701009
0.0379917 -0.708677 -0.708677
0.0382911 -0.724406 -0.724406
0.0648971 -0.724723 -0.724723
0.0643656 -0.708995 -0.708995
0.0381419 -0.716524 -0.716524
0.0515908 -0.724549 -0.724549
0.0646321 -0.716841 -0.716841
0.0511754 -0.708821 -0.708821
0.0513837 -0.716668 -0.716668
0.0382911 -0.724406 -0.724406
0.0385866 -0.740271 -0.740271
0.0654226 -0.740587 -0.740587
0.0648971 -0.724723 -0.724723
0.0384393 -0.732321 -0.732321
0.0520013 -0.740415 -0.740415
0.0651606 -0.732638 -0.732638
0.0515908 -0.724549 -0.724549
0.0517967 -0.732465 -0.732465
0.0385866 -0.740271 -0.740271
0.0388781 -0.756272 -0.756272
0.0659422 -0.756588 -0.756588
0.0654226 -0.740587 -0.740587
0.0387329 -0.748255 -0.748255
0.0524069 -0.756415 -0.756415
0.0656832 -0.748571 -0.748571
0.0520013 -0.740415 -0.740415
0.0522047 -0.748398 -0.748398
0.0388781 -0.756272 -0.756272
0.0391658 -0.772407 -0.772407
0.0664558 -0.772722 -0.772722
0.0659422 -0.756588 -0.756588
0.0390225 -0.764323 -0.764323
0.0528075 -0.772551 -0.772551
0.0661997 -0.764638 -0.764638
0.0524069 -0.756415 -0.756415
0.0526078 -0.764466 -0.764466
0.0391658 -0.772407 -0.772407
0.0394495 -0.788676 -0.788676
0.0669635 -0.78899 -0.78899
0.0664558 -0.772722 -0.772722
0.0393082 -0.780525 -0.780525
0.0532032 -0.788819 -0.788819
0.0667104 -0.78084 -0.78084
0.0528075 -0.772551 -0.772551
0.053006 -0.780668 -0.780668
0.0394495 -0.788676 -0.788676
0.0397294 -0.805077 -0.805077
0.0674651 -0.80539 -0.80539
0.0669635 -0.78899 -0.78899
0.03959 -0.79686 -0.79686
0.053594 -0.805219 -0.805219
0.067215 -0.797174 -0.797174
0.0532032 -0.788819 -0.788819
0.0533992 -0.797003 -0.797003
0.0397294 -0.805077 -0.805077
0.0400053 -0.821608 -0.821608
0.0679609 -0.821921 -0.821921
0.0674651 -0.80539 -0.80539
0.0398678 -0.813326 -0.813326
0.0539798 -0.821751 -0.821751
0.0677138 -0.813639 -0.813639
0.053594 -0.805219 -0.805219
0.0537875 -0.813469 -0.813469
0.0400053 -0.821608 -0.821608
0.0402773 -0.838269 -0.838269
0.0684507 -0.838581 -0.838581
0.0679609 -0.821921 -0.821921
0.0401418 -0.829922 -0.829922
0.0543607 -0.838411 -0.838411
0.0682065 -0.830235 -0.830235
0.0539798 -0.821751 -0.821751
0.0541709 -0.830065 -0.830065
0.0402773 -0.838269 -0.838269
0.0405454 -0.855058 -0.855058
0.0689345 -0.85537 -0.85537
0.0684507 -0.838581 -0.838581
0.0404118 -0.846648 -0.846648
0.0547367 -0.855201 -0.855201
0.0686933 -0.84696 -0.84696
0.0543607 -0.838411 -0.838411
0.0545493 -0.84679 -0.84679
0.0405454 -0.855058 -0.855058
0.0408096 -0.871975 -0.871975
0.0694123 -0.872286 -0.872286
0.0689345 -0.85537 -0.85537
0.040678 -0.863501 -0.863501
0.0551077 -0.872117 -0.872117
0.0691742 -0.863812 -0.863812
0.0547367 -0.855201 -0.855201
0.0549228 -0.863643 -0.863643
0.0408096 -0.871975 -0.871975
0.0410698 -0.889017 -0.889017
0.0698843 -0.889328 -0.889328
0.0694123 -0.872286 -0.872286
0.0409402 -0.88048 -0.88048
0.0554738 -0.889159 -0.889159
0.069649 -0.880791 -0.880791
0.0551077 -0.872117 -0.872117
0.0552914 -0.880622 -0.880622
0.0410698 -0.889017 -0.889017
0.0413262 -0.906184 -0.906184
0.0703502 -0.906494 -0.906494
0.0698843 -0.889328 -0.889328
0.0411985 -0.897585 -0.897585
0.055835 -0.906326 -0.906326
0.070118 -0.897895 -0.897895
0.0554738 -0.889159 -0.889159
0.055655 -0.897727 -0.897727
0.0413262 -0.906184 -0.906184
0.0415787 -0.923475 -0.923475
0.0708102 -0.923784 -0.923784
0.0703502 -0.906494 -0.906494
0.0414529 -0.914814 -0.914814
0.0561912 -0.923616 -0.923616
0.070581 -0.915124 -0.915124
0.055835 -0.906326 -0.906326
0.0560137 -0.914956 -0.914956
0.0415787 -0.923475 -0.923475
0.0418273 -0.940888 -0.940888
0.0712643 -0.941196 -0.941196
0.0708102 -0.923784 -0.923784
0.0417035 -0.932166 -0.932166
0.0565425 -0.941029 -0.941029
0.071038 -0.932475 -0.932475
0.0561912 -0.923616 -0.923616
0.0563675 -0.932308 -0.932308
0.0418273 -0.940888 -0.940888
0.0420719 -0.958422 -0.958422
0.0717124 -0.95873 -0.95873
0.0712643 -0.941196 -0.941196
0.0419501 -0.94964 -0.94964
0.0568889 -0.958563 -0.958563
0.0714891 -0.949948 -0.949948
0.0565425 -0.941029 -0.941029
0.0567163 -0.949781 -0.949781
0.0420719 -0.958422 -0.958422
0.0423127 -0.976076 -0.976076
0.0721546 -0.976383 -0.976383
0.0717124 -0.95873 -0.95873
0.0421928 -0.967234 -0.967234
0.0572304 -0.976217 -0.976217
0.0719343 -0.967541 -0.967541
0.0568889 -0.958563 -0.958563
0.0570603 -0.967375 -0.967375
0.0423127 -0.976076 -0.976076
0.0425496 -0.993848 -0.993848
0.0725909 -0.994155 -0.994155
0.0721546 -0.976383 -0.976383
0.0424316 -0.984947 -0.984947
0.057567 -0.993989 -0.993989
0.0723735 -0.985254 -0.985254
0.0572304 -0.976217 -0.976217
0.0573993 -0.985088 -0.985088
0.0425496 -0.993848 -0.993848
0.0427826 -1.01174 -1.01174
0.0730212 -1.01204 -1.01204
0.0725909 -0.994155 -0.994155
0.0426666 -1.00278 -1.00278
0.0578986 -1.01188 -1.01188
0.0728068 -1.00308 -1.00308
0.057567 -0.993989 -0.993989
0.0577334 -1.00292 -1.00292
0.0427826 -1.01174 -1.01174
0.0430117 -1.02974 -1.02974
0.0734456 -1.03005 -1.03005
0.0730212 -1.01204 -1.01204
0.0428976 -1.02073 -1.02073
0.0582254 -1.02988 -1.02988
0.0732341 -1.02103 -1.02103
0.0578986 -1.01188 -1.01188
0.0580626 -1.02087 -1.02087
0.0430117 -1.02974 -1.02974
0.0432369 -1.04787 -1.04787
0.073864 -1.04817 -1.04817
0.0734456 -1.03005 -1.03005
0.0431248 -1.03879 -1.03879
0.0585472 -1.04801 -1.04801
0.0736556 -1.0391 -1.0391
0.0582254 -1.02988 -1.02988
0.0583869 -1.03893 -1.03893
0.0432369 -1.04787 -1.04787
0.0434582 -1.0661 -1.0661
0.0742766 -1.0664 -1.0664
0.073864 -1.04817 -1.04817
0.043348 -1.05697 -1.05697
0.0588641 -1.06624 -1.06624
0.0740711 -1.05727 -1.05727
0.0585472 -1.04801 -1.04801
0.0587063 -1.05711 -1.05711
0.0434582 -1.0661 -1.0661
0.0436757 -1.08445 -1.08445
0.0746832 -1.08475 -1.08475
0.0742766 -1.0664 -1.0664
0.0435674 -1.07526 -1.07526
0.0591762 -1.08459 -1.08459
0.0744806 -1.07556 -1.07556
0.0588641 -1.06624 -1.06624
0.0590208 -1.0754 -1.0754
0.0436757 -1.08445 -1.08445
0.0438893 -1.10291 -1.10291
0.0750839 -1.10321 -1.10321
0.0746832 -1.08475 -1.08475
0.043783 -1.09366 -1.09366
0.0594833 -1.10305 -1.10305
0.0748843 -1.09397 -1.09397
0.0591762 -1.08459 -1.08459
0.0593304 -1.0938 -1.0938
0.0438893 -1.10291 -1.10291
0.044099 -1.12148 -1.12148
0.0754787 -1.12178 -1.12178
0.0750839 -1.10321 -1.10321
0.0439946 -1.11218 -1.11218
0.0597856 -1.12162 -1.12162
0.075282 -1.11248 -1.11248
0.0594833 -1.10305 -1.10305
0.059635 -1.11232 -1.11232
0.044099 -1.12148 -1.12148
0.0443048 -1.14016 -1.14016
0.0758675 -1.14046 -1.14046
0.0754787 -1.12178 -1.12178
0.0442024 -1.1308 -1.1308
0.0600829 -1.14029 -1.14029
0.0756738 -1.1311 -1.1311
0.0597856 -1.12162 -1.12162
0.0599349 -1.13094 -1.13094
0.0443048 -1.14016 -1.14016
0.0445068 -1.15894 -1.15894
0.0762505 -1.15924 -1.15924
0.0758675 -1.14046 -1.14046
0.0444063 -1.14954 -1.14954
0.0603754 -1.15908 -1.15908
0.0760598 -1.14984 -1.14984
0.0600829 -1.14029 -1.14029
0.0602298 -1.14967 -1.14967
0.0445068 -1.15894 -1.15894
0.044705 -1.17783 -1.17783
0.0766276 -1.17813 -1.17813
0.0762505 -1.15924 -1.15924
0.0446064 -1.16837 -1.16837
0.060663 -1.17797 -1.17797
0.0764398 -1.16867 -1.16867
0.0603754 -1.15908 -1.15908
0.0605198 -1.16851 -1.16851
0.044705 -1.17783 -1.17783
0.0448993 -1.19683 -1.19683
0.0769987 -1.19713 -1.19713
0.0766276 -1.17813 -1.17813
0.0448026 -1.18732 -1.18732
0.0609457 -1.19697 -1.19697
0.0768139 -1.18762 -1.18762
0.060663 -1.17797 -1.17797
0.060805 -1.18746 -1.18746
0.0448993 -1.19683 -1.19683
0.0450897 -1.21593 -1.21593
0.077364 -1.21623 -1.21623
0.0769987 -1.19713 -1.19713
0.044995 -1.20637 -1.20637
0.0612236 -1.21607 -1.21607
0.0771821 -1.20667 -1.20667
0.0609457 -1.19697 -1.19697
0.0610853 -1.20651 -1.20651
0.0450897 -1.21593 -1.21593
0.0452763 -1.23514 -1.23514
0.0777234 -1.23544 -1.23544
0.077364 -1.21623 -1.21623
0.0451835 -1.22552 -1.22552
0.0614966 -1.23528 -1.23528
0.0775444 -1.22582 -1.22582
0.0612236 -1.21607 -1.21607
0.0613607 -1.22566 -1.22566
0.0452763 -1.23514 -1.23514
0.0454591 -1.25445 -1.25445
0.0780769 -1.25474 -1.25474
0.0777234 -1.23544 -1.23544
0.0453682 -1.24478 -1.24478
0.0617647 -1.25458 -1.25458
0.0779009 -1.24508 -1.24508
0.0614966 -1.23528 -1.23528
0.0616313 -1.24492 -1.24492
0.0454591 -1.25445 -1.25445
0.045638 -1.27385 -1.27385
0.0784245 -1.27415 -1.27415
0.0780769 -1.25474 -1.25474
0.045549 -1.26414 -1.26414
0.062028 -1.27399 -1.27399
0.0782515 -1.26443 -1.26443
0.0617647 -1.25458 -1.25458
0.061897 -1.26427 -1.26427
0.045638 -1.27385 -1.27385
0.0458131 -1.29336 -1.29336
0.0787663 -1.29365 -1.29365
0.0784245 -1.27415 -1.27415
0.045726 -1.28359 -1.28359
0.0622864 -1.2935 -1.2935
0.0785962 -1.28389 -1.28389
0.062028 -1.27399 -1.27399
0.0621578 -1.28373 -1.28373
0.0458131 -1.29336 -1.29336
0.0459844 -1.31296 -1.31296
0.0791022 -1.31326 -1.31326
0.0787663 -1.29365 -1.29365
0.0458992 -1.30315 -1.30315
0.06254 -1.3131 -1.3131
0.078935 -1.30344 -1.30344
0.0622864 -1.2935 -1.2935
0.0624138 -1.30329 -1.30329
0.0459844 -1.31296 -1.31296
0.0461518 -1.33267 -1.33267
0.0794322 -1.33296 -1.33296
0.0791022 -1.31326 -1.31326
0.0460686 -1.3228 -1.3228
0.0627888 -1.3328 -1.3328
0.0792679 -1.3231 -1.3231
0.06254 -1.3131 -1.3131
0.062665 -1.32294 -1.32294
0.0461518 -1.33267 -1.33267
0.0463155 -1.35246 -1.35246
0.0797564 -1.35275 -1.35275
0.0794322 -1.33296 -1.33296
0.0462341 -1.34255 -1.34255
0.0630327 -1.3526 -1.3526
0.0795951 -1.34284 -1.34284
0.0627888 -1.3328 -1.3328
0.0629113 -1.34269 -1.34269
0.0463155 -1.35246 -1.35246
0.0464754 -1.37235 -1.37235
0.0800747 -1.37265 -1.37265
0.0797564 -1.35275 -1.35275
0.0463959 -1.3624 -1.3624
0.0632718 -1.37249 -1.37249
0.0799163 -1.36269 -1.36269
0.0630327 -1.3526 -1.3526
0.0631528 -1.36253 -1.36253
0.0464754 -1.37235 -1.37235
0.0466314 -1.39234 -1.39234
0.0803872 -1.39263 -1.39263
0.0800747 -1.37265 -1.37265
0.0465539 -1.38233 -1.38233
0.063506 -1.39247 -1.39247
0.0802317 -1.38263 -1.38263
0.0632718 -1.37249 -1.37249
0.0633895 -1.38247 -1.38247
0.0466314 -1.39234 -1.39234
0.0467837 -1.41242 -1.41242
0.0806939 -1.41271 -1.41271
0.0803872 -1.39263 -1.39263
0.046708 -1.40237 -1.40237
0.0637355 -1.41255 -1.41255
0.0805413 -1.40266 -1.40266
0.063506 -1.39247 -1.39247
0.0636214 -1.4025 -1.4025
0.0467837 -1.41242 -1.41242
0.0469322 -1.43258 -1.43258
0.0809947 -1.43287 -1.43287
0.0806939 -1.41271 -1.41271
0.0468584 -1.42249 -1.42249
0.0639602 -1.43272 -1.43272
0.080845 -1.42278 -1.42278
0.0637355 -1.41255 -1.41255
0.0638484 -1.42262 -1.42262
0.0469322 -1.43258 -1.43258
0.0470769 -1.45284 -1.45284
0.0812897 -1.45313 -1.45313
0.0809947 -1.43287 -1.43287
0.047005 -1.4427 -1.4427
0.06418 -1.45297 -1.45297
0.0811429 -1.44299 -1.44299
0.0639602 -1.43272 -1.43272
0.0640707 -1.44284 -1.44284
0.0470769 -1.45284 -1.45284
0.0472178 -1.47319 -1.47319
0.0815789 -1.47347 -1.47347
0.0812897 -1.45313 -1.45313
0.0471478 -1.463 -1.463
0.0643951 -1.47332 -1.47332
0.081435 -1.46329 -1.46329
0.06418 -1.45297 -1.45297
0.0642881 -1.46314 -1.46314
0.0472178 -1.47319 -1.47319
0.0473549 -1.49362 -1.49362
0.0818623 -1.4939 -1.4939
0.0815789 -1.47347 -1.47347
0.0472868 -1.48339 -1.48339
0.0646053 -1.49375 -1.49375
0.0817213 -1.48368 -1.48368
0.0643951 -1.47332 -1.47332
0.0645008 -1.48353 -1.48353
0.0473549 -1.49362 -1.49362
0.0474883 -1.51414 -1.51414
0.0821398 -1.51442 -1.51442
0.0818623 -1.4939 -1.4939
0.0474221 -1.50387 -1.50387
0.0648108 -1.51427 -1.51427
0.0820018 -1.50415 -1.50415
0.0646053 -1.49375 -1.49375
0.0647087 -1.504 -1.504
0.0474883 -1.51414 -1.51414
0.047618 -1.53474 -1.53474
0.0824116 -1.53502 -1.53502
0.0821398 -1.51442 -1.51442
0.0475536 -1.52443 -1.52443
0.0650115 -1.53487 -1.53487
0.0822765 -1.52471 -1.52471
0.0648108 -1.51427 -1.51427
0.0649118 -1.52456 -1.52456
0.047618 -1.53474 -1.53474
0.0477439 -1.55543 -1.55543
0.0826776 -1.55571 -1.55571
0.0824116 -1.53502 -1.53502
0.0476814 -1.54507 -1.54507
0.0652075 -1.55556 -1.55556
0.0825453 -1.54536 -1.54536
0.0650115 -1.53487 -1.53487
0.0651101 -1.54521 -1.54521
0.0477439 -1.55543 -1.55543
0.0478661 -1.5762 -1.5762
0.0829378 -1.57648 -1.57648
0.0826776 -1.55571 -1.55571
0.0478054 -1.5658 -1.5658
0.0653986 -1.57633 -1.57633
0.0828084 -1.56608 -1.56608
0.0652075 -1.55556 -1.55556
0.0653037 -1.56593 -1.56593
0.0478661 -1.5762 -1.5762
0.0479845 -1.59705 -1.59705
0.0831922 -1.59733 -1.59733
0.0829378 -1.57648 -1.57648
0.0479257 -1.58661 -1.58661
0.0655851 -1.59718 -1.59718
0.0830657 -1.58689 -1.58689
0.0653986 -1.57633 -1.57633
0.0654925 -1.58674 -1.58674
0.0479845 -1.59705 -1.59705
0.0480992 -1.61798 -1.61798
0.0834409 -1.61826 -1.61826
0.0831922 -1.59733 -1.59733
0.0480423 -1.6075 -1.6075
0.0657668 -1.61811 -1.61811
0.0833173 -1.60778 -1.60778
0.0655851 -1.59718 -1.59718
0.0656765 -1.60763 -1.60763
0.0480992 -1.61798 -1.61798
0.0482102 -1.63899 -1.63899
0.0836838 -1.63927 -1.63927
0.0834409 -1.61826 -1.61826
0.0481552 -1.62847 -1.62847
0.0659437 -1.63912 -1.63912
0.083563 -1.62875 -1.62875
0.0657668 -1.61811 -1.61811
0.0658558 -1.6286 -1.6286
0.0482102 -1.63899 -1.63899
0.0483175 -1.66007 -1.66007
0.0839209 -1.66035 -1.66035
0.0836838 -1.63927 -1.63927
0.0482643 -1.64952 -1.64952
0.0661159 -1.6602 -1.6602
0.0838031 -1.6498 -1.6498
0.0659437 -1.63912 -1.63912
0.0660304 -1.64965 -1.64965
0.0483175 -1.66007 -1.66007
0.0484211 -1.68124 -1.68124
0.0841523 -1.68151 -1.68151
0.0839209 -1.66035 -1.66035
0.0483698 -1.67064 -1.67064
0.0662834 -1.68137 -1.68137
0.0840373 -1.67092 -1.67092
0.0661159 -1.6602 -1.6602
0.0662003 -1.67078 -1.67078
0.0484211 -1.68124 -1.68124
0.048521 -1.70247 -1.70247
0.084378 -1.70275 -1.70275
0.0841523 -1.68151 -1.68151
0.0484715 -1.69185 -1.69185
0.0664462 -1.7026 -1.7026
0.0842659 -1.69212 -1.69212
0.0662834 -1.68137 -1.68137
0.0663654 -1.69198 -1.69198
0.048521 -1.70247 -1.70247
0.0486172 -1.72379 -1.72379
0.0845979 -1.72406 -1.72406
0.084378 -1.70275 -1.70275
0.0485695 -1.71312 -1.71312
0.0666043 -1.72392 -1.72392
0.0844887 -1.7134 -1.7134
0.0664462 -1.7026 -1.7026
0.0665258 -1.71325 -1.71325
0.0486172 -1.72379 -1.72379
0.0487097 -1.74517 -1.74517
0.0848121 -1.74544 -1.74544
0.0845979 -1.72406 -1.72406
0.0486639 -1.73447 -1.73447
0.0667576 -1.7453 -1.7453
0.0847057 -1.73474 -1.73474
0.0666043 -1.72392 -1.72392
0.0666815 -1.7346 -1.7346
0.0487097 -1.74517 -1.74517
0.0487986 -1.76663 -1.76663
0.0850206 -1.7669 -1.7669
0.0848121 -1.74544 -1.74544
0.0487546 -1.75589 -1.75589
0.0669063 -1.76675 -1.76675
0.0849171 -1.75616 -1.75616
0.0667576 -1.7453 -1.7453
0.0668326 -1.75602 -1.75602
0.0487986 -1.76663 -1.76663
0.0488838 -1.78815 -1.78815
0.0852234 -1.78842 -1.78842
0.0850206 -1.7669 -1.7669
0.0488416 -1.77738 -1.77738
0.0670503 -1.78828 -1.78828
0.0851227 -1.77765 -1.77765
0.0669063 -1.76675 -1.76675
0.0669789 -1.77751 -1.77751
0.0488838 -1.78815 -1.78815
0.0489653 -1.80975 -1.80975
0.0854205 -1.81002 -1.81002
0.0852234 -1.78842 -1.78842
0.048925 -1.79894 -1.79894
0.0671896 -1.80987 -1.80987
0.0853227 -1.79921 -1.79921
0.0670503 -1.78828 -1.78828
0.0671206 -1.79907 -1.79907
0.0489653 -1.80975 -1.80975
0.0490432 -1.83141 -1.83141
0.0856119 -1.83168 -1.83168
0.0854205 -1.81002 -1.81002
0.0490047 -1.82057 -1.82057
0.0673243 -1.83154 -1.83154
0.0855169 -1.82084 -1.82084
0.0671896 -1.80987 -1.80987
0.0672575 -1.8207 -1.8207
0.0490432 -1.83141 -1.83141
0.0491175 -1.85314 -1.85314
0.0857976 -1.85341 -1.85341
0.0856119 -1.83168 -1.83168
0.0490808 -1.84227 -1.84227
0.0674543 -1.85327 -1.85327
0.0857055 -1.84253 -1.84253
0.0673243 -1.83154 -1.83154
0.0673899 -1.84239 -1.84239
0.0491175 -1.85314 -1.85314
0.0491882 -1.87493 -1.87493
0.0859777 -1.8752 -1.8752
0.0857976 -1.85341 -1.85341
0.0491533 -1.86403 -1.86403
0.0675796 -1.87506 -1.87506
0.0858884 -1.8643 -1.8643
0.0674543 -1.85327 -1.85327
0.0675175 -1.86415 -1.86415
0.0491882 -1.87493 -1.87493
0.0492552 -1.89679 -1.89679
0.0861521 -1.89706 -1.89706
0.0859777 -1.8752 -1.8752
0.0492221 -1.88585 -1.88585
0.0677003 -1.89692 -1.89692
0.0860656 -1.88612 -1.88612
0.0675796 -1.87506 -1.87506
0.0676406 -1.88598 -1.88598
0.0492552 -1.89679 -1.89679
0.0493186 -1.91871 -1.91871
0.0863208 -1.91898 -1.91898
0.0861521 -1.89706 -1.89706
0.0492874 -1.90774 -1.90774
0.0678164 -1.91884 -1.91884
0.0862372 -1.90801 -1.90801
0.0677003 -1.89692 -1.89692
0.067759 -1.90787 -1.90787
0.0493186 -1.91871 -1.91871
0.0493784 -1.9407 -1.9407
0.0864839 -1.94096 -1.94096
0.0863208 -1.91898 -1.91898
0.049349 -1.9297 -1.9297
0.0679279 -1.94082 -1.94082
0.0864031 -1.92996 -1.92996
0.0678164 -1.91884 -1.91884
0.0678727 -1.92982 -1.92982
0.0493784 -1.9407 -1.9407
0.0494347 -1.96274 -1.96274
0.0866414 -1.963 -1.963
0.0864839 -1.94096 -1.94096
0.049407 -1.95171 -1.95171
0.0680347 -1.96287 -1.96287
0.0865634 -1.95197 -1.95197
0.0679279 -1.94082 -1.94082
0.0679819 -1.95184 -1.95184
0.0494347 -1.96274 -1.96274
0.0494873 -1.98484 -1.98484
0.0867932 -1.98511 -1.98511
0.0866414 -1.963 -1.963
0.0494614 -1.97379 -1.97379
0.068137 -1.98497 -1.98497
0.086718 -1.97405 -1.97405
0.0680347 -1.96287 -1.96287
0.0680864 -1.97391 -1.97391
0.0494873 -1.98484 -1.98484
0.0495364 -2.00701 -2.00701
0.0869394 -2.00727 -2.00727
0.0867932 -1.98511 -1.98511
0.0495123 -1.99592 -1.99592
0.0682346 -2.00713 -2.00713
0.086867 -1.99618 -1.99618
0.068137 -1.98497 -1.98497
0.0681864 -1.99604 -1.99604
0.0495364 -2.00701 -2.00701
0.0495819 -2.02922 -2.02922
0.08708 -2.02948 -2.02948
0.0869394 -2.00727 -2.00727
0.0495596 -2.01811 -2.01811
0.0683277 -2.02935 -2.02935
0.0870104 -2.01837 -2.01837
0.0682346 -2.00713 -2.00713
0.0682817 -2.01823 -2.01823
0.0495819 -2.02922 -2.02922
0.0496238 -2.0515 -2.0515
0.087215 -2.05176 -2.05176
0.08708 -2.02948 -2.02948
0.0496033 -2.04035 -2.04035
0.0684161 -2.05162 -2.05162
0.0871482 -2.04061 -2.04061
0.0683277 -2.02935 -2.02935
0.0683725 -2.04048 -2.04048
0.0496238 -2.0515 -2.0515
0.0496623 -2.07383 -2.07383
0.0873445 -2.07408 -2.07408
0.087215 -2.05176 -2.05176
0.0496435 -2.06266 -2.06266
0.0685001 -2.07395 -2.07395
0.0872805 -2.06291 -2.06291
0.0684161 -2.05162 -2.05162
0.0684587 -2.06278 -2.06278
0.0496623 -2.07383 -2.07383
0.0496971 -2.09621 -2.09621
0.0874683 -2.09646 -2.09646
0.0873445 -2.07408 -2.07408
0.0496801 -2.08501 -2.08501
0.0685794 -2.09633 -2.09633
0.0874071 -2.08527 -2.08527
0.0685001 -2.07395 -2.07395
0.0685403 -2.08513 -2.08513
0.0496971 -2.09621 -2.09621
0.0497285 -2.11864 -2.11864
0.0875866 -2.1189 -2.1189
0.0874683 -2.09646 -2.09646
0.0497133 -2.10742 -2.10742
0.0686542 -2.11876 -2.11876
0.0875281 -2.10767 -2.10767
0.0685794 -2.09633 -2.09633
0.0686174 -2.10754 -2.10754
0.0497285 -2.11864 -2.11864
0.0497563 -2.14113 -2.14113
0.0876993 -2.14138 -2.14138
0.0875866 -2.1189 -2.1189
0.0497428 -2.12988 -2.12988
0.0687245 -2.14125 -2.14125
0.0876436 -2.13013 -2.13013
0.0686542 -2.11876 -2.11876
0.0686899 -2.13 -2.13
0.0497563 -2.14113 -2.14113
0.0497806 -2.16366 -2.16366
0.0878064 -2.16391 -2.16391
0.0876993 -2.14138 -2.14138
0.0497689 -2.15239 -2.15239
0.0687902 -2.16378 -2.16378
0.0877535 -2.15264 -2.15264
0.0687245 -2.14125 -2.14125
0.0687579 -2.15251 -2.15251
0.0497806 -2.16366 -2.16366
0.0498015 -2.18624 -2.18624
0.087908 -2.18649 -2.18649
0.0878064 -2.16391 -2.16391
0.0497915 -2.17495 -2.17495
0.0688515 -2.18636 -2.18636
0.0878579 -2.1752 -2.1752
0.0687902 -2.16378 -2.16378
0.0688214 -2.17507 -2.17507
0.0498015 -2.18624 -2.18624
0.0498188 -2.20887 -2.20887
0.0880041 -2.20912 -2.20912
0.087908 -2.18649 -2.18649
0.0498106 -2.19755 -2.19755
0.0689082 -2.20899 -2.20899
0.0879568 -2.1978 -2.1978
0.0688515 -2.18636 -2.18636
0.0688804 -2.19767 -2.19767
0.0498188 -2.20887 -2.20887
0.0498327 -2.23155 -2.23155
0.0880947 -2.2318 -2.2318
0.0880041 -2.20912 -2.20912
0.0498262 -2.22021 -2.22021
0.0689604 -2.23167 -2.23167
0.0880501 -2.22045 -2.22045
0.0689082 -2.20899 -2.20899
0.0689348 -2.22032 -2.22032
0.0498327 -2.23155 -2.23155
0.0498431 -2.25427 -2.25427
0.0881797 -2.25452 -2.25452
0.0880947 -2.2318 -2.2318
0.0498383 -2.2429 -2.2429
0.0690081 -2.25439 -2.25439
0.0881379 -2.24315 -2.24315
0.0689604 -2.23167 -2.23167
0.0689848 -2.24302 -2.24302
0.0498431 -2.25427 -2.25427
0.04985 -2.27703 -2.27703
0.0882593 -2.27728 -2.27728
0.0881797 -2.25452 -2.25452
0.049847 -2.26565 -2.26565
0.0690514 -2.27715 -2.27715
0.0882202 -2.26589 -2.26589
0.0690081 -2.25439 -2.25439
0.0690303 -2.26576 -2.26576
0.04985 -2.27703 -2.27703
0.0498535 -2.29984 -2.29984
0.0883334 -2.30008 -2.30008
0.0882593 -2.27728 -2.27728
0.0498522 -2.28843 -2.28843
0.0690901 -2.29996 -2.29996
0.088297 -2.28868 -2.28868
0.0690514 -2.27715 -2.27715
0.0690713 -2.28855 -2.28855
0.0498535 -2.29984 -2.29984
0.0498536 -2.32269 -2.32269
0.0884019 -2.32293 -2.32293
0.0883334 -2.30008 -2.30008
0.049854 -2.31126 -2.31126
0.0691244 -2.3228 -2.3228
0.0883683 -2.3115 -2.3115
0.0690901 -2.29996 -2.29996
0.0691078 -2.31138 -2.31138
0.0498536 -2.32269 -2.32269
0.0498502 -2.34558 -2.34558
0.088465 -2.34582 -2.34582
0.0884019 -2.32293 -2.32293
0.0498523 -2.33413 -2.33413
0.0691543 -2.34569 -2.34569
0.0884342 -2.33437 -2.33437
0.0691244 -2.3228 -2.3228
0.0691399 -2.33424 -2.33424
0.0498502 -2.34558 -2.34558
0.0498434 -2.3685 -2.3685
0.0885227 -2.36874 -2.36874
0.088465 -2.34582 -2.34582
0.0498473 -2.35703 -2.35703
0.0691797 -2.36862 -2.36862
0.0884945 -2.35727 -2.35727
0.0691543 -2.34569 -2.34569
0.0691676 -2.35715 -2.35715
0.0498434 -2.3685 -2.3685
0.0498333 -2.39147 -2.39147
0.0885749 -2.3917 -2.3917
0.0885227 -2.36874 -2.36874
0.0498388 -2.37998 -2.37998
0.0692007 -2.39158 -2.39158
0.0885495 -2.38022 -2.38022
0.0691797 -2.36862 -2.36862
0.0691908 -2.38009 -2.38009
0.0498333 -2.39147 -2.39147
0.0498197 -2.41447 -2.41447
0.0886216 -2.4147 -2.4147
0.0885749 -2.3917 -2.3917
0.0498269 -2.40296 -2.40296
0.0692173 -2.41458 -2.41458
0.0885989 -2.4032 -2.4032
0.0692007 -2.39158 -2.39158
0.0692096 -2.40308 -2.40308
0.0498197 -2.41447 -2.41447
0.0498027 -2.4375 -2.4375
0.088663 -2.43774 -2.43774
0.0886216 -2.4147 -2.4147
0.0498116 -2.42598 -2.42598
0.0692295 -2.43761 -2.43761
0.088643 -2.42621 -2.42621
0.0692173 -2.41458 -2.41458
0.069224 -2.42609 -2.42609
0.0498027 -2.4375 -2.4375
0.0497824 -2.46057 -2.46057
0.0886989 -2.4608 -2.4608
0.088663 -2.43774 -2.43774
0.0497929 -2.44903 -2.44903
0.0692373 -2.46068 -2.46068
0.0886816 -2.44927 -2.44927
0.0692295 -2.43761 -2.43761
0.0692339 -2.44914 -2.44914
0.0497824 -2.46057 -2.46057
0.0497586 -2.48367 -2.48367
0.0887294 -2.4839 -2.4839
0.0886989 -2.4608 -2.4608
0.0497709 -2.47212 -2.47212
0.0692407 -2.48378 -2.48378
0.0887148 -2.47235 -2.47235
0.0692373 -2.46068 -2.46068
0.0692395 -2.47223 -2.47223
0.0497586 -2.48367 -2.48367
0.0497316 -2.50681 -2.50681
0.0887545 -2.50703 -2.50703
0.0887294 -2.4839 -2.4839
0.0497455 -2.49523 -2.49523
0.0692397 -2.50692 -2.50692
0.0887426 -2.49547 -2.49547
0.0692407 -2.48378 -2.48378
0.0692407 -2.49535 -2.49535
0.0497316 -2.50681 -2.50681
0.0497012 -2.52997 -2.52997
0.0887742 -2.5302 -2.5302
0.0887545 -2.50703 -2.50703
0.0497168 -2.51838 -2.51838
0.0692344 -2.53008 -2.53008
0.088765 -2.51861 -2.51861
0.0692397 -2.50692 -2.50692
0.0692376 -2.51849 -2.51849
0.0497012 -2.52997 -2.52997
0.0496675 -2.55316 -2.55316
0.0887885 -2.55339 -2.55339
0.0887742 -2.5302 -2.5302
0.0496847 -2.54156 -2.54156
0.0692246 -2.55327 -2.55327
0.088782 -2.54179 -2.54179
0.0692344 -2.53008 -2.53008
0.06923 -2.54167 -2.54167
0.0496675 -2.55316 -2.55316
0.0496304 -2.57638 -2.57638
0.0887975 -2.57661 -2.57661
0.0887885 -2.55339 -2.55339
0.0496493 -2.56477 -2.56477
0.0692106 -2.57649 -2.57649
0.0887937 -2.56499 -2.56499
0.0692246 -2.55327 -2.55327
0.0692182 -2.56488 -2.56488
0.0496304 -2.57638 -2.57638
0.04959 -2.59963 -2.59963
0.0888011 -2.59985 -2.59985
0.0887975 -2.57661 -2.57661
0.0496106 -2.588 -2.588
0.0691922 -2.59974 -2.59974
0.0887999 -2.58823 -2.58823
0.0692106 -2.57649 -2.57649
0.069202 -2.58811 -2.58811
0.04959 -2.59963 -2.59963
0.0495464 -2.6229 -2.6229
0.0887994 -2.62312 -2.62312
0.0888011 -2.59985 -2.59985
0.0495686 -2.61126 -2.61126
0.0691695 -2.62301 -2.62301
0.0888009 -2.61148 -2.61148
0.0691922 -2.59974 -2.59974
0.0691814 -2.61137 -2.61137
0.0495464 -2.6229 -2.6229
0.0494994 -2.6462 -2.6462
0.0887923 -2.64642 -2.64642
0.0887994 -2.62312 -2.62312
0.0495233 -2.63455 -2.63455
0.0691425 -2.6463 -2.6463
0.0887965 -2.63477 -2.63477
0.0691695 -2.62301 -2.62301
0.0691566 -2.63465 -2.63465
0.0494994 -2.6462 -2.6462
0.0494492 -2.66952 -2.66952
0.0887799 -2.66973 -2.66973
0.0887923 -2.64642 -2.64642
0.0494747 -2.65785 -2.65785
0.0691112 -2.66962 -2.66962
0.0887868 -2.65807 -2.65807
0.0691425 -2.6463 -2.6463
0.0691274 -2.65796 -2.65796
0.0494492 -2.66952 -2.66952
0.0493957 -2.69286 -2.69286
0.0887622 -2.69307 -2.69307
0.0887799 -2.66973 -2.66973
0.0494228 -2.68119 -2.68119
0.0690756 -2.69296 -2.69296
0.0887717 -2.6814 -2.6814
0.0691112 -2.66962 -2.66962
0.0690939 -2.68129 -2.68129
0.0493957 -2.69286 -2.69286
0.0493389 -2.71622 -2.71622
0.0887392 -2.71643 -2.71643
0.0887622 -2.69307 -2.69307
0.0493677 -2.70454 -2.70454
0.0690357 -2.71633 -2.71633
0.0887514 -2.70475 -2.70475
0.0690756 -2.69296 -2.69296
0.0690562 -2.70464 -2.70464
0.0493389 -2.71622 -2.71622
0.0492789 -2.7396 -2.7396
0.0887109 -2.73981 -2.73981
0.0887392 -2.71643 -2.71643
0.0493093 -2.72791 -2.72791
0.0689916 -2.73971 -2.73971
0.0887257 -2.72812 -2.72812
0.0690357 -2.71633 -2.71633
0.0690142 -2.72801 -2.72801
0.0492789 -2.7396 -2.7396
0.0492157 -2.763 -2.763
0.0886774 -2.76321 -2.76321
0.0887109 -2.73981 -2.73981
0.0492477 -2.7513 -2.7513
0.0689432 -2.7631 -2.7631
0.0886948 -2.75151 -2.75151
0.0689916 -2.73971 -2.73971
0.0689679 -2.7514 -2.7514
0.0492157 -2.763 -2.763
0.0491492 -2.78642 -2.78642
0.0886385 -2.78663 -2.78663
0.0886774 -2.76321 -2.76321
0.0491829 -2.77471 -2.77471
0.0688905 -2.78652 -2.78652
0.0886586 -2.77492 -2.77492
0.0689432 -2.7631 -2.7631
0.0689174 -2.77481 -2.77481
0.0491492 -2.78642 -2.78642
0.0490795 -2.80985 -2.80985
0.0885944 -2.81006 -2.81006
0.0886385 -2.78663 -2.78663
0.0491148 -2.79813 -2.79813
0.0688337 -2.80995 -2.80995
0.0886171 -2.79834 -2.79834
0.0688905 -2.78652 -2.78652
0.0688626 -2.79823 -2.79823
0.0490795 -2.80985 -2.80985
0.0490066 -2.8333 -2.8333
0.0885451 -2.8335 -2.8335
0.0885944 -2.81006 -2.81006
0.0490435 -2.82157 -2.82157
0.0687725 -2.8334 -2.8334
0.0885704 -2.82178 -2.82178
0.0688337 -2.80995 -2.80995
0.0688036 -2.82167 -2.82167
0.0490066 -2.8333 -2.8333
0.0489305 -2.85676 -2.85676
0.0884905 -2.85696 -2.85696
0.0885451 -2.8335 -2.8335
0.048969 -2.84502 -2.84502
0.0687072 -2.85686 -2.85686
0.0885185 -2.84523 -2.84523
0.0687725 -2.8334 -2.8334
0.0687404 -2.84512 -2.84512
0.0489305 -2.85676 -2.85676
0.0488511 -2.88023 -2.88023
0.0884307 -2.88043 -2.88043
0.0884905 -2.85696 -2.85696
0.0488912 -2.86849 -2.86849
0.0686376 -2.88033 -2.88033
0.0884613 -2.86869 -2.86869
0.0687072 -2.85686 -2.85686
0.0686729 -2.86859 -2.86859
0.0488511 -2.88023 -2.88023
0.0487684 -2.90371 -2.90371
0.0883657 -2.90391 -2.90391
0.0884307 -2.88043 -2.88043
0.0488102 -2.89197 -2.89197
0.0685637 -2.90381 -2.90381
0.0883989 -2.89217 -2.89217
0.0686376 -2.88033 -2.88033
0.0686012 -2.89207 -2.89207
0.0487684 -2.90371 -2.90371
0.0486822 -2.9272 -2.9272
0.0882955 -2.9274 -2.9274
0.0883657 -2.90391 -2.90391
0.0487258 -2.91546 -2.91546
0.0684854 -2.9273 -2.9273
0.0883313 -2.91565 -2.91565
0.0685637 -2.90381 -2.90381
0.0685251 -2.91555 -2.91555
0.0486822 -2.9272 -2.9272
0.0485924 -2.9507 -2.9507
0.08822 -2.9509 -2.9509
0.0882955 -2.9274 -2.9274
0.0486378 -2.93895 -2.93895
0.0684026 -2.9508 -2.9508
0.0882584 -2.93915 -2.93915
0.0684854 -2.9273 -2.9273
0.0684446 -2.93905 -2.93905
0.0485924 -2.9507 -2.9507
0.0484988 -2.97421 -2.97421
0.0881391 -2.9744 -2.9744
0.08822 -2.9509 -2.9509
0.0485461 -2.96246 -2.96246
0.068315 -2.97431 -2.97431
0.0881802 -2.96265 -2.96265
0.0684026 -2.9508 -2.9508
0.0683594 -2.96255 -2.96255
0.0484988 -2.97421 -2.97421
0.0484009 -2.99773 -2.99773
0.0880526 -2.99792 -2.99792
0.0881391 -2.9744 -2.9744
0.0484504 -2.98597 -2.98597
0.0682222 -2.99782 -2.99782
0.0880966 -2.98616 -2.98616
0.068315 -2.97431 -2.97431
0.0682693 -2.98606 -2.98606
0.0484009 -2.99773 -2.99773
0.0482989 -3.02125 -3.02125
0.0879599 -3.02144 -3.02144
0.0880526 -2.99792 -2.99792
0.0483504 -3.00949 -3.00949
0.0681238 -3.02134 -3.02134
0.088007 -3.00967 -3.00967
0.0682222 -2.99782 -2.99782
0.0681738 -3.00958 -3.00958
0.0482989 -3.02125 -3.02125
0.0481934 -3.04477 -3.04477
0.0878604 -3.04496 -3.04496
0.0879599 -3.02144 -3.02144
0.0482464 -3.03301 -3.03301
0.06802 -3.04487 -3.04487
0.0879111 -3.0332 -3.0332
0.0681238 -3.02134 -3.02134
0.0680726 -3.0331 -3.0331
0.0481934 -3.04477 -3.04477
0.0480875 -3.0683 -3.0683
0.0877545 -3.06851 -3.06851
0.0878604 -3.04496 -3.04496
0.0481403 -3.05654 -3.05654
0.0679133 -3.0684 -3.0684
0.0878079 -3.05673 -3.05673
0.06802 -3.04487 -3.04487
0.0679664 -3.05664 -3.05664
0.0480875 -3.0683 -3.0683
0.047984 -3.09181 -3.09181
0.0876524 -3.09206 -3.09206
0.0877545 -3.06851 -3.06851
0.0480353 -3.08006 -3.08006
0.0678126 -3.09193 -3.09193
0.0877017 -3.08028 -3.08028
0.0679133 -3.0684 -3.0684
0.0678618 -3.08017 -3.08017
0 0 0
0.000916232 -0.000260188 -0.000260188
0.00153743 -0.000768663 -0.000768663
0 0 0
0.000444639 -9.33528e-05 -9.33528e-05
0.00115766 -0.000464748 -0.000464748
0.000836377 -0.000478859 -0.000478859
0 0 0
0.000552169 -0.000204776 -0.000204776
0.000916232 -0.000260188 -0.000260188
0.00190817 -0.000750881 -0.000750881
0.00286778 -0.00133587 -0.00133587
0.00153743 -0.000768663 -0.000768663
0.00140749 -0.000481842 -0.000481842
0.00236373 -0.00101374 -0.00101374
0.00220463 -0.00104156 -0.00104156
0.00115766 -0.000464748 -0.000464748
0.00176409 -0.000730948 -0.000730948
0.00190817 -0.000750881 -0.000750881
0.00290902 -0.00142496 -0.00142496
0.00420943 -0.00202007 -0.00202007
0.00286778 -0.00133587 -0.00133587
0.0024092 -0.00106422 -0.00106422
0.00355202 -0.00170013 -0.00170013
0.00353627 -0.00165795 -0.00165795
0.00236373 -0.00101374 -0.00101374
0.00295945 -0.00133461 -0.00133461
0.00290902 -0.00142496 -0.00142496
0.0039047 -0.00230268 -0.00230268
0.00556179 -0.00290017 -0.00290017
0.00420943 -0.00202007 -0.00202007
0.00340774 -0.00183718 -0.00183718
0.00472991 -0.00257805 -0.00257805
0.00488466 -0.00243357 -0.00243357
0.00355202 -0.00170013 -0.00170013
0.00414183 -0.00211333 -0.00211333
0.0039047 -0.00230268 -0.00230268
0.00489172 -0.00339854 -0.00339854
0.00692107 -0.00399437 -0.00399437
0.00556179 -0.00290017 -0.00290017
0.00439923 -0.00282272 -0.00282272
0.00590352 -0.00367329 -0.00367329
0.00624095 -0.00341976 -0.00341976
0.00472991 -0.00257805 -0.00257805
0.00531716 -0.00309771 -0.00309771
0.00489172 -0.00339854 -0.00339854
0.00587198 -0.00472095 -0.00472095
0.00828054 -0.00531497 -0.00531497
0.00692107 -0.00399437 -0.00399437
0.00538264 -0.00403118 -0.00403118
0.0070729 -0.00499409 -0.00499409
0.00760101 -0.00462608 -0.00462608
0.00590352 -0.00367329 -0.00367329
0.00648875 -0.00430524 -0.00430524
0.00587198 -0.00472095 -0.00472095
0.00684586 -0.00627232 -0.00627232
0.0096378 -0.0068637 -0.0068637
0.00828054 -0.00531497 -0.00531497
0.00635968 -0.00546795 -0.00546795
0.00823793 -0.00654401 -0.00654401
0.0089596 -0.00606074 -0.00606074
0.0070729 -0.00499409 -0.00499409
0.007656 -0.00574033 -0.00574033
0.00684586 -0.00627232 -0.00627232
0.00781406 -0.00805331 -0.00805331
0.0109903 -0.00864208 -0.00864208
0.0096378 -0.0068637 -0.0068637
0.00733064 -0.00713414 -0.00713414
0.00939784 -0.00832352 -0.00832352
0.0103147 -0.0077242 -0.0077242
0.00823793 -0.00654401 -0.00654401
0.00881856 -0.00740509 -0.00740509
0.00781406 -0.00805331 -0.00805331
0.00877672 -0.0100632 -0.0100632
0.012337 -0.0106492 -0.0106492
0.0109903 -0.00864208 -0.00864208
0.00829607 -0.00902972 -0.00902972
0.0105522 -0.0103321 -0.0103321
0.0116644 -0.00961711 -0.00961711
0.00939784 -0.00832352 -0.00832352
0.00997575 -0.00929922 -0.00929922
0.00877672 -0.0100632 -0.0100632
0.00973401 -0.0123011 -0.0123011
0.013677 -0.0128843 -0.0128843
0.012337 -0.0106492 -0.0106492
0.00925603 -0.0111537 -0.0111537
0.0117007 -0.0125686 -0.0125686
0.0130078 -0.0117384 -0.0117384
0.0105522 -0.0103321 -0.0103321
0.0111272 -0.0114219 -0.0114219
0.00973401 -0.0123011 -0.0123011
0.0106859 -0.0147657 -0.0147657
0.01501 -0.0153462 -0.0153462
0.013677 -0.0128843 -0.0128843
0.0102106 -0.0135051 -0.0135051
0.0128431 -0.0150319 -0.0150319
0.0143444 -0.014087 -0.014087
0.0117007 -0.0125686 -0.0125686
0.0122727 -0.013772 -0.013772
0.0106859 -0.0147657 -0.0147657
0.0116325 -0.0174557 -0.0174557
0.0163358 -0.0180335 -0.0180335
0.01501 -0.0153462 -0.0153462
0.0111599 -0.0160826 -0.0160826
0.0139792 -0.0177207 -0.0177207
0.0156738 -0.0166617 -0.0166617
0.0128431 -0.0150319 -0.0150319
0.0134119 -0.0163482 -0.0163482
0.0116325 -0.0174557 -0.0174557
0.0125738 -0.0203699 -0.0203699
0.0176543 -0.020945 -0.020945
0.0163358 -0.0180335 -0.0180335
0.0121038 -0.0188849 -0.0188849
0.015109 -0.0206337 -0.0206337
0.016996 -0.0194613 -0.0194613
0.0139792 -0.0177207 -0.0177207
0.0145449 -0.0191492 -0.0191492
0.0125738 -0.0203699 -0.0203699
0.0135096 -0.0235071 -0.0235071
0.0189653 -0.0240796 -0.0240796
0.0176543 -0.020945 -0.020945
0.0130424 -0.0219107 -0.0219107
0.0162325 -0.0237697 -0.0237697
0.0183107 -0.0224845 -0.0224845
0.015109 -0.0206337 -0.0206337
0.0156716 -0.0221739 -0.0221739
0.0135096 -0.0235071 -0.0235071
0.0144401 -0.026866 -0.026866
0.020269 -0.0274358 -0.0274358
0.0189653 -0.0240796 -0.0240796
0.0139755 -0.0251589 -0.0251589
0.0173495 -0.0271274 -0.0271274
0.0196181 -0.0257301 -0.0257301
0.0162325 -0.0237697 -0.0237697
0.0167918 -0.0254209 -0.0254209
0.0144401 -0.026866 -0.026866
0.0153652 -0.0304454 -0.0304454
0.0215651 -0.0310127 -0.0310127
0.020269 -0.0274358 -0.0274358
0.0149033 -0.0286282 -0.0286282
0.0184602 -0.0307056 -0.0307056
0.020918 -0.0291968 -0.0291968
0.0173495 -0.0271274 -0.0271274
0.0179056 -0.028889 -0.028889
0.0153652 -0.0304454 -0.0304454
0.0162848 -0.0342441 -0.0342441
0.0228538 -0.0348088 -0.0348088
0.0215651 -0.0310127 -0.0310127
0.0158257 -0.0323174 -0.0323174
0.0195643 -0.0345031 -0.0345031
0.0222104 -0.0328834 -0.0328834
0.0184602 -0.0307056 -0.0307056
0.019013 -0.032577 -0.032577
0.0162848 -0.0342441 -0.0342441
0.017199 -0.0382608 -0.0382608
0.024135 -0.038823 -0.038823
0.0228538 -0.0348088 -0.0348088
0.0167426 -0.0362253 -0.0362253
0.020662 -0.0385187 -0.0385187
0.0234954 -0.0367887 -0.0367887
0.0195643 -0.0345031 -0.0345031
0.020114 -0.0364837 -0.0364837
0.017199 -0.0382608 -0.0382608
0.0181077 -0.0424944 -0.0424944
0.0254088 -0.043054 -0.043054
0.024135 -0.038823 -0.038823
0.0176541 -0.0403506 -0.0403506
0.0217533 -0.0427512 -0.0427512
0.0247728 -0.0409115 -0.0409115
0.020662 -0.0385187 -0.0385187
0.0212085 -0.0406079 -0.0406079
0.0181077 -0.0424944 -0.0424944
0.019011 -0.0469436 -0.0469436
0.0266749 -0.0475007 -0.0475007
0.0254088 -0.043054 -0.043054
0.0185601 -0.0446921 -0.0446921
0.022838 -0.0471992 -0.0471992
0.0260428 -0.0452505 -0.0452505
0.0217533 -0.0427512 -0.0427512
0.0222964 -0.0449483 -0.0449483
0.019011 -0.0469436 -0.0469436
0.0199088 -0.0516072 -0.0516072
0.0279336 -0.0521619 -0.0521619
0.0266749 -0.0475007 -0.0475007
0.0194606 -0.0492487 -0.0492487
0.0239162 -0.0518618 -0.0518618
0.0273052 -0.0498046 -0.0498046
0.022838 -0.0471992 -0.0471992
0.0233779 -0.0495038 -0.0495038
0.0199088 -0.0516072 -0.0516072
0.020801 -0.056484 -0.056484
0.0291847 -0.0570363 -0.0570363
0.0279336 -0.0521619 -0.0521619
0.0203556 -0.054019 -0.054019
0.0249879 -0.0567375 -0.0567375
0.0285601 -0.0545725 -0.0545725
0.0239162 -0.0518618 -0.0518618
0.0244529 -0.054273 -0.054273
0.020801 -0.056484 -0.056484
0.0216878 -0.0615728 -0.0615728
0.0304282 -0.0621227 -0.0621227
0.0291847 -0.0570363 -0.0570363
0.0212451 -0.059002 -0.059002
0.026053 -0.0618252 -0.0618252
0.0298074 -0.0595531 -0.0595531
0.0249879 -0.0567375 -0.0567375
0.0255213 -0.0592549 -0.0592549
0.0216878 -0.0615728 -0.0615728
0.022569 -0.0668724 -0.0668724
0.0316641 -0.0674199 -0.0674199
0.0304282 -0.0621227 -0.0621227
0.0221291 -0.0641963 -0.0641963
0.0271116 -0.0671237 -0.0671237
0.0310471 -0.064745 -0.064745
0.026053 -0.0618252 -0.0618252
0.0265831 -0.0644482 -0.0644482
0.022569 -0.0668724 -0.0668724
0.0234446 -0.0723815 -0.0723815
0.0328925 -0.0729267 -0.0729267
0.0316641 -0.0674199 -0.0674199
0.0230075 -0.0696008 -0.0696008
0.0281636 -0.0726318 -0.0726318
0.0322793 -0.0701472 -0.0701472
0.0271116 -0.0671237 -0.0671237
0.0276384 -0.0698517 -0.0698517
0.0234446 -0.0723815 -0.0723815
0.0243147 -0.078099 -0.078099
0.0341132 -0.0786419 -0.0786419
0.0328925 -0.0729267 -0.0729267
0.0238803 -0.0752143 -0.0752143
0.029209 -0.0783483 -0.0783483
0.0335038 -0.0757583 -0.0757583
0.0281636 -0.0726318 -0.0726318
0.0286871 -0.0754641 -0.0754641
0.0243147 -0.078099 -0.078099
0.0251792 -0.0840236 -0.0840236
0.0353263 -0.0845642 -0.0845642
0.0341132 -0.0786419 -0.0786419
0.0247476 -0.0810355 -0.0810355
0.0302478 -0.0842719 -0.0842719
0.0347207 -0.0815772 -0.0815772
0.029209 -0.0783483 -0.0783483
0.0297292 -0.0812843 -0.0812843
0.0251792 -0.0840236 -0.0840236
0.0260381 -0.0901542 -0.0901542
0.0365318 -0.0906925 -0.0906925
0.0353263 -0.0845642 -0.0845642
0.0256093 -0.0870633 -0.0870633
0.03128 -0.0904015 -0.0904015
0.03593 -0.0876027 -0.0876027
0.0302478 -0.0842719 -0.0842719
0.0307647 -0.087311 -0.087311
0.0260381 -0.0901542 -0.0901542
0.0268914 -0.0964895 -0.0964895
0.0377296 -0.0970255 -0.0970255
0.0365318 -0.0906925 -0.0906925
0.0264654 -0.0932963 -0.0932963
0.0323055 -0.0967357 -0.0967357
0.0371317 -0.0938335 -0.0938335
0.03128 -0.0904015 -0.0904015
0.0317936 -0.0935431 -0.0935431
0.0268914 -0.0964895 -0.0964895
0.027739 -0.103028 -0.103028
0.0389197 -0.103562 -0.103562
0.0377296 -0.0970255 -0.0970255
0.0273159 -0.0997335 -0.0997335
0.0333244 -0.103274 -0.103274
0.0383256 -0.100268 -0.100268
0.0323055 -0.0967357 -0.0967357
0.0328158 -0.0999793 -0.0999793
0.027739 -0.103028 -0.103028
0.028581 -0.109769 -0.109769
0.0401022 -0.110301 -0.110301
0.0389197 -0.103562 -0.103562
0.0281607 -0.106374 -0.106374
0.0343366 -0.110014 -0.110014
0.0395119 -0.106906 -0.106906
0.0333244 -0.103274 -0.103274
0.0338314 -0.106618 -0.106618
0.028581 -0.109769 -0.109769
0.0294174 -0.116711 -0.116711
0.041277 -0.117241 -0.117241
0.0401022 -0.110301 -0.110301
0.0289999 -0.113215 -0.113215
0.0353422 -0.116955 -0.116955
0.0406905 -0.113746 -0.113746
0.0343366 -0.110014 -0.110014
0.0348403 -0.113459 -0.113459
0.0294174 -0.116711 -0.116711
0.0302481 -0.123853 -0.123853
0.042444 -0.124381 -0.124381
0.041277 -0.117241 -0.117241
0.0298335 -0.120258 -0.120258
0.0363411 -0.124096 -0.124096
0.0418614 -0.120786 -0.120786
0.0353422 -0.116955 -0.116955
0.0358425 -0.1205 -0.1205
0.0302481 -0.123853 -0.123853
0.0310732 -0.131194 -0.131194
0.0436034 -0.131719 -0.131719
0.042444 -0.124381 -0.124381
0.0306613 -0.127499 -0.127499
0.0373333 -0.131436 -0.131436
0.0430246 -0.128025 -0.128025
0.0363411 -0.124096 -0.124096
0.036838 -0.127741 -0.127741
0.0310732 -0.131194 -0.131194
0.0318925 -0.138732 -0.138732
0.044755 -0.139255 -0.139255
0.0436034 -0.131719 -0.131719
0.0314835 -0.134939 -0.134939
0.0383188 -0.138973 -0.138973
0.0441801 -0.135463 -0.135463
0.0373333 -0.131436 -0.131436
0.0378269 -0.13518 -0.13518
0.0318925 -0.138732 -0.138732
0.0327062 -0.146467 -0.146467
0.0458988 -0.146987 -0.146987
0.044755 -0.139255 -0.139255
0.0323 -0.142575 -0.142575
0.0392975 -0.146706 -0.146706
0.0453279 -0.143097 -0.143097
0.0383188 -0.138973 -0.138973
0.038809 -0.142815 -0.142815
0.0327062 -0.146467 -0.146467
0.0335141 -0.154396 -0.154396
0.0470349 -0.154915 -0.154915
0.0458988 -0.146987 -0.146987
0.0331108 -0.150407 -0.150407
0.0402696 -0.154635 -0.154635
0.0464678 -0.150927 -0.150927
0.0392975 -0.146706 -0.146706
0.0397844 -0.150646 -0.150646
0.0335141 -0.154396 -0.154396
0.0343163 -0.162519 -0.162519
0.0481633 -0.163036 -0.163036
0.0470349 -0.154915 -0.154915
0.0339159 -0.158433 -0.158433
0.0412348 -0.162757 -0.162757
0.0476001 -0.158951 -0.158951
0.0402696 -0.154635 -0.154635
0.040753 -0.158672 -0.158672
0.0343163 -0.162519 -0.162519
0.0351128 -0.170835 -0.170835
0.0492838 -0.17135 -0.17135
0.0481633 -0.163036 -0.163036
0.0347153 -0.166653 -0.166653
0.0421934 -0.171072 -0.171072
0.0487245 -0.167169 -0.167169
0.0412348 -0.162757 -0.162757
0.0417149 -0.16689 -0.16689
0.0351128 -0.170835 -0.170835
0.0359035 -0.179342 -0.179342
0.0503966 -0.179855 -0.179855
0.0492838 -0.17135 -0.17135
0.0355089 -0.175065 -0.175065
0.0431451 -0.179578 -0.179578
0.0498412 -0.175578 -0.175578
0.0421934 -0.171072 -0.171072
0.0426701 -0.175301 -0.175301
0.0359035 -0.179342 -0.179342
0.0366885 -0.188039 -0.188039
0.0515016 -0.18855 -0.18855
0.0503966 -0.179855 -0.179855
0.0362968 -0.183667 -0.183667
0.0440901 -0.188274 -0.188274
0.0509501 -0.184179 -0.184179
0.0431451 -0.179578 -0.179578
0.0436185 -0.183903 -0.183903
0.0366885 -0.188039 -0.188039
0.0374678 -0.196926 -0.196926
0.0525988 -0.197434 -0.197434
0.0515016 -0.18855 -0.18855
0.0370789 -0.192459 -0.192459
0.0450283 -0.19716 -0.19716
0.0520512 -0.192969 -0.192969
0.0440901 -0.188274 -0.188274
0.0445601 -0.192694 -0.192694
0.0374678 -0.196926 -0.196926
0.0382412 -0.206 -0.206
0.0536881 -0.206506 -0.206506
0.0525988 -0.197434 -0.197434
0.0378552 -0.201439 -0.201439
0.0459597 -0.206233 -0.206233
0.0531444 -0.201947 -0.201947
0.0450283 -0.19716 -0.19716
0.0454949 -0.201673 -0.201673
0.0382412 -0.206 -0.206
0.0390089 -0.21526 -0.21526
0.0547697 -0.215765 -0.215765
0.0536881 -0.206506 -0.206506
0.0386258 -0.210607 -0.210607
0.0468843 -0.215493 -0.215493
0.0542299 -0.211112 -0.211112
0.0459597 -0.206233 -0.206233
0.0464229 -0.21084 -0.21084
0.0390089 -0.21526 -0.21526
0.0397708 -0.224706 -0.224706
0.0558434 -0.225209 -0.225209
0.0547697 -0.215765 -0.215765
0.0393906 -0.21996 -0.21996
0.0478021 -0.224938 -0.224938
0.0553075 -0.220464 -0.220464
0.0468843 -0.215493 -0.215493
0.0473441 -0.220192 -0.220192
0.0397708 -0.224706 -0.224706
0.0405269 -0.234336 -0.234336
0.0569092 -0.234837 -0.234837
0.0558434 -0.225209 -0.225209
0.0401496 -0.229498 -0.229498
0.0487131 -0.234567 -0.234567
0.0563773 -0.23 -0.23
0.0478021 -0.224938 -0.224938
0.0482585 -0.229729 -0.229729
0.0405269 -0.234336 -0.234336
0.0412771 -0.244149 -0.244149
0.0579672 -0.244648 -0.244648
0.0569092 -0.234837 -0.234837
0.0409027 -0.23922 -0.23922
0.0496172 -0.244379 -0.244379
0.0574392 -0.239719 -0.239719
0.0487131 -0.234567 -0.234567
0.049166 -0.23945 -0.23945
0.0412771 -0.244149 -0.244149
0.0420216 -0.254143 -0.254143
0.0590174 -0.25464 -0.25464
0.0579672 -0.244648 -0.244648
0.0416501 -0.249123 -0.249123
0.0505145 -0.254373 -0.254373
0.0584933 -0.249621 -0.249621
0.0496172 -0.244379 -0.244379
0.0500667 -0.249353 -0.249353
0.0420216 -0.254143 -0.254143
0.0427602 -0.264318 -0.264318
0.0600597 -0.264813 -0.264813
0.0590174 -0.25464 -0.25464
0.0423916 -0.259208 -0.259208
0.051405 -0.264547 -0.264547
0.0595395 -0.259704 -0.259704
0.0505145 -0.254373 -0.254373
0.0509606 -0.259437 -0.259437
0.0427602 -0.264318 -0.264318
0.043493 -0.274673 -0.274673
0.061094 -0.275166 -0.275166
0.0600597 -0.264813 -0.264813
0.0431274 -0.269473 -0.269473
0.0522886 -0.2749 -0.2749
0.0605778 -0.269967 -0.269967
0.051405 -0.264547 -0.264547
0.0518476 -0.269701 -0.269701
0.043493 -0.274673 -0.274673
0.04422 -0.285205 -0.285205
0.0621206 -0.285696 -0.285696
0.061094 -0.275166 -0.275166
0.0438572 -0.279917 -0.279917
0.0531653 -0.285432 -0.285432
0.0616083 -0.280409 -0.280409
0.0522886 -0.2749 -0.2749
0.0527278 -0.280144 -0.280144
0.04422 -0.285205 -0.285205
0.0449411 -0.295914 -0.295914
0.0631392 -0.296404 -0.296404
0.0621206 -0.285696 -0.285696
0.0445813 -0.290538 -0.290538
0.0540352 -0.29614 -0.29614
0.0626308 -0.291028 -0.291028
0.0531653 -0.285432 -0.285432
0.0536011 -0.290764 -0.290764
0.0449411 -0.295914 -0.295914
0.0456564 -0.306799 -0.306799
0.0641499 -0.307286 -0.307286
0.0631392 -0.296404 -0.296404
0.0452995 -0.301335 -0.301335
0.0548982 -0.307024 -0.307024
0.0636455 -0.301823 -0.301823
0.0540352 -0.29614 -0.29614
0.0544675 -0.30156 -0.30156
0.0456564 -0.306799 -0.306799
0.0463657 -0.317858 -0.317858
0.0651527 -0.318344 -0.318344
0.0641499 -0.307286 -0.307286
0.0460118 -0.312307 -0.312307
0.0557543 -0.318082 -0.318082
0.0646523 -0.312793 -0.312793
0.0548982 -0.307024 -0.307024
0.0553271 -0.312531 -0.312531
0.0463657 -0.317858 -0.317858
0.0470693 -0.32909 -0.32909
0.0661476 -0.329574 -0.329574
0.0651527 -0.318344 -0.318344
0.0467182 -0.323453 -0.323453
0.0566035 -0.329314 -0.329314
0.0656511 -0.323938 -0.323938
0.0557543 -0.318082 -0.318082
0.0561797 -0.323677 -0.323677
0.0470693 -0.32909 -0.32909
0.0477669 -0.340495 -0.340495
0.0671346 -0.340977 -0.340977
0.0661476 -0.329574 -0.329574
0.0474188 -0.334771 -0.334771
0.0574458 -0.340718 -0.340718
0.0666421 -0.335254 -0.335254
0.0566035 -0.329314 -0.329314
0.0570255 -0.334994 -0.334994
0.0477669 -0.340495 -0.340495
0.0484587 -0.35207 -0.35207
0.0681136 -0.35255 -0.35255
0.0671346 -0.340977 -0.340977
0.0481135 -0.346261 -0.346261
0.0582812 -0.352292 -0.352292
0.0676251 -0.346742 -0.346742
0.0574458 -0.340718 -0.340718
0.0578644 -0.346484 -0.346484
0.0484587 -0.35207 -0.35207
0.0491446 -0.363815 -0.363815
0.0690847 -0.364293 -0.364293
0.0681136 -0.35255 -0.35255
0.0488024 -0.357921 -0.357921
0.0591097 -0.364036 -0.364036
0.0686002 -0.358401 -0.358401
0.0582812 -0.352292 -0.352292
0.0586963 -0.358143 -0.358143
0.0491446 -0.363815 -0.363815
0.0498245 -0.375728 -0.375728
0.0700479 -0.376204 -0.376204
0.0690847 -0.364293 -0.364293
0.0494853 -0.36975 -0.36975
0.0599313 -0.375948 -0.375948
0.0695673 -0.370228 -0.370228
0.0591097 -0.364036 -0.364036
0.0595214 -0.369971 -0.369971
0.0498245 -0.375728 -0.375728
0.0504986 -0.387808 -0.387808
0.0710031 -0.388283 -0.388283
0.0700479 -0.376204 -0.376204
0.0501623 -0.381747 -0.381747
0.0607459 -0.388028 -0.388028
0.0705265 -0.382223 -0.382223
0.0599313 -0.375948 -0.375948
0.0603395 -0.381967 -0.381967
0.0504986 -0.387808 -0.387808
0.0511668 -0.400054 -0.400054
0.0719504 -0.400527 -0.400527
0.0710031 -0.388283 -0.388283
0.0508335 -0.39391 -0.39391
0.0615537 -0.400273 -0.400273
0.0714778 -0.394384 -0.394384
0.0607459 -0.388028 -0.388028
0.0611507 -0.39413 -0.39413
0.0511668 -0.400054 -0.400054
0.0518291 -0.412465 -0.412465
0.0728898 -0.412936 -0.412936
0.0719504 -0.400527 -0.400527
0.0514987 -0.406239 -0.406239
0.0623545 -0.412683 -0.412683
0.0724211 -0.406711 -0.406711
0.0615537 -0.400273 -0.400273
0.0619549 -0.406458 -0.406458
0.0518291 -0.412465 -0.412465
0.0524855 -0.425039 -0.425039
0.0738211 -0.425509 -0.425509
0.0728898 -0.412936 -0.412936
0.052158 -0.418732 -0.418732
0.0631484 -0.425257 -0.425257
0.0733564 -0.419202 -0.419202
0.0623545 -0.412683 -0.412683
0.0627523 -0.41895 -0.41895
0.0524855 -0.425039 -0.425039
0.0531359 -0.437776 -0.437776
0.0747446 -0.438244 -0.438244
0.0738211 -0.425509 -0.425509
0.0528114 -0.431387 -0.431387
0.0639353 -0.437993 -0.437993
0.0742838 -0.431856 -0.431856
0.0631484 -0.425257 -0.425257
0.0635427 -0.431604 -0.431604
0.0531359 -0.437776 -0.437776
0.0537804 -0.450673 -0.450673
0.07566 -0.45114 -0.45114
0.0747446 -0.438244 -0.438244
0.0534589 -0.444205 -0.444205
0.0647153 -0.45089 -0.45089
0.0752033 -0.444672 -0.444672
0.0639353 -0.437993 -0.437993
0.0643261 -0.444421 -0.444421
0.0537804 -0.450673 -0.450673
0.054419 -0.463731 -0.463731
0.0765675 -0.464196 -0.464196
0.07566 -0.45114 -0.45114
0.0541005 -0.457182 -0.457182
0.0654883 -0.463946 -0.463946
0.0761147 -0.457648 -0.457648
0.0647153 -0.45089 -0.45089
0.0651027 -0.457398 -0.457398
0.054419 -0.463731 -0.463731
0.0550517 -0.476947 -0.476947
0.077467 -0.47741 -0.47741
0.0765675 -0.464196 -0.464196
0.0547361 -0.470319 -0.470319
0.0662544 -0.477162 -0.477162
0.0770182 -0.470783 -0.470783
0.0654883 -0.463946 -0.463946
0.0658722 -0.470534 -0.470534
0.0550517 -0.476947 -0.476947
0.0556784 -0.490321 -0.490321
0.0783585 -0.490782 -0.490782
0.077467 -0.47741 -0.47741
0.0553658 -0.483615 -0.483615
0.0670135 -0.490535 -0.490535
0.0779138 -0.484076 -0.484076
0.0662544 -0.477162 -0.477162
0.0666348 -0.483829 -0.483829
0.0556784 -0.490321 -0.490321
0.0562992 -0.503851 -0.503851
0.0792421 -0.50431 -0.50431
0.0783585 -0.490782 -0.490782
0.0559895 -0.497066 -0.497066
0.0677657 -0.504064 -0.504064
0.0788013 -0.497527 -0.497527
0.0670135 -0.490535 -0.490535
0.0673905 -0.49728 -0.49728
0.0562992 -0.503851 -0.503851
0.0569141 -0.517536 -0.517536
0.0801176 -0.517993 -0.517993
0.0792421 -0.50431 -0.50431
0.0566074 -0.510674 -0.510674
0.0685109 -0.517748 -0.517748
0.0796808 -0.511132 -0.511132
0.0677657 -0.504064 -0.504064
0.0681392 -0.510887 -0.510887
0.0569141 -0.517536 -0.517536
0.057523 -0.531374 -0.531374
0.0809852 -0.53183 -0.53183
0.0801176 -0.517993 -0.517993
0.0572193 -0.524436 -0.524436
0.0692491 -0.531586 -0.531586
0.0805524 -0.524893 -0.524893
0.0685109 -0.517748 -0.517748
0.0688809 -0.524648 -0.524648
0.057523 -0.531374 -0.531374
0.0581259 -0.545366 -0.545366
0.0818448 -0.54582 -0.54582
0.0809852 -0.53183 -0.53183
0.0578252 -0.538351 -0.538351
0.0699804 -0.545577 -0.545577
0.081416 -0.538806 -0.538806
0.0692491 -0.531586 -0.531586
0.0696157 -0.538562 -0.538562
0.0581259 -0.545366 -0.545366
0.0587229 -0.559508 -0.559508
0.0826964 -0.559961 -0.559961
0.0818448 -0.54582 -0.54582
0.0584252 -0.552418 -0.552418
0.0707047 -0.559719 -0.559719
0.0822716 -0.552872 -0.552872
0.0699804 -0.545577 -0.545577
0.0703434 -0.552629 -0.552629
0.0587229 -0.559508 -0.559508
0.059314 -0.573801 -0.573801
0.08354 -0.574252 -0.574252
0.0826964 -0.559961 -0.559961
0.0590192 -0.566636 -0.566636
0.0714221 -0.574011 -0.574011
0.0831192 -0.567088 -0.567088
0.0707047 -0.559719 -0.559719
0.0710643 -0.566846 -0.566846
0.059314 -0.573801 -0.573801
0.0598991 -0.588243 -0.588243
0.0843756 -0.588692 -0.588692
0.08354 -0.574252 -0.574252
0.0596073 -0.581004 -0.581004
0.0721324 -0.588452 -0.588452
0.0839588 -0.581454 -0.581454
0.0714221 -0.574011 -0.574011
0.0717781 -0.581213 -0.581213
0.0598991 -0.588243 -0.588243
0.0604783 -0.602833 -0.602833
0.0852032 -0.60328 -0.60328
0.0843756 -0.588692 -0.588692
0.0601895 -0.595519 -0.595519
0.0728358 -0.603041 -0.603041
0.0847904 -0.595968 -0.595968
0.0721324 -0.588452 -0.588452
0.072485 -0.595728 -0.595728
0.0604783 -0.602833 -0.602833
0.0610515 -0.617569 -0.617569
0.0860228 -0.618015 -0.618015
0.0852032 -0.60328 -0.60328
0.0607656 -0.610182 -0.610182
0.0735322 -0.617776 -0.617776
0.085614 -0.610629 -0.610629
0.0728358 -0.603041 -0.603041
0.0731849 -0.61039 -0.61039
0.0610515 -0.617569 -0.617569
0.0616188 -0.63245 -0.63245
0.0868344 -0.632894 -0.632894
0.0860228 -0.618015 -0.618015
0.0613359 -0.624991 -0.624991
0.0742216 -0.632657 -0.632657
0.0864296 -0.625436 -0.625436
0.0735322 -0.617776 -0.617776
0.0738778 -0.625198 -0.625198
0.0616188 -0.63245 -0.63245
0.06218 -0.647476 -0.647476
0.087638 -0.647918 -0.647918
0.0868344 -0.632894 -0.632894
0.0619001 -0.639945 -0.639945
0.0749041 -0.647682 -0.647682
0.0872372 -0.640388 -0.640388
0.0742216 -0.632657 -0.632657
0.0745637 -0.640151 -0.640151
0.06218 -0.647476 -0.647476
0.0627354 -0.662644 -0.662644
0.0884336 -0.663085 -0.663085
0.087638 -0.647918 -0.647918
0.0624585 -0.655042 -0.655042
0.0755795 -0.662849 -0.662849
0.0880368 -0.655484 -0.655484
0.0749041 -0.647682 -0.647682
0.0752427 -0.655248 -0.655248
0.0627354 -0.662644 -0.662644
0.0632847 -0.677954 -0.677954
0.0892212 -0.678393 -0.678393
0.0884336 -0.663085 -0.663085
0.0630108 -0.670282 -0.670282
0.076248 -0.678159 -0.678159
0.0888284 -0.670721 -0.670721
0.0755795 -0.662849 -0.662849
0.0759146 -0.670486 -0.670486
0.0632847 -0.677954 -0.677954
0.0638282 -0.693405 -0.693405
0.0900007 -0.693842 -0.693842
0.0892212 -0.678393 -0.678393
0.0635572 -0.685662 -0.685662
0.0769095 -0.693609 -0.693609
0.089612 -0.6861 -0.6861
0.076248 -0.678159 -0.678159
0.0765796 -0.685866 -0.685866
0.0638282 -0.693405 -0.693405
0.0643656 -0.708995 -0.708995
0.0907723 -0.70943 -0.70943
0.0900007 -0.693842 -0.693842
0.0640976 -0.701182 -0.701182
0.077564 -0.709198 -0.709198
0.0903875 -0.701619 -0.701619
0.0769095 -0.693609 -0.693609
0.0772376 -0.701386 -0.701386
0.0643656 -0.708995 -0.708995
0.0648971 -0.724723 -0.724723
0.0915359 -0.725157 -0.725157
0.0907723 -0.70943 -0.70943
0.0646321 -0.716841 -0.716841
0.0782116 -0.724925 -0.724925
0.0911551 -0.717276 -0.717276
0.077564 -0.709198 -0.709198
0.0778887 -0.717044 -0.717044
0.0648971 -0.724723 -0.724723
0.0654226 -0.740587 -0.740587
0.0922915 -0.74102 -0.74102
0.0915359 -0.725157 -0.725157
0.0651606 -0.732638 -0.732638
0.0788521 -0.740789 -0.740789
0.0919147 -0.733071 -0.733071
0.0782116 -0.724925 -0.724925
0.0785327 -0.73284 -0.73284
0.0654226 -0.740587 -0.740587
0.0659422 -0.756588 -0.756588
0.093039 -0.757018 -0.757018
0.0922915 -0.74102 -0.74102
0.0656832 -0.748571 -0.748571
0.0794857 -0.756789 -0.756789
0.0926663 -0.749002 -0.749002
0.0788521 -0.740789 -0.740789
0.0791698 -0.748772 -0.748772
0.0659422 -0.756588 -0.756588
0.0664558 -0.772722 -0.772722
0.0937786 -0.773151 -0.773151
0.093039 -0.757018 -0.757018
0.0661997 -0.764638 -0.764638
0.0801123 -0.772923 -0.772923
0.0934098 -0.765068 -0.765068
0.0794857 -0.756789 -0.756789
0.0797998 -0.764839 -0.764839
0.0664558 -0.772722 -0.772722
0.0669635 -0.78899 -0.78899
0.0945102 -0.789418 -0.789418
0.0937786 -0.773151 -0.773151
0.0667104 -0.78084 -0.78084
0.0807319 -0.78919 -0.78919
0.0941454 -0.781268 -0.781268
0.0801123 -0.772923 -0.772923
0.0804229 -0.78104 -0.78104
0.0669635 -0.78899 -0.78899
0.0674651 -0.80539 -0.80539
0.0952337 -0.805816 -0.805816
0.0945102 -0.789418 -0.789418
0.067215 -0.797174 -0.797174
0.0813445 -0.805589 -0.805589
0.0948729 -0.7976 -0.7976
0.0807319 -0.78919 -0.78919
0.0810391 -0.797373 -0.797373
0.0674651 -0.80539 -0.80539
0.0679609 -0.821921 -0.821921
0.0959493 -0.822345 -0.822345
0.0952337 -0.805816 -0.805816
0.0677138 -0.813639 -0.813639
0.0819501 -0.822119 -0.822119
0.0955925 -0.814064 -0.814064
0.0813445 -0.805589 -0.805589
0.0816482 -0.813838 -0.813838
0.0679609 -0.821921 -0.821921
0.0684507 -0.838581 -0.838581
0.0966568 -0.839004 -0.839004
0.0959493 -0.822345 -0.822345
0.0682065 -0.830235 -0.830235
0.0825488 -0.838779 -0.838779
0.096304 -0.830658 -0.830658
0.0819501 -0.822119 -0.822119
0.0822503 -0.830433 -0.830433
0.0684507 -0.838581 -0.838581
0.0689345 -0.85537 -0.85537
0.0973564 -0.855791 -0.855791
0.0966568 -0.839004 -0.839004
0.0686933 -0.84696 -0.84696
0.0831405 -0.855567 -0.855567
0.0970076 -0.847381 -0.847381
0.0825488 -0.838779 -0.838779
0.0828455 -0.847157 -0.847157
0.0689345 -0.85537 -0.85537
0.0694123 -0.872286 -0.872286
0.0980479 -0.872705 -0.872705
0.0973564 -0.855791 -0.855791
0.0691742 -0.863812 -0.863812
0.0837252 -0.872482 -0.872482
0.0977031 -0.864232 -0.864232
0.0831405 -0.855567 -0.855567
0.0834337 -0.864008 -0.864008
0.0694123 -0.872286 -0.872286
0.0698843 -0.889328 -0.889328
0.0987315 -0.889745 -0.889745
0.0980479 -0.872705 -0.872705
0.069649 -0.880791 -0.880791
0.0843029 -0.889523 -0.889523
0.0983907 -0.881209 -0.881209
0.0837252 -0.872482 -0.872482
0.0840149 -0.880987 -0.880987
0.0698843 -0.889328 -0.889328
0.0703502 -0.906494 -0.906494
0.099407 -0.90691 -0.90691
0.0987315 -0.889745 -0.889745
0.070118 -0.897895 -0.897895
0.0848737 -0.906689 -0.906689
0.0990703 -0.898312 -0.898312
0.0843029 -0.889523 -0.889523
0.0845892 -0.89809 -0.89809
0.0703502 -0.906494 -0.906494
0.0708102 -0.923784 -0.923784
0.100075 -0.924198 -0.924198
0.099407 -0.90691 -0.90691
0.070581 -0.915124 -0.915124
0.0854375 -0.923978 -0.923978
0.0997418 -0.915538 -0.915538
0.0848737 -0.906689 -0.906689
0.0851565 -0.915318 -0.915318
0.0708102 -0.923784 -0.923784
0.0712643 -0.941196 -0.941196
0.100734 -0.941609 -0.941609
0.100075 -0.924198 -0.924198
0.071038 -0.932475 -0.932475
0.0859943 -0.941389 -0.941389
0.100405 -0.932888 -0.932888
0.0854375 -0.923978 -0.923978
0.0857168 -0.932668 -0.932668
0.0712643 -0.941196 -0.941196
0.0717124 -0.95873 -0.95873
0.101386 -0.95914 -0.95914
0.100734 -0.941609 -0.941609
0.0714891 -0.949948 -0.949948
0.0865442 -0.958922 -0.958922
0.101061 -0.950359 -0.950359
0.0859943 -0.941389 -0.941389
0.0862701 -0.950141 -0.950141
0.0717124 -0.95873 -0.95873
0.0721546 -0.976383 -0.976383
0.102029 -0.976792 -0.976792
0.101386 -0.95914 -0.95914
0.0719343 -0.967541 -0.967541
0.0870871 -0.976575 -0.976575
0.101709 -0.967951 -0.967951
0.0865442 -0.958922 -0.958922
0.0868165 -0.967733 -0.967733
0.0721546 -0.976383 -0.976383
0.0725909 -0.994155 -0.994155
0.102665 -0.994562 -0.994562
0.102029 -0.976792 -0.976792
0.0723735 -0.985254 -0.985254
0.087623 -0.994346 -0.994346
0.102348 -0.985662 -0.985662
0.0870871 -0.976575 -0.976575
0.0873559 -0.985445 -0.985445
0.0725909 -0.994155 -0.994155
0.0730212 -1.01204 -1.01204
0.103293 -1.01245 -1.01245
0.102665 -0.994562 -0.994562
0.0728068 -1.00308 -1.00308
0.088152 -1.01223 -1.01223
0.10298 -1.00349 -1.00349
0.087623 -0.994346 -0.994346
0.0878884 -1.00328 -1.00328
0.0730212 -1.01204 -1.01204
0.0734456 -1.03005 -1.03005
0.103912 -1.03045 -1.03045
0.103293 -1.01245 -1.01245
0.0732341 -1.02103 -1.02103
0.088674 -1.03024 -1.03024
0.103603 -1.02144 -1.02144
0.088152 -1.01223 -1.01223
0.0884139 -1.02122 -1.02122
0.0734456 -1.03005 -1.03005
0.073864 -1.04817 -1.04817
0.104524 -1.04857 -1.04857
0.103912 -1.03045 -1.03045
0.0736556 -1.0391 -1.0391
0.0891891 -1.04836 -1.04836
0.104219 -1.0395 -1.0395
0.088674 -1.03024 -1.03024
0.0889324 -1.03928 -1.03928
0.073864 -1.04817 -1.04817
0.0742766 -1.0664 -1.0664
0.105128 -1.0668 -1.0668
0.104524 -1.04857 -1.04857
0.0740711 -1.05727 -1.05727
0.0896972 -1.06659 -1.06659
0.104827 -1.05767 -1.05767
0.0891891 -1.04836 -1.04836
0.089444 -1.05746 -1.05746
0.0742766 -1.0664 -1.0664
0.0746832 -1.08475 -1.08475
0.105724 -1.08515 -1.08515
0.105128 -1.0668 -1.0668
0.0744806 -1.07556 -1.07556
0.0901984 -1.08494 -1.08494
0.105427 -1.07596 -1.07596
0.0896972 -1.06659 -1.06659
0.0899487 -1.07575 -1.07575
0.0746832 -1.08475 -1.08475
0.0750839 -1.10321 -1.10321
0.106311 -1.10361 -1.10361
0.105724 -1.08515 -1.08515
0.0748843 -1.09397 -1.09397
0.0906927 -1.1034 -1.1034
0.106018 -1.09436 -1.09436
0.0901984 -1.08494 -1.08494
0.0904464 -1.09415 -1.09415
0.0750839 -1.10321 -1.10321
0.0754787 -1.12178 -1.12178
0.106891 -1.12217 -1.12217
0.106311 -1.10361 -1.10361
0.075282 -1.11248 -1.11248
0.09118 -1.12196 -1.12196
0.106602 -1.11288 -1.11288
0.0906927 -1.1034 -1.1034
0.0909372 -1.11267 -1.11267
0.0754787 -1.12178 -1.12178
0.0758675 -1.14046 -1.14046
0.107463 -1.14085 -1.14085
0.106891 -1.12217 -1.12217
0.0756738 -1.1311 -1.1311
0.0916603 -1.14064 -1.14064
0.107178 -1.1315 -1.1315
0.09118 -1.12196 -1.12196
0.091421 -1.13129 -1.13129
0.0758675 -1.14046 -1.14046
0.0762505 -1.15924 -1.15924
0.108027 -1.15963 -1.15963
0.107463 -1.14085 -1.14085
0.0760598 -1.14984 -1.14984
0.0921338 -1.15943 -1.15943
0.107746 -1.15023 -1.15023
0.0916603 -1.14064 -1.14064
0.0918979 -1.15002 -1.15002
0.0762505 -1.15924 -1.15924
0.0766276 -1.17813 -1.17813
0.108583 -1.17852 -1.17852
0.108027 -1.15963 -1.15963
0.0764398 -1.16867 -1.16867
0.0926003 -1.17832 -1.17832
0.108306 -1.16906 -1.16906
0.0921338 -1.15943 -1.15943
0.0923679 -1.16886 -1.16886
0.0766276 -1.17813 -1.17813
0.0769987 -1.19713 -1.19713
0.109131 -1.19752 -1.19752
0.108583 -1.17852 -1.17852
0.0768139 -1.18762 -1.18762
0.0930599 -1.19731 -1.19731
0.108858 -1.18801 -1.18801
0.0926003 -1.17832 -1.17832
0.092831 -1.1878 -1.1878
0.0769987 -1.19713 -1.19713
0.077364 -1.21623 -1.21623
0.109671 -1.21662 -1.21662
0.109131 -1.19752 -1.19752
0.0771821 -1.20667 -1.20667
0.0935126 -1.21641 -1.21641
0.109402 -1.20706 -1.20706
0.0930599 -1.19731 -1.19731
0.0932872 -1.20685 -1.20685
0.077364 -1.21623 -1.21623
0.0777234 -1.23544 -1.23544
0.110203 -1.23582 -1.23582
0.109671 -1.21662 -1.21662
0.0775444 -1.22582 -1.22582
0.0939584 -1.23562 -1.23562
0.109938 -1.22621 -1.22621
0.0935126 -1.21641 -1.21641
0.0937364 -1.226 -1.226
0.0777234 -1.23544 -1.23544
0.0780769 -1.25474 -1.25474
0.110728 -1.25512 -1.25512
0.110203 -1.23582 -1.23582
0.0779009 -1.24508 -1.24508
0.0943973 -1.25492 -1.25492
0.110466 -1.24546 -1.24546
0.0939584 -1.23562 -1.23562
0.0941787 -1.24526 -1.24526
0.0780769 -1.25474 -1.25474
0.0784245 -1.27415 -1.27415
0.111244 -1.27453 -1.27453
0.110728 -1.25512 -1.25512
0.0782515 -1.26443 -1.26443
0.0948293 -1.27433 -1.27433
0.110987 -1.26481 -1.26481
0.0943973 -1.25492 -1.25492
0.0946142 -1.26461 -1.26461
0.0784245 -1.27415 -1.27415
0.0787663 -1.29365 -1.29365
0.111752 -1.29403 -1.29403
0.111244 -1.27453 -1.27453
0.0785962 -1.28389 -1.28389
0.0952544 -1.29383 -1.29383
0.111499 -1.28427 -1.28427
0.0948293 -1.27433 -1.27433
0.0950427 -1.28407 -1.28407
0.0787663 -1.29365 -1.29365
0.0791022 -1.31326 -1.31326
0.112253 -1.31363 -1.31363
0.111752 -1.29403 -1.29403
0.078935 -1.30344 -1.30344
0.0956726 -1.31344 -1.31344
0.112004 -1.30382 -1.30382
0.0952544 -1.29383 -1.29383
0.0954644 -1.30362 -1.30362
0.0791022 -1.31326 -1.31326
0.0794322 -1.33296 -1.33296
0.112745 -1.33333 -1.33333
0.112253 -1.31363 -1.31363
0.0792679 -1.3231 -1.3231
0.0960839 -1.33314 -1.33314
0.1125 -1.32347 -1.32347
0.0956726 -1.31344 -1.31344
0.0958791 -1.32327 -1.32327
0.0794322 -1.33296 -1.33296
0.0797564 -1.35275 -1.35275
0.11323 -1.35313 -1.35313
0.112745 -1.33333 -1.33333
0.0795951 -1.34284 -1.34284
0.0964884 -1.35293 -1.35293
0.112989 -1.34322 -1.34322
0.0960839 -1.33314 -1.33314
0.096287 -1.34302 -1.34302
0.0797564 -1.35275 -1.35275
0.0800747 -1.37265 -1.37265
0.113707 -1.37302 -1.37302
0.11323 -1.35313 -1.35313
0.0799163 -1.36269 -1.36269
0.0968859 -1.37282 -1.37282
0.11347 -1.36306 -1.36306
0.0964884 -1.35293 -1.35293
0.096688 -1.36286 -1.36286
0.0800747 -1.37265 -1.37265
0.0803872 -1.39263 -1.39263
0.114176 -1.393 -1.393
0.113707 -1.37302 -1.37302
0.0802317 -1.38263 -1.38263
0.0972766 -1.3928 -1.3928
0.113942 -1.383 -1.383
0.0968859 -1.37282 -1.37282
0.0970821 -1.3828 -1.3828
0.0803872 -1.39263 -1.39263
0.0806939 -1.41271 -1.41271
0.114637 -1.41307 -1.41307
0.114176 -1.393 -1.393
0.0805413 -1.40266 -1.40266
0.0976605 -1.41288 -1.41288
0.114407 -1.40302 -1.40302
0.0972766 -1.3928 -1.3928
0.0974694 -1.40283 -1.40283
0.0806939 -1.41271 -1.41271
0.0809947 -1.43287 -1.43287
0.11509 -1.43324 -1.43324
0.114637 -1.41307 -1.41307
0.080845 -1.42278 -1.42278
0.0980375 -1.43305 -1.43305
0.114865 -1.42314 -1.42314
0.0976605 -1.41288 -1.41288
0.0978499 -1.42295 -1.42295
0.0809947 -1.43287 -1.43287
0.0812897 -1.45313 -1.45313
0.115535 -1.45349 -1.45349
0.11509 -1.43324 -1.43324
0.0811429 -1.44299 -1.44299
0.0984077 -1.4533 -1.4533
0.115314 -1.44335 -1.44335
0.0980375 -1.43305 -1.43305
0.0982234 -1.44316 -1.44316
0.0812897 -1.45313 -1.45313
0.0815789 -1.47347 -1.47347
0.115973 -1.47383 -1.47383
0.115535 -1.45349 -1.45349
0.081435 -1.46329 -1.46329
0.098771 -1.47364 -1.47364
0.115755 -1.46365 -1.46365
0.0984077 -1.4533 -1.4533
0.0985902 -1.46346 -1.46346
0.0815789 -1.47347 -1.47347
0.0818623 -1.4939 -1.4939
0.116403 -1.49426 -1.49426
0.115973 -1.47383 -1.47383
0.0817213 -1.48368 -1.48368
0.0991274 -1.49408 -1.49408
0.116189 -1.48404 -1.48404
0.098771 -1.47364 -1.47364
0.0989501 -1.48385 -1.48385
0.0818623 -1.4939 -1.4939
0.0821398 -1.51442 -1.51442
0.116824 -1.51478 -1.51478
0.116403 -1.49426 -1.49426
0.0820018 -1.50415 -1.50415
0.0994771 -1.51459 -1.51459
0.116614 -1.50451 -1.50451
0.0991274 -1.49408 -1.49408
0.0993031 -1.50432 -1.50432
0.0821398 -1.51442 -1.51442
0.0824116 -1.53502 -1.53502
0.117238 -1.53538 -1.53538
0.116824 -1.51478 -1.51478
0.0822765 -1.52471 -1.52471
0.0998199 -1.53519 -1.53519
0.117032 -1.52507 -1.52507
0.0994771 -1.51459 -1.51459
0.0996494 -1.52488 -1.52488
0.0824116 -1.53502 -1.53502
0.0826776 -1.55571 -1.55571
0.117644 -1.55607 -1.55607
0.117238 -1.53538 -1.53538
0.0825453 -1.54536 -1.54536
0.100156 -1.55588 -1.55588
0.117442 -1.54571 -1.54571
0.0998199 -1.53519 -1.53519
0.0999888 -1.54553 -1.54553
0.0826776 -1.55571 -1.55571
0.0829378 -1.57648 -1.57648
0.118042 -1.57683 -1.57683
0.117644 -1.55607 -1.55607
0.0828084 -1.56608 -1.56608
0.100485 -1.57665 -1.57665
0.117844 -1.56644 -1.56644
0.100156 -1.55588 -1.55588
0.100321 -1.56625 -1.56625
0.0829378 -1.57648 -1.57648
0.0831922 -1.59733 -1.59733
0.118433 -1.59768 -1.59768
0.118042 -1.57683 -1.57683
0.0830657 -1.58689 -1.58689
0.100808 -1.5975 -1.5975
0.118239 -1.58725 -1.58725
0.100485 -1.57665 -1.57665
0.100647 -1.58706 -1.58706
0.0831922 -1.59733 -1.59733
0.0834409 -1.61826 -1.61826
0.118816 -1.61861 -1.61861
0.118433 -1.59768 -1.59768
0.0833173 -1.60778 -1.60778
0.101123 -1.61842 -1.61842
0.118625 -1.60813 -1.60813
0.100808 -1.5975 -1.5975
0.100966 -1.60795 -1.60795
0.0834409 -1.61826 -1.61826
0.0836838 -1.63927 -1.63927
0.11919 -1.63961 -1.63961
0.118816 -1.61861 -1.61861
0.083563 -1.62875 -1.62875
0.101432 -1.63943 -1.63943
0.119004 -1.6291 -1.6291
0.101123 -1.61842 -1.61842
0.101279 -1.62892 -1.62892
0.0836838 -1.63927 -1.63927
0.0839209 -1.66035 -1.66035
0.119557 -1.6607 -1.6607
0.11919 -1.63961 -1.63961
0.0838031 -1.6498 -1.6498
0.101734 -1.66052 -1.66052
0.119375 -1.65014 -1.65014
0.101432 -1.63943 -1.63943
0.101584 -1.64996 -1.64996
0.0839209 -1.66035 -1.66035
0.0841523 -1.68151 -1.68151
0.119917 -1.68186 -1.68186
0.119557 -1.6607 -1.6607
0.0840373 -1.67092 -1.67092
0.102029 -1.68168 -1.68168
0.119738 -1.67127 -1.67127
0.101734 -1.66052 -1.66052
0.101883 -1.67109 -1.67109
0.0841523 -1.68151 -1.68151
0.084378 -1.70275 -1.70275
0.120268 -1.70309 -1.70309
0.119917 -1.68186 -1.68186
0.0842659 -1.69212 -1.69212
0.102318 -1.70291 -1.70291
0.120093 -1.69246 -1.69246
0.102029 -1.68168 -1.68168
0.102175 -1.69228 -1.69228
0.084378 -1.70275 -1.70275
0.0845979 -1.72406 -1.72406
0.120612 -1.7244 -1.7244
0.120268 -1.70309 -1.70309
0.0844887 -1.7134 -1.7134
0.1026 -1.72422 -1.72422
0.120441 -1.71374 -1.71374
0.102318 -1.70291 -1.70291
0.10246 -1.71356 -1.71356
0.0845979 -1.72406 -1.72406
0.0848121 -1.74544 -1.74544
0.120948 -1.74578 -1.74578
0.120612 -1.7244 -1.7244
0.0847057 -1.73474 -1.73474
0.102875 -1.7456 -1.7456
0.120781 -1.73508 -1.73508
0.1026 -1.72422 -1.72422
0.102738 -1.7349 -1.7349
0.0848121 -1.74544 -1.74544
0.0850206 -1.7669 -1.7669
0.121276 -1.76723 -1.76723
0.120948 -1.74578 -1.74578
0.0849171 -1.75616 -1.75616
0.103143 -1.76706 -1.76706
0.121113 -1.7565 -1.7565
0.102875 -1.7456 -1.7456
0.10301 -1.75632 -1.75632
0.0850206 -1.7669 -1.7669
0.0852234 -1.78842 -1.78842
0.121596 -1.78875 -1.78875
0.121276 -1.76723 -1.76723
0.0851227 -1.77765 -1.77765
0.103405 -1.78858 -1.78858
0.121437 -1.77798 -1.77798
0.103143 -1.76706 -1.76706
0.103275 -1.77781 -1.77781
0.0852234 -1.78842 -1.78842
0.0854205 -1.81002 -1.81002
0.121909 -1.81035 -1.81035
0.121596 -1.78875 -1.78875
0.0853227 -1.79921 -1.79921
0.10366 -1.81017 -1.81017
0.121753 -1.79954 -1.79954
0.103405 -1.78858 -1.78858
0.103533 -1.79937 -1.79937
0.0854205 -1.81002 -1.81002
0.0856119 -1.83168 -1.83168
0.122214 -1.83201 -1.83201
0.121909 -1.81035 -1.81035
0.0855169 -1.82084 -1.82084
0.103908 -1.83184 -1.83184
0.122062 -1.82117 -1.82117
0.10366 -1.81017 -1.81017
0.103785 -1.821 -1.821
0.0856119 -1.83168 -1.83168
0.0857976 -1.85341 -1.85341
0.122511 -1.85373 -1.85373
0.122214 -1.83201 -1.83201
0.0857055 -1.84253 -1.84253
0.104149 -1.85356 -1.85356
0.122363 -1.84286 -1.84286
0.103908 -1.83184 -1.83184
0.104029 -1.84269 -1.84269
0.0857976 -1.85341 -1.85341
0.0859777 -1.8752 -1.8752
0.1228 -1.87552 -1.87552
0.122511 -1.85373 -1.85373
0.0858884 -1.8643 -1.8643
0.104384 -1.87536 -1.87536
0.122656 -1.86462 -1.86462
0.104149 -1.85356 -1.85356
0.104267 -1.86445 -1.86445
0.0859777 -1.8752 -1.8752
0.0861521 -1.89706 -1.89706
0.123082 -1.89738 -1.89738
0.1228 -1.87552 -1.87552
0.0860656 -1.88612 -1.88612
0.104612 -1.89721 -1.89721
0.122942 -1.88644 -1.88644
0.104384 -1.87536 -1.87536
0.104499 -1.88628 -1.88628
0.0861521 -1.89706 -1.89706
0.0863208 -1.91898 -1.91898
0.123356 -1.9193 -1.9193
0.123082 -1.89738 -1.89738
0.0862372 -1.90801 -1.90801
0.104833 -1.91913 -1.91913
0.12322 -1.90833 -1.90833
0.104612 -1.89721 -1.89721
0.104724 -1.90816 -1.90816
0.0863208 -1.91898 -1.91898
0.0864839 -1.94096 -1.94096
0.123622 -1.94128 -1.94128
0.123356 -1.9193 -1.9193
0.0864031 -1.92996 -1.92996
0.105048 -1.94111 -1.94111
0.12349 -1.93028 -1.93028
0.104833 -1.91913 -1.91913
0.104942 -1.93011 -1.93011
0.0864839 -1.94096 -1.94096
0.0866414 -1.963 -1.963
0.123881 -1.96332 -1.96332
0.123622 -1.94128 -1.94128
0.0865634 -1.95197 -1.95197
0.105256 -1.96315 -1.96315
0.123753 -1.95229 -1.95229
0.105048 -1.94111 -1.94111
0.105153 -1.95213 -1.95213
0.0866414 -1.963 -1.963
0.0867932 -1.98511 -1.98511
0.124132 -1.98542 -1.98542
0.123881 -1.96332 -1.96332
0.086718 -1.97405 -1.97405
0.105458 -1.98526 -1.98526
0.124008 -1.97436 -1.97436
0.105256 -1.96315 -1.96315
0.105358 -1.9742 -1.9742
0.0867932 -1.98511 -1.98511
0.0869394 -2.00727 -2.00727
0.124376 -2.00758 -2.00758
0.124132 -1.98542 -1.98542
0.086867 -1.99618 -1.99618
0.105653 -2.00741 -2.00741
0.124255 -1.99649 -1.99649
0.105458 -1.98526 -1.98526
0.105556 -1.99633 -1.99633
0.0869394 -2.00727 -2.00727
0.08708 -2.02948 -2.02948
0.124611 -2.02979 -2.02979
0.124376 -2.00758 -2.00758
0.0870104 -2.01837 -2.01837
0.105841 -2.02963 -2.02963
0.124494 -2.01868 -2.01868
0.105653 -2.00741 -2.00741
0.105747 -2.01852 -2.01852
0.08708 -2.02948 -2.02948
0.087215 -2.05176 -2.05176
0.124839 -2.05206 -2.05206
0.124611 -2.02979 -2.02979
0.0871482 -2.04061 -2.04061
0.106022 -2.0519 -2.0519
0.124726 -2.04092 -2.04092
0.105841 -2.02963 -2.02963
0.105932 -2.04076 -2.04076
0.087215 -2.05176 -2.05176
0.0873445 -2.07408 -2.07408
0.12506 -2.07439 -2.07439
0.124839 -2.05206 -2.05206
0.0872805 -2.06291 -2.06291
0.106197 -2.07423 -2.07423
0.124951 -2.06322 -2.06322
0.106022 -2.0519 -2.0519
0.106111 -2.06306 -2.06306
0.0873445 -2.07408 -2.07408
0.0874683 -2.09646 -2.09646
0.125273 -2.09676 -2.09676
0.12506 -2.07439 -2.07439
0.0874071 -2.08527 -2.08527
0.106365 -2.09661 -2.09661
0.125167 -2.08557 -2.08557
0.106197 -2.07423 -2.07423
0.106282 -2.08541 -2.08541
0.0874683 -2.09646 -2.09646
0.0875866 -2.1189 -2.1189
0.125478 -2.11919 -2.11919
0.125273 -2.09676 -2.09676
0.0875281 -2.10767 -2.10767
0.106527 -2.11904 -2.11904
0.125376 -2.10797 -2.10797
0.106365 -2.09661 -2.09661
0.106447 -2.10782 -2.10782
0.0875866 -2.1189 -2.1189
0.0876993 -2.14138 -2.14138
0.125675 -2.14168 -2.14168
0.125478 -2.11919 -2.11919
0.0876436 -2.13013 -2.13013
0.106682 -2.14152 -2.14152
0.125578 -2.13043 -2.13043
0.106527 -2.11904 -2.11904
0.106606 -2.13027 -2.13027
0.0876993 -2.14138 -2.14138
0.0878064 -2.16391 -2.16391
0.125865 -2.16421 -2.16421
0.125675 -2.14168 -2.14168
0.0877535 -2.15264 -2.15264
0.106831 -2.16405 -2.16405
0.125771 -2.15293 -2.15293
0.106682 -2.14152 -2.14152
0.106757 -2.15278 -2.15278
0.0878064 -2.16391 -2.16391
0.087908 -2.18649 -2.18649
0.126048 -2.18678 -2.18678
0.125865 -2.16421 -2.16421
0.0878579 -2.1752 -2.1752
0.106973 -2.18663 -2.18663
0.125958 -2.17549 -2.17549
0.106831 -2.16405 -2.16405
0.106903 -2.17534 -2.17534
0.087908 -2.18649 -2.18649
0.0880041 -2.20912 -2.20912
0.126223 -2.20941 -2.20941
0.126048 -2.18678 -2.18678
0.0879568 -2.1978 -2.1978
0.107108 -2.20926 -2.20926
0.126136 -2.19809 -2.19809
0.106973 -2.18663 -2.18663
0.107041 -2.19794 -2.19794
0.0880041 -2.20912 -2.20912
0.0880947 -2.2318 -2.2318
0.12639 -2.23208 -2.23208
0.126223 -2.20941 -2.20941
0.0880501 -2.22045 -2.22045
0.107237 -2.23193 -2.23193
0.126307 -2.22074 -2.22074
0.107108 -2.20926 -2.20926
0.107174 -2.22059 -2.22059
0.0880947 -2.2318 -2.2318
0.0881797 -2.25452 -2.25452
0.12655 -2.2548 -2.2548
0.12639 -2.23208 -2.23208
0.0881379 -2.24315 -2.24315
0.10736 -2.25465 -2.25465
0.126471 -2.24344 -2.24344
0.107237 -2.23193 -2.23193
0.107299 -2.24329 -2.24329
0.0881797 -2.25452 -2.25452
0.0882593 -2.27728 -2.27728
0.126702 -2.27756 -2.27756
0.12655 -2.2548 -2.2548
0.0882202 -2.26589 -2.26589
0.107476 -2.27741 -2.27741
0.126627 -2.26617 -2.26617
0.10736 -2.25465 -2.25465
0.107418 -2.26603 -2.26603
0.0882593 -2.27728 -2.27728
0.0883334 -2.30008 -2.30008
0.126846 -2.30036 -2.30036
0.126702 -2.27756 -2.27756
0.088297 -2.28868 -2.28868
0.107585 -2.30022 -2.30022
0.126775 -2.28896 -2.28896
0.107476 -2.27741 -2.27741
0.107531 -2.28881 -2.28881
0.0883334 -2.30008 -2.30008
0.0884019 -2.32293 -2.32293
0.126983 -2.32321 -2.32321
0.126846 -2.30036 -2.30036
0.0883683 -2.3115 -2.3115
0.107688 -2.32306 -2.32306
0.126916 -2.31178 -2.31178
0.107585 -2.30022 -2.30022
0.107637 -2.31164 -2.31164
0.0884019 -2.32293 -2.32293
0.088465 -2.34582 -2.34582
0.127113 -2.34609 -2.34609
0.126983 -2.32321 -2.32321
0.0884342 -2.33437 -2.33437
0.107784 -2.34595 -2.34595
0.127049 -2.33464 -2.33464
0.107688 -2.32306 -2.32306
0.107737 -2.3345 -2.3345
0.088465 -2.34582 -2.34582
0.0885227 -2.36874 -2.36874
0.127235 -2.36901 -2.36901
0.127113 -2.34609 -2.34609
0.0884945 -2.35727 -2.35727
0.107874 -2.36887 -2.36887
0.127175 -2.35755 -2.35755
0.107784 -2.34595 -2.34595
0.10783 -2.35741 -2.35741
0.0885227 -2.36874 -2.36874
0.0885749 -2.3917 -2.3917
0.12735 -2.39197 -2.39197
0.127235 -2.36901 -2.36901
0.0885495 -2.38022 -2.38022
0.107957 -2.39183 -2.39183
0.127293 -2.38049 -2.38049
0.107874 -2.36887 -2.36887
0.107916 -2.38035 -2.38035
0.0885749 -2.3917 -2.3917
0.0886216 -2.4147 -2.4147
0.127457 -2.41497 -2.41497
0.12735 -2.39197 -2.39197
0.0885989 -2.4032 -2.4032
0.108034 -2.41483 -2.41483
0.127404 -2.40347 -2.40347
0.107957 -2.39183 -2.39183
0.107997 -2.40333 -2.40333
0.0886216 -2.4147 -2.4147
0.088663 -2.43774 -2.43774
0.127556 -2.438 -2.438
0.127457 -2.41497 -2.41497
0.088643 -2.42621 -2.42621
0.108105 -2.43786 -2.43786
0.127508 -2.42648 -2.42648
0.108034 -2.41483 -2.41483
0.10807 -2.42634 -2.42634
0.088663 -2.43774 -2.43774
0.0886989 -2.4608 -2.4608
0.127649 -2.46106 -2.46106
0.127556 -2.438 -2.438
0.0886816 -2.44927 -2.44927
0.108169 -2.46093 -2.46093
0.127603 -2.44953 -2.44953
0.108105 -2.43786 -2.43786
0.108138 -2.44939 -2.44939
0.0886989 -2.4608 -2.4608
0.0887294 -2.4839 -2.4839
0.127733 -2.48416 -2.48416
0.127649 -2.46106 -2.46106
0.0887148 -2.47235 -2.47235
0.108226 -2.48403 -2.48403
0.127692 -2.47261 -2.47261
0.108169 -2.46093 -2.46093
0.108198 -2.47248 -2.47248
0.0887294 -2.4839 -2.4839
0.0887545 -2.50703 -2.50703
0.127811 -2.50729 -2.50729
0.127733 -2.48416 -2.48416
0.0887426 -2.49547 -2.49547
0.108278 -2.50716 -2.50716
0.127773 -2.49572 -2.49572
0.108226 -2.48403 -2.48403
0.108253 -2.49559 -2.49559
0.0887545 -2.50703 -2.50703
0.0887742 -2.5302 -2.5302
0.12788 -2.53045 -2.53045
0.127811 -2.50729 -2.50729
0.088765 -2.51861 -2.51861
0.108322 -2.53032 -2.53032
0.127846 -2.51887 -2.51887
0.108278 -2.50716 -2.50716
0.108301 -2.51874 -2.51874
0.0887742 -2.5302 -2.5302
0.0887885 -2.55339 -2.55339
0.127943 -2.55364 -2.55364
0.12788 -2.53045 -2.53045
0.088782 -2.54179 -2.54179
0.108361 -2.55351 -2.55351
0.127913 -2.54204 -2.54204
0.108322 -2.53032 -2.53032
0.108342 -2.54191 -2.54191
0.0887885 -2.55339 -2.55339
0.0887975 -2.57661 -2.57661
0.127998 -2.57685 -2.57685
0.127943 -2.55364 -2.55364
0.0887937 -2.56499 -2.56499
0.108393 -2.57673 -2.57673
0.127971 -2.56524 -2.56524
0.108361 -2.55351 -2.55351
0.108377 -2.56512 -2.56512
0.0887975 -2.57661 -2.57661
0.0888011 -2.59985 -2.59985
0.128045 -2.6001 -2.6001
0.127998 -2.57685 -2.57685
0.0887999 -2.58823 -2.58823
0.108418 -2.59997 -2.59997
0.128023 -2.58847 -2.58847
0.108393 -2.57673 -2.57673
0.108406 -2.58835 -2.58835
0.0888011 -2.59985 -2.59985
0.0887994 -2.62312 -2.62312
0.128086 -2.62336 -2.62336
0.128045 -2.6001 -2.6001
0.0888009 -2.61148 -2.61148
0.108438 -2.62324 -2.62324
0.128066 -2.61173 -2.61173
0.108418 -2.59997 -2.59997
0.108429 -2.6116 -2.6116
0.0887994 -2.62312 -2.62312
0.0887923 -2.64642 -2.64642
0.128119 -2.64666 -2.64666
0.128086 -2.62336 -2.62336
0.0887965 -2.63477 -2.63477
0.10845 -2.64653 -2.64653
0.128103 -2.63501 -2.63501
0.108438 -2.62324 -2.62324
0.108445 -2.63488 -2.63488
0.0887923 -2.64642 -2.64642
0.0887799 -2.66973 -2.66973
0.128144 -2.66997 -2.66997
0.128119 -2.64666 -2.64666
0.0887868 -2.65807 -2.65807
0.108457 -2.66985 -2.66985
0.128132 -2.65831 -2.65831
0.10845 -2.64653 -2.64653
0.108454 -2.65819 -2.65819
0.0887799 -2.66973 -2.66973
0.0887622 -2.69307 -2.69307
0.128162 -2.69331 -2.69331
0.128144 -2.66997 -2.66997
0.0887717 -2.6814 -2.6814
0.108457 -2.69319 -2.69319
0.128154 -2.68164 -2.68164
0.108457 -2.66985 -2.66985
0.108458 -2.68152 -2.68152
0.0887622 -2.69307 -2.69307
0.0887392 -2.71643 -2.71643
0.128173 -2.71667 -2.71667
0.128162 -2.69331 -2.69331
0.0887514 -2.70475 -2.70475
0.108451 -2.71655 -2.71655
0.128168 -2.70498 -2.70498
0.108457 -2.69319 -2.69319
0.108455 -2.70487 -2.70487
0.0887392 -2.71643 -2.71643
0.0887109 -2.73981 -2.73981
0.128176 -2.74004 -2.74004
0.128173 -2.71667 -2.71667
0.0887257 -2.72812 -2.72812
0.108439 -2.73993 -2.73993
0.128175 -2.72835 -2.72835
0.108451 -2.71655 -2.71655
0.108446 -2.72823 -2.72823
0.0887109 -2.73981 -2.73981
0.0886774 -2.76321 -2.76321
0.128172 -2.76344 -2.76344
0.128176 -2.74004 -2.74004
0.0886948 -2.75151 -2.75151
0.10842 -2.76332 -2.76332
0.128175 -2.75174 -2.75174
0.108439 -2.73993 -2.73993
0.10843 -2.75162 -2.75162
0.0886774 -2.76321 -2.76321
0.0886385 -2.78663 -2.78663
0.128161 -2.78685 -2.78685
0.128172 -2.76344 -2.76344
0.0886586 -2.77492 -2.77492
0.108395 -2.78674 -2.78674
0.128168 -2.77514 -2.77514
0.10842 -2.76332 -2.76332
0.108408 -2.77503 -2.77503
0.0886385 -2.78663 -2.78663
0.0885944 -2.81006 -2.81006
0.128143 -2.81028 -2.81028
0.128161 -2.78685 -2.78685
0.0886171 -2.79834 -2.79834
0.108364 -2.81016 -2.81016
0.128153 -2.79856 -2.79856
0.108395 -2.78674 -2.78674
0.10838 -2.79845 -2.79845
0.0885944 -2.81006 -2.81006
0.0885451 -2.8335 -2.8335
0.128117 -2.83372 -2.83372
0.128143 -2.81028 -2.81028
0.0885704 -2.82178 -2.82178
0.108326 -2.83361 -2.83361
0.128131 -2.822 -2.822
0.108364 -2.81016 -2.81016
0.108346 -2.82188 -2.82188
0.0885451 -2.8335 -2.8335
0.0884905 -2.85696 -2.85696
0.128084 -2.85717 -2.85717
0.128117 -2.83372 -2.83372
0.0885185 -2.84523 -2.84523
0.108282 -2.85706 -2.85706
0.128101 -2.84544 -2.84544
0.108326 -2.83361 -2.83361
0.108305 -2.84533 -2.84533
0.0884905 -2.85696 -2.85696
0.0884307 -2.88043 -2.88043
0.128044 -2.88064 -2.88064
0.128084 -2.85717 -2.85717
0.0884613 -2.86869 -2.86869
0.108232 -2.88053 -2.88053
0.128065 -2.8689 -2.8689
0.108282 -2.85706 -2.85706
0.108258 -2.8688 -2.8688
0.0884307 -2.88043 -2.88043
0.0883657 -2.90391 -2.90391
0.127996 -2.90412 -2.90412
0.128044 -2.88064 -2.88064
0.0883989 -2.89217 -2.89217
0.108176 -2.90401 -2.90401
0.128021 -2.89238 -2.89238
0.108232 -2.88053 -2.88053
0.108205 -2.89227 -2.89227
0.0883657 -2.90391 -2.90391
0.0882955 -2.9274 -2.9274
0.127942 -2.9276 -2.9276
0.127996 -2.90412 -2.90412
0.0883313 -2.91565 -2.91565
0.108114 -2.9275 -2.9275
0.12797 -2.91586 -2.91586
0.108176 -2.90401 -2.90401
0.108146 -2.91576 -2.91576
0.0882955 -2.9274 -2.9274
0.08822 -2.9509 -2.9509
0.127881 -2.9511 -2.9511
0.127942 -2.9276 -2.9276
0.0882584 -2.93915 -2.93915
0.108046 -2.951 -2.951
0.127912 -2.93935 -2.93935
0.108114 -2.9275 -2.9275
0.108081 -2.93925 -2.93925
0.08822 -2.9509 -2.9509
0.0881391 -2.9744 -2.9744
0.127813 -2.9746 -2.9746
0.127881 -2.9511 -2.9511
0.0881802 -2.96265 -2.96265
0.107972 -2.9745 -2.9745
0.127848 -2.96285 -2.96285
0.108046 -2.951 -2.951
0.108009 -2.96275 -2.96275
0.0881391 -2.9744 -2.9744
0.0880526 -2.99792 -2.99792
0.127741 -2.99811 -2.99811
0.127813 -2.9746 -2.9746
0.0880966 -2.98616 -2.98616
0.107893 -2.99801 -2.99801
0.127777 -2.98636 -2.98636
0.107972 -2.9745 -2.9745
0.107933 -2.98626 -2.98626
0.0880526 -2.99792 -2.99792
0.0879599 -3.02144 -3.02144
0.127664 -3.02163 -3.02163
0.127741 -2.99811 -2.99811
0.088007 -3.00967 -3.00967
0.107808 -3.02153 -3.02153
0.127703 -3.00987 -3.00987
0.107893 -2.99801 -2.99801
0.107851 -3.00977 -3.00977
0.0879599 -3.02144 -3.02144
0.0878604 -3.04496 -3.04496
0.127587 -3.04516 -3.04516
0.127664 -3.02163 -3.02163
0.0879111 -3.0332 -3.0332
0.107718 -3.04506 -3.04506
0.127625 -3.03339 -3.03339
0.107808 -3.02153 -3.02153
0.107764 -3.03329 -3.03329
0.0878604 -3.04496 -3.04496
0.0877545 -3.06851 -3.06851
0.127516 -3.06871 -3.06871
0.127587 -3.04516 -3.04516
0.0878079 -3.05673 -3.05673
0.10762 -3.06861 -3.06861
0.12755 -3.05693 -3.05693
0.107718 -3.04506 -3.04506
0.10767 -3.05683 -3.05683
0.0877545 -3.06851 -3.06851
0.0876524 -3.09206 -3.09206
0.127448 -3.09235 -3.09235
0.127516 -3.06871 -3.06871
0.0877017 -3.08028 -3.08028
0.107514 -3.0922 -3.0922
0.127484 -3.0805 -3.0805
0.10762 -3.06861 -3.06861
0.107566 -3.0804 -3.0804
      </DataArray> 
      <DataArray type="Float64" NumberOfComponents="4" Name="CauchyStress" format="ascii">
-1633.96 -490.524 0 -388.316
-1054.3 19.828 0 15.1431
-786.638 -85.0566 0 -43.4872
-743 -223.048 0 -29.7929
-1172.5 22.9293 0 -54.4918
-980.802 -60.3245 0 -56.2995
-771.91 -160.37 0 -50.5154
-873.29 -262.172 0 -94.3605
-968.465 -132.338 0 -88.4005
-1054.3 19.828 0 15.1431
-1044.36 11.3861 0 4.88868
-798.414 -25.3607 0 -20.5893
-786.638 -85.0566 0 -43.4872
-1045.75 -3.59504 0 6.76972
-943.886 -8.78358 0 -9.26442
-797.735 -43.7623 0 -31.2989
-980.802 -60.3245 0 -56.2995
-955.775 -21.6857 0 -22.6892
-1044.36 11.3861 0 4.88868
-1063.67 -3.62836 0 2.476
-788.375 -4.62345 0 -7.49982
-798.414 -25.3607 0 -20.5893
-1055.5 7.35559 0 4.97708
-931.461 -0.221912 0 -0.702759
-792.387 -12.5264 0 -12.0066
-943.886 -8.78358 0 -9.26442
-937.116 -3.28114 0 -4.35769
-1063.67 -3.62836 0 2.476
-1068.3 1.1291 0 0.166647
-781.485 -0.13013 0 -4.53679
-788.375 -4.62345 0 -7.49982
-1066.28 -3.3396 0 -0.0596863
-925.696 0.926506 0 0.601665
-785.323 -1.35552 0 -5.51854
-931.461 -0.221912 0 -0.702759
-927.478 0.961177 0 0.933165
-1068.3 1.1291 0 0.166647
-1072.09 -1.17149 0 0.675113
-774.587 1.54159 0 -4.3457
-781.485 -0.13013 0 -4.53679
-1071.03 0.803847 0 0.875699
-923.017 0.836806 0 -0.577488
-777.477 0.949774 0 -4.1534
-925.696 0.926506 0 0.601665
-924.626 0.779139 0 -0.170523
-1072.09 -1.17149 0 0.675113
-1070.49 0.226853 0 0.451978
-769.819 1.25548 0 -5.26844
-774.587 1.54159 0 -4.3457
-1071.39 -0.838043 0 0.294945
-919.727 0.616713 0 -1.65454
-772.277 1.4855 0 -4.83267
-923.017 0.836806 0 -0.577488
-921.275 0.798808 0 -1.05111
-1070.49 0.226853 0 0.451978
-1068 -0.211313 0 0.707778
-765.211 0.962816 0 -6.03277
-769.819 1.25548 0 -5.26844
-1069.56 0.189783 0 0.700065
-916.238 0.367085 0 -2.48594
-767.372 1.11773 0 -5.65166
-919.727 0.616713 0 -1.65454
-918.123 0.451707 0 -2.15752
-1068 -0.211313 0 0.707778
-1063.67 0.101813 0 0.743416
-761.115 0.563379 0 -6.64366
-765.211 0.962816 0 -6.03277
-1065.89 -0.126941 0 0.66289
-912.155 0.226301 0 -2.99352
-763.187 0.750378 0 -6.38275
-916.238 0.367085 0 -2.48594
-914.207 0.302936 0 -2.76011
-1063.67 0.101813 0 0.743416
-1058.9 0.0188259 0 0.878761
-757.021 0.31969 0 -6.98971
-761.115 0.563379 0 -6.64366
-1061.37 0.099213 0 0.840981
-907.819 0.118623 0 -3.26343
-759.038 0.430254 0 -6.8368
-912.155 0.226301 0 -2.99352
-910.04 0.159645 0 -3.15922
-1058.9 0.0188259 0 0.878761
-1053.6 0.0821861 0 0.960757
-753.018 0.145212 0 -7.18482
-757.021 0.31969 0 -6.98971
-1056.27 0.0361084 0 0.905512
-903.235 0.0667584 0 -3.38664
-755.027 0.220898 0 -7.10753
-907.819 0.118623 0 -3.26343
-905.537 0.0918308 0 -3.33781
-1053.6 0.0821861 0 0.960757
-1048.15 0.0668988 0 1.05974
-748.999 0.0500246 0 -7.26066
-753.018 0.145212 0 -7.18482
-1050.9 0.0827496 0 1.01755
-898.548 0.0328353 0 -3.41466
-751.003 0.0913222 0 -7.23224
-903.235 0.0667584 0 -3.38664
-900.908 0.0459188 0 -3.41002
-1048.15 0.0668988 0 1.05974
-1042.58 0.0779089 0 1.1462
-744.99 -0.00529856 0 -7.27512
-748.999 0.0500246 0 -7.26066
-1045.38 0.0695351 0 1.10005
-893.781 0.0182801 0 -3.39436
-746.997 0.0176561 0 -7.27459
-898.548 0.0328353 0 -3.41466
-896.168 0.0249179 0 -3.40884
-1042.58 0.0779089 0 1.1462
-1036.98 0.0747469 0 1.23371
-740.972 -0.0320516 0 -7.25097
-744.99 -0.00529856 0 -7.27512
-1039.79 0.0780051 0 1.19176
-888.984 0.0102275 0 -3.34598
-742.98 -0.0209617 0 -7.26604
-893.781 0.0182801 0 -3.39436
-891.387 0.0131636 0 -3.37254
-1036.98 0.0747469 0 1.23371
-1031.35 0.0758402 0 1.31764
-736.952 -0.0447436 0 -7.20893
-740.972 -0.0320516 0 -7.25097
-1034.17 0.0747254 0 1.27525
-884.166 0.00762635 0 -3.28549
-738.963 -0.0398512 0 -7.23167
-888.984 0.0102275 0 -3.34598
-886.575 0.00873095 0 -3.31674
-1031.35 0.0758402 0 1.31764
-1025.72 0.0747664 0 1.40023
-732.93 -0.0491343 0 -7.15748
-736.952 -0.0447436 0 -7.20893
-1028.53 0.0756204 0 1.35946
-879.341 0.00684959 0 -3.21917
-734.941 -0.0475847 0 -7.18385
-884.166 0.00762635 0 -3.28549
-881.754 0.00696768 0 -3.25272
-1025.72 0.0747664 0 1.40023
-1020.08 0.0742878 0 1.48101
-728.906 -0.0497257 0 -7.10262
-732.93 -0.0491343 0 -7.15748
-1022.9 0.0744162 0 1.4407
-874.512 0.00731408 0 -3.15134
-730.918 -0.049789 0 -7.13031
-879.341 0.00684959 0 -3.21917
-876.926 0.00704694 0 -3.18531
-1020.08 0.0742878 0 1.48101
-1014.44 0.0735932 0 1.56026
-724.881 -0.0483865 0 -7.0467
-728.906 -0.0497257 0 -7.10262
-1017.26 0.0739913 0 1.52088
-869.682 0.00815362 0 -3.08352
-726.893 -0.0491948 0 -7.07467
-874.512 0.00731408 0 -3.15134
-872.097 0.00767976 0 -3.11735
-1014.44 0.0735932 0 1.56026
-1008.81 0.0729605 0 1.63803
-720.855 -0.0462876 0 -6.99112
-724.881 -0.0483865 0 -7.0467
-1011.62 0.0732561 0 1.59932
-864.851 0.00918839 0 -3.01664
-722.868 -0.0474014 0 -7.01883
-869.682 0.00815362 0 -3.08352
-867.266 0.00867255 0 -3.04994
-1008.81 0.0729605 0 1.63803
-1003.17 0.0723447 0 1.71433
-716.83 -0.0438859 0 -6.93636
-720.855 -0.0462876 0 -6.99112
-1005.99 0.0726579 0 1.67637
-860.021 0.0102525 0 -2.95094
-718.842 -0.0451026 0 -6.96361
-864.851 0.00918839 0 -3.01664
-862.436 0.00971453 0 -2.98363
-1003.17 0.0723447 0 1.71433
-997.538 0.0717274 0 1.78919
-712.804 -0.0414213 0 -6.88263
-716.83 -0.0438859 0 -6.93636
-1000.35 0.0720328 0 1.75194
-855.19 0.0113115 0 -2.88654
-714.817 -0.0426562 0 -6.90936
-860.021 0.0102525 0 -2.95094
-857.605 0.010787 0 -2.91858
-997.538 0.0717274 0 1.78919
-991.903 0.0711266 0 1.86262
-708.778 -0.0389695 0 -6.82999
-712.804 -0.0414213 0 -6.88263
-994.721 0.0714268 0 1.82608
-850.36 0.0123466 0 -2.82344
-710.791 -0.0401906 0 -6.85617
-855.19 0.0113115 0 -2.88654
-852.775 0.011831 0 -2.85483
-991.903 0.0711266 0 1.86262
-986.269 0.0705202 0 1.93463
-704.752 -0.0365588 0 -6.77843
-708.778 -0.0389695 0 -6.82999
-989.086 0.0708233 0 1.8988
-845.53 0.0133574 0 -2.76162
-706.765 -0.037759 0 -6.80407
-850.36 0.0123466 0 -2.82344
-847.945 0.0128554 0 -2.79237
-986.269 0.0705202 0 1.93463
-980.636 0.0699179 0 2.00523
-700.726 -0.0341895 0 -6.72793
-704.752 -0.0365588 0 -6.77843
-983.452 0.0702189 0 1.97011
-840.7 0.0143468 0 -2.70105
-702.739 -0.0353691 0 -6.75305
-845.53 0.0133574 0 -2.76162
-843.115 0.0138543 0 -2.73118
-980.636 0.0699179 0 2.00523
-975.002 0.069311 0 2.07443
-696.7 -0.0318562 0 -6.67846
-700.726 -0.0341895 0 -6.72793
-977.819 0.0696148 0 2.04001
-835.87 0.0153183 0 -2.64171
-698.713 -0.0330188 0 -6.70306
-840.7 0.0143468 0 -2.70105
-838.285 0.0148346 0 -2.67123
-975.002 0.069311 0 2.07443
-969.368 0.0687033 0 2.14224
-692.674 -0.0295527 0 -6.63001
-696.7 -0.0318562 0 -6.67846
-972.185 0.0690073 0 2.10851
-831.04 0.0162747 0 -2.58358
-694.687 -0.0307011 0 -6.65411
-835.87 0.0153183 0 -2.64171
-833.455 0.0157982 0 -2.6125
-969.368 0.0687033 0 2.14224
-963.734 0.0680921 0 2.20865
-688.648 -0.0272737 0 -6.58256
-692.674 -0.0295527 0 -6.63001
-966.551 0.0683981 0 2.17562
-826.209 0.0172182 0 -2.52665
-690.661 -0.0284104 0 -6.60616
-831.04 0.0162747 0 -2.58358
-828.625 0.016748 0 -2.55497
-963.734 0.0680921 0 2.20865
-958.1 0.0674788 0 2.27369
-684.622 -0.0250157 0 -6.53611
-688.648 -0.0272737 0 -6.58256
-960.917 0.0677857 0 2.24134
-821.379 0.0181501 0 -2.47091
-686.635 -0.0261422 0 -6.55921
-826.209 0.0172182 0 -2.52665
-823.794 0.0176855 0 -2.49863
-958.1 0.0674788 0 2.27369
-952.465 0.066863 0 2.33736
-680.596 -0.0227763 0 -6.49064
-684.622 -0.0250157 0 -6.53611
-955.283 0.0671712 0 2.30569
-816.549 0.0190713 0 -2.41634
-682.609 -0.0238938 0 -6.51325
-821.379 0.0181501 0 -2.47091
-818.964 0.018612 0 -2.44348
-952.465 0.066863 0 2.33736
-946.831 0.0662452 0 2.39966
-676.57 -0.0205542 0 -6.44614
-680.596 -0.0227763 0 -6.49064
-949.648 0.0665543 0 2.36868
-811.719 0.0199826 0 -2.36294
-678.583 -0.0216632 0 -6.46827
-816.549 0.0190713 0 -2.41634
-814.134 0.0195282 0 -2.38949
-946.831 0.0662452 0 2.39966
-941.197 0.0656256 0 2.46061
-672.544 -0.0183484 0 -6.40261
-676.57 -0.0205542 0 -6.44614
-944.014 0.0659356 0 2.4303
-806.888 0.0208843 0 -2.3107
-674.557 -0.0194493 0 -6.42425
-811.719 0.0199826 0 -2.36294
-809.304 0.0204346 0 -2.33668
-941.197 0.0656256 0 2.46061
-935.563 0.0650046 0 2.52021
-668.517 -0.0161585 0 -6.36004
-672.544 -0.0183484 0 -6.40261
-938.38 0.0653153 0 2.49057
-802.058 0.0217768 0 -2.25962
-670.531 -0.0172515 0 -6.38121
-806.888 0.0208843 0 -2.3107
-804.473 0.0213317 0 -2.28502
-935.563 0.0650046 0 2.52021
-929.929 0.0643824 0 2.57847
-664.491 -0.0139839 0 -6.31843
-668.517 -0.0161585 0 -6.36004
-932.746 0.0646936 0 2.5495
-797.228 0.0226604 0 -2.20969
-666.504 -0.0150693 0 -6.33912
-802.058 0.0217768 0 -2.25962
-799.643 0.0222197 0 -2.23451
-929.929 0.0643824 0 2.57847
-924.294 0.0637594 0 2.6354
-660.465 -0.0118246 0 -6.27777
-664.491 -0.0139839 0 -6.31843
-927.111 0.064071 0 2.6071
-792.397 0.0235353 0 -2.16089
-662.478 -0.0129024 0 -6.29798
-797.228 0.0226604 0 -2.20969
-794.813 0.0230989 0 -2.18515
-924.294 0.0637594 0 2.6354
-918.66 0.0631358 0 2.69101
-656.439 -0.00968017 0 -6.23806
-660.465 -0.0118246 0 -6.27777
-921.477 0.0634476 0 2.66337
-787.567 0.0244018 0 -2.11323
-658.452 -0.0107505 0 -6.2578
-792.397 0.0235353 0 -2.16089
-789.982 0.0239696 0 -2.13692
-918.66 0.0631358 0 2.69101
-913.026 0.0625119 0 2.7453
-652.413 -0.00755056 0 -6.19928
-656.439 -0.00968017 0 -6.23806
-915.843 0.0628238 0 2.71832
-782.737 0.0252602 0 -2.0667
-654.426 -0.00861352 0 -6.21855
-787.567 0.0244018 0 -2.11323
-785.152 0.024832 0 -2.08983
-913.026 0.0625119 0 2.7453
-907.391 0.0618881 0 2.79828
-648.386 -0.00543559 0 -6.16144
-652.413 -0.00755056 0 -6.19928
-910.208 0.0622 0 2.77195
-777.906 0.0261105 0 -2.02129
-650.4 -0.00649126 0 -6.18024
-782.737 0.0252602 0 -2.0667
-780.321 0.0256863 0 -2.04385
-907.391 0.0618881 0 2.79828
-901.757 0.0612645 0 2.84997
-644.36 -0.00333506 0 -6.12452
-648.386 -0.00543559 0 -6.16144
-904.574 0.0615762 0 2.82429
-773.076 0.0269532 0 -1.97699
-646.373 -0.00438353 0 -6.14286
-777.906 0.0261105 0 -2.02129
-775.491 0.0265328 0 -1.999
-901.757 0.0612645 0 2.84997
-896.122 0.0606415 0 2.90037
-640.334 -0.00124883 0 -6.08853
-644.36 -0.00333506 0 -6.12452
-898.939 0.0609529 0 2.87533
-768.245 0.0277883 0 -1.93379
-642.347 -0.00229017 0 -6.10641
-773.076 0.0269532 0 -1.97699
-770.66 0.0273716 0 -1.95525
-896.122 0.0606415 0 2.90037
-890.488 0.0600193 0 2.94948
-636.308 0.000823254 0 -6.05345
-640.334 -0.00124882 0 -6.08853
-893.305 0.0603303 0 2.92508
-763.414 0.0286161 0 -1.8917
-638.321 -0.000211023 0 -6.07087
-768.245 0.0277883 0 -1.93379
-765.83 0.0282031 0 -1.91261
-890.488 0.0600193 0 2.94948
-884.853 0.0593982 0 2.99732
-632.281 0.00288136 0 -6.01928
-636.308 0.000823254 0 -6.05345
-887.67 0.0597086 0 2.97356
-758.584 0.0294367 0 -1.8507
-634.294 0.00185403 0 -6.03625
-763.414 0.0286161 0 -1.8917
-760.999 0.0290273 0 -1.87106
-884.853 0.0593982 0 2.99732
-879.218 0.0587785 0 3.04389
-628.255 0.00492565 0 -5.98602
-632.281 0.00288136 0 -6.01928
-882.036 0.0590882 0 3.02076
-753.753 0.0302505 0 -1.81078
-630.268 0.00390523 0 -6.00254
-758.584 0.0294367 0 -1.8507
-756.169 0.0298445 0 -1.83061
-879.218 0.0587785 0 3.04389
-873.584 0.0581603 0 3.08921
-624.228 0.00695625 0 -5.95366
-628.255 0.00492565 0 -5.98602
-876.401 0.0584692 0 3.06671
-748.923 0.0310576 0 -1.77195
-626.242 0.00594265 0 -5.96973
-753.753 0.0302505 0 -1.81078
-751.338 0.0306549 0 -1.79123
-873.584 0.0581603 0 3.08921
-867.949 0.0575439 0 3.13327
-620.202 0.00897333 0 -5.92219
-624.228 0.00695625 0 -5.95366
-870.766 0.0578519 0 3.11139
-744.092 0.0318582 0 -1.73418
-622.215 0.00796647 0 -5.93781
-748.923 0.0310576 0 -1.77195
-746.507 0.0314587 0 -1.75293
-867.949 0.0575439 0 3.13327
-862.314 0.0569296 0 3.17609
-616.176 0.010977 0 -5.89161
-620.202 0.00897333 0 -5.92219
-865.132 0.0572365 0 3.15483
-739.261 0.0326525 0 -1.69748
-618.189 0.00997684 0 -5.90679
-744.092 0.0318582 0 -1.73418
-741.677 0.0322562 0 -1.7157
-862.314 0.0569296 0 3.17609
-856.679 0.0563176 0 3.21768
-612.149 0.0129675 0 -5.8619
-616.176 0.010977 0 -5.89161
-859.497 0.0566233 0 3.19704
-734.43 0.0334407 0 -1.66184
-614.162 0.0119739 0 -5.87664
-739.261 0.0326525 0 -1.69748
-736.846 0.0330474 0 -1.67953
-856.679 0.0563176 0 3.21768
-851.045 0.0557081 0 3.25804
-608.123 0.0149448 0 -5.83308
-612.149 0.0129675 0 -5.8619
-853.862 0.0560126 0 3.23801
-729.6 0.0342229 0 -1.62725
-610.136 0.0139578 0 -5.84738
-734.43 0.0334407 0 -1.66184
-732.015 0.0338325 0 -1.64441
-851.045 0.0557081 0 3.25804
-845.41 0.0551014 0 3.29718
-604.096 0.0169092 0 -5.80513
-608.123 0.0149448 0 -5.83308
-848.227 0.0554044 0 3.27776
-724.769 0.0349993 0 -1.5937
-606.11 0.0159286 0 -5.81899
-729.6 0.0342229 0 -1.62725
-727.184 0.0346118 0 -1.61035
-845.41 0.0551014 0 3.29718
-839.775 0.0544975 0 3.33511
-600.07 0.0188608 0 -5.77804
-604.096 0.0169092 0 -5.80513
-842.592 0.0547991 0 3.3163
-719.938 0.0357702 0 -1.56119
-602.083 0.0178866 0 -5.79147
-724.769 0.0349993 0 -1.5937
-722.353 0.0353855 0 -1.57732
-839.775 0.0544975 0 3.33511
-834.14 0.0538968 0 3.37184
-596.043 0.0207997 0 -5.7518
-600.07 0.0188608 0 -5.77804
-836.957 0.0541968 0 3.35363
-715.107 0.0365357 0 -1.52971
-598.057 0.0198318 0 -5.76481
-719.938 0.0357702 0 -1.56119
-717.523 0.0361536 0 -1.54533
-834.14 0.0538968 0 3.37184
-828.505 0.0532995 0 3.40738
-592.017 0.022726 0 -5.72643
-596.043 0.0207997 0 -5.7518
-831.322 0.0535978 0 3.38976
-710.276 0.0372958 0 -1.49926
-594.03 0.0217644 0 -5.73901
-715.107 0.0365357 0 -1.52971
-712.692 0.0369164 0 -1.51436
-828.505 0.0532995 0 3.40738
-822.87 0.0527058 0 3.44173
-587.99 0.0246398 0 -5.70189
-592.017 0.022726 0 -5.72643
-825.687 0.0530022 0 3.4247
-705.446 0.0380509 0 -1.46982
-590.004 0.0236844 0 -5.71405
-710.276 0.0372958 0 -1.49926
-707.861 0.037674 0 -1.48441
-822.87 0.0527058 0 3.44173
-817.235 0.0521157 0 3.4749
-583.964 0.0265413 0 -5.6782
-587.99 0.0246398 0 -5.70189
-820.052 0.0524103 0 3.45846
-700.615 0.0388011 0 -1.44139
-585.977 0.0255921 0 -5.68994
-705.446 0.0380509 0 -1.46982
-703.03 0.0384266 0 -1.45548
-817.235 0.0521157 0 3.4749
-811.6 0.0515297 0 3.5069
-579.937 0.0284306 0 -5.65535
-583.964 0.0265413 0 -5.6782
-814.417 0.0518222 0 3.49105
-695.784 0.0395464 0 -1.41396
-581.951 0.0274875 0 -5.66667
-700.615 0.0388011 0 -1.44139
-698.199 0.0391743 0 -1.42755
-811.6 0.0515297 0 3.5069
-805.965 0.0509477 0 3.53774
-575.911 0.0303078 0 -5.63333
-579.937 0.0284306 0 -5.65535
-808.782 0.0512381 0 3.52247
-690.953 0.0402871 0 -1.38753
-577.924 0.0293707 0 -5.64424
-695.784 0.0395464 0 -1.41396
-693.368 0.0399173 0 -1.40062
-805.965 0.0509477 0 3.53774
-800.33 0.05037 0 3.56743
-571.884 0.032173 0 -5.61213
-575.911 0.0303078 0 -5.63333
-803.147 0.0506583 0 3.55273
-686.122 0.0410233 0 -1.36209
-573.898 0.0312419 0 -5.62262
-690.953 0.0402871 0 -1.38753
-688.537 0.0406558 0 -1.37469
-800.33 0.05037 0 3.56743
-794.694 0.0497968 0 3.59597
-567.858 0.0340262 0 -5.59175
-571.884 0.032173 0 -5.61213
-797.512 0.0500828 0 3.58184
-681.291 0.0417552 0 -1.33763
-569.871 0.0331011 0 -5.60183
-686.122 0.0410233 0 -1.36209
-683.706 0.0413898 0 -1.34974
-794.694 0.0497968 0 3.59597
-789.059 0.0492282 0 3.62338
-563.831 0.0358677 0 -5.57218
-567.858 0.0340262 0 -5.59175
-791.877 0.0495119 0 3.60982
-676.46 0.0424828 0 -1.31415
-565.844 0.0349484 0 -5.58186
-681.291 0.0417552 0 -1.33763
-678.875 0.0421195 0 -1.32577
-789.059 0.0492282 0 3.62338
-783.424 0.0486645 0 3.64965
-559.804 0.0376975 0 -5.55341
-563.831 0.0358677 0 -5.57218
-786.242 0.0489457 0 3.63665
-671.629 0.0432063 0 -1.29163
-561.818 0.0367841 0 -5.56269
-676.46 0.0424828 0 -1.31415
-674.044 0.0428451 0 -1.30277
-783.424 0.0486645 0 3.64965
-777.789 0.0481056 0 3.6748
-555.778 0.0395157 0 -5.53545
-559.804 0.0376975 0 -5.55341
-780.606 0.0483844 0 3.66237
-666.798 0.0439258 0 -1.27008
-557.791 0.038608 0 -5.54433
-671.629 0.0432063 0 -1.29163
-669.213 0.0435666 0 -1.28073
-777.789 0.0481056 0 3.6748
-772.153 0.0475519 0 3.69884
-551.751 0.0413223 0 -5.51829
-555.778 0.0395157 0 -5.53545
-774.971 0.0478281 0 3.68696
-661.967 0.0446415 0 -1.24948
-553.764 0.0404204 0 -5.52677
-666.798 0.0439258 0 -1.27008
-664.382 0.0442842 0 -1.25966
-772.153 0.0475519 0 3.69884
-766.518 0.0470035 0 3.72178
-547.724 0.0431176 0 -5.50191
-551.751 0.0413223 0 -5.51829
-769.336 0.047277 0 3.71045
-657.135 0.0453535 0 -1.22982
-549.738 0.0422214 0 -5.51
-661.967 0.0446415 0 -1.24948
-659.551 0.044998 0 -1.23953
-766.518 0.0470035 0 3.72178
-760.883 0.0464604 0 3.74361
-543.698 0.0449015 0 -5.48632
-547.724 0.0431176 0 -5.50191
-763.7 0.0467313 0 3.73283
-652.304 0.0460618 0 -1.21111
-545.711 0.0440109 0 -5.49402
-657.135 0.0453535 0 -1.22982
-654.72 0.0457081 0 -1.22035
-760.883 0.0464604 0 3.74361
-755.247 0.0459229 0 3.76436
-539.671 0.0466741 0 -5.47151
-543.698 0.0449015 0 -5.48632
-758.065 0.046191 0 3.75412
-647.473 0.0467666 0 -1.19333
-541.684 0.0457892 0 -5.47882
-652.304 0.0460618 0 -1.21111
-649.889 0.0464147 0 -1.20211
-755.247 0.0459229 0 3.76436
-749.612 0.0453911 0 3.78403
-535.644 0.0484355 0 -5.45746
-539.671 0.0466741 0 -5.47151
-752.43 0.0456563 0 3.77433
-642.642 0.0474681 0 -1.17648
-537.658 0.0475562 0 -5.46439
-647.473 0.0467666 0 -1.19333
-645.058 0.0471178 0 -1.18479
-749.612 0.0453911 0 3.78403
-743.976 0.044865 0 3.80262
-531.618 0.0501859 0 -5.44419
-535.644 0.0484355 0 -5.45746
-746.794 0.0451273 0 3.79346
-637.811 0.0481662 0 -1.16055
-533.631 0.0493121 0 -5.45073
-642.642 0.0474681 0 -1.17648
-640.226 0.0478175 0 -1.1684
-743.976 0.044865 0 3.80262
-738.341 0.0443449 0 3.82015
-527.591 0.0519252 0 -5.43168
-531.618 0.0501859 0 -5.44419
-741.159 0.0446042 0 3.81152
-632.98 0.0488611 0 -1.14553
-529.604 0.0510569 0 -5.43784
-637.811 0.0481662 0 -1.16055
-635.395 0.048514 0 -1.15292
-738.341 0.0443449 0 3.82015
-732.705 0.0438308 0 3.83662
-523.564 0.0536535 0 -5.41992
-527.591 0.0519252 0 -5.43168
-735.523 0.0440871 0 3.82851
-628.148 0.0495529 0 -1.13142
-525.578 0.0527907 0 -5.4257
-632.98 0.0488611 0 -1.14553
-630.564 0.0492074 0 -1.13836
-732.705 0.0438308 0 3.83662
-727.07 0.0433229 0 3.85204
-519.538 0.0553709 0 -5.40891
-523.564 0.0536535 0 -5.41992
-729.888 0.0435761 0 3.84446
-623.317 0.0502417 0 -1.1182
-521.551 0.0545136 0 -5.41432
-628.148 0.0495529 0 -1.13142
-625.733 0.0498977 0 -1.1247
-727.07 0.0433229 0 3.85204
-721.434 0.0428213 0 3.86642
-515.511 0.0570775 0 -5.39864
-519.538 0.0553709 0 -5.40891
-724.252 0.0430713 0 3.85936
-618.486 0.0509275 0 -1.10588
-517.524 0.0562256 0 -5.40368
-623.317 0.0502417 0 -1.1182
-620.901 0.050585 0 -1.11193
-721.434 0.0428213 0 3.86642
-715.799 0.042326 0 3.87977
-511.484 0.0587733 0 -5.38911
-515.511 0.0570775 0 -5.39864
-718.617 0.0425728 0 3.87322
-613.655 0.0516105 0 -1.09444
-513.497 0.0579268 0 -5.39378
-618.486 0.0509275 0 -1.10588
-616.07 0.0512694 0 -1.10005
-715.799 0.042326 0 3.87977
-710.163 0.0418372 0 3.89209
-507.457 0.0604584 0 -5.38031
-511.484 0.0587733 0 -5.38911
-712.981 0.0420808 0 3.88606
-608.823 0.0522908 0 -1.08388
-509.471 0.0596172 0 -5.38462
-613.655 0.0516105 0 -1.09444
-611.239 0.051951 0 -1.08905
-710.163 0.0418372 0 3.89209
-704.527 0.041355 0 3.9034
-503.43 0.0621328 0 -5.37224
-507.457 0.0604584 0 -5.38031
-707.345 0.0415953 0 3.89787
-603.992 0.0529683 0 -1.0742
-505.444 0.0612969 0 -5.37619
-608.823 0.0522908 0 -1.08388
-606.408 0.0526299 0 -1.07893
-704.527 0.041355 0 3.9034
-698.892 0.0408795 0 3.9137
-499.404 0.0637965 0 -5.3649
-503.43 0.0621328 0 -5.37224
-701.71 0.0411164 0 3.90868
-599.161 0.0536432 0 -1.06538
-501.417 0.062966 0 -5.36848
-603.992 0.0529683 0 -1.0742
-601.576 0.0533061 0 -1.06968
-698.892 0.0408795 0 3.9137
-693.256 0.0404107 0 3.923
-495.377 0.0654497 0 -5.35826
-499.404 0.0637965 0 -5.3649
-696.074 0.0406442 0 3.91847
-594.329 0.0543155 0 -1.05741
-497.39 0.0646244 0 -5.36149
-599.161 0.0536432 0 -1.06538
-596.745 0.0539797 0 -1.06129
-693.256 0.0404107 0 3.923
-687.62 0.0399488 0 3.9313
-491.35 0.0670924 0 -5.35233
-495.377 0.0654497 0 -5.35826
-690.438 0.0401789 0 3.92727
-589.498 0.0549854 0 -1.0503
-493.363 0.0662724 0 -5.35521
-594.329 0.0543155 0 -1.05741
-591.914 0.0546508 0 -1.05375
-687.62 0.0399488 0 3.9313
-681.985 0.0394938 0 3.93862
-487.323 0.0687245 0 -5.34711
-491.35 0.0670924 0 -5.35233
-684.802 0.0397204 0 3.93509
-584.666 0.0556528 0 -1.04403
-489.337 0.0679098 0 -5.34964
-589.498 0.0549854 0 -1.0503
-587.082 0.0553194 0 -1.04706
-681.985 0.0394938 0 3.93862
-676.349 0.0390458 0 3.94497
-483.296 0.0703462 0 -5.34259
-487.323 0.0687245 0 -5.34711
-679.167 0.0392689 0 3.94192
-579.835 0.0563179 0 -1.0386
-485.31 0.0695367 0 -5.34476
-584.666 0.0556528 0 -1.04403
-582.251 0.0559856 0 -1.04121
-676.349 0.0390458 0 3.94497
-670.713 0.0386048 0 3.95035
-479.27 0.0719575 0 -5.33875
-483.296 0.0703462 0 -5.34259
-673.531 0.0388244 0 3.94778
-575.004 0.0569806 0 -1.03399
-481.283 0.0711532 0 -5.34058
-579.835 0.0563179 0 -1.0386
-577.419 0.0566495 0 -1.03619
-670.713 0.0386048 0 3.95035
-665.077 0.0381711 0 3.95476
-475.243 0.0735584 0 -5.33561
-479.27 0.0719575 0 -5.33875
-667.895 0.038387 0 3.95267
-570.172 0.057641 0 -1.03021
-477.256 0.0727593 0 -5.33709
-575.004 0.0569806 0 -1.03399
-572.588 0.0573111 0 -1.032
-665.077 0.0381711 0 3.95476
-659.441 0.0377445 0 3.95823
-471.216 0.075149 0 -5.33314
-475.243 0.0735584 0 -5.33561
-662.259 0.0379569 0 3.95661
-565.341 0.0582993 0 -1.02725
-473.229 0.074355 0 -5.33429
-570.172 0.057641 0 -1.03021
-567.756 0.0579704 0 -1.02863
-659.441 0.0377445 0 3.95823
-653.805 0.0373252 0 3.96075
-467.189 0.0767292 0 -5.33134
-471.216 0.075149 0 -5.33314
-656.623 0.0375339 0 3.9596
-560.509 0.0589553 0 -1.02509
-469.202 0.0759403 0 -5.33216
-565.341 0.0582993 0 -1.02725
-562.925 0.0586276 0 -1.02607
-653.805 0.0373252 0 3.96075
-648.169 0.0369132 0 3.96233
-463.162 0.0782991 0 -5.33022
-467.189 0.0767292 0 -5.33134
-650.987 0.0371182 0 3.96165
-555.678 0.0596092 0 -1.02374
-465.176 0.0775154 0 -5.3307
-560.509 0.0589553 0 -1.02509
-558.093 0.0592825 0 -1.02432
-648.169 0.0369132 0 3.96233
-642.533 0.0365085 0 3.96299
-459.135 0.0798587 0 -5.32976
-463.162 0.0782991 0 -5.33022
-645.351 0.0367099 0 3.96277
-550.846 0.060261 0 -1.02319
-461.149 0.0790802 0 -5.32991
-555.678 0.0596092 0 -1.02374
-553.262 0.0599354 0 -1.02337
-642.533 0.0365085 0 3.96299
-636.897 0.0361114 0 3.96272
-455.108 0.081408 0 -5.32996
-459.135 0.0798587 0 -5.32976
-639.715 0.036309 0 3.96297
-546.015 0.0609108 0 -1.02342
-457.122 0.0806346 0 -5.32978
-550.846 0.060261 0 -1.02319
-548.43 0.0605862 0 -1.0232
-636.897 0.0361114 0 3.96272
-631.261 0.0357216 0 3.96155
-451.081 0.0829471 0 -5.3308
-455.108 0.081408 0 -5.32996
-634.079 0.0359156 0 3.96225
-541.183 0.0615585 0 -1.02443
-453.095 0.0821789 0 -5.3303
-546.015 0.0609108 0 -1.02342
-543.599 0.0612349 0 -1.02383
-631.261 0.0357216 0 3.96155
-625.625 0.0353394 0 3.95947
-447.054 0.084476 0 -5.3323
-451.081 0.0829471 0 -5.3308
-628.443 0.0355296 0 3.96062
-536.351 0.0622042 0 -1.02622
-449.068 0.0837129 0 -5.33147
-541.183 0.0615585 0 -1.02443
-538.767 0.0618816 0 -1.02523
-625.625 0.0353394 0 3.95947
-619.989 0.0349647 0 3.95649
-443.028 0.0859947 0 -5.33443
-447.054 0.084476 0 -5.3323
-622.807 0.0351511 0 3.95809
-531.52 0.0628478 0 -1.02878
-445.041 0.0852366 0 -5.33328
-536.351 0.0622042 0 -1.02622
-533.936 0.0625262 0 -1.0274
-619.989 0.0349647 0 3.95649
-614.353 0.0345976 0 3.95263
-439.001 0.0875031 0 -5.33719
-443.028 0.0859947 0 -5.33443
-617.171 0.0347802 0 3.95467
-526.688 0.0634896 0 -1.03209
-441.014 0.0867502 0 -5.33573
-531.52 0.0628478 0 -1.02878
-529.104 0.063169 0 -1.03034
-614.353 0.0345976 0 3.95263
-608.717 0.0342381 0 3.94788
-434.974 0.0890013 0 -5.34059
-439.001 0.0875031 0 -5.33719
-611.535 0.0344169 0 3.95037
-521.857 0.0641293 0 -1.03616
-436.987 0.0882535 0 -5.33881
-526.688 0.0634896 0 -1.03209
-524.272 0.0638097 0 -1.03403
-608.717 0.0342381 0 3.94788
-603.081 0.0338863 0 3.94227
-430.947 0.0904893 0 -5.34461
-434.974 0.0890013 0 -5.34059
-605.899 0.0340612 0 3.94519
-517.025 0.0647672 0 -1.04098
-432.96 0.0897466 0 -5.34252
-521.857 0.0641294 0 -1.03616
-519.441 0.0644485 0 -1.03848
-603.081 0.0338863 0 3.94227
-597.445 0.033542 0 3.93579
-426.92 0.0919671 0 -5.34924
-430.947 0.0904893 0 -5.34461
-600.263 0.0337132 0 3.93914
-512.193 0.0654031 0 -1.04654
-428.933 0.0912295 0 -5.34685
-517.025 0.0647672 0 -1.04098
-514.609 0.0650854 0 -1.04367
-597.445 0.033542 0 3.93579
-591.809 0.0332055 0 3.92846
-422.893 0.0934348 0 -5.35449
-426.92 0.0919671 0 -5.34924
-594.627 0.0333728 0 3.93223
-507.362 0.0660371 0 -1.05283
-424.906 0.0927022 0 -5.35179
-512.193 0.0654031 0 -1.04654
-509.777 0.0657204 0 -1.0496
-591.809 0.0332055 0 3.92846
-586.172 0.0328766 0 3.92028
-418.866 0.0948922 0 -5.36034
-422.893 0.0934348 0 -5.35449
-588.99 0.0330401 0 3.92448
-502.53 0.0666692 0 -1.05985
-420.879 0.0941647 0 -5.35734
-507.362 0.0660371 0 -1.05283
-504.946 0.0663534 0 -1.05625
-586.172 0.0328766 0 3.92028
-580.536 0.0325555 0 3.91126
-414.839 0.0963393 0 -5.36679
-418.866 0.0948922 0 -5.36034
-583.354 0.0327151 0 3.91587
-497.698 0.0672994 0 -1.06759
-416.852 0.095617 0 -5.36349
-502.53 0.0666692 0 -1.05985
-500.114 0.0669845 0 -1.06363
-580.536 0.0325555 0 3.91126
-574.9 0.032242 0 3.90141
-410.812 0.0977763 0 -5.37383
-414.839 0.0963393 0 -5.36679
-577.718 0.0323978 0 3.90644
-492.867 0.0679277 0 -1.07604
-412.825 0.0970591 0 -5.37024
-497.698 0.0672994 0 -1.06759
-495.282 0.0676138 0 -1.07172
-574.9 0.032242 0 3.90141
-569.264 0.0319363 0 3.89074
-406.785 0.099203 0 -5.38147
-410.812 0.0977763 0 -5.37383
-572.082 0.0320882 0 3.89617
-488.035 0.068554 0 -1.08519
-408.798 0.098491 0 -5.37758
-492.867 0.0679277 0 -1.07604
-490.451 0.0682411 0 -1.08053
-569.264 0.0319363 0 3.89074
-563.627 0.0316382 0 3.87925
-402.758 0.10062 0 -5.38968
-406.785 0.099203 0 -5.38147
-566.445 0.0317863 0 3.88509
-483.203 0.0691785 0 -1.09505
-404.771 0.0999126 0 -5.3855
-488.035 0.068554 0 -1.08519
-485.619 0.0688665 0 -1.09003
-563.627 0.0316382 0 3.87925
-557.991 0.0313479 0 3.86695
-398.731 0.102026 0 -5.39847
-402.758 0.10062 0 -5.38968
-560.809 0.0314921 0 3.8732
-478.371 0.069801 0 -1.10559
-400.744 0.101324 0 -5.39401
-483.203 0.0691785 0 -1.09505
-480.787 0.06949 0 -1.10023
-557.991 0.0313479 0 3.86695
-552.354 0.0310652 0 3.85386
-394.704 0.103422 0 -5.40784
-398.731 0.102026 0 -5.39847
-555.173 0.0312056 0 3.8605
-473.54 0.0704216 0 -1.11682
-396.717 0.102725 0 -5.40308
-478.371 0.069801 0 -1.10559
-475.955 0.0701115 0 -1.11112
-552.354 0.0310652 0 3.85386
-546.718 0.0307903 0 3.83997
-390.677 0.104807 0 -5.41776
-394.704 0.103422 0 -5.40784
-549.536 0.0309268 0 3.84701
-468.708 0.0710402 0 -1.12873
-392.69 0.104116 0 -5.41273
-473.54 0.0704216 0 -1.11682
-471.124 0.0707311 0 -1.12269
-546.718 0.0307903 0 3.83997
-541.082 0.030523 0 3.8253
-386.65 0.106183 0 -5.42825
-390.677 0.104807 0 -5.41776
-543.9 0.0306557 0 3.83273
-463.876 0.0716568 0 -1.14131
-388.663 0.105496 0 -5.42294
-468.708 0.0710402 0 -1.12873
-466.292 0.0713488 0 -1.13494
-541.082 0.030523 0 3.8253
-535.445 0.0302634 0 3.80986
-382.623 0.107548 0 -5.43929
-386.65 0.106183 0 -5.42825
-538.263 0.0303923 0 3.81768
-459.044 0.0722715 0 -1.15456
-384.636 0.106866 0 -5.4337
-463.876 0.0716568 0 -1.14131
-461.46 0.0719644 0 -1.14785
-535.445 0.0302634 0 3.80986
-529.809 0.0300114 0 3.79365
-378.596 0.108902 0 -5.45088
-382.623 0.107548 0 -5.43929
-532.627 0.0301365 0 3.80185
-454.212 0.0728842 0 -1.16846
-380.609 0.108226 0 -5.44501
-459.044 0.0722715 0 -1.15456
-456.628 0.0725781 0 -1.16142
-529.809 0.0300114 0 3.79365
-524.172 0.0297671 0 3.77668
-374.569 0.110246 0 -5.46301
-378.596 0.108902 0 -5.45088
-526.99 0.0298883 0 3.78526
-449.38 0.0734948 0 -1.18301
-376.582 0.109576 0 -5.45687
-454.212 0.0728842 0 -1.16846
-451.796 0.0731897 0 -1.17565
-524.172 0.0297671 0 3.77668
-518.536 0.0295304 0 3.75896
-370.542 0.11158 0 -5.47567
-374.569 0.110246 0 -5.46301
-521.354 0.0296478 0 3.76791
-444.549 0.0741033 0 -1.1982
-372.555 0.110915 0 -5.46927
-449.38 0.0734948 0 -1.18301
-446.964 0.0737993 0 -1.19053
-518.536 0.0295304 0 3.75896
-512.899 0.0293012 0 3.7405
-366.514 0.112903 0 -5.48887
-370.542 0.11158 0 -5.47567
-515.717 0.0294148 0 3.74982
-439.717 0.0747098 0 -1.21403
-368.528 0.112243 0 -5.4822
-444.549 0.0741033 0 -1.1982
-442.133 0.0744068 0 -1.20604
-512.899 0.0293012 0 3.7405
-507.263 0.0290795 0 3.7213
-362.487 0.114216 0 -5.50259
-366.514 0.112903 0 -5.48887
-510.081 0.0291894 0 3.73099
-434.885 0.0753141 0 -1.23049
-364.501 0.113561 0 -5.49566
-439.717 0.0747098 0 -1.21403
-437.301 0.0750122 0 -1.22219
-507.263 0.0290795 0 3.7213
-501.626 0.0288654 0 3.70138
-358.46 0.115519 0 -5.51683
-362.487 0.114216 0 -5.50259
-504.444 0.0289715 0 3.71143
-430.053 0.0759163 0 -1.24758
-360.474 0.114869 0 -5.50964
-434.885 0.0753141 0 -1.23049
-432.469 0.0756155 0 -1.23896
-501.626 0.0288654 0 3.70138
-495.989 0.0286587 0 3.68074
-354.433 0.11681 0 -5.53158
-358.46 0.115519 0 -5.51683
-498.808 0.0287611 0 3.69115
-425.221 0.0765162 0 -1.26528
-356.447 0.116166 0 -5.52414
-430.053 0.0759163 0 -1.24758
-427.637 0.0762165 0 -1.25635
-495.989 0.0286587 0 3.68074
-490.353 0.0284595 0 3.65939
-350.406 0.118091 0 -5.54684
-354.433 0.11681 0 -5.53158
-493.171 0.0285581 0 3.67015
-420.389 0.0771139 0 -1.28359
-352.42 0.117452 0 -5.53915
-425.221 0.0765162 0 -1.26528
-422.805 0.0768154 0 -1.27436
-490.353 0.0284595 0 3.65939
-484.716 0.0282676 0 3.63733
-346.379 0.119362 0 -5.5626
-350.406 0.118091 0 -5.54684
-487.534 0.0283626 0 3.64845
-415.557 0.0777094 0 -1.3025
-348.393 0.118728 0 -5.55466
-420.389 0.0771139 0 -1.28359
-417.973 0.0774119 0 -1.29297
-484.716 0.0282676 0 3.63733
-479.079 0.0280831 0 3.61458
-342.352 0.120621 0 -5.57886
-346.379 0.119362 0 -5.5626
-481.898 0.0281744 0 3.62604
-410.725 0.0783025 0 -1.322
-344.365 0.119993 0 -5.57067
-415.557 0.0777094 0 -1.3025
-413.141 0.0780062 0 -1.31217
-479.079 0.0280831 0 3.61458
-473.443 0.0279058 0 3.59115
-338.325 0.12187 0 -5.59561
-342.352 0.120621 0 -5.57886
-476.261 0.0279935 0 3.60295
-405.893 0.0788932 0 -1.34209
-340.338 0.121247 0 -5.58717
-410.725 0.0783025 0 -1.322
-408.309 0.0785981 0 -1.33197
-473.443 0.0279058 0 3.59115
-467.806 0.0277358 0 3.56704
-334.298 0.123109 0 -5.61284
-338.325 0.12187 0 -5.59561
-470.624 0.0278199 0 3.57918
-401.061 0.0794815 0 -1.36277
-336.311 0.122491 0 -5.60416
-405.893 0.0788932 0 -1.34209
-403.477 0.0791876 0 -1.35236
-467.806 0.0277358 0 3.56704
-462.169 0.027573 0 3.54226
-330.27 0.124336 0 -5.63055
-334.298 0.123109 0 -5.61284
-464.988 0.0276535 0 3.55473
-396.229 0.0800673 0 -1.38402
-332.284 0.123724 0 -5.62164
-401.061 0.0794815 0 -1.36277
-398.645 0.0797747 0 -1.37332
-462.169 0.027573 0 3.54226
-456.532 0.0274173 0 3.51681
-326.243 0.125552 0 -5.64873
-330.27 0.124336 0 -5.63055
-459.351 0.0274942 0 3.52962
-391.397 0.0806506 0 -1.40583
-328.257 0.124946 0 -5.63958
-396.229 0.0800673 0 -1.38402
-393.813 0.0803593 0 -1.39485
-456.532 0.0274173 0 3.51681
-450.896 0.0272686 0 3.49072
-322.216 0.126758 0 -5.66738
-326.243 0.125552 0 -5.64873
-453.714 0.0273421 0 3.50385
-386.565 0.0812313 0 -1.42821
-324.23 0.126157 0 -5.658
-391.397 0.0806506 0 -1.40583
-388.981 0.0809413 0 -1.41695
-450.896 0.0272686 0 3.49072
-445.259 0.027127 0 3.46397
-318.189 0.127952 0 -5.6865
-322.216 0.126758 0 -5.66738
-448.077 0.0271969 0 3.47743
-381.733 0.0818093 0 -1.45114
-320.203 0.127357 0 -5.67688
-386.565 0.0812313 0 -1.42821
-384.149 0.0815206 0 -1.4396
-445.259 0.027127 0 3.46397
-439.622 0.0269923 0 3.43659
-314.162 0.129136 0 -5.70606
-318.189 0.127952 0 -5.6865
-442.44 0.0270588 0 3.45036
-376.901 0.0823846 0 -1.47461
-316.175 0.128546 0 -5.69622
-381.733 0.0818093 0 -1.45114
-379.317 0.0820973 0 -1.46281
-439.622 0.0269923 0 3.43659
-433.985 0.0268645 0 3.40858
-310.135 0.130308 0 -5.72608
-314.162 0.129136 0 -5.70606
-436.804 0.0269275 0 3.42267
-372.069 0.0829572 0 -1.49863
-312.148 0.129723 0 -5.71602
-376.901 0.0823846 0 -1.47461
-374.485 0.0826713 0 -1.48655
-433.985 0.0268645 0 3.40858
-428.348 0.0267435 0 3.37995
-306.108 0.131469 0 -5.74654
-310.135 0.130308 0 -5.72608
-431.167 0.0268031 0 3.39434
-367.237 0.0835269 0 -1.52318
-308.121 0.13089 0 -5.73626
-372.069 0.0829572 0 -1.49863
-369.653 0.0832424 0 -1.51084
-428.348 0.0267435 0 3.37995
-422.711 0.0266292 0 3.35071
-302.08 0.132619 0 -5.76744
-306.108 0.131469 0 -5.74654
-425.53 0.0266855 0 3.36541
-362.404 0.0840937 0 -1.54825
-304.094 0.132046 0 -5.75694
-367.237 0.0835269 0 -1.52318
-364.821 0.0838107 0 -1.53565
-422.711 0.0266292 0 3.35071
-417.074 0.0265216 0 3.32086
-298.053 0.133758 0 -5.78877
-302.08 0.132619 0 -5.76744
-419.893 0.0265745 0 3.33586
-357.572 0.0846576 0 -1.57385
-300.067 0.13319 0 -5.77805
-362.404 0.0840937 0 -1.54825
-359.988 0.084376 0 -1.56099
-417.074 0.0265216 0 3.32086
-411.437 0.0264205 0 3.29041
-294.026 0.134885 0 -5.81053
-298.053 0.133758 0 -5.78877
-414.256 0.0264702 0 3.30571
-352.74 0.0852184 0 -1.59995
-296.04 0.134323 0 -5.7996
-357.572 0.0846576 0 -1.57385
-355.156 0.0849384 0 -1.58684
-411.437 0.0264205 0 3.29041
-405.8 0.0263259 0 3.25937
-289.999 0.136001 0 -5.83271
-294.026 0.134885 0 -5.81053
-408.619 0.0263724 0 3.27496
-347.908 0.0857761 0 -1.62656
-292.012 0.135444 0 -5.82157
-352.74 0.0852184 0 -1.59995
-350.324 0.0854976 0 -1.6132
-405.8 0.0263259 0 3.25937
-400.163 0.0262378 0 3.22775
-285.972 0.137105 0 -5.85531
-289.999 0.136001 0 -5.83271
-402.982 0.0262811 0 3.24363
-343.076 0.0863306 0 -1.65367
-287.985 0.136554 0 -5.84396
-347.908 0.0857761 0 -1.62656
-345.492 0.0860537 0 -1.64006
-400.163 0.0262378 0 3.22775
-394.526 0.026156 0 3.19556
-281.944 0.138198 0 -5.87831
-285.972 0.137105 0 -5.85531
-397.345 0.0261961 0 3.21173
-338.244 0.0868818 0 -1.68127
-283.958 0.137653 0 -5.86676
-343.076 0.0863306 0 -1.65367
-340.66 0.0866066 0 -1.66741
-394.526 0.026156 0 3.19556
-388.889 0.0260805 0 3.16281
-277.917 0.139279 0 -5.90172
-281.944 0.138198 0 -5.87831
-391.708 0.0261175 0 3.17925
-333.411 0.0874297 0 -1.70936
-279.931 0.13874 0 -5.88997
-338.244 0.0868818 0 -1.68127
-335.828 0.0871562 0 -1.69525
-388.889 0.0260805 0 3.16281
-383.252 0.0260111 0 3.12949
-273.89 0.140348 0 -5.92553
-277.917 0.139279 0 -5.90172
-386.071 0.026045 0 3.14622
-328.579 0.0879741 0 -1.73792
-275.903 0.139815 0 -5.91357
-333.411 0.0874297 0 -1.70936
-330.995 0.0877023 0 -1.72358
-383.252 0.0260111 0 3.12949
-377.615 0.0259478 0 3.09563
-269.863 0.141406 0 -5.94973
-273.89 0.140348 0 -5.92553
-380.434 0.0259787 0 3.11263
-323.747 0.0885151 0 -1.76695
-271.876 0.140878 0 -5.93758
-328.579 0.0879741 0 -1.73792
-326.163 0.0882451 0 -1.75238
-377.615 0.0259478 0 3.09563
-371.978 0.0258904 0 3.06123
-265.835 0.142451 0 -5.97431
-269.863 0.141406 0 -5.94973
-374.796 0.0259184 0 3.07849
-318.915 0.0890524 0 -1.79645
-267.849 0.14193 0 -5.96197
-323.747 0.0885151 0 -1.76695
-321.331 0.0887842 0 -1.78164
-371.978 0.0258904 0 3.06123
-366.341 0.025839 0 3.02629
-261.808 0.143485 0 -5.99928
-265.835 0.142451 0 -5.97431
-369.159 0.025864 0 3.04382
-314.083 0.0895861 0 -1.8264
-263.822 0.14297 0 -5.98675
-318.915 0.0890524 0 -1.79645
-316.499 0.0893198 0 -1.81137
-366.341 0.025839 0 3.02629
-360.703 0.0257933 0 2.99083
-257.781 0.144507 0 -6.02462
-261.808 0.143485 0 -5.99928
-363.522 0.0258154 0 3.00862
-309.25 0.090116 0 -1.8568
-259.795 0.143998 0 -6.0119
-314.083 0.0895861 0 -1.8264
-311.666 0.0898516 0 -1.84155
-360.703 0.0257933 0 2.99083
-355.066 0.0257533 0 2.95485
-253.754 0.145517 0 -6.05032
-257.781 0.144507 0 -6.02462
-357.885 0.0257726 0 2.9729
-304.418 0.0906421 0 -1.88765
-255.767 0.145013 0 -6.03742
-309.25 0.090116 0 -1.8568
-306.834 0.0903796 0 -1.87217
-355.066 0.0257533 0 2.95485
-349.429 0.025719 0 2.91837
-249.726 0.146514 0 -6.0764
-253.754 0.145517 0 -6.05032
-352.248 0.0257355 0 2.93667
-299.586 0.0911642 0 -1.91893
-251.74 0.146017 0 -6.06332
-304.418 0.0906421 0 -1.88765
-302.002 0.0909037 0 -1.90324
-349.429 0.025719 0 2.91837
-343.792 0.0256901 0 2.88138
-245.699 0.147499 0 -6.10283
-249.726 0.146514 0 -6.0764
-346.61 0.0257038 0 2.89993
-294.753 0.0916823 0 -1.95064
-247.713 0.147008 0 -6.08957
-299.586 0.0911642 0 -1.91893
-297.169 0.0914238 0 -1.93473
-343.792 0.0256901 0 2.88138
-338.154 0.0256666 0 2.8439
-241.672 0.148472 0 -6.12961
-245.699 0.147499 0 -6.10283
-340.973 0.0256777 0 2.8627
-289.921 0.0921963 0 -1.98278
-243.685 0.147987 0 -6.11618
-294.753 0.0916823 0 -1.95064
-292.337 0.0919398 0 -1.96666
-338.154 0.0256666 0 2.8439
-332.517 0.0256483 0 2.80594
-237.644 0.149433 0 -6.15674
-241.672 0.148472 0 -6.12961
-335.336 0.0256568 0 2.82498
-285.089 0.092706 0 -2.01532
-239.658 0.148954 0 -6.14313
-289.921 0.0921963 0 -1.98278
-287.505 0.0924517 0 -1.999
-332.517 0.0256483 0 2.80594
-326.88 0.0256352 0 2.7675
-233.617 0.15038 0 -6.18421
-237.644 0.149433 0 -6.15674
-329.698 0.0256411 0 2.78678
-280.256 0.0932115 0 -2.04828
-235.631 0.149908 0 -6.17043
-285.089 0.092706 0 -2.01532
-282.672 0.0929593 0 -2.03175
-326.88 0.0256352 0 2.7675
-321.242 0.0256272 0 2.72859
-229.59 0.151316 0 -6.21201
-233.617 0.15038 0 -6.18421
-324.061 0.0256306 0 2.7481
-275.424 0.0937125 0 -2.08164
-231.604 0.15085 0 -6.19807
-280.256 0.0932115 0 -2.04828
-277.84 0.0934625 0 -2.06491
-321.242 0.0256273 0 2.72859
-315.605 0.0256242 0 2.68922
-225.563 0.152238 0 -6.24014
-229.59 0.151316 0 -6.21201
-318.424 0.0256251 0 2.70896
-270.591 0.0942089 0 -2.11539
-227.576 0.151779 0 -6.22604
-275.424 0.0937125 0 -2.08164
-273.008 0.0939613 0 -2.09847
-315.605 0.0256242 0 2.68922
-309.968 0.025626 0 2.6494
-221.535 0.153148 0 -6.2686
-225.563 0.152238 0 -6.24014
-312.786 0.0256245 0 2.66937
-265.759 0.0947008 0 -2.14953
-223.549 0.152695 0 -6.25433
-270.591 0.0942089 0 -2.11539
-268.175 0.0944555 0 -2.13241
-309.968 0.025626 0 2.6494
-304.33 0.0256324 0 2.60913
-217.508 0.154045 0 -6.29737
-221.535 0.153148 0 -6.2686
-307.149 0.0256286 0 2.62932
-260.927 0.095188 0 -2.18405
-219.522 0.153598 0 -6.28294
-265.759 0.0947008 0 -2.14953
-263.343 0.094945 0 -2.16674
-304.33 0.0256324 0 2.60913
-298.693 0.0256436 0 2.56843
-213.481 0.154929 0 -6.32645
-217.508 0.154045 0 -6.29737
-301.511 0.0256374 0 2.58884
-256.094 0.0956703 0 -2.21895
-215.494 0.154489 0 -6.31187
-260.927 0.095188 0 -2.18405
-258.51 0.0954297 0 -2.20145
-298.693 0.0256436 0 2.56843
-293.055 0.0256591 0 2.52731
-209.453 0.1558 0 -6.35584
-213.481 0.154929 0 -6.32645
-295.874 0.0256508 0 2.54792
-251.262 0.0961477 0 -2.25421
-211.467 0.155367 0 -6.34111
-256.094 0.0956703 0 -2.21895
-253.678 0.0959096 0 -2.23653
-293.055 0.0256591 0 2.52731
-287.418 0.0256791 0 2.48576
-205.426 0.156658 0 -6.38553
-209.453 0.1558 0 -6.35584
-290.236 0.0256686 0 2.50658
-246.429 0.0966201 0 -2.28983
-207.44 0.156231 0 -6.37065
-251.262 0.0961477 0 -2.25421
-248.845 0.0963845 0 -2.27197
-287.418 0.0256791 0 2.48576
-281.78 0.0257033 0 2.4438
-201.399 0.157503 0 -6.41552
-205.426 0.156658 0 -6.38553
-284.599 0.0256907 0 2.46483
-241.597 0.0970873 0 -2.3258
-203.412 0.157082 0 -6.40049
-246.429 0.0966201 0 -2.28983
-244.013 0.0968543 0 -2.30777
-281.78 0.0257033 0 2.4438
-276.143 0.0257316 0 2.40143
-197.371 0.158334 0 -6.44579
-201.399 0.157503 0 -6.41552
-278.961 0.0257169 0 2.42267
-236.764 0.0975493 0 -2.36212
-199.385 0.15792 0 -6.43062
-241.597 0.0970873 0 -2.3258
-239.18 0.097319 0 -2.34392
-276.143 0.0257316 0 2.40143
-270.505 0.0257639 0 2.35867
-193.344 0.159152 0 -6.47634
-197.371 0.158334 0 -6.44579
-273.324 0.0257473 0 2.3801
-231.932 0.0980059 0 -2.39878
-195.357 0.158745 0 -6.46103
-236.764 0.0975493 0 -2.36212
-234.348 0.0977783 0 -2.38041
-270.505 0.0257639 0 2.35867
-264.867 0.0258001 0 2.31553
-189.316 0.159957 0 -6.50717
-193.344 0.159152 0 -6.47634
-267.686 0.0257815 0 2.33715
-227.099 0.0984571 0 -2.43577
-191.33 0.159556 0 -6.49172
-231.932 0.0980059 0 -2.39878
-229.515 0.0982322 0 -2.41724
-264.867 0.0258001 0 2.31553
-259.23 0.0258401 0 2.272
-185.289 0.160747 0 -6.53828
-189.316 0.159957 0 -6.50717
-262.049 0.0258196 0 2.29381
-222.267 0.0989026 0 -2.47309
-187.303 0.160354 0 -6.52269
-227.099 0.0984571 0 -2.43577
-224.683 0.0986806 0 -2.45439
-259.23 0.0258401 0 2.272
-253.592 0.0258836 0 2.2281
-181.262 0.161525 0 -6.56964
-185.289 0.160747 0 -6.53828
-256.411 0.0258614 0 2.2501
-217.434 0.0993425 0 -2.51073
-183.275 0.161138 0 -6.55393
-222.267 0.0989026 0 -2.47309
-219.85 0.0991233 0 -2.49187
-253.592 0.0258836 0 2.2281
-247.954 0.0259307 0 2.18384
-177.234 0.162288 0 -6.60127
-181.262 0.161525 0 -6.56964
-250.773 0.0259067 0 2.20602
-212.601 0.0997766 0 -2.54867
-179.248 0.161908 0 -6.58543
-217.434 0.0993425 0 -2.51073
-215.018 0.0995603 0 -2.52966
-247.954 0.0259307 0 2.18384
-242.317 0.0259811 0 2.13922
-173.207 0.163037 0 -6.63315
-177.234 0.162288 0 -6.60127
-245.135 0.0259555 0 2.16158
-207.769 0.100205 0 -2.58693
-175.22 0.162664 0 -6.61718
-212.601 0.0997766 0 -2.54867
-210.185 0.0999914 0 -2.56776
-242.317 0.0259811 0 2.13922
-236.679 0.0260348 0 2.09426
-169.179 0.163773 0 -6.66528
-173.207 0.163037 0 -6.63315
-239.498 0.0260076 0 2.11678
-202.936 0.100627 0 -2.62548
-171.193 0.163407 0 -6.64919
-207.769 0.100205 0 -2.58693
-205.353 0.100417 0 -2.60616
-236.679 0.0260348 0 2.09426
-231.041 0.0260915 0 2.04896
-165.152 0.164494 0 -6.69766
-169.179 0.163773 0 -6.66528
-233.86 0.0260628 0 2.07165
-198.104 0.101043 0 -2.66432
-167.166 0.164135 0 -6.68144
-202.936 0.100627 0 -2.62548
-200.52 0.100836 0 -2.64486
-231.041 0.0260915 0 2.04896
-225.403 0.0261512 0 2.00332
-161.124 0.165201 0 -6.73027
-165.152 0.164494 0 -6.69766
-228.222 0.026121 0 2.02618
-193.271 0.101453 0 -2.70344
-163.138 0.164849 0 -6.71393
-198.104 0.101043 0 -2.66432
-195.687 0.101249 0 -2.68384
-225.403 0.0261512 0 2.00332
-219.765 0.0262138 0 1.95736
-157.097 0.165894 0 -6.76311
-161.124 0.165201 0 -6.73027
-222.584 0.0261821 0 1.98038
-188.438 0.101856 0 -2.74284
-159.111 0.165549 0 -6.74666
-193.271 0.101453 0 -2.70344
-190.855 0.101655 0 -2.72311
-219.765 0.0262138 0 1.95736
-214.128 0.026279 0 1.91109
-153.07 0.166572 0 -6.79617
-157.097 0.165894 0 -6.76311
-216.947 0.0262461 0 1.93427
-183.606 0.102253 0 -2.78251
-155.083 0.166235 0 -6.77961
-188.438 0.101856 0 -2.74284
-186.022 0.102055 0 -2.76264
-214.128 0.026279 0 1.91109
-208.49 0.0263468 0 1.86451
-149.042 0.167236 0 -6.82945
-153.07 0.166572 0 -6.79617
-211.309 0.0263126 0 1.88784
-178.773 0.102643 0 -2.82245
-151.056 0.166906 0 -6.81279
-183.606 0.102253 0 -2.78251
-181.189 0.102449 0 -2.80245
-208.49 0.0263468 0 1.86451
-202.852 0.026417 0 1.81763
-145.015 0.167885 0 -6.86295
-149.042 0.167236 0 -6.82945
-205.671 0.0263816 0 1.84111
-173.94 0.103026 0 -2.86264
-147.028 0.167562 0 -6.84618
-178.773 0.102643 0 -2.82245
-176.356 0.102835 0 -2.84251
-202.852 0.026417 0 1.81763
-197.214 0.0264895 0 1.77046
-140.987 0.16852 0 -6.89666
-145.015 0.167885 0 -6.86295
-200.033 0.026453 0 1.79409
-169.107 0.103403 0 -2.90308
-143.001 0.168204 0 -6.87978
-173.94 0.103026 0 -2.86264
-171.524 0.103215 0 -2.88283
-197.214 0.0264895 0 1.77046
-191.576 0.0265641 0 1.72301
-136.96 0.169139 0 -6.93057
-140.987 0.16852 0 -6.89666
-194.395 0.0265266 0 1.74677
-164.275 0.103772 0 -2.94376
-138.973 0.168831 0 -6.91359
-169.107 0.103403 0 -2.90308
-166.691 0.103589 0 -2.92339
-191.576 0.0265641 0 1.72301
-185.938 0.0266408 0 1.67529
-132.932 0.169744 0 -6.96467
-136.96 0.169139 0 -6.93057
-188.757 0.0266022 0 1.69918
-159.442 0.104135 0 -2.98468
-134.946 0.169443 0 -6.94759
-164.275 0.103772 0 -2.94376
-161.858 0.103955 0 -2.96419
-185.938 0.0266408 0 1.67529
-180.3 0.0267192 0 1.62729
-128.905 0.170333 0 -6.99896
-132.932 0.169744 0 -6.96467
-183.119 0.0266798 0 1.65132
-154.609 0.10449 0 -3.02582
-130.918 0.170041 0 -6.98179
-159.442 0.104135 0 -2.98468
-157.025 0.104313 0 -3.00522
-180.3 0.0267192 0 1.62729
-174.662 0.0267994 0 1.57904
-124.877 0.170908 0 -7.03344
-128.905 0.170333 0 -6.99896
-177.481 0.0267591 0 1.6032
-149.776 0.104838 0 -3.06719
-126.891 0.170623 0 -7.01618
-154.609 0.10449 0 -3.02582
-152.193 0.104665 0 -3.04648
-174.662 0.0267995 0 1.57904
-169.024 0.0268812 0 1.53054
-120.85 0.171467 0 -7.0681
-124.877 0.170908 0 -7.03344
-171.843 0.0268401 0 1.55482
-144.943 0.105178 0 -3.10877
-122.863 0.171189 0 -7.05075
-149.776 0.104838 0 -3.06719
-147.36 0.105009 0 -3.08795
-169.024 0.0268812 0 1.53054
-163.386 0.0269645 0 1.4818
-116.822 0.17201 0 -7.10293
-120.85 0.171467 0 -7.0681
-166.205 0.0269227 0 1.5062
-140.111 0.105511 0 -3.15056
-118.836 0.171741 0 -7.08549
-144.943 0.105178 0 -3.10877
-142.527 0.105345 0 -3.12964
-163.386 0.0269645 0 1.4818
-157.748 0.027049 0 1.43282
-112.795 0.172538 0 -7.13793
-116.822 0.17201 0 -7.10293
-160.567 0.0270066 0 1.45733
-135.278 0.105836 0 -3.19255
-114.808 0.172276 0 -7.12041
-140.111 0.105511 0 -3.15056
-137.694 0.105674 0 -3.17153
-157.748 0.027049 0 1.43282
-152.109 0.0271346 0 1.38361
-108.767 0.173051 0 -7.17308
-112.795 0.172538 0 -7.13793
-154.928 0.0270916 0 1.40824
-130.445 0.106153 0 -3.23473
-110.781 0.172797 0 -7.15549
-135.278 0.105836 0 -3.19255
-132.861 0.105995 0 -3.21362
-152.109 0.0271346 0 1.38361
-146.471 0.0272213 0 1.33419
-104.739 0.173548 0 -7.2084
-108.767 0.173051 0 -7.17308
-149.29 0.0271779 0 1.35893
-125.612 0.106462 0 -3.2771
-106.753 0.173301 0 -7.19072
-130.445 0.106153 0 -3.23473
-128.028 0.106308 0 -3.2559
-146.471 0.0272213 0 1.33419
-140.833 0.0273088 0 1.28456
-100.712 0.174029 0 -7.24386
-104.739 0.173548 0 -7.2084
-143.652 0.027265 0 1.3094
-120.779 0.106763 0 -3.31966
-102.726 0.17379 0 -7.22611
-125.612 0.106462 0 -3.2771
-123.195 0.106613 0 -3.29836
-140.833 0.0273088 0 1.28456
-135.195 0.027397 0 1.23472
-96.6843 0.174496 0 -7.27947
-100.712 0.174029 0 -7.24386
-138.014 0.0273528 0 1.25966
-115.946 0.107056 0 -3.36238
-98.6981 0.174264 0 -7.26165
-120.779 0.106763 0 -3.31966
-118.363 0.10691 0 -3.341
-135.195 0.027397 0 1.23472
-129.556 0.0274855 0 1.18469
-92.6567 0.174949 0 -7.31522
-96.6843 0.174496 0 -7.27947
-132.376 0.0274412 0 1.20973
-111.113 0.107341 0 -3.40527
-94.6705 0.174724 0 -7.29733
-115.946 0.107056 0 -3.36238
-113.53 0.1072 0 -3.3838
-129.556 0.0274855 0 1.18469
-123.918 0.0275745 0 1.13448
-88.6291 0.175391 0 -7.35111
-92.6567 0.174949 0 -7.31522
-126.737 0.02753 0 1.15961
-106.28 0.10762 0 -3.44833
-90.6429 0.175171 0 -7.33315
-111.113 0.107341 0 -3.40527
-108.697 0.107481 0 -3.42678
-123.918 0.0275745 0 1.13448
-118.28 0.0276624 0 1.08408
-84.6015 0.175823 0 -7.38713
-88.6291 0.175391 0 -7.35111
-121.099 0.0276186 0 1.1093
-101.447 0.107892 0 -3.49154
-86.6153 0.175608 0 -7.3691
-106.28 0.10762 0 -3.44833
-103.864 0.107757 0 -3.46991
-118.28 0.0276624 0 1.08408
-112.641 0.0277504 0 1.03352
-80.5739 0.176249 0 -7.42329
-84.6015 0.175823 0 -7.38713
-115.461 0.0277066 0 1.05882
-96.6141 0.10816 0 -3.53492
-82.5877 0.176037 0 -7.40519
-101.447 0.107892 0 -3.49154
-99.0306 0.108027 0 -3.51321
-112.641 0.0277504 0 1.03352
-107.003 0.0278344 0 0.982799
-76.5463 0.176672 0 -7.45959
-80.5739 0.176249 0 -7.42329
-109.822 0.0277931 0 1.00818
-91.7811 0.108425 0 -3.57845
-78.5601 0.176461 0 -7.44142
-96.6141 0.10816 0 -3.53492
-94.1976 0.108292 0 -3.55666
-107.003 0.0278344 0 0.982799
-101.364 0.0279161 0 0.931921
-72.5186 0.177086 0 -7.49603
-76.5463 0.176672 0 -7.45959
-104.184 0.0278752 0 0.95738
-86.9479 0.108687 0 -3.62215
-74.5324 0.17688 0 -7.47779
-91.7811 0.108425 0 -3.57845
-89.3645 0.108557 0 -3.60028
-101.364 0.0279161 0 0.931921
-95.7255 0.0279912 0 0.880893
-68.4911 0.177468 0 -7.53259
-72.5186 0.177086 0 -7.49603
-98.545 0.0279569 0 0.906423
-82.1147 0.108946 0 -3.66601
-70.5048 0.177284 0 -7.5143
-86.9479 0.108687 0 -3.62215
-84.5313 0.108816 0 -3.64406
-95.7255 0.0279912 0 0.880893
-90.0864 0.0280498 0 0.829719
-64.4636 0.177756 0 -7.56923
-68.4911 0.177468 0 -7.53259
-92.906 0.0280159 0 0.855332
-77.2815 0.109181 0 -3.71
-66.4773 0.177629 0 -7.55091
-82.1147 0.108946 0 -3.66601
-79.6981 0.10907 0 -3.68799
-90.0864 0.0280498 0 0.829719
-84.4469 0.0281287 0 0.778409
-60.4362 0.177774 0 -7.60575
-64.4636 0.177756 0 -7.56923
-87.2667 0.0281039 0 0.804068
-72.4482 0.109369 0 -3.75402
-62.4498 0.177818 0 -7.58752
-77.2815 0.109181 0 -3.71
-74.8648 0.109281 0 -3.73202
-84.4469 0.0281287 0 0.778409
-78.8073 0.0281014 0 0.726912
-56.4091 0.177188 0 -7.64181
-60.4362 0.177774 0 -7.60575
-81.6271 0.0280797 0 0.752721
-67.6153 0.109375 0 -3.79785
-58.4226 0.177587 0 -7.62387
-72.4482 0.109369 0 -3.75402
-70.0316 0.109411 0 -3.77599
-78.8073 0.0281014 0 0.726912
-73.1675 0.0283653 0 0.675336
-52.3826 0.175182 0 -7.67641
-56.4091 0.177188 0 -7.64181
-75.9874 0.0283033 0 0.701069
-62.7832 0.109064 0 -3.84083
-54.3957 0.176444 0 -7.65939
-67.6153 0.109375 0 -3.79785
-65.1991 0.109259 0 -3.81949
-73.1675 0.0283653 0 0.675336
-67.5302 0.0279782 0 0.623306
-48.3566 0.170487 0 -7.70797
-52.3826 0.175182 0 -7.67641
-70.3483 0.0279617 0 0.649536
-57.9539 0.107834 0 -3.88181
-50.3696 0.17329 0 -7.69271
-62.7832 0.109064 0 -3.84083
-60.3679 0.108639 0 -3.86171
-67.5302 0.0279782 0 0.623306
-61.8967 0.0296139 0 0.571574
-44.3325 0.160024 0 -7.7325
-48.3566 0.170487 0 -7.70797
-64.7128 0.029155 0 0.5971
-53.1297 0.105134 0 -3.91792
-46.344 0.166233 0 -7.7215
-57.9539 0.107834 0 -3.88181
-55.5411 0.10664 0 -3.90064
-61.8967 0.0296139 0 0.571574
-56.2818 0.0275241 0 0.518153
-40.3081 0.140251 0 -7.74462
-44.3325 0.160024 0 -7.7325
-59.0857 0.027439 0 0.545726
-48.3188 0.0988091 0 -3.94457
-42.3209 0.151705 0 -7.74053
-53.1297 0.105134 0 -3.91792
-50.7216 0.102776 0 -3.93309
-56.2818 0.0275241 0 0.518153
-50.6913 0.0368365 0 0.467111
-36.2879 0.101195 0 -7.73114
-40.3081 0.140251 0 -7.74462
-53.4829 0.0340968 0 0.490962
-43.529 0.0869946 0 -3.95209
-38.2964 0.12368 0 -7.74237
-48.3188 0.0988091 0 -3.94457
-45.9214 0.0932593 0 -3.95105
-50.6913 0.0368365 0 0.467111
-45.1895 0.026409 0 0.409306
-32.2565 0.0376846 0 -7.67889
-36.2879 0.101195 0 -7.73114
-47.9245 0.0257844 0 0.441809
-38.7892 0.0633051 0 -3.92484
-34.2763 0.0737602 0 -7.71072
-43.529 0.0869946 0 -3.95209
-41.149 0.0782813 0 -3.94555
-45.1895 0.026409 0 0.409306
-39.7911 0.0738216 0 0.363403
-28.2268 -0.078577 0 -7.55365
-32.2565 0.0376846 0 -7.67889
-42.4747 0.0603262 0 0.378569
-34.1149 0.0220806 0 -3.83803
-30.2378 -0.0139803 0 -7.62878
-38.7892 0.0633051 0 -3.92484
-36.4462 0.0425591 0 -3.88823
-39.7911 0.0738216 0 0.363403
-34.7331 0.0243653 0 0.291524
-24.117 -0.229285 0 -7.34289
-28.2268 -0.078577 0 -7.55365
-37.2055 0.0196038 0 0.343124
-29.5943 -0.0518013 0 -3.64553
-26.1939 -0.145722 0 -7.45893
-34.1149 0.0220806 0 -3.83803
-31.8211 -0.00327746 0 -3.76583
-34.7331 0.0243653 0 0.291524
-30.0317 0.248126 0 0.270001
-19.9508 -0.479991 0 -6.99523
-24.117 -0.229285 0 -7.34289
-32.3225 0.189301 0 0.244493
-25.2068 -0.172842 0 -3.31458
-22.0303 -0.352556 0 -7.19092
-29.5943 -0.0518013 0 -3.64553
-27.4028 -0.119194 0 -3.48623
-30.0317 0.248126 0 0.270001
-26.4349 0.0221445 0 0.161752
-15.3628 -0.598063 0 -6.62073
-19.9508 -0.479991 0 -6.99523
-28.0776 -0.00841726 0 0.284606
-21.1754 -0.362181 0 -2.73849
-17.7575 -0.545868 0 -6.7989
-25.2068 -0.172842 0 -3.31458
-23.0956 -0.227853 0 -3.09749
-26.4349 0.0221445 0 0.161752
-24.0443 0.906819 0 0.365841
-10.3877 -0.583135 0 -6.3983
-15.3628 -0.598063 0 -6.62073
-24.9657 0.761948 0 0.0556599
-16.9875 -0.614294 0 -2.1112
-12.8959 -0.700126 0 -6.46462
-21.1754 -0.362181 0 -2.73849
-19.2239 -0.53959 0 -2.34827
-24.0443 0.906819 0 0.365842
-25.8748 -0.766312 0 1.04019
-4.03163 1.47969 0 -7.53066
-10.3877 -0.583135 0 -6.3983
-24.454 -0.507867 0 0.796721
-12.4096 -0.495109 0 -1.7443
-7.50859 0.131745 0 -6.67739
-16.9875 -0.614294 0 -2.1112
-14.6476 -0.572612 0 -1.97989
-25.8748 -0.766312 0 1.04019
-35.9755 -3.88619 0 6.57339
1.0471 9.74219 0 -11.5039
-4.03163 1.47969 0 -7.53066
-28.6123 1.16002 0 1.96837
-1.38288 5.48973 0 -6.64579
-1.08672 3.6581 0 -8.9678
-12.4096 -0.495109 0 -1.7443
-8.70808 0.542643 0 -2.69365
-35.9755 -3.88619 0 6.57339
-5.22708 52.3195 0 -31.1244
-0.583278 40.4594 0 -11.3303
1.0471 9.74219 0 -11.5039
-37.5934 -9.20764 0 3.01439
3.76463 51.2137 0 -18.389
1.78854 22.4262 0 -13.4561
-1.38288 5.48973 0 -6.64579
3.67008 17.697 0 -12.3226
-743 -223.048 0 -29.7929
-786.638 -85.0566 0 -43.4872
-465.22 -81.3573 0 -1.30746
-428.355 -128.553 0 39.3085
-771.91 -160.37 0 -50.5154
-616.003 -93.7457 0 -18.0067
-453.391 -103.31 0 14.7719
-608.271 -182.582 0 6.13461
-601.919 -130.137 0 -5.75548
-786.638 -85.0566 0 -43.4872
-798.414 -25.3607 0 -20.5893
-474.052 -35.7005 0 -13.9082
-465.22 -81.3573 0 -1.30746
-797.735 -43.7623 0 -31.2989
-638.008 -36.7413 0 -20.9678
-469.161 -56.8521 0 -9.43653
-616.003 -93.7457 0 -18.0067
-632.992 -63.1062 0 -23.6024
-798.414 -25.3607 0 -20.5893
-788.375 -4.62345 0 -7.49982
-478.574 -12.6771 0 -16.2966
-474.052 -35.7005 0 -13.9082
-792.387 -12.5264 0 -12.0066
-636.511 -10.7438 0 -13.9874
-478.362 -21.8622 0 -16.0954
-638.008 -36.7413 0 -20.9678
-637.702 -19.9683 0 -16.5251
-788.375 -4.62345 0 -7.49982
-781.485 -0.13013 0 -4.53679
-474.956 -2.01663 0 -15.0168
-478.574 -12.6771 0 -16.2966
-785.323 -1.35552 0 -5.51854
-630.464 -0.778419 0 -10.5367
-476.597 -6.07276 0 -15.5825
-636.511 -10.7438 0 -13.9874
-633.922 -4.65619 0 -12.1338
-781.485 -0.13013 0 -4.53679
-774.587 1.54159 0 -4.3457
-470.707 1.08254 0 -14.1365
-474.956 -2.01663 0 -15.0168
-777.477 0.949774 0 -4.1534
-623.961 1.63477 0 -9.42296
-473.187 0.0475885 0 -14.5797
-630.464 -0.778419 0 -10.5367
-626.934 1.07193 0 -9.62478
-774.587 1.54159 0 -4.3457
-769.819 1.25548 0 -5.26844
-465.8 1.83264 0 -13.5353
-470.707 1.08254 0 -14.1365
-772.277 1.4855 0 -4.83267
-618.547 1.93931 0 -9.45256
-468.018 1.68064 0 -13.7482
-623.961 1.63477 0 -9.42296
-621.197 1.87929 0 -9.43454
-769.819 1.25548 0 -5.26844
-765.211 0.962816 0 -6.03277
-461.839 1.44502 0 -13.3247
-465.8 1.83264 0 -13.5353
-767.372 1.11773 0 -5.65166
-613.91 1.42433 0 -9.77251
-463.825 1.68242 0 -13.4218
-618.547 1.93931 0 -9.45256
-616.106 1.74576 0 -9.57037
-765.211 0.962816 0 -6.03277
-761.115 0.563379 0 -6.64366
-458.267 0.977082 0 -13.212
-461.839 1.44502 0 -13.3247
-763.187 0.750378 0 -6.38275
-609.893 0.921045 0 -10.0913
-459.941 1.21856 0 -13.2486
-613.91 1.42433 0 -9.77251
-611.857 1.14844 0 -9.95703
-761.115 0.563379 0 -6.64366
-757.021 0.31969 0 -6.98971
-455.234 0.536874 0 -13.1769
-458.267 0.977082 0 -13.212
-759.038 0.430254 0 -6.8368
-606.23 0.504274 0 -10.3151
-456.729 0.737616 0 -13.1952
-609.893 0.921045 0 -10.0913
-608.021 0.701684 0 -10.2099
-757.021 0.31969 0 -6.98971
-753.018 0.145212 0 -7.18482
-452.436 0.249014 0 -13.1475
-455.234 0.536874 0 -13.1769
-755.027 0.220898 0 -7.10753
-602.783 0.238906 0 -10.4421
-453.796 0.379235 0 -13.1595
-606.23 0.504274 0 -10.3151
-604.49 0.352663 0 -10.3926
-753.018 0.145212 0 -7.18482
-748.999 0.0500246 0 -7.26066
-449.835 0.0615302 0 -13.1245
-452.436 0.249014 0 -13.1475
-751.003 0.0913222 0 -7.23224
-599.45 0.0734901 0 -10.4984
-451.126 0.142082 0 -13.1372
-602.783 0.238906 0 -10.4421
-601.106 0.146441 0 -10.4762
-748.999 0.0500246 0 -7.26066
-744.99 -0.00529856 0 -7.27512
-447.319 -0.0420648 0 -13.0965
-449.835 0.0615302 0 -13.1245
-746.997 0.0176561 0 -7.27459
-596.179 -0.0170479 0 -10.5078
-448.566 0.00237309 0 -13.1105
-599.45 0.0734901 0 -10.4984
-597.81 0.020462 0 -10.5083
-744.99 -0.00529856 0 -7.27512
-740.972 -0.0320516 0 -7.25097
-444.859 -0.0985323 0 -13.0666
-447.319 -0.0420648 0 -13.0965
-742.98 -0.0209617 0 -7.26604
-592.936 -0.0650373 0 -10.4902
-446.086 -0.0753999 0 -13.082
-596.179 -0.0170479 0 -10.5078
-594.555 -0.0449456 0 -10.5013
-740.972 -0.0320516 0 -7.25097
-736.952 -0.0447436 0 -7.20893
-442.422 -0.124736 0 -13.0342
-444.859 -0.0985323 0 -13.0666
-738.963 -0.0398512 0 -7.23167
-589.707 -0.0872083 0 -10.4576
-443.638 -0.114203 0 -13.0505
-592.936 -0.0650373 0 -10.4902
-591.32 -0.0785718 0 -10.4753
-736.952 -0.0447436 0 -7.20893
-732.93 -0.0491343 0 -7.15748
-439.999 -0.13551 0 -13.0009
-442.422 -0.124736 0 -13.0342
-734.941 -0.0475847 0 -7.18385
-586.483 -0.0960785 0 -10.4175
-441.21 -0.131643 0 -13.0176
-589.707 -0.0872083 0 -10.4576
-588.095 -0.0928015 0 -10.4381
-732.93 -0.0491343 0 -7.15748
-728.906 -0.0497257 0 -7.10262
-437.58 -0.137717 0 -12.9672
-439.999 -0.13551 0 -13.0009
-730.918 -0.049789 0 -7.13031
-583.262 -0.09789 0 -10.3742
-438.789 -0.137306 0 -12.984
-586.483 -0.0960785 0 -10.4175
-584.873 -0.0976071 0 -10.3962
-728.906 -0.0497257 0 -7.10262
-724.881 -0.0483865 0 -7.0467
-435.163 -0.136005 0 -12.9336
-437.58 -0.137717 0 -12.9672
-726.893 -0.0491948 0 -7.07467
-580.041 -0.0964493 0 -10.3299
-436.371 -0.137218 0 -12.9504
-583.262 -0.09789 0 -10.3742
-581.652 -0.097433 0 -10.3521
-724.881 -0.0483865 0 -7.0467
-720.855 -0.0462876 0 -6.99112
-432.746 -0.132413 0 -12.9004
-435.163 -0.136005 0 -12.9336
-722.868 -0.0474014 0 -7.01883
-576.82 -0.0935271 0 -10.2856
-433.955 -0.134346 0 -12.9169
-580.041 -0.0964493 0 -10.3299
-578.431 -0.0951059 0 -10.3077
-720.855 -0.0462876 0 -6.99112
-716.83 -0.0438859 0 -6.93636
-430.33 -0.128119 0 -12.8677
-432.746 -0.132413 0 -12.9004
-718.842 -0.0451026 0 -6.96361
-573.599 -0.0900559 0 -10.2419
-431.538 -0.130322 0 -12.884
-576.82 -0.0935271 0 -10.2856
-575.21 -0.0918281 0 -10.2637
-716.83 -0.0438859 0 -6.93636
-712.804 -0.0414213 0 -6.88263
-427.914 -0.123586 0 -12.8356
-430.33 -0.128119 0 -12.8677
-714.817 -0.0426562 0 -6.90936
-570.378 -0.0864198 0 -10.199
-429.122 -0.125863 0 -12.8515
-573.599 -0.0900559 0 -10.2419
-571.989 -0.0882455 0 -10.2204
-712.804 -0.0414213 0 -6.88263
-708.778 -0.0389695 0 -6.82999
-425.497 -0.119037 0 -12.804
-427.914 -0.123586 0 -12.8356
-710.791 -0.0401906 0 -6.85617
-567.157 -0.0827857 0 -10.1569
-426.705 -0.121308 0 -12.8197
-570.378 -0.0864198 0 -10.199
-568.768 -0.0845978 0 -10.1778
-708.778 -0.0389695 0 -6.82999
-704.752 -0.0365588 0 -6.77843
-423.08 -0.114536 0 -12.7732
-425.497 -0.119037 0 -12.804
-706.765 -0.037759 0 -6.80407
-563.935 -0.0792025 0 -10.1156
-424.289 -0.116778 0 -12.7885
-567.157 -0.0827857 0 -10.1569
-565.546 -0.0809867 0 -10.1362
-704.752 -0.0365588 0 -6.77843
-700.726 -0.0341895 0 -6.72793
-420.664 -0.110103 0 -12.7429
-423.08 -0.114536 0 -12.7732
-702.739 -0.0353691 0 -6.75305
-560.714 -0.0756792 0 -10.0752
-421.872 -0.112312 0 -12.7579
-563.935 -0.0792025 0 -10.1156
-562.325 -0.0774337 0 -10.0953
-700.726 -0.0341895 0 -6.72793
-696.7 -0.0318562 0 -6.67846
-418.247 -0.105731 0 -12.7132
-420.664 -0.110103 0 -12.7429
-698.713 -0.0330188 0 -6.70306
-557.492 -0.0722086 0 -10.0357
-419.455 -0.10791 0 -12.728
-560.714 -0.0756792 0 -10.0752
-559.103 -0.0739379 0 -10.0554
-696.7 -0.0318562 0 -6.67846
-692.674 -0.0295527 0 -6.63001
-415.83 -0.101409 0 -12.6841
-418.247 -0.105731 0 -12.7132
-694.687 -0.0307011 0 -6.65411
-554.271 -0.0687811 0 -9.99691
-417.038 -0.103564 0 -12.6986
-557.492 -0.0722086 0 -10.0357
-555.882 -0.07049 0 -10.0162
-692.674 -0.0295527 0 -6.63001
-688.648 -0.0272737 0 -6.58256
-413.413 -0.0971283 0 -12.6557
-415.83 -0.101409 0 -12.6841
-690.661 -0.0284104 0 -6.60616
-551.049 -0.0653887 0 -9.95895
-414.621 -0.0992638 0 -12.6698
-554.271 -0.0687811 0 -9.99691
-552.66 -0.0670809 0 -9.97783
-688.648 -0.0272737 0 -6.58256
-684.622 -0.0250157 0 -6.53611
-410.996 -0.0928827 0 -12.6278
-413.413 -0.0971283 0 -12.6557
-686.635 -0.0261422 0 -6.55921
-547.827 -0.0620256 0 -9.92178
-412.205 -0.0950014 0 -12.6417
-551.049 -0.0653887 0 -9.95895
-549.438 -0.0637037 0 -9.94027
-684.622 -0.0250157 0 -6.53611
-680.596 -0.0227763 0 -6.49064
-408.579 -0.0886674 0 -12.6005
-410.996 -0.0928827 0 -12.6278
-682.609 -0.0238938 0 -6.51325
-544.606 -0.058688 0 -9.8854
-409.788 -0.0907714 0 -12.6141
-547.827 -0.0620256 0 -9.92178
-546.217 -0.0603538 0 -9.9035
-680.596 -0.0227763 0 -6.49064
-676.57 -0.0205542 0 -6.44614
-406.162 -0.0844797 0 -12.5738
-408.579 -0.0886674 0 -12.6005
-678.583 -0.0216632 0 -6.46827
-541.384 -0.0553737 0 -9.84981
-407.371 -0.0865702 0 -12.5871
-544.606 -0.058688 0 -9.8854
-542.995 -0.057028 0 -9.86751
-676.57 -0.0205542 0 -6.44614
-672.544 -0.0183484 0 -6.40261
-403.745 -0.0803179 0 -12.5477
-406.162 -0.0844797 0 -12.5738
-674.557 -0.0194493 0 -6.42425
-538.163 -0.0520812 0 -9.81498
-404.954 -0.0823956 0 -12.5607
-541.384 -0.0553737 0 -9.84981
-539.773 -0.0537247 0 -9.8323
-672.544 -0.0183484 0 -6.40261
-668.517 -0.0161585 0 -6.36004
-401.328 -0.0761813 0 -12.5221
-403.745 -0.0803179 0 -12.5477
-670.531 -0.0172515 0 -6.38121
-534.941 -0.0488098 0 -9.78093
-402.537 -0.0782465 0 -12.5348
-538.163 -0.0520812 0 -9.81498
-536.552 -0.0504429 0 -9.79786
-668.517 -0.0161585 0 -6.36004
-664.491 -0.0139839 0 -6.31843
-398.911 -0.0720692 0 -12.4972
-401.328 -0.0761813 0 -12.5221
-666.504 -0.0150693 0 -6.33912
-531.719 -0.0455592 0 -9.74764
-400.12 -0.0741222 0 -12.5096
-534.941 -0.0488098 0 -9.78093
-533.33 -0.0471819 0 -9.76419
-664.491 -0.0139839 0 -6.31843
-660.465 -0.0118246 0 -6.27777
-396.494 -0.0679814 0 -12.4728
-398.911 -0.0720692 0 -12.4972
-662.478 -0.0129024 0 -6.29798
-528.497 -0.0423289 0 -9.71511
-397.703 -0.0700223 0 -12.4849
-531.719 -0.0455592 0 -9.74764
-530.108 -0.0439415 0 -9.73128
-660.465 -0.0118246 0 -6.27777
-656.439 -0.00968017 0 -6.23806
-394.078 -0.0639178 0 -12.4489
-396.494 -0.0679814 0 -12.4728
-658.452 -0.0107505 0 -6.2578
-525.276 -0.0391188 0 -9.68333
-395.286 -0.0659466 0 -12.4608
-528.497 -0.0423289 0 -9.71511
-526.887 -0.0407213 0 -9.69913
-656.439 -0.00968017 0 -6.23806
-652.413 -0.00755057 0 -6.19928
-391.661 -0.0598782 0 -12.4257
-394.078 -0.0639178 0 -12.4489
-654.426 -0.00861353 0 -6.21855
-522.054 -0.0359288 0 -9.65231
-392.869 -0.061895 0 -12.4372
-525.276 -0.0391188 0 -9.68333
-523.665 -0.0375213 0 -9.66773
-652.413 -0.00755057 0 -6.19928
-648.386 -0.00543559 0 -6.16144
-389.244 -0.0558627 0 -12.403
-391.661 -0.0598782 0 -12.4257
-650.4 -0.00649126 0 -6.18024
-518.832 -0.0327588 0 -9.62203
-390.452 -0.0578675 0 -12.4142
-522.054 -0.0359288 0 -9.65231
-520.443 -0.0343413 0 -9.63708
-648.386 -0.00543559 0 -6.16144
-644.36 -0.00333506 0 -6.12452
-386.827 -0.0518712 0 -12.3808
-389.244 -0.0558627 0 -12.403
-646.373 -0.00438352 0 -6.14286
-515.61 -0.0296086 0 -9.5925
-388.035 -0.053864 0 -12.3918
-518.832 -0.0327588 0 -9.62203
-517.221 -0.0311812 0 -9.60718
-644.36 -0.00333506 0 -6.12452
-640.334 -0.00124883 0 -6.08853
-384.41 -0.0479037 0 -12.3592
-386.827 -0.0518712 0 -12.3808
-642.347 -0.00229017 0 -6.10641
-512.389 -0.0264782 0 -9.5637
-385.618 -0.0498845 0 -12.3699
-515.61 -0.0296086 0 -9.5925
-514 -0.028041 0 -9.57801
-640.334 -0.00124883 0 -6.08853
-636.308 0.000823252 0 -6.05345
-381.993 -0.04396 0 -12.3382
-384.41 -0.0479037 0 -12.3592
-638.321 -0.000211025 0 -6.07087
-509.167 -0.0233675 0 -9.53564
-383.201 -0.0459289 0 -12.3486
-512.389 -0.0264782 0 -9.5637
-510.778 -0.0249204 0 -9.54958
-636.308 0.000823252 0 -6.05345
-632.281 0.00288136 0 -6.01928
-379.576 -0.0400402 0 -12.3176
-381.993 -0.04396 0 -12.3382
-634.294 0.00185403 0 -6.03625
-505.945 -0.0202764 0 -9.50831
-380.784 -0.0419971 0 -12.3278
-509.167 -0.0233675 0 -9.53564
-507.556 -0.0218195 0 -9.52188
-632.281 0.00288136 0 -6.01928
-628.255 0.00492565 0 -5.98602
-377.159 -0.0361442 0 -12.2977
-379.576 -0.0400402 0 -12.3176
-630.268 0.00390523 0 -6.00254
-502.723 -0.0172047 0 -9.4817
-378.367 -0.0380892 0 -12.3076
-505.945 -0.0202764 0 -9.50831
-504.334 -0.0187381 0 -9.49491
-628.255 0.00492565 0 -5.98602
-624.228 0.00695625 0 -5.95366
-374.742 -0.0322719 0 -12.2783
-377.159 -0.0361442 0 -12.2977
-626.242 0.00594264 0 -5.96973
-499.501 -0.0141523 0 -9.4558
-375.95 -0.0342051 0 -12.2879
-502.723 -0.0172047 0 -9.4817
-501.112 -0.0156761 0 -9.46866
-624.228 0.00695625 0 -5.95366
-620.202 0.00897333 0 -5.92219
-372.325 -0.0284233 0 -12.2594
-374.742 -0.0322719 0 -12.2783
-622.215 0.00796647 0 -5.93781
-496.28 -0.0111193 0 -9.43063
-373.533 -0.0303446 0 -12.2688
-499.501 -0.0141523 0 -9.4558
-497.891 -0.0126334 0 -9.44313
-620.202 0.00897333 0 -5.92219
-616.176 0.010977 0 -5.89161
-369.908 -0.0245983 0 -12.241
-372.325 -0.0284233 0 -12.2594
-618.189 0.00997684 0 -5.90679
-493.058 -0.00810533 0 -9.40616
-371.116 -0.0265079 0 -12.2501
-496.28 -0.0111193 0 -9.43063
-494.669 -0.0096099 0 -9.4183
-616.176 0.010977 0 -5.89161
-612.149 0.0129675 0 -5.8619
-367.491 -0.0207969 0 -12.2232
-369.908 -0.0245983 0 -12.241
-614.162 0.0119739 0 -5.87664
-489.836 -0.00511045 0 -9.3824
-368.699 -0.0226947 0 -12.232
-493.058 -0.00810533 0 -9.40616
-491.447 -0.00660551 0 -9.39419
-612.149 0.0129675 0 -5.8619
-608.123 0.0149448 0 -5.83308
-365.074 -0.0170191 0 -12.2059
-367.491 -0.0207969 0 -12.2232
-610.136 0.0139578 0 -5.84738
-486.614 -0.00213454 0 -9.35934
-366.282 -0.0189051 0 -12.2145
-489.836 -0.00511045 0 -9.3824
-488.225 -0.00362013 0 -9.37078
-608.123 0.0149448 0 -5.83308
-604.096 0.0169092 0 -5.80513
-362.657 -0.0132647 0 -12.1891
-365.074 -0.0170191 0 -12.2059
-606.11 0.0159287 0 -5.81899
-483.392 0.000822513 0 -9.33697
-363.865 -0.0151389 0 -12.1974
-486.614 -0.00213454 0 -9.35934
-485.003 -0.000653662 0 -9.34807
-604.096 0.0169092 0 -5.80513
-600.07 0.0188608 0 -5.77804
-360.24 -0.00953367 0 -12.1729
-362.657 -0.0132647 0 -12.1891
-602.083 0.0178866 0 -5.79147
-480.17 0.00376078 0 -9.3153
-361.448 -0.0113962 0 -12.1809
-483.392 0.000822515 0 -9.33697
-481.781 0.002294 0 -9.32605
-600.07 0.0188608 0 -5.77804
-596.043 0.0207997 0 -5.7518
-357.822 -0.00582602 0 -12.1571
-360.24 -0.00953367 0 -12.1729
-598.057 0.0198318 0 -5.76481
-476.949 0.00668041 0 -9.29431
-359.031 -0.00767694 0 -12.1649
-480.17 0.00376078 0 -9.3153
-478.559 0.00522291 0 -9.30472
-596.043 0.0207997 0 -5.7518
-592.017 0.022726 0 -5.72643
-355.405 -0.00214171 0 -12.1419
-357.822 -0.00582602 0 -12.1571
-594.03 0.0217644 0 -5.73901
-473.727 0.00958142 0 -9.27401
-356.614 -0.00398094 0 -12.1494
-476.949 0.00668041 0 -9.29431
-475.338 0.00813326 0 -9.28407
-592.017 0.022726 0 -5.72643
-587.99 0.0246398 0 -5.70189
-352.988 0.00151929 0 -12.1272
-355.405 -0.00214171 0 -12.1419
-590.004 0.0236844 0 -5.71405
-470.505 0.0124639 0 -9.25438
-354.197 -0.000308312 0 -12.1345
-473.727 0.00958142 0 -9.27401
-472.116 0.0110249 0 -9.26411
-587.99 0.0246398 0 -5.70189
-583.964 0.0265413 0 -5.6782
-350.571 0.0051571 0 -12.1129
-352.988 0.00151929 0 -12.1272
-585.977 0.0255921 0 -5.68994
-467.283 0.015328 0 -9.23543
-351.78 0.0033411 0 -12.12
-470.505 0.0124639 0 -9.25438
-468.894 0.0138982 0 -9.24482
-583.964 0.0265413 0 -5.6782
-579.937 0.0284306 0 -5.65535
-348.154 0.00877172 0 -12.0992
-350.571 0.0051571 0 -12.1129
-581.951 0.0274875 0 -5.66667
-464.061 0.0181737 0 -9.21714
-349.363 0.00696731 0 -12.106
-467.283 0.015328 0 -9.23543
-465.672 0.0167531 0 -9.2262
-579.937 0.0284306 0 -5.65535
-575.911 0.0303078 0 -5.63333
-345.737 0.0123632 0 -12.086
-348.154 0.00877172 0 -12.0992
-577.924 0.0293707 0 -5.64424
-460.839 0.0210011 0 -9.19952
-346.946 0.0105703 0 -12.0926
-464.061 0.0181737 0 -9.21714
-462.45 0.0195897 0 -9.20825
-575.911 0.0303078 0 -5.63333
-571.884 0.032173 0 -5.61213
-343.32 0.0159315 0 -12.0733
-345.737 0.0123632 0 -12.086
-573.898 0.0312419 0 -5.62262
-457.617 0.0238103 0 -9.18256
-344.529 0.0141503 0 -12.0796
-460.839 0.0210011 0 -9.19952
-459.228 0.022408 0 -9.19096
-571.884 0.032173 0 -5.61213
-567.858 0.0340262 0 -5.59175
-340.903 0.0194768 0 -12.0611
-343.32 0.0159315 0 -12.0733
-569.871 0.0331011 0 -5.60183
-454.395 0.0266014 0 -9.16626
-342.112 0.0177071 0 -12.0671
-457.617 0.0238103 0 -9.18256
-456.006 0.0252081 0 -9.17433
-567.858 0.0340262 0 -5.59175
-563.831 0.0358677 0 -5.57218
-338.486 0.0229991 0 -12.0493
-340.903 0.0194768 0 -12.0611
-565.844 0.0349484 0 -5.58186
-451.173 0.0293744 0 -9.1506
-339.695 0.0212408 0 -12.0551
-454.395 0.0266014 0 -9.16626
-452.784 0.0279902 0 -9.15835
-563.831 0.0358677 0 -5.57218
-559.804 0.0376975 0 -5.55341
-336.069 0.0264983 0 -12.038
-338.486 0.0229991 0 -12.0493
-561.818 0.0367841 0 -5.56269
-447.951 0.0321294 0 -9.13559
-337.278 0.0247515 0 -12.0436
-451.173 0.0293744 0 -9.1506
-449.562 0.0307542 0 -9.14301
-559.804 0.0376975 0 -5.55341
-555.778 0.0395157 0 -5.53545
-333.652 0.0299745 0 -12.0273
-336.069 0.0264983 0 -12.038
-557.791 0.038608 0 -5.54433
-444.729 0.0348665 0 -9.12122
-334.861 0.0282393 0 -12.0326
-447.951 0.0321294 0 -9.13559
-446.34 0.0335002 0 -9.12832
-555.778 0.0395157 0 -5.53545
-551.751 0.0413223 0 -5.51829
-331.235 0.0334278 0 -12.017
-333.652 0.0299745 0 -12.0273
-553.764 0.0404204 0 -5.52677
-441.507 0.0375857 0 -9.10749
-332.443 0.0317041 0 -12.0221
-444.729 0.0348665 0 -9.12122
-443.118 0.0362284 0 -9.11427
-551.751 0.0413223 0 -5.51829
-547.724 0.0431176 0 -5.50191
-328.818 0.0368582 0 -12.0071
-331.235 0.0334278 0 -12.017
-549.738 0.0422214 0 -5.51
-438.285 0.0402871 0 -9.09438
-330.026 0.0351459 0 -12.012
-441.507 0.0375857 0 -9.10749
-439.896 0.0389387 0 -9.10086
-547.724 0.0431176 0 -5.50191
-543.698 0.0449015 0 -5.48632
-326.401 0.0402657 0 -11.9978
-328.818 0.0368582 0 -12.0071
-545.711 0.0440109 0 -5.49402
-435.063 0.0429707 0 -9.08191
-327.609 0.0385648 0 -12.0024
-438.285 0.0402871 0 -9.09438
-436.674 0.0416311 0 -9.08807
-543.698 0.0449015 0 -5.48632
-539.671 0.0466741 0 -5.47151
-323.984 0.0436503 0 -11.9889
-326.401 0.0402657 0 -11.9978
-541.684 0.0457892 0 -5.47882
-431.841 0.0456366 0 -9.07006
-325.192 0.0419609 0 -11.9933
-435.063 0.0429707 0 -9.08191
-433.452 0.0443059 0 -9.07591
-539.671 0.0466741 0 -5.47151
-535.644 0.0484355 0 -5.45746
-321.567 0.0470121 0 -11.9805
-323.984 0.0436503 0 -11.9889
-537.658 0.0475562 0 -5.46439
-428.619 0.0482848 0 -9.05882
-322.775 0.045334 0 -11.9846
-431.841 0.0456366 0 -9.07006
-430.23 0.0469629 0 -9.06436
-535.644 0.0484355 0 -5.45746
-531.618 0.0501859 0 -5.44419
-319.15 0.050351 0 -11.9725
-321.567 0.0470121 0 -11.9805
-533.631 0.0493121 0 -5.45073
-425.397 0.0509154 0 -9.0482
-320.358 0.0486844 0 -11.9764
-428.619 0.0482848 0 -9.05882
-427.008 0.0496023 0 -9.05344
-531.618 0.0501859 0 -5.44419
-527.591 0.0519252 0 -5.43168
-316.733 0.0536671 0 -11.965
-319.15 0.050351 0 -11.9725
-529.604 0.0510569 0 -5.43784
-422.175 0.0535285 0 -9.03819
-317.941 0.0520119 0 -11.9687
-425.397 0.0509154 0 -9.0482
-423.786 0.0522242 0 -9.04312
-527.591 0.0519252 0 -5.43168
-523.564 0.0536535 0 -5.41992
-314.316 0.0569604 0 -11.9579
-316.733 0.0536671 0 -11.965
-525.578 0.0527907 0 -5.4257
-418.953 0.056124 0 -9.02878
-315.524 0.0553166 0 -11.9614
-422.175 0.0535285 0 -9.03819
-420.564 0.0548284 0 -9.03341
-523.564 0.0536535 0 -5.41992
-519.538 0.0553709 0 -5.40891
-311.898 0.0602309 0 -11.9513
-314.316 0.0569604 0 -11.9579
-521.551 0.0545136 0 -5.41432
-415.731 0.058702 0 -9.01997
-313.107 0.0585985 0 -11.9545
-418.953 0.056124 0 -9.02878
-417.342 0.0574152 0 -9.0243
-519.538 0.0553709 0 -5.40891
-515.511 0.0570775 0 -5.39864
-309.481 0.0634787 0 -11.9451
-311.898 0.0602309 0 -11.9513
-517.524 0.0562256 0 -5.40368
-412.509 0.0612625 0 -9.01176
-310.69 0.0618576 0 -11.9482
-415.731 0.058702 0 -9.01997
-414.12 0.0599844 0 -9.01579
-515.511 0.0570775 0 -5.39864
-511.484 0.0587733 0 -5.38911
-307.064 0.0667037 0 -11.9394
-309.481 0.0634787 0 -11.9451
-513.497 0.0579268 0 -5.39378
-409.287 0.0638057 0 -9.00414
-308.273 0.065094 0 -11.9422
-412.509 0.0612625 0 -9.01176
-410.898 0.0625363 0 -9.00787
-511.484 0.0587733 0 -5.38911
-507.457 0.0604584 0 -5.38031
-304.647 0.0699059 0 -11.9341
-307.064 0.0667037 0 -11.9394
-509.471 0.0596172 0 -5.38462
-406.065 0.0663314 0 -8.9971
-305.856 0.0683076 0 -11.9367
-409.287 0.0638057 0 -9.00414
-407.676 0.0650707 0 -9.00054
-507.457 0.0604584 0 -5.38031
-503.43 0.0621328 0 -5.37224
-302.23 0.0730854 0 -11.9293
-304.647 0.0699059 0 -11.9341
-505.444 0.0612969 0 -5.37619
-402.843 0.0688398 0 -8.99064
-303.439 0.0714985 0 -11.9317
-406.065 0.0663314 0 -8.9971
-404.454 0.0675878 0 -8.9938
-503.43 0.0621328 0 -5.37224
-499.404 0.0637965 0 -5.3649
-299.813 0.0762422 0 -11.9249
-302.23 0.0730854 0 -11.9293
-501.417 0.062966 0 -5.36848
-399.621 0.0713308 0 -8.98476
-301.022 0.0746666 0 -11.927
-402.843 0.0688398 0 -8.99064
-401.232 0.0700875 0 -8.98763
-499.404 0.0637965 0 -5.3649
-495.377 0.0654497 0 -5.35826
-297.396 0.0793762 0 -11.9209
-299.813 0.0762422 0 -11.9249
-497.39 0.0646244 0 -5.36149
-396.399 0.0738046 0 -8.97945
-298.605 0.077812 0 -11.9228
-399.621 0.0713308 0 -8.98476
-398.01 0.0725699 0 -8.98203
-495.377 0.0654497 0 -5.35826
-491.35 0.0670924 0 -5.35233
-294.979 0.0824875 0 -11.9173
-297.396 0.0793762 0 -11.9209
-493.363 0.0662724 0 -5.35521
-393.177 0.0762611 0 -8.97471
-296.188 0.0809347 0 -11.9191
-396.399 0.0738046 0 -8.97945
-394.788 0.075035 0 -8.97701
-491.35 0.0670924 0 -5.35233
-487.323 0.0687245 0 -5.34711
-292.562 0.0855761 0 -11.9142
-294.979 0.0824875 0 -11.9173
-489.337 0.0679098 0 -5.34964
-389.955 0.0787003 0 -8.97053
-293.771 0.0840346 0 -11.9157
-393.177 0.0762611 0 -8.97471
-391.566 0.0774828 0 -8.97255
-487.323 0.0687245 0 -5.34711
-483.296 0.0703462 0 -5.34259
-290.145 0.0886419 0 -11.9115
-292.562 0.0855761 0 -11.9142
-485.31 0.0695367 0 -5.34476
-386.733 0.0811222 0 -8.96691
-291.353 0.0871118 0 -11.9128
-389.955 0.0787003 0 -8.97053
-388.344 0.0799134 0 -8.96865
-483.296 0.0703462 0 -5.34259
-479.27 0.0719575 0 -5.33875
-287.728 0.0916851 0 -11.9092
-290.145 0.0886419 0 -11.9115
-481.283 0.0711532 0 -5.34058
-383.511 0.083527 0 -8.96384
-288.936 0.0901663 0 -11.9103
-386.733 0.0811222 0 -8.96691
-385.122 0.0823268 0 -8.96531
-479.27 0.0719575 0 -5.33875
-475.243 0.0735584 0 -5.33561
-285.311 0.0947055 0 -11.9073
-287.728 0.0916851 0 -11.9092
-477.256 0.0727593 0 -5.33709
-380.289 0.0859145 0 -8.96132
-286.519 0.0931981 0 -11.9082
-383.511 0.083527 0 -8.96384
-381.9 0.0847229 0 -8.96252
-475.243 0.0735584 0 -5.33561
-471.216 0.075149 0 -5.33314
-282.894 0.0977031 0 -11.9058
-285.311 0.0947055 0 -11.9073
-473.229 0.074355 0 -5.33429
-377.067 0.0882849 0 -8.95935
-284.102 0.0962071 0 -11.9065
-380.289 0.0859145 0 -8.96132
-378.678 0.0871019 0 -8.96027
-471.216 0.0751489 0 -5.33314
-467.189 0.0767292 0 -5.33134
-280.477 0.100678 0 -11.9047
-282.894 0.0977031 0 -11.9058
-469.202 0.0759403 0 -5.33216
-373.845 0.0906381 0 -8.95791
-281.685 0.0991934 0 -11.9052
-377.067 0.0882849 0 -8.95935
-375.456 0.0894636 0 -8.95857
-467.189 0.0767292 0 -5.33134
-463.162 0.0782991 0 -5.33022
-278.06 0.10363 0 -11.904
-280.477 0.100678 0 -11.9047
-465.176 0.0775154 0 -5.3307
-370.623 0.092974 0 -8.95701
-279.268 0.102157 0 -11.9043
-373.845 0.0906381 0 -8.95791
-372.234 0.0918082 0 -8.9574
-463.162 0.0782991 0 -5.33022
-459.135 0.0798587 0 -5.32976
-275.643 0.10656 0 -11.9038
-278.06 0.10363 0 -11.904
-461.149 0.0790802 0 -5.32991
-367.401 0.0952929 0 -8.95665
-276.851 0.105098 0 -11.9038
-370.623 0.092974 0 -8.95701
-369.012 0.0941356 0 -8.95676
-459.135 0.0798587 0 -5.32976
-455.108 0.081408 0 -5.32996
-273.226 0.109466 0 -11.9039
-275.643 0.10656 0 -11.9038
-457.122 0.0806346 0 -5.32978
-364.179 0.0975945 0 -8.9568
-274.434 0.108016 0 -11.9038
-367.401 0.0952929 0 -8.95665
-365.79 0.0964458 0 -8.95666
-455.108 0.081408 0 -5.32996
-451.081 0.0829471 0 -5.3308
-270.809 0.11235 0 -11.9044
-273.226 0.109466 0 -11.9039
-453.095 0.0821789 0 -5.3303
-360.957 0.099879 0 -8.95748
-272.017 0.110911 0 -11.9041
-364.179 0.0975945 0 -8.9568
-362.568 0.0987389 0 -8.95708
-451.081 0.0829471 0 -5.3308
-447.054 0.084476 0 -5.3323
-268.391 0.115211 0 -11.9053
-270.809 0.11235 0 -11.9044
-449.068 0.0837129 0 -5.33147
-357.734 0.102146 0 -8.95867
-269.6 0.113784 0 -11.9048
-360.957 0.099879 0 -8.95748
-359.346 0.101015 0 -8.95801
-447.054 0.084476 0 -5.3323
-443.028 0.0859947 0 -5.33443
-265.974 0.11805 0 -11.9065
-268.391 0.115211 0 -11.9053
-445.041 0.0852366 0 -5.33328
-354.512 0.104397 0 -8.96038
-267.183 0.116633 0 -11.9059
-357.734 0.102146 0 -8.95867
-356.123 0.103274 0 -8.95946
-443.028 0.0859947 0 -5.33443
-439.001 0.0875031 0 -5.33719
-263.557 0.120865 0 -11.9082
-265.974 0.11805 0 -11.9065
-441.014 0.0867502 0 -5.33573
-351.29 0.10663 0 -8.96259
-264.766 0.11946 0 -11.9073
-354.512 0.104397 0 -8.96038
-352.901 0.105515 0 -8.96142
-439.001 0.0875031 0 -5.33719
-434.974 0.0890013 0 -5.34059
-261.14 0.123658 0 -11.9102
-263.557 0.120865 0 -11.9082
-436.987 0.0882535 0 -5.33881
-348.068 0.108845 0 -8.96531
-262.349 0.122264 0 -11.9092
-351.29 0.10663 0 -8.96259
-349.679 0.10774 0 -8.96389
-434.974 0.0890013 0 -5.34059
-430.947 0.0904893 0 -5.34461
-258.723 0.126427 0 -11.9126
-261.14 0.123658 0 -11.9102
-432.96 0.0897466 0 -5.34252
-344.846 0.111044 0 -8.96852
-259.932 0.125045 0 -11.9114
-348.068 0.108845 0 -8.96531
-346.457 0.109947 0 -8.96685
-430.947 0.0904893 0 -5.34461
-426.92 0.0919671 0 -5.34924
-256.306 0.129174 0 -11.9154
-258.723 0.126427 0 -11.9126
-428.933 0.0912295 0 -5.34685
-341.624 0.113226 0 -8.97223
-257.515 0.127804 0 -11.914
-344.846 0.111044 0 -8.96852
-343.235 0.112137 0 -8.97031
-426.92 0.0919671 0 -5.34924
-422.893 0.0934348 0 -5.35449
-253.889 0.131898 0 -11.9186
-256.306 0.129174 0 -11.9154
-424.906 0.0927022 0 -5.35179
-338.402 0.11539 0 -8.97643
-255.098 0.130539 0 -11.9169
-341.624 0.113226 0 -8.97223
-340.013 0.11431 0 -8.97427
-422.893 0.0934348 0 -5.35449
-418.866 0.0948922 0 -5.36034
-251.472 0.1346 0 -11.9221
-253.889 0.131898 0 -11.9186
-420.879 0.0941647 0 -5.35734
-335.18 0.117537 0 -8.98111
-252.681 0.133252 0 -11.9203
-338.402 0.11539 0 -8.97643
-336.791 0.116466 0 -8.97871
-418.866 0.0948922 0 -5.36034
-414.839 0.0963393 0 -5.36679
-249.055 0.137278 0 -11.9259
-251.472 0.1346 0 -11.9221
-416.852 0.095617 0 -5.36349
-331.958 0.119667 0 -8.98627
-250.264 0.135941 0 -11.924
-335.18 0.117537 0 -8.98111
-333.569 0.118604 0 -8.98363
-414.839 0.0963393 0 -5.36679
-410.812 0.0977763 0 -5.37383
-246.638 0.139933 0 -11.9302
-249.055 0.137278 0 -11.9259
-412.825 0.0970591 0 -5.37024
-328.736 0.121779 0 -8.9919
-247.847 0.138608 0 -11.928
-331.958 0.119667 0 -8.98627
-330.347 0.120725 0 -8.98903
-410.812 0.0977763 0 -5.37383
-406.785 0.099203 0 -5.38147
-244.221 0.142565 0 -11.9347
-246.638 0.139933 0 -11.9302
-408.798 0.0984909 0 -5.37758
-325.514 0.123875 0 -8.99801
-245.43 0.141252 0 -11.9324
-328.736 0.121779 0 -8.9919
-327.125 0.122829 0 -8.9949
-406.785 0.099203 0 -5.38147
-402.758 0.10062 0 -5.38968
-241.804 0.145174 0 -11.9397
-244.221 0.142565 0 -11.9347
-404.771 0.0999126 0 -5.3855
-322.292 0.125953 0 -9.00458
-243.013 0.143873 0 -11.9372
-325.514 0.123875 0 -8.99801
-323.903 0.124916 0 -9.00124
-402.758 0.10062 0 -5.38968
-398.731 0.102026 0 -5.39847
-239.387 0.14776 0 -11.9449
-241.804 0.145174 0 -11.9397
-400.744 0.101324 0 -5.39401
-319.069 0.128014 0 -9.01161
-240.596 0.14647 0 -11.9423
-322.292 0.125953 0 -9.00458
-320.68 0.126985 0 -9.00804
-398.731 0.102026 0 -5.39847
-394.704 0.103422 0 -5.40784
-236.97 0.150324 0 -11.9506
-239.387 0.14776 0 -11.9449
-396.717 0.102725 0 -5.40308
-315.847 0.130057 0 -9.0191
-238.179 0.149045 0 -11.9477
-319.069 0.128014 0 -9.01161
-317.458 0.129037 0 -9.0153
-394.704 0.103422 0 -5.40784
-390.677 0.104807 0 -5.41776
-234.553 0.152864 0 -11.9565
-236.97 0.150324 0 -11.9506
-392.69 0.104116 0 -5.41273
-312.625 0.132083 0 -9.02705
-235.762 0.151596 0 -11.9535
-315.847 0.130057 0 -9.0191
-314.236 0.131072 0 -9.02302
-390.677 0.104807 0 -5.41776
-386.65 0.106183 0 -5.42825
-232.136 0.15538 0 -11.9628
-234.553 0.152864 0 -11.9565
-388.663 0.105496 0 -5.42294
-309.403 0.134092 0 -9.03543
-233.345 0.154125 0 -11.9596
-312.625 0.132083 0 -9.02705
-311.014 0.13309 0 -9.03118
-386.65 0.106183 0 -5.42825
-382.623 0.107548 0 -5.43929
-229.719 0.157874 0 -11.9694
-232.136 0.15538 0 -11.9628
-384.636 0.106866 0 -5.4337
-306.181 0.136083 0 -9.04427
-230.928 0.15663 0 -11.9661
-309.403 0.134092 0 -9.03543
-307.792 0.13509 0 -9.0398
-382.623 0.107548 0 -5.43929
-378.596 0.108902 0 -5.45088
-227.302 0.160345 0 -11.9764
-229.719 0.157874 0 -11.9694
-380.609 0.108226 0 -5.44501
-302.959 0.138057 0 -9.05354
-228.511 0.159112 0 -11.9728
-306.181 0.136083 0 -9.04427
-304.57 0.137072 0 -9.04885
-378.596 0.108902 0 -5.45088
-374.569 0.110246 0 -5.46301
-224.885 0.162792 0 -11.9836
-227.302 0.160345 0 -11.9764
-376.582 0.109576 0 -5.45687
-299.737 0.140013 0 -9.06324
-226.094 0.161571 0 -11.98
-302.959 0.138057 0 -9.05354
-301.348 0.139037 0 -9.05833
-374.569 0.110246 0 -5.46301
-370.542 0.11158 0 -5.47567
-222.468 0.165216 0 -11.9912
-224.885 0.162792 0 -11.9836
-372.555 0.110915 0 -5.46927
-296.515 0.141952 0 -9.07337
-223.677 0.164007 0 -11.9874
-299.737 0.140013 0 -9.06324
-298.126 0.140985 0 -9.06825
-370.542 0.11158 0 -5.47567
-366.514 0.112903 0 -5.48887
-220.051 0.167616 0 -11.9992
-222.468 0.165216 0 -11.9912
-368.528 0.112243 0 -5.4822
-293.293 0.143874 0 -9.08393
-221.26 0.166419 0 -11.9952
-296.515 0.141952 0 -9.07337
-294.904 0.142915 0 -9.0786
-366.514 0.112903 0 -5.48887
-362.487 0.114216 0 -5.50259
-217.634 0.169994 0 -12.0074
-220.051 0.167616 0 -11.9992
-364.501 0.113561 0 -5.49566
-290.07 0.145777 0 -9.09491
-218.843 0.168808 0 -12.0032
-293.293 0.143874 0 -9.08393
-291.682 0.144828 0 -9.08937
-362.487 0.114216 0 -5.50259
-358.46 0.115519 0 -5.51683
-215.217 0.172348 0 -12.0159
-217.634 0.169994 0 -12.0074
-360.474 0.114869 0 -5.50964
-286.848 0.147664 0 -9.1063
-216.426 0.171174 0 -12.0116
-290.07 0.145777 0 -9.09491
-288.459 0.146723 0 -9.10055
-358.46 0.115519 0 -5.51683
-354.433 0.11681 0 -5.53158
-212.8 0.174678 0 -12.0248
-215.217 0.172348 0 -12.0159
-356.447 0.116166 0 -5.52414
-283.626 0.149532 0 -9.1181
-214.009 0.173516 0 -12.0203
-286.848 0.147664 0 -9.1063
-285.237 0.1486 0 -9.11215
-354.433 0.11681 0 -5.53158
-350.406 0.118091 0 -5.54684
-210.383 0.176985 0 -12.0339
-212.8 0.174678 0 -12.0248
-352.42 0.117452 0 -5.53915
-280.404 0.151383 0 -9.13031
-211.592 0.175835 0 -12.0293
-283.626 0.149532 0 -9.1181
-282.015 0.15046 0 -9.12416
-350.406 0.118091 0 -5.54684
-346.379 0.119362 0 -5.5626
-207.966 0.179269 0 -12.0434
-210.383 0.176985 0 -12.0339
-348.393 0.118728 0 -5.55466
-277.182 0.153216 0 -9.14292
-209.175 0.17813 0 -12.0386
-280.404 0.151383 0 -9.13031
-278.793 0.152302 0 -9.13657
-346.379 0.119362 0 -5.5626
-342.352 0.120621 0 -5.57886
-205.549 0.181529 0 -12.0531
-207.966 0.179269 0 -12.0434
-344.365 0.119993 0 -5.57067
-273.96 0.155032 0 -9.15593
-206.758 0.180402 0 -12.0482
-277.182 0.153216 0 -9.14292
-275.571 0.154126 0 -9.14937
-342.352 0.120621 0 -5.57886
-338.325 0.12187 0 -5.59561
-203.132 0.183765 0 -12.0632
-205.549 0.181529 0 -12.0531
-340.338 0.121247 0 -5.58717
-270.738 0.156829 0 -9.16933
-204.341 0.18265 0 -12.0581
-273.96 0.155032 0 -9.15593
-272.349 0.155933 0 -9.16258
-338.325 0.12187 0 -5.59561
-334.298 0.123109 0 -5.61284
-200.715 0.185978 0 -12.0735
-203.132 0.183765 0 -12.0632
-336.311 0.122491 0 -5.60416
-267.516 0.158609 0 -9.18311
-201.924 0.184875 0 -12.0683
-270.738 0.156829 0 -9.16933
-269.127 0.157721 0 -9.17617
-334.298 0.123109 0 -5.61284
-330.27 0.124336 0 -5.63055
-198.298 0.188167 0 -12.0841
-200.715 0.185978 0 -12.0735
-332.284 0.123724 0 -5.62164
-264.294 0.160371 0 -9.19728
-199.507 0.187076 0 -12.0788
-267.516 0.158609 0 -9.18311
-265.905 0.159492 0 -9.19015
-330.27 0.124336 0 -5.63055
-326.243 0.125552 0 -5.64873
-195.881 0.190332 0 -12.0951
-198.298 0.188167 0 -12.0841
-328.257 0.124946 0 -5.63958
-261.071 0.162114 0 -9.21183
-197.09 0.189253 0 -12.0896
-264.294 0.160371 0 -9.19728
-262.683 0.161245 0 -9.20451
-326.243 0.125552 0 -5.64873
-322.216 0.126758 0 -5.66738
-193.465 0.192474 0 -12.1062
-195.881 0.190332 0 -12.0951
-324.23 0.126157 0 -5.658
-257.849 0.16384 0 -9.22675
-194.673 0.191406 0 -12.1006
-261.071 0.162114 0 -9.21183
-259.46 0.162979 0 -9.21924
-322.216 0.126758 0 -5.66738
-318.189 0.127952 0 -5.6865
-191.048 0.194592 0 -12.1177
-193.465 0.192474 0 -12.1062
-320.203 0.127357 0 -5.67688
-254.627 0.165548 0 -9.24204
-192.256 0.193536 0 -12.1119
-257.849 0.16384 0 -9.22675
-256.238 0.164696 0 -9.23435
-318.189 0.127952 0 -5.6865
-314.162 0.129136 0 -5.70606
-188.631 0.196686 0 -12.1294
-191.048 0.194592 0 -12.1177
-316.175 0.128546 0 -5.69622
-251.405 0.167237 0 -9.2577
-189.839 0.195642 0 -12.1235
-254.627 0.165548 0 -9.24204
-253.016 0.166395 0 -9.24982
-314.162 0.129136 0 -5.70606
-310.135 0.130308 0 -5.72608
-186.214 0.198756 0 -12.1415
-188.631 0.196686 0 -12.1294
-312.148 0.129723 0 -5.71602
-248.183 0.168909 0 -9.27371
-187.422 0.197724 0 -12.1354
-251.405 0.167237 0 -9.2577
-249.794 0.168075 0 -9.26566
-310.135 0.130308 0 -5.72608
-306.108 0.131469 0 -5.74654
-183.797 0.200802 0 -12.1537
-186.214 0.198756 0 -12.1415
-308.121 0.13089 0 -5.73626
-244.961 0.170562 0 -9.29008
-185.005 0.199782 0 -12.1476
-248.183 0.168909 0 -9.27371
-246.572 0.169738 0 -9.28185
-306.108 0.131469 0 -5.74654
-302.08 0.132619 0 -5.76744
-181.38 0.202824 0 -12.1663
-183.797 0.200802 0 -12.1537
-304.094 0.132046 0 -5.75694
-241.739 0.172197 0 -9.3068
-182.588 0.201816 0 -12.16
-244.961 0.170562 0 -9.29008
-243.35 0.171382 0 -9.2984
-302.08 0.132619 0 -5.76744
-298.053 0.133758 0 -5.78877
-178.963 0.204822 0 -12.1791
-181.38 0.202824 0 -12.1663
-300.067 0.13319 0 -5.77805
-238.517 0.173814 0 -9.32387
-180.171 0.203826 0 -12.1726
-241.739 0.172197 0 -9.3068
-240.128 0.173008 0 -9.31529
-298.053 0.133758 0 -5.78877
-294.026 0.134885 0 -5.81053
-176.546 0.206795 0 -12.1921
-178.963 0.204822 0 -12.1791
-296.04 0.134323 0 -5.7996
-235.295 0.175412 0 -9.34128
-177.754 0.205811 0 -12.1856
-238.517 0.173814 0 -9.32387
-236.906 0.174615 0 -9.33253
-294.026 0.134885 0 -5.81053
-289.999 0.136001 0 -5.83271
-174.129 0.208745 0 -12.2054
-176.546 0.206795 0 -12.1921
-292.012 0.135444 0 -5.82157
-232.072 0.176992 0 -9.35902
-175.338 0.207773 0 -12.1987
-235.295 0.175412 0 -9.34128
-233.683 0.176204 0 -9.35011
-289.999 0.136001 0 -5.83271
-285.972 0.137105 0 -5.85531
-171.712 0.21067 0 -12.219
-174.129 0.208745 0 -12.2054
-287.985 0.136554 0 -5.84396
-228.85 0.178553 0 -9.3771
-172.921 0.209711 0 -12.2122
-232.072 0.176992 0 -9.35902
-230.461 0.177775 0 -9.36802
-285.972 0.137105 0 -5.85531
-281.944 0.138198 0 -5.87831
-169.295 0.212571 0 -12.2328
-171.712 0.21067 0 -12.219
-283.958 0.137653 0 -5.86676
-225.628 0.180096 0 -9.3955
-170.504 0.211624 0 -12.2259
-228.85 0.178553 0 -9.3771
-227.239 0.179327 0 -9.38626
-281.944 0.138198 0 -5.87831
-277.917 0.139279 0 -5.90172
-166.878 0.214448 0 -12.2468
-169.295 0.212571 0 -12.2328
-279.931 0.13874 0 -5.88997
-222.406 0.18162 0 -9.41423
-168.087 0.213513 0 -12.2398
-225.628 0.180096 0 -9.3955
-224.017 0.18086 0 -9.40483
-277.917 0.139279 0 -5.90172
-273.89 0.140348 0 -5.92553
-164.461 0.2163 0 -12.2611
-166.878 0.214448 0 -12.2468
-275.903 0.139815 0 -5.91357
-219.184 0.183125 0 -9.43328
-165.67 0.215377 0 -12.2539
-222.406 0.18162 0 -9.41423
-220.795 0.182375 0 -9.42372
-273.89 0.140348 0 -5.92553
-269.863 0.141406 0 -5.94973
-162.045 0.218128 0 -12.2756
-164.461 0.2163 0 -12.2611
-271.876 0.140878 0 -5.93758
-215.962 0.184611 0 -9.45264
-163.253 0.217217 0 -12.2683
-219.184 0.183125 0 -9.43328
-217.573 0.18387 0 -9.44292
-269.863 0.141406 0 -5.94973
-265.835 0.142451 0 -5.97431
-159.628 0.219931 0 -12.2904
-162.045 0.218128 0 -12.2756
-267.849 0.14193 0 -5.96197
-212.74 0.186079 0 -9.47231
-160.836 0.219033 0 -12.283
-215.962 0.184611 0 -9.45264
-214.351 0.185348 0 -9.46243
-265.835 0.142451 0 -5.97431
-261.808 0.143485 0 -5.99928
-157.211 0.22171 0 -12.3054
-159.628 0.219931 0 -12.2904
-263.822 0.14297 0 -5.98675
-209.518 0.187528 0 -9.49228
-158.419 0.220824 0 -12.2978
-212.74 0.186079 0 -9.47231
-211.129 0.186806 0 -9.48226
-261.808 0.143485 0 -5.99928
-257.781 0.144507 0 -6.02462
-154.794 0.223464 0 -12.3206
-157.211 0.22171 0 -12.3054
-259.795 0.143998 0 -6.0119
-206.295 0.188958 0 -9.51255
-156.002 0.22259 0 -12.3129
-209.518 0.187528 0 -9.49228
-207.906 0.188245 0 -9.50238
-257.781 0.144507 0 -6.02462
-253.754 0.145517 0 -6.05032
-152.377 0.225194 0 -12.336
-154.794 0.223464 0 -12.3206
-255.767 0.145013 0 -6.03742
-203.073 0.190368 0 -9.53312
-153.585 0.224332 0 -12.3283
-206.295 0.188958 0 -9.51255
-204.684 0.189665 0 -9.5228
-253.754 0.145517 0 -6.05032
-249.726 0.146514 0 -6.0764
-149.96 0.226898 0 -12.3516
-152.377 0.225194 0 -12.336
-251.74 0.146017 0 -6.06332
-199.851 0.19176 0 -9.55398
-151.169 0.226049 0 -12.3438
-203.073 0.190368 0 -9.53312
-201.462 0.191067 0 -9.54352
-249.726 0.146514 0 -6.0764
-245.699 0.147499 0 -6.10283
-147.543 0.228578 0 -12.3675
-149.96 0.226898 0 -12.3516
-247.713 0.147008 0 -6.08957
-196.629 0.193132 0 -9.57513
-148.752 0.227741 0 -12.3595
-199.851 0.19176 0 -9.55398
-198.24 0.192449 0 -9.56452
-245.699 0.147499 0 -6.10283
-241.672 0.148472 0 -6.12961
-145.126 0.230233 0 -12.3836
-147.543 0.228578 0 -12.3675
-243.685 0.147987 0 -6.11618
-193.407 0.194486 0 -9.59656
-146.335 0.229409 0 -12.3755
-196.629 0.193132 0 -9.57513
-195.018 0.193811 0 -9.58581
-241.672 0.148472 0 -6.12961
-237.644 0.149433 0 -6.15674
-142.71 0.231863 0 -12.3998
-145.126 0.230233 0 -12.3836
-239.658 0.148954 0 -6.14313
-190.185 0.195819 0 -9.61826
-143.918 0.231051 0 -12.3917
-193.407 0.194486 0 -9.59656
-191.796 0.195155 0 -9.60737
-237.644 0.149433 0 -6.15674
-233.617 0.15038 0 -6.18421
-140.293 0.233468 0 -12.4163
-142.71 0.231863 0 -12.3998
-235.631 0.149908 0 -6.17043
-186.963 0.197134 0 -9.64024
-141.501 0.232669 0 -12.4081
-190.185 0.195819 0 -9.61826
-188.574 0.196479 0 -9.62922
-233.617 0.15038 0 -6.18421
-229.59 0.151316 0 -6.21201
-137.876 0.235048 0 -12.433
-140.293 0.233468 0 -12.4163
-231.604 0.15085 0 -6.19807
-183.741 0.198429 0 -9.66248
-139.084 0.234261 0 -12.4246
-186.963 0.197134 0 -9.64024
-185.352 0.197784 0 -9.65133
-229.59 0.151316 0 -6.21201
-225.563 0.152238 0 -6.24014
-135.459 0.236603 0 -12.4499
-137.876 0.235048 0 -12.433
-227.576 0.151779 0 -6.22604
-180.518 0.199704 0 -9.68499
-136.667 0.235829 0 -12.4414
-183.741 0.198429 0 -9.66248
-182.129 0.199069 0 -9.6737
-225.563 0.152238 0 -6.24014
-221.535 0.153148 0 -6.2686
-133.042 0.238133 0 -12.467
-135.459 0.236603 0 -12.4499
-223.549 0.152695 0 -6.25433
-177.296 0.20096 0 -9.70776
-134.25 0.237371 0 -12.4584
-180.518 0.199704 0 -9.68499
-178.907 0.200335 0 -9.69634
-221.535 0.153148 0 -6.2686
-217.508 0.154045 0 -6.29737
-130.625 0.239637 0 -12.4842
-133.042 0.238133 0 -12.467
-219.522 0.153598 0 -6.28294
-174.074 0.202196 0 -9.73077
-131.834 0.238888 0 -12.4756
-177.296 0.20096 0 -9.70776
-175.685 0.201581 0 -9.71923
-217.508 0.154045 0 -6.29737
-213.481 0.154929 0 -6.32645
-128.208 0.241116 0 -12.5017
-130.625 0.239637 0 -12.4842
-215.494 0.154489 0 -6.31187
-170.852 0.203413 0 -9.75404
-129.417 0.24038 0 -12.4929
-174.074 0.202196 0 -9.73077
-172.463 0.202807 0 -9.74238
-213.481 0.154929 0 -6.32645
-209.453 0.1558 0 -6.35584
-125.792 0.24257 0 -12.5193
-128.208 0.241116 0 -12.5017
-211.467 0.155367 0 -6.34111
-167.63 0.204609 0 -9.77756
-127 0.241846 0 -12.5105
-170.852 0.203413 0 -9.75404
-169.241 0.204013 0 -9.76577
-209.453 0.1558 0 -6.35584
-205.426 0.156658 0 -6.38553
-123.375 0.243998 0 -12.5371
-125.792 0.24257 0 -12.5193
-207.44 0.156231 0 -6.37065
-164.408 0.205786 0 -9.80131
-124.583 0.243287 0 -12.5282
-167.63 0.204609 0 -9.77756
-166.019 0.2052 0 -9.7894
-205.426 0.156658 0 -6.38553
-201.399 0.157503 0 -6.41552
-120.958 0.245401 0 -12.5551
-123.375 0.243998 0 -12.5371
-203.412 0.157082 0 -6.40049
-161.186 0.206942 0 -9.8253
-122.166 0.244703 0 -12.5461
-164.408 0.205786 0 -9.80131
-162.797 0.206366 0 -9.81328
-201.399 0.157503 0 -6.41552
-197.371 0.158334 0 -6.44579
-118.541 0.246778 0 -12.5733
-120.958 0.245401 0 -12.5551
-199.385 0.15792 0 -6.43062
-157.963 0.208078 0 -9.84952
-119.749 0.246093 0 -12.5642
-161.186 0.206942 0 -9.8253
-159.574 0.207513 0 -9.83738
-197.371 0.158334 0 -6.44579
-193.344 0.159152 0 -6.47634
-116.124 0.24813 0 -12.5916
-118.541 0.246778 0 -12.5733
-195.357 0.158745 0 -6.46103
-154.741 0.209195 0 -9.87397
-117.333 0.247457 0 -12.5824
-157.963 0.208078 0 -9.84952
-156.352 0.208639 0 -9.86172
-193.344 0.159152 0 -6.47634
-189.316 0.159957 0 -6.50717
-113.707 0.249455 0 -12.6101
-116.124 0.24813 0 -12.5916
-191.33 0.159556 0 -6.49172
-151.519 0.210291 0 -9.89863
-114.916 0.248796 0 -12.6008
-154.741 0.209195 0 -9.87397
-153.13 0.209745 0 -9.88627
-189.316 0.159957 0 -6.50717
-185.289 0.160747 0 -6.53828
-111.291 0.250756 0 -12.6288
-113.707 0.249455 0 -12.6101
-187.303 0.160354 0 -6.52269
-148.297 0.211366 0 -9.92352
-112.499 0.250109 0 -12.6194
-151.519 0.210291 0 -9.89863
-149.908 0.210831 0 -9.91105
-185.289 0.160747 0 -6.53828
-181.262 0.161525 0 -6.56964
-108.874 0.25203 0 -12.6476
-111.291 0.250756 0 -12.6288
-183.275 0.161138 0 -6.55393
-145.075 0.212421 0 -9.94862
-110.082 0.251396 0 -12.6382
-148.297 0.211366 0 -9.92352
-146.686 0.211896 0 -9.93604
-181.262 0.161525 0 -6.56964
-177.234 0.162288 0 -6.60127
-106.457 0.253278 0 -12.6666
-108.874 0.25203 0 -12.6476
-179.248 0.161908 0 -6.58543
-141.853 0.213456 0 -9.97392
-107.665 0.252657 0 -12.6571
-145.075 0.212421 0 -9.94862
-143.464 0.212941 0 -9.96124
-177.234 0.162288 0 -6.60127
-173.207 0.163037 0 -6.63315
-104.04 0.2545 0 -12.6857
-106.457 0.253278 0 -12.6666
-175.22 0.162664 0 -6.61718
-138.631 0.21447 0 -9.99943
-105.249 0.253892 0 -12.6761
-141.853 0.213456 0 -9.97392
-140.242 0.213966 0 -9.98665
-173.207 0.163037 0 -6.63315
-169.179 0.163773 0 -6.66528
-101.623 0.255697 0 -12.705
-104.04 0.2545 0 -12.6857
-171.193 0.163407 0 -6.64919
-135.408 0.215464 0 -10.0251
-102.832 0.255102 0 -12.6953
-138.631 0.21447 0 -9.99943
-137.019 0.214969 0 -10.0123
-169.179 0.163773 0 -6.66528
-165.152 0.164494 0 -6.69766
-99.2065 0.256867 0 -12.7244
-101.623 0.255697 0 -12.705
-167.166 0.164135 0 -6.68144
-132.186 0.216436 0 -10.051
-100.415 0.256285 0 -12.7147
-135.408 0.215464 0 -10.0251
-133.797 0.215953 0 -10.0381
-165.152 0.164494 0 -6.69766
-161.124 0.165201 0 -6.73027
-96.7897 0.258011 0 -12.744
-99.2065 0.256867 0 -12.7244
-163.138 0.164849 0 -6.71393
-128.964 0.217388 0 -10.0771
-97.9981 0.257442 0 -12.7342
-132.186 0.216436 0 -10.051
-130.575 0.216915 0 -10.0641
-161.124 0.165201 0 -6.73027
-157.097 0.165894 0 -6.76311
-94.3729 0.259128 0 -12.7637
-96.7897 0.258011 0 -12.744
-159.111 0.165549 0 -6.74666
-125.742 0.218319 0 -10.1034
-95.5813 0.258573 0 -12.7538
-128.964 0.217388 0 -10.0771
-127.353 0.217856 0 -10.0902
-157.097 0.165894 0 -6.76311
-153.07 0.166572 0 -6.79617
-91.9561 0.26022 0 -12.7835
-94.3729 0.259128 0 -12.7637
-155.083 0.166235 0 -6.77961
-122.52 0.219229 0 -10.1299
-93.1645 0.259677 0 -12.7736
-125.742 0.218319 0 -10.1034
-124.131 0.218777 0 -10.1166
-153.07 0.166572 0 -6.79617
-149.042 0.167236 0 -6.82945
-89.5393 0.261285 0 -12.8035
-91.9561 0.26022 0 -12.7835
-151.056 0.166906 0 -6.81279
-119.298 0.220118 0 -10.1565
-90.7477 0.260755 0 -12.7935
-122.52 0.219229 0 -10.1299
-120.909 0.219676 0 -10.1431
-149.042 0.167236 0 -6.82945
-145.015 0.167885 0 -6.86295
-87.1225 0.262323 0 -12.8236
-89.5393 0.261285 0 -12.8035
-147.028 0.167562 0 -6.84618
-116.075 0.220985 0 -10.1833
-88.3309 0.261807 0 -12.8135
-119.298 0.220118 0 -10.1565
-117.687 0.220554 0 -10.1699
-145.015 0.167885 0 -6.86295
-140.987 0.16852 0 -6.89666
-84.7057 0.263335 0 -12.8438
-87.1225 0.262323 0 -12.8236
-143.001 0.168204 0 -6.87978
-112.853 0.221831 0 -10.2103
-85.9141 0.262832 0 -12.8337
-116.075 0.220985 0 -10.1833
-114.464 0.221411 0 -10.1967
-140.987 0.16852 0 -6.89666
-136.96 0.169139 0 -6.93057
-82.289 0.26432 0 -12.8642
-84.7057 0.263335 0 -12.8438
-138.973 0.168831 0 -6.91359
-109.631 0.222656 0 -10.2374
-83.4973 0.263831 0 -12.854
-112.853 0.221831 0 -10.2103
-111.242 0.222247 0 -10.2238
-136.96 0.169139 0 -6.93057
-132.932 0.169744 0 -6.96467
-79.8722 0.265279 0 -12.8846
-82.289 0.26432 0 -12.8642
-134.946 0.169443 0 -6.94759
-106.409 0.22346 0 -10.2647
-81.0806 0.264803 0 -12.8744
-109.631 0.222656 0 -10.2374
-108.02 0.223061 0 -10.251
-132.932 0.169744 0 -6.96467
-128.905 0.170333 0 -6.99896
-77.4554 0.26621 0 -12.9052
-79.8722 0.265279 0 -12.8846
-130.918 0.170041 0 -6.98179
-103.187 0.224241 0 -10.2921
-78.6638 0.265748 0 -12.8949
-106.409 0.22346 0 -10.2647
-104.798 0.223853 0 -10.2784
-128.905 0.170333 0 -6.99896
-124.877 0.170908 0 -7.03344
-75.0386 0.267115 0 -12.9259
-77.4554 0.26621 0 -12.9052
-126.891 0.170623 0 -7.01618
-99.9646 0.225001 0 -10.3197
-76.247 0.266666 0 -12.9156
-103.187 0.224241 0 -10.2921
-101.576 0.224624 0 -10.3059
-124.877 0.170908 0 -7.03344
-120.85 0.171467 0 -7.0681
-72.6219 0.267993 0 -12.9467
-75.0386 0.267115 0 -12.9259
-122.863 0.171189 0 -7.05075
-96.7424 0.225739 0 -10.3474
-73.8302 0.267557 0 -12.9363
-99.9646 0.225001 0 -10.3197
-98.3535 0.225373 0 -10.3335
-120.85 0.171467 0 -7.0681
-116.822 0.17201 0 -7.10293
-70.2051 0.268843 0 -12.9676
-72.6219 0.267993 0 -12.9467
-118.836 0.171741 0 -7.08549
-93.5202 0.226455 0 -10.3753
-71.4135 0.268421 0 -12.9571
-96.7424 0.225739 0 -10.3474
-95.1313 0.2261 0 -10.3613
-116.822 0.17201 0 -7.10293
-112.795 0.172538 0 -7.13793
-67.7883 0.269666 0 -12.9886
-70.2051 0.268843 0 -12.9676
-114.808 0.172276 0 -7.12041
-90.2981 0.227149 0 -10.4033
-68.9967 0.269258 0 -12.9781
-93.5202 0.226455 0 -10.3753
-91.9092 0.226805 0 -10.3893
-112.795 0.172538 0 -7.13793
-108.767 0.173051 0 -7.17308
-65.3716 0.270461 0 -13.0097
-67.7883 0.269666 0 -12.9886
-110.781 0.172797 0 -7.15549
-87.0759 0.227821 0 -10.4314
-66.5799 0.270067 0 -12.9992
-90.2981 0.227149 0 -10.4033
-88.687 0.227488 0 -10.4173
-108.767 0.173051 0 -7.17308
-104.739 0.173548 0 -7.2084
-62.9548 0.27123 0 -13.0309
-65.3716 0.270461 0 -13.0097
-106.753 0.173301 0 -7.19072
-83.8537 0.228471 0 -10.4597
-64.1632 0.270849 0 -13.0203
-87.0759 0.227821 0 -10.4314
-85.4648 0.228149 0 -10.4455
-104.739 0.173548 0 -7.2084
-100.712 0.174029 0 -7.24386
-60.538 0.271972 0 -13.0522
-62.9548 0.27123 0 -13.0309
-102.726 0.17379 0 -7.22611
-80.6315 0.2291 0 -10.488
-61.7464 0.271604 0 -13.0415
-83.8537 0.228471 0 -10.4597
-82.2426 0.228788 0 -10.4738
-100.712 0.174029 0 -7.24386
-96.6843 0.174496 0 -7.27947
-58.1213 0.272689 0 -13.0735
-60.538 0.271972 0 -13.0522
-98.6981 0.174264 0 -7.26165
-77.4093 0.229708 0 -10.5165
-59.3297 0.272334 0 -13.0629
-80.6315 0.2291 0 -10.488
-79.0204 0.229407 0 -10.5023
-96.6843 0.174496 0 -7.27947
-92.6567 0.174949 0 -7.31522
-55.7045 0.273383 0 -13.095
-58.1213 0.272689 0 -13.0735
-94.6705 0.174724 0 -7.29733
-74.1871 0.230299 0 -10.5451
-56.9129 0.273039 0 -13.0843
-77.4093 0.229708 0 -10.5165
-75.7982 0.230006 0 -10.5308
-92.6567 0.174949 0 -7.31522
-88.6291 0.175391 0 -7.35111
-53.2878 0.274058 0 -13.1165
-55.7045 0.273383 0 -13.095
-90.6429 0.175171 0 -7.33315
-70.965 0.230873 0 -10.5738
-54.4962 0.273723 0 -13.1057
-74.1871 0.230299 0 -10.5451
-72.576 0.230588 0 -10.5595
-88.6291 0.175391 0 -7.35111
-84.6015 0.175823 0 -7.38713
-50.8711 0.274719 0 -13.1381
-53.2878 0.274058 0 -13.1165
-86.6153 0.175608 0 -7.3691
-67.7428 0.231437 0 -10.6027
-52.0794 0.27439 0 -13.1273
-70.965 0.230873 0 -10.5738
-69.3539 0.231156 0 -10.5882
-84.6015 0.175823 0 -7.38713
-80.5739 0.176249 0 -7.42329
-48.4544 0.27537 0 -13.1598
-50.8711 0.274719 0 -13.1381
-82.5877 0.176037 0 -7.40519
-64.5206 0.231994 0 -10.6316
-49.6627 0.275046 0 -13.149
-67.7428 0.231437 0 -10.6027
-66.1317 0.231716 0 -10.6171
-80.5739 0.176249 0 -7.42329
-76.5463 0.176672 0 -7.45959
-46.0377 0.276012 0 -13.1815
-48.4544 0.27537 0 -13.1598
-78.5601 0.176461 0 -7.44142
-61.2985 0.232547 0 -10.6606
-47.246 0.275692 0 -13.1707
-64.5206 0.231994 0 -10.6316
-62.9095 0.232272 0 -10.6461
-76.5463 0.176672 0 -7.45959
-72.5186 0.177086 0 -7.49603
-43.6211 0.276628 0 -13.2034
-46.0377 0.276012 0 -13.1815
-74.5324 0.17688 0 -7.47779
-58.0764 0.233084 0 -10.6898
-44.8294 0.276326 0 -13.1924
-61.2985 0.232547 0 -10.6606
-59.6874 0.232819 0 -10.6752
-72.5186 0.177086 0 -7.49603
-68.4911 0.177468 0 -7.53259
-41.2046 0.277166 0 -13.2252
-43.6211 0.276628 0 -13.2034
-70.5048 0.177285 0 -7.5143
-54.8544 0.233563 0 -10.719
-42.4128 0.276913 0 -13.2143
-58.0764 0.233084 0 -10.6898
-56.4654 0.233337 0 -10.7044
-68.4911 0.177468 0 -7.53259
-64.4636 0.177756 0 -7.56923
-38.7881 0.277463 0 -13.2471
-41.2046 0.277166 0 -13.2252
-66.4773 0.177629 0 -7.55091
-51.6324 0.233858 0 -10.7482
-39.9963 0.277363 0 -13.2362
-54.8544 0.233563 0 -10.719
-53.2434 0.233745 0 -10.7336
-64.4636 0.177756 0 -7.56923
-60.4362 0.177774 0 -7.60575
-36.3714 0.277192 0 -13.269
-38.7881 0.277463 0 -13.2471
-62.4498 0.177818 0 -7.58752
-48.4105 0.23369 0 -10.7773
-37.5798 0.277432 0 -13.2581
-51.6324 0.233858 0 -10.7482
-50.0215 0.233867 0 -10.7628
-60.4362 0.177774 0 -7.60575
-56.4091 0.177188 0 -7.64181
-33.9543 0.27555 0 -13.2909
-36.3714 0.277192 0 -13.269
-58.4226 0.177587 0 -7.62387
-45.1885 0.232402 0 -10.8059
-35.1629 0.276624 0 -13.28
-48.4105 0.23369 0 -10.7773
-46.7995 0.233239 0 -10.7917
-56.4091 0.177188 0 -7.64181
-52.3826 0.175182 0 -7.67641
-31.5354 0.271175 0 -13.3125
-33.9543 0.27555 0 -13.2909
-54.3957 0.176444 0 -7.65939
-41.9658 0.228793 0 -10.8333
-32.7452 0.273839 0 -13.3017
-45.1885 0.232402 0 -10.8059
-43.5773 0.231039 0 -10.8199
-52.3826 0.175182 0 -7.67641
-48.3566 0.170487 0 -7.70797
-29.113 0.261036 0 -13.3337
-31.5354 0.271175 0 -13.3125
-50.3696 0.17329 0 -7.69271
-38.7413 0.22029 0 -10.8581
-30.3247 0.267108 0 -13.3232
-41.9658 0.228793 0 -10.8333
-40.3539 0.22532 0 -10.8461
-48.3566 0.170487 0 -7.70797
-44.3325 0.160024 0 -7.7325
-26.6811 0.240831 0 -13.3545
-29.113 0.261036 0 -13.3337
-46.344 0.166233 0 -7.7215
-35.5123 0.202912 0 -10.8777
-27.8989 0.252608 0 -13.3441
-38.7413 0.22029 0 -10.8581
-37.1276 0.213254 0 -10.8689
-44.3325 0.160024 0 -7.7325
-40.3081 0.140251 0 -7.74462
-24.2332 0.20137 0 -13.374
-26.6811 0.240831 0 -13.3545
-42.3209 0.151705 0 -7.74053
-32.273 0.168513 0 -10.8875
-25.4592 0.224247 0 -13.3645
-35.5123 0.202912 0 -10.8777
-33.8946 0.188165 0 -10.8839
-40.3081 0.140251 0 -7.74462
-36.2879 0.101195 0 -7.73114
-21.7473 0.133326 0 -13.394
-24.2332 0.20137 0 -13.374
-38.2964 0.12368 0 -7.74237
-29.0127 0.107375 0 -10.8805
-22.9975 0.171836 0 -13.3836
-32.273 0.168513 0 -10.8875
-30.646 0.142975 0 -10.8872
-36.2879 0.101195 0 -7.73114
-32.2565 0.0376846 0 -7.67889
-19.2056 0.0161312 0 -13.4138
-21.7473 0.133326 0 -13.394
-34.2763 0.0737602 0 -7.71072
-25.7089 -0.000455797 0 -10.8469
-20.4833 0.0819249 0 -13.4042
-29.0127 0.107375 0 -10.8805
-27.3689 0.0589625 0 -10.8667
-32.2565 0.0376846 0 -7.67889
-28.2268 -0.078577 0 -7.55365
-16.5425 -0.151995 0 -13.4457
-19.2056 0.0161312 0 -13.4138
-30.2378 -0.0139803 0 -7.62878
-22.3281 -0.16501 0 -10.7759
-17.8971 -0.061039 0 -13.4265
-25.7089 -0.000455797 0 -10.8469
-24.0288 -0.071224 0 -10.8191
-28.2268 -0.078577 0 -7.55365
-24.117 -0.229285 0 -7.34289
-13.7343 -0.387321 0 -13.4974
-16.5425 -0.151995 0 -13.4457
-26.1939 -0.145722 0 -7.45893
-18.7946 -0.411877 0 -10.6678
-15.153 -0.264336 0 -13.4692
-22.3281 -0.16501 0 -10.7759
-20.5911 -0.285585 0 -10.7211
-24.117 -0.229285 0 -7.34289
-19.9508 -0.479991 0 -6.99523
-10.6424 -0.571548 0 -13.6323
-13.7343 -0.387321 0 -13.4974
-22.0303 -0.352556 0 -7.19092
-15.0328 -0.670705 0 -10.5494
-12.2438 -0.494135 0 -13.5467
-18.7946 -0.411877 0 -10.6678
-16.9385 -0.532327 0 -10.6158
-19.9508 -0.479991 0 -6.99523
-15.3628 -0.598063 0 -6.62073
-7.37807 -0.553857 0 -13.8911
-10.6424 -0.571548 0 -13.6323
-17.7575 -0.545868 0 -6.7989
-10.8318 -0.82233 0 -10.5584
-9.00502 -0.622385 0 -13.745
-15.0328 -0.670705 0 -10.5494
-13.0259 -0.812104 0 -10.5045
-15.3628 -0.598063 0 -6.62073
-10.3877 -0.583135 0 -6.3983
-3.914 0.474435 0 -14.4152
-7.37807 -0.553857 0 -13.8911
-12.8959 -0.700126 0 -6.46462
-6.2186 -0.105932 0 -10.9832
-5.69896 -0.224986 0 -14.1069
-10.8318 -0.82233 0 -10.5584
-8.53111 -0.603023 0 -10.727
-10.3877 -0.583135 0 -6.3983
-4.03163 1.47969 0 -7.53066
-1.30956 3.60115 0 -14.7874
-3.914 0.474435 0 -14.4152
-7.50859 0.131745 0 -6.67739
-1.25293 3.16312 0 -12.3829
-2.37132 1.60671 0 -14.6794
-6.2186 -0.105932 0 -10.9832
-3.86147 0.881674 0 -11.4503
-4.03163 1.47969 0 -7.53066
1.0471 9.74219 0 -11.5039
0.210988 11.3608 0 -13.5169
-1.30956 3.60115 0 -14.7874
-1.08672 3.6581 0 -8.9678
0.474006 12.9557 0 -13.3997
-0.46261 6.94604 0 -14.5465
-1.25293 3.16312 0 -12.3829
0.577234 7.1871 0 -13.3104
1.0471 9.74219 0 -11.5039
-0.583278 40.4594 0 -11.3303
0.515835 20.1748 0 -7.02082
0.210988 11.3608 0 -13.5169
1.78854 22.4262 0 -13.4561
-1.3889 28.8874 0 -6.54357
0.63107 16.2016 0 -11.1115
0.474006 12.9557 0 -13.3997
-0.400909 20.6774 0 -11.5074
-428.355 -128.553 0 39.3085
-465.22 -81.3573 0 -1.30746
-150.373 -25.7039 0 20.4315
-154.081 -46.2208 0 61.6318
-453.391 -103.31 0 14.7719
-307.721 -53.4718 0 12.0518
-147.714 -36.0865 0 38.8761
-284.893 -85.4817 0 56.2891
-301.111 -71.8531 0 27.8819
-465.22 -81.3573 0 -1.30746
-474.052 -35.7005 0 -13.9082
-158.466 -15.5665 0 -4.22963
-150.373 -25.7039 0 20.4315
-469.161 -56.8521 0 -9.43653
-315.039 -27.8664 0 -7.68498
-156.626 -20.0623 0 5.92902
-307.721 -53.4718 0 12.0518
-311.038 -38.6385 0 1.36084
-474.052 -35.7005 0 -13.9082
-478.574 -12.6771 0 -16.2966
-159.015 -6.38591 0 -15.3936
-158.466 -15.5665 0 -4.22963
-478.362 -21.8622 0 -16.0954
-318.837 -11.2168 0 -16.1611
-158.175 -10.4963 0 -10.962
-315.039 -27.8664 0 -7.68498
-317.978 -18.7296 0 -13.5469
-478.574 -12.6771 0 -16.2966
-474.956 -2.01663 0 -15.0168
-159.469 -2.10459 0 -19.3629
-159.015 -6.38591 0 -15.3936
-476.597 -6.07276 0 -15.5825
-317.858 -3.00031 0 -18.0088
-159.944 -3.87668 0 -18.0558
-318.837 -11.2168 0 -16.1611
-318.605 -6.15556 0 -17.325
-474.956 -2.01663 0 -15.0168
-470.707 1.08254 0 -14.1365
-157.765 0.119685 0 -19.77
-159.469 -2.10459 0 -19.3629
-473.187 0.0475885 0 -14.5797
-314.965 0.471294 0 -17.692
-158.409 -0.694754 0 -19.788
-317.858 -3.00031 0 -18.0088
-316.584 -0.866402 0 -18.0723
-470.707 1.08254 0 -14.1365
-465.8 1.83264 0 -13.5353
-156.334 0.532623 0 -19.049
-157.765 0.119685 0 -19.77
-468.018 1.68064 0 -13.7482
-311.641 1.27185 0 -16.9186
-157.207 0.421031 0 -19.4814
-314.965 0.471294 0 -17.692
-313.25 1.10338 0 -17.2545
-465.8 1.83264 0 -13.5353
-461.839 1.44502 0 -13.3247
-154.652 0.551731 0 -18.1232
-156.334 0.532623 0 -19.049
-463.825 1.68242 0 -13.4218
-308.639 1.17426 0 -16.2275
-155.383 0.595567 0 -18.5671
-311.641 1.27185 0 -16.9186
-310.095 1.27367 0 -16.5757
-461.839 1.44502 0 -13.3247
-458.267 0.977082 0 -13.212
-153.358 0.316449 0 -17.3861
-154.652 0.551731 0 -18.1232
-459.941 1.21856 0 -13.2486
-306.06 0.784232 0 -15.735
-154.021 0.432793 0 -17.7276
-308.639 1.17426 0 -16.2275
-307.291 0.995066 0 -15.943
-458.267 0.977082 0 -13.212
-455.234 0.536874 0 -13.1769
-152.165 0.135264 0 -16.8725
-153.358 0.316449 0 -17.3861
-456.729 0.737616 0 -13.1952
-303.849 0.435286 0 -15.413
-152.717 0.224777 0 -17.0999
-306.06 0.784232 0 -15.735
-304.918 0.596396 0 -15.5616
-455.234 0.536874 0 -13.1769
-452.436 0.249014 0 -13.1475
-151.166 -0.0164066 0 -16.5524
-152.165 0.135264 0 -16.8725
-453.796 0.379235 0 -13.1595
-301.891 0.174721 0 -15.2153
-151.663 0.0500833 0 -16.6931
-303.849 0.435286 0 -15.413
-302.844 0.293706 0 -15.2988
-452.436 0.249014 0 -13.1475
-449.835 0.0615302 0 -13.1245
-150.235 -0.104042 0 -16.3612
-151.166 -0.0164066 0 -16.5524
-451.126 0.142082 0 -13.1372
-300.09 0.0114918 0 -15.0942
-150.686 -0.0649629 0 -16.4435
-301.891 0.174721 0 -15.2153
-300.976 0.0820331 0 -15.1488
-449.835 0.0615302 0 -13.1245
-447.319 -0.0420648 0 -13.0965
-149.372 -0.157853 0 -16.2522
-150.235 -0.104042 0 -16.3612
-448.566 0.00237309 0 -13.1105
-298.382 -0.0845729 0 -15.0196
-149.801 -0.135597 0 -16.2992
-300.09 0.0114918 0 -15.0942
-299.228 -0.0433193 0 -15.052
-447.319 -0.0420648 0 -13.0965
-444.859 -0.0985323 0 -13.0666
-148.534 -0.183372 0 -16.19
-149.372 -0.157853 0 -16.2522
-446.086 -0.0753999 0 -13.082
-296.724 -0.135095 0 -14.9702
-148.949 -0.172826 0 -16.2167
-298.382 -0.0845729 0 -15.0196
-297.549 -0.114345 0 -14.993
-444.859 -0.0985323 0 -13.0666
-442.422 -0.124736 0 -13.0342
-147.715 -0.194803 0 -16.1539
-148.534 -0.183372 0 -16.19
-443.638 -0.114203 0 -13.0505
-295.092 -0.159301 0 -14.9347
-148.124 -0.190686 0 -16.1697
-296.724 -0.135095 0 -14.9702
-295.906 -0.149654 0 -14.9511
-442.422 -0.124736 0 -13.0342
-439.999 -0.13551 0 -13.0009
-146.903 -0.197077 0 -16.1311
-147.715 -0.194803 0 -16.1539
-441.21 -0.131643 0 -13.0176
-293.472 -0.168453 0 -14.9061
-147.308 -0.196646 0 -16.1413
-295.092 -0.159301 0 -14.9347
-294.281 -0.165261 0 -14.9199
-439.999 -0.13551 0 -13.0009
-437.58 -0.137717 0 -12.9672
-146.094 -0.195144 0 -16.115
-146.903 -0.197077 0 -16.1311
-438.789 -0.137306 0 -12.984
-291.857 -0.169848 0 -14.881
-146.498 -0.196541 0 -16.1225
-293.472 -0.168453 0 -14.9061
-292.664 -0.169831 0 -14.8932
-437.58 -0.137717 0 -12.9672
-435.163 -0.136005 0 -12.9336
-145.287 -0.19089 0 -16.1021
-146.094 -0.195144 0 -16.115
-436.371 -0.137218 0 -12.9504
-290.245 -0.167352 0 -14.8577
-145.691 -0.193183 0 -16.1083
-291.857 -0.169848 0 -14.881
-291.051 -0.168932 0 -14.8692
-435.163 -0.136005 0 -12.9336
-432.746 -0.132413 0 -12.9004
-144.481 -0.185721 0 -16.0906
-145.287 -0.19089 0 -16.1021
-433.955 -0.134346 0 -12.9169
-288.633 -0.163107 0 -14.8354
-144.884 -0.188391 0 -16.0962
-290.245 -0.167352 0 -14.8577
-289.439 -0.165369 0 -14.8464
-432.746 -0.132413 0 -12.9004
-430.33 -0.128119 0 -12.8677
-143.675 -0.180151 0 -16.0797
-144.481 -0.185721 0 -16.0906
-431.538 -0.130322 0 -12.884
-287.022 -0.158142 0 -14.8136
-144.078 -0.182957 0 -16.0851
-288.633 -0.163107 0 -14.8354
-287.828 -0.160677 0 -14.8244
-430.33 -0.128119 0 -12.8677
-427.914 -0.123586 0 -12.8356
-142.868 -0.174498 0 -16.0692
-143.675 -0.180151 0 -16.0797
-429.122 -0.125863 0 -12.8515
-285.41 -0.15295 0 -14.7923
-143.272 -0.177329 0 -16.0744
-287.022 -0.158142 0 -14.8136
-286.216 -0.155558 0 -14.8029
-427.914 -0.123586 0 -12.8356
-425.497 -0.119037 0 -12.804
-142.062 -0.168857 0 -16.0588
-142.868 -0.174498 0 -16.0692
-426.705 -0.121308 0 -12.8197
-283.799 -0.147733 0 -14.7714
-142.465 -0.171671 0 -16.064
-285.41 -0.15295 0 -14.7923
-284.605 -0.150339 0 -14.7818
-425.497 -0.119037 0 -12.804
-423.08 -0.114536 0 -12.7732
-141.255 -0.163274 0 -16.0486
-142.062 -0.168857 0 -16.0588
-424.289 -0.116778 0 -12.7885
-282.187 -0.142566 0 -14.7508
-141.659 -0.166058 0 -16.0537
-283.799 -0.147733 0 -14.7714
-282.993 -0.145142 0 -14.7611
-423.08 -0.114536 0 -12.7732
-420.664 -0.110103 0 -12.7429
-140.449 -0.157752 0 -16.0386
-141.255 -0.163274 0 -16.0486
-421.872 -0.112312 0 -12.7579
-280.575 -0.137465 0 -14.7307
-140.852 -0.160506 0 -16.0436
-282.187 -0.142566 0 -14.7508
-281.381 -0.140007 0 -14.7407
-420.664 -0.110103 0 -12.7429
-418.247 -0.105731 0 -12.7132
-139.642 -0.152287 0 -16.0287
-140.449 -0.157752 0 -16.0386
-419.455 -0.10791 0 -12.728
-278.963 -0.132426 0 -14.7109
-140.046 -0.155013 0 -16.0336
-280.575 -0.137465 0 -14.7307
-279.769 -0.134938 0 -14.7208
-418.247 -0.105731 0 -12.7132
-415.83 -0.101409 0 -12.6841
-138.836 -0.146869 0 -16.0191
-139.642 -0.152287 0 -16.0287
-417.038 -0.103564 0 -12.6986
-277.352 -0.127439 0 -14.6916
-139.239 -0.149572 0 -16.0239
-278.963 -0.132426 0 -14.7109
-278.157 -0.129926 0 -14.7012
-415.83 -0.101409 0 -12.6841
-413.413 -0.0971283 0 -12.6557
-138.029 -0.141493 0 -16.0096
-138.836 -0.146869 0 -16.0191
-414.621 -0.0992638 0 -12.6698
-275.74 -0.122497 0 -14.6726
-138.432 -0.144176 0 -16.0143
-277.352 -0.127439 0 -14.6916
-276.546 -0.124963 0 -14.682
-413.413 -0.0971283 0 -12.6557
-410.996 -0.0928827 0 -12.6278
-137.222 -0.136153 0 -16.0003
-138.029 -0.141493 0 -16.0096
-412.205 -0.0950014 0 -12.6417
-274.128 -0.117592 0 -14.654
-137.626 -0.138818 0 -16.0049
-275.74 -0.122497 0 -14.6726
-274.934 -0.12004 0 -14.6632
-410.996 -0.0928827 0 -12.6278
-408.579 -0.0886674 0 -12.6005
-136.416 -0.130845 0 -15.9912
-137.222 -0.136153 0 -16.0003
-409.788 -0.0907714 0 -12.6141
-272.516 -0.11272 0 -14.6358
-136.819 -0.133495 0 -15.9957
-274.128 -0.117592 0 -14.654
-273.322 -0.115152 0 -14.6449
-408.579 -0.0886674 0 -12.6005
-406.162 -0.0844797 0 -12.5738
-135.609 -0.125568 0 -15.9823
-136.416 -0.130845 0 -15.9912
-407.371 -0.0865702 0 -12.5871
-270.904 -0.107878 0 -14.618
-136.013 -0.128203 0 -15.9867
-272.516 -0.11272 0 -14.6358
-271.71 -0.110295 0 -14.6269
-406.162 -0.0844797 0 -12.5738
-403.745 -0.0803179 0 -12.5477
-134.803 -0.12032 0 -15.9736
-135.609 -0.125568 0 -15.9823
-404.954 -0.0823956 0 -12.5607
-269.292 -0.103064 0 -14.6006
-135.206 -0.122941 0 -15.9779
-270.904 -0.107878 0 -14.618
-270.098 -0.105467 0 -14.6092
-403.745 -0.0803179 0 -12.5477
-401.328 -0.0761813 0 -12.5221
-133.996 -0.115101 0 -15.965
-134.803 -0.12032 0 -15.9736
-402.537 -0.0782465 0 -12.5348
-267.68 -0.0982782 0 -14.5836
-134.399 -0.117707 0 -15.9693
-269.292 -0.103064 0 -14.6006
-268.486 -0.100668 0 -14.592
-401.328 -0.0761813 0 -12.5221
-398.911 -0.0720692 0 -12.4972
-133.189 -0.109911 0 -15.9567
-133.996 -0.115101 0 -15.965
-400.12 -0.0741222 0 -12.5096
-266.068 -0.0935194 0 -14.5669
-133.593 -0.112502 0 -15.9608
-267.68 -0.0982782 0 -14.5836
-266.874 -0.0958954 0 -14.5752
-398.911 -0.0720692 0 -12.4972
-396.494 -0.0679814 0 -12.4728
-132.383 -0.104748 0 -15.9486
-133.189 -0.109911 0 -15.9567
-397.703 -0.0700223 0 -12.4849
-264.456 -0.0887876 0 -14.5506
-132.786 -0.107326 0 -15.9526
-266.068 -0.0935194 0 -14.5669
-265.262 -0.0911501 0 -14.5587
-396.494 -0.0679814 0 -12.4728
-394.078 -0.0639178 0 -12.4489
-131.576 -0.0996139 0 -15.9406
-132.383 -0.104748 0 -15.9486
-395.286 -0.0659466 0 -12.4608
-262.844 -0.0840825 0 -14.5347
-131.979 -0.102177 0 -15.9446
-264.456 -0.0887876 0 -14.5506
-263.65 -0.0864317 0 -14.5426
-394.078 -0.0639178 0 -12.4489
-391.661 -0.0598782 0 -12.4257
-130.77 -0.0945078 0 -15.9328
-131.576 -0.0996139 0 -15.9406
-392.869 -0.061895 0 -12.4372
-261.232 -0.0794043 0 -14.5192
-131.173 -0.0970573 0 -15.9367
-262.844 -0.0840825 0 -14.5347
-262.038 -0.0817401 0 -14.5269
-391.661 -0.0598782 0 -12.4257
-389.244 -0.0558627 0 -12.403
-129.963 -0.0894301 0 -15.9253
-130.77 -0.0945078 0 -15.9328
-390.452 -0.0578675 0 -12.4142
-259.62 -0.0747529 0 -14.5041
-130.366 -0.0919654 0 -15.929
-261.232 -0.0794043 0 -14.5192
-260.426 -0.0770753 0 -14.5116
-389.244 -0.0558627 0 -12.403
-386.827 -0.0518712 0 -12.3808
-129.156 -0.0843807 0 -15.9179
-129.963 -0.0894301 0 -15.9253
-388.035 -0.053864 0 -12.3918
-258.009 -0.0701283 0 -14.4893
-129.56 -0.0869018 0 -15.9215
-259.62 -0.0747529 0 -14.5041
-258.815 -0.0724373 0 -14.4966
-386.827 -0.0518712 0 -12.3808
-384.41 -0.0479037 0 -12.3592
-128.35 -0.0793597 0 -15.9107
-129.156 -0.0843807 0 -15.9179
-385.618 -0.0498845 0 -12.3699
-256.397 -0.0655306 0 -14.4749
-128.753 -0.0818666 0 -15.9142
-258.009 -0.0701283 0 -14.4893
-257.203 -0.0678261 0 -14.4821
-384.41 -0.0479037 0 -12.3592
-381.993 -0.04396 0 -12.3382
-127.543 -0.0743672 0 -15.9036
-128.35 -0.0793597 0 -15.9107
-383.201 -0.0459289 0 -12.3486
-254.785 -0.0609597 0 -14.4609
-127.946 -0.0768599 0 -15.9071
-256.397 -0.0655306 0 -14.4749
-255.591 -0.0632418 0 -14.4678
-381.993 -0.04396 0 -12.3382
-379.576 -0.0400402 0 -12.3176
-126.737 -0.0694032 0 -15.8968
-127.543 -0.0743672 0 -15.9036
-380.784 -0.0419971 0 -12.3278
-253.173 -0.0564156 0 -14.4472
-127.14 -0.0718816 0 -15.9002
-254.785 -0.0609597 0 -14.4609
-253.979 -0.0586843 0 -14.454
-379.576 -0.0400402 0 -12.3176
-377.159 -0.0361442 0 -12.2977
-125.93 -0.0644678 0 -15.8901
-126.737 -0.0694032 0 -15.8968
-378.367 -0.0380892 0 -12.3076
-251.561 -0.0518983 0 -14.4339
-126.333 -0.0669319 0 -15.8934
-253.173 -0.0564156 0 -14.4472
-252.367 -0.0541536 0 -14.4405
-377.159 -0.0361442 0 -12.2977
-374.742 -0.0322719 0 -12.2783
-125.123 -0.059561 0 -15.8836
-125.93 -0.0644678 0 -15.8901
-375.95 -0.0342051 0 -12.2879
-249.949 -0.0474079 0 -14.4209
-125.527 -0.0620108 0 -15.8868
-251.561 -0.0518983 0 -14.4339
-250.755 -0.0496497 0 -14.4273
-374.742 -0.0322719 0 -12.2783
-372.325 -0.0284233 0 -12.2594
-124.317 -0.0546829 0 -15.8773
-125.123 -0.059561 0 -15.8836
-373.533 -0.0303446 0 -12.2688
-248.337 -0.0429443 0 -14.4083
-124.72 -0.0571184 0 -15.8805
-249.949 -0.0474079 0 -14.4209
-249.143 -0.0451727 0 -14.4146
-372.325 -0.0284233 0 -12.2594
-369.908 -0.0245983 0 -12.241
-123.51 -0.0498334 0 -15.8712
-124.317 -0.0546829 0 -15.8773
-371.116 -0.0265079 0 -12.2501
-246.725 -0.0385074 0 -14.3961
-123.913 -0.0522546 0 -15.8742
-248.337 -0.0429443 0 -14.4083
-247.531 -0.0407225 0 -14.4022
-369.908 -0.0245983 0 -12.241
-367.491 -0.0207969 0 -12.2232
-122.704 -0.0450127 0 -15.8652
-123.51 -0.0498334 0 -15.8712
-368.699 -0.0226947 0 -12.232
-245.113 -0.0340974 0 -14.3842
-123.107 -0.0474195 0 -15.8682
-246.725 -0.0385074 0 -14.3961
-245.919 -0.0362991 0 -14.3901
-367.491 -0.0207969 0 -12.2232
-365.074 -0.0170191 0 -12.2059
-121.897 -0.0402207 0 -15.8595
-122.704 -0.0450127 0 -15.8652
-366.282 -0.0189051 0 -12.2145
-243.501 -0.0297142 0 -14.3726
-122.3 -0.0426131 0 -15.8623
-245.113 -0.0340974 0 -14.3842
-244.307 -0.0319025 0 -14.3784
-365.074 -0.0170191 0 -12.2059
-362.657 -0.0132647 0 -12.1891
-121.09 -0.0354576 0 -15.8539
-121.897 -0.0402207 0 -15.8595
-363.865 -0.0151389 0 -12.1974
-241.889 -0.0253577 0 -14.3615
-121.494 -0.0378356 0 -15.8566
-243.501 -0.0297142 0 -14.3726
-242.695 -0.0275326 0 -14.367
-362.657 -0.0132647 0 -12.1891
-360.24 -0.00953367 0 -12.1729
-120.284 -0.0307232 0 -15.8484
-121.09 -0.0354576 0 -15.8539
-361.448 -0.0113962 0 -12.1809
-240.277 -0.0210281 0 -14.3506
-120.687 -0.0330868 0 -15.8511
-241.889 -0.0253577 0 -14.3615
-241.083 -0.0231896 0 -14.356
-360.24 -0.00953367 0 -12.1729
-357.822 -0.00582602 0 -12.1571
-119.477 -0.0260177 0 -15.8432
-120.284 -0.0307232 0 -15.8484
-359.031 -0.00767694 0 -12.1649
-238.665 -0.0167251 0 -14.3401
-119.881 -0.0283668 0 -15.8458
-240.277 -0.0210281 0 -14.3506
-239.471 -0.0188732 0 -14.3453
-357.822 -0.00582602 0 -12.1571
-355.405 -0.00214171 0 -12.1419
-118.671 -0.021341 0 -15.8381
-119.477 -0.0260177 0 -15.8432
-356.614 -0.00398094 0 -12.1494
-237.053 -0.0124489 0 -14.33
-119.074 -0.0236757 0 -15.8406
-238.665 -0.0167251 0 -14.3401
-237.859 -0.0145837 0 -14.335
-355.405 -0.00214171 0 -12.1419
-352.988 0.00151929 0 -12.1272
-117.864 -0.0166933 0 -15.8332
-118.671 -0.021341 0 -15.8381
-354.197 -0.000308312 0 -12.1345
-235.442 -0.00819947 0 -14.3201
-118.267 -0.0190135 0 -15.8356
-237.053 -0.0124489 0 -14.33
-236.247 -0.0103209 0 -14.325
-352.988 0.00151929 0 -12.1272
-350.571 0.0051571 0 -12.1129
-117.057 -0.0120745 0 -15.8284
-117.864 -0.0166933 0 -15.8332
-351.78 0.0033411 0 -12.12
-233.83 -0.00397675 0 -14.3106
-117.461 -0.0143802 0 -15.8308
-235.442 -0.00819947 0 -14.3201
-234.636 -0.00608476 0 -14.3153
-350.571 0.0051571 0 -12.1129
-348.154 0.00877172 0 -12.0992
-116.251 -0.00748461 0 -15.8238
-117.057 -0.0120744 0 -15.8284
-349.363 0.00696731 0 -12.106
-232.218 0.000219249 0 -14.3015
-116.654 -0.00977591 0 -15.8261
-233.83 -0.00397675 0 -14.3106
-233.024 -0.00187541 0 -14.306
-348.154 0.00877172 0 -12.0992
-345.737 0.0123632 0 -12.086
-115.444 -0.00292376 0 -15.8194
-116.251 -0.00748461 0 -15.8238
-346.946 0.0105703 0 -12.0926
-230.606 0.00438852 0 -14.2927
-115.848 -0.00520056 0 -15.8216
-232.218 0.000219249 0 -14.3015
-231.412 0.00230723 0 -14.297
-345.737 0.0123632 0 -12.086
-343.32 0.0159315 0 -12.0733
-114.638 0.00160805 0 -15.8152
-115.444 -0.00292376 0 -15.8194
-344.529 0.0141503 0 -12.0796
-228.994 0.00853108 0 -14.2842
-115.041 -0.000654224 0 -15.8173
-230.606 0.00438852 0 -14.2927
-229.8 0.00646314 0 -14.2884
-343.32 0.0159315 0 -12.0733
-340.903 0.0194768 0 -12.0611
-113.831 0.0061108 0 -15.8111
-114.638 0.00160805 0 -15.8152
-342.112 0.0177071 0 -12.0671
-227.382 0.0126469 0 -14.276
-114.235 0.00386306 0 -15.8131
-228.994 0.00853108 0 -14.2842
-228.188 0.0105923 0 -14.2801
-340.903 0.0194768 0 -12.0611
-338.486 0.0229991 0 -12.0493
-113.025 0.0105845 0 -15.8071
-113.831 0.0061108 0 -15.8111
-339.695 0.0212408 0 -12.0551
-225.77 0.016736 0 -14.2682
-113.428 0.00835127 0 -15.8091
-227.382 0.0126469 0 -14.276
-226.576 0.0146948 0 -14.2721
-338.486 0.0229991 0 -12.0493
-336.069 0.0264983 0 -12.038
-112.218 0.015029 0 -15.8034
-113.025 0.0105844 0 -15.8071
-337.278 0.0247515 0 -12.0436
-224.158 0.0207984 0 -14.2607
-112.621 0.0128104 0 -15.8052
-225.77 0.016736 0 -14.2682
-224.964 0.0187706 0 -14.2644
-336.069 0.0264983 0 -12.038
-333.652 0.0299745 0 -12.0273
-111.412 0.0194443 0 -15.7998
-112.218 0.015029 0 -15.8034
-334.861 0.0282393 0 -12.0326
-222.546 0.0248341 0 -14.2535
-111.815 0.0172403 0 -15.8015
-224.158 0.0207984 0 -14.2607
-223.352 0.0228196 0 -14.257
-333.652 0.0299745 0 -12.0273
-331.235 0.0334278 0 -12.017
-110.605 0.0238305 0 -15.7963
-111.412 0.0194443 0 -15.7998
-332.443 0.0317041 0 -12.0221
-220.934 0.0288431 0 -14.2466
-111.008 0.0216411 0 -15.798
-222.546 0.0248341 0 -14.2535
-221.74 0.0268419 0 -14.25
-331.235 0.0334278 0 -12.017
-328.818 0.0368582 0 -12.0071
-109.798 0.0281874 0 -15.793
-110.605 0.0238305 0 -15.7963
-330.026 0.0351459 0 -12.012
-219.322 0.0328253 0 -14.24
-110.202 0.0260126 0 -15.7946
-220.934 0.0288431 0 -14.2466
-220.128 0.0308375 0 -14.2433
-328.818 0.0368582 0 -12.0071
-326.401 0.0402657 0 -11.9978
-108.992 0.0325151 0 -15.7899
-109.798 0.0281874 0 -15.793
-327.609 0.0385648 0 -12.0024
-217.71 0.0367808 0 -14.2338
-109.395 0.0303549 0 -15.7914
-219.322 0.0328253 0 -14.24
-218.516 0.0348064 0 -14.2369
-326.401 0.0402657 0 -11.9978
-323.984 0.0436503 0 -11.9889
-108.185 0.0368135 0 -15.7869
-108.992 0.0325151 0 -15.7899
-325.192 0.0419609 0 -11.9933
-216.098 0.0407096 0 -14.2279
-108.589 0.034668 0 -15.7884
-217.71 0.0367808 0 -14.2338
-216.904 0.0387485 0 -14.2308
-323.984 0.0436503 0 -11.9889
-321.567 0.0470121 0 -11.9805
-107.379 0.0410825 0 -15.7841
-108.185 0.0368135 0 -15.7869
-322.775 0.045334 0 -11.9846
-214.487 0.0446116 0 -14.2222
-107.782 0.0389517 0 -15.7855
-216.098 0.0407096 0 -14.2279
-215.293 0.0426639 0 -14.225
-321.567 0.0470121 0 -11.9805
-319.15 0.050351 0 -11.9725
-106.572 0.0453222 0 -15.7814
-107.379 0.0410825 0 -15.7841
-320.358 0.0486844 0 -11.9764
-212.875 0.0484869 0 -14.2169
-106.976 0.043206 0 -15.7827
-214.487 0.0446116 0 -14.2222
-213.681 0.0465526 0 -14.2195
-319.15 0.050351 0 -11.9725
-316.733 0.0536671 0 -11.965
-105.766 0.0495325 0 -15.7789
-106.572 0.0453222 0 -15.7814
-317.941 0.0520119 0 -11.9687
-211.263 0.0523354 0 -14.2119
-106.169 0.047431 0 -15.7801
-212.875 0.0484869 0 -14.2169
-212.069 0.0504145 0 -14.2144
-316.733 0.0536671 0 -11.965
-314.316 0.0569604 0 -11.9579
-104.959 0.0537133 0 -15.7765
-105.766 0.0495325 0 -15.7789
-315.524 0.0553166 0 -11.9614
-209.651 0.0561572 0 -14.2072
-105.363 0.0516266 0 -15.7777
-211.263 0.0523354 0 -14.2119
-210.457 0.0542496 0 -14.2095
-314.316 0.0569604 0 -11.9579
-311.898 0.0602309 0 -11.9513
-104.153 0.0578646 0 -15.7743
-104.959 0.0537133 0 -15.7765
-313.107 0.0585985 0 -11.9545
-208.039 0.0599521 0 -14.2028
-104.556 0.0557927 0 -15.7754
-209.651 0.0561572 0 -14.2072
-208.845 0.058058 0 -14.205
-311.898 0.0602309 0 -11.9513
-309.481 0.0634787 0 -11.9451
-103.346 0.0619865 0 -15.7723
-104.153 0.0578647 0 -15.7743
-310.69 0.0618576 0 -11.9482
-206.427 0.0637203 0 -14.1987
-103.75 0.0599293 0 -15.7733
-208.039 0.0599521 0 -14.2028
-207.233 0.0618396 0 -14.2007
-309.481 0.0634787 0 -11.9451
-307.064 0.0667037 0 -11.9394
-102.54 0.0660788 0 -15.7703
-103.346 0.0619865 0 -15.7723
-308.273 0.065094 0 -11.9422
-204.815 0.0674617 0 -14.1948
-102.943 0.0640363 0 -15.7713
-206.427 0.0637203 0 -14.1987
-205.621 0.0655944 0 -14.1967
-307.064 0.0667037 0 -11.9394
-304.647 0.0699059 0 -11.9341
-101.733 0.0701415 0 -15.7686
-102.54 0.0660788 0 -15.7703
-305.856 0.0683076 0 -11.9367
-203.203 0.0711763 0 -14.1913
-102.137 0.0681138 0 -15.7694
-204.815 0.0674617 0 -14.1948
-204.009 0.0693223 0 -14.193
-304.647 0.0699059 0 -11.9341
-302.23 0.0730854 0 -11.9293
-100.927 0.0741746 0 -15.7669
-101.733 0.0701415 0 -15.7686
-303.439 0.0714985 0 -11.9317
-201.591 0.074864 0 -14.1881
-101.33 0.0721618 0 -15.7677
-203.203 0.0711763 0 -14.1913
-202.397 0.0730235 0 -14.1897
-302.23 0.0730854 0 -11.9293
-299.813 0.0762422 0 -11.9249
-100.12 0.078178 0 -15.7654
-100.927 0.0741746 0 -15.7669
-301.022 0.0746666 0 -11.927
-199.98 0.0785249 0 -14.1851
-100.524 0.07618 0 -15.7662
-201.591 0.074864 0 -14.1881
-200.785 0.0766978 0 -14.1866
-299.813 0.0762422 0 -11.9249
-297.396 0.0793762 0 -11.9209
-99.3139 0.0821518 0 -15.7641
-100.12 0.078178 0 -15.7654
-298.605 0.077812 0 -11.9228
-198.368 0.0821589 0 -14.1825
-99.7171 0.0801686 0 -15.7648
-199.98 0.0785249 0 -14.1851
-199.174 0.0803453 0 -14.1838
-297.396 0.0793762 0 -11.9209
-294.979 0.0824875 0 -11.9173
-98.5074 0.0860958 0 -15.7629
-99.3139 0.0821518 0 -15.7641
-296.188 0.0809347 0 -11.9191
-196.756 0.0857661 0 -14.1801
-98.9106 0.0841275 0 -15.7635
-198.368 0.0821589 0 -14.1825
-197.562 0.0839659 0 -14.1812
-294.979 0.0824875 0 -11.9173
-292.562 0.0855761 0 -11.9142
-97.7009 0.09001 0 -15.7618
-98.5074 0.0860958 0 -15.7629
-293.771 0.0840346 0 -11.9157
-195.144 0.0893463 0 -14.178
-98.1042 0.0880566 0 -15.7624
-196.756 0.0857661 0 -14.1801
-195.95 0.0875596 0 -14.179
-292.562 0.0855761 0 -11.9142
-290.145 0.0886419 0 -11.9115
-96.8945 0.0938945 0 -15.7609
-97.7009 0.09001 0 -15.7618
-291.353 0.0871118 0 -11.9128
-193.532 0.0928997 0 -14.1762
-97.2977 0.091956 0 -15.7614
-195.144 0.0893463 0 -14.178
-194.338 0.0911264 0 -14.1771
-290.145 0.0886419 0 -11.9115
-287.728 0.0916851 0 -11.9092
-96.088 0.0977491 0 -15.7601
-96.8945 0.0938945 0 -15.7609
-288.936 0.0901663 0 -11.9103
-191.92 0.0964261 0 -14.1746
-96.4912 0.0958255 0 -15.7605
-193.532 0.0928997 0 -14.1762
-192.726 0.0946662 0 -14.1754
-287.728 0.0916851 0 -11.9092
-285.311 0.0947055 0 -11.9073
-95.2815 0.101574 0 -15.7595
-96.088 0.0977491 0 -15.7601
-286.519 0.0931981 0 -11.9082
-190.308 0.0999255 0 -14.1734
-95.6848 0.0996652 0 -15.7598
-191.92 0.0964261 0 -14.1746
-191.114 0.0981792 0 -14.174
-285.311 0.0947055 0 -11.9073
-282.894 0.0977031 0 -11.9058
-94.4751 0.105369 0 -15.759
-95.2815 0.101574 0 -15.7595
-284.102 0.0962071 0 -11.9065
-188.696 0.103398 0 -14.1724
-94.8783 0.103475 0 -15.7592
-190.308 0.0999255 0 -14.1734
-189.502 0.101665 0 -14.1728
-282.894 0.0977031 0 -11.9058
-280.477 0.100678 0 -11.9047
-93.6686 0.109133 0 -15.7586
-94.4751 0.105369 0 -15.759
-281.685 0.0991934 0 -11.9052
-187.085 0.106843 0 -14.1716
-94.0719 0.107255 0 -15.7588
-188.696 0.103398 0 -14.1724
-187.891 0.105124 0 -14.172
-280.477 0.100678 0 -11.9047
-278.06 0.10363 0 -11.904
-92.8622 0.112868 0 -15.7584
-93.6686 0.109133 0 -15.7586
-279.268 0.102157 0 -11.9043
-185.473 0.110262 0 -14.1712
-93.2654 0.111005 0 -15.7585
-187.085 0.106843 0 -14.1716
-186.279 0.108556 0 -14.1714
-278.06 0.10363 0 -11.904
-275.643 0.10656 0 -11.9038
-92.0558 0.116573 0 -15.7583
-92.8622 0.112868 0 -15.7584
-276.851 0.105098 0 -11.9038
-183.861 0.113653 0 -14.171
-92.459 0.114724 0 -15.7583
-185.473 0.110262 0 -14.1712
-184.667 0.111961 0 -14.1711
-275.643 0.10656 0 -11.9038
-273.226 0.109466 0 -11.9039
-91.2493 0.120248 0 -15.7583
-92.0558 0.116573 0 -15.7583
-274.434 0.108016 0 -11.9038
-182.249 0.117018 0 -14.1711
-91.6526 0.118414 0 -15.7583
-183.861 0.113653 0 -14.171
-183.055 0.115339 0 -14.171
-273.226 0.109466 0 -11.9039
-270.809 0.11235 0 -11.9044
-90.4429 0.123892 0 -15.7585
-91.2493 0.120248 0 -15.7583
-272.017 0.110911 0 -11.9041
-180.637 0.120355 0 -14.1714
-90.8461 0.122074 0 -15.7584
-182.249 0.117018 0 -14.1711
-181.443 0.11869 0 -14.1712
-270.809 0.11235 0 -11.9044
-268.391 0.115211 0 -11.9053
-89.6365 0.127507 0 -15.7587
-90.4429 0.123892 0 -15.7585
-269.6 0.113784 0 -11.9048
-179.025 0.123665 0 -14.172
-90.0397 0.125703 0 -15.7586
-180.637 0.120355 0 -14.1714
-179.831 0.122013 0 -14.1717
-268.391 0.115211 0 -11.9053
-265.974 0.11805 0 -11.9065
-88.8301 0.131091 0 -15.7592
-89.6365 0.127507 0 -15.7587
-267.183 0.116633 0 -11.9059
-177.414 0.126948 0 -14.1728
-89.2333 0.129303 0 -15.7589
-179.025 0.123665 0 -14.172
-178.22 0.12531 0 -14.1724
-265.974 0.11805 0 -11.9065
-263.557 0.120865 0 -11.9082
-88.0237 0.134645 0 -15.7597
-88.8301 0.131091 0 -15.7592
-264.766 0.11946 0 -11.9073
-175.802 0.130204 0 -14.1739
-88.4269 0.132872 0 -15.7594
-177.414 0.126948 0 -14.1728
-176.608 0.128579 0 -14.1733
-263.557 0.120865 0 -11.9082
-261.14 0.123658 0 -11.9102
-87.2173 0.138169 0 -15.7604
-88.0237 0.134645 0 -15.7597
-262.349 0.122264 0 -11.9092
-174.19 0.133433 0 -14.1753
-87.6205 0.136411 0 -15.76
-175.802 0.130204 0 -14.1739
-174.996 0.131822 0 -14.1746
-261.14 0.123658 0 -11.9102
-258.723 0.126427 0 -11.9126
-86.4109 0.141662 0 -15.7611
-87.2173 0.138169 0 -15.7604
-259.932 0.125045 0 -11.9114
-172.578 0.136634 0 -14.1769
-86.8141 0.139919 0 -15.7607
-174.19 0.133433 0 -14.1753
-173.384 0.135037 0 -14.176
-258.723 0.126427 0 -11.9126
-256.306 0.129174 0 -11.9154
-85.6045 0.145125 0 -15.7621
-86.4109 0.141662 0 -15.7611
-257.515 0.127804 0 -11.914
-170.966 0.139808 0 -14.1787
-86.0077 0.143398 0 -15.7616
-172.578 0.136634 0 -14.1769
-171.772 0.138224 0 -14.1778
-256.306 0.129174 0 -11.9154
-253.889 0.131898 0 -11.9186
-84.7981 0.148558 0 -15.7631
-85.6045 0.145125 0 -15.7621
-255.098 0.130539 0 -11.9169
-169.355 0.142955 0 -14.1808
-85.2013 0.146846 0 -15.7626
-170.966 0.139808 0 -14.1787
-170.161 0.141385 0 -14.1797
-253.889 0.131898 0 -11.9186
-251.472 0.1346 0 -11.9221
-83.9918 0.15196 0 -15.7643
-84.7981 0.148558 0 -15.7631
-252.681 0.133252 0 -11.9203
-167.743 0.146074 0 -14.1831
-84.395 0.150263 0 -15.7637
-169.355 0.142955 0 -14.1808
-168.549 0.144518 0 -14.1819
-251.472 0.1346 0 -11.9221
-249.055 0.137278 0 -11.9259
-83.1854 0.155332 0 -15.7655
-83.9918 0.15196 0 -15.7643
-250.264 0.135941 0 -11.924
-166.131 0.149166 0 -14.1857
-83.5886 0.15365 0 -15.7649
-167.743 0.146074 0 -14.1831
-166.937 0.147624 0 -14.1844
-249.055 0.137278 0 -11.9259
-246.638 0.139933 0 -11.9302
-82.3791 0.158673 0 -15.7669
-83.1854 0.155332 0 -15.7655
-247.847 0.138608 0 -11.928
-164.519 0.152231 0 -14.1885
-82.7822 0.157007 0 -15.7662
-166.131 0.149166 0 -14.1857
-165.325 0.150702 0 -14.1871
-246.638 0.139933 0 -11.9302
-244.221 0.142565 0 -11.9347
-81.5727 0.161984 0 -15.7684
-82.3791 0.158673 0 -15.7669
-245.43 0.141252 0 -11.9324
-162.908 0.155269 0 -14.1916
-81.9759 0.160333 0 -15.7677
-164.519 0.152231 0 -14.1885
-163.713 0.153753 0 -14.19
-244.221 0.142565 0 -11.9347
-241.804 0.145174 0 -11.9397
-80.7664 0.165264 0 -15.7701
-81.5727 0.161984 0 -15.7684
-243.013 0.143873 0 -11.9372
-161.296 0.158278 0 -14.1949
-81.1695 0.163628 0 -15.7692
-162.908 0.155269 0 -14.1916
-162.102 0.156777 0 -14.1932
-241.804 0.145174 0 -11.9397
-239.387 0.14776 0 -11.9449
-79.96 0.168514 0 -15.7718
-80.7664 0.165264 0 -15.7701
-240.596 0.14647 0 -11.9423
-159.684 0.161261 0 -14.1984
-80.3632 0.166893 0 -15.7709
-161.296 0.158278 0 -14.1949
-160.49 0.159773 0 -14.1966
-239.387 0.14776 0 -11.9449
-236.97 0.150324 0 -11.9506
-79.1537 0.171733 0 -15.7737
-79.96 0.168514 0 -15.7718
-238.179 0.149045 0 -11.9477
-158.072 0.164216 0 -14.2021
-79.5568 0.170127 0 -15.7727
-159.684 0.161261 0 -14.1984
-158.878 0.162742 0 -14.2002
-236.97 0.150324 0 -11.9506
-234.553 0.152864 0 -11.9565
-78.3474 0.174921 0 -15.7756
-79.1537 0.171733 0 -15.7737
-235.762 0.151596 0 -11.9535
-156.461 0.167143 0 -14.2061
-78.7505 0.173331 0 -15.7746
-158.072 0.164216 0 -14.2021
-157.266 0.165683 0 -14.2041
-234.553 0.152864 0 -11.9565
-232.136 0.15538 0 -11.9628
-77.541 0.178078 0 -15.7777
-78.3474 0.174921 0 -15.7756
-233.345 0.154125 0 -11.9596
-154.849 0.170043 0 -14.2102
-77.9442 0.176503 0 -15.7767
-156.461 0.167143 0 -14.2061
-155.655 0.168596 0 -14.2081
-232.136 0.15538 0 -11.9628
-229.719 0.157874 0 -11.9694
-76.7347 0.181205 0 -15.7799
-77.541 0.178078 0 -15.7777
-230.928 0.15663 0 -11.9661
-153.237 0.172915 0 -14.2147
-77.1379 0.179645 0 -15.7788
-154.849 0.170043 0 -14.2102
-154.043 0.171482 0 -14.2124
-229.719 0.157874 0 -11.9694
-227.302 0.160345 0 -11.9764
-75.9284 0.1843 0 -15.7822
-76.7347 0.181205 0 -15.7799
-228.511 0.159112 0 -11.9728
-151.625 0.175759 0 -14.2193
-76.3316 0.182756 0 -15.7811
-153.237 0.172915 0 -14.2147
-152.431 0.174341 0 -14.2169
-227.302 0.160345 0 -11.9764
-224.885 0.162792 0 -11.9836
-75.1221 0.187365 0 -15.7846
-75.9284 0.1843 0 -15.7822
-226.094 0.161571 0 -11.98
-150.014 0.178576 0 -14.2241
-75.5253 0.185837 0 -15.7834
-151.625 0.175759 0 -14.2193
-150.819 0.177171 0 -14.2217
-224.885 0.162792 0 -11.9836
-222.468 0.165216 0 -11.9912
-74.3158 0.190399 0 -15.7872
-75.1221 0.187365 0 -15.7846
-223.677 0.164007 0 -11.9874
-148.402 0.181365 0 -14.2292
-74.719 0.188886 0 -15.7859
-150.014 0.178576 0 -14.2241
-149.208 0.179974 0 -14.2266
-222.468 0.165216 0 -11.9912
-220.051 0.167616 0 -11.9992
-73.5095 0.193402 0 -15.7898
-74.3158 0.190399 0 -15.7872
-221.26 0.166419 0 -11.9952
-146.79 0.184126 0 -14.2345
-73.9127 0.191905 0 -15.7885
-148.402 0.181365 0 -14.2292
-147.596 0.182749 0 -14.2318
-220.051 0.167616 0 -11.9992
-217.634 0.169994 0 -12.0074
-72.7033 0.196374 0 -15.7925
-73.5095 0.193402 0 -15.7898
-218.843 0.168808 0 -12.0032
-145.178 0.18686 0 -14.2399
-73.1064 0.194892 0 -15.7911
-146.79 0.184126 0 -14.2345
-145.984 0.185496 0 -14.2372
-217.634 0.169994 0 -12.0074
-215.217 0.172348 0 -12.0159
-71.897 0.199315 0 -15.7953
-72.7033 0.196374 0 -15.7925
-216.426 0.171174 0 -12.0116
-143.567 0.189565 0 -14.2456
-72.3001 0.197848 0 -15.7939
-145.178 0.18686 0 -14.2399
-144.373 0.188216 0 -14.2428
-215.217 0.172348 0 -12.0159
-212.8 0.174678 0 -12.0248
-71.0907 0.202225 0 -15.7983
-71.897 0.199315 0 -15.7953
-214.009 0.173516 0 -12.0203
-141.955 0.192243 0 -14.2515
-71.4939 0.200774 0 -15.7968
-143.567 0.189565 0 -14.2456
-142.761 0.190907 0 -14.2486
-212.8 0.174678 0 -12.0248
-210.383 0.176985 0 -12.0339
-70.2845 0.205104 0 -15.8013
-71.0907 0.202225 0 -15.7983
-211.592 0.175835 0 -12.0293
-140.343 0.194892 0 -14.2576
-70.6876 0.203668 0 -15.7998
-141.955 0.192243 0 -14.2515
-141.149 0.193571 0 -14.2545
-210.383 0.176985 0 -12.0339
-207.966 0.179269 0 -12.0434
-69.4782 0.207951 0 -15.8045
-70.2845 0.205104 0 -15.8013
-209.175 0.17813 0 -12.0386
-138.732 0.197514 0 -14.2639
-69.8814 0.206531 0 -15.8029
-140.343 0.194892 0 -14.2576
-139.538 0.196207 0 -14.2607
-207.966 0.179269 0 -12.0434
-205.549 0.181529 0 -12.0531
-68.672 0.210767 0 -15.8077
-69.4782 0.207951 0 -15.8045
-206.758 0.180402 0 -12.0482
-137.12 0.200108 0 -14.2704
-69.0751 0.209363 0 -15.8061
-138.732 0.197514 0 -14.2639
-137.926 0.198814 0 -14.2671
-205.549 0.181529 0 -12.0531
-203.132 0.183765 0 -12.0632
-67.8658 0.213553 0 -15.811
-68.672 0.210767 0 -15.8077
-204.341 0.18265 0 -12.0581
-135.508 0.202673 0 -14.2771
-68.2689 0.212164 0 -15.8094
-137.12 0.200108 0 -14.2704
-136.314 0.201394 0 -14.2737
-203.132 0.183765 0 -12.0632
-200.715 0.185978 0 -12.0735
-67.0595 0.216306 0 -15.8145
-67.8658 0.213553 0 -15.811
-201.924 0.184875 0 -12.0683
-133.897 0.205211 0 -14.284
-67.4626 0.214933 0 -15.8127
-135.508 0.202673 0 -14.2771
-134.702 0.203946 0 -14.2805
-200.715 0.185978 0 -12.0735
-198.298 0.188167 0 -12.0841
-66.2533 0.219029 0 -15.818
-67.0595 0.216306 0 -15.8145
-199.507 0.187076 0 -12.0788
-132.285 0.20772 0 -14.2911
-66.6564 0.217672 0 -15.8162
-133.897 0.205211 0 -14.284
-133.091 0.206469 0 -14.2875
-198.298 0.188167 0 -12.0841
-195.881 0.190332 0 -12.0951
-65.4471 0.22172 0 -15.8216
-66.2533 0.219029 0 -15.818
-197.09 0.189253 0 -12.0896
-130.673 0.210201 0 -14.2983
-65.8502 0.220378 0 -15.8198
-132.285 0.20772 0 -14.2911
-131.479 0.208964 0 -14.2947
-195.881 0.190332 0 -12.0951
-193.465 0.192474 0 -12.1062
-64.6409 0.22438 0 -15.8254
-65.4471 0.22172 0 -15.8216
-194.673 0.191406 0 -12.1006
-129.062 0.212654 0 -14.3058
-65.044 0.223054 0 -15.8235
-130.673 0.210201 0 -14.2983
-129.868 0.211431 0 -14.302
-193.465 0.192474 0 -12.1062
-191.048 0.194592 0 -12.1177
-63.8347 0.227008 0 -15.8292
-64.6409 0.22438 0 -15.8254
-192.256 0.193536 0 -12.1119
-127.45 0.215079 0 -14.3134
-64.2378 0.225698 0 -15.8272
-129.062 0.212654 0 -14.3058
-128.256 0.21387 0 -14.3096
-191.048 0.194592 0 -12.1177
-188.631 0.196686 0 -12.1294
-63.0285 0.229605 0 -15.8331
-63.8347 0.227008 0 -15.8292
-189.839 0.195642 0 -12.1235
-125.838 0.217475 0 -14.3213
-63.4316 0.22831 0 -15.8311
-127.45 0.215079 0 -14.3134
-126.644 0.21628 0 -14.3173
-188.631 0.196686 0 -12.1294
-186.214 0.198756 0 -12.1415
-62.2223 0.23217 0 -15.8371
-63.0285 0.229605 0 -15.8331
-187.422 0.197724 0 -12.1354
-124.227 0.219843 0 -14.3293
-62.6254 0.230891 0 -15.835
-125.838 0.217475 0 -14.3213
-125.033 0.218663 0 -14.3252
-186.214 0.198756 0 -12.1415
-183.797 0.200802 0 -12.1537
-61.4162 0.234703 0 -15.8411
-62.2223 0.23217 0 -15.8371
-185.005 0.199782 0 -12.1476
-122.615 0.222182 0 -14.3374
-61.8192 0.233441 0 -15.8391
-124.227 0.219843 0 -14.3293
-123.421 0.221016 0 -14.3333
-183.797 0.200802 0 -12.1537
-181.38 0.202824 0 -12.1663
-60.61 0.237205 0 -15.8453
-61.4162 0.234703 0 -15.8411
-182.588 0.201816 0 -12.16
-121.004 0.224493 0 -14.3458
-61.0131 0.235958 0 -15.8432
-122.615 0.222182 0 -14.3374
-121.809 0.223341 0 -14.3416
-181.38 0.202824 0 -12.1663
-178.963 0.204822 0 -12.1791
-59.8038 0.239676 0 -15.8496
-60.61 0.237205 0 -15.8453
-180.171 0.203826 0 -12.1726
-119.392 0.226776 0 -14.3543
-60.2069 0.238445 0 -15.8474
-121.004 0.224493 0 -14.3458
-120.198 0.225638 0 -14.35
-178.963 0.204822 0 -12.1791
-176.546 0.206795 0 -12.1921
-58.9977 0.242114 0 -15.8539
-59.8038 0.239676 0 -15.8496
-177.754 0.205811 0 -12.1856
-117.78 0.22903 0 -14.363
-59.4008 0.240899 0 -15.8517
-119.392 0.226776 0 -14.3543
-118.586 0.227906 0 -14.3586
-176.546 0.206795 0 -12.1921
-174.129 0.208745 0 -12.2054
-58.1915 0.244521 0 -15.8583
-58.9977 0.242114 0 -15.8539
-175.338 0.207773 0 -12.1987
-116.169 0.231255 0 -14.3719
-58.5946 0.243322 0 -15.8561
-117.78 0.22903 0 -14.363
-116.975 0.230146 0 -14.3674
-174.129 0.208745 0 -12.2054
-171.712 0.21067 0 -12.219
-57.3854 0.246896 0 -15.8628
-58.1915 0.244521 0 -15.8583
-172.921 0.209711 0 -12.2122
-114.557 0.233452 0 -14.3809
-57.7885 0.245713 0 -15.8606
-116.169 0.231255 0 -14.3719
-115.363 0.232357 0 -14.3764
-171.712 0.21067 0 -12.219
-169.295 0.212571 0 -12.2328
-56.5793 0.24924 0 -15.8674
-57.3854 0.246896 0 -15.8628
-170.504 0.211624 0 -12.2259
-112.946 0.23562 0 -14.3901
-56.9823 0.248072 0 -15.8651
-114.557 0.233452 0 -14.3809
-113.751 0.234539 0 -14.3855
-169.295 0.212571 0 -12.2328
-166.878 0.214448 0 -12.2468
-55.7732 0.251551 0 -15.8721
-56.5793 0.24924 0 -15.8674
-168.087 0.213513 0 -12.2398
-111.334 0.237759 0 -14.3995
-56.1762 0.250399 0 -15.8698
-112.946 0.23562 0 -14.3901
-112.14 0.236693 0 -14.3948
-166.878 0.214448 0 -12.2468
-164.461 0.2163 0 -12.2611
-54.967 0.253831 0 -15.8769
-55.7732 0.251551 0 -15.8721
-165.67 0.215377 0 -12.2539
-109.722 0.239869 0 -14.409
-55.3701 0.252695 0 -15.8745
-111.334 0.237759 0 -14.3995
-110.528 0.238818 0 -14.4042
-164.461 0.2163 0 -12.2611
-162.045 0.218128 0 -12.2756
-54.1609 0.256078 0 -15.8817
-54.967 0.253831 0 -15.8769
-163.253 0.217217 0 -12.2683
-108.111 0.241951 0 -14.4187
-54.564 0.254958 0 -15.8793
-109.722 0.239869 0 -14.409
-108.917 0.240914 0 -14.4138
-162.045 0.218128 0 -12.2756
-159.628 0.219931 0 -12.2904
-53.3548 0.258294 0 -15.8866
-54.1609 0.256078 0 -15.8817
-160.836 0.219033 0 -12.283
-106.499 0.244003 0 -14.4285
-53.7579 0.25719 0 -15.8841
-108.111 0.241951 0 -14.4187
-107.305 0.242981 0 -14.4236
-159.628 0.219931 0 -12.2904
-157.211 0.22171 0 -12.3054
-52.5487 0.260478 0 -15.8916
-53.3548 0.258294 0 -15.8866
-158.419 0.220824 0 -12.2978
-104.888 0.246027 0 -14.4385
-52.9518 0.25939 0 -15.8891
-106.499 0.244003 0 -14.4285
-105.694 0.245019 0 -14.4335
-157.211 0.22171 0 -12.3054
-154.794 0.223464 0 -12.3206
-51.7427 0.262629 0 -15.8966
-52.5487 0.260478 0 -15.8916
-156.002 0.22259 0 -12.3129
-103.276 0.248022 0 -14.4486
-52.1457 0.261557 0 -15.8941
-104.888 0.246027 0 -14.4385
-104.082 0.247028 0 -14.4435
-154.794 0.223464 0 -12.3206
-152.377 0.225194 0 -12.336
-50.9366 0.264748 0 -15.9018
-51.7427 0.262629 0 -15.8966
-153.585 0.224332 0 -12.3283
-101.665 0.249987 0 -14.4589
-51.3396 0.263693 0 -15.8992
-103.276 0.248022 0 -14.4486
-102.471 0.249008 0 -14.4537
-152.377 0.225194 0 -12.336
-149.96 0.226898 0 -12.3516
-50.1305 0.266836 0 -15.907
-50.9366 0.264748 0 -15.9018
-151.169 0.226049 0 -12.3438
-100.053 0.251924 0 -14.4693
-50.5336 0.265796 0 -15.9044
-101.665 0.249987 0 -14.4589
-100.859 0.250959 0 -14.4641
-149.96 0.226898 0 -12.3516
-147.543 0.228578 0 -12.3675
-49.3245 0.268891 0 -15.9122
-50.1305 0.266836 0 -15.907
-148.752 0.227741 0 -12.3595
-98.4417 0.253831 0 -14.4799
-49.7275 0.267867 0 -15.9096
-100.053 0.251924 0 -14.4693
-99.2475 0.252881 0 -14.4746
-147.543 0.228578 0 -12.3675
-145.126 0.230233 0 -12.3836
-48.5184 0.270914 0 -15.9176
-49.3245 0.268891 0 -15.9122
-146.335 0.229409 0 -12.3755
-96.8302 0.25571 0 -14.4906
-48.9214 0.269906 0 -15.9149
-98.4417 0.253831 0 -14.4799
-97.636 0.254774 0 -14.4852
-145.126 0.230233 0 -12.3836
-142.71 0.231863 0 -12.3998
-47.7124 0.272904 0 -15.923
-48.5184 0.270914 0 -15.9176
-143.918 0.231051 0 -12.3917
-95.2187 0.257558 0 -14.5014
-48.1154 0.271913 0 -15.9203
-96.8302 0.25571 0 -14.4906
-96.0245 0.256638 0 -14.496
-142.71 0.231863 0 -12.3998
-140.293 0.233468 0 -12.4163
-46.9063 0.274863 0 -15.9285
-47.7124 0.272904 0 -15.923
-141.501 0.232669 0 -12.4081
-93.6072 0.259378 0 -14.5124
-47.3094 0.273888 0 -15.9257
-95.2187 0.257558 0 -14.5014
-94.413 0.258472 0 -14.5069
-140.293 0.233468 0 -12.4163
-137.876 0.235048 0 -12.433
-46.1003 0.276789 0 -15.934
-46.9063 0.274863 0 -15.9285
-139.084 0.234261 0 -12.4246
-91.9957 0.261168 0 -14.5235
-46.5033 0.27583 0 -15.9313
-93.6072 0.259378 0 -14.5124
-92.8015 0.260277 0 -14.518
-137.876 0.235048 0 -12.433
-135.459 0.236603 0 -12.4499
-45.2943 0.278682 0 -15.9397
-46.1003 0.276789 0 -15.934
-136.667 0.235829 0 -12.4414
-90.3842 0.262929 0 -14.5348
-45.6973 0.27774 0 -15.9368
-91.9957 0.261168 0 -14.5235
-91.19 0.262053 0 -14.5292
-135.459 0.236603 0 -12.4499
-133.042 0.238133 0 -12.467
-44.4883 0.280543 0 -15.9453
-45.2943 0.278682 0 -15.9397
-134.25 0.237371 0 -12.4584
-88.7727 0.264661 0 -14.5462
-44.8913 0.279617 0 -15.9425
-90.3842 0.262929 0 -14.5348
-89.5785 0.263799 0 -14.5405
-133.042 0.238133 0 -12.467
-130.625 0.239637 0 -12.4842
-43.6823 0.282372 0 -15.9511
-44.4883 0.280543 0 -15.9453
-131.834 0.238888 0 -12.4756
-87.1613 0.266363 0 -14.5577
-44.0853 0.281462 0 -15.9482
-88.7727 0.264661 0 -14.5462
-87.967 0.265515 0 -14.5519
-130.625 0.239637 0 -12.4842
-128.208 0.241116 0 -12.5017
-42.8763 0.284168 0 -15.9569
-43.6823 0.282372 0 -15.9511
-129.417 0.24038 0 -12.4929
-85.5498 0.268035 0 -14.5693
-43.2793 0.283274 0 -15.954
-87.1613 0.266363 0 -14.5577
-86.3555 0.267203 0 -14.5635
-128.208 0.241116 0 -12.5017
-125.792 0.24257 0 -12.5193
-42.0703 0.285932 0 -15.9628
-42.8763 0.284168 0 -15.9569
-127 0.241846 0 -12.5105
-83.9384 0.269678 0 -14.5811
-42.4733 0.285054 0 -15.9598
-85.5498 0.268035 0 -14.5693
-84.7441 0.26886 0 -14.5752
-125.792 0.24257 0 -12.5193
-123.375 0.243998 0 -12.5371
-41.2643 0.287663 0 -15.9687
-42.0703 0.285932 0 -15.9628
-124.583 0.243287 0 -12.5282
-82.3269 0.271291 0 -14.5929
-41.6673 0.286802 0 -15.9657
-83.9384 0.269678 0 -14.5811
-83.1326 0.270488 0 -14.587
-123.375 0.243998 0 -12.5371
-120.958 0.245401 0 -12.5551
-40.4584 0.289362 0 -15.9747
-41.2643 0.287663 0 -15.9687
-122.166 0.244703 0 -12.5461
-80.7155 0.272874 0 -14.6049
-40.8613 0.288517 0 -15.9717
-82.3269 0.271291 0 -14.5929
-81.5212 0.272086 0 -14.5989
-120.958 0.245401 0 -12.5551
-118.541 0.246778 0 -12.5733
-39.6524 0.291028 0 -15.9807
-40.4584 0.289362 0 -15.9747
-119.749 0.246093 0 -12.5642
-79.104 0.274428 0 -14.617
-40.0554 0.290199 0 -15.9777
-80.7155 0.272874 0 -14.6049
-79.9097 0.273655 0 -14.611
-118.541 0.246778 0 -12.5733
-116.124 0.24813 0 -12.5916
-38.8464 0.292661 0 -15.9868
-39.6524 0.291028 0 -15.9807
-117.333 0.247457 0 -12.5824
-77.4926 0.275952 0 -14.6293
-39.2494 0.291848 0 -15.9838
-79.104 0.274428 0 -14.617
-78.2983 0.275194 0 -14.6231
-116.124 0.24813 0 -12.5916
-113.707 0.249455 0 -12.6101
-38.0405 0.294261 0 -15.993
-38.8464 0.292661 0 -15.9868
-114.916 0.248796 0 -12.6008
-75.8812 0.277446 0 -14.6416
-38.4435 0.293465 0 -15.9899
-77.4926 0.275952 0 -14.6293
-76.6869 0.276703 0 -14.6354
-113.707 0.249455 0 -12.6101
-111.291 0.250756 0 -12.6288
-37.2346 0.295829 0 -15.9992
-38.0405 0.294261 0 -15.993
-112.499 0.250109 0 -12.6194
-74.2697 0.27891 0 -14.654
-37.6375 0.295049 0 -15.9961
-75.8812 0.277446 0 -14.6416
-75.0754 0.278182 0 -14.6478
-111.291 0.250756 0 -12.6288
-108.874 0.25203 0 -12.6476
-36.4286 0.297364 0 -16.0055
-37.2346 0.295829 0 -15.9992
-110.082 0.251396 0 -12.6382
-72.6583 0.280344 0 -14.6666
-36.8316 0.296601 0 -16.0023
-74.2697 0.27891 0 -14.654
-73.464 0.279631 0 -14.6603
-108.874 0.25203 0 -12.6476
-106.457 0.253278 0 -12.6666
-35.6227 0.298866 0 -16.0118
-36.4286 0.297364 0 -16.0055
-107.665 0.252657 0 -12.6571
-71.0469 0.281748 0 -14.6792
-36.0257 0.298119 0 -16.0086
-72.6583 0.280344 0 -14.6666
-71.8526 0.28105 0 -14.6729
-106.457 0.253278 0 -12.6666
-104.04 0.2545 0 -12.6857
-34.8168 0.300336 0 -16.0182
-35.6227 0.298866 0 -16.0118
-105.249 0.253892 0 -12.6761
-69.4355 0.283122 0 -14.692
-35.2197 0.299605 0 -16.015
-71.0469 0.281748 0 -14.6792
-70.2412 0.282439 0 -14.6856
-104.04 0.2545 0 -12.6857
-101.623 0.255697 0 -12.705
-34.0109 0.301772 0 -16.0246
-34.8168 0.300336 0 -16.0182
-102.832 0.255102 0 -12.6953
-67.8241 0.284466 0 -14.7048
-34.4138 0.301058 0 -16.0214
-69.4355 0.283122 0 -14.692
-68.6298 0.283798 0 -14.6984
-101.623 0.255697 0 -12.705
-99.2065 0.256867 0 -12.7244
-33.205 0.303175 0 -16.0311
-34.0109 0.301772 0 -16.0246
-100.415 0.256285 0 -12.7147
-66.2127 0.28578 0 -14.7178
-33.6079 0.302478 0 -16.0278
-67.8241 0.284466 0 -14.7048
-67.0184 0.285127 0 -14.7113
-99.2065 0.256867 0 -12.7244
-96.7897 0.258011 0 -12.744
-32.3991 0.304546 0 -16.0376
-33.205 0.303175 0 -16.0311
-97.9981 0.257442 0 -12.7342
-64.6014 0.287063 0 -14.7308
-32.802 0.303865 0 -16.0343
-66.2127 0.28578 0 -14.7178
-65.4071 0.286425 0 -14.7243
-96.7897 0.258011 0 -12.744
-94.3729 0.259128 0 -12.7637
-31.5932 0.305883 0 -16.0441
-32.3991 0.304546 0 -16.0376
-95.5813 0.258573 0 -12.7538
-62.99 0.288317 0 -14.744
-31.9962 0.305219 0 -16.0409
-64.6014 0.287063 0 -14.7308
-63.7957 0.287694 0 -14.7374
-94.3729 0.259128 0 -12.7637
-91.9561 0.26022 0 -12.7835
-30.7873 0.307188 0 -16.0508
-31.5932 0.305883 0 -16.0441
-93.1645 0.259677 0 -12.7736
-61.3786 0.289539 0 -14.7572
-31.1903 0.306539 0 -16.0474
-62.99 0.288317 0 -14.744
-62.1843 0.288932 0 -14.7506
-91.9561 0.26022 0 -12.7835
-89.5393 0.261285 0 -12.8035
-29.9815 0.308459 0 -16.0574
-30.7873 0.307188 0 -16.0508
-90.7477 0.260755 0 -12.7935
-59.7673 0.290732 0 -14.7705
-30.3844 0.307827 0 -16.0541
-61.3786 0.289539 0 -14.7572
-60.5729 0.290139 0 -14.7638
-89.5393 0.261285 0 -12.8035
-87.1225 0.262323 0 -12.8236
-29.1756 0.309697 0 -16.0641
-29.9815 0.308459 0 -16.0574
-88.3309 0.261807 0 -12.8135
-58.1559 0.291894 0 -14.7839
-29.5785 0.309082 0 -16.0607
-59.7673 0.290732 0 -14.7705
-58.9616 0.291317 0 -14.7772
-87.1225 0.262323 0 -12.8236
-84.7057 0.263335 0 -12.8438
-28.3698 0.310902 0 -16.0708
-29.1756 0.309697 0 -16.0641
-85.9141 0.262832 0 -12.8337
-56.5446 0.293025 0 -14.7974
-28.7727 0.310304 0 -16.0675
-58.1559 0.291894 0 -14.7839
-57.3502 0.292463 0 -14.7906
-84.7057 0.263335 0 -12.8438
-82.289 0.26432 0 -12.8642
-27.5639 0.312074 0 -16.0776
-28.3698 0.310902 0 -16.0708
-83.4973 0.263831 0 -12.854
-54.9332 0.294126 0 -14.8109
-27.9669 0.311492 0 -16.0742
-56.5446 0.293025 0 -14.7974
-55.7389 0.29358 0 -14.8041
-82.289 0.26432 0 -12.8642
-79.8722 0.265279 0 -12.8846
-26.7581 0.313212 0 -16.0844
-27.5639 0.312074 0 -16.0776
-81.0806 0.264803 0 -12.8744
-53.3219 0.295196 0 -14.8246
-27.161 0.312647 0 -16.081
-54.9332 0.294126 0 -14.8109
-54.1276 0.294665 0 -14.8177
-79.8722 0.265279 0 -12.8846
-77.4554 0.26621 0 -12.9052
-25.9523 0.314317 0 -16.0913
-26.7581 0.313212 0 -16.0844
-78.6638 0.265748 0 -12.8949
-51.7106 0.296236 0 -14.8383
-26.3552 0.313768 0 -16.0879
-53.3219 0.295196 0 -14.8246
-52.5162 0.29572 0 -14.8314
-77.4554 0.26621 0 -12.9052
-75.0386 0.267115 0 -12.9259
-25.1465 0.315388 0 -16.0982
-25.9523 0.314317 0 -16.0913
-76.247 0.266666 0 -12.9156
-50.0992 0.297244 0 -14.8521
-25.5494 0.314857 0 -16.0947
-51.7106 0.296236 0 -14.8383
-50.9049 0.296744 0 -14.8452
-75.0386 0.267115 0 -12.9259
-72.6219 0.267993 0 -12.9467
-24.3406 0.316426 0 -16.1051
-25.1465 0.315388 0 -16.0982
-73.8302 0.267557 0 -12.9363
-48.4879 0.298221 0 -14.8659
-24.7435 0.315911 0 -16.1016
-50.0992 0.297244 0 -14.8521
-49.2936 0.297737 0 -14.859
-72.6219 0.267993 0 -12.9467
-70.2051 0.268843 0 -12.9676
-23.5348 0.317429 0 -16.1121
-24.3406 0.316426 0 -16.1051
-71.4135 0.268421 0 -12.9571
-46.8766 0.299167 0 -14.8799
-23.9377 0.316932 0 -16.1086
-48.4879 0.298221 0 -14.8659
-47.6823 0.298698 0 -14.8729
-70.2051 0.268843 0 -12.9676
-67.7883 0.269666 0 -12.9886
-22.729 0.318399 0 -16.1191
-23.5348 0.317429 0 -16.1121
-68.9967 0.269258 0 -12.9781
-45.2653 0.300082 0 -14.8939
-23.1319 0.317918 0 -16.1156
-46.8766 0.299167 0 -14.8799
-46.071 0.299629 0 -14.8869
-67.7883 0.269666 0 -12.9886
-65.3716 0.270461 0 -13.0097
-21.9233 0.319335 0 -16.1261
-22.729 0.318399 0 -16.1191
-66.5799 0.270067 0 -12.9992
-43.654 0.300966 0 -14.9079
-22.3262 0.318871 0 -16.1226
-45.2653 0.300082 0 -14.8939
-44.4597 0.300528 0 -14.9009
-65.3716 0.270461 0 -13.0097
-62.9548 0.27123 0 -13.0309
-21.1175 0.320236 0 -16.1332
-21.9233 0.319335 0 -16.1261
-64.1632 0.270849 0 -13.0203
-42.0427 0.301818 0 -14.9221
-21.5204 0.31979 0 -16.1296
-43.654 0.300966 0 -14.9079
-42.8484 0.301396 0 -14.915
-62.9548 0.27123 0 -13.0309
-60.538 0.271972 0 -13.0522
-20.3117 0.321105 0 -16.1402
-21.1175 0.320236 0 -16.1332
-61.7464 0.271604 0 -13.0415
-40.4314 0.30264 0 -14.9363
-20.7146 0.320675 0 -16.1367
-42.0427 0.301818 0 -14.9221
-41.2371 0.302233 0 -14.9292
-60.538 0.271972 0 -13.0522
-58.1213 0.272689 0 -13.0735
-19.5059 0.32194 0 -16.1474
-20.3117 0.321105 0 -16.1402
-59.3297 0.272334 0 -13.0629
-38.8201 0.303433 0 -14.9505
-19.9088 0.321526 0 -16.1438
-40.4314 0.30264 0 -14.9363
-39.6258 0.30304 0 -14.9434
-58.1213 0.272689 0 -13.0735
-55.7045 0.273383 0 -13.095
-18.7002 0.322744 0 -16.1545
-19.5059 0.32194 0 -16.1474
-56.9129 0.273039 0 -13.0843
-37.2089 0.304199 0 -14.9648
-19.1031 0.322346 0 -16.1509
-38.8201 0.303433 0 -14.9505
-38.0145 0.303819 0 -14.9576
-55.7045 0.273383 0 -13.095
-53.2878 0.274058 0 -13.1165
-17.8944 0.32352 0 -16.1616
-18.7002 0.322744 0 -16.1545
-54.4962 0.273723 0 -13.1057
-35.5976 0.304942 0 -14.9791
-18.2973 0.323136 0 -16.1581
-37.2089 0.304199 0 -14.9648
-36.4032 0.304573 0 -14.9719
-53.2878 0.274058 0 -13.1165
-50.8711 0.274719 0 -13.1381
-17.0887 0.324272 0 -16.1688
-17.8944 0.32352 0 -16.1616
-52.0794 0.27439 0 -13.1273
-33.9864 0.305665 0 -14.9935
-17.4916 0.323899 0 -16.1652
-35.5976 0.304942 0 -14.9791
-34.792 0.305306 0 -14.9863
-50.8711 0.274719 0 -13.1381
-48.4544 0.27537 0 -13.1598
-16.283 0.325003 0 -16.176
-17.0887 0.324272 0 -16.1688
-49.6627 0.275046 0 -13.149
-32.3752 0.306375 0 -15.0079
-16.6858 0.32464 0 -16.1724
-33.9864 0.305665 0 -14.9935
-33.1808 0.306022 0 -15.0007
-48.4544 0.27537 0 -13.1598
-46.0377 0.276012 0 -13.1815
-15.4773 0.325717 0 -16.1832
-16.283 0.325003 0 -16.176
-47.246 0.275692 0 -13.1707
-30.764 0.30707 0 -15.0224
-15.8801 0.325362 0 -16.1796
-32.3752 0.306375 0 -15.0079
-31.5696 0.306725 0 -15.0152
-46.0377 0.276012 0 -13.1815
-43.6211 0.276628 0 -13.2034
-14.6716 0.326411 0 -16.1903
-15.4773 0.325717 0 -16.1832
-44.8294 0.276326 0 -13.1924
-29.1529 0.307736 0 -15.0369
-15.0745 0.326067 0 -16.1868
-30.764 0.30707 0 -15.0224
-29.9584 0.307409 0 -15.0296
-43.6211 0.276628 0 -13.2034
-41.2046 0.277166 0 -13.2252
-13.866 0.327056 0 -16.1976
-14.6716 0.326411 0 -16.1903
-42.4128 0.276913 0 -13.2143
-27.5418 0.308318 0 -15.0514
-14.2688 0.326744 0 -16.194
-29.1529 0.307736 0 -15.0369
-28.3473 0.308044 0 -15.0441
-41.2046 0.277166 0 -13.2252
-38.7881 0.277463 0 -13.2471
-13.0604 0.327591 0 -16.2049
-13.866 0.327056 0 -16.1976
-39.9963 0.277363 0 -13.2362
-25.9307 0.308674 0 -15.066
-13.4632 0.327344 0 -16.2012
-27.5418 0.308318 0 -15.0514
-26.7362 0.308541 0 -15.0587
-38.7881 0.277463 0 -13.2471
-36.3714 0.277192 0 -13.269
-12.2547 0.327814 0 -16.2127
-13.0604 0.327591 0 -16.2049
-37.5798 0.277432 0 -13.2581
-24.3195 0.308466 0 -15.0809
-12.6575 0.327764 0 -16.2087
-25.9307 0.308674 0 -15.066
-25.1251 0.308673 0 -15.0734
-36.3714 0.277192 0 -13.269
-33.9543 0.27555 0 -13.2909
-11.4485 0.327408 0 -16.2214
-12.2547 0.327814 0 -16.2127
-35.1629 0.276624 0 -13.28
-22.7076 0.307016 0 -15.0962
-11.8517 0.327723 0 -16.2169
-24.3195 0.308466 0 -15.0809
-23.5136 0.307973 0 -15.0885
-33.9543 0.27555 0 -13.2909
-31.5354 0.271175 0 -13.3125
-10.6414 0.325494 0 -16.2324
-11.4485 0.327408 0 -16.2214
-32.7452 0.273839 0 -13.3017
-21.094 0.302922 0 -15.1127
-11.045 0.326724 0 -16.2265
-22.7076 0.307016 0 -15.0962
-21.9011 0.30542 0 -15.1042
-31.5354 0.271175 0 -13.3125
-29.113 0.261036 0 -13.3337
-9.83148 0.320969 0 -16.2481
-10.6414 0.325494 0 -16.2324
-30.3247 0.267108 0 -13.3232
-19.4764 0.293761 0 -15.1317
-10.2371 0.323672 0 -16.2394
-21.094 0.302922 0 -15.1127
-20.2859 0.299243 0 -15.1218
-29.113 0.261036 0 -13.3337
-26.6811 0.240831 0 -13.3545
-9.01725 0.310837 0 -16.2729
-9.83148 0.320969 0 -16.2481
-27.8989 0.252608 0 -13.3441
-17.8502 0.274991 0 -15.1555
-9.42481 0.316849 0 -16.259
-19.4764 0.293761 0 -15.1317
-18.6648 0.285897 0 -15.1426
-26.6811 0.240831 0 -13.3545
-24.2332 0.20137 0 -13.374
-8.1909 0.292562 0 -16.3152
-9.01725 0.310837 0 -16.2729
-25.4592 0.224247 0 -13.3645
-16.2069 0.240153 0 -15.189
-8.60659 0.303 0 -16.2911
-17.8502 0.274991 0 -15.1555
-17.0313 0.260335 0 -15.1709
-24.2332 0.20137 0 -13.374
-21.7473 0.133326 0 -13.394
-7.34907 0.258174 0 -16.3878
-8.1909 0.292562 0 -16.3152
-22.9975 0.171836 0 -13.3836
-14.531 0.178392 0 -15.2401
-7.77141 0.277837 0 -16.3467
-16.2069 0.240153 0 -15.189
-15.3743 0.213036 0 -15.2112
-21.7473 0.133326 0 -13.394
-19.2056 0.0161312 0 -13.4138
-6.46765 0.207167 0 -16.5118
-7.34907 0.258174 0 -16.3878
-20.4833 0.0819249 0 -13.4042
-12.798 0.0806494 0 -15.322
-6.91663 0.235026 0 -16.4416
-14.531 0.178392 0 -15.2401
-13.6732 0.135445 0 -15.2771
-19.2056 0.0161312 0 -13.4138
-16.5425 -0.151995 0 -13.4457
-5.5471 0.126498 0 -16.7112
-6.46765 0.207167 0 -16.5118
-17.8971 -0.061039 0 -13.4265
-10.9701 -0.0634035 0 -15.4548
-6.00939 0.170171 0 -16.6006
-12.798 0.0806494 0 -15.322
-11.8996 0.0124488 0 -15.3784
-16.5425 -0.151995 0 -13.4457
-13.7343 -0.387321 0 -13.4974
-4.53212 0.0506556 0 -17.0128
-5.5471 0.126498 0 -16.7112
-15.153 -0.264336 0 -13.4692
-9.00577 -0.2248 0 -15.6639
-5.06061 0.0860075 0 -16.8473
-10.9701 -0.0634035 0 -15.4548
-10.0061 -0.142251 0 -15.5519
-13.7343 -0.387321 0 -13.4974
-10.6424 -0.571548 0 -13.6323
-3.4811 -0.00633477 0 -17.4016
-4.53212 0.0506556 0 -17.0128
-12.2438 -0.494135 0 -13.5467
-6.86613 -0.331989 0 -15.9727
-3.99707 0.0118137 0 -17.2
-9.00577 -0.2248 0 -15.6639
-7.96434 -0.303265 0 -15.7969
-10.6424 -0.571548 0 -13.6323
-7.37807 -0.553857 0 -13.8911
-2.3304 0.178189 0 -17.7836
-3.4811 -0.00633477 0 -17.4016
-9.00502 -0.622385 0 -13.745
-4.61662 -0.101278 0 -16.3611
-2.93816 0.0428685 0 -17.6032
-6.86613 -0.331989 0 -15.9727
-5.73976 -0.273431 0 -16.175
-7.37807 -0.553857 0 -13.8911
-3.914 0.474435 0 -14.4152
-1.38796 0.738047 0 -17.8025
-2.3304 0.178189 0 -17.7836
-5.69896 -0.224986 0 -14.1069
-2.46109 0.895769 0 -16.6443
-1.78179 0.38384 0 -17.8749
-4.61662 -0.101278 0 -16.3611
-3.52505 0.234816 0 -16.5117
-3.914 0.474435 0 -14.4152
-1.30956 3.60115 0 -14.7874
-0.51606 2.17567 0 -16.804
-1.38796 0.738047 0 -17.8025
-2.37132 1.60671 0 -14.6794
-1.03033 3.40316 0 -16.1051
-0.995703 1.36577 0 -17.4826
-2.46109 0.895769 0 -16.6443
-1.56548 1.97932 0 -16.5985
-1.30956 3.60115 0 -14.7874
0.210988 11.3608 0 -13.5169
-0.337972 3.72175 0 -13.7125
-0.51606 2.17567 0 -16.804
-0.46261 6.94604 0 -14.5465
-0.242663 7.37702 0 -13.3587
-0.224775 2.9622 0 -15.5924
-1.03033 3.40316 0 -16.1051
-0.659922 5.17782 0 -15.0279
0.210988 11.3608 0 -13.5169
0.515835 20.1748 0 -7.02082
-0.599108 5.74235 0 -7.80702
-0.337972 3.72175 0 -13.7125
0.63107 16.2016 0 -11.1115
0.276889 12.4258 0 -7.83844
-0.552478 4.62871 0 -11.1347
-0.242663 7.37702 0 -13.3587
0.130766 9.9242 0 -11.0197
-154.081 -46.2208 0 61.6318
-150.373 -25.7039 0 20.4315
149.778 25.3865 0 20.3929
153.449 46.0382 0 61.5959
-147.714 -36.0865 0 38.8761
-0.316098 -0.162302 0 23.1402
147.103 35.825 0 38.8458
-0.337431 -0.0909451 0 62.8928
-0.323227 -0.136092 0 43.5112
-150.373 -25.7039 0 20.4315
-158.466 -15.5665 0 -4.22963
157.889 15.1835 0 -4.29759
149.778 25.3865 0 20.3929
-156.626 -20.0623 0 5.92902
-0.308935 -0.195228 0 -2.96809
156.042 19.7063 0 5.87566
-0.316098 -0.162302 0 23.1402
-0.312908 -0.180921 0 7.06563
-158.466 -15.5665 0 -4.22963
-159.015 -6.38591 0 -15.3936
158.448 5.9654 0 -15.4934
157.889 15.1835 0 -4.29759
-158.175 -10.4963 0 -10.962
-0.304685 -0.216481 0 -15.0678
157.603 10.0928 0 -11.0455
-0.308935 -0.195228 0 -2.96809
-0.305917 -0.206923 0 -9.84462
-159.015 -6.38591 0 -15.3936
-159.469 -2.10459 0 -19.3629
158.912 1.65385 0 -19.4926
158.448 5.9654 0 -15.4934
-159.944 -3.87668 0 -18.0558
-0.301202 -0.230896 0 -19.7424
159.382 3.44046 0 -18.1712
-0.304685 -0.216481 0 -15.0678
-0.303519 -0.224244 0 -18.2797
-159.469 -2.10459 0 -19.3629
-157.765 0.119685 0 -19.77
157.216 -0.594491 0 -19.9263
158.912 1.65385 0 -19.4926
-158.409 -0.694754 0 -19.788
-0.297093 -0.242507 0 -20.5399
157.856 0.231062 0 -19.9314
-0.301202 -0.230896 0 -19.7424
-0.298871 -0.237086 0 -20.3375
-157.765 0.119685 0 -19.77
-156.334 0.532623 0 -19.049
155.791 -1.02389 0 -19.2296
157.216 -0.594491 0 -19.9263
-157.207 0.421031 0 -19.4814
-0.293801 -0.250261 0 -19.848
156.661 -0.905076 0 -19.6501
-0.297093 -0.242507 0 -20.5399
-0.295443 -0.246866 0 -20.3294
-156.334 0.532623 0 -19.049
-154.652 0.551731 0 -18.1232
154.112 -1.05124 0 -18.3278
155.791 -1.02389 0 -19.2296
-155.383 0.595567 0 -18.5671
-0.291733 -0.254487 0 -18.8685
154.842 -1.09196 0 -18.7597
-0.293801 -0.250261 0 -19.848
-0.29252 -0.252832 0 -19.3256
-154.652 0.551731 0 -18.1232
-153.358 0.316449 0 -17.3861
152.819 -0.817086 0 -17.615
154.112 -1.05124 0 -18.3278
-154.021 0.432793 0 -17.7276
-0.290877 -0.255123 0 -18.0409
153.482 -0.933657 0 -17.9443
-0.291733 -0.254487 0 -18.8685
-0.291219 -0.255205 0 -18.4364
-153.358 0.316449 0 -17.3861
-152.165 0.135264 0 -16.8725
151.626 -0.631567 0 -17.1262
152.819 -0.817086 0 -17.615
-152.717 0.224777 0 -17.0999
-0.290821 -0.253088 0 -17.4652
152.178 -0.723827 0 -17.3411
-0.290877 -0.255123 0 -18.0409
-0.290757 -0.254397 0 -17.7155
-152.165 0.135264 0 -16.8725
-151.166 -0.0164066 0 -16.5524
150.625 -0.471797 0 -16.8311
151.626 -0.631567 0 -17.1262
-151.663 0.0500833 0 -16.6931
-0.291157 -0.249068 0 -17.1026
151.122 -0.542711 0 -16.9592
-0.290821 -0.253088 0 -17.4652
-0.290975 -0.251276 0 -17.2639
-151.166 -0.0164066 0 -16.5524
-150.235 -0.104042 0 -16.3612
149.693 -0.373709 0 -16.6651
150.625 -0.471797 0 -16.8311
-150.686 -0.0649629 0 -16.4435
-0.29157 -0.243826 0 -16.892
150.144 -0.418239 0 -16.7348
-0.291157 -0.249068 0 -17.1026
-0.291365 -0.246565 0 -16.9807
-150.235 -0.104042 0 -16.3612
-149.372 -0.157853 0 -16.2522
148.829 -0.308124 0 -16.5812
149.693 -0.373709 0 -16.6651
-149.801 -0.135597 0 -16.2992
-0.291861 -0.237862 0 -16.7762
149.259 -0.336382 0 -16.6157
-0.29157 -0.243826 0 -16.892
-0.291742 -0.240907 0 -16.8257
-149.372 -0.157853 0 -16.2522
-148.534 -0.183372 0 -16.19
147.991 -0.270211 0 -16.5437
148.829 -0.308124 0 -16.5812
-148.949 -0.172826 0 -16.2167
-0.291939 -0.231562 0 -16.7164
148.406 -0.287 0 -16.5581
-0.291861 -0.237862 0 -16.7762
-0.291929 -0.234738 0 -16.7409
-148.534 -0.183372 0 -16.19
-147.715 -0.194803 0 -16.1539
147.172 -0.246196 0 -16.5318
147.991 -0.270211 0 -16.5437
-148.124 -0.190686 0 -16.1697
-0.291777 -0.225146 0 -16.6871
147.581 -0.256609 0 -16.5356
-0.291939 -0.231562 0 -16.7164
-0.291889 -0.228358 0 -16.6992
-147.715 -0.194803 0 -16.1539
-146.903 -0.197077 0 -16.1311
146.36 -0.231393 0 -16.5329
147.172 -0.246196 0 -16.5318
-147.308 -0.196646 0 -16.1413
-0.291392 -0.21875 0 -16.6737
146.765 -0.238072 0 -16.5312
-0.291777 -0.225146 0 -16.6871
-0.291611 -0.22194 0 -16.679
-146.903 -0.197077 0 -16.1311
-146.094 -0.195144 0 -16.115
145.553 -0.22097 0 -16.5401
146.36 -0.231393 0 -16.5329
-146.498 -0.196541 0 -16.1225
-0.290818 -0.212439 0 -16.6682
145.956 -0.225725 0 -16.536
-0.291392 -0.21875 0 -16.6737
-0.291126 -0.215582 0 -16.6704
-146.094 -0.195144 0 -16.115
-145.287 -0.19089 0 -16.1021
144.747 -0.213086 0 -16.55
145.553 -0.22097 0 -16.5401
-145.691 -0.193183 0 -16.1083
-0.290095 -0.206238 0 -16.6662
145.15 -0.216834 0 -16.5449
-0.290818 -0.212439 0 -16.6682
-0.290472 -0.209324 0 -16.6669
-145.287 -0.19089 0 -16.1021
-144.481 -0.185721 0 -16.0906
143.942 -0.206336 0 -16.5609
144.747 -0.213086 0 -16.55
-144.884 -0.188391 0 -16.0962
-0.289261 -0.20015 0 -16.6658
144.345 -0.209599 0 -16.5554
-0.290095 -0.206238 0 -16.6662
-0.28969 -0.20318 0 -16.6659
-144.481 -0.185721 0 -16.0906
-143.675 -0.180151 0 -16.0797
143.137 -0.200186 0 -16.5719
143.942 -0.206336 0 -16.5609
-144.078 -0.182957 0 -16.0851
-0.288349 -0.194164 0 -16.6658
143.54 -0.203217 0 -16.5664
-0.289261 -0.20015 0 -16.6658
-0.288813 -0.197145 0 -16.6658
-143.675 -0.180151 0 -16.0797
-142.868 -0.174498 0 -16.0692
142.333 -0.194293 0 -16.5828
143.137 -0.200186 0 -16.5719
-143.272 -0.177329 0 -16.0744
-0.287383 -0.188268 0 -16.666
142.735 -0.197215 0 -16.5774
-0.288349 -0.194164 0 -16.6658
-0.287871 -0.191206 0 -16.6659
-142.868 -0.174498 0 -16.0692
-142.062 -0.168857 0 -16.0588
141.528 -0.188533 0 -16.5935
142.333 -0.194293 0 -16.5828
-142.465 -0.171671 0 -16.064
-0.286383 -0.182448 0 -16.6662
141.93 -0.191403 0 -16.5882
-0.287383 -0.188268 0 -16.666
-0.286886 -0.18535 0 -16.6661
-142.062 -0.168857 0 -16.0588
-141.255 -0.163274 0 -16.0486
140.723 -0.182836 0 -16.6039
141.528 -0.188533 0 -16.5935
-141.659 -0.166058 0 -16.0537
-0.285362 -0.176691 0 -16.6663
141.125 -0.185678 0 -16.5988
-0.286383 -0.182448 0 -16.6662
-0.285875 -0.179563 0 -16.6663
-141.255 -0.163274 0 -16.0486
-140.449 -0.157752 0 -16.0386
139.918 -0.177181 0 -16.6141
140.723 -0.182836 0 -16.6039
-140.852 -0.160506 0 -16.0436
-0.28433 -0.170987 0 -16.6664
140.321 -0.180004 0 -16.609
-0.285362 -0.176691 0 -16.6663
-0.284847 -0.173833 0 -16.6664
-140.449 -0.157752 0 -16.0386
-139.642 -0.152287 0 -16.0287
139.114 -0.171556 0 -16.624
139.918 -0.177181 0 -16.6141
-140.046 -0.155013 0 -16.0336
-0.283292 -0.165328 0 -16.6665
139.516 -0.174365 0 -16.6191
-0.28433 -0.170987 0 -16.6664
-0.283811 -0.168152 0 -16.6665
-139.642 -0.152287 0 -16.0287
-138.836 -0.146869 0 -16.0191
138.309 -0.16596 0 -16.6337
139.114 -0.171556 0 -16.624
-139.239 -0.149572 0 -16.0239
-0.282252 -0.159708 0 -16.6665
138.711 -0.168755 0 -16.6289
-0.283292 -0.165328 0 -16.6665
-0.282772 -0.162514 0 -16.6665
-138.836 -0.146869 0 -16.0191
-138.029 -0.141493 0 -16.0096
137.504 -0.16039 0 -16.6432
138.309 -0.16596 0 -16.6337
-138.432 -0.144176 0 -16.0143
-0.281213 -0.154123 0 -16.6665
137.906 -0.163171 0 -16.6385
-0.282252 -0.159708 0 -16.6665
-0.281733 -0.156912 0 -16.6665
-138.029 -0.141493 0 -16.0096
-137.222 -0.136153 0 -16.0003
136.699 -0.154846 0 -16.6525
137.504 -0.16039 0 -16.6432
-137.626 -0.138818 0 -16.0049
-0.280176 -0.148571 0 -16.6665
137.101 -0.157615 0 -16.6479
-0.281213 -0.154123 0 -16.6665
-0.280695 -0.151343 0 -16.6665
-137.222 -0.136153 0 -16.0003
-136.416 -0.130845 0 -15.9912
135.894 -0.149329 0 -16.6616
136.699 -0.154846 0 -16.6525
-136.819 -0.133495 0 -15.9957
-0.279142 -0.143048 0 -16.6665
136.297 -0.152084 0 -16.6571
-0.280176 -0.148571 0 -16.6665
-0.279659 -0.145806 0 -16.6665
-136.416 -0.130845 0 -15.9912
-135.609 -0.125568 0 -15.9823
135.089 -0.143839 0 -16.6705
135.894 -0.149329 0 -16.6616
-136.013 -0.128203 0 -15.9867
-0.278109 -0.137555 0 -16.6665
135.492 -0.146581 0 -16.6661
-0.279142 -0.143048 0 -16.6665
-0.278625 -0.140298 0 -16.6665
-135.609 -0.125568 0 -15.9823
-134.803 -0.12032 0 -15.9736
134.285 -0.138375 0 -16.6792
135.089 -0.143839 0 -16.6705
-135.206 -0.122941 0 -15.9779
-0.27708 -0.132091 0 -16.6665
134.687 -0.141104 0 -16.6748
-0.278109 -0.137555 0 -16.6665
-0.277594 -0.134819 0 -16.6665
-134.803 -0.12032 0 -15.9736
-133.996 -0.115101 0 -15.965
133.48 -0.132938 0 -16.6877
134.285 -0.138375 0 -16.6792
-134.399 -0.117707 0 -15.9693
-0.276053 -0.126655 0 -16.6664
133.882 -0.135653 0 -16.6834
-0.27708 -0.132091 0 -16.6665
-0.276566 -0.129369 0 -16.6665
-133.996 -0.115101 0 -15.965
-133.189 -0.109911 0 -15.9567
132.675 -0.127527 0 -16.696
133.48 -0.132938 0 -16.6877
-133.593 -0.112502 0 -15.9608
-0.275029 -0.121247 0 -16.6664
133.077 -0.130229 0 -16.6918
-0.276053 -0.126655 0 -16.6664
-0.275541 -0.123947 0 -16.6664
-133.189 -0.109911 0 -15.9567
-132.383 -0.104748 0 -15.9486
131.87 -0.122144 0 -16.7041
132.675 -0.127527 0 -16.696
-132.786 -0.107326 0 -15.9526
-0.274008 -0.115867 0 -16.6664
132.272 -0.124832 0 -16.7001
-0.275029 -0.121247 0 -16.6664
-0.274518 -0.118553 0 -16.6664
-132.383 -0.104748 0 -15.9486
-131.576 -0.0996139 0 -15.9406
131.065 -0.116787 0 -16.712
131.87 -0.122144 0 -16.7041
-131.979 -0.102177 0 -15.9446
-0.272988 -0.110516 0 -16.6664
131.468 -0.119462 0 -16.7081
-0.274008 -0.115867 0 -16.6664
-0.273498 -0.113188 0 -16.6664
-131.576 -0.0996139 0 -15.9406
-130.77 -0.0945078 0 -15.9328
130.26 -0.111458 0 -16.7198
131.065 -0.116787 0 -16.712
-131.173 -0.0970573 0 -15.9367
-0.271971 -0.105193 0 -16.6664
130.663 -0.114119 0 -16.7159
-0.272988 -0.110516 0 -16.6664
-0.27248 -0.107851 0 -16.6664
-130.77 -0.0945078 0 -15.9328
-129.963 -0.0894301 0 -15.9253
129.455 -0.106156 0 -16.7273
130.26 -0.111458 0 -16.7198
-130.366 -0.0919654 0 -15.929
-0.270957 -0.0998981 0 -16.6664
129.858 -0.108804 0 -16.7236
-0.271971 -0.105193 0 -16.6664
-0.271464 -0.102542 0 -16.6664
-129.963 -0.0894301 0 -15.9253
-129.156 -0.0843807 0 -15.9179
128.651 -0.100882 0 -16.7347
129.455 -0.106156 0 -16.7273
-129.56 -0.0869018 0 -15.9215
-0.269945 -0.0946322 0 -16.6664
129.053 -0.103516 0 -16.731
-0.270957 -0.0998981 0 -16.6664
-0.27045 -0.0972616 0 -16.6664
-129.156 -0.0843807 0 -15.9179
-128.35 -0.0793597 0 -15.9107
127.846 -0.0956358 0 -16.7419
128.651 -0.100882 0 -16.7347
-128.753 -0.0818666 0 -15.9142
-0.268935 -0.089395 0 -16.6664
128.248 -0.0982556 0 -16.7383
-0.269945 -0.0946322 0 -16.6664
-0.26944 -0.09201 0 -16.6664
-128.35 -0.0793597 0 -15.9107
-127.543 -0.0743672 0 -15.9036
127.041 -0.0904173 0 -16.7489
127.846 -0.0956358 0 -16.7419
-127.946 -0.0768599 0 -15.9071
-0.267928 -0.0841866 0 -16.6663
127.443 -0.0930231 0 -16.7454
-0.268935 -0.089395 0 -16.6664
-0.268431 -0.0867872 0 -16.6663
-127.543 -0.0743672 0 -15.9036
-126.737 -0.0694032 0 -15.8968
126.236 -0.0852267 0 -16.7557
127.041 -0.0904173 0 -16.7489
-127.14 -0.0718816 0 -15.9002
-0.266923 -0.0790071 0 -16.6663
126.638 -0.0878185 0 -16.7523
-0.267928 -0.0841866 0 -16.6663
-0.267425 -0.0815932 0 -16.6663
-126.737 -0.0694032 0 -15.8968
-125.93 -0.0644678 0 -15.8901
125.431 -0.0800644 0 -16.7623
126.236 -0.0852267 0 -16.7557
-126.333 -0.0669319 0 -15.8934
-0.265921 -0.0738567 0 -16.6663
125.834 -0.082642 0 -16.759
-0.266923 -0.0790071 0 -16.6663
-0.266421 -0.0764283 0 -16.6663
-125.93 -0.0644678 0 -15.8901
-125.123 -0.059561 0 -15.8836
124.626 -0.0749304 0 -16.7688
125.431 -0.0800644 0 -16.7623
-125.527 -0.0620108 0 -15.8868
-0.264921 -0.0687354 0 -16.6663
125.029 -0.0774938 0 -16.7656
-0.265921 -0.0738567 0 -16.6663
-0.265421 -0.0712924 0 -16.6663
-125.123 -0.059561 0 -15.8836
-124.317 -0.0546829 0 -15.8773
123.821 -0.0698248 0 -16.775
124.626 -0.0749304 0 -16.7688
-124.72 -0.0571184 0 -15.8805
-0.263924 -0.0636433 0 -16.6663
124.224 -0.072374 0 -16.7719
-0.264921 -0.0687354 0 -16.6663
-0.264422 -0.0661857 0 -16.6663
-124.317 -0.0546829 0 -15.8773
-123.51 -0.0498334 0 -15.8712
123.017 -0.0647477 0 -16.7811
123.821 -0.0698248 0 -16.775
-123.913 -0.0522546 0 -15.8742
-0.26293 -0.0585804 0 -16.6663
123.419 -0.0672827 0 -16.7781
-0.263924 -0.0636432 0 -16.6663
-0.263427 -0.0611082 0 -16.6663
-123.51 -0.0498334 0 -15.8712
-122.704 -0.0450127 0 -15.8652
122.212 -0.0596994 0 -16.7871
123.017 -0.0647477 0 -16.7811
-123.107 -0.0474195 0 -15.8682
-0.261939 -0.0535469 0 -16.6662
122.614 -0.06222 0 -16.7841
-0.26293 -0.0585804 0 -16.6663
-0.262434 -0.05606 0 -16.6662
-122.704 -0.0450127 0 -15.8652
-121.897 -0.0402207 0 -15.8595
121.407 -0.0546798 0 -16.7928
122.212 -0.0596994 0 -16.7871
-122.3 -0.0426131 0 -15.8623
-0.26095 -0.0485428 0 -16.6662
121.809 -0.057186 0 -16.79
-0.261939 -0.0535469 0 -16.6662
-0.261444 -0.0510412 0 -16.6662
-121.897 -0.0402207 0 -15.8595
-121.09 -0.0354576 0 -15.8539
120.602 -0.0496892 0 -16.7984
121.407 -0.0546798 0 -16.7928
-121.494 -0.0378356 0 -15.8566
-0.259965 -0.0435682 0 -16.6662
121.004 -0.0521809 0 -16.7956
-0.26095 -0.0485428 0 -16.6662
-0.260457 -0.0460518 0 -16.6662
-121.09 -0.0354576 0 -15.8539
-120.284 -0.0307232 0 -15.8484
119.797 -0.0447275 0 -16.8038
120.602 -0.0496892 0 -16.7984
-120.687 -0.0330868 0 -15.8511
-0.258983 -0.0386232 0 -16.6662
120.2 -0.0472047 0 -16.8011
-0.259965 -0.0435682 0 -16.6662
-0.259473 -0.041092 0 -16.6662
-120.284 -0.0307232 0 -15.8484
-119.477 -0.0260177 0 -15.8432
118.992 -0.039795 0 -16.809
119.797 -0.0447275 0 -16.8038
-119.881 -0.0283668 0 -15.8458
-0.258003 -0.0337078 0 -16.6662
119.395 -0.0422576 0 -16.8064
-0.258983 -0.0386232 0 -16.6662
-0.258493 -0.0361618 0 -16.6662
-119.477 -0.0260177 0 -15.8432
-118.671 -0.021341 0 -15.8381
118.187 -0.0348918 0 -16.8141
118.992 -0.039795 0 -16.809
-119.074 -0.0236757 0 -15.8406
-0.257027 -0.0288221 0 -16.6662
118.59 -0.0373398 0 -16.8116
-0.258003 -0.0337078 0 -16.6662
-0.257515 -0.0312613 0 -16.6662
-118.671 -0.021341 0 -15.8381
-117.864 -0.0166933 0 -15.8332
117.383 -0.0300179 0 -16.8189
118.187 -0.0348918 0 -16.8141
-118.267 -0.0190135 0 -15.8356
-0.256055 -0.0239662 0 -16.6661
117.785 -0.0324511 0 -16.8165
-0.257027 -0.0288221 0 -16.6662
-0.256541 -0.0263905 0 -16.6661
-117.864 -0.0166933 0 -15.8332
-117.057 -0.0120745 0 -15.8284
116.578 -0.0251734 0 -16.8237
117.383 -0.0300179 0 -16.8189
-117.461 -0.0143802 0 -15.8308
-0.255085 -0.0191402 0 -16.6661
116.98 -0.0275919 0 -16.8213
-0.256055 -0.0239662 0 -16.6661
-0.255569 -0.0215495 0 -16.6661
-117.057 -0.0120744 0 -15.8284
-116.251 -0.00748461 0 -15.8238
115.773 -0.0203585 0 -16.8282
116.578 -0.0251734 0 -16.8237
-116.654 -0.00977591 0 -15.8261
-0.254119 -0.014344 0 -16.6661
116.175 -0.0227622 0 -16.826
-0.255085 -0.0191402 0 -16.6661
-0.254602 -0.0167384 0 -16.6661
-116.251 -0.00748461 0 -15.8238
-115.444 -0.00292376 0 -15.8194
114.968 -0.0155732 0 -16.8326
115.773 -0.0203585 0 -16.8282
-115.848 -0.00520056 0 -15.8216
-0.253156 -0.00957785 0 -16.6661
115.37 -0.0179621 0 -16.8304
-0.254119 -0.014344 0 -16.6661
-0.253637 -0.0119572 0 -16.6661
-115.444 -0.00292376 0 -15.8194
-114.638 0.00160805 0 -15.8152
114.163 -0.0108177 0 -16.8368
114.968 -0.0155732 0 -16.8326
-115.041 -0.000654225 0 -15.8173
-0.252197 -0.00484172 0 -16.6661
114.565 -0.0131918 0 -16.8347
-0.253156 -0.00957785 0 -16.6661
-0.252676 -0.00720603 0 -16.6661
-114.638 0.00160805 0 -15.8152
-113.831 0.0061108 0 -15.8111
113.358 -0.00609211 0 -16.8409
114.163 -0.0108177 0 -16.8368
-114.235 0.00386306 0 -15.8131
-0.251242 -0.000135703 0 -16.666
113.761 -0.00845119 0 -16.8389
-0.252197 -0.00484172 0 -16.6661
-0.251719 -0.00248494 0 -16.6661
-113.831 0.0061108 0 -15.8111
-113.025 0.0105844 0 -15.8071
112.553 -0.00139644 0 -16.8448
113.358 -0.00609211 0 -16.8409
-113.428 0.00835127 0 -15.8091
-0.25029 0.00454014 0 -16.666
112.956 -0.00374053 0 -16.8428
-0.251242 -0.000135703 0 -16.666
-0.250766 0.00220599 0 -16.666
-113.025 0.0105844 0 -15.8071
-112.218 0.015029 0 -15.8034
111.748 0.00326917 0 -16.8485
112.553 -0.00139644 0 -16.8448
-112.621 0.0128104 0 -15.8052
-0.249342 0.00918573 0 -16.666
112.151 0.000940128 0 -16.8466
-0.25029 0.00454013 0 -16.666
-0.249816 0.00686672 0 -16.666
-112.218 0.015029 0 -15.8034
-111.412 0.0194443 0 -15.7998
110.943 0.00790462 0 -16.8521
111.748 0.00326917 0 -16.8485
-111.815 0.0172403 0 -15.8015
-0.248398 0.013801 0 -16.666
111.346 0.00559067 0 -16.8503
-0.249342 0.00918573 0 -16.666
-0.248869 0.0114972 0 -16.666
-111.412 0.0194443 0 -15.7998
-110.605 0.0238305 0 -15.7963
110.139 0.0125098 0 -16.8555
110.943 0.00790462 0 -16.8521
-111.008 0.0216411 0 -15.798
-0.247457 0.0183859 0 -16.666
110.541 0.010211 0 -16.8538
-0.248398 0.013801 0 -16.666
-0.247927 0.0160973 0 -16.666
-110.605 0.0238305 0 -15.7963
-109.798 0.0281874 0 -15.793
109.334 0.0170847 0 -16.8587
110.139 0.0125098 0 -16.8555
-110.202 0.0260126 0 -15.7946
-0.246521 0.0229404 0 -16.6659
109.736 0.0148011 0 -16.8571
-0.247457 0.0183859 0 -16.666
-0.246989 0.020667 0 -16.666
-109.798 0.0281874 0 -15.793
-108.992 0.0325151 0 -15.7899
108.529 0.0216291 0 -16.8618
109.334 0.0170847 0 -16.8587
-109.395 0.0303549 0 -15.7914
-0.245588 0.0274644 0 -16.6659
108.931 0.0193607 0 -16.8603
-0.246521 0.0229404 0 -16.6659
-0.246054 0.0252062 0 -16.6659
-108.992 0.0325151 0 -15.7899
-108.185 0.0368135 0 -15.7869
107.724 0.026143 0 -16.8648
108.529 0.0216291 0 -16.8618
-108.589 0.034668 0 -15.7884
-0.24466 0.0319578 0 -16.6659
108.126 0.0238899 0 -16.8633
-0.245588 0.0274644 0 -16.6659
-0.245124 0.0297149 0 -16.6659
-108.185 0.0368135 0 -15.7869
-107.379 0.0410825 0 -15.7841
106.919 0.0306263 0 -16.8675
107.724 0.026143 0 -16.8648
-107.782 0.0389517 0 -15.7855
-0.243736 0.0364206 0 -16.6659
107.321 0.0283885 0 -16.8662
-0.24466 0.0319578 0 -16.6659
-0.244197 0.034193 0 -16.6659
-107.379 0.0410825 0 -15.7841
-106.572 0.0453222 0 -15.7814
106.114 0.0350788 0 -16.8702
106.919 0.0306263 0 -16.8675
-106.976 0.043206 0 -15.7827
-0.242815 0.0408527 0 -16.6659
106.516 0.0328564 0 -16.8689
-0.243736 0.0364206 0 -16.6659
-0.243275 0.0386405 0 -16.6659
-106.572 0.0453222 0 -15.7814
-105.766 0.0495325 0 -15.7789
105.309 0.0395006 0 -16.8726
106.114 0.0350788 0 -16.8702
-106.169 0.047431 0 -15.7801
-0.2419 0.045254 0 -16.6659
105.712 0.0372935 0 -16.8714
-0.242815 0.0408527 0 -16.6659
-0.242357 0.0430572 0 -16.6659
-105.766 0.0495325 0 -15.7789
-104.959 0.0537133 0 -15.7765
104.504 0.0438914 0 -16.875
105.309 0.0395006 0 -16.8726
-105.363 0.0516266 0 -15.7777
-0.240988 0.0496246 0 -16.6658
104.907 0.0416999 0 -16.8738
-0.2419 0.045254 0 -16.6659
-0.241443 0.0474432 0 -16.6658
-104.959 0.0537133 0 -15.7765
-104.153 0.0578646 0 -15.7743
103.699 0.0482513 0 -16.8772
104.504 0.0438914 0 -16.875
-104.556 0.0557927 0 -15.7754
-0.240081 0.0539642 0 -16.6658
104.102 0.0460753 0 -16.8761
-0.240988 0.0496246 0 -16.6658
-0.240534 0.0517983 0 -16.6658
-104.153 0.0578647 0 -15.7743
-103.346 0.0619865 0 -15.7723
102.894 0.0525802 0 -16.8792
103.699 0.0482513 0 -16.8772
-103.75 0.0599293 0 -15.7733
-0.239178 0.058273 0 -16.6658
103.297 0.0504196 0 -16.8782
-0.240081 0.0539642 0 -16.6658
-0.239629 0.0561225 0 -16.6658
-103.346 0.0619865 0 -15.7723
-102.54 0.0660788 0 -15.7703
102.089 0.0568778 0 -16.8811
102.894 0.0525802 0 -16.8792
-102.943 0.0640363 0 -15.7713
-0.238279 0.0625507 0 -16.6658
102.492 0.0547329 0 -16.8801
-0.239178 0.058273 0 -16.6658
-0.238728 0.0604157 0 -16.6658
-102.54 0.0660788 0 -15.7703
-101.733 0.0701415 0 -15.7686
101.285 0.0611443 0 -16.8828
102.089 0.0568778 0 -16.8811
-102.137 0.0681138 0 -15.7694
-0.237386 0.0667974 0 -16.6658
101.687 0.059015 0 -16.8819
-0.238279 0.0625507 0 -16.6658
-0.237832 0.0646779 0 -16.6658
-101.733 0.0701415 0 -15.7686
-100.927 0.0741746 0 -15.7669
100.48 0.0653795 0 -16.8844
101.285 0.0611443 0 -16.8828
-101.33 0.0721618 0 -15.7677
-0.236496 0.071013 0 -16.6657
100.882 0.0632658 0 -16.8836
-0.237386 0.0667974 0 -16.6658
-0.23694 0.0689091 0 -16.6657
-100.927 0.0741746 0 -15.7669
-100.12 0.078178 0 -15.7654
99.6747 0.0695832 0 -16.8858
100.48 0.0653795 0 -16.8844
-100.524 0.07618 0 -15.7662
-0.235612 0.0751974 0 -16.6657
100.077 0.0674853 0 -16.8851
-0.236496 0.0710129 0 -16.6657
-0.236054 0.0731091 0 -16.6657
-100.12 0.078178 0 -15.7654
-99.3139 0.0821518 0 -15.7641
98.8697 0.0737555 0 -16.8871
99.6747 0.0695832 0 -16.8858
-99.7171 0.0801686 0 -15.7648
-0.234732 0.0793505 0 -16.6657
99.2722 0.0716733 0 -16.8865
-0.235612 0.0751974 0 -16.6657
-0.235171 0.0772778 0 -16.6657
-99.3139 0.0821518 0 -15.7641
-98.5074 0.0860958 0 -15.7629
98.0648 0.0778963 0 -16.8883
98.8697 0.0737555 0 -16.8871
-98.9106 0.0841275 0 -15.7635
-0.233857 0.0834724 0 -16.6657
98.4673 0.0758299 0 -16.8877
-0.234732 0.0793505 0 -16.6657
-0.234294 0.0814154 0 -16.6657
-98.5074 0.0860958 0 -15.7629
-97.7009 0.09001 0 -15.7618
97.2599 0.0820054 0 -16.8893
98.0648 0.0778963 0 -16.8883
-98.1042 0.0880566 0 -15.7624
-0.232987 0.0875629 0 -16.6657
97.6623 0.0799548 0 -16.8888
-0.233857 0.0834724 0 -16.6657
-0.233421 0.0855216 0 -16.6657
-97.7009 0.09001 0 -15.7618
-96.8945 0.0938945 0 -15.7609
96.4549 0.0860829 0 -16.8902
97.2599 0.0820054 0 -16.8893
-97.2977 0.091956 0 -15.7614
-0.232121 0.0916221 0 -16.6656
96.8574 0.0840481 0 -16.8898
-0.232987 0.0875629 0 -16.6657
-0.232553 0.0895964 0 -16.6656
-96.8945 0.0938945 0 -15.7609
-96.088 0.0977491 0 -15.7601
95.65 0.0901286 0 -16.8909
96.4549 0.0860829 0 -16.8902
-96.4912 0.0958255 0 -15.7605
-0.231261 0.0956498 0 -16.6656
96.0525 0.0881097 0 -16.8906
-0.232121 0.0916221 0 -16.6656
-0.231691 0.0936399 0 -16.6656
-96.088 0.0977491 0 -15.7601
-95.2815 0.101574 0 -15.7595
94.845 0.0941424 0 -16.8915
95.65 0.0901286 0 -16.8909
-95.6848 0.0996652 0 -15.7598
-0.230406 0.0996459 0 -16.6656
95.2475 0.0921395 0 -16.8912
-0.231261 0.0956498 0 -16.6656
-0.230833 0.0976518 0 -16.6656
-95.2815 0.101574 0 -15.7595
-94.4751 0.105369 0 -15.759
94.0401 0.0981243 0 -16.892
94.845 0.0941424 0 -16.8915
-94.8783 0.103475 0 -15.7592
-0.229555 0.103611 0 -16.6656
94.4426 0.0961373 0 -16.8918
-0.230406 0.0996459 0 -16.6656
-0.22998 0.101632 0 -16.6656
-94.4751 0.105369 0 -15.759
-93.6686 0.109133 0 -15.7586
93.2351 0.102074 0 -16.8923
94.0401 0.0981243 0 -16.892
-94.0719 0.107255 0 -15.7588
-0.22871 0.107544 0 -16.6655
93.6376 0.100103 0 -16.8922
-0.229555 0.103611 0 -16.6656
-0.229132 0.105581 0 -16.6656
-93.6686 0.109133 0 -15.7586
-92.8622 0.112868 0 -15.7584
92.4302 0.105992 0 -16.8925
93.2351 0.102074 0 -16.8923
-93.2654 0.111005 0 -15.7585
-0.22787 0.111445 0 -16.6655
92.8327 0.104037 0 -16.8925
-0.22871 0.107544 0 -16.6655
-0.228289 0.109498 0 -16.6655
-92.8622 0.112868 0 -15.7584
-92.0558 0.116573 0 -15.7583
91.6252 0.109878 0 -16.8926
92.4302 0.105992 0 -16.8925
-92.459 0.114724 0 -15.7583
-0.227035 0.115314 0 -16.6655
92.0277 0.107939 0 -16.8926
-0.22787 0.111445 0 -16.6655
-0.227452 0.113384 0 -16.6655
-92.0558 0.116573 0 -15.7583
-91.2493 0.120248 0 -15.7583
90.8203 0.113731 0 -16.8925
91.6252 0.109878 0 -16.8926
-91.6526 0.118414 0 -15.7583
-0.226206 0.119152 0 -16.6655
91.2228 0.111809 0 -16.8926
-0.227035 0.115314 0 -16.6655
-0.22662 0.117237 0 -16.6655
-91.2493 0.120248 0 -15.7583
-90.4429 0.123892 0 -15.7585
90.0153 0.117553 0 -16.8923
90.8203 0.113731 0 -16.8925
-90.8461 0.122074 0 -15.7584
-0.225381 0.122958 0 -16.6655
90.4178 0.115646 0 -16.8925
-0.226206 0.119152 0 -16.6655
-0.225793 0.121059 0 -16.6655
-90.4429 0.123892 0 -15.7585
-89.6365 0.127507 0 -15.7587
89.2104 0.121342 0 -16.892
90.0153 0.117553 0 -16.8923
-90.0397 0.125703 0 -15.7586
-0.224562 0.126732 0 -16.6654
89.6128 0.119451 0 -16.8922
-0.225381 0.122958 0 -16.6655
-0.224971 0.124849 0 -16.6655
-89.6365 0.127507 0 -15.7587
-88.8301 0.131091 0 -15.7592
88.4054 0.125098 0 -16.8916
89.2104 0.121342 0 -16.892
-89.2333 0.129303 0 -15.7589
-0.223749 0.130474 0 -16.6654
88.8079 0.123224 0 -16.8918
-0.224562 0.126732 0 -16.6654
-0.224155 0.128607 0 -16.6654
-88.8301 0.131091 0 -15.7592
-88.0237 0.134645 0 -15.7597
87.6004 0.128822 0 -16.891
88.4054 0.125098 0 -16.8916
-88.4269 0.132872 0 -15.7594
-0.222941 0.134184 0 -16.6654
88.0029 0.126964 0 -16.8913
-0.223749 0.130474 0 -16.6654
-0.223344 0.132333 0 -16.6654
-88.0237 0.134645 0 -15.7597
-87.2173 0.138169 0 -15.7604
86.7954 0.132514 0 -16.8903
87.6004 0.128822 0 -16.891
-87.6205 0.136411 0 -15.76
-0.222139 0.137863 0 -16.6654
87.1979 0.130672 0 -16.8906
-0.222941 0.134184 0 -16.6654
-0.222539 0.136027 0 -16.6654
-87.2173 0.138169 0 -15.7604
-86.4109 0.141662 0 -15.7611
85.9905 0.136173 0 -16.8894
86.7954 0.132514 0 -16.8903
-86.8141 0.139919 0 -15.7607
-0.221342 0.141509 0 -16.6654
86.3929 0.134347 0 -16.8899
-0.222139 0.137863 0 -16.6654
-0.22174 0.13969 0 -16.6654
-86.4109 0.141662 0 -15.7611
-85.6045 0.145125 0 -15.7621
85.1855 0.139799 0 -16.8885
85.9905 0.136173 0 -16.8894
-86.0077 0.143398 0 -15.7616
-0.220551 0.145122 0 -16.6653
85.588 0.13799 0 -16.889
-0.221342 0.141509 0 -16.6654
-0.220946 0.143319 0 -16.6654
-85.6045 0.145125 0 -15.7621
-84.7981 0.148558 0 -15.7631
84.3805 0.143393 0 -16.8874
85.1855 0.139799 0 -16.8885
-85.2013 0.146846 0 -15.7626
-0.219765 0.148704 0 -16.6653
84.783 0.1416 0 -16.888
-0.220551 0.145122 0 -16.6653
-0.220157 0.146917 0 -16.6653
-84.7981 0.148558 0 -15.7631
-83.9918 0.15196 0 -15.7643
83.5755 0.146954 0 -16.8862
84.3805 0.143393 0 -16.8874
-84.395 0.150263 0 -15.7637
-0.218985 0.152253 0 -16.6653
83.978 0.145177 0 -16.8868
-0.219765 0.148704 0 -16.6653
-0.219375 0.150483 0 -16.6653
-83.9918 0.15196 0 -15.7643
-83.1854 0.155332 0 -15.7655
82.7705 0.150482 0 -16.8849
83.5755 0.146954 0 -16.8862
-83.5886 0.15365 0 -15.7649
-0.218211 0.155771 0 -16.6653
83.173 0.148722 0 -16.8856
-0.218985 0.152253 0 -16.6653
-0.218598 0.154016 0 -16.6653
-83.1854 0.155332 0 -15.7655
-82.3791 0.158673 0 -15.7669
81.9655 0.153977 0 -16.8835
82.7705 0.150482 0 -16.8849
-82.7822 0.157007 0 -15.7662
-0.217443 0.159255 0 -16.6653
82.368 0.152234 0 -16.8842
-0.218211 0.155771 0 -16.6653
-0.217827 0.157517 0 -16.6653
-82.3791 0.158673 0 -15.7669
-81.5727 0.161984 0 -15.7684
81.1605 0.157439 0 -16.8819
81.9655 0.153977 0 -16.8835
-81.9759 0.160333 0 -15.7677
-0.216681 0.162708 0 -16.6652
81.563 0.155712 0 -16.8827
-0.217443 0.159255 0 -16.6653
-0.217061 0.160986 0 -16.6653
-81.5727 0.161984 0 -15.7684
-80.7664 0.165264 0 -15.7701
80.3555 0.160869 0 -16.8802
81.1605 0.157439 0 -16.8819
-81.1695 0.163628 0 -15.7692
-0.215925 0.166128 0 -16.6652
80.758 0.159158 0 -16.8811
-0.216681 0.162708 0 -16.6652
-0.216302 0.164422 0 -16.6652
-80.7664 0.165264 0 -15.7701
-79.96 0.168514 0 -15.7718
79.5505 0.164265 0 -16.8785
80.3555 0.160869 0 -16.8802
-80.3632 0.166893 0 -15.7709
-0.215174 0.169515 0 -16.6652
79.953 0.162571 0 -16.8794
-0.215925 0.166128 0 -16.6652
-0.215549 0.167825 0 -16.6652
-79.96 0.168514 0 -15.7718
-79.1537 0.171733 0 -15.7737
78.7455 0.167628 0 -16.8766
79.5505 0.164265 0 -16.8785
-79.5568 0.170127 0 -15.7727
-0.21443 0.17287 0 -16.6652
79.148 0.165951 0 -16.8775
-0.215174 0.169515 0 -16.6652
-0.214801 0.171197 0 -16.6652
-79.1537 0.171733 0 -15.7737
-78.3474 0.174921 0 -15.7756
77.9405 0.170958 0 -16.8746
78.7455 0.167628 0 -16.8766
-78.7505 0.173331 0 -15.7746
-0.213692 0.176192 0 -16.6652
78.343 0.169297 0 -16.8756
-0.21443 0.17287 0 -16.6652
-0.21406 0.174535 0 -16.6652
-78.3474 0.174921 0 -15.7756
-77.541 0.178078 0 -15.7777
77.1355 0.174255 0 -16.8724
77.9405 0.170958 0 -16.8746
-77.9442 0.176503 0 -15.7767
-0.212959 0.179482 0 -16.6651
77.538 0.172611 0 -16.8735
-0.213692 0.176192 0 -16.6652
-0.213325 0.177841 0 -16.6652
-77.541 0.178078 0 -15.7777
-76.7347 0.181205 0 -15.7799
76.3304 0.177519 0 -16.8702
77.1355 0.174255 0 -16.8724
-77.1379 0.179645 0 -15.7788
-0.212233 0.182739 0 -16.6651
76.733 0.175891 0 -16.8713
-0.212959 0.179482 0 -16.6651
-0.212596 0.181115 0 -16.6651
-76.7347 0.181205 0 -15.7799
-75.9284 0.1843 0 -15.7822
75.5254 0.180749 0 -16.8679
76.3304 0.177519 0 -16.8702
-76.3316 0.182756 0 -15.7811
-0.211514 0.185964 0 -16.6651
75.9279 0.179138 0 -16.869
-0.212233 0.182739 0 -16.6651
-0.211873 0.184355 0 -16.6651
-75.9284 0.1843 0 -15.7822
-75.1221 0.187365 0 -15.7846
74.7204 0.183946 0 -16.8654
75.5254 0.180749 0 -16.8679
-75.5253 0.185837 0 -15.7834
-0.2108 0.189155 0 -16.6651
75.1229 0.182352 0 -16.8666
-0.211514 0.185964 0 -16.6651
-0.211156 0.187563 0 -16.6651
-75.1221 0.187365 0 -15.7846
-74.3158 0.190399 0 -15.7872
73.9154 0.18711 0 -16.8628
74.7204 0.183946 0 -16.8654
-74.719 0.188886 0 -15.7859
-0.210093 0.192314 0 -16.6651
74.3179 0.185532 0 -16.8641
-0.2108 0.189155 0 -16.6651
-0.210446 0.190739 0 -16.6651
-74.3158 0.190399 0 -15.7872
-73.5095 0.193402 0 -15.7898
73.1103 0.19024 0 -16.8602
73.9154 0.18711 0 -16.8628
-73.9127 0.191905 0 -15.7885
-0.209392 0.19544 0 -16.665
73.5128 0.188679 0 -16.8615
-0.210093 0.192314 0 -16.6651
-0.209741 0.193881 0 -16.6651
-73.5095 0.193402 0 -15.7898
-72.7033 0.196374 0 -15.7925
72.3053 0.193337 0 -16.8574
73.1103 0.19024 0 -16.8602
-73.1064 0.194892 0 -15.7911
-0.208697 0.198533 0 -16.665
72.7078 0.191793 0 -16.8588
-0.209392 0.19544 0 -16.665
-0.209044 0.196991 0 -16.665
-72.7033 0.196374 0 -15.7925
-71.897 0.199315 0 -15.7953
71.5002 0.1964 0 -16.8545
72.3053 0.193337 0 -16.8574
-72.3001 0.197848 0 -15.7939
-0.208009 0.201593 0 -16.665
71.9028 0.194872 0 -16.856
-0.208697 0.198533 0 -16.665
-0.208352 0.200067 0 -16.665
-71.897 0.199315 0 -15.7953
-71.0907 0.202225 0 -15.7983
70.6952 0.19943 0 -16.8516
71.5002 0.1964 0 -16.8545
-71.4939 0.200774 0 -15.7968
-0.207327 0.20462 0 -16.665
71.0977 0.197919 0 -16.8531
-0.208009 0.201593 0 -16.665
-0.207667 0.203111 0 -16.665
-71.0907 0.202225 0 -15.7983
-70.2845 0.205104 0 -15.8013
69.8901 0.202426 0 -16.8485
70.6952 0.19943 0 -16.8516
-70.6876 0.203668 0 -15.7998
-0.206652 0.207615 0 -16.665
70.2927 0.200932 0 -16.85
-0.207327 0.20462 0 -16.665
-0.206989 0.206122 0 -16.665
-70.2845 0.205104 0 -15.8013
-69.4782 0.207951 0 -15.8045
69.0851 0.205388 0 -16.8453
69.8901 0.202426 0 -16.8485
-69.8814 0.206531 0 -15.8029
-0.205984 0.210576 0 -16.6649
69.4876 0.203911 0 -16.8469
-0.206652 0.207615 0 -16.665
-0.206317 0.209099 0 -16.665
-69.4782 0.207951 0 -15.8045
-68.672 0.210767 0 -15.8077
68.28 0.208317 0 -16.842
69.0851 0.205388 0 -16.8453
-69.0751 0.209363 0 -15.8061
-0.205321 0.213504 0 -16.6649
68.6826 0.206857 0 -16.8437
-0.205984 0.210576 0 -16.6649
-0.205652 0.212044 0 -16.6649
-68.672 0.210767 0 -15.8077
-67.8658 0.213553 0 -15.811
67.475 0.211212 0 -16.8387
68.28 0.208317 0 -16.842
-68.2689 0.212164 0 -15.8094
-0.204666 0.216399 0 -16.6649
67.8775 0.209769 0 -16.8404
-0.205321 0.213504 0 -16.6649
-0.204993 0.214955 0 -16.6649
-67.8658 0.213553 0 -15.811
-67.0595 0.216306 0 -15.8145
66.6699 0.214073 0 -16.8352
67.475 0.211212 0 -16.8387
-67.4626 0.214933 0 -15.8127
-0.204017 0.21926 0 -16.6649
67.0724 0.212647 0 -16.8369
-0.204666 0.216399 0 -16.6649
-0.204341 0.217834 0 -16.6649
-67.0595 0.216306 0 -15.8145
-66.2533 0.219029 0 -15.818
65.8648 0.216901 0 -16.8316
66.6699 0.214073 0 -16.8352
-66.6564 0.217672 0 -15.8162
-0.203375 0.222089 0 -16.6649
66.2673 0.215491 0 -16.8334
-0.204017 0.21926 0 -16.6649
-0.203695 0.220679 0 -16.6649
-66.2533 0.219029 0 -15.818
-65.4471 0.22172 0 -15.8216
65.0597 0.219694 0 -16.828
65.8648 0.216901 0 -16.8316
-65.8502 0.220378 0 -15.8198
-0.20274 0.224884 0 -16.6649
65.4623 0.218302 0 -16.8298
-0.203375 0.222089 0 -16.6649
-0.203057 0.223491 0 -16.6649
-65.4471 0.22172 0 -15.8216
-64.6409 0.22438 0 -15.8254
64.2546 0.222454 0 -16.8242
65.0597 0.219694 0 -16.828
-65.044 0.223054 0 -15.8235
-0.202111 0.227646 0 -16.6648
64.6572 0.221079 0 -16.8261
-0.20274 0.224884 0 -16.6649
-0.202425 0.226269 0 -16.6648
-64.6409 0.22438 0 -15.8254
-63.8347 0.227008 0 -15.8292
63.4496 0.22518 0 -16.8204
64.2546 0.222454 0 -16.8242
-64.2378 0.225698 0 -15.8272
-0.20149 0.230375 0 -16.6648
63.8521 0.223822 0 -16.8223
-0.202111 0.227646 0 -16.6648
-0.2018 0.229015 0 -16.6648
-63.8347 0.227008 0 -15.8292
-63.0285 0.229605 0 -15.8331
62.6445 0.227872 0 -16.8164
63.4496 0.22518 0 -16.8204
-63.4316 0.22831 0 -15.8311
-0.200875 0.23307 0 -16.6648
63.047 0.22653 0 -16.8184
-0.20149 0.230375 0 -16.6648
-0.201181 0.231727 0 -16.6648
-63.0285 0.229605 0 -15.8331
-62.2223 0.23217 0 -15.8371
61.8394 0.23053 0 -16.8124
62.6445 0.227872 0 -16.8164
-62.6254 0.230891 0 -15.835
-0.200267 0.235732 0 -16.6648
62.2419 0.229206 0 -16.8144
-0.200875 0.23307 0 -16.6648
-0.20057 0.234405 0 -16.6648
-62.2223 0.23217 0 -15.8371
-61.4162 0.234703 0 -15.8411
61.0343 0.233154 0 -16.8083
61.8394 0.23053 0 -16.8124
-61.8192 0.233441 0 -15.8391
-0.199666 0.238361 0 -16.6648
61.4368 0.231847 0 -16.8103
-0.200267 0.235732 0 -16.6648
-0.199965 0.23705 0 -16.6648
-61.4162 0.234703 0 -15.8411
-60.61 0.237205 0 -15.8453
60.2292 0.235744 0 -16.8041
61.0343 0.233154 0 -16.8083
-61.0131 0.235958 0 -15.8432
-0.199072 0.240956 0 -16.6648
60.6317 0.234454 0 -16.8062
-0.199666 0.238361 0 -16.6648
-0.199368 0.239662 0 -16.6648
-60.61 0.237205 0 -15.8453
-59.8038 0.239676 0 -15.8496
59.4241 0.2383 0 -16.7998
60.2292 0.235744 0 -16.8041
-60.2069 0.238445 0 -15.8474
-0.198484 0.243517 0 -16.6647
59.8266 0.237027 0 -16.8019
-0.199072 0.240956 0 -16.6648
-0.198777 0.242241 0 -16.6647
-59.8038 0.239676 0 -15.8496
-58.9977 0.242114 0 -15.8539
58.6189 0.240822 0 -16.7954
59.4241 0.2383 0 -16.7998
-59.4008 0.240899 0 -15.8517
-0.197904 0.246045 0 -16.6647
59.0215 0.239566 0 -16.7976
-0.198484 0.243517 0 -16.6647
-0.198193 0.244785 0 -16.6647
-58.9977 0.242114 0 -15.8539
-58.1915 0.244521 0 -15.8583
57.8138 0.24331 0 -16.7909
58.6189 0.240822 0 -16.7954
-58.5946 0.243322 0 -15.8561
-0.197331 0.248539 0 -16.6647
58.2164 0.242071 0 -16.7932
-0.197904 0.246045 0 -16.6647
-0.197617 0.247296 0 -16.6647
-58.1915 0.244521 0 -15.8583
-57.3854 0.246896 0 -15.8628
57.0087 0.245764 0 -16.7864
57.8138 0.24331 0 -16.7909
-57.7885 0.245713 0 -15.8606
-0.196765 0.251 0 -16.6647
57.4113 0.244541 0 -16.7887
-0.197331 0.248539 0 -16.6647
-0.197047 0.249774 0 -16.6647
-57.3854 0.246896 0 -15.8628
-56.5793 0.24924 0 -15.8674
56.2036 0.248183 0 -16.7818
57.0087 0.245764 0 -16.7864
-56.9823 0.248072 0 -15.8651
-0.196207 0.253427 0 -16.6647
56.6061 0.246978 0 -16.7841
-0.196765 0.251 0 -16.6647
-0.196485 0.252218 0 -16.6647
-56.5793 0.24924 0 -15.8674
-55.7732 0.251551 0 -15.8721
55.3984 0.250569 0 -16.7771
56.2036 0.248183 0 -16.7818
-56.1762 0.250399 0 -15.8698
-0.195655 0.255821 0 -16.6646
55.801 0.24938 0 -16.7794
-0.196207 0.253427 0 -16.6647
-0.19593 0.254628 0 -16.6647
-55.7732 0.251551 0 -15.8721
-54.967 0.253831 0 -15.8769
54.5933 0.25292 0 -16.7723
55.3984 0.250569 0 -16.7771
-55.3701 0.252695 0 -15.8745
-0.195111 0.258181 0 -16.6646
54.9959 0.251749 0 -16.7747
-0.195655 0.255821 0 -16.6646
-0.195382 0.257005 0 -16.6646
-54.967 0.253831 0 -15.8769
-54.1609 0.256078 0 -15.8817
53.7881 0.255237 0 -16.7674
54.5933 0.25292 0 -16.7723
-54.564 0.254959 0 -15.8793
-0.194573 0.260507 0 -16.6646
54.1907 0.254083 0 -16.7699
-0.195111 0.258181 0 -16.6646
-0.194841 0.259348 0 -16.6646
-54.1609 0.256078 0 -15.8817
-53.3548 0.258294 0 -15.8866
52.983 0.257519 0 -16.7625
53.7881 0.255237 0 -16.7674
-53.7579 0.25719 0 -15.8841
-0.194044 0.262799 0 -16.6646
53.3856 0.256382 0 -16.765
-0.194573 0.260507 0 -16.6646
-0.194308 0.261657 0 -16.6646
-53.3548 0.258294 0 -15.8866
-52.5487 0.260478 0 -15.8916
52.1778 0.259768 0 -16.7575
52.983 0.257519 0 -16.7625
-52.9518 0.25939 0 -15.8891
-0.193521 0.265058 0 -16.6646
52.5804 0.258648 0 -16.76
-0.194044 0.262799 0 -16.6646
-0.193781 0.263933 0 -16.6646
-52.5487 0.260478 0 -15.8916
-51.7427 0.262629 0 -15.8966
51.3727 0.261982 0 -16.7524
52.1778 0.259768 0 -16.7575
-52.1457 0.261557 0 -15.8941
-0.193006 0.267282 0 -16.6646
51.7753 0.260879 0 -16.7549
-0.193521 0.265058 0 -16.6646
-0.193262 0.266174 0 -16.6646
-51.7427 0.262629 0 -15.8966
-50.9366 0.264748 0 -15.9018
50.5675 0.264162 0 -16.7472
51.3727 0.261982 0 -16.7524
-51.3396 0.263693 0 -15.8992
-0.192498 0.269473 0 -16.6646
50.9701 0.263076 0 -16.7498
-0.193006 0.267282 0 -16.6646
-0.192751 0.268382 0 -16.6646
-50.9366 0.264748 0 -15.9018
-50.1305 0.266836 0 -15.907
49.7624 0.266307 0 -16.742
50.5675 0.264162 0 -16.7472
-50.5336 0.265796 0 -15.9044
-0.191997 0.27163 0 -16.6645
50.1649 0.265239 0 -16.7446
-0.192498 0.269473 0 -16.6646
-0.192246 0.270556 0 -16.6645
-50.1305 0.266836 0 -15.907
-49.3245 0.268891 0 -15.9122
48.9572 0.268418 0 -16.7367
49.7624 0.266307 0 -16.742
-49.7275 0.267867 0 -15.9096
-0.191504 0.273753 0 -16.6645
49.3598 0.267367 0 -16.7393
-0.191997 0.27163 0 -16.6645
-0.19175 0.272696 0 -16.6645
-49.3245 0.268891 0 -15.9122
-48.5184 0.270914 0 -15.9176
48.152 0.270495 0 -16.7313
48.9572 0.268418 0 -16.7367
-48.9214 0.269906 0 -15.9149
-0.191018 0.275842 0 -16.6645
48.5546 0.269461 0 -16.734
-0.191504 0.273753 0 -16.6645
-0.19126 0.274802 0 -16.6645
-48.5184 0.270914 0 -15.9176
-47.7124 0.272904 0 -15.923
47.3468 0.272537 0 -16.7259
48.152 0.270495 0 -16.7313
-48.1154 0.271913 0 -15.9203
-0.19054 0.277897 0 -16.6645
47.7494 0.27152 0 -16.7286
-0.191018 0.275842 0 -16.6645
-0.190778 0.276874 0 -16.6645
-47.7124 0.272904 0 -15.923
-46.9063 0.274863 0 -15.9285
46.5416 0.274545 0 -16.7203
47.3468 0.272537 0 -16.7259
-47.3094 0.273888 0 -15.9257
-0.190069 0.279918 0 -16.6645
46.9442 0.273545 0 -16.7231
-0.19054 0.277897 0 -16.6645
-0.190304 0.278912 0 -16.6645
-46.9063 0.274863 0 -15.9285
-46.1003 0.276789 0 -15.934
45.7364 0.276518 0 -16.7148
46.5416 0.274545 0 -16.7203
-46.5033 0.27583 0 -15.9313
-0.189606 0.281905 0 -16.6645
46.139 0.275536 0 -16.7176
-0.190069 0.279918 0 -16.6645
-0.189837 0.280916 0 -16.6645
-46.1003 0.276789 0 -15.934
-45.2943 0.278682 0 -15.9397
44.9312 0.278457 0 -16.7091
45.7364 0.276518 0 -16.7148
-45.6973 0.27774 0 -15.9368
-0.18915 0.283858 0 -16.6645
45.3338 0.277492 0 -16.7119
-0.189606 0.281905 0 -16.6645
-0.189377 0.282886 0 -16.6645
-45.2943 0.278682 0 -15.9397
-44.4883 0.280544 0 -15.9453
44.126 0.280362 0 -16.7034
44.9312 0.278457 0 -16.7091
-44.8913 0.279617 0 -15.9425
-0.188702 0.285777 0 -16.6644
44.5286 0.279414 0 -16.7063
-0.18915 0.283858 0 -16.6645
-0.188925 0.284822 0 -16.6644
-44.4883 0.280544 0 -15.9453
-43.6823 0.282372 0 -15.9511
43.3208 0.282232 0 -16.6976
44.126 0.280362 0 -16.7034
-44.0853 0.281462 0 -15.9482
-0.188262 0.287662 0 -16.6644
43.7234 0.281301 0 -16.7005
-0.188702 0.285777 0 -16.6644
-0.188481 0.286724 0 -16.6644
-43.6823 0.282372 0 -15.9511
-42.8763 0.284168 0 -15.9569
42.5156 0.284068 0 -16.6918
43.3208 0.282232 0 -16.6976
-43.2793 0.283274 0 -15.954
-0.187829 0.289512 0 -16.6644
42.9182 0.283154 0 -16.6947
-0.188262 0.287662 0 -16.6644
-0.188045 0.288591 0 -16.6644
-42.8763 0.284168 0 -15.9569
-42.0703 0.285932 0 -15.9628
41.7104 0.285869 0 -16.6859
42.5156 0.284068 0 -16.6918
-42.4733 0.285054 0 -15.9598
-0.187404 0.291329 0 -16.6644
42.113 0.284972 0 -16.6889
-0.187829 0.289512 0 -16.6644
-0.187616 0.290425 0 -16.6644
-42.0703 0.285932 0 -15.9628
-41.2643 0.287663 0 -15.9687
40.9051 0.287635 0 -16.6799
41.7104 0.285869 0 -16.6859
-41.6673 0.286802 0 -15.9657
-0.186986 0.293111 0 -16.6644
41.3077 0.286756 0 -16.6829
-0.187404 0.291329 0 -16.6644
-0.187194 0.292224 0 -16.6644
-41.2643 0.287663 0 -15.9687
-40.4584 0.289362 0 -15.9747
40.0999 0.289367 0 -16.6739
40.9051 0.287635 0 -16.6799
-40.8613 0.288517 0 -15.9717
-0.186577 0.294859 0 -16.6644
40.5025 0.288506 0 -16.6769
-0.186986 0.293111 0 -16.6644
-0.186781 0.293989 0 -16.6644
-40.4584 0.289362 0 -15.9747
-39.6524 0.291028 0 -15.9807
39.2946 0.291065 0 -16.6679
40.0999 0.289367 0 -16.6739
-40.0554 0.290199 0 -15.9777
-0.186175 0.296573 0 -16.6644
39.6973 0.29022 0 -16.6709
-0.186577 0.294859 0 -16.6644
-0.186375 0.29572 0 -16.6644
-39.6524 0.291028 0 -15.9807
-38.8464 0.292661 0 -15.9868
38.4894 0.292728 0 -16.6617
39.2946 0.291065 0 -16.6679
-39.2494 0.291848 0 -15.9838
-0.18578 0.298253 0 -16.6643
38.892 0.291901 0 -16.6648
-0.186175 0.296573 0 -16.6644
-0.185976 0.297417 0 -16.6644
-38.8464 0.292661 0 -15.9868
-38.0405 0.294261 0 -15.993
37.6841 0.294357 0 -16.6555
38.4894 0.292728 0 -16.6617
-38.4435 0.293465 0 -15.9899
-0.185394 0.299898 0 -16.6643
38.0868 0.293547 0 -16.6586
-0.18578 0.298253 0 -16.6643
-0.185586 0.29908 0 -16.6643
-38.0405 0.294261 0 -15.993
-37.2346 0.295829 0 -15.9992
36.8789 0.295951 0 -16.6493
37.6841 0.294357 0 -16.6555
-37.6375 0.295049 0 -15.9961
-0.185015 0.301509 0 -16.6643
37.2815 0.295158 0 -16.6524
-0.185394 0.299898 0 -16.6643
-0.185203 0.300708 0 -16.6643
-37.2346 0.295829 0 -15.9992
-36.4286 0.297364 0 -16.0055
36.0736 0.29751 0 -16.643
36.8789 0.295951 0 -16.6493
-36.8316 0.296601 0 -16.0023
-0.184644 0.303086 0 -16.6643
36.4763 0.296735 0 -16.6462
-0.185015 0.301509 0 -16.6643
-0.184829 0.302302 0 -16.6643
-36.4286 0.297364 0 -16.0055
-35.6227 0.298866 0 -16.0118
35.2684 0.299035 0 -16.6367
36.0736 0.29751 0 -16.643
-36.0257 0.298119 0 -16.0086
-0.184281 0.304628 0 -16.6643
35.671 0.298277 0 -16.6398
-0.184644 0.303086 0 -16.6643
-0.184462 0.303861 0 -16.6643
-35.6227 0.298866 0 -16.0118
-34.8168 0.300336 0 -16.0182
34.4631 0.300525 0 -16.6303
35.2684 0.299035 0 -16.6367
-35.2197 0.299605 0 -16.015
-0.183926 0.306136 0 -16.6643
34.8657 0.299784 0 -16.6335
-0.184281 0.304628 0 -16.6643
-0.184102 0.305387 0 -16.6643
-34.8168 0.300336 0 -16.0182
-34.0109 0.301772 0 -16.0246
33.6578 0.301981 0 -16.6238
34.4631 0.300525 0 -16.6303
-34.4138 0.301058 0 -16.0214
-0.183578 0.30761 0 -16.6643
34.0604 0.301257 0 -16.6271
-0.183926 0.306136 0 -16.6643
-0.183751 0.306877 0 -16.6643
-34.0109 0.301772 0 -16.0246
-33.205 0.303175 0 -16.0311
32.8525 0.303402 0 -16.6173
33.6578 0.301981 0 -16.6238
-33.6079 0.302478 0 -16.0278
-0.183239 0.309049 0 -16.6643
33.2551 0.302696 0 -16.6206
-0.183578 0.30761 0 -16.6643
-0.183408 0.308334 0 -16.6643
-33.205 0.303175 0 -16.0311
-32.3991 0.304546 0 -16.0376
32.0472 0.304789 0 -16.6108
32.8525 0.303402 0 -16.6173
-32.802 0.303865 0 -16.0343
-0.182908 0.310454 0 -16.6643
32.4499 0.3041 0 -16.6141
-0.183239 0.309049 0 -16.6643
-0.183072 0.309756 0 -16.6643
-32.3991 0.304546 0 -16.0376
-31.5932 0.305883 0 -16.0441
31.2419 0.306141 0 -16.6042
32.0472 0.304789 0 -16.6108
-31.9962 0.305219 0 -16.0409
-0.182584 0.311824 0 -16.6642
31.6446 0.305469 0 -16.6075
-0.182908 0.310454 0 -16.6643
-0.182745 0.311143 0 -16.6643
-31.5932 0.305883 0 -16.0441
-30.7873 0.307188 0 -16.0508
30.4366 0.307458 0 -16.5976
31.2419 0.306141 0 -16.6042
-31.1903 0.306539 0 -16.0474
-0.182268 0.31316 0 -16.6642
30.8393 0.306804 0 -16.6009
-0.182584 0.311824 0 -16.6642
-0.182425 0.312497 0 -16.6642
-30.7873 0.307188 0 -16.0508
-29.9815 0.308459 0 -16.0574
29.6313 0.308741 0 -16.5909
30.4366 0.307458 0 -16.5976
-30.3844 0.307827 0 -16.0541
-0.181961 0.314462 0 -16.6642
30.0339 0.308104 0 -16.5943
-0.182268 0.31316 0 -16.6642
-0.182114 0.313815 0 -16.6642
-29.9815 0.308459 0 -16.0574
-29.1756 0.309697 0 -16.0641
28.826 0.309989 0 -16.5842
29.6313 0.308741 0 -16.5909
-29.5785 0.309082 0 -16.0607
-0.181661 0.315729 0 -16.6642
29.2286 0.30937 0 -16.5876
-0.181961 0.314462 0 -16.6642
-0.18181 0.315099 0 -16.6642
-29.1756 0.309697 0 -16.0641
-28.3698 0.310902 0 -16.0708
28.0206 0.311203 0 -16.5775
28.826 0.309989 0 -16.5842
-28.7727 0.310304 0 -16.0675
-0.18137 0.316961 0 -16.6642
28.4233 0.310601 0 -16.5808
-0.181661 0.315729 0 -16.6642
-0.181514 0.316349 0 -16.6642
-28.3698 0.310902 0 -16.0708
-27.5639 0.312074 0 -16.0776
27.2153 0.312382 0 -16.5707
28.0206 0.311203 0 -16.5775
-27.9669 0.311492 0 -16.0742
-0.181086 0.318159 0 -16.6642
27.618 0.311797 0 -16.5741
-0.18137 0.316961 0 -16.6642
-0.181227 0.317564 0 -16.6642
-27.5639 0.312074 0 -16.0776
-26.7581 0.313212 0 -16.0844
26.41 0.313526 0 -16.5638
27.2153 0.312382 0 -16.5707
-27.161 0.312647 0 -16.081
-0.18081 0.319322 0 -16.6642
26.8126 0.312959 0 -16.5672
-0.181086 0.318159 0 -16.6642
-0.180947 0.318744 0 -16.6642
-26.7581 0.313212 0 -16.0844
-25.9523 0.314317 0 -16.0913
25.6046 0.314636 0 -16.5569
26.41 0.313526 0 -16.5638
-26.3552 0.313768 0 -16.0879
-0.180543 0.32045 0 -16.6642
26.0073 0.314085 0 -16.5604
-0.18081 0.319322 0 -16.6642
-0.180676 0.31989 0 -16.6642
-25.9523 0.314317 0 -16.0913
-25.1465 0.315388 0 -16.0982
24.7993 0.31571 0 -16.55
25.6046 0.314636 0 -16.5569
-25.5494 0.314857 0 -16.0947
-0.180283 0.321543 0 -16.6642
25.202 0.315178 0 -16.5535
-0.180543 0.32045 0 -16.6642
-0.180412 0.321001 0 -16.6642
-25.1465 0.315388 0 -16.0982
-24.3406 0.316426 0 -16.1051
23.9939 0.31675 0 -16.5431
24.7993 0.31571 0 -16.55
-24.7435 0.315911 0 -16.1016
-0.180031 0.322601 0 -16.6642
24.3966 0.316235 0 -16.5466
-0.180283 0.321543 0 -16.6642
-0.180156 0.322077 0 -16.6642
-24.3406 0.316425 0 -16.1051
-23.5348 0.317429 0 -16.1121
23.1886 0.317755 0 -16.5361
23.9939 0.31675 0 -16.5431
-23.9377 0.316932 0 -16.1086
-0.179787 0.323625 0 -16.6642
23.5912 0.317257 0 -16.5396
-0.180031 0.322601 0 -16.6642
-0.179908 0.323117 0 -16.6642
-23.5348 0.317429 0 -16.1121
-22.729 0.318399 0 -16.1191
22.3832 0.318724 0 -16.5291
23.1886 0.317755 0 -16.5361
-23.1319 0.317918 0 -16.1156
-0.17955 0.324612 0 -16.6642
22.7859 0.318244 0 -16.5326
-0.179787 0.323625 0 -16.6642
-0.179668 0.324123 0 -16.6642
-22.729 0.318399 0 -16.1191
-21.9233 0.319335 0 -16.1261
21.5778 0.319657 0 -16.5221
22.3832 0.318724 0 -16.5291
-22.3262 0.318871 0 -16.1226
-0.17932 0.325565 0 -16.6641
21.9805 0.319195 0 -16.5256
-0.17955 0.324612 0 -16.6642
-0.179434 0.325093 0 -16.6641
-21.9233 0.319335 0 -16.1261
-21.1175 0.320236 0 -16.1332
20.7724 0.320555 0 -16.515
21.5778 0.319657 0 -16.5221
-21.5204 0.31979 0 -16.1296
-0.179097 0.326481 0 -16.6641
21.1751 0.320111 0 -16.5185
-0.17932 0.325565 0 -16.6641
-0.179208 0.326028 0 -16.6641
-21.1175 0.320236 0 -16.1332
-20.3117 0.321105 0 -16.1402
19.967 0.321416 0 -16.5079
20.7724 0.320555 0 -16.515
-20.7146 0.320675 0 -16.1367
-0.17888 0.327363 0 -16.6641
20.3697 0.32099 0 -16.5114
-0.179097 0.326481 0 -16.6641
-0.178988 0.326926 0 -16.6641
-20.3117 0.321105 0 -16.1402
-19.5059 0.32194 0 -16.1474
19.1617 0.322241 0 -16.5007
19.967 0.321416 0 -16.5079
-19.9088 0.321526 0 -16.1438
-0.178669 0.328208 0 -16.6641
19.5643 0.321834 0 -16.5043
-0.17888 0.327363 0 -16.6641
-0.178774 0.32779 0 -16.6641
-19.5059 0.32194 0 -16.1474
-18.7002 0.322744 0 -16.1545
18.3563 0.323029 0 -16.4936
19.1617 0.322241 0 -16.5007
-19.1031 0.322346 0 -16.1509
-0.178463 0.32902 0 -16.6641
18.759 0.32264 0 -16.4972
-0.178669 0.328208 0 -16.6641
-0.178565 0.328618 0 -16.6641
-18.7002 0.322744 0 -16.1545
-17.8944 0.32352 0 -16.1616
17.5509 0.323781 0 -16.4864
18.3563 0.323029 0 -16.4936
-18.2973 0.323136 0 -16.1581
-0.178261 0.329798 0 -16.6641
17.9536 0.32341 0 -16.49
-0.178463 0.32902 0 -16.6641
-0.178361 0.329413 0 -16.6641
-17.8944 0.32352 0 -16.1616
-17.0887 0.324272 0 -16.1688
16.7455 0.324496 0 -16.4791
17.5509 0.323781 0 -16.4864
-17.4916 0.323899 0 -16.1652
-0.178064 0.330545 0 -16.664
17.1482 0.324143 0 -16.4828
-0.178261 0.329798 0 -16.6641
-0.178162 0.330175 0 -16.6641
-17.0887 0.324272 0 -16.1688
-16.283 0.325003 0 -16.176
15.9401 0.32518 0 -16.4719
16.7455 0.324496 0 -16.4791
-16.6858 0.32464 0 -16.1724
-0.177871 0.331267 0 -16.664
16.3428 0.324842 0 -16.4755
-0.178064 0.330545 0 -16.664
-0.177967 0.330909 0 -16.664
-16.283 0.325003 0 -16.176
-15.4773 0.325717 0 -16.1832
15.1348 0.325842 0 -16.4645
15.9401 0.32518 0 -16.4719
-15.8801 0.325362 0 -16.1796
-0.177686 0.331969 0 -16.6639
15.5375 0.325512 0 -16.4682
-0.177871 0.331267 0 -16.664
-0.177777 0.33162 0 -16.6639
-15.4773 0.325717 0 -16.1832
-14.6716 0.326411 0 -16.1903
14.3294 0.326505 0 -16.4572
15.1348 0.325842 0 -16.4645
-15.0745 0.326067 0 -16.1868
-0.177511 0.332662 0 -16.6638
14.7321 0.326171 0 -16.4609
-0.177686 0.331969 0 -16.6639
-0.177597 0.332316 0 -16.6638
-14.6716 0.326411 0 -16.1903
-13.866 0.327056 0 -16.1976
13.5241 0.327229 0 -16.4498
14.3294 0.326505 0 -16.4572
-14.2688 0.326744 0 -16.194
-0.177358 0.333364 0 -16.6637
13.9268 0.326853 0 -16.4535
-0.177511 0.332663 0 -16.6638
-0.177431 0.333011 0 -16.6637
-13.866 0.327056 0 -16.1976
-13.0604 0.327591 0 -16.2049
12.7187 0.32812 0 -16.4424
13.5241 0.327229 0 -16.4498
-13.4632 0.327344 0 -16.2012
-0.17724 0.334096 0 -16.6637
13.1214 0.327643 0 -16.4461
-0.177358 0.333364 0 -16.6637
-0.177293 0.333724 0 -16.6637
-13.0604 0.327591 0 -16.2049
-12.2547 0.327814 0 -16.2127
11.9131 0.329444 0 -16.4354
12.7187 0.32812 0 -16.4424
-12.6575 0.327764 0 -16.2087
-0.177187 0.334895 0 -16.6642
12.3159 0.328701 0 -16.4389
-0.17724 0.334096 0 -16.6637
-0.177204 0.334485 0 -16.6639
-12.2547 0.327814 0 -16.2127
-11.4485 0.327408 0 -16.2214
11.1068 0.331612 0 -16.4293
11.9131 0.329444 0 -16.4354
-11.8517 0.327723 0 -16.2169
-0.177246 0.335811 0 -16.6659
11.5101 0.330382 0 -16.4322
-0.177187 0.334895 0 -16.6642
-0.177199 0.335334 0 -16.6648
-11.4485 0.327408 0 -16.2214
-10.6414 0.325494 0 -16.2324
10.2993 0.335636 0 -16.4251
11.1068 0.331612 0 -16.4293
-11.045 0.326724 0 -16.2265
-0.177493 0.336916 0 -16.6701
10.7032 0.333298 0 -16.4268
-0.177246 0.335811 0 -16.6659
-0.17734 0.336335 0 -16.6676
-10.6414 0.325494 0 -16.2324
-9.83148 0.320969 0 -16.2481
9.48839 0.342807 0 -16.4254
10.2993 0.335636 0 -16.4251
-10.2371 0.323672 0 -16.2394
-0.178054 0.338316 0 -16.6798
9.89457 0.338699 0 -16.4245
-0.177493 0.336916 0 -16.6701
-0.177724 0.33757 0 -16.674
-9.83148 0.320969 0 -16.2481
-9.01725 0.310837 0 -16.2729
8.67228 0.356388 0 -16.4345
9.48839 0.342807 0 -16.4254
-9.42481 0.316849 0 -16.259
-0.179125 0.340161 0 -16.7004
9.08092 0.348532 0 -16.4285
-0.178054 0.338316 0 -16.6798
-0.178513 0.339173 0 -16.6884
-9.01725 0.310837 0 -16.2729
-8.1909 0.292562 0 -16.3152
7.8426 0.379295 0 -16.4603
8.67228 0.356388 0 -16.4345
-8.60659 0.303 0 -16.2911
-0.181004 0.342665 0 -16.7411
8.26018 0.366364 0 -16.4446
-0.179125 0.340161 0 -16.7004
-0.179935 0.341311 0 -16.7172
-8.1909 0.292562 0 -16.3152
-7.34907 0.258174 0 -16.3878
6.99526 0.419981 0 -16.5156
7.8426 0.379295 0 -16.4603
-7.77141 0.277837 0 -16.3467
-0.184127 0.346103 0 -16.8172
7.42069 0.396928 0 -16.4833
-0.181004 0.342665 0 -16.7411
-0.182387 0.344254 0 -16.774
-7.34907 0.258174 0 -16.3878
-6.46765 0.207167 0 -16.5118
6.10501 0.479578 0 -16.6208
6.99526 0.419981 0 -16.5156
-6.91663 0.235026 0 -16.4416
-0.189078 0.350819 0 -16.9512
6.55891 0.447091 0 -16.5602
-0.184127 0.346103 0 -16.8172
-0.186309 0.348265 0 -16.8742
-6.46765 0.207167 0 -16.5118
-5.5471 0.126498 0 -16.7112
5.17117 0.571603 0 -16.7999
6.10501 0.479578 0 -16.6208
-6.00939 0.170171 0 -16.6006
-0.196506 0.357055 0 -17.1706
5.64074 0.521897 0 -16.6996
-0.189078 0.350819 0 -16.9512
-0.192481 0.353768 0 -17.0504
-5.5471 0.126498 0 -16.7112
-4.53212 0.0506556 0 -17.0128
4.13722 0.661618 0 -17.0795
5.17117 0.571603 0 -16.7999
-5.06061 0.0860075 0 -16.8473
-0.206858 0.364727 0 -17.4961
4.67599 0.618847 0 -16.9253
-0.196506 0.357055 0 -17.1706
-0.201219 0.360687 0 -17.3155
-4.53212 0.0506556 0 -17.0128
-3.4811 -0.00633477 0 -17.4016
3.06238 0.733396 0 -17.4464
4.13722 0.661618 0 -17.0795
-3.99707 0.0118137 0 -17.2
-0.219499 0.372405 0 -17.9055
3.59071 0.708066 0 -17.2553
-0.206858 0.364727 0 -17.4961
-0.213139 0.368839 0 -17.7016
-3.4811 -0.00633477 0 -17.4016
-2.3304 0.178189 0 -17.7836
1.88721 0.557922 0 -17.8106
3.06238 0.733396 0 -17.4464
-2.93816 0.0428685 0 -17.6032
-0.231219 0.376077 0 -18.2546
2.50686 0.690035 0 -17.6387
-0.219499 0.372405 0 -17.9055
-0.225534 0.374926 0 -18.0898
-2.3304 0.178189 0 -17.7836
-1.38796 0.738047 0 -17.8025
0.934842 -0.0156159 0 -17.8251
1.88721 0.557922 0 -17.8106
-1.78179 0.38384 0 -17.8749
-0.233654 0.366654 0 -18.1636
1.33031 0.349895 0 -17.8965
-0.231219 0.376077 0 -18.2546
-0.234832 0.374165 0 -18.3224
-1.38796 0.738047 0 -17.8025
-0.51606 2.17567 0 -16.804
0.0942502 -1.51806 0 -16.8432
0.934842 -0.0156159 0 -17.8251
-0.995703 1.36577 0 -17.4826
-0.21392 0.330916 0 -16.9952
0.550962 -0.667281 0 -17.5122
-0.233654 0.366654 0 -18.1636
-0.226634 0.35224 0 -17.719
-0.51606 2.17567 0 -16.804
-0.337972 3.72175 0 -13.7125
0.0314104 -3.21882 0 -13.7861
0.0942502 -1.51806 0 -16.8432
-0.224775 2.9622 0 -15.5924
-0.155508 0.253168 0 -13.9373
-0.152829 -2.36861 0 -15.6448
-0.21392 0.330916 0 -16.9952
-0.192087 0.299654 0 -15.8291
-0.337972 3.72175 0 -13.7125
-0.599108 5.74235 0 -7.80702
0.518473 -5.49835 0 -7.91709
0.0314104 -3.21882 0 -13.7861
-0.552478 4.62871 0 -11.1347
-0.0282402 0.124064 0 -7.63511
0.344306 -4.24266 0 -11.2303
-0.155508 0.253168 0 -13.9373
-0.101771 0.191144 0 -11.2031
153.449 46.0382 0 61.5959
149.778 25.3865 0 20.3929
464.939 81.0909 0 -1.44847
428.002 128.355 0 39.2263
147.103 35.825 0 38.8458
307.243 53.1741 0 11.9641
453.081 103.06 0 14.6613
284.369 85.2969 0 56.2361
300.611 71.604 0 27.8136
149.778 25.3865 0 20.3929
157.889 15.1835 0 -4.29759
473.809 35.4125 0 -14.134
464.939 81.0909 0 -1.44847
156.042 19.7063 0 5.87566
314.585 27.5139 0 -7.82494
468.897 56.5761 0 -9.61533
307.243 53.1741 0 11.9641
310.576 38.3085 0 1.24977
157.889 15.1835 0 -4.29759
158.448 5.9654 0 -15.4934
478.362 12.3455 0 -16.6121
473.809 35.4125 0 -14.134
157.603 10.0928 0 -11.0455
318.4 10.8304 0 -16.3646
478.138 21.5542 0 -16.3683
314.585 27.5139 0 -7.82494
317.531 18.3594 0 -13.7188
158.448 5.9654 0 -15.4934
158.912 1.65385 0 -19.4926
474.761 1.64443 0 -15.4096
478.362 12.3455 0 -16.6121
159.382 3.44046 0 -18.1712
317.437 2.58004 0 -18.2696
476.396 5.7194 0 -15.9378
318.4 10.8304 0 -16.3646
318.177 5.75197 0 -17.5583
158.912 1.65385 0 -19.4926
157.216 -0.594491 0 -19.9263
470.518 -1.48375 0 -14.6004
474.761 1.64443 0 -15.4096
157.856 0.231062 0 -19.9314
314.552 -0.917396 0 -18.0037
472.997 -0.435865 0 -15.0085
317.437 2.58004 0 -18.2696
316.167 0.432007 0 -18.3591
157.216 -0.594491 0 -19.9263
155.791 -1.02389 0 -19.2296
465.608 -2.24947 0 -14.0701
470.518 -1.48375 0 -14.6004
156.661 -0.905076 0 -19.6501
311.231 -1.73513 0 -17.2782
467.827 -2.09121 0 -14.2473
314.552 -0.917396 0 -18.0037
312.84 -1.55925 0 -17.5903
155.791 -1.02389 0 -19.2296
154.112 -1.05124 0 -18.3278
461.642 -1.86759 0 -13.9322
465.608 -2.24947 0 -14.0701
154.842 -1.09196 0 -18.7597
308.229 -1.64496 0 -16.635
463.631 -2.10312 0 -13.9926
311.231 -1.73513 0 -17.2782
309.685 -1.74174 0 -16.9592
154.112 -1.05124 0 -18.3278
152.819 -0.817086 0 -17.615
458.065 -1.39847 0 -13.8943
461.642 -1.86759 0 -13.9322
153.482 -0.933657 0 -17.9443
305.649 -1.25539 0 -16.1916
459.742 -1.64126 0 -13.8932
308.229 -1.64496 0 -16.635
306.88 -1.46676 0 -16.3749
152.819 -0.817086 0 -17.615
151.626 -0.631567 0 -17.1262
455.028 -0.952711 0 -13.9353
458.065 -1.39847 0 -13.8943
152.178 -0.723827 0 -17.3411
303.435 -0.901577 0 -15.9196
456.525 -1.15664 0 -13.9154
305.649 -1.25539 0 -16.1916
304.505 -1.06566 0 -16.0431
151.626 -0.631567 0 -17.1262
150.625 -0.471797 0 -16.8311
452.226 -0.6567 0 -13.9825
455.028 -0.952711 0 -13.9353
151.122 -0.542711 0 -16.9592
301.474 -0.632866 0 -15.7725
453.588 -0.791246 0 -13.9562
303.435 -0.901577 0 -15.9196
302.429 -0.756248 0 -15.8307
150.625 -0.471797 0 -16.8311
149.693 -0.373709 0 -16.6651
449.622 -0.459631 0 -14.0357
452.226 -0.6567 0 -13.9825
150.144 -0.418239 0 -16.7348
299.672 -0.459443 0 -15.7019
450.914 -0.545097 0 -14.0104
301.474 -0.632866 0 -15.7725
300.558 -0.535268 0 -15.7313
149.693 -0.373709 0 -16.6651
148.829 -0.308124 0 -16.5812
447.103 -0.345763 0 -14.083
449.622 -0.459631 0 -14.0357
149.259 -0.336382 0 -16.6157
297.962 -0.352136 0 -15.6775
448.351 -0.395393 0 -14.0595
299.672 -0.459443 0 -15.7019
298.809 -0.3991 0 -15.6849
148.829 -0.308124 0 -16.5812
147.991 -0.270211 0 -16.5437
444.642 -0.278772 0 -14.1272
447.103 -0.345763 0 -14.083
148.406 -0.287 0 -16.5581
296.303 -0.289894 0 -15.6775
445.87 -0.307178 0 -14.1058
297.962 -0.352136 0 -15.6775
297.128 -0.316537 0 -15.6756
147.991 -0.270211 0 -16.5437
147.172 -0.246196 0 -16.5318
442.203 -0.242044 0 -14.1676
444.642 -0.278772 0 -14.1272
147.581 -0.256609 0 -16.5356
294.67 -0.253865 0 -15.6905
443.42 -0.257829 0 -14.1477
296.303 -0.289894 0 -15.6775
295.484 -0.269422 0 -15.6828
147.172 -0.246196 0 -16.5318
146.36 -0.231393 0 -16.5329
439.779 -0.220865 0 -14.2056
442.203 -0.242044 0 -14.1676
146.765 -0.238072 0 -16.5312
293.05 -0.232974 0 -15.7095
440.99 -0.229915 0 -14.1869
294.67 -0.253865 0 -15.6905
293.859 -0.242018 0 -15.6996
146.36 -0.231393 0 -16.5329
145.553 -0.22097 0 -16.5401
437.359 -0.208425 0 -14.2418
439.779 -0.220865 0 -14.2056
145.956 -0.225725 0 -16.536
291.436 -0.220019 0 -15.7311
438.568 -0.21393 0 -14.2239
293.05 -0.232974 0 -15.7095
292.242 -0.225792 0 -15.7201
145.553 -0.22097 0 -16.5401
144.747 -0.213086 0 -16.55
434.941 -0.200085 0 -14.2766
437.359 -0.208425 0 -14.2418
145.15 -0.216834 0 -16.5449
289.824 -0.21116 0 -15.7534
436.15 -0.203875 0 -14.2593
291.436 -0.220019 0 -15.7311
290.63 -0.215231 0 -15.7422
144.747 -0.213086 0 -16.55
143.942 -0.206336 0 -16.5609
432.524 -0.193794 0 -14.3104
434.941 -0.200085 0 -14.2766
144.345 -0.209599 0 -16.5554
288.213 -0.204251 0 -15.7758
433.732 -0.196782 0 -14.2936
289.824 -0.21116 0 -15.7534
289.018 -0.207542 0 -15.7646
143.942 -0.206336 0 -16.5609
143.137 -0.200186 0 -16.5719
430.107 -0.188353 0 -14.3434
432.524 -0.193794 0 -14.3104
143.54 -0.203217 0 -16.5664
286.602 -0.198243 0 -15.7978
431.315 -0.191001 0 -14.327
288.213 -0.204251 0 -15.7758
287.408 -0.201173 0 -15.7869
143.137 -0.200186 0 -16.5719
142.333 -0.194293 0 -16.5828
427.69 -0.18328 0 -14.3756
430.107 -0.188353 0 -14.3434
142.735 -0.197215 0 -16.5774
284.992 -0.192617 0 -15.8194
428.898 -0.185792 0 -14.3596
286.602 -0.198243 0 -15.7978
285.797 -0.1954 0 -15.8087
142.333 -0.194293 0 -16.5828
141.528 -0.188533 0 -16.5935
425.273 -0.178328 0 -14.4071
427.69 -0.18328 0 -14.3756
141.93 -0.191403 0 -16.5882
283.381 -0.187146 0 -15.8406
426.481 -0.180794 0 -14.3915
284.992 -0.192617 0 -15.8194
284.186 -0.18987 0 -15.83
141.528 -0.188533 0 -16.5935
140.723 -0.182836 0 -16.6039
422.855 -0.173416 0 -14.438
425.273 -0.178328 0 -14.4071
141.125 -0.185678 0 -16.5988
281.77 -0.181736 0 -15.8612
424.064 -0.17587 0 -14.4227
283.381 -0.187146 0 -15.8406
282.575 -0.184436 0 -15.8509
140.723 -0.182836 0 -16.6039
139.918 -0.177181 0 -16.6141
420.438 -0.168513 0 -14.4683
422.855 -0.173416 0 -14.438
140.321 -0.180004 0 -16.609
280.159 -0.176351 0 -15.8814
421.647 -0.170964 0 -14.4533
281.77 -0.181736 0 -15.8612
280.965 -0.179041 0 -15.8714
139.918 -0.177181 0 -16.6141
139.114 -0.171556 0 -16.624
418.021 -0.163615 0 -14.498
420.438 -0.168513 0 -14.4683
139.516 -0.174365 0 -16.6191
278.548 -0.170982 0 -15.9012
419.229 -0.166063 0 -14.4832
280.159 -0.176351 0 -15.8814
279.354 -0.173664 0 -15.8914
139.114 -0.171556 0 -16.624
138.309 -0.16596 0 -16.6337
415.603 -0.158723 0 -14.527
418.021 -0.163615 0 -14.498
138.711 -0.168755 0 -16.6289
276.937 -0.16563 0 -15.9206
416.812 -0.161168 0 -14.5126
278.548 -0.170982 0 -15.9012
277.743 -0.168304 0 -15.911
138.309 -0.16596 0 -16.6337
137.504 -0.16039 0 -16.6432
413.186 -0.153843 0 -14.5555
415.603 -0.158723 0 -14.527
137.906 -0.163171 0 -16.6385
275.326 -0.160296 0 -15.9396
414.395 -0.156282 0 -14.5413
276.937 -0.16563 0 -15.9206
276.132 -0.162961 0 -15.9302
137.504 -0.16039 0 -16.6432
136.699 -0.154846 0 -16.6525
410.768 -0.148978 0 -14.5834
413.186 -0.153843 0 -14.5555
137.101 -0.157615 0 -16.6479
273.715 -0.154982 0 -15.9582
411.977 -0.151409 0 -14.5695
275.326 -0.160296 0 -15.9396
274.521 -0.157637 0 -15.9489
136.699 -0.154846 0 -16.6525
135.894 -0.149329 0 -16.6616
408.351 -0.144129 0 -14.6106
410.768 -0.148978 0 -14.5834
136.297 -0.152084 0 -16.6571
272.104 -0.14969 0 -15.9763
409.56 -0.146551 0 -14.5971
273.715 -0.154982 0 -15.9582
272.91 -0.152333 0 -15.9673
135.894 -0.149329 0 -16.6616
135.089 -0.143839 0 -16.6705
405.934 -0.139299 0 -14.6373
408.351 -0.144129 0 -14.6106
135.492 -0.146581 0 -16.6661
270.493 -0.144421 0 -15.9941
407.142 -0.141711 0 -14.6241
272.104 -0.14969 0 -15.9763
271.299 -0.147053 0 -15.9853
135.089 -0.143839 0 -16.6705
134.285 -0.138375 0 -16.6792
403.516 -0.134487 0 -14.6634
405.934 -0.139299 0 -14.6373
134.687 -0.141104 0 -16.6748
268.882 -0.139175 0 -16.0115
404.725 -0.13689 0 -14.6505
270.493 -0.144421 0 -15.9941
269.688 -0.141795 0 -16.0029
134.285 -0.138375 0 -16.6792
133.48 -0.132938 0 -16.6877
401.099 -0.129696 0 -14.689
403.516 -0.134487 0 -14.6634
133.882 -0.135653 0 -16.6834
267.271 -0.133952 0 -16.0286
402.307 -0.132089 0 -14.6763
268.882 -0.139175 0 -16.0115
268.077 -0.136561 0 -16.0201
133.48 -0.132938 0 -16.6877
132.675 -0.127527 0 -16.696
398.681 -0.124924 0 -14.7139
401.099 -0.129696 0 -14.689
133.077 -0.130229 0 -16.6918
265.66 -0.128754 0 -16.0452
399.89 -0.127307 0 -14.7015
267.271 -0.133952 0 -16.0286
266.466 -0.13135 0 -16.0369
132.675 -0.127527 0 -16.696
131.87 -0.122144 0 -16.7041
396.264 -0.120173 0 -14.7383
398.681 -0.124924 0 -14.7139
132.272 -0.124832 0 -16.7001
264.049 -0.12358 0 -16.0614
397.473 -0.122546 0 -14.7262
265.66 -0.128754 0 -16.0452
264.855 -0.126164 0 -16.0534
131.87 -0.122144 0 -16.7041
131.065 -0.116787 0 -16.712
393.847 -0.115444 0 -14.7621
396.264 -0.120173 0 -14.7383
131.468 -0.119462 0 -16.7081
262.438 -0.118431 0 -16.0773
395.055 -0.117806 0 -14.7503
264.049 -0.12358 0 -16.0614
263.244 -0.121003 0 -16.0694
131.065 -0.116787 0 -16.712
130.26 -0.111458 0 -16.7198
391.429 -0.110735 0 -14.7854
393.847 -0.115444 0 -14.7621
130.663 -0.114119 0 -16.7159
260.827 -0.113307 0 -16.0928
392.638 -0.113086 0 -14.7738
262.438 -0.118431 0 -16.0773
261.633 -0.115866 0 -16.0851
130.26 -0.111458 0 -16.7198
129.455 -0.106156 0 -16.7273
389.012 -0.106047 0 -14.8081
391.429 -0.110735 0 -14.7854
129.858 -0.108804 0 -16.7236
259.216 -0.108207 0 -16.1079
390.22 -0.108388 0 -14.7968
260.827 -0.113307 0 -16.0928
260.022 -0.110754 0 -16.1004
129.455 -0.106156 0 -16.7273
128.651 -0.100882 0 -16.7347
386.594 -0.101381 0 -14.8302
389.012 -0.106047 0 -14.8081
129.053 -0.103516 0 -16.731
257.605 -0.103133 0 -16.1227
387.803 -0.103712 0 -14.8192
259.216 -0.108207 0 -16.1079
258.411 -0.105667 0 -16.1154
128.651 -0.100882 0 -16.7347
127.846 -0.0956358 0 -16.7419
384.177 -0.0967376 0 -14.8518
386.594 -0.101381 0 -14.8302
128.248 -0.0982556 0 -16.7383
255.994 -0.0980843 0 -16.1371
385.386 -0.0990567 0 -14.8411
257.605 -0.103133 0 -16.1227
256.8 -0.100605 0 -16.1299
127.846 -0.0956358 0 -16.7419
127.041 -0.0904173 0 -16.7489
381.76 -0.0921158 0 -14.8729
384.177 -0.0967376 0 -14.8518
127.443 -0.0930231 0 -16.7454
254.383 -0.0930612 0 -16.1511
382.968 -0.0944239 0 -14.8624
255.994 -0.0980843 0 -16.1371
255.189 -0.0955695 0 -16.1441
127.041 -0.0904173 0 -16.7489
126.236 -0.0852267 0 -16.7557
379.342 -0.0875165 0 -14.8933
381.76 -0.0921158 0 -14.8729
126.638 -0.0878185 0 -16.7523
252.772 -0.0880641 0 -16.1647
380.551 -0.0898133 0 -14.8832
254.383 -0.0930612 0 -16.1511
253.578 -0.0905594 0 -16.1579
126.236 -0.0852267 0 -16.7557
125.431 -0.0800644 0 -16.7623
376.925 -0.0829397 0 -14.9133
379.342 -0.0875165 0 -14.8933
125.834 -0.082642 0 -16.759
251.161 -0.083093 0 -16.178
378.133 -0.0852252 0 -14.9034
252.772 -0.0880641 0 -16.1647
251.967 -0.0855753 0 -16.1714
125.431 -0.0800644 0 -16.7623
124.626 -0.0749304 0 -16.7688
374.507 -0.0783858 0 -14.9327
376.925 -0.0829397 0 -14.9133
125.029 -0.0774938 0 -16.7656
249.55 -0.078148 0 -16.1909
375.716 -0.0806599 0 -14.9231
251.161 -0.083093 0 -16.178
250.356 -0.0806172 0 -16.1845
124.626 -0.0749304 0 -16.7688
123.821 -0.0698248 0 -16.775
372.09 -0.0738549 0 -14.9516
374.507 -0.0783858 0 -14.9327
124.224 -0.072374 0 -16.7719
247.939 -0.0732295 0 -16.2035
373.299 -0.0761174 0 -14.9422
249.55 -0.078148 0 -16.1909
248.745 -0.0756855 0 -16.1973
123.821 -0.0698248 0 -16.775
123.017 -0.0647477 0 -16.7811
369.673 -0.0693472 0 -14.9699
372.09 -0.0738549 0 -14.9516
123.419 -0.0672827 0 -16.7781
246.328 -0.0683375 0 -16.2157
370.881 -0.0715981 0 -14.9608
247.939 -0.0732295 0 -16.2035
247.134 -0.0707802 0 -16.2097
123.017 -0.0647477 0 -16.7811
122.212 -0.0596994 0 -16.7871
367.255 -0.064863 0 -14.9877
369.673 -0.0693472 0 -14.9699
122.614 -0.06222 0 -16.7841
244.718 -0.0634723 0 -16.2276
368.464 -0.0671021 0 -14.9789
246.328 -0.0683375 0 -16.2157
245.523 -0.0659016 0 -16.2217
122.212 -0.0596994 0 -16.7871
121.407 -0.0546798 0 -16.7928
364.838 -0.0604024 0 -15.005
367.255 -0.064863 0 -14.9877
121.809 -0.057186 0 -16.79
243.107 -0.0586339 0 -16.2391
366.047 -0.0626297 0 -14.9964
244.718 -0.0634723 0 -16.2276
243.912 -0.0610497 0 -16.2334
121.407 -0.0546798 0 -16.7928
120.602 -0.0496892 0 -16.7984
362.421 -0.0559657 0 -15.0217
364.838 -0.0604024 0 -15.005
121.004 -0.0521809 0 -16.7956
241.496 -0.0538225 0 -16.2503
363.629 -0.058181 0 -15.0134
243.107 -0.0586339 0 -16.2391
242.301 -0.0562248 0 -16.2447
120.602 -0.0496892 0 -16.7984
119.797 -0.0447275 0 -16.8038
360.003 -0.051553 0 -15.038
362.421 -0.0559657 0 -15.0217
120.2 -0.0472047 0 -16.8011
239.885 -0.0490383 0 -16.2611
361.212 -0.0537563 0 -15.0299
241.496 -0.0538225 0 -16.2503
240.69 -0.051427 0 -16.2557
119.797 -0.0447275 0 -16.8038
118.992 -0.039795 0 -16.809
357.586 -0.0471645 0 -15.0537
360.003 -0.051553 0 -15.038
119.395 -0.0422576 0 -16.8064
238.274 -0.0442815 0 -16.2715
358.795 -0.0493557 0 -15.0459
239.885 -0.0490383 0 -16.2611
239.079 -0.0466565 0 -16.2664
118.992 -0.039795 0 -16.809
118.187 -0.0348918 0 -16.8141
355.169 -0.0428004 0 -15.0689
357.586 -0.0471645 0 -15.0537
118.59 -0.0373398 0 -16.8116
236.663 -0.0395521 0 -16.2817
356.377 -0.0449794 0 -15.0614
238.274 -0.0442815 0 -16.2716
237.468 -0.0419133 0 -16.2767
118.187 -0.0348918 0 -16.8141
117.383 -0.0300179 0 -16.8189
352.751 -0.0384609 0 -15.0836
355.169 -0.0428004 0 -15.0689
117.785 -0.0324511 0 -16.8165
235.052 -0.0348503 0 -16.2915
353.96 -0.0406276 0 -15.0763
236.663 -0.0395521 0 -16.2817
235.857 -0.0371977 0 -16.2866
117.383 -0.0300179 0 -16.8189
116.578 -0.0251734 0 -16.8237
350.334 -0.0341462 0 -15.0978
352.751 -0.0384609 0 -15.0836
116.98 -0.0275919 0 -16.8213
233.441 -0.0301763 0 -16.3009
351.543 -0.0363005 0 -15.0908
235.052 -0.0348503 0 -16.2915
234.246 -0.0325098 0 -16.2962
116.578 -0.0251734 0 -16.8237
115.773 -0.0203585 0 -16.8282
347.917 -0.0298565 0 -15.1115
350.334 -0.0341462 0 -15.0978
116.175 -0.0227622 0 -16.826
231.83 -0.0255301 0 -16.31
349.125 -0.0319982 0 -15.1047
233.441 -0.0301763 0 -16.3009
232.635 -0.0278497 0 -16.3055
115.773 -0.0203585 0 -16.8282
114.968 -0.0155732 0 -16.8326
345.499 -0.0255918 0 -15.1247
347.917 -0.0298565 0 -15.1115
115.37 -0.0179621 0 -16.8304
230.219 -0.0209121 0 -16.3188
346.708 -0.027721 0 -15.1181
231.83 -0.0255301 0 -16.31
231.024 -0.0232176 0 -16.3145
114.968 -0.0155732 0 -16.8326
114.163 -0.0108177 0 -16.8368
343.082 -0.0213525 0 -15.1374
345.499 -0.0255918 0 -15.1247
114.565 -0.0131918 0 -16.8347
228.608 -0.0163222 0 -16.3273
344.291 -0.023469 0 -15.1311
230.219 -0.0209121 0 -16.3188
229.413 -0.0186136 0 -16.3231
114.163 -0.0108177 0 -16.8368
113.358 -0.00609211 0 -16.8409
340.665 -0.0171387 0 -15.1496
343.082 -0.0213525 0 -15.1374
113.761 -0.00845119 0 -16.8389
226.997 -0.0117606 0 -16.3354
341.873 -0.0192424 0 -15.1435
228.608 -0.0163222 0 -16.3273
227.802 -0.0140378 0 -16.3314
113.358 -0.00609211 0 -16.8409
112.553 -0.00139644 0 -16.8448
338.248 -0.0129504 0 -15.1613
340.665 -0.0171387 0 -15.1496
112.956 -0.00374053 0 -16.8428
225.386 -0.00722745 0 -16.3432
339.456 -0.0150413 0 -15.1555
226.997 -0.0117606 0 -16.3354
226.191 -0.00949047 0 -16.3394
112.553 -0.00139644 0 -16.8448
111.748 0.00326917 0 -16.8485
335.83 -0.00878797 0 -15.1725
338.248 -0.0129504 0 -15.1613
112.151 0.000940128 0 -16.8466
223.775 -0.0027229 0 -16.3507
337.039 -0.010866 0 -15.167
225.386 -0.00722746 0 -16.3432
224.58 -0.00497159 0 -16.347
111.748 0.00326917 0 -16.8485
110.943 0.00790462 0 -16.8521
333.413 -0.00465149 0 -15.1833
335.83 -0.00878797 0 -15.1725
111.346 0.00559067 0 -16.8503
222.164 0.00175295 0 -16.3579
334.622 -0.00671648 0 -15.178
223.775 -0.0027229 0 -16.3507
222.969 -0.000481375 0 -16.3543
110.943 0.00790462 0 -16.8521
110.139 0.0125098 0 -16.8555
330.996 -0.000541116 0 -15.1936
333.413 -0.00465149 0 -15.1833
110.541 0.010211 0 -16.8538
220.553 0.00619999 0 -16.3647
332.204 -0.00259303 0 -15.1885
222.164 0.00175295 0 -16.3579
221.358 0.00398008 0 -16.3613
110.139 0.0125098 0 -16.8555
109.334 0.0170847 0 -16.8587
328.578 0.00354299 0 -15.2034
330.996 -0.000541117 0 -15.1936
109.736 0.0148011 0 -16.8571
218.942 0.0106181 0 -16.3712
329.787 0.00150423 0 -15.1985
220.553 0.00619998 0 -16.3647
219.747 0.00841265 0 -16.368
109.334 0.0170847 0 -16.8587
108.529 0.0216291 0 -16.8618
326.161 0.00760066 0 -15.2127
328.578 0.00354298 0 -15.2034
108.931 0.0193607 0 -16.8603
217.331 0.015007 0 -16.3774
327.37 0.00557514 0 -15.2081
218.942 0.010618 0 -16.3712
218.136 0.0128162 0 -16.3744
108.529 0.0216291 0 -16.8618
107.724 0.026143 0 -16.8648
323.744 0.0116318 0 -15.2215
326.161 0.00760066 0 -15.2127
108.126 0.0238899 0 -16.8633
215.72 0.0193668 0 -16.3833
324.953 0.00961955 0 -15.2172
217.331 0.015007 0 -16.3774
216.526 0.0171906 0 -16.3804
107.724 0.026143 0 -16.8648
106.919 0.0306263 0 -16.8675
321.327 0.0156362 0 -15.2299
323.744 0.0116318 0 -15.2215
107.321 0.0283885 0 -16.8662
214.109 0.0236973 0 -16.3889
322.535 0.0136373 0 -15.2258
215.72 0.0193668 0 -16.3833
214.915 0.0215357 0 -16.3862
106.919 0.0306263 0 -16.8675
106.114 0.0350788 0 -16.8702
318.91 0.0196137 0 -15.2379
321.327 0.0156362 0 -15.2299
106.516 0.0328564 0 -16.8689
212.498 0.0279983 0 -16.3942
320.118 0.0176283 0 -15.234
214.109 0.0236973 0 -16.3889
213.304 0.0258515 0 -16.3916
106.114 0.0350788 0 -16.8702
105.309 0.0395006 0 -16.8726
316.492 0.0235642 0 -15.2454
318.91 0.0196137 0 -15.2379
105.712 0.0372935 0 -16.8714
210.887 0.0322698 0 -16.3992
317.701 0.0215923 0 -15.2417
212.498 0.0279983 0 -16.3942
211.693 0.0301378 0 -16.3967
105.309 0.0395006 0 -16.8726
104.504 0.0438914 0 -16.875
314.075 0.0274876 0 -15.2524
316.492 0.0235642 0 -15.2454
104.907 0.0416999 0 -16.8738
209.276 0.0365116 0 -16.4039
315.284 0.0255293 0 -15.2489
210.887 0.0322698 0 -16.3992
210.082 0.0343944 0 -16.4016
104.504 0.0438914 0 -16.875
103.699 0.0482513 0 -16.8772
311.658 0.0313837 0 -15.259
314.075 0.0274876 0 -15.2524
104.102 0.0460753 0 -16.8761
207.665 0.0407237 0 -16.4082
312.866 0.0294391 0 -15.2557
209.276 0.0365116 0 -16.4039
208.471 0.0386214 0 -16.4061
103.699 0.0482513 0 -16.8772
102.894 0.0525802 0 -16.8792
309.241 0.0352524 0 -15.2651
311.658 0.0313837 0 -15.259
103.297 0.0504196 0 -16.8782
206.054 0.0449058 0 -16.4123
310.449 0.0333215 0 -15.2621
207.665 0.0407237 0 -16.4082
206.86 0.0428185 0 -16.4103
102.894 0.0525802 0 -16.8792
102.089 0.0568778 0 -16.8811
306.823 0.0390935 0 -15.2708
309.241 0.0352524 0 -15.2651
102.492 0.0547329 0 -16.8801
204.443 0.049058 0 -16.4161
308.032 0.0371764 0 -15.268
206.054 0.0449058 0 -16.4123
205.249 0.0469856 0 -16.4142
102.089 0.0568778 0 -16.8811
101.285 0.0611443 0 -16.8828
304.406 0.042907 0 -15.276
306.823 0.0390935 0 -15.2708
101.687 0.059015 0 -16.8819
202.832 0.05318 0 -16.4196
305.615 0.0410037 0 -15.2735
204.443 0.049058 0 -16.4161
203.638 0.0511228 0 -16.4179
101.285 0.0611443 0 -16.8828
100.48 0.0653795 0 -16.8844
301.989 0.0466927 0 -15.2809
304.406 0.042907 0 -15.276
100.882 0.0632658 0 -16.8836
201.221 0.0572719 0 -16.4228
303.198 0.0448033 0 -15.2785
202.832 0.05318 0 -16.4196
202.027 0.0552297 0 -16.4212
100.48 0.0653795 0 -16.8844
99.6747 0.0695832 0 -16.8858
299.572 0.0504504 0 -15.2852
301.989 0.0466927 0 -15.2809
100.077 0.0674853 0 -16.8851
199.611 0.0613334 0 -16.4257
300.78 0.048575 0 -15.2831
201.221 0.0572719 0 -16.4228
200.416 0.0593065 0 -16.4243
99.6747 0.0695832 0 -16.8858
98.8697 0.0737555 0 -16.8871
297.155 0.0541801 0 -15.2892
299.572 0.0504504 0 -15.2852
99.2722 0.0716733 0 -16.8865
198 0.0653646 0 -16.4283
298.363 0.0523188 0 -15.2873
199.611 0.0613334 0 -16.4257
198.805 0.0633528 0 -16.4271
98.8697 0.0737555 0 -16.8871
98.0648 0.0778963 0 -16.8883
294.738 0.0578816 0 -15.2927
297.155 0.0541801 0 -15.2892
98.4673 0.0758299 0 -16.8877
196.389 0.0693652 0 -16.4307
295.946 0.0560344 0 -15.291
198 0.0653646 0 -16.4283
197.194 0.0673687 0 -16.4295
98.0648 0.0778963 0 -16.8883
97.2599 0.0820054 0 -16.8893
292.32 0.0615549 0 -15.2958
294.738 0.0578816 0 -15.2927
97.6623 0.0799548 0 -16.8888
194.778 0.0733353 0 -16.4327
293.529 0.0597218 0 -15.2943
196.389 0.0693652 0 -16.4307
195.583 0.0713541 0 -16.4317
97.2599 0.0820054 0 -16.8893
96.4549 0.0860829 0 -16.8902
289.903 0.0651997 0 -15.2985
292.32 0.0615549 0 -15.2958
96.8574 0.0840481 0 -16.8898
193.167 0.0772746 0 -16.4345
291.112 0.0633809 0 -15.2972
194.778 0.0733353 0 -16.4327
193.972 0.0753088 0 -16.4337
96.4549 0.0860829 0 -16.8902
95.65 0.0901286 0 -16.8909
287.486 0.0688161 0 -15.3008
289.903 0.0651997 0 -15.2985
96.0525 0.0881097 0 -16.8906
191.556 0.0811832 0 -16.436
288.695 0.0670115 0 -15.2997
193.167 0.0772746 0 -16.4345
192.361 0.0792328 0 -16.4353
95.65 0.0901286 0 -16.8909
94.845 0.0941424 0 -16.8915
285.069 0.0724038 0 -15.3026
287.486 0.0688161 0 -15.3008
95.2475 0.0921395 0 -16.8912
189.945 0.0850609 0 -16.4372
286.278 0.0706135 0 -15.3017
191.556 0.0811832 0 -16.436
190.75 0.0831259 0 -16.4367
94.845 0.0941424 0 -16.8915
94.0401 0.0981243 0 -16.892
282.652 0.0759628 0 -15.3041
285.069 0.0724038 0 -15.3026
94.4426 0.0961373 0 -16.8918
188.334 0.0889076 0 -16.4382
283.86 0.0741869 0 -15.3034
189.945 0.0850609 0 -16.4372
189.139 0.0869881 0 -16.4378
94.0401 0.0981243 0 -16.892
93.2351 0.102074 0 -16.8923
280.235 0.079493 0 -15.3051
282.652 0.0759628 0 -15.3041
93.6376 0.100103 0 -16.8922
186.723 0.0927233 0 -16.4389
281.443 0.0777315 0 -15.3046
188.334 0.0889076 0 -16.4382
187.528 0.0908193 0 -16.4386
93.2351 0.102074 0 -16.8923
92.4302 0.105992 0 -16.8925
277.818 0.0829943 0 -15.3058
280.235 0.079493 0 -15.3051
92.8327 0.104037 0 -16.8925
185.112 0.0965078 0 -16.4393
279.026 0.0812473 0 -15.3055
186.723 0.0927232 0 -16.4389
185.917 0.0946194 0 -16.4391
92.4302 0.105992 0 -16.8925
91.6252 0.109878 0 -16.8926
275.4 0.0864665 0 -15.306
277.818 0.0829943 0 -15.3058
92.0277 0.107939 0 -16.8926
183.501 0.100261 0 -16.4395
276.609 0.0847341 0 -15.3059
185.112 0.0965078 0 -16.4393
184.307 0.0983883 0 -16.4394
91.6252 0.109878 0 -16.8926
90.8203 0.113731 0 -16.8925
272.983 0.0899097 0 -15.3058
275.4 0.0864665 0 -15.306
91.2228 0.111809 0 -16.8926
181.89 0.103983 0 -16.4394
274.192 0.0881917 0 -15.306
183.501 0.100261 0 -16.4395
182.696 0.102126 0 -16.4394
90.8203 0.113731 0 -16.8925
90.0153 0.117553 0 -16.8923
270.566 0.0933236 0 -15.3053
272.983 0.0899097 0 -15.3058
90.4178 0.115646 0 -16.8925
180.279 0.107674 0 -16.439
271.775 0.0916203 0 -15.3056
181.89 0.103983 0 -16.4394
181.085 0.105832 0 -16.4392
90.0153 0.117553 0 -16.8923
89.2104 0.121342 0 -16.892
268.149 0.0967082 0 -15.3044
270.566 0.0933236 0 -15.3053
89.6128 0.119451 0 -16.8922
178.668 0.111333 0 -16.4384
269.358 0.0950195 0 -15.3049
180.279 0.107674 0 -16.439
179.474 0.109507 0 -16.4387
89.2104 0.121342 0 -16.892
88.4054 0.125098 0 -16.8916
265.732 0.100063 0 -15.3031
268.149 0.0967082 0 -15.3044
88.8079 0.123224 0 -16.8918
177.057 0.11496 0 -16.4375
266.941 0.0983894 0 -15.3038
178.668 0.111333 0 -16.4384
177.863 0.113151 0 -16.4379
88.4054 0.125098 0 -16.8916
87.6004 0.128822 0 -16.891
263.315 0.103389 0 -15.3014
265.732 0.100063 0 -15.3031
88.0029 0.126964 0 -16.8913
175.446 0.118556 0 -16.4363
264.523 0.10173 0 -15.3023
177.057 0.11496 0 -16.4375
176.252 0.116762 0 -16.4369
87.6004 0.128822 0 -16.891
86.7954 0.132514 0 -16.8903
260.898 0.106685 0 -15.2993
263.315 0.103389 0 -15.3014
87.1979 0.130672 0 -16.8906
173.835 0.122121 0 -16.4349
262.106 0.105041 0 -15.3004
175.446 0.118556 0 -16.4363
174.641 0.120342 0 -16.4357
86.7954 0.132514 0 -16.8903
85.9905 0.136173 0 -16.8894
258.481 0.109952 0 -15.2969
260.898 0.106685 0 -15.2993
86.3929 0.134347 0 -16.8899
172.224 0.125653 0 -16.4333
259.689 0.108322 0 -15.2981
173.835 0.122121 0 -16.4349
173.03 0.123891 0 -16.4342
85.9905 0.136173 0 -16.8894
85.1855 0.139799 0 -16.8885
256.064 0.113188 0 -15.294
258.481 0.109952 0 -15.2969
85.588 0.13799 0 -16.889
170.614 0.129154 0 -16.4314
257.272 0.111574 0 -15.2955
172.224 0.125653 0 -16.4333
171.419 0.127407 0 -16.4324
85.1855 0.139799 0 -16.8885
84.3805 0.143393 0 -16.8874
253.647 0.116395 0 -15.2909
256.064 0.113188 0 -15.294
84.783 0.1416 0 -16.888
169.003 0.132623 0 -16.4293
254.855 0.114796 0 -15.2925
170.614 0.129154 0 -16.4314
169.808 0.130892 0 -16.4304
84.3805 0.143393 0 -16.8874
83.5755 0.146954 0 -16.8862
251.23 0.119572 0 -15.2873
253.647 0.116395 0 -15.2909
83.978 0.145177 0 -16.8868
167.392 0.136059 0 -16.4269
252.438 0.117988 0 -15.2891
169.003 0.132623 0 -16.4293
168.197 0.134345 0 -16.4281
83.5755 0.146954 0 -16.8862
82.7705 0.150482 0 -16.8849
248.813 0.122719 0 -15.2834
251.23 0.119572 0 -15.2873
83.173 0.148722 0 -16.8856
165.781 0.139464 0 -16.4243
250.021 0.12115 0 -15.2854
167.392 0.136059 0 -16.4269
166.586 0.137766 0 -16.4256
82.7705 0.150482 0 -16.8849
81.9655 0.153977 0 -16.8835
246.396 0.125836 0 -15.2792
248.813 0.122719 0 -15.2834
82.368 0.152234 0 -16.8842
164.17 0.142837 0 -16.4215
247.604 0.124282 0 -15.2813
165.781 0.139464 0 -16.4243
164.975 0.141154 0 -16.4229
81.9655 0.153977 0 -16.8835
81.1605 0.157439 0 -16.8819
243.978 0.128923 0 -15.2745
246.396 0.125836 0 -15.2792
81.563 0.155712 0 -16.8827
162.559 0.146177 0 -16.4184
245.187 0.127384 0 -15.2769
164.17 0.142837 0 -16.4215
163.364 0.144511 0 -16.4199
81.1605 0.157439 0 -16.8819
80.3555 0.160869 0 -16.8802
241.561 0.13198 0 -15.2696
243.978 0.128923 0 -15.2745
80.758 0.159158 0 -16.8811
160.948 0.149485 0 -16.4151
242.77 0.130456 0 -15.2721
162.559 0.146177 0 -16.4184
161.753 0.147835 0 -16.4167
80.3555 0.160869 0 -16.8802
79.5505 0.164265 0 -16.8785
239.144 0.135007 0 -15.2643
241.561 0.13198 0 -15.2696
79.953 0.162571 0 -16.8794
159.337 0.152761 0 -16.4115
240.353 0.133497 0 -15.267
160.948 0.149485 0 -16.4151
160.143 0.151127 0 -16.4133
79.5505 0.164265 0 -16.8785
78.7455 0.167628 0 -16.8766
236.727 0.138003 0 -15.2586
239.144 0.135007 0 -15.2643
79.148 0.165951 0 -16.8775
157.726 0.156005 0 -16.4077
237.936 0.136509 0 -15.2615
159.337 0.152761 0 -16.4115
158.532 0.154387 0 -16.4097
78.7455 0.167628 0 -16.8766
77.9405 0.170958 0 -16.8746
234.31 0.140969 0 -15.2526
236.727 0.138003 0 -15.2586
78.343 0.169297 0 -16.8756
156.115 0.159216 0 -16.4037
235.519 0.13949 0 -15.2557
157.726 0.156005 0 -16.4077
156.921 0.157615 0 -16.4058
77.9405 0.170958 0 -16.8746
77.1355 0.174255 0 -16.8724
231.893 0.143904 0 -15.2463
234.31 0.140969 0 -15.2526
77.538 0.172611 0 -16.8735
154.504 0.162395 0 -16.3995
233.102 0.14244 0 -15.2495
156.115 0.159216 0 -16.4037
155.31 0.16081 0 -16.4016
77.1355 0.174255 0 -16.8724
76.3304 0.177519 0 -16.8702
229.476 0.146809 0 -15.2396
231.893 0.143904 0 -15.2463
76.733 0.175891 0 -16.8713
152.893 0.165541 0 -16.3951
230.685 0.14536 0 -15.243
154.504 0.162395 0 -16.3995
153.699 0.163972 0 -16.3973
76.3304 0.177519 0 -16.8702
75.5254 0.180749 0 -16.8679
227.059 0.149683 0 -15.2327
229.476 0.146809 0 -15.2396
75.9279 0.179138 0 -16.869
151.282 0.168655 0 -16.3904
228.268 0.14825 0 -15.2362
152.893 0.165541 0 -16.3951
152.088 0.167102 0 -16.3928
75.5254 0.180749 0 -16.8679
74.7204 0.183946 0 -16.8654
224.642 0.152527 0 -15.2253
227.059 0.149683 0 -15.2327
75.1229 0.182352 0 -16.8666
149.671 0.171736 0 -16.3855
225.851 0.151109 0 -15.229
151.282 0.168655 0 -16.3904
150.477 0.170199 0 -16.388
74.7204 0.183946 0 -16.8654
73.9154 0.18711 0 -16.8628
222.225 0.15534 0 -15.2177
224.642 0.152527 0 -15.2253
74.3179 0.185532 0 -16.8641
148.061 0.174784 0 -16.3804
223.434 0.153938 0 -15.2216
149.671 0.171736 0 -16.3855
148.866 0.173264 0 -16.383
73.9154 0.18711 0 -16.8628
73.1103 0.19024 0 -16.8602
219.808 0.158123 0 -15.2098
222.225 0.15534 0 -15.2177
73.5128 0.188679 0 -16.8615
146.45 0.1778 0 -16.3751
221.017 0.156735 0 -15.2138
148.061 0.174784 0 -16.3804
147.255 0.176296 0 -16.3778
73.1103 0.19024 0 -16.8602
72.3053 0.193337 0 -16.8574
217.391 0.160874 0 -15.2015
219.808 0.158123 0 -15.2098
72.7078 0.191793 0 -16.8588
144.839 0.180783 0 -16.3696
218.6 0.159502 0 -15.2057
146.45 0.1778 0 -16.3751
145.644 0.179296 0 -16.3724
72.3053 0.193337 0 -16.8574
71.5002 0.1964 0 -16.8545
214.975 0.163595 0 -15.1929
217.391 0.160874 0 -15.2015
71.9028 0.194872 0 -16.856
143.228 0.183733 0 -16.3639
216.183 0.162239 0 -15.1972
144.839 0.180783 0 -16.3696
144.033 0.182262 0 -16.3667
71.5002 0.1964 0 -16.8545
70.6952 0.19943 0 -16.8516
212.558 0.166285 0 -15.184
214.975 0.163595 0 -15.1929
71.0977 0.197919 0 -16.8531
141.617 0.18665 0 -16.3579
213.766 0.164944 0 -15.1885
143.228 0.183733 0 -16.3639
142.422 0.185196 0 -16.3609
70.6952 0.19943 0 -16.8516
69.8901 0.202426 0 -16.8485
210.141 0.168945 0 -15.1748
212.558 0.166285 0 -15.184
70.2927 0.200932 0 -16.85
140.006 0.189535 0 -16.3518
211.349 0.167619 0 -15.1795
141.617 0.18665 0 -16.3579
140.811 0.188097 0 -16.3549
69.8901 0.202426 0 -16.8485
69.0851 0.205388 0 -16.8453
207.724 0.171573 0 -15.1653
210.141 0.168945 0 -15.1748
69.4876 0.203911 0 -16.8469
138.395 0.192386 0 -16.3455
208.932 0.170263 0 -15.1701
140.006 0.189535 0 -16.3518
139.2 0.190965 0 -16.3487
69.0851 0.205388 0 -16.8453
68.28 0.208317 0 -16.842
205.307 0.17417 0 -15.1556
207.724 0.171573 0 -15.1653
68.6826 0.206857 0 -16.8437
136.784 0.195205 0 -16.3389
206.515 0.172876 0 -15.1605
138.395 0.192386 0 -16.3455
137.59 0.1938 0 -16.3422
68.28 0.208317 0 -16.842
67.475 0.211212 0 -16.8387
202.89 0.176737 0 -15.1455
205.307 0.17417 0 -15.1556
67.8775 0.209769 0 -16.8404
135.173 0.19799 0 -16.3322
204.098 0.175457 0 -15.1506
136.784 0.195205 0 -16.3389
135.979 0.196602 0 -16.3356
67.475 0.211212 0 -16.8387
66.6699 0.214073 0 -16.8352
200.473 0.179272 0 -15.1351
202.89 0.176737 0 -15.1455
67.0724 0.212647 0 -16.8369
133.562 0.200743 0 -16.3253
201.681 0.178008 0 -15.1403
135.173 0.19799 0 -16.3322
134.368 0.199371 0 -16.3288
66.6699 0.214073 0 -16.8352
65.8648 0.216901 0 -16.8316
198.056 0.181776 0 -15.1244
200.473 0.179272 0 -15.1351
66.2673 0.215491 0 -16.8334
131.951 0.203462 0 -16.3182
199.264 0.180528 0 -15.1298
133.562 0.200743 0 -16.3253
132.757 0.202107 0 -16.3217
65.8648 0.216901 0 -16.8316
65.0597 0.219694 0 -16.828
195.639 0.184249 0 -15.1135
198.056 0.181776 0 -15.1244
65.4623 0.218302 0 -16.8298
130.34 0.206149 0 -16.3109
196.847 0.183017 0 -15.119
131.951 0.203462 0 -16.3182
131.146 0.20481 0 -16.3145
65.0597 0.219694 0 -16.828
64.2546 0.222454 0 -16.8242
193.222 0.186692 0 -15.1023
195.639 0.184249 0 -15.1135
64.6572 0.221079 0 -16.8261
128.729 0.208802 0 -16.3034
194.431 0.185474 0 -15.1079
130.34 0.206149 0 -16.3109
129.535 0.207479 0 -16.3071
64.2546 0.222454 0 -16.8242
63.4496 0.22518 0 -16.8204
190.805 0.189103 0 -15.0908
193.222 0.186692 0 -15.1023
63.8521 0.223822 0 -16.8223
127.118 0.211422 0 -16.2957
192.014 0.187901 0 -15.0966
128.729 0.208802 0 -16.3034
127.924 0.210116 0 -16.2996
63.4496 0.22518 0 -16.8204
62.6445 0.227872 0 -16.8164
188.388 0.191482 0 -15.079
190.805 0.189103 0 -15.0908
63.047 0.22653 0 -16.8184
125.508 0.214009 0 -16.2878
189.597 0.190296 0 -15.0849
127.118 0.211422 0 -16.2957
126.313 0.21272 0 -16.2918
62.6445 0.227872 0 -16.8164
61.8394 0.23053 0 -16.8124
185.971 0.193831 0 -15.067
188.388 0.191482 0 -15.079
62.2419 0.229206 0 -16.8144
123.897 0.216562 0 -16.2798
187.18 0.192661 0 -15.073
125.508 0.214009 0 -16.2878
124.702 0.21529 0 -16.2838
61.8394 0.23053 0 -16.8124
61.0343 0.233154 0 -16.8083
183.555 0.196148 0 -15.0546
185.971 0.193831 0 -15.067
61.4368 0.231847 0 -16.8103
122.286 0.219083 0 -16.2716
184.763 0.194993 0 -15.0608
123.897 0.216562 0 -16.2798
123.091 0.217827 0 -16.2757
61.0343 0.233154 0 -16.8083
60.2292 0.235744 0 -16.8041
181.138 0.198434 0 -15.0421
183.555 0.196148 0 -15.0546
60.6317 0.234454 0 -16.8062
120.675 0.22157 0 -16.2632
182.346 0.197295 0 -15.0484
122.286 0.219083 0 -16.2716
121.48 0.22033 0 -16.2674
60.2292 0.235744 0 -16.8041
59.4241 0.2383 0 -16.7998
178.721 0.200689 0 -15.0292
181.138 0.198434 0 -15.0421
59.8266 0.237027 0 -16.8019
119.064 0.224024 0 -16.2546
179.929 0.199566 0 -15.0357
120.675 0.22157 0 -16.2632
119.869 0.222801 0 -16.2589
59.4241 0.2383 0 -16.7998
58.6189 0.240822 0 -16.7954
176.304 0.202913 0 -15.0162
178.721 0.200689 0 -15.0292
59.0215 0.239566 0 -16.7976
117.453 0.226444 0 -16.2459
177.512 0.201805 0 -15.0227
119.064 0.224024 0 -16.2546
118.258 0.225238 0 -16.2503
58.6189 0.240822 0 -16.7954
57.8138 0.24331 0 -16.7909
173.887 0.205105 0 -15.0028
176.304 0.202913 0 -15.0162
58.2164 0.242071 0 -16.7932
115.842 0.228831 0 -16.237
175.095 0.204013 0 -15.0095
117.453 0.226444 0 -16.2459
116.647 0.227642 0 -16.2415
57.8138 0.24331 0 -16.7909
57.0087 0.245764 0 -16.7864
171.47 0.207266 0 -14.9892
173.887 0.205105 0 -15.0028
57.4113 0.244541 0 -16.7887
114.231 0.231185 0 -16.2279
172.679 0.20619 0 -14.9961
115.842 0.228831 0 -16.237
115.036 0.230012 0 -16.2325
57.0087 0.245764 0 -16.7864
56.2036 0.248183 0 -16.7818
169.053 0.209396 0 -14.9754
171.47 0.207266 0 -14.9892
56.6061 0.246978 0 -16.7841
112.62 0.233505 0 -16.2187
170.262 0.208335 0 -14.9823
114.231 0.231185 0 -16.2279
113.426 0.232349 0 -16.2233
56.2036 0.248183 0 -16.7818
55.3984 0.250569 0 -16.7771
166.636 0.211495 0 -14.9613
169.053 0.209396 0 -14.9754
55.801 0.24938 0 -16.7794
111.009 0.235792 0 -16.2093
167.845 0.210449 0 -14.9684
112.62 0.233505 0 -16.2187
111.815 0.234653 0 -16.214
55.3984 0.250569 0 -16.7771
54.5933 0.25292 0 -16.7723
164.22 0.213562 0 -14.947
166.636 0.211495 0 -14.9613
54.9959 0.251749 0 -16.7747
109.398 0.238046 0 -16.1998
165.428 0.212532 0 -14.9542
111.009 0.235792 0 -16.2093
110.204 0.236923 0 -16.2046
54.5933 0.25292 0 -16.7723
53.7881 0.255237 0 -16.7674
161.803 0.215598 0 -14.9325
164.22 0.213562 0 -14.947
54.1907 0.254083 0 -16.7699
107.787 0.240266 0 -16.1901
163.011 0.214584 0 -14.9398
109.398 0.238046 0 -16.1998
108.593 0.23916 0 -16.1949
53.7881 0.255237 0 -16.7674
52.983 0.257519 0 -16.7625
159.386 0.217602 0 -14.9177
161.803 0.215598 0 -14.9325
53.3856 0.256382 0 -16.765
106.176 0.242453 0 -16.1802
160.594 0.216604 0 -14.9251
107.787 0.240266 0 -16.1901
106.982 0.241364 0 -16.1851
52.983 0.257519 0 -16.7625
52.1778 0.259768 0 -16.7575
156.969 0.219575 0 -14.9027
159.386 0.217602 0 -14.9177
52.5804 0.258648 0 -16.76
104.565 0.244606 0 -16.1702
158.177 0.218592 0 -14.9102
106.176 0.242453 0 -16.1802
105.371 0.243534 0 -16.1752
52.1778 0.259768 0 -16.7575
51.3727 0.261982 0 -16.7524
154.552 0.221517 0 -14.8874
156.969 0.219575 0 -14.9027
51.7753 0.260879 0 -16.7549
102.954 0.246726 0 -16.16
155.761 0.22055 0 -14.8951
104.565 0.244606 0 -16.1702
103.76 0.24567 0 -16.1651
51.3727 0.261982 0 -16.7524
50.5675 0.264162 0 -16.7472
152.135 0.223427 0 -14.872
154.552 0.221517 0 -14.8874
50.9701 0.263076 0 -16.7498
101.343 0.248812 0 -16.1497
153.344 0.222476 0 -14.8797
102.954 0.246726 0 -16.16
102.149 0.247773 0 -16.1549
50.5675 0.264162 0 -16.7472
49.7624 0.266307 0 -16.742
149.719 0.225306 0 -14.8563
152.135 0.223427 0 -14.872
50.1649 0.265239 0 -16.7446
99.7325 0.250865 0 -16.1393
150.927 0.224371 0 -14.8642
101.343 0.248812 0 -16.1497
100.538 0.249843 0 -16.1445
49.7624 0.266307 0 -16.742
48.9572 0.268418 0 -16.7367
147.302 0.227154 0 -14.8404
149.719 0.225306 0 -14.8563
49.3598 0.267367 0 -16.7393
98.1216 0.252884 0 -16.1287
148.51 0.226234 0 -14.8484
99.7325 0.250865 0 -16.1393
98.927 0.251879 0 -16.134
48.9572 0.268418 0 -16.7367
48.152 0.270495 0 -16.7313
144.885 0.22897 0 -14.8243
147.302 0.227154 0 -14.8404
48.5546 0.269461 0 -16.734
96.5106 0.25487 0 -16.1179
146.093 0.228066 0 -14.8324
98.1216 0.252884 0 -16.1287
97.3161 0.253881 0 -16.1233
48.152 0.270495 0 -16.7313
47.3468 0.272537 0 -16.7259
142.468 0.230756 0 -14.808
144.885 0.22897 0 -14.8243
47.7494 0.27152 0 -16.7286
94.8997 0.256822 0 -16.107
143.676 0.229867 0 -14.8162
96.5106 0.25487 0 -16.1179
95.7051 0.25585 0 -16.1125
47.3468 0.272537 0 -16.7259
46.5416 0.274545 0 -16.7203
140.051 0.232509 0 -14.7915
142.468 0.230756 0 -14.808
46.9442 0.273545 0 -16.7231
93.2887 0.258741 0 -16.096
141.26 0.231636 0 -14.7998
94.8997 0.256822 0 -16.107
94.0942 0.257786 0 -16.1016
46.5416 0.274545 0 -16.7203
45.7364 0.276518 0 -16.7148
137.634 0.234232 0 -14.7748
140.051 0.232509 0 -14.7915
46.139 0.275536 0 -16.7176
91.6778 0.260626 0 -16.0849
138.843 0.233374 0 -14.7832
93.2887 0.258741 0 -16.096
92.4832 0.259688 0 -16.0905
45.7364 0.276518 0 -16.7148
44.9312 0.278457 0 -16.7091
135.218 0.235923 0 -14.7579
137.634 0.234232 0 -14.7748
45.3338 0.277492 0 -16.7119
90.0668 0.262478 0 -16.0736
136.426 0.235081 0 -14.7664
91.6778 0.260626 0 -16.0849
90.8723 0.261556 0 -16.0793
44.9312 0.278457 0 -16.7091
44.126 0.280362 0 -16.7034
132.801 0.237583 0 -14.7408
135.218 0.235923 0 -14.7579
44.5286 0.279414 0 -16.7063
88.4559 0.264296 0 -16.0622
134.009 0.236757 0 -14.7494
90.0668 0.262478 0 -16.0736
89.2613 0.263391 0 -16.0679
44.126 0.280362 0 -16.7034
43.3208 0.282232 0 -16.6976
130.384 0.239211 0 -14.7235
132.801 0.237583 0 -14.7408
43.7234 0.281301 0 -16.7005
86.8449 0.266081 0 -16.0507
131.592 0.238401 0 -14.7322
88.4559 0.264296 0 -16.0622
87.6504 0.265193 0 -16.0564
43.3208 0.282232 0 -16.6976
42.5156 0.284068 0 -16.6918
127.967 0.240809 0 -14.706
130.384 0.239211 0 -14.7235
42.9182 0.283154 0 -16.6947
85.2339 0.267832 0 -16.039
129.176 0.240014 0 -14.7148
86.8449 0.266081 0 -16.0507
86.0394 0.266961 0 -16.0448
42.5156 0.284068 0 -16.6918
41.7104 0.285869 0 -16.6859
125.55 0.242375 0 -14.6883
127.967 0.240809 0 -14.706
42.113 0.284972 0 -16.6889
83.623 0.26955 0 -16.0272
126.759 0.241595 0 -14.6972
85.2339 0.267832 0 -16.039
84.4285 0.268695 0 -16.0331
41.7104 0.285869 0 -16.6859
40.9051 0.287635 0 -16.6799
123.134 0.243909 0 -14.6705
125.55 0.242375 0 -14.6883
41.3077 0.286756 0 -16.6829
82.012 0.271234 0 -16.0153
124.342 0.243146 0 -14.6794
83.623 0.26955 0 -16.0272
82.8175 0.270396 0 -16.0213
40.9051 0.287635 0 -16.6799
40.0999 0.289367 0 -16.6739
120.717 0.245413 0 -14.6525
123.134 0.243909 0 -14.6705
40.5025 0.288506 0 -16.6769
80.401 0.272884 0 -16.0033
121.925 0.244665 0 -14.6615
82.012 0.271234 0 -16.0153
81.2065 0.272063 0 -16.0093
40.0999 0.289367 0 -16.6739
39.2946 0.291065 0 -16.6679
118.3 0.246885 0 -14.6343
120.717 0.245413 0 -14.6525
39.6973 0.29022 0 -16.6709
78.7901 0.274501 0 -15.9912
119.509 0.246153 0 -14.6434
80.401 0.272884 0 -16.0033
79.5956 0.273697 0 -15.9973
39.2946 0.291065 0 -16.6679
38.4894 0.292728 0 -16.6617
115.883 0.248326 0 -14.6159
118.3 0.246885 0 -14.6343
38.892 0.291901 0 -16.6648
77.1791 0.276085 0 -15.9789
117.092 0.24761 0 -14.6251
78.7901 0.274501 0 -15.9912
77.9846 0.275297 0 -15.9851
38.4894 0.292728 0 -16.6617
37.6841 0.294357 0 -16.6555
113.467 0.249736 0 -14.5974
115.883 0.248326 0 -14.6159
38.0868 0.293547 0 -16.6586
75.5681 0.277635 0 -15.9666
114.675 0.249035 0 -14.6067
77.1791 0.276085 0 -15.9789
76.3736 0.276864 0 -15.9728
37.6841 0.294357 0 -16.6555
36.8789 0.295951 0 -16.6493
111.05 0.251115 0 -14.5787
113.467 0.249736 0 -14.5974
37.2815 0.295158 0 -16.6524
73.9572 0.279152 0 -15.9541
112.258 0.25043 0 -14.5881
75.5681 0.277635 0 -15.9666
74.7626 0.278398 0 -15.9604
36.8789 0.295951 0 -16.6493
36.0736 0.29751 0 -16.643
108.633 0.252463 0 -14.5599
111.05 0.251115 0 -14.5787
36.4763 0.296735 0 -16.6462
72.3462 0.280635 0 -15.9415
109.841 0.251793 0 -14.5693
73.9572 0.279152 0 -15.9541
73.1517 0.279897 0 -15.9478
36.0736 0.29751 0 -16.643
35.2684 0.299035 0 -16.6367
106.216 0.25378 0 -14.5409
108.633 0.252463 0 -14.5599
35.671 0.298277 0 -16.6398
70.7352 0.282084 0 -15.9289
107.425 0.253125 0 -14.5504
72.3462 0.280635 0 -15.9415
71.5407 0.281364 0 -15.9352
35.2684 0.299035 0 -16.6367
34.4631 0.300525 0 -16.6303
103.8 0.255065 0 -14.5217
106.216 0.25378 0 -14.5409
34.8657 0.299784 0 -16.6335
69.1242 0.283501 0 -15.9161
105.008 0.254426 0 -14.5313
70.7352 0.282084 0 -15.9289
69.9297 0.282797 0 -15.9225
34.4631 0.300525 0 -16.6303
33.6578 0.301981 0 -16.6238
101.383 0.25632 0 -14.5024
103.8 0.255065 0 -14.5217
34.0604 0.301257 0 -16.6271
67.5132 0.284883 0 -15.9032
102.591 0.255697 0 -14.5121
69.1242 0.283501 0 -15.9161
68.3187 0.284196 0 -15.9097
33.6578 0.301981 0 -16.6238
32.8525 0.303402 0 -16.6173
98.966 0.257543 0 -14.483
101.383 0.25632 0 -14.5024
33.2551 0.302696 0 -16.6206
65.9022 0.286233 0 -15.8903
100.174 0.256936 0 -14.4927
67.5132 0.284883 0 -15.9032
66.7077 0.285562 0 -15.8968
32.8525 0.303402 0 -16.6173
32.0472 0.304789 0 -16.6108
96.5492 0.258736 0 -14.4634
98.966 0.257543 0 -14.483
32.4499 0.3041 0 -16.6141
64.2913 0.287549 0 -15.8772
97.7576 0.258144 0 -14.4732
65.9022 0.286233 0 -15.8903
65.0967 0.286895 0 -15.8837
32.0472 0.304789 0 -16.6108
31.2419 0.306141 0 -16.6042
94.1325 0.259898 0 -14.4437
96.5492 0.258736 0 -14.4634
31.6446 0.305469 0 -16.6075
62.6803 0.288831 0 -15.864
95.3409 0.259321 0 -14.4535
64.2913 0.287549 0 -15.8772
63.4858 0.288194 0 -15.8706
31.2419 0.306141 0 -16.6042
30.4366 0.307458 0 -16.5976
91.7157 0.261028 0 -14.4238
94.1325 0.259898 0 -14.4437
30.8393 0.306804 0 -16.6009
61.0693 0.29008 0 -15.8508
92.9241 0.260467 0 -14.4338
62.6803 0.288831 0 -15.864
61.8748 0.28946 0 -15.8574
30.4366 0.307458 0 -16.5976
29.6313 0.308741 0 -16.5909
89.299 0.262128 0 -14.4038
91.7157 0.261028 0 -14.4238
30.0339 0.308104 0 -16.5943
59.4583 0.291296 0 -15.8375
90.5074 0.261582 0 -14.4138
61.0693 0.29008 0 -15.8508
60.2638 0.290692 0 -15.8441
29.6313 0.308741 0 -16.5909
28.826 0.309989 0 -16.5842
86.8822 0.263197 0 -14.3837
89.299 0.262128 0 -14.4038
29.2286 0.30937 0 -16.5876
57.8473 0.292478 0 -15.824
88.0906 0.262667 0 -14.3938
59.4583 0.291296 0 -15.8375
58.6528 0.291891 0 -15.8308
28.826 0.309989 0 -16.5842
28.0206 0.311203 0 -16.5775
84.4655 0.264235 0 -14.3634
86.8822 0.263197 0 -14.3837
28.4233 0.310601 0 -16.5808
56.2363 0.293627 0 -15.8105
85.6739 0.26372 0 -14.3736
57.8473 0.292478 0 -15.824
57.0418 0.293057 0 -15.8173
28.0206 0.311203 0 -16.5775
27.2153 0.312382 0 -16.5707
82.0488 0.265243 0 -14.3431
84.4655 0.264235 0 -14.3634
27.618 0.311797 0 -16.5741
54.6253 0.294742 0 -15.797
83.2571 0.264743 0 -14.3533
56.2363 0.293627 0 -15.8105
55.4308 0.294189 0 -15.8038
27.2153 0.312382 0 -16.5707
26.41 0.313526 0 -16.5638
79.632 0.266219 0 -14.3226
82.0488 0.265243 0 -14.3431
26.8126 0.312959 0 -16.5672
53.0142 0.295825 0 -15.7833
80.8404 0.265735 0 -14.3329
54.6253 0.294742 0 -15.797
53.8198 0.295288 0 -15.7901
26.41 0.313526 0 -16.5638
25.6046 0.314636 0 -16.5569
77.2153 0.267165 0 -14.302
79.632 0.266219 0 -14.3226
26.0073 0.314085 0 -16.5604
51.4032 0.296873 0 -15.7696
78.4237 0.266696 0 -14.3123
53.0142 0.295825 0 -15.7833
52.2087 0.296353 0 -15.7764
25.6046 0.314636 0 -16.5569
24.7993 0.31571 0 -16.55
74.7986 0.26808 0 -14.2813
77.2153 0.267165 0 -14.302
25.202 0.315178 0 -16.5535
49.7922 0.297888 0 -15.7558
76.0069 0.267626 0 -14.2917
51.4032 0.296873 0 -15.7696
50.5977 0.297385 0 -15.7627
24.7993 0.31571 0 -16.55
23.9939 0.31675 0 -16.5431
72.3818 0.268963 0 -14.2605
74.7986 0.26808 0 -14.2813
24.3966 0.316235 0 -16.5466
48.1812 0.29887 0 -15.7419
73.5902 0.268525 0 -14.2709
49.7922 0.297888 0 -15.7558
48.9867 0.298383 0 -15.7488
23.9939 0.31675 0 -16.5431
23.1886 0.317755 0 -16.5361
69.9651 0.269816 0 -14.2396
72.3818 0.268963 0 -14.2605
23.5912 0.317257 0 -16.5396
46.5702 0.299817 0 -15.7279
71.1735 0.269394 0 -14.25
48.1812 0.29887 0 -15.7419
47.3757 0.299348 0 -15.7349
23.1886 0.317755 0 -16.5361
22.3832 0.318724 0 -16.5291
67.5484 0.270638 0 -14.2186
69.9651 0.269816 0 -14.2396
22.7859 0.318244 0 -16.5326
44.9592 0.300731 0 -15.7139
68.7567 0.270231 0 -14.2291
46.5702 0.299817 0 -15.7279
45.7647 0.300279 0 -15.7209
22.3832 0.318724 0 -16.5291
21.5778 0.319657 0 -16.5221
65.1316 0.271428 0 -14.1974
67.5484 0.270638 0 -14.2186
21.9805 0.319195 0 -16.5256
43.3481 0.301611 0 -15.6998
66.34 0.271037 0 -14.208
44.9592 0.300731 0 -15.7139
44.1536 0.301175 0 -15.7069
21.5778 0.319657 0 -16.5221
20.7724 0.320555 0 -16.515
62.7149 0.272186 0 -14.1762
65.1316 0.271428 0 -14.1974
21.1751 0.320111 0 -16.5185
41.7371 0.302456 0 -15.6857
63.9233 0.271811 0 -14.1868
43.3481 0.301611 0 -15.6998
42.5426 0.302037 0 -15.6928
20.7724 0.320555 0 -16.515
19.967 0.321416 0 -16.5079
60.2982 0.272912 0 -14.1549
62.7149 0.272186 0 -14.1762
20.3697 0.32099 0 -16.5114
40.1261 0.303265 0 -15.6715
61.5066 0.272553 0 -14.1656
41.7371 0.302455 0 -15.6857
40.9316 0.302865 0 -15.6786
19.967 0.321416 0 -16.5079
19.1617 0.322241 0 -16.5007
57.8815 0.273605 0 -14.1336
60.2982 0.272912 0 -14.1549
19.5643 0.321834 0 -16.5043
38.515 0.304038 0 -15.6572
59.0898 0.273263 0 -14.1443
40.1261 0.303265 0 -15.6715
39.3206 0.303656 0 -15.6644
19.1617 0.322241 0 -16.5007
18.3563 0.323029 0 -16.4936
55.4648 0.274262 0 -14.1121
57.8815 0.273605 0 -14.1336
18.759 0.32264 0 -16.4972
36.904 0.304774 0 -15.6429
56.6731 0.273938 0 -14.1228
38.515 0.304038 0 -15.6572
37.7095 0.304411 0 -15.6501
18.3563 0.323029 0 -16.4936
17.5509 0.323781 0 -16.4864
53.0481 0.274882 0 -14.0906
55.4648 0.274262 0 -14.1121
17.9536 0.32341 0 -16.49
35.293 0.305472 0 -15.6286
54.2564 0.274577 0 -14.1014
36.904 0.304774 0 -15.6429
36.0985 0.305128 0 -15.6358
17.5509 0.323781 0 -16.4864
16.7455 0.324496 0 -16.4791
50.6314 0.275464 0 -14.069
53.0481 0.274882 0 -14.0906
17.1482 0.324143 0 -16.4828
33.682 0.306131 0 -15.6141
51.8397 0.275178 0 -14.0798
35.293 0.305472 0 -15.6286
34.4875 0.305806 0 -15.6214
16.7455 0.324496 0 -16.4791
15.9401 0.32518 0 -16.4719
48.2148 0.276009 0 -14.0473
50.6314 0.275464 0 -14.069
16.3428 0.324842 0 -16.4755
32.071 0.306754 0 -15.5996
49.4231 0.275741 0 -14.0581
33.682 0.306131 0 -15.6141
32.8765 0.306446 0 -15.6069
15.9401 0.32518 0 -16.4719
15.1348 0.325842 0 -16.4645
45.7982 0.276523 0 -14.0255
48.2148 0.276009 0 -14.0473
15.5375 0.325512 0 -16.4682
30.4601 0.307351 0 -15.5851
47.0065 0.276268 0 -14.0364
32.071 0.306754 0 -15.5996
31.2655 0.307054 0 -15.5924
15.1348 0.325842 0 -16.4645
14.3294 0.326505 0 -16.4572
43.3816 0.277038 0 -14.0037
45.7982 0.276523 0 -14.0255
14.7321 0.326171 0 -16.4609
28.8492 0.307957 0 -15.5705
44.5899 0.276776 0 -14.0146
30.4601 0.307352 0 -15.5851
29.6546 0.307649 0 -15.5778
14.3294 0.326505 0 -16.4572
13.5241 0.327229 0 -16.4498
40.9651 0.277624 0 -13.9817
43.3816 0.277038 0 -14.0037
13.9268 0.326853 0 -16.4535
27.2383 0.30865 0 -15.5558
42.1734 0.277314 0 -13.9927
28.8492 0.307957 0 -15.5705
28.0437 0.308284 0 -15.5631
13.5241 0.327229 0 -16.4498
12.7187 0.32812 0 -16.4424
38.5487 0.278471 0 -13.9596
40.9651 0.277624 0 -13.9817
13.1214 0.327643 0 -16.4461
25.6274 0.309611 0 -15.541
39.7569 0.277994 0 -13.9707
27.2383 0.30865 0 -15.5558
26.4328 0.309077 0 -15.5484
12.7187 0.32812 0 -16.4424
11.9131 0.329444 0 -16.4354
36.1321 0.279941 0 -13.9373
38.5487 0.278471 0 -13.9596
12.3159 0.328701 0 -16.4389
24.0162 0.311229 0 -15.5263
37.3405 0.279091 0 -13.9485
25.6274 0.309611 0 -15.541
24.8219 0.310301 0 -15.5337
11.9131 0.329444 0 -16.4354
11.1068 0.331612 0 -16.4293
33.715 0.282884 0 -13.9146
36.1321 0.279941 0 -13.9373
11.5101 0.330382 0 -16.4322
22.4043 0.314257 0 -15.5119
34.9236 0.281144 0 -13.926
24.0162 0.311229 0 -15.5263
23.2104 0.312486 0 -15.5191
11.1068 0.331612 0 -16.4293
10.2993 0.335636 0 -16.4251
31.2961 0.288717 0 -13.8913
33.715 0.282884 0 -13.9146
10.7032 0.333298 0 -16.4268
20.7905 0.320196 0 -15.4983
32.5059 0.285299 0 -13.903
22.4043 0.314257 0 -15.5119
21.5978 0.316735 0 -15.5049
10.2993 0.335636 0 -16.4251
9.48839 0.342807 0 -16.4254
28.8735 0.30053 0 -13.8669
31.2961 0.288717 0 -13.8913
9.89457 0.338699 0 -16.4245
19.1723 0.331604 0 -15.4867
30.0853 0.293591 0 -13.8793
20.7905 0.320196 0 -15.4983
19.9821 0.324939 0 -15.4922
9.48839 0.342807 0 -16.4254
8.67228 0.356388 0 -16.4345
26.4413 0.3227 0 -13.8412
28.8735 0.30053 0 -13.8669
9.08092 0.348532 0 -16.4285
17.545 0.353207 0 -15.4792
27.6593 0.309899 0 -13.8542
19.1723 0.331604 0 -15.4867
18.3602 0.340795 0 -15.4821
8.67228 0.356388 0 -16.4345
7.8426 0.379295 0 -16.4603
23.993 0.364453 0 -13.813
26.4413 0.3227 0 -13.8412
8.26018 0.366364 0 -16.4446
15.8994 0.391702 0 -15.4802
25.2193 0.340391 0 -13.8276
17.545 0.353207 0 -15.4792
16.7251 0.369577 0 -15.4785
7.8426 0.379295 0 -16.4603
6.99526 0.419981 0 -16.5156
21.5061 0.435204 0 -13.7832
23.993 0.364453 0 -13.813
7.42069 0.396928 0 -16.4833
14.22 0.458272 0 -15.4971
22.7569 0.395277 0 -13.7981
15.8994 0.391702 0 -15.4802
15.0653 0.421042 0 -15.4855
6.99526 0.419981 0 -16.5156
6.10501 0.479578 0 -16.6208
18.9629 0.555477 0 -13.7503
21.5061 0.435204 0 -13.7832
6.55891 0.447091 0 -16.5602
12.4811 0.562341 0 -15.5426
20.2415 0.488116 0 -13.7675
14.22 0.458272 0 -15.4971
13.3595 0.504196 0 -15.5163
6.10501 0.479578 0 -16.6208
5.17117 0.571603 0 -16.7999
16.2969 0.727323 0 -13.7256
18.9629 0.555477 0 -13.7503
5.64074 0.521897 0 -16.6996
10.644 0.714725 0 -15.6357
17.6532 0.634379 0 -13.7354
12.4811 0.562341 0 -15.5426
11.5787 0.63437 0 -15.5795
5.17117 0.571603 0 -16.7999
4.13722 0.661618 0 -17.0795
13.4837 0.966978 0 -13.716
16.2969 0.727323 0 -13.7256
4.67599 0.618847 0 -16.9253
8.66589 0.886619 0 -15.802
14.9051 0.841795 0 -13.7189
10.644 0.714725 0 -15.6357
9.67363 0.798671 0 -15.7118
4.13722 0.661618 0 -17.0795
3.06238 0.733396 0 -17.4464
10.3815 1.15763 0 -13.7856
13.4837 0.966978 0 -13.716
3.59071 0.708066 0 -17.2553
6.50664 1.0062 0 -16.0666
11.989 1.07652 0 -13.7333
8.66589 0.886619 0 -15.802
7.61578 0.970874 0 -15.9128
3.06238 0.733396 0 -17.4464
1.88721 0.557922 0 -17.8106
7.09932 1.14877 0 -13.9816
10.3815 1.15763 0 -13.7856
2.50686 0.690035 0 -17.6387
4.23262 0.786403 0 -16.4171
8.73618 1.21269 0 -13.8653
6.50664 1.0062 0 -16.0666
5.36787 0.954104 0 -16.2485
1.88721 0.557922 0 -17.8106
0.934842 -0.0156159 0 -17.8251
3.60339 0.133396 0 -14.4626
7.09932 1.14877 0 -13.9816
1.33031 0.349895 0 -17.8965
2.05489 -0.211648 0 -16.6828
5.40666 0.825681 0 -14.1726
4.23262 0.786403 0 -16.4171
3.12989 0.451569 0 -16.5549
0.934842 -0.0156159 0 -17.8251
0.0942502 -1.51806 0 -16.8432
0.96973 -2.99824 0 -14.8546
3.60339 0.133396 0 -14.4626
0.550962 -0.667281 0 -17.5122
0.634154 -2.7643 0 -16.1732
2.04342 -0.996063 0 -14.723
2.05489 -0.211648 0 -16.6828
1.15525 -1.30759 0 -16.6446
0.0942502 -1.51806 0 -16.8432
0.0314104 -3.21882 0 -13.7861
-0.52101 -10.8532 0 -13.714
0.96973 -2.99824 0 -14.8546
-0.152829 -2.36861 0 -15.6448
-0.0589802 -6.88077 0 -13.4973
0.123244 -6.37122 0 -14.6676
0.634154 -2.7643 0 -16.1732
0.299945 -4.59792 0 -15.128
0.0314104 -3.21882 0 -13.7861
0.518473 -5.49835 0 -7.91709
-0.606549 -19.9967 0 -7.38519
-0.52101 -10.8532 0 -13.714
0.344306 -4.24266 0 -11.2303
-0.395443 -12.2044 0 -8.06612
-0.862332 -15.824 0 -11.3964
-0.0589802 -6.88077 0 -13.4973
-0.35188 -9.54059 0 -11.2025
428.002 128.355 0 39.2263
464.939 81.0909 0 -1.44847
787.049 84.9804 0 -43.8124
743.308 222.844 0 -30.0062
453.081 103.06 0 14.6613
615.998 93.5427 0 -18.2101
772.248 160.247 0 -50.7663
608.206 182.361 0 5.97458
601.884 129.916 0 -5.91385
464.939 81.0909 0 -1.44847
473.809 35.4125 0 -14.134
798.918 25.2274 0 -21.0356
787.049 84.9804 0 -43.8124
468.897 56.5761 0 -9.61533
638.076 36.5309 0 -21.2987
798.21 43.6741 0 -31.696
615.998 93.5427 0 -18.2101
633.021 62.9061 0 -23.8723
473.809 35.4125 0 -14.134
478.362 12.3455 0 -16.6121
788.898 4.42984 0 -8.03425
798.918 25.2274 0 -21.0356
478.138 21.5542 0 -16.3683
636.624 10.4795 0 -14.4183
792.905 12.3583 0 -12.4955
638.076 36.5309 0 -21.2987
637.8 19.7339 0 -16.909
478.362 12.3455 0 -16.6121
474.761 1.64443 0 -15.4096
781.996 -0.104882 0 -5.17009
788.898 4.42984 0 -8.03425
476.396 5.7194 0 -15.9378
630.586 0.469881 0 -11.0569
785.842 1.13893 0 -6.10077
636.624 10.4795 0 -14.4183
634.041 4.36721 0 -12.6096
474.761 1.64443 0 -15.4096
470.518 -1.48375 0 -14.6004
775.081 -1.79475 0 -5.09261
781.996 -0.104882 0 -5.17009
472.997 -0.435865 0 -15.0085
624.077 -1.97212 0 -10.0328
777.979 -1.19624 0 -4.84169
630.586 0.469881 0 -11.0569
627.055 -1.39683 0 -10.1893
470.518 -1.48375 0 -14.6004
465.608 -2.24947 0 -14.0701
770.297 -1.51564 0 -6.13888
775.081 -1.79475 0 -5.09261
467.827 -2.09121 0 -14.2473
618.653 -2.28893 0 -10.1576
772.763 -1.74311 0 -5.64052
624.077 -1.97212 0 -10.0328
621.308 -2.22443 0 -10.0913
465.608 -2.24947 0 -14.0701
461.642 -1.86759 0 -13.9322
765.679 -1.22273 0 -7.03196
770.297 -1.51564 0 -6.13888
463.631 -2.10312 0 -13.9926
614.008 -1.77734 0 -10.5768
767.845 -1.37848 0 -6.58602
618.653 -2.28893 0 -10.1576
616.207 -2.09796 0 -10.3246
461.642 -1.86759 0 -13.9322
458.065 -1.39847 0 -13.8943
761.574 -0.819545 0 -7.77364
765.679 -1.22273 0 -7.03196
459.742 -1.64126 0 -13.8932
609.982 -1.27119 0 -10.9977
763.651 -1.00867 0 -7.44725
614.008 -1.77734 0 -10.5768
611.95 -1.50058 0 -10.8121
458.065 -1.39847 0 -13.8943
455.028 -0.952711 0 -13.9353
757.474 -0.570397 0 -8.2505
761.574 -0.819545 0 -7.77364
456.525 -1.15664 0 -13.9154
606.313 -0.848546 0 -11.3246
759.495 -0.683852 0 -8.03228
609.982 -1.27119 0 -10.9977
608.107 -1.04917 0 -11.1677
455.028 -0.952711 0 -13.9353
452.226 -0.6567 0 -13.9825
753.467 -0.3897 0 -8.57523
757.474 -0.570397 0 -8.2505
453.588 -0.791246 0 -13.9562
602.861 -0.575501 0 -11.5546
755.479 -0.468536 0 -8.43334
606.313 -0.848546 0 -11.3246
604.571 -0.693246 0 -11.4537
452.226 -0.6567 0 -13.9825
449.622 -0.459631 0 -14.0357
749.443 -0.288068 0 -8.77881
753.467 -0.3897 0 -8.57523
450.914 -0.545097 0 -14.0104
599.525 -0.401675 0 -11.713
751.45 -0.332606 0 -8.68678
602.861 -0.575501 0 -11.5546
601.182 -0.47889 0 -11.6399
449.622 -0.459631 0 -14.0357
447.103 -0.345763 0 -14.083
745.43 -0.226269 0 -8.91878
749.443 -0.288068 0 -8.77881
448.351 -0.395393 0 -14.0595
596.25 -0.302396 0 -11.8229
747.439 -0.252452 0 -8.85579
599.525 -0.401675 0 -11.713
597.883 -0.344295 0 -11.7733
447.103 -0.345763 0 -14.083
444.642 -0.278772 0 -14.1272
741.408 -0.193125 0 -9.01775
745.43 -0.226269 0 -8.91878
445.87 -0.307178 0 -14.1058
593.004 -0.24564 0 -11.9041
743.418 -0.207399 0 -8.97157
596.25 -0.302396 0 -11.8229
594.624 -0.270109 0 -11.866
444.642 -0.278772 0 -14.1272
442.203 -0.242044 0 -14.1676
737.384 -0.174146 0 -9.09641
741.408 -0.193125 0 -9.01775
443.42 -0.257829 0 -14.1477
589.772 -0.21478 0 -11.9683
739.396 -0.182167 0 -9.05911
593.004 -0.24564 0 -11.9041
591.387 -0.227746 0 -11.9379
442.203 -0.242044 0 -14.1676
439.779 -0.220865 0 -14.2056
733.356 -0.163583 0 -9.16326
737.384 -0.174146 0 -9.09641
440.99 -0.229915 0 -14.1869
586.546 -0.197363 0 -12.0232
735.37 -0.168206 0 -9.13078
589.772 -0.21478 0 -11.9683
588.159 -0.204895 0 -11.9965
439.779 -0.220865 0 -14.2056
437.359 -0.208425 0 -14.2418
729.327 -0.15692 0 -9.22435
733.356 -0.163583 0 -9.16326
438.568 -0.21393 0 -14.2239
583.322 -0.187153 0 -12.0728
731.342 -0.159881 0 -9.19436
586.546 -0.197363 0 -12.0232
584.934 -0.191617 0 -12.0485
437.359 -0.208425 0 -14.2418
434.941 -0.200085 0 -14.2766
725.297 -0.152277 0 -9.28209
729.327 -0.15692 0 -9.22435
436.15 -0.203875 0 -14.2593
580.099 -0.180339 0 -12.1196
727.312 -0.15445 0 -9.25351
583.322 -0.187153 0 -12.0728
581.71 -0.183466 0 -12.0965
434.941 -0.200085 0 -14.2766
432.524 -0.193794 0 -14.3104
721.266 -0.148469 0 -9.33794
725.297 -0.152277 0 -9.28209
433.732 -0.196782 0 -14.2936
576.875 -0.175132 0 -12.1646
723.282 -0.1503 0 -9.31021
580.099 -0.180339 0 -12.1196
578.487 -0.177603 0 -12.1423
432.524 -0.193794 0 -14.3104
430.107 -0.188353 0 -14.3434
717.235 -0.145025 0 -9.39242
721.266 -0.148469 0 -9.33794
431.315 -0.191001 0 -14.327
573.651 -0.170584 0 -12.2083
719.251 -0.146724 0 -9.36532
576.875 -0.175132 0 -12.1646
575.263 -0.172809 0 -12.1866
430.107 -0.188353 0 -14.3434
427.69 -0.18328 0 -14.3756
713.204 -0.141698 0 -9.44581
717.235 -0.145025 0 -9.39242
428.898 -0.185792 0 -14.3596
570.427 -0.166292 0 -12.2511
715.22 -0.143353 0 -9.41924
573.651 -0.170584 0 -12.2083
572.039 -0.16842 0 -12.2299
427.69 -0.18328 0 -14.3756
425.273 -0.178328 0 -14.4071
709.173 -0.138401 0 -9.49818
713.204 -0.141698 0 -9.44581
426.481 -0.180794 0 -14.3915
567.203 -0.162074 0 -12.2931
711.189 -0.140049 0 -9.47212
570.427 -0.166292 0 -12.2511
568.816 -0.164179 0 -12.2722
425.273 -0.178328 0 -14.4071
422.855 -0.173416 0 -14.438
705.142 -0.135102 0 -9.54957
709.173 -0.138401 0 -9.49818
424.064 -0.17587 0 -14.4227
563.979 -0.15787 0 -12.3342
707.158 -0.136753 0 -9.524
567.203 -0.162074 0 -12.2931
565.591 -0.159972 0 -12.3138
422.855 -0.173416 0 -14.438
420.438 -0.168513 0 -14.4683
701.111 -0.131795 0 -9.59998
705.142 -0.135102 0 -9.54957
421.647 -0.170964 0 -14.4533
560.755 -0.153661 0 -12.3745
703.126 -0.133449 0 -9.57489
563.979 -0.15787 0 -12.3342
562.367 -0.155766 0 -12.3545
420.438 -0.168513 0 -14.4683
418.021 -0.163615 0 -14.498
697.079 -0.128481 0 -9.6494
701.111 -0.131795 0 -9.59998
419.229 -0.166063 0 -14.4832
557.531 -0.149449 0 -12.4141
699.095 -0.130138 0 -9.62481
560.755 -0.153661 0 -12.3745
559.143 -0.151555 0 -12.3944
418.021 -0.163615 0 -14.498
415.603 -0.158723 0 -14.527
693.048 -0.125165 0 -9.69784
697.079 -0.128481 0 -9.6494
416.812 -0.161168 0 -14.5126
554.307 -0.145236 0 -12.4528
695.064 -0.126823 0 -9.67374
557.531 -0.149449 0 -12.4141
555.919 -0.147342 0 -12.4335
415.603 -0.158723 0 -14.527
413.186 -0.153843 0 -14.5555
689.017 -0.12185 0 -9.74529
693.048 -0.125165 0 -9.69784
414.395 -0.156282 0 -14.5413
551.083 -0.14103 0 -12.4908
691.033 -0.123507 0 -9.72169
554.307 -0.145236 0 -12.4528
552.695 -0.143132 0 -12.4719
413.186 -0.153843 0 -14.5555
410.768 -0.148978 0 -14.5834
684.986 -0.11854 0 -9.79176
689.017 -0.12185 0 -9.74529
411.977 -0.151409 0 -14.5695
547.859 -0.136832 0 -12.5279
687.001 -0.120194 0 -9.76865
551.083 -0.14103 0 -12.4908
549.471 -0.13893 0 -12.5095
410.768 -0.148978 0 -14.5834
408.351 -0.144129 0 -14.6106
680.955 -0.115235 0 -9.83725
684.986 -0.11854 0 -9.79176
409.56 -0.146551 0 -14.5971
544.634 -0.132646 0 -12.5643
682.97 -0.116887 0 -9.81463
547.859 -0.136832 0 -12.5279
546.247 -0.134737 0 -12.5462
408.351 -0.144129 0 -14.6106
405.934 -0.139299 0 -14.6373
676.923 -0.111937 0 -9.88177
680.955 -0.115235 0 -9.83725
407.142 -0.141711 0 -14.6241
541.41 -0.128472 0 -12.5999
678.939 -0.113585 0 -9.85964
544.634 -0.132646 0 -12.5643
543.022 -0.130557 0 -12.5822
405.934 -0.139299 0 -14.6373
403.516 -0.134487 0 -14.6634
672.892 -0.108647 0 -9.92532
676.923 -0.111937 0 -9.88177
404.725 -0.13689 0 -14.6505
538.186 -0.124313 0 -12.6347
674.908 -0.110291 0 -9.90367
541.41 -0.128472 0 -12.5999
539.798 -0.126391 0 -12.6174
403.516 -0.134487 0 -14.6634
401.099 -0.129696 0 -14.689
668.861 -0.105365 0 -9.96791
672.892 -0.108647 0 -9.92532
402.307 -0.132089 0 -14.6763
534.962 -0.120168 0 -12.6688
670.877 -0.107005 0 -9.94674
538.186 -0.124313 0 -12.6347
536.574 -0.122238 0 -12.6519
401.099 -0.129696 0 -14.689
398.681 -0.124924 0 -14.7139
664.83 -0.102091 0 -10.0095
668.861 -0.105365 0 -9.96791
399.89 -0.127307 0 -14.7015
531.738 -0.116038 0 -12.7021
666.846 -0.103727 0 -9.98884
534.962 -0.120168 0 -12.6688
533.35 -0.118101 0 -12.6855
398.681 -0.124924 0 -14.7139
396.264 -0.120173 0 -14.7383
660.799 -0.0988274 0 -10.0502
664.83 -0.102092 0 -10.0095
397.473 -0.122546 0 -14.7262
528.514 -0.111924 0 -12.7346
662.815 -0.100458 0 -10.03
531.738 -0.116038 0 -12.7021
530.126 -0.113979 0 -12.7185
396.264 -0.120173 0 -14.7383
393.847 -0.115444 0 -14.7621
656.768 -0.0955728 0 -10.0899
660.799 -0.0988274 0 -10.0502
395.055 -0.117806 0 -14.7503
525.29 -0.107826 0 -12.7664
658.783 -0.0971989 0 -10.0702
528.514 -0.111924 0 -12.7346
526.902 -0.109873 0 -12.7506
393.847 -0.115444 0 -14.7621
391.429 -0.110735 0 -14.7854
652.737 -0.092328 0 -10.1287
656.768 -0.0955728 0 -10.0899
392.638 -0.113086 0 -14.7738
522.066 -0.103743 0 -12.7974
654.752 -0.0939491 0 -10.1095
525.29 -0.107826 0 -12.7664
523.678 -0.105782 0 -12.782
391.429 -0.110735 0 -14.7854
389.012 -0.106047 0 -14.8081
648.706 -0.0890935 0 -10.1666
652.737 -0.092328 0 -10.1287
390.22 -0.108388 0 -14.7968
518.842 -0.0996774 0 -12.8277
650.721 -0.0907095 0 -10.1478
522.066 -0.103743 0 -12.7974
520.454 -0.101708 0 -12.8127
389.012 -0.106047 0 -14.8081
386.594 -0.101381 0 -14.8302
644.675 -0.0858695 0 -10.2035
648.706 -0.0890935 0 -10.1666
387.803 -0.103712 0 -14.8192
515.617 -0.0956283 0 -12.8572
646.69 -0.0874802 0 -10.1852
518.842 -0.0996774 0 -12.8277
517.229 -0.0976508 0 -12.8426
386.594 -0.101381 0 -14.8302
384.177 -0.0967376 0 -14.8518
640.644 -0.0826564 0 -10.2395
644.675 -0.0858695 0 -10.2035
385.386 -0.0990567 0 -14.8411
512.393 -0.0915963 0 -12.886
642.659 -0.0842616 0 -10.2216
515.617 -0.0956283 0 -12.8572
514.005 -0.0936102 0 -12.8717
384.177 -0.0967376 0 -14.8518
381.76 -0.0921158 0 -14.8729
636.613 -0.0794545 0 -10.2746
640.644 -0.0826564 0 -10.2395
382.968 -0.0944239 0 -14.8624
509.169 -0.0875816 0 -12.9141
638.628 -0.0810541 0 -10.2572
512.393 -0.0915963 0 -12.886
510.781 -0.0895868 0 -12.9001
381.76 -0.0921158 0 -14.8729
379.342 -0.0875165 0 -14.8933
632.582 -0.0762642 0 -10.3088
636.613 -0.0794545 0 -10.2746
380.551 -0.0898133 0 -14.8832
505.945 -0.0835845 0 -12.9414
634.597 -0.0778579 0 -10.2918
509.169 -0.0875816 0 -12.9141
507.557 -0.0855808 0 -12.9278
379.342 -0.0875165 0 -14.8933
376.925 -0.0829397 0 -14.9133
628.551 -0.0730856 0 -10.3421
632.582 -0.0762642 0 -10.3088
378.133 -0.0852252 0 -14.9034
502.721 -0.0796053 0 -12.968
630.566 -0.0746734 0 -10.3255
505.945 -0.0835845 0 -12.9414
504.333 -0.0815926 0 -12.9548
376.925 -0.0829397 0 -14.9133
374.507 -0.0783858 0 -14.9327
624.52 -0.0699192 0 -10.3744
628.551 -0.0730856 0 -10.3421
375.716 -0.0806599 0 -14.9231
499.497 -0.0756442 0 -12.9939
626.535 -0.0715009 0 -10.3584
502.721 -0.0796053 0 -12.968
501.109 -0.0776224 0 -12.981
374.507 -0.0783858 0 -14.9327
372.09 -0.0738549 0 -14.9516
620.489 -0.0667652 0 -10.4059
624.52 -0.0699192 0 -10.3744
373.299 -0.0761174 0 -14.9422
496.273 -0.0717014 0 -13.0191
622.505 -0.0683407 0 -10.3903
499.497 -0.0756442 0 -12.9939
497.885 -0.0736705 0 -13.0066
372.09 -0.0738549 0 -14.9516
369.673 -0.0693472 0 -14.9699
616.458 -0.063624 0 -10.4365
620.489 -0.0667652 0 -10.4059
370.881 -0.0715981 0 -14.9608
493.049 -0.0677774 0 -13.0435
618.474 -0.065193 0 -10.4213
496.273 -0.0717014 0 -13.0191
494.661 -0.0697371 0 -13.0314
369.673 -0.0693472 0 -14.9699
367.255 -0.064863 0 -14.9877
612.427 -0.0604958 0 -10.4662
616.458 -0.063624 0 -10.4365
368.464 -0.0671021 0 -14.9789
489.825 -0.0638721 0 -13.0673
614.443 -0.0620582 0 -10.4514
493.049 -0.0677774 0 -13.0435
491.437 -0.0658224 0 -13.0555
367.255 -0.064863 0 -14.9877
364.838 -0.0604024 0 -15.005
608.397 -0.0573808 0 -10.495
612.427 -0.0604958 0 -10.4662
366.047 -0.0626297 0 -14.9964
486.601 -0.059986 0 -13.0903
610.412 -0.0589366 0 -10.4807
489.825 -0.0638721 0 -13.0673
488.213 -0.0619267 0 -13.0789
364.838 -0.0604024 0 -15.005
362.421 -0.0559657 0 -15.0217
604.366 -0.0542795 0 -10.523
608.397 -0.0573808 0 -10.495
363.629 -0.058181 0 -15.0134
483.377 -0.0561193 0 -13.1127
606.381 -0.0558284 0 -10.5091
486.601 -0.059986 0 -13.0903
484.989 -0.0580502 0 -13.1016
362.421 -0.0559657 0 -15.0217
360.003 -0.051553 0 -15.038
600.335 -0.051192 0 -10.5501
604.366 -0.0542795 0 -10.523
361.212 -0.0537563 0 -15.0299
480.153 -0.0522722 0 -13.1343
602.35 -0.052734 0 -10.5366
483.377 -0.0561193 0 -13.1127
481.765 -0.0541933 0 -13.1236
360.003 -0.051553 0 -15.038
357.586 -0.0471645 0 -15.0537
596.304 -0.0481186 0 -10.5763
600.335 -0.051192 0 -10.5501
358.795 -0.0493557 0 -15.0459
476.929 -0.0484449 0 -13.1553
598.319 -0.0496535 0 -10.5633
480.153 -0.0522722 0 -13.1343
478.541 -0.050356 0 -13.1449
357.586 -0.0471645 0 -15.0537
355.169 -0.0428004 0 -15.0689
592.273 -0.0450596 0 -10.6017
596.304 -0.0481186 0 -10.5763
356.377 -0.0449794 0 -15.0614
473.706 -0.0446376 0 -13.1756
594.289 -0.0465873 0 -10.5891
476.929 -0.0484449 0 -13.1553
475.318 -0.0465387 0 -13.1655
355.169 -0.0428004 0 -15.0689
352.751 -0.0384609 0 -15.0836
588.243 -0.0420152 0 -10.6262
592.273 -0.0450596 0 -10.6017
353.96 -0.0406276 0 -15.0763
470.482 -0.0408506 0 -13.1952
590.258 -0.0435355 0 -10.614
473.706 -0.0446376 0 -13.1756
472.094 -0.0427415 0 -13.1855
352.751 -0.0384609 0 -15.0836
350.334 -0.0341462 0 -15.0978
584.212 -0.0389858 0 -10.6499
588.243 -0.0420152 0 -10.6262
351.543 -0.0363005 0 -15.0908
467.258 -0.0370841 0 -13.2141
586.227 -0.0404986 0 -10.6381
470.482 -0.0408506 0 -13.1952
468.87 -0.0389647 0 -13.2048
350.334 -0.0341462 0 -15.0978
347.917 -0.0298565 0 -15.1115
580.181 -0.0359715 0 -10.6727
584.212 -0.0389858 0 -10.6499
349.125 -0.0319982 0 -15.1047
464.034 -0.0333382 0 -13.2324
582.196 -0.0374767 0 -10.6614
467.258 -0.0370841 0 -13.2141
465.646 -0.0352085 0 -13.2234
347.917 -0.0298565 0 -15.1115
345.499 -0.0255918 0 -15.1247
576.15 -0.0329725 0 -10.6947
580.181 -0.0359715 0 -10.6727
346.708 -0.027721 0 -15.1181
460.81 -0.0296133 0 -13.25
578.166 -0.0344701 0 -10.6838
464.034 -0.0333382 0 -13.2324
462.422 -0.0314731 0 -13.2413
345.499 -0.0255918 0 -15.1247
343.082 -0.0213525 0 -15.1374
572.12 -0.0299893 0 -10.7159
576.15 -0.0329725 0 -10.6947
344.291 -0.023469 0 -15.1311
457.586 -0.0259095 0 -13.267
574.135 -0.0314789 0 -10.7054
460.81 -0.0296133 0 -13.25
459.198 -0.0277588 0 -13.2586
343.082 -0.0213525 0 -15.1374
340.665 -0.0171387 0 -15.1496
568.089 -0.0270219 0 -10.7363
572.12 -0.0299893 0 -10.7159
341.873 -0.0192424 0 -15.1435
454.362 -0.022227 0 -13.2832
570.104 -0.0285036 0 -10.7262
457.586 -0.0259095 0 -13.267
455.974 -0.0240656 0 -13.2752
340.665 -0.0171387 0 -15.1496
338.248 -0.0129504 0 -15.1613
564.059 -0.0240706 0 -10.7559
568.089 -0.0270219 0 -10.7363
339.456 -0.0150413 0 -15.1555
451.138 -0.0185661 0 -13.2989
566.074 -0.0255442 0 -10.7462
454.362 -0.022227 0 -13.2832
452.75 -0.0203939 0 -13.2911
338.248 -0.0129504 0 -15.1613
335.83 -0.00878797 0 -15.1725
560.028 -0.0211356 0 -10.7746
564.059 -0.0240706 0 -10.7559
337.039 -0.010866 0 -15.167
447.915 -0.0149268 0 -13.3139
562.043 -0.022601 0 -10.7653
451.138 -0.0185661 0 -13.2989
449.527 -0.0167437 0 -13.3065
335.83 -0.00878797 0 -15.1725
333.413 -0.00465149 0 -15.1833
555.997 -0.0182172 0 -10.7926
560.028 -0.0211356 0 -10.7746
334.622 -0.00671648 0 -15.178
444.691 -0.0113095 0 -13.3282
558.013 -0.0196743 0 -10.7837
447.915 -0.0149268 0 -13.3139
446.303 -0.0131154 0 -13.3211
333.413 -0.00465149 0 -15.1833
330.996 -0.000541116 0 -15.1936
551.967 -0.0153156 0 -10.8097
555.997 -0.0182172 0 -10.7926
332.204 -0.00259303 0 -15.1885
441.467 -0.00771426 0 -13.3419
553.982 -0.0167643 0 -10.8012
444.691 -0.0113095 0 -13.3282
443.079 -0.00950911 0 -13.3352
330.996 -0.000541117 0 -15.1936
328.578 0.00354299 0 -15.2034
547.936 -0.012431 0 -10.8261
551.967 -0.0153156 0 -10.8097
329.787 0.00150423 0 -15.1985
438.243 -0.00414131 0 -13.355
549.951 -0.0138711 0 -10.818
441.467 -0.00771426 0 -13.3419
439.855 -0.00592499 0 -13.3485
328.578 0.00354298 0 -15.2034
326.161 0.00760066 0 -15.2127
543.906 -0.00956353 0 -10.8416
547.936 -0.012431 0 -10.8261
327.37 0.00557514 0 -15.2081
435.019 -0.00059082 0 -13.3675
545.921 -0.0109951 0 -10.834
438.243 -0.00414131 0 -13.355
436.631 -0.00236325 0 -13.3613
326.161 0.00760066 0 -15.2127
323.744 0.0116318 0 -15.2215
539.875 -0.00671354 0 -10.8564
543.906 -0.00956353 0 -10.8416
324.953 0.00961955 0 -15.2172
431.796 0.00293703 0 -13.3793
541.89 -0.00813634 0 -10.8491
435.019 -0.00059082 0 -13.3675
433.408 0.00117595 0 -13.3735
323.744 0.0116318 0 -15.2215
321.327 0.0156362 0 -15.2299
535.845 -0.00388116 0 -10.8705
539.875 -0.00671354 0 -10.8564
322.535 0.0136373 0 -15.2258
428.572 0.00644206 0 -13.3905
537.86 -0.00529514 0 -10.8636
431.796 0.00293703 0 -13.3793
430.184 0.00469241 0 -13.385
321.327 0.0156362 0 -15.2299
318.91 0.0196137 0 -15.2379
531.814 -0.0010666 0 -10.8837
535.845 -0.00388116 0 -10.8705
320.118 0.0176283 0 -15.234
425.348 0.00992411 0 -13.4011
533.83 -0.00247164 0 -10.8772
428.572 0.00644206 0 -13.3905
426.96 0.00818597 0 -13.3959
318.91 0.0196137 0 -15.2379
316.492 0.0235642 0 -15.2454
527.784 0.00172995 0 -10.8962
531.814 -0.0010666 0 -10.8837
317.701 0.0215923 0 -15.2417
422.125 0.013383 0 -13.4111
529.799 0.000333939 0 -10.8901
425.348 0.00992411 0 -13.4011
423.736 0.0116564 0 -13.4062
316.492 0.0235642 0 -15.2454
314.075 0.0274876 0 -15.2524
523.753 0.00450829 0 -10.908
527.784 0.00172995 0 -10.8962
315.284 0.0255293 0 -15.2489
418.901 0.0168185 0 -13.4205
525.769 0.0031214 0 -10.9022
422.125 0.013383 0 -13.4111
420.513 0.0151037 0 -13.4158
314.075 0.0274876 0 -15.2524
311.658 0.0313837 0 -15.259
519.723 0.00726824 0 -10.919
523.753 0.00450829 0 -10.908
312.866 0.0294391 0 -15.2557
415.677 0.0202306 0 -13.4292
521.738 0.00589057 0 -10.9136
418.901 0.0168185 0 -13.4205
417.289 0.0185275 0 -13.4249
311.658 0.0313837 0 -15.259
309.241 0.0352524 0 -15.2651
515.693 0.0100096 0 -10.9292
519.723 0.00726824 0 -10.919
310.449 0.0333215 0 -15.2621
412.453 0.023619 0 -13.4374
517.708 0.00864125 0 -10.9242
415.677 0.0202306 0 -13.4292
414.065 0.0219278 0 -13.4334
309.241 0.0352524 0 -15.2651
306.823 0.0390935 0 -15.2708
511.662 0.0127322 0 -10.9387
515.693 0.0100096 0 -10.9292
308.032 0.0371764 0 -15.268
409.23 0.0269837 0 -13.445
513.678 0.0113733 0 -10.9341
412.453 0.023619 0 -13.4374
410.842 0.0253043 0 -13.4413
306.823 0.0390935 0 -15.2708
304.406 0.042907 0 -15.276
507.632 0.0154359 0 -10.9475
511.662 0.0127322 0 -10.9387
305.615 0.0410037 0 -15.2735
406.006 0.0303243 0 -13.452
509.647 0.0140865 0 -10.9432
409.23 0.0269837 0 -13.445
407.618 0.028657 0 -13.4486
304.406 0.042907 0 -15.276
301.989 0.0466927 0 -15.2809
503.602 0.0181205 0 -10.9555
507.632 0.0154359 0 -10.9475
303.198 0.0448033 0 -15.2785
402.782 0.0336409 0 -13.4585
505.617 0.0167806 0 -10.9516
406.006 0.0303243 0 -13.452
404.394 0.0319857 0 -13.4553
301.989 0.0466927 0 -15.2809
299.572 0.0504504 0 -15.2852
499.571 0.0207858 0 -10.9629
503.602 0.0181205 0 -10.9555
300.78 0.048575 0 -15.2831
399.559 0.0369333 0 -13.4643
501.587 0.0194556 0 -10.9593
402.782 0.0336409 0 -13.4585
401.171 0.0352901 0 -13.4615
299.572 0.0504504 0 -15.2852
297.155 0.0541801 0 -15.2892
495.541 0.0234317 0 -10.9695
499.571 0.0207858 0 -10.9629
298.363 0.0523188 0 -15.2873
396.335 0.0402012 0 -13.4696
497.556 0.0221112 0 -10.9663
399.559 0.0369333 0 -13.4643
397.947 0.0385703 0 -13.467
297.155 0.0541801 0 -15.2892
294.738 0.0578816 0 -15.2927
491.511 0.026058 0 -10.9754
495.541 0.0234317 0 -10.9695
295.946 0.0560344 0 -15.291
393.112 0.0434446 0 -13.4743
493.526 0.0247474 0 -10.9725
396.335 0.0402012 0 -13.4696
394.723 0.041826 0 -13.472
294.738 0.0578816 0 -15.2927
292.32 0.0615549 0 -15.2958
487.481 0.0286646 0 -10.9806
491.511 0.026058 0 -10.9754
293.529 0.0597218 0 -15.2943
389.888 0.0466634 0 -13.4785
489.496 0.0273638 0 -10.9781
393.112 0.0434446 0 -13.4743
391.5 0.0450571 0 -13.4765
292.32 0.0615549 0 -15.2958
289.903 0.0651997 0 -15.2985
483.451 0.0312513 0 -10.9851
487.481 0.0286646 0 -10.9806
291.112 0.0633809 0 -15.2972
386.665 0.0498573 0 -13.482
485.466 0.0299604 0 -10.9829
389.888 0.0466634 0 -13.4785
388.276 0.0482635 0 -13.4803
289.903 0.0651997 0 -15.2985
287.486 0.0688161 0 -15.3008
479.42 0.0338179 0 -10.9889
483.451 0.0312513 0 -10.9851
288.695 0.0670115 0 -15.2997
383.441 0.0530264 0 -13.4851
481.435 0.0325371 0 -10.9871
386.665 0.0498573 0 -13.482
385.053 0.051445 0 -13.4836
287.486 0.0688161 0 -15.3008
285.069 0.0724038 0 -15.3026
475.39 0.0363643 0 -10.992
479.42 0.0338179 0 -10.9889
286.278 0.0706135 0 -15.3017
380.217 0.0561704 0 -13.4876
477.405 0.0350936 0 -10.9905
383.441 0.0530264 0 -13.4851
381.829 0.0546015 0 -13.4864
285.069 0.0724038 0 -15.3026
282.652 0.0759628 0 -15.3041
471.36 0.0388904 0 -10.9945
475.39 0.0363643 0 -10.992
283.86 0.0741869 0 -15.3034
376.994 0.0592892 0 -13.4895
473.375 0.0376299 0 -10.9933
380.217 0.0561704 0 -13.4876
378.606 0.0577329 0 -13.4886
282.652 0.0759628 0 -15.3041
280.235 0.079493 0 -15.3051
467.33 0.0413961 0 -10.9962
471.36 0.0388904 0 -10.9945
281.443 0.0777315 0 -15.3046
373.77 0.0623827 0 -13.4909
469.345 0.0401458 0 -10.9954
376.994 0.0592892 0 -13.4895
375.382 0.0608391 0 -13.4903
280.235 0.079493 0 -15.3051
277.818 0.0829943 0 -15.3058
463.3 0.0438811 0 -10.9973
467.33 0.0413961 0 -10.9962
279.026 0.0812473 0 -15.3055
370.547 0.0654508 0 -13.4918
465.315 0.0426412 0 -10.9969
373.77 0.0623827 0 -13.4909
372.159 0.0639199 0 -13.4914
277.818 0.0829943 0 -15.3058
275.4 0.0864665 0 -15.306
459.27 0.0463454 0 -10.9978
463.3 0.0438811 0 -10.9973
276.609 0.0847341 0 -15.3059
367.323 0.0684934 0 -13.4921
461.285 0.0451158 0 -10.9976
370.547 0.0654508 0 -13.4918
368.935 0.0669753 0 -13.492
275.4 0.0864665 0 -15.306
272.983 0.0899097 0 -15.3058
455.24 0.0487888 0 -10.9975
459.27 0.0463454 0 -10.9978
274.192 0.0881917 0 -15.306
364.1 0.0715103 0 -13.4919
457.255 0.0475697 0 -10.9977
367.323 0.0684934 0 -13.4921
365.712 0.0700051 0 -13.4921
272.983 0.0899097 0 -15.3058
270.566 0.0933236 0 -15.3053
451.21 0.0512113 0 -10.9967
455.24 0.0487888 0 -10.9975
271.775 0.0916203 0 -15.3056
360.876 0.0745015 0 -13.4912
453.225 0.0500027 0 -10.9972
364.1 0.0715103 0 -13.4919
362.488 0.0730091 0 -13.4916
270.566 0.0933236 0 -15.3053
268.149 0.0967082 0 -15.3044
447.18 0.0536127 0 -10.9951
451.21 0.0512113 0 -10.9967
269.358 0.0950195 0 -15.3049
357.653 0.0774669 0 -13.49
449.195 0.0524146 0 -10.996
360.876 0.0745015 0 -13.4912
359.265 0.0759874 0 -13.4907
268.149 0.0967082 0 -15.3044
265.732 0.100063 0 -15.3031
443.15 0.0559929 0 -10.993
447.18 0.0536127 0 -10.9951
266.941 0.0983894 0 -15.3038
354.43 0.0804062 0 -13.4883
445.165 0.0548054 0 -10.9941
357.653 0.0774669 0 -13.49
356.041 0.0789398 0 -13.4892
265.732 0.100063 0 -15.3031
263.315 0.103389 0 -15.3014
439.12 0.0583517 0 -10.9902
443.15 0.0559929 0 -10.993
264.523 0.10173 0 -15.3023
351.206 0.0833196 0 -13.486
441.135 0.0571749 0 -10.9917
354.43 0.0804062 0 -13.4883
352.818 0.0818662 0 -13.4872
263.315 0.103389 0 -15.3014
260.898 0.106685 0 -15.2993
435.09 0.0606891 0 -10.9868
439.12 0.0583517 0 -10.9902
262.106 0.105041 0 -15.3004
347.983 0.0862068 0 -13.4833
437.105 0.0595231 0 -10.9885
351.206 0.0833196 0 -13.486
349.594 0.0847664 0 -13.4847
260.898 0.106685 0 -15.2993
258.481 0.109952 0 -15.2969
431.06 0.063005 0 -10.9827
435.09 0.0606891 0 -10.9868
259.689 0.108322 0 -15.2981
344.759 0.0890677 0 -13.48
433.075 0.0618497 0 -10.9848
347.983 0.0862068 0 -13.4833
346.371 0.0876405 0 -13.4817
258.481 0.109952 0 -15.2969
256.064 0.113188 0 -15.294
427.03 0.0652992 0 -10.978
431.06 0.063005 0 -10.9827
257.272 0.111574 0 -15.2955
341.536 0.0919023 0 -13.4763
429.045 0.0641548 0 -10.9804
344.759 0.0890677 0 -13.48
343.148 0.0904883 0 -13.4782
256.064 0.113188 0 -15.294
253.647 0.116395 0 -15.2909
423 0.0675717 0 -10.9728
427.03 0.0652992 0 -10.978
254.855 0.114796 0 -15.2925
338.313 0.0947105 0 -13.472
425.015 0.0664382 0 -10.9755
341.536 0.0919023 0 -13.4763
339.924 0.0933097 0 -13.4742
253.647 0.116395 0 -15.2909
251.23 0.119572 0 -15.2873
418.971 0.0698224 0 -10.9669
423 0.0675717 0 -10.9728
252.438 0.117988 0 -15.2891
335.089 0.0974921 0 -13.4673
420.986 0.0686998 0 -10.9699
338.313 0.0947105 0 -13.472
336.701 0.0961046 0 -13.4698
251.23 0.119572 0 -15.2873
248.813 0.122719 0 -15.2834
414.941 0.0720511 0 -10.9604
418.971 0.0698224 0 -10.9669
250.021 0.12115 0 -15.2854
331.866 0.100247 0 -13.4621
416.956 0.0709395 0 -10.9637
335.089 0.0974921 0 -13.4673
333.478 0.098873 0 -13.4648
248.813 0.122719 0 -15.2834
246.396 0.125836 0 -15.2792
410.911 0.0742578 0 -10.9533
414.941 0.0720511 0 -10.9604
247.604 0.124282 0 -15.2813
328.643 0.102976 0 -13.4565
412.926 0.0731572 0 -10.9569
331.866 0.100247 0 -13.4621
330.254 0.101615 0 -13.4594
246.396 0.125836 0 -15.2792
243.978 0.128923 0 -15.2745
406.881 0.0764425 0 -10.9457
410.911 0.0742578 0 -10.9533
245.187 0.127384 0 -15.2769
325.419 0.105677 0 -13.4503
408.896 0.0753529 0 -10.9496
328.643 0.102976 0 -13.4565
327.031 0.10433 0 -13.4535
243.978 0.128923 0 -15.2745
241.561 0.13198 0 -15.2696
402.852 0.0786049 0 -10.9374
406.881 0.0764425 0 -10.9457
242.77 0.130456 0 -15.2721
322.196 0.108352 0 -13.4437
404.866 0.0775265 0 -10.9416
325.419 0.105677 0 -13.4503
323.808 0.107018 0 -13.4471
241.561 0.13198 0 -15.2696
239.144 0.135007 0 -15.2643
398.822 0.0807451 0 -10.9286
402.852 0.0786049 0 -10.9374
240.353 0.133497 0 -15.267
318.973 0.111 0 -13.4367
400.837 0.0796778 0 -10.9331
322.196 0.108352 0 -13.4437
320.584 0.109679 0 -13.4402
239.144 0.135007 0 -15.2643
236.727 0.138003 0 -15.2586
394.792 0.082863 0 -10.9192
398.822 0.0807451 0 -10.9286
237.936 0.136509 0 -15.2615
315.749 0.113621 0 -13.4291
396.807 0.0818069 0 -10.924
318.973 0.111 0 -13.4367
317.361 0.112314 0 -13.433
236.727 0.138003 0 -15.2586
234.31 0.140969 0 -15.2526
390.762 0.0849585 0 -10.9092
394.792 0.082863 0 -10.9192
235.519 0.13949 0 -15.2557
312.526 0.116215 0 -13.4212
392.777 0.0839135 0 -10.9143
315.749 0.113621 0 -13.4291
314.138 0.114921 0 -13.4252
234.31 0.140969 0 -15.2526
231.893 0.143904 0 -15.2463
386.733 0.0870315 0 -10.8987
390.762 0.0849585 0 -10.9092
233.102 0.14244 0 -15.2495
309.303 0.118782 0 -13.4127
388.748 0.0859978 0 -10.9041
312.526 0.116215 0 -13.4212
310.915 0.117502 0 -13.417
231.893 0.143904 0 -15.2463
229.476 0.146809 0 -15.2396
382.703 0.0890819 0 -10.8877
386.733 0.0870315 0 -10.8987
230.685 0.14536 0 -15.243
306.08 0.121321 0 -13.4039
384.718 0.0880595 0 -10.8933
309.303 0.118782 0 -13.4127
307.691 0.120055 0 -13.4084
229.476 0.146809 0 -15.2396
227.059 0.149683 0 -15.2327
378.674 0.0911098 0 -10.876
382.703 0.0890819 0 -10.8877
228.268 0.14825 0 -15.2362
302.856 0.123834 0 -13.3946
380.688 0.0900987 0 -10.8819
306.08 0.121321 0 -13.4039
304.468 0.122581 0 -13.3993
227.059 0.149683 0 -15.2327
224.642 0.152527 0 -15.2253
374.644 0.093115 0 -10.8639
378.674 0.0911098 0 -10.876
225.851 0.151109 0 -15.229
299.633 0.126319 0 -13.3848
376.659 0.0921152 0 -10.87
302.856 0.123834 0 -13.3946
301.245 0.12508 0 -13.3897
224.642 0.152527 0 -15.2253
222.225 0.15534 0 -15.2177
370.615 0.0950974 0 -10.8512
374.644 0.093115 0 -10.8639
223.434 0.153938 0 -15.2216
296.41 0.128777 0 -13.3747
372.629 0.094109 0 -10.8576
299.633 0.126319 0 -13.3848
298.022 0.127551 0 -13.3798
222.225 0.15534 0 -15.2177
219.808 0.158123 0 -15.2098
366.585 0.0970571 0 -10.8379
370.615 0.0950974 0 -10.8512
221.017 0.156735 0 -15.2138
293.187 0.131207 0 -13.3641
368.6 0.0960801 0 -10.8446
296.41 0.128777 0 -13.3747
294.798 0.129995 0 -13.3694
219.808 0.158123 0 -15.2098
217.391 0.160874 0 -15.2015
362.555 0.098994 0 -10.8242
366.585 0.0970571 0 -10.8379
218.6 0.159502 0 -15.2057
289.964 0.13361 0 -13.3531
364.57 0.0980284 0 -10.8311
293.187 0.131207 0 -13.3641
291.575 0.132412 0 -13.3586
217.391 0.160874 0 -15.2015
214.975 0.163595 0 -15.1929
358.526 0.100908 0 -10.8099
362.555 0.098994 0 -10.8242
216.183 0.162239 0 -15.1972
286.741 0.135986 0 -13.3416
360.541 0.0999539 0 -10.8171
289.964 0.13361 0 -13.3531
288.352 0.134801 0 -13.3474
214.975 0.163595 0 -15.1929
212.558 0.166285 0 -15.184
354.497 0.102799 0 -10.7951
358.526 0.100908 0 -10.8099
213.766 0.164944 0 -15.1885
283.517 0.138334 0 -13.3298
356.511 0.101856 0 -10.8026
286.741 0.135986 0 -13.3416
285.129 0.137163 0 -13.3358
212.558 0.166285 0 -15.184
210.141 0.168945 0 -15.1748
350.467 0.104667 0 -10.7798
354.497 0.102799 0 -10.7951
211.349 0.167619 0 -15.1795
280.294 0.140654 0 -13.3175
352.482 0.103736 0 -10.7876
283.517 0.138334 0 -13.3298
281.906 0.139497 0 -13.3237
210.141 0.168945 0 -15.1748
207.724 0.171573 0 -15.1653
346.438 0.106512 0 -10.7641
350.467 0.104667 0 -10.7798
208.932 0.170263 0 -15.1701
277.071 0.142947 0 -13.3049
348.452 0.105593 0 -10.772
280.294 0.140654 0 -13.3175
278.683 0.141804 0 -13.3113
207.724 0.171573 0 -15.1653
205.307 0.17417 0 -15.1556
342.408 0.108335 0 -10.7478
346.438 0.106512 0 -10.7641
206.515 0.172876 0 -15.1605
273.848 0.145212 0 -13.2919
344.423 0.107426 0 -10.756
277.071 0.142947 0 -13.3049
275.46 0.144083 0 -13.2984
205.307 0.17417 0 -15.1556
202.89 0.176737 0 -15.1455
338.379 0.110134 0 -10.731
342.408 0.108335 0 -10.7478
204.098 0.175457 0 -15.1506
270.625 0.14745 0 -13.2784
340.394 0.109237 0 -10.7394
273.848 0.145212 0 -13.2919
272.237 0.146334 0 -13.2852
202.89 0.176737 0 -15.1455
200.473 0.179272 0 -15.1351
334.35 0.111909 0 -10.7137
338.379 0.110134 0 -10.731
201.681 0.178008 0 -15.1403
267.402 0.14966 0 -13.2646
336.364 0.111024 0 -10.7224
270.625 0.14745 0 -13.2784
269.014 0.148558 0 -13.2716
200.473 0.179272 0 -15.1351
198.056 0.181776 0 -15.1244
330.32 0.113662 0 -10.696
334.35 0.111909 0 -10.7137
199.264 0.180528 0 -15.1298
264.179 0.151842 0 -13.2504
332.335 0.112789 0 -10.7049
267.402 0.14966 0 -13.2646
265.79 0.150754 0 -13.2576
198.056 0.181776 0 -15.1244
195.639 0.184249 0 -15.1135
326.291 0.115392 0 -10.6778
330.32 0.113662 0 -10.696
196.847 0.183017 0 -15.119
260.956 0.153996 0 -13.2358
328.306 0.11453 0 -10.6869
264.179 0.151842 0 -13.2504
262.567 0.152922 0 -13.2432
195.639 0.184249 0 -15.1135
193.222 0.186692 0 -15.1023
322.262 0.117098 0 -10.6591
326.291 0.115392 0 -10.6778
194.431 0.185474 0 -15.1079
257.733 0.156122 0 -13.2209
324.276 0.116248 0 -10.6685
260.956 0.153996 0 -13.2358
259.344 0.155063 0 -13.2284
193.222 0.186692 0 -15.1023
190.805 0.189103 0 -15.0908
318.232 0.118782 0 -10.6399
322.262 0.117098 0 -10.6591
192.014 0.187901 0 -15.0966
254.51 0.158221 0 -13.2055
320.247 0.117943 0 -10.6496
257.733 0.156122 0 -13.2209
256.121 0.157175 0 -13.2133
190.805 0.189103 0 -15.0908
188.388 0.191482 0 -15.079
314.203 0.120442 0 -10.6203
318.232 0.118782 0 -10.6399
189.597 0.190296 0 -15.0849
251.287 0.160292 0 -13.1899
316.218 0.119615 0 -10.6302
254.51 0.158221 0 -13.2055
252.898 0.15926 0 -13.1977
188.388 0.191482 0 -15.079
185.971 0.193831 0 -15.067
310.174 0.122079 0 -10.6003
314.203 0.120442 0 -10.6203
187.18 0.192661 0 -15.073
248.064 0.162335 0 -13.1738
312.188 0.121263 0 -10.6104
251.287 0.160292 0 -13.1899
249.675 0.161317 0 -13.1819
185.971 0.193831 0 -15.067
183.555 0.196148 0 -15.0546
306.145 0.123692 0 -10.5798
310.174 0.122079 0 -10.6003
184.763 0.194993 0 -15.0608
244.841 0.16435 0 -13.1574
308.159 0.122888 0 -10.5901
248.064 0.162335 0 -13.1738
246.452 0.163346 0 -13.1657
183.555 0.196148 0 -15.0546
181.138 0.198434 0 -15.0421
302.115 0.125283 0 -10.5589
306.145 0.123692 0 -10.5798
182.346 0.197295 0 -15.0484
241.618 0.166337 0 -13.1407
304.13 0.12449 0 -10.5694
244.841 0.16435 0 -13.1574
243.229 0.165347 0 -13.1491
181.138 0.198434 0 -15.0421
178.721 0.200689 0 -15.0292
298.086 0.12685 0 -10.5375
302.115 0.125283 0 -10.5589
179.929 0.199566 0 -15.0357
238.395 0.168297 0 -13.1236
300.101 0.126069 0 -10.5482
241.618 0.166337 0 -13.1407
240.006 0.167321 0 -13.1321
178.721 0.200689 0 -15.0292
176.304 0.202913 0 -15.0162
294.057 0.128394 0 -10.5157
298.086 0.12685 0 -10.5375
177.512 0.201805 0 -15.0227
235.172 0.170228 0 -13.1061
296.072 0.127625 0 -10.5267
238.395 0.168297 0 -13.1236
236.783 0.169266 0 -13.1149
176.304 0.202913 0 -15.0162
173.887 0.205105 0 -15.0028
290.028 0.129914 0 -10.4935
294.057 0.128394 0 -10.5157
175.095 0.204013 0 -15.0095
231.949 0.172132 0 -13.0883
292.043 0.129157 0 -10.5047
235.172 0.170228 0 -13.1061
233.561 0.171183 0 -13.0973
173.887 0.205105 0 -15.0028
171.47 0.207266 0 -14.9892
285.999 0.131412 0 -10.4709
290.028 0.129914 0 -10.4935
172.679 0.20619 0 -14.9961
228.726 0.174007 0 -13.0702
288.014 0.130666 0 -10.4822
231.949 0.172132 0 -13.0883
230.338 0.173073 0 -13.0793
171.47 0.207266 0 -14.9892
169.053 0.209396 0 -14.9754
281.97 0.132886 0 -10.4478
285.999 0.131412 0 -10.4709
170.262 0.208335 0 -14.9823
225.503 0.175855 0 -13.0518
283.984 0.132152 0 -10.4594
228.726 0.174007 0 -13.0702
227.115 0.174935 0 -13.061
169.053 0.209396 0 -14.9754
166.636 0.211495 0 -14.9613
277.941 0.134337 0 -10.4244
281.97 0.132886 0 -10.4478
167.845 0.210449 0 -14.9684
222.28 0.177675 0 -13.033
279.955 0.133614 0 -10.4362
225.503 0.175855 0 -13.0518
223.892 0.176768 0 -13.0424
166.636 0.211495 0 -14.9613
164.22 0.213562 0 -14.947
273.912 0.135764 0 -10.4006
277.941 0.134337 0 -10.4244
165.428 0.212532 0 -14.9542
219.057 0.179466 0 -13.014
275.926 0.135053 0 -10.4125
222.28 0.177675 0 -13.033
220.669 0.178574 0 -13.0235
164.22 0.213562 0 -14.947
161.803 0.215598 0 -14.9325
269.883 0.137168 0 -10.3763
273.912 0.135764 0 -10.4006
163.011 0.214584 0 -14.9398
215.835 0.18123 0 -12.9946
271.897 0.136469 0 -10.3885
219.057 0.179466 0 -13.014
217.446 0.180352 0 -13.0043
161.803 0.215598 0 -14.9325
159.386 0.217602 0 -14.9177
265.854 0.13855 0 -10.3517
269.883 0.137168 0 -10.3763
160.594 0.216604 0 -14.9251
212.612 0.182966 0 -12.9749
267.868 0.137862 0 -10.3641
215.835 0.18123 0 -12.9946
214.223 0.182102 0 -12.9848
159.386 0.217602 0 -14.9177
156.969 0.219575 0 -14.9027
261.825 0.139908 0 -10.3267
265.854 0.13855 0 -10.3517
158.177 0.218592 0 -14.9102
209.389 0.184674 0 -12.9549
263.839 0.139231 0 -10.3393
212.612 0.182966 0 -12.9749
211 0.183824 0 -12.9649
156.969 0.219575 0 -14.9027
154.552 0.221517 0 -14.8874
257.796 0.141242 0 -10.3014
261.825 0.139908 0 -10.3267
155.761 0.22055 0 -14.8951
206.166 0.186354 0 -12.9346
259.81 0.140578 0 -10.3141
209.389 0.184674 0 -12.9549
207.777 0.185518 0 -12.9447
154.552 0.221517 0 -14.8874
152.135 0.223427 0 -14.872
253.767 0.142554 0 -10.2756
257.796 0.141242 0 -10.3014
153.344 0.222476 0 -14.8797
202.943 0.188007 0 -12.914
255.781 0.141901 0 -10.2885
206.166 0.186354 0 -12.9346
204.555 0.187184 0 -12.9243
152.135 0.223427 0 -14.872
149.719 0.225306 0 -14.8563
249.738 0.143842 0 -10.2495
253.767 0.142554 0 -10.2756
150.927 0.224371 0 -14.8642
199.72 0.189631 0 -12.8931
251.753 0.143201 0 -10.2626
202.943 0.188007 0 -12.914
201.332 0.188822 0 -12.9035
149.719 0.225306 0 -14.8563
147.302 0.227154 0 -14.8404
245.709 0.145107 0 -10.2231
249.738 0.143842 0 -10.2495
148.51 0.226234 0 -14.8484
196.498 0.191227 0 -12.8719
247.724 0.144478 0 -10.2363
199.72 0.189631 0 -12.8931
198.109 0.190432 0 -12.8825
147.302 0.227154 0 -14.8404
144.885 0.22897 0 -14.8243
241.68 0.14635 0 -10.1962
245.709 0.145107 0 -10.2231
146.093 0.228066 0 -14.8324
193.275 0.192796 0 -12.8504
243.695 0.145731 0 -10.2097
196.498 0.191227 0 -12.8719
194.886 0.192015 0 -12.8612
144.885 0.22897 0 -14.8243
142.468 0.230756 0 -14.808
237.651 0.147569 0 -10.1691
241.68 0.14635 0 -10.1962
143.676 0.229867 0 -14.8162
190.052 0.194336 0 -12.8287
239.666 0.146962 0 -10.1827
193.275 0.192796 0 -12.8504
191.663 0.19357 0 -12.8396
142.468 0.230756 0 -14.808
140.051 0.232509 0 -14.7915
233.623 0.148765 0 -10.1416
237.651 0.147569 0 -10.1691
141.26 0.231636 0 -14.7998
186.829 0.195849 0 -12.8067
235.637 0.14817 0 -10.1554
190.052 0.194336 0 -12.8287
188.441 0.195096 0 -12.8177
140.051 0.232509 0 -14.7915
137.634 0.234232 0 -14.7748
229.594 0.149938 0 -10.1138
233.623 0.148765 0 -10.1416
138.843 0.233374 0 -14.7832
183.606 0.197334 0 -12.7844
231.608 0.149354 0 -10.1277
186.829 0.195849 0 -12.8067
185.218 0.196595 0 -12.7956
137.634 0.234232 0 -14.7748
135.218 0.235923 0 -14.7579
225.565 0.151088 0 -10.0856
229.594 0.149938 0 -10.1138
136.426 0.235081 0 -14.7664
180.384 0.198791 0 -12.7619
227.579 0.150516 0 -10.0997
183.606 0.197334 0 -12.7844
181.995 0.198066 0 -12.7732
135.218 0.235923 0 -14.7579
132.801 0.237583 0 -14.7408
221.536 0.152215 0 -10.0571
225.565 0.151088 0 -10.0856
134.009 0.236757 0 -14.7494
177.161 0.200221 0 -12.7391
223.551 0.151654 0 -10.0714
180.384 0.198791 0 -12.7619
178.772 0.19951 0 -12.7505
132.801 0.237583 0 -14.7408
130.384 0.239211 0 -14.7235
217.508 0.153319 0 -10.0283
221.536 0.152215 0 -10.0571
131.592 0.238401 0 -14.7322
173.938 0.201623 0 -12.7161
219.522 0.15277 0 -10.0428
177.161 0.200221 0 -12.7391
175.55 0.200925 0 -12.7276
130.384 0.239211 0 -14.7235
127.967 0.240809 0 -14.706
213.479 0.1544 0 -9.99921
217.508 0.153319 0 -10.0283
129.176 0.240014 0 -14.7148
170.716 0.202997 0 -12.6928
215.493 0.153862 0 -10.0138
173.938 0.201623 0 -12.7161
172.327 0.202313 0 -12.7044
127.967 0.240809 0 -14.706
125.55 0.242375 0 -14.6883
209.45 0.155459 0 -9.9698
213.479 0.1544 0 -9.99921
126.759 0.241595 0 -14.6972
167.493 0.204343 0 -12.6692
211.464 0.154932 0 -9.98454
170.716 0.202997 0 -12.6928
169.104 0.203673 0 -12.681
125.55 0.242375 0 -14.6883
123.134 0.243909 0 -14.6705
205.421 0.156494 0 -9.94008
209.45 0.155459 0 -9.9698
124.342 0.243146 0 -14.6794
164.27 0.205662 0 -12.6454
207.436 0.155979 0 -9.95498
167.493 0.204343 0 -12.6692
165.881 0.205006 0 -12.6574
123.134 0.243909 0 -14.6705
120.717 0.245413 0 -14.6525
201.393 0.157507 0 -9.91007
205.421 0.156494 0 -9.94008
121.925 0.244665 0 -14.6615
161.047 0.206953 0 -12.6214
203.407 0.157004 0 -9.92512
164.27 0.205662 0 -12.6454
162.659 0.20631 0 -12.6335
120.717 0.245413 0 -14.6525
118.3 0.246885 0 -14.6343
197.364 0.158498 0 -9.87978
201.393 0.157507 0 -9.91007
119.509 0.246153 0 -14.6434
157.825 0.208216 0 -12.5972
199.378 0.158005 0 -9.89496
161.047 0.206953 0 -12.6214
159.436 0.207588 0 -12.6093
118.3 0.246885 0 -14.6343
115.883 0.248326 0 -14.6159
193.335 0.159465 0 -9.8492
197.364 0.158498 0 -9.87978
117.092 0.24761 0 -14.6251
154.602 0.209452 0 -12.5727
195.35 0.158984 0 -9.86452
157.825 0.208216 0 -12.5972
156.213 0.208837 0 -12.585
115.883 0.248326 0 -14.6159
113.467 0.249736 0 -14.5974
189.307 0.16041 0 -9.81834
193.335 0.159465 0 -9.8492
114.675 0.249035 0 -14.6067
151.379 0.21066 0 -12.548
191.321 0.159941 0 -9.83381
154.602 0.209452 0 -12.5727
152.991 0.210059 0 -12.5604
113.467 0.249736 0 -14.5974
111.05 0.251115 0 -14.5787
185.278 0.161333 0 -9.78722
189.307 0.16041 0 -9.81834
112.258 0.25043 0 -14.5881
148.157 0.211841 0 -12.5231
187.293 0.160874 0 -9.80281
151.379 0.21066 0 -12.548
149.768 0.211254 0 -12.5356
111.05 0.251115 0 -14.5787
108.633 0.252463 0 -14.5599
181.25 0.162233 0 -9.75583
185.278 0.161333 0 -9.78722
109.841 0.251793 0 -14.5693
144.934 0.212994 0 -12.498
183.264 0.161786 0 -9.77155
148.157 0.211841 0 -12.5231
146.546 0.212421 0 -12.5106
108.633 0.252463 0 -14.5599
106.216 0.25378 0 -14.5409
177.221 0.16311 0 -9.72418
181.25 0.162233 0 -9.75583
107.425 0.253125 0 -14.5504
141.712 0.21412 0 -12.4727
179.235 0.162674 0 -9.74003
144.934 0.212994 0 -12.498
143.323 0.213561 0 -12.4854
106.216 0.25378 0 -14.5409
103.8 0.255065 0 -14.5217
173.193 0.163965 0 -9.69227
177.221 0.16311 0 -9.72418
105.008 0.254426 0 -14.5313
138.489 0.215219 0 -12.4471
175.207 0.163541 0 -9.70826
141.712 0.21412 0 -12.4727
140.1 0.214673 0 -12.4599
103.8 0.255065 0 -14.5217
101.383 0.25632 0 -14.5024
169.164 0.164798 0 -9.66012
173.193 0.163965 0 -9.69227
102.591 0.255697 0 -14.5121
135.266 0.21629 0 -12.4214
171.178 0.164385 0 -9.67623
138.489 0.215219 0 -12.4471
136.878 0.215758 0 -12.4343
101.383 0.25632 0 -14.5024
98.966 0.257543 0 -14.483
165.136 0.165609 0 -9.62773
169.164 0.164798 0 -9.66012
100.174 0.256936 0 -14.4927
132.044 0.217334 0 -12.3955
167.15 0.165206 0 -9.64395
135.266 0.21629 0 -12.4214
133.655 0.216816 0 -12.4085
98.966 0.257543 0 -14.483
96.5492 0.258736 0 -14.4634
161.107 0.166397 0 -9.5951
165.136 0.165609 0 -9.62773
97.7576 0.258144 0 -14.4732
128.821 0.218351 0 -12.3694
163.121 0.166006 0 -9.61144
132.044 0.217334 0 -12.3955
130.432 0.217846 0 -12.3825
96.5492 0.258736 0 -14.4634
94.1325 0.259898 0 -14.4437
157.079 0.167164 0 -9.56224
161.107 0.166397 0 -9.5951
95.3409 0.259321 0 -14.4535
125.599 0.219341 0 -12.3431
159.093 0.166783 0 -9.5787
128.821 0.218351 0 -12.3694
127.21 0.218849 0 -12.3562
94.1325 0.259898 0 -14.4437
91.7157 0.261028 0 -14.4238
153.05 0.167908 0 -9.52915
157.079 0.167164 0 -9.56224
92.9241 0.260467 0 -14.4338
122.376 0.220303 0 -12.3166
155.064 0.167539 0 -9.54572
125.599 0.219341 0 -12.3431
123.987 0.219825 0 -12.3299
91.7157 0.261028 0 -14.4238
89.299 0.262128 0 -14.4038
149.022 0.16863 0 -9.49585
153.05 0.167908 0 -9.52915
90.5074 0.261582 0 -14.4138
119.153 0.221238 0 -12.29
151.036 0.168272 0 -9.51253
122.376 0.220303 0 -12.3166
120.765 0.220774 0 -12.3033
89.299 0.262128 0 -14.4038
86.8822 0.263197 0 -14.3837
144.993 0.16933 0 -9.46233
149.022 0.16863 0 -9.49585
88.0906 0.262667 0 -14.3938
115.931 0.222147 0 -12.2631
147.008 0.168983 0 -9.47912
119.153 0.221238 0 -12.29
117.542 0.221696 0 -12.2766
86.8822 0.263197 0 -14.3837
84.4655 0.264235 0 -14.3634
140.965 0.170009 0 -9.42861
144.993 0.16933 0 -9.46233
85.6739 0.26372 0 -14.3736
112.708 0.223028 0 -12.2361
142.979 0.169672 0 -9.4455
115.931 0.222147 0 -12.2631
114.32 0.222591 0 -12.2497
84.4655 0.264235 0 -14.3634
82.0488 0.265243 0 -14.3431
136.937 0.170666 0 -9.39468
140.965 0.170009 0 -9.42861
83.2571 0.264743 0 -14.3533
109.486 0.223882 0 -12.209
138.951 0.17034 0 -9.41167
112.708 0.223028 0 -12.2361
111.097 0.223458 0 -12.2226
82.0488 0.265243 0 -14.3431
79.632 0.266219 0 -14.3226
132.908 0.1713 0 -9.36056
136.937 0.170666 0 -9.39468
80.8404 0.265735 0 -14.3329
106.263 0.22471 0 -12.1817
134.922 0.170986 0 -9.37765
109.486 0.223882 0 -12.209
107.875 0.224299 0 -12.1954
79.632 0.266219 0 -14.3226
77.2153 0.267165 0 -14.302
128.88 0.171914 0 -9.32625
132.908 0.1713 0 -9.36056
78.4237 0.266696 0 -14.3123
103.041 0.22551 0 -12.1542
130.894 0.17161 0 -9.34343
106.263 0.22471 0 -12.1817
104.652 0.225113 0 -12.168
77.2153 0.267165 0 -14.302
74.7986 0.26808 0 -14.2813
124.852 0.172505 0 -9.29175
128.88 0.171914 0 -9.32625
76.0069 0.267626 0 -14.2917
99.8183 0.226284 0 -12.1266
126.866 0.172212 0 -9.30902
103.041 0.22551 0 -12.1542
101.43 0.2259 0 -12.1405
74.7986 0.26808 0 -14.2813
72.3818 0.268963 0 -14.2605
120.823 0.173075 0 -9.25708
124.852 0.172505 0 -9.29175
73.5902 0.268525 0 -14.2709
96.5958 0.22703 0 -12.0989
122.837 0.172793 0 -9.27444
99.8183 0.226284 0 -12.1266
98.2071 0.22666 0 -12.1128
72.3818 0.268963 0 -14.2605
69.9651 0.269816 0 -14.2396
116.795 0.173624 0 -9.22223
120.823 0.173075 0 -9.25708
71.1735 0.269394 0 -14.25
93.3733 0.22775 0 -12.071
118.809 0.173352 0 -9.23968
96.5958 0.22703 0 -12.0989
94.9846 0.227394 0 -12.085
69.9651 0.269816 0 -14.2396
67.5484 0.270638 0 -14.2186
112.767 0.174151 0 -9.18722
116.795 0.173624 0 -9.22223
68.7567 0.270231 0 -14.2291
90.1509 0.228443 0 -12.043
114.781 0.17389 0 -9.20475
93.3733 0.22775 0 -12.071
91.7621 0.2281 0 -12.057
67.5484 0.270638 0 -14.2186
65.1316 0.271428 0 -14.1974
108.738 0.174656 0 -9.15205
112.767 0.174151 0 -9.18722
66.34 0.271037 0 -14.208
86.9284 0.229109 0 -12.0149
110.752 0.174406 0 -9.16966
90.1509 0.228443 0 -12.043
88.5396 0.228779 0 -12.0289
65.1316 0.271428 0 -14.1974
62.7149 0.272186 0 -14.1762
104.71 0.175139 0 -9.11672
108.738 0.174656 0 -9.15205
63.9233 0.271811 0 -14.1868
83.7059 0.229746 0 -11.9866
106.724 0.1749 0 -9.13441
86.9284 0.229109 0 -12.0149
85.3171 0.229431 0 -12.0007
62.7149 0.272186 0 -14.1762
60.2982 0.272912 0 -14.1549
100.682 0.175601 0 -9.08125
104.71 0.175139 0 -9.11672
61.5066 0.272553 0 -14.1656
80.4835 0.230356 0 -11.9582
102.696 0.175373 0 -9.099
83.7059 0.229746 0 -11.9866
82.0947 0.230055 0 -11.9724
60.2982 0.272912 0 -14.1549
57.8815 0.273605 0 -14.1336
96.6537 0.17604 0 -9.04563
100.682 0.175601 0 -9.08125
59.0898 0.273263 0 -14.1443
77.261 0.230937 0 -11.9297
98.6678 0.175823 0 -9.06346
80.4835 0.230356 0 -11.9582
78.8722 0.23065 0 -11.944
57.8815 0.273605 0 -14.1336
55.4648 0.274262 0 -14.1121
92.6255 0.176455 0 -9.00989
96.6537 0.17604 0 -9.04563
56.6731 0.273938 0 -14.1228
74.0386 0.231488 0 -11.9011
94.6396 0.17625 0 -9.02778
77.261 0.230937 0 -11.9297
75.6498 0.231216 0 -11.9154
55.4648 0.274262 0 -14.1121
53.0481 0.274882 0 -14.0906
88.5973 0.176846 0 -8.97401
92.6255 0.176455 0 -9.00989
54.2564 0.274577 0 -14.1014
70.8162 0.232006 0 -11.8724
90.6114 0.176654 0 -8.99196
74.0386 0.231488 0 -11.9011
72.4274 0.231751 0 -11.8868
53.0481 0.274882 0 -14.0906
50.6314 0.275464 0 -14.069
84.5691 0.17721 0 -8.93803
88.5973 0.176846 0 -8.97401
51.8397 0.275178 0 -14.0798
67.5938 0.232489 0 -11.8436
86.5832 0.177031 0 -8.95603
70.8162 0.232006 0 -11.8724
69.205 0.232252 0 -11.858
50.6314 0.275464 0 -14.069
48.2148 0.276009 0 -14.0473
80.5409 0.177547 0 -8.90193
84.5691 0.17721 0 -8.93803
49.4231 0.275741 0 -14.0581
64.3714 0.232937 0 -11.8147
82.555 0.177382 0 -8.91999
67.5938 0.232489 0 -11.8436
65.9826 0.232717 0 -11.8292
48.2148 0.276009 0 -14.0473
45.7982 0.276523 0 -14.0255
76.5128 0.177858 0 -8.86574
80.5409 0.177547 0 -8.90193
47.0065 0.276268 0 -14.0364
61.149 0.233353 0 -11.7858
78.5268 0.177705 0 -8.88385
64.3714 0.232937 0 -11.8147
62.7602 0.233148 0 -11.8002
45.7982 0.276523 0 -14.0255
43.3816 0.277038 0 -14.0037
72.4847 0.17815 0 -8.82946
76.5128 0.177858 0 -8.86574
44.5899 0.276776 0 -14.0146
57.9268 0.233757 0 -11.7567
74.4987 0.178006 0 -8.84762
61.149 0.233353 0 -11.7858
59.5379 0.233554 0 -11.7712
43.3816 0.277038 0 -14.0037
40.9651 0.277624 0 -13.9817
68.4567 0.178455 0 -8.79307
72.4847 0.17815 0 -8.82946
42.1734 0.277314 0 -13.9927
54.7046 0.234202 0 -11.7275
70.4707 0.178297 0 -8.81128
57.9268 0.233757 0 -11.7567
56.3157 0.233967 0 -11.7421
40.9651 0.277624 0 -13.9817
38.5487 0.278471 0 -13.9596
64.4288 0.178841 0 -8.7565
68.4567 0.178455 0 -8.79307
39.7569 0.277994 0 -13.9707
51.4825 0.234832 0 -11.6981
66.4427 0.178631 0 -8.77481
54.7046 0.234202 0 -11.7275
53.0936 0.234481 0 -11.7129
38.5487 0.278471 0 -13.9596
36.1321 0.279941 0 -13.9373
60.4011 0.179489 0 -8.71955
64.4288 0.178841 0 -8.7565
37.3405 0.279091 0 -13.9485
48.2606 0.235944 0 -11.6683
62.4149 0.179112 0 -8.7381
51.4825 0.234832 0 -11.6981
49.8715 0.235291 0 -11.6833
36.1321 0.279941 0 -13.9373
33.715 0.282884 0 -13.9146
56.3739 0.180738 0 -8.68182
60.4011 0.179489 0 -8.71955
34.9236 0.281144 0 -13.926
45.0385 0.238214 0 -11.6378
58.3875 0.180008 0 -8.70082
48.2606 0.235944 0 -11.6683
46.6496 0.23688 0 -11.6532
33.715 0.282884 0 -13.9146
31.2961 0.288717 0 -13.8913
52.3475 0.183389 0 -8.64226
56.3739 0.180738 0 -8.68182
32.5059 0.285299 0 -13.903
41.816 0.242857 0 -11.6055
54.3605 0.181809 0 -8.66237
45.0385 0.238214 0 -11.6378
43.4274 0.240088 0 -11.622
31.2961 0.288717 0 -13.8913
28.8735 0.30053 0 -13.8669
48.3221 0.188677 0 -8.59917
52.3475 0.183389 0 -8.64226
30.0853 0.293591 0 -13.8793
38.5919 0.252442 0 -11.5701
50.3348 0.185587 0 -8.6213
41.816 0.242857 0 -11.6055
40.2043 0.246865 0 -11.5883
28.8735 0.30053 0 -13.8669
26.4413 0.3227 0 -13.8412
44.2992 0.199565 0 -8.54843
48.3221 0.188677 0 -8.59917
27.6593 0.309899 0 -13.8542
35.3635 0.270907 0 -11.5286
46.31 0.193177 0 -8.57516
38.5919 0.252442 0 -11.5701
36.9784 0.260029 0 -11.5505
26.4413 0.3227 0 -13.8412
23.993 0.364453 0 -13.813
40.277 0.219422 0 -8.48441
44.2992 0.199565 0 -8.54843
25.2193 0.340391 0 -13.8276
32.1253 0.306289 0 -11.4761
42.2885 0.207981 0 -8.51852
35.3635 0.270907 0 -11.5286
33.7462 0.286164 0 -11.5039
23.993 0.364453 0 -13.813
21.5061 0.435204 0 -13.7832
36.2608 0.257775 0 -8.39367
40.277 0.219422 0 -8.48441
22.7569 0.395277 0 -13.7981
28.8669 0.36807 0 -11.405
38.267 0.235787 0 -8.44368
32.1253 0.306289 0 -11.4761
30.4991 0.332225 0 -11.444
21.5061 0.435204 0 -13.7832
18.9629 0.555477 0 -13.7503
32.2357 0.319308 0 -8.26247
36.2608 0.257775 0 -8.39367
20.2415 0.488116 0 -13.7675
25.5661 0.475894 0 -11.3046
34.252 0.284408 0 -8.33407
28.8669 0.36807 0 -11.405
27.2245 0.416558 0 -11.3582
18.9629 0.555477 0 -13.7503
16.2969 0.727323 0 -13.7256
28.2162 0.431134 0 -8.05614
32.2357 0.319308 0 -8.26247
17.6532 0.634379 0 -13.7354
22.1896 0.639301 0 -11.1631
30.2215 0.369192 0 -8.17204
25.5661 0.475894 0 -11.3046
23.8879 0.546327 0 -11.2422
16.2969 0.727323 0 -13.7256
13.4837 0.966978 0 -13.716
24.1208 0.574375 0 -7.76085
28.2162 0.431134 0 -8.05614
14.9051 0.841795 0 -13.7189
18.6613 0.883911 0 -10.9793
26.19 0.494906 0 -7.91987
22.1896 0.639301 0 -11.1631
20.4553 0.758732 0 -11.0712
13.4837 0.966978 0 -13.716
10.3815 1.15763 0 -13.7856
19.975 0.812986 0 -7.32434
24.1208 0.574375 0 -7.76085
11.989 1.07652 0 -13.7333
14.904 1.13996 0 -10.78
22.0434 0.692381 0 -7.56461
18.6613 0.883911 0 -10.9793
16.8073 1.00322 0 -10.8875
10.3815 1.15763 0 -13.7856
7.09932 1.14877 0 -13.9816
15.4075 0.917718 0 -6.85456
19.975 0.812986 0 -7.32434
8.73618 1.21269 0 -13.8653
10.6996 1.29306 0 -10.7025
17.7926 0.871828 0 -7.08224
14.904 1.13996 0 -10.78
12.898 1.2805 0 -10.6921
7.09932 1.14877 0 -13.9816
3.60339 0.133396 0 -14.4626
10.4442 0.89548 0 -6.53186
15.4075 0.917718 0 -6.85456
5.40666 0.825681 0 -14.1726
6.06209 0.590709 0 -11.0526
12.9487 1.01464 0 -6.64655
10.6996 1.29306 0 -10.7025
8.38899 1.07962 0 -10.8307
3.60339 0.133396 0 -14.4626
0.96973 -2.99824 0 -14.8546
4.03808 -1.12934 0 -7.58065
10.4442 0.89548 0 -6.53186
2.04342 -0.996063 0 -14.723
1.02476 -2.63835 0 -12.4273
7.55293 0.189704 0 -6.768
6.06209 0.590709 0 -11.0526
3.68014 -0.382938 0 -11.4958
0.96973 -2.99824 0 -14.8546
-0.52101 -10.8532 0 -13.714
-1.20935 -9.26563 0 -11.6299
4.03808 -1.12934 0 -7.58065
0.123244 -6.37122 0 -14.6676
-0.760676 -12.4388 0 -13.6138
1.03131 -3.25902 0 -9.00679
1.02476 -2.63835 0 -12.4273
-0.852016 -6.64384 0 -13.404
-0.52101 -10.8532 0 -13.714
-0.606549 -19.9967 0 -7.38519
0.412591 -40.1138 0 -12.0968
-1.20935 -9.26563 0 -11.6299
-0.862332 -15.824 0 -11.3964
1.37593 -28.7188 0 -7.0911
-2.03408 -21.9178 0 -13.8231
-0.760676 -12.4388 0 -13.6138
0.184211 -20.2776 0 -11.889
743.308 222.844 0 -30.0062
787.049 84.9804 0 -43.8124
1056.07 -19.796 0 14.6398
1636.7 490.673 0 -389.93
772.248 160.247 0 -50.7663
981.844 60.344 0 -56.7972
1174.64 -22.6672 0 -55.222
873.977 262.008 0 -94.6137
969.396 132.335 0 -88.8406
787.049 84.9804 0 -43.8124
798.918 25.2274 0 -21.0356
1045.83 -11.3798 0 4.38806
1056.07 -19.796 0 14.6398
798.21 43.6741 0 -31.696
944.927 8.72906 0 -9.78876
1047.29 3.53988 0 6.30924
981.844 60.344 0 -56.7972
956.836 21.6767 0 -23.1926
798.918 25.2274 0 -21.0356
788.898 4.42984 0 -8.03425
1065.09 3.60532 0 1.83399
1045.83 -11.3798 0 4.38806
792.905 12.3583 0 -12.4955
932.446 0.111788 0 -1.31128
1056.94 -7.35071 0 4.4123
944.927 8.72906 0 -9.78876
938.126 3.19273 0 -4.91786
788.898 4.42984 0 -8.03425
781.996 -0.104882 0 -5.17009
1069.72 -1.12458 0 -0.660456
1065.09 3.60532 0 1.83399
785.842 1.13893 0 -6.10077
926.644 -1.06209 0 -0.130264
1067.68 3.3261 0 -0.791234
932.446 0.111788 0 -1.31128
928.442 -1.08673 0 0.267176
781.996 -0.104882 0 -5.17009
775.081 -1.79475 0 -5.09261
1073.51 1.16768 0 -0.342507
1069.72 -1.12458 0 -0.660456
777.979 -1.19624 0 -4.84169
923.946 -0.980258 0 -1.45708
1072.45 -0.801082 0 -0.0470749
926.644 -1.06209 0 -0.130264
925.563 -0.920031 0 -0.974651
775.081 -1.79475 0 -5.09261
770.297 -1.51564 0 -6.13888
1071.92 -0.224243 0 -0.75785
1073.51 1.16768 0 -0.342507
772.763 -1.74311 0 -5.64052
920.646 -0.761408 0 -2.69054
1072.82 0.836838 0 -0.818443
923.946 -0.980258 0 -1.45708
922.197 -0.943412 0 -2.0081
770.297 -1.51564 0 -6.13888
765.679 -1.22273 0 -7.03196
1069.44 0.211286 0 -0.69217
1071.92 -0.224243 0 -0.75785
767.845 -1.37848 0 -6.58602
917.151 -0.509756 0 -3.68202
1070.99 -0.188155 0 -0.605462
920.646 -0.761408 0 -2.69054
919.038 -0.595629 0 -3.27351
765.679 -1.22273 0 -7.03196
761.574 -0.819545 0 -7.77364
1065.11 -0.100383 0 -0.843456
1069.44 0.211286 0 -0.69217
763.651 -1.00867 0 -7.44725
913.064 -0.365645 0 -4.34931
1067.34 0.127566 0 -0.830784
917.151 -0.509756 0 -3.68202
915.118 -0.444027 0 -4.03614
761.574 -0.819545 0 -7.77364
757.474 -0.570397 0 -8.2505
1060.34 -0.0180918 0 -0.891666
1065.11 -0.100383 0 -0.843456
759.495 -0.683852 0 -8.03228
908.726 -0.254281 0 -4.77734
1062.82 -0.0980929 0 -0.838204
913.064 -0.365645 0 -4.34931
910.948 -0.297163 0 -4.59438
757.474 -0.570397 0 -8.2505
753.467 -0.3897 0 -8.57523
1055.04 -0.0810935 0 -0.989692
1060.34 -0.0180918 0 -0.891666
755.479 -0.468536 0 -8.43334
904.138 -0.198631 0 -5.05612
1057.71 -0.0352048 0 -0.955303
908.726 -0.254281 0 -4.77734
906.441 -0.225587 0 -4.92983
753.467 -0.3897 0 -8.57523
749.443 -0.288068 0 -8.77881
1049.59 -0.0659252 0 -1.06744
1055.04 -0.0810935 0 -0.989692
751.45 -0.332606 0 -8.68678
899.446 -0.161033 0 -5.23696
1052.34 -0.0817157 0 -1.0217
904.138 -0.198631 0 -5.05612
901.809 -0.175941 0 -5.15628
749.443 -0.288068 0 -8.77881
745.43 -0.226269 0 -8.91878
1044.01 -0.0767831 0 -1.15447
1049.59 -0.0659252 0 -1.06744
747.439 -0.252452 0 -8.85579
894.674 -0.142889 0 -5.36659
1046.81 -0.0684896 0 -1.11426
899.446 -0.161033 0 -5.23696
897.063 -0.151307 0 -5.30646
745.43 -0.226269 0 -8.91878
741.408 -0.193125 0 -9.01775
1038.4 -0.0735593 0 -1.23736
1044.01 -0.0767831 0 -1.15447
743.418 -0.207399 0 -8.97157
889.87 -0.131355 0 -5.46526
1041.21 -0.0768507 0 -1.1945
894.674 -0.142889 0 -5.36659
892.276 -0.136022 0 -5.41866
741.408 -0.193125 0 -9.01775
737.384 -0.174146 0 -9.09641
1032.76 -0.0745143 0 -1.32077
1038.4 -0.0735593 0 -1.23736
739.396 -0.182167 0 -9.05911
885.045 -0.125343 0 -5.549
1035.58 -0.0734718 0 -1.27986
889.87 -0.131355 0 -5.46526
887.458 -0.128144 0 -5.50848
737.384 -0.174146 0 -9.09641
733.356 -0.163583 0 -9.16326
1027.11 -0.0733101 0 -1.40255
1032.76 -0.0745143 0 -1.32077
735.37 -0.168206 0 -9.13078
880.213 -0.121217 0 -5.62414
1029.94 -0.0742313 0 -1.36151
885.045 -0.125343 0 -5.549
882.63 -0.123004 0 -5.5873
733.356 -0.163583 0 -9.16326
729.327 -0.15692 0 -9.22435
1021.47 -0.0726735 0 -1.48318
1027.11 -0.0733101 0 -1.40255
731.342 -0.159881 0 -9.19436
875.375 -0.118373 0 -5.69506
1024.29 -0.0728832 0 -1.44315
880.213 -0.121217 0 -5.62414
877.794 -0.119755 0 -5.65999
729.327 -0.15692 0 -9.22435
725.297 -0.152277 0 -9.28209
1015.82 -0.0718133 0 -1.5624
1021.47 -0.0726735 0 -1.48318
727.312 -0.15445 0 -9.25351
870.537 -0.115939 0 -5.76336
1018.64 -0.0722957 0 -1.52291
875.375 -0.118373 0 -5.69506
872.957 -0.117099 0 -5.72946
725.297 -0.152277 0 -9.28209
721.266 -0.148469 0 -9.33794
1010.17 -0.0710007 0 -1.64021
1015.82 -0.0718133 0 -1.5624
723.282 -0.1503 0 -9.31021
865.698 -0.113725 0 -5.83
1012.99 -0.0713879 0 -1.6015
870.537 -0.115939 0 -5.76336
868.118 -0.114831 0 -5.79686
721.266 -0.148469 0 -9.33794
717.235 -0.145025 0 -9.39242
1004.52 -0.0701955 0 -1.7166
1010.17 -0.0710007 0 -1.64021
719.251 -0.146724 0 -9.36532
860.859 -0.111561 0 -5.89528
1007.35 -0.0706047 0 -1.67857
865.698 -0.113725 0 -5.83
863.279 -0.112635 0 -5.8628
717.235 -0.145025 0 -9.39242
713.204 -0.141698 0 -9.44581
998.876 -0.0693785 0 -1.79155
1004.52 -0.0701955 0 -1.7166
715.22 -0.143353 0 -9.41924
856.02 -0.109409 0 -5.95935
1001.7 -0.069785 0 -1.75425
860.859 -0.111561 0 -5.89528
858.44 -0.110488 0 -5.92746
713.204 -0.141698 0 -9.44581
709.173 -0.138401 0 -9.49818
993.229 -0.0685691 0 -1.86507
998.876 -0.0693785 0 -1.79155
711.189 -0.140049 0 -9.47212
851.182 -0.107246 0 -6.02223
996.052 -0.0689748 0 -1.82849
856.02 -0.109409 0 -5.95935
853.601 -0.108328 0 -5.99094
709.173 -0.138401 0 -9.49818
705.142 -0.135102 0 -9.54957
987.582 -0.0677451 0 -1.93718
993.229 -0.0685691 0 -1.86507
707.158 -0.136753 0 -9.524
846.343 -0.105072 0 -6.08394
990.406 -0.0681581 0 -1.9013
851.182 -0.107246 0 -6.02223
848.762 -0.106161 0 -6.05323
705.142 -0.135102 0 -9.54957
701.111 -0.131795 0 -9.59998
981.936 -0.0669169 0 -2.00786
987.582 -0.0677451 0 -1.93718
703.126 -0.133449 0 -9.57489
841.504 -0.102888 0 -6.14446
984.759 -0.0673319 0 -1.9727
846.343 -0.105072 0 -6.08394
843.924 -0.103981 0 -6.11435
701.111 -0.131795 0 -9.59998
697.079 -0.128481 0 -9.6494
976.29 -0.0660759 0 -2.07714
981.936 -0.0669169 0 -2.00786
699.095 -0.130138 0 -9.62481
836.666 -0.100696 0 -6.2038
979.113 -0.0664978 0 -2.04268
841.504 -0.102888 0 -6.14446
839.085 -0.101793 0 -6.17428
697.079 -0.128481 0 -9.6494
693.048 -0.125165 0 -9.69784
970.644 -0.0652261 0 -2.14503
976.29 -0.0660759 0 -2.07714
695.064 -0.126823 0 -9.67374
831.827 -0.0984992 0 -6.26195
973.467 -0.0656522 0 -2.11126
836.666 -0.100696 0 -6.2038
834.246 -0.0995981 0 -6.23302
693.048 -0.125165 0 -9.69784
689.017 -0.12185 0 -9.74529
964.997 -0.064365 0 -2.21152
970.644 -0.0652261 0 -2.14503
691.033 -0.123507 0 -9.72169
826.989 -0.0962991 0 -6.31892
967.821 -0.0647969 0 -2.17845
831.827 -0.0984992 0 -6.26195
829.408 -0.0973995 0 -6.29058
689.017 -0.12185 0 -9.74529
684.986 -0.11854 0 -9.79176
959.351 -0.0634943 0 -2.27663
964.997 -0.064365 0 -2.21152
687.001 -0.120194 0 -9.76865
822.15 -0.0940969 0 -6.3747
962.174 -0.0639309 0 -2.24425
826.989 -0.0962991 0 -6.31892
824.569 -0.0951982 0 -6.34696
684.986 -0.11854 0 -9.79176
680.955 -0.115235 0 -9.83725
953.705 -0.0626135 0 -2.34037
959.351 -0.0634943 0 -2.27663
682.97 -0.116887 0 -9.81463
817.312 -0.0918937 0 -6.42932
956.528 -0.0630551 0 -2.30867
822.15 -0.0940969 0 -6.3747
819.731 -0.0929954 0 -6.40216
680.955 -0.115235 0 -9.83725
676.923 -0.111937 0 -9.88177
948.059 -0.0617236 0 -2.40274
953.705 -0.0626135 0 -2.34037
678.939 -0.113585 0 -9.85964
812.473 -0.08969 0 -6.48276
950.882 -0.0621697 0 -2.37172
817.312 -0.0918937 0 -6.42932
814.892 -0.0907919 0 -6.45618
676.923 -0.111937 0 -9.88177
672.892 -0.108647 0 -9.92532
942.413 -0.0608246 0 -2.46375
948.059 -0.0617236 0 -2.40274
674.908 -0.110291 0 -9.90367
807.635 -0.0874865 0 -6.53504
945.236 -0.0612752 0 -2.43342
812.473 -0.08969 0 -6.48276
810.054 -0.0885882 0 -6.50904
672.892 -0.108647 0 -9.92532
668.861 -0.105365 0 -9.96791
936.767 -0.0599173 0 -2.52342
942.413 -0.0608246 0 -2.46375
670.877 -0.107005 0 -9.94674
802.796 -0.0852836 0 -6.58616
939.59 -0.060372 0 -2.49375
807.635 -0.0874865 0 -6.53504
805.215 -0.086385 0 -6.56074
668.861 -0.105365 0 -9.96791
664.83 -0.102091 0 -10.0095
931.121 -0.059002 0 -2.58174
936.767 -0.0599173 0 -2.52342
666.846 -0.103727 0 -9.98884
797.958 -0.0830818 0 -6.63613
933.944 -0.0594606 0 -2.55275
802.796 -0.0852836 0 -6.58616
800.377 -0.0841825 0 -6.61129
664.83 -0.102092 0 -10.0095
660.799 -0.0988274 0 -10.0502
925.476 -0.0580791 0 -2.63873
931.121 -0.059002 0 -2.58174
662.815 -0.100458 0 -10.03
793.12 -0.0808814 0 -6.68496
928.298 -0.0585414 0 -2.6104
797.958 -0.0830818 0 -6.63613
795.539 -0.0819814 0 -6.66069
660.799 -0.0988274 0 -10.0502
656.768 -0.0955728 0 -10.0899
919.83 -0.0571492 0 -2.6944
925.476 -0.0580791 0 -2.63873
658.783 -0.0971989 0 -10.0702
788.281 -0.078683 0 -6.73266
922.653 -0.057615 0 -2.66673
793.12 -0.0808814 0 -6.68496
790.7 -0.079782 0 -6.70895
656.768 -0.0955728 0 -10.0899
652.737 -0.092328 0 -10.1287
914.184 -0.0562126 0 -2.74874
919.83 -0.0571492 0 -2.6944
654.752 -0.0939491 0 -10.1095
783.443 -0.0764868 0 -6.77922
917.007 -0.0566817 0 -2.72174
788.281 -0.078683 0 -6.73266
785.862 -0.0775846 0 -6.75608
652.737 -0.092328 0 -10.1287
648.706 -0.0890935 0 -10.1666
908.538 -0.0552698 0 -2.80178
914.184 -0.0562126 0 -2.74874
650.721 -0.0907095 0 -10.1478
778.605 -0.0742933 0 -6.82467
911.361 -0.0557419 0 -2.77543
783.443 -0.0764868 0 -6.77922
781.024 -0.0753897 0 -6.80208
648.706 -0.0890935 0 -10.1666
644.675 -0.0858695 0 -10.2035
902.892 -0.0543212 0 -2.85352
908.538 -0.0552698 0 -2.80178
646.69 -0.0874802 0 -10.1852
773.766 -0.0721028 0 -6.869
905.715 -0.0547962 0 -2.82781
778.605 -0.0742933 0 -6.82467
776.186 -0.0731976 0 -6.84697
644.675 -0.0858695 0 -10.2035
640.644 -0.0826564 0 -10.2395
897.247 -0.0533673 0 -2.90397
902.892 -0.0543212 0 -2.85352
642.659 -0.0842616 0 -10.2216
768.928 -0.0699157 0 -6.91222
900.07 -0.0538449 0 -2.87891
773.766 -0.0721028 0 -6.869
771.347 -0.0710088 0 -6.89075
640.644 -0.0826564 0 -10.2395
636.613 -0.0794545 0 -10.2746
891.601 -0.0524084 0 -2.95313
897.247 -0.0533673 0 -2.90397
638.628 -0.0810541 0 -10.2572
764.09 -0.0677324 0 -6.95434
894.424 -0.0528884 0 -2.92871
768.928 -0.0699157 0 -6.91222
766.509 -0.0688236 0 -6.93342
636.613 -0.0794545 0 -10.2746
632.582 -0.0762642 0 -10.3088
885.955 -0.0514449 0 -3.00101
891.601 -0.0524084 0 -2.95313
634.597 -0.0778579 0 -10.2918
759.252 -0.0655533 0 -6.99536
888.778 -0.0519272 0 -2.97723
764.09 -0.0677324 0 -6.95434
761.671 -0.0666423 0 -6.97499
632.582 -0.0762642 0 -10.3088
628.551 -0.0730856 0 -10.3421
880.31 -0.0504773 0 -3.04763
885.955 -0.0514449 0 -3.00101
630.566 -0.0746734 0 -10.3255
754.414 -0.0633786 0 -7.0353
883.133 -0.0509616 0 -3.02448
759.252 -0.0655533 0 -6.99536
756.833 -0.0644654 0 -7.01547
628.551 -0.0730856 0 -10.3421
624.52 -0.0699192 0 -10.3744
874.664 -0.049506 0 -3.09298
880.31 -0.0504773 0 -3.04763
626.535 -0.0715009 0 -10.3584
749.576 -0.0612088 0 -7.07416
877.487 -0.0499921 0 -3.07046
754.414 -0.0633786 0 -7.0353
751.995 -0.0622931 0 -7.05487
624.52 -0.0699192 0 -10.3744
620.489 -0.0667652 0 -10.4059
869.019 -0.0485313 0 -3.13708
874.664 -0.049506 0 -3.09298
622.505 -0.0683407 0 -10.3903
744.738 -0.0590441 0 -7.11195
871.842 -0.049019 0 -3.11519
749.576 -0.0612088 0 -7.07416
747.157 -0.0601258 0 -7.09319
620.489 -0.0667652 0 -10.4059
616.458 -0.063624 0 -10.4365
863.373 -0.0475536 0 -3.17994
869.019 -0.0485313 0 -3.13708
618.474 -0.065193 0 -10.4213
739.9 -0.056885 0 -7.14867
866.196 -0.0480428 0 -3.15867
744.738 -0.0590441 0 -7.11195
742.319 -0.0579639 0 -7.13044
616.458 -0.063624 0 -10.4365
612.427 -0.0604958 0 -10.4662
857.728 -0.0465733 0 -3.22156
863.373 -0.0475536 0 -3.17994
614.443 -0.0620582 0 -10.4514
735.062 -0.0547317 0 -7.18432
860.551 -0.0470637 0 -3.20091
739.9 -0.056885 0 -7.14867
737.481 -0.0558076 0 -7.16663
612.427 -0.0604958 0 -10.4662
608.397 -0.0573808 0 -10.495
852.083 -0.0455907 0 -3.26196
857.728 -0.0465733 0 -3.22156
610.412 -0.0589366 0 -10.4807
730.224 -0.0525847 0 -7.21893
854.905 -0.0460822 0 -3.24191
735.062 -0.0547318 0 -7.18432
732.643 -0.0536574 0 -7.20176
608.397 -0.0573808 0 -10.495
604.366 -0.0542795 0 -10.523
846.437 -0.0446063 0 -3.30113
852.083 -0.0455907 0 -3.26196
606.381 -0.0558284 0 -10.5091
725.386 -0.0504441 0 -7.25249
849.26 -0.0450987 0 -3.2817
730.224 -0.0525847 0 -7.21893
727.805 -0.0515135 0 -7.23584
604.366 -0.0542795 0 -10.523
600.335 -0.051192 0 -10.5501
840.792 -0.0436203 0 -3.33909
846.437 -0.0446062 0 -3.30113
602.35 -0.052734 0 -10.5366
720.548 -0.0483103 0 -7.28501
843.615 -0.0441134 0 -3.32026
725.386 -0.0504441 0 -7.25249
722.967 -0.0493763 0 -7.26888
600.335 -0.051192 0 -10.5501
596.304 -0.0481186 0 -10.5763
835.147 -0.0426331 0 -3.37585
840.792 -0.0436203 0 -3.33909
598.319 -0.0496535 0 -10.5633
715.71 -0.0461836 0 -7.3165
837.969 -0.0431268 0 -3.35762
720.548 -0.0483103 0 -7.28501
718.129 -0.047246 0 -7.30089
596.304 -0.0481186 0 -10.5763
592.273 -0.0450596 0 -10.6017
829.502 -0.0416451 0 -3.41141
835.147 -0.0426331 0 -3.37585
594.289 -0.0465873 0 -10.5891
710.872 -0.0440644 0 -7.34697
832.324 -0.0421392 0 -3.39378
715.71 -0.0461836 0 -7.3165
713.291 -0.0451231 0 -7.33187
592.273 -0.0450596 0 -10.6017
588.243 -0.0420152 0 -10.6262
823.856 -0.0406566 0 -3.44579
829.502 -0.0416451 0 -3.41141
590.258 -0.0435355 0 -10.614
706.034 -0.0419528 0 -7.37642
826.679 -0.0411509 0 -3.42875
710.872 -0.0440644 0 -7.34697
708.453 -0.0430076 0 -7.36182
588.243 -0.0420152 0 -10.6262
584.212 -0.0389858 0 -10.6499
818.211 -0.0396679 0 -3.47898
823.856 -0.0406566 0 -3.44579
586.227 -0.0404986 0 -10.6381
701.196 -0.0398493 0 -7.40485
821.034 -0.0401623 0 -3.46253
706.034 -0.0419528 0 -7.37642
703.615 -0.0409001 0 -7.39076
584.212 -0.0389858 0 -10.6499
580.181 -0.0359715 0 -10.6727
812.566 -0.0386794 0 -3.51101
818.211 -0.0396679 0 -3.47898
582.196 -0.0374767 0 -10.6614
696.359 -0.0377541 0 -7.43229
815.389 -0.0391736 0 -3.49514
701.196 -0.0398493 0 -7.40485
698.777 -0.0388007 0 -7.4187
580.181 -0.0359715 0 -10.6727
576.15 -0.0329725 0 -10.6947
806.921 -0.0376914 0 -3.54187
812.566 -0.0386794 0 -3.51101
578.166 -0.0344701 0 -10.6838
691.521 -0.0356675 0 -7.45872
809.744 -0.0381853 0 -3.52658
696.359 -0.0377541 0 -7.43229
693.94 -0.0367097 0 -7.44563
576.15 -0.0329725 0 -10.6947
572.12 -0.0299893 0 -10.7159
801.276 -0.0367041 0 -3.57158
806.921 -0.0376914 0 -3.54187
574.135 -0.0314789 0 -10.7054
686.683 -0.0335897 0 -7.48417
804.099 -0.0371976 0 -3.55687
691.521 -0.0356675 0 -7.45872
689.102 -0.0346275 0 -7.47157
572.12 -0.0299893 0 -10.7159
568.089 -0.0270219 0 -10.7363
795.631 -0.0357179 0 -3.60013
801.276 -0.0367041 0 -3.57158
570.104 -0.0285036 0 -10.7262
681.845 -0.031521 0 -7.50863
798.454 -0.0362108 0 -3.586
686.683 -0.0335897 0 -7.48417
684.264 -0.0325542 0 -7.49652
568.089 -0.0270219 0 -10.7363
564.059 -0.0240706 0 -10.7559
789.986 -0.0347331 0 -3.62755
795.631 -0.0357179 0 -3.60013
566.074 -0.0255442 0 -10.7462
677.008 -0.0294618 0 -7.53212
792.809 -0.0352253 0 -3.61398
681.845 -0.031521 0 -7.50863
679.427 -0.0304902 0 -7.5205
564.059 -0.0240706 0 -10.7559
560.028 -0.0211356 0 -10.7746
784.341 -0.03375 0 -3.65384
789.986 -0.0347331 0 -3.62755
562.043 -0.022601 0 -10.7653
672.17 -0.0274122 0 -7.55463
787.164 -0.0342413 0 -3.64084
677.008 -0.0294618 0 -7.53212
674.589 -0.0284358 0 -7.5435
560.028 -0.0211356 0 -10.7746
555.997 -0.0182172 0 -10.7926
778.697 -0.0327688 0 -3.67901
784.341 -0.03375 0 -3.65384
558.013 -0.0196743 0 -10.7837
667.333 -0.0253725 0 -7.57619
781.519 -0.0332591 0 -3.66656
672.17 -0.0274122 0 -7.55463
669.751 -0.0263911 0 -7.56553
555.997 -0.0182172 0 -10.7926
551.967 -0.0153156 0 -10.8097
773.052 -0.0317899 0 -3.70306
778.697 -0.0327688 0 -3.67901
553.982 -0.0167643 0 -10.8012
662.495 -0.023343 0 -7.59679
775.874 -0.032279 0 -3.69117
667.333 -0.0253725 0 -7.57619
664.914 -0.0243565 0 -7.58661
551.967 -0.0153156 0 -10.8097
547.936 -0.012431 0 -10.8261
767.407 -0.0308135 0 -3.726
773.052 -0.0317899 0 -3.70306
549.951 -0.0138711 0 -10.818
657.657 -0.0213239 0 -7.61644
770.229 -0.0313014 0 -3.71467
662.495 -0.023343 0 -7.59679
660.076 -0.0223321 0 -7.60673
547.936 -0.012431 0 -10.8261
543.906 -0.00956353 0 -10.8416
761.762 -0.0298399 0 -3.74785
767.407 -0.0308135 0 -3.726
545.921 -0.0109951 0 -10.834
652.82 -0.0193155 0 -7.63514
764.585 -0.0303263 0 -3.73706
657.657 -0.0213239 0 -7.61644
655.239 -0.0203184 0 -7.62591
543.906 -0.00956353 0 -10.8416
539.875 -0.00671354 0 -10.8564
756.118 -0.0288694 0 -3.7686
761.762 -0.0298399 0 -3.74785
541.89 -0.00813634 0 -10.8491
647.983 -0.0173179 0 -7.65292
758.94 -0.0293543 0 -3.75836
652.82 -0.0193155 0 -7.63514
650.401 -0.0183153 0 -7.64415
539.875 -0.00671354 0 -10.8564
535.845 -0.00388116 0 -10.8705
750.473 -0.0279022 0 -3.78827
756.118 -0.0288694 0 -3.7686
537.86 -0.00529514 0 -10.8636
643.145 -0.0153315 0 -7.66976
753.295 -0.0283854 0 -3.77857
647.983 -0.0173179 0 -7.65292
645.564 -0.0163233 0 -7.66146
535.845 -0.00388116 0 -10.8705
531.814 -0.0010666 0 -10.8837
744.828 -0.0269386 0 -3.80687
750.473 -0.0279022 0 -3.78827
533.83 -0.00247164 0 -10.8772
638.308 -0.0133564 0 -7.68569
747.651 -0.0274199 0 -3.7977
643.145 -0.0153315 0 -7.66976
640.726 -0.0143425 0 -7.67784
531.814 -0.0010666 0 -10.8837
527.784 0.00172995 0 -10.8962
739.184 -0.0259788 0 -3.8244
744.828 -0.0269386 0 -3.80687
529.799 0.000333939 0 -10.8901
633.47 -0.0113929 0 -7.7007
742.006 -0.0264582 0 -3.81577
638.308 -0.0133564 0 -7.68569
635.889 -0.0123732 0 -7.69331
527.784 0.00172995 0 -10.8962
523.753 0.00450829 0 -10.908
733.539 -0.0250231 0 -3.84087
739.184 -0.0259788 0 -3.8244
525.769 0.0031214 0 -10.9022
628.633 -0.00944115 0 -7.71481
736.362 -0.0255004 0 -3.83277
633.47 -0.0113929 0 -7.7007
631.052 -0.0104155 0 -7.70787
523.753 0.00450829 0 -10.908
519.723 0.00726824 0 -10.919
727.895 -0.0240717 0 -3.8563
733.539 -0.0250231 0 -3.84087
521.738 0.00589057 0 -10.9136
623.796 -0.00750142 0 -7.72801
730.717 -0.0245468 0 -3.84872
628.633 -0.00944115 0 -7.71481
626.214 -0.00846977 0 -7.72152
519.723 0.00726824 0 -10.919
515.693 0.0100096 0 -10.9292
722.251 -0.0231248 0 -3.87068
727.895 -0.0240717 0 -3.8563
517.708 0.00864125 0 -10.9242
618.958 -0.0055739 0 -7.74032
725.073 -0.0235977 0 -3.86362
623.796 -0.00750142 0 -7.72801
621.377 -0.00653612 0 -7.73428
515.693 0.0100096 0 -10.9292
511.662 0.0127322 0 -10.9387
716.606 -0.0221827 0 -3.88403
722.251 -0.0231248 0 -3.87068
513.678 0.0113733 0 -10.9341
614.121 -0.00365877 0 -7.75175
719.428 -0.0226531 0 -3.87748
618.958 -0.0055739 0 -7.74032
616.54 -0.00461477 0 -7.74614
511.662 0.0127322 0 -10.9387
507.632 0.0154359 0 -10.9475
710.962 -0.0212456 0 -3.89635
716.606 -0.0221827 0 -3.88403
509.647 0.0140865 0 -10.9432
609.284 -0.00175628 0 -7.76229
713.784 -0.0217135 0 -3.89032
614.121 -0.00365877 0 -7.75175
611.703 -0.00270594 0 -7.75713
507.632 0.0154359 0 -10.9475
503.602 0.0181205 0 -10.9555
705.318 -0.0203136 0 -3.90765
710.962 -0.0212456 0 -3.89635
505.617 0.0167806 0 -10.9516
604.447 0.000133437 0 -7.77197
708.14 -0.0207789 0 -3.90213
609.284 -0.00175628 0 -7.76229
606.865 -0.000809805 0 -7.76724
503.602 0.0181205 0 -10.9555
499.571 0.0207858 0 -10.9629
699.674 -0.0193871 0 -3.91795
705.318 -0.0203137 0 -3.90765
501.587 0.0194556 0 -10.9593
599.61 0.00201015 0 -7.78077
702.496 -0.0198497 0 -3.91292
604.447 0.00013344 0 -7.77197
602.028 0.00107342 0 -7.77648
499.571 0.0207858 0 -10.9629
495.541 0.0234317 0 -10.9695
694.029 -0.0184663 0 -3.92724
699.674 -0.0193871 0 -3.91795
497.556 0.0221112 0 -10.9663
594.773 0.0038737 0 -7.78872
696.851 -0.018926 0 -3.92272
599.61 0.00201016 0 -7.78077
597.191 0.00294358 0 -7.78485
495.541 0.0234317 0 -10.9695
491.511 0.026058 0 -10.9754
688.385 -0.0175512 0 -3.93554
694.029 -0.0184663 0 -3.92724
493.526 0.0247474 0 -10.9725
589.935 0.00572388 0 -7.79582
691.207 -0.018008 0 -3.93151
594.773 0.0038737 0 -7.78872
592.354 0.00480047 0 -7.79238
491.511 0.026058 0 -10.9754
487.481 0.0286646 0 -10.9806
682.741 -0.0166421 0 -3.94285
688.385 -0.0175512 0 -3.93554
489.496 0.0273638 0 -10.9781
585.098 0.00756055 0 -7.80207
685.563 -0.0170959 0 -3.93932
589.935 0.00572388 0 -7.79582
587.517 0.00664392 0 -7.79905
487.481 0.0286646 0 -10.9806
483.451 0.0312513 0 -10.9851
677.097 -0.0157393 0 -3.94919
682.741 -0.0166421 0 -3.94285
485.466 0.0299604 0 -10.9829
580.261 0.00938351 0 -7.80749
679.919 -0.0161899 0 -3.94614
585.098 0.00756055 0 -7.80207
582.68 0.00847375 0 -7.80489
483.451 0.0312513 0 -10.9851
479.42 0.0338179 0 -10.9889
671.453 -0.0148428 0 -3.95456
677.097 -0.0157393 0 -3.94919
481.435 0.0325371 0 -10.9871
575.424 0.0111926 0 -7.81208
674.275 -0.0152902 0 -3.95199
580.261 0.00938351 0 -7.80749
577.843 0.0102898 0 -7.80989
479.42 0.0338179 0 -10.9889
475.39 0.0363643 0 -10.992
665.809 -0.0139529 0 -3.95896
671.453 -0.0148428 0 -3.95456
477.405 0.0350936 0 -10.9905
570.587 0.0129877 0 -7.81584
668.631 -0.014397 0 -3.95688
575.424 0.0111926 0 -7.81208
573.006 0.0120919 0 -7.81406
475.39 0.0363643 0 -10.992
471.36 0.0388904 0 -10.9945
660.165 -0.0130697 0 -3.96241
665.809 -0.0139529 0 -3.95896
473.375 0.0376299 0 -10.9933
565.751 0.0147686 0 -7.81878
662.987 -0.0135105 0 -3.96081
570.587 0.0129877 0 -7.81584
568.169 0.0138799 0 -7.81741
471.36 0.0388904 0 -10.9945
467.33 0.0413961 0 -10.9962
654.521 -0.0121935 0 -3.96492
660.165 -0.0130698 0 -3.96241
469.345 0.0401458 0 -10.9954
560.914 0.0165351 0 -7.82092
657.343 -0.0126307 0 -3.96379
565.751 0.0147686 0 -7.81878
563.332 0.0156536 0 -7.81995
467.33 0.0413961 0 -10.9962
463.3 0.0438811 0 -10.9973
648.878 -0.0113243 0 -3.96649
654.521 -0.0121935 0 -3.96492
465.315 0.0426412 0 -10.9969
556.077 0.0182872 0 -7.82225
651.7 -0.011758 0 -3.96582
560.914 0.0165351 0 -7.82092
558.495 0.0174129 0 -7.82168
463.3 0.0438811 0 -10.9973
459.27 0.0463454 0 -10.9978
643.234 -0.0104624 0 -3.96714
648.878 -0.0113243 0 -3.96649
461.285 0.0451158 0 -10.9976
551.24 0.0200246 0 -7.82278
646.056 -0.0108925 0 -3.96693
556.077 0.0182872 0 -7.82225
553.658 0.0191577 0 -7.82262
459.27 0.0463454 0 -10.9978
455.24 0.0487888 0 -10.9975
637.59 -0.00960787 0 -3.96686
643.234 -0.0104624 0 -3.96714
457.255 0.0475697 0 -10.9977
546.403 0.0217472 0 -7.82253
640.412 -0.0100342 0 -3.96711
551.24 0.0200246 0 -7.82278
548.822 0.0208878 0 -7.82276
455.24 0.0487888 0 -10.9975
451.21 0.0512113 0 -10.9967
631.946 -0.00876087 0 -3.96567
637.59 -0.00960788 0 -3.96686
453.225 0.0500027 0 -10.9972
541.567 0.023455 0 -7.8215
634.768 -0.00918341 0 -3.96638
546.403 0.0217472 0 -7.82253
543.985 0.022603 0 -7.82211
451.21 0.0512113 0 -10.9967
447.18 0.0536127 0 -10.9951
626.303 -0.00792156 0 -3.96357
631.946 -0.00876089 0 -3.96567
449.195 0.0524146 0 -10.996
536.73 0.0251477 0 -7.81969
629.125 -0.00834024 0 -3.96473
541.567 0.023455 0 -7.8215
539.148 0.0243032 0 -7.82069
447.18 0.0536127 0 -10.9951
443.15 0.0559929 0 -10.993
620.659 -0.00709009 0 -3.96058
626.303 -0.00792156 0 -3.96357
445.165 0.0548054 0 -10.9941
531.893 0.0268252 0 -7.81711
623.481 -0.00750484 0 -3.96219
536.73 0.0251477 0 -7.81969
534.311 0.0259883 0 -7.81849
443.15 0.0559929 0 -10.993
439.12 0.0583517 0 -10.9902
615.016 -0.00626657 0 -3.9567
620.659 -0.00709009 0 -3.96058
441.135 0.0571749 0 -10.9917
527.057 0.0284874 0 -7.81377
617.838 -0.00667732 0 -3.95875
531.893 0.0268252 0 -7.81711
529.475 0.0276582 0 -7.81553
439.12 0.0583517 0 -10.9902
435.09 0.0606891 0 -10.9868
609.372 -0.00545115 0 -3.95194
615.016 -0.00626659 0 -3.9567
437.105 0.0595231 0 -10.9885
522.22 0.0301342 0 -7.80967
612.194 -0.00585785 0 -3.95443
527.057 0.0284874 0 -7.81377
524.638 0.0293128 0 -7.81181
435.09 0.0606891 0 -10.9868
431.06 0.063005 0 -10.9827
603.729 -0.00464397 0 -3.94631
609.372 -0.00545115 0 -3.95194
433.075 0.0618497 0 -10.9848
517.383 0.0317655 0 -7.80483
606.551 -0.00504651 0 -3.94923
522.22 0.0301342 0 -7.80967
519.802 0.0309518 0 -7.80734
431.06 0.063005 0 -10.9827
427.03 0.0652992 0 -10.978
598.085 -0.00384512 0 -3.93981
603.729 -0.00464397 0 -3.94631
429.045 0.0641548 0 -10.9804
512.547 0.0333812 0 -7.79925
600.907 -0.00424348 0 -3.94317
517.383 0.0317655 0 -7.80483
514.965 0.0325753 0 -7.80213
427.03 0.0652992 0 -10.978
423 0.0675717 0 -10.9728
592.442 -0.00305473 0 -3.93246
598.085 -0.00384512 0 -3.93981
425.015 0.0664382 0 -10.9755
507.71 0.0349811 0 -7.79293
595.264 -0.00344883 0 -3.93624
512.547 0.0333812 0 -7.79925
510.129 0.0341831 0 -7.79618
423 0.0675717 0 -10.9728
418.971 0.0698224 0 -10.9669
586.799 -0.00227292 0 -3.92426
592.442 -0.00305472 0 -3.93246
420.986 0.0686998 0 -10.9699
502.874 0.0365651 0 -7.78588
589.62 -0.00266274 0 -3.92846
507.71 0.0349811 0 -7.79293
505.292 0.0357751 0 -7.7895
418.971 0.0698224 0 -10.9669
414.941 0.0720511 0 -10.9604
581.156 -0.00149978 0 -3.91522
586.799 -0.00227293 0 -3.92426
416.956 0.0709395 0 -10.9637
498.037 0.0381332 0 -7.77812
583.977 -0.00188525 0 -3.91984
502.874 0.0365651 0 -7.78588
500.456 0.0373512 0 -7.78209
414.941 0.0720511 0 -10.9604
410.911 0.0742578 0 -10.9533
575.512 -0.000735452 0 -3.90535
581.156 -0.00149978 0 -3.91522
412.926 0.0731572 0 -10.9569
493.201 0.0396853 0 -7.76965
578.334 -0.00111651 0 -3.91038
498.037 0.0381332 0 -7.77812
495.619 0.0389113 0 -7.77397
410.911 0.0742578 0 -10.9533
406.881 0.0764425 0 -10.9457
569.869 1.99986e-05 0 -3.89465
575.512 -0.000735452 0 -3.90535
408.896 0.0753529 0 -10.9496
488.365 0.0412212 0 -7.76046
572.691 -0.000356606 0 -3.9001
493.201 0.0396853 0 -7.76965
490.783 0.0404552 0 -7.76514
406.881 0.0764425 0 -10.9457
402.852 0.0786049 0 -10.9374
564.226 0.000766486 0 -3.88314
569.869 1.99913e-05 0 -3.89465
404.866 0.0775265 0 -10.9416
483.528 0.0427408 0 -7.75058
567.048 0.000394367 0 -3.889
488.365 0.0412212 0 -7.76046
485.946 0.041983 0 -7.75561
402.852 0.0786049 0 -10.9374
398.822 0.0807451 0 -10.9286
558.583 0.00150388 0 -3.87082
564.226 0.000766476 0 -3.88314
400.837 0.0796778 0 -10.9331
478.692 0.0442442 0 -7.74001
561.405 0.00113633 0 -3.87708
483.528 0.0427408 0 -7.75058
481.11 0.0434946 0 -7.74538
398.822 0.0807451 0 -10.9286
394.792 0.082863 0 -10.9192
552.94 0.0022321 0 -3.8577
558.583 0.00150388 0 -3.87082
396.807 0.0818069 0 -10.924
473.856 0.0457312 0 -7.72875
555.761 0.00186912 0 -3.86436
478.692 0.0442442 0 -7.74001
476.274 0.0449897 0 -7.73447
394.792 0.082863 0 -10.9192
390.762 0.0849585 0 -10.9092
547.297 0.00295109 0 -3.84379
552.94 0.0022321 0 -3.8577
392.777 0.0839135 0 -10.9143
469.019 0.0472017 0 -7.71681
550.118 0.00259276 0 -3.85085
473.856 0.0457312 0 -7.72875
471.438 0.0464685 0 -7.72287
390.762 0.0849585 0 -10.9092
386.733 0.0870315 0 -10.8987
541.654 0.00366075 0 -3.8291
547.297 0.00295109 0 -3.84379
388.748 0.0859978 0 -10.9041
464.183 0.0486556 0 -7.70421
544.475 0.00330709 0 -3.83654
469.019 0.0472016 0 -7.71681
466.601 0.0479307 0 -7.71059
386.733 0.0870315 0 -10.8987
382.703 0.0890819 0 -10.8877
536.011 0.00436103 0 -3.81363
541.654 0.00366074 0 -3.8291
384.718 0.0880595 0 -10.8933
459.347 0.0500929 0 -7.69093
538.833 0.00401208 0 -3.82146
464.183 0.0486556 0 -7.70421
461.765 0.0493763 0 -7.69765
382.703 0.0890819 0 -10.8877
378.674 0.0911098 0 -10.876
530.368 0.00505182 0 -3.7974
536.011 0.00436103 0 -3.81363
380.688 0.0900987 0 -10.8819
454.511 0.0515135 0 -7.677
533.19 0.00470761 0 -3.80561
459.347 0.0500929 0 -7.69093
456.929 0.0508053 0 -7.68405
378.674 0.0911098 0 -10.876
374.644 0.093115 0 -10.8639
524.726 0.0057331 0 -3.7804
530.368 0.00505182 0 -3.7974
376.659 0.0921152 0 -10.87
449.675 0.0529174 0 -7.66242
527.547 0.00539367 0 -3.78899
454.511 0.0515135 0 -7.677
452.093 0.0522176 0 -7.6698
374.644 0.093115 0 -10.8639
370.615 0.0950974 0 -10.8512
519.083 0.00640475 0 -3.76266
524.726 0.0057331 0 -3.7804
372.629 0.094109 0 -10.8576
444.839 0.0543045 0 -7.6472
521.904 0.00607013 0 -3.77162
449.675 0.0529174 0 -7.66242
447.257 0.0536131 0 -7.65489
370.615 0.0950974 0 -10.8512
366.585 0.0970571 0 -10.8379
513.44 0.00706679 0 -3.74417
519.083 0.00640475 0 -3.76266
368.6 0.0960801 0 -10.8446
440.003 0.0556748 0 -7.63134
516.261 0.00673699 0 -3.75351
444.839 0.0543045 0 -7.6472
442.421 0.0549918 0 -7.63935
366.585 0.0970571 0 -10.8379
362.555 0.098994 0 -10.8242
507.797 0.0077191 0 -3.72495
513.44 0.00706679 0 -3.74417
364.57 0.0980284 0 -10.8311
435.167 0.0570281 0 -7.61485
510.619 0.00739417 0 -3.73465
440.003 0.0556748 0 -7.63134
437.585 0.0563535 0 -7.62317
362.555 0.098994 0 -10.8242
358.526 0.100908 0 -10.8099
502.155 0.00836165 0 -3.705
507.797 0.0077191 0 -3.72495
360.541 0.0999539 0 -10.8171
430.331 0.0583644 0 -7.59774
504.976 0.0080416 0 -3.71506
435.167 0.0570281 0 -7.61485
432.749 0.0576984 0 -7.60637
358.526 0.100908 0 -10.8099
354.497 0.102799 0 -10.7951
496.512 0.00899439 0 -3.68433
502.155 0.00836163 0 -3.705
356.511 0.101856 0 -10.8026
425.495 0.0596838 0 -7.58001
499.333 0.00867923 0 -3.69475
430.331 0.0583644 0 -7.59774
427.913 0.0590262 0 -7.58895
354.497 0.102799 0 -10.7951
350.467 0.104667 0 -10.7798
490.87 0.0096173 0 -3.66295
496.512 0.00899439 0 -3.68433
352.482 0.103736 0 -10.7876
420.659 0.060986 0 -7.56167
493.691 0.00930708 0 -3.67373
425.495 0.0596838 0 -7.58001
423.077 0.060337 0 -7.57092
350.467 0.104667 0 -10.7798
346.438 0.106512 0 -10.7641
485.227 0.0102303 0 -3.64087
490.87 0.0096173 0 -3.66295
348.452 0.105593 0 -10.772
415.823 0.0622712 0 -7.54273
488.048 0.00992503 0 -3.652
420.659 0.060986 0 -7.56167
418.241 0.0616308 0 -7.55228
346.438 0.106512 0 -10.7641
342.408 0.108335 0 -10.7478
479.585 0.0108334 0 -3.6181
485.227 0.0102303 0 -3.64087
344.423 0.107426 0 -10.756
410.987 0.0635393 0 -7.5232
482.406 0.0105331 0 -3.62957
415.823 0.0622712 0 -7.54273
413.405 0.0629074 0 -7.53304
342.408 0.108335 0 -10.7478
338.379 0.110134 0 -10.731
473.942 0.0114265 0 -3.59464
479.585 0.0108334 0 -3.6181
340.394 0.109237 0 -10.7394
406.151 0.0647902 0 -7.50307
476.764 0.0111312 0 -3.60645
410.987 0.0635393 0 -7.5232
408.569 0.0641669 0 -7.51321
338.379 0.110134 0 -10.731
334.35 0.111909 0 -10.7137
468.3 0.0120097 0 -3.5705
473.942 0.0114265 0 -3.59464
336.364 0.111024 0 -10.7224
401.316 0.0660239 0 -7.48237
471.121 0.0117194 0 -3.58265
406.151 0.0647902 0 -7.50307
403.733 0.0654092 0 -7.49279
334.35 0.111909 0 -10.7137
330.32 0.113662 0 -10.696
462.658 0.0125829 0 -3.54569
468.3 0.0120097 0 -3.5705
332.335 0.112789 0 -10.7049
396.48 0.0672405 0 -7.46109
465.479 0.0122976 0 -3.55818
401.316 0.0660239 0 -7.48237
398.898 0.0666344 0 -7.4718
330.32 0.113662 0 -10.696
326.291 0.115392 0 -10.6778
457.016 0.013146 0 -3.52022
462.658 0.0125829 0 -3.54569
328.306 0.11453 0 -10.6869
391.644 0.0684397 0 -7.43924
459.837 0.0128657 0 -3.53304
396.48 0.0672405 0 -7.46109
394.062 0.0678423 0 -7.45024
326.291 0.115392 0 -10.6778
322.262 0.117098 0 -10.6591
451.373 0.0136991 0 -3.49409
457.016 0.013146 0 -3.52022
324.276 0.116248 0 -10.6685
386.808 0.0696218 0 -7.41684
454.194 0.0134238 0 -3.50724
391.644 0.0684397 0 -7.43924
389.226 0.0690329 0 -7.42811
322.262 0.117098 0 -10.6591
318.232 0.118782 0 -10.6399
445.731 0.0142422 0 -3.46732
451.373 0.0136991 0 -3.49409
320.247 0.117943 0 -10.6496
381.973 0.0707865 0 -7.39388
448.552 0.0139719 0 -3.48079
386.808 0.0696218 0 -7.41684
384.391 0.0702063 0 -7.40543
318.232 0.118782 0 -10.6399
314.203 0.120442 0 -10.6203
440.089 0.0147752 0 -3.43991
445.731 0.0142422 0 -3.46732
316.218 0.119615 0 -10.6302
377.137 0.071934 0 -7.37037
442.91 0.0145099 0 -3.4537
381.973 0.0707865 0 -7.39388
379.555 0.0713624 0 -7.38219
314.203 0.120442 0 -10.6203
310.174 0.122079 0 -10.6003
434.447 0.0152981 0 -3.41188
440.089 0.0147752 0 -3.43991
312.188 0.121263 0 -10.6104
372.302 0.0730641 0 -7.34633
437.268 0.0150379 0 -3.42597
377.137 0.071934 0 -7.37037
374.719 0.0725012 0 -7.35842
310.174 0.122079 0 -10.6003
306.145 0.123692 0 -10.5798
428.805 0.0158109 0 -3.38322
434.447 0.0152981 0 -3.41188
308.159 0.122888 0 -10.5901
367.466 0.074177 0 -7.32175
431.626 0.0155558 0 -3.39762
372.302 0.0730641 0 -7.34633
369.884 0.0736227 0 -7.3341
306.145 0.123692 0 -10.5798
302.115 0.125283 0 -10.5589
423.163 0.0163137 0 -3.35394
428.805 0.0158109 0 -3.38322
304.13 0.12449 0 -10.5694
362.631 0.0752725 0 -7.29664
425.984 0.0160636 0 -3.36866
367.466 0.074177 0 -7.32175
365.048 0.0747269 0 -7.30926
302.115 0.125283 0 -10.5589
298.086 0.12685 0 -10.5375
417.521 0.0168064 0 -3.32406
423.163 0.0163137 0 -3.35394
300.101 0.126069 0 -10.5482
357.795 0.0763508 0 -7.27102
420.342 0.0165613 0 -3.33908
362.631 0.0752725 0 -7.29664
360.213 0.0758138 0 -7.2839
298.086 0.12685 0 -10.5375
294.057 0.128394 0 -10.5157
411.879 0.0172891 0 -3.29359
417.521 0.0168064 0 -3.32406
296.072 0.127625 0 -10.5267
352.96 0.0774117 0 -7.24488
414.7 0.017049 0 -3.3089
357.795 0.0763508 0 -7.27102
355.377 0.0768834 0 -7.25802
294.057 0.128394 0 -10.5157
290.028 0.129914 0 -10.4935
406.237 0.0177617 0 -3.26252
411.879 0.0172891 0 -3.29359
292.043 0.129157 0 -10.5047
348.124 0.0784553 0 -7.21824
409.058 0.0175266 0 -3.27813
352.96 0.0774117 0 -7.24488
350.542 0.0779357 0 -7.23163
290.028 0.129914 0 -10.4935
285.999 0.131412 0 -10.4709
400.595 0.0182243 0 -3.23088
406.237 0.0177617 0 -3.26252
288.014 0.130666 0 -10.4822
343.289 0.0794817 0 -7.19111
403.416 0.0179942 0 -3.24677
348.124 0.0784553 0 -7.21824
345.706 0.0789707 0 -7.20474
285.999 0.131412 0 -10.4709
281.97 0.132886 0 -10.4478
394.954 0.0186768 0 -3.19866
400.595 0.0182243 0 -3.23088
283.984 0.132152 0 -10.4594
338.453 0.0804907 0 -7.16348
397.775 0.0184518 0 -3.21484
343.289 0.0794817 0 -7.19111
340.871 0.0799884 0 -7.17735
281.97 0.132886 0 -10.4478
277.941 0.134337 0 -10.4244
389.312 0.0191194 0 -3.16587
394.954 0.0186768 0 -3.19866
279.955 0.133614 0 -10.4362
333.618 0.0814825 0 -7.13536
392.133 0.0188993 0 -3.18234
338.453 0.0804907 0 -7.16348
336.036 0.0809888 0 -7.14948
277.941 0.134337 0 -10.4244
273.912 0.135764 0 -10.4006
383.67 0.0195519 0 -3.13253
389.312 0.0191194 0 -3.16587
275.926 0.135053 0 -10.4125
328.783 0.082457 0 -7.10677
386.491 0.0193369 0 -3.14927
333.618 0.0814825 0 -7.13536
331.2 0.0819719 0 -7.12113
273.912 0.135764 0 -10.4006
269.883 0.137168 0 -10.3763
378.029 0.0199746 0 -3.09864
383.67 0.0195519 0 -3.13253
271.897 0.136469 0 -10.3885
323.948 0.0834143 0 -7.07771
380.85 0.0197645 0 -3.11565
328.783 0.082457 0 -7.10677
326.365 0.0829378 0 -7.0923
269.883 0.137168 0 -10.3763
265.854 0.13855 0 -10.3517
372.387 0.0203873 0 -3.06421
378.029 0.0199746 0 -3.09864
267.868 0.137862 0 -10.3641
319.112 0.0843543 0 -7.04818
375.208 0.0201822 0 -3.08149
323.948 0.0834143 0 -7.07771
321.53 0.0838865 0 -7.063
265.854 0.13855 0 -10.3517
261.825 0.139908 0 -10.3267
366.746 0.0207901 0 -3.02925
372.387 0.0203873 0 -3.06421
263.839 0.139231 0 -10.3393
314.277 0.0852772 0 -7.0182
369.566 0.0205899 0 -3.04679
319.112 0.0843543 0 -7.04818
316.695 0.0848179 0 -7.03325
261.825 0.139908 0 -10.3267
257.796 0.141242 0 -10.3014
361.104 0.0211831 0 -2.99376
366.746 0.0207901 0 -3.02925
259.81 0.140578 0 -10.3141
309.442 0.0861828 0 -6.98777
363.925 0.0209878 0 -3.01157
314.277 0.0852772 0 -7.0182
311.86 0.0857322 0 -7.00304
257.796 0.141242 0 -10.3014
253.767 0.142554 0 -10.2756
355.463 0.0215662 0 -2.95775
361.104 0.0211831 0 -2.99376
255.781 0.141901 0 -10.2885
304.607 0.0870714 0 -6.9569
358.283 0.0213759 0 -2.97582
309.442 0.0861828 0 -6.98777
307.024 0.0866293 0 -6.97239
253.767 0.142554 0 -10.2756
249.738 0.143842 0 -10.2495
349.821 0.0219396 0 -2.92124
355.463 0.0215662 0 -2.95775
251.753 0.143201 0 -10.2626
299.772 0.0879428 0 -6.92559
352.642 0.0217542 0 -2.93956
304.607 0.0870714 0 -6.9569
302.189 0.0875092 0 -6.9413
249.738 0.143842 0 -10.2495
245.709 0.145107 0 -10.2231
344.18 0.0223033 0 -2.88423
349.821 0.0219396 0 -2.92124
247.724 0.144478 0 -10.2363
294.937 0.0887972 0 -6.89385
347.001 0.0221227 0 -2.9028
299.772 0.0879428 0 -6.92559
297.354 0.0883721 0 -6.90977
245.709 0.145107 0 -10.2231
241.68 0.14635 0 -10.1962
338.539 0.0226573 0 -2.84672
344.18 0.0223033 0 -2.88423
243.695 0.145731 0 -10.2097
290.102 0.0896345 0 -6.86169
341.359 0.0224815 0 -2.86554
294.937 0.0887972 0 -6.89385
292.519 0.0892179 0 -6.87782
241.68 0.14635 0 -10.1962
237.651 0.147569 0 -10.1691
332.897 0.0230017 0 -2.80873
338.539 0.0226573 0 -2.84672
239.666 0.146962 0 -10.1827
285.267 0.0904548 0 -6.82911
335.718 0.0228307 0 -2.82779
290.102 0.0896345 0 -6.86169
287.684 0.0900468 0 -6.84545
237.651 0.147569 0 -10.1691
233.623 0.148765 0 -10.1416
327.256 0.0233364 0 -2.77026
332.897 0.0230017 0 -2.80873
235.637 0.14817 0 -10.1554
280.432 0.0912581 0 -6.79613
330.077 0.0231703 0 -2.78956
285.267 0.0904548 0 -6.82911
282.849 0.0908586 0 -6.81267
233.623 0.148765 0 -10.1416
229.594 0.149938 0 -10.1138
321.615 0.0236617 0 -2.73133
327.256 0.0233364 0 -2.77026
231.608 0.149354 0 -10.1277
275.597 0.0920445 0 -6.76274
324.435 0.0235003 0 -2.75086
280.432 0.0912581 0 -6.79613
278.014 0.0916534 0 -6.77949
229.594 0.149938 0 -10.1138
225.565 0.151088 0 -10.0856
315.974 0.0239775 0 -2.69194
321.615 0.0236617 0 -2.73133
227.579 0.150516 0 -10.0997
270.762 0.0928141 0 -6.72897
318.794 0.0238208 0 -2.71169
275.597 0.0920445 0 -6.76274
273.179 0.0924314 0 -6.7459
225.565 0.151088 0 -10.0856
221.536 0.152215 0 -10.0571
310.333 0.0242839 0 -2.65209
315.974 0.0239775 0 -2.69194
223.551 0.151654 0 -10.0714
265.927 0.0935668 0 -6.6948
313.153 0.0241319 0 -2.67207
270.762 0.0928141 0 -6.72897
268.344 0.0931925 0 -6.71193
221.536 0.152215 0 -10.0571
217.508 0.153319 0 -10.0283
304.692 0.0245809 0 -2.6118
310.333 0.0242839 0 -2.65209
219.522 0.15277 0 -10.0428
261.092 0.0943027 0 -6.66025
307.512 0.0244336 0 -2.632
265.927 0.0935668 0 -6.6948
263.509 0.0939369 0 -6.67757
217.508 0.153319 0 -10.0283
213.479 0.1544 0 -9.99921
299.05 0.0248687 0 -2.57107
304.692 0.0245809 0 -2.6118
215.493 0.153862 0 -10.0138
256.257 0.095022 0 -6.62533
301.871 0.024726 0 -2.59149
261.092 0.0943027 0 -6.66025
258.675 0.0946644 0 -6.64284
213.479 0.1544 0 -9.99921
209.45 0.155459 0 -9.9698
293.409 0.0251473 0 -2.52992
299.05 0.0248687 0 -2.57107
211.464 0.154932 0 -9.98454
251.422 0.0957245 0 -6.59005
296.23 0.0250091 0 -2.55055
256.257 0.095022 0 -6.62533
253.84 0.0953753 0 -6.60773
209.45 0.155459 0 -9.9698
205.421 0.156494 0 -9.94008
287.769 0.0254167 0 -2.48835
293.409 0.0251473 0 -2.52992
207.436 0.155979 0 -9.95498
246.588 0.0964105 0 -6.5544
290.589 0.0252831 0 -2.50919
251.422 0.0957245 0 -6.59005
249.005 0.0960696 0 -6.57227
205.421 0.156494 0 -9.94008
201.393 0.157507 0 -9.91007
282.128 0.025677 0 -2.44636
287.769 0.0254167 0 -2.48835
203.407 0.157004 0 -9.92512
241.753 0.0970799 0 -6.5184
284.948 0.025548 0 -2.46741
246.588 0.0964105 0 -6.5544
244.17 0.0967472 0 -6.53644
201.393 0.157507 0 -9.91007
197.364 0.158498 0 -9.87978
276.487 0.0259284 0 -2.40398
282.128 0.025677 0 -2.44636
199.378 0.158005 0 -9.89496
236.918 0.0977328 0 -6.48206
279.307 0.0258038 0 -2.42522
241.753 0.0970799 0 -6.5184
239.335 0.0974084 0 -6.50027
197.364 0.158498 0 -9.87978
193.335 0.159465 0 -9.8492
270.846 0.0261708 0 -2.36119
276.487 0.0259284 0 -2.40398
195.35 0.158984 0 -9.86452
232.083 0.0983692 0 -6.44537
273.666 0.0260507 0 -2.38263
236.918 0.0977328 0 -6.48206
234.501 0.0980531 0 -6.46376
193.335 0.159465 0 -9.8492
189.307 0.16041 0 -9.81834
265.205 0.0264045 0 -2.31802
270.846 0.0261708 0 -2.36119
191.321 0.159941 0 -9.83381
227.249 0.0989894 0 -6.40836
268.026 0.0262887 0 -2.33966
232.083 0.0983692 0 -6.44537
229.666 0.0986813 0 -6.42691
189.307 0.16041 0 -9.81834
185.278 0.161333 0 -9.78722
259.564 0.0266293 0 -2.27447
265.205 0.0264045 0 -2.31802
187.293 0.160874 0 -9.80281
222.414 0.0995932 0 -6.37102
262.385 0.026518 0 -2.29629
227.249 0.0989894 0 -6.40836
224.831 0.0992933 0 -6.38973
185.278 0.161333 0 -9.78722
181.25 0.162233 0 -9.75583
253.924 0.0268455 0 -2.23055
259.564 0.0266293 0 -2.27447
183.264 0.161786 0 -9.77155
217.58 0.100181 0 -6.33336
256.744 0.0267385 0 -2.25256
222.414 0.0995932 0 -6.37102
219.997 0.099889 0 -6.35223
181.25 0.162233 0 -9.75583
177.221 0.16311 0 -9.72418
248.283 0.0270532 0 -2.18627
253.924 0.0268455 0 -2.23055
179.235 0.162674 0 -9.74003
212.745 0.100752 0 -6.29539
251.103 0.0269504 0 -2.20845
217.58 0.100181 0 -6.33336
215.162 0.100468 0 -6.31441
177.221 0.16311 0 -9.72418
173.193 0.163965 0 -9.69227
242.643 0.0272523 0 -2.14163
248.283 0.0270532 0 -2.18627
175.207 0.163541 0 -9.70826
207.91 0.101308 0 -6.25712
245.463 0.0271538 0 -2.16399
212.745 0.100752 0 -6.29539
210.328 0.101032 0 -6.27629
173.193 0.163965 0 -9.69227
169.164 0.164798 0 -9.66012
237.002 0.027443 0 -2.09664
242.643 0.0272523 0 -2.14163
171.178 0.164385 0 -9.67623
203.076 0.101847 0 -6.21854
239.822 0.0273487 0 -2.11918
207.91 0.101308 0 -6.25712
205.493 0.101579 0 -6.23787
169.164 0.164798 0 -9.66012
165.136 0.165609 0 -9.62773
231.361 0.0276255 0 -2.05132
237.002 0.027443 0 -2.09664
167.15 0.165206 0 -9.64395
198.241 0.10237 0 -6.17968
234.182 0.0275353 0 -2.07402
203.076 0.101847 0 -6.21854
200.659 0.102111 0 -6.19915
165.136 0.165609 0 -9.62773
161.107 0.166397 0 -9.5951
225.721 0.0277997 0 -2.00566
231.361 0.0276255 0 -2.05132
163.121 0.166006 0 -9.61144
193.407 0.102878 0 -6.14054
228.541 0.0277136 0 -2.02853
198.241 0.10237 0 -6.17968
195.824 0.102626 0 -6.16015
161.107 0.166397 0 -9.5951
157.079 0.167164 0 -9.56224
220.08 0.0279658 0 -1.95969
225.721 0.0277997 0 -2.00566
159.093 0.166783 0 -9.5787
188.573 0.10337 0 -6.10112
222.901 0.0278837 0 -1.98272
193.407 0.102878 0 -6.14054
190.99 0.103126 0 -6.12086
157.079 0.167164 0 -9.56224
153.05 0.167908 0 -9.52915
214.44 0.0281238 0 -1.91339
220.08 0.0279658 0 -1.95969
155.064 0.167539 0 -9.54572
183.738 0.103846 0 -6.06143
217.26 0.0280458 0 -1.93658
188.573 0.10337 0 -6.10112
186.155 0.10361 0 -6.0813
153.05 0.167908 0 -9.52915
149.022 0.16863 0 -9.49585
208.8 0.028274 0 -1.86679
214.44 0.0281238 0 -1.91339
151.036 0.168272 0 -9.51253
178.904 0.104306 0 -6.02147
211.62 0.0281999 0 -1.89013
183.738 0.103846 0 -6.06143
181.321 0.104078 0 -6.04148
149.022 0.16863 0 -9.49585
144.993 0.16933 0 -9.46233
203.159 0.0284164 0 -1.8199
208.8 0.028274 0 -1.86679
147.008 0.168983 0 -9.47912
174.069 0.104751 0 -5.98126
205.98 0.0283462 0 -1.84338
178.904 0.104306 0 -6.02147
176.487 0.104531 0 -6.0014
144.993 0.16933 0 -9.46233
140.965 0.170009 0 -9.42861
197.519 0.028551 0 -1.77271
203.159 0.0284164 0 -1.8199
142.979 0.169672 0 -9.4455
169.235 0.105181 0 -5.9408
200.339 0.0284847 0 -1.79634
174.069 0.104751 0 -5.98126
171.652 0.104968 0 -5.96106
140.965 0.170009 0 -9.42861
136.937 0.170666 0 -9.39468
191.879 0.0286781 0 -1.72524
197.519 0.028551 0 -1.77271
138.951 0.17034 0 -9.41167
164.401 0.105595 0 -5.9001
194.699 0.0286155 0 -1.74901
169.235 0.105181 0 -5.9408
166.818 0.10539 0 -5.92048
136.937 0.170666 0 -9.39468
132.908 0.1713 0 -9.36056
186.239 0.0287977 0 -1.6775
191.879 0.0286781 0 -1.72524
134.922 0.170986 0 -9.37765
159.567 0.105994 0 -5.85917
189.059 0.0287388 0 -1.7014
164.401 0.105595 0 -5.9001
161.984 0.105796 0 -5.87967
132.908 0.1713 0 -9.36056
128.88 0.171914 0 -9.32625
180.598 0.0289098 0 -1.62949
186.239 0.0287977 0 -1.6775
130.894 0.17161 0 -9.34343
154.732 0.106378 0 -5.81801
183.419 0.0288547 0 -1.65352
159.567 0.105994 0 -5.85917
157.149 0.106188 0 -5.83862
128.88 0.171914 0 -9.32625
124.852 0.172505 0 -9.29175
174.958 0.0290147 0 -1.58122
180.598 0.0289098 0 -1.62949
126.866 0.172212 0 -9.30902
149.898 0.106746 0 -5.77662
177.778 0.0289632 0 -1.60538
154.732 0.106378 0 -5.81801
152.315 0.106564 0 -5.79734
124.852 0.172505 0 -9.29175
120.823 0.173075 0 -9.25708
169.318 0.0291125 0 -1.5327
174.958 0.0290147 0 -1.58122
122.837 0.172793 0 -9.27444
145.064 0.1071 0 -5.73502
172.138 0.0290645 0 -1.55699
149.898 0.106746 0 -5.77662
147.481 0.106925 0 -5.75585
120.823 0.173075 0 -9.25708
116.795 0.173624 0 -9.22223
163.678 0.0292032 0 -1.48394
169.318 0.0291125 0 -1.5327
118.809 0.173352 0 -9.23968
140.23 0.107439 0 -5.69322
166.498 0.0291587 0 -1.50835
145.064 0.1071 0 -5.73502
142.647 0.107271 0 -5.71415
116.795 0.173624 0 -9.22223
112.767 0.174151 0 -9.18722
158.038 0.029287 0 -1.43494
163.678 0.0292032 0 -1.48394
114.781 0.17389 0 -9.20475
135.396 0.107763 0 -5.65121
160.858 0.0292459 0 -1.45947
140.23 0.107439 0 -5.69322
137.813 0.107603 0 -5.67224
112.767 0.174151 0 -9.18722
108.738 0.174656 0 -9.15205
152.398 0.029364 0 -1.38572
158.038 0.029287 0 -1.43494
110.752 0.174406 0 -9.16966
130.562 0.108072 0 -5.60901
155.218 0.0293263 0 -1.41036
135.396 0.107763 0 -5.65121
132.979 0.107919 0 -5.63014
108.738 0.174656 0 -9.15205
104.71 0.175139 0 -9.11672
146.758 0.0294343 0 -1.33629
152.398 0.029364 0 -1.38572
106.724 0.1749 0 -9.13441
125.728 0.108367 0 -5.56663
149.578 0.0293999 0 -1.36103
130.562 0.108072 0 -5.60901
128.145 0.108221 0 -5.58784
104.71 0.175139 0 -9.11672
100.682 0.175601 0 -9.08125
141.118 0.0294981 0 -1.28664
146.758 0.0294343 0 -1.33629
102.696 0.175373 0 -9.099
120.893 0.108646 0 -5.52407
143.938 0.029467 0 -1.31149
125.728 0.108367 0 -5.56663
123.31 0.108508 0 -5.54537
100.682 0.175601 0 -9.08125
96.6537 0.17604 0 -9.04563
135.478 0.0295555 0 -1.23679
141.118 0.0294981 0 -1.28664
98.6678 0.175823 0 -9.06346
116.059 0.108911 0 -5.48133
138.298 0.0295276 0 -1.26174
120.893 0.108646 0 -5.52407
118.476 0.108781 0 -5.50272
96.6537 0.17604 0 -9.04563
92.6255 0.176455 0 -9.00989
129.839 0.029607 0 -1.18675
135.478 0.0295555 0 -1.23679
94.6396 0.17625 0 -9.02778
111.225 0.109161 0 -5.43844
132.658 0.029582 0 -1.21179
116.059 0.108911 0 -5.48133
113.642 0.109038 0 -5.45991
92.6255 0.176455 0 -9.00989
88.5973 0.176846 0 -8.97401
124.199 0.0296522 0 -1.13652
129.839 0.029607 0 -1.18675
90.6114 0.176654 0 -8.99196
106.391 0.109395 0 -5.39539
127.019 0.0296302 0 -1.16166
111.225 0.109161 0 -5.43844
108.808 0.10928 0 -5.41693
88.5973 0.176846 0 -8.97401
84.5691 0.17721 0 -8.93803
118.559 0.0296928 0 -1.08611
124.199 0.0296522 0 -1.13652
86.5832 0.177031 0 -8.95603
101.557 0.109614 0 -5.3522
121.379 0.0296731 0 -1.11134
106.391 0.109395 0 -5.39539
103.974 0.109507 0 -5.37381
84.5691 0.17721 0 -8.93803
80.5409 0.177547 0 -8.90193
112.919 0.0297276 0 -1.03554
118.559 0.0296928 0 -1.08611
82.555 0.177382 0 -8.91999
96.7234 0.109815 0 -5.30888
115.739 0.0297107 0 -1.06085
101.557 0.109614 0 -5.3522
99.1404 0.109716 0 -5.33056
80.5409 0.177547 0 -8.90193
76.5128 0.177858 0 -8.86574
107.279 0.0297605 0 -0.9848
112.919 0.0297276 0 -1.03554
78.5268 0.177705 0 -8.88385
91.8894 0.109998 0 -5.26544
110.099 0.0297441 0 -1.01019
96.7234 0.109815 0 -5.30888
94.3064 0.109909 0 -5.28717
76.5128 0.177858 0 -8.86574
72.4847 0.17815 0 -8.82946
101.639 0.02979 0 -0.933908
107.279 0.0297605 0 -0.9848
74.4987 0.178006 0 -8.84762
87.0554 0.110165 0 -5.22189
104.459 0.0297761 0 -0.959371
91.8894 0.109998 0 -5.26544
89.4724 0.110083 0 -5.24368
72.4847 0.17815 0 -8.82946
68.4567 0.178455 0 -8.79307
95.9991 0.0298202 0 -0.882871
101.639 0.02979 0 -0.933908
70.4707 0.178297 0 -8.81128
82.2214 0.110318 0 -5.17824
98.8192 0.0298027 0 -0.908409
87.0554 0.110165 0 -5.22189
84.6384 0.110244 0 -5.20008
68.4567 0.178455 0 -8.79307
64.4288 0.178841 0 -8.7565
90.3588 0.0298612 0 -0.831703
95.9991 0.0298202 0 -0.882871
66.4427 0.178631 0 -8.77481
77.3874 0.110479 0 -5.13446
93.1789 0.0298458 0 -0.857295
82.2214 0.110318 0 -5.17824
79.8044 0.110394 0 -5.15637
64.4288 0.178841 0 -8.7565
60.4011 0.179489 0 -8.71955
84.7181 0.0298748 0 -0.780406
90.3588 0.0298612 0 -0.831703
62.4149 0.179112 0 -8.7381
72.5535 0.110671 0 -5.09044
87.5385 0.0298547 0 -0.806083
77.3874 0.110479 0 -5.13446
74.9704 0.110571 0 -5.11249
60.4011 0.179489 0 -8.71955
56.3739 0.180738 0 -8.68182
79.0775 0.0299913 0 -0.729053
84.7181 0.0298748 0 -0.780406
58.3875 0.180008 0 -8.70082
67.7201 0.111026 0 -5.04596
81.8978 0.0299679 0 -0.754697
72.5535 0.110671 0 -5.09044
70.1367 0.110813 0 -5.06829
56.3739 0.180738 0 -8.68182
52.3475 0.183389 0 -8.64226
73.4371 0.0298046 0 -0.677559
79.0775 0.0299913 0 -0.729053
54.3605 0.181809 0 -8.66237
62.8879 0.111659 0 -5.00031
76.2573 0.0298316 0 -0.703389
67.7201 0.111026 0 -5.04596
65.3039 0.111309 0 -5.02333
52.3475 0.183389 0 -8.64226
48.3221 0.188677 0 -8.59917
67.7997 0.0302787 0 -0.626351
73.4371 0.0298046 0 -0.677559
50.3348 0.185587 0 -8.6213
58.0591 0.113139 0 -4.95235
70.6178 0.0302461 0 -0.65175
62.8879 0.111659 0 -5.00031
60.4728 0.112223 0 -4.97677
48.3221 0.188677 0 -8.59917
44.2992 0.199565 0 -8.54843
62.1669 0.0286949 0 -0.574765
67.7997 0.0302787 0 -0.626351
46.31 0.193177 0 -8.57516
53.2361 0.115921 0 -4.89918
64.9826 0.0291415 0 -0.600915
58.0591 0.113139 0 -4.95235
55.6468 0.114402 0 -4.92659
44.2992 0.199565 0 -8.54843
40.277 0.219422 0 -8.48441
56.5539 0.0309088 0 -0.524984
62.1669 0.0286949 0 -0.574765
42.2885 0.207981 0 -8.51852
48.4278 0.122001 0 -4.83623
59.3567 0.0309047 0 -0.548945
53.2361 0.115921 0 -4.89918
50.8291 0.11822 0 -4.86958
40.277 0.219422 0 -8.48441
36.2608 0.257775 0 -8.39367
50.967 0.0215768 0 -0.473334
56.5539 0.0309088 0 -0.524984
38.267 0.235787 0 -8.44368
43.6426 0.132906 0 -4.75384
53.7565 0.024384 0 -0.500818
48.4278 0.122001 0 -4.83623
46.0324 0.127195 0 -4.79779
36.2608 0.257775 0 -8.39367
32.2357 0.319308 0 -8.26247
45.4713 0.0323183 0 -0.429627
50.967 0.0215768 0 -0.473334
34.252 0.284408 0 -8.33407
38.9106 0.154449 0 -4.63664
48.203 0.0326699 0 -0.447485
43.6426 0.132906 0 -4.75384
41.266 0.14079 0 -4.7023
32.2357 0.319308 0 -8.26247
28.2162 0.431134 0 -8.05614
40.0829 -0.0154065 0 -0.376894
45.4713 0.0323183 0 -0.429627
30.2215 0.369192 0 -8.17204
34.2487 0.191436 0 -4.4599
42.7608 -0.00150214 0 -0.410976
38.9106 0.154449 0 -4.63664
36.5732 0.173331 0 -4.55506
28.2162 0.431134 0 -8.05614
24.1208 0.574375 0 -7.76085
35.0394 0.0350653 0 -0.354643
40.0829 -0.0154065 0 -0.376894
26.19 0.494906 0 -7.91987
29.7479 0.257299 0 -4.17858
37.5044 0.0388328 0 -0.348475
34.2487 0.191436 0 -4.4599
31.9634 0.213611 0 -4.34308
24.1208 0.574375 0 -7.76085
19.975 0.812986 0 -7.32434
30.3611 -0.190335 0 -0.293698
35.0394 0.0350653 0 -0.354643
22.0434 0.692381 0 -7.56461
25.389 0.365533 0 -3.7591
32.6378 -0.129541 0 -0.360422
29.7479 0.257299 0 -4.17858
27.57 0.318542 0 -3.97506
19.975 0.812986 0 -7.32434
15.4075 0.917718 0 -6.85456
26.7944 0.0385633 0 -0.331791
30.3611 -0.190335 0 -0.293698
17.7926 0.871828 0 -7.08224
21.4007 0.533534 0 -3.09777
28.4235 0.0656504 0 -0.238188
25.389 0.365533 0 -3.7591
23.2956 0.412261 0 -3.49879
15.4075 0.917718 0 -6.85456
10.4442 0.89548 0 -6.53186
24.4604 -0.858279 0 -0.100613
26.7944 0.0385633 0 -0.331791
12.9487 1.01464 0 -6.64655
17.2614 0.763478 0 -2.37893
25.3427 -0.700607 0 -0.425451
21.4007 0.533534 0 -3.09777
19.4765 0.697046 0 -2.66361
10.4442 0.89548 0 -6.53186
4.03808 -1.12934 0 -7.58065
26.3934 0.792271 0 0.572451
24.4604 -0.858279 0 -0.100613
7.55293 0.189704 0 -6.768
12.7272 0.634624 0 -1.91686
24.922 0.543868 0 0.350138
17.2614 0.763478 0 -2.37893
14.94 0.718034 0 -2.19964
4.03808 -1.12934 0 -7.58065
-1.20935 -9.26563 0 -11.6299
36.8787 3.72627 0 6.01125
26.3934 0.792271 0 0.572451
1.03131 -3.25902 0 -9.00679
1.51085 -5.17498 0 -6.72279
29.229 -1.17316 0 1.41786
12.7272 0.634624 0 -1.91686
8.99779 -0.367085 0 -2.81212
-1.20935 -9.26563 0 -11.6299
0.412591 -40.1138 0 -12.0968
5.06498 -51.1501 0 -32.1211
36.8787 3.72627 0 6.01125
-2.03408 -21.9178 0 -13.8231
-4.18783 -50.6429 0 -19.2781
38.5365 9.224 0 2.55158
1.51085 -5.17498 0 -6.72279
-3.78812 -17.2036 0 -12.5499
      </DataArray> 
      <DataArray type="Float64" NumberOfComponents="4" Name="GreenStrain" format="ascii">
-0.000744004 -1.11022e-16 0.000318859 -0.000252943
-0.000530497 0.000168167 0.000155284 9.69781e-06
-0.00038074 7.55327e-05 0.000130803 -2.83403e-05
-0.000338179 0 0.000144934 -1.93841e-05
-0.000590128 0.000187449 0.000172576 -3.56329e-05
-0.00048164 0.00011705 0.000156253 -3.6723e-05
-0.000362059 3.56737e-05 0.000139879 -3.28837e-05
-0.000397505 0 0.000170359 -6.1404e-05
-0.000464644 7.91967e-05 0.000165192 -5.75743e-05
-0.000530497 0.000168167 0.000155284 9.69781e-06
-0.000524249 0.000162453 0.000155055 3.01197e-06
-0.0003956 0.000107142 0.000123625 -1.34987e-05
-0.00038074 7.55327e-05 0.000130803 -2.83403e-05
-0.000522694 0.000155175 0.000157508 4.24956e-06
-0.000470911 0.000137277 0.000142986 -6.16522e-06
-0.000392496 9.78411e-05 0.000126281 -2.04404e-05
-0.00048164 0.00011705 0.000156253 -3.6723e-05
-0.000474922 0.000132611 0.000146704 -1.48776e-05
-0.000524249 0.000162453 0.000155055 3.01197e-06
-0.000531659 0.000157849 0.000160205 1.39964e-06
-0.000393692 0.000116003 0.00011901 -5.02974e-06
-0.0003956 0.000107142 0.000123625 -1.34987e-05
-0.000529218 0.000162111 0.000157332 3.05028e-06
-0.000465979 0.000139693 0.000139837 -6.42079e-07
-0.000394512 0.000112654 0.000120796 -7.93861e-06
-0.000470911 0.000137277 0.000142986 -6.16522e-06
-0.00046835 0.000139012 0.000141145 -2.99627e-06
-0.000531659 0.000157849 0.000160205 1.39964e-06
-0.000534693 0.000160921 0.000160188 -1.61491e-07
-0.000390919 0.000117215 0.000117302 -3.14593e-06
-0.000393692 0.000116003 0.00011901 -5.02974e-06
-0.000533006 0.000158383 0.000160553 -2.78239e-07
-0.000463266 0.000139401 0.000138799 1.57816e-07
-0.000392656 0.000117179 0.000118062 -3.76308e-06
-0.000465979 0.000139693 0.000139837 -6.42079e-07
-0.000464164 0.000139686 0.000139062 3.98286e-07
-0.000534693 0.000160921 0.000160188 -1.61491e-07
-0.000536245 0.000160341 0.000161102 1.08283e-07
-0.000387718 0.000117014 0.000116016 -3.06474e-06
-0.000390919 0.000117215 0.000117302 -3.14593e-06
-0.00053601 0.000161169 0.000160646 2.69294e-07
-0.000461911 0.000138954 0.00013841 -6.60868e-07
-0.000389076 0.000117153 0.000116538 -2.91797e-06
-0.000463266 0.000139401 0.000138799 1.57816e-07
-0.000462708 0.000139167 0.000138661 -3.70216e-07
-0.000536245 0.000160341 0.000161102 1.08283e-07
-0.000535651 0.000160799 0.000160651 -9.93844e-08
-0.000385287 0.000116154 0.000115343 -3.70807e-06
-0.000387718 0.000117014 0.000116016 -3.06474e-06
-0.000535944 0.000160402 0.000160946 -1.70176e-07
-0.00046023 0.000138349 0.000137949 -1.41351e-06
-0.000386552 0.000116639 0.000115677 -3.40315e-06
-0.000461911 0.000138954 0.00013841 -6.60868e-07
-0.000461033 0.000138672 0.000138154 -9.9491e-07
-0.000535651 0.000160799 0.000160651 -9.93844e-08
-0.00053434 0.000160206 0.000160343 5.42049e-09
-0.000382935 0.000115315 0.000114695 -4.2481e-06
-0.000385287 0.000116154 0.000115343 -3.70807e-06
-0.00053518 0.00016064 0.000160517 3.10262e-08
-0.000458445 0.000137699 0.000137463 -2.00647e-06
-0.000384041 0.000115717 0.000114996 -3.97877e-06
-0.00046023 0.000138349 0.000137949 -1.41351e-06
-0.000459402 0.000138025 0.000137733 -1.76683e-06
-0.00053434 0.000160206 0.000160343 5.42049e-09
-0.000532219 0.000159712 0.000159646 -3.22131e-08
-0.000380824 0.000114499 0.000114139 -4.688e-06
-0.000382935 0.000115315 0.000114695 -4.2481e-06
-0.000533298 0.000159932 0.000160014 -5.42827e-08
-0.000456379 0.000137014 0.000136871 -2.38818e-06
-0.00038189 0.000114904 0.000114423 -4.4971e-06
-0.000458445 0.000137699 0.000137463 -2.00647e-06
-0.000457418 0.000137361 0.000137167 -2.21065e-06
-0.000532219 0.000159712 0.000159646 -3.22131e-08
-0.000529817 0.000158954 0.000158941 -3.77894e-09
-0.000378737 0.000113761 0.000113561 -4.95513e-06
-0.000380824 0.000114499 0.000114139 -4.688e-06
-0.000531069 0.000159366 0.000159301 1.28703e-09
-0.000454192 0.000136309 0.000136236 -2.6146e-06
-0.000379764 0.00011412 0.000113848 -4.83471e-06
-0.000456379 0.000137014 0.000136871 -2.38818e-06
-0.00045531 0.000136663 0.000136563 -2.52149e-06
-0.000529817 0.000158954 0.000158941 -3.77894e-09
-0.000527174 0.00015819 0.000158136 -8.97656e-09
-0.000376706 0.000113072 0.000112986 -5.12352e-06
-0.000378737 0.000113761 0.000113561 -4.95513e-06
-0.000528504 0.000158568 0.000158544 -1.57721e-08
-0.000451889 0.000135594 0.000135555 -2.74474e-06
-0.000377724 0.000113412 0.000113277 -5.05259e-06
-0.000454192 0.000136309 0.000136236 -2.6146e-06
-0.000453045 0.000135952 0.000135897 -2.68808e-06
-0.000527174 0.00015819 0.000158136 -8.97656e-09
-0.000524446 0.000157365 0.00015732 -2.01901e-09
-0.000374679 0.00011242 0.000112397 -5.21369e-06
-0.000376706 0.000113072 0.000112986 -5.12352e-06
-0.000525822 0.000157785 0.00015773 -8.86701e-10
-0.000449537 0.000134872 0.000134856 -2.81213e-06
-0.000375689 0.000112742 0.000112692 -5.17486e-06
-0.000451889 0.000135594 0.000135555 -2.74474e-06
-0.00045072 0.000135234 0.000135209 -2.78464e-06
-0.000524446 0.000157365 0.00015732 -2.01901e-09
-0.000521659 0.000156534 0.000156482 -2.17462e-09
-0.000372664 0.000111789 0.000111803 -5.26329e-06
-0.000374679 0.00011242 0.000112397 -5.21369e-06
-0.000523055 0.000156949 0.000156903 -4.12336e-09
-0.000447148 0.000134149 0.000134142 -2.84723e-06
-0.000373672 0.000112102 0.000112101 -5.24293e-06
-0.000449537 0.000134872 0.000134856 -2.81213e-06
-0.000448344 0.000134511 0.0001345 -2.8326e-06
-0.000521659 0.000156534 0.000156482 -2.17462e-09
-0.000518852 0.00015569 0.000155641 -6.31998e-10
-0.000370648 0.000111171 0.000111204 -5.2871e-06
-0.000372664 0.000111789 0.000111803 -5.26329e-06
-0.000520257 0.000156113 0.000156062 -3.56287e-10
-0.000444745 0.000133424 0.000133423 -2.86322e-06
-0.000371655 0.000111479 0.000111504 -5.27722e-06
-0.000447148 0.000134149 0.000134142 -2.84723e-06
-0.000445948 0.000133786 0.000133784 -2.85688e-06
-0.000518852 0.00015569 0.000155641 -6.31998e-10
-0.000516033 0.000154845 0.000154795 -4.2977e-10
-0.000368633 0.000110561 0.000110603 -5.29859e-06
-0.000370648 0.000111171 0.000111204 -5.2871e-06
-0.000517443 0.000155268 0.000155218 -9.27776e-10
-0.000442332 0.000132699 0.0001327 -2.8705e-06
-0.000369641 0.000110865 0.000110904 -5.29405e-06
-0.000444745 0.000133424 0.000133423 -2.86322e-06
-0.000443539 0.000133061 0.000133062 -2.86762e-06
-0.000516033 0.000154845 0.000154795 -4.2977e-10
-0.000513213 0.000153999 0.000153949 -1.34792e-10
-0.000366619 0.000109954 0.000109999 -5.30328e-06
-0.000368633 0.000110561 0.000110603 -5.29859e-06
-0.000514623 0.000154422 0.000154372 -6.13492e-11
-0.000439916 0.000131973 0.000131976 -2.87316e-06
-0.000367626 0.000110257 0.000110301 -5.30144e-06
-0.000442332 0.000132699 0.0001327 -2.8705e-06
-0.000441124 0.000132336 0.000132338 -2.87219e-06
-0.000513213 0.000153999 0.000153949 -1.34792e-10
-0.000510391 0.000153152 0.000153102 -5.19282e-11
-0.000364604 0.000109348 0.000109395 -5.30508e-06
-0.000366619 0.000109954 0.000109999 -5.30328e-06
-0.000511802 0.000153575 0.000153526 -1.60814e-10
-0.000437499 0.000131248 0.00013125 -2.87401e-06
-0.000365611 0.000109651 0.000109697 -5.30443e-06
-0.000439916 0.000131973 0.000131976 -2.87316e-06
-0.000438707 0.000131611 0.000131613 -2.87372e-06
-0.000510391 0.000153152 0.000153102 -5.19282e-11
-0.000507569 0.000152305 0.000152256 -1.1539e-11
-0.000362589 0.000108744 0.000108791 -5.3055e-06
-0.000364604 0.000109348 0.000109395 -5.30508e-06
-0.00050898 0.000152729 0.000152679 1.01774e-11
-0.000435081 0.000130523 0.000130525 -2.87406e-06
-0.000363596 0.000109046 0.000109093 -5.30538e-06
-0.000437499 0.000131248 0.00013125 -2.87401e-06
-0.00043629 0.000130885 0.000130888 -2.87408e-06
-0.000507569 0.000152305 0.000152256 -1.1539e-11
-0.000504747 0.000151459 0.000151409 7.65591e-12
-0.000360574 0.00010814 0.000108186 -5.30548e-06
-0.000362589 0.000108744 0.000108791 -5.3055e-06
-0.000506158 0.000151882 0.000151833 -1.09344e-11
-0.000432662 0.000129797 0.000129799 -2.8739e-06
-0.000361581 0.000108442 0.000108488 -5.30552e-06
-0.000435081 0.000130523 0.000130525 -2.87406e-06
-0.000433872 0.00013016 0.000130162 -2.87398e-06
-0.000504747 0.000151459 0.000151409 7.65591e-12
-0.000501926 0.000150612 0.000150563 6.96959e-12
-0.000358559 0.000107536 0.000107581 -5.30531e-06
-0.000360574 0.00010814 0.000108186 -5.30548e-06
-0.000503337 0.000151035 0.000150986 1.39297e-11
-0.000430244 0.000129072 0.000129074 -2.8737e-06
-0.000359566 0.000107838 0.000107884 -5.30539e-06
-0.000432662 0.000129797 0.000129799 -2.8739e-06
-0.000431453 0.000129435 0.000129437 -2.8738e-06
-0.000501926 0.000150612 0.000150563 6.96959e-12
-0.000499106 0.000149766 0.000149717 8.92597e-12
-0.000356543 0.000106932 0.000106976 -5.30515e-06
-0.000358559 0.000107536 0.000107581 -5.30531e-06
-0.000500516 0.000150189 0.00015014 7.35243e-12
-0.000427826 0.000128347 0.000128348 -2.87356e-06
-0.000357551 0.000107234 0.000107279 -5.30522e-06
-0.000430244 0.000129072 0.000129074 -2.8737e-06
-0.000429035 0.00012871 0.000128711 -2.87362e-06
-0.000499106 0.000149766 0.000149717 8.92597e-12
-0.000496285 0.000148919 0.000148871 5.62122e-12
-0.000354528 0.000106328 0.000106372 -5.30503e-06
-0.000356543 0.000106932 0.000106976 -5.30515e-06
-0.000497695 0.000149343 0.000149294 7.9026e-12
-0.000425408 0.000127622 0.000127623 -2.87346e-06
-0.000355536 0.00010663 0.000106674 -5.30508e-06
-0.000427826 0.000128347 0.000128348 -2.87356e-06
-0.000426617 0.000127985 0.000127986 -2.8735e-06
-0.000496285 0.000148919 0.000148871 5.62122e-12
-0.000493464 0.000148073 0.000148025 4.93094e-12
-0.000352513 0.000105724 0.000105767 -5.30496e-06
-0.000354528 0.000106328 0.000106372 -5.30503e-06
-0.000494875 0.000148496 0.000148448 5.41275e-12
-0.00042299 0.000126897 0.000126897 -2.8734e-06
-0.000353521 0.000106026 0.000106069 -5.30499e-06
-0.000425408 0.000127622 0.000127623 -2.87346e-06
-0.000424199 0.000127259 0.00012726 -2.87342e-06
-0.000493464 0.000148073 0.000148025 4.93094e-12
-0.000490644 0.000147227 0.000147179 3.30592e-12
-0.000350498 0.00010512 0.000105162 -5.30491e-06
-0.000352513 0.000105724 0.000105767 -5.30496e-06
-0.000492054 0.00014765 0.000147602 4.02446e-12
-0.000420573 0.000126172 0.000126172 -2.87337e-06
-0.000351505 0.000105422 0.000105464 -5.30493e-06
-0.00042299 0.000126897 0.000126897 -2.8734e-06
-0.000421782 0.000126534 0.000126535 -2.87338e-06
-0.000490644 0.000147227 0.000147179 3.30592e-12
-0.000487823 0.000146381 0.000146333 2.79315e-12
-0.000348483 0.000104516 0.000104557 -5.30489e-06
-0.000350498 0.00010512 0.000105162 -5.30491e-06
-0.000489234 0.000146804 0.000146756 3.10455e-12
-0.000418155 0.000125447 0.000125446 -2.87335e-06
-0.00034949 0.000104818 0.00010486 -5.3049e-06
-0.000420573 0.000126172 0.000126172 -2.87337e-06
-0.000419364 0.000125809 0.000125809 -2.87336e-06
-0.000487823 0.000146381 0.000146333 2.79357e-12
-0.000485003 0.000145534 0.000145487 2.20582e-12
-0.000346467 0.000103912 0.000103952 -5.30489e-06
-0.000348483 0.000104516 0.000104557 -5.30489e-06
-0.000486413 0.000145957 0.00014591 2.41404e-12
-0.000415737 0.000124721 0.000124721 -2.87335e-06
-0.000347475 0.000104214 0.000104255 -5.30489e-06
-0.000418155 0.000125447 0.000125446 -2.87335e-06
-0.000416946 0.000125084 0.000125084 -2.87335e-06
-0.000485003 0.000145534 0.000145487 2.20582e-12
-0.000482183 0.000144688 0.000144641 2.0028e-12
-0.000344452 0.000103308 0.000103348 -5.30489e-06
-0.000346467 0.000103912 0.000103952 -5.30489e-06
-0.000483593 0.000145111 0.000145064 2.11372e-12
-0.000413319 0.000123996 0.000123995 -2.87335e-06
-0.00034546 0.00010361 0.00010365 -5.30489e-06
-0.000415737 0.000124721 0.000124721 -2.87335e-06
-0.000414528 0.000124359 0.000124358 -2.87335e-06
-0.000482183 0.000144688 0.000144641 2.00281e-12
-0.000479362 0.000143842 0.000143794 1.82251e-12
-0.000342437 0.000102704 0.000102743 -5.30489e-06
-0.000344452 0.000103308 0.000103348 -5.30489e-06
-0.000480772 0.000144265 0.000144217 1.87817e-12
-0.000410901 0.000123271 0.00012327 -2.87335e-06
-0.000343445 0.000103006 0.000103045 -5.30489e-06
-0.000413319 0.000123996 0.000123995 -2.87335e-06
-0.00041211 0.000123634 0.000123633 -2.87335e-06
-0.000479362 0.000143842 0.000143794 1.82251e-12
-0.000476542 0.000142996 0.000142948 1.76062e-12
-0.000340422 0.0001021 0.000102138 -5.3049e-06
-0.000342437 0.000102704 0.000102743 -5.30489e-06
-0.000477952 0.000143419 0.000143371 1.79445e-12
-0.000408483 0.000122546 0.000122545 -2.87336e-06
-0.000341429 0.000102402 0.00010244 -5.3049e-06
-0.000410901 0.000123271 0.00012327 -2.87335e-06
-0.000409692 0.000122909 0.000122907 -2.87335e-06
-0.000476542 0.000142996 0.000142948 1.76476e-12
-0.000473721 0.000142149 0.000142102 1.72502e-12
-0.000338407 0.000101496 0.000101533 -5.30491e-06
-0.000340422 0.0001021 0.000102138 -5.3049e-06
-0.000475132 0.000142572 0.000142525 1.72722e-12
-0.000406066 0.000121821 0.000121819 -2.87336e-06
-0.000339414 0.000101798 0.000101836 -5.3049e-06
-0.000408483 0.000122546 0.000122545 -2.87336e-06
-0.000407274 0.000122184 0.000122182 -2.87336e-06
-0.000473721 0.000142149 0.000142102 1.72502e-12
-0.000470901 0.000141303 0.000141256 1.69735e-12
-0.000336391 0.000100892 0.000100928 -5.30491e-06
-0.000338407 0.000101496 0.000101533 -5.30491e-06
-0.000472311 0.000141726 0.000141679 1.70792e-12
-0.000403648 0.000121096 0.000121094 -2.87337e-06
-0.000337399 0.000101194 0.000101231 -5.30491e-06
-0.000406066 0.000121821 0.000121819 -2.87336e-06
-0.000404857 0.000121458 0.000121456 -2.87336e-06
-0.000470901 0.000141303 0.000141256 1.69487e-12
-0.00046808 0.000140457 0.00014041 1.67778e-12
-0.000334376 0.000100288 0.000100324 -5.30492e-06
-0.000336391 0.000100892 0.000100928 -5.30491e-06
-0.000469491 0.00014088 0.000140833 1.69044e-12
-0.00040123 0.000120371 0.000120368 -2.87337e-06
-0.000335384 0.00010059 0.000100626 -5.30492e-06
-0.000403648 0.000121096 0.000121094 -2.87337e-06
-0.000402439 0.000120733 0.000120731 -2.87337e-06
-0.00046808 0.000140457 0.00014041 1.67778e-12
-0.00046526 0.000139611 0.000139564 1.66567e-12
-0.000332361 9.96837e-05 9.97189e-05 -5.30493e-06
-0.000334376 0.000100288 0.000100324 -5.30492e-06
-0.00046667 0.000140034 0.000139987 1.67256e-12
-0.000398812 0.000119646 0.000119643 -2.87337e-06
-0.000333369 9.99857e-05 0.000100021 -5.30492e-06
-0.00040123 0.000120371 0.000120368 -2.87337e-06
-0.000400021 0.000120008 0.000120006 -2.87337e-06
-0.00046526 0.000139611 0.000139564 1.66567e-12
-0.00046244 0.000138764 0.000138718 1.65236e-12
-0.000330346 9.90797e-05 9.91141e-05 -5.30493e-06
-0.000332361 9.96837e-05 9.97189e-05 -5.30493e-06
-0.00046385 0.000139187 0.000139141 1.66444e-12
-0.000396394 0.00011892 0.000118917 -2.87338e-06
-0.000331354 9.93817e-05 9.94165e-05 -5.30493e-06
-0.000398812 0.000119646 0.000119643 -2.87337e-06
-0.000397603 0.000119283 0.00011928 -2.87338e-06
-0.00046244 0.000138764 0.000138718 1.65236e-12
-0.000459619 0.000137918 0.000137872 1.65262e-12
-0.000328331 9.84756e-05 9.85093e-05 -5.30494e-06
-0.000330346 9.90797e-05 9.91141e-05 -5.30493e-06
-0.000461029 0.000138341 0.000138295 1.65169e-12
-0.000393977 0.000118195 0.000118192 -2.87338e-06
-0.000329338 9.87777e-05 9.88117e-05 -5.30494e-06
-0.000396394 0.00011892 0.000118917 -2.87338e-06
-0.000395185 0.000118558 0.000118555 -2.87338e-06
-0.000459619 0.000137918 0.000137872 1.64599e-12
-0.000456799 0.000137072 0.000137026 1.64165e-12
-0.000326316 9.78716e-05 9.79046e-05 -5.30495e-06
-0.000328331 9.84756e-05 9.85093e-05 -5.30494e-06
-0.000458209 0.000137495 0.000137449 1.64323e-12
-0.000391559 0.00011747 0.000117466 -2.87339e-06
-0.000327323 9.81736e-05 9.8207e-05 -5.30494e-06
-0.000393977 0.000118195 0.000118192 -2.87338e-06
-0.000392768 0.000117833 0.000117829 -2.87339e-06
-0.000456799 0.000137072 0.000137026 1.64165e-12
-0.000453978 0.000136226 0.00013618 1.62978e-12
-0.0003243 9.72676e-05 9.72998e-05 -5.30495e-06
-0.000326316 9.78716e-05 9.79046e-05 -5.30495e-06
-0.000455389 0.000136649 0.000136603 1.64007e-12
-0.000389141 0.000116745 0.000116741 -2.87339e-06
-0.000325308 9.75696e-05 9.76022e-05 -5.30495e-06
-0.000391559 0.00011747 0.000117466 -2.87339e-06
-0.00039035 0.000117108 0.000117104 -2.87339e-06
-0.000453978 0.000136226 0.00013618 1.62978e-12
-0.000451158 0.000135379 0.000135334 1.62192e-12
-0.000322285 9.66635e-05 9.6695e-05 -5.30496e-06
-0.0003243 9.72676e-05 9.72998e-05 -5.30495e-06
-0.000452568 0.000135802 0.000135757 1.62104e-12
-0.000386723 0.00011602 0.000116016 -2.8734e-06
-0.000323293 9.69656e-05 9.69974e-05 -5.30495e-06
-0.000389141 0.000116745 0.000116741 -2.87339e-06
-0.000387932 0.000116383 0.000116378 -2.87339e-06
-0.000451158 0.000135379 0.000135334 1.62192e-12
-0.000448338 0.000134533 0.000134488 1.61367e-12
-0.00032027 9.60595e-05 9.60903e-05 -5.30496e-06
-0.000322285 9.66635e-05 9.6695e-05 -5.30496e-06
-0.000449748 0.000134956 0.000134911 1.61383e-12
-0.000384305 0.000115295 0.00011529 -2.8734e-06
-0.000321278 9.63615e-05 9.63927e-05 -5.30496e-06
-0.000386723 0.00011602 0.000116016 -2.8734e-06
-0.000385514 0.000115657 0.000115653 -2.8734e-06
-0.000448338 0.000134533 0.000134488 1.61035e-12
-0.000445517 0.000133687 0.000133642 1.59187e-12
-0.000318255 9.54555e-05 9.54855e-05 -5.30497e-06
-0.00032027 9.60595e-05 9.60903e-05 -5.30496e-06
-0.000446927 0.00013411 0.000134065 1.59684e-12
-0.000381888 0.00011457 0.000114565 -2.8734e-06
-0.000319263 9.57575e-05 9.57879e-05 -5.30497e-06
-0.000384305 0.000115295 0.00011529 -2.8734e-06
-0.000383096 0.000114932 0.000114927 -2.8734e-06
-0.000445517 0.000133687 0.000133642 1.59187e-12
-0.000442697 0.000132841 0.000132795 1.58263e-12
-0.00031624 9.48514e-05 9.48808e-05 -5.30498e-06
-0.000318255 9.54555e-05 9.54855e-05 -5.30497e-06
-0.000444107 0.000133264 0.000133219 1.59204e-12
-0.00037947 0.000113845 0.000113839 -2.87341e-06
-0.000317247 9.51534e-05 9.51831e-05 -5.30497e-06
-0.000381888 0.00011457 0.000114565 -2.8734e-06
-0.000380679 0.000114207 0.000114202 -2.8734e-06
-0.000442697 0.000132841 0.000132795 1.58263e-12
-0.000439876 0.000131994 0.000131949 1.57531e-12
-0.000314225 9.42474e-05 9.4276e-05 -5.30498e-06
-0.00031624 9.48514e-05 9.48808e-05 -5.30498e-06
-0.000441287 0.000132418 0.000132372 1.58032e-12
-0.000377052 0.00011312 0.000113114 -2.87341e-06
-0.000315232 9.45494e-05 9.45784e-05 -5.30498e-06
-0.00037947 0.000113845 0.000113839 -2.87341e-06
-0.000378261 0.000113482 0.000113477 -2.87341e-06
-0.000439876 0.000131994 0.000131949 1.57532e-12
-0.000437056 0.000131148 0.000131103 1.56288e-12
-0.00031221 9.36433e-05 9.36713e-05 -5.30499e-06
-0.000314225 9.42474e-05 9.4276e-05 -5.30498e-06
-0.000438466 0.000131571 0.000131526 1.56308e-12
-0.000374634 0.000112394 0.000112388 -2.87341e-06
-0.000313217 9.39454e-05 9.39736e-05 -5.30498e-06
-0.000377052 0.00011312 0.000113114 -2.87341e-06
-0.000375843 0.000112757 0.000112751 -2.87341e-06
-0.000437056 0.000131148 0.000131103 1.56288e-12
-0.000434236 0.000130302 0.000130257 1.54818e-12
-0.000310195 9.30393e-05 9.30665e-05 -5.30499e-06
-0.00031221 9.36433e-05 9.36713e-05 -5.30499e-06
-0.000435646 0.000130725 0.00013068 1.54881e-12
-0.000372216 0.000111669 0.000111663 -2.87342e-06
-0.000311202 9.33413e-05 9.33689e-05 -5.30499e-06
-0.000374634 0.000112394 0.000112388 -2.87341e-06
-0.000373425 0.000112032 0.000112026 -2.87342e-06
-0.000434236 0.000130302 0.000130257 1.54819e-12
-0.000431415 0.000129456 0.000129411 1.53436e-12
-0.000308179 9.24353e-05 9.24618e-05 -5.305e-06
-0.000310195 9.30393e-05 9.30665e-05 -5.30499e-06
-0.000432825 0.000129879 0.000129834 1.53231e-12
-0.000369799 0.000110944 0.000110938 -2.87342e-06
-0.000309187 9.27373e-05 9.27641e-05 -5.305e-06
-0.000372216 0.000111669 0.000111663 -2.87342e-06
-0.000371008 0.000111307 0.0001113 -2.87342e-06
-0.000431415 0.000129456 0.000129411 1.53436e-12
-0.000428595 0.00012861 0.000128565 1.50905e-12
-0.000306164 9.18312e-05 9.1857e-05 -5.305e-06
-0.000308179 9.24353e-05 9.24618e-05 -5.305e-06
-0.000430005 0.000129033 0.000128988 1.52316e-12
-0.000367381 0.000110219 0.000110212 -2.87343e-06
-0.000307172 9.21332e-05 9.21594e-05 -5.305e-06
-0.000369799 0.000110944 0.000110938 -2.87342e-06
-0.00036859 0.000110582 0.000110575 -2.87342e-06
-0.000428595 0.00012861 0.000128565 1.50988e-12
-0.000425774 0.000127763 0.000127719 1.51104e-12
-0.000304149 9.12272e-05 9.12523e-05 -5.30501e-06
-0.000306164 9.18312e-05 9.1857e-05 -5.305e-06
-0.000427185 0.000128186 0.000128142 1.50774e-12
-0.000364963 0.000109494 0.000109487 -2.87343e-06
-0.000305157 9.15292e-05 9.15547e-05 -5.30501e-06
-0.000367381 0.000110219 0.000110212 -2.87343e-06
-0.000366172 0.000109857 0.000109849 -2.87343e-06
-0.000425774 0.000127763 0.000127719 1.51104e-12
-0.000422954 0.000126917 0.000126873 1.50181e-12
-0.000302134 9.06231e-05 9.06475e-05 -5.30502e-06
-0.000304149 9.12272e-05 9.12523e-05 -5.30501e-06
-0.000424364 0.00012734 0.000127296 1.5136e-12
-0.000362545 0.000108769 0.000108761 -2.87343e-06
-0.000303142 9.09252e-05 9.09499e-05 -5.30501e-06
-0.000364963 0.000109494 0.000109487 -2.87343e-06
-0.000363754 0.000109131 0.000109124 -2.87343e-06
-0.000422954 0.000126917 0.000126873 1.49519e-12
-0.000420134 0.000126071 0.000126027 1.48385e-12
-0.000300119 9.00191e-05 9.00428e-05 -5.30502e-06
-0.000302134 9.06231e-05 9.06475e-05 -5.30502e-06
-0.000421544 0.000126494 0.00012645 1.48544e-12
-0.000360128 0.000108044 0.000108036 -2.87344e-06
-0.000301127 9.03211e-05 9.03452e-05 -5.30502e-06
-0.000362545 0.000108769 0.000108761 -2.87343e-06
-0.000361336 0.000108406 0.000108399 -2.87344e-06
-0.000420134 0.000126071 0.000126027 1.48385e-12
-0.000417313 0.000125225 0.000125181 1.4788e-12
-0.000298104 8.9415e-05 8.94381e-05 -5.30503e-06
-0.000300119 9.00191e-05 9.00428e-05 -5.30502e-06
-0.000418723 0.000125648 0.000125604 1.48793e-12
-0.00035771 0.000107319 0.000107311 -2.87344e-06
-0.000299111 8.97171e-05 8.97404e-05 -5.30502e-06
-0.000360128 0.000108044 0.000108036 -2.87344e-06
-0.000358919 0.000107681 0.000107673 -2.87344e-06
-0.000417313 0.000125225 0.000125181 1.4788e-12
-0.000414493 0.000124378 0.000124335 1.45288e-12
-0.000296089 8.8811e-05 8.88333e-05 -5.30503e-06
-0.000298104 8.9415e-05 8.94381e-05 -5.30503e-06
-0.000415903 0.000124802 0.000124758 1.47131e-12
-0.000355292 0.000106594 0.000106585 -2.87345e-06
-0.000297096 8.9113e-05 8.91357e-05 -5.30503e-06
-0.00035771 0.000107319 0.000107311 -2.87344e-06
-0.000356501 0.000106956 0.000106948 -2.87344e-06
-0.000414493 0.000124378 0.000124335 1.45288e-12
-0.000411673 0.000123532 0.000123489 1.44602e-12
-0.000294074 8.82069e-05 8.82286e-05 -5.30504e-06
-0.000296089 8.8811e-05 8.88333e-05 -5.30503e-06
-0.000413083 0.000123955 0.000123912 1.43363e-12
-0.000352874 0.000105868 0.00010586 -2.87345e-06
-0.000295081 8.8509e-05 8.8531e-05 -5.30503e-06
-0.000355292 0.000106594 0.000106585 -2.87345e-06
-0.000354083 0.000106231 0.000106222 -2.87345e-06
-0.000411673 0.000123532 0.000123489 1.44602e-12
-0.000408852 0.000122686 0.000122643 1.43586e-12
-0.000292059 8.76029e-05 8.76239e-05 -5.30504e-06
-0.000294074 8.82069e-05 8.82286e-05 -5.30504e-06
-0.000410262 0.000123109 0.000123066 1.44621e-12
-0.000350457 0.000105143 0.000105134 -2.87345e-06
-0.000293066 8.79049e-05 8.79263e-05 -5.30504e-06
-0.000352874 0.000105868 0.00010586 -2.87345e-06
-0.000351665 0.000105506 0.000105497 -2.87345e-06
-0.000408852 0.000122686 0.000122643 1.43585e-12
-0.000406032 0.00012184 0.000121797 1.4188e-12
-0.000290044 8.69988e-05 8.70192e-05 -5.30505e-06
-0.000292059 8.76029e-05 8.76239e-05 -5.30504e-06
-0.000407442 0.000122263 0.00012222 1.42984e-12
-0.000348039 0.000104418 0.000104409 -2.87346e-06
-0.000291051 8.73009e-05 8.73215e-05 -5.30505e-06
-0.000350457 0.000105143 0.000105134 -2.87345e-06
-0.000349248 0.000104781 0.000104772 -2.87345e-06
-0.000406032 0.00012184 0.000121797 1.42707e-12
-0.000403211 0.000120994 0.00012095 1.41188e-12
-0.000288029 8.63948e-05 8.64145e-05 -5.30505e-06
-0.000290044 8.69988e-05 8.70192e-05 -5.30505e-06
-0.000404622 0.000121417 0.000121374 1.41875e-12
-0.000345621 0.000103693 0.000103683 -2.87346e-06
-0.000289036 8.66968e-05 8.67168e-05 -5.30505e-06
-0.000348039 0.000104418 0.000104409 -2.87346e-06
-0.00034683 0.000104056 0.000104046 -2.87346e-06
-0.000403211 0.000120994 0.00012095 1.41188e-12
-0.000400391 0.000120147 0.000120104 1.40704e-12
-0.000286013 8.57907e-05 8.58097e-05 -5.30506e-06
-0.000288029 8.63948e-05 8.64145e-05 -5.30505e-06
-0.000401801 0.000120571 0.000120527 1.40489e-12
-0.000343203 0.000102968 0.000102958 -2.87346e-06
-0.000287021 8.60928e-05 8.61121e-05 -5.30506e-06
-0.000345621 0.000103693 0.000103683 -2.87346e-06
-0.000344412 0.000103331 0.000103321 -2.87346e-06
-0.000400391 0.000120147 0.000120104 1.40704e-12
-0.000397571 0.000119301 0.000119258 1.39167e-12
-0.000283998 8.51867e-05 8.5205e-05 -5.30507e-06
-0.000286013 8.57907e-05 8.58097e-05 -5.30506e-06
-0.000398981 0.000119724 0.000119681 1.3937e-12
-0.000340786 0.000102243 0.000102233 -2.87347e-06
-0.000285006 8.54887e-05 8.55074e-05 -5.30506e-06
-0.000343203 0.000102968 0.000102958 -2.87346e-06
-0.000341995 0.000102605 0.000102595 -2.87347e-06
-0.000397571 0.000119301 0.000119258 1.38669e-12
-0.00039475 0.000118455 0.000118412 1.37802e-12
-0.000281983 8.45826e-05 8.46003e-05 -5.30507e-06
-0.000283998 8.51867e-05 8.5205e-05 -5.30507e-06
-0.000396161 0.000118878 0.000118835 1.38177e-12
-0.000338368 0.000101518 0.000101507 -2.87347e-06
-0.000282991 8.48847e-05 8.49027e-05 -5.30507e-06
-0.000340786 0.000102243 0.000102233 -2.87347e-06
-0.000339577 0.00010188 0.00010187 -2.87347e-06
-0.00039475 0.000118455 0.000118412 1.37139e-12
-0.00039193 0.000117609 0.000117566 1.36743e-12
-0.000279968 8.39786e-05 8.39956e-05 -5.30508e-06
-0.000281983 8.45826e-05 8.46003e-05 -5.30507e-06
-0.00039334 0.000118032 0.000117989 1.36221e-12
-0.00033595 0.000100793 0.000100782 -2.87348e-06
-0.000280976 8.42806e-05 8.4298e-05 -5.30507e-06
-0.000338368 0.000101518 0.000101507 -2.87347e-06
-0.000337159 0.000101155 0.000101145 -2.87347e-06
-0.00039193 0.000117609 0.000117566 1.36743e-12
-0.00038911 0.000116763 0.00011672 1.36247e-12
-0.000277953 8.33745e-05 8.33909e-05 -5.30508e-06
-0.000279968 8.39786e-05 8.39956e-05 -5.30508e-06
-0.00039052 0.000117186 0.000117143 1.35477e-12
-0.000333533 0.000100068 0.000100056 -2.87348e-06
-0.000278961 8.36765e-05 8.36932e-05 -5.30508e-06
-0.00033595 0.000100793 0.000100782 -2.87348e-06
-0.000334741 0.00010043 0.000100419 -2.87348e-06
-0.00038911 0.000116763 0.00011672 1.36247e-12
-0.000386289 0.000115916 0.000115874 1.34209e-12
-0.000275938 8.27705e-05 8.27862e-05 -5.30509e-06
-0.000277953 8.33745e-05 8.33909e-05 -5.30508e-06
-0.0003877 0.00011634 0.000116297 1.35303e-12
-0.000331115 9.93424e-05 9.93311e-05 -2.87348e-06
-0.000276946 8.30725e-05 8.30885e-05 -5.30508e-06
-0.000333533 0.000100068 0.000100056 -2.87348e-06
-0.000332324 9.9705e-05 9.96938e-05 -2.87348e-06
-0.000386289 0.000115916 0.000115874 1.34209e-12
-0.000383469 0.00011507 0.000115028 1.33025e-12
-0.000273923 8.21664e-05 8.21815e-05 -5.30509e-06
-0.000275938 8.27705e-05 8.27862e-05 -5.30509e-06
-0.000384879 0.000115493 0.000115451 1.33865e-12
-0.000328697 9.86173e-05 9.86057e-05 -2.87349e-06
-0.000274931 8.24684e-05 8.24838e-05 -5.30509e-06
-0.000331115 9.93424e-05 9.93311e-05 -2.87348e-06
-0.000329906 9.89799e-05 9.89684e-05 -2.87348e-06
-0.000383469 0.00011507 0.000115028 1.33688e-12
-0.000380649 0.000114224 0.000114182 1.31524e-12
-0.000271908 8.15623e-05 8.15768e-05 -5.3051e-06
-0.000273923 8.21664e-05 8.21815e-05 -5.30509e-06
-0.000382059 0.000114647 0.000114605 1.3202e-12
-0.000326279 9.78922e-05 9.78803e-05 -2.87349e-06
-0.000272916 8.18644e-05 8.18791e-05 -5.3051e-06
-0.000328697 9.86173e-05 9.86057e-05 -2.87349e-06
-0.000327488 9.82547e-05 9.8243e-05 -2.87349e-06
-0.000380649 0.000114224 0.000114182 1.31524e-12
-0.000377828 0.000113378 0.000113336 1.30775e-12
-0.000269893 8.09583e-05 8.09721e-05 -5.3051e-06
-0.000271908 8.15623e-05 8.15768e-05 -5.3051e-06
-0.000379239 0.000113801 0.000113759 1.30799e-12
-0.000323862 9.71671e-05 9.71549e-05 -2.87349e-06
-0.000270901 8.12603e-05 8.12744e-05 -5.3051e-06
-0.000326279 9.78922e-05 9.78803e-05 -2.87349e-06
-0.000325071 9.75296e-05 9.75176e-05 -2.87349e-06
-0.000377828 0.000113378 0.000113336 1.30775e-12
-0.000375008 0.000112532 0.00011249 1.30158e-12
-0.000267878 8.03542e-05 8.03674e-05 -5.30511e-06
-0.000269893 8.09583e-05 8.09721e-05 -5.3051e-06
-0.000376418 0.000112955 0.000112913 1.29641e-12
-0.000321444 9.6442e-05 9.64295e-05 -2.8735e-06
-0.000268886 8.06562e-05 8.06698e-05 -5.30511e-06
-0.000323862 9.71671e-05 9.71549e-05 -2.87349e-06
-0.000322653 9.68045e-05 9.67922e-05 -2.8735e-06
-0.000375008 0.000112532 0.00011249 1.28831e-12
-0.000372188 0.000111686 0.000111644 1.2804e-12
-0.000265863 7.97501e-05 7.97627e-05 -5.30511e-06
-0.000267878 8.03542e-05 8.03674e-05 -5.30511e-06
-0.000373598 0.000112109 0.000112067 1.27687e-12
-0.000319026 9.57169e-05 9.57041e-05 -2.8735e-06
-0.000266871 8.00522e-05 8.00651e-05 -5.30511e-06
-0.000321444 9.6442e-05 9.64295e-05 -2.8735e-06
-0.000320235 9.60794e-05 9.60668e-05 -2.8735e-06
-0.000372188 0.000111686 0.000111644 1.2804e-12
-0.000369367 0.000110839 0.000110798 1.26511e-12
-0.000263848 7.91461e-05 7.9158e-05 -5.30512e-06
-0.000265863 7.97501e-05 7.97627e-05 -5.30511e-06
-0.000370778 0.000111262 0.000111221 1.28205e-12
-0.000316609 9.49917e-05 9.49787e-05 -2.87351e-06
-0.000264856 7.94481e-05 7.94604e-05 -5.30512e-06
-0.000319026 9.57169e-05 9.57041e-05 -2.8735e-06
-0.000317818 9.53543e-05 9.53414e-05 -2.8735e-06
-0.000369367 0.000110839 0.000110798 1.26511e-12
-0.000366547 0.000109993 0.000109952 1.2447e-12
-0.000261833 7.8542e-05 7.85534e-05 -5.30512e-06
-0.000263848 7.91461e-05 7.9158e-05 -5.30512e-06
-0.000367957 0.000110416 0.000110375 1.26076e-12
-0.000314191 9.42666e-05 9.42533e-05 -2.87351e-06
-0.000262841 7.8844e-05 7.88557e-05 -5.30512e-06
-0.000316609 9.49917e-05 9.49787e-05 -2.87351e-06
-0.0003154 9.46292e-05 9.4616e-05 -2.87351e-06
-0.000366547 0.000109993 0.000109952 1.2447e-12
-0.000363727 0.000109147 0.000109106 1.25335e-12
-0.000259818 7.79379e-05 7.79487e-05 -5.30513e-06
-0.000261833 7.8542e-05 7.85534e-05 -5.30512e-06
-0.000365137 0.00010957 0.000109529 1.24169e-12
-0.000311773 9.35415e-05 9.35279e-05 -2.87351e-06
-0.000260826 7.824e-05 7.8251e-05 -5.30513e-06
-0.000314191 9.42666e-05 9.42533e-05 -2.87351e-06
-0.000312982 9.39041e-05 9.38906e-05 -2.87351e-06
-0.000363727 0.000109147 0.000109106 1.26161e-12
-0.000360906 0.000108301 0.00010826 1.23286e-12
-0.000257803 7.73339e-05 7.7344e-05 -5.30514e-06
-0.000259818 7.79379e-05 7.79487e-05 -5.30513e-06
-0.000362317 0.000108724 0.000108683 1.23673e-12
-0.000309356 9.28164e-05 9.28026e-05 -2.87352e-06
-0.000258811 7.76359e-05 7.76463e-05 -5.30513e-06
-0.000311773 9.35415e-05 9.35279e-05 -2.87351e-06
-0.000310565 9.3179e-05 9.31653e-05 -2.87351e-06
-0.000360906 0.000108301 0.00010826 1.24114e-12
-0.000358086 0.000107455 0.000107413 1.22479e-12
-0.000255788 7.67298e-05 7.67393e-05 -5.30514e-06
-0.000257803 7.73339e-05 7.7344e-05 -5.30514e-06
-0.000359496 0.000107878 0.000107837 1.22252e-12
-0.000306938 9.20913e-05 9.20772e-05 -2.87352e-06
-0.000256796 7.70318e-05 7.70417e-05 -5.30514e-06
-0.000309356 9.28164e-05 9.28026e-05 -2.87352e-06
-0.000308147 9.24539e-05 9.24399e-05 -2.87352e-06
-0.000358086 0.000107455 0.000107413 1.22479e-12
-0.000355266 0.000106608 0.000106567 1.20591e-12
-0.000253773 7.61257e-05 7.61347e-05 -5.30515e-06
-0.000255788 7.67298e-05 7.67393e-05 -5.30514e-06
-0.000356676 0.000107032 0.00010699 1.21272e-12
-0.00030452 9.13662e-05 9.13518e-05 -2.87352e-06
-0.000254781 7.64278e-05 7.6437e-05 -5.30514e-06
-0.000306938 9.20913e-05 9.20772e-05 -2.87352e-06
-0.000305729 9.17287e-05 9.17145e-05 -2.87352e-06
-0.000355266 0.000106608 0.000106567 1.20591e-12
-0.000352445 0.000105762 0.000105721 1.20266e-12
-0.000251758 7.55216e-05 7.553e-05 -5.30515e-06
-0.000253773 7.61257e-05 7.61347e-05 -5.30515e-06
-0.000353856 0.000106185 0.000106144 1.20959e-12
-0.000302103 9.06411e-05 9.06264e-05 -2.87353e-06
-0.000252766 7.58237e-05 7.58323e-05 -5.30515e-06
-0.00030452 9.13662e-05 9.13518e-05 -2.87352e-06
-0.000303312 9.10036e-05 9.09891e-05 -2.87353e-06
-0.000352445 0.000105762 0.000105721 1.20265e-12
-0.000349625 0.000104916 0.000104875 1.20112e-12
-0.000249743 7.49176e-05 7.49253e-05 -5.30516e-06
-0.000251758 7.55216e-05 7.553e-05 -5.30515e-06
-0.000351035 0.000105339 0.000105298 1.18847e-12
-0.000299685 8.9916e-05 8.99011e-05 -2.87353e-06
-0.000250751 7.52196e-05 7.52277e-05 -5.30515e-06
-0.000302103 9.06411e-05 9.06264e-05 -2.87353e-06
-0.000300894 9.02785e-05 9.02638e-05 -2.87353e-06
-0.000349625 0.000104916 0.000104875 1.1862e-12
-0.000346805 0.00010407 0.000104029 1.17059e-12
-0.000247728 7.43135e-05 7.43207e-05 -5.30516e-06
-0.000249743 7.49176e-05 7.49253e-05 -5.30516e-06
-0.000348215 0.000104493 0.000104452 1.17811e-12
-0.000297268 8.91909e-05 8.91757e-05 -2.87353e-06
-0.000248736 7.46155e-05 7.4623e-05 -5.30516e-06
-0.000299685 8.9916e-05 8.99011e-05 -2.87353e-06
-0.000298476 8.95534e-05 8.95384e-05 -2.87353e-06
-0.000346805 0.00010407 0.000104029 1.17059e-12
-0.000343985 0.000103224 0.000103183 1.16366e-12
-0.000245713 7.37094e-05 7.3716e-05 -5.30517e-06
-0.000247728 7.43135e-05 7.43207e-05 -5.30516e-06
-0.000345395 0.000103647 0.000103606 1.18262e-12
-0.00029485 8.84657e-05 8.84503e-05 -2.87354e-06
-0.000246721 7.40114e-05 7.40183e-05 -5.30517e-06
-0.000297268 8.91909e-05 8.91757e-05 -2.87353e-06
-0.000296059 8.88283e-05 8.8813e-05 -2.87354e-06
-0.000343985 0.000103224 0.000103183 1.16366e-12
-0.000341164 0.000102378 0.000102337 1.14186e-12
-0.000243699 7.31053e-05 7.31114e-05 -5.30517e-06
-0.000245713 7.37094e-05 7.3716e-05 -5.30517e-06
-0.000342574 0.000102801 0.00010276 1.17095e-12
-0.000292432 8.77406e-05 8.7725e-05 -2.87354e-06
-0.000244706 7.34074e-05 7.34137e-05 -5.30517e-06
-0.00029485 8.84657e-05 8.84503e-05 -2.87354e-06
-0.000293641 8.81032e-05 8.80877e-05 -2.87354e-06
-0.000341164 0.000102378 0.000102337 1.15513e-12
-0.000338344 0.000101531 0.000101491 1.13992e-12
-0.000241684 7.25012e-05 7.25067e-05 -5.30518e-06
-0.000243699 7.31053e-05 7.31114e-05 -5.30517e-06
-0.000339754 0.000101955 0.000101914 1.14464e-12
-0.000290015 8.70155e-05 8.69996e-05 -2.87355e-06
-0.000242691 7.28033e-05 7.2809e-05 -5.30518e-06
-0.000292432 8.77406e-05 8.7725e-05 -2.87354e-06
-0.000291223 8.73781e-05 8.73623e-05 -2.87354e-06
-0.000338344 0.000101531 0.000101491 1.12665e-12
-0.000335524 0.000100685 0.000100645 1.12654e-12
-0.000239669 7.18972e-05 7.19021e-05 -5.30518e-06
-0.000241684 7.25012e-05 7.25067e-05 -5.30518e-06
-0.000336934 0.000101108 0.000101068 1.15324e-12
-0.000287597 8.62904e-05 8.62743e-05 -2.87355e-06
-0.000240676 7.21992e-05 7.22044e-05 -5.30518e-06
-0.000290015 8.70155e-05 8.69996e-05 -2.87355e-06
-0.000288806 8.6653e-05 8.66369e-05 -2.87355e-06
-0.000335524 0.000100685 0.000100645 1.12654e-12
-0.000332703 9.98391e-05 9.9799e-05 1.11817e-12
-0.000237654 7.12931e-05 7.12974e-05 -5.30519e-06
-0.000239669 7.18972e-05 7.19021e-05 -5.30518e-06
-0.000334114 0.000100262 0.000100222 1.12905e-12
-0.000285179 8.55653e-05 8.55489e-05 -2.87355e-06
-0.000238661 7.15951e-05 7.15997e-05 -5.30519e-06
-0.000287597 8.62904e-05 8.62743e-05 -2.87355e-06
-0.000286388 8.59278e-05 8.59116e-05 -2.87355e-06
-0.000332703 9.98391e-05 9.9799e-05 1.11817e-12
-0.000329883 9.89929e-05 9.8953e-05 1.08973e-12
-0.000235639 7.0689e-05 7.06928e-05 -5.30519e-06
-0.000237654 7.12931e-05 7.12974e-05 -5.30519e-06
-0.000331293 9.9416e-05 9.9376e-05 1.10617e-12
-0.000282762 8.48402e-05 8.48235e-05 -2.87356e-06
-0.000236646 7.0991e-05 7.09951e-05 -5.30519e-06
-0.000285179 8.55653e-05 8.55489e-05 -2.87355e-06
-0.000283971 8.52027e-05 8.51862e-05 -2.87355e-06
-0.000329883 9.89929e-05 9.8953e-05 1.09635e-12
-0.000327063 9.81468e-05 9.81069e-05 1.08358e-12
-0.000233624 7.00849e-05 7.00882e-05 -5.3052e-06
-0.000235639 7.0689e-05 7.06928e-05 -5.30519e-06
-0.000328473 9.85698e-05 9.85299e-05 1.0989e-12
-0.000280344 8.41151e-05 8.40982e-05 -2.87356e-06
-0.000234631 7.03869e-05 7.03905e-05 -5.3052e-06
-0.000282762 8.48402e-05 8.48235e-05 -2.87356e-06
-0.000281553 8.44776e-05 8.44609e-05 -2.87356e-06
-0.000327063 9.81468e-05 9.81069e-05 1.08358e-12
-0.000324243 9.73006e-05 9.72609e-05 1.08226e-12
-0.000231609 6.94808e-05 6.94835e-05 -5.30521e-06
-0.000233624 7.00849e-05 7.00882e-05 -5.3052e-06
-0.000325653 9.77237e-05 9.76839e-05 1.09203e-12
-0.000277927 8.33899e-05 8.33728e-05 -2.87356e-06
-0.000232616 6.97828e-05 6.97858e-05 -5.3052e-06
-0.000280344 8.41151e-05 8.40982e-05 -2.87356e-06
-0.000279135 8.37525e-05 8.37355e-05 -2.87356e-06
-0.000324243 9.73006e-05 9.72609e-05 1.08226e-12
-0.000321422 9.64544e-05 9.64148e-05 1.08633e-12
-0.000229594 6.88767e-05 6.88789e-05 -5.30521e-06
-0.000231609 6.94808e-05 6.94835e-05 -5.30521e-06
-0.000322832 9.68775e-05 9.68378e-05 1.07965e-12
-0.000275509 8.26648e-05 8.26475e-05 -2.87357e-06
-0.000230602 6.91787e-05 6.91812e-05 -5.30521e-06
-0.000277927 8.33899e-05 8.33728e-05 -2.87356e-06
-0.000276718 8.30274e-05 8.30102e-05 -2.87357e-06
-0.000321422 9.64544e-05 9.64148e-05 1.08633e-12
-0.000318602 9.56083e-05 9.55688e-05 1.09472e-12
-0.000227579 6.82726e-05 6.82743e-05 -5.30522e-06
-0.000229594 6.88767e-05 6.88789e-05 -5.30521e-06
-0.000320012 9.60313e-05 9.59918e-05 1.06877e-12
-0.000273091 8.19397e-05 8.19221e-05 -2.87357e-06
-0.000228587 6.85747e-05 6.85766e-05 -5.30521e-06
-0.000275509 8.26648e-05 8.26475e-05 -2.87357e-06
-0.0002743 8.23023e-05 8.22848e-05 -2.87357e-06
-0.000318602 9.56083e-05 9.55688e-05 1.06818e-12
-0.000315782 9.47621e-05 9.47227e-05 1.05238e-12
-0.000225564 6.76685e-05 6.76696e-05 -5.30522e-06
-0.000227579 6.82726e-05 6.82743e-05 -5.30522e-06
-0.000317192 9.51852e-05 9.51458e-05 1.08578e-12
-0.000270674 8.12146e-05 8.11968e-05 -2.87357e-06
-0.000226572 6.79706e-05 6.79719e-05 -5.30522e-06
-0.000273091 8.19397e-05 8.19221e-05 -2.87357e-06
-0.000271883 8.15772e-05 8.15595e-05 -2.87357e-06
-0.000315782 9.47621e-05 9.47227e-05 1.05234e-12
-0.000312962 9.39159e-05 9.38767e-05 1.04487e-12
-0.000223549 6.70644e-05 6.7065e-05 -5.30523e-06
-0.000225564 6.76685e-05 6.76696e-05 -5.30522e-06
-0.000314372 9.4339e-05 9.42997e-05 1.0452e-12
-0.000268256 8.04895e-05 8.04715e-05 -2.87358e-06
-0.000224557 6.73665e-05 6.73673e-05 -5.30522e-06
-0.000270674 8.12146e-05 8.11968e-05 -2.87357e-06
-0.000269465 8.0852e-05 8.08341e-05 -2.87358e-06
-0.000312962 9.39159e-05 9.38767e-05 1.04487e-12
-0.000310141 9.30698e-05 9.30307e-05 1.04134e-12
-0.000221535 6.64603e-05 6.64604e-05 -5.30523e-06
-0.000223549 6.70644e-05 6.7065e-05 -5.30523e-06
-0.000311551 9.34929e-05 9.34537e-05 1.04674e-12
-0.000265839 7.97644e-05 7.97461e-05 -2.87358e-06
-0.000222542 6.67624e-05 6.67627e-05 -5.30523e-06
-0.000268256 8.04895e-05 8.04715e-05 -2.87358e-06
-0.000267047 8.01269e-05 8.01088e-05 -2.87358e-06
-0.000310141 9.30698e-05 9.30307e-05 1.04134e-12
-0.000307321 9.22236e-05 9.21846e-05 1.02743e-12
-0.00021952 6.58562e-05 6.58558e-05 -5.30524e-06
-0.000221535 6.64603e-05 6.64604e-05 -5.30523e-06
-0.000308731 9.26467e-05 9.26076e-05 1.01018e-12
-0.000263421 7.90392e-05 7.90208e-05 -2.87359e-06
-0.000220527 6.61583e-05 6.61581e-05 -5.30523e-06
-0.000265839 7.97644e-05 7.97461e-05 -2.87358e-06
-0.00026463 7.94018e-05 7.93835e-05 -2.87358e-06
-0.000307321 9.22236e-05 9.21846e-05 1.00092e-12
-0.000304501 9.13775e-05 9.13386e-05 9.89015e-13
-0.000217505 6.52521e-05 6.52512e-05 -5.30524e-06
-0.00021952 6.58562e-05 6.58558e-05 -5.30524e-06
-0.000305911 9.18005e-05 9.17616e-05 9.88578e-13
-0.000261004 7.83141e-05 7.82955e-05 -2.87359e-06
-0.000218512 6.55542e-05 6.55535e-05 -5.30524e-06
-0.000263421 7.90392e-05 7.90208e-05 -2.87359e-06
-0.000262212 7.86767e-05 7.86581e-05 -2.87359e-06
-0.000304501 9.13775e-05 9.13386e-05 1.00391e-12
-0.000301681 9.05313e-05 9.04926e-05 1.00784e-12
-0.00021549 6.4648e-05 6.46466e-05 -5.30525e-06
-0.000217505 6.52521e-05 6.52512e-05 -5.30524e-06
-0.000303091 9.09544e-05 9.09156e-05 1.01093e-12
-0.000258586 7.7589e-05 7.75701e-05 -2.87359e-06
-0.000216497 6.495e-05 6.49489e-05 -5.30525e-06
-0.000261004 7.83141e-05 7.82955e-05 -2.87359e-06
-0.000259795 7.79516e-05 7.79328e-05 -2.87359e-06
-0.000301681 9.05313e-05 9.04926e-05 1.00784e-12
-0.00029886 8.96852e-05 8.96465e-05 9.96816e-13
-0.000213475 6.40439e-05 6.4042e-05 -5.30525e-06
-0.00021549 6.4648e-05 6.46466e-05 -5.30525e-06
-0.00030027 9.01082e-05 9.00695e-05 9.95622e-13
-0.000256168 7.68639e-05 7.68448e-05 -2.8736e-06
-0.000214483 6.43459e-05 6.43443e-05 -5.30525e-06
-0.000258586 7.7589e-05 7.75701e-05 -2.87359e-06
-0.000257377 7.72264e-05 7.72075e-05 -2.8736e-06
-0.00029886 8.96852e-05 8.96465e-05 9.96816e-13
-0.00029604 8.8839e-05 8.88005e-05 9.86436e-13
-0.00021146 6.34398e-05 6.34374e-05 -5.30526e-06
-0.000213475 6.40439e-05 6.4042e-05 -5.30525e-06
-0.00029745 8.92621e-05 8.92235e-05 9.90918e-13
-0.000253751 7.61388e-05 7.61195e-05 -2.8736e-06
-0.000212468 6.37418e-05 6.37397e-05 -5.30526e-06
-0.000256168 7.68639e-05 7.68448e-05 -2.8736e-06
-0.00025496 7.65013e-05 7.64821e-05 -2.8736e-06
-0.00029604 8.8839e-05 8.88005e-05 9.59931e-13
-0.00029322 8.79928e-05 8.79545e-05 9.48912e-13
-0.000209445 6.28357e-05 6.28328e-05 -5.30526e-06
-0.00021146 6.34398e-05 6.34374e-05 -5.30526e-06
-0.00029463 8.84159e-05 8.83775e-05 9.68142e-13
-0.000251333 7.54136e-05 7.53941e-05 -2.8736e-06
-0.000210453 6.31377e-05 6.31351e-05 -5.30526e-06
-0.000253751 7.61388e-05 7.61195e-05 -2.8736e-06
-0.000252542 7.57762e-05 7.57568e-05 -2.8736e-06
-0.00029322 8.79928e-05 8.79545e-05 9.60483e-13
-0.0002904 8.71467e-05 8.71084e-05 9.43726e-13
-0.000207431 6.22316e-05 6.22282e-05 -5.30527e-06
-0.000209445 6.28357e-05 6.28328e-05 -5.30526e-06
-0.00029181 8.75698e-05 8.75314e-05 9.65271e-13
-0.000248916 7.46885e-05 7.46688e-05 -2.87361e-06
-0.000208438 6.25336e-05 6.25305e-05 -5.30527e-06
-0.000251333 7.54136e-05 7.53941e-05 -2.8736e-06
-0.000250125 7.50511e-05 7.50315e-05 -2.87361e-06
-0.0002904 8.71467e-05 8.71084e-05 9.43726e-13
-0.000287579 8.63005e-05 8.62624e-05 9.49487e-13
-0.000205416 6.16274e-05 6.16236e-05 -5.30527e-06
-0.000207431 6.22316e-05 6.22282e-05 -5.30527e-06
-0.00028899 8.67236e-05 8.66854e-05 9.2681e-13
-0.000246498 7.39634e-05 7.39435e-05 -2.87361e-06
-0.000206423 6.19295e-05 6.19259e-05 -5.30527e-06
-0.000248916 7.46885e-05 7.46688e-05 -2.87361e-06
-0.000247707 7.4326e-05 7.43062e-05 -2.87361e-06
-0.000287579 8.63005e-05 8.62624e-05 9.49487e-13
-0.000284759 8.54544e-05 8.54164e-05 9.18708e-13
-0.000203401 6.10233e-05 6.1019e-05 -5.30528e-06
-0.000205416 6.16274e-05 6.16236e-05 -5.30527e-06
-0.000286169 8.58775e-05 8.58394e-05 9.33191e-13
-0.000244081 7.32383e-05 7.32182e-05 -2.87362e-06
-0.000204408 6.13254e-05 6.13213e-05 -5.30528e-06
-0.000246498 7.39634e-05 7.39435e-05 -2.87361e-06
-0.000245289 7.36008e-05 7.35808e-05 -2.87361e-06
-0.000284759 8.54544e-05 8.54164e-05 9.20347e-13
-0.000281939 8.46082e-05 8.45703e-05 9.25622e-13
-0.000201386 6.04192e-05 6.04144e-05 -5.30529e-06
-0.000203401 6.10233e-05 6.1019e-05 -5.30528e-06
-0.000283349 8.50313e-05 8.49934e-05 9.3055e-13
-0.000241663 7.25132e-05 7.24929e-05 -2.87362e-06
-0.000202394 6.07213e-05 6.07167e-05 -5.30528e-06
-0.000244081 7.32383e-05 7.32182e-05 -2.87362e-06
-0.000242872 7.28757e-05 7.28555e-05 -2.87362e-06
-0.000281939 8.46082e-05 8.45703e-05 9.20653e-13
-0.000279119 8.37621e-05 8.37243e-05 9.24252e-13
-0.000199371 5.98151e-05 5.98098e-05 -5.30529e-06
-0.000201386 6.04192e-05 6.04144e-05 -5.30529e-06
-0.000280529 8.41852e-05 8.41473e-05 9.28293e-13
-0.000239246 7.1788e-05 7.17676e-05 -2.87362e-06
-0.000200379 6.01171e-05 6.01121e-05 -5.30529e-06
-0.000241663 7.25132e-05 7.24929e-05 -2.87362e-06
-0.000240454 7.21506e-05 7.21302e-05 -2.87362e-06
-0.000279119 8.37621e-05 8.37243e-05 9.24252e-13
-0.000276299 8.29159e-05 8.28783e-05 9.03713e-13
-0.000197357 5.9211e-05 5.92053e-05 -5.3053e-06
-0.000199371 5.98151e-05 5.98098e-05 -5.30529e-06
-0.000277709 8.3339e-05 8.33013e-05 8.93391e-13
-0.000236828 7.10629e-05 7.10422e-05 -2.87363e-06
-0.000198364 5.9513e-05 5.95076e-05 -5.30529e-06
-0.000239246 7.1788e-05 7.17676e-05 -2.87362e-06
-0.000238037 7.14255e-05 7.14049e-05 -2.87362e-06
-0.000276299 8.29159e-05 8.28783e-05 9.03713e-13
-0.000273478 8.20698e-05 8.20323e-05 8.57373e-13
-0.000195342 5.86068e-05 5.86007e-05 -5.3053e-06
-0.000197357 5.9211e-05 5.92053e-05 -5.3053e-06
-0.000274889 8.24929e-05 8.24553e-05 8.90088e-13
-0.000234411 7.03378e-05 7.03169e-05 -2.87363e-06
-0.000196349 5.89089e-05 5.8903e-05 -5.3053e-06
-0.000236828 7.10629e-05 7.10422e-05 -2.87363e-06
-0.000235619 7.07003e-05 7.06796e-05 -2.87363e-06
-0.000273478 8.20698e-05 8.20323e-05 8.97147e-13
-0.000270658 8.12236e-05 8.11862e-05 8.70531e-13
-0.000193327 5.80027e-05 5.79961e-05 -5.30531e-06
-0.000195342 5.86068e-05 5.86007e-05 -5.3053e-06
-0.000272068 8.16467e-05 8.16093e-05 8.77987e-13
-0.000231993 6.96126e-05 6.95916e-05 -2.87363e-06
-0.000194334 5.83048e-05 5.82984e-05 -5.3053e-06
-0.000234411 7.03378e-05 7.03169e-05 -2.87363e-06
-0.000233202 6.99752e-05 6.99543e-05 -2.87363e-06
-0.000270658 8.12236e-05 8.11862e-05 8.70522e-13
-0.000267838 8.03775e-05 8.03402e-05 8.56426e-13
-0.000191312 5.73986e-05 5.73916e-05 -5.30531e-06
-0.000193327 5.80027e-05 5.79961e-05 -5.30531e-06
-0.000269248 8.08006e-05 8.07632e-05 8.60716e-13
-0.000229576 6.88875e-05 6.88663e-05 -2.87364e-06
-0.00019232 5.77006e-05 5.76939e-05 -5.30531e-06
-0.000231993 6.96126e-05 6.95916e-05 -2.87363e-06
-0.000230784 6.92501e-05 6.9229e-05 -2.87364e-06
-0.000267838 8.03775e-05 8.03402e-05 8.56426e-13
-0.000265018 7.95314e-05 7.94942e-05 8.58287e-13
-0.000189297 5.67944e-05 5.6787e-05 -5.30532e-06
-0.000191312 5.73986e-05 5.73916e-05 -5.30531e-06
-0.000266428 7.99544e-05 7.99172e-05 8.4573e-13
-0.000227158 6.81624e-05 6.8141e-05 -2.87364e-06
-0.000190305 5.70965e-05 5.70893e-05 -5.30531e-06
-0.000229576 6.88875e-05 6.88663e-05 -2.87364e-06
-0.000228367 6.8525e-05 6.85037e-05 -2.87364e-06
-0.000265018 7.95314e-05 7.94942e-05 8.58287e-13
-0.000262198 7.86852e-05 7.86482e-05 8.68364e-13
-0.000187283 5.61903e-05 5.61825e-05 -5.30532e-06
-0.000189297 5.67944e-05 5.6787e-05 -5.30532e-06
-0.000263608 7.91083e-05 7.90712e-05 8.38026e-13
-0.000224741 6.74373e-05 6.74157e-05 -2.87364e-06
-0.00018829 5.64924e-05 5.64847e-05 -5.30532e-06
-0.000227158 6.81624e-05 6.8141e-05 -2.87364e-06
-0.000225949 6.77998e-05 6.77784e-05 -2.87364e-06
-0.000262198 7.86852e-05 7.86482e-05 8.68385e-13
-0.000259377 7.78391e-05 7.78022e-05 8.34311e-13
-0.000185268 5.55862e-05 5.55779e-05 -5.30533e-06
-0.000187283 5.61903e-05 5.61825e-05 -5.30532e-06
-0.000260788 7.82621e-05 7.82252e-05 8.3416e-13
-0.000222323 6.67121e-05 6.66905e-05 -2.87365e-06
-0.000186275 5.58882e-05 5.58802e-05 -5.30533e-06
-0.000224741 6.74373e-05 6.74157e-05 -2.87364e-06
-0.000223532 6.70747e-05 6.70531e-05 -2.87365e-06
-0.000259377 7.78391e-05 7.78022e-05 8.34315e-13
-0.000256557 7.69929e-05 7.69562e-05 7.94593e-13
-0.000183253 5.4982e-05 5.49734e-05 -5.30533e-06
-0.000185268 5.55862e-05 5.55779e-05 -5.30533e-06
-0.000257967 7.7416e-05 7.73792e-05 8.13031e-13
-0.000219906 6.5987e-05 6.59652e-05 -2.87365e-06
-0.000184261 5.52841e-05 5.52756e-05 -5.30533e-06
-0.000222323 6.67121e-05 6.66905e-05 -2.87365e-06
-0.000221114 6.63496e-05 6.63278e-05 -2.87365e-06
-0.000256557 7.69929e-05 7.69562e-05 7.94593e-13
-0.000253737 7.61468e-05 7.61101e-05 7.98273e-13
-0.000181238 5.43779e-05 5.43688e-05 -5.30534e-06
-0.000183253 5.4982e-05 5.49734e-05 -5.30533e-06
-0.000255147 7.65698e-05 7.65332e-05 8.16001e-13
-0.000217488 6.52619e-05 6.52399e-05 -2.87366e-06
-0.000182246 5.468e-05 5.46711e-05 -5.30534e-06
-0.000219906 6.5987e-05 6.59652e-05 -2.87365e-06
-0.000218697 6.56244e-05 6.56025e-05 -2.87365e-06
-0.000253737 7.61468e-05 7.61101e-05 7.98273e-13
-0.000250917 7.53006e-05 7.52641e-05 7.81546e-13
-0.000179224 5.37737e-05 5.37643e-05 -5.30534e-06
-0.000181238 5.43779e-05 5.43688e-05 -5.30534e-06
-0.000252327 7.57237e-05 7.56871e-05 7.70416e-13
-0.000215071 6.45367e-05 6.45146e-05 -2.87366e-06
-0.000180231 5.40758e-05 5.40665e-05 -5.30534e-06
-0.000217488 6.52619e-05 6.52399e-05 -2.87366e-06
-0.00021628 6.48993e-05 6.48772e-05 -2.87366e-06
-0.000250917 7.53006e-05 7.52641e-05 8.08128e-13
-0.000248097 7.44545e-05 7.44181e-05 7.8989e-13
-0.000177209 5.31696e-05 5.31597e-05 -5.30535e-06
-0.000179224 5.37737e-05 5.37643e-05 -5.30534e-06
-0.000249507 7.48776e-05 7.48411e-05 7.84393e-13
-0.000212653 6.38116e-05 6.37893e-05 -2.87366e-06
-0.000178216 5.34717e-05 5.3462e-05 -5.30535e-06
-0.000215071 6.45367e-05 6.45146e-05 -2.87366e-06
-0.000213862 6.41742e-05 6.41519e-05 -2.87366e-06
-0.000248097 7.44545e-05 7.44181e-05 7.89953e-13
-0.000245277 7.36084e-05 7.35721e-05 7.79437e-13
-0.000175194 5.25654e-05 5.25552e-05 -5.30536e-06
-0.000177209 5.31696e-05 5.31597e-05 -5.30535e-06
-0.000246687 7.40314e-05 7.39951e-05 7.76162e-13
-0.000210236 6.30865e-05 6.3064e-05 -2.87367e-06
-0.000176202 5.28675e-05 5.28575e-05 -5.30535e-06
-0.000212653 6.38116e-05 6.37893e-05 -2.87366e-06
-0.000211445 6.3449e-05 6.34267e-05 -2.87367e-06
-0.000245277 7.36084e-05 7.35721e-05 7.79437e-13
-0.000242456 7.27622e-05 7.27261e-05 7.58346e-13
-0.00017318 5.19613e-05 5.19507e-05 -5.30536e-06
-0.000175194 5.25654e-05 5.25552e-05 -5.30536e-06
-0.000243867 7.31853e-05 7.31491e-05 7.54786e-13
-0.000207818 6.23613e-05 6.23387e-05 -2.87367e-06
-0.000174187 5.22634e-05 5.22529e-05 -5.30536e-06
-0.000210236 6.30865e-05 6.3064e-05 -2.87367e-06
-0.000209027 6.27239e-05 6.27014e-05 -2.87367e-06
-0.000242456 7.27622e-05 7.27261e-05 7.58346e-13
-0.000239636 7.19161e-05 7.18801e-05 7.46591e-13
-0.000171165 5.13571e-05 5.13461e-05 -5.30537e-06
-0.00017318 5.19613e-05 5.19507e-05 -5.30536e-06
-0.000241046 7.23391e-05 7.23031e-05 7.56345e-13
-0.000205401 6.16362e-05 6.16135e-05 -2.87367e-06
-0.000172172 5.16592e-05 5.16484e-05 -5.30536e-06
-0.000207818 6.23613e-05 6.23387e-05 -2.87367e-06
-0.00020661 6.19988e-05 6.19761e-05 -2.87367e-06
-0.000239636 7.19161e-05 7.18801e-05 7.4659e-13
-0.000236816 7.10699e-05 7.10341e-05 7.286e-13
-0.00016915 5.0753e-05 5.07416e-05 -5.30537e-06
-0.000171165 5.13571e-05 5.13461e-05 -5.30537e-06
-0.000238226 7.1493e-05 7.14571e-05 7.5725e-13
-0.000202984 6.09111e-05 6.08882e-05 -2.87368e-06
-0.000170157 5.10551e-05 5.10439e-05 -5.30537e-06
-0.000205401 6.16362e-05 6.16135e-05 -2.87367e-06
-0.000204192 6.12736e-05 6.12508e-05 -2.87368e-06
-0.000236816 7.10699e-05 7.10341e-05 7.41841e-13
-0.000233996 7.02238e-05 7.01881e-05 7.40489e-13
-0.000167135 5.01488e-05 5.01371e-05 -5.30538e-06
-0.00016915 5.0753e-05 5.07416e-05 -5.30537e-06
-0.000235406 7.06469e-05 7.06111e-05 7.24764e-13
-0.000200566 6.01859e-05 6.01629e-05 -2.87368e-06
-0.000168143 5.04509e-05 5.04394e-05 -5.30537e-06
-0.000202984 6.09111e-05 6.08882e-05 -2.87368e-06
-0.000201775 6.05485e-05 6.05256e-05 -2.87368e-06
-0.000233996 7.02238e-05 7.01881e-05 7.40489e-13
-0.000231176 6.93777e-05 6.93421e-05 7.01171e-13
-0.000165121 4.95447e-05 4.95326e-05 -5.30538e-06
-0.000167135 5.01488e-05 5.01371e-05 -5.30538e-06
-0.000232586 6.98007e-05 6.97651e-05 6.99888e-13
-0.000198149 5.94608e-05 5.94377e-05 -2.87369e-06
-0.000166128 4.98468e-05 4.98348e-05 -5.30538e-06
-0.000200566 6.01859e-05 6.01629e-05 -2.87368e-06
-0.000199357 5.98234e-05 5.98003e-05 -2.87368e-06
-0.000231176 6.93777e-05 6.93421e-05 7.01171e-13
-0.000228356 6.85315e-05 6.84961e-05 6.82175e-13
-0.000163106 4.89405e-05 4.89281e-05 -5.30539e-06
-0.000165121 4.95447e-05 4.95326e-05 -5.30538e-06
-0.000229766 6.89546e-05 6.89191e-05 7.05851e-13
-0.000195731 5.87356e-05 5.87124e-05 -2.87369e-06
-0.000164113 4.92426e-05 4.92303e-05 -5.30539e-06
-0.000198149 5.94608e-05 5.94377e-05 -2.87369e-06
-0.00019694 5.90982e-05 5.9075e-05 -2.87369e-06
-0.000228356 6.85315e-05 6.84961e-05 7.08737e-13
-0.000225536 6.76854e-05 6.76501e-05 6.9363e-13
-0.000161091 4.83364e-05 4.83236e-05 -5.30539e-06
-0.000163106 4.89405e-05 4.89281e-05 -5.30539e-06
-0.000226946 6.81084e-05 6.80731e-05 6.87245e-13
-0.000193314 5.80105e-05 5.79871e-05 -2.87369e-06
-0.000162099 4.86384e-05 4.86258e-05 -5.30539e-06
-0.000195731 5.87356e-05 5.87124e-05 -2.87369e-06
-0.000194523 5.83731e-05 5.83498e-05 -2.87369e-06
-0.000225536 6.76854e-05 6.76501e-05 6.93652e-13
-0.000222715 6.68392e-05 6.68041e-05 6.65017e-13
-0.000159077 4.77322e-05 4.77191e-05 -5.3054e-06
-0.000161091 4.83364e-05 4.83236e-05 -5.30539e-06
-0.000224126 6.72623e-05 6.72271e-05 6.80015e-13
-0.000190896 5.72854e-05 5.72619e-05 -2.8737e-06
-0.000160084 4.80343e-05 4.80213e-05 -5.3054e-06
-0.000193314 5.80105e-05 5.79871e-05 -2.87369e-06
-0.000192105 5.76479e-05 5.76245e-05 -2.8737e-06
-0.000222715 6.68392e-05 6.68041e-05 6.65017e-13
-0.000219895 6.59931e-05 6.59581e-05 6.87366e-13
-0.000157062 4.7128e-05 4.71146e-05 -5.30541e-06
-0.000159077 4.77322e-05 4.77191e-05 -5.3054e-06
-0.000221305 6.64162e-05 6.63811e-05 7.09496e-13
-0.000188479 5.65602e-05 5.65366e-05 -2.8737e-06
-0.000158069 4.74301e-05 4.74168e-05 -5.3054e-06
-0.000190896 5.72854e-05 5.72619e-05 -2.8737e-06
-0.000189688 5.69228e-05 5.68993e-05 -2.8737e-06
-0.000219895 6.59931e-05 6.59581e-05 6.87366e-13
-0.000217075 6.5147e-05 6.51121e-05 6.59218e-13
-0.000155047 4.65239e-05 4.65101e-05 -5.30541e-06
-0.000157062 4.7128e-05 4.71146e-05 -5.30541e-06
-0.000218485 6.557e-05 6.55351e-05 6.5499e-13
-0.000186062 5.58351e-05 5.58114e-05 -2.8737e-06
-0.000156055 4.68259e-05 4.68123e-05 -5.30541e-06
-0.000188479 5.65602e-05 5.65366e-05 -2.8737e-06
-0.00018727 5.61976e-05 5.6174e-05 -2.8737e-06
-0.000217075 6.5147e-05 6.51121e-05 6.59174e-13
-0.000214255 6.43008e-05 6.42661e-05 6.61614e-13
-0.000153033 4.59197e-05 4.59056e-05 -5.30542e-06
-0.000155047 4.65239e-05 4.65101e-05 -5.30541e-06
-0.000215665 6.47239e-05 6.46891e-05 6.59804e-13
-0.000183644 5.51099e-05 5.50861e-05 -2.87371e-06
-0.00015404 4.62218e-05 4.62078e-05 -5.30541e-06
-0.000186062 5.58351e-05 5.58114e-05 -2.8737e-06
-0.000184853 5.54725e-05 5.54488e-05 -2.87371e-06
-0.000214255 6.43008e-05 6.42661e-05 6.48357e-13
-0.000211435 6.34547e-05 6.34201e-05 6.13529e-13
-0.000151018 4.53155e-05 4.53011e-05 -5.30542e-06
-0.000153033 4.59197e-05 4.59056e-05 -5.30542e-06
-0.000212845 6.38778e-05 6.38431e-05 6.66466e-13
-0.000181227 5.43848e-05 5.43609e-05 -2.87371e-06
-0.000152025 4.56176e-05 4.56033e-05 -5.30542e-06
-0.000183644 5.51099e-05 5.50861e-05 -2.87371e-06
-0.000182436 5.47474e-05 5.47235e-05 -2.87371e-06
-0.000211435 6.34547e-05 6.34201e-05 6.13529e-13
-0.000208615 6.26086e-05 6.25741e-05 6.26143e-13
-0.000149003 4.47113e-05 4.46966e-05 -5.30543e-06
-0.000151018 4.53155e-05 4.53011e-05 -5.30542e-06
-0.000210025 6.30316e-05 6.29971e-05 6.41608e-13
-0.000178809 5.36596e-05 5.36356e-05 -2.87372e-06
-0.000150011 4.50134e-05 4.49988e-05 -5.30542e-06
-0.000181227 5.43848e-05 5.43609e-05 -2.87371e-06
-0.000180018 5.40222e-05 5.39983e-05 -2.87371e-06
-0.000208615 6.26086e-05 6.25741e-05 6.26143e-13
-0.000205795 6.17624e-05 6.17282e-05 6.07433e-13
-0.000146989 4.41071e-05 4.40921e-05 -5.30543e-06
-0.000149003 4.47113e-05 4.46966e-05 -5.30543e-06
-0.000207205 6.21855e-05 6.21511e-05 6.00277e-13
-0.000176392 5.29345e-05 5.29104e-05 -2.87372e-06
-0.000147996 4.44092e-05 4.43944e-05 -5.30543e-06
-0.000178809 5.36596e-05 5.36356e-05 -2.87372e-06
-0.000177601 5.32971e-05 5.3273e-05 -2.87372e-06
-0.000205795 6.17624e-05 6.17282e-05 5.94154e-13
-0.000202975 6.09163e-05 6.08822e-05 6.36343e-13
-0.000144974 4.3503e-05 4.34876e-05 -5.30544e-06
-0.000146989 4.41071e-05 4.40921e-05 -5.30543e-06
-0.000204385 6.13394e-05 6.13052e-05 6.06977e-13
-0.000173975 5.22093e-05 5.21852e-05 -2.87372e-06
-0.000145981 4.38051e-05 4.37899e-05 -5.30544e-06
-0.000176392 5.29345e-05 5.29104e-05 -2.87372e-06
-0.000175183 5.25719e-05 5.25478e-05 -2.87372e-06
-0.000202975 6.09163e-05 6.08822e-05 6.36298e-13
-0.000200155 6.00702e-05 6.00362e-05 5.90461e-13
-0.000142959 4.28988e-05 4.28832e-05 -5.30544e-06
-0.000144974 4.3503e-05 4.34876e-05 -5.30544e-06
-0.000201565 6.04932e-05 6.04592e-05 6.07586e-13
-0.000171557 5.14842e-05 5.14599e-05 -2.87373e-06
-0.000143967 4.32009e-05 4.31854e-05 -5.30544e-06
-0.000173975 5.22093e-05 5.21852e-05 -2.87372e-06
-0.000172766 5.18468e-05 5.18225e-05 -2.87373e-06
-0.000200155 6.00702e-05 6.00362e-05 5.90461e-13
-0.000197334 5.9224e-05 5.91902e-05 5.82245e-13
-0.000140945 4.22946e-05 4.22787e-05 -5.30545e-06
-0.000142959 4.28988e-05 4.28832e-05 -5.30544e-06
-0.000198745 5.96471e-05 5.96132e-05 5.83151e-13
-0.00016914 5.0759e-05 5.07347e-05 -2.87373e-06
-0.000141952 4.25967e-05 4.25809e-05 -5.30545e-06
-0.000171557 5.14842e-05 5.14599e-05 -2.87373e-06
-0.000170349 5.11216e-05 5.10973e-05 -2.87373e-06
-0.000197334 5.9224e-05 5.91902e-05 5.82245e-13
-0.000194514 5.83779e-05 5.83442e-05 5.63144e-13
-0.00013893 4.16904e-05 4.16742e-05 -5.30546e-06
-0.000140945 4.22946e-05 4.22787e-05 -5.30545e-06
-0.000195924 5.8801e-05 5.87672e-05 5.63661e-13
-0.000166723 5.00339e-05 5.00095e-05 -2.87374e-06
-0.000139938 4.19925e-05 4.19765e-05 -5.30545e-06
-0.00016914 5.0759e-05 5.07347e-05 -2.87373e-06
-0.000167931 5.03965e-05 5.03721e-05 -2.87373e-06
-0.000194514 5.83779e-05 5.83442e-05 5.63099e-13
-0.000191694 5.75318e-05 5.74982e-05 5.67852e-13
-0.000136916 4.10862e-05 4.10698e-05 -5.30546e-06
-0.00013893 4.16904e-05 4.16742e-05 -5.30546e-06
-0.000193104 5.79548e-05 5.79212e-05 5.58195e-13
-0.000164305 4.93087e-05 4.92842e-05 -2.87374e-06
-0.000137923 4.13883e-05 4.1372e-05 -5.30546e-06
-0.000166723 5.00339e-05 5.00095e-05 -2.87374e-06
-0.000165514 4.96713e-05 4.96468e-05 -2.87374e-06
-0.000191694 5.75318e-05 5.74982e-05 5.67836e-13
-0.000188874 5.66856e-05 5.66523e-05 5.42607e-13
-0.000134901 4.0482e-05 4.04653e-05 -5.30547e-06
-0.000136916 4.10862e-05 4.10698e-05 -5.30546e-06
-0.000190284 5.71087e-05 5.70753e-05 5.59553e-13
-0.000161888 4.85836e-05 4.8559e-05 -2.87374e-06
-0.000135908 4.07841e-05 4.07675e-05 -5.30546e-06
-0.000164305 4.93087e-05 4.92842e-05 -2.87374e-06
-0.000163097 4.89461e-05 4.89216e-05 -2.87374e-06
-0.000188874 5.66856e-05 5.66523e-05 5.42607e-13
-0.000186054 5.58395e-05 5.58063e-05 5.41307e-13
-0.000132886 3.98778e-05 3.98609e-05 -5.30547e-06
-0.000134901 4.0482e-05 4.04653e-05 -5.30547e-06
-0.000187464 5.62626e-05 5.62293e-05 5.22816e-13
-0.000159471 4.78584e-05 4.78338e-05 -2.87375e-06
-0.000133894 4.01799e-05 4.01631e-05 -5.30547e-06
-0.000161888 4.85836e-05 4.8559e-05 -2.87374e-06
-0.000160679 4.8221e-05 4.81964e-05 -2.87374e-06
-0.000186054 5.58395e-05 5.58063e-05 5.41307e-13
-0.000183234 5.49934e-05 5.49603e-05 5.33306e-13
-0.000130872 3.92736e-05 3.92564e-05 -5.30548e-06
-0.000132886 3.98778e-05 3.98609e-05 -5.30547e-06
-0.000184644 5.54164e-05 5.53833e-05 5.32774e-13
-0.000157053 4.71332e-05 4.71086e-05 -2.87375e-06
-0.000131879 3.95757e-05 3.95586e-05 -5.30548e-06
-0.000159471 4.78584e-05 4.78338e-05 -2.87375e-06
-0.000158262 4.74958e-05 4.74712e-05 -2.87375e-06
-0.000183234 5.49934e-05 5.49603e-05 5.33356e-13
-0.000180414 5.41472e-05 5.41143e-05 5.29108e-13
-0.000128857 3.86694e-05 3.8652e-05 -5.30548e-06
-0.000130872 3.92736e-05 3.92564e-05 -5.30548e-06
-0.000181824 5.45703e-05 5.45373e-05 5.18633e-13
-0.000154636 4.64081e-05 4.63834e-05 -2.87375e-06
-0.000129865 3.89715e-05 3.89542e-05 -5.30548e-06
-0.000157053 4.71332e-05 4.71086e-05 -2.87375e-06
-0.000155845 4.67707e-05 4.6746e-05 -2.87375e-06
-0.000180414 5.41472e-05 5.41143e-05 5.29154e-13
-0.000177594 5.33011e-05 5.32684e-05 5.06926e-13
-0.000126843 3.80652e-05 3.80475e-05 -5.30549e-06
-0.000128857 3.86694e-05 3.8652e-05 -5.30548e-06
-0.000179004 5.37242e-05 5.36914e-05 5.13008e-13
-0.000152219 4.56829e-05 4.56581e-05 -2.87376e-06
-0.00012785 3.83673e-05 3.83497e-05 -5.30549e-06
-0.000154636 4.64081e-05 4.63834e-05 -2.87375e-06
-0.000153427 4.60455e-05 4.60207e-05 -2.87376e-06
-0.000177594 5.33011e-05 5.32684e-05 5.06926e-13
-0.000174774 5.2455e-05 5.24224e-05 5.1305e-13
-0.000124828 3.7461e-05 3.74431e-05 -5.3055e-06
-0.000126843 3.80652e-05 3.80475e-05 -5.30549e-06
-0.000176184 5.2878e-05 5.28454e-05 5.24828e-13
-0.000149801 4.49578e-05 4.49329e-05 -2.87376e-06
-0.000125835 3.77631e-05 3.77453e-05 -5.30549e-06
-0.000152219 4.56829e-05 4.56581e-05 -2.87376e-06
-0.00015101 4.53203e-05 4.52955e-05 -2.87376e-06
-0.000174774 5.2455e-05 5.24224e-05 5.1305e-13
-0.000171954 5.16088e-05 5.15764e-05 4.99966e-13
-0.000122814 3.68568e-05 3.68386e-05 -5.3055e-06
-0.000124828 3.7461e-05 3.74431e-05 -5.3055e-06
-0.000173364 5.20319e-05 5.19994e-05 4.8723e-13
-0.000147384 4.42326e-05 4.42077e-05 -2.87377e-06
-0.000123821 3.71589e-05 3.71409e-05 -5.3055e-06
-0.000149801 4.49578e-05 4.49329e-05 -2.87376e-06
-0.000148593 4.45952e-05 4.45703e-05 -2.87376e-06
-0.000171954 5.16088e-05 5.15764e-05 5.00013e-13
-0.000169134 5.07627e-05 5.07305e-05 4.7052e-13
-0.000120799 3.62526e-05 3.62342e-05 -5.30551e-06
-0.000122814 3.68568e-05 3.68386e-05 -5.3055e-06
-0.000170544 5.11858e-05 5.11535e-05 4.87881e-13
-0.000144967 4.35074e-05 4.34825e-05 -2.87377e-06
-0.000121806 3.65547e-05 3.65364e-05 -5.3055e-06
-0.000147384 4.42326e-05 4.42077e-05 -2.87377e-06
-0.000146175 4.387e-05 4.38451e-05 -2.87377e-06
-0.000169134 5.07627e-05 5.07305e-05 4.9711e-13
-0.000166314 4.99166e-05 4.98845e-05 4.77622e-13
-0.000118785 3.56484e-05 3.56298e-05 -5.30551e-06
-0.000120799 3.62526e-05 3.62342e-05 -5.30551e-06
-0.000167724 5.03396e-05 5.03075e-05 4.51473e-13
-0.000142549 4.27823e-05 4.27573e-05 -2.87377e-06
-0.000119792 3.59505e-05 3.5932e-05 -5.30551e-06
-0.000144967 4.35074e-05 4.34825e-05 -2.87377e-06
-0.000143758 4.31449e-05 4.31199e-05 -2.87377e-06
-0.000166314 4.99166e-05 4.98845e-05 4.77622e-13
-0.000163494 4.90704e-05 4.90385e-05 4.51336e-13
-0.00011677 3.50442e-05 3.50254e-05 -5.30552e-06
-0.000118785 3.56484e-05 3.56298e-05 -5.30551e-06
-0.000164904 4.94935e-05 4.94615e-05 4.26972e-13
-0.000140132 4.20571e-05 4.20321e-05 -2.87378e-06
-0.000117777 3.53463e-05 3.53276e-05 -5.30552e-06
-0.000142549 4.27823e-05 4.27573e-05 -2.87377e-06
-0.000141341 4.24197e-05 4.23947e-05 -2.87378e-06
-0.000163494 4.90704e-05 4.90385e-05 4.51336e-13
-0.000160674 4.82243e-05 4.81926e-05 4.63614e-13
-0.000114755 3.44399e-05 3.44209e-05 -5.30553e-06
-0.00011677 3.50442e-05 3.50254e-05 -5.30552e-06
-0.000162084 4.86474e-05 4.86156e-05 4.69406e-13
-0.000137715 4.13319e-05 4.13069e-05 -2.87378e-06
-0.000115763 3.4742e-05 3.47232e-05 -5.30552e-06
-0.000140132 4.20571e-05 4.20321e-05 -2.87378e-06
-0.000138923 4.16945e-05 4.16695e-05 -2.87378e-06
-0.000160674 4.82243e-05 4.81926e-05 4.47113e-13
-0.000157854 4.73782e-05 4.73466e-05 4.18392e-13
-0.000112741 3.38357e-05 3.38165e-05 -5.30553e-06
-0.000114755 3.44399e-05 3.44209e-05 -5.30553e-06
-0.000159264 4.78012e-05 4.77696e-05 4.33834e-13
-0.000135297 4.06068e-05 4.05817e-05 -2.87379e-06
-0.000113748 3.41378e-05 3.41187e-05 -5.30553e-06
-0.000137715 4.13319e-05 4.13069e-05 -2.87378e-06
-0.000136506 4.09694e-05 4.09443e-05 -2.87378e-06
-0.000157854 4.73782e-05 4.73466e-05 4.1844e-13
-0.000155034 4.6532e-05 4.65007e-05 4.149e-13
-0.000110726 3.32315e-05 3.32121e-05 -5.30554e-06
-0.000112741 3.38357e-05 3.38165e-05 -5.30553e-06
-0.000156444 4.69551e-05 4.69237e-05 4.12493e-13
-0.00013288 3.98816e-05 3.98565e-05 -2.87379e-06
-0.000111734 3.35336e-05 3.35143e-05 -5.30553e-06
-0.000135297 4.06068e-05 4.05817e-05 -2.87379e-06
-0.000134089 4.02442e-05 4.02191e-05 -2.87379e-06
-0.000155034 4.6532e-05 4.65007e-05 4.149e-13
-0.000152214 4.56859e-05 4.56547e-05 4.28549e-13
-0.000108712 3.26273e-05 3.26077e-05 -5.30554e-06
-0.000110726 3.32315e-05 3.32121e-05 -5.30554e-06
-0.000153624 4.6109e-05 4.60777e-05 4.61791e-13
-0.000130463 3.91564e-05 3.91314e-05 -2.87379e-06
-0.000109719 3.29294e-05 3.29099e-05 -5.30554e-06
-0.00013288 3.98816e-05 3.98565e-05 -2.87379e-06
-0.000131672 3.9519e-05 3.9494e-05 -2.87379e-06
-0.000152214 4.56859e-05 4.56547e-05 4.28549e-13
-0.000149394 4.48398e-05 4.48088e-05 4.21565e-13
-0.000106697 3.2023e-05 3.20033e-05 -5.30555e-06
-0.000108712 3.26273e-05 3.26077e-05 -5.30554e-06
-0.000150804 4.52628e-05 4.52317e-05 4.24138e-13
-0.000128046 3.84312e-05 3.84062e-05 -2.8738e-06
-0.000107705 3.23251e-05 3.23055e-05 -5.30555e-06
-0.000130463 3.91564e-05 3.91314e-05 -2.87379e-06
-0.000129254 3.87938e-05 3.87688e-05 -2.8738e-06
-0.000149394 4.48398e-05 4.48088e-05 4.21565e-13
-0.000146574 4.39936e-05 4.39628e-05 3.75636e-13
-0.000104683 3.14188e-05 3.13989e-05 -5.30555e-06
-0.000106697 3.2023e-05 3.20033e-05 -5.30555e-06
-0.000147984 4.44167e-05 4.43858e-05 3.98048e-13
-0.000125628 3.77061e-05 3.7681e-05 -2.8738e-06
-0.00010569 3.17209e-05 3.17011e-05 -5.30555e-06
-0.000128046 3.84312e-05 3.84062e-05 -2.8738e-06
-0.000126837 3.80687e-05 3.80436e-05 -2.8738e-06
-0.000146574 4.39936e-05 4.39628e-05 3.75662e-13
-0.000143754 4.31475e-05 4.31169e-05 4.09542e-13
-0.000102668 3.08146e-05 3.07945e-05 -5.30556e-06
-0.000104683 3.14188e-05 3.13989e-05 -5.30555e-06
-0.000145164 4.35706e-05 4.35398e-05 3.87595e-13
-0.000123211 3.69809e-05 3.69558e-05 -2.87381e-06
-0.000103676 3.11167e-05 3.10967e-05 -5.30556e-06
-0.000125628 3.77061e-05 3.7681e-05 -2.8738e-06
-0.00012442 3.73435e-05 3.73184e-05 -2.8738e-06
-0.000143754 4.31475e-05 4.31169e-05 4.09542e-13
-0.000140934 4.23014e-05 4.22709e-05 3.58115e-13
-0.000100654 3.02103e-05 3.01901e-05 -5.30557e-06
-0.000102668 3.08146e-05 3.07945e-05 -5.30556e-06
-0.000142344 4.27245e-05 4.26939e-05 3.80841e-13
-0.000120794 3.62557e-05 3.62306e-05 -2.87381e-06
-0.000101661 3.05124e-05 3.04923e-05 -5.30556e-06
-0.000123211 3.69809e-05 3.69558e-05 -2.87381e-06
-0.000122003 3.66183e-05 3.65932e-05 -2.87381e-06
-0.000140934 4.23014e-05 4.22709e-05 3.84613e-13
-0.000138114 4.14553e-05 4.1425e-05 3.93859e-13
-9.86395e-05 2.96061e-05 2.95857e-05 -5.30557e-06
-0.000100654 3.02103e-05 3.01901e-05 -5.30557e-06
-0.000139524 4.18783e-05 4.18479e-05 3.80571e-13
-0.000118377 3.55305e-05 3.55055e-05 -2.87381e-06
-9.96467e-05 2.99082e-05 2.98879e-05 -5.30557e-06
-0.000120794 3.62557e-05 3.62306e-05 -2.87381e-06
-0.000119585 3.58931e-05 3.58681e-05 -2.87381e-06
-0.000138114 4.14553e-05 4.1425e-05 3.93859e-13
-0.000135294 4.06091e-05 4.0579e-05 3.46082e-13
-9.6625e-05 2.90018e-05 2.89814e-05 -5.30558e-06
-9.86395e-05 2.96061e-05 2.95857e-05 -5.30557e-06
-0.000136704 4.10322e-05 4.1002e-05 3.64034e-13
-0.000115959 3.48054e-05 3.47803e-05 -2.87382e-06
-9.76323e-05 2.9304e-05 2.92836e-05 -5.30558e-06
-0.000118377 3.55305e-05 3.55055e-05 -2.87381e-06
-0.000117168 3.51679e-05 3.51429e-05 -2.87382e-06
-0.000135294 4.06091e-05 4.0579e-05 3.46082e-13
-0.000132474 3.9763e-05 3.97331e-05 3.34283e-13
-9.46106e-05 2.83976e-05 2.8377e-05 -5.30559e-06
-9.6625e-05 2.90018e-05 2.89814e-05 -5.30558e-06
-0.000133884 4.01861e-05 4.01561e-05 3.60987e-13
-0.000113542 3.40802e-05 3.40551e-05 -2.87382e-06
-9.56178e-05 2.86997e-05 2.86792e-05 -5.30558e-06
-0.000115959 3.48054e-05 3.47803e-05 -2.87382e-06
-0.000114751 3.44428e-05 3.44177e-05 -2.87382e-06
-0.000132474 3.9763e-05 3.97331e-05 3.34283e-13
-0.000129654 3.89169e-05 3.88871e-05 3.39126e-13
-9.25961e-05 2.77933e-05 2.77726e-05 -5.30559e-06
-9.46106e-05 2.83976e-05 2.8377e-05 -5.30559e-06
-0.000131064 3.93399e-05 3.93101e-05 3.62296e-13
-0.000111125 3.3355e-05 3.333e-05 -2.87383e-06
-9.36033e-05 2.80955e-05 2.80748e-05 -5.30559e-06
-0.000113542 3.40802e-05 3.40551e-05 -2.87382e-06
-0.000112334 3.37176e-05 3.36926e-05 -2.87382e-06
-0.000129654 3.89169e-05 3.88871e-05 3.39171e-13
-0.000126834 3.80707e-05 3.80412e-05 3.47758e-13
-9.05817e-05 2.71891e-05 2.71682e-05 -5.3056e-06
-9.25961e-05 2.77933e-05 2.77726e-05 -5.30559e-06
-0.000128244 3.84938e-05 3.84642e-05 3.26431e-13
-0.000108708 3.26298e-05 3.26048e-05 -2.87383e-06
-9.15889e-05 2.74912e-05 2.74704e-05 -5.30559e-06
-0.000111125 3.3355e-05 3.333e-05 -2.87383e-06
-0.000109916 3.29924e-05 3.29674e-05 -2.87383e-06
-0.000126834 3.80707e-05 3.80412e-05 3.47758e-13
-0.000124014 3.72246e-05 3.71953e-05 3.13803e-13
-8.85672e-05 2.65848e-05 2.65639e-05 -5.3056e-06
-9.05817e-05 2.71891e-05 2.71682e-05 -5.3056e-06
-0.000125424 3.76477e-05 3.76182e-05 3.15771e-13
-0.00010629 3.19046e-05 3.18797e-05 -2.87383e-06
-8.95744e-05 2.6887e-05 2.68661e-05 -5.3056e-06
-0.000108708 3.26298e-05 3.26048e-05 -2.87383e-06
-0.000107499 3.22672e-05 3.22422e-05 -2.87383e-06
-0.000124014 3.72246e-05 3.71953e-05 3.13803e-13
-0.000121194 3.63785e-05 3.63493e-05 3.2243e-13
-8.65528e-05 2.59806e-05 2.59595e-05 -5.30561e-06
-8.85672e-05 2.65848e-05 2.65639e-05 -5.3056e-06
-0.000122604 3.68015e-05 3.67723e-05 3.23363e-13
-0.000103873 3.11794e-05 3.11545e-05 -2.87384e-06
-8.756e-05 2.62827e-05 2.62617e-05 -5.30561e-06
-0.00010629 3.19046e-05 3.18797e-05 -2.87383e-06
-0.000105082 3.1542e-05 3.15171e-05 -2.87384e-06
-0.000121194 3.63785e-05 3.63493e-05 2.9586e-13
-0.000118374 3.55324e-05 3.55034e-05 3.13224e-13
-8.45383e-05 2.53763e-05 2.53552e-05 -5.30562e-06
-8.65528e-05 2.59806e-05 2.59595e-05 -5.30561e-06
-0.000119784 3.59554e-05 3.59264e-05 2.76418e-13
-0.000101456 3.04542e-05 3.04294e-05 -2.87384e-06
-8.55456e-05 2.56785e-05 2.56573e-05 -5.30561e-06
-0.000103873 3.11794e-05 3.11545e-05 -2.87384e-06
-0.000102665 3.08168e-05 3.07919e-05 -2.87384e-06
-0.000118374 3.55324e-05 3.55034e-05 3.13174e-13
-0.000115554 3.46862e-05 3.46575e-05 3.04365e-13
-8.25239e-05 2.47721e-05 2.47508e-05 -5.30562e-06
-8.45383e-05 2.53763e-05 2.53552e-05 -5.30562e-06
-0.000116964 3.51093e-05 3.50804e-05 2.76218e-13
-9.90389e-05 2.9729e-05 2.97042e-05 -2.87385e-06
-8.35311e-05 2.50742e-05 2.5053e-05 -5.30562e-06
-0.000101456 3.04542e-05 3.04294e-05 -2.87384e-06
-0.000100247 3.00916e-05 3.00668e-05 -2.87384e-06
-0.000115554 3.46862e-05 3.46575e-05 3.04365e-13
-0.000112734 3.38401e-05 3.38115e-05 2.91817e-13
-8.05095e-05 2.41678e-05 2.41464e-05 -5.30563e-06
-8.25239e-05 2.47721e-05 2.47508e-05 -5.30562e-06
-0.000114144 3.42632e-05 3.42345e-05 3.20205e-13
-9.66217e-05 2.90039e-05 2.89791e-05 -2.87385e-06
-8.15167e-05 2.44699e-05 2.44486e-05 -5.30563e-06
-9.90389e-05 2.9729e-05 2.97042e-05 -2.87385e-06
-9.78303e-05 2.93664e-05 2.93416e-05 -2.87385e-06
-0.000112734 3.38401e-05 3.38115e-05 2.91817e-13
-0.000109914 3.2994e-05 3.29656e-05 2.92652e-13
-7.84951e-05 2.35635e-05 2.35421e-05 -5.30563e-06
-8.05095e-05 2.41678e-05 2.41464e-05 -5.30563e-06
-0.000111324 3.3417e-05 3.33886e-05 2.57147e-13
-9.42045e-05 2.82787e-05 2.82539e-05 -2.87386e-06
-7.95023e-05 2.38657e-05 2.38443e-05 -5.30563e-06
-9.66217e-05 2.90039e-05 2.89791e-05 -2.87385e-06
-9.54131e-05 2.86413e-05 2.86165e-05 -2.87385e-06
-0.000109914 3.2994e-05 3.29656e-05 2.92602e-13
-0.000107094 3.21478e-05 3.21197e-05 2.46902e-13
-7.64807e-05 2.29593e-05 2.29378e-05 -5.30564e-06
-7.84951e-05 2.35635e-05 2.35421e-05 -5.30563e-06
-0.000108504 3.25709e-05 3.25426e-05 2.72439e-13
-9.17873e-05 2.75535e-05 2.75288e-05 -2.87386e-06
-7.74879e-05 2.32614e-05 2.32399e-05 -5.30564e-06
-9.42045e-05 2.82787e-05 2.82539e-05 -2.87386e-06
-9.29959e-05 2.79161e-05 2.78914e-05 -2.87386e-06
-0.000107094 3.21478e-05 3.21197e-05 2.73382e-13
-0.000104274 3.13017e-05 3.12737e-05 2.43447e-13
-7.44663e-05 2.2355e-05 2.23334e-05 -5.30565e-06
-7.64807e-05 2.29593e-05 2.29378e-05 -5.30564e-06
-0.000105684 3.17248e-05 3.16967e-05 2.47584e-13
-8.93701e-05 2.68283e-05 2.68037e-05 -2.87386e-06
-7.54735e-05 2.26571e-05 2.26356e-05 -5.30564e-06
-9.17873e-05 2.75535e-05 2.75288e-05 -2.87386e-06
-9.05787e-05 2.71909e-05 2.71662e-05 -2.87386e-06
-0.000104274 3.13017e-05 3.12737e-05 2.43447e-13
-0.000101454 3.04556e-05 3.04278e-05 2.54099e-13
-7.24519e-05 2.17507e-05 2.17291e-05 -5.30565e-06
-7.44663e-05 2.2355e-05 2.23334e-05 -5.30565e-06
-0.000102864 3.08786e-05 3.08508e-05 2.96183e-13
-8.69529e-05 2.61031e-05 2.60785e-05 -2.87387e-06
-7.34591e-05 2.20528e-05 2.20313e-05 -5.30565e-06
-8.93701e-05 2.68283e-05 2.68037e-05 -2.87386e-06
-8.81615e-05 2.64657e-05 2.64411e-05 -2.87387e-06
-0.000101454 3.04556e-05 3.04278e-05 2.54099e-13
-9.86339e-05 2.96094e-05 2.95819e-05 2.47787e-13
-7.04375e-05 2.11464e-05 2.11248e-05 -5.30566e-06
-7.24519e-05 2.17507e-05 2.17291e-05 -5.30565e-06
-0.000100044 3.00325e-05 3.00049e-05 2.76561e-13
-8.45358e-05 2.53779e-05 2.53534e-05 -2.87387e-06
-7.14447e-05 2.14486e-05 2.14269e-05 -5.30566e-06
-8.69529e-05 2.61031e-05 2.60785e-05 -2.87387e-06
-8.57444e-05 2.57405e-05 2.5716e-05 -2.87387e-06
-9.86339e-05 2.96094e-05 2.95819e-05 2.51146e-13
-9.58139e-05 2.87633e-05 2.8736e-05 2.52778e-13
-6.84232e-05 2.05421e-05 2.05204e-05 -5.30567e-06
-7.04375e-05 2.11464e-05 2.11248e-05 -5.30566e-06
-9.72239e-05 2.91864e-05 2.91589e-05 1.82058e-13
-8.21186e-05 2.46527e-05 2.46283e-05 -2.87388e-06
-6.94303e-05 2.08443e-05 2.08226e-05 -5.30566e-06
-8.45358e-05 2.53779e-05 2.53534e-05 -2.87387e-06
-8.33272e-05 2.50153e-05 2.49908e-05 -2.87387e-06
-9.58139e-05 2.87633e-05 2.8736e-05 2.52822e-13
-9.2994e-05 2.79172e-05 2.78901e-05 2.116e-13
-6.64088e-05 1.99379e-05 1.99161e-05 -5.30567e-06
-6.84232e-05 2.05421e-05 2.05204e-05 -5.30567e-06
-9.4404e-05 2.83402e-05 2.8313e-05 1.68415e-13
-7.97015e-05 2.39275e-05 2.39031e-05 -2.87388e-06
-6.7416e-05 2.024e-05 2.02183e-05 -5.30567e-06
-8.21186e-05 2.46527e-05 2.46283e-05 -2.87388e-06
-8.091e-05 2.42901e-05 2.42657e-05 -2.87388e-06
-9.2994e-05 2.79172e-05 2.78901e-05 2.116e-13
-9.01741e-05 2.70711e-05 2.70441e-05 1.80775e-13
-6.43944e-05 1.93336e-05 1.93118e-05 -5.30568e-06
-6.64088e-05 1.99379e-05 1.99161e-05 -5.30567e-06
-9.1584e-05 2.74941e-05 2.74671e-05 2.24825e-13
-7.72843e-05 2.32023e-05 2.3178e-05 -2.87388e-06
-6.54016e-05 1.96357e-05 1.9614e-05 -5.30568e-06
-7.97015e-05 2.39275e-05 2.39031e-05 -2.87388e-06
-7.84929e-05 2.35649e-05 2.35406e-05 -2.87388e-06
-9.01741e-05 2.70711e-05 2.70441e-05 1.80775e-13
-8.73541e-05 2.62249e-05 2.61982e-05 1.99803e-13
-6.23801e-05 1.87293e-05 1.87075e-05 -5.30568e-06
-6.43944e-05 1.93336e-05 1.93118e-05 -5.30568e-06
-8.87641e-05 2.6648e-05 2.66212e-05 1.66084e-13
-7.48672e-05 2.2477e-05 2.24529e-05 -2.87389e-06
-6.33872e-05 1.90314e-05 1.90096e-05 -5.30568e-06
-7.72843e-05 2.32023e-05 2.3178e-05 -2.87388e-06
-7.60757e-05 2.28397e-05 2.28155e-05 -2.87389e-06
-8.73541e-05 2.62249e-05 2.61982e-05 1.99758e-13
-8.45342e-05 2.53788e-05 2.53523e-05 1.55515e-13
-6.03657e-05 1.8125e-05 1.81032e-05 -5.30569e-06
-6.23801e-05 1.87293e-05 1.87075e-05 -5.30568e-06
-8.59442e-05 2.58019e-05 2.57753e-05 2.02697e-13
-7.245e-05 2.17518e-05 2.17278e-05 -2.87389e-06
-6.13729e-05 1.84271e-05 1.84053e-05 -5.30569e-06
-7.48672e-05 2.2477e-05 2.24529e-05 -2.87389e-06
-7.36586e-05 2.21144e-05 2.20903e-05 -2.87389e-06
-8.45342e-05 2.53788e-05 2.53523e-05 1.9531e-13
-8.17143e-05 2.45327e-05 2.45064e-05 1.4541e-13
-5.83514e-05 1.75207e-05 1.74989e-05 -5.3057e-06
-6.03657e-05 1.8125e-05 1.81032e-05 -5.30569e-06
-8.31242e-05 2.49557e-05 2.49294e-05 1.10588e-13
-7.00329e-05 2.10266e-05 2.10027e-05 -2.8739e-06
-5.93585e-05 1.78228e-05 1.7801e-05 -5.30569e-06
-7.245e-05 2.17518e-05 2.17278e-05 -2.87389e-06
-7.12414e-05 2.13892e-05 2.13652e-05 -2.87389e-06
-8.17143e-05 2.45327e-05 2.45064e-05 1.4541e-13
-7.88944e-05 2.36865e-05 2.36605e-05 1.4773e-13
-5.6337e-05 1.69164e-05 1.68946e-05 -5.3057e-06
-5.83514e-05 1.75207e-05 1.74989e-05 -5.3057e-06
-8.03043e-05 2.41096e-05 2.40835e-05 1.47224e-13
-6.76157e-05 2.03014e-05 2.02776e-05 -2.8739e-06
-5.73442e-05 1.72185e-05 1.71967e-05 -5.3057e-06
-7.00329e-05 2.10266e-05 2.10027e-05 -2.8739e-06
-6.88243e-05 2.0664e-05 2.06401e-05 -2.8739e-06
-7.88944e-05 2.36865e-05 2.36605e-05 1.4773e-13
-7.60744e-05 2.28404e-05 2.28146e-05 1.32922e-13
-5.43227e-05 1.63121e-05 1.62903e-05 -5.30571e-06
-5.6337e-05 1.69164e-05 1.68946e-05 -5.3057e-06
-7.74844e-05 2.32635e-05 2.32375e-05 1.11626e-13
-6.51986e-05 1.95762e-05 1.95525e-05 -2.8739e-06
-5.53299e-05 1.66142e-05 1.65924e-05 -5.3057e-06
-6.76157e-05 2.03014e-05 2.02776e-05 -2.8739e-06
-6.64072e-05 1.99388e-05 1.9915e-05 -2.8739e-06
-7.60744e-05 2.28404e-05 2.28146e-05 1.46226e-13
-7.32545e-05 2.19943e-05 2.19687e-05 9.87386e-14
-5.23084e-05 1.57078e-05 1.5686e-05 -5.30571e-06
-5.43227e-05 1.63121e-05 1.62903e-05 -5.30571e-06
-7.46645e-05 2.24173e-05 2.23916e-05 1.19597e-13
-6.27815e-05 1.8851e-05 1.88274e-05 -2.87391e-06
-5.33155e-05 1.60099e-05 1.59881e-05 -5.30571e-06
-6.51986e-05 1.95762e-05 1.95525e-05 -2.8739e-06
-6.39901e-05 1.92136e-05 1.91899e-05 -2.87391e-06
-7.32545e-05 2.19943e-05 2.19687e-05 9.87898e-14
-7.04346e-05 2.11481e-05 2.11228e-05 1.11575e-13
-5.02941e-05 1.51035e-05 1.50817e-05 -5.30572e-06
-5.23084e-05 1.57078e-05 1.5686e-05 -5.30571e-06
-7.18446e-05 2.15712e-05 2.15457e-05 1.63385e-13
-6.03644e-05 1.81258e-05 1.81023e-05 -2.87391e-06
-5.13012e-05 1.54056e-05 1.53838e-05 -5.30571e-06
-6.27815e-05 1.8851e-05 1.88274e-05 -2.87391e-06
-6.15729e-05 1.84884e-05 1.84648e-05 -2.87391e-06
-7.04346e-05 2.11481e-05 2.11228e-05 1.11575e-13
-6.76147e-05 2.0302e-05 2.02769e-05 1.89532e-13
-4.82798e-05 1.44992e-05 1.44774e-05 -5.30572e-06
-5.02941e-05 1.51035e-05 1.50817e-05 -5.30572e-06
-6.90247e-05 2.07251e-05 2.06998e-05 1.96588e-13
-5.79473e-05 1.74006e-05 1.73772e-05 -2.87391e-06
-4.92869e-05 1.48013e-05 1.47795e-05 -5.30572e-06
-6.03644e-05 1.81258e-05 1.81023e-05 -2.87391e-06
-5.91558e-05 1.77632e-05 1.77397e-05 -2.87391e-06
-6.76147e-05 2.0302e-05 2.02769e-05 1.89532e-13
-6.47948e-05 1.94559e-05 1.9431e-05 3.10852e-13
-4.62655e-05 1.38949e-05 1.38731e-05 -5.30573e-06
-4.82798e-05 1.44992e-05 1.44774e-05 -5.30572e-06
-6.62048e-05 1.98789e-05 1.98539e-05 2.36063e-13
-5.55302e-05 1.66753e-05 1.66521e-05 -2.87392e-06
-4.72726e-05 1.4197e-05 1.41753e-05 -5.30573e-06
-5.79473e-05 1.74006e-05 1.73772e-05 -2.87391e-06
-5.67387e-05 1.70379e-05 1.70146e-05 -2.87392e-06
-6.47948e-05 1.94559e-05 1.9431e-05 3.1086e-13
-6.1975e-05 1.86098e-05 1.85851e-05 6.04552e-13
-4.42512e-05 1.32905e-05 1.32688e-05 -5.30574e-06
-4.62655e-05 1.38949e-05 1.38731e-05 -5.30573e-06
-6.33849e-05 1.90328e-05 1.9008e-05 3.9725e-13
-5.31131e-05 1.59501e-05 1.5927e-05 -2.87393e-06
-4.52583e-05 1.35927e-05 1.3571e-05 -5.30573e-06
-5.55302e-05 1.66753e-05 1.66521e-05 -2.87392e-06
-5.43216e-05 1.63127e-05 1.62895e-05 -2.87392e-06
-6.1975e-05 1.86098e-05 1.85851e-05 6.17863e-13
-5.91551e-05 1.77636e-05 1.77392e-05 8.81902e-13
-4.22369e-05 1.26862e-05 1.26646e-05 -5.30575e-06
-4.42512e-05 1.32905e-05 1.32688e-05 -5.30574e-06
-6.0565e-05 1.81867e-05 1.81621e-05 7.24935e-13
-5.0696e-05 1.52249e-05 1.52019e-05 -2.87394e-06
-4.3244e-05 1.29884e-05 1.29667e-05 -5.30575e-06
-5.31131e-05 1.59501e-05 1.5927e-05 -2.87393e-06
-5.19045e-05 1.55875e-05 1.55644e-05 -2.87393e-06
-5.91551e-05 1.77636e-05 1.77392e-05 8.81902e-13
-5.63352e-05 1.69175e-05 1.68933e-05 1.74664e-12
-4.02226e-05 1.20819e-05 1.20603e-05 -5.30578e-06
-4.22369e-05 1.26862e-05 1.26646e-05 -5.30575e-06
-5.77451e-05 1.73406e-05 1.73162e-05 1.38979e-12
-4.82789e-05 1.44997e-05 1.44768e-05 -2.87396e-06
-4.12298e-05 1.23841e-05 1.23624e-05 -5.30577e-06
-5.0696e-05 1.52249e-05 1.52019e-05 -2.87394e-06
-4.94875e-05 1.48623e-05 1.48394e-05 -2.87395e-06
-5.63352e-05 1.69175e-05 1.68933e-05 1.74664e-12
-5.35152e-05 1.60713e-05 1.60474e-05 2.24536e-12
-3.82084e-05 1.14776e-05 1.1456e-05 -5.30582e-06
-4.02226e-05 1.20819e-05 1.20603e-05 -5.30578e-06
-5.49252e-05 1.64944e-05 1.64703e-05 1.82067e-12
-4.58618e-05 1.37745e-05 1.37517e-05 -2.87399e-06
-3.92155e-05 1.17798e-05 1.17582e-05 -5.3058e-06
-4.82789e-05 1.44997e-05 1.44768e-05 -2.87396e-06
-4.70704e-05 1.41371e-05 1.41143e-05 -2.87397e-06
-5.35152e-05 1.60713e-05 1.60474e-05 2.22879e-12
-5.06953e-05 1.52252e-05 1.52015e-05 3.27792e-12
-3.61941e-05 1.08733e-05 1.08518e-05 -5.30589e-06
-3.82084e-05 1.14776e-05 1.1456e-05 -5.30582e-06
-5.21053e-05 1.56483e-05 1.56244e-05 3.73492e-12
-4.34447e-05 1.30492e-05 1.30266e-05 -2.87405e-06
-3.72012e-05 1.11755e-05 1.11539e-05 -5.30585e-06
-4.58618e-05 1.37745e-05 1.37517e-05 -2.87399e-06
-4.46532e-05 1.34118e-05 1.33892e-05 -2.87402e-06
-5.06953e-05 1.52252e-05 1.52015e-05 3.27792e-12
-4.78752e-05 1.4379e-05 1.43555e-05 2.8974e-12
-3.41799e-05 1.0269e-05 1.02475e-05 -5.30596e-06
-3.61941e-05 1.08733e-05 1.08518e-05 -5.30589e-06
-4.92852e-05 1.48021e-05 1.47785e-05 1.76102e-12
-4.10275e-05 1.2324e-05 1.23015e-05 -2.87413e-06
-3.5187e-05 1.05712e-05 1.05496e-05 -5.30592e-06
-4.34447e-05 1.30492e-05 1.30266e-05 -2.87405e-06
-4.22361e-05 1.26866e-05 1.26641e-05 -2.87409e-06
-4.78752e-05 1.4379e-05 1.43555e-05 2.8974e-12
-4.5055e-05 1.35327e-05 1.35095e-05 -1.87072e-12
-3.21657e-05 9.66468e-06 9.6433e-06 -5.30602e-06
-3.41799e-05 1.0269e-05 1.02475e-05 -5.30596e-06
-4.64651e-05 1.39559e-05 1.39325e-05 6.52237e-12
-3.86104e-05 1.15987e-05 1.15764e-05 -2.87422e-06
-3.31728e-05 9.96685e-06 9.94541e-06 -5.30599e-06
-4.10275e-05 1.2324e-05 1.23015e-05 -2.87413e-06
-3.9819e-05 1.19614e-05 1.1939e-05 -2.87417e-06
-4.5055e-05 1.35327e-05 1.35095e-05 -1.87072e-12
-4.22347e-05 1.26865e-05 1.26635e-05 -8.59112e-12
-3.01516e-05 9.06025e-06 9.03915e-06 -5.30594e-06
-3.21657e-05 9.66468e-06 9.6433e-06 -5.30602e-06
-4.36449e-05 1.31096e-05 1.30865e-05 -1.34127e-11
-3.61933e-05 1.08735e-05 1.08513e-05 -2.87425e-06
-3.11586e-05 9.36248e-06 9.34121e-06 -5.30601e-06
-3.86104e-05 1.15987e-05 1.15764e-05 -2.87422e-06
-3.74018e-05 1.12361e-05 1.12139e-05 -2.87424e-06
-4.22347e-05 1.26865e-05 1.26635e-05 -8.59112e-12
-3.94142e-05 1.18401e-05 1.18175e-05 -5.64877e-11
-2.81375e-05 8.45555e-06 8.43512e-06 -5.3055e-06
-3.01516e-05 9.06025e-06 9.03915e-06 -5.30594e-06
-4.08244e-05 1.22633e-05 1.22405e-05 -2.35059e-12
-3.37763e-05 1.01482e-05 1.01263e-05 -2.8741e-06
-2.91445e-05 8.75795e-06 8.73711e-06 -5.30579e-06
-3.61933e-05 1.08735e-05 1.08513e-05 -2.87425e-06
-3.49847e-05 1.05108e-05 1.04888e-05 -2.87421e-06
-3.94142e-05 1.18401e-05 1.18175e-05 -5.64778e-11
-3.65938e-05 1.09939e-05 1.09714e-05 -8.35454e-11
-2.61236e-05 7.85028e-06 7.83141e-06 -5.30406e-06
-2.81375e-05 8.45555e-06 8.43512e-06 -5.3055e-06
-3.8004e-05 1.1417e-05 1.13944e-05 -1.14968e-10
-3.13597e-05 9.42285e-06 9.40151e-06 -2.87332e-06
-2.71305e-05 8.15302e-06 8.1332e-06 -5.30497e-06
-3.37763e-05 1.01482e-05 1.01263e-05 -2.8741e-06
-3.25679e-05 9.78551e-06 9.7639e-06 -2.87382e-06
-3.65938e-05 1.09939e-05 1.09714e-05 -8.35454e-11
-3.37745e-05 1.01477e-05 1.01258e-05 -3.47771e-10
-2.41095e-05 7.24377e-06 7.22817e-06 -5.30059e-06
-2.61236e-05 7.85028e-06 7.83141e-06 -5.30406e-06
-3.51839e-05 1.05706e-05 1.05485e-05 -7.97729e-11
-2.89444e-05 8.69752e-06 8.67724e-06 -2.87121e-06
-2.51166e-05 7.54725e-06 7.52972e-06 -5.30267e-06
-3.13597e-05 9.42285e-06 9.40151e-06 -2.87332e-06
-3.01518e-05 9.06018e-06 9.03926e-06 -2.87253e-06
-3.37745e-05 1.01477e-05 1.01258e-05 -3.47771e-10
-3.09575e-05 9.30312e-06 9.28044e-06 -3.90973e-10
-2.20957e-05 6.63477e-06 6.62609e-06 -5.29247e-06
-2.41095e-05 7.24377e-06 7.22817e-06 -5.30059e-06
-3.23657e-05 9.72549e-06 9.70296e-06 -5.96022e-10
-2.65315e-05 7.97229e-06 7.95397e-06 -2.8659e-06
-2.31024e-05 6.93966e-06 6.92691e-06 -5.29736e-06
-2.89444e-05 8.69752e-06 8.67724e-06 -2.87121e-06
-2.77377e-05 8.33488e-06 8.31548e-06 -2.86906e-06
-3.09575e-05 9.30312e-06 9.28044e-06 -3.90999e-10
-2.81492e-05 8.45944e-06 8.43845e-06 -1.56272e-09
-2.00804e-05 6.0212e-06 6.02535e-06 -5.27618e-06
-2.20957e-05 6.63477e-06 6.62609e-06 -5.29247e-06
-2.95514e-05 8.8802e-06 8.85909e-06 -3.95359e-10
-2.41249e-05 7.24737e-06 7.23324e-06 -2.85445e-06
-2.10885e-05 6.32883e-06 6.32557e-06 -5.28562e-06
-2.65315e-05 7.97229e-06 7.95397e-06 -2.8659e-06
-2.5327e-05 7.60981e-06 7.59308e-06 -2.86136e-06
-2.81492e-05 8.45944e-06 8.43845e-06 -1.56272e-09
-2.53548e-05 7.62515e-06 7.59842e-06 -1.35126e-09
-1.80647e-05 5.39896e-06 5.42816e-06 -5.24314e-06
-2.00804e-05 6.0212e-06 6.02535e-06 -5.27618e-06
-2.67504e-05 8.04269e-06 8.0176e-06 -2.53842e-09
-2.17283e-05 6.5231e-06 6.51649e-06 -2.83061e-06
-1.90721e-05 5.71127e-06 5.72608e-06 -5.2626e-06
-2.41249e-05 7.24737e-06 7.23324e-06 -2.85445e-06
-2.29254e-05 6.88501e-06 6.87444e-06 -2.84429e-06
-2.53548e-05 7.62515e-06 7.59842e-06 -1.35126e-09
-2.26018e-05 6.79424e-06 6.77467e-06 -5.90336e-09
-1.60401e-05 4.76328e-06 4.83294e-06 -5.18465e-06
-1.80647e-05 5.39896e-06 5.42816e-06 -5.24314e-06
-2.39695e-05 7.20444e-06 7.18503e-06 -1.16212e-09
-1.93552e-05 5.80081e-06 5.80904e-06 -2.78437e-06
-1.7055e-05 5.08382e-06 5.13051e-06 -5.21766e-06
-2.17283e-05 6.5231e-06 6.51649e-06 -2.83061e-06
-2.05371e-05 6.16192e-06 6.16078e-06 -2.81205e-06
-2.26018e-05 6.79424e-06 6.77467e-06 -5.90336e-09
-1.99093e-05 6.00788e-06 5.95774e-06 -3.64839e-09
-1.40095e-05 4.10237e-06 4.2459e-06 -5.07839e-06
-1.60401e-05 4.76328e-06 4.83294e-06 -5.18465e-06
-2.12492e-05 6.40374e-06 6.36234e-06 -9.80814e-09
-1.70131e-05 5.08031e-06 5.11404e-06 -2.69967e-06
-1.50237e-05 4.43534e-06 4.53789e-06 -5.13967e-06
-1.93552e-05 5.80081e-06 5.80904e-06 -2.78437e-06
-1.81811e-05 5.43953e-06 5.46068e-06 -2.7464e-06
-1.99093e-05 6.00788e-06 5.95774e-06 -3.64839e-09
-1.73722e-05 5.22384e-06 5.20643e-06 -1.97073e-08
-1.19346e-05 3.41327e-06 3.65202e-06 -4.91583e-06
-1.40095e-05 4.10237e-06 4.2459e-06 -5.07839e-06
-1.86082e-05 5.59282e-06 5.57802e-06 -9.85755e-10
-1.47442e-05 4.36781e-06 4.44701e-06 -2.54698e-06
-1.29842e-05 3.7651e-06 3.95104e-06 -5.00422e-06
-1.70131e-05 5.08031e-06 5.11404e-06 -2.69967e-06
-1.58633e-05 4.72455e-06 4.77377e-06 -2.63883e-06
-1.73722e-05 5.22384e-06 5.20643e-06 -1.97074e-08
-1.50549e-05 4.63046e-06 4.46762e-06 -6.80258e-09
-9.81828e-06 2.66737e-06 3.06468e-06 -4.66335e-06
-1.19346e-05 3.41327e-06 3.65202e-06 -4.91583e-06
-1.61911e-05 4.94425e-06 4.82008e-06 -3.67882e-08
-1.25364e-05 3.65337e-06 3.80702e-06 -2.30481e-06
-1.08747e-05 3.04056e-06 3.3575e-06 -4.80379e-06
-1.47442e-05 4.36781e-06 4.44701e-06 -2.54698e-06
-1.36403e-05 4.00741e-06 4.12837e-06 -2.42988e-06
-1.50549e-05 4.63046e-06 4.46762e-06 -6.80258e-09
-1.32215e-05 3.97684e-06 3.96198e-06 -5.41878e-08
-7.51126e-06 1.92487e-06 2.39417e-06 -4.39165e-06
-9.81828e-06 2.66737e-06 3.06468e-06 -4.66335e-06
-1.40397e-05 4.20937e-06 4.21298e-06 1.59725e-08
-1.04994e-05 2.96112e-06 3.23068e-06 -1.90504e-06
-8.71417e-06 2.3079e-06 2.74555e-06 -4.52217e-06
-1.25364e-05 3.65337e-06 3.80702e-06 -2.30481e-06
-1.14752e-05 3.31189e-06 3.49857e-06 -2.15071e-06
-1.32215e-05 3.97684e-06 3.96198e-06 -5.41878e-08
-1.21614e-05 4.06311e-06 3.47068e-06 8.74687e-08
-5.02881e-06 1.18898e-06 1.64564e-06 -4.21725e-06
-7.51126e-06 1.92487e-06 2.39417e-06 -4.39165e-06
-1.25966e-05 4.12512e-06 3.63063e-06 -1.18769e-07
-8.37536e-06 2.21466e-06 2.6403e-06 -1.47067e-06
-6.26449e-06 1.5058e-06 2.03944e-06 -4.27474e-06
-1.04994e-05 2.96112e-06 3.23068e-06 -1.90504e-06
-9.50178e-06 2.5845e-06 2.96455e-06 -1.63864e-06
-1.21614e-05 4.06311e-06 3.47068e-06 8.74687e-08
-1.28338e-05 3.50927e-06 3.99623e-06 5.24676e-07
-2.14676e-06 1.25353e-06 3.82816e-07 -4.9273e-06
-5.02881e-06 1.18898e-06 1.64564e-06 -4.21725e-06
-1.21593e-05 3.42249e-06 3.74434e-06 3.73513e-07
-6.10891e-06 1.59222e-06 1.93572e-06 -1.2054e-06
-3.69324e-06 1.11129e-06 1.10655e-06 -4.3856e-06
-8.37536e-06 2.21466e-06 2.6403e-06 -1.47067e-06
-7.21333e-06 1.88621e-06 2.28305e-06 -1.37151e-06
-1.28338e-05 3.50927e-06 3.99623e-06 5.24676e-07
-1.74828e-05 3.53094e-06 5.97937e-06 4.07833e-06
-7.98691e-07 4.5748e-06 -1.61833e-06 -7.52861e-06
-2.14676e-06 1.25353e-06 3.82816e-07 -4.9273e-06
-1.45025e-05 4.894e-06 4.11793e-06 1.09968e-06
-1.43435e-06 2.8717e-06 -6.16005e-07 -4.36047e-06
-9.83781e-07 1.88369e-06 -3.85673e-07 -5.85665e-06
-6.10891e-06 1.59222e-06 1.93572e-06 -1.2054e-06
-4.40247e-06 1.54454e-06 1.22483e-06 -1.80635e-06
-1.74828e-05 3.53094e-06 5.97937e-06 4.07833e-06
-1.00802e-05 2.65609e-05 -7.06316e-06 -2.05763e-05
-6.22165e-06 2.01778e-05 -5.98121e-06 -7.61049e-06
-7.98691e-07 4.5748e-06 -1.61833e-06 -7.52861e-06
-1.74508e-05 1.07026e-06 7.02023e-06 1.78728e-06
-5.5748e-06 2.48164e-05 -8.2464e-06 -1.2237e-05
-2.30636e-06 1.07813e-05 -3.6321e-06 -8.86917e-06
-1.43435e-06 2.8717e-06 -6.16005e-07 -4.36047e-06
-6.69969e-07 8.14825e-06 -3.20498e-06 -8.09285e-06
-0.000338179 0 0.000144934 -1.93841e-05
-0.00038074 7.55327e-05 0.000130803 -2.83403e-05
-0.000220468 2.91318e-05 8.2001e-05 -8.71502e-07
-0.00019494 0 8.35456e-05 2.55647e-05
-0.000362059 3.56737e-05 0.000139879 -3.28837e-05
-0.000294047 4.55724e-05 0.000106489 -1.17439e-05
-0.000211255 1.63812e-05 8.35172e-05 9.59766e-06
-0.00027684 0 0.000118646 3.99065e-06
-0.000281537 2.52668e-05 0.00010983 -3.75771e-06
-0.00038074 7.55327e-05 0.000130803 -2.83403e-05
-0.0003956 0.000107142 0.000123625 -1.34987e-05
-0.000231737 5.32794e-05 7.64817e-05 -9.09633e-06
-0.000220468 2.91318e-05 8.2001e-05 -8.71502e-07
-0.000392496 9.78411e-05 0.000126281 -2.04404e-05
-0.000313615 7.73696e-05 0.000101248 -1.37132e-05
-0.000226116 4.19728e-05 7.89185e-05 -6.17228e-06
-0.000294047 4.55724e-05 0.000106489 -1.17439e-05
-0.000307146 6.34376e-05 0.000104447 -1.54048e-05
-0.0003956 0.000107142 0.000123625 -1.34987e-05
-0.000393692 0.000116003 0.00011901 -5.02974e-06
-0.000237452 6.5465e-05 7.37089e-05 -1.06817e-05
-0.000231737 5.32794e-05 7.64817e-05 -9.09633e-06
-0.000394512 0.000112654 0.000120796 -7.93861e-06
-0.000316769 9.01405e-05 9.71265e-05 -9.21365e-06
-0.000235969 6.08428e-05 7.50541e-05 -1.05352e-05
-0.000313615 7.73696e-05 0.000101248 -1.37132e-05
-0.00031598 8.57081e-05 9.86879e-05 -1.08443e-05
-0.000393692 0.000116003 0.00011901 -5.02974e-06
-0.000390919 0.000117215 0.000117302 -3.14593e-06
-0.000237241 7.02498e-05 7.15677e-05 -9.8794e-06
-0.000237452 6.5465e-05 7.37089e-05 -1.06817e-05
-0.000392656 0.000117179 0.000118062 -3.76308e-06
-0.000315239 9.42139e-05 9.47251e-05 -7.00737e-06
-0.000237454 6.84692e-05 7.24221e-05 -1.02325e-05
-0.000316769 9.01405e-05 9.71265e-05 -9.21365e-06
-0.000316387 9.27946e-05 9.58254e-05 -8.02743e-06
-0.000390919 0.000117215 0.000117302 -3.14593e-06
-0.000387718 0.000117014 0.000116016 -3.06474e-06
-0.00023558 7.11601e-05 7.04655e-05 -9.33489e-06
-0.000237241 7.02498e-05 7.15677e-05 -9.8794e-06
-0.000389076 0.000117153 0.000116538 -2.91797e-06
-0.000312347 9.44433e-05 9.33871e-05 -6.31858e-06
-0.000236666 7.10156e-05 7.09929e-05 -9.60941e-06
-0.000315239 9.42139e-05 9.47251e-05 -7.00737e-06
-0.00031375 9.46088e-05 9.39178e-05 -6.43221e-06
-0.000387718 0.000117014 0.000116016 -3.06474e-06
-0.000385287 0.000116154 0.000115343 -3.70807e-06
-0.000233236 7.07973e-05 6.96165e-05 -8.97035e-06
-0.00023558 7.11601e-05 7.04655e-05 -9.33489e-06
-0.000386552 0.000116639 0.000115677 -3.40315e-06
-0.000309682 9.37817e-05 9.25287e-05 -6.37266e-06
-0.000234323 7.10548e-05 6.99722e-05 -9.09563e-06
-0.000312347 9.44433e-05 9.33871e-05 -6.31858e-06
-0.000311 9.41501e-05 9.29355e-05 -6.34362e-06
-0.000385287 0.000116154 0.000115343 -3.70807e-06
-0.000382935 0.000115315 0.000114695 -4.2481e-06
-0.000231194 7.00075e-05 6.90801e-05 -8.85913e-06
-0.000233236 7.07973e-05 6.96165e-05 -8.97035e-06
-0.000384041 0.000115717 0.000114996 -3.97877e-06
-0.000307283 9.28268e-05 9.19099e-05 -6.61489e-06
-0.000232224 7.0425e-05 6.93425e-05 -8.90949e-06
-0.000309682 9.37817e-05 9.25287e-05 -6.37266e-06
-0.000308431 9.33178e-05 9.21913e-05 -6.46641e-06
-0.000382935 0.000115315 0.000114695 -4.2481e-06
-0.000380824 0.000114499 0.000114139 -4.688e-06
-0.000229336 6.9236e-05 6.86141e-05 -8.81107e-06
-0.000231194 7.00075e-05 6.90801e-05 -8.85913e-06
-0.00038189 0.000114904 0.000114423 -4.4971e-06
-0.000305196 9.19706e-05 9.13822e-05 -6.85603e-06
-0.00023021 6.96088e-05 6.88292e-05 -8.82226e-06
-0.000307283 9.28268e-05 9.19099e-05 -6.61489e-06
-0.000306214 9.23799e-05 9.1643e-05 -6.75184e-06
-0.000380824 0.000114499 0.000114139 -4.688e-06
-0.000378737 0.000113761 0.000113561 -4.95513e-06
-0.000227751 6.85592e-05 6.82249e-05 -8.81316e-06
-0.000229336 6.9236e-05 6.86141e-05 -8.81107e-06
-0.000379764 0.00011412 0.000113848 -4.83471e-06
-0.000303299 9.12109e-05 9.08948e-05 -7.03499e-06
-0.000228529 6.88847e-05 6.84192e-05 -8.81263e-06
-0.000305196 9.19706e-05 9.13822e-05 -6.85603e-06
-0.000304226 9.15793e-05 9.11341e-05 -6.94989e-06
-0.000378737 0.000113761 0.000113561 -4.95513e-06
-0.000376706 0.000113072 0.000112986 -5.12352e-06
-0.000226306 6.79938e-05 6.78481e-05 -8.81866e-06
-0.000227751 6.85592e-05 6.82249e-05 -8.81316e-06
-0.000377724 0.000113412 0.000113277 -5.05259e-06
-0.000301533 9.05595e-05 9.04171e-05 -7.15056e-06
-0.000227007 6.82638e-05 6.80327e-05 -8.81421e-06
-0.000303299 9.12109e-05 9.08948e-05 -7.03499e-06
-0.000302405 9.08733e-05 9.06563e-05 -7.10193e-06
-0.000376706 0.000113072 0.000112986 -5.12352e-06
-0.000374679 0.00011242 0.000112397 -5.21369e-06
-0.000224975 6.75082e-05 6.74859e-05 -8.82804e-06
-0.000226306 6.79938e-05 6.78481e-05 -8.81866e-06
-0.000375689 0.000112742 0.000112692 -5.17486e-06
-0.000299839 8.99751e-05 8.99417e-05 -7.21977e-06
-0.000225634 6.7743e-05 6.76675e-05 -8.82419e-06
-0.000301533 9.05595e-05 9.04171e-05 -7.15056e-06
-0.000300679 9.02608e-05 9.01792e-05 -7.18909e-06
-0.000374679 0.00011242 0.000112397 -5.21369e-06
-0.000372664 0.000111789 0.000111803 -5.26329e-06
-0.000223699 6.70772e-05 6.71237e-05 -8.83382e-06
-0.000224975 6.75082e-05 6.74859e-05 -8.82804e-06
-0.000373672 0.000112102 0.000112101 -5.24293e-06
-0.000298187 8.94374e-05 8.94641e-05 -7.25796e-06
-0.000224331 6.72874e-05 6.73042e-05 -8.83098e-06
-0.000299839 8.99751e-05 8.99417e-05 -7.21977e-06
-0.00029901 8.97017e-05 8.97033e-05 -7.24227e-06
-0.000372664 0.000111789 0.000111803 -5.26329e-06
-0.000370648 0.000111171 0.000111204 -5.2871e-06
-0.000222459 6.66783e-05 6.6763e-05 -8.83803e-06
-0.000223699 6.70772e-05 6.71237e-05 -8.83382e-06
-0.000371655 0.000111479 0.000111504 -5.27722e-06
-0.000296556 8.89254e-05 8.89845e-05 -7.27809e-06
-0.000223077 6.68748e-05 6.69437e-05 -8.83632e-06
-0.000298187 8.94374e-05 8.94641e-05 -7.25796e-06
-0.00029737 8.91791e-05 8.92245e-05 -7.26954e-06
-0.000370648 0.000111171 0.000111204 -5.2871e-06
-0.000368633 0.000110561 0.000110603 -5.29859e-06
-0.000221234 6.6298e-05 6.64012e-05 -8.84022e-06
-0.000222459 6.66783e-05 6.6763e-05 -8.83803e-06
-0.000369641 0.000110865 0.000110904 -5.29405e-06
-0.000294936 8.84284e-05 8.85031e-05 -7.28789e-06
-0.000221845 6.64865e-05 6.65821e-05 -8.83925e-06
-0.000296556 8.89254e-05 8.89845e-05 -7.27809e-06
-0.000295745 8.86755e-05 8.8744e-05 -7.284e-06
-0.000368633 0.000110561 0.000110603 -5.29859e-06
-0.000366619 0.000109954 0.000109999 -5.30328e-06
-0.000220019 6.59274e-05 6.60391e-05 -8.84146e-06
-0.000221234 6.6298e-05 6.64012e-05 -8.84022e-06
-0.000367626 0.000110257 0.000110301 -5.30144e-06
-0.00029332 8.79389e-05 8.80205e-05 -7.29238e-06
-0.000220626 6.61118e-05 6.62203e-05 -8.84097e-06
-0.000294936 8.84284e-05 8.85031e-05 -7.28789e-06
-0.000294127 8.8183e-05 8.82619e-05 -7.29056e-06
-0.000366619 0.000109954 0.000109999 -5.30328e-06
-0.000364604 0.000109348 0.000109395 -5.30508e-06
-0.000218806 6.55617e-05 6.56763e-05 -8.84202e-06
-0.000220019 6.59274e-05 6.60391e-05 -8.84146e-06
-0.000365611 0.000109651 0.000109697 -5.30443e-06
-0.000291707 8.74532e-05 8.75372e-05 -7.29419e-06
-0.000219412 6.57441e-05 6.58577e-05 -8.84179e-06
-0.00029332 8.79389e-05 8.80205e-05 -7.29238e-06
-0.000292513 8.76957e-05 8.77789e-05 -7.29352e-06
-0.000364604 0.000109348 0.000109395 -5.30508e-06
-0.000362589 0.000108744 0.000108791 -5.3055e-06
-0.000217596 6.51984e-05 6.53133e-05 -8.84226e-06
-0.000218806 6.55617e-05 6.56763e-05 -8.84202e-06
-0.000363596 0.000109046 0.000109093 -5.30538e-06
-0.000290094 8.69693e-05 8.70535e-05 -7.2948e-06
-0.000218201 6.53799e-05 6.54949e-05 -8.84217e-06
-0.000291707 8.74532e-05 8.75372e-05 -7.29419e-06
-0.0002909 8.72111e-05 8.72954e-05 -7.29458e-06
-0.000362589 0.000108744 0.000108791 -5.3055e-06
-0.000360574 0.00010814 0.000108186 -5.30548e-06
-0.000216386 6.48361e-05 6.49501e-05 -8.84233e-06
-0.000217596 6.51984e-05 6.53133e-05 -8.84226e-06
-0.000361581 0.000108442 0.000108488 -5.30552e-06
-0.000288482 8.64861e-05 8.65696e-05 -7.2949e-06
-0.000216991 6.50172e-05 6.51318e-05 -8.84231e-06
-0.000290094 8.69693e-05 8.70535e-05 -7.2948e-06
-0.000289288 8.67276e-05 8.68116e-05 -7.29489e-06
-0.000360574 0.00010814 0.000108186 -5.30548e-06
-0.000358559 0.000107536 0.000107581 -5.30531e-06
-0.000215177 6.44742e-05 6.45869e-05 -8.84234e-06
-0.000216386 6.48361e-05 6.49501e-05 -8.84233e-06
-0.000359566 0.000107838 0.000107884 -5.30539e-06
-0.000286869 8.60032e-05 8.60855e-05 -7.29484e-06
-0.000215782 6.46551e-05 6.47685e-05 -8.84234e-06
-0.000288482 8.64861e-05 8.65696e-05 -7.2949e-06
-0.000287676 8.62446e-05 8.63276e-05 -7.29488e-06
-0.000358559 0.000107536 0.000107581 -5.30531e-06
-0.000356543 0.000106932 0.000106976 -5.30515e-06
-0.000213967 6.41124e-05 6.42235e-05 -8.84232e-06
-0.000215177 6.44742e-05 6.45869e-05 -8.84234e-06
-0.000357551 0.000107234 0.000107279 -5.30522e-06
-0.000285257 8.55203e-05 8.56015e-05 -7.29474e-06
-0.000214572 6.42933e-05 6.44052e-05 -8.84233e-06
-0.000286869 8.60032e-05 8.60855e-05 -7.29484e-06
-0.000286063 8.57617e-05 8.58435e-05 -7.29479e-06
-0.000356543 0.000106932 0.000106976 -5.30515e-06
-0.000354528 0.000106328 0.000106372 -5.30503e-06
-0.000212758 6.37505e-05 6.38601e-05 -8.8423e-06
-0.000213967 6.41124e-05 6.42235e-05 -8.84232e-06
-0.000355536 0.00010663 0.000106674 -5.30508e-06
-0.000283645 8.50375e-05 8.51174e-05 -7.29466e-06
-0.000213362 6.39314e-05 6.40418e-05 -8.84231e-06
-0.000285257 8.55203e-05 8.56015e-05 -7.29474e-06
-0.000284451 8.52789e-05 8.53594e-05 -7.2947e-06
-0.000354528 0.000106328 0.000106372 -5.30503e-06
-0.000352513 0.000105724 0.000105767 -5.30496e-06
-0.000211548 6.33887e-05 6.34968e-05 -8.84229e-06
-0.000212758 6.37505e-05 6.38601e-05 -8.8423e-06
-0.000353521 0.000106026 0.000106069 -5.30499e-06
-0.000282032 8.45546e-05 8.46332e-05 -7.29461e-06
-0.000212153 6.35696e-05 6.36784e-05 -8.8423e-06
-0.000283645 8.50375e-05 8.51174e-05 -7.29466e-06
-0.000282838 8.4796e-05 8.48753e-05 -7.29463e-06
-0.000352513 0.000105724 0.000105767 -5.30496e-06
-0.000350498 0.00010512 0.000105162 -5.30491e-06
-0.000210338 6.30268e-05 6.31334e-05 -8.84229e-06
-0.000211548 6.33887e-05 6.34968e-05 -8.84229e-06
-0.000351505 0.000105422 0.000105464 -5.30493e-06
-0.00028042 8.40716e-05 8.41491e-05 -7.29457e-06
-0.000210943 6.32077e-05 6.33151e-05 -8.84229e-06
-0.000282032 8.45546e-05 8.46332e-05 -7.29461e-06
-0.000281226 8.43131e-05 8.43912e-05 -7.29459e-06
-0.000350498 0.00010512 0.000105162 -5.30491e-06
-0.000348483 0.000104516 0.000104557 -5.30489e-06
-0.000209128 6.26649e-05 6.277e-05 -8.84228e-06
-0.000210338 6.30268e-05 6.31334e-05 -8.84229e-06
-0.00034949 0.000104818 0.00010486 -5.3049e-06
-0.000278807 8.35887e-05 8.3665e-05 -7.29456e-06
-0.000209733 6.28458e-05 6.29517e-05 -8.84228e-06
-0.00028042 8.40716e-05 8.41491e-05 -7.29457e-06
-0.000279613 8.38302e-05 8.39071e-05 -7.29456e-06
-0.000348483 0.000104516 0.000104557 -5.30489e-06
-0.000346467 0.000103912 0.000103952 -5.30489e-06
-0.000207918 6.23029e-05 6.24066e-05 -8.84229e-06
-0.000209128 6.26649e-05 6.277e-05 -8.84228e-06
-0.000347475 0.000104214 0.000104255 -5.30489e-06
-0.000277195 8.31058e-05 8.31809e-05 -7.29455e-06
-0.000208523 6.24839e-05 6.25883e-05 -8.84229e-06
-0.000278807 8.35887e-05 8.3665e-05 -7.29456e-06
-0.000278001 8.33472e-05 8.3423e-05 -7.29456e-06
-0.000346467 0.000103912 0.000103952 -5.30489e-06
-0.000344452 0.000103308 0.000103348 -5.30489e-06
-0.000206709 6.1941e-05 6.20432e-05 -8.84229e-06
-0.000207918 6.23029e-05 6.24066e-05 -8.84229e-06
-0.00034546 0.00010361 0.00010365 -5.30489e-06
-0.000275582 8.26228e-05 8.26968e-05 -7.29456e-06
-0.000207313 6.2122e-05 6.22249e-05 -8.84229e-06
-0.000277195 8.31058e-05 8.31809e-05 -7.29455e-06
-0.000276388 8.28643e-05 8.29389e-05 -7.29456e-06
-0.000344452 0.000103308 0.000103348 -5.30489e-06
-0.000342437 0.000102704 0.000102743 -5.30489e-06
-0.000205499 6.1579e-05 6.16799e-05 -8.8423e-06
-0.000206709 6.1941e-05 6.20432e-05 -8.84229e-06
-0.000343445 0.000103006 0.000103045 -5.30489e-06
-0.00027397 8.21398e-05 8.22127e-05 -7.29456e-06
-0.000206104 6.176e-05 6.18616e-05 -8.84229e-06
-0.000275582 8.26228e-05 8.26968e-05 -7.29456e-06
-0.000274776 8.23813e-05 8.24548e-05 -7.29456e-06
-0.000342437 0.000102704 0.000102743 -5.30489e-06
-0.000340422 0.0001021 0.000102138 -5.3049e-06
-0.000204289 6.12171e-05 6.13165e-05 -8.8423e-06
-0.000205499 6.1579e-05 6.16799e-05 -8.8423e-06
-0.000341429 0.000102402 0.00010244 -5.3049e-06
-0.000272357 8.16568e-05 8.17287e-05 -7.29457e-06
-0.000204894 6.13981e-05 6.14982e-05 -8.8423e-06
-0.00027397 8.21398e-05 8.22127e-05 -7.29456e-06
-0.000273163 8.18983e-05 8.19707e-05 -7.29457e-06
-0.000340422 0.0001021 0.000102138 -5.3049e-06
-0.000338407 0.000101496 0.000101533 -5.30491e-06
-0.000203079 6.08551e-05 6.09532e-05 -8.84231e-06
-0.000204289 6.12171e-05 6.13165e-05 -8.8423e-06
-0.000339414 0.000101798 0.000101836 -5.3049e-06
-0.000270745 8.11739e-05 8.12446e-05 -7.29458e-06
-0.000203684 6.10361e-05 6.11348e-05 -8.84231e-06
-0.000272357 8.16568e-05 8.17287e-05 -7.29457e-06
-0.000271551 8.14154e-05 8.14866e-05 -7.29457e-06
-0.000338407 0.000101496 0.000101533 -5.30491e-06
-0.000336391 0.000100892 0.000100928 -5.30491e-06
-0.000201869 6.04932e-05 6.05898e-05 -8.84232e-06
-0.000203079 6.08551e-05 6.09532e-05 -8.84231e-06
-0.000337399 0.000101194 0.000101231 -5.30491e-06
-0.000269132 8.06909e-05 8.07605e-05 -7.29458e-06
-0.000202474 6.06741e-05 6.07715e-05 -8.84231e-06
-0.000270745 8.11739e-05 8.12446e-05 -7.29458e-06
-0.000269938 8.09324e-05 8.10025e-05 -7.29458e-06
-0.000336391 0.000100892 0.000100928 -5.30491e-06
-0.000334376 0.000100288 0.000100324 -5.30492e-06
-0.00020066 6.01312e-05 6.02265e-05 -8.84232e-06
-0.000201869 6.04932e-05 6.05898e-05 -8.84232e-06
-0.000335384 0.00010059 0.000100626 -5.30492e-06
-0.00026752 8.02079e-05 8.02764e-05 -7.29459e-06
-0.000201264 6.03122e-05 6.04081e-05 -8.84232e-06
-0.000269132 8.06909e-05 8.07605e-05 -7.29458e-06
-0.000268326 8.04494e-05 8.05184e-05 -7.29459e-06
-0.000334376 0.000100288 0.000100324 -5.30492e-06
-0.000332361 9.96837e-05 9.97189e-05 -5.30493e-06
-0.00019945 5.97692e-05 5.98631e-05 -8.84233e-06
-0.00020066 6.01312e-05 6.02265e-05 -8.84232e-06
-0.000333369 9.99857e-05 0.000100021 -5.30492e-06
-0.000265907 7.97249e-05 7.97923e-05 -7.2946e-06
-0.000200055 5.99502e-05 6.00448e-05 -8.84233e-06
-0.00026752 8.02079e-05 8.02764e-05 -7.29459e-06
-0.000266713 7.99664e-05 8.00344e-05 -7.29459e-06
-0.000332361 9.96837e-05 9.97189e-05 -5.30493e-06
-0.000330346 9.90797e-05 9.91141e-05 -5.30493e-06
-0.00019824 5.94072e-05 5.94998e-05 -8.84234e-06
-0.00019945 5.97692e-05 5.98631e-05 -8.84233e-06
-0.000331354 9.93817e-05 9.94165e-05 -5.30493e-06
-0.000264295 7.92419e-05 7.93082e-05 -7.2946e-06
-0.000198845 5.95882e-05 5.96814e-05 -8.84233e-06
-0.000265907 7.97249e-05 7.97923e-05 -7.2946e-06
-0.000265101 7.94834e-05 7.95503e-05 -7.2946e-06
-0.000330346 9.90797e-05 9.91141e-05 -5.30493e-06
-0.000328331 9.84756e-05 9.85093e-05 -5.30494e-06
-0.00019703 5.90453e-05 5.91364e-05 -8.84234e-06
-0.00019824 5.94072e-05 5.94998e-05 -8.84234e-06
-0.000329338 9.87777e-05 9.88117e-05 -5.30494e-06
-0.000262682 7.87589e-05 7.88242e-05 -7.29461e-06
-0.000197635 5.92263e-05 5.93181e-05 -8.84234e-06
-0.000264295 7.92419e-05 7.93082e-05 -7.2946e-06
-0.000263488 7.90004e-05 7.90662e-05 -7.29461e-06
-0.000328331 9.84756e-05 9.85093e-05 -5.30494e-06
-0.000326316 9.78716e-05 9.79046e-05 -5.30495e-06
-0.00019582 5.86833e-05 5.87731e-05 -8.84235e-06
-0.00019703 5.90453e-05 5.91364e-05 -8.84234e-06
-0.000327323 9.81736e-05 9.8207e-05 -5.30494e-06
-0.00026107 7.8276e-05 7.83401e-05 -7.29462e-06
-0.000196425 5.88643e-05 5.89548e-05 -8.84234e-06
-0.000262682 7.87589e-05 7.88242e-05 -7.29461e-06
-0.000261876 7.85175e-05 7.85821e-05 -7.29461e-06
-0.000326316 9.78716e-05 9.79046e-05 -5.30495e-06
-0.0003243 9.72676e-05 9.72998e-05 -5.30495e-06
-0.000194611 5.83213e-05 5.84098e-05 -8.84235e-06
-0.00019582 5.86833e-05 5.87731e-05 -8.84235e-06
-0.000325308 9.75696e-05 9.76022e-05 -5.30495e-06
-0.000259457 7.7793e-05 7.7856e-05 -7.29462e-06
-0.000195216 5.85023e-05 5.85914e-05 -8.84235e-06
-0.00026107 7.8276e-05 7.83401e-05 -7.29462e-06
-0.000260263 7.80345e-05 7.80981e-05 -7.29462e-06
-0.0003243 9.72676e-05 9.72998e-05 -5.30495e-06
-0.000322285 9.66635e-05 9.6695e-05 -5.30496e-06
-0.000193401 5.79593e-05 5.80464e-05 -8.84236e-06
-0.000194611 5.83213e-05 5.84098e-05 -8.84235e-06
-0.000323293 9.69656e-05 9.69974e-05 -5.30495e-06
-0.000257845 7.731e-05 7.7372e-05 -7.29463e-06
-0.000194006 5.81403e-05 5.82281e-05 -8.84235e-06
-0.000259457 7.7793e-05 7.7856e-05 -7.29462e-06
-0.000258651 7.75515e-05 7.7614e-05 -7.29463e-06
-0.000322285 9.66635e-05 9.6695e-05 -5.30496e-06
-0.00032027 9.60595e-05 9.60903e-05 -5.30496e-06
-0.000192191 5.75973e-05 5.76831e-05 -8.84236e-06
-0.000193401 5.79593e-05 5.80464e-05 -8.84236e-06
-0.000321278 9.63615e-05 9.63927e-05 -5.30496e-06
-0.000256232 7.6827e-05 7.68879e-05 -7.29464e-06
-0.000192796 5.77783e-05 5.78648e-05 -8.84236e-06
-0.000257845 7.731e-05 7.7372e-05 -7.29463e-06
-0.000257038 7.70685e-05 7.713e-05 -7.29463e-06
-0.00032027 9.60595e-05 9.60903e-05 -5.30496e-06
-0.000318255 9.54555e-05 9.54855e-05 -5.30497e-06
-0.000190981 5.72353e-05 5.73198e-05 -8.84237e-06
-0.000192191 5.75973e-05 5.76831e-05 -8.84236e-06
-0.000319263 9.57575e-05 9.57879e-05 -5.30497e-06
-0.00025462 7.6344e-05 7.64039e-05 -7.29464e-06
-0.000191586 5.74163e-05 5.75014e-05 -8.84236e-06
-0.000256232 7.6827e-05 7.68879e-05 -7.29464e-06
-0.000255426 7.65855e-05 7.66459e-05 -7.29464e-06
-0.000318255 9.54555e-05 9.54855e-05 -5.30497e-06
-0.00031624 9.48514e-05 9.48808e-05 -5.30498e-06
-0.000189772 5.68734e-05 5.69565e-05 -8.84237e-06
-0.000190981 5.72353e-05 5.73198e-05 -8.84237e-06
-0.000317247 9.51534e-05 9.51831e-05 -5.30497e-06
-0.000253007 7.5861e-05 7.59198e-05 -7.29465e-06
-0.000190377 5.70543e-05 5.71381e-05 -8.84237e-06
-0.00025462 7.6344e-05 7.64039e-05 -7.29464e-06
-0.000253813 7.61025e-05 7.61618e-05 -7.29465e-06
-0.00031624 9.48514e-05 9.48808e-05 -5.30498e-06
-0.000314225 9.42474e-05 9.4276e-05 -5.30498e-06
-0.000188562 5.65114e-05 5.65931e-05 -8.84238e-06
-0.000189772 5.68734e-05 5.69565e-05 -8.84237e-06
-0.000315232 9.45494e-05 9.45784e-05 -5.30498e-06
-0.000251395 7.5378e-05 7.54358e-05 -7.29465e-06
-0.000189167 5.66924e-05 5.67748e-05 -8.84237e-06
-0.000253007 7.5861e-05 7.59198e-05 -7.29465e-06
-0.000252201 7.56195e-05 7.56778e-05 -7.29465e-06
-0.000314225 9.42474e-05 9.4276e-05 -5.30498e-06
-0.00031221 9.36433e-05 9.36713e-05 -5.30499e-06
-0.000187352 5.61494e-05 5.62298e-05 -8.84238e-06
-0.000188562 5.65114e-05 5.65931e-05 -8.84238e-06
-0.000313217 9.39454e-05 9.39736e-05 -5.30498e-06
-0.000249782 7.4895e-05 7.49517e-05 -7.29466e-06
-0.000187957 5.63304e-05 5.64115e-05 -8.84238e-06
-0.000251395 7.5378e-05 7.54358e-05 -7.29465e-06
-0.000250589 7.51365e-05 7.51937e-05 -7.29466e-06
-0.00031221 9.36433e-05 9.36713e-05 -5.30499e-06
-0.000310195 9.30393e-05 9.30665e-05 -5.30499e-06
-0.000186143 5.57874e-05 5.58665e-05 -8.84239e-06
-0.000187352 5.61494e-05 5.62298e-05 -8.84238e-06
-0.000311202 9.33413e-05 9.33689e-05 -5.30499e-06
-0.00024817 7.4412e-05 7.44677e-05 -7.29467e-06
-0.000186747 5.59684e-05 5.60482e-05 -8.84238e-06
-0.000249782 7.4895e-05 7.49517e-05 -7.29466e-06
-0.000248976 7.46535e-05 7.47097e-05 -7.29466e-06
-0.000310195 9.30393e-05 9.30665e-05 -5.30499e-06
-0.000308179 9.24353e-05 9.24618e-05 -5.305e-06
-0.000184933 5.54254e-05 5.55032e-05 -8.84239e-06
-0.000186143 5.57874e-05 5.58665e-05 -8.84239e-06
-0.000309187 9.27373e-05 9.27641e-05 -5.305e-06
-0.000246557 7.3929e-05 7.39836e-05 -7.29467e-06
-0.000185538 5.56064e-05 5.56849e-05 -8.84239e-06
-0.00024817 7.4412e-05 7.44677e-05 -7.29467e-06
-0.000247364 7.41705e-05 7.42257e-05 -7.29467e-06
-0.000308179 9.24353e-05 9.24618e-05 -5.305e-06
-0.000306164 9.18312e-05 9.1857e-05 -5.305e-06
-0.000183723 5.50634e-05 5.51399e-05 -8.8424e-06
-0.000184933 5.54254e-05 5.55032e-05 -8.84239e-06
-0.000307172 9.21332e-05 9.21594e-05 -5.305e-06
-0.000244945 7.3446e-05 7.34996e-05 -7.29468e-06
-0.000184328 5.52444e-05 5.53216e-05 -8.84239e-06
-0.000246557 7.3929e-05 7.39836e-05 -7.29467e-06
-0.000245751 7.36875e-05 7.37416e-05 -7.29468e-06
-0.000306164 9.18312e-05 9.1857e-05 -5.305e-06
-0.000304149 9.12272e-05 9.12523e-05 -5.30501e-06
-0.000182514 5.47013e-05 5.47766e-05 -8.8424e-06
-0.000183723 5.50634e-05 5.51399e-05 -8.8424e-06
-0.000305157 9.15292e-05 9.15547e-05 -5.30501e-06
-0.000243333 7.2963e-05 7.30156e-05 -7.29468e-06
-0.000183118 5.48824e-05 5.49583e-05 -8.8424e-06
-0.000244945 7.3446e-05 7.34996e-05 -7.29468e-06
-0.000244139 7.32045e-05 7.32576e-05 -7.29468e-06
-0.000304149 9.12272e-05 9.12523e-05 -5.30501e-06
-0.000302134 9.06231e-05 9.06475e-05 -5.30502e-06
-0.000181304 5.43393e-05 5.44134e-05 -8.8424e-06
-0.000182514 5.47013e-05 5.47766e-05 -8.8424e-06
-0.000303142 9.09252e-05 9.09499e-05 -5.30501e-06
-0.00024172 7.248e-05 7.25315e-05 -7.29469e-06
-0.000181909 5.45203e-05 5.4595e-05 -8.8424e-06
-0.000243333 7.2963e-05 7.30156e-05 -7.29468e-06
-0.000242526 7.27215e-05 7.27736e-05 -7.29469e-06
-0.000302134 9.06231e-05 9.06475e-05 -5.30502e-06
-0.000300119 9.00191e-05 9.00428e-05 -5.30502e-06
-0.000180094 5.39773e-05 5.40501e-05 -8.84241e-06
-0.000181304 5.43393e-05 5.44134e-05 -8.8424e-06
-0.000301127 9.03211e-05 9.03452e-05 -5.30502e-06
-0.000240108 7.19969e-05 7.20475e-05 -7.2947e-06
-0.000180699 5.41583e-05 5.42317e-05 -8.84241e-06
-0.00024172 7.248e-05 7.25315e-05 -7.29469e-06
-0.000240914 7.22385e-05 7.22895e-05 -7.29469e-06
-0.000300119 9.00191e-05 9.00428e-05 -5.30502e-06
-0.000298104 8.9415e-05 8.94381e-05 -5.30503e-06
-0.000178884 5.36153e-05 5.36868e-05 -8.84241e-06
-0.000180094 5.39773e-05 5.40501e-05 -8.84241e-06
-0.000299111 8.97171e-05 8.97404e-05 -5.30502e-06
-0.000238495 7.15139e-05 7.15635e-05 -7.2947e-06
-0.000179489 5.37963e-05 5.38684e-05 -8.84241e-06
-0.000240108 7.19969e-05 7.20475e-05 -7.2947e-06
-0.000239302 7.17554e-05 7.18055e-05 -7.2947e-06
-0.000298104 8.9415e-05 8.94381e-05 -5.30503e-06
-0.000296089 8.8811e-05 8.88333e-05 -5.30503e-06
-0.000177675 5.32533e-05 5.33235e-05 -8.84242e-06
-0.000178884 5.36153e-05 5.36868e-05 -8.84241e-06
-0.000297096 8.9113e-05 8.91357e-05 -5.30503e-06
-0.000236883 7.10309e-05 7.10795e-05 -7.29471e-06
-0.00017828 5.34343e-05 5.35052e-05 -8.84242e-06
-0.000238495 7.15139e-05 7.15635e-05 -7.2947e-06
-0.000237689 7.12724e-05 7.13215e-05 -7.2947e-06
-0.000296089 8.8811e-05 8.88333e-05 -5.30503e-06
-0.000294074 8.82069e-05 8.82286e-05 -5.30504e-06
-0.000176465 5.28913e-05 5.29602e-05 -8.84242e-06
-0.000177675 5.32533e-05 5.33235e-05 -8.84242e-06
-0.000295081 8.8509e-05 8.8531e-05 -5.30503e-06
-0.000235271 7.05479e-05 7.05955e-05 -7.29471e-06
-0.00017707 5.30723e-05 5.31419e-05 -8.84242e-06
-0.000236883 7.10309e-05 7.10795e-05 -7.29471e-06
-0.000236077 7.07894e-05 7.08375e-05 -7.29471e-06
-0.000294074 8.82069e-05 8.82286e-05 -5.30504e-06
-0.000292059 8.76029e-05 8.76239e-05 -5.30504e-06
-0.000175256 5.25292e-05 5.2597e-05 -8.84243e-06
-0.000176465 5.28913e-05 5.29602e-05 -8.84242e-06
-0.000293066 8.79049e-05 8.79263e-05 -5.30504e-06
-0.000233658 7.00649e-05 7.01115e-05 -7.29472e-06
-0.00017586 5.27103e-05 5.27786e-05 -8.84242e-06
-0.000235271 7.05479e-05 7.05955e-05 -7.29471e-06
-0.000234464 7.03064e-05 7.03535e-05 -7.29472e-06
-0.000292059 8.76029e-05 8.76239e-05 -5.30504e-06
-0.000290044 8.69988e-05 8.70192e-05 -5.30505e-06
-0.000174046 5.21672e-05 5.22337e-05 -8.84243e-06
-0.000175256 5.25292e-05 5.2597e-05 -8.84243e-06
-0.000291051 8.73009e-05 8.73215e-05 -5.30505e-06
-0.000232046 6.95819e-05 6.96275e-05 -7.29472e-06
-0.000174651 5.23482e-05 5.24153e-05 -8.84243e-06
-0.000233658 7.00649e-05 7.01115e-05 -7.29472e-06
-0.000232852 6.98234e-05 6.98695e-05 -7.29472e-06
-0.000290044 8.69988e-05 8.70192e-05 -5.30505e-06
-0.000288029 8.63948e-05 8.64145e-05 -5.30505e-06
-0.000172836 5.18052e-05 5.18705e-05 -8.84244e-06
-0.000174046 5.21672e-05 5.22337e-05 -8.84243e-06
-0.000289036 8.66968e-05 8.67168e-05 -5.30505e-06
-0.000230434 6.90988e-05 6.91434e-05 -7.29473e-06
-0.000173441 5.19862e-05 5.20521e-05 -8.84243e-06
-0.000232046 6.95819e-05 6.96275e-05 -7.29472e-06
-0.00023124 6.93403e-05 6.93854e-05 -7.29473e-06
-0.000288029 8.63948e-05 8.64145e-05 -5.30505e-06
-0.000286013 8.57907e-05 8.58097e-05 -5.30506e-06
-0.000171627 5.14431e-05 5.15072e-05 -8.84244e-06
-0.000172836 5.18052e-05 5.18705e-05 -8.84244e-06
-0.000287021 8.60928e-05 8.61121e-05 -5.30506e-06
-0.000228821 6.86158e-05 6.86594e-05 -7.29473e-06
-0.000172231 5.16242e-05 5.16888e-05 -8.84244e-06
-0.000230434 6.90988e-05 6.91434e-05 -7.29473e-06
-0.000229627 6.88573e-05 6.89014e-05 -7.29473e-06
-0.000286013 8.57907e-05 8.58097e-05 -5.30506e-06
-0.000283998 8.51867e-05 8.5205e-05 -5.30507e-06
-0.000170417 5.10811e-05 5.11439e-05 -8.84244e-06
-0.000171627 5.14431e-05 5.15072e-05 -8.84244e-06
-0.000285006 8.54887e-05 8.55074e-05 -5.30506e-06
-0.000227209 6.81328e-05 6.81755e-05 -7.29474e-06
-0.000171022 5.12621e-05 5.13256e-05 -8.84244e-06
-0.000228821 6.86158e-05 6.86594e-05 -7.29473e-06
-0.000228015 6.83743e-05 6.84174e-05 -7.29474e-06
-0.000283998 8.51867e-05 8.5205e-05 -5.30507e-06
-0.000281983 8.45826e-05 8.46003e-05 -5.30507e-06
-0.000169207 5.07191e-05 5.07807e-05 -8.84245e-06
-0.000170417 5.10811e-05 5.11439e-05 -8.84244e-06
-0.000282991 8.48847e-05 8.49027e-05 -5.30507e-06
-0.000225596 6.76497e-05 6.76915e-05 -7.29475e-06
-0.000169812 5.09001e-05 5.09623e-05 -8.84245e-06
-0.000227209 6.81328e-05 6.81755e-05 -7.29474e-06
-0.000226403 6.78913e-05 6.79335e-05 -7.29474e-06
-0.000281983 8.45826e-05 8.46003e-05 -5.30507e-06
-0.000279968 8.39786e-05 8.39956e-05 -5.30508e-06
-0.000167998 5.0357e-05 5.04175e-05 -8.84245e-06
-0.000169207 5.07191e-05 5.07807e-05 -8.84245e-06
-0.000280976 8.42806e-05 8.4298e-05 -5.30507e-06
-0.000223984 6.71667e-05 6.72075e-05 -7.29475e-06
-0.000168603 5.0538e-05 5.05991e-05 -8.84245e-06
-0.000225596 6.76497e-05 6.76915e-05 -7.29475e-06
-0.00022479 6.74082e-05 6.74495e-05 -7.29475e-06
-0.000279968 8.39786e-05 8.39956e-05 -5.30508e-06
-0.000277953 8.33745e-05 8.33909e-05 -5.30508e-06
-0.000166788 4.9995e-05 5.00542e-05 -8.84246e-06
-0.000167998 5.0357e-05 5.04175e-05 -8.84245e-06
-0.000278961 8.36765e-05 8.36932e-05 -5.30508e-06
-0.000222372 6.66837e-05 6.67235e-05 -7.29476e-06
-0.000167393 5.0176e-05 5.02358e-05 -8.84246e-06
-0.000223984 6.71667e-05 6.72075e-05 -7.29475e-06
-0.000223178 6.69252e-05 6.69655e-05 -7.29475e-06
-0.000277953 8.33745e-05 8.33909e-05 -5.30508e-06
-0.000275938 8.27705e-05 8.27862e-05 -5.30509e-06
-0.000165579 4.96329e-05 4.9691e-05 -8.84246e-06
-0.000166788 4.9995e-05 5.00542e-05 -8.84246e-06
-0.000276946 8.30725e-05 8.30885e-05 -5.30508e-06
-0.000220759 6.62006e-05 6.62395e-05 -7.29476e-06
-0.000166183 4.9814e-05 4.98726e-05 -8.84246e-06
-0.000222372 6.66837e-05 6.67235e-05 -7.29476e-06
-0.000221566 6.64421e-05 6.64815e-05 -7.29476e-06
-0.000275938 8.27705e-05 8.27862e-05 -5.30509e-06
-0.000273923 8.21664e-05 8.21815e-05 -5.30509e-06
-0.000164369 4.92709e-05 4.93278e-05 -8.84247e-06
-0.000165579 4.96329e-05 4.9691e-05 -8.84246e-06
-0.000274931 8.24684e-05 8.24838e-05 -5.30509e-06
-0.000219147 6.57176e-05 6.57555e-05 -7.29477e-06
-0.000164974 4.94519e-05 4.95094e-05 -8.84246e-06
-0.000220759 6.62006e-05 6.62395e-05 -7.29476e-06
-0.000219953 6.59591e-05 6.59975e-05 -7.29477e-06
-0.000273923 8.21664e-05 8.21815e-05 -5.30509e-06
-0.000271908 8.15623e-05 8.15768e-05 -5.3051e-06
-0.000163159 4.89088e-05 4.89645e-05 -8.84247e-06
-0.000164369 4.92709e-05 4.93278e-05 -8.84247e-06
-0.000272916 8.18644e-05 8.18791e-05 -5.3051e-06
-0.000217535 6.52345e-05 6.52716e-05 -7.29477e-06
-0.000163764 4.90898e-05 4.91461e-05 -8.84247e-06
-0.000219147 6.57176e-05 6.57555e-05 -7.29477e-06
-0.000218341 6.54761e-05 6.55135e-05 -7.29477e-06
-0.000271908 8.15623e-05 8.15768e-05 -5.3051e-06
-0.000269893 8.09583e-05 8.09721e-05 -5.3051e-06
-0.00016195 4.85468e-05 4.86013e-05 -8.84248e-06
-0.000163159 4.89088e-05 4.89645e-05 -8.84247e-06
-0.000270901 8.12603e-05 8.12744e-05 -5.3051e-06
-0.000215923 6.47515e-05 6.47876e-05 -7.29478e-06
-0.000162555 4.87278e-05 4.87829e-05 -8.84247e-06
-0.000217535 6.52345e-05 6.52716e-05 -7.29477e-06
-0.000216729 6.4993e-05 6.50296e-05 -7.29478e-06
-0.000269893 8.09583e-05 8.09721e-05 -5.3051e-06
-0.000267878 8.03542e-05 8.03674e-05 -5.30511e-06
-0.00016074 4.81847e-05 4.82381e-05 -8.84248e-06
-0.00016195 4.85468e-05 4.86013e-05 -8.84248e-06
-0.000268886 8.06562e-05 8.06698e-05 -5.30511e-06
-0.00021431 6.42684e-05 6.43036e-05 -7.29478e-06
-0.000161345 4.83657e-05 4.84197e-05 -8.84248e-06
-0.000215923 6.47515e-05 6.47876e-05 -7.29478e-06
-0.000215116 6.451e-05 6.45456e-05 -7.29478e-06
-0.000267878 8.03542e-05 8.03674e-05 -5.30511e-06
-0.000265863 7.97501e-05 7.97627e-05 -5.30511e-06
-0.000159531 4.78226e-05 4.78749e-05 -8.84248e-06
-0.00016074 4.81847e-05 4.82381e-05 -8.84248e-06
-0.000266871 8.00522e-05 8.00651e-05 -5.30511e-06
-0.000212698 6.37854e-05 6.38197e-05 -7.29479e-06
-0.000160135 4.80037e-05 4.80565e-05 -8.84248e-06
-0.00021431 6.42684e-05 6.43036e-05 -7.29478e-06
-0.000213504 6.40269e-05 6.40616e-05 -7.29479e-06
-0.000265863 7.97501e-05 7.97627e-05 -5.30511e-06
-0.000263848 7.91461e-05 7.9158e-05 -5.30512e-06
-0.000158321 4.74606e-05 4.75117e-05 -8.84249e-06
-0.000159531 4.78226e-05 4.78749e-05 -8.84248e-06
-0.000264856 7.94481e-05 7.94604e-05 -5.30512e-06
-0.000211086 6.33023e-05 6.33357e-05 -7.2948e-06
-0.000158926 4.76416e-05 4.76933e-05 -8.84249e-06
-0.000212698 6.37854e-05 6.38197e-05 -7.29479e-06
-0.000211892 6.35439e-05 6.35777e-05 -7.29479e-06
-0.000263848 7.91461e-05 7.9158e-05 -5.30512e-06
-0.000261833 7.8542e-05 7.85534e-05 -5.30512e-06
-0.000157112 4.70985e-05 4.71485e-05 -8.84249e-06
-0.000158321 4.74606e-05 4.75117e-05 -8.84249e-06
-0.000262841 7.8844e-05 7.88557e-05 -5.30512e-06
-0.000209473 6.28193e-05 6.28517e-05 -7.2948e-06
-0.000157716 4.72795e-05 4.73301e-05 -8.84249e-06
-0.000211086 6.33023e-05 6.33357e-05 -7.2948e-06
-0.000210279 6.30608e-05 6.30937e-05 -7.2948e-06
-0.000261833 7.8542e-05 7.85534e-05 -5.30512e-06
-0.000259818 7.79379e-05 7.79487e-05 -5.30513e-06
-0.000155902 4.67364e-05 4.67853e-05 -8.8425e-06
-0.000157112 4.70985e-05 4.71485e-05 -8.84249e-06
-0.000260826 7.824e-05 7.8251e-05 -5.30513e-06
-0.000207861 6.23362e-05 6.23678e-05 -7.29481e-06
-0.000156507 4.69175e-05 4.69669e-05 -8.84249e-06
-0.000209473 6.28193e-05 6.28517e-05 -7.2948e-06
-0.000208667 6.25778e-05 6.26098e-05 -7.2948e-06
-0.000259818 7.79379e-05 7.79487e-05 -5.30513e-06
-0.000257803 7.73339e-05 7.7344e-05 -5.30514e-06
-0.000154693 4.63743e-05 4.64221e-05 -8.8425e-06
-0.000155902 4.67364e-05 4.67853e-05 -8.8425e-06
-0.000258811 7.76359e-05 7.76463e-05 -5.30513e-06
-0.000206249 6.18532e-05 6.18838e-05 -7.29481e-06
-0.000155297 4.65554e-05 4.66037e-05 -8.8425e-06
-0.000207861 6.23362e-05 6.23678e-05 -7.29481e-06
-0.000207055 6.20947e-05 6.21258e-05 -7.29481e-06
-0.000257803 7.73339e-05 7.7344e-05 -5.30514e-06
-0.000255788 7.67298e-05 7.67393e-05 -5.30514e-06
-0.000153483 4.60123e-05 4.60589e-05 -8.8425e-06
-0.000154693 4.63743e-05 4.64221e-05 -8.8425e-06
-0.000256796 7.70318e-05 7.70417e-05 -5.30514e-06
-0.000204637 6.13701e-05 6.13999e-05 -7.29482e-06
-0.000154088 4.61933e-05 4.62405e-05 -8.8425e-06
-0.000206249 6.18532e-05 6.18838e-05 -7.29481e-06
-0.000205443 6.16116e-05 6.16419e-05 -7.29481e-06
-0.000255788 7.67298e-05 7.67393e-05 -5.30514e-06
-0.000253773 7.61257e-05 7.61347e-05 -5.30515e-06
-0.000152274 4.56502e-05 4.56957e-05 -8.84251e-06
-0.000153483 4.60123e-05 4.60589e-05 -8.8425e-06
-0.000254781 7.64278e-05 7.6437e-05 -5.30514e-06
-0.000203024 6.0887e-05 6.0916e-05 -7.29482e-06
-0.000152878 4.58312e-05 4.58773e-05 -8.84251e-06
-0.000204637 6.13701e-05 6.13999e-05 -7.29482e-06
-0.00020383 6.11286e-05 6.11579e-05 -7.29482e-06
-0.000253773 7.61257e-05 7.61347e-05 -5.30515e-06
-0.000251758 7.55216e-05 7.553e-05 -5.30515e-06
-0.000151064 4.52881e-05 4.53325e-05 -8.84251e-06
-0.000152274 4.56502e-05 4.56957e-05 -8.84251e-06
-0.000252766 7.58237e-05 7.58323e-05 -5.30515e-06
-0.000201412 6.0404e-05 6.0432e-05 -7.29483e-06
-0.000151669 4.54691e-05 4.55141e-05 -8.84251e-06
-0.000203024 6.0887e-05 6.0916e-05 -7.29482e-06
-0.000202218 6.06455e-05 6.0674e-05 -7.29483e-06
-0.000251758 7.55216e-05 7.553e-05 -5.30515e-06
-0.000249743 7.49176e-05 7.49253e-05 -5.30516e-06
-0.000149855 4.4926e-05 4.49694e-05 -8.84252e-06
-0.000151064 4.52881e-05 4.53325e-05 -8.84251e-06
-0.000250751 7.52196e-05 7.52277e-05 -5.30515e-06
-0.0001998 5.99209e-05 5.99481e-05 -7.29483e-06
-0.000150459 4.5107e-05 4.5151e-05 -8.84252e-06
-0.000201412 6.0404e-05 6.0432e-05 -7.29483e-06
-0.000200606 6.01624e-05 6.01901e-05 -7.29483e-06
-0.000249743 7.49176e-05 7.49253e-05 -5.30516e-06
-0.000247728 7.43135e-05 7.43207e-05 -5.30516e-06
-0.000148645 4.45639e-05 4.46062e-05 -8.84252e-06
-0.000149855 4.4926e-05 4.49694e-05 -8.84252e-06
-0.000248736 7.46155e-05 7.4623e-05 -5.30516e-06
-0.000198188 5.94378e-05 5.94642e-05 -7.29484e-06
-0.00014925 4.47449e-05 4.47878e-05 -8.84252e-06
-0.0001998 5.99209e-05 5.99481e-05 -7.29483e-06
-0.000198994 5.96794e-05 5.97061e-05 -7.29484e-06
-0.000247728 7.43135e-05 7.43207e-05 -5.30516e-06
-0.000245713 7.37094e-05 7.3716e-05 -5.30517e-06
-0.000147436 4.42018e-05 4.4243e-05 -8.84253e-06
-0.000148645 4.45639e-05 4.46062e-05 -8.84252e-06
-0.000246721 7.40114e-05 7.40183e-05 -5.30517e-06
-0.000196575 5.89548e-05 5.89803e-05 -7.29484e-06
-0.00014804 4.43828e-05 4.44246e-05 -8.84252e-06
-0.000198188 5.94378e-05 5.94642e-05 -7.29484e-06
-0.000197381 5.91963e-05 5.92222e-05 -7.29484e-06
-0.000245713 7.37094e-05 7.3716e-05 -5.30517e-06
-0.000243699 7.31053e-05 7.31114e-05 -5.30517e-06
-0.000146226 4.38397e-05 4.38799e-05 -8.84253e-06
-0.000147436 4.42018e-05 4.4243e-05 -8.84253e-06
-0.000244706 7.34074e-05 7.34137e-05 -5.30517e-06
-0.000194963 5.84717e-05 5.84963e-05 -7.29485e-06
-0.000146831 4.40207e-05 4.40614e-05 -8.84253e-06
-0.000196575 5.89548e-05 5.89803e-05 -7.29484e-06
-0.000195769 5.87132e-05 5.87383e-05 -7.29485e-06
-0.000243699 7.31053e-05 7.31114e-05 -5.30517e-06
-0.000241684 7.25012e-05 7.25067e-05 -5.30518e-06
-0.000145017 4.34776e-05 4.35167e-05 -8.84253e-06
-0.000146226 4.38397e-05 4.38799e-05 -8.84253e-06
-0.000242691 7.28033e-05 7.2809e-05 -5.30518e-06
-0.000193351 5.79886e-05 5.80124e-05 -7.29486e-06
-0.000145621 4.36586e-05 4.36983e-05 -8.84253e-06
-0.000194963 5.84717e-05 5.84963e-05 -7.29485e-06
-0.000194157 5.82301e-05 5.82544e-05 -7.29485e-06
-0.000241684 7.25012e-05 7.25067e-05 -5.30518e-06
-0.000239669 7.18972e-05 7.19021e-05 -5.30518e-06
-0.000143807 4.31155e-05 4.31536e-05 -8.84254e-06
-0.000145017 4.34776e-05 4.35167e-05 -8.84253e-06
-0.000240676 7.21992e-05 7.22044e-05 -5.30518e-06
-0.000191739 5.75055e-05 5.75285e-05 -7.29486e-06
-0.000144412 4.32965e-05 4.33351e-05 -8.84254e-06
-0.000193351 5.79886e-05 5.80124e-05 -7.29486e-06
-0.000192545 5.77471e-05 5.77705e-05 -7.29486e-06
-0.000239669 7.18972e-05 7.19021e-05 -5.30518e-06
-0.000237654 7.12931e-05 7.12974e-05 -5.30519e-06
-0.000142598 4.27534e-05 4.27904e-05 -8.84254e-06
-0.000143807 4.31155e-05 4.31536e-05 -8.84254e-06
-0.000238661 7.15951e-05 7.15997e-05 -5.30519e-06
-0.000190126 5.70224e-05 5.70446e-05 -7.29487e-06
-0.000143202 4.29344e-05 4.2972e-05 -8.84254e-06
-0.000191739 5.75055e-05 5.75285e-05 -7.29486e-06
-0.000190933 5.7264e-05 5.72866e-05 -7.29486e-06
-0.000237654 7.12931e-05 7.12974e-05 -5.30519e-06
-0.000235639 7.0689e-05 7.06928e-05 -5.30519e-06
-0.000141388 4.23912e-05 4.24273e-05 -8.84255e-06
-0.000142598 4.27534e-05 4.27904e-05 -8.84254e-06
-0.000236646 7.0991e-05 7.09951e-05 -5.30519e-06
-0.000188514 5.65393e-05 5.65607e-05 -7.29487e-06
-0.000141993 4.25723e-05 4.26088e-05 -8.84254e-06
-0.000190126 5.70224e-05 5.70446e-05 -7.29487e-06
-0.00018932 5.67809e-05 5.68026e-05 -7.29487e-06
-0.000235639 7.0689e-05 7.06928e-05 -5.30519e-06
-0.000233624 7.00849e-05 7.00882e-05 -5.3052e-06
-0.000140179 4.20291e-05 4.20641e-05 -8.84255e-06
-0.000141388 4.23912e-05 4.24273e-05 -8.84255e-06
-0.000234631 7.03869e-05 7.03905e-05 -5.3052e-06
-0.000186902 5.60562e-05 5.60768e-05 -7.29488e-06
-0.000140783 4.22102e-05 4.22457e-05 -8.84255e-06
-0.000188514 5.65393e-05 5.65607e-05 -7.29487e-06
-0.000187708 5.62978e-05 5.63187e-05 -7.29487e-06
-0.000233624 7.00849e-05 7.00882e-05 -5.3052e-06
-0.000231609 6.94808e-05 6.94835e-05 -5.30521e-06
-0.000138969 4.1667e-05 4.1701e-05 -8.84255e-06
-0.000140179 4.20291e-05 4.20641e-05 -8.84255e-06
-0.000232616 6.97828e-05 6.97858e-05 -5.3052e-06
-0.00018529 5.55731e-05 5.55929e-05 -7.29488e-06
-0.000139574 4.18481e-05 4.18826e-05 -8.84255e-06
-0.000186902 5.60562e-05 5.60768e-05 -7.29488e-06
-0.000186096 5.58147e-05 5.58349e-05 -7.29488e-06
-0.000231609 6.94808e-05 6.94835e-05 -5.30521e-06
-0.000229594 6.88767e-05 6.88789e-05 -5.30521e-06
-0.00013776 4.13049e-05 4.13379e-05 -8.84256e-06
-0.000138969 4.1667e-05 4.1701e-05 -8.84255e-06
-0.000230602 6.91787e-05 6.91812e-05 -5.30521e-06
-0.000183678 5.509e-05 5.5109e-05 -7.29489e-06
-0.000138365 4.14859e-05 4.15194e-05 -8.84256e-06
-0.00018529 5.55731e-05 5.55929e-05 -7.29488e-06
-0.000184484 5.53316e-05 5.5351e-05 -7.29488e-06
-0.000229594 6.88767e-05 6.88789e-05 -5.30521e-06
-0.000227579 6.82726e-05 6.82743e-05 -5.30522e-06
-0.000136551 4.09427e-05 4.09748e-05 -8.84256e-06
-0.00013776 4.13049e-05 4.13379e-05 -8.84256e-06
-0.000228587 6.85747e-05 6.85766e-05 -5.30521e-06
-0.000182066 5.46069e-05 5.46251e-05 -7.29489e-06
-0.000137155 4.11238e-05 4.11563e-05 -8.84256e-06
-0.000183678 5.509e-05 5.5109e-05 -7.29489e-06
-0.000182872 5.48485e-05 5.48671e-05 -7.29489e-06
-0.000227579 6.82726e-05 6.82743e-05 -5.30522e-06
-0.000225564 6.76685e-05 6.76696e-05 -5.30522e-06
-0.000135341 4.05806e-05 4.06116e-05 -8.84257e-06
-0.000136551 4.09427e-05 4.09748e-05 -8.84256e-06
-0.000226572 6.79706e-05 6.79719e-05 -5.30522e-06
-0.000180453 5.41238e-05 5.41412e-05 -7.2949e-06
-0.000135946 4.07617e-05 4.07932e-05 -8.84256e-06
-0.000182066 5.46069e-05 5.46251e-05 -7.29489e-06
-0.00018126 5.43654e-05 5.43832e-05 -7.2949e-06
-0.000225564 6.76685e-05 6.76696e-05 -5.30522e-06
-0.000223549 6.70644e-05 6.7065e-05 -5.30523e-06
-0.000134132 4.02185e-05 4.02485e-05 -8.84257e-06
-0.000135341 4.05806e-05 4.06116e-05 -8.84257e-06
-0.000224557 6.73665e-05 6.73673e-05 -5.30522e-06
-0.000178841 5.36407e-05 5.36574e-05 -7.2949e-06
-0.000134736 4.03995e-05 4.04301e-05 -8.84257e-06
-0.000180453 5.41238e-05 5.41412e-05 -7.2949e-06
-0.000179647 5.38823e-05 5.38993e-05 -7.2949e-06
-0.000223549 6.70644e-05 6.7065e-05 -5.30523e-06
-0.000221535 6.64603e-05 6.64604e-05 -5.30523e-06
-0.000132922 3.98563e-05 3.98854e-05 -8.84258e-06
-0.000134132 4.02185e-05 4.02485e-05 -8.84257e-06
-0.000222542 6.67624e-05 6.67627e-05 -5.30523e-06
-0.000177229 5.31576e-05 5.31735e-05 -7.29491e-06
-0.000133527 4.00374e-05 4.0067e-05 -8.84257e-06
-0.000178841 5.36407e-05 5.36574e-05 -7.2949e-06
-0.000178035 5.33992e-05 5.34154e-05 -7.29491e-06
-0.000221535 6.64603e-05 6.64604e-05 -5.30523e-06
-0.00021952 6.58562e-05 6.58558e-05 -5.30524e-06
-0.000131713 3.94942e-05 3.95223e-05 -8.84258e-06
-0.000132922 3.98563e-05 3.98854e-05 -8.84258e-06
-0.000220527 6.61583e-05 6.61581e-05 -5.30523e-06
-0.000175617 5.26745e-05 5.26896e-05 -7.29491e-06
-0.000132318 3.96752e-05 3.97039e-05 -8.84258e-06
-0.000177229 5.31576e-05 5.31735e-05 -7.29491e-06
-0.000176423 5.29161e-05 5.29316e-05 -7.29491e-06
-0.00021952 6.58562e-05 6.58558e-05 -5.30524e-06
-0.000217505 6.52521e-05 6.52512e-05 -5.30524e-06
-0.000130504 3.9132e-05 3.91592e-05 -8.84258e-06
-0.000131713 3.94942e-05 3.95223e-05 -8.84258e-06
-0.000218512 6.55542e-05 6.55535e-05 -5.30524e-06
-0.000174005 5.21914e-05 5.22058e-05 -7.29492e-06
-0.000131108 3.93131e-05 3.93408e-05 -8.84258e-06
-0.000175617 5.26745e-05 5.26896e-05 -7.29491e-06
-0.000174811 5.2433e-05 5.24477e-05 -7.29492e-06
-0.000217505 6.52521e-05 6.52512e-05 -5.30524e-06
-0.00021549 6.4648e-05 6.46466e-05 -5.30525e-06
-0.000129294 3.87699e-05 3.87961e-05 -8.84259e-06
-0.000130504 3.9132e-05 3.91592e-05 -8.84258e-06
-0.000216497 6.495e-05 6.49489e-05 -5.30525e-06
-0.000172393 5.17083e-05 5.17219e-05 -7.29493e-06
-0.000129899 3.89509e-05 3.89777e-05 -8.84259e-06
-0.000174005 5.21914e-05 5.22058e-05 -7.29492e-06
-0.000173199 5.19498e-05 5.19638e-05 -7.29492e-06
-0.00021549 6.4648e-05 6.46466e-05 -5.30525e-06
-0.000213475 6.40439e-05 6.4042e-05 -5.30525e-06
-0.000128085 3.84077e-05 3.8433e-05 -8.84259e-06
-0.000129294 3.87699e-05 3.87961e-05 -8.84259e-06
-0.000214483 6.43459e-05 6.43443e-05 -5.30525e-06
-0.000170781 5.12252e-05 5.12381e-05 -7.29493e-06
-0.000128689 3.85888e-05 3.86146e-05 -8.84259e-06
-0.000172393 5.17083e-05 5.17219e-05 -7.29493e-06
-0.000171587 5.14667e-05 5.148e-05 -7.29493e-06
-0.000213475 6.40439e-05 6.4042e-05 -5.30525e-06
-0.00021146 6.34398e-05 6.34374e-05 -5.30526e-06
-0.000126875 3.80455e-05 3.807e-05 -8.8426e-06
-0.000128085 3.84077e-05 3.8433e-05 -8.84259e-06
-0.000212468 6.37418e-05 6.37397e-05 -5.30526e-06
-0.000169169 5.0742e-05 5.07542e-05 -7.29494e-06
-0.00012748 3.82266e-05 3.82515e-05 -8.84259e-06
-0.000170781 5.12252e-05 5.12381e-05 -7.29493e-06
-0.000169975 5.09836e-05 5.09961e-05 -7.29493e-06
-0.00021146 6.34398e-05 6.34374e-05 -5.30526e-06
-0.000209445 6.28357e-05 6.28328e-05 -5.30526e-06
-0.000125666 3.76834e-05 3.77069e-05 -8.8426e-06
-0.000126875 3.80455e-05 3.807e-05 -8.8426e-06
-0.000210453 6.31377e-05 6.31351e-05 -5.30526e-06
-0.000167556 5.02589e-05 5.02704e-05 -7.29494e-06
-0.000126271 3.78645e-05 3.78884e-05 -8.8426e-06
-0.000169169 5.0742e-05 5.07542e-05 -7.29494e-06
-0.000168362 5.05005e-05 5.05123e-05 -7.29494e-06
-0.000209445 6.28357e-05 6.28328e-05 -5.30526e-06
-0.000207431 6.22316e-05 6.22282e-05 -5.30527e-06
-0.000124457 3.73212e-05 3.73438e-05 -8.8426e-06
-0.000125666 3.76834e-05 3.77069e-05 -8.8426e-06
-0.000208438 6.25336e-05 6.25305e-05 -5.30527e-06
-0.000165944 4.97758e-05 4.97865e-05 -7.29495e-06
-0.000125061 3.75023e-05 3.75253e-05 -8.8426e-06
-0.000167556 5.02589e-05 5.02704e-05 -7.29494e-06
-0.00016675 5.00173e-05 5.00284e-05 -7.29494e-06
-0.000207431 6.22316e-05 6.22282e-05 -5.30527e-06
-0.000205416 6.16274e-05 6.16236e-05 -5.30527e-06
-0.000123247 3.6959e-05 3.69807e-05 -8.84261e-06
-0.000124457 3.73212e-05 3.73438e-05 -8.8426e-06
-0.000206423 6.19295e-05 6.19259e-05 -5.30527e-06
-0.000164332 4.92926e-05 4.93027e-05 -7.29495e-06
-0.000123852 3.71401e-05 3.71623e-05 -8.84261e-06
-0.000165944 4.97758e-05 4.97865e-05 -7.29495e-06
-0.000165138 4.95342e-05 4.95446e-05 -7.29495e-06
-0.000205416 6.16274e-05 6.16236e-05 -5.30527e-06
-0.000203401 6.10233e-05 6.1019e-05 -5.30528e-06
-0.000122038 3.65969e-05 3.66177e-05 -8.84261e-06
-0.000123247 3.6959e-05 3.69807e-05 -8.84261e-06
-0.000204408 6.13254e-05 6.13213e-05 -5.30528e-06
-0.00016272 4.88095e-05 4.88188e-05 -7.29496e-06
-0.000122643 3.6778e-05 3.67992e-05 -8.84261e-06
-0.000164332 4.92926e-05 4.93027e-05 -7.29495e-06
-0.000163526 4.90511e-05 4.90608e-05 -7.29495e-06
-0.000203401 6.10233e-05 6.1019e-05 -5.30528e-06
-0.000201386 6.04192e-05 6.04144e-05 -5.30529e-06
-0.000120829 3.62347e-05 3.62546e-05 -8.84262e-06
-0.000122038 3.65969e-05 3.66177e-05 -8.84261e-06
-0.000202394 6.07213e-05 6.07167e-05 -5.30528e-06
-0.000161108 4.83264e-05 4.8335e-05 -7.29496e-06
-0.000121433 3.64158e-05 3.64361e-05 -8.84261e-06
-0.00016272 4.88095e-05 4.88188e-05 -7.29496e-06
-0.000161914 4.85679e-05 4.85769e-05 -7.29496e-06
-0.000201386 6.04192e-05 6.04144e-05 -5.30529e-06
-0.000199371 5.98151e-05 5.98098e-05 -5.30529e-06
-0.000119619 3.58725e-05 3.58916e-05 -8.84262e-06
-0.000120829 3.62347e-05 3.62546e-05 -8.84262e-06
-0.000200379 6.01171e-05 6.01121e-05 -5.30529e-06
-0.000159496 4.78432e-05 4.78512e-05 -7.29497e-06
-0.000120224 3.60536e-05 3.60731e-05 -8.84262e-06
-0.000161108 4.83264e-05 4.8335e-05 -7.29496e-06
-0.000160302 4.80848e-05 4.80931e-05 -7.29497e-06
-0.000199371 5.98151e-05 5.98098e-05 -5.30529e-06
-0.000197357 5.9211e-05 5.92053e-05 -5.3053e-06
-0.00011841 3.55103e-05 3.55285e-05 -8.84263e-06
-0.000119619 3.58725e-05 3.58916e-05 -8.84262e-06
-0.000198364 5.9513e-05 5.95076e-05 -5.30529e-06
-0.000157884 4.73601e-05 4.73674e-05 -7.29497e-06
-0.000119015 3.56914e-05 3.571e-05 -8.84262e-06
-0.000159496 4.78432e-05 4.78512e-05 -7.29497e-06
-0.00015869 4.76017e-05 4.76093e-05 -7.29497e-06
-0.000197357 5.9211e-05 5.92053e-05 -5.3053e-06
-0.000195342 5.86068e-05 5.86007e-05 -5.3053e-06
-0.000117201 3.51481e-05 3.51655e-05 -8.84263e-06
-0.00011841 3.55103e-05 3.55285e-05 -8.84263e-06
-0.000196349 5.89089e-05 5.8903e-05 -5.3053e-06
-0.000156272 4.68769e-05 4.68835e-05 -7.29498e-06
-0.000117806 3.53292e-05 3.5347e-05 -8.84263e-06
-0.000157884 4.73601e-05 4.73674e-05 -7.29497e-06
-0.000157078 4.71185e-05 4.71255e-05 -7.29498e-06
-0.000195342 5.86068e-05 5.86007e-05 -5.3053e-06
-0.000193327 5.80027e-05 5.79961e-05 -5.30531e-06
-0.000115992 3.47859e-05 3.48024e-05 -8.84263e-06
-0.000117201 3.51481e-05 3.51655e-05 -8.84263e-06
-0.000194334 5.83048e-05 5.82984e-05 -5.3053e-06
-0.00015466 4.63938e-05 4.63997e-05 -7.29498e-06
-0.000116596 3.4967e-05 3.49839e-05 -8.84263e-06
-0.000156272 4.68769e-05 4.68835e-05 -7.29498e-06
-0.000155466 4.66354e-05 4.66416e-05 -7.29498e-06
-0.000193327 5.80027e-05 5.79961e-05 -5.30531e-06
-0.000191312 5.73986e-05 5.73916e-05 -5.30531e-06
-0.000114782 3.44237e-05 3.44394e-05 -8.84264e-06
-0.000115992 3.47859e-05 3.48024e-05 -8.84263e-06
-0.00019232 5.77006e-05 5.76939e-05 -5.30531e-06
-0.000153048 4.59106e-05 4.59159e-05 -7.29499e-06
-0.000115387 3.46048e-05 3.46209e-05 -8.84264e-06
-0.00015466 4.63938e-05 4.63997e-05 -7.29498e-06
-0.000153854 4.61522e-05 4.61578e-05 -7.29499e-06
-0.000191312 5.73986e-05 5.73916e-05 -5.30531e-06
-0.000189297 5.67944e-05 5.6787e-05 -5.30532e-06
-0.000113573 3.40615e-05 3.40764e-05 -8.84264e-06
-0.000114782 3.44237e-05 3.44394e-05 -8.84264e-06
-0.000190305 5.70965e-05 5.70893e-05 -5.30531e-06
-0.000151436 4.54275e-05 4.54321e-05 -7.295e-06
-0.000114178 3.42426e-05 3.42579e-05 -8.84264e-06
-0.000153048 4.59106e-05 4.59159e-05 -7.29499e-06
-0.000152242 4.56691e-05 4.5674e-05 -7.29499e-06
-0.000189297 5.67944e-05 5.6787e-05 -5.30532e-06
-0.000187283 5.61903e-05 5.61825e-05 -5.30532e-06
-0.000112364 3.36993e-05 3.37133e-05 -8.84265e-06
-0.000113573 3.40615e-05 3.40764e-05 -8.84264e-06
-0.00018829 5.64924e-05 5.64847e-05 -5.30532e-06
-0.000149824 4.49443e-05 4.49483e-05 -7.295e-06
-0.000112968 3.38804e-05 3.38949e-05 -8.84264e-06
-0.000151436 4.54275e-05 4.54321e-05 -7.295e-06
-0.00015063 4.51859e-05 4.51902e-05 -7.295e-06
-0.000187283 5.61903e-05 5.61825e-05 -5.30532e-06
-0.000185268 5.55862e-05 5.55779e-05 -5.30533e-06
-0.000111155 3.33371e-05 3.33503e-05 -8.84265e-06
-0.000112364 3.36993e-05 3.37133e-05 -8.84265e-06
-0.000186275 5.58882e-05 5.58802e-05 -5.30533e-06
-0.000148212 4.44612e-05 4.44645e-05 -7.29501e-06
-0.000111759 3.35182e-05 3.35318e-05 -8.84265e-06
-0.000149824 4.49443e-05 4.49483e-05 -7.295e-06
-0.000149018 4.47027e-05 4.47064e-05 -7.295e-06
-0.000185268 5.55862e-05 5.55779e-05 -5.30533e-06
-0.000183253 5.4982e-05 5.49734e-05 -5.30533e-06
-0.000109945 3.29749e-05 3.29873e-05 -8.84265e-06
-0.000111155 3.33371e-05 3.33503e-05 -8.84265e-06
-0.000184261 5.52841e-05 5.52756e-05 -5.30533e-06
-0.0001466 4.3978e-05 4.39807e-05 -7.29501e-06
-0.00011055 3.3156e-05 3.31688e-05 -8.84265e-06
-0.000148212 4.44612e-05 4.44645e-05 -7.29501e-06
-0.000147406 4.42196e-05 4.42226e-05 -7.29501e-06
-0.000183253 5.4982e-05 5.49734e-05 -5.30533e-06
-0.000181238 5.43779e-05 5.43688e-05 -5.30534e-06
-0.000108736 3.26127e-05 3.26243e-05 -8.84266e-06
-0.000109945 3.29749e-05 3.29873e-05 -8.84265e-06
-0.000182246 5.468e-05 5.46711e-05 -5.30534e-06
-0.000144988 4.34948e-05 4.3497e-05 -7.29502e-06
-0.000109341 3.27938e-05 3.28058e-05 -8.84266e-06
-0.0001466 4.3978e-05 4.39807e-05 -7.29501e-06
-0.000145794 4.37364e-05 4.37388e-05 -7.29501e-06
-0.000181238 5.43779e-05 5.43688e-05 -5.30534e-06
-0.000179224 5.37737e-05 5.37643e-05 -5.30534e-06
-0.000107527 3.22504e-05 3.22613e-05 -8.84266e-06
-0.000108736 3.26127e-05 3.26243e-05 -8.84266e-06
-0.000180231 5.40758e-05 5.40665e-05 -5.30534e-06
-0.000143376 4.30116e-05 4.30132e-05 -7.29502e-06
-0.000108131 3.24316e-05 3.24428e-05 -8.84266e-06
-0.000144988 4.34948e-05 4.3497e-05 -7.29502e-06
-0.000144182 4.32532e-05 4.32551e-05 -7.29502e-06
-0.000179224 5.37737e-05 5.37643e-05 -5.30534e-06
-0.000177209 5.31696e-05 5.31597e-05 -5.30535e-06
-0.000106318 3.18882e-05 3.18983e-05 -8.84267e-06
-0.000107527 3.22504e-05 3.22613e-05 -8.84266e-06
-0.000178216 5.34717e-05 5.3462e-05 -5.30535e-06
-0.000141764 4.25285e-05 4.25294e-05 -7.29503e-06
-0.000106922 3.20693e-05 3.20798e-05 -8.84267e-06
-0.000143376 4.30116e-05 4.30132e-05 -7.29502e-06
-0.00014257 4.27701e-05 4.27713e-05 -7.29503e-06
-0.000177209 5.31696e-05 5.31597e-05 -5.30535e-06
-0.000175194 5.25654e-05 5.25552e-05 -5.30536e-06
-0.000105108 3.1526e-05 3.15353e-05 -8.84267e-06
-0.000106318 3.18882e-05 3.18983e-05 -8.84267e-06
-0.000176202 5.28675e-05 5.28575e-05 -5.30535e-06
-0.000140152 4.20453e-05 4.20456e-05 -7.29503e-06
-0.000105713 3.17071e-05 3.17168e-05 -8.84267e-06
-0.000141764 4.25285e-05 4.25294e-05 -7.29503e-06
-0.000140958 4.22869e-05 4.22875e-05 -7.29503e-06
-0.000175194 5.25654e-05 5.25552e-05 -5.30536e-06
-0.00017318 5.19613e-05 5.19507e-05 -5.30536e-06
-0.000103899 3.11637e-05 3.11723e-05 -8.84268e-06
-0.000105108 3.1526e-05 3.15353e-05 -8.84267e-06
-0.000174187 5.22634e-05 5.22529e-05 -5.30536e-06
-0.00013854 4.15621e-05 4.15619e-05 -7.29504e-06
-0.000104504 3.13449e-05 3.13538e-05 -8.84267e-06
-0.000140152 4.20453e-05 4.20456e-05 -7.29503e-06
-0.000139346 4.18037e-05 4.18037e-05 -7.29504e-06
-0.00017318 5.19613e-05 5.19507e-05 -5.30536e-06
-0.000171165 5.13571e-05 5.13461e-05 -5.30537e-06
-0.00010269 3.08015e-05 3.08094e-05 -8.84268e-06
-0.000103899 3.11637e-05 3.11723e-05 -8.84268e-06
-0.000172172 5.16592e-05 5.16484e-05 -5.30536e-06
-0.000136928 4.10789e-05 4.10781e-05 -7.29505e-06
-0.000103295 3.09826e-05 3.09908e-05 -8.84268e-06
-0.00013854 4.15621e-05 4.15619e-05 -7.29504e-06
-0.000137734 4.13205e-05 4.132e-05 -7.29504e-06
-0.000171165 5.13571e-05 5.13461e-05 -5.30537e-06
-0.00016915 5.0753e-05 5.07416e-05 -5.30537e-06
-0.000101481 3.04393e-05 3.04464e-05 -8.84269e-06
-0.00010269 3.08015e-05 3.08094e-05 -8.84268e-06
-0.000170157 5.10551e-05 5.10439e-05 -5.30537e-06
-0.000135316 4.05957e-05 4.05943e-05 -7.29505e-06
-0.000102085 3.06204e-05 3.06279e-05 -8.84268e-06
-0.000136928 4.10789e-05 4.10781e-05 -7.29505e-06
-0.000136122 4.08373e-05 4.08362e-05 -7.29505e-06
-0.00016915 5.0753e-05 5.07416e-05 -5.30537e-06
-0.000167135 5.01488e-05 5.01371e-05 -5.30538e-06
-0.000100272 3.0077e-05 3.00834e-05 -8.84269e-06
-0.000101481 3.04393e-05 3.04464e-05 -8.84269e-06
-0.000168143 5.04509e-05 5.04394e-05 -5.30537e-06
-0.000133704 4.01125e-05 4.01106e-05 -7.29506e-06
-0.000100876 3.02581e-05 3.02649e-05 -8.84269e-06
-0.000135316 4.05957e-05 4.05943e-05 -7.29505e-06
-0.00013451 4.03541e-05 4.03525e-05 -7.29505e-06
-0.000167135 5.01488e-05 5.01371e-05 -5.30538e-06
-0.000165121 4.95447e-05 4.95326e-05 -5.30538e-06
-9.90624e-05 2.97148e-05 2.97204e-05 -8.84269e-06
-0.000100272 3.0077e-05 3.00834e-05 -8.84269e-06
-0.000166128 4.98468e-05 4.98348e-05 -5.30538e-06
-0.000132092 3.96293e-05 3.96268e-05 -7.29506e-06
-9.9667e-05 2.98959e-05 2.99019e-05 -8.84269e-06
-0.000133704 4.01125e-05 4.01106e-05 -7.29506e-06
-0.000132898 3.98709e-05 3.98687e-05 -7.29506e-06
-0.000165121 4.95447e-05 4.95326e-05 -5.30538e-06
-0.000163106 4.89405e-05 4.89281e-05 -5.30539e-06
-9.78533e-05 2.93525e-05 2.93575e-05 -8.8427e-06
-9.90624e-05 2.97148e-05 2.97204e-05 -8.84269e-06
-0.000164113 4.92426e-05 4.92303e-05 -5.30539e-06
-0.00013048 3.91461e-05 3.91431e-05 -7.29507e-06
-9.84579e-05 2.95336e-05 2.9539e-05 -8.8427e-06
-0.000132092 3.96293e-05 3.96268e-05 -7.29506e-06
-0.000131286 3.93877e-05 3.9385e-05 -7.29506e-06
-0.000163106 4.89405e-05 4.89281e-05 -5.30539e-06
-0.000161091 4.83364e-05 4.83236e-05 -5.30539e-06
-9.66441e-05 2.89902e-05 2.89945e-05 -8.8427e-06
-9.78533e-05 2.93525e-05 2.93575e-05 -8.8427e-06
-0.000162099 4.86384e-05 4.86258e-05 -5.30539e-06
-0.000128868 3.86629e-05 3.86594e-05 -7.29507e-06
-9.72487e-05 2.91714e-05 2.9176e-05 -8.8427e-06
-0.00013048 3.91461e-05 3.91431e-05 -7.29507e-06
-0.000129674 3.89045e-05 3.89012e-05 -7.29507e-06
-0.000161091 4.83364e-05 4.83236e-05 -5.30539e-06
-0.000159077 4.77322e-05 4.77191e-05 -5.3054e-06
-9.5435e-05 2.8628e-05 2.86316e-05 -8.84271e-06
-9.66441e-05 2.89902e-05 2.89945e-05 -8.8427e-06
-0.000160084 4.80343e-05 4.80213e-05 -5.3054e-06
-0.000127256 3.81797e-05 3.81756e-05 -7.29508e-06
-9.60396e-05 2.88091e-05 2.8813e-05 -8.84271e-06
-0.000128868 3.86629e-05 3.86594e-05 -7.29507e-06
-0.000128062 3.84213e-05 3.84175e-05 -7.29508e-06
-0.000159077 4.77322e-05 4.77191e-05 -5.3054e-06
-0.000157062 4.7128e-05 4.71146e-05 -5.30541e-06
-9.42258e-05 2.82657e-05 2.82686e-05 -8.84271e-06
-9.5435e-05 2.8628e-05 2.86316e-05 -8.84271e-06
-0.000158069 4.74301e-05 4.74168e-05 -5.3054e-06
-0.000125644 3.76965e-05 3.76919e-05 -7.29508e-06
-9.48304e-05 2.84468e-05 2.84501e-05 -8.84271e-06
-0.000127256 3.81797e-05 3.81756e-05 -7.29508e-06
-0.00012645 3.79381e-05 3.79338e-05 -7.29508e-06
-0.000157062 4.7128e-05 4.71146e-05 -5.30541e-06
-0.000155047 4.65239e-05 4.65101e-05 -5.30541e-06
-9.30167e-05 2.79034e-05 2.79057e-05 -8.84272e-06
-9.42258e-05 2.82657e-05 2.82686e-05 -8.84271e-06
-0.000156055 4.68259e-05 4.68123e-05 -5.30541e-06
-0.000124032 3.72133e-05 3.72082e-05 -7.29509e-06
-9.36213e-05 2.80846e-05 2.80872e-05 -8.84271e-06
-0.000125644 3.76965e-05 3.76919e-05 -7.29508e-06
-0.000124838 3.74549e-05 3.745e-05 -7.29509e-06
-0.000155047 4.65239e-05 4.65101e-05 -5.30541e-06
-0.000153033 4.59197e-05 4.59056e-05 -5.30542e-06
-9.18076e-05 2.75411e-05 2.75428e-05 -8.84272e-06
-9.30167e-05 2.79034e-05 2.79057e-05 -8.84272e-06
-0.00015404 4.62218e-05 4.62078e-05 -5.30541e-06
-0.00012242 3.67301e-05 3.67244e-05 -7.2951e-06
-9.24121e-05 2.77223e-05 2.77242e-05 -8.84272e-06
-0.000124032 3.72133e-05 3.72082e-05 -7.29509e-06
-0.000123226 3.69717e-05 3.69663e-05 -7.29509e-06
-0.000153033 4.59197e-05 4.59056e-05 -5.30542e-06
-0.000151018 4.53155e-05 4.53011e-05 -5.30542e-06
-9.05985e-05 2.71789e-05 2.71798e-05 -8.84273e-06
-9.18076e-05 2.75411e-05 2.75428e-05 -8.84272e-06
-0.000152025 4.56176e-05 4.56033e-05 -5.30542e-06
-0.000120809 3.62469e-05 3.62407e-05 -7.2951e-06
-9.1203e-05 2.736e-05 2.73613e-05 -8.84272e-06
-0.00012242 3.67301e-05 3.67244e-05 -7.2951e-06
-0.000121615 3.64885e-05 3.64826e-05 -7.2951e-06
-0.000151018 4.53155e-05 4.53011e-05 -5.30542e-06
-0.000149003 4.47113e-05 4.46966e-05 -5.30543e-06
-8.93894e-05 2.68166e-05 2.68169e-05 -8.84273e-06
-9.05985e-05 2.71789e-05 2.71798e-05 -8.84273e-06
-0.000150011 4.50134e-05 4.49988e-05 -5.30542e-06
-0.000119197 3.57636e-05 3.5757e-05 -7.29511e-06
-8.99939e-05 2.69977e-05 2.69984e-05 -8.84273e-06
-0.000120809 3.62469e-05 3.62407e-05 -7.2951e-06
-0.000120003 3.60053e-05 3.59989e-05 -7.2951e-06
-0.000149003 4.47113e-05 4.46966e-05 -5.30543e-06
-0.000146989 4.41071e-05 4.40921e-05 -5.30543e-06
-8.81803e-05 2.64543e-05 2.6454e-05 -8.84274e-06
-8.93894e-05 2.68166e-05 2.68169e-05 -8.84273e-06
-0.000147996 4.44092e-05 4.43944e-05 -5.30543e-06
-0.000117585 3.52804e-05 3.52733e-05 -7.29511e-06
-8.87848e-05 2.66354e-05 2.66354e-05 -8.84273e-06
-0.000119197 3.57636e-05 3.5757e-05 -7.29511e-06
-0.000118391 3.5522e-05 3.55152e-05 -7.29511e-06
-0.000146989 4.41071e-05 4.40921e-05 -5.30543e-06
-0.000144974 4.3503e-05 4.34876e-05 -5.30544e-06
-8.69712e-05 2.6092e-05 2.60911e-05 -8.84274e-06
-8.81803e-05 2.64543e-05 2.6454e-05 -8.84274e-06
-0.000145981 4.38051e-05 4.37899e-05 -5.30544e-06
-0.000115973 3.47972e-05 3.47896e-05 -7.29512e-06
-8.75757e-05 2.62731e-05 2.62725e-05 -8.84274e-06
-0.000117585 3.52804e-05 3.52733e-05 -7.29511e-06
-0.000116779 3.50388e-05 3.50315e-05 -7.29512e-06
-0.000144974 4.3503e-05 4.34876e-05 -5.30544e-06
-0.000142959 4.28988e-05 4.28832e-05 -5.30544e-06
-8.57621e-05 2.57297e-05 2.57282e-05 -8.84274e-06
-8.69712e-05 2.6092e-05 2.60911e-05 -8.84274e-06
-0.000143967 4.32009e-05 4.31854e-05 -5.30544e-06
-0.000114361 3.4314e-05 3.43059e-05 -7.29513e-06
-8.63666e-05 2.59108e-05 2.59096e-05 -8.84274e-06
-0.000115973 3.47972e-05 3.47896e-05 -7.29512e-06
-0.000115167 3.45556e-05 3.45478e-05 -7.29512e-06
-0.000142959 4.28988e-05 4.28832e-05 -5.30544e-06
-0.000140945 4.22946e-05 4.22787e-05 -5.30545e-06
-8.4553e-05 2.53674e-05 2.53653e-05 -8.84275e-06
-8.57621e-05 2.57297e-05 2.57282e-05 -8.84274e-06
-0.000141952 4.25967e-05 4.25809e-05 -5.30545e-06
-0.000112749 3.38307e-05 3.38222e-05 -7.29513e-06
-8.51575e-05 2.55485e-05 2.55467e-05 -8.84275e-06
-0.000114361 3.4314e-05 3.43059e-05 -7.29513e-06
-0.000113555 3.40723e-05 3.40641e-05 -7.29513e-06
-0.000140945 4.22946e-05 4.22787e-05 -5.30545e-06
-0.00013893 4.16904e-05 4.16742e-05 -5.30546e-06
-8.33439e-05 2.50051e-05 2.50024e-05 -8.84275e-06
-8.4553e-05 2.53674e-05 2.53653e-05 -8.84275e-06
-0.000139938 4.19925e-05 4.19765e-05 -5.30545e-06
-0.000111137 3.33475e-05 3.33385e-05 -7.29514e-06
-8.39485e-05 2.51862e-05 2.51838e-05 -8.84275e-06
-0.000112749 3.38307e-05 3.38222e-05 -7.29513e-06
-0.000111943 3.35891e-05 3.35804e-05 -7.29513e-06
-0.00013893 4.16904e-05 4.16742e-05 -5.30546e-06
-0.000136916 4.10862e-05 4.10698e-05 -5.30546e-06
-8.21349e-05 2.46428e-05 2.46395e-05 -8.84276e-06
-8.33439e-05 2.50051e-05 2.50024e-05 -8.84275e-06
-0.000137923 4.13883e-05 4.1372e-05 -5.30546e-06
-0.000109526 3.28642e-05 3.28548e-05 -7.29514e-06
-8.27394e-05 2.48239e-05 2.48209e-05 -8.84276e-06
-0.000111137 3.33475e-05 3.33385e-05 -7.29514e-06
-0.000110331 3.31059e-05 3.30967e-05 -7.29514e-06
-0.000136916 4.10862e-05 4.10698e-05 -5.30546e-06
-0.000134901 4.0482e-05 4.04653e-05 -5.30547e-06
-8.09258e-05 2.42805e-05 2.42766e-05 -8.84276e-06
-8.21349e-05 2.46428e-05 2.46395e-05 -8.84276e-06
-0.000135908 4.07841e-05 4.07675e-05 -5.30546e-06
-0.000107914 3.2381e-05 3.23712e-05 -7.29515e-06
-8.15304e-05 2.44616e-05 2.4458e-05 -8.84276e-06
-0.000109526 3.28642e-05 3.28548e-05 -7.29514e-06
-0.00010872 3.26226e-05 3.2613e-05 -7.29515e-06
-0.000134901 4.0482e-05 4.04653e-05 -5.30547e-06
-0.000132886 3.98778e-05 3.98609e-05 -5.30547e-06
-7.97168e-05 2.39181e-05 2.39137e-05 -8.84277e-06
-8.09258e-05 2.42805e-05 2.42766e-05 -8.84276e-06
-0.000133894 4.01799e-05 4.01631e-05 -5.30547e-06
-0.000106302 3.18977e-05 3.18875e-05 -7.29515e-06
-8.03213e-05 2.40993e-05 2.40951e-05 -8.84277e-06
-0.000107914 3.2381e-05 3.23712e-05 -7.29515e-06
-0.000107108 3.21394e-05 3.21293e-05 -7.29515e-06
-0.000132886 3.98778e-05 3.98609e-05 -5.30547e-06
-0.000130872 3.92736e-05 3.92564e-05 -5.30548e-06
-7.85078e-05 2.35558e-05 2.35508e-05 -8.84277e-06
-7.97168e-05 2.39181e-05 2.39137e-05 -8.84277e-06
-0.000131879 3.95757e-05 3.95586e-05 -5.30548e-06
-0.00010469 3.14145e-05 3.14038e-05 -7.29516e-06
-7.91123e-05 2.3737e-05 2.37323e-05 -8.84277e-06
-0.000106302 3.18977e-05 3.18875e-05 -7.29515e-06
-0.000105496 3.16561e-05 3.16457e-05 -7.29516e-06
-0.000130872 3.92736e-05 3.92564e-05 -5.30548e-06
-0.000128857 3.86694e-05 3.8652e-05 -5.30548e-06
-7.72987e-05 2.31935e-05 2.3188e-05 -8.84278e-06
-7.85078e-05 2.35558e-05 2.35508e-05 -8.84277e-06
-0.000129865 3.89715e-05 3.89542e-05 -5.30548e-06
-0.000103078 3.09312e-05 3.09202e-05 -7.29517e-06
-7.79032e-05 2.33746e-05 2.33694e-05 -8.84278e-06
-0.00010469 3.14145e-05 3.14038e-05 -7.29516e-06
-0.000103884 3.11728e-05 3.1162e-05 -7.29516e-06
-0.000128857 3.86694e-05 3.8652e-05 -5.30548e-06
-0.000126843 3.80652e-05 3.80475e-05 -5.30549e-06
-7.60897e-05 2.28311e-05 2.28251e-05 -8.84278e-06
-7.72987e-05 2.31935e-05 2.3188e-05 -8.84278e-06
-0.00012785 3.83673e-05 3.83497e-05 -5.30549e-06
-0.000101466 3.0448e-05 3.04365e-05 -7.29517e-06
-7.66942e-05 2.30123e-05 2.30065e-05 -8.84278e-06
-0.000103078 3.09312e-05 3.09202e-05 -7.29517e-06
-0.000102272 3.06896e-05 3.06783e-05 -7.29517e-06
-0.000126843 3.80652e-05 3.80475e-05 -5.30549e-06
-0.000124828 3.7461e-05 3.74431e-05 -5.3055e-06
-7.48807e-05 2.24688e-05 2.24622e-05 -8.84279e-06
-7.60897e-05 2.28311e-05 2.28251e-05 -8.84278e-06
-0.000125835 3.77631e-05 3.77453e-05 -5.30549e-06
-9.98547e-05 2.99647e-05 2.99528e-05 -7.29518e-06
-7.54852e-05 2.265e-05 2.26437e-05 -8.84279e-06
-0.000101466 3.0448e-05 3.04365e-05 -7.29517e-06
-0.000100661 3.02063e-05 3.01947e-05 -7.29518e-06
-0.000124828 3.7461e-05 3.74431e-05 -5.3055e-06
-0.000122814 3.68568e-05 3.68386e-05 -5.3055e-06
-7.36717e-05 2.21065e-05 2.20994e-05 -8.84279e-06
-7.48807e-05 2.24688e-05 2.24622e-05 -8.84279e-06
-0.000123821 3.71589e-05 3.71409e-05 -5.3055e-06
-9.82429e-05 2.94814e-05 2.94692e-05 -7.29518e-06
-7.42762e-05 2.22876e-05 2.22808e-05 -8.84279e-06
-9.98547e-05 2.99647e-05 2.99528e-05 -7.29518e-06
-9.90488e-05 2.97231e-05 2.9711e-05 -7.29518e-06
-0.000122814 3.68568e-05 3.68386e-05 -5.3055e-06
-0.000120799 3.62526e-05 3.62342e-05 -5.30551e-06
-7.24627e-05 2.17441e-05 2.17365e-05 -8.8428e-06
-7.36717e-05 2.21065e-05 2.20994e-05 -8.84279e-06
-0.000121806 3.65547e-05 3.65364e-05 -5.3055e-06
-9.66311e-05 2.89981e-05 2.89856e-05 -7.29519e-06
-7.30672e-05 2.19253e-05 2.1918e-05 -8.8428e-06
-9.82429e-05 2.94814e-05 2.94692e-05 -7.29518e-06
-9.7437e-05 2.92398e-05 2.92274e-05 -7.29519e-06
-0.000120799 3.62526e-05 3.62342e-05 -5.30551e-06
-0.000118785 3.56484e-05 3.56298e-05 -5.30551e-06
-7.12537e-05 2.13818e-05 2.13737e-05 -8.8428e-06
-7.24627e-05 2.17441e-05 2.17365e-05 -8.8428e-06
-0.000119792 3.59505e-05 3.5932e-05 -5.30551e-06
-9.50193e-05 2.85149e-05 2.85019e-05 -7.2952e-06
-7.18582e-05 2.15629e-05 2.15551e-05 -8.8428e-06
-9.66311e-05 2.89981e-05 2.89856e-05 -7.29519e-06
-9.58252e-05 2.87565e-05 2.87437e-05 -7.29519e-06
-0.000118785 3.56484e-05 3.56298e-05 -5.30551e-06
-0.00011677 3.50442e-05 3.50254e-05 -5.30552e-06
-7.00448e-05 2.10194e-05 2.10109e-05 -8.84281e-06
-7.12537e-05 2.13818e-05 2.13737e-05 -8.8428e-06
-0.000117777 3.53463e-05 3.53276e-05 -5.30552e-06
-9.34076e-05 2.80316e-05 2.80183e-05 -7.2952e-06
-7.06492e-05 2.12006e-05 2.11923e-05 -8.84281e-06
-9.50193e-05 2.85149e-05 2.85019e-05 -7.2952e-06
-9.42135e-05 2.82732e-05 2.82601e-05 -7.2952e-06
-0.00011677 3.50442e-05 3.50254e-05 -5.30552e-06
-0.000114755 3.44399e-05 3.44209e-05 -5.30553e-06
-6.88358e-05 2.0657e-05 2.0648e-05 -8.84281e-06
-7.00448e-05 2.10194e-05 2.10109e-05 -8.84281e-06
-0.000115763 3.4742e-05 3.47232e-05 -5.30552e-06
-9.17958e-05 2.75483e-05 2.75346e-05 -7.29521e-06
-6.94403e-05 2.08382e-05 2.08294e-05 -8.84281e-06
-9.34076e-05 2.80316e-05 2.80183e-05 -7.2952e-06
-9.26017e-05 2.779e-05 2.77765e-05 -7.29521e-06
-0.000114755 3.44399e-05 3.44209e-05 -5.30553e-06
-0.000112741 3.38357e-05 3.38165e-05 -5.30553e-06
-6.76268e-05 2.02947e-05 2.02852e-05 -8.84282e-06
-6.88358e-05 2.0657e-05 2.0648e-05 -8.84281e-06
-0.000113748 3.41378e-05 3.41187e-05 -5.30553e-06
-9.01841e-05 2.7065e-05 2.7051e-05 -7.29521e-06
-6.82313e-05 2.04759e-05 2.04666e-05 -8.84282e-06
-9.17958e-05 2.75483e-05 2.75346e-05 -7.29521e-06
-9.09899e-05 2.73067e-05 2.72928e-05 -7.29521e-06
-0.000112741 3.38357e-05 3.38165e-05 -5.30553e-06
-0.000110726 3.32315e-05 3.32121e-05 -5.30554e-06
-6.64179e-05 1.99323e-05 1.99224e-05 -8.84282e-06
-6.76268e-05 2.02947e-05 2.02852e-05 -8.84282e-06
-0.000111734 3.35336e-05 3.35143e-05 -5.30553e-06
-8.85723e-05 2.65817e-05 2.65674e-05 -7.29522e-06
-6.70223e-05 2.01135e-05 2.01038e-05 -8.84282e-06
-9.01841e-05 2.7065e-05 2.7051e-05 -7.29521e-06
-8.93782e-05 2.68234e-05 2.68092e-05 -7.29522e-06
-0.000110726 3.32315e-05 3.32121e-05 -5.30554e-06
-0.000108712 3.26273e-05 3.26077e-05 -5.30554e-06
-6.52089e-05 1.95699e-05 1.95596e-05 -8.84283e-06
-6.64179e-05 1.99323e-05 1.99224e-05 -8.84282e-06
-0.000109719 3.29294e-05 3.29099e-05 -5.30554e-06
-8.69606e-05 2.60984e-05 2.60838e-05 -7.29523e-06
-6.58134e-05 1.97511e-05 1.9741e-05 -8.84283e-06
-8.85723e-05 2.65817e-05 2.65674e-05 -7.29522e-06
-8.77665e-05 2.63401e-05 2.63256e-05 -7.29522e-06
-0.000108712 3.26273e-05 3.26077e-05 -5.30554e-06
-0.000106697 3.2023e-05 3.20033e-05 -5.30555e-06
-6.4e-05 1.92076e-05 1.91968e-05 -8.84283e-06
-6.52089e-05 1.95699e-05 1.95596e-05 -8.84283e-06
-0.000107705 3.23251e-05 3.23055e-05 -5.30555e-06
-8.53489e-05 2.56151e-05 2.56002e-05 -7.29523e-06
-6.46045e-05 1.93887e-05 1.93782e-05 -8.84283e-06
-8.69606e-05 2.60984e-05 2.60838e-05 -7.29523e-06
-8.61547e-05 2.58568e-05 2.5842e-05 -7.29523e-06
-0.000106697 3.2023e-05 3.20033e-05 -5.30555e-06
-0.000104683 3.14188e-05 3.13989e-05 -5.30555e-06
-6.27911e-05 1.88452e-05 1.8834e-05 -8.84284e-06
-6.4e-05 1.92076e-05 1.91968e-05 -8.84283e-06
-0.00010569 3.17209e-05 3.17011e-05 -5.30555e-06
-8.37372e-05 2.51318e-05 2.51166e-05 -7.29524e-06
-6.33955e-05 1.90264e-05 1.90154e-05 -8.84284e-06
-8.53489e-05 2.56151e-05 2.56002e-05 -7.29523e-06
-8.4543e-05 2.53735e-05 2.53584e-05 -7.29524e-06
-0.000104683 3.14188e-05 3.13989e-05 -5.30555e-06
-0.000102668 3.08146e-05 3.07945e-05 -5.30556e-06
-6.15821e-05 1.84828e-05 1.84712e-05 -8.84284e-06
-6.27911e-05 1.88452e-05 1.8834e-05 -8.84284e-06
-0.000103676 3.11167e-05 3.10967e-05 -5.30556e-06
-8.21254e-05 2.46485e-05 2.4633e-05 -7.29525e-06
-6.21866e-05 1.8664e-05 1.86526e-05 -8.84284e-06
-8.37372e-05 2.51318e-05 2.51166e-05 -7.29524e-06
-8.29313e-05 2.48902e-05 2.48748e-05 -7.29524e-06
-0.000102668 3.08146e-05 3.07945e-05 -5.30556e-06
-0.000100654 3.02103e-05 3.01901e-05 -5.30557e-06
-6.03732e-05 1.81204e-05 1.81084e-05 -8.84285e-06
-6.15821e-05 1.84828e-05 1.84712e-05 -8.84284e-06
-0.000101661 3.05124e-05 3.04923e-05 -5.30556e-06
-8.05137e-05 2.41652e-05 2.41494e-05 -7.29525e-06
-6.09777e-05 1.83016e-05 1.82898e-05 -8.84285e-06
-8.21254e-05 2.46485e-05 2.4633e-05 -7.29525e-06
-8.13196e-05 2.44069e-05 2.43912e-05 -7.29525e-06
-0.000100654 3.02103e-05 3.01901e-05 -5.30557e-06
-9.86395e-05 2.96061e-05 2.95857e-05 -5.30557e-06
-5.91643e-05 1.7758e-05 1.77456e-05 -8.84285e-06
-6.03732e-05 1.81204e-05 1.81084e-05 -8.84285e-06
-9.96467e-05 2.99082e-05 2.98879e-05 -5.30557e-06
-7.89021e-05 2.36819e-05 2.36658e-05 -7.29526e-06
-5.97688e-05 1.79392e-05 1.7927e-05 -8.84285e-06
-8.05137e-05 2.41652e-05 2.41494e-05 -7.29525e-06
-7.97079e-05 2.39236e-05 2.39076e-05 -7.29526e-06
-9.86395e-05 2.96061e-05 2.95857e-05 -5.30557e-06
-9.6625e-05 2.90018e-05 2.89814e-05 -5.30558e-06
-5.79554e-05 1.73956e-05 1.73828e-05 -8.84286e-06
-5.91643e-05 1.7758e-05 1.77456e-05 -8.84285e-06
-9.76323e-05 2.9304e-05 2.92836e-05 -5.30558e-06
-7.72904e-05 2.31986e-05 2.31822e-05 -7.29527e-06
-5.85599e-05 1.75768e-05 1.75642e-05 -8.84286e-06
-7.89021e-05 2.36819e-05 2.36658e-05 -7.29526e-06
-7.80962e-05 2.34402e-05 2.3424e-05 -7.29526e-06
-9.6625e-05 2.90018e-05 2.89814e-05 -5.30558e-06
-9.46106e-05 2.83976e-05 2.8377e-05 -5.30559e-06
-5.67466e-05 1.70332e-05 1.702e-05 -8.84286e-06
-5.79554e-05 1.73956e-05 1.73828e-05 -8.84286e-06
-9.56178e-05 2.86997e-05 2.86792e-05 -5.30558e-06
-7.56787e-05 2.27153e-05 2.26986e-05 -7.29527e-06
-5.7351e-05 1.72144e-05 1.72014e-05 -8.84286e-06
-7.72904e-05 2.31986e-05 2.31822e-05 -7.29527e-06
-7.64845e-05 2.29569e-05 2.29404e-05 -7.29527e-06
-9.46106e-05 2.83976e-05 2.8377e-05 -5.30559e-06
-9.25961e-05 2.77933e-05 2.77726e-05 -5.30559e-06
-5.55377e-05 1.66708e-05 1.66572e-05 -8.84287e-06
-5.67466e-05 1.70332e-05 1.702e-05 -8.84286e-06
-9.36033e-05 2.80955e-05 2.80748e-05 -5.30559e-06
-7.4067e-05 2.22319e-05 2.2215e-05 -7.29528e-06
-5.61421e-05 1.6852e-05 1.68386e-05 -8.84287e-06
-7.56787e-05 2.27153e-05 2.26986e-05 -7.29527e-06
-7.48729e-05 2.24736e-05 2.24568e-05 -7.29527e-06
-9.25961e-05 2.77933e-05 2.77726e-05 -5.30559e-06
-9.05817e-05 2.71891e-05 2.71682e-05 -5.3056e-06
-5.43288e-05 1.63084e-05 1.62945e-05 -8.84288e-06
-5.55377e-05 1.66708e-05 1.66572e-05 -8.84287e-06
-9.15889e-05 2.74912e-05 2.74704e-05 -5.30559e-06
-7.24554e-05 2.17486e-05 2.17315e-05 -7.29528e-06
-5.49332e-05 1.64896e-05 1.64759e-05 -8.84287e-06
-7.4067e-05 2.22319e-05 2.2215e-05 -7.29528e-06
-7.32612e-05 2.19903e-05 2.19732e-05 -7.29528e-06
-9.05817e-05 2.71891e-05 2.71682e-05 -5.3056e-06
-8.85672e-05 2.65848e-05 2.65639e-05 -5.3056e-06
-5.312e-05 1.59459e-05 1.59317e-05 -8.84288e-06
-5.43288e-05 1.63084e-05 1.62945e-05 -8.84288e-06
-8.95744e-05 2.6887e-05 2.68661e-05 -5.3056e-06
-7.08437e-05 2.12653e-05 2.12479e-05 -7.29529e-06
-5.37244e-05 1.61272e-05 1.61131e-05 -8.84288e-06
-7.24554e-05 2.17486e-05 2.17315e-05 -7.29528e-06
-7.16495e-05 2.15069e-05 2.14897e-05 -7.29529e-06
-8.85672e-05 2.65848e-05 2.65639e-05 -5.3056e-06
-8.65528e-05 2.59806e-05 2.59595e-05 -5.30561e-06
-5.19111e-05 1.55835e-05 1.5569e-05 -8.84289e-06
-5.312e-05 1.59459e-05 1.59317e-05 -8.84288e-06
-8.756e-05 2.62827e-05 2.62617e-05 -5.30561e-06
-6.9232e-05 2.07819e-05 2.07643e-05 -7.2953e-06
-5.25155e-05 1.57647e-05 1.57503e-05 -8.84288e-06
-7.08437e-05 2.12653e-05 2.12479e-05 -7.29529e-06
-7.00379e-05 2.10236e-05 2.10061e-05 -7.29529e-06
-8.65528e-05 2.59806e-05 2.59595e-05 -5.30561e-06
-8.45383e-05 2.53763e-05 2.53552e-05 -5.30562e-06
-5.07023e-05 1.52211e-05 1.52062e-05 -8.84289e-06
-5.19111e-05 1.55835e-05 1.5569e-05 -8.84289e-06
-8.55456e-05 2.56785e-05 2.56573e-05 -5.30561e-06
-6.76204e-05 2.02986e-05 2.02808e-05 -7.2953e-06
-5.13067e-05 1.54023e-05 1.53876e-05 -8.84289e-06
-6.9232e-05 2.07819e-05 2.07643e-05 -7.2953e-06
-6.84262e-05 2.05403e-05 2.05225e-05 -7.2953e-06
-8.45383e-05 2.53763e-05 2.53552e-05 -5.30562e-06
-8.25239e-05 2.47721e-05 2.47508e-05 -5.30562e-06
-4.94934e-05 1.48587e-05 1.48435e-05 -8.8429e-06
-5.07023e-05 1.52211e-05 1.52062e-05 -8.84289e-06
-8.35311e-05 2.50742e-05 2.5053e-05 -5.30562e-06
-6.60088e-05 1.98153e-05 1.97972e-05 -7.29531e-06
-5.00978e-05 1.50399e-05 1.50248e-05 -8.84289e-06
-6.76204e-05 2.02986e-05 2.02808e-05 -7.2953e-06
-6.68146e-05 2.00569e-05 2.0039e-05 -7.29531e-06
-8.25239e-05 2.47721e-05 2.47508e-05 -5.30562e-06
-8.05095e-05 2.41678e-05 2.41464e-05 -5.30563e-06
-4.82846e-05 1.44962e-05 1.44807e-05 -8.8429e-06
-4.94934e-05 1.48587e-05 1.48435e-05 -8.8429e-06
-8.15167e-05 2.44699e-05 2.44486e-05 -5.30562e-06
-6.43971e-05 1.93319e-05 1.93137e-05 -7.29532e-06
-4.8889e-05 1.46774e-05 1.46621e-05 -8.8429e-06
-6.60088e-05 1.98153e-05 1.97972e-05 -7.29531e-06
-6.5203e-05 1.95736e-05 1.95554e-05 -7.29531e-06
-8.05095e-05 2.41678e-05 2.41464e-05 -5.30563e-06
-7.84951e-05 2.35635e-05 2.35421e-05 -5.30563e-06
-4.70758e-05 1.41338e-05 1.4118e-05 -8.84291e-06
-4.82846e-05 1.44962e-05 1.44807e-05 -8.8429e-06
-7.95023e-05 2.38657e-05 2.38443e-05 -5.30563e-06
-6.27855e-05 1.88486e-05 1.88301e-05 -7.29532e-06
-4.76802e-05 1.4315e-05 1.42994e-05 -8.84291e-06
-6.43971e-05 1.93319e-05 1.93137e-05 -7.29532e-06
-6.35913e-05 1.90902e-05 1.90719e-05 -7.29532e-06
-7.84951e-05 2.35635e-05 2.35421e-05 -5.30563e-06
-7.64807e-05 2.29593e-05 2.29378e-05 -5.30564e-06
-4.5867e-05 1.37713e-05 1.37553e-05 -8.84291e-06
-4.70758e-05 1.41338e-05 1.4118e-05 -8.84291e-06
-7.74879e-05 2.32614e-05 2.32399e-05 -5.30564e-06
-6.11739e-05 1.83652e-05 1.83466e-05 -7.29533e-06
-4.64714e-05 1.39526e-05 1.39366e-05 -8.84291e-06
-6.27855e-05 1.88486e-05 1.88301e-05 -7.29532e-06
-6.19797e-05 1.86069e-05 1.85884e-05 -7.29533e-06
-7.64807e-05 2.29593e-05 2.29378e-05 -5.30564e-06
-7.44663e-05 2.2355e-05 2.23334e-05 -5.30565e-06
-4.46582e-05 1.34089e-05 1.33926e-05 -8.84292e-06
-4.5867e-05 1.37713e-05 1.37553e-05 -8.84291e-06
-7.54735e-05 2.26571e-05 2.26356e-05 -5.30564e-06
-5.95623e-05 1.78819e-05 1.78631e-05 -7.29534e-06
-4.52626e-05 1.35901e-05 1.35739e-05 -8.84292e-06
-6.11739e-05 1.83652e-05 1.83466e-05 -7.29533e-06
-6.03681e-05 1.81235e-05 1.81048e-05 -7.29533e-06
-7.44663e-05 2.2355e-05 2.23334e-05 -5.30565e-06
-7.24519e-05 2.17507e-05 2.17291e-05 -5.30565e-06
-4.34494e-05 1.30464e-05 1.30298e-05 -8.84293e-06
-4.46582e-05 1.34089e-05 1.33926e-05 -8.84292e-06
-7.34591e-05 2.20528e-05 2.20313e-05 -5.30565e-06
-5.79507e-05 1.73985e-05 1.73795e-05 -7.29534e-06
-4.40538e-05 1.32276e-05 1.32112e-05 -8.84292e-06
-5.95623e-05 1.78819e-05 1.78631e-05 -7.29534e-06
-5.87565e-05 1.76402e-05 1.76213e-05 -7.29534e-06
-7.24519e-05 2.17507e-05 2.17291e-05 -5.30565e-06
-7.04375e-05 2.11464e-05 2.11248e-05 -5.30566e-06
-4.22406e-05 1.2684e-05 1.26671e-05 -8.84293e-06
-4.34494e-05 1.30464e-05 1.30298e-05 -8.84293e-06
-7.14447e-05 2.14486e-05 2.14269e-05 -5.30566e-06
-5.63391e-05 1.69151e-05 1.6896e-05 -7.29535e-06
-4.2845e-05 1.28652e-05 1.28485e-05 -8.84293e-06
-5.79507e-05 1.73985e-05 1.73795e-05 -7.29534e-06
-5.71449e-05 1.71568e-05 1.71378e-05 -7.29535e-06
-7.04375e-05 2.11464e-05 2.11248e-05 -5.30566e-06
-6.84232e-05 2.05421e-05 2.05204e-05 -5.30567e-06
-4.10318e-05 1.23215e-05 1.23044e-05 -8.84294e-06
-4.22406e-05 1.2684e-05 1.26671e-05 -8.84293e-06
-6.94303e-05 2.08443e-05 2.08226e-05 -5.30566e-06
-5.47276e-05 1.64318e-05 1.64125e-05 -7.29536e-06
-4.16362e-05 1.25027e-05 1.24858e-05 -8.84293e-06
-5.63391e-05 1.69151e-05 1.6896e-05 -7.29535e-06
-5.55333e-05 1.66734e-05 1.66542e-05 -7.29535e-06
-6.84232e-05 2.05421e-05 2.05204e-05 -5.30567e-06
-6.64088e-05 1.99379e-05 1.99161e-05 -5.30567e-06
-3.9823e-05 1.1959e-05 1.19417e-05 -8.84294e-06
-4.10318e-05 1.23215e-05 1.23044e-05 -8.84294e-06
-6.7416e-05 2.024e-05 2.02183e-05 -5.30567e-06
-5.3116e-05 1.59484e-05 1.5929e-05 -7.29536e-06
-4.04274e-05 1.21403e-05 1.21231e-05 -8.84294e-06
-5.47276e-05 1.64318e-05 1.64125e-05 -7.29536e-06
-5.39218e-05 1.61901e-05 1.61707e-05 -7.29536e-06
-6.64088e-05 1.99379e-05 1.99161e-05 -5.30567e-06
-6.43944e-05 1.93336e-05 1.93118e-05 -5.30568e-06
-3.86143e-05 1.15965e-05 1.1579e-05 -8.84295e-06
-3.9823e-05 1.1959e-05 1.19417e-05 -8.84294e-06
-6.54016e-05 1.96357e-05 1.9614e-05 -5.30568e-06
-5.15044e-05 1.5465e-05 1.54455e-05 -7.29537e-06
-3.92187e-05 1.17778e-05 1.17604e-05 -8.84295e-06
-5.3116e-05 1.59484e-05 1.5929e-05 -7.29536e-06
-5.23102e-05 1.57067e-05 1.56872e-05 -7.29537e-06
-6.43944e-05 1.93336e-05 1.93118e-05 -5.30568e-06
-6.23801e-05 1.87293e-05 1.87075e-05 -5.30568e-06
-3.74055e-05 1.12341e-05 1.12163e-05 -8.84295e-06
-3.86143e-05 1.15965e-05 1.1579e-05 -8.84295e-06
-6.33872e-05 1.90314e-05 1.90096e-05 -5.30568e-06
-4.98929e-05 1.49816e-05 1.4962e-05 -7.29538e-06
-3.80099e-05 1.14153e-05 1.13977e-05 -8.84295e-06
-5.15044e-05 1.5465e-05 1.54455e-05 -7.29537e-06
-5.06986e-05 1.52233e-05 1.52037e-05 -7.29537e-06
-6.23801e-05 1.87293e-05 1.87075e-05 -5.30568e-06
-6.03657e-05 1.8125e-05 1.81032e-05 -5.30569e-06
-3.61968e-05 1.08716e-05 1.08537e-05 -8.84296e-06
-3.74055e-05 1.12341e-05 1.12163e-05 -8.84295e-06
-6.13729e-05 1.84271e-05 1.84053e-05 -5.30569e-06
-4.82813e-05 1.44982e-05 1.44785e-05 -7.29538e-06
-3.68012e-05 1.10528e-05 1.1035e-05 -8.84296e-06
-4.98929e-05 1.49816e-05 1.4962e-05 -7.29538e-06
-4.90871e-05 1.47399e-05 1.47202e-05 -7.29538e-06
-6.03657e-05 1.8125e-05 1.81032e-05 -5.30569e-06
-5.83514e-05 1.75207e-05 1.74989e-05 -5.3057e-06
-3.49881e-05 1.05091e-05 1.0491e-05 -8.84297e-06
-3.61968e-05 1.08716e-05 1.08537e-05 -8.84296e-06
-5.93585e-05 1.78228e-05 1.7801e-05 -5.30569e-06
-4.66698e-05 1.40148e-05 1.3995e-05 -7.29539e-06
-3.55924e-05 1.06903e-05 1.06723e-05 -8.84296e-06
-4.82813e-05 1.44982e-05 1.44785e-05 -7.29538e-06
-4.74755e-05 1.42565e-05 1.42367e-05 -7.29539e-06
-5.83514e-05 1.75207e-05 1.74989e-05 -5.3057e-06
-5.6337e-05 1.69164e-05 1.68946e-05 -5.3057e-06
-3.37793e-05 1.01466e-05 1.01283e-05 -8.84297e-06
-3.49881e-05 1.05091e-05 1.0491e-05 -8.84297e-06
-5.73442e-05 1.72185e-05 1.71967e-05 -5.3057e-06
-4.50582e-05 1.35314e-05 1.35115e-05 -7.2954e-06
-3.43837e-05 1.03278e-05 1.03097e-05 -8.84297e-06
-4.66698e-05 1.40148e-05 1.3995e-05 -7.29539e-06
-4.5864e-05 1.37731e-05 1.37532e-05 -7.29539e-06
-5.6337e-05 1.69164e-05 1.68946e-05 -5.3057e-06
-5.43227e-05 1.63121e-05 1.62903e-05 -5.30571e-06
-3.25706e-05 9.7841e-06 9.76565e-06 -8.84298e-06
-3.37793e-05 1.01466e-05 1.01283e-05 -8.84297e-06
-5.53299e-05 1.66142e-05 1.65924e-05 -5.3057e-06
-4.34467e-05 1.30481e-05 1.3028e-05 -7.2954e-06
-3.3175e-05 9.96535e-06 9.94698e-06 -8.84297e-06
-4.50582e-05 1.35314e-05 1.35115e-05 -7.2954e-06
-4.42525e-05 1.32898e-05 1.32697e-05 -7.2954e-06
-5.43227e-05 1.63121e-05 1.62903e-05 -5.30571e-06
-5.23084e-05 1.57078e-05 1.5686e-05 -5.30571e-06
-3.13619e-05 9.42159e-06 9.40299e-06 -8.84298e-06
-3.25706e-05 9.7841e-06 9.76565e-06 -8.84298e-06
-5.33155e-05 1.60099e-05 1.59881e-05 -5.30571e-06
-4.18352e-05 1.25647e-05 1.25445e-05 -7.29541e-06
-3.19663e-05 9.60285e-06 9.58432e-06 -8.84298e-06
-4.34467e-05 1.30481e-05 1.3028e-05 -7.2954e-06
-4.26409e-05 1.28064e-05 1.27863e-05 -7.2954e-06
-5.23084e-05 1.57078e-05 1.5686e-05 -5.30571e-06
-5.02941e-05 1.51035e-05 1.50817e-05 -5.30572e-06
-3.01532e-05 9.05909e-06 9.04034e-06 -8.84298e-06
-3.13619e-05 9.42159e-06 9.40299e-06 -8.84298e-06
-5.13012e-05 1.54056e-05 1.53838e-05 -5.30571e-06
-4.02237e-05 1.20812e-05 1.2061e-05 -7.29541e-06
-3.07576e-05 9.24034e-06 9.22166e-06 -8.84298e-06
-4.18352e-05 1.25647e-05 1.25445e-05 -7.29541e-06
-4.10294e-05 1.23229e-05 1.23028e-05 -7.29541e-06
-5.02941e-05 1.51035e-05 1.50817e-05 -5.30572e-06
-4.82798e-05 1.44992e-05 1.44774e-05 -5.30572e-06
-2.89445e-05 8.69657e-06 8.67769e-06 -8.84299e-06
-3.01532e-05 9.05909e-06 9.04034e-06 -8.84298e-06
-4.92869e-05 1.48013e-05 1.47795e-05 -5.30572e-06
-3.86122e-05 1.15978e-05 1.15776e-05 -7.29542e-06
-2.95489e-05 8.87783e-06 8.85901e-06 -8.84298e-06
-4.02237e-05 1.20812e-05 1.2061e-05 -7.29541e-06
-3.94179e-05 1.18395e-05 1.18193e-05 -7.29541e-06
-4.82798e-05 1.44992e-05 1.44774e-05 -5.30572e-06
-4.62655e-05 1.38949e-05 1.38731e-05 -5.30573e-06
-2.77358e-05 8.33406e-06 8.31504e-06 -8.84299e-06
-2.89445e-05 8.69657e-06 8.67769e-06 -8.84299e-06
-4.72726e-05 1.4197e-05 1.41753e-05 -5.30573e-06
-3.70007e-05 1.11144e-05 1.10941e-05 -7.29542e-06
-2.83402e-05 8.51532e-06 8.49637e-06 -8.84299e-06
-3.86122e-05 1.15978e-05 1.15776e-05 -7.29542e-06
-3.78064e-05 1.13561e-05 1.13358e-05 -7.29542e-06
-4.62655e-05 1.38949e-05 1.38731e-05 -5.30573e-06
-4.42512e-05 1.32905e-05 1.32688e-05 -5.30574e-06
-2.65272e-05 7.97155e-06 7.95241e-06 -8.84299e-06
-2.77358e-05 8.33406e-06 8.31504e-06 -8.84299e-06
-4.52583e-05 1.35927e-05 1.3571e-05 -5.30573e-06
-3.53892e-05 1.0631e-05 1.06106e-05 -7.29543e-06
-2.71315e-05 8.1528e-06 8.13373e-06 -8.84299e-06
-3.70007e-05 1.11144e-05 1.10941e-05 -7.29542e-06
-3.61949e-05 1.08727e-05 1.08524e-05 -7.29543e-06
-4.42512e-05 1.32905e-05 1.32688e-05 -5.30574e-06
-4.22369e-05 1.26862e-05 1.26646e-05 -5.30575e-06
-2.53185e-05 7.60904e-06 7.58977e-06 -8.84299e-06
-2.65272e-05 7.97155e-06 7.95241e-06 -8.84299e-06
-4.3244e-05 1.29884e-05 1.29667e-05 -5.30575e-06
-3.37777e-05 1.01476e-05 1.01272e-05 -7.29544e-06
-2.59228e-05 7.79029e-06 7.77109e-06 -8.84299e-06
-3.53892e-05 1.0631e-05 1.06106e-05 -7.29543e-06
-3.45835e-05 1.03893e-05 1.03689e-05 -7.29543e-06
-4.22369e-05 1.26862e-05 1.26646e-05 -5.30575e-06
-4.02226e-05 1.20819e-05 1.20603e-05 -5.30578e-06
-2.41099e-05 7.24653e-06 7.22715e-06 -8.84299e-06
-2.53185e-05 7.60904e-06 7.58977e-06 -8.84299e-06
-4.12298e-05 1.23841e-05 1.23624e-05 -5.30577e-06
-3.21663e-05 9.66422e-06 9.64375e-06 -7.29546e-06
-2.47142e-05 7.42778e-06 7.40846e-06 -8.84299e-06
-3.37777e-05 1.01476e-05 1.01272e-05 -7.29544e-06
-3.2972e-05 9.90591e-06 9.88547e-06 -7.29545e-06
-4.02226e-05 1.20819e-05 1.20603e-05 -5.30578e-06
-3.82084e-05 1.14776e-05 1.1456e-05 -5.30582e-06
-2.29013e-05 6.88404e-06 6.86453e-06 -8.843e-06
-2.41099e-05 7.24653e-06 7.22715e-06 -8.84299e-06
-3.92155e-05 1.17798e-05 1.17582e-05 -5.3058e-06
-3.05549e-05 9.18083e-06 9.1603e-06 -7.29549e-06
-2.35056e-05 7.06529e-06 7.04584e-06 -8.843e-06
-3.21663e-05 9.66422e-06 9.64375e-06 -7.29546e-06
-3.13606e-05 9.42252e-06 9.40202e-06 -7.29547e-06
-3.82084e-05 1.14776e-05 1.1456e-05 -5.30582e-06
-3.61941e-05 1.08733e-05 1.08518e-05 -5.30589e-06
-2.16927e-05 6.52156e-06 6.50193e-06 -8.843e-06
-2.29013e-05 6.88404e-06 6.86453e-06 -8.843e-06
-3.72012e-05 1.11755e-05 1.11539e-05 -5.30585e-06
-2.89435e-05 8.69744e-06 8.67687e-06 -7.29553e-06
-2.2297e-05 6.7028e-06 6.68323e-06 -8.843e-06
-3.05549e-05 9.18083e-06 9.1603e-06 -7.29549e-06
-2.97492e-05 8.93913e-06 8.91858e-06 -7.29551e-06
-3.61941e-05 1.08733e-05 1.08518e-05 -5.30589e-06
-3.41799e-05 1.0269e-05 1.02475e-05 -5.30596e-06
-2.04842e-05 6.15905e-06 6.13935e-06 -8.843e-06
-2.16927e-05 6.52156e-06 6.50193e-06 -8.843e-06
-3.5187e-05 1.05712e-05 1.05496e-05 -5.30592e-06
-2.73321e-05 8.21405e-06 8.19346e-06 -7.29556e-06
-2.10885e-05 6.34031e-06 6.32064e-06 -8.843e-06
-2.89435e-05 8.69744e-06 8.67687e-06 -7.29553e-06
-2.81378e-05 8.45575e-06 8.43516e-06 -7.29555e-06
-3.41799e-05 1.0269e-05 1.02475e-05 -5.30596e-06
-3.21657e-05 9.66468e-06 9.6433e-06 -5.30602e-06
-1.92757e-05 5.79644e-06 5.77681e-06 -8.84298e-06
-2.04842e-05 6.15905e-06 6.13935e-06 -8.843e-06
-3.31728e-05 9.96685e-06 9.94541e-06 -5.30599e-06
-2.57208e-05 7.73059e-06 7.71009e-06 -7.29556e-06
-1.98799e-05 5.97776e-06 5.95807e-06 -8.843e-06
-2.73321e-05 8.21405e-06 8.19346e-06 -7.29556e-06
-2.65265e-05 7.97233e-06 7.95177e-06 -7.29557e-06
-3.21657e-05 9.66468e-06 9.6433e-06 -5.30602e-06
-3.01516e-05 9.06025e-06 9.03915e-06 -5.30594e-06
-1.8067e-05 5.43353e-06 5.41434e-06 -8.84293e-06
-1.92757e-05 5.79644e-06 5.77681e-06 -8.84298e-06
-3.11586e-05 9.36248e-06 9.34121e-06 -5.30601e-06
-2.41094e-05 7.2469e-06 7.2268e-06 -7.29542e-06
-1.86714e-05 5.61504e-06 5.59557e-06 -8.84296e-06
-2.57208e-05 7.73059e-06 7.71009e-06 -7.29556e-06
-2.49151e-05 7.48879e-06 7.46843e-06 -7.29552e-06
-3.01516e-05 9.06025e-06 9.03915e-06 -5.30594e-06
-2.81375e-05 8.45555e-06 8.43512e-06 -5.3055e-06
-1.68579e-05 5.06987e-06 5.052e-06 -8.84277e-06
-1.8067e-05 5.43353e-06 5.41434e-06 -8.84293e-06
-2.91445e-05 8.75795e-06 8.73711e-06 -5.30579e-06
-2.24979e-05 6.76266e-06 6.74366e-06 -7.29492e-06
-1.74625e-05 5.25183e-06 5.23314e-06 -8.84287e-06
-2.41094e-05 7.2469e-06 7.2268e-06 -7.29542e-06
-2.33037e-05 7.00488e-06 6.9852e-06 -7.29523e-06
-2.81375e-05 8.45555e-06 8.43512e-06 -5.3055e-06
-2.61236e-05 7.85028e-06 7.83141e-06 -5.30406e-06
-1.56475e-05 4.70459e-06 4.6898e-06 -8.84245e-06
-1.68579e-05 5.06987e-06 5.052e-06 -8.84277e-06
-2.71305e-05 8.15302e-06 8.1332e-06 -5.30497e-06
-2.08857e-05 6.27719e-06 6.26077e-06 -7.29357e-06
-1.62529e-05 4.88752e-06 4.87089e-06 -8.84264e-06
-2.24979e-05 6.76266e-06 6.74366e-06 -7.29492e-06
-2.16919e-05 6.52016e-06 6.50217e-06 -7.29441e-06
-2.61236e-05 7.85028e-06 7.83141e-06 -5.30406e-06
-2.41095e-05 7.24377e-06 7.22817e-06 -5.30059e-06
-1.44345e-05 4.33592e-06 4.32795e-06 -8.84175e-06
-1.56475e-05 4.70459e-06 4.6898e-06 -8.84245e-06
-2.51166e-05 7.54725e-06 7.52972e-06 -5.30267e-06
-1.92719e-05 5.78903e-06 5.77835e-06 -7.29043e-06
-1.50413e-05 4.52082e-06 4.50879e-06 -8.84218e-06
-2.08857e-05 6.27719e-06 6.26077e-06 -7.29357e-06
-2.0079e-05 6.03355e-06 6.0195e-06 -7.29228e-06
-2.41095e-05 7.24377e-06 7.22817e-06 -5.30059e-06
-2.20957e-05 6.63477e-06 6.62609e-06 -5.29247e-06
-1.32152e-05 3.9608e-06 3.96617e-06 -8.84061e-06
-1.44345e-05 4.33592e-06 4.32795e-06 -8.84175e-06
-2.31024e-05 6.93966e-06 6.92691e-06 -5.29736e-06
-1.76545e-05 5.29583e-06 5.29658e-06 -7.28378e-06
-1.3826e-05 4.14948e-06 4.14709e-06 -8.84122e-06
-1.92719e-05 5.78903e-06 5.77835e-06 -7.29043e-06
-1.84638e-05 5.54336e-06 5.53733e-06 -7.28776e-06
-2.20957e-05 6.63477e-06 6.62609e-06 -5.29247e-06
-2.00804e-05 6.0212e-06 6.02535e-06 -5.27618e-06
-1.19851e-05 3.5737e-06 3.6049e-06 -8.83846e-06
-1.32152e-05 3.9608e-06 3.96617e-06 -8.84061e-06
-2.10885e-05 6.32883e-06 6.32557e-06 -5.28562e-06
-1.60296e-05 4.79271e-06 4.81582e-06 -7.27059e-06
-1.26017e-05 3.76914e-06 3.78538e-06 -8.83976e-06
-1.76545e-05 5.29583e-06 5.29658e-06 -7.28378e-06
-1.68434e-05 5.04576e-06 5.05612e-06 -7.27811e-06
-2.00804e-05 6.0212e-06 6.02535e-06 -5.27618e-06
-1.80647e-05 5.39896e-06 5.42816e-06 -5.24314e-06
-1.07318e-05 3.1666e-06 3.24221e-06 -8.83615e-06
-1.19851e-05 3.5737e-06 3.6049e-06 -8.83846e-06
-1.90721e-05 5.71127e-06 5.72608e-06 -5.2626e-06
-1.43904e-05 4.27328e-06 4.33593e-06 -7.24615e-06
-1.13627e-05 3.37348e-06 3.42397e-06 -8.83715e-06
-1.60296e-05 4.79271e-06 4.81582e-06 -7.27059e-06
-1.52123e-05 4.53593e-06 4.57559e-06 -7.26052e-06
-1.80647e-05 5.39896e-06 5.42816e-06 -5.24314e-06
-1.60401e-05 4.76328e-06 4.83294e-06 -5.18465e-06
-9.44314e-06 2.72658e-06 2.87853e-06 -8.83308e-06
-1.07318e-05 3.1666e-06 3.24221e-06 -8.83615e-06
-1.7055e-05 5.08382e-06 5.13051e-06 -5.21766e-06
-1.27228e-05 3.7243e-06 3.85651e-06 -7.20393e-06
-1.0092e-05 2.95121e-06 3.06032e-06 -8.83492e-06
-1.43904e-05 4.27328e-06 4.33593e-06 -7.24615e-06
-1.35615e-05 4.00272e-06 4.09661e-06 -7.22707e-06
-1.60401e-05 4.76328e-06 4.83294e-06 -5.18465e-06
-1.40095e-05 4.10237e-06 4.2459e-06 -5.07839e-06
-8.08604e-06 2.24275e-06 2.50427e-06 -8.83684e-06
-9.44314e-06 2.72658e-06 2.87853e-06 -8.83308e-06
-1.50237e-05 4.43534e-06 4.53789e-06 -5.13967e-06
-1.10087e-05 3.1359e-06 3.37406e-06 -7.13649e-06
-8.77719e-06 2.49161e-06 2.69382e-06 -8.83303e-06
-1.27228e-05 3.7243e-06 3.85651e-06 -7.20393e-06
-1.18726e-05 3.43731e-06 3.61511e-06 -7.17535e-06
-1.40095e-05 4.10237e-06 4.2459e-06 -5.07839e-06
-1.19346e-05 3.41327e-06 3.65202e-06 -4.91583e-06
-6.64614e-06 1.70335e-06 2.11834e-06 -8.85213e-06
-8.08604e-06 2.24275e-06 2.50427e-06 -8.83684e-06
-1.29842e-05 3.7651e-06 3.95104e-06 -5.00422e-06
-9.20633e-06 2.48389e-06 2.88105e-06 -7.04356e-06
-7.37418e-06 1.97792e-06 2.31269e-06 -8.84309e-06
-1.10087e-05 3.1359e-06 3.37406e-06 -7.13649e-06
-1.01228e-05 2.81578e-06 3.13158e-06 -7.08975e-06
-1.19346e-05 3.41327e-06 3.65202e-06 -4.91583e-06
-9.81828e-06 2.66737e-06 3.06468e-06 -4.66335e-06
-5.07103e-06 1.14595e-06 1.68218e-06 -8.92009e-06
-6.64614e-06 1.70335e-06 2.11834e-06 -8.85213e-06
-1.08747e-05 3.04056e-06 3.3575e-06 -4.80379e-06
-7.28815e-06 1.7918e-06 2.35558e-06 -6.94243e-06
-5.88429e-06 1.42582e-06 1.91077e-06 -8.87456e-06
-9.20633e-06 2.48389e-06 2.88105e-06 -7.04356e-06
-8.2609e-06 2.14595e-06 2.62069e-06 -6.99788e-06
-9.81828e-06 2.66737e-06 3.06468e-06 -4.66335e-06
-7.51126e-06 1.92487e-06 2.39417e-06 -4.39165e-06
-3.43852e-06 6.62158e-07 1.18987e-06 -9.06878e-06
-5.07103e-06 1.14595e-06 1.68218e-06 -8.92009e-06
-8.71417e-06 2.3079e-06 2.74555e-06 -4.52217e-06
-5.165e-06 1.08593e-06 1.74817e-06 -6.92208e-06
-4.24341e-06 8.73631e-07 1.44419e-06 -8.98319e-06
-7.28815e-06 1.7918e-06 2.35558e-06 -6.94243e-06
-6.26417e-06 1.42071e-06 2.07577e-06 -6.90029e-06
-7.51126e-06 1.92487e-06 2.39417e-06 -4.39165e-06
-5.02881e-06 1.18898e-06 1.64564e-06 -4.21725e-06
-1.85452e-06 6.50479e-07 5.16018e-07 -9.39469e-06
-3.43852e-06 6.62158e-07 1.18987e-06 -9.06878e-06
-6.26449e-06 1.5058e-06 2.03944e-06 -4.27474e-06
-2.96091e-06 7.47205e-07 9.4873e-07 -7.17469e-06
-2.64575e-06 5.72184e-07 8.88673e-07 -9.20088e-06
-5.165e-06 1.08593e-06 1.74817e-06 -6.92208e-06
-4.04561e-06 8.48541e-07 1.37017e-06 -7.01909e-06
-5.02881e-06 1.18898e-06 1.64564e-06 -4.21725e-06
-2.14676e-06 1.25353e-06 3.82816e-07 -4.9273e-06
-1.01679e-06 1.81864e-06 -3.4365e-07 -9.63973e-06
-1.85452e-06 6.50479e-07 5.16018e-07 -9.39469e-06
-3.69324e-06 1.11129e-06 1.10655e-06 -4.3856e-06
-9.51647e-07 1.62007e-06 -2.86467e-07 -8.0741e-06
-1.24985e-06 9.82038e-07 1.14777e-07 -9.56393e-06
-2.96091e-06 7.47205e-07 9.4873e-07 -7.17469e-06
-1.92492e-06 8.81868e-07 4.47023e-07 -7.46998e-06
-2.14676e-06 1.25353e-06 3.82816e-07 -4.9273e-06
-7.98691e-07 4.5748e-06 -1.61833e-06 -7.52861e-06
-1.43538e-06 5.4853e-06 -1.73568e-06 -8.85148e-06
-1.01679e-06 1.81864e-06 -3.4365e-07 -9.63973e-06
-9.83781e-07 1.88369e-06 -3.85673e-07 -5.85665e-06
-1.54436e-06 6.24456e-06 -2.01437e-06 -8.78338e-06
-1.0978e-06 3.3668e-06 -9.72427e-07 -9.49812e-06
-9.51647e-07 1.62007e-06 -2.86467e-07 -8.0741e-06
-6.28866e-07 3.34621e-06 -1.16458e-06 -8.69001e-06
-7.98691e-07 4.5748e-06 -1.61833e-06 -7.52861e-06
-6.22165e-06 2.01778e-05 -5.98121e-06 -7.61049e-06
-2.68272e-06 9.92432e-06 -3.10354e-06 -4.68095e-06
-1.43538e-06 5.4853e-06 -1.73568e-06 -8.85148e-06
-2.30636e-06 1.07813e-05 -3.6321e-06 -8.86917e-06
-4.94705e-06 1.45713e-05 -4.12467e-06 -4.43474e-06
-1.98015e-06 7.87143e-06 -2.52483e-06 -7.31482e-06
-1.54436e-06 6.24456e-06 -2.01437e-06 -8.78338e-06
-3.16235e-06 1.02589e-05 -3.04138e-06 -7.60535e-06
-0.00019494 0 8.35456e-05 2.55647e-05
-0.000220468 2.91318e-05 8.2001e-05 -8.71502e-07
-7.13393e-05 9.70849e-06 2.64132e-05 1.32764e-05
-7.01116e-05 -1.11022e-16 3.00478e-05 4.00687e-05
-0.000211255 1.63812e-05 8.35172e-05 9.59766e-06
-0.000145868 1.94354e-05 5.41853e-05 7.82303e-06
-6.8451e-05 4.11676e-06 2.75718e-05 2.52714e-05
-0.000129643 0 5.55612e-05 3.66014e-05
-0.000139803 9.25262e-06 5.59501e-05 1.81245e-05
-0.000220468 2.91318e-05 8.2001e-05 -8.71502e-07
-0.000231737 5.32794e-05 7.64817e-05 -9.09633e-06
-7.69045e-05 1.59886e-05 2.61068e-05 -2.76568e-06
-7.13393e-05 9.70849e-06 2.64132e-05 1.32764e-05
-0.000226116 4.19728e-05 7.89185e-05 -6.17228e-06
-0.000153368 3.33322e-05 5.14438e-05 -5.02951e-06
-7.5312e-05 1.34667e-05 2.65051e-05 3.84347e-06
-0.000145868 1.94354e-05 5.41853e-05 7.82303e-06
-0.000149752 2.73483e-05 5.24587e-05 8.62271e-07
-0.000231737 5.32794e-05 7.64817e-05 -9.09633e-06
-0.000237452 6.5465e-05 7.37089e-05 -1.06817e-05
-7.85522e-05 2.06564e-05 2.48125e-05 -1.0034e-05
-7.69045e-05 1.59886e-05 2.61068e-05 -2.76568e-06
-0.000235969 6.08428e-05 7.50541e-05 -1.05352e-05
-0.000157763 4.22219e-05 4.95174e-05 -1.05623e-05
-7.75178e-05 1.84777e-05 2.53029e-05 -7.14755e-06
-0.000153368 3.33322e-05 5.14438e-05 -5.02951e-06
-0.000156207 3.8339e-05 5.0515e-05 -8.85176e-06
-0.000237452 6.5465e-05 7.37089e-05 -1.06817e-05
-0.000237241 7.02498e-05 7.15677e-05 -9.8794e-06
-7.94177e-05 2.28611e-05 2.42386e-05 -1.26249e-05
-7.85522e-05 2.06564e-05 2.48125e-05 -1.0034e-05
-0.000237454 6.84692e-05 7.24221e-05 -1.02325e-05
-0.000158503 4.61798e-05 4.81386e-05 -1.17842e-05
-7.93911e-05 2.20481e-05 2.45755e-05 -1.17702e-05
-0.000157763 4.22219e-05 4.95174e-05 -1.05623e-05
-0.000158404 4.47158e-05 4.87237e-05 -1.13295e-05
-0.000237241 7.02498e-05 7.15677e-05 -9.8794e-06
-0.00023558 7.11601e-05 7.04655e-05 -9.33489e-06
-7.88966e-05 2.37148e-05 2.36493e-05 -1.28993e-05
-7.94177e-05 2.28611e-05 2.42386e-05 -1.26249e-05
-0.000236666 7.10156e-05 7.09929e-05 -9.60941e-06
-0.000157575 4.74792e-05 4.71839e-05 -1.15975e-05
-7.90977e-05 2.34055e-05 2.38681e-05 -1.29062e-05
-0.000158503 4.61798e-05 4.81386e-05 -1.17842e-05
-0.000158185 4.70542e-05 4.76274e-05 -1.18353e-05
-0.00023558 7.11601e-05 7.04655e-05 -9.33489e-06
-0.000233236 7.07973e-05 6.96165e-05 -8.97035e-06
-7.82413e-05 2.37048e-05 2.33728e-05 -1.24397e-05
-7.88966e-05 2.37148e-05 2.36493e-05 -1.28993e-05
-0.000234323 7.10548e-05 6.99722e-05 -9.09563e-06
-0.000156031 4.73791e-05 4.65651e-05 -1.11125e-05
-7.86619e-05 2.37808e-05 2.35204e-05 -1.27164e-05
-0.000157575 4.74792e-05 4.71839e-05 -1.15975e-05
-0.000156811 4.75371e-05 4.68318e-05 -1.13221e-05
-0.000233236 7.07973e-05 6.96165e-05 -8.97035e-06
-0.000231194 7.00075e-05 6.90801e-05 -8.85913e-06
-7.74015e-05 2.34606e-05 2.31175e-05 -1.18465e-05
-7.82413e-05 2.37048e-05 2.33728e-05 -1.24397e-05
-0.000232224 7.0425e-05 6.93425e-05 -8.90949e-06
-0.000154513 4.68783e-05 4.61292e-05 -1.06804e-05
-7.77745e-05 2.35929e-05 2.32207e-05 -1.21308e-05
-0.000156031 4.73791e-05 4.65651e-05 -1.11125e-05
-0.000155257 4.71472e-05 4.63328e-05 -1.08983e-05
-0.000231194 7.00075e-05 6.90801e-05 -8.85913e-06
-0.000229336 6.9236e-05 6.86141e-05 -8.81107e-06
-7.67177e-05 2.31474e-05 2.29587e-05 -1.13758e-05
-7.74015e-05 2.34606e-05 2.31175e-05 -1.18465e-05
-0.00023021 6.96088e-05 6.88292e-05 -8.82226e-06
-0.000153163 4.62949e-05 4.58007e-05 -1.0377e-05
-7.70674e-05 2.33057e-05 2.30407e-05 -1.15936e-05
-0.000154513 4.68783e-05 4.61292e-05 -1.06804e-05
-0.000153811 4.65857e-05 4.59537e-05 -1.05039e-05
-0.000229336 6.9236e-05 6.86141e-05 -8.81107e-06
-0.000227751 6.85592e-05 6.82249e-05 -8.81316e-06
-7.60923e-05 2.28763e-05 2.28069e-05 -1.10501e-05
-7.67177e-05 2.31474e-05 2.29587e-05 -1.13758e-05
-0.000228529 6.88847e-05 6.84192e-05 -8.81263e-06
-0.000152003 4.57872e-05 4.55212e-05 -1.01842e-05
-7.63826e-05 2.30047e-05 2.28763e-05 -1.11939e-05
-0.000153163 4.62949e-05 4.58007e-05 -1.0377e-05
-0.000152563 4.60289e-05 4.56575e-05 -1.02726e-05
-0.000227751 6.85592e-05 6.82249e-05 -8.81316e-06
-0.000226306 6.79938e-05 6.78481e-05 -8.81866e-06
-7.55682e-05 2.2649e-05 2.26797e-05 -1.08502e-05
-7.60923e-05 2.28763e-05 2.28069e-05 -1.10501e-05
-0.000227007 6.82638e-05 6.80327e-05 -8.81421e-06
-0.000150983 4.53614e-05 4.52664e-05 -1.00721e-05
-7.58274e-05 2.27575e-05 2.27442e-05 -1.09376e-05
-0.000152003 4.57872e-05 4.55212e-05 -1.01842e-05
-0.000151478 4.55648e-05 4.53916e-05 -1.01182e-05
-0.000226306 6.79938e-05 6.78481e-05 -8.81866e-06
-0.000224975 6.75082e-05 6.74859e-05 -8.82804e-06
-7.50878e-05 2.24638e-05 2.25531e-05 -1.0734e-05
-7.55682e-05 2.2649e-05 2.26797e-05 -1.08502e-05
-0.000225634 6.7743e-05 6.76675e-05 -8.82419e-06
-0.000150056 4.5008e-05 4.50207e-05 -1.00095e-05
-7.532e-05 2.25518e-05 2.26149e-05 -1.07834e-05
-0.000150983 4.53614e-05 4.52664e-05 -1.00721e-05
-0.000150511 4.5177e-05 4.5143e-05 -1.00369e-05
-0.000224975 6.75082e-05 6.74859e-05 -8.82804e-06
-0.000223699 6.70772e-05 6.71237e-05 -8.83382e-06
-7.46465e-05 2.23057e-05 2.24318e-05 -1.06711e-05
-7.50878e-05 2.24638e-05 2.25531e-05 -1.0734e-05
-0.000224331 6.72874e-05 6.73042e-05 -8.83098e-06
-0.000149186 4.4702e-05 4.47788e-05 -9.97696e-06
-7.48654e-05 2.23821e-05 2.24928e-05 -1.06976e-05
-0.000150056 4.5008e-05 4.50207e-05 -1.00095e-05
-0.000149616 4.48504e-05 4.48995e-05 -9.99008e-06
-0.000223699 6.70772e-05 6.71237e-05 -8.83382e-06
-0.000222459 6.66783e-05 6.6763e-05 -8.83803e-06
-7.42217e-05 2.21654e-05 2.23099e-05 -1.06385e-05
-7.46465e-05 2.23057e-05 2.24318e-05 -1.06711e-05
-0.000223077 6.68748e-05 6.69437e-05 -8.83632e-06
-0.000148347 4.44263e-05 4.45376e-05 -9.96059e-06
-7.44318e-05 2.22339e-05 2.23705e-05 -1.0652e-05
-0.000149186 4.4702e-05 4.47788e-05 -9.97696e-06
-0.000148764 4.45613e-05 4.46582e-05 -9.96753e-06
-0.000222459 6.66783e-05 6.6763e-05 -8.83803e-06
-0.000221234 6.6298e-05 6.64012e-05 -8.84022e-06
-7.38087e-05 2.2035e-05 2.21887e-05 -1.06228e-05
-7.42217e-05 2.21654e-05 2.23099e-05 -1.06385e-05
-0.000221845 6.64865e-05 6.65821e-05 -8.83925e-06
-0.000147525 4.41675e-05 4.42962e-05 -9.95299e-06
-7.40146e-05 2.20993e-05 2.22494e-05 -1.06292e-05
-0.000148347 4.44263e-05 4.45376e-05 -9.96059e-06
-0.000147935 4.42954e-05 4.44169e-05 -9.95596e-06
-0.000221234 6.6298e-05 6.64012e-05 -8.84022e-06
-0.000220019 6.59274e-05 6.60391e-05 -8.84146e-06
-7.34002e-05 2.19102e-05 2.20671e-05 -1.06156e-05
-7.38087e-05 2.2035e-05 2.21887e-05 -1.06228e-05
-0.000220626 6.61118e-05 6.62203e-05 -8.84097e-06
-0.000146712 4.39182e-05 4.40545e-05 -9.94962e-06
-7.36039e-05 2.19721e-05 2.21279e-05 -1.06184e-05
-0.000147525 4.41675e-05 4.42962e-05 -9.95299e-06
-0.000147118 4.4042e-05 4.41754e-05 -9.951e-06
-0.000220019 6.59274e-05 6.60391e-05 -8.84146e-06
-0.000218806 6.55617e-05 6.56763e-05 -8.84202e-06
-7.29945e-05 2.17881e-05 2.19456e-05 -1.06126e-05
-7.34002e-05 2.19102e-05 2.20671e-05 -1.06156e-05
-0.000219412 6.57441e-05 6.58577e-05 -8.84179e-06
-0.000145903 4.36735e-05 4.38124e-05 -9.94832e-06
-7.31973e-05 2.18489e-05 2.20064e-05 -1.06138e-05
-0.000146712 4.39182e-05 4.40545e-05 -9.94962e-06
-0.000146307 4.37954e-05 4.39335e-05 -9.94879e-06
-0.000218806 6.55617e-05 6.56763e-05 -8.84202e-06
-0.000217596 6.51984e-05 6.53133e-05 -8.84226e-06
-7.25898e-05 2.16674e-05 2.18239e-05 -1.06116e-05
-7.29945e-05 2.17881e-05 2.19456e-05 -1.06126e-05
-0.000218201 6.53799e-05 6.54949e-05 -8.84217e-06
-0.000145095 4.34312e-05 4.35701e-05 -9.94788e-06
-7.27921e-05 2.17276e-05 2.18848e-05 -1.0612e-05
-0.000145903 4.36735e-05 4.38124e-05 -9.94832e-06
-0.000145499 4.35522e-05 4.36913e-05 -9.94804e-06
-0.000217596 6.51984e-05 6.53133e-05 -8.84226e-06
-0.000216386 6.48361e-05 6.49501e-05 -8.84233e-06
-7.21855e-05 2.15472e-05 2.17021e-05 -1.06113e-05
-7.25898e-05 2.16674e-05 2.18239e-05 -1.06116e-05
-0.000216991 6.50172e-05 6.51318e-05 -8.84231e-06
-0.000144288 4.31898e-05 4.33277e-05 -9.9478e-06
-7.23876e-05 2.16072e-05 2.1763e-05 -1.06114e-05
-0.000145095 4.34312e-05 4.35701e-05 -9.94788e-06
-0.000144691 4.33104e-05 4.34489e-05 -9.94782e-06
-0.000216386 6.48361e-05 6.49501e-05 -8.84233e-06
-0.000215177 6.44742e-05 6.45869e-05 -8.84234e-06
-7.17813e-05 2.14272e-05 2.15803e-05 -1.06114e-05
-7.21855e-05 2.15472e-05 2.17021e-05 -1.06113e-05
-0.000215782 6.46551e-05 6.47685e-05 -8.84234e-06
-0.000143481 4.29489e-05 4.30851e-05 -9.94784e-06
-7.19834e-05 2.14872e-05 2.16412e-05 -1.06113e-05
-0.000144288 4.31898e-05 4.33277e-05 -9.9478e-06
-0.000143884 4.30693e-05 4.32064e-05 -9.94782e-06
-0.000215177 6.44742e-05 6.45869e-05 -8.84234e-06
-0.000213967 6.41124e-05 6.42235e-05 -8.84232e-06
-7.13772e-05 2.13073e-05 2.14585e-05 -1.06115e-05
-7.17813e-05 2.14272e-05 2.15803e-05 -1.06114e-05
-0.000214572 6.42933e-05 6.44052e-05 -8.84233e-06
-0.000142674 4.2708e-05 4.28425e-05 -9.94789e-06
-7.15793e-05 2.13672e-05 2.15194e-05 -1.06114e-05
-0.000143481 4.29489e-05 4.30851e-05 -9.94784e-06
-0.000143077 4.28284e-05 4.29638e-05 -9.94786e-06
-0.000213967 6.41124e-05 6.42235e-05 -8.84232e-06
-0.000212758 6.37505e-05 6.38601e-05 -8.8423e-06
-7.09729e-05 2.11874e-05 2.13367e-05 -1.06116e-05
-7.13772e-05 2.13073e-05 2.14585e-05 -1.06115e-05
-0.000213362 6.39314e-05 6.40418e-05 -8.84231e-06
-0.000141867 4.24672e-05 4.25999e-05 -9.94794e-06
-7.11751e-05 2.12473e-05 2.13976e-05 -1.06115e-05
-0.000142674 4.2708e-05 4.28425e-05 -9.94789e-06
-0.00014227 4.25876e-05 4.27212e-05 -9.94792e-06
-0.000212758 6.37505e-05 6.38601e-05 -8.8423e-06
-0.000211548 6.33887e-05 6.34968e-05 -8.84229e-06
-7.05687e-05 2.10674e-05 2.12148e-05 -1.06116e-05
-7.09729e-05 2.11874e-05 2.13367e-05 -1.06116e-05
-0.000212153 6.35696e-05 6.36784e-05 -8.8423e-06
-0.00014106 4.22263e-05 4.23573e-05 -9.94798e-06
-7.07708e-05 2.11274e-05 2.12758e-05 -1.06116e-05
-0.000141867 4.24672e-05 4.25999e-05 -9.94794e-06
-0.000141463 4.23467e-05 4.24786e-05 -9.94796e-06
-0.000211548 6.33887e-05 6.34968e-05 -8.84229e-06
-0.000210338 6.30268e-05 6.31334e-05 -8.84229e-06
-7.01644e-05 2.09474e-05 2.1093e-05 -1.06117e-05
-7.05687e-05 2.10674e-05 2.12148e-05 -1.06116e-05
-0.000210943 6.32077e-05 6.33151e-05 -8.84229e-06
-0.000140253 4.19854e-05 4.21147e-05 -9.948e-06
-7.03666e-05 2.10074e-05 2.11539e-05 -1.06116e-05
-0.00014106 4.22263e-05 4.23573e-05 -9.94798e-06
-0.000140656 4.21058e-05 4.2236e-05 -9.94799e-06
-0.000210338 6.30268e-05 6.31334e-05 -8.84229e-06
-0.000209128 6.26649e-05 6.277e-05 -8.84228e-06
-6.97602e-05 2.08274e-05 2.09712e-05 -1.06117e-05
-7.01644e-05 2.09474e-05 2.1093e-05 -1.06117e-05
-0.000209733 6.28458e-05 6.29517e-05 -8.84228e-06
-0.000139446 4.17444e-05 4.1872e-05 -9.94802e-06
-6.99623e-05 2.08874e-05 2.10321e-05 -1.06117e-05
-0.000140253 4.19854e-05 4.21147e-05 -9.948e-06
-0.000139849 4.18649e-05 4.19934e-05 -9.94801e-06
-0.000209128 6.26649e-05 6.277e-05 -8.84228e-06
-0.000207918 6.23029e-05 6.24066e-05 -8.84229e-06
-6.93559e-05 2.07074e-05 2.08494e-05 -1.06117e-05
-6.97602e-05 2.08274e-05 2.09712e-05 -1.06117e-05
-0.000208523 6.24839e-05 6.25883e-05 -8.84229e-06
-0.000138639 4.15035e-05 4.16294e-05 -9.94803e-06
-6.9558e-05 2.07674e-05 2.09103e-05 -1.06117e-05
-0.000139446 4.17444e-05 4.1872e-05 -9.94802e-06
-0.000139042 4.1624e-05 4.17507e-05 -9.94802e-06
-0.000207918 6.23029e-05 6.24066e-05 -8.84229e-06
-0.000206709 6.1941e-05 6.20432e-05 -8.84229e-06
-6.89516e-05 2.05874e-05 2.07275e-05 -1.06117e-05
-6.93559e-05 2.07074e-05 2.08494e-05 -1.06117e-05
-0.000207313 6.2122e-05 6.22249e-05 -8.84229e-06
-0.000137832 4.12625e-05 4.13868e-05 -9.94803e-06
-6.91538e-05 2.06474e-05 2.07884e-05 -1.06117e-05
-0.000138639 4.15035e-05 4.16294e-05 -9.94803e-06
-0.000138235 4.1383e-05 4.15081e-05 -9.94803e-06
-0.000206709 6.1941e-05 6.20432e-05 -8.84229e-06
-0.000205499 6.1579e-05 6.16799e-05 -8.8423e-06
-6.85473e-05 2.04673e-05 2.06057e-05 -1.06117e-05
-6.89516e-05 2.05874e-05 2.07275e-05 -1.06117e-05
-0.000206104 6.176e-05 6.18616e-05 -8.84229e-06
-0.000137025 4.10215e-05 4.11442e-05 -9.94804e-06
-6.87495e-05 2.05273e-05 2.06666e-05 -1.06117e-05
-0.000137832 4.12625e-05 4.13868e-05 -9.94803e-06
-0.000137428 4.1142e-05 4.12655e-05 -9.94804e-06
-0.000205499 6.1579e-05 6.16799e-05 -8.8423e-06
-0.000204289 6.12171e-05 6.13165e-05 -8.8423e-06
-6.81431e-05 2.03473e-05 2.04839e-05 -1.06117e-05
-6.85473e-05 2.04673e-05 2.06057e-05 -1.06117e-05
-0.000204894 6.13981e-05 6.14982e-05 -8.8423e-06
-0.000136218 4.07806e-05 4.09016e-05 -9.94805e-06
-6.83452e-05 2.04073e-05 2.05448e-05 -1.06117e-05
-0.000137025 4.10215e-05 4.11442e-05 -9.94804e-06
-0.000136621 4.09011e-05 4.10229e-05 -9.94804e-06
-0.000204289 6.12171e-05 6.13165e-05 -8.8423e-06
-0.000203079 6.08551e-05 6.09532e-05 -8.84231e-06
-6.77388e-05 2.02272e-05 2.03621e-05 -1.06117e-05
-6.81431e-05 2.03473e-05 2.04839e-05 -1.06117e-05
-0.000203684 6.10361e-05 6.11348e-05 -8.84231e-06
-0.000135411 4.05396e-05 4.0659e-05 -9.94805e-06
-6.79409e-05 2.02873e-05 2.0423e-05 -1.06117e-05
-0.000136218 4.07806e-05 4.09016e-05 -9.94805e-06
-0.000135814 4.06601e-05 4.07803e-05 -9.94805e-06
-0.000203079 6.08551e-05 6.09532e-05 -8.84231e-06
-0.000201869 6.04932e-05 6.05898e-05 -8.84232e-06
-6.73346e-05 2.01072e-05 2.02403e-05 -1.06117e-05
-6.77388e-05 2.02272e-05 2.03621e-05 -1.06117e-05
-0.000202474 6.06741e-05 6.07715e-05 -8.84231e-06
-0.000134604 4.02986e-05 4.04164e-05 -9.94805e-06
-6.75367e-05 2.01672e-05 2.03012e-05 -1.06117e-05
-0.000135411 4.05396e-05 4.0659e-05 -9.94805e-06
-0.000135007 4.04191e-05 4.05377e-05 -9.94805e-06
-0.000201869 6.04932e-05 6.05898e-05 -8.84232e-06
-0.00020066 6.01312e-05 6.02265e-05 -8.84232e-06
-6.69303e-05 1.99871e-05 2.01185e-05 -1.06117e-05
-6.73346e-05 2.01072e-05 2.02403e-05 -1.06117e-05
-0.000201264 6.03122e-05 6.04081e-05 -8.84232e-06
-0.000133797 4.00576e-05 4.01738e-05 -9.94806e-06
-6.71324e-05 2.00471e-05 2.01794e-05 -1.06117e-05
-0.000134604 4.02986e-05 4.04164e-05 -9.94805e-06
-0.0001342 4.01781e-05 4.02951e-05 -9.94806e-06
-0.00020066 6.01312e-05 6.02265e-05 -8.84232e-06
-0.00019945 5.97692e-05 5.98631e-05 -8.84233e-06
-6.65261e-05 1.98671e-05 1.99967e-05 -1.06117e-05
-6.69303e-05 1.99871e-05 2.01185e-05 -1.06117e-05
-0.000200055 5.99502e-05 6.00448e-05 -8.84233e-06
-0.000132989 3.98166e-05 3.99312e-05 -9.94806e-06
-6.67282e-05 1.99271e-05 2.00576e-05 -1.06117e-05
-0.000133797 4.00576e-05 4.01738e-05 -9.94806e-06
-0.000133393 3.99371e-05 4.00525e-05 -9.94806e-06
-0.00019945 5.97692e-05 5.98631e-05 -8.84233e-06
-0.00019824 5.94072e-05 5.94998e-05 -8.84234e-06
-6.61218e-05 1.9747e-05 1.98749e-05 -1.06117e-05
-6.65261e-05 1.98671e-05 1.99967e-05 -1.06117e-05
-0.000198845 5.95882e-05 5.96814e-05 -8.84233e-06
-0.000132182 3.95756e-05 3.96887e-05 -9.94807e-06
-6.6324e-05 1.9807e-05 1.99358e-05 -1.06117e-05
-0.000132989 3.98166e-05 3.99312e-05 -9.94806e-06
-0.000132586 3.96961e-05 3.98099e-05 -9.94806e-06
-0.00019824 5.94072e-05 5.94998e-05 -8.84234e-06
-0.00019703 5.90453e-05 5.91364e-05 -8.84234e-06
-6.57176e-05 1.96269e-05 1.97532e-05 -1.06117e-05
-6.61218e-05 1.9747e-05 1.98749e-05 -1.06117e-05
-0.000197635 5.92263e-05 5.93181e-05 -8.84234e-06
-0.000131375 3.93346e-05 3.94461e-05 -9.94807e-06
-6.59197e-05 1.9687e-05 1.9814e-05 -1.06117e-05
-0.000132182 3.95756e-05 3.96887e-05 -9.94807e-06
-0.000131779 3.94551e-05 3.95674e-05 -9.94807e-06
-0.00019703 5.90453e-05 5.91364e-05 -8.84234e-06
-0.00019582 5.86833e-05 5.87731e-05 -8.84235e-06
-6.53134e-05 1.95069e-05 1.96314e-05 -1.06117e-05
-6.57176e-05 1.96269e-05 1.97532e-05 -1.06117e-05
-0.000196425 5.88643e-05 5.89548e-05 -8.84234e-06
-0.000130568 3.90936e-05 3.92035e-05 -9.94807e-06
-6.55155e-05 1.95669e-05 1.96923e-05 -1.06117e-05
-0.000131375 3.93346e-05 3.94461e-05 -9.94807e-06
-0.000130972 3.92141e-05 3.93248e-05 -9.94807e-06
-0.00019582 5.86833e-05 5.87731e-05 -8.84235e-06
-0.000194611 5.83213e-05 5.84098e-05 -8.84235e-06
-6.49092e-05 1.93868e-05 1.95096e-05 -1.06117e-05
-6.53134e-05 1.95069e-05 1.96314e-05 -1.06117e-05
-0.000195216 5.85023e-05 5.85914e-05 -8.84235e-06
-0.000129761 3.88526e-05 3.89609e-05 -9.94808e-06
-6.51113e-05 1.94468e-05 1.95705e-05 -1.06117e-05
-0.000130568 3.90936e-05 3.92035e-05 -9.94807e-06
-0.000130165 3.89731e-05 3.90822e-05 -9.94807e-06
-0.000194611 5.83213e-05 5.84098e-05 -8.84235e-06
-0.000193401 5.79593e-05 5.80464e-05 -8.84236e-06
-6.4505e-05 1.92667e-05 1.93878e-05 -1.06117e-05
-6.49092e-05 1.93868e-05 1.95096e-05 -1.06117e-05
-0.000194006 5.81403e-05 5.82281e-05 -8.84235e-06
-0.000128954 3.86116e-05 3.87184e-05 -9.94808e-06
-6.47071e-05 1.93267e-05 1.94487e-05 -1.06117e-05
-0.000129761 3.88526e-05 3.89609e-05 -9.94808e-06
-0.000129358 3.87321e-05 3.88397e-05 -9.94808e-06
-0.000193401 5.79593e-05 5.80464e-05 -8.84236e-06
-0.000192191 5.75973e-05 5.76831e-05 -8.84236e-06
-6.41008e-05 1.91466e-05 1.92661e-05 -1.06117e-05
-6.4505e-05 1.92667e-05 1.93878e-05 -1.06117e-05
-0.000192796 5.77783e-05 5.78648e-05 -8.84236e-06
-0.000128147 3.83705e-05 3.84758e-05 -9.94808e-06
-6.43029e-05 1.92067e-05 1.93269e-05 -1.06117e-05
-0.000128954 3.86116e-05 3.87184e-05 -9.94808e-06
-0.000128551 3.84911e-05 3.85971e-05 -9.94808e-06
-0.000192191 5.75973e-05 5.76831e-05 -8.84236e-06
-0.000190981 5.72353e-05 5.73198e-05 -8.84237e-06
-6.36966e-05 1.90265e-05 1.91443e-05 -1.06117e-05
-6.41008e-05 1.91466e-05 1.92661e-05 -1.06117e-05
-0.000191586 5.74163e-05 5.75014e-05 -8.84236e-06
-0.00012734 3.81295e-05 3.82333e-05 -9.94808e-06
-6.38987e-05 1.90866e-05 1.92052e-05 -1.06117e-05
-0.000128147 3.83705e-05 3.84758e-05 -9.94808e-06
-0.000127744 3.825e-05 3.83545e-05 -9.94808e-06
-0.000190981 5.72353e-05 5.73198e-05 -8.84237e-06
-0.000189772 5.68734e-05 5.69565e-05 -8.84237e-06
-6.32924e-05 1.89065e-05 1.90226e-05 -1.06117e-05
-6.36966e-05 1.90265e-05 1.91443e-05 -1.06117e-05
-0.000190377 5.70543e-05 5.71381e-05 -8.84237e-06
-0.000126533 3.78885e-05 3.79907e-05 -9.94809e-06
-6.34945e-05 1.89665e-05 1.90834e-05 -1.06117e-05
-0.00012734 3.81295e-05 3.82333e-05 -9.94808e-06
-0.000126937 3.8009e-05 3.8112e-05 -9.94809e-06
-0.000189772 5.68734e-05 5.69565e-05 -8.84237e-06
-0.000188562 5.65114e-05 5.65931e-05 -8.84238e-06
-6.28882e-05 1.87864e-05 1.89008e-05 -1.06117e-05
-6.32924e-05 1.89065e-05 1.90226e-05 -1.06117e-05
-0.000189167 5.66924e-05 5.67748e-05 -8.84237e-06
-0.000125727 3.76475e-05 3.77482e-05 -9.94809e-06
-6.30903e-05 1.88464e-05 1.89617e-05 -1.06117e-05
-0.000126533 3.78885e-05 3.79907e-05 -9.94809e-06
-0.00012613 3.7768e-05 3.78694e-05 -9.94809e-06
-0.000188562 5.65114e-05 5.65931e-05 -8.84238e-06
-0.000187352 5.61494e-05 5.62298e-05 -8.84238e-06
-6.24841e-05 1.86663e-05 1.87791e-05 -1.06117e-05
-6.28882e-05 1.87864e-05 1.89008e-05 -1.06117e-05
-0.000187957 5.63304e-05 5.64115e-05 -8.84238e-06
-0.00012492 3.74065e-05 3.75056e-05 -9.94809e-06
-6.26862e-05 1.87263e-05 1.88399e-05 -1.06117e-05
-0.000125727 3.76475e-05 3.77482e-05 -9.94809e-06
-0.000125323 3.7527e-05 3.76269e-05 -9.94809e-06
-0.000187352 5.61494e-05 5.62298e-05 -8.84238e-06
-0.000186143 5.57874e-05 5.58665e-05 -8.84239e-06
-6.20799e-05 1.85462e-05 1.86573e-05 -1.06117e-05
-6.24841e-05 1.86663e-05 1.87791e-05 -1.06117e-05
-0.000186747 5.59684e-05 5.60482e-05 -8.84238e-06
-0.000124113 3.71654e-05 3.72631e-05 -9.9481e-06
-6.2282e-05 1.86062e-05 1.87182e-05 -1.06117e-05
-0.00012492 3.74065e-05 3.75056e-05 -9.94809e-06
-0.000124516 3.72859e-05 3.73844e-05 -9.94809e-06
-0.000186143 5.57874e-05 5.58665e-05 -8.84239e-06
-0.000184933 5.54254e-05 5.55032e-05 -8.84239e-06
-6.16758e-05 1.84261e-05 1.85356e-05 -1.06117e-05
-6.20799e-05 1.85462e-05 1.86573e-05 -1.06117e-05
-0.000185538 5.56064e-05 5.56849e-05 -8.84239e-06
-0.000123306 3.69244e-05 3.70205e-05 -9.9481e-06
-6.18778e-05 1.84861e-05 1.85964e-05 -1.06117e-05
-0.000124113 3.71654e-05 3.72631e-05 -9.9481e-06
-0.000123709 3.70449e-05 3.71418e-05 -9.9481e-06
-0.000184933 5.54254e-05 5.55032e-05 -8.84239e-06
-0.000183723 5.50634e-05 5.51399e-05 -8.8424e-06
-6.12716e-05 1.8306e-05 1.84139e-05 -1.06117e-05
-6.16758e-05 1.84261e-05 1.85356e-05 -1.06117e-05
-0.000184328 5.52444e-05 5.53216e-05 -8.84239e-06
-0.000122499 3.66834e-05 3.6778e-05 -9.9481e-06
-6.14737e-05 1.8366e-05 1.84747e-05 -1.06117e-05
-0.000123306 3.69244e-05 3.70205e-05 -9.9481e-06
-0.000122902 3.68039e-05 3.68993e-05 -9.9481e-06
-0.000183723 5.50634e-05 5.51399e-05 -8.8424e-06
-0.000182514 5.47013e-05 5.47766e-05 -8.8424e-06
-6.08675e-05 1.81859e-05 1.82921e-05 -1.06117e-05
-6.12716e-05 1.8306e-05 1.84139e-05 -1.06117e-05
-0.000183118 5.48824e-05 5.49583e-05 -8.8424e-06
-0.000121692 3.64423e-05 3.65355e-05 -9.9481e-06
-6.10695e-05 1.82459e-05 1.8353e-05 -1.06117e-05
-0.000122499 3.66834e-05 3.6778e-05 -9.9481e-06
-0.000122095 3.65628e-05 3.66568e-05 -9.9481e-06
-0.000182514 5.47013e-05 5.47766e-05 -8.8424e-06
-0.000181304 5.43393e-05 5.44134e-05 -8.8424e-06
-6.04633e-05 1.80657e-05 1.81704e-05 -1.06117e-05
-6.08675e-05 1.81859e-05 1.82921e-05 -1.06117e-05
-0.000181909 5.45203e-05 5.4595e-05 -8.8424e-06
-0.000120885 3.62013e-05 3.6293e-05 -9.94811e-06
-6.06654e-05 1.81258e-05 1.82313e-05 -1.06117e-05
-0.000121692 3.64423e-05 3.65355e-05 -9.9481e-06
-0.000121288 3.63218e-05 3.64142e-05 -9.9481e-06
-0.000181304 5.43393e-05 5.44134e-05 -8.8424e-06
-0.000180094 5.39773e-05 5.40501e-05 -8.84241e-06
-6.00592e-05 1.79456e-05 1.80487e-05 -1.06117e-05
-6.04633e-05 1.80657e-05 1.81704e-05 -1.06117e-05
-0.000180699 5.41583e-05 5.42317e-05 -8.84241e-06
-0.000120078 3.59602e-05 3.60505e-05 -9.94811e-06
-6.02613e-05 1.80057e-05 1.81095e-05 -1.06117e-05
-0.000120885 3.62013e-05 3.6293e-05 -9.94811e-06
-0.000120481 3.60807e-05 3.61717e-05 -9.94811e-06
-0.000180094 5.39773e-05 5.40501e-05 -8.84241e-06
-0.000178884 5.36153e-05 5.36868e-05 -8.84241e-06
-5.96551e-05 1.78255e-05 1.7927e-05 -1.06117e-05
-6.00592e-05 1.79456e-05 1.80487e-05 -1.06117e-05
-0.000179489 5.37963e-05 5.38684e-05 -8.84241e-06
-0.000119271 3.57192e-05 3.5808e-05 -9.94811e-06
-5.98572e-05 1.78856e-05 1.79878e-05 -1.06117e-05
-0.000120078 3.59602e-05 3.60505e-05 -9.94811e-06
-0.000119675 3.58397e-05 3.59292e-05 -9.94811e-06
-0.000178884 5.36153e-05 5.36868e-05 -8.84241e-06
-0.000177675 5.32533e-05 5.33235e-05 -8.84242e-06
-5.9251e-05 1.77054e-05 1.78053e-05 -1.06117e-05
-5.96551e-05 1.78255e-05 1.7927e-05 -1.06117e-05
-0.00017828 5.34343e-05 5.35052e-05 -8.84242e-06
-0.000118464 3.54781e-05 3.55654e-05 -9.94811e-06
-5.94531e-05 1.77654e-05 1.78661e-05 -1.06117e-05
-0.000119271 3.57192e-05 3.5808e-05 -9.94811e-06
-0.000118868 3.55986e-05 3.56867e-05 -9.94811e-06
-0.000177675 5.32533e-05 5.33235e-05 -8.84242e-06
-0.000176465 5.28913e-05 5.29602e-05 -8.84242e-06
-5.88469e-05 1.75852e-05 1.76836e-05 -1.06117e-05
-5.9251e-05 1.77054e-05 1.78053e-05 -1.06117e-05
-0.00017707 5.30723e-05 5.31419e-05 -8.84242e-06
-0.000117657 3.5237e-05 3.53229e-05 -9.94812e-06
-5.9049e-05 1.76453e-05 1.77444e-05 -1.06117e-05
-0.000118464 3.54781e-05 3.55654e-05 -9.94811e-06
-0.000118061 3.53576e-05 3.54442e-05 -9.94811e-06
-0.000176465 5.28913e-05 5.29602e-05 -8.84242e-06
-0.000175256 5.25292e-05 5.2597e-05 -8.84243e-06
-5.84428e-05 1.74651e-05 1.75619e-05 -1.06117e-05
-5.88469e-05 1.75852e-05 1.76836e-05 -1.06117e-05
-0.00017586 5.27103e-05 5.27786e-05 -8.84242e-06
-0.00011685 3.4996e-05 3.50804e-05 -9.94812e-06
-5.86449e-05 1.75252e-05 1.76227e-05 -1.06117e-05
-0.000117657 3.5237e-05 3.53229e-05 -9.94812e-06
-0.000117254 3.51165e-05 3.52017e-05 -9.94812e-06
-0.000175256 5.25292e-05 5.2597e-05 -8.84243e-06
-0.000174046 5.21672e-05 5.22337e-05 -8.84243e-06
-5.80387e-05 1.7345e-05 1.74402e-05 -1.06117e-05
-5.84428e-05 1.74651e-05 1.75619e-05 -1.06117e-05
-0.000174651 5.23482e-05 5.24153e-05 -8.84243e-06
-0.000116043 3.47549e-05 3.4838e-05 -9.94812e-06
-5.82408e-05 1.7405e-05 1.7501e-05 -1.06117e-05
-0.00011685 3.4996e-05 3.50804e-05 -9.94812e-06
-0.000116447 3.48755e-05 3.49592e-05 -9.94812e-06
-0.000174046 5.21672e-05 5.22337e-05 -8.84243e-06
-0.000172836 5.18052e-05 5.18705e-05 -8.84244e-06
-5.76346e-05 1.72248e-05 1.73185e-05 -1.06117e-05
-5.80387e-05 1.7345e-05 1.74402e-05 -1.06117e-05
-0.000173441 5.19862e-05 5.20521e-05 -8.84243e-06
-0.000115237 3.45138e-05 3.45955e-05 -9.94812e-06
-5.78367e-05 1.72849e-05 1.73793e-05 -1.06117e-05
-0.000116043 3.47549e-05 3.4838e-05 -9.94812e-06
-0.00011564 3.46344e-05 3.47167e-05 -9.94812e-06
-0.000172836 5.18052e-05 5.18705e-05 -8.84244e-06
-0.000171627 5.14431e-05 5.15072e-05 -8.84244e-06
-5.72306e-05 1.71047e-05 1.71968e-05 -1.06117e-05
-5.76346e-05 1.72248e-05 1.73185e-05 -1.06117e-05
-0.000172231 5.16242e-05 5.16888e-05 -8.84244e-06
-0.00011443 3.42728e-05 3.4353e-05 -9.94813e-06
-5.74326e-05 1.71648e-05 1.72576e-05 -1.06117e-05
-0.000115237 3.45138e-05 3.45955e-05 -9.94812e-06
-0.000114833 3.43933e-05 3.44742e-05 -9.94812e-06
-0.000171627 5.14431e-05 5.15072e-05 -8.84244e-06
-0.000170417 5.10811e-05 5.11439e-05 -8.84244e-06
-5.68265e-05 1.69845e-05 1.70751e-05 -1.06117e-05
-5.72306e-05 1.71047e-05 1.71968e-05 -1.06117e-05
-0.000171022 5.12621e-05 5.13256e-05 -8.84244e-06
-0.000113623 3.40317e-05 3.41105e-05 -9.94813e-06
-5.70285e-05 1.70446e-05 1.7136e-05 -1.06117e-05
-0.00011443 3.42728e-05 3.4353e-05 -9.94813e-06
-0.000114026 3.41522e-05 3.42317e-05 -9.94813e-06
-0.000170417 5.10811e-05 5.11439e-05 -8.84244e-06
-0.000169207 5.07191e-05 5.07807e-05 -8.84245e-06
-5.64225e-05 1.68644e-05 1.69535e-05 -1.06117e-05
-5.68265e-05 1.69845e-05 1.70751e-05 -1.06117e-05
-0.000169812 5.09001e-05 5.09623e-05 -8.84245e-06
-0.000112816 3.37906e-05 3.3868e-05 -9.94813e-06
-5.66245e-05 1.69245e-05 1.70143e-05 -1.06117e-05
-0.000113623 3.40317e-05 3.41105e-05 -9.94813e-06
-0.000113219 3.39112e-05 3.39893e-05 -9.94813e-06
-0.000169207 5.07191e-05 5.07807e-05 -8.84245e-06
-0.000167998 5.0357e-05 5.04175e-05 -8.84245e-06
-5.60184e-05 1.67442e-05 1.68318e-05 -1.06117e-05
-5.64225e-05 1.68644e-05 1.69535e-05 -1.06117e-05
-0.000168603 5.0538e-05 5.05991e-05 -8.84245e-06
-0.000112009 3.35495e-05 3.36256e-05 -9.94813e-06
-5.62204e-05 1.68043e-05 1.68926e-05 -1.06117e-05
-0.000112816 3.37906e-05 3.3868e-05 -9.94813e-06
-0.000112413 3.36701e-05 3.37468e-05 -9.94813e-06
-0.000167998 5.0357e-05 5.04175e-05 -8.84245e-06
-0.000166788 4.9995e-05 5.00542e-05 -8.84246e-06
-5.56144e-05 1.66241e-05 1.67101e-05 -1.06117e-05
-5.60184e-05 1.67442e-05 1.68318e-05 -1.06117e-05
-0.000167393 5.0176e-05 5.02358e-05 -8.84246e-06
-0.000111202 3.33084e-05 3.33831e-05 -9.94813e-06
-5.58164e-05 1.66842e-05 1.6771e-05 -1.06117e-05
-0.000112009 3.35495e-05 3.36256e-05 -9.94813e-06
-0.000111606 3.3429e-05 3.35043e-05 -9.94813e-06
-0.000166788 4.9995e-05 5.00542e-05 -8.84246e-06
-0.000165579 4.96329e-05 4.9691e-05 -8.84246e-06
-5.52103e-05 1.65039e-05 1.65885e-05 -1.06117e-05
-5.56144e-05 1.66241e-05 1.67101e-05 -1.06117e-05
-0.000166183 4.9814e-05 4.98726e-05 -8.84246e-06
-0.000110396 3.30674e-05 3.31406e-05 -9.94814e-06
-5.54124e-05 1.6564e-05 1.66493e-05 -1.06117e-05
-0.000111202 3.33084e-05 3.33831e-05 -9.94813e-06
-0.000110799 3.31879e-05 3.32619e-05 -9.94814e-06
-0.000165579 4.96329e-05 4.9691e-05 -8.84246e-06
-0.000164369 4.92709e-05 4.93278e-05 -8.84247e-06
-5.48063e-05 1.63837e-05 1.64668e-05 -1.06117e-05
-5.52103e-05 1.65039e-05 1.65885e-05 -1.06117e-05
-0.000164974 4.94519e-05 4.95094e-05 -8.84246e-06
-0.000109589 3.28263e-05 3.28982e-05 -9.94814e-06
-5.50083e-05 1.64438e-05 1.65276e-05 -1.06117e-05
-0.000110396 3.30674e-05 3.31406e-05 -9.94814e-06
-0.000109992 3.29468e-05 3.30194e-05 -9.94814e-06
-0.000164369 4.92709e-05 4.93278e-05 -8.84247e-06
-0.000163159 4.89088e-05 4.89645e-05 -8.84247e-06
-5.44023e-05 1.62636e-05 1.63452e-05 -1.06117e-05
-5.48063e-05 1.63837e-05 1.64668e-05 -1.06117e-05
-0.000163764 4.90898e-05 4.91461e-05 -8.84247e-06
-0.000108782 3.25852e-05 3.26557e-05 -9.94814e-06
-5.46043e-05 1.63237e-05 1.6406e-05 -1.06117e-05
-0.000109589 3.28263e-05 3.28982e-05 -9.94814e-06
-0.000109185 3.27057e-05 3.2777e-05 -9.94814e-06
-0.000163159 4.89088e-05 4.89645e-05 -8.84247e-06
-0.00016195 4.85468e-05 4.86013e-05 -8.84248e-06
-5.39983e-05 1.61434e-05 1.62235e-05 -1.06117e-05
-5.44023e-05 1.62636e-05 1.63452e-05 -1.06117e-05
-0.000162555 4.87278e-05 4.87829e-05 -8.84247e-06
-0.000107975 3.23441e-05 3.24133e-05 -9.94814e-06
-5.42003e-05 1.62035e-05 1.62844e-05 -1.06117e-05
-0.000108782 3.25852e-05 3.26557e-05 -9.94814e-06
-0.000108378 3.24646e-05 3.25345e-05 -9.94814e-06
-0.00016195 4.85468e-05 4.86013e-05 -8.84248e-06
-0.00016074 4.81847e-05 4.82381e-05 -8.84248e-06
-5.35943e-05 1.60232e-05 1.61019e-05 -1.06117e-05
-5.39983e-05 1.61434e-05 1.62235e-05 -1.06117e-05
-0.000161345 4.83657e-05 4.84197e-05 -8.84248e-06
-0.000107168 3.21029e-05 3.21709e-05 -9.94814e-06
-5.37963e-05 1.60833e-05 1.61627e-05 -1.06117e-05
-0.000107975 3.23441e-05 3.24133e-05 -9.94814e-06
-0.000107572 3.22235e-05 3.22921e-05 -9.94814e-06
-0.00016074 4.81847e-05 4.82381e-05 -8.84248e-06
-0.000159531 4.78226e-05 4.78749e-05 -8.84248e-06
-5.31903e-05 1.5903e-05 1.59803e-05 -1.06117e-05
-5.35943e-05 1.60232e-05 1.61019e-05 -1.06117e-05
-0.000160135 4.80037e-05 4.80565e-05 -8.84248e-06
-0.000106361 3.18618e-05 3.19284e-05 -9.94815e-06
-5.33923e-05 1.59631e-05 1.60411e-05 -1.06117e-05
-0.000107168 3.21029e-05 3.21709e-05 -9.94814e-06
-0.000106765 3.19824e-05 3.20496e-05 -9.94815e-06
-0.000159531 4.78226e-05 4.78749e-05 -8.84248e-06
-0.000158321 4.74606e-05 4.75117e-05 -8.84249e-06
-5.27863e-05 1.57828e-05 1.58586e-05 -1.06117e-05
-5.31903e-05 1.5903e-05 1.59803e-05 -1.06117e-05
-0.000158926 4.76416e-05 4.76933e-05 -8.84249e-06
-0.000105555 3.16207e-05 3.1686e-05 -9.94815e-06
-5.29883e-05 1.58429e-05 1.59194e-05 -1.06117e-05
-0.000106361 3.18618e-05 3.19284e-05 -9.94815e-06
-0.000105958 3.17413e-05 3.18072e-05 -9.94815e-06
-0.000158321 4.74606e-05 4.75117e-05 -8.84249e-06
-0.000157112 4.70985e-05 4.71485e-05 -8.84249e-06
-5.23823e-05 1.56626e-05 1.5737e-05 -1.06117e-05
-5.27863e-05 1.57828e-05 1.58586e-05 -1.06117e-05
-0.000157716 4.72795e-05 4.73301e-05 -8.84249e-06
-0.000104748 3.13796e-05 3.14436e-05 -9.94815e-06
-5.25843e-05 1.57227e-05 1.57978e-05 -1.06117e-05
-0.000105555 3.16207e-05 3.1686e-05 -9.94815e-06
-0.000105151 3.15002e-05 3.15648e-05 -9.94815e-06
-0.000157112 4.70985e-05 4.71485e-05 -8.84249e-06
-0.000155902 4.67364e-05 4.67853e-05 -8.8425e-06
-5.19784e-05 1.55424e-05 1.56154e-05 -1.06117e-05
-5.23823e-05 1.56626e-05 1.5737e-05 -1.06117e-05
-0.000156507 4.69175e-05 4.69669e-05 -8.84249e-06
-0.000103941 3.11385e-05 3.12012e-05 -9.94815e-06
-5.21804e-05 1.56025e-05 1.56762e-05 -1.06117e-05
-0.000104748 3.13796e-05 3.14436e-05 -9.94815e-06
-0.000104345 3.1259e-05 3.13224e-05 -9.94815e-06
-0.000155902 4.67364e-05 4.67853e-05 -8.8425e-06
-0.000154693 4.63743e-05 4.64221e-05 -8.8425e-06
-5.15744e-05 1.54222e-05 1.54938e-05 -1.06117e-05
-5.19784e-05 1.55424e-05 1.56154e-05 -1.06117e-05
-0.000155297 4.65554e-05 4.66037e-05 -8.8425e-06
-0.000103134 3.08974e-05 3.09587e-05 -9.94816e-06
-5.17764e-05 1.54823e-05 1.55546e-05 -1.06117e-05
-0.000103941 3.11385e-05 3.12012e-05 -9.94815e-06
-0.000103538 3.10179e-05 3.10799e-05 -9.94815e-06
-0.000154693 4.63743e-05 4.64221e-05 -8.8425e-06
-0.000153483 4.60123e-05 4.60589e-05 -8.8425e-06
-5.11705e-05 1.5302e-05 1.53722e-05 -1.06117e-05
-5.15744e-05 1.54222e-05 1.54938e-05 -1.06117e-05
-0.000154088 4.61933e-05 4.62405e-05 -8.8425e-06
-0.000102328 3.06562e-05 3.07163e-05 -9.94816e-06
-5.13724e-05 1.53621e-05 1.5433e-05 -1.06117e-05
-0.000103134 3.08974e-05 3.09587e-05 -9.94816e-06
-0.000102731 3.07768e-05 3.08375e-05 -9.94816e-06
-0.000153483 4.60123e-05 4.60589e-05 -8.8425e-06
-0.000152274 4.56502e-05 4.56957e-05 -8.84251e-06
-5.07665e-05 1.51818e-05 1.52506e-05 -1.06117e-05
-5.11705e-05 1.5302e-05 1.53722e-05 -1.06117e-05
-0.000152878 4.58312e-05 4.58773e-05 -8.84251e-06
-0.000101521 3.04151e-05 3.04739e-05 -9.94816e-06
-5.09685e-05 1.52419e-05 1.53114e-05 -1.06117e-05
-0.000102328 3.06562e-05 3.07163e-05 -9.94816e-06
-0.000101924 3.05357e-05 3.05951e-05 -9.94816e-06
-0.000152274 4.56502e-05 4.56957e-05 -8.84251e-06
-0.000151064 4.52881e-05 4.53325e-05 -8.84251e-06
-5.03626e-05 1.50616e-05 1.5129e-05 -1.06117e-05
-5.07665e-05 1.51818e-05 1.52506e-05 -1.06117e-05
-0.000151669 4.54691e-05 4.55141e-05 -8.84251e-06
-0.000100714 3.01739e-05 3.02315e-05 -9.94816e-06
-5.05645e-05 1.51217e-05 1.51898e-05 -1.06117e-05
-0.000101521 3.04151e-05 3.04739e-05 -9.94816e-06
-0.000101118 3.02945e-05 3.03527e-05 -9.94816e-06
-0.000151064 4.52881e-05 4.53325e-05 -8.84251e-06
-0.000149855 4.4926e-05 4.49694e-05 -8.84252e-06
-4.99586e-05 1.49414e-05 1.50074e-05 -1.06117e-05
-5.03626e-05 1.50616e-05 1.5129e-05 -1.06117e-05
-0.000150459 4.5107e-05 4.5151e-05 -8.84252e-06
-9.99074e-05 2.99328e-05 2.99891e-05 -9.94816e-06
-5.01606e-05 1.50015e-05 1.50682e-05 -1.06117e-05
-0.000100714 3.01739e-05 3.02315e-05 -9.94816e-06
-0.000100311 3.00534e-05 3.01103e-05 -9.94816e-06
-0.000149855 4.4926e-05 4.49694e-05 -8.84252e-06
-0.000148645 4.45639e-05 4.46062e-05 -8.84252e-06
-4.95547e-05 1.48211e-05 1.48858e-05 -1.06117e-05
-4.99586e-05 1.49414e-05 1.50074e-05 -1.06117e-05
-0.00014925 4.47449e-05 4.47878e-05 -8.84252e-06
-9.91007e-05 2.96917e-05 2.97467e-05 -9.94817e-06
-4.97567e-05 1.48813e-05 1.49466e-05 -1.06117e-05
-9.99074e-05 2.99328e-05 2.99891e-05 -9.94816e-06
-9.95041e-05 2.98122e-05 2.98679e-05 -9.94816e-06
-0.000148645 4.45639e-05 4.46062e-05 -8.84252e-06
-0.000147436 4.42018e-05 4.4243e-05 -8.84253e-06
-4.91508e-05 1.47009e-05 1.47642e-05 -1.06117e-05
-4.95547e-05 1.48211e-05 1.48858e-05 -1.06117e-05
-0.00014804 4.43828e-05 4.44246e-05 -8.84252e-06
-9.8294e-05 2.94505e-05 2.95044e-05 -9.94817e-06
-4.93528e-05 1.4761e-05 1.4825e-05 -1.06117e-05
-9.91007e-05 2.96917e-05 2.97467e-05 -9.94817e-06
-9.86974e-05 2.95711e-05 2.96256e-05 -9.94817e-06
-0.000147436 4.42018e-05 4.4243e-05 -8.84253e-06
-0.000146226 4.38397e-05 4.38799e-05 -8.84253e-06
-4.87469e-05 1.45807e-05 1.46427e-05 -1.06117e-05
-4.91508e-05 1.47009e-05 1.47642e-05 -1.06117e-05
-0.000146831 4.40207e-05 4.40614e-05 -8.84253e-06
-9.74873e-05 2.92094e-05 2.9262e-05 -9.94817e-06
-4.89489e-05 1.46408e-05 1.47035e-05 -1.06117e-05
-9.8294e-05 2.94505e-05 2.95044e-05 -9.94817e-06
-9.78907e-05 2.93299e-05 2.93832e-05 -9.94817e-06
-0.000146226 4.38397e-05 4.38799e-05 -8.84253e-06
-0.000145017 4.34776e-05 4.35167e-05 -8.84253e-06
-4.8343e-05 1.44604e-05 1.45211e-05 -1.06117e-05
-4.87469e-05 1.45807e-05 1.46427e-05 -1.06117e-05
-0.000145621 4.36586e-05 4.36983e-05 -8.84253e-06
-9.66806e-05 2.89682e-05 2.90196e-05 -9.94817e-06
-4.8545e-05 1.45206e-05 1.45819e-05 -1.06117e-05
-9.74873e-05 2.92094e-05 2.9262e-05 -9.94817e-06
-9.7084e-05 2.90888e-05 2.91408e-05 -9.94817e-06
-0.000145017 4.34776e-05 4.35167e-05 -8.84253e-06
-0.000143807 4.31155e-05 4.31536e-05 -8.84254e-06
-4.79391e-05 1.43402e-05 1.43995e-05 -1.06117e-05
-4.8343e-05 1.44604e-05 1.45211e-05 -1.06117e-05
-0.000144412 4.32965e-05 4.33351e-05 -8.84254e-06
-9.58739e-05 2.8727e-05 2.87772e-05 -9.94817e-06
-4.81411e-05 1.44003e-05 1.44603e-05 -1.06117e-05
-9.66806e-05 2.89682e-05 2.90196e-05 -9.94817e-06
-9.62773e-05 2.88476e-05 2.88984e-05 -9.94817e-06
-0.000143807 4.31155e-05 4.31536e-05 -8.84254e-06
-0.000142598 4.27534e-05 4.27904e-05 -8.84254e-06
-4.75352e-05 1.422e-05 1.4278e-05 -1.06117e-05
-4.79391e-05 1.43402e-05 1.43995e-05 -1.06117e-05
-0.000143202 4.29344e-05 4.2972e-05 -8.84254e-06
-9.50672e-05 2.84859e-05 2.85349e-05 -9.94818e-06
-4.77372e-05 1.42801e-05 1.43388e-05 -1.06117e-05
-9.58739e-05 2.8727e-05 2.87772e-05 -9.94817e-06
-9.54706e-05 2.86064e-05 2.86561e-05 -9.94817e-06
-0.000142598 4.27534e-05 4.27904e-05 -8.84254e-06
-0.000141388 4.23912e-05 4.24273e-05 -8.84255e-06
-4.71314e-05 1.40997e-05 1.41564e-05 -1.06117e-05
-4.75352e-05 1.422e-05 1.4278e-05 -1.06117e-05
-0.000141993 4.25723e-05 4.26088e-05 -8.84254e-06
-9.42606e-05 2.82447e-05 2.82925e-05 -9.94818e-06
-4.73333e-05 1.41598e-05 1.42172e-05 -1.06117e-05
-9.50672e-05 2.84859e-05 2.85349e-05 -9.94818e-06
-9.46639e-05 2.83653e-05 2.84137e-05 -9.94818e-06
-0.000141388 4.23912e-05 4.24273e-05 -8.84255e-06
-0.000140179 4.20291e-05 4.20641e-05 -8.84255e-06
-4.67275e-05 1.39794e-05 1.40349e-05 -1.06117e-05
-4.71314e-05 1.40997e-05 1.41564e-05 -1.06117e-05
-0.000140783 4.22102e-05 4.22457e-05 -8.84255e-06
-9.34539e-05 2.80035e-05 2.80502e-05 -9.94818e-06
-4.69294e-05 1.40396e-05 1.40957e-05 -1.06117e-05
-9.42606e-05 2.82447e-05 2.82925e-05 -9.94818e-06
-9.38572e-05 2.81241e-05 2.81713e-05 -9.94818e-06
-0.000140179 4.20291e-05 4.20641e-05 -8.84255e-06
-0.000138969 4.1667e-05 4.1701e-05 -8.84255e-06
-4.63236e-05 1.38592e-05 1.39133e-05 -1.06117e-05
-4.67275e-05 1.39794e-05 1.40349e-05 -1.06117e-05
-0.000139574 4.18481e-05 4.18826e-05 -8.84255e-06
-9.26472e-05 2.77623e-05 2.78078e-05 -9.94818e-06
-4.65256e-05 1.39193e-05 1.39741e-05 -1.06117e-05
-9.34539e-05 2.80035e-05 2.80502e-05 -9.94818e-06
-9.30506e-05 2.78829e-05 2.7929e-05 -9.94818e-06
-0.000138969 4.1667e-05 4.1701e-05 -8.84255e-06
-0.00013776 4.13049e-05 4.13379e-05 -8.84256e-06
-4.59198e-05 1.37389e-05 1.37918e-05 -1.06117e-05
-4.63236e-05 1.38592e-05 1.39133e-05 -1.06117e-05
-0.000138365 4.14859e-05 4.15194e-05 -8.84256e-06
-9.18406e-05 2.75212e-05 2.75655e-05 -9.94818e-06
-4.61217e-05 1.3799e-05 1.38526e-05 -1.06117e-05
-9.26472e-05 2.77623e-05 2.78078e-05 -9.94818e-06
-9.22439e-05 2.76417e-05 2.76866e-05 -9.94818e-06
-0.00013776 4.13049e-05 4.13379e-05 -8.84256e-06
-0.000136551 4.09427e-05 4.09748e-05 -8.84256e-06
-4.5516e-05 1.36186e-05 1.36703e-05 -1.06117e-05
-4.59198e-05 1.37389e-05 1.37918e-05 -1.06117e-05
-0.000137155 4.11238e-05 4.11563e-05 -8.84256e-06
-9.1034e-05 2.728e-05 2.73231e-05 -9.94819e-06
-4.57179e-05 1.36788e-05 1.3731e-05 -1.06117e-05
-9.18406e-05 2.75212e-05 2.75655e-05 -9.94818e-06
-9.14373e-05 2.74006e-05 2.74443e-05 -9.94818e-06
-0.000136551 4.09427e-05 4.09748e-05 -8.84256e-06
-0.000135341 4.05806e-05 4.06116e-05 -8.84257e-06
-4.51121e-05 1.34984e-05 1.35488e-05 -1.06117e-05
-4.5516e-05 1.36186e-05 1.36703e-05 -1.06117e-05
-0.000135946 4.07617e-05 4.07932e-05 -8.84256e-06
-9.02273e-05 2.70388e-05 2.70808e-05 -9.94819e-06
-4.5314e-05 1.35585e-05 1.36095e-05 -1.06117e-05
-9.1034e-05 2.728e-05 2.73231e-05 -9.94819e-06
-9.06306e-05 2.71594e-05 2.7202e-05 -9.94819e-06
-0.000135341 4.05806e-05 4.06116e-05 -8.84257e-06
-0.000134132 4.02185e-05 4.02485e-05 -8.84257e-06
-4.47083e-05 1.33781e-05 1.34272e-05 -1.06117e-05
-4.51121e-05 1.34984e-05 1.35488e-05 -1.06117e-05
-0.000134736 4.03995e-05 4.04301e-05 -8.84257e-06
-8.94207e-05 2.67976e-05 2.68385e-05 -9.94819e-06
-4.49102e-05 1.34382e-05 1.3488e-05 -1.06117e-05
-9.02273e-05 2.70388e-05 2.70808e-05 -9.94819e-06
-8.9824e-05 2.69182e-05 2.69596e-05 -9.94819e-06
-0.000134132 4.02185e-05 4.02485e-05 -8.84257e-06
-0.000132922 3.98563e-05 3.98854e-05 -8.84258e-06
-4.43045e-05 1.32578e-05 1.33057e-05 -1.06117e-05
-4.47083e-05 1.33781e-05 1.34272e-05 -1.06117e-05
-0.000133527 4.00374e-05 4.0067e-05 -8.84257e-06
-8.86141e-05 2.65564e-05 2.65962e-05 -9.94819e-06
-4.45064e-05 1.33179e-05 1.33665e-05 -1.06117e-05
-8.94207e-05 2.67976e-05 2.68385e-05 -9.94819e-06
-8.90174e-05 2.6677e-05 2.67173e-05 -9.94819e-06
-0.000132922 3.98563e-05 3.98854e-05 -8.84258e-06
-0.000131713 3.94942e-05 3.95223e-05 -8.84258e-06
-4.39007e-05 1.31375e-05 1.31842e-05 -1.06117e-05
-4.43045e-05 1.32578e-05 1.33057e-05 -1.06117e-05
-0.000132318 3.96752e-05 3.97039e-05 -8.84258e-06
-8.78075e-05 2.63152e-05 2.63538e-05 -9.94819e-06
-4.41026e-05 1.31977e-05 1.3245e-05 -1.06117e-05
-8.86141e-05 2.65564e-05 2.65962e-05 -9.94819e-06
-8.82108e-05 2.64358e-05 2.6475e-05 -9.94819e-06
-0.000131713 3.94942e-05 3.95223e-05 -8.84258e-06
-0.000130504 3.9132e-05 3.91592e-05 -8.84258e-06
-4.34969e-05 1.30172e-05 1.30627e-05 -1.06117e-05
-4.39007e-05 1.31375e-05 1.31842e-05 -1.06117e-05
-0.000131108 3.93131e-05 3.93408e-05 -8.84258e-06
-8.70009e-05 2.6074e-05 2.61115e-05 -9.9482e-06
-4.36988e-05 1.30774e-05 1.31235e-05 -1.06117e-05
-8.78075e-05 2.63152e-05 2.63538e-05 -9.94819e-06
-8.74042e-05 2.61946e-05 2.62327e-05 -9.94819e-06
-0.000130504 3.9132e-05 3.91592e-05 -8.84258e-06
-0.000129294 3.87699e-05 3.87961e-05 -8.84259e-06
-4.30931e-05 1.28969e-05 1.29412e-05 -1.06117e-05
-4.34969e-05 1.30172e-05 1.30627e-05 -1.06117e-05
-0.000129899 3.89509e-05 3.89777e-05 -8.84259e-06
-8.61943e-05 2.58327e-05 2.58692e-05 -9.9482e-06
-4.3295e-05 1.29571e-05 1.3002e-05 -1.06117e-05
-8.70009e-05 2.6074e-05 2.61115e-05 -9.9482e-06
-8.65976e-05 2.59534e-05 2.59904e-05 -9.9482e-06
-0.000129294 3.87699e-05 3.87961e-05 -8.84259e-06
-0.000128085 3.84077e-05 3.8433e-05 -8.84259e-06
-4.26893e-05 1.27766e-05 1.28197e-05 -1.06117e-05
-4.30931e-05 1.28969e-05 1.29412e-05 -1.06117e-05
-0.000128689 3.85888e-05 3.86146e-05 -8.84259e-06
-8.53877e-05 2.55915e-05 2.56269e-05 -9.9482e-06
-4.28912e-05 1.28368e-05 1.28805e-05 -1.06117e-05
-8.61943e-05 2.58327e-05 2.58692e-05 -9.9482e-06
-8.5791e-05 2.57121e-05 2.57481e-05 -9.9482e-06
-0.000128085 3.84077e-05 3.8433e-05 -8.84259e-06
-0.000126875 3.80455e-05 3.807e-05 -8.8426e-06
-4.22855e-05 1.26563e-05 1.26982e-05 -1.06117e-05
-4.26893e-05 1.27766e-05 1.28197e-05 -1.06117e-05
-0.00012748 3.82266e-05 3.82515e-05 -8.84259e-06
-8.45811e-05 2.53503e-05 2.53846e-05 -9.9482e-06
-4.24874e-05 1.27165e-05 1.2759e-05 -1.06117e-05
-8.53877e-05 2.55915e-05 2.56269e-05 -9.9482e-06
-8.49844e-05 2.54709e-05 2.55058e-05 -9.9482e-06
-0.000126875 3.80455e-05 3.807e-05 -8.8426e-06
-0.000125666 3.76834e-05 3.77069e-05 -8.8426e-06
-4.18818e-05 1.2536e-05 1.25768e-05 -1.06117e-05
-4.22855e-05 1.26563e-05 1.26982e-05 -1.06117e-05
-0.000126271 3.78645e-05 3.78884e-05 -8.8426e-06
-8.37746e-05 2.51091e-05 2.51423e-05 -9.9482e-06
-4.20837e-05 1.25962e-05 1.26375e-05 -1.06117e-05
-8.45811e-05 2.53503e-05 2.53846e-05 -9.9482e-06
-8.41778e-05 2.52297e-05 2.52635e-05 -9.9482e-06
-0.000125666 3.76834e-05 3.77069e-05 -8.8426e-06
-0.000124457 3.73212e-05 3.73438e-05 -8.8426e-06
-4.1478e-05 1.24157e-05 1.24553e-05 -1.06117e-05
-4.18818e-05 1.2536e-05 1.25768e-05 -1.06117e-05
-0.000125061 3.75023e-05 3.75253e-05 -8.8426e-06
-8.2968e-05 2.48678e-05 2.49001e-05 -9.94821e-06
-4.16799e-05 1.24758e-05 1.2516e-05 -1.06117e-05
-8.37746e-05 2.51091e-05 2.51423e-05 -9.9482e-06
-8.33713e-05 2.49885e-05 2.50212e-05 -9.9482e-06
-0.000124457 3.73212e-05 3.73438e-05 -8.8426e-06
-0.000123247 3.6959e-05 3.69807e-05 -8.84261e-06
-4.10743e-05 1.22954e-05 1.23338e-05 -1.06117e-05
-4.1478e-05 1.24157e-05 1.24553e-05 -1.06117e-05
-0.000123852 3.71401e-05 3.71623e-05 -8.84261e-06
-8.21614e-05 2.46266e-05 2.46578e-05 -9.94821e-06
-4.12761e-05 1.23555e-05 1.23946e-05 -1.06117e-05
-8.2968e-05 2.48678e-05 2.49001e-05 -9.94821e-06
-8.25647e-05 2.47472e-05 2.47789e-05 -9.94821e-06
-0.000123247 3.6959e-05 3.69807e-05 -8.84261e-06
-0.000122038 3.65969e-05 3.66177e-05 -8.84261e-06
-4.06705e-05 1.2175e-05 1.22124e-05 -1.06117e-05
-4.10743e-05 1.22954e-05 1.23338e-05 -1.06117e-05
-0.000122643 3.6778e-05 3.67992e-05 -8.84261e-06
-8.13549e-05 2.43854e-05 2.44155e-05 -9.94821e-06
-4.08724e-05 1.22352e-05 1.22731e-05 -1.06117e-05
-8.21614e-05 2.46266e-05 2.46578e-05 -9.94821e-06
-8.17582e-05 2.4506e-05 2.45366e-05 -9.94821e-06
-0.000122038 3.65969e-05 3.66177e-05 -8.84261e-06
-0.000120829 3.62347e-05 3.62546e-05 -8.84262e-06
-4.02668e-05 1.20547e-05 1.20909e-05 -1.06117e-05
-4.06705e-05 1.2175e-05 1.22124e-05 -1.06117e-05
-0.000121433 3.64158e-05 3.64361e-05 -8.84261e-06
-8.05484e-05 2.41441e-05 2.41732e-05 -9.94821e-06
-4.04687e-05 1.21149e-05 1.21516e-05 -1.06117e-05
-8.13549e-05 2.43854e-05 2.44155e-05 -9.94821e-06
-8.09516e-05 2.42647e-05 2.42944e-05 -9.94821e-06
-0.000120829 3.62347e-05 3.62546e-05 -8.84262e-06
-0.000119619 3.58725e-05 3.58916e-05 -8.84262e-06
-3.98631e-05 1.19344e-05 1.19694e-05 -1.06117e-05
-4.02668e-05 1.20547e-05 1.20909e-05 -1.06117e-05
-0.000120224 3.60536e-05 3.60731e-05 -8.84262e-06
-7.97418e-05 2.39029e-05 2.3931e-05 -9.94821e-06
-4.00649e-05 1.19945e-05 1.20302e-05 -1.06117e-05
-8.05484e-05 2.41441e-05 2.41732e-05 -9.94821e-06
-8.01451e-05 2.40235e-05 2.40521e-05 -9.94821e-06
-0.000119619 3.58725e-05 3.58916e-05 -8.84262e-06
-0.00011841 3.55103e-05 3.55285e-05 -8.84263e-06
-3.94594e-05 1.1814e-05 1.1848e-05 -1.06117e-05
-3.98631e-05 1.19344e-05 1.19694e-05 -1.06117e-05
-0.000119015 3.56914e-05 3.571e-05 -8.84262e-06
-7.89353e-05 2.36616e-05 2.36887e-05 -9.94822e-06
-3.96612e-05 1.18742e-05 1.19087e-05 -1.06117e-05
-7.97418e-05 2.39029e-05 2.3931e-05 -9.94821e-06
-7.93386e-05 2.37822e-05 2.38099e-05 -9.94821e-06
-0.00011841 3.55103e-05 3.55285e-05 -8.84263e-06
-0.000117201 3.51481e-05 3.51655e-05 -8.84263e-06
-3.90557e-05 1.16937e-05 1.17266e-05 -1.06117e-05
-3.94594e-05 1.1814e-05 1.1848e-05 -1.06117e-05
-0.000117806 3.53292e-05 3.5347e-05 -8.84263e-06
-7.81288e-05 2.34204e-05 2.34465e-05 -9.94822e-06
-3.92575e-05 1.17538e-05 1.17873e-05 -1.06117e-05
-7.89353e-05 2.36616e-05 2.36887e-05 -9.94822e-06
-7.85321e-05 2.3541e-05 2.35676e-05 -9.94822e-06
-0.000117201 3.51481e-05 3.51655e-05 -8.84263e-06
-0.000115992 3.47859e-05 3.48024e-05 -8.84263e-06
-3.8652e-05 1.15733e-05 1.16051e-05 -1.06117e-05
-3.90557e-05 1.16937e-05 1.17266e-05 -1.06117e-05
-0.000116596 3.4967e-05 3.49839e-05 -8.84263e-06
-7.73223e-05 2.31791e-05 2.32042e-05 -9.94822e-06
-3.88538e-05 1.16335e-05 1.16658e-05 -1.06117e-05
-7.81288e-05 2.34204e-05 2.34465e-05 -9.94822e-06
-7.77256e-05 2.32997e-05 2.33254e-05 -9.94822e-06
-0.000115992 3.47859e-05 3.48024e-05 -8.84263e-06
-0.000114782 3.44237e-05 3.44394e-05 -8.84264e-06
-3.82483e-05 1.1453e-05 1.14837e-05 -1.06117e-05
-3.8652e-05 1.15733e-05 1.16051e-05 -1.06117e-05
-0.000115387 3.46048e-05 3.46209e-05 -8.84264e-06
-7.65158e-05 2.29378e-05 2.2962e-05 -9.94822e-06
-3.84501e-05 1.15131e-05 1.15444e-05 -1.06117e-05
-7.73223e-05 2.31791e-05 2.32042e-05 -9.94822e-06
-7.69191e-05 2.30585e-05 2.30831e-05 -9.94822e-06
-0.000114782 3.44237e-05 3.44394e-05 -8.84264e-06
-0.000113573 3.40615e-05 3.40764e-05 -8.84264e-06
-3.78446e-05 1.13326e-05 1.13623e-05 -1.06117e-05
-3.82483e-05 1.1453e-05 1.14837e-05 -1.06117e-05
-0.000114178 3.42426e-05 3.42579e-05 -8.84264e-06
-7.57093e-05 2.26966e-05 2.27198e-05 -9.94822e-06
-3.80464e-05 1.13928e-05 1.1423e-05 -1.06117e-05
-7.65158e-05 2.29378e-05 2.2962e-05 -9.94822e-06
-7.61126e-05 2.28172e-05 2.28409e-05 -9.94822e-06
-0.000113573 3.40615e-05 3.40764e-05 -8.84264e-06
-0.000112364 3.36993e-05 3.37133e-05 -8.84265e-06
-3.74409e-05 1.12122e-05 1.12409e-05 -1.06117e-05
-3.78446e-05 1.13326e-05 1.13623e-05 -1.06117e-05
-0.000112968 3.38804e-05 3.38949e-05 -8.84264e-06
-7.49028e-05 2.24553e-05 2.24775e-05 -9.94823e-06
-3.76428e-05 1.12724e-05 1.13016e-05 -1.06117e-05
-7.57093e-05 2.26966e-05 2.27198e-05 -9.94822e-06
-7.53061e-05 2.25759e-05 2.25986e-05 -9.94822e-06
-0.000112364 3.36993e-05 3.37133e-05 -8.84265e-06
-0.000111155 3.33371e-05 3.33503e-05 -8.84265e-06
-3.70373e-05 1.10919e-05 1.11195e-05 -1.06117e-05
-3.74409e-05 1.12122e-05 1.12409e-05 -1.06117e-05
-0.000111759 3.35182e-05 3.35318e-05 -8.84265e-06
-7.40964e-05 2.2214e-05 2.22353e-05 -9.94823e-06
-3.72391e-05 1.11521e-05 1.11802e-05 -1.06117e-05
-7.49028e-05 2.24553e-05 2.24775e-05 -9.94823e-06
-7.44996e-05 2.23346e-05 2.23564e-05 -9.94823e-06
-0.000111155 3.33371e-05 3.33503e-05 -8.84265e-06
-0.000109945 3.29749e-05 3.29873e-05 -8.84265e-06
-3.66336e-05 1.09715e-05 1.0998e-05 -1.06117e-05
-3.70373e-05 1.10919e-05 1.11195e-05 -1.06117e-05
-0.00011055 3.3156e-05 3.31688e-05 -8.84265e-06
-7.32899e-05 2.19727e-05 2.19931e-05 -9.94823e-06
-3.68354e-05 1.10317e-05 1.10588e-05 -1.06117e-05
-7.40964e-05 2.2214e-05 2.22353e-05 -9.94823e-06
-7.36932e-05 2.20934e-05 2.21142e-05 -9.94823e-06
-0.000109945 3.29749e-05 3.29873e-05 -8.84265e-06
-0.000108736 3.26127e-05 3.26243e-05 -8.84266e-06
-3.623e-05 1.08511e-05 1.08767e-05 -1.06117e-05
-3.66336e-05 1.09715e-05 1.0998e-05 -1.06117e-05
-0.000109341 3.27938e-05 3.28058e-05 -8.84266e-06
-7.24835e-05 2.17314e-05 2.17509e-05 -9.94823e-06
-3.64318e-05 1.09113e-05 1.09373e-05 -1.06117e-05
-7.32899e-05 2.19727e-05 2.19931e-05 -9.94823e-06
-7.28867e-05 2.18521e-05 2.1872e-05 -9.94823e-06
-0.000108736 3.26127e-05 3.26243e-05 -8.84266e-06
-0.000107527 3.22504e-05 3.22613e-05 -8.84266e-06
-3.58263e-05 1.07307e-05 1.07553e-05 -1.06117e-05
-3.623e-05 1.08511e-05 1.08767e-05 -1.06117e-05
-0.000108131 3.24316e-05 3.24428e-05 -8.84266e-06
-7.1677e-05 2.14901e-05 2.15087e-05 -9.94823e-06
-3.60281e-05 1.07909e-05 1.0816e-05 -1.06117e-05
-7.24835e-05 2.17314e-05 2.17509e-05 -9.94823e-06
-7.20802e-05 2.16108e-05 2.16298e-05 -9.94823e-06
-0.000107527 3.22504e-05 3.22613e-05 -8.84266e-06
-0.000106318 3.18882e-05 3.18983e-05 -8.84267e-06
-3.54227e-05 1.06103e-05 1.06339e-05 -1.06117e-05
-3.58263e-05 1.07307e-05 1.07553e-05 -1.06117e-05
-0.000106922 3.20693e-05 3.20798e-05 -8.84267e-06
-7.08706e-05 2.12488e-05 2.12665e-05 -9.94824e-06
-3.56245e-05 1.06705e-05 1.06946e-05 -1.06117e-05
-7.1677e-05 2.14901e-05 2.15087e-05 -9.94823e-06
-7.12738e-05 2.13695e-05 2.13876e-05 -9.94824e-06
-0.000106318 3.18882e-05 3.18983e-05 -8.84267e-06
-0.000105108 3.1526e-05 3.15353e-05 -8.84267e-06
-3.50191e-05 1.04899e-05 1.05125e-05 -1.06117e-05
-3.54227e-05 1.06103e-05 1.06339e-05 -1.06117e-05
-0.000105713 3.17071e-05 3.17168e-05 -8.84267e-06
-7.00642e-05 2.10075e-05 2.10243e-05 -9.94824e-06
-3.52209e-05 1.05501e-05 1.05732e-05 -1.06117e-05
-7.08706e-05 2.12488e-05 2.12665e-05 -9.94824e-06
-7.04674e-05 2.11282e-05 2.11454e-05 -9.94824e-06
-0.000105108 3.1526e-05 3.15353e-05 -8.84267e-06
-0.000103899 3.11637e-05 3.11723e-05 -8.84268e-06
-3.46155e-05 1.03695e-05 1.03911e-05 -1.06117e-05
-3.50191e-05 1.04899e-05 1.05125e-05 -1.06117e-05
-0.000104504 3.13449e-05 3.13538e-05 -8.84267e-06
-6.92577e-05 2.07662e-05 2.07821e-05 -9.94824e-06
-3.48173e-05 1.04297e-05 1.04518e-05 -1.06117e-05
-7.00642e-05 2.10075e-05 2.10243e-05 -9.94824e-06
-6.9661e-05 2.08869e-05 2.09032e-05 -9.94824e-06
-0.000103899 3.11637e-05 3.11723e-05 -8.84268e-06
-0.00010269 3.08015e-05 3.08094e-05 -8.84268e-06
-3.42119e-05 1.02491e-05 1.02697e-05 -1.06117e-05
-3.46155e-05 1.03695e-05 1.03911e-05 -1.06117e-05
-0.000103295 3.09826e-05 3.09908e-05 -8.84268e-06
-6.84513e-05 2.05249e-05 2.05399e-05 -9.94824e-06
-3.44137e-05 1.03093e-05 1.03304e-05 -1.06117e-05
-6.92577e-05 2.07662e-05 2.07821e-05 -9.94824e-06
-6.88545e-05 2.06456e-05 2.0661e-05 -9.94824e-06
-0.00010269 3.08015e-05 3.08094e-05 -8.84268e-06
-0.000101481 3.04393e-05 3.04464e-05 -8.84269e-06
-3.38083e-05 1.01287e-05 1.01484e-05 -1.06117e-05
-3.42119e-05 1.02491e-05 1.02697e-05 -1.06117e-05
-0.000102085 3.06204e-05 3.06279e-05 -8.84268e-06
-6.76449e-05 2.02836e-05 2.02977e-05 -9.94825e-06
-3.40101e-05 1.01889e-05 1.02091e-05 -1.06117e-05
-6.84513e-05 2.05249e-05 2.05399e-05 -9.94824e-06
-6.80481e-05 2.04042e-05 2.04188e-05 -9.94824e-06
-0.000101481 3.04393e-05 3.04464e-05 -8.84269e-06
-0.000100272 3.0077e-05 3.00834e-05 -8.84269e-06
-3.34047e-05 1.00083e-05 1.0027e-05 -1.06117e-05
-3.38083e-05 1.01287e-05 1.01484e-05 -1.06117e-05
-0.000100876 3.02581e-05 3.02649e-05 -8.84269e-06
-6.68385e-05 2.00423e-05 2.00556e-05 -9.94825e-06
-3.36065e-05 1.00685e-05 1.00877e-05 -1.06117e-05
-6.76449e-05 2.02836e-05 2.02977e-05 -9.94825e-06
-6.72417e-05 2.01629e-05 2.01766e-05 -9.94825e-06
-0.000100272 3.0077e-05 3.00834e-05 -8.84269e-06
-9.90624e-05 2.97148e-05 2.97204e-05 -8.84269e-06
-3.30011e-05 9.88787e-06 9.90567e-06 -1.06117e-05
-3.34047e-05 1.00083e-05 1.0027e-05 -1.06117e-05
-9.9667e-05 2.98959e-05 2.99019e-05 -8.84269e-06
-6.60322e-05 1.98009e-05 1.98134e-05 -9.94825e-06
-3.32029e-05 9.94808e-06 9.96635e-06 -1.06117e-05
-6.68385e-05 2.00423e-05 2.00556e-05 -9.94825e-06
-6.64354e-05 1.99216e-05 1.99345e-05 -9.94825e-06
-9.90624e-05 2.97148e-05 2.97204e-05 -8.84269e-06
-9.78533e-05 2.93525e-05 2.93575e-05 -8.8427e-06
-3.25975e-05 9.76745e-06 9.78433e-06 -1.06117e-05
-3.30011e-05 9.88787e-06 9.90567e-06 -1.06117e-05
-9.84579e-05 2.95336e-05 2.9539e-05 -8.8427e-06
-6.52258e-05 1.95596e-05 1.95712e-05 -9.94825e-06
-3.27993e-05 9.82766e-06 9.845e-06 -1.06117e-05
-6.60322e-05 1.98009e-05 1.98134e-05 -9.94825e-06
-6.5629e-05 1.96803e-05 1.96923e-05 -9.94825e-06
-9.78533e-05 2.93525e-05 2.93575e-05 -8.8427e-06
-9.66441e-05 2.89902e-05 2.89945e-05 -8.8427e-06
-3.2194e-05 9.64701e-06 9.66299e-06 -1.06117e-05
-3.25975e-05 9.76745e-06 9.78433e-06 -1.06117e-05
-9.72487e-05 2.91714e-05 2.9176e-05 -8.8427e-06
-6.44194e-05 1.93183e-05 1.93291e-05 -9.94825e-06
-3.23958e-05 9.70723e-06 9.72365e-06 -1.06117e-05
-6.52258e-05 1.95596e-05 1.95712e-05 -9.94825e-06
-6.48226e-05 1.94389e-05 1.94501e-05 -9.94825e-06
-9.66441e-05 2.89902e-05 2.89945e-05 -8.8427e-06
-9.5435e-05 2.8628e-05 2.86316e-05 -8.84271e-06
-3.17904e-05 9.52658e-06 9.54165e-06 -1.06117e-05
-3.2194e-05 9.64701e-06 9.66299e-06 -1.06117e-05
-9.60396e-05 2.88091e-05 2.8813e-05 -8.84271e-06
-6.36131e-05 1.90769e-05 1.90869e-05 -9.94826e-06
-3.19922e-05 9.5868e-06 9.60232e-06 -1.06117e-05
-6.44194e-05 1.93183e-05 1.93291e-05 -9.94825e-06
-6.40162e-05 1.91976e-05 1.9208e-05 -9.94826e-06
-9.5435e-05 2.8628e-05 2.86316e-05 -8.84271e-06
-9.42258e-05 2.82657e-05 2.82686e-05 -8.84271e-06
-3.13869e-05 9.40613e-06 9.42032e-06 -1.06117e-05
-3.17904e-05 9.52658e-06 9.54165e-06 -1.06117e-05
-9.48304e-05 2.84468e-05 2.84501e-05 -8.84271e-06
-6.28067e-05 1.88356e-05 1.88448e-05 -9.94826e-06
-3.15887e-05 9.46636e-06 9.48099e-06 -1.06117e-05
-6.36131e-05 1.90769e-05 1.90869e-05 -9.94826e-06
-6.32099e-05 1.89562e-05 1.89658e-05 -9.94826e-06
-9.42258e-05 2.82657e-05 2.82686e-05 -8.84271e-06
-9.30167e-05 2.79034e-05 2.79057e-05 -8.84272e-06
-3.09834e-05 9.28569e-06 9.299e-06 -1.06117e-05
-3.13869e-05 9.40613e-06 9.42032e-06 -1.06117e-05
-9.36213e-05 2.80846e-05 2.80872e-05 -8.84271e-06
-6.20004e-05 1.85942e-05 1.86026e-05 -9.94826e-06
-3.11851e-05 9.34591e-06 9.35966e-06 -1.06117e-05
-6.28067e-05 1.88356e-05 1.88448e-05 -9.94826e-06
-6.24035e-05 1.87149e-05 1.87237e-05 -9.94826e-06
-9.30167e-05 2.79034e-05 2.79057e-05 -8.84272e-06
-9.18076e-05 2.75411e-05 2.75428e-05 -8.84272e-06
-3.05798e-05 9.16523e-06 9.17769e-06 -1.06117e-05
-3.09834e-05 9.28569e-06 9.299e-06 -1.06117e-05
-9.24121e-05 2.77223e-05 2.77242e-05 -8.84272e-06
-6.1194e-05 1.83529e-05 1.83605e-05 -9.94826e-06
-3.07816e-05 9.22546e-06 9.23834e-06 -1.06117e-05
-6.20004e-05 1.85942e-05 1.86026e-05 -9.94826e-06
-6.15972e-05 1.84735e-05 1.84816e-05 -9.94826e-06
-9.18076e-05 2.75411e-05 2.75428e-05 -8.84272e-06
-9.05985e-05 2.71789e-05 2.71798e-05 -8.84273e-06
-3.01763e-05 9.04477e-06 9.05638e-06 -1.06117e-05
-3.05798e-05 9.16523e-06 9.17769e-06 -1.06117e-05
-9.1203e-05 2.736e-05 2.73613e-05 -8.84272e-06
-6.03877e-05 1.81115e-05 1.81184e-05 -9.94827e-06
-3.03781e-05 9.105e-06 9.11703e-06 -1.06117e-05
-6.1194e-05 1.83529e-05 1.83605e-05 -9.94826e-06
-6.07909e-05 1.82322e-05 1.82394e-05 -9.94827e-06
-9.05985e-05 2.71789e-05 2.71798e-05 -8.84273e-06
-8.93894e-05 2.68166e-05 2.68169e-05 -8.84273e-06
-2.97728e-05 8.92431e-06 8.93507e-06 -1.06117e-05
-3.01763e-05 9.04477e-06 9.05638e-06 -1.06117e-05
-8.99939e-05 2.69977e-05 2.69984e-05 -8.84273e-06
-5.95814e-05 1.78701e-05 1.78763e-05 -9.94827e-06
-2.99746e-05 8.98454e-06 8.99572e-06 -1.06117e-05
-6.03877e-05 1.81115e-05 1.81184e-05 -9.94827e-06
-5.99846e-05 1.79908e-05 1.79973e-05 -9.94827e-06
-8.93894e-05 2.68166e-05 2.68169e-05 -8.84273e-06
-8.81803e-05 2.64543e-05 2.6454e-05 -8.84274e-06
-2.93693e-05 8.80384e-06 8.81378e-06 -1.06117e-05
-2.97728e-05 8.92431e-06 8.93507e-06 -1.06117e-05
-8.87848e-05 2.66354e-05 2.66354e-05 -8.84273e-06
-5.87751e-05 1.76288e-05 1.76341e-05 -9.94827e-06
-2.95711e-05 8.86408e-06 8.87442e-06 -1.06117e-05
-5.95814e-05 1.78701e-05 1.78763e-05 -9.94827e-06
-5.91782e-05 1.77495e-05 1.77552e-05 -9.94827e-06
-8.81803e-05 2.64543e-05 2.6454e-05 -8.84274e-06
-8.69712e-05 2.6092e-05 2.60911e-05 -8.84274e-06
-2.89658e-05 8.68337e-06 8.69248e-06 -1.06117e-05
-2.93693e-05 8.80384e-06 8.81378e-06 -1.06117e-05
-8.75757e-05 2.62731e-05 2.62725e-05 -8.84274e-06
-5.79688e-05 1.73874e-05 1.7392e-05 -9.94827e-06
-2.91676e-05 8.74361e-06 8.75313e-06 -1.06117e-05
-5.87751e-05 1.76288e-05 1.76341e-05 -9.94827e-06
-5.83719e-05 1.75081e-05 1.75131e-05 -9.94827e-06
-8.69712e-05 2.6092e-05 2.60911e-05 -8.84274e-06
-8.57621e-05 2.57297e-05 2.57282e-05 -8.84274e-06
-2.85623e-05 8.56289e-06 8.5712e-06 -1.06117e-05
-2.89658e-05 8.68337e-06 8.69248e-06 -1.06117e-05
-8.63666e-05 2.59108e-05 2.59096e-05 -8.84274e-06
-5.71625e-05 1.7146e-05 1.71499e-05 -9.94828e-06
-2.87641e-05 8.62313e-06 8.63184e-06 -1.06117e-05
-5.79688e-05 1.73874e-05 1.7392e-05 -9.94827e-06
-5.75657e-05 1.72667e-05 1.7271e-05 -9.94828e-06
-8.57621e-05 2.57297e-05 2.57282e-05 -8.84274e-06
-8.4553e-05 2.53674e-05 2.53653e-05 -8.84275e-06
-2.81589e-05 8.4424e-06 8.44992e-06 -1.06117e-05
-2.85623e-05 8.56289e-06 8.5712e-06 -1.06117e-05
-8.51575e-05 2.55485e-05 2.55467e-05 -8.84275e-06
-5.63562e-05 1.69046e-05 1.69078e-05 -9.94828e-06
-2.83606e-05 8.50265e-06 8.51056e-06 -1.06117e-05
-5.71625e-05 1.7146e-05 1.71499e-05 -9.94828e-06
-5.67594e-05 1.70253e-05 1.70289e-05 -9.94828e-06
-8.4553e-05 2.53674e-05 2.53653e-05 -8.84275e-06
-8.33439e-05 2.50051e-05 2.50024e-05 -8.84275e-06
-2.77554e-05 8.32191e-06 8.32864e-06 -1.06117e-05
-2.81589e-05 8.4424e-06 8.44992e-06 -1.06117e-05
-8.39485e-05 2.51862e-05 2.51838e-05 -8.84275e-06
-5.555e-05 1.66632e-05 1.66657e-05 -9.94828e-06
-2.79571e-05 8.38216e-06 8.38928e-06 -1.06117e-05
-5.63562e-05 1.69046e-05 1.69078e-05 -9.94828e-06
-5.59531e-05 1.67839e-05 1.67868e-05 -9.94828e-06
-8.33439e-05 2.50051e-05 2.50024e-05 -8.84275e-06
-8.21349e-05 2.46428e-05 2.46395e-05 -8.84276e-06
-2.7352e-05 8.20142e-06 8.20738e-06 -1.06117e-05
-2.77554e-05 8.32191e-06 8.32864e-06 -1.06117e-05
-8.27394e-05 2.48239e-05 2.48209e-05 -8.84276e-06
-5.47437e-05 1.64218e-05 1.64237e-05 -9.94829e-06
-2.75537e-05 8.26167e-06 8.26801e-06 -1.06117e-05
-5.555e-05 1.66632e-05 1.66657e-05 -9.94828e-06
-5.51468e-05 1.65425e-05 1.65447e-05 -9.94828e-06
-8.21349e-05 2.46428e-05 2.46395e-05 -8.84276e-06
-8.09258e-05 2.42805e-05 2.42766e-05 -8.84276e-06
-2.69485e-05 8.08092e-06 8.08612e-06 -1.06117e-05
-2.7352e-05 8.20142e-06 8.20738e-06 -1.06117e-05
-8.15304e-05 2.44616e-05 2.4458e-05 -8.84276e-06
-5.39374e-05 1.61804e-05 1.61816e-05 -9.94829e-06
-2.71502e-05 8.14117e-06 8.14675e-06 -1.06117e-05
-5.47437e-05 1.64218e-05 1.64237e-05 -9.94829e-06
-5.43406e-05 1.63011e-05 1.63026e-05 -9.94829e-06
-8.09258e-05 2.42805e-05 2.42766e-05 -8.84276e-06
-7.97168e-05 2.39181e-05 2.39137e-05 -8.84277e-06
-2.65451e-05 7.96041e-06 7.96486e-06 -1.06117e-05
-2.69485e-05 8.08092e-06 8.08612e-06 -1.06117e-05
-8.03213e-05 2.40993e-05 2.40951e-05 -8.84277e-06
-5.31312e-05 1.5939e-05 1.59395e-05 -9.94829e-06
-2.67468e-05 8.02067e-06 8.02549e-06 -1.06117e-05
-5.39374e-05 1.61804e-05 1.61816e-05 -9.94829e-06
-5.35343e-05 1.60597e-05 1.60605e-05 -9.94829e-06
-7.97168e-05 2.39181e-05 2.39137e-05 -8.84277e-06
-7.85078e-05 2.35558e-05 2.35508e-05 -8.84277e-06
-2.61417e-05 7.8399e-06 7.84361e-06 -1.06117e-05
-2.65451e-05 7.96041e-06 7.96486e-06 -1.06117e-05
-7.91123e-05 2.3737e-05 2.37323e-05 -8.84277e-06
-5.2325e-05 1.56976e-05 1.56974e-05 -9.94829e-06
-2.63434e-05 7.90016e-06 7.90423e-06 -1.06117e-05
-5.31312e-05 1.5939e-05 1.59395e-05 -9.94829e-06
-5.27281e-05 1.58183e-05 1.58185e-05 -9.94829e-06
-7.85078e-05 2.35558e-05 2.35508e-05 -8.84277e-06
-7.72987e-05 2.31935e-05 2.3188e-05 -8.84278e-06
-2.57382e-05 7.71939e-06 7.72237e-06 -1.06117e-05
-2.61417e-05 7.8399e-06 7.84361e-06 -1.06117e-05
-7.79032e-05 2.33746e-05 2.33694e-05 -8.84278e-06
-5.15187e-05 1.54562e-05 1.54554e-05 -9.9483e-06
-2.594e-05 7.77964e-06 7.78299e-06 -1.06117e-05
-5.2325e-05 1.56976e-05 1.56974e-05 -9.94829e-06
-5.19218e-05 1.55769e-05 1.55764e-05 -9.94829e-06
-7.72987e-05 2.31935e-05 2.3188e-05 -8.84278e-06
-7.60897e-05 2.28311e-05 2.28251e-05 -8.84278e-06
-2.53348e-05 7.59886e-06 7.60113e-06 -1.06117e-05
-2.57382e-05 7.71939e-06 7.72237e-06 -1.06117e-05
-7.66942e-05 2.30123e-05 2.30065e-05 -8.84278e-06
-5.07125e-05 1.52148e-05 1.52133e-05 -9.9483e-06
-2.55365e-05 7.65913e-06 7.66175e-06 -1.06117e-05
-5.15187e-05 1.54562e-05 1.54554e-05 -9.9483e-06
-5.11156e-05 1.53355e-05 1.53343e-05 -9.9483e-06
-7.60897e-05 2.28311e-05 2.28251e-05 -8.84278e-06
-7.48807e-05 2.24688e-05 2.24622e-05 -8.84279e-06
-2.49314e-05 7.47834e-06 7.4799e-06 -1.06117e-05
-2.53348e-05 7.59886e-06 7.60113e-06 -1.06117e-05
-7.54852e-05 2.265e-05 2.26437e-05 -8.84279e-06
-4.99063e-05 1.49734e-05 1.49713e-05 -9.9483e-06
-2.51331e-05 7.5386e-06 7.54051e-06 -1.06117e-05
-5.07125e-05 1.52148e-05 1.52133e-05 -9.9483e-06
-5.03094e-05 1.50941e-05 1.50923e-05 -9.9483e-06
-7.48807e-05 2.24688e-05 2.24622e-05 -8.84279e-06
-7.36717e-05 2.21065e-05 2.20994e-05 -8.84279e-06
-2.4528e-05 7.3578e-06 7.35868e-06 -1.06117e-05
-2.49314e-05 7.47834e-06 7.4799e-06 -1.06117e-05
-7.42762e-05 2.22876e-05 2.22808e-05 -8.84279e-06
-4.91001e-05 1.47319e-05 1.47292e-05 -9.9483e-06
-2.47297e-05 7.41807e-06 7.41929e-06 -1.06117e-05
-4.99063e-05 1.49734e-05 1.49713e-05 -9.9483e-06
-4.95032e-05 1.48526e-05 1.48502e-05 -9.9483e-06
-7.36717e-05 2.21065e-05 2.20994e-05 -8.84279e-06
-7.24627e-05 2.17441e-05 2.17365e-05 -8.8428e-06
-2.41247e-05 7.23727e-06 7.23746e-06 -1.06117e-05
-2.4528e-05 7.3578e-06 7.35868e-06 -1.06117e-05
-7.30672e-05 2.19253e-05 2.1918e-05 -8.8428e-06
-4.82939e-05 1.44905e-05 1.44872e-05 -9.94831e-06
-2.43264e-05 7.29754e-06 7.29807e-06 -1.06117e-05
-4.91001e-05 1.47319e-05 1.47292e-05 -9.9483e-06
-4.8697e-05 1.46112e-05 1.46082e-05 -9.94831e-06
-7.24627e-05 2.17441e-05 2.17365e-05 -8.8428e-06
-7.12537e-05 2.13818e-05 2.13737e-05 -8.8428e-06
-2.37213e-05 7.11672e-06 7.11624e-06 -1.06117e-05
-2.41247e-05 7.23727e-06 7.23746e-06 -1.06117e-05
-7.18582e-05 2.15629e-05 2.15551e-05 -8.8428e-06
-4.74877e-05 1.4249e-05 1.42451e-05 -9.94831e-06
-2.3923e-05 7.177e-06 7.17685e-06 -1.06117e-05
-4.82939e-05 1.44905e-05 1.44872e-05 -9.94831e-06
-4.78908e-05 1.43698e-05 1.43662e-05 -9.94831e-06
-7.12537e-05 2.13818e-05 2.13737e-05 -8.8428e-06
-7.00448e-05 2.10194e-05 2.10109e-05 -8.84281e-06
-2.33179e-05 6.99617e-06 6.99504e-06 -1.06117e-05
-2.37213e-05 7.11672e-06 7.11624e-06 -1.06117e-05
-7.06492e-05 2.12006e-05 2.11923e-05 -8.84281e-06
-4.66815e-05 1.40076e-05 1.40031e-05 -9.94831e-06
-2.35196e-05 7.05645e-06 7.05564e-06 -1.06117e-05
-4.74877e-05 1.4249e-05 1.42451e-05 -9.94831e-06
-4.70846e-05 1.41283e-05 1.41241e-05 -9.94831e-06
-7.00448e-05 2.10194e-05 2.10109e-05 -8.84281e-06
-6.88358e-05 2.0657e-05 2.0648e-05 -8.84281e-06
-2.29146e-05 6.87562e-06 6.87384e-06 -1.06117e-05
-2.33179e-05 6.99617e-06 6.99504e-06 -1.06117e-05
-6.94403e-05 2.08382e-05 2.08294e-05 -8.84281e-06
-4.58754e-05 1.37661e-05 1.37611e-05 -9.94832e-06
-2.31163e-05 6.9359e-06 6.93444e-06 -1.06117e-05
-4.66815e-05 1.40076e-05 1.40031e-05 -9.94831e-06
-4.62785e-05 1.38869e-05 1.38821e-05 -9.94832e-06
-6.88358e-05 2.0657e-05 2.0648e-05 -8.84281e-06
-6.76268e-05 2.02947e-05 2.02852e-05 -8.84282e-06
-2.25112e-05 6.75506e-06 6.75264e-06 -1.06117e-05
-2.29146e-05 6.87562e-06 6.87384e-06 -1.06117e-05
-6.82313e-05 2.04759e-05 2.04666e-05 -8.84282e-06
-4.50692e-05 1.35247e-05 1.35191e-05 -9.94832e-06
-2.27129e-05 6.81534e-06 6.81324e-06 -1.06117e-05
-4.58754e-05 1.37661e-05 1.37611e-05 -9.94832e-06
-4.54723e-05 1.36454e-05 1.36401e-05 -9.94832e-06
-6.76268e-05 2.02947e-05 2.02852e-05 -8.84282e-06
-6.64179e-05 1.99323e-05 1.99224e-05 -8.84282e-06
-2.21079e-05 6.6345e-06 6.63146e-06 -1.06117e-05
-2.25112e-05 6.75506e-06 6.75264e-06 -1.06117e-05
-6.70223e-05 2.01135e-05 2.01038e-05 -8.84282e-06
-4.42631e-05 1.32832e-05 1.32771e-05 -9.94832e-06
-2.23096e-05 6.69478e-06 6.69205e-06 -1.06117e-05
-4.50692e-05 1.35247e-05 1.35191e-05 -9.94832e-06
-4.46661e-05 1.3404e-05 1.33981e-05 -9.94832e-06
-6.64179e-05 1.99323e-05 1.99224e-05 -8.84282e-06
-6.52089e-05 1.95699e-05 1.95596e-05 -8.84283e-06
-2.17046e-05 6.51393e-06 6.51027e-06 -1.06117e-05
-2.21079e-05 6.6345e-06 6.63146e-06 -1.06117e-05
-6.58134e-05 1.97511e-05 1.9741e-05 -8.84283e-06
-4.34569e-05 1.30418e-05 1.30351e-05 -9.94833e-06
-2.19062e-05 6.57421e-06 6.57086e-06 -1.06117e-05
-4.42631e-05 1.32832e-05 1.32771e-05 -9.94832e-06
-4.386e-05 1.31625e-05 1.31561e-05 -9.94832e-06
-6.52089e-05 1.95699e-05 1.95596e-05 -8.84283e-06
-6.4e-05 1.92076e-05 1.91968e-05 -8.84283e-06
-2.13012e-05 6.39335e-06 6.3891e-06 -1.06117e-05
-2.17046e-05 6.51393e-06 6.51027e-06 -1.06117e-05
-6.46045e-05 1.93887e-05 1.93782e-05 -8.84283e-06
-4.26508e-05 1.28003e-05 1.27931e-05 -9.94833e-06
-2.15029e-05 6.45364e-06 6.44969e-06 -1.06117e-05
-4.34569e-05 1.30418e-05 1.30351e-05 -9.94833e-06
-4.30539e-05 1.2921e-05 1.29141e-05 -9.94833e-06
-6.4e-05 1.92076e-05 1.91968e-05 -8.84283e-06
-6.27911e-05 1.88452e-05 1.8834e-05 -8.84284e-06
-2.08979e-05 6.27277e-06 6.26793e-06 -1.06117e-05
-2.13012e-05 6.39335e-06 6.3891e-06 -1.06117e-05
-6.33955e-05 1.90264e-05 1.90154e-05 -8.84284e-06
-4.18447e-05 1.25588e-05 1.25511e-05 -9.94833e-06
-2.10996e-05 6.33306e-06 6.32851e-06 -1.06117e-05
-4.26508e-05 1.28003e-05 1.27931e-05 -9.94833e-06
-4.22477e-05 1.26796e-05 1.26721e-05 -9.94833e-06
-6.27911e-05 1.88452e-05 1.8834e-05 -8.84284e-06
-6.15821e-05 1.84828e-05 1.84712e-05 -8.84284e-06
-2.04946e-05 6.15218e-06 6.14677e-06 -1.06117e-05
-2.08979e-05 6.27277e-06 6.26793e-06 -1.06117e-05
-6.21866e-05 1.8664e-05 1.86526e-05 -8.84284e-06
-4.10385e-05 1.23173e-05 1.23091e-05 -9.94834e-06
-2.06963e-05 6.21248e-06 6.20735e-06 -1.06117e-05
-4.18447e-05 1.25588e-05 1.25511e-05 -9.94833e-06
-4.14416e-05 1.24381e-05 1.24301e-05 -9.94833e-06
-6.15821e-05 1.84828e-05 1.84712e-05 -8.84284e-06
-6.03732e-05 1.81204e-05 1.81084e-05 -8.84285e-06
-2.00913e-05 6.03159e-06 6.02561e-06 -1.06117e-05
-2.04946e-05 6.15218e-06 6.14677e-06 -1.06117e-05
-6.09777e-05 1.83016e-05 1.82898e-05 -8.84285e-06
-4.02324e-05 1.20759e-05 1.20671e-05 -9.94834e-06
-2.0293e-05 6.09189e-06 6.08619e-06 -1.06117e-05
-4.10385e-05 1.23173e-05 1.23091e-05 -9.94834e-06
-4.06355e-05 1.21966e-05 1.21881e-05 -9.94834e-06
-6.03732e-05 1.81204e-05 1.81084e-05 -8.84285e-06
-5.91643e-05 1.7758e-05 1.77456e-05 -8.84285e-06
-1.96881e-05 5.91099e-06 5.90446e-06 -1.06117e-05
-2.00913e-05 6.03159e-06 6.02561e-06 -1.06117e-05
-5.97688e-05 1.79392e-05 1.7927e-05 -8.84285e-06
-3.94263e-05 1.18344e-05 1.18251e-05 -9.94834e-06
-1.98897e-05 5.97129e-06 5.96503e-06 -1.06117e-05
-4.02324e-05 1.20759e-05 1.20671e-05 -9.94834e-06
-3.98294e-05 1.19551e-05 1.19461e-05 -9.94834e-06
-5.91643e-05 1.7758e-05 1.77456e-05 -8.84285e-06
-5.79554e-05 1.73956e-05 1.73828e-05 -8.84286e-06
-1.92848e-05 5.79039e-06 5.78332e-06 -1.06117e-05
-1.96881e-05 5.91099e-06 5.90446e-06 -1.06117e-05
-5.85599e-05 1.75768e-05 1.75642e-05 -8.84286e-06
-3.86203e-05 1.15929e-05 1.15832e-05 -9.94835e-06
-1.94864e-05 5.85069e-06 5.84389e-06 -1.06117e-05
-3.94263e-05 1.18344e-05 1.18251e-05 -9.94834e-06
-3.90233e-05 1.17136e-05 1.17042e-05 -9.94834e-06
-5.79554e-05 1.73956e-05 1.73828e-05 -8.84286e-06
-5.67466e-05 1.70332e-05 1.702e-05 -8.84286e-06
-1.88815e-05 5.66978e-06 5.66218e-06 -1.06117e-05
-1.92848e-05 5.79039e-06 5.78332e-06 -1.06117e-05
-5.7351e-05 1.72144e-05 1.72014e-05 -8.84286e-06
-3.78142e-05 1.13514e-05 1.13412e-05 -9.94835e-06
-1.90832e-05 5.73008e-06 5.72275e-06 -1.06117e-05
-3.86203e-05 1.15929e-05 1.15832e-05 -9.94835e-06
-3.82172e-05 1.14721e-05 1.14622e-05 -9.94835e-06
-5.67466e-05 1.70332e-05 1.702e-05 -8.84286e-06
-5.55377e-05 1.66708e-05 1.66572e-05 -8.84287e-06
-1.84783e-05 5.54917e-06 5.54105e-06 -1.06117e-05
-1.88815e-05 5.66978e-06 5.66218e-06 -1.06117e-05
-5.61421e-05 1.6852e-05 1.68386e-05 -8.84287e-06
-3.70081e-05 1.11099e-05 1.10993e-05 -9.94835e-06
-1.86799e-05 5.60947e-06 5.60161e-06 -1.06117e-05
-3.78142e-05 1.13514e-05 1.13412e-05 -9.94835e-06
-3.74111e-05 1.12306e-05 1.12202e-05 -9.94835e-06
-5.55377e-05 1.66708e-05 1.66572e-05 -8.84287e-06
-5.43288e-05 1.63084e-05 1.62945e-05 -8.84288e-06
-1.8075e-05 5.42855e-06 5.41992e-06 -1.06117e-05
-1.84783e-05 5.54917e-06 5.54105e-06 -1.06117e-05
-5.49332e-05 1.64896e-05 1.64759e-05 -8.84287e-06
-3.6202e-05 1.08683e-05 1.08573e-05 -9.94836e-06
-1.82767e-05 5.48886e-06 5.48048e-06 -1.06117e-05
-3.70081e-05 1.11099e-05 1.10993e-05 -9.94835e-06
-3.66051e-05 1.09891e-05 1.09783e-05 -9.94835e-06
-5.43288e-05 1.63084e-05 1.62945e-05 -8.84288e-06
-5.312e-05 1.59459e-05 1.59317e-05 -8.84288e-06
-1.76718e-05 5.30792e-06 5.2988e-06 -1.06117e-05
-1.8075e-05 5.42855e-06 5.41992e-06 -1.06117e-05
-5.37244e-05 1.61272e-05 1.61131e-05 -8.84288e-06
-3.5396e-05 1.06268e-05 1.06154e-05 -9.94836e-06
-1.78734e-05 5.36823e-06 5.35936e-06 -1.06117e-05
-3.6202e-05 1.08683e-05 1.08573e-05 -9.94836e-06
-3.5799e-05 1.07476e-05 1.07363e-05 -9.94836e-06
-5.312e-05 1.59459e-05 1.59317e-05 -8.84288e-06
-5.19111e-05 1.55835e-05 1.5569e-05 -8.84289e-06
-1.72686e-05 5.18729e-06 5.17769e-06 -1.06117e-05
-1.76718e-05 5.30792e-06 5.2988e-06 -1.06117e-05
-5.25155e-05 1.57647e-05 1.57503e-05 -8.84288e-06
-3.45899e-05 1.03853e-05 1.03734e-05 -9.94836e-06
-1.74702e-05 5.24761e-06 5.23824e-06 -1.06117e-05
-3.5396e-05 1.06268e-05 1.06154e-05 -9.94836e-06
-3.4993e-05 1.05061e-05 1.04944e-05 -9.94836e-06
-5.19111e-05 1.55835e-05 1.5569e-05 -8.84289e-06
-5.07023e-05 1.52211e-05 1.52062e-05 -8.84289e-06
-1.68653e-05 5.06665e-06 5.05658e-06 -1.06117e-05
-1.72686e-05 5.18729e-06 5.17769e-06 -1.06117e-05
-5.13067e-05 1.54023e-05 1.53876e-05 -8.84289e-06
-3.37839e-05 1.01438e-05 1.01315e-05 -9.94837e-06
-1.7067e-05 5.12697e-06 5.11713e-06 -1.06117e-05
-3.45899e-05 1.03853e-05 1.03734e-05 -9.94836e-06
-3.41869e-05 1.02645e-05 1.02525e-05 -9.94836e-06
-5.07023e-05 1.52211e-05 1.52062e-05 -8.84289e-06
-4.94934e-05 1.48587e-05 1.48435e-05 -8.8429e-06
-1.64621e-05 4.94601e-06 4.93548e-06 -1.06117e-05
-1.68653e-05 5.06665e-06 5.05658e-06 -1.06117e-05
-5.00978e-05 1.50399e-05 1.50248e-05 -8.84289e-06
-3.29779e-05 9.90224e-06 9.88956e-06 -9.94837e-06
-1.66637e-05 5.00633e-06 4.99603e-06 -1.06117e-05
-3.37839e-05 1.01438e-05 1.01315e-05 -9.94837e-06
-3.33809e-05 1.0023e-05 1.00105e-05 -9.94837e-06
-4.94934e-05 1.48587e-05 1.48435e-05 -8.8429e-06
-4.82846e-05 1.44962e-05 1.44807e-05 -8.8429e-06
-1.60589e-05 4.82536e-06 4.81439e-06 -1.06117e-05
-1.64621e-05 4.94601e-06 4.93548e-06 -1.06117e-05
-4.8889e-05 1.46774e-05 1.46621e-05 -8.8429e-06
-3.21719e-05 9.6607e-06 9.64764e-06 -9.94837e-06
-1.62605e-05 4.88569e-06 4.87493e-06 -1.06117e-05
-3.29779e-05 9.90224e-06 9.88956e-06 -9.94837e-06
-3.25749e-05 9.78147e-06 9.7686e-06 -9.94837e-06
-4.82846e-05 1.44962e-05 1.44807e-05 -8.8429e-06
-4.70758e-05 1.41338e-05 1.4118e-05 -8.84291e-06
-1.56557e-05 4.70471e-06 4.6933e-06 -1.06117e-05
-1.60589e-05 4.82536e-06 4.81439e-06 -1.06117e-05
-4.76802e-05 1.4315e-05 1.42994e-05 -8.84291e-06
-3.13659e-05 9.41916e-06 9.40573e-06 -9.94838e-06
-1.58573e-05 4.76504e-06 4.75384e-06 -1.06117e-05
-3.21719e-05 9.6607e-06 9.64764e-06 -9.94837e-06
-3.17689e-05 9.53993e-06 9.52668e-06 -9.94838e-06
-4.70758e-05 1.41338e-05 1.4118e-05 -8.84291e-06
-4.5867e-05 1.37713e-05 1.37553e-05 -8.84291e-06
-1.52526e-05 4.58405e-06 4.57222e-06 -1.06117e-05
-1.56557e-05 4.70471e-06 4.6933e-06 -1.06117e-05
-4.64714e-05 1.39526e-05 1.39366e-05 -8.84291e-06
-3.05599e-05 9.17761e-06 9.16382e-06 -9.94838e-06
-1.54542e-05 4.64438e-06 4.63276e-06 -1.06117e-05
-3.13659e-05 9.41916e-06 9.40573e-06 -9.94838e-06
-3.09629e-05 9.29838e-06 9.28477e-06 -9.94838e-06
-4.5867e-05 1.37713e-05 1.37553e-05 -8.84291e-06
-4.46582e-05 1.34089e-05 1.33926e-05 -8.84292e-06
-1.48494e-05 4.46339e-06 4.45114e-06 -1.06117e-05
-1.52526e-05 4.58405e-06 4.57222e-06 -1.06117e-05
-4.52626e-05 1.35901e-05 1.35739e-05 -8.84292e-06
-2.97539e-05 8.93606e-06 8.92192e-06 -9.94838e-06
-1.5051e-05 4.52372e-06 4.51168e-06 -1.06117e-05
-3.05599e-05 9.17761e-06 9.16382e-06 -9.94838e-06
-3.01569e-05 9.05683e-06 9.04287e-06 -9.94838e-06
-4.46582e-05 1.34089e-05 1.33926e-05 -8.84292e-06
-4.34494e-05 1.30464e-05 1.30298e-05 -8.84293e-06
-1.44462e-05 4.34272e-06 4.33007e-06 -1.06117e-05
-1.48494e-05 4.46339e-06 4.45114e-06 -1.06117e-05
-4.40538e-05 1.32276e-05 1.32112e-05 -8.84292e-06
-2.89479e-05 8.6945e-06 8.68002e-06 -9.94839e-06
-1.46478e-05 4.40305e-06 4.39061e-06 -1.06117e-05
-2.97539e-05 8.93606e-06 8.92192e-06 -9.94838e-06
-2.93509e-05 8.81528e-06 8.80097e-06 -9.94839e-06
-4.34494e-05 1.30464e-05 1.30298e-05 -8.84293e-06
-4.22406e-05 1.2684e-05 1.26671e-05 -8.84293e-06
-1.40431e-05 4.22204e-06 4.20901e-06 -1.06117e-05
-1.44462e-05 4.34272e-06 4.33007e-06 -1.06117e-05
-4.2845e-05 1.28652e-05 1.28485e-05 -8.84293e-06
-2.81419e-05 8.45293e-06 8.43813e-06 -9.94839e-06
-1.42446e-05 4.28238e-06 4.26954e-06 -1.06117e-05
-2.89479e-05 8.6945e-06 8.68002e-06 -9.94839e-06
-2.85449e-05 8.57372e-06 8.55908e-06 -9.94839e-06
-4.22406e-05 1.2684e-05 1.26671e-05 -8.84293e-06
-4.10318e-05 1.23215e-05 1.23044e-05 -8.84294e-06
-1.36399e-05 4.10136e-06 4.08796e-06 -1.06117e-05
-1.40431e-05 4.22204e-06 4.20901e-06 -1.06117e-05
-4.16362e-05 1.25027e-05 1.24858e-05 -8.84293e-06
-2.73359e-05 8.21136e-06 8.19625e-06 -9.9484e-06
-1.38415e-05 4.1617e-06 4.14848e-06 -1.06117e-05
-2.81419e-05 8.45293e-06 8.43813e-06 -9.94839e-06
-2.77389e-05 8.33215e-06 8.31719e-06 -9.94839e-06
-4.10318e-05 1.23215e-05 1.23044e-05 -8.84294e-06
-3.9823e-05 1.1959e-05 1.19417e-05 -8.84294e-06
-1.32368e-05 3.98068e-06 3.96691e-06 -1.06117e-05
-1.36399e-05 4.10136e-06 4.08796e-06 -1.06117e-05
-4.04274e-05 1.21403e-05 1.21231e-05 -8.84294e-06
-2.653e-05 7.96979e-06 7.95437e-06 -9.9484e-06
-1.34384e-05 4.04102e-06 4.02743e-06 -1.06117e-05
-2.73359e-05 8.21136e-06 8.19625e-06 -9.9484e-06
-2.6933e-05 8.09058e-06 8.07531e-06 -9.9484e-06
-3.9823e-05 1.1959e-05 1.19417e-05 -8.84294e-06
-3.86143e-05 1.15965e-05 1.1579e-05 -8.84295e-06
-1.28337e-05 3.85998e-06 3.84586e-06 -1.06117e-05
-1.32368e-05 3.98068e-06 3.96691e-06 -1.06117e-05
-3.92187e-05 1.17778e-05 1.17604e-05 -8.84295e-06
-2.5724e-05 7.72821e-06 7.7125e-06 -9.9484e-06
-1.30352e-05 3.92033e-06 3.90638e-06 -1.06117e-05
-2.653e-05 7.96979e-06 7.95437e-06 -9.9484e-06
-2.6127e-05 7.849e-06 7.83343e-06 -9.9484e-06
-3.86143e-05 1.15965e-05 1.1579e-05 -8.84295e-06
-3.74055e-05 1.12341e-05 1.12163e-05 -8.84295e-06
-1.24305e-05 3.73928e-06 3.72482e-06 -1.06117e-05
-1.28337e-05 3.85998e-06 3.84586e-06 -1.06117e-05
-3.80099e-05 1.14153e-05 1.13977e-05 -8.84295e-06
-2.49181e-05 7.48662e-06 7.47063e-06 -9.94841e-06
-1.26321e-05 3.79963e-06 3.78534e-06 -1.06117e-05
-2.5724e-05 7.72821e-06 7.7125e-06 -9.9484e-06
-2.53211e-05 7.60742e-06 7.59156e-06 -9.94841e-06
-3.74055e-05 1.12341e-05 1.12163e-05 -8.84295e-06
-3.61968e-05 1.08716e-05 1.08537e-05 -8.84296e-06
-1.20274e-05 3.61858e-06 3.60379e-06 -1.06117e-05
-1.24305e-05 3.73928e-06 3.72482e-06 -1.06117e-05
-3.68012e-05 1.10528e-05 1.1035e-05 -8.84296e-06
-2.41122e-05 7.24503e-06 7.22877e-06 -9.94841e-06
-1.2229e-05 3.67893e-06 3.66431e-06 -1.06117e-05
-2.49181e-05 7.48662e-06 7.47063e-06 -9.94841e-06
-2.45151e-05 7.36583e-06 7.3497e-06 -9.94841e-06
-3.61968e-05 1.08716e-05 1.08537e-05 -8.84296e-06
-3.49881e-05 1.05091e-05 1.0491e-05 -8.84297e-06
-1.16243e-05 3.49787e-06 3.48277e-06 -1.06117e-05
-1.20274e-05 3.61858e-06 3.60379e-06 -1.06117e-05
-3.55924e-05 1.06903e-05 1.06723e-05 -8.84296e-06
-2.33062e-05 7.00343e-06 6.98692e-06 -9.94841e-06
-1.18259e-05 3.55823e-06 3.54328e-06 -1.06117e-05
-2.41122e-05 7.24503e-06 7.22877e-06 -9.94841e-06
-2.37092e-05 7.12423e-06 7.10785e-06 -9.94841e-06
-3.49881e-05 1.05091e-05 1.0491e-05 -8.84297e-06
-3.37793e-05 1.01466e-05 1.01283e-05 -8.84297e-06
-1.12212e-05 3.37715e-06 3.36175e-06 -1.06117e-05
-1.16243e-05 3.49787e-06 3.48277e-06 -1.06117e-05
-3.43837e-05 1.03278e-05 1.03097e-05 -8.84297e-06
-2.25003e-05 6.76183e-06 6.74507e-06 -9.94842e-06
-1.14228e-05 3.43751e-06 3.42226e-06 -1.06117e-05
-2.33062e-05 7.00343e-06 6.98692e-06 -9.94841e-06
-2.29033e-05 6.88263e-06 6.866e-06 -9.94842e-06
-3.37793e-05 1.01466e-05 1.01283e-05 -8.84297e-06
-3.25706e-05 9.7841e-06 9.76565e-06 -8.84298e-06
-1.08182e-05 3.25643e-06 3.24074e-06 -1.06117e-05
-1.12212e-05 3.37715e-06 3.36175e-06 -1.06117e-05
-3.3175e-05 9.96535e-06 9.94698e-06 -8.84297e-06
-2.16944e-05 6.52022e-06 6.50323e-06 -9.94842e-06
-1.10197e-05 3.31679e-06 3.30124e-06 -1.06117e-05
-2.25003e-05 6.76183e-06 6.74507e-06 -9.94842e-06
-2.20974e-05 6.64103e-06 6.62415e-06 -9.94842e-06
-3.25706e-05 9.7841e-06 9.76565e-06 -8.84298e-06
-3.13619e-05 9.42159e-06 9.40299e-06 -8.84298e-06
-1.04151e-05 3.1357e-06 3.11973e-06 -1.06117e-05
-1.08182e-05 3.25643e-06 3.24074e-06 -1.06117e-05
-3.19663e-05 9.60285e-06 9.58432e-06 -8.84298e-06
-2.08885e-05 6.27861e-06 6.2614e-06 -9.94842e-06
-1.06166e-05 3.19607e-06 3.18023e-06 -1.06117e-05
-2.16944e-05 6.52022e-06 6.50323e-06 -9.94842e-06
-2.12915e-05 6.39942e-06 6.38231e-06 -9.94842e-06
-3.13619e-05 9.42159e-06 9.40299e-06 -8.84298e-06
-3.01532e-05 9.05909e-06 9.04034e-06 -8.84298e-06
-1.0012e-05 3.01497e-06 2.99873e-06 -1.06117e-05
-1.04151e-05 3.1357e-06 3.11973e-06 -1.06117e-05
-3.07576e-05 9.24034e-06 9.22166e-06 -8.84298e-06
-2.00826e-05 6.03699e-06 6.01957e-06 -9.94842e-06
-1.02135e-05 3.07534e-06 3.05923e-06 -1.06117e-05
-2.08885e-05 6.27861e-06 6.2614e-06 -9.94842e-06
-2.04856e-05 6.1578e-06 6.14048e-06 -9.94842e-06
-3.01532e-05 9.05909e-06 9.04034e-06 -8.84298e-06
-2.89445e-05 8.69657e-06 8.67769e-06 -8.84299e-06
-9.60896e-06 2.89423e-06 2.87774e-06 -1.06117e-05
-1.0012e-05 3.01497e-06 2.99873e-06 -1.06117e-05
-2.95489e-05 8.87783e-06 8.85901e-06 -8.84298e-06
-1.92768e-05 5.79537e-06 5.77774e-06 -9.94842e-06
-9.81048e-06 2.9546e-06 2.93824e-06 -1.06117e-05
-2.00826e-05 6.03699e-06 6.01957e-06 -9.94842e-06
-1.96797e-05 5.91618e-06 5.89865e-06 -9.94842e-06
-2.89445e-05 8.69657e-06 8.67769e-06 -8.84299e-06
-2.77358e-05 8.33406e-06 8.31504e-06 -8.84299e-06
-9.20591e-06 2.77349e-06 2.75675e-06 -1.06117e-05
-9.60896e-06 2.89423e-06 2.87774e-06 -1.06117e-05
-2.83402e-05 8.51532e-06 8.49637e-06 -8.84299e-06
-1.84709e-05 5.55375e-06 5.53593e-06 -9.94842e-06
-9.40743e-06 2.83386e-06 2.81725e-06 -1.06117e-05
-1.92768e-05 5.79537e-06 5.77774e-06 -9.94842e-06
-1.88738e-05 5.67456e-06 5.65683e-06 -9.94842e-06
-2.77358e-05 8.33406e-06 8.31504e-06 -8.84299e-06
-2.65272e-05 7.97155e-06 7.95241e-06 -8.84299e-06
-8.80287e-06 2.65274e-06 2.63577e-06 -1.06117e-05
-9.20591e-06 2.77349e-06 2.75675e-06 -1.06117e-05
-2.71315e-05 8.1528e-06 8.13373e-06 -8.84299e-06
-1.76651e-05 5.31212e-06 5.29411e-06 -9.94842e-06
-9.00439e-06 2.71311e-06 2.69626e-06 -1.06117e-05
-1.84709e-05 5.55375e-06 5.53593e-06 -9.94842e-06
-1.8068e-05 5.43293e-06 5.41502e-06 -9.94842e-06
-2.65272e-05 7.97155e-06 7.95241e-06 -8.84299e-06
-2.53185e-05 7.60904e-06 7.58977e-06 -8.84299e-06
-8.39985e-06 2.53199e-06 2.51479e-06 -1.06117e-05
-8.80287e-06 2.65274e-06 2.63577e-06 -1.06117e-05
-2.59228e-05 7.79029e-06 7.77109e-06 -8.84299e-06
-1.68592e-05 5.0705e-06 5.05231e-06 -9.94841e-06
-8.60136e-06 2.59237e-06 2.57528e-06 -1.06117e-05
-1.76651e-05 5.31212e-06 5.29411e-06 -9.94842e-06
-1.72621e-05 5.19131e-06 5.17321e-06 -9.94841e-06
-2.53185e-05 7.60904e-06 7.58977e-06 -8.84299e-06
-2.41099e-05 7.24653e-06 7.22715e-06 -8.84299e-06
-7.99684e-06 2.41125e-06 2.39382e-06 -1.06117e-05
-8.39985e-06 2.53199e-06 2.51479e-06 -1.06117e-05
-2.47142e-05 7.42778e-06 7.40846e-06 -8.84299e-06
-1.60534e-05 4.82888e-06 4.81051e-06 -9.94839e-06
-8.19834e-06 2.47162e-06 2.45431e-06 -1.06117e-05
-1.68592e-05 5.0705e-06 5.05231e-06 -9.94841e-06
-1.64563e-05 4.94969e-06 4.93141e-06 -9.9484e-06
-2.41099e-05 7.24653e-06 7.22715e-06 -8.84299e-06
-2.29013e-05 6.88404e-06 6.86453e-06 -8.843e-06
-7.59386e-06 2.29051e-06 2.27286e-06 -1.06116e-05
-7.99684e-06 2.41125e-06 2.39382e-06 -1.06117e-05
-2.35056e-05 7.06529e-06 7.04584e-06 -8.843e-06
-1.52476e-05 4.58727e-06 4.56872e-06 -9.94837e-06
-7.79535e-06 2.35088e-06 2.33334e-06 -1.06116e-05
-1.60534e-05 4.82888e-06 4.81051e-06 -9.94839e-06
-1.56505e-05 4.70807e-06 4.68961e-06 -9.94838e-06
-2.29013e-05 6.88404e-06 6.86453e-06 -8.843e-06
-2.16927e-05 6.52156e-06 6.50193e-06 -8.843e-06
-7.19089e-06 2.16978e-06 2.15191e-06 -1.06116e-05
-7.59386e-06 2.29051e-06 2.27286e-06 -1.06116e-05
-2.2297e-05 6.7028e-06 6.68323e-06 -8.843e-06
-1.44419e-05 4.34567e-06 4.32694e-06 -9.94834e-06
-7.39237e-06 2.23015e-06 2.21238e-06 -1.06116e-05
-1.52476e-05 4.58727e-06 4.56872e-06 -9.94837e-06
-1.48447e-05 4.46647e-06 4.44783e-06 -9.94835e-06
-2.16927e-05 6.52156e-06 6.50193e-06 -8.843e-06
-2.04842e-05 6.15905e-06 6.13935e-06 -8.843e-06
-6.78796e-06 2.04904e-06 2.03096e-06 -1.06115e-05
-7.19089e-06 2.16978e-06 2.15191e-06 -1.06116e-05
-2.10885e-05 6.34031e-06 6.32064e-06 -8.843e-06
-1.36361e-05 4.10404e-06 4.08518e-06 -9.94831e-06
-6.98942e-06 2.10941e-06 2.09143e-06 -1.06115e-05
-1.44419e-05 4.34567e-06 4.32694e-06 -9.94834e-06
-1.4039e-05 4.22486e-06 4.20606e-06 -9.94832e-06
-2.04842e-05 6.15905e-06 6.13935e-06 -8.843e-06
-1.92757e-05 5.79644e-06 5.77681e-06 -8.84298e-06
-6.385e-06 1.92825e-06 1.91004e-06 -1.06116e-05
-6.78796e-06 2.04904e-06 2.03096e-06 -1.06115e-05
-1.98799e-05 5.97776e-06 5.95807e-06 -8.843e-06
-1.28304e-05 3.8623e-06 3.84346e-06 -9.94831e-06
-6.58649e-06 1.98865e-06 1.9705e-06 -1.06115e-05
-1.36361e-05 4.10404e-06 4.08518e-06 -9.94831e-06
-1.32333e-05 3.98319e-06 3.96432e-06 -9.94831e-06
-1.92757e-05 5.79644e-06 5.77681e-06 -8.84298e-06
-1.8067e-05 5.43353e-06 5.41434e-06 -8.84293e-06
-5.98197e-06 1.8073e-06 1.78915e-06 -1.06118e-05
-6.385e-06 1.92825e-06 1.91004e-06 -1.06116e-05
-1.86714e-05 5.61504e-06 5.59557e-06 -8.84296e-06
-1.20245e-05 3.62027e-06 3.6018e-06 -9.94843e-06
-6.18349e-06 1.8678e-06 1.84958e-06 -1.06116e-05
-1.28304e-05 3.8623e-06 3.84346e-06 -9.94831e-06
-1.24275e-05 3.74134e-06 3.72262e-06 -9.94835e-06
-1.8067e-05 5.43353e-06 5.41434e-06 -8.84293e-06
-1.68579e-05 5.06987e-06 5.052e-06 -8.84277e-06
-5.5786e-06 1.68595e-06 1.66828e-06 -1.06127e-05
-5.98197e-06 1.8073e-06 1.78915e-06 -1.06118e-05
-1.74625e-05 5.25183e-06 5.23314e-06 -8.84287e-06
-1.1218e-05 3.37752e-06 3.36023e-06 -9.94884e-06
-5.78036e-06 1.7467e-06 1.72871e-06 -1.06122e-05
-1.20245e-05 3.62027e-06 3.6018e-06 -9.94843e-06
-1.16213e-05 3.49903e-06 3.48099e-06 -9.94859e-06
-1.68579e-05 5.06987e-06 5.052e-06 -8.84277e-06
-1.56475e-05 4.70459e-06 4.6898e-06 -8.84245e-06
-5.17456e-06 1.56372e-06 1.54751e-06 -1.06151e-05
-5.5786e-06 1.68595e-06 1.66828e-06 -1.06127e-05
-1.62529e-05 4.88752e-06 4.87089e-06 -8.84264e-06
-1.04104e-05 3.13319e-06 3.1188e-06 -9.94995e-06
-5.37666e-06 1.62499e-06 1.60786e-06 -1.06137e-05
-1.1218e-05 3.37752e-06 3.36023e-06 -9.94884e-06
-1.08144e-05 3.25563e-06 3.23949e-06 -9.94926e-06
-1.56475e-05 4.70459e-06 4.6898e-06 -8.84245e-06
-1.44345e-05 4.33592e-06 4.32795e-06 -8.84175e-06
-4.76863e-06 1.43969e-06 1.42669e-06 -1.06204e-05
-5.17456e-06 1.56372e-06 1.54751e-06 -1.06151e-05
-1.50413e-05 4.52082e-06 4.50879e-06 -8.84218e-06
-9.59994e-06 2.88571e-06 2.87752e-06 -9.95258e-06
-4.97199e-06 1.50203e-06 1.48713e-06 -1.06172e-05
-1.04104e-05 3.13319e-06 3.1188e-06 -9.94995e-06
-1.00056e-05 3.01001e-06 2.99813e-06 -9.95103e-06
-1.44345e-05 4.33592e-06 4.32795e-06 -8.84175e-06
-1.32152e-05 3.9608e-06 3.96617e-06 -8.84061e-06
-4.35962e-06 1.31212e-06 1.30607e-06 -1.06316e-05
-4.76863e-06 1.43969e-06 1.42669e-06 -1.06204e-05
-1.3826e-05 4.14948e-06 4.14709e-06 -8.84122e-06
-8.78372e-06 2.63209e-06 2.63641e-06 -9.95828e-06
-4.56451e-06 1.37646e-06 1.36631e-06 -1.0625e-05
-9.59994e-06 2.88571e-06 2.87752e-06 -9.95258e-06
-9.19279e-06 2.75989e-06 2.75696e-06 -9.95483e-06
-1.32152e-05 3.9608e-06 3.96617e-06 -8.84061e-06
-1.19851e-05 3.5737e-06 3.6049e-06 -8.83846e-06
-3.94313e-06 1.17846e-06 1.18486e-06 -1.0654e-05
-4.35962e-06 1.31212e-06 1.30607e-06 -1.06316e-05
-1.26017e-05 3.76914e-06 3.78538e-06 -8.83976e-06
-7.95637e-06 2.36775e-06 2.39512e-06 -9.97e-06
-4.15287e-06 1.24635e-06 1.24565e-06 -1.06409e-05
-8.78372e-06 2.63209e-06 2.63641e-06 -9.95828e-06
-8.37186e-06 2.50173e-06 2.51577e-06 -9.96329e-06
-1.19851e-05 3.5737e-06 3.6049e-06 -8.83846e-06
-1.07318e-05 3.1666e-06 3.24221e-06 -8.83615e-06
-3.51614e-06 1.03407e-06 1.06375e-06 -1.0696e-05
-3.94313e-06 1.17846e-06 1.18486e-06 -1.0654e-05
-1.13627e-05 3.37348e-06 3.42397e-06 -8.83715e-06
-7.10855e-06 2.08488e-06 2.153e-06 -9.9928e-06
-3.73078e-06 1.10777e-06 1.12415e-06 -1.06719e-05
-7.95637e-06 2.36775e-06 2.39512e-06 -9.97e-06
-7.53576e-06 2.22904e-06 2.27431e-06 -9.97926e-06
-1.07318e-05 3.1666e-06 3.24221e-06 -8.83615e-06
-9.44314e-06 2.72658e-06 2.87853e-06 -8.83308e-06
-3.06625e-06 8.74824e-07 9.39182e-07 -1.0771e-05
-3.51614e-06 1.03407e-06 1.06375e-06 -1.0696e-05
-1.0092e-05 2.95121e-06 3.06032e-06 -8.83492e-06
-6.22641e-06 1.77509e-06 1.90771e-06 -1.00351e-05
-3.29578e-06 9.56962e-07 1.00235e-06 -1.07282e-05
-7.10855e-06 2.08488e-06 2.153e-06 -9.9928e-06
-6.67276e-06 1.93429e-06 2.03077e-06 -1.00115e-05
-9.44314e-06 2.72658e-06 2.87853e-06 -8.83308e-06
-8.08604e-06 2.24275e-06 2.50427e-06 -8.83684e-06
-2.59146e-06 6.93986e-07 8.13203e-07 -1.08946e-05
-3.06625e-06 8.74824e-07 9.39182e-07 -1.0771e-05
-8.77719e-06 2.49161e-06 2.69382e-06 -8.83303e-06
-5.28927e-06 1.42731e-06 1.65513e-06 -1.01095e-05
-2.83049e-06 7.86506e-07 8.75994e-07 -1.08257e-05
-6.22641e-06 1.77509e-06 1.90771e-06 -1.00351e-05
-5.76631e-06 1.60556e-06 1.78318e-06 -1.00659e-05
-8.08604e-06 2.24275e-06 2.50427e-06 -8.83684e-06
-6.64614e-06 1.70335e-06 2.11834e-06 -8.85213e-06
-2.06896e-06 5.00179e-07 6.72334e-07 -1.1084e-05
-2.59146e-06 6.93986e-07 8.13203e-07 -1.08946e-05
-7.37418e-06 1.97792e-06 2.31269e-06 -8.84309e-06
-4.28044e-06 1.0495e-06 1.38469e-06 -1.02326e-05
-2.3405e-06 5.99123e-07 7.46304e-07 -1.09798e-05
-5.28927e-06 1.42731e-06 1.65513e-06 -1.01095e-05
-4.79431e-06 1.24214e-06 1.52236e-06 -1.01664e-05
-6.64614e-06 1.70335e-06 2.11834e-06 -8.85213e-06
-5.07103e-06 1.14595e-06 1.68218e-06 -8.92009e-06
-1.53024e-06 3.09355e-07 5.23235e-07 -1.133e-05
-2.06896e-06 5.00179e-07 6.72334e-07 -1.1084e-05
-5.88429e-06 1.42582e-06 1.91077e-06 -8.87456e-06
-3.19089e-06 6.71308e-07 1.07982e-06 -1.04198e-05
-1.79336e-06 3.98249e-07 5.97906e-07 -1.12022e-05
-4.28044e-06 1.0495e-06 1.38469e-06 -1.02326e-05
-3.74639e-06 8.52484e-07 1.24024e-06 -1.03123e-05
-5.07103e-06 1.14595e-06 1.68218e-06 -8.92009e-06
-3.43852e-06 6.62158e-07 1.18987e-06 -9.06878e-06
-9.77984e-07 2.24422e-07 3.22955e-07 -1.15724e-05
-1.53024e-06 3.09355e-07 5.23235e-07 -1.133e-05
-4.24341e-06 8.73631e-07 1.44419e-06 -8.98319e-06
-2.09614e-06 4.44629e-07 7.07792e-07 -1.06601e-05
-1.26373e-06 2.50091e-07 4.34416e-07 -1.14581e-05
-3.19089e-06 6.71308e-07 1.07982e-06 -1.04198e-05
-2.63409e-06 5.29232e-07 9.02084e-07 -1.05449e-05
-3.43852e-06 6.62158e-07 1.18987e-06 -9.06878e-06
-1.85452e-06 6.50479e-07 5.16018e-07 -9.39469e-06
-5.90512e-07 3.62755e-07 9.76103e-08 -1.15824e-05
-9.77984e-07 2.24422e-07 3.22955e-07 -1.15724e-05
-2.64575e-06 5.72184e-07 8.88673e-07 -9.20088e-06
-1.16456e-06 6.16445e-07 2.34907e-07 -1.08372e-05
-7.33436e-07 2.43861e-07 2.09818e-07 -1.16297e-05
-2.09614e-06 4.44629e-07 7.07792e-07 -1.06601e-05
-1.59898e-06 4.4715e-07 4.93642e-07 -1.07534e-05
-1.85452e-06 6.50479e-07 5.16018e-07 -9.39469e-06
-1.01679e-06 1.81864e-06 -3.4365e-07 -9.63973e-06
-3.82175e-07 9.62782e-07 -2.48831e-07 -1.09369e-05
-5.90512e-07 3.62755e-07 9.76103e-08 -1.15824e-05
-1.24985e-06 9.82038e-07 1.14777e-07 -9.56393e-06
-8.31707e-07 1.66196e-06 -3.55821e-07 -1.04932e-05
-4.92373e-07 6.21617e-07 -5.53902e-08 -1.13759e-05
-1.16456e-06 6.16445e-07 2.34907e-07 -1.08372e-05
-8.79823e-07 1.02441e-06 -6.19675e-08 -1.08085e-05
-1.01679e-06 1.81864e-06 -3.4365e-07 -9.63973e-06
-1.43538e-06 5.4853e-06 -1.73568e-06 -8.85148e-06
-5.62145e-07 1.74629e-06 -5.07492e-07 -8.936e-06
-3.82175e-07 9.62782e-07 -2.48831e-07 -1.09369e-05
-1.0978e-06 3.3668e-06 -9.72427e-07 -9.49812e-06
-1.0668e-06 3.56365e-06 -1.07008e-06 -8.72744e-06
-3.69055e-07 1.32693e-06 -4.10518e-07 -1.01525e-05
-8.31707e-07 1.66196e-06 -3.55821e-07 -1.04932e-05
-9.25579e-07 2.50663e-06 -6.77594e-07 -9.80156e-06
-1.43538e-06 5.4853e-06 -1.73568e-06 -8.85148e-06
-2.68272e-06 9.92432e-06 -3.10354e-06 -4.68095e-06
-1.06669e-06 2.86676e-06 -7.71459e-07 -5.11181e-06
-5.62145e-07 1.74629e-06 -5.07492e-07 -8.936e-06
-1.98015e-06 7.87143e-06 -2.52483e-06 -7.31482e-06
-1.63048e-06 6.07634e-06 -1.90537e-06 -5.16714e-06
-8.3638e-07 2.26294e-06 -6.11384e-07 -7.26746e-06
-1.0668e-06 3.56365e-06 -1.07008e-06 -8.72744e-06
-1.29018e-06 4.80928e-06 -1.50819e-06 -7.22046e-06
-7.01116e-05 0 3.00478e-05 4.00687e-05
-7.13393e-05 9.70849e-06 2.64132e-05 1.32764e-05
7.10726e-05 -9.76892e-06 -2.6273e-05 1.32594e-05
6.98146e-05 0 -2.99205e-05 4.00293e-05
-6.8451e-05 4.11676e-06 2.75718e-05 2.52714e-05
-1.3595e-07 -3.19776e-08 7.19689e-08 1.50411e-05
6.81707e-05 -4.15004e-06 -2.74374e-05 2.52478e-05
-1.53531e-07 0 6.57991e-08 4.08803e-05
-1.4279e-07 -1.96947e-08 6.96362e-08 2.82823e-05
-7.13393e-05 9.70849e-06 2.64132e-05 1.32764e-05
-7.69045e-05 1.59886e-05 2.61068e-05 -2.76568e-06
7.66602e-05 -1.60896e-05 -2.59588e-05 -2.77703e-06
7.10726e-05 -9.76892e-06 -2.6273e-05 1.32594e-05
-7.5312e-05 1.34667e-05 2.65051e-05 3.84347e-06
-1.24523e-07 -5.1942e-08 7.56278e-08 -1.92927e-06
7.50569e-05 -1.35493e-05 -2.63604e-05 3.82956e-06
-1.3595e-07 -3.19776e-08 7.19689e-08 1.50411e-05
-1.30444e-07 -4.24414e-08 7.40938e-08 4.59265e-06
-7.69045e-05 1.59886e-05 2.61068e-05 -2.76568e-06
-7.85522e-05 2.06564e-05 2.48125e-05 -1.0034e-05
7.83267e-05 -2.07875e-05 -2.46597e-05 -1.00426e-05
7.66602e-05 -1.60896e-05 -2.59588e-05 -2.77703e-06
-7.75178e-05 1.84777e-05 2.53029e-05 -7.14755e-06
-1.14654e-07 -6.79608e-08 7.82635e-08 -9.79411e-06
7.72831e-05 -1.85946e-05 -2.51522e-05 -7.15739e-06
-1.24523e-07 -5.1942e-08 7.56278e-08 -1.92927e-06
-1.1912e-07 -6.0462e-08 7.69638e-08 -6.39902e-06
-7.85522e-05 2.06564e-05 2.48125e-05 -1.0034e-05
-7.94177e-05 2.28611e-05 2.42386e-05 -1.26249e-05
7.92087e-05 -2.30168e-05 -2.40823e-05 -1.26311e-05
7.83267e-05 -2.07875e-05 -2.46597e-05 -1.00426e-05
-7.93911e-05 2.20481e-05 2.45755e-05 -1.17702e-05
-1.06689e-07 -7.99002e-08 7.99668e-08 -1.28326e-05
7.91741e-05 -2.21922e-05 -2.44208e-05 -1.17775e-05
-1.14654e-07 -6.79608e-08 7.82635e-08 -9.79411e-06
-1.10661e-07 -7.43602e-08 7.92948e-08 -1.18818e-05
-7.94177e-05 2.28611e-05 2.42386e-05 -1.26249e-05
-7.88966e-05 2.37148e-05 2.36493e-05 -1.28993e-05
7.87008e-05 -2.38894e-05 -2.34906e-05 -1.29033e-05
7.92087e-05 -2.30168e-05 -2.40823e-05 -1.26311e-05
-7.90977e-05 2.34055e-05 2.38681e-05 -1.29062e-05
-1.00013e-07 -8.92305e-08 8.11044e-08 -1.33509e-05
7.88959e-05 -2.35714e-05 -2.37105e-05 -1.29114e-05
-1.06689e-07 -7.99002e-08 7.99668e-08 -1.28326e-05
-1.03071e-07 -8.48899e-08 8.05548e-08 -1.32194e-05
-7.88966e-05 2.37148e-05 2.36493e-05 -1.28993e-05
-7.82413e-05 2.37048e-05 2.33728e-05 -1.24397e-05
7.80549e-05 -2.38923e-05 -2.32126e-05 -1.24414e-05
7.87008e-05 -2.38894e-05 -2.34906e-05 -1.29033e-05
-7.86619e-05 2.37808e-05 2.35204e-05 -1.27164e-05
-9.52169e-08 -9.5563e-08 8.17628e-08 -1.29012e-05
7.84713e-05 -2.39626e-05 -2.33609e-05 -1.27191e-05
-1.00013e-07 -8.92305e-08 8.11044e-08 -1.33509e-05
-9.74285e-08 -9.27558e-08 8.15076e-08 -1.32141e-05
-7.82413e-05 2.37048e-05 2.33728e-05 -1.24397e-05
-7.74015e-05 2.34606e-05 2.31175e-05 -1.18465e-05
7.72213e-05 -2.36557e-05 -2.29567e-05 -1.18466e-05
7.80549e-05 -2.38923e-05 -2.32126e-05 -1.24414e-05
-7.77745e-05 2.35929e-05 2.32207e-05 -1.21308e-05
-9.1996e-08 -9.95048e-08 8.20718e-08 -1.22645e-05
7.75916e-05 -2.37848e-05 -2.30601e-05 -1.21316e-05
-9.52169e-08 -9.5563e-08 8.17628e-08 -1.29012e-05
-9.34073e-08 -9.78058e-08 8.19485e-08 -1.25616e-05
-7.74015e-05 2.34606e-05 2.31175e-05 -1.18465e-05
-7.67177e-05 2.31474e-05 2.29587e-05 -1.13758e-05
7.65413e-05 -2.33462e-05 -2.27979e-05 -1.1375e-05
7.72213e-05 -2.36557e-05 -2.29567e-05 -1.18466e-05
-7.70674e-05 2.33057e-05 2.30407e-05 -1.15936e-05
-9.00277e-08 -1.01369e-07 8.2027e-08 -1.17266e-05
7.68893e-05 -2.35031e-05 -2.28798e-05 -1.15931e-05
-9.1996e-08 -9.95048e-08 8.20718e-08 -1.22645e-05
-9.08984e-08 -1.0066e-07 8.20963e-08 -1.19837e-05
-7.67177e-05 2.31474e-05 2.29587e-05 -1.13758e-05
-7.60923e-05 2.28763e-05 2.28069e-05 -1.10501e-05
7.59182e-05 -2.30759e-05 -2.26467e-05 -1.1049e-05
7.65413e-05 -2.33462e-05 -2.27979e-05 -1.1375e-05
-7.63826e-05 2.30047e-05 2.28763e-05 -1.11939e-05
-8.88036e-08 -1.01842e-07 8.17053e-08 -1.13524e-05
7.62074e-05 -2.32041e-05 -2.27157e-05 -1.11928e-05
-9.00277e-08 -1.01369e-07 8.2027e-08 -1.17266e-05
-8.93445e-08 -1.01745e-07 8.18955e-08 -1.15151e-05
-7.60923e-05 2.28763e-05 2.28069e-05 -1.10501e-05
-7.55682e-05 2.2649e-05 2.26797e-05 -1.08502e-05
7.53958e-05 -2.28476e-05 -2.25207e-05 -1.08491e-05
7.59182e-05 -2.30759e-05 -2.26467e-05 -1.1049e-05
-7.58274e-05 2.27575e-05 2.27442e-05 -1.09376e-05
-8.79688e-08 -1.01376e-07 8.11478e-08 -1.11167e-05
7.56541e-05 -2.29568e-05 -2.25846e-05 -1.09364e-05
-8.88036e-08 -1.01842e-07 8.17053e-08 -1.13524e-05
-8.83598e-08 -1.01699e-07 8.1454e-08 -1.12215e-05
-7.55682e-05 2.2649e-05 2.26797e-05 -1.08502e-05
-7.50878e-05 2.24638e-05 2.25531e-05 -1.0734e-05
7.49168e-05 -2.26604e-05 -2.23956e-05 -1.07332e-05
7.53958e-05 -2.28476e-05 -2.25207e-05 -1.08491e-05
-7.532e-05 2.25518e-05 2.26149e-05 -1.07834e-05
-8.72553e-08 -1.00393e-07 8.04206e-08 -1.09798e-05
7.51483e-05 -2.27495e-05 -2.24566e-05 -1.07825e-05
-8.79688e-08 -1.01376e-07 8.11478e-08 -1.11167e-05
-8.76082e-08 -1.0093e-07 8.0802e-08 -1.10375e-05
-7.50878e-05 2.24638e-05 2.25531e-05 -1.0734e-05
-7.46465e-05 2.23057e-05 2.24318e-05 -1.06711e-05
7.4477e-05 -2.24999e-05 -2.22759e-05 -1.06706e-05
7.49168e-05 -2.26604e-05 -2.23956e-05 -1.07332e-05
-7.48654e-05 2.23821e-05 2.24928e-05 -1.06976e-05
-8.65147e-08 -9.91446e-08 7.95683e-08 -1.09045e-05
7.46951e-05 -2.25776e-05 -2.23361e-05 -1.0697e-05
-8.72553e-08 -1.00393e-07 8.04206e-08 -1.09798e-05
-8.68954e-08 -9.97895e-08 8.00078e-08 -1.09367e-05
-7.46465e-05 2.23057e-05 2.24318e-05 -1.06711e-05
-7.42217e-05 2.21654e-05 2.23099e-05 -1.06385e-05
7.4054e-05 -2.2357e-05 -2.21558e-05 -1.06384e-05
7.4477e-05 -2.24999e-05 -2.22759e-05 -1.06706e-05
-7.44318e-05 2.22339e-05 2.23705e-05 -1.0652e-05
-8.56702e-08 -9.78094e-08 7.86341e-08 -1.08657e-05
7.42631e-05 -2.24268e-05 -2.22156e-05 -1.06517e-05
-8.65147e-08 -9.91446e-08 7.95683e-08 -1.09045e-05
-8.6108e-08 -9.84805e-08 7.91094e-08 -1.08816e-05
-7.42217e-05 2.21654e-05 2.23099e-05 -1.06385e-05
-7.38087e-05 2.2035e-05 2.21887e-05 -1.06228e-05
7.36429e-05 -2.22241e-05 -2.20366e-05 -1.06229e-05
7.4054e-05 -2.2357e-05 -2.21558e-05 -1.06384e-05
-7.40146e-05 2.20993e-05 2.22494e-05 -1.06292e-05
-8.4697e-08 -9.64794e-08 7.7647e-08 -1.08466e-05
7.38478e-05 -2.22896e-05 -2.20964e-05 -1.06292e-05
-8.56702e-08 -9.78094e-08 7.86341e-08 -1.08657e-05
-8.52001e-08 -9.714e-08 7.81458e-08 -1.08545e-05
-7.38087e-05 2.2035e-05 2.21887e-05 -1.06228e-05
-7.34002e-05 2.19102e-05 2.20671e-05 -1.06156e-05
7.32366e-05 -2.20967e-05 -2.19171e-05 -1.0616e-05
7.36429e-05 -2.22241e-05 -2.20366e-05 -1.06229e-05
-7.36039e-05 2.19721e-05 2.21279e-05 -1.06184e-05
-8.35982e-08 -9.52046e-08 7.66298e-08 -1.0838e-05
7.34392e-05 -2.21599e-05 -2.19768e-05 -1.06187e-05
-8.4697e-08 -9.64794e-08 7.7647e-08 -1.08466e-05
-8.41625e-08 -9.58335e-08 7.71411e-08 -1.08414e-05
-7.34002e-05 2.19102e-05 2.20671e-05 -1.06156e-05
-7.29945e-05 2.17881e-05 2.19456e-05 -1.06126e-05
7.28334e-05 -2.19723e-05 -2.17976e-05 -1.06132e-05
7.32366e-05 -2.20967e-05 -2.19171e-05 -1.0616e-05
-7.31973e-05 2.18489e-05 2.20064e-05 -1.06138e-05
-8.23909e-08 -9.40017e-08 7.55969e-08 -1.08344e-05
7.30349e-05 -2.20343e-05 -2.18574e-05 -1.06143e-05
-8.35982e-08 -9.52046e-08 7.66298e-08 -1.0838e-05
-8.30068e-08 -9.45939e-08 7.61146e-08 -1.08358e-05
-7.29945e-05 2.17881e-05 2.19456e-05 -1.06126e-05
-7.25898e-05 2.16674e-05 2.18239e-05 -1.06116e-05
7.24312e-05 -2.18494e-05 -2.16779e-05 -1.06123e-05
7.28334e-05 -2.19723e-05 -2.17976e-05 -1.06132e-05
-7.27921e-05 2.17276e-05 2.18848e-05 -1.0612e-05
-8.10973e-08 -9.2872e-08 7.45583e-08 -1.08331e-05
7.26322e-05 -2.19107e-05 -2.17378e-05 -1.06126e-05
-8.23909e-08 -9.40017e-08 7.55969e-08 -1.08344e-05
-8.17535e-08 -9.34281e-08 7.50778e-08 -1.08335e-05
-7.25898e-05 2.16674e-05 2.18239e-05 -1.06116e-05
-7.21855e-05 2.15472e-05 2.17021e-05 -1.06113e-05
7.20297e-05 -2.17271e-05 -2.15582e-05 -1.06122e-05
7.24312e-05 -2.18494e-05 -2.16779e-05 -1.06123e-05
-7.23876e-05 2.16072e-05 2.1763e-05 -1.06114e-05
-7.97391e-08 -9.18074e-08 7.35199e-08 -1.08328e-05
7.22304e-05 -2.17882e-05 -2.16181e-05 -1.06122e-05
-8.10973e-08 -9.2872e-08 7.45583e-08 -1.08331e-05
-8.0425e-08 -9.23322e-08 7.40388e-08 -1.08329e-05
-7.21855e-05 2.15472e-05 2.17021e-05 -1.06113e-05
-7.17813e-05 2.14272e-05 2.15803e-05 -1.06114e-05
7.16282e-05 -2.16052e-05 -2.14385e-05 -1.06123e-05
7.20297e-05 -2.17271e-05 -2.15582e-05 -1.06122e-05
-7.19834e-05 2.14872e-05 2.16412e-05 -1.06113e-05
-7.83354e-08 -9.0797e-08 7.24853e-08 -1.08328e-05
7.18289e-05 -2.16661e-05 -2.14983e-05 -1.06122e-05
-7.97391e-08 -9.18074e-08 7.35199e-08 -1.08328e-05
-7.90419e-08 -9.12961e-08 7.3002e-08 -1.08328e-05
-7.17813e-05 2.14272e-05 2.15803e-05 -1.06114e-05
-7.13772e-05 2.13073e-05 2.14585e-05 -1.06115e-05
7.12269e-05 -2.14834e-05 -2.13187e-05 -1.06124e-05
7.16282e-05 -2.16052e-05 -2.14385e-05 -1.06123e-05
-7.15793e-05 2.13672e-05 2.15194e-05 -1.06114e-05
-7.69016e-08 -8.98293e-08 7.14561e-08 -1.0833e-05
7.14276e-05 -2.15443e-05 -2.13786e-05 -1.06123e-05
-7.83354e-08 -9.0797e-08 7.24853e-08 -1.08328e-05
-7.76214e-08 -9.03084e-08 7.19699e-08 -1.08329e-05
-7.13772e-05 2.13073e-05 2.14585e-05 -1.06115e-05
-7.09729e-05 2.11874e-05 2.13367e-05 -1.06116e-05
7.08256e-05 -2.13616e-05 -2.11988e-05 -1.06125e-05
7.12269e-05 -2.14834e-05 -2.13187e-05 -1.06124e-05
-7.11751e-05 2.12473e-05 2.13976e-05 -1.06115e-05
-7.54495e-08 -8.88942e-08 7.0433e-08 -1.08331e-05
7.10262e-05 -2.14225e-05 -2.12587e-05 -1.06125e-05
-7.69016e-08 -8.98293e-08 7.14561e-08 -1.0833e-05
-7.61772e-08 -8.93582e-08 7.09438e-08 -1.0833e-05
-7.09729e-05 2.11874e-05 2.13367e-05 -1.06116e-05
-7.05687e-05 2.10674e-05 2.12148e-05 -1.06116e-05
7.04242e-05 -2.12399e-05 -2.1079e-05 -1.06126e-05
7.08256e-05 -2.13616e-05 -2.11988e-05 -1.06125e-05
-7.07708e-05 2.11274e-05 2.12758e-05 -1.06116e-05
-7.39881e-08 -8.79835e-08 6.94164e-08 -1.08332e-05
7.06249e-05 -2.13008e-05 -2.11389e-05 -1.06126e-05
-7.54495e-08 -8.88942e-08 7.0433e-08 -1.08331e-05
-7.47195e-08 -8.84363e-08 6.99239e-08 -1.08331e-05
-7.05687e-05 2.10674e-05 2.12148e-05 -1.06116e-05
-7.01644e-05 2.09474e-05 2.1093e-05 -1.06117e-05
7.00228e-05 -2.11182e-05 -2.09591e-05 -1.06127e-05
7.04242e-05 -2.12399e-05 -2.1079e-05 -1.06126e-05
-7.03666e-05 2.10074e-05 2.11539e-05 -1.06116e-05
-7.25233e-08 -8.70905e-08 6.84059e-08 -1.08332e-05
7.02235e-05 -2.1179e-05 -2.10191e-05 -1.06126e-05
-7.39881e-08 -8.79835e-08 6.94164e-08 -1.08332e-05
-7.32558e-08 -8.75351e-08 6.89104e-08 -1.08332e-05
-7.01644e-05 2.09474e-05 2.1093e-05 -1.06117e-05
-6.97602e-05 2.08274e-05 2.09712e-05 -1.06117e-05
6.96215e-05 -2.09964e-05 -2.08393e-05 -1.06127e-05
7.00228e-05 -2.11182e-05 -2.09591e-05 -1.06127e-05
-6.99623e-05 2.08874e-05 2.10321e-05 -1.06117e-05
-7.10595e-08 -8.62103e-08 6.74013e-08 -1.08333e-05
6.98222e-05 -2.10573e-05 -2.08992e-05 -1.06127e-05
-7.25233e-08 -8.70905e-08 6.84059e-08 -1.08332e-05
-7.17911e-08 -8.6649e-08 6.79029e-08 -1.08333e-05
-6.97602e-05 2.08274e-05 2.09712e-05 -1.06117e-05
-6.93559e-05 2.07074e-05 2.08494e-05 -1.06117e-05
6.92201e-05 -2.08747e-05 -2.07194e-05 -1.06127e-05
6.96215e-05 -2.09964e-05 -2.08393e-05 -1.06127e-05
-6.9558e-05 2.07674e-05 2.09103e-05 -1.06117e-05
-6.95993e-08 -8.53397e-08 6.64024e-08 -1.08333e-05
6.94208e-05 -2.09356e-05 -2.07794e-05 -1.06127e-05
-7.10595e-08 -8.62103e-08 6.74013e-08 -1.08333e-05
-7.03288e-08 -8.5774e-08 6.69012e-08 -1.08333e-05
-6.93559e-05 2.07074e-05 2.08494e-05 -1.06117e-05
-6.89516e-05 2.05874e-05 2.07275e-05 -1.06117e-05
6.88187e-05 -2.0753e-05 -2.05996e-05 -1.06127e-05
6.92201e-05 -2.08747e-05 -2.07194e-05 -1.06127e-05
-6.91538e-05 2.06474e-05 2.07884e-05 -1.06117e-05
-6.81446e-08 -8.4476e-08 6.54088e-08 -1.08333e-05
6.90194e-05 -2.08139e-05 -2.06595e-05 -1.06127e-05
-6.95993e-08 -8.53397e-08 6.64024e-08 -1.08333e-05
-6.88712e-08 -8.49071e-08 6.5905e-08 -1.08333e-05
-6.89516e-05 2.05874e-05 2.07275e-05 -1.06117e-05
-6.85473e-05 2.04673e-05 2.06057e-05 -1.06117e-05
6.84172e-05 -2.06313e-05 -2.04797e-05 -1.06127e-05
6.88187e-05 -2.0753e-05 -2.05996e-05 -1.06127e-05
-6.87495e-05 2.05273e-05 2.06666e-05 -1.06117e-05
-6.66963e-08 -8.36179e-08 6.44204e-08 -1.08333e-05
6.8618e-05 -2.06921e-05 -2.05396e-05 -1.06127e-05
-6.81446e-08 -8.4476e-08 6.54088e-08 -1.08333e-05
-6.74196e-08 -8.40463e-08 6.4914e-08 -1.08333e-05
-6.85473e-05 2.04673e-05 2.06057e-05 -1.06117e-05
-6.81431e-05 2.03473e-05 2.04839e-05 -1.06117e-05
6.80158e-05 -2.05096e-05 -2.03598e-05 -1.06127e-05
6.84172e-05 -2.06313e-05 -2.04797e-05 -1.06127e-05
-6.83452e-05 2.04073e-05 2.05448e-05 -1.06117e-05
-6.5255e-08 -8.27642e-08 6.34368e-08 -1.08333e-05
6.82165e-05 -2.05704e-05 -2.04198e-05 -1.06127e-05
-6.66963e-08 -8.36179e-08 6.44204e-08 -1.08333e-05
-6.59748e-08 -8.31905e-08 6.3928e-08 -1.08333e-05
-6.81431e-05 2.03473e-05 2.04839e-05 -1.06117e-05
-6.77388e-05 2.02272e-05 2.03621e-05 -1.06117e-05
6.76144e-05 -2.03879e-05 -2.02399e-05 -1.06127e-05
6.80158e-05 -2.05096e-05 -2.03598e-05 -1.06127e-05
-6.79409e-05 2.02873e-05 2.0423e-05 -1.06117e-05
-6.3821e-08 -8.19144e-08 6.2458e-08 -1.08333e-05
6.78151e-05 -2.04487e-05 -2.02999e-05 -1.06127e-05
-6.5255e-08 -8.27642e-08 6.34368e-08 -1.08333e-05
-6.45371e-08 -8.23388e-08 6.29468e-08 -1.08333e-05
-6.77388e-05 2.02272e-05 2.03621e-05 -1.06117e-05
-6.73346e-05 2.01072e-05 2.02403e-05 -1.06117e-05
6.72129e-05 -2.02661e-05 -2.01201e-05 -1.06127e-05
6.76144e-05 -2.03879e-05 -2.02399e-05 -1.06127e-05
-6.75367e-05 2.01672e-05 2.03012e-05 -1.06117e-05
-6.23944e-08 -8.10682e-08 6.1484e-08 -1.08333e-05
6.74137e-05 -2.0327e-05 -2.018e-05 -1.06127e-05
-6.3821e-08 -8.19144e-08 6.2458e-08 -1.08333e-05
-6.31068e-08 -8.14908e-08 6.19704e-08 -1.08333e-05
-6.73346e-05 2.01072e-05 2.02403e-05 -1.06117e-05
-6.69303e-05 1.99871e-05 2.01185e-05 -1.06117e-05
6.68115e-05 -2.01444e-05 -2.00002e-05 -1.06127e-05
6.72129e-05 -2.02661e-05 -2.01201e-05 -1.06127e-05
-6.71324e-05 2.00471e-05 2.01794e-05 -1.06117e-05
-6.09753e-08 -8.02254e-08 6.05145e-08 -1.08333e-05
6.70122e-05 -2.02053e-05 -2.00601e-05 -1.06127e-05
-6.23944e-08 -8.10682e-08 6.1484e-08 -1.08333e-05
-6.16839e-08 -8.06463e-08 6.09987e-08 -1.08333e-05
-6.69303e-05 1.99871e-05 2.01185e-05 -1.06117e-05
-6.65261e-05 1.98671e-05 1.99967e-05 -1.06117e-05
6.641e-05 -2.00227e-05 -1.98803e-05 -1.06127e-05
6.68115e-05 -2.01444e-05 -2.00002e-05 -1.06127e-05
-6.67282e-05 1.99271e-05 2.00576e-05 -1.06117e-05
-5.95635e-08 -7.93859e-08 5.95497e-08 -1.08333e-05
6.66108e-05 -2.00836e-05 -1.99402e-05 -1.06127e-05
-6.09753e-08 -8.02254e-08 6.05145e-08 -1.08333e-05
-6.02684e-08 -7.98052e-08 6.00316e-08 -1.08333e-05
-6.65261e-05 1.98671e-05 1.99967e-05 -1.06117e-05
-6.61218e-05 1.9747e-05 1.98749e-05 -1.06117e-05
6.60086e-05 -1.9901e-05 -1.97604e-05 -1.06127e-05
6.641e-05 -2.00227e-05 -1.98803e-05 -1.06127e-05
-6.6324e-05 1.9807e-05 1.99358e-05 -1.06117e-05
-5.8159e-08 -7.85499e-08 5.85895e-08 -1.08333e-05
6.62093e-05 -1.99619e-05 -1.98203e-05 -1.06127e-05
-5.95635e-08 -7.93859e-08 5.95497e-08 -1.08333e-05
-5.88603e-08 -7.89675e-08 5.90691e-08 -1.08333e-05
-6.61218e-05 1.9747e-05 1.98749e-05 -1.06117e-05
-6.57176e-05 1.96269e-05 1.97532e-05 -1.06117e-05
6.56071e-05 -1.97794e-05 -1.96405e-05 -1.06127e-05
6.60086e-05 -1.9901e-05 -1.97604e-05 -1.06127e-05
-6.59197e-05 1.9687e-05 1.9814e-05 -1.06117e-05
-5.67619e-08 -7.77173e-08 5.76339e-08 -1.08333e-05
6.58079e-05 -1.98402e-05 -1.97004e-05 -1.06127e-05
-5.8159e-08 -7.85499e-08 5.85895e-08 -1.08333e-05
-5.74596e-08 -7.81331e-08 5.81112e-08 -1.08333e-05
-6.57176e-05 1.96269e-05 1.97532e-05 -1.06117e-05
-6.53134e-05 1.95069e-05 1.96314e-05 -1.06117e-05
6.52056e-05 -1.96577e-05 -1.95206e-05 -1.06127e-05
6.56071e-05 -1.97794e-05 -1.96405e-05 -1.06127e-05
-6.55155e-05 1.95669e-05 1.96923e-05 -1.06117e-05
-5.53721e-08 -7.68881e-08 5.66829e-08 -1.08333e-05
6.54064e-05 -1.97185e-05 -1.95805e-05 -1.06127e-05
-5.67619e-08 -7.77173e-08 5.76339e-08 -1.08333e-05
-5.60661e-08 -7.73023e-08 5.71579e-08 -1.08333e-05
-6.53134e-05 1.95069e-05 1.96314e-05 -1.06117e-05
-6.49092e-05 1.93868e-05 1.95096e-05 -1.06117e-05
6.48042e-05 -1.9536e-05 -1.94007e-05 -1.06127e-05
6.52056e-05 -1.96577e-05 -1.95206e-05 -1.06127e-05
-6.51113e-05 1.94468e-05 1.95705e-05 -1.06117e-05
-5.39895e-08 -7.60626e-08 5.57366e-08 -1.08333e-05
6.50049e-05 -1.95968e-05 -1.94606e-05 -1.06127e-05
-5.53721e-08 -7.68881e-08 5.66829e-08 -1.08333e-05
-5.46799e-08 -7.64749e-08 5.62092e-08 -1.08333e-05
-6.49092e-05 1.93868e-05 1.95096e-05 -1.06117e-05
-6.4505e-05 1.92667e-05 1.93878e-05 -1.06117e-05
6.44027e-05 -1.94143e-05 -1.92807e-05 -1.06127e-05
6.48042e-05 -1.9536e-05 -1.94007e-05 -1.06127e-05
-6.47071e-05 1.93267e-05 1.94487e-05 -1.06117e-05
-5.26141e-08 -7.52406e-08 5.47949e-08 -1.08333e-05
6.46034e-05 -1.94751e-05 -1.93407e-05 -1.06127e-05
-5.39895e-08 -7.60626e-08 5.57366e-08 -1.08333e-05
-5.33009e-08 -7.56511e-08 5.52651e-08 -1.08333e-05
-6.4505e-05 1.92667e-05 1.93878e-05 -1.06117e-05
-6.41008e-05 1.91466e-05 1.92661e-05 -1.06117e-05
6.40012e-05 -1.92926e-05 -1.91608e-05 -1.06126e-05
6.44027e-05 -1.94143e-05 -1.92807e-05 -1.06127e-05
-6.43029e-05 1.92067e-05 1.93269e-05 -1.06117e-05
-5.12459e-08 -7.44223e-08 5.38578e-08 -1.08333e-05
6.42019e-05 -1.93534e-05 -1.92208e-05 -1.06126e-05
-5.26141e-08 -7.52406e-08 5.47949e-08 -1.08333e-05
-5.19291e-08 -7.4831e-08 5.43258e-08 -1.08333e-05
-6.41008e-05 1.91466e-05 1.92661e-05 -1.06117e-05
-6.36966e-05 1.90265e-05 1.91443e-05 -1.06117e-05
6.35997e-05 -1.91709e-05 -1.90409e-05 -1.06126e-05
6.40012e-05 -1.92926e-05 -1.91608e-05 -1.06126e-05
-6.38987e-05 1.90866e-05 1.92052e-05 -1.06117e-05
-4.98851e-08 -7.36077e-08 5.29255e-08 -1.08333e-05
6.38004e-05 -1.92318e-05 -1.91009e-05 -1.06126e-05
-5.12459e-08 -7.44223e-08 5.38578e-08 -1.08333e-05
-5.05646e-08 -7.40145e-08 5.33911e-08 -1.08333e-05
-6.36966e-05 1.90265e-05 1.91443e-05 -1.06117e-05
-6.32924e-05 1.89065e-05 1.90226e-05 -1.06117e-05
6.31982e-05 -1.90493e-05 -1.8921e-05 -1.06126e-05
6.35997e-05 -1.91709e-05 -1.90409e-05 -1.06126e-05
-6.34945e-05 1.89665e-05 1.90834e-05 -1.06117e-05
-4.85314e-08 -7.27969e-08 5.19978e-08 -1.08333e-05
6.33989e-05 -1.91101e-05 -1.89809e-05 -1.06126e-05
-4.98851e-08 -7.36077e-08 5.29255e-08 -1.08333e-05
-4.92073e-08 -7.32018e-08 5.24611e-08 -1.08333e-05
-6.32924e-05 1.89065e-05 1.90226e-05 -1.06117e-05
-6.28882e-05 1.87864e-05 1.89008e-05 -1.06117e-05
6.27966e-05 -1.89276e-05 -1.8801e-05 -1.06126e-05
6.31982e-05 -1.90493e-05 -1.8921e-05 -1.06126e-05
-6.30903e-05 1.88464e-05 1.89617e-05 -1.06117e-05
-4.7185e-08 -7.19898e-08 5.10749e-08 -1.08333e-05
6.29974e-05 -1.89884e-05 -1.8861e-05 -1.06126e-05
-4.85314e-08 -7.27969e-08 5.19978e-08 -1.08333e-05
-4.78573e-08 -7.23929e-08 5.15358e-08 -1.08333e-05
-6.28882e-05 1.87864e-05 1.89008e-05 -1.06117e-05
-6.24841e-05 1.86663e-05 1.87791e-05 -1.06117e-05
6.23951e-05 -1.88059e-05 -1.86811e-05 -1.06126e-05
6.27966e-05 -1.89276e-05 -1.8801e-05 -1.06126e-05
-6.26862e-05 1.87263e-05 1.88399e-05 -1.06117e-05
-4.58459e-08 -7.11866e-08 5.01568e-08 -1.08333e-05
6.25959e-05 -1.88668e-05 -1.87411e-05 -1.06126e-05
-4.7185e-08 -7.19898e-08 5.10749e-08 -1.08333e-05
-4.65146e-08 -7.15877e-08 5.06153e-08 -1.08333e-05
-6.24841e-05 1.86663e-05 1.87791e-05 -1.06117e-05
-6.20799e-05 1.85462e-05 1.86573e-05 -1.06117e-05
6.19936e-05 -1.86843e-05 -1.85611e-05 -1.06126e-05
6.23951e-05 -1.88059e-05 -1.86811e-05 -1.06126e-05
-6.2282e-05 1.86062e-05 1.87182e-05 -1.06117e-05
-4.45142e-08 -7.03872e-08 4.92434e-08 -1.08333e-05
6.21944e-05 -1.87451e-05 -1.86211e-05 -1.06126e-05
-4.58459e-08 -7.11866e-08 5.01568e-08 -1.08333e-05
-4.51791e-08 -7.07864e-08 4.96995e-08 -1.08333e-05
-6.20799e-05 1.85462e-05 1.86573e-05 -1.06117e-05
-6.16758e-05 1.84261e-05 1.85356e-05 -1.06117e-05
6.15921e-05 -1.85626e-05 -1.84412e-05 -1.06126e-05
6.19936e-05 -1.86843e-05 -1.85611e-05 -1.06126e-05
-6.18778e-05 1.84861e-05 1.85964e-05 -1.06117e-05
-4.31897e-08 -6.95917e-08 4.83349e-08 -1.08333e-05
6.17928e-05 -1.86234e-05 -1.85012e-05 -1.06126e-05
-4.45142e-08 -7.03872e-08 4.92434e-08 -1.08333e-05
-4.3851e-08 -6.9989e-08 4.87886e-08 -1.08333e-05
-6.16758e-05 1.84261e-05 1.85356e-05 -1.06117e-05
-6.12716e-05 1.8306e-05 1.84139e-05 -1.06117e-05
6.11905e-05 -1.84409e-05 -1.83212e-05 -1.06126e-05
6.15921e-05 -1.85626e-05 -1.84412e-05 -1.06126e-05
-6.14737e-05 1.8366e-05 1.84747e-05 -1.06117e-05
-4.18726e-08 -6.88001e-08 4.74312e-08 -1.08333e-05
6.13913e-05 -1.85018e-05 -1.83812e-05 -1.06126e-05
-4.31897e-08 -6.95917e-08 4.83349e-08 -1.08333e-05
-4.25303e-08 -6.91954e-08 4.78824e-08 -1.08333e-05
-6.12716e-05 1.8306e-05 1.84139e-05 -1.06117e-05
-6.08675e-05 1.81859e-05 1.82921e-05 -1.06117e-05
6.0789e-05 -1.83193e-05 -1.82013e-05 -1.06126e-05
6.11905e-05 -1.84409e-05 -1.83212e-05 -1.06126e-05
-6.10695e-05 1.82459e-05 1.8353e-05 -1.06117e-05
-4.05629e-08 -6.80125e-08 4.65323e-08 -1.08333e-05
6.09897e-05 -1.83801e-05 -1.82613e-05 -1.06126e-05
-4.18726e-08 -6.88001e-08 4.74312e-08 -1.08333e-05
-4.12169e-08 -6.84058e-08 4.69811e-08 -1.08333e-05
-6.08675e-05 1.81859e-05 1.82921e-05 -1.06117e-05
-6.04633e-05 1.80657e-05 1.81704e-05 -1.06117e-05
6.03874e-05 -1.81976e-05 -1.80813e-05 -1.06126e-05
6.0789e-05 -1.83193e-05 -1.82013e-05 -1.06126e-05
-6.06654e-05 1.81258e-05 1.82313e-05 -1.06117e-05
-3.92606e-08 -6.72288e-08 4.56383e-08 -1.08333e-05
6.05882e-05 -1.82585e-05 -1.81413e-05 -1.06126e-05
-4.05629e-08 -6.80125e-08 4.65323e-08 -1.08333e-05
-3.99108e-08 -6.76201e-08 4.60847e-08 -1.08333e-05
-6.04633e-05 1.80657e-05 1.81704e-05 -1.06117e-05
-6.00592e-05 1.79456e-05 1.80487e-05 -1.06117e-05
5.99858e-05 -1.8076e-05 -1.79614e-05 -1.06126e-05
6.03874e-05 -1.81976e-05 -1.80813e-05 -1.06126e-05
-6.02613e-05 1.80057e-05 1.81095e-05 -1.06117e-05
-3.79657e-08 -6.64491e-08 4.47492e-08 -1.08333e-05
6.01866e-05 -1.81368e-05 -1.80213e-05 -1.06126e-05
-3.92606e-08 -6.72288e-08 4.56383e-08 -1.08333e-05
-3.86122e-08 -6.68384e-08 4.51931e-08 -1.08333e-05
-6.00592e-05 1.79456e-05 1.80487e-05 -1.06117e-05
-5.96551e-05 1.78255e-05 1.7927e-05 -1.06117e-05
5.95843e-05 -1.79544e-05 -1.78414e-05 -1.06126e-05
5.99858e-05 -1.8076e-05 -1.79614e-05 -1.06126e-05
-5.98572e-05 1.78856e-05 1.79878e-05 -1.06117e-05
-3.66783e-08 -6.56734e-08 4.3865e-08 -1.08332e-05
5.9785e-05 -1.80152e-05 -1.79014e-05 -1.06126e-05
-3.79657e-08 -6.64491e-08 4.47492e-08 -1.08333e-05
-3.73211e-08 -6.60607e-08 4.43065e-08 -1.08333e-05
-5.96551e-05 1.78255e-05 1.7927e-05 -1.06117e-05
-5.9251e-05 1.77054e-05 1.78053e-05 -1.06117e-05
5.91827e-05 -1.78327e-05 -1.77214e-05 -1.06126e-05
5.95843e-05 -1.79544e-05 -1.78414e-05 -1.06126e-05
-5.94531e-05 1.77654e-05 1.78661e-05 -1.06117e-05
-3.53984e-08 -6.49017e-08 4.29858e-08 -1.08332e-05
5.93835e-05 -1.78935e-05 -1.77814e-05 -1.06126e-05
-3.66783e-08 -6.56734e-08 4.3865e-08 -1.08332e-05
-3.60374e-08 -6.5287e-08 4.34248e-08 -1.08332e-05
-5.9251e-05 1.77054e-05 1.78053e-05 -1.06117e-05
-5.88469e-05 1.75852e-05 1.76836e-05 -1.06117e-05
5.87811e-05 -1.77111e-05 -1.76014e-05 -1.06126e-05
5.91827e-05 -1.78327e-05 -1.77214e-05 -1.06126e-05
-5.9049e-05 1.76453e-05 1.77444e-05 -1.06117e-05
-3.41259e-08 -6.41341e-08 4.21115e-08 -1.08332e-05
5.89819e-05 -1.77719e-05 -1.76614e-05 -1.06126e-05
-3.53984e-08 -6.49017e-08 4.29858e-08 -1.08332e-05
-3.47612e-08 -6.45174e-08 4.2548e-08 -1.08332e-05
-5.88469e-05 1.75852e-05 1.76836e-05 -1.06117e-05
-5.84428e-05 1.74651e-05 1.75619e-05 -1.06117e-05
5.83795e-05 -1.75895e-05 -1.74814e-05 -1.06126e-05
5.87811e-05 -1.77111e-05 -1.76014e-05 -1.06126e-05
-5.86449e-05 1.75252e-05 1.76227e-05 -1.06117e-05
-3.2861e-08 -6.33706e-08 4.12421e-08 -1.08332e-05
5.85803e-05 -1.76503e-05 -1.75414e-05 -1.06126e-05
-3.41259e-08 -6.41341e-08 4.21115e-08 -1.08332e-05
-3.34925e-08 -6.37518e-08 4.16762e-08 -1.08332e-05
-5.84428e-05 1.74651e-05 1.75619e-05 -1.06117e-05
-5.80387e-05 1.7345e-05 1.74402e-05 -1.06117e-05
5.79779e-05 -1.74678e-05 -1.73614e-05 -1.06126e-05
5.83795e-05 -1.75895e-05 -1.74814e-05 -1.06126e-05
-5.82408e-05 1.7405e-05 1.7501e-05 -1.06117e-05
-3.16037e-08 -6.26112e-08 4.03778e-08 -1.08332e-05
5.81787e-05 -1.75287e-05 -1.74214e-05 -1.06126e-05
-3.2861e-08 -6.33706e-08 4.12421e-08 -1.08332e-05
-3.22314e-08 -6.29904e-08 4.08093e-08 -1.08332e-05
-5.80387e-05 1.7345e-05 1.74402e-05 -1.06117e-05
-5.76346e-05 1.72248e-05 1.73185e-05 -1.06117e-05
5.75763e-05 -1.73462e-05 -1.72414e-05 -1.06126e-05
5.79779e-05 -1.74678e-05 -1.73614e-05 -1.06126e-05
-5.78367e-05 1.72849e-05 1.73793e-05 -1.06117e-05
-3.03539e-08 -6.18559e-08 3.95185e-08 -1.08332e-05
5.77771e-05 -1.7407e-05 -1.73014e-05 -1.06126e-05
-3.16037e-08 -6.26112e-08 4.03778e-08 -1.08332e-05
-3.09778e-08 -6.2233e-08 3.99475e-08 -1.08332e-05
-5.76346e-05 1.72248e-05 1.73185e-05 -1.06117e-05
-5.72306e-05 1.71047e-05 1.71968e-05 -1.06117e-05
5.71747e-05 -1.72246e-05 -1.71214e-05 -1.06125e-05
5.75763e-05 -1.73462e-05 -1.72414e-05 -1.06126e-05
-5.74326e-05 1.71648e-05 1.72576e-05 -1.06117e-05
-2.91117e-08 -6.11048e-08 3.86642e-08 -1.08332e-05
5.73755e-05 -1.72854e-05 -1.71814e-05 -1.06126e-05
-3.03539e-08 -6.18559e-08 3.95185e-08 -1.08332e-05
-2.97319e-08 -6.14798e-08 3.90907e-08 -1.08332e-05
-5.72306e-05 1.71047e-05 1.71968e-05 -1.06117e-05
-5.68265e-05 1.69845e-05 1.70751e-05 -1.06117e-05
5.6773e-05 -1.7103e-05 -1.70014e-05 -1.06125e-05
5.71747e-05 -1.72246e-05 -1.71214e-05 -1.06125e-05
-5.70285e-05 1.70446e-05 1.7136e-05 -1.06117e-05
-2.78771e-08 -6.03578e-08 3.7815e-08 -1.08332e-05
5.69738e-05 -1.71638e-05 -1.70614e-05 -1.06125e-05
-2.91117e-08 -6.11048e-08 3.86642e-08 -1.08332e-05
-2.84935e-08 -6.07308e-08 3.8239e-08 -1.08332e-05
-5.68265e-05 1.69845e-05 1.70751e-05 -1.06117e-05
-5.64225e-05 1.68644e-05 1.69535e-05 -1.06117e-05
5.63714e-05 -1.69814e-05 -1.68814e-05 -1.06125e-05
5.6773e-05 -1.7103e-05 -1.70014e-05 -1.06125e-05
-5.66245e-05 1.69245e-05 1.70143e-05 -1.06117e-05
-2.66502e-08 -5.9615e-08 3.69708e-08 -1.08332e-05
5.65722e-05 -1.70422e-05 -1.69414e-05 -1.06125e-05
-2.78771e-08 -6.03578e-08 3.7815e-08 -1.08332e-05
-2.72627e-08 -5.99859e-08 3.73923e-08 -1.08332e-05
-5.64225e-05 1.68644e-05 1.69535e-05 -1.06117e-05
-5.60184e-05 1.67442e-05 1.68318e-05 -1.06117e-05
5.59698e-05 -1.68598e-05 -1.67614e-05 -1.06125e-05
5.63714e-05 -1.69814e-05 -1.68814e-05 -1.06125e-05
-5.62204e-05 1.68043e-05 1.68926e-05 -1.06117e-05
-2.5431e-08 -5.88765e-08 3.61318e-08 -1.08332e-05
5.61706e-05 -1.69206e-05 -1.68214e-05 -1.06125e-05
-2.66502e-08 -5.9615e-08 3.69708e-08 -1.08332e-05
-2.60397e-08 -5.92452e-08 3.65507e-08 -1.08332e-05
-5.60184e-05 1.67442e-05 1.68318e-05 -1.06117e-05
-5.56144e-05 1.66241e-05 1.67101e-05 -1.06117e-05
5.55681e-05 -1.67382e-05 -1.66414e-05 -1.06125e-05
5.59698e-05 -1.68598e-05 -1.67614e-05 -1.06125e-05
-5.58164e-05 1.66842e-05 1.6771e-05 -1.06117e-05
-2.42194e-08 -5.81422e-08 3.52978e-08 -1.08332e-05
5.57689e-05 -1.6799e-05 -1.67014e-05 -1.06125e-05
-2.5431e-08 -5.88765e-08 3.61318e-08 -1.08332e-05
-2.48242e-08 -5.85088e-08 3.57142e-08 -1.08332e-05
-5.56144e-05 1.66241e-05 1.67101e-05 -1.06117e-05
-5.52103e-05 1.65039e-05 1.65885e-05 -1.06117e-05
5.51664e-05 -1.66166e-05 -1.65214e-05 -1.06125e-05
5.55681e-05 -1.67382e-05 -1.66414e-05 -1.06125e-05
-5.54124e-05 1.6564e-05 1.66493e-05 -1.06117e-05
-2.30156e-08 -5.74122e-08 3.4469e-08 -1.08332e-05
5.53673e-05 -1.66774e-05 -1.65814e-05 -1.06125e-05
-2.42194e-08 -5.81422e-08 3.52978e-08 -1.08332e-05
-2.36165e-08 -5.77767e-08 3.48828e-08 -1.08332e-05
-5.52103e-05 1.65039e-05 1.65885e-05 -1.06117e-05
-5.48063e-05 1.63837e-05 1.64668e-05 -1.06117e-05
5.47648e-05 -1.6495e-05 -1.64013e-05 -1.06125e-05
5.51664e-05 -1.66166e-05 -1.65214e-05 -1.06125e-05
-5.50083e-05 1.64438e-05 1.65276e-05 -1.06117e-05
-2.18195e-08 -5.66865e-08 3.36454e-08 -1.08332e-05
5.49656e-05 -1.65558e-05 -1.64613e-05 -1.06125e-05
-2.30156e-08 -5.74122e-08 3.4469e-08 -1.08332e-05
-2.24166e-08 -5.70488e-08 3.40566e-08 -1.08332e-05
-5.48063e-05 1.63837e-05 1.64668e-05 -1.06117e-05
-5.44023e-05 1.62636e-05 1.63452e-05 -1.06117e-05
5.43631e-05 -1.63734e-05 -1.62813e-05 -1.06125e-05
5.47648e-05 -1.6495e-05 -1.64013e-05 -1.06125e-05
-5.46043e-05 1.63237e-05 1.6406e-05 -1.06117e-05
-2.06311e-08 -5.5965e-08 3.28269e-08 -1.08332e-05
5.4564e-05 -1.64342e-05 -1.63413e-05 -1.06125e-05
-2.18195e-08 -5.66865e-08 3.36454e-08 -1.08332e-05
-2.12243e-08 -5.63252e-08 3.32355e-08 -1.08332e-05
-5.44023e-05 1.62636e-05 1.63452e-05 -1.06117e-05
-5.39983e-05 1.61434e-05 1.62235e-05 -1.06117e-05
5.39614e-05 -1.62518e-05 -1.61613e-05 -1.06125e-05
5.43631e-05 -1.63734e-05 -1.62813e-05 -1.06125e-05
-5.42003e-05 1.62035e-05 1.62844e-05 -1.06117e-05
-1.94506e-08 -5.5248e-08 3.20137e-08 -1.08332e-05
5.41623e-05 -1.63126e-05 -1.62213e-05 -1.06125e-05
-2.06311e-08 -5.5965e-08 3.28269e-08 -1.08332e-05
-2.00399e-08 -5.5606e-08 3.24196e-08 -1.08332e-05
-5.39983e-05 1.61434e-05 1.62235e-05 -1.06117e-05
-5.35943e-05 1.60232e-05 1.61019e-05 -1.06117e-05
5.35598e-05 -1.61303e-05 -1.60412e-05 -1.06125e-05
5.39614e-05 -1.62518e-05 -1.61613e-05 -1.06125e-05
-5.37963e-05 1.60833e-05 1.61627e-05 -1.06117e-05
-1.82778e-08 -5.45352e-08 3.12056e-08 -1.08332e-05
5.37606e-05 -1.61911e-05 -1.61012e-05 -1.06125e-05
-1.94506e-08 -5.5248e-08 3.20137e-08 -1.08332e-05
-1.88632e-08 -5.4891e-08 3.1609e-08 -1.08332e-05
-5.35943e-05 1.60232e-05 1.61019e-05 -1.06117e-05
-5.31903e-05 1.5903e-05 1.59803e-05 -1.06117e-05
5.31581e-05 -1.60087e-05 -1.59212e-05 -1.06125e-05
5.35598e-05 -1.61303e-05 -1.60412e-05 -1.06125e-05
-5.33923e-05 1.59631e-05 1.60411e-05 -1.06117e-05
-1.71129e-08 -5.38269e-08 3.04027e-08 -1.08332e-05
5.33589e-05 -1.60695e-05 -1.59812e-05 -1.06125e-05
-1.82778e-08 -5.45352e-08 3.12056e-08 -1.08332e-05
-1.76943e-08 -5.41805e-08 3.08035e-08 -1.08332e-05
-5.31903e-05 1.5903e-05 1.59803e-05 -1.06117e-05
-5.27863e-05 1.57828e-05 1.58586e-05 -1.06117e-05
5.27564e-05 -1.58871e-05 -1.58011e-05 -1.06125e-05
5.31581e-05 -1.60087e-05 -1.59212e-05 -1.06125e-05
-5.29883e-05 1.58429e-05 1.59194e-05 -1.06117e-05
-1.59558e-08 -5.31229e-08 2.96052e-08 -1.08332e-05
5.29572e-05 -1.59479e-05 -1.58611e-05 -1.06125e-05
-1.71129e-08 -5.38269e-08 3.04027e-08 -1.08332e-05
-1.65333e-08 -5.34743e-08 3.00033e-08 -1.08332e-05
-5.27863e-05 1.57828e-05 1.58586e-05 -1.06117e-05
-5.23823e-05 1.56626e-05 1.5737e-05 -1.06117e-05
5.23547e-05 -1.57656e-05 -1.5681e-05 -1.06125e-05
5.27564e-05 -1.58871e-05 -1.58011e-05 -1.06125e-05
-5.25843e-05 1.57227e-05 1.57978e-05 -1.06117e-05
-1.48065e-08 -5.24234e-08 2.88128e-08 -1.08332e-05
5.25555e-05 -1.58263e-05 -1.57411e-05 -1.06125e-05
-1.59558e-08 -5.31229e-08 2.96052e-08 -1.08332e-05
-1.53802e-08 -5.27726e-08 2.92083e-08 -1.08332e-05
-5.23823e-05 1.56626e-05 1.5737e-05 -1.06117e-05
-5.19784e-05 1.55424e-05 1.56154e-05 -1.06117e-05
5.19529e-05 -1.5644e-05 -1.5561e-05 -1.06125e-05
5.23547e-05 -1.57656e-05 -1.5681e-05 -1.06125e-05
-5.21804e-05 1.56025e-05 1.56762e-05 -1.06117e-05
-1.36652e-08 -5.17283e-08 2.80258e-08 -1.08332e-05
5.21538e-05 -1.57048e-05 -1.5621e-05 -1.06125e-05
-1.48065e-08 -5.24234e-08 2.88128e-08 -1.08332e-05
-1.42349e-08 -5.20753e-08 2.84187e-08 -1.08332e-05
-5.19784e-05 1.55424e-05 1.56154e-05 -1.06117e-05
-5.15744e-05 1.54222e-05 1.54938e-05 -1.06117e-05
5.15512e-05 -1.55224e-05 -1.54409e-05 -1.06125e-05
5.19529e-05 -1.5644e-05 -1.5561e-05 -1.06125e-05
-5.17764e-05 1.54823e-05 1.55546e-05 -1.06117e-05
-1.25318e-08 -5.10377e-08 2.72441e-08 -1.08332e-05
5.17521e-05 -1.55832e-05 -1.55009e-05 -1.06125e-05
-1.36652e-08 -5.17283e-08 2.80258e-08 -1.08332e-05
-1.30975e-08 -5.13824e-08 2.76343e-08 -1.08332e-05
-5.15744e-05 1.54222e-05 1.54938e-05 -1.06117e-05
-5.11705e-05 1.5302e-05 1.53722e-05 -1.06117e-05
5.11495e-05 -1.54009e-05 -1.53208e-05 -1.06125e-05
5.15512e-05 -1.55224e-05 -1.54409e-05 -1.06125e-05
-5.13724e-05 1.53621e-05 1.5433e-05 -1.06117e-05
-1.14063e-08 -5.03516e-08 2.64676e-08 -1.08332e-05
5.13503e-05 -1.54617e-05 -1.53809e-05 -1.06125e-05
-1.25318e-08 -5.10377e-08 2.72441e-08 -1.08332e-05
-1.1968e-08 -5.06941e-08 2.68552e-08 -1.08332e-05
-5.11705e-05 1.5302e-05 1.53722e-05 -1.06117e-05
-5.07665e-05 1.51818e-05 1.52506e-05 -1.06117e-05
5.07477e-05 -1.52793e-05 -1.52007e-05 -1.06124e-05
5.11495e-05 -1.54009e-05 -1.53208e-05 -1.06125e-05
-5.09685e-05 1.52419e-05 1.53114e-05 -1.06117e-05
-1.02887e-08 -4.96699e-08 2.56966e-08 -1.08332e-05
5.09486e-05 -1.53401e-05 -1.52608e-05 -1.06125e-05
-1.14063e-08 -5.03516e-08 2.64676e-08 -1.08332e-05
-1.08465e-08 -5.00102e-08 2.60814e-08 -1.08332e-05
-5.07665e-05 1.51818e-05 1.52506e-05 -1.06117e-05
-5.03626e-05 1.50616e-05 1.5129e-05 -1.06117e-05
5.0346e-05 -1.51578e-05 -1.50807e-05 -1.06124e-05
5.07477e-05 -1.52793e-05 -1.52007e-05 -1.06124e-05
-5.05645e-05 1.51217e-05 1.51898e-05 -1.06117e-05
-9.17917e-09 -4.89928e-08 2.49309e-08 -1.08332e-05
5.05469e-05 -1.52186e-05 -1.51407e-05 -1.06124e-05
-1.02887e-08 -4.96699e-08 2.56966e-08 -1.08332e-05
-9.73296e-09 -4.93308e-08 2.5313e-08 -1.08332e-05
-5.03626e-05 1.50616e-05 1.5129e-05 -1.06117e-05
-4.99586e-05 1.49414e-05 1.50074e-05 -1.06117e-05
4.99442e-05 -1.50363e-05 -1.49606e-05 -1.06124e-05
5.0346e-05 -1.51578e-05 -1.50807e-05 -1.06124e-05
-5.01606e-05 1.50015e-05 1.50682e-05 -1.06117e-05
-8.07759e-09 -4.83203e-08 2.41705e-08 -1.08332e-05
5.01451e-05 -1.5097e-05 -1.50206e-05 -1.06124e-05
-9.17917e-09 -4.89928e-08 2.49309e-08 -1.08332e-05
-8.62738e-09 -4.8656e-08 2.455e-08 -1.08332e-05
-4.99586e-05 1.49414e-05 1.50074e-05 -1.06117e-05
-4.95547e-05 1.48211e-05 1.48858e-05 -1.06117e-05
4.95425e-05 -1.49147e-05 -1.48405e-05 -1.06124e-05
4.99442e-05 -1.50363e-05 -1.49606e-05 -1.06124e-05
-4.97567e-05 1.48813e-05 1.49466e-05 -1.06117e-05
-6.98402e-09 -4.76523e-08 2.34156e-08 -1.08332e-05
4.97434e-05 -1.49755e-05 -1.49005e-05 -1.06124e-05
-8.07758e-09 -4.83203e-08 2.41705e-08 -1.08332e-05
-7.5298e-09 -4.79857e-08 2.37924e-08 -1.08332e-05
-4.95547e-05 1.48211e-05 1.48858e-05 -1.06117e-05
-4.91508e-05 1.47009e-05 1.47642e-05 -1.06117e-05
4.91407e-05 -1.47932e-05 -1.47204e-05 -1.06124e-05
4.95425e-05 -1.49147e-05 -1.48405e-05 -1.06124e-05
-4.93528e-05 1.4761e-05 1.4825e-05 -1.06117e-05
-5.8985e-09 -4.69889e-08 2.2666e-08 -1.08332e-05
4.93416e-05 -1.4854e-05 -1.47804e-05 -1.06124e-05
-6.98402e-09 -4.76523e-08 2.34156e-08 -1.08332e-05
-6.44026e-09 -4.732e-08 2.30401e-08 -1.08332e-05
-4.91508e-05 1.47009e-05 1.47642e-05 -1.06117e-05
-4.87469e-05 1.45807e-05 1.46427e-05 -1.06117e-05
4.87389e-05 -1.46717e-05 -1.46002e-05 -1.06124e-05
4.91407e-05 -1.47932e-05 -1.47204e-05 -1.06124e-05
-4.89489e-05 1.46408e-05 1.47035e-05 -1.06117e-05
-4.82102e-09 -4.63301e-08 2.19219e-08 -1.08332e-05
4.89398e-05 -1.47324e-05 -1.46603e-05 -1.06124e-05
-5.8985e-09 -4.69889e-08 2.2666e-08 -1.08332e-05
-5.35876e-09 -4.66589e-08 2.22933e-08 -1.08332e-05
-4.87469e-05 1.45807e-05 1.46427e-05 -1.06117e-05
-4.8343e-05 1.44604e-05 1.45211e-05 -1.06117e-05
4.83371e-05 -1.45502e-05 -1.44801e-05 -1.06124e-05
4.87389e-05 -1.46717e-05 -1.46002e-05 -1.06124e-05
-4.8545e-05 1.45206e-05 1.45819e-05 -1.06117e-05
-3.75162e-09 -4.56759e-08 2.11832e-08 -1.08332e-05
4.8538e-05 -1.46109e-05 -1.45402e-05 -1.06124e-05
-4.82102e-09 -4.63301e-08 2.19219e-08 -1.08332e-05
-4.28531e-09 -4.60024e-08 2.15519e-08 -1.08332e-05
-4.8343e-05 1.44604e-05 1.45211e-05 -1.06117e-05
-4.79391e-05 1.43402e-05 1.43995e-05 -1.06117e-05
4.79354e-05 -1.44286e-05 -1.436e-05 -1.06124e-05
4.83371e-05 -1.45502e-05 -1.44801e-05 -1.06124e-05
-4.81411e-05 1.44003e-05 1.44603e-05 -1.06117e-05
-2.69031e-09 -4.50264e-08 2.045e-08 -1.08331e-05
4.81362e-05 -1.44894e-05 -1.44201e-05 -1.06124e-05
-3.75162e-09 -4.56759e-08 2.11832e-08 -1.08332e-05
-3.21996e-09 -4.53506e-08 2.08159e-08 -1.08331e-05
-4.79391e-05 1.43402e-05 1.43995e-05 -1.06117e-05
-4.75352e-05 1.422e-05 1.4278e-05 -1.06117e-05
4.75336e-05 -1.43071e-05 -1.42399e-05 -1.06124e-05
4.79354e-05 -1.44286e-05 -1.436e-05 -1.06124e-05
-4.77372e-05 1.42801e-05 1.43388e-05 -1.06117e-05
-1.63711e-09 -4.43815e-08 1.97223e-08 -1.08331e-05
4.77345e-05 -1.43679e-05 -1.43e-05 -1.06124e-05
-2.69031e-09 -4.50264e-08 2.045e-08 -1.08331e-05
-2.1627e-09 -4.47034e-08 2.00855e-08 -1.08331e-05
-4.75352e-05 1.422e-05 1.4278e-05 -1.06117e-05
-4.71314e-05 1.40997e-05 1.41564e-05 -1.06117e-05
4.71317e-05 -1.41856e-05 -1.41198e-05 -1.06124e-05
4.75336e-05 -1.43071e-05 -1.42399e-05 -1.06124e-05
-4.73333e-05 1.41598e-05 1.42172e-05 -1.06117e-05
-5.92046e-10 -4.37414e-08 1.9e-08 -1.08331e-05
4.73326e-05 -1.42464e-05 -1.41798e-05 -1.06124e-05
-1.63711e-09 -4.43815e-08 1.97223e-08 -1.08331e-05
-1.11357e-09 -4.40609e-08 1.93605e-08 -1.08331e-05
-4.71314e-05 1.40997e-05 1.41564e-05 -1.06117e-05
-4.67275e-05 1.39794e-05 1.40349e-05 -1.06117e-05
4.67299e-05 -1.40641e-05 -1.39996e-05 -1.06124e-05
4.71317e-05 -1.41856e-05 -1.41198e-05 -1.06124e-05
-4.69294e-05 1.40396e-05 1.40957e-05 -1.06117e-05
4.44867e-10 -4.31059e-08 1.82833e-08 -1.08331e-05
4.69308e-05 -1.41249e-05 -1.40597e-05 -1.06124e-05
-5.92049e-10 -4.37414e-08 1.9e-08 -1.08331e-05
-7.25744e-11 -4.34231e-08 1.8641e-08 -1.08331e-05
-4.67275e-05 1.39794e-05 1.40349e-05 -1.06117e-05
-4.63236e-05 1.38592e-05 1.39133e-05 -1.06117e-05
4.63281e-05 -1.39426e-05 -1.38795e-05 -1.06124e-05
4.67299e-05 -1.40641e-05 -1.39996e-05 -1.06124e-05
-4.65256e-05 1.39193e-05 1.39741e-05 -1.06117e-05
1.4736e-09 -4.24752e-08 1.75721e-08 -1.08331e-05
4.6529e-05 -1.40034e-05 -1.39396e-05 -1.06124e-05
4.44861e-10 -4.31059e-08 1.82833e-08 -1.08331e-05
9.60247e-10 -4.27899e-08 1.7927e-08 -1.08331e-05
-4.63236e-05 1.38592e-05 1.39133e-05 -1.06117e-05
-4.59198e-05 1.37389e-05 1.37918e-05 -1.06117e-05
4.59263e-05 -1.38211e-05 -1.37593e-05 -1.06124e-05
4.63281e-05 -1.39426e-05 -1.38795e-05 -1.06124e-05
-4.61217e-05 1.3799e-05 1.38526e-05 -1.06117e-05
2.49416e-09 -4.18492e-08 1.68664e-08 -1.08331e-05
4.61272e-05 -1.38819e-05 -1.38194e-05 -1.06124e-05
1.4736e-09 -4.24752e-08 1.75721e-08 -1.08331e-05
1.9849e-09 -4.21616e-08 1.72186e-08 -1.08331e-05
-4.59198e-05 1.37389e-05 1.37918e-05 -1.06117e-05
-4.5516e-05 1.36186e-05 1.36703e-05 -1.06117e-05
4.55244e-05 -1.36997e-05 -1.36392e-05 -1.06124e-05
4.59263e-05 -1.38211e-05 -1.37593e-05 -1.06124e-05
-4.57179e-05 1.36788e-05 1.3731e-05 -1.06117e-05
3.5065e-09 -4.1228e-08 1.61663e-08 -1.08331e-05
4.57253e-05 -1.37604e-05 -1.36993e-05 -1.06124e-05
2.49416e-09 -4.18492e-08 1.68664e-08 -1.08331e-05
3.00135e-09 -4.1538e-08 1.65157e-08 -1.08331e-05
-4.5516e-05 1.36186e-05 1.36703e-05 -1.06117e-05
-4.51121e-05 1.34984e-05 1.35488e-05 -1.06117e-05
4.51226e-05 -1.35782e-05 -1.3519e-05 -1.06124e-05
4.55244e-05 -1.36997e-05 -1.36392e-05 -1.06124e-05
-4.5314e-05 1.35585e-05 1.36095e-05 -1.06117e-05
4.51061e-09 -4.06115e-08 1.54718e-08 -1.08331e-05
4.53235e-05 -1.36389e-05 -1.35791e-05 -1.06124e-05
3.5065e-09 -4.1228e-08 1.61663e-08 -1.08331e-05
4.00958e-09 -4.09191e-08 1.58184e-08 -1.08331e-05
-4.51121e-05 1.34984e-05 1.35488e-05 -1.06117e-05
-4.47083e-05 1.33781e-05 1.34272e-05 -1.06117e-05
4.47207e-05 -1.34567e-05 -1.33989e-05 -1.06124e-05
4.51226e-05 -1.35782e-05 -1.3519e-05 -1.06124e-05
-4.49102e-05 1.34382e-05 1.3488e-05 -1.06117e-05
5.50649e-09 -3.99998e-08 1.47829e-08 -1.08331e-05
4.49217e-05 -1.35174e-05 -1.3459e-05 -1.06124e-05
4.51061e-09 -4.06115e-08 1.54718e-08 -1.08331e-05
5.00956e-09 -4.03051e-08 1.51266e-08 -1.08331e-05
-4.47083e-05 1.33781e-05 1.34272e-05 -1.06117e-05
-4.43045e-05 1.32578e-05 1.33057e-05 -1.06117e-05
4.43189e-05 -1.33352e-05 -1.32787e-05 -1.06123e-05
4.47207e-05 -1.34567e-05 -1.33989e-05 -1.06124e-05
-4.45064e-05 1.33179e-05 1.33665e-05 -1.06117e-05
6.4941e-09 -3.9393e-08 1.40995e-08 -1.08331e-05
4.45198e-05 -1.3396e-05 -1.33388e-05 -1.06123e-05
5.50649e-09 -3.99998e-08 1.47829e-08 -1.08331e-05
6.00133e-09 -3.96958e-08 1.44405e-08 -1.08331e-05
-4.43045e-05 1.32578e-05 1.33057e-05 -1.06117e-05
-4.39007e-05 1.31375e-05 1.31842e-05 -1.06117e-05
4.3917e-05 -1.32138e-05 -1.31585e-05 -1.06123e-05
4.43189e-05 -1.33352e-05 -1.32787e-05 -1.06123e-05
-4.41026e-05 1.31977e-05 1.3245e-05 -1.06117e-05
7.47342e-09 -3.8791e-08 1.34218e-08 -1.08331e-05
4.41179e-05 -1.32745e-05 -1.32186e-05 -1.06123e-05
6.4941e-09 -3.9393e-08 1.40995e-08 -1.08331e-05
6.98478e-09 -3.90914e-08 1.376e-08 -1.08331e-05
-4.39007e-05 1.31375e-05 1.31842e-05 -1.06117e-05
-4.34969e-05 1.30172e-05 1.30627e-05 -1.06117e-05
4.35151e-05 -1.30923e-05 -1.30383e-05 -1.06123e-05
4.3917e-05 -1.32138e-05 -1.31585e-05 -1.06123e-05
-4.36988e-05 1.30774e-05 1.31235e-05 -1.06117e-05
8.44445e-09 -3.81939e-08 1.27498e-08 -1.08331e-05
4.3716e-05 -1.3153e-05 -1.30984e-05 -1.06123e-05
7.47342e-09 -3.8791e-08 1.34218e-08 -1.08331e-05
7.95997e-09 -3.84918e-08 1.30851e-08 -1.08331e-05
-4.34969e-05 1.30172e-05 1.30627e-05 -1.06117e-05
-4.30931e-05 1.28969e-05 1.29412e-05 -1.06117e-05
4.31132e-05 -1.29708e-05 -1.29182e-05 -1.06123e-05
4.35151e-05 -1.30923e-05 -1.30383e-05 -1.06123e-05
-4.3295e-05 1.29571e-05 1.3002e-05 -1.06117e-05
9.40716e-09 -3.76016e-08 1.20833e-08 -1.08331e-05
4.33142e-05 -1.30316e-05 -1.29783e-05 -1.06123e-05
8.44445e-09 -3.81939e-08 1.27498e-08 -1.08331e-05
8.92684e-09 -3.78971e-08 1.24158e-08 -1.08331e-05
-4.30931e-05 1.28969e-05 1.29412e-05 -1.06117e-05
-4.26893e-05 1.27766e-05 1.28197e-05 -1.06117e-05
4.27113e-05 -1.28494e-05 -1.2798e-05 -1.06123e-05
4.31132e-05 -1.29708e-05 -1.29182e-05 -1.06123e-05
-4.28912e-05 1.28368e-05 1.28805e-05 -1.06117e-05
1.03615e-08 -3.70142e-08 1.14226e-08 -1.08331e-05
4.29123e-05 -1.29101e-05 -1.28581e-05 -1.06123e-05
9.40716e-09 -3.76016e-08 1.20833e-08 -1.08331e-05
9.88539e-09 -3.73073e-08 1.17522e-08 -1.08331e-05
-4.26893e-05 1.27766e-05 1.28197e-05 -1.06117e-05
-4.22855e-05 1.26563e-05 1.26982e-05 -1.06117e-05
4.23094e-05 -1.27279e-05 -1.26778e-05 -1.06123e-05
4.27113e-05 -1.28494e-05 -1.2798e-05 -1.06123e-05
-4.24874e-05 1.27165e-05 1.2759e-05 -1.06117e-05
1.13076e-08 -3.64317e-08 1.07675e-08 -1.08331e-05
4.25104e-05 -1.27886e-05 -1.27379e-05 -1.06123e-05
1.03615e-08 -3.70142e-08 1.14226e-08 -1.08331e-05
1.08356e-08 -3.67224e-08 1.10943e-08 -1.08331e-05
-4.22855e-05 1.26563e-05 1.26982e-05 -1.06117e-05
-4.18818e-05 1.2536e-05 1.25768e-05 -1.06117e-05
4.19075e-05 -1.26065e-05 -1.25576e-05 -1.06123e-05
4.23094e-05 -1.27279e-05 -1.26778e-05 -1.06123e-05
-4.20837e-05 1.25962e-05 1.26375e-05 -1.06117e-05
1.22452e-08 -3.58542e-08 1.01181e-08 -1.08331e-05
4.21085e-05 -1.26672e-05 -1.26177e-05 -1.06123e-05
1.13076e-08 -3.64317e-08 1.07675e-08 -1.08331e-05
1.17774e-08 -3.61423e-08 1.04421e-08 -1.08331e-05
-4.18818e-05 1.2536e-05 1.25768e-05 -1.06117e-05
-4.1478e-05 1.24157e-05 1.24553e-05 -1.06117e-05
4.15056e-05 -1.2485e-05 -1.24374e-05 -1.06123e-05
4.19075e-05 -1.26065e-05 -1.25576e-05 -1.06123e-05
-4.16799e-05 1.24758e-05 1.2516e-05 -1.06117e-05
1.31745e-08 -3.52816e-08 9.47446e-09 -1.08331e-05
4.17065e-05 -1.25458e-05 -1.24975e-05 -1.06123e-05
1.22452e-08 -3.58542e-08 1.01181e-08 -1.08331e-05
1.27109e-08 -3.55672e-08 9.79558e-09 -1.08331e-05
-4.1478e-05 1.24157e-05 1.24553e-05 -1.06117e-05
-4.10743e-05 1.22954e-05 1.23338e-05 -1.06117e-05
4.11036e-05 -1.23636e-05 -1.23172e-05 -1.06123e-05
4.15056e-05 -1.2485e-05 -1.24374e-05 -1.06123e-05
-4.12761e-05 1.23555e-05 1.23946e-05 -1.06117e-05
1.40954e-08 -3.47139e-08 8.83652e-09 -1.08331e-05
4.13046e-05 -1.24243e-05 -1.23773e-05 -1.06123e-05
1.31745e-08 -3.52816e-08 9.47446e-09 -1.08331e-05
1.3636e-08 -3.49971e-08 9.15478e-09 -1.08331e-05
-4.10743e-05 1.22954e-05 1.23338e-05 -1.06117e-05
-4.06705e-05 1.2175e-05 1.22124e-05 -1.06117e-05
4.07017e-05 -1.22422e-05 -1.21969e-05 -1.06123e-05
4.11036e-05 -1.23636e-05 -1.23172e-05 -1.06123e-05
-4.08724e-05 1.22352e-05 1.22731e-05 -1.06117e-05
1.50078e-08 -3.41512e-08 8.20432e-09 -1.08331e-05
4.09027e-05 -1.23029e-05 -1.22571e-05 -1.06123e-05
1.40954e-08 -3.47139e-08 8.83652e-09 -1.08331e-05
1.45526e-08 -3.44319e-08 8.5197e-09 -1.08331e-05
-4.06705e-05 1.2175e-05 1.22124e-05 -1.06117e-05
-4.02668e-05 1.20547e-05 1.20909e-05 -1.06117e-05
4.02998e-05 -1.21208e-05 -1.20767e-05 -1.06123e-05
4.07017e-05 -1.22422e-05 -1.21969e-05 -1.06123e-05
-4.04687e-05 1.21149e-05 1.21516e-05 -1.06117e-05
1.59118e-08 -3.35935e-08 7.57788e-09 -1.08331e-05
4.05007e-05 -1.21815e-05 -1.21368e-05 -1.06123e-05
1.50078e-08 -3.41512e-08 8.20432e-09 -1.08331e-05
1.54609e-08 -3.38717e-08 7.89038e-09 -1.08331e-05
-4.02668e-05 1.20547e-05 1.20909e-05 -1.06117e-05
-3.98631e-05 1.19344e-05 1.19694e-05 -1.06117e-05
3.98978e-05 -1.19993e-05 -1.19565e-05 -1.06123e-05
4.02998e-05 -1.21208e-05 -1.20767e-05 -1.06123e-05
-4.00649e-05 1.19945e-05 1.20302e-05 -1.06117e-05
1.68074e-08 -3.30408e-08 6.95721e-09 -1.08331e-05
4.00988e-05 -1.206e-05 -1.20166e-05 -1.06123e-05
1.59118e-08 -3.35935e-08 7.57788e-09 -1.08331e-05
1.63606e-08 -3.33165e-08 7.26681e-09 -1.08331e-05
-3.98631e-05 1.19344e-05 1.19694e-05 -1.06117e-05
-3.94594e-05 1.1814e-05 1.1848e-05 -1.06117e-05
3.94958e-05 -1.18779e-05 -1.18363e-05 -1.06123e-05
3.98978e-05 -1.19993e-05 -1.19565e-05 -1.06123e-05
-3.96612e-05 1.18742e-05 1.19087e-05 -1.06117e-05
1.76944e-08 -3.24932e-08 6.34231e-09 -1.08331e-05
3.96968e-05 -1.19386e-05 -1.18964e-05 -1.06123e-05
1.68074e-08 -3.30408e-08 6.95721e-09 -1.08331e-05
1.7252e-08 -3.27664e-08 6.64903e-09 -1.08331e-05
-3.94594e-05 1.1814e-05 1.1848e-05 -1.06117e-05
-3.90557e-05 1.16937e-05 1.17266e-05 -1.06117e-05
3.90939e-05 -1.17565e-05 -1.1716e-05 -1.06123e-05
3.94958e-05 -1.18779e-05 -1.18363e-05 -1.06123e-05
-3.92575e-05 1.17538e-05 1.17873e-05 -1.06117e-05
1.8573e-08 -3.19505e-08 5.73321e-09 -1.08331e-05
3.92949e-05 -1.18172e-05 -1.17761e-05 -1.06123e-05
1.76944e-08 -3.24932e-08 6.34231e-09 -1.08331e-05
1.81348e-08 -3.22212e-08 6.03704e-09 -1.08331e-05
-3.90557e-05 1.16937e-05 1.17266e-05 -1.06117e-05
-3.8652e-05 1.15733e-05 1.16051e-05 -1.06117e-05
3.86919e-05 -1.16351e-05 -1.15958e-05 -1.06123e-05
3.90939e-05 -1.17565e-05 -1.1716e-05 -1.06123e-05
-3.88538e-05 1.16335e-05 1.16658e-05 -1.06117e-05
1.94431e-08 -3.1413e-08 5.12992e-09 -1.08331e-05
3.88929e-05 -1.16958e-05 -1.16559e-05 -1.06123e-05
1.8573e-08 -3.19505e-08 5.73321e-09 -1.08331e-05
1.90092e-08 -3.16811e-08 5.43084e-09 -1.08331e-05
-3.8652e-05 1.15733e-05 1.16051e-05 -1.06117e-05
-3.82483e-05 1.1453e-05 1.14837e-05 -1.06117e-05
3.82899e-05 -1.15137e-05 -1.14755e-05 -1.06122e-05
3.86919e-05 -1.16351e-05 -1.15958e-05 -1.06123e-05
-3.84501e-05 1.15131e-05 1.15444e-05 -1.06117e-05
2.03047e-08 -3.08805e-08 4.53247e-09 -1.08331e-05
3.84909e-05 -1.15744e-05 -1.15356e-05 -1.06123e-05
1.94431e-08 -3.1413e-08 5.12992e-09 -1.08331e-05
1.9875e-08 -3.11461e-08 4.83047e-09 -1.08331e-05
-3.82483e-05 1.1453e-05 1.14837e-05 -1.06117e-05
-3.78446e-05 1.13326e-05 1.13623e-05 -1.06117e-05
3.78879e-05 -1.13923e-05 -1.13553e-05 -1.06122e-05
3.82899e-05 -1.15137e-05 -1.14755e-05 -1.06122e-05
-3.80464e-05 1.13928e-05 1.1423e-05 -1.06117e-05
2.11578e-08 -3.03531e-08 3.94084e-09 -1.08331e-05
3.80889e-05 -1.1453e-05 -1.14154e-05 -1.06122e-05
2.03047e-08 -3.08805e-08 4.53247e-09 -1.08331e-05
2.07323e-08 -3.06161e-08 4.23592e-09 -1.08331e-05
-3.78446e-05 1.13326e-05 1.13623e-05 -1.06117e-05
-3.74409e-05 1.12122e-05 1.12409e-05 -1.06117e-05
3.74859e-05 -1.12709e-05 -1.1235e-05 -1.06122e-05
3.78879e-05 -1.13923e-05 -1.13553e-05 -1.06122e-05
-3.76428e-05 1.12724e-05 1.13016e-05 -1.06117e-05
2.20023e-08 -2.98308e-08 3.35506e-09 -1.08331e-05
3.76869e-05 -1.13316e-05 -1.12951e-05 -1.06122e-05
2.11578e-08 -3.03531e-08 3.94084e-09 -1.08331e-05
2.15811e-08 -3.00913e-08 3.64722e-09 -1.08331e-05
-3.74409e-05 1.12122e-05 1.12409e-05 -1.06117e-05
-3.70373e-05 1.10919e-05 1.11195e-05 -1.06117e-05
3.70839e-05 -1.11495e-05 -1.11147e-05 -1.06122e-05
3.74859e-05 -1.12709e-05 -1.1235e-05 -1.06122e-05
-3.72391e-05 1.11521e-05 1.11802e-05 -1.06117e-05
2.28382e-08 -2.93136e-08 2.77514e-09 -1.08331e-05
3.72849e-05 -1.12102e-05 -1.11749e-05 -1.06122e-05
2.20023e-08 -2.98308e-08 3.35506e-09 -1.08331e-05
2.24213e-08 -2.95715e-08 3.06438e-09 -1.08331e-05
-3.70373e-05 1.10919e-05 1.11195e-05 -1.06117e-05
-3.66336e-05 1.09715e-05 1.0998e-05 -1.06117e-05
3.66819e-05 -1.10282e-05 -1.09945e-05 -1.06122e-05
3.70839e-05 -1.11495e-05 -1.11147e-05 -1.06122e-05
-3.68354e-05 1.10317e-05 1.10588e-05 -1.06117e-05
2.36656e-08 -2.88015e-08 2.20111e-09 -1.0833e-05
3.68829e-05 -1.10888e-05 -1.10546e-05 -1.06122e-05
2.28382e-08 -2.93136e-08 2.77515e-09 -1.08331e-05
2.3253e-08 -2.90569e-08 2.4874e-09 -1.0833e-05
-3.66336e-05 1.09715e-05 1.0998e-05 -1.06117e-05
-3.623e-05 1.08511e-05 1.08767e-05 -1.06117e-05
3.62799e-05 -1.09068e-05 -1.08742e-05 -1.06122e-05
3.66819e-05 -1.10282e-05 -1.09945e-05 -1.06122e-05
-3.64318e-05 1.09113e-05 1.09373e-05 -1.06117e-05
2.44843e-08 -2.82946e-08 1.63296e-09 -1.0833e-05
3.64809e-05 -1.09675e-05 -1.09343e-05 -1.06122e-05
2.36656e-08 -2.88015e-08 2.20111e-09 -1.0833e-05
2.4076e-08 -2.85474e-08 1.9163e-09 -1.0833e-05
-3.623e-05 1.08511e-05 1.08767e-05 -1.06117e-05
-3.58263e-05 1.07307e-05 1.07553e-05 -1.06117e-05
3.58778e-05 -1.07854e-05 -1.07539e-05 -1.06122e-05
3.62799e-05 -1.09068e-05 -1.08742e-05 -1.06122e-05
-3.60281e-05 1.07909e-05 1.0816e-05 -1.06117e-05
2.52945e-08 -2.77928e-08 1.07071e-09 -1.0833e-05
3.60788e-05 -1.08461e-05 -1.0814e-05 -1.06122e-05
2.44843e-08 -2.82946e-08 1.63296e-09 -1.0833e-05
2.48905e-08 -2.80431e-08 1.35111e-09 -1.0833e-05
-3.58263e-05 1.07307e-05 1.07553e-05 -1.06117e-05
-3.54227e-05 1.06103e-05 1.06339e-05 -1.06117e-05
3.54758e-05 -1.0664e-05 -1.06336e-05 -1.06122e-05
3.58778e-05 -1.07854e-05 -1.07539e-05 -1.06122e-05
-3.56245e-05 1.06705e-05 1.06946e-05 -1.06117e-05
2.6096e-08 -2.72963e-08 5.14387e-10 -1.0833e-05
3.56768e-05 -1.07247e-05 -1.06937e-05 -1.06122e-05
2.52945e-08 -2.77928e-08 1.07071e-09 -1.0833e-05
2.56963e-08 -2.75439e-08 7.91812e-10 -1.0833e-05
-3.54227e-05 1.06103e-05 1.06339e-05 -1.06117e-05
-3.50191e-05 1.04899e-05 1.05125e-05 -1.06117e-05
3.50737e-05 -1.05427e-05 -1.05133e-05 -1.06122e-05
3.54758e-05 -1.0664e-05 -1.06336e-05 -1.06122e-05
-3.52209e-05 1.05501e-05 1.05732e-05 -1.06117e-05
2.68889e-08 -2.68049e-08 -3.60155e-11 -1.0833e-05
3.52747e-05 -1.06034e-05 -1.05734e-05 -1.06122e-05
2.6096e-08 -2.72963e-08 5.14387e-10 -1.0833e-05
2.64935e-08 -2.70499e-08 2.38452e-10 -1.0833e-05
-3.50191e-05 1.04899e-05 1.05125e-05 -1.06117e-05
-3.46155e-05 1.03695e-05 1.03911e-05 -1.06117e-05
3.46717e-05 -1.04213e-05 -1.0393e-05 -1.06122e-05
3.50737e-05 -1.05427e-05 -1.05133e-05 -1.06122e-05
-3.48173e-05 1.04297e-05 1.04518e-05 -1.06117e-05
2.76732e-08 -2.63187e-08 -5.80481e-10 -1.0833e-05
3.48727e-05 -1.0482e-05 -1.04531e-05 -1.06122e-05
2.68889e-08 -2.68049e-08 -3.60155e-11 -1.0833e-05
2.72821e-08 -2.65611e-08 -3.08997e-10 -1.0833e-05
-3.46155e-05 1.03695e-05 1.03911e-05 -1.06117e-05
-3.42119e-05 1.02491e-05 1.02697e-05 -1.06117e-05
3.42696e-05 -1.03e-05 -1.02727e-05 -1.06122e-05
3.46717e-05 -1.04213e-05 -1.0393e-05 -1.06122e-05
-3.44137e-05 1.03093e-05 1.03304e-05 -1.06117e-05
2.84487e-08 -2.58377e-08 -1.119e-09 -1.0833e-05
3.44706e-05 -1.03607e-05 -1.03328e-05 -1.06122e-05
2.76732e-08 -2.63187e-08 -5.80481e-10 -1.0833e-05
2.8062e-08 -2.60776e-08 -8.50488e-10 -1.0833e-05
-3.42119e-05 1.02491e-05 1.02697e-05 -1.06117e-05
-3.38083e-05 1.01287e-05 1.01484e-05 -1.06117e-05
3.38675e-05 -1.01786e-05 -1.01524e-05 -1.06122e-05
3.42696e-05 -1.03e-05 -1.02727e-05 -1.06122e-05
-3.40101e-05 1.01889e-05 1.02091e-05 -1.06117e-05
2.92157e-08 -2.5362e-08 -1.65156e-09 -1.0833e-05
3.40685e-05 -1.02393e-05 -1.02125e-05 -1.06122e-05
2.84488e-08 -2.58377e-08 -1.119e-09 -1.0833e-05
2.88333e-08 -2.55992e-08 -1.38602e-09 -1.0833e-05
-3.38083e-05 1.01287e-05 1.01484e-05 -1.06117e-05
-3.34047e-05 1.00083e-05 1.0027e-05 -1.06117e-05
3.34654e-05 -1.00573e-05 -1.00321e-05 -1.06122e-05
3.38675e-05 -1.01786e-05 -1.01524e-05 -1.06122e-05
-3.36065e-05 1.00685e-05 1.00877e-05 -1.06117e-05
2.99739e-08 -2.48916e-08 -2.17813e-09 -1.0833e-05
3.36665e-05 -1.0118e-05 -1.00922e-05 -1.06122e-05
2.92156e-08 -2.5362e-08 -1.65155e-09 -1.0833e-05
2.95958e-08 -2.51261e-08 -1.91559e-09 -1.0833e-05
-3.34047e-05 1.00083e-05 1.0027e-05 -1.06117e-05
-3.30011e-05 9.88787e-06 9.90567e-06 -1.06117e-05
3.30633e-05 -9.93596e-06 -9.91173e-06 -1.06122e-05
3.34654e-05 -1.00573e-05 -1.00321e-05 -1.06122e-05
-3.32029e-05 9.94808e-06 9.96635e-06 -1.06117e-05
3.07234e-08 -2.44263e-08 -2.69872e-09 -1.0833e-05
3.32644e-05 -9.99663e-06 -9.97189e-06 -1.06122e-05
2.99739e-08 -2.48916e-08 -2.17813e-09 -1.0833e-05
3.03497e-08 -2.46583e-08 -2.43917e-09 -1.0833e-05
-3.30011e-05 9.88787e-06 9.90567e-06 -1.06117e-05
-3.25975e-05 9.76745e-06 9.78433e-06 -1.06117e-05
3.26612e-05 -9.81464e-06 -9.79139e-06 -1.06122e-05
3.30633e-05 -9.93596e-06 -9.91173e-06 -1.06122e-05
-3.27993e-05 9.82766e-06 9.845e-06 -1.06117e-05
3.14641e-08 -2.39664e-08 -3.21331e-09 -1.0833e-05
3.28623e-05 -9.8753e-06 -9.85156e-06 -1.06122e-05
3.07234e-08 -2.44263e-08 -2.69872e-09 -1.0833e-05
3.10948e-08 -2.41957e-08 -2.95677e-09 -1.0833e-05
-3.25975e-05 9.76745e-06 9.78433e-06 -1.06117e-05
-3.2194e-05 9.64701e-06 9.66299e-06 -1.06117e-05
3.22591e-05 -9.69331e-06 -9.67106e-06 -1.06122e-05
3.26612e-05 -9.81464e-06 -9.79139e-06 -1.06122e-05
-3.23958e-05 9.70723e-06 9.72365e-06 -1.06117e-05
3.21962e-08 -2.35117e-08 -3.72189e-09 -1.0833e-05
3.24602e-05 -9.75397e-06 -9.73123e-06 -1.06122e-05
3.14641e-08 -2.39664e-08 -3.21331e-09 -1.0833e-05
3.18312e-08 -2.37384e-08 -3.46835e-09 -1.0833e-05
-3.2194e-05 9.64701e-06 9.66299e-06 -1.06117e-05
-3.17904e-05 9.52658e-06 9.54165e-06 -1.06117e-05
3.1857e-05 -9.57199e-06 -9.55071e-06 -1.06121e-05
3.22591e-05 -9.69331e-06 -9.67106e-06 -1.06122e-05
-3.19922e-05 9.5868e-06 9.60232e-06 -1.06117e-05
3.29195e-08 -2.30624e-08 -4.22446e-09 -1.0833e-05
3.2058e-05 -9.63265e-06 -9.61088e-06 -1.06122e-05
3.21962e-08 -2.35117e-08 -3.7219e-09 -1.0833e-05
3.25589e-08 -2.32864e-08 -3.97393e-09 -1.0833e-05
-3.17904e-05 9.52658e-06 9.54165e-06 -1.06117e-05
-3.13869e-05 9.40613e-06 9.42032e-06 -1.06117e-05
3.14549e-05 -9.45068e-06 -9.43036e-06 -1.06121e-05
3.1857e-05 -9.57199e-06 -9.55071e-06 -1.06121e-05
-3.15887e-05 9.46636e-06 9.48099e-06 -1.06117e-05
3.3634e-08 -2.26184e-08 -4.72099e-09 -1.0833e-05
3.16559e-05 -9.51134e-06 -9.49054e-06 -1.06121e-05
3.29195e-08 -2.30624e-08 -4.22446e-09 -1.0833e-05
3.32778e-08 -2.28397e-08 -4.47348e-09 -1.0833e-05
-3.13869e-05 9.40613e-06 9.42032e-06 -1.06117e-05
-3.09834e-05 9.28569e-06 9.299e-06 -1.06117e-05
3.10527e-05 -9.32937e-06 -9.31001e-06 -1.06121e-05
3.14549e-05 -9.45068e-06 -9.43036e-06 -1.06121e-05
-3.11851e-05 9.34591e-06 9.35966e-06 -1.06117e-05
3.43398e-08 -2.21797e-08 -5.21148e-09 -1.0833e-05
3.12538e-05 -9.39003e-06 -9.37018e-06 -1.06121e-05
3.3634e-08 -2.26184e-08 -4.72099e-09 -1.0833e-05
3.3988e-08 -2.23983e-08 -4.96699e-09 -1.0833e-05
-3.09834e-05 9.28569e-06 9.299e-06 -1.06117e-05
-3.05798e-05 9.16523e-06 9.17769e-06 -1.06117e-05
3.06506e-05 -9.20807e-06 -9.18964e-06 -1.06121e-05
3.10527e-05 -9.32937e-06 -9.31001e-06 -1.06121e-05
-3.07816e-05 9.22546e-06 9.23834e-06 -1.06117e-05
3.50367e-08 -2.17463e-08 -5.69591e-09 -1.0833e-05
3.08516e-05 -9.26872e-06 -9.24983e-06 -1.06121e-05
3.43398e-08 -2.21797e-08 -5.21148e-09 -1.0833e-05
3.46894e-08 -2.19623e-08 -5.45445e-09 -1.0833e-05
-3.05798e-05 9.16523e-06 9.17769e-06 -1.06117e-05
-3.01763e-05 9.04477e-06 9.05638e-06 -1.06117e-05
3.02484e-05 -9.08677e-06 -9.06928e-06 -1.06121e-05
3.06506e-05 -9.20807e-06 -9.18964e-06 -1.06121e-05
-3.03781e-05 9.105e-06 9.11703e-06 -1.06117e-05
3.57249e-08 -2.13183e-08 -6.17428e-09 -1.0833e-05
3.04495e-05 -9.14742e-06 -9.12946e-06 -1.06121e-05
3.50368e-08 -2.17463e-08 -5.69591e-09 -1.0833e-05
3.53819e-08 -2.15316e-08 -5.93585e-09 -1.0833e-05
-3.01763e-05 9.04477e-06 9.05638e-06 -1.06117e-05
-2.97728e-05 8.92431e-06 8.93507e-06 -1.06117e-05
2.98463e-05 -8.96548e-06 -8.9489e-06 -1.06121e-05
3.02484e-05 -9.08677e-06 -9.06928e-06 -1.06121e-05
-2.99746e-05 8.98454e-06 8.99572e-06 -1.06117e-05
3.64043e-08 -2.08956e-08 -6.64658e-09 -1.0833e-05
3.00473e-05 -9.02613e-06 -9.00909e-06 -1.06121e-05
3.57249e-08 -2.13183e-08 -6.17428e-09 -1.0833e-05
3.60657e-08 -2.11063e-08 -6.41119e-09 -1.0833e-05
-2.97728e-05 8.92431e-06 8.93507e-06 -1.06117e-05
-2.93693e-05 8.80384e-06 8.81378e-06 -1.06117e-05
2.94441e-05 -8.84419e-06 -8.82852e-06 -1.06121e-05
2.98463e-05 -8.96548e-06 -8.9489e-06 -1.06121e-05
-2.95711e-05 8.86408e-06 8.87442e-06 -1.06117e-05
3.70748e-08 -2.04783e-08 -7.11279e-09 -1.0833e-05
2.96452e-05 -8.90484e-06 -8.88871e-06 -1.06121e-05
3.64043e-08 -2.08956e-08 -6.64658e-09 -1.0833e-05
3.67407e-08 -2.06863e-08 -6.88044e-09 -1.0833e-05
-2.93693e-05 8.80384e-06 8.81378e-06 -1.06117e-05
-2.89658e-05 8.68337e-06 8.69248e-06 -1.06117e-05
2.90419e-05 -8.72291e-06 -8.70814e-06 -1.06121e-05
2.94441e-05 -8.84419e-06 -8.82852e-06 -1.06121e-05
-2.91676e-05 8.74361e-06 8.75313e-06 -1.06117e-05
3.77365e-08 -2.00665e-08 -7.5729e-09 -1.0833e-05
2.9243e-05 -8.78355e-06 -8.76833e-06 -1.06121e-05
3.70748e-08 -2.04783e-08 -7.11278e-09 -1.0833e-05
3.74068e-08 -2.02717e-08 -7.3436e-09 -1.0833e-05
-2.89658e-05 8.68337e-06 8.69248e-06 -1.06117e-05
-2.85623e-05 8.56289e-06 8.5712e-06 -1.06117e-05
2.86397e-05 -8.60164e-06 -8.58775e-06 -1.06121e-05
2.90419e-05 -8.72291e-06 -8.70814e-06 -1.06121e-05
-2.87641e-05 8.62313e-06 8.63184e-06 -1.06117e-05
3.83894e-08 -1.966e-08 -8.0269e-09 -1.0833e-05
2.88408e-05 -8.66227e-06 -8.64794e-06 -1.06121e-05
3.77366e-08 -2.00665e-08 -7.5729e-09 -1.0833e-05
3.80641e-08 -1.98625e-08 -7.80066e-09 -1.0833e-05
-2.85623e-05 8.56289e-06 8.5712e-06 -1.06117e-05
-2.81589e-05 8.4424e-06 8.44992e-06 -1.06117e-05
2.82375e-05 -8.48037e-06 -8.46735e-06 -1.06121e-05
2.86397e-05 -8.60164e-06 -8.58775e-06 -1.06121e-05
-2.83606e-05 8.50265e-06 8.51056e-06 -1.06117e-05
3.90334e-08 -1.92589e-08 -8.4748e-09 -1.0833e-05
2.84386e-05 -8.541e-06 -8.52755e-06 -1.06121e-05
3.83894e-08 -1.966e-08 -8.0269e-09 -1.0833e-05
3.87125e-08 -1.94588e-08 -8.25162e-09 -1.0833e-05
-2.81589e-05 8.4424e-06 8.44992e-06 -1.06117e-05
-2.77554e-05 8.32191e-06 8.32864e-06 -1.06117e-05
2.78353e-05 -8.3591e-06 -8.34694e-06 -1.06121e-05
2.82375e-05 -8.48037e-06 -8.46735e-06 -1.06121e-05
-2.79571e-05 8.38216e-06 8.38928e-06 -1.06117e-05
3.96686e-08 -1.88633e-08 -8.91656e-09 -1.0833e-05
2.80364e-05 -8.41973e-06 -8.40715e-06 -1.06121e-05
3.90334e-08 -1.92589e-08 -8.4748e-09 -1.0833e-05
3.93521e-08 -1.90604e-08 -8.69644e-09 -1.0833e-05
-2.77554e-05 8.32191e-06 8.32864e-06 -1.06117e-05
-2.7352e-05 8.20142e-06 8.20738e-06 -1.06117e-05
2.74331e-05 -8.23784e-06 -8.22653e-06 -1.06121e-05
2.78353e-05 -8.3591e-06 -8.34694e-06 -1.06121e-05
-2.75537e-05 8.26167e-06 8.26801e-06 -1.06117e-05
4.02948e-08 -1.8473e-08 -9.35219e-09 -1.0833e-05
2.76342e-05 -8.29847e-06 -8.28674e-06 -1.06121e-05
3.96686e-08 -1.88633e-08 -8.91656e-09 -1.0833e-05
3.99828e-08 -1.86675e-08 -9.13515e-09 -1.0833e-05
-2.7352e-05 8.20142e-06 8.20738e-06 -1.06117e-05
-2.69485e-05 8.08092e-06 8.08612e-06 -1.06117e-05
2.70309e-05 -8.11659e-06 -8.10612e-06 -1.06121e-05
2.74331e-05 -8.23784e-06 -8.22653e-06 -1.06121e-05
-2.71502e-05 8.14117e-06 8.14675e-06 -1.06117e-05
4.09122e-08 -1.80883e-08 -9.78167e-09 -1.0833e-05
2.7232e-05 -8.17721e-06 -8.16633e-06 -1.06121e-05
4.02948e-08 -1.8473e-08 -9.35219e-09 -1.0833e-05
4.06046e-08 -1.828e-08 -9.56769e-09 -1.0833e-05
-2.69485e-05 8.08092e-06 8.08612e-06 -1.06117e-05
-2.65451e-05 7.96041e-06 7.96486e-06 -1.06117e-05
2.66286e-05 -7.99534e-06 -7.9857e-06 -1.06121e-05
2.70309e-05 -8.11659e-06 -8.10612e-06 -1.06121e-05
-2.67468e-05 8.02067e-06 8.02549e-06 -1.06117e-05
4.15206e-08 -1.7709e-08 -1.0205e-08 -1.0833e-05
2.68297e-05 -8.05596e-06 -8.04591e-06 -1.06121e-05
4.09122e-08 -1.80883e-08 -9.78167e-09 -1.0833e-05
4.12175e-08 -1.78979e-08 -9.99411e-09 -1.0833e-05
-2.65451e-05 7.96041e-06 7.96486e-06 -1.06117e-05
-2.61417e-05 7.8399e-06 7.84361e-06 -1.06117e-05
2.62264e-05 -7.87409e-06 -7.86527e-06 -1.06121e-05
2.66286e-05 -7.99534e-06 -7.9857e-06 -1.06121e-05
-2.63434e-05 7.90016e-06 7.90423e-06 -1.06117e-05
4.21202e-08 -1.73351e-08 -1.06222e-08 -1.0833e-05
2.64275e-05 -7.93472e-06 -7.92548e-06 -1.06121e-05
4.15206e-08 -1.7709e-08 -1.0205e-08 -1.0833e-05
4.18215e-08 -1.75214e-08 -1.04144e-08 -1.0833e-05
-2.61417e-05 7.8399e-06 7.84361e-06 -1.06117e-05
-2.57382e-05 7.71939e-06 7.72237e-06 -1.06117e-05
2.58241e-05 -7.75286e-06 -7.74484e-06 -1.06121e-05
2.62264e-05 -7.87409e-06 -7.86527e-06 -1.06121e-05
-2.594e-05 7.77964e-06 7.78299e-06 -1.06117e-05
4.27108e-08 -1.69668e-08 -1.10332e-08 -1.0833e-05
2.60253e-05 -7.81347e-06 -7.80505e-06 -1.06121e-05
4.21202e-08 -1.73351e-08 -1.06222e-08 -1.0833e-05
4.24166e-08 -1.71503e-08 -1.08284e-08 -1.0833e-05
-2.57382e-05 7.71939e-06 7.72237e-06 -1.06117e-05
-2.53348e-05 7.59886e-06 7.60113e-06 -1.06117e-05
2.54219e-05 -7.63162e-06 -7.6244e-06 -1.06121e-05
2.58241e-05 -7.75286e-06 -7.74484e-06 -1.06121e-05
-2.55365e-05 7.65913e-06 7.66175e-06 -1.06117e-05
4.32925e-08 -1.66039e-08 -1.1438e-08 -1.0833e-05
2.5623e-05 -7.69224e-06 -7.68462e-06 -1.06121e-05
4.27108e-08 -1.69668e-08 -1.10332e-08 -1.0833e-05
4.30028e-08 -1.67846e-08 -1.12363e-08 -1.0833e-05
-2.53348e-05 7.59886e-06 7.60113e-06 -1.06117e-05
-2.49314e-05 7.47834e-06 7.4799e-06 -1.06117e-05
2.50196e-05 -7.51039e-06 -7.50395e-06 -1.06121e-05
2.54219e-05 -7.63162e-06 -7.6244e-06 -1.06121e-05
-2.51331e-05 7.5386e-06 7.54051e-06 -1.06117e-05
4.38652e-08 -1.62465e-08 -1.18366e-08 -1.0833e-05
2.52207e-05 -7.57101e-06 -7.56417e-06 -1.06121e-05
4.32925e-08 -1.66039e-08 -1.1438e-08 -1.0833e-05
4.358e-08 -1.64245e-08 -1.16381e-08 -1.0833e-05
-2.49314e-05 7.47834e-06 7.4799e-06 -1.06117e-05
-2.4528e-05 7.3578e-06 7.35868e-06 -1.06117e-05
2.46173e-05 -7.38917e-06 -7.3835e-06 -1.0612e-05
2.50196e-05 -7.51039e-06 -7.50395e-06 -1.06121e-05
-2.47297e-05 7.41807e-06 7.41929e-06 -1.06117e-05
4.4429e-08 -1.58947e-08 -1.2229e-08 -1.0833e-05
2.48185e-05 -7.44978e-06 -7.44373e-06 -1.0612e-05
4.38652e-08 -1.62465e-08 -1.18366e-08 -1.0833e-05
4.41482e-08 -1.60699e-08 -1.20336e-08 -1.0833e-05
-2.4528e-05 7.3578e-06 7.35868e-06 -1.06117e-05
-2.41247e-05 7.23727e-06 7.23746e-06 -1.06117e-05
2.42151e-05 -7.26796e-06 -7.26304e-06 -1.0612e-05
2.46173e-05 -7.38917e-06 -7.3835e-06 -1.0612e-05
-2.43264e-05 7.29754e-06 7.29807e-06 -1.06117e-05
4.49838e-08 -1.55483e-08 -1.26152e-08 -1.0833e-05
2.44162e-05 -7.32856e-06 -7.32327e-06 -1.0612e-05
4.4429e-08 -1.58947e-08 -1.2229e-08 -1.0833e-05
4.47075e-08 -1.57208e-08 -1.24229e-08 -1.0833e-05
-2.41247e-05 7.23727e-06 7.23746e-06 -1.06117e-05
-2.37213e-05 7.11672e-06 7.11624e-06 -1.06117e-05
2.38128e-05 -7.14674e-06 -7.14258e-06 -1.0612e-05
2.42151e-05 -7.26796e-06 -7.26304e-06 -1.0612e-05
-2.3923e-05 7.177e-06 7.17685e-06 -1.06117e-05
4.55297e-08 -1.52075e-08 -1.29952e-08 -1.08329e-05
2.40139e-05 -7.20735e-06 -7.20281e-06 -1.0612e-05
4.49838e-08 -1.55483e-08 -1.26152e-08 -1.0833e-05
4.52579e-08 -1.53772e-08 -1.2806e-08 -1.08329e-05
-2.37213e-05 7.11672e-06 7.11624e-06 -1.06117e-05
-2.33179e-05 6.99617e-06 6.99504e-06 -1.06117e-05
2.34105e-05 -7.02554e-06 -7.02211e-06 -1.0612e-05
2.38128e-05 -7.14674e-06 -7.14258e-06 -1.0612e-05
-2.35196e-05 7.05645e-06 7.05564e-06 -1.06117e-05
4.60665e-08 -1.48722e-08 -1.3369e-08 -1.08329e-05
2.36116e-05 -7.08614e-06 -7.08234e-06 -1.0612e-05
4.55297e-08 -1.52075e-08 -1.29952e-08 -1.08329e-05
4.57992e-08 -1.50392e-08 -1.31829e-08 -1.08329e-05
-2.33179e-05 6.99617e-06 6.99504e-06 -1.06117e-05
-2.29146e-05 6.87562e-06 6.87384e-06 -1.06117e-05
2.30081e-05 -6.90434e-06 -6.90163e-06 -1.0612e-05
2.34105e-05 -7.02554e-06 -7.02211e-06 -1.0612e-05
-2.31163e-05 6.9359e-06 6.93444e-06 -1.06117e-05
4.65944e-08 -1.45425e-08 -1.37365e-08 -1.08329e-05
2.32093e-05 -6.96494e-06 -6.96187e-06 -1.0612e-05
4.60665e-08 -1.48722e-08 -1.3369e-08 -1.08329e-05
4.63316e-08 -1.47067e-08 -1.35535e-08 -1.08329e-05
-2.29146e-05 6.87562e-06 6.87384e-06 -1.06117e-05
-2.25112e-05 6.75506e-06 6.75264e-06 -1.06117e-05
2.26058e-05 -6.78314e-06 -6.78115e-06 -1.0612e-05
2.30081e-05 -6.90434e-06 -6.90163e-06 -1.0612e-05
-2.27129e-05 6.81534e-06 6.81324e-06 -1.06117e-05
4.71132e-08 -1.42183e-08 -1.40978e-08 -1.08329e-05
2.2807e-05 -6.84374e-06 -6.84139e-06 -1.0612e-05
4.65944e-08 -1.45425e-08 -1.37365e-08 -1.08329e-05
4.68549e-08 -1.43797e-08 -1.39179e-08 -1.08329e-05
-2.25112e-05 6.75506e-06 6.75264e-06 -1.06117e-05
-2.21079e-05 6.6345e-06 6.63146e-06 -1.06117e-05
2.22035e-05 -6.66195e-06 -6.66066e-06 -1.0612e-05
2.26058e-05 -6.78314e-06 -6.78115e-06 -1.0612e-05
-2.23096e-05 6.69478e-06 6.69205e-06 -1.06117e-05
4.76231e-08 -1.38997e-08 -1.44529e-08 -1.08329e-05
2.24047e-05 -6.72255e-06 -6.7209e-06 -1.0612e-05
4.71132e-08 -1.42183e-08 -1.40978e-08 -1.08329e-05
4.73693e-08 -1.40583e-08 -1.42761e-08 -1.08329e-05
-2.21079e-05 6.6345e-06 6.63146e-06 -1.06117e-05
-2.17046e-05 6.51393e-06 6.51027e-06 -1.06117e-05
2.18012e-05 -6.54077e-06 -6.54017e-06 -1.0612e-05
2.22035e-05 -6.66195e-06 -6.66066e-06 -1.0612e-05
-2.19062e-05 6.57421e-06 6.57086e-06 -1.06117e-05
4.81239e-08 -1.35867e-08 -1.48016e-08 -1.08329e-05
2.20023e-05 -6.60136e-06 -6.60041e-06 -1.0612e-05
4.76231e-08 -1.38997e-08 -1.44529e-08 -1.08329e-05
4.78746e-08 -1.37425e-08 -1.4628e-08 -1.08329e-05
-2.17046e-05 6.51393e-06 6.51027e-06 -1.06117e-05
-2.13012e-05 6.39335e-06 6.3891e-06 -1.06117e-05
2.13988e-05 -6.41959e-06 -6.41966e-06 -1.0612e-05
2.18012e-05 -6.54077e-06 -6.54017e-06 -1.0612e-05
-2.15029e-05 6.45364e-06 6.44969e-06 -1.06117e-05
4.86157e-08 -1.32793e-08 -1.51442e-08 -1.08329e-05
2.16e-05 -6.48018e-06 -6.47992e-06 -1.0612e-05
4.81239e-08 -1.35867e-08 -1.48016e-08 -1.08329e-05
4.83709e-08 -1.34323e-08 -1.49737e-08 -1.08329e-05
-2.13012e-05 6.39335e-06 6.3891e-06 -1.06117e-05
-2.08979e-05 6.27277e-06 6.26793e-06 -1.06117e-05
2.09965e-05 -6.29842e-06 -6.29916e-06 -1.0612e-05
2.13988e-05 -6.41959e-06 -6.41966e-06 -1.0612e-05
-2.10996e-05 6.33306e-06 6.32851e-06 -1.06117e-05
4.90984e-08 -1.29775e-08 -1.54804e-08 -1.08329e-05
2.11976e-05 -6.359e-06 -6.35941e-06 -1.0612e-05
4.86157e-08 -1.32793e-08 -1.51442e-08 -1.08329e-05
4.88582e-08 -1.31277e-08 -1.53131e-08 -1.08329e-05
-2.08979e-05 6.27277e-06 6.26793e-06 -1.06117e-05
-2.04946e-05 6.15218e-06 6.14677e-06 -1.06117e-05
2.05941e-05 -6.17725e-06 -6.17864e-06 -1.0612e-05
2.09965e-05 -6.29842e-06 -6.29916e-06 -1.0612e-05
-2.06963e-05 6.21248e-06 6.20735e-06 -1.06117e-05
4.95721e-08 -1.26812e-08 -1.58104e-08 -1.08329e-05
2.07953e-05 -6.23783e-06 -6.2389e-06 -1.0612e-05
4.90984e-08 -1.29774e-08 -1.54804e-08 -1.08329e-05
4.93364e-08 -1.28286e-08 -1.56462e-08 -1.08329e-05
-2.04946e-05 6.15218e-06 6.14677e-06 -1.06117e-05
-2.00913e-05 6.03159e-06 6.02561e-06 -1.06117e-05
2.01917e-05 -6.05609e-06 -6.05813e-06 -1.0612e-05
2.05941e-05 -6.17725e-06 -6.17864e-06 -1.0612e-05
-2.0293e-05 6.09189e-06 6.08619e-06 -1.06117e-05
5.00367e-08 -1.23906e-08 -1.61341e-08 -1.08329e-05
2.03929e-05 -6.11667e-06 -6.11839e-06 -1.0612e-05
4.95721e-08 -1.26812e-08 -1.58104e-08 -1.08329e-05
4.98056e-08 -1.25352e-08 -1.5973e-08 -1.08329e-05
-2.00913e-05 6.03159e-06 6.02561e-06 -1.06117e-05
-1.96881e-05 5.91099e-06 5.90446e-06 -1.06117e-05
1.97893e-05 -5.93493e-06 -5.9376e-06 -1.0612e-05
2.01917e-05 -6.05609e-06 -6.05813e-06 -1.0612e-05
-1.98897e-05 5.97129e-06 5.96504e-06 -1.06117e-05
5.04923e-08 -1.21056e-08 -1.64515e-08 -1.08329e-05
1.99905e-05 -5.99551e-06 -5.99786e-06 -1.0612e-05
5.00368e-08 -1.23906e-08 -1.61341e-08 -1.08329e-05
5.02657e-08 -1.22474e-08 -1.62936e-08 -1.08329e-05
-1.96881e-05 5.91099e-06 5.90446e-06 -1.06117e-05
-1.92848e-05 5.79039e-06 5.78332e-06 -1.06117e-05
1.93869e-05 -5.81378e-06 -5.81707e-06 -1.0612e-05
1.97893e-05 -5.93493e-06 -5.9376e-06 -1.0612e-05
-1.94864e-05 5.85069e-06 5.84389e-06 -1.06117e-05
5.09388e-08 -1.18262e-08 -1.67625e-08 -1.08329e-05
1.95881e-05 -5.87436e-06 -5.87734e-06 -1.0612e-05
5.04923e-08 -1.21056e-08 -1.64515e-08 -1.08329e-05
5.07167e-08 -1.19652e-08 -1.66078e-08 -1.08329e-05
-1.92848e-05 5.79039e-06 5.78332e-06 -1.06117e-05
-1.88815e-05 5.66978e-06 5.66218e-06 -1.06117e-05
1.89845e-05 -5.69264e-06 -5.69653e-06 -1.0612e-05
1.93869e-05 -5.81378e-06 -5.81707e-06 -1.0612e-05
-1.90832e-05 5.73008e-06 5.72275e-06 -1.06117e-05
5.13762e-08 -1.15525e-08 -1.70673e-08 -1.08329e-05
1.91857e-05 -5.75321e-06 -5.7568e-06 -1.0612e-05
5.09388e-08 -1.18262e-08 -1.67625e-08 -1.08329e-05
5.11586e-08 -1.16886e-08 -1.69157e-08 -1.08329e-05
-1.88815e-05 5.66978e-06 5.66218e-06 -1.06117e-05
-1.84783e-05 5.54917e-06 5.54105e-06 -1.06117e-05
1.85821e-05 -5.5715e-06 -5.57599e-06 -1.0612e-05
1.89845e-05 -5.69264e-06 -5.69653e-06 -1.0612e-05
-1.86799e-05 5.60947e-06 5.60161e-06 -1.06117e-05
5.18046e-08 -1.12844e-08 -1.73658e-08 -1.08329e-05
1.87833e-05 -5.63206e-06 -5.63626e-06 -1.0612e-05
5.13762e-08 -1.15525e-08 -1.70673e-08 -1.08329e-05
5.15915e-08 -1.14177e-08 -1.72174e-08 -1.08329e-05
-1.84783e-05 5.54917e-06 5.54105e-06 -1.06117e-05
-1.8075e-05 5.42855e-06 5.41992e-06 -1.06117e-05
1.81797e-05 -5.45036e-06 -5.45544e-06 -1.0612e-05
1.85821e-05 -5.5715e-06 -5.57599e-06 -1.0612e-05
-1.82767e-05 5.48886e-06 5.48048e-06 -1.06117e-05
5.22238e-08 -1.10219e-08 -1.76579e-08 -1.08329e-05
1.83809e-05 -5.51093e-06 -5.51571e-06 -1.0612e-05
5.18046e-08 -1.12844e-08 -1.73658e-08 -1.08329e-05
5.20153e-08 -1.11524e-08 -1.75127e-08 -1.08329e-05
-1.8075e-05 5.42855e-06 5.41992e-06 -1.06117e-05
-1.76718e-05 5.30792e-06 5.2988e-06 -1.06117e-05
1.77773e-05 -5.32923e-06 -5.33488e-06 -1.0612e-05
1.81797e-05 -5.45036e-06 -5.45544e-06 -1.0612e-05
-1.78734e-05 5.36823e-06 5.35936e-06 -1.06117e-05
5.26339e-08 -1.07651e-08 -1.79438e-08 -1.08329e-05
1.79785e-05 -5.3898e-06 -5.39516e-06 -1.0612e-05
5.22238e-08 -1.10219e-08 -1.76579e-08 -1.08329e-05
5.243e-08 -1.08928e-08 -1.78016e-08 -1.08329e-05
-1.76718e-05 5.30792e-06 5.2988e-06 -1.06117e-05
-1.72686e-05 5.18729e-06 5.17769e-06 -1.06117e-05
1.73749e-05 -5.20811e-06 -5.21432e-06 -1.0612e-05
1.77773e-05 -5.32923e-06 -5.33488e-06 -1.0612e-05
-1.74702e-05 5.24761e-06 5.23824e-06 -1.06117e-05
5.30349e-08 -1.0514e-08 -1.82232e-08 -1.08329e-05
1.75761e-05 -5.26867e-06 -5.2746e-06 -1.0612e-05
5.26339e-08 -1.07651e-08 -1.79438e-08 -1.08329e-05
5.28356e-08 -1.06389e-08 -1.80843e-08 -1.08329e-05
-1.72686e-05 5.18729e-06 5.17769e-06 -1.06117e-05
-1.68653e-05 5.06665e-06 5.05658e-06 -1.06117e-05
1.69724e-05 -5.08699e-06 -5.09375e-06 -1.06119e-05
1.73749e-05 -5.20811e-06 -5.21432e-06 -1.0612e-05
-1.7067e-05 5.12697e-06 5.11713e-06 -1.06117e-05
5.34268e-08 -1.02686e-08 -1.84964e-08 -1.08329e-05
1.71736e-05 -5.14755e-06 -5.15404e-06 -1.0612e-05
5.30349e-08 -1.0514e-08 -1.82232e-08 -1.08329e-05
5.3232e-08 -1.03906e-08 -1.83606e-08 -1.08329e-05
-1.68653e-05 5.06665e-06 5.05658e-06 -1.06117e-05
-1.64621e-05 4.94601e-06 4.93548e-06 -1.06117e-05
1.657e-05 -4.96588e-06 -4.97318e-06 -1.06119e-05
1.69724e-05 -5.08699e-06 -5.09375e-06 -1.06119e-05
-1.66637e-05 5.00633e-06 4.99603e-06 -1.06117e-05
5.38096e-08 -1.00288e-08 -1.87632e-08 -1.08329e-05
1.67712e-05 -5.02643e-06 -5.03346e-06 -1.06119e-05
5.34268e-08 -1.02686e-08 -1.84964e-08 -1.08329e-05
5.36193e-08 -1.0148e-08 -1.86306e-08 -1.08329e-05
-1.64621e-05 4.94601e-06 4.93548e-06 -1.06117e-05
-1.60589e-05 4.82536e-06 4.81439e-06 -1.06117e-05
1.61675e-05 -4.84477e-06 -4.85259e-06 -1.06119e-05
1.657e-05 -4.96588e-06 -4.97318e-06 -1.06119e-05
-1.62605e-05 4.88569e-06 4.87493e-06 -1.06117e-05
5.41832e-08 -9.79469e-09 -1.90236e-08 -1.08329e-05
1.63687e-05 -4.90533e-06 -4.91289e-06 -1.06119e-05
5.38096e-08 -1.00288e-08 -1.87632e-08 -1.08329e-05
5.39975e-08 -9.91103e-09 -1.88942e-08 -1.08329e-05
-1.60589e-05 4.82536e-06 4.81439e-06 -1.06117e-05
-1.56557e-05 4.70471e-06 4.6933e-06 -1.06117e-05
1.5765e-05 -4.72367e-06 -4.73201e-06 -1.06119e-05
1.61675e-05 -4.84477e-06 -4.85259e-06 -1.06119e-05
-1.58573e-05 4.76504e-06 4.75384e-06 -1.06117e-05
5.45476e-08 -9.5663e-09 -1.92777e-08 -1.08329e-05
1.59663e-05 -4.78422e-06 -4.7923e-06 -1.06119e-05
5.41832e-08 -9.79469e-09 -1.90236e-08 -1.08329e-05
5.43666e-08 -9.67978e-09 -1.91515e-08 -1.08329e-05
-1.56557e-05 4.70471e-06 4.6933e-06 -1.06117e-05
-1.52526e-05 4.58405e-06 4.57222e-06 -1.06117e-05
1.53625e-05 -4.60258e-06 -4.61141e-06 -1.06119e-05
1.5765e-05 -4.72367e-06 -4.73201e-06 -1.06119e-05
-1.54542e-05 4.64438e-06 4.63276e-06 -1.06117e-05
5.4903e-08 -9.3436e-09 -1.95254e-08 -1.08329e-05
1.55638e-05 -4.66312e-06 -4.67171e-06 -1.06119e-05
5.45477e-08 -9.5663e-09 -1.92777e-08 -1.08329e-05
5.47264e-08 -9.45423e-09 -1.94024e-08 -1.08329e-05
-1.52526e-05 4.58405e-06 4.57222e-06 -1.06117e-05
-1.48494e-05 4.46339e-06 4.45114e-06 -1.06117e-05
1.49601e-05 -4.48149e-06 -4.49081e-06 -1.06119e-05
1.53625e-05 -4.60258e-06 -4.61141e-06 -1.06119e-05
-1.5051e-05 4.52372e-06 4.51168e-06 -1.06117e-05
5.52491e-08 -9.12662e-09 -1.97668e-08 -1.08329e-05
1.51613e-05 -4.54203e-06 -4.55111e-06 -1.06119e-05
5.4903e-08 -9.3436e-09 -1.95254e-08 -1.08329e-05
5.50772e-08 -9.23439e-09 -1.96469e-08 -1.08329e-05
-1.48494e-05 4.46339e-06 4.45114e-06 -1.06117e-05
-1.44462e-05 4.34272e-06 4.33007e-06 -1.06117e-05
1.45576e-05 -4.3604e-06 -4.37021e-06 -1.06119e-05
1.49601e-05 -4.48149e-06 -4.49081e-06 -1.06119e-05
-1.46478e-05 4.40305e-06 4.39061e-06 -1.06117e-05
5.55862e-08 -8.91537e-09 -2.00018e-08 -1.08329e-05
1.47588e-05 -4.42094e-06 -4.43051e-06 -1.06119e-05
5.52491e-08 -9.12662e-09 -1.97668e-08 -1.08329e-05
5.54188e-08 -9.02027e-09 -1.98851e-08 -1.08329e-05
-1.44462e-05 4.34272e-06 4.33007e-06 -1.06117e-05
-1.40431e-05 4.22204e-06 4.20901e-06 -1.06117e-05
1.4155e-05 -4.23933e-06 -4.24959e-06 -1.06119e-05
1.45576e-05 -4.3604e-06 -4.37021e-06 -1.06119e-05
-1.42446e-05 4.28238e-06 4.26954e-06 -1.06117e-05
5.5914e-08 -8.70986e-09 -2.02304e-08 -1.08329e-05
1.43563e-05 -4.29986e-06 -4.3099e-06 -1.06119e-05
5.55862e-08 -8.91537e-09 -2.00018e-08 -1.08329e-05
5.57512e-08 -8.81189e-09 -2.01169e-08 -1.08329e-05
-1.40431e-05 4.22204e-06 4.20901e-06 -1.06117e-05
-1.36399e-05 4.10136e-06 4.08796e-06 -1.06117e-05
1.37525e-05 -4.11825e-06 -4.12898e-06 -1.06119e-05
1.4155e-05 -4.23933e-06 -4.24959e-06 -1.06119e-05
-1.38415e-05 4.1617e-06 4.14848e-06 -1.06117e-05
5.62327e-08 -8.51013e-09 -2.04525e-08 -1.08329e-05
1.39538e-05 -4.17879e-06 -4.18929e-06 -1.06119e-05
5.5914e-08 -8.70986e-09 -2.02304e-08 -1.08329e-05
5.60745e-08 -8.60927e-09 -2.03422e-08 -1.08329e-05
-1.36399e-05 4.10136e-06 4.08796e-06 -1.06117e-05
-1.32368e-05 3.98068e-06 3.96691e-06 -1.06117e-05
1.335e-05 -3.99719e-06 -4.00835e-06 -1.06119e-05
1.37525e-05 -4.11825e-06 -4.12898e-06 -1.06119e-05
-1.34384e-05 4.04102e-06 4.02743e-06 -1.06117e-05
5.65423e-08 -8.31621e-09 -2.06683e-08 -1.08329e-05
1.35513e-05 -4.05772e-06 -4.06866e-06 -1.06119e-05
5.62327e-08 -8.51013e-09 -2.04525e-08 -1.08329e-05
5.63887e-08 -8.41244e-09 -2.05612e-08 -1.08329e-05
-1.32368e-05 3.98068e-06 3.96691e-06 -1.06117e-05
-1.28337e-05 3.85998e-06 3.84586e-06 -1.06117e-05
1.29475e-05 -3.87612e-06 -3.88772e-06 -1.06119e-05
1.335e-05 -3.99719e-06 -4.00835e-06 -1.06119e-05
-1.30352e-05 3.92033e-06 3.90638e-06 -1.06117e-05
5.68428e-08 -8.12815e-09 -2.08777e-08 -1.08329e-05
1.31487e-05 -3.93665e-06 -3.94804e-06 -1.06119e-05
5.65423e-08 -8.31621e-09 -2.06683e-08 -1.08329e-05
5.66937e-08 -8.22144e-09 -2.07738e-08 -1.08329e-05
-1.28337e-05 3.85998e-06 3.84586e-06 -1.06117e-05
-1.24305e-05 3.73928e-06 3.72482e-06 -1.06117e-05
1.25449e-05 -3.75507e-06 -3.76708e-06 -1.06119e-05
1.29475e-05 -3.87612e-06 -3.88772e-06 -1.06119e-05
-1.26321e-05 3.79963e-06 3.78534e-06 -1.06117e-05
5.71342e-08 -7.94601e-09 -2.10807e-08 -1.08329e-05
1.27462e-05 -3.8156e-06 -3.8274e-06 -1.06119e-05
5.68428e-08 -8.12815e-09 -2.08777e-08 -1.08329e-05
5.69896e-08 -8.03633e-09 -2.098e-08 -1.08329e-05
-1.24305e-05 3.73928e-06 3.72482e-06 -1.06117e-05
-1.20274e-05 3.61858e-06 3.60379e-06 -1.06117e-05
1.21424e-05 -3.63402e-06 -3.64644e-06 -1.06119e-05
1.25449e-05 -3.75507e-06 -3.76708e-06 -1.06119e-05
-1.2229e-05 3.67893e-06 3.66431e-06 -1.06117e-05
5.74167e-08 -7.76987e-09 -2.12772e-08 -1.08329e-05
1.23437e-05 -3.69454e-06 -3.70676e-06 -1.06119e-05
5.71342e-08 -7.94601e-09 -2.10807e-08 -1.08329e-05
5.72766e-08 -7.85718e-09 -2.11797e-08 -1.08329e-05
-1.20274e-05 3.61858e-06 3.60379e-06 -1.06117e-05
-1.16243e-05 3.49787e-06 3.48277e-06 -1.06117e-05
1.17398e-05 -3.51298e-06 -3.52579e-06 -1.06119e-05
1.21424e-05 -3.63402e-06 -3.64644e-06 -1.06119e-05
-1.18259e-05 3.55823e-06 3.54328e-06 -1.06117e-05
5.76903e-08 -7.59984e-09 -2.14673e-08 -1.08329e-05
1.19411e-05 -3.5735e-06 -3.58611e-06 -1.06119e-05
5.74167e-08 -7.76987e-09 -2.12772e-08 -1.08329e-05
5.75546e-08 -7.68408e-09 -2.13731e-08 -1.08329e-05
-1.16243e-05 3.49787e-06 3.48277e-06 -1.06117e-05
-1.12212e-05 3.37715e-06 3.36175e-06 -1.06117e-05
1.13372e-05 -3.39194e-06 -3.40513e-06 -1.06119e-05
1.17398e-05 -3.51298e-06 -3.52579e-06 -1.06119e-05
-1.14228e-05 3.43751e-06 3.42226e-06 -1.06117e-05
5.79551e-08 -7.43602e-09 -2.1651e-08 -1.08329e-05
1.15385e-05 -3.45246e-06 -3.46546e-06 -1.06119e-05
5.76903e-08 -7.59984e-09 -2.14673e-08 -1.08329e-05
5.78238e-08 -7.51714e-09 -2.156e-08 -1.08329e-05
-1.12212e-05 3.37715e-06 3.36175e-06 -1.06117e-05
-1.08182e-05 3.25643e-06 3.24074e-06 -1.06117e-05
1.09347e-05 -3.27091e-06 -3.28447e-06 -1.06119e-05
1.13372e-05 -3.39194e-06 -3.40513e-06 -1.06119e-05
-1.10197e-05 3.31679e-06 3.30124e-06 -1.06117e-05
5.82113e-08 -7.27855e-09 -2.18283e-08 -1.08329e-05
1.1136e-05 -3.33142e-06 -3.3448e-06 -1.06119e-05
5.79551e-08 -7.43602e-09 -2.1651e-08 -1.08329e-05
5.80843e-08 -7.35648e-09 -2.17405e-08 -1.08329e-05
-1.08182e-05 3.25643e-06 3.24074e-06 -1.06117e-05
-1.04151e-05 3.1357e-06 3.11973e-06 -1.06117e-05
1.05321e-05 -3.14988e-06 -3.1638e-06 -1.06119e-05
1.09347e-05 -3.27091e-06 -3.28447e-06 -1.06119e-05
-1.06166e-05 3.19607e-06 3.18023e-06 -1.06117e-05
5.84593e-08 -7.12752e-09 -2.19993e-08 -1.08329e-05
1.07334e-05 -3.21039e-06 -3.22414e-06 -1.06119e-05
5.82113e-08 -7.27855e-09 -2.18283e-08 -1.08329e-05
5.83363e-08 -7.20222e-09 -2.19146e-08 -1.08329e-05
-1.04151e-05 3.1357e-06 3.11973e-06 -1.06117e-05
-1.0012e-05 3.01497e-06 2.99873e-06 -1.06117e-05
1.01295e-05 -3.02887e-06 -3.04312e-06 -1.06119e-05
1.05321e-05 -3.14988e-06 -3.1638e-06 -1.06119e-05
-1.02135e-05 3.07534e-06 3.05923e-06 -1.06117e-05
5.8699e-08 -6.983e-09 -2.2164e-08 -1.08329e-05
1.03308e-05 -3.08937e-06 -3.10346e-06 -1.06119e-05
5.84593e-08 -7.12752e-09 -2.19993e-08 -1.08329e-05
5.85802e-08 -7.05445e-09 -2.20824e-08 -1.08329e-05
-1.0012e-05 3.01497e-06 2.99873e-06 -1.06117e-05
-9.60896e-06 2.89423e-06 2.87774e-06 -1.06117e-05
9.72689e-06 -2.90786e-06 -2.92244e-06 -1.06119e-05
1.01295e-05 -3.02887e-06 -3.04312e-06 -1.06119e-05
-9.81048e-06 2.9546e-06 2.93824e-06 -1.06117e-05
5.89309e-08 -6.84492e-09 -2.23226e-08 -1.08329e-05
9.92819e-06 -2.96836e-06 -2.98279e-06 -1.06119e-05
5.8699e-08 -6.983e-09 -2.2164e-08 -1.08329e-05
5.8816e-08 -6.91317e-09 -2.22441e-08 -1.08329e-05
-9.60896e-06 2.89423e-06 2.87774e-06 -1.06117e-05
-9.20591e-06 2.77349e-06 2.75675e-06 -1.06117e-05
9.32429e-06 -2.78685e-06 -2.80176e-06 -1.06119e-05
9.72689e-06 -2.90786e-06 -2.92244e-06 -1.06119e-05
-9.40743e-06 2.83386e-06 2.81725e-06 -1.06117e-05
5.91551e-08 -6.71298e-09 -2.24752e-08 -1.08329e-05
9.52559e-06 -2.84735e-06 -2.8621e-06 -1.06119e-05
5.89309e-08 -6.84492e-09 -2.23226e-08 -1.08329e-05
5.9044e-08 -6.77821e-09 -2.23996e-08 -1.08329e-05
-9.20591e-06 2.77349e-06 2.75675e-06 -1.06117e-05
-8.80287e-06 2.65274e-06 2.63577e-06 -1.06117e-05
8.92168e-06 -2.66586e-06 -2.68106e-06 -1.06119e-05
9.32429e-06 -2.78685e-06 -2.80176e-06 -1.06119e-05
-9.00439e-06 2.71311e-06 2.69626e-06 -1.06117e-05
5.93716e-08 -6.5865e-09 -2.26222e-08 -1.08329e-05
9.12298e-06 -2.72635e-06 -2.74141e-06 -1.06119e-05
5.91551e-08 -6.71298e-09 -2.24752e-08 -1.08329e-05
5.92644e-08 -6.64912e-09 -2.25494e-08 -1.08329e-05
-8.80287e-06 2.65274e-06 2.63577e-06 -1.06117e-05
-8.39985e-06 2.53199e-06 2.51479e-06 -1.06117e-05
8.51906e-06 -2.54487e-06 -2.56037e-06 -1.06118e-05
8.92168e-06 -2.66586e-06 -2.68106e-06 -1.06119e-05
-8.60136e-06 2.59237e-06 2.57528e-06 -1.06117e-05
5.958e-08 -6.46412e-09 -2.27639e-08 -1.08328e-05
8.72037e-06 -2.60536e-06 -2.62072e-06 -1.06118e-05
5.93716e-08 -6.5865e-09 -2.26222e-08 -1.08329e-05
5.94768e-08 -6.52491e-09 -2.26937e-08 -1.08328e-05
-8.39985e-06 2.53199e-06 2.51479e-06 -1.06117e-05
-7.99684e-06 2.41125e-06 2.39382e-06 -1.06117e-05
8.11645e-06 -2.42389e-06 -2.43967e-06 -1.06118e-05
8.51906e-06 -2.54487e-06 -2.56037e-06 -1.06118e-05
-8.19834e-06 2.47162e-06 2.45431e-06 -1.06117e-05
5.97792e-08 -6.34353e-09 -2.2901e-08 -1.08328e-05
8.31776e-06 -2.48438e-06 -2.50002e-06 -1.06118e-05
5.958e-08 -6.46412e-09 -2.27639e-08 -1.08328e-05
5.96808e-08 -6.4038e-09 -2.2833e-08 -1.08328e-05
-7.99684e-06 2.41125e-06 2.39382e-06 -1.06117e-05
-7.59386e-06 2.29051e-06 2.27286e-06 -1.06116e-05
7.71383e-06 -2.30291e-06 -2.31897e-06 -1.06117e-05
8.11645e-06 -2.42389e-06 -2.43967e-06 -1.06118e-05
-7.79535e-06 2.35088e-06 2.33334e-06 -1.06116e-05
5.99673e-08 -6.22088e-09 -2.30342e-08 -1.08327e-05
7.91514e-06 -2.3634e-06 -2.37932e-06 -1.06118e-05
5.97792e-08 -6.34353e-09 -2.2901e-08 -1.08328e-05
5.98748e-08 -6.28278e-09 -2.2968e-08 -1.08328e-05
-7.59386e-06 2.29051e-06 2.27286e-06 -1.06116e-05
-7.19089e-06 2.16978e-06 2.15191e-06 -1.06116e-05
7.31121e-06 -2.18193e-06 -2.19827e-06 -1.06117e-05
7.71383e-06 -2.30291e-06 -2.31897e-06 -1.06117e-05
-7.39237e-06 2.23015e-06 2.21238e-06 -1.06116e-05
6.01403e-08 -6.0902e-09 -2.31643e-08 -1.08327e-05
7.51253e-06 -2.24242e-06 -2.25862e-06 -1.06117e-05
5.99673e-08 -6.22088e-09 -2.30342e-08 -1.08327e-05
6.00559e-08 -6.15703e-09 -2.30995e-08 -1.08327e-05
-7.19089e-06 2.16978e-06 2.15191e-06 -1.06116e-05
-6.78796e-06 2.04904e-06 2.03096e-06 -1.06115e-05
6.90858e-06 -2.0609e-06 -2.07758e-06 -1.06116e-05
7.31121e-06 -2.18193e-06 -2.19827e-06 -1.06117e-05
-6.98942e-06 2.10941e-06 2.09143e-06 -1.06115e-05
6.0292e-08 -5.94256e-09 -2.32926e-08 -1.08326e-05
7.1099e-06 -2.12142e-06 -2.13792e-06 -1.06116e-05
6.01403e-08 -6.0902e-09 -2.31643e-08 -1.08327e-05
6.02193e-08 -6.01921e-09 -2.32286e-08 -1.08326e-05
-6.78796e-06 2.04904e-06 2.03096e-06 -1.06115e-05
-6.385e-06 1.92825e-06 1.91004e-06 -1.06116e-05
6.50586e-06 -1.93977e-06 -1.9569e-06 -1.06116e-05
6.90858e-06 -2.0609e-06 -2.07758e-06 -1.06116e-05
-6.58649e-06 1.98865e-06 1.9705e-06 -1.06115e-05
6.0412e-08 -5.76505e-09 -2.34201e-08 -1.08327e-05
6.70724e-06 -2.00035e-06 -2.01724e-06 -1.06116e-05
6.0292e-08 -5.94256e-09 -2.32926e-08 -1.08326e-05
6.03567e-08 -5.85854e-09 -2.33564e-08 -1.08326e-05
-6.385e-06 1.92825e-06 1.91004e-06 -1.06116e-05
-5.98197e-06 1.8073e-06 1.78915e-06 -1.06118e-05
6.10299e-06 -1.81839e-06 -1.83626e-06 -1.06118e-05
6.50586e-06 -1.93977e-06 -1.9569e-06 -1.06116e-05
-6.18349e-06 1.8678e-06 1.84958e-06 -1.06116e-05
6.04849e-08 -5.53982e-09 -2.35479e-08 -1.0833e-05
6.30445e-06 -1.87912e-06 -1.89657e-06 -1.06117e-05
6.0412e-08 -5.76505e-09 -2.34201e-08 -1.08327e-05
6.04555e-08 -5.65978e-09 -2.34839e-08 -1.08328e-05
-5.98197e-06 1.8073e-06 1.78915e-06 -1.06118e-05
-5.5786e-06 1.68595e-06 1.66828e-06 -1.06127e-05
5.69964e-06 -1.69648e-06 -1.71564e-06 -1.06126e-05
6.10299e-06 -1.81839e-06 -1.83626e-06 -1.06118e-05
-5.78036e-06 1.7467e-06 1.72871e-06 -1.06122e-05
6.04879e-08 -5.24285e-09 -2.36764e-08 -1.08341e-05
5.90142e-06 -1.75753e-06 -1.77595e-06 -1.06121e-05
6.04849e-08 -5.53982e-09 -2.35479e-08 -1.0833e-05
6.04968e-08 -5.40205e-09 -2.3612e-08 -1.08334e-05
-5.5786e-06 1.68595e-06 1.66828e-06 -1.06127e-05
-5.17456e-06 1.56372e-06 1.54751e-06 -1.06151e-05
5.29545e-06 -1.57348e-06 -1.59513e-06 -1.06147e-05
5.69964e-06 -1.69648e-06 -1.71564e-06 -1.06126e-05
-5.37666e-06 1.62499e-06 1.60786e-06 -1.06137e-05
6.03889e-08 -4.84384e-09 -2.3805e-08 -1.08368e-05
5.49766e-06 -1.63516e-06 -1.65536e-06 -1.06134e-05
6.04879e-08 -5.24285e-09 -2.36764e-08 -1.08341e-05
6.04534e-08 -5.05834e-09 -2.37408e-08 -1.08352e-05
-5.17456e-06 1.56372e-06 1.54751e-06 -1.06151e-05
-4.76863e-06 1.43969e-06 1.42669e-06 -1.06204e-05
4.88909e-06 -1.44843e-06 -1.47457e-06 -1.06198e-05
5.29545e-06 -1.57348e-06 -1.59513e-06 -1.06147e-05
-4.97199e-06 1.50203e-06 1.48713e-06 -1.06172e-05
6.01442e-08 -4.30562e-09 -2.39308e-08 -1.08431e-05
5.09269e-06 -1.51132e-06 -1.53488e-06 -1.06168e-05
6.03889e-08 -4.84384e-09 -2.3805e-08 -1.08368e-05
6.02878e-08 -4.59451e-09 -2.38686e-08 -1.08393e-05
-4.76863e-06 1.43969e-06 1.42669e-06 -1.06204e-05
-4.35962e-06 1.31212e-06 1.30607e-06 -1.06316e-05
4.47927e-06 -1.3195e-06 -1.35419e-06 -1.06306e-05
4.88909e-06 -1.44843e-06 -1.47457e-06 -1.06198e-05
-4.56451e-06 1.37646e-06 1.36631e-06 -1.0625e-05
5.96976e-08 -3.5887e-09 -2.40467e-08 -1.08565e-05
4.68461e-06 -1.38457e-06 -1.41431e-06 -1.06242e-05
6.01442e-08 -4.30562e-09 -2.39308e-08 -1.08431e-05
5.995e-08 -3.97226e-09 -2.39904e-08 -1.08487e-05
-4.35962e-06 1.31212e-06 1.30607e-06 -1.06316e-05
-3.94313e-06 1.17846e-06 1.18486e-06 -1.0654e-05
4.06146e-06 -1.18406e-06 -1.23317e-06 -1.06525e-05
4.47927e-06 -1.3195e-06 -1.35419e-06 -1.06306e-05
-4.15287e-06 1.24635e-06 1.24565e-06 -1.06409e-05
5.89794e-08 -2.65321e-09 -2.41398e-08 -1.0883e-05
4.27192e-06 -1.25289e-06 -1.29387e-06 -1.06397e-05
5.96975e-08 -3.5887e-09 -2.40466e-08 -1.08565e-05
5.93772e-08 -3.14975e-09 -2.40975e-08 -1.08674e-05
-3.94313e-06 1.17846e-06 1.18486e-06 -1.0654e-05
-3.51614e-06 1.03407e-06 1.06375e-06 -1.0696e-05
3.6325e-06 -1.03743e-06 -1.11218e-06 -1.06938e-05
4.06146e-06 -1.18406e-06 -1.23317e-06 -1.06525e-05
-3.73078e-06 1.10777e-06 1.12415e-06 -1.06719e-05
5.79146e-08 -1.48073e-09 -2.4186e-08 -1.09325e-05
3.84821e-06 -1.1123e-06 -1.17253e-06 -1.06701e-05
5.89794e-08 -2.65321e-09 -2.41398e-08 -1.0883e-05
5.84949e-08 -2.09753e-09 -2.41703e-08 -1.09044e-05
-3.51614e-06 1.03407e-06 1.06375e-06 -1.0696e-05
-3.06625e-06 8.74824e-07 9.39182e-07 -1.0771e-05
3.17984e-06 -8.75496e-07 -9.87578e-07 -1.07678e-05
3.6325e-06 -1.03743e-06 -1.11218e-06 -1.06938e-05
-3.29578e-06 9.56962e-07 1.00235e-06 -1.07282e-05
5.64288e-08 -8.12548e-11 -2.41489e-08 -1.10197e-05
3.41087e-06 -9.59025e-07 -1.05079e-06 -1.07256e-05
5.79146e-08 -1.48073e-09 -2.4186e-08 -1.09325e-05
5.72291e-08 -8.03936e-10 -2.41822e-08 -1.09696e-05
-3.06625e-06 8.74824e-07 9.39182e-07 -1.0771e-05
-2.59146e-06 6.93986e-07 8.13203e-07 -1.08946e-05
2.70141e-06 -6.91698e-07 -8.61304e-07 -1.08904e-05
3.17984e-06 -8.75496e-07 -9.87578e-07 -1.07678e-05
-2.83049e-06 7.86506e-07 8.75994e-07 -1.08257e-05
5.44927e-08 1.43105e-09 -2.39673e-08 -1.11623e-05
2.94238e-06 -7.85712e-07 -9.24284e-07 -1.08221e-05
5.64288e-08 -8.12548e-11 -2.41489e-08 -1.10197e-05
5.55158e-08 6.69804e-10 -2.40796e-08 -1.10841e-05
-2.59146e-06 6.93986e-07 8.13203e-07 -1.08946e-05
-2.06896e-06 5.00179e-07 6.72334e-07 -1.1084e-05
2.17442e-06 -4.95094e-07 -7.19711e-07 -1.10788e-05
2.70141e-06 -6.91698e-07 -8.61304e-07 -1.08904e-05
-2.3405e-06 5.99123e-07 7.46304e-07 -1.09798e-05
5.21438e-08 2.83173e-09 -2.35609e-08 -1.1374e-05
2.4483e-06 -5.95373e-07 -7.94112e-07 -1.09751e-05
5.44927e-08 1.43105e-09 -2.39673e-08 -1.11623e-05
5.33663e-08 2.17429e-09 -2.38031e-08 -1.12565e-05
-2.06896e-06 5.00179e-07 6.72334e-07 -1.1084e-05
-1.53024e-06 3.09355e-07 5.23235e-07 -1.133e-05
1.63076e-06 -3.02518e-07 -5.69246e-07 -1.13242e-05
2.17442e-06 -4.95094e-07 -7.19711e-07 -1.10788e-05
-1.79336e-06 3.98249e-07 5.97906e-07 -1.12022e-05
4.96446e-08 3.58083e-09 -2.28109e-08 -1.16401e-05
1.89637e-06 -3.92074e-07 -6.44699e-07 -1.11967e-05
5.21438e-08 2.83173e-09 -2.35609e-08 -1.1374e-05
5.08837e-08 3.32598e-09 -2.32327e-08 -1.15076e-05
-1.53024e-06 3.09355e-07 5.23235e-07 -1.133e-05
-9.77984e-07 2.24422e-07 3.22955e-07 -1.15724e-05
1.07397e-06 -2.18464e-07 -3.66646e-07 -1.15669e-05
1.63076e-06 -3.02518e-07 -5.69246e-07 -1.13242e-05
-1.26373e-06 2.50091e-07 4.34416e-07 -1.14581e-05
4.74704e-08 2.92627e-09 -2.15986e-08 -1.18671e-05
1.36187e-06 -2.43237e-07 -4.79412e-07 -1.14522e-05
4.96446e-08 3.58083e-09 -2.28109e-08 -1.16401e-05
4.84867e-08 3.50259e-09 -2.22811e-08 -1.176e-05
-9.77984e-07 2.24422e-07 3.22955e-07 -1.15724e-05
-5.90512e-07 3.62755e-07 9.76103e-08 -1.15824e-05
6.84037e-07 -3.62597e-07 -1.3776e-07 -1.15786e-05
1.07397e-06 -2.18464e-07 -3.66646e-07 -1.15669e-05
-7.33436e-07 2.43861e-07 2.09818e-07 -1.16297e-05
4.65939e-08 -3.44187e-10 -1.98213e-08 -1.1808e-05
8.27792e-07 -2.40012e-07 -2.51906e-07 -1.16248e-05
4.74704e-08 2.92627e-09 -2.15986e-08 -1.18671e-05
4.67786e-08 1.6825e-09 -2.0769e-08 -1.19112e-05
-5.90512e-07 3.62755e-07 9.76103e-08 -1.15824e-05
-3.82175e-07 9.62782e-07 -2.48831e-07 -1.09369e-05
4.77272e-07 -9.75865e-07 2.13683e-07 -1.09365e-05
6.84037e-07 -3.62597e-07 -1.3776e-07 -1.15786e-05
-4.92373e-07 6.21617e-07 -5.53902e-08 -1.13759e-05
4.77773e-08 -7.09153e-09 -1.74368e-08 -1.10483e-05
5.86075e-07 -6.27066e-07 1.75676e-08 -1.13736e-05
4.65939e-08 -3.44187e-10 -1.98213e-08 -1.1808e-05
4.6924e-08 -3.24786e-09 -1.87184e-08 -1.15189e-05
-3.82175e-07 9.62782e-07 -2.48831e-07 -1.09369e-05
-5.62145e-07 1.74629e-06 -5.07492e-07 -8.936e-06
6.6411e-07 -1.77988e-06 4.78186e-07 -8.93991e-06
4.77272e-07 -9.75865e-07 2.13683e-07 -1.09365e-05
-3.69055e-07 1.32693e-06 -4.10518e-07 -1.01525e-05
5.18627e-08 -1.78586e-08 -1.45732e-08 -9.06013e-06
4.6687e-07 -1.3496e-06 3.78312e-07 -1.01541e-05
4.77773e-08 -7.09153e-09 -1.74368e-08 -1.10483e-05
4.93555e-08 -1.19353e-08 -1.60372e-08 -1.02901e-05
-5.62145e-07 1.74629e-06 -5.07492e-07 -8.936e-06
-1.06669e-06 2.86676e-06 -7.71459e-07 -5.11181e-06
1.17884e-06 -2.92186e-06 7.47009e-07 -5.10907e-06
6.6411e-07 -1.77988e-06 4.78186e-07 -8.93991e-06
-8.3638e-07 2.26294e-06 -6.11384e-07 -7.26746e-06
5.90693e-08 -2.55842e-08 -1.43508e-08 -4.96289e-06
9.43324e-07 -2.30787e-06 5.84805e-07 -7.27086e-06
5.18627e-08 -1.78586e-08 -1.45732e-08 -9.06013e-06
5.51495e-08 -2.39834e-08 -1.33569e-08 -7.2825e-06
6.98146e-05 0 -2.99205e-05 4.00293e-05
7.10726e-05 -9.76892e-06 -2.6273e-05 1.32594e-05
0.000220245 -2.9168e-05 -8.18901e-05 -9.19819e-07
0.000194703 0 -8.34442e-05 2.54829e-05
6.81707e-05 -4.15004e-06 -2.74374e-05 2.52478e-05
0.000145617 -1.94863e-05 -5.40562e-05 7.78734e-06
0.000211026 -1.64043e-05 -8.34092e-05 9.53394e-06
0.000129371 0 -5.54448e-05 3.654e-05
0.00013954 -9.27725e-06 -5.58269e-05 1.80776e-05
7.10726e-05 -9.76892e-06 -2.6273e-05 1.32594e-05
7.66602e-05 -1.60896e-05 -2.59588e-05 -2.77703e-06
0.000231527 -5.33434e-05 -7.63645e-05 -9.13103e-06
0.000220245 -2.9168e-05 -8.18901e-05 -9.19819e-07
7.50569e-05 -1.35493e-05 -2.63604e-05 3.82956e-06
0.000153137 -3.34212e-05 -5.13068e-05 -5.05194e-06
0.000225899 -4.20219e-05 -7.88044e-05 -6.21141e-06
0.000145617 -1.94863e-05 -5.40562e-05 7.78734e-06
0.000149513 -2.74203e-05 -5.23254e-05 8.34628e-07
7.66602e-05 -1.60896e-05 -2.59588e-05 -2.77703e-06
7.83267e-05 -2.07875e-05 -2.46597e-05 -1.00426e-05
0.000237262 -6.55642e-05 -7.35849e-05 -1.07089e-05
0.000231527 -5.33434e-05 -7.63645e-05 -9.13103e-06
7.72831e-05 -1.85946e-05 -2.51522e-05 -7.15739e-06
0.000157549 -4.23402e-05 -4.93753e-05 -1.05794e-05
0.000235769 -6.09242e-05 -7.49334e-05 -1.05662e-05
0.000153137 -3.34212e-05 -5.13068e-05 -5.05194e-06
0.000155984 -3.84431e-05 -5.03748e-05 -8.87099e-06
7.83267e-05 -2.07875e-05 -2.46597e-05 -1.00426e-05
7.92087e-05 -2.30168e-05 -2.40823e-05 -1.26311e-05
0.000237068 -7.03774e-05 -7.1439e-05 -9.89772e-06
0.000237262 -6.55642e-05 -7.35849e-05 -1.07089e-05
7.91741e-05 -2.21922e-05 -2.44208e-05 -1.17775e-05
0.000158307 -4.63244e-05 -4.79927e-05 -1.17968e-05
0.000237274 -6.85839e-05 -7.22956e-05 -1.02556e-05
0.000157549 -4.23402e-05 -4.93753e-05 -1.05794e-05
0.000158201 -4.48478e-05 -4.85797e-05 -1.13446e-05
7.92087e-05 -2.30168e-05 -2.40823e-05 -1.26311e-05
7.87008e-05 -2.38894e-05 -2.34906e-05 -1.29033e-05
0.000235418 -7.1307e-05 -7.03333e-05 -9.34408e-06
0.000237068 -7.03774e-05 -7.1439e-05 -9.89772e-06
7.88959e-05 -2.35714e-05 -2.37105e-05 -1.29114e-05
0.000157392 -4.76429e-05 -4.70354e-05 -1.16047e-05
0.000236499 -7.11539e-05 -7.08622e-05 -9.62282e-06
0.000158307 -4.63244e-05 -4.79927e-05 -1.17968e-05
0.000157996 -4.72093e-05 -4.74799e-05 -1.18451e-05
7.87008e-05 -2.38894e-05 -2.34906e-05 -1.29033e-05
7.80549e-05 -2.38923e-05 -2.32126e-05 -1.24414e-05
0.000233081 -7.09553e-05 -6.94824e-05 -8.97305e-06
0.000235418 -7.1307e-05 -7.03333e-05 -9.34408e-06
7.84713e-05 -2.39626e-05 -2.33609e-05 -1.27191e-05
0.000155857 -4.75555e-05 -4.64148e-05 -1.11153e-05
0.000234165 -7.12081e-05 -6.98388e-05 -9.10133e-06
0.000157392 -4.76429e-05 -4.70354e-05 -1.16047e-05
0.000156633 -4.77079e-05 -4.66823e-05 -1.1327e-05
7.80549e-05 -2.38923e-05 -2.32126e-05 -1.24414e-05
7.72213e-05 -2.36557e-05 -2.29567e-05 -1.18466e-05
0.000231043 -7.01713e-05 -6.89452e-05 -8.85779e-06
0.000233081 -7.09553e-05 -6.94824e-05 -8.97305e-06
7.75916e-05 -2.37848e-05 -2.30601e-05 -1.21316e-05
0.000154344 -4.70617e-05 -4.59781e-05 -1.06802e-05
0.000232072 -7.05864e-05 -6.92079e-05 -8.90979e-06
0.000155857 -4.75555e-05 -4.64148e-05 -1.11153e-05
0.000155086 -4.73278e-05 -4.6182e-05 -1.08994e-05
7.72213e-05 -2.36557e-05 -2.29567e-05 -1.18466e-05
7.65413e-05 -2.33462e-05 -2.27979e-05 -1.1375e-05
0.000229187 -6.9402e-05 -6.84794e-05 -8.80795e-06
0.000231043 -7.01713e-05 -6.89452e-05 -8.85779e-06
7.68893e-05 -2.35031e-05 -2.28798e-05 -1.15931e-05
0.000152997 -4.64815e-05 -4.56497e-05 -1.03752e-05
0.000230061 -6.9774e-05 -6.86943e-05 -8.81983e-06
0.000154344 -4.70617e-05 -4.59781e-05 -1.06802e-05
0.000153644 -4.67711e-05 -4.58026e-05 -1.05027e-05
7.65413e-05 -2.33462e-05 -2.27979e-05 -1.1375e-05
7.59182e-05 -2.30759e-05 -2.26467e-05 -1.1049e-05
0.000227604 -6.87253e-05 -6.80909e-05 -8.80966e-06
0.000229187 -6.9402e-05 -6.84794e-05 -8.80795e-06
7.62074e-05 -2.32041e-05 -2.27157e-05 -1.11928e-05
0.00015184 -4.59742e-05 -4.53709e-05 -1.0182e-05
0.000228382 -6.9051e-05 -6.82848e-05 -8.80916e-06
0.000152997 -4.64815e-05 -4.56497e-05 -1.03752e-05
0.000152398 -4.6216e-05 -4.55067e-05 -1.02705e-05
7.59182e-05 -2.30759e-05 -2.26467e-05 -1.1049e-05
7.53958e-05 -2.28476e-05 -2.25207e-05 -1.08491e-05
0.000226161 -6.81589e-05 -6.77153e-05 -8.81566e-06
0.000227604 -6.87253e-05 -6.80909e-05 -8.80966e-06
7.56541e-05 -2.29568e-05 -2.25846e-05 -1.09364e-05
0.000150821 -4.55475e-05 -4.51172e-05 -1.007e-05
0.000226861 -6.84295e-05 -6.78993e-05 -8.8109e-06
0.00015184 -4.59742e-05 -4.53709e-05 -1.0182e-05
0.000151316 -4.57515e-05 -4.52418e-05 -1.0116e-05
7.53958e-05 -2.28476e-05 -2.25207e-05 -1.08491e-05
7.49168e-05 -2.26604e-05 -2.23956e-05 -1.07332e-05
0.000224832 -6.76717e-05 -6.73546e-05 -8.8259e-06
0.000226161 -6.81589e-05 -6.77153e-05 -8.81566e-06
7.51483e-05 -2.27495e-05 -2.24566e-05 -1.07825e-05
0.000149896 -4.51922e-05 -4.4873e-05 -1.00079e-05
0.00022549 -6.79073e-05 -6.75354e-05 -8.82159e-06
0.000150821 -4.55475e-05 -4.51172e-05 -1.007e-05
0.00015035 -4.53622e-05 -4.49945e-05 -1.00351e-05
7.49168e-05 -2.26604e-05 -2.23956e-05 -1.07332e-05
7.4477e-05 -2.24999e-05 -2.22759e-05 -1.06706e-05
0.000223558 -6.72387e-05 -6.6994e-05 -8.83266e-06
0.000224832 -6.76717e-05 -6.73546e-05 -8.8259e-06
7.46951e-05 -2.25776e-05 -2.23361e-05 -1.0697e-05
0.000149027 -4.4884e-05 -4.46328e-05 -9.97608e-06
0.000224189 -6.74499e-05 -6.71737e-05 -8.82933e-06
0.000149896 -4.51922e-05 -4.4873e-05 -1.00079e-05
0.000149456 -4.50335e-05 -4.47526e-05 -9.98886e-06
7.4477e-05 -2.24999e-05 -2.22759e-05 -1.06706e-05
7.4054e-05 -2.2357e-05 -2.21558e-05 -1.06384e-05
0.00022232 -6.68378e-05 -6.66351e-05 -8.83777e-06
0.000223558 -6.72387e-05 -6.6994e-05 -8.83266e-06
7.42631e-05 -2.24268e-05 -2.22156e-05 -1.06517e-05
0.00014819 -4.46058e-05 -4.43933e-05 -9.96037e-06
0.000222937 -6.70353e-05 -6.68149e-05 -8.83562e-06
0.000149027 -4.4884e-05 -4.46328e-05 -9.97608e-06
0.000148606 -4.4742e-05 -4.45131e-05 -9.96698e-06
7.4054e-05 -2.2357e-05 -2.21558e-05 -1.06384e-05
7.36429e-05 -2.22241e-05 -2.20366e-05 -1.06229e-05
0.000221097 -6.64555e-05 -6.6275e-05 -8.84074e-06
0.00022232 -6.68378e-05 -6.66351e-05 -8.83777e-06
7.38478e-05 -2.22896e-05 -2.20964e-05 -1.06292e-05
0.00014737 -4.43447e-05 -4.41539e-05 -9.95334e-06
0.000221707 -6.6645e-05 -6.6455e-05 -8.8394e-06
0.00014819 -4.46058e-05 -4.43933e-05 -9.96037e-06
0.000147779 -4.44737e-05 -4.42736e-05 -9.95603e-06
7.36429e-05 -2.22241e-05 -2.20366e-05 -1.06229e-05
7.32366e-05 -2.20967e-05 -2.19171e-05 -1.0616e-05
0.000219884 -6.60831e-05 -6.59147e-05 -8.8426e-06
0.000221097 -6.64555e-05 -6.6275e-05 -8.84074e-06
7.34392e-05 -2.21599e-05 -2.19768e-05 -1.06187e-05
0.000146559 -4.40931e-05 -4.39141e-05 -9.95043e-06
0.00022049 -6.62684e-05 -6.6095e-05 -8.84182e-06
0.00014737 -4.43447e-05 -4.41539e-05 -9.95334e-06
0.000146964 -4.42181e-05 -4.4034e-05 -9.95159e-06
7.32366e-05 -2.20967e-05 -2.19171e-05 -1.0616e-05
7.28334e-05 -2.19723e-05 -2.17976e-05 -1.06132e-05
0.000218675 -6.57156e-05 -6.55538e-05 -8.84362e-06
0.000219884 -6.60831e-05 -6.59147e-05 -8.8426e-06
7.30349e-05 -2.20343e-05 -2.18574e-05 -1.06143e-05
0.000145752 -4.38464e-05 -4.3674e-05 -9.94948e-06
0.000219279 -6.58989e-05 -6.57343e-05 -8.84317e-06
0.000146559 -4.40931e-05 -4.39141e-05 -9.95043e-06
0.000146155 -4.39693e-05 -4.37941e-05 -9.94979e-06
7.28334e-05 -2.19723e-05 -2.17976e-05 -1.06132e-05
7.24312e-05 -2.18494e-05 -2.16779e-05 -1.06123e-05
0.000217467 -6.53506e-05 -6.51926e-05 -8.84419e-06
0.000218675 -6.57156e-05 -6.55538e-05 -8.84362e-06
7.26322e-05 -2.19107e-05 -2.17378e-05 -1.06126e-05
0.000144947 -4.3602e-05 -4.34336e-05 -9.9493e-06
0.000218071 -6.55329e-05 -6.53733e-05 -8.84395e-06
0.000145752 -4.38464e-05 -4.3674e-05 -9.94948e-06
0.00014535 -4.3724e-05 -4.35538e-05 -9.94935e-06
7.24312e-05 -2.18494e-05 -2.16779e-05 -1.06123e-05
7.20297e-05 -2.17271e-05 -2.15582e-05 -1.06122e-05
0.00021626 -6.49867e-05 -6.48312e-05 -8.84449e-06
0.000217467 -6.53506e-05 -6.51926e-05 -8.84419e-06
7.22304e-05 -2.17882e-05 -2.16181e-05 -1.06122e-05
0.000144143 -4.33588e-05 -4.31931e-05 -9.9494e-06
0.000216863 -6.51686e-05 -6.50119e-05 -8.84437e-06
0.000144947 -4.3602e-05 -4.34336e-05 -9.9493e-06
0.000144545 -4.34803e-05 -4.33134e-05 -9.94933e-06
7.20297e-05 -2.17271e-05 -2.15582e-05 -1.06122e-05
7.16282e-05 -2.16052e-05 -2.14385e-05 -1.06123e-05
0.000215052 -6.46232e-05 -6.44697e-05 -8.84465e-06
0.00021626 -6.49867e-05 -6.48312e-05 -8.84449e-06
7.18289e-05 -2.16661e-05 -2.14983e-05 -1.06122e-05
0.000143338 -4.3116e-05 -4.29525e-05 -9.94956e-06
0.000215656 -6.48049e-05 -6.46505e-05 -8.84459e-06
0.000144143 -4.33588e-05 -4.31931e-05 -9.9494e-06
0.000143741 -4.32373e-05 -4.30728e-05 -9.94948e-06
7.16282e-05 -2.16052e-05 -2.14385e-05 -1.06123e-05
7.12269e-05 -2.14834e-05 -2.13187e-05 -1.06124e-05
0.000213845 -6.42599e-05 -6.41081e-05 -8.84473e-06
0.000215052 -6.46232e-05 -6.44697e-05 -8.84465e-06
7.14276e-05 -2.15443e-05 -2.13786e-05 -1.06123e-05
0.000142534 -4.28734e-05 -4.27118e-05 -9.94969e-06
0.000214449 -6.44416e-05 -6.42889e-05 -8.8447e-06
0.000143338 -4.3116e-05 -4.29525e-05 -9.94956e-06
0.000142936 -4.29947e-05 -4.28322e-05 -9.94963e-06
7.12269e-05 -2.14834e-05 -2.13187e-05 -1.06124e-05
7.08256e-05 -2.13616e-05 -2.11988e-05 -1.06125e-05
0.000212638 -6.38966e-05 -6.37464e-05 -8.84476e-06
0.000213845 -6.42599e-05 -6.41081e-05 -8.84473e-06
7.10262e-05 -2.14225e-05 -2.12587e-05 -1.06125e-05
0.00014173 -4.26309e-05 -4.24711e-05 -9.94978e-06
0.000213242 -6.40783e-05 -6.39273e-05 -8.84475e-06
0.000142534 -4.28734e-05 -4.27118e-05 -9.94969e-06
0.000142132 -4.27521e-05 -4.25915e-05 -9.94974e-06
7.08256e-05 -2.13616e-05 -2.11988e-05 -1.06125e-05
7.04242e-05 -2.12399e-05 -2.1079e-05 -1.06126e-05
0.000211431 -6.35333e-05 -6.33848e-05 -8.84477e-06
0.000212638 -6.38966e-05 -6.37464e-05 -8.84476e-06
7.06249e-05 -2.13008e-05 -2.11389e-05 -1.06126e-05
0.000140926 -4.23883e-05 -4.22304e-05 -9.94983e-06
0.000212035 -6.3715e-05 -6.35656e-05 -8.84477e-06
0.00014173 -4.26309e-05 -4.24711e-05 -9.94978e-06
0.000141328 -4.25096e-05 -4.23508e-05 -9.94981e-06
7.04242e-05 -2.12399e-05 -2.1079e-05 -1.06126e-05
7.00228e-05 -2.11182e-05 -2.09591e-05 -1.06127e-05
0.000210224 -6.317e-05 -6.30231e-05 -8.84477e-06
0.000211431 -6.35333e-05 -6.33848e-05 -8.84477e-06
7.02235e-05 -2.1179e-05 -2.10191e-05 -1.06126e-05
0.000140122 -4.21458e-05 -4.19897e-05 -9.94986e-06
0.000210828 -6.33517e-05 -6.3204e-05 -8.84477e-06
0.000140926 -4.23883e-05 -4.22304e-05 -9.94983e-06
0.000140524 -4.22671e-05 -4.211e-05 -9.94985e-06
7.00228e-05 -2.11182e-05 -2.09591e-05 -1.06127e-05
6.96215e-05 -2.09964e-05 -2.08393e-05 -1.06127e-05
0.000209017 -6.28067e-05 -6.26614e-05 -8.84477e-06
0.000210224 -6.317e-05 -6.30231e-05 -8.84477e-06
6.98222e-05 -2.10573e-05 -2.08992e-05 -1.06127e-05
0.000139317 -4.19033e-05 -4.17489e-05 -9.94988e-06
0.00020962 -6.29884e-05 -6.28423e-05 -8.84477e-06
0.000140122 -4.21458e-05 -4.19897e-05 -9.94986e-06
0.00013972 -4.20245e-05 -4.18693e-05 -9.94987e-06
6.96215e-05 -2.09964e-05 -2.08393e-05 -1.06127e-05
6.92201e-05 -2.08747e-05 -2.07194e-05 -1.06127e-05
0.00020781 -6.24434e-05 -6.22998e-05 -8.84476e-06
0.000209017 -6.28067e-05 -6.26614e-05 -8.84477e-06
6.94208e-05 -2.09356e-05 -2.07794e-05 -1.06127e-05
0.000138513 -4.16607e-05 -4.15082e-05 -9.94988e-06
0.000208413 -6.26251e-05 -6.24806e-05 -8.84476e-06
0.000139317 -4.19033e-05 -4.17489e-05 -9.94988e-06
0.000138915 -4.1782e-05 -4.16285e-05 -9.94988e-06
6.92201e-05 -2.08747e-05 -2.07194e-05 -1.06127e-05
6.88187e-05 -2.0753e-05 -2.05996e-05 -1.06127e-05
0.000206602 -6.20801e-05 -6.19381e-05 -8.84475e-06
0.00020781 -6.24434e-05 -6.22998e-05 -8.84476e-06
6.90194e-05 -2.08139e-05 -2.06595e-05 -1.06127e-05
0.000137709 -4.14182e-05 -4.12674e-05 -9.94988e-06
0.000207206 -6.22618e-05 -6.21189e-05 -8.84475e-06
0.000138513 -4.16607e-05 -4.15082e-05 -9.94988e-06
0.000138111 -4.15395e-05 -4.13878e-05 -9.94988e-06
6.88187e-05 -2.0753e-05 -2.05996e-05 -1.06127e-05
6.84172e-05 -2.06313e-05 -2.04797e-05 -1.06127e-05
0.000205395 -6.17168e-05 -6.15764e-05 -8.84474e-06
0.000206602 -6.20801e-05 -6.19381e-05 -8.84475e-06
6.8618e-05 -2.06921e-05 -2.05396e-05 -1.06127e-05
0.000136904 -4.11757e-05 -4.10266e-05 -9.94987e-06
0.000205999 -6.18984e-05 -6.17572e-05 -8.84474e-06
0.000137709 -4.14182e-05 -4.12674e-05 -9.94988e-06
0.000137307 -4.12969e-05 -4.1147e-05 -9.94987e-06
6.84172e-05 -2.06313e-05 -2.04797e-05 -1.06127e-05
6.80158e-05 -2.05096e-05 -2.03598e-05 -1.06127e-05
0.000204188 -6.13535e-05 -6.12147e-05 -8.84473e-06
0.000205395 -6.17168e-05 -6.15764e-05 -8.84474e-06
6.82165e-05 -2.05704e-05 -2.04198e-05 -1.06127e-05
0.0001361 -4.09331e-05 -4.07859e-05 -9.94986e-06
0.000204791 -6.15351e-05 -6.13955e-05 -8.84473e-06
0.000136904 -4.11757e-05 -4.10266e-05 -9.94987e-06
0.000136502 -4.10544e-05 -4.09062e-05 -9.94987e-06
6.80158e-05 -2.05096e-05 -2.03598e-05 -1.06127e-05
6.76144e-05 -2.03879e-05 -2.02399e-05 -1.06127e-05
0.00020298 -6.09901e-05 -6.0853e-05 -8.84471e-06
0.000204188 -6.13535e-05 -6.12147e-05 -8.84473e-06
6.78151e-05 -2.04487e-05 -2.02999e-05 -1.06127e-05
0.000135296 -4.06906e-05 -4.05451e-05 -9.94985e-06
0.000203584 -6.11718e-05 -6.10338e-05 -8.84472e-06
0.0001361 -4.09331e-05 -4.07859e-05 -9.94986e-06
0.000135698 -4.08119e-05 -4.06655e-05 -9.94986e-06
6.76144e-05 -2.03879e-05 -2.02399e-05 -1.06127e-05
6.72129e-05 -2.02661e-05 -2.01201e-05 -1.06127e-05
0.000201773 -6.06268e-05 -6.04913e-05 -8.8447e-06
0.00020298 -6.09901e-05 -6.0853e-05 -8.84471e-06
6.74137e-05 -2.0327e-05 -2.018e-05 -1.06127e-05
0.000134491 -4.04481e-05 -4.03043e-05 -9.94985e-06
0.000202377 -6.08085e-05 -6.06721e-05 -8.84471e-06
0.000135296 -4.06906e-05 -4.05451e-05 -9.94985e-06
0.000134894 -4.05693e-05 -4.04247e-05 -9.94985e-06
6.72129e-05 -2.02661e-05 -2.01201e-05 -1.06127e-05
6.68115e-05 -2.01444e-05 -2.00002e-05 -1.06127e-05
0.000200566 -6.02635e-05 -6.01296e-05 -8.84469e-06
0.000201773 -6.06268e-05 -6.04913e-05 -8.8447e-06
6.70122e-05 -2.02053e-05 -2.00601e-05 -1.06127e-05
0.000133687 -4.02055e-05 -4.00635e-05 -9.94984e-06
0.00020117 -6.04452e-05 -6.03104e-05 -8.8447e-06
0.000134491 -4.04481e-05 -4.03043e-05 -9.94985e-06
0.000134089 -4.03268e-05 -4.01839e-05 -9.94984e-06
6.68115e-05 -2.01444e-05 -2.00002e-05 -1.06127e-05
6.641e-05 -2.00227e-05 -1.98803e-05 -1.06127e-05
0.000199359 -5.99002e-05 -5.97679e-05 -8.84468e-06
0.000200566 -6.02635e-05 -6.01296e-05 -8.84469e-06
6.66108e-05 -2.00836e-05 -1.99402e-05 -1.06127e-05
0.000132883 -3.9963e-05 -3.98227e-05 -9.94983e-06
0.000199962 -6.00818e-05 -5.99487e-05 -8.84469e-06
0.000133687 -4.02055e-05 -4.00635e-05 -9.94984e-06
0.000133285 -4.00843e-05 -3.99431e-05 -9.94983e-06
6.641e-05 -2.00227e-05 -1.98803e-05 -1.06127e-05
6.60086e-05 -1.9901e-05 -1.97604e-05 -1.06127e-05
0.000198151 -5.95369e-05 -5.94062e-05 -8.84467e-06
0.000199359 -5.99002e-05 -5.97679e-05 -8.84468e-06
6.62093e-05 -1.99619e-05 -1.98203e-05 -1.06127e-05
0.000132078 -3.97205e-05 -3.9582e-05 -9.94982e-06
0.000198755 -5.97185e-05 -5.9587e-05 -8.84468e-06
0.000132883 -3.9963e-05 -3.98227e-05 -9.94983e-06
0.000132481 -3.98417e-05 -3.97024e-05 -9.94982e-06
6.60086e-05 -1.9901e-05 -1.97604e-05 -1.06127e-05
6.56071e-05 -1.97794e-05 -1.96405e-05 -1.06127e-05
0.000196944 -5.91736e-05 -5.90444e-05 -8.84467e-06
0.000198151 -5.95369e-05 -5.94062e-05 -8.84467e-06
6.58079e-05 -1.98402e-05 -1.97004e-05 -1.06127e-05
0.000131274 -3.9478e-05 -3.93412e-05 -9.94981e-06
0.000197548 -5.93552e-05 -5.92253e-05 -8.84467e-06
0.000132078 -3.97205e-05 -3.9582e-05 -9.94982e-06
0.000131676 -3.95992e-05 -3.94616e-05 -9.94982e-06
6.56071e-05 -1.97794e-05 -1.96405e-05 -1.06127e-05
6.52056e-05 -1.96577e-05 -1.95206e-05 -1.06127e-05
0.000195737 -5.88103e-05 -5.86827e-05 -8.84466e-06
0.000196944 -5.91736e-05 -5.90444e-05 -8.84467e-06
6.54064e-05 -1.97185e-05 -1.95805e-05 -1.06127e-05
0.00013047 -3.92355e-05 -3.91004e-05 -9.9498e-06
0.00019634 -5.89919e-05 -5.88636e-05 -8.84466e-06
0.000131274 -3.9478e-05 -3.93412e-05 -9.94981e-06
0.000130872 -3.93567e-05 -3.92208e-05 -9.94981e-06
6.52056e-05 -1.96577e-05 -1.95206e-05 -1.06127e-05
6.48042e-05 -1.9536e-05 -1.94007e-05 -1.06127e-05
0.000194529 -5.8447e-05 -5.8321e-05 -8.84465e-06
0.000195737 -5.88103e-05 -5.86827e-05 -8.84466e-06
6.50049e-05 -1.95968e-05 -1.94606e-05 -1.06127e-05
0.000129665 -3.89929e-05 -3.88596e-05 -9.9498e-06
0.000195133 -5.86286e-05 -5.85019e-05 -8.84465e-06
0.00013047 -3.92355e-05 -3.91004e-05 -9.9498e-06
0.000130067 -3.91142e-05 -3.898e-05 -9.9498e-06
6.48042e-05 -1.9536e-05 -1.94007e-05 -1.06127e-05
6.44027e-05 -1.94143e-05 -1.92807e-05 -1.06127e-05
0.000193322 -5.80837e-05 -5.79593e-05 -8.84464e-06
0.000194529 -5.8447e-05 -5.8321e-05 -8.84465e-06
6.46034e-05 -1.94751e-05 -1.93407e-05 -1.06127e-05
0.000128861 -3.87504e-05 -3.86188e-05 -9.94979e-06
0.000193926 -5.82653e-05 -5.81401e-05 -8.84464e-06
0.000129665 -3.89929e-05 -3.88596e-05 -9.9498e-06
0.000129263 -3.88717e-05 -3.87392e-05 -9.94979e-06
6.44027e-05 -1.94143e-05 -1.92807e-05 -1.06127e-05
6.40012e-05 -1.92926e-05 -1.91608e-05 -1.06126e-05
0.000192115 -5.77204e-05 -5.75976e-05 -8.84463e-06
0.000193322 -5.80837e-05 -5.79593e-05 -8.84464e-06
6.42019e-05 -1.93534e-05 -1.92208e-05 -1.06126e-05
0.000128056 -3.85079e-05 -3.8378e-05 -9.94978e-06
0.000192718 -5.7902e-05 -5.77784e-05 -8.84463e-06
0.000128861 -3.87504e-05 -3.86188e-05 -9.94979e-06
0.000128459 -3.86292e-05 -3.84984e-05 -9.94979e-06
6.40012e-05 -1.92926e-05 -1.91608e-05 -1.06126e-05
6.35997e-05 -1.91709e-05 -1.90409e-05 -1.06126e-05
0.000190907 -5.73571e-05 -5.72358e-05 -8.84462e-06
0.000192115 -5.77204e-05 -5.75976e-05 -8.84463e-06
6.38004e-05 -1.92318e-05 -1.91009e-05 -1.06126e-05
0.000127252 -3.82654e-05 -3.81371e-05 -9.94977e-06
0.000191511 -5.75387e-05 -5.74167e-05 -8.84462e-06
0.000128056 -3.85079e-05 -3.8378e-05 -9.94978e-06
0.000127654 -3.83867e-05 -3.82575e-05 -9.94978e-06
6.35997e-05 -1.91709e-05 -1.90409e-05 -1.06126e-05
6.31982e-05 -1.90493e-05 -1.8921e-05 -1.06126e-05
0.0001897 -5.69938e-05 -5.68741e-05 -8.84461e-06
0.000190907 -5.73571e-05 -5.72358e-05 -8.84462e-06
6.33989e-05 -1.91101e-05 -1.89809e-05 -1.06126e-05
0.000126448 -3.80229e-05 -3.78963e-05 -9.94977e-06
0.000190304 -5.71754e-05 -5.70549e-05 -8.84461e-06
0.000127252 -3.82654e-05 -3.81371e-05 -9.94977e-06
0.00012685 -3.81442e-05 -3.80167e-05 -9.94977e-06
6.31982e-05 -1.90493e-05 -1.8921e-05 -1.06126e-05
6.27966e-05 -1.89276e-05 -1.8801e-05 -1.06126e-05
0.000188493 -5.66305e-05 -5.65123e-05 -8.8446e-06
0.0001897 -5.69938e-05 -5.68741e-05 -8.84461e-06
6.29974e-05 -1.89884e-05 -1.8861e-05 -1.06126e-05
0.000125643 -3.77804e-05 -3.76555e-05 -9.94976e-06
0.000189096 -5.68121e-05 -5.66932e-05 -8.8446e-06
0.000126448 -3.80229e-05 -3.78963e-05 -9.94977e-06
0.000126045 -3.79017e-05 -3.77759e-05 -9.94976e-06
6.27966e-05 -1.89276e-05 -1.8801e-05 -1.06126e-05
6.23951e-05 -1.88059e-05 -1.86811e-05 -1.06126e-05
0.000187285 -5.62672e-05 -5.61506e-05 -8.84459e-06
0.000188493 -5.66305e-05 -5.65123e-05 -8.8446e-06
6.25959e-05 -1.88668e-05 -1.87411e-05 -1.06126e-05
0.000124839 -3.75379e-05 -3.74147e-05 -9.94975e-06
0.000187889 -5.64488e-05 -5.63315e-05 -8.84459e-06
0.000125643 -3.77804e-05 -3.76555e-05 -9.94976e-06
0.000125241 -3.76592e-05 -3.75351e-05 -9.94975e-06
6.23951e-05 -1.88059e-05 -1.86811e-05 -1.06126e-05
6.19936e-05 -1.86843e-05 -1.85611e-05 -1.06126e-05
0.000186078 -5.59039e-05 -5.57888e-05 -8.84458e-06
0.000187285 -5.62672e-05 -5.61506e-05 -8.84459e-06
6.21944e-05 -1.87451e-05 -1.86211e-05 -1.06126e-05
0.000124034 -3.72954e-05 -3.71738e-05 -9.94974e-06
0.000186682 -5.60856e-05 -5.59697e-05 -8.84459e-06
0.000124839 -3.75379e-05 -3.74147e-05 -9.94975e-06
0.000124437 -3.74167e-05 -3.72943e-05 -9.94975e-06
6.19936e-05 -1.86843e-05 -1.85611e-05 -1.06126e-05
6.15921e-05 -1.85626e-05 -1.84412e-05 -1.06126e-05
0.000184871 -5.55406e-05 -5.54271e-05 -8.84457e-06
0.000186078 -5.59039e-05 -5.57888e-05 -8.84458e-06
6.17928e-05 -1.86234e-05 -1.85012e-05 -1.06126e-05
0.00012323 -3.7053e-05 -3.6933e-05 -9.94973e-06
0.000185474 -5.57223e-05 -5.5608e-05 -8.84458e-06
0.000124034 -3.72954e-05 -3.71738e-05 -9.94974e-06
0.000123632 -3.71742e-05 -3.70534e-05 -9.94974e-06
6.15921e-05 -1.85626e-05 -1.84412e-05 -1.06126e-05
6.11905e-05 -1.84409e-05 -1.83212e-05 -1.06126e-05
0.000183663 -5.51774e-05 -5.50653e-05 -8.84456e-06
0.000184871 -5.55406e-05 -5.54271e-05 -8.84457e-06
6.13913e-05 -1.85018e-05 -1.83812e-05 -1.06126e-05
0.000122426 -3.68105e-05 -3.66922e-05 -9.94973e-06
0.000184267 -5.5359e-05 -5.52462e-05 -8.84457e-06
0.00012323 -3.7053e-05 -3.6933e-05 -9.94973e-06
0.000122828 -3.69317e-05 -3.68126e-05 -9.94973e-06
6.11905e-05 -1.84409e-05 -1.83212e-05 -1.06126e-05
6.0789e-05 -1.83193e-05 -1.82013e-05 -1.06126e-05
0.000182456 -5.48141e-05 -5.47036e-05 -8.84455e-06
0.000183663 -5.51774e-05 -5.50653e-05 -8.84456e-06
6.09897e-05 -1.83801e-05 -1.82613e-05 -1.06126e-05
0.000121621 -3.6568e-05 -3.64513e-05 -9.94972e-06
0.000183059 -5.49957e-05 -5.48845e-05 -8.84456e-06
0.000122426 -3.68105e-05 -3.66922e-05 -9.94973e-06
0.000122023 -3.66892e-05 -3.65717e-05 -9.94972e-06
6.0789e-05 -1.83193e-05 -1.82013e-05 -1.06126e-05
6.03874e-05 -1.81976e-05 -1.80813e-05 -1.06126e-05
0.000181248 -5.44508e-05 -5.43418e-05 -8.84454e-06
0.000182456 -5.48141e-05 -5.47036e-05 -8.84455e-06
6.05882e-05 -1.82585e-05 -1.81413e-05 -1.06126e-05
0.000120817 -3.63255e-05 -3.62105e-05 -9.94971e-06
0.000181852 -5.46325e-05 -5.45227e-05 -8.84455e-06
0.000121621 -3.6568e-05 -3.64513e-05 -9.94972e-06
0.000121219 -3.64467e-05 -3.63309e-05 -9.94971e-06
6.03874e-05 -1.81976e-05 -1.80813e-05 -1.06126e-05
5.99858e-05 -1.8076e-05 -1.79614e-05 -1.06126e-05
0.000180041 -5.40876e-05 -5.398e-05 -8.84453e-06
0.000181248 -5.44508e-05 -5.43418e-05 -8.84454e-06
6.01866e-05 -1.81368e-05 -1.80213e-05 -1.06126e-05
0.000120012 -3.6083e-05 -3.59696e-05 -9.9497e-06
0.000180645 -5.42692e-05 -5.41609e-05 -8.84454e-06
0.000120817 -3.63255e-05 -3.62105e-05 -9.94971e-06
0.000120414 -3.62043e-05 -3.609e-05 -9.9497e-06
5.99858e-05 -1.8076e-05 -1.79614e-05 -1.06126e-05
5.95843e-05 -1.79544e-05 -1.78414e-05 -1.06126e-05
0.000178834 -5.37243e-05 -5.36183e-05 -8.84452e-06
0.000180041 -5.40876e-05 -5.398e-05 -8.84453e-06
5.9785e-05 -1.80152e-05 -1.79014e-05 -1.06126e-05
0.000119208 -3.58406e-05 -3.57288e-05 -9.94969e-06
0.000179437 -5.39059e-05 -5.37992e-05 -8.84453e-06
0.000120012 -3.6083e-05 -3.59696e-05 -9.9497e-06
0.00011961 -3.59618e-05 -3.58492e-05 -9.9497e-06
5.95843e-05 -1.79544e-05 -1.78414e-05 -1.06126e-05
5.91827e-05 -1.78327e-05 -1.77214e-05 -1.06126e-05
0.000177626 -5.3361e-05 -5.32565e-05 -8.84451e-06
0.000178834 -5.37243e-05 -5.36183e-05 -8.84452e-06
5.93835e-05 -1.78935e-05 -1.77814e-05 -1.06126e-05
0.000118403 -3.55981e-05 -3.54879e-05 -9.94968e-06
0.00017823 -5.35427e-05 -5.34374e-05 -8.84452e-06
0.000119208 -3.58406e-05 -3.57288e-05 -9.94969e-06
0.000118805 -3.57193e-05 -3.56083e-05 -9.94969e-06
5.91827e-05 -1.78327e-05 -1.77214e-05 -1.06126e-05
5.87811e-05 -1.77111e-05 -1.76014e-05 -1.06126e-05
0.000176419 -5.29978e-05 -5.28947e-05 -8.8445e-06
0.000177626 -5.3361e-05 -5.32565e-05 -8.84451e-06
5.89819e-05 -1.77719e-05 -1.76614e-05 -1.06126e-05
0.000117599 -3.53556e-05 -3.5247e-05 -9.94968e-06
0.000177022 -5.31794e-05 -5.30756e-05 -8.84451e-06
0.000118403 -3.55981e-05 -3.54879e-05 -9.94968e-06
0.000118001 -3.54769e-05 -3.53675e-05 -9.94968e-06
5.87811e-05 -1.77111e-05 -1.76014e-05 -1.06126e-05
5.83795e-05 -1.75895e-05 -1.74814e-05 -1.06126e-05
0.000175211 -5.26345e-05 -5.25329e-05 -8.84449e-06
0.000176419 -5.29978e-05 -5.28947e-05 -8.8445e-06
5.85803e-05 -1.76503e-05 -1.75414e-05 -1.06126e-05
0.000116794 -3.51132e-05 -3.50062e-05 -9.94967e-06
0.000175815 -5.28161e-05 -5.27138e-05 -8.8445e-06
0.000117599 -3.53556e-05 -3.5247e-05 -9.94968e-06
0.000117196 -3.52344e-05 -3.51266e-05 -9.94967e-06
5.83795e-05 -1.75895e-05 -1.74814e-05 -1.06126e-05
5.79779e-05 -1.74678e-05 -1.73614e-05 -1.06126e-05
0.000174004 -5.22713e-05 -5.21711e-05 -8.84448e-06
0.000175211 -5.26345e-05 -5.25329e-05 -8.84449e-06
5.81787e-05 -1.75287e-05 -1.74214e-05 -1.06126e-05
0.00011599 -3.48707e-05 -3.47653e-05 -9.94966e-06
0.000174608 -5.24529e-05 -5.2352e-05 -8.84449e-06
0.000116794 -3.51132e-05 -3.50062e-05 -9.94967e-06
0.000116392 -3.4992e-05 -3.48857e-05 -9.94966e-06
5.79779e-05 -1.74678e-05 -1.73614e-05 -1.06126e-05
5.75763e-05 -1.73462e-05 -1.72414e-05 -1.06126e-05
0.000172797 -5.1908e-05 -5.18094e-05 -8.84447e-06
0.000174004 -5.22713e-05 -5.21711e-05 -8.84448e-06
5.77771e-05 -1.7407e-05 -1.73014e-05 -1.06126e-05
0.000115185 -3.46283e-05 -3.45244e-05 -9.94965e-06
0.0001734 -5.20896e-05 -5.19902e-05 -8.84448e-06
0.00011599 -3.48707e-05 -3.47653e-05 -9.94966e-06
0.000115587 -3.47495e-05 -3.46448e-05 -9.94966e-06
5.75763e-05 -1.73462e-05 -1.72414e-05 -1.06126e-05
5.71747e-05 -1.72246e-05 -1.71214e-05 -1.06125e-05
0.000171589 -5.15448e-05 -5.14476e-05 -8.84446e-06
0.000172797 -5.1908e-05 -5.18094e-05 -8.84447e-06
5.73755e-05 -1.72854e-05 -1.71814e-05 -1.06126e-05
0.000114381 -3.43858e-05 -3.42835e-05 -9.94964e-06
0.000172193 -5.17264e-05 -5.16285e-05 -8.84447e-06
0.000115185 -3.46283e-05 -3.45244e-05 -9.94965e-06
0.000114783 -3.45071e-05 -3.4404e-05 -9.94965e-06
5.71747e-05 -1.72246e-05 -1.71214e-05 -1.06125e-05
5.6773e-05 -1.7103e-05 -1.70014e-05 -1.06125e-05
0.000170382 -5.11815e-05 -5.10858e-05 -8.84445e-06
0.000171589 -5.15448e-05 -5.14476e-05 -8.84446e-06
5.69738e-05 -1.71638e-05 -1.70614e-05 -1.06125e-05
0.000113576 -3.41434e-05 -3.40426e-05 -9.94963e-06
0.000170985 -5.13631e-05 -5.12667e-05 -8.84446e-06
0.000114381 -3.43858e-05 -3.42835e-05 -9.94964e-06
0.000113978 -3.42646e-05 -3.41631e-05 -9.94964e-06
5.6773e-05 -1.7103e-05 -1.70014e-05 -1.06125e-05
5.63714e-05 -1.69814e-05 -1.68814e-05 -1.06125e-05
0.000169174 -5.08183e-05 -5.0724e-05 -8.84444e-06
0.000170382 -5.11815e-05 -5.10858e-05 -8.84445e-06
5.65722e-05 -1.70422e-05 -1.69414e-05 -1.06125e-05
0.000112772 -3.3901e-05 -3.38017e-05 -9.94963e-06
0.000169778 -5.09999e-05 -5.09049e-05 -8.84445e-06
0.000113576 -3.41434e-05 -3.40426e-05 -9.94963e-06
0.000113174 -3.40222e-05 -3.39222e-05 -9.94963e-06
5.63714e-05 -1.69814e-05 -1.68814e-05 -1.06125e-05
5.59698e-05 -1.68598e-05 -1.67614e-05 -1.06125e-05
0.000167967 -5.04551e-05 -5.03621e-05 -8.84443e-06
0.000169174 -5.08183e-05 -5.0724e-05 -8.84444e-06
5.61706e-05 -1.69206e-05 -1.68214e-05 -1.06125e-05
0.000111967 -3.36585e-05 -3.35608e-05 -9.94962e-06
0.00016857 -5.06367e-05 -5.0543e-05 -8.84444e-06
0.000112772 -3.3901e-05 -3.38017e-05 -9.94963e-06
0.000112369 -3.37797e-05 -3.36813e-05 -9.94962e-06
5.59698e-05 -1.68598e-05 -1.67614e-05 -1.06125e-05
5.55681e-05 -1.67382e-05 -1.66414e-05 -1.06125e-05
0.000166759 -5.00918e-05 -5.00003e-05 -8.84442e-06
0.000167967 -5.04551e-05 -5.03621e-05 -8.84443e-06
5.57689e-05 -1.6799e-05 -1.67014e-05 -1.06125e-05
0.000111163 -3.34161e-05 -3.33199e-05 -9.94961e-06
0.000167363 -5.02734e-05 -5.01812e-05 -8.84443e-06
0.000111967 -3.36585e-05 -3.35608e-05 -9.94962e-06
0.000111565 -3.35373e-05 -3.34404e-05 -9.94961e-06
5.55681e-05 -1.67382e-05 -1.66414e-05 -1.06125e-05
5.51664e-05 -1.66166e-05 -1.65214e-05 -1.06125e-05
0.000165552 -4.97286e-05 -4.96385e-05 -8.84441e-06
0.000166759 -5.00918e-05 -5.00003e-05 -8.84442e-06
5.53673e-05 -1.66774e-05 -1.65814e-05 -1.06125e-05
0.000110358 -3.31737e-05 -3.3079e-05 -9.9496e-06
0.000166156 -4.99102e-05 -4.98194e-05 -8.84442e-06
0.000111163 -3.34161e-05 -3.33199e-05 -9.94961e-06
0.00011076 -3.32949e-05 -3.31995e-05 -9.9496e-06
5.51664e-05 -1.66166e-05 -1.65214e-05 -1.06125e-05
5.47648e-05 -1.6495e-05 -1.64013e-05 -1.06125e-05
0.000164344 -4.93654e-05 -4.92767e-05 -8.8444e-06
0.000165552 -4.97286e-05 -4.96385e-05 -8.84441e-06
5.49656e-05 -1.65558e-05 -1.64613e-05 -1.06125e-05
0.000109553 -3.29312e-05 -3.28381e-05 -9.94959e-06
0.000164948 -4.9547e-05 -4.94576e-05 -8.84441e-06
0.000110358 -3.31737e-05 -3.3079e-05 -9.9496e-06
0.000109956 -3.30525e-05 -3.29586e-05 -9.9496e-06
5.47648e-05 -1.6495e-05 -1.64013e-05 -1.06125e-05
5.43631e-05 -1.63734e-05 -1.62813e-05 -1.06125e-05
0.000163137 -4.90021e-05 -4.89149e-05 -8.84439e-06
0.000164344 -4.93654e-05 -4.92767e-05 -8.8444e-06
5.4564e-05 -1.64342e-05 -1.63413e-05 -1.06125e-05
0.000108749 -3.26888e-05 -3.25972e-05 -9.94958e-06
0.000163741 -4.91838e-05 -4.90958e-05 -8.8444e-06
0.000109553 -3.29312e-05 -3.28381e-05 -9.94959e-06
0.000109151 -3.281e-05 -3.27177e-05 -9.94959e-06
5.43631e-05 -1.63734e-05 -1.62813e-05 -1.06125e-05
5.39614e-05 -1.62518e-05 -1.61613e-05 -1.06125e-05
0.000161929 -4.86389e-05 -4.8553e-05 -8.84438e-06
0.000163137 -4.90021e-05 -4.89149e-05 -8.84439e-06
5.41623e-05 -1.63126e-05 -1.62213e-05 -1.06125e-05
0.000107944 -3.24464e-05 -3.23563e-05 -9.94957e-06
0.000162533 -4.88205e-05 -4.8734e-05 -8.84439e-06
0.000108749 -3.26888e-05 -3.25972e-05 -9.94958e-06
0.000108347 -3.25676e-05 -3.24767e-05 -9.94958e-06
5.39614e-05 -1.62518e-05 -1.61613e-05 -1.06125e-05
5.35598e-05 -1.61303e-05 -1.60412e-05 -1.06125e-05
0.000160722 -4.82757e-05 -4.81912e-05 -8.84437e-06
0.000161929 -4.86389e-05 -4.8553e-05 -8.84438e-06
5.37606e-05 -1.61911e-05 -1.61012e-05 -1.06125e-05
0.00010714 -3.2204e-05 -3.21153e-05 -9.94957e-06
0.000161326 -4.84573e-05 -4.83721e-05 -8.84438e-06
0.000107944 -3.24464e-05 -3.23563e-05 -9.94957e-06
0.000107542 -3.23252e-05 -3.22358e-05 -9.94957e-06
5.35598e-05 -1.61303e-05 -1.60412e-05 -1.06125e-05
5.31581e-05 -1.60087e-05 -1.59212e-05 -1.06125e-05
0.000159514 -4.79125e-05 -4.78294e-05 -8.84436e-06
0.000160722 -4.82757e-05 -4.81912e-05 -8.84437e-06
5.33589e-05 -1.60695e-05 -1.59812e-05 -1.06125e-05
0.000106335 -3.19616e-05 -3.18744e-05 -9.94956e-06
0.000160118 -4.80941e-05 -4.80103e-05 -8.84437e-06
0.00010714 -3.2204e-05 -3.21153e-05 -9.94957e-06
0.000106738 -3.20828e-05 -3.19949e-05 -9.94956e-06
5.31581e-05 -1.60087e-05 -1.59212e-05 -1.06125e-05
5.27564e-05 -1.58871e-05 -1.58011e-05 -1.06125e-05
0.000158307 -4.75493e-05 -4.74675e-05 -8.84435e-06
0.000159514 -4.79125e-05 -4.78294e-05 -8.84436e-06
5.29572e-05 -1.59479e-05 -1.58611e-05 -1.06125e-05
0.000105531 -3.17192e-05 -3.16335e-05 -9.94955e-06
0.000158911 -4.77309e-05 -4.76485e-05 -8.84436e-06
0.000106335 -3.19616e-05 -3.18744e-05 -9.94956e-06
0.000105933 -3.18404e-05 -3.17539e-05 -9.94955e-06
5.27564e-05 -1.58871e-05 -1.58011e-05 -1.06125e-05
5.23547e-05 -1.57656e-05 -1.5681e-05 -1.06125e-05
0.000157099 -4.71861e-05 -4.71057e-05 -8.84434e-06
0.000158307 -4.75493e-05 -4.74675e-05 -8.84435e-06
5.25555e-05 -1.58263e-05 -1.57411e-05 -1.06125e-05
0.000104726 -3.14768e-05 -3.13925e-05 -9.94954e-06
0.000157703 -4.73677e-05 -4.72866e-05 -8.84435e-06
0.000105531 -3.17192e-05 -3.16335e-05 -9.94955e-06
0.000105128 -3.1598e-05 -3.1513e-05 -9.94954e-06
5.23547e-05 -1.57656e-05 -1.5681e-05 -1.06125e-05
5.19529e-05 -1.5644e-05 -1.5561e-05 -1.06125e-05
0.000155892 -4.68229e-05 -4.67438e-05 -8.84433e-06
0.000157099 -4.71861e-05 -4.71057e-05 -8.84434e-06
5.21538e-05 -1.57048e-05 -1.5621e-05 -1.06125e-05
0.000103921 -3.12344e-05 -3.11516e-05 -9.94953e-06
0.000156496 -4.70045e-05 -4.69248e-05 -8.84434e-06
0.000104726 -3.14768e-05 -3.13925e-05 -9.94954e-06
0.000104324 -3.13556e-05 -3.12721e-05 -9.94954e-06
5.19529e-05 -1.5644e-05 -1.5561e-05 -1.06125e-05
5.15512e-05 -1.55224e-05 -1.54409e-05 -1.06125e-05
0.000154684 -4.64597e-05 -4.6382e-05 -8.84432e-06
0.000155892 -4.68229e-05 -4.67438e-05 -8.84433e-06
5.17521e-05 -1.55832e-05 -1.55009e-05 -1.06125e-05
0.000103117 -3.0992e-05 -3.09106e-05 -9.94952e-06
0.000155288 -4.66413e-05 -4.65629e-05 -8.84433e-06
0.000103921 -3.12344e-05 -3.11516e-05 -9.94953e-06
0.000103519 -3.11132e-05 -3.10311e-05 -9.94953e-06
5.15512e-05 -1.55224e-05 -1.54409e-05 -1.06125e-05
5.11495e-05 -1.54009e-05 -1.53208e-05 -1.06125e-05
0.000153477 -4.60965e-05 -4.60201e-05 -8.84431e-06
0.000154684 -4.64597e-05 -4.6382e-05 -8.84432e-06
5.13503e-05 -1.54617e-05 -1.53809e-05 -1.06125e-05
0.000102312 -3.07496e-05 -3.06697e-05 -9.94951e-06
0.000154081 -4.62781e-05 -4.6201e-05 -8.84432e-06
0.000103117 -3.0992e-05 -3.09106e-05 -9.94952e-06
0.000102715 -3.08708e-05 -3.07902e-05 -9.94952e-06
5.11495e-05 -1.54009e-05 -1.53208e-05 -1.06125e-05
5.07477e-05 -1.52793e-05 -1.52007e-05 -1.06124e-05
0.000152269 -4.57333e-05 -4.56583e-05 -8.8443e-06
0.000153477 -4.60965e-05 -4.60201e-05 -8.84431e-06
5.09486e-05 -1.53401e-05 -1.52608e-05 -1.06125e-05
0.000101508 -3.05072e-05 -3.04287e-05 -9.94951e-06
0.000152873 -4.59149e-05 -4.58392e-05 -8.84431e-06
0.000102312 -3.07496e-05 -3.06697e-05 -9.94951e-06
0.00010191 -3.06284e-05 -3.05492e-05 -9.94951e-06
5.07477e-05 -1.52793e-05 -1.52007e-05 -1.06124e-05
5.0346e-05 -1.51578e-05 -1.50807e-05 -1.06124e-05
0.000151062 -4.53701e-05 -4.52964e-05 -8.84429e-06
0.000152269 -4.57333e-05 -4.56583e-05 -8.8443e-06
5.05469e-05 -1.52186e-05 -1.51407e-05 -1.06124e-05
0.000100703 -3.02648e-05 -3.01878e-05 -9.9495e-06
0.000151665 -4.55517e-05 -4.54773e-05 -8.8443e-06
0.000101508 -3.05072e-05 -3.04287e-05 -9.94951e-06
0.000101105 -3.0386e-05 -3.03082e-05 -9.9495e-06
5.0346e-05 -1.51578e-05 -1.50807e-05 -1.06124e-05
4.99442e-05 -1.50363e-05 -1.49606e-05 -1.06124e-05
0.000149854 -4.50069e-05 -4.49345e-05 -8.84428e-06
0.000151062 -4.53701e-05 -4.52964e-05 -8.84429e-06
5.01451e-05 -1.5097e-05 -1.50206e-05 -1.06124e-05
9.98983e-05 -3.00225e-05 -2.99468e-05 -9.94949e-06
0.000150458 -4.51885e-05 -4.51155e-05 -8.84429e-06
0.000100703 -3.02648e-05 -3.01878e-05 -9.9495e-06
0.000100301 -3.01437e-05 -3.00673e-05 -9.94949e-06
4.99442e-05 -1.50363e-05 -1.49606e-05 -1.06124e-05
4.95425e-05 -1.49147e-05 -1.48405e-05 -1.06124e-05
0.000148647 -4.46438e-05 -4.45726e-05 -8.84427e-06
0.000149854 -4.50069e-05 -4.49345e-05 -8.84428e-06
4.97434e-05 -1.49755e-05 -1.49005e-05 -1.06124e-05
9.90937e-05 -2.97801e-05 -2.97058e-05 -9.94948e-06
0.00014925 -4.48253e-05 -4.47536e-05 -8.84428e-06
9.98983e-05 -3.00225e-05 -2.99468e-05 -9.94949e-06
9.9496e-05 -2.99013e-05 -2.98263e-05 -9.94948e-06
4.95425e-05 -1.49147e-05 -1.48405e-05 -1.06124e-05
4.91407e-05 -1.47932e-05 -1.47204e-05 -1.06124e-05
0.000147439 -4.42806e-05 -4.42108e-05 -8.84426e-06
0.000148647 -4.46438e-05 -4.45726e-05 -8.84427e-06
4.93416e-05 -1.4854e-05 -1.47804e-05 -1.06124e-05
9.8289e-05 -2.95377e-05 -2.94648e-05 -9.94947e-06
0.000148043 -4.44622e-05 -4.43917e-05 -8.84427e-06
9.90937e-05 -2.97801e-05 -2.97058e-05 -9.94948e-06
9.86913e-05 -2.96589e-05 -2.95853e-05 -9.94948e-06
4.91407e-05 -1.47932e-05 -1.47204e-05 -1.06124e-05
4.87389e-05 -1.46717e-05 -1.46002e-05 -1.06124e-05
0.000146231 -4.39174e-05 -4.38489e-05 -8.84425e-06
0.000147439 -4.42806e-05 -4.42108e-05 -8.84426e-06
4.89398e-05 -1.47324e-05 -1.46603e-05 -1.06124e-05
9.74844e-05 -2.92954e-05 -2.92238e-05 -9.94946e-06
0.000146835 -4.4099e-05 -4.40298e-05 -8.84426e-06
9.8289e-05 -2.95377e-05 -2.94648e-05 -9.94947e-06
9.78867e-05 -2.94166e-05 -2.93443e-05 -9.94947e-06
4.87389e-05 -1.46717e-05 -1.46002e-05 -1.06124e-05
4.83371e-05 -1.45502e-05 -1.44801e-05 -1.06124e-05
0.000145024 -4.35542e-05 -4.3487e-05 -8.84424e-06
0.000146231 -4.39174e-05 -4.38489e-05 -8.84425e-06
4.8538e-05 -1.46109e-05 -1.45402e-05 -1.06124e-05
9.66797e-05 -2.9053e-05 -2.89829e-05 -9.94945e-06
0.000145628 -4.37358e-05 -4.36679e-05 -8.84425e-06
9.74844e-05 -2.92954e-05 -2.92238e-05 -9.94946e-06
9.7082e-05 -2.91742e-05 -2.91034e-05 -9.94946e-06
4.83371e-05 -1.45502e-05 -1.44801e-05 -1.06124e-05
4.79354e-05 -1.44286e-05 -1.436e-05 -1.06124e-05
0.000143816 -4.31911e-05 -4.31251e-05 -8.84423e-06
0.000145024 -4.35542e-05 -4.3487e-05 -8.84424e-06
4.81362e-05 -1.44894e-05 -1.44201e-05 -1.06124e-05
9.5875e-05 -2.88107e-05 -2.87419e-05 -9.94945e-06
0.00014442 -4.33727e-05 -4.3306e-05 -8.84424e-06
9.66797e-05 -2.9053e-05 -2.89829e-05 -9.94945e-06
9.62773e-05 -2.89318e-05 -2.88624e-05 -9.94945e-06
4.79354e-05 -1.44286e-05 -1.436e-05 -1.06124e-05
4.75336e-05 -1.43071e-05 -1.42399e-05 -1.06124e-05
0.000142609 -4.28279e-05 -4.27632e-05 -8.84422e-06
0.000143816 -4.31911e-05 -4.31251e-05 -8.84423e-06
4.77345e-05 -1.43679e-05 -1.43e-05 -1.06124e-05
9.50703e-05 -2.85683e-05 -2.85009e-05 -9.94944e-06
0.000143212 -4.30095e-05 -4.29441e-05 -8.84423e-06
9.5875e-05 -2.88107e-05 -2.87419e-05 -9.94945e-06
9.54727e-05 -2.86895e-05 -2.86214e-05 -9.94944e-06
4.75336e-05 -1.43071e-05 -1.42399e-05 -1.06124e-05
4.71317e-05 -1.41856e-05 -1.41198e-05 -1.06124e-05
0.000141401 -4.24648e-05 -4.24013e-05 -8.84421e-06
0.000142609 -4.28279e-05 -4.27632e-05 -8.84422e-06
4.73326e-05 -1.42464e-05 -1.41798e-05 -1.06124e-05
9.42656e-05 -2.8326e-05 -2.82599e-05 -9.94943e-06
0.000142005 -4.26463e-05 -4.25822e-05 -8.84422e-06
9.50703e-05 -2.85683e-05 -2.85009e-05 -9.94944e-06
9.4668e-05 -2.84471e-05 -2.83804e-05 -9.94943e-06
4.71317e-05 -1.41856e-05 -1.41198e-05 -1.06124e-05
4.67299e-05 -1.40641e-05 -1.39996e-05 -1.06124e-05
0.000140193 -4.21016e-05 -4.20394e-05 -8.8442e-06
0.000141401 -4.24648e-05 -4.24013e-05 -8.84421e-06
4.69308e-05 -1.41249e-05 -1.40597e-05 -1.06124e-05
9.34609e-05 -2.80836e-05 -2.80188e-05 -9.94942e-06
0.000140797 -4.22832e-05 -4.22203e-05 -8.84421e-06
9.42656e-05 -2.8326e-05 -2.82599e-05 -9.94943e-06
9.38633e-05 -2.82048e-05 -2.81394e-05 -9.94942e-06
4.67299e-05 -1.40641e-05 -1.39996e-05 -1.06124e-05
4.63281e-05 -1.39426e-05 -1.38795e-05 -1.06124e-05
0.000138986 -4.17384e-05 -4.16775e-05 -8.84419e-06
0.000140193 -4.21016e-05 -4.20394e-05 -8.8442e-06
4.6529e-05 -1.40034e-05 -1.39396e-05 -1.06124e-05
9.26562e-05 -2.78413e-05 -2.77778e-05 -9.94941e-06
0.00013959 -4.192e-05 -4.18584e-05 -8.8442e-06
9.34609e-05 -2.80836e-05 -2.80188e-05 -9.94942e-06
9.30586e-05 -2.79625e-05 -2.78983e-05 -9.94941e-06
4.63281e-05 -1.39426e-05 -1.38795e-05 -1.06124e-05
4.59263e-05 -1.38211e-05 -1.37593e-05 -1.06124e-05
0.000137778 -4.13753e-05 -4.13156e-05 -8.84418e-06
0.000138986 -4.17384e-05 -4.16775e-05 -8.84419e-06
4.61272e-05 -1.38819e-05 -1.38194e-05 -1.06124e-05
9.18515e-05 -2.7599e-05 -2.75368e-05 -9.9494e-06
0.000138382 -4.15569e-05 -4.14965e-05 -8.84419e-06
9.26562e-05 -2.78413e-05 -2.77778e-05 -9.94941e-06
9.22539e-05 -2.77201e-05 -2.76573e-05 -9.94941e-06
4.59263e-05 -1.38211e-05 -1.37593e-05 -1.06124e-05
4.55244e-05 -1.36997e-05 -1.36392e-05 -1.06124e-05
0.000136571 -4.10122e-05 -4.09536e-05 -8.84417e-06
0.000137778 -4.13753e-05 -4.13156e-05 -8.84418e-06
4.57253e-05 -1.37604e-05 -1.36993e-05 -1.06124e-05
9.10468e-05 -2.73566e-05 -2.72958e-05 -9.94939e-06
0.000137174 -4.11937e-05 -4.11346e-05 -8.84418e-06
9.18515e-05 -2.7599e-05 -2.75368e-05 -9.9494e-06
9.14492e-05 -2.74778e-05 -2.74163e-05 -9.9494e-06
4.55244e-05 -1.36997e-05 -1.36392e-05 -1.06124e-05
4.51226e-05 -1.35782e-05 -1.3519e-05 -1.06124e-05
0.000135363 -4.0649e-05 -4.05917e-05 -8.84416e-06
0.000136571 -4.10122e-05 -4.09536e-05 -8.84417e-06
4.53235e-05 -1.36389e-05 -1.35791e-05 -1.06124e-05
9.02421e-05 -2.71143e-05 -2.70548e-05 -9.94938e-06
0.000135967 -4.08306e-05 -4.07727e-05 -8.84417e-06
9.10468e-05 -2.73566e-05 -2.72958e-05 -9.94939e-06
9.06444e-05 -2.72355e-05 -2.71753e-05 -9.94939e-06
4.51226e-05 -1.35782e-05 -1.3519e-05 -1.06124e-05
4.47207e-05 -1.34567e-05 -1.33989e-05 -1.06124e-05
0.000134155 -4.02859e-05 -4.02298e-05 -8.84415e-06
0.000135363 -4.0649e-05 -4.05917e-05 -8.84416e-06
4.49217e-05 -1.35174e-05 -1.3459e-05 -1.06124e-05
8.94373e-05 -2.6872e-05 -2.68137e-05 -9.94938e-06
0.000134759 -4.04675e-05 -4.04107e-05 -8.84416e-06
9.02421e-05 -2.71143e-05 -2.70548e-05 -9.94938e-06
8.98397e-05 -2.69931e-05 -2.69342e-05 -9.94938e-06
4.47207e-05 -1.34567e-05 -1.33989e-05 -1.06124e-05
4.43189e-05 -1.33352e-05 -1.32787e-05 -1.06123e-05
0.000132948 -3.99228e-05 -3.98678e-05 -8.84414e-06
0.000134155 -4.02859e-05 -4.02298e-05 -8.84415e-06
4.45198e-05 -1.3396e-05 -1.33388e-05 -1.06123e-05
8.86326e-05 -2.66297e-05 -2.65727e-05 -9.94937e-06
0.000133552 -4.01043e-05 -4.00488e-05 -8.84415e-06
8.94373e-05 -2.6872e-05 -2.68137e-05 -9.94938e-06
8.9035e-05 -2.67508e-05 -2.66932e-05 -9.94937e-06
4.43189e-05 -1.33352e-05 -1.32787e-05 -1.06123e-05
4.3917e-05 -1.32138e-05 -1.31585e-05 -1.06123e-05
0.00013174 -3.95596e-05 -3.95059e-05 -8.84413e-06
0.000132948 -3.99228e-05 -3.98678e-05 -8.84414e-06
4.41179e-05 -1.32745e-05 -1.32186e-05 -1.06123e-05
8.78279e-05 -2.63874e-05 -2.63316e-05 -9.94936e-06
0.000132344 -3.97412e-05 -3.96869e-05 -8.84414e-06
8.86326e-05 -2.66297e-05 -2.65727e-05 -9.94937e-06
8.82302e-05 -2.65085e-05 -2.64522e-05 -9.94936e-06
4.3917e-05 -1.32138e-05 -1.31585e-05 -1.06123e-05
4.35151e-05 -1.30923e-05 -1.30383e-05 -1.06123e-05
0.000130532 -3.91965e-05 -3.9144e-05 -8.84412e-06
0.00013174 -3.95596e-05 -3.95059e-05 -8.84413e-06
4.3716e-05 -1.3153e-05 -1.30984e-05 -1.06123e-05
8.70231e-05 -2.61451e-05 -2.60906e-05 -9.94935e-06
0.000131136 -3.93781e-05 -3.93249e-05 -8.84413e-06
8.78279e-05 -2.63874e-05 -2.63316e-05 -9.94936e-06
8.74255e-05 -2.62662e-05 -2.62111e-05 -9.94935e-06
4.35151e-05 -1.30923e-05 -1.30383e-05 -1.06123e-05
4.31132e-05 -1.29708e-05 -1.29182e-05 -1.06123e-05
0.000129325 -3.88334e-05 -3.8782e-05 -8.84411e-06
0.000130532 -3.91965e-05 -3.9144e-05 -8.84412e-06
4.33142e-05 -1.30316e-05 -1.29783e-05 -1.06123e-05
8.62183e-05 -2.59028e-05 -2.58495e-05 -9.94934e-06
0.000129929 -3.90149e-05 -3.8963e-05 -8.84412e-06
8.70231e-05 -2.61451e-05 -2.60906e-05 -9.94935e-06
8.66207e-05 -2.60239e-05 -2.59701e-05 -9.94934e-06
4.31132e-05 -1.29708e-05 -1.29182e-05 -1.06123e-05
4.27113e-05 -1.28494e-05 -1.2798e-05 -1.06123e-05
0.000128117 -3.84703e-05 -3.84201e-05 -8.8441e-06
0.000129325 -3.88334e-05 -3.8782e-05 -8.84411e-06
4.29123e-05 -1.29101e-05 -1.28581e-05 -1.06123e-05
8.54136e-05 -2.56605e-05 -2.56085e-05 -9.94933e-06
0.000128721 -3.86518e-05 -3.8601e-05 -8.84411e-06
8.62183e-05 -2.59028e-05 -2.58495e-05 -9.94934e-06
8.58159e-05 -2.57816e-05 -2.5729e-05 -9.94934e-06
4.27113e-05 -1.28494e-05 -1.2798e-05 -1.06123e-05
4.23094e-05 -1.27279e-05 -1.26778e-05 -1.06123e-05
0.000126909 -3.81072e-05 -3.80581e-05 -8.84409e-06
0.000128117 -3.84703e-05 -3.84201e-05 -8.8441e-06
4.25104e-05 -1.27886e-05 -1.27379e-05 -1.06123e-05
8.46088e-05 -2.54182e-05 -2.53674e-05 -9.94932e-06
0.000127513 -3.82887e-05 -3.82391e-05 -8.8441e-06
8.54136e-05 -2.56605e-05 -2.56085e-05 -9.94933e-06
8.50112e-05 -2.55393e-05 -2.54879e-05 -9.94933e-06
4.23094e-05 -1.27279e-05 -1.26778e-05 -1.06123e-05
4.19075e-05 -1.26065e-05 -1.25576e-05 -1.06123e-05
0.000125702 -3.77441e-05 -3.76961e-05 -8.84408e-06
0.000126909 -3.81072e-05 -3.80581e-05 -8.84409e-06
4.21085e-05 -1.26672e-05 -1.26177e-05 -1.06123e-05
8.3804e-05 -2.51759e-05 -2.51263e-05 -9.94931e-06
0.000126306 -3.79256e-05 -3.78771e-05 -8.84409e-06
8.46088e-05 -2.54182e-05 -2.53674e-05 -9.94932e-06
8.42064e-05 -2.5297e-05 -2.52469e-05 -9.94932e-06
4.19075e-05 -1.26065e-05 -1.25576e-05 -1.06123e-05
4.15056e-05 -1.2485e-05 -1.24374e-05 -1.06123e-05
0.000124494 -3.7381e-05 -3.73342e-05 -8.84407e-06
0.000125702 -3.77441e-05 -3.76961e-05 -8.84408e-06
4.17065e-05 -1.25458e-05 -1.24975e-05 -1.06123e-05
8.29992e-05 -2.49336e-05 -2.48853e-05 -9.94931e-06
0.000125098 -3.75625e-05 -3.75152e-05 -8.84408e-06
8.3804e-05 -2.51759e-05 -2.51263e-05 -9.94931e-06
8.34016e-05 -2.50547e-05 -2.50058e-05 -9.94931e-06
4.15056e-05 -1.2485e-05 -1.24374e-05 -1.06123e-05
4.11036e-05 -1.23636e-05 -1.23172e-05 -1.06123e-05
0.000123286 -3.70179e-05 -3.69722e-05 -8.84406e-06
0.000124494 -3.7381e-05 -3.73342e-05 -8.84407e-06
4.13046e-05 -1.24243e-05 -1.23773e-05 -1.06123e-05
8.21944e-05 -2.46913e-05 -2.46442e-05 -9.9493e-06
0.00012389 -3.71994e-05 -3.71532e-05 -8.84407e-06
8.29992e-05 -2.49336e-05 -2.48853e-05 -9.94931e-06
8.25968e-05 -2.48125e-05 -2.47647e-05 -9.9493e-06
4.11036e-05 -1.23636e-05 -1.23172e-05 -1.06123e-05
4.07017e-05 -1.22422e-05 -1.21969e-05 -1.06123e-05
0.000122079 -3.66548e-05 -3.66102e-05 -8.84405e-06
0.000123286 -3.70179e-05 -3.69722e-05 -8.84406e-06
4.09027e-05 -1.23029e-05 -1.22571e-05 -1.06123e-05
8.13896e-05 -2.4449e-05 -2.44031e-05 -9.94929e-06
0.000122682 -3.68363e-05 -3.67912e-05 -8.84406e-06
8.21944e-05 -2.46913e-05 -2.46442e-05 -9.9493e-06
8.1792e-05 -2.45702e-05 -2.45236e-05 -9.94929e-06
4.07017e-05 -1.22422e-05 -1.21969e-05 -1.06123e-05
4.02998e-05 -1.21208e-05 -1.20767e-05 -1.06123e-05
0.000120871 -3.62917e-05 -3.62482e-05 -8.84404e-06
0.000122079 -3.66548e-05 -3.66102e-05 -8.84405e-06
4.05007e-05 -1.21815e-05 -1.21368e-05 -1.06123e-05
8.05848e-05 -2.42068e-05 -2.4162e-05 -9.94928e-06
0.000121475 -3.64732e-05 -3.64292e-05 -8.84405e-06
8.13896e-05 -2.4449e-05 -2.44031e-05 -9.94929e-06
8.09872e-05 -2.43279e-05 -2.42825e-05 -9.94928e-06
4.02998e-05 -1.21208e-05 -1.20767e-05 -1.06123e-05
3.98978e-05 -1.19993e-05 -1.19565e-05 -1.06123e-05
0.000119663 -3.59286e-05 -3.58863e-05 -8.84403e-06
0.000120871 -3.62917e-05 -3.62482e-05 -8.84404e-06
4.00988e-05 -1.206e-05 -1.20166e-05 -1.06123e-05
7.97799e-05 -2.39645e-05 -2.39209e-05 -9.94927e-06
0.000120267 -3.61101e-05 -3.60673e-05 -8.84404e-06
8.05848e-05 -2.42068e-05 -2.4162e-05 -9.94928e-06
8.01824e-05 -2.40856e-05 -2.40414e-05 -9.94928e-06
3.98978e-05 -1.19993e-05 -1.19565e-05 -1.06123e-05
3.94958e-05 -1.18779e-05 -1.18363e-05 -1.06123e-05
0.000118455 -3.55655e-05 -3.55243e-05 -8.84402e-06
0.000119663 -3.59286e-05 -3.58863e-05 -8.84403e-06
3.96968e-05 -1.19386e-05 -1.18964e-05 -1.06123e-05
7.89751e-05 -2.37223e-05 -2.36798e-05 -9.94926e-06
0.000119059 -3.5747e-05 -3.57053e-05 -8.84403e-06
7.97799e-05 -2.39645e-05 -2.39209e-05 -9.94927e-06
7.93775e-05 -2.38434e-05 -2.38003e-05 -9.94927e-06
3.94958e-05 -1.18779e-05 -1.18363e-05 -1.06123e-05
3.90939e-05 -1.17565e-05 -1.1716e-05 -1.06123e-05
0.000117248 -3.52024e-05 -3.51623e-05 -8.84401e-06
0.000118455 -3.55655e-05 -3.55243e-05 -8.84402e-06
3.92949e-05 -1.18172e-05 -1.17761e-05 -1.06123e-05
7.81703e-05 -2.348e-05 -2.34387e-05 -9.94925e-06
0.000117852 -3.5384e-05 -3.53433e-05 -8.84402e-06
7.89751e-05 -2.37223e-05 -2.36798e-05 -9.94926e-06
7.85727e-05 -2.36011e-05 -2.35592e-05 -9.94926e-06
3.90939e-05 -1.17565e-05 -1.1716e-05 -1.06123e-05
3.86919e-05 -1.16351e-05 -1.15958e-05 -1.06123e-05
0.00011604 -3.48393e-05 -3.48003e-05 -8.844e-06
0.000117248 -3.52024e-05 -3.51623e-05 -8.84401e-06
3.88929e-05 -1.16958e-05 -1.16559e-05 -1.06123e-05
7.73654e-05 -2.32377e-05 -2.31976e-05 -9.94925e-06
0.000116644 -3.50209e-05 -3.49813e-05 -8.84401e-06
7.81703e-05 -2.348e-05 -2.34387e-05 -9.94925e-06
7.77678e-05 -2.33589e-05 -2.33181e-05 -9.94925e-06
3.86919e-05 -1.16351e-05 -1.15958e-05 -1.06123e-05
3.82899e-05 -1.15137e-05 -1.14755e-05 -1.06122e-05
0.000114832 -3.44763e-05 -3.44383e-05 -8.84399e-06
0.00011604 -3.48393e-05 -3.48003e-05 -8.844e-06
3.84909e-05 -1.15744e-05 -1.15356e-05 -1.06123e-05
7.65606e-05 -2.29955e-05 -2.29565e-05 -9.94924e-06
0.000115436 -3.46578e-05 -3.46193e-05 -8.844e-06
7.73654e-05 -2.32377e-05 -2.31976e-05 -9.94925e-06
7.6963e-05 -2.31166e-05 -2.3077e-05 -9.94924e-06
3.82899e-05 -1.15137e-05 -1.14755e-05 -1.06122e-05
3.78879e-05 -1.13923e-05 -1.13553e-05 -1.06122e-05
0.000113624 -3.41132e-05 -3.40763e-05 -8.84398e-06
0.000114832 -3.44763e-05 -3.44383e-05 -8.84399e-06
3.80889e-05 -1.1453e-05 -1.14154e-05 -1.06122e-05
7.57557e-05 -2.27533e-05 -2.27153e-05 -9.94923e-06
0.000114228 -3.42947e-05 -3.42573e-05 -8.84399e-06
7.65606e-05 -2.29955e-05 -2.29565e-05 -9.94924e-06
7.61581e-05 -2.28744e-05 -2.28359e-05 -9.94923e-06
3.78879e-05 -1.13923e-05 -1.13553e-05 -1.06122e-05
3.74859e-05 -1.12709e-05 -1.1235e-05 -1.06122e-05
0.000112417 -3.37502e-05 -3.37142e-05 -8.84397e-06
0.000113624 -3.41132e-05 -3.40763e-05 -8.84398e-06
3.76869e-05 -1.13316e-05 -1.12951e-05 -1.06122e-05
7.49508e-05 -2.2511e-05 -2.24742e-05 -9.94922e-06
0.000113021 -3.39317e-05 -3.38952e-05 -8.84398e-06
7.57557e-05 -2.27533e-05 -2.27153e-05 -9.94923e-06
7.53533e-05 -2.26321e-05 -2.25948e-05 -9.94922e-06
3.74859e-05 -1.12709e-05 -1.1235e-05 -1.06122e-05
3.70839e-05 -1.11495e-05 -1.11147e-05 -1.06122e-05
0.000111209 -3.33871e-05 -3.33522e-05 -8.84396e-06
0.000112417 -3.37502e-05 -3.37142e-05 -8.84397e-06
3.72849e-05 -1.12102e-05 -1.11749e-05 -1.06122e-05
7.41459e-05 -2.22688e-05 -2.22331e-05 -9.94921e-06
0.000111813 -3.35686e-05 -3.35332e-05 -8.84397e-06
7.49508e-05 -2.2511e-05 -2.24742e-05 -9.94922e-06
7.45484e-05 -2.23899e-05 -2.23536e-05 -9.94922e-06
3.70839e-05 -1.11495e-05 -1.11147e-05 -1.06122e-05
3.66819e-05 -1.10282e-05 -1.09945e-05 -1.06122e-05
0.000110001 -3.3024e-05 -3.29902e-05 -8.84395e-06
0.000111209 -3.33871e-05 -3.33522e-05 -8.84396e-06
3.68829e-05 -1.10888e-05 -1.10546e-05 -1.06122e-05
7.3341e-05 -2.20266e-05 -2.19919e-05 -9.9492e-06
0.000110605 -3.32056e-05 -3.31712e-05 -8.84396e-06
7.41459e-05 -2.22688e-05 -2.22331e-05 -9.94921e-06
7.37435e-05 -2.21477e-05 -2.21125e-05 -9.94921e-06
3.66819e-05 -1.10282e-05 -1.09945e-05 -1.06122e-05
3.62799e-05 -1.09068e-05 -1.08742e-05 -1.06122e-05
0.000108793 -3.2661e-05 -3.26282e-05 -8.84394e-06
0.000110001 -3.3024e-05 -3.29902e-05 -8.84395e-06
3.64809e-05 -1.09675e-05 -1.09343e-05 -1.06122e-05
7.25362e-05 -2.17843e-05 -2.17508e-05 -9.94919e-06
0.000109397 -3.28425e-05 -3.28092e-05 -8.84395e-06
7.3341e-05 -2.20266e-05 -2.19919e-05 -9.9492e-06
7.29386e-05 -2.19055e-05 -2.18713e-05 -9.9492e-06
3.62799e-05 -1.09068e-05 -1.08742e-05 -1.06122e-05
3.58778e-05 -1.07854e-05 -1.07539e-05 -1.06122e-05
0.000107586 -3.22979e-05 -3.22661e-05 -8.84393e-06
0.000108793 -3.2661e-05 -3.26282e-05 -8.84394e-06
3.60788e-05 -1.08461e-05 -1.0814e-05 -1.06122e-05
7.17312e-05 -2.15421e-05 -2.15096e-05 -9.94919e-06
0.000108189 -3.24795e-05 -3.24471e-05 -8.84394e-06
7.25362e-05 -2.17843e-05 -2.17508e-05 -9.94919e-06
7.21337e-05 -2.16632e-05 -2.16302e-05 -9.94919e-06
3.58778e-05 -1.07854e-05 -1.07539e-05 -1.06122e-05
3.54758e-05 -1.0664e-05 -1.06336e-05 -1.06122e-05
0.000106378 -3.19349e-05 -3.19041e-05 -8.84392e-06
0.000107586 -3.22979e-05 -3.22661e-05 -8.84393e-06
3.56768e-05 -1.07247e-05 -1.06937e-05 -1.06122e-05
7.09263e-05 -2.12999e-05 -2.12685e-05 -9.94918e-06
0.000106982 -3.21164e-05 -3.20851e-05 -8.84393e-06
7.17312e-05 -2.15421e-05 -2.15096e-05 -9.94919e-06
7.13288e-05 -2.1421e-05 -2.1389e-05 -9.94918e-06
3.54758e-05 -1.0664e-05 -1.06336e-05 -1.06122e-05
3.50737e-05 -1.05427e-05 -1.05133e-05 -1.06122e-05
0.00010517 -3.15719e-05 -3.1542e-05 -8.84391e-06
0.000106378 -3.19349e-05 -3.19041e-05 -8.84392e-06
3.52747e-05 -1.06034e-05 -1.05734e-05 -1.06122e-05
7.01214e-05 -2.10577e-05 -2.10273e-05 -9.94917e-06
0.000105774 -3.17534e-05 -3.17231e-05 -8.84392e-06
7.09263e-05 -2.12999e-05 -2.12685e-05 -9.94918e-06
7.05239e-05 -2.11788e-05 -2.11479e-05 -9.94917e-06
3.50737e-05 -1.05427e-05 -1.05133e-05 -1.06122e-05
3.46717e-05 -1.04213e-05 -1.0393e-05 -1.06122e-05
0.000103962 -3.12088e-05 -3.118e-05 -8.8439e-06
0.00010517 -3.15719e-05 -3.1542e-05 -8.84391e-06
3.48727e-05 -1.0482e-05 -1.04531e-05 -1.06122e-05
6.93165e-05 -2.08155e-05 -2.07861e-05 -9.94916e-06
0.000104566 -3.13904e-05 -3.1361e-05 -8.84391e-06
7.01214e-05 -2.10577e-05 -2.10273e-05 -9.94917e-06
6.9719e-05 -2.09366e-05 -2.09067e-05 -9.94916e-06
3.46717e-05 -1.04213e-05 -1.0393e-05 -1.06122e-05
3.42696e-05 -1.03e-05 -1.02727e-05 -1.06122e-05
0.000102754 -3.08458e-05 -3.08179e-05 -8.84389e-06
0.000103962 -3.12088e-05 -3.118e-05 -8.8439e-06
3.44706e-05 -1.03607e-05 -1.03328e-05 -1.06122e-05
6.85116e-05 -2.05733e-05 -2.0545e-05 -9.94915e-06
0.000103358 -3.10273e-05 -3.0999e-05 -8.8439e-06
6.93165e-05 -2.08155e-05 -2.07861e-05 -9.94916e-06
6.8914e-05 -2.06944e-05 -2.06656e-05 -9.94916e-06
3.42696e-05 -1.03e-05 -1.02727e-05 -1.06122e-05
3.38675e-05 -1.01786e-05 -1.01524e-05 -1.06122e-05
0.000101547 -3.04828e-05 -3.04559e-05 -8.84388e-06
0.000102754 -3.08458e-05 -3.08179e-05 -8.84389e-06
3.40685e-05 -1.02393e-05 -1.02125e-05 -1.06122e-05
6.77066e-05 -2.03311e-05 -2.03038e-05 -9.94914e-06
0.00010215 -3.06643e-05 -3.06369e-05 -8.84389e-06
6.85116e-05 -2.05733e-05 -2.0545e-05 -9.94915e-06
6.81091e-05 -2.04522e-05 -2.04244e-05 -9.94915e-06
3.38675e-05 -1.01786e-05 -1.01524e-05 -1.06122e-05
3.34654e-05 -1.00573e-05 -1.00321e-05 -1.06122e-05
0.000100339 -3.01198e-05 -3.00938e-05 -8.84387e-06
0.000101547 -3.04828e-05 -3.04559e-05 -8.84388e-06
3.36665e-05 -1.0118e-05 -1.00922e-05 -1.06122e-05
6.69017e-05 -2.00889e-05 -2.00626e-05 -9.94913e-06
0.000100943 -3.03013e-05 -3.02749e-05 -8.84388e-06
6.77066e-05 -2.03311e-05 -2.03038e-05 -9.94914e-06
6.73041e-05 -2.021e-05 -2.01832e-05 -9.94914e-06
3.34654e-05 -1.00573e-05 -1.00321e-05 -1.06122e-05
3.30633e-05 -9.93596e-06 -9.91173e-06 -1.06122e-05
9.91308e-05 -2.97568e-05 -2.97318e-05 -8.84386e-06
0.000100339 -3.01198e-05 -3.00938e-05 -8.84387e-06
3.32644e-05 -9.99663e-06 -9.97189e-06 -1.06122e-05
6.60967e-05 -1.98467e-05 -1.98214e-05 -9.94913e-06
9.97348e-05 -2.99383e-05 -2.99128e-05 -8.84387e-06
6.69017e-05 -2.00889e-05 -2.00626e-05 -9.94913e-06
6.64992e-05 -1.99678e-05 -1.9942e-05 -9.94913e-06
3.30633e-05 -9.93596e-06 -9.91173e-06 -1.06122e-05
3.26612e-05 -9.81464e-06 -9.79139e-06 -1.06122e-05
9.7923e-05 -2.93937e-05 -2.93697e-05 -8.84385e-06
9.91308e-05 -2.97568e-05 -2.97318e-05 -8.84386e-06
3.28623e-05 -9.8753e-06 -9.85156e-06 -1.06122e-05
6.52917e-05 -1.96046e-05 -1.95802e-05 -9.94912e-06
9.85269e-05 -2.95752e-05 -2.95507e-05 -8.84386e-06
6.60967e-05 -1.98467e-05 -1.98214e-05 -9.94913e-06
6.56942e-05 -1.97256e-05 -1.97008e-05 -9.94912e-06
3.26612e-05 -9.81464e-06 -9.79139e-06 -1.06122e-05
3.22591e-05 -9.69331e-06 -9.67106e-06 -1.06122e-05
9.67151e-05 -2.90307e-05 -2.90076e-05 -8.84384e-06
9.7923e-05 -2.93937e-05 -2.93697e-05 -8.84385e-06
3.24602e-05 -9.75397e-06 -9.73123e-06 -1.06122e-05
6.44868e-05 -1.93624e-05 -1.9339e-05 -9.94911e-06
9.73191e-05 -2.92122e-05 -2.91886e-05 -8.84385e-06
6.52917e-05 -1.96046e-05 -1.95802e-05 -9.94912e-06
6.48892e-05 -1.94835e-05 -1.94596e-05 -9.94911e-06
3.22591e-05 -9.69331e-06 -9.67106e-06 -1.06122e-05
3.1857e-05 -9.57199e-06 -9.55071e-06 -1.06121e-05
9.55073e-05 -2.86677e-05 -2.86455e-05 -8.84383e-06
9.67151e-05 -2.90307e-05 -2.90076e-05 -8.84384e-06
3.2058e-05 -9.63265e-06 -9.61088e-06 -1.06122e-05
6.36818e-05 -1.91202e-05 -1.90978e-05 -9.9491e-06
9.61112e-05 -2.88492e-05 -2.88266e-05 -8.84384e-06
6.44868e-05 -1.93624e-05 -1.9339e-05 -9.94911e-06
6.40843e-05 -1.92413e-05 -1.92184e-05 -9.94911e-06
3.1857e-05 -9.57199e-06 -9.55071e-06 -1.06121e-05
3.14549e-05 -9.45068e-06 -9.43036e-06 -1.06121e-05
9.42994e-05 -2.83047e-05 -2.82834e-05 -8.84382e-06
9.55073e-05 -2.86677e-05 -2.86455e-05 -8.84383e-06
3.16559e-05 -9.51134e-06 -9.49054e-06 -1.06121e-05
6.28768e-05 -1.88781e-05 -1.88566e-05 -9.94909e-06
9.49033e-05 -2.84862e-05 -2.84645e-05 -8.84383e-06
6.36818e-05 -1.91202e-05 -1.90978e-05 -9.9491e-06
6.32793e-05 -1.89991e-05 -1.89772e-05 -9.9491e-06
3.14549e-05 -9.45068e-06 -9.43036e-06 -1.06121e-05
3.10527e-05 -9.32937e-06 -9.31001e-06 -1.06121e-05
9.30915e-05 -2.79417e-05 -2.79213e-05 -8.84381e-06
9.42994e-05 -2.83047e-05 -2.82834e-05 -8.84382e-06
3.12538e-05 -9.39003e-06 -9.37018e-06 -1.06121e-05
6.20718e-05 -1.86359e-05 -1.86154e-05 -9.94909e-06
9.36955e-05 -2.81232e-05 -2.81024e-05 -8.84382e-06
6.28768e-05 -1.88781e-05 -1.88566e-05 -9.94909e-06
6.24743e-05 -1.8757e-05 -1.8736e-05 -9.94909e-06
3.10527e-05 -9.32937e-06 -9.31001e-06 -1.06121e-05
3.06506e-05 -9.20807e-06 -9.18964e-06 -1.06121e-05
9.18836e-05 -2.75788e-05 -2.75592e-05 -8.8438e-06
9.30915e-05 -2.79417e-05 -2.79213e-05 -8.84381e-06
3.08516e-05 -9.26872e-06 -9.24983e-06 -1.06121e-05
6.12668e-05 -1.83937e-05 -1.83742e-05 -9.94908e-06
9.24876e-05 -2.77603e-05 -2.77403e-05 -8.84381e-06
6.20718e-05 -1.86359e-05 -1.86154e-05 -9.94909e-06
6.16693e-05 -1.85148e-05 -1.84948e-05 -9.94908e-06
3.06506e-05 -9.20807e-06 -9.18964e-06 -1.06121e-05
3.02484e-05 -9.08677e-06 -9.06928e-06 -1.06121e-05
9.06757e-05 -2.72158e-05 -2.71971e-05 -8.84379e-06
9.18836e-05 -2.75788e-05 -2.75592e-05 -8.8438e-06
3.04495e-05 -9.14742e-06 -9.12946e-06 -1.06121e-05
6.04618e-05 -1.81516e-05 -1.81329e-05 -9.94907e-06
9.12797e-05 -2.73973e-05 -2.73782e-05 -8.8438e-06
6.12668e-05 -1.83937e-05 -1.83742e-05 -9.94908e-06
6.08643e-05 -1.82727e-05 -1.82535e-05 -9.94907e-06
3.02484e-05 -9.08677e-06 -9.06928e-06 -1.06121e-05
2.98463e-05 -8.96548e-06 -8.9489e-06 -1.06121e-05
8.94678e-05 -2.68528e-05 -2.6835e-05 -8.84379e-06
9.06757e-05 -2.72158e-05 -2.71971e-05 -8.84379e-06
3.00473e-05 -9.02613e-06 -9.00909e-06 -1.06121e-05
5.96567e-05 -1.79094e-05 -1.78917e-05 -9.94906e-06
9.00718e-05 -2.70343e-05 -2.70161e-05 -8.84379e-06
6.04618e-05 -1.81516e-05 -1.81329e-05 -9.94907e-06
6.00592e-05 -1.80305e-05 -1.80123e-05 -9.94906e-06
2.98463e-05 -8.96548e-06 -8.9489e-06 -1.06121e-05
2.94441e-05 -8.84419e-06 -8.82852e-06 -1.06121e-05
8.82599e-05 -2.64898e-05 -2.64729e-05 -8.84378e-06
8.94678e-05 -2.68528e-05 -2.6835e-05 -8.84379e-06
2.96452e-05 -8.90484e-06 -8.88871e-06 -1.06121e-05
5.88517e-05 -1.76673e-05 -1.76505e-05 -9.94905e-06
8.88639e-05 -2.66713e-05 -2.6654e-05 -8.84378e-06
5.96567e-05 -1.79094e-05 -1.78917e-05 -9.94906e-06
5.92542e-05 -1.77884e-05 -1.77711e-05 -9.94906e-06
2.94441e-05 -8.84419e-06 -8.82852e-06 -1.06121e-05
2.90419e-05 -8.72291e-06 -8.70814e-06 -1.06121e-05
8.7052e-05 -2.61268e-05 -2.61108e-05 -8.84377e-06
8.82599e-05 -2.64898e-05 -2.64729e-05 -8.84378e-06
2.9243e-05 -8.78355e-06 -8.76833e-06 -1.06121e-05
5.80467e-05 -1.74252e-05 -1.74092e-05 -9.94904e-06
8.7656e-05 -2.63083e-05 -2.62918e-05 -8.84377e-06
5.88517e-05 -1.76673e-05 -1.76505e-05 -9.94905e-06
5.84492e-05 -1.75462e-05 -1.75298e-05 -9.94905e-06
2.90419e-05 -8.72291e-06 -8.70814e-06 -1.06121e-05
2.86397e-05 -8.60164e-06 -8.58775e-06 -1.06121e-05
8.58441e-05 -2.57639e-05 -2.57487e-05 -8.84376e-06
8.7052e-05 -2.61268e-05 -2.61108e-05 -8.84377e-06
2.88408e-05 -8.66227e-06 -8.64794e-06 -1.06121e-05
5.72416e-05 -1.7183e-05 -1.7168e-05 -9.94904e-06
8.64481e-05 -2.59454e-05 -2.59297e-05 -8.84376e-06
5.80467e-05 -1.74252e-05 -1.74092e-05 -9.94904e-06
5.76441e-05 -1.73041e-05 -1.72886e-05 -9.94904e-06
2.86397e-05 -8.60164e-06 -8.58775e-06 -1.06121e-05
2.82375e-05 -8.48037e-06 -8.46735e-06 -1.06121e-05
8.46362e-05 -2.54009e-05 -2.53865e-05 -8.84375e-06
8.58441e-05 -2.57639e-05 -2.57487e-05 -8.84376e-06
2.84386e-05 -8.541e-06 -8.52755e-06 -1.06121e-05
5.64366e-05 -1.69409e-05 -1.69267e-05 -9.94903e-06
8.52401e-05 -2.55824e-05 -2.55676e-05 -8.84375e-06
5.72416e-05 -1.7183e-05 -1.7168e-05 -9.94904e-06
5.68391e-05 -1.7062e-05 -1.70473e-05 -9.94903e-06
2.82375e-05 -8.48037e-06 -8.46735e-06 -1.06121e-05
2.78353e-05 -8.3591e-06 -8.34694e-06 -1.06121e-05
8.34282e-05 -2.5038e-05 -2.50244e-05 -8.84374e-06
8.46362e-05 -2.54009e-05 -2.53865e-05 -8.84375e-06
2.80364e-05 -8.41973e-06 -8.40715e-06 -1.06121e-05
5.56315e-05 -1.66988e-05 -1.66854e-05 -9.94902e-06
8.40322e-05 -2.52194e-05 -2.52055e-05 -8.84374e-06
5.64366e-05 -1.69409e-05 -1.69267e-05 -9.94903e-06
5.6034e-05 -1.68199e-05 -1.68061e-05 -9.94902e-06
2.78353e-05 -8.3591e-06 -8.34694e-06 -1.06121e-05
2.74331e-05 -8.23784e-06 -8.22653e-06 -1.06121e-05
8.22203e-05 -2.4675e-05 -2.46623e-05 -8.84373e-06
8.34282e-05 -2.5038e-05 -2.50244e-05 -8.84374e-06
2.76342e-05 -8.29847e-06 -8.28674e-06 -1.06121e-05
5.48264e-05 -1.64567e-05 -1.64442e-05 -9.94901e-06
8.28243e-05 -2.48565e-05 -2.48433e-05 -8.84373e-06
5.56315e-05 -1.66988e-05 -1.66854e-05 -9.94902e-06
5.5229e-05 -1.65777e-05 -1.65648e-05 -9.94902e-06
2.74331e-05 -8.23784e-06 -8.22653e-06 -1.06121e-05
2.70309e-05 -8.11659e-06 -8.10612e-06 -1.06121e-05
8.10123e-05 -2.43121e-05 -2.43001e-05 -8.84372e-06
8.22203e-05 -2.4675e-05 -2.46623e-05 -8.84373e-06
2.7232e-05 -8.17721e-06 -8.16633e-06 -1.06121e-05
5.40213e-05 -1.62146e-05 -1.62029e-05 -9.949e-06
8.16163e-05 -2.44935e-05 -2.44812e-05 -8.84372e-06
5.48264e-05 -1.64567e-05 -1.64442e-05 -9.94901e-06
5.44239e-05 -1.63356e-05 -1.63235e-05 -9.94901e-06
2.70309e-05 -8.11659e-06 -8.10612e-06 -1.06121e-05
2.66286e-05 -7.99534e-06 -7.9857e-06 -1.06121e-05
7.98044e-05 -2.39491e-05 -2.3938e-05 -8.84371e-06
8.10123e-05 -2.43121e-05 -2.43001e-05 -8.84372e-06
2.68297e-05 -8.05596e-06 -8.04591e-06 -1.06121e-05
5.32162e-05 -1.59725e-05 -1.59616e-05 -9.949e-06
8.04083e-05 -2.41306e-05 -2.4119e-05 -8.84371e-06
5.40213e-05 -1.62146e-05 -1.62029e-05 -9.949e-06
5.36188e-05 -1.60935e-05 -1.60823e-05 -9.949e-06
2.66286e-05 -7.99534e-06 -7.9857e-06 -1.06121e-05
2.62264e-05 -7.87409e-06 -7.86527e-06 -1.06121e-05
7.85964e-05 -2.35862e-05 -2.35758e-05 -8.8437e-06
7.98044e-05 -2.39491e-05 -2.3938e-05 -8.84371e-06
2.64275e-05 -7.93472e-06 -7.92548e-06 -1.06121e-05
5.24111e-05 -1.57304e-05 -1.57203e-05 -9.94899e-06
7.92004e-05 -2.37676e-05 -2.37569e-05 -8.8437e-06
5.32162e-05 -1.59725e-05 -1.59616e-05 -9.949e-06
5.28137e-05 -1.58514e-05 -1.5841e-05 -9.94899e-06
2.62264e-05 -7.87409e-06 -7.86527e-06 -1.06121e-05
2.58241e-05 -7.75286e-06 -7.74484e-06 -1.06121e-05
7.73884e-05 -2.32232e-05 -2.32136e-05 -8.84369e-06
7.85964e-05 -2.35862e-05 -2.35758e-05 -8.8437e-06
2.60253e-05 -7.81347e-06 -7.80505e-06 -1.06121e-05
5.1606e-05 -1.54883e-05 -1.5479e-05 -9.94898e-06
7.79924e-05 -2.34047e-05 -2.33947e-05 -8.84369e-06
5.24111e-05 -1.57304e-05 -1.57203e-05 -9.94899e-06
5.20086e-05 -1.56093e-05 -1.55997e-05 -9.94898e-06
2.58241e-05 -7.75286e-06 -7.74484e-06 -1.06121e-05
2.54219e-05 -7.63162e-06 -7.6244e-06 -1.06121e-05
7.61804e-05 -2.28603e-05 -2.28515e-05 -8.84368e-06
7.73884e-05 -2.32232e-05 -2.32136e-05 -8.84369e-06
2.5623e-05 -7.69224e-06 -7.68462e-06 -1.06121e-05
5.08009e-05 -1.52462e-05 -1.52377e-05 -9.94897e-06
7.67844e-05 -2.30418e-05 -2.30326e-05 -8.84369e-06
5.1606e-05 -1.54883e-05 -1.5479e-05 -9.94898e-06
5.12035e-05 -1.53672e-05 -1.53584e-05 -9.94898e-06
2.54219e-05 -7.63162e-06 -7.6244e-06 -1.06121e-05
2.50196e-05 -7.51039e-06 -7.50395e-06 -1.06121e-05
7.49724e-05 -2.24974e-05 -2.24893e-05 -8.84367e-06
7.61804e-05 -2.28603e-05 -2.28515e-05 -8.84368e-06
2.52207e-05 -7.57101e-06 -7.56417e-06 -1.06121e-05
4.99958e-05 -1.50041e-05 -1.49964e-05 -9.94896e-06
7.55764e-05 -2.26788e-05 -2.26704e-05 -8.84368e-06
5.08009e-05 -1.52462e-05 -1.52377e-05 -9.94897e-06
5.03984e-05 -1.51251e-05 -1.51171e-05 -9.94897e-06
2.50196e-05 -7.51039e-06 -7.50395e-06 -1.06121e-05
2.46173e-05 -7.38917e-06 -7.3835e-06 -1.0612e-05
7.37644e-05 -2.21345e-05 -2.21271e-05 -8.84366e-06
7.49724e-05 -2.24974e-05 -2.24893e-05 -8.84367e-06
2.48185e-05 -7.44978e-06 -7.44373e-06 -1.0612e-05
4.91907e-05 -1.4762e-05 -1.47551e-05 -9.94896e-06
7.43684e-05 -2.23159e-05 -2.23082e-05 -8.84367e-06
4.99958e-05 -1.50041e-05 -1.49964e-05 -9.94896e-06
4.95932e-05 -1.48831e-05 -1.48758e-05 -9.94896e-06
2.46173e-05 -7.38917e-06 -7.3835e-06 -1.0612e-05
2.42151e-05 -7.26796e-06 -7.26304e-06 -1.0612e-05
7.25564e-05 -2.17715e-05 -2.1765e-05 -8.84365e-06
7.37644e-05 -2.21345e-05 -2.21271e-05 -8.84366e-06
2.44162e-05 -7.32856e-06 -7.32327e-06 -1.0612e-05
4.83855e-05 -1.452e-05 -1.45138e-05 -9.94895e-06
7.31604e-05 -2.1953e-05 -2.1946e-05 -8.84366e-06
4.91907e-05 -1.4762e-05 -1.47551e-05 -9.94896e-06
4.87881e-05 -1.4641e-05 -1.46345e-05 -9.94895e-06
2.42151e-05 -7.26796e-06 -7.26304e-06 -1.0612e-05
2.38128e-05 -7.14674e-06 -7.14258e-06 -1.0612e-05
7.13484e-05 -2.14086e-05 -2.14028e-05 -8.84364e-06
7.25564e-05 -2.17715e-05 -2.1765e-05 -8.84365e-06
2.40139e-05 -7.20735e-06 -7.20281e-06 -1.0612e-05
4.75804e-05 -1.42779e-05 -1.42725e-05 -9.94894e-06
7.19524e-05 -2.15901e-05 -2.15839e-05 -8.84365e-06
4.83855e-05 -1.452e-05 -1.45138e-05 -9.94895e-06
4.7983e-05 -1.43989e-05 -1.43932e-05 -9.94894e-06
2.38128e-05 -7.14674e-06 -7.14258e-06 -1.0612e-05
2.34105e-05 -7.02554e-06 -7.02211e-06 -1.0612e-05
7.01404e-05 -2.10457e-05 -2.10406e-05 -8.84363e-06
7.13484e-05 -2.14086e-05 -2.14028e-05 -8.84364e-06
2.36116e-05 -7.08614e-06 -7.08234e-06 -1.0612e-05
4.67752e-05 -1.40358e-05 -1.40312e-05 -9.94893e-06
7.07444e-05 -2.12272e-05 -2.12217e-05 -8.84364e-06
4.75804e-05 -1.42779e-05 -1.42725e-05 -9.94894e-06
4.71778e-05 -1.41569e-05 -1.41518e-05 -9.94894e-06
2.34105e-05 -7.02554e-06 -7.02211e-06 -1.0612e-05
2.30081e-05 -6.90434e-06 -6.90163e-06 -1.0612e-05
6.89324e-05 -2.06828e-05 -2.06784e-05 -8.84362e-06
7.01404e-05 -2.10457e-05 -2.10406e-05 -8.84363e-06
2.32093e-05 -6.96494e-06 -6.96187e-06 -1.0612e-05
4.59701e-05 -1.37938e-05 -1.37898e-05 -9.94893e-06
6.95364e-05 -2.08643e-05 -2.08595e-05 -8.84363e-06
4.67752e-05 -1.40358e-05 -1.40312e-05 -9.94893e-06
4.63727e-05 -1.39148e-05 -1.39105e-05 -9.94893e-06
2.30081e-05 -6.90434e-06 -6.90163e-06 -1.0612e-05
2.26058e-05 -6.78314e-06 -6.78115e-06 -1.0612e-05
6.77243e-05 -2.03199e-05 -2.03162e-05 -8.84362e-06
6.89324e-05 -2.06828e-05 -2.06784e-05 -8.84362e-06
2.2807e-05 -6.84374e-06 -6.84139e-06 -1.0612e-05
4.51649e-05 -1.35517e-05 -1.35485e-05 -9.94892e-06
6.83284e-05 -2.05014e-05 -2.04973e-05 -8.84362e-06
4.59701e-05 -1.37938e-05 -1.37898e-05 -9.94893e-06
4.55675e-05 -1.36727e-05 -1.36692e-05 -9.94892e-06
2.26058e-05 -6.78314e-06 -6.78115e-06 -1.0612e-05
2.22035e-05 -6.66195e-06 -6.66066e-06 -1.0612e-05
6.65163e-05 -1.9957e-05 -1.9954e-05 -8.84361e-06
6.77243e-05 -2.03199e-05 -2.03162e-05 -8.84362e-06
2.24047e-05 -6.72255e-06 -6.7209e-06 -1.0612e-05
4.43597e-05 -1.33097e-05 -1.33072e-05 -9.94891e-06
6.71203e-05 -2.01385e-05 -2.01351e-05 -8.84361e-06
4.51649e-05 -1.35517e-05 -1.35485e-05 -9.94892e-06
4.47623e-05 -1.34307e-05 -1.34278e-05 -9.94891e-06
2.22035e-05 -6.66195e-06 -6.66066e-06 -1.0612e-05
2.18012e-05 -6.54077e-06 -6.54017e-06 -1.0612e-05
6.53082e-05 -1.95941e-05 -1.95918e-05 -8.8436e-06
6.65163e-05 -1.9957e-05 -1.9954e-05 -8.84361e-06
2.20023e-05 -6.60136e-06 -6.60041e-06 -1.0612e-05
4.35545e-05 -1.30676e-05 -1.30658e-05 -9.9489e-06
6.59123e-05 -1.97756e-05 -1.97729e-05 -8.8436e-06
4.43597e-05 -1.33097e-05 -1.33072e-05 -9.94891e-06
4.39571e-05 -1.31886e-05 -1.31865e-05 -9.94891e-06
2.18012e-05 -6.54077e-06 -6.54017e-06 -1.0612e-05
2.13988e-05 -6.41959e-06 -6.41966e-06 -1.0612e-05
6.41002e-05 -1.92313e-05 -1.92295e-05 -8.84359e-06
6.53082e-05 -1.95941e-05 -1.95918e-05 -8.8436e-06
2.16e-05 -6.48018e-06 -6.47992e-06 -1.0612e-05
4.27493e-05 -1.28256e-05 -1.28245e-05 -9.9489e-06
6.47042e-05 -1.94127e-05 -1.94106e-05 -8.84359e-06
4.35545e-05 -1.30676e-05 -1.30658e-05 -9.9489e-06
4.31519e-05 -1.29466e-05 -1.29451e-05 -9.9489e-06
2.13988e-05 -6.41959e-06 -6.41966e-06 -1.0612e-05
2.09965e-05 -6.29842e-06 -6.29916e-06 -1.0612e-05
6.28921e-05 -1.88684e-05 -1.88673e-05 -8.84358e-06
6.41002e-05 -1.92313e-05 -1.92295e-05 -8.84359e-06
2.11976e-05 -6.359e-06 -6.35941e-06 -1.0612e-05
4.19441e-05 -1.25836e-05 -1.25831e-05 -9.94889e-06
6.34961e-05 -1.90498e-05 -1.90484e-05 -8.84358e-06
4.27493e-05 -1.28256e-05 -1.28245e-05 -9.9489e-06
4.23467e-05 -1.27046e-05 -1.27038e-05 -9.94889e-06
2.09965e-05 -6.29842e-06 -6.29916e-06 -1.0612e-05
2.05941e-05 -6.17725e-06 -6.17864e-06 -1.0612e-05
6.1684e-05 -1.85055e-05 -1.85051e-05 -8.84357e-06
6.28921e-05 -1.88684e-05 -1.88673e-05 -8.84358e-06
2.07953e-05 -6.23783e-06 -6.2389e-06 -1.0612e-05
4.11389e-05 -1.23415e-05 -1.23417e-05 -9.94888e-06
6.22881e-05 -1.86869e-05 -1.86862e-05 -8.84357e-06
4.19441e-05 -1.25836e-05 -1.25831e-05 -9.94889e-06
4.15415e-05 -1.24625e-05 -1.24624e-05 -9.94888e-06
2.05941e-05 -6.17725e-06 -6.17864e-06 -1.0612e-05
2.01917e-05 -6.05609e-06 -6.05813e-06 -1.0612e-05
6.04759e-05 -1.81426e-05 -1.81428e-05 -8.84356e-06
6.1684e-05 -1.85055e-05 -1.85051e-05 -8.84357e-06
2.03929e-05 -6.11667e-06 -6.11839e-06 -1.0612e-05
4.03337e-05 -1.20995e-05 -1.21004e-05 -9.94887e-06
6.108e-05 -1.83241e-05 -1.8324e-05 -8.84357e-06
4.11389e-05 -1.23415e-05 -1.23417e-05 -9.94888e-06
4.07363e-05 -1.22205e-05 -1.2221e-05 -9.94888e-06
2.01917e-05 -6.05609e-06 -6.05813e-06 -1.0612e-05
1.97893e-05 -5.93493e-06 -5.9376e-06 -1.0612e-05
5.92679e-05 -1.77798e-05 -1.77806e-05 -8.84355e-06
6.04759e-05 -1.81426e-05 -1.81428e-05 -8.84356e-06
1.99905e-05 -5.99551e-06 -5.99786e-06 -1.0612e-05
3.95285e-05 -1.18575e-05 -1.1859e-05 -9.94887e-06
5.98719e-05 -1.79612e-05 -1.79617e-05 -8.84356e-06
4.03337e-05 -1.20995e-05 -1.21004e-05 -9.94887e-06
3.99311e-05 -1.19785e-05 -1.19797e-05 -9.94887e-06
1.97893e-05 -5.93493e-06 -5.9376e-06 -1.0612e-05
1.93869e-05 -5.81378e-06 -5.81707e-06 -1.0612e-05
5.80598e-05 -1.74169e-05 -1.74184e-05 -8.84354e-06
5.92679e-05 -1.77798e-05 -1.77806e-05 -8.84355e-06
1.95881e-05 -5.87436e-06 -5.87734e-06 -1.0612e-05
3.87232e-05 -1.16155e-05 -1.16176e-05 -9.94886e-06
5.86638e-05 -1.75983e-05 -1.75995e-05 -8.84355e-06
3.95285e-05 -1.18575e-05 -1.1859e-05 -9.94887e-06
3.91258e-05 -1.17365e-05 -1.17383e-05 -9.94886e-06
1.93869e-05 -5.81378e-06 -5.81707e-06 -1.0612e-05
1.89845e-05 -5.69264e-06 -5.69653e-06 -1.0612e-05
5.68517e-05 -1.70541e-05 -1.70561e-05 -8.84353e-06
5.80598e-05 -1.74169e-05 -1.74184e-05 -8.84354e-06
1.91857e-05 -5.75321e-06 -5.7568e-06 -1.0612e-05
3.7918e-05 -1.13735e-05 -1.13762e-05 -9.94885e-06
5.74557e-05 -1.72355e-05 -1.72372e-05 -8.84354e-06
3.87232e-05 -1.16155e-05 -1.16176e-05 -9.94886e-06
3.83206e-05 -1.14945e-05 -1.14969e-05 -9.94885e-06
1.89845e-05 -5.69264e-06 -5.69653e-06 -1.0612e-05
1.85821e-05 -5.5715e-06 -5.57599e-06 -1.0612e-05
5.56435e-05 -1.66912e-05 -1.66939e-05 -8.84353e-06
5.68517e-05 -1.70541e-05 -1.70561e-05 -8.84353e-06
1.87833e-05 -5.63206e-06 -5.63626e-06 -1.0612e-05
3.71127e-05 -1.11315e-05 -1.11348e-05 -9.94884e-06
5.62476e-05 -1.68726e-05 -1.6875e-05 -8.84353e-06
3.7918e-05 -1.13735e-05 -1.13762e-05 -9.94885e-06
3.75153e-05 -1.12525e-05 -1.12555e-05 -9.94885e-06
1.85821e-05 -5.5715e-06 -5.57599e-06 -1.0612e-05
1.81797e-05 -5.45036e-06 -5.45544e-06 -1.0612e-05
5.44354e-05 -1.63284e-05 -1.63316e-05 -8.84352e-06
5.56435e-05 -1.66912e-05 -1.66939e-05 -8.84353e-06
1.83809e-05 -5.51093e-06 -5.51571e-06 -1.0612e-05
3.63074e-05 -1.08895e-05 -1.08934e-05 -9.94884e-06
5.50395e-05 -1.65098e-05 -1.65127e-05 -8.84352e-06
3.71127e-05 -1.11315e-05 -1.11348e-05 -9.94884e-06
3.67101e-05 -1.10105e-05 -1.10141e-05 -9.94884e-06
1.81797e-05 -5.45036e-06 -5.45544e-06 -1.0612e-05
1.77773e-05 -5.32923e-06 -5.33488e-06 -1.0612e-05
5.32273e-05 -1.59655e-05 -1.59693e-05 -8.84351e-06
5.44354e-05 -1.63284e-05 -1.63316e-05 -8.84352e-06
1.79785e-05 -5.3898e-06 -5.39516e-06 -1.0612e-05
3.55022e-05 -1.06475e-05 -1.0652e-05 -9.94883e-06
5.38313e-05 -1.61469e-05 -1.61505e-05 -8.84351e-06
3.63074e-05 -1.08895e-05 -1.08934e-05 -9.94884e-06
3.59048e-05 -1.07685e-05 -1.07727e-05 -9.94883e-06
1.77773e-05 -5.32923e-06 -5.33488e-06 -1.0612e-05
1.73749e-05 -5.20811e-06 -5.21432e-06 -1.0612e-05
5.20191e-05 -1.56027e-05 -1.56071e-05 -8.8435e-06
5.32273e-05 -1.59655e-05 -1.59693e-05 -8.84351e-06
1.75761e-05 -5.26867e-06 -5.2746e-06 -1.0612e-05
3.46969e-05 -1.04055e-05 -1.04106e-05 -9.94882e-06
5.26232e-05 -1.57841e-05 -1.57882e-05 -8.8435e-06
3.55022e-05 -1.06475e-05 -1.0652e-05 -9.94883e-06
3.50995e-05 -1.05265e-05 -1.05313e-05 -9.94883e-06
1.73749e-05 -5.20811e-06 -5.21432e-06 -1.0612e-05
1.69724e-05 -5.08699e-06 -5.09375e-06 -1.06119e-05
5.0811e-05 -1.52398e-05 -1.52448e-05 -8.84349e-06
5.20191e-05 -1.56027e-05 -1.56071e-05 -8.8435e-06
1.71736e-05 -5.14755e-06 -5.15404e-06 -1.0612e-05
3.38916e-05 -1.01635e-05 -1.01692e-05 -9.94881e-06
5.14151e-05 -1.54213e-05 -1.54259e-05 -8.84349e-06
3.46969e-05 -1.04055e-05 -1.04106e-05 -9.94882e-06
3.42942e-05 -1.02845e-05 -1.02899e-05 -9.94882e-06
1.69724e-05 -5.08699e-06 -5.09375e-06 -1.06119e-05
1.657e-05 -4.96588e-06 -4.97318e-06 -1.06119e-05
4.96028e-05 -1.4877e-05 -1.48825e-05 -8.84348e-06
5.0811e-05 -1.52398e-05 -1.52448e-05 -8.84349e-06
1.67712e-05 -5.02643e-06 -5.03346e-06 -1.06119e-05
3.30863e-05 -9.92154e-06 -9.92775e-06 -9.94881e-06
5.02069e-05 -1.50584e-05 -1.50636e-05 -8.84349e-06
3.38916e-05 -1.01635e-05 -1.01692e-05 -9.94881e-06
3.3489e-05 -1.00425e-05 -1.00485e-05 -9.94881e-06
1.657e-05 -4.96588e-06 -4.97318e-06 -1.06119e-05
1.61675e-05 -4.84477e-06 -4.85259e-06 -1.06119e-05
4.83947e-05 -1.45142e-05 -1.45202e-05 -8.84347e-06
4.96028e-05 -1.4877e-05 -1.48825e-05 -8.84348e-06
1.63687e-05 -4.90533e-06 -4.91289e-06 -1.06119e-05
3.2281e-05 -9.67957e-06 -9.68632e-06 -9.9488e-06
4.89988e-05 -1.46956e-05 -1.47014e-05 -8.84348e-06
3.30863e-05 -9.92154e-06 -9.92775e-06 -9.94881e-06
3.26836e-05 -9.80056e-06 -9.80704e-06 -9.9488e-06
1.61675e-05 -4.84477e-06 -4.85259e-06 -1.06119e-05
1.5765e-05 -4.72367e-06 -4.73201e-06 -1.06119e-05
4.71865e-05 -1.41514e-05 -1.41579e-05 -8.84346e-06
4.83947e-05 -1.45142e-05 -1.45202e-05 -8.84347e-06
1.59663e-05 -4.78422e-06 -4.7923e-06 -1.06119e-05
3.14757e-05 -9.43761e-06 -9.44489e-06 -9.94879e-06
4.77906e-05 -1.43328e-05 -1.43391e-05 -8.84347e-06
3.2281e-05 -9.67957e-06 -9.68632e-06 -9.9488e-06
3.18783e-05 -9.55859e-06 -9.56561e-06 -9.9488e-06
1.5765e-05 -4.72367e-06 -4.73201e-06 -1.06119e-05
1.53625e-05 -4.60258e-06 -4.61141e-06 -1.06119e-05
4.59783e-05 -1.37886e-05 -1.37956e-05 -8.84346e-06
4.71865e-05 -1.41514e-05 -1.41579e-05 -8.84346e-06
1.55638e-05 -4.66312e-06 -4.67171e-06 -1.06119e-05
3.06704e-05 -9.19565e-06 -9.20344e-06 -9.94879e-06
4.65824e-05 -1.397e-05 -1.39768e-05 -8.84346e-06
3.14757e-05 -9.43761e-06 -9.44489e-06 -9.94879e-06
3.1073e-05 -9.31663e-06 -9.32417e-06 -9.94879e-06
1.53625e-05 -4.60258e-06 -4.61141e-06 -1.06119e-05
1.49601e-05 -4.48149e-06 -4.49081e-06 -1.06119e-05
4.47701e-05 -1.34257e-05 -1.34333e-05 -8.84345e-06
4.59783e-05 -1.37886e-05 -1.37956e-05 -8.84346e-06
1.51613e-05 -4.54203e-06 -4.55111e-06 -1.06119e-05
2.9865e-05 -8.9537e-06 -8.962e-06 -9.94878e-06
4.53742e-05 -1.36072e-05 -1.36145e-05 -8.84345e-06
3.06704e-05 -9.19565e-06 -9.20344e-06 -9.94879e-06
3.02677e-05 -9.07467e-06 -9.08272e-06 -9.94878e-06
1.49601e-05 -4.48149e-06 -4.49081e-06 -1.06119e-05
1.45576e-05 -4.3604e-06 -4.37021e-06 -1.06119e-05
4.3562e-05 -1.30629e-05 -1.3071e-05 -8.84344e-06
4.47701e-05 -1.34257e-05 -1.34333e-05 -8.84345e-06
1.47588e-05 -4.42094e-06 -4.43051e-06 -1.06119e-05
2.90597e-05 -8.71175e-06 -8.72054e-06 -9.94877e-06
4.41661e-05 -1.32443e-05 -1.32522e-05 -8.84344e-06
2.9865e-05 -8.9537e-06 -8.962e-06 -9.94878e-06
2.94623e-05 -8.83272e-06 -8.84127e-06 -9.94878e-06
1.45576e-05 -4.3604e-06 -4.37021e-06 -1.06119e-05
1.4155e-05 -4.23933e-06 -4.24959e-06 -1.06119e-05
4.23538e-05 -1.27001e-05 -1.27087e-05 -8.84343e-06
4.3562e-05 -1.30629e-05 -1.3071e-05 -8.84344e-06
1.43563e-05 -4.29986e-06 -4.3099e-06 -1.06119e-05
2.82543e-05 -8.4698e-06 -8.47908e-06 -9.94877e-06
4.29579e-05 -1.28815e-05 -1.28898e-05 -8.84343e-06
2.90597e-05 -8.71175e-06 -8.72054e-06 -9.94877e-06
2.8657e-05 -8.59077e-06 -8.59981e-06 -9.94877e-06
1.4155e-05 -4.23933e-06 -4.24959e-06 -1.06119e-05
1.37525e-05 -4.11825e-06 -4.12898e-06 -1.06119e-05
4.11455e-05 -1.23373e-05 -1.23464e-05 -8.84342e-06
4.23538e-05 -1.27001e-05 -1.27087e-05 -8.84343e-06
1.39538e-05 -4.17879e-06 -4.18929e-06 -1.06119e-05
2.7449e-05 -8.22787e-06 -8.23761e-06 -9.94876e-06
4.17496e-05 -1.25187e-05 -1.25275e-05 -8.84343e-06
2.82543e-05 -8.4698e-06 -8.47908e-06 -9.94877e-06
2.78516e-05 -8.34883e-06 -8.35835e-06 -9.94876e-06
1.37525e-05 -4.11825e-06 -4.12898e-06 -1.06119e-05
1.335e-05 -3.99719e-06 -4.00835e-06 -1.06119e-05
3.99373e-05 -1.19746e-05 -1.1984e-05 -8.84341e-06
4.11455e-05 -1.23373e-05 -1.23464e-05 -8.84342e-06
1.35513e-05 -4.05772e-06 -4.06866e-06 -1.06119e-05
2.66436e-05 -7.98593e-06 -7.99614e-06 -9.94875e-06
4.05414e-05 -1.2156e-05 -1.21652e-05 -8.84342e-06
2.7449e-05 -8.22787e-06 -8.23761e-06 -9.94876e-06
2.70463e-05 -8.1069e-06 -8.11688e-06 -9.94876e-06
1.335e-05 -3.99719e-06 -4.00835e-06 -1.06119e-05
1.29475e-05 -3.87612e-06 -3.88772e-06 -1.06119e-05
3.87291e-05 -1.16118e-05 -1.16217e-05 -8.84341e-06
3.99373e-05 -1.19746e-05 -1.1984e-05 -8.84341e-06
1.31487e-05 -3.93665e-06 -3.94804e-06 -1.06119e-05
2.58382e-05 -7.74401e-06 -7.75466e-06 -9.94875e-06
3.93332e-05 -1.17932e-05 -1.18029e-05 -8.84341e-06
2.66436e-05 -7.98593e-06 -7.99614e-06 -9.94875e-06
2.62409e-05 -7.86497e-06 -7.8754e-06 -9.94875e-06
1.29475e-05 -3.87612e-06 -3.88772e-06 -1.06119e-05
1.25449e-05 -3.75507e-06 -3.76708e-06 -1.06119e-05
3.75209e-05 -1.1249e-05 -1.12594e-05 -8.8434e-06
3.87291e-05 -1.16118e-05 -1.16217e-05 -8.84341e-06
1.27462e-05 -3.8156e-06 -3.8274e-06 -1.06119e-05
2.50328e-05 -7.50208e-06 -7.51318e-06 -9.94874e-06
3.8125e-05 -1.14304e-05 -1.14405e-05 -8.8434e-06
2.58382e-05 -7.74401e-06 -7.75466e-06 -9.94875e-06
2.54355e-05 -7.62304e-06 -7.63392e-06 -9.94874e-06
1.25449e-05 -3.75507e-06 -3.76708e-06 -1.06119e-05
1.21424e-05 -3.63402e-06 -3.64644e-06 -1.06119e-05
3.63126e-05 -1.08862e-05 -1.0897e-05 -8.84339e-06
3.75209e-05 -1.1249e-05 -1.12594e-05 -8.8434e-06
1.23437e-05 -3.69454e-06 -3.70676e-06 -1.06119e-05
2.42274e-05 -7.26017e-06 -7.27169e-06 -9.94873e-06
3.69167e-05 -1.10676e-05 -1.10782e-05 -8.84339e-06
2.50328e-05 -7.50208e-06 -7.51318e-06 -9.94874e-06
2.46301e-05 -7.38113e-06 -7.39244e-06 -9.94874e-06
1.21424e-05 -3.63402e-06 -3.64644e-06 -1.06119e-05
1.17398e-05 -3.51298e-06 -3.52579e-06 -1.06119e-05
3.51044e-05 -1.05234e-05 -1.05347e-05 -8.84338e-06
3.63126e-05 -1.08862e-05 -1.0897e-05 -8.84339e-06
1.19411e-05 -3.5735e-06 -3.58611e-06 -1.06119e-05
2.3422e-05 -7.01826e-06 -7.03019e-06 -9.94873e-06
3.57085e-05 -1.07048e-05 -1.07159e-05 -8.84339e-06
2.42274e-05 -7.26017e-06 -7.27169e-06 -9.94873e-06
2.38247e-05 -7.13921e-06 -7.15094e-06 -9.94873e-06
1.17398e-05 -3.51298e-06 -3.52579e-06 -1.06119e-05
1.13372e-05 -3.39194e-06 -3.40513e-06 -1.06119e-05
3.38961e-05 -1.01607e-05 -1.01723e-05 -8.84337e-06
3.51044e-05 -1.05234e-05 -1.05347e-05 -8.84338e-06
1.15385e-05 -3.45246e-06 -3.46546e-06 -1.06119e-05
2.26166e-05 -6.77635e-06 -6.78869e-06 -9.94872e-06
3.45003e-05 -1.03421e-05 -1.03535e-05 -8.84338e-06
2.3422e-05 -7.01826e-06 -7.03019e-06 -9.94873e-06
2.30193e-05 -6.89731e-06 -6.90944e-06 -9.94872e-06
1.13372e-05 -3.39194e-06 -3.40513e-06 -1.06119e-05
1.09347e-05 -3.27091e-06 -3.28447e-06 -1.06119e-05
3.26879e-05 -9.79792e-06 -9.80997e-06 -8.84337e-06
3.38961e-05 -1.01607e-05 -1.01723e-05 -8.84337e-06
1.1136e-05 -3.33142e-06 -3.3448e-06 -1.06119e-05
2.18112e-05 -6.53446e-06 -6.54718e-06 -9.94872e-06
3.3292e-05 -9.9793e-06 -9.99115e-06 -8.84337e-06
2.26166e-05 -6.77635e-06 -6.78869e-06 -9.94872e-06
2.22139e-05 -6.6554e-06 -6.66794e-06 -9.94872e-06
1.09347e-05 -3.27091e-06 -3.28447e-06 -1.06119e-05
1.05321e-05 -3.14988e-06 -3.1638e-06 -1.06119e-05
3.14796e-05 -9.43517e-06 -9.44761e-06 -8.84336e-06
3.26879e-05 -9.79792e-06 -9.80997e-06 -8.84337e-06
1.07334e-05 -3.21039e-06 -3.22414e-06 -1.06119e-05
2.10058e-05 -6.29256e-06 -6.30567e-06 -9.94871e-06
3.20837e-05 -9.61654e-06 -9.62879e-06 -8.84337e-06
2.18112e-05 -6.53446e-06 -6.54718e-06 -9.94872e-06
2.14085e-05 -6.41351e-06 -6.42643e-06 -9.94871e-06
1.05321e-05 -3.14988e-06 -3.1638e-06 -1.06119e-05
1.01295e-05 -3.02887e-06 -3.04312e-06 -1.06119e-05
3.02713e-05 -9.07242e-06 -9.08524e-06 -8.84336e-06
3.14796e-05 -9.43517e-06 -9.44761e-06 -8.84336e-06
1.03308e-05 -3.08937e-06 -3.10346e-06 -1.06119e-05
2.02004e-05 -6.05068e-06 -6.06415e-06 -9.94871e-06
3.08754e-05 -9.25379e-06 -9.26642e-06 -8.84336e-06
2.10058e-05 -6.29256e-06 -6.30567e-06 -9.94871e-06
2.06031e-05 -6.17162e-06 -6.18491e-06 -9.94871e-06
1.01295e-05 -3.02887e-06 -3.04312e-06 -1.06119e-05
9.72689e-06 -2.90786e-06 -2.92244e-06 -1.06119e-05
2.9063e-05 -8.70968e-06 -8.72286e-06 -8.84335e-06
3.02713e-05 -9.07242e-06 -9.08524e-06 -8.84336e-06
9.92819e-06 -2.96836e-06 -2.98279e-06 -1.06119e-05
1.93949e-05 -5.8088e-06 -5.82262e-06 -9.9487e-06
2.96672e-05 -8.89105e-06 -8.90405e-06 -8.84336e-06
2.02004e-05 -6.05068e-06 -6.06415e-06 -9.94871e-06
1.97976e-05 -5.92974e-06 -5.94339e-06 -9.9487e-06
9.72689e-06 -2.90786e-06 -2.92244e-06 -1.06119e-05
9.32429e-06 -2.78685e-06 -2.80176e-06 -1.06119e-05
2.78547e-05 -8.34694e-06 -8.36048e-06 -8.84335e-06
2.9063e-05 -8.70968e-06 -8.72286e-06 -8.84335e-06
9.52559e-06 -2.84735e-06 -2.8621e-06 -1.06119e-05
1.85895e-05 -5.56693e-06 -5.58109e-06 -9.94869e-06
2.84589e-05 -8.52831e-06 -8.54167e-06 -8.84335e-06
1.93949e-05 -5.8088e-06 -5.82262e-06 -9.9487e-06
1.89922e-05 -5.68786e-06 -5.70186e-06 -9.9487e-06
9.32429e-06 -2.78685e-06 -2.80176e-06 -1.06119e-05
8.92168e-06 -2.66586e-06 -2.68106e-06 -1.06119e-05
2.66464e-05 -7.98422e-06 -7.9981e-06 -8.84335e-06
2.78547e-05 -8.34694e-06 -8.36048e-06 -8.84335e-06
9.12298e-06 -2.72635e-06 -2.74141e-06 -1.06119e-05
1.7784e-05 -5.32507e-06 -5.33956e-06 -9.94869e-06
2.72506e-05 -8.16558e-06 -8.17929e-06 -8.84335e-06
1.85895e-05 -5.56693e-06 -5.58109e-06 -9.94869e-06
1.81868e-05 -5.446e-06 -5.46032e-06 -9.94869e-06
8.92168e-06 -2.66586e-06 -2.68106e-06 -1.06119e-05
8.51906e-06 -2.54487e-06 -2.56037e-06 -1.06118e-05
2.54382e-05 -7.62151e-06 -7.63571e-06 -8.84335e-06
2.66464e-05 -7.98422e-06 -7.9981e-06 -8.84335e-06
8.72037e-06 -2.60536e-06 -2.62072e-06 -1.06118e-05
1.69786e-05 -5.08322e-06 -5.09801e-06 -9.94867e-06
2.60423e-05 -7.80286e-06 -7.8169e-06 -8.84335e-06
1.7784e-05 -5.32507e-06 -5.33956e-06 -9.94869e-06
1.73813e-05 -5.20414e-06 -5.21879e-06 -9.94868e-06
8.51906e-06 -2.54487e-06 -2.56037e-06 -1.06118e-05
8.11645e-06 -2.42389e-06 -2.43967e-06 -1.06118e-05
2.42299e-05 -7.25881e-06 -7.27331e-06 -8.84334e-06
2.54382e-05 -7.62151e-06 -7.63571e-06 -8.84335e-06
8.31776e-06 -2.48438e-06 -2.50002e-06 -1.06118e-05
1.61732e-05 -4.84138e-06 -4.85647e-06 -9.94865e-06
2.4834e-05 -7.44016e-06 -7.45451e-06 -8.84335e-06
1.69786e-05 -5.08322e-06 -5.09801e-06 -9.94867e-06
1.65759e-05 -4.9623e-06 -4.97724e-06 -9.94866e-06
8.11645e-06 -2.42389e-06 -2.43967e-06 -1.06118e-05
7.71383e-06 -2.30291e-06 -2.31897e-06 -1.06117e-05
2.30216e-05 -6.89612e-06 -6.91092e-06 -8.84333e-06
2.42299e-05 -7.25881e-06 -7.27331e-06 -8.84334e-06
7.91514e-06 -2.3634e-06 -2.37932e-06 -1.06118e-05
1.53677e-05 -4.59955e-06 -4.61493e-06 -9.94862e-06
2.36257e-05 -7.07746e-06 -7.09212e-06 -8.84334e-06
1.61732e-05 -4.84138e-06 -4.85647e-06 -9.94865e-06
1.57704e-05 -4.72047e-06 -4.7357e-06 -9.94864e-06
7.71383e-06 -2.30291e-06 -2.31897e-06 -1.06117e-05
7.31121e-06 -2.18193e-06 -2.19827e-06 -1.06117e-05
2.18134e-05 -6.53343e-06 -6.54854e-06 -8.84331e-06
2.30216e-05 -6.89612e-06 -6.91092e-06 -8.84333e-06
7.51253e-06 -2.24242e-06 -2.25862e-06 -1.06117e-05
1.45623e-05 -4.35771e-06 -4.37339e-06 -9.94856e-06
2.24175e-05 -6.71478e-06 -6.72973e-06 -8.84333e-06
1.53677e-05 -4.59955e-06 -4.61493e-06 -9.94862e-06
1.4965e-05 -4.47864e-06 -4.49416e-06 -9.94859e-06
7.31121e-06 -2.18193e-06 -2.19827e-06 -1.06117e-05
6.90858e-06 -2.0609e-06 -2.07758e-06 -1.06116e-05
2.06051e-05 -6.1707e-06 -6.18618e-06 -8.84326e-06
2.18134e-05 -6.53343e-06 -6.54854e-06 -8.84331e-06
7.1099e-06 -2.12142e-06 -2.13792e-06 -1.06116e-05
1.37569e-05 -4.11582e-06 -4.13188e-06 -9.94849e-06
2.12092e-05 -6.35208e-06 -6.36736e-06 -8.84329e-06
1.45623e-05 -4.35771e-06 -4.37339e-06 -9.94856e-06
1.41596e-05 -4.23678e-06 -4.25263e-06 -9.94853e-06
6.90858e-06 -2.0609e-06 -2.07758e-06 -1.06116e-05
6.50586e-06 -1.93977e-06 -1.9569e-06 -1.06116e-05
1.93968e-05 -5.80784e-06 -5.82386e-06 -8.84315e-06
2.06051e-05 -6.1707e-06 -6.18618e-06 -8.84326e-06
6.70724e-06 -2.00035e-06 -2.01724e-06 -1.06116e-05
1.29514e-05 -3.87378e-06 -3.89039e-06 -9.94842e-06
2.0001e-05 -5.9893e-06 -6.00501e-06 -8.84322e-06
1.37569e-05 -4.11582e-06 -4.13188e-06 -9.94849e-06
1.33541e-05 -3.99483e-06 -4.01113e-06 -9.94846e-06
6.50586e-06 -1.93977e-06 -1.9569e-06 -1.06116e-05
6.10299e-06 -1.81839e-06 -1.83626e-06 -1.06118e-05
1.81884e-05 -5.44463e-06 -5.46161e-06 -8.84294e-06
1.93968e-05 -5.80784e-06 -5.82386e-06 -8.84315e-06
6.30445e-06 -1.87912e-06 -1.89657e-06 -1.06117e-05
1.21456e-05 -3.63137e-06 -3.64897e-06 -9.94841e-06
1.87927e-05 -5.6263e-06 -5.64272e-06 -8.84306e-06
1.29514e-05 -3.87378e-06 -3.89039e-06 -9.94842e-06
1.25485e-05 -3.75265e-06 -3.76967e-06 -9.9484e-06
6.10299e-06 -1.81839e-06 -1.83626e-06 -1.06118e-05
5.69964e-06 -1.69648e-06 -1.71564e-06 -1.06126e-05
1.69794e-05 -5.0806e-06 -5.0995e-06 -8.84252e-06
1.81884e-05 -5.44463e-06 -5.46161e-06 -8.84294e-06
5.90142e-06 -1.75753e-06 -1.77595e-06 -1.06121e-05
1.13393e-05 -3.38813e-06 -3.40765e-06 -9.94861e-06
1.7584e-05 -5.26276e-06 -5.28052e-06 -8.84276e-06
1.21456e-05 -3.63137e-06 -3.64897e-06 -9.94841e-06
1.17426e-05 -3.5099e-06 -3.52829e-06 -9.94847e-06
5.69964e-06 -1.69648e-06 -1.71564e-06 -1.06126e-05
5.29545e-06 -1.57348e-06 -1.59513e-06 -1.06147e-05
1.57691e-05 -4.71482e-06 -4.73755e-06 -8.84179e-06
1.69794e-05 -5.0806e-06 -5.0995e-06 -8.84252e-06
5.49766e-06 -1.63516e-06 -1.65536e-06 -1.06134e-05
1.05316e-05 -3.14315e-06 -3.16647e-06 -9.94939e-06
1.63745e-05 -4.89802e-06 -4.91851e-06 -8.8422e-06
1.13393e-05 -3.38813e-06 -3.40765e-06 -9.94861e-06
1.09357e-05 -3.26594e-06 -3.28704e-06 -9.94888e-06
5.29545e-06 -1.57348e-06 -1.59513e-06 -1.06147e-05
4.88909e-06 -1.44843e-06 -1.47457e-06 -1.06198e-05
1.45561e-05 -4.3455e-06 -4.37596e-06 -8.84045e-06
1.57691e-05 -4.71482e-06 -4.73755e-06 -8.84179e-06
5.09269e-06 -1.51132e-06 -1.53488e-06 -1.06168e-05
9.72086e-06 -2.89479e-06 -2.92546e-06 -9.95152e-06
1.5163e-05 -4.53075e-06 -4.55667e-06 -8.84123e-06
1.05316e-05 -3.14315e-06 -3.16647e-06 -9.94939e-06
1.01267e-05 -3.01956e-06 -3.04593e-06 -9.95025e-06
4.88909e-06 -1.44843e-06 -1.47457e-06 -1.06198e-05
4.47927e-06 -1.3195e-06 -1.35419e-06 -1.06306e-05
1.33366e-05 -3.96952e-06 -4.01446e-06 -8.83839e-06
1.45561e-05 -4.3455e-06 -4.37596e-06 -8.84045e-06
4.68461e-06 -1.38457e-06 -1.41431e-06 -1.06242e-05
8.90408e-06 -2.64001e-06 -2.6846e-06 -9.9565e-06
1.39475e-05 -4.15865e-06 -4.19524e-06 -8.8395e-06
9.72086e-06 -2.89479e-06 -2.92546e-06 -9.95152e-06
9.31348e-06 -2.76843e-06 -2.80502e-06 -9.95345e-06
4.47927e-06 -1.3195e-06 -1.35419e-06 -1.06306e-05
4.06146e-06 -1.18406e-06 -1.23317e-06 -1.06525e-05
1.21061e-05 -3.58129e-06 -3.65349e-06 -8.83493e-06
1.33366e-05 -3.96952e-06 -4.01446e-06 -8.83839e-06
4.27192e-06 -1.25289e-06 -1.29387e-06 -1.06397e-05
8.07577e-06 -2.37414e-06 -2.44355e-06 -9.96723e-06
1.27229e-05 -3.77733e-06 -3.83382e-06 -8.83694e-06
8.90408e-06 -2.64001e-06 -2.6846e-06 -9.9565e-06
8.4918e-06 -2.50894e-06 -2.56408e-06 -9.96106e-06
4.06146e-06 -1.18406e-06 -1.23317e-06 -1.06525e-05
3.6325e-06 -1.03743e-06 -1.11218e-06 -1.06938e-05
1.0852e-05 -3.17277e-06 -3.29109e-06 -8.83085e-06
1.21061e-05 -3.58129e-06 -3.65349e-06 -8.83493e-06
3.84821e-06 -1.1123e-06 -1.17253e-06 -1.06701e-05
7.22645e-06 -2.08933e-06 -2.20162e-06 -9.98867e-06
1.14834e-05 -3.3804e-06 -3.4727e-06 -8.8328e-06
8.07577e-06 -2.37414e-06 -2.44355e-06 -9.96723e-06
7.65448e-06 -2.23452e-06 -2.32284e-06 -9.97586e-06
3.6325e-06 -1.03743e-06 -1.11218e-06 -1.06938e-05
3.17984e-06 -8.75496e-07 -9.87578e-07 -1.07678e-05
9.56218e-06 -2.73098e-06 -2.92765e-06 -8.82547e-06
1.0852e-05 -3.17277e-06 -3.29109e-06 -8.83085e-06
3.41087e-06 -9.59025e-07 -1.05079e-06 -1.07256e-05
6.34216e-06 -1.7772e-06 -1.95641e-06 -1.00292e-05
1.02116e-05 -2.95654e-06 -3.10933e-06 -8.82854e-06
7.22645e-06 -2.08933e-06 -2.20162e-06 -9.98867e-06
6.78967e-06 -1.93763e-06 -2.07945e-06 -1.00065e-05
3.17984e-06 -8.75496e-07 -9.87578e-07 -1.07678e-05
2.70141e-06 -6.91698e-07 -8.61304e-07 -1.08904e-05
8.20333e-06 -2.24508e-06 -2.55353e-06 -8.82641e-06
9.56218e-06 -2.73098e-06 -2.92765e-06 -8.82547e-06
2.94238e-06 -7.85712e-07 -9.24284e-07 -1.08221e-05
5.40206e-06 -1.42675e-06 -1.7037e-06 -1.01017e-05
8.89544e-06 -2.49501e-06 -2.74304e-06 -8.82406e-06
6.34216e-06 -1.7772e-06 -1.95641e-06 -1.00292e-05
5.88069e-06 -1.60637e-06 -1.83185e-06 -1.00591e-05
2.70141e-06 -6.91698e-07 -8.61304e-07 -1.08904e-05
2.17442e-06 -4.95094e-07 -7.19711e-07 -1.10788e-05
6.76094e-06 -1.7034e-06 -2.16752e-06 -8.83854e-06
8.20333e-06 -2.24508e-06 -2.55353e-06 -8.82641e-06
2.4483e-06 -5.95373e-07 -7.94112e-07 -1.09751e-05
4.38942e-06 -1.04628e-06 -1.43277e-06 -1.02227e-05
7.49032e-06 -1.97912e-06 -2.36194e-06 -8.8311e-06
5.40206e-06 -1.42675e-06 -1.7037e-06 -1.01017e-05
4.9053e-06 -1.24023e-06 -1.57074e-06 -1.01575e-05
2.17442e-06 -4.95094e-07 -7.19711e-07 -1.10788e-05
1.63076e-06 -3.02518e-07 -5.69246e-07 -1.13242e-05
5.18231e-06 -1.14381e-06 -1.73078e-06 -8.90358e-06
6.76094e-06 -1.7034e-06 -2.16752e-06 -8.83854e-06
1.89637e-06 -3.92074e-07 -6.44699e-07 -1.11967e-05
3.29522e-06 -6.65973e-07 -1.12682e-06 -1.04084e-05
5.99749e-06 -1.42475e-06 -1.95975e-06 -8.85941e-06
4.38942e-06 -1.04628e-06 -1.43277e-06 -1.02227e-05
3.85315e-06 -8.48062e-07 -1.2879e-06 -1.03015e-05
1.63076e-06 -3.02518e-07 -5.69246e-07 -1.13242e-05
1.07397e-06 -2.18464e-07 -3.66646e-07 -1.15669e-05
3.54516e-06 -6.58515e-07 -1.23713e-06 -9.05062e-06
5.18231e-06 -1.14381e-06 -1.73078e-06 -8.90358e-06
1.36187e-06 -2.43237e-07 -4.79412e-07 -1.14522e-05
2.19556e-06 -4.39147e-07 -7.52746e-07 -1.06485e-05
4.35249e-06 -8.70571e-07 -1.49225e-06 -8.96561e-06
3.29522e-06 -6.65973e-07 -1.12682e-06 -1.04084e-05
2.73593e-06 -5.23479e-07 -9.48192e-07 -1.05331e-05
1.07397e-06 -2.18464e-07 -3.66646e-07 -1.15669e-05
6.84037e-07 -3.62597e-07 -1.3776e-07 -1.15786e-05
1.95546e-06 -6.47783e-07 -5.60435e-07 -9.37819e-06
3.54516e-06 -6.58515e-07 -1.23713e-06 -9.05062e-06
8.27792e-07 -2.40012e-07 -2.51906e-07 -1.16248e-05
1.25969e-06 -6.1481e-07 -2.76377e-07 -1.08283e-05
2.74969e-06 -5.68557e-07 -9.34771e-07 -9.18298e-06
2.19556e-06 -4.39147e-07 -7.52746e-07 -1.06485e-05
1.69613e-06 -4.42875e-07 -5.37111e-07 -1.07427e-05
6.84037e-07 -3.62597e-07 -1.3776e-07 -1.15786e-05
4.77272e-07 -9.75865e-07 2.13683e-07 -1.09365e-05
1.11308e-06 -1.82327e-06 3.04364e-07 -9.62998e-06
1.95546e-06 -6.47783e-07 -5.60435e-07 -9.37819e-06
5.86075e-07 -6.27066e-07 1.75676e-08 -1.13736e-05
9.26038e-07 -1.67183e-06 3.19625e-07 -1.04904e-05
1.34807e-06 -9.81691e-07 -1.57018e-07 -9.55003e-06
1.25969e-06 -6.1481e-07 -2.76377e-07 -1.08283e-05
9.73797e-07 -1.02737e-06 2.29601e-08 -1.08023e-05
4.77272e-07 -9.75865e-07 2.13683e-07 -1.09365e-05
6.6411e-07 -1.77988e-06 4.78186e-07 -8.93991e-06
1.53189e-06 -5.51307e-06 1.70622e-06 -8.85047e-06
1.11308e-06 -1.82327e-06 3.04364e-07 -9.62998e-06
4.6687e-07 -1.3496e-06 3.78312e-07 -1.01541e-05
1.16457e-06 -3.59366e-06 1.04104e-06 -8.73073e-06
1.1934e-06 -3.38039e-06 9.37284e-07 -9.49323e-06
9.26038e-07 -1.67183e-06 3.19625e-07 -1.04904e-05
1.02132e-06 -2.52583e-06 6.44787e-07 -9.80207e-06
6.6411e-07 -1.77988e-06 4.78186e-07 -8.93991e-06
1.17884e-06 -2.92186e-06 7.47009e-07 -5.10907e-06
2.78403e-06 -9.99531e-06 3.09055e-06 -4.68296e-06
1.53189e-06 -5.51307e-06 1.70622e-06 -8.85047e-06
9.43324e-07 -2.30787e-06 5.84805e-07 -7.27086e-06
1.7293e-06 -6.13935e-06 1.89002e-06 -5.1711e-06
2.07872e-06 -7.9191e-06 2.50302e-06 -7.31646e-06
1.16457e-06 -3.59366e-06 1.04104e-06 -8.73073e-06
1.38936e-06 -4.85186e-06 1.48393e-06 -7.22515e-06
0.000194703 0 -8.34442e-05 2.54829e-05
0.000220245 -2.9168e-05 -8.18901e-05 -9.19819e-07
0.000380598 -7.55019e-05 -0.000130756 -2.84043e-05
0.000338091 2.22045e-16 -0.000144896 -1.94852e-05
0.000211026 -1.64043e-05 -8.34092e-05 9.53394e-06
0.000293861 -4.55836e-05 -0.000106404 -1.1797e-05
0.000361928 -3.56416e-05 -0.000139837 -3.29494e-05
0.000276657 0 -0.000118567 3.88041e-06
0.000281356 -2.52771e-05 -0.000109748 -3.82729e-06
0.000220245 -2.9168e-05 -8.18901e-05 -9.19819e-07
0.000231527 -5.33434e-05 -7.63645e-05 -9.13103e-06
0.000395478 -0.000107163 -0.000123563 -1.35573e-05
0.000380598 -7.55019e-05 -0.000130756 -2.84043e-05
0.000225899 -4.20219e-05 -7.88044e-05 -6.21141e-06
0.000313437 -7.74072e-05 -0.000101156 -1.376e-05
0.000392362 -9.78327e-05 -0.000126227 -2.05062e-05
0.000293861 -4.55836e-05 -0.000106404 -1.1797e-05
0.000306958 -6.34583e-05 -0.000104357 -1.54537e-05
0.000231527 -5.33434e-05 -7.63645e-05 -9.13103e-06
0.000237262 -6.55642e-05 -7.35849e-05 -1.07089e-05
0.000393586 -0.000116061 -0.000118939 -5.06721e-06
0.000395478 -0.000107163 -0.000123563 -1.35573e-05
0.000235769 -6.09242e-05 -7.49334e-05 -1.05662e-05
0.000316615 -9.02184e-05 -9.70272e-05 -9.25e-06
0.000394401 -0.000112697 -0.00012073 -7.98756e-06
0.000313437 -7.74072e-05 -0.000101156 -1.376e-05
0.000315816 -8.57662e-05 -9.85928e-05 -1.08878e-05
0.000237262 -6.55642e-05 -7.35849e-05 -1.07089e-05
0.000237068 -7.03774e-05 -7.1439e-05 -9.89772e-06
0.000390817 -0.000117295 -0.000117224 -3.16332e-06
0.000393586 -0.000116061 -0.000118939 -5.06721e-06
0.000237274 -6.85839e-05 -7.22956e-05 -1.02556e-05
0.000315099 -9.43196e-05 -9.46196e-05 -7.02838e-06
0.000392552 -0.000117249 -0.000117987 -3.78926e-06
0.000316615 -9.02184e-05 -9.70272e-05 -9.25e-06
0.000316241 -9.28883e-05 -9.57225e-05 -8.05569e-06
0.000237068 -7.03774e-05 -7.1439e-05 -9.89772e-06
0.000235418 -7.1307e-05 -7.03333e-05 -9.34408e-06
0.000387617 -0.000117104 -0.000115934 -3.06991e-06
0.000390817 -0.000117295 -0.000117224 -3.16332e-06
0.000236499 -7.11539e-05 -7.08622e-05 -9.62282e-06
0.000312214 -9.4566e-05 -9.32775e-05 -6.32753e-06
0.000388975 -0.000117239 -0.000116458 -2.92859e-06
0.000315099 -9.43196e-05 -9.46196e-05 -7.02838e-06
0.000313615 -9.47241e-05 -9.38102e-05 -6.44679e-06
0.000235418 -7.1307e-05 -7.03333e-05 -9.34408e-06
0.000233081 -7.09553e-05 -6.94824e-05 -8.97305e-06
0.000385187 -0.000116249 -0.000115259 -3.7064e-06
0.000387617 -0.000117104 -0.000115934 -3.06991e-06
0.000234165 -7.12081e-05 -6.98388e-05 -9.10133e-06
0.000309553 -9.39128e-05 -9.24171e-05 -6.37375e-06
0.000386452 -0.000116732 -0.000115594 -3.40415e-06
0.000312214 -9.4566e-05 -9.32775e-05 -6.32753e-06
0.000310869 -9.42779e-05 -9.28247e-05 -6.34802e-06
0.000233081 -7.09553e-05 -6.94824e-05 -8.97305e-06
0.000231043 -7.01713e-05 -6.89452e-05 -8.85779e-06
0.000382838 -0.000115412 -0.000114611 -4.24366e-06
0.000385187 -0.000116249 -0.000115259 -3.7064e-06
0.000232072 -7.05864e-05 -6.92079e-05 -8.90979e-06
0.000307156 -9.29622e-05 -9.17976e-05 -6.61196e-06
0.000383942 -0.000115814 -0.000114912 -3.97543e-06
0.000309553 -9.39128e-05 -9.24171e-05 -6.37375e-06
0.000308303 -9.34514e-05 -9.20791e-05 -6.46512e-06
0.000231043 -7.01713e-05 -6.89452e-05 -8.85779e-06
0.000229187 -6.9402e-05 -6.84794e-05 -8.80795e-06
0.000380729 -0.000114597 -0.000114057 -4.68289e-06
0.000382838 -0.000115412 -0.000114611 -4.24366e-06
0.000230061 -6.9774e-05 -6.86943e-05 -8.81983e-06
0.000305071 -9.21073e-05 -9.12702e-05 -6.85158e-06
0.000381794 -0.000115002 -0.000114339 -4.49207e-06
0.000307156 -9.29622e-05 -9.17976e-05 -6.61196e-06
0.000306088 -9.25162e-05 -9.15307e-05 -6.74788e-06
0.000229187 -6.9402e-05 -6.84794e-05 -8.80795e-06
0.000227604 -6.87253e-05 -6.80909e-05 -8.80966e-06
0.000378645 -0.000113859 -0.00011348 -4.95062e-06
0.000380729 -0.000114597 -0.000114057 -4.68289e-06
0.000228382 -6.9051e-05 -6.82848e-05 -8.80916e-06
0.000303176 -9.13475e-05 -9.07837e-05 -7.0306e-06
0.00037967 -0.000114218 -0.000113765 -4.82982e-06
0.000305071 -9.21073e-05 -9.12702e-05 -6.85158e-06
0.000304102 -9.1716e-05 -9.10225e-05 -6.94533e-06
0.000227604 -6.87253e-05 -6.80909e-05 -8.80966e-06
0.000226161 -6.81589e-05 -6.77153e-05 -8.81566e-06
0.000376617 -0.000113169 -0.000112906 -5.12009e-06
0.000378645 -0.000113859 -0.00011348 -4.95062e-06
0.000226861 -6.84295e-05 -6.78993e-05 -8.8109e-06
0.000301412 -9.06952e-05 -9.03074e-05 -7.147e-06
0.000377633 -0.00011351 -0.000113196 -5.04857e-06
0.000303176 -9.13475e-05 -9.07837e-05 -7.0306e-06
0.000302283 -9.10095e-05 -9.05459e-05 -7.09788e-06
0.000226161 -6.81589e-05 -6.77153e-05 -8.81566e-06
0.000224832 -6.76717e-05 -6.73546e-05 -8.8259e-06
0.000374593 -0.000112517 -0.000112319 -5.2115e-06
0.000376617 -0.000113169 -0.000112906 -5.12009e-06
0.00022549 -6.79073e-05 -6.75354e-05 -8.82159e-06
0.000299721 -9.01096e-05 -8.98334e-05 -7.21735e-06
0.000375602 -0.000112839 -0.000112613 -5.17206e-06
0.000301412 -9.06952e-05 -9.03074e-05 -7.147e-06
0.00030056 -9.03959e-05 -9.00701e-05 -7.18609e-06
0.000224832 -6.76717e-05 -6.73546e-05 -8.8259e-06
0.000223558 -6.72387e-05 -6.6994e-05 -8.83266e-06
0.000372581 -0.000111886 -0.000111726 -5.26225e-06
0.000374593 -0.000112517 -0.000112319 -5.2115e-06
0.000224189 -6.74499e-05 -6.71737e-05 -8.82933e-06
0.000298071 -8.95705e-05 -8.93574e-05 -7.25671e-06
0.000373588 -0.000112199 -0.000112024 -5.24134e-06
0.000299721 -9.01096e-05 -8.98334e-05 -7.21735e-06
0.000298892 -8.98355e-05 -8.95958e-05 -7.24045e-06
0.000223558 -6.72387e-05 -6.6994e-05 -8.83266e-06
0.00022232 -6.68378e-05 -6.66351e-05 -8.83777e-06
0.000370567 -0.000111267 -0.000111129 -5.28704e-06
0.000372581 -0.000111886 -0.000111726 -5.26225e-06
0.000222937 -6.70353e-05 -6.68149e-05 -8.83562e-06
0.000296442 -8.9057e-05 -8.88794e-05 -7.2779e-06
0.000371573 -0.000111575 -0.000111428 -5.27671e-06
0.000298071 -8.95705e-05 -8.93574e-05 -7.25671e-06
0.000297255 -8.93114e-05 -8.91186e-05 -7.26884e-06
0.00022232 -6.68378e-05 -6.66351e-05 -8.83777e-06
0.000221097 -6.64555e-05 -6.6275e-05 -8.84074e-06
0.000368556 -0.000110656 -0.000110528 -5.29932e-06
0.000370567 -0.000111267 -0.000111129 -5.28704e-06
0.000221707 -6.6645e-05 -6.6455e-05 -8.8394e-06
0.000294824 -8.85586e-05 -8.83996e-05 -7.28855e-06
0.000369562 -0.000110961 -0.000110829 -5.29441e-06
0.000296442 -8.9057e-05 -8.88794e-05 -7.2779e-06
0.000295633 -8.88064e-05 -8.86398e-05 -7.28426e-06
0.000221097 -6.64555e-05 -6.6275e-05 -8.84074e-06
0.000219884 -6.60831e-05 -6.59147e-05 -8.8426e-06
0.000366543 -0.000110048 -0.000109926 -5.30461e-06
0.000368556 -0.000110656 -0.000110528 -5.29932e-06
0.00022049 -6.62684e-05 -6.6095e-05 -8.84182e-06
0.000293211 -8.80677e-05 -8.79187e-05 -7.29371e-06
0.000367549 -0.000110352 -0.000110228 -5.30249e-06
0.000294824 -8.85586e-05 -8.83996e-05 -7.28855e-06
0.000294017 -8.83125e-05 -8.81593e-05 -7.29158e-06
0.000219884 -6.60831e-05 -6.59147e-05 -8.8426e-06
0.000218675 -6.57156e-05 -6.55538e-05 -8.84362e-06
0.000364531 -0.000109442 -0.000109324 -5.30683e-06
0.000366543 -0.000110048 -0.000109926 -5.30461e-06
0.000219279 -6.58989e-05 -6.57343e-05 -8.84317e-06
0.0002916 -8.75807e-05 -8.7437e-05 -7.29602e-06
0.000365537 -0.000109745 -0.000109625 -5.30599e-06
0.000293211 -8.80677e-05 -8.79187e-05 -7.29371e-06
0.000292406 -8.78239e-05 -8.76779e-05 -7.29513e-06
0.000218675 -6.57156e-05 -6.55538e-05 -8.84362e-06
0.000217467 -6.53506e-05 -6.51926e-05 -8.84419e-06
0.000362518 -0.000108837 -0.00010872 -5.30756e-06
0.000364531 -0.000109442 -0.000109324 -5.30683e-06
0.000218071 -6.55329e-05 -6.53733e-05 -8.84395e-06
0.00028999 -8.70955e-05 -8.69549e-05 -7.29698e-06
0.000363524 -0.000109139 -0.000109022 -5.3073e-06
0.0002916 -8.75807e-05 -8.7437e-05 -7.29602e-06
0.000290795 -8.7338e-05 -8.7196e-05 -7.2966e-06
0.000217467 -6.53506e-05 -6.51926e-05 -8.84419e-06
0.00021626 -6.49867e-05 -6.48312e-05 -8.84449e-06
0.000360505 -0.000108232 -0.000108117 -5.30773e-06
0.000362518 -0.000108837 -0.00010872 -5.30756e-06
0.000216863 -6.51686e-05 -6.50119e-05 -8.84437e-06
0.00028838 -8.66111e-05 -8.64725e-05 -7.29733e-06
0.000361511 -0.000108534 -0.000108419 -5.30769e-06
0.00028999 -8.70955e-05 -8.69549e-05 -7.29698e-06
0.000289185 -8.68532e-05 -8.67137e-05 -7.29721e-06
0.00021626 -6.49867e-05 -6.48312e-05 -8.84449e-06
0.000215052 -6.46232e-05 -6.44697e-05 -8.84465e-06
0.000358492 -0.000107627 -0.000107513 -5.30768e-06
0.000360505 -0.000108232 -0.000108117 -5.30773e-06
0.000215656 -6.48049e-05 -6.46505e-05 -8.84459e-06
0.00028677 -8.6127e-05 -8.599e-05 -7.29741e-06
0.000359498 -0.00010793 -0.000107815 -5.30772e-06
0.00028838 -8.66111e-05 -8.64725e-05 -7.29733e-06
0.000287575 -8.6369e-05 -8.62312e-05 -7.29739e-06
0.000215052 -6.46232e-05 -6.44697e-05 -8.84465e-06
0.000213845 -6.42599e-05 -6.41081e-05 -8.84473e-06
0.000356479 -0.000107022 -0.00010691 -5.3076e-06
0.000358492 -0.000107627 -0.000107513 -5.30768e-06
0.000214449 -6.44416e-05 -6.42889e-05 -8.8447e-06
0.00028516 -8.56429e-05 -8.55074e-05 -7.29741e-06
0.000357485 -0.000107325 -0.000107212 -5.30764e-06
0.00028677 -8.6127e-05 -8.599e-05 -7.29741e-06
0.000285965 -8.58849e-05 -8.57487e-05 -7.29742e-06
0.000213845 -6.42599e-05 -6.41081e-05 -8.84473e-06
0.000212638 -6.38966e-05 -6.37464e-05 -8.84476e-06
0.000354465 -0.000106418 -0.000106306 -5.30751e-06
0.000356479 -0.000107022 -0.00010691 -5.3076e-06
0.000213242 -6.40783e-05 -6.39273e-05 -8.84475e-06
0.00028355 -8.51589e-05 -8.50248e-05 -7.29738e-06
0.000355472 -0.00010672 -0.000106608 -5.30755e-06
0.00028516 -8.56429e-05 -8.55074e-05 -7.29741e-06
0.000284355 -8.54009e-05 -8.52661e-05 -7.29739e-06
0.000212638 -6.38966e-05 -6.37464e-05 -8.84476e-06
0.000211431 -6.35333e-05 -6.33848e-05 -8.84477e-06
0.000352452 -0.000105813 -0.000105703 -5.30745e-06
0.000354465 -0.000106418 -0.000106306 -5.30751e-06
0.000212035 -6.3715e-05 -6.35656e-05 -8.84477e-06
0.00028194 -8.46749e-05 -8.45422e-05 -7.29734e-06
0.000353459 -0.000106115 -0.000106004 -5.30748e-06
0.00028355 -8.51589e-05 -8.50248e-05 -7.29738e-06
0.000282745 -8.49169e-05 -8.47835e-05 -7.29736e-06
0.000211431 -6.35333e-05 -6.33848e-05 -8.84477e-06
0.000210224 -6.317e-05 -6.30231e-05 -8.84477e-06
0.000350439 -0.000105208 -0.000105099 -5.30741e-06
0.000352452 -0.000105813 -0.000105703 -5.30745e-06
0.000210828 -6.33517e-05 -6.3204e-05 -8.84477e-06
0.00028033 -8.41908e-05 -8.40595e-05 -7.29731e-06
0.000351446 -0.000105511 -0.000105401 -5.30743e-06
0.00028194 -8.46749e-05 -8.45422e-05 -7.29734e-06
0.000281135 -8.44329e-05 -8.43008e-05 -7.29733e-06
0.000210224 -6.317e-05 -6.30231e-05 -8.84477e-06
0.000209017 -6.28067e-05 -6.26614e-05 -8.84477e-06
0.000348426 -0.000104603 -0.000104495 -5.30738e-06
0.000350439 -0.000105208 -0.000105099 -5.30741e-06
0.00020962 -6.29884e-05 -6.28423e-05 -8.84477e-06
0.00027872 -8.37068e-05 -8.35769e-05 -7.29729e-06
0.000349432 -0.000104906 -0.000104797 -5.30739e-06
0.00028033 -8.41908e-05 -8.40595e-05 -7.29731e-06
0.000279525 -8.39488e-05 -8.38182e-05 -7.2973e-06
0.000209017 -6.28067e-05 -6.26614e-05 -8.84477e-06
0.00020781 -6.24434e-05 -6.22998e-05 -8.84476e-06
0.000346412 -0.000103999 -0.000103892 -5.30736e-06
0.000348426 -0.000104603 -0.000104495 -5.30738e-06
0.000208413 -6.26251e-05 -6.24806e-05 -8.84476e-06
0.000277109 -8.32227e-05 -8.30942e-05 -7.29727e-06
0.000347419 -0.000104301 -0.000104193 -5.30737e-06
0.00027872 -8.37068e-05 -8.35769e-05 -7.29729e-06
0.000277914 -8.34648e-05 -8.33356e-05 -7.29728e-06
0.00020781 -6.24434e-05 -6.22998e-05 -8.84476e-06
0.000206602 -6.20801e-05 -6.19381e-05 -8.84475e-06
0.000344399 -0.000103394 -0.000103288 -5.30734e-06
0.000346412 -0.000103999 -0.000103892 -5.30736e-06
0.000207206 -6.22618e-05 -6.21189e-05 -8.84475e-06
0.000275499 -8.27387e-05 -8.26116e-05 -7.29726e-06
0.000345406 -0.000103696 -0.00010359 -5.30735e-06
0.000277109 -8.32227e-05 -8.30942e-05 -7.29727e-06
0.000276304 -8.29807e-05 -8.28529e-05 -7.29727e-06
0.000206602 -6.20801e-05 -6.19381e-05 -8.84475e-06
0.000205395 -6.17168e-05 -6.15764e-05 -8.84474e-06
0.000342386 -0.000102789 -0.000102684 -5.30733e-06
0.000344399 -0.000103394 -0.000103288 -5.30734e-06
0.000205999 -6.18984e-05 -6.17572e-05 -8.84474e-06
0.000273889 -8.22546e-05 -8.21289e-05 -7.29724e-06
0.000343393 -0.000103092 -0.000102986 -5.30734e-06
0.000275499 -8.27387e-05 -8.26116e-05 -7.29726e-06
0.000274694 -8.24966e-05 -8.23703e-05 -7.29725e-06
0.000205395 -6.17168e-05 -6.15764e-05 -8.84474e-06
0.000204188 -6.13535e-05 -6.12147e-05 -8.84473e-06
0.000340373 -0.000102184 -0.000102081 -5.30732e-06
0.000342386 -0.000102789 -0.000102684 -5.30733e-06
0.000204791 -6.15351e-05 -6.13955e-05 -8.84473e-06
0.000272279 -8.17705e-05 -8.16463e-05 -7.29723e-06
0.000341379 -0.000102487 -0.000102383 -5.30732e-06
0.000273889 -8.22546e-05 -8.21289e-05 -7.29724e-06
0.000273084 -8.20126e-05 -8.18876e-05 -7.29724e-06
0.000204188 -6.13535e-05 -6.12147e-05 -8.84473e-06
0.00020298 -6.09901e-05 -6.0853e-05 -8.84471e-06
0.000338359 -0.00010158 -0.000101477 -5.30731e-06
0.000340373 -0.000102184 -0.000102081 -5.30732e-06
0.000203584 -6.11718e-05 -6.10338e-05 -8.84472e-06
0.000270668 -8.12865e-05 -8.11636e-05 -7.29722e-06
0.000339366 -0.000101882 -0.000101779 -5.30731e-06
0.000272279 -8.17705e-05 -8.16463e-05 -7.29723e-06
0.000271473 -8.15285e-05 -8.1405e-05 -7.29723e-06
0.00020298 -6.09901e-05 -6.0853e-05 -8.84471e-06
0.000201773 -6.06268e-05 -6.04913e-05 -8.8447e-06
0.000336346 -0.000100975 -0.000100873 -5.3073e-06
0.000338359 -0.00010158 -0.000101477 -5.30731e-06
0.000202377 -6.08085e-05 -6.06721e-05 -8.84471e-06
0.000269058 -8.08024e-05 -8.0681e-05 -7.29721e-06
0.000337353 -0.000101277 -0.000101175 -5.3073e-06
0.000270668 -8.12865e-05 -8.11636e-05 -7.29722e-06
0.000269863 -8.10444e-05 -8.09223e-05 -7.29721e-06
0.000201773 -6.06268e-05 -6.04913e-05 -8.8447e-06
0.000200566 -6.02635e-05 -6.01296e-05 -8.84469e-06
0.000334333 -0.00010037 -0.00010027 -5.30729e-06
0.000336346 -0.000100975 -0.000100873 -5.3073e-06
0.00020117 -6.04452e-05 -6.03104e-05 -8.8447e-06
0.000267448 -8.03183e-05 -8.01983e-05 -7.2972e-06
0.000335339 -0.000100672 -0.000100572 -5.30729e-06
0.000269058 -8.08024e-05 -8.0681e-05 -7.29721e-06
0.000268253 -8.05604e-05 -8.04397e-05 -7.2972e-06
0.000200566 -6.02635e-05 -6.01296e-05 -8.84469e-06
0.000199359 -5.99002e-05 -5.97679e-05 -8.84468e-06
0.000332319 -9.97653e-05 -9.96661e-05 -5.30728e-06
0.000334333 -0.00010037 -0.00010027 -5.30729e-06
0.000199962 -6.00818e-05 -5.99487e-05 -8.84469e-06
0.000265837 -7.98343e-05 -7.97157e-05 -7.29719e-06
0.000333326 -0.000100068 -9.99679e-05 -5.30729e-06
0.000267448 -8.03183e-05 -8.01983e-05 -7.2972e-06
0.000266643 -8.00763e-05 -7.9957e-05 -7.29719e-06
0.000199359 -5.99002e-05 -5.97679e-05 -8.84468e-06
0.000198151 -5.95369e-05 -5.94062e-05 -8.84467e-06
0.000330306 -9.91605e-05 -9.90624e-05 -5.30727e-06
0.000332319 -9.97653e-05 -9.96661e-05 -5.30728e-06
0.000198755 -5.97185e-05 -5.9587e-05 -8.84468e-06
0.000264227 -7.93502e-05 -7.9233e-05 -7.29718e-06
0.000331313 -9.94629e-05 -9.93643e-05 -5.30728e-06
0.000265837 -7.98343e-05 -7.97157e-05 -7.29719e-06
0.000265032 -7.95922e-05 -7.94743e-05 -7.29718e-06
0.000198151 -5.95369e-05 -5.94062e-05 -8.84467e-06
0.000196944 -5.91736e-05 -5.90444e-05 -8.84467e-06
0.000328293 -9.85557e-05 -9.84588e-05 -5.30726e-06
0.000330306 -9.91605e-05 -9.90624e-05 -5.30727e-06
0.000197548 -5.93552e-05 -5.92253e-05 -8.84467e-06
0.000262617 -7.88662e-05 -7.87503e-05 -7.29717e-06
0.0003293 -9.88581e-05 -9.87606e-05 -5.30727e-06
0.000264227 -7.93502e-05 -7.9233e-05 -7.29718e-06
0.000263422 -7.91082e-05 -7.89917e-05 -7.29717e-06
0.000196944 -5.91736e-05 -5.90444e-05 -8.84467e-06
0.000195737 -5.88103e-05 -5.86827e-05 -8.84466e-06
0.00032628 -9.79509e-05 -9.78551e-05 -5.30725e-06
0.000328293 -9.85557e-05 -9.84588e-05 -5.30726e-06
0.00019634 -5.89919e-05 -5.88636e-05 -8.84466e-06
0.000261007 -7.83821e-05 -7.82676e-05 -7.29716e-06
0.000327286 -9.82533e-05 -9.8157e-05 -5.30726e-06
0.000262617 -7.88662e-05 -7.87503e-05 -7.29717e-06
0.000261812 -7.86241e-05 -7.8509e-05 -7.29716e-06
0.000195737 -5.88103e-05 -5.86827e-05 -8.84466e-06
0.000194529 -5.8447e-05 -5.8321e-05 -8.84465e-06
0.000324266 -9.73462e-05 -9.72515e-05 -5.30725e-06
0.00032628 -9.79509e-05 -9.78551e-05 -5.30725e-06
0.000195133 -5.86286e-05 -5.85019e-05 -8.84465e-06
0.000259396 -7.7898e-05 -7.7785e-05 -7.29715e-06
0.000325273 -9.76486e-05 -9.75533e-05 -5.30725e-06
0.000261007 -7.83821e-05 -7.82676e-05 -7.29716e-06
0.000260201 -7.81401e-05 -7.80263e-05 -7.29715e-06
0.000194529 -5.8447e-05 -5.8321e-05 -8.84465e-06
0.000193322 -5.80837e-05 -5.79593e-05 -8.84464e-06
0.000322253 -9.67414e-05 -9.66478e-05 -5.30724e-06
0.000324266 -9.73462e-05 -9.72515e-05 -5.30725e-06
0.000193926 -5.82653e-05 -5.81401e-05 -8.84464e-06
0.000257786 -7.7414e-05 -7.73023e-05 -7.29714e-06
0.00032326 -9.70438e-05 -9.69496e-05 -5.30724e-06
0.000259396 -7.7898e-05 -7.7785e-05 -7.29715e-06
0.000258591 -7.7656e-05 -7.75436e-05 -7.29714e-06
0.000193322 -5.80837e-05 -5.79593e-05 -8.84464e-06
0.000192115 -5.77204e-05 -5.75976e-05 -8.84463e-06
0.00032024 -9.61366e-05 -9.60441e-05 -5.30723e-06
0.000322253 -9.67414e-05 -9.66478e-05 -5.30724e-06
0.000192718 -5.7902e-05 -5.77784e-05 -8.84463e-06
0.000256176 -7.69299e-05 -7.68196e-05 -7.29713e-06
0.000321246 -9.6439e-05 -9.6346e-05 -5.30723e-06
0.000257786 -7.7414e-05 -7.73023e-05 -7.29714e-06
0.000256981 -7.7172e-05 -7.7061e-05 -7.29713e-06
0.000192115 -5.77204e-05 -5.75976e-05 -8.84463e-06
0.000190907 -5.73571e-05 -5.72358e-05 -8.84462e-06
0.000318226 -9.55319e-05 -9.54405e-05 -5.30722e-06
0.00032024 -9.61366e-05 -9.60441e-05 -5.30723e-06
0.000191511 -5.75387e-05 -5.74167e-05 -8.84462e-06
0.000254565 -7.64459e-05 -7.63369e-05 -7.29712e-06
0.000319233 -9.58343e-05 -9.57423e-05 -5.30722e-06
0.000256176 -7.69299e-05 -7.68196e-05 -7.29713e-06
0.000255371 -7.66879e-05 -7.65783e-05 -7.29712e-06
0.000190907 -5.73571e-05 -5.72358e-05 -8.84462e-06
0.0001897 -5.69938e-05 -5.68741e-05 -8.84461e-06
0.000316213 -9.49271e-05 -9.48368e-05 -5.30721e-06
0.000318226 -9.55319e-05 -9.54405e-05 -5.30722e-06
0.000190304 -5.71754e-05 -5.70549e-05 -8.84461e-06
0.000252955 -7.59618e-05 -7.58542e-05 -7.29711e-06
0.00031722 -9.52295e-05 -9.51386e-05 -5.30722e-06
0.000254565 -7.64459e-05 -7.63369e-05 -7.29712e-06
0.00025376 -7.62039e-05 -7.60956e-05 -7.29711e-06
0.0001897 -5.69938e-05 -5.68741e-05 -8.84461e-06
0.000188493 -5.66305e-05 -5.65123e-05 -8.8446e-06
0.0003142 -9.43223e-05 -9.42331e-05 -5.3072e-06
0.000316213 -9.49271e-05 -9.48368e-05 -5.30721e-06
0.000189096 -5.68121e-05 -5.66932e-05 -8.8446e-06
0.000251345 -7.54778e-05 -7.53716e-05 -7.2971e-06
0.000315206 -9.46247e-05 -9.4535e-05 -5.30721e-06
0.000252955 -7.59618e-05 -7.58542e-05 -7.29711e-06
0.00025215 -7.57198e-05 -7.56129e-05 -7.2971e-06
0.000188493 -5.66305e-05 -5.65123e-05 -8.8446e-06
0.000187285 -5.62672e-05 -5.61506e-05 -8.84459e-06
0.000312186 -9.37176e-05 -9.36295e-05 -5.30719e-06
0.0003142 -9.43223e-05 -9.42331e-05 -5.3072e-06
0.000187889 -5.64488e-05 -5.63315e-05 -8.84459e-06
0.000249734 -7.49938e-05 -7.48889e-05 -7.29709e-06
0.000313193 -9.402e-05 -9.39313e-05 -5.3072e-06
0.000251345 -7.54778e-05 -7.53716e-05 -7.2971e-06
0.00025054 -7.52358e-05 -7.51302e-05 -7.29709e-06
0.000187285 -5.62672e-05 -5.61506e-05 -8.84459e-06
0.000186078 -5.59039e-05 -5.57888e-05 -8.84458e-06
0.000310173 -9.31128e-05 -9.30258e-05 -5.30719e-06
0.000312186 -9.37176e-05 -9.36295e-05 -5.30719e-06
0.000186682 -5.60856e-05 -5.59697e-05 -8.84459e-06
0.000248124 -7.45097e-05 -7.44062e-05 -7.29708e-06
0.00031118 -9.34152e-05 -9.33276e-05 -5.30719e-06
0.000249734 -7.49938e-05 -7.48889e-05 -7.29709e-06
0.000248929 -7.47517e-05 -7.46475e-05 -7.29709e-06
0.000186078 -5.59039e-05 -5.57888e-05 -8.84458e-06
0.000184871 -5.55406e-05 -5.54271e-05 -8.84457e-06
0.00030816 -9.25081e-05 -9.24221e-05 -5.30718e-06
0.000310173 -9.31128e-05 -9.30258e-05 -5.30719e-06
0.000185474 -5.57223e-05 -5.5608e-05 -8.84458e-06
0.000246514 -7.40257e-05 -7.39235e-05 -7.29707e-06
0.000309166 -9.28104e-05 -9.2724e-05 -5.30718e-06
0.000248124 -7.45097e-05 -7.44062e-05 -7.29708e-06
0.000247319 -7.42677e-05 -7.41648e-05 -7.29708e-06
0.000184871 -5.55406e-05 -5.54271e-05 -8.84457e-06
0.000183663 -5.51774e-05 -5.50653e-05 -8.84456e-06
0.000306146 -9.19033e-05 -9.18184e-05 -5.30717e-06
0.00030816 -9.25081e-05 -9.24221e-05 -5.30718e-06
0.000184267 -5.5359e-05 -5.52462e-05 -8.84457e-06
0.000244903 -7.35416e-05 -7.34408e-05 -7.29706e-06
0.000307153 -9.22057e-05 -9.21203e-05 -5.30717e-06
0.000246514 -7.40257e-05 -7.39235e-05 -7.29707e-06
0.000245709 -7.37837e-05 -7.36821e-05 -7.29707e-06
0.000183663 -5.51774e-05 -5.50653e-05 -8.84456e-06
0.000182456 -5.48141e-05 -5.47036e-05 -8.84455e-06
0.000304133 -9.12985e-05 -9.12148e-05 -5.30716e-06
0.000306146 -9.19033e-05 -9.18184e-05 -5.30717e-06
0.000183059 -5.49957e-05 -5.48845e-05 -8.84456e-06
0.000243293 -7.30576e-05 -7.29581e-05 -7.29705e-06
0.00030514 -9.16009e-05 -9.15166e-05 -5.30716e-06
0.000244903 -7.35416e-05 -7.34408e-05 -7.29706e-06
0.000244098 -7.32996e-05 -7.31994e-05 -7.29706e-06
0.000182456 -5.48141e-05 -5.47036e-05 -8.84455e-06
0.000181248 -5.44508e-05 -5.43418e-05 -8.84454e-06
0.00030212 -9.06938e-05 -9.06111e-05 -5.30715e-06
0.000304133 -9.12985e-05 -9.12148e-05 -5.30716e-06
0.000181852 -5.46325e-05 -5.45227e-05 -8.84455e-06
0.000241683 -7.25736e-05 -7.24753e-05 -7.29704e-06
0.000303126 -9.09962e-05 -9.09129e-05 -5.30716e-06
0.000243293 -7.30576e-05 -7.29581e-05 -7.29705e-06
0.000242488 -7.28156e-05 -7.27167e-05 -7.29705e-06
0.000181248 -5.44508e-05 -5.43418e-05 -8.84454e-06
0.000180041 -5.40876e-05 -5.398e-05 -8.84453e-06
0.000300106 -9.0089e-05 -9.00074e-05 -5.30714e-06
0.00030212 -9.06938e-05 -9.06111e-05 -5.30715e-06
0.000180645 -5.42692e-05 -5.41609e-05 -8.84454e-06
0.000240072 -7.20895e-05 -7.19926e-05 -7.29703e-06
0.000301113 -9.03914e-05 -9.03092e-05 -5.30715e-06
0.000241683 -7.25736e-05 -7.24753e-05 -7.29704e-06
0.000240878 -7.23316e-05 -7.2234e-05 -7.29704e-06
0.000180041 -5.40876e-05 -5.398e-05 -8.84453e-06
0.000178834 -5.37243e-05 -5.36183e-05 -8.84452e-06
0.000298093 -8.94843e-05 -8.94037e-05 -5.30713e-06
0.000300106 -9.0089e-05 -9.00074e-05 -5.30714e-06
0.000179437 -5.39059e-05 -5.37992e-05 -8.84453e-06
0.000238462 -7.16055e-05 -7.15099e-05 -7.29702e-06
0.0002991 -8.97866e-05 -8.97055e-05 -5.30714e-06
0.000240072 -7.20895e-05 -7.19926e-05 -7.29703e-06
0.000239267 -7.18475e-05 -7.17513e-05 -7.29703e-06
0.000178834 -5.37243e-05 -5.36183e-05 -8.84452e-06
0.000177626 -5.3361e-05 -5.32565e-05 -8.84451e-06
0.00029608 -8.88795e-05 -8.88e-05 -5.30713e-06
0.000298093 -8.94843e-05 -8.94037e-05 -5.30713e-06
0.00017823 -5.35427e-05 -5.34374e-05 -8.84452e-06
0.000236852 -7.11215e-05 -7.10272e-05 -7.29701e-06
0.000297086 -8.91819e-05 -8.91019e-05 -5.30713e-06
0.000238462 -7.16055e-05 -7.15099e-05 -7.29702e-06
0.000237657 -7.13635e-05 -7.12686e-05 -7.29702e-06
0.000177626 -5.3361e-05 -5.32565e-05 -8.84451e-06
0.000176419 -5.29978e-05 -5.28947e-05 -8.8445e-06
0.000294066 -8.82748e-05 -8.81963e-05 -5.30712e-06
0.00029608 -8.88795e-05 -8.88e-05 -5.30713e-06
0.000177022 -5.31794e-05 -5.30756e-05 -8.84451e-06
0.000235241 -7.06375e-05 -7.05445e-05 -7.297e-06
0.000295073 -8.85771e-05 -8.84982e-05 -5.30712e-06
0.000236852 -7.11215e-05 -7.10272e-05 -7.29701e-06
0.000236046 -7.08795e-05 -7.07858e-05 -7.29701e-06
0.000176419 -5.29978e-05 -5.28947e-05 -8.8445e-06
0.000175211 -5.26345e-05 -5.25329e-05 -8.84449e-06
0.000292053 -8.767e-05 -8.75926e-05 -5.30711e-06
0.000294066 -8.82748e-05 -8.81963e-05 -5.30712e-06
0.000175815 -5.28161e-05 -5.27138e-05 -8.8445e-06
0.000233631 -7.01535e-05 -7.00618e-05 -7.29699e-06
0.000293059 -8.79724e-05 -8.78945e-05 -5.30711e-06
0.000235241 -7.06375e-05 -7.05445e-05 -7.297e-06
0.000234436 -7.03955e-05 -7.03031e-05 -7.297e-06
0.000175211 -5.26345e-05 -5.25329e-05 -8.84449e-06
0.000174004 -5.22713e-05 -5.21711e-05 -8.84448e-06
0.000290039 -8.70653e-05 -8.69889e-05 -5.3071e-06
0.000292053 -8.767e-05 -8.75926e-05 -5.30711e-06
0.000174608 -5.24529e-05 -5.2352e-05 -8.84449e-06
0.000232021 -6.96694e-05 -6.9579e-05 -7.29698e-06
0.000291046 -8.73676e-05 -8.72908e-05 -5.3071e-06
0.000233631 -7.01535e-05 -7.00618e-05 -7.29699e-06
0.000232826 -6.99114e-05 -6.98204e-05 -7.29699e-06
0.000174004 -5.22713e-05 -5.21711e-05 -8.84448e-06
0.000172797 -5.1908e-05 -5.18094e-05 -8.84447e-06
0.000288026 -8.64605e-05 -8.63852e-05 -5.30709e-06
0.000290039 -8.70653e-05 -8.69889e-05 -5.3071e-06
0.0001734 -5.20896e-05 -5.19902e-05 -8.84448e-06
0.00023041 -6.91854e-05 -6.90963e-05 -7.29697e-06
0.000289033 -8.67629e-05 -8.66871e-05 -5.3071e-06
0.000232021 -6.96694e-05 -6.9579e-05 -7.29698e-06
0.000231215 -6.94274e-05 -6.93377e-05 -7.29698e-06
0.000172797 -5.1908e-05 -5.18094e-05 -8.84447e-06
0.000171589 -5.15448e-05 -5.14476e-05 -8.84446e-06
0.000286013 -8.58558e-05 -8.57815e-05 -5.30708e-06
0.000288026 -8.64605e-05 -8.63852e-05 -5.30709e-06
0.000172193 -5.17264e-05 -5.16285e-05 -8.84447e-06
0.0002288 -6.87014e-05 -6.86136e-05 -7.29696e-06
0.000287019 -8.61581e-05 -8.60834e-05 -5.30709e-06
0.00023041 -6.91854e-05 -6.90963e-05 -7.29697e-06
0.000229605 -6.89434e-05 -6.88549e-05 -7.29697e-06
0.000171589 -5.15448e-05 -5.14476e-05 -8.84446e-06
0.000170382 -5.11815e-05 -5.10858e-05 -8.84445e-06
0.000283999 -8.5251e-05 -8.51778e-05 -5.30707e-06
0.000286013 -8.58558e-05 -8.57815e-05 -5.30708e-06
0.000170985 -5.13631e-05 -5.12667e-05 -8.84446e-06
0.000227189 -6.82174e-05 -6.81308e-05 -7.29695e-06
0.000285006 -8.55534e-05 -8.54797e-05 -5.30708e-06
0.0002288 -6.87014e-05 -6.86136e-05 -7.29696e-06
0.000227995 -6.84594e-05 -6.83722e-05 -7.29696e-06
0.000170382 -5.11815e-05 -5.10858e-05 -8.84445e-06
0.000169174 -5.08183e-05 -5.0724e-05 -8.84444e-06
0.000281986 -8.46463e-05 -8.45741e-05 -5.30707e-06
0.000283999 -8.5251e-05 -8.51778e-05 -5.30707e-06
0.000169778 -5.09999e-05 -5.09049e-05 -8.84445e-06
0.000225579 -6.77334e-05 -6.76481e-05 -7.29694e-06
0.000282993 -8.49486e-05 -8.4876e-05 -5.30707e-06
0.000227189 -6.82174e-05 -6.81308e-05 -7.29695e-06
0.000226384 -6.79754e-05 -6.78895e-05 -7.29695e-06
0.000169174 -5.08183e-05 -5.0724e-05 -8.84444e-06
0.000167967 -5.04551e-05 -5.03621e-05 -8.84443e-06
0.000279972 -8.40415e-05 -8.39704e-05 -5.30706e-06
0.000281986 -8.46463e-05 -8.45741e-05 -5.30707e-06
0.00016857 -5.06367e-05 -5.0543e-05 -8.84444e-06
0.000223969 -6.72494e-05 -6.71653e-05 -7.29693e-06
0.000280979 -8.43439e-05 -8.42723e-05 -5.30706e-06
0.000225579 -6.77334e-05 -6.76481e-05 -7.29694e-06
0.000224774 -6.74914e-05 -6.74067e-05 -7.29694e-06
0.000167967 -5.04551e-05 -5.03621e-05 -8.84443e-06
0.000166759 -5.00918e-05 -5.00003e-05 -8.84442e-06
0.000277959 -8.34368e-05 -8.33667e-05 -5.30705e-06
0.000279972 -8.40415e-05 -8.39704e-05 -5.30706e-06
0.000167363 -5.02734e-05 -5.01812e-05 -8.84443e-06
0.000222358 -6.67654e-05 -6.66826e-05 -7.29692e-06
0.000278966 -8.37392e-05 -8.36686e-05 -5.30705e-06
0.000223969 -6.72494e-05 -6.71653e-05 -7.29693e-06
0.000223163 -6.70074e-05 -6.6924e-05 -7.29693e-06
0.000166759 -5.00918e-05 -5.00003e-05 -8.84442e-06
0.000165552 -4.97286e-05 -4.96385e-05 -8.84441e-06
0.000275946 -8.28321e-05 -8.2763e-05 -5.30704e-06
0.000277959 -8.34368e-05 -8.33667e-05 -5.30705e-06
0.000166156 -4.99102e-05 -4.98194e-05 -8.84442e-06
0.000220748 -6.62814e-05 -6.61998e-05 -7.29691e-06
0.000276952 -8.31344e-05 -8.30648e-05 -5.30704e-06
0.000222358 -6.67654e-05 -6.66826e-05 -7.29692e-06
0.000221553 -6.65234e-05 -6.64412e-05 -7.29692e-06
0.000165552 -4.97286e-05 -4.96385e-05 -8.84441e-06
0.000164344 -4.93654e-05 -4.92767e-05 -8.8444e-06
0.000273932 -8.22273e-05 -8.21593e-05 -5.30703e-06
0.000275946 -8.28321e-05 -8.2763e-05 -5.30704e-06
0.000164948 -4.9547e-05 -4.94576e-05 -8.84441e-06
0.000219137 -6.57974e-05 -6.57171e-05 -7.2969e-06
0.000274939 -8.25297e-05 -8.24611e-05 -5.30703e-06
0.000220748 -6.62814e-05 -6.61998e-05 -7.29691e-06
0.000219942 -6.60394e-05 -6.59585e-05 -7.29691e-06
0.000164344 -4.93654e-05 -4.92767e-05 -8.8444e-06
0.000163137 -4.90021e-05 -4.89149e-05 -8.84439e-06
0.000271919 -8.16226e-05 -8.15556e-05 -5.30702e-06
0.000273932 -8.22273e-05 -8.21593e-05 -5.30703e-06
0.000163741 -4.91838e-05 -4.90958e-05 -8.8444e-06
0.000217527 -6.53134e-05 -6.52343e-05 -7.29689e-06
0.000272926 -8.1925e-05 -8.18574e-05 -5.30703e-06
0.000219137 -6.57974e-05 -6.57171e-05 -7.2969e-06
0.000218332 -6.55554e-05 -6.54757e-05 -7.2969e-06
0.000163137 -4.90021e-05 -4.89149e-05 -8.84439e-06
0.000161929 -4.86389e-05 -4.8553e-05 -8.84438e-06
0.000269905 -8.10179e-05 -8.09518e-05 -5.30701e-06
0.000271919 -8.16226e-05 -8.15556e-05 -5.30702e-06
0.000162533 -4.88205e-05 -4.8734e-05 -8.84439e-06
0.000215916 -6.48294e-05 -6.47516e-05 -7.29688e-06
0.000270912 -8.13202e-05 -8.12537e-05 -5.30702e-06
0.000217527 -6.53134e-05 -6.52343e-05 -7.29689e-06
0.000216722 -6.50714e-05 -6.49929e-05 -7.29688e-06
0.000161929 -4.86389e-05 -4.8553e-05 -8.84438e-06
0.000160722 -4.82757e-05 -4.81912e-05 -8.84437e-06
0.000267892 -8.04131e-05 -8.03481e-05 -5.307e-06
0.000269905 -8.10179e-05 -8.09518e-05 -5.30701e-06
0.000161326 -4.84573e-05 -4.83721e-05 -8.84438e-06
0.000214306 -6.43454e-05 -6.42688e-05 -7.29687e-06
0.000268899 -8.07155e-05 -8.065e-05 -5.30701e-06
0.000215916 -6.48294e-05 -6.47516e-05 -7.29688e-06
0.000215111 -6.45874e-05 -6.45102e-05 -7.29687e-06
0.000160722 -4.82757e-05 -4.81912e-05 -8.84437e-06
0.000159514 -4.79125e-05 -4.78294e-05 -8.84436e-06
0.000265879 -7.98084e-05 -7.97444e-05 -5.30699e-06
0.000267892 -8.04131e-05 -8.03481e-05 -5.307e-06
0.000160118 -4.80941e-05 -4.80103e-05 -8.84437e-06
0.000212695 -6.38614e-05 -6.3786e-05 -7.29686e-06
0.000266885 -8.01108e-05 -8.00462e-05 -5.307e-06
0.000214306 -6.43454e-05 -6.42688e-05 -7.29687e-06
0.000213501 -6.41034e-05 -6.40274e-05 -7.29686e-06
0.000159514 -4.79125e-05 -4.78294e-05 -8.84436e-06
0.000158307 -4.75493e-05 -4.74675e-05 -8.84435e-06
0.000263865 -7.92037e-05 -7.91407e-05 -5.30699e-06
0.000265879 -7.98084e-05 -7.97444e-05 -5.30699e-06
0.000158911 -4.77309e-05 -4.76485e-05 -8.84436e-06
0.000211085 -6.33774e-05 -6.33033e-05 -7.29685e-06
0.000264872 -7.9506e-05 -7.94425e-05 -5.30699e-06
0.000212695 -6.38614e-05 -6.3786e-05 -7.29686e-06
0.00021189 -6.36194e-05 -6.35446e-05 -7.29685e-06
0.000158307 -4.75493e-05 -4.74675e-05 -8.84435e-06
0.000157099 -4.71861e-05 -4.71057e-05 -8.84434e-06
0.000261852 -7.85989e-05 -7.85369e-05 -5.30698e-06
0.000263865 -7.92037e-05 -7.91407e-05 -5.30699e-06
0.000157703 -4.73677e-05 -4.72866e-05 -8.84435e-06
0.000209475 -6.28935e-05 -6.28205e-05 -7.29684e-06
0.000262858 -7.89013e-05 -7.88388e-05 -5.30698e-06
0.000211085 -6.33774e-05 -6.33033e-05 -7.29685e-06
0.00021028 -6.31355e-05 -6.30619e-05 -7.29684e-06
0.000157099 -4.71861e-05 -4.71057e-05 -8.84434e-06
0.000155892 -4.68229e-05 -4.67438e-05 -8.84433e-06
0.000259838 -7.79942e-05 -7.79332e-05 -5.30697e-06
0.000261852 -7.85989e-05 -7.85369e-05 -5.30698e-06
0.000156496 -4.70045e-05 -4.69248e-05 -8.84434e-06
0.000207864 -6.24095e-05 -6.23377e-05 -7.29683e-06
0.000260845 -7.82966e-05 -7.82351e-05 -5.30697e-06
0.000209475 -6.28935e-05 -6.28205e-05 -7.29684e-06
0.000208669 -6.26515e-05 -6.25791e-05 -7.29683e-06
0.000155892 -4.68229e-05 -4.67438e-05 -8.84433e-06
0.000154684 -4.64597e-05 -4.6382e-05 -8.84432e-06
0.000257825 -7.73895e-05 -7.73294e-05 -5.30696e-06
0.000259838 -7.79942e-05 -7.79332e-05 -5.30697e-06
0.000155288 -4.66413e-05 -4.65629e-05 -8.84433e-06
0.000206254 -6.19255e-05 -6.18549e-05 -7.29682e-06
0.000258832 -7.76918e-05 -7.76313e-05 -5.30696e-06
0.000207864 -6.24095e-05 -6.23377e-05 -7.29683e-06
0.000207059 -6.21675e-05 -6.20963e-05 -7.29682e-06
0.000154684 -4.64597e-05 -4.6382e-05 -8.84432e-06
0.000153477 -4.60965e-05 -4.60201e-05 -8.84431e-06
0.000255811 -7.67848e-05 -7.67257e-05 -5.30695e-06
0.000257825 -7.73895e-05 -7.73294e-05 -5.30696e-06
0.000154081 -4.62781e-05 -4.6201e-05 -8.84432e-06
0.000204643 -6.14415e-05 -6.13721e-05 -7.29681e-06
0.000256818 -7.70871e-05 -7.70276e-05 -5.30695e-06
0.000206254 -6.19255e-05 -6.18549e-05 -7.29682e-06
0.000205448 -6.16835e-05 -6.16135e-05 -7.29681e-06
0.000153477 -4.60965e-05 -4.60201e-05 -8.84431e-06
0.000152269 -4.57333e-05 -4.56583e-05 -8.8443e-06
0.000253798 -7.618e-05 -7.6122e-05 -5.30694e-06
0.000255811 -7.67848e-05 -7.67257e-05 -5.30695e-06
0.000152873 -4.59149e-05 -4.58392e-05 -8.84431e-06
0.000203033 -6.09576e-05 -6.08893e-05 -7.2968e-06
0.000254805 -7.64824e-05 -7.64238e-05 -5.30695e-06
0.000204643 -6.14415e-05 -6.13721e-05 -7.29681e-06
0.000203838 -6.11996e-05 -6.11307e-05 -7.2968e-06
0.000152269 -4.57333e-05 -4.56583e-05 -8.8443e-06
0.000151062 -4.53701e-05 -4.52964e-05 -8.84429e-06
0.000251785 -7.55753e-05 -7.55182e-05 -5.30693e-06
0.000253798 -7.618e-05 -7.6122e-05 -5.30694e-06
0.000151665 -4.55517e-05 -4.54773e-05 -8.8443e-06
0.000201422 -6.04736e-05 -6.04065e-05 -7.29679e-06
0.000252791 -7.58777e-05 -7.58201e-05 -5.30694e-06
0.000203033 -6.09576e-05 -6.08893e-05 -7.2968e-06
0.000202227 -6.07156e-05 -6.06479e-05 -7.29679e-06
0.000151062 -4.53701e-05 -4.52964e-05 -8.84429e-06
0.000149854 -4.50069e-05 -4.49345e-05 -8.84428e-06
0.000249771 -7.49706e-05 -7.49145e-05 -5.30692e-06
0.000251785 -7.55753e-05 -7.55182e-05 -5.30693e-06
0.000150458 -4.51885e-05 -4.51155e-05 -8.84429e-06
0.000199812 -5.99896e-05 -5.99237e-05 -7.29678e-06
0.000250778 -7.5273e-05 -7.52163e-05 -5.30693e-06
0.000201422 -6.04736e-05 -6.04065e-05 -7.29679e-06
0.000200617 -6.02316e-05 -6.01651e-05 -7.29678e-06
0.000149854 -4.50069e-05 -4.49345e-05 -8.84428e-06
0.000148647 -4.46438e-05 -4.45726e-05 -8.84427e-06
0.000247758 -7.43659e-05 -7.43107e-05 -5.30691e-06
0.000249771 -7.49706e-05 -7.49145e-05 -5.30692e-06
0.00014925 -4.48253e-05 -4.47536e-05 -8.84428e-06
0.000198201 -5.95057e-05 -5.94409e-05 -7.29677e-06
0.000248764 -7.46683e-05 -7.46126e-05 -5.30692e-06
0.000199812 -5.99896e-05 -5.99237e-05 -7.29678e-06
0.000199006 -5.97477e-05 -5.96823e-05 -7.29677e-06
0.000148647 -4.46438e-05 -4.45726e-05 -8.84427e-06
0.000147439 -4.42806e-05 -4.42108e-05 -8.84426e-06
0.000245744 -7.37612e-05 -7.3707e-05 -5.30691e-06
0.000247758 -7.43659e-05 -7.43107e-05 -5.30691e-06
0.000148043 -4.44622e-05 -4.43917e-05 -8.84427e-06
0.000196591 -5.90217e-05 -5.89581e-05 -7.29676e-06
0.000246751 -7.40635e-05 -7.40088e-05 -5.30691e-06
0.000198201 -5.95057e-05 -5.94409e-05 -7.29677e-06
0.000197396 -5.92637e-05 -5.91995e-05 -7.29676e-06
0.000147439 -4.42806e-05 -4.42108e-05 -8.84426e-06
0.000146231 -4.39174e-05 -4.38489e-05 -8.84425e-06
0.000243731 -7.31565e-05 -7.31032e-05 -5.3069e-06
0.000245744 -7.37612e-05 -7.3707e-05 -5.30691e-06
0.000146835 -4.4099e-05 -4.40298e-05 -8.84426e-06
0.00019498 -5.85378e-05 -5.84753e-05 -7.29675e-06
0.000244737 -7.34588e-05 -7.34051e-05 -5.3069e-06
0.000196591 -5.90217e-05 -5.89581e-05 -7.29676e-06
0.000195785 -5.87797e-05 -5.87167e-05 -7.29675e-06
0.000146231 -4.39174e-05 -4.38489e-05 -8.84425e-06
0.000145024 -4.35542e-05 -4.3487e-05 -8.84424e-06
0.000241717 -7.25518e-05 -7.24995e-05 -5.30689e-06
0.000243731 -7.31565e-05 -7.31032e-05 -5.3069e-06
0.000145628 -4.37358e-05 -4.36679e-05 -8.84425e-06
0.00019337 -5.80538e-05 -5.79925e-05 -7.29674e-06
0.000242724 -7.28541e-05 -7.28013e-05 -5.30689e-06
0.00019498 -5.85378e-05 -5.84753e-05 -7.29675e-06
0.000194175 -5.82958e-05 -5.82339e-05 -7.29674e-06
0.000145024 -4.35542e-05 -4.3487e-05 -8.84424e-06
0.000143816 -4.31911e-05 -4.31251e-05 -8.84423e-06
0.000239704 -7.19471e-05 -7.18957e-05 -5.30688e-06
0.000241717 -7.25518e-05 -7.24995e-05 -5.30689e-06
0.00014442 -4.33727e-05 -4.3306e-05 -8.84424e-06
0.000191759 -5.75699e-05 -5.75097e-05 -7.29673e-06
0.00024071 -7.22494e-05 -7.21976e-05 -5.30688e-06
0.00019337 -5.80538e-05 -5.79925e-05 -7.29674e-06
0.000192564 -5.78118e-05 -5.77511e-05 -7.29673e-06
0.000143816 -4.31911e-05 -4.31251e-05 -8.84423e-06
0.000142609 -4.28279e-05 -4.27632e-05 -8.84422e-06
0.00023769 -7.13424e-05 -7.12919e-05 -5.30687e-06
0.000239704 -7.19471e-05 -7.18957e-05 -5.30688e-06
0.000143212 -4.30095e-05 -4.29441e-05 -8.84423e-06
0.000190149 -5.70859e-05 -5.70269e-05 -7.29672e-06
0.000238697 -7.16447e-05 -7.15938e-05 -5.30687e-06
0.000191759 -5.75699e-05 -5.75097e-05 -7.29673e-06
0.000190954 -5.73279e-05 -5.72683e-05 -7.29672e-06
0.000142609 -4.28279e-05 -4.27632e-05 -8.84422e-06
0.000141401 -4.24648e-05 -4.24013e-05 -8.84421e-06
0.000235677 -7.07377e-05 -7.06882e-05 -5.30686e-06
0.00023769 -7.13424e-05 -7.12919e-05 -5.30687e-06
0.000142005 -4.26463e-05 -4.25822e-05 -8.84422e-06
0.000188538 -5.6602e-05 -5.65441e-05 -7.29671e-06
0.000236683 -7.104e-05 -7.099e-05 -5.30687e-06
0.000190149 -5.70859e-05 -5.70269e-05 -7.29672e-06
0.000189343 -5.6844e-05 -5.67855e-05 -7.29671e-06
0.000141401 -4.24648e-05 -4.24013e-05 -8.84421e-06
0.000140193 -4.21016e-05 -4.20394e-05 -8.8442e-06
0.000233663 -7.0133e-05 -7.00844e-05 -5.30685e-06
0.000235677 -7.07377e-05 -7.06882e-05 -5.30686e-06
0.000140797 -4.22832e-05 -4.22203e-05 -8.84421e-06
0.000186928 -5.6118e-05 -5.60612e-05 -7.2967e-06
0.00023467 -7.04353e-05 -7.03863e-05 -5.30686e-06
0.000188538 -5.6602e-05 -5.65441e-05 -7.29671e-06
0.000187733 -5.636e-05 -5.63026e-05 -7.2967e-06
0.000140193 -4.21016e-05 -4.20394e-05 -8.8442e-06
0.000138986 -4.17384e-05 -4.16775e-05 -8.84419e-06
0.00023165 -6.95283e-05 -6.94806e-05 -5.30684e-06
0.000233663 -7.0133e-05 -7.00844e-05 -5.30685e-06
0.00013959 -4.192e-05 -4.18584e-05 -8.8442e-06
0.000185317 -5.56341e-05 -5.55784e-05 -7.29668e-06
0.000232656 -6.98306e-05 -6.97825e-05 -5.30685e-06
0.000186928 -5.6118e-05 -5.60612e-05 -7.2967e-06
0.000186122 -5.58761e-05 -5.58198e-05 -7.29669e-06
0.000138986 -4.17384e-05 -4.16775e-05 -8.84419e-06
0.000137778 -4.13753e-05 -4.13156e-05 -8.84418e-06
0.000229636 -6.89236e-05 -6.88768e-05 -5.30683e-06
0.00023165 -6.95283e-05 -6.94806e-05 -5.30684e-06
0.000138382 -4.15569e-05 -4.14965e-05 -8.84419e-06
0.000183706 -5.51502e-05 -5.50956e-05 -7.29667e-06
0.000230643 -6.92259e-05 -6.91787e-05 -5.30684e-06
0.000185317 -5.56341e-05 -5.55784e-05 -7.29668e-06
0.000184512 -5.53921e-05 -5.5337e-05 -7.29668e-06
0.000137778 -4.13753e-05 -4.13156e-05 -8.84418e-06
0.000136571 -4.10122e-05 -4.09536e-05 -8.84417e-06
0.000227623 -6.83189e-05 -6.82731e-05 -5.30683e-06
0.000229636 -6.89236e-05 -6.88768e-05 -5.30683e-06
0.000137174 -4.11937e-05 -4.11346e-05 -8.84418e-06
0.000182096 -5.46662e-05 -5.46127e-05 -7.29666e-06
0.000228629 -6.86212e-05 -6.8575e-05 -5.30683e-06
0.000183706 -5.51502e-05 -5.50956e-05 -7.29667e-06
0.000182901 -5.49082e-05 -5.48541e-05 -7.29667e-06
0.000136571 -4.10122e-05 -4.09536e-05 -8.84417e-06
0.000135363 -4.0649e-05 -4.05917e-05 -8.84416e-06
0.000225609 -6.77142e-05 -6.76693e-05 -5.30682e-06
0.000227623 -6.83189e-05 -6.82731e-05 -5.30683e-06
0.000135967 -4.08306e-05 -4.07727e-05 -8.84417e-06
0.000180485 -5.41823e-05 -5.41299e-05 -7.29665e-06
0.000226616 -6.80165e-05 -6.79712e-05 -5.30682e-06
0.000182096 -5.46662e-05 -5.46127e-05 -7.29666e-06
0.000181291 -5.44243e-05 -5.43713e-05 -7.29666e-06
0.000135363 -4.0649e-05 -4.05917e-05 -8.84416e-06
0.000134155 -4.02859e-05 -4.02298e-05 -8.84415e-06
0.000223596 -6.71095e-05 -6.70655e-05 -5.30681e-06
0.000225609 -6.77142e-05 -6.76693e-05 -5.30682e-06
0.000134759 -4.04675e-05 -4.04107e-05 -8.84416e-06
0.000178875 -5.36984e-05 -5.3647e-05 -7.29664e-06
0.000224602 -6.74118e-05 -6.73674e-05 -5.30681e-06
0.000180485 -5.41823e-05 -5.41299e-05 -7.29665e-06
0.00017968 -5.39403e-05 -5.38885e-05 -7.29665e-06
0.000134155 -4.02859e-05 -4.02298e-05 -8.84415e-06
0.000132948 -3.99228e-05 -3.98678e-05 -8.84414e-06
0.000221582 -6.65048e-05 -6.64617e-05 -5.3068e-06
0.000223596 -6.71095e-05 -6.70655e-05 -5.30681e-06
0.000133552 -4.01043e-05 -4.00488e-05 -8.84415e-06
0.000177264 -5.32145e-05 -5.31642e-05 -7.29663e-06
0.000222589 -6.68071e-05 -6.67636e-05 -5.3068e-06
0.000178875 -5.36984e-05 -5.3647e-05 -7.29664e-06
0.00017807 -5.34564e-05 -5.34056e-05 -7.29664e-06
0.000132948 -3.99228e-05 -3.98678e-05 -8.84414e-06
0.00013174 -3.95596e-05 -3.95059e-05 -8.84413e-06
0.000219569 -6.59001e-05 -6.58579e-05 -5.30679e-06
0.000221582 -6.65048e-05 -6.64617e-05 -5.3068e-06
0.000132344 -3.97412e-05 -3.96869e-05 -8.84414e-06
0.000175654 -5.27305e-05 -5.26813e-05 -7.29662e-06
0.000220575 -6.62025e-05 -6.61598e-05 -5.30679e-06
0.000177264 -5.32145e-05 -5.31642e-05 -7.29663e-06
0.000176459 -5.29725e-05 -5.29228e-05 -7.29663e-06
0.00013174 -3.95596e-05 -3.95059e-05 -8.84413e-06
0.000130532 -3.91965e-05 -3.9144e-05 -8.84412e-06
0.000217555 -6.52954e-05 -6.52541e-05 -5.30678e-06
0.000219569 -6.59001e-05 -6.58579e-05 -5.30679e-06
0.000131136 -3.93781e-05 -3.93249e-05 -8.84413e-06
0.000174043 -5.22466e-05 -5.21985e-05 -7.29661e-06
0.000218562 -6.55978e-05 -6.5556e-05 -5.30679e-06
0.000175654 -5.27305e-05 -5.26813e-05 -7.29662e-06
0.000174848 -5.24886e-05 -5.24399e-05 -7.29662e-06
0.000130532 -3.91965e-05 -3.9144e-05 -8.84412e-06
0.000129325 -3.88334e-05 -3.8782e-05 -8.84411e-06
0.000215542 -6.46907e-05 -6.46503e-05 -5.30677e-06
0.000217555 -6.52954e-05 -6.52541e-05 -5.30678e-06
0.000129929 -3.90149e-05 -3.8963e-05 -8.84412e-06
0.000172432 -5.17627e-05 -5.17156e-05 -7.2966e-06
0.000216548 -6.49931e-05 -6.49522e-05 -5.30678e-06
0.000174043 -5.22466e-05 -5.21985e-05 -7.29661e-06
0.000173238 -5.20047e-05 -5.1957e-05 -7.29661e-06
0.000129325 -3.88334e-05 -3.8782e-05 -8.84411e-06
0.000128117 -3.84703e-05 -3.84201e-05 -8.8441e-06
0.000213528 -6.40861e-05 -6.40465e-05 -5.30676e-06
0.000215542 -6.46907e-05 -6.46503e-05 -5.30677e-06
0.000128721 -3.86518e-05 -3.8601e-05 -8.84411e-06
0.000170822 -5.12788e-05 -5.12327e-05 -7.29659e-06
0.000214535 -6.43884e-05 -6.43484e-05 -5.30677e-06
0.000172432 -5.17627e-05 -5.17156e-05 -7.2966e-06
0.000171627 -5.15208e-05 -5.14742e-05 -7.2966e-06
0.000128117 -3.84703e-05 -3.84201e-05 -8.8441e-06
0.000126909 -3.81072e-05 -3.80581e-05 -8.84409e-06
0.000211514 -6.34814e-05 -6.34427e-05 -5.30675e-06
0.000213528 -6.40861e-05 -6.40465e-05 -5.30676e-06
0.000127513 -3.82887e-05 -3.82391e-05 -8.8441e-06
0.000169211 -5.07949e-05 -5.07499e-05 -7.29658e-06
0.000212521 -6.37837e-05 -6.37446e-05 -5.30676e-06
0.000170822 -5.12788e-05 -5.12327e-05 -7.29659e-06
0.000170017 -5.10369e-05 -5.09913e-05 -7.29659e-06
0.000126909 -3.81072e-05 -3.80581e-05 -8.84409e-06
0.000125702 -3.77441e-05 -3.76961e-05 -8.84408e-06
0.000209501 -6.28767e-05 -6.28389e-05 -5.30675e-06
0.000211514 -6.34814e-05 -6.34427e-05 -5.30675e-06
0.000126306 -3.79256e-05 -3.78771e-05 -8.84409e-06
0.000167601 -5.0311e-05 -5.0267e-05 -7.29657e-06
0.000210508 -6.31791e-05 -6.31408e-05 -5.30675e-06
0.000169211 -5.07949e-05 -5.07499e-05 -7.29658e-06
0.000168406 -5.0553e-05 -5.05084e-05 -7.29658e-06
0.000125702 -3.77441e-05 -3.76961e-05 -8.84408e-06
0.000124494 -3.7381e-05 -3.73342e-05 -8.84407e-06
0.000207487 -6.2272e-05 -6.22351e-05 -5.30674e-06
0.000209501 -6.28767e-05 -6.28389e-05 -5.30675e-06
0.000125098 -3.75625e-05 -3.75152e-05 -8.84408e-06
0.00016599 -4.98271e-05 -4.97841e-05 -7.29656e-06
0.000208494 -6.25744e-05 -6.2537e-05 -5.30674e-06
0.000167601 -5.0311e-05 -5.0267e-05 -7.29657e-06
0.000166795 -5.00691e-05 -5.00256e-05 -7.29657e-06
0.000124494 -3.7381e-05 -3.73342e-05 -8.84407e-06
0.000123286 -3.70179e-05 -3.69722e-05 -8.84406e-06
0.000205474 -6.16674e-05 -6.16313e-05 -5.30673e-06
0.000207487 -6.2272e-05 -6.22351e-05 -5.30674e-06
0.00012389 -3.71994e-05 -3.71532e-05 -8.84407e-06
0.000164379 -4.93432e-05 -4.93012e-05 -7.29655e-06
0.000206481 -6.19697e-05 -6.19332e-05 -5.30673e-06
0.00016599 -4.98271e-05 -4.97841e-05 -7.29656e-06
0.000165185 -4.95852e-05 -4.95427e-05 -7.29656e-06
0.000123286 -3.70179e-05 -3.69722e-05 -8.84406e-06
0.000122079 -3.66548e-05 -3.66102e-05 -8.84405e-06
0.00020346 -6.10627e-05 -6.10275e-05 -5.30672e-06
0.000205474 -6.16674e-05 -6.16313e-05 -5.30673e-06
0.000122682 -3.68363e-05 -3.67912e-05 -8.84406e-06
0.000162769 -4.88593e-05 -4.88184e-05 -7.29654e-06
0.000204467 -6.1365e-05 -6.13294e-05 -5.30672e-06
0.000164379 -4.93432e-05 -4.93012e-05 -7.29655e-06
0.000163574 -4.91013e-05 -4.90598e-05 -7.29655e-06
0.000122079 -3.66548e-05 -3.66102e-05 -8.84405e-06
0.000120871 -3.62917e-05 -3.62482e-05 -8.84404e-06
0.000201447 -6.0458e-05 -6.04237e-05 -5.30671e-06
0.00020346 -6.10627e-05 -6.10275e-05 -5.30672e-06
0.000121475 -3.64732e-05 -3.64292e-05 -8.84405e-06
0.000161158 -4.83754e-05 -4.83355e-05 -7.29653e-06
0.000202453 -6.07604e-05 -6.07256e-05 -5.30671e-06
0.000162769 -4.88593e-05 -4.88184e-05 -7.29654e-06
0.000161964 -4.86174e-05 -4.85769e-05 -7.29654e-06
0.000120871 -3.62917e-05 -3.62482e-05 -8.84404e-06
0.000119663 -3.59286e-05 -3.58863e-05 -8.84403e-06
0.000199433 -5.98534e-05 -5.98198e-05 -5.3067e-06
0.000201447 -6.0458e-05 -6.04237e-05 -5.30671e-06
0.000120267 -3.61101e-05 -3.60673e-05 -8.84404e-06
0.000159548 -4.78915e-05 -4.78526e-05 -7.29652e-06
0.00020044 -6.01557e-05 -6.01218e-05 -5.30671e-06
0.000161158 -4.83754e-05 -4.83355e-05 -7.29653e-06
0.000160353 -4.81335e-05 -4.8094e-05 -7.29653e-06
0.000119663 -3.59286e-05 -3.58863e-05 -8.84403e-06
0.000118455 -3.55655e-05 -3.55243e-05 -8.84402e-06
0.000197419 -5.92487e-05 -5.9216e-05 -5.30669e-06
0.000199433 -5.98534e-05 -5.98198e-05 -5.3067e-06
0.000119059 -3.5747e-05 -3.57053e-05 -8.84403e-06
0.000157937 -4.74077e-05 -4.73697e-05 -7.29651e-06
0.000198426 -5.95511e-05 -5.95179e-05 -5.3067e-06
0.000159548 -4.78915e-05 -4.78526e-05 -7.29652e-06
0.000158742 -4.76496e-05 -4.76111e-05 -7.29651e-06
0.000118455 -3.55655e-05 -3.55243e-05 -8.84402e-06
0.000117248 -3.52024e-05 -3.51623e-05 -8.84401e-06
0.000195406 -5.86441e-05 -5.86122e-05 -5.30668e-06
0.000197419 -5.92487e-05 -5.9216e-05 -5.30669e-06
0.000117852 -3.5384e-05 -3.53433e-05 -8.84402e-06
0.000156326 -4.69238e-05 -4.68868e-05 -7.2965e-06
0.000196413 -5.89464e-05 -5.89141e-05 -5.30669e-06
0.000157937 -4.74077e-05 -4.73697e-05 -7.29651e-06
0.000157132 -4.71657e-05 -4.71282e-05 -7.2965e-06
0.000117248 -3.52024e-05 -3.51623e-05 -8.84401e-06
0.00011604 -3.48393e-05 -3.48003e-05 -8.844e-06
0.000193392 -5.80394e-05 -5.80084e-05 -5.30667e-06
0.000195406 -5.86441e-05 -5.86122e-05 -5.30668e-06
0.000116644 -3.50209e-05 -3.49813e-05 -8.84401e-06
0.000154716 -4.64399e-05 -4.64039e-05 -7.29649e-06
0.000194399 -5.83417e-05 -5.83103e-05 -5.30668e-06
0.000156326 -4.69238e-05 -4.68868e-05 -7.2965e-06
0.000155521 -4.66818e-05 -4.66453e-05 -7.29649e-06
0.00011604 -3.48393e-05 -3.48003e-05 -8.844e-06
0.000114832 -3.44763e-05 -3.44383e-05 -8.84399e-06
0.000191379 -5.74348e-05 -5.74045e-05 -5.30667e-06
0.000193392 -5.80394e-05 -5.80084e-05 -5.30667e-06
0.000115436 -3.46578e-05 -3.46193e-05 -8.844e-06
0.000153105 -4.5956e-05 -4.5921e-05 -7.29648e-06
0.000192385 -5.77371e-05 -5.77065e-05 -5.30667e-06
0.000154716 -4.64399e-05 -4.64039e-05 -7.29649e-06
0.00015391 -4.6198e-05 -4.61624e-05 -7.29648e-06
0.000114832 -3.44763e-05 -3.44383e-05 -8.84399e-06
0.000113624 -3.41132e-05 -3.40763e-05 -8.84398e-06
0.000189365 -5.68301e-05 -5.68007e-05 -5.30666e-06
0.000191379 -5.74348e-05 -5.74045e-05 -5.30667e-06
0.000114228 -3.42947e-05 -3.42573e-05 -8.84399e-06
0.000151494 -4.54722e-05 -4.5438e-05 -7.29647e-06
0.000190372 -5.71324e-05 -5.71026e-05 -5.30666e-06
0.000153105 -4.5956e-05 -4.5921e-05 -7.29648e-06
0.0001523 -4.57141e-05 -4.56795e-05 -7.29647e-06
0.000113624 -3.41132e-05 -3.40763e-05 -8.84398e-06
0.000112417 -3.37502e-05 -3.37142e-05 -8.84397e-06
0.000187351 -5.62255e-05 -5.61969e-05 -5.30665e-06
0.000189365 -5.68301e-05 -5.68007e-05 -5.30666e-06
0.000113021 -3.39317e-05 -3.38952e-05 -8.84398e-06
0.000149884 -4.49883e-05 -4.49551e-05 -7.29646e-06
0.000188358 -5.65278e-05 -5.64988e-05 -5.30665e-06
0.000151494 -4.54722e-05 -4.5438e-05 -7.29647e-06
0.000150689 -4.52302e-05 -4.51966e-05 -7.29646e-06
0.000112417 -3.37502e-05 -3.37142e-05 -8.84397e-06
0.000111209 -3.33871e-05 -3.33522e-05 -8.84396e-06
0.000185338 -5.56208e-05 -5.5593e-05 -5.30664e-06
0.000187351 -5.62255e-05 -5.61969e-05 -5.30665e-06
0.000111813 -3.35686e-05 -3.35332e-05 -8.84397e-06
0.000148273 -4.45044e-05 -4.44722e-05 -7.29645e-06
0.000186345 -5.59231e-05 -5.58949e-05 -5.30664e-06
0.000149884 -4.49883e-05 -4.49551e-05 -7.29646e-06
0.000149078 -4.47464e-05 -4.47137e-05 -7.29645e-06
0.000111209 -3.33871e-05 -3.33522e-05 -8.84396e-06
0.000110001 -3.3024e-05 -3.29902e-05 -8.84395e-06
0.000183324 -5.50162e-05 -5.49892e-05 -5.30663e-06
0.000185338 -5.56208e-05 -5.5593e-05 -5.30664e-06
0.000110605 -3.32056e-05 -3.31712e-05 -8.84396e-06
0.000146662 -4.40206e-05 -4.39893e-05 -7.29644e-06
0.000184331 -5.53185e-05 -5.52911e-05 -5.30663e-06
0.000148273 -4.45044e-05 -4.44722e-05 -7.29645e-06
0.000147468 -4.42625e-05 -4.42307e-05 -7.29644e-06
0.000110001 -3.3024e-05 -3.29902e-05 -8.84395e-06
0.000108793 -3.2661e-05 -3.26282e-05 -8.84394e-06
0.000181311 -5.44115e-05 -5.43853e-05 -5.30662e-06
0.000183324 -5.50162e-05 -5.49892e-05 -5.30663e-06
0.000109397 -3.28425e-05 -3.28092e-05 -8.84395e-06
0.000145052 -4.35367e-05 -4.35063e-05 -7.29643e-06
0.000182317 -5.47138e-05 -5.46872e-05 -5.30663e-06
0.000146662 -4.40206e-05 -4.39893e-05 -7.29644e-06
0.000145857 -4.37786e-05 -4.37478e-05 -7.29643e-06
0.000108793 -3.2661e-05 -3.26282e-05 -8.84394e-06
0.000107586 -3.22979e-05 -3.22661e-05 -8.84393e-06
0.000179297 -5.38069e-05 -5.37815e-05 -5.30661e-06
0.000181311 -5.44115e-05 -5.43853e-05 -5.30662e-06
0.000108189 -3.24795e-05 -3.24471e-05 -8.84394e-06
0.000143441 -4.30529e-05 -4.30234e-05 -7.29642e-06
0.000180304 -5.41092e-05 -5.40834e-05 -5.30662e-06
0.000145052 -4.35367e-05 -4.35063e-05 -7.29643e-06
0.000144246 -4.32948e-05 -4.32649e-05 -7.29642e-06
0.000107586 -3.22979e-05 -3.22661e-05 -8.84393e-06
0.000106378 -3.19349e-05 -3.19041e-05 -8.84392e-06
0.000177283 -5.32023e-05 -5.31776e-05 -5.3066e-06
0.000179297 -5.38069e-05 -5.37815e-05 -5.30661e-06
0.000106982 -3.21164e-05 -3.20851e-05 -8.84393e-06
0.00014183 -4.2569e-05 -4.25405e-05 -7.29641e-06
0.00017829 -5.35046e-05 -5.34795e-05 -5.30661e-06
0.000143441 -4.30529e-05 -4.30234e-05 -7.29642e-06
0.000142635 -4.28109e-05 -4.27819e-05 -7.29641e-06
0.000106378 -3.19349e-05 -3.19041e-05 -8.84392e-06
0.00010517 -3.15719e-05 -3.1542e-05 -8.84391e-06
0.00017527 -5.25976e-05 -5.25738e-05 -5.30659e-06
0.000177283 -5.32023e-05 -5.31776e-05 -5.3066e-06
0.000105774 -3.17534e-05 -3.17231e-05 -8.84392e-06
0.000140219 -4.20852e-05 -4.20575e-05 -7.2964e-06
0.000176277 -5.28999e-05 -5.28757e-05 -5.3066e-06
0.00014183 -4.2569e-05 -4.25405e-05 -7.29641e-06
0.000141025 -4.23271e-05 -4.2299e-05 -7.2964e-06
0.00010517 -3.15719e-05 -3.1542e-05 -8.84391e-06
0.000103962 -3.12088e-05 -3.118e-05 -8.8439e-06
0.000173256 -5.1993e-05 -5.19699e-05 -5.30659e-06
0.00017527 -5.25976e-05 -5.25738e-05 -5.30659e-06
0.000104566 -3.13904e-05 -3.1361e-05 -8.84391e-06
0.000138609 -4.16013e-05 -4.15746e-05 -7.29639e-06
0.000174263 -5.22953e-05 -5.22718e-05 -5.30659e-06
0.000140219 -4.20852e-05 -4.20575e-05 -7.2964e-06
0.000139414 -4.18433e-05 -4.18161e-05 -7.29639e-06
0.000103962 -3.12088e-05 -3.118e-05 -8.8439e-06
0.000102754 -3.08458e-05 -3.08179e-05 -8.84389e-06
0.000171242 -5.13884e-05 -5.1366e-05 -5.30658e-06
0.000173256 -5.1993e-05 -5.19699e-05 -5.30659e-06
0.000103358 -3.10273e-05 -3.0999e-05 -8.8439e-06
0.000136998 -4.11175e-05 -4.10916e-05 -7.29638e-06
0.000172249 -5.16907e-05 -5.1668e-05 -5.30658e-06
0.000138609 -4.16013e-05 -4.15746e-05 -7.29639e-06
0.000137803 -4.13594e-05 -4.13331e-05 -7.29638e-06
0.000102754 -3.08458e-05 -3.08179e-05 -8.84389e-06
0.000101547 -3.04828e-05 -3.04559e-05 -8.84388e-06
0.000169229 -5.07837e-05 -5.07622e-05 -5.30657e-06
0.000171242 -5.13884e-05 -5.1366e-05 -5.30658e-06
0.00010215 -3.06643e-05 -3.06369e-05 -8.84389e-06
0.000135387 -4.06337e-05 -4.06087e-05 -7.29637e-06
0.000170236 -5.1086e-05 -5.10641e-05 -5.30657e-06
0.000136998 -4.11175e-05 -4.10916e-05 -7.29638e-06
0.000136193 -4.08756e-05 -4.08502e-05 -7.29637e-06
0.000101547 -3.04828e-05 -3.04559e-05 -8.84388e-06
0.000100339 -3.01198e-05 -3.00938e-05 -8.84387e-06
0.000167215 -5.01791e-05 -5.01583e-05 -5.30656e-06
0.000169229 -5.07837e-05 -5.07622e-05 -5.30657e-06
0.000100943 -3.03013e-05 -3.02749e-05 -8.84388e-06
0.000133777 -4.01498e-05 -4.01257e-05 -7.29636e-06
0.000168222 -5.04814e-05 -5.04602e-05 -5.30656e-06
0.000135387 -4.06337e-05 -4.06087e-05 -7.29637e-06
0.000134582 -4.03917e-05 -4.03672e-05 -7.29636e-06
0.000100339 -3.01198e-05 -3.00938e-05 -8.84387e-06
9.91308e-05 -2.97568e-05 -2.97318e-05 -8.84386e-06
0.000165201 -4.95745e-05 -4.95544e-05 -5.30655e-06
0.000167215 -5.01791e-05 -5.01583e-05 -5.30656e-06
9.97348e-05 -2.99383e-05 -2.99128e-05 -8.84387e-06
0.000132166 -3.9666e-05 -3.96428e-05 -7.29635e-06
0.000166208 -4.98768e-05 -4.98563e-05 -5.30656e-06
0.000133777 -4.01498e-05 -4.01257e-05 -7.29636e-06
0.000132971 -3.99079e-05 -3.98842e-05 -7.29635e-06
9.91308e-05 -2.97568e-05 -2.97318e-05 -8.84386e-06
9.7923e-05 -2.93937e-05 -2.93697e-05 -8.84385e-06
0.000163188 -4.89699e-05 -4.89505e-05 -5.30654e-06
0.000165201 -4.95745e-05 -4.95544e-05 -5.30655e-06
9.85269e-05 -2.95752e-05 -2.95507e-05 -8.84386e-06
0.000130555 -3.91822e-05 -3.91598e-05 -7.29634e-06
0.000164195 -4.92722e-05 -4.92525e-05 -5.30655e-06
0.000132166 -3.9666e-05 -3.96428e-05 -7.29635e-06
0.00013136 -3.94241e-05 -3.94013e-05 -7.29634e-06
9.7923e-05 -2.93937e-05 -2.93697e-05 -8.84385e-06
9.67151e-05 -2.90307e-05 -2.90076e-05 -8.84384e-06
0.000161174 -4.83653e-05 -4.83466e-05 -5.30653e-06
0.000163188 -4.89699e-05 -4.89505e-05 -5.30654e-06
9.73191e-05 -2.92122e-05 -2.91886e-05 -8.84385e-06
0.000128944 -3.86984e-05 -3.86768e-05 -7.29633e-06
0.000162181 -4.86676e-05 -4.86486e-05 -5.30654e-06
0.000130555 -3.91822e-05 -3.91598e-05 -7.29634e-06
0.00012975 -3.89403e-05 -3.89183e-05 -7.29633e-06
9.67151e-05 -2.90307e-05 -2.90076e-05 -8.84384e-06
9.55073e-05 -2.86677e-05 -2.86455e-05 -8.84383e-06
0.00015916 -4.77606e-05 -4.77428e-05 -5.30652e-06
0.000161174 -4.83653e-05 -4.83466e-05 -5.30653e-06
9.61112e-05 -2.88492e-05 -2.88266e-05 -8.84384e-06
0.000127333 -3.82145e-05 -3.81938e-05 -7.29632e-06
0.000160167 -4.8063e-05 -4.80447e-05 -5.30653e-06
0.000128944 -3.86984e-05 -3.86768e-05 -7.29633e-06
0.000128139 -3.84565e-05 -3.84353e-05 -7.29632e-06
9.55073e-05 -2.86677e-05 -2.86455e-05 -8.84383e-06
9.42994e-05 -2.83047e-05 -2.82834e-05 -8.84382e-06
0.000157147 -4.7156e-05 -4.71389e-05 -5.30652e-06
0.00015916 -4.77606e-05 -4.77428e-05 -5.30652e-06
9.49033e-05 -2.84862e-05 -2.84645e-05 -8.84383e-06
0.000125723 -3.77307e-05 -3.77109e-05 -7.29631e-06
0.000158154 -4.74583e-05 -4.74408e-05 -5.30652e-06
0.000127333 -3.82145e-05 -3.81938e-05 -7.29632e-06
0.000126528 -3.79726e-05 -3.79523e-05 -7.29631e-06
9.42994e-05 -2.83047e-05 -2.82834e-05 -8.84382e-06
9.30915e-05 -2.79417e-05 -2.79213e-05 -8.84381e-06
0.000155133 -4.65514e-05 -4.6535e-05 -5.30651e-06
0.000157147 -4.7156e-05 -4.71389e-05 -5.30652e-06
9.36955e-05 -2.81232e-05 -2.81024e-05 -8.84382e-06
0.000124112 -3.72469e-05 -3.72279e-05 -7.2963e-06
0.00015614 -4.68537e-05 -4.68369e-05 -5.30651e-06
0.000125723 -3.77307e-05 -3.77109e-05 -7.29631e-06
0.000124917 -3.74888e-05 -3.74694e-05 -7.2963e-06
9.30915e-05 -2.79417e-05 -2.79213e-05 -8.84381e-06
9.18836e-05 -2.75788e-05 -2.75592e-05 -8.8438e-06
0.000153119 -4.59468e-05 -4.59311e-05 -5.3065e-06
0.000155133 -4.65514e-05 -4.6535e-05 -5.30651e-06
9.24876e-05 -2.77603e-05 -2.77403e-05 -8.84381e-06
0.000122501 -3.67631e-05 -3.67449e-05 -7.29629e-06
0.000154126 -4.62491e-05 -4.6233e-05 -5.3065e-06
0.000124112 -3.72469e-05 -3.72279e-05 -7.2963e-06
0.000123307 -3.7005e-05 -3.69864e-05 -7.29629e-06
9.18836e-05 -2.75788e-05 -2.75592e-05 -8.8438e-06
9.06757e-05 -2.72158e-05 -2.71971e-05 -8.84379e-06
0.000151106 -4.53422e-05 -4.53272e-05 -5.30649e-06
0.000153119 -4.59468e-05 -4.59311e-05 -5.3065e-06
9.12797e-05 -2.73973e-05 -2.73782e-05 -8.8438e-06
0.00012089 -3.62793e-05 -3.62619e-05 -7.29628e-06
0.000152113 -4.56445e-05 -4.56291e-05 -5.30649e-06
0.000122501 -3.67631e-05 -3.67449e-05 -7.29629e-06
0.000121696 -3.65212e-05 -3.65034e-05 -7.29628e-06
9.06757e-05 -2.72158e-05 -2.71971e-05 -8.84379e-06
8.94678e-05 -2.68528e-05 -2.6835e-05 -8.84379e-06
0.000149092 -4.47376e-05 -4.47233e-05 -5.30648e-06
0.000151106 -4.53422e-05 -4.53272e-05 -5.30649e-06
9.00718e-05 -2.70343e-05 -2.70161e-05 -8.84379e-06
0.00011928 -3.57955e-05 -3.57789e-05 -7.29627e-06
0.000150099 -4.50399e-05 -4.50252e-05 -5.30649e-06
0.00012089 -3.62793e-05 -3.62619e-05 -7.29628e-06
0.000120085 -3.60374e-05 -3.60204e-05 -7.29627e-06
8.94678e-05 -2.68528e-05 -2.6835e-05 -8.84379e-06
8.82599e-05 -2.64898e-05 -2.64729e-05 -8.84378e-06
0.000147078 -4.4133e-05 -4.41194e-05 -5.30647e-06
0.000149092 -4.47376e-05 -4.47233e-05 -5.30648e-06
8.88639e-05 -2.66713e-05 -2.6654e-05 -8.84378e-06
0.000117669 -3.53117e-05 -3.52959e-05 -7.29626e-06
0.000148085 -4.44353e-05 -4.44213e-05 -5.30648e-06
0.00011928 -3.57955e-05 -3.57789e-05 -7.29627e-06
0.000118474 -3.55536e-05 -3.55374e-05 -7.29626e-06
8.82599e-05 -2.64898e-05 -2.64729e-05 -8.84378e-06
8.7052e-05 -2.61268e-05 -2.61108e-05 -8.84377e-06
0.000145065 -4.35284e-05 -4.35155e-05 -5.30646e-06
0.000147078 -4.4133e-05 -4.41194e-05 -5.30647e-06
8.7656e-05 -2.63083e-05 -2.62918e-05 -8.84377e-06
0.000116058 -3.48279e-05 -3.48129e-05 -7.29625e-06
0.000146071 -4.38307e-05 -4.38174e-05 -5.30647e-06
0.000117669 -3.53117e-05 -3.52959e-05 -7.29626e-06
0.000116863 -3.50698e-05 -3.50544e-05 -7.29625e-06
8.7052e-05 -2.61268e-05 -2.61108e-05 -8.84377e-06
8.58441e-05 -2.57639e-05 -2.57487e-05 -8.84376e-06
0.000143051 -4.29238e-05 -4.29116e-05 -5.30646e-06
0.000145065 -4.35284e-05 -4.35155e-05 -5.30646e-06
8.64481e-05 -2.59454e-05 -2.59297e-05 -8.84376e-06
0.000114447 -3.43441e-05 -3.43299e-05 -7.29624e-06
0.000144058 -4.32261e-05 -4.32135e-05 -5.30646e-06
0.000116058 -3.48279e-05 -3.48129e-05 -7.29625e-06
0.000115253 -3.4586e-05 -3.45714e-05 -7.29624e-06
8.58441e-05 -2.57639e-05 -2.57487e-05 -8.84376e-06
8.46362e-05 -2.54009e-05 -2.53865e-05 -8.84375e-06
0.000141037 -4.23193e-05 -4.23076e-05 -5.30645e-06
0.000143051 -4.29238e-05 -4.29116e-05 -5.30646e-06
8.52401e-05 -2.55824e-05 -2.55676e-05 -8.84375e-06
0.000112836 -3.38604e-05 -3.38468e-05 -7.29623e-06
0.000142044 -4.26215e-05 -4.26096e-05 -5.30645e-06
0.000114447 -3.43441e-05 -3.43299e-05 -7.29624e-06
0.000113642 -3.41023e-05 -3.40884e-05 -7.29623e-06
8.46362e-05 -2.54009e-05 -2.53865e-05 -8.84375e-06
8.34282e-05 -2.5038e-05 -2.50244e-05 -8.84374e-06
0.000139023 -4.17147e-05 -4.17037e-05 -5.30644e-06
0.000141037 -4.23193e-05 -4.23076e-05 -5.30645e-06
8.40322e-05 -2.52194e-05 -2.52055e-05 -8.84374e-06
0.000111226 -3.33766e-05 -3.33638e-05 -7.29622e-06
0.00014003 -4.2017e-05 -4.20057e-05 -5.30644e-06
0.000112836 -3.38604e-05 -3.38468e-05 -7.29623e-06
0.000112031 -3.36185e-05 -3.36053e-05 -7.29622e-06
8.34282e-05 -2.5038e-05 -2.50244e-05 -8.84374e-06
8.22203e-05 -2.4675e-05 -2.46623e-05 -8.84373e-06
0.00013701 -4.11101e-05 -4.10998e-05 -5.30643e-06
0.000139023 -4.17147e-05 -4.17037e-05 -5.30644e-06
8.28243e-05 -2.48565e-05 -2.48433e-05 -8.84373e-06
0.000109615 -3.28928e-05 -3.28808e-05 -7.29621e-06
0.000138016 -4.14124e-05 -4.14018e-05 -5.30643e-06
0.000111226 -3.33766e-05 -3.33638e-05 -7.29622e-06
0.00011042 -3.31347e-05 -3.31223e-05 -7.29621e-06
8.22203e-05 -2.4675e-05 -2.46623e-05 -8.84373e-06
8.10123e-05 -2.43121e-05 -2.43001e-05 -8.84372e-06
0.000134996 -4.05055e-05 -4.04959e-05 -5.30642e-06
0.00013701 -4.11101e-05 -4.10998e-05 -5.30643e-06
8.16163e-05 -2.44935e-05 -2.44812e-05 -8.84372e-06
0.000108004 -3.2409e-05 -3.23978e-05 -7.2962e-06
0.000136003 -4.08078e-05 -4.07978e-05 -5.30643e-06
0.000109615 -3.28928e-05 -3.28808e-05 -7.29621e-06
0.000108809 -3.26509e-05 -3.26393e-05 -7.2962e-06
8.10123e-05 -2.43121e-05 -2.43001e-05 -8.84372e-06
7.98044e-05 -2.39491e-05 -2.3938e-05 -8.84371e-06
0.000132982 -3.99009e-05 -3.98919e-05 -5.30641e-06
0.000134996 -4.05055e-05 -4.04959e-05 -5.30642e-06
8.04083e-05 -2.41306e-05 -2.4119e-05 -8.84371e-06
0.000106393 -3.19253e-05 -3.19147e-05 -7.29619e-06
0.000133989 -4.02032e-05 -4.01939e-05 -5.30642e-06
0.000108004 -3.2409e-05 -3.23978e-05 -7.2962e-06
0.000107198 -3.21672e-05 -3.21563e-05 -7.29619e-06
7.98044e-05 -2.39491e-05 -2.3938e-05 -8.84371e-06
7.85964e-05 -2.35862e-05 -2.35758e-05 -8.8437e-06
0.000130968 -3.92963e-05 -3.9288e-05 -5.3064e-06
0.000132982 -3.99009e-05 -3.98919e-05 -5.30641e-06
7.92004e-05 -2.37676e-05 -2.37569e-05 -8.8437e-06
0.000104782 -3.14415e-05 -3.14317e-05 -7.29618e-06
0.000131975 -3.95986e-05 -3.959e-05 -5.30641e-06
0.000106393 -3.19253e-05 -3.19147e-05 -7.29619e-06
0.000105588 -3.16834e-05 -3.16732e-05 -7.29618e-06
7.85964e-05 -2.35862e-05 -2.35758e-05 -8.8437e-06
7.73884e-05 -2.32232e-05 -2.32136e-05 -8.84369e-06
0.000128955 -3.86918e-05 -3.86841e-05 -5.3064e-06
0.000130968 -3.92963e-05 -3.9288e-05 -5.3064e-06
7.79924e-05 -2.34047e-05 -2.33947e-05 -8.84369e-06
0.000103171 -3.09577e-05 -3.09487e-05 -7.29617e-06
0.000129961 -3.89941e-05 -3.8986e-05 -5.3064e-06
0.000104782 -3.14415e-05 -3.14317e-05 -7.29618e-06
0.000103977 -3.11996e-05 -3.11902e-05 -7.29617e-06
7.73884e-05 -2.32232e-05 -2.32136e-05 -8.84369e-06
7.61804e-05 -2.28603e-05 -2.28515e-05 -8.84368e-06
0.000126941 -3.80872e-05 -3.80801e-05 -5.30639e-06
0.000128955 -3.86918e-05 -3.86841e-05 -5.3064e-06
7.67844e-05 -2.30418e-05 -2.30326e-05 -8.84369e-06
0.00010156 -3.0474e-05 -3.04656e-05 -7.29616e-06
0.000127948 -3.83895e-05 -3.83821e-05 -5.30639e-06
0.000103171 -3.09577e-05 -3.09487e-05 -7.29617e-06
0.000102366 -3.07159e-05 -3.07071e-05 -7.29616e-06
7.61804e-05 -2.28603e-05 -2.28515e-05 -8.84368e-06
7.49724e-05 -2.24974e-05 -2.24893e-05 -8.84367e-06
0.000124927 -3.74826e-05 -3.74762e-05 -5.30638e-06
0.000126941 -3.80872e-05 -3.80801e-05 -5.30639e-06
7.55764e-05 -2.26788e-05 -2.26704e-05 -8.84368e-06
9.99495e-05 -2.99902e-05 -2.99826e-05 -7.29615e-06
0.000125934 -3.77849e-05 -3.77781e-05 -5.30638e-06
0.00010156 -3.0474e-05 -3.04656e-05 -7.29616e-06
0.000100755 -3.02321e-05 -3.02241e-05 -7.29615e-06
7.49724e-05 -2.24974e-05 -2.24893e-05 -8.84367e-06
7.37644e-05 -2.21345e-05 -2.21271e-05 -8.84366e-06
0.000122913 -3.68781e-05 -3.68722e-05 -5.30637e-06
0.000124927 -3.74826e-05 -3.74762e-05 -5.30638e-06
7.43684e-05 -2.23159e-05 -2.23082e-05 -8.84367e-06
9.83386e-05 -2.95065e-05 -2.94995e-05 -7.29614e-06
0.00012392 -3.71804e-05 -3.71742e-05 -5.30637e-06
9.99495e-05 -2.99902e-05 -2.99826e-05 -7.29615e-06
9.91441e-05 -2.97484e-05 -2.9741e-05 -7.29615e-06
7.37644e-05 -2.21345e-05 -2.21271e-05 -8.84366e-06
7.25564e-05 -2.17715e-05 -2.1765e-05 -8.84365e-06
0.000120899 -3.62735e-05 -3.62683e-05 -5.30636e-06
0.000122913 -3.68781e-05 -3.68722e-05 -5.30637e-06
7.31604e-05 -2.1953e-05 -2.1946e-05 -8.84366e-06
9.67278e-05 -2.90227e-05 -2.90164e-05 -7.29613e-06
0.000121906 -3.65758e-05 -3.65703e-05 -5.30637e-06
9.83386e-05 -2.95065e-05 -2.94995e-05 -7.29614e-06
9.75332e-05 -2.92646e-05 -2.9258e-05 -7.29614e-06
7.25564e-05 -2.17715e-05 -2.1765e-05 -8.84365e-06
7.13484e-05 -2.14086e-05 -2.14028e-05 -8.84364e-06
0.000118886 -3.5669e-05 -3.56643e-05 -5.30635e-06
0.000120899 -3.62735e-05 -3.62683e-05 -5.30636e-06
7.19524e-05 -2.15901e-05 -2.15839e-05 -8.84365e-06
9.51169e-05 -2.8539e-05 -2.85334e-05 -7.29612e-06
0.000119893 -3.59712e-05 -3.59663e-05 -5.30636e-06
9.67278e-05 -2.90227e-05 -2.90164e-05 -7.29613e-06
9.59223e-05 -2.87809e-05 -2.87749e-05 -7.29613e-06
7.13484e-05 -2.14086e-05 -2.14028e-05 -8.84364e-06
7.01404e-05 -2.10457e-05 -2.10406e-05 -8.84363e-06
0.000116872 -3.50644e-05 -3.50604e-05 -5.30635e-06
0.000118886 -3.5669e-05 -3.56643e-05 -5.30635e-06
7.07444e-05 -2.12272e-05 -2.12217e-05 -8.84364e-06
9.3506e-05 -2.80553e-05 -2.80503e-05 -7.29611e-06
0.000117879 -3.53667e-05 -3.53623e-05 -5.30635e-06
9.51169e-05 -2.8539e-05 -2.85334e-05 -7.29612e-06
9.43114e-05 -2.82971e-05 -2.82918e-05 -7.29612e-06
7.01404e-05 -2.10457e-05 -2.10406e-05 -8.84363e-06
6.89324e-05 -2.06828e-05 -2.06784e-05 -8.84362e-06
0.000114858 -3.44598e-05 -3.44564e-05 -5.30634e-06
0.000116872 -3.50644e-05 -3.50604e-05 -5.30635e-06
6.95364e-05 -2.08643e-05 -2.08595e-05 -8.84363e-06
9.1895e-05 -2.75715e-05 -2.75672e-05 -7.2961e-06
0.000115865 -3.47621e-05 -3.47584e-05 -5.30634e-06
9.3506e-05 -2.80553e-05 -2.80503e-05 -7.29611e-06
9.27005e-05 -2.78134e-05 -2.78088e-05 -7.29611e-06
6.89324e-05 -2.06828e-05 -2.06784e-05 -8.84362e-06
6.77243e-05 -2.03199e-05 -2.03162e-05 -8.84362e-06
0.000112844 -3.38553e-05 -3.38524e-05 -5.30633e-06
0.000114858 -3.44598e-05 -3.44564e-05 -5.30634e-06
6.83284e-05 -2.05014e-05 -2.04973e-05 -8.84362e-06
9.02841e-05 -2.70878e-05 -2.70841e-05 -7.29609e-06
0.000113851 -3.41576e-05 -3.41544e-05 -5.30633e-06
9.1895e-05 -2.75715e-05 -2.75672e-05 -7.2961e-06
9.10896e-05 -2.73297e-05 -2.73257e-05 -7.2961e-06
6.77243e-05 -2.03199e-05 -2.03162e-05 -8.84362e-06
6.65163e-05 -1.9957e-05 -1.9954e-05 -8.84361e-06
0.00011083 -3.32507e-05 -3.32485e-05 -5.30632e-06
0.000112844 -3.38553e-05 -3.38524e-05 -5.30633e-06
6.71203e-05 -2.01385e-05 -2.01351e-05 -8.84361e-06
8.86732e-05 -2.66041e-05 -2.66011e-05 -7.29608e-06
0.000111837 -3.3553e-05 -3.35504e-05 -5.30632e-06
9.02841e-05 -2.70878e-05 -2.70841e-05 -7.29609e-06
8.94787e-05 -2.68459e-05 -2.68426e-05 -7.29609e-06
6.65163e-05 -1.9957e-05 -1.9954e-05 -8.84361e-06
6.53082e-05 -1.95941e-05 -1.95918e-05 -8.8436e-06
0.000108817 -3.26462e-05 -3.26445e-05 -5.30631e-06
0.00011083 -3.32507e-05 -3.32485e-05 -5.30632e-06
6.59123e-05 -1.97756e-05 -1.97729e-05 -8.8436e-06
8.70623e-05 -2.61203e-05 -2.6118e-05 -7.29607e-06
0.000109824 -3.29485e-05 -3.29465e-05 -5.30632e-06
8.86732e-05 -2.66041e-05 -2.66011e-05 -7.29608e-06
8.78677e-05 -2.63622e-05 -2.63595e-05 -7.29608e-06
6.53082e-05 -1.95941e-05 -1.95918e-05 -8.8436e-06
6.41002e-05 -1.92313e-05 -1.92295e-05 -8.84359e-06
0.000106803 -3.20417e-05 -3.20405e-05 -5.3063e-06
0.000108817 -3.26462e-05 -3.26445e-05 -5.30631e-06
6.47042e-05 -1.94127e-05 -1.94106e-05 -8.84359e-06
8.54513e-05 -2.56366e-05 -2.56349e-05 -7.29606e-06
0.00010781 -3.23439e-05 -3.23425e-05 -5.30631e-06
8.70623e-05 -2.61203e-05 -2.6118e-05 -7.29607e-06
8.62568e-05 -2.58785e-05 -2.58764e-05 -7.29607e-06
6.41002e-05 -1.92313e-05 -1.92295e-05 -8.84359e-06
6.28921e-05 -1.88684e-05 -1.88673e-05 -8.84358e-06
0.000104789 -3.14371e-05 -3.14365e-05 -5.3063e-06
0.000106803 -3.20417e-05 -3.20405e-05 -5.3063e-06
6.34961e-05 -1.90498e-05 -1.90484e-05 -8.84358e-06
8.38404e-05 -2.51529e-05 -2.51518e-05 -7.29605e-06
0.000105796 -3.17394e-05 -3.17385e-05 -5.3063e-06
8.54513e-05 -2.56366e-05 -2.56349e-05 -7.29606e-06
8.46459e-05 -2.53948e-05 -2.53933e-05 -7.29606e-06
6.28921e-05 -1.88684e-05 -1.88673e-05 -8.84358e-06
6.1684e-05 -1.85055e-05 -1.85051e-05 -8.84357e-06
0.000102775 -3.08326e-05 -3.08325e-05 -5.30629e-06
0.000104789 -3.14371e-05 -3.14365e-05 -5.3063e-06
6.22881e-05 -1.86869e-05 -1.86862e-05 -8.84357e-06
8.22295e-05 -2.46692e-05 -2.46687e-05 -7.29605e-06
0.000103782 -3.11349e-05 -3.11345e-05 -5.30629e-06
8.38404e-05 -2.51529e-05 -2.51518e-05 -7.29605e-06
8.30349e-05 -2.49111e-05 -2.49102e-05 -7.29605e-06
6.1684e-05 -1.85055e-05 -1.85051e-05 -8.84357e-06
6.04759e-05 -1.81426e-05 -1.81428e-05 -8.84356e-06
0.000100761 -3.02281e-05 -3.02286e-05 -5.30628e-06
0.000102775 -3.08326e-05 -3.08325e-05 -5.30629e-06
6.108e-05 -1.83241e-05 -1.8324e-05 -8.84357e-06
8.06185e-05 -2.41855e-05 -2.41856e-05 -7.29604e-06
0.000101768 -3.05303e-05 -3.05305e-05 -5.30628e-06
8.22295e-05 -2.46692e-05 -2.46687e-05 -7.29605e-06
8.1424e-05 -2.44273e-05 -2.44271e-05 -7.29604e-06
6.04759e-05 -1.81426e-05 -1.81428e-05 -8.84356e-06
5.92679e-05 -1.77798e-05 -1.77806e-05 -8.84355e-06
9.87475e-05 -2.96235e-05 -2.96246e-05 -5.30627e-06
0.000100761 -3.02281e-05 -3.02286e-05 -5.30628e-06
5.98719e-05 -1.79612e-05 -1.79617e-05 -8.84356e-06
7.90075e-05 -2.37018e-05 -2.37025e-05 -7.29603e-06
9.97544e-05 -2.99258e-05 -2.99266e-05 -5.30628e-06
8.06185e-05 -2.41855e-05 -2.41856e-05 -7.29604e-06
7.9813e-05 -2.39436e-05 -2.3944e-05 -7.29603e-06
5.92679e-05 -1.77798e-05 -1.77806e-05 -8.84355e-06
5.80598e-05 -1.74169e-05 -1.74184e-05 -8.84354e-06
9.67336e-05 -2.9019e-05 -2.90206e-05 -5.30626e-06
9.87475e-05 -2.96235e-05 -2.96246e-05 -5.30627e-06
5.86638e-05 -1.75983e-05 -1.75995e-05 -8.84355e-06
7.73966e-05 -2.32181e-05 -2.32194e-05 -7.29602e-06
9.77406e-05 -2.93213e-05 -2.93226e-05 -5.30627e-06
7.90075e-05 -2.37018e-05 -2.37025e-05 -7.29603e-06
7.82021e-05 -2.34599e-05 -2.34609e-05 -7.29602e-06
5.80598e-05 -1.74169e-05 -1.74184e-05 -8.84354e-06
5.68517e-05 -1.70541e-05 -1.70561e-05 -8.84353e-06
9.47198e-05 -2.84145e-05 -2.84166e-05 -5.30625e-06
9.67336e-05 -2.9019e-05 -2.90206e-05 -5.30626e-06
5.74557e-05 -1.72355e-05 -1.72372e-05 -8.84354e-06
7.57856e-05 -2.27344e-05 -2.27362e-05 -7.29601e-06
9.57267e-05 -2.87167e-05 -2.87186e-05 -5.30626e-06
7.73966e-05 -2.32181e-05 -2.32194e-05 -7.29602e-06
7.65911e-05 -2.29762e-05 -2.29778e-05 -7.29601e-06
5.68517e-05 -1.70541e-05 -1.70561e-05 -8.84353e-06
5.56435e-05 -1.66912e-05 -1.66939e-05 -8.84353e-06
9.27059e-05 -2.781e-05 -2.78126e-05 -5.30625e-06
9.47198e-05 -2.84145e-05 -2.84166e-05 -5.30625e-06
5.62476e-05 -1.68726e-05 -1.6875e-05 -8.84353e-06
7.41746e-05 -2.22507e-05 -2.22531e-05 -7.296e-06
9.37129e-05 -2.81122e-05 -2.81146e-05 -5.30625e-06
7.57856e-05 -2.27344e-05 -2.27362e-05 -7.29601e-06
7.49801e-05 -2.24925e-05 -2.24947e-05 -7.296e-06
5.56435e-05 -1.66912e-05 -1.66939e-05 -8.84353e-06
5.44354e-05 -1.63284e-05 -1.63316e-05 -8.84352e-06
9.06921e-05 -2.72054e-05 -2.72086e-05 -5.30624e-06
9.27059e-05 -2.781e-05 -2.78126e-05 -5.30625e-06
5.50395e-05 -1.65098e-05 -1.65127e-05 -8.84352e-06
7.25636e-05 -2.1767e-05 -2.177e-05 -7.29599e-06
9.1699e-05 -2.75077e-05 -2.75106e-05 -5.30624e-06
7.41746e-05 -2.22507e-05 -2.22531e-05 -7.296e-06
7.33691e-05 -2.20089e-05 -2.20115e-05 -7.29599e-06
5.44354e-05 -1.63284e-05 -1.63316e-05 -8.84352e-06
5.32273e-05 -1.59655e-05 -1.59693e-05 -8.84351e-06
8.86782e-05 -2.66009e-05 -2.66045e-05 -5.30623e-06
9.06921e-05 -2.72054e-05 -2.72086e-05 -5.30624e-06
5.38313e-05 -1.61469e-05 -1.61505e-05 -8.84351e-06
7.09526e-05 -2.12833e-05 -2.12868e-05 -7.29598e-06
8.96851e-05 -2.69032e-05 -2.69065e-05 -5.30623e-06
7.25636e-05 -2.1767e-05 -2.177e-05 -7.29599e-06
7.17581e-05 -2.15252e-05 -2.15284e-05 -7.29598e-06
5.32273e-05 -1.59655e-05 -1.59693e-05 -8.84351e-06
5.20191e-05 -1.56027e-05 -1.56071e-05 -8.8435e-06
8.66643e-05 -2.59964e-05 -2.60005e-05 -5.30622e-06
8.86782e-05 -2.66009e-05 -2.66045e-05 -5.30623e-06
5.26232e-05 -1.57841e-05 -1.57882e-05 -8.8435e-06
6.93416e-05 -2.07996e-05 -2.08037e-05 -7.29597e-06
8.76712e-05 -2.62987e-05 -2.63025e-05 -5.30623e-06
7.09526e-05 -2.12833e-05 -2.12868e-05 -7.29598e-06
7.01471e-05 -2.10415e-05 -2.10453e-05 -7.29598e-06
5.20191e-05 -1.56027e-05 -1.56071e-05 -8.8435e-06
5.0811e-05 -1.52398e-05 -1.52448e-05 -8.84349e-06
8.46504e-05 -2.53919e-05 -2.53965e-05 -5.30621e-06
8.66643e-05 -2.59964e-05 -2.60005e-05 -5.30622e-06
5.14151e-05 -1.54213e-05 -1.54259e-05 -8.84349e-06
6.77306e-05 -2.0316e-05 -2.03206e-05 -7.29596e-06
8.56574e-05 -2.56942e-05 -2.56985e-05 -5.30622e-06
6.93416e-05 -2.07996e-05 -2.08037e-05 -7.29597e-06
6.85361e-05 -2.05578e-05 -2.05621e-05 -7.29597e-06
5.0811e-05 -1.52398e-05 -1.52448e-05 -8.84349e-06
4.96028e-05 -1.4877e-05 -1.48825e-05 -8.84348e-06
8.26365e-05 -2.47874e-05 -2.47925e-05 -5.30621e-06
8.46504e-05 -2.53919e-05 -2.53965e-05 -5.30621e-06
5.02069e-05 -1.50584e-05 -1.50636e-05 -8.84349e-06
6.61196e-05 -1.98323e-05 -1.98374e-05 -7.29595e-06
8.36435e-05 -2.50896e-05 -2.50945e-05 -5.30621e-06
6.77306e-05 -2.0316e-05 -2.03206e-05 -7.29596e-06
6.69251e-05 -2.00741e-05 -2.0079e-05 -7.29596e-06
4.96028e-05 -1.4877e-05 -1.48825e-05 -8.84348e-06
4.83947e-05 -1.45142e-05 -1.45202e-05 -8.84347e-06
8.06226e-05 -2.41829e-05 -2.41885e-05 -5.3062e-06
8.26365e-05 -2.47874e-05 -2.47925e-05 -5.30621e-06
4.89988e-05 -1.46956e-05 -1.47014e-05 -8.84348e-06
6.45086e-05 -1.93486e-05 -1.93543e-05 -7.29594e-06
8.16296e-05 -2.44851e-05 -2.44905e-05 -5.3062e-06
6.61196e-05 -1.98323e-05 -1.98374e-05 -7.29595e-06
6.53141e-05 -1.95905e-05 -1.95958e-05 -7.29595e-06
4.83947e-05 -1.45142e-05 -1.45202e-05 -8.84347e-06
4.71865e-05 -1.41514e-05 -1.41579e-05 -8.84346e-06
7.86087e-05 -2.35784e-05 -2.35844e-05 -5.30619e-06
8.06226e-05 -2.41829e-05 -2.41885e-05 -5.3062e-06
4.77906e-05 -1.43328e-05 -1.43391e-05 -8.84347e-06
6.28975e-05 -1.8865e-05 -1.88711e-05 -7.29593e-06
7.96157e-05 -2.38806e-05 -2.38864e-05 -5.30619e-06
6.45086e-05 -1.93486e-05 -1.93543e-05 -7.29594e-06
6.3703e-05 -1.91068e-05 -1.91127e-05 -7.29594e-06
4.71865e-05 -1.41514e-05 -1.41579e-05 -8.84346e-06
4.59783e-05 -1.37886e-05 -1.37956e-05 -8.84346e-06
7.65948e-05 -2.29739e-05 -2.29804e-05 -5.30618e-06
7.86087e-05 -2.35784e-05 -2.35844e-05 -5.30619e-06
4.65824e-05 -1.397e-05 -1.39768e-05 -8.84346e-06
6.12865e-05 -1.83813e-05 -1.83879e-05 -7.29593e-06
7.76018e-05 -2.32761e-05 -2.32824e-05 -5.30619e-06
6.28975e-05 -1.8865e-05 -1.88711e-05 -7.29593e-06
6.2092e-05 -1.86231e-05 -1.86295e-05 -7.29593e-06
4.59783e-05 -1.37886e-05 -1.37956e-05 -8.84346e-06
4.47701e-05 -1.34257e-05 -1.34333e-05 -8.84345e-06
7.45809e-05 -2.23694e-05 -2.23764e-05 -5.30617e-06
7.65948e-05 -2.29739e-05 -2.29804e-05 -5.30618e-06
4.53742e-05 -1.36072e-05 -1.36145e-05 -8.84345e-06
5.96754e-05 -1.78976e-05 -1.79048e-05 -7.29592e-06
7.55879e-05 -2.26716e-05 -2.26784e-05 -5.30618e-06
6.12865e-05 -1.83813e-05 -1.83879e-05 -7.29593e-06
6.0481e-05 -1.81395e-05 -1.81464e-05 -7.29592e-06
4.47701e-05 -1.34257e-05 -1.34333e-05 -8.84345e-06
4.3562e-05 -1.30629e-05 -1.3071e-05 -8.84344e-06
7.2567e-05 -2.17649e-05 -2.17723e-05 -5.30617e-06
7.45809e-05 -2.23694e-05 -2.23764e-05 -5.30617e-06
4.41661e-05 -1.32443e-05 -1.32522e-05 -8.84344e-06
5.80644e-05 -1.7414e-05 -1.74216e-05 -7.29591e-06
7.35739e-05 -2.20671e-05 -2.20743e-05 -5.30617e-06
5.96754e-05 -1.78976e-05 -1.79048e-05 -7.29592e-06
5.88699e-05 -1.76558e-05 -1.76632e-05 -7.29591e-06
4.3562e-05 -1.30629e-05 -1.3071e-05 -8.84344e-06
4.23538e-05 -1.27001e-05 -1.27087e-05 -8.84343e-06
7.0553e-05 -2.11604e-05 -2.11683e-05 -5.30616e-06
7.2567e-05 -2.17649e-05 -2.17723e-05 -5.30617e-06
4.29579e-05 -1.28815e-05 -1.28898e-05 -8.84343e-06
5.64533e-05 -1.69303e-05 -1.69384e-05 -7.2959e-06
7.156e-05 -2.14627e-05 -2.14703e-05 -5.30616e-06
5.80644e-05 -1.7414e-05 -1.74216e-05 -7.29591e-06
5.72589e-05 -1.71722e-05 -1.718e-05 -7.2959e-06
4.23538e-05 -1.27001e-05 -1.27087e-05 -8.84343e-06
4.11455e-05 -1.23373e-05 -1.23464e-05 -8.84342e-06
6.85391e-05 -2.05559e-05 -2.05642e-05 -5.30615e-06
7.0553e-05 -2.11604e-05 -2.11683e-05 -5.30616e-06
4.17496e-05 -1.25187e-05 -1.25275e-05 -8.84343e-06
5.48423e-05 -1.64467e-05 -1.64552e-05 -7.29589e-06
6.95461e-05 -2.08582e-05 -2.08662e-05 -5.30615e-06
5.64533e-05 -1.69303e-05 -1.69384e-05 -7.2959e-06
5.56478e-05 -1.66885e-05 -1.66968e-05 -7.29589e-06
4.11455e-05 -1.23373e-05 -1.23464e-05 -8.84342e-06
3.99373e-05 -1.19746e-05 -1.1984e-05 -8.84341e-06
6.65252e-05 -1.99514e-05 -1.99602e-05 -5.30614e-06
6.85391e-05 -2.05559e-05 -2.05642e-05 -5.30615e-06
4.05414e-05 -1.2156e-05 -1.21652e-05 -8.84342e-06
5.32312e-05 -1.59631e-05 -1.59721e-05 -7.29588e-06
6.75321e-05 -2.02537e-05 -2.02622e-05 -5.30615e-06
5.48423e-05 -1.64467e-05 -1.64552e-05 -7.29589e-06
5.40367e-05 -1.62049e-05 -1.62136e-05 -7.29589e-06
3.99373e-05 -1.19746e-05 -1.1984e-05 -8.84341e-06
3.87291e-05 -1.16118e-05 -1.16217e-05 -8.84341e-06
6.45112e-05 -1.9347e-05 -1.93561e-05 -5.30613e-06
6.65252e-05 -1.99514e-05 -1.99602e-05 -5.30614e-06
3.93332e-05 -1.17932e-05 -1.18029e-05 -8.84341e-06
5.16201e-05 -1.54794e-05 -1.54889e-05 -7.29587e-06
6.55182e-05 -1.96492e-05 -1.96581e-05 -5.30614e-06
5.32312e-05 -1.59631e-05 -1.59721e-05 -7.29588e-06
5.24256e-05 -1.57212e-05 -1.57305e-05 -7.29588e-06
3.87291e-05 -1.16118e-05 -1.16217e-05 -8.84341e-06
3.75209e-05 -1.1249e-05 -1.12594e-05 -8.8434e-06
6.24973e-05 -1.87425e-05 -1.87521e-05 -5.30613e-06
6.45112e-05 -1.9347e-05 -1.93561e-05 -5.30613e-06
3.8125e-05 -1.14304e-05 -1.14405e-05 -8.8434e-06
5.0009e-05 -1.49958e-05 -1.50057e-05 -7.29586e-06
6.35043e-05 -1.90447e-05 -1.90541e-05 -5.30613e-06
5.16201e-05 -1.54794e-05 -1.54889e-05 -7.29587e-06
5.08146e-05 -1.52376e-05 -1.52473e-05 -7.29587e-06
3.75209e-05 -1.1249e-05 -1.12594e-05 -8.8434e-06
3.63126e-05 -1.08862e-05 -1.0897e-05 -8.84339e-06
6.04833e-05 -1.8138e-05 -1.8148e-05 -5.30612e-06
6.24973e-05 -1.87425e-05 -1.87521e-05 -5.30613e-06
3.69167e-05 -1.10676e-05 -1.10782e-05 -8.84339e-06
4.83979e-05 -1.45122e-05 -1.45225e-05 -7.29586e-06
6.14903e-05 -1.84402e-05 -1.845e-05 -5.30612e-06
5.0009e-05 -1.49958e-05 -1.50057e-05 -7.29586e-06
4.92035e-05 -1.4754e-05 -1.47641e-05 -7.29586e-06
3.63126e-05 -1.08862e-05 -1.0897e-05 -8.84339e-06
3.51044e-05 -1.05234e-05 -1.05347e-05 -8.84338e-06
5.84694e-05 -1.75335e-05 -1.75439e-05 -5.30611e-06
6.04833e-05 -1.8138e-05 -1.8148e-05 -5.30612e-06
3.57085e-05 -1.07048e-05 -1.07159e-05 -8.84339e-06
4.67868e-05 -1.40285e-05 -1.40393e-05 -7.29585e-06
5.94763e-05 -1.78358e-05 -1.7846e-05 -5.30612e-06
4.83979e-05 -1.45122e-05 -1.45225e-05 -7.29586e-06
4.75924e-05 -1.42704e-05 -1.42809e-05 -7.29585e-06
3.51044e-05 -1.05234e-05 -1.05347e-05 -8.84338e-06
3.38961e-05 -1.01607e-05 -1.01723e-05 -8.84337e-06
5.64554e-05 -1.69291e-05 -1.69398e-05 -5.30611e-06
5.84694e-05 -1.75335e-05 -1.75439e-05 -5.30611e-06
3.45003e-05 -1.03421e-05 -1.03535e-05 -8.84338e-06
4.51757e-05 -1.35449e-05 -1.3556e-05 -7.29584e-06
5.74624e-05 -1.72313e-05 -1.72419e-05 -5.30611e-06
4.67868e-05 -1.40285e-05 -1.40393e-05 -7.29585e-06
4.59813e-05 -1.37867e-05 -1.37977e-05 -7.29584e-06
3.38961e-05 -1.01607e-05 -1.01723e-05 -8.84337e-06
3.26879e-05 -9.79792e-06 -9.80997e-06 -8.84337e-06
5.44414e-05 -1.63246e-05 -1.63358e-05 -5.3061e-06
5.64554e-05 -1.69291e-05 -1.69398e-05 -5.30611e-06
3.3292e-05 -9.9793e-06 -9.99115e-06 -8.84337e-06
4.35646e-05 -1.30613e-05 -1.30728e-05 -7.29583e-06
5.54484e-05 -1.66268e-05 -1.66378e-05 -5.3061e-06
4.51757e-05 -1.35449e-05 -1.3556e-05 -7.29584e-06
4.43701e-05 -1.33031e-05 -1.33144e-05 -7.29584e-06
3.26879e-05 -9.79792e-06 -9.80997e-06 -8.84337e-06
3.14796e-05 -9.43517e-06 -9.44761e-06 -8.84336e-06
5.24274e-05 -1.57201e-05 -1.57317e-05 -5.30609e-06
5.44414e-05 -1.63246e-05 -1.63358e-05 -5.3061e-06
3.20837e-05 -9.61654e-06 -9.62879e-06 -8.84337e-06
4.19535e-05 -1.25777e-05 -1.25896e-05 -7.29583e-06
5.34344e-05 -1.60224e-05 -1.60337e-05 -5.3061e-06
4.35646e-05 -1.30613e-05 -1.30728e-05 -7.29583e-06
4.2759e-05 -1.28195e-05 -1.28312e-05 -7.29583e-06
3.14796e-05 -9.43517e-06 -9.44761e-06 -8.84336e-06
3.02713e-05 -9.07242e-06 -9.08524e-06 -8.84336e-06
5.04134e-05 -1.51157e-05 -1.51276e-05 -5.30609e-06
5.24274e-05 -1.57201e-05 -1.57317e-05 -5.30609e-06
3.08754e-05 -9.25379e-06 -9.26642e-06 -8.84336e-06
4.03423e-05 -1.20941e-05 -1.21064e-05 -7.29582e-06
5.14204e-05 -1.54179e-05 -1.54296e-05 -5.30609e-06
4.19535e-05 -1.25777e-05 -1.25896e-05 -7.29583e-06
4.11479e-05 -1.23359e-05 -1.2348e-05 -7.29582e-06
3.02713e-05 -9.07242e-06 -9.08524e-06 -8.84336e-06
2.9063e-05 -8.70968e-06 -8.72286e-06 -8.84335e-06
4.83994e-05 -1.45112e-05 -1.45235e-05 -5.30609e-06
5.04134e-05 -1.51157e-05 -1.51276e-05 -5.30609e-06
2.96672e-05 -8.89105e-06 -8.90405e-06 -8.84336e-06
3.87312e-05 -1.16105e-05 -1.16232e-05 -7.29582e-06
4.94064e-05 -1.48135e-05 -1.48256e-05 -5.30609e-06
4.03423e-05 -1.20941e-05 -1.21064e-05 -7.29582e-06
3.95368e-05 -1.18523e-05 -1.18648e-05 -7.29582e-06
2.9063e-05 -8.70968e-06 -8.72286e-06 -8.84335e-06
2.78547e-05 -8.34694e-06 -8.36048e-06 -8.84335e-06
4.63854e-05 -1.39068e-05 -1.39194e-05 -5.30609e-06
4.83994e-05 -1.45112e-05 -1.45235e-05 -5.30609e-06
2.84589e-05 -8.52831e-06 -8.54167e-06 -8.84335e-06
3.712e-05 -1.11269e-05 -1.11399e-05 -7.29582e-06
4.73924e-05 -1.4209e-05 -1.42215e-05 -5.30609e-06
3.87312e-05 -1.16105e-05 -1.16232e-05 -7.29582e-06
3.79256e-05 -1.13687e-05 -1.13815e-05 -7.29582e-06
2.78547e-05 -8.34694e-06 -8.36048e-06 -8.84335e-06
2.66464e-05 -7.98422e-06 -7.9981e-06 -8.84335e-06
4.43714e-05 -1.33023e-05 -1.33153e-05 -5.3061e-06
4.63854e-05 -1.39068e-05 -1.39194e-05 -5.30609e-06
2.72506e-05 -8.16558e-06 -8.17929e-06 -8.84335e-06
3.55089e-05 -1.06433e-05 -1.06567e-05 -7.29582e-06
4.53784e-05 -1.36046e-05 -1.36174e-05 -5.30609e-06
3.712e-05 -1.11269e-05 -1.11399e-05 -7.29582e-06
3.63145e-05 -1.08851e-05 -1.08983e-05 -7.29582e-06
2.66464e-05 -7.98422e-06 -7.9981e-06 -8.84335e-06
2.54382e-05 -7.62151e-06 -7.63571e-06 -8.84335e-06
4.23574e-05 -1.26979e-05 -1.27112e-05 -5.30611e-06
4.43714e-05 -1.33023e-05 -1.33153e-05 -5.3061e-06
2.60423e-05 -7.80286e-06 -7.8169e-06 -8.84335e-06
3.38978e-05 -1.01597e-05 -1.01734e-05 -7.29583e-06
4.33644e-05 -1.30001e-05 -1.30133e-05 -5.3061e-06
3.55089e-05 -1.06433e-05 -1.06567e-05 -7.29582e-06
3.47033e-05 -1.04015e-05 -1.04151e-05 -7.29583e-06
2.54382e-05 -7.62151e-06 -7.63571e-06 -8.84335e-06
2.42299e-05 -7.25881e-06 -7.27331e-06 -8.84334e-06
4.03434e-05 -1.20935e-05 -1.21071e-05 -5.30613e-06
4.23574e-05 -1.26979e-05 -1.27112e-05 -5.30611e-06
2.4834e-05 -7.44016e-06 -7.45451e-06 -8.84335e-06
3.22866e-05 -9.67617e-06 -9.69019e-06 -7.29585e-06
4.13504e-05 -1.23957e-05 -1.24092e-05 -5.30612e-06
3.38978e-05 -1.01597e-05 -1.01734e-05 -7.29583e-06
3.30922e-05 -9.91795e-06 -9.93182e-06 -7.29584e-06
2.42299e-05 -7.25881e-06 -7.27331e-06 -8.84334e-06
2.30216e-05 -6.89612e-06 -6.91092e-06 -8.84333e-06
3.83294e-05 -1.1489e-05 -1.1503e-05 -5.30617e-06
4.03434e-05 -1.20935e-05 -1.21071e-05 -5.30613e-06
2.36257e-05 -7.07746e-06 -7.09212e-06 -8.84334e-06
3.06755e-05 -9.19261e-06 -9.20694e-06 -7.29587e-06
3.93364e-05 -1.17912e-05 -1.18051e-05 -5.30615e-06
3.22866e-05 -9.67617e-06 -9.69019e-06 -7.29585e-06
3.1481e-05 -9.43439e-06 -9.44857e-06 -7.29586e-06
2.30216e-05 -6.89612e-06 -6.91092e-06 -8.84333e-06
2.18134e-05 -6.53343e-06 -6.54854e-06 -8.84331e-06
3.63153e-05 -1.08846e-05 -1.08989e-05 -5.30622e-06
3.83294e-05 -1.1489e-05 -1.1503e-05 -5.30617e-06
2.24175e-05 -6.71478e-06 -6.72973e-06 -8.84333e-06
2.90644e-05 -8.70907e-06 -8.7237e-06 -7.29588e-06
3.73224e-05 -1.11868e-05 -1.12009e-05 -5.30619e-06
3.06755e-05 -9.19261e-06 -9.20694e-06 -7.29587e-06
2.98699e-05 -8.95084e-06 -8.96532e-06 -7.29587e-06
2.18134e-05 -6.53343e-06 -6.54854e-06 -8.84331e-06
2.06051e-05 -6.1707e-06 -6.18618e-06 -8.84326e-06
3.43013e-05 -1.02802e-05 -1.02948e-05 -5.30626e-06
3.63153e-05 -1.08846e-05 -1.08989e-05 -5.30622e-06
2.12092e-05 -6.35208e-06 -6.36736e-06 -8.84329e-06
2.74533e-05 -8.2255e-06 -8.24048e-06 -7.29587e-06
3.53083e-05 -1.05824e-05 -1.05968e-05 -5.30624e-06
2.90644e-05 -8.70907e-06 -8.7237e-06 -7.29588e-06
2.82588e-05 -8.46729e-06 -8.48209e-06 -7.29588e-06
2.06051e-05 -6.1707e-06 -6.18618e-06 -8.84326e-06
1.93968e-05 -5.80784e-06 -5.82386e-06 -8.84315e-06
3.22874e-05 -9.67573e-06 -9.69071e-06 -5.30625e-06
3.43013e-05 -1.02802e-05 -1.02948e-05 -5.30626e-06
2.0001e-05 -5.9893e-06 -6.00501e-06 -8.84322e-06
2.58422e-05 -7.74185e-06 -7.7573e-06 -7.29578e-06
3.32944e-05 -9.97796e-06 -9.99274e-06 -5.30627e-06
2.74533e-05 -8.2255e-06 -8.24048e-06 -7.29587e-06
2.66477e-05 -7.9837e-06 -7.99888e-06 -7.29584e-06
1.93968e-05 -5.80784e-06 -5.82386e-06 -8.84315e-06
1.81884e-05 -5.44463e-06 -5.46161e-06 -8.84294e-06
3.02735e-05 -9.07117e-06 -9.08671e-06 -5.30605e-06
3.22874e-05 -9.67573e-06 -9.69071e-06 -5.30625e-06
1.87927e-05 -5.6263e-06 -5.64272e-06 -8.84306e-06
2.42311e-05 -7.25796e-06 -7.2742e-06 -7.29548e-06
3.12804e-05 -9.37347e-06 -9.38869e-06 -5.30619e-06
2.58422e-05 -7.74185e-06 -7.7573e-06 -7.29578e-06
2.50367e-05 -7.49996e-06 -7.51573e-06 -7.29567e-06
1.81884e-05 -5.44463e-06 -5.46161e-06 -8.84294e-06
1.69794e-05 -5.0806e-06 -5.0995e-06 -8.84252e-06
2.82597e-05 -8.46634e-06 -8.48286e-06 -5.30541e-06
3.02735e-05 -9.07117e-06 -9.08671e-06 -5.30605e-06
1.7584e-05 -5.26276e-06 -5.28052e-06 -8.84276e-06
2.26198e-05 -6.77347e-06 -6.79127e-06 -7.29471e-06
2.92666e-05 -8.76881e-06 -8.78476e-06 -5.30581e-06
2.42311e-05 -7.25796e-06 -7.2742e-06 -7.29548e-06
2.34255e-05 -7.01582e-06 -7.0327e-06 -7.29518e-06
1.69794e-05 -5.0806e-06 -5.0995e-06 -8.84252e-06
1.57691e-05 -4.71482e-06 -4.73755e-06 -8.84179e-06
2.62461e-05 -7.86093e-06 -7.87935e-06 -5.30363e-06
2.82597e-05 -8.46634e-06 -8.48286e-06 -5.30541e-06
1.63745e-05 -4.89802e-06 -4.91851e-06 -8.8422e-06
2.10078e-05 -6.28768e-06 -6.30861e-06 -7.29295e-06
2.72528e-05 -8.16374e-06 -8.18103e-06 -5.30472e-06
2.26198e-05 -6.77347e-06 -6.79127e-06 -7.29471e-06
2.18139e-05 -6.53082e-06 -6.54988e-06 -7.29402e-06
1.57691e-05 -4.71482e-06 -4.73755e-06 -8.84179e-06
1.45561e-05 -4.3455e-06 -4.37596e-06 -8.84045e-06
2.42324e-05 -7.25427e-06 -7.27636e-06 -5.29961e-06
2.62461e-05 -7.86093e-06 -7.87935e-06 -5.30363e-06
1.5163e-05 -4.53075e-06 -4.55667e-06 -8.84123e-06
1.93942e-05 -5.79913e-06 -5.82645e-06 -7.28915e-06
2.52393e-05 -7.55783e-06 -7.57778e-06 -5.30199e-06
2.10078e-05 -6.28768e-06 -6.30861e-06 -7.29295e-06
2.02013e-05 -6.04385e-06 -6.06746e-06 -7.29136e-06
1.45561e-05 -4.3455e-06 -4.37596e-06 -8.84045e-06
1.33366e-05 -3.96952e-06 -4.01446e-06 -8.83839e-06
2.22192e-05 -6.64511e-06 -6.6746e-06 -5.29069e-06
2.42324e-05 -7.25427e-06 -7.27636e-06 -5.29961e-06
1.39475e-05 -4.15865e-06 -4.19524e-06 -8.8395e-06
1.77771e-05 -5.30543e-06 -5.34499e-06 -7.28154e-06
2.32257e-05 -6.95009e-06 -6.97524e-06 -5.29603e-06
1.93942e-05 -5.79913e-06 -5.82645e-06 -7.28915e-06
1.85862e-05 -5.55322e-06 -5.58557e-06 -7.28606e-06
1.33366e-05 -3.96952e-06 -4.01446e-06 -8.83839e-06
1.21061e-05 -3.58129e-06 -3.65349e-06 -8.83493e-06
2.02047e-05 -6.03139e-06 -6.07428e-06 -5.27323e-06
2.22192e-05 -6.64511e-06 -6.6746e-06 -5.29069e-06
1.27229e-05 -3.77733e-06 -3.83382e-06 -8.83694e-06
1.61524e-05 -4.80166e-06 -4.86459e-06 -7.26698e-06
2.12124e-05 -6.3391e-06 -6.37428e-06 -5.28331e-06
1.77771e-05 -5.30543e-06 -5.34499e-06 -7.28154e-06
1.6966e-05 -5.05505e-06 -5.1047e-06 -7.27524e-06
1.21061e-05 -3.58129e-06 -3.65349e-06 -8.83493e-06
1.0852e-05 -3.17277e-06 -3.29109e-06 -8.83085e-06
1.81901e-05 -5.409e-06 -5.47763e-06 -5.23851e-06
2.02047e-05 -6.03139e-06 -6.07428e-06 -5.27323e-06
1.14834e-05 -3.3804e-06 -3.4727e-06 -8.8328e-06
1.45134e-05 -4.28142e-06 -4.38512e-06 -7.24062e-06
1.9197e-05 -5.72138e-06 -5.77526e-06 -5.25888e-06
1.61524e-05 -4.80166e-06 -4.86459e-06 -7.26698e-06
1.53351e-05 -4.54451e-06 -4.62456e-06 -7.25602e-06
1.0852e-05 -3.17277e-06 -3.29109e-06 -8.83085e-06
9.56218e-06 -2.73098e-06 -2.92765e-06 -8.82547e-06
1.61671e-05 -4.77318e-06 -4.88312e-06 -5.17773e-06
1.81901e-05 -5.409e-06 -5.47763e-06 -5.23851e-06
1.02116e-05 -2.95654e-06 -3.10933e-06 -8.82854e-06
1.28459e-05 -3.73144e-06 -3.90618e-06 -7.19584e-06
1.71812e-05 -5.09379e-06 -5.18032e-06 -5.21197e-06
1.45134e-05 -4.28142e-06 -4.38512e-06 -7.24062e-06
1.36845e-05 -4.01038e-06 -4.14604e-06 -7.22034e-06
9.56218e-06 -2.73098e-06 -2.92765e-06 -8.82547e-06
8.20333e-06 -2.24508e-06 -2.55353e-06 -8.82641e-06
1.41385e-05 -4.11215e-06 -4.297e-06 -5.06842e-06
1.61671e-05 -4.77318e-06 -4.88312e-06 -5.17773e-06
8.89544e-06 -2.49501e-06 -2.74304e-06 -8.82406e-06
1.11317e-05 -3.14183e-06 -3.42425e-06 -7.12513e-06
1.51517e-05 -4.44517e-06 -4.58849e-06 -5.13134e-06
1.28459e-05 -3.73144e-06 -3.90618e-06 -7.19584e-06
1.19956e-05 -3.44387e-06 -3.66503e-06 -7.16572e-06
8.20333e-06 -2.24508e-06 -2.55353e-06 -8.82641e-06
6.76094e-06 -1.7034e-06 -2.16752e-06 -8.83854e-06
1.20661e-05 -3.42296e-06 -3.7042e-06 -4.90197e-06
1.41385e-05 -4.11215e-06 -4.297e-06 -5.06842e-06
7.49032e-06 -1.97912e-06 -2.36194e-06 -8.8311e-06
9.32898e-06 -2.48834e-06 -2.93171e-06 -7.02829e-06
1.31144e-05 -3.77485e-06 -4.00265e-06 -4.99241e-06
1.11317e-05 -3.14183e-06 -3.42425e-06 -7.12513e-06
1.02457e-05 -2.821e-06 -3.18203e-06 -7.0765e-06
6.76094e-06 -1.7034e-06 -2.16752e-06 -8.83854e-06
5.18231e-06 -1.14381e-06 -1.73078e-06 -8.90358e-06
9.9525e-06 -2.67682e-06 -3.11815e-06 -4.64464e-06
1.20661e-05 -3.42296e-06 -3.7042e-06 -4.90197e-06
5.99749e-06 -1.42475e-06 -1.95975e-06 -8.85941e-06
7.4098e-06 -1.79458e-06 -2.40652e-06 -6.92289e-06
1.10075e-05 -3.05013e-06 -3.4103e-06 -4.78763e-06
9.32898e-06 -2.48834e-06 -2.93171e-06 -7.02829e-06
8.38313e-06 -2.14961e-06 -2.67151e-06 -6.98051e-06
5.18231e-06 -1.14381e-06 -1.73078e-06 -8.90358e-06
3.54516e-06 -6.58515e-07 -1.23713e-06 -9.05062e-06
7.64771e-06 -1.93397e-06 -2.44874e-06 -4.36743e-06
9.9525e-06 -2.67682e-06 -3.11815e-06 -4.64464e-06
4.35249e-06 -8.70571e-07 -1.49225e-06 -8.96561e-06
5.28403e-06 -1.08673e-06 -1.79884e-06 -6.89878e-06
8.84969e-06 -2.31726e-06 -2.79961e-06 -4.50078e-06
7.4098e-06 -1.79458e-06 -2.40652e-06 -6.92289e-06
6.38483e-06 -1.4225e-06 -2.12671e-06 -6.87868e-06
3.54516e-06 -6.58515e-07 -1.23713e-06 -9.05062e-06
1.95546e-06 -6.47783e-07 -5.60435e-07 -9.37819e-06
5.16583e-06 -1.19702e-06 -1.70092e-06 -4.18746e-06
7.64771e-06 -1.93397e-06 -2.44874e-06 -4.36743e-06
2.74969e-06 -5.68557e-07 -9.34771e-07 -9.18298e-06
3.07513e-06 -7.46768e-07 -9.9787e-07 -7.15002e-06
6.40145e-06 -1.51435e-06 -2.09447e-06 -4.24763e-06
5.28403e-06 -1.08673e-06 -1.79884e-06 -6.89878e-06
4.16245e-06 -8.48551e-07 -1.42024e-06 -6.9947e-06
1.95546e-06 -6.47783e-07 -5.60435e-07 -9.37819e-06
1.11308e-06 -1.82327e-06 3.04364e-07 -9.62998e-06
2.27945e-06 -1.26145e-06 -4.36287e-07 -4.89544e-06
5.16583e-06 -1.19702e-06 -1.70092e-06 -4.18746e-06
1.34807e-06 -9.81691e-07 -1.57018e-07 -9.55003e-06
1.05751e-06 -1.6224e-06 2.421e-07 -8.05432e-06
3.82908e-06 -1.11921e-06 -1.16137e-06 -4.35408e-06
3.07513e-06 -7.46768e-07 -9.9787e-07 -7.15002e-06
2.03563e-06 -8.81736e-07 -4.94527e-07 -7.4465e-06
1.11308e-06 -1.82327e-06 3.04364e-07 -9.62998e-06
1.53189e-06 -5.51307e-06 1.70622e-06 -8.85047e-06
9.24844e-07 -4.59122e-06 1.57131e-06 -7.50965e-06
2.27945e-06 -1.26145e-06 -4.36287e-07 -4.89544e-06
1.1934e-06 -3.38039e-06 9.37284e-07 -9.49323e-06
1.64871e-06 -6.26874e-06 1.98001e-06 -8.77724e-06
1.11277e-06 -1.89254e-06 3.3419e-07 -5.82757e-06
1.05751e-06 -1.6224e-06 2.421e-07 -8.05432e-06
7.31588e-07 -3.35531e-06 1.12445e-06 -8.67629e-06
1.53189e-06 -5.51307e-06 1.70622e-06 -8.85047e-06
2.78403e-06 -9.99531e-06 3.09055e-06 -4.68296e-06
6.36695e-06 -2.02629e-05 5.95539e-06 -7.61759e-06
9.24844e-07 -4.59122e-06 1.57131e-06 -7.50965e-06
2.07872e-06 -7.9191e-06 2.50302e-06 -7.31646e-06
5.07953e-06 -1.46498e-05 4.10154e-06 -4.42736e-06
2.4361e-06 -1.08195e-05 3.5929e-06 -8.86378e-06
1.64871e-06 -6.26874e-06 1.98001e-06 -8.77724e-06
3.27573e-06 -1.03086e-05 3.0141e-06 -7.60342e-06
0.000338091 2.22045e-16 -0.000144896 -1.94852e-05
0.000380598 -7.55019e-05 -0.000130756 -2.84043e-05
0.000530632 -0.0001682 -0.000155328 9.66142e-06
0.000744144 -1.11022e-16 -0.000318919 -0.000252917
0.000361928 -3.56416e-05 -0.000139837 -3.29494e-05
0.000481583 -0.000117013 -0.000156244 -3.67897e-05
0.000590282 -0.00018742 -0.000172655 -3.56808e-05
0.000397502 0 -0.000170358 -6.14291e-05
0.000464586 -7.91459e-05 -0.000165188 -5.76324e-05
0.000380598 -7.55019e-05 -0.000130756 -2.84043e-05
0.000395478 -0.000107163 -0.000123563 -1.35573e-05
0.000524264 -0.00016246 -0.000155059 3.01825e-06
0.000530632 -0.0001682 -0.000155328 9.66142e-06
0.000392362 -9.78327e-05 -0.000126227 -2.05062e-05
0.000470869 -0.000137289 -0.000142963 -6.21908e-06
0.000522756 -0.000155214 -0.000157518 4.25209e-06
0.000481583 -0.000117013 -0.000156244 -3.67897e-05
0.00047488 -0.0001326 -0.000146691 -1.49454e-05
0.000395478 -0.000107163 -0.000123563 -1.35573e-05
0.000393586 -0.000116061 -0.000118939 -5.06721e-06
0.000531634 -0.000157848 -0.000160194 1.40223e-06
0.000524264 -0.00016246 -0.000155059 3.01825e-06
0.000394401 -0.000112697 -0.00012073 -7.98756e-06
0.000465925 -0.000139727 -0.000139799 -6.66757e-07
0.000529207 -0.000162108 -0.000157328 3.05316e-06
0.000470869 -0.000137289 -0.000142963 -6.21908e-06
0.000468301 -0.000139038 -0.000141113 -3.03256e-06
0.000393586 -0.000116061 -0.000118939 -5.06721e-06
0.000390817 -0.000117295 -0.000117224 -3.16332e-06
0.000534657 -0.000160909 -0.000160178 -1.59073e-07
0.000531634 -0.000157848 -0.000160194 1.40223e-06
0.000392552 -0.000117249 -0.000117987 -3.78926e-06
0.000463202 -0.000139444 -0.000138753 1.48918e-07
0.000532974 -0.000158378 -0.000160541 -2.74469e-07
0.000465925 -0.000139727 -0.000139799 -6.66757e-07
0.000464104 -0.000139726 -0.000139019 3.82242e-07
0.000390817 -0.000117295 -0.000117224 -3.16332e-06
0.000387617 -0.000117104 -0.000115934 -3.06991e-06
0.000536208 -0.000160331 -0.00016109 1.08386e-07
0.000534657 -0.000160909 -0.000160178 -1.59073e-07
0.000388975 -0.000117239 -0.000116458 -2.92859e-06
0.000461843 -0.000139 -0.000138362 -6.61242e-07
0.000535971 -0.000161156 -0.000160635 2.69755e-07
0.000463202 -0.000139444 -0.000138753 1.48918e-07
0.000462641 -0.000139212 -0.000138613 -3.73806e-07
0.000387617 -0.000117104 -0.000115934 -3.06991e-06
0.000385187 -0.000116249 -0.000115259 -3.7064e-06
0.000535621 -0.000160789 -0.000160642 -9.8892e-08
0.000536208 -0.000160331 -0.00016109 1.08386e-07
0.000386452 -0.000116732 -0.000115594 -3.40415e-06
0.000460164 -0.000138397 -0.0001379 -1.41039e-06
0.00053591 -0.000160392 -0.000160936 -1.69591e-07
0.000461843 -0.000139 -0.000138362 -6.61242e-07
0.000460965 -0.00013872 -0.000138105 -9.93198e-07
0.000385187 -0.000116249 -0.000115259 -3.7064e-06
0.000382838 -0.000115412 -0.000114611 -4.24366e-06
0.000534317 -0.000160199 -0.000160336 5.3414e-09
0.000535621 -0.000160789 -0.000160642 -9.8892e-08
0.000383942 -0.000115814 -0.000114912 -3.97543e-06
0.000458382 -0.000137749 -0.000137414 -2.00225e-06
0.000535152 -0.000160632 -0.000160509 3.10439e-08
0.000460164 -0.000138397 -0.0001379 -1.41039e-06
0.000459336 -0.000138074 -0.000137684 -1.76291e-06
0.000382838 -0.000115412 -0.000114611 -4.24366e-06
0.000380729 -0.000114597 -0.000114057 -4.68289e-06
0.000532204 -0.000159707 -0.000159641 -3.21189e-08
0.000534317 -0.000160199 -0.000160336 5.3414e-09
0.000381794 -0.000115002 -0.000114339 -4.49207e-06
0.00045632 -0.000137065 -0.000136824 -2.38415e-06
0.00053328 -0.000159926 -0.000160009 -5.41934e-08
0.000458382 -0.000137749 -0.000137414 -2.00225e-06
0.000457357 -0.000137412 -0.000137119 -2.20643e-06
0.000380729 -0.000114597 -0.000114057 -4.68289e-06
0.000378645 -0.000113859 -0.00011348 -4.95062e-06
0.000529809 -0.000158951 -0.000158939 -3.83498e-09
0.000532204 -0.000159707 -0.000159641 -3.21189e-08
0.00037967 -0.000114218 -0.000113765 -4.82982e-06
0.000454138 -0.00013636 -0.00013619 -2.61134e-06
0.000531058 -0.000159362 -0.000159298 1.25216e-09
0.00045632 -0.000137065 -0.000136824 -2.38415e-06
0.000455253 -0.000136714 -0.000136517 -2.51781e-06
0.000378645 -0.000113859 -0.00011348 -4.95062e-06
0.000376617 -0.000113169 -0.000112906 -5.12009e-06
0.000527172 -0.000158189 -0.000158136 -8.97746e-09
0.000529809 -0.000158951 -0.000158939 -3.83498e-09
0.000377633 -0.00011351 -0.000113196 -5.04857e-06
0.000451839 -0.000135646 -0.000135511 -2.74243e-06
0.0005285 -0.000158566 -0.000158543 -1.57781e-08
0.000454138 -0.00013636 -0.00013619 -2.61134e-06
0.000452993 -0.000136004 -0.000135852 -2.68529e-06
0.000376617 -0.000113169 -0.000112906 -5.12009e-06
0.000374593 -0.000112517 -0.000112319 -5.2115e-06
0.000524449 -0.000157365 -0.000157322 -2.05467e-09
0.000527172 -0.000158189 -0.000158136 -8.97746e-09
0.000375602 -0.000112839 -0.000112613 -5.17206e-06
0.000449491 -0.000134925 -0.000134814 -2.81075e-06
0.000525823 -0.000157784 -0.000157731 -9.20835e-10
0.000451839 -0.000135646 -0.000135511 -2.74243e-06
0.000450673 -0.000135286 -0.000135166 -2.78281e-06
0.000374593 -0.000112517 -0.000112319 -5.2115e-06
0.000372581 -0.000111886 -0.000111726 -5.26225e-06
0.000521666 -0.000156535 -0.000156484 -2.19239e-09
0.000524449 -0.000157365 -0.000157322 -2.05467e-09
0.000373588 -0.000112199 -0.000112024 -5.24134e-06
0.000447105 -0.000134202 -0.000134102 -2.84665e-06
0.00052306 -0.00015695 -0.000156904 -4.1444e-09
0.000449491 -0.000134925 -0.000134814 -2.81075e-06
0.0004483 -0.000134563 -0.000134458 -2.83164e-06
0.000372581 -0.000111886 -0.000111726 -5.26225e-06
0.000370567 -0.000111267 -0.000111129 -5.28704e-06
0.000518862 -0.000155693 -0.000155644 -6.55034e-10
0.000521666 -0.000156535 -0.000156484 -2.19239e-09
0.000371573 -0.000111575 -0.000111428 -5.27671e-06
0.000444705 -0.000133477 -0.000133384 -2.8633e-06
0.000520266 -0.000156115 -0.000156065 -3.81243e-10
0.000447105 -0.000134202 -0.000134102 -2.84665e-06
0.000445907 -0.000133839 -0.000133744 -2.85665e-06
0.000370567 -0.000111267 -0.000111129 -5.28704e-06
0.000368556 -0.000110656 -0.000110528 -5.29932e-06
0.000516046 -0.000154849 -0.000154799 -4.45603e-10
0.000518862 -0.000155693 -0.000155644 -6.55034e-10
0.000369562 -0.000110961 -0.000110829 -5.29441e-06
0.000442295 -0.000132751 -0.000132662 -2.87108e-06
0.000517455 -0.000155271 -0.000155222 -9.45931e-10
0.000444705 -0.000133477 -0.000133384 -2.8633e-06
0.000443501 -0.000133114 -0.000133023 -2.86796e-06
0.000368556 -0.000110656 -0.000110528 -5.29932e-06
0.000366543 -0.000110048 -0.000109926 -5.30461e-06
0.000513227 -0.000154002 -0.000153953 -1.49537e-10
0.000516046 -0.000154849 -0.000154799 -4.45603e-10
0.000367549 -0.000110352 -0.000110228 -5.30249e-06
0.000439882 -0.000132026 -0.000131938 -2.87411e-06
0.000514637 -0.000154426 -0.000154376 -7.78881e-11
0.000442295 -0.000132751 -0.000132662 -2.87108e-06
0.000441089 -0.000132389 -0.0001323 -2.87296e-06
0.000366543 -0.000110048 -0.000109926 -5.30461e-06
0.000364531 -0.000109442 -0.000109324 -5.30683e-06
0.000510407 -0.000153156 -0.000153107 -6.3075e-11
0.000513227 -0.000154002 -0.000153953 -1.49537e-10
0.000365537 -0.000109745 -0.000109625 -5.30599e-06
0.000437466 -0.0001313 -0.000131214 -2.87522e-06
0.000511817 -0.000153579 -0.00015353 -1.73475e-10
0.000439882 -0.000132026 -0.000131938 -2.87411e-06
0.000438674 -0.000131663 -0.000131576 -2.87481e-06
0.000364531 -0.000109442 -0.000109324 -5.30683e-06
0.000362518 -0.000108837 -0.00010872 -5.30756e-06
0.000507586 -0.00015231 -0.000152261 -2.09895e-11
0.000510407 -0.000153156 -0.000153107 -6.3075e-11
0.000363524 -0.000109139 -0.000109022 -5.3073e-06
0.00043505 -0.000130575 -0.000130489 -2.87544e-06
0.000508997 -0.000152733 -0.000152684 -4.23401e-13
0.000437466 -0.0001313 -0.000131214 -2.87522e-06
0.000436258 -0.000130938 -0.000130852 -2.87539e-06
0.000362518 -0.000108837 -0.00010872 -5.30756e-06
0.000360505 -0.000108232 -0.000108117 -5.30773e-06
0.000504766 -0.000151463 -0.000151415 1.35322e-13
0.000507586 -0.00015231 -0.000152261 -2.09895e-11
0.000361511 -0.000108534 -0.000108419 -5.30769e-06
0.000432634 -0.000129849 -0.000129765 -2.8754e-06
0.000506176 -0.000151887 -0.000151838 -1.93298e-11
0.00043505 -0.000130575 -0.000130489 -2.87544e-06
0.000433842 -0.000130212 -0.000130127 -2.87543e-06
0.000360505 -0.000108232 -0.000108117 -5.30773e-06
0.000358492 -0.000107627 -0.000107513 -5.30768e-06
0.000501946 -0.000150617 -0.00015057 6.18755e-13
0.000504766 -0.000151463 -0.000151415 1.35322e-13
0.000359498 -0.00010793 -0.000107815 -5.30772e-06
0.000430217 -0.000129124 -0.00012904 -2.87527e-06
0.000503356 -0.00015104 -0.000150993 6.9508e-12
0.000432634 -0.000129849 -0.000129765 -2.8754e-06
0.000431425 -0.000129487 -0.000129402 -2.87534e-06
0.000358492 -0.000107627 -0.000107513 -5.30768e-06
0.000356479 -0.000107022 -0.00010691 -5.3076e-06
0.000499126 -0.000149771 -0.000149724 3.57925e-12
0.000501946 -0.000150617 -0.00015057 6.18755e-13
0.000357485 -0.000107325 -0.000107212 -5.30764e-06
0.000427801 -0.000128399 -0.000128315 -2.87516e-06
0.000500536 -0.000150194 -0.000150147 1.54698e-12
0.000430217 -0.000129124 -0.00012904 -2.87527e-06
0.000429009 -0.000128761 -0.000128678 -2.87522e-06
0.000356479 -0.000107022 -0.00010691 -5.3076e-06
0.000354465 -0.000106418 -0.000106306 -5.30751e-06
0.000496307 -0.000148925 -0.000148878 9.16852e-13
0.000499126 -0.000149771 -0.000149724 3.57925e-12
0.000355472 -0.00010672 -0.000106608 -5.30755e-06
0.000425384 -0.000127673 -0.000127591 -2.87508e-06
0.000497717 -0.000149348 -0.000149301 2.89346e-12
0.000427801 -0.000128399 -0.000128315 -2.87516e-06
0.000426593 -0.000128036 -0.000127953 -2.87512e-06
0.000354465 -0.000106418 -0.000106306 -5.30751e-06
0.000352452 -0.000105813 -0.000105703 -5.30745e-06
0.000493487 -0.000148079 -0.000148032 7.05466e-13
0.000496307 -0.000148925 -0.000148878 9.16852e-13
0.000353459 -0.000106115 -0.000106004 -5.30748e-06
0.000422968 -0.000126948 -0.000126866 -2.87503e-06
0.000494897 -0.000148502 -0.000148455 9.77332e-13
0.000425384 -0.000127673 -0.000127591 -2.87508e-06
0.000424176 -0.00012731 -0.000127228 -2.87505e-06
0.000352452 -0.000105813 -0.000105703 -5.30745e-06
0.000350439 -0.000105208 -0.000105099 -5.30741e-06
0.000490668 -0.000147233 -0.000147186 -6.23461e-13
0.000493487 -0.000148079 -0.000148032 7.05466e-13
0.000351446 -0.000105511 -0.000105401 -5.30743e-06
0.000420552 -0.000126222 -0.000126141 -2.87499e-06
0.000492078 -0.000147656 -0.000147609 -3.01451e-14
0.000422968 -0.000126948 -0.000126866 -2.87503e-06
0.00042176 -0.000126585 -0.000126504 -2.87501e-06
0.000350439 -0.000105208 -0.000105099 -5.30741e-06
0.000348426 -0.000104603 -0.000104495 -5.30738e-06
0.000487848 -0.000146387 -0.000146341 -9.20964e-13
0.000490668 -0.000147233 -0.000147186 -6.23461e-13
0.000349432 -0.000104906 -0.000104797 -5.30739e-06
0.000418135 -0.000125497 -0.000125417 -2.87497e-06
0.000489258 -0.00014681 -0.000146764 -6.87664e-13
0.000420552 -0.000126222 -0.000126141 -2.87499e-06
0.000419343 -0.000125859 -0.000125779 -2.87498e-06
0.000348426 -0.000104603 -0.000104495 -5.30738e-06
0.000346412 -0.000103999 -0.000103892 -5.30736e-06
0.000485029 -0.000145541 -0.000145495 -1.37372e-12
0.000487848 -0.000146387 -0.000146341 -9.21866e-13
0.000347419 -0.000104301 -0.000104193 -5.30737e-06
0.000415719 -0.000124771 -0.000124692 -2.87496e-06
0.000486439 -0.000145964 -0.000145918 -1.22029e-12
0.000418135 -0.000125497 -0.000125417 -2.87497e-06
0.000416927 -0.000125134 -0.000125054 -2.87496e-06
0.000346412 -0.000103999 -0.000103892 -5.30736e-06
0.000344399 -0.000103394 -0.000103288 -5.30734e-06
0.000482209 -0.000144694 -0.000144649 -1.49515e-12
0.000485029 -0.000145541 -0.000145495 -1.37372e-12
0.000345406 -0.000103696 -0.00010359 -5.30735e-06
0.000413303 -0.000124046 -0.000123967 -2.87494e-06
0.000483619 -0.000145117 -0.000145072 -1.41396e-12
0.000415719 -0.000124771 -0.000124692 -2.87496e-06
0.000414511 -0.000124409 -0.00012433 -2.87495e-06
0.000344399 -0.000103394 -0.000103288 -5.30734e-06
0.000342386 -0.000102789 -0.000102684 -5.30733e-06
0.00047939 -0.000143848 -0.000143804 -1.61623e-12
0.000482209 -0.000144694 -0.000144649 -1.49515e-12
0.000343393 -0.000103092 -0.000102986 -5.30734e-06
0.000410886 -0.00012332 -0.000123243 -2.87494e-06
0.0004808 -0.000144271 -0.000144226 -1.58289e-12
0.000413303 -0.000124046 -0.000123967 -2.87494e-06
0.000412094 -0.000123683 -0.000123605 -2.87494e-06
0.000342386 -0.000102789 -0.000102684 -5.30733e-06
0.000340373 -0.000102184 -0.000102081 -5.30732e-06
0.000476571 -0.000143002 -0.000142958 -1.64466e-12
0.00047939 -0.000143848 -0.000143804 -1.61623e-12
0.000341379 -0.000102487 -0.000102383 -5.30732e-06
0.00040847 -0.000122595 -0.000122518 -2.87493e-06
0.00047798 -0.000143425 -0.000143381 -1.62704e-12
0.000410886 -0.00012332 -0.000123243 -2.87494e-06
0.000409678 -0.000122958 -0.00012288 -2.87493e-06
0.000340373 -0.000102184 -0.000102081 -5.30732e-06
0.000338359 -0.00010158 -0.000101477 -5.30731e-06
0.000473751 -0.000142156 -0.000142112 -1.66757e-12
0.000476571 -0.000143002 -0.000142958 -1.6513e-12
0.000339366 -0.000101882 -0.000101779 -5.30731e-06
0.000406054 -0.000121869 -0.000121793 -2.87492e-06
0.000475161 -0.000142579 -0.000142535 -1.659e-12
0.00040847 -0.000122595 -0.000122518 -2.87493e-06
0.000407262 -0.000122232 -0.000122156 -2.87493e-06
0.000338359 -0.00010158 -0.000101477 -5.30731e-06
0.000336346 -0.000100975 -0.000100873 -5.3073e-06
0.000470932 -0.00014131 -0.000141266 -1.66747e-12
0.000473751 -0.000142156 -0.000142112 -1.66757e-12
0.000337353 -0.000101277 -0.000101175 -5.3073e-06
0.000403637 -0.000121144 -0.000121069 -2.87492e-06
0.000472341 -0.000141733 -0.000141689 -1.66479e-12
0.000406054 -0.000121869 -0.000121793 -2.87492e-06
0.000404845 -0.000121507 -0.000121431 -2.87492e-06
0.000336346 -0.000100975 -0.000100873 -5.3073e-06
0.000334333 -0.00010037 -0.00010027 -5.30729e-06
0.000468112 -0.000140464 -0.000140421 -1.66095e-12
0.000470932 -0.00014131 -0.000141266 -1.66747e-12
0.000335339 -0.000100672 -0.000100572 -5.30729e-06
0.000401221 -0.000120419 -0.000120344 -2.87491e-06
0.000469522 -0.000140887 -0.000140844 -1.66354e-12
0.000403637 -0.000121144 -0.000121069 -2.87492e-06
0.000402429 -0.000120781 -0.000120706 -2.87491e-06
0.000334333 -0.00010037 -0.00010027 -5.30729e-06
0.000332319 -9.97653e-05 -9.96661e-05 -5.30728e-06
0.000465293 -0.000139618 -0.000139575 -1.65688e-12
0.000468112 -0.000140464 -0.000140421 -1.66095e-12
0.000333326 -0.000100068 -9.99679e-05 -5.30729e-06
0.000398805 -0.000119693 -0.000119619 -2.8749e-06
0.000466702 -0.000140041 -0.000139998 -1.66019e-12
0.000401221 -0.000120419 -0.000120344 -2.87491e-06
0.000400013 -0.000120056 -0.000119982 -2.87491e-06
0.000332319 -9.97653e-05 -9.96661e-05 -5.30728e-06
0.000330306 -9.91605e-05 -9.90624e-05 -5.30727e-06
0.000462473 -0.000138772 -0.000138729 -1.64866e-12
0.000465293 -0.000139618 -0.000139575 -1.65984e-12
0.000331313 -9.94629e-05 -9.93643e-05 -5.30728e-06
0.000396388 -0.000118968 -0.000118895 -2.8749e-06
0.000463883 -0.000139195 -0.000139152 -1.6546e-12
0.000398805 -0.000119693 -0.000119619 -2.8749e-06
0.000397596 -0.00011933 -0.000119257 -2.8749e-06
0.000330306 -9.91605e-05 -9.90624e-05 -5.30727e-06
0.000328293 -9.85557e-05 -9.84588e-05 -5.30726e-06
0.000459654 -0.000137926 -0.000137883 -1.64088e-12
0.000462473 -0.000138772 -0.000138729 -1.64866e-12
0.0003293 -9.88581e-05 -9.87606e-05 -5.30727e-06
0.000393972 -0.000118242 -0.00011817 -2.87489e-06
0.000461064 -0.000138349 -0.000138306 -1.64024e-12
0.000396388 -0.000118968 -0.000118895 -2.8749e-06
0.00039518 -0.000118605 -0.000118532 -2.8749e-06
0.000328293 -9.85557e-05 -9.84588e-05 -5.30726e-06
0.00032628 -9.79509e-05 -9.78551e-05 -5.30725e-06
0.000456834 -0.00013708 -0.000137038 -1.62477e-12
0.000459654 -0.000137926 -0.000137883 -1.63459e-12
0.000327286 -9.82533e-05 -9.8157e-05 -5.30726e-06
0.000391556 -0.000117517 -0.000117445 -2.87489e-06
0.000458244 -0.000137503 -0.000137461 -1.63738e-12
0.000393972 -0.000118242 -0.00011817 -2.87489e-06
0.000392764 -0.00011788 -0.000117807 -2.87489e-06
0.00032628 -9.79509e-05 -9.78551e-05 -5.30725e-06
0.000324266 -9.73462e-05 -9.72515e-05 -5.30725e-06
0.000454015 -0.000136234 -0.000136192 -1.61803e-12
0.000456834 -0.00013708 -0.000137038 -1.62477e-12
0.000325273 -9.76486e-05 -9.75533e-05 -5.30725e-06
0.000389139 -0.000116791 -0.00011672 -2.87488e-06
0.000455425 -0.000136657 -0.000136615 -1.62364e-12
0.000391556 -0.000117517 -0.000117445 -2.87489e-06
0.000390347 -0.000117154 -0.000117083 -2.87489e-06
0.000324266 -9.73462e-05 -9.72515e-05 -5.30725e-06
0.000322253 -9.67414e-05 -9.66478e-05 -5.30724e-06
0.000451196 -0.000135388 -0.000135346 -1.60523e-12
0.000454015 -0.000136234 -0.000136192 -1.62099e-12
0.00032326 -9.70438e-05 -9.69496e-05 -5.30724e-06
0.000386723 -0.000116066 -0.000115996 -2.87488e-06
0.000452605 -0.000135811 -0.000135769 -1.60779e-12
0.000389139 -0.000116791 -0.00011672 -2.87488e-06
0.000387931 -0.000116429 -0.000116358 -2.87488e-06
0.000322253 -9.67414e-05 -9.66478e-05 -5.30724e-06
0.00032024 -9.61366e-05 -9.60441e-05 -5.30723e-06
0.000448376 -0.000134541 -0.000134501 -1.59576e-12
0.000451196 -0.000135388 -0.000135346 -1.60523e-12
0.000321246 -9.6439e-05 -9.6346e-05 -5.30723e-06
0.000384306 -0.00011534 -0.000115271 -2.87487e-06
0.000449786 -0.000134964 -0.000134923 -1.61526e-12
0.000386723 -0.000116066 -0.000115996 -2.87488e-06
0.000385515 -0.000115703 -0.000115633 -2.87487e-06
0.00032024 -9.61366e-05 -9.60441e-05 -5.30723e-06
0.000318226 -9.55319e-05 -9.54405e-05 -5.30722e-06
0.000445557 -0.000133695 -0.000133655 -1.59757e-12
0.000448376 -0.000134541 -0.000134501 -1.59161e-12
0.000319233 -9.58343e-05 -9.57423e-05 -5.30722e-06
0.00038189 -0.000114615 -0.000114546 -2.87487e-06
0.000446966 -0.000134118 -0.000134078 -1.60024e-12
0.000384306 -0.00011534 -0.000115271 -2.87487e-06
0.000383098 -0.000114978 -0.000114909 -2.87487e-06
0.000318226 -9.55319e-05 -9.54405e-05 -5.30722e-06
0.000316213 -9.49271e-05 -9.48368e-05 -5.30721e-06
0.000442737 -0.000132849 -0.000132809 -1.5754e-12
0.000445557 -0.000133695 -0.000133655 -1.59757e-12
0.00031722 -9.52295e-05 -9.51386e-05 -5.30722e-06
0.000379474 -0.00011389 -0.000113822 -2.87486e-06
0.000444147 -0.000133272 -0.000133232 -1.58515e-12
0.00038189 -0.000114615 -0.000114546 -2.87487e-06
0.000380682 -0.000114252 -0.000114184 -2.87486e-06
0.000316213 -9.49271e-05 -9.48368e-05 -5.30721e-06
0.0003142 -9.43223e-05 -9.42331e-05 -5.3072e-06
0.000439918 -0.000132003 -0.000131963 -1.56784e-12
0.000442737 -0.000132849 -0.000132809 -1.5754e-12
0.000315206 -9.46247e-05 -9.4535e-05 -5.30721e-06
0.000377057 -0.000113164 -0.000113097 -2.87486e-06
0.000441328 -0.000132426 -0.000132386 -1.56119e-12
0.000379474 -0.00011389 -0.000113822 -2.87486e-06
0.000378266 -0.000113527 -0.000113459 -2.87486e-06
0.0003142 -9.43223e-05 -9.42331e-05 -5.3072e-06
0.000312186 -9.37176e-05 -9.36295e-05 -5.30719e-06
0.000437098 -0.000131157 -0.000131118 -1.55414e-12
0.000439918 -0.000132003 -0.000131963 -1.57413e-12
0.000313193 -9.402e-05 -9.39313e-05 -5.3072e-06
0.000374641 -0.000112439 -0.000112372 -2.87485e-06
0.000438508 -0.00013158 -0.000131541 -1.56565e-12
0.000377057 -0.000113164 -0.000113097 -2.87486e-06
0.000375849 -0.000112801 -0.000112735 -2.87485e-06
0.000312186 -9.37176e-05 -9.36295e-05 -5.30719e-06
0.000310173 -9.31128e-05 -9.30258e-05 -5.30719e-06
0.000434279 -0.000130311 -0.000130272 -1.54372e-12
0.000437098 -0.000131157 -0.000131118 -1.55414e-12
0.00031118 -9.34152e-05 -9.33276e-05 -5.30719e-06
0.000372225 -0.000111713 -0.000111648 -2.87484e-06
0.000435689 -0.000130734 -0.000130695 -1.54779e-12
0.000374641 -0.000112439 -0.000112372 -2.87485e-06
0.000373433 -0.000112076 -0.00011201 -2.87485e-06
0.000310173 -9.31128e-05 -9.30258e-05 -5.30719e-06
0.00030816 -9.25081e-05 -9.24221e-05 -5.30718e-06
0.000431459 -0.000129465 -0.000129426 -1.53158e-12
0.000434279 -0.000130311 -0.000130272 -1.55e-12
0.000309166 -9.28104e-05 -9.2724e-05 -5.30718e-06
0.000369808 -0.000110988 -0.000110923 -2.87484e-06
0.000432869 -0.000129888 -0.000129849 -1.532e-12
0.000372225 -0.000111713 -0.000111648 -2.87484e-06
0.000371016 -0.00011135 -0.000111285 -2.87484e-06
0.00030816 -9.25081e-05 -9.24221e-05 -5.30718e-06
0.000306146 -9.19033e-05 -9.18184e-05 -5.30717e-06
0.00042864 -0.000128619 -0.000128581 -1.52908e-12
0.000431459 -0.000129465 -0.000129426 -1.53158e-12
0.000307153 -9.22057e-05 -9.21203e-05 -5.30717e-06
0.000367392 -0.000110262 -0.000110198 -2.87483e-06
0.00043005 -0.000129042 -0.000129003 -1.51401e-12
0.000369808 -0.000110988 -0.000110923 -2.87484e-06
0.0003686 -0.000110625 -0.000110561 -2.87484e-06
0.000306146 -9.19033e-05 -9.18184e-05 -5.30717e-06
0.000304133 -9.12985e-05 -9.12148e-05 -5.30716e-06
0.000425821 -0.000127773 -0.000127735 -1.50868e-12
0.00042864 -0.000128619 -0.000128581 -1.51629e-12
0.00030514 -9.16009e-05 -9.15166e-05 -5.30716e-06
0.000364975 -0.000109537 -0.000109474 -2.87483e-06
0.00042723 -0.000128196 -0.000128158 -1.51548e-12
0.000367392 -0.000110262 -0.000110198 -2.87483e-06
0.000366184 -0.0001099 -0.000109836 -2.87483e-06
0.000304133 -9.12985e-05 -9.12148e-05 -5.30716e-06
0.00030212 -9.06938e-05 -9.06111e-05 -5.30715e-06
0.000423001 -0.000126926 -0.000126889 -1.50197e-12
0.000425821 -0.000127773 -0.000127735 -1.50868e-12
0.000303126 -9.09962e-05 -9.09129e-05 -5.30716e-06
0.000362559 -0.000108811 -0.000108749 -2.87482e-06
0.000424411 -0.00012735 -0.000127312 -1.49939e-12
0.000364975 -0.000109537 -0.000109474 -2.87483e-06
0.000363767 -0.000109174 -0.000109111 -2.87483e-06
0.00030212 -9.06938e-05 -9.06111e-05 -5.30715e-06
0.000300106 -9.0089e-05 -9.00074e-05 -5.30714e-06
0.000420182 -0.00012608 -0.000126043 -1.47825e-12
0.000423001 -0.000126926 -0.000126889 -1.49497e-12
0.000301113 -9.03914e-05 -9.03092e-05 -5.30715e-06
0.000360143 -0.000108086 -0.000108024 -2.87482e-06
0.000421591 -0.000126503 -0.000126466 -1.49726e-12
0.000362559 -0.000108811 -0.000108749 -2.87482e-06
0.000361351 -0.000108449 -0.000108387 -2.87482e-06
0.000300106 -9.0089e-05 -9.00074e-05 -5.30714e-06
0.000298093 -8.94843e-05 -8.94037e-05 -5.30713e-06
0.000417362 -0.000125234 -0.000125198 -1.4674e-12
0.000420182 -0.00012608 -0.000126043 -1.47825e-12
0.0002991 -8.97866e-05 -8.97055e-05 -5.30714e-06
0.000357726 -0.000107361 -0.0001073 -2.87481e-06
0.000418772 -0.000125657 -0.000125621 -1.46878e-12
0.000360143 -0.000108086 -0.000108024 -2.87482e-06
0.000358935 -0.000107723 -0.000107662 -2.87481e-06
0.000298093 -8.94843e-05 -8.94037e-05 -5.30713e-06
0.00029608 -8.88795e-05 -8.88e-05 -5.30713e-06
0.000414543 -0.000124388 -0.000124352 -1.47064e-12
0.000417362 -0.000125234 -0.000125198 -1.46113e-12
0.000297086 -8.91819e-05 -8.91019e-05 -5.30713e-06
0.00035531 -0.000106635 -0.000106575 -2.87481e-06
0.000415952 -0.000124811 -0.000124775 -1.47063e-12
0.000357726 -0.000107361 -0.0001073 -2.87481e-06
0.000356518 -0.000106998 -0.000106937 -2.87481e-06
0.00029608 -8.88795e-05 -8.88e-05 -5.30713e-06
0.000294066 -8.82748e-05 -8.81963e-05 -5.30712e-06
0.000411723 -0.000123542 -0.000123506 -1.4551e-12
0.000414543 -0.000124388 -0.000124352 -1.47064e-12
0.000295073 -8.85771e-05 -8.84982e-05 -5.30712e-06
0.000352894 -0.00010591 -0.00010585 -2.8748e-06
0.000413133 -0.000123965 -0.000123929 -1.46423e-12
0.00035531 -0.000106635 -0.000106575 -2.87481e-06
0.000354102 -0.000106272 -0.000106213 -2.8748e-06
0.000294066 -8.82748e-05 -8.81963e-05 -5.30712e-06
0.000292053 -8.767e-05 -8.75926e-05 -5.30711e-06
0.000408904 -0.000122696 -0.000122661 -1.42851e-12
0.000411723 -0.000123542 -0.000123506 -1.4551e-12
0.000293059 -8.79724e-05 -8.78945e-05 -5.30711e-06
0.000350477 -0.000105184 -0.000105126 -2.8748e-06
0.000410314 -0.000123119 -0.000123083 -1.43833e-12
0.000352894 -0.00010591 -0.00010585 -2.8748e-06
0.000351685 -0.000105547 -0.000105488 -2.8748e-06
0.000292053 -8.767e-05 -8.75926e-05 -5.30711e-06
0.000290039 -8.70653e-05 -8.69889e-05 -5.3071e-06
0.000406084 -0.00012185 -0.000121815 -1.43325e-12
0.000408904 -0.000122696 -0.000122661 -1.42389e-12
0.000291046 -8.73676e-05 -8.72908e-05 -5.3071e-06
0.000348061 -0.000104459 -0.000104401 -2.87479e-06
0.000407494 -0.000122273 -0.000122238 -1.43276e-12
0.000350477 -0.000105184 -0.000105126 -2.8748e-06
0.000349269 -0.000104821 -0.000104763 -2.87479e-06
0.000290039 -8.70653e-05 -8.69889e-05 -5.3071e-06
0.000288026 -8.64605e-05 -8.63852e-05 -5.30709e-06
0.000403265 -0.000121004 -0.000120969 -1.4283e-12
0.000406084 -0.00012185 -0.000121815 -1.43527e-12
0.000289033 -8.67629e-05 -8.66871e-05 -5.3071e-06
0.000345644 -0.000103733 -0.000103676 -2.87478e-06
0.000404675 -0.000121427 -0.000121392 -1.43159e-12
0.000348061 -0.000104459 -0.000104401 -2.87479e-06
0.000346853 -0.000104096 -0.000104039 -2.87479e-06
0.000288026 -8.64605e-05 -8.63852e-05 -5.30709e-06
0.000286013 -8.58558e-05 -8.57815e-05 -5.30708e-06
0.000400445 -0.000120158 -0.000120123 -1.39822e-12
0.000403265 -0.000121004 -0.000120969 -1.4283e-12
0.000287019 -8.61581e-05 -8.60834e-05 -5.30709e-06
0.000343228 -0.000103008 -0.000102951 -2.87478e-06
0.000401855 -0.000120581 -0.000120546 -1.41259e-12
0.000345644 -0.000103733 -0.000103676 -2.87478e-06
0.000344436 -0.000103371 -0.000103314 -2.87478e-06
0.000286013 -8.58558e-05 -8.57815e-05 -5.30708e-06
0.000283999 -8.5251e-05 -8.51778e-05 -5.30707e-06
0.000397626 -0.000119311 -0.000119278 -1.39747e-12
0.000400445 -0.000120158 -0.000120123 -1.39822e-12
0.000285006 -8.55534e-05 -8.54797e-05 -5.30708e-06
0.000340812 -0.000102282 -0.000102227 -2.87477e-06
0.000399036 -0.000119735 -0.000119701 -1.38804e-12
0.000343228 -0.000103008 -0.000102951 -2.87478e-06
0.00034202 -0.000102645 -0.000102589 -2.87478e-06
0.000283999 -8.5251e-05 -8.51778e-05 -5.30707e-06
0.000281986 -8.46463e-05 -8.45741e-05 -5.30707e-06
0.000394807 -0.000118465 -0.000118432 -1.38129e-12
0.000397626 -0.000119311 -0.000119278 -1.39749e-12
0.000282993 -8.49486e-05 -8.4876e-05 -5.30707e-06
0.000338395 -0.000101557 -0.000101502 -2.87477e-06
0.000396216 -0.000118888 -0.000118855 -1.38774e-12
0.000340812 -0.000102282 -0.000102227 -2.87477e-06
0.000339603 -0.00010192 -0.000101864 -2.87477e-06
0.000281986 -8.46463e-05 -8.45741e-05 -5.30707e-06
0.000279972 -8.40415e-05 -8.39704e-05 -5.30706e-06
0.000391987 -0.000117619 -0.000117586 -1.37667e-12
0.000394807 -0.000118465 -0.000118432 -1.38791e-12
0.000280979 -8.43439e-05 -8.42723e-05 -5.30706e-06
0.000335979 -0.000100831 -0.000100777 -2.87476e-06
0.000393397 -0.000118042 -0.000118009 -1.37186e-12
0.000338395 -0.000101557 -0.000101502 -2.87477e-06
0.000337187 -0.000101194 -0.00010114 -2.87477e-06
0.000279972 -8.40415e-05 -8.39704e-05 -5.30706e-06
0.000277959 -8.34368e-05 -8.33667e-05 -5.30705e-06
0.000389168 -0.000116773 -0.00011674 -1.36039e-12
0.000391987 -0.000117619 -0.000117586 -1.37667e-12
0.000278966 -8.37392e-05 -8.36686e-05 -5.30705e-06
0.000333562 -0.000100106 -0.000100053 -2.87476e-06
0.000390577 -0.000117196 -0.000117163 -1.37495e-12
0.000335979 -0.000100831 -0.000100777 -2.87476e-06
0.00033477 -0.000100469 -0.000100415 -2.87476e-06
0.000277959 -8.34368e-05 -8.33667e-05 -5.30705e-06
0.000275946 -8.28321e-05 -8.2763e-05 -5.30704e-06
0.000386348 -0.000115927 -0.000115895 -1.35016e-12
0.000389168 -0.000116773 -0.00011674 -1.36039e-12
0.000276952 -8.31344e-05 -8.30648e-05 -5.30704e-06
0.000331146 -9.93806e-05 -9.9328e-05 -2.87475e-06
0.000387758 -0.00011635 -0.000116318 -1.36664e-12
0.000333562 -0.000100106 -0.000100053 -2.87476e-06
0.000332354 -9.97433e-05 -9.96903e-05 -2.87475e-06
0.000275946 -8.28321e-05 -8.2763e-05 -5.30704e-06
0.000273932 -8.22273e-05 -8.21593e-05 -5.30703e-06
0.000383529 -0.000115081 -0.000115049 -1.34928e-12
0.000386348 -0.000115927 -0.000115895 -1.35052e-12
0.000274939 -8.25297e-05 -8.24611e-05 -5.30703e-06
0.000328729 -9.86551e-05 -9.86033e-05 -2.87475e-06
0.000384938 -0.000115504 -0.000115472 -1.34097e-12
0.000331146 -9.93806e-05 -9.9328e-05 -2.87475e-06
0.000329938 -9.90179e-05 -9.89656e-05 -2.87475e-06
0.000273932 -8.22273e-05 -8.21593e-05 -5.30703e-06
0.000271919 -8.16226e-05 -8.15556e-05 -5.30702e-06
0.000380709 -0.000114235 -0.000114203 -1.34431e-12
0.000383529 -0.000115081 -0.000115049 -1.34928e-12
0.000272926 -8.1925e-05 -8.18574e-05 -5.30703e-06
0.000326313 -9.79297e-05 -9.78786e-05 -2.87474e-06
0.000382119 -0.000114658 -0.000114626 -1.34868e-12
0.000328729 -9.86551e-05 -9.86033e-05 -2.87475e-06
0.000327521 -9.82924e-05 -9.82409e-05 -2.87474e-06
0.000271919 -8.16226e-05 -8.15556e-05 -5.30702e-06
0.000269905 -8.10179e-05 -8.09518e-05 -5.30701e-06
0.00037789 -0.000113389 -0.000113358 -1.31907e-12
0.000380709 -0.000114235 -0.000114203 -1.34431e-12
0.000270912 -8.13202e-05 -8.12537e-05 -5.30702e-06
0.000323897 -9.72043e-05 -9.71539e-05 -2.87474e-06
0.000379299 -0.000113812 -0.00011378 -1.33491e-12
0.000326313 -9.79297e-05 -9.78786e-05 -2.87474e-06
0.000325105 -9.7567e-05 -9.75162e-05 -2.87474e-06
0.000269905 -8.10179e-05 -8.09518e-05 -5.30701e-06
0.000267892 -8.04131e-05 -8.03481e-05 -5.307e-06
0.00037507 -0.000112542 -0.000112512 -1.31095e-12
0.00037789 -0.000113389 -0.000113358 -1.31907e-12
0.000268899 -8.07155e-05 -8.065e-05 -5.30701e-06
0.00032148 -9.64788e-05 -9.64291e-05 -2.87473e-06
0.00037648 -0.000112966 -0.000112935 -1.31225e-12
0.000323897 -9.72043e-05 -9.71539e-05 -2.87474e-06
0.000322688 -9.68415e-05 -9.67915e-05 -2.87473e-06
0.000267892 -8.04131e-05 -8.03481e-05 -5.307e-06
0.000265879 -7.98084e-05 -7.97444e-05 -5.30699e-06
0.000372251 -0.000111696 -0.000111666 -1.30088e-12
0.00037507 -0.000112542 -0.000112512 -1.31131e-12
0.000266885 -8.01108e-05 -8.00462e-05 -5.307e-06
0.000319064 -9.57534e-05 -9.57044e-05 -2.87472e-06
0.000373661 -0.000112119 -0.000112089 -1.30978e-12
0.00032148 -9.64788e-05 -9.64291e-05 -2.87473e-06
0.000320272 -9.61161e-05 -9.60668e-05 -2.87473e-06
0.000265879 -7.98084e-05 -7.97444e-05 -5.30699e-06
0.000263865 -7.92037e-05 -7.91407e-05 -5.30699e-06
0.000369431 -0.00011085 -0.00011082 -1.29195e-12
0.000372251 -0.000111696 -0.000111666 -1.30752e-12
0.000264872 -7.9506e-05 -7.94425e-05 -5.30699e-06
0.000316647 -9.50279e-05 -9.49797e-05 -2.87472e-06
0.000370841 -0.000111273 -0.000111243 -1.29299e-12
0.000319064 -9.57534e-05 -9.57044e-05 -2.87472e-06
0.000317855 -9.53906e-05 -9.53421e-05 -2.87472e-06
0.000263865 -7.92037e-05 -7.91407e-05 -5.30699e-06
0.000261852 -7.85989e-05 -7.85369e-05 -5.30698e-06
0.000366612 -0.000110004 -0.000109975 -1.27691e-12
0.000369431 -0.00011085 -0.00011082 -1.29195e-12
0.000262858 -7.89013e-05 -7.88388e-05 -5.30698e-06
0.000314231 -9.43025e-05 -9.4255e-05 -2.87471e-06
0.000368022 -0.000110427 -0.000110398 -1.28906e-12
0.000316647 -9.50279e-05 -9.49797e-05 -2.87472e-06
0.000315439 -9.46652e-05 -9.46174e-05 -2.87472e-06
0.000261852 -7.85989e-05 -7.85369e-05 -5.30698e-06
0.000259838 -7.79942e-05 -7.79332e-05 -5.30697e-06
0.000363792 -0.000109158 -0.000109129 -1.27786e-12
0.000366612 -0.000110004 -0.000109975 -1.27691e-12
0.000260845 -7.82966e-05 -7.82351e-05 -5.30697e-06
0.000311814 -9.3577e-05 -9.35303e-05 -2.87471e-06
0.000365202 -0.000109581 -0.000109552 -1.26517e-12
0.000314231 -9.43025e-05 -9.4255e-05 -2.87471e-06
0.000313023 -9.39398e-05 -9.38927e-05 -2.87471e-06
0.000259838 -7.79942e-05 -7.79332e-05 -5.30697e-06
0.000257825 -7.73895e-05 -7.73294e-05 -5.30696e-06
0.000360973 -0.000108312 -0.000108283 -1.25069e-12
0.000363792 -0.000109158 -0.000109129 -1.26366e-12
0.000258832 -7.76918e-05 -7.76313e-05 -5.30696e-06
0.000309398 -9.28516e-05 -9.28056e-05 -2.8747e-06
0.000362383 -0.000108735 -0.000108706 -1.25549e-12
0.000311814 -9.3577e-05 -9.35303e-05 -2.87471e-06
0.000310606 -9.32143e-05 -9.31679e-05 -2.8747e-06
0.000257825 -7.73895e-05 -7.73294e-05 -5.30696e-06
0.000255811 -7.67848e-05 -7.67257e-05 -5.30695e-06
0.000358153 -0.000107466 -0.000107438 -1.25228e-12
0.000360973 -0.000108312 -0.000108283 -1.2706e-12
0.000256818 -7.70871e-05 -7.70276e-05 -5.30695e-06
0.000306981 -9.21261e-05 -9.20809e-05 -2.8747e-06
0.000359563 -0.000107889 -0.00010786 -1.26494e-12
0.000309398 -9.28516e-05 -9.28056e-05 -2.8747e-06
0.00030819 -9.24889e-05 -9.24432e-05 -2.8747e-06
0.000255811 -7.67848e-05 -7.67257e-05 -5.30695e-06
0.000253798 -7.618e-05 -7.6122e-05 -5.30694e-06
0.000355334 -0.00010662 -0.000106592 -1.23985e-12
0.000358153 -0.000107466 -0.000107438 -1.25228e-12
0.000254805 -7.64824e-05 -7.64238e-05 -5.30695e-06
0.000304565 -9.14007e-05 -9.13561e-05 -2.87469e-06
0.000356744 -0.000107043 -0.000107015 -1.23481e-12
0.000306981 -9.21261e-05 -9.20809e-05 -2.8747e-06
0.000305773 -9.17634e-05 -9.17185e-05 -2.87469e-06
0.000253798 -7.618e-05 -7.6122e-05 -5.30694e-06
0.000251785 -7.55753e-05 -7.55182e-05 -5.30693e-06
0.000352514 -0.000105773 -0.000105746 -1.2213e-12
0.000355334 -0.00010662 -0.000106592 -1.23985e-12
0.000252791 -7.58777e-05 -7.58201e-05 -5.30694e-06
0.000302149 -9.06753e-05 -9.06314e-05 -2.87468e-06
0.000353924 -0.000106197 -0.000106169 -1.22653e-12
0.000304565 -9.14007e-05 -9.13561e-05 -2.87469e-06
0.000303357 -9.1038e-05 -9.09938e-05 -2.87469e-06
0.000251785 -7.55753e-05 -7.55182e-05 -5.30693e-06
0.000249771 -7.49706e-05 -7.49145e-05 -5.30692e-06
0.000349695 -0.000104927 -0.0001049 -1.22352e-12
0.000352514 -0.000105773 -0.000105746 -1.22164e-12
0.000250778 -7.5273e-05 -7.52163e-05 -5.30693e-06
0.000299732 -8.99498e-05 -8.99067e-05 -2.87468e-06
0.000351105 -0.00010535 -0.000105323 -1.23791e-12
0.000302149 -9.06753e-05 -9.06314e-05 -2.87468e-06
0.00030094 -9.03125e-05 -9.02691e-05 -2.87468e-06
0.000249771 -7.49706e-05 -7.49145e-05 -5.30692e-06
0.000247758 -7.43659e-05 -7.43107e-05 -5.30691e-06
0.000346875 -0.000104081 -0.000104055 -1.20686e-12
0.000349695 -0.000104927 -0.0001049 -1.23112e-12
0.000248764 -7.46683e-05 -7.46126e-05 -5.30692e-06
0.000297316 -8.92244e-05 -8.9182e-05 -2.87467e-06
0.000348285 -0.000104504 -0.000104478 -1.20979e-12
0.000299732 -8.99498e-05 -8.99067e-05 -2.87468e-06
0.000298524 -8.95871e-05 -8.95443e-05 -2.87468e-06
0.000247758 -7.43659e-05 -7.43107e-05 -5.30691e-06
0.000245744 -7.37612e-05 -7.3707e-05 -5.30691e-06
0.000344056 -0.000103235 -0.000103209 -1.21405e-12
0.000346875 -0.000104081 -0.000104055 -1.20686e-12
0.000246751 -7.40635e-05 -7.40088e-05 -5.30691e-06
0.000294899 -8.8499e-05 -8.84572e-05 -2.87467e-06
0.000345466 -0.000103658 -0.000103632 -1.20774e-12
0.000297316 -8.92244e-05 -8.9182e-05 -2.87467e-06
0.000296107 -8.88617e-05 -8.88196e-05 -2.87467e-06
0.000245744 -7.37612e-05 -7.3707e-05 -5.30691e-06
0.000243731 -7.31565e-05 -7.31032e-05 -5.3069e-06
0.000341236 -0.000102389 -0.000102363 -1.19664e-12
0.000344056 -0.000103235 -0.000103209 -1.21405e-12
0.000244737 -7.34588e-05 -7.34051e-05 -5.3069e-06
0.000292483 -8.77735e-05 -8.77325e-05 -2.87466e-06
0.000342646 -0.000102812 -0.000102786 -1.2055e-12
0.000294899 -8.8499e-05 -8.84572e-05 -2.87467e-06
0.000293691 -8.81362e-05 -8.80949e-05 -2.87467e-06
0.000243731 -7.31565e-05 -7.31032e-05 -5.3069e-06
0.000241717 -7.25518e-05 -7.24995e-05 -5.30689e-06
0.000338417 -0.000101543 -0.000101518 -1.18213e-12
0.000341236 -0.000102389 -0.000102363 -1.19035e-12
0.000242724 -7.28541e-05 -7.28013e-05 -5.30689e-06
0.000290066 -8.70481e-05 -8.70078e-05 -2.87466e-06
0.000339827 -0.000101966 -0.00010194 -1.17482e-12
0.000292483 -8.77735e-05 -8.77325e-05 -2.87466e-06
0.000291275 -8.74108e-05 -8.73702e-05 -2.87466e-06
0.000241717 -7.25518e-05 -7.24995e-05 -5.30689e-06
0.000239704 -7.19471e-05 -7.18957e-05 -5.30688e-06
0.000335598 -0.000100697 -0.000100672 -1.17017e-12
0.000338417 -0.000101543 -0.000101518 -1.18845e-12
0.00024071 -7.22494e-05 -7.21976e-05 -5.30688e-06
0.00028765 -8.63226e-05 -8.62831e-05 -2.87465e-06
0.000337007 -0.00010112 -0.000101095 -1.16243e-12
0.000290066 -8.70481e-05 -8.70078e-05 -2.87466e-06
0.000288858 -8.66854e-05 -8.66454e-05 -2.87465e-06
0.000239704 -7.19471e-05 -7.18957e-05 -5.30688e-06
0.00023769 -7.13424e-05 -7.12919e-05 -5.30687e-06
0.000332778 -9.98505e-05 -9.98261e-05 -1.15985e-12
0.000335598 -0.000100697 -0.000100672 -1.17017e-12
0.000238697 -7.16447e-05 -7.15938e-05 -5.30687e-06
0.000285233 -8.55972e-05 -8.55583e-05 -2.87465e-06
0.000334188 -0.000100274 -0.000100249 -1.15785e-12
0.00028765 -8.63226e-05 -8.62831e-05 -2.87465e-06
0.000286442 -8.59599e-05 -8.59207e-05 -2.87465e-06
0.00023769 -7.13424e-05 -7.12919e-05 -5.30687e-06
0.000235677 -7.07377e-05 -7.06882e-05 -5.30686e-06
0.000329959 -9.90043e-05 -9.89804e-05 -1.1446e-12
0.000332778 -9.98505e-05 -9.98261e-05 -1.15985e-12
0.000236683 -7.104e-05 -7.099e-05 -5.30687e-06
0.000282817 -8.48718e-05 -8.48336e-05 -2.87464e-06
0.000331368 -9.94274e-05 -9.94032e-05 -1.14884e-12
0.000285233 -8.55972e-05 -8.55583e-05 -2.87465e-06
0.000284025 -8.52345e-05 -8.5196e-05 -2.87464e-06
0.000235677 -7.07377e-05 -7.06882e-05 -5.30686e-06
0.000233663 -7.0133e-05 -7.00844e-05 -5.30685e-06
0.000327139 -9.81582e-05 -9.81346e-05 -1.13568e-12
0.000329959 -9.90043e-05 -9.89804e-05 -1.13796e-12
0.00023467 -7.04353e-05 -7.03863e-05 -5.30686e-06
0.0002804 -8.41463e-05 -8.41089e-05 -2.87463e-06
0.000328549 -9.85813e-05 -9.85575e-05 -1.14923e-12
0.000282817 -8.48718e-05 -8.48336e-05 -2.87464e-06
0.000281609 -8.45091e-05 -8.44712e-05 -2.87464e-06
0.000233663 -7.0133e-05 -7.00844e-05 -5.30685e-06
0.00023165 -6.95283e-05 -6.94806e-05 -5.30684e-06
0.00032432 -9.73121e-05 -9.72889e-05 -1.11926e-12
0.000327139 -9.81582e-05 -9.81346e-05 -1.12872e-12
0.000232656 -6.98306e-05 -6.97825e-05 -5.30685e-06
0.000277984 -8.34209e-05 -8.33841e-05 -2.87463e-06
0.000325729 -9.77351e-05 -9.77118e-05 -1.11972e-12
0.0002804 -8.41463e-05 -8.41089e-05 -2.87463e-06
0.000279192 -8.37836e-05 -8.37465e-05 -2.87463e-06
0.00023165 -6.95283e-05 -6.94806e-05 -5.30684e-06
0.000229636 -6.89236e-05 -6.88768e-05 -5.30683e-06
0.0003215 -9.64659e-05 -9.64432e-05 -1.12379e-12
0.00032432 -9.73121e-05 -9.72889e-05 -1.11926e-12
0.000230643 -6.92259e-05 -6.91787e-05 -5.30684e-06
0.000275567 -8.26955e-05 -8.26594e-05 -2.87462e-06
0.00032291 -9.6889e-05 -9.68661e-05 -1.10783e-12
0.000277984 -8.34209e-05 -8.33841e-05 -2.87463e-06
0.000276776 -8.30582e-05 -8.30218e-05 -2.87463e-06
0.000229636 -6.89236e-05 -6.88768e-05 -5.30683e-06
0.000227623 -6.83189e-05 -6.82731e-05 -5.30683e-06
0.000318681 -9.56198e-05 -9.55975e-05 -1.10345e-12
0.0003215 -9.64659e-05 -9.64432e-05 -1.12379e-12
0.000228629 -6.86212e-05 -6.8575e-05 -5.30683e-06
0.000273151 -8.197e-05 -8.19346e-05 -2.87462e-06
0.00032009 -9.60428e-05 -9.60203e-05 -1.13236e-12
0.000275567 -8.26955e-05 -8.26594e-05 -2.87462e-06
0.000274359 -8.23328e-05 -8.2297e-05 -2.87462e-06
0.000227623 -6.83189e-05 -6.82731e-05 -5.30683e-06
0.000225609 -6.77142e-05 -6.76693e-05 -5.30682e-06
0.000315861 -9.47736e-05 -9.47517e-05 -1.09839e-12
0.000318681 -9.56198e-05 -9.55975e-05 -1.11706e-12
0.000226616 -6.80165e-05 -6.79712e-05 -5.30682e-06
0.000270734 -8.12446e-05 -8.12099e-05 -2.87461e-06
0.000317271 -9.51967e-05 -9.51746e-05 -1.09749e-12
0.000273151 -8.197e-05 -8.19346e-05 -2.87462e-06
0.000271943 -8.16073e-05 -8.15723e-05 -2.87461e-06
0.000225609 -6.77142e-05 -6.76693e-05 -5.30682e-06
0.000223596 -6.71095e-05 -6.70655e-05 -5.30681e-06
0.000313042 -9.39275e-05 -9.3906e-05 -1.09261e-12
0.000315861 -9.47736e-05 -9.47517e-05 -1.09138e-12
0.000224602 -6.74118e-05 -6.73674e-05 -5.30681e-06
0.000268318 -8.05192e-05 -8.04852e-05 -2.87461e-06
0.000314451 -9.43506e-05 -9.43289e-05 -1.09318e-12
0.000270734 -8.12446e-05 -8.12099e-05 -2.87461e-06
0.000269526 -8.08819e-05 -8.08475e-05 -2.87461e-06
0.000223596 -6.71095e-05 -6.70655e-05 -5.30681e-06
0.000221582 -6.65048e-05 -6.64617e-05 -5.3068e-06
0.000310222 -9.30813e-05 -9.30603e-05 -1.08185e-12
0.000313042 -9.39275e-05 -9.3906e-05 -1.09261e-12
0.000222589 -6.68071e-05 -6.67636e-05 -5.3068e-06
0.000265901 -7.97938e-05 -7.97604e-05 -2.8746e-06
0.000311632 -9.35044e-05 -9.34832e-05 -1.08822e-12
0.000268318 -8.05192e-05 -8.04852e-05 -2.87461e-06
0.00026711 -8.01565e-05 -8.01228e-05 -2.8746e-06
0.000221582 -6.65048e-05 -6.64617e-05 -5.3068e-06
0.000219569 -6.59001e-05 -6.58579e-05 -5.30679e-06
0.000307403 -9.22352e-05 -9.22146e-05 -1.07992e-12
0.000310222 -9.30813e-05 -9.30603e-05 -1.08185e-12
0.000220575 -6.62025e-05 -6.61598e-05 -5.30679e-06
0.000263485 -7.90683e-05 -7.90357e-05 -2.8746e-06
0.000308812 -9.26583e-05 -9.26374e-05 -1.0924e-12
0.000265901 -7.97938e-05 -7.97604e-05 -2.8746e-06
0.000264693 -7.9431e-05 -7.9398e-05 -2.8746e-06
0.000219569 -6.59001e-05 -6.58579e-05 -5.30679e-06
0.000217555 -6.52954e-05 -6.52541e-05 -5.30678e-06
0.000304583 -9.13891e-05 -9.13688e-05 -1.06684e-12
0.000307403 -9.22352e-05 -9.22146e-05 -1.07828e-12
0.000218562 -6.55978e-05 -6.5556e-05 -5.30679e-06
0.000261068 -7.83429e-05 -7.83109e-05 -2.87459e-06
0.000305993 -9.18121e-05 -9.17917e-05 -1.07324e-12
0.000263485 -7.90683e-05 -7.90357e-05 -2.8746e-06
0.000262277 -7.87056e-05 -7.86733e-05 -2.87459e-06
0.000217555 -6.52954e-05 -6.52541e-05 -5.30678e-06
0.000215542 -6.46907e-05 -6.46503e-05 -5.30677e-06
0.000301764 -9.05429e-05 -9.05231e-05 -1.06753e-12
0.000304583 -9.13891e-05 -9.13688e-05 -1.0801e-12
0.000216548 -6.49931e-05 -6.49522e-05 -5.30678e-06
0.000258652 -7.76175e-05 -7.75862e-05 -2.87458e-06
0.000303173 -9.0966e-05 -9.0946e-05 -1.06449e-12
0.000261068 -7.83429e-05 -7.83109e-05 -2.87459e-06
0.00025986 -7.79802e-05 -7.79485e-05 -2.87459e-06
0.000215542 -6.46907e-05 -6.46503e-05 -5.30677e-06
0.000213528 -6.40861e-05 -6.40465e-05 -5.30676e-06
0.000298944 -8.96968e-05 -8.96774e-05 -1.05521e-12
0.000301764 -9.05429e-05 -9.05231e-05 -1.06753e-12
0.000214535 -6.43884e-05 -6.43484e-05 -5.30677e-06
0.000256235 -7.68921e-05 -7.68614e-05 -2.87458e-06
0.000300354 -9.01198e-05 -9.01002e-05 -1.05915e-12
0.000258652 -7.76175e-05 -7.75862e-05 -2.87458e-06
0.000257444 -7.72548e-05 -7.72238e-05 -2.87458e-06
0.000213528 -6.40861e-05 -6.40465e-05 -5.30676e-06
0.000211514 -6.34814e-05 -6.34427e-05 -5.30675e-06
0.000296124 -8.88506e-05 -8.88317e-05 -1.04088e-12
0.000298944 -8.96968e-05 -8.96774e-05 -1.05521e-12
0.000212521 -6.37837e-05 -6.37446e-05 -5.30676e-06
0.000253819 -7.61666e-05 -7.61367e-05 -2.87457e-06
0.000297534 -8.92737e-05 -8.92545e-05 -1.05249e-12
0.000256235 -7.68921e-05 -7.68614e-05 -2.87458e-06
0.000255027 -7.65293e-05 -7.6499e-05 -2.87458e-06
0.000211514 -6.34814e-05 -6.34427e-05 -5.30675e-06
0.000209501 -6.28767e-05 -6.28389e-05 -5.30675e-06
0.000293305 -8.80045e-05 -8.79859e-05 -1.03257e-12
0.000296124 -8.88506e-05 -8.88317e-05 -1.01931e-12
0.000210508 -6.31791e-05 -6.31408e-05 -5.30675e-06
0.000251402 -7.54412e-05 -7.54119e-05 -2.87457e-06
0.000294715 -8.84275e-05 -8.84088e-05 -1.02673e-12
0.000253819 -7.61666e-05 -7.61367e-05 -2.87457e-06
0.000252611 -7.58039e-05 -7.57743e-05 -2.87457e-06
0.000209501 -6.28767e-05 -6.28389e-05 -5.30675e-06
0.000207487 -6.2272e-05 -6.22351e-05 -5.30674e-06
0.000290485 -8.71583e-05 -8.71402e-05 -1.01858e-12
0.000293305 -8.80045e-05 -8.79859e-05 -1.0475e-12
0.000208494 -6.25744e-05 -6.2537e-05 -5.30674e-06
0.000248986 -7.47158e-05 -7.46871e-05 -2.87456e-06
0.000291895 -8.75814e-05 -8.75631e-05 -1.01859e-12
0.000251402 -7.54412e-05 -7.54119e-05 -2.87457e-06
0.000250194 -7.50785e-05 -7.50495e-05 -2.87456e-06
0.000207487 -6.2272e-05 -6.22351e-05 -5.30674e-06
0.000205474 -6.16674e-05 -6.16313e-05 -5.30673e-06
0.000287666 -8.63122e-05 -8.62945e-05 -1.00773e-12
0.000290485 -8.71583e-05 -8.71402e-05 -1.01858e-12
0.000206481 -6.19697e-05 -6.19332e-05 -5.30673e-06
0.000246569 -7.39904e-05 -7.39624e-05 -2.87456e-06
0.000289076 -8.67352e-05 -8.67173e-05 -1.01491e-12
0.000248986 -7.47158e-05 -7.46871e-05 -2.87456e-06
0.000247778 -7.43531e-05 -7.43248e-05 -2.87456e-06
0.000205474 -6.16674e-05 -6.16313e-05 -5.30673e-06
0.00020346 -6.10627e-05 -6.10275e-05 -5.30672e-06
0.000284846 -8.5466e-05 -8.54487e-05 -1.01698e-12
0.000287666 -8.63122e-05 -8.62945e-05 -1.00773e-12
0.000204467 -6.1365e-05 -6.13294e-05 -5.30672e-06
0.000244153 -7.32649e-05 -7.32376e-05 -2.87455e-06
0.000286256 -8.58891e-05 -8.58716e-05 -1.02612e-12
0.000246569 -7.39904e-05 -7.39624e-05 -2.87456e-06
0.000245361 -7.36277e-05 -7.36e-05 -2.87455e-06
0.00020346 -6.10627e-05 -6.10275e-05 -5.30672e-06
0.000201447 -6.0458e-05 -6.04237e-05 -5.30671e-06
0.000282027 -8.46199e-05 -8.4603e-05 -9.9183e-13
0.000284846 -8.5466e-05 -8.54487e-05 -9.79223e-13
0.000202453 -6.07604e-05 -6.07256e-05 -5.30671e-06
0.000241736 -7.25395e-05 -7.25128e-05 -2.87454e-06
0.000283437 -8.5043e-05 -8.50259e-05 -9.77822e-13
0.000244153 -7.32649e-05 -7.32376e-05 -2.87455e-06
0.000242944 -7.29022e-05 -7.28752e-05 -2.87455e-06
0.000201447 -6.0458e-05 -6.04237e-05 -5.30671e-06
0.000199433 -5.98534e-05 -5.98198e-05 -5.3067e-06
0.000279207 -8.37737e-05 -8.37573e-05 -9.72748e-13
0.000282027 -8.46199e-05 -8.4603e-05 -1.01138e-12
0.00020044 -6.01557e-05 -6.01218e-05 -5.30671e-06
0.00023932 -7.18141e-05 -7.17881e-05 -2.87454e-06
0.000280617 -8.41968e-05 -8.41801e-05 -9.62107e-13
0.000241736 -7.25395e-05 -7.25128e-05 -2.87454e-06
0.000240528 -7.21768e-05 -7.21505e-05 -2.87454e-06
0.000199433 -5.98534e-05 -5.98198e-05 -5.3067e-06
0.000197419 -5.92487e-05 -5.9216e-05 -5.30669e-06
0.000276388 -8.29276e-05 -8.29115e-05 -9.60627e-13
0.000279207 -8.37737e-05 -8.37573e-05 -9.72748e-13
0.000198426 -5.95511e-05 -5.95179e-05 -5.3067e-06
0.000236903 -7.10887e-05 -7.10633e-05 -2.87453e-06
0.000277798 -8.33507e-05 -8.33344e-05 -9.83652e-13
0.00023932 -7.18141e-05 -7.17881e-05 -2.87454e-06
0.000238111 -7.14514e-05 -7.14257e-05 -2.87454e-06
0.000197419 -5.92487e-05 -5.9216e-05 -5.30669e-06
0.000195406 -5.86441e-05 -5.86122e-05 -5.30668e-06
0.000273568 -8.20814e-05 -8.20658e-05 -9.55372e-13
0.000276388 -8.29276e-05 -8.29115e-05 -9.60627e-13
0.000196413 -5.89464e-05 -5.89141e-05 -5.30669e-06
0.000234487 -7.03633e-05 -7.03385e-05 -2.87453e-06
0.000274978 -8.25045e-05 -8.24887e-05 -9.57574e-13
0.000236903 -7.10887e-05 -7.10633e-05 -2.87453e-06
0.000235695 -7.0726e-05 -7.07009e-05 -2.87453e-06
0.000195406 -5.86441e-05 -5.86122e-05 -5.30668e-06
0.000193392 -5.80394e-05 -5.80084e-05 -5.30667e-06
0.000270749 -8.12353e-05 -8.12201e-05 -9.65729e-13
0.000273568 -8.20814e-05 -8.20658e-05 -9.55034e-13
0.000194399 -5.83417e-05 -5.83103e-05 -5.30668e-06
0.00023207 -6.96379e-05 -6.96138e-05 -2.87452e-06
0.000272159 -8.16584e-05 -8.16429e-05 -9.71251e-13
0.000234487 -7.03633e-05 -7.03385e-05 -2.87453e-06
0.000233278 -7.00006e-05 -6.99762e-05 -2.87453e-06
0.000193392 -5.80394e-05 -5.80084e-05 -5.30667e-06
0.000191379 -5.74348e-05 -5.74045e-05 -5.30667e-06
0.000267929 -8.03891e-05 -8.03743e-05 -9.58604e-13
0.000270749 -8.12353e-05 -8.12201e-05 -9.65749e-13
0.000192385 -5.77371e-05 -5.77065e-05 -5.30667e-06
0.000229653 -6.89125e-05 -6.8889e-05 -2.87452e-06
0.000269339 -8.08122e-05 -8.07972e-05 -9.50503e-13
0.00023207 -6.96379e-05 -6.96138e-05 -2.87452e-06
0.000230862 -6.92752e-05 -6.92514e-05 -2.87452e-06
0.000191379 -5.74348e-05 -5.74045e-05 -5.30667e-06
0.000189365 -5.68301e-05 -5.68007e-05 -5.30666e-06
0.00026511 -7.9543e-05 -7.95286e-05 -9.37985e-13
0.000267929 -8.03891e-05 -8.03743e-05 -9.58604e-13
0.000190372 -5.71324e-05 -5.71026e-05 -5.30666e-06
0.000227237 -6.8187e-05 -6.81642e-05 -2.87451e-06
0.000266519 -7.99661e-05 -7.99515e-05 -9.68801e-13
0.000229653 -6.89125e-05 -6.8889e-05 -2.87452e-06
0.000228445 -6.85498e-05 -6.85266e-05 -2.87451e-06
0.000189365 -5.68301e-05 -5.68007e-05 -5.30666e-06
0.000187351 -5.62255e-05 -5.61969e-05 -5.30665e-06
0.00026229 -7.86968e-05 -7.86829e-05 -9.32981e-13
0.00026511 -7.9543e-05 -7.95286e-05 -9.37985e-13
0.000188358 -5.65278e-05 -5.64988e-05 -5.30665e-06
0.00022482 -6.74616e-05 -6.74394e-05 -2.87451e-06
0.0002637 -7.91199e-05 -7.91057e-05 -9.35169e-13
0.000227237 -6.8187e-05 -6.81642e-05 -2.87451e-06
0.000226029 -6.78243e-05 -6.78018e-05 -2.87451e-06
0.000187351 -5.62255e-05 -5.61969e-05 -5.30665e-06
0.000185338 -5.56208e-05 -5.5593e-05 -5.30664e-06
0.000259471 -7.78507e-05 -7.78371e-05 -8.96993e-13
0.00026229 -7.86968e-05 -7.86829e-05 -9.32982e-13
0.000186345 -5.59231e-05 -5.58949e-05 -5.30664e-06
0.000222404 -6.67362e-05 -6.67147e-05 -2.8745e-06
0.00026088 -7.82738e-05 -7.826e-05 -9.28076e-13
0.00022482 -6.74616e-05 -6.74394e-05 -2.87451e-06
0.000223612 -6.70989e-05 -6.7077e-05 -2.8745e-06
0.000185338 -5.56208e-05 -5.5593e-05 -5.30664e-06
0.000183324 -5.50162e-05 -5.49892e-05 -5.30663e-06
0.000256651 -7.70045e-05 -7.69914e-05 -9.02904e-13
0.000259471 -7.78507e-05 -7.78371e-05 -9.22826e-13
0.000184331 -5.53185e-05 -5.52911e-05 -5.30663e-06
0.000219987 -6.60108e-05 -6.59899e-05 -2.87449e-06
0.000258061 -7.74276e-05 -7.74142e-05 -8.93145e-13
0.000222404 -6.67362e-05 -6.67147e-05 -2.8745e-06
0.000221195 -6.63735e-05 -6.63523e-05 -2.8745e-06
0.000183324 -5.50162e-05 -5.49892e-05 -5.30663e-06
0.000181311 -5.44115e-05 -5.43853e-05 -5.30662e-06
0.000253832 -7.61584e-05 -7.61456e-05 -8.92197e-13
0.000256651 -7.70045e-05 -7.69914e-05 -9.02904e-13
0.000182317 -5.47138e-05 -5.46872e-05 -5.30663e-06
0.000217571 -6.52854e-05 -6.52651e-05 -2.87449e-06
0.000255241 -7.65815e-05 -7.65685e-05 -9.17919e-13
0.000219987 -6.60108e-05 -6.59899e-05 -2.87449e-06
0.000218779 -6.56481e-05 -6.56275e-05 -2.87449e-06
0.000181311 -5.44115e-05 -5.43853e-05 -5.30662e-06
0.000179297 -5.38069e-05 -5.37815e-05 -5.30661e-06
0.000251012 -7.53122e-05 -7.52999e-05 -8.73503e-13
0.000253832 -7.61584e-05 -7.61456e-05 -8.92197e-13
0.000180304 -5.41092e-05 -5.40834e-05 -5.30662e-06
0.000215154 -6.456e-05 -6.45403e-05 -2.87448e-06
0.000252422 -7.57353e-05 -7.57228e-05 -8.8867e-13
0.000217571 -6.52854e-05 -6.52651e-05 -2.87449e-06
0.000216362 -6.49227e-05 -6.49027e-05 -2.87449e-06
0.000179297 -5.38069e-05 -5.37815e-05 -5.30661e-06
0.000177283 -5.32023e-05 -5.31776e-05 -5.3066e-06
0.000248192 -7.44661e-05 -7.44542e-05 -8.7633e-13
0.000251012 -7.53122e-05 -7.52999e-05 -8.86414e-13
0.00017829 -5.35046e-05 -5.34795e-05 -5.30661e-06
0.000212737 -6.38346e-05 -6.38155e-05 -2.87448e-06
0.000249602 -7.48892e-05 -7.4877e-05 -8.76401e-13
0.000215154 -6.456e-05 -6.45403e-05 -2.87448e-06
0.000213946 -6.41973e-05 -6.41779e-05 -2.87448e-06
0.000177283 -5.32023e-05 -5.31776e-05 -5.3066e-06
0.00017527 -5.25976e-05 -5.25738e-05 -5.30659e-06
0.000245373 -7.36199e-05 -7.36084e-05 -8.67687e-13
0.000248192 -7.44661e-05 -7.44542e-05 -8.76288e-13
0.000176277 -5.28999e-05 -5.28757e-05 -5.3066e-06
0.000210321 -6.31092e-05 -6.30907e-05 -2.87447e-06
0.000246783 -7.4043e-05 -7.40313e-05 -8.65168e-13
0.000212737 -6.38346e-05 -6.38155e-05 -2.87448e-06
0.000211529 -6.34719e-05 -6.34531e-05 -2.87448e-06
0.00017527 -5.25976e-05 -5.25738e-05 -5.30659e-06
0.000173256 -5.1993e-05 -5.19699e-05 -5.30659e-06
0.000242553 -7.27738e-05 -7.27627e-05 -8.5412e-13
0.000245373 -7.36199e-05 -7.36084e-05 -8.67687e-13
0.000174263 -5.22953e-05 -5.22718e-05 -5.30659e-06
0.000207904 -6.23838e-05 -6.23659e-05 -2.87447e-06
0.000243963 -7.31969e-05 -7.31855e-05 -8.61847e-13
0.000210321 -6.31092e-05 -6.30907e-05 -2.87447e-06
0.000209113 -6.27465e-05 -6.27283e-05 -2.87447e-06
0.000173256 -5.1993e-05 -5.19699e-05 -5.30659e-06
0.000171242 -5.13884e-05 -5.1366e-05 -5.30658e-06
0.000239734 -7.19276e-05 -7.19169e-05 -8.38546e-13
0.000242553 -7.27738e-05 -7.27627e-05 -8.5412e-13
0.000172249 -5.16907e-05 -5.1668e-05 -5.30658e-06
0.000205488 -6.16584e-05 -6.16411e-05 -2.87446e-06
0.000241144 -7.23507e-05 -7.23398e-05 -8.55078e-13
0.000207904 -6.23838e-05 -6.23659e-05 -2.87447e-06
0.000206696 -6.20211e-05 -6.20035e-05 -2.87446e-06
0.000171242 -5.13884e-05 -5.1366e-05 -5.30658e-06
0.000169229 -5.07837e-05 -5.07622e-05 -5.30657e-06
0.000236914 -7.10815e-05 -7.10712e-05 -8.26341e-13
0.000239734 -7.19276e-05 -7.19169e-05 -8.38503e-13
0.000170236 -5.1086e-05 -5.10641e-05 -5.30657e-06
0.000203071 -6.0933e-05 -6.09163e-05 -2.87446e-06
0.000238324 -7.15046e-05 -7.14941e-05 -8.34275e-13
0.000205488 -6.16584e-05 -6.16411e-05 -2.87446e-06
0.000204279 -6.12957e-05 -6.12787e-05 -2.87446e-06
0.000169229 -5.07837e-05 -5.07622e-05 -5.30657e-06
0.000167215 -5.01791e-05 -5.01583e-05 -5.30656e-06
0.000234095 -7.02353e-05 -7.02254e-05 -8.47326e-13
0.000236914 -7.10815e-05 -7.10712e-05 -8.25933e-13
0.000168222 -5.04814e-05 -5.04602e-05 -5.30656e-06
0.000200655 -6.02076e-05 -6.01915e-05 -2.87445e-06
0.000235504 -7.06584e-05 -7.06483e-05 -8.41353e-13
0.000203071 -6.0933e-05 -6.09163e-05 -2.87446e-06
0.000201863 -6.05703e-05 -6.05539e-05 -2.87445e-06
0.000167215 -5.01791e-05 -5.01583e-05 -5.30656e-06
0.000165201 -4.95745e-05 -4.95544e-05 -5.30655e-06
0.000231275 -6.93892e-05 -6.93797e-05 -8.28512e-13
0.000234095 -7.02353e-05 -7.02254e-05 -8.47326e-13
0.000166208 -4.98768e-05 -4.98563e-05 -5.30656e-06
0.000198238 -5.94822e-05 -5.94667e-05 -2.87445e-06
0.000232685 -6.98123e-05 -6.98026e-05 -8.04584e-13
0.000200655 -6.02076e-05 -6.01915e-05 -2.87445e-06
0.000199446 -5.98449e-05 -5.98291e-05 -2.87445e-06
0.000165201 -4.95745e-05 -4.95544e-05 -5.30655e-06
0.000163188 -4.89699e-05 -4.89505e-05 -5.30654e-06
0.000228456 -6.8543e-05 -6.85339e-05 -8.0107e-13
0.000231275 -6.93892e-05 -6.93797e-05 -8.28512e-13
0.000164195 -4.92722e-05 -4.92525e-05 -5.30655e-06
0.000195821 -5.87568e-05 -5.87419e-05 -2.87444e-06
0.000229865 -6.89661e-05 -6.89568e-05 -8.07838e-13
0.000198238 -5.94822e-05 -5.94667e-05 -2.87445e-06
0.00019703 -5.91195e-05 -5.91043e-05 -2.87444e-06
0.000163188 -4.89699e-05 -4.89505e-05 -5.30654e-06
0.000161174 -4.83653e-05 -4.83466e-05 -5.30653e-06
0.000225636 -6.76969e-05 -6.76882e-05 -8.02658e-13
0.000228456 -6.8543e-05 -6.85339e-05 -8.2725e-13
0.000162181 -4.86676e-05 -4.86486e-05 -5.30654e-06
0.000193405 -5.80314e-05 -5.80171e-05 -2.87443e-06
0.000227046 -6.81199e-05 -6.81111e-05 -8.01449e-13
0.000195821 -5.87568e-05 -5.87419e-05 -2.87444e-06
0.000194613 -5.83941e-05 -5.83795e-05 -2.87444e-06
0.000161174 -4.83653e-05 -4.83466e-05 -5.30653e-06
0.00015916 -4.77606e-05 -4.77428e-05 -5.30652e-06
0.000222816 -6.68507e-05 -6.68424e-05 -7.88627e-13
0.000225636 -6.76969e-05 -6.76882e-05 -8.03008e-13
0.000160167 -4.8063e-05 -4.80447e-05 -5.30653e-06
0.000190988 -5.7306e-05 -5.72923e-05 -2.87443e-06
0.000224226 -6.72738e-05 -6.72653e-05 -7.71466e-13
0.000193405 -5.80314e-05 -5.80171e-05 -2.87443e-06
0.000192196 -5.76687e-05 -5.76547e-05 -2.87443e-06
0.00015916 -4.77606e-05 -4.77428e-05 -5.30652e-06
0.000157147 -4.7156e-05 -4.71389e-05 -5.30652e-06
0.000219997 -6.60046e-05 -6.59967e-05 -7.87428e-13
0.000222816 -6.68507e-05 -6.68424e-05 -7.88627e-13
0.000158154 -4.74583e-05 -4.74408e-05 -5.30652e-06
0.000188571 -5.65806e-05 -5.65675e-05 -2.87442e-06
0.000221407 -6.64276e-05 -6.64196e-05 -7.88795e-13
0.000190988 -5.7306e-05 -5.72923e-05 -2.87443e-06
0.00018978 -5.69433e-05 -5.69299e-05 -2.87443e-06
0.000157147 -4.7156e-05 -4.71389e-05 -5.30652e-06
0.000155133 -4.65514e-05 -4.6535e-05 -5.30651e-06
0.000217177 -6.51584e-05 -6.51509e-05 -7.76911e-13
0.000219997 -6.60046e-05 -6.59967e-05 -7.87428e-13
0.00015614 -4.68537e-05 -4.68369e-05 -5.30651e-06
0.000186155 -5.58553e-05 -5.58427e-05 -2.87442e-06
0.000218587 -6.55815e-05 -6.55738e-05 -7.8256e-13
0.000188571 -5.65806e-05 -5.65675e-05 -2.87442e-06
0.000187363 -5.6218e-05 -5.62051e-05 -2.87442e-06
0.000155133 -4.65514e-05 -4.6535e-05 -5.30651e-06
0.000153119 -4.59468e-05 -4.59311e-05 -5.3065e-06
0.000214358 -6.43123e-05 -6.43052e-05 -7.60439e-13
0.000217177 -6.51584e-05 -6.51509e-05 -7.76911e-13
0.000154126 -4.62491e-05 -4.6233e-05 -5.3065e-06
0.000183738 -5.51299e-05 -5.51179e-05 -2.87441e-06
0.000215767 -6.47353e-05 -6.47281e-05 -7.7334e-13
0.000186155 -5.58553e-05 -5.58427e-05 -2.87442e-06
0.000184947 -5.54926e-05 -5.54803e-05 -2.87441e-06
0.000153119 -4.59468e-05 -4.59311e-05 -5.3065e-06
0.000151106 -4.53422e-05 -4.53272e-05 -5.30649e-06
0.000211538 -6.34661e-05 -6.34594e-05 -7.32272e-13
0.000214358 -6.43123e-05 -6.43052e-05 -7.60124e-13
0.000152113 -4.56445e-05 -4.56291e-05 -5.30649e-06
0.000181322 -5.44045e-05 -5.4393e-05 -2.87441e-06
0.000212948 -6.38892e-05 -6.38823e-05 -7.43172e-13
0.000183738 -5.51299e-05 -5.51179e-05 -2.87441e-06
0.00018253 -5.47672e-05 -5.47554e-05 -2.87441e-06
0.000151106 -4.53422e-05 -4.53272e-05 -5.30649e-06
0.000149092 -4.47376e-05 -4.47233e-05 -5.30648e-06
0.000208719 -6.262e-05 -6.26137e-05 -7.64636e-13
0.000211538 -6.34661e-05 -6.34594e-05 -7.32272e-13
0.000150099 -4.50399e-05 -4.50252e-05 -5.30649e-06
0.000178905 -5.36791e-05 -5.36682e-05 -2.8744e-06
0.000210128 -6.3043e-05 -6.30366e-05 -7.43393e-13
0.000181322 -5.44045e-05 -5.4393e-05 -2.87441e-06
0.000180113 -5.40418e-05 -5.40306e-05 -2.8744e-06
0.000149092 -4.47376e-05 -4.47233e-05 -5.30648e-06
0.000147078 -4.4133e-05 -4.41194e-05 -5.30647e-06
0.000205899 -6.17738e-05 -6.17679e-05 -7.15962e-13
0.000208719 -6.262e-05 -6.26137e-05 -7.64636e-13
0.000148085 -4.44353e-05 -4.44213e-05 -5.30648e-06
0.000176488 -5.29537e-05 -5.29434e-05 -2.8744e-06
0.000207309 -6.21969e-05 -6.21908e-05 -7.39181e-13
0.000178905 -5.36791e-05 -5.36682e-05 -2.8744e-06
0.000177697 -5.33164e-05 -5.33058e-05 -2.8744e-06
0.000147078 -4.4133e-05 -4.41194e-05 -5.30647e-06
0.000145065 -4.35284e-05 -4.35155e-05 -5.30646e-06
0.000203079 -6.09277e-05 -6.09222e-05 -7.33865e-13
0.000205899 -6.17738e-05 -6.17679e-05 -7.42173e-13
0.000146071 -4.38307e-05 -4.38174e-05 -5.30647e-06
0.000174072 -5.22283e-05 -5.22186e-05 -2.87439e-06
0.000204489 -6.13507e-05 -6.13451e-05 -7.21023e-13
0.000176488 -5.29537e-05 -5.29434e-05 -2.8744e-06
0.00017528 -5.2591e-05 -5.2581e-05 -2.87439e-06
0.000145065 -4.35284e-05 -4.35155e-05 -5.30646e-06
0.000143051 -4.29238e-05 -4.29116e-05 -5.30646e-06
0.00020026 -6.00815e-05 -6.00764e-05 -7.42674e-13
0.000203079 -6.09277e-05 -6.09222e-05 -7.33909e-13
0.000144058 -4.32261e-05 -4.32135e-05 -5.30646e-06
0.000171655 -5.1503e-05 -5.14937e-05 -2.87439e-06
0.00020167 -6.05046e-05 -6.04993e-05 -7.20636e-13
0.000174072 -5.22283e-05 -5.22186e-05 -2.87439e-06
0.000172863 -5.18656e-05 -5.18562e-05 -2.87439e-06
0.000143051 -4.29238e-05 -4.29116e-05 -5.30646e-06
0.000141037 -4.23193e-05 -4.23076e-05 -5.30645e-06
0.00019744 -5.92354e-05 -5.92307e-05 -7.14853e-13
0.00020026 -6.00815e-05 -6.00764e-05 -7.42674e-13
0.000142044 -4.26215e-05 -4.26096e-05 -5.30645e-06
0.000169238 -5.07776e-05 -5.07689e-05 -2.87438e-06
0.00019885 -5.96584e-05 -5.96535e-05 -7.23607e-13
0.000171655 -5.1503e-05 -5.14937e-05 -2.87439e-06
0.000170447 -5.11403e-05 -5.11313e-05 -2.87438e-06
0.000141037 -4.23193e-05 -4.23076e-05 -5.30645e-06
0.000139023 -4.17147e-05 -4.17037e-05 -5.30644e-06
0.000194621 -5.83892e-05 -5.83849e-05 -7.184e-13
0.00019744 -5.92354e-05 -5.92307e-05 -7.14853e-13
0.00014003 -4.2017e-05 -4.20057e-05 -5.30644e-06
0.000166822 -5.00522e-05 -5.00441e-05 -2.87437e-06
0.00019603 -5.88123e-05 -5.88078e-05 -7.0768e-13
0.000169238 -5.07776e-05 -5.07689e-05 -2.87438e-06
0.00016803 -5.04149e-05 -5.04065e-05 -2.87438e-06
0.000139023 -4.17147e-05 -4.17037e-05 -5.30644e-06
0.00013701 -4.11101e-05 -4.10998e-05 -5.30643e-06
0.000191801 -5.75431e-05 -5.75391e-05 -7.04683e-13
0.000194621 -5.83892e-05 -5.83849e-05 -7.18446e-13
0.000138016 -4.14124e-05 -4.14018e-05 -5.30643e-06
0.000164405 -4.93268e-05 -4.93192e-05 -2.87437e-06
0.000193211 -5.79661e-05 -5.7962e-05 -6.94904e-13
0.000166822 -5.00522e-05 -5.00441e-05 -2.87437e-06
0.000165613 -4.96895e-05 -4.96817e-05 -2.87437e-06
0.00013701 -4.11101e-05 -4.10998e-05 -5.30643e-06
0.000134996 -4.05055e-05 -4.04959e-05 -5.30642e-06
0.000188981 -5.66969e-05 -5.66934e-05 -7.08624e-13
0.000191801 -5.75431e-05 -5.75391e-05 -7.17557e-13
0.000136003 -4.08078e-05 -4.07978e-05 -5.30643e-06
0.000161988 -4.86015e-05 -4.85944e-05 -2.87436e-06
0.000190391 -5.712e-05 -5.71163e-05 -6.99868e-13
0.000164405 -4.93268e-05 -4.93192e-05 -2.87437e-06
0.000163197 -4.89641e-05 -4.89568e-05 -2.87437e-06
0.000134996 -4.05055e-05 -4.04959e-05 -5.30642e-06
0.000132982 -3.99009e-05 -3.98919e-05 -5.30641e-06
0.000186162 -5.58507e-05 -5.58476e-05 -7.01004e-13
0.000188981 -5.66969e-05 -5.66934e-05 -7.08624e-13
0.000133989 -4.02032e-05 -4.01939e-05 -5.30642e-06
0.000159572 -4.78761e-05 -4.78696e-05 -2.87436e-06
0.000187572 -5.62738e-05 -5.62705e-05 -6.67906e-13
0.000161988 -4.86015e-05 -4.85944e-05 -2.87436e-06
0.00016078 -4.82388e-05 -4.8232e-05 -2.87436e-06
0.000132982 -3.99009e-05 -3.98919e-05 -5.30641e-06
0.000130968 -3.92963e-05 -3.9288e-05 -5.3064e-06
0.000183342 -5.50046e-05 -5.50018e-05 -6.81927e-13
0.000186162 -5.58507e-05 -5.58476e-05 -7.01004e-13
0.000131975 -3.95986e-05 -3.959e-05 -5.30641e-06
0.000157155 -4.71507e-05 -4.71447e-05 -2.87435e-06
0.000184752 -5.54277e-05 -5.54247e-05 -6.87174e-13
0.000159572 -4.78761e-05 -4.78696e-05 -2.87436e-06
0.000158363 -4.75134e-05 -4.75071e-05 -2.87436e-06
0.000130968 -3.92963e-05 -3.9288e-05 -5.3064e-06
0.000128955 -3.86918e-05 -3.86841e-05 -5.3064e-06
0.000180523 -5.41584e-05 -5.41561e-05 -6.5572e-13
0.000183342 -5.50046e-05 -5.50018e-05 -6.81602e-13
0.000129961 -3.89941e-05 -3.8986e-05 -5.3064e-06
0.000154738 -4.64253e-05 -4.64199e-05 -2.87435e-06
0.000181932 -5.45815e-05 -5.4579e-05 -6.8918e-13
0.000157155 -4.71507e-05 -4.71447e-05 -2.87435e-06
0.000155947 -4.6788e-05 -4.67823e-05 -2.87435e-06
0.000128955 -3.86918e-05 -3.86841e-05 -5.3064e-06
0.000126941 -3.80872e-05 -3.80801e-05 -5.30639e-06
0.000177703 -5.33123e-05 -5.33103e-05 -6.57562e-13
0.000180523 -5.41584e-05 -5.41561e-05 -6.5572e-13
0.000127948 -3.83895e-05 -3.83821e-05 -5.30639e-06
0.000152322 -4.57e-05 -4.5695e-05 -2.87434e-06
0.000179113 -5.37354e-05 -5.37332e-05 -6.64453e-13
0.000154738 -4.64253e-05 -4.64199e-05 -2.87435e-06
0.00015353 -4.60627e-05 -4.60574e-05 -2.87434e-06
0.000126941 -3.80872e-05 -3.80801e-05 -5.30639e-06
0.000124927 -3.74826e-05 -3.74762e-05 -5.30638e-06
0.000174883 -5.24661e-05 -5.24645e-05 -6.52414e-13
0.000177703 -5.33123e-05 -5.33103e-05 -6.57562e-13
0.000125934 -3.77849e-05 -3.77781e-05 -5.30638e-06
0.000149905 -4.49746e-05 -4.49702e-05 -2.87434e-06
0.000176293 -5.28892e-05 -5.28874e-05 -6.35046e-13
0.000152322 -4.57e-05 -4.5695e-05 -2.87434e-06
0.000151113 -4.53373e-05 -4.53326e-05 -2.87434e-06
0.000124927 -3.74826e-05 -3.74762e-05 -5.30638e-06
0.000122913 -3.68781e-05 -3.68722e-05 -5.30637e-06
0.000172064 -5.162e-05 -5.16188e-05 -6.53407e-13
0.000174883 -5.24661e-05 -5.24645e-05 -6.52414e-13
0.00012392 -3.71804e-05 -3.71742e-05 -5.30637e-06
0.000147488 -4.42492e-05 -4.42453e-05 -2.87433e-06
0.000173474 -5.20431e-05 -5.20417e-05 -6.36147e-13
0.000149905 -4.49746e-05 -4.49702e-05 -2.87434e-06
0.000148697 -4.46119e-05 -4.46077e-05 -2.87433e-06
0.000122913 -3.68781e-05 -3.68722e-05 -5.30637e-06
0.000120899 -3.62735e-05 -3.62683e-05 -5.30636e-06
0.000169244 -5.07738e-05 -5.0773e-05 -6.57004e-13
0.000172064 -5.162e-05 -5.16188e-05 -6.53407e-13
0.000121906 -3.65758e-05 -3.65703e-05 -5.30637e-06
0.000145072 -4.35239e-05 -4.35205e-05 -2.87433e-06
0.000170654 -5.11969e-05 -5.11959e-05 -6.34161e-13
0.000147488 -4.42492e-05 -4.42453e-05 -2.87433e-06
0.00014628 -4.38866e-05 -4.38829e-05 -2.87433e-06
0.000120899 -3.62735e-05 -3.62683e-05 -5.30636e-06
0.000118886 -3.5669e-05 -3.56643e-05 -5.30635e-06
0.000166425 -4.99277e-05 -4.99272e-05 -6.10567e-13
0.000169244 -5.07738e-05 -5.0773e-05 -6.56605e-13
0.000119893 -3.59712e-05 -3.59663e-05 -5.30636e-06
0.000142655 -4.27985e-05 -4.27956e-05 -2.87432e-06
0.000167834 -5.03508e-05 -5.03501e-05 -6.20647e-13
0.000145072 -4.35239e-05 -4.35205e-05 -2.87433e-06
0.000143863 -4.31612e-05 -4.3158e-05 -2.87432e-06
0.000118886 -3.5669e-05 -3.56643e-05 -5.30635e-06
0.000116872 -3.50644e-05 -3.50604e-05 -5.30635e-06
0.000163605 -4.90815e-05 -4.90815e-05 -6.14634e-13
0.000166425 -4.99277e-05 -4.99272e-05 -6.10567e-13
0.000117879 -3.53667e-05 -3.53623e-05 -5.30635e-06
0.000140238 -4.20732e-05 -4.20707e-05 -2.87432e-06
0.000165015 -4.95046e-05 -4.95044e-05 -6.032e-13
0.000142655 -4.27985e-05 -4.27956e-05 -2.87432e-06
0.000141447 -4.24358e-05 -4.24332e-05 -2.87432e-06
0.000116872 -3.50644e-05 -3.50604e-05 -5.30635e-06
0.000114858 -3.44598e-05 -3.44564e-05 -5.30634e-06
0.000160785 -4.82354e-05 -4.82357e-05 -6.00111e-13
0.000163605 -4.90815e-05 -4.90815e-05 -6.14634e-13
0.000115865 -3.47621e-05 -3.47584e-05 -5.30634e-06
0.000137822 -4.13478e-05 -4.13459e-05 -2.87431e-06
0.000162195 -4.86585e-05 -4.86586e-05 -5.92216e-13
0.000140238 -4.20732e-05 -4.20707e-05 -2.87432e-06
0.00013903 -4.17105e-05 -4.17083e-05 -2.87431e-06
0.000114858 -3.44598e-05 -3.44564e-05 -5.30634e-06
0.000112844 -3.38553e-05 -3.38524e-05 -5.30633e-06
0.000157966 -4.73892e-05 -4.73899e-05 -6.0766e-13
0.000160785 -4.82354e-05 -4.82357e-05 -6.13311e-13
0.000113851 -3.41576e-05 -3.41544e-05 -5.30633e-06
0.000135405 -4.06224e-05 -4.0621e-05 -2.8743e-06
0.000159376 -4.78123e-05 -4.78128e-05 -5.73304e-13
0.000137822 -4.13478e-05 -4.13459e-05 -2.87431e-06
0.000136613 -4.09851e-05 -4.09835e-05 -2.87431e-06
0.000112844 -3.38553e-05 -3.38524e-05 -5.30633e-06
0.00011083 -3.32507e-05 -3.32485e-05 -5.30632e-06
0.000155146 -4.65431e-05 -4.65441e-05 -5.64555e-13
0.000157966 -4.73892e-05 -4.73899e-05 -6.07611e-13
0.000111837 -3.3553e-05 -3.35504e-05 -5.30632e-06
0.000132988 -3.98971e-05 -3.98962e-05 -2.8743e-06
0.000156556 -4.69662e-05 -4.6967e-05 -6.05387e-13
0.000135405 -4.06224e-05 -4.0621e-05 -2.8743e-06
0.000134196 -4.02598e-05 -4.02586e-05 -2.8743e-06
0.00011083 -3.32507e-05 -3.32485e-05 -5.30632e-06
0.000108817 -3.26462e-05 -3.26445e-05 -5.30631e-06
0.000152326 -4.56969e-05 -4.56984e-05 -5.87131e-13
0.000155146 -4.65431e-05 -4.65441e-05 -5.64555e-13
0.000109824 -3.29485e-05 -3.29465e-05 -5.30632e-06
0.000130571 -3.91717e-05 -3.91713e-05 -2.87429e-06
0.000153736 -4.612e-05 -4.61213e-05 -6.0724e-13
0.000132988 -3.98971e-05 -3.98962e-05 -2.8743e-06
0.00013178 -3.95344e-05 -3.95337e-05 -2.8743e-06
0.000108817 -3.26462e-05 -3.26445e-05 -5.30631e-06
0.000106803 -3.20417e-05 -3.20405e-05 -5.3063e-06
0.000149507 -4.48508e-05 -4.48526e-05 -5.49047e-13
0.000152326 -4.56969e-05 -4.56984e-05 -5.87131e-13
0.00010781 -3.23439e-05 -3.23425e-05 -5.30631e-06
0.000128155 -3.84464e-05 -3.84464e-05 -2.87429e-06
0.000150917 -4.52739e-05 -4.52755e-05 -5.58453e-13
0.000130571 -3.91717e-05 -3.91713e-05 -2.87429e-06
0.000129363 -3.88091e-05 -3.88088e-05 -2.87429e-06
0.000106803 -3.20417e-05 -3.20405e-05 -5.3063e-06
0.000104789 -3.14371e-05 -3.14365e-05 -5.3063e-06
0.000146687 -4.40046e-05 -4.40068e-05 -5.75969e-13
0.000149507 -4.48508e-05 -4.48526e-05 -5.49e-13
0.000105796 -3.17394e-05 -3.17385e-05 -5.3063e-06
0.000125738 -3.7721e-05 -3.77215e-05 -2.87428e-06
0.000148097 -4.44277e-05 -4.44297e-05 -5.48787e-13
0.000128155 -3.84464e-05 -3.84464e-05 -2.87429e-06
0.000126946 -3.80837e-05 -3.8084e-05 -2.87429e-06
0.000104789 -3.14371e-05 -3.14365e-05 -5.3063e-06
0.000102775 -3.08326e-05 -3.08325e-05 -5.30629e-06
0.000143868 -4.31585e-05 -4.3161e-05 -5.39672e-13
0.000146687 -4.40046e-05 -4.40068e-05 -5.61941e-13
0.000103782 -3.11349e-05 -3.11345e-05 -5.30629e-06
0.000123321 -3.69957e-05 -3.69967e-05 -2.87428e-06
0.000145277 -4.35816e-05 -4.35839e-05 -5.4892e-13
0.000125738 -3.7721e-05 -3.77215e-05 -2.87428e-06
0.00012453 -3.73584e-05 -3.73591e-05 -2.87428e-06
0.000102775 -3.08326e-05 -3.08325e-05 -5.30629e-06
0.000100761 -3.02281e-05 -3.02286e-05 -5.30628e-06
0.000141048 -4.23123e-05 -4.23152e-05 -5.70069e-13
0.000143868 -4.31585e-05 -4.3161e-05 -5.39672e-13
0.000101768 -3.05303e-05 -3.05305e-05 -5.30628e-06
0.000120904 -3.62703e-05 -3.62718e-05 -2.87427e-06
0.000142458 -4.27354e-05 -4.27381e-05 -5.66169e-13
0.000123321 -3.69957e-05 -3.69967e-05 -2.87428e-06
0.000122113 -3.6633e-05 -3.66342e-05 -2.87428e-06
0.000100761 -3.02281e-05 -3.02286e-05 -5.30628e-06
9.87475e-05 -2.96235e-05 -2.96246e-05 -5.30627e-06
0.000138228 -4.14662e-05 -4.14695e-05 -5.51607e-13
0.000141048 -4.23123e-05 -4.23152e-05 -5.43245e-13
9.97544e-05 -2.99258e-05 -2.99266e-05 -5.30628e-06
0.000118488 -3.5545e-05 -3.55469e-05 -2.87427e-06
0.000139638 -4.18893e-05 -4.18923e-05 -5.78657e-13
0.000120904 -3.62703e-05 -3.62718e-05 -2.87427e-06
0.000119696 -3.59077e-05 -3.59093e-05 -2.87427e-06
9.87475e-05 -2.96235e-05 -2.96246e-05 -5.30627e-06
9.67336e-05 -2.9019e-05 -2.90206e-05 -5.30626e-06
0.000135409 -4.062e-05 -4.06237e-05 -4.96592e-13
0.000138228 -4.14662e-05 -4.14695e-05 -5.51607e-13
9.77406e-05 -2.93213e-05 -2.93226e-05 -5.30627e-06
0.000116071 -3.48197e-05 -3.4822e-05 -2.87426e-06
0.000136818 -4.10431e-05 -4.10466e-05 -5.18235e-13
0.000118488 -3.5545e-05 -3.55469e-05 -2.87427e-06
0.000117279 -3.51823e-05 -3.51844e-05 -2.87427e-06
9.67336e-05 -2.9019e-05 -2.90206e-05 -5.30626e-06
9.47198e-05 -2.84145e-05 -2.84166e-05 -5.30625e-06
0.000132589 -3.97739e-05 -3.97779e-05 -5.16074e-13
0.000135409 -4.062e-05 -4.06237e-05 -4.96592e-13
9.57267e-05 -2.87167e-05 -2.87186e-05 -5.30626e-06
0.000113654 -3.40943e-05 -3.40971e-05 -2.87426e-06
0.000133999 -4.0197e-05 -4.02008e-05 -5.23234e-13
0.000116071 -3.48197e-05 -3.4822e-05 -2.87426e-06
0.000114863 -3.4457e-05 -3.44596e-05 -2.87426e-06
9.47198e-05 -2.84145e-05 -2.84166e-05 -5.30625e-06
9.27059e-05 -2.781e-05 -2.78126e-05 -5.30625e-06
0.000129769 -3.89277e-05 -3.89321e-05 -5.23121e-13
0.000132589 -3.97739e-05 -3.97779e-05 -5.16074e-13
9.37129e-05 -2.81122e-05 -2.81146e-05 -5.30625e-06
0.000111237 -3.3369e-05 -3.33722e-05 -2.87425e-06
0.000131179 -3.93508e-05 -3.9355e-05 -5.6104e-13
0.000113654 -3.40943e-05 -3.40971e-05 -2.87426e-06
0.000112446 -3.37316e-05 -3.37347e-05 -2.87425e-06
9.27059e-05 -2.781e-05 -2.78126e-05 -5.30625e-06
9.06921e-05 -2.72054e-05 -2.72086e-05 -5.30624e-06
0.00012695 -3.80816e-05 -3.80863e-05 -5.3016e-13
0.000129769 -3.89277e-05 -3.89321e-05 -4.79712e-13
9.1699e-05 -2.75077e-05 -2.75106e-05 -5.30624e-06
0.000108821 -3.26436e-05 -3.26473e-05 -2.87425e-06
0.000128359 -3.85047e-05 -3.85092e-05 -5.44552e-13
0.000111237 -3.3369e-05 -3.33722e-05 -2.87425e-06
0.000110029 -3.30063e-05 -3.30098e-05 -2.87425e-06
9.06921e-05 -2.72054e-05 -2.72086e-05 -5.30624e-06
8.86782e-05 -2.66009e-05 -2.66045e-05 -5.30623e-06
0.00012413 -3.72354e-05 -3.72405e-05 -5.09258e-13
0.00012695 -3.80816e-05 -3.80863e-05 -5.3016e-13
8.96851e-05 -2.69032e-05 -2.69065e-05 -5.30623e-06
0.000106404 -3.19183e-05 -3.19224e-05 -2.87424e-06
0.00012554 -3.76585e-05 -3.76634e-05 -4.51769e-13
0.000108821 -3.26436e-05 -3.26473e-05 -2.87425e-06
0.000107612 -3.2281e-05 -3.22849e-05 -2.87424e-06
8.86782e-05 -2.66009e-05 -2.66045e-05 -5.30623e-06
8.66643e-05 -2.59964e-05 -2.60005e-05 -5.30622e-06
0.00012131 -3.63893e-05 -3.63947e-05 -5.04896e-13
0.00012413 -3.72354e-05 -3.72405e-05 -5.09258e-13
8.76712e-05 -2.62987e-05 -2.63025e-05 -5.30623e-06
0.000103987 -3.1193e-05 -3.11975e-05 -2.87424e-06
0.00012272 -3.68124e-05 -3.68176e-05 -4.75662e-13
0.000106404 -3.19183e-05 -3.19224e-05 -2.87424e-06
0.000105196 -3.15556e-05 -3.156e-05 -2.87424e-06
8.66643e-05 -2.59964e-05 -2.60005e-05 -5.30622e-06
8.46504e-05 -2.53919e-05 -2.53965e-05 -5.30621e-06
0.000118491 -3.55432e-05 -3.55489e-05 -4.63012e-13
0.00012131 -3.63893e-05 -3.63947e-05 -5.17778e-13
8.56574e-05 -2.56942e-05 -2.56985e-05 -5.30622e-06
0.00010157 -3.04676e-05 -3.04726e-05 -2.87423e-06
0.0001199 -3.59662e-05 -3.59718e-05 -4.86512e-13
0.000103987 -3.1193e-05 -3.11975e-05 -2.87424e-06
0.000102779 -3.08303e-05 -3.08351e-05 -2.87423e-06
8.46504e-05 -2.53919e-05 -2.53965e-05 -5.30621e-06
8.26365e-05 -2.47874e-05 -2.47925e-05 -5.30621e-06
0.000115671 -3.4697e-05 -3.47031e-05 -4.52795e-13
0.000118491 -3.55432e-05 -3.55489e-05 -4.6301e-13
8.36435e-05 -2.50896e-05 -2.50945e-05 -5.30621e-06
9.91537e-05 -2.97423e-05 -2.97477e-05 -2.87423e-06
0.000117081 -3.51201e-05 -3.5126e-05 -4.1964e-13
0.00010157 -3.04676e-05 -3.04726e-05 -2.87423e-06
0.000100362 -3.0105e-05 -3.01102e-05 -2.87423e-06
8.26365e-05 -2.47874e-05 -2.47925e-05 -5.30621e-06
8.06226e-05 -2.41829e-05 -2.41885e-05 -5.3062e-06
0.000112851 -3.38509e-05 -3.38573e-05 -4.41187e-13
0.000115671 -3.4697e-05 -3.47031e-05 -4.52795e-13
8.16296e-05 -2.44851e-05 -2.44905e-05 -5.3062e-06
9.67369e-05 -2.9017e-05 -2.90228e-05 -2.87422e-06
0.000114261 -3.42739e-05 -3.42802e-05 -4.21523e-13
9.91537e-05 -2.97423e-05 -2.97477e-05 -2.87423e-06
9.79453e-05 -2.93796e-05 -2.93853e-05 -2.87422e-06
8.06226e-05 -2.41829e-05 -2.41885e-05 -5.3062e-06
7.86087e-05 -2.35784e-05 -2.35844e-05 -5.30619e-06
0.000110032 -3.30047e-05 -3.30115e-05 -4.34639e-13
0.000112851 -3.38509e-05 -3.38573e-05 -4.41187e-13
7.96157e-05 -2.38806e-05 -2.38864e-05 -5.30619e-06
9.43201e-05 -2.82916e-05 -2.82979e-05 -2.87422e-06
0.000111441 -3.34278e-05 -3.34344e-05 -4.58316e-13
9.67369e-05 -2.9017e-05 -2.90228e-05 -2.87422e-06
9.55285e-05 -2.86543e-05 -2.86604e-05 -2.87422e-06
7.86087e-05 -2.35784e-05 -2.35844e-05 -5.30619e-06
7.65948e-05 -2.29739e-05 -2.29804e-05 -5.30618e-06
0.000107212 -3.21586e-05 -3.21657e-05 -4.46639e-13
0.000110032 -3.30047e-05 -3.30115e-05 -4.34639e-13
7.76018e-05 -2.32761e-05 -2.32824e-05 -5.30619e-06
9.19033e-05 -2.75663e-05 -2.7573e-05 -2.87421e-06
0.000108622 -3.25816e-05 -3.25886e-05 -4.70883e-13
9.43201e-05 -2.82916e-05 -2.82979e-05 -2.87422e-06
9.31117e-05 -2.7929e-05 -2.79355e-05 -2.87421e-06
7.65948e-05 -2.29739e-05 -2.29804e-05 -5.30618e-06
7.45809e-05 -2.23694e-05 -2.23764e-05 -5.30617e-06
0.000104392 -3.13124e-05 -3.13199e-05 -4.35725e-13
0.000107212 -3.21586e-05 -3.21657e-05 -4.29638e-13
7.55879e-05 -2.26716e-05 -2.26784e-05 -5.30618e-06
8.94865e-05 -2.6841e-05 -2.68481e-05 -2.87421e-06
0.000105802 -3.17355e-05 -3.17428e-05 -4.54143e-13
9.19033e-05 -2.75663e-05 -2.7573e-05 -2.87421e-06
9.06949e-05 -2.72036e-05 -2.72105e-05 -2.87421e-06
7.45809e-05 -2.23694e-05 -2.23764e-05 -5.30617e-06
7.2567e-05 -2.17649e-05 -2.17723e-05 -5.30617e-06
0.000101573 -3.04663e-05 -3.04741e-05 -4.20432e-13
0.000104392 -3.13124e-05 -3.13199e-05 -4.35725e-13
7.35739e-05 -2.20671e-05 -2.20743e-05 -5.30617e-06
8.70697e-05 -2.61157e-05 -2.61232e-05 -2.8742e-06
0.000102982 -3.08893e-05 -3.0897e-05 -4.47622e-13
8.94865e-05 -2.6841e-05 -2.68481e-05 -2.87421e-06
8.82781e-05 -2.64783e-05 -2.64856e-05 -2.8742e-06
7.2567e-05 -2.17649e-05 -2.17723e-05 -5.30617e-06
7.0553e-05 -2.11604e-05 -2.11683e-05 -5.30616e-06
9.87529e-05 -2.96201e-05 -2.96283e-05 -4.42767e-13
0.000101573 -3.04663e-05 -3.04741e-05 -4.20432e-13
7.156e-05 -2.14627e-05 -2.14703e-05 -5.30616e-06
8.46529e-05 -2.53903e-05 -2.53982e-05 -2.8742e-06
0.000100163 -3.00432e-05 -3.00512e-05 -4.46604e-13
8.70697e-05 -2.61157e-05 -2.61232e-05 -2.8742e-06
8.58613e-05 -2.5753e-05 -2.57607e-05 -2.8742e-06
7.0553e-05 -2.11604e-05 -2.11683e-05 -5.30616e-06
6.85391e-05 -2.05559e-05 -2.05642e-05 -5.30615e-06
9.59332e-05 -2.8774e-05 -2.87825e-05 -4.24398e-13
9.87529e-05 -2.96201e-05 -2.96283e-05 -4.45682e-13
6.95461e-05 -2.08582e-05 -2.08662e-05 -5.30615e-06
8.22361e-05 -2.4665e-05 -2.46733e-05 -2.87419e-06
9.73431e-05 -2.91971e-05 -2.92054e-05 -4.50697e-13
8.46529e-05 -2.53903e-05 -2.53982e-05 -2.8742e-06
8.34445e-05 -2.50277e-05 -2.50358e-05 -2.87419e-06
6.85391e-05 -2.05559e-05 -2.05642e-05 -5.30615e-06
6.65252e-05 -1.99514e-05 -1.99602e-05 -5.30614e-06
9.31135e-05 -2.79278e-05 -2.79367e-05 -3.81469e-13
9.59332e-05 -2.8774e-05 -2.87825e-05 -4.24797e-13
6.75321e-05 -2.02537e-05 -2.02622e-05 -5.30615e-06
7.98193e-05 -2.39397e-05 -2.39484e-05 -2.87419e-06
9.45234e-05 -2.83509e-05 -2.83596e-05 -4.1069e-13
8.22361e-05 -2.4665e-05 -2.46733e-05 -2.87419e-06
8.10277e-05 -2.43024e-05 -2.43109e-05 -2.87419e-06
6.65252e-05 -1.99514e-05 -1.99602e-05 -5.30614e-06
6.45112e-05 -1.9347e-05 -1.93561e-05 -5.30613e-06
9.02938e-05 -2.70817e-05 -2.70909e-05 -3.84149e-13
9.31135e-05 -2.79278e-05 -2.79367e-05 -3.81469e-13
6.55182e-05 -1.96492e-05 -1.96581e-05 -5.30614e-06
7.74025e-05 -2.32144e-05 -2.32235e-05 -2.87418e-06
9.17037e-05 -2.75048e-05 -2.75138e-05 -4.0471e-13
7.98193e-05 -2.39397e-05 -2.39484e-05 -2.87419e-06
7.86109e-05 -2.3577e-05 -2.35859e-05 -2.87418e-06
6.45112e-05 -1.9347e-05 -1.93561e-05 -5.30613e-06
6.24973e-05 -1.87425e-05 -1.87521e-05 -5.30613e-06
8.74741e-05 -2.62355e-05 -2.62451e-05 -3.57149e-13
9.02938e-05 -2.70817e-05 -2.70909e-05 -3.84149e-13
6.35043e-05 -1.90447e-05 -1.90541e-05 -5.30613e-06
7.49857e-05 -2.24891e-05 -2.24985e-05 -2.87418e-06
8.8884e-05 -2.66586e-05 -2.6668e-05 -3.75413e-13
7.74025e-05 -2.32144e-05 -2.32235e-05 -2.87418e-06
7.61941e-05 -2.28517e-05 -2.2861e-05 -2.87418e-06
6.24973e-05 -1.87425e-05 -1.87521e-05 -5.30613e-06
6.04833e-05 -1.8138e-05 -1.8148e-05 -5.30612e-06
8.46544e-05 -2.53894e-05 -2.53993e-05 -3.61453e-13
8.74741e-05 -2.62355e-05 -2.62451e-05 -3.572e-13
6.14903e-05 -1.84402e-05 -1.845e-05 -5.30612e-06
7.25688e-05 -2.17638e-05 -2.17736e-05 -2.87417e-06
8.60643e-05 -2.58125e-05 -2.58222e-05 -3.47836e-13
7.49857e-05 -2.24891e-05 -2.24985e-05 -2.87418e-06
7.37772e-05 -2.21264e-05 -2.21361e-05 -2.87417e-06
6.04833e-05 -1.8138e-05 -1.8148e-05 -5.30612e-06
5.84694e-05 -1.75335e-05 -1.75439e-05 -5.30611e-06
8.18347e-05 -2.45433e-05 -2.45535e-05 -3.58144e-13
8.46544e-05 -2.53894e-05 -2.53993e-05 -3.7438e-13
5.94763e-05 -1.78358e-05 -1.7846e-05 -5.30612e-06
7.0152e-05 -2.10384e-05 -2.10487e-05 -2.87417e-06
8.32446e-05 -2.49663e-05 -2.49764e-05 -3.65889e-13
7.25688e-05 -2.17638e-05 -2.17736e-05 -2.87417e-06
7.13604e-05 -2.14011e-05 -2.14111e-05 -2.87417e-06
5.84694e-05 -1.75335e-05 -1.75439e-05 -5.30611e-06
5.64554e-05 -1.69291e-05 -1.69398e-05 -5.30611e-06
7.9015e-05 -2.36971e-05 -2.37077e-05 -3.48983e-13
8.18347e-05 -2.45433e-05 -2.45535e-05 -3.58144e-13
5.74624e-05 -1.72313e-05 -1.72419e-05 -5.30611e-06
6.77352e-05 -2.03131e-05 -2.03237e-05 -2.87416e-06
8.04249e-05 -2.41202e-05 -2.41306e-05 -3.52021e-13
7.0152e-05 -2.10384e-05 -2.10487e-05 -2.87417e-06
6.89436e-05 -2.06758e-05 -2.06862e-05 -2.87416e-06
5.64554e-05 -1.69291e-05 -1.69398e-05 -5.30611e-06
5.44414e-05 -1.63246e-05 -1.63358e-05 -5.3061e-06
7.61953e-05 -2.2851e-05 -2.28619e-05 -3.12549e-13
7.9015e-05 -2.36971e-05 -2.37077e-05 -3.48983e-13
5.54484e-05 -1.66268e-05 -1.66378e-05 -5.3061e-06
6.53183e-05 -1.95878e-05 -1.95988e-05 -2.87416e-06
7.76052e-05 -2.3274e-05 -2.32848e-05 -3.13184e-13
6.77352e-05 -2.03131e-05 -2.03237e-05 -2.87416e-06
6.65267e-05 -1.99505e-05 -1.99613e-05 -2.87416e-06
5.44414e-05 -1.63246e-05 -1.63358e-05 -5.3061e-06
5.24274e-05 -1.57201e-05 -1.57317e-05 -5.30609e-06
7.33756e-05 -2.20048e-05 -2.2016e-05 -2.71999e-13
7.61953e-05 -2.2851e-05 -2.28619e-05 -3.12495e-13
5.34344e-05 -1.60224e-05 -1.60337e-05 -5.3061e-06
6.29015e-05 -1.88625e-05 -1.88738e-05 -2.87415e-06
7.47855e-05 -2.24279e-05 -2.2439e-05 -2.94682e-13
6.53183e-05 -1.95878e-05 -1.95988e-05 -2.87416e-06
6.41099e-05 -1.92252e-05 -1.92363e-05 -2.87416e-06
5.24274e-05 -1.57201e-05 -1.57317e-05 -5.30609e-06
5.04134e-05 -1.51157e-05 -1.51276e-05 -5.30609e-06
7.05559e-05 -2.11587e-05 -2.11702e-05 -1.72986e-13
7.33756e-05 -2.20048e-05 -2.2016e-05 -2.72052e-13
5.14204e-05 -1.54179e-05 -1.54296e-05 -5.30609e-06
6.04846e-05 -1.81372e-05 -1.81489e-05 -2.87415e-06
7.19657e-05 -2.15817e-05 -2.15931e-05 -2.52072e-13
6.29015e-05 -1.88625e-05 -1.88738e-05 -2.87415e-06
6.1693e-05 -1.84999e-05 -1.85114e-05 -2.87415e-06
5.04134e-05 -1.51157e-05 -1.51276e-05 -5.30609e-06
4.83994e-05 -1.45112e-05 -1.45235e-05 -5.30609e-06
6.77361e-05 -2.03125e-05 -2.03244e-05 -7.13072e-14
7.05559e-05 -2.11587e-05 -2.11702e-05 -1.72986e-13
4.94064e-05 -1.48135e-05 -1.48256e-05 -5.30609e-06
5.80677e-05 -1.74119e-05 -1.74239e-05 -2.87415e-06
6.9146e-05 -2.07356e-05 -2.07473e-05 -1.42115e-13
6.04846e-05 -1.81372e-05 -1.81489e-05 -2.87415e-06
5.92762e-05 -1.77746e-05 -1.77864e-05 -2.87415e-06
4.83994e-05 -1.45112e-05 -1.45235e-05 -5.30609e-06
4.63854e-05 -1.39068e-05 -1.39194e-05 -5.30609e-06
6.49164e-05 -1.94664e-05 -1.94786e-05 1.51215e-14
6.77361e-05 -2.03125e-05 -2.03244e-05 -7.13072e-14
4.73924e-05 -1.4209e-05 -1.42215e-05 -5.30609e-06
5.56509e-05 -1.66866e-05 -1.6699e-05 -2.87415e-06
6.63263e-05 -1.98895e-05 -1.99015e-05 -3.46505e-14
5.80677e-05 -1.74119e-05 -1.74239e-05 -2.87415e-06
5.68593e-05 -1.70493e-05 -1.70615e-05 -2.87415e-06
4.63854e-05 -1.39068e-05 -1.39194e-05 -5.30609e-06
4.43714e-05 -1.33023e-05 -1.33153e-05 -5.3061e-06
6.20967e-05 -1.86202e-05 -1.86328e-05 3.62306e-13
6.49164e-05 -1.94664e-05 -1.94786e-05 1.50691e-14
4.53784e-05 -1.36046e-05 -1.36174e-05 -5.30609e-06
5.3234e-05 -1.59613e-05 -1.5974e-05 -2.87416e-06
6.35065e-05 -1.90433e-05 -1.90557e-05 1.96124e-13
5.56509e-05 -1.66866e-05 -1.6699e-05 -2.87415e-06
5.44424e-05 -1.6324e-05 -1.63365e-05 -2.87415e-06
4.43714e-05 -1.33023e-05 -1.33153e-05 -5.3061e-06
4.23574e-05 -1.26979e-05 -1.27112e-05 -5.30611e-06
5.92769e-05 -1.77741e-05 -1.77869e-05 6.06826e-13
6.20967e-05 -1.86202e-05 -1.86328e-05 3.4937e-13
4.33644e-05 -1.30001e-05 -1.30133e-05 -5.3061e-06
5.08171e-05 -1.5236e-05 -1.5249e-05 -2.87417e-06
6.06868e-05 -1.81972e-05 -1.82098e-05 4.97154e-13
5.3234e-05 -1.59613e-05 -1.5974e-05 -2.87416e-06
5.20256e-05 -1.55987e-05 -1.56115e-05 -2.87416e-06
4.23574e-05 -1.26979e-05 -1.27112e-05 -5.30611e-06
4.03434e-05 -1.20935e-05 -1.21071e-05 -5.30613e-06
5.64571e-05 -1.69279e-05 -1.69411e-05 1.35775e-12
5.92769e-05 -1.77741e-05 -1.77869e-05 6.06826e-13
4.13504e-05 -1.23957e-05 -1.24092e-05 -5.30612e-06
4.84002e-05 -1.45107e-05 -1.45241e-05 -2.87419e-06
5.7867e-05 -1.7351e-05 -1.7364e-05 1.10693e-12
5.08171e-05 -1.5236e-05 -1.5249e-05 -2.87417e-06
4.96087e-05 -1.48734e-05 -1.48866e-05 -2.87418e-06
4.03434e-05 -1.20935e-05 -1.21071e-05 -5.30613e-06
3.83294e-05 -1.1489e-05 -1.1503e-05 -5.30617e-06
5.36373e-05 -1.60817e-05 -1.60952e-05 1.71858e-12
5.64571e-05 -1.69279e-05 -1.69411e-05 1.35775e-12
3.93364e-05 -1.17912e-05 -1.18051e-05 -5.30615e-06
4.59833e-05 -1.37854e-05 -1.37991e-05 -2.87422e-06
5.50472e-05 -1.65048e-05 -1.65181e-05 1.37248e-12
4.84002e-05 -1.45107e-05 -1.45241e-05 -2.87419e-06
4.71917e-05 -1.41481e-05 -1.41616e-05 -2.8742e-06
3.83294e-05 -1.1489e-05 -1.1503e-05 -5.30617e-06
3.63153e-05 -1.08846e-05 -1.08989e-05 -5.30622e-06
5.08174e-05 -1.52356e-05 -1.52493e-05 2.28201e-12
5.36373e-05 -1.60817e-05 -1.60952e-05 1.63969e-12
3.73224e-05 -1.11868e-05 -1.12009e-05 -5.30619e-06
4.35663e-05 -1.30601e-05 -1.30741e-05 -2.87427e-06
5.22273e-05 -1.56587e-05 -1.56723e-05 3.04592e-12
4.59833e-05 -1.37854e-05 -1.37991e-05 -2.87422e-06
4.47748e-05 -1.34227e-05 -1.34366e-05 -2.87425e-06
3.63153e-05 -1.08846e-05 -1.08989e-05 -5.30622e-06
3.43013e-05 -1.02802e-05 -1.02948e-05 -5.30626e-06
4.79973e-05 -1.43893e-05 -1.44034e-05 1.31758e-12
5.08174e-05 -1.52356e-05 -1.52493e-05 2.28201e-12
3.53083e-05 -1.05824e-05 -1.05968e-05 -5.30624e-06
4.11493e-05 -1.23348e-05 -1.23491e-05 -2.87434e-06
4.94074e-05 -1.48124e-05 -1.48264e-05 5.01615e-13
4.35663e-05 -1.30601e-05 -1.30741e-05 -2.87427e-06
4.23578e-05 -1.26974e-05 -1.27116e-05 -2.8743e-06
3.43013e-05 -1.02802e-05 -1.02948e-05 -5.30626e-06
3.22874e-05 -9.67573e-06 -9.69071e-06 -5.30625e-06
4.51772e-05 -1.35431e-05 -1.35575e-05 -4.65765e-12
4.79973e-05 -1.43893e-05 -1.44034e-05 1.31758e-12
3.32944e-05 -9.97796e-06 -9.99274e-06 -5.30627e-06
3.87323e-05 -1.16095e-05 -1.16241e-05 -2.87439e-06
4.65873e-05 -1.39662e-05 -1.39805e-05 4.42777e-12
4.11493e-05 -1.23348e-05 -1.23491e-05 -2.87434e-06
3.99408e-05 -1.19721e-05 -1.19866e-05 -2.87437e-06
3.22874e-05 -9.67573e-06 -9.69071e-06 -5.30625e-06
3.02735e-05 -9.07117e-06 -9.08671e-06 -5.30605e-06
4.23569e-05 -1.26968e-05 -1.27115e-05 -1.2801e-11
4.51772e-05 -1.35431e-05 -1.35575e-05 -4.65765e-12
3.12804e-05 -9.37347e-06 -9.38869e-06 -5.30619e-06
3.63154e-05 -1.08841e-05 -1.08991e-05 -2.87436e-06
4.37671e-05 -1.31199e-05 -1.31345e-05 -1.68274e-11
3.87323e-05 -1.16095e-05 -1.16241e-05 -2.87439e-06
3.75238e-05 -1.12468e-05 -1.12616e-05 -2.87439e-06
3.02735e-05 -9.07117e-06 -9.08671e-06 -5.30605e-06
2.82597e-05 -8.46634e-06 -8.48286e-06 -5.30541e-06
3.95366e-05 -1.18504e-05 -1.18655e-05 -6.3357e-11
4.23569e-05 -1.26968e-05 -1.27115e-05 -1.2801e-11
2.92666e-05 -8.76881e-06 -8.78476e-06 -5.30581e-06
3.38986e-05 -1.01588e-05 -1.01742e-05 -2.8741e-06
4.09468e-05 -1.22736e-05 -1.22885e-05 -7.72419e-12
3.63154e-05 -1.08841e-05 -1.08991e-05 -2.87436e-06
3.51069e-05 -1.05215e-05 -1.05366e-05 -2.87428e-06
2.82597e-05 -8.46634e-06 -8.48286e-06 -5.30541e-06
2.62461e-05 -7.86093e-06 -7.87935e-06 -5.30363e-06
3.67164e-05 -1.10042e-05 -1.10195e-05 -9.32278e-11
3.95366e-05 -1.18504e-05 -1.18655e-05 -6.33536e-11
2.72528e-05 -8.16374e-06 -8.18103e-06 -5.30472e-06
3.14824e-05 -9.43347e-06 -9.44954e-06 -2.87313e-06
3.81265e-05 -1.14273e-05 -1.14425e-05 -1.23284e-10
3.38986e-05 -1.01588e-05 -1.01742e-05 -2.8741e-06
3.26905e-05 -9.79613e-06 -9.81185e-06 -2.87373e-06
2.62461e-05 -7.86093e-06 -7.87935e-06 -5.30363e-06
2.42324e-05 -7.25427e-06 -7.27636e-06 -5.29961e-06
3.38976e-05 -1.01581e-05 -1.01741e-05 -3.62991e-10
3.67164e-05 -1.10042e-05 -1.10195e-05 -9.32278e-11
2.52393e-05 -7.55783e-06 -7.57778e-06 -5.30199e-06
2.90677e-05 -8.70818e-06 -8.72549e-06 -2.87071e-06
3.53067e-05 -1.0581e-05 -1.05967e-05 -9.19099e-11
3.14824e-05 -9.43347e-06 -9.44954e-06 -2.87313e-06
3.02747e-05 -9.07082e-06 -9.08739e-06 -2.8722e-06
2.42324e-05 -7.25427e-06 -7.27636e-06 -5.29961e-06
2.22192e-05 -6.64511e-06 -6.6746e-06 -5.29069e-06
3.10814e-05 -9.31377e-06 -9.32897e-06 -4.10561e-10
3.38976e-05 -1.01581e-05 -1.01741e-05 -3.62991e-10
2.32257e-05 -6.95009e-06 -6.97524e-06 -5.29603e-06
2.66556e-05 -7.98306e-06 -8.00252e-06 -2.86493e-06
3.24892e-05 -9.73602e-06 -9.75135e-06 -6.14058e-10
2.90677e-05 -8.70818e-06 -8.72549e-06 -2.87071e-06
2.78613e-05 -8.34558e-06 -8.36387e-06 -2.86835e-06
2.22192e-05 -6.64511e-06 -6.6746e-06 -5.29069e-06
2.02047e-05 -6.03139e-06 -6.07428e-06 -5.27323e-06
2.82744e-05 -8.47048e-06 -8.48741e-06 -1.59337e-09
3.10814e-05 -9.31377e-06 -9.32897e-06 -4.1056e-10
2.12124e-05 -6.3391e-06 -6.37428e-06 -5.28331e-06
2.42503e-05 -7.25837e-06 -7.28224e-06 -2.85277e-06
2.96759e-05 -8.89101e-06 -8.9078e-06 -4.19587e-10
2.66556e-05 -7.98306e-06 -8.00252e-06 -2.86493e-06
2.54516e-05 -7.62068e-06 -7.64183e-06 -2.86008e-06
2.02047e-05 -6.03139e-06 -6.07428e-06 -5.27323e-06
1.81901e-05 -5.409e-06 -5.47763e-06 -5.23851e-06
2.54823e-05 -7.63687e-06 -7.64803e-06 -1.38719e-09
2.82744e-05 -8.47048e-06 -8.48741e-06 -1.59337e-09
1.9197e-05 -5.72138e-06 -5.77526e-06 -5.25888e-06
2.18555e-05 -6.53448e-06 -6.56614e-06 -2.82791e-06
2.68767e-05 -8.05403e-06 -8.06685e-06 -2.5746e-09
2.42503e-05 -7.25837e-06 -7.28224e-06 -2.85277e-06
2.30515e-05 -6.89617e-06 -6.92373e-06 -2.84215e-06
1.81901e-05 -5.409e-06 -5.47763e-06 -5.23851e-06
1.61671e-05 -4.77318e-06 -4.88312e-06 -5.17773e-06
2.27328e-05 -6.80698e-06 -6.82535e-06 -5.96196e-09
2.54823e-05 -7.63687e-06 -7.64803e-06 -1.38719e-09
1.71812e-05 -5.09379e-06 -5.18032e-06 -5.21197e-06
1.94852e-05 -5.81282e-06 -5.8596e-06 -2.78022e-06
2.40985e-05 -7.21659e-06 -7.23512e-06 -1.204e-09
2.18555e-05 -6.53448e-06 -6.56614e-06 -2.82791e-06
2.06655e-05 -6.17358e-06 -6.21084e-06 -2.8087e-06
1.61671e-05 -4.77318e-06 -4.88312e-06 -5.17773e-06
1.41385e-05 -4.11215e-06 -4.297e-06 -5.06842e-06
2.00456e-05 -6.02229e-06 -6.00997e-06 -3.71508e-09
2.27328e-05 -6.80698e-06 -6.82535e-06 -5.96196e-09
1.51517e-05 -4.44517e-06 -4.58849e-06 -5.13134e-06
1.7147e-05 -5.09324e-06 -5.1659e-06 -2.69354e-06
2.13826e-05 -6.41725e-06 -6.41371e-06 -9.88597e-09
1.94852e-05 -5.81282e-06 -5.8596e-06 -2.78022e-06
1.83129e-05 -5.45195e-06 -5.51185e-06 -2.74133e-06
1.41385e-05 -4.11215e-06 -4.297e-06 -5.06842e-06
1.20661e-05 -3.42296e-06 -3.7042e-06 -4.90197e-06
1.75163e-05 -5.24057e-06 -5.26104e-06 -1.9828e-08
2.00456e-05 -6.02229e-06 -6.00997e-06 -3.71508e-09
1.31144e-05 -3.77485e-06 -4.00265e-06 -4.99241e-06
1.48837e-05 -4.38209e-06 -4.50069e-06 -2.53813e-06
1.8748e-05 -5.60822e-06 -5.63135e-06 -1.04478e-09
1.7147e-05 -5.09324e-06 -5.1659e-06 -2.69354e-06
1.59998e-05 -4.7381e-06 -4.82645e-06 -2.63147e-06
1.20661e-05 -3.42296e-06 -3.7042e-06 -4.90197e-06
9.9525e-06 -2.67682e-06 -3.11815e-06 -4.64464e-06
1.52106e-05 -4.65107e-06 -4.52552e-06 -6.96349e-09
1.75163e-05 -5.24057e-06 -5.26104e-06 -1.9828e-08
1.10075e-05 -3.05013e-06 -3.4103e-06 -4.78763e-06
1.26833e-05 -3.66937e-06 -3.86311e-06 -2.29235e-06
1.63405e-05 -4.96285e-06 -4.87614e-06 -3.70146e-08
1.48837e-05 -4.38209e-06 -4.50069e-06 -2.53813e-06
1.37833e-05 -4.02248e-06 -4.1832e-06 -2.41932e-06
9.9525e-06 -2.67682e-06 -3.11815e-06 -4.64464e-06
7.64771e-06 -1.93397e-06 -2.44874e-06 -4.36743e-06
1.33937e-05 -4.00232e-06 -4.02488e-06 -5.45189e-08
1.52106e-05 -4.65107e-06 -4.52552e-06 -6.96349e-09
8.84969e-06 -2.31726e-06 -2.79961e-06 -4.50078e-06
1.06563e-05 -2.97943e-06 -3.29009e-06 -1.88755e-06
1.42029e-05 -4.23191e-06 -4.27329e-06 1.59317e-08
1.26833e-05 -3.66937e-06 -3.86311e-06 -2.29235e-06
1.16266e-05 -3.32901e-06 -3.55613e-06 -2.13604e-06
7.64771e-06 -1.93397e-06 -2.44874e-06 -4.36743e-06
5.16583e-06 -1.19702e-06 -1.70092e-06 -4.18746e-06
1.23585e-05 -4.09794e-06 -3.54025e-06 8.71147e-08
1.33937e-05 -4.00232e-06 -4.02488e-06 -5.45189e-08
6.40145e-06 -1.51435e-06 -2.09447e-06 -4.24763e-06
8.54383e-06 -2.23518e-06 -2.70371e-06 -1.44666e-06
1.27799e-05 -4.15533e-06 -3.69625e-06 -1.19653e-07
1.06563e-05 -2.97943e-06 -3.29009e-06 -1.88755e-06
9.66459e-06 -2.60394e-06 -3.02599e-06 -1.61795e-06
5.16583e-06 -1.19702e-06 -1.70092e-06 -4.18746e-06
2.27945e-06 -1.26145e-06 -4.36287e-07 -4.89544e-06
1.30693e-05 -3.55447e-06 -4.07779e-06 5.26328e-07
1.23585e-05 -4.09794e-06 -3.54025e-06 8.71147e-08
3.82908e-06 -1.11921e-06 -1.16137e-06 -4.35408e-06
6.2908e-06 -1.61418e-06 -2.00426e-06 -1.17286e-06
1.23736e-05 -3.46072e-06 -3.81982e-06 3.7442e-07
8.54383e-06 -2.23518e-06 -2.70371e-06 -1.44666e-06
7.38793e-06 -1.90767e-06 -2.34868e-06 -1.34383e-06
2.27945e-06 -1.26145e-06 -4.36287e-07 -4.89544e-06
9.24844e-07 -4.59122e-06 1.57131e-06 -7.50965e-06
1.78056e-05 -3.59409e-06 -6.09063e-06 4.10669e-06
1.30693e-05 -3.55447e-06 -4.07779e-06 5.26328e-07
1.11277e-06 -1.89254e-06 3.3419e-07 -5.82757e-06
1.61239e-06 -2.89489e-06 5.4964e-07 -4.32874e-06
1.47714e-05 -4.95205e-06 -4.20828e-06 1.10479e-06
6.2908e-06 -1.61418e-06 -2.00426e-06 -1.17286e-06
4.58731e-06 -1.56659e-06 -1.29459e-06 -1.77109e-06
9.24844e-07 -4.59122e-06 1.57131e-06 -7.50965e-06
6.36695e-06 -2.02629e-05 5.95539e-06 -7.61759e-06
1.05919e-05 -2.67233e-05 6.91347e-06 -2.05341e-05
1.78056e-05 -3.59409e-06 -6.09063e-06 4.10669e-06
2.4361e-06 -1.08195e-05 3.5929e-06 -8.86378e-06
5.73294e-06 -2.49245e-05 8.22496e-06 -1.22484e-05
1.78517e-05 -1.13574e-06 -7.16398e-06 1.83559e-06
1.61239e-06 -2.89489e-06 5.4964e-07 -4.32874e-06
8.37229e-07 -8.18452e-06 3.14884e-06 -8.07517e-06
      </DataArray> 
    </PointData>
    <CellData>
      <DataArray type="Float64" NumberOfComponents="1" Name="Process" format="ascii">
3
3
3
3
3
3
3
3
3
3
3
3
3
3
3
3
3
3
3
3
3
3
3
3
3
2
2
2
2
2
2
2
2
2
2
2
2
2
2
2
2
2
2
2
2
2
2
2
2
1
1
1
1
1
1
1
1
1
1
1
1
1
1
1
1
1
1
1
1
1
1
1
1
1
0
0
0
0
0
0
0
0
0
0
0
0
0
0
0
0
0
0
0
0
0
0
0
0
0
5
5
5
5
5
5
5
5
5
5
5
5
5
5
5
5
5
5
5
5
5
5
5
5
5
4
4
4
4
4
4
4
4
4
4
4
4
4
4
4
4
4
4
4
4
4
4
4
4
7
7
7
7
7
7
7
7
7
7
7
7
7
7
7
7
7
7
7
7
7
7
7
7
7
6
6
6
6
6
6
6
6
6
6
6
6
6
6
6
6
6
6
6
6
6
6
6
6
3
3
3
3
3
3
3
3
3
3
3
3
3
3
3
3
3
3
3
3
3
3
3
3
3
2
2
2
2
2
2
2
2
2
2
2
2
2
2
2
2
2
2
2
2
2
2
2
2
1
1
1
1
1
1
1
1
1
1
1
1
1
1
1
1
1
1
1
1
1
1
1
1
1
0
0
0
0
0
0
0
0
0
0
0
0
0
0
0
0
0
0
0
0
0
0
0
0
0
5
5
5
5
5
5
5
5
5
5
5
5
5
5
5
5
5
5
5
5
5
5
5
5
5
4
4
4
4
4
4
4
4
4
4
4
4
4
4
4
4
4
4
4
4
4
4
4
4
7
7
7
7
7
7
7
7
7
7
7
7
7
7
7
7
7
7
7
7
7
7
7
7
7
6
6
6
6
6
6
6
6
6
6
6
6
6
6
6
6
6
6
6
6
6
6
6
6
3
3
3
3
3
3
3
3
3
3
3
3
3
3
3
3
3
3
3
3
3
3
3
3
3
2
2
2
2
2
2
2
2
2
2
2
2
2
2
2
2
2
2
2
2
2
2
2
2
1
1
1
1
1
1
1
1
1
1
1
1
1
1
1
1
1
1
1
1
1
1
1
1
1
0
0
0
0
0
0
0
0
0
0
0
0
0
0
0
0
0
0
0
0
0
0
0
0
0
5
5
5
5
5
5
5
5
5
5
5
5
5
5
5
5
5
5
5
5
5
5
5
5
5
4
4
4
4
4
4
4
4
4
4
4
4
4
4
4
4
4
4
4
4
4
4
4
4
7
7
7
7
7
7
7
7
7
7
7
7
7
7
7
7
7
7
7
7
7
7
7
7
7
6
6
6
6
6
6
6
6
6
6
6
6
6
6
6
6
6
6
6
6
6
6
6
6
3
3
3
3
3
3
3
3
3
3
3
3
3
3
3
3
3
3
3
3
3
3
3
3
3
2
2
2
2
2
2
2
2
2
2
2
2
2
2
2
2
2
2
2
2
2
2
2
2
1
1
1
1
1
1
1
1
1
1
1
1
1
1
1
1
1
1
1
1
1
1
1
1
1
0
0
0
0
0
0
0
0
0
0
0
0
0
0
0
0
0
0
0
0
0
0
0
0
0
5
5
5
5
5
5
5
5
5
5
5
5
5
5
5
5
5
5
5
5
5
5
5
5
5
4
4
4
4
4
4
4
4
4
4
4
4
4
4
4
4
4
4
4
4
4
4
4
4
7
7
7
7
7
7
7
7
7
7
7
7
7
7
7
7
7
7
7
7
7
7
7
7
7
6
6
6
6
6
6
6
6
6
6
6
6
6
6
6
6
6
6
6
6
6
6
6
6
3
3
3
3
3
3
3
3
3
3
3
3
3
3
3
3
3
3
3
3
3
3
3
3
3
2
2
2
2
2
2
2
2
2
2
2
2
2
2
2
2
2
2
2
2
2
2
2
2
1
1
1
1
1
1
1
1
1
1
1
1
1
1
1
1
1
1
1
1
1
1
1
1
1
0
0
0
0
0
0
0
0
0
0
0
0
0
0
0
0
0
0
0
0
0
0
0
0
0
5
5
5
5
5
5
5
5
5
5
5
5
5
5
5
5
5
5
5
5
5
5
5
5
5
4
4
4
4
4
4
4
4
4
4
4
4
4
4
4
4
4
4
4
4
4
4
4
4
7
7
7
7
7
7
7
7
7
7
7
7
7
7
7
7
7
7
7
7
7
7
7
7
7
6
6
6
6
6
6
6
6
6
6
6
6
6
6
6
6
6
6
6
6
6
6
6
6
3
3
3
3
3
3
3
3
3
3
3
3
3
3
3
3
3
3
3
3
3
3
3
3
3
2
2
2
2
2
2
2
2
2
2
2
2
2
2
2
2
2
2
2
2
2
2
2
2
1
1
1
1
1
1
1
1
1
1
1
1
1
1
1
1
1
1
1
1
1
1
1
1
1
0
0
0
0
0
0
0
0
0
0
0
0
0
0
0
0
0
0
0
0
0
0
0
0
0
5
5
5
5
5
5
5
5
5
5
5
5
5
5
5
5
5
5
5
5
5
5
5
5
5
4
4
4
4
4
4
4
4
4
4
4
4
4
4
4
4
4
4
4
4
4
4
4
4
7
7
7
7
7
7
7
7
7
7
7
7
7
7
7
7
7
7
7
7
7
7
7
7
7
6
6
6
6
6
6
6
6
6
6
6
6
6
6
6
6
6
6
6
6
6
6
6
6
3
3
3
3
3
3
3
3
3
3
3
3
3
3
3
3
3
3
3
3
3
3
3
3
3
2
2
2
2
2
2
2
2
2
2
2
2
2
2
2
2
2
2
2
2
2
2
2
2
1
1
1
1
1
1
1
1
1
1
1
1
1
1
1
1
1
1
1
1
1
1
1
1
1
0
0
0
0
0
0
0
0
0
0
0
0
0
0
0
0
0
0
0
0
0
0
0
0
0
5
5
5
5
5
5
5
5
5
5
5
5
5
5
5
5
5
5
5
5
5
5
5
5
5
4
4
4
4
4
4
4
4
4
4
4
4
4
4
4
4
4
4
4
4
4
4
4
4
7
7
7
7
7
7
7
7
7
7
7
7
7
7
7
7
7
7
7
7
7
7
7
7
7
6
6
6
6
6
6
6
6
6
6
6
6
6
6
6
6
6
6
6
6
6
6
6
6
      </DataArray> 
    </CellData>
  </Piece>
  </UnstructuredGrid>
</VTKFile>
