<?xml version="1.0"?>
<VTKFile type="UnstructuredGrid">
  <UnstructuredGrid>
  <Piece NumberOfPoints="193"  NumberOfCells="36">
    <Points>
      <DataArray type="Float64" NumberOfComponents="3" format="ascii">
0 0 0
191.312 0 0
187.36 10 0
0 10 0
20.2174 -3.82686 0
40.423 -11.855 0
61.2019 -20.4946 0
83.2718 -26.9048 0
106.398 -29.0094 0
129.43 -25.9938 0
151.229 -18.6389 0
171.579 -8.9327 0
6.704 -0.575448 0
13.4685 -1.88911 0
26.9488 -6.23005 0
33.6725 -8.95087 0
47.2375 -14.8208 0
54.1533 -17.7354 0
68.4028 -23.0006 0
75.7622 -25.1636 0
90.9075 -28.1567 0
98.6314 -28.8688 0
114.153 -28.5665 0
121.846 -27.5511 0
136.868 -23.9438 0
144.136 -21.4666 0
158.152 -15.5459 0
164.931 -12.2825 0
178.195 -5.65423 0
184.72 -2.47571 0
190.158 3.33333 0
188.794 6.66667 0
167.149 -0.0190923 0
147.354 -9.4249 0
127.104 -16.2759 0
106.203 -19.0196 0
85.2013 -17.1001 0
64.6499 -11.1136 0
44.3652 -2.67042 0
23.236 5.69617 0
180.62 6.54619 0
173.825 3.34343 0
160.547 -3.29864 0
153.964 -6.47152 0
140.685 -12.0875 0
133.937 -14.3904 0
120.192 -17.697 0
113.216 -18.619 0
99.1781 -18.8922 0
92.1691 -18.2446 0
78.2899 -15.4954 0
71.4411 -13.4795 0
57.8967 -8.46793 0
51.1496 -5.62287 0
37.4907 0.285497 0
30.4663 3.1229 0
15.7486 7.8344 0
7.99708 9.32057 0
0 6.66667 0
0 3.33333 0
11.0068 3.81328 0
179.327 0.472985 0
32.1619 -2.90029 0
159.412 -9.42744 0
52.5987 -11.6857 0
138.932 -18.0463 0
73.452 -19.3577 0
117.366 -23.2111 0
95.2119 -23.643 0
106.333 -25.7127 0
106.268 -22.3835 0
102.66 -20.7083 0
98.9931 -22.2505 0
98.8123 -25.5754 0
102.542 -27.3674 0
102.601 -24.0542 0
110.187 -27.2188 0
113.844 -25.2829 0
113.533 -21.9676 0
109.809 -20.5694 0
109.999 -23.9104 0
83.9102 -23.665 0
84.5501 -20.3968 0
81.3579 -17.9924 0
77.4379 -18.7421 0
76.5996 -21.9656 0
79.8702 -24.4852 0
80.6108 -21.2518 0
132.732 -23.4374 0
135.897 -20.7844 0
134.924 -17.5991 0
130.978 -17.0116 0
127.888 -19.5438 0
128.661 -22.7832 0
131.859 -20.2377 0
62.3473 -17.3841 0
63.4909 -14.2552 0
60.6608 -11.3812 0
56.6408 -11.5656 0
55.3995 -14.6573 0
58.2612 -17.5968 0
59.4582 -14.4952 0
154.037 -15.6058 0
156.759 -12.5329 0
155.369 -9.50566 0
151.347 -9.51196 0
148.656 -12.5118 0
149.942 -15.585 0
152.696 -12.5654 0
24.1472 -3.39603 0
28.1339 -3.09627 0
29.2965 0.0250185 0
26.3301 2.89604 0
22.2343 2.5523 0
21.2407 -0.625457 0
25.2431 -0.238246 0
3.47364 1.50696 0
7.1519 2.77671 0
7.56779 6.07539 0
3.9005 8.14583 0
3.68721 4.85043 0
174.162 -5.81113 0
176.718 -2.66087 0
175.266 0.351082 0
171.205 0.203743 0
168.64 -2.97973 0
170.11 -5.9587 0
172.683 -2.80191 0
19.0795 5.25426 0
14.9942 4.63247 0
14.2465 1.38997 0
17.3092 -1.16514 0
18.1995 2.06063 0
184.736 6.70828 0
182.024 3.56819 0
183.378 0.5687 0
187.383 0.471576 0
186.108 3.61089 0
41.7417 -8.79302 0
43.0479 -5.72812 0
40.289 -2.71406 0
36.2176 -2.78173 0
34.954 -5.86408 0
37.699 -8.85308 0
38.9952 -5.78032 0
164.586 -3.15751 0
162.013 -6.29795 0
163.468 -9.29547 0
167.527 -9.12478 0
166.059 -6.14107 0
44.4814 -11.8098 0
48.5428 -11.7602 0
49.8397 -8.69131 0
47.1021 -5.68329 0
45.7915 -8.7468 0
144.65 -12.3569 0
141.847 -15.2338 0
142.992 -18.3614 0
147.094 -18.5553 0
145.876 -15.4652 0
65.324 -20.2228 0
69.4106 -19.8475 0
70.4185 -16.6727 0
67.4883 -13.9213 0
66.4028 -17.0808 0
123.996 -18.6978 0
120.75 -21.0128 0
121.299 -24.2971 0
125.324 -25.2248 0
124.663 -21.976 0
87.3413 -25.9706 0
91.3246 -24.8832 0
91.7431 -21.5796 0
88.4064 -19.3953 0
87.8712 -22.6975 0
10.4021 0.517308 0
180.738 -2.51771 0
177.925 3.4538 0
11.6004 7.06229 0
30.9344 -6.00514 0
51.3234 -14.7594 0
72.5271 -22.5453 0
94.9117 -26.9434 0
117.796 -26.497 0
139.993 -21.191 0
160.84 -12.4335 0
157.979 -6.41298 0
137.863 -14.8788 0
116.931 -19.8932 0
95.5154 -20.3106 0
74.3846 -16.1476 0
53.8778 -8.60494 0
33.3834 0.190972 0
      </DataArray>
    </Points>
    <Cells>
      <DataArray type="Int32" Name="connectivity" format="ascii">
8 35 68 69 70 71 72 73 74 75 
8 67 35 76 77 78 79 70 69 80 
7 36 66 81 82 83 84 85 86 87 
9 65 34 88 89 90 91 92 93 94 
6 37 64 95 96 97 98 99 100 101 
10 63 33 102 103 104 105 106 107 108 
4 62 39 109 110 111 112 113 114 115 
0 60 3 116 117 118 119 58 59 120 
11 61 32 121 122 123 124 125 126 127 
4 39 60 114 113 128 129 130 131 132 
1 2 61 30 31 133 134 135 136 137 
5 38 62 138 139 140 141 142 143 144 
11 32 63 126 125 145 146 147 148 149 
5 64 38 150 151 152 153 139 138 154 
10 33 65 107 106 155 156 157 158 159 
6 66 37 160 161 162 163 96 95 164 
9 34 67 93 92 165 166 167 168 169 
7 68 36 170 171 172 173 82 81 174 
0 4 60 12 13 131 130 117 116 175 
1 61 11 136 135 122 121 28 29 176 
2 32 61 40 41 124 123 134 133 177 
3 60 39 119 118 129 128 56 57 178 
4 5 62 14 15 143 142 110 109 179 
5 6 64 16 17 100 99 151 150 180 
6 7 66 18 19 86 85 161 160 181 
7 8 68 20 21 74 73 171 170 182 
8 9 67 22 23 168 167 77 76 183 
9 10 65 24 25 158 157 89 88 184 
10 11 63 26 27 148 147 103 102 185 
32 33 63 42 43 105 104 146 145 186 
33 34 65 44 45 91 90 156 155 187 
34 35 67 46 47 79 78 166 165 188 
35 36 68 48 49 173 172 72 71 189 
36 37 66 50 51 163 162 84 83 190 
37 38 64 52 53 153 152 98 97 191 
38 39 62 54 55 112 111 141 140 192 
      </DataArray>
      <DataArray type="Int32" Name="offsets" format="ascii">
10
20
30
40
50
60
70
80
90
100
110
120
130
140
150
160
170
180
190
200
210
220
230
240
250
260
270
280
290
300
310
320
330
340
350
360
      </DataArray>
      <DataArray type="UInt8" Name="types" format="ascii">
69
69
69
69
69
69
69
69
69
69
69
69
69
69
69
69
69
69
69
69
69
69
69
69
69
69
69
69
69
69
69
69
69
69
69
69
      </DataArray>
    </Cells>
    <PointData>
      <DataArray type="Float64" NumberOfComponents="2" Name="Displacement" format="ascii">
0 0
-8.68794 0
-12.6398 0
0 0
-2.00487 -3.82686
-4.02147 -11.855
-5.4648 -20.4946
-5.61708 -26.9048
-4.7134 -29.0094
-3.90348 -25.9938
-4.32628 -18.6389
-6.19831 -8.9327
-0.703407 -0.575448
-1.34634 -1.88911
-2.68085 -6.23005
-3.36455 -8.95087
-4.61431 -14.8208
-5.10596 -17.7354
-5.67124 -23.0006
-5.71929 -25.1636
-5.38881 -28.1567
-5.07227 -28.8688
-4.36504 -28.5665
-4.07987 -27.5511
-3.87303 -23.9438
-4.01189 -21.4666
-4.81061 -15.5459
-5.43931 -12.2825
-6.98984 -5.65423
-7.87289 -2.47571
-9.84193 0
-11.2059 0
-10.6293 -10.0191
-8.20111 -19.4249
-6.2297 -26.2759
-4.90833 -29.0196
-3.68761 -27.1001
-2.01678 -21.1136
-0.0792346 -12.6704
1.01379 -4.30383
-11.9724 -3.45381
-11.3606 -6.65657
-9.82321 -13.2986
-8.99942 -16.4715
-7.46282 -22.0875
-6.80385 -24.3904
-5.73426 -27.697
-5.30225 -28.619
-4.5256 -28.8922
-4.12716 -28.2446
-3.19159 -25.4954
-2.633 -23.4795
-1.36254 -18.4679
-0.70227 -15.6229
0.453666 -9.7145
0.836693 -6.8771
0.933823 -2.1656
0.589676 -0.679433
0 0
0 0
-0.104359 -1.18672
-9.56213 -4.52702
-1.17143 -7.90029
-7.25485 -14.4274
-2.95686 -16.6857
-5.512 -23.0463
-4.32574 -24.3577
-4.85656 -28.2111
-4.78812 -28.643
-4.77768 -29.046
-4.84273 -29.0502
-4.74773 -29.0417
-4.71058 -28.9172
-4.89138 -28.9088
-4.8655 -29.0341
-4.8069 -29.0542
-4.62802 -28.8854
-4.67474 -28.6162
-4.98587 -28.6343
-5.00599 -28.9027
-4.81608 -28.9104
-4.97868 -26.9984
-4.33883 -27.0634
-3.82724 -26.3257
-4.04361 -25.4088
-4.88184 -25.2989
-5.31499 -26.1519
-4.57439 -26.2518
-4.30467 -25.1041
-4.84349 -24.1178
-5.81634 -24.2658
-6.05909 -25.345
-5.44503 -26.2104
-4.67273 -26.1165
-5.17798 -25.2377
-4.31935 -20.7174
-3.17575 -20.9219
-2.30218 -19.7145
-2.61848 -18.2322
-3.85973 -17.9906
-4.70179 -19.2635
-3.50477 -19.4952
-5.22244 -17.2724
-6.20374 -15.8663
-7.59369 -16.1723
-7.91187 -17.8453
-6.89943 -19.1785
-5.61329 -18.9183
-6.56375 -17.5654
-1.77875 -5.0627
-1.49575 -6.4296
-0.333157 -6.64165
0.404139 -5.43729
0.0120582 -4.11436
-0.981562 -3.95879
-0.682776 -5.23825
-0.230065 -0.159706
-0.255505 -0.556619
0.160379 -0.591279
0.196791 -0.187506
-0.0164977 -0.149566
-7.31997 -7.4778
-8.46755 -5.9942
-9.91962 -6.31558
-10.276 -8.12959
-9.13822 -9.6464
-7.66796 -9.29203
-8.79897 -7.80191
0.560958 -3.07907
0.179352 -2.03419
-0.568306 -1.94336
-1.2093 -2.83181
-0.319044 -2.93937
-11.5605 -1.62505
-10.5688 -3.09847
-9.21457 -2.76463
-8.91286 -1.19509
-10.1884 -1.38911
-2.70271 -12.1264
-1.39659 -12.3948
-0.451694 -11.0474
-0.819472 -9.4484
-2.08301 -9.19741
-3.04176 -10.5197
-1.74554 -10.7803
-9.48838 -11.4908
-8.35706 -12.9646
-6.90253 -12.6288
-6.54658 -10.7915
-8.01485 -11.1411
-3.6667 -13.4764
-3.3091 -15.0936
-2.01213 -15.358
-1.04601 -14.0166
-2.35664 -13.7468
-7.20171 -20.6902
-6.30154 -21.9005
-5.1558 -21.6947
-4.75758 -20.222
-5.97578 -20.4652
-5.04638 -21.8894
-4.66347 -23.1809
-3.65557 -23.3394
-2.88206 -22.2547
-3.96762 -22.0808
-5.6339 -27.0311
-5.17611 -27.6795
-4.62653 -27.6304
-4.30566 -26.8915
-4.96649 -26.976
-5.25124 -27.6373
-4.97169 -28.2165
-4.55319 -28.2463
-4.18623 -27.7286
-4.72139 -27.6975
-0.709033 -1.14936
-8.15095 -4.18438
-10.9642 -4.87954
0.489293 -1.27104
-2.39897 -7.67181
-4.23217 -16.4261
-5.25066 -24.212
-5.08827 -28.6101
-4.42648 -28.1636
-4.45175 -22.8576
-5.82647 -14.1002
-8.68734 -14.7463
-6.58111 -23.2122
-5.2913 -28.2266
-4.48459 -28.6439
-3.39323 -24.4809
-1.67779 -16.9383
0.0500397 -8.14236
      </DataArray> 
      <DataArray type="Float64" NumberOfComponents="4" Name="CauchyStress" format="ascii">
-173.033 -34.167 0 -2.12951
-53.142 66.1577 0 -61.7863
42.0537 196.334 0 0.762782
220.715 33.3603 0 -14.0464
-73.5612 -8.32641 0 23.0679
-3.66776 -0.901479 0 1.46517
47.7076 6.66669 0 -17.7601
89.9539 3.829 0 -17.8687
108.034 0.400997 0 2.09335
90.015 5.5164 0 21.6746
48.2708 8.88285 0 20.9847
5.95271 0.844672 0 -1.69987
-135.778 -4.94278 0 19.6487
-99.3613 -3.12127 0 25.7945
-46.4143 -7.22967 0 17.4265
-22.8194 -3.72955 0 9.97704
14.5382 2.9451 0 -6.28801
31.178 4.92333 0 -12.759
63.147 6.92449 0 -20.3339
76.5532 4.87827 0 -20.2871
99.0212 1.75084 0 -12.7816
104.752 0.030472 0 -5.78099
104.713 0.666731 0 9.90238
98.9259 2.92508 0 16.7725
76.7839 6.89951 0 23.8743
63.8942 9.13943 0 23.6662
34.843 7.31528 0 15.3859
17.7631 4.7829 0 8.82426
-20.1833 -13.4394 0 -3.02095
-55.1201 -14.8167 0 -22.1471
19.0267 116.792 0 -80.202
46.2372 179.777 0 -67.9011
4.89589 10.3823 0 5.26825
-43.6953 -9.41818 0 -18.788
-78.9938 -5.33859 0 -19.1096
-94.185 -0.636459 0 -1.83527
-79.2297 -3.88593 0 15.8086
-42.5429 -6.91279 0 15.7978
6.63722 -0.0791278 0 -3.042
85.158 8.89228 0 -28.7911
30.2478 5.0502 0 13.6762
14.7901 -16.2054 0 10.3909
-13.8991 -4.03983 0 -7.13459
-28.8081 -6.22061 0 -13.1512
-56.0898 -8.15767 0 -20.9266
-68.7135 -7.92234 0 -21.2464
-86.8567 -3.07113 0 -14.6157
-92.2736 -1.86645 0 -8.85601
-92.4448 -1.33492 0 5.24837
-87.0613 -2.00614 0 11.1217
-68.7272 -6.09836 0 18.1425
-55.7356 -6.19122 0 18.0657
-27.348 -5.6446 0 11.1545
-10.6468 -2.6041 0 4.67807
29.0657 4.89922 0 -11.9963
53.2926 6.60109 0 -20.6243
123.14 5.93647 0 -28.623
165.08 1.02283 0 -22.324
59.4596 16.9626 0 -2.81899
-69.1421 -22.1858 0 -0.405308
-6.48379 -1.28989 0 -9.19099
-2.03756 -9.59435 0 15.3025
-4.64874 5.88128 0 -7.25356
-3.34148 5.59915 0 4.09462
-3.22057 4.36512 0 -5.14623
-2.94126 0.604669 0 3.38987
-2.74678 0.548688 0 -3.68297
-2.57316 -2.54032 0 1.30125
-2.48973 -2.57656 0 -1.47423
32.2259 -2.52474 0 0.595856
-35.0949 -2.75996 0 -0.707552
-64.8701 -2.2344 0 0.640773
-34.1704 -2.86764 0 0.705065
31.094 -2.06441 0 -2.88199
67.8413 -1.22117 0 -1.65491
-2.53153 -2.92877 0 -0.56435
67.7861 -1.0128 0 4.25598
31.0044 -1.84216 0 4.03318
-34.1972 -3.02856 0 -2.09979
-64.8628 -2.40862 0 -3.19983
-2.55572 -2.90775 0 0.40304
26.4148 0.159373 0 -8.24233
-29.8558 -2.354 0 3.17257
-51.5951 -3.47601 0 9.75987
-26.0258 -1.87994 0 3.10348
22.0832 2.01465 0 -9.516
52.8326 2.97804 0 -14.2774
-2.75184 -0.813027 0 -3.06681
52.8365 4.23144 0 16.5056
21.9904 2.72486 0 10.382
-26.2296 -2.40756 0 -4.4283
-51.6379 -4.50122 0 -12.0713
-29.9361 -2.81665 0 -4.52512
26.2573 0.767023 0 9.25243
-2.92299 -0.715562 0 2.81072
12.6332 4.50739 0 -9.77303
-17.3048 -0.00473974 0 1.61964
-25.2817 -2.31343 0 6.49373
-12.2113 1.61772 0 -0.637007
7.05366 5.35606 0 -8.41177
23.9133 6.07169 0 -12.6286
-3.08197 3.05033 0 -4.72169
24.244 7.20593 0 14.6678
7.50935 6.17459 0 8.94583
-13.088 1.02157 0 -0.677397
-26.6186 -4.53546 0 -8.61781
-17.9128 -0.480128 0 -3.04497
12.73 5.46138 0 10.2844
-3.24292 2.84113 0 4.51834
-42.865 -1.97968 0 10.1499
-20.5612 2.57944 0 -0.433677
12.9976 7.23194 0 -13.3609
42.1252 7.6219 0 -20.3855
21.0039 6.6784 0 -17.9265
-31.0623 1.55296 0 -0.0305812
-5.66467 4.62254 0 -8.63105
-112.078 -5.66957 0 -3.93074
-55.4238 5.43744 0 -6.17366
45.2213 -8.113 0 -20.7381
120.321 2.77021 0 -23.2984
-8.98132 -4.82999 0 -10.5984
-3.64537 15.7835 0 -8.97672
-10.9721 10.7916 0 -0.66593
4.42158 13.1185 0 2.92635
8.33654 27.0074 0 1.25966
-2.16873 2.70391 0 9.29746
-1.65519 1.47427 0 7.78943
-4.93346 14.9106 0 -0.658623
64.0668 7.99366 0 -24.4311
32.5373 3.8554 0 -17.3561
-41.3341 -2.8195 0 0.128071
-64.0587 -5.33225 0 11.2804
-5.99962 3.43598 0 -9.64703
26.3331 46.1837 0 25.0491
12.7298 -14.5392 0 27.7984
-14.5652 -4.54093 0 15.7982
-36.7974 10.8707 0 -10.6076
16.8007 38.8611 0 -10.6496
-4.86343 4.58233 0 -4.68554
-1.44221 5.07998 0 -6.17783
9.00417 4.39364 0 -8.57013
5.19452 6.4405 0 -10.0473
-12.4213 3.96102 0 -2.56764
-11.996 1.6815 0 0.410635
-3.86592 5.79004 0 -6.44213
-7.38567 -3.55416 0 0.251484
-8.61694 2.75371 0 1.58426
1.75384 5.65393 0 6.56897
0.286158 2.53713 0 6.96787
-2.88765 4.8682 0 6.35702
1.26142 3.54067 0 -4.35999
1.40009 5.18334 0 -6.5406
-6.8123 3.16537 0 -3.14844
-3.51929 1.88994 0 -2.54118
-3.47404 5.22191 0 -5.72215
-35.4928 -4.93116 0 -11.2835
-22.0649 -1.98115 0 -4.01052
17.6564 4.04301 0 10.6032
35.056 7.00893 0 16.4847
-3.01957 2.18533 0 3.76883
34.3502 5.39798 0 -14.6612
17.5942 3.21833 0 -9.84186
-21.7405 -1.41937 0 2.72905
-34.9582 -3.85853 0 9.24702
-2.75213 2.02642 0 -4.18512
-57.9205 -4.15823 0 -10.5329
-32.3996 -3.23037 0 -3.67871
29.0716 -0.863021 0 6.66283
59.8502 1.81419 0 13.5895
-2.63493 -1.57624 0 2.07505
59.9478 0.85458 0 -11.1706
29.1929 -1.2711 0 -5.56609
-32.3695 -2.90586 0 2.31102
-57.989 -3.32197 0 8.11415
-2.50363 -1.62324 0 -2.28364
-85.1539 -2.15773 0 10.4541
-28.7415 -9.40099 0 2.96564
15.4923 -13.3284 0 13.7273
87.9424 0.880613 0 -24.5905
-25.9553 -0.729319 0 5.65464
13.0204 5.21867 0 -9.19889
44.1713 4.43527 0 -15.6643
65.3705 -0.786439 0 -7.06616
65.2566 -0.167364 0 9.60965
44.303 5.89473 0 17.737
15.6167 6.84942 0 10.4254
-16.4294 -0.518965 0 -4.41934
-44.0985 -5.18847 0 -12.7935
-62.6757 -2.93394 0 -7.44753
-62.7524 -2.40151 0 4.93408
-43.8536 -3.91772 0 10.585
-14.8958 -0.457561 0 2.76426
23.7507 7.31076 0 -14.8829
      </DataArray> 
    </PointData>
    <CellData>
      <DataArray type="Float64" NumberOfComponents="1" Name="Process" format="ascii">
1
1
3
1
3
0
2
2
0
2
0
2
0
2
0
3
1
3
2
0
0
2
2
3
3
1
1
1
0
0
1
1
3
3
3
2
      </DataArray> 
    </CellData>
  </Piece>
  </UnstructuredGrid>
</VTKFile>
