<?xml version="1.0"?>
<VTKFile type="UnstructuredGrid">
  <UnstructuredGrid>
  <Piece NumberOfPoints="193"  NumberOfCells="36">
    <Points>
      <DataArray type="Float64" NumberOfComponents="3" format="ascii">
0 0 0
197.579 0 0
194.776 10 0
0 10 0
21.2107 -2.19823 0
42.6312 -6.86708 0
64.3991 -11.9419 0
86.7044 -15.801 0
109.447 -17.3229 0
132.234 -15.995 0
154.615 -11.9962 0
176.359 -6.1422 0
7.03179 -0.328834 0
14.1119 -1.08131 0
28.3287 -3.58973 0
35.4657 -5.17208 0
49.8354 -8.60332 0
57.0884 -10.3149 0
71.7722 -13.4298 0
79.2084 -14.7301 0
94.2516 -16.607 0
101.837 -17.1207 0
117.062 -17.2024 0
124.663 -16.7575 0
139.757 -14.9301 0
147.22 -13.5868 0
161.936 -10.1958 0
169.185 -8.23093 0
183.492 -4.01531 0
190.551 -1.86086 0
196.734 3.33333 0
195.784 6.66667 0
173.549 3.43072 0
152.378 -2.25154 0
131.035 -6.07 0
109.499 -7.32604 0
87.9364 -5.87978 0
66.4632 -2.15935 0
44.9367 2.86145 0
22.9249 7.6501 0
187.725 7.68354 0
180.624 5.5677 0
166.497 1.39977 0
159.443 -0.513815 0
145.29 -3.77758 0
138.176 -5.05887 0
123.872 -6.79192 0
116.69 -7.2124 0
102.305 -7.13467 0
95.1158 -6.6472 0
80.7692 -4.8552 0
73.613 -3.60293 0
59.3101 -0.566817 0
52.1402 1.12555 0
37.6799 4.57746 0
30.3488 6.20123 0
15.3909 8.83209 0
7.74865 9.63888 0
0 6.66667 0
0 3.33333 0
11.0793 4.34551 0
185.597 1.84753 0
32.9619 0.531982 0
164.273 -4.41312 0
54.5906 -4.60173 0
142.62 -9.38829 0
76.3335 -9.19459 0
120.575 -12.0512 0
98.3736 -11.9341 0
109.464 -14.0094 0
109.481 -10.6774 0
105.858 -8.94561 0
102.148 -10.4815 0
101.993 -13.81 0
105.684 -15.6077 0
105.771 -12.2858 0
113.228 -15.6492 0
116.938 -13.8911 0
116.815 -10.5613 0
113.122 -8.98573 0
113.175 -12.3268 0
87.1139 -12.5096 0
87.5225 -9.20248 0
84.1147 -7.05695 0
80.2453 -8.16017 0
79.7275 -11.4521 0
83.1829 -13.6562 0
83.6477 -10.3638 0
135.771 -13.8599 0
139.232 -11.656 0
138.707 -8.36548 0
134.844 -7.2603 0
131.438 -9.39615 0
131.836 -12.7044 0
135.308 -10.5685 0
65.0867 -8.68991 0
65.7713 -5.4284 0
62.5258 -3.0101 0
58.5662 -3.82091 0
57.8295 -7.07115 0
61.0958 -9.52012 0
61.8099 -6.26844 0
157.889 -9.50787 0
161.106 -6.97856 0
160.279 -3.75067 0
156.312 -3.03325 0
153.128 -5.51227 0
153.871 -8.76089 0
157.102 -6.27606 0
25.087 -1.22072 0
29.0075 -0.315296 0
29.6752 2.9495 0
26.334 5.3258 0
22.3535 4.38527 0
21.7891 1.10146 0
25.7121 2.05975 0
3.58065 1.57634 0
7.27745 3.02383 0
7.50853 6.34635 0
3.81669 8.23438 0
3.6987 4.91861 0
179.459 -3.49973 0
182.526 -0.826825 0
181.573 2.37356 0
177.558 2.91003 0
174.495 0.239664 0
175.428 -2.95453 0
178.509 -0.296062 0
18.9179 6.64875 0
14.965 5.5503 0
14.5453 2.24547 0
17.9186 0.0601453 0
18.4199 3.36395 0
191.767 7.20689 0
188.69 4.50977 0
189.626 1.33366 0
193.629 0.749469 0
192.725 3.98534 0
43.4025 -3.62278 0
44.1663 -0.378824 0
40.9352 2.10667 0
36.9407 1.33476 0
36.208 -1.91623 0
39.4267 -4.38563 0
40.1814 -1.13721 0
170.485 0.79999 0
167.396 -1.81741 0
168.288 -5.02839 0
172.32 -5.60243 0
171.404 -2.4035 0
46.6166 -6.11402 0
50.6052 -5.36252 0
51.3693 -2.11859 0
48.1549 0.371417 0
47.3857 -2.87111 0
149.189 -4.68118 0
145.938 -7.06172 0
146.579 -10.3317 0
150.579 -11.1997 0
149.885 -7.94711 0
68.4049 -11.0792 0
72.3848 -10.1655 0
72.9956 -6.88946 0
69.7076 -4.54248 0
69.0552 -7.81562 0
127.624 -8.1375 0
124.137 -10.1323 0
124.401 -13.454 0
128.288 -14.7688 0
127.957 -11.4621 0
90.6475 -14.5925 0
94.5387 -13.304 0
94.8254 -9.98419 0
91.3469 -7.96458 0
90.9963 -11.2866 0
10.7433 1.0178 0
186.547 -1.33155 0
184.652 5.02561 0
11.412 7.64647 0
32.2541 -2.72917 0
53.8359 -7.846 0
75.7673 -12.4722 0
98.1521 -15.2501 0
120.769 -15.3684 0
143.204 -12.6609 0
165.136 -7.62806 0
163.407 -1.18954 0
142.033 -6.10015 0
120.381 -8.71537 0
98.5966 -8.60052 0
76.9022 -5.90458 0
55.3463 -1.35394 0
33.6676 3.78428 0
      </DataArray>
    </Points>
    <Cells>
      <DataArray type="Int32" Name="connectivity" format="ascii">
8 35 68 69 70 71 72 73 74 75 
8 67 35 76 77 78 79 70 69 80 
7 36 66 81 82 83 84 85 86 87 
9 65 34 88 89 90 91 92 93 94 
6 37 64 95 96 97 98 99 100 101 
10 63 33 102 103 104 105 106 107 108 
4 62 39 109 110 111 112 113 114 115 
0 60 3 116 117 118 119 58 59 120 
11 61 32 121 122 123 124 125 126 127 
4 39 60 114 113 128 129 130 131 132 
1 2 61 30 31 133 134 135 136 137 
5 38 62 138 139 140 141 142 143 144 
11 32 63 126 125 145 146 147 148 149 
5 64 38 150 151 152 153 139 138 154 
10 33 65 107 106 155 156 157 158 159 
6 66 37 160 161 162 163 96 95 164 
9 34 67 93 92 165 166 167 168 169 
7 68 36 170 171 172 173 82 81 174 
0 4 60 12 13 131 130 117 116 175 
1 61 11 136 135 122 121 28 29 176 
2 32 61 40 41 124 123 134 133 177 
3 60 39 119 118 129 128 56 57 178 
4 5 62 14 15 143 142 110 109 179 
5 6 64 16 17 100 99 151 150 180 
6 7 66 18 19 86 85 161 160 181 
7 8 68 20 21 74 73 171 170 182 
8 9 67 22 23 168 167 77 76 183 
9 10 65 24 25 158 157 89 88 184 
10 11 63 26 27 148 147 103 102 185 
32 33 63 42 43 105 104 146 145 186 
33 34 65 44 45 91 90 156 155 187 
34 35 67 46 47 79 78 166 165 188 
35 36 68 48 49 173 172 72 71 189 
36 37 66 50 51 163 162 84 83 190 
37 38 64 52 53 153 152 98 97 191 
38 39 62 54 55 112 111 141 140 192 
      </DataArray>
      <DataArray type="Int32" Name="offsets" format="ascii">
10
20
30
40
50
60
70
80
90
100
110
120
130
140
150
160
170
180
190
200
210
220
230
240
250
260
270
280
290
300
310
320
330
340
350
360
      </DataArray>
      <DataArray type="UInt8" Name="types" format="ascii">
69
69
69
69
69
69
69
69
69
69
69
69
69
69
69
69
69
69
69
69
69
69
69
69
69
69
69
69
69
69
69
69
69
69
69
69
      </DataArray>
    </Cells>
    <PointData>
      <DataArray type="Float64" NumberOfComponents="2" Name="Displacement" format="ascii">
0 0
-2.42144 0
-5.2245 0
0 0
-1.01152 -2.19823
-1.81323 -6.86708
-2.2676 -11.9419
-2.18445 -15.801
-1.66436 -17.3229
-1.0996 -15.995
-0.940599 -11.9962
-1.41879 -6.1422
-0.37562 -0.328834
-0.702867 -1.08131
-1.30096 -3.58973
-1.57136 -5.17208
-2.01646 -8.60332
-2.17088 -10.3149
-2.30185 -13.4298
-2.27303 -14.7301
-2.04466 -16.607
-1.86626 -17.1207
-1.45696 -17.2024
-1.26287 -16.7575
-0.983473 -14.9301
-0.927775 -13.5868
-1.02735 -10.1958
-1.18572 -8.23093
-1.69353 -4.01531
-2.04162 -1.86086
-3.26616 0
-4.21576 0
-4.22857 -6.56928
-3.17801 -12.2515
-2.29792 -16.07
-1.61195 -17.326
-0.952516 -15.8798
-0.203513 -12.1594
0.492254 -7.13855
0.7027 -2.3499
-4.86736 -2.31646
-4.56105 -4.4323
-3.87331 -8.60023
-3.51979 -10.5138
-2.85838 -13.7776
-2.56503 -15.0589
-2.05405 -16.7919
-1.82805 -17.2124
-1.39835 -17.1347
-1.1805 -16.6472
-0.712319 -14.8552
-0.46112 -13.6029
0.0508561 -10.5668
0.288339 -8.87445
0.642913 -5.42254
0.719186 -3.79877
0.576085 -1.16791
0.341247 -0.361117
0 0
0 0
-0.0317893 -0.654487
-3.29159 -3.15247
-0.371385 -4.46802
-2.39411 -9.41312
-0.964975 -9.60173
-1.82451 -14.3883
-1.44424 -14.1946
-1.64692 -17.0512
-1.62636 -16.9341
-1.64684 -17.3427
-1.62978 -17.344
-1.54971 -17.2789
-1.5558 -17.1482
-1.71074 -17.1434
-1.72351 -17.2743
-1.63687 -17.2858
-1.58636 -17.3159
-1.58004 -17.2244
-1.70351 -17.228
-1.69265 -17.3191
-1.63938 -17.3268
-1.77503 -15.8429
-1.36635 -15.8691
-1.07048 -15.3903
-1.23623 -14.8268
-1.75394 -14.7854
-2.00233 -15.3229
-1.53751 -15.3638
-1.26613 -15.5266
-1.50869 -14.9893
-2.03413 -15.0321
-2.19349 -15.5936
-1.89554 -16.0628
-1.49727 -16.0377
-1.72856 -15.5685
-1.57998 -12.0232
-0.895324 -12.0951
-0.437184 -11.3434
-0.693104 -10.4876
-1.42978 -10.4045
-1.86718 -11.1868
-1.15303 -11.2684
-1.37006 -11.1745
-1.85668 -10.3119
-2.68433 -10.4173
-2.94761 -11.3666
-2.42802 -12.1789
-1.68483 -12.0942
-2.15733 -11.2761
-0.838878 -2.88739
-0.622086 -3.64863
0.0455788 -3.71717
0.408107 -3.00753
0.131319 -2.28139
-0.433073 -2.23187
-0.213875 -2.94025
-0.123051 -0.0903253
-0.129953 -0.309504
0.101124 -0.320316
0.112984 -0.0989568
-0.00500846 -0.0813881
-2.02269 -5.1664
-2.65895 -4.16016
-3.61182 -4.2931
-3.92306 -5.4233
-3.28291 -6.427
-2.35007 -6.28787
-2.97255 -5.29606
0.399416 -1.68458
0.150199 -1.11637
-0.269556 -1.08786
-0.599934 -1.60652
-0.0986 -1.63605
-4.52935 -1.12644
-3.90296 -2.1569
-2.96705 -1.99967
-2.6677 -0.917198
-3.57112 -1.01466
-1.04192 -6.95611
-0.278166 -7.04549
0.19444 -6.22667
-0.0962873 -5.33191
-0.82901 -5.24956
-1.31407 -6.0523
-0.559327 -6.13721
-3.58872 -7.53334
-2.97452 -8.48407
-2.0821 -8.36172
-1.75456 -7.26909
-2.66974 -7.4035
-1.53159 -7.78069
-1.24666 -8.69585
-0.482593 -8.78525
0.00672578 -7.96192
-0.762423 -7.87111
-2.66321 -13.0145
-2.21064 -13.7284
-1.56915 -13.665
-1.27297 -12.8663
-1.96661 -12.9471
-1.96551 -12.7458
-1.68923 -13.4988
-1.07848 -13.5561
-0.662772 -12.8758
-1.31521 -12.8156
-2.00532 -16.4708
-1.78847 -16.799
-1.5253 -16.7873
-1.34181 -16.4355
-1.6726 -16.4621
-1.94505 -16.2591
-1.75759 -16.6373
-1.47089 -16.6509
-1.24573 -16.2979
-1.59633 -16.2866
-0.367825 -0.648871
-2.34239 -2.99821
-4.23719 -3.30772
0.300877 -0.686865
-1.07922 -4.39583
-1.71961 -9.51267
-2.01044 -14.1389
-1.84794 -16.9168
-1.45369 -17.035
-1.24029 -14.3276
-1.53115 -9.29473
-3.25932 -9.52288
-2.41182 -14.4335
-1.84131 -17.0487
-1.40342 -16.9339
-0.875578 -14.2379
-0.209289 -9.68727
0.334289 -4.54905
      </DataArray> 
      <DataArray type="Float64" NumberOfComponents="4" Name="CauchyStress" format="ascii">
-101.316 -18.8103 0 -2.29866
-27.4173 41.0618 0 -23.9655
9.15773 85.8023 0 -1.35549
115.669 18.4507 0 -5.88367
-47.3898 -1.75428 0 8.01526
-4.99311 -0.346404 0 1.18652
26.3364 1.23469 0 -5.62158
48.7024 0.865381 0 -6.10518
59.27 0.130065 0 -0.32749
55.4186 0.938098 0 6.7154
38.2282 2.07505 0 9.05191
15.0191 2.13016 0 2.1866
-80.6646 -1.15687 0 6.65003
-61.935 0.0758961 0 8.90157
-31.5312 -1.56533 0 6.5179
-17.4165 -0.79586 0 4.11115
6.35478 0.427044 0 -1.56346
16.6882 0.791408 0 -3.81896
34.769 1.35758 0 -6.60007
42.0149 0.908743 0 -6.69715
53.4852 0.46049 0 -4.71916
56.8842 0.013481 0 -2.67337
59.2391 0.0185512 0 2.17577
57.9803 0.3646 0 4.65809
50.6369 1.16237 0 8.17291
45.2487 1.86643 0 8.98441
31.2195 2.15866 0 7.70513
21.9609 1.93077 0 6.24864
0.382828 -6.24597 0 2.90157
-18.8837 -2.27013 0 -4.91258
3.41942 65.7401 0 -27.7878
13.229 88.759 0 -22.1348
-9.72987 2.40294 0 -1.12602
-36.1808 -2.60622 0 -8.53038
-51.3525 -1.14675 0 -6.23796
-54.8879 -0.3824 0 0.304231
-45.418 -1.13385 0 5.7045
-24.6907 -1.61455 0 5.26057
6.07753 -0.24711 0 -1.47936
51.5636 1.57384 0 -9.72178
2.32778 -0.756525 0 0.135186
-3.51945 -9.96179 0 -0.429841
-20.3025 -1.84903 0 -5.78587
-28.2954 -1.89192 0 -7.15311
-42.0271 -1.92 0 -8.31322
-47.3716 -1.77942 0 -7.68247
-53.836 -0.700973 0 -4.24847
-55.056 -0.501359 0 -2.09943
-53.0572 -0.601667 0 2.56556
-49.757 -0.684009 0 4.32519
-39.5688 -1.54811 0 6.3414
-32.4378 -1.41146 0 6.13194
-15.4004 -1.27862 0 3.57187
-5.05832 -0.609972 0 1.20897
19.6585 0.881795 0 -4.49325
34.0405 0.958205 0 -7.20755
69.631 0.330529 0 -8.70962
89.9595 -0.258897 0 -6.43566
34.1286 9.9373 0 -1.04638
-37.1529 -11.5427 0 -0.316315
-1.99168 -0.612213 0 -4.91868
1.01345 -6.94082 0 6.52262
-1.58995 1.82331 0 -4.673
-1.21974 1.74972 0 2.52159
-1.11943 1.44828 0 -3.39936
-0.950862 -0.228182 0 1.60915
-0.897557 0.23542 0 -2.28328
-0.820843 -0.998221 0 0.327971
-0.801643 -0.804395 0 -1.03858
18.5538 -0.867409 0 -0.435053
-19.4831 -0.957266 0 -0.208147
-36.786 -0.854759 0 0.5524
-18.7241 -0.981971 0 0.0584752
17.7235 -0.60698 0 -1.65764
37.7158 -0.33181 0 -1.39064
-0.816957 -0.977073 0 -0.592751
38.455 -0.405872 0 0.602221
18.448 -0.752235 0 0.865431
-19.4455 -1.1011 0 -0.534807
-37.4952 -0.901835 0 -0.573627
-0.810437 -1.02177 0 -0.124048
15.1118 -0.022892 0 -3.52544
-16.2368 -0.620772 0 0.481459
-29.0162 -0.920126 0 2.94382
-14.1581 -0.42459 0 0.210173
12.8644 0.544867 0 -4.07465
29.3592 0.718383 0 -5.33826
-0.887522 -0.205551 0 -1.8931
34.3629 0.595558 0 5.62039
15.6013 0.247993 0 3.93864
-16.8962 -0.876546 0 -1.26723
-33.7138 -1.21047 0 -3.93833
-18.3345 -0.941564 0 -1.275
17.2305 -0.314753 0 3.09613
-0.931273 -0.569045 0 1.20352
7.70153 1.19677 0 -4.40263
-9.28023 0.308866 0 -0.703118
-14.0108 -0.336853 0 1.22858
-6.16153 0.730649 0 -1.72776
4.37431 1.5676 0 -4.12537
13.5007 1.47459 0 -4.85299
-1.04256 1.0335 0 -3.04133
21.7926 1.67477 0 7.11831
8.84001 1.62572 0 4.87903
-10.7024 -0.0310661 0 -0.218573
-22.4539 -1.69119 0 -4.07984
-13.2653 -0.271992 0 -1.01002
11.5501 1.1725 0 4.84015
-1.05184 0.393506 0 2.42939
-27.2376 0.0203467 0 2.51228
-12.3026 1.04685 0 -1.95843
9.76009 1.89505 0 -6.6052
27.0808 1.47804 0 -8.15407
14.722 1.46076 0 -8.34283
-17.9366 0.846252 0 -2.21841
-1.8664 1.34277 0 -5.25503
-63.5726 -2.59052 0 -4.10783
-30.0981 3.49098 0 -4.90847
27.0075 -4.67356 0 -9.42761
66.1668 1.48842 0 -10.0316
-2.74065 -1.55103 0 -5.6468
4.8965 10.3243 0 -0.646805
-1.64292 6.06189 0 2.3012
-1.79138 5.72558 0 0.293791
-4.24626 12.2016 0 -1.07647
-4.02085 -0.993361 0 3.54273
4.27745 -0.441262 0 5.07242
-2.79608 7.33148 0 1.09088
38.8762 2.07234 0 -9.32172
20.4773 1.02612 0 -7.51078
-23.1924 -1.07532 0 -1.82133
-38.692 -1.57954 0 2.58655
-1.92991 0.918858 0 -5.60718
7.66956 17.1099 0 8.08976
5.53611 -11.6055 0 10.0721
-1.13081 -5.48589 0 9.15441
-12.0404 8.19638 0 -1.27083
7.74017 19.8533 0 -1.93535
-2.94818 1.47202 0 -3.10974
0.742434 1.61767 0 -4.00713
7.59638 1.08105 0 -4.38149
5.02684 1.78595 0 -5.48707
-7.50036 1.43639 0 -2.57936
-8.59599 0.709798 0 -0.578364
-1.34348 1.84923 0 -4.21788
-12.0516 -2.75026 0 -1.98384
-8.27376 0.450593 0 0.455998
5.66373 1.70804 0 4.34572
9.02084 0.534996 0 5.67794
-0.641279 0.987229 0 3.46557
-0.414839 1.04011 0 -2.07401
0.882942 1.60063 0 -3.57623
-2.77405 1.11628 0 -2.74362
-0.36845 0.61459 0 -2.16451
-1.22011 1.69429 0 -3.78901
-26.7895 -1.39308 0 -4.54661
-15.1355 -0.771482 0 -1.27027
13.7802 0.658135 0 4.42445
26.9948 1.5171 0 6.89134
-1.02277 0.290898 0 1.96035
19.4912 1.23999 0 -5.42878
10.43 0.864327 0 -4.2537
-11.8045 -0.213585 0 -0.0815859
-19.7276 -0.80676 0 2.41919
-0.920134 0.704705 0 -2.65461
-35.9182 -1.17574 0 -3.20878
-19.048 -1.12561 0 -1.03244
18.0196 -0.593435 0 1.91369
36.7334 0.0434354 0 4.10233
-0.84716 -0.790543 0 0.764739
33.0702 0.193985 0 -4.31757
16.5887 -0.371252 0 -2.56139
-17.6265 -0.929703 0 0.423226
-32.5072 -1.03096 0 2.66191
-0.802671 -0.473518 0 -1.46384
-49.6891 0.0881688 0 2.08801
-6.15412 -4.95209 0 5.57153
1.12551 -9.29221 0 2.22901
50.6711 -0.857096 0 -9.01547
-17.3289 0.17752 0 1.13249
6.96887 1.27666 0 -3.706
24.8749 0.962641 0 -5.76173
36.0034 -0.240679 0 -3.08022
38.2413 -0.387008 0 2.45889
31.1096 0.961964 0 6.6467
17.1119 2.16283 0 6.06095
-16.99 -0.387767 0 -2.86072
-30.7528 -1.34234 0 -4.60547
-37.3069 -0.897436 0 -1.98659
-35.2203 -0.826605 0 1.81348
-24.8156 -0.851357 0 3.0407
-7.64178 0.181299 0 -0.205586
16.6385 1.70283 0 -6.54633
      </DataArray> 
    </PointData>
    <CellData>
      <DataArray type="Float64" NumberOfComponents="1" Name="Process" format="ascii">
1
1
3
1
3
0
2
2
0
2
0
2
0
2
0
3
1
3
2
0
0
2
2
3
3
1
1
1
0
0
1
1
3
3
3
2
      </DataArray> 
    </CellData>
  </Piece>
  </UnstructuredGrid>
</VTKFile>
