<?xml version="1.0"?>
<VTKFile type="UnstructuredGrid">
  <UnstructuredGrid>
  <Piece NumberOfPoints="193"  NumberOfCells="36">
    <Points>
      <DataArray type="Float64" NumberOfComponents="3" format="ascii">
0 0 0
167.379 0 0
162.016 10 0
0 10 0
17.3512 -7.16871 0
33.2843 -21.5775 0
50.174 -37.0194 0
70.9238 -48.5134 0
94.8788 -51.1532 0
117.603 -43.4396 0
136.011 -28.9378 0
151.374 -12.6079 0
5.82496 -1.0978 0
11.6931 -3.58495 0
22.7824 -11.5352 0
28.0496 -16.4101 0
38.6255 -26.8517 0
44.2144 -32.0572 0
56.5942 -41.5498 0
63.5171 -45.4468 0
78.728 -50.5651 0
86.7761 -51.4668 0
102.829 -49.6357 0
110.446 -47.014 0
124.236 -39.1037 0
130.352 -34.2068 0
141.316 -23.4751 0
146.403 -17.9826 0
156.511 -7.5888 0
161.686 -3.02498 0
165.85 3.33333 0
163.949 6.66667 0
144.304 -5.6646 0
129.049 -21.78 0
112.651 -34.7793 0
93.7505 -41.2472 0
74.0967 -39.0586 0
56.2285 -29.084 0
40.2624 -14.438 0
23.0711 0.991308 0
155.801 4.83468 0
149.789 -0.198581 0
139.127 -11.1446 0
134.099 -16.5762 0
123.846 -26.635 0
118.398 -31.0114 0
106.598 -37.8123 0
100.271 -39.9993 0
87.1387 -41.5046 0
80.5482 -40.7622 0
67.8659 -36.4698 0
61.9073 -33.1022 0
50.7886 -24.5445 0
45.507 -19.617 0
34.902 -9.15196 0
29.2388 -3.93102 0
16.1939 5.29489 0
8.48549 8.45932 0
0 6.66667 0
0 3.33333 0
10.6583 2.52615 0
155.867 -1.38888 0
28.7941 -10.2014 0
140.246 -17.3025 0
44.7418 -25.8096 0
124.286 -32.8323 0
62.3916 -39.2784 0
105.101 -43.7993 0
83.2736 -46.2836 0
94.5102 -47.9166 0
94.1364 -44.6175 0
90.5155 -43.2067 0
87.0139 -44.8929 0
86.895 -48.2108 0
90.7705 -49.8442 0
90.6447 -46.5581 0
98.5832 -48.947 0
101.992 -46.4832 0
101.145 -43.2721 0
97.3498 -42.4199 0
97.9728 -45.7148 0
71.9625 -45.4183 0
73.0131 -42.2669 0
70.2973 -39.439 0
66.3855 -39.5067 0
64.9446 -42.5015 0
67.7831 -45.5907 0
69.0286 -42.5402 0
120.095 -39.9839 0
122.313 -36.4408 0
120.377 -33.7377 0
116.492 -34.3963 0
114.335 -37.7075 0
115.977 -40.5972 0
118.307 -37.2087 0
52.1723 -34.4032 0
54.1803 -31.7515 0
52.4051 -28.1644 0
48.5737 -27.0599 0
46.3925 -29.5728 0
48.1905 -33.3125 0
50.2873 -30.7487 0
137.515 -25.0632 0
138.914 -21.1846 0
136.519 -18.8749 0
132.787 -20.3833 0
131.392 -24.1756 0
133.702 -26.5703 0
135.158 -22.7274 0
21.1469 -7.95245 0
24.9658 -8.98301 0
27.1023 -6.43517 0
25.2144 -2.69876 0
21.1903 -1.67942 0
19.3065 -4.41323 0
23.1957 -5.30869 0
3.18606 1.35272 0
6.77279 2.18986 0
7.62264 5.37758 0
4.07315 7.89821 0
3.63078 4.67658 0
152.78 -8.88741 0
154.219 -5.13159 0
151.987 -2.64037 0
148.122 -4.04409 0
146.668 -7.94282 0
149.016 -10.2764 0
150.441 -6.45569 0
18.8846 1.87519 0
14.7256 2.40291 0
13.2528 -0.564215 0
15.4629 -3.81521 0
17.1922 -0.943915 0
159.903 6.04085 0
157.802 2.2973 0
159.736 -0.317874 0
163.583 0.256299 0
161.816 3.20403 0
35.6156 -19.2017 0
37.9301 -16.8108 0
36.4454 -12.9835 0
32.622 -11.553 0
30.3519 -13.9847 0
31.8307 -17.7782 0
34.1408 -15.3767 0
142.891 -9.53486 0
141.554 -13.4171 0
143.968 -15.7078 0
147.68 -14.1289 0
145.284 -11.8247 0
37.0949 -23.027 0
40.9145 -24.4515 0
43.1977 -22.0304 0
41.7187 -18.239 0
39.4045 -20.6342 0
127.62 -25.4899 0
126.044 -29.1775 0
128.203 -31.7081 0
132.114 -30.399 0
129.877 -27.9534 0
54.263 -38.0101 0
58.3427 -38.7713 0
60.1043 -35.9518 0
58.0589 -32.5463 0
56.1485 -35.2934 0
110.423 -37.9141 0
107.909 -40.9317 0
109.185 -43.9988 0
113.363 -43.8767 0
111.906 -40.9188 0
75.1953 -48.1061 0
79.3228 -47.3589 0
79.9261 -44.0937 0
76.8643 -41.6741 0
76.0209 -44.9194 0
9.42945 -0.599021 0
157.971 -3.91992 0
153.795 1.11021 0
11.8401 5.5657 0
26.5636 -12.686 0
42.5042 -28.261 0
60.7919 -42.1647 0
82.913 -49.5514 0
106.16 -46.9157 0
126.333 -35.4303 0
142.663 -19.5907 0
137.825 -15.0128 0
122.212 -30.2076 0
104.019 -40.6258 0
83.6429 -42.9498 0
64.0193 -36.3512 0
46.9941 -23.3473 0
31.0072 -7.73402 0
      </DataArray>
    </Points>
    <Cells>
      <DataArray type="Int32" Name="connectivity" format="ascii">
8 35 68 69 70 71 72 73 74 75 
8 67 35 76 77 78 79 70 69 80 
7 36 66 81 82 83 84 85 86 87 
9 65 34 88 89 90 91 92 93 94 
6 37 64 95 96 97 98 99 100 101 
10 63 33 102 103 104 105 106 107 108 
4 62 39 109 110 111 112 113 114 115 
0 60 3 116 117 118 119 58 59 120 
11 61 32 121 122 123 124 125 126 127 
4 39 60 114 113 128 129 130 131 132 
1 2 61 30 31 133 134 135 136 137 
5 38 62 138 139 140 141 142 143 144 
11 32 63 126 125 145 146 147 148 149 
5 64 38 150 151 152 153 139 138 154 
10 33 65 107 106 155 156 157 158 159 
6 66 37 160 161 162 163 96 95 164 
9 34 67 93 92 165 166 167 168 169 
7 68 36 170 171 172 173 82 81 174 
0 4 60 12 13 131 130 117 116 175 
1 61 11 136 135 122 121 28 29 176 
2 32 61 40 41 124 123 134 133 177 
3 60 39 119 118 129 128 56 57 178 
4 5 62 14 15 143 142 110 109 179 
5 6 64 16 17 100 99 151 150 180 
6 7 66 18 19 86 85 161 160 181 
7 8 68 20 21 74 73 171 170 182 
8 9 67 22 23 168 167 77 76 183 
9 10 65 24 25 158 157 89 88 184 
10 11 63 26 27 148 147 103 102 185 
32 33 63 42 43 105 104 146 145 186 
33 34 65 44 45 91 90 156 155 187 
34 35 67 46 47 79 78 166 165 188 
35 36 68 48 49 173 172 72 71 189 
36 37 66 50 51 163 162 84 83 190 
37 38 64 52 53 153 152 98 97 191 
38 39 62 54 55 112 111 141 140 192 
      </DataArray>
      <DataArray type="Int32" Name="offsets" format="ascii">
10
20
30
40
50
60
70
80
90
100
110
120
130
140
150
160
170
180
190
200
210
220
230
240
250
260
270
280
290
300
310
320
330
340
350
360
      </DataArray>
      <DataArray type="UInt8" Name="types" format="ascii">
69
69
69
69
69
69
69
69
69
69
69
69
69
69
69
69
69
69
69
69
69
69
69
69
69
69
69
69
69
69
69
69
69
69
69
69
      </DataArray>
    </Cells>
    <PointData>
      <DataArray type="Float64" NumberOfComponents="2" Name="Displacement" format="ascii">
0 0
-32.6207 0
-37.9844 0
0 0
-4.87102 -7.16871
-11.1602 -21.5775
-16.4926 -37.0194
-17.9651 -48.5134
-16.2323 -51.1532
-15.7305 -43.4396
-19.5444 -28.9378
-26.4035 -12.6079
-1.58245 -1.0978
-3.12175 -3.58495
-6.84727 -11.5352
-8.98745 -16.4101
-13.2264 -26.8517
-15.0449 -32.0572
-17.4799 -41.5498
-17.9644 -45.4468
-17.5683 -50.5651
-16.9276 -51.4668
-15.6895 -49.6357
-15.4802 -47.014
-16.5045 -39.1037
-17.7966 -34.2068
-21.6472 -23.4751
-23.9671 -17.9826
-28.6739 -7.5888
-30.9064 -3.02498
-34.1503 0
-36.0513 0
-33.4742 -15.6646
-26.5068 -31.78
-20.6828 -44.7793
-17.3606 -51.2472
-14.7922 -49.0586
-10.4382 -39.084
-4.18201 -24.438
0.848873 -9.00869
-36.7913 -5.16532
-35.396 -10.1986
-31.2435 -21.1446
-28.8638 -26.5762
-24.3018 -36.635
-22.3429 -41.0114
-19.3282 -47.8123
-18.2475 -49.9993
-16.565 -51.5046
-15.7481 -50.7622
-13.6155 -46.4698
-12.1668 -43.1022
-8.47067 -34.5445
-6.34484 -29.617
-2.13503 -19.152
-0.39081 -13.931
1.37907 -4.70511
1.07808 -1.54068
0 0
0 0
-0.452782 -2.47385
-33.0214 -6.38888
-4.53922 -15.2014
-26.421 -22.3025
-10.8138 -30.8096
-20.1586 -37.8323
-15.3861 -44.2784
-17.1211 -48.7993
-16.7264 -51.2836
-16.6009 -51.25
-16.9747 -51.2841
-16.8919 -51.54
-16.6898 -51.5596
-16.8087 -51.5441
-16.6369 -51.5109
-16.7627 -51.5581
-16.2317 -50.6136
-16.5266 -49.8166
-17.3735 -49.9388
-17.465 -50.7532
-16.842 -50.7148
-16.9264 -48.7516
-15.8758 -48.9336
-14.8878 -47.7723
-15.096 -46.1733
-16.5368 -45.8348
-17.4021 -47.2573
-16.1566 -47.5402
-16.9416 -41.6505
-18.4272 -39.7741
-20.364 -40.4043
-20.5455 -42.7296
-18.9981 -44.3741
-17.3563 -43.9306
-18.7296 -42.2087
-14.4944 -37.7366
-12.4863 -38.4182
-10.5579 -36.4977
-10.6856 -33.7265
-12.8667 -32.9062
-14.7725 -34.9792
-12.6757 -35.7487
-21.7443 -26.7298
-24.0488 -24.518
-26.4438 -25.5415
-26.4718 -28.7166
-24.1639 -30.8423
-21.8531 -29.9036
-24.1015 -27.7274
-4.77907 -9.61911
-4.66378 -12.3163
-2.52735 -13.1018
-0.711542 -11.0321
-1.03191 -8.34609
-2.91572 -7.74656
-2.73023 -10.3087
-0.517648 -0.313945
-0.634619 -1.14347
0.215234 -1.28909
0.369443 -0.435125
-0.0729221 -0.323425
-28.7017 -10.5541
-30.9666 -8.46493
-33.1982 -9.30704
-33.3597 -12.3774
-31.1094 -14.6095
-28.7619 -13.6098
-31.041 -11.4557
0.366124 -6.45814
-0.0892493 -4.26376
-1.56199 -3.89755
-3.05563 -5.48188
-1.32633 -5.94391
-36.3932 -2.29249
-34.7903 -4.36936
-32.8562 -3.65121
-32.7135 -1.41037
-34.4806 -1.79597
-8.82889 -22.535
-6.51431 -23.4775
-4.29538 -21.3168
-4.41505 -18.2197
-6.68514 -17.3181
-8.91002 -19.4448
-6.59998 -20.3767
-31.183 -17.8682
-28.8166 -20.0838
-26.4025 -19.0411
-26.3943 -15.7956
-28.79 -16.8247
-11.0533 -24.6937
-10.9373 -27.7849
-8.65411 -28.697
-6.42947 -26.5723
-8.74364 -25.6342
-24.232 -33.8232
-22.1044 -35.8442
-19.9456 -35.0415
-19.7376 -32.0657
-21.9749 -32.9534
-16.1074 -39.6768
-15.7314 -42.1047
-13.9698 -42.6185
-12.3114 -40.8796
-14.2219 -40.2934
-19.2071 -46.2475
-18.0166 -47.5984
-16.7407 -47.3322
-16.2665 -45.5434
-17.7235 -45.9188
-17.3973 -49.7728
-16.9735 -50.6922
-16.3702 -50.7604
-15.7283 -50.0074
-16.5717 -49.9194
-1.68166 -2.26569
-30.9179 -5.58659
-35.0934 -7.22313
0.729011 -2.76763
-6.76975 -14.3527
-13.0514 -29.9277
-16.9859 -43.8314
-17.087 -51.2181
-16.0621 -48.5823
-18.1118 -37.0969
-24.0035 -21.2573
-28.8412 -23.3461
-22.2324 -38.5409
-18.2031 -48.9592
-16.3571 -51.2831
-13.7584 -44.6846
-8.56143 -31.6806
-2.32618 -16.0674
      </DataArray> 
      <DataArray type="Float64" NumberOfComponents="4" Name="CauchyStress" format="ascii">
-304.693 -69.6667 0 5.11629
-77.7971 106.849 0 -151.631
124.923 453.202 0 33.955
520.994 70.2998 0 -51.6023
-90.9961 -48.6722 0 61.9273
2.50554 2.65564 0 -3.67349
74.8884 45.1143 0 -58.172
184.703 22.4048 0 -62.6408
226.515 4.43409 0 25.9655
131.17 44.5661 0 75.8125
37.137 37.7814 0 38.3543
-15.2809 -25.6005 0 -21.6652
-226.379 -31.9455 0 66.8716
-135.047 -30.912 0 80.7361
-48.4949 -36.4997 0 40.198
-16.3355 -16.1379 0 17.9971
24.9269 23.8481 0 -23.4699
46.5287 36.1625 0 -41.9959
109.66 45.5595 0 -69.1314
143.202 32.9495 0 -70.9815
211.512 7.55428 0 -39.7636
224.771 -0.672125 0 -8.31516
198.771 12.8305 0 53.6338
168.647 30.8794 0 71.027
92.5316 48.4782 0 68.6871
65.2107 50.1129 0 55.7469
21.5971 21.5009 0 20.5064
0.294755 1.11419 0 0.236512
-47.716 -44.2428 0 -33.5112
-121.779 -78.6402 0 -70.5162
85.7612 188.387 0 -205.475
146.676 332.395 0 -175.436
34.812 60.5885 0 36.1392
-29.2895 -32.84 0 -28.4338
-102.147 -36.5864 0 -59.5552
-170.995 -2.56801 0 -19.9483
-141.731 -17.7118 0 48.7531
-59.3772 -38.5997 0 45.8073
4.33826 1.00866 0 -5.63518
117.679 61.7592 0 -88.7506
101.659 62.8991 0 79.8162
51.938 9.57079 0 62.136
9.36052 7.26054 0 9.31565
-9.5686 -11.7263 0 -10.3794
-48.1596 -38.8156 0 -43.4871
-75.5223 -44.0551 0 -54.0382
-129.97 -24.0218 0 -55.3268
-156.022 -15.179 0 -41.8295
-174.318 -3.20535 0 6.90484
-163.126 -7.12048 0 30.373
-115.426 -31.9666 0 55.8918
-84.2806 -35.3739 0 54.888
-36.3868 -31.7813 0 31.5313
-13.7188 -15.6667 0 14.3536
32.4173 28.0506 0 -29.4713
64.4919 45.6412 0 -57.2175
217.978 58.3896 0 -109.917
335.606 21.7864 0 -99.7735
111.326 30.696 0 -10.8195
-151.215 -53.3181 0 0.425666
-26.8489 -0.117927 0 -18.3297
-25.0118 2.25395 0 31.4989
-12.5138 19.8655 0 -6.21466
-7.66381 17.9082 0 2.42768
-8.82172 13.6756 0 -4.548
-9.70167 7.1468 0 4.76713
-10.222 1.08817 0 -5.71636
-10.3992 -6.6081 0 4.47421
-9.88837 -10.8392 0 -2.1581
60.0936 -8.0829 0 9.5269
-71.658 -10.7188 0 -5.87821
-126.154 -8.11498 0 -5.20101
-71.697 -10.9209 0 0.930336
59.543 -9.10667 0 -3.80579
137.993 -4.98451 0 5.45487
-10.0954 -11.1217 0 0.273325
129.849 0.725903 0 27.3261
51.6134 -1.99416 0 19.7659
-65.3707 -11.7911 0 -11.3228
-119.752 -10.5484 0 -19.6693
-10.4905 -9.9548 0 2.74767
47.1498 2.13585 0 -24.0125
-60.8233 -11.6742 0 13.5224
-94.6549 -17.9037 0 33.6509
-50.3411 -11.1839 0 15.0084
35.2171 10.5305 0 -26.64
99.1639 17.018 0 -46.031
-10.7908 -4.15003 0 -5.3975
66.1383 32.8932 0 49.281
20.1498 20.69 0 25.344
-35.6342 -10.0694 0 -15.0797
-66.4901 -25.2772 0 -36.9366
-46.2485 -12.9187 0 -17.0489
30.5658 14.7753 0 28.4753
-10.7207 2.14185 0 5.30797
14.1937 21.8235 0 -22.9118
-29.6838 -6.72408 0 12.1168
-37.6694 -18.2035 0 24.3177
-21.0637 -0.0892651 0 7.29544
6.41591 22.639 0 -16.7774
33.6553 33.1029 0 -34.7183
-9.61666 9.57963 0 -5.18831
11.3274 27.2887 0 20.6329
-2.60976 20.6269 0 8.8029
-11.9082 8.47283 0 -1.08586
-18.8722 -9.73858 0 -11.5202
-18.3402 -0.0612741 0 -7.37223
3.53903 23.6183 0 15.1037
-9.15032 13.9406 0 4.53562
-53.5709 -18.9045 0 32.8362
-29.6341 3.86631 0 9.2126
8.14195 31.8331 0 -24.0705
49.6965 45.1574 0 -51.4961
15.7317 35.8267 0 -38.0534
-50.3863 -1.59868 0 13.5811
-17.738 17.7187 0 -9.97502
-214.845 -18.0043 0 7.73808
-115.897 7.24315 0 0.149888
71.6546 -9.6237 0 -59.1912
247.501 10.4941 0 -75.988
-38.9026 -19.8548 0 -23.2678
-15.7538 2.07191 0 -37.4979
-31.2215 10.6361 0 -17.2917
13.5173 41.2774 0 16.5655
34.4591 74.0527 0 18.2387
-2.3465 27.7993 0 21.4558
-18.2811 4.01992 0 3.47384
-5.75358 27.6505 0 -8.04636
90.912 47.5439 0 -71.7414
41.3459 24.691 0 -46.659
-76.6485 -12.1997 0 13.2643
-96.8167 -28.8877 0 41.4075
-20.7763 15.4441 0 -13.9401
66.3749 137.251 0 77.0533
15.375 11.2948 0 71.0374
-57.5468 0.680236 0 14.8908
-93.2607 -5.95828 0 -44.3594
33.9955 62.5381 0 -32.7174
-8.27406 15.7754 0 -4.52095
-7.63199 15.5789 0 -4.97301
4.44362 18.2039 0 -13.9611
-1.33166 24.8212 0 -14.212
-18.0151 10.7238 0 2.40424
-12.7907 4.97793 0 3.3004
-9.95574 18.7551 0 -5.36287
4.49648 14.6536 0 16.8832
-6.97848 16.9469 0 5.58783
-9.41099 14.6416 0 1.41074
-20.2952 -0.295934 0 -4.86451
-10.6998 19.5691 0 6.98259
3.21719 16.6905 0 -10.3416
-0.701486 20.0641 0 -10.6734
-13.7715 7.07322 0 1.39673
-9.28568 3.52831 0 1.05347
-8.87029 16.5922 0 -4.68017
-32.4652 -19.1497 0 -22.5023
-26.384 -6.57994 0 -11.3995
11.4704 22.9966 0 20.9956
27.7259 33.7945 0 32.316
-8.65328 11.4959 0 4.06861
52.7116 31.6502 0 -43.7251
24.576 16.4396 0 -26.0218
-39.7129 -10.8241 0 14.3957
-55.6325 -24.1061 0 31.7877
-9.27134 6.31954 0 -5.35374
-86.6245 -24.0263 0 -37.4192
-56.3246 -13.8988 0 -15.63
42.0744 5.22185 0 25.5569
89.0454 22.4148 0 49.7118
-10.0838 -1.47845 0 4.98492
120.061 4.83183 0 -34.7914
55.3283 -5.81859 0 -14.3328
-67.7877 -11.9093 0 8.65283
-111.924 -14.188 0 26.1166
-9.99098 -7.30222 0 -3.95283
-144.396 -21.6519 0 45.8715
-72.8191 -33.1192 0 -21.9376
40.1879 11.6773 0 58.0286
150.726 26.8053 0 -85.2434
-28.7992 -8.87359 0 17.4219
17.116 27.7703 0 -23.455
74.8003 27.2241 0 -49.3311
135.231 -4.13148 0 -17.2683
112.164 10.8474 0 43.7529
44.2001 37.2561 0 43.1225
2.24891 16.6234 0 7.91222
-5.91095 7.93913 0 0.521572
-47.5166 -25.7369 0 -31.8701
-105.571 -17.1047 0 -32.5462
-124.109 -8.64545 0 12.4028
-74.4014 -23.4218 0 36.3691
-22.2371 -9.77617 0 14.0463
21.9889 35.5721 0 -30.817
      </DataArray> 
    </PointData>
    <CellData>
      <DataArray type="Float64" NumberOfComponents="1" Name="Process" format="ascii">
1
1
3
1
3
0
2
2
0
2
0
2
0
2
0
3
1
3
2
0
0
2
2
3
3
1
1
1
0
0
1
1
3
3
3
2
      </DataArray> 
    </CellData>
  </Piece>
  </UnstructuredGrid>
</VTKFile>
