<?xml version="1.0"?>
<VTKFile type="UnstructuredGrid">
  <UnstructuredGrid>
  <Piece NumberOfPoints="400"  NumberOfCells="25">
    <Points>
      <DataArray type="Float64" NumberOfComponents="3" format="ascii">
0 15 0
6.90437 14.1178 0
8.84058 23.8923 0
0 25 0
2.28301 14.8292 0
4.58762 14.5394 0
7.57979 17.4456 0
8.2052 20.7039 0
2.99498 24.7747 0
5.94304 24.4095 0
0 18.3333 0
0 21.6667 0
2.54108 18.2222 0
5.06799 17.9171 0
2.74854 21.5366 0
5.48993 21.2064 0
6.90437 14.1178 0
13.8528 12.0591 0
17.1963 21.4597 0
8.84058 23.8923 0
9.22453 13.5559 0
11.5423 12.8646 0
14.9978 15.2396 0
16.0924 18.3785 0
11.684 23.2168 0
14.4703 22.3988 0
7.57979 17.4456 0
8.2052 20.7039 0
10.0749 16.8327 0
12.5492 16.0933 0
10.8786 20.0548 0
13.5075 19.2751 0
13.8528 12.0591 0
20.7136 9.0815 0
25.0144 18.0906 0
17.1963 21.4597 0
16.1517 11.1539 0
18.4385 10.1585 0
22.172 12.1126 0
23.5916 15.1216 0
19.8601 20.4195 0
22.4648 19.2922 0
14.9978 15.2396 0
16.0924 18.3785 0
17.417 14.2839 0
19.8078 13.2377 0
18.6339 17.3783 0
21.1333 16.2883 0
20.7136 9.0815 0
27.4793 5.45091 0
32.3748 14.1576 0
25.0144 18.0906 0
22.9776 7.93158 0
25.2322 6.71819 0
29.1285 8.36845 0
30.7473 11.2778 0
27.5131 16.8271 0
29.9651 15.5125 0
22.172 12.1126 0
23.5916 15.1216 0
24.5118 10.9197 0
26.8297 9.6685 0
26.0107 13.8911 0
28.3944 12.6067 0
27.4793 5.45091 0
34.2025 1.4115 0
39.397 9.94508 0
32.3748 14.1576 0
29.7212 4.13897 0
31.9612 2.79007 0
35.9438 4.2606 0
37.6648 7.11152 0
34.7464 12.7726 0
37.0853 11.3658 0
29.1285 8.36845 0
30.7473 11.2778 0
31.4112 7.02853 0
33.6816 5.65668 0
33.0737 9.91343 0
35.3781 8.52198 0
34.2025 1.4115 0
40.9695 -2.82991 0
46.2178 5.67239 0
39.397 9.94508 0
36.4487 0.0105492 0
38.7031 -1.40563 0
42.7217 -0.000148005 0
44.4615 2.83994 0
41.6865 8.51818 0
43.9587 7.09179 0
35.9438 4.2606 0
37.6648 7.11152 0
38.202 2.8478 0
40.46 1.42528 0
39.9379 5.6899 0
42.202 4.26388 0
40.9695 -2.82991 0
47.8737 -7.08307 0
52.9595 1.5171 0
46.2178 5.67239 0
43.2512 -4.25528 0
45.5515 -5.67516 0
49.566 -4.22851 0
51.2527 -1.35686 0
48.4683 4.26634 0
50.7142 2.87937 0
42.7217 -0.000148005 0
44.4615 2.83994 0
44.9909 -1.42175 0
47.2712 -2.83326 0
46.7206 1.4245 0
48.9831 0.0235789 0
47.8737 -7.08307 0
55.0002 -11.1708 0
59.7261 -2.36839 0
52.9595 1.5171 0
50.2209 -8.47257 0
52.5956 -9.83727 0
56.5682 -8.25624 0
58.1356 -5.31823 0
55.208 0.185023 0
57.4626 -1.1118 0
49.566 -4.22851 0
51.2527 -1.35686 0
51.8786 -5.60138 0
54.2118 -6.94593 0
53.5327 -2.71095 0
55.8261 -4.03321 0
55.0002 -11.1708 0
62.4122 -14.9219 0
66.5922 -5.849 0
59.7261 -2.36839 0
57.4369 -12.4669 0
59.9072 -13.7193 0
63.7956 -11.924 0
65.1819 -8.89715 0
62.001 -3.57987 0
64.2891 -4.74159 0
56.5682 -8.25624 0
58.1356 -5.31823 0
58.9499 -9.52645 0
61.3586 -10.7509 0
60.4636 -6.56065 0
62.8119 -7.75532 0
62.4122 -14.9219 0
70.1408 -18.1713 0
73.6023 -8.80212 0
66.5922 -5.849 0
64.9528 -16.0687 0
67.5291 -17.1537 0
71.2841 -15.081 0
72.4319 -11.9567 0
68.9117 -6.89762 0
71.2483 -7.88333 0
63.7956 -11.924 0
65.1819 -8.89715 0
66.2621 -13.0403 0
68.7583 -14.0943 0
67.5751 -9.98111 0
69.9917 -11.0025 0
70.1408 -18.1713 0
78.1786 -20.7648 0
80.7678 -11.1195 0
73.6023 -8.80212 0
72.7874 -19.1157 0
75.4672 -19.9819 0
79.0325 -17.5879 0
79.8908 -14.3727 0
75.974 -9.65007 0
78.3627 -10.4237 0
71.2841 -15.081 0
72.4319 -11.9567 0
73.8393 -15.9952 0
76.4226 -16.8323 0
74.8958 -12.8391 0
77.3825 -13.6458 0
78.1786 -20.7648 0
86.4768 -22.5686 0
88.0696 -12.7109 0
80.7678 -11.1195 0
80.9193 -21.4595 0
83.6865 -22.0621 0
87.0015 -19.325 0
87.5293 -16.04 0
83.1884 -11.7344 0
85.6229 -12.2657 0
79.0325 -17.5879 0
79.8908 -14.3727 0
81.6673 -18.2575 0
84.3246 -18.8377 0
82.4195 -15.0161 0
84.9664 -15.5729 0
86.4768 -22.5686 0
94.9492 -23.4817 0
95.4622 -13.51 0
88.0696 -12.7109 0
89.2867 -22.9757 0
92.1123 -23.2808 0
95.1182 -20.2024 0
95.2879 -16.88 0
90.5266 -13.0677 0
92.9916 -13.3346 0
87.0015 -19.325 0
87.5293 -16.04 0
89.6951 -19.7163 0
92.4019 -20.0094 0
90.1058 -16.4148 0
92.693 -16.6953 0
94.9492 -23.4817 0
103.483 -23.4466 0
102.882 -13.4799 0
95.4622 -13.51 0
97.793 -23.5767 0
100.639 -23.565 0
103.285 -20.1692 0
103.086 -16.8485 0
97.936 -13.5929 0
100.41 -13.5829 0
95.1182 -20.2024 0
95.2879 -16.88 0
97.8401 -20.2937 0
100.564 -20.2827 0
97.8872 -16.9673 0
100.488 -16.9569 0
103.483 -23.4466 0
111.953 -22.4567 0
110.26 -12.6162 0
102.882 -13.4799 0
106.319 -23.2214 0
109.144 -22.8908 0
111.396 -19.2196 0
110.834 -15.9404 0
105.35 -13.2837 0
107.81 -12.9955 0
103.285 -20.1692 0
103.086 -16.8485 0
106 -19.9533 0
108.705 -19.6363 0
105.678 -16.6422 0
108.262 -16.3391 0
111.953 -22.4567 0
120.243 -20.5574 0
117.528 -10.9475 0
110.26 -12.6162 0
114.742 -21.9209 0
117.506 -21.2867 0
119.349 -17.3934 0
118.447 -14.1903 0
112.697 -12.147 0
115.121 -11.5901 0
111.396 -19.2196 0
110.834 -15.9404 0
114.068 -18.705 0
116.72 -18.0952 0
113.39 -15.4478 0
115.929 -14.8636 0
120.243 -20.5574 0
128.261 -17.8388 0
124.636 -8.53229 0
117.528 -10.9475 0
122.95 -19.7365 0
125.623 -18.8288 0
127.065 -14.7712 0
125.862 -11.6678 0
119.917 -10.2217 0
122.287 -9.41552 0
119.349 -17.3934 0
118.447 -14.1903 0
121.95 -16.6028 0
124.522 -15.7274 0
120.944 -13.4309 0
123.415 -12.5888 0
128.261 -17.8388 0
135.948 -14.4266 0
131.558 -5.45379 0
124.636 -8.53229 0
130.861 -16.7716 0
133.424 -15.6324 0
134.497 -11.4638 0
133.04 -8.47075 0
126.965 -7.57519 0
129.272 -6.54781 0
127.065 -14.7712 0
125.862 -11.6678 0
129.575 -13.7386 0
132.052 -12.6344 0
128.282 -10.6717 0
130.674 -9.60461 0
135.948 -14.4266 0
143.288 -10.4665 0
138.298 -1.81193 0
131.558 -5.45379 0
138.432 -13.1597 0
140.879 -11.8376 0
141.635 -7.60395 0
139.978 -4.71492 0
133.824 -4.29693 0
136.07 -3.08151 0
134.497 -11.4638 0
133.04 -8.47075 0
136.908 -10.2317 0
139.287 -8.94339 0
135.379 -7.27449 0
137.691 -6.02082 0
143.288 -10.4665 0
150.307 -6.11763 0
144.891 2.27746 0
138.298 -1.81193 0
145.661 -9.05215 0
148 -7.60059 0
148.507 -3.33365 0
146.71 -0.531535 0
140.509 -0.492616 0
142.706 0.871995 0
141.635 -7.60395 0
139.978 -4.71492 0
143.953 -6.2187 0
146.243 -4.79334 0
142.243 -3.36178 0
144.486 -1.96588 0
150.307 -6.11763 0
157.062 -1.54102 0
151.402 6.69294 0
144.891 2.27746 0
152.584 -4.60918 0
154.835 -3.08152 0
155.177 1.19498 0
153.299 3.94762 0
147.066 3.71927 0
149.235 5.1927 0
148.507 -3.33365 0
146.71 -0.531535 0
150.749 -1.84537 0
152.972 -0.334011 0
148.918 0.936514 0
151.113 2.43185 0
157.062 -1.54102 0
163.639 3.09536 0
157.933 11.2965 0
151.402 6.69294 0
159.27 0.00602608 0
161.462 1.5535 0
161.729 5.82953 0
159.837 8.56607 0
153.572 8.21482 0
155.748 9.75168 0
155.177 1.19498 0
153.299 3.94762 0
157.368 2.73602 0
159.551 4.28297 0
155.478 5.47763 0
157.655 7.01814 0
163.639 3.09536 0
170.135 7.62095 0
164.598 15.9312 0
157.933 11.2965 0
165.806 4.62534 0
167.969 6.13631 0
168.278 10.3997 0
166.443 13.1833 0
160.132 12.843 0
162.351 14.3885 0
161.729 5.82953 0
159.837 8.56607 0
163.908 7.36927 0
166.091 8.89508 0
162.027 10.1168 0
164.229 11.6599 0
170.135 7.62095 0
176.634 11.8459 0
171.538 20.4011 0
164.598 15.9312 0
172.308 9.07201 0
174.478 10.4826 0
174.927 14.7333 0
173.245 17.5809 0
166.878 17.4647 0
169.192 18.9644 0
168.278 10.3997 0
166.443 13.1833 0
170.474 11.8766 0
172.687 13.3221 0
168.675 14.6773 0
170.937 16.1423 0
176.634 11.8459 0
183.271 15 0
178.429 25 0
171.538 20.4011 0
178.779 13.1334 0
180.968 14.2303 0
181.937 18.3333 0
180.252 21.6667 0
173.905 21.781 0
176.227 23.2527 0
174.927 14.7333 0
173.245 17.5809 0
177.207 16.0926 0
179.539 17.3231 0
175.601 18.992 0
177.957 20.3603 0
      </DataArray>
    </Points>
    <Cells>
      <DataArray type="Int32" Name="connectivity" format="ascii">
0 1 2 3 4 5 6 7 8 9 10 11 12 13 14 15 
16 17 18 19 20 21 22 23 24 25 26 27 28 29 30 31 
32 33 34 35 36 37 38 39 40 41 42 43 44 45 46 47 
48 49 50 51 52 53 54 55 56 57 58 59 60 61 62 63 
64 65 66 67 68 69 70 71 72 73 74 75 76 77 78 79 
80 81 82 83 84 85 86 87 88 89 90 91 92 93 94 95 
96 97 98 99 100 101 102 103 104 105 106 107 108 109 110 111 
112 113 114 115 116 117 118 119 120 121 122 123 124 125 126 127 
128 129 130 131 132 133 134 135 136 137 138 139 140 141 142 143 
144 145 146 147 148 149 150 151 152 153 154 155 156 157 158 159 
160 161 162 163 164 165 166 167 168 169 170 171 172 173 174 175 
176 177 178 179 180 181 182 183 184 185 186 187 188 189 190 191 
192 193 194 195 196 197 198 199 200 201 202 203 204 205 206 207 
208 209 210 211 212 213 214 215 216 217 218 219 220 221 222 223 
224 225 226 227 228 229 230 231 232 233 234 235 236 237 238 239 
240 241 242 243 244 245 246 247 248 249 250 251 252 253 254 255 
256 257 258 259 260 261 262 263 264 265 266 267 268 269 270 271 
272 273 274 275 276 277 278 279 280 281 282 283 284 285 286 287 
288 289 290 291 292 293 294 295 296 297 298 299 300 301 302 303 
304 305 306 307 308 309 310 311 312 313 314 315 316 317 318 319 
320 321 322 323 324 325 326 327 328 329 330 331 332 333 334 335 
336 337 338 339 340 341 342 343 344 345 346 347 348 349 350 351 
352 353 354 355 356 357 358 359 360 361 362 363 364 365 366 367 
368 369 370 371 372 373 374 375 376 377 378 379 380 381 382 383 
384 385 386 387 388 389 390 391 392 393 394 395 396 397 398 399 
      </DataArray>
      <DataArray type="Int32" Name="offsets" format="ascii">
16
32
48
64
80
96
112
128
144
160
176
192
208
224
240
256
272
288
304
320
336
352
368
384
400
      </DataArray>
      <DataArray type="UInt8" Name="types" format="ascii">
70
70
70
70
70
70
70
70
70
70
70
70
70
70
70
70
70
70
70
70
70
70
70
70
70
      </DataArray>
    </Cells>
    <PointData>
      <DataArray type="Float64" NumberOfComponents="2" Name="Displacement" format="ascii">
0 0
-1.09563 -0.882232
0.840577 -1.10766
0 0
-0.383659 -0.170835
-0.745715 -0.460575
-0.420208 -0.887766
0.205201 -0.962745
0.328309 -0.225317
0.609712 -0.59053
0 0
0 0
-0.125592 -0.111173
-0.265348 -0.416274
0.0818715 -0.130052
0.156601 -0.460293
-1.09563 -0.882232
-2.14723 -2.94087
1.19625 -3.5403
0.840577 -1.10766
-1.44214 -1.44408
-1.791 -2.13543
-1.00222 -3.09372
0.0923565 -3.28821
1.01737 -1.78316
1.13695 -2.60118
-0.420208 -0.887766
0.205201 -0.962745
-0.591757 -1.50065
-0.784159 -2.24007
0.211943 -1.61182
0.174138 -2.39152
-2.14723 -2.94087
-3.28635 -5.9185
1.01436 -6.90935
1.19625 -3.5403
-2.51497 -3.84611
-2.89479 -4.8415
-1.82799 -6.2207
-0.408351 -6.54508
1.19343 -4.58054
1.13142 -5.70778
-1.00222 -3.09372
0.0923565 -3.28821
-1.24963 -4.04943
-1.52555 -5.09559
-0.0327267 -4.28832
-0.200026 -5.37841
-3.28635 -5.9185
-4.52072 -9.54909
0.374762 -10.8424
1.01436 -6.90935
-3.68906 -7.06842
-4.10118 -8.28181
-2.87147 -9.96488
-1.25273 -10.3889
0.846411 -8.17292
0.631795 -9.48748
-1.82799 -6.2207
-0.408351 -6.54508
-2.15488 -7.41367
-2.50361 -8.66483
-0.655963 -7.7756
-0.938919 -9.05998
-4.52072 -9.54909
-5.79747 -13.5885
-0.603042 -15.0549
0.374762 -10.8424
-4.94542 -10.861
-5.37214 -12.2099
-4.0562 -14.0727
-2.33522 -14.5551
0.0797563 -12.2274
-0.247988 -13.6342
-2.87147 -9.96488
-1.25273 -10.3889
-3.25548 -11.3048
-3.65177 -12.6766
-1.59292 -11.7532
-1.95518 -13.1447
-5.79747 -13.5885
-7.03055 -17.8299
-1.7822 -19.3276
-0.603042 -15.0549
-6.218 -14.9895
-6.63021 -16.4056
-5.27829 -18.3335
-3.53849 -18.8267
-0.980139 -16.4818
-1.37467 -17.9082
-4.0562 -14.0727
-2.33522 -14.5551
-4.46469 -15.4855
-4.87334 -16.9081
-2.72873 -15.9768
-3.13129 -17.4028
-7.03055 -17.8299
-8.12628 -22.0831
-3.04046 -23.4829
-1.7822 -19.3276
-7.41551 -19.2553
-7.78183 -20.6752
-6.43405 -22.5618
-4.74731 -23.0235
-2.19837 -20.7337
-2.61911 -22.1206
-5.27829 -18.3335
-3.53849 -18.8267
-5.67575 -19.7551
-6.06217 -21.1666
-3.94605 -20.2422
-4.35019 -21.6431
-8.12628 -22.0831
-8.99979 -26.1708
-4.27392 -27.3684
-3.04046 -23.4829
-8.44576 -23.4726
-8.73773 -24.8373
-7.43185 -26.5896
-5.86442 -26.9849
-3.45864 -24.815
-3.8707 -26.1118
-6.43405 -22.5618
-4.74731 -23.0235
-6.78805 -23.9347
-7.12149 -25.2793
-5.13394 -24.3776
-5.50721 -25.6999
-8.99979 -26.1708
-9.58785 -29.9219
-5.40779 -30.849
-4.27392 -27.3684
-9.22973 -27.4669
-9.42615 -28.7193
-8.2044 -30.2574
-6.81806 -30.5638
-4.66571 -28.5799
-5.04422 -29.7416
-7.43185 -26.5896
-5.86442 -26.9849
-7.7168 -27.8598
-7.97477 -29.0843
-6.20307 -28.2273
-6.52145 -29.422
-9.58785 -29.9219
-9.8592 -33.1713
-6.3977 -33.8021
-5.40779 -30.849
-9.71387 -31.0687
-9.80424 -32.1537
-8.71587 -33.4143
-7.56808 -33.6233
-5.75493 -31.8976
-6.08504 -32.8833
-8.2044 -30.2574
-6.81806 -30.5638
-8.40454 -31.3736
-8.57502 -32.4277
-7.09161 -31.6478
-7.34168 -32.6692
-9.8592 -33.1713
-9.82141 -35.7648
-7.23216 -36.1195
-6.3977 -33.8021
-9.8793 -34.1157
-9.86609 -34.9819
-8.96753 -35.9212
-8.1092 -36.0394
-6.69271 -34.6501
-6.97062 -35.4237
-8.71587 -33.4143
-7.56808 -33.6233
-8.82738 -34.3286
-8.91077 -35.1657
-7.77084 -34.5058
-7.95084 -35.3125
-9.82141 -35.7648
-9.52324 -37.5686
-7.93041 -37.7109
-7.23216 -36.1195
-9.74732 -36.4595
-9.64685 -37.0621
-8.9985 -37.6584
-8.4707 -37.7067
-7.47824 -36.7344
-7.71041 -37.2657
-8.96753 -35.9212
-8.1092 -36.0394
-8.99933 -36.5909
-9.00873 -37.1711
-8.24721 -36.6828
-8.36696 -37.2395
-9.52324 -37.5686
-9.05083 -38.4817
-8.53778 -38.51
-7.93041 -37.7109
-9.37992 -37.9757
-9.22102 -38.2808
-8.88185 -38.5358
-8.71213 -38.5467
-8.14008 -38.0677
-8.34173 -38.3346
-8.9985 -37.6584
-8.4707 -37.7067
-8.97156 -38.0497
-8.93144 -38.3428
-8.56083 -38.0815
-8.64029 -38.362
-9.05083 -38.4817
-8.51735 -38.4466
-9.11764 -38.4799
-8.53778 -38.51
-8.87371 -38.5767
-8.69432 -38.565
-8.71479 -38.5025
-8.9142 -38.5151
-8.73069 -38.5929
-8.92309 -38.5829
-8.88185 -38.5358
-8.71213 -38.5467
-8.82652 -38.627
-8.76948 -38.616
-8.77949 -38.634
-8.84571 -38.6235
-8.51735 -38.4466
-8.04693 -37.4567
-9.74033 -37.6162
-9.11764 -38.4799
-8.34747 -38.2214
-8.18918 -37.8908
-8.60442 -37.5529
-9.16638 -37.6071
-9.31698 -38.2837
-9.52369 -37.9955
-8.71479 -38.5025
-8.9142 -38.5151
-8.66648 -38.2867
-8.62841 -37.9696
-8.98834 -38.3088
-9.07134 -38.0057
-8.04693 -37.4567
-7.75667 -35.5574
-10.4723 -35.9475
-9.74033 -37.6162
-7.92502 -36.9209
-7.8271 -36.2867
-8.6515 -35.7268
-9.5525 -35.857
-9.96936 -37.147
-10.2127 -36.5901
-8.60442 -37.5529
-9.16638 -37.6071
-8.5982 -37.0383
-8.61289 -36.4286
-9.27653 -37.1145
-9.4044 -36.5302
-7.75667 -35.5574
-7.73934 -32.8388
-11.3637 -33.5323
-10.4723 -35.9475
-7.717 -34.7365
-7.71049 -33.8288
-8.93545 -33.1045
-10.1382 -33.3345
-10.7499 -35.2217
-11.0466 -34.4155
-8.6515 -35.7268
-9.5525 -35.857
-8.71684 -34.9362
-8.81089 -34.0607
-9.72316 -35.0976
-9.91792 -34.2555
-7.73934 -32.8388
-8.05249 -29.4266
-12.4417 -30.4538
-11.3637 -33.5323
-7.80547 -31.7716
-7.90967 -30.6324
-9.50345 -29.7971
-10.9599 -30.1374
-11.7019 -32.5752
-12.0613 -31.5478
-8.93545 -33.1045
-10.1382 -33.3345
-9.09205 -32.0719
-9.28127 -30.9678
-10.385 -32.3384
-10.6589 -31.2713
-8.05249 -29.4266
-8.71157 -25.4665
-13.7018 -26.8119
-12.4417 -30.4538
-8.23421 -28.1597
-8.45419 -26.8376
-10.3651 -25.9373
-12.0215 -26.3816
-12.8427 -29.2969
-13.2631 -28.0815
-9.50345 -29.7971
-10.9599 -30.1374
-9.75872 -28.5651
-10.0463 -27.2767
-11.2881 -28.9412
-11.6424 -27.6875
-8.71157 -25.4665
-9.69319 -21.1176
-15.1093 -22.7225
-13.7018 -26.8119
-9.00525 -24.0521
-9.3332 -22.6006
-11.4926 -21.667
-13.29 -22.1982
-14.1572 -25.4926
-14.6272 -24.128
-10.3651 -25.9373
-12.0215 -26.3816
-10.714 -24.552
-11.0907 -23.1267
-12.424 -25.0284
-12.8476 -23.6325
-9.69319 -21.1176
-10.9377 -16.541
-16.5977 -18.3071
-15.1093 -22.7225
-10.0828 -19.6092
-10.4988 -18.0815
-12.8231 -17.1383
-14.7014 -17.719
-15.6011 -21.2807
-16.0986 -19.8073
-11.4926 -21.667
-13.29 -22.1982
-11.9172 -20.1787
-12.3617 -18.6673
-13.7485 -20.7302
-14.22 -19.2348
-10.9377 -16.541
-12.3608 -11.9046
-18.0665 -13.7035
-16.5977 -18.3071
-11.3963 -14.994
-11.8717 -13.4465
-14.2707 -12.5038
-16.163 -13.1006
-17.0944 -16.7852
-17.5851 -15.2483
-12.8231 -17.1383
-14.7014 -17.719
-13.2984 -15.5973
-13.7826 -14.0504
-15.1891 -16.189
-15.678 -14.6485
-12.3608 -11.9046
-13.8647 -7.37905
-19.4025 -9.06876
-18.0665 -13.7035
-12.8603 -10.3747
-13.3638 -8.86369
-15.7219 -7.93364
-17.5566 -8.4834
-18.5345 -12.157
-18.9823 -10.6115
-14.2707 -12.5038
-16.163 -13.1006
-14.7582 -10.9641
-15.2426 -9.43826
-16.6393 -11.5498
-17.1045 -10.0068
-13.8647 -7.37905
-15.3659 -3.15413
-20.4616 -4.59894
-19.4025 -9.06876
-14.3591 -5.92799
-14.8556 -4.51741
-17.0726 -3.60004
-18.755 -4.08576
-19.7891 -7.53526
-20.1417 -6.03559
-15.7219 -7.93364
-17.5566 -8.4834
-16.193 -6.45677
-16.6467 -5.01127
-17.9915 -6.98932
-18.3961 -5.52432
-15.3659 -3.15413
-16.7288 0
-21.5712 0
-20.4616 -4.59894
-15.888 -1.86658
-16.3656 -0.769683
-18.0633 0
-19.7478 0
-20.7621 -3.21896
-21.1067 -1.74728
-17.0726 -3.60004
-18.755 -4.08576
-17.4597 -2.24077
-17.7945 -1.01024
-19.0654 -2.67462
-19.376 -1.30634
      </DataArray> 
      <DataArray type="Float64" NumberOfComponents="4" Name="CauchyStress" format="ascii">
-256.294 -103.458 0 -20.3098
-171.569 -6.62004 0 38.2462
227.493 6.52625 0 -46.8021
352.826 88.5222 0 -64.6108
-211.234 -8.81651 0 14.7205
-185.731 8.93167 0 33.9337
-79.3779 -7.55479 0 -1.6432
59.7748 0.492527 0 -31.5938
293.952 9.60969 0 -33.6188
256.525 -5.15659 0 -34.0088
-91.4784 -30.0576 0 -1.2702
68.2012 19.3916 0 -6.46408
-90.2914 -10.8346 0 -7.20043
-86.7668 -6.32174 0 -6.00382
67.5014 -6.31592 0 -22.5342
66.9478 -6.55171 0 -30.5165
-171.569 -6.62004 0 38.2462
-117.367 -14.4287 0 44.8141
155.547 18.4754 0 -56.5129
227.493 6.52625 0 -46.8021
-155.325 -14.9551 0 39.7649
-135.882 -15.314 0 42.4931
-54.2542 -1.28692 0 4.08261
34.953 10.0288 0 -29.6484
202.543 16.6126 0 -56.6502
179.314 19.3948 0 -58.8613
-79.3779 -7.55479 0 -1.6432
59.7748 0.492527 0 -31.5938
-69.6196 -6.58502 0 1.84548
-60.6949 -3.64715 0 3.34738
48.9709 4.76929 0 -30.4265
41.0667 7.70742 0 -30.0248
-117.367 -14.4287 0 44.8141
-76.1696 -18.637 0 37.2116
94.0587 21.8653 0 -47.0263
155.547 18.4754 0 -56.5129
-101.929 -15.745 0 44.5242
-88.4259 -17.6331 0 41.5206
-36.6084 0.716787 0 4.31862
21.1443 15.1039 0 -24.2347
132.284 18.6798 0 -53.3739
111.913 20.6117 0 -50.6144
-54.2542 -1.28692 0 4.08261
34.953 10.0288 0 -29.6484
-48.7618 -0.288897 0 4.57816
-42.6055 0.243621 0 4.61984
30.2174 12.4441 0 -28.6326
25.9916 14.4144 0 -26.8496
-76.1696 -18.637 0 37.2116
-41.0805 -13.3455 0 24.1796
53.492 15.7699 0 -30.3381
94.0587 21.8653 0 -47.0263
-63.9587 -17.7383 0 32.8197
-51.9403 -15.6423 0 28.5146
-22.3118 4.60196 0 1.28392
9.06606 14.5169 0 -16.9796
78.9254 21.161 0 -42.1404
65.7922 18.9654 0 -36.4642
-36.6084 0.716787 0 4.31862
21.1443 15.1039 0 -24.2347
-31.1299 1.82264 0 3.58018
-26.2838 3.36911 0 2.44674
16.2939 15.0344 0 -21.4925
12.3799 14.9357 0 -19.1724
-41.0805 -13.3455 0 24.1796
-14.4778 -5.43347 0 9.00075
21.2911 6.92944 0 -13.6069
53.492 15.7699 0 -30.3381
-31.5426 -11.0134 0 19.45
-22.764 -8.33965 0 14.2706
-11.7127 7.06137 0 -2.65095
0.690392 11.5345 0 -10.4087
41.7233 12.635 0 -24.4194
30.941 9.85839 0 -18.9479
-22.3118 4.60196 0 1.28392
9.06606 14.5169 0 -16.9796
-18.7313 5.47044 0 0.103786
-15.1479 6.29552 0 -1.24498
6.16591 13.8226 0 -14.7972
3.43591 12.8773 0 -12.6386
-14.4778 -5.43347 0 9.00075
9.39976 3.77923 0 -5.70315
-3.01204 -2.78582 0 1.97551
21.2911 6.92944 0 -13.6069
-6.34756 -2.32902 0 3.9037
1.63884 0.805773 0 -0.996998
-2.91168 9.47644 0 -6.95219
-6.85093 7.38694 0 -4.46125
12.6888 3.73013 0 -8.26358
4.66992 0.456529 0 -3.0418
-11.7127 7.06137 0 -2.65095
0.690392 11.5345 0 -10.4087
-8.52946 7.91893 0 -4.08654
-5.62615 8.79808 0 -5.54655
-2.00381 10.0855 0 -8.23527
-4.52876 8.74516 0 -6.27067
9.39976 3.77923 0 -5.70315
31.5904 11.5192 0 -18.8798
-25.1168 -10.5319 0 14.9247
-3.01204 -2.78582 0 1.97551
16.8799 6.57587 0 -10.2619
24.1887 9.1834 0 -14.676
4.78548 10.3933 0 -10.8677
-13.7362 3.16486 0 0.307275
-10.5854 -5.73873 0 6.65715
-18.0288 -8.30516 0 10.9569
-2.91168 9.47644 0 -6.95219
-6.85093 7.38694 0 -4.46125
-0.321179 9.92819 0 -8.29193
2.1905 10.2252 0 -9.60018
-9.11628 5.98782 0 -2.76573
-11.461 4.56812 0 -1.17723
31.5904 11.5192 0 -18.8798
54.2741 16.1432 0 -29.432
-45.6972 -15.0683 0 24.8787
-25.1168 -10.5319 0 14.9247
39.073 13.4835 0 -22.765
46.5546 15.0099 0 -26.2777
12.2796 10.0047 0 -14.0345
-20.702 -0.372835 0 4.01819
-31.9926 -12.419 0 18.6024
-38.8992 -13.9467 0 21.9443
4.78548 10.3933 0 -10.8677
-13.7362 3.16486 0 0.307275
7.34232 10.4381 0 -12.0443
9.75414 10.3054 0 -13.0962
-16.0303 1.86209 0 1.68681
-18.4274 0.6797 0 2.93372
54.2741 16.1432 0 -29.432
77.6802 17.0029 0 -36.1706
-66.2065 -15.92 0 30.8686
-45.6972 -15.0683 0 24.8787
62.0533 16.8674 0 -32.1693
69.7405 17.1356 0 -34.419
19.7767 8.00333 0 -15.8757
-27.7524 -2.9626 0 6.40297
-52.528 -15.7606 0 27.3597
-59.4607 -16.0485 0 29.3635
12.2796 10.0047 0 -14.0345
-20.702 -0.372835 0 4.01819
14.7996 9.51308 0 -14.8217
17.1948 8.82031 0 -15.4303
-22.9987 -1.32841 0 4.95703
-25.4467 -2.21251 0 5.7606
77.6802 17.0029 0 -36.1706
101.207 14.2032 0 -37.7781
-85.9585 -13.477 0 32.1722
-66.2065 -15.92 0 30.8686
85.6417 16.451 0 -37.3493
93.3676 15.4787 0 -37.889
27.2444 4.80584 0 -15.911
-34.667 -4.46648 0 7.33919
-72.8651 -15.4115 0 31.8569
-79.5445 -14.5905 0 32.2977
19.7767 8.00333 0 -15.8757
-27.7524 -2.9626 0 6.40297
22.354 7.06221 0 -16.1232
24.7306 5.97325 0 -16.1364
-30.0461 -3.57422 0 6.88198
-32.4568 -4.08334 0 7.19587
101.207 14.2032 0 -37.7781
122.939 9.11823 0 -33.3471
-103.776 -9.06783 0 28.2212
-85.9585 -13.477 0 32.1722
108.857 12.6824 0 -37.0022
115.989 10.9522 0 -35.5394
34.104 1.03003 0 -13.7559
-40.9074 -5.11695 0 6.69745
-92.1652 -12.1373 0 31.4461
-98.2044 -10.653 0 30.113
27.2444 4.80584 0 -15.911
-34.667 -4.46648 0 7.33919
29.6969 3.57744 0 -15.4489
31.8752 2.2961 0 -14.7439
-36.8019 -4.75214 0 7.2968
-38.9865 -4.97534 0 7.06875
122.939 9.11823 0 -33.3471
140.178 3.78447 0 -22.8927
-117.605 -4.48778 0 19.2625
-103.776 -9.06783 0 28.2212
129.413 7.26341 0 -30.4877
135.071 5.45429 0 -27.025
39.5499 -2.34989 0 -9.41572
-45.7612 -5.2387 0 4.58824
-108.896 -7.45946 0 25.7554
-113.587 -5.91105 0 22.7297
34.104 1.03003 0 -13.7559
-40.9074 -5.11695 0 6.69745
36.1928 -0.184025 0 -12.5325
37.9213 -1.32639 0 -11.1124
-42.6616 -5.19254 0 6.15051
-44.3644 -5.23148 0 5.41502
140.178 3.78447 0 -22.8927
150.149 0.423038 0 -7.83374
-125.512 -1.67086 0 6.58163
-117.605 -4.48778 0 19.2625
144.506 2.34382 0 -18.2508
147.777 1.20007 0 -13.2597
42.6815 -4.39216 0 -3.40292
-48.5399 -5.24474 0 1.38913
-120.948 -3.27632 0 15.3688
-123.634 -2.32724 0 11.0856
39.5499 -2.34989 0 -9.41572
-45.7612 -5.2387 0 4.58824
40.9465 -3.21914 0 -7.54101
41.9385 -3.91034 0 -5.57565
-46.9061 -5.23568 0 3.62914
-47.8831 -5.23688 0 2.51461
150.149 0.423038 0 -7.83374
151.078 0.604018 0 9.146
-126.118 -1.75124 0 -7.6628
-125.512 -1.67086 0 6.58163
151.555 0.0684207 0 -2.19562
151.859 0.132361 0 3.43244
42.9256 -4.44277 0 3.30586
-48.816 -5.39197 0 -2.25806
-126.552 -1.34669 0 1.88959
-126.756 -1.36811 0 -2.93106
42.6815 -4.39216 0 -3.40292
-48.5399 -5.24474 0 1.38913
43.1358 -4.64458 0 -1.15355
43.2108 -4.66408 0 1.04115
-48.8903 -5.27426 0 0.208717
-48.9884 -5.32638 0 -1.06214
151.078 0.604018 0 9.146
142.72 4.26501 0 24.752
-119.483 -4.98517 0 -20.7312
-126.118 -1.75124 0 -7.6628
149.292 1.45523 0 14.71
146.541 2.67031 0 19.8849
40.2424 -2.46577 0 9.49668
-46.5224 -5.68421 0 -5.59789
-124.658 -2.52232 0 -12.2442
-122.413 -3.62725 0 -16.6517
42.9256 -4.44277 0 3.30586
-48.816 -5.39197 0 -2.25806
42.3483 -3.98952 0 5.51205
41.4945 -3.32657 0 7.53456
-48.3274 -5.47367 0 -3.41532
-47.5218 -5.57194 0 -4.5779
142.72 4.26501 0 24.752
126.865 10.4783 0 36.1403
-106.495 -9.99306 0 -30.486
-119.483 -4.98517 0 -20.7312
138.113 6.21092 0 29.1477
132.917 8.34259 0 32.9178
35.1311 0.980707 0 14.1448
-42.1057 -5.94107 0 -7.95
-115.805 -6.51737 0 -24.4524
-111.383 -8.18561 0 -27.7616
40.2424 -2.46577 0 9.49668
-46.5224 -5.68421 0 -5.59789
38.744 -1.43772 0 11.2999
37.115 -0.280937 0 12.825
-45.2677 -5.81041 0 -6.4974
-43.7211 -5.91233 0 -7.31561
126.865 10.4783 0 36.1403
105.904 16.2082 0 41.655
-89.6692 -15.4771 0 -35.1788
-106.495 -9.99306 0 -30.486
120.24 12.4679 0 38.7273
113.338 14.3446 0 40.5626
28.5514 5.03536 0 16.6177
-36.1356 -5.60078 0 -8.93376
-101.221 -11.9282 0 -32.5872
-95.5503 -13.8254 0 -34.1424
35.1311 0.980707 0 14.1448
-42.1057 -5.94107 0 -7.95
33.0139 2.3321 0 15.2215
30.9312 3.71362 0 16.0257
-40.294 -5.86204 0 -8.42161
-38.1973 -5.72216 0 -8.76751
105.904 16.2082 0 41.655
83.2615 20.8413 0 40.9822
-70.256 -18.4569 0 -34.9807
-89.6692 -15.4771 0 -35.1788
98.357 18.15 0 42.0311
90.9657 19.8575 0 41.7791
21.2463 8.44075 0 16.9151
-29.5207 -4.60685 0 -8.25059
-83.4081 -16.6878 0 -35.7246
-76.7778 -17.5878 0 -35.697
28.5514 5.03536 0 16.6177
-36.1356 -5.60078 0 -8.93376
26.075 6.2504 0 16.9932
23.7341 7.3797 0 17.1034
-34.0226 -5.47644 0 -8.89177
-31.729 -5.18737 0 -8.65287
83.2615 20.8413 0 40.9822
60.1747 19.8291 0 35.3185
-51.1329 -19.4461 0 -29.4294
-70.256 -18.4569 0 -34.9807
75.3924 20.8417 0 39.7108
67.7281 20.3064 0 37.8804
14.1086 11.1439 0 15.1804
-22.6379 -2.09416 0 -6.45626
-63.934 -19.4128 0 -33.5554
-57.5666 -19.9538 0 -31.623
21.2463 8.44075 0 16.9151
-29.5207 -4.60685 0 -8.25059
18.825 9.52787 0 16.4737
16.5822 10.5225 0 15.8829
-27.233 -3.70364 0 -7.75125
-24.8036 -2.75819 0 -7.16385
60.1747 19.8291 0 35.3185
39.2336 18.0738 0 24.8954
-31.3362 -13.9516 0 -21.0513
-51.1329 -19.4461 0 -29.4294
53.1017 19.8924 0 32.06
46.3845 19.7237 0 28.4749
7.04406 11.2431 0 12.3969
-16.0832 1.0203 0 -2.61259
-44.3939 -17.5343 0 -27.0959
-37.5839 -15.2426 0 -24.3935
14.1086 11.1439 0 15.1804
-22.6379 -2.09416 0 -6.45626
11.5599 11.2645 0 14.4155
9.24856 11.1727 0 13.5331
-20.6252 -1.59967 0 -5.45383
-18.4301 -0.695369 0 -4.11293
39.2336 18.0738 0 24.8954
17.7004 6.68716 0 13.4999
-12.1621 -9.54247 0 -7.42383
-31.3362 -13.9516 0 -21.0513
31.5105 14.2684 0 21.5465
24.069 9.79085 0 17.9772
0.033626 11.7175 0 7.94866
-9.88733 5.64916 0 0.655531
-25.4971 -14.1516 0 -16.8491
-19.2351 -13.5872 0 -12.1183
7.04406 11.2431 0 12.3969
-16.0832 1.0203 0 -2.61259
4.94275 11.7735 0 10.9789
2.73207 12.2115 0 9.44469
-13.5865 3.27552 0 -1.30795
-11.334 5.04201 0 -0.288717
17.7004 6.68716 0 13.4999
-1.37689 2.65379 0 -3.42847
8.59071 6.90428 0 4.64221
-12.1621 -9.54247 0 -7.42383
12.6136 6.19048 0 7.71979
6.98909 5.95607 0 1.6095
-6.81117 7.48389 0 4.59606
-2.56829 10.6517 0 8.17592
-4.5343 -1.33937 0 -3.39356
2.60877 6.05823 0 0.330256
0.033626 11.7175 0 7.94866
-9.88733 5.64916 0 0.655531
-2.75423 9.90901 0 6.68983
-5.03796 7.96878 0 5.63669
-8.66233 5.8202 0 2.25073
-6.40062 7.21594 0 4.86327
-1.37689 2.65379 0 -3.42847
-24.8176 -16.9068 0 -14.406
36.3877 9.28303 0 27.5296
8.59071 6.90428 0 4.64221
-12.3909 -5.48684 0 -6.45716
-21.6542 -14.0294 0 -9.24727
-18.1342 6.96728 0 -1.7592
0.924109 12.7198 0 10.7249
14.8606 0.314553 0 10.9298
23.8567 -2.80352 0 18.9832
-6.81117 7.48389 0 4.59606
-2.56829 10.6517 0 8.17592
-9.11808 8.83782 0 3.06514
-12.9413 9.55547 0 0.857012
1.34417 14.1943 0 10.6556
2.80097 15.003 0 11.3183
-24.8176 -16.9068 0 -14.406
-78.8505 -9.57821 0 -36.9199
59.0588 2.11948 0 19.8136
36.3877 9.28303 0 27.5296
-26.1528 -11.8937 0 -24.3206
-40.7744 -6.44919 0 -34.5296
-25.1353 4.32493 0 5.67155
29.4199 17.216 0 30.6262
48.2057 34.7244 0 31.8803
55.4947 42.7746 0 28.9129
-18.1342 6.96728 0 -1.7592
0.924109 12.7198 0 10.7249
-22.0033 1.52628 0 -3.19657
-23.703 -1.17242 0 -1.21303
1.02295 11.6043 0 12.2998
9.8988 14.0792 0 18.9622
-78.8505 -9.57821 0 -36.9199
-68.0627 34.4686 0 -103.025
76.8676 722.876 0 34.9646
59.0588 2.11948 0 19.8136
-124.535 -38.5302 0 -35.7909
-136.616 -56.1443 0 -49.9152
107.315 158.019 0 -146.189
76.9575 289.867 0 -125.992
49.3621 -44.6589 0 24.4707
41.0488 66.1144 0 42.6035
-25.1353 4.32493 0 5.67155
29.4199 17.216 0 30.6262
-25.6843 10.5201 0 5.19791
0.66805 36.9578 0 -31.5389
36.5263 16.8247 0 33.3758
32.0801 62.6986 0 -3.24242
      </DataArray> 
    </PointData>
    <CellData>
      <DataArray type="Float64" NumberOfComponents="1" Name="Process" format="ascii">
0
1
0
1
1
0
1
1
1
0
0
0
2
0
2
2
2
2
2
3
3
3
3
3
3
      </DataArray> 
    </CellData>
  </Piece>
  </UnstructuredGrid>
</VTKFile>
