<?xml version="1.0"?>
<VTKFile type="UnstructuredGrid">
  <UnstructuredGrid>
  <Piece NumberOfPoints="400"  NumberOfCells="25">
    <Points>
      <DataArray type="Float64" NumberOfComponents="3" format="ascii">
0 15 0
6.58875 13.925 0
9.00721 23.572 0
0 25 0
2.17389 14.7921 0
4.37453 14.4389 0
7.44008 17.2249 0
8.21943 20.4415 0
3.07037 24.7065 0
6.0751 24.2346 0
0 18.3333 0
0 21.6667 0
2.50191 18.1948 0
4.98315 17.8129 0
2.76204 21.4986 0
5.51077 21.0774 0
6.58875 13.925 0
13.2048 11.425 0
17.3144 20.5049 0
9.00721 23.572 0
8.80422 13.2409 0
11.0122 12.4008 0
14.6178 14.5051 0
15.9629 17.5403 0
11.8603 22.7134 0
14.6305 21.6813 0
7.44008 17.2249 0
8.21943 20.4415 0
9.86867 16.4648 0
12.2633 15.5527 0
10.8659 19.6259 0
13.4467 18.6526 0
13.2048 11.425 0
19.6507 7.83936 0
24.8617 16.3452 0
17.3144 20.5049 0
15.3756 10.3318 0
17.5239 9.13317 0
21.4217 10.7044 0
23.1421 13.5488 0
19.9105 19.2117 0
22.4239 17.8197 0
14.6178 14.5051 0
15.9629 17.5403 0
16.9278 13.3382 0
19.1948 12.0666 0
18.4159 16.3075 0
20.8081 14.9713 0
19.6507 7.83936 0
25.9198 3.49513 0
31.7885 11.5716 0
24.8617 16.3452 0
21.757 6.46081 0
23.8457 5.00889 0
27.8985 6.20249 0
29.8399 8.90506 0
27.2307 14.8036 0
29.5375 13.2082 0
21.4217 10.7044 0
23.1421 13.5488 0
23.6118 9.26542 0
25.7693 7.7611 0
25.4213 12.0558 0
27.6517 10.5042 0
25.9198 3.49513 0
32.0952 -1.31688 0
38.2787 6.5241 0
31.7885 11.5716 0
27.9829 1.93052 0
30.0397 0.3238 0
34.168 1.30021 0
36.2176 3.92308 0
33.9906 9.90594 0
36.1514 8.22051 0
27.8985 6.20249 0
29.8399 8.90506 0
30.0043 4.60022 0
32.0921 2.96326 0
31.9928 7.26893 0
34.1166 5.60524 0
32.0952 -1.31688 0
38.3052 -6.36158 0
44.5306 1.44898 0
38.2787 6.5241 0
34.1545 -2.98338 0
36.2227 -4.66763 0
40.3822 -3.76417 0
42.4466 -1.15208 0
40.3801 4.8252 0
42.462 3.13114 0
34.168 1.30021 0
36.2176 3.92308 0
36.2379 -0.380532 0
38.3074 -2.07119 0
38.3021 2.23125 0
40.3764 0.537169 0
38.3052 -6.36158 0
44.6889 -11.4242 0
50.715 -3.45951 0
44.5306 1.44898 0
40.4072 -8.05731 0
42.5335 -9.74731 0
46.6914 -8.78399 0
48.6904 -6.12199 0
46.592 -0.21435 0
48.6516 -1.85256 0
40.3822 -3.76417 0
42.4466 -1.15208 0
42.4677 -5.45197 0
44.5691 -7.12756 0
44.5189 -2.82949 0
46.5984 -4.48833 0
44.6889 -11.4242 0
51.3736 -16.3017 0
56.9742 -8.0334 0
50.715 -3.45951 0
46.8782 -13.0807 0
49.1051 -14.709 0
53.2282 -13.5688 0
55.0859 -10.807 0
52.7873 -5.02912 0
54.8725 -6.55564 0
46.6914 -8.78399 0
48.6904 -6.12199 0
48.8394 -10.4143 0
51.0171 -12.0116 0
50.7997 -7.72387 0
52.9302 -9.28765 0
51.3736 -16.3017 0
58.457 -20.7887 0
63.4085 -12.1184 0
56.9742 -8.0334 0
53.6869 -17.851 0
56.0474 -19.3493 0
60.0918 -17.9301 0
61.7338 -15.0362 0
59.0959 -9.45677 0
61.2399 -10.8202 0
53.2282 -13.5688 0
55.0859 -10.807 0
55.4762 -15.0789 0
57.7634 -16.535 0
57.2702 -12.2758 0
59.4854 -13.6876 0
58.457 -20.7887 0
65.9912 -24.6767 0
70.0748 -15.5678 0
63.4085 -12.1184 0
60.9175 -22.1615 0
63.429 -23.4601 0
67.3361 -21.6801 0
68.6898 -18.6419 0
65.6035 -13.3457 0
67.8255 -14.4972 0
60.0918 -17.9301 0
61.7338 -15.0362 0
62.4633 -19.2572 0
64.8781 -20.5095 0
64.017 -16.3155 0
66.3356 -17.5194 0
65.9912 -24.6767 0
73.9693 -27.7611 0
76.9825 -18.2468 0
70.0748 -15.5678 0
68.6036 -25.8037 0
71.2639 -26.8341 0
74.9597 -24.6366 0
75.9581 -21.4652 0
72.3516 -16.5525 0
74.6546 -17.447 0
67.3361 -21.6801 0
68.6898 -18.6419 0
69.8371 -22.7623 0
72.379 -23.7498 0
71.0793 -19.6773 0
73.5027 -20.6201 0
73.9693 -27.7611 0
82.3189 -29.8589 0
84.0952 -20.04 0
76.9825 -18.2468 0
76.7168 -28.5779 0
79.5016 -29.2789 0
82.902 -26.6384 0
83.4903 -23.3669 0
79.3337 -18.9477 0
81.7056 -19.5465 0
74.9597 -24.6366 0
75.9581 -21.4652 0
77.5765 -25.4168 0
80.2254 -26.0856 0
78.4434 -22.2074 0
80.9554 -22.8426 0
82.3189 -29.8589 0
90.9071 -30.8314 0
91.338 -20.8634 0
84.0952 -20.04 0
85.1632 -30.313 0
88.0282 -30.6381 0
91.0485 -27.564 0
91.1909 -24.2436 0
86.4997 -20.4252 0
88.9152 -20.7002 0
82.902 -26.6384 0
83.4903 -23.3669 0
85.6018 -27.0708 0
88.3193 -27.3801 0
86.0443 -23.7767 0
88.6128 -24.0696 0
90.9071 -30.8314 0
99.5583 -30.6061 0
98.61 -20.674 0
91.338 -20.8634 0
93.7932 -30.8905 0
96.6793 -30.8154 0
99.2474 -27.3504 0
98.9328 -24.0419 0
93.7641 -20.9135 0
96.1895 -20.8503 0
91.0485 -27.564 0
91.1909 -24.2436 0
93.7838 -27.6204 0
96.5188 -27.5491 0
93.7737 -24.2971 0
96.3561 -24.2297 0
99.5583 -30.6061 0
108.083 -29.1899 0
105.803 -19.4757 0
98.61 -20.674 0
102.423 -30.2635 0
105.267 -29.7904 0
107.335 -26.0036 0
106.579 -22.7667 0
101.022 -20.385 0
103.42 -19.9849 0
99.2474 -27.3504 0
98.9328 -24.0419 0
101.963 -27.0249 0
104.661 -26.575 0
101.499 -23.734 0
104.049 -23.3082 0
108.083 -29.1899 0
116.312 -26.6674 0
112.818 -17.3189 0
105.803 -19.4757 0
110.866 -28.4657 0
113.611 -27.6231 0
115.164 -23.597 0
114.005 -20.4806 0
108.165 -18.8596 0
110.504 -18.1395 0
107.335 -26.0036 0
106.579 -22.7667 0
109.979 -25.3136 0
112.59 -24.5098 0
109.084 -22.1124 0
111.56 -21.3489 0
116.312 -26.6674 0
124.121 -23.185 0
119.586 -14.2923 0
112.818 -17.3189 0
118.966 -25.6046 0
121.57 -24.4414 0
122.628 -20.2595 0
121.124 -17.2929 0
115.104 -16.4012 0
117.36 -15.3909 0
115.164 -23.597 0
114.005 -20.4806 0
117.696 -22.5804 0
120.185 -21.4658 0
116.415 -19.5116 0
118.788 -18.4473 0
124.121 -23.185 0
131.451 -18.9291 0
126.077 -10.5141 0
119.586 -14.2923 0
126.619 -21.8425 0
129.062 -20.4214 0
129.677 -16.1543 0
127.894 -13.3454 0
121.781 -13.1102 0
123.944 -11.8492 0
122.628 -20.2595 0
121.124 -17.2929 0
125.024 -18.9676 0
127.374 -17.5969 0
123.42 -16.054 0
125.676 -14.7363 0
131.451 -18.9291 0
138.305 -14.1005 0
132.307 -6.11636 0
126.077 -10.5141 0
133.787 -17.3731 0
136.071 -15.7609 0
136.319 -11.4621 0
134.328 -8.79419 0
128.181 -9.11004 0
130.256 -7.64227 0
129.677 -16.1543 0
127.894 -13.3454 0
131.934 -14.6465 0
134.148 -13.0802 0
130.074 -11.8872 0
132.218 -10.368 0
138.305 -14.1005 0
144.746 -8.90316 0
138.337 -1.24353 0
132.307 -6.11636 0
140.494 -12.3994 0
142.639 -10.6647 0
142.617 -6.36346 0
140.49 -3.80409 0
134.335 -4.53779 0
136.344 -2.91178 0
136.319 -11.4621 0
134.328 -8.79419 0
138.452 -9.79868 0
140.55 -8.09686 0
136.408 -7.1721 0
138.461 -5.50703 0
144.746 -8.90316 0
150.877 -3.52928 0
144.271 3.96144 0
138.337 -1.24353 0
146.817 -7.12183 0
148.86 -5.32805 0
148.675 -1.03974 0
146.482 1.46834 0
140.319 0.461743 0
142.295 2.19857 0
142.617 -6.36346 0
140.49 -3.80409 0
144.657 -4.60525 0
146.675 -2.82859 0
142.5 -2.06886 0
144.496 -0.308752 0
150.877 -3.52928 0
156.835 1.82545 0
150.258 9.33947 0
144.271 3.96144 0
152.876 -1.73287 0
154.86 0.0543053 0
154.629 4.33325 0
152.449 6.84303 0
146.253 5.74439 0
148.248 7.53977 0
148.675 -1.03974 0
146.482 1.46834 0
150.663 0.754876 0
152.646 2.54826 0
148.466 3.25529 0
150.452 5.04798 0
156.835 1.82545 0
162.762 6.96722 0
156.463 14.7089 0
150.258 9.33947 0
158.804 3.57349 0
160.777 5.29024 0
160.643 9.5601 0
158.557 12.1587 0
152.291 11.1363 0
154.356 12.927 0
154.629 4.33325 0
152.449 6.84303 0
156.621 6.10246 0
158.625 7.84758 0
154.462 8.63521 0
156.497 10.4119 0
162.762 6.96722 0
168.773 11.6653 0
163.098 19.8315 0
156.463 14.7089 0
164.763 8.59559 0
166.771 10.1651 0
166.864 14.4347 0
164.993 17.1536 0
158.622 16.4743 0
160.834 18.1935 0
160.643 9.5601 0
158.557 12.1587 0
162.681 11.2321 0
164.75 12.8585 0
160.649 13.864 0
162.788 15.528 0
168.773 11.6653 0
175.076 15 0
169.797 25 0
163.098 19.8315 0
170.773 13.0617 0
172.844 14.2245 0
173.634 18.3333 0
171.777 21.6667 0
165.401 21.3937 0
167.665 23.0474 0
166.864 14.4347 0
164.993 17.1536 0
169.036 15.9382 0
171.286 17.2751 0
167.267 18.7379 0
169.553 20.2534 0
      </DataArray>
    </Points>
    <Cells>
      <DataArray type="Int32" Name="connectivity" format="ascii">
0 1 2 3 4 5 6 7 8 9 10 11 12 13 14 15 
16 17 18 19 20 21 22 23 24 25 26 27 28 29 30 31 
32 33 34 35 36 37 38 39 40 41 42 43 44 45 46 47 
48 49 50 51 52 53 54 55 56 57 58 59 60 61 62 63 
64 65 66 67 68 69 70 71 72 73 74 75 76 77 78 79 
80 81 82 83 84 85 86 87 88 89 90 91 92 93 94 95 
96 97 98 99 100 101 102 103 104 105 106 107 108 109 110 111 
112 113 114 115 116 117 118 119 120 121 122 123 124 125 126 127 
128 129 130 131 132 133 134 135 136 137 138 139 140 141 142 143 
144 145 146 147 148 149 150 151 152 153 154 155 156 157 158 159 
160 161 162 163 164 165 166 167 168 169 170 171 172 173 174 175 
176 177 178 179 180 181 182 183 184 185 186 187 188 189 190 191 
192 193 194 195 196 197 198 199 200 201 202 203 204 205 206 207 
208 209 210 211 212 213 214 215 216 217 218 219 220 221 222 223 
224 225 226 227 228 229 230 231 232 233 234 235 236 237 238 239 
240 241 242 243 244 245 246 247 248 249 250 251 252 253 254 255 
256 257 258 259 260 261 262 263 264 265 266 267 268 269 270 271 
272 273 274 275 276 277 278 279 280 281 282 283 284 285 286 287 
288 289 290 291 292 293 294 295 296 297 298 299 300 301 302 303 
304 305 306 307 308 309 310 311 312 313 314 315 316 317 318 319 
320 321 322 323 324 325 326 327 328 329 330 331 332 333 334 335 
336 337 338 339 340 341 342 343 344 345 346 347 348 349 350 351 
352 353 354 355 356 357 358 359 360 361 362 363 364 365 366 367 
368 369 370 371 372 373 374 375 376 377 378 379 380 381 382 383 
384 385 386 387 388 389 390 391 392 393 394 395 396 397 398 399 
      </DataArray>
      <DataArray type="Int32" Name="offsets" format="ascii">
16
32
48
64
80
96
112
128
144
160
176
192
208
224
240
256
272
288
304
320
336
352
368
384
400
      </DataArray>
      <DataArray type="UInt8" Name="types" format="ascii">
70
70
70
70
70
70
70
70
70
70
70
70
70
70
70
70
70
70
70
70
70
70
70
70
70
      </DataArray>
    </Cells>
    <PointData>
      <DataArray type="Float64" NumberOfComponents="2" Name="Displacement" format="ascii">
0 0
-1.41125 -1.07504
1.00721 -1.428
0 0
-0.492779 -0.207853
-0.9588 -0.561089
-0.559924 -1.10841
0.219433 -1.22517
0.403702 -0.293469
0.741769 -0.765389
0 0
0 0
-0.164757 -0.138515
-0.350188 -0.520448
0.0953748 -0.168102
0.177435 -0.589268
-1.41125 -1.07504
-2.79521 -3.57502
1.3144 -4.49505
1.00721 -1.428
-1.86244 -1.75914
-2.32114 -2.59917
-1.38215 -3.82825
-0.037052 -4.12634
1.19364 -2.2866
1.29714 -3.31875
-0.559924 -1.10841
0.219433 -1.22517
-0.797997 -1.86849
-1.07005 -2.78063
0.199268 -2.04077
0.113403 -3.01406
-2.79521 -3.57502
-4.34935 -7.16064
0.861734 -8.65482
1.3144 -4.49505
-3.29109 -4.6682
-3.80941 -5.86683
-2.57834 -7.62891
-0.857895 -8.1179
1.24381 -5.78834
1.09061 -7.18029
-1.38215 -3.82825
-0.037052 -4.12634
-1.73882 -4.99515
-2.13856 -6.26677
-0.25073 -5.35918
-0.525231 -6.69535
-4.34935 -7.16064
-6.08017 -11.5049
-0.211484 -13.4284
0.861734 -8.65482
-4.90969 -8.53919
-5.48768 -9.99111
-4.10146 -12.1308
-2.16006 -12.7616
0.56404 -10.1964
0.204125 -11.7918
-2.57834 -7.62891
-0.857895 -8.1179
-3.0549 -9.06792
-3.56407 -10.5722
-1.24539 -9.61092
-1.68168 -11.1625
-6.08017 -11.5049
-7.90478 -16.3169
-1.72128 -18.4759
-0.211484 -13.4284
-6.68372 -13.0695
-7.2936 -14.6762
-5.83195 -17.0331
-3.78245 -17.7436
-0.676042 -15.0941
-1.18192 -16.7795
-4.10146 -12.1308
-2.16006 -12.7616
-4.6624 -13.7331
-5.24121 -15.3701
-2.67388 -14.3977
-3.21678 -16.0614
-7.90478 -16.3169
-9.69476 -21.3616
-3.46936 -23.551
-1.72128 -18.4759
-8.51219 -17.9834
-9.1106 -19.6676
-7.61782 -22.0975
-5.55337 -22.8187
-2.28656 -20.1748
-2.8713 -21.8689
-5.83195 -17.0331
-3.78245 -17.7436
-6.42874 -18.7139
-7.0259 -20.4045
-4.36458 -19.4354
-4.95697 -21.1295
-9.69476 -21.3616
-11.3111 -26.4242
-5.28495 -28.4595
-3.46936 -23.551
-10.2595 -23.0573
-10.7999 -24.7473
-9.30863 -27.1173
-7.30958 -27.7887
-4.07467 -25.2144
-4.68169 -26.8526
-7.61782 -22.0975
-5.55337 -22.8187
-8.19899 -23.7853
-8.76427 -25.4609
-6.14778 -24.4962
-6.73488 -26.155
-11.3111 -26.4242
-12.6264 -31.3017
-7.02579 -33.0334
-5.28495 -28.4595
-11.7885 -28.0807
-12.2282 -29.709
-10.7718 -31.9021
-8.9141 -32.4737
-5.87932 -30.0291
-6.46083 -31.5556
-9.30863 -27.1173
-7.30958 -27.7887
-9.82727 -28.7477
-10.3162 -30.3449
-7.86699 -29.3905
-8.40309 -30.9543
-12.6264 -31.3017
-13.543 -35.7887
-8.59151 -37.1184
-7.02579 -33.0334
-12.9798 -32.851
-13.286 -34.3493
-11.9082 -36.2635
-10.2662 -36.7029
-7.5708 -34.4568
-8.09343 -35.8202
-10.7718 -31.9021
-8.9141 -32.4737
-11.1905 -33.4123
-11.57 -34.8684
-9.39649 -33.9424
-9.8479 -35.3543
-13.543 -35.7887
-14.0088 -39.6767
-9.92516 -40.5678
-8.59151 -37.1184
-13.7491 -37.1615
-13.9043 -38.4601
-12.6639 -40.0134
-11.3102 -40.3086
-9.06319 -38.3457
-9.50785 -39.4972
-11.9082 -36.2635
-10.2662 -36.7029
-12.2034 -37.5906
-12.4553 -38.8428
-10.6496 -37.9822
-10.9977 -39.1861
-14.0088 -39.6767
-14.0307 -42.7611
-11.0175 -43.2468
-9.92516 -40.5678
-14.063 -40.8037
-14.0695 -41.8341
-13.0403 -42.9699
-12.0419 -43.1318
-10.3151 -41.5525
-10.6787 -42.447
-12.6639 -40.0134
-11.3102 -40.3086
-12.8296 -41.0956
-12.9543 -42.0831
-11.5874 -41.344
-11.8307 -42.2868
-14.0307 -42.7611
-13.6811 -44.8589
-11.9048 -45.04
-11.0175 -43.2468
-13.9499 -43.5779
-13.8317 -44.2789
-13.098 -44.9717
-12.5097 -45.0336
-11.333 -43.9477
-11.6278 -44.5465
-13.0403 -42.9699
-12.0419 -43.1318
-13.0902 -43.7502
-13.108 -44.419
-12.2232 -43.874
-12.378 -44.5093
-13.6811 -44.8589
-13.0929 -45.8314
-12.662 -45.8634
-11.9048 -45.04
-13.5034 -45.313
-13.3051 -45.6381
-12.9515 -45.8973
-12.8091 -45.9103
-12.167 -45.4252
-12.4181 -45.7002
-13.098 -44.9717
-12.5097 -45.0336
-13.0649 -45.4041
-13.0141 -45.7135
-12.6224 -45.4434
-12.7206 -45.7363
-13.0929 -45.8314
-12.4417 -45.6061
-13.39 -45.674
-12.662 -45.8634
-12.8734 -45.8905
-12.654 -45.8154
-12.7526 -45.6837
-13.0672 -45.7085
-12.9026 -45.9135
-13.1438 -45.8503
-12.9515 -45.8973
-12.8091 -45.9103
-12.8829 -45.9537
-12.8145 -45.8824
-12.8929 -45.9637
-12.9772 -45.8964
-12.4417 -45.6061
-11.9168 -44.1899
-14.1973 -44.4757
-13.39 -45.674
-12.2437 -45.2635
-12.0666 -44.7904
-12.6652 -44.3369
-13.4214 -44.4334
-13.6451 -45.385
-13.9129 -44.9849
-12.7526 -45.6837
-13.0672 -45.7085
-12.7033 -45.3583
-12.6723 -44.9084
-13.168 -45.4007
-13.2845 -44.9748
-11.9168 -44.1899
-11.6881 -41.6674
-15.182 -42.3189
-14.1973 -44.4757
-11.8005 -43.4657
-11.7228 -42.6231
-12.8364 -41.9304
-13.9949 -42.1472
-14.5018 -43.8596
-14.8292 -43.1395
-12.6652 -44.3369
-13.4214 -44.4334
-12.6874 -43.647
-12.7431 -42.8432
-13.583 -43.779
-13.7731 -43.0156
-11.6881 -41.6674
-11.8785 -38.185
-16.4135 -39.2923
-15.182 -42.3189
-11.7008 -40.6046
-11.7635 -39.4414
-13.372 -38.5928
-14.8764 -38.9596
-15.5628 -41.4012
-15.9729 -40.3909
-12.8364 -41.9304
-13.9949 -42.1472
-12.9708 -40.9137
-13.1487 -39.7992
-14.2516 -41.1783
-14.5449 -40.1139
-11.8785 -38.185
-12.5489 -33.9291
-17.9226 -35.5141
-16.4135 -39.2923
-12.0477 -36.8425
-12.2713 -35.4214
-14.3229 -34.4876
-16.1057 -35.0121
-16.8856 -38.1102
-17.3888 -36.8492
-13.372 -38.5928
-14.8764 -38.9596
-13.6422 -37.3009
-13.9593 -35.9302
-15.2471 -37.7207
-15.657 -36.403
-12.5489 -33.9291
-13.6945 -29.1005
-19.693 -31.1164
-17.9226 -35.5141
-12.8801 -32.3731
-13.2627 -30.7609
-15.6806 -29.7954
-17.6716 -30.4609
-18.486 -34.11
-19.0769 -32.6423
-14.3229 -34.4876
-16.1057 -35.0121
-14.7323 -32.9798
-15.1856 -31.4136
-16.5925 -33.5538
-17.1153 -32.0346
-13.6945 -29.1005
-15.2544 -23.9032
-21.6627 -26.2435
-19.693 -31.1164
-14.1729 -27.3994
-14.6942 -25.6647
-17.3835 -24.6968
-19.5101 -25.4708
-20.3315 -29.5378
-20.9893 -27.9118
-15.6806 -29.7954
-17.6716 -30.4609
-16.2145 -28.132
-16.7835 -26.4302
-18.2586 -28.8388
-18.8727 -27.1737
-15.2544 -23.9032
-17.1225 -18.5293
-23.7293 -21.0386
-21.6627 -26.2435
-15.8492 -22.1218
-16.4737 -20.328
-19.3248 -19.3731
-21.5177 -20.1983
-22.3478 -24.5383
-23.0388 -22.8014
-17.3835 -24.6968
-19.5101 -25.4708
-18.01 -22.9386
-18.6587 -21.1619
-20.1668 -23.7355
-20.8377 -21.9754
-17.1225 -18.5293
-19.1654 -13.1746
-25.7417 -15.6605
-23.7293 -21.0386
-17.7906 -16.7329
-18.4731 -14.9457
-21.3705 -14.0001
-23.5512 -14.8236
-24.4133 -19.2556
-25.0858 -17.4602
-19.3248 -19.3731
-21.5177 -20.1983
-20.0034 -17.5785
-20.6877 -15.7851
-22.2011 -18.4114
-22.8813 -16.6187
-19.1654 -13.1746
-21.238 -8.03278
-27.5366 -10.2911
-25.7417 -15.6605
-19.8622 -11.4265
-20.5559 -9.70976
-23.3566 -8.77324
-25.4429 -9.50795
-26.3754 -13.8637
-26.9772 -12.073
-21.3705 -14.0001
-23.5512 -14.8236
-22.0453 -12.2309
-22.7083 -10.4858
-24.2044 -13.0315
-24.8363 -11.2547
-21.238 -8.03278
-23.2274 -3.33467
-28.9016 -5.16849
-27.5366 -10.2911
-21.9039 -6.40441
-22.5628 -4.83485
-25.1361 -3.89865
-27.0066 -4.51303
-28.0447 -8.52572
-28.4998 -6.80651
-23.3566 -8.77324
-25.4429 -9.50795
-23.9853 -7.1012
-24.5829 -5.47483
-26.0177 -7.80262
-26.5451 -6.13866
-23.2274 -3.33467
-24.9245 0
-30.2031 0
-28.9016 -5.16849
-23.8937 -1.93827
-24.4892 -0.775484
-26.3655 0
-28.2226 0
-29.2656 -3.60626
-29.6686 -1.95264
-25.1361 -3.89865
-27.0066 -4.51303
-25.6305 -2.39509
-26.0471 -1.05822
-27.3994 -2.9288
-27.7805 -1.41331
      </DataArray> 
      <DataArray type="Float64" NumberOfComponents="4" Name="CauchyStress" format="ascii">
-305.196 -136.081 0 -20.6078
-197.875 -12.9913 0 56.3247
282.475 14.8603 0 -74.05
457.786 111.709 0 -90.8486
-249.566 -11.5674 0 23.4267
-216.614 9.90781 0 50.0493
-99.2456 -12.0209 0 1.44795
68.4014 3.02105 0 -44.3534
379.08 14.2587 0 -53.2312
326.232 -2.17347 0 -56.3938
-117.253 -39.6673 0 -1.05026
80.9438 22.8543 0 -9.15135
-115.489 -16.8525 0 -7.31312
-109.827 -10.946 0 -4.75124
79.3769 -9.55264 0 -31.4441
78.4752 -7.72975 0 -42.8989
-197.875 -12.9913 0 56.3247
-127.247 -26.34 0 62.3992
181.363 36.2558 0 -84.1172
282.475 14.8603 0 -74.05
-176.223 -25.0985 0 58.101
-150.735 -26.4731 0 60.6728
-64.8148 -3.34029 0 9.23668
35.7592 18.3533 0 -39.3274
245.71 30.582 0 -86.7561
213.435 36.4462 0 -88.8376
-99.2456 -12.0209 0 1.44795
68.4014 3.02105 0 -44.3534
-85.9198 -10.4623 0 6.22566
-73.6613 -6.40815 0 8.25228
53.7301 9.74405 0 -42.1231
43.5308 14.6844 0 -40.7695
-127.247 -26.34 0 62.3992
-78.1881 -31.6127 0 49.3082
101.779 39.5518 0 -65.5259
181.363 36.2558 0 -84.1172
-108.401 -28.6846 0 60.8213
-92.356 -31.0059 0 55.8536
-41.6504 -0.339785 0 8.66376
19.4979 24.7449 0 -30.2355
150.423 36.5503 0 -77.814
124.058 38.7464 0 -72.0887
-64.8148 -3.34029 0 9.23668
35.7592 18.3533 0 -39.3274
-57.3342 -2.02597 0 9.74849
-49.2202 -1.14996 0 9.44107
29.8981 21.7192 0 -37.1514
24.9931 24.257 0 -34.2054
-78.1881 -31.6127 0 49.3082
-39.2433 -21.6409 0 30.0581
55.3781 27.8569 0 -40.6269
101.779 39.5518 0 -65.5259
-64.316 -29.4553 0 42.7075
-50.9365 -25.6605 0 36.3005
-24.6571 5.60931 0 4.07931
6.69433 22.4647 0 -19.5658
83.8276 37.5241 0 -57.7474
68.949 33.4545 0 -49.3676
-41.6504 -0.339785 0 8.66376
19.4979 24.7449 0 -30.2355
-34.9952 1.34567 0 7.42665
-29.2453 3.69848 0 5.75189
14.1556 24.1196 0 -26.1361
10.0533 23.5342 0 -22.705
-39.2433 -21.6409 0 30.0581
-11.9848 -7.65855 0 9.74266
20.7696 11.7913 0 -17.3145
55.3781 27.8569 0 -40.6269
-29.3123 -17.5104 0 23.5694
-20.3449 -12.773 0 16.6744
-12.9939 9.86916 0 -1.55795
-1.55958 16.8521 0 -10.8618
42.5061 22.2135 0 -32.2456
30.8836 17.0815 0 -24.5856
-24.6571 5.60931 0 4.07931
6.69433 22.4647 0 -19.5658
-20.6159 7.04832 0 2.37512
-16.6719 8.49343 0 0.439241
3.81815 20.9809 0 -16.5745
1.13074 19.1822 0 -13.7241
-11.9848 -7.65855 0 9.74266
12.1975 8.04663 0 -9.62348
-3.74769 -4.78766 0 3.17388
20.7696 11.7913 0 -17.3145
-3.78376 -2.30481 0 3.04171
4.29802 3.01725 0 -3.41076
-3.86719 14.0733 0 -7.46448
-8.96473 9.91485 0 -3.28793
12.0395 6.22206 0 -10.2302
3.9863 0.648504 0 -3.37864
-12.9939 9.86916 0 -1.55795
-1.55958 16.8521 0 -10.8618
-9.65777 11.3517 0 -3.54288
-6.66065 12.8511 0 -5.52642
-4.18441 14.4016 0 -8.08533
-6.66393 12.1445 0 -5.57011
12.1975 8.04663 0 -9.62348
35.4931 21.0894 0 -27.1556
-26.7478 -17.8844 0 20.3672
-3.74769 -4.78766 0 3.17388
19.891 12.7554 0 -15.6388
27.537 17.1316 0 -21.4865
4.10328 16.09 0 -13.0518
-16.2204 3.22615 0 2.65844
-11.5039 -9.75689 0 9.33651
-19.2734 -14.1174 0 15.0644
-3.86719 14.0733 0 -7.46448
-8.96473 9.91485 0 -3.28793
-1.20144 14.9658 0 -9.3456
1.37857 15.6168 0 -11.2011
-11.2767 7.66023 0 -1.16922
-13.7664 5.4019 0 0.820578
35.4931 21.0894 0 -27.1556
61.2801 28.9671 0 -41.979
-49.425 -25.5235 0 34.0152
-26.7478 -17.8844 0 20.3672
43.7539 24.434 0 -32.5014
52.2305 27.0239 0 -37.4242
12.3112 15.9875 0 -17.8703
-24.1844 -2.19095 0 7.3666
-34.1205 -21.066 0 25.3267
-41.7382 -23.6476 0 29.9197
4.10328 16.09 0 -13.0518
-16.2204 3.22615 0 2.65844
6.83715 16.3515 0 -14.7996
9.4536 16.2962 0 -16.3825
-18.7577 1.22161 0 4.38493
-21.5118 -0.604369 0 5.98573
61.2801 28.9671 0 -41.979
90.3325 30.3059 0 -52.185
-73.9704 -26.8783 0 42.8341
-49.425 -25.5235 0 34.0152
70.6661 30.1927 0 -46.0247
80.1797 30.5929 0 -49.4139
21.2588 13.1591 0 -21.1046
-32.9742 -5.95569 0 10.4304
-57.3778 -26.671 0 37.5682
-65.6914 -27.1384 0 40.5399
12.3112 15.9875 0 -17.8703
-24.1844 -2.19095 0 7.3666
15.2397 15.3595 0 -19.179
18.0711 14.364 0 -20.2342
-26.9712 -3.60368 0 8.56722
-30.0398 -4.90119 0 9.6176
90.3325 30.3059 0 -52.185
121.845 25.1008 0 -55.239
-99.3675 -22.4741 0 45.2151
-73.9704 -26.8783 0 42.8341
100.768 29.274 0 -54.1631
111.092 27.463 0 -55.1753
30.9439 8.1104 0 -21.7934
-42.1585 -7.89485 0 11.5336
-82.3459 -25.9508 0 44.4172
-90.9505 -24.4743 0 45.2383
21.2588 13.1591 0 -21.1046
-32.9742 -5.95569 0 10.4304
24.5248 11.721 0 -21.6955
27.5839 9.99028 0 -21.9119
-35.9595 -6.77845 0 11.0239
-39.1767 -7.44429 0 11.4119
121.845 25.1008 0 -55.239
152.516 15.6464 0 -48.8399
-123.438 -14.5533 0 39.6789
-99.3675 -22.4741 0 45.2151
132.522 22.2798 0 -54.2598
142.571 19.058 0 -52.1368
40.3956 1.8767 0 -19.0441
-50.7976 -8.42321 0 10.2953
-107.654 -20.0627 0 44.2855
-115.83 -17.3914 0 42.4303
30.9439 8.1104 0 -21.7934
-42.1585 -7.89485 0 11.5336
34.2858 6.10748 0 -21.3052
37.269 3.98665 0 -20.3972
-45.084 -8.17836 0 11.3765
-48.1239 -8.36425 0 10.955
152.516 15.6464 0 -48.8399
177.169 5.89016 0 -32.4156
-142.346 -6.50025 0 26.153
-123.438 -14.5533 0 39.6789
161.833 12.217 0 -44.433
169.913 8.90461 0 -38.9827
48.0478 -3.7267 0 -12.6443
-57.5427 -8.18672 0 6.76082
-130.464 -11.694 0 36.0045
-136.895 -8.96585 0 31.4401
40.3956 1.8767 0 -19.0441
-50.7976 -8.42321 0 10.2953
43.351 -0.146649 0 -17.2989
45.7676 -2.04278 0 -15.1984
-53.2428 -8.38335 0 9.35671
-55.6222 -8.29874 0 8.13514
177.169 5.89016 0 -32.4156
190.351 0.28665 0 -8.35196
-152.315 -1.96599 0 6.73295
-142.346 -6.50025 0 26.153
183.205 3.36536 0 -24.9997
187.524 1.45951 0 -17.0116
52.1256 -6.84068 0 -3.46512
-61.0924 -7.97151 0 1.53786
-146.775 -4.45357 0 20.1834
-150.17 -2.91819 0 13.6187
48.0478 -3.7267 0 -12.6443
-57.5427 -8.18672 0 6.76082
49.9757 -5.11973 0 -9.79433
51.2613 -6.17408 0 -6.78911
-59.0718 -8.08092 0 5.17701
-60.3276 -8.00499 0 3.36221
190.351 0.28665 0 -8.35196
188.749 1.70856 0 18.1553
-150.943 -3.04406 0 -14.5874
-152.315 -1.96599 0 6.73295
191.601 -0.0522468 0 0.576579
191.074 0.430262 0 9.37359
51.5663 -6.2746 0 6.60378
-60.689 -8.24115 0 -4.21743
-153.153 -1.67227 0 -0.383995
-152.686 -2.03257 0 -7.60477
52.1256 -6.84068 0 -3.46512
-61.0924 -7.97151 0 1.53786
52.5321 -7.07953 0 -0.0433125
52.3511 -6.89157 0 3.25454
-61.3678 -8.00329 0 -0.352597
-61.2273 -8.09832 0 -2.35446
188.749 1.70856 0 18.1553
172.707 9.58007 0 40.9262
-138.729 -9.59423 0 -32.9363
-150.943 -3.04406 0 -14.5874
184.873 3.71665 0 26.5288
179.601 6.35577 0 34.0919
46.5204 -2.20858 0 15.2812
-56.3884 -8.90793 0 -9.17264
-147.965 -4.71834 0 -21.2053
-143.819 -6.94823 0 -27.397
51.5663 -6.2746 0 6.60378
-60.689 -8.24115 0 -4.21743
50.3394 -5.25362 0 9.80055
48.7409 -3.8867 0 12.6411
-59.6671 -8.43054 0 -5.98038
-58.1492 -8.65818 0 -7.70029
172.707 9.58007 0 40.9262
146.457 20.9911 0 55.2397
-118.178 -18.7013 0 -44.841
-138.729 -9.59423 0 -32.9363
164.753 13.286 0 46.8112
156.158 17.188 0 51.5545
38.2772 3.97629 0 20.8788
-49.2102 -9.47217 0 -12.2555
-132.659 -12.5114 0 -37.7555
-125.654 -15.5717 0 -41.7862
46.5204 -2.20858 0 15.2812
-56.3884 -8.90793 0 -9.17264
43.9823 -0.279199 0 17.5992
41.369 1.80819 0 19.4429
-54.2805 -9.16496 0 -10.4112
-51.7558 -9.37391 0 -11.4716
146.457 20.9911 0 55.2397
115.261 30.4027 0 59.4739
-93.9503 -27.1447 0 -48.3908
-118.178 -18.7013 0 -44.841
136.203 24.4747 0 57.8363
125.952 27.6089 0 59.2625
28.7542 10.3946 0 22.7407
-40.3569 -8.9458 0 -13.0627
-110.355 -21.8153 0 -46.883
-102.173 -24.7052 0 -48.0328
38.2772 3.97629 0 20.8788
-49.2102 -9.47217 0 -12.2555
35.0819 6.1978 0 21.9026
32.084 8.3894 0 22.5148
-46.4511 -9.39099 0 -12.7702
-43.3315 -9.17631 0 -13.0448
115.261 30.4027 0 59.4739
84.8279 35.9232 0 54.5249
-68.6679 -30.686 0 -44.741
-93.9503 -27.1447 0 -48.3908
104.756 32.9887 0 58.6149
94.8444 35.0425 0 56.9364
19.2729 15.1078 0 21.3944
-31.4376 -7.05682 0 -11.4705
-85.5051 -28.8692 0 -48.0092
-76.8648 -29.9549 0 -46.8097
28.7542 10.3946 0 22.7407
-40.3569 -8.9458 0 -13.0627
25.4024 12.1838 0 22.6427
22.3841 13.7777 0 22.2276
-37.4159 -8.6373 0 -12.7756
-34.3171 -8.04069 0 -12.2018
84.8279 35.9232 0 54.5249
56.7507 32.1972 0 43.6062
-45.9396 -29.2392 0 -34.4834
-68.6679 -30.686 0 -44.741
74.9107 35.3707 0 51.5755
65.6003 33.9272 0 48.0388
10.9967 17.8499 0 17.5515
-22.833 -2.87082 0 -8.49292
-60.9678 -31.1502 0 -41.8051
-53.3956 -30.8569 0 -38.2613
19.2729 15.1078 0 21.3944
-31.4376 -7.05682 0 -11.4705
16.3532 16.3248 0 20.2456
13.7792 17.3589 0 18.9652
-28.5245 -5.63211 0 -10.6363
-25.4726 -4.09096 0 -9.64484
56.7507 32.1972 0 43.6062
33.9573 25.7315 0 27.5983
-24.3804 -18.9298 0 -21.4176
-45.9396 -29.2392 0 -34.4834
48.8082 30.8641 0 38.3611
41.5588 29.1919 0 32.8793
3.34517 16.8666 0 12.8553
-15.6782 2.61707 0 -3.13067
-38.3523 -25.9394 0 -30.6319
-30.9306 -22.0125 0 -26.387
10.9967 17.8499 0 17.5515
-22.833 -2.87082 0 -8.49292
8.16605 17.7053 0 16.1168
5.66265 17.2627 0 14.6298
-20.5326 -1.77935 0 -6.97934
-18.1591 -0.0875627 0 -5.09261
33.9573 25.7315 0 27.5983
11.1044 7.11162 0 11.8579
-4.12949 -7.58139 0 -2.38411
-24.3804 -18.9298 0 -21.4176
25.6736 19.6724 0 22.8153
17.6958 12.6777 0 17.891
-3.76903 15.58 0 6.41806
-8.86471 9.75195 0 1.36207
-18.3368 -17.1594 0 -15.3954
-11.7198 -14.315 0 -8.77052
3.34517 16.8666 0 12.8553
-15.6782 2.61707 0 -3.13067
1.22736 16.8736 0 10.7304
-0.980802 16.7447 0 8.50577
-12.9469 5.92949 0 -1.46298
-10.4212 8.57231 0 -0.0612432
11.1044 7.11162 0 11.8579
-7.33377 -2.81461 0 -10.5104
17.5012 16.2202 0 13.921
-4.12949 -7.58139 0 -2.38411
6.33712 4.55595 0 4.17247
1.1481 2.50485 0 -3.89132
-11.4042 9.03023 0 1.98566
-2.02317 17.9205 0 11.1508
3.95201 3.53233 0 2.92055
11.3336 13.5294 0 7.86418
-3.76903 15.58 0 6.41806
-8.86471 9.75195 0 1.36207
-6.78738 12.9537 0 4.76681
-9.3758 10.1622 0 3.42299
-7.82408 10.4704 0 3.61684
-5.83654 12.8523 0 7.02259
-7.33377 -2.81461 0 -10.5104
-34.3619 -29.665 0 -24.6794
50.5772 26.3009 0 45.3594
17.5012 16.2202 0 13.921
-19.6301 -13.6466 0 -14.5082
-30.57 -25.0084 0 -18.1437
-24.5104 6.54537 0 -6.58709
2.04202 21.1695 0 15.0685
24.5779 10.9799 0 22.9714
35.4034 10.0215 0 34.1904
-11.4042 9.03023 0 1.98566
-2.02317 17.9205 0 11.1508
-14.0012 9.9551 0 -0.291107
-18.3913 10.1165 0 -3.38968
2.26481 22.9864 0 14.2436
4.05552 24.2041 0 15.2913
-34.3619 -29.665 0 -24.6794
-96.2799 -23.4228 0 -56.5571
82.0996 15.0371 0 40.2059
50.5772 26.3009 0 45.3594
-35.0827 -25.0363 0 -37.4732
-51.2973 -19.5983 0 -51.51
-36.1168 3.60182 0 1.8712
34.1464 29.5772 0 42.2189
64.7641 56.2902 0 50.6035
74.5179 64.2644 0 47.8262
-24.5104 6.54537 0 -6.58709
2.04202 21.1695 0 15.0685
-29.5958 -0.299711 0 -7.92257
-32.8748 -3.67712 0 -5.46155
1.77646 19.5356 0 17.6951
11.3998 23.2548 0 26.7188
-96.2799 -23.4228 0 -56.5571
-81.9143 29.2336 0 -120.787
100.839 945.254 0 43.6005
82.0996 15.0371 0 40.2059
-151.889 -57.6297 0 -53.7663
-167.565 -78.954 0 -64.2608
147.693 181.294 0 -191.312
109.359 344.41 0 -169.994
76.3592 -35.1616 0 48.7916
67.0336 105.025 0 68.546
-36.1168 3.60182 0 1.8712
34.1464 29.5772 0 42.2189
-37.174 10.5846 0 0.0345825
-0.961828 38.3454 0 -45.2338
43.3758 29.7166 0 44.9714
40.9113 77.4384 0 -4.66648
      </DataArray> 
    </PointData>
    <CellData>
      <DataArray type="Float64" NumberOfComponents="1" Name="Process" format="ascii">
0
1
0
1
1
0
1
1
1
0
0
0
2
0
2
2
2
2
2
3
3
3
3
3
3
      </DataArray> 
    </CellData>
  </Piece>
  </UnstructuredGrid>
</VTKFile>
