<?xml version="1.0"?>
<VTKFile type="UnstructuredGrid">
  <UnstructuredGrid>
  <Piece NumberOfPoints="400"  NumberOfCells="25">
    <Points>
      <DataArray type="Float64" NumberOfComponents="3" format="ascii">
0 15 0
7.41048 14.478 0
8.5092 24.4054 0
0 25 0
2.45831 14.8987 0
4.92986 14.7274 0
7.78806 17.828 0
8.14418 21.137 0
2.85801 24.8811 0
5.69445 24.6856 0
0 18.3333 0
0 21.6667 0
2.60119 18.2699 0
5.19668 18.0968 0
2.71838 21.5971 0
5.43586 21.4159 0
7.41048 14.478 0
14.877 13.2539 0
16.816 23.0558 0
8.5092 24.4054 0
9.89647 14.1451 0
12.3858 13.7343 0
15.5358 16.5513 0
16.1711 19.8202 0
11.3019 24.035 0
14.0713 23.5818 0
7.78806 17.828 0
8.14418 21.137 0
10.3763 17.4761 0
12.9597 17.0485 0
10.8366 20.7731 0
13.512 20.332 0
14.877 13.2539 0
22.3521 11.4641 0
24.8985 21.1279 0
16.816 23.0558 0
17.3686 12.7118 0
19.8603 12.1135 0
23.2114 14.7052 0
24.052 17.9283 0
19.5348 22.4668 0
22.2286 21.822 0
15.5358 16.5513 0
16.1711 19.8202 0
18.103 15.9907 0
20.6612 15.3732 0
18.8141 19.2442 0
21.4411 18.6112 0
22.3521 11.4641 0
29.8293 9.26331 0
32.7779 18.814 0
24.8985 21.1279 0
24.8438 10.7689 0
27.336 10.0334 0
30.8205 12.4589 0
31.7952 15.6449 0
27.5458 20.391 0
30.1718 19.6177 0
23.2114 14.7052 0
24.052 17.9283 0
25.7542 13.993 0
28.2904 13.2425 0
26.6471 17.2025 0
29.2276 16.4395 0
29.8293 9.26331 0
37.3232 6.79815 0
40.4931 16.2783 0
32.7779 18.814 0
32.3242 8.46418 0
34.8218 7.64088 0
38.3853 9.9632 0
39.4351 13.1255 0
35.3656 17.9861 0
37.9367 17.1392 0
30.8205 12.4589 0
31.7952 15.6449 0
33.3455 11.6479 0
35.8666 10.8143 0
34.3513 14.8243 0
36.8975 13.9828 0
37.3232 6.79815 0
44.8607 4.19982 0
48.0935 13.6594 0
40.4931 16.2783 0
39.8293 5.94069 0
42.3415 5.07307 0
45.9412 7.35192 0
47.0124 10.5073 0
43.0369 15.4084 0
45.5698 14.534 0
38.3853 9.9632 0
39.4351 13.1255 0
40.9031 9.09944 0
43.4213 8.22754 0
41.9657 12.2576 0
44.4909 11.3834 0
44.8607 4.19982 0
52.472 1.58956 0
55.6263 11.0755 0
48.0935 13.6594 0
47.3882 3.32539 0
49.9249 2.45395 0
53.5239 4.74515 0
54.5699 7.90894 0
50.6097 12.7888 0
53.1201 11.9263 0
45.9412 7.35192 0
47.0124 10.5073 0
48.4641 6.47696 0
50.9912 5.60671 0
49.5318 9.63353 0
52.0505 8.76611 0
52.472 1.58956 0
60.1841 -0.921895 0
63.1342 8.62938 0
55.6263 11.0755 0
55.0304 0.736255 0
57.6009 -0.102151 0
61.1662 2.25071 0
62.1446 5.43589 0
58.1299 10.2402 0
60.6321 9.42374 0
53.5239 4.74515 0
54.5699 7.90894 0
56.0634 3.89619 0
58.6105 3.06351 0
57.0913 7.06586 0
59.6158 6.24037 0
60.1841 -0.921895 0
68.0164 -3.23315 0
70.6499 6.40978 0
63.1342 8.62938 0
62.7809 -1.71927 0
65.3915 -2.49083 0
68.8918 -0.0341491 0
69.7654 3.18113 0
65.6372 7.86032 0
68.1422 7.1195 0
61.1662 2.25071 0
62.1446 5.43589 0
63.7313 1.46132 0
66.3063 0.69863 0
64.6787 4.6558 0
67.2187 3.9032 0
68.0164 -3.23315 0
75.9771 -5.25255 0
78.1959 4.49375 0
70.6499 6.40978 0
70.6557 -3.94291 0
73.3093 -4.61704 0
76.7137 -2.02271 0
77.4498 1.22659 0
73.1612 5.73393 0
75.6763 5.09445 0
68.8918 -0.0341491 0
69.7654 3.18113 0
71.4881 -0.733871 0
74.0954 -1.39766 0
72.3193 2.49256 0
74.8807 1.84018 0
75.9771 -5.25255 0
84.0621 -6.89954 0
85.7824 2.9465 0
78.1959 4.49375 0
78.6589 -5.84652 0
81.3541 -6.39636 0
84.6327 -3.63943 0
85.2033 -0.357287 0
80.72 3.93417 0
83.2489 3.41775 0
76.7137 -2.02271 0
77.4498 1.22659 0
79.343 -2.60628 0
81.9828 -3.14597 0
80.0267 0.654341 0
82.6113 0.12566 0
84.0621 -6.89954 0
92.2542 -8.10661 0
93.4091 1.82125 0
85.7824 2.9465 0
86.7821 -7.35366 0
89.5132 -7.75666 0
92.637 -4.8215 0
93.02 -1.51242 0
88.3205 2.52229 0
90.8629 2.14671 0
84.6327 -3.63943 0
85.2033 -0.357287 0
87.2923 -4.08441 0
89.9606 -4.47903 0
87.8025 -0.792423 0
90.4083 -1.17802 0
92.2542 -8.10661 0
100.525 -8.82167 0
101.066 1.15816 0
93.4091 1.82125 0
95.004 -8.40167 0
97.7612 -8.64045 0
100.704 -5.52073 0
100.883 -2.19454 0
95.9588 1.5473 0
98.5114 1.32595 0
92.637 -4.8215 0
93.02 -1.51242 0
95.3205 -5.11011 0
98.0099 -5.34358 0
95.637 -1.79408 0
98.2585 -2.02181 0
100.525 -8.82167 0
108.835 -9.01035 0
108.736 0.983553 0
101.066 1.15816 0
103.292 -8.94416 0
106.063 -9.00725 0
108.803 -5.70538 0
108.769 -2.3746 0
103.622 1.04484 0
106.179 0.986496 0
100.704 -5.52073 0
100.883 -2.19454 0
103.402 -5.64048 0
106.102 -5.7022 0
103.511 -2.31128 0
106.14 -2.37146 0
108.835 -9.01035 0
117.144 -8.65759 0
116.398 1.30891 0
108.736 0.983553 0
111.607 -8.95304 0
114.377 -8.83539 0
116.897 -5.36156 0
116.649 -2.03984 0
111.292 1.03635 0
113.846 1.14484 0
108.803 -5.70538 0
108.769 -2.3746 0
111.503 -5.64961 0
114.202 -5.53495 0
111.398 -2.32032 0
114.025 -2.20868 0
117.144 -8.65759 0
125.406 -7.76851 0
124.03 2.13087 0
116.398 1.30891 0
119.905 -8.41996 0
122.66 -8.1233 0
124.95 -4.49377 0
124.493 -1.19428 0
118.946 1.52835 0
121.49 1.80256 0
116.897 -5.36156 0
116.649 -2.03984 0
119.588 -5.12972 0
122.273 -4.84016 0
119.269 -1.81404 0
121.884 -1.53194 0
125.406 -7.76851 0
133.582 -6.36768 0
131.612 3.43119 0
124.03 2.13087 0
128.143 -7.35662 0
130.868 -6.88914 0
132.929 -3.12469 0
132.275 0.14172 0
126.564 2.5125 0
129.091 2.94634 0
124.95 -4.49377 0
124.493 -1.19428 0
127.62 -4.09148 0
130.28 -3.63464 0
127.095 -0.80192 0
129.689 -0.356128 0
133.582 -6.36768 0
141.639 -4.49816 0
139.133 5.17769 0
131.612 3.43119 0
136.282 -5.79396 0
138.968 -5.17007 0
140.808 -1.29345 0
139.976 1.93211 0
134.127 3.96576 0
136.633 4.54848 0
132.929 -3.12469 0
132.275 0.14172 0
135.568 -2.56317 0
138.194 -1.95206 0
134.852 0.690184 0
137.419 1.28757 0
141.639 -4.49816 0
149.557 -2.21855 0
146.587 7.32561 0
139.133 5.17769 0
144.294 -3.78051 0
146.934 -3.01974 0
148.571 0.945106 0
147.584 4.12773 0
141.625 5.85167 0
144.109 6.56835 0
140.808 -1.29345 0
139.976 1.93211 0
143.409 -0.589494 0
145.996 0.157485 0
142.522 2.62192 0
145.058 3.35463 0
149.557 -2.21855 0
157.326 0.398717 0
153.98 9.81775 0
146.587 7.32561 0
152.163 -1.37972 0
154.753 -0.506275 0
156.214 3.52487 0
155.103 6.66528 0
149.057 8.12124 0
151.521 8.9528 0
148.571 0.945106 0
147.584 4.12773 0
151.131 1.77087 0
153.679 2.63182 0
150.1 4.93876 0
152.606 5.78537 0
157.326 0.398717 0
164.954 3.2704 0
161.331 12.5874 0
153.98 9.81775 0
159.884 1.33211 0
162.426 2.2905 0
163.748 6.36609 0
162.545 9.4748 0
156.434 10.7136 0
158.884 11.6376 0
156.214 3.52487 0
155.103 6.66528 0
158.737 4.44696 0
161.248 5.39504 0
157.591 7.57591 0
160.072 8.51369 0
164.954 3.2704 0
172.457 6.30406 0
168.671 15.5564 0
161.331 12.5874 0
167.468 4.26834 0
169.969 5.28075 0
171.193 9.38349 0
169.937 12.4678 0
163.778 13.5598 0
166.224 14.5509 0
163.748 6.36609 0
162.545 9.4748 0
166.238 7.35694 0
168.719 8.36399 0
165.013 10.4557 0
167.476 11.454 0
172.457 6.30406 0
179.862 9.39875 0
176.039 18.6329 0
168.671 15.5564 0
174.933 7.3345 0
177.4 8.36761 0
178.586 12.4771 0
177.318 15.5611 0
171.121 16.5726 0
173.576 17.5983 0
171.193 9.38349 0
169.937 12.4678 0
173.662 10.4116 0
176.126 11.4443 0
172.398 13.4941 0
174.858 14.5273 0
179.862 9.39875 0
187.199 12.4481 0
183.485 21.7096 0
176.039 18.6329 0
182.32 10.4238 0
184.768 11.4407 0
185.962 15.5488 0
184.732 18.6319 0
178.513 19.6732 0
180.995 20.7045 0
178.586 12.4771 0
177.318 15.5611 0
181.042 13.5065 0
183.498 14.5308 0
179.779 16.5901 0
182.247 17.6136 0
187.199 12.4481 0
194.482 15 0
190.803 25 0
183.485 21.7096 0
189.61 13.4297 0
192.027 14.3103 0
193.435 18.3333 0
192.186 21.6667 0
185.972 22.6934 0
188.425 23.7511 0
185.962 15.5488 0
184.732 18.6319 0
188.437 16.5513 0
190.927 17.4962 0
187.236 19.6457 0
189.733 20.6567 0
      </DataArray>
    </Points>
    <Cells>
      <DataArray type="Int32" Name="connectivity" format="ascii">
0 1 2 3 4 5 6 7 8 9 10 11 12 13 14 15 
16 17 18 19 20 21 22 23 24 25 26 27 28 29 30 31 
32 33 34 35 36 37 38 39 40 41 42 43 44 45 46 47 
48 49 50 51 52 53 54 55 56 57 58 59 60 61 62 63 
64 65 66 67 68 69 70 71 72 73 74 75 76 77 78 79 
80 81 82 83 84 85 86 87 88 89 90 91 92 93 94 95 
96 97 98 99 100 101 102 103 104 105 106 107 108 109 110 111 
112 113 114 115 116 117 118 119 120 121 122 123 124 125 126 127 
128 129 130 131 132 133 134 135 136 137 138 139 140 141 142 143 
144 145 146 147 148 149 150 151 152 153 154 155 156 157 158 159 
160 161 162 163 164 165 166 167 168 169 170 171 172 173 174 175 
176 177 178 179 180 181 182 183 184 185 186 187 188 189 190 191 
192 193 194 195 196 197 198 199 200 201 202 203 204 205 206 207 
208 209 210 211 212 213 214 215 216 217 218 219 220 221 222 223 
224 225 226 227 228 229 230 231 232 233 234 235 236 237 238 239 
240 241 242 243 244 245 246 247 248 249 250 251 252 253 254 255 
256 257 258 259 260 261 262 263 264 265 266 267 268 269 270 271 
272 273 274 275 276 277 278 279 280 281 282 283 284 285 286 287 
288 289 290 291 292 293 294 295 296 297 298 299 300 301 302 303 
304 305 306 307 308 309 310 311 312 313 314 315 316 317 318 319 
320 321 322 323 324 325 326 327 328 329 330 331 332 333 334 335 
336 337 338 339 340 341 342 343 344 345 346 347 348 349 350 351 
352 353 354 355 356 357 358 359 360 361 362 363 364 365 366 367 
368 369 370 371 372 373 374 375 376 377 378 379 380 381 382 383 
384 385 386 387 388 389 390 391 392 393 394 395 396 397 398 399 
      </DataArray>
      <DataArray type="Int32" Name="offsets" format="ascii">
16
32
48
64
80
96
112
128
144
160
176
192
208
224
240
256
272
288
304
320
336
352
368
384
400
      </DataArray>
      <DataArray type="UInt8" Name="types" format="ascii">
70
70
70
70
70
70
70
70
70
70
70
70
70
70
70
70
70
70
70
70
70
70
70
70
70
      </DataArray>
    </Cells>
    <PointData>
      <DataArray type="Float64" NumberOfComponents="2" Name="Displacement" format="ascii">
0 0
-0.589515 -0.521957
0.509195 -0.594636
0 0
-0.208355 -0.101284
-0.403476 -0.27256
-0.21194 -0.505318
0.144181 -0.529678
0.191343 -0.118935
0.361113 -0.314368
0 0
0 0
-0.0654747 -0.0634465
-0.136658 -0.236518
0.0517165 -0.0695733
0.102525 -0.250781
-0.589515 -0.521957
-1.12304 -1.74606
0.815989 -1.94419
0.509195 -0.594636
-0.770196 -0.85486
-0.947516 -1.26567
-0.464155 -1.78207
0.171076 -1.84652
0.635248 -0.964977
0.73801 -1.41824
-0.21194 -0.505318
0.144181 -0.529678
-0.290373 -0.857243
-0.373657 -1.28487
0.169895 -0.893558
0.178698 -1.33467
-1.12304 -1.74606
-1.64794 -3.53589
0.898487 -3.87211
0.815989 -1.94419
-1.29809 -2.28823
-1.47302 -2.88653
-0.788586 -3.62816
0.052029 -3.73834
0.868146 -2.53317
0.895241 -3.17801
-0.464155 -1.78207
0.171076 -1.84652
-0.563712 -2.34264
-0.672104 -2.96017
0.147421 -2.42247
0.107761 -3.05547
-1.64794 -3.53589
-2.17071 -5.73669
0.77792 -6.18597
0.898487 -3.87211
-1.82285 -4.23111
-1.9973 -4.96661
-1.17947 -5.87441
-0.204835 -6.02173
0.879119 -4.60898
0.838476 -5.38233
-0.788586 -3.62816
0.052029 -3.73834
-0.912429 -4.34028
-1.04295 -5.09087
-0.0195654 -4.46419
-0.105714 -5.22717
-2.17071 -5.73669
-2.67683 -8.20185
0.493123 -8.72167
0.77792 -6.18597
-2.34245 -6.53582
-2.51151 -7.35912
-1.6147 -8.37013
-0.564869 -8.54113
0.698913 -7.01387
0.603325 -7.86079
-1.17947 -5.87441
-0.204835 -6.02173
-1.32118 -6.68548
-1.46675 -7.51904
-0.315369 -6.84238
-0.435858 -7.68389
-2.67683 -8.20185
-3.13929 -10.8002
0.0934565 -11.3406
0.493123 -8.72167
-2.83732 -9.05931
-2.99186 -9.92693
-2.05883 -10.9814
-0.987592 -11.1594
0.370236 -9.59157
0.236437 -10.466
-1.6147 -8.37013
-0.564869 -8.54113
-1.76358 -9.23389
-1.91206 -10.1058
-0.700927 -9.40908
-0.842395 -10.2833
-3.13929 -10.8002
-3.52798 -13.4104
-0.373721 -13.9245
0.0934565 -11.3406
-3.27848 -11.6746
-3.40839 -12.5461
-2.47606 -13.5882
-1.43015 -13.7577
-0.0569916 -12.2112
-0.213261 -13.0737
-2.05883 -10.9814
-0.987592 -11.1594
-2.2026 -11.8564
-2.3421 -12.7266
-1.13489 -12.0331
-1.28287 -12.9006
-3.52798 -13.4104
-3.81587 -15.9219
-0.865846 -16.3706
-0.373721 -13.9245
-3.63628 -14.2637
-3.73248 -15.1022
-2.83381 -16.0826
-1.85539 -16.2308
-0.536814 -14.7598
-0.701259 -15.5763
-2.47606 -13.5882
-1.43015 -13.7577
-2.60329 -14.4371
-2.72283 -15.2698
-1.57542 -14.6008
-1.71753 -15.4263
-3.81587 -15.9219
-3.98362 -18.2331
-1.35005 -18.5902
-0.865846 -16.3706
-3.88577 -16.7193
-3.94179 -17.4908
-3.10823 -18.3675
-2.23461 -18.4855
-1.02943 -17.1397
-1.19111 -17.8805
-2.83381 -16.0826
-1.85539 -16.2308
-2.9354 -16.872
-3.02704 -17.6347
-1.988 -17.0109
-2.11463 -17.7635
-3.98362 -18.2331
-4.02287 -20.2525
-1.80414 -20.5063
-1.35005 -18.5902
-4.01101 -18.9429
-4.02404 -19.617
-3.28627 -20.356
-2.55025 -20.4401
-1.5055 -19.2661
-1.65699 -19.9055
-3.10823 -18.3675
-2.23461 -18.4855
-3.17855 -19.0672
-3.2379 -19.731
-2.34739 -19.1741
-2.45267 -19.8265
-4.02287 -20.2525
-3.93789 -21.8995
-2.2176 -22.0535
-1.80414 -20.5063
-4.00773 -20.8465
-3.97919 -21.3964
-3.3673 -21.9728
-2.79668 -22.024
-1.94664 -21.0658
-2.08445 -21.5822
-3.28627 -20.356
-2.55025 -20.4401
-3.3237 -20.9396
-3.35056 -21.4793
-2.63999 -21.0123
-2.72205 -21.541
-3.93789 -21.8995
-3.74584 -23.1066
-2.59087 -23.1788
-2.2176 -22.0535
-3.88454 -22.3537
-3.82017 -22.7567
-3.36298 -23.1548
-2.98 -23.1791
-2.34615 -22.4777
-2.47045 -22.8533
-3.3673 -21.9728
-2.79668 -22.024
-3.37441 -22.4177
-3.37269 -22.8124
-2.86416 -22.4591
-2.92506 -22.8447
-3.74584 -23.1066
-3.47547 -23.8217
-2.93392 -23.8418
-2.59087 -23.1788
-3.66269 -23.4017
-3.57209 -23.6405
-3.29597 -23.8541
-3.1166 -23.8612
-2.70784 -23.4527
-2.82197 -23.6741
-3.36298 -23.1548
-2.98 -23.1791
-3.34621 -23.4434
-3.32348 -23.6769
-3.02965 -23.4607
-3.07488 -23.6885
-3.47547 -23.8217
-3.16459 -24.0104
-3.26391 -24.0164
-2.93392 -23.8418
-3.37429 -23.9442
-3.27012 -24.0072
-3.19731 -24.0387
-3.23068 -24.0413
-3.04437 -23.9552
-3.15411 -24.0135
-3.29597 -23.8541
-3.1166 -23.8612
-3.26488 -23.9738
-3.23154 -24.0355
-3.15576 -23.978
-3.19342 -24.0381
-3.16459 -24.0104
-2.85613 -23.6576
-3.60197 -23.6911
-3.26391 -24.0164
-3.0593 -23.953
-2.95593 -23.8354
-3.10297 -23.6949
-3.35098 -23.7065
-3.37459 -23.9637
-3.48699 -23.8552
-3.19731 -24.0387
-3.23068 -24.0413
-3.16355 -23.9829
-3.13165 -23.8683
-3.26861 -23.987
-3.30834 -23.8754
-2.85613 -23.6576
-2.59401 -22.7685
-3.97025 -22.8691
-3.60197 -23.6911
-2.76153 -23.42
-2.67367 -23.1233
-3.04967 -22.8271
-3.50692 -22.8609
-3.72037 -23.4717
-3.8429 -23.1974
-3.10297 -23.6949
-3.35098 -23.7065
-3.0789 -23.4631
-3.06071 -23.1735
-3.3976 -23.4807
-3.44925 -23.1986
-2.59401 -22.7685
-2.4181 -21.3677
-4.38751 -21.5688
-3.97025 -22.8691
-2.52401 -22.3566
-2.46496 -21.8891
-3.07071 -21.458
-3.7249 -21.5249
-4.10308 -22.4875
-4.24198 -22.0537
-3.04967 -22.8271
-3.50692 -22.8609
-3.04697 -22.4248
-3.05366 -21.968
-3.57157 -22.4686
-3.64399 -22.0228
-2.4181 -21.3677
-2.36092 -19.4982
-4.86738 -19.8223
-4.38751 -21.5688
-2.3846 -20.794
-2.36529 -20.1701
-3.19201 -19.6268
-4.02444 -19.7346
-4.54014 -21.0342
-4.70007 -20.4515
-3.07071 -21.458
-3.7249 -21.5249
-3.09902 -20.8965
-3.13926 -20.2854
-3.815 -20.9765
-3.91472 -20.3791
-2.36092 -19.4982
-2.44315 -17.2185
-5.41345 -17.6744
-4.86738 -19.8223
-2.37218 -18.7805
-2.39947 -18.0197
-3.4293 -17.3882
-4.41572 -17.5389
-5.04214 -19.1483
-5.22422 -18.4317
-3.19201 -19.6268
-4.02444 -19.7346
-3.25779 -18.9228
-3.33683 -18.1758
-4.1445 -19.0447
-4.27493 -18.312
-2.44315 -17.2185
-2.67356 -14.6013
-6.02016 -15.1823
-5.41345 -17.6744
-2.50347 -16.3797
-2.58033 -15.5063
-3.78602 -14.8085
-4.8972 -15.0014
-5.6096 -16.8788
-5.81206 -16.0472
-3.4293 -17.3882
-4.41572 -17.5389
-3.53525 -16.5625
-3.65431 -15.7015
-4.56674 -16.7279
-4.72745 -15.8813
-2.67356 -14.6013
-3.04639 -11.7296
-6.66882 -12.4126
-6.02016 -15.1823
-2.78286 -13.6679
-2.90744 -12.7095
-4.25202 -11.9672
-5.45453 -12.1919
-6.23311 -14.2864
-6.44975 -13.3624
-3.78602 -14.8085
-4.8972 -15.0014
-3.92988 -13.8864
-4.0854 -12.9383
-5.07537 -14.0908
-5.26134 -13.153
-3.04639 -11.7296
-3.54321 -8.69594
-7.32869 -9.44355
-6.66882 -12.4126
-3.19892 -10.7317
-3.36462 -9.71925
-4.80701 -8.94984
-6.06347 -9.19891
-6.88907 -11.4402
-7.10939 -10.4491
-4.25202 -11.9672
-5.45453 -12.1919
-4.42899 -10.9764
-4.61463 -9.96934
-5.65404 -11.211
-5.85781 -10.2126
-3.54321 -8.69594
-4.13829 -5.60125
-7.96072 -6.36709
-7.32869 -9.44355
-3.73382 -7.6655
-3.93338 -6.63239
-5.41411 -5.85622
-6.68161 -6.10555
-7.54556 -8.42738
-7.75726 -7.40172
-4.80701 -8.94984
-6.06347 -9.19891
-5.00455 -7.9217
-5.20692 -6.88908
-6.26914 -8.17257
-6.47497 -7.13932
-4.13829 -5.60125
-4.80149 -2.55188
-8.51535 -3.29045
-7.96072 -6.36709
-4.34687 -4.57621
-4.56524 -3.55926
-6.0384 -2.78451
-7.26811 -3.03475
-8.1538 -5.32683
-8.3379 -4.2955
-5.41411 -5.85622
-6.68161 -6.10555
-5.62515 -4.82683
-5.83519 -3.80255
-6.88805 -5.07655
-7.08664 -4.05307
-4.80149 -2.55188
-5.51766 0
-9.19706 0
-8.51535 -3.29045
-5.057 -1.57028
-5.30641 -0.68967
-6.56545 0
-7.81356 0
-8.69461 -2.30656
-8.90877 -1.24888
-6.0384 -2.78451
-7.26811 -3.03475
-6.22959 -1.782
-6.40599 -0.837084
-7.43046 -2.02094
-7.6008 -1.01
      </DataArray> 
      <DataArray type="Float64" NumberOfComponents="4" Name="CauchyStress" format="ascii">
-156.526 -54.6198 0 -15.4955
-109.153 -0.94435 0 13.5894
127.881 0.252846 0 -14.3863
187.129 50.0672 0 -29.5207
-130.533 -4.58357 0 3.9419
-116.629 5.74332 0 12.5654
-44.3866 -2.42022 0 -3.89905
38.1797 -0.613456 0 -13.7783
157.014 4.34452 0 -11.2759
139.61 -5.15433 0 -9.15258
-49.3924 -15.5291 0 -1.07841
41.885 12.1305 0 -2.76763
-48.9566 -3.73004 0 -5.39814
-47.7748 -1.35231 0 -5.67311
41.7684 -2.01445 0 -10.2693
41.527 -3.34985 0 -13.5724
-109.153 -0.94435 0 13.5894
-80.9735 -2.59649 0 17.0916
94.9283 2.71943 0 -19.0113
127.881 0.252846 0 -14.3863
-100.911 -4.48013 0 13.8139
-90.9321 -3.92244 0 15.3847
-32.0946 0.221014 0 -1.54999
25.6391 1.90977 0 -13.6317
117.315 4.10616 0 -18.7703
106.413 4.10054 0 -19.7423
-44.3866 -2.42022 0 -3.89905
38.1797 -0.613456 0 -13.7783
-39.5203 -2.19214 0 -2.3545
-35.1987 -0.902167 0 -1.76309
32.9097 0.777798 0 -13.2948
28.7883 1.39321 0 -13.3859
-80.9735 -2.59649 0 17.0916
-56.6137 -4.28076 0 15.0943
63.8502 4.26985 0 -17.6261
94.9283 2.71943 0 -19.0113
-72.1613 -2.65116 0 17.5198
-64.1556 -3.50513 0 16.6028
-23.1536 0.850776 0 -1.00444
17.6469 4.02026 0 -12.1012
83.622 2.46585 0 -18.403
73.3389 3.36696 0 -18.185
-32.0946 0.221014 0 -1.54999
25.6391 1.90977 0 -13.6317
-29.4558 0.640194 0 -1.32073
-26.3869 0.752758 0 -1.11256
23.1264 2.75262 0 -13.548
20.6123 3.58067 0 -13.01
-56.6137 -4.28076 0 15.0943
-34.0283 -3.18124 0 10.9424
39.191 3.03799 0 -12.1495
63.8502 4.26985 0 -17.6261
-48.9764 -4.29148 0 13.6642
-41.2974 -3.77463 0 12.3428
-14.7044 2.1712 0 -1.89531
9.62952 4.2829 0 -9.64293
55.1523 4.38596 0 -16.2732
47.0489 3.86394 0 -14.3479
-23.1536 0.850776 0 -1.00444
17.6469 4.02026 0 -12.1012
-20.0054 1.23292 0 -1.14252
-17.1443 1.77022 0 -1.50295
14.5815 4.15783 0 -11.1685
11.9441 4.25759 0 -10.4005
-34.0283 -3.18124 0 10.9424
-14.8812 -1.6261 0 5.0219
17.7538 1.4077 0 -6.19871
39.191 3.03799 0 -12.1495
-27.3181 -2.68348 0 9.20301
-20.9711 -2.17392 0 7.14942
-7.79877 2.70069 0 -3.12838
3.403 3.85756 0 -6.96065
31.5786 2.3715 0 -10.0684
24.4255 1.9093 0 -8.1576
-14.7044 2.1712 0 -1.89531
9.62952 4.2829 0 -9.64293
-12.4399 2.39125 0 -2.27104
-10.1134 2.55857 0 -2.69053
7.52922 4.25302 0 -8.8146
5.48724 4.13176 0 -7.92641
-14.8812 -1.6261 0 5.0219
2.60391 0.395146 0 -0.82035
-0.0480041 -0.735269 0 0.0590014
17.7538 1.4077 0 -6.19871
-8.90786 -0.981884 0 2.98806
-3.05817 -0.281814 0 1.04555
-1.59321 3.22058 0 -4.62367
-2.35369 2.89284 0 -4.35937
11.535 0.761917 0 -4.11166
5.62922 0.0309263 0 -2.00382
-7.79877 2.70069 0 -3.12838
3.403 3.85756 0 -6.96065
-5.58334 2.89066 0 -3.61164
-3.52167 3.09398 0 -4.13494
1.34385 3.52893 0 -6.01744
-0.579377 3.22327 0 -5.1697
2.60391 0.395146 0 -0.82035
18.3576 2.19208 0 -6.17068
-15.8971 -2.51815 0 5.29059
-0.0480041 -0.735269 0 0.0590014
8.02771 1.0409 0 -2.66485
13.2469 1.65187 0 -4.47657
3.82966 3.23527 0 -5.90008
-7.34948 1.74211 0 -2.11533
-5.55597 -1.42409 0 1.96269
-10.8661 -2.0051 0 3.68294
-1.59321 3.22058 0 -4.62367
-2.35369 2.89284 0 -4.35937
0.245549 3.26832 0 -5.07216
2.03564 3.27257 0 -5.50648
-4.04702 2.5335 0 -3.57656
-5.72817 2.14978 0 -2.83579
18.3576 2.19208 0 -6.17068
32.9852 3.30012 0 -10.2708
-29.8466 -3.63587 0 9.33057
-15.8971 -2.51815 0 5.29059
23.3557 2.64912 0 -7.70302
28.2063 3.01792 0 -9.07524
8.79143 2.92575 0 -6.83928
-11.9604 0.657081 0 -0.317292
-20.703 -2.96638 0 6.79236
-25.3711 -3.34025 0 8.14148
3.82966 3.23527 0 -5.90008
-7.34948 1.74211 0 -2.11533
5.56466 3.17301 0 -6.25871
7.18775 3.07436 0 -6.58331
-8.93532 1.35192 0 -1.44579
-10.5008 0.994561 0 -0.855382
32.9852 3.30012 0 -10.2708
46.4508 3.63719 0 -12.81
-42.4113 -3.96192 0 11.693
-29.8466 -3.63587 0 9.33057
37.6255 3.50224 0 -11.3013
42.0752 3.61521 0 -12.1618
13.2653 2.2244 0 -7.22294
-16.1236 -0.26316 0 0.932999
-34.1829 -3.83773 0 10.3205
-38.4073 -3.94554 0 11.0968
8.79143 2.92575 0 -6.83928
-11.9604 0.657081 0 -0.317292
10.3393 2.72937 0 -7.02992
11.7947 2.49179 0 -7.16627
-13.3737 0.333733 0 0.162058
-14.7964 0.0232826 0 0.571335
46.4508 3.63719 0 -12.81
58.6151 3.18125 0 -13.4662
-53.43 -3.54504 0 12.2949
-42.4113 -3.96192 0 11.693
50.685 3.56573 0 -13.2437
54.702 3.40621 0 -13.472
17.2743 1.27693 0 -6.96944
-19.8443 -0.933972 0 1.6129
-46.2403 -3.89235 0 12.0982
-49.9467 -3.75112 0 12.2914
13.2653 2.2244 0 -7.22294
-16.1236 -0.26316 0 0.932999
14.6836 1.93234 0 -7.21019
15.9816 1.61283 0 -7.13632
-17.4023 -0.516269 0 1.2297
-18.6795 -0.740283 0 1.44634
58.6151 3.18125 0 -13.4662
69.0735 2.23229 0 -12.1856
-62.7446 -2.67396 0 11.0799
-53.43 -3.54504 0 12.2949
62.3403 2.90436 0 -13.2483
65.7898 2.58165 0 -12.8348
20.6846 0.223836 0 -6.02621
-23.0046 -1.38529 0 1.7248
-56.7257 -3.28886 0 12.0912
-59.8652 -2.99742 0 11.672
17.2743 1.27693 0 -6.96944
-19.8443 -0.933972 0 1.6129
18.5027 0.929306 0 -6.72677
19.6033 0.573233 0 -6.42486
-20.9459 -1.10436 0 1.71469
-22.0348 -1.25737 0 1.73922
69.0735 2.23229 0 -12.1856
77.3195 1.14513 0 -9.08434
-69.9575 -1.66825 0 8.23162
-62.7446 -2.67396 0 11.0799
72.1171 1.86819 0 -11.3335
74.8359 1.49931 0 -10.3134
23.3593 -0.731467 0 -4.44011
-25.4757 -1.65195 0 1.33167
-65.3864 -2.33276 0 10.3036
-67.8187 -1.99345 0 9.33611
20.6846 0.223836 0 -6.02621
-23.0046 -1.38529 0 1.7248
21.6887 -0.113379 0 -5.55765
22.5502 -0.436007 0 -5.04404
-23.8938 -1.49069 0 1.65159
-24.747 -1.58032 0 1.50398
77.3195 1.14513 0 -9.08434
82.8159 0.312229 0 -4.55358
-74.7319 -0.935364 0 4.11812
-69.9575 -1.66825 0 8.23162
79.5035 0.818167 0 -7.69823
81.314 0.53286 0 -6.20432
25.1296 -1.40713 0 -2.34392
-27.1176 -1.80904 0 0.547742
-71.8213 -1.37916 0 6.98473
-73.4332 -1.13577 0 5.59286
23.3593 -0.731467 0 -4.44011
-25.4757 -1.65195 0 1.33167
24.0741 -0.995408 0 -3.78145
24.6433 -1.22422 0 -3.10066
-26.1066 -1.71234 0 1.11402
-26.6744 -1.76591 0 0.833309
82.8159 0.312229 0 -4.55358
85.2041 0.0931256 0 0.834616
-76.7292 -0.687125 0 -0.753519
-74.7319 -0.935364 0 4.11812
83.9829 0.169124 0 -2.80655
84.7711 0.0979774 0 -1.02639
25.8737 -1.65436 0 0.0544312
-27.8348 -1.90526 0 -0.465576
-75.7133 -0.784206 0 2.554
-76.386 -0.696409 0 0.903708
25.1296 -1.40713 0 -2.34392
-27.1176 -1.80904 0 0.547742
25.5099 -1.54175 0 -1.55354
25.7487 -1.62655 0 -0.772492
-27.4509 -1.8468 0 0.234687
-27.6991 -1.8806 0 -0.125024
85.2041 0.0931256 0 0.834616
84.2443 0.507207 0 6.32439
-75.9196 -1.16105 0 -5.69212
-76.7292 -0.687125 0 -0.753519
85.2695 0.145153 0 2.70494
84.9502 0.272039 0 4.51702
25.5468 -1.41286 0 2.48799
-27.571 -1.95694 0 -1.51271
-76.7579 -0.776181 0 -2.41193
-76.4879 -0.945777 0 -4.07826
25.8737 -1.65436 0 0.0544312
-27.8348 -1.90526 0 -0.465576
25.8888 -1.62591 0 0.883586
25.7839 -1.54516 0 1.67462
-27.8527 -1.9233 0 -0.808811
-27.7606 -1.93957 0 -1.1788
84.2443 0.507207 0 6.32439
80.1651 1.71036 0 11.215
-72.2289 -2.05658 0 -10.1369
-75.9196 -1.16105 0 -5.69212
83.2088 0.864362 0 8.0686
81.8701 1.28894 0 9.68466
24.1628 -0.737355 0 4.69393
-26.3757 -1.97788 0 -2.39725
-75.0129 -1.39723 0 -7.26079
-73.7591 -1.67993 0 -8.77191
25.5468 -1.41286 0 2.48799
-27.571 -1.95694 0 -1.51271
25.1984 -1.23649 0 3.27984
24.7513 -1.01455 0 3.99924
-27.2723 -1.98049 0 -1.82905
-26.8594 -1.99503 0 -2.14483
80.1651 1.71036 0 11.215
73.1303 2.93231 0 14.7907
-66.2151 -3.54609 0 -13.3522
-72.2289 -2.05658 0 -10.1369
78.1236 2.07353 0 12.5977
75.7948 2.44438 0 13.775
21.8828 0.325369 0 6.43258
-24.3158 -1.82051 0 -2.95646
-70.4585 -2.56005 0 -11.3436
-68.4444 -3.10018 0 -12.4222
24.1628 -0.737355 0 4.69393
-26.3757 -1.97788 0 -2.39725
23.4876 -0.402446 0 5.33375
22.7579 -0.0362662 0 5.89525
-25.7846 -1.92117 0 -2.60923
-25.0686 -1.85578 0 -2.81151
73.1303 2.93231 0 14.7907
63.9593 4.68846 0 16.6662
-57.8116 -4.43724 0 -15.183
-66.2151 -3.54609 0 -13.3522
70.2649 3.59838 0 15.6167
67.2621 4.26575 0 16.2273
18.8016 1.37432 0 7.55548
-21.5485 -1.61804 0 -2.99876
-63.6706 -3.80753 0 -14.1532
-60.8074 -4.03 0 -14.7945
21.8828 0.325369 0 6.43258
-24.3158 -1.82051 0 -2.95646
20.9119 0.653287 0 6.91047
19.9106 0.982832 0 7.27697
-23.4905 -1.82215 0 -3.04177
-22.5419 -1.78306 0 -3.06823
63.9593 4.68846 0 16.6662
52.8057 4.83057 0 16.6129
-48.1427 -5.9054 0 -14.9493
-57.8116 -4.43724 0 -15.183
60.3799 4.71901 0 16.9083
56.6601 4.63491 0 16.8951
15.1789 2.71587 0 7.95344
-18.2668 -0.884998 0 -2.63204
-54.7556 -5.14588 0 -15.2987
-51.5483 -5.79637 0 -15.2064
18.8016 1.37432 0 7.55548
-21.5485 -1.61804 0 -2.99876
17.6588 1.87179 0 7.74537
16.504 2.37157 0 7.86301
-20.4731 -1.31303 0 -2.88603
-19.327 -1.01666 0 -2.77732
52.8057 4.83057 0 16.6129
40.7179 6.10148 0 14.4059
-36.5782 -4.60366 0 -13.3457
-48.1427 -5.9054 0 -14.9493
48.9712 5.52771 0 16.0371
45.0635 6.19457 0 15.2517
11.1326 3.0966 0 7.74105
-14.3692 -0.29799 0 -1.34283
-44.391 -5.22766 0 -14.5885
-40.4188 -4.47935 0 -14.0882
15.1789 2.71587 0 7.95344
-18.2668 -0.884998 0 -2.63204
13.7706 2.80895 0 7.98799
12.4382 2.84282 0 7.91564
-17.1813 -0.903504 0 -2.36561
-15.8737 -0.790639 0 -1.92953
40.7179 6.10148 0 14.4059
27.2753 2.97447 0 11.0531
-24.4245 -6.08725 0 -9.18337
-36.5782 -4.60366 0 -13.3457
35.9729 4.87467 0 13.5728
31.3596 3.42762 0 12.5467
6.48219 4.43399 0 6.72611
-10.6924 1.19964 0 -0.244041
-32.8862 -5.97986 0 -12.2632
-28.9287 -7.09738 0 -10.852
11.1326 3.0966 0 7.74105
-14.3692 -0.29799 0 -1.34283
9.80712 3.72806 0 7.47288
8.31732 4.34901 0 7.12862
-12.8138 0.499468 0 -0.816403
-11.5058 1.11636 0 -0.482278
27.2753 2.97447 0 11.0531
13.3934 4.52412 0 4.77237
-10.598 0.381821 0 -4.9708
-24.4245 -6.08725 0 -9.18337
23.6435 4.12006 0 8.91049
19.3843 5.3131 0 6.5827
2.28957 3.15328 0 5.62744
-5.1912 2.37893 0 2.86614
-19.4232 -2.3237 0 -7.54895
-14.6066 1.07654 0 -6.16089
6.48219 4.43399 0 6.72611
-10.6924 1.19964 0 -0.244041
4.657 3.75664 0 6.28588
3.27566 3.0304 0 5.88656
-9.8027 1.0056 0 0.289329
-8.01821 1.27035 0 1.3652
13.3934 4.52412 0 4.77237
-0.838699 -3.44253 0 0.327105
5.79557 -3.86521 0 3.81782
-10.598 0.381821 0 -4.9708
6.31319 0.831723 0 3.88094
0.876214 -2.99622 0 2.87673
-4.9247 4.27848 0 3.36461
-3.31462 3.02371 0 3.64853
-6.79298 -5.28077 0 -3.30231
-1.6041 -9.1963 0 -0.427612
2.28957 3.15328 0 5.62744
-5.1912 2.37893 0 2.86614
0.922361 4.33561 0 5.36103
-1.51636 5.19978 0 4.69535
-2.59788 3.59085 0 3.98537
-1.86192 3.83102 0 4.15901
-0.838699 -3.44253 0 0.327105
-35.0844 3.01973 0 -6.8257
15.5699 -5.36151 0 -3.70327
5.79557 -3.86521 0 3.81782
-2.27102 0.756603 0 -4.50504
-11.9859 4.82355 0 -8.39655
-6.15846 2.22052 0 7.98266
14.8041 2.48402 0 11.4441
13.0053 10.6729 0 6.87778
16.5256 16.5218 0 4.8882
-4.9247 4.27848 0 3.36461
-3.31462 3.02371 0 3.64853
-7.13827 1.85579 0 2.17114
-7.0932 0.492784 0 3.16268
-3.11115 2.93428 0 4.10313
2.84237 3.60911 0 6.79455
-35.0844 3.01973 0 -6.8257
-37.83 38.0445 0 -61.741
26.014 322.586 0 22.171
15.5699 -5.36151 0 -3.70327
-62.2538 -12.8487 0 -6.57601
-70.5813 -19.0825 0 -21.4775
42.749 102.344 0 -63.8885
28.4765 166.312 0 -46.3445
5.1301 -36.7695 0 -4.85381
-0.985685 16.8115 0 7.90127
-6.15846 2.22052 0 7.98266
14.8041 2.48402 0 11.4441
-6.21018 5.05566 0 9.36636
3.06695 25.1644 0 -8.99046
19.1261 0.477149 0 13.4405
15.2522 32.5425 0 0.212736
      </DataArray> 
    </PointData>
    <CellData>
      <DataArray type="Float64" NumberOfComponents="1" Name="Process" format="ascii">
0
1
0
1
1
0
1
1
1
0
0
0
2
0
2
2
2
2
2
3
3
3
3
3
3
      </DataArray> 
    </CellData>
  </Piece>
  </UnstructuredGrid>
</VTKFile>
