<?xml version="1.0"?>
<VTKFile type="UnstructuredGrid">
  <UnstructuredGrid>
  <Piece NumberOfPoints="12411"  NumberOfCells="1379">
    <Points>
      <DataArray type="Float64" NumberOfComponents="3" format="ascii">
0 0 0
2.53576 -0.00115192 0
2.5367 4.28532 0
0 4.28571 0
1.26778 -0.000717984 0
2.53633 2.14216 0
1.26837 4.28557 0
0 2.14286 0
1.26821 2.14255 0
2.53576 -0.00115192 0
5.07184 -0.00200091 0
5.07328 4.28459 0
2.5367 4.28532 0
3.8038 -0.00156038 0
5.07259 2.14134 0
3.80499 4.28499 0
2.53633 2.14216 0
3.80446 2.14176 0
5.07184 -0.00200091 0
7.60789 -0.00302514 0
7.60985 4.28358 0
5.07328 4.28459 0
6.33987 -0.00248303 0
7.60888 2.14031 0
6.34156 4.28412 0
5.07259 2.14134 0
6.34073 2.14086 0
7.60789 -0.00302514 0
10.1439 -0.00434302 0
10.1464 4.28227 0
7.60985 4.28358 0
8.87592 -0.00364427 0
10.1452 2.139 0
8.87813 4.28296 0
7.60888 2.14031 0
8.87703 2.13969 0
10.1439 -0.00434302 0
12.68 -0.00598178 0
12.683 4.28062 0
10.1464 4.28227 0
11.412 -0.00512117 0
12.6815 2.13736 0
11.4147 4.28149 0
10.1452 2.139 0
11.4133 2.13822 0
12.68 -0.00598178 0
15.216 -0.00795984 0
15.2196 4.27864 0
12.683 4.28062 0
13.948 -0.00692797 0
15.2178 2.13538 0
13.9513 4.27968 0
12.6815 2.13736 0
13.9496 2.13641 0
15.216 -0.00795984 0
17.752 -0.0102797 0
17.7562 4.27632 0
15.2196 4.27864 0
16.484 -0.00907694 0
17.7541 2.13306 0
16.4879 4.27752 0
15.2178 2.13538 0
16.486 2.13426 0
17.752 -0.0102797 0
20.2881 -0.0129437 0
20.2928 4.27365 0
17.7562 4.27632 0
19.02 -0.0115687 0
20.2905 2.13039 0
19.0245 4.27503 0
17.7541 2.13306 0
19.0223 2.13176 0
20.2881 -0.0129437 0
22.8241 -0.0159505 0
22.8295 4.27064 0
20.2928 4.27365 0
21.5561 -0.0144043 0
22.8268 2.12738 0
21.5611 4.27219 0
20.2905 2.13039 0
21.5586 2.12893 0
22.8241 -0.0159505 0
25.3602 -0.0192987 0
25.3661 4.26728 0
22.8295 4.27064 0
24.0921 -0.017582 0
25.3631 2.12403 0
24.0978 4.269 0
22.8268 2.12738 0
24.095 2.12575 0
25.3602 -0.0192987 0
27.8962 -0.0229867 0
27.9027 4.26359 0
25.3661 4.26728 0
26.6282 -0.0211004 0
27.8995 2.12034 0
26.6344 4.26548 0
25.3631 2.12403 0
26.6313 2.12223 0
27.8962 -0.0229867 0
30.4323 -0.0270124 0
30.4394 4.25956 0
27.9027 4.26359 0
29.1643 -0.0249574 0
30.4358 2.11631 0
29.171 4.26162 0
27.8995 2.12034 0
29.1677 2.11837 0
30.4323 -0.0270124 0
32.9684 -0.0313741 0
32.976 4.25519 0
30.4394 4.25956 0
31.7004 -0.0291514 0
32.9722 2.11194 0
31.7077 4.25742 0
30.4358 2.11631 0
31.704 2.11417 0
32.9684 -0.0313741 0
35.5045 -0.0360699 0
35.5127 4.25049 0
32.976 4.25519 0
34.2364 -0.0336804 0
35.5086 2.10725 0
34.2443 4.25288 0
32.9722 2.11194 0
34.2404 2.10964 0
35.5045 -0.0360699 0
38.0406 -0.0410979 0
38.0493 4.24546 0
35.5127 4.25049 0
36.7725 -0.0385425 0
38.045 2.10221 0
36.781 4.24801 0
35.5086 2.10725 0
36.7768 2.10477 0
38.0406 -0.0410979 0
40.5767 -0.0464563 0
40.586 4.24009 0
38.0493 4.24546 0
39.3087 -0.0437359 0
40.5814 2.09685 0
39.3177 4.24281 0
38.045 2.10221 0
39.3132 2.09957 0
40.5767 -0.0464563 0
43.1128 -0.0521432 0
43.1227 4.2344 0
40.586 4.24009 0
41.8448 -0.0492588 0
43.1178 2.09116 0
41.8544 4.23729 0
40.5814 2.09685 0
41.8496 2.09405 0
43.1128 -0.0521432 0
45.649 -0.0581569 0
45.6594 4.22838 0
43.1227 4.2344 0
44.3809 -0.0551093 0
45.6542 2.08515 0
44.391 4.23143 0
43.1178 2.09116 0
44.386 2.08819 0
45.649 -0.0581569 0
48.1851 -0.0644956 0
48.1961 4.22203 0
45.6594 4.22838 0
46.917 -0.0612857 0
48.1906 2.0788 0
46.9277 4.22525 0
45.6542 2.08515 0
46.9224 2.08202 0
48.1851 -0.0644956 0
50.7213 -0.0711573 0
50.7328 4.21537 0
48.1961 4.22203 0
49.4532 -0.0677861 0
50.727 2.07214 0
49.4644 4.21874 0
48.1906 2.0788 0
49.4588 2.07551 0
50.7213 -0.0711573 0
53.2574 -0.0781403 0
53.2695 4.20838 0
50.7328 4.21537 0
51.9894 -0.0746088 0
53.2635 2.06515 0
52.0011 4.21191 0
50.727 2.07214 0
51.9953 2.06869 0
53.2574 -0.0781403 0
55.7936 -0.0854429 0
55.8062 4.20107 0
53.2695 4.20838 0
54.5255 -0.0817518 0
55.7999 2.05785 0
54.5378 4.20476 0
53.2635 2.06515 0
54.5317 2.06154 0
55.7936 -0.0854429 0
58.3298 -0.0930631 0
58.3429 4.19344 0
55.8062 4.20107 0
57.0617 -0.0892134 0
58.3364 2.05022 0
57.0746 4.19729 0
55.7999 2.05785 0
57.0681 2.05407 0
58.3298 -0.0930631 0
60.866 -0.100999 0
60.8796 4.1855 0
58.3429 4.19344 0
59.5979 -0.0969918 0
60.8728 2.04228 0
59.6113 4.18951 0
58.3364 2.05022 0
59.6046 2.04629 0
60.866 -0.100999 0
63.4022 -0.109249 0
63.4164 4.17724 0
60.8796 4.1855 0
62.1341 -0.105085 0
63.4093 2.03403 0
62.148 4.18141 0
60.8728 2.04228 0
62.1411 2.0382 0
63.4022 -0.109249 0
65.9384 -0.117812 0
65.9531 4.16867 0
63.4164 4.17724 0
64.6703 -0.113492 0
65.9458 2.02546 0
64.6848 4.173 0
63.4093 2.03403 0
64.6775 2.02979 0
65.9384 -0.117812 0
68.4746 -0.126684 0
68.4899 4.1598 0
65.9531 4.16867 0
67.2065 -0.122209 0
68.4823 2.01659 0
67.2215 4.16427 0
65.9458 2.02546 0
67.214 2.02107 0
68.4746 -0.126684 0
71.0109 -0.135866 0
71.0266 4.15061 0
68.4899 4.1598 0
69.7428 -0.131237 0
71.0188 2.0074 0
69.7582 4.15524 0
68.4823 2.01659 0
69.7505 2.01203 0
71.0109 -0.135866 0
73.5471 -0.145354 0
73.5634 4.14111 0
71.0266 4.15061 0
72.279 -0.140572 0
73.5553 1.99791 0
72.295 4.1459 0
71.0188 2.0074 0
72.287 2.0027 0
73.5471 -0.145354 0
76.0834 -0.155147 0
76.1002 4.13131 0
73.5634 4.14111 0
74.8152 -0.150213 0
76.0918 1.98812 0
74.8318 4.13625 0
73.5553 1.99791 0
74.8235 1.99305 0
76.0834 -0.155147 0
78.6196 -0.165244 0
78.6369 4.12121 0
76.1002 4.13131 0
77.3515 -0.160158 0
78.6283 1.97802 0
77.3685 4.1263 0
76.0918 1.98812 0
77.36 1.9831 0
78.6196 -0.165244 0
81.1559 -0.175641 0
81.1737 4.1108 0
78.6369 4.12121 0
79.8878 -0.170405 0
81.1648 1.96761 0
79.9053 4.11604 0
78.6283 1.97802 0
79.8966 1.97285 0
81.1559 -0.175641 0
83.6922 -0.186339 0
83.7105 4.1001 0
81.1737 4.1108 0
82.4241 -0.180953 0
83.7014 1.95691 0
82.4421 4.10549 0
81.1648 1.96761 0
82.4331 1.9623 0
83.6922 -0.186339 0
86.2285 -0.197334 0
86.2473 4.0891 0
83.7105 4.1001 0
84.9603 -0.191799 0
86.2379 1.94591 0
84.9789 4.09464 0
83.7014 1.95691 0
84.9696 1.95145 0
86.2285 -0.197334 0
88.7648 -0.208625 0
88.7841 4.0778 0
86.2473 4.0891 0
87.4966 -0.202942 0
88.7744 1.93462 0
87.5157 4.08349 0
86.2379 1.94591 0
87.5062 1.9403 0
88.7648 -0.208625 0
91.3011 -0.22021 0
91.3209 4.06621 0
88.7841 4.0778 0
90.0329 -0.214381 0
91.311 1.92303 0
90.0525 4.07204 0
88.7744 1.93462 0
90.0427 1.92886 0
91.3011 -0.22021 0
93.8374 -0.232087 0
93.8577 4.05432 0
91.3209 4.06621 0
92.5693 -0.226112 0
93.8476 1.91115 0
92.5893 4.0603 0
91.311 1.92303 0
92.5793 1.91713 0
93.8374 -0.232087 0
96.3737 -0.244255 0
96.3945 4.04215 0
93.8577 4.05432 0
95.1056 -0.238135 0
96.3841 1.89898 0
95.1261 4.04827 0
93.8476 1.91115 0
95.1159 1.9051 0
96.3737 -0.244255 0
98.9101 -0.256711 0
98.9313 4.02969 0
96.3945 4.04215 0
97.6419 -0.250447 0
98.9207 1.88652 0
97.6629 4.03595 0
96.3841 1.89898 0
97.6524 1.89278 0
98.9101 -0.256711 0
101.446 -0.269455 0
101.468 4.01694 0
98.9313 4.02969 0
100.178 -0.263047 0
101.457 1.87377 0
100.2 4.02335 0
98.9207 1.88652 0
100.189 1.88018 0
101.446 -0.269455 0
103.983 -0.282483 0
104.005 4.0039 0
101.468 4.01694 0
102.715 -0.275933 0
103.994 1.86074 0
102.737 4.01045 0
101.457 1.87377 0
102.726 1.86729 0
103.983 -0.282483 0
106.519 -0.295795 0
106.542 3.99058 0
104.005 4.0039 0
105.251 -0.289104 0
106.531 1.84742 0
105.273 3.99728 0
103.994 1.86074 0
105.262 1.85412 0
106.519 -0.295795 0
109.056 -0.309388 0
109.079 3.97698 0
106.542 3.99058 0
107.787 -0.302556 0
109.067 1.83383 0
107.81 3.98382 0
106.531 1.84742 0
107.799 1.84066 0
109.056 -0.309388 0
111.592 -0.323261 0
111.616 3.9631 0
109.079 3.97698 0
110.324 -0.316289 0
111.604 1.81995 0
110.347 3.97008 0
109.067 1.83383 0
110.335 1.82692 0
111.592 -0.323261 0
114.128 -0.337411 0
114.152 3.94894 0
111.616 3.9631 0
112.86 -0.330301 0
114.14 1.8058 0
112.884 3.95606 0
111.604 1.81995 0
112.872 1.81291 0
114.128 -0.337411 0
116.665 -0.351838 0
116.689 3.93451 0
114.152 3.94894 0
115.397 -0.34459 0
116.677 1.79137 0
115.421 3.94176 0
114.14 1.8058 0
115.409 1.79862 0
116.665 -0.351838 0
119.201 -0.366538 0
119.226 3.9198 0
116.689 3.93451 0
117.933 -0.359154 0
119.214 1.77666 0
117.958 3.92719 0
116.677 1.79137 0
117.945 1.78405 0
119.201 -0.366538 0
121.738 -0.381511 0
121.763 3.90482 0
119.226 3.9198 0
120.469 -0.373991 0
121.75 1.76168 0
120.495 3.91235 0
119.214 1.77666 0
120.482 1.76921 0
121.738 -0.381511 0
124.274 -0.396755 0
124.3 3.88957 0
121.763 3.90482 0
123.006 -0.389099 0
124.287 1.74644 0
123.031 3.89723 0
121.75 1.76168 0
123.019 1.75409 0
124.274 -0.396755 0
126.81 -0.412267 0
126.837 3.87405 0
124.3 3.88957 0
125.542 -0.404477 0
126.824 1.73092 0
125.568 3.88184 0
124.287 1.74644 0
125.555 1.73871 0
126.81 -0.412267 0
129.347 -0.428046 0
129.374 3.85826 0
126.837 3.87405 0
128.079 -0.420123 0
129.36 1.71514 0
128.105 3.86619 0
126.824 1.73092 0
128.092 1.72306 0
129.347 -0.428046 0
131.883 -0.44409 0
131.911 3.84221 0
129.374 3.85826 0
130.615 -0.436035 0
131.897 1.69909 0
130.642 3.85027 0
129.36 1.71514 0
130.629 1.70715 0
131.883 -0.44409 0
134.42 -0.460398 0
134.448 3.8259 0
131.911 3.84221 0
133.152 -0.452211 0
134.434 1.68278 0
133.179 3.83409 0
131.897 1.69909 0
133.165 1.69097 0
134.42 -0.460398 0
136.956 -0.476967 0
136.984 3.80932 0
134.448 3.8259 0
135.688 -0.46865 0
136.97 1.6662 0
135.716 3.81764 0
134.434 1.68278 0
135.702 1.67452 0
136.956 -0.476967 0
139.493 -0.493795 0
139.521 3.79248 0
136.984 3.80932 0
138.225 -0.485349 0
139.507 1.64937 0
138.253 3.80094 0
136.97 1.6662 0
138.239 1.65782 0
139.493 -0.493795 0
142.029 -0.510882 0
142.058 3.77539 0
139.521 3.79248 0
140.761 -0.502307 0
142.044 1.63228 0
140.79 3.78397 0
139.507 1.64937 0
140.775 1.64086 0
142.029 -0.510882 0
144.566 -0.528225 0
144.595 3.75804 0
142.058 3.77539 0
143.297 -0.519521 0
144.581 1.61494 0
143.327 3.76675 0
142.044 1.63228 0
143.312 1.62364 0
144.566 -0.528225 0
147.102 -0.545821 0
147.132 3.74044 0
144.595 3.75804 0
145.834 -0.536991 0
147.117 1.59733 0
145.864 3.74927 0
144.581 1.61494 0
145.849 1.60617 0
147.102 -0.545821 0
149.639 -0.563671 0
149.669 3.72258 0
147.132 3.74044 0
148.371 -0.554714 0
149.654 1.57948 0
148.401 3.73154 0
147.117 1.59733 0
148.386 1.58844 0
149.639 -0.563671 0
152.175 -0.58177 0
152.206 3.70447 0
149.669 3.72258 0
150.907 -0.572689 0
152.191 1.56138 0
150.938 3.71356 0
149.654 1.57948 0
150.922 1.57046 0
152.175 -0.58177 0
154.712 -0.600119 0
154.743 3.68612 0
152.206 3.70447 0
153.444 -0.590914 0
154.727 1.54302 0
153.475 3.69532 0
152.191 1.56138 0
153.459 1.55223 0
154.712 -0.600119 0
157.248 -0.618714 0
157.28 3.66751 0
154.743 3.68612 0
155.98 -0.609386 0
157.264 1.52443 0
156.012 3.67684 0
154.727 1.54302 0
155.996 1.53376 0
157.248 -0.618714 0
159.785 -0.637555 0
159.817 3.64866 0
157.28 3.66751 0
158.517 -0.628104 0
159.801 1.50558 0
158.548 3.65812 0
157.264 1.52443 0
158.533 1.51503 0
159.785 -0.637555 0
162.322 -0.656639 0
162.354 3.62957 0
159.817 3.64866 0
161.053 -0.647067 0
162.338 1.48649 0
161.085 3.63915 0
159.801 1.50558 0
161.069 1.49607 0
162.322 -0.656639 0
164.858 -0.675965 0
164.891 3.61024 0
162.354 3.62957 0
163.59 -0.666272 0
164.875 1.46716 0
163.622 3.61994 0
162.338 1.48649 0
163.606 1.47686 0
164.858 -0.675965 0
167.395 -0.69553 0
167.428 3.59067 0
164.891 3.61024 0
166.126 -0.685717 0
167.411 1.44759 0
166.159 3.60048 0
164.875 1.46716 0
166.143 1.45741 0
167.395 -0.69553 0
169.931 -0.715333 0
169.965 3.57086 0
167.428 3.59067 0
168.663 -0.705402 0
169.948 1.42779 0
168.696 3.58079 0
167.411 1.44759 0
168.68 1.43772 0
169.931 -0.715333 0
172.468 -0.735372 0
172.502 3.55081 0
169.965 3.57086 0
171.2 -0.725323 0
172.485 1.40774 0
171.233 3.56086 0
169.948 1.42779 0
171.216 1.41779 0
172.468 -0.735372 0
175.004 -0.755646 0
175.039 3.53053 0
172.502 3.55081 0
173.736 -0.74548 0
175.022 1.38747 0
173.77 3.5407 0
172.485 1.40774 0
173.753 1.39763 0
175.004 -0.755646 0
177.541 -0.776152 0
177.576 3.51001 0
175.039 3.53053 0
176.273 -0.76587 0
177.559 1.36696 0
176.307 3.5203 0
175.022 1.38747 0
176.29 1.37724 0
177.541 -0.776152 0
180.078 -0.796888 0
180.113 3.48927 0
177.576 3.51001 0
178.809 -0.786491 0
180.095 1.34621 0
178.844 3.49967 0
177.559 1.36696 0
178.827 1.35661 0
180.078 -0.796888 0
182.614 -0.817854 0
182.65 3.4683 0
180.113 3.48927 0
181.346 -0.807343 0
182.632 1.32525 0
181.381 3.47881 0
180.095 1.34621 0
181.364 1.33576 0
182.614 -0.817854 0
185.151 -0.839046 0
185.187 3.4471 0
182.65 3.4683 0
183.883 -0.828422 0
185.169 1.30405 0
183.918 3.45772 0
182.632 1.32525 0
183.901 1.31468 0
185.151 -0.839046 0
187.688 -0.860464 0
187.724 3.42567 0
185.187 3.4471 0
186.419 -0.849727 0
187.706 1.28263 0
186.456 3.43641 0
185.169 1.30405 0
186.437 1.29337 0
187.688 -0.860464 0
190.224 -0.882105 0
190.261 3.40402 0
187.724 3.42567 0
188.956 -0.871257 0
190.243 1.26098 0
188.993 3.41487 0
187.706 1.28263 0
188.974 1.27183 0
190.224 -0.882105 0
192.761 -0.903968 0
192.798 3.38215 0
190.261 3.40402 0
191.493 -0.893009 0
192.78 1.23911 0
191.53 3.39311 0
190.243 1.26098 0
191.511 1.25008 0
192.761 -0.903968 0
195.298 -0.92605 0
195.335 3.36006 0
192.798 3.38215 0
194.029 -0.914981 0
195.316 1.21703 0
194.067 3.37113 0
192.78 1.23911 0
194.048 1.2281 0
195.298 -0.92605 0
197.834 -0.94835 0
197.872 3.33775 0
195.335 3.36006 0
196.566 -0.937173 0
197.853 1.19472 0
196.604 3.34893 0
195.316 1.21703 0
196.585 1.2059 0
197.834 -0.94835 0
200.371 -0.970867 0
200.409 3.31523 0
197.872 3.33775 0
199.103 -0.959582 0
200.39 1.1722 0
199.141 3.32652 0
197.853 1.19472 0
199.122 1.18349 0
200.371 -0.970867 0
202.908 -0.993597 0
202.946 3.29249 0
200.409 3.31523 0
201.639 -0.982205 0
202.927 1.14947 0
201.678 3.30388 0
200.39 1.1722 0
201.659 1.16086 0
202.908 -0.993597 0
205.445 -1.01654 0
205.483 3.26954 0
202.946 3.29249 0
204.176 -1.00504 0
205.464 1.12652 0
204.215 3.28104 0
202.927 1.14947 0
204.196 1.13802 0
205.445 -1.01654 0
207.981 -1.03969 0
208.02 3.24638 0
205.483 3.26954 0
206.713 -1.02809 0
208.001 1.10336 0
206.752 3.25798 0
205.464 1.12652 0
206.732 1.11497 0
207.981 -1.03969 0
210.518 -1.06306 0
210.558 3.223 0
208.02 3.24638 0
209.25 -1.05135 0
210.538 1.08 0
209.289 3.23472 0
208.001 1.10336 0
209.269 1.09171 0
210.518 -1.06306 0
213.055 -1.08663 0
213.095 3.19943 0
210.558 3.223 0
211.786 -1.07482 0
213.075 1.05642 0
211.826 3.21124 0
210.538 1.08 0
211.806 1.06823 0
213.055 -1.08663 0
215.591 -1.1104 0
215.632 3.17564 0
213.095 3.19943 0
214.323 -1.09849 0
215.612 1.03264 0
214.363 3.18756 0
213.075 1.05642 0
214.343 1.04456 0
215.591 -1.1104 0
218.128 -1.13438 0
218.169 3.15166 0
215.632 3.17564 0
216.86 -1.12237 0
218.149 1.00866 0
216.9 3.16368 0
215.612 1.03264 0
216.88 1.02068 0
218.128 -1.13438 0
220.665 -1.15856 0
220.706 3.12747 0
218.169 3.15166 0
219.397 -1.14645 0
220.685 0.984475 0
219.437 3.13959 0
218.149 1.00866 0
219.417 0.996592 0
220.665 -1.15856 0
223.202 -1.18294 0
223.243 3.10308 0
220.706 3.12747 0
221.933 -1.17073 0
223.222 0.960091 0
221.975 3.1153 0
220.685 0.984475 0
221.954 0.972308 0
223.202 -1.18294 0
225.739 -1.20752 0
225.78 3.0785 0
223.243 3.10308 0
224.47 -1.19521 0
225.759 0.935509 0
224.512 3.09081 0
223.222 0.960091 0
224.491 0.947825 0
225.739 -1.20752 0
228.275 -1.23229 0
228.317 3.05371 0
225.78 3.0785 0
227.007 -1.21988 0
228.296 0.91073 0
227.049 3.06613 0
225.759 0.935509 0
227.028 0.923144 0
228.275 -1.23229 0
230.812 -1.25726 0
230.854 3.02874 0
228.317 3.05371 0
229.544 -1.24475 0
230.833 0.885758 0
229.586 3.04125 0
228.296 0.91073 0
229.565 0.898268 0
230.812 -1.25726 0
233.349 -1.28242 0
233.392 3.00357 0
230.854 3.02874 0
232.081 -1.26982 0
233.37 0.860593 0
232.123 3.01618 0
230.833 0.885758 0
232.102 0.873199 0
233.349 -1.28242 0
235.886 -1.30778 0
235.929 2.97821 0
233.392 3.00357 0
234.617 -1.29508 0
235.907 0.835237 0
234.66 2.99091 0
233.37 0.860593 0
234.639 0.847938 0
235.886 -1.30778 0
238.423 -1.33332 0
238.466 2.95266 0
235.929 2.97821 0
237.154 -1.32052 0
238.444 0.809692 0
237.197 2.96546 0
235.907 0.835237 0
237.176 0.822488 0
238.423 -1.33332 0
240.959 -1.35904 0
241.003 2.92692 0
238.466 2.95266 0
239.691 -1.34616 0
240.981 0.78396 0
239.734 2.93981 0
238.444 0.809692 0
239.713 0.796849 0
240.959 -1.35904 0
243.496 -1.38496 0
243.54 2.901 0
241.003 2.92692 0
242.228 -1.37198 0
243.518 0.758042 0
242.272 2.91399 0
240.981 0.78396 0
242.25 0.771024 0
243.496 -1.38496 0
246.033 -1.41105 0
246.077 2.8749 0
243.54 2.901 0
244.765 -1.39798 0
246.055 0.731941 0
244.809 2.88797 0
243.518 0.758042 0
244.787 0.745015 0
246.033 -1.41105 0
248.57 -1.43733 0
248.615 2.84861 0
246.077 2.8749 0
247.302 -1.42417 0
248.592 0.705659 0
247.346 2.86178 0
246.055 0.731941 0
247.324 0.718823 0
248.57 -1.43733 0
251.107 -1.46379 0
251.152 2.82215 0
248.615 2.84861 0
249.838 -1.45054 0
251.129 0.679197 0
249.883 2.8354 0
248.592 0.705659 0
249.861 0.69245 0
251.107 -1.46379 0
253.644 -1.49043 0
253.689 2.7955 0
251.152 2.82215 0
252.375 -1.47709 0
253.666 0.652556 0
252.42 2.80885 0
251.129 0.679197 0
252.398 0.665899 0
253.644 -1.49043 0
256.181 -1.51724 0
256.226 2.76868 0
253.689 2.7955 0
254.912 -1.50381 0
256.203 0.62574 0
254.958 2.78211 0
253.666 0.652556 0
254.935 0.63917 0
256.181 -1.51724 0
258.718 -1.54423 0
258.763 2.74169 0
256.226 2.76868 0
257.449 -1.53071 0
258.74 0.598749 0
257.495 2.75521 0
256.203 0.62574 0
257.472 0.612266 0
258.718 -1.54423 0
261.255 -1.57139 0
261.3 2.71452 0
258.763 2.74169 0
259.986 -1.55778 0
261.278 0.571585 0
260.032 2.72812 0
258.74 0.598749 0
260.009 0.585189 0
261.255 -1.57139 0
263.791 -1.59872 0
263.838 2.68718 0
261.3 2.71452 0
262.523 -1.58503 0
263.815 0.544251 0
262.569 2.70087 0
261.278 0.571585 0
262.546 0.557939 0
263.791 -1.59872 0
266.328 -1.62622 0
266.375 2.65967 0
263.838 2.68718 0
265.06 -1.61244 0
266.352 0.516748 0
265.106 2.67345 0
263.815 0.544251 0
265.083 0.53052 0
266.328 -1.62622 0
268.865 -1.65388 0
268.912 2.632 0
266.375 2.65967 0
267.597 -1.64003 0
268.889 0.489077 0
267.644 2.64586 0
266.352 0.516748 0
267.62 0.502933 0
268.865 -1.65388 0
271.402 -1.68171 0
271.449 2.60416 0
268.912 2.632 0
270.134 -1.66778 0
271.426 0.461242 0
270.181 2.6181 0
268.889 0.489077 0
270.157 0.47518 0
271.402 -1.68171 0
273.939 -1.70971 0
273.987 2.57616 0
271.449 2.60416 0
272.671 -1.69569 0
273.963 0.433242 0
272.718 2.59018 0
271.426 0.461242 0
272.694 0.447262 0
273.939 -1.70971 0
276.476 -1.73787 0
276.524 2.54799 0
273.987 2.57616 0
275.208 -1.72377 0
276.5 0.405081 0
275.255 2.5621 0
273.963 0.433242 0
275.231 0.419182 0
276.476 -1.73787 0
279.013 -1.76618 0
279.061 2.51967 0
276.524 2.54799 0
277.745 -1.752 0
279.037 0.37676 0
277.792 2.53385 0
276.5 0.405081 0
277.769 0.390941 0
279.013 -1.76618 0
281.55 -1.79466 0
281.598 2.49119 0
279.061 2.51967 0
280.282 -1.7804 0
281.574 0.348282 0
280.33 2.50545 0
279.037 0.37676 0
280.306 0.362541 0
281.55 -1.79466 0
284.087 -1.82329 0
284.136 2.46255 0
281.598 2.49119 0
282.819 -1.80895 0
284.111 0.319646 0
282.867 2.47689 0
281.574 0.348282 0
282.843 0.333983 0
284.087 -1.82329 0
286.624 -1.85207 0
286.673 2.43375 0
284.136 2.46255 0
285.356 -1.83766 0
286.648 0.290857 0
285.404 2.44817 0
284.111 0.319646 0
285.38 0.305271 0
286.624 -1.85207 0
289.161 -1.88101 0
289.21 2.40481 0
286.673 2.43375 0
287.893 -1.86652 0
289.186 0.261914 0
287.941 2.4193 0
286.648 0.290857 0
287.917 0.276405 0
289.161 -1.88101 0
291.698 -1.9101 0
291.747 2.37571 0
289.21 2.40481 0
290.43 -1.89554 0
291.723 0.232821 0
290.479 2.39028 0
289.186 0.261914 0
290.454 0.247387 0
291.698 -1.9101 0
294.235 -1.93934 0
294.285 2.34647 0
291.747 2.37571 0
292.967 -1.9247 0
294.26 0.203579 0
293.016 2.36111 0
291.723 0.232821 0
292.991 0.218219 0
294.235 -1.93934 0
296.772 -1.96872 0
296.822 2.31707 0
294.285 2.34647 0
295.504 -1.95401 0
296.797 0.17419 0
295.553 2.33179 0
294.26 0.203579 0
295.528 0.188903 0
296.772 -1.96872 0
299.309 -1.99826 0
299.359 2.28754 0
296.822 2.31707 0
298.041 -1.98347 0
299.334 0.144655 0
298.091 2.30232 0
296.797 0.17419 0
298.066 0.159441 0
299.309 -1.99826 0
301.846 -2.02793 0
301.897 2.25785 0
299.359 2.28754 0
300.578 -2.01307 0
301.871 0.114977 0
300.628 2.27271 0
299.334 0.144655 0
300.603 0.129834 0
301.846 -2.02793 0
304.383 -2.05775 0
304.434 2.22803 0
301.897 2.25785 0
303.115 -2.04282 0
304.409 0.0851574 0
303.165 2.24296 0
301.871 0.114977 0
303.14 0.100085 0
304.383 -2.05775 0
306.92 -2.0877 0
306.971 2.19807 0
304.434 2.22803 0
305.652 -2.07271 0
306.946 0.0551976 0
305.702 2.21307 0
304.409 0.0851574 0
305.677 0.0701949 0
306.92 -2.0877 0
309.458 -2.1178 0
309.508 2.16797 0
306.971 2.19807 0
308.189 -2.10273 0
309.483 0.0250996 0
308.24 2.18303 0
306.946 0.0551976 0
308.214 0.0401658 0
309.458 -2.1178 0
311.995 -2.14803 0
312.046 2.13773 0
309.508 2.16797 0
310.726 -2.13289 0
312.02 -0.0051346 0
310.777 2.15286 0
309.483 0.0250996 0
310.752 0.00999944 0
311.995 -2.14803 0
314.532 -2.17839 0
314.583 2.10736 0
312.046 2.13773 0
313.263 -2.16319 0
314.557 -0.0355033 0
313.314 2.12256 0
312.02 -0.0051346 0
313.289 -0.0203023 0
314.532 -2.17839 0
317.069 -2.20889 0
317.12 2.07685 0
314.583 2.10736 0
315.8 -2.19362 0
317.095 -0.0660047 0
315.852 2.09212 0
314.557 -0.0355033 0
315.826 -0.0507375 0
317.069 -2.20889 0
319.606 -2.23952 0
319.658 2.04622 0
317.12 2.07685 0
318.337 -2.22419 0
319.632 -0.0966369 0
318.389 2.06155 0
317.095 -0.0660047 0
318.363 -0.0813046 0
319.606 -2.23952 0
322.143 -2.27027 0
322.195 2.01545 0
319.658 2.04622 0
320.875 -2.25488 0
322.169 -0.127398 0
320.926 2.03085 0
319.632 -0.0966369 0
320.9 -0.112002 0
322.143 -2.27027 0
324.68 -2.30116 0
324.732 1.98456 0
322.195 2.01545 0
323.412 -2.2857 0
324.706 -0.158287 0
323.464 2.00002 0
322.169 -0.127398 0
323.438 -0.142827 0
324.68 -2.30116 0
327.217 -2.33217 0
327.27 1.95354 0
324.732 1.98456 0
325.949 -2.31665 0
327.244 -0.189301 0
326.001 1.96907 0
324.706 -0.158287 0
325.975 -0.173778 0
327.217 -2.33217 0
329.755 -2.3633 0
329.807 1.9224 0
327.27 1.95354 0
328.486 -2.34772 0
329.781 -0.220438 0
328.538 1.93799 0
327.244 -0.189301 0
328.512 -0.204854 0
329.755 -2.3633 0
332.292 -2.39456 0
332.345 1.89114 0
329.807 1.9224 0
331.023 -2.37892 0
332.318 -0.251697 0
331.076 1.90678 0
329.781 -0.220438 0
331.049 -0.236053 0
332.292 -2.39456 0
334.829 -2.42593 0
334.882 1.85976 0
332.345 1.89114 0
333.56 -2.41023 0
334.855 -0.283076 0
333.613 1.87546 0
332.318 -0.251697 0
333.587 -0.267372 0
334.829 -2.42593 0
337.366 -2.45743 0
337.419 1.82825 0
334.882 1.85976 0
336.097 -2.44167 0
337.393 -0.314574 0
336.151 1.84402 0
334.855 -0.283076 0
336.124 -0.29881 0
337.366 -2.45743 0
339.903 -2.48904 0
339.957 1.79664 0
337.419 1.82825 0
338.635 -2.47322 0
339.93 -0.346187 0
338.688 1.81246 0
337.393 -0.314574 0
338.661 -0.330366 0
339.903 -2.48904 0
342.44 -2.52076 0
342.494 1.76491 0
339.957 1.79664 0
341.172 -2.50488 0
342.467 -0.377916 0
341.225 1.78079 0
339.93 -0.346187 0
341.199 -0.362037 0
342.44 -2.52076 0
344.978 -2.5526 0
345.031 1.73306 0
342.494 1.76491 0
343.709 -2.53667 0
345.005 -0.409757 0
343.763 1.749 0
342.467 -0.377916 0
343.736 -0.393822 0
344.978 -2.5526 0
347.515 -2.58455 0
347.569 1.70111 0
345.031 1.73306 0
346.246 -2.56856 0
347.542 -0.441708 0
346.3 1.7171 0
345.005 -0.409757 0
346.273 -0.425719 0
347.515 -2.58455 0
350.052 -2.6166 0
350.106 1.66904 0
347.569 1.70111 0
348.783 -2.60056 0
350.079 -0.473769 0
348.838 1.68509 0
347.542 -0.441708 0
348.811 -0.457725 0
350.052 -2.6166 0
352.589 -2.64877 0
352.644 1.63687 0
350.106 1.66904 0
351.321 -2.63267 0
352.617 -0.505937 0
351.375 1.65297 0
350.079 -0.473769 0
351.348 -0.48984 0
352.589 -2.64877 0
355.127 -2.68104 0
355.181 1.60459 0
352.644 1.63687 0
353.858 -2.66489 0
355.154 -0.538211 0
353.912 1.62075 0
352.617 -0.505937 0
353.885 -0.522061 0
355.127 -2.68104 0
357.664 -2.71341 0
357.719 1.57221 0
355.181 1.60459 0
356.395 -2.69721 0
357.691 -0.570588 0
356.45 1.58842 0
355.154 -0.538211 0
356.423 -0.554387 0
357.664 -2.71341 0
360.201 -2.74589 0
360.256 1.53973 0
357.719 1.57221 0
358.932 -2.72964 0
360.229 -0.603067 0
358.987 1.55599 0
357.691 -0.570588 0
358.96 -0.586815 0
360.201 -2.74589 0
362.738 -2.77846 0
362.793 1.50715 0
360.256 1.53973 0
361.47 -2.76216 0
362.766 -0.635646 0
361.525 1.52345 0
360.229 -0.603067 0
361.497 -0.619344 0
362.738 -2.77846 0
365.276 -2.81114 0
365.331 1.47447 0
362.793 1.50715 0
364.007 -2.79479 0
365.303 -0.668323 0
364.062 1.49082 0
362.766 -0.635646 0
364.035 -0.651972 0
365.276 -2.81114 0
367.813 -2.84391 0
367.868 1.44169 0
365.331 1.47447 0
366.544 -2.82751 0
367.841 -0.701096 0
366.6 1.45809 0
365.303 -0.668323 0
366.572 -0.684698 0
367.813 -2.84391 0
370.35 -2.87677 0
370.406 1.40882 0
367.868 1.44169 0
369.082 -2.86033 0
370.378 -0.733964 0
369.137 1.42527 0
367.841 -0.701096 0
369.109 -0.717519 0
370.35 -2.87677 0
372.888 -2.90973 0
372.943 1.37586 0
370.406 1.40882 0
371.619 -2.89324 0
372.915 -0.766925 0
371.675 1.39235 0
370.378 -0.733964 0
371.647 -0.750433 0
372.888 -2.90973 0
375.425 -2.94278 0
375.481 1.3428 0
372.943 1.37586 0
374.156 -2.92624 0
375.453 -0.799977 0
374.212 1.35934 0
372.915 -0.766925 0
374.184 -0.78344 0
375.425 -2.94278 0
377.962 -2.97591 0
378.018 1.30966 0
375.481 1.3428 0
376.694 -2.95933 0
377.99 -0.833118 0
376.75 1.32624 0
375.453 -0.799977 0
376.722 -0.816536 0
377.962 -2.97591 0
380.5 -3.00914 0
380.556 1.27643 0
378.018 1.30966 0
379.231 -2.99251 0
380.528 -0.866346 0
379.287 1.29305 0
377.99 -0.833118 0
379.259 -0.849721 0
380.5 -3.00914 0
383.037 -3.04245 0
383.093 1.24311 0
380.556 1.27643 0
381.768 -3.02578 0
383.065 -0.899659 0
381.824 1.25978 0
380.528 -0.866346 0
381.796 -0.882992 0
383.037 -3.04245 0
385.574 -3.07584 0
385.631 1.20971 0
383.093 1.24311 0
384.306 -3.05913 0
385.603 -0.933057 0
384.362 1.22642 0
383.065 -0.899659 0
384.334 -0.916348 0
385.574 -3.07584 0
388.112 -3.10932 0
388.168 1.17623 0
385.631 1.20971 0
386.843 -3.09257 0
388.14 -0.966536 0
386.899 1.19298 0
385.603 -0.933057 0
386.871 -0.949786 0
388.112 -3.10932 0
390.649 -3.14287 0
390.706 1.14267 0
388.168 1.17623 0
389.38 -3.12608 0
390.677 -1.00009 0
389.437 1.15946 0
388.14 -0.966536 0
389.409 -0.983305 0
390.649 -3.14287 0
393.186 -3.17651 0
393.243 1.10903 0
390.706 1.14267 0
391.918 -3.15968 0
393.215 -1.03373 0
391.975 1.12586 0
390.677 -1.00009 0
391.946 -1.0169 0
393.186 -3.17651 0
395.724 -3.21022 0
395.781 1.07531 0
393.243 1.10903 0
394.455 -3.19335 0
395.752 -1.06745 0
394.512 1.09218 0
393.215 -1.03373 0
394.484 -1.05058 0
395.724 -3.21022 0
398.261 -3.244 0
398.318 1.04152 0
395.781 1.07531 0
396.993 -3.2271 0
398.29 -1.10123 0
397.05 1.05842 0
395.752 -1.06745 0
397.021 -1.08433 0
398.261 -3.244 0
400.799 -3.27786 0
400.856 1.00765 0
398.318 1.04152 0
399.53 -3.26092 0
400.827 -1.13509 0
399.587 1.0246 0
398.29 -1.10123 0
399.559 -1.11816 0
400.799 -3.27786 0
403.336 -3.31179 0
403.393 0.97372 0
400.856 1.00765 0
402.067 -3.29481 0
403.365 -1.16903 0
402.125 0.990696 0
400.827 -1.13509 0
402.096 -1.15205 0
403.336 -3.31179 0
405.874 -3.34579 0
405.931 0.939716 0
403.393 0.97372 0
404.605 -3.32878 0
405.902 -1.20303 0
404.662 0.956727 0
403.365 -1.16903 0
404.634 -1.18602 0
405.874 -3.34579 0
408.411 -3.37985 0
408.469 0.905645 0
405.931 0.939716 0
407.142 -3.36281 0
408.44 -1.2371 0
407.2 0.922689 0
405.902 -1.20303 0
407.171 -1.22005 0
408.411 -3.37985 0
410.948 -3.41398 0
411.006 0.871508 0
408.469 0.905645 0
409.68 -3.39691 0
410.977 -1.27123 0
409.737 0.888584 0
408.44 -1.2371 0
409.709 -1.25416 0
410.948 -3.41398 0
413.486 -3.44818 0
413.544 0.837308 0
411.006 0.871508 0
412.217 -3.43107 0
413.515 -1.30543 0
412.275 0.854416 0
410.977 -1.27123 0
412.246 -1.28832 0
413.486 -3.44818 0
416.023 -3.48243 0
416.081 0.803045 0
413.544 0.837308 0
414.755 -3.4653 0
416.052 -1.33969 0
414.812 0.820184 0
413.515 -1.30543 0
414.784 -1.32255 0
416.023 -3.48243 0
418.561 -3.51675 0
418.619 0.768723 0
416.081 0.803045 0
417.292 -3.49958 0
418.59 -1.37401 0
417.35 0.785892 0
416.052 -1.33969 0
417.321 -1.35684 0
418.561 -3.51675 0
421.098 -3.55112 0
421.156 0.734342 0
418.619 0.768723 0
419.83 -3.53393 0
421.127 -1.40838 0
419.888 0.75154 0
418.59 -1.37401 0
419.859 -1.39119 0
421.098 -3.55112 0
423.636 -3.58555 0
423.694 0.699906 0
421.156 0.734342 0
422.367 -3.56833 0
423.665 -1.44282 0
422.425 0.717131 0
421.127 -1.40838 0
422.396 -1.42559 0
423.636 -3.58555 0
426.173 -3.62004 0
426.232 0.665414 0
423.694 0.699906 0
424.905 -3.60279 0
426.203 -1.47731 0
424.963 0.682667 0
423.665 -1.44282 0
424.934 -1.46006 0
426.173 -3.62004 0
428.711 -3.65458 0
428.769 0.63087 0
426.232 0.665414 0
427.442 -3.6373 0
428.74 -1.51185 0
427.501 0.648148 0
426.203 -1.47731 0
427.471 -1.49457 0
428.711 -3.65458 0
431.249 -3.68917 0
431.307 0.596275 0
428.769 0.63087 0
429.98 -3.67187 0
431.278 -1.54644 0
430.038 0.613578 0
428.74 -1.51185 0
430.009 -1.52914 0
431.249 -3.68917 0
433.786 -3.72381 0
433.845 0.56163 0
431.307 0.596275 0
432.517 -3.70648 0
433.815 -1.58108 0
432.576 0.578958 0
431.278 -1.54644 0
432.547 -1.56376 0
433.786 -3.72381 0
436.324 -3.75849 0
436.382 0.526939 0
433.845 0.56163 0
435.055 -3.74114 0
436.353 -1.61577 0
435.113 0.54429 0
433.815 -1.58108 0
435.084 -1.59842 0
436.324 -3.75849 0
438.861 -3.79322 0
438.92 0.492201 0
436.382 0.526939 0
437.592 -3.77585 0
438.891 -1.65051 0
437.651 0.509575 0
436.353 -1.61577 0
437.622 -1.63313 0
438.861 -3.79322 0
441.399 -3.828 0
441.458 0.45742 0
438.92 0.492201 0
440.13 -3.81061 0
441.428 -1.68528 0
440.189 0.474816 0
438.891 -1.65051 0
440.159 -1.66789 0
441.399 -3.828 0
443.936 -3.86282 0
443.995 0.422598 0
441.458 0.45742 0
442.668 -3.8454 0
443.966 -1.7201 0
442.726 0.440014 0
441.428 -1.68528 0
442.697 -1.70269 0
443.936 -3.86282 0
446.474 -3.89767 0
446.533 0.387735 0
443.995 0.422598 0
445.205 -3.88024 0
446.503 -1.75497 0
445.264 0.405171 0
443.966 -1.7201 0
445.235 -1.73753 0
446.474 -3.89767 0
449.012 -3.93257 0
449.071 0.352834 0
446.533 0.387735 0
447.743 -3.91512 0
449.041 -1.78986 0
447.802 0.370289 0
446.503 -1.75497 0
447.772 -1.77241 0
449.012 -3.93257 0
451.549 -3.9675 0
451.608 0.317896 0
449.071 0.352834 0
450.28 -3.95003 0
451.579 -1.8248 0
450.339 0.335369 0
449.041 -1.78986 0
450.31 -1.80733 0
451.549 -3.9675 0
454.087 -4.00247 0
454.146 0.282924 0
451.608 0.317896 0
452.818 -3.98498 0
454.116 -1.85977 0
452.877 0.300414 0
451.579 -1.8248 0
452.848 -1.84228 0
454.087 -4.00247 0
456.624 -4.03747 0
456.684 0.247919 0
454.146 0.282924 0
455.356 -4.01996 0
456.654 -1.89477 0
455.415 0.265426 0
454.116 -1.85977 0
455.385 -1.87727 0
456.624 -4.03747 0
459.162 -4.0725 0
459.221 0.212883 0
456.684 0.247919 0
457.893 -4.05498 0
459.192 -1.9298 0
457.952 0.230405 0
456.654 -1.89477 0
457.923 -1.91228 0
459.162 -4.0725 0
461.7 -4.10756 0
461.759 0.177818 0
459.221 0.212883 0
460.431 -4.09002 0
461.729 -1.96487 0
460.49 0.195354 0
459.192 -1.9298 0
460.461 -1.94733 0
461.7 -4.10756 0
464.237 -4.14264 0
464.297 0.142726 0
461.759 0.177818 0
462.969 -4.1251 0
464.267 -1.99996 0
463.028 0.160275 0
461.729 -1.96487 0
462.998 -1.98241 0
464.237 -4.14264 0
466.775 -4.17776 0
466.834 0.107608 0
464.297 0.142726 0
465.506 -4.1602 0
466.805 -2.03507 0
465.566 0.12517 0
464.267 -1.99996 0
465.536 -2.01751 0
466.775 -4.17776 0
469.313 -4.21289 0
469.372 0.0724664 0
466.834 0.107608 0
468.044 -4.19532 0
469.343 -2.07021 0
468.103 0.0900401 0
466.805 -2.03507 0
468.074 -2.05264 0
469.313 -4.21289 0
471.851 -4.24805 0
471.91 0.037303 0
469.372 0.0724664 0
470.582 -4.23047 0
471.88 -2.10537 0
470.641 0.0548873 0
469.343 -2.07021 0
470.611 -2.08779 0
471.851 -4.24805 0
474.388 -4.28323 0
474.448 0.00211943 0
471.91 0.037303 0
473.119 -4.26564 0
474.418 -2.14055 0
473.179 0.0197136 0
471.88 -2.10537 0
473.149 -2.12296 0
474.388 -4.28323 0
476.926 -4.31843 0
476.985 -0.0330823 0
474.448 0.00211943 0
475.657 -4.30083 0
476.956 -2.17575 0
475.717 -0.0154793 0
474.418 -2.14055 0
475.687 -2.15815 0
476.926 -4.31843 0
479.464 -4.35364 0
479.523 -0.0683003 0
476.985 -0.0330823 0
478.195 -4.33603 0
479.493 -2.21097 0
478.254 -0.0506894 0
476.956 -2.17575 0
478.225 -2.19336 0
479.464 -4.35364 0
482.001 -4.38887 0
482.061 -0.103533 0
479.523 -0.0683003 0
480.733 -4.37125 0
482.031 -2.2462 0
480.792 -0.0859149 0
479.493 -2.21097 0
480.762 -2.22858 0
482.001 -4.38887 0
484.539 -4.42411 0
484.599 -0.138778 0
482.061 -0.103533 0
483.27 -4.40649 0
484.569 -2.28144 0
483.33 -0.121154 0
482.031 -2.2462 0
483.3 -2.26382 0
484.539 -4.42411 0
487.077 -4.45936 0
487.136 -0.174035 0
484.599 -0.138778 0
485.808 -4.44173 0
487.107 -2.3167 0
485.868 -0.156405 0
484.569 -2.28144 0
485.838 -2.29907 0
487.077 -4.45936 0
489.615 -4.49462 0
489.674 -0.209301 0
487.136 -0.174035 0
488.346 -4.47699 0
489.645 -2.35196 0
488.405 -0.191667 0
487.107 -2.3167 0
488.376 -2.33433 0
489.615 -4.49462 0
492.153 -4.52989 0
492.212 -0.244579 0
489.674 -0.209301 0
490.884 -4.51226 0
492.182 -2.38723 0
490.943 -0.226938 0
489.645 -2.35196 0
490.913 -2.3696 0
492.153 -4.52989 0
494.69 -4.56518 0
494.75 -0.279869 0
492.212 -0.244579 0
493.421 -4.54753 0
494.72 -2.42252 0
493.481 -0.262222 0
492.182 -2.38723 0
493.451 -2.40488 0
494.69 -4.56518 0
497.228 -4.6005 0
497.288 -0.315182 0
494.75 -0.279869 0
495.959 -4.58284 0
497.258 -2.45784 0
496.019 -0.297522 0
494.72 -2.42252 0
495.989 -2.44018 0
497.228 -4.6005 0
499.766 -4.63596 0
499.826 -0.350508 0
497.288 -0.315182 0
498.497 -4.61819 0
499.796 -2.49323 0
498.557 -0.332846 0
497.258 -2.45784 0
498.527 -2.47553 0
0 4.28571 0
2.5367 4.28532 0
2.53727 8.57135 0
0 8.57143 0
1.26837 4.28557 0
2.53699 6.42837 0
1.26865 8.57145 0
0 6.42857 0
1.26851 6.42853 0
2.5367 4.28532 0
5.07328 4.28459 0
5.07448 8.57081 0
2.53727 8.57135 0
3.80499 4.28499 0
5.0739 6.42774 0
3.80588 8.57113 0
2.53699 6.42837 0
3.80546 6.42811 0
5.07328 4.28459 0
7.60985 4.28358 0
7.61165 8.56988 0
5.07448 8.57081 0
6.34156 4.28412 0
7.61077 6.42677 0
6.34307 8.57039 0
5.0739 6.42774 0
6.34234 6.4273 0
7.60985 4.28358 0
10.1464 4.28227 0
10.1488 8.56858 0
7.61165 8.56988 0
8.87813 4.28296 0
10.1476 6.42546 0
8.88024 8.56927 0
7.61077 6.42677 0
8.8792 6.42616 0
10.1464 4.28227 0
12.683 4.28062 0
12.686 8.56694 0
10.1488 8.56858 0
11.4147 4.28149 0
12.6845 6.42382 0
11.4174 8.56781 0
10.1476 6.42546 0
11.4161 6.42468 0
12.683 4.28062 0
15.2196 4.27864 0
15.2232 8.56496 0
12.686 8.56694 0
13.9513 4.27968 0
15.2214 6.42184 0
13.9546 8.56599 0
12.6845 6.42382 0
13.953 6.42287 0
15.2196 4.27864 0
17.7562 4.27632 0
17.7604 8.56263 0
15.2232 8.56496 0
16.4879 4.27752 0
17.7583 6.41951 0
16.4918 8.56383 0
15.2214 6.42184 0
16.4898 6.42072 0
17.7562 4.27632 0
20.2928 4.27365 0
20.2975 8.55995 0
17.7604 8.56263 0
19.0245 4.27503 0
20.2952 6.41684 0
19.0289 8.56133 0
17.7583 6.41951 0
19.0267 6.41822 0
20.2928 4.27365 0
22.8295 4.27064 0
22.8347 8.55693 0
20.2975 8.55995 0
21.5611 4.27219 0
22.8321 6.41382 0
21.5661 8.55849 0
20.2952 6.41684 0
21.5636 6.41537 0
22.8295 4.27064 0
25.3661 4.26728 0
25.372 8.55358 0
22.8347 8.55693 0
24.0978 4.269 0
25.369 6.41047 0
24.1033 8.5553 0
22.8321 6.41382 0
24.1006 6.41219 0
25.3661 4.26728 0
27.9027 4.26359 0
27.9092 8.54988 0
25.372 8.55358 0
26.6344 4.26548 0
27.9059 6.40677 0
26.6406 8.55177 0
25.369 6.41047 0
26.6375 6.40866 0
27.9027 4.26359 0
30.4394 4.25956 0
30.4464 8.54584 0
27.9092 8.54988 0
29.171 4.26162 0
30.4429 6.40274 0
29.1778 8.5479 0
27.9059 6.40677 0
29.1744 6.40479 0
30.4394 4.25956 0
32.976 4.25519 0
32.9836 8.54147 0
30.4464 8.54584 0
31.7077 4.25742 0
32.9798 6.39837 0
31.715 8.5437 0
30.4429 6.40274 0
31.7113 6.40059 0
32.976 4.25519 0
35.5127 4.25049 0
35.5208 8.53676 0
32.9836 8.54147 0
34.2443 4.25288 0
35.5167 6.39366 0
34.2522 8.53916 0
32.9798 6.39837 0
34.2483 6.39606 0
35.5127 4.25049 0
38.0493 4.24546 0
38.058 8.53173 0
35.5208 8.53676 0
36.781 4.24801 0
38.0537 6.38863 0
36.7894 8.53429 0
35.5167 6.39366 0
36.7852 6.39119 0
38.0493 4.24546 0
40.586 4.24009 0
40.5953 8.52636 0
38.058 8.53173 0
39.3177 4.24281 0
40.5906 6.38326 0
39.3267 8.52908 0
38.0537 6.38863 0
39.3222 6.38598 0
40.586 4.24009 0
43.1227 4.2344 0
43.1325 8.52066 0
40.5953 8.52636 0
41.8544 4.23729 0
43.1276 6.37756 0
41.8639 8.52355 0
40.5906 6.38326 0
41.8591 6.38045 0
43.1227 4.2344 0
45.6594 4.22838 0
45.6697 8.51464 0
43.1325 8.52066 0
44.391 4.23143 0
45.6646 6.37154 0
44.4011 8.51769 0
43.1276 6.37756 0
44.3961 6.37459 0
45.6594 4.22838 0
48.1961 4.22203 0
48.207 8.50829 0
45.6697 8.51464 0
46.9277 4.22525 0
48.2015 6.3652 0
46.9384 8.5115 0
45.6646 6.37154 0
46.933 6.36841 0
48.1961 4.22203 0
50.7328 4.21537 0
50.7442 8.50161 0
48.207 8.50829 0
49.4644 4.21874 0
50.7385 6.35853 0
49.4756 8.50499 0
48.2015 6.3652 0
49.47 6.3619 0
50.7328 4.21537 0
53.2695 4.20838 0
53.2815 8.49462 0
50.7442 8.50161 0
52.0011 4.21191 0
53.2755 6.35153 0
52.0128 8.49816 0
50.7385 6.35853 0
52.007 6.35507 0
53.2695 4.20838 0
55.8062 4.20107 0
55.8187 8.48731 0
53.2815 8.49462 0
54.5378 4.20476 0
55.8125 6.34422 0
54.5501 8.491 0
53.2755 6.35153 0
54.544 6.34792 0
55.8062 4.20107 0
58.3429 4.19344 0
58.356 8.47968 0
55.8187 8.48731 0
57.0746 4.19729 0
58.3495 6.33659 0
57.0874 8.48353 0
55.8125 6.34422 0
57.081 6.34045 0
58.3429 4.19344 0
60.8796 4.1855 0
60.8932 8.47173 0
58.356 8.47968 0
59.6113 4.18951 0
60.8865 6.32865 0
59.6246 8.47574 0
58.3495 6.33659 0
59.618 6.33266 0
60.8796 4.1855 0
63.4164 4.17724 0
63.4305 8.46347 0
60.8932 8.47173 0
62.148 4.18141 0
63.4234 6.32039 0
62.1619 8.46764 0
60.8865 6.32865 0
62.1549 6.32456 0
63.4164 4.17724 0
65.9531 4.16867 0
65.9678 8.45489 0
63.4305 8.46347 0
64.6848 4.173 0
65.9605 6.31182 0
64.6991 8.45922 0
63.4234 6.32039 0
64.692 6.31614 0
65.9531 4.16867 0
68.4899 4.1598 0
68.505 8.44601 0
65.9678 8.45489 0
67.2215 4.16427 0
68.4975 6.30294 0
67.2364 8.45049 0
65.9605 6.31182 0
67.229 6.30742 0
68.4899 4.1598 0
71.0266 4.15061 0
71.0423 8.43682 0
68.505 8.44601 0
69.7582 4.15524 0
71.0345 6.29375 0
69.7737 8.44145 0
68.4975 6.30294 0
69.766 6.29838 0
71.0266 4.15061 0
73.5634 4.14111 0
73.5796 8.42732 0
71.0423 8.43682 0
72.295 4.1459 0
73.5715 6.28425 0
72.311 8.43211 0
71.0345 6.29375 0
72.303 6.28903 0
73.5634 4.14111 0
76.1002 4.13131 0
76.1169 8.41751 0
73.5796 8.42732 0
74.8318 4.13625 0
76.1085 6.27444 0
74.8482 8.42245 0
73.5715 6.28425 0
74.84 6.27938 0
76.1002 4.13131 0
78.6369 4.12121 0
78.6542 8.4074 0
76.1169 8.41751 0
77.3685 4.1263 0
78.6455 6.26434 0
77.3855 8.4125 0
76.1085 6.27444 0
77.377 6.26943 0
78.6369 4.12121 0
81.1737 4.1108 0
81.1915 8.39699 0
78.6542 8.4074 0
79.9053 4.11604 0
81.1826 6.25393 0
79.9228 8.40224 0
78.6455 6.26434 0
79.9141 6.25917 0
81.1737 4.1108 0
83.7105 4.1001 0
83.7287 8.38629 0
81.1915 8.39699 0
82.4421 4.10549 0
83.7196 6.24322 0
82.4601 8.39168 0
81.1826 6.25393 0
82.4511 6.24862 0
83.7105 4.1001 0
86.2473 4.0891 0
86.266 8.37528 0
83.7287 8.38629 0
84.9789 4.09464 0
86.2567 6.23222 0
84.9974 8.38082 0
83.7196 6.24322 0
84.9881 6.23776 0
86.2473 4.0891 0
88.7841 4.0778 0
88.8033 8.36398 0
86.266 8.37528 0
87.5157 4.08349 0
88.7937 6.22092 0
87.5347 8.36966 0
86.2567 6.23222 0
87.5252 6.22661 0
88.7841 4.0778 0
91.3209 4.06621 0
91.3406 8.35238 0
88.8033 8.36398 0
90.0525 4.07204 0
91.3308 6.20932 0
90.072 8.35821 0
88.7937 6.22092 0
90.0622 6.21516 0
91.3209 4.06621 0
93.8577 4.05432 0
93.8779 8.34049 0
91.3406 8.35238 0
92.5893 4.0603 0
93.8678 6.19744 0
92.6093 8.34647 0
91.3308 6.20932 0
92.5993 6.20342 0
93.8577 4.05432 0
96.3945 4.04215 0
96.4152 8.32831 0
93.8779 8.34049 0
95.1261 4.04827 0
96.4049 6.18526 0
95.1466 8.33443 0
93.8678 6.19744 0
95.1364 6.19138 0
96.3945 4.04215 0
98.9313 4.02969 0
98.9526 8.31584 0
96.4152 8.32831 0
97.6629 4.03595 0
98.942 6.17279 0
97.6839 8.32211 0
96.4049 6.18526 0
97.6734 6.17906 0
98.9313 4.02969 0
101.468 4.01694 0
101.49 8.30308 0
98.9526 8.31584 0
100.2 4.02335 0
101.479 6.16004 0
100.221 8.3095 0
98.942 6.17279 0
100.21 6.16645 0
101.468 4.01694 0
104.005 4.0039 0
104.027 8.29004 0
101.49 8.30308 0
102.737 4.01045 0
104.016 6.147 0
102.759 8.2966 0
101.479 6.16004 0
102.748 6.15356 0
104.005 4.0039 0
106.542 3.99058 0
106.565 8.27672 0
104.027 8.29004 0
105.273 3.99728 0
106.553 6.13368 0
105.296 8.28341 0
104.016 6.147 0
105.285 6.14038 0
106.542 3.99058 0
109.079 3.97698 0
109.102 8.26311 0
106.565 8.27672 0
107.81 3.98382 0
109.09 6.12008 0
107.833 8.26995 0
106.553 6.13368 0
107.822 6.12691 0
109.079 3.97698 0
111.616 3.9631 0
111.639 8.24923 0
109.102 8.26311 0
110.347 3.97008 0
111.627 6.10619 0
110.37 8.2562 0
109.09 6.12008 0
110.359 6.11317 0
111.616 3.9631 0
114.152 3.94894 0
114.176 8.23506 0
111.639 8.24923 0
112.884 3.95606 0
114.164 6.09203 0
112.908 8.24218 0
111.627 6.10619 0
112.896 6.09915 0
114.152 3.94894 0
116.689 3.93451 0
116.714 8.22062 0
114.176 8.23506 0
115.421 3.94176 0
116.702 6.0776 0
115.445 8.22788 0
114.164 6.09203 0
115.433 6.08485 0
116.689 3.93451 0
119.226 3.9198 0
119.251 8.20591 0
116.714 8.22062 0
117.958 3.92719 0
119.239 6.06288 0
117.982 8.2133 0
116.702 6.0776 0
117.97 6.07027 0
119.226 3.9198 0
121.763 3.90482 0
121.788 8.19092 0
119.251 8.20591 0
120.495 3.91235 0
121.776 6.0479 0
120.52 8.19845 0
119.239 6.06288 0
120.507 6.05543 0
121.763 3.90482 0
124.3 3.88957 0
124.326 8.17567 0
121.788 8.19092 0
123.031 3.89723 0
124.313 6.03265 0
123.057 8.18333 0
121.776 6.0479 0
123.044 6.04031 0
124.3 3.88957 0
126.837 3.87405 0
126.863 8.16014 0
124.326 8.17567 0
125.568 3.88184 0
126.85 6.01712 0
125.595 8.16794 0
124.313 6.03265 0
125.581 6.02492 0
126.837 3.87405 0
129.374 3.85826 0
129.401 8.14435 0
126.863 8.16014 0
128.105 3.86619 0
129.387 6.00133 0
128.132 8.15228 0
126.85 6.01712 0
128.119 6.00926 0
129.374 3.85826 0
131.911 3.84221 0
131.938 8.12829 0
129.401 8.14435 0
130.642 3.85027 0
131.924 5.98528 0
130.669 8.13635 0
129.387 6.00133 0
130.656 5.99334 0
131.911 3.84221 0
134.448 3.8259 0
134.475 8.11197 0
131.938 8.12829 0
133.179 3.83409 0
134.461 5.96896 0
133.207 8.12016 0
131.924 5.98528 0
133.193 5.97715 0
134.448 3.8259 0
136.984 3.80932 0
137.013 8.09539 0
134.475 8.11197 0
135.716 3.81764 0
136.999 5.95238 0
135.744 8.10371 0
134.461 5.96896 0
135.73 5.9607 0
136.984 3.80932 0
139.521 3.79248 0
139.55 8.07854 0
137.013 8.09539 0
138.253 3.80094 0
139.536 5.93554 0
138.281 8.087 0
136.999 5.95238 0
138.267 5.94399 0
139.521 3.79248 0
142.058 3.77539 0
142.087 8.06144 0
139.55 8.07854 0
140.79 3.78397 0
142.073 5.91845 0
140.819 8.07003 0
139.536 5.93554 0
140.804 5.92703 0
142.058 3.77539 0
144.595 3.75804 0
144.625 8.04409 0
142.087 8.06144 0
143.327 3.76675 0
144.61 5.90109 0
143.356 8.0528 0
142.073 5.91845 0
143.341 5.9098 0
144.595 3.75804 0
147.132 3.74044 0
147.162 8.02648 0
144.625 8.04409 0
145.864 3.74927 0
147.147 5.88348 0
145.893 8.03532 0
144.61 5.90109 0
145.879 5.89232 0
147.132 3.74044 0
149.669 3.72258 0
149.699 8.00862 0
147.162 8.02648 0
148.401 3.73154 0
149.684 5.86562 0
148.431 8.01758 0
147.147 5.88348 0
148.416 5.87459 0
149.669 3.72258 0
152.206 3.70447 0
152.237 7.9905 0
149.699 8.00862 0
150.938 3.71356 0
152.221 5.84751 0
150.968 7.99959 0
149.684 5.86562 0
150.953 5.8566 0
152.206 3.70447 0
154.743 3.68612 0
154.774 7.97214 0
152.237 7.9905 0
153.475 3.69532 0
154.759 5.82915 0
153.505 7.98135 0
152.221 5.84751 0
153.49 5.83836 0
154.743 3.68612 0
157.28 3.66751 0
157.312 7.95353 0
154.774 7.97214 0
156.012 3.67684 0
157.296 5.81055 0
156.043 7.96287 0
154.759 5.82915 0
156.027 5.81988 0
157.28 3.66751 0
159.817 3.64866 0
159.849 7.93468 0
157.312 7.95353 0
158.548 3.65812 0
159.833 5.7917 0
158.58 7.94413 0
157.296 5.81055 0
158.564 5.80115 0
159.817 3.64866 0
162.354 3.62957 0
162.386 7.91558 0
159.849 7.93468 0
161.085 3.63915 0
162.37 5.7726 0
161.118 7.92516 0
159.833 5.7917 0
161.102 5.78218 0
162.354 3.62957 0
164.891 3.61024 0
164.924 7.89624 0
162.386 7.91558 0
163.622 3.61994 0
164.907 5.75326 0
163.655 7.90594 0
162.37 5.7726 0
163.639 5.76296 0
164.891 3.61024 0
167.428 3.59067 0
167.461 7.87666 0
164.924 7.89624 0
166.159 3.60048 0
167.445 5.73369 0
166.192 7.88648 0
164.907 5.75326 0
166.176 5.74351 0
167.428 3.59067 0
169.965 3.57086 0
169.998 7.85684 0
167.461 7.87666 0
168.696 3.58079 0
169.982 5.71387 0
168.73 7.86678 0
167.445 5.73369 0
168.713 5.72381 0
169.965 3.57086 0
172.502 3.55081 0
172.536 7.83679 0
169.998 7.85684 0
171.233 3.56086 0
172.519 5.69382 0
171.267 7.84684 0
169.982 5.71387 0
171.25 5.70388 0
172.502 3.55081 0
175.039 3.53053 0
175.073 7.8165 0
172.536 7.83679 0
173.77 3.5407 0
175.056 5.67354 0
173.805 7.82667 0
172.519 5.69382 0
173.787 5.68371 0
175.039 3.53053 0
177.576 3.51001 0
177.611 7.79598 0
175.073 7.8165 0
176.307 3.5203 0
177.593 5.65302 0
176.342 7.80627 0
175.056 5.67354 0
176.325 5.66331 0
177.576 3.51001 0
180.113 3.48927 0
180.148 7.77523 0
177.611 7.79598 0
178.844 3.49967 0
180.131 5.63227 0
178.879 7.78563 0
177.593 5.65302 0
178.862 5.64268 0
180.113 3.48927 0
182.65 3.4683 0
182.685 7.75425 0
180.148 7.77523 0
181.381 3.47881 0
182.668 5.6113 0
181.417 7.76477 0
180.131 5.63227 0
181.399 5.62181 0
182.65 3.4683 0
185.187 3.4471 0
185.223 7.73304 0
182.685 7.75425 0
183.918 3.45772 0
185.205 5.59009 0
183.954 7.74368 0
182.668 5.6113 0
183.936 5.60072 0
185.187 3.4471 0
187.724 3.42567 0
187.76 7.71161 0
185.223 7.73304 0
186.456 3.43641 0
187.742 5.56866 0
186.492 7.72236 0
185.205 5.59009 0
186.474 5.57941 0
187.724 3.42567 0
190.261 3.40402 0
190.298 7.68996 0
187.76 7.71161 0
188.993 3.41487 0
190.279 5.54701 0
189.029 7.70081 0
187.742 5.56866 0
189.011 5.55787 0
190.261 3.40402 0
192.798 3.38215 0
192.835 7.66808 0
190.298 7.68996 0
191.53 3.39311 0
192.817 5.52514 0
191.566 7.67905 0
190.279 5.54701 0
191.548 5.5361 0
192.798 3.38215 0
195.335 3.36006 0
195.373 7.64598 0
192.835 7.66808 0
194.067 3.37113 0
195.354 5.50304 0
194.104 7.65706 0
192.817 5.52514 0
194.085 5.51412 0
195.335 3.36006 0
197.872 3.33775 0
197.91 7.62367 0
195.373 7.64598 0
196.604 3.34893 0
197.891 5.48073 0
196.641 7.63485 0
195.354 5.50304 0
196.622 5.49192 0
197.872 3.33775 0
200.409 3.31523 0
200.447 7.60114 0
197.91 7.62367 0
199.141 3.32652 0
200.428 5.45821 0
199.179 7.61243 0
197.891 5.48073 0
199.16 5.4695 0
200.409 3.31523 0
202.946 3.29249 0
202.985 7.57839 0
200.447 7.60114 0
201.678 3.30388 0
202.966 5.43546 0
201.716 7.58979 0
200.428 5.45821 0
201.697 5.44686 0
202.946 3.29249 0
205.483 3.26954 0
205.522 7.55544 0
202.985 7.57839 0
204.215 3.28104 0
205.503 5.41251 0
204.254 7.56694 0
202.966 5.43546 0
204.234 5.42401 0
205.483 3.26954 0
208.02 3.24638 0
208.06 7.53227 0
205.522 7.55544 0
206.752 3.25798 0
208.04 5.38934 0
206.791 7.54388 0
205.503 5.41251 0
206.771 5.40095 0
208.02 3.24638 0
210.558 3.223 0
210.597 7.50889 0
208.06 7.53227 0
209.289 3.23472 0
210.577 5.36597 0
209.328 7.52061 0
208.04 5.38934 0
209.309 5.37768 0
210.558 3.223 0
213.095 3.19943 0
213.135 7.48531 0
210.597 7.50889 0
211.826 3.21124 0
213.115 5.34239 0
211.866 7.49712 0
210.577 5.36597 0
211.846 5.3542 0
213.095 3.19943 0
215.632 3.17564 0
215.672 7.46152 0
213.135 7.48531 0
214.363 3.18756 0
215.652 5.3186 0
214.403 7.47344 0
213.115 5.34239 0
214.383 5.33052 0
215.632 3.17564 0
218.169 3.15166 0
218.209 7.43752 0
215.672 7.46152 0
216.9 3.16368 0
218.189 5.29461 0
216.941 7.44955 0
215.652 5.3186 0
216.921 5.30663 0
218.169 3.15166 0
220.706 3.12747 0
220.747 7.41333 0
218.209 7.43752 0
219.437 3.13959 0
220.726 5.27042 0
219.478 7.42545 0
218.189 5.29461 0
219.458 5.28254 0
220.706 3.12747 0
223.243 3.10308 0
223.284 7.38894 0
220.747 7.41333 0
221.975 3.1153 0
223.264 5.24603 0
222.016 7.40116 0
220.726 5.27042 0
221.995 5.25825 0
223.243 3.10308 0
225.78 3.0785 0
225.822 7.36434 0
223.284 7.38894 0
224.512 3.09081 0
225.801 5.22144 0
224.553 7.37666 0
223.264 5.24603 0
224.532 5.23376 0
225.78 3.0785 0
228.317 3.05371 0
228.359 7.33955 0
225.822 7.36434 0
227.049 3.06613 0
228.338 5.19665 0
227.091 7.35197 0
225.801 5.22144 0
227.07 5.20907 0
228.317 3.05371 0
230.854 3.02874 0
230.897 7.31457 0
228.359 7.33955 0
229.586 3.04125 0
230.876 5.17168 0
229.628 7.32709 0
228.338 5.19665 0
229.607 5.18419 0
230.854 3.02874 0
233.392 3.00357 0
233.434 7.2894 0
230.897 7.31457 0
232.123 3.01618 0
233.413 5.1465 0
232.165 7.30201 0
230.876 5.17168 0
232.144 5.15911 0
233.392 3.00357 0
235.929 2.97821 0
235.972 7.26403 0
233.434 7.2894 0
234.66 2.99091 0
235.95 5.12114 0
234.703 7.27674 0
233.413 5.1465 0
234.682 5.13384 0
235.929 2.97821 0
238.466 2.95266 0
238.509 7.23848 0
235.972 7.26403 0
237.197 2.96546 0
238.488 5.09559 0
237.24 7.25128 0
235.95 5.12114 0
237.219 5.10839 0
238.466 2.95266 0
241.003 2.92692 0
241.047 7.21273 0
238.509 7.23848 0
239.734 2.93981 0
241.025 5.06985 0
239.778 7.22563 0
238.488 5.09559 0
239.756 5.08274 0
241.003 2.92692 0
243.54 2.901 0
243.584 7.18681 0
241.047 7.21273 0
242.272 2.91399 0
243.562 5.04392 0
242.315 7.19979 0
241.025 5.06985 0
242.293 5.05691 0
243.54 2.901 0
246.077 2.8749 0
246.122 7.1607 0
243.584 7.18681 0
244.809 2.88797 0
246.099 5.01782 0
244.853 7.17377 0
243.562 5.04392 0
244.831 5.03089 0
246.077 2.8749 0
248.615 2.84861 0
248.659 7.1344 0
246.122 7.1607 0
247.346 2.86178 0
248.637 4.99153 0
247.39 7.14757 0
246.099 5.01782 0
247.368 5.00469 0
248.615 2.84861 0
251.152 2.82215 0
251.196 7.10793 0
248.659 7.1344 0
249.883 2.8354 0
251.174 4.96506 0
249.928 7.12119 0
248.637 4.99153 0
249.905 4.97831 0
251.152 2.82215 0
253.689 2.7955 0
253.734 7.08128 0
251.196 7.10793 0
252.42 2.80885 0
253.711 4.93841 0
252.465 7.09463 0
251.174 4.96506 0
252.443 4.95176 0
253.689 2.7955 0
256.226 2.76868 0
256.271 7.05445 0
253.734 7.08128 0
254.958 2.78211 0
256.249 4.91159 0
255.003 7.06789 0
253.711 4.93841 0
254.98 4.92502 0
256.226 2.76868 0
258.763 2.74169 0
258.809 7.02745 0
256.271 7.05445 0
257.495 2.75521 0
258.786 4.88459 0
257.54 7.04098 0
256.249 4.91159 0
257.517 4.89811 0
258.763 2.74169 0
261.3 2.71452 0
261.346 7.00028 0
258.809 7.02745 0
260.032 2.72812 0
261.323 4.85742 0
260.078 7.01389 0
258.786 4.88459 0
260.055 4.87102 0
261.3 2.71452 0
263.838 2.68718 0
263.884 6.97294 0
261.346 7.00028 0
262.569 2.70087 0
263.861 4.83008 0
262.615 6.98663 0
261.323 4.85742 0
262.592 4.84377 0
263.838 2.68718 0
266.375 2.65967 0
266.421 6.94542 0
263.884 6.97294 0
265.106 2.67345 0
266.398 4.80257 0
265.153 6.9592 0
263.861 4.83008 0
265.13 4.81634 0
266.375 2.65967 0
268.912 2.632 0
268.959 6.91774 0
266.421 6.94542 0
267.644 2.64586 0
268.936 4.77489 0
267.69 6.9316 0
266.398 4.80257 0
267.667 4.78875 0
268.912 2.632 0
271.449 2.60416 0
271.496 6.8899 0
268.959 6.91774 0
270.181 2.6181 0
271.473 4.74705 0
270.228 6.90384 0
268.936 4.77489 0
270.204 4.76099 0
271.449 2.60416 0
273.987 2.57616 0
274.034 6.86189 0
271.496 6.8899 0
272.718 2.59018 0
274.01 4.71904 0
272.765 6.87591 0
271.473 4.74705 0
272.742 4.73306 0
273.987 2.57616 0
276.524 2.54799 0
276.571 6.83372 0
274.034 6.86189 0
275.255 2.5621 0
276.548 4.69087 0
275.303 6.84782 0
274.01 4.71904 0
275.279 4.70498 0
276.524 2.54799 0
279.061 2.51967 0
279.109 6.80539 0
276.571 6.83372 0
277.792 2.53385 0
279.085 4.66254 0
277.84 6.81957 0
276.548 4.69087 0
277.816 4.67673 0
279.061 2.51967 0
281.598 2.49119 0
281.646 6.7769 0
279.109 6.80539 0
280.33 2.50545 0
281.622 4.63406 0
280.378 6.79116 0
279.085 4.66254 0
280.354 4.64832 0
281.598 2.49119 0
284.136 2.46255 0
284.184 6.74825 0
281.646 6.7769 0
282.867 2.47689 0
284.16 4.60542 0
282.915 6.76259 0
281.622 4.63406 0
282.891 4.61976 0
284.136 2.46255 0
286.673 2.43375 0
286.722 6.71945 0
284.184 6.74825 0
285.404 2.44817 0
286.697 4.57662 0
285.453 6.73387 0
284.16 4.60542 0
285.428 4.59104 0
286.673 2.43375 0
289.21 2.40481 0
289.259 6.6905 0
286.722 6.71945 0
287.941 2.4193 0
289.235 4.54767 0
287.99 6.705 0
286.697 4.57662 0
287.966 4.56216 0
289.21 2.40481 0
291.747 2.37571 0
291.797 6.6614 0
289.259 6.6905 0
290.479 2.39028 0
291.772 4.51857 0
290.528 6.67597 0
289.235 4.54767 0
290.503 4.53314 0
291.747 2.37571 0
294.285 2.34647 0
294.334 6.63215 0
291.797 6.6614 0
293.016 2.36111 0
294.309 4.48932 0
293.065 6.64679 0
291.772 4.51857 0
293.041 4.50397 0
294.285 2.34647 0
296.822 2.31707 0
296.872 6.60275 0
294.334 6.63215 0
295.553 2.33179 0
296.847 4.45993 0
295.603 6.61747 0
294.309 4.48932 0
295.578 4.47464 0
296.822 2.31707 0
299.359 2.28754 0
299.409 6.5732 0
296.872 6.60275 0
298.091 2.30232 0
299.384 4.43039 0
298.14 6.58799 0
296.847 4.45993 0
298.115 4.44517 0
299.359 2.28754 0
301.897 2.25785 0
301.947 6.54352 0
299.409 6.5732 0
300.628 2.27271 0
301.922 4.4007 0
300.678 6.55838 0
299.384 4.43039 0
300.653 4.41556 0
301.897 2.25785 0
304.434 2.22803 0
304.484 6.51369 0
301.947 6.54352 0
303.165 2.24296 0
304.459 4.37087 0
303.215 6.52862 0
301.922 4.4007 0
303.19 4.3858 0
304.434 2.22803 0
306.971 2.19807 0
307.022 6.48372 0
304.484 6.51369 0
305.702 2.21307 0
306.996 4.34091 0
305.753 6.49872 0
304.459 4.37087 0
305.728 4.35591 0
306.971 2.19807 0
309.508 2.16797 0
309.559 6.45361 0
307.022 6.48372 0
308.24 2.18303 0
309.534 4.3108 0
308.291 6.46868 0
306.996 4.34091 0
308.265 4.32587 0
309.508 2.16797 0
312.046 2.13773 0
312.097 6.42337 0
309.559 6.45361 0
310.777 2.15286 0
312.071 4.28056 0
310.828 6.43851 0
309.534 4.3108 0
310.803 4.2957 0
312.046 2.13773 0
314.583 2.10736 0
314.634 6.39299 0
312.097 6.42337 0
313.314 2.12256 0
314.609 4.25019 0
313.366 6.4082 0
312.071 4.28056 0
313.34 4.26539 0
314.583 2.10736 0
317.12 2.07685 0
317.172 6.36248 0
314.634 6.39299 0
315.852 2.09212 0
317.146 4.21968 0
315.903 6.37775 0
314.609 4.25019 0
315.877 4.23495 0
317.12 2.07685 0
319.658 2.04622 0
319.71 6.33184 0
317.172 6.36248 0
318.389 2.06155 0
319.684 4.18904 0
318.441 6.34717 0
317.146 4.21968 0
318.415 4.20438 0
319.658 2.04622 0
322.195 2.01545 0
322.247 6.30107 0
319.71 6.33184 0
320.926 2.03085 0
322.221 4.15827 0
320.978 6.31647 0
319.684 4.18904 0
320.952 4.17367 0
322.195 2.01545 0
324.732 1.98456 0
324.785 6.27017 0
322.247 6.30107 0
323.464 2.00002 0
324.759 4.12738 0
323.516 6.28563 0
322.221 4.15827 0
323.49 4.14284 0
324.732 1.98456 0
327.27 1.95354 0
327.322 6.23915 0
324.785 6.27017 0
326.001 1.96907 0
327.296 4.09636 0
326.053 6.25467 0
324.759 4.12738 0
326.027 4.11188 0
327.27 1.95354 0
329.807 1.9224 0
329.86 6.208 0
327.322 6.23915 0
328.538 1.93799 0
329.833 4.06521 0
328.591 6.22359 0
327.296 4.09636 0
328.565 4.0808 0
329.807 1.9224 0
332.345 1.89114 0
332.397 6.17673 0
329.86 6.208 0
331.076 1.90678 0
332.371 4.03395 0
331.129 6.19238 0
329.833 4.06521 0
331.102 4.0496 0
332.345 1.89114 0
334.882 1.85976 0
334.935 6.14534 0
332.397 6.17673 0
333.613 1.87546 0
334.908 4.00256 0
333.666 6.16105 0
332.371 4.03395 0
333.64 4.01827 0
334.882 1.85976 0
337.419 1.82825 0
337.473 6.11384 0
334.935 6.14534 0
336.151 1.84402 0
337.446 3.97106 0
336.204 6.12961 0
334.908 4.00256 0
336.177 3.98682 0
337.419 1.82825 0
339.957 1.79664 0
340.01 6.08221 0
337.473 6.11384 0
338.688 1.81246 0
339.983 3.93944 0
338.741 6.09804 0
337.446 3.97106 0
338.715 3.95526 0
339.957 1.79664 0
342.494 1.76491 0
342.548 6.05048 0
340.01 6.08221 0
341.225 1.78079 0
342.521 3.9077 0
341.279 6.06636 0
339.983 3.93944 0
341.252 3.92359 0
342.494 1.76491 0
345.031 1.73306 0
345.085 6.01863 0
342.548 6.05048 0
343.763 1.749 0
345.058 3.87586 0
343.816 6.03457 0
342.521 3.9077 0
343.79 3.89179 0
345.031 1.73306 0
347.569 1.70111 0
347.623 5.98667 0
345.085 6.01863 0
346.3 1.7171 0
347.596 3.8439 0
346.354 6.00266 0
345.058 3.87586 0
346.327 3.85989 0
347.569 1.70111 0
350.106 1.66904 0
350.16 5.9546 0
347.623 5.98667 0
348.838 1.68509 0
350.133 3.81183 0
348.892 5.97065 0
347.596 3.8439 0
348.865 3.82788 0
350.106 1.66904 0
352.644 1.63687 0
352.698 5.92242 0
350.16 5.9546 0
351.375 1.65297 0
352.671 3.77966 0
351.429 5.93852 0
350.133 3.81183 0
351.402 3.79576 0
352.644 1.63687 0
355.181 1.60459 0
355.236 5.89014 0
352.698 5.92242 0
353.912 1.62075 0
355.208 3.74738 0
353.967 5.90629 0
352.671 3.77966 0
353.94 3.76353 0
355.181 1.60459 0
357.719 1.57221 0
357.773 5.85775 0
355.236 5.89014 0
356.45 1.58842 0
357.746 3.71499 0
356.504 5.87396 0
355.208 3.74738 0
356.477 3.7312 0
357.719 1.57221 0
360.256 1.53973 0
360.311 5.82527 0
357.773 5.85775 0
358.987 1.55599 0
360.283 3.68251 0
359.042 5.84152 0
357.746 3.71499 0
359.015 3.69876 0
360.256 1.53973 0
362.793 1.50715 0
362.848 5.79268 0
360.311 5.82527 0
361.525 1.52345 0
362.821 3.64992 0
361.58 5.80898 0
360.283 3.68251 0
361.552 3.66623 0
362.793 1.50715 0
365.331 1.47447 0
365.386 5.75999 0
362.848 5.79268 0
364.062 1.49082 0
365.359 3.61724 0
364.117 5.77635 0
362.821 3.64992 0
364.09 3.6336 0
365.331 1.47447 0
367.868 1.44169 0
367.924 5.72721 0
365.386 5.75999 0
366.6 1.45809 0
367.896 3.58446 0
366.655 5.74361 0
365.359 3.61724 0
366.627 3.60086 0
367.868 1.44169 0
370.406 1.40882 0
370.461 5.69433 0
367.924 5.72721 0
369.137 1.42527 0
370.434 3.55159 0
369.193 5.71078 0
367.896 3.58446 0
369.165 3.56804 0
370.406 1.40882 0
372.943 1.37586 0
372.999 5.66137 0
370.461 5.69433 0
371.675 1.39235 0
372.971 3.51862 0
371.73 5.67786 0
370.434 3.55159 0
371.702 3.53512 0
372.943 1.37586 0
375.481 1.3428 0
375.537 5.62831 0
372.999 5.66137 0
374.212 1.35934 0
375.509 3.48556 0
374.268 5.64485 0
372.971 3.51862 0
374.24 3.5021 0
375.481 1.3428 0
378.018 1.30966 0
378.074 5.59516 0
375.537 5.62831 0
376.75 1.32624 0
378.046 3.45242 0
376.805 5.61174 0
375.509 3.48556 0
376.777 3.469 0
378.018 1.30966 0
380.556 1.27643 0
380.612 5.56192 0
378.074 5.59516 0
379.287 1.29305 0
380.584 3.41918 0
379.343 5.57855 0
378.046 3.45242 0
379.315 3.43581 0
380.556 1.27643 0
383.093 1.24311 0
383.149 5.5286 0
380.612 5.56192 0
381.824 1.25978 0
383.121 3.38586 0
381.881 5.54527 0
380.584 3.41918 0
381.853 3.40253 0
383.093 1.24311 0
385.631 1.20971 0
385.687 5.49519 0
383.149 5.5286 0
384.362 1.22642 0
385.659 3.35246 0
384.418 5.51191 0
383.121 3.38586 0
384.39 3.36917 0
385.631 1.20971 0
388.168 1.17623 0
388.225 5.46171 0
385.687 5.49519 0
386.899 1.19298 0
388.197 3.31898 0
386.956 5.47846 0
385.659 3.35246 0
386.928 3.33573 0
388.168 1.17623 0
390.706 1.14267 0
390.762 5.42814 0
388.225 5.46171 0
389.437 1.15946 0
390.734 3.28541 0
389.494 5.44493 0
388.197 3.31898 0
389.465 3.3022 0
390.706 1.14267 0
393.243 1.10903 0
393.3 5.3945 0
390.762 5.42814 0
391.975 1.12586 0
393.272 3.25177 0
392.031 5.41133 0
390.734 3.28541 0
392.003 3.2686 0
393.243 1.10903 0
395.781 1.07531 0
395.838 5.36077 0
393.3 5.3945 0
394.512 1.09218 0
395.809 3.21805 0
394.569 5.37764 0
393.272 3.25177 0
394.54 3.23492 0
395.781 1.07531 0
398.318 1.04152 0
398.375 5.32698 0
395.838 5.36077 0
397.05 1.05842 0
398.347 3.18426 0
397.107 5.34388 0
395.809 3.21805 0
397.078 3.20116 0
398.318 1.04152 0
400.856 1.00765 0
400.913 5.29311 0
398.375 5.32698 0
399.587 1.0246 0
400.884 3.15039 0
399.644 5.31005 0
398.347 3.18426 0
399.616 3.16733 0
400.856 1.00765 0
403.393 0.97372 0
403.451 5.25917 0
400.913 5.29311 0
402.125 0.990696 0
403.422 3.11645 0
402.182 5.27615 0
400.884 3.15039 0
402.153 3.13343 0
403.393 0.97372 0
405.931 0.939716 0
405.988 5.22516 0
403.451 5.25917 0
404.662 0.956727 0
405.96 3.08245 0
404.72 5.24217 0
403.422 3.11645 0
404.691 3.09946 0
405.931 0.939716 0
408.469 0.905645 0
408.526 5.19108 0
405.988 5.22516 0
407.2 0.922689 0
408.497 3.04837 0
407.257 5.20813 0
405.96 3.08245 0
407.229 3.06542 0
408.469 0.905645 0
411.006 0.871508 0
411.064 5.15694 0
408.526 5.19108 0
409.737 0.888584 0
411.035 3.01423 0
409.795 5.17402 0
408.497 3.04837 0
409.766 3.03131 0
411.006 0.871508 0
413.544 0.837308 0
413.601 5.12274 0
411.064 5.15694 0
412.275 0.854416 0
413.573 2.98003 0
412.333 5.13985 0
411.035 3.01423 0
412.304 2.99714 0
413.544 0.837308 0
416.081 0.803045 0
416.139 5.08847 0
413.601 5.12274 0
414.812 0.820184 0
416.11 2.94576 0
414.87 5.10561 0
413.573 2.98003 0
414.841 2.9629 0
416.081 0.803045 0
418.619 0.768723 0
418.677 5.05415 0
416.139 5.08847 0
417.35 0.785892 0
418.648 2.91144 0
417.408 5.07132 0
416.11 2.94576 0
417.379 2.92861 0
418.619 0.768723 0
421.156 0.734342 0
421.214 5.01976 0
418.677 5.05415 0
419.888 0.75154 0
421.185 2.87706 0
419.946 5.03696 0
418.648 2.91144 0
419.917 2.89426 0
421.156 0.734342 0
423.694 0.699906 0
423.752 4.98532 0
421.214 5.01976 0
422.425 0.717131 0
423.723 2.84262 0
422.483 5.00255 0
421.185 2.87706 0
422.454 2.85984 0
423.694 0.699906 0
426.232 0.665414 0
426.29 4.95082 0
423.752 4.98532 0
424.963 0.682667 0
426.261 2.80812 0
425.021 4.96808 0
423.723 2.84262 0
424.992 2.82538 0
426.232 0.665414 0
428.769 0.63087 0
428.828 4.91627 0
426.29 4.95082 0
427.501 0.648148 0
428.798 2.77358 0
427.559 4.93356 0
426.261 2.80812 0
427.53 2.79086 0
428.769 0.63087 0
431.307 0.596275 0
431.365 4.88168 0
428.828 4.91627 0
430.038 0.613578 0
431.336 2.73898 0
430.096 4.89898 0
428.798 2.77358 0
430.067 2.75629 0
431.307 0.596275 0
433.845 0.56163 0
433.903 4.84703 0
431.365 4.88168 0
432.576 0.578958 0
433.874 2.70433 0
432.634 4.86436 0
431.336 2.73898 0
432.605 2.72166 0
433.845 0.56163 0
436.382 0.526939 0
436.441 4.81233 0
433.903 4.84703 0
435.113 0.54429 0
436.411 2.66964 0
435.172 4.82968 0
433.874 2.70433 0
435.143 2.68699 0
436.382 0.526939 0
438.92 0.492201 0
438.978 4.77759 0
436.441 4.81233 0
437.651 0.509575 0
438.949 2.6349 0
437.71 4.79497 0
436.411 2.66964 0
437.68 2.65228 0
438.92 0.492201 0
441.458 0.45742 0
441.516 4.7428 0
438.978 4.77759 0
440.189 0.474816 0
441.487 2.60012 0
440.247 4.7602 0
438.949 2.6349 0
440.218 2.61751 0
441.458 0.45742 0
443.995 0.422598 0
444.054 4.70798 0
441.516 4.7428 0
442.726 0.440014 0
444.025 2.56529 0
442.785 4.7254 0
441.487 2.60012 0
442.756 2.58271 0
443.995 0.422598 0
446.533 0.387735 0
446.592 4.67311 0
444.054 4.70798 0
445.264 0.405171 0
446.562 2.53043 0
445.323 4.69055 0
444.025 2.56529 0
445.293 2.54786 0
446.533 0.387735 0
449.071 0.352834 0
449.129 4.63821 0
446.592 4.67311 0
447.802 0.370289 0
449.1 2.49552 0
447.861 4.65566 0
446.562 2.53043 0
447.831 2.51298 0
449.071 0.352834 0
451.608 0.317896 0
451.667 4.60326 0
449.129 4.63821 0
450.339 0.335369 0
451.638 2.46058 0
450.398 4.62074 0
449.1 2.49552 0
450.369 2.47806 0
451.608 0.317896 0
454.146 0.282924 0
454.205 4.56829 0
451.667 4.60326 0
452.877 0.300414 0
454.175 2.42561 0
452.936 4.58578 0
451.638 2.46058 0
452.907 2.4431 0
454.146 0.282924 0
456.684 0.247919 0
456.743 4.53328 0
454.205 4.56829 0
455.415 0.265426 0
456.713 2.3906 0
455.474 4.55079 0
454.175 2.42561 0
455.444 2.40811 0
456.684 0.247919 0
459.221 0.212883 0
459.28 4.49824 0
456.743 4.53328 0
457.952 0.230405 0
459.251 2.35556 0
458.011 4.51576 0
456.713 2.3906 0
457.982 2.37309 0
459.221 0.212883 0
461.759 0.177818 0
461.818 4.46317 0
459.28 4.49824 0
460.49 0.195354 0
461.789 2.3205 0
460.549 4.48071 0
459.251 2.35556 0
460.52 2.33803 0
461.759 0.177818 0
464.297 0.142726 0
464.356 4.42807 0
461.818 4.46317 0
463.028 0.160275 0
464.326 2.2854 0
463.087 4.44563 0
461.789 2.3205 0
463.057 2.30295 0
464.297 0.142726 0
466.834 0.107608 0
466.894 4.39295 0
464.356 4.42807 0
465.566 0.12517 0
466.864 2.25028 0
465.625 4.41052 0
464.326 2.2854 0
465.595 2.26785 0
466.834 0.107608 0
469.372 0.0724664 0
469.431 4.35781 0
466.894 4.39295 0
468.103 0.0900401 0
469.402 2.21514 0
468.163 4.37538 0
466.864 2.25028 0
468.133 2.23271 0
469.372 0.0724664 0
471.91 0.037303 0
471.969 4.32264 0
469.431 4.35781 0
470.641 0.0548873 0
471.94 2.17997 0
470.7 4.34023 0
469.402 2.21514 0
470.671 2.19756 0
471.91 0.037303 0
474.448 0.00211943 0
474.507 4.28745 0
471.969 4.32264 0
473.179 0.0197136 0
474.477 2.14479 0
473.238 4.30505 0
471.94 2.17997 0
473.208 2.16238 0
474.448 0.00211943 0
476.985 -0.0330823 0
477.045 4.25225 0
474.507 4.28745 0
475.717 -0.0154793 0
477.015 2.10958 0
475.776 4.26985 0
474.477 2.14479 0
475.746 2.12719 0
476.985 -0.0330823 0
479.523 -0.0683003 0
479.583 4.21703 0
477.045 4.25225 0
478.254 -0.0506894 0
479.553 2.07436 0
478.314 4.23464 0
477.015 2.10958 0
478.284 2.09198 0
479.523 -0.0683003 0
482.061 -0.103533 0
482.12 4.18179 0
479.583 4.21703 0
480.792 -0.0859149 0
482.091 2.03913 0
480.851 4.19941 0
479.553 2.07436 0
480.822 2.05675 0
482.061 -0.103533 0
484.599 -0.138778 0
484.658 4.14654 0
482.12 4.18179 0
483.33 -0.121154 0
484.628 2.00388 0
483.389 4.16417 0
482.091 2.03913 0
483.36 2.02151 0
484.599 -0.138778 0
487.136 -0.174035 0
487.196 4.11128 0
484.658 4.14654 0
485.868 -0.156405 0
487.166 1.96862 0
485.927 4.12891 0
484.628 2.00388 0
485.897 1.98625 0
487.136 -0.174035 0
489.674 -0.209301 0
489.734 4.07601 0
487.196 4.11128 0
488.405 -0.191667 0
489.704 1.93335 0
488.465 4.09364 0
487.166 1.96862 0
488.435 1.95099 0
489.674 -0.209301 0
492.212 -0.244579 0
492.272 4.04073 0
489.734 4.07601 0
490.943 -0.226938 0
492.242 1.89808 0
491.003 4.05837 0
489.704 1.93335 0
490.973 1.91572 0
492.212 -0.244579 0
494.75 -0.279869 0
494.809 4.00544 0
492.272 4.04073 0
493.481 -0.262222 0
494.78 1.86279 0
493.54 4.02309 0
492.242 1.89808 0
493.511 1.88043 0
494.75 -0.279869 0
497.288 -0.315182 0
497.347 3.97016 0
494.809 4.00544 0
496.019 -0.297522 0
497.317 1.82749 0
496.078 3.9878 0
494.78 1.86279 0
496.049 1.84514 0
497.288 -0.315182 0
499.826 -0.350508 0
499.885 3.93489 0
497.347 3.97016 0
498.557 -0.332846 0
499.855 1.7922 0
498.616 3.95252 0
497.317 1.82749 0
498.586 1.80984 0
0 8.57143 0
2.53727 8.57135 0
2.53781 12.8572 0
0 12.8571 0
1.26865 8.57145 0
2.53754 10.7143 0
1.2689 12.8572 0
0 10.7143 0
1.26878 10.7144 0
2.53727 8.57135 0
5.07448 8.57081 0
5.07559 12.8567 0
2.53781 12.8572 0
3.80588 8.57113 0
5.07504 10.7138 0
3.8067 12.857 0
2.53754 10.7143 0
3.8063 10.7141 0
5.07448 8.57081 0
7.61165 8.56988 0
7.61337 12.8559 0
5.07559 12.8567 0
6.34307 8.57039 0
7.61252 10.7129 0
6.34448 12.8564 0
5.07504 10.7138 0
6.34378 10.7134 0
7.61165 8.56988 0
10.1488 8.56858 0
10.1511 12.8546 0
7.61337 12.8559 0
8.88024 8.56927 0
10.15 10.7116 0
8.88225 12.8553 0
7.61252 10.7129 0
8.88125 10.7123 0
10.1488 8.56858 0
12.686 8.56694 0
12.6889 12.853 0
10.1511 12.8546 0
11.4174 8.56781 0
12.6875 10.71 0
11.42 12.8538 0
10.15 10.7116 0
11.4187 10.7109 0
12.686 8.56694 0
15.2232 8.56496 0
15.2267 12.851 0
12.6889 12.853 0
13.9546 8.56599 0
15.2249 10.708 0
13.9578 12.852 0
12.6875 10.71 0
13.9562 10.709 0
15.2232 8.56496 0
17.7604 8.56263 0
17.7645 12.8486 0
15.2267 12.851 0
16.4918 8.56383 0
17.7624 10.7057 0
16.4956 12.8498 0
15.2249 10.708 0
16.4937 10.7069 0
17.7604 8.56263 0
20.2975 8.55995 0
20.3022 12.846 0
17.7645 12.8486 0
19.0289 8.56133 0
20.2999 10.703 0
19.0333 12.8473 0
17.7624 10.7057 0
19.0311 10.7044 0
20.2975 8.55995 0
22.8347 8.55693 0
22.84 12.8429 0
20.3022 12.846 0
21.5661 8.55849 0
22.8374 10.7 0
21.5711 12.8445 0
20.2999 10.703 0
21.5686 10.7015 0
22.8347 8.55693 0
25.372 8.55358 0
25.3778 12.8396 0
22.84 12.8429 0
24.1033 8.5553 0
25.3749 10.6966 0
24.1089 12.8413 0
22.8374 10.7 0
24.1061 10.6983 0
25.372 8.55358 0
27.9092 8.54988 0
27.9156 12.8359 0
25.3778 12.8396 0
26.6406 8.55177 0
27.9124 10.6929 0
26.6467 12.8378 0
25.3749 10.6966 0
26.6436 10.6948 0
27.9092 8.54988 0
30.4464 8.54584 0
30.4533 12.8318 0
27.9156 12.8359 0
29.1778 8.5479 0
30.4499 10.6889 0
29.1845 12.8339 0
27.9124 10.6929 0
29.1811 10.6909 0
30.4464 8.54584 0
32.9836 8.54147 0
32.9911 12.8275 0
30.4533 12.8318 0
31.715 8.5437 0
32.9874 10.6845 0
31.7222 12.8297 0
30.4499 10.6889 0
31.7186 10.6867 0
32.9836 8.54147 0
35.5208 8.53676 0
35.5289 12.8228 0
32.9911 12.8275 0
34.2522 8.53916 0
35.5249 10.6798 0
34.26 12.8252 0
32.9874 10.6845 0
34.2561 10.6822 0
35.5208 8.53676 0
38.058 8.53173 0
38.0667 12.8177 0
35.5289 12.8228 0
36.7894 8.53429 0
38.0624 10.6748 0
36.7978 12.8203 0
35.5249 10.6798 0
36.7936 10.6773 0
38.058 8.53173 0
40.5953 8.52636 0
40.6045 12.8123 0
38.0667 12.8177 0
39.3267 8.52908 0
40.5999 10.6694 0
39.3356 12.8151 0
38.0624 10.6748 0
39.3311 10.6721 0
40.5953 8.52636 0
43.1325 8.52066 0
43.1423 12.8066 0
40.6045 12.8123 0
41.8639 8.52355 0
43.1374 10.6637 0
41.8734 12.8095 0
40.5999 10.6694 0
41.8686 10.6666 0
43.1325 8.52066 0
45.6697 8.51464 0
45.6801 12.8006 0
43.1423 12.8066 0
44.4011 8.51769 0
45.6749 10.6577 0
44.4112 12.8037 0
43.1374 10.6637 0
44.4061 10.6607 0
45.6697 8.51464 0
48.207 8.50829 0
48.2179 12.7943 0
45.6801 12.8006 0
46.9384 8.5115 0
48.2124 10.6513 0
46.949 12.7975 0
45.6749 10.6577 0
46.9437 10.6545 0
48.207 8.50829 0
50.7442 8.50161 0
50.7556 12.7876 0
48.2179 12.7943 0
49.4756 8.50499 0
50.7499 10.6446 0
49.4867 12.791 0
48.2124 10.6513 0
49.4812 10.648 0
50.7442 8.50161 0
53.2815 8.49462 0
53.2934 12.7806 0
50.7556 12.7876 0
52.0128 8.49816 0
53.2875 10.6376 0
52.0245 12.7841 0
50.7499 10.6446 0
52.0187 10.6412 0
53.2815 8.49462 0
55.8187 8.48731 0
55.8312 12.7733 0
53.2934 12.7806 0
54.5501 8.491 0
55.825 10.6303 0
54.5623 12.777 0
53.2875 10.6376 0
54.5562 10.634 0
55.8187 8.48731 0
58.356 8.47968 0
58.369 12.7656 0
55.8312 12.7733 0
57.0874 8.48353 0
58.3625 10.6227 0
57.1001 12.7695 0
55.825 10.6303 0
57.0937 10.6265 0
58.356 8.47968 0
60.8932 8.47173 0
60.9068 12.7577 0
58.369 12.7656 0
59.6246 8.47574 0
60.9 10.6147 0
59.6379 12.7617 0
58.3625 10.6227 0
59.6313 10.6188 0
60.8932 8.47173 0
63.4305 8.46347 0
63.4446 12.7494 0
60.9068 12.7577 0
62.1619 8.46764 0
63.4376 10.6065 0
62.1757 12.7536 0
60.9 10.6147 0
62.1688 10.6107 0
63.4305 8.46347 0
65.9678 8.45489 0
65.9824 12.7408 0
63.4446 12.7494 0
64.6991 8.45922 0
65.9751 10.5979 0
64.7135 12.7452 0
63.4376 10.6065 0
64.7063 10.6022 0
65.9678 8.45489 0
68.505 8.44601 0
68.5202 12.732 0
65.9824 12.7408 0
67.2364 8.45049 0
68.5126 10.589 0
67.2513 12.7364 0
65.9751 10.5979 0
67.2439 10.5935 0
68.505 8.44601 0
71.0423 8.43682 0
71.058 12.7228 0
68.5202 12.732 0
69.7737 8.44145 0
71.0502 10.5798 0
69.7891 12.7274 0
68.5126 10.589 0
69.7814 10.5845 0
71.0423 8.43682 0
73.5796 8.42732 0
73.5958 12.7133 0
71.058 12.7228 0
72.311 8.43211 0
73.5877 10.5703 0
72.3269 12.7181 0
71.0502 10.5798 0
72.3189 10.5751 0
73.5796 8.42732 0
76.1169 8.41751 0
76.1336 12.7035 0
73.5958 12.7133 0
74.8482 8.42245 0
76.1252 10.5605 0
74.8647 12.7084 0
73.5877 10.5703 0
74.8565 10.5655 0
76.1169 8.41751 0
78.6542 8.4074 0
78.6714 12.6933 0
76.1336 12.7035 0
77.3855 8.4125 0
78.6628 10.5504 0
77.4025 12.6984 0
76.1252 10.5605 0
77.394 10.5555 0
78.6542 8.4074 0
81.1915 8.39699 0
81.2092 12.6829 0
78.6714 12.6933 0
79.9228 8.40224 0
81.2003 10.54 0
79.9403 12.6882 0
78.6628 10.5504 0
79.9315 10.5452 0
81.1915 8.39699 0
83.7287 8.38629 0
83.747 12.6722 0
81.2092 12.6829 0
82.4601 8.39168 0
83.7379 10.5293 0
82.4781 12.6776 0
81.2003 10.54 0
82.4691 10.5347 0
83.7287 8.38629 0
86.266 8.37528 0
86.2848 12.6612 0
83.747 12.6722 0
84.9974 8.38082 0
86.2754 10.5183 0
85.0159 12.6667 0
83.7379 10.5293 0
85.0066 10.5238 0
86.266 8.37528 0
88.8033 8.36398 0
88.8226 12.6499 0
86.2848 12.6612 0
87.5347 8.36966 0
88.8129 10.507 0
87.5537 12.6556 0
86.2754 10.5183 0
87.5442 10.5127 0
88.8033 8.36398 0
91.3406 8.35238 0
91.3603 12.6383 0
88.8226 12.6499 0
90.072 8.35821 0
91.3505 10.4954 0
90.0914 12.6441 0
88.8129 10.507 0
90.0817 10.5012 0
91.3406 8.35238 0
93.8779 8.34049 0
93.8981 12.6264 0
91.3603 12.6383 0
92.6093 8.34647 0
93.888 10.4835 0
92.6292 12.6324 0
91.3505 10.4954 0
92.6193 10.4895 0
93.8779 8.34049 0
96.4152 8.32831 0
96.4359 12.6142 0
93.8981 12.6264 0
95.1466 8.33443 0
96.4256 10.4713 0
95.167 12.6203 0
93.888 10.4835 0
95.1568 10.4774 0
96.4152 8.32831 0
98.9526 8.31584 0
98.9737 12.6017 0
96.4359 12.6142 0
97.6839 8.32211 0
98.9632 10.4588 0
97.7048 12.608 0
96.4256 10.4713 0
97.6944 10.4651 0
98.9526 8.31584 0
101.49 8.30308 0
101.512 12.589 0
98.9737 12.6017 0
100.221 8.3095 0
101.501 10.4461 0
100.243 12.5954 0
98.9632 10.4588 0
100.232 10.4525 0
101.49 8.30308 0
104.027 8.29004 0
104.049 12.5759 0
101.512 12.589 0
102.759 8.2966 0
104.038 10.433 0
102.78 12.5825 0
101.501 10.4461 0
102.769 10.4396 0
104.027 8.29004 0
106.565 8.27672 0
106.587 12.5626 0
104.049 12.5759 0
105.296 8.28341 0
106.576 10.4197 0
105.318 12.5693 0
104.038 10.433 0
105.307 10.4264 0
106.565 8.27672 0
109.102 8.26311 0
109.125 12.549 0
106.587 12.5626 0
107.833 8.26995 0
109.113 10.4061 0
107.856 12.5558 0
106.576 10.4197 0
107.845 10.4129 0
109.102 8.26311 0
111.639 8.24923 0
111.663 12.5351 0
109.125 12.549 0
110.37 8.2562 0
111.651 10.3922 0
110.394 12.5421 0
109.113 10.4061 0
110.382 10.3992 0
111.639 8.24923 0
114.176 8.23506 0
114.201 12.5209 0
111.663 12.5351 0
112.908 8.24218 0
114.189 10.378 0
112.932 12.5281 0
111.651 10.3922 0
112.92 10.3852 0
114.176 8.23506 0
116.714 8.22062 0
116.738 12.5065 0
114.201 12.5209 0
115.445 8.22788 0
116.726 10.3636 0
115.469 12.5138 0
114.189 10.378 0
115.457 10.3708 0
116.714 8.22062 0
119.251 8.20591 0
119.276 12.4918 0
116.738 12.5065 0
117.982 8.2133 0
119.264 10.3489 0
118.007 12.4992 0
116.726 10.3636 0
117.995 10.3563 0
119.251 8.20591 0
121.788 8.19092 0
121.814 12.4768 0
119.276 12.4918 0
120.52 8.19845 0
121.801 10.3339 0
120.545 12.4843 0
119.264 10.3489 0
120.532 10.3414 0
121.788 8.19092 0
124.326 8.17567 0
124.352 12.4615 0
121.814 12.4768 0
123.057 8.18333 0
124.339 10.3186 0
123.083 12.4692 0
121.801 10.3339 0
123.07 10.3263 0
124.326 8.17567 0
126.863 8.16014 0
126.89 12.446 0
124.352 12.4615 0
125.595 8.16794 0
126.876 10.3031 0
125.621 12.4538 0
124.339 10.3186 0
125.608 10.3109 0
126.863 8.16014 0
129.401 8.14435 0
129.427 12.4302 0
126.89 12.446 0
128.132 8.15228 0
129.414 10.2873 0
128.158 12.4381 0
126.876 10.3031 0
128.145 10.2952 0
129.401 8.14435 0
131.938 8.12829 0
131.965 12.4141 0
129.427 12.4302 0
130.669 8.13635 0
131.951 10.2712 0
130.696 12.4222 0
129.414 10.2873 0
130.683 10.2793 0
131.938 8.12829 0
134.475 8.11197 0
134.503 12.3978 0
131.965 12.4141 0
133.207 8.12016 0
134.489 10.2549 0
133.234 12.406 0
131.951 10.2712 0
133.22 10.2631 0
134.475 8.11197 0
137.013 8.09539 0
137.041 12.3812 0
134.503 12.3978 0
135.744 8.10371 0
137.027 10.2383 0
135.772 12.3896 0
134.489 10.2549 0
135.758 10.2467 0
137.013 8.09539 0
139.55 8.07854 0
139.578 12.3644 0
137.041 12.3812 0
138.281 8.087 0
139.564 10.2215 0
138.31 12.3728 0
137.027 10.2383 0
138.295 10.2299 0
139.55 8.07854 0
142.087 8.06144 0
142.116 12.3473 0
139.578 12.3644 0
140.819 8.07003 0
142.102 10.2044 0
140.847 12.3559 0
139.564 10.2215 0
140.833 10.213 0
142.087 8.06144 0
144.625 8.04409 0
144.654 12.3299 0
142.116 12.3473 0
143.356 8.0528 0
144.639 10.187 0
143.385 12.3386 0
142.102 10.2044 0
143.371 10.1957 0
144.625 8.04409 0
147.162 8.02648 0
147.192 12.3123 0
144.654 12.3299 0
145.893 8.03532 0
147.177 10.1694 0
145.923 12.3211 0
144.639 10.187 0
145.908 10.1783 0
147.162 8.02648 0
149.699 8.00862 0
149.73 12.2944 0
147.192 12.3123 0
148.431 8.01758 0
149.715 10.1516 0
148.461 12.3034 0
147.177 10.1694 0
148.446 10.1605 0
149.699 8.00862 0
152.237 7.9905 0
152.267 12.2763 0
149.73 12.2944 0
150.968 7.99959 0
152.252 10.1334 0
150.999 12.2854 0
149.715 10.1516 0
150.983 10.1425 0
152.237 7.9905 0
154.774 7.97214 0
154.805 12.258 0
152.267 12.2763 0
153.505 7.98135 0
154.79 10.1151 0
153.536 12.2672 0
152.252 10.1334 0
153.521 10.1243 0
154.774 7.97214 0
157.312 7.95353 0
157.343 12.2393 0
154.805 12.258 0
156.043 7.96287 0
157.327 10.0965 0
156.074 12.2487 0
154.79 10.1151 0
156.059 10.1058 0
157.312 7.95353 0
159.849 7.93468 0
159.881 12.2205 0
157.343 12.2393 0
158.58 7.94413 0
159.865 10.0776 0
158.612 12.2299 0
157.327 10.0965 0
158.596 10.0871 0
159.849 7.93468 0
162.386 7.91558 0
162.419 12.2014 0
159.881 12.2205 0
161.118 7.92516 0
162.402 10.0585 0
161.15 12.211 0
159.865 10.0776 0
161.134 10.0681 0
162.386 7.91558 0
164.924 7.89624 0
164.956 12.182 0
162.419 12.2014 0
163.655 7.90594 0
164.94 10.0392 0
163.688 12.1917 0
162.402 10.0585 0
163.671 10.0489 0
164.924 7.89624 0
167.461 7.87666 0
167.494 12.1624 0
164.956 12.182 0
166.192 7.88648 0
167.478 10.0196 0
166.225 12.1723 0
164.94 10.0392 0
166.209 10.0294 0
167.461 7.87666 0
169.998 7.85684 0
170.032 12.1426 0
167.494 12.1624 0
168.73 7.86678 0
170.015 9.99976 0
168.763 12.1526 0
167.478 10.0196 0
168.746 10.0097 0
169.998 7.85684 0
172.536 7.83679 0
172.57 12.1226 0
170.032 12.1426 0
171.267 7.84684 0
172.553 9.9797 0
171.301 12.1326 0
170.015 9.99976 0
171.284 9.98976 0
172.536 7.83679 0
175.073 7.8165 0
175.108 12.1023 0
172.57 12.1226 0
173.805 7.82667 0
175.09 9.95941 0
173.839 12.1125 0
172.553 9.9797 0
173.822 9.96959 0
175.073 7.8165 0
177.611 7.79598 0
177.645 12.0818 0
175.108 12.1023 0
176.342 7.80627 0
177.628 9.93889 0
176.377 12.092 0
175.09 9.95941 0
176.359 9.94918 0
177.611 7.79598 0
180.148 7.77523 0
180.183 12.061 0
177.645 12.0818 0
178.879 7.78563 0
180.166 9.91814 0
178.914 12.0714 0
177.628 9.93889 0
178.897 9.92854 0
180.148 7.77523 0
182.685 7.75425 0
182.721 12.04 0
180.183 12.061 0
181.417 7.76477 0
182.703 9.89716 0
181.452 12.0505 0
180.166 9.91814 0
181.434 9.90767 0
182.685 7.75425 0
185.223 7.73304 0
185.259 12.0188 0
182.721 12.04 0
183.954 7.74368 0
185.241 9.87595 0
183.99 12.0294 0
182.703 9.89716 0
183.972 9.88658 0
185.223 7.73304 0
187.76 7.71161 0
187.797 11.9974 0
185.259 12.0188 0
186.492 7.72236 0
187.778 9.85451 0
186.528 12.0081 0
185.241 9.87595 0
186.51 9.86526 0
187.76 7.71161 0
190.298 7.68996 0
190.334 11.9757 0
187.797 11.9974 0
189.029 7.70081 0
190.316 9.83285 0
189.065 11.9866 0
187.778 9.85451 0
189.047 9.84371 0
190.298 7.68996 0
192.835 7.66808 0
192.872 11.9538 0
190.334 11.9757 0
191.566 7.67905 0
192.854 9.81097 0
191.603 11.9648 0
190.316 9.83285 0
191.585 9.82194 0
192.835 7.66808 0
195.373 7.64598 0
195.41 11.9317 0
192.872 11.9538 0
194.104 7.65706 0
195.391 9.78888 0
194.141 11.9428 0
192.854 9.81097 0
194.122 9.79995 0
195.373 7.64598 0
197.91 7.62367 0
197.948 11.9094 0
195.41 11.9317 0
196.641 7.63485 0
197.929 9.76656 0
196.679 11.9206 0
195.391 9.78888 0
196.66 9.77774 0
197.91 7.62367 0
200.447 7.60114 0
200.486 11.8869 0
197.948 11.9094 0
199.179 7.61243 0
200.466 9.74403 0
199.217 11.8982 0
197.929 9.76656 0
199.198 9.75532 0
200.447 7.60114 0
202.985 7.57839 0
203.023 11.8641 0
200.486 11.8869 0
201.716 7.58979 0
203.004 9.72128 0
201.754 11.8755 0
200.466 9.74403 0
201.735 9.73268 0
202.985 7.57839 0
205.522 7.55544 0
205.561 11.8412 0
203.023 11.8641 0
204.254 7.56694 0
205.542 9.69832 0
204.292 11.8527 0
203.004 9.72128 0
204.273 9.70982 0
205.522 7.55544 0
208.06 7.53227 0
208.099 11.818 0
205.561 11.8412 0
206.791 7.54388 0
208.079 9.67515 0
206.83 11.8296 0
205.542 9.69832 0
206.81 9.68676 0
208.06 7.53227 0
210.597 7.50889 0
210.637 11.7946 0
208.099 11.818 0
209.328 7.52061 0
210.617 9.65177 0
209.368 11.8063 0
208.079 9.67515 0
209.348 9.66348 0
210.597 7.50889 0
213.135 7.48531 0
213.174 11.771 0
210.637 11.7946 0
211.866 7.49712 0
213.155 9.62818 0
211.906 11.7828 0
210.617 9.65177 0
211.886 9.64 0
213.135 7.48531 0
215.672 7.46152 0
215.712 11.7472 0
213.174 11.771 0
214.403 7.47344 0
215.692 9.60439 0
214.443 11.7591 0
213.155 9.62818 0
214.423 9.61631 0
215.672 7.46152 0
218.209 7.43752 0
218.25 11.7232 0
215.712 11.7472 0
216.941 7.44955 0
218.23 9.58039 0
216.981 11.7352 0
215.692 9.60439 0
216.961 9.59242 0
218.209 7.43752 0
220.747 7.41333 0
220.788 11.699 0
218.25 11.7232 0
219.478 7.42545 0
220.767 9.5562 0
219.519 11.7111 0
218.23 9.58039 0
219.499 9.56832 0
220.747 7.41333 0
223.284 7.38894 0
223.326 11.6746 0
220.788 11.699 0
222.016 7.40116 0
223.305 9.5318 0
222.057 11.6868 0
220.767 9.5562 0
222.036 9.54402 0
223.284 7.38894 0
225.822 7.36434 0
225.863 11.65 0
223.326 11.6746 0
224.553 7.37666 0
225.843 9.5072 0
224.595 11.6623 0
223.305 9.5318 0
224.574 9.51953 0
225.822 7.36434 0
228.359 7.33955 0
228.401 11.6252 0
225.863 11.65 0
227.091 7.35197 0
228.38 9.48241 0
227.132 11.6377 0
225.843 9.5072 0
227.111 9.49483 0
228.359 7.33955 0
230.897 7.31457 0
230.939 11.6002 0
228.401 11.6252 0
229.628 7.32709 0
230.918 9.45743 0
229.67 11.6128 0
228.38 9.48241 0
229.649 9.46994 0
230.897 7.31457 0
233.434 7.2894 0
233.477 11.5751 0
230.939 11.6002 0
232.165 7.30201 0
233.455 9.43225 0
232.208 11.5877 0
230.918 9.45743 0
232.187 9.44486 0
233.434 7.2894 0
235.972 7.26403 0
236.015 11.5497 0
233.477 11.5751 0
234.703 7.27674 0
235.993 9.40688 0
234.746 11.5624 0
233.455 9.43225 0
234.724 9.41959 0
235.972 7.26403 0
238.509 7.23848 0
238.552 11.5241 0
236.015 11.5497 0
237.24 7.25128 0
238.531 9.38132 0
237.283 11.5369 0
235.993 9.40688 0
237.262 9.39413 0
238.509 7.23848 0
241.047 7.21273 0
241.09 11.4984 0
238.552 11.5241 0
239.778 7.22563 0
241.068 9.35558 0
239.821 11.5113 0
238.531 9.38132 0
239.8 9.36847 0
241.047 7.21273 0
243.584 7.18681 0
243.628 11.4725 0
241.09 11.4984 0
242.315 7.19979 0
243.606 9.32965 0
242.359 11.4854 0
241.068 9.35558 0
242.337 9.34264 0
243.584 7.18681 0
246.122 7.1607 0
246.166 11.4463 0
243.628 11.4725 0
244.853 7.17377 0
246.144 9.30354 0
244.897 11.4594 0
243.606 9.32965 0
244.875 9.31662 0
246.122 7.1607 0
248.659 7.1344 0
248.703 11.42 0
246.166 11.4463 0
247.39 7.14757 0
248.681 9.27724 0
247.435 11.4332 0
246.144 9.30354 0
247.412 9.29041 0
248.659 7.1344 0
251.196 7.10793 0
251.241 11.3936 0
248.703 11.42 0
249.928 7.12119 0
251.219 9.25077 0
249.972 11.4068 0
248.681 9.27724 0
249.95 9.26403 0
251.196 7.10793 0
253.734 7.08128 0
253.779 11.3669 0
251.241 11.3936 0
252.465 7.09463 0
253.756 9.22411 0
252.51 11.3803 0
251.219 9.25077 0
252.488 9.23746 0
253.734 7.08128 0
256.271 7.05445 0
256.317 11.3401 0
253.779 11.3669 0
255.003 7.06789 0
256.294 9.19728 0
255.048 11.3535 0
253.756 9.22411 0
255.025 9.21072 0
256.271 7.05445 0
258.809 7.02745 0
258.855 11.3131 0
256.317 11.3401 0
257.54 7.04098 0
258.832 9.17028 0
257.586 11.3266 0
256.294 9.19728 0
257.563 9.1838 0
258.809 7.02745 0
261.346 7.00028 0
261.392 11.2859 0
258.855 11.3131 0
260.078 7.01389 0
261.369 9.14311 0
260.123 11.2995 0
258.832 9.17028 0
260.101 9.15671 0
261.346 7.00028 0
263.884 6.97294 0
263.93 11.2585 0
261.392 11.2859 0
262.615 6.98663 0
263.907 9.11576 0
262.661 11.2722 0
261.369 9.14311 0
262.638 9.12945 0
263.884 6.97294 0
266.421 6.94542 0
266.468 11.231 0
263.93 11.2585 0
265.153 6.9592 0
266.445 9.08824 0
265.199 11.2448 0
263.907 9.11576 0
265.176 9.10202 0
266.421 6.94542 0
268.959 6.91774 0
269.006 11.2033 0
266.468 11.231 0
267.69 6.9316 0
268.982 9.06056 0
267.737 11.2172 0
266.445 9.08824 0
267.713 9.07442 0
268.959 6.91774 0
271.496 6.8899 0
271.543 11.1755 0
269.006 11.2033 0
270.228 6.90384 0
271.52 9.03271 0
270.275 11.1894 0
268.982 9.06056 0
270.251 9.04666 0
271.496 6.8899 0
274.034 6.86189 0
274.081 11.1475 0
271.543 11.1755 0
272.765 6.87591 0
274.058 9.0047 0
272.812 11.1615 0
271.52 9.03271 0
272.789 9.01873 0
274.034 6.86189 0
276.571 6.83372 0
276.619 11.1193 0
274.081 11.1475 0
275.303 6.84782 0
276.595 8.97653 0
275.35 11.1334 0
274.058 9.0047 0
275.326 8.99063 0
276.571 6.83372 0
279.109 6.80539 0
279.157 11.091 0
276.619 11.1193 0
277.84 6.81957 0
279.133 8.94819 0
277.888 11.1052 0
276.595 8.97653 0
277.864 8.96238 0
279.109 6.80539 0
281.646 6.7769 0
281.695 11.0625 0
279.157 11.091 0
280.378 6.79116 0
281.671 8.9197 0
280.426 11.0767 0
279.133 8.94819 0
280.402 8.93397 0
281.646 6.7769 0
284.184 6.74825 0
284.232 11.0338 0
281.695 11.0625 0
282.915 6.76259 0
284.208 8.89106 0
282.963 11.0482 0
281.671 8.9197 0
282.939 8.9054 0
284.184 6.74825 0
286.722 6.71945 0
286.77 11.005 0
284.232 11.0338 0
285.453 6.73387 0
286.746 8.86225 0
285.501 11.0194 0
284.208 8.89106 0
285.477 8.87667 0
286.722 6.71945 0
289.259 6.6905 0
289.308 10.9761 0
286.77 11.005 0
287.99 6.705 0
289.283 8.8333 0
288.039 10.9906 0
286.746 8.86225 0
288.015 8.8478 0
289.259 6.6905 0
291.797 6.6614 0
291.846 10.947 0
289.308 10.9761 0
290.528 6.67597 0
291.821 8.80419 0
290.577 10.9615 0
289.283 8.8333 0
290.552 8.81877 0
291.797 6.6614 0
294.334 6.63215 0
294.383 10.9177 0
291.846 10.947 0
293.065 6.64679 0
294.359 8.77494 0
293.115 10.9323 0
291.821 8.80419 0
293.09 8.78959 0
294.334 6.63215 0
296.872 6.60275 0
296.921 10.8883 0
294.383 10.9177 0
295.603 6.61747 0
296.896 8.74554 0
295.652 10.903 0
294.359 8.77494 0
295.628 8.76026 0
296.872 6.60275 0
299.409 6.5732 0
299.459 10.8588 0
296.921 10.8883 0
298.14 6.58799 0
299.434 8.71599 0
298.19 10.8735 0
296.896 8.74554 0
298.165 8.73078 0
299.409 6.5732 0
301.947 6.54352 0
301.997 10.8291 0
299.459 10.8588 0
300.678 6.55838 0
301.972 8.6863 0
300.728 10.8439 0
299.434 8.71599 0
300.703 8.70117 0
301.947 6.54352 0
304.484 6.51369 0
304.535 10.7992 0
301.997 10.8291 0
303.215 6.52862 0
304.509 8.65647 0
303.266 10.8142 0
301.972 8.6863 0
303.241 8.6714 0
304.484 6.51369 0
307.022 6.48372 0
307.072 10.7693 0
304.535 10.7992 0
305.753 6.49872 0
307.047 8.6265 0
305.803 10.7843 0
304.509 8.65647 0
305.778 8.6415 0
307.022 6.48372 0
309.559 6.45361 0
309.61 10.7391 0
307.072 10.7693 0
308.291 6.46868 0
309.585 8.59639 0
308.341 10.7542 0
307.047 8.6265 0
308.316 8.61146 0
309.559 6.45361 0
312.097 6.42337 0
312.148 10.7089 0
309.61 10.7391 0
310.828 6.43851 0
312.122 8.56614 0
310.879 10.724 0
309.585 8.59639 0
310.854 8.58128 0
312.097 6.42337 0
314.634 6.39299 0
314.686 10.6785 0
312.148 10.7089 0
313.366 6.4082 0
314.66 8.53576 0
313.417 10.6937 0
312.122 8.56614 0
313.391 8.55097 0
314.634 6.39299 0
317.172 6.36248 0
317.223 10.648 0
314.686 10.6785 0
315.903 6.37775 0
317.198 8.50525 0
315.955 10.6633 0
314.66 8.53576 0
315.929 8.52052 0
317.172 6.36248 0
319.71 6.33184 0
319.761 10.6173 0
317.223 10.648 0
318.441 6.34717 0
319.735 8.47461 0
318.492 10.6327 0
317.198 8.50525 0
318.467 8.48995 0
319.71 6.33184 0
322.247 6.30107 0
322.299 10.5866 0
319.761 10.6173 0
320.978 6.31647 0
322.273 8.44383 0
321.03 10.602 0
319.735 8.47461 0
321.004 8.45924 0
322.247 6.30107 0
324.785 6.27017 0
324.837 10.5557 0
322.299 10.5866 0
323.516 6.28563 0
324.811 8.41293 0
323.568 10.5711 0
322.273 8.44383 0
323.542 8.4284 0
324.785 6.27017 0
327.322 6.23915 0
327.375 10.5246 0
324.837 10.5557 0
326.053 6.25467 0
327.348 8.38191 0
326.106 10.5402 0
324.811 8.41293 0
326.08 8.39744 0
327.322 6.23915 0
329.86 6.208 0
329.912 10.4935 0
327.375 10.5246 0
328.591 6.22359 0
329.886 8.35076 0
328.643 10.5091 0
327.348 8.38191 0
328.617 8.36635 0
329.86 6.208 0
332.397 6.17673 0
332.45 10.4622 0
329.912 10.4935 0
331.129 6.19238 0
332.424 8.31949 0
331.181 10.4779 0
329.886 8.35076 0
331.155 8.33514 0
332.397 6.17673 0
334.935 6.14534 0
334.988 10.4308 0
332.45 10.4622 0
333.666 6.16105 0
334.961 8.2881 0
333.719 10.4465 0
332.424 8.31949 0
333.693 8.30381 0
334.935 6.14534 0
337.473 6.11384 0
337.526 10.3993 0
334.988 10.4308 0
336.204 6.12961 0
337.499 8.25659 0
336.257 10.4151 0
334.961 8.2881 0
336.23 8.27236 0
337.473 6.11384 0
340.01 6.08221 0
340.063 10.3677 0
337.526 10.3993 0
338.741 6.09804 0
340.037 8.22497 0
338.795 10.3835 0
337.499 8.25659 0
338.768 8.24079 0
340.01 6.08221 0
342.548 6.05048 0
342.601 10.336 0
340.063 10.3677 0
341.279 6.06636 0
342.574 8.19323 0
341.332 10.3518 0
340.037 8.22497 0
341.306 8.20911 0
342.548 6.05048 0
345.085 6.01863 0
345.139 10.3041 0
342.601 10.336 0
343.816 6.03457 0
345.112 8.16138 0
343.87 10.32 0
342.574 8.19323 0
343.843 8.17732 0
345.085 6.01863 0
347.623 5.98667 0
347.677 10.2721 0
345.139 10.3041 0
346.354 6.00266 0
347.65 8.12941 0
346.408 10.2881 0
345.112 8.16138 0
346.381 8.14541 0
347.623 5.98667 0
350.16 5.9546 0
350.215 10.2401 0
347.677 10.2721 0
348.892 5.97065 0
350.188 8.09734 0
348.946 10.2561 0
347.65 8.12941 0
348.919 8.11339 0
350.16 5.9546 0
352.698 5.92242 0
352.752 10.2079 0
350.215 10.2401 0
351.429 5.93852 0
352.725 8.06516 0
351.483 10.224 0
350.188 8.09734 0
351.456 8.08127 0
352.698 5.92242 0
355.236 5.89014 0
355.29 10.1756 0
352.752 10.2079 0
353.967 5.90629 0
355.263 8.03288 0
354.021 10.1918 0
352.725 8.06516 0
353.994 8.04903 0
355.236 5.89014 0
357.773 5.85775 0
357.828 10.1432 0
355.29 10.1756 0
356.504 5.87396 0
357.801 8.00049 0
356.559 10.1594 0
355.263 8.03288 0
356.532 8.0167 0
357.773 5.85775 0
360.311 5.82527 0
360.366 10.1107 0
357.828 10.1432 0
359.042 5.84152 0
360.338 7.968 0
359.097 10.127 0
357.801 8.00049 0
359.069 7.98426 0
360.311 5.82527 0
362.848 5.79268 0
362.903 10.0781 0
360.366 10.1107 0
361.58 5.80898 0
362.876 7.93541 0
361.635 10.0944 0
360.338 7.968 0
361.607 7.95172 0
362.848 5.79268 0
365.386 5.75999 0
365.441 10.0454 0
362.903 10.0781 0
364.117 5.77635 0
365.414 7.90272 0
364.172 10.0618 0
362.876 7.93541 0
364.145 7.91908 0
365.386 5.75999 0
367.924 5.72721 0
367.979 10.0126 0
365.441 10.0454 0
366.655 5.74361 0
367.951 7.86994 0
366.71 10.0291 0
365.414 7.90272 0
366.683 7.88634 0
367.924 5.72721 0
370.461 5.69433 0
370.517 9.97977 0
367.979 10.0126 0
369.193 5.71078 0
370.489 7.83706 0
369.248 9.99622 0
367.951 7.86994 0
369.22 7.85351 0
370.461 5.69433 0
372.999 5.66137 0
373.055 9.9468 0
370.517 9.97977 0
371.73 5.67786 0
373.027 7.80409 0
371.786 9.96329 0
370.489 7.83706 0
371.758 7.82059 0
372.999 5.66137 0
375.537 5.62831 0
375.592 9.91373 0
373.055 9.9468 0
374.268 5.64485 0
375.564 7.77103 0
374.323 9.93028 0
373.027 7.80409 0
374.296 7.78757 0
375.537 5.62831 0
378.074 5.59516 0
378.13 9.88058 0
375.592 9.91373 0
376.805 5.61174 0
378.102 7.73788 0
376.861 9.89717 0
375.564 7.77103 0
376.833 7.75446 0
378.074 5.59516 0
380.612 5.56192 0
380.668 9.84734 0
378.13 9.88058 0
379.343 5.57855 0
380.64 7.70464 0
379.399 9.86397 0
378.102 7.73788 0
379.371 7.72127 0
380.612 5.56192 0
383.149 5.5286 0
383.206 9.81402 0
380.668 9.84734 0
381.881 5.54527 0
383.178 7.67132 0
381.937 9.83069 0
380.64 7.70464 0
381.909 7.68799 0
383.149 5.5286 0
385.687 5.49519 0
385.743 9.78061 0
383.206 9.81402 0
384.418 5.51191 0
385.715 7.63791 0
384.475 9.79732 0
383.178 7.67132 0
384.446 7.65462 0
385.687 5.49519 0
388.225 5.46171 0
388.281 9.74712 0
385.743 9.78061 0
386.956 5.47846 0
388.253 7.60442 0
387.012 9.76387 0
385.715 7.63791 0
386.984 7.62118 0
388.225 5.46171 0
390.762 5.42814 0
390.819 9.71355 0
388.281 9.74712 0
389.494 5.44493 0
390.791 7.57085 0
389.55 9.73034 0
388.253 7.60442 0
389.522 7.58765 0
390.762 5.42814 0
393.3 5.3945 0
393.357 9.6799 0
390.819 9.71355 0
392.031 5.41133 0
393.328 7.5372 0
392.088 9.69673 0
390.791 7.57085 0
392.06 7.55404 0
393.3 5.3945 0
395.838 5.36077 0
395.895 9.64617 0
393.357 9.6799 0
394.569 5.37764 0
395.866 7.50348 0
394.626 9.66305 0
393.328 7.5372 0
394.597 7.52035 0
395.838 5.36077 0
398.375 5.32698 0
398.432 9.61237 0
395.895 9.64617 0
397.107 5.34388 0
398.404 7.46968 0
397.164 9.62928 0
395.866 7.50348 0
397.135 7.48659 0
398.375 5.32698 0
400.913 5.29311 0
400.97 9.5785 0
398.432 9.61237 0
399.644 5.31005 0
400.942 7.43581 0
399.701 9.59545 0
398.404 7.46968 0
399.673 7.45276 0
400.913 5.29311 0
403.451 5.25917 0
403.508 9.54456 0
400.97 9.5785 0
402.182 5.27615 0
403.479 7.40187 0
402.239 9.56154 0
400.942 7.43581 0
402.21 7.41885 0
403.451 5.25917 0
405.988 5.22516 0
406.046 9.51055 0
403.508 9.54456 0
404.72 5.24217 0
406.017 7.36786 0
404.777 9.52756 0
403.479 7.40187 0
404.748 7.38488 0
405.988 5.22516 0
408.526 5.19108 0
408.584 9.47647 0
406.046 9.51055 0
407.257 5.20813 0
408.555 7.33378 0
407.315 9.49352 0
406.017 7.36786 0
407.286 7.35083 0
408.526 5.19108 0
411.064 5.15694 0
411.121 9.44233 0
408.584 9.47647 0
409.795 5.17402 0
411.093 7.29964 0
409.852 9.45941 0
408.555 7.33378 0
409.824 7.31672 0
411.064 5.15694 0
413.601 5.12274 0
413.659 9.40812 0
411.121 9.44233 0
412.333 5.13985 0
413.63 7.26543 0
412.39 9.42523 0
411.093 7.29964 0
412.361 7.28255 0
413.601 5.12274 0
416.139 5.08847 0
416.197 9.37385 0
413.659 9.40812 0
414.87 5.10561 0
416.168 7.23117 0
414.928 9.39099 0
413.63 7.26543 0
414.899 7.24831 0
416.139 5.08847 0
418.677 5.05415 0
418.735 9.33952 0
416.197 9.37385 0
417.408 5.07132 0
418.706 7.19684 0
417.466 9.35669 0
416.168 7.23117 0
417.437 7.21401 0
418.677 5.05415 0
421.214 5.01976 0
421.272 9.30513 0
418.735 9.33952 0
419.946 5.03696 0
421.243 7.16245 0
420.004 9.32233 0
418.706 7.19684 0
419.975 7.17965 0
421.214 5.01976 0
423.752 4.98532 0
423.81 9.27069 0
421.272 9.30513 0
422.483 5.00255 0
423.781 7.12801 0
422.541 9.28792 0
421.243 7.16245 0
422.512 7.14524 0
423.752 4.98532 0
426.29 4.95082 0
426.348 9.23619 0
423.81 9.27069 0
425.021 4.96808 0
426.319 7.09351 0
425.079 9.25344 0
423.781 7.12801 0
425.05 7.11077 0
426.29 4.95082 0
428.828 4.91627 0
428.886 9.20164 0
426.348 9.23619 0
427.559 4.93356 0
428.857 7.05896 0
427.617 9.21892 0
426.319 7.09351 0
427.588 7.07624 0
428.828 4.91627 0
431.365 4.88168 0
431.424 9.16703 0
428.886 9.20164 0
430.096 4.89898 0
431.394 7.02436 0
430.155 9.18434 0
428.857 7.05896 0
430.126 7.04167 0
431.365 4.88168 0
433.903 4.84703 0
433.961 9.13238 0
431.424 9.16703 0
432.634 4.86436 0
433.932 6.98971 0
432.693 9.14971 0
431.394 7.02436 0
432.663 7.00704 0
433.903 4.84703 0
436.441 4.81233 0
436.499 9.09768 0
433.961 9.13238 0
435.172 4.82968 0
436.47 6.95501 0
435.23 9.11504 0
433.932 6.98971 0
435.201 6.97237 0
436.441 4.81233 0
438.978 4.77759 0
439.037 9.06294 0
436.499 9.09768 0
437.71 4.79497 0
439.008 6.92027 0
437.768 9.08032 0
436.47 6.95501 0
437.739 6.93765 0
438.978 4.77759 0
441.516 4.7428 0
441.575 9.02815 0
439.037 9.06294 0
440.247 4.7602 0
441.546 6.88548 0
440.306 9.04555 0
439.008 6.92027 0
440.277 6.90288 0
441.516 4.7428 0
444.054 4.70798 0
444.113 8.99332 0
441.575 9.02815 0
442.785 4.7254 0
444.083 6.85065 0
442.844 9.01074 0
441.546 6.88548 0
442.814 6.86807 0
444.054 4.70798 0
446.592 4.67311 0
446.65 8.95845 0
444.113 8.99332 0
445.323 4.69055 0
446.621 6.81579 0
445.382 8.97589 0
444.083 6.85065 0
445.352 6.83323 0
446.592 4.67311 0
449.129 4.63821 0
449.188 8.92355 0
446.65 8.95845 0
447.861 4.65566 0
449.159 6.78088 0
447.919 8.94101 0
446.621 6.81579 0
447.89 6.79834 0
449.129 4.63821 0
451.667 4.60326 0
451.726 8.8886 0
449.188 8.92355 0
450.398 4.62074 0
451.697 6.74594 0
450.457 8.90608 0
449.159 6.78088 0
450.428 6.76341 0
451.667 4.60326 0
454.205 4.56829 0
454.264 8.85362 0
451.726 8.8886 0
452.936 4.58578 0
454.234 6.71096 0
452.995 8.87112 0
451.697 6.74594 0
452.965 6.72845 0
454.205 4.56829 0
456.743 4.53328 0
456.802 8.81861 0
454.264 8.85362 0
455.474 4.55079 0
456.772 6.67595 0
455.533 8.83612 0
454.234 6.71096 0
455.503 6.69346 0
456.743 4.53328 0
459.28 4.49824 0
459.339 8.78357 0
456.802 8.81861 0
458.011 4.51576 0
459.31 6.64091 0
458.071 8.8011 0
456.772 6.67595 0
458.041 6.65843 0
459.28 4.49824 0
461.818 4.46317 0
461.877 8.7485 0
459.339 8.78357 0
460.549 4.48071 0
461.848 6.60584 0
460.608 8.76604 0
459.31 6.64091 0
460.579 6.62338 0
461.818 4.46317 0
464.356 4.42807 0
464.415 8.7134 0
461.877 8.7485 0
463.087 4.44563 0
464.385 6.57074 0
463.146 8.73095 0
461.848 6.60584 0
463.117 6.58829 0
464.356 4.42807 0
466.894 4.39295 0
466.953 8.67828 0
464.415 8.7134 0
465.625 4.41052 0
466.923 6.53562 0
465.684 8.69584 0
464.385 6.57074 0
465.654 6.55318 0
466.894 4.39295 0
469.431 4.35781 0
469.491 8.64313 0
466.953 8.67828 0
468.163 4.37538 0
469.461 6.50047 0
468.222 8.66071 0
466.923 6.53562 0
468.192 6.51805 0
469.431 4.35781 0
471.969 4.32264 0
472.028 8.60796 0
469.491 8.64313 0
470.7 4.34023 0
471.999 6.4653 0
470.76 8.62555 0
469.461 6.50047 0
470.73 6.48289 0
471.969 4.32264 0
474.507 4.28745 0
474.566 8.57277 0
472.028 8.60796 0
473.238 4.30505 0
474.537 6.43012 0
473.297 8.59037 0
471.999 6.4653 0
473.268 6.44771 0
474.507 4.28745 0
477.045 4.25225 0
477.104 8.53757 0
474.566 8.57277 0
475.776 4.26985 0
477.074 6.39491 0
475.835 8.55517 0
474.537 6.43012 0
475.806 6.41251 0
477.045 4.25225 0
479.583 4.21703 0
479.642 8.50234 0
477.104 8.53757 0
478.314 4.23464 0
479.612 6.35969 0
478.373 8.51995 0
477.074 6.39491 0
478.343 6.3773 0
479.583 4.21703 0
482.12 4.18179 0
482.18 8.4671 0
479.642 8.50234 0
480.851 4.19941 0
482.15 6.32445 0
480.911 8.48472 0
479.612 6.35969 0
480.881 6.34207 0
482.12 4.18179 0
484.658 4.14654 0
484.718 8.43185 0
482.18 8.4671 0
483.389 4.16417 0
484.688 6.2892 0
483.449 8.44948 0
482.15 6.32445 0
483.419 6.30682 0
484.658 4.14654 0
487.196 4.11128 0
487.255 8.39659 0
484.718 8.43185 0
485.927 4.12891 0
487.226 6.25393 0
485.986 8.41422 0
484.688 6.2892 0
485.957 6.27157 0
487.196 4.11128 0
489.734 4.07601 0
489.793 8.36131 0
487.255 8.39659 0
488.465 4.09364 0
489.763 6.21866 0
488.524 8.37895 0
487.226 6.25393 0
488.495 6.2363 0
489.734 4.07601 0
492.272 4.04073 0
492.331 8.32603 0
489.793 8.36131 0
491.003 4.05837 0
492.301 6.18338 0
491.062 8.34367 0
489.763 6.21866 0
491.032 6.20102 0
492.272 4.04073 0
494.809 4.00544 0
494.869 8.29075 0
492.331 8.32603 0
493.54 4.02309 0
494.839 6.1481 0
493.6 8.30839 0
492.301 6.18338 0
493.57 6.16574 0
494.809 4.00544 0
497.347 3.97016 0
497.407 8.25548 0
494.869 8.29075 0
496.078 3.9878 0
497.377 6.11282 0
496.138 8.27312 0
494.839 6.1481 0
496.108 6.13046 0
497.347 3.97016 0
499.885 3.93489 0
499.944 8.22023 0
497.407 8.25548 0
498.616 3.95252 0
499.915 6.07756 0
498.676 8.23785 0
497.377 6.11282 0
498.646 6.09519 0
0 12.8571 0
2.53781 12.8572 0
2.53833 17.1429 0
0 17.1429 0
1.2689 12.8572 0
2.53807 15.0001 0
1.26917 17.1429 0
0 15 0
1.26904 15.0001 0
2.53781 12.8572 0
5.07559 12.8567 0
5.07669 17.1425 0
2.53833 17.1429 0
3.8067 12.857 0
5.07614 14.9996 0
3.80751 17.1427 0
2.53807 15.0001 0
3.80711 14.9999 0
5.07559 12.8567 0
7.61337 12.8559 0
7.61505 17.1416 0
5.07669 17.1425 0
6.34448 12.8564 0
7.61421 14.9988 0
6.34587 17.1421 0
5.07614 14.9996 0
6.34518 14.9992 0
7.61337 12.8559 0
10.1511 12.8546 0
10.1534 17.1403 0
7.61505 17.1416 0
8.88225 12.8553 0
10.1523 14.9975 0
8.88424 17.141 0
7.61421 14.9988 0
8.88325 14.9982 0
10.1511 12.8546 0
12.6889 12.853 0
12.6918 17.1387 0
10.1534 17.1403 0
11.42 12.8538 0
12.6904 14.9959 0
11.4226 17.1395 0
10.1523 14.9975 0
11.4213 14.9967 0
12.6889 12.853 0
15.2267 12.851 0
15.2302 17.1367 0
12.6918 17.1387 0
13.9578 12.852 0
15.2284 14.9939 0
13.961 17.1377 0
12.6904 14.9959 0
13.9594 14.9949 0
15.2267 12.851 0
17.7645 12.8486 0
17.7685 17.1344 0
15.2302 17.1367 0
16.4956 12.8498 0
17.7665 14.9915 0
16.4993 17.1356 0
15.2284 14.9939 0
16.4975 14.9927 0
17.7645 12.8486 0
20.3022 12.846 0
20.3069 17.1317 0
17.7685 17.1344 0
19.0333 12.8473 0
20.3046 14.9889 0
19.0377 17.1331 0
17.7665 14.9915 0
19.0355 14.9902 0
20.3022 12.846 0
22.84 12.8429 0
22.8453 17.1286 0
20.3069 17.1317 0
21.5711 12.8445 0
22.8426 14.9858 0
21.5761 17.1302 0
20.3046 14.9889 0
21.5736 14.9874 0
22.84 12.8429 0
25.3778 12.8396 0
25.3836 17.1253 0
22.8453 17.1286 0
24.1089 12.8413 0
25.3807 14.9825 0
24.1144 17.127 0
22.8426 14.9858 0
24.1117 14.9842 0
25.3778 12.8396 0
27.9156 12.8359 0
27.922 17.1216 0
25.3836 17.1253 0
26.6467 12.8378 0
27.9188 14.9788 0
26.6528 17.1235 0
25.3807 14.9825 0
26.6497 14.9807 0
27.9156 12.8359 0
30.4533 12.8318 0
30.4603 17.1175 0
27.922 17.1216 0
29.1845 12.8339 0
30.4568 14.9747 0
29.1911 17.1196 0
27.9188 14.9788 0
29.1878 14.9768 0
30.4533 12.8318 0
32.9911 12.8275 0
32.9987 17.1132 0
30.4603 17.1175 0
31.7222 12.8297 0
32.9949 14.9704 0
31.7295 17.1154 0
30.4568 14.9747 0
31.7259 14.9726 0
32.9911 12.8275 0
35.5289 12.8228 0
35.537 17.1085 0
32.9987 17.1132 0
34.26 12.8252 0
35.533 14.9656 0
34.2678 17.1109 0
32.9949 14.9704 0
34.2639 14.968 0
35.5289 12.8228 0
38.0667 12.8177 0
38.0754 17.1034 0
35.537 17.1085 0
36.7978 12.8203 0
38.071 14.9606 0
36.8062 17.106 0
35.533 14.9656 0
36.802 14.9632 0
38.0667 12.8177 0
40.6045 12.8123 0
40.6137 17.098 0
38.0754 17.1034 0
39.3356 12.8151 0
40.6091 14.9552 0
39.3445 17.1008 0
38.071 14.9606 0
39.3401 14.958 0
40.6045 12.8123 0
43.1423 12.8066 0
43.152 17.0923 0
40.6137 17.098 0
41.8734 12.8095 0
43.1472 14.9495 0
41.8829 17.0952 0
40.6091 14.9552 0
41.8781 14.9524 0
43.1423 12.8066 0
45.6801 12.8006 0
45.6904 17.0863 0
43.152 17.0923 0
44.4112 12.8037 0
45.6852 14.9435 0
44.4212 17.0894 0
43.1472 14.9495 0
44.4162 14.9466 0
45.6801 12.8006 0
48.2179 12.7943 0
48.2287 17.08 0
45.6904 17.0863 0
46.949 12.7975 0
48.2233 14.9371 0
46.9595 17.0832 0
45.6852 14.9435 0
46.9543 14.9404 0
48.2179 12.7943 0
50.7556 12.7876 0
50.7671 17.0733 0
48.2287 17.08 0
49.4867 12.791 0
50.7613 14.9305 0
49.4979 17.0767 0
48.2233 14.9371 0
49.4923 14.9339 0
50.7556 12.7876 0
53.2934 12.7806 0
53.3054 17.0663 0
50.7671 17.0733 0
52.0245 12.7841 0
53.2994 14.9235 0
52.0362 17.0698 0
50.7613 14.9305 0
52.0304 14.927 0
53.2934 12.7806 0
55.8312 12.7733 0
55.8437 17.059 0
53.3054 17.0663 0
54.5623 12.777 0
55.8375 14.9162 0
54.5745 17.0627 0
53.2994 14.9235 0
54.5684 14.9199 0
55.8312 12.7733 0
58.369 12.7656 0
58.382 17.0513 0
55.8437 17.059 0
57.1001 12.7695 0
58.3755 14.9085 0
57.1129 17.0552 0
55.8375 14.9162 0
57.1065 14.9124 0
58.369 12.7656 0
60.9068 12.7577 0
60.9204 17.0434 0
58.382 17.0513 0
59.6379 12.7617 0
60.9136 14.9006 0
59.6512 17.0474 0
58.3755 14.9085 0
59.6446 14.9046 0
60.9068 12.7577 0
63.4446 12.7494 0
63.4587 17.0351 0
60.9204 17.0434 0
62.1757 12.7536 0
63.4516 14.8923 0
62.1895 17.0393 0
60.9136 14.9006 0
62.1826 14.8965 0
63.4446 12.7494 0
65.9824 12.7408 0
65.997 17.0265 0
63.4587 17.0351 0
64.7135 12.7452 0
65.9897 14.8837 0
64.7278 17.0309 0
63.4516 14.8923 0
64.7207 14.8881 0
65.9824 12.7408 0
68.5202 12.732 0
68.5353 17.0176 0
65.997 17.0265 0
67.2513 12.7364 0
68.5278 14.8748 0
67.2662 17.0221 0
65.9897 14.8837 0
67.2587 14.8793 0
68.5202 12.732 0
71.058 12.7228 0
71.0736 17.0084 0
68.5353 17.0176 0
69.7891 12.7274 0
71.0658 14.8656 0
69.8045 17.0131 0
68.5278 14.8748 0
69.7968 14.8703 0
71.058 12.7228 0
73.5958 12.7133 0
73.6119 16.9989 0
71.0736 17.0084 0
72.3269 12.7181 0
73.6039 14.8561 0
72.3428 17.0037 0
71.0658 14.8656 0
72.3348 14.8609 0
73.5958 12.7133 0
76.1336 12.7035 0
76.1503 16.9891 0
73.6119 16.9989 0
74.8647 12.7084 0
76.1419 14.8463 0
74.8811 16.9941 0
73.6039 14.8561 0
74.8729 14.8513 0
76.1336 12.7035 0
78.6714 12.6933 0
78.6886 16.979 0
76.1503 16.9891 0
77.4025 12.6984 0
78.68 14.8362 0
77.4194 16.9841 0
76.1419 14.8463 0
77.4109 14.8413 0
78.6714 12.6933 0
81.2092 12.6829 0
81.2269 16.9686 0
78.6886 16.979 0
79.9403 12.6882 0
81.218 14.8258 0
79.9577 16.9739 0
78.68 14.8362 0
79.949 14.831 0
81.2092 12.6829 0
83.747 12.6722 0
83.7652 16.9579 0
81.2269 16.9686 0
82.4781 12.6776 0
83.7561 14.8151 0
82.496 16.9633 0
81.218 14.8258 0
82.487 14.8205 0
83.747 12.6722 0
86.2848 12.6612 0
86.3035 16.9469 0
83.7652 16.9579 0
85.0159 12.6667 0
86.2941 14.8041 0
85.0343 16.9524 0
83.7561 14.8151 0
85.0251 14.8096 0
86.2848 12.6612 0
88.8226 12.6499 0
88.8418 16.9356 0
86.3035 16.9469 0
87.5537 12.6556 0
88.8322 14.7928 0
87.5726 16.9413 0
86.2941 14.8041 0
87.5631 14.7985 0
88.8226 12.6499 0
91.3603 12.6383 0
91.38 16.924 0
88.8418 16.9356 0
90.0914 12.6441 0
91.3702 14.7812 0
90.1109 16.9298 0
88.8322 14.7928 0
90.1012 14.787 0
91.3603 12.6383 0
93.8981 12.6264 0
93.9183 16.9121 0
91.38 16.924 0
92.6292 12.6324 0
93.9082 14.7693 0
92.6492 16.9181 0
91.3702 14.7812 0
92.6392 14.7753 0
93.8981 12.6264 0
96.4359 12.6142 0
96.4566 16.8999 0
93.9183 16.9121 0
95.167 12.6203 0
96.4463 14.7571 0
95.1875 16.906 0
93.9082 14.7693 0
95.1773 14.7632 0
96.4359 12.6142 0
98.9737 12.6017 0
98.9949 16.8874 0
96.4566 16.8999 0
97.7048 12.608 0
98.9843 14.7446 0
97.7258 16.8937 0
96.4463 14.7571 0
97.7153 14.7509 0
98.9737 12.6017 0
101.512 12.589 0
101.533 16.8746 0
98.9949 16.8874 0
100.243 12.5954 0
101.522 14.7318 0
100.264 16.8811 0
98.9843 14.7446 0
100.253 14.7383 0
101.512 12.589 0
104.049 12.5759 0
104.071 16.8616 0
101.533 16.8746 0
102.78 12.5825 0
104.06 14.7188 0
102.802 16.8682 0
101.522 14.7318 0
102.791 14.7254 0
104.049 12.5759 0
106.587 12.5626 0
106.61 16.8483 0
104.071 16.8616 0
105.318 12.5693 0
106.598 14.7055 0
105.341 16.855 0
104.06 14.7188 0
105.329 14.7122 0
106.587 12.5626 0
109.125 12.549 0
109.148 16.8347 0
106.61 16.8483 0
107.856 12.5558 0
109.136 14.6919 0
107.879 16.8415 0
106.598 14.7055 0
107.867 14.6987 0
109.125 12.549 0
111.663 12.5351 0
111.686 16.8208 0
109.148 16.8347 0
110.394 12.5421 0
111.675 14.678 0
110.417 16.8277 0
109.136 14.6919 0
110.405 14.6849 0
111.663 12.5351 0
114.201 12.5209 0
114.225 16.8066 0
111.686 16.8208 0
112.932 12.5281 0
114.213 14.6638 0
112.955 16.8137 0
111.675 14.678 0
112.944 14.6709 0
114.201 12.5209 0
116.738 12.5065 0
116.763 16.7921 0
114.225 16.8066 0
115.469 12.5138 0
116.751 14.6494 0
115.494 16.7994 0
114.213 14.6638 0
115.482 14.6566 0
116.738 12.5065 0
119.276 12.4918 0
119.301 16.7774 0
116.763 16.7921 0
118.007 12.4992 0
119.289 14.6346 0
118.032 16.7848 0
116.751 14.6494 0
118.02 14.642 0
119.276 12.4918 0
121.814 12.4768 0
121.839 16.7624 0
119.301 16.7774 0
120.545 12.4843 0
121.827 14.6196 0
120.57 16.77 0
119.289 14.6346 0
120.558 14.6272 0
121.814 12.4768 0
124.352 12.4615 0
124.378 16.7472 0
121.839 16.7624 0
123.083 12.4692 0
124.365 14.6044 0
123.108 16.7548 0
121.827 14.6196 0
123.096 14.612 0
124.352 12.4615 0
126.89 12.446 0
126.916 16.7316 0
124.378 16.7472 0
125.621 12.4538 0
126.903 14.5888 0
125.647 16.7394 0
124.365 14.6044 0
125.634 14.5966 0
126.89 12.446 0
129.427 12.4302 0
129.454 16.7158 0
126.916 16.7316 0
128.158 12.4381 0
129.441 14.573 0
128.185 16.7238 0
126.903 14.5888 0
128.172 14.581 0
129.427 12.4302 0
131.965 12.4141 0
131.992 16.6998 0
129.454 16.7158 0
130.696 12.4222 0
131.979 14.557 0
130.723 16.7078 0
129.441 14.573 0
130.71 14.565 0
131.965 12.4141 0
134.503 12.3978 0
134.531 16.6834 0
131.992 16.6998 0
133.234 12.406 0
134.517 14.5407 0
133.261 16.6916 0
131.979 14.557 0
133.248 14.5489 0
134.503 12.3978 0
137.041 12.3812 0
137.069 16.6669 0
134.531 16.6834 0
135.772 12.3896 0
137.055 14.5241 0
135.8 16.6752 0
134.517 14.5407 0
135.786 14.5324 0
137.041 12.3812 0
139.578 12.3644 0
139.607 16.65 0
137.069 16.6669 0
138.31 12.3728 0
139.593 14.5072 0
138.338 16.6585 0
137.055 14.5241 0
138.324 14.5157 0
139.578 12.3644 0
142.116 12.3473 0
142.145 16.6329 0
139.607 16.65 0
140.847 12.3559 0
142.131 14.4901 0
140.876 16.6415 0
139.593 14.5072 0
140.862 14.4987 0
142.116 12.3473 0
144.654 12.3299 0
144.683 16.6155 0
142.145 16.6329 0
143.385 12.3386 0
144.669 14.4728 0
143.414 16.6242 0
142.131 14.4901 0
143.4 14.4815 0
144.654 12.3299 0
147.192 12.3123 0
147.222 16.5979 0
144.683 16.6155 0
145.923 12.3211 0
147.207 14.4551 0
145.953 16.6068 0
144.669 14.4728 0
145.938 14.464 0
147.192 12.3123 0
149.73 12.2944 0
149.76 16.58 0
147.222 16.5979 0
148.461 12.3034 0
149.745 14.4373 0
148.491 16.589 0
147.207 14.4551 0
148.476 14.4462 0
149.73 12.2944 0
152.267 12.2763 0
152.298 16.5619 0
149.76 16.58 0
150.999 12.2854 0
152.283 14.4191 0
151.029 16.571 0
149.745 14.4373 0
151.014 14.4282 0
152.267 12.2763 0
154.805 12.258 0
154.836 16.5436 0
152.298 16.5619 0
153.536 12.2672 0
154.821 14.4008 0
153.567 16.5528 0
152.283 14.4191 0
153.552 14.41 0
154.805 12.258 0
157.343 12.2393 0
157.375 16.5249 0
154.836 16.5436 0
156.074 12.2487 0
157.359 14.3822 0
156.105 16.5343 0
154.821 14.4008 0
156.09 14.3915 0
157.343 12.2393 0
159.881 12.2205 0
159.913 16.5061 0
157.375 16.5249 0
158.612 12.2299 0
159.897 14.3633 0
158.644 16.5155 0
157.359 14.3822 0
158.628 14.3728 0
159.881 12.2205 0
162.419 12.2014 0
162.451 16.487 0
159.913 16.5061 0
161.15 12.211 0
162.435 14.3442 0
161.182 16.4966 0
159.897 14.3633 0
161.166 14.3538 0
162.419 12.2014 0
164.956 12.182 0
164.989 16.4676 0
162.451 16.487 0
163.688 12.1917 0
164.973 14.3249 0
163.72 16.4773 0
162.435 14.3442 0
163.704 14.3346 0
164.956 12.182 0
167.494 12.1624 0
167.527 16.448 0
164.989 16.4676 0
166.225 12.1723 0
167.511 14.3053 0
166.258 16.4579 0
164.973 14.3249 0
166.242 14.3151 0
167.494 12.1624 0
170.032 12.1426 0
170.066 16.4282 0
167.527 16.448 0
168.763 12.1526 0
170.049 14.2854 0
168.796 16.4382 0
167.511 14.3053 0
168.78 14.2954 0
170.032 12.1426 0
172.57 12.1226 0
172.604 16.4081 0
170.066 16.4282 0
171.301 12.1326 0
172.587 14.2654 0
171.335 16.4182 0
170.049 14.2854 0
171.318 14.2754 0
172.57 12.1226 0
175.108 12.1023 0
175.142 16.3879 0
172.604 16.4081 0
173.839 12.1125 0
175.125 14.2451 0
173.873 16.398 0
172.587 14.2654 0
173.856 14.2553 0
175.108 12.1023 0
177.645 12.0818 0
177.68 16.3673 0
175.142 16.3879 0
176.377 12.092 0
177.663 14.2246 0
176.411 16.3776 0
175.125 14.2451 0
176.394 14.2349 0
177.645 12.0818 0
180.183 12.061 0
180.218 16.3466 0
177.68 16.3673 0
178.914 12.0714 0
180.201 14.2038 0
178.949 16.357 0
177.663 14.2246 0
178.932 14.2142 0
180.183 12.061 0
182.721 12.04 0
182.756 16.3256 0
180.218 16.3466 0
181.452 12.0505 0
182.739 14.1828 0
181.487 16.3361 0
180.201 14.2038 0
181.47 14.1933 0
182.721 12.04 0
185.259 12.0188 0
185.295 16.3044 0
182.756 16.3256 0
183.99 12.0294 0
185.277 14.1616 0
184.026 16.315 0
182.739 14.1828 0
184.008 14.1722 0
185.259 12.0188 0
187.797 11.9974 0
187.833 16.2829 0
185.295 16.3044 0
186.528 12.0081 0
187.815 14.1402 0
186.564 16.2937 0
185.277 14.1616 0
186.546 14.1509 0
187.797 11.9974 0
190.334 11.9757 0
190.371 16.2613 0
187.833 16.2829 0
189.065 11.9866 0
190.353 14.1185 0
189.102 16.2721 0
187.815 14.1402 0
189.084 14.1294 0
190.334 11.9757 0
192.872 11.9538 0
192.909 16.2394 0
190.371 16.2613 0
191.603 11.9648 0
192.891 14.0966 0
191.64 16.2503 0
190.353 14.1185 0
191.622 14.1076 0
192.872 11.9538 0
195.41 11.9317 0
195.447 16.2173 0
192.909 16.2394 0
194.141 11.9428 0
195.429 14.0745 0
194.178 16.2284 0
192.891 14.0966 0
194.16 14.0856 0
195.41 11.9317 0
197.948 11.9094 0
197.985 16.1949 0
195.447 16.2173 0
196.679 11.9206 0
197.967 14.0522 0
196.716 16.2061 0
195.429 14.0745 0
196.698 14.0634 0
197.948 11.9094 0
200.486 11.8869 0
200.524 16.1724 0
197.985 16.1949 0
199.217 11.8982 0
200.505 14.0297 0
199.255 16.1837 0
197.967 14.0522 0
199.236 14.041 0
200.486 11.8869 0
203.023 11.8641 0
203.062 16.1497 0
200.524 16.1724 0
201.754 11.8755 0
203.043 14.0069 0
201.793 16.1611 0
200.505 14.0297 0
201.774 14.0183 0
203.023 11.8641 0
205.561 11.8412 0
205.6 16.1267 0
203.062 16.1497 0
204.292 11.8527 0
205.581 13.9839 0
204.331 16.1382 0
203.043 14.0069 0
204.312 13.9955 0
205.561 11.8412 0
208.099 11.818 0
208.138 16.1035 0
205.6 16.1267 0
206.83 11.8296 0
208.118 13.9608 0
206.869 16.1151 0
205.581 13.9839 0
206.849 13.9724 0
208.099 11.818 0
210.637 11.7946 0
210.676 16.0801 0
208.138 16.1035 0
209.368 11.8063 0
210.656 13.9374 0
209.407 16.0918 0
208.118 13.9608 0
209.387 13.9491 0
210.637 11.7946 0
213.174 11.771 0
213.214 16.0565 0
210.676 16.0801 0
211.906 11.7828 0
213.194 13.9138 0
211.945 16.0684 0
210.656 13.9374 0
211.925 13.9256 0
213.174 11.771 0
215.712 11.7472 0
215.752 16.0327 0
213.214 16.0565 0
214.443 11.7591 0
215.732 13.89 0
214.483 16.0447 0
213.194 13.9138 0
214.463 13.9019 0
215.712 11.7472 0
218.25 11.7232 0
218.291 16.0087 0
215.752 16.0327 0
216.981 11.7352 0
218.27 13.866 0
217.022 16.0208 0
215.732 13.89 0
217.001 13.878 0
218.25 11.7232 0
220.788 11.699 0
220.829 15.9845 0
218.291 16.0087 0
219.519 11.7111 0
220.808 13.8418 0
219.56 15.9967 0
218.27 13.866 0
219.539 13.8539 0
220.788 11.699 0
223.326 11.6746 0
223.367 15.9601 0
220.829 15.9845 0
222.057 11.6868 0
223.346 13.8174 0
222.098 15.9724 0
220.808 13.8418 0
222.077 13.8296 0
223.326 11.6746 0
225.863 11.65 0
225.905 15.9355 0
223.367 15.9601 0
224.595 11.6623 0
225.884 13.7928 0
224.636 15.9479 0
223.346 13.8174 0
224.615 13.8051 0
225.863 11.65 0
228.401 11.6252 0
228.443 15.9107 0
225.905 15.9355 0
227.132 11.6377 0
228.422 13.768 0
227.174 15.9232 0
225.884 13.7928 0
227.153 13.7804 0
228.401 11.6252 0
230.939 11.6002 0
230.981 15.8857 0
228.443 15.9107 0
229.67 11.6128 0
230.96 13.743 0
229.712 15.8983 0
228.422 13.768 0
229.691 13.7555 0
230.939 11.6002 0
233.477 11.5751 0
233.519 15.8606 0
230.981 15.8857 0
232.208 11.5877 0
233.498 13.7178 0
232.25 15.8732 0
230.96 13.743 0
232.229 13.7304 0
233.477 11.5751 0
236.015 11.5497 0
236.057 15.8352 0
233.519 15.8606 0
234.746 11.5624 0
236.036 13.6925 0
234.788 15.8479 0
233.498 13.7178 0
234.767 13.7052 0
236.015 11.5497 0
238.552 11.5241 0
238.596 15.8096 0
236.057 15.8352 0
237.283 11.5369 0
238.574 13.6669 0
237.326 15.8224 0
236.036 13.6925 0
237.305 13.6797 0
238.552 11.5241 0
241.09 11.4984 0
241.134 15.7839 0
238.596 15.8096 0
239.821 11.5113 0
241.112 13.6412 0
239.865 15.7968 0
238.574 13.6669 0
239.843 13.654 0
241.09 11.4984 0
243.628 11.4725 0
243.672 15.7579 0
241.134 15.7839 0
242.359 11.4854 0
243.65 13.6152 0
242.403 15.7709 0
241.112 13.6412 0
242.381 13.6282 0
243.628 11.4725 0
246.166 11.4463 0
246.21 15.7318 0
243.672 15.7579 0
244.897 11.4594 0
246.188 13.5891 0
244.941 15.7449 0
243.65 13.6152 0
244.919 13.6022 0
246.166 11.4463 0
248.703 11.42 0
248.748 15.7055 0
246.21 15.7318 0
247.435 11.4332 0
248.726 13.5628 0
247.479 15.7187 0
246.188 13.5891 0
247.457 13.576 0
248.703 11.42 0
251.241 11.3936 0
251.286 15.679 0
248.748 15.7055 0
249.972 11.4068 0
251.264 13.5363 0
250.017 15.6923 0
248.726 13.5628 0
249.995 13.5496 0
251.241 11.3936 0
253.779 11.3669 0
253.824 15.6524 0
251.286 15.679 0
252.51 11.3803 0
253.802 13.5097 0
252.555 15.6657 0
251.264 13.5363 0
252.533 13.523 0
253.779 11.3669 0
256.317 11.3401 0
256.362 15.6256 0
253.824 15.6524 0
255.048 11.3535 0
256.339 13.4828 0
255.093 15.639 0
253.802 13.5097 0
255.07 13.4963 0
256.317 11.3401 0
258.855 11.3131 0
258.9 15.5985 0
256.362 15.6256 0
257.586 11.3266 0
258.877 13.4558 0
257.631 15.6121 0
256.339 13.4828 0
257.608 13.4694 0
258.855 11.3131 0
261.392 11.2859 0
261.438 15.5714 0
258.9 15.5985 0
260.123 11.2995 0
261.415 13.4286 0
260.169 15.585 0
258.877 13.4558 0
260.146 13.4423 0
261.392 11.2859 0
263.93 11.2585 0
263.976 15.544 0
261.438 15.5714 0
262.661 11.2722 0
263.953 13.4013 0
262.707 15.5577 0
261.415 13.4286 0
262.684 13.415 0
263.93 11.2585 0
266.468 11.231 0
266.514 15.5165 0
263.976 15.544 0
265.199 11.2448 0
266.491 13.3738 0
265.245 15.5303 0
263.953 13.4013 0
265.222 13.3876 0
266.468 11.231 0
269.006 11.2033 0
269.052 15.4888 0
266.514 15.5165 0
267.737 11.2172 0
269.029 13.3461 0
267.783 15.5027 0
266.491 13.3738 0
267.76 13.36 0
269.006 11.2033 0
271.543 11.1755 0
271.591 15.4609 0
269.052 15.4888 0
270.275 11.1894 0
271.567 13.3182 0
270.321 15.4749 0
269.029 13.3461 0
270.298 13.3322 0
271.543 11.1755 0
274.081 11.1475 0
274.129 15.4329 0
271.591 15.4609 0
272.812 11.1615 0
274.105 13.2902 0
272.86 15.447 0
271.567 13.3182 0
272.836 13.3043 0
274.081 11.1475 0
276.619 11.1193 0
276.667 15.4048 0
274.129 15.4329 0
275.35 11.1334 0
276.643 13.262 0
275.398 15.4189 0
274.105 13.2902 0
275.374 13.2762 0
276.619 11.1193 0
279.157 11.091 0
279.205 15.3764 0
276.667 15.4048 0
277.888 11.1052 0
279.181 13.2337 0
277.936 15.3906 0
276.643 13.262 0
277.912 13.2479 0
279.157 11.091 0
281.695 11.0625 0
281.743 15.3479 0
279.205 15.3764 0
280.426 11.0767 0
281.719 13.2052 0
280.474 15.3622 0
279.181 13.2337 0
280.45 13.2195 0
281.695 11.0625 0
284.232 11.0338 0
284.281 15.3193 0
281.743 15.3479 0
282.963 11.0482 0
284.257 13.1766 0
283.012 15.3336 0
281.719 13.2052 0
282.988 13.1909 0
284.232 11.0338 0
286.77 11.005 0
286.819 15.2905 0
284.281 15.3193 0
285.501 11.0194 0
286.794 13.1478 0
285.55 15.3049 0
284.257 13.1766 0
285.526 13.1622 0
286.77 11.005 0
289.308 10.9761 0
289.357 15.2615 0
286.819 15.2905 0
288.039 10.9906 0
289.332 13.1188 0
288.088 15.276 0
286.794 13.1478 0
288.063 13.1333 0
289.308 10.9761 0
291.846 10.947 0
291.895 15.2324 0
289.357 15.2615 0
290.577 10.9615 0
291.87 13.0897 0
290.626 15.247 0
289.332 13.1188 0
290.601 13.1043 0
291.846 10.947 0
294.383 10.9177 0
294.433 15.2031 0
291.895 15.2324 0
293.115 10.9323 0
294.408 13.0604 0
293.164 15.2178 0
291.87 13.0897 0
293.139 13.0751 0
294.383 10.9177 0
296.921 10.8883 0
296.971 15.1737 0
294.433 15.2031 0
295.652 10.903 0
296.946 13.031 0
295.702 15.1884 0
294.408 13.0604 0
295.677 13.0457 0
296.921 10.8883 0
299.459 10.8588 0
299.509 15.1442 0
296.971 15.1737 0
298.19 10.8735 0
299.484 13.0015 0
298.24 15.159 0
296.946 13.031 0
298.215 13.0163 0
299.459 10.8588 0
301.997 10.8291 0
302.047 15.1145 0
299.509 15.1442 0
300.728 10.8439 0
302.022 12.9718 0
300.778 15.1293 0
299.484 13.0015 0
300.753 12.9866 0
301.997 10.8291 0
304.535 10.7992 0
304.585 15.0846 0
302.047 15.1145 0
303.266 10.8142 0
304.56 12.9419 0
303.316 15.0996 0
302.022 12.9718 0
303.291 12.9569 0
304.535 10.7992 0
307.072 10.7693 0
307.123 15.0547 0
304.585 15.0846 0
305.803 10.7843 0
307.098 12.912 0
305.854 15.0697 0
304.56 12.9419 0
305.829 12.927 0
307.072 10.7693 0
309.61 10.7391 0
309.661 15.0246 0
307.123 15.0547 0
308.341 10.7542 0
309.636 12.8819 0
308.392 15.0396 0
307.098 12.912 0
308.367 12.8969 0
309.61 10.7391 0
312.148 10.7089 0
312.199 14.9943 0
309.661 15.0246 0
310.879 10.724 0
312.173 12.8516 0
310.93 15.0094 0
309.636 12.8819 0
310.905 12.8668 0
312.148 10.7089 0
314.686 10.6785 0
314.737 14.9639 0
312.199 14.9943 0
313.417 10.6937 0
314.711 12.8212 0
313.468 14.9791 0
312.173 12.8516 0
313.442 12.8364 0
314.686 10.6785 0
317.223 10.648 0
317.275 14.9334 0
314.737 14.9639 0
315.955 10.6633 0
317.249 12.7907 0
316.006 14.9487 0
314.711 12.8212 0
315.98 12.806 0
317.223 10.648 0
319.761 10.6173 0
319.813 14.9028 0
317.275 14.9334 0
318.492 10.6327 0
319.787 12.7601 0
318.544 14.9181 0
317.249 12.7907 0
318.518 12.7754 0
319.761 10.6173 0
322.299 10.5866 0
322.351 14.872 0
319.813 14.9028 0
321.03 10.602 0
322.325 12.7293 0
321.082 14.8874 0
319.787 12.7601 0
321.056 12.7447 0
322.299 10.5866 0
324.837 10.5557 0
324.889 14.8411 0
322.351 14.872 0
323.568 10.5711 0
324.863 12.6984 0
323.62 14.8565 0
322.325 12.7293 0
323.594 12.7139 0
324.837 10.5557 0
327.375 10.5246 0
327.427 14.81 0
324.889 14.8411 0
326.106 10.5402 0
327.401 12.6674 0
326.158 14.8256 0
324.863 12.6984 0
326.132 12.6829 0
327.375 10.5246 0
329.912 10.4935 0
329.965 14.7789 0
327.427 14.81 0
328.643 10.5091 0
329.939 12.6362 0
328.696 14.7945 0
327.401 12.6674 0
328.67 12.6518 0
329.912 10.4935 0
332.45 10.4622 0
332.503 14.7476 0
329.965 14.7789 0
331.181 10.4779 0
332.477 12.6049 0
331.234 14.7633 0
329.939 12.6362 0
331.208 12.6206 0
332.45 10.4622 0
334.988 10.4308 0
335.041 14.7162 0
332.503 14.7476 0
333.719 10.4465 0
335.014 12.5735 0
333.772 14.7319 0
332.477 12.6049 0
333.745 12.5892 0
334.988 10.4308 0
337.526 10.3993 0
337.579 14.6847 0
335.041 14.7162 0
336.257 10.4151 0
337.552 12.542 0
336.31 14.7005 0
335.014 12.5735 0
336.283 12.5578 0
337.526 10.3993 0
340.063 10.3677 0
340.117 14.6531 0
337.579 14.6847 0
338.795 10.3835 0
340.09 12.5104 0
338.848 14.6689 0
337.552 12.542 0
338.821 12.5262 0
340.063 10.3677 0
342.601 10.336 0
342.655 14.6213 0
340.117 14.6531 0
341.332 10.3518 0
342.628 12.4787 0
341.386 14.6372 0
340.09 12.5104 0
341.359 12.4945 0
342.601 10.336 0
345.139 10.3041 0
345.193 14.5895 0
342.655 14.6213 0
343.87 10.32 0
345.166 12.4468 0
343.924 14.6054 0
342.628 12.4787 0
343.897 12.4627 0
345.139 10.3041 0
347.677 10.2721 0
347.731 14.5575 0
345.193 14.5895 0
346.408 10.2881 0
347.704 12.4148 0
346.462 14.5735 0
345.166 12.4468 0
346.435 12.4308 0
347.677 10.2721 0
350.215 10.2401 0
350.269 14.5254 0
347.731 14.5575 0
348.946 10.2561 0
350.242 12.3828 0
349 14.5415 0
347.704 12.4148 0
348.973 12.3988 0
350.215 10.2401 0
352.752 10.2079 0
352.807 14.4933 0
350.269 14.5254 0
351.483 10.224 0
352.779 12.3506 0
351.538 14.5094 0
350.242 12.3828 0
351.511 12.3667 0
352.752 10.2079 0
355.29 10.1756 0
355.345 14.461 0
352.807 14.4933 0
354.021 10.1918 0
355.317 12.3183 0
354.076 14.4771 0
352.779 12.3506 0
354.048 12.3344 0
355.29 10.1756 0
357.828 10.1432 0
357.883 14.4286 0
355.345 14.461 0
356.559 10.1594 0
357.855 12.2859 0
356.614 14.4448 0
355.317 12.3183 0
356.586 12.3021 0
357.828 10.1432 0
360.366 10.1107 0
360.42 14.3961 0
357.883 14.4286 0
359.097 10.127 0
360.393 12.2534 0
359.152 14.4123 0
357.855 12.2859 0
359.124 12.2697 0
360.366 10.1107 0
362.903 10.0781 0
362.958 14.3635 0
360.42 14.3961 0
361.635 10.0944 0
362.931 12.2208 0
361.689 14.3798 0
360.393 12.2534 0
361.662 12.2371 0
362.903 10.0781 0
365.441 10.0454 0
365.496 14.3308 0
362.958 14.3635 0
364.172 10.0618 0
365.469 12.1881 0
364.227 14.3472 0
362.931 12.2208 0
364.2 12.2045 0
365.441 10.0454 0
367.979 10.0126 0
368.034 14.298 0
365.496 14.3308 0
366.71 10.0291 0
368.007 12.1553 0
366.765 14.3144 0
365.469 12.1881 0
366.738 12.1717 0
367.979 10.0126 0
370.517 9.97977 0
370.572 14.2651 0
368.034 14.298 0
369.248 9.99622 0
370.545 12.1225 0
369.303 14.2816 0
368.007 12.1553 0
369.276 12.1389 0
370.517 9.97977 0
373.055 9.9468 0
373.11 14.2321 0
370.572 14.2651 0
371.786 9.96329 0
373.082 12.0895 0
371.841 14.2486 0
370.545 12.1225 0
371.813 12.106 0
373.055 9.9468 0
375.592 9.91373 0
375.648 14.1991 0
373.11 14.2321 0
374.323 9.93028 0
375.62 12.0564 0
374.379 14.2156 0
373.082 12.0895 0
374.351 12.073 0
375.592 9.91373 0
378.13 9.88058 0
378.186 14.1659 0
375.648 14.1991 0
376.861 9.89717 0
378.158 12.0233 0
376.917 14.1825 0
375.62 12.0564 0
376.889 12.0399 0
378.13 9.88058 0
380.668 9.84734 0
380.724 14.1327 0
378.186 14.1659 0
379.399 9.86397 0
380.696 11.99 0
379.455 14.1493 0
378.158 12.0233 0
379.427 12.0067 0
380.668 9.84734 0
383.206 9.81402 0
383.262 14.0994 0
380.724 14.1327 0
381.937 9.83069 0
383.234 11.9567 0
381.993 14.116 0
380.696 11.99 0
381.965 11.9734 0
383.206 9.81402 0
385.743 9.78061 0
385.8 14.066 0
383.262 14.0994 0
384.475 9.79732 0
385.772 11.9233 0
384.531 14.0827 0
383.234 11.9567 0
384.503 11.94 0
385.743 9.78061 0
388.281 9.74712 0
388.338 14.0325 0
385.8 14.066 0
387.012 9.76387 0
388.31 11.8898 0
387.069 14.0492 0
385.772 11.9233 0
387.041 11.9066 0
388.281 9.74712 0
390.819 9.71355 0
390.876 13.9989 0
388.338 14.0325 0
389.55 9.73034 0
390.847 11.8562 0
389.607 14.0157 0
388.31 11.8898 0
389.578 11.873 0
390.819 9.71355 0
393.357 9.6799 0
393.414 13.9652 0
390.876 13.9989 0
392.088 9.69673 0
393.385 11.8226 0
392.145 13.9821 0
390.847 11.8562 0
392.116 11.8394 0
393.357 9.6799 0
395.895 9.64617 0
395.951 13.9315 0
393.414 13.9652 0
394.626 9.66305 0
395.923 11.7889 0
394.683 13.9484 0
393.385 11.8226 0
394.654 11.8057 0
395.895 9.64617 0
398.432 9.61237 0
398.489 13.8977 0
395.951 13.9315 0
397.164 9.62928 0
398.461 11.7551 0
397.22 13.9146 0
395.923 11.7889 0
397.192 11.772 0
398.432 9.61237 0
400.97 9.5785 0
401.027 13.8638 0
398.489 13.8977 0
399.701 9.59545 0
400.999 11.7212 0
399.758 13.8808 0
398.461 11.7551 0
399.73 11.7381 0
400.97 9.5785 0
403.508 9.54456 0
403.565 13.8299 0
401.027 13.8638 0
402.239 9.56154 0
403.537 11.6872 0
402.296 13.8469 0
400.999 11.7212 0
402.268 11.7042 0
403.508 9.54456 0
406.046 9.51055 0
406.103 13.7959 0
403.565 13.8299 0
404.777 9.52756 0
406.074 11.6532 0
404.834 13.8129 0
403.537 11.6872 0
404.806 11.6702 0
406.046 9.51055 0
408.584 9.47647 0
408.641 13.7618 0
406.103 13.7959 0
407.315 9.49352 0
408.612 11.6191 0
407.372 13.7788 0
406.074 11.6532 0
407.343 11.6362 0
408.584 9.47647 0
411.121 9.44233 0
411.179 13.7277 0
408.641 13.7618 0
409.852 9.45941 0
411.15 11.585 0
409.91 13.7447 0
408.612 11.6191 0
409.881 11.6021 0
411.121 9.44233 0
413.659 9.40812 0
413.717 13.6934 0
411.179 13.7277 0
412.39 9.42523 0
413.688 11.5508 0
412.448 13.7106 0
411.15 11.585 0
412.419 11.5679 0
413.659 9.40812 0
416.197 9.37385 0
416.255 13.6592 0
413.717 13.6934 0
414.928 9.39099 0
416.226 11.5165 0
414.986 13.6763 0
413.688 11.5508 0
414.957 11.5337 0
416.197 9.37385 0
418.735 9.33952 0
418.793 13.6248 0
416.255 13.6592 0
417.466 9.35669 0
418.764 11.4822 0
417.524 13.642 0
416.226 11.5165 0
417.495 11.4994 0
418.735 9.33952 0
421.272 9.30513 0
421.33 13.5905 0
418.793 13.6248 0
420.004 9.32233 0
421.301 11.4478 0
420.062 13.6077 0
418.764 11.4822 0
420.033 11.465 0
421.272 9.30513 0
423.81 9.27069 0
423.868 13.556 0
421.33 13.5905 0
422.541 9.28792 0
423.839 11.4134 0
422.599 13.5732 0
421.301 11.4478 0
422.57 11.4306 0
423.81 9.27069 0
426.348 9.23619 0
426.406 13.5215 0
423.868 13.556 0
425.079 9.25344 0
426.377 11.3789 0
425.137 13.5388 0
423.839 11.4134 0
425.108 11.3961 0
426.348 9.23619 0
428.886 9.20164 0
428.944 13.487 0
426.406 13.5215 0
427.617 9.21892 0
428.915 11.3443 0
427.675 13.5042 0
426.377 11.3789 0
427.646 11.3616 0
428.886 9.20164 0
431.424 9.16703 0
431.482 13.4524 0
428.944 13.487 0
430.155 9.18434 0
431.453 11.3097 0
430.213 13.4697 0
428.915 11.3443 0
430.184 11.327 0
431.424 9.16703 0
433.961 9.13238 0
434.02 13.4177 0
431.482 13.4524 0
432.693 9.14971 0
433.991 11.275 0
432.751 13.435 0
431.453 11.3097 0
432.722 11.2924 0
433.961 9.13238 0
436.499 9.09768 0
436.558 13.383 0
434.02 13.4177 0
435.23 9.11504 0
436.528 11.2403 0
435.289 13.4004 0
433.991 11.275 0
435.26 11.2577 0
436.499 9.09768 0
439.037 9.06294 0
439.096 13.3483 0
436.558 13.383 0
437.768 9.08032 0
439.066 11.2056 0
437.827 13.3656 0
436.528 11.2403 0
437.797 11.223 0
439.037 9.06294 0
441.575 9.02815 0
441.633 13.3135 0
439.096 13.3483 0
440.306 9.04555 0
441.604 11.1708 0
440.365 13.3309 0
439.066 11.2056 0
440.335 11.1882 0
441.575 9.02815 0
444.113 8.99332 0
444.171 13.2786 0
441.633 13.3135 0
442.844 9.01074 0
444.142 11.136 0
442.902 13.2961 0
441.604 11.1708 0
442.873 11.1534 0
444.113 8.99332 0
446.65 8.95845 0
446.709 13.2438 0
444.171 13.2786 0
445.382 8.97589 0
446.68 11.1011 0
445.44 13.2612 0
444.142 11.136 0
445.411 11.1186 0
446.65 8.95845 0
449.188 8.92355 0
449.247 13.2089 0
446.709 13.2438 0
447.919 8.94101 0
449.218 11.0662 0
447.978 13.2263 0
446.68 11.1011 0
447.949 11.0837 0
449.188 8.92355 0
451.726 8.8886 0
451.785 13.1739 0
449.247 13.2089 0
450.457 8.90608 0
451.755 11.0313 0
450.516 13.1914 0
449.218 11.0662 0
450.487 11.0487 0
451.726 8.8886 0
454.264 8.85362 0
454.323 13.1389 0
451.785 13.1739 0
452.995 8.87112 0
454.293 10.9963 0
453.054 13.1564 0
451.755 11.0313 0
453.024 11.0138 0
454.264 8.85362 0
456.802 8.81861 0
456.861 13.1039 0
454.323 13.1389 0
455.533 8.83612 0
456.831 10.9613 0
455.592 13.1214 0
454.293 10.9963 0
455.562 10.9788 0
456.802 8.81861 0
459.339 8.78357 0
459.399 13.0689 0
456.861 13.1039 0
458.071 8.8011 0
459.369 10.9262 0
458.13 13.0864 0
456.831 10.9613 0
458.1 10.9438 0
459.339 8.78357 0
461.877 8.7485 0
461.936 13.0338 0
459.399 13.0689 0
460.608 8.76604 0
461.907 10.8912 0
460.667 13.0513 0
459.369 10.9262 0
460.638 10.9087 0
461.877 8.7485 0
464.415 8.7134 0
464.474 12.9987 0
461.936 13.0338 0
463.146 8.73095 0
464.445 10.8561 0
463.205 13.0163 0
461.907 10.8912 0
463.176 10.8736 0
464.415 8.7134 0
466.953 8.67828 0
467.012 12.9636 0
464.474 12.9987 0
465.684 8.69584 0
466.982 10.8209 0
465.743 12.9811 0
464.445 10.8561 0
465.714 10.8385 0
466.953 8.67828 0
469.491 8.64313 0
469.55 12.9284 0
467.012 12.9636 0
468.222 8.66071 0
469.52 10.7858 0
468.281 12.946 0
466.982 10.8209 0
468.251 10.8034 0
469.491 8.64313 0
472.028 8.60796 0
472.088 12.8933 0
469.55 12.9284 0
470.76 8.62555 0
472.058 10.7506 0
470.819 12.9109 0
469.52 10.7858 0
470.789 10.7682 0
472.028 8.60796 0
474.566 8.57277 0
474.626 12.8581 0
472.088 12.8933 0
473.297 8.59037 0
474.596 10.7154 0
473.357 12.8757 0
472.058 10.7506 0
473.327 10.733 0
474.566 8.57277 0
477.104 8.53757 0
477.163 12.8229 0
474.626 12.8581 0
475.835 8.55517 0
477.134 10.6802 0
475.895 12.8405 0
474.596 10.7154 0
475.865 10.6978 0
477.104 8.53757 0
479.642 8.50234 0
479.701 12.7876 0
477.163 12.8229 0
478.373 8.51995 0
479.672 10.645 0
478.432 12.8053 0
477.134 10.6802 0
478.403 10.6626 0
479.642 8.50234 0
482.18 8.4671 0
482.239 12.7524 0
479.701 12.7876 0
480.911 8.48472 0
482.209 10.6098 0
480.97 12.77 0
479.672 10.645 0
480.941 10.6274 0
482.18 8.4671 0
484.718 8.43185 0
484.777 12.7172 0
482.239 12.7524 0
483.449 8.44948 0
484.747 10.5745 0
483.508 12.7348 0
482.209 10.6098 0
483.478 10.5921 0
484.718 8.43185 0
487.255 8.39659 0
487.315 12.6819 0
484.777 12.7172 0
485.986 8.41422 0
487.285 10.5392 0
486.046 12.6995 0
484.747 10.5745 0
486.016 10.5569 0
487.255 8.39659 0
489.793 8.36131 0
489.853 12.6466 0
487.315 12.6819 0
488.524 8.37895 0
489.823 10.504 0
488.584 12.6643 0
487.285 10.5392 0
488.554 10.5216 0
489.793 8.36131 0
492.331 8.32603 0
492.39 12.6113 0
489.853 12.6466 0
491.062 8.34367 0
492.361 10.4687 0
491.122 12.629 0
489.823 10.504 0
491.092 10.4863 0
492.331 8.32603 0
494.869 8.29075 0
494.928 12.5761 0
492.39 12.6113 0
493.6 8.30839 0
494.899 10.4334 0
493.659 12.5937 0
492.361 10.4687 0
493.63 10.451 0
494.869 8.29075 0
497.407 8.25548 0
497.466 12.5408 0
494.928 12.5761 0
496.138 8.27312 0
497.436 10.3981 0
496.197 12.5584 0
494.899 10.4334 0
496.167 10.4158 0
497.407 8.25548 0
499.944 8.22023 0
500.004 12.5055 0
497.466 12.5408 0
498.676 8.23785 0
499.974 10.3629 0
498.735 12.5232 0
497.436 10.3981 0
498.705 10.3805 0
0 17.1429 0
2.53833 17.1429 0
2.53887 21.4285 0
0 21.4286 0
1.26917 17.1429 0
2.5386 19.2857 0
1.26942 21.4286 0
0 19.2857 0
1.26929 19.2858 0
2.53833 17.1429 0
5.07669 17.1425 0
5.0778 21.4279 0
2.53887 21.4285 0
3.80751 17.1427 0
5.07724 19.2852 0
3.80833 21.4283 0
2.5386 19.2857 0
3.80792 19.2855 0
5.07669 17.1425 0
7.61505 17.1416 0
7.61677 21.427 0
5.0778 21.4279 0
6.34587 17.1421 0
7.6159 19.2843 0
6.34728 21.4275 0
5.07724 19.2852 0
6.34657 19.2848 0
7.61505 17.1416 0
10.1534 17.1403 0
10.1557 21.4257 0
7.61677 21.427 0
8.88424 17.141 0
10.1546 19.2831 0
8.88625 21.4264 0
7.6159 19.2843 0
8.88524 19.2837 0
10.1534 17.1403 0
12.6918 17.1387 0
12.6947 21.4241 0
10.1557 21.4257 0
11.4226 17.1395 0
12.6932 19.2814 0
11.4252 21.4249 0
10.1546 19.2831 0
11.4239 19.2823 0
12.6918 17.1387 0
15.2302 17.1367 0
15.2337 21.4221 0
12.6947 21.4241 0
13.961 17.1377 0
15.2319 19.2794 0
13.9642 21.4231 0
12.6932 19.2814 0
13.9626 19.2805 0
15.2302 17.1367 0
17.7685 17.1344 0
17.7726 21.4198 0
15.2337 21.4221 0
16.4993 17.1356 0
17.7706 19.2771 0
16.5031 21.421 0
15.2319 19.2794 0
16.5012 19.2783 0
17.7685 17.1344 0
20.3069 17.1317 0
20.3116 21.4171 0
17.7726 21.4198 0
19.0377 17.1331 0
20.3092 19.2744 0
19.0421 21.4185 0
17.7706 19.2771 0
19.0399 19.2758 0
20.3069 17.1317 0
22.8453 17.1286 0
22.8505 21.4141 0
20.3116 21.4171 0
21.5761 17.1302 0
22.8479 19.2714 0
21.581 21.4156 0
20.3092 19.2744 0
21.5786 19.2729 0
22.8453 17.1286 0
25.3836 17.1253 0
25.3894 21.4107 0
22.8505 21.4141 0
24.1144 17.127 0
25.3865 19.268 0
24.12 21.4124 0
22.8479 19.2714 0
24.1172 19.2698 0
25.3836 17.1253 0
27.922 17.1216 0
27.9284 21.407 0
25.3894 21.4107 0
26.6528 17.1235 0
27.9252 19.2643 0
26.6589 21.4089 0
25.3865 19.268 0
26.6558 19.2662 0
27.922 17.1216 0
30.4603 17.1175 0
30.4673 21.403 0
27.9284 21.407 0
29.1911 17.1196 0
30.4638 19.2603 0
29.1978 21.405 0
27.9252 19.2643 0
29.1945 19.2624 0
30.4603 17.1175 0
32.9987 17.1132 0
33.0062 21.3986 0
30.4673 21.403 0
31.7295 17.1154 0
33.0024 19.2559 0
31.7367 21.4008 0
30.4638 19.2603 0
31.7331 19.2581 0
32.9987 17.1132 0
35.537 17.1085 0
35.5451 21.3939 0
33.0062 21.3986 0
34.2678 17.1109 0
35.5411 19.2512 0
34.2757 21.3963 0
33.0024 19.2559 0
34.2717 19.2536 0
35.537 17.1085 0
38.0754 17.1034 0
38.084 21.3888 0
35.5451 21.3939 0
36.8062 17.106 0
38.0797 19.2462 0
36.8146 21.3914 0
35.5411 19.2512 0
36.8104 19.2487 0
38.0754 17.1034 0
40.6137 17.098 0
40.6229 21.3835 0
38.084 21.3888 0
39.3445 17.1008 0
40.6183 19.2408 0
39.3535 21.3862 0
38.0797 19.2462 0
39.349 19.2435 0
40.6137 17.098 0
43.152 17.0923 0
43.1618 21.3778 0
40.6229 21.3835 0
41.8829 17.0952 0
43.1569 19.2351 0
41.8924 21.3807 0
40.6183 19.2408 0
41.8876 19.238 0
43.152 17.0923 0
45.6904 17.0863 0
45.7007 21.3717 0
43.1618 21.3778 0
44.4212 17.0894 0
45.6955 19.2291 0
44.4313 21.3748 0
43.1569 19.2351 0
44.4262 19.2321 0
45.6904 17.0863 0
48.2287 17.08 0
48.2396 21.3654 0
45.7007 21.3717 0
46.9595 17.0832 0
48.2341 19.2227 0
46.9701 21.3686 0
45.6955 19.2291 0
46.9648 19.2259 0
48.2287 17.08 0
50.7671 17.0733 0
50.7785 21.3587 0
48.2396 21.3654 0
49.4979 17.0767 0
50.7728 19.216 0
49.509 21.3621 0
48.2341 19.2227 0
49.5035 19.2194 0
50.7671 17.0733 0
53.3054 17.0663 0
53.3173 21.3517 0
50.7785 21.3587 0
52.0362 17.0698 0
53.3114 19.209 0
52.0479 21.3553 0
50.7728 19.216 0
52.0421 19.2126 0
53.3054 17.0663 0
55.8437 17.059 0
55.8562 21.3444 0
53.3173 21.3517 0
54.5745 17.0627 0
55.85 19.2017 0
54.5868 21.3481 0
53.3114 19.209 0
54.5807 19.2054 0
55.8437 17.059 0
58.382 17.0513 0
58.3951 21.3368 0
55.8562 21.3444 0
57.1129 17.0552 0
58.3886 19.1941 0
57.1256 21.3406 0
55.85 19.2017 0
57.1193 19.1979 0
58.382 17.0513 0
60.9204 17.0434 0
60.9339 21.3288 0
58.3951 21.3368 0
59.6512 17.0474 0
60.9271 19.1861 0
59.6645 21.3328 0
58.3886 19.1941 0
59.6578 19.1901 0
60.9204 17.0434 0
63.4587 17.0351 0
63.4728 21.3205 0
60.9339 21.3288 0
62.1895 17.0393 0
63.4657 19.1779 0
62.2034 21.3247 0
60.9271 19.1861 0
62.1964 19.182 0
63.4587 17.0351 0
65.997 17.0265 0
66.0116 21.312 0
63.4728 21.3205 0
64.7278 17.0309 0
66.0043 19.1693 0
64.7422 21.3163 0
63.4657 19.1779 0
64.735 19.1736 0
65.997 17.0265 0
68.5353 17.0176 0
68.5505 21.3031 0
66.0116 21.312 0
67.2662 17.0221 0
68.5429 19.1604 0
67.281 21.3076 0
66.0043 19.1693 0
67.2736 19.1649 0
68.5353 17.0176 0
71.0736 17.0084 0
71.0893 21.2939 0
68.5505 21.3031 0
69.8045 17.0131 0
71.0815 19.1512 0
69.8199 21.2985 0
68.5429 19.1604 0
69.8122 19.1558 0
71.0736 17.0084 0
73.6119 16.9989 0
73.6281 21.2844 0
71.0893 21.2939 0
72.3428 17.0037 0
73.62 19.1417 0
72.3587 21.2892 0
71.0815 19.1512 0
72.3507 19.1465 0
73.6119 16.9989 0
76.1503 16.9891 0
76.1669 21.2746 0
73.6281 21.2844 0
74.8811 16.9941 0
76.1586 19.1319 0
74.8975 21.2795 0
73.62 19.1417 0
74.8893 19.1368 0
76.1503 16.9891 0
78.6886 16.979 0
78.7058 21.2644 0
76.1669 21.2746 0
77.4194 16.9841 0
78.6972 19.1218 0
77.4364 21.2695 0
76.1586 19.1319 0
77.4279 19.1269 0
78.6886 16.979 0
81.2269 16.9686 0
81.2446 21.254 0
78.7058 21.2644 0
79.9577 16.9739 0
81.2357 19.1113 0
79.9752 21.2593 0
78.6972 19.1218 0
79.9664 19.1166 0
81.2269 16.9686 0
83.7652 16.9579 0
83.7834 21.2433 0
81.2446 21.254 0
82.496 16.9633 0
83.7743 19.1006 0
82.514 21.2487 0
81.2357 19.1113 0
82.505 19.106 0
83.7652 16.9579 0
86.3035 16.9469 0
86.3222 21.2323 0
83.7834 21.2433 0
85.0343 16.9524 0
86.3128 19.0896 0
85.0528 21.2378 0
83.7743 19.1006 0
85.0435 19.0952 0
86.3035 16.9469 0
88.8418 16.9356 0
88.861 21.221 0
86.3222 21.2323 0
87.5726 16.9413 0
88.8514 19.0783 0
87.5916 21.2267 0
86.3128 19.0896 0
87.5821 19.084 0
88.8418 16.9356 0
91.38 16.924 0
91.3998 21.2094 0
88.861 21.221 0
90.1109 16.9298 0
91.3899 19.0667 0
90.1304 21.2152 0
88.8514 19.0783 0
90.1206 19.0725 0
91.38 16.924 0
93.9183 16.9121 0
93.9385 21.1975 0
91.3998 21.2094 0
92.6492 16.9181 0
93.9284 19.0548 0
92.6691 21.2035 0
91.3899 19.0667 0
92.6592 19.0608 0
93.9183 16.9121 0
96.4566 16.8999 0
96.4773 21.1853 0
93.9385 21.1975 0
95.1875 16.906 0
96.467 19.0426 0
95.2079 21.1914 0
93.9284 19.0548 0
95.1977 19.0488 0
96.4566 16.8999 0
98.9949 16.8874 0
99.0161 21.1728 0
96.4773 21.1853 0
97.7258 16.8937 0
99.0055 19.0301 0
97.7467 21.1791 0
96.467 19.0426 0
97.7362 19.0364 0
98.9949 16.8874 0
101.533 16.8746 0
101.555 21.1601 0
99.0161 21.1728 0
100.264 16.8811 0
101.544 19.0174 0
100.285 21.1665 0
99.0055 19.0301 0
100.275 19.0238 0
101.533 16.8746 0
104.071 16.8616 0
104.094 21.147 0
101.555 21.1601 0
102.802 16.8682 0
104.083 19.0043 0
102.824 21.1536 0
101.544 19.0174 0
102.813 19.0109 0
104.071 16.8616 0
106.61 16.8483 0
106.632 21.1337 0
104.094 21.147 0
105.341 16.855 0
106.621 18.991 0
105.363 21.1404 0
104.083 19.0043 0
105.352 18.9977 0
106.61 16.8483 0
109.148 16.8347 0
109.171 21.1201 0
106.632 21.1337 0
107.879 16.8415 0
109.16 18.9774 0
107.902 21.1269 0
106.621 18.991 0
107.89 18.9842 0
109.148 16.8347 0
111.686 16.8208 0
111.71 21.1062 0
109.171 21.1201 0
110.417 16.8277 0
111.698 18.9635 0
110.44 21.1132 0
109.16 18.9774 0
110.429 18.9705 0
111.686 16.8208 0
114.225 16.8066 0
114.249 21.092 0
111.71 21.1062 0
112.955 16.8137 0
114.237 18.9493 0
112.979 21.0991 0
111.698 18.9635 0
112.967 18.9564 0
114.225 16.8066 0
116.763 16.7921 0
116.787 21.0776 0
114.249 21.092 0
115.494 16.7994 0
116.775 18.9349 0
115.518 21.0848 0
114.237 18.9493 0
115.506 18.9421 0
116.763 16.7921 0
119.301 16.7774 0
119.326 21.0628 0
116.787 21.0776 0
118.032 16.7848 0
119.314 18.9202 0
118.057 21.0702 0
116.775 18.9349 0
118.044 18.9276 0
119.301 16.7774 0
121.839 16.7624 0
121.865 21.0478 0
119.326 21.0628 0
120.57 16.77 0
121.852 18.9052 0
120.595 21.0554 0
119.314 18.9202 0
120.583 18.9127 0
121.839 16.7624 0
124.378 16.7472 0
124.403 21.0326 0
121.865 21.0478 0
123.108 16.7548 0
124.391 18.8899 0
123.134 21.0402 0
121.852 18.9052 0
123.121 18.8976 0
124.378 16.7472 0
126.916 16.7316 0
126.942 21.017 0
124.403 21.0326 0
125.647 16.7394 0
126.929 18.8744 0
125.673 21.0248 0
124.391 18.8899 0
125.66 18.8822 0
126.916 16.7316 0
129.454 16.7158 0
129.481 21.0012 0
126.942 21.017 0
128.185 16.7238 0
129.467 18.8586 0
128.211 21.0092 0
126.929 18.8744 0
128.198 18.8665 0
129.454 16.7158 0
131.992 16.6998 0
132.02 20.9852 0
129.481 21.0012 0
130.723 16.7078 0
132.006 18.8425 0
130.75 20.9932 0
129.467 18.8586 0
130.737 18.8506 0
131.992 16.6998 0
134.531 16.6834 0
134.558 20.9688 0
132.02 20.9852 0
133.261 16.6916 0
134.544 18.8262 0
133.289 20.977 0
132.006 18.8425 0
133.275 18.8344 0
134.531 16.6834 0
137.069 16.6669 0
137.097 20.9523 0
134.558 20.9688 0
135.8 16.6752 0
137.083 18.8096 0
135.828 20.9606 0
134.544 18.8262 0
135.814 18.8179 0
137.069 16.6669 0
139.607 16.65 0
139.636 20.9354 0
137.097 20.9523 0
138.338 16.6585 0
139.621 18.7927 0
138.366 20.9439 0
137.083 18.8096 0
138.352 18.8012 0
139.607 16.65 0
142.145 16.6329 0
142.174 20.9183 0
139.636 20.9354 0
140.876 16.6415 0
142.16 18.7756 0
140.905 20.9269 0
139.621 18.7927 0
140.891 18.7842 0
142.145 16.6329 0
144.683 16.6155 0
144.713 20.9009 0
142.174 20.9183 0
143.414 16.6242 0
144.698 18.7583 0
143.444 20.9096 0
142.16 18.7756 0
143.429 18.767 0
144.683 16.6155 0
147.222 16.5979 0
147.252 20.8833 0
144.713 20.9009 0
145.953 16.6068 0
147.237 18.7406 0
145.982 20.8921 0
144.698 18.7583 0
145.967 18.7495 0
147.222 16.5979 0
149.76 16.58 0
149.79 20.8654 0
147.252 20.8833 0
148.491 16.589 0
149.775 18.7228 0
148.521 20.8744 0
147.237 18.7406 0
148.506 18.7317 0
149.76 16.58 0
152.298 16.5619 0
152.329 20.8473 0
149.79 20.8654 0
151.029 16.571 0
152.313 18.7046 0
151.059 20.8564 0
149.775 18.7228 0
151.044 18.7137 0
152.298 16.5619 0
154.836 16.5436 0
154.867 20.8289 0
152.329 20.8473 0
153.567 16.5528 0
154.852 18.6863 0
153.598 20.8382 0
152.313 18.7046 0
153.583 18.6955 0
154.836 16.5436 0
157.375 16.5249 0
157.406 20.8103 0
154.867 20.8289 0
156.105 16.5343 0
157.39 18.6677 0
156.137 20.8197 0
154.852 18.6863 0
156.121 18.677 0
157.375 16.5249 0
159.913 16.5061 0
159.945 20.7915 0
157.406 20.8103 0
158.644 16.5155 0
159.929 18.6488 0
158.675 20.8009 0
157.39 18.6677 0
158.66 18.6583 0
159.913 16.5061 0
162.451 16.487 0
162.483 20.7724 0
159.945 20.7915 0
161.182 16.4966 0
162.467 18.6297 0
161.214 20.7819 0
159.929 18.6488 0
161.198 18.6393 0
162.451 16.487 0
164.989 16.4676 0
165.022 20.753 0
162.483 20.7724 0
163.72 16.4773 0
165.006 18.6103 0
163.753 20.7627 0
162.467 18.6297 0
163.736 18.62 0
164.989 16.4676 0
167.527 16.448 0
167.561 20.7334 0
165.022 20.753 0
166.258 16.4579 0
167.544 18.5908 0
166.291 20.7432 0
165.006 18.6103 0
166.275 18.6006 0
167.527 16.448 0
170.066 16.4282 0
170.099 20.7136 0
167.561 20.7334 0
168.796 16.4382 0
170.082 18.5709 0
168.83 20.7235 0
167.544 18.5908 0
168.813 18.5809 0
170.066 16.4282 0
172.604 16.4081 0
172.638 20.6935 0
170.099 20.7136 0
171.335 16.4182 0
172.621 18.5509 0
171.368 20.7036 0
170.082 18.5709 0
171.352 18.5609 0
172.604 16.4081 0
175.142 16.3879 0
175.176 20.6732 0
172.638 20.6935 0
173.873 16.398 0
175.159 18.5306 0
173.907 20.6834 0
172.621 18.5509 0
173.89 18.5407 0
175.142 16.3879 0
177.68 16.3673 0
177.715 20.6527 0
175.176 20.6732 0
176.411 16.3776 0
177.697 18.51 0
176.446 20.663 0
175.159 18.5306 0
176.428 18.5203 0
177.68 16.3673 0
180.218 16.3466 0
180.253 20.6319 0
177.715 20.6527 0
178.949 16.357 0
180.236 18.4893 0
178.984 20.6423 0
177.697 18.51 0
178.967 18.4997 0
180.218 16.3466 0
182.756 16.3256 0
182.792 20.611 0
180.253 20.6319 0
181.487 16.3361 0
182.774 18.4683 0
181.523 20.6215 0
180.236 18.4893 0
181.505 18.4788 0
182.756 16.3256 0
185.295 16.3044 0
185.331 20.5897 0
182.792 20.611 0
184.026 16.315 0
185.313 18.4471 0
184.061 20.6004 0
182.774 18.4683 0
184.043 18.4577 0
185.295 16.3044 0
187.833 16.2829 0
187.869 20.5683 0
185.331 20.5897 0
186.564 16.2937 0
187.851 18.4256 0
186.6 20.579 0
185.313 18.4471 0
186.582 18.4364 0
187.833 16.2829 0
190.371 16.2613 0
190.408 20.5466 0
187.869 20.5683 0
189.102 16.2721 0
190.389 18.404 0
189.138 20.5575 0
187.851 18.4256 0
189.12 18.4148 0
190.371 16.2613 0
192.909 16.2394 0
192.946 20.5247 0
190.408 20.5466 0
191.64 16.2503 0
192.928 18.3821 0
191.677 20.5357 0
190.389 18.404 0
191.658 18.3931 0
192.909 16.2394 0
195.447 16.2173 0
195.485 20.5026 0
192.946 20.5247 0
194.178 16.2284 0
195.466 18.36 0
194.215 20.5137 0
192.928 18.3821 0
194.197 18.3711 0
195.447 16.2173 0
197.985 16.1949 0
198.023 20.4803 0
195.485 20.5026 0
196.716 16.2061 0
198.004 18.3377 0
196.754 20.4915 0
195.466 18.36 0
196.735 18.3488 0
197.985 16.1949 0
200.524 16.1724 0
200.562 20.4578 0
198.023 20.4803 0
199.255 16.1837 0
200.543 18.3151 0
199.292 20.4691 0
198.004 18.3377 0
199.274 18.3264 0
200.524 16.1724 0
203.062 16.1497 0
203.1 20.435 0
200.562 20.4578 0
201.793 16.1611 0
203.081 18.2924 0
201.831 20.4464 0
200.543 18.3151 0
201.812 18.3038 0
203.062 16.1497 0
205.6 16.1267 0
205.639 20.412 0
203.1 20.435 0
204.331 16.1382 0
205.619 18.2694 0
204.369 20.4236 0
203.081 18.2924 0
204.35 18.2809 0
205.6 16.1267 0
208.138 16.1035 0
208.177 20.3889 0
205.639 20.412 0
206.869 16.1151 0
208.158 18.2462 0
206.908 20.4005 0
205.619 18.2694 0
206.888 18.2578 0
208.138 16.1035 0
210.676 16.0801 0
210.716 20.3655 0
208.177 20.3889 0
209.407 16.0918 0
210.696 18.2228 0
209.446 20.3772 0
208.158 18.2462 0
209.427 18.2345 0
210.676 16.0801 0
213.214 16.0565 0
213.254 20.3419 0
210.716 20.3655 0
211.945 16.0684 0
213.234 18.1992 0
211.985 20.3537 0
210.696 18.2228 0
211.965 18.2111 0
213.214 16.0565 0
215.752 16.0327 0
215.793 20.3181 0
213.254 20.3419 0
214.483 16.0447 0
215.773 18.1754 0
214.523 20.33 0
213.234 18.1992 0
214.503 18.1874 0
215.752 16.0327 0
218.291 16.0087 0
218.331 20.2941 0
215.793 20.3181 0
217.022 16.0208 0
218.311 18.1514 0
217.062 20.3061 0
215.773 18.1754 0
217.042 18.1635 0
218.291 16.0087 0
220.829 15.9845 0
220.87 20.2699 0
218.331 20.2941 0
219.56 15.9967 0
220.849 18.1272 0
219.6 20.282 0
218.311 18.1514 0
219.58 18.1394 0
220.829 15.9845 0
223.367 15.9601 0
223.408 20.2455 0
220.87 20.2699 0
222.098 15.9724 0
223.387 18.1028 0
222.139 20.2577 0
220.849 18.1272 0
222.118 18.1151 0
223.367 15.9601 0
225.905 15.9355 0
225.947 20.2209 0
223.408 20.2455 0
224.636 15.9479 0
225.926 18.0782 0
224.677 20.2332 0
223.387 18.1028 0
224.657 18.0906 0
225.905 15.9355 0
228.443 15.9107 0
228.485 20.1961 0
225.947 20.2209 0
227.174 15.9232 0
228.464 18.0534 0
227.216 20.2085 0
225.926 18.0782 0
227.195 18.0659 0
228.443 15.9107 0
230.981 15.8857 0
231.023 20.1711 0
228.485 20.1961 0
229.712 15.8983 0
231.002 18.0284 0
229.754 20.1836 0
228.464 18.0534 0
229.733 18.041 0
230.981 15.8857 0
233.519 15.8606 0
233.562 20.1459 0
231.023 20.1711 0
232.25 15.8732 0
233.541 18.0033 0
232.293 20.1585 0
231.002 18.0284 0
232.271 18.0159 0
233.519 15.8606 0
236.057 15.8352 0
236.1 20.1205 0
233.562 20.1459 0
234.788 15.8479 0
236.079 17.9779 0
234.831 20.1332 0
233.541 18.0033 0
234.81 17.9906 0
236.057 15.8352 0
238.596 15.8096 0
238.639 20.095 0
236.1 20.1205 0
237.326 15.8224 0
238.617 17.9523 0
237.369 20.1078 0
236.079 17.9779 0
237.348 17.9651 0
238.596 15.8096 0
241.134 15.7839 0
241.177 20.0692 0
238.639 20.095 0
239.865 15.7968 0
241.155 17.9266 0
239.908 20.0821 0
238.617 17.9523 0
239.886 17.9395 0
241.134 15.7839 0
243.672 15.7579 0
243.716 20.0433 0
241.177 20.0692 0
242.403 15.7709 0
243.694 17.9006 0
242.446 20.0563 0
241.155 17.9266 0
242.424 17.9136 0
243.672 15.7579 0
246.21 15.7318 0
246.254 20.0172 0
243.716 20.0433 0
244.941 15.7449 0
246.232 17.8745 0
244.985 20.0302 0
243.694 17.9006 0
244.963 17.8876 0
246.21 15.7318 0
248.748 15.7055 0
248.792 19.9909 0
246.254 20.0172 0
247.479 15.7187 0
248.77 17.8482 0
247.523 20.004 0
246.232 17.8745 0
247.501 17.8614 0
248.748 15.7055 0
251.286 15.679 0
251.331 19.9644 0
248.792 19.9909 0
250.017 15.6923 0
251.308 17.8217 0
250.061 19.9776 0
248.77 17.8482 0
250.039 17.835 0
251.286 15.679 0
253.824 15.6524 0
253.869 19.9377 0
251.331 19.9644 0
252.555 15.6657 0
253.847 17.7951 0
252.6 19.9511 0
251.308 17.8217 0
252.577 17.8084 0
253.824 15.6524 0
256.362 15.6256 0
256.407 19.9109 0
253.869 19.9377 0
255.093 15.639 0
256.385 17.7682 0
255.138 19.9243 0
253.847 17.7951 0
255.116 17.7817 0
256.362 15.6256 0
258.9 15.5985 0
258.946 19.8839 0
256.407 19.9109 0
257.631 15.6121 0
258.923 17.7412 0
257.677 19.8974 0
256.385 17.7682 0
257.654 17.7547 0
258.9 15.5985 0
261.438 15.5714 0
261.484 19.8567 0
258.946 19.8839 0
260.169 15.585 0
261.461 17.714 0
260.215 19.8703 0
258.923 17.7412 0
260.192 17.7277 0
261.438 15.5714 0
263.976 15.544 0
264.023 19.8293 0
261.484 19.8567 0
262.707 15.5577 0
263.999 17.6867 0
262.753 19.843 0
261.461 17.714 0
262.73 17.7004 0
263.976 15.544 0
266.514 15.5165 0
266.561 19.8018 0
264.023 19.8293 0
265.245 15.5303 0
266.538 17.6592 0
265.292 19.8156 0
263.999 17.6867 0
265.269 17.6729 0
266.514 15.5165 0
269.052 15.4888 0
269.099 19.7741 0
266.561 19.8018 0
267.783 15.5027 0
269.076 17.6315 0
267.83 19.788 0
266.538 17.6592 0
267.807 17.6453 0
269.052 15.4888 0
271.591 15.4609 0
271.638 19.7463 0
269.099 19.7741 0
270.321 15.4749 0
271.614 17.6036 0
270.368 19.7602 0
269.076 17.6315 0
270.345 17.6176 0
271.591 15.4609 0
274.129 15.4329 0
274.176 19.7182 0
271.638 19.7463 0
272.86 15.447 0
274.152 17.5756 0
272.907 19.7323 0
271.614 17.6036 0
272.883 17.5896 0
274.129 15.4329 0
276.667 15.4048 0
276.714 19.6901 0
274.176 19.7182 0
275.398 15.4189 0
276.69 17.5474 0
275.445 19.7042 0
274.152 17.5756 0
275.421 17.5615 0
276.667 15.4048 0
279.205 15.3764 0
279.253 19.6617 0
276.714 19.6901 0
277.936 15.3906 0
279.229 17.5191 0
277.983 19.6759 0
276.69 17.5474 0
277.959 17.5333 0
279.205 15.3764 0
281.743 15.3479 0
281.791 19.6332 0
279.253 19.6617 0
280.474 15.3622 0
281.767 17.4906 0
280.522 19.6475 0
279.229 17.5191 0
280.498 17.5049 0
281.743 15.3479 0
284.281 15.3193 0
284.329 19.6046 0
281.791 19.6332 0
283.012 15.3336 0
284.305 17.4619 0
283.06 19.6189 0
281.767 17.4906 0
283.036 17.4763 0
284.281 15.3193 0
286.819 15.2905 0
286.867 19.5758 0
284.329 19.6046 0
285.55 15.3049 0
286.843 17.4331 0
285.598 19.5902 0
284.305 17.4619 0
285.574 17.4476 0
286.819 15.2905 0
289.357 15.2615 0
289.406 19.5468 0
286.867 19.5758 0
288.088 15.276 0
289.381 17.4042 0
288.137 19.5613 0
286.843 17.4331 0
288.112 17.4187 0
289.357 15.2615 0
291.895 15.2324 0
291.944 19.5177 0
289.406 19.5468 0
290.626 15.247 0
291.919 17.3751 0
290.675 19.5323 0
289.381 17.4042 0
290.65 17.3896 0
291.895 15.2324 0
294.433 15.2031 0
294.482 19.4884 0
291.944 19.5177 0
293.164 15.2178 0
294.458 17.3458 0
293.213 19.5031 0
291.919 17.3751 0
293.188 17.3604 0
294.433 15.2031 0
296.971 15.1737 0
297.021 19.459 0
294.482 19.4884 0
295.702 15.1884 0
296.996 17.3164 0
295.751 19.4738 0
294.458 17.3458 0
295.727 17.3311 0
296.971 15.1737 0
299.509 15.1442 0
299.559 19.4295 0
297.021 19.459 0
298.24 15.159 0
299.534 17.2868 0
298.29 19.4443 0
296.996 17.3164 0
298.265 17.3016 0
299.509 15.1442 0
302.047 15.1145 0
302.097 19.3998 0
299.559 19.4295 0
300.778 15.1293 0
302.072 17.2571 0
300.828 19.4146 0
299.534 17.2868 0
300.803 17.272 0
302.047 15.1145 0
304.585 15.0846 0
304.635 19.3699 0
302.097 19.3998 0
303.316 15.0996 0
304.61 17.2273 0
303.366 19.3849 0
302.072 17.2571 0
303.341 17.2422 0
304.585 15.0846 0
307.123 15.0547 0
307.174 19.34 0
304.635 19.3699 0
305.854 15.0697 0
307.148 17.1973 0
305.904 19.355 0
304.61 17.2273 0
305.879 17.2123 0
307.123 15.0547 0
309.661 15.0246 0
309.712 19.3098 0
307.174 19.34 0
308.392 15.0396 0
309.686 17.1672 0
308.443 19.3249 0
307.148 17.1973 0
308.417 17.1823 0
309.661 15.0246 0
312.199 14.9943 0
312.25 19.2796 0
309.712 19.3098 0
310.93 15.0094 0
312.225 17.137 0
310.981 19.2947 0
309.686 17.1672 0
310.955 17.1521 0
312.199 14.9943 0
314.737 14.9639 0
314.788 19.2492 0
312.25 19.2796 0
313.468 14.9791 0
314.763 17.1066 0
313.519 19.2644 0
312.225 17.137 0
313.494 17.1218 0
314.737 14.9639 0
317.275 14.9334 0
317.326 19.2187 0
314.788 19.2492 0
316.006 14.9487 0
317.301 17.0761 0
316.057 19.234 0
314.763 17.1066 0
316.032 17.0913 0
317.275 14.9334 0
319.813 14.9028 0
319.865 19.188 0
317.326 19.2187 0
318.544 14.9181 0
319.839 17.0454 0
318.596 19.2034 0
317.301 17.0761 0
318.57 17.0608 0
319.813 14.9028 0
322.351 14.872 0
322.403 19.1573 0
319.865 19.188 0
321.082 14.8874 0
322.377 17.0146 0
321.134 19.1727 0
319.839 17.0454 0
321.108 17.03 0
322.351 14.872 0
324.889 14.8411 0
324.941 19.1264 0
322.403 19.1573 0
323.62 14.8565 0
324.915 16.9837 0
323.672 19.1418 0
322.377 17.0146 0
323.646 16.9992 0
324.889 14.8411 0
327.427 14.81 0
327.479 19.0953 0
324.941 19.1264 0
326.158 14.8256 0
327.453 16.9527 0
326.21 19.1109 0
324.915 16.9837 0
326.184 16.9682 0
327.427 14.81 0
329.965 14.7789 0
330.018 19.0642 0
327.479 19.0953 0
328.696 14.7945 0
329.991 16.9215 0
328.748 19.0798 0
327.453 16.9527 0
328.722 16.9371 0
329.965 14.7789 0
332.503 14.7476 0
332.556 19.0329 0
330.018 19.0642 0
331.234 14.7633 0
332.529 16.8903 0
331.287 19.0486 0
329.991 16.9215 0
331.26 16.9059 0
332.503 14.7476 0
335.041 14.7162 0
335.094 19.0015 0
332.556 19.0329 0
333.772 14.7319 0
335.067 16.8589 0
333.825 19.0172 0
332.529 16.8903 0
333.798 16.8746 0
335.041 14.7162 0
337.579 14.6847 0
337.632 18.97 0
335.094 19.0015 0
336.31 14.7005 0
337.605 16.8274 0
336.363 18.9858 0
335.067 16.8589 0
336.336 16.8431 0
337.579 14.6847 0
340.117 14.6531 0
340.17 18.9384 0
337.632 18.97 0
338.848 14.6689 0
340.144 16.7957 0
338.901 18.9542 0
337.605 16.8274 0
338.874 16.8116 0
340.117 14.6531 0
342.655 14.6213 0
342.708 18.9066 0
340.17 18.9384 0
341.386 14.6372 0
342.682 16.764 0
341.439 18.9225 0
340.144 16.7957 0
341.413 16.7799 0
342.655 14.6213 0
345.193 14.5895 0
345.247 18.8748 0
342.708 18.9066 0
343.924 14.6054 0
345.22 16.7321 0
343.977 18.8907 0
342.682 16.764 0
343.951 16.7481 0
345.193 14.5895 0
347.731 14.5575 0
347.785 18.8428 0
345.247 18.8748 0
346.462 14.5735 0
347.758 16.7002 0
346.516 18.8588 0
345.22 16.7321 0
346.489 16.7162 0
347.731 14.5575 0
350.269 14.5254 0
350.323 18.8107 0
347.785 18.8428 0
349 14.5415 0
350.296 16.6681 0
349.054 18.8268 0
347.758 16.7002 0
349.027 16.6841 0
350.269 14.5254 0
352.807 14.4933 0
352.861 18.7785 0
350.323 18.8107 0
351.538 14.5094 0
352.834 16.6359 0
351.592 18.7946 0
350.296 16.6681 0
351.565 16.652 0
352.807 14.4933 0
355.345 14.461 0
355.399 18.7462 0
352.861 18.7785 0
354.076 14.4771 0
355.372 16.6036 0
354.13 18.7624 0
352.834 16.6359 0
354.103 16.6198 0
355.345 14.461 0
357.883 14.4286 0
357.937 18.7139 0
355.399 18.7462 0
356.614 14.4448 0
357.91 16.5712 0
356.668 18.7301 0
355.372 16.6036 0
356.641 16.5874 0
357.883 14.4286 0
360.42 14.3961 0
360.475 18.6814 0
357.937 18.7139 0
359.152 14.4123 0
360.448 16.5387 0
359.206 18.6976 0
357.91 16.5712 0
359.179 16.555 0
360.42 14.3961 0
362.958 14.3635 0
363.013 18.6488 0
360.475 18.6814 0
361.689 14.3798 0
362.986 16.5061 0
361.744 18.6651 0
360.448 16.5387 0
361.717 16.5224 0
362.958 14.3635 0
365.496 14.3308 0
365.552 18.6161 0
363.013 18.6488 0
364.227 14.3472 0
365.524 16.4734 0
364.282 18.6324 0
362.986 16.5061 0
364.255 16.4898 0
365.496 14.3308 0
368.034 14.298 0
368.09 18.5833 0
365.552 18.6161 0
366.765 14.3144 0
368.062 16.4407 0
366.821 18.5997 0
365.524 16.4734 0
366.793 16.4571 0
368.034 14.298 0
370.572 14.2651 0
370.628 18.5504 0
368.09 18.5833 0
369.303 14.2816 0
370.6 16.4078 0
369.359 18.5669 0
368.062 16.4407 0
369.331 16.4242 0
370.572 14.2651 0
373.11 14.2321 0
373.166 18.5174 0
370.628 18.5504 0
371.841 14.2486 0
373.138 16.3748 0
371.897 18.5339 0
370.6 16.4078 0
371.869 16.3913 0
373.11 14.2321 0
375.648 14.1991 0
375.704 18.4844 0
373.166 18.5174 0
374.379 14.2156 0
375.676 16.3417 0
374.435 18.5009 0
373.138 16.3748 0
374.407 16.3583 0
375.648 14.1991 0
378.186 14.1659 0
378.242 18.4512 0
375.704 18.4844 0
376.917 14.1825 0
378.214 16.3086 0
376.973 18.4678 0
375.676 16.3417 0
376.945 16.3252 0
378.186 14.1659 0
380.724 14.1327 0
380.78 18.418 0
378.242 18.4512 0
379.455 14.1493 0
380.752 16.2753 0
379.511 18.4346 0
378.214 16.3086 0
379.483 16.292 0
380.724 14.1327 0
383.262 14.0994 0
383.318 18.3846 0
380.78 18.418 0
381.993 14.116 0
383.29 16.242 0
382.049 18.4013 0
380.752 16.2753 0
382.021 16.2587 0
383.262 14.0994 0
385.8 14.066 0
385.856 18.3512 0
383.318 18.3846 0
384.531 14.0827 0
385.828 16.2086 0
384.587 18.3679 0
383.29 16.242 0
384.559 16.2253 0
385.8 14.066 0
388.338 14.0325 0
388.394 18.3177 0
385.856 18.3512 0
387.069 14.0492 0
388.366 16.1751 0
387.125 18.3345 0
385.828 16.2086 0
387.097 16.1919 0
388.338 14.0325 0
390.876 13.9989 0
390.932 18.2842 0
388.394 18.3177 0
389.607 14.0157 0
390.904 16.1415 0
389.663 18.301 0
388.366 16.1751 0
389.635 16.1583 0
390.876 13.9989 0
393.414 13.9652 0
393.47 18.2505 0
390.932 18.2842 0
392.145 13.9821 0
393.442 16.1079 0
392.201 18.2673 0
390.904 16.1415 0
392.173 16.1247 0
393.414 13.9652 0
395.951 13.9315 0
396.008 18.2168 0
393.47 18.2505 0
394.683 13.9484 0
395.98 16.0742 0
394.739 18.2337 0
393.442 16.1079 0
394.711 16.091 0
395.951 13.9315 0
398.489 13.8977 0
398.546 18.183 0
396.008 18.2168 0
397.22 13.9146 0
398.518 16.0404 0
397.277 18.1999 0
395.98 16.0742 0
397.249 16.0573 0
398.489 13.8977 0
401.027 13.8638 0
401.084 18.1491 0
398.546 18.183 0
399.758 13.8808 0
401.056 16.0065 0
399.815 18.1661 0
398.518 16.0404 0
399.787 16.0234 0
401.027 13.8638 0
403.565 13.8299 0
403.622 18.1152 0
401.084 18.1491 0
402.296 13.8469 0
403.594 15.9725 0
402.353 18.1321 0
401.056 16.0065 0
402.325 15.9895 0
403.565 13.8299 0
406.103 13.7959 0
406.16 18.0812 0
403.622 18.1152 0
404.834 13.8129 0
406.132 15.9385 0
404.891 18.0982 0
403.594 15.9725 0
404.863 15.9555 0
406.103 13.7959 0
408.641 13.7618 0
408.698 18.0471 0
406.16 18.0812 0
407.372 13.7788 0
408.67 15.9044 0
407.429 18.0641 0
406.132 15.9385 0
407.401 15.9215 0
408.641 13.7618 0
411.179 13.7277 0
411.236 18.0129 0
408.698 18.0471 0
409.91 13.7447 0
411.208 15.8703 0
409.967 18.03 0
408.67 15.9044 0
409.939 15.8874 0
411.179 13.7277 0
413.717 13.6934 0
413.774 17.9787 0
411.236 18.0129 0
412.448 13.7106 0
413.746 15.8361 0
412.505 17.9958 0
411.208 15.8703 0
412.477 15.8532 0
413.717 13.6934 0
416.255 13.6592 0
416.312 17.9444 0
413.774 17.9787 0
414.986 13.6763 0
416.284 15.8018 0
415.043 17.9616 0
413.746 15.8361 0
415.015 15.819 0
416.255 13.6592 0
418.793 13.6248 0
418.85 17.9101 0
416.312 17.9444 0
417.524 13.642 0
418.822 15.7675 0
417.581 17.9273 0
416.284 15.8018 0
417.553 15.7847 0
418.793 13.6248 0
421.33 13.5905 0
421.388 17.8757 0
418.85 17.9101 0
420.062 13.6077 0
421.359 15.7331 0
420.119 17.8929 0
418.822 15.7675 0
420.09 15.7503 0
421.33 13.5905 0
423.868 13.556 0
423.926 17.8413 0
421.388 17.8757 0
422.599 13.5732 0
423.897 15.6986 0
422.657 17.8585 0
421.359 15.7331 0
422.628 15.7159 0
423.868 13.556 0
426.406 13.5215 0
426.464 17.8068 0
423.926 17.8413 0
425.137 13.5388 0
426.435 15.6641 0
425.195 17.824 0
423.897 15.6986 0
425.166 15.6814 0
426.406 13.5215 0
428.944 13.487 0
429.002 17.7722 0
426.464 17.8068 0
427.675 13.5042 0
428.973 15.6296 0
427.733 17.7895 0
426.435 15.6641 0
427.704 15.6469 0
428.944 13.487 0
431.482 13.4524 0
431.54 17.7376 0
429.002 17.7722 0
430.213 13.4697 0
431.511 15.595 0
430.271 17.7549 0
428.973 15.6296 0
430.242 15.6123 0
431.482 13.4524 0
434.02 13.4177 0
434.078 17.703 0
431.54 17.7376 0
432.751 13.435 0
434.049 15.5603 0
432.809 17.7203 0
431.511 15.595 0
432.78 15.5777 0
434.02 13.4177 0
436.558 13.383 0
436.616 17.6683 0
434.078 17.703 0
435.289 13.4004 0
436.587 15.5256 0
435.347 17.6856 0
434.049 15.5603 0
435.318 15.543 0
436.558 13.383 0
439.096 13.3483 0
439.154 17.6335 0
436.616 17.6683 0
437.827 13.3656 0
439.125 15.4909 0
437.885 17.6509 0
436.587 15.5256 0
437.856 15.5083 0
439.096 13.3483 0
441.633 13.3135 0
441.692 17.5987 0
439.154 17.6335 0
440.365 13.3309 0
441.663 15.4561 0
440.423 17.6161 0
439.125 15.4909 0
440.394 15.4735 0
441.633 13.3135 0
444.171 13.2786 0
444.23 17.5639 0
441.692 17.5987 0
442.902 13.2961 0
444.201 15.4213 0
442.961 17.5813 0
441.663 15.4561 0
442.932 15.4387 0
444.171 13.2786 0
446.709 13.2438 0
446.768 17.529 0
444.23 17.5639 0
445.44 13.2612 0
446.739 15.3864 0
445.499 17.5465 0
444.201 15.4213 0
445.47 15.4038 0
446.709 13.2438 0
449.247 13.2089 0
449.306 17.4941 0
446.768 17.529 0
447.978 13.2263 0
449.276 15.3515 0
448.037 17.5116 0
446.739 15.3864 0
448.008 15.369 0
449.247 13.2089 0
451.785 13.1739 0
451.844 17.4592 0
449.306 17.4941 0
450.516 13.1914 0
451.814 15.3166 0
450.575 17.4767 0
449.276 15.3515 0
450.545 15.334 0
451.785 13.1739 0
454.323 13.1389 0
454.382 17.4242 0
451.844 17.4592 0
453.054 13.1564 0
454.352 15.2816 0
453.113 17.4417 0
451.814 15.3166 0
453.083 15.2991 0
454.323 13.1389 0
456.861 13.1039 0
456.92 17.3892 0
454.382 17.4242 0
455.592 13.1214 0
456.89 15.2466 0
455.651 17.4067 0
454.352 15.2816 0
455.621 15.2641 0
456.861 13.1039 0
459.399 13.0689 0
459.458 17.3542 0
456.92 17.3892 0
458.13 13.0864 0
459.428 15.2115 0
458.189 17.3717 0
456.89 15.2466 0
458.159 15.229 0
459.399 13.0689 0
461.936 13.0338 0
461.995 17.3191 0
459.458 17.3542 0
460.667 13.0513 0
461.966 15.1765 0
460.727 17.3366 0
459.428 15.2115 0
460.697 15.194 0
461.936 13.0338 0
464.474 12.9987 0
464.533 17.284 0
461.995 17.3191 0
463.205 13.0163 0
464.504 15.1414 0
463.264 17.3015 0
461.966 15.1765 0
463.235 15.1589 0
464.474 12.9987 0
467.012 12.9636 0
467.071 17.2489 0
464.533 17.284 0
465.743 12.9811 0
467.042 15.1062 0
465.802 17.2664 0
464.504 15.1414 0
465.773 15.1238 0
467.012 12.9636 0
469.55 12.9284 0
469.609 17.2137 0
467.071 17.2489 0
468.281 12.946 0
469.58 15.0711 0
468.34 17.2313 0
467.042 15.1062 0
468.311 15.0887 0
469.55 12.9284 0
472.088 12.8933 0
472.147 17.1786 0
469.609 17.2137 0
470.819 12.9109 0
472.117 15.0359 0
470.878 17.1961 0
469.58 15.0711 0
470.848 15.0535 0
472.088 12.8933 0
474.626 12.8581 0
474.685 17.1434 0
472.147 17.1786 0
473.357 12.8757 0
474.655 15.0007 0
473.416 17.161 0
472.117 15.0359 0
473.386 15.0183 0
474.626 12.8581 0
477.163 12.8229 0
477.223 17.1082 0
474.685 17.1434 0
475.895 12.8405 0
477.193 14.9655 0
475.954 17.1258 0
474.655 15.0007 0
475.924 14.9831 0
477.163 12.8229 0
479.701 12.7876 0
479.761 17.0729 0
477.223 17.1082 0
478.432 12.8053 0
479.731 14.9303 0
478.492 17.0905 0
477.193 14.9655 0
478.462 14.9479 0
479.701 12.7876 0
482.239 12.7524 0
482.298 17.0377 0
479.761 17.0729 0
480.97 12.77 0
482.269 14.8951 0
481.03 17.0553 0
479.731 14.9303 0
481 14.9127 0
482.239 12.7524 0
484.777 12.7172 0
484.836 17.0024 0
482.298 17.0377 0
483.508 12.7348 0
484.807 14.8598 0
483.567 17.0201 0
482.269 14.8951 0
483.538 14.8774 0
484.777 12.7172 0
487.315 12.6819 0
487.374 16.9672 0
484.836 17.0024 0
486.046 12.6995 0
487.344 14.8245 0
486.105 16.9848 0
484.807 14.8598 0
486.076 14.8422 0
487.315 12.6819 0
489.853 12.6466 0
489.912 16.9319 0
487.374 16.9672 0
488.584 12.6643 0
489.882 14.7893 0
488.643 16.9496 0
487.344 14.8245 0
488.613 14.8069 0
489.853 12.6466 0
492.39 12.6113 0
492.45 16.8966 0
489.912 16.9319 0
491.122 12.629 0
492.42 14.754 0
491.181 16.9143 0
489.882 14.7893 0
491.151 14.7716 0
492.39 12.6113 0
494.928 12.5761 0
494.988 16.8613 0
492.45 16.8966 0
493.659 12.5937 0
494.958 14.7187 0
493.719 16.879 0
492.42 14.754 0
493.689 14.7363 0
494.928 12.5761 0
497.466 12.5408 0
497.526 16.8261 0
494.988 16.8613 0
496.197 12.5584 0
497.496 14.6834 0
496.257 16.8437 0
494.958 14.7187 0
496.227 14.7011 0
497.466 12.5408 0
500.004 12.5055 0
500.063 16.7908 0
497.526 16.8261 0
498.735 12.5232 0
500.034 14.6482 0
498.794 16.8084 0
497.496 14.6834 0
498.765 14.6658 0
0 21.4286 0
2.53887 21.4285 0
2.53945 25.7139 0
0 25.7143 0
1.26942 21.4286 0
2.53915 23.5712 0
1.2697 25.7141 0
0 23.5714 0
1.26957 23.5714 0
2.53887 21.4285 0
5.0778 21.4279 0
5.079 25.7132 0
2.53945 25.7139 0
3.80833 21.4283 0
5.07838 23.5706 0
3.80922 25.7136 0
2.53915 23.5712 0
3.80875 23.571 0
5.0778 21.4279 0
7.61677 21.427 0
7.61858 25.7121 0
5.079 25.7132 0
6.34728 21.4275 0
7.61765 23.5696 0
6.34879 25.7127 0
5.07838 23.5706 0
6.34802 23.5702 0
7.61677 21.427 0
10.1557 21.4257 0
10.1581 25.7108 0
7.61858 25.7121 0
8.88625 21.4264 0
10.1569 23.5683 0
8.88836 25.7115 0
7.61765 23.5696 0
8.88729 23.569 0
10.1557 21.4257 0
12.6947 21.4241 0
12.6977 25.7092 0
10.1581 25.7108 0
11.4252 21.4249 0
12.6962 23.5667 0
11.4279 25.7101 0
10.1569 23.5683 0
11.4266 23.5675 0
12.6947 21.4241 0
15.2337 21.4221 0
15.2372 25.7072 0
12.6977 25.7092 0
13.9642 21.4231 0
15.2354 23.5647 0
13.9675 25.7082 0
12.6962 23.5667 0
13.9658 23.5657 0
15.2337 21.4221 0
17.7726 21.4198 0
17.7768 25.7049 0
15.2372 25.7072 0
16.5031 21.421 0
17.7747 23.5624 0
16.507 25.7061 0
15.2354 23.5647 0
16.5051 23.5636 0
17.7726 21.4198 0
20.3116 21.4171 0
20.3163 25.7022 0
17.7768 25.7049 0
19.0421 21.4185 0
20.3139 23.5597 0
19.0465 25.7036 0
17.7747 23.5624 0
19.0443 23.5611 0
20.3116 21.4171 0
22.8505 21.4141 0
22.8558 25.6992 0
20.3163 25.7022 0
21.581 21.4156 0
22.8531 23.5567 0
21.586 25.7007 0
20.3139 23.5597 0
21.5835 23.5582 0
22.8505 21.4141 0
25.3894 21.4107 0
25.3953 25.6958 0
22.8558 25.6992 0
24.12 21.4124 0
25.3924 23.5533 0
24.1256 25.6976 0
22.8531 23.5567 0
24.1228 23.555 0
25.3894 21.4107 0
27.9284 21.407 0
27.9348 25.6921 0
25.3953 25.6958 0
26.6589 21.4089 0
27.9316 23.5496 0
26.6651 25.694 0
25.3924 23.5533 0
26.662 23.5515 0
27.9284 21.407 0
30.4673 21.403 0
30.4743 25.6881 0
27.9348 25.6921 0
29.1978 21.405 0
30.4708 23.5456 0
29.2045 25.6902 0
27.9316 23.5496 0
29.2012 23.5476 0
30.4673 21.403 0
33.0062 21.3986 0
33.0138 25.6837 0
30.4743 25.6881 0
31.7367 21.4008 0
33.01 23.5412 0
31.744 25.686 0
30.4708 23.5456 0
31.7404 23.5434 0
33.0062 21.3986 0
35.5451 21.3939 0
35.5532 25.679 0
33.0138 25.6837 0
34.2757 21.3963 0
35.5492 23.5365 0
34.2835 25.6814 0
33.01 23.5412 0
34.2796 23.5389 0
35.5451 21.3939 0
38.084 21.3888 0
38.0927 25.674 0
35.5532 25.679 0
36.8146 21.3914 0
38.0884 23.5314 0
36.823 25.6765 0
35.5492 23.5365 0
36.8188 23.534 0
38.084 21.3888 0
40.6229 21.3835 0
40.6322 25.6686 0
38.0927 25.674 0
39.3535 21.3862 0
40.6275 23.5261 0
39.3624 25.6713 0
38.0884 23.5314 0
39.358 23.5288 0
40.6229 21.3835 0
43.1618 21.3778 0
43.1716 25.6629 0
40.6322 25.6686 0
41.8924 21.3807 0
43.1667 23.5204 0
41.9019 25.6658 0
40.6275 23.5261 0
41.8971 23.5233 0
43.1618 21.3778 0
45.7007 21.3717 0
45.7111 25.6569 0
43.1716 25.6629 0
44.4313 21.3748 0
45.7059 23.5143 0
44.4413 25.6599 0
43.1667 23.5204 0
44.4363 23.5174 0
45.7007 21.3717 0
48.2396 21.3654 0
48.2505 25.6505 0
45.7111 25.6569 0
46.9701 21.3686 0
48.245 23.508 0
46.9808 25.6537 0
45.7059 23.5143 0
46.9755 23.5112 0
48.2396 21.3654 0
50.7785 21.3587 0
50.7899 25.6439 0
48.2505 25.6505 0
49.509 21.3621 0
50.7842 23.5013 0
49.5202 25.6472 0
48.245 23.508 0
49.5146 23.5047 0
50.7785 21.3587 0
53.3173 21.3517 0
53.3293 25.6369 0
50.7899 25.6439 0
52.0479 21.3553 0
53.3233 23.4943 0
52.0596 25.6404 0
50.7842 23.5013 0
52.0538 23.4979 0
53.3173 21.3517 0
55.8562 21.3444 0
55.8687 25.6295 0
53.3293 25.6369 0
54.5868 21.3481 0
55.8625 23.487 0
54.599 25.6332 0
53.3233 23.4943 0
54.5929 23.4907 0
55.8562 21.3444 0
58.3951 21.3368 0
58.4081 25.6219 0
55.8687 25.6295 0
57.1256 21.3406 0
58.4016 23.4794 0
57.1384 25.6258 0
55.8625 23.487 0
57.132 23.4832 0
58.3951 21.3368 0
60.9339 21.3288 0
60.9475 25.614 0
58.4081 25.6219 0
59.6645 21.3328 0
60.9407 23.4714 0
59.6778 25.618 0
58.4016 23.4794 0
59.6712 23.4754 0
60.9339 21.3288 0
63.4728 21.3205 0
63.4869 25.6057 0
60.9475 25.614 0
62.2034 21.3247 0
63.4798 23.4632 0
62.2172 25.6099 0
60.9407 23.4714 0
62.2103 23.4673 0
63.4728 21.3205 0
66.0116 21.312 0
66.0263 25.5971 0
63.4869 25.6057 0
64.7422 21.3163 0
66.0189 23.4546 0
64.7566 25.6014 0
63.4798 23.4632 0
64.7494 23.4589 0
66.0116 21.312 0
68.5505 21.3031 0
68.5656 25.5882 0
66.0263 25.5971 0
67.281 21.3076 0
68.558 23.4457 0
67.296 25.5927 0
66.0189 23.4546 0
67.2885 23.4502 0
68.5505 21.3031 0
71.0893 21.2939 0
71.105 25.579 0
68.5656 25.5882 0
69.8199 21.2985 0
71.0971 23.4365 0
69.8353 25.5837 0
68.558 23.4457 0
69.8276 23.4411 0
71.0893 21.2939 0
73.6281 21.2844 0
73.6443 25.5695 0
71.105 25.579 0
72.3587 21.2892 0
73.6362 23.427 0
72.3747 25.5743 0
71.0971 23.4365 0
72.3667 23.4318 0
73.6281 21.2844 0
76.1669 21.2746 0
76.1837 25.5597 0
73.6443 25.5695 0
74.8975 21.2795 0
76.1753 23.4172 0
74.914 25.5647 0
73.6362 23.427 0
74.9058 23.4221 0
76.1669 21.2746 0
78.7058 21.2644 0
78.723 25.5496 0
76.1837 25.5597 0
77.4364 21.2695 0
78.7144 23.4071 0
77.4533 25.5547 0
76.1753 23.4172 0
77.4448 23.4122 0
78.7058 21.2644 0
81.2446 21.254 0
81.2623 25.5392 0
78.723 25.5496 0
79.9752 21.2593 0
81.2534 23.3966 0
79.9927 25.5444 0
78.7144 23.4071 0
79.9839 23.4019 0
81.2446 21.254 0
83.7834 21.2433 0
83.8016 25.5285 0
81.2623 25.5392 0
82.514 21.2487 0
83.7925 23.3859 0
82.532 25.5339 0
81.2534 23.3966 0
82.523 23.3913 0
83.7834 21.2433 0
86.3222 21.2323 0
86.3409 25.5175 0
83.8016 25.5285 0
85.0528 21.2378 0
86.3315 23.3749 0
85.0713 25.523 0
83.7925 23.3859 0
85.062 23.3805 0
86.3222 21.2323 0
88.861 21.221 0
88.8802 25.5062 0
86.3409 25.5175 0
87.5916 21.2267 0
88.8706 23.3636 0
87.6106 25.5118 0
86.3315 23.3749 0
87.6011 23.3693 0
88.861 21.221 0
91.3998 21.2094 0
91.4195 25.4946 0
88.8802 25.5062 0
90.1304 21.2152 0
91.4096 23.352 0
90.1499 25.5004 0
88.8706 23.3636 0
90.1401 23.3578 0
91.3998 21.2094 0
93.9385 21.1975 0
93.9588 25.4827 0
91.4195 25.4946 0
92.6691 21.2035 0
93.9486 23.3401 0
92.6891 25.4886 0
91.4096 23.352 0
92.6791 23.3461 0
93.9385 21.1975 0
96.4773 21.1853 0
96.498 25.4705 0
93.9588 25.4827 0
95.2079 21.1914 0
96.4877 23.3279 0
95.2284 25.4766 0
93.9486 23.3401 0
95.2182 23.334 0
96.4773 21.1853 0
99.0161 21.1728 0
99.0373 25.458 0
96.498 25.4705 0
97.7467 21.1791 0
99.0267 23.3154 0
97.7677 25.4643 0
96.4877 23.3279 0
97.7572 23.3217 0
99.0161 21.1728 0
101.555 21.1601 0
101.577 25.4452 0
99.0373 25.458 0
100.285 21.1665 0
101.566 23.3027 0
100.307 25.4516 0
99.0267 23.3154 0
100.296 23.3091 0
101.555 21.1601 0
104.094 21.147 0
104.116 25.4322 0
101.577 25.4452 0
102.824 21.1536 0
104.105 23.2896 0
102.846 25.4387 0
101.566 23.3027 0
102.835 23.2962 0
104.094 21.147 0
106.632 21.1337 0
106.655 25.4189 0
104.116 25.4322 0
105.363 21.1404 0
106.644 23.2763 0
105.385 25.4256 0
104.105 23.2896 0
105.374 23.283 0
106.632 21.1337 0
109.171 21.1201 0
109.194 25.4052 0
106.655 25.4189 0
107.902 21.1269 0
109.183 23.2627 0
107.925 25.4121 0
106.644 23.2763 0
107.913 23.2695 0
109.171 21.1201 0
111.71 21.1062 0
111.733 25.3913 0
109.194 25.4052 0
110.44 21.1132 0
111.722 23.2488 0
110.464 25.3983 0
109.183 23.2627 0
110.452 23.2558 0
111.71 21.1062 0
114.249 21.092 0
114.273 25.3772 0
111.733 25.3913 0
112.979 21.0991 0
114.261 23.2346 0
113.003 25.3843 0
111.722 23.2488 0
112.991 23.2417 0
114.249 21.092 0
116.787 21.0776 0
116.812 25.3627 0
114.273 25.3772 0
115.518 21.0848 0
116.8 23.2202 0
115.542 25.37 0
114.261 23.2346 0
115.53 23.2274 0
116.787 21.0776 0
119.326 21.0628 0
119.351 25.348 0
116.812 25.3627 0
118.057 21.0702 0
119.339 23.2054 0
118.081 25.3554 0
116.8 23.2202 0
118.069 23.2128 0
119.326 21.0628 0
121.865 21.0478 0
121.89 25.333 0
119.351 25.348 0
120.595 21.0554 0
121.877 23.1905 0
120.621 25.3405 0
119.339 23.2054 0
120.608 23.198 0
121.865 21.0478 0
124.403 21.0326 0
124.429 25.3177 0
121.89 25.333 0
123.134 21.0402 0
124.416 23.1752 0
123.16 25.3254 0
121.877 23.1905 0
123.147 23.1829 0
124.403 21.0326 0
126.942 21.017 0
126.968 25.3022 0
124.429 25.3177 0
125.673 21.0248 0
126.955 23.1597 0
125.699 25.31 0
124.416 23.1752 0
125.686 23.1675 0
126.942 21.017 0
129.481 21.0012 0
129.508 25.2864 0
126.968 25.3022 0
128.211 21.0092 0
129.494 23.1439 0
128.238 25.2943 0
126.955 23.1597 0
128.225 23.1518 0
129.481 21.0012 0
132.02 20.9852 0
132.047 25.2703 0
129.508 25.2864 0
130.75 20.9932 0
132.033 23.1278 0
130.777 25.2784 0
129.494 23.1439 0
130.764 23.1359 0
132.02 20.9852 0
134.558 20.9688 0
134.586 25.254 0
132.047 25.2703 0
133.289 20.977 0
134.572 23.1115 0
133.316 25.2622 0
132.033 23.1278 0
133.303 23.1197 0
134.558 20.9688 0
137.097 20.9523 0
137.125 25.2374 0
134.586 25.254 0
135.828 20.9606 0
137.111 23.0949 0
135.855 25.2458 0
134.572 23.1115 0
135.842 23.1032 0
137.097 20.9523 0
139.636 20.9354 0
139.664 25.2206 0
137.125 25.2374 0
138.366 20.9439 0
139.65 23.078 0
138.395 25.229 0
137.111 23.0949 0
138.38 23.0865 0
139.636 20.9354 0
142.174 20.9183 0
142.203 25.2035 0
139.664 25.2206 0
140.905 20.9269 0
142.189 23.0609 0
140.934 25.2121 0
139.65 23.078 0
140.919 23.0695 0
142.174 20.9183 0
144.713 20.9009 0
144.742 25.1861 0
142.203 25.2035 0
143.444 20.9096 0
144.728 23.0435 0
143.473 25.1948 0
142.189 23.0609 0
143.458 23.0523 0
144.713 20.9009 0
147.252 20.8833 0
147.281 25.1685 0
144.742 25.1861 0
145.982 20.8921 0
147.266 23.0259 0
146.012 25.1773 0
144.728 23.0435 0
145.997 23.0348 0
147.252 20.8833 0
149.79 20.8654 0
149.82 25.1506 0
147.281 25.1685 0
148.521 20.8744 0
149.805 23.0081 0
148.551 25.1596 0
147.266 23.0259 0
148.536 23.017 0
149.79 20.8654 0
152.329 20.8473 0
152.36 25.1325 0
149.82 25.1506 0
151.059 20.8564 0
152.344 22.9899 0
151.09 25.1416 0
149.805 23.0081 0
151.075 22.999 0
152.329 20.8473 0
154.867 20.8289 0
154.899 25.1141 0
152.36 25.1325 0
153.598 20.8382 0
154.883 22.9716 0
153.629 25.1233 0
152.344 22.9899 0
153.614 22.9808 0
154.867 20.8289 0
157.406 20.8103 0
157.438 25.0955 0
154.899 25.1141 0
156.137 20.8197 0
157.422 22.9529 0
156.168 25.1048 0
154.883 22.9716 0
156.152 22.9623 0
157.406 20.8103 0
159.945 20.7915 0
159.977 25.0766 0
157.438 25.0955 0
158.675 20.8009 0
159.961 22.9341 0
158.707 25.0861 0
157.422 22.9529 0
158.691 22.9435 0
159.945 20.7915 0
162.483 20.7724 0
162.516 25.0575 0
159.977 25.0766 0
161.214 20.7819 0
162.499 22.915 0
161.246 25.0671 0
159.961 22.9341 0
161.23 22.9246 0
162.483 20.7724 0
165.022 20.753 0
165.055 25.0382 0
162.516 25.0575 0
163.753 20.7627 0
165.038 22.8956 0
163.785 25.0479 0
162.499 22.915 0
163.769 22.9053 0
165.022 20.753 0
167.561 20.7334 0
167.594 25.0186 0
165.055 25.0382 0
166.291 20.7432 0
167.577 22.876 0
166.324 25.0284 0
165.038 22.8956 0
166.308 22.8859 0
167.561 20.7334 0
170.099 20.7136 0
170.133 24.9988 0
167.594 25.0186 0
168.83 20.7235 0
170.116 22.8562 0
168.863 25.0087 0
167.577 22.876 0
168.846 22.8661 0
170.099 20.7136 0
172.638 20.6935 0
172.672 24.9787 0
170.133 24.9988 0
171.368 20.7036 0
172.655 22.8361 0
171.402 24.9888 0
170.116 22.8562 0
171.385 22.8462 0
172.638 20.6935 0
175.176 20.6732 0
175.211 24.9584 0
172.672 24.9787 0
173.907 20.6834 0
175.193 22.8158 0
173.941 24.9686 0
172.655 22.8361 0
173.924 22.826 0
175.176 20.6732 0
177.715 20.6527 0
177.75 24.9379 0
175.211 24.9584 0
176.446 20.663 0
177.732 22.7953 0
176.48 24.9482 0
175.193 22.8158 0
176.463 22.8056 0
177.715 20.6527 0
180.253 20.6319 0
180.289 24.9171 0
177.75 24.9379 0
178.984 20.6423 0
180.271 22.7746 0
179.019 24.9275 0
177.732 22.7953 0
179.002 22.785 0
180.253 20.6319 0
182.792 20.611 0
182.828 24.8961 0
180.289 24.9171 0
181.523 20.6215 0
182.81 22.7536 0
181.558 24.9067 0
180.271 22.7746 0
181.54 22.7641 0
182.792 20.611 0
185.331 20.5897 0
185.366 24.8749 0
182.828 24.8961 0
184.061 20.6004 0
185.348 22.7323 0
184.097 24.8855 0
182.81 22.7536 0
184.079 22.743 0
185.331 20.5897 0
187.869 20.5683 0
187.905 24.8535 0
185.366 24.8749 0
186.6 20.579 0
187.887 22.7109 0
186.636 24.8642 0
185.348 22.7323 0
186.618 22.7217 0
187.869 20.5683 0
190.408 20.5466 0
190.444 24.8318 0
187.905 24.8535 0
189.138 20.5575 0
190.426 22.6892 0
189.175 24.8427 0
187.887 22.7109 0
189.157 22.7001 0
190.408 20.5466 0
192.946 20.5247 0
192.983 24.8099 0
190.444 24.8318 0
191.677 20.5357 0
192.965 22.6674 0
191.714 24.8209 0
190.426 22.6892 0
191.695 22.6783 0
192.946 20.5247 0
195.485 20.5026 0
195.522 24.7878 0
192.983 24.8099 0
194.215 20.5137 0
195.503 22.6452 0
194.253 24.7989 0
192.965 22.6674 0
194.234 22.6563 0
195.485 20.5026 0
198.023 20.4803 0
198.061 24.7655 0
195.522 24.7878 0
196.754 20.4915 0
198.042 22.6229 0
196.792 24.7767 0
195.503 22.6452 0
196.773 22.6341 0
198.023 20.4803 0
200.562 20.4578 0
200.6 24.7429 0
198.061 24.7655 0
199.292 20.4691 0
200.581 22.6004 0
199.33 24.7542 0
198.042 22.6229 0
199.311 22.6117 0
200.562 20.4578 0
203.1 20.435 0
203.139 24.7202 0
200.6 24.7429 0
201.831 20.4464 0
203.119 22.5776 0
201.869 24.7316 0
200.581 22.6004 0
201.85 22.589 0
203.1 20.435 0
205.639 20.412 0
205.678 24.6972 0
203.139 24.7202 0
204.369 20.4236 0
205.658 22.5547 0
204.408 24.7087 0
203.119 22.5776 0
204.389 22.5662 0
205.639 20.412 0
208.177 20.3889 0
208.216 24.674 0
205.678 24.6972 0
206.908 20.4005 0
208.197 22.5315 0
206.947 24.6857 0
205.658 22.5547 0
206.928 22.5431 0
208.177 20.3889 0
210.716 20.3655 0
210.755 24.6507 0
208.216 24.674 0
209.446 20.3772 0
210.736 22.5081 0
209.486 24.6624 0
208.197 22.5315 0
209.466 22.5198 0
210.716 20.3655 0
213.254 20.3419 0
213.294 24.6271 0
210.755 24.6507 0
211.985 20.3537 0
213.274 22.4845 0
212.025 24.6389 0
210.736 22.5081 0
212.005 22.4963 0
213.254 20.3419 0
215.793 20.3181 0
215.833 24.6033 0
213.294 24.6271 0
214.523 20.33 0
215.813 22.4607 0
214.564 24.6152 0
213.274 22.4845 0
214.543 22.4726 0
215.793 20.3181 0
218.331 20.2941 0
218.372 24.5793 0
215.833 24.6033 0
217.062 20.3061 0
218.351 22.4367 0
217.102 24.5913 0
215.813 22.4607 0
217.082 22.4487 0
218.331 20.2941 0
220.87 20.2699 0
220.911 24.5551 0
218.372 24.5793 0
219.6 20.282 0
220.89 22.4125 0
219.641 24.5672 0
218.351 22.4367 0
219.621 22.4246 0
220.87 20.2699 0
223.408 20.2455 0
223.449 24.5307 0
220.911 24.5551 0
222.139 20.2577 0
223.429 22.3881 0
222.18 24.5429 0
220.89 22.4125 0
222.159 22.4003 0
223.408 20.2455 0
225.947 20.2209 0
225.988 24.5061 0
223.449 24.5307 0
224.677 20.2332 0
225.967 22.3635 0
224.719 24.5184 0
223.429 22.3881 0
224.698 22.3758 0
225.947 20.2209 0
228.485 20.1961 0
228.527 24.4813 0
225.988 24.5061 0
227.216 20.2085 0
228.506 22.3387 0
227.258 24.4937 0
225.967 22.3635 0
227.237 22.3511 0
228.485 20.1961 0
231.023 20.1711 0
231.066 24.4563 0
228.527 24.4813 0
229.754 20.1836 0
231.045 22.3137 0
229.796 24.4688 0
228.506 22.3387 0
229.775 22.3262 0
231.023 20.1711 0
233.562 20.1459 0
233.604 24.4311 0
231.066 24.4563 0
232.293 20.1585 0
233.583 22.2885 0
232.335 24.4437 0
231.045 22.3137 0
232.314 22.3011 0
233.562 20.1459 0
236.1 20.1205 0
236.143 24.4057 0
233.604 24.4311 0
234.831 20.1332 0
236.122 22.2631 0
234.874 24.4184 0
233.583 22.2885 0
234.852 22.2758 0
236.1 20.1205 0
238.639 20.095 0
238.682 24.3801 0
236.143 24.4057 0
237.369 20.1078 0
238.66 22.2376 0
237.413 24.3929 0
236.122 22.2631 0
237.391 22.2504 0
238.639 20.095 0
241.177 20.0692 0
241.221 24.3544 0
238.682 24.3801 0
239.908 20.0821 0
241.199 22.2118 0
239.951 24.3673 0
238.66 22.2376 0
239.93 22.2247 0
241.177 20.0692 0
243.716 20.0433 0
243.759 24.3285 0
241.221 24.3544 0
242.446 20.0563 0
243.737 22.1859 0
242.49 24.3414 0
241.199 22.2118 0
242.468 22.1989 0
243.716 20.0433 0
246.254 20.0172 0
246.298 24.3023 0
243.759 24.3285 0
244.985 20.0302 0
246.276 22.1598 0
245.029 24.3154 0
243.737 22.1859 0
245.007 22.1728 0
246.254 20.0172 0
248.792 19.9909 0
248.837 24.276 0
246.298 24.3023 0
247.523 20.004 0
248.815 22.1335 0
247.567 24.2892 0
246.276 22.1598 0
247.545 22.1466 0
248.792 19.9909 0
251.331 19.9644 0
251.375 24.2495 0
248.837 24.276 0
250.061 19.9776 0
251.353 22.107 0
250.106 24.2628 0
248.815 22.1335 0
250.084 22.1202 0
251.331 19.9644 0
253.869 19.9377 0
253.914 24.2229 0
251.375 24.2495 0
252.6 19.9511 0
253.892 22.0803 0
252.645 24.2362 0
251.353 22.107 0
252.622 22.0937 0
253.869 19.9377 0
256.407 19.9109 0
256.453 24.1961 0
253.914 24.2229 0
255.138 19.9243 0
256.43 22.0535 0
255.183 24.2095 0
253.892 22.0803 0
255.161 22.0669 0
256.407 19.9109 0
258.946 19.8839 0
258.991 24.169 0
256.453 24.1961 0
257.677 19.8974 0
258.969 22.0265 0
257.722 24.1826 0
256.43 22.0535 0
257.699 22.04 0
258.946 19.8839 0
261.484 19.8567 0
261.53 24.1419 0
258.991 24.169 0
260.215 19.8703 0
261.507 21.9993 0
260.261 24.1555 0
258.969 22.0265 0
260.238 22.0129 0
261.484 19.8567 0
264.023 19.8293 0
264.069 24.1145 0
261.53 24.1419 0
262.753 19.843 0
264.046 21.9719 0
262.799 24.1282 0
261.507 21.9993 0
262.776 21.9856 0
264.023 19.8293 0
266.561 19.8018 0
266.607 24.087 0
264.069 24.1145 0
265.292 19.8156 0
266.584 21.9444 0
265.338 24.1008 0
264.046 21.9719 0
265.315 21.9582 0
266.561 19.8018 0
269.099 19.7741 0
269.146 24.0593 0
266.607 24.087 0
267.83 19.788 0
269.123 21.9167 0
267.877 24.0732 0
266.584 21.9444 0
267.853 21.9306 0
269.099 19.7741 0
271.638 19.7463 0
271.685 24.0314 0
269.146 24.0593 0
270.368 19.7602 0
271.661 21.8889 0
270.415 24.0454 0
269.123 21.9167 0
270.392 21.9028 0
271.638 19.7463 0
274.176 19.7182 0
274.223 24.0034 0
271.685 24.0314 0
272.907 19.7323 0
274.2 21.8609 0
272.954 24.0175 0
271.661 21.8889 0
272.93 21.8749 0
274.176 19.7182 0
276.714 19.6901 0
276.762 23.9752 0
274.223 24.0034 0
275.445 19.7042 0
276.738 21.8327 0
275.493 23.9894 0
274.2 21.8609 0
275.469 21.8468 0
276.714 19.6901 0
279.253 19.6617 0
279.3 23.9469 0
276.762 23.9752 0
277.983 19.6759 0
279.276 21.8043 0
278.031 23.9611 0
276.738 21.8327 0
278.007 21.8185 0
279.253 19.6617 0
281.791 19.6332 0
281.839 23.9184 0
279.3 23.9469 0
280.522 19.6475 0
281.815 21.7758 0
280.57 23.9327 0
279.276 21.8043 0
280.546 21.7901 0
281.791 19.6332 0
284.329 19.6046 0
284.378 23.8898 0
281.839 23.9184 0
283.06 19.6189 0
284.353 21.7472 0
283.108 23.9041 0
281.815 21.7758 0
283.084 21.7615 0
284.329 19.6046 0
286.867 19.5758 0
286.916 23.8609 0
284.378 23.8898 0
285.598 19.5902 0
286.892 21.7184 0
285.647 23.8754 0
284.353 21.7472 0
285.623 21.7328 0
286.867 19.5758 0
289.406 19.5468 0
289.455 23.832 0
286.916 23.8609 0
288.137 19.5613 0
289.43 21.6894 0
288.185 23.8465 0
286.892 21.7184 0
288.161 21.7039 0
289.406 19.5468 0
291.944 19.5177 0
291.993 23.8029 0
289.455 23.832 0
290.675 19.5323 0
291.969 21.6603 0
290.724 23.8174 0
289.43 21.6894 0
290.699 21.6749 0
291.944 19.5177 0
294.482 19.4884 0
294.532 23.7736 0
291.993 23.8029 0
293.213 19.5031 0
294.507 21.631 0
293.262 23.7883 0
291.969 21.6603 0
293.238 21.6457 0
294.482 19.4884 0
297.021 19.459 0
297.07 23.7442 0
294.532 23.7736 0
295.751 19.4738 0
297.045 21.6016 0
295.801 23.7589 0
294.507 21.631 0
295.776 21.6164 0
297.021 19.459 0
299.559 19.4295 0
299.609 23.7147 0
297.07 23.7442 0
298.29 19.4443 0
299.584 21.5721 0
298.339 23.7294 0
297.045 21.6016 0
298.315 21.5869 0
299.559 19.4295 0
302.097 19.3998 0
302.147 23.685 0
299.609 23.7147 0
300.828 19.4146 0
302.122 21.5424 0
300.878 23.6998 0
299.584 21.5721 0
300.853 21.5572 0
302.097 19.3998 0
304.635 19.3699 0
304.686 23.6551 0
302.147 23.685 0
303.366 19.3849 0
304.661 21.5125 0
303.416 23.6701 0
302.122 21.5424 0
303.391 21.5275 0
304.635 19.3699 0
307.174 19.34 0
307.224 23.6251 0
304.686 23.6551 0
305.904 19.355 0
307.199 21.4826 0
305.955 23.6401 0
304.661 21.5125 0
305.93 21.4976 0
307.174 19.34 0
309.712 19.3098 0
309.763 23.595 0
307.224 23.6251 0
308.443 19.3249 0
309.737 21.4525 0
308.493 23.6101 0
307.199 21.4826 0
308.468 21.4675 0
309.712 19.3098 0
312.25 19.2796 0
312.301 23.5648 0
309.763 23.595 0
310.981 19.2947 0
312.276 21.4222 0
311.032 23.5799 0
309.737 21.4525 0
311.006 21.4373 0
312.25 19.2796 0
314.788 19.2492 0
314.84 23.5344 0
312.301 23.5648 0
313.519 19.2644 0
314.814 21.3918 0
313.57 23.5496 0
312.276 21.4222 0
313.545 21.407 0
314.788 19.2492 0
317.326 19.2187 0
317.378 23.5039 0
314.84 23.5344 0
316.057 19.234 0
317.352 21.3613 0
316.109 23.5191 0
314.814 21.3918 0
316.083 21.3766 0
317.326 19.2187 0
319.865 19.188 0
319.916 23.4732 0
317.378 23.5039 0
318.596 19.2034 0
319.891 21.3306 0
318.647 23.4886 0
317.352 21.3613 0
318.621 21.346 0
319.865 19.188 0
322.403 19.1573 0
322.455 23.4424 0
319.916 23.4732 0
321.134 19.1727 0
322.429 21.2999 0
321.186 23.4579 0
319.891 21.3306 0
321.16 21.3153 0
322.403 19.1573 0
324.941 19.1264 0
324.993 23.4115 0
322.455 23.4424 0
323.672 19.1418 0
324.967 21.269 0
323.724 23.427 0
322.429 21.2999 0
323.698 21.2844 0
324.941 19.1264 0
327.479 19.0953 0
327.532 23.3805 0
324.993 23.4115 0
326.21 19.1109 0
327.506 21.2379 0
326.263 23.396 0
324.967 21.269 0
326.236 21.2535 0
327.479 19.0953 0
330.018 19.0642 0
330.07 23.3494 0
327.532 23.3805 0
328.748 19.0798 0
330.044 21.2068 0
328.801 23.3649 0
327.506 21.2379 0
328.775 21.2224 0
330.018 19.0642 0
332.556 19.0329 0
332.608 23.3181 0
330.07 23.3494 0
331.287 19.0486 0
332.582 21.1755 0
331.339 23.3337 0
330.044 21.2068 0
331.313 21.1912 0
332.556 19.0329 0
335.094 19.0015 0
335.147 23.2867 0
332.608 23.3181 0
333.825 19.0172 0
335.12 21.1441 0
333.878 23.3024 0
332.582 21.1755 0
333.851 21.1598 0
335.094 19.0015 0
337.632 18.97 0
337.685 23.2552 0
335.147 23.2867 0
336.363 18.9858 0
337.659 21.1126 0
336.416 23.2709 0
335.12 21.1441 0
336.39 21.1284 0
337.632 18.97 0
340.17 18.9384 0
340.224 23.2235 0
337.685 23.2552 0
338.901 18.9542 0
340.197 21.081 0
338.954 23.2394 0
337.659 21.1126 0
338.928 21.0968 0
340.17 18.9384 0
342.708 18.9066 0
342.762 23.1918 0
340.224 23.2235 0
341.439 18.9225 0
342.735 21.0492 0
341.493 23.2077 0
340.197 21.081 0
341.466 21.0651 0
342.708 18.9066 0
345.247 18.8748 0
345.3 23.1599 0
342.762 23.1918 0
343.977 18.8907 0
345.273 21.0174 0
344.031 23.1759 0
342.735 21.0492 0
344.004 21.0333 0
345.247 18.8748 0
347.785 18.8428 0
347.839 23.128 0
345.3 23.1599 0
346.516 18.8588 0
347.812 20.9854 0
346.569 23.144 0
345.273 21.0174 0
346.543 21.0014 0
347.785 18.8428 0
350.323 18.8107 0
350.377 23.0959 0
347.839 23.128 0
349.054 18.8268 0
350.35 20.9533 0
349.108 23.112 0
347.812 20.9854 0
349.081 20.9694 0
350.323 18.8107 0
352.861 18.7785 0
352.915 23.0637 0
350.377 23.0959 0
351.592 18.7946 0
352.888 20.9211 0
351.646 23.0798 0
350.35 20.9533 0
351.619 20.9372 0
352.861 18.7785 0
355.399 18.7462 0
355.454 23.0314 0
352.915 23.0637 0
354.13 18.7624 0
355.426 20.8888 0
354.184 23.0476 0
352.888 20.9211 0
354.157 20.905 0
355.399 18.7462 0
357.937 18.7139 0
357.992 22.999 0
355.454 23.0314 0
356.668 18.7301 0
357.965 20.8565 0
356.723 23.0153 0
355.426 20.8888 0
356.695 20.8727 0
357.937 18.7139 0
360.475 18.6814 0
360.53 22.9665 0
357.992 22.999 0
359.206 18.6976 0
360.503 20.824 0
359.261 22.9828 0
357.965 20.8565 0
359.234 20.8402 0
360.475 18.6814 0
363.013 18.6488 0
363.068 22.934 0
360.53 22.9665 0
361.744 18.6651 0
363.041 20.7914 0
361.799 22.9503 0
360.503 20.824 0
361.772 20.8077 0
363.013 18.6488 0
365.552 18.6161 0
365.607 22.9013 0
363.068 22.934 0
364.282 18.6324 0
365.579 20.7587 0
364.338 22.9176 0
363.041 20.7914 0
364.31 20.775 0
365.552 18.6161 0
368.09 18.5833 0
368.145 22.8685 0
365.607 22.9013 0
366.821 18.5997 0
368.117 20.7259 0
366.876 22.8849 0
365.579 20.7587 0
366.848 20.7423 0
368.09 18.5833 0
370.628 18.5504 0
370.683 22.8356 0
368.145 22.8685 0
369.359 18.5669 0
370.655 20.693 0
369.414 22.852 0
368.117 20.7259 0
369.386 20.7095 0
370.628 18.5504 0
373.166 18.5174 0
373.221 22.8026 0
370.683 22.8356 0
371.897 18.5339 0
373.194 20.66 0
371.952 22.8191 0
370.655 20.693 0
371.925 20.6765 0
373.166 18.5174 0
375.704 18.4844 0
375.76 22.7696 0
373.221 22.8026 0
374.435 18.5009 0
375.732 20.627 0
374.491 22.7861 0
373.194 20.66 0
374.463 20.6435 0
375.704 18.4844 0
378.242 18.4512 0
378.298 22.7364 0
375.76 22.7696 0
376.973 18.4678 0
378.27 20.5938 0
377.029 22.753 0
375.732 20.627 0
377.001 20.6104 0
378.242 18.4512 0
380.78 18.418 0
380.836 22.7032 0
378.298 22.7364 0
379.511 18.4346 0
380.808 20.5606 0
379.567 22.7198 0
378.27 20.5938 0
379.539 20.5772 0
380.78 18.418 0
383.318 18.3846 0
383.374 22.6698 0
380.836 22.7032 0
382.049 18.4013 0
383.346 20.5272 0
382.105 22.6865 0
380.808 20.5606 0
382.077 20.5439 0
383.318 18.3846 0
385.856 18.3512 0
385.913 22.6364 0
383.374 22.6698 0
384.587 18.3679 0
385.884 20.4938 0
384.643 22.6531 0
383.346 20.5272 0
384.615 20.5106 0
385.856 18.3512 0
388.394 18.3177 0
388.451 22.6029 0
385.913 22.6364 0
387.125 18.3345 0
388.422 20.4603 0
387.182 22.6197 0
385.884 20.4938 0
387.153 20.4771 0
388.394 18.3177 0
390.932 18.2842 0
390.989 22.5694 0
388.451 22.6029 0
389.663 18.301 0
390.961 20.4268 0
389.72 22.5862 0
388.422 20.4603 0
389.692 20.4436 0
390.932 18.2842 0
393.47 18.2505 0
393.527 22.5357 0
390.989 22.5694 0
392.201 18.2673 0
393.499 20.3931 0
392.258 22.5526 0
390.961 20.4268 0
392.23 20.41 0
393.47 18.2505 0
396.008 18.2168 0
396.065 22.502 0
393.527 22.5357 0
394.739 18.2337 0
396.037 20.3594 0
394.796 22.5189 0
393.499 20.3931 0
394.768 20.3763 0
396.008 18.2168 0
398.546 18.183 0
398.603 22.4682 0
396.065 22.502 0
397.277 18.1999 0
398.575 20.3256 0
397.334 22.4851 0
396.037 20.3594 0
397.306 20.3425 0
398.546 18.183 0
401.084 18.1491 0
401.142 22.4343 0
398.603 22.4682 0
399.815 18.1661 0
401.113 20.2917 0
399.873 22.4513 0
398.575 20.3256 0
399.844 20.3087 0
401.084 18.1491 0
403.622 18.1152 0
403.68 22.4004 0
401.142 22.4343 0
402.353 18.1321 0
403.651 20.2578 0
402.411 22.4174 0
401.113 20.2917 0
402.382 20.2748 0
403.622 18.1152 0
406.16 18.0812 0
406.218 22.3664 0
403.68 22.4004 0
404.891 18.0982 0
406.189 20.2238 0
404.949 22.3834 0
403.651 20.2578 0
404.92 20.2408 0
406.16 18.0812 0
408.698 18.0471 0
408.756 22.3323 0
406.218 22.3664 0
407.429 18.0641 0
408.727 20.1897 0
407.487 22.3493 0
406.189 20.2238 0
407.458 20.2067 0
408.698 18.0471 0
411.236 18.0129 0
411.294 22.2981 0
408.756 22.3323 0
409.967 18.03 0
411.265 20.1555 0
410.025 22.3152 0
408.727 20.1897 0
409.996 20.1726 0
411.236 18.0129 0
413.774 17.9787 0
413.832 22.2639 0
411.294 22.2981 0
412.505 17.9958 0
413.803 20.1213 0
412.563 22.281 0
411.265 20.1555 0
412.534 20.1384 0
413.774 17.9787 0
416.312 17.9444 0
416.37 22.2297 0
413.832 22.2639 0
415.043 17.9616 0
416.341 20.0871 0
415.101 22.2468 0
413.803 20.1213 0
415.072 20.1042 0
416.312 17.9444 0
418.85 17.9101 0
418.908 22.1953 0
416.37 22.2297 0
417.581 17.9273 0
418.879 20.0527 0
417.639 22.2125 0
416.341 20.0871 0
417.61 20.0699 0
418.85 17.9101 0
421.388 17.8757 0
421.446 22.161 0
418.908 22.1953 0
420.119 17.8929 0
421.417 20.0183 0
420.177 22.1782 0
418.879 20.0527 0
420.148 20.0355 0
421.388 17.8757 0
423.926 17.8413 0
423.985 22.1265 0
421.446 22.161 0
422.657 17.8585 0
423.955 19.9839 0
422.716 22.1437 0
421.417 20.0183 0
422.686 20.0011 0
423.926 17.8413 0
426.464 17.8068 0
426.523 22.092 0
423.985 22.1265 0
425.195 17.824 0
426.493 19.9494 0
425.254 22.1093 0
423.955 19.9839 0
425.224 19.9667 0
426.464 17.8068 0
429.002 17.7722 0
429.061 22.0575 0
426.523 22.092 0
427.733 17.7895 0
429.032 19.9149 0
427.792 22.0747 0
426.493 19.9494 0
427.763 19.9321 0
429.002 17.7722 0
431.54 17.7376 0
431.599 22.0229 0
429.061 22.0575 0
430.271 17.7549 0
431.57 19.8802 0
430.33 22.0402 0
429.032 19.9149 0
430.301 19.8976 0
431.54 17.7376 0
434.078 17.703 0
434.137 21.9882 0
431.599 22.0229 0
432.809 17.7203 0
434.108 19.8456 0
432.868 22.0055 0
431.57 19.8802 0
432.839 19.8629 0
434.078 17.703 0
436.616 17.6683 0
436.675 21.9535 0
434.137 21.9882 0
435.347 17.6856 0
436.645 19.8109 0
435.406 21.9709 0
434.108 19.8456 0
435.377 19.8283 0
436.616 17.6683 0
439.154 17.6335 0
439.213 21.9188 0
436.675 21.9535 0
437.885 17.6509 0
439.183 19.7762 0
437.944 21.9361 0
436.645 19.8109 0
437.914 19.7935 0
439.154 17.6335 0
441.692 17.5987 0
441.751 21.884 0
439.213 21.9188 0
440.423 17.6161 0
441.721 19.7414 0
440.482 21.9014 0
439.183 19.7762 0
440.452 19.7588 0
441.692 17.5987 0
444.23 17.5639 0
444.289 21.8492 0
441.751 21.884 0
442.961 17.5813 0
444.259 19.7065 0
443.02 21.8666 0
441.721 19.7414 0
442.99 19.724 0
444.23 17.5639 0
446.768 17.529 0
446.827 21.8143 0
444.289 21.8492 0
445.499 17.5465 0
446.797 19.6717 0
445.558 21.8317 0
444.259 19.7065 0
445.528 19.6891 0
446.768 17.529 0
449.306 17.4941 0
449.365 21.7794 0
446.827 21.8143 0
448.037 17.5116 0
449.335 19.6368 0
448.096 21.7968 0
446.797 19.6717 0
448.066 19.6542 0
449.306 17.4941 0
451.844 17.4592 0
451.903 21.7444 0
449.365 21.7794 0
450.575 17.4767 0
451.873 19.6018 0
450.634 21.7619 0
449.335 19.6368 0
450.604 19.6193 0
451.844 17.4592 0
454.382 17.4242 0
454.441 21.7095 0
451.903 21.7444 0
453.113 17.4417 0
454.411 19.5668 0
453.172 21.727 0
451.873 19.6018 0
453.142 19.5843 0
454.382 17.4242 0
456.92 17.3892 0
456.979 21.6745 0
454.441 21.7095 0
455.651 17.4067 0
456.949 19.5318 0
455.71 21.692 0
454.411 19.5668 0
455.68 19.5493 0
456.92 17.3892 0
459.458 17.3542 0
459.517 21.6394 0
456.979 21.6745 0
458.189 17.3717 0
459.487 19.4968 0
458.248 21.6569 0
456.949 19.5318 0
458.218 19.5143 0
459.458 17.3542 0
461.995 17.3191 0
462.055 21.6043 0
459.517 21.6394 0
460.727 17.3366 0
462.025 19.4617 0
460.786 21.6219 0
459.487 19.4968 0
460.756 19.4793 0
461.995 17.3191 0
464.533 17.284 0
464.593 21.5693 0
462.055 21.6043 0
463.264 17.3015 0
464.563 19.4266 0
463.324 21.5868 0
462.025 19.4617 0
463.294 19.4442 0
464.533 17.284 0
467.071 17.2489 0
467.13 21.5341 0
464.593 21.5693 0
465.802 17.2664 0
467.101 19.3915 0
465.862 21.5517 0
464.563 19.4266 0
465.832 19.4091 0
467.071 17.2489 0
469.609 17.2137 0
469.668 21.499 0
467.13 21.5341 0
468.34 17.2313 0
469.639 19.3564 0
468.399 21.5166 0
467.101 19.3915 0
468.37 19.3739 0
469.609 17.2137 0
472.147 17.1786 0
472.206 21.4638 0
469.668 21.499 0
470.878 17.1961 0
472.177 19.3212 0
470.937 21.4814 0
469.639 19.3564 0
470.908 19.3388 0
472.147 17.1786 0
474.685 17.1434 0
474.744 21.4286 0
472.206 21.4638 0
473.416 17.161 0
474.715 19.286 0
473.475 21.4462 0
472.177 19.3212 0
473.446 19.3036 0
474.685 17.1434 0
477.223 17.1082 0
477.282 21.3934 0
474.744 21.4286 0
475.954 17.1258 0
477.252 19.2508 0
476.013 21.411 0
474.715 19.286 0
475.984 19.2684 0
477.223 17.1082 0
479.761 17.0729 0
479.82 21.3582 0
477.282 21.3934 0
478.492 17.0905 0
479.79 19.2156 0
478.551 21.3758 0
477.252 19.2508 0
478.521 19.2332 0
479.761 17.0729 0
482.298 17.0377 0
482.358 21.323 0
479.82 21.3582 0
481.03 17.0553 0
482.328 19.1803 0
481.089 21.3406 0
479.79 19.2156 0
481.059 19.198 0
482.298 17.0377 0
484.836 17.0024 0
484.896 21.2877 0
482.358 21.323 0
483.567 17.0201 0
484.866 19.1451 0
483.627 21.3054 0
482.328 19.1803 0
483.597 19.1627 0
484.836 17.0024 0
487.374 16.9672 0
487.434 21.2525 0
484.896 21.2877 0
486.105 16.9848 0
487.404 19.1098 0
486.165 21.2701 0
484.866 19.1451 0
486.135 19.1275 0
487.374 16.9672 0
489.912 16.9319 0
489.972 21.2172 0
487.434 21.2525 0
488.643 16.9496 0
489.942 19.0746 0
488.703 21.2348 0
487.404 19.1098 0
488.673 19.0922 0
489.912 16.9319 0
492.45 16.8966 0
492.509 21.1819 0
489.972 21.2172 0
491.181 16.9143 0
492.48 19.0393 0
491.24 21.1996 0
489.942 19.0746 0
491.211 19.0569 0
492.45 16.8966 0
494.988 16.8613 0
495.047 21.1466 0
492.509 21.1819 0
493.719 16.879 0
495.017 19.004 0
493.778 21.1643 0
492.48 19.0393 0
493.749 19.0216 0
494.988 16.8613 0
497.526 16.8261 0
497.585 21.1113 0
495.047 21.1466 0
496.257 16.8437 0
497.555 18.9687 0
496.316 21.129 0
495.017 19.004 0
496.286 18.9863 0
497.526 16.8261 0
500.063 16.7908 0
500.123 21.076 0
497.585 21.1113 0
498.794 16.8084 0
500.093 18.9334 0
498.854 21.0937 0
497.555 18.9687 0
498.824 18.951 0
0 25.7143 0
2.53945 25.7139 0
2.54038 29.9988 0
0 30 0
1.2697 25.7141 0
2.53981 27.8564 0
1.27029 29.9993 0
0 27.8571 0
1.26986 27.8568 0
2.53945 25.7139 0
5.079 25.7132 0
5.08044 29.998 0
2.54038 29.9988 0
3.80922 25.7136 0
5.07969 27.8556 0
3.81041 29.9984 0
2.53981 27.8564 0
3.80975 27.856 0
5.079 25.7132 0
7.61858 25.7121 0
7.62053 29.997 0
5.08044 29.998 0
6.34879 25.7127 0
7.61954 27.8546 0
6.35048 29.9975 0
5.07969 27.8556 0
6.34962 27.8551 0
7.61858 25.7121 0
10.1581 25.7108 0
10.1606 29.9956 0
7.62053 29.997 0
8.88836 25.7115 0
10.1594 27.8533 0
8.89057 29.9963 0
7.61954 27.8546 0
8.88946 27.854 0
10.1581 25.7108 0
12.6977 25.7092 0
12.7007 29.994 0
10.1606 29.9956 0
11.4279 25.7101 0
12.6992 27.8516 0
11.4307 29.9949 0
10.1594 27.8533 0
11.4293 27.8525 0
12.6977 25.7092 0
15.2372 25.7072 0
15.2408 29.992 0
12.7007 29.994 0
13.9675 25.7082 0
15.239 27.8496 0
13.9708 29.9931 0
12.6992 27.8516 0
13.9691 27.8507 0
15.2372 25.7072 0
17.7768 25.7049 0
17.781 29.9897 0
15.2408 29.992 0
16.507 25.7061 0
17.7789 27.8473 0
16.5109 29.9909 0
15.239 27.8496 0
16.5089 27.8485 0
17.7768 25.7049 0
20.3163 25.7022 0
20.3211 29.987 0
17.781 29.9897 0
19.0465 25.7036 0
20.3187 27.8447 0
19.051 29.9884 0
17.7789 27.8473 0
19.0488 27.846 0
20.3163 25.7022 0
22.8558 25.6992 0
22.8611 29.984 0
20.3211 29.987 0
21.586 25.7007 0
22.8585 27.8416 0
21.5911 29.9856 0
20.3187 27.8447 0
21.5886 27.8432 0
22.8558 25.6992 0
25.3953 25.6958 0
25.4012 29.9807 0
22.8611 29.984 0
24.1256 25.6976 0
25.3983 27.8383 0
24.1312 29.9824 0
22.8585 27.8416 0
24.1284 27.84 0
25.3953 25.6958 0
27.9348 25.6921 0
27.9413 29.977 0
25.4012 29.9807 0
26.6651 25.694 0
27.938 27.8346 0
26.6713 29.9789 0
25.3983 27.8383 0
26.6681 27.8365 0
27.9348 25.6921 0
30.4743 25.6881 0
30.4813 29.9729 0
27.9413 29.977 0
29.2045 25.6902 0
30.4778 27.8306 0
29.2113 29.975 0
27.938 27.8346 0
29.2079 27.8326 0
30.4743 25.6881 0
33.0138 25.6837 0
33.0214 29.9686 0
30.4813 29.9729 0
31.744 25.686 0
33.0176 27.8262 0
31.7514 29.9708 0
30.4778 27.8306 0
31.7477 27.8284 0
33.0138 25.6837 0
35.5532 25.679 0
35.5614 29.9639 0
33.0214 29.9686 0
34.2835 25.6814 0
35.5573 27.8215 0
34.2914 29.9663 0
33.0176 27.8262 0
34.2875 27.8239 0
35.5532 25.679 0
38.0927 25.674 0
38.1015 29.9588 0
35.5614 29.9639 0
36.823 25.6765 0
38.0971 27.8164 0
36.8314 29.9614 0
35.5573 27.8215 0
36.8272 27.819 0
38.0927 25.674 0
40.6322 25.6686 0
40.6415 29.9535 0
38.1015 29.9588 0
39.3624 25.6713 0
40.6368 27.8111 0
39.3715 29.9562 0
38.0971 27.8164 0
39.3669 27.8138 0
40.6322 25.6686 0
43.1716 25.6629 0
43.1815 29.9478 0
40.6415 29.9535 0
41.9019 25.6658 0
43.1765 27.8054 0
41.9115 29.9507 0
40.6368 27.8111 0
41.9067 27.8083 0
43.1716 25.6629 0
45.7111 25.6569 0
45.7215 29.9418 0
43.1815 29.9478 0
44.4413 25.6599 0
45.7163 27.7994 0
44.4515 29.9448 0
43.1765 27.8054 0
44.4464 27.8024 0
45.7111 25.6569 0
48.2505 25.6505 0
48.2614 29.9354 0
45.7215 29.9418 0
46.9808 25.6537 0
48.256 27.793 0
46.9915 29.9386 0
45.7163 27.7994 0
46.9861 27.7962 0
48.2505 25.6505 0
50.7899 25.6439 0
50.8014 29.9287 0
48.2614 29.9354 0
49.5202 25.6472 0
50.7957 27.7863 0
49.5314 29.9321 0
48.256 27.793 0
49.5258 27.7897 0
50.7899 25.6439 0
53.3293 25.6369 0
53.3414 29.9217 0
50.8014 29.9287 0
52.0596 25.6404 0
53.3353 27.7793 0
52.0714 29.9253 0
50.7957 27.7863 0
52.0655 27.7829 0
53.3293 25.6369 0
55.8687 25.6295 0
55.8813 29.9144 0
53.3414 29.9217 0
54.599 25.6332 0
55.875 27.772 0
54.6113 29.9181 0
53.3353 27.7793 0
54.6052 27.7757 0
55.8687 25.6295 0
58.4081 25.6219 0
58.4212 29.9068 0
55.8813 29.9144 0
57.1384 25.6258 0
58.4147 27.7644 0
57.1513 29.9106 0
55.875 27.772 0
57.1448 27.7682 0
58.4081 25.6219 0
60.9475 25.614 0
60.9612 29.8988 0
58.4212 29.9068 0
59.6778 25.618 0
60.9543 27.7564 0
59.6912 29.9029 0
58.4147 27.7644 0
59.6845 27.7605 0
60.9475 25.614 0
63.4869 25.6057 0
63.5011 29.8906 0
60.9612 29.8988 0
62.2172 25.6099 0
63.494 27.7482 0
62.2311 29.8948 0
60.9543 27.7564 0
62.2242 27.7523 0
63.4869 25.6057 0
66.0263 25.5971 0
66.041 29.882 0
63.5011 29.8906 0
64.7566 25.6014 0
66.0336 27.7396 0
64.771 29.8863 0
63.494 27.7482 0
64.7638 27.7439 0
66.0263 25.5971 0
68.5656 25.5882 0
68.5809 29.8731 0
66.041 29.882 0
67.296 25.5927 0
68.5732 27.7307 0
67.3109 29.8776 0
66.0336 27.7396 0
67.3034 27.7352 0
68.5656 25.5882 0
71.105 25.579 0
71.1207 29.8639 0
68.5809 29.8731 0
69.8353 25.5837 0
71.1128 27.7215 0
69.8508 29.8686 0
68.5732 27.7307 0
69.843 27.7261 0
71.105 25.579 0
73.6443 25.5695 0
73.6606 29.8544 0
71.1207 29.8639 0
72.3747 25.5743 0
73.6525 27.712 0
72.3907 29.8592 0
71.1128 27.7215 0
72.3826 27.7168 0
73.6443 25.5695 0
76.1837 25.5597 0
76.2004 29.8446 0
73.6606 29.8544 0
74.914 25.5647 0
76.192 27.7022 0
74.9305 29.8496 0
73.6525 27.712 0
74.9222 27.7071 0
76.1837 25.5597 0
78.723 25.5496 0
78.7403 29.8345 0
76.2004 29.8446 0
77.4533 25.5547 0
78.7316 27.6921 0
77.4704 29.8396 0
76.192 27.7022 0
77.4618 27.6972 0
78.723 25.5496 0
81.2623 25.5392 0
81.2801 29.8241 0
78.7403 29.8345 0
79.9927 25.5444 0
81.2712 27.6817 0
80.0102 29.8293 0
78.7316 27.6921 0
80.0014 27.6869 0
81.2623 25.5392 0
83.8016 25.5285 0
83.8199 29.8134 0
81.2801 29.8241 0
82.532 25.5339 0
83.8108 27.671 0
82.55 29.8188 0
81.2712 27.6817 0
82.541 27.6764 0
83.8016 25.5285 0
86.3409 25.5175 0
86.3597 29.8024 0
83.8199 29.8134 0
85.0713 25.523 0
86.3503 27.66 0
85.0898 29.8079 0
83.8108 27.671 0
85.0805 27.6655 0
86.3409 25.5175 0
88.8802 25.5062 0
88.8995 29.7911 0
86.3597 29.8024 0
87.6106 25.5118 0
88.8899 27.6486 0
87.6296 29.7968 0
86.3503 27.66 0
87.6201 27.6543 0
88.8802 25.5062 0
91.4195 25.4946 0
91.4393 29.7795 0
88.8995 29.7911 0
90.1499 25.5004 0
91.4294 27.637 0
90.1694 29.7853 0
88.8899 27.6486 0
90.1596 27.6429 0
91.4195 25.4946 0
93.9588 25.4827 0
93.979 29.7676 0
91.4393 29.7795 0
92.6891 25.4886 0
93.9689 27.6251 0
92.7092 29.7736 0
91.4294 27.637 0
92.6991 27.6311 0
93.9588 25.4827 0
96.498 25.4705 0
96.5188 29.7554 0
93.979 29.7676 0
95.2284 25.4766 0
96.5084 27.613 0
95.2489 29.7615 0
93.9689 27.6251 0
95.2387 27.6191 0
96.498 25.4705 0
99.0373 25.458 0
99.0585 29.7429 0
96.5188 29.7554 0
97.7677 25.4643 0
99.0479 27.6005 0
97.7887 29.7492 0
96.5084 27.613 0
97.7782 27.6068 0
99.0373 25.458 0
101.577 25.4452 0
101.598 29.7302 0
99.0585 29.7429 0
100.307 25.4516 0
101.587 27.5877 0
100.328 29.7366 0
99.0479 27.6005 0
100.318 27.5941 0
101.577 25.4452 0
104.116 25.4322 0
104.138 29.7171 0
101.598 29.7302 0
102.846 25.4387 0
104.127 27.5747 0
102.868 29.7237 0
101.587 27.5877 0
102.857 27.5812 0
104.116 25.4322 0
106.655 25.4189 0
106.678 29.7038 0
104.138 29.7171 0
105.385 25.4256 0
106.666 27.5613 0
105.408 29.7105 0
104.127 27.5747 0
105.397 27.568 0
106.655 25.4189 0
109.194 25.4052 0
109.217 29.6902 0
106.678 29.7038 0
107.925 25.4121 0
109.206 27.5477 0
107.948 29.697 0
106.666 27.5613 0
107.936 27.5546 0
109.194 25.4052 0
111.733 25.3913 0
111.757 29.6763 0
109.217 29.6902 0
110.464 25.3983 0
111.745 27.5338 0
110.487 29.6833 0
109.206 27.5477 0
110.476 27.5408 0
111.733 25.3913 0
114.273 25.3772 0
114.297 29.6621 0
111.757 29.6763 0
113.003 25.3843 0
114.285 27.5197 0
113.027 29.6692 0
111.745 27.5338 0
113.015 27.5268 0
114.273 25.3772 0
116.812 25.3627 0
116.836 29.6477 0
114.297 29.6621 0
115.542 25.37 0
116.824 27.5052 0
115.567 29.6549 0
114.285 27.5197 0
115.554 27.5125 0
116.812 25.3627 0
119.351 25.348 0
119.376 29.6329 0
116.836 29.6477 0
118.081 25.3554 0
119.364 27.4905 0
118.106 29.6403 0
116.824 27.5052 0
118.094 27.4979 0
119.351 25.348 0
121.89 25.333 0
121.916 29.618 0
119.376 29.6329 0
120.621 25.3405 0
121.903 27.4755 0
120.646 29.6255 0
119.364 27.4905 0
120.633 27.483 0
121.89 25.333 0
124.429 25.3177 0
124.455 29.6027 0
121.916 29.618 0
123.16 25.3254 0
124.442 27.4603 0
123.185 29.6104 0
121.903 27.4755 0
123.173 27.4679 0
124.429 25.3177 0
126.968 25.3022 0
126.995 29.5872 0
124.455 29.6027 0
125.699 25.31 0
126.982 27.4447 0
125.725 29.595 0
124.442 27.4603 0
125.712 27.4525 0
126.968 25.3022 0
129.508 25.2864 0
129.534 29.5714 0
126.995 29.5872 0
128.238 25.2943 0
129.521 27.4289 0
128.265 29.5793 0
126.982 27.4447 0
128.251 27.4369 0
129.508 25.2864 0
132.047 25.2703 0
132.074 29.5553 0
129.534 29.5714 0
130.777 25.2784 0
132.06 27.4129 0
130.804 29.5634 0
129.521 27.4289 0
130.791 27.4209 0
132.047 25.2703 0
134.586 25.254 0
134.614 29.539 0
132.074 29.5553 0
133.316 25.2622 0
134.6 27.3965 0
133.344 29.5472 0
132.06 27.4129 0
133.33 27.4047 0
134.586 25.254 0
137.125 25.2374 0
137.153 29.5224 0
134.614 29.539 0
135.855 25.2458 0
137.139 27.3799 0
135.883 29.5307 0
134.6 27.3965 0
135.869 27.3883 0
137.125 25.2374 0
139.664 25.2206 0
139.693 29.5055 0
137.153 29.5224 0
138.395 25.229 0
139.678 27.3631 0
138.423 29.514 0
137.139 27.3799 0
138.409 27.3715 0
139.664 25.2206 0
142.203 25.2035 0
142.232 29.4884 0
139.693 29.5055 0
140.934 25.2121 0
142.218 27.346 0
140.963 29.497 0
139.678 27.3631 0
140.948 27.3546 0
142.203 25.2035 0
144.742 25.1861 0
144.772 29.4711 0
142.232 29.4884 0
143.473 25.1948 0
144.757 27.3286 0
143.502 29.4798 0
142.218 27.346 0
143.487 27.3373 0
144.742 25.1861 0
147.281 25.1685 0
147.311 29.4534 0
144.772 29.4711 0
146.012 25.1773 0
147.296 27.311 0
146.042 29.4623 0
144.757 27.3286 0
146.027 27.3198 0
147.281 25.1685 0
149.82 25.1506 0
149.851 29.4356 0
147.311 29.4534 0
148.551 25.1596 0
149.836 27.2931 0
148.581 29.4445 0
147.296 27.311 0
148.566 27.3021 0
149.82 25.1506 0
152.36 25.1325 0
152.39 29.4175 0
149.851 29.4356 0
151.09 25.1416 0
152.375 27.275 0
151.121 29.4265 0
149.836 27.2931 0
151.105 27.2841 0
152.36 25.1325 0
154.899 25.1141 0
154.93 29.3991 0
152.39 29.4175 0
153.629 25.1233 0
154.914 27.2566 0
153.66 29.4083 0
152.375 27.275 0
153.645 27.2658 0
154.899 25.1141 0
157.438 25.0955 0
157.469 29.3805 0
154.93 29.3991 0
156.168 25.1048 0
157.453 27.238 0
156.199 29.3898 0
154.914 27.2566 0
156.184 27.2474 0
157.438 25.0955 0
159.977 25.0766 0
160.009 29.3616 0
157.469 29.3805 0
158.707 25.0861 0
159.993 27.2191 0
158.739 29.3711 0
157.453 27.238 0
158.723 27.2286 0
159.977 25.0766 0
162.516 25.0575 0
162.548 29.3425 0
160.009 29.3616 0
161.246 25.0671 0
162.532 27.2 0
161.278 29.3521 0
159.993 27.2191 0
161.262 27.2096 0
162.516 25.0575 0
165.055 25.0382 0
165.088 29.3232 0
162.548 29.3425 0
163.785 25.0479 0
165.071 27.1807 0
163.818 29.3329 0
162.532 27.2 0
163.801 27.1904 0
165.055 25.0382 0
167.594 25.0186 0
167.627 29.3036 0
165.088 29.3232 0
166.324 25.0284 0
167.61 27.1611 0
166.357 29.3134 0
165.071 27.1807 0
166.341 27.1709 0
167.594 25.0186 0
170.133 24.9988 0
170.166 29.2837 0
167.627 29.3036 0
168.863 25.0087 0
170.149 27.1413 0
168.897 29.2937 0
167.61 27.1611 0
168.88 27.1512 0
170.133 24.9988 0
172.672 24.9787 0
172.706 29.2637 0
170.166 29.2837 0
171.402 24.9888 0
172.689 27.1212 0
171.436 29.2737 0
170.149 27.1413 0
171.419 27.1313 0
172.672 24.9787 0
175.211 24.9584 0
175.245 29.2434 0
172.706 29.2637 0
173.941 24.9686 0
175.228 27.1009 0
173.975 29.2536 0
172.689 27.1212 0
173.958 27.1111 0
175.211 24.9584 0
177.75 24.9379 0
177.784 29.2229 0
175.245 29.2434 0
176.48 24.9482 0
177.767 27.0804 0
176.515 29.2332 0
175.228 27.1009 0
176.497 27.0907 0
177.75 24.9379 0
180.289 24.9171 0
180.324 29.2021 0
177.784 29.2229 0
179.019 24.9275 0
180.306 27.0596 0
179.054 29.2125 0
177.767 27.0804 0
179.037 27.07 0
180.289 24.9171 0
182.828 24.8961 0
182.863 29.1811 0
180.324 29.2021 0
181.558 24.9067 0
182.845 27.0386 0
181.593 29.1916 0
180.306 27.0596 0
181.576 27.0492 0
182.828 24.8961 0
185.366 24.8749 0
185.402 29.1599 0
182.863 29.1811 0
184.097 24.8855 0
185.384 27.0174 0
184.133 29.1705 0
182.845 27.0386 0
184.115 27.0281 0
185.366 24.8749 0
187.905 24.8535 0
187.942 29.1385 0
185.402 29.1599 0
186.636 24.8642 0
187.924 26.996 0
186.672 29.1492 0
185.384 27.0174 0
186.654 27.0067 0
187.905 24.8535 0
190.444 24.8318 0
190.481 29.1168 0
187.942 29.1385 0
189.175 24.8427 0
190.463 26.9743 0
189.211 29.1277 0
187.924 26.996 0
189.193 26.9852 0
190.444 24.8318 0
192.983 24.8099 0
193.02 29.0949 0
190.481 29.1168 0
191.714 24.8209 0
193.002 26.9524 0
191.751 29.1059 0
190.463 26.9743 0
191.732 26.9634 0
192.983 24.8099 0
195.522 24.7878 0
195.56 29.0728 0
193.02 29.0949 0
194.253 24.7989 0
195.541 26.9303 0
194.29 29.0839 0
193.002 26.9524 0
194.271 26.9414 0
195.522 24.7878 0
198.061 24.7655 0
198.099 29.0505 0
195.56 29.0728 0
196.792 24.7767 0
198.08 26.908 0
196.829 29.0617 0
195.541 26.9303 0
196.81 26.9192 0
198.061 24.7655 0
200.6 24.7429 0
200.638 29.0279 0
198.099 29.0505 0
199.33 24.7542 0
200.619 26.8855 0
199.368 29.0392 0
198.08 26.908 0
199.349 26.8968 0
200.6 24.7429 0
203.139 24.7202 0
203.177 29.0052 0
200.638 29.0279 0
201.869 24.7316 0
203.158 26.8627 0
201.908 29.0166 0
200.619 26.8855 0
201.888 26.8741 0
203.139 24.7202 0
205.678 24.6972 0
205.716 28.9822 0
203.177 29.0052 0
204.408 24.7087 0
205.697 26.8397 0
204.447 28.9937 0
203.158 26.8627 0
204.428 26.8513 0
205.678 24.6972 0
208.216 24.674 0
208.256 28.959 0
205.716 28.9822 0
206.947 24.6857 0
208.236 26.8166 0
206.986 28.9707 0
205.697 26.8397 0
206.967 26.8282 0
208.216 24.674 0
210.755 24.6507 0
210.795 28.9357 0
208.256 28.959 0
209.486 24.6624 0
210.775 26.7932 0
209.525 28.9474 0
208.236 26.8166 0
209.506 26.8049 0
210.755 24.6507 0
213.294 24.6271 0
213.334 28.9121 0
210.795 28.9357 0
212.025 24.6389 0
213.314 26.7696 0
212.064 28.9239 0
210.775 26.7932 0
212.045 26.7814 0
213.294 24.6271 0
215.833 24.6033 0
215.873 28.8883 0
213.334 28.9121 0
214.564 24.6152 0
215.853 26.7458 0
214.604 28.9002 0
213.314 26.7696 0
214.584 26.7577 0
215.833 24.6033 0
218.372 24.5793 0
218.412 28.8643 0
215.873 28.8883 0
217.102 24.5913 0
218.392 26.7218 0
217.143 28.8763 0
215.853 26.7458 0
217.123 26.7338 0
218.372 24.5793 0
220.911 24.5551 0
220.952 28.8401 0
218.412 28.8643 0
219.641 24.5672 0
220.931 26.6976 0
219.682 28.8522 0
218.392 26.7218 0
219.662 26.7097 0
220.911 24.5551 0
223.449 24.5307 0
223.491 28.8157 0
220.952 28.8401 0
222.18 24.5429 0
223.47 26.6732 0
222.221 28.8279 0
220.931 26.6976 0
222.201 26.6854 0
223.449 24.5307 0
225.988 24.5061 0
226.03 28.7911 0
223.491 28.8157 0
224.719 24.5184 0
226.009 26.6486 0
224.76 28.8034 0
223.47 26.6732 0
224.739 26.6609 0
225.988 24.5061 0
228.527 24.4813 0
228.569 28.7663 0
226.03 28.7911 0
227.258 24.4937 0
228.548 26.6238 0
227.299 28.7787 0
226.009 26.6486 0
227.278 26.6362 0
228.527 24.4813 0
231.066 24.4563 0
231.108 28.7413 0
228.569 28.7663 0
229.796 24.4688 0
231.087 26.5988 0
229.838 28.7538 0
228.548 26.6238 0
229.817 26.6113 0
231.066 24.4563 0
233.604 24.4311 0
233.647 28.7161 0
231.108 28.7413 0
232.335 24.4437 0
233.626 26.5736 0
232.378 28.7287 0
231.087 26.5988 0
232.356 26.5862 0
233.604 24.4311 0
236.143 24.4057 0
236.186 28.6907 0
233.647 28.7161 0
234.874 24.4184 0
236.165 26.5482 0
234.917 28.7034 0
233.626 26.5736 0
234.895 26.5609 0
236.143 24.4057 0
238.682 24.3801 0
238.725 28.6652 0
236.186 28.6907 0
237.413 24.3929 0
238.704 26.5227 0
237.456 28.678 0
236.165 26.5482 0
237.434 26.5355 0
238.682 24.3801 0
241.221 24.3544 0
241.264 28.6394 0
238.725 28.6652 0
239.951 24.3673 0
241.242 26.4969 0
239.995 28.6523 0
238.704 26.5227 0
239.973 26.5098 0
241.221 24.3544 0
243.759 24.3285 0
243.803 28.6135 0
241.264 28.6394 0
242.49 24.3414 0
243.781 26.471 0
242.534 28.6265 0
241.242 26.4969 0
242.512 26.484 0
243.759 24.3285 0
246.298 24.3023 0
246.342 28.5874 0
243.803 28.6135 0
245.029 24.3154 0
246.32 26.4449 0
245.073 28.6004 0
243.781 26.471 0
245.051 26.4579 0
246.298 24.3023 0
248.837 24.276 0
248.881 28.5611 0
246.342 28.5874 0
247.567 24.2892 0
248.859 26.4186 0
247.612 28.5742 0
246.32 26.4449 0
247.59 26.4317 0
248.837 24.276 0
251.375 24.2495 0
251.42 28.5346 0
248.881 28.5611 0
250.106 24.2628 0
251.398 26.3921 0
250.151 28.5478 0
248.859 26.4186 0
250.128 26.4053 0
251.375 24.2495 0
253.914 24.2229 0
253.959 28.5079 0
251.42 28.5346 0
252.645 24.2362 0
253.937 26.3654 0
252.69 28.5213 0
251.398 26.3921 0
252.667 26.3788 0
253.914 24.2229 0
256.453 24.1961 0
256.498 28.4811 0
253.959 28.5079 0
255.183 24.2095 0
256.475 26.3386 0
255.229 28.4945 0
253.937 26.3654 0
255.206 26.352 0
256.453 24.1961 0
258.991 24.169 0
259.037 28.4541 0
256.498 28.4811 0
257.722 24.1826 0
259.014 26.3116 0
257.768 28.4676 0
256.475 26.3386 0
257.745 26.3251 0
258.991 24.169 0
261.53 24.1419 0
261.576 28.4269 0
259.037 28.4541 0
260.261 24.1555 0
261.553 26.2844 0
260.307 28.4405 0
259.014 26.3116 0
260.284 26.298 0
261.53 24.1419 0
264.069 24.1145 0
264.115 28.3995 0
261.576 28.4269 0
262.799 24.1282 0
264.092 26.257 0
262.846 28.4132 0
261.553 26.2844 0
262.822 26.2707 0
264.069 24.1145 0
266.607 24.087 0
266.654 28.372 0
264.115 28.3995 0
265.338 24.1008 0
266.631 26.2295 0
265.384 28.3858 0
264.092 26.257 0
265.361 26.2433 0
266.607 24.087 0
269.146 24.0593 0
269.193 28.3443 0
266.654 28.372 0
267.877 24.0732 0
269.169 26.2018 0
267.923 28.3582 0
266.631 26.2295 0
267.9 26.2157 0
269.146 24.0593 0
271.685 24.0314 0
271.732 28.3165 0
269.193 28.3443 0
270.415 24.0454 0
271.708 26.174 0
270.462 28.3304 0
269.169 26.2018 0
270.439 26.1879 0
271.685 24.0314 0
274.223 24.0034 0
274.271 28.2885 0
271.732 28.3165 0
272.954 24.0175 0
274.247 26.146 0
273.001 28.3025 0
271.708 26.174 0
272.978 26.16 0
274.223 24.0034 0
276.762 23.9752 0
276.809 28.2603 0
274.271 28.2885 0
275.493 23.9894 0
276.786 26.1178 0
275.54 28.2744 0
274.247 26.146 0
275.516 26.1319 0
276.762 23.9752 0
279.3 23.9469 0
279.348 28.2319 0
276.809 28.2603 0
278.031 23.9611 0
279.324 26.0894 0
278.079 28.2461 0
276.786 26.1178 0
278.055 26.1036 0
279.3 23.9469 0
281.839 23.9184 0
281.887 28.2034 0
279.348 28.2319 0
280.57 23.9327 0
281.863 26.0609 0
280.618 28.2177 0
279.324 26.0894 0
280.594 26.0752 0
281.839 23.9184 0
284.378 23.8898 0
284.426 28.1748 0
281.887 28.2034 0
283.108 23.9041 0
284.402 26.0323 0
283.157 28.1891 0
281.863 26.0609 0
283.132 26.0466 0
284.378 23.8898 0
286.916 23.8609 0
286.965 28.146 0
284.426 28.1748 0
285.647 23.8754 0
286.94 26.0035 0
285.695 28.1604 0
284.402 26.0323 0
285.671 26.0179 0
286.916 23.8609 0
289.455 23.832 0
289.504 28.117 0
286.965 28.146 0
288.185 23.8465 0
289.479 25.9745 0
288.234 28.1315 0
286.94 26.0035 0
288.21 25.989 0
289.455 23.832 0
291.993 23.8029 0
292.042 28.0879 0
289.504 28.117 0
290.724 23.8174 0
292.018 25.9454 0
290.773 28.1025 0
289.479 25.9745 0
290.748 25.96 0
291.993 23.8029 0
294.532 23.7736 0
294.581 28.0587 0
292.042 28.0879 0
293.262 23.7883 0
294.556 25.9162 0
293.312 28.0733 0
292.018 25.9454 0
293.287 25.9308 0
294.532 23.7736 0
297.07 23.7442 0
297.12 28.0293 0
294.581 28.0587 0
295.801 23.7589 0
297.095 25.8867 0
295.851 28.044 0
294.556 25.9162 0
295.826 25.9015 0
297.07 23.7442 0
299.609 23.7147 0
299.659 27.9997 0
297.12 28.0293 0
298.339 23.7294 0
299.634 25.8572 0
298.389 28.0145 0
297.095 25.8867 0
298.364 25.872 0
299.609 23.7147 0
302.147 23.685 0
302.197 27.97 0
299.659 27.9997 0
300.878 23.6998 0
302.172 25.8275 0
300.928 27.9849 0
299.634 25.8572 0
300.903 25.8424 0
302.147 23.685 0
304.686 23.6551 0
304.736 27.9402 0
302.197 27.97 0
303.416 23.6701 0
304.711 25.7977 0
303.467 27.9551 0
302.172 25.8275 0
303.442 25.8126 0
304.686 23.6551 0
307.224 23.6251 0
307.275 27.9102 0
304.736 27.9402 0
305.955 23.6401 0
307.25 25.7677 0
306.006 27.9252 0
304.711 25.7977 0
305.98 25.7827 0
307.224 23.6251 0
309.763 23.595 0
309.814 27.8801 0
307.275 27.9102 0
308.493 23.6101 0
309.788 25.7376 0
308.544 27.8952 0
307.25 25.7677 0
308.519 25.7526 0
309.763 23.595 0
312.301 23.5648 0
312.352 27.8498 0
309.814 27.8801 0
311.032 23.5799 0
312.327 25.7073 0
311.083 27.865 0
309.788 25.7376 0
311.057 25.7225 0
312.301 23.5648 0
314.84 23.5344 0
314.891 27.8195 0
312.352 27.8498 0
313.57 23.5496 0
314.865 25.6769 0
313.622 27.8347 0
312.327 25.7073 0
313.596 25.6921 0
314.84 23.5344 0
317.378 23.5039 0
317.43 27.7889 0
314.891 27.8195 0
316.109 23.5191 0
317.404 25.6464 0
316.16 27.8042 0
314.865 25.6769 0
316.135 25.6617 0
317.378 23.5039 0
319.916 23.4732 0
319.968 27.7583 0
317.43 27.7889 0
318.647 23.4886 0
319.942 25.6158 0
318.699 27.7736 0
317.404 25.6464 0
318.673 25.6311 0
319.916 23.4732 0
322.455 23.4424 0
322.507 27.7275 0
319.968 27.7583 0
321.186 23.4579 0
322.481 25.585 0
321.238 27.7429 0
319.942 25.6158 0
321.212 25.6004 0
322.455 23.4424 0
324.993 23.4115 0
325.046 27.6966 0
322.507 27.7275 0
323.724 23.427 0
325.019 25.5541 0
323.776 27.7121 0
322.481 25.585 0
323.75 25.5696 0
324.993 23.4115 0
327.532 23.3805 0
327.584 27.6656 0
325.046 27.6966 0
326.263 23.396 0
327.558 25.5231 0
326.315 27.6811 0
325.019 25.5541 0
326.289 25.5386 0
327.532 23.3805 0
330.07 23.3494 0
330.123 27.6344 0
327.584 27.6656 0
328.801 23.3649 0
330.096 25.4919 0
328.853 27.65 0
327.558 25.5231 0
328.827 25.5075 0
330.07 23.3494 0
332.608 23.3181 0
332.661 27.6032 0
330.123 27.6344 0
331.339 23.3337 0
332.635 25.4606 0
331.392 27.6188 0
330.096 25.4919 0
331.366 25.4763 0
332.608 23.3181 0
335.147 23.2867 0
335.2 27.5718 0
332.661 27.6032 0
333.878 23.3024 0
335.173 25.4292 0
333.931 27.5875 0
332.635 25.4606 0
333.904 25.445 0
335.147 23.2867 0
337.685 23.2552 0
337.739 27.5403 0
335.2 27.5718 0
336.416 23.2709 0
337.712 25.3977 0
336.469 27.556 0
335.173 25.4292 0
336.443 25.4135 0
337.685 23.2552 0
340.224 23.2235 0
340.277 27.5086 0
337.739 27.5403 0
338.954 23.2394 0
340.25 25.3661 0
339.008 27.5245 0
337.712 25.3977 0
338.981 25.3819 0
340.224 23.2235 0
342.762 23.1918 0
342.816 27.4769 0
340.277 27.5086 0
341.493 23.2077 0
342.789 25.3344 0
341.546 27.4928 0
340.25 25.3661 0
341.52 25.3502 0
342.762 23.1918 0
345.3 23.1599 0
345.354 27.445 0
342.816 27.4769 0
344.031 23.1759 0
345.327 25.3025 0
344.085 27.461 0
342.789 25.3344 0
344.058 25.3184 0
345.3 23.1599 0
347.839 23.128 0
347.893 27.4131 0
345.354 27.445 0
346.569 23.144 0
347.866 25.2705 0
346.623 27.4291 0
345.327 25.3025 0
346.596 25.2865 0
347.839 23.128 0
350.377 23.0959 0
350.431 27.381 0
347.893 27.4131 0
349.108 23.112 0
350.404 25.2385 0
349.162 27.3971 0
347.866 25.2705 0
349.135 25.2545 0
350.377 23.0959 0
352.915 23.0637 0
352.97 27.3488 0
350.431 27.381 0
351.646 23.0798 0
352.942 25.2063 0
351.7 27.3649 0
350.404 25.2385 0
351.673 25.2224 0
352.915 23.0637 0
355.454 23.0314 0
355.508 27.3165 0
352.97 27.3488 0
354.184 23.0476 0
355.481 25.174 0
354.239 27.3327 0
352.942 25.2063 0
354.212 25.1902 0
355.454 23.0314 0
357.992 22.999 0
358.047 27.2841 0
355.508 27.3165 0
356.723 23.0153 0
358.019 25.1416 0
356.777 27.3004 0
355.481 25.174 0
356.75 25.1578 0
357.992 22.999 0
360.53 22.9665 0
360.585 27.2517 0
358.047 27.2841 0
359.261 22.9828 0
360.558 25.1091 0
359.316 27.2679 0
358.019 25.1416 0
359.288 25.1254 0
360.53 22.9665 0
363.068 22.934 0
363.124 27.2191 0
360.585 27.2517 0
361.799 22.9503 0
363.096 25.0765 0
361.854 27.2354 0
360.558 25.1091 0
361.827 25.0928 0
363.068 22.934 0
365.607 22.9013 0
365.662 27.1864 0
363.124 27.2191 0
364.338 22.9176 0
365.634 25.0438 0
364.393 27.2027 0
363.096 25.0765 0
364.365 25.0602 0
365.607 22.9013 0
368.145 22.8685 0
368.2 27.1536 0
365.662 27.1864 0
366.876 22.8849 0
368.173 25.011 0
366.931 27.17 0
365.634 25.0438 0
366.904 25.0274 0
368.145 22.8685 0
370.683 22.8356 0
370.739 27.1207 0
368.2 27.1536 0
369.414 22.852 0
370.711 24.9782 0
369.47 27.1372 0
368.173 25.011 0
369.442 24.9946 0
370.683 22.8356 0
373.221 22.8026 0
373.277 27.0877 0
370.739 27.1207 0
371.952 22.8191 0
373.249 24.9452 0
372.008 27.1042 0
370.711 24.9782 0
371.98 24.9617 0
373.221 22.8026 0
375.76 22.7696 0
375.816 27.0547 0
373.277 27.0877 0
374.491 22.7861 0
375.788 24.9121 0
374.546 27.0712 0
373.249 24.9452 0
374.518 24.9287 0
375.76 22.7696 0
378.298 22.7364 0
378.354 27.0215 0
375.816 27.0547 0
377.029 22.753 0
378.326 24.879 0
377.085 27.0381 0
375.788 24.9121 0
377.057 24.8956 0
378.298 22.7364 0
380.836 22.7032 0
380.892 26.9883 0
378.354 27.0215 0
379.567 22.7198 0
380.864 24.8457 0
379.623 27.0049 0
378.326 24.879 0
379.595 24.8624 0
380.836 22.7032 0
383.374 22.6698 0
383.431 26.955 0
380.892 26.9883 0
382.105 22.6865 0
383.403 24.8124 0
382.161 26.9716 0
380.864 24.8457 0
382.133 24.8291 0
383.374 22.6698 0
385.913 22.6364 0
385.969 26.9216 0
383.431 26.955 0
384.643 22.6531 0
385.941 24.779 0
384.7 26.9383 0
383.403 24.8124 0
384.672 24.7957 0
385.913 22.6364 0
388.451 22.6029 0
388.507 26.8881 0
385.969 26.9216 0
387.182 22.6197 0
388.479 24.7455 0
387.238 26.9048 0
385.941 24.779 0
387.21 24.7623 0
388.451 22.6029 0
390.989 22.5694 0
391.046 26.8545 0
388.507 26.8881 0
389.72 22.5862 0
391.017 24.7119 0
389.776 26.8713 0
388.479 24.7455 0
389.748 24.7287 0
390.989 22.5694 0
393.527 22.5357 0
393.584 26.8209 0
391.046 26.8545 0
392.258 22.5526 0
393.556 24.6783 0
392.315 26.8377 0
391.017 24.7119 0
392.286 24.6951 0
393.527 22.5357 0
396.065 22.502 0
396.122 26.7871 0
393.584 26.8209 0
394.796 22.5189 0
396.094 24.6446 0
394.853 26.804 0
393.556 24.6783 0
394.825 24.6614 0
396.065 22.502 0
398.603 22.4682 0
398.661 26.7533 0
396.122 26.7871 0
397.334 22.4851 0
398.632 24.6108 0
397.391 26.7702 0
396.094 24.6446 0
397.363 24.6277 0
398.603 22.4682 0
401.142 22.4343 0
401.199 26.7195 0
398.661 26.7533 0
399.873 22.4513 0
401.17 24.5769 0
399.93 26.7364 0
398.632 24.6108 0
399.901 24.5938 0
401.142 22.4343 0
403.68 22.4004 0
403.737 26.6855 0
401.199 26.7195 0
402.411 22.4174 0
403.708 24.543 0
402.468 26.7025 0
401.17 24.5769 0
402.439 24.5599 0
403.68 22.4004 0
406.218 22.3664 0
406.275 26.6515 0
403.737 26.6855 0
404.949 22.3834 0
406.247 24.509 0
405.006 26.6685 0
403.708 24.543 0
404.977 24.526 0
406.218 22.3664 0
408.756 22.3323 0
408.814 26.6174 0
406.275 26.6515 0
407.487 22.3493 0
408.785 24.4749 0
407.544 26.6345 0
406.247 24.509 0
407.516 24.4919 0
408.756 22.3323 0
411.294 22.2981 0
411.352 26.5833 0
408.814 26.6174 0
410.025 22.3152 0
411.323 24.4407 0
410.083 26.6004 0
408.785 24.4749 0
410.054 24.4578 0
411.294 22.2981 0
413.832 22.2639 0
413.89 26.5491 0
411.352 26.5833 0
412.563 22.281 0
413.861 24.4065 0
412.621 26.5662 0
411.323 24.4407 0
412.592 24.4236 0
413.832 22.2639 0
416.37 22.2297 0
416.428 26.5148 0
413.89 26.5491 0
415.101 22.2468 0
416.399 24.3723 0
415.159 26.532 0
413.861 24.4065 0
415.13 24.3894 0
416.37 22.2297 0
418.908 22.1953 0
418.966 26.4805 0
416.428 26.5148 0
417.639 22.2125 0
418.937 24.3379 0
417.697 26.4977 0
416.399 24.3723 0
417.668 24.3551 0
418.908 22.1953 0
421.446 22.161 0
421.505 26.4461 0
418.966 26.4805 0
420.177 22.1782 0
421.475 24.3035 0
420.235 26.4633 0
418.937 24.3379 0
420.206 24.3207 0
421.446 22.161 0
423.985 22.1265 0
424.043 26.4117 0
421.505 26.4461 0
422.716 22.1437 0
424.014 24.2691 0
422.774 26.4289 0
421.475 24.3035 0
422.745 24.2863 0
423.985 22.1265 0
426.523 22.092 0
426.581 26.3772 0
424.043 26.4117 0
425.254 22.1093 0
426.552 24.2346 0
425.312 26.3944 0
424.014 24.2691 0
425.283 24.2519 0
426.523 22.092 0
429.061 22.0575 0
429.119 26.3426 0
426.581 26.3772 0
427.792 22.0747 0
429.09 24.2001 0
427.85 26.3599 0
426.552 24.2346 0
427.821 24.2173 0
429.061 22.0575 0
431.599 22.0229 0
431.657 26.308 0
429.119 26.3426 0
430.33 22.0402 0
431.628 24.1655 0
430.388 26.3254 0
429.09 24.2001 0
430.359 24.1828 0
431.599 22.0229 0
434.137 21.9882 0
434.195 26.2734 0
431.657 26.308 0
432.868 22.0055 0
434.166 24.1308 0
432.926 26.2907 0
431.628 24.1655 0
432.897 24.1481 0
434.137 21.9882 0
436.675 21.9535 0
436.733 26.2387 0
434.195 26.2734 0
435.406 21.9709 0
436.704 24.0961 0
435.464 26.2561 0
434.166 24.1308 0
435.435 24.1135 0
436.675 21.9535 0
439.213 21.9188 0
439.271 26.204 0
436.733 26.2387 0
437.944 21.9361 0
439.242 24.0614 0
438.002 26.2213 0
436.704 24.0961 0
437.973 24.0788 0
439.213 21.9188 0
441.751 21.884 0
441.81 26.1692 0
439.271 26.204 0
440.482 21.9014 0
441.78 24.0266 0
440.54 26.1866 0
439.242 24.0614 0
440.511 24.044 0
441.751 21.884 0
444.289 21.8492 0
444.348 26.1344 0
441.81 26.1692 0
443.02 21.8666 0
444.318 23.9918 0
443.079 26.1518 0
441.78 24.0266 0
443.049 24.0092 0
444.289 21.8492 0
446.827 21.8143 0
446.886 26.0995 0
444.348 26.1344 0
445.558 21.8317 0
446.856 23.9569 0
445.617 26.1169 0
444.318 23.9918 0
445.587 23.9743 0
446.827 21.8143 0
449.365 21.7794 0
449.424 26.0646 0
446.886 26.0995 0
448.096 21.7968 0
449.394 23.922 0
448.155 26.0821 0
446.856 23.9569 0
448.125 23.9395 0
449.365 21.7794 0
451.903 21.7444 0
451.962 26.0297 0
449.424 26.0646 0
450.634 21.7619 0
451.932 23.8871 0
450.693 26.0471 0
449.394 23.922 0
450.663 23.9045 0
451.903 21.7444 0
454.441 21.7095 0
454.5 25.9947 0
451.962 26.0297 0
453.172 21.727 0
454.47 23.8521 0
453.231 26.0122 0
451.932 23.8871 0
453.201 23.8696 0
454.441 21.7095 0
456.979 21.6745 0
457.038 25.9597 0
454.5 25.9947 0
455.71 21.692 0
457.008 23.8171 0
455.769 25.9772 0
454.47 23.8521 0
455.739 23.8346 0
456.979 21.6745 0
459.517 21.6394 0
459.576 25.9246 0
457.038 25.9597 0
458.248 21.6569 0
459.546 23.782 0
458.307 25.9422 0
457.008 23.8171 0
458.277 23.7996 0
459.517 21.6394 0
462.055 21.6043 0
462.114 25.8896 0
459.576 25.9246 0
460.786 21.6219 0
462.084 23.747 0
460.845 25.9071 0
459.546 23.782 0
460.815 23.7645 0
462.055 21.6043 0
464.593 21.5693 0
464.652 25.8545 0
462.114 25.8896 0
463.324 21.5868 0
464.622 23.7119 0
463.383 25.872 0
462.084 23.747 0
463.353 23.7294 0
464.593 21.5693 0
467.13 21.5341 0
467.19 25.8194 0
464.652 25.8545 0
465.862 21.5517 0
467.16 23.6768 0
465.921 25.8369 0
464.622 23.7119 0
465.891 23.6943 0
467.13 21.5341 0
469.668 21.499 0
469.728 25.7842 0
467.19 25.8194 0
468.399 21.5166 0
469.698 23.6416 0
468.459 25.8018 0
467.16 23.6768 0
468.429 23.6592 0
469.668 21.499 0
472.206 21.4638 0
472.266 25.7491 0
469.728 25.7842 0
470.937 21.4814 0
472.236 23.6065 0
470.997 25.7667 0
469.698 23.6416 0
470.967 23.624 0
472.206 21.4638 0
474.744 21.4286 0
474.804 25.7139 0
472.266 25.7491 0
473.475 21.4462 0
474.774 23.5713 0
473.535 25.7315 0
472.236 23.6065 0
473.505 23.5889 0
474.744 21.4286 0
477.282 21.3934 0
477.342 25.6787 0
474.804 25.7139 0
476.013 21.411 0
477.312 23.5361 0
476.073 25.6963 0
474.774 23.5713 0
476.043 23.5537 0
477.282 21.3934 0
479.82 21.3582 0
479.879 25.6435 0
477.342 25.6787 0
478.551 21.3758 0
479.85 23.5008 0
478.611 25.6611 0
477.312 23.5361 0
478.581 23.5185 0
479.82 21.3582 0
482.358 21.323 0
482.417 25.6082 0
479.879 25.6435 0
481.089 21.3406 0
482.388 23.4656 0
481.148 25.6259 0
479.85 23.5008 0
481.119 23.4832 0
482.358 21.323 0
484.896 21.2877 0
484.955 25.573 0
482.417 25.6082 0
483.627 21.3054 0
484.926 23.4304 0
483.686 25.5906 0
482.388 23.4656 0
483.657 23.448 0
484.896 21.2877 0
487.434 21.2525 0
487.493 25.5378 0
484.955 25.573 0
486.165 21.2701 0
487.463 23.3951 0
486.224 25.5554 0
484.926 23.4304 0
486.194 23.4127 0
487.434 21.2525 0
489.972 21.2172 0
490.031 25.5025 0
487.493 25.5378 0
488.703 21.2348 0
490.001 23.3599 0
488.762 25.5201 0
487.463 23.3951 0
488.732 23.3775 0
489.972 21.2172 0
492.509 21.1819 0
492.569 25.4672 0
490.031 25.5025 0
491.24 21.1996 0
492.539 23.3246 0
491.3 25.4849 0
490.001 23.3599 0
491.27 23.3422 0
492.509 21.1819 0
495.047 21.1466 0
495.107 25.4319 0
492.569 25.4672 0
493.778 21.1643 0
495.077 23.2893 0
493.838 25.4496 0
492.539 23.3246 0
493.808 23.3069 0
495.047 21.1466 0
497.585 21.1113 0
497.645 25.3966 0
495.107 25.4319 0
496.316 21.129 0
497.615 23.254 0
496.376 25.4143 0
495.077 23.2893 0
496.346 23.2716 0
497.585 21.1113 0
500.123 21.076 0
500.183 25.3611 0
497.645 25.3966 0
498.854 21.0937 0
500.153 23.2186 0
498.914 25.3789 0
497.615 23.254 0
498.884 23.2363 0
      </DataArray>
    </Points>
    <Cells>
      <DataArray type="Int32" Name="connectivity" format="ascii">
0 1 2 3 4 5 6 7 8 
9 10 11 12 13 14 15 16 17 
18 19 20 21 22 23 24 25 26 
27 28 29 30 31 32 33 34 35 
36 37 38 39 40 41 42 43 44 
45 46 47 48 49 50 51 52 53 
54 55 56 57 58 59 60 61 62 
63 64 65 66 67 68 69 70 71 
72 73 74 75 76 77 78 79 80 
81 82 83 84 85 86 87 88 89 
90 91 92 93 94 95 96 97 98 
99 100 101 102 103 104 105 106 107 
108 109 110 111 112 113 114 115 116 
117 118 119 120 121 122 123 124 125 
126 127 128 129 130 131 132 133 134 
135 136 137 138 139 140 141 142 143 
144 145 146 147 148 149 150 151 152 
153 154 155 156 157 158 159 160 161 
162 163 164 165 166 167 168 169 170 
171 172 173 174 175 176 177 178 179 
180 181 182 183 184 185 186 187 188 
189 190 191 192 193 194 195 196 197 
198 199 200 201 202 203 204 205 206 
207 208 209 210 211 212 213 214 215 
216 217 218 219 220 221 222 223 224 
225 226 227 228 229 230 231 232 233 
234 235 236 237 238 239 240 241 242 
243 244 245 246 247 248 249 250 251 
252 253 254 255 256 257 258 259 260 
261 262 263 264 265 266 267 268 269 
270 271 272 273 274 275 276 277 278 
279 280 281 282 283 284 285 286 287 
288 289 290 291 292 293 294 295 296 
297 298 299 300 301 302 303 304 305 
306 307 308 309 310 311 312 313 314 
315 316 317 318 319 320 321 322 323 
324 325 326 327 328 329 330 331 332 
333 334 335 336 337 338 339 340 341 
342 343 344 345 346 347 348 349 350 
351 352 353 354 355 356 357 358 359 
360 361 362 363 364 365 366 367 368 
369 370 371 372 373 374 375 376 377 
378 379 380 381 382 383 384 385 386 
387 388 389 390 391 392 393 394 395 
396 397 398 399 400 401 402 403 404 
405 406 407 408 409 410 411 412 413 
414 415 416 417 418 419 420 421 422 
423 424 425 426 427 428 429 430 431 
432 433 434 435 436 437 438 439 440 
441 442 443 444 445 446 447 448 449 
450 451 452 453 454 455 456 457 458 
459 460 461 462 463 464 465 466 467 
468 469 470 471 472 473 474 475 476 
477 478 479 480 481 482 483 484 485 
486 487 488 489 490 491 492 493 494 
495 496 497 498 499 500 501 502 503 
504 505 506 507 508 509 510 511 512 
513 514 515 516 517 518 519 520 521 
522 523 524 525 526 527 528 529 530 
531 532 533 534 535 536 537 538 539 
540 541 542 543 544 545 546 547 548 
549 550 551 552 553 554 555 556 557 
558 559 560 561 562 563 564 565 566 
567 568 569 570 571 572 573 574 575 
576 577 578 579 580 581 582 583 584 
585 586 587 588 589 590 591 592 593 
594 595 596 597 598 599 600 601 602 
603 604 605 606 607 608 609 610 611 
612 613 614 615 616 617 618 619 620 
621 622 623 624 625 626 627 628 629 
630 631 632 633 634 635 636 637 638 
639 640 641 642 643 644 645 646 647 
648 649 650 651 652 653 654 655 656 
657 658 659 660 661 662 663 664 665 
666 667 668 669 670 671 672 673 674 
675 676 677 678 679 680 681 682 683 
684 685 686 687 688 689 690 691 692 
693 694 695 696 697 698 699 700 701 
702 703 704 705 706 707 708 709 710 
711 712 713 714 715 716 717 718 719 
720 721 722 723 724 725 726 727 728 
729 730 731 732 733 734 735 736 737 
738 739 740 741 742 743 744 745 746 
747 748 749 750 751 752 753 754 755 
756 757 758 759 760 761 762 763 764 
765 766 767 768 769 770 771 772 773 
774 775 776 777 778 779 780 781 782 
783 784 785 786 787 788 789 790 791 
792 793 794 795 796 797 798 799 800 
801 802 803 804 805 806 807 808 809 
810 811 812 813 814 815 816 817 818 
819 820 821 822 823 824 825 826 827 
828 829 830 831 832 833 834 835 836 
837 838 839 840 841 842 843 844 845 
846 847 848 849 850 851 852 853 854 
855 856 857 858 859 860 861 862 863 
864 865 866 867 868 869 870 871 872 
873 874 875 876 877 878 879 880 881 
882 883 884 885 886 887 888 889 890 
891 892 893 894 895 896 897 898 899 
900 901 902 903 904 905 906 907 908 
909 910 911 912 913 914 915 916 917 
918 919 920 921 922 923 924 925 926 
927 928 929 930 931 932 933 934 935 
936 937 938 939 940 941 942 943 944 
945 946 947 948 949 950 951 952 953 
954 955 956 957 958 959 960 961 962 
963 964 965 966 967 968 969 970 971 
972 973 974 975 976 977 978 979 980 
981 982 983 984 985 986 987 988 989 
990 991 992 993 994 995 996 997 998 
999 1000 1001 1002 1003 1004 1005 1006 1007 
1008 1009 1010 1011 1012 1013 1014 1015 1016 
1017 1018 1019 1020 1021 1022 1023 1024 1025 
1026 1027 1028 1029 1030 1031 1032 1033 1034 
1035 1036 1037 1038 1039 1040 1041 1042 1043 
1044 1045 1046 1047 1048 1049 1050 1051 1052 
1053 1054 1055 1056 1057 1058 1059 1060 1061 
1062 1063 1064 1065 1066 1067 1068 1069 1070 
1071 1072 1073 1074 1075 1076 1077 1078 1079 
1080 1081 1082 1083 1084 1085 1086 1087 1088 
1089 1090 1091 1092 1093 1094 1095 1096 1097 
1098 1099 1100 1101 1102 1103 1104 1105 1106 
1107 1108 1109 1110 1111 1112 1113 1114 1115 
1116 1117 1118 1119 1120 1121 1122 1123 1124 
1125 1126 1127 1128 1129 1130 1131 1132 1133 
1134 1135 1136 1137 1138 1139 1140 1141 1142 
1143 1144 1145 1146 1147 1148 1149 1150 1151 
1152 1153 1154 1155 1156 1157 1158 1159 1160 
1161 1162 1163 1164 1165 1166 1167 1168 1169 
1170 1171 1172 1173 1174 1175 1176 1177 1178 
1179 1180 1181 1182 1183 1184 1185 1186 1187 
1188 1189 1190 1191 1192 1193 1194 1195 1196 
1197 1198 1199 1200 1201 1202 1203 1204 1205 
1206 1207 1208 1209 1210 1211 1212 1213 1214 
1215 1216 1217 1218 1219 1220 1221 1222 1223 
1224 1225 1226 1227 1228 1229 1230 1231 1232 
1233 1234 1235 1236 1237 1238 1239 1240 1241 
1242 1243 1244 1245 1246 1247 1248 1249 1250 
1251 1252 1253 1254 1255 1256 1257 1258 1259 
1260 1261 1262 1263 1264 1265 1266 1267 1268 
1269 1270 1271 1272 1273 1274 1275 1276 1277 
1278 1279 1280 1281 1282 1283 1284 1285 1286 
1287 1288 1289 1290 1291 1292 1293 1294 1295 
1296 1297 1298 1299 1300 1301 1302 1303 1304 
1305 1306 1307 1308 1309 1310 1311 1312 1313 
1314 1315 1316 1317 1318 1319 1320 1321 1322 
1323 1324 1325 1326 1327 1328 1329 1330 1331 
1332 1333 1334 1335 1336 1337 1338 1339 1340 
1341 1342 1343 1344 1345 1346 1347 1348 1349 
1350 1351 1352 1353 1354 1355 1356 1357 1358 
1359 1360 1361 1362 1363 1364 1365 1366 1367 
1368 1369 1370 1371 1372 1373 1374 1375 1376 
1377 1378 1379 1380 1381 1382 1383 1384 1385 
1386 1387 1388 1389 1390 1391 1392 1393 1394 
1395 1396 1397 1398 1399 1400 1401 1402 1403 
1404 1405 1406 1407 1408 1409 1410 1411 1412 
1413 1414 1415 1416 1417 1418 1419 1420 1421 
1422 1423 1424 1425 1426 1427 1428 1429 1430 
1431 1432 1433 1434 1435 1436 1437 1438 1439 
1440 1441 1442 1443 1444 1445 1446 1447 1448 
1449 1450 1451 1452 1453 1454 1455 1456 1457 
1458 1459 1460 1461 1462 1463 1464 1465 1466 
1467 1468 1469 1470 1471 1472 1473 1474 1475 
1476 1477 1478 1479 1480 1481 1482 1483 1484 
1485 1486 1487 1488 1489 1490 1491 1492 1493 
1494 1495 1496 1497 1498 1499 1500 1501 1502 
1503 1504 1505 1506 1507 1508 1509 1510 1511 
1512 1513 1514 1515 1516 1517 1518 1519 1520 
1521 1522 1523 1524 1525 1526 1527 1528 1529 
1530 1531 1532 1533 1534 1535 1536 1537 1538 
1539 1540 1541 1542 1543 1544 1545 1546 1547 
1548 1549 1550 1551 1552 1553 1554 1555 1556 
1557 1558 1559 1560 1561 1562 1563 1564 1565 
1566 1567 1568 1569 1570 1571 1572 1573 1574 
1575 1576 1577 1578 1579 1580 1581 1582 1583 
1584 1585 1586 1587 1588 1589 1590 1591 1592 
1593 1594 1595 1596 1597 1598 1599 1600 1601 
1602 1603 1604 1605 1606 1607 1608 1609 1610 
1611 1612 1613 1614 1615 1616 1617 1618 1619 
1620 1621 1622 1623 1624 1625 1626 1627 1628 
1629 1630 1631 1632 1633 1634 1635 1636 1637 
1638 1639 1640 1641 1642 1643 1644 1645 1646 
1647 1648 1649 1650 1651 1652 1653 1654 1655 
1656 1657 1658 1659 1660 1661 1662 1663 1664 
1665 1666 1667 1668 1669 1670 1671 1672 1673 
1674 1675 1676 1677 1678 1679 1680 1681 1682 
1683 1684 1685 1686 1687 1688 1689 1690 1691 
1692 1693 1694 1695 1696 1697 1698 1699 1700 
1701 1702 1703 1704 1705 1706 1707 1708 1709 
1710 1711 1712 1713 1714 1715 1716 1717 1718 
1719 1720 1721 1722 1723 1724 1725 1726 1727 
1728 1729 1730 1731 1732 1733 1734 1735 1736 
1737 1738 1739 1740 1741 1742 1743 1744 1745 
1746 1747 1748 1749 1750 1751 1752 1753 1754 
1755 1756 1757 1758 1759 1760 1761 1762 1763 
1764 1765 1766 1767 1768 1769 1770 1771 1772 
1773 1774 1775 1776 1777 1778 1779 1780 1781 
1782 1783 1784 1785 1786 1787 1788 1789 1790 
1791 1792 1793 1794 1795 1796 1797 1798 1799 
1800 1801 1802 1803 1804 1805 1806 1807 1808 
1809 1810 1811 1812 1813 1814 1815 1816 1817 
1818 1819 1820 1821 1822 1823 1824 1825 1826 
1827 1828 1829 1830 1831 1832 1833 1834 1835 
1836 1837 1838 1839 1840 1841 1842 1843 1844 
1845 1846 1847 1848 1849 1850 1851 1852 1853 
1854 1855 1856 1857 1858 1859 1860 1861 1862 
1863 1864 1865 1866 1867 1868 1869 1870 1871 
1872 1873 1874 1875 1876 1877 1878 1879 1880 
1881 1882 1883 1884 1885 1886 1887 1888 1889 
1890 1891 1892 1893 1894 1895 1896 1897 1898 
1899 1900 1901 1902 1903 1904 1905 1906 1907 
1908 1909 1910 1911 1912 1913 1914 1915 1916 
1917 1918 1919 1920 1921 1922 1923 1924 1925 
1926 1927 1928 1929 1930 1931 1932 1933 1934 
1935 1936 1937 1938 1939 1940 1941 1942 1943 
1944 1945 1946 1947 1948 1949 1950 1951 1952 
1953 1954 1955 1956 1957 1958 1959 1960 1961 
1962 1963 1964 1965 1966 1967 1968 1969 1970 
1971 1972 1973 1974 1975 1976 1977 1978 1979 
1980 1981 1982 1983 1984 1985 1986 1987 1988 
1989 1990 1991 1992 1993 1994 1995 1996 1997 
1998 1999 2000 2001 2002 2003 2004 2005 2006 
2007 2008 2009 2010 2011 2012 2013 2014 2015 
2016 2017 2018 2019 2020 2021 2022 2023 2024 
2025 2026 2027 2028 2029 2030 2031 2032 2033 
2034 2035 2036 2037 2038 2039 2040 2041 2042 
2043 2044 2045 2046 2047 2048 2049 2050 2051 
2052 2053 2054 2055 2056 2057 2058 2059 2060 
2061 2062 2063 2064 2065 2066 2067 2068 2069 
2070 2071 2072 2073 2074 2075 2076 2077 2078 
2079 2080 2081 2082 2083 2084 2085 2086 2087 
2088 2089 2090 2091 2092 2093 2094 2095 2096 
2097 2098 2099 2100 2101 2102 2103 2104 2105 
2106 2107 2108 2109 2110 2111 2112 2113 2114 
2115 2116 2117 2118 2119 2120 2121 2122 2123 
2124 2125 2126 2127 2128 2129 2130 2131 2132 
2133 2134 2135 2136 2137 2138 2139 2140 2141 
2142 2143 2144 2145 2146 2147 2148 2149 2150 
2151 2152 2153 2154 2155 2156 2157 2158 2159 
2160 2161 2162 2163 2164 2165 2166 2167 2168 
2169 2170 2171 2172 2173 2174 2175 2176 2177 
2178 2179 2180 2181 2182 2183 2184 2185 2186 
2187 2188 2189 2190 2191 2192 2193 2194 2195 
2196 2197 2198 2199 2200 2201 2202 2203 2204 
2205 2206 2207 2208 2209 2210 2211 2212 2213 
2214 2215 2216 2217 2218 2219 2220 2221 2222 
2223 2224 2225 2226 2227 2228 2229 2230 2231 
2232 2233 2234 2235 2236 2237 2238 2239 2240 
2241 2242 2243 2244 2245 2246 2247 2248 2249 
2250 2251 2252 2253 2254 2255 2256 2257 2258 
2259 2260 2261 2262 2263 2264 2265 2266 2267 
2268 2269 2270 2271 2272 2273 2274 2275 2276 
2277 2278 2279 2280 2281 2282 2283 2284 2285 
2286 2287 2288 2289 2290 2291 2292 2293 2294 
2295 2296 2297 2298 2299 2300 2301 2302 2303 
2304 2305 2306 2307 2308 2309 2310 2311 2312 
2313 2314 2315 2316 2317 2318 2319 2320 2321 
2322 2323 2324 2325 2326 2327 2328 2329 2330 
2331 2332 2333 2334 2335 2336 2337 2338 2339 
2340 2341 2342 2343 2344 2345 2346 2347 2348 
2349 2350 2351 2352 2353 2354 2355 2356 2357 
2358 2359 2360 2361 2362 2363 2364 2365 2366 
2367 2368 2369 2370 2371 2372 2373 2374 2375 
2376 2377 2378 2379 2380 2381 2382 2383 2384 
2385 2386 2387 2388 2389 2390 2391 2392 2393 
2394 2395 2396 2397 2398 2399 2400 2401 2402 
2403 2404 2405 2406 2407 2408 2409 2410 2411 
2412 2413 2414 2415 2416 2417 2418 2419 2420 
2421 2422 2423 2424 2425 2426 2427 2428 2429 
2430 2431 2432 2433 2434 2435 2436 2437 2438 
2439 2440 2441 2442 2443 2444 2445 2446 2447 
2448 2449 2450 2451 2452 2453 2454 2455 2456 
2457 2458 2459 2460 2461 2462 2463 2464 2465 
2466 2467 2468 2469 2470 2471 2472 2473 2474 
2475 2476 2477 2478 2479 2480 2481 2482 2483 
2484 2485 2486 2487 2488 2489 2490 2491 2492 
2493 2494 2495 2496 2497 2498 2499 2500 2501 
2502 2503 2504 2505 2506 2507 2508 2509 2510 
2511 2512 2513 2514 2515 2516 2517 2518 2519 
2520 2521 2522 2523 2524 2525 2526 2527 2528 
2529 2530 2531 2532 2533 2534 2535 2536 2537 
2538 2539 2540 2541 2542 2543 2544 2545 2546 
2547 2548 2549 2550 2551 2552 2553 2554 2555 
2556 2557 2558 2559 2560 2561 2562 2563 2564 
2565 2566 2567 2568 2569 2570 2571 2572 2573 
2574 2575 2576 2577 2578 2579 2580 2581 2582 
2583 2584 2585 2586 2587 2588 2589 2590 2591 
2592 2593 2594 2595 2596 2597 2598 2599 2600 
2601 2602 2603 2604 2605 2606 2607 2608 2609 
2610 2611 2612 2613 2614 2615 2616 2617 2618 
2619 2620 2621 2622 2623 2624 2625 2626 2627 
2628 2629 2630 2631 2632 2633 2634 2635 2636 
2637 2638 2639 2640 2641 2642 2643 2644 2645 
2646 2647 2648 2649 2650 2651 2652 2653 2654 
2655 2656 2657 2658 2659 2660 2661 2662 2663 
2664 2665 2666 2667 2668 2669 2670 2671 2672 
2673 2674 2675 2676 2677 2678 2679 2680 2681 
2682 2683 2684 2685 2686 2687 2688 2689 2690 
2691 2692 2693 2694 2695 2696 2697 2698 2699 
2700 2701 2702 2703 2704 2705 2706 2707 2708 
2709 2710 2711 2712 2713 2714 2715 2716 2717 
2718 2719 2720 2721 2722 2723 2724 2725 2726 
2727 2728 2729 2730 2731 2732 2733 2734 2735 
2736 2737 2738 2739 2740 2741 2742 2743 2744 
2745 2746 2747 2748 2749 2750 2751 2752 2753 
2754 2755 2756 2757 2758 2759 2760 2761 2762 
2763 2764 2765 2766 2767 2768 2769 2770 2771 
2772 2773 2774 2775 2776 2777 2778 2779 2780 
2781 2782 2783 2784 2785 2786 2787 2788 2789 
2790 2791 2792 2793 2794 2795 2796 2797 2798 
2799 2800 2801 2802 2803 2804 2805 2806 2807 
2808 2809 2810 2811 2812 2813 2814 2815 2816 
2817 2818 2819 2820 2821 2822 2823 2824 2825 
2826 2827 2828 2829 2830 2831 2832 2833 2834 
2835 2836 2837 2838 2839 2840 2841 2842 2843 
2844 2845 2846 2847 2848 2849 2850 2851 2852 
2853 2854 2855 2856 2857 2858 2859 2860 2861 
2862 2863 2864 2865 2866 2867 2868 2869 2870 
2871 2872 2873 2874 2875 2876 2877 2878 2879 
2880 2881 2882 2883 2884 2885 2886 2887 2888 
2889 2890 2891 2892 2893 2894 2895 2896 2897 
2898 2899 2900 2901 2902 2903 2904 2905 2906 
2907 2908 2909 2910 2911 2912 2913 2914 2915 
2916 2917 2918 2919 2920 2921 2922 2923 2924 
2925 2926 2927 2928 2929 2930 2931 2932 2933 
2934 2935 2936 2937 2938 2939 2940 2941 2942 
2943 2944 2945 2946 2947 2948 2949 2950 2951 
2952 2953 2954 2955 2956 2957 2958 2959 2960 
2961 2962 2963 2964 2965 2966 2967 2968 2969 
2970 2971 2972 2973 2974 2975 2976 2977 2978 
2979 2980 2981 2982 2983 2984 2985 2986 2987 
2988 2989 2990 2991 2992 2993 2994 2995 2996 
2997 2998 2999 3000 3001 3002 3003 3004 3005 
3006 3007 3008 3009 3010 3011 3012 3013 3014 
3015 3016 3017 3018 3019 3020 3021 3022 3023 
3024 3025 3026 3027 3028 3029 3030 3031 3032 
3033 3034 3035 3036 3037 3038 3039 3040 3041 
3042 3043 3044 3045 3046 3047 3048 3049 3050 
3051 3052 3053 3054 3055 3056 3057 3058 3059 
3060 3061 3062 3063 3064 3065 3066 3067 3068 
3069 3070 3071 3072 3073 3074 3075 3076 3077 
3078 3079 3080 3081 3082 3083 3084 3085 3086 
3087 3088 3089 3090 3091 3092 3093 3094 3095 
3096 3097 3098 3099 3100 3101 3102 3103 3104 
3105 3106 3107 3108 3109 3110 3111 3112 3113 
3114 3115 3116 3117 3118 3119 3120 3121 3122 
3123 3124 3125 3126 3127 3128 3129 3130 3131 
3132 3133 3134 3135 3136 3137 3138 3139 3140 
3141 3142 3143 3144 3145 3146 3147 3148 3149 
3150 3151 3152 3153 3154 3155 3156 3157 3158 
3159 3160 3161 3162 3163 3164 3165 3166 3167 
3168 3169 3170 3171 3172 3173 3174 3175 3176 
3177 3178 3179 3180 3181 3182 3183 3184 3185 
3186 3187 3188 3189 3190 3191 3192 3193 3194 
3195 3196 3197 3198 3199 3200 3201 3202 3203 
3204 3205 3206 3207 3208 3209 3210 3211 3212 
3213 3214 3215 3216 3217 3218 3219 3220 3221 
3222 3223 3224 3225 3226 3227 3228 3229 3230 
3231 3232 3233 3234 3235 3236 3237 3238 3239 
3240 3241 3242 3243 3244 3245 3246 3247 3248 
3249 3250 3251 3252 3253 3254 3255 3256 3257 
3258 3259 3260 3261 3262 3263 3264 3265 3266 
3267 3268 3269 3270 3271 3272 3273 3274 3275 
3276 3277 3278 3279 3280 3281 3282 3283 3284 
3285 3286 3287 3288 3289 3290 3291 3292 3293 
3294 3295 3296 3297 3298 3299 3300 3301 3302 
3303 3304 3305 3306 3307 3308 3309 3310 3311 
3312 3313 3314 3315 3316 3317 3318 3319 3320 
3321 3322 3323 3324 3325 3326 3327 3328 3329 
3330 3331 3332 3333 3334 3335 3336 3337 3338 
3339 3340 3341 3342 3343 3344 3345 3346 3347 
3348 3349 3350 3351 3352 3353 3354 3355 3356 
3357 3358 3359 3360 3361 3362 3363 3364 3365 
3366 3367 3368 3369 3370 3371 3372 3373 3374 
3375 3376 3377 3378 3379 3380 3381 3382 3383 
3384 3385 3386 3387 3388 3389 3390 3391 3392 
3393 3394 3395 3396 3397 3398 3399 3400 3401 
3402 3403 3404 3405 3406 3407 3408 3409 3410 
3411 3412 3413 3414 3415 3416 3417 3418 3419 
3420 3421 3422 3423 3424 3425 3426 3427 3428 
3429 3430 3431 3432 3433 3434 3435 3436 3437 
3438 3439 3440 3441 3442 3443 3444 3445 3446 
3447 3448 3449 3450 3451 3452 3453 3454 3455 
3456 3457 3458 3459 3460 3461 3462 3463 3464 
3465 3466 3467 3468 3469 3470 3471 3472 3473 
3474 3475 3476 3477 3478 3479 3480 3481 3482 
3483 3484 3485 3486 3487 3488 3489 3490 3491 
3492 3493 3494 3495 3496 3497 3498 3499 3500 
3501 3502 3503 3504 3505 3506 3507 3508 3509 
3510 3511 3512 3513 3514 3515 3516 3517 3518 
3519 3520 3521 3522 3523 3524 3525 3526 3527 
3528 3529 3530 3531 3532 3533 3534 3535 3536 
3537 3538 3539 3540 3541 3542 3543 3544 3545 
3546 3547 3548 3549 3550 3551 3552 3553 3554 
3555 3556 3557 3558 3559 3560 3561 3562 3563 
3564 3565 3566 3567 3568 3569 3570 3571 3572 
3573 3574 3575 3576 3577 3578 3579 3580 3581 
3582 3583 3584 3585 3586 3587 3588 3589 3590 
3591 3592 3593 3594 3595 3596 3597 3598 3599 
3600 3601 3602 3603 3604 3605 3606 3607 3608 
3609 3610 3611 3612 3613 3614 3615 3616 3617 
3618 3619 3620 3621 3622 3623 3624 3625 3626 
3627 3628 3629 3630 3631 3632 3633 3634 3635 
3636 3637 3638 3639 3640 3641 3642 3643 3644 
3645 3646 3647 3648 3649 3650 3651 3652 3653 
3654 3655 3656 3657 3658 3659 3660 3661 3662 
3663 3664 3665 3666 3667 3668 3669 3670 3671 
3672 3673 3674 3675 3676 3677 3678 3679 3680 
3681 3682 3683 3684 3685 3686 3687 3688 3689 
3690 3691 3692 3693 3694 3695 3696 3697 3698 
3699 3700 3701 3702 3703 3704 3705 3706 3707 
3708 3709 3710 3711 3712 3713 3714 3715 3716 
3717 3718 3719 3720 3721 3722 3723 3724 3725 
3726 3727 3728 3729 3730 3731 3732 3733 3734 
3735 3736 3737 3738 3739 3740 3741 3742 3743 
3744 3745 3746 3747 3748 3749 3750 3751 3752 
3753 3754 3755 3756 3757 3758 3759 3760 3761 
3762 3763 3764 3765 3766 3767 3768 3769 3770 
3771 3772 3773 3774 3775 3776 3777 3778 3779 
3780 3781 3782 3783 3784 3785 3786 3787 3788 
3789 3790 3791 3792 3793 3794 3795 3796 3797 
3798 3799 3800 3801 3802 3803 3804 3805 3806 
3807 3808 3809 3810 3811 3812 3813 3814 3815 
3816 3817 3818 3819 3820 3821 3822 3823 3824 
3825 3826 3827 3828 3829 3830 3831 3832 3833 
3834 3835 3836 3837 3838 3839 3840 3841 3842 
3843 3844 3845 3846 3847 3848 3849 3850 3851 
3852 3853 3854 3855 3856 3857 3858 3859 3860 
3861 3862 3863 3864 3865 3866 3867 3868 3869 
3870 3871 3872 3873 3874 3875 3876 3877 3878 
3879 3880 3881 3882 3883 3884 3885 3886 3887 
3888 3889 3890 3891 3892 3893 3894 3895 3896 
3897 3898 3899 3900 3901 3902 3903 3904 3905 
3906 3907 3908 3909 3910 3911 3912 3913 3914 
3915 3916 3917 3918 3919 3920 3921 3922 3923 
3924 3925 3926 3927 3928 3929 3930 3931 3932 
3933 3934 3935 3936 3937 3938 3939 3940 3941 
3942 3943 3944 3945 3946 3947 3948 3949 3950 
3951 3952 3953 3954 3955 3956 3957 3958 3959 
3960 3961 3962 3963 3964 3965 3966 3967 3968 
3969 3970 3971 3972 3973 3974 3975 3976 3977 
3978 3979 3980 3981 3982 3983 3984 3985 3986 
3987 3988 3989 3990 3991 3992 3993 3994 3995 
3996 3997 3998 3999 4000 4001 4002 4003 4004 
4005 4006 4007 4008 4009 4010 4011 4012 4013 
4014 4015 4016 4017 4018 4019 4020 4021 4022 
4023 4024 4025 4026 4027 4028 4029 4030 4031 
4032 4033 4034 4035 4036 4037 4038 4039 4040 
4041 4042 4043 4044 4045 4046 4047 4048 4049 
4050 4051 4052 4053 4054 4055 4056 4057 4058 
4059 4060 4061 4062 4063 4064 4065 4066 4067 
4068 4069 4070 4071 4072 4073 4074 4075 4076 
4077 4078 4079 4080 4081 4082 4083 4084 4085 
4086 4087 4088 4089 4090 4091 4092 4093 4094 
4095 4096 4097 4098 4099 4100 4101 4102 4103 
4104 4105 4106 4107 4108 4109 4110 4111 4112 
4113 4114 4115 4116 4117 4118 4119 4120 4121 
4122 4123 4124 4125 4126 4127 4128 4129 4130 
4131 4132 4133 4134 4135 4136 4137 4138 4139 
4140 4141 4142 4143 4144 4145 4146 4147 4148 
4149 4150 4151 4152 4153 4154 4155 4156 4157 
4158 4159 4160 4161 4162 4163 4164 4165 4166 
4167 4168 4169 4170 4171 4172 4173 4174 4175 
4176 4177 4178 4179 4180 4181 4182 4183 4184 
4185 4186 4187 4188 4189 4190 4191 4192 4193 
4194 4195 4196 4197 4198 4199 4200 4201 4202 
4203 4204 4205 4206 4207 4208 4209 4210 4211 
4212 4213 4214 4215 4216 4217 4218 4219 4220 
4221 4222 4223 4224 4225 4226 4227 4228 4229 
4230 4231 4232 4233 4234 4235 4236 4237 4238 
4239 4240 4241 4242 4243 4244 4245 4246 4247 
4248 4249 4250 4251 4252 4253 4254 4255 4256 
4257 4258 4259 4260 4261 4262 4263 4264 4265 
4266 4267 4268 4269 4270 4271 4272 4273 4274 
4275 4276 4277 4278 4279 4280 4281 4282 4283 
4284 4285 4286 4287 4288 4289 4290 4291 4292 
4293 4294 4295 4296 4297 4298 4299 4300 4301 
4302 4303 4304 4305 4306 4307 4308 4309 4310 
4311 4312 4313 4314 4315 4316 4317 4318 4319 
4320 4321 4322 4323 4324 4325 4326 4327 4328 
4329 4330 4331 4332 4333 4334 4335 4336 4337 
4338 4339 4340 4341 4342 4343 4344 4345 4346 
4347 4348 4349 4350 4351 4352 4353 4354 4355 
4356 4357 4358 4359 4360 4361 4362 4363 4364 
4365 4366 4367 4368 4369 4370 4371 4372 4373 
4374 4375 4376 4377 4378 4379 4380 4381 4382 
4383 4384 4385 4386 4387 4388 4389 4390 4391 
4392 4393 4394 4395 4396 4397 4398 4399 4400 
4401 4402 4403 4404 4405 4406 4407 4408 4409 
4410 4411 4412 4413 4414 4415 4416 4417 4418 
4419 4420 4421 4422 4423 4424 4425 4426 4427 
4428 4429 4430 4431 4432 4433 4434 4435 4436 
4437 4438 4439 4440 4441 4442 4443 4444 4445 
4446 4447 4448 4449 4450 4451 4452 4453 4454 
4455 4456 4457 4458 4459 4460 4461 4462 4463 
4464 4465 4466 4467 4468 4469 4470 4471 4472 
4473 4474 4475 4476 4477 4478 4479 4480 4481 
4482 4483 4484 4485 4486 4487 4488 4489 4490 
4491 4492 4493 4494 4495 4496 4497 4498 4499 
4500 4501 4502 4503 4504 4505 4506 4507 4508 
4509 4510 4511 4512 4513 4514 4515 4516 4517 
4518 4519 4520 4521 4522 4523 4524 4525 4526 
4527 4528 4529 4530 4531 4532 4533 4534 4535 
4536 4537 4538 4539 4540 4541 4542 4543 4544 
4545 4546 4547 4548 4549 4550 4551 4552 4553 
4554 4555 4556 4557 4558 4559 4560 4561 4562 
4563 4564 4565 4566 4567 4568 4569 4570 4571 
4572 4573 4574 4575 4576 4577 4578 4579 4580 
4581 4582 4583 4584 4585 4586 4587 4588 4589 
4590 4591 4592 4593 4594 4595 4596 4597 4598 
4599 4600 4601 4602 4603 4604 4605 4606 4607 
4608 4609 4610 4611 4612 4613 4614 4615 4616 
4617 4618 4619 4620 4621 4622 4623 4624 4625 
4626 4627 4628 4629 4630 4631 4632 4633 4634 
4635 4636 4637 4638 4639 4640 4641 4642 4643 
4644 4645 4646 4647 4648 4649 4650 4651 4652 
4653 4654 4655 4656 4657 4658 4659 4660 4661 
4662 4663 4664 4665 4666 4667 4668 4669 4670 
4671 4672 4673 4674 4675 4676 4677 4678 4679 
4680 4681 4682 4683 4684 4685 4686 4687 4688 
4689 4690 4691 4692 4693 4694 4695 4696 4697 
4698 4699 4700 4701 4702 4703 4704 4705 4706 
4707 4708 4709 4710 4711 4712 4713 4714 4715 
4716 4717 4718 4719 4720 4721 4722 4723 4724 
4725 4726 4727 4728 4729 4730 4731 4732 4733 
4734 4735 4736 4737 4738 4739 4740 4741 4742 
4743 4744 4745 4746 4747 4748 4749 4750 4751 
4752 4753 4754 4755 4756 4757 4758 4759 4760 
4761 4762 4763 4764 4765 4766 4767 4768 4769 
4770 4771 4772 4773 4774 4775 4776 4777 4778 
4779 4780 4781 4782 4783 4784 4785 4786 4787 
4788 4789 4790 4791 4792 4793 4794 4795 4796 
4797 4798 4799 4800 4801 4802 4803 4804 4805 
4806 4807 4808 4809 4810 4811 4812 4813 4814 
4815 4816 4817 4818 4819 4820 4821 4822 4823 
4824 4825 4826 4827 4828 4829 4830 4831 4832 
4833 4834 4835 4836 4837 4838 4839 4840 4841 
4842 4843 4844 4845 4846 4847 4848 4849 4850 
4851 4852 4853 4854 4855 4856 4857 4858 4859 
4860 4861 4862 4863 4864 4865 4866 4867 4868 
4869 4870 4871 4872 4873 4874 4875 4876 4877 
4878 4879 4880 4881 4882 4883 4884 4885 4886 
4887 4888 4889 4890 4891 4892 4893 4894 4895 
4896 4897 4898 4899 4900 4901 4902 4903 4904 
4905 4906 4907 4908 4909 4910 4911 4912 4913 
4914 4915 4916 4917 4918 4919 4920 4921 4922 
4923 4924 4925 4926 4927 4928 4929 4930 4931 
4932 4933 4934 4935 4936 4937 4938 4939 4940 
4941 4942 4943 4944 4945 4946 4947 4948 4949 
4950 4951 4952 4953 4954 4955 4956 4957 4958 
4959 4960 4961 4962 4963 4964 4965 4966 4967 
4968 4969 4970 4971 4972 4973 4974 4975 4976 
4977 4978 4979 4980 4981 4982 4983 4984 4985 
4986 4987 4988 4989 4990 4991 4992 4993 4994 
4995 4996 4997 4998 4999 5000 5001 5002 5003 
5004 5005 5006 5007 5008 5009 5010 5011 5012 
5013 5014 5015 5016 5017 5018 5019 5020 5021 
5022 5023 5024 5025 5026 5027 5028 5029 5030 
5031 5032 5033 5034 5035 5036 5037 5038 5039 
5040 5041 5042 5043 5044 5045 5046 5047 5048 
5049 5050 5051 5052 5053 5054 5055 5056 5057 
5058 5059 5060 5061 5062 5063 5064 5065 5066 
5067 5068 5069 5070 5071 5072 5073 5074 5075 
5076 5077 5078 5079 5080 5081 5082 5083 5084 
5085 5086 5087 5088 5089 5090 5091 5092 5093 
5094 5095 5096 5097 5098 5099 5100 5101 5102 
5103 5104 5105 5106 5107 5108 5109 5110 5111 
5112 5113 5114 5115 5116 5117 5118 5119 5120 
5121 5122 5123 5124 5125 5126 5127 5128 5129 
5130 5131 5132 5133 5134 5135 5136 5137 5138 
5139 5140 5141 5142 5143 5144 5145 5146 5147 
5148 5149 5150 5151 5152 5153 5154 5155 5156 
5157 5158 5159 5160 5161 5162 5163 5164 5165 
5166 5167 5168 5169 5170 5171 5172 5173 5174 
5175 5176 5177 5178 5179 5180 5181 5182 5183 
5184 5185 5186 5187 5188 5189 5190 5191 5192 
5193 5194 5195 5196 5197 5198 5199 5200 5201 
5202 5203 5204 5205 5206 5207 5208 5209 5210 
5211 5212 5213 5214 5215 5216 5217 5218 5219 
5220 5221 5222 5223 5224 5225 5226 5227 5228 
5229 5230 5231 5232 5233 5234 5235 5236 5237 
5238 5239 5240 5241 5242 5243 5244 5245 5246 
5247 5248 5249 5250 5251 5252 5253 5254 5255 
5256 5257 5258 5259 5260 5261 5262 5263 5264 
5265 5266 5267 5268 5269 5270 5271 5272 5273 
5274 5275 5276 5277 5278 5279 5280 5281 5282 
5283 5284 5285 5286 5287 5288 5289 5290 5291 
5292 5293 5294 5295 5296 5297 5298 5299 5300 
5301 5302 5303 5304 5305 5306 5307 5308 5309 
5310 5311 5312 5313 5314 5315 5316 5317 5318 
5319 5320 5321 5322 5323 5324 5325 5326 5327 
5328 5329 5330 5331 5332 5333 5334 5335 5336 
5337 5338 5339 5340 5341 5342 5343 5344 5345 
5346 5347 5348 5349 5350 5351 5352 5353 5354 
5355 5356 5357 5358 5359 5360 5361 5362 5363 
5364 5365 5366 5367 5368 5369 5370 5371 5372 
5373 5374 5375 5376 5377 5378 5379 5380 5381 
5382 5383 5384 5385 5386 5387 5388 5389 5390 
5391 5392 5393 5394 5395 5396 5397 5398 5399 
5400 5401 5402 5403 5404 5405 5406 5407 5408 
5409 5410 5411 5412 5413 5414 5415 5416 5417 
5418 5419 5420 5421 5422 5423 5424 5425 5426 
5427 5428 5429 5430 5431 5432 5433 5434 5435 
5436 5437 5438 5439 5440 5441 5442 5443 5444 
5445 5446 5447 5448 5449 5450 5451 5452 5453 
5454 5455 5456 5457 5458 5459 5460 5461 5462 
5463 5464 5465 5466 5467 5468 5469 5470 5471 
5472 5473 5474 5475 5476 5477 5478 5479 5480 
5481 5482 5483 5484 5485 5486 5487 5488 5489 
5490 5491 5492 5493 5494 5495 5496 5497 5498 
5499 5500 5501 5502 5503 5504 5505 5506 5507 
5508 5509 5510 5511 5512 5513 5514 5515 5516 
5517 5518 5519 5520 5521 5522 5523 5524 5525 
5526 5527 5528 5529 5530 5531 5532 5533 5534 
5535 5536 5537 5538 5539 5540 5541 5542 5543 
5544 5545 5546 5547 5548 5549 5550 5551 5552 
5553 5554 5555 5556 5557 5558 5559 5560 5561 
5562 5563 5564 5565 5566 5567 5568 5569 5570 
5571 5572 5573 5574 5575 5576 5577 5578 5579 
5580 5581 5582 5583 5584 5585 5586 5587 5588 
5589 5590 5591 5592 5593 5594 5595 5596 5597 
5598 5599 5600 5601 5602 5603 5604 5605 5606 
5607 5608 5609 5610 5611 5612 5613 5614 5615 
5616 5617 5618 5619 5620 5621 5622 5623 5624 
5625 5626 5627 5628 5629 5630 5631 5632 5633 
5634 5635 5636 5637 5638 5639 5640 5641 5642 
5643 5644 5645 5646 5647 5648 5649 5650 5651 
5652 5653 5654 5655 5656 5657 5658 5659 5660 
5661 5662 5663 5664 5665 5666 5667 5668 5669 
5670 5671 5672 5673 5674 5675 5676 5677 5678 
5679 5680 5681 5682 5683 5684 5685 5686 5687 
5688 5689 5690 5691 5692 5693 5694 5695 5696 
5697 5698 5699 5700 5701 5702 5703 5704 5705 
5706 5707 5708 5709 5710 5711 5712 5713 5714 
5715 5716 5717 5718 5719 5720 5721 5722 5723 
5724 5725 5726 5727 5728 5729 5730 5731 5732 
5733 5734 5735 5736 5737 5738 5739 5740 5741 
5742 5743 5744 5745 5746 5747 5748 5749 5750 
5751 5752 5753 5754 5755 5756 5757 5758 5759 
5760 5761 5762 5763 5764 5765 5766 5767 5768 
5769 5770 5771 5772 5773 5774 5775 5776 5777 
5778 5779 5780 5781 5782 5783 5784 5785 5786 
5787 5788 5789 5790 5791 5792 5793 5794 5795 
5796 5797 5798 5799 5800 5801 5802 5803 5804 
5805 5806 5807 5808 5809 5810 5811 5812 5813 
5814 5815 5816 5817 5818 5819 5820 5821 5822 
5823 5824 5825 5826 5827 5828 5829 5830 5831 
5832 5833 5834 5835 5836 5837 5838 5839 5840 
5841 5842 5843 5844 5845 5846 5847 5848 5849 
5850 5851 5852 5853 5854 5855 5856 5857 5858 
5859 5860 5861 5862 5863 5864 5865 5866 5867 
5868 5869 5870 5871 5872 5873 5874 5875 5876 
5877 5878 5879 5880 5881 5882 5883 5884 5885 
5886 5887 5888 5889 5890 5891 5892 5893 5894 
5895 5896 5897 5898 5899 5900 5901 5902 5903 
5904 5905 5906 5907 5908 5909 5910 5911 5912 
5913 5914 5915 5916 5917 5918 5919 5920 5921 
5922 5923 5924 5925 5926 5927 5928 5929 5930 
5931 5932 5933 5934 5935 5936 5937 5938 5939 
5940 5941 5942 5943 5944 5945 5946 5947 5948 
5949 5950 5951 5952 5953 5954 5955 5956 5957 
5958 5959 5960 5961 5962 5963 5964 5965 5966 
5967 5968 5969 5970 5971 5972 5973 5974 5975 
5976 5977 5978 5979 5980 5981 5982 5983 5984 
5985 5986 5987 5988 5989 5990 5991 5992 5993 
5994 5995 5996 5997 5998 5999 6000 6001 6002 
6003 6004 6005 6006 6007 6008 6009 6010 6011 
6012 6013 6014 6015 6016 6017 6018 6019 6020 
6021 6022 6023 6024 6025 6026 6027 6028 6029 
6030 6031 6032 6033 6034 6035 6036 6037 6038 
6039 6040 6041 6042 6043 6044 6045 6046 6047 
6048 6049 6050 6051 6052 6053 6054 6055 6056 
6057 6058 6059 6060 6061 6062 6063 6064 6065 
6066 6067 6068 6069 6070 6071 6072 6073 6074 
6075 6076 6077 6078 6079 6080 6081 6082 6083 
6084 6085 6086 6087 6088 6089 6090 6091 6092 
6093 6094 6095 6096 6097 6098 6099 6100 6101 
6102 6103 6104 6105 6106 6107 6108 6109 6110 
6111 6112 6113 6114 6115 6116 6117 6118 6119 
6120 6121 6122 6123 6124 6125 6126 6127 6128 
6129 6130 6131 6132 6133 6134 6135 6136 6137 
6138 6139 6140 6141 6142 6143 6144 6145 6146 
6147 6148 6149 6150 6151 6152 6153 6154 6155 
6156 6157 6158 6159 6160 6161 6162 6163 6164 
6165 6166 6167 6168 6169 6170 6171 6172 6173 
6174 6175 6176 6177 6178 6179 6180 6181 6182 
6183 6184 6185 6186 6187 6188 6189 6190 6191 
6192 6193 6194 6195 6196 6197 6198 6199 6200 
6201 6202 6203 6204 6205 6206 6207 6208 6209 
6210 6211 6212 6213 6214 6215 6216 6217 6218 
6219 6220 6221 6222 6223 6224 6225 6226 6227 
6228 6229 6230 6231 6232 6233 6234 6235 6236 
6237 6238 6239 6240 6241 6242 6243 6244 6245 
6246 6247 6248 6249 6250 6251 6252 6253 6254 
6255 6256 6257 6258 6259 6260 6261 6262 6263 
6264 6265 6266 6267 6268 6269 6270 6271 6272 
6273 6274 6275 6276 6277 6278 6279 6280 6281 
6282 6283 6284 6285 6286 6287 6288 6289 6290 
6291 6292 6293 6294 6295 6296 6297 6298 6299 
6300 6301 6302 6303 6304 6305 6306 6307 6308 
6309 6310 6311 6312 6313 6314 6315 6316 6317 
6318 6319 6320 6321 6322 6323 6324 6325 6326 
6327 6328 6329 6330 6331 6332 6333 6334 6335 
6336 6337 6338 6339 6340 6341 6342 6343 6344 
6345 6346 6347 6348 6349 6350 6351 6352 6353 
6354 6355 6356 6357 6358 6359 6360 6361 6362 
6363 6364 6365 6366 6367 6368 6369 6370 6371 
6372 6373 6374 6375 6376 6377 6378 6379 6380 
6381 6382 6383 6384 6385 6386 6387 6388 6389 
6390 6391 6392 6393 6394 6395 6396 6397 6398 
6399 6400 6401 6402 6403 6404 6405 6406 6407 
6408 6409 6410 6411 6412 6413 6414 6415 6416 
6417 6418 6419 6420 6421 6422 6423 6424 6425 
6426 6427 6428 6429 6430 6431 6432 6433 6434 
6435 6436 6437 6438 6439 6440 6441 6442 6443 
6444 6445 6446 6447 6448 6449 6450 6451 6452 
6453 6454 6455 6456 6457 6458 6459 6460 6461 
6462 6463 6464 6465 6466 6467 6468 6469 6470 
6471 6472 6473 6474 6475 6476 6477 6478 6479 
6480 6481 6482 6483 6484 6485 6486 6487 6488 
6489 6490 6491 6492 6493 6494 6495 6496 6497 
6498 6499 6500 6501 6502 6503 6504 6505 6506 
6507 6508 6509 6510 6511 6512 6513 6514 6515 
6516 6517 6518 6519 6520 6521 6522 6523 6524 
6525 6526 6527 6528 6529 6530 6531 6532 6533 
6534 6535 6536 6537 6538 6539 6540 6541 6542 
6543 6544 6545 6546 6547 6548 6549 6550 6551 
6552 6553 6554 6555 6556 6557 6558 6559 6560 
6561 6562 6563 6564 6565 6566 6567 6568 6569 
6570 6571 6572 6573 6574 6575 6576 6577 6578 
6579 6580 6581 6582 6583 6584 6585 6586 6587 
6588 6589 6590 6591 6592 6593 6594 6595 6596 
6597 6598 6599 6600 6601 6602 6603 6604 6605 
6606 6607 6608 6609 6610 6611 6612 6613 6614 
6615 6616 6617 6618 6619 6620 6621 6622 6623 
6624 6625 6626 6627 6628 6629 6630 6631 6632 
6633 6634 6635 6636 6637 6638 6639 6640 6641 
6642 6643 6644 6645 6646 6647 6648 6649 6650 
6651 6652 6653 6654 6655 6656 6657 6658 6659 
6660 6661 6662 6663 6664 6665 6666 6667 6668 
6669 6670 6671 6672 6673 6674 6675 6676 6677 
6678 6679 6680 6681 6682 6683 6684 6685 6686 
6687 6688 6689 6690 6691 6692 6693 6694 6695 
6696 6697 6698 6699 6700 6701 6702 6703 6704 
6705 6706 6707 6708 6709 6710 6711 6712 6713 
6714 6715 6716 6717 6718 6719 6720 6721 6722 
6723 6724 6725 6726 6727 6728 6729 6730 6731 
6732 6733 6734 6735 6736 6737 6738 6739 6740 
6741 6742 6743 6744 6745 6746 6747 6748 6749 
6750 6751 6752 6753 6754 6755 6756 6757 6758 
6759 6760 6761 6762 6763 6764 6765 6766 6767 
6768 6769 6770 6771 6772 6773 6774 6775 6776 
6777 6778 6779 6780 6781 6782 6783 6784 6785 
6786 6787 6788 6789 6790 6791 6792 6793 6794 
6795 6796 6797 6798 6799 6800 6801 6802 6803 
6804 6805 6806 6807 6808 6809 6810 6811 6812 
6813 6814 6815 6816 6817 6818 6819 6820 6821 
6822 6823 6824 6825 6826 6827 6828 6829 6830 
6831 6832 6833 6834 6835 6836 6837 6838 6839 
6840 6841 6842 6843 6844 6845 6846 6847 6848 
6849 6850 6851 6852 6853 6854 6855 6856 6857 
6858 6859 6860 6861 6862 6863 6864 6865 6866 
6867 6868 6869 6870 6871 6872 6873 6874 6875 
6876 6877 6878 6879 6880 6881 6882 6883 6884 
6885 6886 6887 6888 6889 6890 6891 6892 6893 
6894 6895 6896 6897 6898 6899 6900 6901 6902 
6903 6904 6905 6906 6907 6908 6909 6910 6911 
6912 6913 6914 6915 6916 6917 6918 6919 6920 
6921 6922 6923 6924 6925 6926 6927 6928 6929 
6930 6931 6932 6933 6934 6935 6936 6937 6938 
6939 6940 6941 6942 6943 6944 6945 6946 6947 
6948 6949 6950 6951 6952 6953 6954 6955 6956 
6957 6958 6959 6960 6961 6962 6963 6964 6965 
6966 6967 6968 6969 6970 6971 6972 6973 6974 
6975 6976 6977 6978 6979 6980 6981 6982 6983 
6984 6985 6986 6987 6988 6989 6990 6991 6992 
6993 6994 6995 6996 6997 6998 6999 7000 7001 
7002 7003 7004 7005 7006 7007 7008 7009 7010 
7011 7012 7013 7014 7015 7016 7017 7018 7019 
7020 7021 7022 7023 7024 7025 7026 7027 7028 
7029 7030 7031 7032 7033 7034 7035 7036 7037 
7038 7039 7040 7041 7042 7043 7044 7045 7046 
7047 7048 7049 7050 7051 7052 7053 7054 7055 
7056 7057 7058 7059 7060 7061 7062 7063 7064 
7065 7066 7067 7068 7069 7070 7071 7072 7073 
7074 7075 7076 7077 7078 7079 7080 7081 7082 
7083 7084 7085 7086 7087 7088 7089 7090 7091 
7092 7093 7094 7095 7096 7097 7098 7099 7100 
7101 7102 7103 7104 7105 7106 7107 7108 7109 
7110 7111 7112 7113 7114 7115 7116 7117 7118 
7119 7120 7121 7122 7123 7124 7125 7126 7127 
7128 7129 7130 7131 7132 7133 7134 7135 7136 
7137 7138 7139 7140 7141 7142 7143 7144 7145 
7146 7147 7148 7149 7150 7151 7152 7153 7154 
7155 7156 7157 7158 7159 7160 7161 7162 7163 
7164 7165 7166 7167 7168 7169 7170 7171 7172 
7173 7174 7175 7176 7177 7178 7179 7180 7181 
7182 7183 7184 7185 7186 7187 7188 7189 7190 
7191 7192 7193 7194 7195 7196 7197 7198 7199 
7200 7201 7202 7203 7204 7205 7206 7207 7208 
7209 7210 7211 7212 7213 7214 7215 7216 7217 
7218 7219 7220 7221 7222 7223 7224 7225 7226 
7227 7228 7229 7230 7231 7232 7233 7234 7235 
7236 7237 7238 7239 7240 7241 7242 7243 7244 
7245 7246 7247 7248 7249 7250 7251 7252 7253 
7254 7255 7256 7257 7258 7259 7260 7261 7262 
7263 7264 7265 7266 7267 7268 7269 7270 7271 
7272 7273 7274 7275 7276 7277 7278 7279 7280 
7281 7282 7283 7284 7285 7286 7287 7288 7289 
7290 7291 7292 7293 7294 7295 7296 7297 7298 
7299 7300 7301 7302 7303 7304 7305 7306 7307 
7308 7309 7310 7311 7312 7313 7314 7315 7316 
7317 7318 7319 7320 7321 7322 7323 7324 7325 
7326 7327 7328 7329 7330 7331 7332 7333 7334 
7335 7336 7337 7338 7339 7340 7341 7342 7343 
7344 7345 7346 7347 7348 7349 7350 7351 7352 
7353 7354 7355 7356 7357 7358 7359 7360 7361 
7362 7363 7364 7365 7366 7367 7368 7369 7370 
7371 7372 7373 7374 7375 7376 7377 7378 7379 
7380 7381 7382 7383 7384 7385 7386 7387 7388 
7389 7390 7391 7392 7393 7394 7395 7396 7397 
7398 7399 7400 7401 7402 7403 7404 7405 7406 
7407 7408 7409 7410 7411 7412 7413 7414 7415 
7416 7417 7418 7419 7420 7421 7422 7423 7424 
7425 7426 7427 7428 7429 7430 7431 7432 7433 
7434 7435 7436 7437 7438 7439 7440 7441 7442 
7443 7444 7445 7446 7447 7448 7449 7450 7451 
7452 7453 7454 7455 7456 7457 7458 7459 7460 
7461 7462 7463 7464 7465 7466 7467 7468 7469 
7470 7471 7472 7473 7474 7475 7476 7477 7478 
7479 7480 7481 7482 7483 7484 7485 7486 7487 
7488 7489 7490 7491 7492 7493 7494 7495 7496 
7497 7498 7499 7500 7501 7502 7503 7504 7505 
7506 7507 7508 7509 7510 7511 7512 7513 7514 
7515 7516 7517 7518 7519 7520 7521 7522 7523 
7524 7525 7526 7527 7528 7529 7530 7531 7532 
7533 7534 7535 7536 7537 7538 7539 7540 7541 
7542 7543 7544 7545 7546 7547 7548 7549 7550 
7551 7552 7553 7554 7555 7556 7557 7558 7559 
7560 7561 7562 7563 7564 7565 7566 7567 7568 
7569 7570 7571 7572 7573 7574 7575 7576 7577 
7578 7579 7580 7581 7582 7583 7584 7585 7586 
7587 7588 7589 7590 7591 7592 7593 7594 7595 
7596 7597 7598 7599 7600 7601 7602 7603 7604 
7605 7606 7607 7608 7609 7610 7611 7612 7613 
7614 7615 7616 7617 7618 7619 7620 7621 7622 
7623 7624 7625 7626 7627 7628 7629 7630 7631 
7632 7633 7634 7635 7636 7637 7638 7639 7640 
7641 7642 7643 7644 7645 7646 7647 7648 7649 
7650 7651 7652 7653 7654 7655 7656 7657 7658 
7659 7660 7661 7662 7663 7664 7665 7666 7667 
7668 7669 7670 7671 7672 7673 7674 7675 7676 
7677 7678 7679 7680 7681 7682 7683 7684 7685 
7686 7687 7688 7689 7690 7691 7692 7693 7694 
7695 7696 7697 7698 7699 7700 7701 7702 7703 
7704 7705 7706 7707 7708 7709 7710 7711 7712 
7713 7714 7715 7716 7717 7718 7719 7720 7721 
7722 7723 7724 7725 7726 7727 7728 7729 7730 
7731 7732 7733 7734 7735 7736 7737 7738 7739 
7740 7741 7742 7743 7744 7745 7746 7747 7748 
7749 7750 7751 7752 7753 7754 7755 7756 7757 
7758 7759 7760 7761 7762 7763 7764 7765 7766 
7767 7768 7769 7770 7771 7772 7773 7774 7775 
7776 7777 7778 7779 7780 7781 7782 7783 7784 
7785 7786 7787 7788 7789 7790 7791 7792 7793 
7794 7795 7796 7797 7798 7799 7800 7801 7802 
7803 7804 7805 7806 7807 7808 7809 7810 7811 
7812 7813 7814 7815 7816 7817 7818 7819 7820 
7821 7822 7823 7824 7825 7826 7827 7828 7829 
7830 7831 7832 7833 7834 7835 7836 7837 7838 
7839 7840 7841 7842 7843 7844 7845 7846 7847 
7848 7849 7850 7851 7852 7853 7854 7855 7856 
7857 7858 7859 7860 7861 7862 7863 7864 7865 
7866 7867 7868 7869 7870 7871 7872 7873 7874 
7875 7876 7877 7878 7879 7880 7881 7882 7883 
7884 7885 7886 7887 7888 7889 7890 7891 7892 
7893 7894 7895 7896 7897 7898 7899 7900 7901 
7902 7903 7904 7905 7906 7907 7908 7909 7910 
7911 7912 7913 7914 7915 7916 7917 7918 7919 
7920 7921 7922 7923 7924 7925 7926 7927 7928 
7929 7930 7931 7932 7933 7934 7935 7936 7937 
7938 7939 7940 7941 7942 7943 7944 7945 7946 
7947 7948 7949 7950 7951 7952 7953 7954 7955 
7956 7957 7958 7959 7960 7961 7962 7963 7964 
7965 7966 7967 7968 7969 7970 7971 7972 7973 
7974 7975 7976 7977 7978 7979 7980 7981 7982 
7983 7984 7985 7986 7987 7988 7989 7990 7991 
7992 7993 7994 7995 7996 7997 7998 7999 8000 
8001 8002 8003 8004 8005 8006 8007 8008 8009 
8010 8011 8012 8013 8014 8015 8016 8017 8018 
8019 8020 8021 8022 8023 8024 8025 8026 8027 
8028 8029 8030 8031 8032 8033 8034 8035 8036 
8037 8038 8039 8040 8041 8042 8043 8044 8045 
8046 8047 8048 8049 8050 8051 8052 8053 8054 
8055 8056 8057 8058 8059 8060 8061 8062 8063 
8064 8065 8066 8067 8068 8069 8070 8071 8072 
8073 8074 8075 8076 8077 8078 8079 8080 8081 
8082 8083 8084 8085 8086 8087 8088 8089 8090 
8091 8092 8093 8094 8095 8096 8097 8098 8099 
8100 8101 8102 8103 8104 8105 8106 8107 8108 
8109 8110 8111 8112 8113 8114 8115 8116 8117 
8118 8119 8120 8121 8122 8123 8124 8125 8126 
8127 8128 8129 8130 8131 8132 8133 8134 8135 
8136 8137 8138 8139 8140 8141 8142 8143 8144 
8145 8146 8147 8148 8149 8150 8151 8152 8153 
8154 8155 8156 8157 8158 8159 8160 8161 8162 
8163 8164 8165 8166 8167 8168 8169 8170 8171 
8172 8173 8174 8175 8176 8177 8178 8179 8180 
8181 8182 8183 8184 8185 8186 8187 8188 8189 
8190 8191 8192 8193 8194 8195 8196 8197 8198 
8199 8200 8201 8202 8203 8204 8205 8206 8207 
8208 8209 8210 8211 8212 8213 8214 8215 8216 
8217 8218 8219 8220 8221 8222 8223 8224 8225 
8226 8227 8228 8229 8230 8231 8232 8233 8234 
8235 8236 8237 8238 8239 8240 8241 8242 8243 
8244 8245 8246 8247 8248 8249 8250 8251 8252 
8253 8254 8255 8256 8257 8258 8259 8260 8261 
8262 8263 8264 8265 8266 8267 8268 8269 8270 
8271 8272 8273 8274 8275 8276 8277 8278 8279 
8280 8281 8282 8283 8284 8285 8286 8287 8288 
8289 8290 8291 8292 8293 8294 8295 8296 8297 
8298 8299 8300 8301 8302 8303 8304 8305 8306 
8307 8308 8309 8310 8311 8312 8313 8314 8315 
8316 8317 8318 8319 8320 8321 8322 8323 8324 
8325 8326 8327 8328 8329 8330 8331 8332 8333 
8334 8335 8336 8337 8338 8339 8340 8341 8342 
8343 8344 8345 8346 8347 8348 8349 8350 8351 
8352 8353 8354 8355 8356 8357 8358 8359 8360 
8361 8362 8363 8364 8365 8366 8367 8368 8369 
8370 8371 8372 8373 8374 8375 8376 8377 8378 
8379 8380 8381 8382 8383 8384 8385 8386 8387 
8388 8389 8390 8391 8392 8393 8394 8395 8396 
8397 8398 8399 8400 8401 8402 8403 8404 8405 
8406 8407 8408 8409 8410 8411 8412 8413 8414 
8415 8416 8417 8418 8419 8420 8421 8422 8423 
8424 8425 8426 8427 8428 8429 8430 8431 8432 
8433 8434 8435 8436 8437 8438 8439 8440 8441 
8442 8443 8444 8445 8446 8447 8448 8449 8450 
8451 8452 8453 8454 8455 8456 8457 8458 8459 
8460 8461 8462 8463 8464 8465 8466 8467 8468 
8469 8470 8471 8472 8473 8474 8475 8476 8477 
8478 8479 8480 8481 8482 8483 8484 8485 8486 
8487 8488 8489 8490 8491 8492 8493 8494 8495 
8496 8497 8498 8499 8500 8501 8502 8503 8504 
8505 8506 8507 8508 8509 8510 8511 8512 8513 
8514 8515 8516 8517 8518 8519 8520 8521 8522 
8523 8524 8525 8526 8527 8528 8529 8530 8531 
8532 8533 8534 8535 8536 8537 8538 8539 8540 
8541 8542 8543 8544 8545 8546 8547 8548 8549 
8550 8551 8552 8553 8554 8555 8556 8557 8558 
8559 8560 8561 8562 8563 8564 8565 8566 8567 
8568 8569 8570 8571 8572 8573 8574 8575 8576 
8577 8578 8579 8580 8581 8582 8583 8584 8585 
8586 8587 8588 8589 8590 8591 8592 8593 8594 
8595 8596 8597 8598 8599 8600 8601 8602 8603 
8604 8605 8606 8607 8608 8609 8610 8611 8612 
8613 8614 8615 8616 8617 8618 8619 8620 8621 
8622 8623 8624 8625 8626 8627 8628 8629 8630 
8631 8632 8633 8634 8635 8636 8637 8638 8639 
8640 8641 8642 8643 8644 8645 8646 8647 8648 
8649 8650 8651 8652 8653 8654 8655 8656 8657 
8658 8659 8660 8661 8662 8663 8664 8665 8666 
8667 8668 8669 8670 8671 8672 8673 8674 8675 
8676 8677 8678 8679 8680 8681 8682 8683 8684 
8685 8686 8687 8688 8689 8690 8691 8692 8693 
8694 8695 8696 8697 8698 8699 8700 8701 8702 
8703 8704 8705 8706 8707 8708 8709 8710 8711 
8712 8713 8714 8715 8716 8717 8718 8719 8720 
8721 8722 8723 8724 8725 8726 8727 8728 8729 
8730 8731 8732 8733 8734 8735 8736 8737 8738 
8739 8740 8741 8742 8743 8744 8745 8746 8747 
8748 8749 8750 8751 8752 8753 8754 8755 8756 
8757 8758 8759 8760 8761 8762 8763 8764 8765 
8766 8767 8768 8769 8770 8771 8772 8773 8774 
8775 8776 8777 8778 8779 8780 8781 8782 8783 
8784 8785 8786 8787 8788 8789 8790 8791 8792 
8793 8794 8795 8796 8797 8798 8799 8800 8801 
8802 8803 8804 8805 8806 8807 8808 8809 8810 
8811 8812 8813 8814 8815 8816 8817 8818 8819 
8820 8821 8822 8823 8824 8825 8826 8827 8828 
8829 8830 8831 8832 8833 8834 8835 8836 8837 
8838 8839 8840 8841 8842 8843 8844 8845 8846 
8847 8848 8849 8850 8851 8852 8853 8854 8855 
8856 8857 8858 8859 8860 8861 8862 8863 8864 
8865 8866 8867 8868 8869 8870 8871 8872 8873 
8874 8875 8876 8877 8878 8879 8880 8881 8882 
8883 8884 8885 8886 8887 8888 8889 8890 8891 
8892 8893 8894 8895 8896 8897 8898 8899 8900 
8901 8902 8903 8904 8905 8906 8907 8908 8909 
8910 8911 8912 8913 8914 8915 8916 8917 8918 
8919 8920 8921 8922 8923 8924 8925 8926 8927 
8928 8929 8930 8931 8932 8933 8934 8935 8936 
8937 8938 8939 8940 8941 8942 8943 8944 8945 
8946 8947 8948 8949 8950 8951 8952 8953 8954 
8955 8956 8957 8958 8959 8960 8961 8962 8963 
8964 8965 8966 8967 8968 8969 8970 8971 8972 
8973 8974 8975 8976 8977 8978 8979 8980 8981 
8982 8983 8984 8985 8986 8987 8988 8989 8990 
8991 8992 8993 8994 8995 8996 8997 8998 8999 
9000 9001 9002 9003 9004 9005 9006 9007 9008 
9009 9010 9011 9012 9013 9014 9015 9016 9017 
9018 9019 9020 9021 9022 9023 9024 9025 9026 
9027 9028 9029 9030 9031 9032 9033 9034 9035 
9036 9037 9038 9039 9040 9041 9042 9043 9044 
9045 9046 9047 9048 9049 9050 9051 9052 9053 
9054 9055 9056 9057 9058 9059 9060 9061 9062 
9063 9064 9065 9066 9067 9068 9069 9070 9071 
9072 9073 9074 9075 9076 9077 9078 9079 9080 
9081 9082 9083 9084 9085 9086 9087 9088 9089 
9090 9091 9092 9093 9094 9095 9096 9097 9098 
9099 9100 9101 9102 9103 9104 9105 9106 9107 
9108 9109 9110 9111 9112 9113 9114 9115 9116 
9117 9118 9119 9120 9121 9122 9123 9124 9125 
9126 9127 9128 9129 9130 9131 9132 9133 9134 
9135 9136 9137 9138 9139 9140 9141 9142 9143 
9144 9145 9146 9147 9148 9149 9150 9151 9152 
9153 9154 9155 9156 9157 9158 9159 9160 9161 
9162 9163 9164 9165 9166 9167 9168 9169 9170 
9171 9172 9173 9174 9175 9176 9177 9178 9179 
9180 9181 9182 9183 9184 9185 9186 9187 9188 
9189 9190 9191 9192 9193 9194 9195 9196 9197 
9198 9199 9200 9201 9202 9203 9204 9205 9206 
9207 9208 9209 9210 9211 9212 9213 9214 9215 
9216 9217 9218 9219 9220 9221 9222 9223 9224 
9225 9226 9227 9228 9229 9230 9231 9232 9233 
9234 9235 9236 9237 9238 9239 9240 9241 9242 
9243 9244 9245 9246 9247 9248 9249 9250 9251 
9252 9253 9254 9255 9256 9257 9258 9259 9260 
9261 9262 9263 9264 9265 9266 9267 9268 9269 
9270 9271 9272 9273 9274 9275 9276 9277 9278 
9279 9280 9281 9282 9283 9284 9285 9286 9287 
9288 9289 9290 9291 9292 9293 9294 9295 9296 
9297 9298 9299 9300 9301 9302 9303 9304 9305 
9306 9307 9308 9309 9310 9311 9312 9313 9314 
9315 9316 9317 9318 9319 9320 9321 9322 9323 
9324 9325 9326 9327 9328 9329 9330 9331 9332 
9333 9334 9335 9336 9337 9338 9339 9340 9341 
9342 9343 9344 9345 9346 9347 9348 9349 9350 
9351 9352 9353 9354 9355 9356 9357 9358 9359 
9360 9361 9362 9363 9364 9365 9366 9367 9368 
9369 9370 9371 9372 9373 9374 9375 9376 9377 
9378 9379 9380 9381 9382 9383 9384 9385 9386 
9387 9388 9389 9390 9391 9392 9393 9394 9395 
9396 9397 9398 9399 9400 9401 9402 9403 9404 
9405 9406 9407 9408 9409 9410 9411 9412 9413 
9414 9415 9416 9417 9418 9419 9420 9421 9422 
9423 9424 9425 9426 9427 9428 9429 9430 9431 
9432 9433 9434 9435 9436 9437 9438 9439 9440 
9441 9442 9443 9444 9445 9446 9447 9448 9449 
9450 9451 9452 9453 9454 9455 9456 9457 9458 
9459 9460 9461 9462 9463 9464 9465 9466 9467 
9468 9469 9470 9471 9472 9473 9474 9475 9476 
9477 9478 9479 9480 9481 9482 9483 9484 9485 
9486 9487 9488 9489 9490 9491 9492 9493 9494 
9495 9496 9497 9498 9499 9500 9501 9502 9503 
9504 9505 9506 9507 9508 9509 9510 9511 9512 
9513 9514 9515 9516 9517 9518 9519 9520 9521 
9522 9523 9524 9525 9526 9527 9528 9529 9530 
9531 9532 9533 9534 9535 9536 9537 9538 9539 
9540 9541 9542 9543 9544 9545 9546 9547 9548 
9549 9550 9551 9552 9553 9554 9555 9556 9557 
9558 9559 9560 9561 9562 9563 9564 9565 9566 
9567 9568 9569 9570 9571 9572 9573 9574 9575 
9576 9577 9578 9579 9580 9581 9582 9583 9584 
9585 9586 9587 9588 9589 9590 9591 9592 9593 
9594 9595 9596 9597 9598 9599 9600 9601 9602 
9603 9604 9605 9606 9607 9608 9609 9610 9611 
9612 9613 9614 9615 9616 9617 9618 9619 9620 
9621 9622 9623 9624 9625 9626 9627 9628 9629 
9630 9631 9632 9633 9634 9635 9636 9637 9638 
9639 9640 9641 9642 9643 9644 9645 9646 9647 
9648 9649 9650 9651 9652 9653 9654 9655 9656 
9657 9658 9659 9660 9661 9662 9663 9664 9665 
9666 9667 9668 9669 9670 9671 9672 9673 9674 
9675 9676 9677 9678 9679 9680 9681 9682 9683 
9684 9685 9686 9687 9688 9689 9690 9691 9692 
9693 9694 9695 9696 9697 9698 9699 9700 9701 
9702 9703 9704 9705 9706 9707 9708 9709 9710 
9711 9712 9713 9714 9715 9716 9717 9718 9719 
9720 9721 9722 9723 9724 9725 9726 9727 9728 
9729 9730 9731 9732 9733 9734 9735 9736 9737 
9738 9739 9740 9741 9742 9743 9744 9745 9746 
9747 9748 9749 9750 9751 9752 9753 9754 9755 
9756 9757 9758 9759 9760 9761 9762 9763 9764 
9765 9766 9767 9768 9769 9770 9771 9772 9773 
9774 9775 9776 9777 9778 9779 9780 9781 9782 
9783 9784 9785 9786 9787 9788 9789 9790 9791 
9792 9793 9794 9795 9796 9797 9798 9799 9800 
9801 9802 9803 9804 9805 9806 9807 9808 9809 
9810 9811 9812 9813 9814 9815 9816 9817 9818 
9819 9820 9821 9822 9823 9824 9825 9826 9827 
9828 9829 9830 9831 9832 9833 9834 9835 9836 
9837 9838 9839 9840 9841 9842 9843 9844 9845 
9846 9847 9848 9849 9850 9851 9852 9853 9854 
9855 9856 9857 9858 9859 9860 9861 9862 9863 
9864 9865 9866 9867 9868 9869 9870 9871 9872 
9873 9874 9875 9876 9877 9878 9879 9880 9881 
9882 9883 9884 9885 9886 9887 9888 9889 9890 
9891 9892 9893 9894 9895 9896 9897 9898 9899 
9900 9901 9902 9903 9904 9905 9906 9907 9908 
9909 9910 9911 9912 9913 9914 9915 9916 9917 
9918 9919 9920 9921 9922 9923 9924 9925 9926 
9927 9928 9929 9930 9931 9932 9933 9934 9935 
9936 9937 9938 9939 9940 9941 9942 9943 9944 
9945 9946 9947 9948 9949 9950 9951 9952 9953 
9954 9955 9956 9957 9958 9959 9960 9961 9962 
9963 9964 9965 9966 9967 9968 9969 9970 9971 
9972 9973 9974 9975 9976 9977 9978 9979 9980 
9981 9982 9983 9984 9985 9986 9987 9988 9989 
9990 9991 9992 9993 9994 9995 9996 9997 9998 
9999 10000 10001 10002 10003 10004 10005 10006 10007 
10008 10009 10010 10011 10012 10013 10014 10015 10016 
10017 10018 10019 10020 10021 10022 10023 10024 10025 
10026 10027 10028 10029 10030 10031 10032 10033 10034 
10035 10036 10037 10038 10039 10040 10041 10042 10043 
10044 10045 10046 10047 10048 10049 10050 10051 10052 
10053 10054 10055 10056 10057 10058 10059 10060 10061 
10062 10063 10064 10065 10066 10067 10068 10069 10070 
10071 10072 10073 10074 10075 10076 10077 10078 10079 
10080 10081 10082 10083 10084 10085 10086 10087 10088 
10089 10090 10091 10092 10093 10094 10095 10096 10097 
10098 10099 10100 10101 10102 10103 10104 10105 10106 
10107 10108 10109 10110 10111 10112 10113 10114 10115 
10116 10117 10118 10119 10120 10121 10122 10123 10124 
10125 10126 10127 10128 10129 10130 10131 10132 10133 
10134 10135 10136 10137 10138 10139 10140 10141 10142 
10143 10144 10145 10146 10147 10148 10149 10150 10151 
10152 10153 10154 10155 10156 10157 10158 10159 10160 
10161 10162 10163 10164 10165 10166 10167 10168 10169 
10170 10171 10172 10173 10174 10175 10176 10177 10178 
10179 10180 10181 10182 10183 10184 10185 10186 10187 
10188 10189 10190 10191 10192 10193 10194 10195 10196 
10197 10198 10199 10200 10201 10202 10203 10204 10205 
10206 10207 10208 10209 10210 10211 10212 10213 10214 
10215 10216 10217 10218 10219 10220 10221 10222 10223 
10224 10225 10226 10227 10228 10229 10230 10231 10232 
10233 10234 10235 10236 10237 10238 10239 10240 10241 
10242 10243 10244 10245 10246 10247 10248 10249 10250 
10251 10252 10253 10254 10255 10256 10257 10258 10259 
10260 10261 10262 10263 10264 10265 10266 10267 10268 
10269 10270 10271 10272 10273 10274 10275 10276 10277 
10278 10279 10280 10281 10282 10283 10284 10285 10286 
10287 10288 10289 10290 10291 10292 10293 10294 10295 
10296 10297 10298 10299 10300 10301 10302 10303 10304 
10305 10306 10307 10308 10309 10310 10311 10312 10313 
10314 10315 10316 10317 10318 10319 10320 10321 10322 
10323 10324 10325 10326 10327 10328 10329 10330 10331 
10332 10333 10334 10335 10336 10337 10338 10339 10340 
10341 10342 10343 10344 10345 10346 10347 10348 10349 
10350 10351 10352 10353 10354 10355 10356 10357 10358 
10359 10360 10361 10362 10363 10364 10365 10366 10367 
10368 10369 10370 10371 10372 10373 10374 10375 10376 
10377 10378 10379 10380 10381 10382 10383 10384 10385 
10386 10387 10388 10389 10390 10391 10392 10393 10394 
10395 10396 10397 10398 10399 10400 10401 10402 10403 
10404 10405 10406 10407 10408 10409 10410 10411 10412 
10413 10414 10415 10416 10417 10418 10419 10420 10421 
10422 10423 10424 10425 10426 10427 10428 10429 10430 
10431 10432 10433 10434 10435 10436 10437 10438 10439 
10440 10441 10442 10443 10444 10445 10446 10447 10448 
10449 10450 10451 10452 10453 10454 10455 10456 10457 
10458 10459 10460 10461 10462 10463 10464 10465 10466 
10467 10468 10469 10470 10471 10472 10473 10474 10475 
10476 10477 10478 10479 10480 10481 10482 10483 10484 
10485 10486 10487 10488 10489 10490 10491 10492 10493 
10494 10495 10496 10497 10498 10499 10500 10501 10502 
10503 10504 10505 10506 10507 10508 10509 10510 10511 
10512 10513 10514 10515 10516 10517 10518 10519 10520 
10521 10522 10523 10524 10525 10526 10527 10528 10529 
10530 10531 10532 10533 10534 10535 10536 10537 10538 
10539 10540 10541 10542 10543 10544 10545 10546 10547 
10548 10549 10550 10551 10552 10553 10554 10555 10556 
10557 10558 10559 10560 10561 10562 10563 10564 10565 
10566 10567 10568 10569 10570 10571 10572 10573 10574 
10575 10576 10577 10578 10579 10580 10581 10582 10583 
10584 10585 10586 10587 10588 10589 10590 10591 10592 
10593 10594 10595 10596 10597 10598 10599 10600 10601 
10602 10603 10604 10605 10606 10607 10608 10609 10610 
10611 10612 10613 10614 10615 10616 10617 10618 10619 
10620 10621 10622 10623 10624 10625 10626 10627 10628 
10629 10630 10631 10632 10633 10634 10635 10636 10637 
10638 10639 10640 10641 10642 10643 10644 10645 10646 
10647 10648 10649 10650 10651 10652 10653 10654 10655 
10656 10657 10658 10659 10660 10661 10662 10663 10664 
10665 10666 10667 10668 10669 10670 10671 10672 10673 
10674 10675 10676 10677 10678 10679 10680 10681 10682 
10683 10684 10685 10686 10687 10688 10689 10690 10691 
10692 10693 10694 10695 10696 10697 10698 10699 10700 
10701 10702 10703 10704 10705 10706 10707 10708 10709 
10710 10711 10712 10713 10714 10715 10716 10717 10718 
10719 10720 10721 10722 10723 10724 10725 10726 10727 
10728 10729 10730 10731 10732 10733 10734 10735 10736 
10737 10738 10739 10740 10741 10742 10743 10744 10745 
10746 10747 10748 10749 10750 10751 10752 10753 10754 
10755 10756 10757 10758 10759 10760 10761 10762 10763 
10764 10765 10766 10767 10768 10769 10770 10771 10772 
10773 10774 10775 10776 10777 10778 10779 10780 10781 
10782 10783 10784 10785 10786 10787 10788 10789 10790 
10791 10792 10793 10794 10795 10796 10797 10798 10799 
10800 10801 10802 10803 10804 10805 10806 10807 10808 
10809 10810 10811 10812 10813 10814 10815 10816 10817 
10818 10819 10820 10821 10822 10823 10824 10825 10826 
10827 10828 10829 10830 10831 10832 10833 10834 10835 
10836 10837 10838 10839 10840 10841 10842 10843 10844 
10845 10846 10847 10848 10849 10850 10851 10852 10853 
10854 10855 10856 10857 10858 10859 10860 10861 10862 
10863 10864 10865 10866 10867 10868 10869 10870 10871 
10872 10873 10874 10875 10876 10877 10878 10879 10880 
10881 10882 10883 10884 10885 10886 10887 10888 10889 
10890 10891 10892 10893 10894 10895 10896 10897 10898 
10899 10900 10901 10902 10903 10904 10905 10906 10907 
10908 10909 10910 10911 10912 10913 10914 10915 10916 
10917 10918 10919 10920 10921 10922 10923 10924 10925 
10926 10927 10928 10929 10930 10931 10932 10933 10934 
10935 10936 10937 10938 10939 10940 10941 10942 10943 
10944 10945 10946 10947 10948 10949 10950 10951 10952 
10953 10954 10955 10956 10957 10958 10959 10960 10961 
10962 10963 10964 10965 10966 10967 10968 10969 10970 
10971 10972 10973 10974 10975 10976 10977 10978 10979 
10980 10981 10982 10983 10984 10985 10986 10987 10988 
10989 10990 10991 10992 10993 10994 10995 10996 10997 
10998 10999 11000 11001 11002 11003 11004 11005 11006 
11007 11008 11009 11010 11011 11012 11013 11014 11015 
11016 11017 11018 11019 11020 11021 11022 11023 11024 
11025 11026 11027 11028 11029 11030 11031 11032 11033 
11034 11035 11036 11037 11038 11039 11040 11041 11042 
11043 11044 11045 11046 11047 11048 11049 11050 11051 
11052 11053 11054 11055 11056 11057 11058 11059 11060 
11061 11062 11063 11064 11065 11066 11067 11068 11069 
11070 11071 11072 11073 11074 11075 11076 11077 11078 
11079 11080 11081 11082 11083 11084 11085 11086 11087 
11088 11089 11090 11091 11092 11093 11094 11095 11096 
11097 11098 11099 11100 11101 11102 11103 11104 11105 
11106 11107 11108 11109 11110 11111 11112 11113 11114 
11115 11116 11117 11118 11119 11120 11121 11122 11123 
11124 11125 11126 11127 11128 11129 11130 11131 11132 
11133 11134 11135 11136 11137 11138 11139 11140 11141 
11142 11143 11144 11145 11146 11147 11148 11149 11150 
11151 11152 11153 11154 11155 11156 11157 11158 11159 
11160 11161 11162 11163 11164 11165 11166 11167 11168 
11169 11170 11171 11172 11173 11174 11175 11176 11177 
11178 11179 11180 11181 11182 11183 11184 11185 11186 
11187 11188 11189 11190 11191 11192 11193 11194 11195 
11196 11197 11198 11199 11200 11201 11202 11203 11204 
11205 11206 11207 11208 11209 11210 11211 11212 11213 
11214 11215 11216 11217 11218 11219 11220 11221 11222 
11223 11224 11225 11226 11227 11228 11229 11230 11231 
11232 11233 11234 11235 11236 11237 11238 11239 11240 
11241 11242 11243 11244 11245 11246 11247 11248 11249 
11250 11251 11252 11253 11254 11255 11256 11257 11258 
11259 11260 11261 11262 11263 11264 11265 11266 11267 
11268 11269 11270 11271 11272 11273 11274 11275 11276 
11277 11278 11279 11280 11281 11282 11283 11284 11285 
11286 11287 11288 11289 11290 11291 11292 11293 11294 
11295 11296 11297 11298 11299 11300 11301 11302 11303 
11304 11305 11306 11307 11308 11309 11310 11311 11312 
11313 11314 11315 11316 11317 11318 11319 11320 11321 
11322 11323 11324 11325 11326 11327 11328 11329 11330 
11331 11332 11333 11334 11335 11336 11337 11338 11339 
11340 11341 11342 11343 11344 11345 11346 11347 11348 
11349 11350 11351 11352 11353 11354 11355 11356 11357 
11358 11359 11360 11361 11362 11363 11364 11365 11366 
11367 11368 11369 11370 11371 11372 11373 11374 11375 
11376 11377 11378 11379 11380 11381 11382 11383 11384 
11385 11386 11387 11388 11389 11390 11391 11392 11393 
11394 11395 11396 11397 11398 11399 11400 11401 11402 
11403 11404 11405 11406 11407 11408 11409 11410 11411 
11412 11413 11414 11415 11416 11417 11418 11419 11420 
11421 11422 11423 11424 11425 11426 11427 11428 11429 
11430 11431 11432 11433 11434 11435 11436 11437 11438 
11439 11440 11441 11442 11443 11444 11445 11446 11447 
11448 11449 11450 11451 11452 11453 11454 11455 11456 
11457 11458 11459 11460 11461 11462 11463 11464 11465 
11466 11467 11468 11469 11470 11471 11472 11473 11474 
11475 11476 11477 11478 11479 11480 11481 11482 11483 
11484 11485 11486 11487 11488 11489 11490 11491 11492 
11493 11494 11495 11496 11497 11498 11499 11500 11501 
11502 11503 11504 11505 11506 11507 11508 11509 11510 
11511 11512 11513 11514 11515 11516 11517 11518 11519 
11520 11521 11522 11523 11524 11525 11526 11527 11528 
11529 11530 11531 11532 11533 11534 11535 11536 11537 
11538 11539 11540 11541 11542 11543 11544 11545 11546 
11547 11548 11549 11550 11551 11552 11553 11554 11555 
11556 11557 11558 11559 11560 11561 11562 11563 11564 
11565 11566 11567 11568 11569 11570 11571 11572 11573 
11574 11575 11576 11577 11578 11579 11580 11581 11582 
11583 11584 11585 11586 11587 11588 11589 11590 11591 
11592 11593 11594 11595 11596 11597 11598 11599 11600 
11601 11602 11603 11604 11605 11606 11607 11608 11609 
11610 11611 11612 11613 11614 11615 11616 11617 11618 
11619 11620 11621 11622 11623 11624 11625 11626 11627 
11628 11629 11630 11631 11632 11633 11634 11635 11636 
11637 11638 11639 11640 11641 11642 11643 11644 11645 
11646 11647 11648 11649 11650 11651 11652 11653 11654 
11655 11656 11657 11658 11659 11660 11661 11662 11663 
11664 11665 11666 11667 11668 11669 11670 11671 11672 
11673 11674 11675 11676 11677 11678 11679 11680 11681 
11682 11683 11684 11685 11686 11687 11688 11689 11690 
11691 11692 11693 11694 11695 11696 11697 11698 11699 
11700 11701 11702 11703 11704 11705 11706 11707 11708 
11709 11710 11711 11712 11713 11714 11715 11716 11717 
11718 11719 11720 11721 11722 11723 11724 11725 11726 
11727 11728 11729 11730 11731 11732 11733 11734 11735 
11736 11737 11738 11739 11740 11741 11742 11743 11744 
11745 11746 11747 11748 11749 11750 11751 11752 11753 
11754 11755 11756 11757 11758 11759 11760 11761 11762 
11763 11764 11765 11766 11767 11768 11769 11770 11771 
11772 11773 11774 11775 11776 11777 11778 11779 11780 
11781 11782 11783 11784 11785 11786 11787 11788 11789 
11790 11791 11792 11793 11794 11795 11796 11797 11798 
11799 11800 11801 11802 11803 11804 11805 11806 11807 
11808 11809 11810 11811 11812 11813 11814 11815 11816 
11817 11818 11819 11820 11821 11822 11823 11824 11825 
11826 11827 11828 11829 11830 11831 11832 11833 11834 
11835 11836 11837 11838 11839 11840 11841 11842 11843 
11844 11845 11846 11847 11848 11849 11850 11851 11852 
11853 11854 11855 11856 11857 11858 11859 11860 11861 
11862 11863 11864 11865 11866 11867 11868 11869 11870 
11871 11872 11873 11874 11875 11876 11877 11878 11879 
11880 11881 11882 11883 11884 11885 11886 11887 11888 
11889 11890 11891 11892 11893 11894 11895 11896 11897 
11898 11899 11900 11901 11902 11903 11904 11905 11906 
11907 11908 11909 11910 11911 11912 11913 11914 11915 
11916 11917 11918 11919 11920 11921 11922 11923 11924 
11925 11926 11927 11928 11929 11930 11931 11932 11933 
11934 11935 11936 11937 11938 11939 11940 11941 11942 
11943 11944 11945 11946 11947 11948 11949 11950 11951 
11952 11953 11954 11955 11956 11957 11958 11959 11960 
11961 11962 11963 11964 11965 11966 11967 11968 11969 
11970 11971 11972 11973 11974 11975 11976 11977 11978 
11979 11980 11981 11982 11983 11984 11985 11986 11987 
11988 11989 11990 11991 11992 11993 11994 11995 11996 
11997 11998 11999 12000 12001 12002 12003 12004 12005 
12006 12007 12008 12009 12010 12011 12012 12013 12014 
12015 12016 12017 12018 12019 12020 12021 12022 12023 
12024 12025 12026 12027 12028 12029 12030 12031 12032 
12033 12034 12035 12036 12037 12038 12039 12040 12041 
12042 12043 12044 12045 12046 12047 12048 12049 12050 
12051 12052 12053 12054 12055 12056 12057 12058 12059 
12060 12061 12062 12063 12064 12065 12066 12067 12068 
12069 12070 12071 12072 12073 12074 12075 12076 12077 
12078 12079 12080 12081 12082 12083 12084 12085 12086 
12087 12088 12089 12090 12091 12092 12093 12094 12095 
12096 12097 12098 12099 12100 12101 12102 12103 12104 
12105 12106 12107 12108 12109 12110 12111 12112 12113 
12114 12115 12116 12117 12118 12119 12120 12121 12122 
12123 12124 12125 12126 12127 12128 12129 12130 12131 
12132 12133 12134 12135 12136 12137 12138 12139 12140 
12141 12142 12143 12144 12145 12146 12147 12148 12149 
12150 12151 12152 12153 12154 12155 12156 12157 12158 
12159 12160 12161 12162 12163 12164 12165 12166 12167 
12168 12169 12170 12171 12172 12173 12174 12175 12176 
12177 12178 12179 12180 12181 12182 12183 12184 12185 
12186 12187 12188 12189 12190 12191 12192 12193 12194 
12195 12196 12197 12198 12199 12200 12201 12202 12203 
12204 12205 12206 12207 12208 12209 12210 12211 12212 
12213 12214 12215 12216 12217 12218 12219 12220 12221 
12222 12223 12224 12225 12226 12227 12228 12229 12230 
12231 12232 12233 12234 12235 12236 12237 12238 12239 
12240 12241 12242 12243 12244 12245 12246 12247 12248 
12249 12250 12251 12252 12253 12254 12255 12256 12257 
12258 12259 12260 12261 12262 12263 12264 12265 12266 
12267 12268 12269 12270 12271 12272 12273 12274 12275 
12276 12277 12278 12279 12280 12281 12282 12283 12284 
12285 12286 12287 12288 12289 12290 12291 12292 12293 
12294 12295 12296 12297 12298 12299 12300 12301 12302 
12303 12304 12305 12306 12307 12308 12309 12310 12311 
12312 12313 12314 12315 12316 12317 12318 12319 12320 
12321 12322 12323 12324 12325 12326 12327 12328 12329 
12330 12331 12332 12333 12334 12335 12336 12337 12338 
12339 12340 12341 12342 12343 12344 12345 12346 12347 
12348 12349 12350 12351 12352 12353 12354 12355 12356 
12357 12358 12359 12360 12361 12362 12363 12364 12365 
12366 12367 12368 12369 12370 12371 12372 12373 12374 
12375 12376 12377 12378 12379 12380 12381 12382 12383 
12384 12385 12386 12387 12388 12389 12390 12391 12392 
12393 12394 12395 12396 12397 12398 12399 12400 12401 
12402 12403 12404 12405 12406 12407 12408 12409 12410 
      </DataArray>
      <DataArray type="Int32" Name="offsets" format="ascii">
9
18
27
36
45
54
63
72
81
90
99
108
117
126
135
144
153
162
171
180
189
198
207
216
225
234
243
252
261
270
279
288
297
306
315
324
333
342
351
360
369
378
387
396
405
414
423
432
441
450
459
468
477
486
495
504
513
522
531
540
549
558
567
576
585
594
603
612
621
630
639
648
657
666
675
684
693
702
711
720
729
738
747
756
765
774
783
792
801
810
819
828
837
846
855
864
873
882
891
900
909
918
927
936
945
954
963
972
981
990
999
1008
1017
1026
1035
1044
1053
1062
1071
1080
1089
1098
1107
1116
1125
1134
1143
1152
1161
1170
1179
1188
1197
1206
1215
1224
1233
1242
1251
1260
1269
1278
1287
1296
1305
1314
1323
1332
1341
1350
1359
1368
1377
1386
1395
1404
1413
1422
1431
1440
1449
1458
1467
1476
1485
1494
1503
1512
1521
1530
1539
1548
1557
1566
1575
1584
1593
1602
1611
1620
1629
1638
1647
1656
1665
1674
1683
1692
1701
1710
1719
1728
1737
1746
1755
1764
1773
1782
1791
1800
1809
1818
1827
1836
1845
1854
1863
1872
1881
1890
1899
1908
1917
1926
1935
1944
1953
1962
1971
1980
1989
1998
2007
2016
2025
2034
2043
2052
2061
2070
2079
2088
2097
2106
2115
2124
2133
2142
2151
2160
2169
2178
2187
2196
2205
2214
2223
2232
2241
2250
2259
2268
2277
2286
2295
2304
2313
2322
2331
2340
2349
2358
2367
2376
2385
2394
2403
2412
2421
2430
2439
2448
2457
2466
2475
2484
2493
2502
2511
2520
2529
2538
2547
2556
2565
2574
2583
2592
2601
2610
2619
2628
2637
2646
2655
2664
2673
2682
2691
2700
2709
2718
2727
2736
2745
2754
2763
2772
2781
2790
2799
2808
2817
2826
2835
2844
2853
2862
2871
2880
2889
2898
2907
2916
2925
2934
2943
2952
2961
2970
2979
2988
2997
3006
3015
3024
3033
3042
3051
3060
3069
3078
3087
3096
3105
3114
3123
3132
3141
3150
3159
3168
3177
3186
3195
3204
3213
3222
3231
3240
3249
3258
3267
3276
3285
3294
3303
3312
3321
3330
3339
3348
3357
3366
3375
3384
3393
3402
3411
3420
3429
3438
3447
3456
3465
3474
3483
3492
3501
3510
3519
3528
3537
3546
3555
3564
3573
3582
3591
3600
3609
3618
3627
3636
3645
3654
3663
3672
3681
3690
3699
3708
3717
3726
3735
3744
3753
3762
3771
3780
3789
3798
3807
3816
3825
3834
3843
3852
3861
3870
3879
3888
3897
3906
3915
3924
3933
3942
3951
3960
3969
3978
3987
3996
4005
4014
4023
4032
4041
4050
4059
4068
4077
4086
4095
4104
4113
4122
4131
4140
4149
4158
4167
4176
4185
4194
4203
4212
4221
4230
4239
4248
4257
4266
4275
4284
4293
4302
4311
4320
4329
4338
4347
4356
4365
4374
4383
4392
4401
4410
4419
4428
4437
4446
4455
4464
4473
4482
4491
4500
4509
4518
4527
4536
4545
4554
4563
4572
4581
4590
4599
4608
4617
4626
4635
4644
4653
4662
4671
4680
4689
4698
4707
4716
4725
4734
4743
4752
4761
4770
4779
4788
4797
4806
4815
4824
4833
4842
4851
4860
4869
4878
4887
4896
4905
4914
4923
4932
4941
4950
4959
4968
4977
4986
4995
5004
5013
5022
5031
5040
5049
5058
5067
5076
5085
5094
5103
5112
5121
5130
5139
5148
5157
5166
5175
5184
5193
5202
5211
5220
5229
5238
5247
5256
5265
5274
5283
5292
5301
5310
5319
5328
5337
5346
5355
5364
5373
5382
5391
5400
5409
5418
5427
5436
5445
5454
5463
5472
5481
5490
5499
5508
5517
5526
5535
5544
5553
5562
5571
5580
5589
5598
5607
5616
5625
5634
5643
5652
5661
5670
5679
5688
5697
5706
5715
5724
5733
5742
5751
5760
5769
5778
5787
5796
5805
5814
5823
5832
5841
5850
5859
5868
5877
5886
5895
5904
5913
5922
5931
5940
5949
5958
5967
5976
5985
5994
6003
6012
6021
6030
6039
6048
6057
6066
6075
6084
6093
6102
6111
6120
6129
6138
6147
6156
6165
6174
6183
6192
6201
6210
6219
6228
6237
6246
6255
6264
6273
6282
6291
6300
6309
6318
6327
6336
6345
6354
6363
6372
6381
6390
6399
6408
6417
6426
6435
6444
6453
6462
6471
6480
6489
6498
6507
6516
6525
6534
6543
6552
6561
6570
6579
6588
6597
6606
6615
6624
6633
6642
6651
6660
6669
6678
6687
6696
6705
6714
6723
6732
6741
6750
6759
6768
6777
6786
6795
6804
6813
6822
6831
6840
6849
6858
6867
6876
6885
6894
6903
6912
6921
6930
6939
6948
6957
6966
6975
6984
6993
7002
7011
7020
7029
7038
7047
7056
7065
7074
7083
7092
7101
7110
7119
7128
7137
7146
7155
7164
7173
7182
7191
7200
7209
7218
7227
7236
7245
7254
7263
7272
7281
7290
7299
7308
7317
7326
7335
7344
7353
7362
7371
7380
7389
7398
7407
7416
7425
7434
7443
7452
7461
7470
7479
7488
7497
7506
7515
7524
7533
7542
7551
7560
7569
7578
7587
7596
7605
7614
7623
7632
7641
7650
7659
7668
7677
7686
7695
7704
7713
7722
7731
7740
7749
7758
7767
7776
7785
7794
7803
7812
7821
7830
7839
7848
7857
7866
7875
7884
7893
7902
7911
7920
7929
7938
7947
7956
7965
7974
7983
7992
8001
8010
8019
8028
8037
8046
8055
8064
8073
8082
8091
8100
8109
8118
8127
8136
8145
8154
8163
8172
8181
8190
8199
8208
8217
8226
8235
8244
8253
8262
8271
8280
8289
8298
8307
8316
8325
8334
8343
8352
8361
8370
8379
8388
8397
8406
8415
8424
8433
8442
8451
8460
8469
8478
8487
8496
8505
8514
8523
8532
8541
8550
8559
8568
8577
8586
8595
8604
8613
8622
8631
8640
8649
8658
8667
8676
8685
8694
8703
8712
8721
8730
8739
8748
8757
8766
8775
8784
8793
8802
8811
8820
8829
8838
8847
8856
8865
8874
8883
8892
8901
8910
8919
8928
8937
8946
8955
8964
8973
8982
8991
9000
9009
9018
9027
9036
9045
9054
9063
9072
9081
9090
9099
9108
9117
9126
9135
9144
9153
9162
9171
9180
9189
9198
9207
9216
9225
9234
9243
9252
9261
9270
9279
9288
9297
9306
9315
9324
9333
9342
9351
9360
9369
9378
9387
9396
9405
9414
9423
9432
9441
9450
9459
9468
9477
9486
9495
9504
9513
9522
9531
9540
9549
9558
9567
9576
9585
9594
9603
9612
9621
9630
9639
9648
9657
9666
9675
9684
9693
9702
9711
9720
9729
9738
9747
9756
9765
9774
9783
9792
9801
9810
9819
9828
9837
9846
9855
9864
9873
9882
9891
9900
9909
9918
9927
9936
9945
9954
9963
9972
9981
9990
9999
10008
10017
10026
10035
10044
10053
10062
10071
10080
10089
10098
10107
10116
10125
10134
10143
10152
10161
10170
10179
10188
10197
10206
10215
10224
10233
10242
10251
10260
10269
10278
10287
10296
10305
10314
10323
10332
10341
10350
10359
10368
10377
10386
10395
10404
10413
10422
10431
10440
10449
10458
10467
10476
10485
10494
10503
10512
10521
10530
10539
10548
10557
10566
10575
10584
10593
10602
10611
10620
10629
10638
10647
10656
10665
10674
10683
10692
10701
10710
10719
10728
10737
10746
10755
10764
10773
10782
10791
10800
10809
10818
10827
10836
10845
10854
10863
10872
10881
10890
10899
10908
10917
10926
10935
10944
10953
10962
10971
10980
10989
10998
11007
11016
11025
11034
11043
11052
11061
11070
11079
11088
11097
11106
11115
11124
11133
11142
11151
11160
11169
11178
11187
11196
11205
11214
11223
11232
11241
11250
11259
11268
11277
11286
11295
11304
11313
11322
11331
11340
11349
11358
11367
11376
11385
11394
11403
11412
11421
11430
11439
11448
11457
11466
11475
11484
11493
11502
11511
11520
11529
11538
11547
11556
11565
11574
11583
11592
11601
11610
11619
11628
11637
11646
11655
11664
11673
11682
11691
11700
11709
11718
11727
11736
11745
11754
11763
11772
11781
11790
11799
11808
11817
11826
11835
11844
11853
11862
11871
11880
11889
11898
11907
11916
11925
11934
11943
11952
11961
11970
11979
11988
11997
12006
12015
12024
12033
12042
12051
12060
12069
12078
12087
12096
12105
12114
12123
12132
12141
12150
12159
12168
12177
12186
12195
12204
12213
12222
12231
12240
12249
12258
12267
12276
12285
12294
12303
12312
12321
12330
12339
12348
12357
12366
12375
12384
12393
12402
12411
      </DataArray>
      <DataArray type="UInt8" Name="types" format="ascii">
70
70
70
70
70
70
70
70
70
70
70
70
70
70
70
70
70
70
70
70
70
70
70
70
70
70
70
70
70
70
70
70
70
70
70
70
70
70
70
70
70
70
70
70
70
70
70
70
70
70
70
70
70
70
70
70
70
70
70
70
70
70
70
70
70
70
70
70
70
70
70
70
70
70
70
70
70
70
70
70
70
70
70
70
70
70
70
70
70
70
70
70
70
70
70
70
70
70
70
70
70
70
70
70
70
70
70
70
70
70
70
70
70
70
70
70
70
70
70
70
70
70
70
70
70
70
70
70
70
70
70
70
70
70
70
70
70
70
70
70
70
70
70
70
70
70
70
70
70
70
70
70
70
70
70
70
70
70
70
70
70
70
70
70
70
70
70
70
70
70
70
70
70
70
70
70
70
70
70
70
70
70
70
70
70
70
70
70
70
70
70
70
70
70
70
70
70
70
70
70
70
70
70
70
70
70
70
70
70
70
70
70
70
70
70
70
70
70
70
70
70
70
70
70
70
70
70
70
70
70
70
70
70
70
70
70
70
70
70
70
70
70
70
70
70
70
70
70
70
70
70
70
70
70
70
70
70
70
70
70
70
70
70
70
70
70
70
70
70
70
70
70
70
70
70
70
70
70
70
70
70
70
70
70
70
70
70
70
70
70
70
70
70
70
70
70
70
70
70
70
70
70
70
70
70
70
70
70
70
70
70
70
70
70
70
70
70
70
70
70
70
70
70
70
70
70
70
70
70
70
70
70
70
70
70
70
70
70
70
70
70
70
70
70
70
70
70
70
70
70
70
70
70
70
70
70
70
70
70
70
70
70
70
70
70
70
70
70
70
70
70
70
70
70
70
70
70
70
70
70
70
70
70
70
70
70
70
70
70
70
70
70
70
70
70
70
70
70
70
70
70
70
70
70
70
70
70
70
70
70
70
70
70
70
70
70
70
70
70
70
70
70
70
70
70
70
70
70
70
70
70
70
70
70
70
70
70
70
70
70
70
70
70
70
70
70
70
70
70
70
70
70
70
70
70
70
70
70
70
70
70
70
70
70
70
70
70
70
70
70
70
70
70
70
70
70
70
70
70
70
70
70
70
70
70
70
70
70
70
70
70
70
70
70
70
70
70
70
70
70
70
70
70
70
70
70
70
70
70
70
70
70
70
70
70
70
70
70
70
70
70
70
70
70
70
70
70
70
70
70
70
70
70
70
70
70
70
70
70
70
70
70
70
70
70
70
70
70
70
70
70
70
70
70
70
70
70
70
70
70
70
70
70
70
70
70
70
70
70
70
70
70
70
70
70
70
70
70
70
70
70
70
70
70
70
70
70
70
70
70
70
70
70
70
70
70
70
70
70
70
70
70
70
70
70
70
70
70
70
70
70
70
70
70
70
70
70
70
70
70
70
70
70
70
70
70
70
70
70
70
70
70
70
70
70
70
70
70
70
70
70
70
70
70
70
70
70
70
70
70
70
70
70
70
70
70
70
70
70
70
70
70
70
70
70
70
70
70
70
70
70
70
70
70
70
70
70
70
70
70
70
70
70
70
70
70
70
70
70
70
70
70
70
70
70
70
70
70
70
70
70
70
70
70
70
70
70
70
70
70
70
70
70
70
70
70
70
70
70
70
70
70
70
70
70
70
70
70
70
70
70
70
70
70
70
70
70
70
70
70
70
70
70
70
70
70
70
70
70
70
70
70
70
70
70
70
70
70
70
70
70
70
70
70
70
70
70
70
70
70
70
70
70
70
70
70
70
70
70
70
70
70
70
70
70
70
70
70
70
70
70
70
70
70
70
70
70
70
70
70
70
70
70
70
70
70
70
70
70
70
70
70
70
70
70
70
70
70
70
70
70
70
70
70
70
70
70
70
70
70
70
70
70
70
70
70
70
70
70
70
70
70
70
70
70
70
70
70
70
70
70
70
70
70
70
70
70
70
70
70
70
70
70
70
70
70
70
70
70
70
70
70
70
70
70
70
70
70
70
70
70
70
70
70
70
70
70
70
70
70
70
70
70
70
70
70
70
70
70
70
70
70
70
70
70
70
70
70
70
70
70
70
70
70
70
70
70
70
70
70
70
70
70
70
70
70
70
70
70
70
70
70
70
70
70
70
70
70
70
70
70
70
70
70
70
70
70
70
70
70
70
70
70
70
70
70
70
70
70
70
70
70
70
70
70
70
70
70
70
70
70
70
70
70
70
70
70
70
70
70
70
70
70
70
70
70
70
70
70
70
70
70
70
70
70
70
70
70
70
70
70
70
70
70
70
70
70
70
70
70
70
70
70
70
70
70
70
70
70
70
70
70
70
70
70
70
70
70
70
70
70
70
70
70
70
70
70
70
70
70
70
70
70
70
70
70
70
70
70
70
70
70
70
70
70
70
70
70
70
70
70
70
70
70
70
70
70
70
70
70
70
70
70
70
70
70
70
70
70
70
70
70
70
70
70
70
70
70
70
70
70
70
70
70
70
70
70
70
70
70
70
70
70
70
70
70
70
70
70
70
70
70
70
70
70
70
70
70
70
70
70
70
70
70
70
70
70
70
70
70
70
70
70
70
70
70
70
70
70
70
70
70
70
70
70
70
70
70
70
70
70
70
70
70
70
70
70
70
70
70
70
70
70
70
70
70
70
70
70
70
70
70
70
70
70
70
70
70
70
70
70
70
70
70
70
70
70
70
70
70
70
70
70
70
70
70
70
70
70
70
70
70
70
70
70
70
70
70
70
70
70
70
70
70
70
70
70
70
70
70
70
70
70
70
70
70
70
70
70
70
70
70
70
70
70
70
70
70
70
70
70
70
70
70
70
70
70
70
70
70
70
70
70
70
70
70
70
70
70
70
70
70
70
70
70
70
70
70
70
70
70
70
70
70
70
70
70
70
70
70
70
70
70
70
70
70
70
70
70
70
70
70
70
70
70
70
70
70
70
70
70
70
70
70
70
70
70
70
70
70
70
70
70
70
70
70
70
70
70
70
70
70
70
70
70
70
70
70
70
70
70
70
70
70
70
70
70
70
70
70
70
70
70
70
70
70
70
70
70
70
70
70
70
70
70
70
70
70
70
70
70
70
70
70
70
70
70
70
70
70
70
70
70
70
70
70
70
70
70
      </DataArray>
    </Cells>
    <PointData>
      <DataArray type="Float64" NumberOfComponents="3" Name="Displacement" format="ascii">
0 0 0
-0.00230763 -0.00115192 -0.00115192
-0.00137561 -0.000389373 -0.000389373
0 0 0
-0.00125558 -0.000717984 -0.000717984
-0.00173784 -0.000696269 -0.000696269
-0.000667524 -0.000139581 -0.000139581
0 0 0
-0.000828841 -0.000306873 -0.000306873
-0.00230763 -0.00115192 -0.00115192
-0.00430437 -0.00200091 -0.00200091
-0.00286504 -0.00112416 -0.00112416
-0.00137561 -0.000389373 -0.000389373
-0.00330895 -0.00156038 -0.00156038
-0.00354844 -0.00151811 -0.00151811
-0.00211324 -0.00072128 -0.00072128
-0.00173784 -0.000696269 -0.000696269
-0.00264825 -0.0010948 -0.0010948
-0.00430437 -0.00200091 -0.00200091
-0.00631855 -0.00302514 -0.00302514
-0.00436789 -0.00213371 -0.00213371
-0.00286504 -0.00112416 -0.00112416
-0.00530791 -0.00248303 -0.00248303
-0.00533248 -0.0025458 -0.0025458
-0.00361736 -0.00159341 -0.00159341
-0.00354844 -0.00151811 -0.00151811
-0.00444279 -0.00199849 -0.00199849
-0.00631855 -0.00302514 -0.00302514
-0.00834914 -0.00434302 -0.00434302
-0.0058632 -0.00344854 -0.00344854
-0.00436789 -0.00213371 -0.00213371
-0.00733238 -0.00364427 -0.00364427
-0.00710117 -0.00386065 -0.00386065
-0.00511685 -0.00275118 -0.00275118
-0.00533248 -0.0025458 -0.0025458
-0.0062181 -0.00316461 -0.00316461
-0.00834914 -0.00434302 -0.00434302
-0.0103905 -0.00598178 -0.00598178
-0.0073458 -0.00509042 -0.00509042
-0.0058632 -0.00344854 -0.00344854
-0.00936904 -0.00512117 -0.00512117
-0.00886379 -0.00550128 -0.00550128
-0.006606 -0.00422767 -0.00422767
-0.00710117 -0.00386065 -0.00386065
-0.0079831 -0.00463904 -0.00463904
-0.0103905 -0.00598178 -0.00598178
-0.0124325 -0.00795984 -0.00795984
-0.00881866 -0.00707195 -0.00707195
-0.0073458 -0.00509042 -0.00509042
-0.0114117 -0.00692797 -0.00692797
-0.0106205 -0.00748001 -0.00748001
-0.00808336 -0.00603837 -0.00603837
-0.00886379 -0.00550128 -0.00550128
-0.00974289 -0.006448 -0.006448
-0.0124325 -0.00795984 -0.00795984
-0.0144716 -0.0102797 -0.0102797
-0.0102824 -0.00939669 -0.00939669
-0.00881866 -0.00707195 -0.00707195
-0.0134526 -0.00907694 -0.00907694
-0.0123711 -0.00980214 -0.00980214
-0.00955161 -0.00819133 -0.00819133
-0.0106205 -0.00748001 -0.00748001
-0.0114966 -0.00859803 -0.00859803
-0.0144716 -0.0102797 -0.0102797
-0.0165041 -0.0129437 -0.0129437
-0.0117382 -0.0120656 -0.0120656
-0.0102824 -0.00939669 -0.00939669
-0.0154888 -0.0115687 -0.0115687
-0.0141146 -0.0124683 -0.0124683
-0.0110113 -0.0106882 -0.0106882
-0.0123711 -0.00980214 -0.00980214
-0.0132438 -0.0110923 -0.0110923
-0.0165041 -0.0129437 -0.0129437
-0.0185285 -0.0159505 -0.0159505
-0.0131863 -0.0150777 -0.0150777
-0.0117382 -0.0120656 -0.0120656
-0.0175174 -0.0144043 -0.0144043
-0.0158503 -0.0154777 -0.0154777
-0.0124632 -0.0135288 -0.0135288
-0.0141146 -0.0124683 -0.0124683
-0.0149834 -0.0139302 -0.0139302
-0.0185285 -0.0159505 -0.0159505
-0.0205435 -0.0192987 -0.0192987
-0.014627 -0.0184313 -0.0184313
-0.0131863 -0.0150777 -0.0150777
-0.0195372 -0.017582 -0.017582
-0.017578 -0.0188288 -0.0188288
-0.0139076 -0.0167119 -0.0167119
-0.0158503 -0.0154777 -0.0154777
-0.0167152 -0.0171107 -0.0171107
-0.0205435 -0.0192987 -0.0192987
-0.0225488 -0.0229867 -0.0229867
-0.0160605 -0.0221247 -0.0221247
-0.014627 -0.0184313 -0.0184313
-0.0215474 -0.0211004 -0.0211004
-0.0192972 -0.0225196 -0.0225196
-0.0153446 -0.0202357 -0.0202357
-0.017578 -0.0188288 -0.0188288
-0.0184386 -0.0206318 -0.0206318
-0.0225488 -0.0229867 -0.0229867
-0.0245441 -0.0270124 -0.0270124
-0.0174867 -0.0261561 -0.0261561
-0.0160605 -0.0221247 -0.0221247
-0.0235477 -0.0249574 -0.0249574
-0.0210079 -0.0265483 -0.0265483
-0.0167745 -0.0240983 -0.0240983
-0.0192972 -0.0225196 -0.0225196
-0.0201536 -0.0244918 -0.0244918
-0.0245441 -0.0270124 -0.0270124
-0.0265292 -0.0313741 -0.0313741
-0.0189059 -0.0305234 -0.0305234
-0.0174867 -0.0261561 -0.0261561
-0.0255379 -0.0291514 -0.0291514
-0.02271 -0.030913 -0.030913
-0.0181972 -0.0282979 -0.0282979
-0.0210079 -0.0265483 -0.0265483
-0.02186 -0.0286888 -0.0286888
-0.0265292 -0.0313741 -0.0313741
-0.0285043 -0.0360699 -0.0360699
-0.020318 -0.0352249 -0.0352249
-0.0189059 -0.0305234 -0.0305234
-0.027518 -0.0336804 -0.0336804
-0.0244035 -0.0356118 -0.0356118
-0.0196128 -0.0328325 -0.0328325
-0.02271 -0.030913 -0.030913
-0.0235578 -0.0332208 -0.0332208
-0.0285043 -0.0360699 -0.0360699
-0.0304692 -0.0410979 -0.0410979
-0.021723 -0.0402587 -0.0402587
-0.020318 -0.0352249 -0.0352249
-0.029488 -0.0385425 -0.0385425
-0.0260885 -0.0406429 -0.0406429
-0.0210213 -0.0377003 -0.0377003
-0.0244035 -0.0356118 -0.0356118
-0.0252471 -0.0380859 -0.0380859
-0.0304692 -0.0410979 -0.0410979
-0.0324241 -0.0464563 -0.0464563
-0.023121 -0.0456229 -0.0456229
-0.021723 -0.0402587 -0.0402587
-0.0314479 -0.0437359 -0.0437359
-0.0277649 -0.0460044 -0.0460044
-0.0224229 -0.0428996 -0.0428996
-0.0260885 -0.0406429 -0.0406429
-0.0269278 -0.0432824 -0.0432824
-0.0324241 -0.0464563 -0.0464563
-0.0343689 -0.0521432 -0.0521432
-0.0245121 -0.0513157 -0.0513157
-0.023121 -0.0456229 -0.0456229
-0.0333977 -0.0492588 -0.0492588
-0.0294328 -0.0516945 -0.0516945
-0.0238174 -0.0484283 -0.0484283
-0.0277649 -0.0460044 -0.0460044
-0.0285999 -0.0488085 -0.0488085
-0.0343689 -0.0521432 -0.0521432
-0.0363037 -0.0581569 -0.0581569
-0.0258962 -0.0573354 -0.0573354
-0.0245121 -0.0513157 -0.0513157
-0.0353375 -0.0551093 -0.0551093
-0.0310923 -0.0577114 -0.0577114
-0.025205 -0.0542848 -0.0542848
-0.0294328 -0.0516945 -0.0516945
-0.0302636 -0.0546622 -0.0546622
-0.0363037 -0.0581569 -0.0581569
-0.0382286 -0.0644956 -0.0644956
-0.0272735 -0.06368 -0.06368
-0.0258962 -0.0573354 -0.0573354
-0.0372674 -0.0612857 -0.0612857
-0.0327434 -0.0640532 -0.0640532
-0.0265857 -0.0604672 -0.0604672
-0.0310923 -0.0577114 -0.0577114
-0.0319189 -0.0608418 -0.0608418
-0.0382286 -0.0644956 -0.0644956
-0.0401435 -0.0711573 -0.0711573
-0.0286439 -0.0703479 -0.0703479
-0.0272735 -0.06368 -0.06368
-0.0391873 -0.0677861 -0.0677861
-0.0343861 -0.0707182 -0.0707182
-0.0279595 -0.0669737 -0.0669737
-0.0327434 -0.0640532 -0.0640532
-0.0335658 -0.0673454 -0.0673454
-0.0401435 -0.0711573 -0.0711573
-0.0420485 -0.0781403 -0.0781403
-0.0300075 -0.0773371 -0.0773371
-0.0286439 -0.0703479 -0.0703479
-0.0410973 -0.0746088 -0.0746088
-0.0360204 -0.0777045 -0.0777045
-0.0293265 -0.0738024 -0.0738024
-0.0343861 -0.0707182 -0.0707182
-0.0352043 -0.0741713 -0.0741713
-0.0420485 -0.0781403 -0.0781403
-0.0439438 -0.0854429 -0.0854429
-0.0313643 -0.0846458 -0.0846458
-0.0300075 -0.0773371 -0.0773371
-0.0429974 -0.0817518 -0.0817518
-0.0376464 -0.0850103 -0.0850103
-0.0306867 -0.0809516 -0.0809516
-0.0360204 -0.0777045 -0.0777045
-0.0368344 -0.0813176 -0.0813176
-0.0439438 -0.0854429 -0.0854429
-0.0458292 -0.0930631 -0.0930631
-0.0327144 -0.0922723 -0.0922723
-0.0313643 -0.0846458 -0.0846458
-0.0448877 -0.0892134 -0.0892134
-0.0392641 -0.0926339 -0.0926339
-0.0320402 -0.0884194 -0.0884194
-0.0376464 -0.0850103 -0.0850103
-0.0384563 -0.0887825 -0.0887825
-0.0458292 -0.0930631 -0.0930631
-0.0477048 -0.100999 -0.100999
-0.0340578 -0.100215 -0.100215
-0.0327144 -0.0922723 -0.0922723
-0.0467682 -0.0969918 -0.0969918
-0.0408736 -0.100573 -0.100573
-0.0333869 -0.0962041 -0.0962041
-0.0392641 -0.0926339 -0.0926339
-0.0400699 -0.0965642 -0.0965642
-0.0477048 -0.100999 -0.100999
-0.0495706 -0.109249 -0.109249
-0.0353944 -0.108471 -0.108471
-0.0340578 -0.100215 -0.100215
-0.0486389 -0.105085 -0.105085
-0.0424749 -0.108827 -0.108827
-0.0347269 -0.104304 -0.104304
-0.0408736 -0.100573 -0.100573
-0.0416753 -0.104661 -0.104661
-0.0495706 -0.109249 -0.109249
-0.0514268 -0.117812 -0.117812
-0.0367245 -0.11704 -0.11704
-0.0353944 -0.108471 -0.108471
-0.0504999 -0.113492 -0.113492
-0.044068 -0.117393 -0.117393
-0.0360603 -0.112717 -0.112717
-0.0424749 -0.108827 -0.108827
-0.0432725 -0.113071 -0.113071
-0.0514268 -0.117812 -0.117812
-0.0532733 -0.126684 -0.126684
-0.0380479 -0.125919 -0.125919
-0.0367245 -0.11704 -0.11704
-0.0523513 -0.122209 -0.122209
-0.0456529 -0.126269 -0.126269
-0.037387 -0.121441 -0.121441
-0.044068 -0.117393 -0.117393
-0.0448615 -0.121792 -0.121792
-0.0532733 -0.126684 -0.126684
-0.0551101 -0.135866 -0.135866
-0.0393648 -0.135107 -0.135107
-0.0380479 -0.125919 -0.125919
-0.0541929 -0.131237 -0.131237
-0.0472298 -0.135454 -0.135454
-0.0387072 -0.130475 -0.130475
-0.0456529 -0.126269 -0.126269
-0.0464424 -0.130823 -0.130823
-0.0551101 -0.135866 -0.135866
-0.0569373 -0.145354 -0.145354
-0.0406751 -0.144602 -0.144602
-0.0393648 -0.135107 -0.135107
-0.0560249 -0.140572 -0.140572
-0.0487986 -0.144945 -0.144945
-0.0400208 -0.139816 -0.139816
-0.0472298 -0.135454 -0.135454
-0.0480152 -0.140161 -0.140161
-0.0569373 -0.145354 -0.145354
-0.058755 -0.155147 -0.155147
-0.0419789 -0.154402 -0.154402
-0.0406751 -0.144602 -0.144602
-0.0578473 -0.150213 -0.150213
-0.0503593 -0.154742 -0.154742
-0.0413278 -0.149464 -0.149464
-0.0487986 -0.144945 -0.144945
-0.0495799 -0.149806 -0.149806
-0.058755 -0.155147 -0.155147
-0.060563 -0.165244 -0.165244
-0.0432762 -0.164505 -0.164505
-0.0419789 -0.154402 -0.154402
-0.0596602 -0.160158 -0.160158
-0.051912 -0.164842 -0.164842
-0.0426284 -0.159416 -0.159416
-0.0503593 -0.154742 -0.154742
-0.0511366 -0.159754 -0.159754
-0.060563 -0.165244 -0.165244
-0.0623616 -0.175641 -0.175641
-0.0445671 -0.174909 -0.174909
-0.0432762 -0.164505 -0.164505
-0.0614635 -0.170405 -0.170405
-0.0534566 -0.175243 -0.175243
-0.0439224 -0.16967 -0.16967
-0.051912 -0.164842 -0.164842
-0.0526853 -0.170005 -0.170005
-0.0623616 -0.175641 -0.175641
-0.0641506 -0.186339 -0.186339
-0.0458515 -0.185613 -0.185613
-0.0445671 -0.174909 -0.174909
-0.0632573 -0.180953 -0.180953
-0.0549934 -0.185944 -0.185944
-0.0452101 -0.180224 -0.180224
-0.0534566 -0.175243 -0.175243
-0.054226 -0.180556 -0.180556
-0.0641506 -0.186339 -0.186339
-0.0659302 -0.197334 -0.197334
-0.0471295 -0.196615 -0.196615
-0.0458515 -0.185613 -0.185613
-0.0650416 -0.191799 -0.191799
-0.0565222 -0.196943 -0.196943
-0.0464913 -0.191077 -0.191077
-0.0549934 -0.185944 -0.185944
-0.0557588 -0.191406 -0.191406
-0.0659302 -0.197334 -0.197334
-0.0677003 -0.208625 -0.208625
-0.0484011 -0.207913 -0.207913
-0.0471295 -0.196615 -0.196615
-0.0668164 -0.202942 -0.202942
-0.058043 -0.208237 -0.208237
-0.0477661 -0.202227 -0.202227
-0.0565222 -0.196943 -0.196943
-0.0572836 -0.202553 -0.202553
-0.0677003 -0.208625 -0.208625
-0.069461 -0.22021 -0.22021
-0.0496664 -0.219505 -0.219505
-0.0484011 -0.207913 -0.207913
-0.0685818 -0.214381 -0.214381
-0.059556 -0.219826 -0.219826
-0.0490346 -0.213672 -0.213672
-0.058043 -0.208237 -0.208237
-0.0588005 -0.213995 -0.213995
-0.069461 -0.22021 -0.22021
-0.0712123 -0.232087 -0.232087
-0.0509254 -0.231389 -0.231389
-0.0496664 -0.219505 -0.219505
-0.0703379 -0.226112 -0.226112
-0.0610612 -0.231707 -0.231707
-0.0502967 -0.225411 -0.225411
-0.059556 -0.219826 -0.219826
-0.0603096 -0.22573 -0.22573
-0.0712123 -0.232087 -0.232087
-0.0729543 -0.244255 -0.244255
-0.052178 -0.243564 -0.243564
-0.0509254 -0.231389 -0.231389
-0.0720845 -0.238135 -0.238135
-0.0625585 -0.243879 -0.243879
-0.0515525 -0.237441 -0.237441
-0.0610612 -0.231707 -0.231707
-0.0618108 -0.237757 -0.237757
-0.0729543 -0.244255 -0.244255
-0.0746869 -0.256711 -0.256711
-0.0534244 -0.256028 -0.256028
-0.052178 -0.243564 -0.243564
-0.0738217 -0.250447 -0.250447
-0.064048 -0.256339 -0.256339
-0.052802 -0.24976 -0.24976
-0.0625585 -0.243879 -0.243879
-0.0633042 -0.250073 -0.250073
-0.0746869 -0.256711 -0.256711
-0.0764102 -0.269455 -0.269455
-0.0546646 -0.268778 -0.268778
-0.0534244 -0.256028 -0.256028
-0.0755497 -0.263047 -0.263047
-0.0655297 -0.269086 -0.269086
-0.0540453 -0.262367 -0.262367
-0.064048 -0.256339 -0.256339
-0.0647898 -0.262677 -0.262677
-0.0764102 -0.269455 -0.269455
-0.0781241 -0.282483 -0.282483
-0.0558985 -0.281814 -0.281814
-0.0546646 -0.268778 -0.268778
-0.0772683 -0.275933 -0.275933
-0.0670036 -0.282118 -0.282118
-0.0552823 -0.275261 -0.275261
-0.0655297 -0.269086 -0.269086
-0.0662676 -0.275567 -0.275567
-0.0781241 -0.282483 -0.282483
-0.0798288 -0.295795 -0.295795
-0.0571262 -0.295133 -0.295133
-0.0558985 -0.281814 -0.281814
-0.0789776 -0.289104 -0.289104
-0.0684698 -0.295434 -0.295434
-0.0565131 -0.288438 -0.288438
-0.0670036 -0.282118 -0.282118
-0.0677377 -0.288741 -0.288741
-0.0798288 -0.295795 -0.295795
-0.0815243 -0.309388 -0.309388
-0.0583477 -0.308733 -0.308733
-0.0571262 -0.295133 -0.295133
-0.0806777 -0.302556 -0.302556
-0.0699283 -0.309031 -0.309031
-0.0577377 -0.301898 -0.301898
-0.0684698 -0.295434 -0.295434
-0.0692 -0.302197 -0.302197
-0.0815243 -0.309388 -0.309388
-0.0832105 -0.323261 -0.323261
-0.059563 -0.322613 -0.322613
-0.0583477 -0.308733 -0.308733
-0.0823685 -0.316289 -0.316289
-0.0713791 -0.322907 -0.322907
-0.0589561 -0.315638 -0.315638
-0.0699283 -0.309031 -0.309031
-0.0706546 -0.315934 -0.315934
-0.0832105 -0.323261 -0.323261
-0.0848875 -0.337411 -0.337411
-0.0607723 -0.336771 -0.336771
-0.059563 -0.322613 -0.322613
-0.0840502 -0.330301 -0.330301
-0.0728222 -0.337061 -0.337061
-0.0601684 -0.329657 -0.329657
-0.0713791 -0.322907 -0.322907
-0.0721016 -0.32995 -0.32995
-0.0848875 -0.337411 -0.337411
-0.0865553 -0.351838 -0.351838
-0.0619754 -0.351204 -0.351204
-0.0607723 -0.336771 -0.336771
-0.0857226 -0.34459 -0.34459
-0.0742576 -0.351492 -0.351492
-0.0613746 -0.343953 -0.343953
-0.0728222 -0.337061 -0.337061
-0.0735409 -0.344242 -0.344242
-0.0865553 -0.351838 -0.351838
-0.088214 -0.366538 -0.366538
-0.0631723 -0.365912 -0.365912
-0.0619754 -0.351204 -0.351204
-0.0873858 -0.359154 -0.359154
-0.0756854 -0.366196 -0.366196
-0.0625746 -0.358524 -0.358524
-0.0742576 -0.351492 -0.351492
-0.0749725 -0.35881 -0.35881
-0.088214 -0.366538 -0.366538
-0.0898635 -0.381511 -0.381511
-0.0643633 -0.380893 -0.380893
-0.0631723 -0.365912 -0.365912
-0.0890399 -0.373991 -0.373991
-0.0771056 -0.381173 -0.381173
-0.0637686 -0.373368 -0.373368
-0.0756854 -0.366196 -0.366196
-0.0763965 -0.373651 -0.373651
-0.0898635 -0.381511 -0.381511
-0.0915038 -0.396755 -0.396755
-0.0655481 -0.396143 -0.396143
-0.0643633 -0.380893 -0.380893
-0.0906848 -0.389099 -0.389099
-0.0785182 -0.39642 -0.39642
-0.0649564 -0.388484 -0.388484
-0.0771056 -0.381173 -0.381173
-0.0778129 -0.388763 -0.388763
-0.0915038 -0.396755 -0.396755
-0.0931351 -0.412267 -0.412267
-0.0667269 -0.411663 -0.411663
-0.0655481 -0.396143 -0.396143
-0.0923206 -0.404477 -0.404477
-0.0799233 -0.411936 -0.411936
-0.0661382 -0.40387 -0.40387
-0.0785182 -0.39642 -0.39642
-0.0792217 -0.404145 -0.404145
-0.0931351 -0.412267 -0.412267
-0.0947572 -0.428046 -0.428046
-0.0678997 -0.42745 -0.42745
-0.0667269 -0.411663 -0.411663
-0.0939473 -0.420123 -0.420123
-0.0813207 -0.42772 -0.42772
-0.067314 -0.419523 -0.419523
-0.0799233 -0.411936 -0.411936
-0.0806229 -0.419795 -0.419795
-0.0947572 -0.428046 -0.428046
-0.0963703 -0.44409 -0.44409
-0.0690664 -0.443501 -0.443501
-0.0678997 -0.42745 -0.42745
-0.0955649 -0.436035 -0.436035
-0.0827106 -0.443768 -0.443768
-0.0684838 -0.435443 -0.435443
-0.0813207 -0.42772 -0.42772
-0.0820166 -0.435711 -0.435711
-0.0963703 -0.44409 -0.44409
-0.0979743 -0.460398 -0.460398
-0.0702272 -0.459817 -0.459817
-0.0690664 -0.443501 -0.443501
-0.0971734 -0.452211 -0.452211
-0.084093 -0.460079 -0.460079
-0.0696475 -0.451626 -0.451626
-0.0827106 -0.443768 -0.443768
-0.0834028 -0.451891 -0.451891
-0.0979743 -0.460398 -0.460398
-0.0995692 -0.476967 -0.476967
-0.0713819 -0.476393 -0.476393
-0.0702272 -0.459817 -0.459817
-0.0987729 -0.46865 -0.46865
-0.0854679 -0.476652 -0.476652
-0.0708053 -0.468072 -0.468072
-0.084093 -0.460079 -0.460079
-0.0847814 -0.468333 -0.468333
-0.0995692 -0.476967 -0.476967
-0.101155 -0.493795 -0.493795
-0.0725307 -0.493229 -0.493229
-0.0713819 -0.476393 -0.476393
-0.100363 -0.485349 -0.485349
-0.0868352 -0.493485 -0.493485
-0.0719571 -0.484779 -0.484779
-0.0854679 -0.476652 -0.476652
-0.0861525 -0.485036 -0.485036
-0.101155 -0.493795 -0.493795
-0.102732 -0.510882 -0.510882
-0.0736736 -0.510323 -0.510323
-0.0725307 -0.493229 -0.493229
-0.101945 -0.502307 -0.502307
-0.0881951 -0.510575 -0.510575
-0.0731029 -0.501744 -0.501744
-0.0868352 -0.493485 -0.493485
-0.0875161 -0.501998 -0.501998
-0.102732 -0.510882 -0.510882
-0.1043 -0.528225 -0.528225
-0.0748105 -0.527674 -0.527674
-0.0736736 -0.510323 -0.510323
-0.103517 -0.519521 -0.519521
-0.0895475 -0.527922 -0.527922
-0.0742428 -0.518967 -0.518967
-0.0881951 -0.510575 -0.510575
-0.0888722 -0.519217 -0.519217
-0.1043 -0.528225 -0.528225
-0.105859 -0.545821 -0.545821
-0.0759415 -0.545278 -0.545278
-0.0748105 -0.527674 -0.527674
-0.105081 -0.536991 -0.536991
-0.0908924 -0.545523 -0.545523
-0.0753768 -0.536444 -0.536444
-0.0895475 -0.527922 -0.527922
-0.0902209 -0.536691 -0.536691
-0.105859 -0.545821 -0.545821
-0.107409 -0.563671 -0.563671
-0.0770666 -0.563135 -0.563135
-0.0759415 -0.545278 -0.545278
-0.106635 -0.554714 -0.554714
-0.0922299 -0.563376 -0.563376
-0.0765048 -0.554175 -0.554175
-0.0908924 -0.545523 -0.545523
-0.0915621 -0.554418 -0.554418
-0.107409 -0.563671 -0.563671
-0.10895 -0.58177 -0.58177
-0.0781858 -0.581242 -0.581242
-0.0770666 -0.563135 -0.563135
-0.10818 -0.572689 -0.572689
-0.09356 -0.58148 -0.58148
-0.0776269 -0.572157 -0.572157
-0.0922299 -0.563376 -0.563376
-0.0928959 -0.572397 -0.572397
-0.10895 -0.58177 -0.58177
-0.110482 -0.600119 -0.600119
-0.0792991 -0.599598 -0.599598
-0.0781858 -0.581242 -0.581242
-0.109717 -0.590914 -0.590914
-0.0948826 -0.599832 -0.599832
-0.0787432 -0.590389 -0.590389
-0.09356 -0.58148 -0.58148
-0.0942222 -0.590625 -0.590625
-0.110482 -0.600119 -0.600119
-0.112005 -0.618714 -0.618714
-0.0804065 -0.618202 -0.618202
-0.0792991 -0.599598 -0.599598
-0.111244 -0.609386 -0.609386
-0.0961979 -0.618432 -0.618432
-0.0798535 -0.608869 -0.608869
-0.0948826 -0.599832 -0.599832
-0.0955412 -0.609101 -0.609101
-0.112005 -0.618714 -0.618714
-0.113519 -0.637555 -0.637555
-0.081508 -0.63705 -0.63705
-0.0804065 -0.618202 -0.618202
-0.112763 -0.628104 -0.628104
-0.0975057 -0.637277 -0.637277
-0.080958 -0.627595 -0.627595
-0.0961979 -0.618432 -0.618432
-0.0968527 -0.627824 -0.627824
-0.113519 -0.637555 -0.637555
-0.115024 -0.656639 -0.656639
-0.0826037 -0.656142 -0.656142
-0.081508 -0.63705 -0.63705
-0.114273 -0.647067 -0.647067
-0.0988061 -0.656365 -0.656365
-0.0820566 -0.646566 -0.646566
-0.0975057 -0.637277 -0.637277
-0.0981568 -0.64679 -0.64679
-0.115024 -0.656639 -0.656639
-0.11652 -0.675965 -0.675965
-0.0836936 -0.675475 -0.675475
-0.0826037 -0.656142 -0.656142
-0.115773 -0.666272 -0.666272
-0.100099 -0.675694 -0.675694
-0.0831494 -0.665778 -0.665778
-0.0988061 -0.656365 -0.656365
-0.0994536 -0.665999 -0.665999
-0.11652 -0.675965 -0.675965
-0.118008 -0.69553 -0.69553
-0.0847776 -0.695048 -0.695048
-0.0836936 -0.675475 -0.675475
-0.117265 -0.685717 -0.685717
-0.101385 -0.695264 -0.695264
-0.0842363 -0.685232 -0.685232
-0.100099 -0.675694 -0.675694
-0.100743 -0.685449 -0.685449
-0.118008 -0.69553 -0.69553
-0.119486 -0.715333 -0.715333
-0.0858558 -0.714859 -0.714859
-0.0847776 -0.695048 -0.695048
-0.118748 -0.705402 -0.705402
-0.102663 -0.715071 -0.715071
-0.0853174 -0.704924 -0.704924
-0.101385 -0.695264 -0.695264
-0.102025 -0.705138 -0.705138
-0.119486 -0.715333 -0.715333
-0.120956 -0.735372 -0.735372
-0.0869281 -0.734906 -0.734906
-0.0858558 -0.714859 -0.714859
-0.120222 -0.725323 -0.725323
-0.103934 -0.735114 -0.735114
-0.0863927 -0.724853 -0.724853
-0.102663 -0.715071 -0.715071
-0.1033 -0.725063 -0.725063
-0.120956 -0.735372 -0.735372
-0.122416 -0.755646 -0.755646
-0.0879947 -0.755187 -0.755187
-0.0869281 -0.734906 -0.734906
-0.121687 -0.74548 -0.74548
-0.105198 -0.755392 -0.755392
-0.0874621 -0.745018 -0.745018
-0.103934 -0.735114 -0.735114
-0.104567 -0.745224 -0.745224
-0.122416 -0.755646 -0.755646
-0.123868 -0.776152 -0.776152
-0.0890554 -0.775701 -0.775701
-0.0879947 -0.755187 -0.755187
-0.123143 -0.76587 -0.76587
-0.106454 -0.775902 -0.775902
-0.0885258 -0.765415 -0.765415
-0.105198 -0.755392 -0.755392
-0.105827 -0.765618 -0.765618
-0.123868 -0.776152 -0.776152
-0.125311 -0.796888 -0.796888
-0.0901104 -0.796446 -0.796446
-0.0890554 -0.775701 -0.775701
-0.124591 -0.786491 -0.786491
-0.107703 -0.796643 -0.796643
-0.0895836 -0.786045 -0.786045
-0.106454 -0.775902 -0.775902
-0.107079 -0.786243 -0.786243
-0.125311 -0.796888 -0.796888
-0.126745 -0.817854 -0.817854
-0.0911595 -0.817419 -0.817419
-0.0901104 -0.796446 -0.796446
-0.126029 -0.807343 -0.807343
-0.108945 -0.817612 -0.817612
-0.0906357 -0.806904 -0.806904
-0.107703 -0.796643 -0.796643
-0.108325 -0.807099 -0.807099
-0.126745 -0.817854 -0.817854
-0.12817 -0.839046 -0.839046
-0.0922029 -0.838619 -0.838619
-0.0911595 -0.817419 -0.817419
-0.127459 -0.828422 -0.828422
-0.110179 -0.838809 -0.838809
-0.0916819 -0.827991 -0.827991
-0.108945 -0.817612 -0.817612
-0.109563 -0.828182 -0.828182
-0.12817 -0.839046 -0.839046
-0.129587 -0.860464 -0.860464
-0.0932404 -0.860045 -0.860045
-0.0922029 -0.838619 -0.838619
-0.12888 -0.849727 -0.849727
-0.111406 -0.86023 -0.86023
-0.0927224 -0.849304 -0.849304
-0.110179 -0.838809 -0.838809
-0.110793 -0.849492 -0.849492
-0.129587 -0.860464 -0.860464
-0.130994 -0.882105 -0.882105
-0.0942722 -0.881694 -0.881694
-0.0932404 -0.860045 -0.860045
-0.130292 -0.871257 -0.871257
-0.112625 -0.881876 -0.881876
-0.093757 -0.870841 -0.870841
-0.111406 -0.86023 -0.86023
-0.112017 -0.871025 -0.871025
-0.130994 -0.882105 -0.882105
-0.132393 -0.903968 -0.903968
-0.0952982 -0.903564 -0.903564
-0.0942722 -0.881694 -0.881694
-0.131695 -0.893009 -0.893009
-0.113838 -0.903742 -0.903742
-0.094786 -0.892601 -0.892601
-0.112625 -0.881876 -0.881876
-0.113233 -0.892781 -0.892781
-0.132393 -0.903968 -0.903968
-0.133783 -0.92605 -0.92605
-0.0963185 -0.925654 -0.925654
-0.0952982 -0.903564 -0.903564
-0.133089 -0.914981 -0.914981
-0.115043 -0.925829 -0.925829
-0.0958091 -0.914582 -0.914582
-0.113838 -0.903742 -0.903742
-0.114441 -0.914758 -0.914758
-0.133783 -0.92605 -0.92605
-0.135164 -0.94835 -0.94835
-0.097333 -0.947963 -0.947963
-0.0963185 -0.925654 -0.925654
-0.134474 -0.937173 -0.937173
-0.116241 -0.948133 -0.948133
-0.0968264 -0.936781 -0.936781
-0.115043 -0.925829 -0.925829
-0.115643 -0.936954 -0.936954
-0.135164 -0.94835 -0.94835
-0.136536 -0.970867 -0.970867
-0.0983417 -0.970487 -0.970487
-0.097333 -0.947963 -0.947963
-0.135851 -0.959582 -0.959582
-0.117431 -0.970654 -0.970654
-0.097838 -0.959198 -0.959198
-0.116241 -0.948133 -0.948133
-0.116837 -0.959367 -0.959367
-0.136536 -0.970867 -0.970867
-0.137899 -0.993597 -0.993597
-0.0993446 -0.993226 -0.993226
-0.0983417 -0.970487 -0.970487
-0.137219 -0.982205 -0.982205
-0.118614 -0.993389 -0.993389
-0.0988439 -0.98183 -0.98183
-0.117431 -0.970654 -0.970654
-0.118024 -0.981995 -0.981995
-0.137899 -0.993597 -0.993597
-0.139254 -1.01654 -1.01654
-0.100342 -1.01618 -1.01618
-0.0993446 -0.993226 -0.993226
-0.138578 -1.00504 -1.00504
-0.11979 -1.01634 -1.01634
-0.0998439 -1.00467 -1.00467
-0.118614 -0.993389 -0.993389
-0.119203 -1.00484 -1.00484
-0.139254 -1.01654 -1.01654
-0.140599 -1.03969 -1.03969
-0.101333 -1.03934 -1.03934
-0.100342 -1.01618 -1.01618
-0.139928 -1.02809 -1.02809
-0.120959 -1.03949 -1.03949
-0.100838 -1.02773 -1.02773
-0.11979 -1.01634 -1.01634
-0.120375 -1.02789 -1.02789
-0.140599 -1.03969 -1.03969
-0.141936 -1.06306 -1.06306
-0.102319 -1.06271 -1.06271
-0.101333 -1.03934 -1.03934
-0.141269 -1.05135 -1.05135
-0.12212 -1.06286 -1.06286
-0.101827 -1.051 -1.051
-0.120959 -1.03949 -1.03949
-0.12154 -1.05115 -1.05115
-0.141936 -1.06306 -1.06306
-0.143264 -1.08663 -1.08663
-0.103299 -1.08629 -1.08629
-0.102319 -1.06271 -1.06271
-0.142601 -1.07482 -1.07482
-0.123274 -1.08644 -1.08644
-0.10281 -1.07447 -1.07447
-0.12212 -1.06286 -1.06286
-0.122698 -1.07462 -1.07462
-0.143264 -1.08663 -1.08663
-0.144583 -1.1104 -1.1104
-0.104273 -1.11007 -1.11007
-0.103299 -1.08629 -1.08629
-0.143925 -1.09849 -1.09849
-0.12442 -1.11021 -1.11021
-0.103787 -1.09815 -1.09815
-0.123274 -1.08644 -1.08644
-0.123848 -1.0983 -1.0983
-0.144583 -1.1104 -1.1104
-0.145894 -1.13438 -1.13438
-0.105241 -1.13406 -1.13406
-0.104273 -1.11007 -1.11007
-0.14524 -1.12237 -1.12237
-0.12556 -1.1342 -1.1342
-0.104758 -1.12204 -1.12204
-0.12442 -1.11021 -1.11021
-0.124991 -1.12218 -1.12218
-0.145894 -1.13438 -1.13438
-0.147195 -1.15856 -1.15856
-0.106204 -1.15824 -1.15824
-0.105241 -1.13406 -1.13406
-0.146546 -1.14645 -1.14645
-0.126692 -1.15838 -1.15838
-0.105723 -1.14613 -1.14613
-0.12556 -1.1342 -1.1342
-0.126127 -1.14626 -1.14626
-0.147195 -1.15856 -1.15856
-0.148488 -1.18294 -1.18294
-0.107161 -1.18263 -1.18263
-0.106204 -1.15824 -1.15824
-0.147843 -1.17073 -1.17073
-0.127817 -1.18277 -1.18277
-0.106683 -1.17041 -1.17041
-0.126692 -1.15838 -1.15838
-0.127255 -1.17055 -1.17055
-0.148488 -1.18294 -1.18294
-0.149772 -1.20752 -1.20752
-0.108112 -1.20722 -1.20722
-0.107161 -1.18263 -1.18263
-0.149131 -1.19521 -1.19521
-0.128934 -1.20735 -1.20735
-0.107637 -1.1949 -1.1949
-0.127817 -1.18277 -1.18277
-0.128376 -1.19503 -1.19503
-0.149772 -1.20752 -1.20752
-0.151047 -1.23229 -1.23229
-0.109057 -1.232 -1.232
-0.108112 -1.20722 -1.20722
-0.150411 -1.21988 -1.21988
-0.130044 -1.23213 -1.23213
-0.108585 -1.21959 -1.21959
-0.128934 -1.20735 -1.20735
-0.12949 -1.21971 -1.21971
-0.151047 -1.23229 -1.23229
-0.152313 -1.25726 -1.25726
-0.109997 -1.25698 -1.25698
-0.109057 -1.232 -1.232
-0.151681 -1.24475 -1.24475
-0.131147 -1.2571 -1.2571
-0.109528 -1.24446 -1.24446
-0.130044 -1.23213 -1.23213
-0.130597 -1.24459 -1.24459
-0.152313 -1.25726 -1.25726
-0.153571 -1.28242 -1.28242
-0.110931 -1.28215 -1.28215
-0.109997 -1.25698 -1.25698
-0.152943 -1.26982 -1.26982
-0.132243 -1.28226 -1.28226
-0.110465 -1.26954 -1.26954
-0.131147 -1.2571 -1.2571
-0.131696 -1.26966 -1.26966
-0.153571 -1.28242 -1.28242
-0.154819 -1.30778 -1.30778
-0.111859 -1.30751 -1.30751
-0.110931 -1.28215 -1.28215
-0.154196 -1.29508 -1.29508
-0.133331 -1.30762 -1.30762
-0.111395 -1.2948 -1.2948
-0.132243 -1.28226 -1.28226
-0.132788 -1.29492 -1.29492
-0.154819 -1.30778 -1.30778
-0.156059 -1.33332 -1.33332
-0.112781 -1.33305 -1.33305
-0.111859 -1.30751 -1.30751
-0.15544 -1.32052 -1.32052
-0.134412 -1.33317 -1.33317
-0.112321 -1.32026 -1.32026
-0.133331 -1.30762 -1.30762
-0.133873 -1.32037 -1.32037
-0.156059 -1.33332 -1.33332
-0.15729 -1.35904 -1.35904
-0.113697 -1.35879 -1.35879
-0.112781 -1.33305 -1.33305
-0.156675 -1.34616 -1.34616
-0.135486 -1.3589 -1.3589
-0.11324 -1.3459 -1.3459
-0.134412 -1.33317 -1.33317
-0.13495 -1.34601 -1.34601
-0.15729 -1.35904 -1.35904
-0.158512 -1.38496 -1.38496
-0.114608 -1.38471 -1.38471
-0.113697 -1.35879 -1.35879
-0.157902 -1.37198 -1.37198
-0.136552 -1.38481 -1.38481
-0.114153 -1.37173 -1.37173
-0.135486 -1.3589 -1.3589
-0.13602 -1.37183 -1.37183
-0.158512 -1.38496 -1.38496
-0.159725 -1.41105 -1.41105
-0.115513 -1.41082 -1.41082
-0.114608 -1.38471 -1.38471
-0.159119 -1.39798 -1.39798
-0.137611 -1.41092 -1.41092
-0.115061 -1.39774 -1.39774
-0.136552 -1.38481 -1.38481
-0.137082 -1.39784 -1.39784
-0.159725 -1.41105 -1.41105
-0.160929 -1.43733 -1.43733
-0.116412 -1.4371 -1.4371
-0.115513 -1.41082 -1.41082
-0.160328 -1.42417 -1.42417
-0.138663 -1.4372 -1.4372
-0.115963 -1.42394 -1.42394
-0.137611 -1.41092 -1.41092
-0.138138 -1.42403 -1.42403
-0.160929 -1.43733 -1.43733
-0.162124 -1.46379 -1.46379
-0.117305 -1.46357 -1.46357
-0.116412 -1.4371 -1.4371
-0.161528 -1.45054 -1.45054
-0.139707 -1.46366 -1.46366
-0.116859 -1.45031 -1.45031
-0.138663 -1.4372 -1.4372
-0.139186 -1.45041 -1.45041
-0.162124 -1.46379 -1.46379
-0.163311 -1.49043 -1.49043
-0.118193 -1.49021 -1.49021
-0.117305 -1.46357 -1.46357
-0.162719 -1.47709 -1.47709
-0.140744 -1.4903 -1.4903
-0.11775 -1.47687 -1.47687
-0.139707 -1.46366 -1.46366
-0.140226 -1.47696 -1.47696
-0.163311 -1.49043 -1.49043
-0.164488 -1.51724 -1.51724
-0.119074 -1.51703 -1.51703
-0.118193 -1.49021 -1.49021
-0.163901 -1.50381 -1.50381
-0.141774 -1.51712 -1.51712
-0.118634 -1.5036 -1.5036
-0.140744 -1.4903 -1.4903
-0.14126 -1.50369 -1.50369
-0.164488 -1.51724 -1.51724
-0.165657 -1.54423 -1.54423
-0.11995 -1.54403 -1.54403
-0.119074 -1.51703 -1.51703
-0.165074 -1.53071 -1.53071
-0.142796 -1.54411 -1.54411
-0.119513 -1.53051 -1.53051
-0.141774 -1.51712 -1.51712
-0.142286 -1.53059 -1.53059
-0.165657 -1.54423 -1.54423
-0.166817 -1.57139 -1.57139
-0.12082 -1.57119 -1.57119
-0.11995 -1.54403 -1.54403
-0.166238 -1.55778 -1.55778
-0.143811 -1.57127 -1.57127
-0.120386 -1.55759 -1.55759
-0.142796 -1.54411 -1.54411
-0.143304 -1.55767 -1.55767
-0.166817 -1.57139 -1.57139
-0.167968 -1.59872 -1.59872
-0.121684 -1.59853 -1.59853
-0.12082 -1.57119 -1.57119
-0.167393 -1.58503 -1.58503
-0.144818 -1.59861 -1.59861
-0.121253 -1.58484 -1.58484
-0.143811 -1.57127 -1.57127
-0.144315 -1.58492 -1.58492
-0.167968 -1.59872 -1.59872
-0.16911 -1.62622 -1.62622
-0.122543 -1.62604 -1.62604
-0.121684 -1.59853 -1.59853
-0.16854 -1.61244 -1.61244
-0.145818 -1.62611 -1.62611
-0.122114 -1.61226 -1.61226
-0.144818 -1.59861 -1.59861
-0.145319 -1.61234 -1.61234
-0.16911 -1.62622 -1.62622
-0.170243 -1.65388 -1.65388
-0.123395 -1.65371 -1.65371
-0.122543 -1.62604 -1.62604
-0.169677 -1.64003 -1.64003
-0.146811 -1.65378 -1.65378
-0.12297 -1.63986 -1.63986
-0.145818 -1.62611 -1.62611
-0.146316 -1.63992 -1.63992
-0.170243 -1.65388 -1.65388
-0.171367 -1.68171 -1.68171
-0.124242 -1.68155 -1.68155
-0.123395 -1.65371 -1.65371
-0.170806 -1.66778 -1.66778
-0.147797 -1.68162 -1.68162
-0.123819 -1.66761 -1.66761
-0.146811 -1.65378 -1.65378
-0.147305 -1.66768 -1.66768
-0.171367 -1.68171 -1.68171
-0.172482 -1.70971 -1.70971
-0.125082 -1.70956 -1.70956
-0.124242 -1.68155 -1.68155
-0.171926 -1.69569 -1.69569
-0.148775 -1.70961 -1.70961
-0.124663 -1.69553 -1.69553
-0.147797 -1.68162 -1.68162
-0.148286 -1.69559 -1.69559
-0.172482 -1.70971 -1.70971
-0.173588 -1.73787 -1.73787
-0.125917 -1.73772 -1.73772
-0.125082 -1.70956 -1.70956
-0.173036 -1.72377 -1.72377
-0.149745 -1.73778 -1.73778
-0.125501 -1.72362 -1.72362
-0.148775 -1.70961 -1.70961
-0.149261 -1.72368 -1.72368
-0.173588 -1.73787 -1.73787
-0.174686 -1.76618 -1.76618
-0.126746 -1.76604 -1.76604
-0.125917 -1.73772 -1.73772
-0.174138 -1.752 -1.752
-0.150708 -1.7661 -1.7661
-0.126332 -1.75186 -1.75186
-0.149745 -1.73778 -1.73778
-0.150228 -1.75192 -1.75192
-0.174686 -1.76618 -1.76618
-0.175774 -1.79466 -1.79466
-0.127569 -1.79453 -1.79453
-0.126746 -1.76604 -1.76604
-0.175231 -1.7804 -1.7804
-0.151664 -1.79458 -1.79458
-0.127158 -1.78027 -1.78027
-0.150708 -1.7661 -1.7661
-0.151187 -1.78032 -1.78032
-0.175774 -1.79466 -1.79466
-0.176853 -1.82329 -1.82329
-0.128386 -1.82317 -1.82317
-0.127569 -1.79453 -1.79453
-0.176315 -1.80895 -1.80895
-0.152612 -1.82321 -1.82321
-0.127979 -1.80883 -1.80883
-0.151664 -1.79458 -1.79458
-0.152139 -1.80887 -1.80887
-0.176853 -1.82329 -1.82329
-0.177923 -1.85207 -1.85207
-0.129198 -1.85196 -1.85196
-0.128386 -1.82317 -1.82317
-0.177389 -1.83766 -1.83766
-0.153553 -1.852 -1.852
-0.128793 -1.83754 -1.83754
-0.152612 -1.82321 -1.82321
-0.153083 -1.83759 -1.83759
-0.177923 -1.85207 -1.85207
-0.178985 -1.88101 -1.88101
-0.130003 -1.88091 -1.88091
-0.129198 -1.85196 -1.85196
-0.178455 -1.86652 -1.86652
-0.154486 -1.88094 -1.88094
-0.129601 -1.86641 -1.86641
-0.153553 -1.852 -1.852
-0.15402 -1.86645 -1.86645
-0.178985 -1.88101 -1.88101
-0.180037 -1.9101 -1.9101
-0.130802 -1.91 -1.91
-0.130003 -1.88091 -1.88091
-0.179512 -1.89554 -1.89554
-0.155412 -1.91004 -1.91004
-0.130403 -1.89543 -1.89543
-0.154486 -1.88094 -1.88094
-0.15495 -1.89547 -1.89547
-0.180037 -1.9101 -1.9101
-0.18108 -1.93934 -1.93934
-0.131595 -1.93925 -1.93925
-0.130802 -1.91 -1.91
-0.18056 -1.9247 -1.9247
-0.15633 -1.93928 -1.93928
-0.1312 -1.92461 -1.92461
-0.155412 -1.91004 -1.91004
-0.155872 -1.92464 -1.92464
-0.18108 -1.93934 -1.93934
-0.182115 -1.96872 -1.96872
-0.132383 -1.96864 -1.96864
-0.131595 -1.93925 -1.93925
-0.181599 -1.95401 -1.95401
-0.157241 -1.96867 -1.96867
-0.13199 -1.95393 -1.95393
-0.15633 -1.93928 -1.93928
-0.156787 -1.95395 -1.95395
-0.182115 -1.96872 -1.96872
-0.18314 -1.99826 -1.99826
-0.133164 -1.99818 -1.99818
-0.132383 -1.96864 -1.96864
-0.182628 -1.98347 -1.98347
-0.158144 -1.9982 -1.9982
-0.132774 -1.98339 -1.98339
-0.157241 -1.96867 -1.96867
-0.157694 -1.98342 -1.98342
-0.18314 -1.99826 -1.99826
-0.184156 -2.02793 -2.02793
-0.13394 -2.02786 -2.02786
-0.133164 -1.99818 -1.99818
-0.183649 -2.01307 -2.01307
-0.15904 -2.02788 -2.02788
-0.133553 -2.013 -2.013
-0.158144 -1.9982 -1.9982
-0.158593 -2.01302 -2.01302
-0.184156 -2.02793 -2.02793
-0.185163 -2.05775 -2.05775
-0.134709 -2.05768 -2.05768
-0.13394 -2.02786 -2.02786
-0.18466 -2.04282 -2.04282
-0.159928 -2.0577 -2.0577
-0.134325 -2.04275 -2.04275
-0.15904 -2.02788 -2.02788
-0.159485 -2.04277 -2.04277
-0.185163 -2.05775 -2.05775
-0.186161 -2.0877 -2.0877
-0.135472 -2.08765 -2.08765
-0.134709 -2.05768 -2.05768
-0.185663 -2.07271 -2.07271
-0.160809 -2.08766 -2.08766
-0.135091 -2.07265 -2.07265
-0.159928 -2.0577 -2.0577
-0.160369 -2.07266 -2.07266
-0.186161 -2.0877 -2.0877
-0.18715 -2.1178 -2.1178
-0.13623 -2.11775 -2.11775
-0.135472 -2.08765 -2.08765
-0.186656 -2.10273 -2.10273
-0.161682 -2.11776 -2.11776
-0.135852 -2.10268 -2.10268
-0.160809 -2.08766 -2.08766
-0.161246 -2.10269 -2.10269
-0.18715 -2.1178 -2.1178
-0.188129 -2.14803 -2.14803
-0.136981 -2.14799 -2.14799
-0.13623 -2.11775 -2.11775
-0.187641 -2.13289 -2.13289
-0.162547 -2.14799 -2.14799
-0.136606 -2.13285 -2.13285
-0.161682 -2.11776 -2.11776
-0.162116 -2.13286 -2.13286
-0.188129 -2.14803 -2.14803
-0.1891 -2.17839 -2.17839
-0.137726 -2.17836 -2.17836
-0.136981 -2.14799 -2.14799
-0.188616 -2.16319 -2.16319
-0.163405 -2.17836 -2.17836
-0.137354 -2.16316 -2.16316
-0.162547 -2.14799 -2.14799
-0.162977 -2.16316 -2.16316
-0.1891 -2.17839 -2.17839
-0.190061 -2.20889 -2.20889
-0.138465 -2.20886 -2.20886
-0.137726 -2.17836 -2.17836
-0.189582 -2.19362 -2.19362
-0.164256 -2.20886 -2.20886
-0.138096 -2.19359 -2.19359
-0.163405 -2.17836 -2.17836
-0.163831 -2.19359 -2.19359
-0.190061 -2.20889 -2.20889
-0.191014 -2.23952 -2.23952
-0.139198 -2.2395 -2.2395
-0.138465 -2.20886 -2.20886
-0.190539 -2.22419 -2.22419
-0.165098 -2.23949 -2.23949
-0.138832 -2.22416 -2.22416
-0.164256 -2.20886 -2.20886
-0.164678 -2.22416 -2.22416
-0.191014 -2.23952 -2.23952
-0.191957 -2.27027 -2.27027
-0.139925 -2.27026 -2.27026
-0.139198 -2.2395 -2.2395
-0.191486 -2.25488 -2.25488
-0.165933 -2.27026 -2.27026
-0.139562 -2.25487 -2.25487
-0.165098 -2.23949 -2.23949
-0.165517 -2.25486 -2.25486
-0.191957 -2.27027 -2.27027
-0.192891 -2.30116 -2.30116
-0.140646 -2.30116 -2.30116
-0.139925 -2.27026 -2.27026
-0.192425 -2.2857 -2.2857
-0.166761 -2.30114 -2.30114
-0.140286 -2.28569 -2.28569
-0.165933 -2.27026 -2.27026
-0.166348 -2.28568 -2.28568
-0.192891 -2.30116 -2.30116
-0.193815 -2.33217 -2.33217
-0.141361 -2.33217 -2.33217
-0.140646 -2.30116 -2.30116
-0.193354 -2.31665 -2.31665
-0.16758 -2.33216 -2.33216
-0.141004 -2.31665 -2.31665
-0.166761 -2.30114 -2.30114
-0.167171 -2.31664 -2.31664
-0.193815 -2.33217 -2.33217
-0.194731 -2.3633 -2.3633
-0.142069 -2.36331 -2.36331
-0.141361 -2.33217 -2.33217
-0.194274 -2.34772 -2.34772
-0.168392 -2.3633 -2.3633
-0.141716 -2.34773 -2.34773
-0.16758 -2.33216 -2.33216
-0.167987 -2.34771 -2.34771
-0.194731 -2.3633 -2.3633
-0.195637 -2.39456 -2.39456
-0.142771 -2.39458 -2.39458
-0.142069 -2.36331 -2.36331
-0.195185 -2.37892 -2.37892
-0.169196 -2.39455 -2.39455
-0.142421 -2.37893 -2.37893
-0.168392 -2.3633 -2.3633
-0.168795 -2.37891 -2.37891
-0.195637 -2.39456 -2.39456
-0.196534 -2.42593 -2.42593
-0.143467 -2.42596 -2.42596
-0.142771 -2.39458 -2.39458
-0.196087 -2.41023 -2.41023
-0.169993 -2.42593 -2.42593
-0.14312 -2.41025 -2.41025
-0.169196 -2.39455 -2.39455
-0.169596 -2.41023 -2.41023
-0.196534 -2.42593 -2.42593
-0.197422 -2.45743 -2.45743
-0.144157 -2.45746 -2.45746
-0.143467 -2.42596 -2.42596
-0.196979 -2.44167 -2.44167
-0.170782 -2.45743 -2.45743
-0.143813 -2.44169 -2.44169
-0.169993 -2.42593 -2.42593
-0.170388 -2.44167 -2.44167
-0.197422 -2.45743 -2.45743
-0.1983 -2.48904 -2.48904
-0.144841 -2.48908 -2.48908
-0.144157 -2.45746 -2.45746
-0.197862 -2.47322 -2.47322
-0.171563 -2.48904 -2.48904
-0.1445 -2.47325 -2.47325
-0.170782 -2.45743 -2.45743
-0.171173 -2.47322 -2.47322
-0.1983 -2.48904 -2.48904
-0.199169 -2.52076 -2.52076
-0.145518 -2.52081 -2.52081
-0.144841 -2.48908 -2.48908
-0.198736 -2.50488 -2.50488
-0.172336 -2.52077 -2.52077
-0.145181 -2.50493 -2.50493
-0.171563 -2.48904 -2.48904
-0.17195 -2.50489 -2.50489
-0.199169 -2.52076 -2.52076
-0.200029 -2.5526 -2.5526
-0.14619 -2.55265 -2.55265
-0.145518 -2.52081 -2.52081
-0.1996 -2.53667 -2.53667
-0.173101 -2.55261 -2.55261
-0.145855 -2.53672 -2.53672
-0.172336 -2.52077 -2.52077
-0.17272 -2.53668 -2.53668
-0.200029 -2.5526 -2.5526
-0.200879 -2.58455 -2.58455
-0.146855 -2.58461 -2.58461
-0.14619 -2.55265 -2.55265
-0.200455 -2.56856 -2.56856
-0.173859 -2.58457 -2.58457
-0.146523 -2.56862 -2.56862
-0.173101 -2.55261 -2.55261
-0.173481 -2.56858 -2.56858
-0.200879 -2.58455 -2.58455
-0.20172 -2.6166 -2.6166
-0.147513 -2.61667 -2.61667
-0.146855 -2.58461 -2.58461
-0.201301 -2.60056 -2.60056
-0.174609 -2.61663 -2.61663
-0.147185 -2.60063 -2.60063
-0.173859 -2.58457 -2.58457
-0.174235 -2.60058 -2.60058
-0.20172 -2.6166 -2.6166
-0.202552 -2.64877 -2.64877
-0.148165 -2.64884 -2.64884
-0.147513 -2.61667 -2.61667
-0.202137 -2.63267 -2.63267
-0.175351 -2.64879 -2.64879
-0.14784 -2.63274 -2.63274
-0.174609 -2.61663 -2.61663
-0.174981 -2.6327 -2.6327
-0.202552 -2.64877 -2.64877
-0.203374 -2.68104 -2.68104
-0.148811 -2.68112 -2.68112
-0.148165 -2.64884 -2.64884
-0.202964 -2.66489 -2.66489
-0.176085 -2.68107 -2.68107
-0.148489 -2.66497 -2.66497
-0.175351 -2.64879 -2.64879
-0.175719 -2.66492 -2.66492
-0.203374 -2.68104 -2.68104
-0.204187 -2.71341 -2.71341
-0.149451 -2.7135 -2.7135
-0.148811 -2.68112 -2.68112
-0.203782 -2.69721 -2.69721
-0.176811 -2.71345 -2.71345
-0.149132 -2.6973 -2.6973
-0.176085 -2.68107 -2.68107
-0.176449 -2.69724 -2.69724
-0.204187 -2.71341 -2.71341
-0.20499 -2.74589 -2.74589
-0.150084 -2.74598 -2.74598
-0.149451 -2.7135 -2.7135
-0.20459 -2.72964 -2.72964
-0.17753 -2.74592 -2.74592
-0.149768 -2.72973 -2.72973
-0.176811 -2.71345 -2.71345
-0.177171 -2.72967 -2.72967
-0.20499 -2.74589 -2.74589
-0.205784 -2.77846 -2.77846
-0.150711 -2.77856 -2.77856
-0.150084 -2.74598 -2.74598
-0.205388 -2.76216 -2.76216
-0.17824 -2.7785 -2.7785
-0.150398 -2.76226 -2.76226
-0.17753 -2.74592 -2.74592
-0.177886 -2.7622 -2.7622
-0.205784 -2.77846 -2.77846
-0.206569 -2.81114 -2.81114
-0.151331 -2.81124 -2.81124
-0.150711 -2.77856 -2.77856
-0.206178 -2.79479 -2.79479
-0.178942 -2.81118 -2.81118
-0.151022 -2.79489 -2.79489
-0.17824 -2.7785 -2.7785
-0.178592 -2.79483 -2.79483
-0.206569 -2.81114 -2.81114
-0.207344 -2.84391 -2.84391
-0.151945 -2.84402 -2.84402
-0.151331 -2.81124 -2.81124
-0.206957 -2.82751 -2.82751
-0.179637 -2.84395 -2.84395
-0.151639 -2.82762 -2.82762
-0.178942 -2.81118 -2.81118
-0.179291 -2.82755 -2.82755
-0.207344 -2.84391 -2.84391
-0.208109 -2.87677 -2.87677
-0.152553 -2.87689 -2.87689
-0.151945 -2.84402 -2.84402
-0.207728 -2.86033 -2.86033
-0.180323 -2.87682 -2.87682
-0.15225 -2.86045 -2.86045
-0.179637 -2.84395 -2.84395
-0.179981 -2.86038 -2.86038
-0.208109 -2.87677 -2.87677
-0.208865 -2.90973 -2.90973
-0.153154 -2.90986 -2.90986
-0.152553 -2.87689 -2.87689
-0.208488 -2.89324 -2.89324
-0.181002 -2.90978 -2.90978
-0.152854 -2.89336 -2.89336
-0.180323 -2.87682 -2.87682
-0.180664 -2.89329 -2.89329
-0.208865 -2.90973 -2.90973
-0.209611 -2.94278 -2.94278
-0.153749 -2.94291 -2.94291
-0.153154 -2.90986 -2.90986
-0.209239 -2.92624 -2.92624
-0.181672 -2.94283 -2.94283
-0.153452 -2.92637 -2.92637
-0.181002 -2.90978 -2.90978
-0.181338 -2.9263 -2.9263
-0.209611 -2.94278 -2.94278
-0.210348 -2.97591 -2.97591
-0.154337 -2.97606 -2.97606
-0.153749 -2.94291 -2.94291
-0.209981 -2.95933 -2.95933
-0.182335 -2.97597 -2.97597
-0.154044 -2.95947 -2.95947
-0.181672 -2.94283 -2.94283
-0.182005 -2.95939 -2.95939
-0.210348 -2.97591 -2.97591
-0.211075 -3.00914 -3.00914
-0.154918 -3.00929 -3.00929
-0.154337 -2.97606 -2.97606
-0.210713 -2.99251 -2.99251
-0.182989 -3.0092 -3.0092
-0.154628 -2.99266 -2.99266
-0.182335 -2.97597 -2.97597
-0.182663 -2.99258 -2.99258
-0.211075 -3.00914 -3.00914
-0.211793 -3.04245 -3.04245
-0.155493 -3.0426 -3.0426
-0.154918 -3.00929 -3.00929
-0.211435 -3.02578 -3.02578
-0.183635 -3.04252 -3.04252
-0.155207 -3.02593 -3.02593
-0.182989 -3.0092 -3.0092
-0.183313 -3.02585 -3.02585
-0.211793 -3.04245 -3.04245
-0.212501 -3.07584 -3.07584
-0.156062 -3.076 -3.076
-0.155493 -3.0426 -3.0426
-0.212148 -3.05913 -3.05913
-0.184274 -3.07591 -3.07591
-0.155778 -3.05929 -3.05929
-0.183635 -3.04252 -3.04252
-0.183956 -3.0592 -3.0592
-0.212501 -3.07584 -3.07584
-0.213199 -3.10932 -3.10932
-0.156624 -3.10949 -3.10949
-0.156062 -3.076 -3.076
-0.212851 -3.09257 -3.09257
-0.184904 -3.10939 -3.10939
-0.156344 -3.09273 -3.09273
-0.184274 -3.07591 -3.07591
-0.18459 -3.09264 -3.09264
-0.213199 -3.10932 -3.10932
-0.213888 -3.14287 -3.14287
-0.157179 -3.14305 -3.14305
-0.156624 -3.10949 -3.10949
-0.213545 -3.12608 -3.12608
-0.185526 -3.14295 -3.14295
-0.156902 -3.12626 -3.12626
-0.184904 -3.10939 -3.10939
-0.185216 -3.12616 -3.12616
-0.213888 -3.14287 -3.14287
-0.214566 -3.17651 -3.17651
-0.157727 -3.17669 -3.17669
-0.157179 -3.14305 -3.14305
-0.214228 -3.15968 -3.15968
-0.186139 -3.17659 -3.17659
-0.157454 -3.15986 -3.15986
-0.185526 -3.14295 -3.14295
-0.185833 -3.15976 -3.15976
-0.214566 -3.17651 -3.17651
-0.215236 -3.21022 -3.21022
-0.158269 -3.2104 -3.2104
-0.157727 -3.17669 -3.17669
-0.214902 -3.19335 -3.19335
-0.186745 -3.2103 -3.2103
-0.157999 -3.19354 -3.19354
-0.186139 -3.17659 -3.17659
-0.186443 -3.19344 -3.19344
-0.215236 -3.21022 -3.21022
-0.215895 -3.244 -3.244
-0.158805 -3.2442 -3.2442
-0.158269 -3.2104 -3.2104
-0.215567 -3.2271 -3.2271
-0.187342 -3.24409 -3.24409
-0.158538 -3.22729 -3.22729
-0.186745 -3.2103 -3.2103
-0.187045 -3.22719 -3.22719
-0.215895 -3.244 -3.244
-0.216545 -3.27786 -3.27786
-0.159333 -3.27806 -3.27806
-0.158805 -3.2442 -3.2442
-0.216221 -3.26092 -3.26092
-0.187931 -3.27795 -3.27795
-0.15907 -3.26112 -3.26112
-0.187342 -3.24409 -3.24409
-0.187638 -3.26101 -3.26101
-0.216545 -3.27786 -3.27786
-0.217185 -3.31179 -3.31179
-0.159855 -3.31199 -3.31199
-0.159333 -3.27806 -3.27806
-0.216866 -3.29481 -3.29481
-0.188512 -3.31188 -3.31188
-0.159595 -3.29502 -3.29502
-0.187931 -3.27795 -3.27795
-0.188223 -3.29491 -3.29491
-0.217185 -3.31179 -3.31179
-0.217815 -3.34579 -3.34579
-0.16037 -3.346 -3.346
-0.159855 -3.31199 -3.31199
-0.217501 -3.32878 -3.32878
-0.189085 -3.34588 -3.34588
-0.160113 -3.32899 -3.32899
-0.188512 -3.31188 -3.31188
-0.188799 -3.32888 -3.32888
-0.217815 -3.34579 -3.34579
-0.218435 -3.37985 -3.37985
-0.160878 -3.38007 -3.38007
-0.16037 -3.346 -3.346
-0.218126 -3.36281 -3.36281
-0.189649 -3.37995 -3.37995
-0.160625 -3.36303 -3.36303
-0.189085 -3.34588 -3.34588
-0.189368 -3.36291 -3.36291
-0.218435 -3.37985 -3.37985
-0.219045 -3.41398 -3.41398
-0.16138 -3.41421 -3.41421
-0.160878 -3.38007 -3.38007
-0.218741 -3.39691 -3.39691
-0.190205 -3.41409 -3.41409
-0.16113 -3.39713 -3.39713
-0.189649 -3.37995 -3.37995
-0.189928 -3.39701 -3.39701
-0.219045 -3.41398 -3.41398
-0.219646 -3.44818 -3.44818
-0.161875 -3.44841 -3.44841
-0.16138 -3.41421 -3.41421
-0.219347 -3.43107 -3.43107
-0.190752 -3.44828 -3.44828
-0.161628 -3.4313 -3.4313
-0.190205 -3.41409 -3.41409
-0.19048 -3.43118 -3.43118
-0.219646 -3.44818 -3.44818
-0.220236 -3.48243 -3.48243
-0.162363 -3.48267 -3.48267
-0.161875 -3.44841 -3.44841
-0.219942 -3.4653 -3.4653
-0.191292 -3.48254 -3.48254
-0.162119 -3.46553 -3.46553
-0.190752 -3.44828 -3.44828
-0.191023 -3.46541 -3.46541
-0.220236 -3.48243 -3.48243
-0.220817 -3.51675 -3.51675
-0.162844 -3.51699 -3.51699
-0.162363 -3.48267 -3.48267
-0.220528 -3.49958 -3.49958
-0.191823 -3.51686 -3.51686
-0.162604 -3.49982 -3.49982
-0.191292 -3.48254 -3.48254
-0.191558 -3.4997 -3.4997
-0.220817 -3.51675 -3.51675
-0.221387 -3.55112 -3.55112
-0.163318 -3.55137 -3.55137
-0.162844 -3.51699 -3.51699
-0.221103 -3.53393 -3.53393
-0.192345 -3.55124 -3.55124
-0.163081 -3.53417 -3.53417
-0.191823 -3.51686 -3.51686
-0.192085 -3.53405 -3.53405
-0.221387 -3.55112 -3.55112
-0.221948 -3.58555 -3.58555
-0.163785 -3.58581 -3.58581
-0.163318 -3.55137 -3.55137
-0.221669 -3.56833 -3.56833
-0.192859 -3.58568 -3.58568
-0.163552 -3.56858 -3.56858
-0.192345 -3.55124 -3.55124
-0.192603 -3.56845 -3.56845
-0.221948 -3.58555 -3.58555
-0.222499 -3.62004 -3.62004
-0.164245 -3.6203 -3.6203
-0.163785 -3.58581 -3.58581
-0.222225 -3.60279 -3.60279
-0.193364 -3.62016 -3.62016
-0.164016 -3.60305 -3.60305
-0.192859 -3.58568 -3.58568
-0.193113 -3.60291 -3.60291
-0.222499 -3.62004 -3.62004
-0.22304 -3.65458 -3.65458
-0.164699 -3.65484 -3.65484
-0.164245 -3.6203 -3.6203
-0.22277 -3.6373 -3.6373
-0.193861 -3.65471 -3.65471
-0.164473 -3.63757 -3.63757
-0.193364 -3.62016 -3.62016
-0.193614 -3.63743 -3.63743
-0.22304 -3.65458 -3.65458
-0.22357 -3.68917 -3.68917
-0.165145 -3.68944 -3.68944
-0.164699 -3.65484 -3.65484
-0.223306 -3.67187 -3.67187
-0.19435 -3.6893 -3.6893
-0.164923 -3.67214 -3.67214
-0.193861 -3.65471 -3.65471
-0.194107 -3.672 -3.672
-0.22357 -3.68917 -3.68917
-0.224091 -3.72381 -3.72381
-0.165584 -3.72408 -3.72408
-0.165145 -3.68944 -3.68944
-0.223832 -3.70648 -3.70648
-0.19483 -3.72394 -3.72394
-0.165365 -3.70676 -3.70676
-0.19435 -3.6893 -3.6893
-0.194591 -3.70661 -3.70661
-0.224091 -3.72381 -3.72381
-0.224601 -3.75849 -3.75849
-0.166017 -3.75878 -3.75878
-0.165584 -3.72408 -3.72408
-0.224347 -3.74114 -3.74114
-0.195301 -3.75863 -3.75863
-0.165801 -3.74142 -3.74142
-0.19483 -3.72394 -3.72394
-0.195067 -3.74128 -3.74128
-0.224601 -3.75849 -3.75849
-0.225102 -3.79322 -3.79322
-0.166442 -3.79351 -3.79351
-0.166017 -3.75878 -3.75878
-0.224853 -3.77585 -3.77585
-0.195764 -3.79336 -3.79336
-0.16623 -3.77614 -3.77614
-0.195301 -3.75863 -3.75863
-0.195534 -3.77599 -3.77599
-0.225102 -3.79322 -3.79322
-0.225592 -3.828 -3.828
-0.16686 -3.82829 -3.82829
-0.166442 -3.79351 -3.79351
-0.225348 -3.81061 -3.81061
-0.196218 -3.82814 -3.82814
-0.166652 -3.8109 -3.8109
-0.195764 -3.79336 -3.79336
-0.195992 -3.81075 -3.81075
-0.225592 -3.828 -3.828
-0.226072 -3.86282 -3.86282
-0.167271 -3.86312 -3.86312
-0.16686 -3.82829 -3.82829
-0.225833 -3.8454 -3.8454
-0.196664 -3.86296 -3.86296
-0.167067 -3.8457 -3.8457
-0.196218 -3.82814 -3.82814
-0.196442 -3.84555 -3.84555
-0.226072 -3.86282 -3.86282
-0.226542 -3.89767 -3.89767
-0.167675 -3.89798 -3.89798
-0.167271 -3.86312 -3.86312
-0.226308 -3.88024 -3.88024
-0.197101 -3.89782 -3.89782
-0.167474 -3.88054 -3.88054
-0.196664 -3.86296 -3.86296
-0.196884 -3.88039 -3.88039
-0.226542 -3.89767 -3.89767
-0.227002 -3.93257 -3.93257
-0.168072 -3.93288 -3.93288
-0.167675 -3.89798 -3.89798
-0.226773 -3.91512 -3.91512
-0.197529 -3.93272 -3.93272
-0.167875 -3.91543 -3.91543
-0.197101 -3.89782 -3.89782
-0.197316 -3.91527 -3.91527
-0.227002 -3.93257 -3.93257
-0.227451 -3.9675 -3.9675
-0.168462 -3.96782 -3.96782
-0.168072 -3.93288 -3.93288
-0.227228 -3.95003 -3.95003
-0.197949 -3.96766 -3.96766
-0.168268 -3.95034 -3.95034
-0.197529 -3.93272 -3.93272
-0.19774 -3.95018 -3.95018
-0.227451 -3.9675 -3.9675
-0.22789 -4.00247 -4.00247
-0.168844 -4.00279 -4.00279
-0.168462 -3.96782 -3.96782
-0.227672 -3.98498 -3.98498
-0.19836 -4.00263 -4.00263
-0.168654 -3.9853 -3.9853
-0.197949 -3.96766 -3.96766
-0.198155 -3.98514 -3.98514
-0.22789 -4.00247 -4.00247
-0.228319 -4.03747 -4.03747
-0.16922 -4.0378 -4.0378
-0.168844 -4.00279 -4.00279
-0.228106 -4.01996 -4.01996
-0.198762 -4.03763 -4.03763
-0.169033 -4.02029 -4.02029
-0.19836 -4.00263 -4.00263
-0.198562 -4.02012 -4.02012
-0.228319 -4.03747 -4.03747
-0.228738 -4.0725 -4.0725
-0.169588 -4.07283 -4.07283
-0.16922 -4.0378 -4.0378
-0.22853 -4.05498 -4.05498
-0.199155 -4.07266 -4.07266
-0.169405 -4.05531 -4.05531
-0.198762 -4.03763 -4.03763
-0.19896 -4.05514 -4.05514
-0.228738 -4.0725 -4.0725
-0.229146 -4.10756 -4.10756
-0.169949 -4.1079 -4.1079
-0.169588 -4.07283 -4.07283
-0.228943 -4.09002 -4.09002
-0.19954 -4.10772 -4.10772
-0.169769 -4.09036 -4.09036
-0.199155 -4.07266 -4.07266
-0.199348 -4.09019 -4.09019
-0.229146 -4.10756 -4.10756
-0.229544 -4.14264 -4.14264
-0.170302 -4.14299 -4.14299
-0.169949 -4.1079 -4.1079
-0.229346 -4.1251 -4.1251
-0.199915 -4.14281 -4.14281
-0.170126 -4.12544 -4.12544
-0.19954 -4.10772 -4.10772
-0.199729 -4.12527 -4.12527
-0.229544 -4.14264 -4.14264
-0.229931 -4.17776 -4.17776
-0.170648 -4.17811 -4.17811
-0.170302 -4.14299 -4.14299
-0.229739 -4.1602 -4.1602
-0.200282 -4.17793 -4.17793
-0.170476 -4.16054 -4.16054
-0.199915 -4.14281 -4.14281
-0.2001 -4.16037 -4.16037
-0.229931 -4.17776 -4.17776
-0.230308 -4.21289 -4.21289
-0.170987 -4.21325 -4.21325
-0.170648 -4.17811 -4.17811
-0.230121 -4.19532 -4.19532
-0.20064 -4.21307 -4.21307
-0.170819 -4.19567 -4.19567
-0.200282 -4.17793 -4.17793
-0.200462 -4.1955 -4.1955
-0.230308 -4.21289 -4.21289
-0.230675 -4.24805 -4.24805
-0.171319 -4.24841 -4.24841
-0.170987 -4.21325 -4.21325
-0.230493 -4.23047 -4.23047
-0.200989 -4.24823 -4.24823
-0.171154 -4.23083 -4.23083
-0.20064 -4.21307 -4.21307
-0.200816 -4.23065 -4.23065
-0.230675 -4.24805 -4.24805
-0.231031 -4.28323 -4.28323
-0.171643 -4.28359 -4.28359
-0.171319 -4.24841 -4.24841
-0.230854 -4.26564 -4.26564
-0.201329 -4.28341 -4.28341
-0.171481 -4.266 -4.266
-0.200989 -4.24823 -4.24823
-0.20116 -4.26582 -4.26582
-0.231031 -4.28323 -4.28323
-0.231377 -4.31843 -4.31843
-0.171959 -4.3188 -4.3188
-0.171643 -4.28359 -4.28359
-0.231205 -4.30083 -4.30083
-0.201661 -4.31861 -4.31861
-0.171802 -4.30119 -4.30119
-0.201329 -4.28341 -4.28341
-0.201496 -4.30101 -4.30101
-0.231377 -4.31843 -4.31843
-0.231713 -4.35364 -4.35364
-0.172268 -4.35401 -4.35401
-0.171959 -4.3188 -4.3188
-0.231546 -4.33603 -4.33603
-0.201983 -4.35383 -4.35383
-0.172115 -4.3364 -4.3364
-0.201661 -4.31861 -4.31861
-0.201823 -4.33622 -4.33622
-0.231713 -4.35364 -4.35364
-0.232038 -4.38887 -4.38887
-0.17257 -4.38925 -4.38925
-0.172268 -4.35401 -4.35401
-0.231876 -4.37125 -4.37125
-0.202297 -4.38906 -4.38906
-0.17242 -4.37163 -4.37163
-0.201983 -4.35383 -4.35383
-0.202141 -4.37144 -4.37144
-0.232038 -4.38887 -4.38887
-0.232353 -4.42411 -4.42411
-0.172864 -4.42449 -4.42449
-0.17257 -4.38925 -4.38925
-0.232197 -4.40649 -4.40649
-0.202602 -4.4243 -4.4243
-0.172718 -4.40687 -4.40687
-0.202297 -4.38906 -4.38906
-0.20245 -4.40668 -4.40668
-0.232353 -4.42411 -4.42411
-0.23266 -4.45936 -4.45936
-0.17315 -4.45975 -4.45975
-0.172864 -4.42449 -4.42449
-0.232508 -4.44173 -4.44173
-0.202898 -4.45955 -4.45955
-0.173008 -4.44212 -4.44212
-0.202602 -4.4243 -4.4243
-0.202751 -4.44192 -4.44192
-0.23266 -4.45936 -4.45936
-0.232958 -4.49462 -4.49462
-0.173428 -4.49502 -4.49502
-0.17315 -4.45975 -4.45975
-0.23281 -4.47699 -4.47699
-0.203187 -4.49482 -4.49482
-0.17329 -4.47738 -4.47738
-0.202898 -4.45955 -4.45955
-0.203044 -4.47718 -4.47718
-0.232958 -4.49462 -4.49462
-0.233251 -4.52989 -4.52989
-0.173697 -4.53029 -4.53029
-0.173428 -4.49502 -4.49502
-0.233105 -4.51226 -4.51226
-0.203468 -4.53009 -4.53009
-0.173564 -4.51265 -4.51265
-0.203187 -4.49482 -4.49482
-0.203329 -4.51245 -4.51245
-0.233251 -4.52989 -4.52989
-0.233543 -4.56518 -4.56518
-0.173957 -4.56558 -4.56558
-0.173697 -4.53029 -4.53029
-0.233397 -4.54753 -4.54753
-0.203741 -4.56538 -4.56538
-0.173828 -4.54794 -4.54794
-0.203468 -4.53009 -4.53009
-0.203606 -4.54773 -4.54773
-0.233543 -4.56518 -4.56518
-0.233845 -4.6005 -4.6005
-0.174206 -4.6009 -4.6009
-0.173957 -4.56558 -4.56558
-0.233692 -4.58284 -4.58284
-0.204003 -4.6007 -4.6007
-0.174082 -4.58324 -4.58324
-0.203741 -4.56538 -4.56538
-0.203874 -4.58303 -4.58303
-0.233845 -4.6005 -4.6005
-0.234154 -4.63596 -4.63596
-0.174463 -4.63622 -4.63622
-0.174206 -4.6009 -4.6009
-0.234002 -4.61819 -4.61819
-0.204255 -4.63609 -4.63609
-0.174332 -4.61856 -4.61856
-0.204003 -4.6007 -4.6007
-0.204127 -4.61838 -4.61838
0 0 0
-0.00137561 -0.000389373 -0.000389373
-0.000800104 -8.20095e-05 -8.20095e-05
0 0 0
-0.000667524 -0.000139581 -0.000139581
-0.0010772 -0.000198399 -0.000198399
-0.0003879 2.44455e-05 2.44455e-05
0 0 0
-0.000530402 -4.20553e-05 -4.20553e-05
-0.00137561 -0.000389373 -0.000389373
-0.00286504 -0.00112416 -0.00112416
-0.00166134 -0.000620995 -0.000620995
-0.000800104 -8.20095e-05 -8.20095e-05
-0.00211324 -0.00072128 -0.00072128
-0.00224284 -0.000829299 -0.000829299
-0.00122535 -0.000299783 -0.000299783
-0.0010772 -0.000198399 -0.000198399
-0.00165069 -0.000465638 -0.000465638
-0.00286504 -0.00112416 -0.00112416
-0.00436789 -0.00213371 -0.00213371
-0.00255846 -0.00155356 -0.00155356
-0.00166134 -0.000620995 -0.000620995
-0.00361736 -0.00159341 -0.00159341
-0.00344542 -0.00180303 -0.00180303
-0.00210716 -0.00104064 -0.00104064
-0.00224284 -0.000829299 -0.000829299
-0.00284262 -0.0012754 -0.0012754
-0.00436789 -0.00213371 -0.00213371
-0.0058632 -0.00344854 -0.00344854
-0.00346299 -0.00284485 -0.00284485
-0.00255846 -0.00155356 -0.00155356
-0.00511685 -0.00275118 -0.00275118
-0.00465021 -0.00310896 -0.00310896
-0.00301081 -0.00215534 -0.00215534
-0.00344542 -0.00180303 -0.00180303
-0.00404852 -0.00241412 -0.00241412
-0.0058632 -0.00344854 -0.00344854
-0.0073458 -0.00509042 -0.00509042
-0.00436452 -0.00448538 -0.00448538
-0.00346299 -0.00284485 -0.00284485
-0.006606 -0.00422767 -0.00422767
-0.00584567 -0.00475106 -0.00475106
-0.00391452 -0.00362172 -0.00362172
-0.00465021 -0.00310896 -0.00310896
-0.00524929 -0.00388763 -0.00388763
-0.0073458 -0.00509042 -0.00509042
-0.00881866 -0.00707195 -0.00707195
-0.00525779 -0.00647151 -0.00647151
-0.00436452 -0.00448538 -0.00448538
-0.00808336 -0.00603837 -0.00603837
-0.00703086 -0.00673528 -0.00673528
-0.00481224 -0.00543532 -0.00543532
-0.00584567 -0.00475106 -0.00475106
-0.0064395 -0.00570022 -0.00570022
-0.00881866 -0.00707195 -0.00707195
-0.0102824 -0.00939669 -0.00939669
-0.00614325 -0.00880261 -0.00880261
-0.00525779 -0.00647151 -0.00647151
-0.00955161 -0.00819133 -0.00819133
-0.00820661 -0.00906325 -0.00906325
-0.00570145 -0.007594 -0.007594
-0.00703086 -0.00673528 -0.00673528
-0.00761984 -0.00785627 -0.00785627
-0.0102824 -0.00939669 -0.00939669
-0.0117382 -0.0120656 -0.0120656
-0.00702145 -0.0114775 -0.0114775
-0.00614325 -0.00880261 -0.00880261
-0.0110113 -0.0106882 -0.0106882
-0.00937421 -0.0117352 -0.0117352
-0.00658319 -0.0100972 -0.0100972
-0.00820661 -0.00906325 -0.00906325
-0.00879136 -0.0103563 -0.0103563
-0.0117382 -0.0120656 -0.0120656
-0.0131863 -0.0150777 -0.0150777
-0.00789358 -0.014495 -0.014495
-0.00702145 -0.0114775 -0.0114775
-0.0124632 -0.0135288 -0.0135288
-0.0105346 -0.01475 -0.01475
-0.00745822 -0.0129435 -0.0129435
-0.00937421 -0.0117352 -0.0117352
-0.00995527 -0.0131998 -0.0131998
-0.0131863 -0.0150777 -0.0150777
-0.014627 -0.0184313 -0.0184313
-0.00876034 -0.0178535 -0.0178535
-0.00789358 -0.014495 -0.014495
-0.0139076 -0.0167119 -0.0167119
-0.0116885 -0.0181062 -0.0181062
-0.00832759 -0.0161317 -0.0161317
-0.0105346 -0.01475 -0.01475
-0.0111123 -0.0163855 -0.0163855
-0.014627 -0.0184313 -0.0184313
-0.0160605 -0.0221247 -0.0221247
-0.00962233 -0.0215515 -0.0215515
-0.00876034 -0.0178535 -0.0178535
-0.0153446 -0.0202357 -0.0202357
-0.0128363 -0.021802 -0.021802
-0.00919191 -0.0196602 -0.0196602
-0.0116885 -0.0181062 -0.0181062
-0.0122631 -0.0199118 -0.0199118
-0.0160605 -0.0221247 -0.0221247
-0.0174867 -0.0261561 -0.0261561
-0.0104799 -0.0255872 -0.0255872
-0.00962233 -0.0215515 -0.0215515
-0.0167745 -0.0240983 -0.0240983
-0.0139782 -0.0258357 -0.0258357
-0.0100516 -0.0235272 -0.0235272
-0.0128363 -0.021802 -0.021802
-0.013408 -0.0237768 -0.0237768
-0.0174867 -0.0261561 -0.0261561
-0.0189059 -0.0305234 -0.0305234
-0.0113332 -0.0299587 -0.0299587
-0.0104799 -0.0255872 -0.0255872
-0.0181972 -0.0282979 -0.0282979
-0.0151144 -0.0302053 -0.0302053
-0.010907 -0.0277311 -0.0277311
-0.0139782 -0.0258357 -0.0258357
-0.014547 -0.0279786 -0.0279786
-0.0189059 -0.0305234 -0.0305234
-0.020318 -0.0352249 -0.0352249
-0.0121824 -0.0346644 -0.0346644
-0.0113332 -0.0299587 -0.0299587
-0.0196128 -0.0328325 -0.0328325
-0.0162451 -0.0349091 -0.0349091
-0.0117583 -0.0322699 -0.0322699
-0.0151144 -0.0302053 -0.0302053
-0.0156805 -0.0325156 -0.0325156
-0.020318 -0.0352249 -0.0352249
-0.021723 -0.0402587 -0.0402587
-0.0130276 -0.0397024 -0.0397024
-0.0121824 -0.0346644 -0.0346644
-0.0210213 -0.0377003 -0.0377003
-0.0173702 -0.0399452 -0.0399452
-0.0126055 -0.037142 -0.037142
-0.0162451 -0.0349091 -0.0349091
-0.0168083 -0.0373857 -0.0373857
-0.021723 -0.0402587 -0.0402587
-0.023121 -0.0456229 -0.0456229
-0.0138689 -0.0450709 -0.0450709
-0.0130276 -0.0397024 -0.0397024
-0.0224229 -0.0428996 -0.0428996
-0.0184898 -0.0453117 -0.0453117
-0.0134487 -0.0423455 -0.0423455
-0.0173702 -0.0399452 -0.0399452
-0.0179307 -0.0425873 -0.0425873
-0.023121 -0.0456229 -0.0456229
-0.0245121 -0.0513157 -0.0513157
-0.0147062 -0.0507681 -0.0507681
-0.0138689 -0.0450709 -0.0450709
-0.0238174 -0.0484283 -0.0484283
-0.019604 -0.0510069 -0.0510069
-0.014288 -0.0478786 -0.0478786
-0.0184898 -0.0453117 -0.0453117
-0.0190476 -0.0481184 -0.0481184
-0.0245121 -0.0513157 -0.0513157
-0.0258962 -0.0573354 -0.0573354
-0.0155397 -0.0567922 -0.0567922
-0.0147062 -0.0507681 -0.0507681
-0.025205 -0.0542848 -0.0542848
-0.0207129 -0.057029 -0.057029
-0.0151235 -0.0537394 -0.0537394
-0.019604 -0.0510069 -0.0510069
-0.0201591 -0.0539772 -0.0539772
-0.0258962 -0.0573354 -0.0573354
-0.0272735 -0.06368 -0.06368
-0.0163694 -0.0631413 -0.0631413
-0.0155397 -0.0567922 -0.0567922
-0.0265857 -0.0604672 -0.0604672
-0.0218163 -0.0633761 -0.0633761
-0.0159551 -0.0599262 -0.0599262
-0.0207129 -0.057029 -0.057029
-0.0212653 -0.060162 -0.060162
-0.0272735 -0.06368 -0.06368
-0.0286439 -0.0703479 -0.0703479
-0.0171953 -0.0698137 -0.0698137
-0.0163694 -0.0631413 -0.0631413
-0.0279595 -0.0669737 -0.0669737
-0.0229145 -0.0700464 -0.0700464
-0.0167829 -0.0664372 -0.0664372
-0.0218163 -0.0633761 -0.0633761
-0.0223661 -0.0666709 -0.0666709
-0.0286439 -0.0703479 -0.0703479
-0.0300075 -0.0773371 -0.0773371
-0.0180175 -0.0768074 -0.0768074
-0.0171953 -0.0698137 -0.0698137
-0.0293265 -0.0738024 -0.0738024
-0.0240074 -0.077038 -0.077038
-0.0176069 -0.0732705 -0.0732705
-0.0229145 -0.0700464 -0.0700464
-0.0234616 -0.0735021 -0.0735021
-0.0300075 -0.0773371 -0.0773371
-0.0313643 -0.0846458 -0.0846458
-0.018836 -0.0841208 -0.0841208
-0.0180175 -0.0768074 -0.0768074
-0.0306867 -0.0809516 -0.0809516
-0.025095 -0.0843493 -0.0843493
-0.0184272 -0.0804243 -0.0804243
-0.0240074 -0.077038 -0.077038
-0.0245518 -0.0806538 -0.0806538
-0.0313643 -0.0846458 -0.0846458
-0.0327144 -0.0922723 -0.0922723
-0.0196508 -0.091752 -0.091752
-0.018836 -0.0841208 -0.0841208
-0.0320402 -0.0884194 -0.0884194
-0.0261774 -0.0919783 -0.0919783
-0.0192438 -0.0878968 -0.0878968
-0.025095 -0.0843493 -0.0843493
-0.0256369 -0.0881242 -0.0881242
-0.0327144 -0.0922723 -0.0922723
-0.0340578 -0.100215 -0.100215
-0.0204619 -0.0996991 -0.0996991
-0.0196508 -0.091752 -0.091752
-0.0333869 -0.0962041 -0.0962041
-0.0272547 -0.0999233 -0.0999233
-0.0200568 -0.0956862 -0.0956862
-0.0261774 -0.0919783 -0.0919783
-0.0267167 -0.0959114 -0.0959114
-0.0340578 -0.100215 -0.100215
-0.0353944 -0.108471 -0.108471
-0.0212694 -0.10796 -0.10796
-0.0204619 -0.0996991 -0.0996991
-0.0347269 -0.104304 -0.104304
-0.0283268 -0.108182 -0.108182
-0.0208661 -0.103791 -0.103791
-0.0272547 -0.0999233 -0.0999233
-0.0277914 -0.104014 -0.104014
-0.0353944 -0.108471 -0.108471
-0.0367245 -0.11704 -0.11704
-0.0220734 -0.116534 -0.116534
-0.0212694 -0.10796 -0.10796
-0.0360603 -0.112717 -0.112717
-0.0293938 -0.116754 -0.116754
-0.0216719 -0.112208 -0.112208
-0.0283268 -0.108182 -0.108182
-0.0288609 -0.112429 -0.112429
-0.0367245 -0.11704 -0.11704
-0.0380479 -0.125919 -0.125919
-0.0228738 -0.125418 -0.125418
-0.0220734 -0.116534 -0.116534
-0.037387 -0.121441 -0.121441
-0.0304557 -0.125636 -0.125636
-0.0224741 -0.120938 -0.120938
-0.0293938 -0.116754 -0.116754
-0.0299254 -0.121156 -0.121156
-0.0380479 -0.125919 -0.125919
-0.0393648 -0.135107 -0.135107
-0.0236708 -0.134611 -0.134611
-0.0228738 -0.125418 -0.125418
-0.0387072 -0.130475 -0.130475
-0.0315126 -0.134826 -0.134826
-0.0232727 -0.129976 -0.129976
-0.0304557 -0.125636 -0.125636
-0.0309848 -0.130193 -0.130193
-0.0393648 -0.135107 -0.135107
-0.0406751 -0.144602 -0.144602
-0.0244642 -0.144111 -0.144111
-0.0236708 -0.134611 -0.134611
-0.0400208 -0.139816 -0.139816
-0.0325645 -0.144324 -0.144324
-0.0240679 -0.139323 -0.139323
-0.0315126 -0.134826 -0.134826
-0.0320392 -0.139537 -0.139537
-0.0406751 -0.144602 -0.144602
-0.0419789 -0.154402 -0.154402
-0.0252542 -0.153916 -0.153916
-0.0244642 -0.144111 -0.144111
-0.0413278 -0.149464 -0.149464
-0.0336114 -0.154126 -0.154126
-0.0248596 -0.148976 -0.148976
-0.0325645 -0.144324 -0.144324
-0.0330886 -0.149187 -0.149187
-0.0419789 -0.154402 -0.154402
-0.0432762 -0.164505 -0.164505
-0.0260407 -0.164024 -0.164024
-0.0252542 -0.153916 -0.153916
-0.0426284 -0.159416 -0.159416
-0.0346533 -0.164232 -0.164232
-0.0256479 -0.158932 -0.158932
-0.0336114 -0.154126 -0.154126
-0.034133 -0.159142 -0.159142
-0.0432762 -0.164505 -0.164505
-0.0445671 -0.174909 -0.174909
-0.0268239 -0.174434 -0.174434
-0.0260407 -0.164024 -0.164024
-0.0439224 -0.16967 -0.16967
-0.0356903 -0.17464 -0.17464
-0.0264328 -0.169191 -0.169191
-0.0346533 -0.164232 -0.164232
-0.0351724 -0.169398 -0.169398
-0.0445671 -0.174909 -0.174909
-0.0458515 -0.185613 -0.185613
-0.0276037 -0.185143 -0.185143
-0.0268239 -0.174434 -0.174434
-0.0452101 -0.180224 -0.180224
-0.0367224 -0.185346 -0.185346
-0.0272142 -0.179751 -0.179751
-0.0356903 -0.17464 -0.17464
-0.036207 -0.179956 -0.179956
-0.0458515 -0.185613 -0.185613
-0.0471295 -0.196615 -0.196615
-0.0283802 -0.19615 -0.19615
-0.0276037 -0.185143 -0.185143
-0.0464913 -0.191077 -0.191077
-0.0377497 -0.196351 -0.196351
-0.0279924 -0.19061 -0.19061
-0.0367224 -0.185346 -0.185346
-0.0372367 -0.190812 -0.190812
-0.0471295 -0.196615 -0.196615
-0.0484011 -0.207913 -0.207913
-0.0291534 -0.207453 -0.207453
-0.0283802 -0.19615 -0.19615
-0.0477661 -0.202227 -0.202227
-0.0387721 -0.207652 -0.207652
-0.0287672 -0.201765 -0.201765
-0.0377497 -0.196351 -0.196351
-0.0382615 -0.201965 -0.201965
-0.0484011 -0.207913 -0.207913
-0.0496664 -0.219505 -0.219505
-0.0299233 -0.219051 -0.219051
-0.0291534 -0.207453 -0.207453
-0.0490346 -0.213672 -0.213672
-0.0397897 -0.219247 -0.219247
-0.0295387 -0.213215 -0.213215
-0.0387721 -0.207652 -0.207652
-0.0392815 -0.213413 -0.213413
-0.0496664 -0.219505 -0.219505
-0.0509254 -0.231389 -0.231389
-0.0306899 -0.23094 -0.23094
-0.0299233 -0.219051 -0.219051
-0.0502967 -0.225411 -0.225411
-0.0408025 -0.231134 -0.231134
-0.030307 -0.224959 -0.224959
-0.0397897 -0.219247 -0.219247
-0.0402967 -0.225154 -0.225154
-0.0509254 -0.231389 -0.231389
-0.052178 -0.243564 -0.243564
-0.0314533 -0.243121 -0.243121
-0.0306899 -0.23094 -0.23094
-0.0515525 -0.237441 -0.237441
-0.0418105 -0.243312 -0.243312
-0.031072 -0.236994 -0.236994
-0.0408025 -0.231134 -0.231134
-0.0413071 -0.237187 -0.237187
-0.052178 -0.243564 -0.243564
-0.0534244 -0.256028 -0.256028
-0.0322135 -0.25559 -0.25559
-0.0314533 -0.243121 -0.243121
-0.052802 -0.24976 -0.24976
-0.0428138 -0.255778 -0.255778
-0.0318338 -0.249319 -0.249319
-0.0418105 -0.243312 -0.243312
-0.0423127 -0.249509 -0.249509
-0.0534244 -0.256028 -0.256028
-0.0546646 -0.268778 -0.268778
-0.0329705 -0.268346 -0.268346
-0.0322135 -0.25559 -0.25559
-0.0540453 -0.262367 -0.262367
-0.0438124 -0.268532 -0.268532
-0.0325924 -0.261932 -0.261932
-0.0428138 -0.255778 -0.255778
-0.0433137 -0.262119 -0.262119
-0.0546646 -0.268778 -0.268778
-0.0558985 -0.281814 -0.281814
-0.0337244 -0.281387 -0.281387
-0.0329705 -0.268346 -0.268346
-0.0552823 -0.275261 -0.275261
-0.0448062 -0.28157 -0.28157
-0.0333478 -0.274831 -0.274831
-0.0438124 -0.268532 -0.268532
-0.0443099 -0.275015 -0.275015
-0.0558985 -0.281814 -0.281814
-0.0571262 -0.295133 -0.295133
-0.0344751 -0.294711 -0.294711
-0.0337244 -0.281387 -0.281387
-0.0565131 -0.288438 -0.288438
-0.0457954 -0.294892 -0.294892
-0.0341001 -0.288014 -0.288014
-0.0448062 -0.28157 -0.28157
-0.0453014 -0.288196 -0.288196
-0.0571262 -0.295133 -0.295133
-0.0583477 -0.308733 -0.308733
-0.0352227 -0.308317 -0.308317
-0.0344751 -0.294711 -0.294711
-0.0577377 -0.301898 -0.301898
-0.04678 -0.308495 -0.308495
-0.0348493 -0.301479 -0.301479
-0.0457954 -0.294892 -0.294892
-0.0462883 -0.301658 -0.301658
-0.0583477 -0.308733 -0.308733
-0.059563 -0.322613 -0.322613
-0.0359672 -0.322203 -0.322203
-0.0352227 -0.308317 -0.308317
-0.0589561 -0.315638 -0.315638
-0.0477599 -0.322378 -0.322378
-0.0355953 -0.315225 -0.315225
-0.04678 -0.308495 -0.308495
-0.0472705 -0.315402 -0.315402
-0.059563 -0.322613 -0.322613
-0.0607723 -0.336771 -0.336771
-0.0367086 -0.336366 -0.336366
-0.0359672 -0.322203 -0.322203
-0.0601684 -0.329657 -0.329657
-0.0487353 -0.336539 -0.336539
-0.0363383 -0.32925 -0.32925
-0.0477599 -0.322378 -0.322378
-0.0482482 -0.329424 -0.329424
-0.0607723 -0.336771 -0.336771
-0.0619754 -0.351204 -0.351204
-0.037447 -0.350806 -0.350806
-0.0367086 -0.336366 -0.336366
-0.0613746 -0.343953 -0.343953
-0.049706 -0.350976 -0.350976
-0.0370782 -0.343552 -0.343552
-0.0487353 -0.336539 -0.336539
-0.0492212 -0.343723 -0.343723
-0.0619754 -0.351204 -0.351204
-0.0631723 -0.365912 -0.365912
-0.0381824 -0.365519 -0.365519
-0.037447 -0.350806 -0.350806
-0.0625746 -0.358524 -0.358524
-0.0506722 -0.365687 -0.365687
-0.0378151 -0.358128 -0.358128
-0.049706 -0.350976 -0.350976
-0.0501896 -0.358297 -0.358297
-0.0631723 -0.365912 -0.365912
-0.0643633 -0.380893 -0.380893
-0.0389147 -0.380506 -0.380506
-0.0381824 -0.365519 -0.365519
-0.0637686 -0.373368 -0.373368
-0.0516338 -0.38067 -0.38067
-0.0385489 -0.372979 -0.372979
-0.0506722 -0.365687 -0.365687
-0.0511535 -0.373144 -0.373144
-0.0643633 -0.380893 -0.380893
-0.0655481 -0.396143 -0.396143
-0.0396441 -0.395762 -0.395762
-0.0389147 -0.380506 -0.380506
-0.0649564 -0.388484 -0.388484
-0.0525909 -0.395924 -0.395924
-0.0392798 -0.3881 -0.3881
-0.0516338 -0.38067 -0.38067
-0.0521129 -0.388263 -0.388263
-0.0655481 -0.396143 -0.396143
-0.0667269 -0.411663 -0.411663
-0.0403704 -0.411288 -0.411288
-0.0396441 -0.395762 -0.395762
-0.0661382 -0.40387 -0.40387
-0.0535434 -0.411447 -0.411447
-0.0400076 -0.403492 -0.403492
-0.0525909 -0.395924 -0.395924
-0.0530677 -0.403652 -0.403652
-0.0667269 -0.411663 -0.411663
-0.0678997 -0.42745 -0.42745
-0.0410938 -0.42708 -0.42708
-0.0403704 -0.411288 -0.411288
-0.067314 -0.419523 -0.419523
-0.0544915 -0.427237 -0.427237
-0.0407325 -0.419151 -0.419151
-0.0535434 -0.411447 -0.411447
-0.054018 -0.419309 -0.419309
-0.0678997 -0.42745 -0.42745
-0.0690664 -0.443501 -0.443501
-0.0418143 -0.443138 -0.443138
-0.0410938 -0.42708 -0.42708
-0.0684838 -0.435443 -0.435443
-0.0554351 -0.443292 -0.443292
-0.0414544 -0.435076 -0.435076
-0.0544915 -0.427237 -0.427237
-0.0549639 -0.435231 -0.435231
-0.0690664 -0.443501 -0.443501
-0.0702272 -0.459817 -0.459817
-0.0425318 -0.459459 -0.459459
-0.0418143 -0.443138 -0.443138
-0.0696475 -0.451626 -0.451626
-0.0563743 -0.45961 -0.45961
-0.0421734 -0.451266 -0.451266
-0.0554351 -0.443292 -0.443292
-0.0559053 -0.451418 -0.451418
-0.0702272 -0.459817 -0.459817
-0.0713819 -0.476393 -0.476393
-0.0432464 -0.476041 -0.476041
-0.0425318 -0.459459 -0.459459
-0.0708053 -0.468072 -0.468072
-0.057309 -0.476189 -0.476189
-0.0428895 -0.467718 -0.467718
-0.0563743 -0.45961 -0.45961
-0.0568422 -0.467867 -0.467867
-0.0713819 -0.476393 -0.476393
-0.0725307 -0.493229 -0.493229
-0.0439581 -0.492884 -0.492884
-0.0432464 -0.476041 -0.476041
-0.0719571 -0.484779 -0.484779
-0.0582392 -0.493029 -0.493029
-0.0436026 -0.48443 -0.48443
-0.057309 -0.476189 -0.476189
-0.0577746 -0.484577 -0.484577
-0.0725307 -0.493229 -0.493229
-0.0736736 -0.510323 -0.510323
-0.044667 -0.509984 -0.509984
-0.0439581 -0.492884 -0.492884
-0.0731029 -0.501744 -0.501744
-0.0591651 -0.510126 -0.510126
-0.0443129 -0.501402 -0.501402
-0.0582392 -0.493029 -0.493029
-0.0587027 -0.501545 -0.501545
-0.0736736 -0.510323 -0.510323
-0.0748105 -0.527674 -0.527674
-0.0453729 -0.52734 -0.52734
-0.044667 -0.509984 -0.509984
-0.0742428 -0.518967 -0.518967
-0.0600865 -0.52748 -0.52748
-0.0450203 -0.51863 -0.51863
-0.0591651 -0.510126 -0.510126
-0.0596263 -0.518771 -0.518771
-0.0748105 -0.527674 -0.527674
-0.0759415 -0.545278 -0.545278
-0.046076 -0.54495 -0.54495
-0.0453729 -0.52734 -0.52734
-0.0753768 -0.536444 -0.536444
-0.0610036 -0.545087 -0.545087
-0.0457248 -0.536114 -0.536114
-0.0600865 -0.52748 -0.52748
-0.0605456 -0.536252 -0.536252
-0.0759415 -0.545278 -0.545278
-0.0770666 -0.563135 -0.563135
-0.0467763 -0.562813 -0.562813
-0.046076 -0.54495 -0.54495
-0.0765048 -0.554175 -0.554175
-0.0619162 -0.562947 -0.562947
-0.0464265 -0.55385 -0.55385
-0.0610036 -0.545087 -0.545087
-0.0614604 -0.553986 -0.553986
-0.0770666 -0.563135 -0.563135
-0.0781858 -0.581242 -0.581242
-0.0474737 -0.580927 -0.580927
-0.0467763 -0.562813 -0.562813
-0.0776269 -0.572157 -0.572157
-0.0628245 -0.581058 -0.581058
-0.0471254 -0.571839 -0.571839
-0.0619162 -0.562947 -0.562947
-0.0623709 -0.571971 -0.571971
-0.0781858 -0.581242 -0.581242
-0.0792991 -0.599598 -0.599598
-0.0481683 -0.599289 -0.599289
-0.0474737 -0.580927 -0.580927
-0.0787432 -0.590389 -0.590389
-0.0637285 -0.599417 -0.599417
-0.0478214 -0.590077 -0.590077
-0.0628245 -0.581058 -0.581058
-0.063277 -0.590207 -0.590207
-0.0792991 -0.599598 -0.599598
-0.0804065 -0.618202 -0.618202
-0.0488601 -0.617899 -0.617899
-0.0481683 -0.599289 -0.599289
-0.0798535 -0.608869 -0.608869
-0.0646281 -0.618024 -0.618024
-0.0485146 -0.608563 -0.608563
-0.0637285 -0.599417 -0.599417
-0.0641788 -0.60869 -0.60869
-0.0804065 -0.618202 -0.618202
-0.081508 -0.63705 -0.63705
-0.0495491 -0.636753 -0.636753
-0.0488601 -0.617899 -0.617899
-0.080958 -0.627595 -0.627595
-0.0655234 -0.636876 -0.636876
-0.049205 -0.627295 -0.627295
-0.0646281 -0.618024 -0.618024
-0.0650763 -0.627419 -0.627419
-0.081508 -0.63705 -0.63705
-0.0826037 -0.656142 -0.656142
-0.0502354 -0.655851 -0.655851
-0.0495491 -0.636753 -0.636753
-0.0820566 -0.646566 -0.646566
-0.0664143 -0.655971 -0.655971
-0.0498926 -0.646272 -0.646272
-0.0655234 -0.636876 -0.636876
-0.0659694 -0.646393 -0.646393
-0.0826037 -0.656142 -0.656142
-0.0836936 -0.675475 -0.675475
-0.0509188 -0.675191 -0.675191
-0.0502354 -0.655851 -0.655851
-0.0831494 -0.665778 -0.665778
-0.067301 -0.675307 -0.675307
-0.0505774 -0.665491 -0.665491
-0.0664143 -0.655971 -0.655971
-0.0668582 -0.665609 -0.665609
-0.0836936 -0.675475 -0.675475
-0.0847776 -0.695048 -0.695048
-0.0515995 -0.69477 -0.69477
-0.0509188 -0.675191 -0.675191
-0.0842363 -0.685232 -0.685232
-0.0681833 -0.694884 -0.694884
-0.0512595 -0.68495 -0.68495
-0.067301 -0.675307 -0.675307
-0.0677427 -0.685066 -0.685066
-0.0847776 -0.695048 -0.695048
-0.0858558 -0.714859 -0.714859
-0.0522774 -0.714587 -0.714587
-0.0515995 -0.69477 -0.69477
-0.0853174 -0.704924 -0.704924
-0.0690613 -0.714698 -0.714698
-0.0519388 -0.704649 -0.704649
-0.0681833 -0.694884 -0.694884
-0.0686229 -0.704761 -0.704761
-0.0858558 -0.714859 -0.714859
-0.0869281 -0.734906 -0.734906
-0.0529525 -0.73464 -0.73464
-0.0522774 -0.714587 -0.714587
-0.0863927 -0.724853 -0.724853
-0.0699351 -0.734748 -0.734748
-0.0526153 -0.724584 -0.724584
-0.0690613 -0.714698 -0.714698
-0.0694988 -0.724694 -0.724694
-0.0869281 -0.734906 -0.734906
-0.0879947 -0.755187 -0.755187
-0.053625 -0.754928 -0.754928
-0.0529525 -0.73464 -0.73464
-0.0874621 -0.745018 -0.745018
-0.0708046 -0.755033 -0.755033
-0.0532891 -0.744755 -0.744755
-0.0699351 -0.734748 -0.734748
-0.0703704 -0.744861 -0.744861
-0.0879947 -0.755187 -0.755187
-0.0890554 -0.775701 -0.775701
-0.0542946 -0.775448 -0.775448
-0.053625 -0.754928 -0.754928
-0.0885258 -0.765415 -0.765415
-0.0716698 -0.77555 -0.77555
-0.0539601 -0.765159 -0.765159
-0.0708046 -0.755033 -0.755033
-0.0712377 -0.765262 -0.765262
-0.0890554 -0.775701 -0.775701
-0.0901104 -0.796446 -0.796446
-0.0549616 -0.796199 -0.796199
-0.0542946 -0.775448 -0.775448
-0.0895836 -0.786045 -0.786045
-0.0725307 -0.796298 -0.796298
-0.0546284 -0.785794 -0.785794
-0.0716698 -0.77555 -0.77555
-0.0721008 -0.785895 -0.785895
-0.0901104 -0.796446 -0.796446
-0.0911595 -0.817419 -0.817419
-0.0556258 -0.817178 -0.817178
-0.0549616 -0.796199 -0.796199
-0.0906357 -0.806904 -0.806904
-0.0733874 -0.817274 -0.817274
-0.055294 -0.80666 -0.80666
-0.0725307 -0.796298 -0.796298
-0.0729596 -0.806757 -0.806757
-0.0911595 -0.817419 -0.817419
-0.0922029 -0.838619 -0.838619
-0.0562873 -0.838385 -0.838385
-0.0556258 -0.817178 -0.817178
-0.0916819 -0.827991 -0.827991
-0.0742398 -0.838478 -0.838478
-0.0559569 -0.827753 -0.827753
-0.0733874 -0.817274 -0.817274
-0.0738142 -0.827848 -0.827848
-0.0922029 -0.838619 -0.838619
-0.0932404 -0.860045 -0.860045
-0.0569461 -0.859817 -0.859817
-0.0562873 -0.838385 -0.838385
-0.0927224 -0.849304 -0.849304
-0.075088 -0.859907 -0.859907
-0.056617 -0.849073 -0.849073
-0.0742398 -0.838478 -0.838478
-0.0746645 -0.849164 -0.849164
-0.0932404 -0.860045 -0.860045
-0.0942722 -0.881694 -0.881694
-0.0576021 -0.881472 -0.881472
-0.0569461 -0.859817 -0.859817
-0.093757 -0.870841 -0.870841
-0.0759319 -0.881559 -0.881559
-0.0572744 -0.870616 -0.870616
-0.075088 -0.859907 -0.859907
-0.0755105 -0.870705 -0.870705
-0.0942722 -0.881694 -0.881694
-0.0952982 -0.903564 -0.903564
-0.0582555 -0.903349 -0.903349
-0.0576021 -0.881472 -0.881472
-0.094786 -0.892601 -0.892601
-0.0767716 -0.903433 -0.903433
-0.0579291 -0.892383 -0.892383
-0.0759319 -0.881559 -0.881559
-0.0763523 -0.892468 -0.892468
-0.0952982 -0.903564 -0.903564
-0.0963185 -0.925654 -0.925654
-0.0589062 -0.925445 -0.925445
-0.0582555 -0.903349 -0.903349
-0.0958091 -0.914582 -0.914582
-0.0776071 -0.925526 -0.925526
-0.0585812 -0.914369 -0.914369
-0.0767716 -0.903433 -0.903433
-0.0771899 -0.914452 -0.914452
-0.0963185 -0.925654 -0.925654
-0.097333 -0.947963 -0.947963
-0.0595541 -0.94776 -0.94776
-0.0589062 -0.925445 -0.925445
-0.0968264 -0.936781 -0.936781
-0.0784383 -0.947838 -0.947838
-0.0592305 -0.936575 -0.936575
-0.0776071 -0.925526 -0.925526
-0.0780232 -0.936655 -0.936655
-0.097333 -0.947963 -0.947963
-0.0983417 -0.970487 -0.970487
-0.0601994 -0.97029 -0.97029
-0.0595541 -0.94776 -0.94776
-0.097838 -0.959198 -0.959198
-0.0792653 -0.970366 -0.970366
-0.0598771 -0.958998 -0.958998
-0.0784383 -0.947838 -0.947838
-0.0788523 -0.959075 -0.959075
-0.0983417 -0.970487 -0.970487
-0.0993446 -0.993226 -0.993226
-0.0608419 -0.993035 -0.993035
-0.0601994 -0.97029 -0.97029
-0.0988439 -0.98183 -0.98183
-0.0800881 -0.993108 -0.993108
-0.060521 -0.981636 -0.981636
-0.0792653 -0.970366 -0.970366
-0.0796772 -0.98171 -0.98171
-0.0993446 -0.993226 -0.993226
-0.100342 -1.01618 -1.01618
-0.0614818 -1.01599 -1.01599
-0.0608419 -0.993035 -0.993035
-0.0998439 -1.00467 -1.00467
-0.0809066 -1.01606 -1.01606
-0.0611622 -1.00449 -1.00449
-0.0800881 -0.993108 -0.993108
-0.0804978 -1.00456 -1.00456
-0.100342 -1.01618 -1.01618
-0.101333 -1.03934 -1.03934
-0.062119 -1.03916 -1.03916
-0.0614818 -1.01599 -1.01599
-0.100838 -1.02773 -1.02773
-0.0817209 -1.03923 -1.03923
-0.0618007 -1.02755 -1.02755
-0.0809066 -1.01606 -1.01606
-0.0813143 -1.02762 -1.02762
-0.101333 -1.03934 -1.03934
-0.102319 -1.06271 -1.06271
-0.0627535 -1.06254 -1.06254
-0.062119 -1.03916 -1.03916
-0.101827 -1.051 -1.051
-0.082531 -1.0626 -1.0626
-0.0624366 -1.05082 -1.05082
-0.0817209 -1.03923 -1.03923
-0.0821265 -1.05089 -1.05089
-0.102319 -1.06271 -1.06271
-0.103299 -1.08629 -1.08629
-0.0633853 -1.08612 -1.08612
-0.0627535 -1.06254 -1.06254
-0.10281 -1.07447 -1.07447
-0.0833368 -1.08618 -1.08618
-0.0630697 -1.0743 -1.0743
-0.082531 -1.0626 -1.0626
-0.0829344 -1.07437 -1.07437
-0.103299 -1.08629 -1.08629
-0.104273 -1.11007 -1.11007
-0.0640144 -1.10991 -1.10991
-0.0633853 -1.08612 -1.08612
-0.103787 -1.09815 -1.09815
-0.0841385 -1.10997 -1.10997
-0.0637002 -1.09799 -1.09799
-0.0833368 -1.08618 -1.08618
-0.0837382 -1.09805 -1.09805
-0.104273 -1.11007 -1.11007
-0.105241 -1.13406 -1.13406
-0.0646408 -1.1339 -1.1339
-0.0640144 -1.10991 -1.10991
-0.104758 -1.12204 -1.12204
-0.0849359 -1.13396 -1.13396
-0.0643279 -1.12188 -1.12188
-0.0841385 -1.10997 -1.10997
-0.0845377 -1.12194 -1.12194
-0.105241 -1.13406 -1.13406
-0.106204 -1.15824 -1.15824
-0.0652645 -1.1581 -1.1581
-0.0646408 -1.1339 -1.1339
-0.105723 -1.14613 -1.14613
-0.085729 -1.15815 -1.15815
-0.064953 -1.14598 -1.14598
-0.0849359 -1.13396 -1.13396
-0.085333 -1.14603 -1.14603
-0.106204 -1.15824 -1.15824
-0.107161 -1.18263 -1.18263
-0.0658856 -1.18249 -1.18249
-0.0652645 -1.1581 -1.1581
-0.106683 -1.17041 -1.17041
-0.086518 -1.18254 -1.18254
-0.0655754 -1.17027 -1.17027
-0.085729 -1.15815 -1.15815
-0.086124 -1.17032 -1.17032
-0.107161 -1.18263 -1.18263
-0.108112 -1.20722 -1.20722
-0.0665039 -1.20709 -1.20709
-0.0658856 -1.18249 -1.18249
-0.107637 -1.1949 -1.1949
-0.0873027 -1.20713 -1.20713
-0.0661951 -1.19476 -1.19476
-0.086518 -1.18254 -1.18254
-0.0869109 -1.19481 -1.19481
-0.108112 -1.20722 -1.20722
-0.109057 -1.232 -1.232
-0.0671196 -1.23187 -1.23187
-0.0665039 -1.20709 -1.20709
-0.108585 -1.21959 -1.21959
-0.0880832 -1.23192 -1.23192
-0.0668121 -1.21946 -1.21946
-0.0873027 -1.20713 -1.20713
-0.0876935 -1.2195 -1.2195
-0.109057 -1.232 -1.232
-0.109997 -1.25698 -1.25698
-0.0677325 -1.25686 -1.25686
-0.0671196 -1.23187 -1.23187
-0.109528 -1.24446 -1.24446
-0.0888595 -1.2569 -1.2569
-0.0674264 -1.24434 -1.24434
-0.0880832 -1.23192 -1.23192
-0.0884719 -1.24438 -1.24438
-0.109997 -1.25698 -1.25698
-0.110931 -1.28215 -1.28215
-0.0683427 -1.28203 -1.28203
-0.0677325 -1.25686 -1.25686
-0.110465 -1.26954 -1.26954
-0.0896315 -1.28207 -1.28207
-0.0680379 -1.26942 -1.26942
-0.0888595 -1.2569 -1.2569
-0.089246 -1.26946 -1.26946
-0.110931 -1.28215 -1.28215
-0.111859 -1.30751 -1.30751
-0.0689503 -1.3074 -1.3074
-0.0683427 -1.28203 -1.28203
-0.111395 -1.2948 -1.2948
-0.0903992 -1.30743 -1.30743
-0.0686468 -1.29469 -1.29469
-0.0896315 -1.28207 -1.28207
-0.0900159 -1.29473 -1.29473
-0.111859 -1.30751 -1.30751
-0.112781 -1.33305 -1.33305
-0.0695551 -1.33295 -1.33295
-0.0689503 -1.3074 -1.3074
-0.112321 -1.32026 -1.32026
-0.0911628 -1.33298 -1.33298
-0.069253 -1.32015 -1.32015
-0.0903992 -1.30743 -1.30743
-0.0907815 -1.32018 -1.32018
-0.112781 -1.33305 -1.33305
-0.113697 -1.35879 -1.35879
-0.0701572 -1.35869 -1.35869
-0.0695551 -1.33295 -1.33295
-0.11324 -1.3459 -1.3459
-0.0919221 -1.35872 -1.35872
-0.0698565 -1.3458 -1.3458
-0.0911628 -1.33298 -1.33298
-0.091543 -1.34583 -1.34583
-0.113697 -1.35879 -1.35879
-0.114608 -1.38471 -1.38471
-0.0707566 -1.38462 -1.38462
-0.0701572 -1.35869 -1.35869
-0.114153 -1.37173 -1.37173
-0.0926771 -1.38465 -1.38465
-0.0704572 -1.37164 -1.37164
-0.0919221 -1.35872 -1.35872
-0.0923001 -1.37166 -1.37166
-0.114608 -1.38471 -1.38471
-0.115513 -1.41082 -1.41082
-0.0713532 -1.41073 -1.41073
-0.0707566 -1.38462 -1.38462
-0.115061 -1.39774 -1.39774
-0.0934279 -1.41076 -1.41076
-0.0710552 -1.39765 -1.39765
-0.0926771 -1.38465 -1.38465
-0.093053 -1.39768 -1.39768
-0.115513 -1.41082 -1.41082
-0.116412 -1.4371 -1.4371
-0.0719471 -1.43703 -1.43703
-0.0713532 -1.41073 -1.41073
-0.115963 -1.42394 -1.42394
-0.0941744 -1.43704 -1.43704
-0.0716505 -1.42386 -1.42386
-0.0934279 -1.41076 -1.41076
-0.0938016 -1.42388 -1.42388
-0.116412 -1.4371 -1.4371
-0.117305 -1.46357 -1.46357
-0.0725383 -1.4635 -1.4635
-0.0719471 -1.43703 -1.43703
-0.116859 -1.45031 -1.45031
-0.0949166 -1.46351 -1.46351
-0.0722431 -1.45024 -1.45024
-0.0941744 -1.43704 -1.43704
-0.094546 -1.45026 -1.45026
-0.117305 -1.46357 -1.46357
-0.118193 -1.49021 -1.49021
-0.0731268 -1.49015 -1.49015
-0.0725383 -1.4635 -1.4635
-0.11775 -1.47687 -1.47687
-0.0956546 -1.49016 -1.49016
-0.0728329 -1.4768 -1.4768
-0.0949166 -1.46351 -1.46351
-0.0952861 -1.47682 -1.47682
-0.118193 -1.49021 -1.49021
-0.119074 -1.51703 -1.51703
-0.0737125 -1.51697 -1.51697
-0.0731268 -1.49015 -1.49015
-0.118634 -1.5036 -1.5036
-0.0963882 -1.51698 -1.51698
-0.07342 -1.50354 -1.50354
-0.0956546 -1.49016 -1.49016
-0.0960219 -1.50355 -1.50355
-0.119074 -1.51703 -1.51703
-0.11995 -1.54403 -1.54403
-0.0742954 -1.54398 -1.54398
-0.0737125 -1.51697 -1.51697
-0.119513 -1.53051 -1.53051
-0.0971176 -1.54398 -1.54398
-0.0740043 -1.53045 -1.53045
-0.0963882 -1.51698 -1.51698
-0.0967535 -1.53046 -1.53046
-0.11995 -1.54403 -1.54403
-0.12082 -1.57119 -1.57119
-0.0748756 -1.57115 -1.57115
-0.0742954 -1.54398 -1.54398
-0.120386 -1.55759 -1.55759
-0.0978427 -1.57115 -1.57115
-0.0745858 -1.55754 -1.55754
-0.0971176 -1.54398 -1.54398
-0.0974807 -1.55755 -1.55755
-0.12082 -1.57119 -1.57119
-0.121684 -1.59853 -1.59853
-0.075453 -1.59849 -1.59849
-0.0748756 -1.57115 -1.57115
-0.121253 -1.58484 -1.58484
-0.0985635 -1.59849 -1.59849
-0.0751646 -1.5848 -1.5848
-0.0978427 -1.57115 -1.57115
-0.0982036 -1.5848 -1.5848
-0.121684 -1.59853 -1.59853
-0.122543 -1.62604 -1.62604
-0.0760276 -1.62601 -1.62601
-0.075453 -1.59849 -1.59849
-0.122114 -1.61226 -1.61226
-0.0992799 -1.626 -1.626
-0.0757406 -1.61223 -1.61223
-0.0985635 -1.59849 -1.59849
-0.0989222 -1.61223 -1.61223
-0.122543 -1.62604 -1.62604
-0.123395 -1.65371 -1.65371
-0.0765994 -1.65369 -1.65369
-0.0760276 -1.62601 -1.62601
-0.12297 -1.63986 -1.63986
-0.0999921 -1.65368 -1.65368
-0.0763139 -1.63983 -1.63983
-0.0992799 -1.626 -1.626
-0.0996366 -1.63982 -1.63982
-0.123395 -1.65371 -1.65371
-0.124242 -1.68155 -1.68155
-0.0771685 -1.68153 -1.68153
-0.0765994 -1.65369 -1.65369
-0.123819 -1.66761 -1.66761
-0.1007 -1.68152 -1.68152
-0.0768843 -1.66759 -1.66759
-0.0999921 -1.65368 -1.65368
-0.100347 -1.66758 -1.66758
-0.124242 -1.68155 -1.68155
-0.125082 -1.70956 -1.70956
-0.0777347 -1.70954 -1.70954
-0.0771685 -1.68153 -1.68153
-0.124663 -1.69553 -1.69553
-0.101403 -1.70953 -1.70953
-0.077452 -1.69552 -1.69552
-0.1007 -1.68152 -1.68152
-0.101052 -1.69551 -1.69551
-0.125082 -1.70956 -1.70956
-0.125917 -1.73772 -1.73772
-0.0782981 -1.73771 -1.73771
-0.0777347 -1.70954 -1.70954
-0.125501 -1.72362 -1.72362
-0.102102 -1.7377 -1.7377
-0.0780168 -1.72361 -1.72361
-0.101403 -1.70953 -1.70953
-0.101753 -1.72359 -1.72359
-0.125917 -1.73772 -1.73772
-0.126746 -1.76604 -1.76604
-0.0788587 -1.76604 -1.76604
-0.0782981 -1.73771 -1.73771
-0.126332 -1.75186 -1.75186
-0.102797 -1.76603 -1.76603
-0.0785788 -1.75186 -1.75186
-0.102102 -1.7377 -1.7377
-0.10245 -1.75184 -1.75184
-0.126746 -1.76604 -1.76604
-0.127569 -1.79453 -1.79453
-0.0794165 -1.79453 -1.79453
-0.0788587 -1.76604 -1.76604
-0.127158 -1.78027 -1.78027
-0.103488 -1.79451 -1.79451
-0.079138 -1.78027 -1.78027
-0.102797 -1.76603 -1.76603
-0.103143 -1.78025 -1.78025
-0.127569 -1.79453 -1.79453
-0.128386 -1.82317 -1.82317
-0.0799714 -1.82318 -1.82318
-0.0794165 -1.79453 -1.79453
-0.127979 -1.80883 -1.80883
-0.104174 -1.82315 -1.82315
-0.0796943 -1.80883 -1.80883
-0.103488 -1.79451 -1.79451
-0.103831 -1.80881 -1.80881
-0.128386 -1.82317 -1.82317
-0.129198 -1.85196 -1.85196
-0.0805234 -1.85197 -1.85197
-0.0799714 -1.82318 -1.82318
-0.128793 -1.83754 -1.83754
-0.104855 -1.85195 -1.85195
-0.0802478 -1.83756 -1.83756
-0.104174 -1.82315 -1.82315
-0.104515 -1.83753 -1.83753
-0.129198 -1.85196 -1.85196
-0.130003 -1.88091 -1.88091
-0.0810726 -1.88093 -1.88093
-0.0805234 -1.85197 -1.85197
-0.129601 -1.86641 -1.86641
-0.105532 -1.8809 -1.8809
-0.0807984 -1.86643 -1.86643
-0.104855 -1.85195 -1.85195
-0.105194 -1.86641 -1.86641
-0.130003 -1.88091 -1.88091
-0.130802 -1.91 -1.91
-0.0816189 -1.91003 -1.91003
-0.0810726 -1.88093 -1.88093
-0.130403 -1.89543 -1.89543
-0.106205 -1.91 -1.91
-0.0813461 -1.89546 -1.89546
-0.105532 -1.8809 -1.8809
-0.105869 -1.89543 -1.89543
-0.130802 -1.91 -1.91
-0.131595 -1.93925 -1.93925
-0.0821623 -1.93928 -1.93928
-0.0816189 -1.91003 -1.91003
-0.1312 -1.92461 -1.92461
-0.106874 -1.93925 -1.93925
-0.081891 -1.92464 -1.92464
-0.106205 -1.91 -1.91
-0.10654 -1.92461 -1.92461
-0.131595 -1.93925 -1.93925
-0.132383 -1.96864 -1.96864
-0.0827028 -1.96868 -1.96868
-0.0821623 -1.93928 -1.93928
-0.13199 -1.95393 -1.95393
-0.107538 -1.96864 -1.96864
-0.0824329 -1.95396 -1.95396
-0.106874 -1.93925 -1.93925
-0.107206 -1.95393 -1.95393
-0.132383 -1.96864 -1.96864
-0.133164 -1.99818 -1.99818
-0.0832404 -1.99822 -1.99822
-0.0827028 -1.96868 -1.96868
-0.132774 -1.98339 -1.98339
-0.108197 -1.99819 -1.99819
-0.082972 -1.98343 -1.98343
-0.107538 -1.96864 -1.96864
-0.107868 -1.9834 -1.9834
-0.133164 -1.99818 -1.99818
-0.13394 -2.02786 -2.02786
-0.0837751 -2.02791 -2.02791
-0.0832404 -1.99822 -1.99822
-0.133553 -2.013 -2.013
-0.108852 -2.02787 -2.02787
-0.0835081 -2.01305 -2.01305
-0.108197 -1.99819 -1.99819
-0.108525 -2.01301 -2.01301
-0.13394 -2.02786 -2.02786
-0.134709 -2.05768 -2.05768
-0.0843068 -2.05774 -2.05774
-0.0837751 -2.02791 -2.02791
-0.134325 -2.04275 -2.04275
-0.109503 -2.0577 -2.0577
-0.0840413 -2.04281 -2.04281
-0.108852 -2.02787 -2.02787
-0.109178 -2.04277 -2.04277
-0.134709 -2.05768 -2.05768
-0.135472 -2.08765 -2.08765
-0.0848355 -2.08771 -2.08771
-0.0843068 -2.05774 -2.05774
-0.135091 -2.07265 -2.07265
-0.110149 -2.08766 -2.08766
-0.0845715 -2.07271 -2.07271
-0.109503 -2.0577 -2.0577
-0.109826 -2.07266 -2.07266
-0.135472 -2.08765 -2.08765
-0.13623 -2.11775 -2.11775
-0.0853613 -2.11782 -2.11782
-0.0848355 -2.08771 -2.08771
-0.135852 -2.10268 -2.10268
-0.11079 -2.11777 -2.11777
-0.0850988 -2.10275 -2.10275
-0.110149 -2.08766 -2.08766
-0.11047 -2.1027 -2.1027
-0.13623 -2.11775 -2.11775
-0.136981 -2.14799 -2.14799
-0.0858841 -2.14806 -2.14806
-0.0853613 -2.11782 -2.11782
-0.136606 -2.13285 -2.13285
-0.111427 -2.14801 -2.14801
-0.0856231 -2.13292 -2.13292
-0.11079 -2.11777 -2.11777
-0.111109 -2.13287 -2.13287
-0.136981 -2.14799 -2.14799
-0.137726 -2.17836 -2.17836
-0.0864039 -2.17844 -2.17844
-0.0858841 -2.14806 -2.14806
-0.137354 -2.16316 -2.16316
-0.11206 -2.17838 -2.17838
-0.0861444 -2.16323 -2.16323
-0.111427 -2.14801 -2.14801
-0.111744 -2.16318 -2.16318
-0.137726 -2.17836 -2.17836
-0.138465 -2.20886 -2.20886
-0.0869207 -2.20895 -2.20895
-0.0864039 -2.17844 -2.17844
-0.138096 -2.19359 -2.19359
-0.112688 -2.20889 -2.20889
-0.0866627 -2.19368 -2.19368
-0.11206 -2.17838 -2.17838
-0.112374 -2.19362 -2.19362
-0.138465 -2.20886 -2.20886
-0.139198 -2.2395 -2.2395
-0.0874345 -2.23959 -2.23959
-0.0869207 -2.20895 -2.20895
-0.138832 -2.22416 -2.22416
-0.113311 -2.23953 -2.23953
-0.087178 -2.22425 -2.22425
-0.112688 -2.20889 -2.20889
-0.113 -2.2242 -2.2242
-0.139198 -2.2395 -2.2395
-0.139925 -2.27026 -2.27026
-0.0879452 -2.27036 -2.27036
-0.0874345 -2.23959 -2.23959
-0.139562 -2.25487 -2.25487
-0.11393 -2.2703 -2.2703
-0.0876902 -2.25496 -2.25496
-0.113311 -2.23953 -2.23953
-0.113621 -2.2549 -2.2549
-0.139925 -2.27026 -2.27026
-0.140646 -2.30116 -2.30116
-0.0884528 -2.30126 -2.30126
-0.0879452 -2.27036 -2.27036
-0.140286 -2.28569 -2.28569
-0.114544 -2.30119 -2.30119
-0.0881994 -2.28579 -2.28579
-0.11393 -2.2703 -2.2703
-0.114238 -2.28573 -2.28573
-0.140646 -2.30116 -2.30116
-0.141361 -2.33217 -2.33217
-0.0889574 -2.33228 -2.33228
-0.0884528 -2.30126 -2.30126
-0.141004 -2.31665 -2.31665
-0.115154 -2.33221 -2.33221
-0.0887055 -2.31676 -2.31676
-0.114544 -2.30119 -2.30119
-0.11485 -2.31669 -2.31669
-0.141361 -2.33217 -2.33217
-0.142069 -2.36331 -2.36331
-0.0894589 -2.36343 -2.36343
-0.0889574 -2.33228 -2.33228
-0.141716 -2.34773 -2.34773
-0.115759 -2.36336 -2.36336
-0.0892086 -2.34784 -2.34784
-0.115154 -2.33221 -2.33221
-0.115457 -2.34777 -2.34777
-0.142069 -2.36331 -2.36331
-0.142771 -2.39458 -2.39458
-0.0899573 -2.3947 -2.3947
-0.0894589 -2.36343 -2.36343
-0.142421 -2.37893 -2.37893
-0.116359 -2.39462 -2.39462
-0.0897085 -2.37905 -2.37905
-0.115759 -2.36336 -2.36336
-0.11606 -2.37898 -2.37898
-0.142771 -2.39458 -2.39458
-0.143467 -2.42596 -2.42596
-0.0904525 -2.42609 -2.42609
-0.0899573 -2.3947 -2.3947
-0.14312 -2.41025 -2.41025
-0.116955 -2.42601 -2.42601
-0.0902053 -2.41038 -2.41038
-0.116359 -2.39462 -2.39462
-0.116658 -2.4103 -2.4103
-0.143467 -2.42596 -2.42596
-0.144157 -2.45746 -2.45746
-0.0909447 -2.45759 -2.45759
-0.0904525 -2.42609 -2.42609
-0.143813 -2.44169 -2.44169
-0.117546 -2.45751 -2.45751
-0.090699 -2.44182 -2.44182
-0.116955 -2.42601 -2.42601
-0.117251 -2.44175 -2.44175
-0.144157 -2.45746 -2.45746
-0.144841 -2.48908 -2.48908
-0.0914336 -2.48921 -2.48921
-0.0909447 -2.45759 -2.45759
-0.1445 -2.47325 -2.47325
-0.118132 -2.48913 -2.48913
-0.0911895 -2.47339 -2.47339
-0.117546 -2.45751 -2.45751
-0.11784 -2.47331 -2.47331
-0.144841 -2.48908 -2.48908
-0.145518 -2.52081 -2.52081
-0.0919194 -2.52095 -2.52095
-0.0914336 -2.48921 -2.48921
-0.145181 -2.50493 -2.50493
-0.118714 -2.52087 -2.52087
-0.0916769 -2.50507 -2.50507
-0.118132 -2.48913 -2.48913
-0.118424 -2.50499 -2.50499
-0.145518 -2.52081 -2.52081
-0.14619 -2.55265 -2.55265
-0.092402 -2.5528 -2.5528
-0.0919194 -2.52095 -2.52095
-0.145855 -2.53672 -2.53672
-0.119291 -2.55271 -2.55271
-0.0921611 -2.53686 -2.53686
-0.118714 -2.52087 -2.52087
-0.119003 -2.53678 -2.53678
-0.14619 -2.55265 -2.55265
-0.146855 -2.58461 -2.58461
-0.0928814 -2.58476 -2.58476
-0.092402 -2.5528 -2.5528
-0.146523 -2.56862 -2.56862
-0.119863 -2.58467 -2.58467
-0.0926421 -2.56877 -2.56877
-0.119291 -2.55271 -2.55271
-0.119577 -2.56868 -2.56868
-0.146855 -2.58461 -2.58461
-0.147513 -2.61667 -2.61667
-0.0933575 -2.61683 -2.61683
-0.0928814 -2.58476 -2.58476
-0.147185 -2.60063 -2.60063
-0.12043 -2.61674 -2.61674
-0.0931199 -2.60078 -2.60078
-0.119863 -2.58467 -2.58467
-0.120147 -2.60069 -2.60069
-0.147513 -2.61667 -2.61667
-0.148165 -2.64884 -2.64884
-0.0938304 -2.64901 -2.64901
-0.0933575 -2.61683 -2.61683
-0.14784 -2.63274 -2.63274
-0.120993 -2.64891 -2.64891
-0.0935944 -2.63291 -2.63291
-0.12043 -2.61674 -2.61674
-0.120712 -2.63281 -2.63281
-0.148165 -2.64884 -2.64884
-0.148811 -2.68112 -2.68112
-0.0943001 -2.68129 -2.68129
-0.0938304 -2.64901 -2.64901
-0.148489 -2.66497 -2.66497
-0.121551 -2.68119 -2.68119
-0.0940657 -2.66514 -2.66514
-0.120993 -2.64891 -2.64891
-0.121272 -2.66504 -2.66504
-0.148811 -2.68112 -2.68112
-0.149451 -2.7135 -2.7135
-0.0947664 -2.71368 -2.71368
-0.0943001 -2.68129 -2.68129
-0.149132 -2.6973 -2.6973
-0.122104 -2.71358 -2.71358
-0.0945337 -2.69747 -2.69747
-0.121551 -2.68119 -2.68119
-0.121828 -2.69737 -2.69737
-0.149451 -2.7135 -2.7135
-0.150084 -2.74598 -2.74598
-0.0952295 -2.74616 -2.74616
-0.0947664 -2.71368 -2.71368
-0.149768 -2.72973 -2.72973
-0.122652 -2.74606 -2.74606
-0.0949984 -2.72991 -2.72991
-0.122104 -2.71358 -2.71358
-0.122378 -2.72981 -2.72981
-0.150084 -2.74598 -2.74598
-0.150711 -2.77856 -2.77856
-0.0956892 -2.77875 -2.77875
-0.0952295 -2.74616 -2.74616
-0.150398 -2.76226 -2.76226
-0.123195 -2.77865 -2.77865
-0.0954597 -2.76244 -2.76244
-0.122652 -2.74606 -2.74606
-0.122924 -2.76234 -2.76234
-0.150711 -2.77856 -2.77856
-0.151331 -2.81124 -2.81124
-0.0961456 -2.81144 -2.81144
-0.0956892 -2.77875 -2.77875
-0.151022 -2.79489 -2.79489
-0.123733 -2.81133 -2.81133
-0.0959178 -2.79508 -2.79508
-0.123195 -2.77865 -2.77865
-0.123465 -2.79498 -2.79498
-0.151331 -2.81124 -2.81124
-0.151945 -2.84402 -2.84402
-0.0965986 -2.84422 -2.84422
-0.0961456 -2.81144 -2.81144
-0.151639 -2.82762 -2.82762
-0.124267 -2.84411 -2.84411
-0.0963725 -2.82781 -2.82781
-0.123733 -2.81133 -2.81133
-0.124001 -2.82771 -2.82771
-0.151945 -2.84402 -2.84402
-0.152553 -2.87689 -2.87689
-0.0970482 -2.87709 -2.87709
-0.0965986 -2.84422 -2.84422
-0.15225 -2.86045 -2.86045
-0.124795 -2.87698 -2.87698
-0.0968239 -2.86064 -2.86064
-0.124267 -2.84411 -2.84411
-0.124532 -2.86053 -2.86053
-0.152553 -2.87689 -2.87689
-0.153154 -2.90986 -2.90986
-0.0974945 -2.91006 -2.91006
-0.0970482 -2.87709 -2.87709
-0.152854 -2.89336 -2.89336
-0.125319 -2.90995 -2.90995
-0.0972718 -2.89357 -2.89357
-0.124795 -2.87698 -2.87698
-0.125058 -2.89346 -2.89346
-0.153154 -2.90986 -2.90986
-0.153749 -2.94291 -2.94291
-0.0979373 -2.94312 -2.94312
-0.0974945 -2.91006 -2.91006
-0.153452 -2.92637 -2.92637
-0.125838 -2.94301 -2.94301
-0.0977163 -2.92658 -2.92658
-0.125319 -2.90995 -2.90995
-0.125579 -2.92647 -2.92647
-0.153749 -2.94291 -2.94291
-0.154337 -2.97606 -2.97606
-0.0983767 -2.97627 -2.97627
-0.0979373 -2.94312 -2.94312
-0.154044 -2.95947 -2.95947
-0.126352 -2.97615 -2.97615
-0.0981574 -2.95969 -2.95969
-0.125838 -2.94301 -2.94301
-0.126095 -2.95957 -2.95957
-0.154337 -2.97606 -2.97606
-0.154918 -3.00929 -3.00929
-0.0988126 -3.00951 -3.00951
-0.0983767 -2.97627 -2.97627
-0.154628 -2.99266 -2.99266
-0.12686 -3.00939 -3.00939
-0.0985951 -2.99288 -2.99288
-0.126352 -2.97615 -2.97615
-0.126607 -2.99276 -2.99276
-0.154918 -3.00929 -3.00929
-0.155493 -3.0426 -3.0426
-0.099245 -3.04283 -3.04283
-0.0988126 -3.00951 -3.00951
-0.155207 -3.02593 -3.02593
-0.127364 -3.04271 -3.04271
-0.0990293 -3.02616 -3.02616
-0.12686 -3.00939 -3.00939
-0.127113 -3.02604 -3.02604
-0.155493 -3.0426 -3.0426
-0.156062 -3.076 -3.076
-0.099674 -3.07623 -3.07623
-0.099245 -3.04283 -3.04283
-0.155778 -3.05929 -3.05929
-0.127863 -3.07611 -3.07611
-0.0994599 -3.05952 -3.05952
-0.127364 -3.04271 -3.04271
-0.127614 -3.0594 -3.0594
-0.156062 -3.076 -3.076
-0.156624 -3.10949 -3.10949
-0.100099 -3.10972 -3.10972
-0.099674 -3.07623 -3.07623
-0.156344 -3.09273 -3.09273
-0.128356 -3.10959 -3.10959
-0.0998871 -3.09297 -3.09297
-0.127863 -3.07611 -3.07611
-0.12811 -3.09284 -3.09284
-0.156624 -3.10949 -3.10949
-0.157179 -3.14305 -3.14305
-0.100521 -3.14329 -3.14329
-0.100099 -3.10972 -3.10972
-0.156902 -3.12626 -3.12626
-0.128845 -3.14316 -3.14316
-0.100311 -3.1265 -3.1265
-0.128356 -3.10959 -3.10959
-0.128601 -3.12637 -3.12637
-0.157179 -3.14305 -3.14305
-0.157727 -3.17669 -3.17669
-0.10094 -3.17693 -3.17693
-0.100521 -3.14329 -3.14329
-0.157454 -3.15986 -3.15986
-0.129328 -3.1768 -3.1768
-0.100731 -3.1601 -3.1601
-0.128845 -3.14316 -3.14316
-0.129087 -3.15997 -3.15997
-0.157727 -3.17669 -3.17669
-0.158269 -3.2104 -3.2104
-0.101354 -3.21065 -3.21065
-0.10094 -3.17693 -3.17693
-0.157999 -3.19354 -3.19354
-0.129807 -3.21052 -3.21052
-0.101147 -3.19378 -3.19378
-0.129328 -3.1768 -3.1768
-0.129568 -3.19365 -3.19365
-0.158269 -3.2104 -3.2104
-0.158805 -3.2442 -3.2442
-0.101765 -3.24445 -3.24445
-0.101354 -3.21065 -3.21065
-0.158538 -3.22729 -3.22729
-0.13028 -3.24432 -3.24432
-0.10156 -3.22754 -3.22754
-0.129807 -3.21052 -3.21052
-0.130044 -3.22741 -3.22741
-0.158805 -3.2442 -3.2442
-0.159333 -3.27806 -3.27806
-0.102173 -3.27832 -3.27832
-0.101765 -3.24445 -3.24445
-0.15907 -3.26112 -3.26112
-0.130748 -3.27818 -3.27818
-0.101969 -3.26138 -3.26138
-0.13028 -3.24432 -3.24432
-0.130514 -3.26124 -3.26124
-0.159333 -3.27806 -3.27806
-0.159855 -3.31199 -3.31199
-0.102577 -3.31226 -3.31226
-0.102173 -3.27832 -3.27832
-0.159595 -3.29502 -3.29502
-0.131211 -3.31212 -3.31212
-0.102375 -3.29528 -3.29528
-0.130748 -3.27818 -3.27818
-0.13098 -3.29514 -3.29514
-0.159855 -3.31199 -3.31199
-0.16037 -3.346 -3.346
-0.102977 -3.34627 -3.34627
-0.102577 -3.31226 -3.31226
-0.160113 -3.32899 -3.32899
-0.131668 -3.34613 -3.34613
-0.102777 -3.32925 -3.32925
-0.131211 -3.31212 -3.31212
-0.13144 -3.32911 -3.32911
-0.16037 -3.346 -3.346
-0.160878 -3.38007 -3.38007
-0.103373 -3.38034 -3.38034
-0.102977 -3.34627 -3.34627
-0.160625 -3.36303 -3.36303
-0.132121 -3.3802 -3.3802
-0.103175 -3.3633 -3.3633
-0.131668 -3.34613 -3.34613
-0.131895 -3.36315 -3.36315
-0.160878 -3.38007 -3.38007
-0.16138 -3.41421 -3.41421
-0.103766 -3.41448 -3.41448
-0.103373 -3.38034 -3.38034
-0.16113 -3.39713 -3.39713
-0.132568 -3.41434 -3.41434
-0.10357 -3.39741 -3.39741
-0.132121 -3.3802 -3.3802
-0.132345 -3.39726 -3.39726
-0.16138 -3.41421 -3.41421
-0.161875 -3.44841 -3.44841
-0.104155 -3.44869 -3.44869
-0.103766 -3.41448 -3.41448
-0.161628 -3.4313 -3.4313
-0.13301 -3.44854 -3.44854
-0.103961 -3.43158 -3.43158
-0.132568 -3.41434 -3.41434
-0.132789 -3.43143 -3.43143
-0.161875 -3.44841 -3.44841
-0.162363 -3.48267 -3.48267
-0.10454 -3.48296 -3.48296
-0.104155 -3.44869 -3.44869
-0.162119 -3.46553 -3.46553
-0.133446 -3.48281 -3.48281
-0.104348 -3.46582 -3.46582
-0.13301 -3.44854 -3.44854
-0.133228 -3.46567 -3.46567
-0.162363 -3.48267 -3.48267
-0.162844 -3.51699 -3.51699
-0.104921 -3.51728 -3.51728
-0.10454 -3.48296 -3.48296
-0.162604 -3.49982 -3.49982
-0.133877 -3.51713 -3.51713
-0.104731 -3.50011 -3.50011
-0.133446 -3.48281 -3.48281
-0.133662 -3.49996 -3.49996
-0.162844 -3.51699 -3.51699
-0.163318 -3.55137 -3.55137
-0.105299 -3.55167 -3.55167
-0.104921 -3.51728 -3.51728
-0.163081 -3.53417 -3.53417
-0.134303 -3.55151 -3.55151
-0.105111 -3.53447 -3.53447
-0.133877 -3.51713 -3.51713
-0.134091 -3.53432 -3.53432
-0.163318 -3.55137 -3.55137
-0.163785 -3.58581 -3.58581
-0.105673 -3.58611 -3.58611
-0.105299 -3.55167 -3.55167
-0.163552 -3.56858 -3.56858
-0.134724 -3.58595 -3.58595
-0.105486 -3.56888 -3.56888
-0.134303 -3.55151 -3.55151
-0.134514 -3.56873 -3.56873
-0.163785 -3.58581 -3.58581
-0.164245 -3.6203 -3.6203
-0.106042 -3.62061 -3.62061
-0.105673 -3.58611 -3.58611
-0.164016 -3.60305 -3.60305
-0.135139 -3.62045 -3.62045
-0.105858 -3.60335 -3.60335
-0.134724 -3.58595 -3.58595
-0.134932 -3.60319 -3.60319
-0.164245 -3.6203 -3.6203
-0.164699 -3.65484 -3.65484
-0.106408 -3.65515 -3.65515
-0.106042 -3.62061 -3.62061
-0.164473 -3.63757 -3.63757
-0.135548 -3.65499 -3.65499
-0.106226 -3.63787 -3.63787
-0.135139 -3.62045 -3.62045
-0.135344 -3.63771 -3.63771
-0.164699 -3.65484 -3.65484
-0.165145 -3.68944 -3.68944
-0.10677 -3.68975 -3.68975
-0.106408 -3.65515 -3.65515
-0.164923 -3.67214 -3.67214
-0.135953 -3.68959 -3.68959
-0.10659 -3.67245 -3.67245
-0.135548 -3.65499 -3.65499
-0.135751 -3.67229 -3.67229
-0.165145 -3.68944 -3.68944
-0.165584 -3.72408 -3.72408
-0.107129 -3.7244 -3.7244
-0.10677 -3.68975 -3.68975
-0.165365 -3.70676 -3.70676
-0.136351 -3.72424 -3.72424
-0.10695 -3.70707 -3.70707
-0.135953 -3.68959 -3.68959
-0.136153 -3.70691 -3.70691
-0.165584 -3.72408 -3.72408
-0.166017 -3.75878 -3.75878
-0.107483 -3.7591 -3.7591
-0.107129 -3.7244 -3.7244
-0.165801 -3.74142 -3.74142
-0.136745 -3.75893 -3.75893
-0.107306 -3.74174 -3.74174
-0.136351 -3.72424 -3.72424
-0.136549 -3.74158 -3.74158
-0.166017 -3.75878 -3.75878
-0.166442 -3.79351 -3.79351
-0.107833 -3.79384 -3.79384
-0.107483 -3.7591 -3.7591
-0.16623 -3.77614 -3.77614
-0.137132 -3.79367 -3.79367
-0.107658 -3.77646 -3.77646
-0.136745 -3.75893 -3.75893
-0.136939 -3.7763 -3.7763
-0.166442 -3.79351 -3.79351
-0.16686 -3.82829 -3.82829
-0.108179 -3.82862 -3.82862
-0.107833 -3.79384 -3.79384
-0.166652 -3.8109 -3.8109
-0.137515 -3.82845 -3.82845
-0.108007 -3.81123 -3.81123
-0.137132 -3.79367 -3.79367
-0.137324 -3.81106 -3.81106
-0.16686 -3.82829 -3.82829
-0.167271 -3.86312 -3.86312
-0.108521 -3.86345 -3.86345
-0.108179 -3.82862 -3.82862
-0.167067 -3.8457 -3.8457
-0.137891 -3.86328 -3.86328
-0.108351 -3.84603 -3.84603
-0.137515 -3.82845 -3.82845
-0.137704 -3.84586 -3.84586
-0.167271 -3.86312 -3.86312
-0.167675 -3.89798 -3.89798
-0.10886 -3.89832 -3.89832
-0.108521 -3.86345 -3.86345
-0.167474 -3.88054 -3.88054
-0.138262 -3.89814 -3.89814
-0.108691 -3.88088 -3.88088
-0.137891 -3.86328 -3.86328
-0.138078 -3.88071 -3.88071
-0.167675 -3.89798 -3.89798
-0.168072 -3.93288 -3.93288
-0.109194 -3.93322 -3.93322
-0.10886 -3.89832 -3.89832
-0.167875 -3.91543 -3.91543
-0.138628 -3.93305 -3.93305
-0.109027 -3.91577 -3.91577
-0.138262 -3.89814 -3.89814
-0.138446 -3.91559 -3.91559
-0.168072 -3.93288 -3.93288
-0.168462 -3.96782 -3.96782
-0.109524 -3.96816 -3.96816
-0.109194 -3.93322 -3.93322
-0.168268 -3.95034 -3.95034
-0.138988 -3.96799 -3.96799
-0.109359 -3.95069 -3.95069
-0.138628 -3.93305 -3.93305
-0.138808 -3.95051 -3.95051
-0.168462 -3.96782 -3.96782
-0.168844 -4.00279 -4.00279
-0.109849 -4.00314 -4.00314
-0.109524 -3.96816 -3.96816
-0.168654 -3.9853 -3.9853
-0.139342 -4.00296 -4.00296
-0.109687 -3.98565 -3.98565
-0.138988 -3.96799 -3.96799
-0.139165 -3.98547 -3.98547
-0.168844 -4.00279 -4.00279
-0.16922 -4.0378 -4.0378
-0.110171 -4.03815 -4.03815
-0.109849 -4.00314 -4.00314
-0.169033 -4.02029 -4.02029
-0.13969 -4.03797 -4.03797
-0.110011 -4.02064 -4.02064
-0.139342 -4.00296 -4.00296
-0.139517 -4.02046 -4.02046
-0.16922 -4.0378 -4.0378
-0.169588 -4.07283 -4.07283
-0.110488 -4.07319 -4.07319
-0.110171 -4.03815 -4.03815
-0.169405 -4.05531 -4.05531
-0.140033 -4.07301 -4.07301
-0.11033 -4.05567 -4.05567
-0.13969 -4.03797 -4.03797
-0.139862 -4.05548 -4.05548
-0.169588 -4.07283 -4.07283
-0.169949 -4.1079 -4.1079
-0.110802 -4.10826 -4.10826
-0.110488 -4.07319 -4.07319
-0.169769 -4.09036 -4.09036
-0.14037 -4.10807 -4.10807
-0.110646 -4.09072 -4.09072
-0.140033 -4.07301 -4.07301
-0.140202 -4.09054 -4.09054
-0.169949 -4.1079 -4.1079
-0.170302 -4.14299 -4.14299
-0.111111 -4.14335 -4.14335
-0.110802 -4.10826 -4.10826
-0.170126 -4.12544 -4.12544
-0.140701 -4.14317 -4.14317
-0.110957 -4.1258 -4.1258
-0.14037 -4.10807 -4.10807
-0.140536 -4.12562 -4.12562
-0.170302 -4.14299 -4.14299
-0.170648 -4.17811 -4.17811
-0.111416 -4.17848 -4.17848
-0.111111 -4.14335 -4.14335
-0.170476 -4.16054 -4.16054
-0.141027 -4.17829 -4.17829
-0.111264 -4.16091 -4.16091
-0.140701 -4.14317 -4.14317
-0.140865 -4.16073 -4.16073
-0.170648 -4.17811 -4.17811
-0.170987 -4.21325 -4.21325
-0.111716 -4.21362 -4.21362
-0.111416 -4.17848 -4.17848
-0.170819 -4.19567 -4.19567
-0.141347 -4.21343 -4.21343
-0.111566 -4.19605 -4.19605
-0.141027 -4.17829 -4.17829
-0.141187 -4.19586 -4.19586
-0.170987 -4.21325 -4.21325
-0.171319 -4.24841 -4.24841
-0.112012 -4.24879 -4.24879
-0.111716 -4.21362 -4.21362
-0.171154 -4.23083 -4.23083
-0.14166 -4.2486 -4.2486
-0.111865 -4.2312 -4.2312
-0.141347 -4.21343 -4.21343
-0.141504 -4.23101 -4.23101
-0.171319 -4.24841 -4.24841
-0.171643 -4.28359 -4.28359
-0.112304 -4.28397 -4.28397
-0.112012 -4.24879 -4.24879
-0.171481 -4.266 -4.266
-0.141968 -4.28378 -4.28378
-0.112159 -4.26638 -4.26638
-0.14166 -4.2486 -4.2486
-0.141815 -4.26619 -4.26619
-0.171643 -4.28359 -4.28359
-0.171959 -4.3188 -4.3188
-0.112592 -4.31918 -4.31918
-0.112304 -4.28397 -4.28397
-0.171802 -4.30119 -4.30119
-0.14227 -4.31899 -4.31899
-0.112448 -4.30158 -4.30158
-0.141968 -4.28378 -4.28378
-0.14212 -4.30138 -4.30138
-0.171959 -4.3188 -4.3188
-0.172268 -4.35401 -4.35401
-0.112874 -4.3544 -4.3544
-0.112592 -4.31918 -4.31918
-0.172115 -4.3364 -4.3364
-0.142566 -4.35421 -4.35421
-0.112734 -4.33679 -4.33679
-0.14227 -4.31899 -4.31899
-0.142419 -4.33659 -4.33659
-0.172268 -4.35401 -4.35401
-0.17257 -4.38925 -4.38925
-0.113152 -4.38964 -4.38964
-0.112874 -4.3544 -4.3544
-0.17242 -4.37163 -4.37163
-0.142856 -4.38944 -4.38944
-0.113014 -4.37202 -4.37202
-0.142566 -4.35421 -4.35421
-0.142712 -4.37182 -4.37182
-0.17257 -4.38925 -4.38925
-0.172864 -4.42449 -4.42449
-0.113425 -4.42489 -4.42489
-0.113152 -4.38964 -4.38964
-0.172718 -4.40687 -4.40687
-0.143139 -4.42469 -4.42469
-0.113289 -4.40726 -4.40726
-0.142856 -4.38944 -4.38944
-0.142998 -4.40706 -4.40706
-0.172864 -4.42449 -4.42449
-0.17315 -4.45975 -4.45975
-0.113692 -4.46015 -4.46015
-0.113425 -4.42489 -4.42489
-0.173008 -4.44212 -4.44212
-0.143415 -4.45995 -4.45995
-0.113559 -4.44252 -4.44252
-0.143139 -4.42469 -4.42469
-0.143278 -4.44232 -4.44232
-0.17315 -4.45975 -4.45975
-0.173428 -4.49502 -4.49502
-0.113953 -4.49542 -4.49542
-0.113692 -4.46015 -4.46015
-0.17329 -4.47738 -4.47738
-0.143684 -4.49522 -4.49522
-0.113824 -4.47778 -4.47778
-0.143415 -4.45995 -4.45995
-0.143551 -4.47758 -4.47758
-0.173428 -4.49502 -4.49502
-0.173697 -4.53029 -4.53029
-0.114209 -4.5307 -4.5307
-0.113953 -4.49542 -4.49542
-0.173564 -4.51265 -4.51265
-0.143945 -4.5305 -4.5305
-0.114082 -4.51306 -4.51306
-0.143684 -4.49522 -4.49522
-0.143816 -4.51286 -4.51286
-0.173697 -4.53029 -4.53029
-0.173957 -4.56558 -4.56558
-0.114459 -4.56599 -4.56599
-0.114209 -4.5307 -4.5307
-0.173828 -4.54794 -4.54794
-0.144197 -4.56579 -4.56579
-0.114334 -4.54834 -4.54834
-0.143945 -4.5305 -4.5305
-0.144072 -4.54814 -4.54814
-0.173957 -4.56558 -4.56558
-0.174206 -4.6009 -4.6009
-0.114708 -4.60127 -4.60127
-0.114459 -4.56599 -4.56599
-0.174082 -4.58324 -4.58324
-0.144446 -4.60108 -4.60108
-0.114583 -4.58363 -4.58363
-0.144197 -4.56579 -4.56579
-0.144321 -4.58343 -4.58343
-0.174206 -4.6009 -4.6009
-0.174463 -4.63622 -4.63622
-0.114961 -4.63654 -4.63654
-0.114708 -4.60127 -4.60127
-0.174332 -4.61856 -4.61856
-0.144703 -4.63637 -4.63637
-0.114834 -4.61891 -4.61891
-0.144446 -4.60108 -4.60108
-0.144573 -4.61873 -4.61873
0 0 0
-0.000800104 -8.20095e-05 -8.20095e-05
-0.00026377 4.2775e-05 4.2775e-05
0 0 0
-0.0003879 2.44455e-05 2.44455e-05
-0.00052995 -4.00626e-06 -4.00626e-06
-0.000131305 8.60076e-05 8.60076e-05
0 0 0
-0.000257255 6.50829e-05 6.50829e-05
-0.000800104 -8.20095e-05 -8.20095e-05
-0.00166134 -0.000620995 -0.000620995
-0.000549279 -0.000404233 -0.000404233
-0.00026377 4.2775e-05 4.2775e-05
-0.00122535 -0.000299783 -0.000299783
-0.00110023 -0.000482645 -0.000482645
-0.000403868 -0.000123385 -0.000123385
-0.00052995 -4.00626e-06 -4.00626e-06
-0.000811514 -0.000188674 -0.000188674
-0.00166134 -0.000620995 -0.000620995
-0.00255846 -0.00155356 -0.00155356
-0.000845055 -0.0012809 -0.0012809
-0.000549279 -0.000404233 -0.000404233
-0.00210716 -0.00104064 -0.00104064
-0.00169455 -0.00138122 -0.00138122
-0.000696368 -0.000791773 -0.000791773
-0.00110023 -0.000482645 -0.000482645
-0.00139529 -0.000882165 -0.000882165
-0.00255846 -0.00155356 -0.00155356
-0.00346299 -0.00284485 -0.00284485
-0.00114733 -0.00254806 -0.00254806
-0.000845055 -0.0012809 -0.0012809
-0.00301081 -0.00215534 -0.00215534
-0.00229785 -0.00265838 -0.00265838
-0.000995759 -0.00186743 -0.00186743
-0.00169455 -0.00138122 -0.00138122
-0.00199583 -0.00197409 -0.00197409
-0.00346299 -0.00284485 -0.00284485
-0.00436452 -0.00448538 -0.00448538
-0.00144927 -0.00418153 -0.00418153
-0.00114733 -0.00254806 -0.00254806
-0.00391452 -0.00362172 -0.00362172
-0.00290067 -0.00429534 -0.00429534
-0.00129852 -0.00331998 -0.00331998
-0.00229785 -0.00265838 -0.00265838
-0.00259967 -0.00343259 -0.00343259
-0.00436452 -0.00448538 -0.00448538
-0.00525779 -0.00647151 -0.00647151
-0.0017496 -0.00616896 -0.00616896
-0.00144927 -0.00418153 -0.00418153
-0.00481224 -0.00543532 -0.00543532
-0.00349867 -0.00628239 -0.00628239
-0.00159972 -0.00513149 -0.00513149
-0.00290067 -0.00429534 -0.00429534
-0.00320037 -0.00524542 -0.00524542
-0.00525779 -0.00647151 -0.00647151
-0.00614325 -0.00880261 -0.00880261
-0.00204702 -0.00850385 -0.00850385
-0.0017496 -0.00616896 -0.00616896
-0.00570145 -0.007594 -0.007594
-0.00409107 -0.00861583 -0.00861583
-0.00189868 -0.00729321 -0.00729321
-0.00349867 -0.00628239 -0.00628239
-0.00379555 -0.00740598 -0.00740598
-0.00614325 -0.00880261 -0.00880261
-0.00702145 -0.0114775 -0.0114775
-0.00234202 -0.011183 -0.011183
-0.00204702 -0.00850385 -0.00850385
-0.00658319 -0.0100972 -0.0100972
-0.00467831 -0.0112932 -0.0112932
-0.0021948 -0.00980053 -0.00980053
-0.00409107 -0.00861583 -0.00861583
-0.00438528 -0.00991164 -0.00991164
-0.00702145 -0.0114775 -0.0114775
-0.00789358 -0.014495 -0.014495
-0.00263482 -0.0142043 -0.0142043
-0.00234202 -0.011183 -0.011183
-0.00745822 -0.0129435 -0.0129435
-0.00526117 -0.014313 -0.014313
-0.00248867 -0.012651 -0.012651
-0.00467831 -0.0112932 -0.0112932
-0.00497024 -0.0127604 -0.0127604
-0.00789358 -0.014495 -0.014495
-0.00876034 -0.0178535 -0.0178535
-0.00292592 -0.0175663 -0.0175663
-0.00263482 -0.0142043 -0.0142043
-0.00832759 -0.0161317 -0.0161317
-0.00584033 -0.0176735 -0.0176735
-0.00278056 -0.0158428 -0.0158428
-0.00526117 -0.014313 -0.014313
-0.00555118 -0.0159507 -0.0159507
-0.00876034 -0.0178535 -0.0178535
-0.00962233 -0.0215515 -0.0215515
-0.00321556 -0.0212673 -0.0212673
-0.00292592 -0.0175663 -0.0175663
-0.00919191 -0.0196602 -0.0196602
-0.00641626 -0.0213732 -0.0213732
-0.0030709 -0.0193745 -0.0193745
-0.00584033 -0.0176735 -0.0176735
-0.00612867 -0.0194811 -0.0194811
-0.00962233 -0.0215515 -0.0215515
-0.0104799 -0.0255872 -0.0255872
-0.00350397 -0.0253058 -0.0253058
-0.00321556 -0.0212673 -0.0212673
-0.0100516 -0.0235272 -0.0235272
-0.00698929 -0.0254105 -0.0254105
-0.00335991 -0.0232445 -0.0232445
-0.00641626 -0.0213732 -0.0213732
-0.00670312 -0.0233498 -0.0233498
-0.0104799 -0.0255872 -0.0255872
-0.0113332 -0.0299587 -0.0299587
-0.00379129 -0.0296801 -0.0296801
-0.00350397 -0.0253058 -0.0253058
-0.010907 -0.0277311 -0.0277311
-0.00755963 -0.0297837 -0.0297837
-0.00364776 -0.0274511 -0.0274511
-0.00698929 -0.0254105 -0.0254105
-0.00727479 -0.0275552 -0.0275552
-0.0113332 -0.0299587 -0.0299587
-0.0121824 -0.0346644 -0.0346644
-0.00407761 -0.0343885 -0.0343885
-0.00379129 -0.0296801 -0.0296801
-0.0117583 -0.0322699 -0.0322699
-0.00812741 -0.0344909 -0.0344909
-0.00393457 -0.0319926 -0.0319926
-0.00755963 -0.0297837 -0.0297837
-0.00784384 -0.0320956 -0.0320956
-0.0121824 -0.0346644 -0.0346644
-0.0130276 -0.0397024 -0.0397024
-0.00436301 -0.0394292 -0.0394292
-0.00407761 -0.0343885 -0.0343885
-0.0126055 -0.037142 -0.037142
-0.00869271 -0.0395304 -0.0395304
-0.00422042 -0.0368674 -0.0368674
-0.00812741 -0.0344909 -0.0344909
-0.00841037 -0.0369692 -0.0369692
-0.0130276 -0.0397024 -0.0397024
-0.0138689 -0.0450709 -0.0450709
-0.00464753 -0.0448004 -0.0448004
-0.00436301 -0.0394292 -0.0394292
-0.0134487 -0.0423455 -0.0423455
-0.0092556 -0.0449005 -0.0449005
-0.00450537 -0.0420736 -0.0420736
-0.00869271 -0.0395304 -0.0395304
-0.00897446 -0.0421743 -0.0421743
-0.0138689 -0.0450709 -0.0450709
-0.0147062 -0.0507681 -0.0507681
-0.00493122 -0.0505004 -0.0505004
-0.00464753 -0.0448004 -0.0448004
-0.014288 -0.0478786 -0.0478786
-0.00981613 -0.0505993 -0.0505993
-0.00478948 -0.0476094 -0.0476094
-0.0092556 -0.0449005 -0.0449005
-0.00953616 -0.0477089 -0.0477089
-0.0147062 -0.0507681 -0.0507681
-0.0155397 -0.0567922 -0.0567922
-0.00521413 -0.0565273 -0.0565273
-0.00493122 -0.0505004 -0.0505004
-0.0151235 -0.0537394 -0.0537394
-0.0103743 -0.056625 -0.056625
-0.00507277 -0.0534731 -0.0534731
-0.00981613 -0.0505993 -0.0505993
-0.0100955 -0.0535714 -0.0535714
-0.0155397 -0.0567922 -0.0567922
-0.0163694 -0.0631413 -0.0631413
-0.00549629 -0.0628793 -0.0628793
-0.00521413 -0.0565273 -0.0565273
-0.0159551 -0.0599262 -0.0599262
-0.0109303 -0.0629757 -0.0629757
-0.0053553 -0.0596628 -0.0596628
-0.0103743 -0.056625 -0.056625
-0.0106526 -0.0597598 -0.0597598
-0.0163694 -0.0631413 -0.0631413
-0.0171953 -0.0698137 -0.0698137
-0.00577774 -0.0695546 -0.0695546
-0.00549629 -0.0628793 -0.0628793
-0.0167829 -0.0664372 -0.0664372
-0.0114839 -0.0696497 -0.0696497
-0.0056371 -0.0661767 -0.0661767
-0.0109303 -0.0629757 -0.0629757
-0.0112074 -0.0662724 -0.0662724
-0.0171953 -0.0698137 -0.0698137
-0.0180175 -0.0768074 -0.0768074
-0.00605851 -0.0765514 -0.0765514
-0.00577774 -0.0695546 -0.0695546
-0.0176069 -0.0732705 -0.0732705
-0.0120354 -0.0766452 -0.0766452
-0.0059182 -0.0730129 -0.0730129
-0.0114839 -0.0696497 -0.0696497
-0.0117599 -0.0731074 -0.0731074
-0.0180175 -0.0768074 -0.0768074
-0.018836 -0.0841208 -0.0841208
-0.00633864 -0.0838679 -0.0838679
-0.00605851 -0.0765514 -0.0765514
-0.0184272 -0.0804243 -0.0804243
-0.0125847 -0.0839603 -0.0839603
-0.00619865 -0.0801698 -0.0801698
-0.0120354 -0.0766452 -0.0766452
-0.0123103 -0.0802629 -0.0802629
-0.018836 -0.0841208 -0.0841208
-0.0196508 -0.091752 -0.091752
-0.00661816 -0.0915022 -0.0915022
-0.00633864 -0.0838679 -0.0838679
-0.0192438 -0.0878968 -0.0878968
-0.0131318 -0.0915933 -0.0915933
-0.00647848 -0.0876454 -0.0876454
-0.0125847 -0.0839603 -0.0839603
-0.0128585 -0.0877372 -0.0877372
-0.0196508 -0.091752 -0.091752
-0.0204619 -0.0996991 -0.0996991
-0.00689712 -0.0994525 -0.0994525
-0.00661816 -0.0915022 -0.0915022
-0.0200568 -0.0956862 -0.0956862
-0.0136769 -0.0995422 -0.0995422
-0.00675771 -0.095438 -0.095438
-0.0131318 -0.0915933 -0.0915933
-0.0134046 -0.0955284 -0.0955284
-0.0204619 -0.0996991 -0.0996991
-0.0212694 -0.10796 -0.10796
-0.00717553 -0.107717 -0.107717
-0.00689712 -0.0994525 -0.0994525
-0.0208661 -0.103791 -0.103791
-0.0142199 -0.107805 -0.107805
-0.00703639 -0.103546 -0.103546
-0.0136769 -0.0995422 -0.0995422
-0.0139486 -0.103635 -0.103635
-0.0212694 -0.10796 -0.10796
-0.0220734 -0.116534 -0.116534
-0.00745345 -0.116294 -0.116294
-0.00717553 -0.107717 -0.107717
-0.0216719 -0.112208 -0.112208
-0.0147608 -0.116381 -0.116381
-0.00731455 -0.111967 -0.111967
-0.0142199 -0.107805 -0.107805
-0.0144906 -0.112054 -0.112054
-0.0220734 -0.116534 -0.116534
-0.0228738 -0.125418 -0.125418
-0.00773088 -0.125182 -0.125182
-0.00745345 -0.116294 -0.116294
-0.0224741 -0.120938 -0.120938
-0.0152997 -0.125267 -0.125267
-0.00759222 -0.120699 -0.120699
-0.0147608 -0.116381 -0.116381
-0.0150305 -0.120785 -0.120785
-0.0228738 -0.125418 -0.125418
-0.0236708 -0.134611 -0.134611
-0.00800788 -0.134378 -0.134378
-0.00773088 -0.125182 -0.125182
-0.0232727 -0.129976 -0.129976
-0.0158367 -0.134462 -0.134462
-0.00786943 -0.129741 -0.129741
-0.0152997 -0.125267 -0.125267
-0.0155684 -0.129826 -0.129826
-0.0236708 -0.134611 -0.134611
-0.0244642 -0.144111 -0.144111
-0.00828446 -0.143881 -0.143881
-0.00800788 -0.134378 -0.134378
-0.0240679 -0.139323 -0.139323
-0.0163717 -0.143964 -0.143964
-0.00814622 -0.139091 -0.139091
-0.0158367 -0.134462 -0.134462
-0.0161044 -0.139174 -0.139174
-0.0244642 -0.144111 -0.144111
-0.0252542 -0.153916 -0.153916
-0.00856067 -0.15369 -0.15369
-0.00828446 -0.143881 -0.143881
-0.0248596 -0.148976 -0.148976
-0.0169048 -0.15377 -0.15377
-0.00842261 -0.148747 -0.148747
-0.0163717 -0.143964 -0.143964
-0.0166385 -0.148829 -0.148829
-0.0252542 -0.153916 -0.153916
-0.0260407 -0.164024 -0.164024
-0.00883652 -0.163801 -0.163801
-0.00856067 -0.15369 -0.15369
-0.0256479 -0.158932 -0.158932
-0.017436 -0.163881 -0.163881
-0.00869864 -0.158708 -0.158708
-0.0169048 -0.15377 -0.15377
-0.0171706 -0.158788 -0.158788
-0.0260407 -0.164024 -0.164024
-0.0268239 -0.174434 -0.174434
-0.00911205 -0.174215 -0.174215
-0.00883652 -0.163801 -0.163801
-0.0264328 -0.169191 -0.169191
-0.0179653 -0.174292 -0.174292
-0.00897432 -0.168971 -0.168971
-0.017436 -0.163881 -0.163881
-0.0177009 -0.169049 -0.169049
-0.0268239 -0.174434 -0.174434
-0.0276037 -0.185143 -0.185143
-0.00938729 -0.184928 -0.184928
-0.00911205 -0.174215 -0.174215
-0.0272142 -0.179751 -0.179751
-0.0184929 -0.185004 -0.185004
-0.0092497 -0.179534 -0.179534
-0.0179653 -0.174292 -0.174292
-0.0182293 -0.179611 -0.179611
-0.0276037 -0.185143 -0.185143
-0.0283802 -0.19615 -0.19615
-0.00966226 -0.195939 -0.195939
-0.00938729 -0.184928 -0.184928
-0.0279924 -0.19061 -0.19061
-0.0190186 -0.196013 -0.196013
-0.0095248 -0.190396 -0.190396
-0.0184929 -0.185004 -0.185004
-0.0187559 -0.190471 -0.190471
-0.0283802 -0.19615 -0.19615
-0.0291534 -0.207453 -0.207453
-0.00993699 -0.207245 -0.207245
-0.00966226 -0.195939 -0.195939
-0.0287672 -0.201765 -0.201765
-0.0195425 -0.207318 -0.207318
-0.00979965 -0.201555 -0.201555
-0.0190186 -0.196013 -0.196013
-0.0192808 -0.201628 -0.201628
-0.0291534 -0.207453 -0.207453
-0.0299233 -0.219051 -0.219051
-0.0102115 -0.218847 -0.218847
-0.00993699 -0.207245 -0.207245
-0.0295387 -0.213215 -0.213215
-0.0200647 -0.218917 -0.218917
-0.0100743 -0.213009 -0.213009
-0.0195425 -0.207318 -0.207318
-0.0198038 -0.213081 -0.213081
-0.0299233 -0.219051 -0.219051
-0.0306899 -0.23094 -0.23094
-0.0104858 -0.23074 -0.23074
-0.0102115 -0.218847 -0.218847
-0.030307 -0.224959 -0.224959
-0.0205852 -0.230809 -0.230809
-0.0103487 -0.224757 -0.224757
-0.0200647 -0.218917 -0.218917
-0.0203252 -0.224827 -0.224827
-0.0306899 -0.23094 -0.23094
-0.0314533 -0.243121 -0.243121
-0.01076 -0.242924 -0.242924
-0.0104858 -0.23074 -0.23074
-0.031072 -0.236994 -0.236994
-0.021104 -0.242992 -0.242992
-0.0106229 -0.236796 -0.236796
-0.0205852 -0.230809 -0.230809
-0.0208448 -0.236864 -0.236864
-0.0314533 -0.243121 -0.243121
-0.0322135 -0.25559 -0.25559
-0.011034 -0.255397 -0.255397
-0.01076 -0.242924 -0.242924
-0.0318338 -0.249319 -0.249319
-0.0216211 -0.255463 -0.255463
-0.010897 -0.249125 -0.249125
-0.021104 -0.242992 -0.242992
-0.0213628 -0.249191 -0.249191
-0.0322135 -0.25559 -0.25559
-0.0329705 -0.268346 -0.268346
-0.0113079 -0.268157 -0.268157
-0.011034 -0.255397 -0.255397
-0.0325924 -0.261932 -0.261932
-0.0221366 -0.268221 -0.268221
-0.011171 -0.261741 -0.261741
-0.0216211 -0.255463 -0.255463
-0.021879 -0.261806 -0.261806
-0.0329705 -0.268346 -0.268346
-0.0337244 -0.281387 -0.281387
-0.0115818 -0.281202 -0.281202
-0.0113079 -0.268157 -0.268157
-0.0333478 -0.274831 -0.274831
-0.0226504 -0.281264 -0.281264
-0.0114449 -0.274644 -0.274644
-0.0221366 -0.268221 -0.268221
-0.0223937 -0.274707 -0.274707
-0.0337244 -0.281387 -0.281387
-0.0344751 -0.294711 -0.294711
-0.0118555 -0.294531 -0.294531
-0.0115818 -0.281202 -0.281202
-0.0341001 -0.288014 -0.288014
-0.0231626 -0.294591 -0.294591
-0.0117186 -0.287831 -0.287831
-0.0226504 -0.281264 -0.281264
-0.0229067 -0.287892 -0.287892
-0.0344751 -0.294711 -0.294711
-0.0352227 -0.308317 -0.308317
-0.0121292 -0.308141 -0.308141
-0.0118555 -0.294531 -0.294531
-0.0348493 -0.301479 -0.301479
-0.0236733 -0.308199 -0.308199
-0.0119924 -0.301301 -0.301301
-0.0231626 -0.294591 -0.294591
-0.0234181 -0.30136 -0.30136
-0.0352227 -0.308317 -0.308317
-0.0359672 -0.322203 -0.322203
-0.0124029 -0.32203 -0.32203
-0.0121292 -0.308141 -0.308141
-0.0355953 -0.315225 -0.315225
-0.0241824 -0.322087 -0.322087
-0.0122661 -0.315051 -0.315051
-0.0236733 -0.308199 -0.308199
-0.023928 -0.315108 -0.315108
-0.0359672 -0.322203 -0.322203
-0.0367086 -0.336366 -0.336366
-0.0126766 -0.336198 -0.336198
-0.0124029 -0.32203 -0.32203
-0.0363383 -0.32925 -0.32925
-0.0246899 -0.336253 -0.336253
-0.0125397 -0.32908 -0.32908
-0.0241824 -0.322087 -0.322087
-0.0244363 -0.329135 -0.329135
-0.0367086 -0.336366 -0.336366
-0.037447 -0.350806 -0.350806
-0.0129503 -0.350642 -0.350642
-0.0126766 -0.336198 -0.336198
-0.0370782 -0.343552 -0.343552
-0.025196 -0.350694 -0.350694
-0.0128134 -0.343385 -0.343385
-0.0246899 -0.336253 -0.336253
-0.0249431 -0.343439 -0.343439
-0.037447 -0.350806 -0.350806
-0.0381824 -0.365519 -0.365519
-0.013224 -0.36536 -0.36536
-0.0129503 -0.350642 -0.350642
-0.0378151 -0.358128 -0.358128
-0.0257005 -0.36541 -0.36541
-0.0130871 -0.357966 -0.357966
-0.025196 -0.350694 -0.350694
-0.0254484 -0.358018 -0.358018
-0.0381824 -0.365519 -0.365519
-0.0389147 -0.380506 -0.380506
-0.0134978 -0.38035 -0.38035
-0.013224 -0.36536 -0.36536
-0.0385489 -0.372979 -0.372979
-0.0262035 -0.380399 -0.380399
-0.0133609 -0.372821 -0.372821
-0.0257005 -0.36541 -0.36541
-0.0259522 -0.372871 -0.372871
-0.0389147 -0.380506 -0.380506
-0.0396441 -0.395762 -0.395762
-0.0137716 -0.395611 -0.395611
-0.0134978 -0.38035 -0.38035
-0.0392798 -0.3881 -0.3881
-0.0267051 -0.395658 -0.395658
-0.0136347 -0.387947 -0.387947
-0.0262035 -0.380399 -0.380399
-0.0264545 -0.387995 -0.387995
-0.0396441 -0.395762 -0.395762
-0.0403704 -0.411288 -0.411288
-0.0140455 -0.411141 -0.411141
-0.0137716 -0.395611 -0.395611
-0.0400076 -0.403492 -0.403492
-0.0272053 -0.411186 -0.411186
-0.0139086 -0.403342 -0.403342
-0.0267051 -0.395658 -0.395658
-0.0269554 -0.403388 -0.403388
-0.0403704 -0.411288 -0.411288
-0.0410938 -0.42708 -0.42708
-0.0143196 -0.426938 -0.426938
-0.0140455 -0.411141 -0.411141
-0.0407325 -0.419151 -0.419151
-0.027704 -0.426981 -0.426981
-0.0141826 -0.419006 -0.419006
-0.0272053 -0.411186 -0.411186
-0.0274548 -0.41905 -0.41905
-0.0410938 -0.42708 -0.42708
-0.0418143 -0.443138 -0.443138
-0.0145938 -0.443 -0.443
-0.0143196 -0.426938 -0.426938
-0.0414544 -0.435076 -0.435076
-0.0282013 -0.443041 -0.443041
-0.0144567 -0.434936 -0.434936
-0.027704 -0.426981 -0.426981
-0.0279528 -0.434978 -0.434978
-0.0418143 -0.443138 -0.443138
-0.0425318 -0.459459 -0.459459
-0.0148681 -0.459325 -0.459325
-0.0145938 -0.443 -0.443
-0.0421734 -0.451266 -0.451266
-0.0286972 -0.459364 -0.459364
-0.0147309 -0.451129 -0.451129
-0.0282013 -0.443041 -0.443041
-0.0284494 -0.451169 -0.451169
-0.0425318 -0.459459 -0.459459
-0.0432464 -0.476041 -0.476041
-0.0151425 -0.475912 -0.475912
-0.0148681 -0.459325 -0.459325
-0.0428895 -0.467718 -0.467718
-0.0291918 -0.475949 -0.475949
-0.0150053 -0.467586 -0.467586
-0.0286972 -0.459364 -0.459364
-0.0289447 -0.467624 -0.467624
-0.0432464 -0.476041 -0.476041
-0.0439581 -0.492884 -0.492884
-0.0154172 -0.492759 -0.492759
-0.0151425 -0.475912 -0.475912
-0.0436026 -0.48443 -0.48443
-0.0296849 -0.492794 -0.492794
-0.0152798 -0.484303 -0.484303
-0.0291918 -0.475949 -0.475949
-0.0294385 -0.484339 -0.484339
-0.0439581 -0.492884 -0.492884
-0.044667 -0.509984 -0.509984
-0.015692 -0.509863 -0.509863
-0.0154172 -0.492759 -0.492759
-0.0443129 -0.501402 -0.501402
-0.0301768 -0.509896 -0.509896
-0.0155546 -0.501279 -0.501279
-0.0296849 -0.492794 -0.492794
-0.029931 -0.501313 -0.501313
-0.044667 -0.509984 -0.509984
-0.0453729 -0.52734 -0.52734
-0.015967 -0.527224 -0.527224
-0.015692 -0.509863 -0.509863
-0.0450203 -0.51863 -0.51863
-0.0306673 -0.527255 -0.527255
-0.0158295 -0.518512 -0.518512
-0.0301768 -0.509896 -0.509896
-0.0304222 -0.518544 -0.518544
-0.0453729 -0.52734 -0.52734
-0.046076 -0.54495 -0.54495
-0.0162422 -0.544839 -0.544839
-0.015967 -0.527224 -0.527224
-0.0457248 -0.536114 -0.536114
-0.0311564 -0.544868 -0.544868
-0.0161046 -0.536 -0.536
-0.0306673 -0.527255 -0.527255
-0.030912 -0.53603 -0.53603
-0.046076 -0.54495 -0.54495
-0.0467763 -0.562813 -0.562813
-0.0165177 -0.562706 -0.562706
-0.0162422 -0.544839 -0.544839
-0.0464265 -0.55385 -0.55385
-0.0316443 -0.562733 -0.562733
-0.0163799 -0.553741 -0.553741
-0.0311564 -0.544868 -0.544868
-0.0314005 -0.553769 -0.553769
-0.0467763 -0.562813 -0.562813
-0.0474737 -0.580927 -0.580927
-0.0167934 -0.580824 -0.580824
-0.0165177 -0.562706 -0.562706
-0.0471254 -0.571839 -0.571839
-0.0321308 -0.580849 -0.580849
-0.0166555 -0.571734 -0.571734
-0.0316443 -0.562733 -0.562733
-0.0318877 -0.57176 -0.57176
-0.0474737 -0.580927 -0.580927
-0.0481683 -0.599289 -0.599289
-0.0170693 -0.599191 -0.599191
-0.0167934 -0.580824 -0.580824
-0.0478214 -0.590077 -0.590077
-0.0326161 -0.599214 -0.599214
-0.0169313 -0.589977 -0.589977
-0.0321308 -0.580849 -0.580849
-0.0323736 -0.59 -0.59
-0.0481683 -0.599289 -0.599289
-0.0488601 -0.617899 -0.617899
-0.0173455 -0.617805 -0.617805
-0.0170693 -0.599191 -0.599191
-0.0485146 -0.608563 -0.608563
-0.0331001 -0.617826 -0.617826
-0.0172074 -0.608467 -0.608467
-0.0326161 -0.599214 -0.599214
-0.0328583 -0.608489 -0.608489
-0.0488601 -0.617899 -0.617899
-0.0495491 -0.636753 -0.636753
-0.017622 -0.636664 -0.636664
-0.0173455 -0.617805 -0.617805
-0.049205 -0.627295 -0.627295
-0.0335829 -0.636683 -0.636683
-0.0174837 -0.627204 -0.627204
-0.0331001 -0.617826 -0.617826
-0.0333417 -0.627224 -0.627224
-0.0495491 -0.636753 -0.636753
-0.0502354 -0.655851 -0.655851
-0.0178988 -0.655767 -0.655767
-0.017622 -0.636664 -0.636664
-0.0498926 -0.646272 -0.646272
-0.0340643 -0.655783 -0.655783
-0.0177603 -0.646185 -0.646185
-0.0335829 -0.636683 -0.636683
-0.0338238 -0.646203 -0.646203
-0.0502354 -0.655851 -0.655851
-0.0509188 -0.675191 -0.675191
-0.0181758 -0.675111 -0.675111
-0.0178988 -0.655767 -0.655767
-0.0505774 -0.665491 -0.665491
-0.0345446 -0.675125 -0.675125
-0.0180372 -0.665409 -0.665409
-0.0340643 -0.655783 -0.655783
-0.0343046 -0.665424 -0.665424
-0.0509188 -0.675191 -0.675191
-0.0515995 -0.69477 -0.69477
-0.0184531 -0.694695 -0.694695
-0.0181758 -0.675111 -0.675111
-0.0512595 -0.68495 -0.68495
-0.0350236 -0.694707 -0.694707
-0.0183144 -0.684873 -0.684873
-0.0345446 -0.675125 -0.675125
-0.0347842 -0.684886 -0.684886
-0.0515995 -0.69477 -0.69477
-0.0522774 -0.714587 -0.714587
-0.0187308 -0.714517 -0.714517
-0.0184531 -0.694695 -0.694695
-0.0519388 -0.704649 -0.704649
-0.0355014 -0.714527 -0.714527
-0.0185919 -0.704576 -0.704576
-0.0350236 -0.694707 -0.694707
-0.0352626 -0.704587 -0.704587
-0.0522774 -0.714587 -0.714587
-0.0529525 -0.73464 -0.73464
-0.0190087 -0.734575 -0.734575
-0.0187308 -0.714517 -0.714517
-0.0526153 -0.724584 -0.724584
-0.0359779 -0.734582 -0.734582
-0.0188697 -0.724516 -0.724516
-0.0355014 -0.714527 -0.714527
-0.0357398 -0.724525 -0.724525
-0.0529525 -0.73464 -0.73464
-0.053625 -0.754928 -0.754928
-0.019287 -0.754867 -0.754867
-0.0190087 -0.734575 -0.734575
-0.0532891 -0.744755 -0.744755
-0.0364533 -0.754873 -0.754873
-0.0191478 -0.744692 -0.744692
-0.0359779 -0.734582 -0.734582
-0.0362157 -0.744698 -0.744698
-0.053625 -0.754928 -0.754928
-0.0542946 -0.775448 -0.775448
-0.0195656 -0.775392 -0.775392
-0.019287 -0.754867 -0.754867
-0.0539601 -0.765159 -0.765159
-0.0369274 -0.775395 -0.775395
-0.0194263 -0.7651 -0.7651
-0.0364533 -0.754873 -0.754873
-0.0366905 -0.765105 -0.765105
-0.0542946 -0.775448 -0.775448
-0.0549616 -0.796199 -0.796199
-0.0198446 -0.796147 -0.796147
-0.0195656 -0.775392 -0.775392
-0.0546284 -0.785794 -0.785794
-0.0374004 -0.796148 -0.796148
-0.0197051 -0.785741 -0.785741
-0.0369274 -0.775395 -0.775395
-0.037164 -0.785743 -0.785743
-0.0549616 -0.796199 -0.796199
-0.0556258 -0.817178 -0.817178
-0.0201239 -0.817131 -0.817131
-0.0198446 -0.796147 -0.796147
-0.055294 -0.80666 -0.80666
-0.0378721 -0.81713 -0.81713
-0.0199842 -0.806611 -0.806611
-0.0374004 -0.796148 -0.796148
-0.0376364 -0.806611 -0.806611
-0.0556258 -0.817178 -0.817178
-0.0562873 -0.838385 -0.838385
-0.0204035 -0.838343 -0.838343
-0.0201239 -0.817131 -0.817131
-0.0559569 -0.827753 -0.827753
-0.0383427 -0.83834 -0.83834
-0.0202637 -0.827709 -0.827709
-0.0378721 -0.81713 -0.81713
-0.0381075 -0.827707 -0.827707
-0.0562873 -0.838385 -0.838385
-0.0569461 -0.859817 -0.859817
-0.0206835 -0.859779 -0.859779
-0.0204035 -0.838343 -0.838343
-0.056617 -0.849073 -0.849073
-0.0388121 -0.859774 -0.859774
-0.0205435 -0.849033 -0.849033
-0.0383427 -0.83834 -0.83834
-0.0385775 -0.849029 -0.849029
-0.0569461 -0.859817 -0.859817
-0.0576021 -0.881472 -0.881472
-0.0209639 -0.881439 -0.881439
-0.0206835 -0.859779 -0.859779
-0.0572744 -0.870616 -0.870616
-0.0392803 -0.881432 -0.881432
-0.0208236 -0.870581 -0.870581
-0.0388121 -0.859774 -0.859774
-0.0390463 -0.870575 -0.870575
-0.0576021 -0.881472 -0.881472
-0.0582555 -0.903349 -0.903349
-0.0212446 -0.903321 -0.903321
-0.0209639 -0.881439 -0.881439
-0.0579291 -0.892383 -0.892383
-0.0397473 -0.903311 -0.903311
-0.0211042 -0.892352 -0.892352
-0.0392803 -0.881432 -0.881432
-0.0395139 -0.892344 -0.892344
-0.0582555 -0.903349 -0.903349
-0.0589062 -0.925445 -0.925445
-0.0215256 -0.925422 -0.925422
-0.0212446 -0.903321 -0.903321
-0.0585812 -0.914369 -0.914369
-0.0402132 -0.92541 -0.92541
-0.0213851 -0.914344 -0.914344
-0.0397473 -0.903311 -0.903311
-0.0399804 -0.914333 -0.914333
-0.0589062 -0.925445 -0.925445
-0.0595541 -0.94776 -0.94776
-0.0218071 -0.947741 -0.947741
-0.0215256 -0.925422 -0.925422
-0.0592305 -0.936575 -0.936575
-0.0406779 -0.947727 -0.947727
-0.0216663 -0.936555 -0.936555
-0.0402132 -0.92541 -0.92541
-0.0404457 -0.936542 -0.936542
-0.0595541 -0.94776 -0.94776
-0.0601994 -0.97029 -0.97029
-0.0220889 -0.970277 -0.970277
-0.0218071 -0.947741 -0.947741
-0.0598771 -0.958998 -0.958998
-0.0411414 -0.970261 -0.970261
-0.0219479 -0.958982 -0.958982
-0.0406779 -0.947727 -0.947727
-0.0409098 -0.958967 -0.958967
-0.0601994 -0.97029 -0.97029
-0.0608419 -0.993035 -0.993035
-0.0223711 -0.993027 -0.993027
-0.0220889 -0.970277 -0.970277
-0.060521 -0.981636 -0.981636
-0.0416038 -0.993008 -0.993008
-0.0222299 -0.981625 -0.981625
-0.0411414 -0.970261 -0.970261
-0.0413728 -0.981608 -0.981608
-0.0608419 -0.993035 -0.993035
-0.0614818 -1.01599 -1.01599
-0.0226536 -1.01599 -1.01599
-0.0223711 -0.993027 -0.993027
-0.0611622 -1.00449 -1.00449
-0.042065 -1.01597 -1.01597
-0.0225123 -1.00448 -1.00448
-0.0416038 -0.993008 -0.993008
-0.0418345 -1.00446 -1.00446
-0.0614818 -1.01599 -1.01599
-0.062119 -1.03916 -1.03916
-0.0229366 -1.03916 -1.03916
-0.0226536 -1.01599 -1.01599
-0.0618007 -1.02755 -1.02755
-0.0425251 -1.03914 -1.03914
-0.0227951 -1.02755 -1.02755
-0.042065 -1.01597 -1.01597
-0.0422952 -1.02753 -1.02753
-0.062119 -1.03916 -1.03916
-0.0627535 -1.06254 -1.06254
-0.0232199 -1.06254 -1.06254
-0.0229366 -1.03916 -1.03916
-0.0624366 -1.05082 -1.05082
-0.042984 -1.06252 -1.06252
-0.0230782 -1.05083 -1.05083
-0.0425251 -1.03914 -1.03914
-0.0427547 -1.0508 -1.0508
-0.0627535 -1.06254 -1.06254
-0.0633853 -1.08612 -1.08612
-0.0235036 -1.08613 -1.08613
-0.0232199 -1.06254 -1.06254
-0.0630697 -1.0743 -1.0743
-0.0434417 -1.08611 -1.08611
-0.0233617 -1.07431 -1.07431
-0.042984 -1.06252 -1.06252
-0.043213 -1.07429 -1.07429
-0.0633853 -1.08612 -1.08612
-0.0640144 -1.10991 -1.10991
-0.0237877 -1.10993 -1.10993
-0.0235036 -1.08613 -1.08613
-0.0637002 -1.09799 -1.09799
-0.0438983 -1.1099 -1.1099
-0.0236456 -1.098 -1.098
-0.0434417 -1.08611 -1.08611
-0.0436702 -1.09798 -1.09798
-0.0640144 -1.10991 -1.10991
-0.0646408 -1.1339 -1.1339
-0.0240721 -1.13392 -1.13392
-0.0237877 -1.10993 -1.10993
-0.0643279 -1.12188 -1.12188
-0.0443537 -1.13389 -1.13389
-0.0239298 -1.1219 -1.1219
-0.0438983 -1.1099 -1.1099
-0.0441262 -1.12187 -1.12187
-0.0646408 -1.1339 -1.1339
-0.0652645 -1.1581 -1.1581
-0.0243569 -1.15812 -1.15812
-0.0240721 -1.13392 -1.13392
-0.064953 -1.14598 -1.14598
-0.044808 -1.15809 -1.15809
-0.0242145 -1.146 -1.146
-0.0443537 -1.13389 -1.13389
-0.044581 -1.14597 -1.14597
-0.0652645 -1.1581 -1.1581
-0.0658856 -1.18249 -1.18249
-0.0246421 -1.18252 -1.18252
-0.0243569 -1.15812 -1.15812
-0.0655754 -1.17027 -1.17027
-0.0452611 -1.18249 -1.18249
-0.0244995 -1.1703 -1.1703
-0.044808 -1.15809 -1.15809
-0.0450347 -1.17026 -1.17026
-0.0658856 -1.18249 -1.18249
-0.0665039 -1.20709 -1.20709
-0.0249277 -1.20712 -1.20712
-0.0246421 -1.18252 -1.18252
-0.0661951 -1.19476 -1.19476
-0.0457131 -1.20708 -1.20708
-0.0247848 -1.1948 -1.1948
-0.0452611 -1.18249 -1.18249
-0.0454872 -1.19476 -1.19476
-0.0665039 -1.20709 -1.20709
-0.0671196 -1.23187 -1.23187
-0.0252136 -1.23191 -1.23191
-0.0249277 -1.20712 -1.20712
-0.0668121 -1.21946 -1.21946
-0.0461639 -1.23187 -1.23187
-0.0250706 -1.21949 -1.21949
-0.0457131 -1.20708 -1.20708
-0.0459386 -1.21945 -1.21945
-0.0671196 -1.23187 -1.23187
-0.0677325 -1.25686 -1.25686
-0.0254999 -1.2569 -1.2569
-0.0252136 -1.23191 -1.23191
-0.0674264 -1.24434 -1.24434
-0.0466135 -1.25686 -1.25686
-0.0253567 -1.24438 -1.24438
-0.0461639 -1.23187 -1.23187
-0.0463888 -1.24434 -1.24434
-0.0677325 -1.25686 -1.25686
-0.0683427 -1.28203 -1.28203
-0.0257866 -1.28208 -1.28208
-0.0254999 -1.2569 -1.2569
-0.0680379 -1.26942 -1.26942
-0.0470619 -1.28204 -1.28204
-0.0256432 -1.26947 -1.26947
-0.0466135 -1.25686 -1.25686
-0.0468379 -1.26942 -1.26942
-0.0683427 -1.28203 -1.28203
-0.0689503 -1.3074 -1.3074
-0.0260736 -1.30745 -1.30745
-0.0257866 -1.28208 -1.28208
-0.0686468 -1.29469 -1.29469
-0.0475092 -1.3074 -1.3074
-0.02593 -1.29474 -1.29474
-0.0470619 -1.28204 -1.28204
-0.0472857 -1.2947 -1.2947
-0.0689503 -1.3074 -1.3074
-0.0695551 -1.33295 -1.33295
-0.026361 -1.33301 -1.33301
-0.0260736 -1.30745 -1.30745
-0.069253 -1.32015 -1.32015
-0.0479553 -1.33296 -1.33296
-0.0262173 -1.32021 -1.32021
-0.0475092 -1.3074 -1.3074
-0.0477324 -1.32016 -1.32016
-0.0695551 -1.33295 -1.33295
-0.0701572 -1.35869 -1.35869
-0.0266487 -1.35876 -1.35876
-0.026361 -1.33301 -1.33301
-0.0698565 -1.3458 -1.3458
-0.0484002 -1.35871 -1.35871
-0.0265048 -1.34586 -1.34586
-0.0479553 -1.33296 -1.33296
-0.0481779 -1.34581 -1.34581
-0.0701572 -1.35869 -1.35869
-0.0707566 -1.38462 -1.38462
-0.0269368 -1.38469 -1.38469
-0.0266487 -1.35876 -1.35876
-0.0704572 -1.37164 -1.37164
-0.048844 -1.38464 -1.38464
-0.0267927 -1.3717 -1.3717
-0.0484002 -1.35871 -1.35871
-0.0486222 -1.37165 -1.37165
-0.0707566 -1.38462 -1.38462
-0.0713532 -1.41073 -1.41073
-0.0272252 -1.41081 -1.41081
-0.0269368 -1.38469 -1.38469
-0.0710552 -1.39765 -1.39765
-0.0492865 -1.41075 -1.41075
-0.027081 -1.39772 -1.39772
-0.048844 -1.38464 -1.38464
-0.0490654 -1.39767 -1.39767
-0.0713532 -1.41073 -1.41073
-0.0719471 -1.43703 -1.43703
-0.027514 -1.4371 -1.4371
-0.0272252 -1.41081 -1.41081
-0.0716505 -1.42386 -1.42386
-0.0497278 -1.43704 -1.43704
-0.0273696 -1.42393 -1.42393
-0.0492865 -1.41075 -1.41075
-0.0495073 -1.42387 -1.42387
-0.0719471 -1.43703 -1.43703
-0.0725383 -1.4635 -1.4635
-0.0278031 -1.46358 -1.46358
-0.027514 -1.4371 -1.4371
-0.0722431 -1.45024 -1.45024
-0.050168 -1.46352 -1.46352
-0.0276585 -1.45032 -1.45032
-0.0497278 -1.43704 -1.43704
-0.0499481 -1.45026 -1.45026
-0.0725383 -1.4635 -1.4635
-0.0731268 -1.49015 -1.49015
-0.0280925 -1.49023 -1.49023
-0.0278031 -1.46358 -1.46358
-0.0728329 -1.4768 -1.4768
-0.0506069 -1.49017 -1.49017
-0.0279478 -1.47688 -1.47688
-0.050168 -1.46352 -1.46352
-0.0503876 -1.47682 -1.47682
-0.0731268 -1.49015 -1.49015
-0.0737125 -1.51697 -1.51697
-0.0283823 -1.51707 -1.51707
-0.0280925 -1.49023 -1.49023
-0.07342 -1.50354 -1.50354
-0.0510446 -1.517 -1.517
-0.0282373 -1.50363 -1.50363
-0.0506069 -1.49017 -1.49017
-0.0508259 -1.50356 -1.50356
-0.0737125 -1.51697 -1.51697
-0.0742954 -1.54398 -1.54398
-0.0286723 -1.54407 -1.54407
-0.0283823 -1.51707 -1.51707
-0.0740043 -1.53045 -1.53045
-0.0514811 -1.544 -1.544
-0.0285272 -1.53055 -1.53055
-0.0510446 -1.517 -1.517
-0.051263 -1.53048 -1.53048
-0.0742954 -1.54398 -1.54398
-0.0748756 -1.57115 -1.57115
-0.0289627 -1.57125 -1.57125
-0.0286723 -1.54407 -1.54407
-0.0745858 -1.55754 -1.55754
-0.0519164 -1.57118 -1.57118
-0.0288174 -1.55764 -1.55764
-0.0514811 -1.544 -1.544
-0.0516989 -1.55757 -1.55757
-0.0748756 -1.57115 -1.57115
-0.075453 -1.59849 -1.59849
-0.0292533 -1.5986 -1.5986
-0.0289627 -1.57125 -1.57125
-0.0751646 -1.5848 -1.5848
-0.0523504 -1.59853 -1.59853
-0.0291079 -1.5849 -1.5849
-0.0519164 -1.57118 -1.57118
-0.0521336 -1.58483 -1.58483
-0.075453 -1.59849 -1.59849
-0.0760276 -1.62601 -1.62601
-0.0295442 -1.62612 -1.62612
-0.0292533 -1.5986 -1.5986
-0.0757406 -1.61223 -1.61223
-0.0527832 -1.62604 -1.62604
-0.0293987 -1.61234 -1.61234
-0.0523504 -1.59853 -1.59853
-0.052567 -1.61226 -1.61226
-0.0760276 -1.62601 -1.62601
-0.0765994 -1.65369 -1.65369
-0.0298355 -1.6538 -1.6538
-0.0295442 -1.62612 -1.62612
-0.0763139 -1.63983 -1.63983
-0.0532147 -1.65373 -1.65373
-0.0296898 -1.63994 -1.63994
-0.0527832 -1.62604 -1.62604
-0.0529991 -1.63986 -1.63986
-0.0765994 -1.65369 -1.65369
-0.0771685 -1.68153 -1.68153
-0.0301269 -1.68165 -1.68165
-0.0298355 -1.6538 -1.6538
-0.0768843 -1.66759 -1.66759
-0.053645 -1.68157 -1.68157
-0.0299812 -1.6677 -1.6677
-0.0532147 -1.65373 -1.65373
-0.05343 -1.66763 -1.66763
-0.0771685 -1.68153 -1.68153
-0.0777347 -1.70954 -1.70954
-0.0304187 -1.70966 -1.70966
-0.0301269 -1.68165 -1.68165
-0.077452 -1.69552 -1.69552
-0.054074 -1.70959 -1.70959
-0.0302728 -1.69564 -1.69564
-0.053645 -1.68157 -1.68157
-0.0538597 -1.69556 -1.69556
-0.0777347 -1.70954 -1.70954
-0.0782981 -1.73771 -1.73771
-0.0307107 -1.73784 -1.73784
-0.0304187 -1.70966 -1.70966
-0.0780168 -1.72361 -1.72361
-0.0545017 -1.73776 -1.73776
-0.0305647 -1.72373 -1.72373
-0.054074 -1.70959 -1.70959
-0.054288 -1.72365 -1.72365
-0.0782981 -1.73771 -1.73771
-0.0788587 -1.76604 -1.76604
-0.0310029 -1.76617 -1.76617
-0.0307107 -1.73784 -1.73784
-0.0785788 -1.75186 -1.75186
-0.0549281 -1.76609 -1.76609
-0.0308568 -1.75199 -1.75199
-0.0545017 -1.73776 -1.73776
-0.0547151 -1.75191 -1.75191
-0.0788587 -1.76604 -1.76604
-0.0794165 -1.79453 -1.79453
-0.0312954 -1.79467 -1.79467
-0.0310029 -1.76617 -1.76617
-0.079138 -1.78027 -1.78027
-0.0553532 -1.79458 -1.79458
-0.0311491 -1.7804 -1.7804
-0.0549281 -1.76609 -1.76609
-0.0551408 -1.78032 -1.78032
-0.0794165 -1.79453 -1.79453
-0.0799714 -1.82318 -1.82318
-0.0315881 -1.82332 -1.82332
-0.0312954 -1.79467 -1.79467
-0.0796943 -1.80883 -1.80883
-0.055777 -1.82323 -1.82323
-0.0314417 -1.80897 -1.80897
-0.0553532 -1.79458 -1.79458
-0.0555653 -1.80889 -1.80889
-0.0799714 -1.82318 -1.82318
-0.0805234 -1.85197 -1.85197
-0.031881 -1.85212 -1.85212
-0.0315881 -1.82332 -1.82332
-0.0802478 -1.83756 -1.83756
-0.0561995 -1.85203 -1.85203
-0.0317345 -1.8377 -1.8377
-0.055777 -1.82323 -1.82323
-0.0559884 -1.83761 -1.83761
-0.0805234 -1.85197 -1.85197
-0.0810726 -1.88093 -1.88093
-0.0321741 -1.88108 -1.88108
-0.031881 -1.85212 -1.85212
-0.0807984 -1.86643 -1.86643
-0.0566207 -1.88099 -1.88099
-0.0320275 -1.86658 -1.86658
-0.0561995 -1.85203 -1.85203
-0.0564102 -1.86649 -1.86649
-0.0810726 -1.88093 -1.88093
-0.0816189 -1.91003 -1.91003
-0.0324674 -1.91018 -1.91018
-0.0321741 -1.88108 -1.88108
-0.0813461 -1.89546 -1.89546
-0.0570404 -1.91009 -1.91009
-0.0323207 -1.89561 -1.89561
-0.0566207 -1.88099 -1.88099
-0.0568307 -1.89552 -1.89552
-0.0816189 -1.91003 -1.91003
-0.0821623 -1.93928 -1.93928
-0.0327608 -1.93944 -1.93944
-0.0324674 -1.91018 -1.91018
-0.081891 -1.92464 -1.92464
-0.0574589 -1.93934 -1.93934
-0.0326141 -1.92479 -1.92479
-0.0570404 -1.91009 -1.91009
-0.0572498 -1.9247 -1.9247
-0.0821623 -1.93928 -1.93928
-0.0827028 -1.96868 -1.96868
-0.0330545 -1.96884 -1.96884
-0.0327608 -1.93944 -1.93944
-0.0824329 -1.95396 -1.95396
-0.0578759 -1.96875 -1.96875
-0.0329076 -1.95412 -1.95412
-0.0574589 -1.93934 -1.93934
-0.0576676 -1.95403 -1.95403
-0.0827028 -1.96868 -1.96868
-0.0832404 -1.99822 -1.99822
-0.0333482 -1.99839 -1.99839
-0.0330545 -1.96884 -1.96884
-0.082972 -1.98343 -1.98343
-0.0582916 -1.99829 -1.99829
-0.0332013 -1.9836 -1.9836
-0.0578759 -1.96875 -1.96875
-0.058084 -1.9835 -1.9835
-0.0832404 -1.99822 -1.99822
-0.0837751 -2.02791 -2.02791
-0.0336421 -2.02808 -2.02808
-0.0333482 -1.99839 -1.99839
-0.0835081 -2.01305 -2.01305
-0.0587059 -2.02798 -2.02798
-0.0334952 -2.01322 -2.01322
-0.0582916 -1.99829 -1.99829
-0.0584989 -2.01312 -2.01312
-0.0837751 -2.02791 -2.02791
-0.0843068 -2.05774 -2.05774
-0.0339362 -2.05792 -2.05792
-0.0336421 -2.02808 -2.02808
-0.0840413 -2.04281 -2.04281
-0.0591188 -2.05781 -2.05781
-0.0337892 -2.04298 -2.04298
-0.0587059 -2.02798 -2.02798
-0.0589125 -2.04288 -2.04288
-0.0843068 -2.05774 -2.05774
-0.0848355 -2.08771 -2.08771
-0.0342303 -2.08789 -2.08789
-0.0339362 -2.05792 -2.05792
-0.0845715 -2.07271 -2.07271
-0.0595302 -2.08779 -2.08779
-0.0340832 -2.07289 -2.07289
-0.0591188 -2.05781 -2.05781
-0.0593247 -2.07278 -2.07278
-0.0848355 -2.08771 -2.08771
-0.0853613 -2.11782 -2.11782
-0.0345246 -2.118 -2.118
-0.0342303 -2.08789 -2.08789
-0.0850988 -2.10275 -2.10275
-0.0599403 -2.1179 -2.1179
-0.0343774 -2.10293 -2.10293
-0.0595302 -2.08779 -2.08779
-0.0597354 -2.10282 -2.10282
-0.0853613 -2.11782 -2.11782
-0.0858841 -2.14806 -2.14806
-0.0348189 -2.14825 -2.14825
-0.0345246 -2.118 -2.118
-0.0856231 -2.13292 -2.13292
-0.0603488 -2.14814 -2.14814
-0.0346717 -2.13311 -2.13311
-0.0599403 -2.1179 -2.1179
-0.0601447 -2.133 -2.133
-0.0858841 -2.14806 -2.14806
-0.0864039 -2.17844 -2.17844
-0.0351133 -2.17863 -2.17863
-0.0348189 -2.14825 -2.14825
-0.0861444 -2.16323 -2.16323
-0.0607559 -2.17852 -2.17852
-0.0349661 -2.16342 -2.16342
-0.0603488 -2.14814 -2.14814
-0.0605526 -2.16331 -2.16331
-0.0864039 -2.17844 -2.17844
-0.0869207 -2.20895 -2.20895
-0.0354077 -2.20915 -2.20915
-0.0351133 -2.17863 -2.17863
-0.0866627 -2.19368 -2.19368
-0.0611615 -2.20903 -2.20903
-0.0352605 -2.19387 -2.19387
-0.0607559 -2.17852 -2.17852
-0.0609589 -2.19376 -2.19376
-0.0869207 -2.20895 -2.20895
-0.0874345 -2.23959 -2.23959
-0.0357022 -2.23979 -2.23979
-0.0354077 -2.20915 -2.20915
-0.087178 -2.22425 -2.22425
-0.0615657 -2.23968 -2.23968
-0.035555 -2.22445 -2.22445
-0.0611615 -2.20903 -2.20903
-0.0613638 -2.22434 -2.22434
-0.0874345 -2.23959 -2.23959
-0.0879452 -2.27036 -2.27036
-0.0359967 -2.27057 -2.27057
-0.0357022 -2.23979 -2.23979
-0.0876902 -2.25496 -2.25496
-0.0619683 -2.27045 -2.27045
-0.0358495 -2.25516 -2.25516
-0.0615657 -2.23968 -2.23968
-0.0617672 -2.25505 -2.25505
-0.0879452 -2.27036 -2.27036
-0.0884528 -2.30126 -2.30126
-0.0362913 -2.30147 -2.30147
-0.0359967 -2.27057 -2.27057
-0.0881994 -2.28579 -2.28579
-0.0623694 -2.30135 -2.30135
-0.036144 -2.286 -2.286
-0.0619683 -2.27045 -2.27045
-0.062169 -2.28589 -2.28589
-0.0884528 -2.30126 -2.30126
-0.0889574 -2.33228 -2.33228
-0.0365858 -2.3325 -2.3325
-0.0362913 -2.30147 -2.30147
-0.0887055 -2.31676 -2.31676
-0.0627689 -2.33238 -2.33238
-0.0364385 -2.31697 -2.31697
-0.0623694 -2.30135 -2.30135
-0.0625693 -2.31685 -2.31685
-0.0889574 -2.33228 -2.33228
-0.0894589 -2.36343 -2.36343
-0.0368803 -2.36365 -2.36365
-0.0365858 -2.3325 -2.3325
-0.0892086 -2.34784 -2.34784
-0.0631669 -2.36352 -2.36352
-0.036733 -2.34806 -2.34806
-0.0627689 -2.33238 -2.33238
-0.0629681 -2.34794 -2.34794
-0.0894589 -2.36343 -2.36343
-0.0899573 -2.3947 -2.3947
-0.0371747 -2.39492 -2.39492
-0.0368803 -2.36365 -2.36365
-0.0897085 -2.37905 -2.37905
-0.0635633 -2.3948 -2.3948
-0.0370275 -2.37927 -2.37927
-0.0631669 -2.36352 -2.36352
-0.0633653 -2.37915 -2.37915
-0.0899573 -2.3947 -2.3947
-0.0904525 -2.42609 -2.42609
-0.0374691 -2.42631 -2.42631
-0.0371747 -2.39492 -2.39492
-0.0902053 -2.41038 -2.41038
-0.0639581 -2.42619 -2.42619
-0.0373219 -2.4106 -2.4106
-0.0635633 -2.3948 -2.3948
-0.0637609 -2.41048 -2.41048
-0.0904525 -2.42609 -2.42609
-0.0909447 -2.45759 -2.45759
-0.0377634 -2.45782 -2.45782
-0.0374691 -2.42631 -2.42631
-0.090699 -2.44182 -2.44182
-0.0643514 -2.45769 -2.45769
-0.0376163 -2.44205 -2.44205
-0.0639581 -2.42619 -2.42619
-0.064155 -2.44193 -2.44193
-0.0909447 -2.45759 -2.45759
-0.0914336 -2.48921 -2.48921
-0.0380576 -2.48945 -2.48945
-0.0377634 -2.45782 -2.45782
-0.0911895 -2.47339 -2.47339
-0.064743 -2.48932 -2.48932
-0.0379105 -2.47362 -2.47362
-0.0643514 -2.45769 -2.45769
-0.0645474 -2.47349 -2.47349
-0.0914336 -2.48921 -2.48921
-0.0919194 -2.52095 -2.52095
-0.0383517 -2.52119 -2.52119
-0.0380576 -2.48945 -2.48945
-0.0916769 -2.50507 -2.50507
-0.0651329 -2.52106 -2.52106
-0.0382047 -2.5053 -2.5053
-0.064743 -2.48932 -2.48932
-0.0649381 -2.50517 -2.50517
-0.0919194 -2.52095 -2.52095
-0.092402 -2.5528 -2.5528
-0.0386457 -2.55304 -2.55304
-0.0383517 -2.52119 -2.52119
-0.0921611 -2.53686 -2.53686
-0.0655212 -2.55291 -2.55291
-0.0384988 -2.5371 -2.5371
-0.0651329 -2.52106 -2.52106
-0.0653273 -2.53697 -2.53697
-0.092402 -2.5528 -2.5528
-0.0928814 -2.58476 -2.58476
-0.0389396 -2.58501 -2.58501
-0.0386457 -2.55304 -2.55304
-0.0926421 -2.56877 -2.56877
-0.0659078 -2.58487 -2.58487
-0.0387927 -2.56901 -2.56901
-0.0655212 -2.55291 -2.55291
-0.0657147 -2.56888 -2.56888
-0.0928814 -2.58476 -2.58476
-0.0933575 -2.61683 -2.61683
-0.0392333 -2.61708 -2.61708
-0.0389396 -2.58501 -2.58501
-0.0931199 -2.60078 -2.60078
-0.0662927 -2.61694 -2.61694
-0.0390865 -2.60103 -2.60103
-0.0659078 -2.58487 -2.58487
-0.0661005 -2.60089 -2.60089
-0.0933575 -2.61683 -2.61683
-0.0938304 -2.64901 -2.64901
-0.0395268 -2.64926 -2.64926
-0.0392333 -2.61708 -2.61708
-0.0935944 -2.63291 -2.63291
-0.0666759 -2.64912 -2.64912
-0.03938 -2.63316 -2.63316
-0.0662927 -2.61694 -2.61694
-0.0664846 -2.63302 -2.63302
-0.0938304 -2.64901 -2.64901
-0.0943001 -2.68129 -2.68129
-0.0398201 -2.68155 -2.68155
-0.0395268 -2.64926 -2.64926
-0.0940657 -2.66514 -2.66514
-0.0670574 -2.68141 -2.68141
-0.0396735 -2.66539 -2.66539
-0.0666759 -2.64912 -2.64912
-0.0668669 -2.66525 -2.66525
-0.0943001 -2.68129 -2.68129
-0.0947664 -2.71368 -2.71368
-0.0401132 -2.71394 -2.71394
-0.0398201 -2.68155 -2.68155
-0.0945337 -2.69747 -2.69747
-0.0674371 -2.7138 -2.7138
-0.0399667 -2.69773 -2.69773
-0.0670574 -2.68141 -2.68141
-0.0672475 -2.69759 -2.69759
-0.0947664 -2.71368 -2.71368
-0.0952295 -2.74616 -2.74616
-0.040406 -2.74643 -2.74643
-0.0401132 -2.71394 -2.71394
-0.0949984 -2.72991 -2.72991
-0.0678151 -2.74628 -2.74628
-0.0402596 -2.73017 -2.73017
-0.0674371 -2.7138 -2.7138
-0.0676263 -2.73003 -2.73003
-0.0952295 -2.74616 -2.74616
-0.0956892 -2.77875 -2.77875
-0.0406986 -2.77902 -2.77902
-0.040406 -2.74643 -2.74643
-0.0954597 -2.76244 -2.76244
-0.0681913 -2.77887 -2.77887
-0.0405524 -2.76271 -2.76271
-0.0678151 -2.74628 -2.74628
-0.0680034 -2.76257 -2.76257
-0.0956892 -2.77875 -2.77875
-0.0961456 -2.81144 -2.81144
-0.040991 -2.81171 -2.81171
-0.0406986 -2.77902 -2.77902
-0.0959178 -2.79508 -2.79508
-0.0685656 -2.81156 -2.81156
-0.0408448 -2.79535 -2.79535
-0.0681913 -2.77887 -2.77887
-0.0683787 -2.79521 -2.79521
-0.0961456 -2.81144 -2.81144
-0.0965986 -2.84422 -2.84422
-0.041283 -2.84449 -2.84449
-0.040991 -2.81171 -2.81171
-0.0963725 -2.82781 -2.82781
-0.0689382 -2.84435 -2.84435
-0.041137 -2.82809 -2.82809
-0.0685656 -2.81156 -2.81156
-0.0687521 -2.82794 -2.82794
-0.0965986 -2.84422 -2.84422
-0.0970482 -2.87709 -2.87709
-0.0415747 -2.87737 -2.87737
-0.041283 -2.84449 -2.84449
-0.0968239 -2.86064 -2.86064
-0.0693088 -2.87722 -2.87722
-0.0414289 -2.86092 -2.86092
-0.0689382 -2.84435 -2.84435
-0.0691237 -2.86077 -2.86077
-0.0970482 -2.87709 -2.87709
-0.0974945 -2.91006 -2.91006
-0.0418661 -2.91035 -2.91035
-0.0415747 -2.87737 -2.87737
-0.0972718 -2.89357 -2.89357
-0.0696776 -2.91019 -2.91019
-0.0417204 -2.89385 -2.89385
-0.0693088 -2.87722 -2.87722
-0.0694935 -2.8937 -2.8937
-0.0974945 -2.91006 -2.91006
-0.0979373 -2.94312 -2.94312
-0.0421571 -2.94341 -2.94341
-0.0418661 -2.91035 -2.91035
-0.0977163 -2.92658 -2.92658
-0.0700446 -2.94326 -2.94326
-0.0420116 -2.92687 -2.92687
-0.0696776 -2.91019 -2.91019
-0.0698613 -2.92671 -2.92671
-0.0979373 -2.94312 -2.94312
-0.0983767 -2.97627 -2.97627
-0.0424478 -2.97656 -2.97656
-0.0421571 -2.94341 -2.94341
-0.0981574 -2.95969 -2.95969
-0.0704096 -2.97641 -2.97641
-0.0423025 -2.95997 -2.95997
-0.0700446 -2.94326 -2.94326
-0.0702273 -2.95982 -2.95982
-0.0983767 -2.97627 -2.97627
-0.0988126 -3.00951 -3.00951
-0.042738 -3.0098 -3.0098
-0.0424478 -2.97656 -2.97656
-0.0985951 -2.99288 -2.99288
-0.0707727 -3.00965 -3.00965
-0.0425929 -2.99317 -2.99317
-0.0704096 -2.97641 -2.97641
-0.0705914 -2.99302 -2.99302
-0.0988126 -3.00951 -3.00951
-0.099245 -3.04283 -3.04283
-0.0430279 -3.04313 -3.04313
-0.042738 -3.0098 -3.0098
-0.0990293 -3.02616 -3.02616
-0.0711338 -3.04297 -3.04297
-0.042883 -3.02645 -3.02645
-0.0707727 -3.00965 -3.00965
-0.0709535 -3.0263 -3.0263
-0.099245 -3.04283 -3.04283
-0.099674 -3.07623 -3.07623
-0.0433173 -3.07654 -3.07654
-0.0430279 -3.04313 -3.04313
-0.0994599 -3.05952 -3.05952
-0.071493 -3.07638 -3.07638
-0.0431726 -3.05982 -3.05982
-0.0711338 -3.04297 -3.04297
-0.0713136 -3.05966 -3.05966
-0.099674 -3.07623 -3.07623
-0.100099 -3.10972 -3.10972
-0.0436062 -3.11003 -3.11003
-0.0433173 -3.07654 -3.07654
-0.0998871 -3.09297 -3.09297
-0.0718502 -3.10987 -3.10987
-0.0434618 -3.09327 -3.09327
-0.071493 -3.07638 -3.07638
-0.0716718 -3.09311 -3.09311
-0.100099 -3.10972 -3.10972
-0.100521 -3.14329 -3.14329
-0.0438947 -3.1436 -3.1436
-0.0436062 -3.11003 -3.11003
-0.100311 -3.1265 -3.1265
-0.0722053 -3.14343 -3.14343
-0.0437505 -3.1268 -3.1268
-0.0718502 -3.10987 -3.10987
-0.072028 -3.12664 -3.12664
-0.100521 -3.14329 -3.14329
-0.10094 -3.17693 -3.17693
-0.0441826 -3.17724 -3.17724
-0.0438947 -3.1436 -3.1436
-0.100731 -3.1601 -3.1601
-0.0725584 -3.17708 -3.17708
-0.0440387 -3.16041 -3.16041
-0.0722053 -3.14343 -3.14343
-0.0723821 -3.16025 -3.16025
-0.10094 -3.17693 -3.17693
-0.101354 -3.21065 -3.21065
-0.0444701 -3.21097 -3.21097
-0.0441826 -3.17724 -3.17724
-0.101147 -3.19378 -3.19378
-0.0729095 -3.2108 -3.2108
-0.0443264 -3.1941 -3.1941
-0.0725584 -3.17708 -3.17708
-0.0727342 -3.19393 -3.19393
-0.101354 -3.21065 -3.21065
-0.101765 -3.24445 -3.24445
-0.044757 -3.24477 -3.24477
-0.0444701 -3.21097 -3.21097
-0.10156 -3.22754 -3.22754
-0.0732585 -3.2446 -3.2446
-0.0446136 -3.22786 -3.22786
-0.0729095 -3.2108 -3.2108
-0.0730843 -3.22769 -3.22769
-0.101765 -3.24445 -3.24445
-0.102173 -3.27832 -3.27832
-0.0450433 -3.27864 -3.27864
-0.044757 -3.24477 -3.24477
-0.101969 -3.26138 -3.26138
-0.0736054 -3.27847 -3.27847
-0.0449002 -3.2617 -3.2617
-0.0732585 -3.2446 -3.2446
-0.0734322 -3.26153 -3.26153
-0.102173 -3.27832 -3.27832
-0.102577 -3.31226 -3.31226
-0.045329 -3.31258 -3.31258
-0.0450433 -3.27864 -3.27864
-0.102375 -3.29528 -3.29528
-0.0739502 -3.31241 -3.31241
-0.0451862 -3.2956 -3.2956
-0.0736054 -3.27847 -3.27847
-0.0737781 -3.29543 -3.29543
-0.102577 -3.31226 -3.31226
-0.102977 -3.34627 -3.34627
-0.0456142 -3.34659 -3.34659
-0.045329 -3.31258 -3.31258
-0.102777 -3.32925 -3.32925
-0.0742928 -3.34642 -3.34642
-0.0454717 -3.32958 -3.32958
-0.0739502 -3.31241 -3.31241
-0.0741218 -3.32941 -3.32941
-0.102977 -3.34627 -3.34627
-0.103373 -3.38034 -3.38034
-0.0458987 -3.38067 -3.38067
-0.0456142 -3.34659 -3.34659
-0.103175 -3.3633 -3.3633
-0.0746333 -3.3805 -3.3805
-0.0457565 -3.36363 -3.36363
-0.0742928 -3.34642 -3.34642
-0.0744633 -3.36345 -3.36345
-0.103373 -3.38034 -3.38034
-0.103766 -3.41448 -3.41448
-0.0461825 -3.41482 -3.41482
-0.0458987 -3.38067 -3.38067
-0.10357 -3.39741 -3.39741
-0.0749715 -3.41464 -3.41464
-0.0460407 -3.39774 -3.39774
-0.0746333 -3.3805 -3.3805
-0.0748027 -3.39756 -3.39756
-0.103766 -3.41448 -3.41448
-0.104155 -3.44869 -3.44869
-0.0464657 -3.44903 -3.44903
-0.0461825 -3.41482 -3.41482
-0.103961 -3.43158 -3.43158
-0.0753076 -3.44885 -3.44885
-0.0463242 -3.43191 -3.43191
-0.0749715 -3.41464 -3.41464
-0.0751398 -3.43174 -3.43174
-0.104155 -3.44869 -3.44869
-0.10454 -3.48296 -3.48296
-0.0467481 -3.4833 -3.4833
-0.0464657 -3.44903 -3.44903
-0.104348 -3.46582 -3.46582
-0.0756414 -3.48312 -3.48312
-0.046607 -3.46615 -3.46615
-0.0753076 -3.44885 -3.44885
-0.0754748 -3.46598 -3.46598
-0.10454 -3.48296 -3.48296
-0.104921 -3.51728 -3.51728
-0.0470299 -3.51762 -3.51762
-0.0467481 -3.4833 -3.4833
-0.104731 -3.50011 -3.50011
-0.075973 -3.51745 -3.51745
-0.0468891 -3.50045 -3.50045
-0.0756414 -3.48312 -3.48312
-0.0758075 -3.50028 -3.50028
-0.104921 -3.51728 -3.51728
-0.105299 -3.55167 -3.55167
-0.0473108 -3.55201 -3.55201
-0.0470299 -3.51762 -3.51762
-0.105111 -3.53447 -3.53447
-0.0763022 -3.55183 -3.55183
-0.0471704 -3.53481 -3.53481
-0.075973 -3.51745 -3.51745
-0.0761379 -3.53463 -3.53463
-0.105299 -3.55167 -3.55167
-0.105673 -3.58611 -3.58611
-0.0475911 -3.58646 -3.58646
-0.0473108 -3.55201 -3.55201
-0.105486 -3.56888 -3.56888
-0.0766292 -3.58628 -3.58628
-0.047451 -3.56923 -3.56923
-0.0763022 -3.55183 -3.55183
-0.076466 -3.56905 -3.56905
-0.105673 -3.58611 -3.58611
-0.106042 -3.62061 -3.62061
-0.0478705 -3.62096 -3.62096
-0.0475911 -3.58646 -3.58646
-0.105858 -3.60335 -3.60335
-0.0769539 -3.62077 -3.62077
-0.0477309 -3.6037 -3.6037
-0.0766292 -3.58628 -3.58628
-0.0767918 -3.60352 -3.60352
-0.106042 -3.62061 -3.62061
-0.106408 -3.65515 -3.65515
-0.0481491 -3.65551 -3.65551
-0.0478705 -3.62096 -3.62096
-0.106226 -3.63787 -3.63787
-0.0772762 -3.65532 -3.65532
-0.0480099 -3.63822 -3.63822
-0.0769539 -3.62077 -3.62077
-0.0771153 -3.63804 -3.63804
-0.106408 -3.65515 -3.65515
-0.10677 -3.68975 -3.68975
-0.0484268 -3.69011 -3.69011
-0.0481491 -3.65551 -3.65551
-0.10659 -3.67245 -3.67245
-0.0775961 -3.68993 -3.68993
-0.0482881 -3.6728 -3.6728
-0.0772762 -3.65532 -3.65532
-0.0774364 -3.67262 -3.67262
-0.10677 -3.68975 -3.68975
-0.107129 -3.7244 -3.7244
-0.0487037 -3.72476 -3.72476
-0.0484268 -3.69011 -3.69011
-0.10695 -3.70707 -3.70707
-0.0779136 -3.72458 -3.72458
-0.0485654 -3.70743 -3.70743
-0.0775961 -3.68993 -3.68993
-0.0777551 -3.70724 -3.70724
-0.107129 -3.7244 -3.7244
-0.107483 -3.7591 -3.7591
-0.0489797 -3.75946 -3.75946
-0.0487037 -3.72476 -3.72476
-0.107306 -3.74174 -3.74174
-0.0782287 -3.75927 -3.75927
-0.0488418 -3.7421 -3.7421
-0.0779136 -3.72458 -3.72458
-0.0780715 -3.74192 -3.74192
-0.107483 -3.7591 -3.7591
-0.107833 -3.79384 -3.79384
-0.0492548 -3.7942 -3.7942
-0.0489797 -3.75946 -3.75946
-0.107658 -3.77646 -3.77646
-0.0785413 -3.79402 -3.79402
-0.0491174 -3.77682 -3.77682
-0.0782287 -3.75927 -3.75927
-0.0783853 -3.77664 -3.77664
-0.107833 -3.79384 -3.79384
-0.108179 -3.82862 -3.82862
-0.049529 -3.82899 -3.82899
-0.0492548 -3.7942 -3.7942
-0.108007 -3.81123 -3.81123
-0.0788515 -3.8288 -3.8288
-0.049392 -3.81159 -3.81159
-0.0785413 -3.79402 -3.79402
-0.0786967 -3.8114 -3.8114
-0.108179 -3.82862 -3.82862
-0.108521 -3.86345 -3.86345
-0.0498022 -3.86382 -3.86382
-0.049529 -3.82899 -3.82899
-0.108351 -3.84603 -3.84603
-0.0791592 -3.86363 -3.86363
-0.0496657 -3.8464 -3.8464
-0.0788515 -3.8288 -3.8288
-0.0790057 -3.84621 -3.84621
-0.108521 -3.86345 -3.86345
-0.10886 -3.89832 -3.89832
-0.0500744 -3.89869 -3.89869
-0.0498022 -3.86382 -3.86382
-0.108691 -3.88088 -3.88088
-0.0794644 -3.8985 -3.8985
-0.0499384 -3.88125 -3.88125
-0.0791592 -3.86363 -3.86363
-0.0793121 -3.88106 -3.88106
-0.10886 -3.89832 -3.89832
-0.109194 -3.93322 -3.93322
-0.0503456 -3.9336 -3.9336
-0.0500744 -3.89869 -3.89869
-0.109027 -3.91577 -3.91577
-0.079767 -3.93341 -3.93341
-0.0502101 -3.91614 -3.91614
-0.0794644 -3.8985 -3.8985
-0.079616 -3.91595 -3.91595
-0.109194 -3.93322 -3.93322
-0.109524 -3.96816 -3.96816
-0.0506157 -3.96854 -3.96854
-0.0503456 -3.9336 -3.9336
-0.109359 -3.95069 -3.95069
-0.080067 -3.96835 -3.96835
-0.0504808 -3.95106 -3.95106
-0.079767 -3.93341 -3.93341
-0.0799173 -3.95087 -3.95087
-0.109524 -3.96816 -3.96816
-0.109849 -4.00314 -4.00314
-0.0508848 -4.00352 -4.00352
-0.0506157 -3.96854 -3.96854
-0.109687 -3.98565 -3.98565
-0.0803645 -4.00333 -4.00333
-0.0507504 -3.98602 -3.98602
-0.080067 -3.96835 -3.96835
-0.0802161 -3.98583 -3.98583
-0.109849 -4.00314 -4.00314
-0.110171 -4.03815 -4.03815
-0.0511528 -4.03853 -4.03853
-0.0508848 -4.00352 -4.00352
-0.110011 -4.02064 -4.02064
-0.0806594 -4.03834 -4.03834
-0.051019 -4.02102 -4.02102
-0.0803645 -4.00333 -4.00333
-0.0805123 -4.02083 -4.02083
-0.110171 -4.03815 -4.03815
-0.110488 -4.07319 -4.07319
-0.0514197 -4.07357 -4.07357
-0.0511528 -4.03853 -4.03853
-0.11033 -4.05567 -4.05567
-0.0809516 -4.07338 -4.07338
-0.0512864 -4.05605 -4.05605
-0.0806594 -4.03834 -4.03834
-0.0808058 -4.05585 -4.05585
-0.110488 -4.07319 -4.07319
-0.110802 -4.10826 -4.10826
-0.0516855 -4.10864 -4.10864
-0.0514197 -4.07357 -4.07357
-0.110646 -4.09072 -4.09072
-0.0812411 -4.10845 -4.10845
-0.0515528 -4.0911 -4.0911
-0.0809516 -4.07338 -4.07338
-0.0810967 -4.09091 -4.09091
-0.110802 -4.10826 -4.10826
-0.111111 -4.14335 -4.14335
-0.0519501 -4.14374 -4.14374
-0.0516855 -4.10864 -4.10864
-0.110957 -4.1258 -4.1258
-0.0815279 -4.14354 -4.14354
-0.051818 -4.12619 -4.12619
-0.0812411 -4.10845 -4.10845
-0.0813849 -4.12599 -4.12599
-0.111111 -4.14335 -4.14335
-0.111416 -4.17848 -4.17848
-0.0522136 -4.17886 -4.17886
-0.0519501 -4.14374 -4.14374
-0.111264 -4.16091 -4.16091
-0.0818121 -4.17867 -4.17867
-0.052082 -4.1613 -4.1613
-0.0815279 -4.14354 -4.14354
-0.0816703 -4.1611 -4.1611
-0.111416 -4.17848 -4.17848
-0.111716 -4.21362 -4.21362
-0.0524758 -4.21401 -4.21401
-0.0522136 -4.17886 -4.17886
-0.111566 -4.19605 -4.19605
-0.0820934 -4.21381 -4.21381
-0.0523448 -4.19643 -4.19643
-0.0818121 -4.17867 -4.17867
-0.0819531 -4.19624 -4.19624
-0.111716 -4.21362 -4.21362
-0.112012 -4.24879 -4.24879
-0.0527368 -4.24918 -4.24918
-0.0524758 -4.21401 -4.21401
-0.111865 -4.2312 -4.2312
-0.082372 -4.24898 -4.24898
-0.0526064 -4.23159 -4.23159
-0.0820934 -4.21381 -4.21381
-0.0822331 -4.2314 -4.2314
-0.112012 -4.24879 -4.24879
-0.112304 -4.28397 -4.28397
-0.0529964 -4.28437 -4.28437
-0.0527368 -4.24918 -4.24918
-0.112159 -4.26638 -4.26638
-0.0826478 -4.28417 -4.28417
-0.0528668 -4.26677 -4.26677
-0.082372 -4.24898 -4.24898
-0.0825102 -4.26657 -4.26657
-0.112304 -4.28397 -4.28397
-0.112592 -4.31918 -4.31918
-0.0532548 -4.31958 -4.31958
-0.0529964 -4.28437 -4.28437
-0.112448 -4.30158 -4.30158
-0.0829206 -4.31938 -4.31938
-0.0531258 -4.30197 -4.30197
-0.0826478 -4.28417 -4.28417
-0.0827845 -4.30177 -4.30177
-0.112592 -4.31918 -4.31918
-0.112874 -4.3544 -4.3544
-0.0535117 -4.3548 -4.3548
-0.0532548 -4.31958 -4.31958
-0.112734 -4.33679 -4.33679
-0.0831903 -4.3546 -4.3546
-0.0533834 -4.33719 -4.33719
-0.0829206 -4.31938 -4.31938
-0.0830558 -4.33699 -4.33699
-0.112874 -4.3544 -4.3544
-0.113152 -4.38964 -4.38964
-0.053767 -4.39004 -4.39004
-0.0535117 -4.3548 -4.3548
-0.113014 -4.37202 -4.37202
-0.0834568 -4.38984 -4.38984
-0.0536396 -4.37242 -4.37242
-0.0831903 -4.3546 -4.3546
-0.083324 -4.37222 -4.37222
-0.113152 -4.38964 -4.38964
-0.113425 -4.42489 -4.42489
-0.0540207 -4.42529 -4.42529
-0.053767 -4.39004 -4.39004
-0.113289 -4.40726 -4.40726
-0.0837198 -4.42509 -4.42509
-0.0538941 -4.40767 -4.40767
-0.0834568 -4.38984 -4.38984
-0.0835887 -4.40746 -4.40746
-0.113425 -4.42489 -4.42489
-0.113692 -4.46015 -4.46015
-0.0542724 -4.46056 -4.46056
-0.0540207 -4.42529 -4.42529
-0.113559 -4.44252 -4.44252
-0.0839789 -4.46035 -4.46035
-0.0541468 -4.44292 -4.44292
-0.0837198 -4.42509 -4.42509
-0.0838499 -4.44272 -4.44272
-0.113692 -4.46015 -4.46015
-0.113953 -4.49542 -4.49542
-0.0545223 -4.49583 -4.49583
-0.0542724 -4.46056 -4.46056
-0.113824 -4.47778 -4.47778
-0.084234 -4.49563 -4.49563
-0.0543976 -4.47819 -4.47819
-0.0839789 -4.46035 -4.46035
-0.084107 -4.47799 -4.47799
-0.113953 -4.49542 -4.49542
-0.114209 -4.5307 -4.5307
-0.0547703 -4.53111 -4.53111
-0.0545223 -4.49583 -4.49583
-0.114082 -4.51306 -4.51306
-0.0844853 -4.5309 -4.5309
-0.0546465 -4.51347 -4.51347
-0.084234 -4.49563 -4.49563
-0.0843601 -4.51326 -4.51326
-0.114209 -4.5307 -4.5307
-0.114459 -4.56599 -4.56599
-0.0550173 -4.56639 -4.56639
-0.0547703 -4.53111 -4.53111
-0.114334 -4.54834 -4.54834
-0.084734 -4.56619 -4.56619
-0.0548939 -4.54875 -4.54875
-0.0844853 -4.5309 -4.5309
-0.0846098 -4.54855 -4.54855
-0.114459 -4.56599 -4.56599
-0.114708 -4.60127 -4.60127
-0.0552639 -4.60166 -4.60166
-0.0550173 -4.56639 -4.56639
-0.114583 -4.58363 -4.58363
-0.0849826 -4.60146 -4.60146
-0.0551405 -4.58403 -4.58403
-0.084734 -4.56619 -4.56619
-0.0848582 -4.58383 -4.58383
-0.114708 -4.60127 -4.60127
-0.114961 -4.63654 -4.63654
-0.0555118 -4.63691 -4.63691
-0.0552639 -4.60166 -4.60166
-0.114834 -4.61891 -4.61891
-0.0852325 -4.63672 -4.63672
-0.0553877 -4.61929 -4.61929
-0.0849826 -4.60146 -4.60146
-0.0851073 -4.6191 -4.6191
0 0 0
-0.00026377 4.2775e-05 4.2775e-05
0.000262129 4.24398e-05 4.24398e-05
0 0 0
-0.000131305 8.60076e-05 8.60076e-05
-8.24144e-07 5.82578e-05 5.82578e-05
0.000130461 8.58194e-05 8.58194e-05
0 0 0
-4.2606e-07 9.2556e-05 9.2556e-05
-0.00026377 4.2775e-05 4.2775e-05
-0.000549279 -0.000404233 -0.000404233
0.000546062 -0.00040487 -0.00040487
0.000262129 4.24398e-05 4.24398e-05
-0.000403868 -0.000123385 -0.000123385
-1.60999e-06 -0.000378776 -0.000378776
0.000401444 -0.000123866 -0.000123866
-8.24144e-07 5.82578e-05 5.82578e-05
-1.21535e-06 -0.000101918 -0.000101918
-0.000549279 -0.000404233 -0.000404233
-0.000845055 -0.0012809 -0.0012809
0.000840156 -0.00128188 -0.00128188
0.000546062 -0.00040487 -0.00040487
-0.000696368 -0.000791773 -0.000791773
-2.44288e-06 -0.00124809 -0.00124809
0.000692331 -0.000792575 -0.000792575
-1.60999e-06 -0.000378776 -0.000378776
-2.01604e-06 -0.000762386 -0.000762386
-0.000845055 -0.0012809 -0.0012809
-0.00114733 -0.00254806 -0.00254806
0.00114052 -0.00254944 -0.00254944
0.000840156 -0.00128188 -0.00128188
-0.000995759 -0.00186743 -0.00186743
-3.39202e-06 -0.00251189 -0.00251189
0.000989938 -0.0018686 -0.0018686
-2.44288e-06 -0.00124809 -0.00124809
-2.89952e-06 -0.00183247 -0.00183247
-0.00114733 -0.00254806 -0.00254806
-0.00144927 -0.00418153 -0.00418153
0.00144021 -0.00418336 -0.00418336
0.00114052 -0.00254944 -0.00254944
-0.00129852 -0.00331998 -0.00331998
-4.50836e-06 -0.0041442 -0.0041442
0.00129063 -0.00332157 -0.00332157
-3.39202e-06 -0.00251189 -0.00251189
-3.92602e-06 -0.00328303 -0.00328303
-0.00144927 -0.00418153 -0.00418153
-0.0017496 -0.00616896 -0.00616896
0.00173786 -0.00617129 -0.00617129
0.00144021 -0.00418336 -0.00418336
-0.00159972 -0.00513149 -0.00513149
-5.84566e-06 -0.00613188 -0.00613188
0.00158938 -0.00513357 -0.00513357
-4.50836e-06 -0.0041442 -0.0041442
-5.14608e-06 -0.00509417 -0.00509417
-0.0017496 -0.00616896 -0.00616896
-0.00204702 -0.00850385 -0.00850385
0.00203205 -0.00850674 -0.00850674
0.00173786 -0.00617129 -0.00617129
-0.00189868 -0.00729321 -0.00729321
-7.45628e-06 -0.00846744 -0.00846744
0.00188539 -0.00729582 -0.00729582
-5.84566e-06 -0.00613188 -0.00613188
-6.61351e-06 -0.00725645 -0.00725645
-0.00204702 -0.00850385 -0.00850385
-0.00234202 -0.011183 -0.011183
0.00232316 -0.0111865 -0.0111865
0.00203205 -0.00850674 -0.00850674
-0.0021948 -0.00980053 -0.00980053
-9.39271e-06 -0.0111474 -0.0111474
0.00217797 -0.00980373 -0.00980373
-7.45628e-06 -0.00846744 -0.00846744
-8.3806e-06 -0.00976452 -0.00976452
-0.00234202 -0.011183 -0.011183
-0.00263482 -0.0142043 -0.0142043
0.00261133 -0.0142085 -0.0142085
0.00232316 -0.0111865 -0.0111865
-0.00248867 -0.012651 -0.012651
-1.17046e-05 -0.0141695 -0.0141695
0.00246759 -0.0126548 -0.0126548
-9.39271e-06 -0.0111474 -0.0111474
-1.04987e-05 -0.0126158 -0.0126158
-0.00263482 -0.0142043 -0.0142043
-0.00292592 -0.0175663 -0.0175663
0.00289694 -0.0175712 -0.0175712
0.00261133 -0.0142085 -0.0142085
-0.00278056 -0.0158428 -0.0158428
-1.44391e-05 -0.0175322 -0.0175322
0.00275444 -0.0158474 -0.0158474
-1.17046e-05 -0.0141695 -0.0141695
-1.30162e-05 -0.0158084 -0.0158084
-0.00292592 -0.0175663 -0.0175663
-0.00321556 -0.0212673 -0.0212673
0.00318016 -0.0212731 -0.0212731
0.00289694 -0.0175712 -0.0175712
-0.0030709 -0.0193745 -0.0193745
-1.76413e-05 -0.0212339 -0.0212339
0.00303884 -0.0193799 -0.0193799
-1.44391e-05 -0.0175322 -0.0175322
-1.5979e-05 -0.0193408 -0.0193408
-0.00321556 -0.0212673 -0.0212673
-0.00350397 -0.0253058 -0.0253058
0.00346114 -0.0253124 -0.0253124
0.00318016 -0.0212731 -0.0212731
-0.00335991 -0.0232445 -0.0232445
-2.13539e-05 -0.0252731 -0.0252731
0.00332093 -0.0232507 -0.0232507
-1.76413e-05 -0.0212339 -0.0212339
-1.94311e-05 -0.0232114 -0.0232114
-0.00350397 -0.0253058 -0.0253058
-0.00379129 -0.0296801 -0.0296801
0.00373992 -0.0296877 -0.0296877
0.00346114 -0.0253124 -0.0253124
-0.00364776 -0.0274511 -0.0274511
-2.56188e-05 -0.0296481 -0.0296481
0.0036008 -0.0274582 -0.0274582
-2.13539e-05 -0.0252731 -0.0252731
-2.34148e-05 -0.0274187 -0.0274187
-0.00379129 -0.0296801 -0.0296801
-0.00407761 -0.0343885 -0.0343885
0.00401651 -0.0343971 -0.0343971
0.00373992 -0.0296877 -0.0296877
-0.00393457 -0.0319926 -0.0319926
-3.04764e-05 -0.0343572 -0.0343572
0.00387849 -0.0320007 -0.0320007
-2.56188e-05 -0.0296481 -0.0296481
-2.7971e-05 -0.031961 -0.031961
-0.00407761 -0.0343885 -0.0343885
-0.00436301 -0.0394292 -0.0394292
0.00429092 -0.0394388 -0.0394388
0.00401651 -0.0343971 -0.0343971
-0.00422042 -0.0368674 -0.0368674
-3.59665e-05 -0.0393986 -0.0393986
0.00415399 -0.0368765 -0.0368765
-3.04764e-05 -0.0343572 -0.0343572
-3.31399e-05 -0.0368365 -0.0368365
-0.00436301 -0.0394292 -0.0394292
-0.00464753 -0.0448004 -0.0448004
0.00456311 -0.0448112 -0.0448112
0.00429092 -0.0394388 -0.0394388
-0.00450537 -0.0420736 -0.0420736
-4.21283e-05 -0.0447707 -0.0447707
0.00442729 -0.0420838 -0.0420838
-3.59665e-05 -0.0393986 -0.0393986
-3.89611e-05 -0.0420434 -0.0420434
-0.00464753 -0.0448004 -0.0448004
-0.00493122 -0.0505004 -0.0505004
0.00483305 -0.0505124 -0.0505124
0.00456311 -0.0448112 -0.0448112
-0.00478948 -0.0476094 -0.0476094
-4.90002e-05 -0.0504714 -0.0504714
0.00469836 -0.0476208 -0.0476208
-4.21283e-05 -0.0447707 -0.0447707
-4.54731e-05 -0.0475801 -0.0475801
-0.00493122 -0.0505004 -0.0505004
-0.00521413 -0.0565273 -0.0565273
0.00510071 -0.0565406 -0.0565406
0.00483305 -0.0505124 -0.0505124
-0.00507277 -0.0534731 -0.0534731
-5.66199e-05 -0.0564992 -0.0564992
0.00496717 -0.0534857 -0.0534857
-4.90002e-05 -0.0504714 -0.0504714
-5.27142e-05 -0.0534445 -0.0534445
-0.00521413 -0.0565273 -0.0565273
-0.00549629 -0.0628793 -0.0628793
0.00536605 -0.0628939 -0.0628939
0.00510071 -0.0565406 -0.0565406
-0.0053553 -0.0596628 -0.0596628
-6.50249e-05 -0.062852 -0.062852
0.00523368 -0.0596767 -0.0596767
-5.66199e-05 -0.0564992 -0.0564992
-6.0722e-05 -0.0596351 -0.0596351
-0.00549629 -0.0628793 -0.0628793
-0.00577774 -0.0695546 -0.0695546
0.00562904 -0.0695707 -0.0695707
0.00536605 -0.0628939 -0.0628939
-0.0056371 -0.0661767 -0.0661767
-7.42518e-05 -0.0695282 -0.0695282
0.00549784 -0.066192 -0.066192
-6.50249e-05 -0.062852 -0.062852
-6.95334e-05 -0.0661498 -0.0661498
-0.00577774 -0.0695546 -0.0695546
-0.00605851 -0.0765514 -0.0765514
0.00588963 -0.0765689 -0.0765689
0.00562904 -0.0695707 -0.0695707
-0.0059182 -0.0730129 -0.0730129
-8.43366e-05 -0.076526 -0.076526
0.00575964 -0.0730297 -0.0730297
-7.42518e-05 -0.0695282 -0.0695282
-7.91848e-05 -0.072987 -0.072987
-0.00605851 -0.0765514 -0.0765514
-0.00633864 -0.0838679 -0.0838679
0.0061478 -0.0838869 -0.0838869
0.00588963 -0.0765689 -0.0765689
-0.00619865 -0.0801698 -0.0801698
-9.53148e-05 -0.0838434 -0.0838434
0.00601902 -0.0801881 -0.0801881
-8.43366e-05 -0.076526 -0.076526
-8.97119e-05 -0.0801448 -0.0801448
-0.00633864 -0.0838679 -0.0838679
-0.00661816 -0.0915022 -0.0915022
0.00640351 -0.0915228 -0.0915228
0.0061478 -0.0838869 -0.0838869
-0.00647848 -0.0876454 -0.0876454
-0.000107221 -0.0914787 -0.0914787
0.00627596 -0.0876652 -0.0876652
-9.53148e-05 -0.0838434 -0.0838434
-0.00010115 -0.0876214 -0.0876214
-0.00661816 -0.0915022 -0.0915022
-0.00689712 -0.0994525 -0.0994525
0.00665672 -0.0994748 -0.0994748
0.00640351 -0.0915228 -0.0915228
-0.00675771 -0.095438 -0.095438
-0.00012009 -0.0994301 -0.0994301
0.00653043 -0.0954594 -0.0954594
-0.000107221 -0.0914787 -0.0914787
-0.000113533 -0.095415 -0.095415
-0.00689712 -0.0994525 -0.0994525
-0.00717553 -0.107717 -0.107717
0.0069074 -0.107741 -0.107741
0.00665672 -0.0994748 -0.0994748
-0.00703639 -0.103546 -0.103546
-0.000133954 -0.107696 -0.107696
0.00678237 -0.103569 -0.103569
-0.00012009 -0.0994301 -0.0994301
-0.000126895 -0.103524 -0.103524
-0.00717553 -0.107717 -0.107717
-0.00745345 -0.116294 -0.116294
0.00715552 -0.11632 -0.11632
0.0069074 -0.107741 -0.107741
-0.00731455 -0.111967 -0.111967
-0.000148847 -0.116274 -0.116274
0.00703178 -0.111992 -0.111992
-0.000133954 -0.107696 -0.107696
-0.00014127 -0.111946 -0.111946
-0.00745345 -0.116294 -0.116294
-0.00773088 -0.125182 -0.125182
0.00740104 -0.125209 -0.125209
0.00715552 -0.11632 -0.11632
-0.00759222 -0.120699 -0.120699
-0.0001648 -0.125162 -0.125162
0.0072786 -0.120726 -0.120726
-0.000148847 -0.116274 -0.116274
-0.000156689 -0.120679 -0.120679
-0.00773088 -0.125182 -0.125182
-0.00800788 -0.134378 -0.134378
0.00764394 -0.134407 -0.134407
0.00740104 -0.125209 -0.125209
-0.00786943 -0.129741 -0.129741
-0.000181846 -0.13436 -0.13436
0.00752282 -0.12977 -0.12977
-0.0001648 -0.125162 -0.125162
-0.000173184 -0.129723 -0.129723
-0.00800788 -0.134378 -0.134378
-0.00828446 -0.143881 -0.143881
0.00788418 -0.143913 -0.143913
0.00764394 -0.134407 -0.134407
-0.00814622 -0.139091 -0.139091
-0.000200014 -0.143864 -0.143864
0.00776439 -0.139122 -0.139122
-0.000181846 -0.13436 -0.13436
-0.000190788 -0.139074 -0.139074
-0.00828446 -0.143881 -0.143881
-0.00856067 -0.15369 -0.15369
0.00812173 -0.153723 -0.153723
0.00788418 -0.143913 -0.143913
-0.00842261 -0.148747 -0.148747
-0.000219336 -0.153674 -0.153674
0.00800329 -0.14878 -0.14878
-0.000200014 -0.143864 -0.143864
-0.000209529 -0.148731 -0.148731
-0.00856067 -0.15369 -0.15369
-0.00883652 -0.163801 -0.163801
0.00835657 -0.163837 -0.163837
0.00812173 -0.153723 -0.153723
-0.00869864 -0.158708 -0.158708
-0.00023984 -0.163787 -0.163787
0.00823949 -0.158742 -0.158742
-0.000219336 -0.153674 -0.153674
-0.000229438 -0.158693 -0.158693
-0.00883652 -0.163801 -0.163801
-0.00911205 -0.174215 -0.174215
0.00858866 -0.174252 -0.174252
0.00835657 -0.163837 -0.163837
-0.00897432 -0.168971 -0.168971
-0.000261555 -0.174201 -0.174201
0.00847296 -0.169007 -0.169007
-0.00023984 -0.163787 -0.163787
-0.000250544 -0.168957 -0.168957
-0.00911205 -0.174215 -0.174215
-0.00938729 -0.184928 -0.184928
0.00881798 -0.184967 -0.184967
0.00858866 -0.174252 -0.174252
-0.0092497 -0.179534 -0.179534
-0.000284511 -0.184916 -0.184916
0.00870367 -0.179572 -0.179572
-0.000261555 -0.174201 -0.174201
-0.000272876 -0.179521 -0.179521
-0.00938729 -0.184928 -0.184928
-0.00966226 -0.195939 -0.195939
0.0090445 -0.19598 -0.19598
0.00881798 -0.184967 -0.184967
-0.0095248 -0.190396 -0.190396
-0.000308733 -0.195928 -0.195928
0.0089316 -0.190436 -0.190436
-0.000284511 -0.184916 -0.184916
-0.000296462 -0.190384 -0.190384
-0.00966226 -0.195939 -0.195939
-0.00993699 -0.207245 -0.207245
0.00926819 -0.207289 -0.207289
0.0090445 -0.19598 -0.19598
-0.00979965 -0.201555 -0.201555
-0.00033425 -0.207236 -0.207236
0.0091567 -0.201598 -0.201598
-0.000308733 -0.195928 -0.195928
-0.000321328 -0.201545 -0.201545
-0.00993699 -0.207245 -0.207245
-0.0102115 -0.218847 -0.218847
0.00948903 -0.218893 -0.218893
0.00926819 -0.207289 -0.207289
-0.0100743 -0.213009 -0.213009
-0.000361086 -0.218838 -0.218838
0.00937897 -0.213054 -0.213054
-0.00033425 -0.207236 -0.207236
-0.000347501 -0.213 -0.213
-0.0102115 -0.218847 -0.218847
-0.0104858 -0.23074 -0.23074
0.00970699 -0.230788 -0.230788
0.00948903 -0.218893 -0.218893
-0.0103487 -0.224757 -0.224757
-0.000389269 -0.230733 -0.230733
0.00959837 -0.224804 -0.224804
-0.000361086 -0.218838 -0.218838
-0.000375008 -0.224749 -0.224749
-0.0104858 -0.23074 -0.23074
-0.01076 -0.242924 -0.242924
0.00992204 -0.242975 -0.242975
0.00970699 -0.230788 -0.230788
-0.0106229 -0.236796 -0.236796
-0.000418823 -0.242919 -0.242919
0.00981488 -0.236845 -0.236845
-0.000389269 -0.230733 -0.230733
-0.000403873 -0.23679 -0.23679
-0.01076 -0.242924 -0.242924
-0.011034 -0.255397 -0.255397
0.0101342 -0.25545 -0.25545
0.00992204 -0.242975 -0.242975
-0.010897 -0.249125 -0.249125
-0.000449773 -0.255393 -0.255393
0.0100285 -0.249177 -0.249177
-0.000418823 -0.242919 -0.242919
-0.000434122 -0.24912 -0.24912
-0.011034 -0.255397 -0.255397
-0.0113079 -0.268157 -0.268157
0.0103433 -0.268213 -0.268213
0.0101342 -0.25545 -0.25545
-0.011171 -0.261741 -0.261741
-0.000482141 -0.268154 -0.268154
0.0102391 -0.261796 -0.261796
-0.000449773 -0.255393 -0.255393
-0.000465778 -0.261738 -0.261738
-0.0113079 -0.268157 -0.268157
-0.0115818 -0.281202 -0.281202
0.0105495 -0.28126 -0.28126
0.0103433 -0.268213 -0.268213
-0.0114449 -0.274644 -0.274644
-0.000515953 -0.281201 -0.281201
0.0104468 -0.274701 -0.274701
-0.000482141 -0.268154 -0.268154
-0.000498865 -0.274642 -0.274642
-0.0115818 -0.281202 -0.281202
-0.0118555 -0.294531 -0.294531
0.0107527 -0.294591 -0.294591
0.0105495 -0.28126 -0.28126
-0.0117186 -0.287831 -0.287831
-0.000551228 -0.294531 -0.294531
0.0106515 -0.28789 -0.28789
-0.000515953 -0.281201 -0.281201
-0.000533406 -0.287831 -0.287831
-0.0118555 -0.294531 -0.294531
-0.0121292 -0.308141 -0.308141
0.0109529 -0.308204 -0.308204
0.0107527 -0.294591 -0.294591
-0.0119924 -0.301301 -0.301301
-0.000587991 -0.308142 -0.308142
0.0108532 -0.301362 -0.301362
-0.000551228 -0.294531 -0.294531
-0.000569423 -0.301301 -0.301301
-0.0121292 -0.308141 -0.308141
-0.0124029 -0.32203 -0.32203
0.01115 -0.322096 -0.322096
0.0109529 -0.308204 -0.308204
-0.0122661 -0.315051 -0.315051
-0.000626262 -0.322033 -0.322033
0.0110518 -0.315115 -0.315115
-0.000587991 -0.308142 -0.308142
-0.000606937 -0.315053 -0.315053
-0.0124029 -0.32203 -0.32203
-0.0126766 -0.336198 -0.336198
0.0113441 -0.336266 -0.336266
0.01115 -0.322096 -0.322096
-0.0125397 -0.32908 -0.32908
-0.000666062 -0.336202 -0.336202
0.0112474 -0.329146 -0.329146
-0.000626262 -0.322033 -0.322033
-0.00064597 -0.329083 -0.329083
-0.0126766 -0.336198 -0.336198
-0.0129503 -0.350642 -0.350642
0.0115351 -0.350712 -0.350712
0.0113441 -0.336266 -0.336266
-0.0128134 -0.343385 -0.343385
-0.000707411 -0.350648 -0.350648
0.01144 -0.343455 -0.343455
-0.000666062 -0.336202 -0.336202
-0.000686542 -0.343391 -0.343391
-0.0129503 -0.350642 -0.350642
-0.013224 -0.36536 -0.36536
0.011723 -0.365433 -0.365433
0.0115351 -0.350712 -0.350712
-0.0130871 -0.357966 -0.357966
-0.000750329 -0.365367 -0.365367
0.0116294 -0.358038 -0.358038
-0.000707411 -0.350648 -0.350648
-0.000728673 -0.357973 -0.357973
-0.013224 -0.36536 -0.36536
-0.0134978 -0.38035 -0.38035
0.0119077 -0.380426 -0.380426
0.011723 -0.365433 -0.365433
-0.0133609 -0.372821 -0.372821
-0.000794834 -0.380359 -0.380359
0.0118157 -0.372895 -0.372895
-0.000750329 -0.365367 -0.365367
-0.000772382 -0.372829 -0.372829
-0.0134978 -0.38035 -0.38035
-0.0137716 -0.395611 -0.395611
0.0120894 -0.39569 -0.39569
0.0119077 -0.380426 -0.380426
-0.0136347 -0.387947 -0.387947
-0.000840946 -0.395622 -0.395622
0.0119989 -0.388024 -0.388024
-0.000794834 -0.380359 -0.380359
-0.000817688 -0.387957 -0.387957
-0.0137716 -0.395611 -0.395611
-0.0140455 -0.411141 -0.411141
0.0122678 -0.411222 -0.411222
0.0120894 -0.39569 -0.39569
-0.0139086 -0.403342 -0.403342
-0.00088868 -0.411153 -0.411153
0.012179 -0.403422 -0.403422
-0.000840946 -0.395622 -0.395622
-0.000864609 -0.403354 -0.403354
-0.0140455 -0.411141 -0.411141
-0.0143196 -0.426938 -0.426938
0.0124431 -0.427022 -0.427022
0.0122678 -0.411222 -0.411222
-0.0141826 -0.419006 -0.419006
-0.000938056 -0.426951 -0.426951
0.0123559 -0.419089 -0.419089
-0.00088868 -0.411153 -0.411153
-0.000913162 -0.419019 -0.419019
-0.0143196 -0.426938 -0.426938
-0.0145938 -0.443 -0.443
0.0126152 -0.443087 -0.443087
0.0124431 -0.427022 -0.427022
-0.0144567 -0.434936 -0.434936
-0.00098909 -0.443015 -0.443015
0.0125296 -0.435021 -0.435021
-0.000938056 -0.426951 -0.426951
-0.000963365 -0.43495 -0.43495
-0.0145938 -0.443 -0.443
-0.0148681 -0.459325 -0.459325
0.0127841 -0.459415 -0.459415
0.0126152 -0.443087 -0.443087
-0.0147309 -0.451129 -0.451129
-0.0010418 -0.459342 -0.459342
0.0127001 -0.451218 -0.451218
-0.00098909 -0.443015 -0.443015
-0.00101523 -0.451146 -0.451146
-0.0148681 -0.459325 -0.459325
-0.0151425 -0.475912 -0.475912
0.0129498 -0.476005 -0.476005
0.0127841 -0.459415 -0.459415
-0.0150053 -0.467586 -0.467586
-0.00109619 -0.47593 -0.47593
0.0128673 -0.467677 -0.467677
-0.0010418 -0.459342 -0.459342
-0.00106878 -0.467604 -0.467604
-0.0151425 -0.475912 -0.475912
-0.0154172 -0.492759 -0.492759
0.0131122 -0.492854 -0.492854
0.0129498 -0.476005 -0.476005
-0.0152798 -0.484303 -0.484303
-0.00115229 -0.492779 -0.492779
0.0130314 -0.484397 -0.484397
-0.00109619 -0.47593 -0.47593
-0.00112403 -0.484322 -0.484322
-0.0154172 -0.492759 -0.492759
-0.015692 -0.509863 -0.509863
0.0132714 -0.509962 -0.509962
0.0131122 -0.492854 -0.492854
-0.0155546 -0.501279 -0.501279
-0.00121011 -0.509885 -0.509885
0.0131922 -0.501376 -0.501376
-0.00115229 -0.492779 -0.492779
-0.00118099 -0.5013 -0.5013
-0.015692 -0.509863 -0.509863
-0.015967 -0.527224 -0.527224
0.0134273 -0.527325 -0.527325
0.0132714 -0.509962 -0.509962
-0.0158295 -0.518512 -0.518512
-0.00126966 -0.527247 -0.527247
0.0133498 -0.518612 -0.518612
-0.00121011 -0.509885 -0.509885
-0.00123967 -0.518534 -0.518534
-0.015967 -0.527224 -0.527224
-0.0162422 -0.544839 -0.544839
0.0135799 -0.544943 -0.544943
0.0134273 -0.527325 -0.527325
-0.0161046 -0.536 -0.536
-0.00133096 -0.544864 -0.544864
0.013504 -0.536103 -0.536103
-0.00126966 -0.527247 -0.527247
-0.00130009 -0.536024 -0.536024
-0.0162422 -0.544839 -0.544839
-0.0165177 -0.562706 -0.562706
0.0137293 -0.562814 -0.562814
0.0135799 -0.544943 -0.544943
-0.0163799 -0.553741 -0.553741
-0.00139402 -0.562733 -0.562733
0.013655 -0.553847 -0.553847
-0.00133096 -0.544864 -0.544864
-0.00136227 -0.553767 -0.553767
-0.0165177 -0.562706 -0.562706
-0.0167934 -0.580824 -0.580824
0.0138753 -0.580935 -0.580935
0.0137293 -0.562814 -0.562814
-0.0166555 -0.571734 -0.571734
-0.00145884 -0.580853 -0.580853
0.0138027 -0.571843 -0.571843
-0.00139402 -0.562733 -0.562733
-0.00142621 -0.571762 -0.571762
-0.0167934 -0.580824 -0.580824
-0.0170693 -0.599191 -0.599191
0.014018 -0.599305 -0.599305
0.0138753 -0.580935 -0.580935
-0.0169313 -0.589977 -0.589977
-0.00152545 -0.599222 -0.599222
0.0139471 -0.590089 -0.590089
-0.00145884 -0.580853 -0.580853
-0.00149192 -0.590006 -0.590006
-0.0170693 -0.599191 -0.599191
-0.0173455 -0.617805 -0.617805
0.0141574 -0.617922 -0.617922
0.014018 -0.599305 -0.599305
-0.0172074 -0.608467 -0.608467
-0.00159385 -0.617837 -0.617837
0.0140882 -0.608582 -0.608582
-0.00152545 -0.599222 -0.599222
-0.00155942 -0.608499 -0.608499
-0.0173455 -0.617805 -0.617805
-0.017622 -0.636664 -0.636664
0.0142935 -0.636784 -0.636784
0.0141574 -0.617922 -0.617922
-0.0174837 -0.627204 -0.627204
-0.00166406 -0.636698 -0.636698
0.0142259 -0.627322 -0.627322
-0.00159385 -0.617837 -0.617837
-0.00162873 -0.627237 -0.627237
-0.017622 -0.636664 -0.636664
-0.0178988 -0.655767 -0.655767
0.0144262 -0.655889 -0.655889
0.0142935 -0.636784 -0.636784
-0.0177603 -0.646185 -0.646185
-0.00173607 -0.655802 -0.655802
0.0143603 -0.646306 -0.646306
-0.00166406 -0.636698 -0.636698
-0.00169984 -0.64622 -0.64622
-0.0178988 -0.655767 -0.655767
-0.0181758 -0.675111 -0.675111
0.0145556 -0.675237 -0.675237
0.0144262 -0.655889 -0.655889
-0.0180372 -0.665409 -0.665409
-0.00180992 -0.675148 -0.675148
0.0144913 -0.665533 -0.665533
-0.00173607 -0.655802 -0.655802
-0.00177277 -0.665445 -0.665445
-0.0181758 -0.675111 -0.675111
-0.0184531 -0.694695 -0.694695
0.0146815 -0.694824 -0.694824
0.0145556 -0.675237 -0.675237
-0.0183144 -0.684873 -0.684873
-0.00188559 -0.694734 -0.694734
0.014619 -0.685 -0.685
-0.00180992 -0.675148 -0.675148
-0.00184752 -0.684911 -0.684911
-0.0184531 -0.694695 -0.694695
-0.0187308 -0.714517 -0.714517
0.0148042 -0.714648 -0.714648
0.0146815 -0.694824 -0.694824
-0.0185919 -0.704576 -0.704576
-0.00196311 -0.714557 -0.714557
0.0147433 -0.704706 -0.704706
-0.00188559 -0.694734 -0.694734
-0.00192412 -0.704616 -0.704616
-0.0187308 -0.714517 -0.714517
-0.0190087 -0.734575 -0.734575
0.0149234 -0.73471 -0.73471
0.0148042 -0.714648 -0.714648
-0.0188697 -0.724516 -0.724516
-0.00204247 -0.734617 -0.734617
0.0148642 -0.72465 -0.72465
-0.00196311 -0.714557 -0.714557
-0.00200256 -0.724558 -0.724558
-0.0190087 -0.734575 -0.734575
-0.019287 -0.754867 -0.754867
0.0150392 -0.755005 -0.755005
0.0149234 -0.73471 -0.73471
-0.0191478 -0.744692 -0.744692
-0.00212369 -0.754911 -0.754911
0.0149817 -0.744828 -0.744828
-0.00204247 -0.734617 -0.734617
-0.00208285 -0.744735 -0.744735
-0.019287 -0.754867 -0.754867
-0.0195656 -0.775392 -0.775392
0.0151517 -0.775533 -0.775533
0.0150392 -0.755005 -0.755005
-0.0194263 -0.7651 -0.7651
-0.00220678 -0.775438 -0.775438
0.0150959 -0.76524 -0.76524
-0.00212369 -0.754911 -0.754911
-0.002165 -0.765145 -0.765145
-0.0195656 -0.775392 -0.775392
-0.0198446 -0.796147 -0.796147
0.0152607 -0.796291 -0.796291
0.0151517 -0.775533 -0.775533
-0.0197051 -0.785741 -0.785741
-0.00229173 -0.796195 -0.796195
0.0152066 -0.785883 -0.785883
-0.00220678 -0.775438 -0.775438
-0.00224902 -0.785787 -0.785787
-0.0198446 -0.796147 -0.796147
-0.0201239 -0.817131 -0.817131
0.0153663 -0.817279 -0.817279
0.0152607 -0.796291 -0.796291
-0.0199842 -0.806611 -0.806611
-0.00237857 -0.817181 -0.817181
0.0153139 -0.806757 -0.806757
-0.00229173 -0.796195 -0.796195
-0.00233492 -0.806659 -0.806659
-0.0201239 -0.817131 -0.817131
-0.0204035 -0.838343 -0.838343
0.0154685 -0.838493 -0.838493
0.0153663 -0.817279 -0.817279
-0.0202637 -0.827709 -0.827709
-0.00246728 -0.838394 -0.838394
0.0154179 -0.827858 -0.827858
-0.00237857 -0.817181 -0.817181
-0.00242269 -0.827759 -0.827759
-0.0204035 -0.838343 -0.838343
-0.0206835 -0.859779 -0.859779
0.0155673 -0.859933 -0.859933
0.0154685 -0.838493 -0.838493
-0.0205435 -0.849033 -0.849033
-0.00255788 -0.859832 -0.859832
0.0155184 -0.849185 -0.849185
-0.00246728 -0.838394 -0.838394
-0.00251234 -0.849085 -0.849085
-0.0206835 -0.859779 -0.859779
-0.0209639 -0.881439 -0.881439
0.0156627 -0.881596 -0.881596
0.0155673 -0.859933 -0.859933
-0.0208236 -0.870581 -0.870581
-0.00265037 -0.881494 -0.881494
0.0156155 -0.870737 -0.870737
-0.00255788 -0.859832 -0.859832
-0.00260389 -0.870635 -0.870635
-0.0209639 -0.881439 -0.881439
-0.0212446 -0.903321 -0.903321
0.0157546 -0.903481 -0.903481
0.0156627 -0.881596 -0.881596
-0.0211042 -0.892352 -0.892352
-0.00274475 -0.903377 -0.903377
0.0157091 -0.892511 -0.892511
-0.00265037 -0.881494 -0.881494
-0.00269732 -0.892408 -0.892408
-0.0212446 -0.903321 -0.903321
-0.0215256 -0.925422 -0.925422
0.0158432 -0.925585 -0.925585
0.0157546 -0.903481 -0.903481
-0.0213851 -0.914344 -0.914344
-0.00284104 -0.92548 -0.92548
0.0157993 -0.914506 -0.914506
-0.00274475 -0.903377 -0.903377
-0.00279266 -0.914402 -0.914402
-0.0215256 -0.925422 -0.925422
-0.0218071 -0.947741 -0.947741
0.0159282 -0.947908 -0.947908
0.0158432 -0.925585 -0.925585
-0.0216663 -0.936555 -0.936555
-0.00293922 -0.947802 -0.947802
0.0158861 -0.93672 -0.93672
-0.00284104 -0.92548 -0.92548
-0.00288989 -0.936614 -0.936614
-0.0218071 -0.947741 -0.947741
-0.0220889 -0.970277 -0.970277
0.0160099 -0.970447 -0.970447
0.0159282 -0.947908 -0.947908
-0.0219479 -0.958982 -0.958982
-0.00303931 -0.970339 -0.970339
0.0159695 -0.95915 -0.95915
-0.00293922 -0.947802 -0.947802
-0.00298903 -0.959043 -0.959043
-0.0220889 -0.970277 -0.970277
-0.0223711 -0.993027 -0.993027
0.0160881 -0.9932 -0.9932
0.0160099 -0.970447 -0.970447
-0.0222299 -0.981625 -0.981625
-0.00314131 -0.99309 -0.99309
0.0160494 -0.981796 -0.981796
-0.00303931 -0.970339 -0.970339
-0.00309007 -0.981688 -0.981688
-0.0223711 -0.993027 -0.993027
-0.0226536 -1.01599 -1.01599
0.0161628 -1.01617 -1.01617
0.0160881 -0.9932 -0.9932
-0.0225123 -1.00448 -1.00448
-0.00324521 -1.01605 -1.01605
0.0161259 -1.00466 -1.00466
-0.00314131 -0.99309 -0.99309
-0.00319302 -1.00455 -1.00455
-0.0226536 -1.01599 -1.01599
-0.0229366 -1.03916 -1.03916
0.0162341 -1.03934 -1.03934
0.0161628 -1.01617 -1.01617
-0.0227951 -1.02755 -1.02755
-0.00335103 -1.03923 -1.03923
0.0161989 -1.02773 -1.02773
-0.00324521 -1.01605 -1.01605
-0.00329788 -1.02762 -1.02762
-0.0229366 -1.03916 -1.03916
-0.0232199 -1.06254 -1.06254
0.016302 -1.06273 -1.06273
0.0162341 -1.03934 -1.03934
-0.0230782 -1.05083 -1.05083
-0.00345875 -1.06261 -1.06261
0.0162685 -1.05101 -1.05101
-0.00335103 -1.03923 -1.03923
-0.00340465 -1.0509 -1.0509
-0.0232199 -1.06254 -1.06254
-0.0235036 -1.08613 -1.08613
0.0163664 -1.08632 -1.08632
0.016302 -1.06273 -1.06273
-0.0233617 -1.07431 -1.07431
-0.00356839 -1.0862 -1.0862
0.0163346 -1.0745 -1.0745
-0.00345875 -1.06261 -1.06261
-0.00351333 -1.07438 -1.07438
-0.0235036 -1.08613 -1.08613
-0.0237877 -1.10993 -1.10993
0.0164274 -1.11012 -1.11012
0.0163664 -1.08632 -1.08632
-0.0236456 -1.098 -1.098
-0.00367993 -1.11 -1.11
0.0163973 -1.09819 -1.09819
-0.00356839 -1.0862 -1.0862
-0.00362392 -1.09808 -1.09808
-0.0237877 -1.10993 -1.10993
-0.0240721 -1.13392 -1.13392
0.0164849 -1.13412 -1.13412
0.0164274 -1.11012 -1.11012
-0.0239298 -1.1219 -1.1219
-0.00379339 -1.134 -1.134
0.0164566 -1.12209 -1.12209
-0.00367993 -1.11 -1.11
-0.00373642 -1.12197 -1.12197
-0.0240721 -1.13392 -1.13392
-0.0243569 -1.15812 -1.15812
0.016539 -1.15832 -1.15832
0.0164849 -1.13412 -1.13412
-0.0242145 -1.146 -1.146
-0.00390876 -1.1582 -1.1582
0.0165124 -1.14619 -1.14619
-0.00379339 -1.134 -1.134
-0.00385083 -1.14607 -1.14607
-0.0243569 -1.15812 -1.15812
-0.0246421 -1.18252 -1.18252
0.0165896 -1.18272 -1.18272
0.016539 -1.15832 -1.15832
-0.0244995 -1.1703 -1.1703
-0.00402603 -1.1826 -1.1826
0.0165647 -1.1705 -1.1705
-0.00390876 -1.1582 -1.1582
-0.00396715 -1.17038 -1.17038
-0.0246421 -1.18252 -1.18252
-0.0249277 -1.20712 -1.20712
0.0166369 -1.20732 -1.20732
0.0165896 -1.18272 -1.18272
-0.0247848 -1.1948 -1.1948
-0.00414521 -1.2072 -1.2072
0.0166137 -1.195 -1.195
-0.00402603 -1.1826 -1.1826
-0.00408538 -1.19488 -1.19488
-0.0249277 -1.20712 -1.20712
-0.0252136 -1.23191 -1.23191
0.0166806 -1.23212 -1.23212
0.0166369 -1.20732 -1.20732
-0.0250706 -1.21949 -1.21949
-0.00426629 -1.23199 -1.23199
0.0166592 -1.2197 -1.2197
-0.00414521 -1.2072 -1.2072
-0.00420551 -1.21957 -1.21957
-0.0252136 -1.23191 -1.23191
-0.0254999 -1.2569 -1.2569
0.016721 -1.25711 -1.25711
0.0166806 -1.23212 -1.23212
-0.0253567 -1.24438 -1.24438
-0.00438927 -1.25698 -1.25698
0.0167012 -1.24459 -1.24459
-0.00426629 -1.23199 -1.23199
-0.00432754 -1.24447 -1.24447
-0.0254999 -1.2569 -1.2569
-0.0257866 -1.28208 -1.28208
0.0167579 -1.28229 -1.28229
0.016721 -1.25711 -1.25711
-0.0256432 -1.26947 -1.26947
-0.00451415 -1.28217 -1.28217
0.0167398 -1.26968 -1.26968
-0.00438927 -1.25698 -1.25698
-0.00445148 -1.26955 -1.26955
-0.0257866 -1.28208 -1.28208
-0.0260736 -1.30745 -1.30745
0.0167913 -1.30767 -1.30767
0.0167579 -1.28229 -1.28229
-0.02593 -1.29474 -1.29474
-0.00464093 -1.30754 -1.30754
0.016775 -1.29496 -1.29496
-0.00451415 -1.28217 -1.28217
-0.0045773 -1.29483 -1.29483
-0.0260736 -1.30745 -1.30745
-0.026361 -1.33301 -1.33301
0.0168214 -1.33323 -1.33323
0.0167913 -1.30767 -1.30767
-0.0262173 -1.32021 -1.32021
-0.00476959 -1.3331 -1.3331
0.0168068 -1.32042 -1.32042
-0.00464093 -1.30754 -1.30754
-0.00470503 -1.3203 -1.3203
-0.026361 -1.33301 -1.33301
-0.0266487 -1.35876 -1.35876
0.016848 -1.35898 -1.35898
0.0168214 -1.33323 -1.33323
-0.0265048 -1.34586 -1.34586
-0.00490015 -1.35885 -1.35885
0.0168351 -1.34608 -1.34608
-0.00476959 -1.3331 -1.3331
-0.00483464 -1.34595 -1.34595
-0.0266487 -1.35876 -1.35876
-0.0269368 -1.38469 -1.38469
0.0168712 -1.38491 -1.38491
0.016848 -1.35898 -1.35898
-0.0267927 -1.3717 -1.3717
-0.00503258 -1.38478 -1.38478
0.0168601 -1.37192 -1.37192
-0.00490015 -1.35885 -1.35885
-0.00496613 -1.37179 -1.37179
-0.0269368 -1.38469 -1.38469
-0.0272252 -1.41081 -1.41081
0.0168911 -1.41103 -1.41103
0.0168712 -1.38491 -1.38491
-0.027081 -1.39772 -1.39772
-0.00516689 -1.4109 -1.4109
0.0168816 -1.39795 -1.39795
-0.00503258 -1.38478 -1.38478
-0.0050995 -1.39782 -1.39782
-0.0272252 -1.41081 -1.41081
-0.027514 -1.4371 -1.4371
0.0169075 -1.43733 -1.43733
0.0168911 -1.41103 -1.41103
-0.0273696 -1.42393 -1.42393
-0.00530307 -1.4372 -1.4372
0.0168997 -1.42416 -1.42416
-0.00516689 -1.4109 -1.4109
-0.00523475 -1.42403 -1.42403
-0.027514 -1.4371 -1.4371
-0.0278031 -1.46358 -1.46358
0.0169205 -1.46381 -1.46381
0.0169075 -1.43733 -1.43733
-0.0276585 -1.45032 -1.45032
-0.00544112 -1.46368 -1.46368
0.0169144 -1.45055 -1.45055
-0.00530307 -1.4372 -1.4372
-0.00537186 -1.45042 -1.45042
-0.0278031 -1.46358 -1.46358
-0.0280925 -1.49023 -1.49023
0.0169301 -1.49047 -1.49047
0.0169205 -1.46381 -1.46381
-0.0279478 -1.47688 -1.47688
-0.00558102 -1.49033 -1.49033
0.0169257 -1.47712 -1.47712
-0.00544112 -1.46368 -1.46368
-0.00551084 -1.47698 -1.47698
-0.0280925 -1.49023 -1.49023
-0.0283823 -1.51707 -1.51707
0.0169363 -1.51731 -1.51731
0.0169301 -1.49047 -1.49047
-0.0282373 -1.50363 -1.50363
-0.00572277 -1.51717 -1.51717
0.0169336 -1.50387 -1.50387
-0.00558102 -1.49033 -1.49033
-0.00565167 -1.50373 -1.50373
-0.0283823 -1.51707 -1.51707
-0.0286723 -1.54407 -1.54407
0.0169392 -1.54431 -1.54431
0.0169363 -1.51731 -1.51731
-0.0285272 -1.53055 -1.53055
-0.00586637 -1.54417 -1.54417
0.0169381 -1.53079 -1.53079
-0.00572277 -1.51717 -1.51717
-0.00579434 -1.53065 -1.53065
-0.0286723 -1.54407 -1.54407
-0.0289627 -1.57125 -1.57125
0.0169386 -1.5715 -1.5715
0.0169392 -1.54431 -1.54431
-0.0288174 -1.55764 -1.55764
-0.00601181 -1.57135 -1.57135
0.0169393 -1.55788 -1.55788
-0.00586637 -1.54417 -1.54417
-0.00593886 -1.55774 -1.55774
-0.0289627 -1.57125 -1.57125
-0.0292533 -1.5986 -1.5986
0.0169347 -1.59885 -1.59885
0.0169386 -1.5715 -1.5715
-0.0291079 -1.5849 -1.5849
-0.00615908 -1.5987 -1.5987
0.0169371 -1.58515 -1.58515
-0.00601181 -1.57135 -1.57135
-0.00608522 -1.58501 -1.58501
-0.0292533 -1.5986 -1.5986
-0.0295442 -1.62612 -1.62612
0.0169275 -1.62637 -1.62637
0.0169347 -1.59885 -1.59885
-0.0293987 -1.61234 -1.61234
-0.00630817 -1.62622 -1.62622
0.0169315 -1.61259 -1.61259
-0.00615908 -1.5987 -1.5987
-0.0062334 -1.61244 -1.61244
-0.0295442 -1.62612 -1.62612
-0.0298355 -1.6538 -1.6538
0.0169169 -1.65406 -1.65406
0.0169275 -1.62637 -1.62637
-0.0296898 -1.63994 -1.63994
-0.00645907 -1.65391 -1.65391
0.0169226 -1.64019 -1.64019
-0.00630817 -1.62622 -1.62622
-0.00638339 -1.64005 -1.64005
-0.0298355 -1.6538 -1.6538
-0.0301269 -1.68165 -1.68165
0.016903 -1.68191 -1.68191
0.0169169 -1.65406 -1.65406
-0.0299812 -1.6677 -1.6677
-0.00661178 -1.68176 -1.68176
0.0169104 -1.66796 -1.66796
-0.00645907 -1.65391 -1.65391
-0.0065352 -1.66782 -1.66782
-0.0301269 -1.68165 -1.68165
-0.0304187 -1.70966 -1.70966
0.0168857 -1.70993 -1.70993
0.016903 -1.68191 -1.68191
-0.0302728 -1.69564 -1.69564
-0.00676628 -1.70978 -1.70978
0.0168948 -1.6959 -1.6959
-0.00661178 -1.68176 -1.68176
-0.0066888 -1.69575 -1.69575
-0.0304187 -1.70966 -1.70966
-0.0307107 -1.73784 -1.73784
0.0168652 -1.7381 -1.7381
0.0168857 -1.70993 -1.70993
-0.0305647 -1.72373 -1.72373
-0.00692256 -1.73795 -1.73795
0.0168759 -1.72399 -1.72399
-0.00676628 -1.70978 -1.70978
-0.0068442 -1.72385 -1.72385
-0.0307107 -1.73784 -1.73784
-0.0310029 -1.76617 -1.76617
0.0168413 -1.76644 -1.76644
0.0168652 -1.7381 -1.7381
-0.0308568 -1.75199 -1.75199
-0.00708062 -1.76629 -1.76629
0.0168536 -1.75225 -1.75225
-0.00692256 -1.73795 -1.73795
-0.00700137 -1.7521 -1.7521
-0.0310029 -1.76617 -1.76617
-0.0312954 -1.79467 -1.79467
0.0168141 -1.79494 -1.79494
0.0168413 -1.76644 -1.76644
-0.0311491 -1.7804 -1.7804
-0.00724045 -1.79479 -1.79479
0.0168281 -1.78067 -1.78067
-0.00708062 -1.76629 -1.76629
-0.00716032 -1.78052 -1.78052
-0.0312954 -1.79467 -1.79467
-0.0315881 -1.82332 -1.82332
0.0167836 -1.82359 -1.82359
0.0168141 -1.79494 -1.79494
-0.0314417 -1.80897 -1.80897
-0.00740203 -1.82344 -1.82344
0.0167993 -1.80924 -1.80924
-0.00724045 -1.79479 -1.79479
-0.00732102 -1.80909 -1.80909
-0.0315881 -1.82332 -1.82332
-0.031881 -1.85212 -1.85212
0.0167499 -1.8524 -1.8524
0.0167836 -1.82359 -1.82359
-0.0317345 -1.8377 -1.8377
-0.00756535 -1.85224 -1.85224
0.0167672 -1.83797 -1.83797
-0.00740203 -1.82344 -1.82344
-0.00748348 -1.83782 -1.83782
-0.031881 -1.85212 -1.85212
-0.0321741 -1.88108 -1.88108
0.0167129 -1.88136 -1.88136
0.0167499 -1.8524 -1.8524
-0.0320275 -1.86658 -1.86658
-0.00773041 -1.8812 -1.8812
0.0167318 -1.86686 -1.86686
-0.00756535 -1.85224 -1.85224
-0.00764767 -1.8667 -1.8667
-0.0321741 -1.88108 -1.88108
-0.0324674 -1.91018 -1.91018
0.0166726 -1.91047 -1.91047
0.0167129 -1.88136 -1.88136
-0.0323207 -1.89561 -1.89561
-0.00789719 -1.91031 -1.91031
0.0166932 -1.89589 -1.89589
-0.00773041 -1.8812 -1.8812
-0.00781358 -1.89574 -1.89574
-0.0324674 -1.91018 -1.91018
-0.0327608 -1.93944 -1.93944
0.0166291 -1.93973 -1.93973
0.0166726 -1.91047 -1.91047
-0.0326141 -1.92479 -1.92479
-0.00806567 -1.93957 -1.93957
0.0166513 -1.92508 -1.92508
-0.00789719 -1.91031 -1.91031
-0.00798122 -1.92492 -1.92492
-0.0327608 -1.93944 -1.93944
-0.0330545 -1.96884 -1.96884
0.0165824 -1.96913 -1.96913
0.0166291 -1.93973 -1.93973
-0.0329076 -1.95412 -1.95412
-0.00823585 -1.96897 -1.96897
0.0166062 -1.95441 -1.95441
-0.00806567 -1.93957 -1.93957
-0.00815055 -1.95425 -1.95425
-0.0330545 -1.96884 -1.96884
-0.0333482 -1.99839 -1.99839
0.0165324 -1.99868 -1.99868
0.0165824 -1.96913 -1.96913
-0.0332013 -1.9836 -1.9836
-0.00840772 -1.99852 -1.99852
0.0165578 -1.98389 -1.98389
-0.00823585 -1.96897 -1.96897
-0.00832158 -1.98373 -1.98373
-0.0333482 -1.99839 -1.99839
-0.0336421 -2.02808 -2.02808
0.0164793 -2.02838 -2.02838
0.0165324 -1.99868 -1.99868
-0.0334952 -2.01322 -2.01322
-0.00858125 -2.02822 -2.02822
0.0165063 -2.01351 -2.01351
-0.00840772 -1.99852 -1.99852
-0.00849428 -2.01335 -2.01335
-0.0336421 -2.02808 -2.02808
-0.0339362 -2.05792 -2.05792
0.0164229 -2.05821 -2.05821
0.0164793 -2.02838 -2.02838
-0.0337892 -2.04298 -2.04298
-0.00875645 -2.05805 -2.05805
0.0164515 -2.04328 -2.04328
-0.00858125 -2.02822 -2.02822
-0.00866864 -2.04312 -2.04312
-0.0339362 -2.05792 -2.05792
-0.0342303 -2.08789 -2.08789
0.0163634 -2.08819 -2.08819
0.0164229 -2.05821 -2.05821
-0.0340832 -2.07289 -2.07289
-0.00893329 -2.08803 -2.08803
0.0163936 -2.07318 -2.07318
-0.00875645 -2.05805 -2.05805
-0.00884466 -2.07302 -2.07302
-0.0342303 -2.08789 -2.08789
-0.0345246 -2.118 -2.118
0.0163007 -2.1183 -2.1183
0.0163634 -2.08819 -2.08819
-0.0343774 -2.10293 -2.10293
-0.00911175 -2.11814 -2.11814
0.0163325 -2.10323 -2.10323
-0.00893329 -2.08803 -2.08803
-0.00902232 -2.10307 -2.10307
-0.0345246 -2.118 -2.118
-0.0348189 -2.14825 -2.14825
0.0162349 -2.14855 -2.14855
0.0163007 -2.1183 -2.1183
-0.0346717 -2.13311 -2.13311
-0.00929184 -2.14839 -2.14839
0.0162682 -2.13341 -2.13341
-0.00911175 -2.11814 -2.11814
-0.00920159 -2.13325 -2.13325
-0.0348189 -2.14825 -2.14825
-0.0351133 -2.17863 -2.17863
0.0161659 -2.17894 -2.17894
0.0162349 -2.14855 -2.14855
-0.0349661 -2.16342 -2.16342
-0.00947352 -2.17877 -2.17877
0.0162008 -2.16373 -2.16373
-0.00929184 -2.14839 -2.14839
-0.00938248 -2.16356 -2.16356
-0.0351133 -2.17863 -2.17863
-0.0354077 -2.20915 -2.20915
0.0160938 -2.20946 -2.20946
0.0161659 -2.17894 -2.17894
-0.0352605 -2.19387 -2.19387
-0.0096568 -2.20929 -2.20929
0.0161302 -2.19418 -2.19418
-0.00947352 -2.17877 -2.17877
-0.00956496 -2.19401 -2.19401
-0.0354077 -2.20915 -2.20915
-0.0357022 -2.23979 -2.23979
0.0160186 -2.24011 -2.24011
0.0160938 -2.20946 -2.20946
-0.035555 -2.22445 -2.22445
-0.00984164 -2.23994 -2.23994
0.0160566 -2.22477 -2.22477
-0.0096568 -2.20929 -2.20929
-0.00974903 -2.2246 -2.2246
-0.0357022 -2.23979 -2.23979
-0.0359967 -2.27057 -2.27057
0.0159403 -2.27088 -2.27088
0.0160186 -2.24011 -2.24011
-0.0358495 -2.25516 -2.25516
-0.010028 -2.27071 -2.27071
0.0159798 -2.25548 -2.25548
-0.00984164 -2.23994 -2.23994
-0.00993465 -2.25531 -2.25531
-0.0359967 -2.27057 -2.27057
-0.0362913 -2.30147 -2.30147
0.0158589 -2.30179 -2.30179
0.0159403 -2.27088 -2.27088
-0.036144 -2.286 -2.286
-0.010216 -2.30161 -2.30161
0.0159 -2.28632 -2.28632
-0.010028 -2.27071 -2.27071
-0.0101218 -2.28615 -2.28615
-0.0362913 -2.30147 -2.30147
-0.0365858 -2.3325 -2.3325
0.0157745 -2.33282 -2.33282
0.0158589 -2.30179 -2.30179
-0.0364385 -2.31697 -2.31697
-0.0104055 -2.33264 -2.33264
0.0158171 -2.31729 -2.31729
-0.010216 -2.30161 -2.30161
-0.0103105 -2.31711 -2.31711
-0.0365858 -2.3325 -2.3325
-0.0368803 -2.36365 -2.36365
0.015687 -2.36397 -2.36397
0.0157745 -2.33282 -2.33282
-0.036733 -2.34806 -2.34806
-0.0105964 -2.3638 -2.3638
0.0157312 -2.34838 -2.34838
-0.0104055 -2.33264 -2.33264
-0.0105008 -2.3482 -2.3482
-0.0368803 -2.36365 -2.36365
-0.0371747 -2.39492 -2.39492
0.0155966 -2.39524 -2.39524
0.015687 -2.36397 -2.36397
-0.0370275 -2.37927 -2.37927
-0.0107889 -2.39507 -2.39507
0.0156422 -2.37959 -2.37959
-0.0105964 -2.3638 -2.3638
-0.0106925 -2.37942 -2.37942
-0.0371747 -2.39492 -2.39492
-0.0374691 -2.42631 -2.42631
0.015503 -2.42664 -2.42664
0.0155966 -2.39524 -2.39524
-0.0373219 -2.4106 -2.4106
-0.0109829 -2.42646 -2.42646
0.0155502 -2.41093 -2.41093
-0.0107889 -2.39507 -2.39507
-0.0108857 -2.41075 -2.41075
-0.0374691 -2.42631 -2.42631
-0.0377634 -2.45782 -2.45782
0.0154065 -2.45815 -2.45815
0.015503 -2.42664 -2.42664
-0.0376163 -2.44205 -2.44205
-0.0111783 -2.45797 -2.45797
0.0154552 -2.44238 -2.44238
-0.0109829 -2.42646 -2.42646
-0.0110804 -2.4422 -2.4422
-0.0377634 -2.45782 -2.45782
-0.0380576 -2.48945 -2.48945
0.0153071 -2.48978 -2.48978
0.0154065 -2.45815 -2.45815
-0.0379105 -2.47362 -2.47362
-0.0113751 -2.4896 -2.4896
0.0153572 -2.47395 -2.47395
-0.0111783 -2.45797 -2.45797
-0.0112765 -2.47377 -2.47377
-0.0380576 -2.48945 -2.48945
-0.0383517 -2.52119 -2.52119
0.0152046 -2.52152 -2.52152
0.0153071 -2.48978 -2.48978
-0.0382047 -2.5053 -2.5053
-0.0115734 -2.52134 -2.52134
0.0152562 -2.50564 -2.50564
-0.0113751 -2.4896 -2.4896
-0.0114741 -2.50546 -2.50546
-0.0383517 -2.52119 -2.52119
-0.0386457 -2.55304 -2.55304
0.0150993 -2.55338 -2.55338
0.0152046 -2.52152 -2.52152
-0.0384988 -2.5371 -2.5371
-0.0117731 -2.5532 -2.5532
0.0151523 -2.53744 -2.53744
-0.0115734 -2.52134 -2.52134
-0.0116731 -2.53726 -2.53726
-0.0386457 -2.55304 -2.55304
-0.0389396 -2.58501 -2.58501
0.014991 -2.58535 -2.58535
0.0150993 -2.55338 -2.55338
-0.0387927 -2.56901 -2.56901
-0.0119742 -2.58517 -2.58517
0.0150455 -2.56935 -2.56935
-0.0117731 -2.5532 -2.5532
-0.0118735 -2.56917 -2.56917
-0.0389396 -2.58501 -2.58501
-0.0392333 -2.61708 -2.61708
0.0148798 -2.61742 -2.61742
0.014991 -2.58535 -2.58535
-0.0390865 -2.60103 -2.60103
-0.0121766 -2.61724 -2.61724
0.0149357 -2.60137 -2.60137
-0.0119742 -2.58517 -2.58517
-0.0120752 -2.60119 -2.60119
-0.0392333 -2.61708 -2.61708
-0.0395268 -2.64926 -2.64926
0.0147657 -2.64961 -2.64961
0.0148798 -2.61742 -2.61742
-0.03938 -2.63316 -2.63316
-0.0123804 -2.64942 -2.64942
0.0148231 -2.6335 -2.6335
-0.0121766 -2.61724 -2.61724
-0.0122783 -2.63332 -2.63332
-0.0395268 -2.64926 -2.64926
-0.0398201 -2.68155 -2.68155
0.0146487 -2.68189 -2.68189
0.0147657 -2.64961 -2.64961
-0.0396735 -2.66539 -2.66539
-0.0125856 -2.68171 -2.68171
0.0147075 -2.66574 -2.66574
-0.0123804 -2.64942 -2.64942
-0.0124828 -2.66555 -2.66555
-0.0398201 -2.68155 -2.68155
-0.0401132 -2.71394 -2.71394
0.0145289 -2.71429 -2.71429
0.0146487 -2.68189 -2.68189
-0.0399667 -2.69773 -2.69773
-0.012792 -2.7141 -2.7141
0.0145891 -2.69808 -2.69808
-0.0125856 -2.68171 -2.68171
-0.0126886 -2.69789 -2.69789
-0.0401132 -2.71394 -2.71394
-0.040406 -2.74643 -2.74643
0.0144062 -2.74678 -2.74678
0.0145289 -2.71429 -2.71429
-0.0402596 -2.73017 -2.73017
-0.0129998 -2.74659 -2.74659
0.0144679 -2.73052 -2.73052
-0.012792 -2.7141 -2.7141
-0.0128957 -2.73033 -2.73033
-0.040406 -2.74643 -2.74643
-0.0406986 -2.77902 -2.77902
0.0142808 -2.77937 -2.77937
0.0144062 -2.74678 -2.74678
-0.0405524 -2.76271 -2.76271
-0.0132088 -2.77919 -2.77919
0.0143439 -2.76306 -2.76306
-0.0129998 -2.74659 -2.74659
-0.0131041 -2.76288 -2.76288
-0.0406986 -2.77902 -2.77902
-0.040991 -2.81171 -2.81171
0.0141525 -2.81206 -2.81206
0.0142808 -2.77937 -2.77937
-0.0408448 -2.79535 -2.79535
-0.0134191 -2.81188 -2.81188
0.014217 -2.79571 -2.79571
-0.0132088 -2.77919 -2.77919
-0.0133138 -2.79552 -2.79552
-0.040991 -2.81171 -2.81171
-0.041283 -2.84449 -2.84449
0.0140215 -2.84485 -2.84485
0.0141525 -2.81206 -2.81206
-0.041137 -2.82809 -2.82809
-0.0136306 -2.84466 -2.84466
0.0140874 -2.82845 -2.82845
-0.0134191 -2.81188 -2.81188
-0.0135247 -2.82826 -2.82826
-0.041283 -2.84449 -2.84449
-0.0415747 -2.87737 -2.87737
0.0138878 -2.87773 -2.87773
0.0140215 -2.84485 -2.84485
-0.0414289 -2.86092 -2.86092
-0.0138433 -2.87754 -2.87754
0.013955 -2.86128 -2.86128
-0.0136306 -2.84466 -2.84466
-0.0137368 -2.86109 -2.86109
-0.0415747 -2.87737 -2.87737
-0.0418661 -2.91035 -2.91035
0.0137512 -2.91071 -2.91071
0.0138878 -2.87773 -2.87773
-0.0417204 -2.89385 -2.89385
-0.0140573 -2.91052 -2.91052
0.0138198 -2.89421 -2.89421
-0.0138433 -2.87754 -2.87754
-0.0139502 -2.89402 -2.89402
-0.0418661 -2.91035 -2.91035
-0.0421571 -2.94341 -2.94341
0.013612 -2.94377 -2.94377
0.0137512 -2.91071 -2.91071
-0.0420116 -2.92687 -2.92687
-0.0142724 -2.94358 -2.94358
0.013682 -2.92723 -2.92723
-0.0140573 -2.91052 -2.91052
-0.0141647 -2.92704 -2.92704
-0.0421571 -2.94341 -2.94341
-0.0424478 -2.97656 -2.97656
0.0134701 -2.97693 -2.97693
0.013612 -2.94377 -2.94377
-0.0423025 -2.95997 -2.95997
-0.0144887 -2.97674 -2.97674
0.0135414 -2.96034 -2.96034
-0.0142724 -2.94358 -2.94358
-0.0143804 -2.96015 -2.96015
-0.0424478 -2.97656 -2.97656
-0.042738 -3.0098 -3.0098
0.0133255 -3.01017 -3.01017
0.0134701 -2.97693 -2.97693
-0.0425929 -2.99317 -2.99317
-0.0147061 -3.00998 -3.00998
0.0133982 -2.99354 -2.99354
-0.0144887 -2.97674 -2.97674
-0.0145973 -2.99334 -2.99334
-0.042738 -3.0098 -3.0098
-0.0430279 -3.04313 -3.04313
0.0131783 -3.0435 -3.0435
0.0133255 -3.01017 -3.01017
-0.042883 -3.02645 -3.02645
-0.0149247 -3.0433 -3.0433
0.0132523 -3.02682 -3.02682
-0.0147061 -3.00998 -3.00998
-0.0148152 -3.02663 -3.02663
-0.0430279 -3.04313 -3.04313
-0.0433173 -3.07654 -3.07654
0.0130284 -3.07691 -3.07691
0.0131783 -3.0435 -3.0435
-0.0431726 -3.05982 -3.05982
-0.0151443 -3.07671 -3.07671
0.0131037 -3.06019 -3.06019
-0.0149247 -3.0433 -3.0433
-0.0150343 -3.06 -3.06
-0.0433173 -3.07654 -3.07654
-0.0436062 -3.11003 -3.11003
0.012876 -3.1104 -3.1104
0.0130284 -3.07691 -3.07691
-0.0434618 -3.09327 -3.09327
-0.015365 -3.1102 -3.1102
0.0129525 -3.09364 -3.09364
-0.0151443 -3.07671 -3.07671
-0.0152545 -3.09345 -3.09345
-0.0436062 -3.11003 -3.11003
-0.0438947 -3.1436 -3.1436
0.0127209 -3.14397 -3.14397
0.012876 -3.1104 -3.1104
-0.0437505 -3.1268 -3.1268
-0.0155868 -3.14377 -3.14377
0.0127988 -3.12717 -3.12717
-0.015365 -3.1102 -3.1102
-0.0154758 -3.12698 -3.12698
-0.0438947 -3.1436 -3.1436
-0.0441826 -3.17724 -3.17724
0.0125633 -3.17762 -3.17762
0.0127209 -3.14397 -3.14397
-0.0440387 -3.16041 -3.16041
-0.0158096 -3.17742 -3.17742
0.0126424 -3.16079 -3.16079
-0.0155868 -3.14377 -3.14377
-0.015698 -3.16059 -3.16059
-0.0441826 -3.17724 -3.17724
-0.0444701 -3.21097 -3.21097
0.0124031 -3.21135 -3.21135
0.0125633 -3.17762 -3.17762
-0.0443264 -3.1941 -3.1941
-0.0160334 -3.21115 -3.21115
0.0124835 -3.19447 -3.19447
-0.0158096 -3.17742 -3.17742
-0.0159213 -3.19428 -3.19428
-0.0444701 -3.21097 -3.21097
-0.044757 -3.24477 -3.24477
0.0122404 -3.24515 -3.24515
0.0124031 -3.21135 -3.21135
-0.0446136 -3.22786 -3.22786
-0.0162582 -3.24495 -3.24495
0.0123221 -3.22824 -3.22824
-0.0160334 -3.21115 -3.21115
-0.0161456 -3.22804 -3.22804
-0.044757 -3.24477 -3.24477
-0.0450433 -3.27864 -3.27864
0.0120753 -3.27902 -3.27902
0.0122404 -3.24515 -3.24515
-0.0449002 -3.2617 -3.2617
-0.0164839 -3.27882 -3.27882
0.0121582 -3.26207 -3.26207
-0.0162582 -3.24495 -3.24495
-0.0163709 -3.26188 -3.26188
-0.0450433 -3.27864 -3.27864
-0.045329 -3.31258 -3.31258
0.0119076 -3.31296 -3.31296
0.0120753 -3.27902 -3.27902
-0.0451862 -3.2956 -3.2956
-0.0167106 -3.31277 -3.31277
0.0119917 -3.29598 -3.29598
-0.0164839 -3.27882 -3.27882
-0.0165972 -3.29579 -3.29579
-0.045329 -3.31258 -3.31258
-0.0456142 -3.34659 -3.34659
0.0117375 -3.34698 -3.34698
0.0119076 -3.31296 -3.31296
-0.0454717 -3.32958 -3.32958
-0.0169383 -3.34678 -3.34678
0.0118228 -3.32996 -3.32996
-0.0167106 -3.31277 -3.31277
-0.0168243 -3.32976 -3.32976
-0.0456142 -3.34659 -3.34659
-0.0458987 -3.38067 -3.38067
0.0115649 -3.38106 -3.38106
0.0117375 -3.34698 -3.34698
-0.0457565 -3.36363 -3.36363
-0.0171668 -3.38086 -3.38086
0.0116515 -3.36401 -3.36401
-0.0169383 -3.34678 -3.34678
-0.0170524 -3.36381 -3.36381
-0.0458987 -3.38067 -3.38067
-0.0461825 -3.41482 -3.41482
0.0113899 -3.4152 -3.4152
0.0115649 -3.38106 -3.38106
-0.0460407 -3.39774 -3.39774
-0.0173962 -3.415 -3.415
0.0114777 -3.39812 -3.39812
-0.0171668 -3.38086 -3.38086
-0.0172814 -3.39792 -3.39792
-0.0461825 -3.41482 -3.41482
-0.0464657 -3.44903 -3.44903
0.0112126 -3.44941 -3.44941
0.0113899 -3.4152 -3.4152
-0.0463242 -3.43191 -3.43191
-0.0176264 -3.44921 -3.44921
0.0113016 -3.4323 -3.4323
-0.0173962 -3.415 -3.415
-0.0175112 -3.4321 -3.4321
-0.0464657 -3.44903 -3.44903
-0.0467481 -3.4833 -3.4833
0.0110329 -3.48368 -3.48368
0.0112126 -3.44941 -3.44941
-0.046607 -3.46615 -3.46615
-0.0178575 -3.48348 -3.48348
0.011123 -3.46654 -3.46654
-0.0176264 -3.44921 -3.44921
-0.0177419 -3.46634 -3.46634
-0.0467481 -3.4833 -3.4833
-0.0470299 -3.51762 -3.51762
0.0108508 -3.51802 -3.51802
0.0110329 -3.48368 -3.48368
-0.0468891 -3.50045 -3.50045
-0.0180894 -3.51781 -3.51781
0.0109421 -3.50084 -3.50084
-0.0178575 -3.48348 -3.48348
-0.0179734 -3.50064 -3.50064
-0.0470299 -3.51762 -3.51762
-0.0473108 -3.55201 -3.55201
0.0106664 -3.5524 -3.5524
0.0108508 -3.51802 -3.51802
-0.0471704 -3.53481 -3.53481
-0.0183221 -3.5522 -3.5522
0.0107589 -3.5352 -3.5352
-0.0180894 -3.51781 -3.51781
-0.0182057 -3.535 -3.535
-0.0473108 -3.55201 -3.55201
-0.0475911 -3.58646 -3.58646
0.0104798 -3.58685 -3.58685
0.0106664 -3.5524 -3.5524
-0.047451 -3.56923 -3.56923
-0.0185556 -3.58665 -3.58665
0.0105734 -3.56962 -3.56962
-0.0183221 -3.5522 -3.5522
-0.0184387 -3.56942 -3.56942
-0.0475911 -3.58646 -3.58646
-0.0478705 -3.62096 -3.62096
0.0102908 -3.62135 -3.62135
0.0104798 -3.58685 -3.58685
-0.0477309 -3.6037 -3.6037
-0.0187897 -3.62115 -3.62115
0.0103856 -3.60409 -3.60409
-0.0185556 -3.58665 -3.58665
-0.0186726 -3.60389 -3.60389
-0.0478705 -3.62096 -3.62096
-0.0481491 -3.65551 -3.65551
0.0100996 -3.6559 -3.6559
0.0102908 -3.62135 -3.62135
-0.0480099 -3.63822 -3.63822
-0.0190246 -3.6557 -3.6557
0.0101955 -3.63862 -3.63862
-0.0187897 -3.62115 -3.62115
-0.0189071 -3.63842 -3.63842
-0.0481491 -3.65551 -3.65551
-0.0484268 -3.69011 -3.69011
0.0099062 -3.69051 -3.69051
0.0100996 -3.6559 -3.6559
-0.0482881 -3.6728 -3.6728
-0.0192602 -3.6903 -3.6903
0.0100032 -3.6732 -3.6732
-0.0190246 -3.6557 -3.6557
-0.0191424 -3.67299 -3.67299
-0.0484268 -3.69011 -3.69011
-0.0487037 -3.72476 -3.72476
0.00971058 -3.72516 -3.72516
0.0099062 -3.69051 -3.69051
-0.0485654 -3.70743 -3.70743
-0.0194965 -3.72495 -3.72495
0.00980867 -3.70783 -3.70783
-0.0192602 -3.6903 -3.6903
-0.0193783 -3.70762 -3.70762
-0.0487037 -3.72476 -3.72476
-0.0489797 -3.75946 -3.75946
0.00951279 -3.75986 -3.75986
0.00971058 -3.72516 -3.72516
-0.0488418 -3.7421 -3.7421
-0.0197334 -3.75965 -3.75965
0.00961196 -3.7425 -3.7425
-0.0194965 -3.72495 -3.72495
-0.0196149 -3.7423 -3.7423
-0.0489797 -3.75946 -3.75946
-0.0492548 -3.7942 -3.7942
0.00931283 -3.7946 -3.7946
0.00951279 -3.75986 -3.75986
-0.0491174 -3.77682 -3.77682
-0.0199709 -3.7944 -3.7944
0.00941308 -3.77722 -3.77722
-0.0197334 -3.75965 -3.75965
-0.0198521 -3.77702 -3.77702
-0.0492548 -3.7942 -3.7942
-0.049529 -3.82899 -3.82899
0.00911075 -3.82939 -3.82939
0.00931283 -3.7946 -3.7946
-0.049392 -3.81159 -3.81159
-0.020209 -3.82919 -3.82919
0.00921206 -3.81199 -3.81199
-0.0199709 -3.7944 -3.7944
-0.0200899 -3.81179 -3.81179
-0.049529 -3.82899 -3.82899
-0.0498022 -3.86382 -3.86382
0.00890657 -3.86422 -3.86422
0.00911075 -3.82939 -3.82939
-0.0496657 -3.8464 -3.8464
-0.0204477 -3.86402 -3.86402
0.00900892 -3.8468 -3.8468
-0.020209 -3.82919 -3.82919
-0.0203283 -3.8466 -3.8466
-0.0498022 -3.86382 -3.86382
-0.0500744 -3.89869 -3.89869
0.0087003 -3.89909 -3.89909
0.00890657 -3.86422 -3.86422
-0.0499384 -3.88125 -3.88125
-0.020687 -3.89889 -3.89889
0.00880369 -3.88165 -3.88165
-0.0204477 -3.86402 -3.86402
-0.0205673 -3.88145 -3.88145
-0.0500744 -3.89869 -3.89869
-0.0503456 -3.9336 -3.9336
0.00849198 -3.934 -3.934
0.0087003 -3.89909 -3.89909
-0.0502101 -3.91614 -3.91614
-0.0209267 -3.93379 -3.93379
0.00859639 -3.91654 -3.91654
-0.020687 -3.89889 -3.89889
-0.0208068 -3.91634 -3.91634
-0.0503456 -3.9336 -3.9336
-0.0506157 -3.96854 -3.96854
0.00828162 -3.96894 -3.96894
0.00849198 -3.934 -3.934
-0.0504808 -3.95106 -3.95106
-0.021167 -3.96874 -3.96874
0.00838705 -3.95147 -3.95147
-0.0209267 -3.93379 -3.93379
-0.0210468 -3.95126 -3.95126
-0.0506157 -3.96854 -3.96854
-0.0508848 -4.00352 -4.00352
0.00806926 -4.00392 -4.00392
0.00828162 -3.96894 -3.96894
-0.0507504 -3.98602 -3.98602
-0.0214077 -4.00372 -4.00372
0.00817569 -3.98643 -3.98643
-0.021167 -3.96874 -3.96874
-0.0212873 -3.98622 -3.98622
-0.0508848 -4.00352 -4.00352
-0.0511528 -4.03853 -4.03853
0.00785491 -4.03894 -4.03894
0.00806926 -4.00392 -4.00392
-0.051019 -4.02102 -4.02102
-0.0216489 -4.03873 -4.03873
0.00796233 -4.02143 -4.02143
-0.0214077 -4.00372 -4.00372
-0.0215283 -4.02122 -4.02122
-0.0511528 -4.03853 -4.03853
-0.0514197 -4.07357 -4.07357
0.00763861 -4.07398 -4.07398
0.00785491 -4.03894 -4.03894
-0.0512864 -4.05605 -4.05605
-0.0218905 -4.07377 -4.07377
0.007747 -4.05645 -4.05645
-0.0216489 -4.03873 -4.03873
-0.0217697 -4.05625 -4.05625
-0.0514197 -4.07357 -4.07357
-0.0516855 -4.10864 -4.10864
0.00742037 -4.10905 -4.10905
0.00763861 -4.07398 -4.07398
-0.0515528 -4.0911 -4.0911
-0.0221325 -4.10884 -4.10884
0.00752973 -4.09151 -4.09151
-0.0218905 -4.07377 -4.07377
-0.0220115 -4.0913 -4.0913
-0.0516855 -4.10864 -4.10864
-0.0519501 -4.14374 -4.14374
0.00720021 -4.14415 -4.14415
0.00742037 -4.10905 -4.10905
-0.051818 -4.12619 -4.12619
-0.0223749 -4.14394 -4.14394
0.00731053 -4.1266 -4.1266
-0.0221325 -4.10884 -4.10884
-0.0222537 -4.12639 -4.12639
-0.0519501 -4.14374 -4.14374
-0.0522136 -4.17886 -4.17886
0.00697817 -4.17927 -4.17927
0.00720021 -4.14415 -4.14415
-0.052082 -4.1613 -4.1613
-0.0226177 -4.17907 -4.17907
0.00708943 -4.16171 -4.16171
-0.0223749 -4.14394 -4.14394
-0.0224962 -4.1615 -4.1615
-0.0522136 -4.17886 -4.17886
-0.0524758 -4.21401 -4.21401
0.00675427 -4.21442 -4.21442
0.00697817 -4.17927 -4.17927
-0.0523448 -4.19643 -4.19643
-0.0228607 -4.21421 -4.21421
0.00686645 -4.19684 -4.19684
-0.0226177 -4.17907 -4.17907
-0.0227392 -4.19664 -4.19664
-0.0524758 -4.21401 -4.21401
-0.0527368 -4.24918 -4.24918
0.0065285 -4.24959 -4.24959
0.00675427 -4.21442 -4.21442
-0.0526064 -4.23159 -4.23159
-0.0231041 -4.24938 -4.24938
0.00664161 -4.232 -4.232
-0.0228607 -4.21421 -4.21421
-0.0229824 -4.2318 -4.2318
-0.0527368 -4.24918 -4.24918
-0.0529964 -4.28437 -4.28437
0.00630088 -4.28478 -4.28478
0.0065285 -4.24959 -4.24959
-0.0528668 -4.26677 -4.26677
-0.0233478 -4.28457 -4.28457
0.00641492 -4.26718 -4.26718
-0.0231041 -4.24938 -4.24938
-0.0232259 -4.26698 -4.26698
-0.0529964 -4.28437 -4.28437
-0.0532548 -4.31958 -4.31958
0.0060714 -4.31999 -4.31999
0.00630088 -4.28478 -4.28478
-0.0531258 -4.30197 -4.30197
-0.0235917 -4.31978 -4.31978
0.00618637 -4.30238 -4.30238
-0.0233478 -4.28457 -4.28457
-0.0234697 -4.30218 -4.30218
-0.0532548 -4.31958 -4.31958
-0.0535117 -4.3548 -4.3548
0.00584001 -4.35521 -4.35521
0.0060714 -4.31999 -4.31999
-0.0533834 -4.33719 -4.33719
-0.0238358 -4.35501 -4.35501
0.00595595 -4.3376 -4.3376
-0.0235917 -4.31978 -4.31978
-0.0237137 -4.33739 -4.33739
-0.0535117 -4.3548 -4.3548
-0.053767 -4.39004 -4.39004
0.00560664 -4.39045 -4.39045
0.00584001 -4.35521 -4.35521
-0.0536396 -4.37242 -4.37242
-0.0240802 -4.39025 -4.39025
0.00572358 -4.37283 -4.37283
-0.0238358 -4.35501 -4.35501
-0.023958 -4.37262 -4.37262
-0.053767 -4.39004 -4.39004
-0.0540207 -4.42529 -4.42529
0.00537118 -4.42571 -4.42571
0.00560664 -4.39045 -4.39045
-0.0538941 -4.40767 -4.40767
-0.0243248 -4.4255 -4.4255
0.00548918 -4.40808 -4.40808
-0.0240802 -4.39025 -4.39025
-0.0242024 -4.40787 -4.40787
-0.0540207 -4.42529 -4.42529
-0.0542724 -4.46056 -4.46056
0.00513349 -4.46097 -4.46097
0.00537118 -4.42571 -4.42571
-0.0541468 -4.44292 -4.44292
-0.0245695 -4.46076 -4.46076
0.00525261 -4.44334 -4.44334
-0.0243248 -4.4255 -4.4255
-0.0244471 -4.44313 -4.44313
-0.0542724 -4.46056 -4.46056
-0.0545223 -4.49583 -4.49583
0.0048936 -4.49624 -4.49624
0.00513349 -4.46097 -4.46097
-0.0543976 -4.47819 -4.47819
-0.0248144 -4.49604 -4.49604
0.00501382 -4.4786 -4.4786
-0.0245695 -4.46076 -4.46076
-0.0246919 -4.4784 -4.4784
-0.0545223 -4.49583 -4.49583
-0.0547703 -4.53111 -4.53111
0.00465168 -4.53152 -4.53152
0.0048936 -4.49624 -4.49624
-0.0546465 -4.51347 -4.51347
-0.0250593 -4.53131 -4.53131
0.00477283 -4.51388 -4.51388
-0.0248144 -4.49604 -4.49604
-0.0249368 -4.51367 -4.51367
-0.0547703 -4.53111 -4.53111
-0.0550173 -4.56639 -4.56639
0.00440875 -4.5668 -4.5668
0.00465168 -4.53152 -4.53152
-0.0548939 -4.54875 -4.54875
-0.0253043 -4.56659 -4.56659
0.00453031 -4.54916 -4.54916
-0.0250593 -4.53131 -4.53131
-0.0251818 -4.54895 -4.54895
-0.0550173 -4.56639 -4.56639
-0.0552639 -4.60166 -4.60166
0.00416561 -4.60207 -4.60207
0.00440875 -4.5668 -4.5668
-0.0551405 -4.58403 -4.58403
-0.0255491 -4.60186 -4.60186
0.00428707 -4.58444 -4.58444
-0.0253043 -4.56659 -4.56659
-0.0254267 -4.58423 -4.58423
-0.0552639 -4.60166 -4.60166
-0.0555118 -4.63691 -4.63691
0.0039244 -4.63733 -4.63733
0.00416561 -4.60207 -4.60207
-0.0553877 -4.61929 -4.61929
-0.0257936 -4.63712 -4.63712
0.00404472 -4.6197 -4.6197
-0.0255491 -4.60186 -4.60186
-0.0256714 -4.61949 -4.61949
0 0 0
0.000262129 4.24398e-05 4.24398e-05
0.000798532 -8.2898e-05 -8.2898e-05
0 0 0
0.000130461 8.58194e-05 8.58194e-05
0.000528333 -4.64591e-06 -4.64591e-06
0.000387115 2.3992e-05 2.3992e-05
0 0 0
0.000256434 6.47504e-05 6.47504e-05
0.000262129 4.24398e-05 4.24398e-05
0.000546062 -0.00040487 -0.00040487
0.00165811 -0.00062277 -0.00062277
0.000798532 -8.2898e-05 -8.2898e-05
0.000401444 -0.000123866 -0.000123866
0.00109702 -0.00048389 -0.00048389
0.00122296 -0.000301104 -0.000301104
0.000528333 -4.64591e-06 -4.64591e-06
0.000809109 -0.000189612 -0.000189612
0.000546062 -0.00040487 -0.00040487
0.000840156 -0.00128188 -0.00128188
0.00255343 -0.00155637 -0.00155637
0.00165811 -0.00062277 -0.00062277
0.000692331 -0.000792575 -0.000792575
0.00168961 -0.00138315 -0.00138315
0.00210306 -0.00104292 -0.00104292
0.00109702 -0.00048389 -0.00048389
0.00139123 -0.000883736 -0.000883736
0.000840156 -0.00128188 -0.00128188
0.00114052 -0.00254944 -0.00254944
0.00345594 -0.00284888 -0.00284888
0.00255343 -0.00155637 -0.00155637
0.000989938 -0.0018686 -0.0018686
0.00229095 -0.0026611 -0.0026611
0.0030048 -0.00215874 -0.00215874
0.00168961 -0.00138315 -0.00138315
0.00198994 -0.0019764 -0.0019764
0.00114052 -0.00254944 -0.00254944
0.00144021 -0.00418336 -0.00418336
0.00435513 -0.00449078 -0.00449078
0.00345594 -0.00284888 -0.00284888
0.00129063 -0.00332157 -0.00332157
0.00289148 -0.00429897 -0.00429897
0.00390635 -0.00362642 -0.00362642
0.00229095 -0.0026611 -0.0026611
0.00259168 -0.00343576 -0.00343576
0.00144021 -0.00418336 -0.00418336
0.00173786 -0.00617129 -0.00617129
0.00524564 -0.00647843 -0.00647843
0.00435513 -0.00449078 -0.00449078
0.00158938 -0.00513357 -0.00513357
0.00348677 -0.00628704 -0.00628704
0.00480153 -0.00544146 -0.00544146
0.00289148 -0.00429897 -0.00429897
0.00318989 -0.00524955 -0.00524955
0.00173786 -0.00617129 -0.00617129
0.00203205 -0.00850674 -0.00850674
0.00612776 -0.0088112 -0.0088112
0.00524564 -0.00647843 -0.00647843
0.00188539 -0.00729582 -0.00729582
0.0040759 -0.0086216 -0.0086216
0.00568771 -0.00760173 -0.00760173
0.00348677 -0.00628704 -0.00628704
0.00378209 -0.00741117 -0.00741117
0.00203205 -0.00850674 -0.00850674
0.00232316 -0.0111865 -0.0111865
0.00700198 -0.0114879 -0.0114879
0.00612776 -0.0088112 -0.0088112
0.00217797 -0.00980373 -0.00980373
0.00465922 -0.0113002 -0.0113002
0.0065658 -0.0101066 -0.0101066
0.0040759 -0.0086216 -0.0086216
0.00436824 -0.00991801 -0.00991801
0.00232316 -0.0111865 -0.0111865
0.00261133 -0.0142085 -0.0142085
0.00786937 -0.0145074 -0.0145074
0.00700198 -0.0114879 -0.0114879
0.00246759 -0.0126548 -0.0126548
0.00523741 -0.0143213 -0.0143213
0.00743648 -0.0129549 -0.0129549
0.00465922 -0.0113002 -0.0113002
0.00494892 -0.012768 -0.012768
0.00261133 -0.0142085 -0.0142085
0.00289694 -0.0175712 -0.0175712
0.00873056 -0.0178682 -0.0178682
0.00786937 -0.0145074 -0.0145074
0.00275444 -0.0158474 -0.0158474
0.00581105 -0.0176833 -0.0176833
0.00830071 -0.0161453 -0.0161453
0.00523741 -0.0143213 -0.0143213
0.00552477 -0.0159598 -0.0159598
0.00289694 -0.0175712 -0.0175712
0.00318016 -0.0212731 -0.0212731
0.00958604 -0.0215686 -0.0215686
0.00873056 -0.0178682 -0.0178682
0.00303884 -0.0193799 -0.0193799
0.00638053 -0.0213847 -0.0213847
0.009159 -0.0196761 -0.0196761
0.00581105 -0.0176833 -0.0176833
0.00609629 -0.0194917 -0.0194917
0.00318016 -0.0212731 -0.0212731
0.00346114 -0.0253124 -0.0253124
0.0104361 -0.0256069 -0.0256069
0.00958604 -0.0215686 -0.0215686
0.00332093 -0.0232507 -0.0232507
0.0069461 -0.0254237 -0.0254237
0.0100117 -0.0235456 -0.0235456
0.00638053 -0.0213847 -0.0213847
0.00666379 -0.0233621 -0.0233621
0.00346114 -0.0253124 -0.0253124
0.00373992 -0.0296877 -0.0296877
0.0112807 -0.0299813 -0.0299813
0.0104361 -0.0256069 -0.0256069
0.0036008 -0.0274582 -0.0274582
0.00750786 -0.0297987 -0.0297987
0.0108591 -0.0277522 -0.0277522
0.0069461 -0.0254237 -0.0254237
0.00722745 -0.0275693 -0.0275693
0.00373992 -0.0296877 -0.0296877
0.00401651 -0.0343971 -0.0343971
0.0121202 -0.03469 -0.03469
0.0112807 -0.0299813 -0.0299813
0.00387849 -0.0320007 -0.0320007
0.00806589 -0.034508 -0.034508
0.0117011 -0.032294 -0.032294
0.00750786 -0.0297987 -0.0297987
0.00778734 -0.0321117 -0.0321117
0.00401651 -0.0343971 -0.0343971
0.00429092 -0.0394388 -0.0394388
0.0129543 -0.0397313 -0.0397313
0.0121202 -0.03469 -0.03469
0.00415399 -0.0368765 -0.0368765
0.00862017 -0.0395497 -0.0395497
0.0125379 -0.0371692 -0.0371692
0.00806589 -0.034508 -0.034508
0.0083435 -0.0369874 -0.0369874
0.00429092 -0.0394388 -0.0394388
0.00456311 -0.0448112 -0.0448112
0.0137832 -0.0451033 -0.0451033
0.0129543 -0.0397313 -0.0397313
0.00442729 -0.0420838 -0.0420838
0.0091707 -0.0449221 -0.0449221
0.0133694 -0.0423761 -0.0423761
0.00862017 -0.0395497 -0.0395497
0.00889591 -0.0421947 -0.0421947
0.00456311 -0.0448112 -0.0448112
0.00483305 -0.0505124 -0.0505124
0.0146067 -0.0508041 -0.0508041
0.0137832 -0.0451033 -0.0451033
0.00469836 -0.0476208 -0.0476208
0.00971745 -0.0506233 -0.0506233
0.0141956 -0.0479127 -0.0479127
0.0091707 -0.0449221 -0.0449221
0.00944455 -0.0477317 -0.0477317
0.00483305 -0.0505124 -0.0505124
0.00510071 -0.0565406 -0.0565406
0.0154249 -0.056832 -0.056832
0.0146067 -0.0508041 -0.0508041
0.00496717 -0.0534857 -0.0534857
0.0102604 -0.0566515 -0.0566515
0.0150165 -0.0537773 -0.0537773
0.00971745 -0.0506233 -0.0506233
0.00998939 -0.0535966 -0.0535966
0.00510071 -0.0565406 -0.0565406
0.00536605 -0.0628939 -0.0628939
0.0162377 -0.0631851 -0.0631851
0.0154249 -0.056832 -0.056832
0.00523368 -0.0596767 -0.0596767
0.0107995 -0.063005 -0.063005
0.015832 -0.059968 -0.059968
0.0102604 -0.0566515 -0.0566515
0.0105304 -0.0597877 -0.0597877
0.00536605 -0.0628939 -0.0628939
0.00562904 -0.0695707 -0.0695707
0.0170451 -0.0698617 -0.0698617
0.0162377 -0.0631851 -0.0631851
0.00549784 -0.066192 -0.066192
0.0113347 -0.0696818 -0.0696818
0.0166421 -0.0664831 -0.0664831
0.0107995 -0.063005 -0.063005
0.0110675 -0.0663031 -0.0663031
0.00562904 -0.0695707 -0.0695707
0.00588963 -0.0765689 -0.0765689
0.017847 -0.0768599 -0.0768599
0.0170451 -0.0698617 -0.0698617
0.00575964 -0.0730297 -0.0730297
0.0118659 -0.0766802 -0.0766802
0.0174467 -0.0733207 -0.0733207
0.0113347 -0.0696818 -0.0696818
0.0116008 -0.0731409 -0.0731409
0.00588963 -0.0765689 -0.0765689
0.0061478 -0.0838869 -0.0838869
0.0186435 -0.0841779 -0.0841779
0.017847 -0.0768599 -0.0768599
0.00601902 -0.0801881 -0.0801881
0.0123932 -0.0839984 -0.0839984
0.0182459 -0.080479 -0.080479
0.0118659 -0.0766802 -0.0766802
0.0121301 -0.0802995 -0.0802995
0.0061478 -0.0838869 -0.0838869
0.00640351 -0.0915228 -0.0915228
0.0194344 -0.0918138 -0.0918138
0.0186435 -0.0841779 -0.0841779
0.00627596 -0.0876652 -0.0876652
0.0129165 -0.0916345 -0.0916345
0.0190396 -0.0879562 -0.0879562
0.0123932 -0.0839984 -0.0839984
0.0126554 -0.0877768 -0.0877768
0.00640351 -0.0915228 -0.0915228
0.00665672 -0.0994748 -0.0994748
0.0202197 -0.0997659 -0.0997659
0.0194344 -0.0918138 -0.0918138
0.00653043 -0.0954594 -0.0954594
0.0134358 -0.0995867 -0.0995867
0.0198277 -0.0957504 -0.0957504
0.0129165 -0.0916345 -0.0916345
0.0131767 -0.0955712 -0.0955712
0.00665672 -0.0994748 -0.0994748
0.0069074 -0.107741 -0.107741
0.0209995 -0.108032 -0.108032
0.0202197 -0.0997659 -0.0997659
0.00678237 -0.103569 -0.103569
0.013951 -0.107853 -0.107853
0.0206103 -0.10386 -0.10386
0.0134358 -0.0995867 -0.0995867
0.0136939 -0.103681 -0.103681
0.0069074 -0.107741 -0.107741
0.00715552 -0.11632 -0.11632
0.0217736 -0.116611 -0.116611
0.0209995 -0.108032 -0.108032
0.00703178 -0.111992 -0.111992
0.0144622 -0.116432 -0.116432
0.0213872 -0.112283 -0.112283
0.013951 -0.107853 -0.107853
0.0142071 -0.112104 -0.112104
0.00715552 -0.11632 -0.11632
0.00740104 -0.125209 -0.125209
0.022542 -0.125501 -0.125501
0.0217736 -0.116611 -0.116611
0.0072786 -0.120726 -0.120726
0.0149691 -0.125322 -0.125322
0.0221585 -0.121017 -0.121017
0.0144622 -0.116432 -0.116432
0.0147162 -0.120838 -0.120838
0.00740104 -0.125209 -0.125209
0.00764394 -0.134407 -0.134407
0.0233048 -0.134699 -0.134699
0.022542 -0.125501 -0.125501
0.00752282 -0.12977 -0.12977
0.015472 -0.134521 -0.134521
0.0229241 -0.130062 -0.130062
0.0149691 -0.125322 -0.125322
0.0152211 -0.129883 -0.129883
0.00764394 -0.134407 -0.134407
0.00788418 -0.143913 -0.143913
0.0240619 -0.144205 -0.144205
0.0233048 -0.134699 -0.134699
0.00776439 -0.139122 -0.139122
0.0159706 -0.144026 -0.144026
0.0236841 -0.139414 -0.139414
0.015472 -0.134521 -0.134521
0.0157218 -0.139235 -0.139235
0.00788418 -0.143913 -0.143913
0.00812173 -0.153723 -0.153723
0.0248131 -0.154016 -0.154016
0.0240619 -0.144205 -0.144205
0.00800329 -0.14878 -0.14878
0.0164651 -0.153837 -0.153837
0.0244382 -0.149072 -0.149072
0.0159706 -0.144026 -0.144026
0.0162184 -0.148893 -0.148893
0.00812173 -0.153723 -0.153723
0.00835657 -0.163837 -0.163837
0.0255586 -0.16413 -0.16413
0.0248131 -0.154016 -0.154016
0.00823949 -0.158742 -0.158742
0.0169552 -0.163951 -0.163951
0.0251866 -0.159035 -0.159035
0.0164651 -0.153837 -0.153837
0.0167107 -0.158856 -0.158856
0.00835657 -0.163837 -0.163837
0.00858866 -0.174252 -0.174252
0.0262983 -0.174546 -0.174546
0.0255586 -0.16413 -0.16413
0.00847296 -0.169007 -0.169007
0.0174411 -0.174367 -0.174367
0.0259292 -0.1693 -0.1693
0.0169552 -0.163951 -0.163951
0.0171987 -0.169121 -0.169121
0.00858866 -0.174252 -0.174252
0.00881798 -0.184967 -0.184967
0.0270322 -0.185261 -0.185261
0.0262983 -0.174546 -0.174546
0.00870367 -0.179572 -0.179572
0.0179227 -0.185082 -0.185082
0.026666 -0.179866 -0.179866
0.0174411 -0.174367 -0.174367
0.0176825 -0.179687 -0.179687
0.00881798 -0.184967 -0.184967
0.0090445 -0.19598 -0.19598
0.0277602 -0.196275 -0.196275
0.0270322 -0.185261 -0.185261
0.0089316 -0.190436 -0.190436
0.0184 -0.196096 -0.196096
0.0273969 -0.190731 -0.190731
0.0179227 -0.185082 -0.185082
0.0181619 -0.190552 -0.190552
0.0090445 -0.19598 -0.19598
0.00926819 -0.207289 -0.207289
0.0284823 -0.207585 -0.207585
0.0277602 -0.196275 -0.196275
0.0091567 -0.201598 -0.201598
0.0188729 -0.207405 -0.207405
0.028122 -0.201893 -0.201893
0.0184 -0.196096 -0.196096
0.018637 -0.201714 -0.201714
0.00926819 -0.207289 -0.207289
0.00948903 -0.218893 -0.218893
0.0291984 -0.219189 -0.219189
0.0284823 -0.207585 -0.207585
0.00937897 -0.213054 -0.213054
0.0193414 -0.219009 -0.219009
0.0288411 -0.21335 -0.21335
0.0188729 -0.207405 -0.207405
0.0191077 -0.213171 -0.213171
0.00948903 -0.218893 -0.218893
0.00970699 -0.230788 -0.230788
0.0299087 -0.231085 -0.231085
0.0291984 -0.219189 -0.219189
0.00959837 -0.224804 -0.224804
0.0198055 -0.230906 -0.230906
0.0295543 -0.225101 -0.225101
0.0193414 -0.219009 -0.219009
0.019574 -0.224921 -0.224921
0.00970699 -0.230788 -0.230788
0.00992204 -0.242975 -0.242975
0.0306129 -0.243273 -0.243273
0.0299087 -0.231085 -0.231085
0.00981488 -0.236845 -0.236845
0.0202651 -0.243093 -0.243093
0.0302615 -0.237143 -0.237143
0.0198055 -0.230906 -0.230906
0.0200358 -0.236963 -0.236963
0.00992204 -0.242975 -0.242975
0.0101342 -0.25545 -0.25545
0.0313112 -0.255749 -0.255749
0.0306129 -0.243273 -0.243273
0.0100285 -0.249177 -0.249177
0.0207203 -0.255569 -0.255569
0.0309628 -0.249475 -0.249475
0.0202651 -0.243093 -0.243093
0.0204933 -0.249295 -0.249295
0.0101342 -0.25545 -0.25545
0.0103433 -0.268213 -0.268213
0.0320034 -0.268512 -0.268512
0.0313112 -0.255749 -0.255749
0.0102391 -0.261796 -0.261796
0.021171 -0.268332 -0.268332
0.031658 -0.262095 -0.262095
0.0207203 -0.255569 -0.255569
0.0209462 -0.261915 -0.261915
0.0103433 -0.268213 -0.268213
0.0105495 -0.28126 -0.28126
0.0326896 -0.28156 -0.28156
0.0320034 -0.268512 -0.268512
0.0104468 -0.274701 -0.274701
0.0216172 -0.28138 -0.28138
0.0323472 -0.275001 -0.275001
0.021171 -0.268332 -0.268332
0.0213947 -0.27482 -0.27482
0.0105495 -0.28126 -0.28126
0.0107527 -0.294591 -0.294591
0.0333697 -0.294892 -0.294892
0.0326896 -0.28156 -0.28156
0.0106515 -0.28789 -0.28789
0.0220589 -0.294712 -0.294712
0.0330304 -0.288191 -0.288191
0.0216172 -0.28138 -0.28138
0.0218386 -0.28801 -0.28801
0.0107527 -0.294591 -0.294591
0.0109529 -0.308204 -0.308204
0.0340437 -0.308506 -0.308506
0.0333697 -0.294892 -0.294892
0.0108532 -0.301362 -0.301362
0.022496 -0.308325 -0.308325
0.0337075 -0.301664 -0.301664
0.0220589 -0.294712 -0.294712
0.022278 -0.301483 -0.301483
0.0109529 -0.308204 -0.308204
0.01115 -0.322096 -0.322096
0.0347117 -0.322399 -0.322399
0.0340437 -0.308506 -0.308506
0.0110518 -0.315115 -0.315115
0.0229285 -0.322218 -0.322218
0.0343785 -0.315417 -0.315417
0.022496 -0.308325 -0.308325
0.0227128 -0.315236 -0.315236
0.01115 -0.322096 -0.322096
0.0113441 -0.336266 -0.336266
0.0353735 -0.33657 -0.33657
0.0347117 -0.322399 -0.322399
0.0112474 -0.329146 -0.329146
0.0233564 -0.336389 -0.336389
0.0350433 -0.32945 -0.32945
0.0229285 -0.322218 -0.322218
0.023143 -0.329268 -0.329268
0.0113441 -0.336266 -0.336266
0.0115351 -0.350712 -0.350712
0.0360291 -0.351018 -0.351018
0.0353735 -0.33657 -0.33657
0.01144 -0.343455 -0.343455
0.0237798 -0.350836 -0.350836
0.0357021 -0.343759 -0.343759
0.0233564 -0.336389 -0.336389
0.0235687 -0.343578 -0.343578
0.0115351 -0.350712 -0.350712
0.011723 -0.365433 -0.365433
0.0366786 -0.365739 -0.365739
0.0360291 -0.351018 -0.351018
0.0116294 -0.358038 -0.358038
0.0241984 -0.365557 -0.365557
0.0363546 -0.358344 -0.358344
0.0237798 -0.350836 -0.350836
0.0239897 -0.358162 -0.358162
0.011723 -0.365433 -0.365433
0.0119077 -0.380426 -0.380426
0.0373219 -0.380733 -0.380733
0.0366786 -0.365739 -0.365739
0.0118157 -0.372895 -0.372895
0.0246125 -0.380551 -0.380551
0.037001 -0.373202 -0.373202
0.0241984 -0.365557 -0.365557
0.024406 -0.37302 -0.37302
0.0119077 -0.380426 -0.380426
0.0120894 -0.39569 -0.39569
0.037959 -0.395998 -0.395998
0.0373219 -0.380733 -0.380733
0.0119989 -0.388024 -0.388024
0.0250218 -0.395815 -0.395815
0.0376412 -0.388332 -0.388332
0.0246125 -0.380551 -0.380551
0.0248177 -0.388149 -0.388149
0.0120894 -0.39569 -0.39569
0.0122678 -0.411222 -0.411222
0.0385898 -0.411532 -0.411532
0.037959 -0.395998 -0.395998
0.012179 -0.403422 -0.403422
0.0254265 -0.411349 -0.411349
0.0382752 -0.403732 -0.403732
0.0250218 -0.395815 -0.395815
0.0252247 -0.403548 -0.403548
0.0122678 -0.411222 -0.411222
0.0124431 -0.427022 -0.427022
0.0392144 -0.427333 -0.427333
0.0385898 -0.411532 -0.411532
0.0123559 -0.419089 -0.419089
0.0258264 -0.427149 -0.427149
0.0389029 -0.419399 -0.419399
0.0254265 -0.411349 -0.411349
0.0256271 -0.419215 -0.419215
0.0124431 -0.427022 -0.427022
0.0126152 -0.443087 -0.443087
0.0398328 -0.443399 -0.443399
0.0392144 -0.427333 -0.427333
0.0125296 -0.435021 -0.435021
0.0262217 -0.443215 -0.443215
0.0395244 -0.435333 -0.435333
0.0258264 -0.427149 -0.427149
0.0260246 -0.435149 -0.435149
0.0126152 -0.443087 -0.443087
0.0127841 -0.459415 -0.459415
0.0404449 -0.459728 -0.459728
0.0398328 -0.443399 -0.443399
0.0127001 -0.451218 -0.451218
0.0266122 -0.459544 -0.459544
0.0401396 -0.451531 -0.451531
0.0262217 -0.443215 -0.443215
0.0264175 -0.451346 -0.451346
0.0127841 -0.459415 -0.459415
0.0129498 -0.476005 -0.476005
0.0410507 -0.47632 -0.47632
0.0404449 -0.459728 -0.459728
0.0128673 -0.467677 -0.467677
0.0269979 -0.476134 -0.476134
0.0407486 -0.467991 -0.467991
0.0266122 -0.459544 -0.459544
0.0268056 -0.467806 -0.467806
0.0129498 -0.476005 -0.476005
0.0131122 -0.492854 -0.492854
0.0416502 -0.49317 -0.49317
0.0410507 -0.47632 -0.47632
0.0130314 -0.484397 -0.484397
0.0273789 -0.492985 -0.492985
0.0413512 -0.484713 -0.484713
0.0269979 -0.476134 -0.476134
0.027189 -0.484527 -0.484527
0.0131122 -0.492854 -0.492854
0.0132714 -0.509962 -0.509962
0.0422433 -0.510279 -0.510279
0.0416502 -0.49317 -0.49317
0.0131922 -0.501376 -0.501376
0.027755 -0.510093 -0.510093
0.0419475 -0.501693 -0.501693
0.0273789 -0.492985 -0.492985
0.0275675 -0.501507 -0.501507
0.0132714 -0.509962 -0.509962
0.0134273 -0.527325 -0.527325
0.0428302 -0.527644 -0.527644
0.0422433 -0.510279 -0.510279
0.0133498 -0.518612 -0.518612
0.0281264 -0.527458 -0.527458
0.0425375 -0.51893 -0.51893
0.027755 -0.510093 -0.510093
0.0279413 -0.518743 -0.518743
0.0134273 -0.527325 -0.527325
0.0135799 -0.544943 -0.544943
0.0434107 -0.545264 -0.545264
0.0428302 -0.527644 -0.527644
0.013504 -0.536103 -0.536103
0.028493 -0.545076 -0.545076
0.0431212 -0.536422 -0.536422
0.0281264 -0.527458 -0.527458
0.0283103 -0.536235 -0.536235
0.0135799 -0.544943 -0.544943
0.0137293 -0.562814 -0.562814
0.0439848 -0.563135 -0.563135
0.0434107 -0.545264 -0.545264
0.013655 -0.553847 -0.553847
0.0288547 -0.562948 -0.562948
0.0436985 -0.554168 -0.554168
0.028493 -0.545076 -0.545076
0.0286744 -0.553981 -0.553981
0.0137293 -0.562814 -0.562814
0.0138753 -0.580935 -0.580935
0.0445525 -0.581258 -0.581258
0.0439848 -0.563135 -0.563135
0.0138027 -0.571843 -0.571843
0.0292116 -0.58107 -0.58107
0.0442695 -0.572165 -0.572165
0.0288547 -0.562948 -0.562948
0.0290338 -0.571977 -0.571977
0.0138753 -0.580935 -0.580935
0.014018 -0.599305 -0.599305
0.0451139 -0.599629 -0.599629
0.0445525 -0.581258 -0.581258
0.0139471 -0.590089 -0.590089
0.0295637 -0.599441 -0.599441
0.044834 -0.590413 -0.590413
0.0292116 -0.58107 -0.58107
0.0293882 -0.590224 -0.590224
0.014018 -0.599305 -0.599305
0.0141574 -0.617922 -0.617922
0.0456689 -0.618248 -0.618248
0.0451139 -0.599629 -0.599629
0.0140882 -0.608582 -0.608582
0.0299109 -0.618058 -0.618058
0.0453922 -0.608908 -0.608908
0.0295637 -0.599441 -0.599441
0.0297379 -0.608719 -0.608719
0.0141574 -0.617922 -0.617922
0.0142935 -0.636784 -0.636784
0.0462175 -0.637111 -0.637111
0.0456689 -0.618248 -0.618248
0.0142259 -0.627322 -0.627322
0.0302532 -0.636922 -0.636922
0.045944 -0.627649 -0.627649
0.0299109 -0.618058 -0.618058
0.0300826 -0.627459 -0.627459
0.0142935 -0.636784 -0.636784
0.0144262 -0.655889 -0.655889
0.0467596 -0.656219 -0.656219
0.0462175 -0.637111 -0.637111
0.0143603 -0.646306 -0.646306
0.0305906 -0.656028 -0.656028
0.0464894 -0.646635 -0.646635
0.0302532 -0.636922 -0.636922
0.0304225 -0.646445 -0.646445
0.0144262 -0.655889 -0.655889
0.0145556 -0.675237 -0.675237
0.0472954 -0.675567 -0.675567
0.0467596 -0.656219 -0.656219
0.0144913 -0.665533 -0.665533
0.0309232 -0.675376 -0.675376
0.0470283 -0.665863 -0.665863
0.0305906 -0.656028 -0.656028
0.0307575 -0.665672 -0.665672
0.0145556 -0.675237 -0.675237
0.0146815 -0.694824 -0.694824
0.0478247 -0.695156 -0.695156
0.0472954 -0.675567 -0.675567
0.014619 -0.685 -0.685
0.0312508 -0.694964 -0.694964
0.0475608 -0.685332 -0.685332
0.0309232 -0.675376 -0.675376
0.0310876 -0.68514 -0.68514
0.0146815 -0.694824 -0.694824
0.0148042 -0.714648 -0.714648
0.0483475 -0.714982 -0.714982
0.0478247 -0.695156 -0.695156
0.0147433 -0.704706 -0.704706
0.0315735 -0.71479 -0.71479
0.0480869 -0.705039 -0.705039
0.0312508 -0.694964 -0.694964
0.0314128 -0.704848 -0.704848
0.0148042 -0.714648 -0.714648
0.0149234 -0.73471 -0.73471
0.048864 -0.735045 -0.735045
0.0483475 -0.714982 -0.714982
0.0148642 -0.72465 -0.72465
0.0318914 -0.734852 -0.734852
0.0486066 -0.724984 -0.724984
0.0315735 -0.71479 -0.71479
0.0317331 -0.724792 -0.724792
0.0149234 -0.73471 -0.73471
0.0150392 -0.755005 -0.755005
0.0493739 -0.755342 -0.755342
0.048864 -0.735045 -0.735045
0.0149817 -0.744828 -0.744828
0.0322043 -0.755149 -0.755149
0.0491197 -0.745164 -0.745164
0.0318914 -0.734852 -0.734852
0.0320484 -0.744971 -0.744971
0.0150392 -0.755005 -0.755005
0.0151517 -0.775533 -0.775533
0.0498774 -0.775871 -0.775871
0.0493739 -0.755342 -0.755342
0.0150959 -0.76524 -0.76524
0.0325122 -0.775677 -0.775677
0.0496265 -0.765578 -0.765578
0.0322043 -0.755149 -0.755149
0.0323589 -0.765384 -0.765384
0.0151517 -0.775533 -0.775533
0.0152607 -0.796291 -0.796291
0.0503744 -0.796631 -0.796631
0.0498774 -0.775871 -0.775871
0.0152066 -0.785883 -0.785883
0.0328153 -0.796437 -0.796437
0.0501267 -0.786223 -0.786223
0.0325122 -0.775677 -0.775677
0.0326644 -0.786028 -0.786028
0.0152607 -0.796291 -0.796291
0.0153663 -0.817279 -0.817279
0.050865 -0.817621 -0.817621
0.0503744 -0.796631 -0.796631
0.0153139 -0.806757 -0.806757
0.0331133 -0.817425 -0.817425
0.0506205 -0.807098 -0.807098
0.0328153 -0.796437 -0.796437
0.0329649 -0.806903 -0.806903
0.0153663 -0.817279 -0.817279
0.0154685 -0.838493 -0.838493
0.051349 -0.838837 -0.838837
0.050865 -0.817621 -0.817621
0.0154179 -0.827858 -0.827858
0.0334065 -0.838641 -0.838641
0.0511078 -0.8282 -0.8282
0.0331133 -0.817425 -0.817425
0.0332605 -0.828005 -0.828005
0.0154685 -0.838493 -0.838493
0.0155673 -0.859933 -0.859933
0.0518266 -0.860278 -0.860278
0.051349 -0.838837 -0.838837
0.0155184 -0.849185 -0.849185
0.0336947 -0.860082 -0.860082
0.0515886 -0.849529 -0.849529
0.0334065 -0.838641 -0.838641
0.0335512 -0.849333 -0.849333
0.0155673 -0.859933 -0.859933
0.0156627 -0.881596 -0.881596
0.0522977 -0.881943 -0.881943
0.0518266 -0.860278 -0.860278
0.0156155 -0.870737 -0.870737
0.0339779 -0.881746 -0.881746
0.052063 -0.871083 -0.871083
0.0336947 -0.860082 -0.860082
0.0338369 -0.870886 -0.870886
0.0156627 -0.881596 -0.881596
0.0157546 -0.903481 -0.903481
0.0527623 -0.903829 -0.903829
0.0522977 -0.881943 -0.881943
0.0157091 -0.892511 -0.892511
0.0342562 -0.903632 -0.903632
0.0525308 -0.892858 -0.892858
0.0339779 -0.881746 -0.881746
0.0341176 -0.892661 -0.892661
0.0157546 -0.903481 -0.903481
0.0158432 -0.925585 -0.925585
0.0532204 -0.925935 -0.925935
0.0527623 -0.903829 -0.903829
0.0157993 -0.914506 -0.914506
0.0345294 -0.925737 -0.925737
0.0529921 -0.914855 -0.914855
0.0342562 -0.903632 -0.903632
0.0343934 -0.914657 -0.914657
0.0158432 -0.925585 -0.925585
0.0159282 -0.947908 -0.947908
0.0536719 -0.94826 -0.94826
0.0532204 -0.925935 -0.925935
0.0158861 -0.93672 -0.93672
0.0347978 -0.948061 -0.948061
0.053447 -0.93707 -0.93707
0.0345294 -0.925737 -0.925737
0.0346642 -0.936872 -0.936872
0.0159282 -0.947908 -0.947908
0.0160099 -0.970447 -0.970447
0.054117 -0.9708 -0.9708
0.0536719 -0.94826 -0.94826
0.0159695 -0.95915 -0.95915
0.0350611 -0.9706 -0.9706
0.0538953 -0.959503 -0.959503
0.0347978 -0.948061 -0.948061
0.0349301 -0.959304 -0.959304
0.0160099 -0.970447 -0.970447
0.0160881 -0.9932 -0.9932
0.0545556 -0.993554 -0.993554
0.054117 -0.9708 -0.9708
0.0160494 -0.981796 -0.981796
0.0353195 -0.993354 -0.993354
0.0543371 -0.98215 -0.98215
0.0350611 -0.9706 -0.9706
0.0351909 -0.981951 -0.981951
0.0160881 -0.9932 -0.9932
0.0161628 -1.01617 -1.01617
0.0549877 -1.01652 -1.01652
0.0545556 -0.993554 -0.993554
0.0161259 -1.00466 -1.00466
0.0355729 -1.01632 -1.01632
0.0547724 -1.00501 -1.00501
0.0353195 -0.993354 -0.993354
0.0354468 -1.00481 -1.00481
0.0161628 -1.01617 -1.01617
0.0162341 -1.03934 -1.03934
0.0554132 -1.0397 -1.0397
0.0549877 -1.01652 -1.01652
0.0161989 -1.02773 -1.02773
0.0358214 -1.0395 -1.0395
0.0552012 -1.02808 -1.02808
0.0355729 -1.01632 -1.01632
0.0356978 -1.02788 -1.02788
0.0162341 -1.03934 -1.03934
0.016302 -1.06273 -1.06273
0.0558323 -1.06309 -1.06309
0.0554132 -1.0397 -1.0397
0.0162685 -1.05101 -1.05101
0.0360648 -1.06288 -1.06288
0.0556235 -1.05137 -1.05137
0.0358214 -1.0395 -1.0395
0.0359437 -1.05117 -1.05117
0.016302 -1.06273 -1.06273
0.0163664 -1.08632 -1.08632
0.0562448 -1.08668 -1.08668
0.0558323 -1.06309 -1.06309
0.0163346 -1.0745 -1.0745
0.0363033 -1.08648 -1.08648
0.0560393 -1.07486 -1.07486
0.0360648 -1.06288 -1.06288
0.0361847 -1.07465 -1.07465
0.0163664 -1.08632 -1.08632
0.0164274 -1.11012 -1.11012
0.0566508 -1.11048 -1.11048
0.0562448 -1.08668 -1.08668
0.0163973 -1.09819 -1.09819
0.0365368 -1.11028 -1.11028
0.0564486 -1.09855 -1.09855
0.0363033 -1.08648 -1.08648
0.0364207 -1.09835 -1.09835
0.0164274 -1.11012 -1.11012
0.0164849 -1.13412 -1.13412
0.0570503 -1.13448 -1.13448
0.0566508 -1.11048 -1.11048
0.0164566 -1.12209 -1.12209
0.0367653 -1.13428 -1.13428
0.0568514 -1.12246 -1.12246
0.0365368 -1.11028 -1.11028
0.0366517 -1.12225 -1.12225
0.0164849 -1.13412 -1.13412
0.016539 -1.15832 -1.15832
0.0574433 -1.15869 -1.15869
0.0570503 -1.13448 -1.13448
0.0165124 -1.14619 -1.14619
0.0369888 -1.15848 -1.15848
0.0572476 -1.14656 -1.14656
0.0367653 -1.13428 -1.13428
0.0368777 -1.14635 -1.14635
0.016539 -1.15832 -1.15832
0.0165896 -1.18272 -1.18272
0.0578298 -1.18309 -1.18309
0.0574433 -1.15869 -1.15869
0.0165647 -1.1705 -1.1705
0.0372074 -1.18288 -1.18288
0.0576374 -1.17086 -1.17086
0.0369888 -1.15848 -1.15848
0.0370987 -1.17066 -1.17066
0.0165896 -1.18272 -1.18272
0.0166369 -1.20732 -1.20732
0.0582098 -1.20769 -1.20769
0.0578298 -1.18309 -1.18309
0.0166137 -1.195 -1.195
0.037421 -1.20749 -1.20749
0.0580206 -1.19537 -1.19537
0.0372074 -1.18288 -1.18288
0.0373148 -1.19516 -1.19516
0.0166369 -1.20732 -1.20732
0.0166806 -1.23212 -1.23212
0.0585833 -1.23249 -1.23249
0.0582098 -1.20769 -1.20769
0.0166592 -1.2197 -1.2197
0.0376296 -1.23228 -1.23228
0.0583973 -1.22007 -1.22007
0.037421 -1.20749 -1.20749
0.0375259 -1.21986 -1.21986
0.0166806 -1.23212 -1.23212
0.016721 -1.25711 -1.25711
0.0589502 -1.25748 -1.25748
0.0585833 -1.23249 -1.23249
0.0167012 -1.24459 -1.24459
0.0378333 -1.25727 -1.25727
0.0587676 -1.24496 -1.24496
0.0376296 -1.23228 -1.23228
0.0377321 -1.24475 -1.24475
0.016721 -1.25711 -1.25711
0.0167579 -1.28229 -1.28229
0.0593107 -1.28267 -1.28267
0.0589502 -1.25748 -1.25748
0.0167398 -1.26968 -1.26968
0.038032 -1.28246 -1.28246
0.0591313 -1.27005 -1.27005
0.0378333 -1.25727 -1.25727
0.0379333 -1.26984 -1.26984
0.0167579 -1.28229 -1.28229
0.0167913 -1.30767 -1.30767
0.0596647 -1.30804 -1.30804
0.0593107 -1.28267 -1.28267
0.016775 -1.29496 -1.29496
0.0382257 -1.30783 -1.30783
0.0594885 -1.29533 -1.29533
0.038032 -1.28246 -1.28246
0.0381295 -1.29512 -1.29512
0.0167913 -1.30767 -1.30767
0.0168214 -1.33323 -1.33323
0.0600122 -1.33361 -1.33361
0.0596647 -1.30804 -1.30804
0.0168068 -1.32042 -1.32042
0.0384145 -1.3334 -1.3334
0.0598393 -1.3208 -1.3208
0.0382257 -1.30783 -1.30783
0.0383207 -1.32059 -1.32059
0.0168214 -1.33323 -1.33323
0.016848 -1.35898 -1.35898
0.0603532 -1.35936 -1.35936
0.0600122 -1.33361 -1.33361
0.0168351 -1.34608 -1.34608
0.0385983 -1.35915 -1.35915
0.0601835 -1.34646 -1.34646
0.0384145 -1.3334 -1.3334
0.038507 -1.34625 -1.34625
0.016848 -1.35898 -1.35898
0.0168712 -1.38491 -1.38491
0.0606877 -1.3853 -1.3853
0.0603532 -1.35936 -1.35936
0.0168601 -1.37192 -1.37192
0.0387772 -1.38508 -1.38508
0.0605213 -1.3723 -1.3723
0.0385983 -1.35915 -1.35915
0.0386884 -1.37209 -1.37209
0.0168712 -1.38491 -1.38491
0.0168911 -1.41103 -1.41103
0.0610158 -1.41142 -1.41142
0.0606877 -1.3853 -1.3853
0.0168816 -1.39795 -1.39795
0.0389511 -1.4112 -1.4112
0.0608526 -1.39833 -1.39833
0.0387772 -1.38508 -1.38508
0.0388648 -1.39812 -1.39812
0.0168911 -1.41103 -1.41103
0.0169075 -1.43733 -1.43733
0.0613374 -1.43772 -1.43772
0.0610158 -1.41142 -1.41142
0.0168997 -1.42416 -1.42416
0.0391201 -1.43751 -1.43751
0.0611774 -1.42454 -1.42454
0.0389511 -1.4112 -1.4112
0.0390362 -1.42433 -1.42433
0.0169075 -1.43733 -1.43733
0.0169205 -1.46381 -1.46381
0.0616525 -1.4642 -1.4642
0.0613374 -1.43772 -1.43772
0.0169144 -1.45055 -1.45055
0.0392841 -1.46399 -1.46399
0.0614957 -1.45094 -1.45094
0.0391201 -1.43751 -1.43751
0.0392027 -1.45072 -1.45072
0.0169205 -1.46381 -1.46381
0.0169301 -1.49047 -1.49047
0.0619611 -1.49086 -1.49086
0.0616525 -1.4642 -1.4642
0.0169257 -1.47712 -1.47712
0.0394433 -1.49065 -1.49065
0.0618076 -1.47751 -1.47751
0.0392841 -1.46399 -1.46399
0.0393643 -1.47729 -1.47729
0.0169301 -1.49047 -1.49047
0.0169363 -1.51731 -1.51731
0.0622633 -1.51769 -1.51769
0.0619611 -1.49086 -1.49086
0.0169336 -1.50387 -1.50387
0.0395975 -1.51748 -1.51748
0.062113 -1.50425 -1.50425
0.0394433 -1.49065 -1.49065
0.039521 -1.50404 -1.50404
0.0169363 -1.51731 -1.51731
0.0169392 -1.54431 -1.54431
0.0625591 -1.5447 -1.5447
0.0622633 -1.51769 -1.51769
0.0169381 -1.53079 -1.53079
0.0397468 -1.54449 -1.54449
0.062412 -1.53118 -1.53118
0.0395975 -1.51748 -1.51748
0.0396728 -1.53096 -1.53096
0.0169392 -1.54431 -1.54431
0.0169386 -1.5715 -1.5715
0.0628484 -1.57189 -1.57189
0.0625591 -1.5447 -1.5447
0.0169393 -1.55788 -1.55788
0.0398912 -1.57167 -1.57167
0.0627045 -1.55827 -1.55827
0.0397468 -1.54449 -1.54449
0.0398196 -1.55806 -1.55806
0.0169386 -1.5715 -1.5715
0.0169347 -1.59885 -1.59885
0.0631313 -1.59924 -1.59924
0.0628484 -1.57189 -1.57189
0.0169371 -1.58515 -1.58515
0.0400307 -1.59903 -1.59903
0.0629906 -1.58554 -1.58554
0.0398912 -1.57167 -1.57167
0.0399616 -1.58533 -1.58533
0.0169347 -1.59885 -1.59885
0.0169275 -1.62637 -1.62637
0.0634077 -1.62676 -1.62676
0.0631313 -1.59924 -1.59924
0.0169315 -1.61259 -1.61259
0.0401653 -1.62655 -1.62655
0.0632703 -1.61298 -1.61298
0.0400307 -1.59903 -1.59903
0.0400986 -1.61277 -1.61277
0.0169275 -1.62637 -1.62637
0.0169169 -1.65406 -1.65406
0.0636778 -1.65445 -1.65445
0.0634077 -1.62676 -1.62676
0.0169226 -1.64019 -1.64019
0.040295 -1.65424 -1.65424
0.0635436 -1.64059 -1.64059
0.0401653 -1.62655 -1.62655
0.0402308 -1.64037 -1.64037
0.0169169 -1.65406 -1.65406
0.016903 -1.68191 -1.68191
0.0639414 -1.68231 -1.68231
0.0636778 -1.65445 -1.65445
0.0169104 -1.66796 -1.66796
0.0404199 -1.68209 -1.68209
0.0638104 -1.66836 -1.66836
0.040295 -1.65424 -1.65424
0.0403581 -1.66814 -1.66814
0.016903 -1.68191 -1.68191
0.0168857 -1.70993 -1.70993
0.0641987 -1.71033 -1.71033
0.0639414 -1.68231 -1.68231
0.0168948 -1.6959 -1.6959
0.0405399 -1.71011 -1.71011
0.0640709 -1.6963 -1.6963
0.0404199 -1.68209 -1.68209
0.0404805 -1.69608 -1.69608
0.0168857 -1.70993 -1.70993
0.0168652 -1.7381 -1.7381
0.0644495 -1.7385 -1.7385
0.0641987 -1.71033 -1.71033
0.0168759 -1.72399 -1.72399
0.040655 -1.73829 -1.73829
0.0643249 -1.72439 -1.72439
0.0405399 -1.71011 -1.71011
0.0405981 -1.72418 -1.72418
0.0168652 -1.7381 -1.7381
0.0168413 -1.76644 -1.76644
0.064694 -1.76684 -1.76684
0.0644495 -1.7385 -1.7385
0.0168536 -1.75225 -1.75225
0.0407653 -1.76663 -1.76663
0.0645726 -1.75265 -1.75265
0.040655 -1.73829 -1.73829
0.0407108 -1.75244 -1.75244
0.0168413 -1.76644 -1.76644
0.0168141 -1.79494 -1.79494
0.0649322 -1.79534 -1.79534
0.064694 -1.76684 -1.76684
0.0168281 -1.78067 -1.78067
0.0408708 -1.79512 -1.79512
0.0648139 -1.78107 -1.78107
0.0407653 -1.76663 -1.76663
0.0408187 -1.78086 -1.78086
0.0168141 -1.79494 -1.79494
0.0167836 -1.82359 -1.82359
0.0651639 -1.824 -1.824
0.0649322 -1.79534 -1.79534
0.0167993 -1.80924 -1.80924
0.0409715 -1.82378 -1.82378
0.0650488 -1.80965 -1.80965
0.0408708 -1.79512 -1.79512
0.0409217 -1.80943 -1.80943
0.0167836 -1.82359 -1.82359
0.0167499 -1.8524 -1.8524
0.0653893 -1.8528 -1.8528
0.0651639 -1.824 -1.824
0.0167672 -1.83797 -1.83797
0.0410673 -1.85258 -1.85258
0.0652774 -1.83838 -1.83838
0.0409715 -1.82378 -1.82378
0.04102 -1.83816 -1.83816
0.0167499 -1.8524 -1.8524
0.0167129 -1.88136 -1.88136
0.0656084 -1.88176 -1.88176
0.0653893 -1.8528 -1.8528
0.0167318 -1.86686 -1.86686
0.0411583 -1.88154 -1.88154
0.0654997 -1.86727 -1.86727
0.0410673 -1.85258 -1.85258
0.0411134 -1.86705 -1.86705
0.0167129 -1.88136 -1.88136
0.0166726 -1.91047 -1.91047
0.0658212 -1.91088 -1.91088
0.0656084 -1.88176 -1.88176
0.0166932 -1.89589 -1.89589
0.0412446 -1.91065 -1.91065
0.0657156 -1.8963 -1.8963
0.0411583 -1.88154 -1.88154
0.0412021 -1.89608 -1.89608
0.0166726 -1.91047 -1.91047
0.0166291 -1.93973 -1.93973
0.0660277 -1.94014 -1.94014
0.0658212 -1.91088 -1.91088
0.0166513 -1.92508 -1.92508
0.0413261 -1.93991 -1.93991
0.0659252 -1.92549 -1.92549
0.0412446 -1.91065 -1.91065
0.0412859 -1.92527 -1.92527
0.0166291 -1.93973 -1.93973
0.0165824 -1.96913 -1.96913
0.0662278 -1.96954 -1.96954
0.0660277 -1.94014 -1.94014
0.0166062 -1.95441 -1.95441
0.0414028 -1.96932 -1.96932
0.0661285 -1.95482 -1.95482
0.0413261 -1.93991 -1.93991
0.041365 -1.9546 -1.9546
0.0165824 -1.96913 -1.96913
0.0165324 -1.99868 -1.99868
0.0664217 -1.9991 -1.9991
0.0662278 -1.96954 -1.96954
0.0165578 -1.98389 -1.98389
0.0414747 -1.99887 -1.99887
0.0663256 -1.9843 -1.9843
0.0414028 -1.96932 -1.96932
0.0414394 -1.98408 -1.98408
0.0165324 -1.99868 -1.99868
0.0164793 -2.02838 -2.02838
0.0666093 -2.02879 -2.02879
0.0664217 -1.9991 -1.9991
0.0165063 -2.01351 -2.01351
0.041542 -2.02857 -2.02857
0.0665163 -2.01393 -2.01393
0.0414747 -1.99887 -1.99887
0.0415089 -2.0137 -2.0137
0.0164793 -2.02838 -2.02838
0.0164229 -2.05821 -2.05821
0.0667907 -2.05863 -2.05863
0.0666093 -2.02879 -2.02879
0.0164515 -2.04328 -2.04328
0.0416045 -2.05841 -2.05841
0.0667008 -2.04369 -2.04369
0.041542 -2.02857 -2.02857
0.0415738 -2.04347 -2.04347
0.0164229 -2.05821 -2.05821
0.0163634 -2.08819 -2.08819
0.0669658 -2.08861 -2.08861
0.0667907 -2.05863 -2.05863
0.0163936 -2.07318 -2.07318
0.0416623 -2.08838 -2.08838
0.066879 -2.0736 -2.0736
0.0416045 -2.05841 -2.05841
0.041634 -2.07338 -2.07338
0.0163634 -2.08819 -2.08819
0.0163007 -2.1183 -2.1183
0.0671347 -2.11872 -2.11872
0.0669658 -2.08861 -2.08861
0.0163325 -2.10323 -2.10323
0.0417154 -2.1185 -2.1185
0.067051 -2.10365 -2.10365
0.0416623 -2.08838 -2.08838
0.0416894 -2.10342 -2.10342
0.0163007 -2.1183 -2.1183
0.0162349 -2.14855 -2.14855
0.0672973 -2.14897 -2.14897
0.0671347 -2.11872 -2.11872
0.0162682 -2.13341 -2.13341
0.0417638 -2.14875 -2.14875
0.0672168 -2.13383 -2.13383
0.0417154 -2.1185 -2.1185
0.0417401 -2.13361 -2.13361
0.0162349 -2.14855 -2.14855
0.0161659 -2.17894 -2.17894
0.0674538 -2.17936 -2.17936
0.0672973 -2.14897 -2.14897
0.0162008 -2.16373 -2.16373
0.0418075 -2.17914 -2.17914
0.0673763 -2.16415 -2.16415
0.0417638 -2.14875 -2.14875
0.0417862 -2.16393 -2.16393
0.0161659 -2.17894 -2.17894
0.0160938 -2.20946 -2.20946
0.067604 -2.20988 -2.20988
0.0674538 -2.17936 -2.17936
0.0161302 -2.19418 -2.19418
0.0418466 -2.20965 -2.20965
0.0675297 -2.1946 -2.1946
0.0418075 -2.17914 -2.17914
0.0418276 -2.19438 -2.19438
0.0160938 -2.20946 -2.20946
0.0160186 -2.24011 -2.24011
0.0677481 -2.24053 -2.24053
0.067604 -2.20988 -2.20988
0.0160566 -2.22477 -2.22477
0.041881 -2.2403 -2.2403
0.0676769 -2.22519 -2.22519
0.0418466 -2.20965 -2.20965
0.0418644 -2.22496 -2.22496
0.0160186 -2.24011 -2.24011
0.0159403 -2.27088 -2.27088
0.0678861 -2.27131 -2.27131
0.0677481 -2.24053 -2.24053
0.0159798 -2.25548 -2.25548
0.0419109 -2.27108 -2.27108
0.0678179 -2.2559 -2.2559
0.041881 -2.2403 -2.2403
0.0418965 -2.25568 -2.25568
0.0159403 -2.27088 -2.27088
0.0158589 -2.30179 -2.30179
0.0680179 -2.30221 -2.30221
0.0678861 -2.27131 -2.27131
0.0159 -2.28632 -2.28632
0.0419361 -2.30199 -2.30199
0.0679528 -2.28674 -2.28674
0.0419109 -2.27108 -2.27108
0.041924 -2.28652 -2.28652
0.0158589 -2.30179 -2.30179
0.0157745 -2.33282 -2.33282
0.0681436 -2.33324 -2.33324
0.0680179 -2.30221 -2.30221
0.0158171 -2.31729 -2.31729
0.0419567 -2.33302 -2.33302
0.0680815 -2.31771 -2.31771
0.0419361 -2.30199 -2.30199
0.0419469 -2.31749 -2.31749
0.0157745 -2.33282 -2.33282
0.015687 -2.36397 -2.36397
0.0682631 -2.3644 -2.3644
0.0681436 -2.33324 -2.33324
0.0157312 -2.34838 -2.34838
0.0419727 -2.36417 -2.36417
0.0682041 -2.3488 -2.3488
0.0419567 -2.33302 -2.33302
0.0419653 -2.34858 -2.34858
0.015687 -2.36397 -2.36397
0.0155966 -2.39524 -2.39524
0.0683766 -2.39567 -2.39567
0.0682631 -2.3644 -2.3644
0.0156422 -2.37959 -2.37959
0.0419842 -2.39545 -2.39545
0.0683206 -2.38002 -2.38002
0.0419727 -2.36417 -2.36417
0.041979 -2.37979 -2.37979
0.0155966 -2.39524 -2.39524
0.015503 -2.42664 -2.42664
0.068484 -2.42707 -2.42707
0.0683766 -2.39567 -2.39567
0.0155502 -2.41093 -2.41093
0.0419912 -2.42684 -2.42684
0.068431 -2.41136 -2.41136
0.0419842 -2.39545 -2.39545
0.0419883 -2.41113 -2.41113
0.015503 -2.42664 -2.42664
0.0154065 -2.45815 -2.45815
0.0685853 -2.45858 -2.45858
0.068484 -2.42707 -2.42707
0.0154552 -2.44238 -2.44238
0.0419936 -2.45835 -2.45835
0.0685354 -2.44281 -2.44281
0.0419912 -2.42684 -2.42684
0.0419929 -2.44258 -2.44258
0.0154065 -2.45815 -2.45815
0.0153071 -2.48978 -2.48978
0.0686806 -2.49021 -2.49021
0.0685853 -2.45858 -2.45858
0.0153572 -2.47395 -2.47395
0.0419915 -2.48998 -2.48998
0.0686337 -2.47438 -2.47438
0.0419936 -2.45835 -2.45835
0.0419931 -2.47415 -2.47415
0.0153071 -2.48978 -2.48978
0.0152046 -2.52152 -2.52152
0.0687699 -2.52196 -2.52196
0.0686806 -2.49021 -2.49021
0.0152562 -2.50564 -2.50564
0.0419849 -2.52173 -2.52173
0.068726 -2.50607 -2.50607
0.0419915 -2.48998 -2.48998
0.0419887 -2.50584 -2.50584
0.0152046 -2.52152 -2.52152
0.0150993 -2.55338 -2.55338
0.0688531 -2.55381 -2.55381
0.0687699 -2.52196 -2.52196
0.0151523 -2.53744 -2.53744
0.0419738 -2.55358 -2.55358
0.0688122 -2.53787 -2.53787
0.0419849 -2.52173 -2.52173
0.0419799 -2.53764 -2.53764
0.0150993 -2.55338 -2.55338
0.014991 -2.58535 -2.58535
0.0689304 -2.58578 -2.58578
0.0688531 -2.55381 -2.55381
0.0150455 -2.56935 -2.56935
0.0419583 -2.58555 -2.58555
0.0688925 -2.56978 -2.56978
0.0419738 -2.55358 -2.55358
0.0419666 -2.56955 -2.56955
0.014991 -2.58535 -2.58535
0.0148798 -2.61742 -2.61742
0.0690017 -2.61786 -2.61786
0.0689304 -2.58578 -2.58578
0.0149357 -2.60137 -2.60137
0.0419383 -2.61763 -2.61763
0.0689668 -2.6018 -2.6018
0.0419583 -2.58555 -2.58555
0.0419489 -2.60158 -2.60158
0.0148798 -2.61742 -2.61742
0.0147657 -2.64961 -2.64961
0.069067 -2.65004 -2.65004
0.0690017 -2.61786 -2.61786
0.0148231 -2.6335 -2.6335
0.041914 -2.64981 -2.64981
0.0690351 -2.63393 -2.63393
0.0419383 -2.61763 -2.61763
0.0419267 -2.63371 -2.63371
0.0147657 -2.64961 -2.64961
0.0146487 -2.68189 -2.68189
0.0691264 -2.68233 -2.68233
0.069067 -2.65004 -2.65004
0.0147075 -2.66574 -2.66574
0.0418852 -2.6821 -2.6821
0.0690974 -2.66617 -2.66617
0.041914 -2.64981 -2.64981
0.0419001 -2.66594 -2.66594
0.0146487 -2.68189 -2.68189
0.0145289 -2.71429 -2.71429
0.0691799 -2.71472 -2.71472
0.0691264 -2.68233 -2.68233
0.0145891 -2.69808 -2.69808
0.041852 -2.71449 -2.71449
0.0691539 -2.69851 -2.69851
0.0418852 -2.6821 -2.6821
0.0418691 -2.69828 -2.69828
0.0145289 -2.71429 -2.71429
0.0144062 -2.74678 -2.74678
0.0692275 -2.74721 -2.74721
0.0691799 -2.71472 -2.71472
0.0144679 -2.73052 -2.73052
0.0418145 -2.74699 -2.74699
0.0692044 -2.73096 -2.73096
0.041852 -2.71449 -2.71449
0.0418338 -2.73073 -2.73073
0.0144062 -2.74678 -2.74678
0.0142808 -2.77937 -2.77937
0.0692692 -2.77981 -2.77981
0.0692275 -2.74721 -2.74721
0.0143439 -2.76306 -2.76306
0.0417726 -2.77958 -2.77958
0.0692491 -2.7635 -2.7635
0.0418145 -2.74699 -2.74699
0.0417941 -2.76327 -2.76327
0.0142808 -2.77937 -2.77937
0.0141525 -2.81206 -2.81206
0.069305 -2.8125 -2.8125
0.0692692 -2.77981 -2.77981
0.014217 -2.79571 -2.79571
0.0417264 -2.81227 -2.81227
0.0692878 -2.79614 -2.79614
0.0417726 -2.77958 -2.77958
0.04175 -2.79591 -2.79591
0.0141525 -2.81206 -2.81206
0.0140215 -2.84485 -2.84485
0.069335 -2.84529 -2.84529
0.069305 -2.8125 -2.8125
0.0140874 -2.82845 -2.82845
0.0416759 -2.84506 -2.84506
0.0693208 -2.82888 -2.82888
0.0417264 -2.81227 -2.81227
0.0417017 -2.82865 -2.82865
0.0140215 -2.84485 -2.84485
0.0138878 -2.87773 -2.87773
0.0693592 -2.87817 -2.87817
0.069335 -2.84529 -2.84529
0.013955 -2.86128 -2.86128
0.0416211 -2.87794 -2.87794
0.0693479 -2.86172 -2.86172
0.0416759 -2.84506 -2.84506
0.041649 -2.86149 -2.86149
0.0138878 -2.87773 -2.87773
0.0137512 -2.91071 -2.91071
0.0693776 -2.91115 -2.91115
0.0693592 -2.87817 -2.87817
0.0138198 -2.89421 -2.89421
0.041562 -2.91092 -2.91092
0.0693691 -2.89465 -2.89465
0.0416211 -2.87794 -2.87794
0.0415921 -2.89442 -2.89442
0.0137512 -2.91071 -2.91071
0.013612 -2.94377 -2.94377
0.0693902 -2.94421 -2.94421
0.0693776 -2.91115 -2.91115
0.013682 -2.92723 -2.92723
0.0414987 -2.94398 -2.94398
0.0693846 -2.92767 -2.92767
0.041562 -2.91092 -2.91092
0.0415309 -2.92744 -2.92744
0.013612 -2.94377 -2.94377
0.0134701 -2.97693 -2.97693
0.0693971 -2.97737 -2.97737
0.0693902 -2.94421 -2.94421
0.0135414 -2.96034 -2.96034
0.0414312 -2.97714 -2.97714
0.0693944 -2.96078 -2.96078
0.0414987 -2.94398 -2.94398
0.0414655 -2.96055 -2.96055
0.0134701 -2.97693 -2.97693
0.0133255 -3.01017 -3.01017
0.0693982 -3.01061 -3.01061
0.0693971 -2.97737 -2.97737
0.0133982 -2.99354 -2.99354
0.0413595 -3.01038 -3.01038
0.0693983 -2.99398 -2.99398
0.0414312 -2.97714 -2.97714
0.0413959 -2.99375 -2.99375
0.0133255 -3.01017 -3.01017
0.0131783 -3.0435 -3.0435
0.0693936 -3.04394 -3.04394
0.0693982 -3.01061 -3.01061
0.0132523 -3.02682 -3.02682
0.0412836 -3.04371 -3.04371
0.0693966 -3.02726 -3.02726
0.0413595 -3.01038 -3.01038
0.041322 -3.02703 -3.02703
0.0131783 -3.0435 -3.0435
0.0130284 -3.07691 -3.07691
0.0693833 -3.07735 -3.07735
0.0693936 -3.04394 -3.04394
0.0131037 -3.06019 -3.06019
0.0412035 -3.07712 -3.07712
0.0693891 -3.06063 -3.06063
0.0412836 -3.04371 -3.04371
0.041244 -3.0604 -3.0604
0.0130284 -3.07691 -3.07691
0.012876 -3.1104 -3.1104
0.0693673 -3.11084 -3.11084
0.0693833 -3.07735 -3.07735
0.0129525 -3.09364 -3.09364
0.0411192 -3.11061 -3.11061
0.069376 -3.09408 -3.09408
0.0412035 -3.07712 -3.07712
0.0411619 -3.09385 -3.09385
0.012876 -3.1104 -3.1104
0.0127209 -3.14397 -3.14397
0.0693457 -3.14441 -3.14441
0.0693673 -3.11084 -3.11084
0.0127988 -3.12717 -3.12717
0.0410309 -3.14418 -3.14418
0.0693572 -3.12762 -3.12762
0.0411192 -3.11061 -3.11061
0.0410756 -3.12739 -3.12739
0.0127209 -3.14397 -3.14397
0.0125633 -3.17762 -3.17762
0.0693184 -3.17806 -3.17806
0.0693457 -3.14441 -3.14441
0.0126424 -3.16079 -3.16079
0.0409385 -3.17783 -3.17783
0.0693328 -3.16123 -3.16123
0.0410309 -3.14418 -3.14418
0.0409852 -3.161 -3.161
0.0125633 -3.17762 -3.17762
0.0124031 -3.21135 -3.21135
0.0692855 -3.21179 -3.21179
0.0693184 -3.17806 -3.17806
0.0124835 -3.19447 -3.19447
0.0408419 -3.21156 -3.21156
0.0693027 -3.19492 -3.19492
0.0409385 -3.17783 -3.17783
0.0408907 -3.19469 -3.19469
0.0124031 -3.21135 -3.21135
0.0122404 -3.24515 -3.24515
0.0692471 -3.24559 -3.24559
0.0692855 -3.21179 -3.21179
0.0123221 -3.22824 -3.22824
0.0407414 -3.24536 -3.24536
0.069267 -3.22868 -3.22868
0.0408419 -3.21156 -3.21156
0.0407922 -3.22845 -3.22845
0.0122404 -3.24515 -3.24515
0.0120753 -3.27902 -3.27902
0.0692031 -3.27946 -3.27946
0.0692471 -3.24559 -3.24559
0.0121582 -3.26207 -3.26207
0.0406367 -3.27923 -3.27923
0.0692258 -3.26252 -3.26252
0.0407414 -3.24536 -3.24536
0.0406896 -3.26229 -3.26229
0.0120753 -3.27902 -3.27902
0.0119076 -3.31296 -3.31296
0.0691535 -3.31341 -3.31341
0.0692031 -3.27946 -3.27946
0.0119917 -3.29598 -3.29598
0.0405281 -3.31318 -3.31318
0.069179 -3.29643 -3.29643
0.0406367 -3.27923 -3.27923
0.0405829 -3.2962 -3.2962
0.0119076 -3.31296 -3.31296
0.0117375 -3.34698 -3.34698
0.0690984 -3.34742 -3.34742
0.0691535 -3.31341 -3.31341
0.0118228 -3.32996 -3.32996
0.0404155 -3.34719 -3.34719
0.0691266 -3.3304 -3.3304
0.0405281 -3.31318 -3.31318
0.0404723 -3.33018 -3.33018
0.0117375 -3.34698 -3.34698
0.0115649 -3.38106 -3.38106
0.0690378 -3.3815 -3.3815
0.0690984 -3.34742 -3.34742
0.0116515 -3.36401 -3.36401
0.0402989 -3.38127 -3.38127
0.0690688 -3.36445 -3.36445
0.0404155 -3.34719 -3.34719
0.0403577 -3.36422 -3.36422
0.0115649 -3.38106 -3.38106
0.0113899 -3.4152 -3.4152
0.0689717 -3.41565 -3.41565
0.0690378 -3.3815 -3.3815
0.0114777 -3.39812 -3.39812
0.0401784 -3.41542 -3.41542
0.0690054 -3.39856 -3.39856
0.0402989 -3.38127 -3.38127
0.0402392 -3.39834 -3.39834
0.0113899 -3.4152 -3.4152
0.0112126 -3.44941 -3.44941
0.0689002 -3.44985 -3.44985
0.0689717 -3.41565 -3.41565
0.0113016 -3.4323 -3.4323
0.040054 -3.44963 -3.44963
0.0689366 -3.43274 -3.43274
0.0401784 -3.41542 -3.41542
0.0401167 -3.43252 -3.43252
0.0112126 -3.44941 -3.44941
0.0110329 -3.48368 -3.48368
0.0688232 -3.48413 -3.48413
0.0689002 -3.44985 -3.44985
0.011123 -3.46654 -3.46654
0.0399256 -3.4839 -3.4839
0.0688624 -3.46698 -3.46698
0.040054 -3.44963 -3.44963
0.0399903 -3.46676 -3.46676
0.0110329 -3.48368 -3.48368
0.0108508 -3.51802 -3.51802
0.0687409 -3.51846 -3.51846
0.0688232 -3.48413 -3.48413
0.0109421 -3.50084 -3.50084
0.0397934 -3.51823 -3.51823
0.0687827 -3.50128 -3.50128
0.0399256 -3.4839 -3.4839
0.03986 -3.50106 -3.50106
0.0108508 -3.51802 -3.51802
0.0106664 -3.5524 -3.5524
0.0686531 -3.55285 -3.55285
0.0687409 -3.51846 -3.51846
0.0107589 -3.5352 -3.5352
0.0396573 -3.55262 -3.55262
0.0686977 -3.53564 -3.53564
0.0397934 -3.51823 -3.51823
0.0397259 -3.53542 -3.53542
0.0106664 -3.5524 -3.5524
0.0104798 -3.58685 -3.58685
0.06856 -3.58729 -3.58729
0.0686531 -3.55285 -3.55285
0.0105734 -3.56962 -3.56962
0.0395174 -3.58706 -3.58706
0.0686072 -3.57006 -3.57006
0.0396573 -3.55262 -3.55262
0.0395879 -3.56983 -3.56983
0.0104798 -3.58685 -3.58685
0.0102908 -3.62135 -3.62135
0.0684615 -3.62179 -3.62179
0.06856 -3.58729 -3.58729
0.0103856 -3.60409 -3.60409
0.0393737 -3.62156 -3.62156
0.0685114 -3.60453 -3.60453
0.0395174 -3.58706 -3.58706
0.0394461 -3.60431 -3.60431
0.0102908 -3.62135 -3.62135
0.0100996 -3.6559 -3.6559
0.0683578 -3.65634 -3.65634
0.0684615 -3.62179 -3.62179
0.0101955 -3.63862 -3.63862
0.0392263 -3.65612 -3.65612
0.0684103 -3.63906 -3.63906
0.0393737 -3.62156 -3.62156
0.0393005 -3.63883 -3.63883
0.0100996 -3.6559 -3.6559
0.0099062 -3.69051 -3.69051
0.0682487 -3.69095 -3.69095
0.0683578 -3.65634 -3.65634
0.0100032 -3.6732 -3.6732
0.039075 -3.69072 -3.69072
0.0683039 -3.67364 -3.67364
0.0392263 -3.65612 -3.65612
0.0391511 -3.67341 -3.67341
0.0099062 -3.69051 -3.69051
0.00971058 -3.72516 -3.72516
0.0681344 -3.7256 -3.7256
0.0682487 -3.69095 -3.69095
0.00980867 -3.70783 -3.70783
0.03892 -3.72537 -3.72537
0.0681922 -3.70827 -3.70827
0.039075 -3.69072 -3.69072
0.038998 -3.70804 -3.70804
0.00971058 -3.72516 -3.72516
0.00951279 -3.75986 -3.75986
0.0680148 -3.7603 -3.7603
0.0681344 -3.7256 -3.7256
0.00961196 -3.7425 -3.7425
0.0387614 -3.76007 -3.76007
0.0680753 -3.74294 -3.74294
0.03892 -3.72537 -3.72537
0.0388412 -3.74272 -3.74272
0.00951279 -3.75986 -3.75986
0.00931283 -3.7946 -3.7946
0.06789 -3.79504 -3.79504
0.0680148 -3.7603 -3.7603
0.00941308 -3.77722 -3.77722
0.038599 -3.79482 -3.79482
0.0679531 -3.77766 -3.77766
0.0387614 -3.76007 -3.76007
0.0386806 -3.77744 -3.77744
0.00931283 -3.7946 -3.7946
0.00911075 -3.82939 -3.82939
0.06776 -3.82983 -3.82983
0.06789 -3.79504 -3.79504
0.00921206 -3.81199 -3.81199
0.0384329 -3.82961 -3.82961
0.0678257 -3.81243 -3.81243
0.038599 -3.79482 -3.79482
0.0385164 -3.81221 -3.81221
0.00911075 -3.82939 -3.82939
0.00890657 -3.86422 -3.86422
0.0676249 -3.86466 -3.86466
0.06776 -3.82983 -3.82983
0.00900892 -3.8468 -3.8468
0.0382633 -3.86444 -3.86444
0.0676931 -3.84724 -3.84724
0.0384329 -3.82961 -3.82961
0.0383486 -3.84702 -3.84702
0.00890657 -3.86422 -3.86422
0.0087003 -3.89909 -3.89909
0.0674846 -3.89953 -3.89953
0.0676249 -3.86466 -3.86466
0.00880369 -3.88165 -3.88165
0.03809 -3.89931 -3.89931
0.0675554 -3.88209 -3.88209
0.0382633 -3.86444 -3.86444
0.0381771 -3.88187 -3.88187
0.0087003 -3.89909 -3.89909
0.00849198 -3.934 -3.934
0.0673391 -3.93444 -3.93444
0.0674846 -3.89953 -3.89953
0.00859639 -3.91654 -3.91654
0.0379131 -3.93421 -3.93421
0.0674125 -3.91698 -3.91698
0.03809 -3.89931 -3.89931
0.038002 -3.91675 -3.91675
0.00849198 -3.934 -3.934
0.00828162 -3.96894 -3.96894
0.0671886 -3.96938 -3.96938
0.0673391 -3.93444 -3.93444
0.00838705 -3.95147 -3.95147
0.0377326 -3.96916 -3.96916
0.0672645 -3.9519 -3.9519
0.0379131 -3.93421 -3.93421
0.0378233 -3.95168 -3.95168
0.00828162 -3.96894 -3.96894
0.00806926 -4.00392 -4.00392
0.067033 -4.00436 -4.00436
0.0671886 -3.96938 -3.96938
0.00817569 -3.98643 -3.98643
0.0375487 -4.00414 -4.00414
0.0671114 -3.98686 -3.98686
0.0377326 -3.96916 -3.96916
0.0376411 -3.98664 -3.98664
0.00806926 -4.00392 -4.00392
0.00785491 -4.03894 -4.03894
0.0668723 -4.03937 -4.03937
0.067033 -4.00436 -4.00436
0.00796233 -4.02143 -4.02143
0.0373612 -4.03915 -4.03915
0.0669533 -4.02186 -4.02186
0.0375487 -4.00414 -4.00414
0.0374553 -4.02164 -4.02164
0.00785491 -4.03894 -4.03894
0.00763861 -4.07398 -4.07398
0.0667067 -4.07441 -4.07441
0.0668723 -4.03937 -4.03937
0.007747 -4.05645 -4.05645
0.0371702 -4.07419 -4.07419
0.0667901 -4.05689 -4.05689
0.0373612 -4.03915 -4.03915
0.0372661 -4.05667 -4.05667
0.00763861 -4.07398 -4.07398
0.00742037 -4.10905 -4.10905
0.066536 -4.10948 -4.10948
0.0667067 -4.07441 -4.07441
0.00752973 -4.09151 -4.09151
0.0369757 -4.10926 -4.10926
0.0666219 -4.09194 -4.09194
0.0371702 -4.07419 -4.07419
0.0370734 -4.09172 -4.09172
0.00742037 -4.10905 -4.10905
0.00720021 -4.14415 -4.14415
0.0663603 -4.14458 -4.14458
0.066536 -4.10948 -4.10948
0.00731053 -4.1266 -4.1266
0.0367778 -4.14436 -4.14436
0.0664488 -4.12703 -4.12703
0.0369757 -4.10926 -4.10926
0.0368772 -4.12681 -4.12681
0.00720021 -4.14415 -4.14415
0.00697817 -4.17927 -4.17927
0.0661797 -4.1797 -4.1797
0.0663603 -4.14458 -4.14458
0.00708943 -4.16171 -4.16171
0.0365765 -4.17949 -4.17949
0.0662706 -4.16214 -4.16214
0.0367778 -4.14436 -4.14436
0.0366776 -4.16192 -4.16192
0.00697817 -4.17927 -4.17927
0.00675427 -4.21442 -4.21442
0.0659942 -4.21485 -4.21485
0.0661797 -4.1797 -4.1797
0.00686645 -4.19684 -4.19684
0.0363717 -4.21463 -4.21463
0.0660875 -4.19727 -4.19727
0.0365765 -4.17949 -4.17949
0.0364745 -4.19706 -4.19706
0.00675427 -4.21442 -4.21442
0.0065285 -4.24959 -4.24959
0.0658037 -4.25002 -4.25002
0.0659942 -4.21485 -4.21485
0.00664161 -4.232 -4.232
0.0361636 -4.2498 -4.2498
0.0658995 -4.23243 -4.23243
0.0363717 -4.21463 -4.21463
0.0362681 -4.23221 -4.23221
0.0065285 -4.24959 -4.24959
0.00630088 -4.28478 -4.28478
0.0656082 -4.28521 -4.28521
0.0658037 -4.25002 -4.25002
0.00641492 -4.26718 -4.26718
0.035952 -4.28499 -4.28499
0.0657066 -4.26761 -4.26761
0.0361636 -4.2498 -4.2498
0.0360582 -4.26739 -4.26739
0.00630088 -4.28478 -4.28478
0.0060714 -4.31999 -4.31999
0.0654078 -4.32041 -4.32041
0.0656082 -4.28521 -4.28521
0.00618637 -4.30238 -4.30238
0.0357371 -4.3202 -4.3202
0.0655087 -4.30281 -4.30281
0.035952 -4.28499 -4.28499
0.035845 -4.30259 -4.30259
0.0060714 -4.31999 -4.31999
0.00584001 -4.35521 -4.35521
0.0652024 -4.35564 -4.35564
0.0654078 -4.32041 -4.32041
0.00595595 -4.3376 -4.3376
0.0355185 -4.35542 -4.35542
0.0653058 -4.33802 -4.33802
0.0357371 -4.3202 -4.3202
0.0356282 -4.33781 -4.33781
0.00584001 -4.35521 -4.35521
0.00560664 -4.39045 -4.39045
0.0649917 -4.39087 -4.39087
0.0652024 -4.35564 -4.35564
0.00572358 -4.37283 -4.37283
0.0352964 -4.39066 -4.39066
0.0650977 -4.37325 -4.37325
0.0355185 -4.35542 -4.35542
0.0354079 -4.37304 -4.37304
0.00560664 -4.39045 -4.39045
0.00537118 -4.42571 -4.42571
0.0647755 -4.42612 -4.42612
0.0649917 -4.39087 -4.39087
0.00548918 -4.40808 -4.40808
0.0350703 -4.42591 -4.42591
0.0648843 -4.4085 -4.4085
0.0352964 -4.39066 -4.39066
0.0351838 -4.40829 -4.40829
0.00537118 -4.42571 -4.42571
0.00513349 -4.46097 -4.46097
0.0645534 -4.46139 -4.46139
0.0647755 -4.42612 -4.42612
0.00525261 -4.44334 -4.44334
0.03484 -4.46118 -4.46118
0.0646652 -4.44375 -4.44375
0.0350703 -4.42591 -4.42591
0.0349557 -4.44354 -4.44354
0.00513349 -4.46097 -4.46097
0.0048936 -4.49624 -4.49624
0.0643249 -4.49666 -4.49666
0.0645534 -4.46139 -4.46139
0.00501382 -4.4786 -4.4786
0.0346054 -4.49645 -4.49645
0.06444 -4.47902 -4.47902
0.03484 -4.46118 -4.46118
0.0347232 -4.47881 -4.47881
0.0048936 -4.49624 -4.49624
0.00465168 -4.53152 -4.53152
0.0640903 -4.53194 -4.53194
0.0643249 -4.49666 -4.49666
0.00477283 -4.51388 -4.51388
0.0343667 -4.53173 -4.53173
0.0642084 -4.5143 -4.5143
0.0346054 -4.49645 -4.49645
0.0344865 -4.51409 -4.51409
0.00465168 -4.53152 -4.53152
0.00440875 -4.5668 -4.5668
0.0638504 -4.56722 -4.56722
0.0640903 -4.53194 -4.53194
0.00453031 -4.54916 -4.54916
0.0341254 -4.56701 -4.56701
0.0639707 -4.54958 -4.54958
0.0343667 -4.53173 -4.53173
0.0342462 -4.54937 -4.54937
0.00440875 -4.5668 -4.5668
0.00416561 -4.60207 -4.60207
0.0636099 -4.60251 -4.60251
0.0638504 -4.56722 -4.56722
0.00428707 -4.58444 -4.58444
0.0338842 -4.60229 -4.60229
0.0637299 -4.58487 -4.58487
0.0341254 -4.56701 -4.56701
0.0340047 -4.58465 -4.58465
0.00416561 -4.60207 -4.60207
0.0039244 -4.63733 -4.63733
0.0633729 -4.63778 -4.63778
0.0636099 -4.60251 -4.60251
0.00404472 -4.6197 -4.6197
0.0336447 -4.63755 -4.63755
0.0634907 -4.62015 -4.62015
0.0338842 -4.60229 -4.60229
0.0337642 -4.61992 -4.61992
0 0 0
0.000798532 -8.2898e-05 -8.2898e-05
0.00137407 -0.000390444 -0.000390444
0 0 0
0.000387115 2.3992e-05 2.3992e-05
0.00107568 -0.00019945 -0.00019945
0.000666834 -0.000140111 -0.000140111
0 0 0
0.000529662 -4.26127e-05 -4.26127e-05
0.000798532 -8.2898e-05 -8.2898e-05
0.00165811 -0.00062277 -0.00062277
0.00286166 -0.00112671 -0.00112671
0.00137407 -0.000390444 -0.000390444
0.00122296 -0.000301104 -0.000301104
0.00223956 -0.000831493 -0.000831493
0.0021108 -0.000723028 -0.000723028
0.00107568 -0.00019945 -0.00019945
0.00164832 -0.000467225 -0.000467225
0.00165811 -0.00062277 -0.00062277
0.00255343 -0.00155637 -0.00155637
0.00436258 -0.00213812 -0.00213812
0.00286166 -0.00112671 -0.00112671
0.00210306 -0.00104292 -0.00104292
0.00344026 -0.00180667 -0.00180667
0.00361303 -0.00159686 -0.00159686
0.00223956 -0.000831493 -0.000831493
0.00283841 -0.00127829 -0.00127829
0.00255343 -0.00155637 -0.00155637
0.00345594 -0.00284888 -0.00284888
0.00585572 -0.00345502 -0.00345502
0.00436258 -0.00213812 -0.00213812
0.0030048 -0.00215874 -0.00215874
0.00464296 -0.00311425 -0.00311425
0.00511049 -0.0027566 -0.0027566
0.00344026 -0.00180667 -0.00180667
0.00404235 -0.00241857 -0.00241857
0.00345594 -0.00284888 -0.00284888
0.00435513 -0.00449078 -0.00449078
0.00733582 -0.00509916 -0.00509916
0.00585572 -0.00345502 -0.00345502
0.00390635 -0.00362642 -0.00362642
0.00583601 -0.00475817 -0.00475817
0.00659732 -0.00423525 -0.00423525
0.00464296 -0.00311425 -0.00311425
0.00524088 -0.00389381 -0.00389381
0.00435513 -0.00449078 -0.00449078
0.00524564 -0.00647843 -0.00647843
0.00880571 -0.00708317 -0.00708317
0.00733582 -0.00509916 -0.00509916
0.00480153 -0.00544146 -0.00544146
0.00701835 -0.00674441 -0.00674441
0.00807195 -0.00604832 -0.00604832
0.00583601 -0.00475817 -0.00475817
0.00642848 -0.00570831 -0.00570831
0.00524564 -0.00647843 -0.00647843
0.00612776 -0.0088112 -0.0088112
0.0102659 -0.00941066 -0.00941066
0.00880571 -0.00708317 -0.00708317
0.00568771 -0.00760173 -0.00760173
0.00819068 -0.00907458 -0.00907458
0.00953696 -0.00820388 -0.00820388
0.00701835 -0.00674441 -0.00674441
0.00760569 -0.00786647 -0.00786647
0.00612776 -0.0088112 -0.0088112
0.00700198 -0.0114879 -0.0114879
0.0117175 -0.0120826 -0.0120826
0.0102659 -0.00941066 -0.00941066
0.0065658 -0.0101066 -0.0101066
0.00935421 -0.011749 -0.011749
0.0109927 -0.0107036 -0.0107036
0.00819068 -0.00907458 -0.00907458
0.00877348 -0.0103688 -0.0103688
0.00700198 -0.0114879 -0.0114879
0.00786937 -0.0145074 -0.0145074
0.0131606 -0.015098 -0.015098
0.0117175 -0.0120826 -0.0120826
0.00743648 -0.0129549 -0.0129549
0.0105098 -0.0147665 -0.0147665
0.0124401 -0.0135475 -0.0135475
0.00935421 -0.011749 -0.011749
0.00993295 -0.0132149 -0.0132149
0.00786937 -0.0145074 -0.0145074
0.00873056 -0.0178682 -0.0178682
0.0145956 -0.0184554 -0.0184554
0.0131606 -0.015098 -0.015098
0.00830071 -0.0161453 -0.0161453
0.011658 -0.0181256 -0.0181256
0.0138791 -0.0167341 -0.0167341
0.0105098 -0.0147665 -0.0147665
0.0110848 -0.0164034 -0.0164034
0.00873056 -0.0178682 -0.0178682
0.00958604 -0.0215686 -0.0215686
0.0160224 -0.0221529 -0.0221529
0.0145956 -0.0184554 -0.0184554
0.009159 -0.0196761 -0.0196761
0.0127992 -0.0218247 -0.0218247
0.01531 -0.0202617 -0.0202617
0.011658 -0.0181256 -0.0181256
0.0122295 -0.0199328 -0.0199328
0.00958604 -0.0215686 -0.0215686
0.0104361 -0.0256069 -0.0256069
0.0174409 -0.0261886 -0.0261886
0.0160224 -0.0221529 -0.0221529
0.0100117 -0.0235456 -0.0235456
0.0139335 -0.0258619 -0.0258619
0.0167327 -0.0241286 -0.0241286
0.0127992 -0.0218247 -0.0218247
0.0133672 -0.0238011 -0.0238011
0.0104361 -0.0256069 -0.0256069
0.0112807 -0.0299813 -0.0299813
0.0188513 -0.0305607 -0.0305607
0.0174409 -0.0261886 -0.0261886
0.0108591 -0.0277522 -0.0277522
0.0150611 -0.0302353 -0.0302353
0.0181472 -0.0283327 -0.0283327
0.0139335 -0.0258619 -0.0258619
0.0144981 -0.0280067 -0.0280067
0.0112807 -0.0299813 -0.0299813
0.0121202 -0.03469 -0.03469
0.0202534 -0.0352673 -0.0352673
0.0188513 -0.0305607 -0.0305607
0.0117011 -0.032294 -0.032294
0.0161818 -0.0349431 -0.0349431
0.0195534 -0.0328723 -0.0328723
0.0150611 -0.0302353 -0.0302353
0.0156223 -0.0325475 -0.0325475
0.0121202 -0.03469 -0.03469
0.0129543 -0.0397313 -0.0397313
0.0216472 -0.0403065 -0.0403065
0.0202534 -0.0352673 -0.0352673
0.0125379 -0.0371692 -0.0371692
0.0172958 -0.0399836 -0.0399836
0.0209514 -0.0377454 -0.0377454
0.0161818 -0.0349431 -0.0349431
0.0167397 -0.0374219 -0.0374219
0.0129543 -0.0397313 -0.0397313
0.0137832 -0.0451033 -0.0451033
0.0230327 -0.0456765 -0.0456765
0.0216472 -0.0403065 -0.0403065
0.0133694 -0.0423761 -0.0423761
0.018403 -0.0453547 -0.0453547
0.022341 -0.0429502 -0.0429502
0.0172958 -0.0399836 -0.0399836
0.0178503 -0.0426279 -0.0426279
0.0137832 -0.0451033 -0.0451033
0.0146067 -0.0508041 -0.0508041
0.0244098 -0.0513754 -0.0513754
0.0230327 -0.0456765 -0.0456765
0.0141956 -0.0479127 -0.0479127
0.0195033 -0.0510548 -0.0510548
0.0237223 -0.0484849 -0.0484849
0.018403 -0.0453547 -0.0453547
0.018954 -0.0481638 -0.0481638
0.0146067 -0.0508041 -0.0508041
0.0154249 -0.056832 -0.056832
0.0257785 -0.0574015 -0.0574015
0.0244098 -0.0513754 -0.0513754
0.0150165 -0.0537773 -0.0537773
0.0205968 -0.057082 -0.057082
0.0250952 -0.0543477 -0.0543477
0.0195033 -0.0510548 -0.0510548
0.0200509 -0.0540276 -0.0540276
0.0154249 -0.056832 -0.056832
0.0162377 -0.0631851 -0.0631851
0.0271388 -0.0637529 -0.0637529
0.0257785 -0.0574015 -0.0574015
0.015832 -0.059968 -0.059968
0.0216833 -0.0634345 -0.0634345
0.0264597 -0.0605366 -0.0605366
0.0205968 -0.057082 -0.057082
0.0211409 -0.0602177 -0.0602177
0.0162377 -0.0631851 -0.0631851
0.0170451 -0.0698617 -0.0698617
0.0284906 -0.0704277 -0.0704277
0.0271388 -0.0637529 -0.0637529
0.0166421 -0.0664831 -0.0664831
0.0227629 -0.0701104 -0.0701104
0.0278157 -0.06705 -0.06705
0.0216833 -0.0634345 -0.0634345
0.022224 -0.0667321 -0.0667321
0.0170451 -0.0698617 -0.0698617
0.017847 -0.0768599 -0.0768599
0.0298338 -0.0774243 -0.0774243
0.0284906 -0.0704277 -0.0704277
0.0174467 -0.0733207 -0.0733207
0.0238355 -0.0771079 -0.0771079
0.0291632 -0.0738859 -0.0738859
0.0227629 -0.0701104 -0.0701104
0.0233001 -0.0735691 -0.0735691
0.017847 -0.0768599 -0.0768599
0.0186435 -0.0841779 -0.0841779
0.0311685 -0.0847407 -0.0847407
0.0298338 -0.0774243 -0.0774243
0.0182459 -0.080479 -0.080479
0.024901 -0.0844253 -0.0844253
0.0305022 -0.0810426 -0.0810426
0.0238355 -0.0771079 -0.0771079
0.0243691 -0.0807267 -0.0807267
0.0186435 -0.0841779 -0.0841779
0.0194344 -0.0918138 -0.0918138
0.0324946 -0.0923751 -0.0923751
0.0311685 -0.0847407 -0.0847407
0.0190396 -0.0879562 -0.0879562
0.0259595 -0.0920607 -0.0920607
0.0318326 -0.0885183 -0.0885183
0.024901 -0.0844253 -0.0844253
0.0254312 -0.0882033 -0.0882033
0.0194344 -0.0918138 -0.0918138
0.0202197 -0.0997659 -0.0997659
0.033812 -0.100326 -0.100326
0.0324946 -0.0923751 -0.0923751
0.0198277 -0.0957504 -0.0957504
0.0270109 -0.100012 -0.100012
0.0331544 -0.096311 -0.096311
0.0259595 -0.0920607 -0.0920607
0.0264861 -0.095997 -0.095997
0.0202197 -0.0997659 -0.0997659
0.0209995 -0.108032 -0.108032
0.0351208 -0.108591 -0.108591
0.033812 -0.100326 -0.100326
0.0206103 -0.10386 -0.10386
0.0280552 -0.108278 -0.108278
0.0344675 -0.104419 -0.104419
0.0270109 -0.100012 -0.100012
0.027534 -0.104106 -0.104106
0.0209995 -0.108032 -0.108032
0.0217736 -0.116611 -0.116611
0.0364209 -0.117168 -0.117168
0.0351208 -0.108591 -0.108591
0.0213872 -0.112283 -0.112283
0.0290923 -0.116857 -0.116857
0.0357719 -0.112841 -0.112841
0.0280552 -0.108278 -0.108278
0.0285747 -0.112528 -0.112528
0.0217736 -0.116611 -0.116611
0.022542 -0.125501 -0.125501
0.0377123 -0.126057 -0.126057
0.0364209 -0.117168 -0.117168
0.0221585 -0.121017 -0.121017
0.0301222 -0.125746 -0.125746
0.0370677 -0.121574 -0.121574
0.0290923 -0.116857 -0.116857
0.0296082 -0.121262 -0.121262
0.022542 -0.125501 -0.125501
0.0233048 -0.134699 -0.134699
0.0389949 -0.135254 -0.135254
0.0377123 -0.126057 -0.126057
0.0229241 -0.130062 -0.130062
0.0311449 -0.134944 -0.134944
0.0383547 -0.130617 -0.130617
0.0301222 -0.125746 -0.125746
0.0306345 -0.130306 -0.130306
0.0233048 -0.134699 -0.134699
0.0240619 -0.144205 -0.144205
0.0402687 -0.144758 -0.144758
0.0389949 -0.135254 -0.135254
0.0236841 -0.139414 -0.139414
0.0321604 -0.144449 -0.144449
0.0396329 -0.139968 -0.139968
0.0311449 -0.134944 -0.134944
0.0316536 -0.139658 -0.139658
0.0240619 -0.144205 -0.144205
0.0248131 -0.154016 -0.154016
0.0415337 -0.154568 -0.154568
0.0402687 -0.144758 -0.144758
0.0244382 -0.149072 -0.149072
0.0331685 -0.154259 -0.154259
0.0409023 -0.149625 -0.149625
0.0321604 -0.144449 -0.144449
0.0326654 -0.149316 -0.149316
0.0248131 -0.154016 -0.154016
0.0255586 -0.16413 -0.16413
0.0427898 -0.164681 -0.164681
0.0415337 -0.154568 -0.154568
0.0251866 -0.159035 -0.159035
0.0341693 -0.164373 -0.164373
0.0421629 -0.159587 -0.159587
0.0331685 -0.154259 -0.154259
0.0336698 -0.159279 -0.159279
0.0255586 -0.16413 -0.16413
0.0262983 -0.174546 -0.174546
0.0440371 -0.175096 -0.175096
0.0427898 -0.164681 -0.164681
0.0259292 -0.1693 -0.1693
0.0351628 -0.174789 -0.174789
0.0434146 -0.169851 -0.169851
0.0341693 -0.164373 -0.164373
0.034667 -0.169543 -0.169543
0.0262983 -0.174546 -0.174546
0.0270322 -0.185261 -0.185261
0.0452755 -0.18581 -0.18581
0.0440371 -0.175096 -0.175096
0.026666 -0.179866 -0.179866
0.0361489 -0.185504 -0.185504
0.0446574 -0.180416 -0.180416
0.0351628 -0.174789 -0.174789
0.0356568 -0.180109 -0.180109
0.0270322 -0.185261 -0.185261
0.0277602 -0.196275 -0.196275
0.0465049 -0.196823 -0.196823
0.0452755 -0.18581 -0.18581
0.0273969 -0.190731 -0.190731
0.0371276 -0.196517 -0.196517
0.0458913 -0.19128 -0.19128
0.0361489 -0.185504 -0.185504
0.0366392 -0.190974 -0.190974
0.0277602 -0.196275 -0.196275
0.0284823 -0.207585 -0.207585
0.0477253 -0.208132 -0.208132
0.0465049 -0.196823 -0.196823
0.028122 -0.201893 -0.201893
0.0380989 -0.207827 -0.207827
0.0471162 -0.202441 -0.202441
0.0371276 -0.196517 -0.196517
0.0376142 -0.202135 -0.202135
0.0284823 -0.207585 -0.207585
0.0291984 -0.219189 -0.219189
0.0489368 -0.219735 -0.219735
0.0477253 -0.208132 -0.208132
0.0288411 -0.21335 -0.21335
0.0390627 -0.219431 -0.219431
0.0483322 -0.213897 -0.213897
0.0380989 -0.207827 -0.207827
0.0385818 -0.213592 -0.213592
0.0291984 -0.219189 -0.219189
0.0299087 -0.231085 -0.231085
0.0501393 -0.231631 -0.231631
0.0489368 -0.219735 -0.219735
0.0295543 -0.225101 -0.225101
0.0400191 -0.231327 -0.231327
0.0495392 -0.225647 -0.225647
0.0390627 -0.219431 -0.219431
0.0395419 -0.225342 -0.225342
0.0299087 -0.231085 -0.231085
0.0306129 -0.243273 -0.243273
0.0513327 -0.243817 -0.243817
0.0501393 -0.231631 -0.231631
0.0302615 -0.237143 -0.237143
0.0409679 -0.243514 -0.243514
0.0507371 -0.237688 -0.237688
0.0400191 -0.231327 -0.231327
0.0404945 -0.237384 -0.237384
0.0306129 -0.243273 -0.243273
0.0313112 -0.255749 -0.255749
0.0525171 -0.256293 -0.256293
0.0513327 -0.243817 -0.243817
0.0309628 -0.249475 -0.249475
0.0419092 -0.25599 -0.25599
0.051926 -0.250019 -0.250019
0.0409679 -0.243514 -0.243514
0.0414395 -0.249716 -0.249716
0.0313112 -0.255749 -0.255749
0.0320034 -0.268512 -0.268512
0.0536924 -0.269055 -0.269055
0.0525171 -0.256293 -0.256293
0.031658 -0.262095 -0.262095
0.042843 -0.268753 -0.268753
0.0531059 -0.262638 -0.262638
0.0419092 -0.25599 -0.25599
0.0423771 -0.262336 -0.262336
0.0320034 -0.268512 -0.268512
0.0326896 -0.28156 -0.28156
0.0548585 -0.282103 -0.282103
0.0536924 -0.269055 -0.269055
0.0323472 -0.275001 -0.275001
0.0437692 -0.281801 -0.281801
0.0542766 -0.275544 -0.275544
0.042843 -0.268753 -0.268753
0.043307 -0.275242 -0.275242
0.0326896 -0.28156 -0.28156
0.0333697 -0.294892 -0.294892
0.0560156 -0.295434 -0.295434
0.0548585 -0.282103 -0.282103
0.0330304 -0.288191 -0.288191
0.0446878 -0.295133 -0.295133
0.0554382 -0.288733 -0.288733
0.0437692 -0.281801 -0.281801
0.0442294 -0.288432 -0.288432
0.0333697 -0.294892 -0.294892
0.0340437 -0.308506 -0.308506
0.0571634 -0.309047 -0.309047
0.0560156 -0.295434 -0.295434
0.0337075 -0.301664 -0.301664
0.0455987 -0.308747 -0.308747
0.0565906 -0.302206 -0.302206
0.0446878 -0.295133 -0.295133
0.0451442 -0.301905 -0.301905
0.0340437 -0.308506 -0.308506
0.0347117 -0.322399 -0.322399
0.0583021 -0.32294 -0.32294
0.0571634 -0.309047 -0.309047
0.0343785 -0.315417 -0.315417
0.046502 -0.32264 -0.32264
0.0577339 -0.315959 -0.315959
0.0455987 -0.308747 -0.308747
0.0460513 -0.315658 -0.315658
0.0347117 -0.322399 -0.322399
0.0353735 -0.33657 -0.33657
0.0594316 -0.337111 -0.337111
0.0583021 -0.32294 -0.32294
0.0350433 -0.32945 -0.32945
0.0473977 -0.336811 -0.336811
0.058868 -0.329991 -0.329991
0.046502 -0.32264 -0.32264
0.0469508 -0.329691 -0.329691
0.0353735 -0.33657 -0.33657
0.0360291 -0.351018 -0.351018
0.0605519 -0.351557 -0.351557
0.0594316 -0.337111 -0.337111
0.0357021 -0.343759 -0.343759
0.0482857 -0.351258 -0.351258
0.0599929 -0.3443 -0.3443
0.0473977 -0.336811 -0.336811
0.0478426 -0.344 -0.344
0.0360291 -0.351018 -0.351018
0.0366786 -0.365739 -0.365739
0.061663 -0.366279 -0.366279
0.0605519 -0.351557 -0.351557
0.0363546 -0.358344 -0.358344
0.0491659 -0.36598 -0.36598
0.0611086 -0.358884 -0.358884
0.0482857 -0.351258 -0.351258
0.0487268 -0.358585 -0.358585
0.0366786 -0.365739 -0.365739
0.0373219 -0.380733 -0.380733
0.0627648 -0.381272 -0.381272
0.061663 -0.366279 -0.366279
0.037001 -0.373202 -0.373202
0.0500385 -0.380974 -0.380974
0.062215 -0.373742 -0.373742
0.0491659 -0.36598 -0.36598
0.0496032 -0.373443 -0.373443
0.0373219 -0.380733 -0.380733
0.037959 -0.395998 -0.395998
0.0638573 -0.396537 -0.396537
0.0627648 -0.381272 -0.381272
0.0376412 -0.388332 -0.388332
0.0509033 -0.396239 -0.396239
0.0633122 -0.388871 -0.388871
0.0500385 -0.380974 -0.380974
0.0504719 -0.388573 -0.388573
0.037959 -0.395998 -0.395998
0.0385898 -0.411532 -0.411532
0.0649405 -0.41207 -0.41207
0.0638573 -0.396537 -0.396537
0.0382752 -0.403732 -0.403732
0.0517603 -0.411773 -0.411773
0.0644001 -0.40427 -0.40427
0.0509033 -0.396239 -0.396239
0.0513328 -0.403972 -0.403972
0.0385898 -0.411532 -0.411532
0.0392144 -0.427333 -0.427333
0.0660145 -0.427871 -0.427871
0.0649405 -0.41207 -0.41207
0.0389029 -0.419399 -0.419399
0.0526096 -0.427574 -0.427574
0.0654787 -0.419937 -0.419937
0.0517603 -0.411773 -0.411773
0.0521859 -0.41964 -0.41964
0.0392144 -0.427333 -0.427333
0.0398328 -0.443399 -0.443399
0.0670791 -0.443937 -0.443937
0.0660145 -0.427871 -0.427871
0.0395244 -0.435333 -0.435333
0.0534511 -0.44364 -0.44364
0.0665479 -0.435871 -0.435871
0.0526096 -0.427574 -0.427574
0.0530313 -0.435574 -0.435574
0.0398328 -0.443399 -0.443399
0.0404449 -0.459728 -0.459728
0.0681343 -0.460266 -0.460266
0.0670791 -0.443937 -0.443937
0.0401396 -0.451531 -0.451531
0.0542848 -0.459969 -0.459969
0.0676079 -0.452068 -0.452068
0.0534511 -0.44364 -0.44364
0.0538689 -0.451772 -0.451772
0.0404449 -0.459728 -0.459728
0.0410507 -0.47632 -0.47632
0.0691802 -0.476857 -0.476857
0.0681343 -0.460266 -0.460266
0.0407486 -0.467991 -0.467991
0.0551106 -0.47656 -0.47656
0.0686585 -0.468529 -0.468529
0.0542848 -0.459969 -0.459969
0.0546987 -0.468232 -0.468232
0.0410507 -0.47632 -0.47632
0.0416502 -0.49317 -0.49317
0.0702168 -0.493707 -0.493707
0.0691802 -0.476857 -0.476857
0.0413512 -0.484713 -0.484713
0.0559286 -0.493411 -0.493411
0.0696997 -0.48525 -0.48525
0.0551106 -0.47656 -0.47656
0.0555206 -0.484953 -0.484953
0.0416502 -0.49317 -0.49317
0.0422433 -0.510279 -0.510279
0.0712439 -0.510816 -0.510816
0.0702168 -0.493707 -0.493707
0.0419475 -0.501693 -0.501693
0.0567388 -0.51052 -0.51052
0.0707315 -0.50223 -0.50223
0.0559286 -0.493411 -0.493411
0.0563347 -0.501934 -0.501934
0.0422433 -0.510279 -0.510279
0.0428302 -0.527644 -0.527644
0.0722617 -0.528181 -0.528181
0.0712439 -0.510816 -0.510816
0.0425375 -0.51893 -0.51893
0.0575411 -0.527885 -0.527885
0.071754 -0.519467 -0.519467
0.0567388 -0.51052 -0.51052
0.0571409 -0.519171 -0.519171
0.0428302 -0.527644 -0.527644
0.0434107 -0.545264 -0.545264
0.07327 -0.5458 -0.5458
0.0722617 -0.528181 -0.528181
0.0431212 -0.536422 -0.536422
0.0583355 -0.545505 -0.545505
0.072767 -0.536959 -0.536959
0.0575411 -0.527885 -0.527885
0.0579393 -0.536663 -0.536663
0.0434107 -0.545264 -0.545264
0.0439848 -0.563135 -0.563135
0.0742689 -0.563672 -0.563672
0.07327 -0.5458 -0.5458
0.0436985 -0.554168 -0.554168
0.059122 -0.563377 -0.563377
0.0737706 -0.554704 -0.554704
0.0583355 -0.545505 -0.545505
0.0587297 -0.554409 -0.554409
0.0439848 -0.563135 -0.563135
0.0445525 -0.581258 -0.581258
0.0752584 -0.581794 -0.581794
0.0742689 -0.563672 -0.563672
0.0442695 -0.572165 -0.572165
0.0599006 -0.581499 -0.581499
0.0747648 -0.572702 -0.572702
0.059122 -0.563377 -0.563377
0.0595123 -0.572407 -0.572407
0.0445525 -0.581258 -0.581258
0.0451139 -0.599629 -0.599629
0.0762384 -0.600165 -0.600165
0.0752584 -0.581794 -0.581794
0.044834 -0.590413 -0.590413
0.0606713 -0.599871 -0.599871
0.0757496 -0.590949 -0.590949
0.0599006 -0.581499 -0.581499
0.060287 -0.590654 -0.590654
0.0451139 -0.599629 -0.599629
0.0456689 -0.618248 -0.618248
0.077209 -0.618784 -0.618784
0.0762384 -0.600165 -0.600165
0.0453922 -0.608908 -0.608908
0.0614341 -0.61849 -0.61849
0.0767249 -0.609444 -0.609444
0.0606713 -0.599871 -0.599871
0.0610537 -0.609149 -0.609149
0.0456689 -0.618248 -0.618248
0.0462175 -0.637111 -0.637111
0.07817 -0.637647 -0.637647
0.077209 -0.618784 -0.618784
0.045944 -0.627649 -0.627649
0.0621889 -0.637353 -0.637353
0.0776907 -0.628185 -0.628185
0.0614341 -0.61849 -0.61849
0.0618125 -0.627891 -0.627891
0.0462175 -0.637111 -0.637111
0.0467596 -0.656219 -0.656219
0.0791216 -0.656755 -0.656755
0.07817 -0.637647 -0.637647
0.0464894 -0.646635 -0.646635
0.0629358 -0.656461 -0.656461
0.078647 -0.647171 -0.647171
0.0621889 -0.637353 -0.637353
0.0625634 -0.646877 -0.646877
0.0467596 -0.656219 -0.656219
0.0472954 -0.675567 -0.675567
0.0800638 -0.676103 -0.676103
0.0791216 -0.656755 -0.656755
0.0470283 -0.665863 -0.665863
0.0636747 -0.67581 -0.67581
0.0795939 -0.666399 -0.666399
0.0629358 -0.656461 -0.656461
0.0633063 -0.666105 -0.666105
0.0472954 -0.675567 -0.675567
0.0478247 -0.695156 -0.695156
0.0809964 -0.695692 -0.695692
0.0800638 -0.676103 -0.676103
0.0475608 -0.685332 -0.685332
0.0644057 -0.695398 -0.695398
0.0805313 -0.685868 -0.685868
0.0636747 -0.67581 -0.67581
0.0640412 -0.685574 -0.685574
0.0478247 -0.695156 -0.695156
0.0483475 -0.714982 -0.714982
0.0819195 -0.715518 -0.715518
0.0809964 -0.695692 -0.695692
0.0480869 -0.705039 -0.705039
0.0651287 -0.715225 -0.715225
0.0814591 -0.705575 -0.705575
0.0644057 -0.695398 -0.695398
0.0647682 -0.705282 -0.705282
0.0483475 -0.714982 -0.714982
0.048864 -0.735045 -0.735045
0.0828331 -0.735581 -0.735581
0.0819195 -0.715518 -0.715518
0.0486066 -0.724984 -0.724984
0.0658437 -0.735288 -0.735288
0.0823775 -0.72552 -0.72552
0.0651287 -0.715225 -0.715225
0.0654872 -0.725227 -0.725227
0.048864 -0.735045 -0.735045
0.0493739 -0.755342 -0.755342
0.0837371 -0.755878 -0.755878
0.0828331 -0.735581 -0.735581
0.0491197 -0.745164 -0.745164
0.0665507 -0.755585 -0.755585
0.0832863 -0.7457 -0.7457
0.0658437 -0.735288 -0.735288
0.0661982 -0.745407 -0.745407
0.0493739 -0.755342 -0.755342
0.0498774 -0.775871 -0.775871
0.0846317 -0.776407 -0.776407
0.0837371 -0.755878 -0.755878
0.0496265 -0.765578 -0.765578
0.0672497 -0.776115 -0.776115
0.0841856 -0.766114 -0.766114
0.0665507 -0.755585 -0.755585
0.0669012 -0.765821 -0.765821
0.0498774 -0.775871 -0.775871
0.0503744 -0.796631 -0.796631
0.0855167 -0.797168 -0.797168
0.0846317 -0.776407 -0.776407
0.0501267 -0.786223 -0.786223
0.0679407 -0.796875 -0.796875
0.0850754 -0.786759 -0.786759
0.0672497 -0.776115 -0.776115
0.0675962 -0.786466 -0.786466
0.0503744 -0.796631 -0.796631
0.050865 -0.817621 -0.817621
0.0863921 -0.818157 -0.818157
0.0855167 -0.797168 -0.797168
0.0506205 -0.807098 -0.807098
0.0686237 -0.817864 -0.817864
0.0859556 -0.807634 -0.807634
0.0679407 -0.796875 -0.796875
0.0682832 -0.807341 -0.807341
0.050865 -0.817621 -0.817621
0.051349 -0.838837 -0.838837
0.087258 -0.839373 -0.839373
0.0863921 -0.818157 -0.818157
0.0511078 -0.8282 -0.8282
0.0692987 -0.839081 -0.839081
0.0868263 -0.828737 -0.828737
0.0686237 -0.817864 -0.817864
0.0689622 -0.828444 -0.828444
0.051349 -0.838837 -0.838837
0.0518266 -0.860278 -0.860278
0.0881144 -0.860814 -0.860814
0.087258 -0.839373 -0.839373
0.0515886 -0.849529 -0.849529
0.0699657 -0.860522 -0.860522
0.0876874 -0.850066 -0.850066
0.0692987 -0.839081 -0.839081
0.0696332 -0.849773 -0.849773
0.0518266 -0.860278 -0.860278
0.0522977 -0.881943 -0.881943
0.0889612 -0.882479 -0.882479
0.0881144 -0.860814 -0.860814
0.052063 -0.871083 -0.871083
0.0706246 -0.882187 -0.882187
0.088539 -0.871619 -0.871619
0.0699657 -0.860522 -0.860522
0.0702961 -0.871327 -0.871327
0.0522977 -0.881943 -0.881943
0.0527623 -0.903829 -0.903829
0.0897984 -0.904366 -0.904366
0.0889612 -0.882479 -0.882479
0.0525308 -0.892858 -0.892858
0.0712755 -0.904074 -0.904074
0.089381 -0.893395 -0.893395
0.0706246 -0.882187 -0.882187
0.0709511 -0.893103 -0.893103
0.0527623 -0.903829 -0.903829
0.0532204 -0.925935 -0.925935
0.0906261 -0.926472 -0.926472
0.0897984 -0.904366 -0.904366
0.0529921 -0.914855 -0.914855
0.0719184 -0.92618 -0.92618
0.0902134 -0.915391 -0.915391
0.0712755 -0.904074 -0.904074
0.071598 -0.9151 -0.9151
0.0532204 -0.925935 -0.925935
0.0536719 -0.94826 -0.94826
0.0914442 -0.948796 -0.948796
0.0906261 -0.926472 -0.926472
0.053447 -0.93707 -0.93707
0.0725532 -0.948505 -0.948505
0.0910363 -0.937607 -0.937607
0.0719184 -0.92618 -0.92618
0.0722368 -0.937315 -0.937315
0.0536719 -0.94826 -0.94826
0.054117 -0.9708 -0.9708
0.0922527 -0.971337 -0.971337
0.0914442 -0.948796 -0.948796
0.0538953 -0.959503 -0.959503
0.07318 -0.971045 -0.971045
0.0918496 -0.960039 -0.960039
0.0725532 -0.948505 -0.948505
0.0728676 -0.959748 -0.959748
0.054117 -0.9708 -0.9708
0.0545556 -0.993554 -0.993554
0.0930516 -0.994091 -0.994091
0.0922527 -0.971337 -0.971337
0.0543371 -0.98215 -0.98215
0.0737988 -0.9938 -0.9938
0.0926534 -0.982687 -0.982687
0.07318 -0.971045 -0.971045
0.0734904 -0.982396 -0.982396
0.0545556 -0.993554 -0.993554
0.0549877 -1.01652 -1.01652
0.093841 -1.01706 -1.01706
0.0930516 -0.994091 -0.994091
0.0547724 -1.00501 -1.00501
0.0744095 -1.01677 -1.01677
0.0934475 -1.00555 -1.00555
0.0737988 -0.9938 -0.9938
0.0741052 -1.00526 -1.00526
0.0549877 -1.01652 -1.01652
0.0554132 -1.0397 -1.0397
0.0946208 -1.04024 -1.04024
0.093841 -1.01706 -1.01706
0.0552012 -1.02808 -1.02808
0.0750122 -1.03995 -1.03995
0.0942321 -1.02862 -1.02862
0.0744095 -1.01677 -1.01677
0.0747119 -1.02833 -1.02833
0.0554132 -1.0397 -1.0397
0.0558323 -1.06309 -1.06309
0.095391 -1.06362 -1.06362
0.0946208 -1.04024 -1.04024
0.0556235 -1.05137 -1.05137
0.0756068 -1.06333 -1.06333
0.0950071 -1.0519 -1.0519
0.0750122 -1.03995 -1.03995
0.0753105 -1.05161 -1.05161
0.0558323 -1.06309 -1.06309
0.0562448 -1.08668 -1.08668
0.0961517 -1.08722 -1.08722
0.095391 -1.06362 -1.06362
0.0560393 -1.07486 -1.07486
0.0761934 -1.08693 -1.08693
0.0957726 -1.07539 -1.07539
0.0756068 -1.06333 -1.06333
0.0759011 -1.0751 -1.0751
0.0562448 -1.08668 -1.08668
0.0566508 -1.11048 -1.11048
0.0969027 -1.11102 -1.11102
0.0961517 -1.08722 -1.08722
0.0564486 -1.09855 -1.09855
0.0767719 -1.11073 -1.11073
0.0965284 -1.09909 -1.09909
0.0761934 -1.08693 -1.08693
0.0764837 -1.0988 -1.0988
0.0566508 -1.11048 -1.11048
0.0570503 -1.13448 -1.13448
0.0976442 -1.13502 -1.13502
0.0969027 -1.11102 -1.11102
0.0568514 -1.12246 -1.12246
0.0773424 -1.13473 -1.13473
0.0972747 -1.12299 -1.12299
0.0767719 -1.11073 -1.11073
0.0770582 -1.1227 -1.1227
0.0570503 -1.13448 -1.13448
0.0574433 -1.15869 -1.15869
0.0983761 -1.15922 -1.15922
0.0976442 -1.13502 -1.13502
0.0572476 -1.14656 -1.14656
0.0779049 -1.15893 -1.15893
0.0980114 -1.1471 -1.1471
0.0773424 -1.13473 -1.13473
0.0776247 -1.14681 -1.14681
0.0574433 -1.15869 -1.15869
0.0578298 -1.18309 -1.18309
0.0990985 -1.18363 -1.18363
0.0983761 -1.15922 -1.15922
0.0576374 -1.17086 -1.17086
0.0784593 -1.18334 -1.18334
0.0987385 -1.1714 -1.1714
0.0779049 -1.15893 -1.15893
0.0781831 -1.17111 -1.17111
0.0578298 -1.18309 -1.18309
0.0582098 -1.20769 -1.20769
0.0998112 -1.20823 -1.20823
0.0990985 -1.18363 -1.18363
0.0580206 -1.19537 -1.19537
0.0790057 -1.20794 -1.20794
0.099456 -1.1959 -1.1959
0.0784593 -1.18334 -1.18334
0.0787335 -1.19561 -1.19561
0.0582098 -1.20769 -1.20769
0.0585833 -1.23249 -1.23249
0.100514 -1.23303 -1.23303
0.0998112 -1.20823 -1.20823
0.0583973 -1.22007 -1.22007
0.079544 -1.23274 -1.23274
0.100164 -1.2206 -1.2206
0.0790057 -1.20794 -1.20794
0.0792759 -1.22031 -1.22031
0.0585833 -1.23249 -1.23249
0.0589502 -1.25748 -1.25748
0.101208 -1.25802 -1.25802
0.100514 -1.23303 -1.23303
0.0587676 -1.24496 -1.24496
0.0800743 -1.25773 -1.25773
0.100862 -1.2455 -1.2455
0.079544 -1.23274 -1.23274
0.0798102 -1.24521 -1.24521
0.0589502 -1.25748 -1.25748
0.0593107 -1.28267 -1.28267
0.101892 -1.2832 -1.2832
0.101208 -1.25802 -1.25802
0.0591313 -1.27005 -1.27005
0.0805966 -1.28292 -1.28292
0.101551 -1.27059 -1.27059
0.0800743 -1.25773 -1.25773
0.0803365 -1.2703 -1.2703
0.0593107 -1.28267 -1.28267
0.0596647 -1.30804 -1.30804
0.102567 -1.30858 -1.30858
0.101892 -1.2832 -1.2832
0.0594885 -1.29533 -1.29533
0.0811108 -1.30829 -1.30829
0.102231 -1.29587 -1.29587
0.0805966 -1.28292 -1.28292
0.0808547 -1.29558 -1.29558
0.0596647 -1.30804 -1.30804
0.0600122 -1.33361 -1.33361
0.103232 -1.33415 -1.33415
0.102567 -1.30858 -1.30858
0.0598393 -1.3208 -1.3208
0.081617 -1.33386 -1.33386
0.1029 -1.32134 -1.32134
0.0811108 -1.30829 -1.30829
0.0813649 -1.32105 -1.32105
0.0600122 -1.33361 -1.33361
0.0603532 -1.35936 -1.35936
0.103887 -1.3599 -1.3599
0.103232 -1.33415 -1.33415
0.0601835 -1.34646 -1.34646
0.0821152 -1.35961 -1.35961
0.10356 -1.347 -1.347
0.081617 -1.33386 -1.33386
0.0818671 -1.34671 -1.34671
0.0603532 -1.35936 -1.35936
0.0606877 -1.3853 -1.3853
0.104533 -1.38583 -1.38583
0.103887 -1.3599 -1.3599
0.0605213 -1.3723 -1.3723
0.0826054 -1.38554 -1.38554
0.104211 -1.37284 -1.37284
0.0821152 -1.35961 -1.35961
0.0823613 -1.37255 -1.37255
0.0606877 -1.3853 -1.3853
0.0610158 -1.41142 -1.41142
0.105169 -1.41195 -1.41195
0.104533 -1.38583 -1.38583
0.0608526 -1.39833 -1.39833
0.0830876 -1.41167 -1.41167
0.104852 -1.39887 -1.39887
0.0826054 -1.38554 -1.38554
0.0828475 -1.39858 -1.39858
0.0610158 -1.41142 -1.41142
0.0613374 -1.43772 -1.43772
0.105796 -1.43826 -1.43826
0.105169 -1.41195 -1.41195
0.0611774 -1.42454 -1.42454
0.0835617 -1.43797 -1.43797
0.105484 -1.42508 -1.42508
0.0830876 -1.41167 -1.41167
0.0833257 -1.42479 -1.42479
0.0613374 -1.43772 -1.43772
0.0616525 -1.4642 -1.4642
0.106413 -1.46474 -1.46474
0.105796 -1.43826 -1.43826
0.0614957 -1.45094 -1.45094
0.0840279 -1.46445 -1.46445
0.106106 -1.45147 -1.45147
0.0835617 -1.43797 -1.43797
0.0837958 -1.45119 -1.45119
0.0616525 -1.4642 -1.4642
0.0619611 -1.49086 -1.49086
0.107021 -1.4914 -1.4914
0.106413 -1.46474 -1.46474
0.0618076 -1.47751 -1.47751
0.0844861 -1.49111 -1.49111
0.106718 -1.47805 -1.47805
0.0840279 -1.46445 -1.46445
0.084258 -1.47776 -1.47776
0.0619611 -1.49086 -1.49086
0.0622633 -1.51769 -1.51769
0.107619 -1.51823 -1.51823
0.107021 -1.4914 -1.4914
0.062113 -1.50425 -1.50425
0.0849363 -1.51795 -1.51795
0.107321 -1.50479 -1.50479
0.0844861 -1.49111 -1.49111
0.0847122 -1.50451 -1.50451
0.0622633 -1.51769 -1.51769
0.0625591 -1.5447 -1.5447
0.108208 -1.54524 -1.54524
0.107619 -1.51823 -1.51823
0.062412 -1.53118 -1.53118
0.0853785 -1.54496 -1.54496
0.107914 -1.53172 -1.53172
0.0849363 -1.51795 -1.51795
0.0851584 -1.53143 -1.53143
0.0625591 -1.5447 -1.5447
0.0628484 -1.57189 -1.57189
0.108787 -1.57243 -1.57243
0.108208 -1.54524 -1.54524
0.0627045 -1.55827 -1.55827
0.0858127 -1.57214 -1.57214
0.108498 -1.55881 -1.55881
0.0853785 -1.54496 -1.54496
0.0855966 -1.55853 -1.55853
0.0628484 -1.57189 -1.57189
0.0631313 -1.59924 -1.59924
0.109356 -1.59978 -1.59978
0.108787 -1.57243 -1.57243
0.0629906 -1.58554 -1.58554
0.086239 -1.59949 -1.59949
0.109073 -1.58608 -1.58608
0.0858127 -1.57214 -1.57214
0.0860269 -1.58579 -1.58579
0.0631313 -1.59924 -1.59924
0.0634077 -1.62676 -1.62676
0.109917 -1.6273 -1.6273
0.109356 -1.59978 -1.59978
0.0632703 -1.61298 -1.61298
0.0866573 -1.62701 -1.62701
0.109638 -1.61352 -1.61352
0.086239 -1.59949 -1.59949
0.0864491 -1.61323 -1.61323
0.0634077 -1.62676 -1.62676
0.0636778 -1.65445 -1.65445
0.110467 -1.65499 -1.65499
0.109917 -1.6273 -1.6273
0.0635436 -1.64059 -1.64059
0.0870677 -1.6547 -1.6547
0.110193 -1.64113 -1.64113
0.0866573 -1.62701 -1.62701
0.0868635 -1.64084 -1.64084
0.0636778 -1.65445 -1.65445
0.0639414 -1.68231 -1.68231
0.111008 -1.68285 -1.68285
0.110467 -1.65499 -1.65499
0.0638104 -1.66836 -1.66836
0.0874701 -1.68256 -1.68256
0.110739 -1.6689 -1.6689
0.0870677 -1.6547 -1.6547
0.0872699 -1.66861 -1.66861
0.0639414 -1.68231 -1.68231
0.0641987 -1.71033 -1.71033
0.11154 -1.71086 -1.71086
0.111008 -1.68285 -1.68285
0.0640709 -1.6963 -1.6963
0.0878646 -1.71058 -1.71058
0.111276 -1.69683 -1.69683
0.0874701 -1.68256 -1.68256
0.0876684 -1.69655 -1.69655
0.0641987 -1.71033 -1.71033
0.0644495 -1.7385 -1.7385
0.112063 -1.73904 -1.73904
0.11154 -1.71086 -1.71086
0.0643249 -1.72439 -1.72439
0.0882512 -1.73876 -1.73876
0.111803 -1.72493 -1.72493
0.0878646 -1.71058 -1.71058
0.0880589 -1.72465 -1.72465
0.0644495 -1.7385 -1.7385
0.064694 -1.76684 -1.76684
0.112575 -1.76738 -1.76738
0.112063 -1.73904 -1.73904
0.0645726 -1.75265 -1.75265
0.0886299 -1.7671 -1.7671
0.11232 -1.75319 -1.75319
0.0882512 -1.73876 -1.73876
0.0884415 -1.75291 -1.75291
0.064694 -1.76684 -1.76684
0.0649322 -1.79534 -1.79534
0.113079 -1.79588 -1.79588
0.112575 -1.76738 -1.76738
0.0648139 -1.78107 -1.78107
0.0890007 -1.79559 -1.79559
0.112828 -1.78161 -1.78161
0.0886299 -1.7671 -1.7671
0.0888163 -1.78133 -1.78133
0.0649322 -1.79534 -1.79534
0.0651639 -1.824 -1.824
0.113573 -1.82453 -1.82453
0.113079 -1.79588 -1.79588
0.0650488 -1.80965 -1.80965
0.0893636 -1.82425 -1.82425
0.113327 -1.81019 -1.81019
0.0890007 -1.79559 -1.79559
0.0891831 -1.8099 -1.8099
0.0651639 -1.824 -1.824
0.0653893 -1.8528 -1.8528
0.114057 -1.85334 -1.85334
0.113573 -1.82453 -1.82453
0.0652774 -1.83838 -1.83838
0.0897186 -1.85306 -1.85306
0.113816 -1.83892 -1.83892
0.0893636 -1.82425 -1.82425
0.089542 -1.83863 -1.83863
0.0653893 -1.8528 -1.8528
0.0656084 -1.88176 -1.88176
0.114533 -1.8823 -1.8823
0.114057 -1.85334 -1.85334
0.0654997 -1.86727 -1.86727
0.0900657 -1.88202 -1.88202
0.114296 -1.8678 -1.8678
0.0897186 -1.85306 -1.85306
0.0898931 -1.86752 -1.86752
0.0656084 -1.88176 -1.88176
0.0658212 -1.91088 -1.91088
0.114998 -1.91141 -1.91141
0.114533 -1.8823 -1.8823
0.0657156 -1.8963 -1.8963
0.090405 -1.91113 -1.91113
0.114767 -1.89684 -1.89684
0.0900657 -1.88202 -1.88202
0.0902363 -1.89655 -1.89655
0.0658212 -1.91088 -1.91088
0.0660277 -1.94014 -1.94014
0.115455 -1.94067 -1.94067
0.114998 -1.91141 -1.91141
0.0659252 -1.92549 -1.92549
0.0907365 -1.94039 -1.94039
0.115228 -1.92602 -1.92602
0.090405 -1.91113 -1.91113
0.0905717 -1.92574 -1.92574
0.0660277 -1.94014 -1.94014
0.0662278 -1.96954 -1.96954
0.115902 -1.97008 -1.97008
0.115455 -1.94067 -1.94067
0.0661285 -1.95482 -1.95482
0.0910601 -1.9698 -1.9698
0.11568 -1.95536 -1.95536
0.0907365 -1.94039 -1.94039
0.0908992 -1.95507 -1.95507
0.0662278 -1.96954 -1.96954
0.0664217 -1.9991 -1.9991
0.11634 -1.99963 -1.99963
0.115902 -1.97008 -1.97008
0.0663256 -1.9843 -1.9843
0.0913759 -1.99935 -1.99935
0.116122 -1.98484 -1.98484
0.0910601 -1.9698 -1.9698
0.0912189 -1.98455 -1.98455
0.0664217 -1.9991 -1.9991
0.0666093 -2.02879 -2.02879
0.116768 -2.02933 -2.02933
0.11634 -1.99963 -1.99963
0.0665163 -2.01393 -2.01393
0.0916839 -2.02904 -2.02904
0.116555 -2.01446 -2.01446
0.0913759 -1.99935 -1.99935
0.0915308 -2.01418 -2.01418
0.0666093 -2.02879 -2.02879
0.0667907 -2.05863 -2.05863
0.117187 -2.05917 -2.05917
0.116768 -2.02933 -2.02933
0.0667008 -2.04369 -2.04369
0.0919841 -2.05888 -2.05888
0.116979 -2.04423 -2.04423
0.0916839 -2.02904 -2.02904
0.0918349 -2.04395 -2.04395
0.0667907 -2.05863 -2.05863
0.0669658 -2.08861 -2.08861
0.117597 -2.08914 -2.08914
0.117187 -2.05917 -2.05917
0.066879 -2.0736 -2.0736
0.0922765 -2.08886 -2.08886
0.117393 -2.07414 -2.07414
0.0919841 -2.05888 -2.05888
0.0921313 -2.07385 -2.07385
0.0669658 -2.08861 -2.08861
0.0671347 -2.11872 -2.11872
0.117997 -2.11926 -2.11926
0.117597 -2.08914 -2.08914
0.067051 -2.10365 -2.10365
0.0925612 -2.11898 -2.11898
0.117798 -2.10418 -2.10418
0.0922765 -2.08886 -2.08886
0.0924198 -2.1039 -2.1039
0.0671347 -2.11872 -2.11872
0.0672973 -2.14897 -2.14897
0.118389 -2.14951 -2.14951
0.117997 -2.11926 -2.11926
0.0672168 -2.13383 -2.13383
0.0928381 -2.14923 -2.14923
0.118194 -2.13437 -2.13437
0.0925612 -2.11898 -2.11898
0.0927006 -2.13408 -2.13408
0.0672973 -2.14897 -2.14897
0.0674538 -2.17936 -2.17936
0.11877 -2.17989 -2.17989
0.118389 -2.14951 -2.14951
0.0673763 -2.16415 -2.16415
0.0931073 -2.17961 -2.17961
0.118581 -2.16469 -2.16469
0.0928381 -2.14923 -2.14923
0.0929736 -2.1644 -2.1644
0.0674538 -2.17936 -2.17936
0.067604 -2.20988 -2.20988
0.119143 -2.21041 -2.21041
0.11877 -2.17989 -2.17989
0.0675297 -2.1946 -2.1946
0.0933687 -2.21013 -2.21013
0.118958 -2.19514 -2.19514
0.0931073 -2.17961 -2.17961
0.093239 -2.19486 -2.19486
0.067604 -2.20988 -2.20988
0.0677481 -2.24053 -2.24053
0.119507 -2.24106 -2.24106
0.119143 -2.21041 -2.21041
0.0676769 -2.22519 -2.22519
0.0936225 -2.24078 -2.24078
0.119326 -2.22572 -2.22572
0.0933687 -2.21013 -2.21013
0.0934966 -2.22544 -2.22544
0.0677481 -2.24053 -2.24053
0.0678861 -2.27131 -2.27131
0.119861 -2.27184 -2.27184
0.119507 -2.24106 -2.24106
0.0678179 -2.2559 -2.2559
0.0938685 -2.27156 -2.27156
0.119685 -2.25643 -2.25643
0.0936225 -2.24078 -2.24078
0.0937465 -2.25615 -2.25615
0.0678861 -2.27131 -2.27131
0.0680179 -2.30221 -2.30221
0.120206 -2.30274 -2.30274
0.119861 -2.27184 -2.27184
0.0679528 -2.28674 -2.28674
0.0941069 -2.30246 -2.30246
0.120034 -2.28728 -2.28728
0.0938685 -2.27156 -2.27156
0.0939887 -2.287 -2.287
0.0680179 -2.30221 -2.30221
0.0681436 -2.33324 -2.33324
0.120541 -2.33377 -2.33377
0.120206 -2.30274 -2.30274
0.0680815 -2.31771 -2.31771
0.0943376 -2.3335 -2.3335
0.120375 -2.31824 -2.31824
0.0941069 -2.30246 -2.30246
0.0942232 -2.31796 -2.31796
0.0681436 -2.33324 -2.33324
0.0682631 -2.3644 -2.3644
0.120868 -2.36493 -2.36493
0.120541 -2.33377 -2.33377
0.0682041 -2.3488 -2.3488
0.0945607 -2.36465 -2.36465
0.120706 -2.34934 -2.34934
0.0943376 -2.3335 -2.3335
0.0944501 -2.34906 -2.34906
0.0682631 -2.3644 -2.3644
0.0683766 -2.39567 -2.39567
0.121186 -2.3962 -2.3962
0.120868 -2.36493 -2.36493
0.0683206 -2.38002 -2.38002
0.0947762 -2.39592 -2.39592
0.121028 -2.38055 -2.38055
0.0945607 -2.36465 -2.36465
0.0946694 -2.38027 -2.38027
0.0683766 -2.39567 -2.39567
0.068484 -2.42707 -2.42707
0.121494 -2.4276 -2.4276
0.121186 -2.3962 -2.3962
0.068431 -2.41136 -2.41136
0.094984 -2.42732 -2.42732
0.121341 -2.41189 -2.41189
0.0947762 -2.39592 -2.39592
0.094881 -2.41161 -2.41161
0.068484 -2.42707 -2.42707
0.0685853 -2.45858 -2.45858
0.121793 -2.45911 -2.45911
0.121494 -2.4276 -2.4276
0.0685354 -2.44281 -2.44281
0.0951843 -2.45883 -2.45883
0.121645 -2.44334 -2.44334
0.094984 -2.42732 -2.42732
0.0950851 -2.44306 -2.44306
0.0685853 -2.45858 -2.45858
0.0686806 -2.49021 -2.49021
0.122083 -2.49074 -2.49074
0.121793 -2.45911 -2.45911
0.0686337 -2.47438 -2.47438
0.0953769 -2.49046 -2.49046
0.121939 -2.47491 -2.47491
0.0951843 -2.45883 -2.45883
0.0952816 -2.47463 -2.47463
0.0686806 -2.49021 -2.49021
0.0687699 -2.52196 -2.52196
0.122364 -2.52248 -2.52248
0.122083 -2.49074 -2.49074
0.068726 -2.50607 -2.50607
0.0955621 -2.52221 -2.52221
0.122225 -2.5066 -2.5066
0.0953769 -2.49046 -2.49046
0.0954704 -2.50632 -2.50632
0.0687699 -2.52196 -2.52196
0.0688531 -2.55381 -2.55381
0.122636 -2.55434 -2.55434
0.122364 -2.52248 -2.52248
0.0688122 -2.53787 -2.53787
0.0957396 -2.55406 -2.55406
0.122501 -2.5384 -2.5384
0.0955621 -2.52221 -2.52221
0.0956518 -2.53812 -2.53812
0.0688531 -2.55381 -2.55381
0.0689304 -2.58578 -2.58578
0.122899 -2.58631 -2.58631
0.122636 -2.55434 -2.55434
0.0688925 -2.56978 -2.56978
0.0959097 -2.58603 -2.58603
0.122768 -2.57031 -2.57031
0.0957396 -2.55406 -2.55406
0.0958256 -2.57003 -2.57003
0.0689304 -2.58578 -2.58578
0.0690017 -2.61786 -2.61786
0.123153 -2.61838 -2.61838
0.122899 -2.58631 -2.58631
0.0689668 -2.6018 -2.6018
0.0960722 -2.61811 -2.61811
0.123027 -2.60233 -2.60233
0.0959097 -2.58603 -2.58603
0.0959919 -2.60206 -2.60206
0.0690017 -2.61786 -2.61786
0.069067 -2.65004 -2.65004
0.123397 -2.65056 -2.65056
0.123153 -2.61838 -2.61838
0.0690351 -2.63393 -2.63393
0.0962273 -2.65029 -2.65029
0.123276 -2.63446 -2.63446
0.0960722 -2.61811 -2.61811
0.0961507 -2.63419 -2.63419
0.069067 -2.65004 -2.65004
0.0691264 -2.68233 -2.68233
0.123633 -2.68285 -2.68285
0.123397 -2.65056 -2.65056
0.0690974 -2.66617 -2.66617
0.0963749 -2.68258 -2.68258
0.123516 -2.6667 -2.6667
0.0962273 -2.65029 -2.65029
0.096302 -2.66642 -2.66642
0.0691264 -2.68233 -2.68233
0.0691799 -2.71472 -2.71472
0.12386 -2.71524 -2.71524
0.123633 -2.68285 -2.68285
0.0691539 -2.69851 -2.69851
0.096515 -2.71497 -2.71497
0.123748 -2.69904 -2.69904
0.0963749 -2.68258 -2.68258
0.0964459 -2.69876 -2.69876
0.0691799 -2.71472 -2.71472
0.0692275 -2.74721 -2.74721
0.124078 -2.74774 -2.74774
0.12386 -2.71524 -2.71524
0.0692044 -2.73096 -2.73096
0.0966477 -2.74747 -2.74747
0.12397 -2.73148 -2.73148
0.096515 -2.71497 -2.71497
0.0965823 -2.73121 -2.73121
0.0692275 -2.74721 -2.74721
0.0692692 -2.77981 -2.77981
0.124287 -2.78033 -2.78033
0.124078 -2.74774 -2.74774
0.0692491 -2.7635 -2.7635
0.096773 -2.78006 -2.78006
0.124183 -2.76402 -2.76402
0.0966477 -2.74747 -2.74747
0.0967113 -2.76375 -2.76375
0.0692692 -2.77981 -2.77981
0.069305 -2.8125 -2.8125
0.124487 -2.81302 -2.81302
0.124287 -2.78033 -2.78033
0.0692878 -2.79614 -2.79614
0.0968909 -2.81275 -2.81275
0.124388 -2.79666 -2.79666
0.096773 -2.78006 -2.78006
0.0968329 -2.79639 -2.79639
0.069305 -2.8125 -2.8125
0.069335 -2.84529 -2.84529
0.124678 -2.84581 -2.84581
0.124487 -2.81302 -2.81302
0.0693208 -2.82888 -2.82888
0.0970014 -2.84554 -2.84554
0.124583 -2.8294 -2.8294
0.0968909 -2.81275 -2.81275
0.0969471 -2.82913 -2.82913
0.069335 -2.84529 -2.84529
0.0693592 -2.87817 -2.87817
0.12486 -2.87869 -2.87869
0.124678 -2.84581 -2.84581
0.0693479 -2.86172 -2.86172
0.0971046 -2.87842 -2.87842
0.12477 -2.86224 -2.86224
0.0970014 -2.84554 -2.84554
0.097054 -2.86197 -2.86197
0.0693592 -2.87817 -2.87817
0.0693776 -2.91115 -2.91115
0.125033 -2.91166 -2.91166
0.12486 -2.87869 -2.87869
0.0693691 -2.89465 -2.89465
0.0972005 -2.91139 -2.91139
0.124948 -2.89516 -2.89516
0.0971046 -2.87842 -2.87842
0.0971535 -2.8949 -2.8949
0.0693776 -2.91115 -2.91115
0.0693902 -2.94421 -2.94421
0.125198 -2.94473 -2.94473
0.125033 -2.91166 -2.91166
0.0693846 -2.92767 -2.92767
0.097289 -2.94446 -2.94446
0.125116 -2.92818 -2.92818
0.0972005 -2.91139 -2.91139
0.0972457 -2.92792 -2.92792
0.0693902 -2.94421 -2.94421
0.0693971 -2.97737 -2.97737
0.125353 -2.97788 -2.97788
0.125198 -2.94473 -2.94473
0.0693944 -2.96078 -2.96078
0.0973702 -2.97761 -2.97761
0.125277 -2.96129 -2.96129
0.097289 -2.94446 -2.94446
0.0973305 -2.96103 -2.96103
0.0693971 -2.97737 -2.97737
0.0693982 -3.01061 -3.01061
0.1255 -3.01112 -3.01112
0.125353 -2.97788 -2.97788
0.0693983 -2.99398 -2.99398
0.0974442 -3.01086 -3.01086
0.125428 -2.99449 -2.99449
0.0973702 -2.97761 -2.97761
0.0974081 -2.99422 -2.99422
0.0693982 -3.01061 -3.01061
0.0693936 -3.04394 -3.04394
0.125638 -3.04445 -3.04445
0.1255 -3.01112 -3.01112
0.0693966 -3.02726 -3.02726
0.0975109 -3.04418 -3.04418
0.12557 -3.02777 -3.02777
0.0974442 -3.01086 -3.01086
0.0974785 -3.02751 -3.02751
0.0693936 -3.04394 -3.04394
0.0693833 -3.07735 -3.07735
0.125767 -3.07786 -3.07786
0.125638 -3.04445 -3.04445
0.0693891 -3.06063 -3.06063
0.0975704 -3.07759 -3.07759
0.125704 -3.06114 -3.06114
0.0975109 -3.04418 -3.04418
0.0975416 -3.06088 -3.06088
0.0693833 -3.07735 -3.07735
0.0693673 -3.11084 -3.11084
0.125888 -3.11135 -3.11135
0.125767 -3.07786 -3.07786
0.069376 -3.09408 -3.09408
0.0976227 -3.11109 -3.11109
0.125829 -3.09459 -3.09459
0.0975704 -3.07759 -3.07759
0.0975975 -3.09433 -3.09433
0.0693673 -3.11084 -3.11084
0.0693457 -3.14441 -3.14441
0.126 -3.14492 -3.14492
0.125888 -3.11135 -3.11135
0.0693572 -3.12762 -3.12762
0.0976678 -3.14466 -3.14466
0.125945 -3.12812 -3.12812
0.0976227 -3.11109 -3.11109
0.0976461 -3.12786 -3.12786
0.0693457 -3.14441 -3.14441
0.0693184 -3.17806 -3.17806
0.126103 -3.17857 -3.17857
0.126 -3.14492 -3.14492
0.0693328 -3.16123 -3.16123
0.0977057 -3.17831 -3.17831
0.126052 -3.16173 -3.16173
0.0976678 -3.14466 -3.14466
0.0976876 -3.16147 -3.16147
0.0693184 -3.17806 -3.17806
0.0692855 -3.21179 -3.21179
0.126197 -3.21229 -3.21229
0.126103 -3.17857 -3.17857
0.0693027 -3.19492 -3.19492
0.0977365 -3.21203 -3.21203
0.126151 -3.19542 -3.19542
0.0977057 -3.17831 -3.17831
0.097722 -3.19516 -3.19516
0.0692855 -3.21179 -3.21179
0.0692471 -3.24559 -3.24559
0.126283 -3.24609 -3.24609
0.126197 -3.21229 -3.21229
0.069267 -3.22868 -3.22868
0.0977602 -3.24583 -3.24583
0.126241 -3.22918 -3.22918
0.0977365 -3.21203 -3.21203
0.0977492 -3.22892 -3.22892
0.0692471 -3.24559 -3.24559
0.0692031 -3.27946 -3.27946
0.12636 -3.27996 -3.27996
0.126283 -3.24609 -3.24609
0.0692258 -3.26252 -3.26252
0.0977767 -3.27971 -3.27971
0.126323 -3.26302 -3.26302
0.0977602 -3.24583 -3.24583
0.0977693 -3.26276 -3.26276
0.0692031 -3.27946 -3.27946
0.0691535 -3.31341 -3.31341
0.126429 -3.31391 -3.31391
0.12636 -3.27996 -3.27996
0.069179 -3.29643 -3.29643
0.0977862 -3.31365 -3.31365
0.126396 -3.29693 -3.29693
0.0977767 -3.27971 -3.27971
0.0977823 -3.29667 -3.29667
0.0691535 -3.31341 -3.31341
0.0690984 -3.34742 -3.34742
0.126489 -3.34792 -3.34792
0.126429 -3.31391 -3.31391
0.0691266 -3.3304 -3.3304
0.0977886 -3.34766 -3.34766
0.12646 -3.3309 -3.3309
0.0977862 -3.31365 -3.31365
0.0977883 -3.33065 -3.33065
0.0690984 -3.34742 -3.34742
0.0690378 -3.3815 -3.3815
0.12654 -3.382 -3.382
0.126489 -3.34792 -3.34792
0.0690688 -3.36445 -3.36445
0.097784 -3.38174 -3.38174
0.126515 -3.36495 -3.36495
0.0977886 -3.34766 -3.34766
0.0977872 -3.36469 -3.36469
0.0690378 -3.3815 -3.3815
0.0689717 -3.41565 -3.41565
0.126583 -3.41614 -3.41614
0.12654 -3.382 -3.382
0.0690054 -3.39856 -3.39856
0.0977724 -3.41589 -3.41589
0.126563 -3.39906 -3.39906
0.097784 -3.38174 -3.38174
0.0977791 -3.39881 -3.39881
0.0689717 -3.41565 -3.41565
0.0689002 -3.44985 -3.44985
0.126617 -3.45035 -3.45035
0.126583 -3.41614 -3.41614
0.0689366 -3.43274 -3.43274
0.0977538 -3.4501 -3.4501
0.126601 -3.43324 -3.43324
0.0977724 -3.41589 -3.41589
0.097764 -3.43298 -3.43298
0.0689002 -3.44985 -3.44985
0.0688232 -3.48413 -3.48413
0.126643 -3.48462 -3.48462
0.126617 -3.45035 -3.45035
0.0688624 -3.46698 -3.46698
0.0977282 -3.48437 -3.48437
0.126631 -3.46748 -3.46748
0.0977538 -3.4501 -3.4501
0.0977419 -3.46722 -3.46722
0.0688232 -3.48413 -3.48413
0.0687409 -3.51846 -3.51846
0.12666 -3.51895 -3.51895
0.126643 -3.48462 -3.48462
0.0687827 -3.50128 -3.50128
0.0976957 -3.5187 -3.5187
0.126653 -3.50178 -3.50178
0.0977282 -3.48437 -3.48437
0.0977128 -3.50152 -3.50152
0.0687409 -3.51846 -3.51846
0.0686531 -3.55285 -3.55285
0.126669 -3.55333 -3.55333
0.12666 -3.51895 -3.51895
0.0686977 -3.53564 -3.53564
0.0976563 -3.55308 -3.55308
0.126666 -3.53613 -3.53613
0.0976957 -3.5187 -3.5187
0.0976768 -3.53588 -3.53588
0.0686531 -3.55285 -3.55285
0.06856 -3.58729 -3.58729
0.12667 -3.58778 -3.58778
0.126669 -3.55333 -3.55333
0.0686072 -3.57006 -3.57006
0.0976099 -3.58753 -3.58753
0.126671 -3.57055 -3.57055
0.0976563 -3.55308 -3.55308
0.097634 -3.5703 -3.5703
0.06856 -3.58729 -3.58729
0.0684615 -3.62179 -3.62179
0.126662 -3.62228 -3.62228
0.12667 -3.58778 -3.58778
0.0685114 -3.60453 -3.60453
0.0975567 -3.62203 -3.62203
0.126667 -3.60502 -3.60502
0.0976099 -3.58753 -3.58753
0.0975842 -3.60477 -3.60477
0.0684615 -3.62179 -3.62179
0.0683578 -3.65634 -3.65634
0.126646 -3.65683 -3.65683
0.126662 -3.62228 -3.62228
0.0684103 -3.63906 -3.63906
0.0974967 -3.65658 -3.65658
0.126655 -3.63954 -3.63954
0.0975567 -3.62203 -3.62203
0.0975276 -3.6393 -3.6393
0.0683578 -3.65634 -3.65634
0.0682487 -3.69095 -3.69095
0.126621 -3.69143 -3.69143
0.126646 -3.65683 -3.65683
0.0683039 -3.67364 -3.67364
0.0974298 -3.69118 -3.69118
0.126634 -3.67412 -3.67412
0.0974967 -3.65658 -3.65658
0.0974641 -3.67387 -3.67387
0.0682487 -3.69095 -3.69095
0.0681344 -3.7256 -3.7256
0.126588 -3.72608 -3.72608
0.126621 -3.69143 -3.69143
0.0681922 -3.70827 -3.70827
0.0973561 -3.72583 -3.72583
0.126605 -3.70875 -3.70875
0.0974298 -3.69118 -3.69118
0.0973938 -3.7085 -3.7085
0.0681344 -3.7256 -3.7256
0.0680148 -3.7603 -3.7603
0.126546 -3.76077 -3.76077
0.126588 -3.72608 -3.72608
0.0680753 -3.74294 -3.74294
0.0972757 -3.76053 -3.76053
0.126568 -3.74342 -3.74342
0.0973561 -3.72583 -3.72583
0.0973168 -3.74318 -3.74318
0.0680148 -3.7603 -3.7603
0.06789 -3.79504 -3.79504
0.126497 -3.79552 -3.79552
0.126546 -3.76077 -3.76077
0.0679531 -3.77766 -3.77766
0.0971885 -3.79527 -3.79527
0.126523 -3.77814 -3.77814
0.0972757 -3.76053 -3.76053
0.0972329 -3.7779 -3.7779
0.06789 -3.79504 -3.79504
0.06776 -3.82983 -3.82983
0.126439 -3.8303 -3.8303
0.126497 -3.79552 -3.79552
0.0678257 -3.81243 -3.81243
0.0970945 -3.83006 -3.83006
0.126469 -3.8129 -3.8129
0.0971885 -3.79527 -3.79527
0.0971424 -3.81266 -3.81266
0.06776 -3.82983 -3.82983
0.0676249 -3.86466 -3.86466
0.126373 -3.86513 -3.86513
0.126439 -3.8303 -3.8303
0.0676931 -3.84724 -3.84724
0.0969939 -3.86489 -3.86489
0.126407 -3.84771 -3.84771
0.0970945 -3.83006 -3.83006
0.0970451 -3.84747 -3.84747
0.0676249 -3.86466 -3.86466
0.0674846 -3.89953 -3.89953
0.126299 -3.9 -3.9
0.126373 -3.86513 -3.86513
0.0675554 -3.88209 -3.88209
0.0968866 -3.89976 -3.89976
0.126337 -3.88256 -3.88256
0.0969939 -3.86489 -3.86489
0.0969411 -3.88232 -3.88232
0.0674846 -3.89953 -3.89953
0.0673391 -3.93444 -3.93444
0.126216 -3.9349 -3.9349
0.126299 -3.9 -3.9
0.0674125 -3.91698 -3.91698
0.0967726 -3.93466 -3.93466
0.126258 -3.91744 -3.91744
0.0968866 -3.89976 -3.89976
0.0968304 -3.91721 -3.91721
0.0673391 -3.93444 -3.93444
0.0671886 -3.96938 -3.96938
0.126125 -3.96984 -3.96984
0.126216 -3.9349 -3.9349
0.0672645 -3.9519 -3.9519
0.096652 -3.96961 -3.96961
0.126172 -3.95237 -3.95237
0.0967726 -3.93466 -3.93466
0.0967131 -3.95213 -3.95213
0.0671886 -3.96938 -3.96938
0.067033 -4.00436 -4.00436
0.126027 -4.00482 -4.00482
0.126125 -3.96984 -3.96984
0.0671114 -3.98686 -3.98686
0.0965248 -4.00458 -4.00458
0.126077 -3.98733 -3.98733
0.096652 -3.96961 -3.96961
0.0965892 -3.98709 -3.98709
0.067033 -4.00436 -4.00436
0.0668723 -4.03937 -4.03937
0.12592 -4.03983 -4.03983
0.126027 -4.00482 -4.00482
0.0669533 -4.02186 -4.02186
0.096391 -4.03959 -4.03959
0.125974 -4.02232 -4.02232
0.0965248 -4.00458 -4.00458
0.0964587 -4.02209 -4.02209
0.0668723 -4.03937 -4.03937
0.0667067 -4.07441 -4.07441
0.125805 -4.07487 -4.07487
0.12592 -4.03983 -4.03983
0.0667901 -4.05689 -4.05689
0.0962506 -4.07464 -4.07464
0.125863 -4.05734 -4.05734
0.096391 -4.03959 -4.03959
0.0963216 -4.05711 -4.05711
0.0667067 -4.07441 -4.07441
0.066536 -4.10948 -4.10948
0.125681 -4.10994 -4.10994
0.125805 -4.07487 -4.07487
0.0666219 -4.09194 -4.09194
0.0961037 -4.10971 -4.10971
0.125744 -4.0924 -4.0924
0.0962506 -4.07464 -4.07464
0.096178 -4.09217 -4.09217
0.066536 -4.10948 -4.10948
0.0663603 -4.14458 -4.14458
0.12555 -4.14503 -4.14503
0.125681 -4.10994 -4.10994
0.0664488 -4.12703 -4.12703
0.0959503 -4.1448 -4.1448
0.125617 -4.12748 -4.12748
0.0961037 -4.10971 -4.10971
0.0960278 -4.12725 -4.12725
0.0663603 -4.14458 -4.14458
0.0661797 -4.1797 -4.1797
0.125411 -4.18015 -4.18015
0.12555 -4.14503 -4.14503
0.0662706 -4.16214 -4.16214
0.0957904 -4.17992 -4.17992
0.125482 -4.16259 -4.16259
0.0959503 -4.1448 -4.1448
0.0958712 -4.16236 -4.16236
0.0661797 -4.1797 -4.1797
0.0659942 -4.21485 -4.21485
0.125264 -4.2153 -4.2153
0.125411 -4.18015 -4.18015
0.0660875 -4.19727 -4.19727
0.0956241 -4.21507 -4.21507
0.125339 -4.19772 -4.19772
0.0957904 -4.17992 -4.17992
0.095708 -4.19749 -4.19749
0.0659942 -4.21485 -4.21485
0.0658037 -4.25002 -4.25002
0.125109 -4.25046 -4.25046
0.125264 -4.2153 -4.2153
0.0658995 -4.23243 -4.23243
0.0954513 -4.25024 -4.25024
0.125187 -4.23288 -4.23288
0.0956241 -4.21507 -4.21507
0.0955385 -4.23265 -4.23265
0.0658037 -4.25002 -4.25002
0.0656082 -4.28521 -4.28521
0.124946 -4.28565 -4.28565
0.125109 -4.25046 -4.25046
0.0657066 -4.26761 -4.26761
0.095272 -4.28543 -4.28543
0.125028 -4.26805 -4.26805
0.0954513 -4.25024 -4.25024
0.0953624 -4.26783 -4.26783
0.0656082 -4.28521 -4.28521
0.0654078 -4.32041 -4.32041
0.124775 -4.32085 -4.32085
0.124946 -4.28565 -4.28565
0.0655087 -4.30281 -4.30281
0.0950863 -4.32063 -4.32063
0.124861 -4.30325 -4.30325
0.095272 -4.28543 -4.28543
0.09518 -4.30303 -4.30303
0.0654078 -4.32041 -4.32041
0.0652024 -4.35564 -4.35564
0.124596 -4.35607 -4.35607
0.124775 -4.32085 -4.32085
0.0653058 -4.33802 -4.33802
0.0948941 -4.35585 -4.35585
0.124686 -4.33846 -4.33846
0.0950863 -4.32063 -4.32063
0.094991 -4.33824 -4.33824
0.0652024 -4.35564 -4.35564
0.0649917 -4.39087 -4.39087
0.124409 -4.39131 -4.39131
0.124596 -4.35607 -4.35607
0.0650977 -4.37325 -4.37325
0.0946952 -4.39109 -4.39109
0.124504 -4.37369 -4.37369
0.0948941 -4.35585 -4.35585
0.0947955 -4.37347 -4.37347
0.0649917 -4.39087 -4.39087
0.0647755 -4.42612 -4.42612
0.124214 -4.42655 -4.42655
0.124409 -4.39131 -4.39131
0.0648843 -4.4085 -4.4085
0.0944895 -4.42634 -4.42634
0.124313 -4.40893 -4.40893
0.0946952 -4.39109 -4.39109
0.0945933 -4.40871 -4.40871
0.0647755 -4.42612 -4.42612
0.0645534 -4.46139 -4.46139
0.124011 -4.46181 -4.46181
0.124214 -4.42655 -4.42655
0.0646652 -4.44375 -4.44375
0.0942766 -4.4616 -4.4616
0.124114 -4.44418 -4.44418
0.0944895 -4.42634 -4.42634
0.094384 -4.44397 -4.44397
0.0645534 -4.46139 -4.46139
0.0643249 -4.49666 -4.49666
0.1238 -4.49708 -4.49708
0.124011 -4.46181 -4.46181
0.06444 -4.47902 -4.47902
0.0940558 -4.49687 -4.49687
0.123907 -4.47944 -4.47944
0.0942766 -4.4616 -4.4616
0.0941672 -4.47923 -4.47923
0.0643249 -4.49666 -4.49666
0.0640903 -4.53194 -4.53194
0.123579 -4.53236 -4.53236
0.1238 -4.49708 -4.49708
0.0642084 -4.5143 -4.5143
0.0938266 -4.53215 -4.53215
0.123691 -4.51471 -4.51471
0.0940558 -4.49687 -4.49687
0.0939423 -4.5145 -4.5145
0.0640903 -4.53194 -4.53194
0.0638504 -4.56722 -4.56722
0.123349 -4.56765 -4.56765
0.123579 -4.53236 -4.53236
0.0639707 -4.54958 -4.54958
0.0935891 -4.56744 -4.56744
0.123465 -4.55 -4.55
0.0938266 -4.53215 -4.53215
0.0937088 -4.54979 -4.54979
0.0638504 -4.56722 -4.56722
0.0636099 -4.60251 -4.60251
0.123108 -4.60296 -4.60296
0.123349 -4.56765 -4.56765
0.0637299 -4.58487 -4.58487
0.0933473 -4.60273 -4.60273
0.123229 -4.5853 -4.5853
0.0935891 -4.56744 -4.56744
0.0934679 -4.58508 -4.58508
0.0636099 -4.60251 -4.60251
0.0633729 -4.63778 -4.63778
0.122873 -4.63829 -4.63829
0.123108 -4.60296 -4.60296
0.0634907 -4.62015 -4.62015
0.0931146 -4.63802 -4.63802
0.122988 -4.62062 -4.62062
0.0933473 -4.60273 -4.60273
0.0932292 -4.62038 -4.62038
0 0 0
0.00137407 -0.000390444 -0.000390444
0.00230578 -0.00115312 -0.00115312
0 0 0
0.000666834 -0.000140111 -0.000140111
0.00173618 -0.000697247 -0.000697247
0.00125431 -0.000718295 -0.000718295
0 0 0
0.000828119 -0.000307201 -0.000307201
0.00137407 -0.000390444 -0.000390444
0.00286166 -0.00112671 -0.00112671
0.00430104 -0.00200425 -0.00200425
0.00230578 -0.00115312 -0.00115312
0.0021108 -0.000723028 -0.000723028
0.00354496 -0.00152103 -0.00152103
0.00330646 -0.00156261 -0.00156261
0.00173618 -0.000697247 -0.000697247
0.00264566 -0.00109668 -0.00109668
0.00286166 -0.00112671 -0.00112671
0.00436258 -0.00213812 -0.00213812
0.00631316 -0.00303094 -0.00303094
0.00430104 -0.00200425 -0.00200425
0.00361303 -0.00159686 -0.00159686
0.00532705 -0.00255096 -0.00255096
0.00530361 -0.00248756 -0.00248756
0.00354496 -0.00152103 -0.00152103
0.00443837 -0.00200251 -0.00200251
0.00436258 -0.00213812 -0.00213812
0.00585572 -0.00345502 -0.00345502
0.00834126 -0.00435152 -0.00435152
0.00631316 -0.00303094 -0.00303094
0.00511049 -0.0027566 -0.0027566
0.00709349 -0.00386823 -0.00386823
0.00732579 -0.00365139 -0.00365139
0.00532705 -0.00255096 -0.00255096
0.00621158 -0.00317096 -0.00317096
0.00585572 -0.00345502 -0.00345502
0.00733582 -0.00509916 -0.00509916
0.0103797 -0.00599329 -0.00599329
0.00834126 -0.00435152 -0.00435152
0.00659732 -0.00423525 -0.00423525
0.00885343 -0.00551151 -0.00551151
0.00935975 -0.00513113 -0.00513113
0.00709349 -0.00386823 -0.00386823
0.00797413 -0.00464791 -0.00464791
0.00733582 -0.00509916 -0.00509916
0.00880571 -0.00708317 -0.00708317
0.0124183 -0.00797474 -0.00797474
0.0103797 -0.00599329 -0.00599329
0.00807195 -0.00604832 -0.00604832
0.010607 -0.00749317 -0.00749317
0.0113993 -0.00694113 -0.00694113
0.00885343 -0.00551151 -0.00551151
0.00973103 -0.00645965 -0.00645965
0.00880571 -0.00708317 -0.00708317
0.0102659 -0.00941066 -0.00941066
0.0144535 -0.0102984 -0.0102984
0.0124183 -0.00797474 -0.00797474
0.00953696 -0.00820388 -0.00820388
0.0123539 -0.00981857 -0.00981857
0.0134366 -0.00909369 -0.00909369
0.010607 -0.00749317 -0.00749317
0.0114813 -0.00861278 -0.00861278
0.0102659 -0.00941066 -0.00941066
0.0117175 -0.0120826 -0.0120826
0.0164815 -0.0129667 -0.0129667
0.0144535 -0.0102984 -0.0102984
0.0109927 -0.0107036 -0.0107036
0.014093 -0.0124884 -0.0124884
0.0154685 -0.0115895 -0.0115895
0.0123539 -0.00981857 -0.00981857
0.0132245 -0.0111105 -0.0111105
0.0117175 -0.0120826 -0.0120826
0.0131606 -0.015098 -0.015098
0.0185006 -0.0159781 -0.0159781
0.0164815 -0.0129667 -0.0129667
0.0124401 -0.0135475 -0.0135475
0.0158237 -0.0155019 -0.0155019
0.0174922 -0.0144296 -0.0144296
0.014093 -0.0124884 -0.0124884
0.0149594 -0.0139523 -0.0139523
0.0131606 -0.015098 -0.015098
0.0145956 -0.0184554 -0.0184554
0.0205096 -0.0193317 -0.0193317
0.0185006 -0.0159781 -0.0159781
0.0138791 -0.0167341 -0.0167341
0.0175454 -0.0188574 -0.0188574
0.0195064 -0.0176123 -0.0176123
0.0158237 -0.0155019 -0.0155019
0.0166857 -0.017137 -0.017137
0.0145956 -0.0184554 -0.0184554
0.0160224 -0.0221529 -0.0221529
0.0225079 -0.0230253 -0.0230253
0.0205096 -0.0193317 -0.0193317
0.01531 -0.0202617 -0.0202617
0.0192578 -0.022553 -0.022553
0.0215101 -0.0211361 -0.0211361
0.0175454 -0.0188574 -0.0188574
0.0184028 -0.0206628 -0.0206628
0.0160224 -0.0221529 -0.0221529
0.0174409 -0.0261886 -0.0261886
0.0244953 -0.0270573 -0.0270573
0.0225079 -0.0230253 -0.0230253
0.0167327 -0.0241286 -0.0241286
0.0209607 -0.0265871 -0.0265871
0.023503 -0.0249991 -0.0249991
0.0192578 -0.022553 -0.022553
0.0201105 -0.0245279 -0.0245279
0.0174409 -0.0261886 -0.0261886
0.0188513 -0.0305607 -0.0305607
0.0264714 -0.0314256 -0.0314256
0.0244953 -0.0270573 -0.0270573
0.0181472 -0.0283327 -0.0283327
0.0226539 -0.0309575 -0.0309575
0.0254848 -0.0291995 -0.0291995
0.0209607 -0.0265871 -0.0265871
0.0218085 -0.0287303 -0.0287303
0.0188513 -0.0305607 -0.0305607
0.0202534 -0.0352673 -0.0352673
0.0284363 -0.0361286 -0.0361286
0.0264714 -0.0314256 -0.0314256
0.0195534 -0.0328723 -0.0328723
0.0243374 -0.0356624 -0.0356624
0.0274553 -0.0337354 -0.0337354
0.0226539 -0.0309575 -0.0309575
0.0234969 -0.0332682 -0.0332682
0.0202534 -0.0352673 -0.0352673
0.0216472 -0.0403065 -0.0403065
0.0303898 -0.0411642 -0.0411642
0.0284363 -0.0361286 -0.0361286
0.0209514 -0.0377454 -0.0377454
0.0260111 -0.0407 -0.0407
0.0294145 -0.0386049 -0.0386049
0.0243374 -0.0356624 -0.0356624
0.0251755 -0.0381397 -0.0381397
0.0216472 -0.0403065 -0.0403065
0.0230327 -0.0456765 -0.0456765
0.0323319 -0.0465307 -0.0465307
0.0303898 -0.0411642 -0.0411642
0.022341 -0.0429502 -0.0429502
0.0276749 -0.0460685 -0.0460685
0.0313623 -0.0438062 -0.0438062
0.0260111 -0.0407 -0.0407
0.0268442 -0.043343 -0.043343
0.0230327 -0.0456765 -0.0456765
0.0244098 -0.0513754 -0.0513754
0.0342626 -0.0522262 -0.0522262
0.0323319 -0.0465307 -0.0465307
0.0237223 -0.0484849 -0.0484849
0.0293288 -0.0517659 -0.0517659
0.0332987 -0.0493375 -0.0493375
0.0276749 -0.0460685 -0.0460685
0.028503 -0.0488762 -0.0488762
0.0244098 -0.0513754 -0.0513754
0.0257785 -0.0574015 -0.0574015
0.0361818 -0.0582489 -0.0582489
0.0342626 -0.0522262 -0.0522262
0.0250952 -0.0543477 -0.0543477
0.0309727 -0.0577905 -0.0577905
0.0352236 -0.0551968 -0.0551968
0.0293288 -0.0517659 -0.0517659
0.030152 -0.0547374 -0.0547374
0.0257785 -0.0574015 -0.0574015
0.0271388 -0.0637529 -0.0637529
0.0380894 -0.064597 -0.064597
0.0361818 -0.0582489 -0.0582489
0.0264597 -0.0605366 -0.0605366
0.0326067 -0.0641404 -0.0641404
0.037137 -0.0613824 -0.0613824
0.0309727 -0.0577905 -0.0577905
0.0317909 -0.0609249 -0.0609249
0.0271388 -0.0637529 -0.0637529
0.0284906 -0.0704277 -0.0704277
0.0399855 -0.0712687 -0.0712687
0.0380894 -0.064597 -0.064597
0.0278157 -0.06705 -0.06705
0.0342306 -0.0708139 -0.0708139
0.0390389 -0.0678925 -0.0678925
0.0326067 -0.0641404 -0.0641404
0.0334199 -0.0674368 -0.0674368
0.0284906 -0.0704277 -0.0704277
0.0298338 -0.0774243 -0.0774243
0.0418701 -0.078262 -0.078262
0.0399855 -0.0712687 -0.0712687
0.0291632 -0.0738859 -0.0738859
0.0358445 -0.077809 -0.077809
0.0409293 -0.0747253 -0.0747253
0.0342306 -0.0708139 -0.0708139
0.0350388 -0.0742713 -0.0742713
0.0298338 -0.0774243 -0.0774243
0.0311685 -0.0847407 -0.0847407
0.0437429 -0.0855753 -0.0855753
0.0418701 -0.078262 -0.078262
0.0305022 -0.0810426 -0.0810426
0.0374483 -0.085124 -0.085124
0.042808 -0.0818788 -0.0818788
0.0358445 -0.077809 -0.077809
0.0366476 -0.0814266 -0.0814266
0.0311685 -0.0847407 -0.0847407
0.0324946 -0.0923751 -0.0923751
0.0456042 -0.0932067 -0.0932067
0.0437429 -0.0855753 -0.0855753
0.0318326 -0.0885183 -0.0885183
0.0390419 -0.0927571 -0.0927571
0.044675 -0.0893513 -0.0893513
0.0374483 -0.085124 -0.085124
0.0382464 -0.0889009 -0.0889009
0.0324946 -0.0923751 -0.0923751
0.033812 -0.100326 -0.100326
0.0474537 -0.101154 -0.101154
0.0456042 -0.0932067 -0.0932067
0.0331544 -0.096311 -0.096311
0.0406254 -0.100706 -0.100706
0.0465304 -0.0971411 -0.0971411
0.0390419 -0.0927571 -0.0927571
0.0398349 -0.0966924 -0.0966924
0.033812 -0.100326 -0.100326
0.0351208 -0.108591 -0.108591
0.0492915 -0.109416 -0.109416
0.0474537 -0.101154 -0.101154
0.0344675 -0.104419 -0.104419
0.0421987 -0.10897 -0.10897
0.0483741 -0.105246 -0.105246
0.0406254 -0.100706 -0.100706
0.0414134 -0.104799 -0.104799
0.0351208 -0.108591 -0.108591
0.0364209 -0.117168 -0.117168
0.0511176 -0.117991 -0.117991
0.0492915 -0.109416 -0.109416
0.0357719 -0.112841 -0.112841
0.0437618 -0.117546 -0.117546
0.050206 -0.113665 -0.113665
0.0421987 -0.10897 -0.10897
0.0429815 -0.113219 -0.113219
0.0364209 -0.117168 -0.117168
0.0377123 -0.126057 -0.126057
0.0529318 -0.126877 -0.126877
0.0511176 -0.117991 -0.117991
0.0370677 -0.121574 -0.121574
0.0453146 -0.126434 -0.126434
0.0520262 -0.122395 -0.122395
0.0437618 -0.117546 -0.117546
0.0445395 -0.121951 -0.121951
0.0377123 -0.126057 -0.126057
0.0389949 -0.135254 -0.135254
0.0547342 -0.136071 -0.136071
0.0529318 -0.126877 -0.126877
0.0383547 -0.130617 -0.130617
0.0468571 -0.13563 -0.13563
0.0538345 -0.131435 -0.131435
0.0453146 -0.126434 -0.126434
0.0460872 -0.130993 -0.130993
0.0389949 -0.135254 -0.135254
0.0402687 -0.144758 -0.144758
0.0565248 -0.145573 -0.145573
0.0547342 -0.136071 -0.136071
0.0396329 -0.139968 -0.139968
0.0483893 -0.145133 -0.145133
0.055631 -0.140784 -0.140784
0.0468571 -0.13563 -0.13563
0.0476245 -0.140343 -0.140343
0.0402687 -0.144758 -0.144758
0.0415337 -0.154568 -0.154568
0.0583035 -0.15538 -0.15538
0.0565248 -0.145573 -0.145573
0.0409023 -0.149625 -0.149625
0.0499112 -0.154941 -0.154941
0.0574156 -0.150438 -0.150438
0.0483893 -0.145133 -0.145133
0.0491515 -0.149999 -0.149999
0.0415337 -0.154568 -0.154568
0.0427898 -0.164681 -0.164681
0.0600702 -0.16549 -0.16549
0.0583035 -0.15538 -0.15538
0.0421629 -0.159587 -0.159587
0.0514226 -0.165053 -0.165053
0.0591883 -0.160397 -0.160397
0.0499112 -0.154941 -0.154941
0.0506682 -0.15996 -0.15996
0.0427898 -0.164681 -0.164681
0.0440371 -0.175096 -0.175096
0.0618251 -0.175902 -0.175902
0.0600702 -0.16549 -0.16549
0.0434146 -0.169851 -0.169851
0.0529237 -0.175467 -0.175467
0.0609491 -0.170659 -0.170659
0.0514226 -0.165053 -0.165053
0.0521744 -0.170223 -0.170223
0.0440371 -0.175096 -0.175096
0.0452755 -0.18581 -0.18581
0.0635679 -0.186614 -0.186614
0.0618251 -0.175902 -0.175902
0.0446574 -0.180416 -0.180416
0.0544143 -0.186181 -0.186181
0.062698 -0.181221 -0.181221
0.0529237 -0.175467 -0.175467
0.0536703 -0.180786 -0.180786
0.0452755 -0.18581 -0.18581
0.0465049 -0.196823 -0.196823
0.0652987 -0.197625 -0.197625
0.0635679 -0.186614 -0.186614
0.0458913 -0.19128 -0.19128
0.0558944 -0.197192 -0.197192
0.0644348 -0.192082 -0.192082
0.0544143 -0.186181 -0.186181
0.0551557 -0.191649 -0.191649
0.0465049 -0.196823 -0.196823
0.0477253 -0.208132 -0.208132
0.0670176 -0.208931 -0.208931
0.0652987 -0.197625 -0.197625
0.0471162 -0.202441 -0.202441
0.0573641 -0.2085 -0.2085
0.0661597 -0.203241 -0.203241
0.0558944 -0.197192 -0.197192
0.0566305 -0.202809 -0.202809
0.0477253 -0.208132 -0.208132
0.0489368 -0.219735 -0.219735
0.0687243 -0.220532 -0.220532
0.0670176 -0.208931 -0.208931
0.0483322 -0.213897 -0.213897
0.0588232 -0.220102 -0.220102
0.0678725 -0.214695 -0.214695
0.0573641 -0.2085 -0.2085
0.0580949 -0.214264 -0.214264
0.0489368 -0.219735 -0.219735
0.0501393 -0.231631 -0.231631
0.070419 -0.232425 -0.232425
0.0687243 -0.220532 -0.220532
0.0495392 -0.225647 -0.225647
0.0602718 -0.231997 -0.231997
0.0695732 -0.226442 -0.226442
0.0588232 -0.220102 -0.220102
0.0595488 -0.226013 -0.226013
0.0501393 -0.231631 -0.231631
0.0513327 -0.243817 -0.243817
0.0721016 -0.244609 -0.244609
0.070419 -0.232425 -0.232425
0.0507371 -0.237688 -0.237688
0.0617098 -0.244182 -0.244182
0.0712618 -0.238481 -0.238481
0.0602718 -0.231997 -0.231997
0.0609921 -0.238053 -0.238053
0.0513327 -0.243817 -0.243817
0.0525171 -0.256293 -0.256293
0.073772 -0.257082 -0.257082
0.0721016 -0.244609 -0.244609
0.051926 -0.250019 -0.250019
0.0631372 -0.256657 -0.256657
0.0729383 -0.25081 -0.25081
0.0617098 -0.244182 -0.244182
0.0624248 -0.250384 -0.250384
0.0525171 -0.256293 -0.256293
0.0536924 -0.269055 -0.269055
0.0754303 -0.269843 -0.269843
0.073772 -0.257082 -0.257082
0.0531059 -0.262638 -0.262638
0.064554 -0.269418 -0.269418
0.0746027 -0.263427 -0.263427
0.0631372 -0.256657 -0.256657
0.0638469 -0.263002 -0.263002
0.0536924 -0.269055 -0.269055
0.0548585 -0.282103 -0.282103
0.0770765 -0.282888 -0.282888
0.0754303 -0.269843 -0.269843
0.0542766 -0.275544 -0.275544
0.0659601 -0.282465 -0.282465
0.0762549 -0.27633 -0.27633
0.064554 -0.269418 -0.269418
0.0652584 -0.275906 -0.275906
0.0548585 -0.282103 -0.282103
0.0560156 -0.295434 -0.295434
0.0787104 -0.296217 -0.296217
0.0770765 -0.282888 -0.282888
0.0554382 -0.288733 -0.288733
0.0673556 -0.295796 -0.295796
0.077895 -0.289517 -0.289517
0.0659601 -0.282465 -0.282465
0.0666592 -0.289095 -0.289095
0.0560156 -0.295434 -0.295434
0.0571634 -0.309047 -0.309047
0.0803321 -0.309828 -0.309828
0.0787104 -0.296217 -0.296217
0.0565906 -0.302206 -0.302206
0.0687404 -0.309408 -0.309408
0.0795228 -0.302988 -0.302988
0.0673556 -0.295796 -0.295796
0.0680493 -0.302567 -0.302567
0.0571634 -0.309047 -0.309047
0.0583021 -0.32294 -0.32294
0.0819416 -0.323719 -0.323719
0.0803321 -0.309828 -0.309828
0.0577339 -0.315959 -0.315959
0.0701145 -0.3233 -0.3233
0.0811384 -0.316738 -0.316738
0.0687404 -0.309408 -0.309408
0.0694288 -0.316319 -0.316319
0.0583021 -0.32294 -0.32294
0.0594316 -0.337111 -0.337111
0.0835388 -0.337887 -0.337887
0.0819416 -0.323719 -0.323719
0.058868 -0.329991 -0.329991
0.0714778 -0.337469 -0.337469
0.0827417 -0.330768 -0.330768
0.0701145 -0.3233 -0.3233
0.0707975 -0.33035 -0.33035
0.0594316 -0.337111 -0.337111
0.0605519 -0.351557 -0.351557
0.0851237 -0.352332 -0.352332
0.0835388 -0.337887 -0.337887
0.0599929 -0.3443 -0.3443
0.0728304 -0.351915 -0.351915
0.0843328 -0.345075 -0.345075
0.0714778 -0.337469 -0.337469
0.0721555 -0.344658 -0.344658
0.0605519 -0.351557 -0.351557
0.061663 -0.366279 -0.366279
0.0866963 -0.367051 -0.367051
0.0851237 -0.352332 -0.352332
0.0611086 -0.358884 -0.358884
0.0741723 -0.366636 -0.366636
0.0859115 -0.359658 -0.359658
0.0728304 -0.351915 -0.351915
0.0735027 -0.359242 -0.359242
0.061663 -0.366279 -0.366279
0.0627648 -0.381272 -0.381272
0.0882566 -0.382043 -0.382043
0.0866963 -0.367051 -0.367051
0.062215 -0.373742 -0.373742
0.0755033 -0.381629 -0.381629
0.087478 -0.374513 -0.374513
0.0741723 -0.366636 -0.366636
0.0748391 -0.374098 -0.374098
0.0627648 -0.381272 -0.381272
0.0638573 -0.396537 -0.396537
0.0898045 -0.397306 -0.397306
0.0882566 -0.382043 -0.382043
0.0633122 -0.388871 -0.388871
0.0768236 -0.396893 -0.396893
0.0890321 -0.389641 -0.389641
0.0755033 -0.381629 -0.381629
0.0761648 -0.389227 -0.389227
0.0638573 -0.396537 -0.396537
0.0649405 -0.41207 -0.41207
0.0913401 -0.412837 -0.412837
0.0898045 -0.397306 -0.397306
0.0644001 -0.40427 -0.40427
0.078133 -0.412425 -0.412425
0.0905739 -0.405038 -0.405038
0.0768236 -0.396893 -0.396893
0.0774796 -0.404625 -0.404625
0.0649405 -0.41207 -0.41207
0.0660145 -0.427871 -0.427871
0.0928634 -0.428636 -0.428636
0.0913401 -0.412837 -0.412837
0.0654787 -0.419937 -0.419937
0.0794316 -0.428225 -0.428225
0.0921033 -0.420703 -0.420703
0.078133 -0.412425 -0.412425
0.0787836 -0.420292 -0.420292
0.0660145 -0.427871 -0.427871
0.0670791 -0.443937 -0.443937
0.0943742 -0.4447 -0.4447
0.0928634 -0.428636 -0.428636
0.0665479 -0.435871 -0.435871
0.0807193 -0.44429 -0.44429
0.0936203 -0.436635 -0.436635
0.0794316 -0.428225 -0.428225
0.0800768 -0.436225 -0.436225
0.0670791 -0.443937 -0.443937
0.0681343 -0.460266 -0.460266
0.0958726 -0.461027 -0.461027
0.0943742 -0.4447 -0.4447
0.0676079 -0.452068 -0.452068
0.0819961 -0.460619 -0.460619
0.095125 -0.452831 -0.452831
0.0807193 -0.44429 -0.44429
0.0813591 -0.452422 -0.452422
0.0681343 -0.460266 -0.460266
0.0691802 -0.476857 -0.476857
0.0973586 -0.477616 -0.477616
0.0958726 -0.461027 -0.461027
0.0686585 -0.468529 -0.468529
0.0832621 -0.477209 -0.477209
0.0966172 -0.469289 -0.469289
0.0819961 -0.460619 -0.460619
0.0826305 -0.468881 -0.468881
0.0691802 -0.476857 -0.476857
0.0702168 -0.493707 -0.493707
0.0988322 -0.494465 -0.494465
0.0973586 -0.477616 -0.477616
0.0696997 -0.48525 -0.48525
0.0845171 -0.494059 -0.494059
0.098097 -0.486008 -0.486008
0.0832621 -0.477209 -0.477209
0.083891 -0.485601 -0.485601
0.0702168 -0.493707 -0.493707
0.0712439 -0.510816 -0.510816
0.100293 -0.511572 -0.511572
0.0988322 -0.494465 -0.494465
0.0707315 -0.50223 -0.50223
0.0857613 -0.511167 -0.511167
0.0995643 -0.502986 -0.502986
0.0845171 -0.494059 -0.494059
0.0851406 -0.502581 -0.502581
0.0712439 -0.510816 -0.510816
0.0722617 -0.528181 -0.528181
0.101742 -0.528935 -0.528935
0.100293 -0.511572 -0.511572
0.071754 -0.519467 -0.519467
0.0869945 -0.528531 -0.528531
0.101019 -0.520222 -0.520222
0.0857613 -0.511167 -0.511167
0.0863792 -0.519817 -0.519817
0.0722617 -0.528181 -0.528181
0.07327 -0.5458 -0.5458
0.103178 -0.546553 -0.546553
0.101742 -0.528935 -0.528935
0.072767 -0.536959 -0.536959
0.0882167 -0.546149 -0.546149
0.102462 -0.537712 -0.537712
0.0869945 -0.528531 -0.528531
0.0876069 -0.537308 -0.537308
0.07327 -0.5458 -0.5458
0.0742689 -0.563672 -0.563672
0.104602 -0.564423 -0.564423
0.103178 -0.546553 -0.546553
0.0737706 -0.554704 -0.554704
0.089428 -0.56402 -0.56402
0.103892 -0.555456 -0.555456
0.0882167 -0.546149 -0.546149
0.0888237 -0.555053 -0.555053
0.0742689 -0.563672 -0.563672
0.0752584 -0.581794 -0.581794
0.106013 -0.582543 -0.582543
0.104602 -0.564423 -0.564423
0.0747648 -0.572702 -0.572702
0.0906283 -0.582142 -0.582142
0.105309 -0.573452 -0.573452
0.089428 -0.56402 -0.56402
0.0900295 -0.57305 -0.57305
0.0752584 -0.581794 -0.581794
0.0762384 -0.600165 -0.600165
0.107412 -0.600913 -0.600913
0.106013 -0.582543 -0.582543
0.0757496 -0.590949 -0.590949
0.0918177 -0.600513 -0.600513
0.106714 -0.591697 -0.591697
0.0906283 -0.582142 -0.582142
0.0912244 -0.591296 -0.591296
0.0762384 -0.600165 -0.600165
0.077209 -0.618784 -0.618784
0.108798 -0.61953 -0.61953
0.107412 -0.600913 -0.600913
0.0767249 -0.609444 -0.609444
0.092996 -0.619131 -0.619131
0.108106 -0.610191 -0.610191
0.0918177 -0.600513 -0.600513
0.0924082 -0.609791 -0.609791
0.077209 -0.618784 -0.618784
0.07817 -0.637647 -0.637647
0.110171 -0.638392 -0.638392
0.108798 -0.61953 -0.61953
0.0776907 -0.628185 -0.628185
0.0941633 -0.637994 -0.637994
0.109486 -0.62893 -0.62893
0.092996 -0.619131 -0.619131
0.093581 -0.628532 -0.628532
0.07817 -0.637647 -0.637647
0.0791216 -0.656755 -0.656755
0.111532 -0.657497 -0.657497
0.110171 -0.638392 -0.638392
0.078647 -0.647171 -0.647171
0.0953197 -0.6571 -0.6571
0.110853 -0.647914 -0.647914
0.0941633 -0.637994 -0.637994
0.0947429 -0.647517 -0.647517
0.0791216 -0.656755 -0.656755
0.0800638 -0.676103 -0.676103
0.112881 -0.676844 -0.676844
0.111532 -0.657497 -0.657497
0.0795939 -0.666399 -0.666399
0.096465 -0.676448 -0.676448
0.112208 -0.667141 -0.667141
0.0953197 -0.6571 -0.6571
0.0958937 -0.666744 -0.666744
0.0800638 -0.676103 -0.676103
0.0809964 -0.695692 -0.695692
0.114217 -0.696431 -0.696431
0.112881 -0.676844 -0.676844
0.0805313 -0.685868 -0.685868
0.0975992 -0.696036 -0.696036
0.11355 -0.686608 -0.686608
0.096465 -0.676448 -0.676448
0.0970335 -0.686212 -0.686212
0.0809964 -0.695692 -0.695692
0.0819195 -0.715518 -0.715518
0.11554 -0.716256 -0.716256
0.114217 -0.696431 -0.696431
0.0814591 -0.705575 -0.705575
0.0987225 -0.715862 -0.715862
0.11488 -0.706314 -0.706314
0.0975992 -0.696036 -0.696036
0.0981622 -0.705919 -0.705919
0.0819195 -0.715518 -0.715518
0.0828331 -0.735581 -0.735581
0.116851 -0.736317 -0.736317
0.11554 -0.716256 -0.716256
0.0823775 -0.72552 -0.72552
0.0998346 -0.735924 -0.735924
0.116197 -0.726258 -0.726258
0.0987225 -0.715862 -0.715862
0.0992799 -0.725864 -0.725864
0.0828331 -0.735581 -0.735581
0.0837371 -0.755878 -0.755878
0.118149 -0.756613 -0.756613
0.116851 -0.736317 -0.736317
0.0832863 -0.7457 -0.7457
0.100936 -0.756221 -0.756221
0.117502 -0.746436 -0.746436
0.0998346 -0.735924 -0.735924
0.100387 -0.746043 -0.746043
0.0837371 -0.755878 -0.755878
0.0846317 -0.776407 -0.776407
0.119435 -0.777141 -0.777141
0.118149 -0.756613 -0.756613
0.0841856 -0.766114 -0.766114
0.102026 -0.776749 -0.776749
0.118793 -0.766848 -0.766848
0.100936 -0.756221 -0.756221
0.101482 -0.766456 -0.766456
0.0846317 -0.776407 -0.776407
0.0855167 -0.797168 -0.797168
0.120708 -0.7979 -0.7979
0.119435 -0.777141 -0.777141
0.0850754 -0.786759 -0.786759
0.103105 -0.797509 -0.797509
0.120073 -0.787492 -0.787492
0.102026 -0.776749 -0.776749
0.102567 -0.787101 -0.787101
0.0855167 -0.797168 -0.797168
0.0863921 -0.818157 -0.818157
0.121968 -0.818887 -0.818887
0.120708 -0.7979 -0.7979
0.0859556 -0.807634 -0.807634
0.104173 -0.818498 -0.818498
0.121339 -0.808365 -0.808365
0.103105 -0.797509 -0.797509
0.10364 -0.807975 -0.807975
0.0863921 -0.818157 -0.818157
0.087258 -0.839373 -0.839373
0.123216 -0.840102 -0.840102
0.121968 -0.818887 -0.818887
0.0868263 -0.828737 -0.828737
0.10523 -0.839713 -0.839713
0.122593 -0.829466 -0.829466
0.104173 -0.818498 -0.818498
0.104703 -0.829077 -0.829077
0.087258 -0.839373 -0.839373
0.0881144 -0.860814 -0.860814
0.124451 -0.861542 -0.861542
0.123216 -0.840102 -0.840102
0.0876874 -0.850066 -0.850066
0.106275 -0.861154 -0.861154
0.123835 -0.850794 -0.850794
0.10523 -0.839713 -0.839713
0.105754 -0.850406 -0.850406
0.0881144 -0.860814 -0.860814
0.0889612 -0.882479 -0.882479
0.125673 -0.883205 -0.883205
0.124451 -0.861542 -0.861542
0.088539 -0.871619 -0.871619
0.10731 -0.882819 -0.882819
0.125064 -0.872346 -0.872346
0.106275 -0.861154 -0.861154
0.106794 -0.871959 -0.871959
0.0889612 -0.882479 -0.882479
0.0897984 -0.904366 -0.904366
0.126883 -0.90509 -0.90509
0.125673 -0.883205 -0.883205
0.089381 -0.893395 -0.893395
0.108333 -0.904704 -0.904704
0.12628 -0.89412 -0.89412
0.10731 -0.882819 -0.882819
0.107823 -0.893734 -0.893734
0.0897984 -0.904366 -0.904366
0.0906261 -0.926472 -0.926472
0.12808 -0.927195 -0.927195
0.126883 -0.90509 -0.90509
0.0902134 -0.915391 -0.915391
0.109346 -0.92681 -0.92681
0.127483 -0.916115 -0.916115
0.108333 -0.904704 -0.904704
0.108841 -0.91573 -0.91573
0.0906261 -0.926472 -0.926472
0.0914442 -0.948796 -0.948796
0.129265 -0.949518 -0.949518
0.12808 -0.927195 -0.927195
0.0910363 -0.937607 -0.937607
0.110347 -0.949134 -0.949134
0.128674 -0.93833 -0.93833
0.109346 -0.92681 -0.92681
0.109848 -0.937945 -0.937945
0.0914442 -0.948796 -0.948796
0.0922527 -0.971337 -0.971337
0.130437 -0.972057 -0.972057
0.129265 -0.949518 -0.949518
0.0918496 -0.960039 -0.960039
0.111338 -0.971674 -0.971674
0.129853 -0.960761 -0.960761
0.110347 -0.949134 -0.949134
0.110844 -0.960377 -0.960377
0.0922527 -0.971337 -0.971337
0.0930516 -0.994091 -0.994091
0.131596 -0.99481 -0.99481
0.130437 -0.972057 -0.972057
0.0926534 -0.982687 -0.982687
0.112317 -0.994428 -0.994428
0.131018 -0.983407 -0.983407
0.111338 -0.971674 -0.971674
0.111828 -0.983024 -0.983024
0.0930516 -0.994091 -0.994091
0.093841 -1.01706 -1.01706
0.132743 -1.01778 -1.01778
0.131596 -0.99481 -0.99481
0.0934475 -1.00555 -1.00555
0.113285 -1.01739 -1.01739
0.132171 -1.00627 -1.00627
0.112317 -0.994428 -0.994428
0.112802 -1.00588 -1.00588
0.093841 -1.01706 -1.01706
0.0946208 -1.04024 -1.04024
0.133877 -1.04095 -1.04095
0.132743 -1.01778 -1.01778
0.0942321 -1.02862 -1.02862
0.114242 -1.04057 -1.04057
0.133312 -1.02934 -1.02934
0.113285 -1.01739 -1.01739
0.113765 -1.02896 -1.02896
0.0946208 -1.04024 -1.04024
0.095391 -1.06362 -1.06362
0.134998 -1.06434 -1.06434
0.133877 -1.04095 -1.04095
0.0950071 -1.0519 -1.0519
0.115187 -1.06396 -1.06396
0.134439 -1.05262 -1.05262
0.114242 -1.04057 -1.04057
0.114716 -1.05224 -1.05224
0.095391 -1.06362 -1.06362
0.0961517 -1.08722 -1.08722
0.136107 -1.08793 -1.08793
0.134998 -1.06434 -1.06434
0.0957726 -1.07539 -1.07539
0.116122 -1.08755 -1.08755
0.135554 -1.07611 -1.07611
0.115187 -1.06396 -1.06396
0.115656 -1.07573 -1.07573
0.0961517 -1.08722 -1.08722
0.0969027 -1.11102 -1.11102
0.137203 -1.11173 -1.11173
0.136107 -1.08793 -1.08793
0.0965284 -1.09909 -1.09909
0.117046 -1.11135 -1.11135
0.136657 -1.0998 -1.0998
0.116122 -1.08755 -1.08755
0.116585 -1.09943 -1.09943
0.0969027 -1.11102 -1.11102
0.0976442 -1.13502 -1.13502
0.138287 -1.13573 -1.13573
0.137203 -1.11173 -1.11173
0.0972747 -1.12299 -1.12299
0.117958 -1.13535 -1.13535
0.137747 -1.1237 -1.1237
0.117046 -1.11135 -1.11135
0.117503 -1.12333 -1.12333
0.0976442 -1.13502 -1.13502
0.0983761 -1.15922 -1.15922
0.139358 -1.15993 -1.15993
0.138287 -1.13573 -1.13573
0.0980114 -1.1471 -1.1471
0.11886 -1.15956 -1.15956
0.138824 -1.14781 -1.14781
0.117958 -1.13535 -1.13535
0.11841 -1.14743 -1.14743
0.0983761 -1.15922 -1.15922
0.0990985 -1.18363 -1.18363
0.140416 -1.18433 -1.18433
0.139358 -1.15993 -1.15993
0.0987385 -1.1714 -1.1714
0.11975 -1.18396 -1.18396
0.139888 -1.17211 -1.17211
0.11886 -1.15956 -1.15956
0.119306 -1.17173 -1.17173
0.0990985 -1.18363 -1.18363
0.0998112 -1.20823 -1.20823
0.141461 -1.20894 -1.20894
0.140416 -1.18433 -1.18433
0.099456 -1.1959 -1.1959
0.120629 -1.20856 -1.20856
0.14094 -1.19661 -1.19661
0.11975 -1.18396 -1.18396
0.120191 -1.19624 -1.19624
0.0998112 -1.20823 -1.20823
0.100514 -1.23303 -1.23303
0.142494 -1.23373 -1.23373
0.141461 -1.20894 -1.20894
0.100164 -1.2206 -1.2206
0.121497 -1.23336 -1.23336
0.141979 -1.22131 -1.22131
0.120629 -1.20856 -1.20856
0.121064 -1.22094 -1.22094
0.100514 -1.23303 -1.23303
0.101208 -1.25802 -1.25802
0.143514 -1.25872 -1.25872
0.142494 -1.23373 -1.23373
0.100862 -1.2455 -1.2455
0.122354 -1.25835 -1.25835
0.143006 -1.2462 -1.2462
0.121497 -1.23336 -1.23336
0.121927 -1.24583 -1.24583
0.101208 -1.25802 -1.25802
0.101892 -1.2832 -1.2832
0.144522 -1.28391 -1.28391
0.143514 -1.25872 -1.25872
0.101551 -1.27059 -1.27059
0.1232 -1.28354 -1.28354
0.14402 -1.27129 -1.27129
0.122354 -1.25835 -1.25835
0.122778 -1.27092 -1.27092
0.101892 -1.2832 -1.2832
0.102567 -1.30858 -1.30858
0.145517 -1.30928 -1.30928
0.144522 -1.28391 -1.28391
0.102231 -1.29587 -1.29587
0.124035 -1.30891 -1.30891
0.145021 -1.29657 -1.29657
0.1232 -1.28354 -1.28354
0.123619 -1.2962 -1.2962
0.102567 -1.30858 -1.30858
0.103232 -1.33415 -1.33415
0.1465 -1.33484 -1.33484
0.145517 -1.30928 -1.30928
0.1029 -1.32134 -1.32134
0.124858 -1.33447 -1.33447
0.14601 -1.32204 -1.32204
0.124035 -1.30891 -1.30891
0.124448 -1.32167 -1.32167
0.103232 -1.33415 -1.33415
0.103887 -1.3599 -1.3599
0.147469 -1.36059 -1.36059
0.1465 -1.33484 -1.33484
0.10356 -1.347 -1.347
0.125671 -1.36023 -1.36023
0.146986 -1.3477 -1.3477
0.124858 -1.33447 -1.33447
0.125266 -1.34733 -1.34733
0.103887 -1.3599 -1.3599
0.104533 -1.38583 -1.38583
0.148426 -1.38653 -1.38653
0.147469 -1.36059 -1.36059
0.104211 -1.37284 -1.37284
0.126472 -1.38616 -1.38616
0.147949 -1.37354 -1.37354
0.125671 -1.36023 -1.36023
0.126073 -1.37317 -1.37317
0.104533 -1.38583 -1.38583
0.105169 -1.41195 -1.41195
0.149371 -1.41265 -1.41265
0.148426 -1.38653 -1.38653
0.104852 -1.39887 -1.39887
0.127263 -1.41228 -1.41228
0.1489 -1.39957 -1.39957
0.126472 -1.38616 -1.38616
0.126869 -1.3992 -1.3992
0.105169 -1.41195 -1.41195
0.105796 -1.43826 -1.43826
0.150303 -1.43895 -1.43895
0.149371 -1.41265 -1.41265
0.105484 -1.42508 -1.42508
0.128042 -1.43858 -1.43858
0.149839 -1.42578 -1.42578
0.127263 -1.41228 -1.41228
0.127654 -1.42541 -1.42541
0.105796 -1.43826 -1.43826
0.106413 -1.46474 -1.46474
0.151222 -1.46543 -1.46543
0.150303 -1.43895 -1.43895
0.106106 -1.45147 -1.45147
0.12881 -1.46506 -1.46506
0.150764 -1.45217 -1.45217
0.128042 -1.43858 -1.43858
0.128428 -1.4518 -1.4518
0.106413 -1.46474 -1.46474
0.107021 -1.4914 -1.4914
0.152129 -1.49209 -1.49209
0.151222 -1.46543 -1.46543
0.106718 -1.47805 -1.47805
0.129568 -1.49172 -1.49172
0.151677 -1.47874 -1.47874
0.12881 -1.46506 -1.46506
0.12919 -1.47837 -1.47837
0.107021 -1.4914 -1.4914
0.107619 -1.51823 -1.51823
0.153023 -1.51892 -1.51892
0.152129 -1.49209 -1.49209
0.107321 -1.50479 -1.50479
0.130314 -1.51856 -1.51856
0.152578 -1.50548 -1.50548
0.129568 -1.49172 -1.49172
0.129942 -1.50512 -1.50512
0.107619 -1.51823 -1.51823
0.108208 -1.54524 -1.54524
0.153905 -1.54593 -1.54593
0.153023 -1.51892 -1.51892
0.107914 -1.53172 -1.53172
0.131049 -1.54557 -1.54557
0.153466 -1.5324 -1.5324
0.130314 -1.51856 -1.51856
0.130683 -1.53204 -1.53204
0.108208 -1.54524 -1.54524
0.108787 -1.57243 -1.57243
0.154774 -1.57311 -1.57311
0.153905 -1.54593 -1.54593
0.108498 -1.55881 -1.55881
0.131773 -1.57275 -1.57275
0.154341 -1.5595 -1.5595
0.131049 -1.54557 -1.54557
0.131412 -1.55914 -1.55914
0.108787 -1.57243 -1.57243
0.109356 -1.59978 -1.59978
0.15563 -1.60046 -1.60046
0.154774 -1.57311 -1.57311
0.109073 -1.58608 -1.58608
0.132486 -1.6001 -1.6001
0.155204 -1.58677 -1.58677
0.131773 -1.57275 -1.57275
0.132131 -1.58641 -1.58641
0.109356 -1.59978 -1.59978
0.109917 -1.6273 -1.6273
0.156474 -1.62798 -1.62798
0.15563 -1.60046 -1.60046
0.109638 -1.61352 -1.61352
0.133188 -1.62762 -1.62762
0.156054 -1.6142 -1.6142
0.132486 -1.6001 -1.6001
0.132838 -1.61384 -1.61384
0.109917 -1.6273 -1.6273
0.110467 -1.65499 -1.65499
0.157305 -1.65567 -1.65567
0.156474 -1.62798 -1.62798
0.110193 -1.64113 -1.64113
0.133879 -1.65531 -1.65531
0.156891 -1.64181 -1.64181
0.133188 -1.62762 -1.62762
0.133535 -1.64145 -1.64145
0.110467 -1.65499 -1.65499
0.111008 -1.68285 -1.68285
0.158124 -1.68352 -1.68352
0.157305 -1.65567 -1.65567
0.110739 -1.6689 -1.6689
0.134559 -1.68317 -1.68317
0.157716 -1.66958 -1.66958
0.133879 -1.65531 -1.65531
0.13422 -1.66922 -1.66922
0.111008 -1.68285 -1.68285
0.11154 -1.71086 -1.71086
0.158931 -1.71154 -1.71154
0.158124 -1.68352 -1.68352
0.111276 -1.69683 -1.69683
0.135228 -1.71118 -1.71118
0.158529 -1.69751 -1.69751
0.134559 -1.68317 -1.68317
0.134895 -1.69716 -1.69716
0.11154 -1.71086 -1.71086
0.112063 -1.73904 -1.73904
0.159724 -1.73972 -1.73972
0.158931 -1.71154 -1.71154
0.111803 -1.72493 -1.72493
0.135886 -1.73936 -1.73936
0.159329 -1.72561 -1.72561
0.135228 -1.71118 -1.71118
0.135558 -1.72525 -1.72525
0.112063 -1.73904 -1.73904
0.112575 -1.76738 -1.76738
0.160506 -1.76806 -1.76806
0.159724 -1.73972 -1.73972
0.11232 -1.75319 -1.75319
0.136533 -1.7677 -1.7677
0.160116 -1.75387 -1.75387
0.135886 -1.73936 -1.73936
0.136211 -1.75351 -1.75351
0.112575 -1.76738 -1.76738
0.113079 -1.79588 -1.79588
0.161274 -1.79655 -1.79655
0.160506 -1.76806 -1.76806
0.112828 -1.78161 -1.78161
0.137169 -1.7962 -1.7962
0.160891 -1.78228 -1.78228
0.136533 -1.7677 -1.7677
0.136853 -1.78193 -1.78193
0.113079 -1.79588 -1.79588
0.113573 -1.82453 -1.82453
0.162031 -1.8252 -1.8252
0.161274 -1.79655 -1.79655
0.113327 -1.81019 -1.81019
0.137794 -1.82485 -1.82485
0.161654 -1.81086 -1.81086
0.137169 -1.7962 -1.7962
0.137483 -1.81051 -1.81051
0.113573 -1.82453 -1.82453
0.114057 -1.85334 -1.85334
0.162774 -1.85401 -1.85401
0.162031 -1.8252 -1.8252
0.113816 -1.83892 -1.83892
0.138409 -1.85366 -1.85366
0.162404 -1.83959 -1.83959
0.137794 -1.82485 -1.82485
0.138103 -1.83924 -1.83924
0.114057 -1.85334 -1.85334
0.114533 -1.8823 -1.8823
0.163506 -1.88297 -1.88297
0.162774 -1.85401 -1.85401
0.114296 -1.8678 -1.8678
0.139012 -1.88262 -1.88262
0.163142 -1.86847 -1.86847
0.138409 -1.85366 -1.85366
0.138712 -1.86812 -1.86812
0.114533 -1.8823 -1.8823
0.114998 -1.91141 -1.91141
0.164225 -1.91208 -1.91208
0.163506 -1.88297 -1.88297
0.114767 -1.89684 -1.89684
0.139604 -1.91173 -1.91173
0.163867 -1.8975 -1.8975
0.139012 -1.88262 -1.88262
0.139309 -1.89716 -1.89716
0.114998 -1.91141 -1.91141
0.115455 -1.94067 -1.94067
0.164931 -1.94134 -1.94134
0.164225 -1.91208 -1.91208
0.115228 -1.92602 -1.92602
0.140186 -1.94099 -1.94099
0.164579 -1.92669 -1.92669
0.139604 -1.91173 -1.91173
0.139896 -1.92634 -1.92634
0.115455 -1.94067 -1.94067
0.115902 -1.97008 -1.97008
0.165625 -1.97074 -1.97074
0.164931 -1.94134 -1.94134
0.11568 -1.95536 -1.95536
0.140756 -1.9704 -1.9704
0.16528 -1.95602 -1.95602
0.140186 -1.94099 -1.94099
0.140472 -1.95567 -1.95567
0.115902 -1.97008 -1.97008
0.11634 -1.99963 -1.99963
0.166307 -2.00029 -2.00029
0.165625 -1.97074 -1.97074
0.116122 -1.98484 -1.98484
0.141316 -1.99995 -1.99995
0.165967 -1.9855 -1.9855
0.140756 -1.9704 -1.9704
0.141037 -1.98515 -1.98515
0.11634 -1.99963 -1.99963
0.116768 -2.02933 -2.02933
0.166976 -2.02999 -2.02999
0.166307 -2.00029 -2.00029
0.116555 -2.01446 -2.01446
0.141865 -2.02964 -2.02964
0.166643 -2.01512 -2.01512
0.141316 -1.99995 -1.99995
0.141592 -2.01478 -2.01478
0.116768 -2.02933 -2.02933
0.117187 -2.05917 -2.05917
0.167633 -2.05982 -2.05982
0.166976 -2.02999 -2.02999
0.116979 -2.04423 -2.04423
0.142402 -2.05948 -2.05948
0.167306 -2.04489 -2.04489
0.141865 -2.02964 -2.02964
0.142135 -2.04454 -2.04454
0.117187 -2.05917 -2.05917
0.117597 -2.08914 -2.08914
0.168277 -2.0898 -2.0898
0.167633 -2.05982 -2.05982
0.117393 -2.07414 -2.07414
0.14293 -2.08945 -2.08945
0.167956 -2.07479 -2.07479
0.142402 -2.05948 -2.05948
0.142667 -2.07445 -2.07445
0.117597 -2.08914 -2.08914
0.117997 -2.11926 -2.11926
0.168909 -2.11991 -2.11991
0.168277 -2.0898 -2.0898
0.117798 -2.10418 -2.10418
0.143446 -2.11957 -2.11957
0.168595 -2.10484 -2.10484
0.14293 -2.08945 -2.08945
0.143189 -2.10449 -2.10449
0.117997 -2.11926 -2.11926
0.118389 -2.14951 -2.14951
0.169529 -2.15016 -2.15016
0.168909 -2.11991 -2.11991
0.118194 -2.13437 -2.13437
0.143951 -2.14982 -2.14982
0.16922 -2.13502 -2.13502
0.143446 -2.11957 -2.11957
0.1437 -2.13468 -2.13468
0.118389 -2.14951 -2.14951
0.11877 -2.17989 -2.17989
0.170136 -2.18054 -2.18054
0.169529 -2.15016 -2.15016
0.118581 -2.16469 -2.16469
0.144446 -2.1802 -2.1802
0.169834 -2.16533 -2.16533
0.143951 -2.14982 -2.14982
0.1442 -2.165 -2.165
0.11877 -2.17989 -2.17989
0.119143 -2.21041 -2.21041
0.170731 -2.21106 -2.21106
0.170136 -2.18054 -2.18054
0.118958 -2.19514 -2.19514
0.14493 -2.21072 -2.21072
0.170435 -2.19578 -2.19578
0.144446 -2.1802 -2.1802
0.144689 -2.19545 -2.19545
0.119143 -2.21041 -2.21041
0.119507 -2.24106 -2.24106
0.171314 -2.24171 -2.24171
0.170731 -2.21106 -2.21106
0.119326 -2.22572 -2.22572
0.145403 -2.24137 -2.24137
0.171024 -2.22637 -2.22637
0.14493 -2.21072 -2.21072
0.145168 -2.22603 -2.22603
0.119507 -2.24106 -2.24106
0.119861 -2.27184 -2.27184
0.171884 -2.27248 -2.27248
0.171314 -2.24171 -2.24171
0.119685 -2.25643 -2.25643
0.145865 -2.27215 -2.27215
0.171601 -2.25708 -2.25708
0.145403 -2.24137 -2.24137
0.145635 -2.25674 -2.25674
0.119861 -2.27184 -2.27184
0.120206 -2.30274 -2.30274
0.172442 -2.30338 -2.30338
0.171884 -2.27248 -2.27248
0.120034 -2.28728 -2.28728
0.146317 -2.30305 -2.30305
0.172165 -2.28792 -2.28792
0.145865 -2.27215 -2.27215
0.146092 -2.28758 -2.28758
0.120206 -2.30274 -2.30274
0.120541 -2.33377 -2.33377
0.172988 -2.33441 -2.33441
0.172442 -2.30338 -2.30338
0.120375 -2.31824 -2.31824
0.146758 -2.33408 -2.33408
0.172717 -2.31888 -2.31888
0.146317 -2.30305 -2.30305
0.146538 -2.31855 -2.31855
0.120541 -2.33377 -2.33377
0.120868 -2.36493 -2.36493
0.173522 -2.36556 -2.36556
0.172988 -2.33441 -2.33441
0.120706 -2.34934 -2.34934
0.147188 -2.36523 -2.36523
0.173257 -2.34997 -2.34997
0.146758 -2.33408 -2.33408
0.146974 -2.34964 -2.34964
0.120868 -2.36493 -2.36493
0.121186 -2.3962 -2.3962
0.174043 -2.39684 -2.39684
0.173522 -2.36556 -2.36556
0.121028 -2.38055 -2.38055
0.147607 -2.39651 -2.39651
0.173784 -2.38119 -2.38119
0.147188 -2.36523 -2.36523
0.147399 -2.38085 -2.38085
0.121186 -2.3962 -2.3962
0.121494 -2.4276 -2.4276
0.174553 -2.42823 -2.42823
0.174043 -2.39684 -2.39684
0.121341 -2.41189 -2.41189
0.148016 -2.4279 -2.4279
0.1743 -2.41252 -2.41252
0.147607 -2.39651 -2.39651
0.147813 -2.41219 -2.41219
0.121494 -2.4276 -2.4276
0.121793 -2.45911 -2.45911
0.17505 -2.45974 -2.45974
0.174553 -2.42823 -2.42823
0.121645 -2.44334 -2.44334
0.148414 -2.45941 -2.45941
0.174803 -2.44397 -2.44397
0.148016 -2.4279 -2.4279
0.148216 -2.44364 -2.44364
0.121793 -2.45911 -2.45911
0.122083 -2.49074 -2.49074
0.175535 -2.49137 -2.49137
0.17505 -2.45974 -2.45974
0.121939 -2.47491 -2.47491
0.148801 -2.49104 -2.49104
0.175294 -2.47554 -2.47554
0.148414 -2.45941 -2.45941
0.148609 -2.47521 -2.47521
0.122083 -2.49074 -2.49074
0.122364 -2.52248 -2.52248
0.176007 -2.52311 -2.52311
0.175535 -2.49137 -2.49137
0.122225 -2.5066 -2.5066
0.149178 -2.52278 -2.52278
0.175772 -2.50722 -2.50722
0.148801 -2.49104 -2.49104
0.148991 -2.5069 -2.5069
0.122364 -2.52248 -2.52248
0.122636 -2.55434 -2.55434
0.176468 -2.55496 -2.55496
0.176007 -2.52311 -2.52311
0.122501 -2.5384 -2.5384
0.149544 -2.55464 -2.55464
0.176239 -2.53902 -2.53902
0.149178 -2.52278 -2.52278
0.149363 -2.5387 -2.5387
0.122636 -2.55434 -2.55434
0.122899 -2.58631 -2.58631
0.176916 -2.58693 -2.58693
0.176468 -2.55496 -2.55496
0.122768 -2.57031 -2.57031
0.1499 -2.5866 -2.5866
0.176694 -2.57093 -2.57093
0.149544 -2.55464 -2.55464
0.149724 -2.57061 -2.57061
0.122899 -2.58631 -2.58631
0.123153 -2.61838 -2.61838
0.177353 -2.619 -2.619
0.176916 -2.58693 -2.58693
0.123027 -2.60233 -2.60233
0.150245 -2.61868 -2.61868
0.177136 -2.60295 -2.60295
0.1499 -2.5866 -2.5866
0.150074 -2.60263 -2.60263
0.123153 -2.61838 -2.61838
0.123397 -2.65056 -2.65056
0.177777 -2.65118 -2.65118
0.177353 -2.619 -2.619
0.123276 -2.63446 -2.63446
0.15058 -2.65086 -2.65086
0.177566 -2.63508 -2.63508
0.150245 -2.61868 -2.61868
0.150414 -2.63476 -2.63476
0.123397 -2.65056 -2.65056
0.123633 -2.68285 -2.68285
0.178189 -2.68347 -2.68347
0.177777 -2.65118 -2.65118
0.123516 -2.6667 -2.6667
0.150904 -2.68315 -2.68315
0.177984 -2.66731 -2.66731
0.15058 -2.65086 -2.65086
0.150743 -2.66699 -2.66699
0.123633 -2.68285 -2.68285
0.12386 -2.71524 -2.71524
0.178589 -2.71585 -2.71585
0.178189 -2.68347 -2.68347
0.123748 -2.69904 -2.69904
0.151217 -2.71554 -2.71554
0.178391 -2.69965 -2.69965
0.150904 -2.68315 -2.68315
0.151062 -2.69933 -2.69933
0.12386 -2.71524 -2.71524
0.124078 -2.74774 -2.74774
0.178977 -2.74835 -2.74835
0.178589 -2.71585 -2.71585
0.12397 -2.73148 -2.73148
0.15152 -2.74803 -2.74803
0.178785 -2.73209 -2.73209
0.151217 -2.71554 -2.71554
0.15137 -2.73177 -2.73177
0.124078 -2.74774 -2.74774
0.124287 -2.78033 -2.78033
0.179353 -2.78094 -2.78094
0.178977 -2.74835 -2.74835
0.124183 -2.76402 -2.76402
0.151813 -2.78062 -2.78062
0.179167 -2.76463 -2.76463
0.15152 -2.74803 -2.74803
0.151668 -2.76431 -2.76431
0.124287 -2.78033 -2.78033
0.124487 -2.81302 -2.81302
0.179717 -2.81362 -2.81362
0.179353 -2.78094 -2.78094
0.124388 -2.79666 -2.79666
0.152095 -2.81331 -2.81331
0.179537 -2.79727 -2.79727
0.151813 -2.78062 -2.78062
0.151955 -2.79695 -2.79695
0.124487 -2.81302 -2.81302
0.124678 -2.84581 -2.84581
0.18007 -2.84641 -2.84641
0.179717 -2.81362 -2.81362
0.124583 -2.8294 -2.8294
0.152366 -2.8461 -2.8461
0.179895 -2.83 -2.83
0.152095 -2.81331 -2.81331
0.152232 -2.82969 -2.82969
0.124678 -2.84581 -2.84581
0.12486 -2.87869 -2.87869
0.18041 -2.87929 -2.87929
0.18007 -2.84641 -2.84641
0.12477 -2.86224 -2.86224
0.152627 -2.87898 -2.87898
0.180241 -2.86284 -2.86284
0.152366 -2.8461 -2.8461
0.152498 -2.86253 -2.86253
0.12486 -2.87869 -2.87869
0.125033 -2.91166 -2.91166
0.180738 -2.91226 -2.91226
0.18041 -2.87929 -2.87929
0.124948 -2.89516 -2.89516
0.152878 -2.91195 -2.91195
0.180575 -2.89576 -2.89576
0.152627 -2.87898 -2.87898
0.152754 -2.89545 -2.89545
0.125033 -2.91166 -2.91166
0.125198 -2.94473 -2.94473
0.181054 -2.94532 -2.94532
0.180738 -2.91226 -2.91226
0.125116 -2.92818 -2.92818
0.153118 -2.94501 -2.94501
0.180898 -2.92878 -2.92878
0.152878 -2.91195 -2.91195
0.153 -2.92847 -2.92847
0.125198 -2.94473 -2.94473
0.125353 -2.97788 -2.97788
0.181359 -2.97847 -2.97847
0.181054 -2.94532 -2.94532
0.125277 -2.96129 -2.96129
0.153349 -2.97817 -2.97817
0.181208 -2.96188 -2.96188
0.153118 -2.94501 -2.94501
0.153235 -2.96158 -2.96158
0.125353 -2.97788 -2.97788
0.1255 -3.01112 -3.01112
0.181651 -3.01171 -3.01171
0.181359 -2.97847 -2.97847
0.125428 -2.99449 -2.99449
0.153568 -3.01141 -3.01141
0.181506 -2.99508 -2.99508
0.153349 -2.97817 -2.97817
0.15346 -2.99478 -2.99478
0.1255 -3.01112 -3.01112
0.125638 -3.04445 -3.04445
0.181932 -3.04503 -3.04503
0.181651 -3.01171 -3.01171
0.12557 -3.02777 -3.02777
0.153778 -3.04473 -3.04473
0.181793 -3.02836 -3.02836
0.153568 -3.01141 -3.01141
0.153674 -3.02806 -3.02806
0.125638 -3.04445 -3.04445
0.125767 -3.07786 -3.07786
0.182201 -3.07844 -3.07844
0.181932 -3.04503 -3.04503
0.125704 -3.06114 -3.06114
0.153977 -3.07814 -3.07814
0.182068 -3.06173 -3.06173
0.153778 -3.04473 -3.04473
0.153878 -3.06142 -3.06142
0.125767 -3.07786 -3.07786
0.125888 -3.11135 -3.11135
0.182458 -3.11193 -3.11193
0.182201 -3.07844 -3.07844
0.125829 -3.09459 -3.09459
0.154165 -3.11163 -3.11163
0.182331 -3.09517 -3.09517
0.153977 -3.07814 -3.07814
0.154072 -3.09487 -3.09487
0.125888 -3.11135 -3.11135
0.126 -3.14492 -3.14492
0.182703 -3.1455 -3.1455
0.182458 -3.11193 -3.11193
0.125945 -3.12812 -3.12812
0.154344 -3.1452 -3.1452
0.182582 -3.1287 -3.1287
0.154165 -3.11163 -3.11163
0.154256 -3.1284 -3.1284
0.126 -3.14492 -3.14492
0.126103 -3.17857 -3.17857
0.182937 -3.17914 -3.17914
0.182703 -3.1455 -3.1455
0.126052 -3.16173 -3.16173
0.154512 -3.17885 -3.17885
0.182821 -3.16231 -3.16231
0.154344 -3.1452 -3.1452
0.154429 -3.16201 -3.16201
0.126103 -3.17857 -3.17857
0.126197 -3.21229 -3.21229
0.183158 -3.21286 -3.21286
0.182937 -3.17914 -3.17914
0.126151 -3.19542 -3.19542
0.15467 -3.21257 -3.21257
0.183049 -3.19599 -3.19599
0.154512 -3.17885 -3.17885
0.154593 -3.1957 -3.1957
0.126197 -3.21229 -3.21229
0.126283 -3.24609 -3.24609
0.183368 -3.24666 -3.24666
0.183158 -3.21286 -3.21286
0.126241 -3.22918 -3.22918
0.154818 -3.24637 -3.24637
0.183265 -3.22975 -3.22975
0.15467 -3.21257 -3.21257
0.154746 -3.22946 -3.22946
0.126283 -3.24609 -3.24609
0.12636 -3.27996 -3.27996
0.183567 -3.28053 -3.28053
0.183368 -3.24666 -3.24666
0.126323 -3.26302 -3.26302
0.154956 -3.28024 -3.28024
0.183469 -3.26359 -3.26359
0.154818 -3.24637 -3.24637
0.154888 -3.26329 -3.26329
0.12636 -3.27996 -3.27996
0.126429 -3.31391 -3.31391
0.183754 -3.31447 -3.31447
0.183567 -3.28053 -3.28053
0.126396 -3.29693 -3.29693
0.155084 -3.31418 -3.31418
0.183662 -3.29749 -3.29749
0.154956 -3.28024 -3.28024
0.155021 -3.2972 -3.2972
0.126429 -3.31391 -3.31391
0.126489 -3.34792 -3.34792
0.183929 -3.34848 -3.34848
0.183754 -3.31447 -3.31447
0.12646 -3.3309 -3.3309
0.155201 -3.34819 -3.34819
0.183842 -3.33146 -3.33146
0.155084 -3.31418 -3.31418
0.155144 -3.33118 -3.33118
0.126489 -3.34792 -3.34792
0.12654 -3.382 -3.382
0.184092 -3.38255 -3.38255
0.183929 -3.34848 -3.34848
0.126515 -3.36495 -3.36495
0.155309 -3.38227 -3.38227
0.184012 -3.36551 -3.36551
0.155201 -3.34819 -3.34819
0.155256 -3.36522 -3.36522
0.12654 -3.382 -3.382
0.126583 -3.41614 -3.41614
0.184244 -3.41669 -3.41669
0.184092 -3.38255 -3.38255
0.126563 -3.39906 -3.39906
0.155406 -3.41641 -3.41641
0.184169 -3.39961 -3.39961
0.155309 -3.38227 -3.38227
0.155358 -3.39933 -3.39933
0.126583 -3.41614 -3.41614
0.126617 -3.45035 -3.45035
0.184384 -3.4509 -3.4509
0.184244 -3.41669 -3.41669
0.126601 -3.43324 -3.43324
0.155493 -3.45062 -3.45062
0.184315 -3.43379 -3.43379
0.155406 -3.41641 -3.41641
0.155451 -3.43351 -3.43351
0.126617 -3.45035 -3.45035
0.126643 -3.48462 -3.48462
0.184512 -3.48516 -3.48516
0.184384 -3.4509 -3.4509
0.126631 -3.46748 -3.46748
0.15557 -3.48488 -3.48488
0.18445 -3.46802 -3.46802
0.155493 -3.45062 -3.45062
0.155533 -3.46774 -3.46774
0.126643 -3.48462 -3.48462
0.12666 -3.51895 -3.51895
0.18463 -3.51949 -3.51949
0.184512 -3.48516 -3.48516
0.126653 -3.50178 -3.50178
0.155638 -3.51921 -3.51921
0.184572 -3.50232 -3.50232
0.15557 -3.48488 -3.48488
0.155605 -3.50204 -3.50204
0.12666 -3.51895 -3.51895
0.126669 -3.55333 -3.55333
0.184735 -3.55387 -3.55387
0.18463 -3.51949 -3.51949
0.126666 -3.53613 -3.53613
0.155695 -3.5536 -3.5536
0.184684 -3.53667 -3.53667
0.155638 -3.51921 -3.51921
0.155667 -3.5364 -3.5364
0.126669 -3.55333 -3.55333
0.12667 -3.58778 -3.58778
0.184829 -3.58831 -3.58831
0.184735 -3.55387 -3.55387
0.126671 -3.57055 -3.57055
0.155742 -3.58804 -3.58804
0.184784 -3.57109 -3.57109
0.155695 -3.5536 -3.5536
0.15572 -3.57081 -3.57081
0.12667 -3.58778 -3.58778
0.126662 -3.62228 -3.62228
0.184912 -3.62281 -3.62281
0.184829 -3.58831 -3.58831
0.126667 -3.60502 -3.60502
0.155779 -3.62254 -3.62254
0.184872 -3.60555 -3.60555
0.155742 -3.58804 -3.58804
0.155762 -3.60528 -3.60528
0.126662 -3.62228 -3.62228
0.126646 -3.65683 -3.65683
0.184983 -3.65735 -3.65735
0.184912 -3.62281 -3.62281
0.126655 -3.63954 -3.63954
0.155807 -3.65708 -3.65708
0.184949 -3.64007 -3.64007
0.155779 -3.62254 -3.62254
0.155794 -3.6398 -3.6398
0.126646 -3.65683 -3.65683
0.126621 -3.69143 -3.69143
0.185043 -3.69195 -3.69195
0.184983 -3.65735 -3.65735
0.126634 -3.67412 -3.67412
0.155824 -3.69168 -3.69168
0.185014 -3.67465 -3.67465
0.155807 -3.65708 -3.65708
0.155817 -3.67438 -3.67438
0.126621 -3.69143 -3.69143
0.126588 -3.72608 -3.72608
0.185091 -3.7266 -3.7266
0.185043 -3.69195 -3.69195
0.126605 -3.70875 -3.70875
0.155832 -3.72633 -3.72633
0.185068 -3.70927 -3.70927
0.155824 -3.69168 -3.69168
0.155829 -3.709 -3.709
0.126588 -3.72608 -3.72608
0.126546 -3.76077 -3.76077
0.185128 -3.76129 -3.76129
0.185091 -3.7266 -3.7266
0.126568 -3.74342 -3.74342
0.15583 -3.76103 -3.76103
0.185111 -3.74394 -3.74394
0.155832 -3.72633 -3.72633
0.155832 -3.74367 -3.74367
0.126546 -3.76077 -3.76077
0.126497 -3.79552 -3.79552
0.185153 -3.79603 -3.79603
0.185128 -3.76129 -3.76129
0.126523 -3.77814 -3.77814
0.155818 -3.79577 -3.79577
0.185142 -3.77865 -3.77865
0.15583 -3.76103 -3.76103
0.155825 -3.77839 -3.77839
0.126497 -3.79552 -3.79552
0.126439 -3.8303 -3.8303
0.185168 -3.83081 -3.83081
0.185153 -3.79603 -3.79603
0.126469 -3.8129 -3.8129
0.155796 -3.83055 -3.83055
0.185162 -3.81342 -3.81342
0.155818 -3.79577 -3.79577
0.155808 -3.81315 -3.81315
0.126439 -3.8303 -3.8303
0.126373 -3.86513 -3.86513
0.185171 -3.86564 -3.86564
0.185168 -3.83081 -3.83081
0.126407 -3.84771 -3.84771
0.155764 -3.86538 -3.86538
0.185171 -3.84822 -3.84822
0.155796 -3.83055 -3.83055
0.155781 -3.84796 -3.84796
0.126373 -3.86513 -3.86513
0.126299 -3.9 -3.9
0.185162 -3.9005 -3.9005
0.185171 -3.86564 -3.86564
0.126337 -3.88256 -3.88256
0.155723 -3.90024 -3.90024
0.185168 -3.88306 -3.88306
0.155764 -3.86538 -3.86538
0.155745 -3.88281 -3.88281
0.126299 -3.9 -3.9
0.126216 -3.9349 -3.9349
0.185143 -3.9354 -3.9354
0.185162 -3.9005 -3.9005
0.126258 -3.91744 -3.91744
0.155672 -3.93515 -3.93515
0.185154 -3.91795 -3.91795
0.155723 -3.90024 -3.90024
0.155699 -3.91769 -3.91769
0.126216 -3.9349 -3.9349
0.126125 -3.96984 -3.96984
0.185112 -3.97034 -3.97034
0.185143 -3.9354 -3.9354
0.126172 -3.95237 -3.95237
0.155611 -3.97009 -3.97009
0.185129 -3.95286 -3.95286
0.155672 -3.93515 -3.93515
0.155643 -3.95261 -3.95261
0.126125 -3.96984 -3.96984
0.126027 -4.00482 -4.00482
0.18507 -4.00531 -4.00531
0.185112 -3.97034 -3.97034
0.126077 -3.98733 -3.98733
0.155541 -4.00506 -4.00506
0.185092 -3.98782 -3.98782
0.155611 -3.97009 -3.97009
0.155577 -3.98757 -3.98757
0.126027 -4.00482 -4.00482
0.12592 -4.03983 -4.03983
0.185017 -4.04032 -4.04032
0.18507 -4.00531 -4.00531
0.125974 -4.02232 -4.02232
0.155461 -4.04007 -4.04007
0.185045 -4.02281 -4.02281
0.155541 -4.00506 -4.00506
0.155502 -4.02256 -4.02256
0.12592 -4.03983 -4.03983
0.125805 -4.07487 -4.07487
0.184952 -4.07535 -4.07535
0.185017 -4.04032 -4.04032
0.125863 -4.05734 -4.05734
0.155371 -4.07511 -4.07511
0.184986 -4.05783 -4.05783
0.155461 -4.04007 -4.04007
0.155417 -4.05758 -4.05758
0.125805 -4.07487 -4.07487
0.125681 -4.10994 -4.10994
0.184877 -4.11041 -4.11041
0.184952 -4.07535 -4.07535
0.125744 -4.0924 -4.0924
0.155272 -4.11017 -4.11017
0.184916 -4.09288 -4.09288
0.155371 -4.07511 -4.07511
0.155322 -4.09264 -4.09264
0.125681 -4.10994 -4.10994
0.12555 -4.14503 -4.14503
0.18479 -4.14551 -4.14551
0.184877 -4.11041 -4.11041
0.125617 -4.12748 -4.12748
0.155163 -4.14527 -4.14527
0.184835 -4.12796 -4.12796
0.155272 -4.11017 -4.11017
0.155218 -4.12772 -4.12772
0.12555 -4.14503 -4.14503
0.125411 -4.18015 -4.18015
0.184692 -4.18062 -4.18062
0.18479 -4.14551 -4.14551
0.125482 -4.16259 -4.16259
0.155044 -4.18038 -4.18038
0.184743 -4.16306 -4.16306
0.155163 -4.14527 -4.14527
0.155105 -4.16282 -4.16282
0.125411 -4.18015 -4.18015
0.125264 -4.2153 -4.2153
0.184584 -4.21576 -4.21576
0.184692 -4.18062 -4.18062
0.125339 -4.19772 -4.19772
0.154916 -4.21553 -4.21553
0.184639 -4.19819 -4.19819
0.155044 -4.18038 -4.18038
0.154982 -4.19795 -4.19795
0.125264 -4.2153 -4.2153
0.125109 -4.25046 -4.25046
0.184464 -4.25092 -4.25092
0.184584 -4.21576 -4.21576
0.125187 -4.23288 -4.23288
0.154779 -4.25069 -4.25069
0.184525 -4.23334 -4.23334
0.154916 -4.21553 -4.21553
0.154849 -4.23311 -4.23311
0.125109 -4.25046 -4.25046
0.124946 -4.28565 -4.28565
0.184333 -4.28611 -4.28611
0.184464 -4.25092 -4.25092
0.125028 -4.26805 -4.26805
0.154632 -4.28587 -4.28587
0.1844 -4.26851 -4.26851
0.154779 -4.25069 -4.25069
0.154707 -4.26828 -4.26828
0.124946 -4.28565 -4.28565
0.124775 -4.32085 -4.32085
0.184191 -4.32131 -4.32131
0.184333 -4.28611 -4.28611
0.124861 -4.30325 -4.30325
0.154476 -4.32108 -4.32108
0.184264 -4.3037 -4.3037
0.154632 -4.28587 -4.28587
0.154555 -4.30347 -4.30347
0.124775 -4.32085 -4.32085
0.124596 -4.35607 -4.35607
0.184039 -4.35652 -4.35652
0.184191 -4.32131 -4.32131
0.124686 -4.33846 -4.33846
0.15431 -4.35629 -4.35629
0.184117 -4.33891 -4.33891
0.154476 -4.32108 -4.32108
0.154394 -4.33868 -4.33868
0.124596 -4.35607 -4.35607
0.124409 -4.39131 -4.39131
0.183876 -4.39175 -4.39175
0.184039 -4.35652 -4.35652
0.124504 -4.37369 -4.37369
0.154135 -4.39153 -4.39153
0.183959 -4.37413 -4.37413
0.15431 -4.35629 -4.35629
0.154224 -4.37391 -4.37391
0.124409 -4.39131 -4.39131
0.124214 -4.42655 -4.42655
0.183703 -4.42699 -4.42699
0.183876 -4.39175 -4.39175
0.124313 -4.40893 -4.40893
0.153952 -4.42677 -4.42677
0.183791 -4.40937 -4.40937
0.154135 -4.39153 -4.39153
0.154045 -4.40915 -4.40915
0.124214 -4.42655 -4.42655
0.124011 -4.46181 -4.46181
0.18352 -4.46225 -4.46225
0.183703 -4.42699 -4.42699
0.124114 -4.44418 -4.44418
0.153759 -4.46203 -4.46203
0.183613 -4.44462 -4.44462
0.153952 -4.42677 -4.42677
0.153857 -4.4444 -4.4444
0.124011 -4.46181 -4.46181
0.1238 -4.49708 -4.49708
0.18333 -4.49751 -4.49751
0.18352 -4.46225 -4.46225
0.123907 -4.47944 -4.47944
0.153559 -4.49729 -4.49729
0.183426 -4.47988 -4.47988
0.153759 -4.46203 -4.46203
0.15366 -4.47966 -4.47966
0.1238 -4.49708 -4.49708
0.123579 -4.53236 -4.53236
0.183133 -4.53278 -4.53278
0.18333 -4.49751 -4.49751
0.123691 -4.51471 -4.51471
0.153351 -4.53257 -4.53257
0.183232 -4.51515 -4.51515
0.153559 -4.49729 -4.49729
0.153456 -4.51493 -4.51493
0.123579 -4.53236 -4.53236
0.123349 -4.56765 -4.56765
0.182936 -4.56807 -4.56807
0.183133 -4.53278 -4.53278
0.123465 -4.55 -4.55
0.153134 -4.56786 -4.56786
0.183034 -4.55043 -4.55043
0.153351 -4.53257 -4.53257
0.153243 -4.55021 -4.55021
0.123349 -4.56765 -4.56765
0.123108 -4.60296 -4.60296
0.182747 -4.6034 -4.6034
0.182936 -4.56807 -4.56807
0.123229 -4.5853 -4.5853
0.152905 -4.60318 -4.60318
0.182839 -4.58573 -4.58573
0.153134 -4.56786 -4.56786
0.153021 -4.58551 -4.58551
0.123108 -4.60296 -4.60296
0.122873 -4.63829 -4.63829
0.182563 -4.63886 -4.63886
0.182747 -4.6034 -4.6034
0.122988 -4.62062 -4.62062
0.152665 -4.63857 -4.63857
0.182659 -4.62109 -4.62109
0.152905 -4.60318 -4.60318
0.152783 -4.62086 -4.62086
      </DataArray> 
      <DataArray type="Float64" NumberOfComponents="4" Name="CauchyStress" format="ascii">
-2449.78 -735.694 0 -581.835
-1580.8 29.7064 0 22.9032
-1179.79 -127.626 0 -65.1054
-1114.37 -334.645 0 -44.6067
-1757.92 34.4631 0 -81.46
-1470.79 -90.5021 0 -84.2574
-1157.72 -240.604 0 -75.6745
-1309.66 -393.314 0 -141.437
-1452.33 -198.518 0 -132.428
-1580.8 29.7064 0 22.9032
-1565.99 17.0369 0 7.51928
-1197.42 -38.1141 0 -30.7153
-1179.79 -127.626 0 -65.1054
-1568.05 -5.46038 0 10.3258
-1415.43 -13.2286 0 -13.6993
-1196.41 -65.6957 0 -46.7971
-1470.79 -90.5021 0 -84.2574
-1433.25 -32.5618 0 -33.8428
-1565.99 17.0369 0 7.51928
-1594.97 -5.49541 0 3.95422
-1182.36 -7.03495 0 -11.0492
-1197.42 -38.1141 0 -30.7153
-1582.7 10.991 0 7.67685
-1396.82 -0.409455 0 -0.826295
-1188.38 -18.8783 0 -17.826
-1415.43 -13.2286 0 -13.6993
-1405.29 -4.98923 0 -6.32641
-1594.97 -5.49541 0 3.95422
-1601.92 1.65341 0 0.559378
-1172.03 -0.312008 0 -6.5681
-1182.36 -7.03495 0 -11.0492
-1598.88 -5.05758 0 0.183959
-1388.18 1.30347 0 1.17626
-1177.78 -2.14264 0 -8.0597
-1396.82 -0.409455 0 -0.826295
-1390.85 1.35917 0 1.6489
-1601.92 1.65341 0 0.559378
-1607.6 -1.80045 0 1.39358
-1161.69 2.18832 0 -6.23902
-1172.03 -0.312008 0 -6.5681
-1606.01 1.1651 0 1.65902
-1384.17 1.16601 0 -0.537138
-1166.02 1.30326 0 -5.97251
-1388.18 1.30347 0 1.17626
-1386.58 1.08045 0 0.0450174
-1607.6 -1.80045 0 1.39358
-1605.19 0.300266 0 1.13079
-1154.54 1.75637 0 -7.57685
-1161.69 2.18832 0 -6.23902
-1606.55 -1.29895 0 0.859076
-1379.24 0.835602 0 -2.09408
-1158.23 2.10241 0 -6.94664
-1384.17 1.16601 0 -0.537138
-1381.56 1.10868 0 -1.21855
-1605.19 0.300266 0 1.13079
-1601.45 -0.357996 0 1.58571
-1147.64 1.31745 0 -8.67506
-1154.54 1.75637 0 -7.57685
-1603.79 0.244352 0 1.53883
-1374.01 0.461983 0 -3.28118
-1150.88 1.54952 0 -8.12772
-1379.24 0.835602 0 -2.09408
-1376.83 0.588427 0 -2.81859
-1601.45 -0.357996 0 1.58571
-1594.95 0.112412 0 1.70912
-1141.49 0.719657 0 -9.54238
-1147.64 1.31745 0 -8.67506
-1598.29 -0.231122 0 1.55342
-1367.88 0.252078 0 -3.98272
-1144.6 0.999384 0 -9.17556
-1374.01 0.461983 0 -3.28118
-1370.96 0.366373 0 -3.66247
-1594.95 0.112412 0 1.70912
-1587.8 -0.0124614 0 1.98086
-1135.35 0.356111 0 -10.0124
-1141.49 0.719657 0 -9.54238
-1591.51 0.108359 0 1.89005
-1361.38 0.0918771 0 -4.32835
-1138.38 0.520907 0 -9.80755
-1367.88 0.252078 0 -3.98272
-1364.71 0.152752 0 -4.20153
-1587.8 -0.0124614 0 1.98086
-1579.85 0.0826267 0 2.17123
-1129.35 0.0966144 0 -10.2565
-1135.35 0.356111 0 -10.0124
-1583.86 0.0134789 0 2.0548
-1354.51 0.0153868 0 -4.45489
-1132.37 0.209024 0 -10.1648
-1361.38 0.0918771 0 -4.32835
-1357.96 0.0523516 0 -4.41066
-1579.85 0.0826267 0 2.17123
-1571.68 0.0594462 0 2.38586
-1123.32 -0.0438895 0 -10.3224
-1129.35 0.0966144 0 -10.2565
-1575.8 0.0833594 0 2.28966
-1347.48 -0.0342839 0 -4.43969
-1126.33 0.0169162 0 -10.3036
-1354.51 0.0153868 0 -4.45489
-1351.02 -0.015256 0 -4.46121
-1571.68 0.0594462 0 2.38586
-1563.33 0.0758095 0 2.58048
-1117.31 -0.124624 0 -10.2971
-1123.32 -0.0438895 0 -10.3224
-1567.52 0.0633243 0 2.47893
-1340.33 -0.0549692 0 -4.35311
-1120.32 -0.0913097 0 -10.3197
-1347.48 -0.0342839 0 -4.43969
-1343.91 -0.0455762 0 -4.40276
-1563.33 0.0758095 0 2.58048
-1554.92 0.0708246 0 2.77553
-1111.29 -0.162561 0 -10.2148
-1117.31 -0.124624 0 -10.2971
-1559.13 0.0758381 0 2.68086
-1333.13 -0.0659748 0 -4.22547
-1114.3 -0.147015 0 -10.2603
-1340.33 -0.0549692 0 -4.35311
-1336.74 -0.0620997 0 -4.29271
-1554.92 0.0708246 0 2.77553
-1546.48 0.0722316 0 2.96407
-1105.26 -0.179474 0 -10.1065
-1111.29 -0.162561 0 -10.2148
-1550.71 0.0706774 0 2.8693
-1325.91 -0.0688576 0 -4.08074
-1108.27 -0.173189 0 -10.1631
-1333.13 -0.0659748 0 -4.22547
-1329.52 -0.0677033 0 -4.15448
-1546.48 0.0722316 0 2.96407
-1538.04 0.0703493 0 3.14947
-1099.23 -0.184 0 -9.985
-1105.26 -0.179474 0 -10.1065
-1542.26 0.0717695 0 3.0577
-1318.67 -0.0690536 0 -3.92829
-1102.24 -0.182698 0 -10.0466
-1325.91 -0.0688576 0 -4.08074
-1322.29 -0.0693557 0 -4.00496
-1538.04 0.0703493 0 3.14947
-1529.59 0.0693461 0 3.33107
-1093.19 -0.182887 0 -9.85928
-1099.23 -0.184 0 -9.985
-1533.81 0.0696836 0 3.24053
-1311.43 -0.0674282 0 -3.77458
-1096.21 -0.183975 0 -9.92243
-1318.67 -0.0690536 0 -3.92829
-1315.05 -0.0682884 0 -3.8514
-1529.59 0.0693461 0 3.33107
-1521.13 0.0679931 0 3.50928
-1087.16 -0.178933 0 -9.73283
-1093.19 -0.182887 0 -9.85928
-1525.36 0.0687486 0 3.42068
-1304.19 -0.0652765 0 -3.62188
-1090.17 -0.181112 0 -9.79596
-1311.43 -0.0674282 0 -3.77458
-1307.81 -0.0664293 0 -3.69799
-1521.13 0.0679931 0 3.50928
-1512.69 0.0667143 0 3.68417
-1081.12 -0.173887 0 -9.60772
-1087.16 -0.178933 0 -9.73283
-1516.91 0.067325 0 3.59711
-1296.95 -0.0628638 0 -3.47156
-1084.14 -0.176501 0 -9.67006
-1304.19 -0.0652765 0 -3.62188
-1300.57 -0.064064 0 -3.54639
-1512.69 0.0667143 0 3.68417
-1504.24 0.0654392 0 3.85577
-1075.08 -0.168429 0 -9.48465
-1081.12 -0.173887 0 -9.60772
-1508.46 0.0660873 0 3.77039
-1289.7 -0.0604365 0 -3.32396
-1078.1 -0.171177 0 -9.5459
-1296.95 -0.0628638 0 -3.47156
-1293.33 -0.0616556 0 -3.3974
-1504.24 0.0654392 0 3.85577
-1495.79 0.0641428 0 4.02415
-1069.05 -0.162914 0 -9.36394
-1075.08 -0.168429 0 -9.48465
-1500.01 0.0647884 0 3.94036
-1282.46 -0.0580438 0 -3.17926
-1072.06 -0.165671 0 -9.42399
-1289.7 -0.0604365 0 -3.32396
-1286.08 -0.0592294 0 -3.25125
-1495.79 0.0641428 0 4.02415
-1487.34 0.0628519 0 4.18931
-1063.01 -0.157453 0 -9.24563
-1069.05 -0.162914 0 -9.36394
-1491.57 0.0634993 0 4.10713
-1275.22 -0.0557122 0 -3.03743
-1066.03 -0.160173 0 -9.30448
-1282.46 -0.0580438 0 -3.17926
-1278.84 -0.056872 0 -3.10799
-1487.34 0.0628519 0 4.18931
-1478.9 0.0615344 0 4.35128
-1056.97 -0.152085 0 -9.12973
-1063.01 -0.157453 0 -9.24563
-1483.12 0.0621952 0 4.27069
-1267.98 -0.0534409 0 -2.89844
-1059.99 -0.154758 0 -9.18738
-1275.22 -0.0557122 0 -3.03743
-1271.6 -0.0545686 0 -2.96758
-1478.9 0.0615344 0 4.35128
-1470.45 0.0602056 0 4.51008
-1050.93 -0.146807 0 -9.01617
-1056.97 -0.152085 0 -9.12973
-1474.67 0.0608719 0 4.43107
-1260.73 -0.0512241 0 -2.76224
-1053.95 -0.149435 0 -9.07266
-1267.98 -0.0534409 0 -2.89844
-1264.36 -0.0523265 0 -2.82999
-1470.45 0.0602056 0 4.51008
-1462 0.0588536 0 4.66572
-1044.9 -0.141609 0 -8.90492
-1050.93 -0.146807 0 -9.01617
-1466.23 0.0595322 0 4.58829
-1253.49 -0.0490557 0 -2.62878
-1047.91 -0.144199 0 -8.96026
-1260.73 -0.0512241 0 -2.76224
-1257.11 -0.0501341 0 -2.69517
-1462 0.0588536 0 4.66572
-1453.55 0.0574844 0 4.81822
-1038.86 -0.136482 0 -8.79595
-1044.9 -0.141609 0 -8.90492
-1457.78 0.0581712 0 4.74236
-1246.25 -0.0469303 0 -2.49804
-1041.88 -0.139038 0 -8.85016
-1253.49 -0.0490557 0 -2.62878
-1249.87 -0.047988 0 -2.56307
-1453.55 0.0574844 0 4.81822
-1445.11 0.0560952 0 4.9676
-1032.82 -0.131415 0 -8.68923
-1038.86 -0.136482 0 -8.79595
-1449.33 0.0567922 0 4.8933
-1239.01 -0.044844 0 -2.36999
-1035.84 -0.133941 0 -8.74231
-1246.25 -0.0469303 0 -2.49804
-1242.63 -0.0458825 0 -2.43368
-1445.11 0.0560952 0 4.9676
-1436.66 0.0546887 0 5.11389
-1026.78 -0.126402 0 -8.58473
-1032.82 -0.131415 0 -8.68923
-1440.88 0.055394 0 5.04113
-1231.76 -0.0427938 0 -2.2446
-1029.8 -0.128902 0 -8.6367
-1239.01 -0.044844 0 -2.36999
-1235.38 -0.0438145 0 -2.30696
-1436.66 0.0546887 0 5.11389
-1428.21 0.0532651 0 5.25709
-1020.75 -0.12144 0 -8.48244
-1026.78 -0.126402 0 -8.58473
-1432.44 0.0539789 0 5.18587
-1224.52 -0.0407776 0 -2.12186
-1023.76 -0.123915 0 -8.53331
-1231.76 -0.0427938 0 -2.2446
-1228.14 -0.0417816 0 -2.1829
-1428.21 0.0532651 0 5.25709
-1419.77 0.0518261 0 5.39722
-1014.71 -0.116524 0 -8.38234
-1020.75 -0.12144 0 -8.48244
-1423.99 0.0525474 0 5.32753
-1217.28 -0.0387937 0 -2.00175
-1017.73 -0.118976 0 -8.43212
-1224.52 -0.0407776 0 -2.12186
-1220.9 -0.0397817 0 -2.06147
-1419.77 0.0518261 0 5.39722
-1411.32 0.0503726 0 5.5343
-1008.67 -0.111654 0 -8.28442
-1014.71 -0.116524 0 -8.38234
-1415.54 0.0511011 0 5.46614
-1210.04 -0.0368407 0 -1.88425
-1011.69 -0.114083 0 -8.33311
-1217.28 -0.0387937 0 -2.00175
-1213.66 -0.0378134 0 -1.94267
-1411.32 0.0503726 0 5.5343
-1402.87 0.0489061 0 5.66836
-1002.63 -0.106827 0 -8.18866
-1008.67 -0.111654 0 -8.28442
-1407.09 0.0496409 0 5.60171
-1202.79 -0.0349175 0 -1.76934
-1005.65 -0.109235 0 -8.23627
-1210.04 -0.0368407 0 -1.88425
-1206.41 -0.0358754 0 -1.82647
-1402.87 0.0489061 0 5.66836
-1394.42 0.0474276 0 5.7994
-996.595 -0.102042 0 -8.09506
-1002.63 -0.106827 0 -8.18866
-1398.65 0.0481683 0 5.73425
-1195.55 -0.0330229 0 -1.65702
-999.614 -0.104429 0 -8.14159
-1202.79 -0.0349175 0 -1.76934
-1199.17 -0.0339666 0 -1.71286
-1394.42 0.0474276 0 5.7994
-1385.98 0.0459385 0 5.92745
-990.557 -0.0972997 0 -8.00359
-996.595 -0.102042 0 -8.09506
-1390.2 0.0466843 0 5.8638
-1188.31 -0.0311559 0 -1.54726
-993.576 -0.0996659 0 -8.04906
-1195.55 -0.0330229 0 -1.65702
-1191.93 -0.032086 0 -1.60182
-1385.98 0.0459385 0 5.92745
-1377.53 0.0444398 0 6.05252
-984.519 -0.0925977 0 -7.91424
-990.557 -0.0972997 0 -8.00359
-1381.75 0.0451902 0 5.99036
-1181.06 -0.0293155 0 -1.44006
-987.538 -0.0949437 0 -7.95865
-1188.31 -0.0311559 0 -1.54726
-1184.68 -0.0302324 0 -1.49334
-1377.53 0.0444398 0 6.05252
-1369.08 0.0429327 0 6.17464
-978.481 -0.0879357 0 -7.82701
-984.519 -0.0925977 0 -7.91424
-1373.3 0.0436872 0 6.11395
-1173.82 -0.0275008 0 -1.33539
-981.5 -0.0902618 0 -7.87036
-1181.06 -0.0293155 0 -1.44006
-1177.44 -0.028405 0 -1.38741
-1369.08 0.0429327 0 6.17464
-1360.63 0.0414184 0 6.29382
-972.443 -0.0833129 0 -7.74188
-978.481 -0.0879357 0 -7.82701
-1364.86 0.0421764 0 6.23459
-1166.58 -0.0257108 0 -1.23323
-975.462 -0.0856195 0 -7.78418
-1173.82 -0.0275008 0 -1.33539
-1170.2 -0.0266028 0 -1.284
-1360.63 0.0414184 0 6.29382
-1352.18 0.039898 0 6.41007
-966.405 -0.0787286 0 -7.65883
-972.443 -0.0833129 0 -7.74188
-1356.41 0.0406589 0 6.35231
-1159.33 -0.0239445 0 -1.13359
-969.424 -0.081016 0 -7.7001
-1166.58 -0.0257108 0 -1.23323
-1162.95 -0.0248248 0 -1.1831
-1352.18 0.039898 0 6.41007
-1343.74 0.0383726 0 6.52343
-960.367 -0.074182 0 -7.57786
-966.405 -0.0787286 0 -7.65883
-1347.96 0.0391359 0 6.46711
-1152.09 -0.0222011 0 -1.03643
-963.386 -0.0764506 0 -7.61809
-1159.33 -0.0239445 0 -1.13359
-1155.71 -0.02307 0 -1.08469
-1343.74 0.0383726 0 6.52343
-1335.29 0.0368432 0 6.63389
-954.329 -0.0696724 0 -7.49895
-960.367 -0.074182 0 -7.57786
-1339.51 0.0376083 0 6.57902
-1144.85 -0.0204797 0 -0.941738
-957.348 -0.0719226 0 -7.53815
-1152.09 -0.0222011 0 -1.03643
-1148.47 -0.0213377 0 -0.988773
-1335.29 0.0368432 0 6.63389
-1326.84 0.0353109 0 6.7415
-948.29 -0.065199 0 -7.42209
-954.329 -0.0696724 0 -7.49895
-1331.06 0.0360773 0 6.68805
-1137.6 -0.0187793 0 -0.849508
-951.31 -0.0674312 0 -7.46026
-1144.85 -0.0204797 0 -0.941738
-1141.22 -0.0196269 0 -0.895317
-1326.84 0.0353109 0 6.7415
-1318.39 0.0337767 0 6.84625
-942.252 -0.0607613 0 -7.34726
-948.29 -0.065199 0 -7.42209
-1322.61 0.034544 0 6.79423
-1130.36 -0.017099 0 -0.75972
-945.271 -0.0629757 0 -7.38442
-1137.6 -0.0187793 0 -0.849508
-1133.98 -0.0179367 0 -0.80431
-1318.39 0.0337767 0 6.84625
-1309.94 0.0322417 0 6.94817
-936.214 -0.0563584 0 -7.27445
-942.252 -0.0607613 0 -7.34726
-1314.17 0.0330093 0 6.89756
-1123.11 -0.0154382 0 -0.672359
-939.233 -0.0585555 0 -7.3106
-1130.36 -0.017099 0 -0.75972
-1126.74 -0.0162662 0 -0.715737
-1309.94 0.0322417 0 6.94817
-1301.49 0.0307068 0 7.04728
-930.176 -0.0519897 0 -7.20366
-936.214 -0.0563584 0 -7.27445
-1305.72 0.0314742 0 6.99808
-1115.87 -0.0137958 0 -0.587408
-933.195 -0.0541698 0 -7.2388
-1123.11 -0.0154382 0 -0.672359
-1119.49 -0.0146147 0 -0.629583
-1301.49 0.0307068 0 7.04728
-1293.04 0.029173 0 7.1436
-924.137 -0.0476546 0 -7.13485
-930.176 -0.0519897 0 -7.20366
-1297.27 0.0299397 0 7.09579
-1108.63 -0.012171 0 -0.504853
-927.157 -0.049818 0 -7.16901
-1115.87 -0.0137958 0 -0.587408
-1112.25 -0.0129812 0 -0.545832
-1293.04 0.029173 0 7.1436
-1284.59 0.0276412 0 7.23714
-918.099 -0.0433523 0 -7.06804
-924.137 -0.0476546 0 -7.13485
-1288.82 0.0284068 0 7.19071
-1101.38 -0.0105632 0 -0.424677
-921.118 -0.0454993 0 -7.1012
-1108.63 -0.012171 0 -0.504853
-1105.01 -0.0113651 0 -0.464469
-1284.59 0.0276412 0 7.23714
-1276.15 0.0261125 0 7.32792
-912.061 -0.0390822 0 -7.00319
-918.099 -0.0433523 0 -7.06804
-1280.37 0.0268764 0 7.28287
-1094.14 -0.00897144 0 -0.346866
-915.08 -0.0412133 0 -7.03537
-1101.38 -0.0105632 0 -0.424677
-1097.76 -0.00976536 0 -0.385477
-1276.15 0.0261125 0 7.32792
-1267.7 0.0245876 0 7.41596
-906.022 -0.0348438 0 -6.9403
-912.061 -0.0390822 0 -7.00319
-1271.92 0.0253495 0 7.37228
-1086.9 -0.00739498 0 -0.271403
-909.042 -0.0369591 0 -6.9715
-1094.14 -0.00897144 0 -0.346866
-1090.52 -0.00818135 0 -0.308842
-1267.7 0.0245876 0 7.41596
-1259.25 0.0230675 0 7.50128
-899.984 -0.0306363 0 -6.87935
-906.022 -0.0348438 0 -6.9403
-1263.47 0.0238269 0 7.45896
-1079.65 -0.0058331 0 -0.198274
-903.003 -0.0327362 0 -6.90958
-1086.9 -0.00739499 0 -0.271403
-1083.27 -0.00661225 0 -0.234548
-1259.25 0.0230675 0 7.50128
-1250.8 0.021553 0 7.58389
-893.945 -0.0264592 0 -6.82034
-899.984 -0.0306363 0 -6.87935
-1255.02 0.0223095 0 7.54292
-1072.41 -0.00428498 0 -0.127462
-896.965 -0.028544 0 -6.84961
-1079.65 -0.0058331 0 -0.198274
-1076.03 -0.00505739 0 -0.162579
-1250.8 0.021553 0 7.58389
-1242.35 0.0200451 0 7.66382
-887.907 -0.0223118 0 -6.76324
-893.945 -0.0264592 0 -6.82034
-1246.57 0.0207982 0 7.62419
-1065.16 -0.00274998 0 -0.0589524
-890.926 -0.0243818 0 -6.79155
-1072.41 -0.00428498 0 -0.127462
-1068.79 -0.00351584 0 -0.0929204
-1242.35 0.0200451 0 7.66382
-1233.9 0.0185446 0 7.74109
-881.868 -0.0181938 0 -6.70805
-887.907 -0.0223118 0 -6.76324
-1238.13 0.0192939 0 7.70279
-1057.92 -0.00122739 0 0.00727085
-884.888 -0.0202492 0 -6.73541
-1065.16 -0.00274998 0 -0.0589524
-1061.54 -0.00198721 0 -0.0255559
-1233.9 0.0185446 0 7.74109
-1225.45 0.0170522 0 7.8157
-875.83 -0.0141043 0 -6.65476
-881.868 -0.0181938 0 -6.70805
-1229.68 0.0177973 0 7.77872
-1050.67 0.000283556 0 0.071223
-878.849 -0.0161455 0 -6.68117
-1057.92 -0.00122739 0 0.00727085
-1054.3 -0.000470482 0 0.0395298
-1225.45 0.0170522 0 7.8157
-1217 0.0155688 0 7.88768
-869.791 -0.0100429 0 -6.60334
-875.83 -0.0141043 0 -6.65476
-1221.23 0.0163093 0 7.85202
-1043.43 0.00178347 0 0.13292
-872.811 -0.0120701 0 -6.62881
-1050.67 0.000283555 0 0.071223
-1047.05 0.00103485 0 0.102352
-1217 0.0155688 0 7.88768
-1208.55 0.0140951 0 7.95705
-863.753 -0.00600902 0 -6.55379
-869.791 -0.0100429 0 -6.60334
-1212.78 0.0148307 0 7.92269
-1036.19 0.00327304 0 0.192376
-866.772 -0.00802254 0 -6.57833
-1043.43 0.00178347 0 0.13292
-1039.81 0.00252951 0 0.162927
-1208.55 0.0140951 0 7.95705
-1200.1 0.012632 0 8.02383
-857.714 -0.00200219 0 -6.50609
-863.753 -0.00600902 0 -6.55379
-1204.33 0.0133622 0 7.99076
-1028.94 0.00475289 0 0.249609
-860.733 -0.00400226 0 -6.52971
-1036.19 0.00327304 0 0.192376
-1032.56 0.00401414 0 0.22127
-1200.1 0.012632 0 8.02383
-1191.65 0.0111801 0 8.08803
-851.675 0.00197812 0 -6.46024
-857.714 -0.00200219 0 -6.50609
-1195.88 0.0119046 0 8.05625
-1021.7 0.00622366 0 0.304632
-854.695 -8.75117e-06 0 -6.48293
-1028.94 0.00475289 0 0.249609
-1025.32 0.00548938 0 0.277396
-1191.65 0.0111801 0 8.08803
-1183.2 0.00974025 0 8.14966
-845.637 0.00593243 0 -6.41621
-851.675 0.00197812 0 -6.46024
-1187.43 0.0104586 0 8.11916
-1014.45 0.00768597 0 0.357462
-848.656 0.0039585 0 -6.43799
-1021.7 0.00622367 0 0.304632
-1018.08 0.00695584 0 0.33132
-1183.2 0.00974025 0 8.14966
-1174.75 0.00831307 0 8.20876
-839.598 0.00986124 0 -6.37399
-845.637 0.00593243 0 -6.41621
-1178.98 0.00902503 0 8.17953
-1007.21 0.00914043 0 0.408114
-842.617 0.0079 0 -6.39487
-1014.45 0.00768598 0 0.357462
-1010.83 0.00841415 0 0.38306
-1174.75 0.00831307 0 8.20876
-1166.3 0.0068993 0 8.26534
-833.559 0.013765 0 -6.33358
-839.598 0.00986124 0 -6.37399
-1170.53 0.00760448 0 8.23736
-999.964 0.0105876 0 0.456604
-836.579 0.0118162 0 -6.35356
-1007.21 0.00914043 0 0.408114
-1003.59 0.00986489 0 0.432629
-1166.3 0.0068993 0 8.26534
-1157.85 0.0054996 0 8.31941
-827.52 0.0176442 0 -6.29496
-833.559 0.013765 0 -6.33358
-1162.08 0.00619766 0 8.29269
-992.719 0.012028 0 0.502948
-830.54 0.0157076 0 -6.31405
-999.964 0.0105876 0 0.456604
-996.341 0.0113086 0 0.480043
-1157.85 0.00549959 0 8.31941
-1149.4 0.00411462 0 8.371
-821.482 0.0214992 0 -6.25811
-827.52 0.0176442 0 -6.29496
-1153.63 0.00480523 0 8.34551
-985.475 0.0134623 0 0.54716
-824.501 0.0195747 0 -6.27632
-992.719 0.012028 0 0.502948
-989.097 0.0127459 0 0.525319
-1149.4 0.00411462 0 8.371
-1140.95 0.002745 0 8.42011
-815.443 0.0253306 0 -6.22303
-821.482 0.0214992 0 -6.25811
-1145.18 0.00342784 0 8.39586
-978.23 0.014891 0 0.589256
-818.462 0.0234178 0 -6.24035
-985.475 0.0134623 0 0.54716
-981.852 0.0141774 0 0.568472
-1140.95 0.002745 0 8.42011
-1132.5 0.00139138 0 8.46678
-809.404 0.0291387 0 -6.1897
-815.443 0.0253306 0 -6.22303
-1136.73 0.00206615 0 8.44375
-970.985 0.0163146 0 0.629253
-812.423 0.0272375 0 -6.20615
-978.23 0.014891 0 0.589256
-974.608 0.0156034 0 0.609516
-1132.5 0.00139138 0 8.46678
-1124.05 5.43431e-05 0 8.51102
-803.365 0.0329239 0 -6.1581
-809.404 0.0291387 0 -6.1897
-1128.28 0.000720751 0 8.4892
-963.74 0.0177336 0 0.667164
-806.385 0.0310341 0 -6.17368
-970.985 0.0163146 0 0.629253
-967.363 0.0170246 0 0.648468
-1124.05 5.43429e-05 0 8.51102
-1115.6 -0.00126551 0 8.55284
-797.326 0.0366867 0 -6.12823
-803.365 0.0329239 0 -6.1581
-1119.83 -0.000607774 0 8.53223
-956.496 0.0191485 0 0.703007
-800.346 0.0348081 0 -6.14295
-963.74 0.0177336 0 0.667164
-960.118 0.0184415 0 0.685343
-1115.6 -0.0012655 0 8.55284
-1107.15 -0.0025676 0 8.59226
-791.287 0.0404275 0 -6.10007
-797.326 0.0366867 0 -6.12823
-1111.38 -0.0019188 0 8.57285
-949.251 0.0205598 0 0.736796
-794.307 0.0385599 0 -6.11394
-956.496 0.0191485 0 0.703007
-952.873 0.0198546 0 0.720157
-1107.15 -0.0025676 0 8.59226
-1098.7 -0.00385139 0 8.62931
-785.248 0.0441466 0 -6.07361
-791.287 0.0404275 0 -6.10007
-1102.93 -0.00321182 0 8.61108
-942.006 0.021968 0 0.768548
-788.268 0.0422897 0 -6.08663
-949.251 0.0205598 0 0.736796
-945.628 0.0212643 0 0.752926
-1098.7 -0.00385139 0 8.62931
-1090.25 -0.00511631 0 8.664
-779.209 0.0478444 0 -6.04883
-785.248 0.0441466 0 -6.07361
-1094.48 -0.00448623 0 8.64695
-934.761 0.0233734 0 0.798276
-782.229 0.0459981 0 -6.06101
-942.006 0.021968 0 0.768548
-938.384 0.022671 0 0.783664
-1090.25 -0.00511631 0 8.664
-1081.8 -0.00636188 0 8.69635
-773.171 0.0515212 0 -6.02573
-779.209 0.0478444 0 -6.04883
-1086.03 -0.00574155 0 8.68047
-927.516 0.0247767 0 0.825998
-776.19 0.0496854 0 -6.03707
-934.761 0.0233734 0 0.798276
-931.139 0.0240753 0 0.812387
-1081.8 -0.00636188 0 8.69635
-1073.35 -0.00758756 0 8.72638
-767.132 0.0551774 0 -6.00429
-773.171 0.0515212 0 -6.02573
-1077.58 -0.00697723 0 8.71165
-920.271 0.0261781 0 0.851729
-770.151 0.0533518 0 -6.0148
-927.516 0.0247767 0 0.825998
-923.894 0.0254776 0 0.839112
-1073.35 -0.00758756 0 8.72638
-1064.9 -0.00879289 0 8.7541
-761.093 0.0588133 0 -5.98449
-767.132 0.0551774 0 -6.00429
-1069.13 -0.0081928 0 8.74052
-913.026 0.0275781 0 0.875484
-764.112 0.0569979 0 -5.99418
-920.271 0.0261781 0 0.851729
-916.649 0.0268782 0 0.863852
-1064.9 -0.00879289 0 8.7541
-1056.45 -0.00997736 0 8.77953
-755.054 0.0624293 0 -5.96633
-761.093 0.0588133 0 -5.98449
-1060.68 -0.00938776 0 8.7671
-905.781 0.0289771 0 0.897278
-758.073 0.0606238 0 -5.9752
-913.026 0.0275781 0 0.875484
-909.404 0.0282777 0 0.886625
-1056.45 -0.00997736 0 8.77953
-1048 -0.0111405 0 8.8027
-749.015 0.0660257 0 -5.94978
-755.054 0.0624293 0 -5.96633
-1052.23 -0.0105616 0 8.7914
-898.536 0.0303754 0 0.917128
-752.034 0.0642299 0 -5.95785
-905.781 0.028977 0 0.897278
-902.159 0.0296763 0 0.907445
-1048 -0.0111405 0 8.8027
-1039.55 -0.012282 0 8.82361
-742.975 0.0696027 0 -5.93485
-749.015 0.0660257 0 -5.94978
-1043.77 -0.011714 0 8.81343
-891.291 0.0317735 0 0.935049
-745.995 0.0678166 0 -5.94212
-898.536 0.0303754 0 0.917128
-894.914 0.0310745 0 0.926329
-1039.55 -0.012282 0 8.82361
-1031.1 -0.0134012 0 8.84229
-736.936 0.0731606 0 -5.92151
-742.975 0.0696027 0 -5.93485
-1035.32 -0.0128444 0 8.83323
-884.046 0.0331717 0 0.951056
-739.956 0.071384 0 -5.92798
-891.291 0.0317735 0 0.935049
-887.668 0.0324726 0 0.943291
-1031.1 -0.0134012 0 8.84229
-1022.65 -0.0144979 0 8.85876
-730.897 0.0766998 0 -5.90975
-736.936 0.0731606 0 -5.92151
-1026.87 -0.0139524 0 8.8508
-876.801 0.0345703 0 0.965165
-733.917 0.0749325 0 -5.91543
-884.046 0.0331717 0 0.951056
-880.423 0.0338709 0 0.958347
-1022.65 -0.0144979 0 8.85876
-1014.2 -0.0155716 0 8.87303
-724.858 0.0802205 0 -5.89956
-730.897 0.0766998 0 -5.90975
-1018.42 -0.0150377 0 8.86617
-869.555 0.0359697 0 0.977392
-727.878 0.0784624 0 -5.90446
-876.801 0.0345703 0 0.965165
-873.178 0.0352699 0 0.971513
-1014.2 -0.0155716 0 8.87303
-1005.75 -0.016622 0 8.88513
-718.819 0.0837229 0 -5.89093
-724.858 0.0802205 0 -5.89956
-1009.97 -0.0160998 0 8.87935
-862.31 0.0373702 0 0.987751
-721.839 0.081974 0 -5.89505
-869.555 0.0359697 0 0.977392
-865.933 0.0366698 0 0.982804
-1005.75 -0.016622 0 8.88513
-997.295 -0.0176486 0 8.89506
-712.78 0.0872073 0 -5.88384
-718.819 0.0837229 0 -5.89093
-1001.52 -0.0171383 0 8.89036
-855.065 0.0387722 0 0.996259
-715.8 0.0854673 0 -5.88719
-862.31 0.0373702 0 0.987751
-858.688 0.038071 0 0.992236
-997.295 -0.0176486 0 8.89506
-988.844 -0.0186512 0 8.90285
-706.741 0.0906739 0 -5.87828
-712.78 0.0872073 0 -5.88384
-993.069 -0.0181529 0 8.89922
-847.82 0.0401758 0 1.00293
-709.76 0.0889428 0 -5.88087
-855.065 0.0387722 0 0.996259
-851.442 0.0394737 0 0.999824
-988.844 -0.0186512 0 8.90285
-980.393 -0.0196293 0 8.90852
-700.702 0.094123 0 -5.87423
-706.741 0.0906739 0 -5.87828
-984.618 -0.0191433 0 8.90595
-840.574 0.0415813 0 1.00778
-703.721 0.0924007 0 -5.87607
-847.82 0.0401757 0 1.00293
-844.197 0.0408783 0 1.00558
-980.393 -0.0196293 0 8.90852
-971.942 -0.0205828 0 8.91209
-694.663 0.0975548 0 -5.87169
-700.702 0.094123 0 -5.87423
-976.167 -0.0201092 0 8.91057
-833.329 0.0429891 0 1.01083
-697.682 0.095841 0 -5.87278
-840.574 0.0415813 0 1.00778
-836.952 0.0422849 0 1.00953
-971.942 -0.0205828 0 8.91209
-963.491 -0.0215111 0 8.91356
-688.623 0.100969 0 -5.87065
-694.663 0.0975548 0 -5.87169
-967.716 -0.0210501 0 8.91308
-826.084 0.0443994 0 1.01209
-691.643 0.0992642 0 -5.87098
-833.329 0.0429891 0 1.01083
-829.706 0.043694 0 1.01168
-963.491 -0.0215111 0 8.91356
-955.039 -0.0224142 0 8.91297
-682.584 0.104367 0 -5.87108
-688.623 0.100969 0 -5.87065
-959.265 -0.0219658 0 8.91352
-818.838 0.0458125 0 1.01157
-685.604 0.10267 0 -5.87068
-826.084 0.0443994 0 1.01209
-822.461 0.0451056 0 1.01205
-955.039 -0.0224142 0 8.91297
-946.588 -0.0232916 0 8.91033
-676.545 0.107748 0 -5.87297
-682.584 0.104367 0 -5.87108
-950.814 -0.0228561 0 8.9119
-811.593 0.0472285 0 1.0093
-679.565 0.10606 0 -5.87184
-818.838 0.0458125 0 1.01157
-815.215 0.0465201 0 1.01065
-946.588 -0.0232916 0 8.91033
-938.137 -0.0241432 0 8.90565
-670.506 0.111112 0 -5.87632
-676.545 0.107748 0 -5.87297
-942.363 -0.0237207 0 8.90824
-804.347 0.0486477 0 1.00528
-673.525 0.109432 0 -5.87447
-811.593 0.0472285 0 1.0093
-807.97 0.0479377 0 1.00751
-938.137 -0.0241432 0 8.90565
-929.685 -0.0249687 0 8.89896
-664.467 0.11446 0 -5.88111
-670.506 0.111112 0 -5.87632
-933.911 -0.0245592 0 8.90255
-797.102 0.0500703 0 0.999536
-667.486 0.112788 0 -5.87853
-804.347 0.0486477 0 1.00528
-800.725 0.0493586 0 1.00262
-929.685 -0.0249687 0 8.89896
-921.234 -0.0257677 0 8.89027
-658.427 0.117792 0 -5.88732
-664.467 0.11446 0 -5.88111
-925.46 -0.0253715 0 8.89486
-789.856 0.0514965 0 0.992081
-661.447 0.116128 0 -5.88404
-797.102 0.0500703 0 0.999536
-793.479 0.0507829 0 0.996022
-921.234 -0.0257677 0 8.89027
-912.783 -0.0265402 0 8.8796
-652.388 0.121107 0 -5.89495
-658.427 0.117792 0 -5.88732
-917.008 -0.0261573 0 8.88518
-782.611 0.0529264 0 0.982929
-655.408 0.119452 0 -5.89096
-789.856 0.0514965 0 0.992081
-786.234 0.052211 0 0.987716
-912.783 -0.0265402 0 8.8796
-904.331 -0.027286 0 8.86698
-646.349 0.124407 0 -5.90398
-652.388 0.121107 0 -5.89495
-908.557 -0.0269165 0 8.87353
-775.365 0.0543603 0 0.972097
-649.369 0.122759 0 -5.89929
-782.611 0.0529264 0 0.982929
-778.988 0.0536429 0 0.977722
-904.331 -0.027286 0 8.86698
-895.88 -0.0280047 0 8.85241
-640.31 0.127691 0 -5.91439
-646.349 0.124407 0 -5.90398
-900.105 -0.0276487 0 8.85993
-768.12 0.0557983 0 0.9596
-643.329 0.126051 0 -5.90901
-775.365 0.0543603 0 0.972097
-771.742 0.0550788 0 0.966056
-895.88 -0.0280047 0 8.85241
-887.428 -0.0286963 0 8.83591
-634.27 0.130959 0 -5.92618
-640.31 0.127691 0 -5.91439
-891.654 -0.0283539 0 8.8444
-760.874 0.0572406 0 0.945454
-637.29 0.129327 0 -5.92012
-768.12 0.0557983 0 0.9596
-764.497 0.0565189 0 0.952732
-887.428 -0.0286963 0 8.83591
-878.976 -0.0293605 0 8.81751
-628.231 0.134211 0 -5.93933
-634.27 0.130959 0 -5.92618
-883.202 -0.0290318 0 8.82695
-753.628 0.0586872 0 0.929674
-631.251 0.132587 0 -5.93259
-760.874 0.0572406 0 0.945454
-757.251 0.0579634 0 0.937767
-878.976 -0.0293605 0 8.81751
-870.525 -0.0299973 0 8.79723
-622.192 0.137448 0 -5.95383
-628.231 0.134211 0 -5.93933
-874.751 -0.0296824 0 8.8076
-746.383 0.0601384 0 0.912275
-625.211 0.135831 0 -5.94642
-753.628 0.0586872 0 0.929674
-750.005 0.0594122 0 0.921176
-870.525 -0.0299973 0 8.79723
-862.073 -0.0306064 0 8.77507
-616.153 0.140669 0 -5.96967
-622.192 0.137448 0 -5.95383
-866.299 -0.0303053 0 8.78638
-739.137 0.0615942 0 0.893274
-619.172 0.13906 0 -5.96159
-746.383 0.0601384 0 0.912275
-742.76 0.0608657 0 0.902974
-862.073 -0.0306064 0 8.77507
-853.621 -0.0311878 0 8.75106
-610.113 0.143875 0 -5.98683
-616.153 0.140669 0 -5.96967
-857.847 -0.0309006 0 8.76329
-731.891 0.0630547 0 0.872686
-613.133 0.142274 0 -5.97808
-739.137 0.0615942 0 0.893274
-735.514 0.0623239 0 0.883177
-853.621 -0.0311878 0 8.75106
-845.169 -0.0317413 0 8.72522
-604.074 0.147066 0 -6.0053
-610.113 0.143875 0 -5.98683
-849.395 -0.031468 0 8.73837
-724.645 0.0645201 0 0.850526
-607.094 0.145472 0 -5.9959
-731.891 0.0630547 0 0.872686
-728.268 0.0637868 0 0.861801
-845.169 -0.0317413 0 8.72522
-836.718 -0.0322667 0 8.69756
-598.035 0.150241 0 -6.02506
-604.074 0.147066 0 -6.0053
-840.943 -0.0320075 0 8.71161
-717.4 0.0659903 0 0.82681
-601.054 0.148655 0 -6.01502
-724.645 0.0645201 0 0.850526
-721.023 0.0652546 0 0.838861
-836.718 -0.0322667 0 8.69756
-828.266 -0.0327642 0 8.66811
-591.995 0.153401 0 -6.04611
-598.035 0.150241 0 -6.02506
-832.492 -0.032519 0 8.68306
-710.154 0.0674656 0 0.801553
-595.015 0.151823 0 -6.03543
-717.4 0.0659903 0 0.82681
-713.777 0.0667273 0 0.814373
-828.266 -0.0327642 0 8.66811
-819.814 -0.0332335 0 8.63687
-585.956 0.156546 0 -6.06843
-591.995 0.153401 0 -6.04611
-824.04 -0.0330023 0 8.65271
-702.908 0.0689459 0 0.774771
-588.976 0.154976 0 -6.05711
-710.154 0.0674656 0 0.801553
-706.531 0.0682051 0 0.788352
-819.814 -0.0332335 0 8.63687
-811.362 -0.0336745 0 8.60388
-579.916 0.159676 0 -6.09201
-585.956 0.156546 0 -6.06843
-815.588 -0.0334575 0 8.62059
-695.662 0.0704313 0 0.74648
-582.936 0.158113 0 -6.08007
-702.908 0.0689459 0 0.774771
-699.285 0.0696879 0 0.760813
-811.362 -0.0336745 0 8.60388
-802.91 -0.0340873 0 8.56914
-573.877 0.162791 0 -6.11683
-579.916 0.159676 0 -6.09201
-807.136 -0.0338845 0 8.58673
-688.416 0.0719218 0 0.716695
-576.897 0.161236 0 -6.10427
-695.662 0.0704313 0 0.74648
-692.039 0.0711759 0 0.731773
-802.91 -0.0340873 0 8.56914
-794.458 -0.0344718 0 8.53268
-567.838 0.165891 0 -6.14289
-573.877 0.162791 0 -6.11683
-798.684 -0.0342831 0 8.55113
-681.17 0.0734175 0 0.685431
-570.857 0.164343 0 -6.12971
-688.416 0.0719218 0 0.716695
-684.793 0.072669 0 0.701247
-794.458 -0.0344718 0 8.53268
-786.005 -0.0348279 0 8.49451
-561.798 0.168976 0 -6.17016
-567.838 0.165891 0 -6.14289
-790.232 -0.0346534 0 8.51381
-673.924 0.0749184 0 0.652705
-564.818 0.167435 0 -6.15638
-681.17 0.0734175 0 0.685431
-677.547 0.0741673 0 0.66925
-786.005 -0.0348279 0 8.49451
-777.553 -0.0351557 0 8.45466
-555.759 0.172046 0 -6.19865
-561.798 0.168976 0 -6.17016
-781.779 -0.0349953 0 8.47479
-666.678 0.0764244 0 0.618531
-558.779 0.170513 0 -6.18426
-673.924 0.0749184 0 0.652705
-670.301 0.0756707 0 0.635798
-777.553 -0.0351557 0 8.45466
-769.101 -0.035455 0 8.41313
-549.72 0.1751 0 -6.22832
-555.759 0.172046 0 -6.19865
-773.327 -0.0353089 0 8.4341
-659.432 0.0779357 0 0.582926
-552.739 0.173575 0 -6.21333
-666.678 0.0764244 0 0.618531
-663.055 0.0771794 0 0.600907
-769.101 -0.035455 0 8.41313
-760.649 -0.0357261 0 8.36995
-543.68 0.17814 0 -6.25917
-549.72 0.1751 0 -6.22832
-764.875 -0.0355941 0 8.39175
-652.186 0.0794521 0 0.545905
-546.7 0.176622 0 -6.2436
-659.432 0.0779357 0 0.582926
-655.809 0.0786933 0 0.564591
-760.649 -0.0357261 0 8.36995
-752.196 -0.0359687 0 8.32514
-537.641 0.181164 0 -6.2912
-543.68 0.17814 0 -6.25917
-756.423 -0.0358509 0 8.34775
-644.94 0.0809738 0 0.507482
-540.66 0.179654 0 -6.27504
-652.186 0.0794521 0 0.545905
-648.563 0.0802123 0 0.526868
-752.196 -0.0359687 0 8.32514
-743.744 -0.036183 0 8.27871
-531.601 0.184173 0 -6.32437
-537.641 0.181164 0 -6.2912
-747.97 -0.0360794 0 8.30212
-637.694 0.0825005 0 0.467675
-534.621 0.182671 0 -6.30764
-644.94 0.0809738 0 0.507482
-641.317 0.0817365 0 0.487751
-743.744 -0.036183 0 8.27871
-735.292 -0.036369 0 8.23068
-525.562 0.187168 0 -6.35869
-531.601 0.184173 0 -6.32437
-739.518 -0.0362796 0 8.2549
-630.448 0.0840324 0 0.426498
-528.582 0.185672 0 -6.34139
-637.694 0.0825005 0 0.467675
-634.071 0.0832658 0 0.447257
-735.292 -0.036369 0 8.23068
-726.839 -0.0365268 0 8.18108
-519.522 0.190147 0 -6.39414
-525.562 0.187168 0 -6.35869
-731.066 -0.0364515 0 8.20608
-623.202 0.0855694 0 0.383968
-522.542 0.188659 0 -6.37627
-630.448 0.0840324 0 0.426498
-626.825 0.0848003 0 0.405401
-726.839 -0.0365268 0 8.18108
-718.387 -0.0366564 0 8.12991
-513.483 0.19311 0 -6.4307
-519.522 0.190147 0 -6.39414
-722.613 -0.0365951 0 8.15569
-615.956 0.0871113 0 0.340098
-516.503 0.19163 0 -6.41228
-623.202 0.0855694 0 0.383968
-619.579 0.0863397 0 0.362199
-718.387 -0.0366564 0 8.12991
-709.934 -0.0367579 0 8.0772
-507.443 0.196059 0 -6.46836
-513.483 0.19311 0 -6.4307
-714.161 -0.0367107 0 8.10375
-608.71 0.0886581 0 0.294906
-510.463 0.194586 0 -6.44939
-615.956 0.0871113 0 0.340098
-612.333 0.0878841 0 0.317667
-709.934 -0.0367579 0 8.0772
-701.482 -0.0368313 0 8.02297
-501.404 0.198991 0 -6.50712
-507.443 0.196059 0 -6.46836
-705.708 -0.0367981 0 8.05027
-601.464 0.0902099 0 0.248407
-504.424 0.197527 0 -6.4876
-608.71 0.0886581 0 0.294906
-605.087 0.0894334 0 0.271819
-701.482 -0.0368313 0 8.02297
-693.029 -0.0368768 0 7.96722
-495.364 0.201909 0 -6.54695
-501.404 0.198991 0 -6.50712
-697.255 -0.0368575 0 7.99528
-594.217 0.0917664 0 0.200615
-498.384 0.200452 0 -6.5269
-601.464 0.0902099 0 0.248407
-597.841 0.0909875 0 0.224672
-693.029 -0.0368768 0 7.96722
-684.576 -0.0368944 0 7.90999
-489.325 0.204811 0 -6.58784
-495.364 0.201909 0 -6.54695
-688.803 -0.0368891 0 7.93879
-586.971 0.0933276 0 0.151548
-492.345 0.203362 0 -6.56726
-594.217 0.0917664 0 0.200615
-590.594 0.0925464 0 0.17624
-684.576 -0.0368944 0 7.90999
-676.124 -0.0368843 0 7.85129
-483.285 0.207697 0 -6.62979
-489.325 0.204811 0 -6.58784
-680.35 -0.0368929 0 7.88083
-579.725 0.0948933 0 0.10122
-486.305 0.206256 0 -6.60868
-586.971 0.0933276 0 0.151548
-583.348 0.0941099 0 0.12654
-676.124 -0.0368843 0 7.85129
-667.671 -0.0368466 0 7.79114
-477.246 0.210568 0 -6.67277
-483.285 0.207697 0 -6.62979
-671.897 -0.0368689 0 7.8214
-572.479 0.0964636 0 0.0496462
-480.266 0.209134 0 -6.65115
-579.725 0.0948933 0 0.10122
-576.102 0.0956779 0 0.0755876
-667.671 -0.0368466 0 7.79114
-659.218 -0.0367814 0 7.72955
-471.206 0.213422 0 -6.71678
-477.246 0.210568 0 -6.67277
-663.445 -0.0368175 0 7.76052
-565.232 0.0980382 0 -0.00315685
-474.226 0.211997 0 -6.69465
-572.479 0.0964636 0 0.0496462
-568.856 0.0972504 0 0.0233974
-659.218 -0.0367814 0 7.72955
-650.765 -0.0366889 0 7.66655
-465.167 0.216261 0 -6.7618
-471.206 0.213422 0 -6.71678
-654.992 -0.0367385 0 7.69822
-557.986 0.0996171 0 -0.057174
-468.187 0.214844 0 -6.73916
-565.232 0.0980382 0 -0.00315685
-561.609 0.0988271 0 -0.0300146
-650.765 -0.0366889 0 7.66655
-642.313 -0.0365691 0 7.60214
-459.127 0.219084 0 -6.80781
-465.167 0.216261 0 -6.7618
-646.539 -0.0366324 0 7.63452
-550.74 0.1012 0 -0.11239
-462.147 0.217674 0 -6.78468
-557.986 0.0996171 0 -0.057174
-554.363 0.100408 0 -0.084633
-642.313 -0.0365691 0 7.60214
-633.86 -0.0364224 0 7.53636
-453.088 0.22189 0 -6.85482
-459.127 0.219084 0 -6.80781
-638.086 -0.0364991 0 7.56942
-543.493 0.102787 0 -0.168788
-456.108 0.220489 0 -6.83119
-550.74 0.1012 0 -0.11239
-547.116 0.101993 0 -0.140442
-633.86 -0.0364224 0 7.53636
-625.407 -0.0362487 0 7.46922
-447.048 0.22468 0 -6.9028
-453.088 0.22189 0 -6.85482
-629.633 -0.0363389 0 7.50296
-536.247 0.104378 0 -0.226354
-450.068 0.223287 0 -6.87869
-543.493 0.102787 0 -0.168788
-539.87 0.103582 0 -0.197426
-625.407 -0.0362487 0 7.46922
-616.954 -0.0360484 0 7.40073
-441.009 0.227454 0 -6.95173
-447.048 0.22468 0 -6.9028
-621.18 -0.0361519 0 7.43514
-529 0.105972 0 -0.285072
-444.028 0.226069 0 -6.92715
-536.247 0.104378 0 -0.226354
-532.624 0.105174 0 -0.25557
-616.954 -0.0360484 0 7.40073
-608.501 -0.0358215 0 7.33091
-434.969 0.230211 0 -7.00162
-441.009 0.227454 0 -6.95173
-612.727 -0.0359383 0 7.36598
-521.754 0.10757 0 -0.344926
-437.989 0.228834 0 -6.97656
-529 0.105972 0 -0.285072
-525.377 0.106771 0 -0.314858
-608.501 -0.0358215 0 7.33091
-600.047 -0.0355684 0 7.25979
-428.93 0.232951 0 -7.05244
-434.969 0.230211 0 -7.00162
-604.274 -0.0356982 0 7.29551
-514.508 0.109171 0 -0.405902
-431.949 0.231583 0 -7.02691
-521.754 0.10757 0 -0.344926
-518.131 0.10837 0 -0.375275
-600.047 -0.0355684 0 7.25979
-591.594 -0.0352892 0 7.18738
-422.89 0.235674 0 -7.10418
-428.93 0.232951 0 -7.05244
-595.821 -0.035432 0 7.22375
-507.261 0.110775 0 -0.467982
-425.91 0.234315 0 -7.07819
-514.508 0.109171 0 -0.405902
-510.884 0.109973 0 -0.436804
-591.594 -0.0352892 0 7.18738
-583.141 -0.034984 0 7.1137
-416.85 0.238381 0 -7.15682
-422.89 0.235674 0 -7.10418
-587.368 -0.0351398 0 7.1507
-500.014 0.112383 0 -0.531152
-419.87 0.23703 0 -7.13039
-507.261 0.110775 0 -0.467982
-503.638 0.111579 0 -0.499432
-583.141 -0.034984 0 7.1137
-574.688 -0.0346532 0 7.03877
-410.811 0.24107 0 -7.21037
-416.85 0.238381 0 -7.15682
-578.914 -0.0348218 0 7.07639
-492.768 0.113993 0 -0.595396
-413.831 0.239727 0 -7.18348
-500.014 0.112383 0 -0.531152
-496.391 0.113187 0 -0.563141
-574.688 -0.0346532 0 7.03877
-566.235 -0.034297 0 6.9626
-404.771 0.243741 0 -7.26479
-410.811 0.24107 0 -7.21037
-570.461 -0.0344783 0 7.00083
-485.521 0.115605 0 -0.660698
-407.791 0.242408 0 -7.23747
-492.768 0.113993 0 -0.595396
-489.145 0.114799 0 -0.627916
-566.235 -0.034297 0 6.9626
-557.781 -0.0339156 0 6.88521
-398.731 0.246395 0 -7.32009
-404.771 0.243741 0 -7.26479
-562.008 -0.0341094 0 6.92405
-478.275 0.11722 0 -0.727044
-401.751 0.24507 0 -7.29233
-485.521 0.115605 0 -0.660698
-481.898 0.116412 0 -0.693742
-557.781 -0.0339156 0 6.88521
-549.328 -0.0335092 0 6.80662
-392.692 0.249031 0 -7.37624
-398.731 0.246395 0 -7.32009
-553.555 -0.0337155 0 6.84607
-471.028 0.118837 0 -0.794417
-395.712 0.247716 0 -7.34806
-478.275 0.11722 0 -0.727044
-474.651 0.118028 0 -0.760603
-549.328 -0.0335092 0 6.80662
-540.874 -0.0330781 0 6.72686
-386.652 0.25165 0 -7.43323
-392.692 0.249031 0 -7.37624
-545.101 -0.0332967 0 6.76689
-463.781 0.120456 0 -0.862803
-389.672 0.250343 0 -7.40463
-471.028 0.118837 0 -0.794417
-467.405 0.119646 0 -0.828484
-540.874 -0.0330781 0 6.72686
-532.421 -0.0326226 0 6.64593
-380.612 0.25425 0 -7.49106
-386.652 0.25165 0 -7.43323
-536.648 -0.0328534 0 6.68654
-456.535 0.122077 0 -0.932184
-383.632 0.252952 0 -7.46204
-463.781 0.120456 0 -0.862803
-460.158 0.121266 0 -0.89737
-532.421 -0.0326226 0 6.64593
-523.967 -0.032143 0 6.56386
-374.573 0.256831 0 -7.5497
-380.612 0.25425 0 -7.49106
-528.194 -0.0323858 0 6.60504
-449.288 0.123699 0 -1.00255
-377.593 0.255543 0 -7.52028
-456.535 0.122077 0 -0.932184
-452.911 0.122887 0 -0.967244
-523.967 -0.032143 0 6.56386
-515.514 -0.0316394 0 6.48066
-368.533 0.259394 0 -7.60915
-374.573 0.256831 0 -7.5497
-519.741 -0.0318942 0 6.5224
-442.041 0.125322 0 -1.07387
-371.553 0.258115 0 -7.57932
-449.288 0.123699 0 -1.00255
-445.665 0.12451 0 -1.03809
-515.514 -0.0316394 0 6.48066
-507.06 -0.0311123 0 6.39636
-362.493 0.261939 0 -7.66939
-368.533 0.259394 0 -7.60915
-511.287 -0.0313788 0 6.43865
-434.794 0.126946 0 -1.14615
-365.513 0.260669 0 -7.63917
-442.041 0.125322 0 -1.07387
-438.418 0.126134 0 -1.1099
-507.06 -0.0311123 0 6.39636
-498.606 -0.0305619 0 6.31096
-356.454 0.264464 0 -7.7304
-362.493 0.261939 0 -7.66939
-502.833 -0.03084 0 6.35379
-427.548 0.128571 0 -1.21936
-359.474 0.263204 0 -7.6998
-434.794 0.126946 0 -1.14615
-431.171 0.127758 0 -1.18264
-498.606 -0.0305619 0 6.31096
-490.153 -0.0299884 0 6.22449
-350.414 0.26697 0 -7.79219
-356.454 0.264464 0 -7.7304
-494.38 -0.030278 0 6.26786
-420.301 0.130196 0 -1.29349
-353.434 0.265719 0 -7.7612
-427.548 0.128571 0 -1.21936
-423.924 0.129383 0 -1.25631
-490.153 -0.0299884 0 6.22449
-481.699 -0.0293923 0 6.13697
-344.374 0.269457 0 -7.85472
-350.414 0.26697 0 -7.79219
-485.926 -0.0296932 0 6.18086
-413.054 0.131821 0 -1.36853
-347.394 0.268216 0 -7.82336
-420.301 0.130196 0 -1.29349
-416.677 0.131009 0 -1.3309
-481.699 -0.0293923 0 6.13697
-473.245 -0.0287738 0 6.04842
-338.334 0.271924 0 -7.918
-344.374 0.269457 0 -7.85472
-477.472 -0.0290858 0 6.09282
-405.807 0.133447 0 -1.44445
-341.354 0.270693 0 -7.88627
-413.054 0.131821 0 -1.36853
-409.431 0.132634 0 -1.40638
-473.245 -0.0287738 0 6.04842
-464.791 -0.0281332 0 5.95885
-332.295 0.274371 0 -7.982
-338.334 0.271924 0 -7.918
-469.018 -0.0284563 0 6.00376
-398.56 0.135072 0 -1.52124
-335.315 0.27315 0 -7.94991
-405.807 0.133447 0 -1.44445
-402.184 0.134259 0 -1.48274
-464.791 -0.0281332 0 5.95885
-456.337 -0.027471 0 5.86827
-326.255 0.276797 0 -8.04672
-332.295 0.274371 0 -7.982
-460.564 -0.0278048 0 5.91368
-391.313 0.136696 0 -1.59889
-329.275 0.275586 0 -8.01427
-398.56 0.135072 0 -1.52124
-394.937 0.135884 0 -1.55996
-456.337 -0.027471 0 5.86827
-447.883 -0.0267873 0 5.77672
-320.215 0.279204 0 -8.11213
-326.255 0.276797 0 -8.04672
-452.11 -0.0271318 0 5.82262
-384.066 0.138319 0 -1.67738
-323.235 0.278003 0 -8.07934
-391.313 0.136696 0 -1.59889
-387.69 0.137508 0 -1.63803
-447.883 -0.0267873 0 5.77672
-439.429 -0.0260826 0 5.68421
-314.175 0.281589 0 -8.17824
-320.215 0.279204 0 -8.11213
-443.656 -0.0264375 0 5.73058
-376.819 0.139941 0 -1.7567
-317.195 0.280399 0 -8.1451
-384.066 0.138319 0 -1.67738
-380.443 0.13913 0 -1.71694
-439.429 -0.0260826 0 5.68421
-430.975 -0.0253571 0 5.59075
-308.136 0.283954 0 -8.24502
-314.175 0.281589 0 -8.17824
-435.202 -0.0257224 0 5.63759
-369.572 0.141561 0 -1.83682
-311.155 0.282774 0 -8.21155
-376.819 0.139941 0 -1.7567
-373.196 0.140751 0 -1.79666
-430.975 -0.0253571 0 5.59075
-422.521 -0.0246114 0 5.49636
-302.096 0.286298 0 -8.31246
-308.136 0.283954 0 -8.24502
-426.748 -0.0249868 0 5.54367
-362.325 0.14318 0 -1.91774
-305.116 0.285129 0 -8.27866
-369.572 0.141561 0 -1.83682
-365.949 0.142371 0 -1.87718
-422.521 -0.0246114 0 5.49636
-414.067 -0.0238456 0 5.40106
-296.056 0.28862 0 -8.38055
-302.096 0.286298 0 -8.31246
-418.294 -0.024231 0 5.44882
-355.078 0.144796 0 -1.99944
-299.076 0.287461 0 -8.34643
-362.325 0.14318 0 -1.91774
-358.702 0.143988 0 -1.95849
-414.067 -0.0238456 0 5.40106
-405.613 -0.0230602 0 5.30488
-290.016 0.29092 0 -8.44928
-296.056 0.28862 0 -8.38055
-409.84 -0.0234554 0 5.35308
-347.831 0.14641 0 -2.0819
-293.036 0.289773 0 -8.41484
-355.078 0.144796 0 -1.99944
-351.454 0.145603 0 -2.04057
-405.613 -0.0230602 0 5.30488
-397.159 -0.0222556 0 5.20782
-283.976 0.293199 0 -8.51863
-290.016 0.29092 0 -8.44928
-401.386 -0.0226603 0 5.25646
-340.584 0.148021 0 -2.16511
-286.996 0.292062 0 -8.48388
-347.831 0.14641 0 -2.0819
-344.207 0.147216 0 -2.12341
-397.159 -0.0222556 0 5.20782
-388.704 -0.0214321 0 5.10991
-277.936 0.295455 0 -8.58859
-283.976 0.293199 0 -8.51863
-392.931 -0.0218462 0 5.15897
-333.336 0.149629 0 -2.24905
-280.956 0.294329 0 -8.55353
-340.584 0.148021 0 -2.16511
-336.96 0.148825 0 -2.20699
-388.704 -0.0214321 0 5.10991
-380.25 -0.0205902 0 5.01116
-271.896 0.297688 0 -8.65915
-277.936 0.295455 0 -8.58859
-384.477 -0.0210134 0 5.06064
-326.089 0.151233 0 -2.33371
-274.916 0.296574 0 -8.6238
-333.336 0.149629 0 -2.24905
-329.713 0.150431 0 -2.29129
-380.25 -0.0205902 0 5.01116
-371.795 -0.0197301 0 4.9116
-265.856 0.299899 0 -8.73029
-271.896 0.297688 0 -8.65915
-376.023 -0.0201624 0 4.96148
-318.842 0.152834 0 -2.41907
-268.876 0.298796 0 -8.69465
-326.089 0.151233 0 -2.33371
-322.466 0.152034 0 -2.3763
-371.795 -0.0197301 0 4.9116
-363.341 -0.0188524 0 4.81124
-259.816 0.302087 0 -8.802
-265.856 0.299899 0 -8.73029
-367.568 -0.0192934 0 4.86152
-311.595 0.15443 0 -2.50511
-262.836 0.300996 0 -8.76608
-318.842 0.152834 0 -2.41907
-315.218 0.153632 0 -2.462
-363.341 -0.0188524 0 4.81124
-354.886 -0.0179573 0 4.71009
-253.776 0.304251 0 -8.87427
-259.816 0.302087 0 -8.802
-359.114 -0.0184069 0 4.76076
-304.347 0.156022 0 -2.59182
-256.796 0.303172 0 -8.83807
-311.595 0.15443 0 -2.50511
-307.971 0.155226 0 -2.54838
-354.886 -0.0179573 0 4.71009
-346.432 -0.0170453 0 4.60818
-247.737 0.306391 0 -8.94709
-253.776 0.304251 0 -8.87427
-350.659 -0.0175034 0 4.65923
-297.1 0.157609 0 -2.67919
-250.757 0.305324 0 -8.91062
-304.347 0.156022 0 -2.59182
-300.724 0.156816 0 -2.63543
-346.432 -0.0170453 0 4.60818
-337.977 -0.0161169 0 4.50553
-241.697 0.308508 0 -9.02044
-247.737 0.306391 0 -8.94709
-342.204 -0.0165831 0 4.55695
-289.853 0.15919 0 -2.7672
-244.717 0.307452 0 -8.9837
-297.1 0.157609 0 -2.67919
-293.476 0.1584 0 -2.72312
-337.977 -0.0161169 0 4.50553
-329.522 -0.0151724 0 4.40215
-235.657 0.3106 0 -9.09431
-241.697 0.308508 0 -9.02044
-333.75 -0.0156466 0 4.45393
-282.605 0.160766 0 -2.85583
-238.677 0.309557 0 -9.05731
-289.853 0.15919 0 -2.7672
-286.229 0.159979 0 -2.81144
-329.522 -0.0151724 0 4.40215
-321.068 -0.0142122 0 4.29806
-229.617 0.312667 0 -9.16869
-235.657 0.3106 0 -9.09431
-325.295 -0.0146942 0 4.35019
-275.358 0.162337 0 -2.94507
-232.637 0.311637 0 -9.13143
-282.605 0.160766 0 -2.85583
-278.981 0.161552 0 -2.90037
-321.068 -0.0142122 0 4.29806
-312.613 -0.0132368 0 4.19328
-223.576 0.31471 0 -9.24355
-229.617 0.312667 0 -9.16869
-316.84 -0.0137264 0 4.24576
-268.11 0.1639 0 -3.0349
-226.597 0.313692 0 -9.20606
-275.358 0.162337 0 -2.94507
-271.734 0.163119 0 -2.98991
-312.613 -0.0132368 0 4.19328
-304.158 -0.0122466 0 4.08783
-217.536 0.316727 0 -9.3189
-223.576 0.31471 0 -9.24355
-308.385 -0.0127435 0 4.14064
-260.863 0.165458 0 -3.1253
-220.556 0.315722 0 -9.28117
-268.11 0.1639 0 -3.0349
-264.486 0.16468 0 -3.08003
-304.158 -0.0122466 0 4.08783
-295.703 -0.0112421 0 3.98172
-211.496 0.318719 0 -9.39472
-217.536 0.316727 0 -9.3189
-299.93 -0.0117461 0 4.03486
-253.615 0.167008 0 -3.21627
-214.516 0.317726 0 -9.35675
-260.863 0.165458 0 -3.1253
-257.239 0.166234 0 -3.17072
-295.703 -0.0112421 0 3.98172
-287.248 -0.0102236 0 3.87498
-205.456 0.320685 0 -9.47099
-211.496 0.318719 0 -9.39472
-291.475 -0.0107345 0 3.92843
-246.367 0.16855 0 -3.30778
-208.476 0.319705 0 -9.4328
-253.615 0.167008 0 -3.21627
-249.991 0.16778 0 -3.26196
-287.248 -0.0102236 0 3.87498
-278.793 -0.0091916 0 3.76762
-199.416 0.322625 0 -9.54771
-205.456 0.320685 0 -9.47099
-283.02 -0.00970925 0 3.82137
-239.12 0.170085 0 -3.39982
-202.436 0.321658 0 -9.50929
-246.367 0.16855 0 -3.30778
-242.744 0.169319 0 -3.35374
-278.793 -0.0091916 0 3.76762
-270.338 -0.00814659 0 3.65966
-193.376 0.324538 0 -9.62485
-199.416 0.322625 0 -9.54771
-274.565 -0.0086707 0 3.71371
-231.872 0.171612 0 -3.49238
-196.396 0.323584 0 -9.58622
-239.12 0.170085 0 -3.39982
-235.496 0.17085 0 -3.44604
-270.338 -0.00814659 0 3.65966
-261.882 -0.00708898 0 3.55112
-187.336 0.326424 0 -9.7024
-193.376 0.324538 0 -9.62485
-266.11 -0.00761932 0 3.60546
-224.624 0.17313 0 -3.58543
-190.356 0.325484 0 -9.66357
-231.872 0.171612 0 -3.49238
-228.248 0.172372 0 -3.53885
-261.882 -0.00708897 0 3.55112
-253.427 -0.00601923 0 3.44201
-181.296 0.328282 0 -9.78036
-187.336 0.326424 0 -9.7024
-257.655 -0.0065556 0 3.49663
-217.377 0.174639 0 -3.67897
-184.316 0.327356 0 -9.74133
-224.624 0.17313 0 -3.58543
-221 0.173886 0 -3.63214
-253.427 -0.00601923 0 3.44201
-244.972 -0.00493776 0 3.33236
-175.256 0.330113 0 -9.85871
-181.296 0.328282 0 -9.78036
-249.2 -0.00547993 0 3.38725
-210.129 0.176138 0 -3.77298
-178.276 0.329201 0 -9.81949
-217.377 0.174639 0 -3.67897
-213.753 0.17539 0 -3.72592
-244.972 -0.00493776 0 3.33236
-236.517 -0.00384506 0 3.22218
-169.215 0.331916 0 -9.93744
-175.256 0.330113 0 -9.85871
-240.744 -0.0043928 0 3.27733
-202.881 0.177628 0 -3.86743
-172.235 0.331018 0 -9.89803
-210.129 0.176138 0 -3.77298
-206.505 0.176884 0 -3.82015
-236.517 -0.00384506 0 3.22218
-228.061 -0.0027416 0 3.11149
-163.175 0.33369 0 -10.0165
-169.215 0.331916 0 -9.93744
-232.289 -0.00329467 0 3.1669
-195.633 0.179107 0 -3.96233
-166.195 0.332806 0 -9.97694
-202.881 0.177628 0 -3.86743
-199.257 0.178369 0 -3.91483
-228.061 -0.00274159 0 3.11149
-219.606 -0.00162778 0 3.00031
-157.135 0.335436 0 -10.096
-163.175 0.33369 0 -10.0165
-223.833 -0.00218592 0 3.05596
-188.385 0.180576 0 -4.05764
-160.155 0.334567 0 -10.0562
-195.633 0.179107 0 -3.96233
-192.009 0.179843 0 -4.00993
-219.606 -0.00162776 0 3.00031
-211.15 -0.000504205 0 2.88866
-151.095 0.337153 0 -10.1757
-157.135 0.335436 0 -10.096
-215.378 -0.0010672 0 2.94455
-181.137 0.182034 0 -4.15336
-154.115 0.336298 0 -10.1358
-188.385 0.180576 0 -4.05764
-184.761 0.181307 0 -4.10545
-211.15 -0.000504205 0 2.88866
-202.694 0.00062885 0 2.77656
-145.054 0.338843 0 -10.2558
-151.095 0.337153 0 -10.1757
-206.922 6.12075e-05 0 2.83267
-173.889 0.183481 0 -4.24946
-148.074 0.338002 0 -10.2157
-181.137 0.182034 0 -4.15336
-177.513 0.182759 0 -4.20136
-202.694 0.00062885 0 2.77656
-194.239 0.00177029 0 2.66401
-139.014 0.340507 0 -10.3362
-145.054 0.338843 0 -10.2558
-198.467 0.00119851 0 2.72034
-166.641 0.184917 0 -4.34595
-142.034 0.339678 0 -10.296
-173.889 0.183481 0 -4.24946
-170.265 0.184201 0 -4.29766
-194.239 0.00177031 0 2.66401
-185.783 0.00292033 0 2.55105
-132.974 0.342147 0 -10.417
-139.014 0.340507 0 -10.3362
-190.011 0.00234443 0 2.60759
-159.393 0.186344 0 -4.44279
-135.994 0.34133 0 -10.3766
-166.641 0.184917 0 -4.34595
-163.017 0.185632 0 -4.39432
-185.783 0.00292034 0 2.55105
-177.327 0.00407636 0 2.43769
-126.933 0.343769 0 -10.498
-132.974 0.342147 0 -10.417
-181.555 0.0034976 0 2.49442
-152.145 0.187761 0 -4.53999
-129.953 0.34296 0 -10.4574
-159.393 0.186344 0 -4.44279
-155.769 0.187053 0 -4.49135
-177.327 0.00407636 0 2.43769
-168.871 0.00523973 0 2.32395
-120.893 0.345377 0 -10.5793
-126.933 0.343769 0 -10.498
-173.099 0.00465745 0 2.38087
-144.897 0.189172 0 -4.63754
-123.913 0.344574 0 -10.5386
-152.145 0.187761 0 -4.53999
-148.521 0.188468 0 -4.58872
-168.871 0.00523973 0 2.32395
-160.415 0.00640423 0 2.20985
-114.853 0.346975 0 -10.6609
-120.893 0.345377 0 -10.5793
-164.643 0.0058222 0 2.26694
-137.649 0.19058 0 -4.73543
-117.873 0.346177 0 -10.6201
-144.897 0.189172 0 -4.63754
-141.273 0.189876 0 -4.68644
-160.415 0.00640423 0 2.20985
-151.959 0.00757215 0 2.09539
-108.812 0.348559 0 -10.7428
-114.853 0.346975 0 -10.6609
-156.187 0.00698725 0 2.15266
-130.4 0.191985 0 -4.83367
-111.832 0.347769 0 -10.7018
-137.649 0.19058 0 -4.73543
-134.024 0.191284 0 -4.78451
-151.959 0.00757214 0 2.09539
-143.503 0.00873639 0 1.9806
-102.772 0.350094 0 -10.825
-108.812 0.348559 0 -10.7428
-147.731 0.00815844 0 2.03803
-123.152 0.193387 0 -4.93225
-105.792 0.349338 0 -10.7839
-130.4 0.191985 0 -4.83367
-126.776 0.192685 0 -4.88292
-143.503 0.00873639 0 1.9806
-135.046 0.00988242 0 1.86549
-96.7315 0.351492 0 -10.9074
-102.772 0.350094 0 -10.825
-139.274 0.00930176 0 1.9231
-115.903 0.194754 0 -5.03113
-99.7517 0.350819 0 -10.8662
-123.152 0.193387 0 -4.93225
-119.527 0.19408 0 -4.98166
-135.046 0.00988242 0 1.86549
-126.588 0.0110645 0 1.75007
-90.6915 0.35249 0 -10.9897
-96.7315 0.351492 0 -10.9074
-130.817 0.0104949 0 1.8078
-108.654 0.196054 0 -5.13016
-93.7115 0.352071 0 -10.9486
-115.903 0.194754 0 -5.03113
-112.279 0.195413 0 -5.08064
-126.588 0.0110645 0 1.75007
-118.13 0.0120939 0 1.63428
-84.6517 0.352591 0 -11.0714
-90.6915 0.35249 0 -10.9897
-122.359 0.0115251 0 1.69228
-101.406 0.197082 0 -5.22901
-87.6716 0.352698 0 -11.0307
-108.654 0.196054 0 -5.13016
-105.03 0.196626 0 -5.17964
-118.13 0.0120939 0 1.63428
-109.672 0.0135633 0 1.51829
-78.6128 0.350565 0 -11.1511
-84.6517 0.352591 0 -11.0714
-113.901 0.0129339 0 1.57621
-94.1591 0.197629 0 -5.32668
-81.632 0.351966 0 -11.1117
-101.406 0.197082 0 -5.22901
-97.7825 0.197417 0 -5.27806
-109.672 0.0135633 0 1.51829
-101.217 0.0140669 0 1.40155
-72.5744 0.344497 0 -11.2265
-78.6128 0.350565 0 -11.1511
-105.444 0.0134974 0 1.46024
-86.9161 0.196781 0 -5.42149
-75.5937 0.348217 0 -11.1895
-94.1591 0.197629 0 -5.32668
-90.5367 0.197494 0 -5.37466
-101.217 0.0140669 0 1.40155
-92.7676 0.0175975 0 1.28521
-66.5388 0.329729 0 -11.2915
-72.5744 0.344497 0 -11.2265
-96.9914 0.0163746 0 1.34288
-79.6803 0.193676 0 -5.50913
-69.5559 0.338591 0 -11.2608
-86.9161 0.196781 0 -5.42149
-83.2973 0.195471 0 -5.46645
-92.7676 0.0175975 0 1.28521
-84.3458 0.0155715 0 1.16638
-60.5021 0.300886 0 -11.3382
-66.5388 0.329729 0 -11.2915
-88.5515 0.0148799 0 1.22707
-72.4641 0.18502 0 -5.58272
-63.5214 0.317678 0 -11.3177
-79.6803 0.193676 0 -5.50913
-76.0683 0.190577 0 -5.54868
-84.3458 0.0155715 0 1.16638
-75.9597 0.030593 0 1.05129
-54.4713 0.242846 0 -11.347
-60.5021 0.300886 0 -11.3382
-80.1474 0.0259772 0 1.10633
-65.2787 0.167893 0 -5.62774
-57.4844 0.276354 0 -11.3493
-72.4641 0.18502 0 -5.58272
-68.8677 0.177028 0 -5.60929
-75.9597 0.030593 0 1.05129
-67.706 0.0161264 0 0.926484
-48.4227 0.147675 0 -11.2982
-54.4713 0.242846 0 -11.347
-71.8091 0.014564 0 0.994143
-58.167 0.132499 0 -5.62065
-51.4532 0.201807 0 -11.331
-65.2787 0.167893 0 -5.62774
-61.7079 0.154984 0 -5.63482
-67.706 0.0161264 0 0.926484
-59.6056 0.0881505 0 0.820567
-42.3753 -0.0275064 0 -11.1409
-48.4227 0.147675 0 -11.2982
-63.6328 0.0675463 0 0.86183
-51.1519 0.0700303 0 -5.52426
-45.3935 0.0699429 0 -11.2382
-58.167 0.132499 0 -5.62065
-54.6509 0.101159 0 -5.58264
-59.6056 0.0881505 0 0.820567
-52.0143 0.0153443 0 0.677342
-36.2062 -0.25545 0 -10.8565
-42.3753 -0.0275064 0 -11.1409
-55.7252 0.00735366 0 0.771832
-44.3647 -0.0428411 0 -5.26898
-39.324 -0.129039 0 -11.0144
-51.1519 0.0700303 0 -5.52426
-47.7087 0.0312782 0 -5.43276
-52.0143 0.0153443 0 0.677342
-44.9544 0.351206 0 0.613934
-29.9503 -0.635058 0 -10.3685
-36.2062 -0.25545 0 -10.8565
-48.3954 0.263279 0 0.591254
-37.7738 -0.228238 0 -4.80601
-33.0732 -0.441842 0 -10.6452
-44.3647 -0.0428411 0 -5.26898
-41.0728 -0.145754 0 -5.04673
-44.9544 0.351206 0 0.613934
-39.5487 0.0141097 0 0.425012
-23.0617 -0.816123 0 -9.84267
-29.9503 -0.635058 0 -10.3685
-42.0177 -0.0333448 0 0.620363
-31.7114 -0.519288 0 -3.97423
-26.6567 -0.736008 0 -10.0913
-37.7738 -0.228238 0 -4.80601
-34.6007 -0.313381 0 -4.49675
-39.5487 0.0141097 0 0.425012
-35.942 1.33672 0 0.720439
-15.5958 -0.795351 0 -9.54672
-23.0617 -0.816123 0 -9.84267
-37.3386 1.12409 0 0.261051
-25.4125 -0.904742 0 -3.06806
-19.3589 -0.970566 0 -9.62804
-31.7114 -0.519288 0 -3.97423
-28.7744 -0.790113 0 -3.40564
-35.942 1.33672 0 0.720439
-38.6493 -1.18126 0 1.73154
-6.08147 2.31398 0 -11.2761
-15.5958 -0.795351 0 -9.54672
-36.5373 -0.789645 0 1.35885
-18.5305 -0.728484 0 -2.55375
-11.2822 0.280832 0 -9.98134
-25.4125 -0.904742 0 -3.06806
-21.8963 -0.843086 0 -2.88925
-38.6493 -1.18126 0 1.73154
-53.6555 -5.93154 0 10.0631
1.47435 14.7541 0 -17.2059
-6.08147 2.31398 0 -11.2761
-42.718 1.6925 0 3.15386
-2.06274 8.3152 0 -9.93984
-1.68738 5.59997 0 -13.4353
-18.5305 -0.728484 0 -2.55375
-12.9893 0.842201 0 -3.99774
-53.6555 -5.93154 0 10.0631
-7.9292 78.8691 0 -46.3093
-0.967289 60.7736 0 -16.7065
1.47435 14.7541 0 -17.2059
-56.0682 -13.8459 0 4.68772
5.4609 76.9875 0 -27.2462
2.55797 33.7893 0 -20.0433
-2.06274 8.3152 0 -9.93984
5.42618 26.6911 0 -18.3963
-1114.37 -334.645 0 -44.6067
-1179.79 -127.626 0 -65.1054
-697.929 -122.14 0 -1.90958
-642.66 -192.902 0 58.9889
-1157.72 -240.604 0 -75.6745
-923.998 -140.702 0 -26.9333
-680.195 -155.061 0 22.1966
-912.417 -273.952 0 9.26065
-902.883 -195.291 0 -8.5743
-1179.79 -127.626 0 -65.1054
-1197.42 -38.1141 0 -30.7153
-711.163 -53.6692 0 -20.7776
-697.929 -122.14 0 -1.90958
-1196.41 -65.6957 0 -46.7971
-956.979 -55.2063 0 -31.3267
-703.833 -85.3893 0 -14.0882
-923.998 -140.702 0 -26.9333
-949.468 -94.7464 0 -35.3014
-1197.42 -38.1141 0 -30.7153
-1182.36 -7.03495 0 -11.0492
-717.934 -19.1542 0 -24.3264
-711.163 -53.6692 0 -20.7776
-1188.38 -18.8783 0 -17.826
-954.718 -16.2348 0 -20.8193
-717.622 -32.9213 0 -24.0406
-956.979 -55.2063 0 -31.3267
-956.508 -30.0587 0 -24.6432
-1182.36 -7.03495 0 -11.0492
-1172.03 -0.312008 0 -6.5681
-712.502 -3.18061 0 -22.3778
-717.934 -19.1542 0 -24.3264
-1177.78 -2.14264 0 -8.0597
-945.644 -1.30547 0 -15.6101
-714.966 -9.25692 0 -23.2405
-954.718 -16.2348 0 -20.8193
-950.832 -7.11396 0 -18.0223
-1172.03 -0.312008 0 -6.5681
-1161.69 2.18832 0 -6.23902
-706.128 1.45631 0 -21.0309
-712.502 -3.18061 0 -22.3778
-1166.02 1.30326 0 -5.97251
-935.892 2.30264 0 -13.906
-709.848 -0.0908977 0 -21.7087
-945.644 -1.30547 0 -15.6101
-940.35 1.46337 0 -14.2257
-1161.69 2.18832 0 -6.23902
-1154.54 1.75637 0 -7.57685
-698.768 2.57518 0 -20.1026
-706.128 1.45631 0 -21.0309
-1158.23 2.10241 0 -6.94664
-927.775 2.75451 0 -13.9148
-702.094 2.34968 0 -20.4352
-935.892 2.30264 0 -13.906
-931.748 2.66628 0 -13.9059
-1154.54 1.75637 0 -7.57685
-1147.64 1.31745 0 -8.67506
-692.828 1.9914 0 -19.7595
-698.768 2.57518 0 -20.1026
-1150.88 1.54952 0 -8.12772
-920.824 1.98062 0 -14.3576
-695.806 2.34828 0 -19.9188
-927.775 2.75451 0 -13.9148
-924.115 2.46314 0 -14.0731
-1147.64 1.31745 0 -8.67506
-1141.49 0.719657 0 -9.54238
-687.472 1.28984 0 -19.5624
-692.828 1.9914 0 -19.7595
-1144.6 0.999384 0 -9.17556
-914.801 1.22671 0 -14.7975
-689.983 1.65162 0 -19.6314
-920.824 1.98062 0 -14.3576
-917.746 1.56708 0 -14.6153
-1141.49 0.719657 0 -9.54238
-1135.35 0.356111 0 -10.0124
-682.924 0.63153 0 -19.4812
-687.472 1.28984 0 -19.5624
-1138.38 0.520907 0 -9.80755
-909.308 0.603678 0 -15.0946
-685.166 0.931489 0 -19.5229
-914.801 1.22671 0 -14.7975
-911.994 0.898629 0 -14.956
-1135.35 0.356111 0 -10.0124
-1129.35 0.0966144 0 -10.2565
-678.729 0.202708 0 -19.4084
-682.924 0.63153 0 -19.4812
-1132.37 0.209024 0 -10.1648
-904.14 0.208406 0 -15.2464
-680.768 0.396466 0 -19.4408
-909.308 0.603678 0 -15.0946
-906.7 0.377597 0 -15.1914
-1129.35 0.0966144 0 -10.2565
-1123.32 -0.0438895 0 -10.3224
-674.829 -0.0750349 0 -19.3453
-678.729 0.202708 0 -19.4084
-1126.33 0.0169162 0 -10.3036
-899.142 -0.0366897 0 -15.2927
-676.764 0.0440088 0 -19.3786
-904.14 0.208406 0 -15.2464
-901.624 0.0712046 0 -15.2784
-1123.32 -0.0438895 0 -10.3224
-1117.31 -0.124624 0 -10.2971
-671.054 -0.226708 0 -19.275
-674.829 -0.0750349 0 -19.3453
-1120.32 -0.0913097 0 -10.3197
-894.235 -0.169372 0 -15.2691
-672.925 -0.161929 0 -19.3101
-899.142 -0.0366897 0 -15.2927
-896.682 -0.114674 0 -15.2885
-1117.31 -0.124624 0 -10.2971
-1111.29 -0.162561 0 -10.2148
-667.366 -0.307617 0 -19.2024
-671.054 -0.226708 0 -19.275
-1114.3 -0.147015 0 -10.2603
-889.372 -0.238248 0 -15.2057
-669.206 -0.274816 0 -19.2394
-894.235 -0.169372 0 -15.2691
-891.8 -0.20966 0 -15.2406
-1111.29 -0.162561 0 -10.2148
-1105.26 -0.179474 0 -10.1065
-663.711 -0.343148 0 -19.1265
-667.366 -0.307617 0 -19.2024
-1108.27 -0.173189 0 -10.1631
-884.529 -0.268449 0 -15.1204
-665.534 -0.329231 0 -19.1645
-889.372 -0.238248 0 -15.2057
-886.949 -0.257014 0 -15.1651
-1105.26 -0.179474 0 -10.1065
-1099.23 -0.184 0 -9.985
-660.076 -0.355599 0 -19.0499
-663.711 -0.343148 0 -19.1265
-1102.24 -0.182698 0 -10.0466
-879.695 -0.278772 0 -15.0248
-661.892 -0.351644 0 -19.0883
-884.529 -0.268449 0 -15.1204
-882.112 -0.275338 0 -15.0733
-1099.23 -0.184 0 -9.985
-1093.19 -0.182887 0 -9.85928
-656.447 -0.35528 0 -18.9731
-660.076 -0.355599 0 -19.0499
-1096.21 -0.183975 0 -9.92243
-874.864 -0.278582 0 -14.925
-658.261 -0.356467 0 -19.0114
-879.695 -0.278772 0 -15.0248
-877.279 -0.279602 0 -14.9752
-1093.19 -0.182887 0 -9.85928
-1087.16 -0.178933 0 -9.73283
-652.822 -0.349164 0 -18.8971
-656.447 -0.35528 0 -18.9731
-1090.17 -0.181112 0 -9.79596
-870.033 -0.273585 0 -14.8244
-654.635 -0.352747 0 -18.935
-874.864 -0.278582 0 -14.925
-872.448 -0.27647 0 -14.8747
-1087.16 -0.178933 0 -9.73283
-1081.12 -0.173887 0 -9.60772
-649.198 -0.340306 0 -18.8221
-652.822 -0.349164 0 -18.8971
-1084.14 -0.176501 0 -9.67006
-865.203 -0.266431 0 -14.7245
-651.01 -0.344931 0 -18.8595
-870.033 -0.273585 0 -14.8244
-867.618 -0.270177 0 -14.7743
-1081.12 -0.173887 0 -9.60772
-1075.08 -0.168429 0 -9.48465
-645.573 -0.330465 0 -18.7485
-649.198 -0.340306 0 -18.8221
-1078.1 -0.171177 0 -9.5459
-860.372 -0.25851 0 -14.6262
-647.386 -0.335461 0 -18.7851
-865.203 -0.266431 0 -14.7245
-862.787 -0.262518 0 -14.6751
-1075.08 -0.168429 0 -9.48465
-1069.05 -0.162914 0 -9.36394
-641.949 -0.320324 0 -18.6762
-645.573 -0.330465 0 -18.7485
-1072.06 -0.165671 0 -9.42399
-855.541 -0.250391 0 -14.5296
-643.761 -0.325403 0 -18.7121
-860.372 -0.25851 0 -14.6262
-857.956 -0.254456 0 -14.5777
-1069.05 -0.162914 0 -9.36394
-1063.01 -0.157453 0 -9.24563
-638.324 -0.310214 0 -18.6053
-641.949 -0.320324 0 -18.6762
-1066.03 -0.160173 0 -9.30448
-850.709 -0.242319 0 -14.435
-640.136 -0.315259 0 -18.6405
-855.541 -0.250391 0 -14.5296
-853.125 -0.246343 0 -14.4821
-1063.01 -0.157453 0 -9.24563
-1056.97 -0.152085 0 -9.12973
-634.699 -0.300221 0 -18.5357
-638.324 -0.310214 0 -18.6053
-1059.99 -0.154758 0 -9.18738
-845.878 -0.234363 0 -14.3423
-636.511 -0.3052 0 -18.5703
-850.709 -0.242319 0 -14.435
-848.294 -0.238325 0 -14.3884
-1056.97 -0.152085 0 -9.12973
-1050.93 -0.146807 0 -9.01617
-631.074 -0.29037 0 -18.4676
-634.699 -0.300221 0 -18.5357
-1053.95 -0.149435 0 -9.07266
-841.046 -0.22653 0 -14.2514
-632.886 -0.295279 0 -18.5015
-845.878 -0.234363 0 -14.3423
-843.462 -0.230432 0 -14.2966
-1050.93 -0.146807 0 -9.01617
-1044.9 -0.141609 0 -8.90492
-627.449 -0.280645 0 -18.4009
-631.074 -0.29037 0 -18.4676
-1047.91 -0.144199 0 -8.96026
-836.215 -0.218809 0 -14.1624
-629.261 -0.285492 0 -18.4341
-841.046 -0.22653 0 -14.2514
-838.631 -0.222657 0 -14.2067
-1044.9 -0.141609 0 -8.90492
-1038.86 -0.136482 0 -8.79595
-623.823 -0.271028 0 -18.3355
-627.449 -0.280645 0 -18.4009
-1041.88 -0.139038 0 -8.85016
-831.383 -0.211181 0 -14.0752
-625.636 -0.275824 0 -18.368
-836.215 -0.218809 0 -14.1624
-833.799 -0.214984 0 -14.1186
-1038.86 -0.136482 0 -8.79595
-1032.82 -0.131415 0 -8.68923
-620.198 -0.261504 0 -18.2714
-623.823 -0.271028 0 -18.3355
-1035.84 -0.133941 0 -8.74231
-826.551 -0.203633 0 -13.9898
-622.011 -0.266255 0 -18.3033
-831.383 -0.211181 0 -14.0752
-828.967 -0.207397 0 -14.0323
-1032.82 -0.131415 0 -8.68923
-1026.78 -0.126402 0 -8.58473
-616.573 -0.25206 0 -18.2087
-620.198 -0.261504 0 -18.2714
-1029.8 -0.128902 0 -8.6367
-821.72 -0.196155 0 -13.9062
-618.385 -0.256773 0 -18.2399
-826.551 -0.203633 0 -13.9898
-824.135 -0.199886 0 -13.9478
-1026.78 -0.126402 0 -8.58473
-1020.75 -0.12144 0 -8.48244
-612.947 -0.24269 0 -18.1473
-616.573 -0.25206 0 -18.2087
-1023.76 -0.123915 0 -8.53331
-816.888 -0.188741 0 -13.8244
-614.76 -0.247366 0 -18.1779
-821.72 -0.196155 0 -13.9062
-819.304 -0.19244 0 -13.8651
-1020.75 -0.12144 0 -8.48244
-1014.71 -0.116524 0 -8.38234
-609.322 -0.233387 0 -18.0872
-612.947 -0.24269 0 -18.1473
-1017.73 -0.118976 0 -8.43212
-812.056 -0.181385 0 -13.7443
-611.135 -0.23803 0 -18.1171
-816.888 -0.188741 0 -13.8244
-814.472 -0.185056 0 -13.7841
-1014.71 -0.116524 0 -8.38234
-1008.67 -0.111654 0 -8.28442
-605.696 -0.224148 0 -18.0285
-609.322 -0.233387 0 -18.0872
-1011.69 -0.114083 0 -8.33311
-807.224 -0.174086 0 -13.6659
-607.509 -0.22876 0 -18.0577
-812.056 -0.181385 0 -13.7443
-809.64 -0.177729 0 -13.7049
-1008.67 -0.111654 0 -8.28442
-1002.63 -0.106827 0 -8.18866
-602.071 -0.214973 0 -17.971
-605.696 -0.224148 0 -18.0285
-1005.65 -0.109235 0 -8.23627
-802.392 -0.166842 0 -13.5893
-603.884 -0.219553 0 -17.9996
-807.224 -0.174086 0 -13.6659
-804.808 -0.170457 0 -13.6274
-1002.63 -0.106827 0 -8.18866
-996.595 -0.102042 0 -8.09506
-598.446 -0.205858 0 -17.9148
-602.071 -0.214973 0 -17.971
-999.614 -0.104429 0 -8.14159
-797.56 -0.159651 0 -13.5144
-600.258 -0.210408 0 -17.9427
-802.392 -0.166842 0 -13.5893
-799.976 -0.16324 0 -13.5517
-996.595 -0.102042 0 -8.09506
-990.557 -0.0972997 0 -8.00359
-594.82 -0.196805 0 -17.8599
-598.446 -0.205858 0 -17.9148
-993.576 -0.0996659 0 -8.04906
-792.728 -0.152513 0 -13.4412
-596.633 -0.201324 0 -17.8872
-797.56 -0.159651 0 -13.5144
-795.144 -0.156076 0 -13.4776
-990.557 -0.0972997 0 -8.00359
-984.519 -0.0925977 0 -7.91424
-591.195 -0.187812 0 -17.8063
-594.82 -0.196805 0 -17.8599
-987.538 -0.0949437 0 -7.95865
-787.896 -0.145427 0 -13.3697
-593.007 -0.192301 0 -17.8329
-792.728 -0.152513 0 -13.4412
-790.312 -0.148963 0 -13.4053
-984.519 -0.0925977 0 -7.91424
-978.481 -0.0879357 0 -7.82701
-587.569 -0.178879 0 -17.7539
-591.195 -0.187812 0 -17.8063
-981.5 -0.0902618 0 -7.87036
-783.064 -0.138392 0 -13.3
-589.382 -0.183338 0 -17.7799
-787.896 -0.145427 0 -13.3697
-785.48 -0.141903 0 -13.3346
-978.481 -0.0879357 0 -7.82701
-972.443 -0.0833129 0 -7.74188
-583.944 -0.170005 0 -17.7028
-587.569 -0.178879 0 -17.7539
-975.462 -0.0856195 0 -7.78418
-778.232 -0.131408 0 -13.2318
-585.757 -0.174434 0 -17.7282
-783.064 -0.138392 0 -13.3
-780.648 -0.134894 0 -13.2657
-972.443 -0.0833129 0 -7.74188
-966.405 -0.0787286 0 -7.65883
-580.318 -0.16119 0 -17.653
-583.944 -0.170005 0 -17.7028
-969.424 -0.081016 0 -7.7001
-773.4 -0.124474 0 -13.1654
-582.131 -0.16559 0 -17.6777
-778.232 -0.131408 0 -13.2318
-775.816 -0.127935 0 -13.1984
-966.405 -0.0787286 0 -7.65883
-960.367 -0.074182 0 -7.57786
-576.693 -0.152434 0 -17.6044
-580.318 -0.16119 0 -17.653
-963.386 -0.0764506 0 -7.61809
-768.568 -0.11759 0 -13.1006
-578.506 -0.156805 0 -17.6285
-773.4 -0.124474 0 -13.1654
-770.984 -0.121026 0 -13.1328
-960.367 -0.074182 0 -7.57786
-954.329 -0.0696724 0 -7.49895
-573.067 -0.143736 0 -17.557
-576.693 -0.152434 0 -17.6044
-957.348 -0.0719226 0 -7.53815
-763.736 -0.110755 0 -13.0375
-574.88 -0.148078 0 -17.5805
-768.568 -0.11759 0 -13.1006
-766.152 -0.114166 0 -13.0688
-954.329 -0.0696724 0 -7.49895
-948.29 -0.065199 0 -7.42209
-569.442 -0.135096 0 -17.5109
-573.067 -0.143736 0 -17.557
-951.31 -0.0674312 0 -7.46026
-758.904 -0.103968 0 -12.976
-571.255 -0.139409 0 -17.5338
-763.736 -0.110755 0 -13.0375
-761.32 -0.107356 0 -13.0065
-948.29 -0.065199 0 -7.42209
-942.252 -0.0607613 0 -7.34726
-565.816 -0.126514 0 -17.4659
-569.442 -0.135096 0 -17.5109
-945.271 -0.0629757 0 -7.38442
-754.072 -0.0972299 0 -12.9161
-567.629 -0.130798 0 -17.4882
-758.904 -0.103968 0 -12.976
-756.488 -0.100593 0 -12.9458
-942.252 -0.0607613 0 -7.34726
-936.214 -0.0563584 0 -7.27445
-562.191 -0.117989 0 -17.4222
-565.816 -0.126514 0 -17.4659
-939.233 -0.0585555 0 -7.3106
-749.239 -0.090539 0 -12.8578
-564.004 -0.122245 0 -17.4439
-754.072 -0.0972299 0 -12.9161
-751.655 -0.0938785 0 -12.8868
-936.214 -0.0563584 0 -7.27445
-930.176 -0.0519897 0 -7.20366
-558.565 -0.109521 0 -17.3797
-562.191 -0.117989 0 -17.4222
-933.195 -0.0541698 0 -7.2388
-744.407 -0.083895 0 -12.8012
-560.378 -0.113748 0 -17.4008
-749.239 -0.090539 0 -12.8578
-746.823 -0.0872111 0 -12.8293
-930.176 -0.0519897 0 -7.20366
-924.137 -0.0476546 0 -7.13485
-554.94 -0.101109 0 -17.3384
-558.565 -0.109521 0 -17.3797
-927.157 -0.049818 0 -7.16901
-739.575 -0.0772975 0 -12.7461
-556.752 -0.105308 0 -17.3589
-744.407 -0.083895 0 -12.8012
-741.991 -0.0805905 0 -12.7735
-924.137 -0.0476546 0 -7.13485
-918.099 -0.0433523 0 -7.06804
-551.314 -0.092754 0 -17.2983
-554.94 -0.101109 0 -17.3384
-921.118 -0.0454993 0 -7.1012
-734.743 -0.070746 0 -12.6927
-553.127 -0.0969247 0 -17.3182
-739.575 -0.0772975 0 -12.7461
-737.159 -0.0740161 0 -12.7192
-918.099 -0.0433523 0 -7.06804
-912.061 -0.0390822 0 -7.00319
-547.689 -0.0844542 0 -17.2594
-551.314 -0.092754 0 -17.2983
-915.08 -0.0412133 0 -7.03537
-729.91 -0.06424 0 -12.6408
-549.501 -0.0885971 0 -17.2787
-734.743 -0.070746 0 -12.6927
-732.327 -0.0674874 0 -12.6665
-912.061 -0.0390822 0 -7.00319
-906.022 -0.0348438 0 -6.9403
-544.063 -0.0762099 0 -17.2216
-547.689 -0.0844542 0 -17.2594
-909.042 -0.0369591 0 -6.9715
-725.078 -0.0577789 0 -12.5905
-545.876 -0.0803252 0 -17.2404
-729.91 -0.06424 0 -12.6408
-727.494 -0.0610038 0 -12.6154
-906.022 -0.0348438 0 -6.9403
-899.984 -0.0306363 0 -6.87935
-540.438 -0.0680207 0 -17.185
-544.063 -0.0762099 0 -17.2216
-903.003 -0.0327362 0 -6.90958
-720.246 -0.0513623 0 -12.5417
-542.25 -0.0721084 0 -17.2032
-725.078 -0.0577789 0 -12.5905
-722.662 -0.0545651 0 -12.5659
-899.984 -0.0306363 0 -6.87935
-893.945 -0.0264592 0 -6.82034
-536.812 -0.0598861 0 -17.1496
-540.438 -0.0680207 0 -17.185
-896.965 -0.028544 0 -6.84961
-715.414 -0.0449897 0 -12.4945
-538.625 -0.0639466 0 -17.1672
-720.246 -0.0513623 0 -12.5417
-717.83 -0.0481705 0 -12.5179
-893.945 -0.0264592 0 -6.82034
-887.907 -0.0223118 0 -6.76324
-533.186 -0.051806 0 -17.1153
-536.812 -0.0598861 0 -17.1496
-890.926 -0.0243818 0 -6.79155
-710.581 -0.0386606 0 -12.4488
-534.999 -0.0558393 0 -17.1323
-715.414 -0.0449897 0 -12.4945
-712.997 -0.0418197 0 -12.4714
-887.907 -0.0223118 0 -6.76324
-881.868 -0.0181938 0 -6.70805
-529.561 -0.0437801 0 -17.0822
-533.186 -0.051806 0 -17.1153
-884.888 -0.0202492 0 -6.73541
-705.749 -0.0323748 0 -12.4046
-531.374 -0.0477863 0 -17.0986
-710.581 -0.0386606 0 -12.4488
-708.165 -0.0355124 0 -12.4265
-881.868 -0.0181938 0 -6.70805
-875.83 -0.0141043 0 -6.65476
-525.935 -0.0358078 0 -17.0502
-529.561 -0.0437801 0 -17.0822
-878.849 -0.0161455 0 -6.68117
-700.917 -0.0261315 0 -12.362
-527.748 -0.0397872 0 -17.0661
-705.749 -0.0323748 0 -12.4046
-703.333 -0.0292478 0 -12.3831
-875.83 -0.0141043 0 -6.65476
-869.791 -0.0100429 0 -6.60334
-522.31 -0.0278891 0 -17.0193
-525.935 -0.0358078 0 -17.0502
-872.811 -0.0120701 0 -6.62881
-696.084 -0.0199305 0 -12.3208
-524.122 -0.0318418 0 -17.0346
-700.917 -0.0261315 0 -12.362
-698.501 -0.0230257 0 -12.3412
-869.791 -0.0100429 0 -6.60334
-863.753 -0.00600902 0 -6.55379
-518.684 -0.0200236 0 -16.9896
-522.31 -0.0278891 0 -17.0193
-866.772 -0.00802254 0 -6.57833
-691.252 -0.0137713 0 -12.2812
-520.497 -0.0239497 0 -17.0043
-696.084 -0.0199305 0 -12.3208
-693.668 -0.0168457 0 -12.3008
-863.753 -0.00600902 0 -6.55379
-857.714 -0.00200219 0 -6.50609
-515.059 -0.0122109 0 -16.9609
-518.684 -0.0200236 0 -16.9896
-860.733 -0.00400226 0 -6.52971
-686.42 -0.00765355 0 -12.243
-516.871 -0.0161106 0 -16.9751
-691.252 -0.0137713 0 -12.2812
-688.836 -0.0107073 0 -12.2619
-857.714 -0.00200219 0 -6.50609
-851.675 0.00197812 0 -6.46024
-511.433 -0.00445086 0 -16.9334
-515.059 -0.0122109 0 -16.9609
-854.695 -8.75228e-06 0 -6.48293
-681.587 -0.0015768 0 -12.2063
-513.246 -0.00832432 0 -16.947
-686.42 -0.00765355 0 -12.243
-684.003 -0.00461007 0 -12.2245
-851.675 0.00197812 0 -6.46024
-845.637 0.00593243 0 -6.41621
-507.807 0.00325684 0 -16.907
-511.433 -0.00445086 0 -16.9334
-848.656 0.0039585 0 -6.43799
-676.755 0.00445931 0 -12.1711
-509.62 -0.000590486 0 -16.92
-681.587 -0.0015768 0 -12.2063
-679.171 0.00144631 0 -12.1885
-845.637 0.00593244 0 -6.41621
-839.598 0.00986124 0 -6.37399
-504.182 0.0109125 0 -16.8816
-507.807 0.00325683 0 -16.907
-842.617 0.0079 0 -6.39487
-671.922 0.0104552 0 -12.1373
-505.995 0.00709115 0 -16.8941
-676.755 0.00445931 0 -12.1711
-674.339 0.00746225 0 -12.154
-839.598 0.00986124 0 -6.37399
-833.559 0.013765 0 -6.33358
-500.556 0.0185163 0 -16.8573
-504.182 0.0109125 0 -16.8816
-836.579 0.0118162 0 -6.35356
-667.09 0.0164112 0 -12.105
-502.369 0.0147208 0 -16.8693
-671.922 0.0104552 0 -12.1373
-669.506 0.0134381 0 -12.121
-833.559 0.013765 0 -6.33358
-827.52 0.0176442 0 -6.29496
-496.931 0.0260685 0 -16.8341
-500.556 0.0185163 0 -16.8573
-830.54 0.0157076 0 -6.31405
-662.258 0.0223276 0 -12.0741
-498.743 0.0222988 0 -16.8456
-667.09 0.0164112 0 -12.105
-664.674 0.0193743 0 -12.0893
-827.52 0.0176442 0 -6.29496
-821.482 0.0214992 0 -6.25811
-493.305 0.0335695 0 -16.812
-496.931 0.0260685 0 -16.8341
-824.501 0.0195747 0 -6.27632
-657.425 0.0282049 0 -12.0446
-495.118 0.0298254 0 -16.8229
-662.258 0.0223276 0 -12.0741
-659.841 0.0252711 0 -12.0592
-821.482 0.0214992 0 -6.25811
-815.443 0.0253306 0 -6.22303
-489.68 0.0410193 0 -16.7909
-493.305 0.0335695 0 -16.812
-818.462 0.0234178 0 -6.24035
-652.593 0.0340433 0 -12.0165
-491.492 0.0373008 0 -16.8013
-657.425 0.0282049 0 -12.0446
-655.009 0.0311289 0 -12.0304
-815.443 0.0253306 0 -6.22303
-809.404 0.0291387 0 -6.1897
-486.054 0.0484184 0 -16.7709
-489.68 0.0410193 0 -16.7909
-812.423 0.0272375 0 -6.20615
-647.76 0.0398432 0 -11.9898
-487.867 0.0447252 0 -16.7808
-652.593 0.0340433 0 -12.0165
-650.176 0.0369481 0 -12.003
-809.404 0.0291387 0 -6.1897
-803.365 0.0329239 0 -6.1581
-482.428 0.0557668 0 -16.7519
-486.054 0.0484184 0 -16.7709
-806.385 0.0310341 0 -6.17368
-642.928 0.0456049 0 -11.9645
-484.241 0.0520989 0 -16.7613
-647.76 0.0398432 0 -11.9898
-645.344 0.0427288 0 -11.977
-803.365 0.0329239 0 -6.1581
-797.326 0.0366867 0 -6.12823
-478.803 0.0630647 0 -16.734
-482.428 0.0557668 0 -16.7519
-800.346 0.0348081 0 -6.14295
-638.095 0.0513288 0 -11.9406
-480.616 0.059422 0 -16.7428
-642.928 0.0456049 0 -11.9645
-640.512 0.0484716 0 -11.9524
-797.326 0.0366867 0 -6.12823
-791.287 0.0404275 0 -6.10007
-475.177 0.0703125 0 -16.7171
-478.803 0.0630647 0 -16.734
-794.307 0.0385599 0 -6.11394
-633.263 0.057015 0 -11.9181
-476.99 0.0666949 0 -16.7254
-638.095 0.0513288 0 -11.9406
-635.679 0.0541766 0 -11.9292
-791.287 0.0404275 0 -6.10007
-785.248 0.0441466 0 -6.07361
-471.552 0.0775103 0 -16.7012
-475.177 0.0703125 0 -16.7171
-788.268 0.0422897 0 -6.08663
-628.43 0.062664 0 -11.8969
-473.365 0.0739177 0 -16.709
-633.263 0.057015 0 -11.9181
-630.847 0.0598442 0 -11.9073
-785.248 0.0441466 0 -6.07361
-779.209 0.0478444 0 -6.04883
-467.926 0.0846583 0 -16.6863
-471.552 0.0775103 0 -16.7012
-782.229 0.0459981 0 -6.06101
-623.598 0.068276 0 -11.8771
-469.739 0.0810906 0 -16.6936
-628.43 0.062664 0 -11.8969
-626.014 0.0654746 0 -11.8868
-779.209 0.0478444 0 -6.04883
-773.171 0.0515212 0 -6.02573
-464.301 0.0917567 0 -16.6724
-467.926 0.0846583 0 -16.6863
-776.19 0.0496854 0 -6.03707
-618.765 0.0738512 0 -11.8586
-466.114 0.0882137 0 -16.6792
-623.598 0.068276 0 -11.8771
-621.182 0.0710681 0 -11.8677
-773.171 0.0515212 0 -6.02573
-767.132 0.0551774 0 -6.00429
-460.675 0.0988057 0 -16.6595
-464.301 0.0917567 0 -16.6724
-770.151 0.0533518 0 -6.0148
-613.933 0.0793899 0 -11.8414
-462.488 0.0952874 0 -16.6658
-618.765 0.0738512 0 -11.8586
-616.349 0.0766251 0 -11.8499
-767.132 0.0551774 0 -6.00429
-761.093 0.0588133 0 -5.98449
-457.05 0.105805 0 -16.6476
-460.675 0.0988057 0 -16.6595
-764.112 0.0569979 0 -5.99418
-609.1 0.0848924 0 -11.8256
-458.862 0.102312 0 -16.6535
-613.933 0.0793899 0 -11.8414
-611.517 0.0821457 0 -11.8334
-761.093 0.0588133 0 -5.98449
-755.054 0.0624293 0 -5.96633
-453.424 0.112756 0 -16.6367
-457.05 0.105805 0 -16.6476
-758.073 0.0606238 0 -5.97521
-604.268 0.090359 0 -11.8111
-455.237 0.109287 0 -16.642
-609.1 0.0848924 0 -11.8256
-606.684 0.0876302 0 -11.8182
-755.054 0.0624293 0 -5.96633
-749.015 0.0660257 0 -5.94978
-449.799 0.119658 0 -16.6268
-453.424 0.112756 0 -16.6367
-752.034 0.0642299 0 -5.95785
-599.435 0.0957898 0 -11.7978
-451.611 0.116213 0 -16.6316
-604.268 0.090359 0 -11.8111
-601.852 0.0930788 0 -11.8043
-749.015 0.0660257 0 -5.94978
-742.975 0.0696027 0 -5.93485
-446.173 0.126511 0 -16.6178
-449.799 0.119658 0 -16.6268
-745.995 0.0678166 0 -5.94212
-594.603 0.101185 0 -11.7859
-447.986 0.12309 0 -16.6221
-599.435 0.0957898 0 -11.7978
-597.019 0.0984919 0 -11.7917
-742.975 0.0696027 0 -5.93485
-736.936 0.0731606 0 -5.92151
-442.548 0.133315 0 -16.6098
-446.173 0.126511 0 -16.6178
-739.956 0.071384 0 -5.92798
-589.77 0.106545 0 -11.7752
-444.36 0.129919 0 -16.6136
-594.603 0.101185 0 -11.7859
-592.187 0.103869 0 -11.7804
-736.936 0.0731606 0 -5.92151
-730.897 0.0766998 0 -5.90975
-438.922 0.140071 0 -16.6027
-442.548 0.133315 0 -16.6098
-733.917 0.0749325 0 -5.91543
-584.938 0.11187 0 -11.7658
-440.735 0.136699 0 -16.6061
-589.77 0.106545 0 -11.7752
-587.354 0.109212 0 -11.7703
-730.897 0.0766998 0 -5.90975
-724.858 0.0802205 0 -5.89956
-435.297 0.146779 0 -16.5965
-438.922 0.140071 0 -16.6027
-727.878 0.0784624 0 -5.90446
-580.105 0.11716 0 -11.7576
-437.109 0.143431 0 -16.5995
-584.938 0.11187 0 -11.7658
-582.522 0.114519 0 -11.7615
-724.858 0.0802205 0 -5.89956
-718.819 0.0837229 0 -5.89093
-431.671 0.153438 0 -16.5913
-435.297 0.146779 0 -16.5965
-721.839 0.081974 0 -5.89505
-575.273 0.122415 0 -11.7507
-433.484 0.150114 0 -16.5938
-580.105 0.11716 0 -11.7576
-577.689 0.119792 0 -11.754
-718.819 0.0837229 0 -5.89093
-712.78 0.0872073 0 -5.88384
-428.046 0.160049 0 -16.5871
-431.671 0.153438 0 -16.5913
-715.8 0.0854673 0 -5.88719
-570.44 0.127636 0 -11.745
-429.858 0.15675 0 -16.5891
-575.273 0.122415 0 -11.7507
-572.857 0.12503 0 -11.7477
-712.78 0.0872073 0 -5.88384
-706.741 0.0906739 0 -5.87828
-424.42 0.166613 0 -16.5837
-428.046 0.160049 0 -16.5871
-709.76 0.0889428 0 -5.88087
-565.608 0.132823 0 -11.7406
-426.233 0.163337 0 -16.5853
-570.44 0.127636 0 -11.745
-568.024 0.130234 0 -11.7426
-706.741 0.0906739 0 -5.87828
-700.702 0.094123 0 -5.87423
-420.795 0.173128 0 -16.5813
-424.42 0.166613 0 -16.5837
-703.721 0.0924007 0 -5.87607
-560.775 0.137975 0 -11.7373
-422.608 0.169876 0 -16.5824
-565.608 0.132823 0 -11.7406
-563.191 0.135403 0 -11.7388
-700.702 0.094123 0 -5.87423
-694.663 0.0975548 0 -5.87169
-417.169 0.179596 0 -16.5797
-420.795 0.173128 0 -16.5813
-697.682 0.095841 0 -5.87278
-555.943 0.143094 0 -11.7353
-418.982 0.176368 0 -16.5804
-560.775 0.137975 0 -11.7373
-558.359 0.140539 0 -11.7362
-694.663 0.0975548 0 -5.87169
-688.623 0.100969 0 -5.87065
-413.544 0.186016 0 -16.5791
-417.169 0.179596 0 -16.5797
-691.643 0.0992642 0 -5.87098
-551.11 0.148178 0 -11.7344
-415.357 0.182812 0 -16.5793
-555.943 0.143094 0 -11.7353
-553.526 0.14564 0 -11.7347
-688.623 0.100969 0 -5.87065
-682.584 0.104367 0 -5.87108
-409.918 0.192389 0 -16.5793
-413.544 0.186016 0 -16.5791
-685.604 0.10267 0 -5.87068
-546.278 0.153229 0 -11.7348
-411.731 0.189208 0 -16.5791
-551.11 0.148178 0 -11.7344
-548.694 0.150708 0 -11.7345
-682.584 0.104367 0 -5.87108
-676.545 0.107748 0 -5.87297
-406.293 0.198714 0 -16.5804
-409.918 0.192389 0 -16.5793
-679.565 0.10606 0 -5.87184
-541.445 0.158246 0 -11.7363
-408.106 0.195557 0 -16.5798
-546.278 0.153229 0 -11.7348
-543.861 0.155742 0 -11.7354
-676.545 0.107748 0 -5.87297
-670.506 0.111112 0 -5.87632
-402.668 0.204992 0 -16.5824
-406.293 0.198714 0 -16.5804
-673.525 0.109432 0 -5.87447
-536.613 0.16323 0 -11.739
-404.48 0.201859 0 -16.5813
-541.445 0.158246 0 -11.7363
-539.029 0.160743 0 -11.7375
-670.506 0.111112 0 -5.87632
-664.467 0.11446 0 -5.88111
-399.042 0.211222 0 -16.5853
-402.668 0.204992 0 -16.5824
-667.486 0.112788 0 -5.87853
-531.78 0.168181 0 -11.7428
-400.855 0.208113 0 -16.5837
-536.613 0.16323 0 -11.739
-534.196 0.16571 0 -11.7407
-664.467 0.11446 0 -5.88111
-658.427 0.117792 0 -5.88732
-395.417 0.217405 0 -16.589
-399.042 0.211222 0 -16.5853
-661.447 0.116128 0 -5.88404
-526.948 0.173098 0 -11.7477
-397.229 0.21432 0 -16.587
-531.78 0.168181 0 -11.7428
-529.364 0.170644 0 -11.7451
-658.427 0.117792 0 -5.88732
-652.388 0.121107 0 -5.89495
-391.791 0.223542 0 -16.5936
-395.417 0.217405 0 -16.589
-655.408 0.119452 0 -5.89096
-522.115 0.177982 0 -11.7538
-393.604 0.220479 0 -16.5912
-526.948 0.173098 0 -11.7477
-524.531 0.175544 0 -11.7507
-652.388 0.121107 0 -5.89495
-646.349 0.124407 0 -5.90398
-388.166 0.229631 0 -16.5989
-391.791 0.223542 0 -16.5936
-649.369 0.122759 0 -5.89929
-517.283 0.182834 0 -11.7611
-389.979 0.226592 0 -16.5961
-522.115 0.177982 0 -11.7538
-519.699 0.180412 0 -11.7573
-646.349 0.124407 0 -5.90398
-640.31 0.127691 0 -5.91439
-384.541 0.235673 0 -16.6052
-388.166 0.229631 0 -16.5989
-643.329 0.126051 0 -5.90901
-512.45 0.187652 0 -11.7694
-386.353 0.232657 0 -16.602
-517.283 0.182834 0 -11.7611
-514.866 0.185247 0 -11.7651
-640.31 0.127691 0 -5.91439
-634.27 0.130959 0 -5.92618
-380.915 0.241668 0 -16.6122
-384.541 0.235673 0 -16.6052
-637.29 0.129327 0 -5.92012
-507.618 0.192438 0 -11.7788
-382.728 0.238676 0 -16.6086
-512.45 0.187652 0 -11.7694
-510.034 0.190049 0 -11.774
-634.27 0.130959 0 -5.92618
-628.231 0.134211 0 -5.93933
-377.29 0.247616 0 -16.6201
-380.915 0.241668 0 -16.6122
-631.251 0.132587 0 -5.93259
-502.785 0.19719 0 -11.7893
-379.103 0.244648 0 -16.6161
-507.618 0.192438 0 -11.7788
-505.201 0.194818 0 -11.7839
-628.231 0.134211 0 -5.93933
-622.192 0.137448 0 -5.95383
-373.665 0.253517 0 -16.6288
-377.29 0.247616 0 -16.6201
-625.211 0.135831 0 -5.94642
-497.952 0.201911 0 -11.8009
-375.477 0.250572 0 -16.6244
-502.785 0.19719 0 -11.7893
-500.369 0.199555 0 -11.795
-622.192 0.137448 0 -5.95383
-616.153 0.140669 0 -5.96967
-370.039 0.259371 0 -16.6383
-373.665 0.253517 0 -16.6288
-619.172 0.13906 0 -5.96159
-493.12 0.206598 0 -11.8136
-371.852 0.25645 0 -16.6334
-497.952 0.201911 0 -11.8009
-495.536 0.204258 0 -11.8071
-616.153 0.140669 0 -5.96967
-610.113 0.143875 0 -5.98683
-366.414 0.265179 0 -16.6486
-370.039 0.259371 0 -16.6383
-613.133 0.142274 0 -5.97808
-488.287 0.211253 0 -11.8273
-368.227 0.262281 0 -16.6433
-493.12 0.206598 0 -11.8136
-490.704 0.20893 0 -11.8203
-610.113 0.143875 0 -5.98683
-604.074 0.147066 0 -6.0053
-362.789 0.270939 0 -16.6596
-366.414 0.265179 0 -16.6486
-607.094 0.145472 0 -5.9959
-483.455 0.215875 0 -11.8421
-364.601 0.268065 0 -16.654
-488.287 0.211253 0 -11.8273
-485.871 0.213568 0 -11.8346
-604.074 0.147066 0 -6.0053
-598.035 0.150241 0 -6.02506
-359.163 0.276653 0 -16.6715
-362.789 0.270939 0 -16.6596
-601.054 0.148655 0 -6.01502
-478.622 0.220465 0 -11.8579
-360.976 0.273802 0 -16.6654
-483.455 0.215875 0 -11.8421
-481.039 0.218175 0 -11.8498
-598.035 0.150241 0 -6.02506
-591.995 0.153401 0 -6.04611
-355.538 0.28232 0 -16.6841
-359.163 0.276653 0 -16.6715
-595.015 0.151823 0 -6.03543
-473.79 0.225023 0 -11.8747
-357.351 0.279493 0 -16.6777
-478.622 0.220465 0 -11.8579
-476.206 0.222748 0 -11.8662
-591.995 0.153401 0 -6.04611
-585.956 0.156546 0 -6.06843
-351.913 0.287941 0 -16.6975
-355.538 0.28232 0 -16.6841
-588.976 0.154976 0 -6.05711
-468.957 0.229548 0 -11.8926
-353.725 0.285136 0 -16.6907
-473.79 0.225023 0 -11.8747
-471.374 0.227289 0 -11.8835
-585.956 0.156546 0 -6.06843
-579.916 0.159676 0 -6.09201
-348.288 0.293514 0 -16.7116
-351.913 0.287941 0 -16.6975
-582.936 0.158113 0 -6.08007
-464.125 0.234041 0 -11.9114
-350.1 0.290733 0 -16.7044
-468.957 0.229548 0 -11.8926
-466.541 0.231798 0 -11.9019
-579.916 0.159676 0 -6.09201
-573.877 0.162791 0 -6.11683
-344.662 0.299041 0 -16.7265
-348.288 0.293514 0 -16.7116
-576.897 0.161236 0 -6.10427
-459.292 0.238501 0 -11.9313
-346.475 0.296283 0 -16.7189
-464.125 0.234041 0 -11.9114
-461.709 0.236275 0 -11.9212
-573.877 0.162791 0 -6.11683
-567.838 0.165891 0 -6.14289
-341.037 0.304521 0 -16.7421
-344.662 0.299041 0 -16.7265
-570.857 0.164343 0 -6.12971
-454.46 0.242929 0 -11.9521
-342.85 0.301787 0 -16.7342
-459.292 0.238501 0 -11.9313
-456.876 0.240719 0 -11.9416
-567.838 0.165891 0 -6.14289
-561.798 0.168976 0 -6.17016
-337.412 0.309954 0 -16.7584
-341.037 0.304521 0 -16.7421
-564.818 0.167435 0 -6.15638
-449.627 0.247324 0 -11.9739
-339.224 0.307243 0 -16.7502
-454.46 0.242929 0 -11.9521
-452.044 0.245131 0 -11.9629
-561.798 0.168976 0 -6.17016
-555.759 0.172046 0 -6.19865
-333.787 0.31534 0 -16.7755
-337.412 0.309954 0 -16.7584
-558.779 0.170513 0 -6.18426
-444.795 0.251687 0 -11.9967
-335.599 0.312653 0 -16.7669
-449.627 0.247324 0 -11.9739
-447.211 0.24951 0 -11.9852
-555.759 0.172046 0 -6.19865
-549.72 0.1751 0 -6.22832
-330.161 0.32068 0 -16.7933
-333.787 0.31534 0 -16.7755
-552.739 0.173575 0 -6.21333
-439.963 0.256018 0 -12.0204
-331.974 0.318016 0 -16.7843
-444.795 0.251687 0 -11.9967
-442.379 0.253857 0 -12.0085
-549.72 0.1751 0 -6.22832
-543.68 0.17814 0 -6.25917
-326.536 0.325973 0 -16.8118
-330.161 0.32068 0 -16.7933
-546.7 0.176622 0 -6.2436
-435.13 0.260316 0 -12.0451
-328.349 0.323332 0 -16.8025
-439.963 0.256018 0 -12.0204
-437.546 0.258171 0 -12.0327
-543.68 0.17814 0 -6.25917
-537.641 0.181164 0 -6.2912
-322.911 0.331218 0 -16.831
-326.536 0.325973 0 -16.8118
-540.66 0.179654 0 -6.27504
-430.298 0.264582 0 -12.0707
-324.724 0.328601 0 -16.8213
-435.13 0.260316 0 -12.0451
-432.714 0.262453 0 -12.0578
-537.641 0.181164 0 -6.2912
-531.601 0.184173 0 -6.32437
-319.286 0.336417 0 -16.8509
-322.911 0.331218 0 -16.831
-534.621 0.182671 0 -6.30764
-425.465 0.268816 0 -12.0973
-321.098 0.333824 0 -16.8409
-430.298 0.264582 0 -12.0707
-427.881 0.266703 0 -12.0839
-531.601 0.184173 0 -6.32437
-525.562 0.187168 0 -6.35869
-315.661 0.341569 0 -16.8715
-319.286 0.336417 0 -16.8509
-528.582 0.185672 0 -6.34139
-420.633 0.273016 0 -12.1247
-317.473 0.338999 0 -16.8611
-425.465 0.268816 0 -12.0973
-423.049 0.27092 0 -12.1109
-525.562 0.187168 0 -6.35869
-519.522 0.190147 0 -6.39414
-312.036 0.346674 0 -16.8927
-315.661 0.341569 0 -16.8715
-522.542 0.188659 0 -6.37627
-415.8 0.277185 0 -12.1531
-313.848 0.344127 0 -16.882
-420.633 0.273016 0 -12.1247
-418.216 0.275105 0 -12.1388
-519.522 0.190147 0 -6.39414
-513.483 0.19311 0 -6.4307
-308.41 0.351732 0 -16.9146
-312.036 0.346674 0 -16.8927
-516.503 0.19163 0 -6.41228
-410.968 0.28132 0 -12.1823
-310.223 0.349209 0 -16.9036
-415.8 0.277185 0 -12.1531
-413.384 0.279256 0 -12.1676
-513.483 0.19311 0 -6.4307
-507.443 0.196059 0 -6.46836
-304.785 0.356742 0 -16.9372
-308.41 0.351732 0 -16.9146
-510.463 0.194586 0 -6.44939
-406.135 0.285423 0 -12.2125
-306.598 0.354243 0 -16.9259
-410.968 0.28132 0 -12.1823
-408.551 0.283376 0 -12.1973
-507.443 0.196059 0 -6.46836
-501.404 0.198991 0 -6.50712
-301.16 0.361706 0 -16.9605
-304.785 0.356742 0 -16.9372
-504.424 0.197527 0 -6.4876
-401.303 0.289493 0 -12.2435
-302.973 0.35923 0 -16.9488
-406.135 0.285423 0 -12.2125
-403.719 0.287462 0 -12.2278
-501.404 0.198991 0 -6.50712
-495.364 0.201909 0 -6.54695
-297.535 0.366622 0 -16.9844
-301.16 0.361706 0 -16.9605
-498.384 0.200452 0 -6.5269
-396.47 0.293531 0 -12.2753
-299.348 0.36417 0 -16.9723
-401.303 0.289493 0 -12.2435
-398.887 0.291516 0 -12.2593
-495.364 0.201909 0 -6.54695
-489.325 0.204811 0 -6.58784
-293.91 0.371491 0 -17.0089
-297.535 0.366622 0 -16.9844
-492.345 0.203362 0 -6.56726
-391.638 0.297535 0 -12.308
-295.722 0.369063 0 -16.9965
-396.47 0.293531 0 -12.2753
-394.054 0.295537 0 -12.2916
-489.325 0.204811 0 -6.58784
-483.285 0.207697 0 -6.62979
-290.285 0.376313 0 -17.034
-293.91 0.371491 0 -17.0089
-486.305 0.206256 0 -6.60868
-386.805 0.301507 0 -12.3416
-292.097 0.373908 0 -17.0214
-391.638 0.297535 0 -12.308
-389.222 0.299525 0 -12.3247
-483.285 0.207697 0 -6.62979
-477.246 0.210568 0 -6.67277
-286.66 0.381087 0 -17.0598
-290.285 0.376313 0 -17.034
-480.266 0.209134 0 -6.65115
-381.973 0.305445 0 -12.376
-288.472 0.378706 0 -17.0468
-386.805 0.301507 0 -12.3416
-384.389 0.30348 0 -12.3587
-477.246 0.210568 0 -6.67277
-471.206 0.213422 0 -6.71678
-283.035 0.385814 0 -17.0862
-286.66 0.381087 0 -17.0598
-474.226 0.211997 0 -6.69465
-377.141 0.309351 0 -12.4112
-284.847 0.383457 0 -17.0729
-381.973 0.305445 0 -12.376
-379.557 0.307402 0 -12.3935
-471.206 0.213422 0 -6.71678
-465.167 0.216261 0 -6.7618
-279.41 0.390493 0 -17.1132
-283.035 0.385814 0 -17.0862
-468.187 0.214844 0 -6.73916
-372.308 0.313223 0 -12.4472
-281.222 0.388159 0 -17.0996
-377.141 0.309351 0 -12.4112
-374.724 0.311291 0 -12.4291
-465.167 0.216261 0 -6.7618
-459.127 0.219084 0 -6.80781
-275.785 0.395125 0 -17.1408
-279.41 0.390493 0 -17.1132
-462.147 0.217674 0 -6.78468
-367.476 0.317062 0 -12.484
-277.597 0.392815 0 -17.1269
-372.308 0.313223 0 -12.4472
-369.892 0.315146 0 -12.4655
-459.127 0.219084 0 -6.80781
-453.088 0.22189 0 -6.85482
-272.16 0.399708 0 -17.169
-275.785 0.395125 0 -17.1408
-456.108 0.220489 0 -6.83119
-362.643 0.320867 0 -12.5216
-273.972 0.397422 0 -17.1548
-367.476 0.317062 0 -12.484
-365.059 0.318968 0 -12.5027
-453.088 0.22189 0 -6.85482
-447.048 0.22468 0 -6.9028
-268.535 0.404244 0 -17.1978
-272.16 0.399708 0 -17.169
-450.068 0.223287 0 -6.87869
-357.811 0.324639 0 -12.56
-270.347 0.401982 0 -17.1833
-362.643 0.320867 0 -12.5216
-360.227 0.322757 0 -12.5407
-447.048 0.22468 0 -6.9028
-441.009 0.227454 0 -6.95173
-264.91 0.408732 0 -17.2271
-268.535 0.404244 0 -17.1978
-444.028 0.226069 0 -6.92715
-352.978 0.328377 0 -12.5991
-266.722 0.406494 0 -17.2124
-357.811 0.324639 0 -12.56
-355.395 0.326512 0 -12.5795
-441.009 0.227454 0 -6.95173
-434.969 0.230211 0 -7.00162
-261.285 0.413172 0 -17.257
-264.91 0.408732 0 -17.2271
-437.989 0.228834 0 -6.97656
-348.146 0.332081 0 -12.639
-263.097 0.410958 0 -17.242
-352.978 0.328377 0 -12.5991
-350.562 0.330233 0 -12.619
-434.969 0.230211 0 -7.00162
-428.93 0.232951 0 -7.05244
-257.66 0.417563 0 -17.2875
-261.285 0.413172 0 -17.257
-431.949 0.231583 0 -7.02691
-343.314 0.335752 0 -12.6797
-259.472 0.415374 0 -17.2722
-348.146 0.332081 0 -12.639
-345.73 0.333921 0 -12.6593
-428.93 0.232951 0 -7.05244
-422.89 0.235674 0 -7.10418
-254.035 0.421907 0 -17.3186
-257.66 0.417563 0 -17.2875
-425.91 0.234315 0 -7.07819
-338.481 0.339388 0 -12.7211
-255.847 0.419741 0 -17.303
-343.314 0.335752 0 -12.6797
-340.897 0.337574 0 -12.7003
-422.89 0.235674 0 -7.10418
-416.85 0.238381 0 -7.15682
-250.41 0.426202 0 -17.3501
-254.035 0.421907 0 -17.3186
-419.87 0.23703 0 -7.13039
-333.649 0.34299 0 -12.7632
-252.222 0.42406 0 -17.3343
-338.481 0.339388 0 -12.7211
-336.065 0.341193 0 -12.742
-416.85 0.238381 0 -7.15682
-410.811 0.24107 0 -7.21037
-246.785 0.430448 0 -17.3823
-250.41 0.426202 0 -17.3501
-413.831 0.239727 0 -7.18348
-328.816 0.346558 0 -12.806
-248.597 0.428331 0 -17.3661
-333.649 0.34299 0 -12.7632
-331.232 0.344778 0 -12.7845
-410.811 0.24107 0 -7.21037
-404.771 0.243741 0 -7.26479
-243.16 0.434646 0 -17.4149
-246.785 0.430448 0 -17.3823
-407.791 0.242408 0 -7.23747
-323.984 0.350091 0 -12.8496
-244.972 0.432553 0 -17.3985
-328.816 0.346558 0 -12.806
-326.4 0.348329 0 -12.8277
-404.771 0.243741 0 -7.26479
-398.731 0.246395 0 -7.32009
-239.535 0.438796 0 -17.4481
-243.16 0.434646 0 -17.4149
-401.751 0.24507 0 -7.29233
-319.151 0.35359 0 -12.8938
-241.347 0.436727 0 -17.4314
-323.984 0.350091 0 -12.8496
-321.568 0.351845 0 -12.8716
-398.731 0.246395 0 -7.32009
-392.692 0.249031 0 -7.37624
-235.91 0.442896 0 -17.4818
-239.535 0.438796 0 -17.4481
-395.712 0.247716 0 -7.34806
-314.319 0.357054 0 -12.9387
-237.722 0.440852 0 -17.4649
-319.151 0.35359 0 -12.8938
-316.735 0.355326 0 -12.9162
-392.692 0.249031 0 -7.37624
-386.652 0.25165 0 -7.43323
-232.285 0.446947 0 -17.5159
-235.91 0.442896 0 -17.4818
-389.672 0.250343 0 -7.40463
-309.487 0.360483 0 -12.9843
-234.097 0.444928 0 -17.4988
-314.319 0.357054 0 -12.9387
-311.903 0.358773 0 -12.9614
-386.652 0.25165 0 -7.43323
-380.612 0.25425 0 -7.49106
-228.66 0.45095 0 -17.5506
-232.285 0.446947 0 -17.5159
-383.632 0.252952 0 -7.46204
-304.654 0.363877 0 -13.0306
-230.473 0.448955 0 -17.5332
-309.487 0.360483 0 -12.9843
-307.07 0.362184 0 -13.0074
-380.612 0.25425 0 -7.49106
-374.573 0.256831 0 -7.5497
-225.035 0.454903 0 -17.5858
-228.66 0.45095 0 -17.5506
-377.593 0.255543 0 -7.52028
-299.822 0.367236 0 -13.0775
-226.848 0.452932 0 -17.5682
-304.654 0.363877 0 -13.0306
-302.238 0.365561 0 -13.054
-374.573 0.256831 0 -7.5497
-368.533 0.259394 0 -7.60915
-221.41 0.458806 0 -17.6215
-225.035 0.454903 0 -17.5858
-371.553 0.258115 0 -7.57932
-294.989 0.370559 0 -13.1251
-223.223 0.456861 0 -17.6036
-299.822 0.367236 0 -13.0775
-297.406 0.368902 0 -13.1012
-368.533 0.259394 0 -7.60915
-362.493 0.261939 0 -7.66939
-217.785 0.462661 0 -17.6576
-221.41 0.458806 0 -17.6215
-365.513 0.260669 0 -7.63917
-290.157 0.373847 0 -13.1732
-219.598 0.46074 0 -17.6395
-294.989 0.370559 0 -13.1251
-292.573 0.372207 0 -13.1491
-362.493 0.261939 0 -7.66939
-356.454 0.264464 0 -7.7304
-214.161 0.466465 0 -17.6942
-217.785 0.462661 0 -17.6576
-359.474 0.263204 0 -7.6998
-285.325 0.377098 0 -13.2221
-215.973 0.464569 0 -17.6759
-290.157 0.373847 0 -13.1732
-287.741 0.375477 0 -13.1976
-356.454 0.264464 0 -7.7304
-350.414 0.26697 0 -7.79219
-210.536 0.47022 0 -17.7313
-214.161 0.466465 0 -17.6942
-353.434 0.265719 0 -7.7612
-280.492 0.380314 0 -13.2715
-212.348 0.468349 0 -17.7127
-285.325 0.377098 0 -13.2221
-282.908 0.378711 0 -13.2467
-350.414 0.26697 0 -7.79219
-344.374 0.269457 0 -7.85472
-206.911 0.473925 0 -17.7688
-210.536 0.47022 0 -17.7313
-347.394 0.268216 0 -7.82336
-275.66 0.383494 0 -13.3215
-208.723 0.472078 0 -17.75
-280.492 0.380314 0 -13.2715
-278.076 0.381909 0 -13.2964
-344.374 0.269457 0 -7.85472
-338.334 0.271924 0 -7.918
-203.286 0.477579 0 -17.8068
-206.911 0.473925 0 -17.7688
-341.354 0.270693 0 -7.88627
-270.827 0.386637 0 -13.3721
-205.099 0.475758 0 -17.7877
-275.66 0.383494 0 -13.3215
-273.244 0.38507 0 -13.3468
-338.334 0.271924 0 -7.918
-332.295 0.274371 0 -7.982
-199.661 0.481184 0 -17.8452
-203.286 0.477579 0 -17.8068
-335.315 0.27315 0 -7.94991
-265.995 0.389744 0 -13.4233
-201.474 0.479388 0 -17.8259
-270.827 0.386637 0 -13.3721
-268.411 0.388195 0 -13.3977
-332.295 0.274371 0 -7.982
-326.255 0.276797 0 -8.04672
-196.037 0.484738 0 -17.884
-199.661 0.481184 0 -17.8452
-329.275 0.275586 0 -8.01427
-261.163 0.392814 0 -13.4751
-197.849 0.482967 0 -17.8645
-265.995 0.389744 0 -13.4233
-263.579 0.391284 0 -13.4492
-326.255 0.276797 0 -8.04672
-320.215 0.279204 0 -8.11213
-192.412 0.488241 0 -17.9232
-196.037 0.484738 0 -17.884
-323.235 0.278003 0 -8.07934
-256.33 0.395847 0 -13.5274
-194.224 0.486496 0 -17.9035
-261.163 0.392814 0 -13.4751
-258.746 0.394335 0 -13.5012
-320.215 0.279204 0 -8.11213
-314.175 0.281589 0 -8.17824
-188.787 0.491694 0 -17.9629
-192.412 0.488241 0 -17.9232
-317.195 0.280399 0 -8.1451
-251.498 0.398843 0 -13.5803
-190.599 0.489974 0 -17.943
-256.33 0.395847 0 -13.5274
-253.914 0.39735 0 -13.5538
-314.175 0.281589 0 -8.17824
-308.136 0.283954 0 -8.24502
-185.162 0.495096 0 -18.0029
-188.787 0.491694 0 -17.9629
-311.155 0.282774 0 -8.21155
-246.665 0.401802 0 -13.6338
-186.975 0.493401 0 -17.9829
-251.498 0.398843 0 -13.5803
-249.082 0.400327 0 -13.607
-308.136 0.283954 0 -8.24502
-302.096 0.286298 0 -8.31246
-181.537 0.498447 0 -18.0434
-185.162 0.495096 0 -18.0029
-305.116 0.285129 0 -8.27866
-241.833 0.404723 0 -13.6877
-183.35 0.496778 0 -18.0231
-246.665 0.401802 0 -13.6338
-244.249 0.403267 0 -13.6607
-302.096 0.286298 0 -8.31246
-296.056 0.28862 0 -8.38055
-177.913 0.501746 0 -18.0843
-181.537 0.498447 0 -18.0434
-299.076 0.287461 0 -8.34643
-237.001 0.407606 0 -13.7422
-179.725 0.500103 0 -18.0638
-241.833 0.404723 0 -13.6877
-239.417 0.406169 0 -13.7149
-296.056 0.28862 0 -8.38055
-290.016 0.29092 0 -8.44928
-174.288 0.504994 0 -18.1255
-177.913 0.501746 0 -18.0843
-293.036 0.289773 0 -8.41484
-232.168 0.410451 0 -13.7972
-176.1 0.503377 0 -18.1048
-237.001 0.407606 0 -13.7422
-234.584 0.409033 0 -13.7696
-290.016 0.29092 0 -8.44928
-283.976 0.293199 0 -8.51863
-170.663 0.508191 0 -18.1671
-174.288 0.504994 0 -18.1255
-286.996 0.292062 0 -8.48388
-227.336 0.413258 0 -13.8527
-172.475 0.506599 0 -18.1463
-232.168 0.410451 0 -13.7972
-229.752 0.411859 0 -13.8249
-283.976 0.293199 0 -8.51863
-277.936 0.295455 0 -8.58859
-167.038 0.511336 0 -18.2091
-170.663 0.508191 0 -18.1671
-280.956 0.294329 0 -8.55353
-222.503 0.416027 0 -13.9086
-168.851 0.50977 0 -18.188
-227.336 0.413258 0 -13.8527
-224.92 0.414647 0 -13.8806
-277.936 0.295455 0 -8.58859
-271.896 0.297688 0 -8.65915
-163.414 0.514429 0 -18.2514
-167.038 0.511336 0 -18.2091
-274.916 0.296574 0 -8.6238
-217.671 0.418756 0 -13.9651
-165.226 0.512889 0 -18.2302
-222.503 0.416027 0 -13.9086
-220.087 0.417396 0 -13.9368
-271.896 0.297688 0 -8.65915
-265.856 0.299899 0 -8.73029
-159.789 0.51747 0 -18.2941
-163.414 0.514429 0 -18.2514
-268.876 0.298796 0 -8.69465
-212.839 0.421447 0 -14.022
-161.601 0.515956 0 -18.2727
-217.671 0.418756 0 -13.9651
-215.255 0.420107 0 -13.9935
-265.856 0.299899 0 -8.73029
-259.816 0.302087 0 -8.802
-156.164 0.520458 0 -18.3371
-159.789 0.51747 0 -18.2941
-262.836 0.300996 0 -8.76608
-208.006 0.424099 0 -14.0794
-157.977 0.518971 0 -18.3156
-212.839 0.421447 0 -14.022
-210.422 0.422778 0 -14.0506
-259.816 0.302087 0 -8.802
-253.776 0.304251 0 -8.87427
-152.539 0.523394 0 -18.3805
-156.164 0.520458 0 -18.3371
-256.796 0.303172 0 -8.83807
-203.174 0.426711 0 -14.1372
-154.352 0.521933 0 -18.3588
-208.006 0.424099 0 -14.0794
-205.59 0.42541 0 -14.1082
-253.776 0.304251 0 -8.87427
-247.737 0.306391 0 -8.94709
-148.915 0.526278 0 -18.4242
-152.539 0.523394 0 -18.3805
-250.757 0.305324 0 -8.91062
-198.341 0.429284 0 -14.1954
-150.727 0.524843 0 -18.4023
-203.174 0.426711 0 -14.1372
-200.758 0.428002 0 -14.1663
-247.737 0.306391 0 -8.94709
-241.697 0.308508 0 -9.02044
-145.29 0.529109 0 -18.4682
-148.915 0.526278 0 -18.4242
-244.717 0.307452 0 -8.9837
-193.509 0.431817 0 -14.2541
-147.102 0.5277 0 -18.4461
-198.341 0.429284 0 -14.1954
-195.925 0.430555 0 -14.2247
-241.697 0.308508 0 -9.02044
-235.657 0.3106 0 -9.09431
-141.665 0.531886 0 -18.5125
-145.29 0.529109 0 -18.4682
-238.677 0.309557 0 -9.05731
-188.677 0.434309 0 -14.3132
-143.478 0.530504 0 -18.4903
-193.509 0.431817 0 -14.2541
-191.093 0.433068 0 -14.2836
-235.657 0.3106 0 -9.09431
-229.617 0.312667 0 -9.16869
-138.041 0.534611 0 -18.5571
-141.665 0.531886 0 -18.5125
-232.637 0.311637 0 -9.13143
-183.844 0.436761 0 -14.3727
-139.853 0.533255 0 -18.5348
-188.677 0.434309 0 -14.3132
-186.26 0.43554 0 -14.3429
-229.617 0.312667 0 -9.16869
-223.576 0.31471 0 -9.24355
-134.416 0.537282 0 -18.6021
-138.041 0.534611 0 -18.5571
-226.597 0.313692 0 -9.20606
-179.012 0.439173 0 -14.4326
-136.228 0.535953 0 -18.5796
-183.844 0.436761 0 -14.3727
-181.428 0.437972 0 -14.4026
-223.576 0.31471 0 -9.24355
-217.536 0.316727 0 -9.3189
-130.791 0.539899 0 -18.6473
-134.416 0.537282 0 -18.6021
-220.556 0.315722 0 -9.28117
-174.179 0.441544 0 -14.4929
-132.604 0.538597 0 -18.6246
-179.012 0.439173 0 -14.4326
-176.596 0.440364 0 -14.4627
-217.536 0.316727 0 -9.3189
-211.496 0.318719 0 -9.39472
-127.167 0.542463 0 -18.6928
-130.791 0.539899 0 -18.6473
-214.516 0.317726 0 -9.35675
-169.347 0.443873 0 -14.5536
-128.979 0.541188 0 -18.67
-174.179 0.441544 0 -14.4929
-171.763 0.442714 0 -14.5232
-211.496 0.318719 0 -9.39472
-205.456 0.320685 0 -9.47099
-123.542 0.544972 0 -18.7385
-127.167 0.542463 0 -18.6928
-208.476 0.319705 0 -9.4328
-164.514 0.446161 0 -14.6146
-125.354 0.543724 0 -18.7156
-169.347 0.443873 0 -14.5536
-166.931 0.445023 0 -14.584
-205.456 0.320685 0 -9.47099
-199.416 0.322625 0 -9.54771
-119.917 0.547427 0 -18.7846
-123.542 0.544972 0 -18.7385
-202.436 0.321658 0 -9.50929
-159.682 0.448408 0 -14.676
-121.73 0.546206 0 -18.7615
-164.514 0.446161 0 -14.6146
-162.098 0.44729 0 -14.6452
-199.416 0.322625 0 -9.54771
-193.376 0.324538 0 -9.62485
-116.293 0.549827 0 -18.8308
-119.917 0.547427 0 -18.7846
-196.396 0.323584 0 -9.58622
-154.85 0.450612 0 -14.7377
-118.105 0.548634 0 -18.8077
-159.682 0.448408 0 -14.676
-157.266 0.449515 0 -14.7068
-193.376 0.324538 0 -9.62485
-187.336 0.326424 0 -9.7024
-112.668 0.552173 0 -18.8774
-116.293 0.549827 0 -18.8308
-190.356 0.325484 0 -9.66357
-150.017 0.452774 0 -14.7997
-114.48 0.551007 0 -18.8541
-154.85 0.450612 0 -14.7377
-152.433 0.451698 0 -14.7687
-187.336 0.326424 0 -9.7024
-181.296 0.328282 0 -9.78036
-109.044 0.554462 0 -18.9242
-112.668 0.552173 0 -18.8774
-184.316 0.327356 0 -9.74133
-145.185 0.454893 0 -14.8621
-110.856 0.553324 0 -18.9007
-150.017 0.452774 0 -14.7997
-147.601 0.453838 0 -14.8309
-181.296 0.328282 0 -9.78036
-175.256 0.330113 0 -9.85871
-105.419 0.556697 0 -18.9712
-109.044 0.554462 0 -18.9242
-178.276 0.329201 0 -9.81949
-140.352 0.456968 0 -14.9248
-107.231 0.555586 0 -18.9476
-145.185 0.454893 0 -14.8621
-142.768 0.455936 0 -14.8934
-175.256 0.330113 0 -9.85871
-169.215 0.331916 0 -9.93744
-101.794 0.558875 0 -19.0184
-105.419 0.556697 0 -18.9712
-172.235 0.331018 0 -9.89803
-135.52 0.459 0 -14.9878
-103.607 0.557793 0 -18.9948
-140.352 0.456968 0 -14.9248
-137.936 0.45799 0 -14.9562
-169.215 0.331916 0 -9.93744
-163.175 0.33369 0 -10.0165
-98.1697 0.560997 0 -19.0659
-101.794 0.558875 0 -19.0184
-166.195 0.332806 0 -9.97694
-130.687 0.460989 0 -15.0511
-99.982 0.559943 0 -19.0421
-135.52 0.459 0 -14.9878
-133.103 0.46 0 -15.0194
-163.175 0.33369 0 -10.0165
-157.135 0.335436 0 -10.096
-94.5451 0.563062 0 -19.1135
-98.1697 0.560997 0 -19.0659
-160.155 0.334567 0 -10.0562
-125.855 0.462934 0 -15.1146
-96.3574 0.562036 0 -19.0897
-130.687 0.460989 0 -15.0511
-128.271 0.461967 0 -15.0828
-157.135 0.335436 0 -10.096
-151.095 0.337153 0 -10.1757
-90.9204 0.565073 0 -19.1614
-94.5451 0.563062 0 -19.1135
-154.115 0.336298 0 -10.1358
-121.022 0.464835 0 -15.1784
-92.7327 0.564075 0 -19.1374
-125.855 0.462934 0 -15.1146
-123.439 0.46389 0 -15.1465
-151.095 0.337153 0 -10.1757
-145.054 0.338843 0 -10.2558
-87.2958 0.567031 0 -19.2094
-90.9204 0.565073 0 -19.1614
-148.074 0.338002 0 -10.2157
-116.19 0.466696 0 -15.2425
-89.1081 0.566059 0 -19.1854
-121.022 0.464835 0 -15.1784
-118.606 0.465771 0 -15.2104
-145.054 0.338843 0 -10.2558
-139.014 0.340507 0 -10.3362
-83.6712 0.568939 0 -19.2577
-87.2958 0.567031 0 -19.2094
-142.034 0.339678 0 -10.296
-111.357 0.468517 0 -15.3068
-85.4835 0.567991 0 -19.2335
-116.19 0.466696 0 -15.2425
-113.774 0.467611 0 -15.2746
-139.014 0.340507 0 -10.3362
-132.974 0.342147 0 -10.417
-80.0467 0.570804 0 -19.3061
-83.6712 0.568939 0 -19.2577
-135.994 0.34133 0 -10.3766
-106.525 0.470306 0 -15.3714
-81.8589 0.569877 0 -19.2819
-111.357 0.468517 0 -15.3068
-108.941 0.469415 0 -15.3391
-132.974 0.342147 0 -10.417
-126.933 0.343769 0 -10.498
-76.4221 0.572633 0 -19.3547
-80.0467 0.570804 0 -19.3061
-129.953 0.34296 0 -10.4574
-101.692 0.472067 0 -15.4362
-78.2344 0.571722 0 -19.3304
-106.525 0.470306 0 -15.3714
-104.109 0.471189 0 -15.4038
-126.933 0.343769 0 -10.498
-120.893 0.345377 0 -10.5793
-72.7976 0.574437 0 -19.4035
-76.4221 0.572633 0 -19.3547
-123.913 0.344574 0 -10.5386
-96.8598 0.473811 0 -15.5013
-74.6098 0.573538 0 -19.3791
-101.692 0.472067 0 -15.4362
-99.2761 0.472941 0 -15.4687
-120.893 0.345377 0 -10.5793
-114.853 0.346975 0 -10.6609
-69.1731 0.576218 0 -19.4524
-72.7976 0.574437 0 -19.4035
-117.873 0.346177 0 -10.6201
-92.0274 0.475541 0 -15.5666
-70.9853 0.57533 0 -19.4279
-96.8598 0.473811 0 -15.5013
-94.4436 0.474678 0 -15.5339
-114.853 0.346975 0 -10.6609
-108.812 0.348559 0 -10.7428
-65.5487 0.577957 0 -19.5014
-69.1731 0.576218 0 -19.4524
-111.832 0.347769 0 -10.7018
-87.195 0.477243 0 -15.6321
-67.3609 0.577097 0 -19.4769
-92.0274 0.475541 0 -15.5666
-89.6112 0.476397 0 -15.5993
-108.812 0.348559 0 -10.7428
-102.772 0.350094 0 -10.825
-61.9244 0.579583 0 -19.5507
-65.5487 0.577957 0 -19.5014
-105.792 0.349338 0 -10.7839
-82.3627 0.47886 0 -15.6978
-63.7366 0.578793 0 -19.526
-87.195 0.477243 0 -15.6321
-84.7789 0.478071 0 -15.6649
-102.772 0.350094 0 -10.825
-96.7315 0.351492 0 -10.9074
-58.3002 0.580862 0 -19.6
-61.9244 0.579583 0 -19.5507
-99.7517 0.350819 0 -10.8662
-77.5306 0.480208 0 -15.7636
-60.1123 0.580293 0 -19.5753
-82.3627 0.47886 0 -15.6978
-79.9466 0.479585 0 -15.7307
-96.7315 0.351492 0 -10.9074
-90.6915 0.35249 0 -10.9897
-54.6757 0.581318 0 -19.6494
-58.3002 0.580862 0 -19.6
-93.7115 0.352071 0 -10.9486
-72.6984 0.480877 0 -15.8293
-56.4881 0.581243 0 -19.6247
-77.5306 0.480208 0 -15.7636
-75.1145 0.48068 0 -15.7965
-90.6915 0.35249 0 -10.9897
-84.6517 0.352591 0 -11.0714
-51.0506 0.579763 0 -19.6988
-54.6757 0.581318 0 -19.6494
-87.6716 0.352698 0 -11.0307
-67.8661 0.47989 0 -15.8944
-52.8633 0.580913 0 -19.6742
-72.6984 0.480877 0 -15.8293
-70.2823 0.480669 0 -15.862
-84.6517 0.352591 0 -11.0714
-78.6128 0.350565 0 -11.1511
-47.4228 0.574179 0 -19.7482
-51.0506 0.579763 0 -19.6988
-81.632 0.351966 0 -11.1117
-63.0327 0.475452 0 -15.9579
-49.2373 0.577676 0 -19.7235
-67.8661 0.47989 0 -15.8944
-65.4496 0.478329 0 -15.9265
-78.6128 0.350565 0 -11.1511
-72.5744 0.344497 0 -11.2265
-43.7898 0.560043 0 -19.797
-47.4228 0.574179 0 -19.7482
-75.5937 0.348217 0 -11.1895
-58.1966 0.463705 0 -16.0176
-45.607 0.568601 0 -19.7727
-63.0327 0.475452 0 -15.9579
-60.6152 0.470742 0 -15.9883
-72.5744 0.344497 0 -11.2265
-66.5388 0.329729 0 -11.2915
-40.1425 0.530933 0 -19.8455
-43.7898 0.560043 0 -19.797
-69.5559 0.338591 0 -11.2608
-53.3536 0.438662 0 -16.0698
-41.9689 0.547981 0 -19.8213
-58.1966 0.463705 0 -16.0176
-55.7762 0.453663 0 -16.0451
-66.5388 0.329729 0 -11.2915
-60.5021 0.300886 0 -11.3382
-36.4715 0.473084 0 -19.8927
-40.1425 0.530933 0 -19.8455
-63.5214 0.317678 0 -11.3177
-48.4949 0.388071 0 -16.1079
-38.3101 0.50671 0 -19.8695
-53.3536 0.438662 0 -16.0698
-50.9271 0.417049 0 -16.0908
-60.5021 0.300886 0 -11.3382
-54.4713 0.242846 0 -11.347
-32.7435 0.372547 0 -19.9413
-36.4715 0.473084 0 -19.8927
-57.4844 0.276354 0 -11.3493
-43.6045 0.297273 0 -16.1214
-34.6183 0.42952 0 -19.9164
-48.4949 0.388071 0 -16.1079
-46.0544 0.350244 0 -16.1193
-54.4713 0.242846 0 -11.347
-48.4227 0.147675 0 -11.2982
-28.9322 0.198464 0 -19.9907
-32.7435 0.372547 0 -19.9413
-51.4532 0.201807 0 -11.331
-38.6484 0.136235 0 -16.0962
-30.8482 0.296284 0 -19.9664
-43.6045 0.297273 0 -16.1214
-41.1386 0.225033 0 -16.1131
-48.4227 0.147675 0 -11.2982
-42.3753 -0.0275064 0 -11.1409
-24.9393 -0.0517246 0 -20.0598
-28.9322 0.198464 0 -19.9907
-45.3935 0.0699429 0 -11.2382
-33.5765 -0.110268 0 -16.016
-26.9703 0.0836527 0 -20.0201
-38.6484 0.136235 0 -16.0962
-36.128 0.0303286 0 -16.0674
-42.3753 -0.0275064 0 -11.1409
-36.2062 -0.25545 0 -10.8565
-20.7297 -0.402427 0 -20.1602
-24.9393 -0.0517246 0 -20.0598
-39.324 -0.129039 0 -11.0144
-28.2751 -0.480584 0 -15.8824
-22.8562 -0.219112 0 -20.1063
-33.5765 -0.110268 0 -16.016
-30.9703 -0.291153 0 -15.9479
-36.2062 -0.25545 0 -10.8565
-29.9503 -0.635058 0 -10.3685
-16.0965 -0.675652 0 -20.3868
-20.7297 -0.402427 0 -20.1602
-33.0732 -0.441842 0 -10.6452
-22.6316 -0.868978 0 -15.7351
-18.4958 -0.561277 0 -20.246
-28.2751 -0.480584 0 -15.8824
-25.4906 -0.661253 0 -15.8193
-29.9503 -0.635058 0 -10.3685
-23.0617 -0.816123 0 -9.84267
-11.2073 -0.645132 0 -20.7985
-16.0965 -0.675652 0 -20.3868
-26.6567 -0.736008 0 -10.0913
-16.3325 -1.09492 0 -15.7809
-13.6437 -0.74997 0 -20.5682
-22.6316 -0.868978 0 -15.7351
-19.6216 -1.08093 0 -15.6838
-23.0617 -0.816123 0 -9.84267
-15.5958 -0.795351 0 -9.54672
-6.02367 0.902569 0 -21.6005
-11.2073 -0.645132 0 -20.7985
-19.3589 -0.970566 0 -9.62804
-9.42266 -0.0142702 0 -16.4459
-8.69405 -0.149404 0 -21.1314
-16.3325 -1.09492 0 -15.7809
-12.8856 -0.763332 0 -16.0488
-15.5958 -0.795351 0 -9.54672
-6.08147 2.31398 0 -11.2761
-2.1277 5.5905 0 -22.1514
-6.02367 0.902568 0 -21.6005
-11.2822 0.280832 0 -9.98134
-2.0013 4.90447 0 -18.5542
-3.71615 2.60203 0 -21.9982
-9.42266 -0.0142702 0 -16.4459
-5.89653 1.47261 0 -17.1552
-6.08147 2.31398 0 -11.2761
1.47435 14.7541 0 -17.2059
0.165709 17.1926 0 -20.1976
-2.1277 5.5905 0 -22.1514
-1.68738 5.59997 0 -13.4353
0.569123 19.5884 0 -20.0155
-0.856498 10.5966 0 -21.7699
-2.0013 4.90447 0 -18.5542
0.727032 10.9467 0 -19.9266
1.47435 14.7541 0 -17.2059
-0.967289 60.7736 0 -16.7065
0.706983 30.2883 0 -10.3941
0.165709 17.1926 0 -20.1976
2.55797 33.7893 0 -20.0433
-2.11907 43.3517 0 -9.61021
0.826282 24.4041 0 -16.5578
0.569123 19.5884 0 -20.0155
-0.715176 31.1252 0 -17.1156
-642.66 -192.902 0 58.9889
-697.929 -122.14 0 -1.90958
-225.781 -38.6765 0 30.6582
-231.354 -69.3987 0 92.4541
-680.195 -155.061 0 22.1966
-461.756 -80.3222 0 18.108
-221.797 -54.2281 0 58.3203
-427.532 -128.291 0 84.447
-451.849 -107.874 0 41.8445
-697.929 -122.14 0 -1.90958
-711.163 -53.6692 0 -20.7776
-237.913 -23.4966 0 -6.32038
-225.781 -38.6765 0 30.6582
-703.833 -85.3893 0 -14.0882
-472.724 -41.9383 0 -11.4759
-235.157 -30.2294 0 8.91119
-461.756 -80.3222 0 18.108
-466.726 -58.0864 0 2.08117
-711.163 -53.6692 0 -20.7776
-717.934 -19.1542 0 -24.3264
-238.733 -9.74096 0 -23.0533
-237.913 -23.4966 0 -6.32038
-717.622 -32.9213 0 -24.0406
-478.416 -16.9791 0 -24.1655
-237.475 -15.8997 0 -16.4125
-472.724 -41.9383 0 -11.4759
-477.131 -28.2412 0 -20.2564
-717.934 -19.1542 0 -24.3264
-712.502 -3.18061 0 -22.3778
-239.41 -3.33115 0 -28.9955
-238.733 -9.74096 0 -23.0533
-714.966 -9.25692 0 -23.2405
-476.942 -4.66855 0 -26.9153
-240.124 -5.98348 0 -27.0406
-478.416 -16.9791 0 -24.1655
-478.064 -9.39452 0 -25.9
-712.502 -3.18061 0 -22.3778
-706.128 1.45631 0 -21.0309
-236.851 -0.00422352 0 -29.5961
-239.41 -3.33115 0 -28.9955
-709.848 -0.0908977 0 -21.7087
-472.6 0.528376 0 -26.421
-237.819 -1.22151 0 -29.6281
-476.942 -4.66855 0 -26.9153
-475.029 -1.47345 0 -27.0007
-706.128 1.45631 0 -21.0309
-698.768 2.57518 0 -20.1026
-234.704 0.608761 0 -28.5056
-236.851 -0.00422352 0 -29.5961
-702.094 2.34968 0 -20.4352
-467.613 1.72237 0 -25.2429
-236.014 0.444183 0 -29.1587
-472.6 0.528376 0 -26.421
-470.027 1.47262 0 -25.7558
-698.768 2.57518 0 -20.1026
-692.828 1.9914 0 -19.7595
-232.18 0.634202 0 -27.1079
-234.704 0.608761 0 -28.5056
-695.806 2.34828 0 -19.9188
-463.11 1.57301 0 -24.1883
-233.277 0.701183 0 -27.7783
-467.613 1.72237 0 -25.2429
-465.294 1.72319 0 -24.7198
-692.828 1.9914 0 -19.7595
-687.472 1.28984 0 -19.5624
-230.239 0.280769 0 -25.9933
-232.18 0.634202 0 -27.1079
-689.983 1.65162 0 -19.6314
-459.243 0.987698 0 -23.4314
-231.233 0.455239 0 -26.5101
-463.11 1.57301 0 -24.1883
-461.088 1.3038 0 -23.7525
-687.472 1.28984 0 -19.5624
-682.924 0.63153 0 -19.4812
-228.449 0.0105469 0 -25.2136
-230.239 0.280769 0 -25.9933
-685.166 0.931489 0 -19.5229
-455.927 0.466028 0 -22.9296
-229.277 0.14382 0 -25.5594
-459.243 0.987698 0 -23.4314
-457.53 0.706617 0 -23.162
-682.924 0.63153 0 -19.4812
-678.729 0.202708 0 -19.4084
-226.951 -0.213999 0 -24.724
-228.449 0.0105469 0 -25.2136
-680.768 0.396466 0 -19.4408
-452.99 0.0781499 0 -22.6142
-227.695 -0.115884 0 -24.9397
-455.927 0.466028 0 -22.9296
-454.419 0.255024 0 -22.7489
-678.729 0.202708 0 -19.4084
-674.829 -0.0750349 0 -19.3453
-225.555 -0.341615 0 -24.4278
-226.951 -0.213999 0 -24.724
-676.764 0.0440088 0 -19.3786
-450.29 -0.162967 0 -22.4135
-226.231 -0.284998 0 -24.5559
-452.99 0.0781499 0 -22.6142
-451.618 -0.0590863 0 -22.5049
-674.829 -0.0750349 0 -19.3453
-671.054 -0.226708 0 -19.275
-224.261 -0.418013 0 -24.2549
-225.555 -0.341615 0 -24.4278
-672.925 -0.161929 0 -19.3101
-447.728 -0.302962 0 -22.2828
-224.904 -0.386831 0 -24.33
-450.29 -0.162967 0 -22.4135
-448.997 -0.243164 0 -22.3408
-671.054 -0.226708 0 -19.275
-667.366 -0.307617 0 -19.2024
-223.004 -0.45175 0 -24.1524
-224.261 -0.418013 0 -24.2549
-669.206 -0.274816 0 -19.2394
-445.241 -0.374479 0 -22.1902
-223.626 -0.438218 0 -24.1971
-447.728 -0.302962 0 -22.2828
-446.479 -0.345498 0 -22.2335
-667.366 -0.307617 0 -19.2024
-663.711 -0.343148 0 -19.1265
-221.775 -0.464295 0 -24.089
-223.004 -0.45175 0 -24.1524
-665.534 -0.329231 0 -19.1645
-442.793 -0.406501 0 -22.1187
-222.388 -0.460421 0 -24.1173
-445.241 -0.374479 0 -22.1902
-444.014 -0.394172 0 -22.1524
-663.711 -0.343148 0 -19.1265
-660.076 -0.355599 0 -19.0499
-220.556 -0.463134 0 -24.0459
-221.775 -0.464295 0 -24.089
-661.892 -0.351644 0 -19.0883
-440.363 -0.415986 0 -22.0579
-221.164 -0.464767 0 -24.0657
-442.793 -0.406501 0 -22.1187
-441.576 -0.41331 0 -22.0875
-660.076 -0.355599 0 -19.0499
-656.447 -0.35528 0 -18.9731
-219.344 -0.455738 0 -24.013
-220.556 -0.463134 0 -24.0459
-658.261 -0.356467 0 -19.0114
-437.941 -0.413915 0 -22.0029
-219.95 -0.460072 0 -24.0286
-440.363 -0.415986 0 -22.0579
-439.151 -0.415959 0 -22.0299
-656.447 -0.35528 0 -18.9731
-652.822 -0.349164 0 -18.8971
-218.133 -0.444952 0 -23.9851
-219.344 -0.455738 0 -24.013
-654.635 -0.352747 0 -18.935
-435.522 -0.406096 0 -21.9508
-218.738 -0.450583 0 -23.9986
-437.941 -0.413915 0 -22.0029
-436.731 -0.410492 0 -21.9766
-652.822 -0.349164 0 -18.8971
-649.198 -0.340306 0 -18.8221
-216.923 -0.432882 0 -23.9594
-218.133 -0.444952 0 -23.9851
-651.01 -0.344931 0 -18.8595
-433.105 -0.395741 0 -21.9005
-217.528 -0.439034 0 -23.972
-435.522 -0.406096 0 -21.9508
-434.313 -0.401118 0 -21.9254
-649.198 -0.340306 0 -18.8221
-645.573 -0.330465 0 -18.7485
-215.713 -0.420295 0 -23.9349
-216.923 -0.432882 0 -23.9594
-647.386 -0.335461 0 -18.7851
-430.687 -0.384385 0 -21.8514
-216.318 -0.426611 0 -23.947
-433.105 -0.395741 0 -21.9005
-431.896 -0.390133 0 -21.8758
-645.573 -0.330465 0 -18.7485
-641.949 -0.320324 0 -18.6762
-214.503 -0.407655 0 -23.911
-215.713 -0.420295 0 -23.9349
-643.761 -0.325403 0 -18.7121
-428.269 -0.372757 0 -21.8033
-215.108 -0.413974 0 -23.9229
-430.687 -0.384385 0 -21.8514
-429.478 -0.378581 0 -21.8273
-641.949 -0.320324 0 -18.6762
-638.324 -0.310214 0 -18.6053
-213.292 -0.395097 0 -23.8876
-214.503 -0.407655 0 -23.911
-640.136 -0.315259 0 -18.6405
-425.852 -0.361151 0 -21.7562
-213.897 -0.401359 0 -23.8992
-428.269 -0.372757 0 -21.8033
-427.061 -0.366942 0 -21.7797
-638.324 -0.310214 0 -18.6053
-634.699 -0.300221 0 -18.5357
-212.082 -0.382679 0 -23.8645
-213.292 -0.395097 0 -23.8876
-636.511 -0.3052 0 -18.5703
-423.434 -0.34967 0 -21.7099
-212.687 -0.388871 0 -23.876
-425.852 -0.361151 0 -21.7562
-424.643 -0.355392 0 -21.7329
-634.699 -0.300221 0 -18.5357
-631.074 -0.29037 0 -18.4676
-210.871 -0.370398 0 -23.8419
-212.082 -0.382679 0 -23.8645
-632.886 -0.295279 0 -18.5015
-421.015 -0.338332 0 -21.6646
-211.477 -0.376522 0 -23.8532
-423.434 -0.34967 0 -21.7099
-422.225 -0.343983 0 -21.6871
-631.074 -0.29037 0 -18.4676
-627.449 -0.280645 0 -18.4009
-209.661 -0.358242 0 -23.8197
-210.871 -0.370398 0 -23.8419
-629.261 -0.285492 0 -18.4341
-418.597 -0.327126 0 -21.6201
-210.266 -0.364306 0 -23.8308
-421.015 -0.338332 0 -21.6646
-419.806 -0.332713 0 -21.6422
-627.449 -0.280645 0 -18.4009
-623.823 -0.271028 0 -18.3355
-208.45 -0.346192 0 -23.7979
-209.661 -0.358242 0 -23.8197
-625.636 -0.275824 0 -18.368
-416.179 -0.316033 0 -21.5765
-209.056 -0.352204 0 -23.8088
-418.597 -0.327126 0 -21.6201
-417.388 -0.321566 0 -21.5982
-623.823 -0.271028 0 -18.3355
-620.198 -0.261504 0 -18.2714
-207.24 -0.334237 0 -23.7766
-208.45 -0.346192 0 -23.7979
-622.011 -0.266255 0 -18.3033
-413.761 -0.305039 0 -21.5338
-207.845 -0.340203 0 -23.7872
-416.179 -0.316033 0 -21.5765
-414.97 -0.310525 0 -21.555
-620.198 -0.261504 0 -18.2714
-616.573 -0.25206 0 -18.2087
-206.029 -0.322365 0 -23.7556
-207.24 -0.334237 0 -23.7766
-618.385 -0.256773 0 -18.2399
-411.343 -0.29413 0 -21.492
-206.635 -0.328291 0 -23.766
-413.761 -0.305039 0 -21.5338
-412.552 -0.299574 0 -21.5128
-616.573 -0.25206 0 -18.2087
-612.947 -0.24269 0 -18.1473
-204.819 -0.310572 0 -23.7351
-206.029 -0.322365 0 -23.7556
-614.76 -0.247366 0 -18.1779
-408.924 -0.2833 0 -21.451
-205.424 -0.316459 0 -23.7453
-411.343 -0.29413 0 -21.492
-410.133 -0.288706 0 -21.4714
-612.947 -0.24269 0 -18.1473
-609.322 -0.233387 0 -18.0872
-203.608 -0.298851 0 -23.7151
-204.819 -0.310572 0 -23.7351
-611.135 -0.23803 0 -18.1171
-406.506 -0.272541 0 -21.4109
-204.213 -0.304702 0 -23.7251
-408.924 -0.2833 0 -21.451
-407.715 -0.277912 0 -21.4309
-609.322 -0.233387 0 -18.0872
-605.696 -0.224148 0 -18.0285
-202.398 -0.287202 0 -23.6955
-203.608 -0.298851 0 -23.7151
-607.509 -0.22876 0 -18.0577
-404.088 -0.261853 0 -21.3717
-203.003 -0.293018 0 -23.7052
-406.506 -0.272541 0 -21.4109
-405.297 -0.267188 0 -21.3912
-605.696 -0.224148 0 -18.0285
-602.071 -0.214973 0 -17.971
-201.187 -0.275622 0 -23.6763
-202.398 -0.287202 0 -23.6955
-603.884 -0.219553 0 -17.9996
-401.669 -0.251232 0 -21.3334
-201.792 -0.281403 0 -23.6858
-404.088 -0.261853 0 -21.3717
-402.879 -0.256534 0 -21.3525
-602.071 -0.214973 0 -17.971
-598.446 -0.205858 0 -17.9148
-199.977 -0.26411 0 -23.6575
-201.187 -0.275622 0 -23.6763
-600.258 -0.210408 0 -17.9427
-399.251 -0.240677 0 -21.2959
-200.582 -0.269857 0 -23.6668
-401.669 -0.251232 0 -21.3334
-400.46 -0.245946 0 -21.3146
-598.446 -0.205858 0 -17.9148
-594.82 -0.196805 0 -17.8599
-198.766 -0.252667 0 -23.6392
-199.977 -0.26411 0 -23.6575
-596.633 -0.201324 0 -17.8872
-396.833 -0.230189 0 -21.2593
-199.371 -0.25838 0 -23.6483
-399.251 -0.240677 0 -21.2959
-398.042 -0.235425 0 -21.2775
-594.82 -0.196805 0 -17.8599
-591.195 -0.187812 0 -17.8063
-197.556 -0.241292 0 -23.6213
-198.766 -0.252667 0 -23.6392
-593.007 -0.192301 0 -17.8329
-394.415 -0.219766 0 -21.2235
-198.161 -0.246971 0 -23.6302
-396.833 -0.230189 0 -21.2593
-395.624 -0.224969 0 -21.2413
-591.195 -0.187812 0 -17.8063
-587.569 -0.178879 0 -17.7539
-196.345 -0.229985 0 -23.6038
-197.556 -0.241292 0 -23.6213
-589.382 -0.183338 0 -17.7799
-391.996 -0.209409 0 -21.1886
-196.95 -0.23563 0 -23.6125
-394.415 -0.219766 0 -21.2235
-393.205 -0.21458 0 -21.206
-587.569 -0.178879 0 -17.7539
-583.944 -0.170005 0 -17.7028
-195.135 -0.218746 0 -23.5867
-196.345 -0.229985 0 -23.6038
-585.757 -0.174434 0 -17.7282
-389.578 -0.199117 0 -21.1545
-195.74 -0.224357 0 -23.5952
-391.996 -0.209409 0 -21.1886
-390.787 -0.204255 0 -21.1715
-583.944 -0.170005 0 -17.7028
-580.318 -0.16119 0 -17.653
-193.924 -0.207575 0 -23.5701
-195.135 -0.218746 0 -23.5867
-582.131 -0.16559 0 -17.6777
-387.16 -0.18889 0 -21.1213
-194.529 -0.213152 0 -23.5783
-389.578 -0.199117 0 -21.1545
-388.369 -0.193995 0 -21.1378
-580.318 -0.16119 0 -17.653
-576.693 -0.152434 0 -17.6044
-192.714 -0.196472 0 -23.5538
-193.924 -0.207575 0 -23.5701
-578.506 -0.156805 0 -17.6285
-384.741 -0.178727 0 -21.0889
-193.319 -0.202015 0 -23.5619
-387.16 -0.18889 0 -21.1213
-385.951 -0.1838 0 -21.105
-576.693 -0.152434 0 -17.6044
-573.067 -0.143736 0 -17.557
-191.503 -0.185437 0 -23.538
-192.714 -0.196472 0 -23.5538
-574.88 -0.148078 0 -17.5805
-382.323 -0.16863 0 -21.0573
-192.108 -0.190946 0 -23.5458
-384.741 -0.178727 0 -21.0889
-383.532 -0.17367 0 -21.073
-573.067 -0.143736 0 -17.557
-569.442 -0.135096 0 -17.5109
-190.293 -0.174471 0 -23.5226
-191.503 -0.185437 0 -23.538
-571.255 -0.139409 0 -17.5338
-379.905 -0.158596 0 -21.0265
-190.898 -0.179946 0 -23.5302
-382.323 -0.16863 0 -21.0573
-381.114 -0.163605 0 -21.0418
-569.442 -0.135096 0 -17.5109
-565.816 -0.126514 0 -17.4659
-189.082 -0.163572 0 -23.5076
-190.293 -0.174471 0 -23.5226
-567.629 -0.130798 0 -17.4882
-377.487 -0.148627 0 -20.9965
-189.687 -0.169013 0 -23.515
-379.905 -0.158596 0 -21.0265
-378.696 -0.153604 0 -21.0114
-565.816 -0.126514 0 -17.4659
-562.191 -0.117989 0 -17.4222
-187.872 -0.152741 0 -23.493
-189.082 -0.163572 0 -23.5076
-564.004 -0.122245 0 -17.4439
-375.068 -0.138722 0 -20.9674
-188.477 -0.158148 0 -23.5002
-377.487 -0.148627 0 -20.9965
-376.277 -0.143667 0 -20.9818
-562.191 -0.117989 0 -17.4222
-558.565 -0.109521 0 -17.3797
-186.661 -0.141977 0 -23.4787
-187.872 -0.152741 0 -23.493
-560.378 -0.113748 0 -17.4008
-372.65 -0.128881 0 -20.939
-187.267 -0.147351 0 -23.4858
-375.068 -0.138722 0 -20.9674
-373.859 -0.133794 0 -20.9531
-558.565 -0.109521 0 -17.3797
-554.94 -0.101109 0 -17.3384
-185.451 -0.131282 0 -23.4649
-186.661 -0.141977 0 -23.4787
-556.752 -0.105308 0 -17.3589
-370.232 -0.119103 0 -20.9115
-186.056 -0.136621 0 -23.4718
-372.65 -0.128881 0 -20.939
-371.441 -0.123984 0 -20.9251
-554.94 -0.101109 0 -17.3384
-551.314 -0.092754 0 -17.2983
-184.24 -0.120654 0 -23.4515
-185.451 -0.131282 0 -23.4649
-553.127 -0.0969247 0 -17.3182
-367.813 -0.109389 0 -20.8847
-184.846 -0.12596 0 -23.4582
-370.232 -0.119103 0 -20.9115
-369.023 -0.114238 0 -20.898
-551.314 -0.092754 0 -17.2983
-547.689 -0.0844542 0 -17.2594
-183.03 -0.110094 0 -23.4385
-184.24 -0.120654 0 -23.4515
-549.501 -0.0885971 0 -17.2787
-365.395 -0.0997381 0 -20.8587
-183.635 -0.115366 0 -23.445
-367.813 -0.109389 0 -20.8847
-366.604 -0.104556 0 -20.8716
-547.689 -0.0844542 0 -17.2594
-544.063 -0.0762099 0 -17.2216
-181.82 -0.0996017 0 -23.4259
-183.03 -0.110094 0 -23.4385
-545.876 -0.0803252 0 -17.2404
-362.977 -0.09015 0 -20.8335
-182.425 -0.10484 0 -23.4322
-365.395 -0.0997381 0 -20.8587
-364.186 -0.0949362 0 -20.846
-544.063 -0.0762099 0 -17.2216
-540.438 -0.0680207 0 -17.185
-180.609 -0.0891767 0 -23.4137
-181.82 -0.0996017 0 -23.4259
-542.25 -0.0721084 0 -17.2032
-360.559 -0.0806246 0 -20.8091
-181.214 -0.0943808 0 -23.4197
-362.977 -0.09015 0 -20.8335
-361.768 -0.0853794 0 -20.8212
-540.438 -0.0680207 0 -17.185
-536.812 -0.0598861 0 -17.1496
-179.399 -0.0788191 0 -23.4018
-180.609 -0.0891767 0 -23.4137
-538.625 -0.0639466 0 -17.1672
-358.14 -0.0711617 0 -20.7855
-180.004 -0.0839895 0 -23.4077
-360.559 -0.0806246 0 -20.8091
-359.349 -0.0758853 0 -20.7972
-536.812 -0.0598861 0 -17.1496
-533.186 -0.051806 0 -17.1153
-178.188 -0.0685289 0 -23.3903
-179.399 -0.0788191 0 -23.4018
-534.999 -0.0558393 0 -17.1323
-355.722 -0.0617612 0 -20.7626
-178.794 -0.0736656 0 -23.396
-358.14 -0.0711617 0 -20.7855
-356.931 -0.0664536 0 -20.7739
-533.186 -0.051806 0 -17.1153
-529.561 -0.0437801 0 -17.0822
-176.978 -0.0583061 0 -23.3792
-178.188 -0.0685289 0 -23.3903
-531.374 -0.0477863 0 -17.0986
-353.304 -0.0524229 0 -20.7405
-177.583 -0.0634091 0 -23.3847
-355.722 -0.0617612 0 -20.7626
-354.513 -0.0570843 0 -20.7514
-529.561 -0.0437801 0 -17.0822
-525.935 -0.0358078 0 -17.0502
-175.768 -0.0481505 0 -23.3685
-176.978 -0.0583061 0 -23.3792
-527.748 -0.0397872 0 -17.0661
-350.886 -0.0431466 0 -20.7191
-176.373 -0.0532198 0 -23.3738
-353.304 -0.0524229 0 -20.7405
-352.095 -0.047777 0 -20.7297
-525.935 -0.0358078 0 -17.0502
-522.31 -0.0278891 0 -17.0193
-174.557 -0.038062 0 -23.3582
-175.768 -0.0481504 0 -23.3685
-524.122 -0.0318418 0 -17.0346
-348.467 -0.033932 0 -20.6985
-175.163 -0.0430978 0 -23.3633
-350.886 -0.0431466 0 -20.7191
-349.676 -0.0385316 0 -20.7087
-522.31 -0.0278891 0 -17.0193
-518.684 -0.0200236 0 -16.9896
-173.347 -0.0280408 0 -23.3482
-174.557 -0.038062 0 -23.3582
-520.497 -0.0239497 0 -17.0043
-346.049 -0.0247791 0 -20.6787
-173.952 -0.033043 0 -23.3532
-348.467 -0.033932 0 -20.6985
-347.258 -0.0293479 0 -20.6885
-518.684 -0.0200236 0 -16.9896
-515.059 -0.0122109 0 -16.9609
-172.137 -0.0180866 0 -23.3387
-173.347 -0.0280408 0 -23.3482
-516.871 -0.0161106 0 -16.9751
-343.631 -0.0156876 0 -20.6596
-172.742 -0.0230553 0 -23.3434
-346.049 -0.0247791 0 -20.6787
-344.84 -0.0202257 0 -20.669
-515.059 -0.0122109 0 -16.9609
-511.433 -0.00445086 0 -16.9334
-170.926 -0.0081995 0 -23.3294
-172.137 -0.0180866 0 -23.3387
-513.246 -0.00832432 0 -16.947
-341.213 -0.00665746 0 -20.6412
-171.532 -0.0131347 0 -23.334
-343.631 -0.0156876 0 -20.6596
-342.422 -0.0111649 0 -20.6503
-511.433 -0.00445086 0 -16.9334
-507.807 0.00325684 0 -16.907
-169.716 0.00162063 0 -23.3206
-170.926 -0.00819949 0 -23.3294
-509.62 -0.000590486 0 -16.92
-338.795 0.00231158 0 -20.6235
-170.321 -0.00328106 0 -23.325
-341.213 -0.00665746 0 -20.6412
-340.004 -0.00216531 0 -20.6323
-507.807 0.00325683 0 -16.907
-504.182 0.0109125 0 -16.8816
-168.506 0.0113738 0 -23.3121
-169.716 0.00162063 0 -23.3206
-505.995 0.00709115 0 -16.8941
-336.376 0.0112197 0 -20.6066
-169.111 0.00650557 0 -23.3163
-338.795 0.00231158 0 -20.6235
-337.585 0.00677323 0 -20.615
-504.182 0.0109125 0 -16.8816
-500.556 0.0185163 0 -16.8573
-167.295 0.02106 0 -23.3039
-168.506 0.0113738 0 -23.3121
-502.369 0.0147208 0 -16.8693
-333.958 0.0200669 0 -20.5904
-167.901 0.0162253 0 -23.308
-336.376 0.0112197 0 -20.6066
-335.167 0.0156509 0 -20.5984
-500.556 0.0185163 0 -16.8573
-496.931 0.0260685 0 -16.8341
-166.085 0.0306794 0 -23.2962
-167.295 0.02106 0 -23.3039
-498.743 0.0222988 0 -16.8456
-331.54 0.0288535 0 -20.5749
-166.69 0.0258781 0 -23.3
-333.958 0.0200669 0 -20.5904
-332.749 0.0244678 0 -20.5826
-496.931 0.0260685 0 -16.8341
-493.305 0.0335695 0 -16.812
-164.875 0.040232 0 -23.2888
-166.085 0.0306794 0 -23.2962
-495.118 0.0298254 0 -16.8229
-329.122 0.0375795 0 -20.5601
-165.48 0.0354641 0 -23.2924
-331.54 0.0288535 0 -20.5749
-330.331 0.0332241 0 -20.5674
-493.305 0.0335695 0 -16.812
-489.68 0.0410193 0 -16.7909
-163.665 0.0497178 0 -23.2817
-164.875 0.040232 0 -23.2888
-491.492 0.0373008 0 -16.8013
-326.704 0.0462452 0 -20.5461
-164.27 0.0449832 0 -23.2852
-329.122 0.0375795 0 -20.5601
-327.913 0.0419199 0 -20.553
-489.68 0.0410193 0 -16.7909
-486.054 0.0484184 0 -16.7709
-162.454 0.0591368 0 -23.275
-163.665 0.0497178 0 -23.2817
-487.867 0.0447252 0 -16.7808
-324.285 0.0548506 0 -20.5327
-163.06 0.0544356 0 -23.2783
-326.704 0.0462452 0 -20.5461
-325.495 0.0505554 0 -20.5393
-486.054 0.0484184 0 -16.7709
-482.428 0.0557668 0 -16.7519
-161.244 0.068489 0 -23.2686
-162.454 0.0591368 0 -23.275
-484.241 0.0520989 0 -16.7613
-321.867 0.0633958 0 -20.52
-161.849 0.0638212 0 -23.2717
-324.285 0.0548506 0 -20.5327
-323.076 0.0591307 0 -20.5263
-482.428 0.0557668 0 -16.7519
-478.803 0.0630647 0 -16.734
-160.034 0.0777746 0 -23.2626
-161.244 0.068489 0 -23.2686
-480.616 0.059422 0 -16.7428
-319.449 0.071881 0 -20.508
-160.639 0.0731402 0 -23.2655
-321.867 0.0633958 0 -20.52
-320.658 0.0676459 0 -20.514
-478.803 0.0630647 0 -16.734
-475.177 0.0703125 0 -16.7171
-158.824 0.0869935 0 -23.2569
-160.034 0.0777746 0 -23.2626
-476.99 0.0666949 0 -16.7254
-317.031 0.0803064 0 -20.4967
-159.429 0.0823924 0 -23.2597
-319.449 0.0718811 0 -20.508
-318.24 0.0761012 0 -20.5023
-475.177 0.0703125 0 -16.7171
-471.552 0.0775103 0 -16.7012
-157.614 0.0961458 0 -23.2515
-158.824 0.0869935 0 -23.2569
-473.365 0.0739177 0 -16.709
-314.613 0.088672 0 -20.4861
-158.219 0.091578 0 -23.2542
-317.031 0.0803064 0 -20.4967
-315.822 0.0844967 0 -20.4914
-471.552 0.0775103 0 -16.7012
-467.926 0.0846583 0 -16.6863
-156.403 0.105232 0 -23.2465
-157.614 0.0961458 0 -23.2515
-469.739 0.0810906 0 -16.6936
-312.195 0.0969779 0 -20.4762
-157.009 0.100697 0 -23.249
-314.613 0.088672 0 -20.4861
-313.404 0.0928324 0 -20.4811
-467.926 0.0846583 0 -16.6863
-464.301 0.0917567 0 -16.6724
-155.193 0.114251 0 -23.2419
-156.403 0.105232 0 -23.2465
-466.114 0.0882137 0 -16.6792
-309.777 0.105224 0 -20.4669
-155.798 0.109749 0 -23.2442
-312.195 0.0969779 0 -20.4762
-310.986 0.101109 0 -20.4715
-464.301 0.0917567 0 -16.6724
-460.675 0.0988057 0 -16.6595
-153.983 0.123203 0 -23.2375
-155.193 0.114251 0 -23.2419
-462.488 0.0952874 0 -16.6658
-307.359 0.113411 0 -20.4583
-154.588 0.118735 0 -23.2396
-309.777 0.105224 0 -20.4669
-308.568 0.109325 0 -20.4625
-460.675 0.0988057 0 -16.6595
-457.05 0.105805 0 -16.6476
-152.773 0.132089 0 -23.2335
-153.983 0.123203 0 -23.2375
-458.862 0.102312 0 -16.6535
-304.941 0.121539 0 -20.4503
-153.378 0.127654 0 -23.2355
-307.359 0.113411 0 -20.4583
-306.15 0.117482 0 -20.4542
-457.05 0.105805 0 -16.6476
-453.424 0.112756 0 -16.6367
-151.563 0.140908 0 -23.2298
-152.773 0.132089 0 -23.2335
-455.237 0.109287 0 -16.642
-302.522 0.129607 0 -20.443
-152.168 0.136507 0 -23.2316
-304.941 0.121539 0 -20.4503
-303.732 0.12558 0 -20.4466
-453.424 0.112756 0 -16.6367
-449.799 0.119658 0 -16.6268
-150.353 0.149661 0 -23.2265
-151.563 0.140908 0 -23.2298
-451.611 0.116213 0 -16.6316
-300.104 0.137616 0 -20.4364
-150.958 0.145293 0 -23.2281
-302.522 0.129607 0 -20.443
-301.313 0.133619 0 -20.4396
-449.799 0.119658 0 -16.6268
-446.173 0.126511 0 -16.6178
-149.143 0.158348 0 -23.2234
-150.353 0.149661 0 -23.2265
-447.986 0.12309 0 -16.6221
-297.686 0.145566 0 -20.4304
-149.748 0.154013 0 -23.2249
-300.104 0.137616 0 -20.4364
-298.895 0.141598 0 -20.4333
-446.173 0.126511 0 -16.6178
-442.548 0.133315 0 -16.6098
-147.933 0.166968 0 -23.2207
-149.143 0.158348 0 -23.2234
-444.36 0.129919 0 -16.6136
-295.268 0.153457 0 -20.425
-148.538 0.162666 0 -23.222
-297.686 0.145566 0 -20.4304
-296.477 0.149519 0 -20.4276
-442.548 0.133315 0 -16.6098
-438.922 0.140071 0 -16.6027
-146.722 0.175521 0 -23.2183
-147.933 0.166968 0 -23.2207
-440.735 0.136699 0 -16.6061
-292.85 0.161289 0 -20.4203
-147.327 0.171253 0 -23.2195
-295.268 0.153457 0 -20.425
-294.059 0.15738 0 -20.4226
-438.922 0.140071 0 -16.6027
-435.297 0.146779 0 -16.5965
-145.512 0.184008 0 -23.2162
-146.722 0.175521 0 -23.2183
-437.109 0.143431 0 -16.5995
-290.432 0.169062 0 -20.4161
-146.117 0.179773 0 -23.2172
-292.85 0.161289 0 -20.4203
-291.641 0.165183 0 -20.4181
-435.297 0.146779 0 -16.5965
-431.671 0.153438 0 -16.5913
-144.302 0.192429 0 -23.2144
-145.512 0.184008 0 -23.2162
-433.484 0.150114 0 -16.5938
-288.014 0.176777 0 -20.4127
-144.907 0.188227 0 -23.2153
-290.432 0.169062 0 -20.4161
-289.223 0.172927 0 -20.4143
-431.671 0.153438 0 -16.5913
-428.046 0.160049 0 -16.5871
-143.092 0.200783 0 -23.213
-144.302 0.192429 0 -23.2144
-429.858 0.15675 0 -16.5891
-285.596 0.184432 0 -20.4098
-143.697 0.196614 0 -23.2137
-288.014 0.176777 0 -20.4127
-286.805 0.180612 0 -20.4111
-428.046 0.160049 0 -16.5871
-424.42 0.166613 0 -16.5837
-141.882 0.20907 0 -23.2118
-143.092 0.200783 0 -23.213
-426.233 0.163337 0 -16.5853
-283.178 0.192029 0 -20.4075
-142.487 0.204935 0 -23.2123
-285.596 0.184432 0 -20.4098
-284.387 0.188238 0 -20.4086
-424.42 0.166613 0 -16.5837
-420.795 0.173128 0 -16.5813
-140.672 0.217291 0 -23.2109
-141.882 0.20907 0 -23.2118
-422.608 0.169876 0 -16.5824
-280.76 0.199568 0 -20.4059
-141.277 0.213189 0 -23.2113
-283.178 0.192029 0 -20.4075
-281.969 0.195806 0 -20.4066
-420.795 0.173128 0 -16.5813
-417.169 0.179596 0 -16.5797
-139.462 0.225446 0 -23.2104
-140.672 0.217291 0 -23.2109
-418.982 0.176368 0 -16.5804
-278.342 0.207048 0 -20.4048
-140.067 0.221377 0 -23.2106
-280.76 0.199568 0 -20.4059
-279.551 0.203315 0 -20.4053
-417.169 0.179596 0 -16.5797
-413.544 0.186016 0 -16.5791
-138.252 0.233534 0 -23.2101
-139.462 0.225446 0 -23.2104
-415.357 0.182812 0 -16.5793
-275.925 0.214469 0 -20.4044
-138.857 0.229498 0 -23.2102
-278.342 0.207048 0 -20.4048
-277.134 0.210766 0 -20.4045
-413.544 0.186016 0 -16.5791
-409.918 0.192389 0 -16.5793
-137.042 0.241556 0 -23.2101
-138.252 0.233534 0 -23.2101
-411.731 0.189208 0 -16.5791
-273.507 0.221832 0 -20.4045
-137.647 0.237553 0 -23.2101
-275.925 0.214469 0 -20.4044
-274.716 0.218158 0 -20.4044
-409.918 0.192389 0 -16.5793
-406.293 0.198714 0 -16.5804
-135.832 0.249511 0 -23.2105
-137.042 0.241556 0 -23.2101
-408.106 0.195557 0 -16.5798
-271.089 0.229136 0 -20.4052
-136.437 0.245542 0 -23.2103
-273.507 0.221832 0 -20.4045
-272.298 0.225492 0 -20.4048
-406.293 0.198714 0 -16.5804
-402.668 0.204992 0 -16.5824
-134.622 0.2574 0 -23.2111
-135.832 0.249511 0 -23.2105
-404.48 0.201859 0 -16.5813
-268.671 0.236383 0 -20.4065
-135.227 0.253464 0 -23.2107
-271.089 0.229136 0 -20.4052
-269.88 0.232767 0 -20.4058
-402.668 0.204992 0 -16.5824
-399.042 0.211222 0 -16.5853
-133.413 0.265222 0 -23.212
-134.622 0.2574 0 -23.2111
-400.855 0.208113 0 -16.5837
-266.253 0.24357 0 -20.4084
-134.017 0.261319 0 -23.2115
-268.671 0.236383 0 -20.4065
-267.462 0.239984 0 -20.4074
-399.042 0.211222 0 -16.5853
-395.417 0.217405 0 -16.589
-132.203 0.272978 0 -23.2132
-133.413 0.265222 0 -23.212
-397.229 0.21432 0 -16.587
-263.835 0.2507 0 -20.4109
-132.808 0.269108 0 -23.2126
-266.253 0.24357 0 -20.4084
-265.044 0.247142 0 -20.4096
-395.417 0.217405 0 -16.589
-391.791 0.223542 0 -16.5936
-130.993 0.280667 0 -23.2147
-132.203 0.272978 0 -23.2132
-393.604 0.220479 0 -16.5912
-261.417 0.257771 0 -20.4139
-131.598 0.276831 0 -23.2139
-263.835 0.2507 0 -20.4109
-262.626 0.254243 0 -20.4123
-391.791 0.223542 0 -16.5936
-388.166 0.229631 0 -16.5989
-129.783 0.28829 0 -23.2164
-130.993 0.280667 0 -23.2147
-389.979 0.226592 0 -16.5961
-258.999 0.264784 0 -20.4175
-130.388 0.284487 0 -23.2155
-261.417 0.257771 0 -20.4139
-260.208 0.261285 0 -20.4156
-388.166 0.229631 0 -16.5989
-384.541 0.235673 0 -16.6052
-128.573 0.295846 0 -23.2184
-129.783 0.28829 0 -23.2164
-386.353 0.232657 0 -16.602
-256.582 0.271738 0 -20.4216
-129.178 0.292077 0 -23.2174
-258.999 0.264784 0 -20.4175
-257.791 0.268268 0 -20.4195
-384.541 0.235673 0 -16.6052
-380.915 0.241668 0 -16.6122
-127.363 0.303336 0 -23.2208
-128.573 0.295846 0 -23.2184
-382.728 0.238676 0 -16.6086
-254.164 0.278635 0 -20.4263
-127.968 0.299599 0 -23.2196
-256.582 0.271738 0 -20.4216
-255.373 0.275194 0 -20.4239
-380.915 0.241668 0 -16.6122
-377.29 0.247616 0 -16.6201
-126.153 0.310759 0 -23.2233
-127.363 0.303336 0 -23.2208
-379.103 0.244648 0 -16.6161
-251.746 0.285473 0 -20.4315
-126.758 0.307056 0 -23.222
-254.164 0.278635 0 -20.4263
-252.955 0.282061 0 -20.4288
-377.29 0.247616 0 -16.6201
-373.665 0.253517 0 -16.6288
-124.944 0.318116 0 -23.2262
-126.153 0.310759 0 -23.2233
-375.477 0.250572 0 -16.6244
-249.328 0.292253 0 -20.4373
-125.548 0.314446 0 -23.2247
-251.746 0.285473 0 -20.4315
-250.537 0.28887 0 -20.4343
-373.665 0.253517 0 -16.6288
-370.039 0.259371 0 -16.6383
-123.734 0.325406 0 -23.2293
-124.944 0.318116 0 -23.2262
-371.852 0.25645 0 -16.6334
-246.911 0.298975 0 -20.4436
-124.339 0.321769 0 -23.2277
-249.328 0.292253 0 -20.4373
-248.119 0.295621 0 -20.4404
-370.039 0.259371 0 -16.6383
-366.414 0.265179 0 -16.6486
-122.524 0.332629 0 -23.2327
-123.734 0.325406 0 -23.2293
-368.227 0.262281 0 -16.6433
-244.493 0.305638 0 -20.4504
-123.129 0.329026 0 -23.231
-246.911 0.298975 0 -20.4436
-245.702 0.302314 0 -20.4469
-366.414 0.265179 0 -16.6486
-362.789 0.270939 0 -16.6596
-121.314 0.339785 0 -23.2363
-122.524 0.332629 0 -23.2327
-364.601 0.268065 0 -16.654
-242.075 0.312244 0 -20.4578
-121.919 0.336215 0 -23.2345
-244.493 0.305638 0 -20.4504
-243.284 0.308948 0 -20.454
-362.789 0.270939 0 -16.6596
-359.163 0.276653 0 -16.6715
-120.104 0.346875 0 -23.2402
-121.314 0.339785 0 -23.2363
-360.976 0.273802 0 -16.6654
-239.657 0.318791 0 -20.4656
-120.709 0.343339 0 -23.2382
-242.075 0.312244 0 -20.4578
-240.866 0.315525 0 -20.4616
-359.163 0.276653 0 -16.6715
-355.538 0.28232 0 -16.6841
-118.895 0.353899 0 -23.2444
-120.104 0.346875 0 -23.2402
-357.351 0.279493 0 -16.6777
-237.24 0.32528 0 -20.474
-119.5 0.350395 0 -23.2423
-239.657 0.318791 0 -20.4656
-238.448 0.322043 0 -20.4698
-355.538 0.28232 0 -16.6841
-351.913 0.287941 0 -16.6975
-117.685 0.360855 0 -23.2488
-118.895 0.353899 0 -23.2444
-353.725 0.285136 0 -16.6907
-234.822 0.331711 0 -20.4829
-118.29 0.357385 0 -23.2466
-237.24 0.32528 0 -20.474
-236.031 0.328503 0 -20.4784
-351.913 0.287941 0 -16.6975
-348.288 0.293514 0 -16.7116
-116.475 0.367745 0 -23.2535
-117.685 0.360855 0 -23.2488
-350.1 0.290733 0 -16.7044
-232.404 0.338083 0 -20.4923
-117.08 0.364308 0 -23.2511
-234.822 0.331711 0 -20.4829
-233.613 0.334904 0 -20.4876
-348.288 0.293514 0 -16.7116
-344.662 0.299041 0 -16.7265
-115.266 0.374568 0 -23.2584
-116.475 0.367745 0 -23.2535
-346.475 0.296283 0 -16.7189
-229.987 0.344398 0 -20.5022
-115.87 0.371165 0 -23.2559
-232.404 0.338083 0 -20.4923
-231.195 0.341248 0 -20.4972
-344.662 0.299041 0 -16.7265
-341.037 0.304521 0 -16.7421
-114.056 0.381324 0 -23.2636
-115.266 0.374568 0 -23.2584
-342.85 0.301787 0 -16.7342
-227.569 0.350654 0 -20.5126
-114.661 0.377954 0 -23.2609
-229.987 0.344398 0 -20.5022
-228.778 0.347533 0 -20.5074
-341.037 0.304521 0 -16.7421
-337.412 0.309954 0 -16.7584
-112.846 0.388013 0 -23.269
-114.056 0.381324 0 -23.2636
-339.224 0.307243 0 -16.7502
-225.151 0.356851 0 -20.5235
-113.451 0.384677 0 -23.2662
-227.569 0.350654 0 -20.5126
-226.36 0.35376 0 -20.518
-337.412 0.309954 0 -16.7584
-333.787 0.31534 0 -16.7755
-111.637 0.394635 0 -23.2746
-112.846 0.388013 0 -23.269
-335.599 0.312653 0 -16.7669
-222.734 0.362991 0 -20.5349
-112.241 0.391333 0 -23.2718
-225.151 0.356851 0 -20.5235
-223.943 0.359928 0 -20.5291
-333.787 0.31534 0 -16.7755
-330.161 0.32068 0 -16.7933
-110.427 0.401191 0 -23.2805
-111.637 0.394635 0 -23.2746
-331.974 0.318016 0 -16.7843
-220.316 0.369072 0 -20.5467
-111.032 0.397922 0 -23.2775
-222.734 0.362991 0 -20.5349
-221.525 0.366039 0 -20.5407
-330.161 0.32068 0 -16.7933
-326.536 0.325973 0 -16.8118
-109.217 0.407679 0 -23.2866
-110.427 0.401191 0 -23.2805
-328.349 0.323332 0 -16.8025
-217.899 0.375095 0 -20.559
-109.822 0.404444 0 -23.2835
-220.316 0.369072 0 -20.5467
-219.107 0.37209 0 -20.5528
-326.536 0.325973 0 -16.8118
-322.911 0.331218 0 -16.831
-108.008 0.414101 0 -23.293
-109.217 0.407679 0 -23.2866
-324.724 0.328601 0 -16.8213
-215.481 0.381059 0 -20.5718
-108.613 0.410898 0 -23.2898
-217.899 0.375095 0 -20.559
-216.69 0.378084 0 -20.5653
-322.911 0.331218 0 -16.831
-319.286 0.336417 0 -16.8509
-106.798 0.420455 0 -23.2996
-108.008 0.414101 0 -23.293
-321.098 0.333824 0 -16.8409
-213.064 0.386965 0 -20.585
-107.403 0.417286 0 -23.2962
-215.481 0.381059 0 -20.5718
-214.272 0.384019 0 -20.5784
-319.286 0.336417 0 -16.8509
-315.661 0.341569 0 -16.8715
-105.589 0.426743 0 -23.3064
-106.798 0.420455 0 -23.2996
-317.473 0.338999 0 -16.8611
-210.646 0.392812 0 -20.5987
-106.193 0.423607 0 -23.303
-213.064 0.386965 0 -20.585
-211.855 0.389896 0 -20.5918
-315.661 0.341569 0 -16.8715
-312.036 0.346674 0 -16.8927
-104.379 0.432963 0 -23.3134
-105.589 0.426743 0 -23.3064
-313.848 0.344127 0 -16.882
-208.228 0.398601 0 -20.6129
-104.984 0.429861 0 -23.3099
-210.646 0.392812 0 -20.5987
-209.437 0.395714 0 -20.6058
-312.036 0.346674 0 -16.8927
-308.41 0.351732 0 -16.9146
-103.17 0.439116 0 -23.3207
-104.379 0.432963 0 -23.3134
-310.223 0.349209 0 -16.9036
-205.811 0.404331 0 -20.6275
-103.774 0.436048 0 -23.317
-208.228 0.398601 0 -20.6129
-207.02 0.401473 0 -20.6201
-308.41 0.351732 0 -16.9146
-304.785 0.356742 0 -16.9372
-101.96 0.445202 0 -23.3282
-103.17 0.439116 0 -23.3207
-306.598 0.354243 0 -16.9259
-203.394 0.410003 0 -20.6425
-102.565 0.442167 0 -23.3244
-205.811 0.404331 0 -20.6275
-204.602 0.407174 0 -20.6349
-304.785 0.356742 0 -16.9372
-301.16 0.361706 0 -16.9605
-100.751 0.45122 0 -23.3359
-101.96 0.445202 0 -23.3282
-302.973 0.35923 0 -16.9488
-200.976 0.415616 0 -20.658
-101.355 0.448219 0 -23.332
-203.394 0.410003 0 -20.6425
-202.185 0.412817 0 -20.6502
-301.16 0.361706 0 -16.9605
-297.535 0.366622 0 -16.9844
-99.5411 0.457171 0 -23.3438
-100.751 0.45122 0 -23.3359
-299.348 0.36417 0 -16.9723
-198.559 0.42117 0 -20.6739
-100.146 0.454204 0 -23.3398
-200.976 0.415616 0 -20.658
-199.767 0.4184 0 -20.6659
-297.535 0.366622 0 -16.9844
-293.91 0.371491 0 -17.0089
-98.3317 0.463055 0 -23.352
-99.5411 0.457171 0 -23.3438
-295.722 0.369063 0 -16.9965
-196.141 0.426666 0 -20.6902
-98.9364 0.460122 0 -23.3479
-198.559 0.42117 0 -20.6739
-197.35 0.423925 0 -20.682
-293.91 0.371491 0 -17.0089
-290.285 0.376313 0 -17.034
-97.1222 0.468872 0 -23.3603
-98.3317 0.463055 0 -23.352
-292.097 0.373908 0 -17.0214
-193.724 0.432102 0 -20.707
-97.7269 0.465972 0 -23.3561
-196.141 0.426666 0 -20.6902
-194.932 0.429391 0 -20.6986
-290.285 0.376313 0 -17.034
-286.66 0.381087 0 -17.0598
-95.9128 0.474621 0 -23.3689
-97.1222 0.468872 0 -23.3603
-288.472 0.378706 0 -17.0468
-191.306 0.43748 0 -20.7242
-96.5175 0.471755 0 -23.3646
-193.724 0.432102 0 -20.707
-192.515 0.434799 0 -20.7155
-286.66 0.381087 0 -17.0598
-283.035 0.385814 0 -17.0862
-94.7034 0.480303 0 -23.3776
-95.9128 0.474621 0 -23.3689
-284.847 0.383457 0 -17.0729
-188.889 0.442799 0 -20.7417
-95.3081 0.47747 0 -23.3732
-191.306 0.43748 0 -20.7242
-190.098 0.440147 0 -20.7329
-283.035 0.385814 0 -17.0862
-279.41 0.390493 0 -17.1132
-93.494 0.485917 0 -23.3866
-94.7034 0.480303 0 -23.3776
-281.222 0.388159 0 -17.0996
-186.472 0.448059 0 -20.7597
-94.0987 0.483118 0 -23.3821
-188.889 0.442799 0 -20.7417
-187.68 0.445436 0 -20.7507
-279.41 0.390493 0 -17.1132
-275.785 0.395125 0 -17.1408
-92.2846 0.491463 0 -23.3957
-93.494 0.485917 0 -23.3866
-277.597 0.392815 0 -17.1269
-184.054 0.453259 0 -20.7781
-92.8893 0.488698 0 -23.3911
-186.472 0.448059 0 -20.7597
-185.263 0.450666 0 -20.7689
-275.785 0.395125 0 -17.1408
-272.16 0.399708 0 -17.169
-91.0753 0.496942 0 -23.4051
-92.2846 0.491463 0 -23.3957
-273.972 0.397422 0 -17.1548
-181.637 0.458401 0 -20.7969
-91.6799 0.494211 0 -23.4004
-184.054 0.453259 0 -20.7781
-182.846 0.455837 0 -20.7874
-272.16 0.399708 0 -17.169
-268.535 0.404244 0 -17.1978
-89.8659 0.502353 0 -23.4147
-91.0753 0.496942 0 -23.4051
-270.347 0.401982 0 -17.1833
-179.22 0.463483 0 -20.816
-90.4706 0.499656 0 -23.4099
-181.637 0.458401 0 -20.7969
-180.428 0.460949 0 -20.8064
-268.535 0.404244 0 -17.1978
-264.91 0.408732 0 -17.2271
-88.6566 0.507696 0 -23.4244
-89.8659 0.502353 0 -23.4147
-266.722 0.406494 0 -17.2124
-176.802 0.468506 0 -20.8356
-89.2613 0.505033 0 -23.4195
-179.22 0.463483 0 -20.816
-178.011 0.466002 0 -20.8258
-264.91 0.408732 0 -17.2271
-261.285 0.413172 0 -17.257
-87.4473 0.512972 0 -23.4343
-88.6566 0.507696 0 -23.4244
-263.097 0.410958 0 -17.242
-174.385 0.473469 0 -20.8555
-88.0519 0.510342 0 -23.4293
-176.802 0.468506 0 -20.8356
-175.594 0.470995 0 -20.8455
-261.285 0.413172 0 -17.257
-257.66 0.417563 0 -17.2875
-86.238 0.518179 0 -23.4445
-87.4473 0.512972 0 -23.4343
-259.472 0.415374 0 -17.2722
-171.968 0.478374 0 -20.8758
-86.8426 0.515584 0 -23.4394
-174.385 0.473469 0 -20.8555
-173.176 0.475929 0 -20.8656
-257.66 0.417563 0 -17.2875
-254.035 0.421907 0 -17.3186
-85.0287 0.523319 0 -23.4548
-86.238 0.518179 0 -23.4445
-255.847 0.419741 0 -17.303
-169.55 0.483218 0 -20.8965
-85.6334 0.520757 0 -23.4496
-171.968 0.478374 0 -20.8758
-170.759 0.480803 0 -20.8861
-254.035 0.421907 0 -17.3186
-250.41 0.426202 0 -17.3501
-83.8195 0.52839 0 -23.4653
-85.0287 0.523319 0 -23.4548
-252.222 0.42406 0 -17.3343
-167.133 0.488003 0 -20.9175
-84.4241 0.525863 0 -23.46
-169.55 0.483218 0 -20.8965
-168.342 0.485618 0 -20.907
-250.41 0.426202 0 -17.3501
-246.785 0.430448 0 -17.3823
-82.6102 0.533394 0 -23.4759
-83.8195 0.52839 0 -23.4653
-248.597 0.428331 0 -17.3661
-164.716 0.492728 0 -20.9389
-83.2148 0.530901 0 -23.4706
-167.133 0.488003 0 -20.9175
-165.925 0.490373 0 -20.9282
-246.785 0.430448 0 -17.3823
-243.16 0.434646 0 -17.4149
-81.401 0.53833 0 -23.4868
-82.6102 0.533394 0 -23.4759
-244.972 0.432553 0 -17.3985
-162.299 0.497393 0 -20.9607
-82.0056 0.53587 0 -23.4813
-164.716 0.492728 0 -20.9389
-163.507 0.495068 0 -20.9498
-243.16 0.434646 0 -17.4149
-239.535 0.438796 0 -17.4481
-80.1918 0.543197 0 -23.4978
-81.401 0.53833 0 -23.4868
-241.347 0.436727 0 -17.4314
-159.882 0.501999 0 -20.9828
-80.7964 0.540772 0 -23.4923
-162.299 0.497393 0 -20.9607
-161.09 0.499704 0 -20.9717
-239.535 0.438796 0 -17.4481
-235.91 0.442896 0 -17.4818
-78.9826 0.547996 0 -23.509
-80.1918 0.543197 0 -23.4978
-237.722 0.440852 0 -17.4649
-157.464 0.506544 0 -21.0052
-79.5872 0.545605 0 -23.5034
-159.882 0.501999 0 -20.9828
-158.673 0.504279 0 -20.994
-235.91 0.442896 0 -17.4818
-232.285 0.446947 0 -17.5159
-77.7734 0.552727 0 -23.5204
-78.9826 0.547996 0 -23.509
-234.097 0.444928 0 -17.4988
-155.047 0.511029 0 -21.028
-78.378 0.55037 0 -23.5147
-157.464 0.506544 0 -21.0052
-156.256 0.508794 0 -21.0166
-232.285 0.446947 0 -17.5159
-228.66 0.45095 0 -17.5506
-76.5643 0.557389 0 -23.5319
-77.7734 0.552727 0 -23.5204
-230.473 0.448955 0 -17.5332
-152.63 0.515455 0 -21.0511
-77.1688 0.555067 0 -23.5261
-155.047 0.511029 0 -21.028
-153.839 0.51325 0 -21.0395
-228.66 0.45095 0 -17.5506
-225.035 0.454903 0 -17.5858
-75.3551 0.561983 0 -23.5436
-76.5643 0.557389 0 -23.5319
-226.848 0.452932 0 -17.5682
-150.213 0.519819 0 -21.0745
-75.9597 0.559695 0 -23.5377
-152.63 0.515455 0 -21.0511
-151.422 0.517645 0 -21.0628
-225.035 0.454903 0 -17.5858
-221.41 0.458806 0 -17.6215
-74.146 0.566509 0 -23.5554
-75.3551 0.561983 0 -23.5436
-223.223 0.456861 0 -17.6036
-147.796 0.524124 0 -21.0983
-74.7506 0.564255 0 -23.5495
-150.213 0.519819 0 -21.0745
-149.004 0.521979 0 -21.0864
-221.41 0.458806 0 -17.6215
-217.785 0.462661 0 -17.6576
-72.9369 0.570966 0 -23.5675
-74.146 0.566509 0 -23.5554
-219.598 0.46074 0 -17.6395
-145.379 0.528368 0 -21.1224
-73.5414 0.568746 0 -23.5614
-147.796 0.524124 0 -21.0983
-146.587 0.526253 0 -21.1103
-217.785 0.462661 0 -17.6576
-214.161 0.466465 0 -17.6942
-71.7278 0.575354 0 -23.5796
-72.9369 0.570966 0 -23.5675
-215.973 0.464569 0 -17.6759
-142.962 0.532551 0 -21.1468
-72.3323 0.573169 0 -23.5735
-145.379 0.528368 0 -21.1224
-144.17 0.530467 0 -21.1345
-214.161 0.466465 0 -17.6942
-210.536 0.47022 0 -17.7313
-70.5187 0.579674 0 -23.592
-71.7278 0.575354 0 -23.5796
-212.348 0.468349 0 -17.7127
-140.545 0.536674 0 -21.1715
-71.1232 0.577523 0 -23.5858
-142.962 0.532551 0 -21.1468
-141.753 0.53462 0 -21.1591
-210.536 0.47022 0 -17.7313
-206.911 0.473925 0 -17.7688
-69.3097 0.583925 0 -23.6044
-70.5187 0.579674 0 -23.592
-208.723 0.472078 0 -17.75
-138.128 0.540736 0 -21.1965
-69.9142 0.581808 0 -23.5982
-140.545 0.536674 0 -21.1715
-139.336 0.538712 0 -21.1839
-206.911 0.473925 0 -17.7688
-203.286 0.477579 0 -17.8068
-68.1006 0.588107 0 -23.6171
-69.3097 0.583925 0 -23.6044
-205.099 0.475758 0 -17.7877
-135.71 0.544737 0 -21.2218
-68.7051 0.586024 0 -23.6107
-138.128 0.540736 0 -21.1965
-136.919 0.542744 0 -21.2091
-203.286 0.477579 0 -17.8068
-199.661 0.481184 0 -17.8452
-66.8916 0.59222 0 -23.6298
-68.1006 0.588107 0 -23.6171
-201.474 0.479388 0 -17.8259
-133.293 0.548676 0 -21.2473
-67.4961 0.590172 0 -23.6234
-135.71 0.544737 0 -21.2218
-134.502 0.546714 0 -21.2345
-199.661 0.481184 0 -17.8452
-196.037 0.484738 0 -17.884
-65.6826 0.596264 0 -23.6427
-66.8916 0.59222 0 -23.6298
-197.849 0.482967 0 -17.8645
-130.876 0.552555 0 -21.2732
-66.2871 0.594251 0 -23.6363
-133.293 0.548676 0 -21.2473
-132.085 0.550623 0 -21.2602
-196.037 0.484738 0 -17.884
-192.412 0.488241 0 -17.9232
-64.4736 0.60024 0 -23.6558
-65.6826 0.596264 0 -23.6427
-194.224 0.486496 0 -17.9035
-128.459 0.556373 0 -21.2994
-65.0781 0.598261 0 -23.6492
-130.876 0.552555 0 -21.2732
-129.668 0.554472 0 -21.2863
-192.412 0.488241 0 -17.9232
-188.787 0.491694 0 -17.9629
-63.2646 0.604146 0 -23.669
-64.4736 0.60024 0 -23.6558
-190.599 0.489974 0 -17.943
-126.042 0.560129 0 -21.3258
-63.8691 0.602201 0 -23.6624
-128.459 0.556373 0 -21.2994
-127.251 0.558258 0 -21.3126
-188.787 0.491694 0 -17.9629
-185.162 0.495096 0 -18.0029
-62.0556 0.607983 0 -23.6823
-63.2646 0.604146 0 -23.669
-186.975 0.493401 0 -17.9829
-123.626 0.563823 0 -21.3525
-62.6601 0.606073 0 -23.6756
-126.042 0.560129 0 -21.3258
-124.834 0.561984 0 -21.3391
-185.162 0.495096 0 -18.0029
-181.537 0.498447 0 -18.0434
-60.8467 0.61175 0 -23.6958
-62.0556 0.607983 0 -23.6823
-183.35 0.496778 0 -18.0231
-121.209 0.567456 0 -21.3795
-61.4512 0.609875 0 -23.689
-123.626 0.563823 0 -21.3525
-122.417 0.565648 0 -21.3659
-181.537 0.498447 0 -18.0434
-177.913 0.501746 0 -18.0843
-59.6378 0.615449 0 -23.7094
-60.8467 0.61175 0 -23.6958
-179.725 0.500103 0 -18.0638
-118.792 0.571028 0 -21.4067
-60.2422 0.613608 0 -23.7026
-121.209 0.567456 0 -21.3795
-120 0.56925 0 -21.393
-177.913 0.501746 0 -18.0843
-174.288 0.504994 0 -18.1255
-58.4288 0.619078 0 -23.7231
-59.6378 0.615449 0 -23.7094
-176.1 0.503377 0 -18.1048
-116.375 0.574537 0 -21.4342
-59.0333 0.617272 0 -23.7162
-118.792 0.571028 0 -21.4067
-117.583 0.57279 0 -21.4204
-174.288 0.504994 0 -18.1255
-170.663 0.508191 0 -18.1671
-57.22 0.622638 0 -23.7369
-58.4288 0.619078 0 -23.7231
-172.475 0.506599 0 -18.1463
-113.958 0.577985 0 -21.4619
-57.8244 0.620866 0 -23.73
-116.375 0.574537 0 -21.4342
-115.166 0.576269 0 -21.448
-170.663 0.508191 0 -18.1671
-167.038 0.511336 0 -18.2091
-56.0111 0.626128 0 -23.7509
-57.22 0.622638 0 -23.7369
-168.851 0.50977 0 -18.188
-111.541 0.58137 0 -21.4899
-56.6155 0.624391 0 -23.7439
-113.958 0.577985 0 -21.4619
-112.749 0.579685 0 -21.4758
-167.038 0.511336 0 -18.2091
-163.414 0.514429 0 -18.2514
-54.8022 0.629548 0 -23.765
-56.0111 0.626128 0 -23.7509
-165.226 0.512889 0 -18.2302
-109.124 0.584693 0 -21.5181
-55.4066 0.627847 0 -23.7579
-111.541 0.58137 0 -21.4899
-110.332 0.58304 0 -21.5039
-163.414 0.514429 0 -18.2514
-159.789 0.51747 0 -18.2941
-53.5934 0.632899 0 -23.7792
-54.8022 0.629548 0 -23.765
-161.601 0.515956 0 -18.2727
-106.707 0.587954 0 -21.5465
-54.1978 0.631232 0 -23.7721
-109.124 0.584693 0 -21.5181
-107.916 0.586332 0 -21.5323
-159.789 0.51747 0 -18.2941
-156.164 0.520458 0 -18.3371
-52.3845 0.63618 0 -23.7935
-53.5934 0.632899 0 -23.7792
-157.977 0.518971 0 -18.3156
-104.29 0.591153 0 -21.5752
-52.9889 0.634548 0 -23.7863
-106.707 0.587954 0 -21.5465
-105.499 0.589561 0 -21.5608
-156.164 0.520458 0 -18.3371
-152.539 0.523394 0 -18.3805
-51.1757 0.639391 0 -23.8079
-52.3845 0.63618 0 -23.7935
-154.352 0.521933 0 -18.3588
-101.873 0.594288 0 -21.6041
-51.7801 0.637794 0 -23.8007
-104.29 0.591153 0 -21.5752
-103.082 0.592728 0 -21.5896
-152.539 0.523394 0 -18.3805
-148.915 0.526278 0 -18.4242
-49.9669 0.642533 0 -23.8225
-51.1757 0.639391 0 -23.8079
-150.727 0.524843 0 -18.4023
-99.4566 0.597361 0 -21.6332
-50.5713 0.640971 0 -23.8152
-101.873 0.594288 0 -21.6041
-100.665 0.595833 0 -21.6186
-148.915 0.526278 0 -18.4242
-145.29 0.529109 0 -18.4682
-48.7581 0.645604 0 -23.8371
-49.9669 0.642533 0 -23.8225
-147.102 0.5277 0 -18.4461
-97.0398 0.600372 0 -21.6625
-49.3625 0.644077 0 -23.8298
-99.4566 0.597361 0 -21.6332
-98.2482 0.598874 0 -21.6479
-145.29 0.529109 0 -18.4682
-141.665 0.531886 0 -18.5125
-47.5494 0.648605 0 -23.8519
-48.7581 0.645604 0 -23.8371
-143.478 0.530504 0 -18.4903
-94.623 0.603319 0 -21.6921
-48.1537 0.647113 0 -23.8445
-97.0398 0.600372 0 -21.6625
-95.8314 0.601853 0 -21.6773
-141.665 0.531886 0 -18.5125
-138.041 0.534611 0 -18.5571
-46.3406 0.651536 0 -23.8667
-47.5494 0.648605 0 -23.8519
-139.853 0.533255 0 -18.5348
-92.2062 0.606203 0 -21.7218
-46.945 0.65008 0 -23.8593
-94.623 0.603319 0 -21.6921
-93.4146 0.604769 0 -21.7069
-138.041 0.534611 0 -18.5571
-134.416 0.537282 0 -18.6021
-45.1319 0.654397 0 -23.8817
-46.3406 0.651536 0 -23.8667
-136.228 0.535953 0 -18.5796
-89.7894 0.609024 0 -21.7518
-45.7362 0.652976 0 -23.8742
-92.2062 0.606203 0 -21.7218
-90.9978 0.607621 0 -21.7368
-134.416 0.537282 0 -18.6021
-130.791 0.539899 0 -18.6473
-43.9231 0.657188 0 -23.8967
-45.1319 0.654397 0 -23.8817
-132.604 0.538597 0 -18.6246
-87.3727 0.611781 0 -21.7819
-44.5275 0.655801 0 -23.8892
-89.7894 0.609024 0 -21.7518
-88.581 0.61041 0 -21.7668
-130.791 0.539899 0 -18.6473
-127.167 0.542463 0 -18.6928
-42.7144 0.659908 0 -23.9119
-43.9231 0.657188 0 -23.8967
-128.979 0.541188 0 -18.67
-84.9559 0.614475 0 -21.8122
-43.3188 0.658557 0 -23.9043
-87.3727 0.611781 0 -21.7819
-86.1643 0.613136 0 -21.797
-127.167 0.542463 0 -18.6928
-123.542 0.544972 0 -18.7385
-41.5058 0.662558 0 -23.9271
-42.7144 0.659908 0 -23.9119
-125.354 0.543724 0 -18.7156
-82.5392 0.617104 0 -21.8427
-42.1101 0.661242 0 -23.9195
-84.9559 0.614475 0 -21.8122
-83.7475 0.615798 0 -21.8274
-123.542 0.544972 0 -18.7385
-119.917 0.547427 0 -18.7846
-40.2971 0.665136 0 -23.9425
-41.5058 0.662558 0 -23.9271
-121.73 0.546206 0 -18.7615
-80.1224 0.61967 0 -21.8734
-40.9014 0.663856 0 -23.9348
-82.5392 0.617104 0 -21.8427
-81.3308 0.618395 0 -21.858
-119.917 0.547427 0 -18.7846
-116.293 0.549827 0 -18.8308
-39.0884 0.667644 0 -23.9579
-40.2971 0.665136 0 -23.9425
-118.105 0.548634 0 -18.8077
-77.7057 0.622172 0 -21.9043
-39.6927 0.666399 0 -23.9501
-80.1224 0.61967 0 -21.8734
-78.9141 0.620929 0 -21.8888
-116.293 0.549827 0 -18.8308
-112.668 0.552173 0 -18.8774
-37.8798 0.67008 0 -23.9734
-39.0884 0.667644 0 -23.9579
-114.48 0.551007 0 -18.8541
-75.289 0.624608 0 -21.9353
-38.4841 0.668871 0 -23.9656
-77.7057 0.622172 0 -21.9043
-76.4974 0.623398 0 -21.9197
-112.668 0.552173 0 -18.8774
-109.044 0.554462 0 -18.9242
-36.6711 0.672445 0 -23.9889
-37.8798 0.67008 0 -23.9734
-110.856 0.553324 0 -18.9007
-72.8723 0.62698 0 -21.9664
-37.2755 0.671271 0 -23.9811
-75.289 0.624608 0 -21.9353
-74.0807 0.625802 0 -21.9508
-109.044 0.554462 0 -18.9242
-105.419 0.556697 0 -18.9712
-35.4625 0.674738 0 -24.0046
-36.6711 0.672445 0 -23.9889
-107.231 0.555586 0 -18.9476
-70.4557 0.629287 0 -21.9978
-36.0668 0.6736 0 -23.9968
-72.8723 0.62698 0 -21.9664
-71.664 0.628142 0 -21.9821
-105.419 0.556697 0 -18.9712
-101.794 0.558875 0 -19.0184
-34.2539 0.676958 0 -24.0203
-35.4625 0.674738 0 -24.0046
-103.607 0.557793 0 -18.9948
-68.039 0.631527 0 -22.0293
-34.8582 0.675857 0 -24.0124
-70.4557 0.629287 0 -21.9978
-69.2473 0.630415 0 -22.0135
-101.794 0.558875 0 -19.0184
-98.1697 0.560997 0 -19.0659
-33.0453 0.679106 0 -24.0361
-34.2539 0.676958 0 -24.0203
-99.982 0.559943 0 -19.0421
-65.6223 0.633702 0 -22.0609
-33.6496 0.678041 0 -24.0282
-68.039 0.631527 0 -22.0293
-66.8307 0.632623 0 -22.0451
-98.1697 0.560997 0 -19.0659
-94.5451 0.563062 0 -19.1135
-31.8368 0.681181 0 -24.052
-33.0453 0.679106 0 -24.0361
-96.3574 0.562036 0 -19.0897
-63.2057 0.635812 0 -22.0927
-32.441 0.680153 0 -24.0441
-65.6223 0.633702 0 -22.0609
-64.414 0.634765 0 -22.0768
-94.5451 0.563062 0 -19.1135
-90.9204 0.565073 0 -19.1614
-30.6282 0.683185 0 -24.0679
-31.8368 0.681181 0 -24.052
-92.7327 0.564075 0 -19.1374
-60.7891 0.637857 0 -22.1246
-31.2325 0.682192 0 -24.06
-63.2057 0.635812 0 -22.0927
-61.9974 0.636842 0 -22.1086
-90.9204 0.565073 0 -19.1614
-87.2958 0.567031 0 -19.2094
-29.4196 0.685118 0 -24.0839
-30.6282 0.683185 0 -24.0679
-89.1081 0.566059 0 -19.1854
-58.3724 0.639839 0 -22.1566
-30.0239 0.68416 0 -24.0759
-60.7891 0.637857 0 -22.1246
-59.5808 0.638855 0 -22.1406
-87.2958 0.567031 0 -19.2094
-83.6712 0.568939 0 -19.2577
-28.2111 0.686983 0 -24.1
-29.4196 0.685118 0 -24.0839
-85.4835 0.567991 0 -19.2335
-55.9558 0.641762 0 -22.1887
-28.8154 0.686058 0 -24.092
-58.3724 0.639839 0 -22.1566
-57.1641 0.640807 0 -22.1727
-83.6712 0.568939 0 -19.2577
-80.0467 0.570804 0 -19.3061
-27.0026 0.688786 0 -24.1161
-28.2111 0.686983 0 -24.1
-81.8589 0.569877 0 -19.2819
-53.5392 0.643632 0 -22.221
-27.6068 0.687892 0 -24.108
-55.9558 0.641762 0 -22.1887
-54.7475 0.642703 0 -22.2049
-80.0467 0.570804 0 -19.3061
-76.4221 0.572633 0 -19.3547
-25.7941 0.690533 0 -24.1322
-27.0026 0.688786 0 -24.1161
-78.2344 0.571722 0 -19.3304
-51.1227 0.645458 0 -22.2534
-26.3983 0.689666 0 -24.1242
-53.5392 0.643632 0 -22.221
-52.3309 0.64455 0 -22.2372
-76.4221 0.572633 0 -19.3547
-72.7976 0.574437 0 -19.4035
-24.5856 0.692236 0 -24.1484
-25.7941 0.690533 0 -24.1322
-74.6098 0.573538 0 -19.3791
-48.7061 0.647248 0 -22.2858
-25.1898 0.69139 0 -24.1403
-51.1227 0.645458 0 -22.2534
-49.9144 0.646357 0 -22.2696
-72.7976 0.574437 0 -19.4035
-69.1731 0.576218 0 -19.4524
-23.3772 0.693903 0 -24.1646
-24.5856 0.692236 0 -24.1484
-70.9853 0.57533 0 -19.4279
-46.2897 0.649008 0 -22.3184
-23.9814 0.693074 0 -24.1565
-48.7061 0.647248 0 -22.2858
-47.4979 0.648132 0 -22.3021
-69.1731 0.576218 0 -19.4524
-65.5487 0.577957 0 -19.5014
-22.1688 0.695537 0 -24.1808
-23.3772 0.693903 0 -24.1646
-67.3609 0.577097 0 -19.4769
-43.8733 0.650722 0 -22.351
-22.773 0.694724 0 -24.1727
-46.2897 0.649008 0 -22.3184
-45.0815 0.649874 0 -22.3347
-65.5487 0.577957 0 -19.5014
-61.9244 0.579583 0 -19.5507
-20.9605 0.697107 0 -24.1971
-22.1688 0.695537 0 -24.1808
-63.7366 0.578793 0 -19.526
-41.457 0.652317 0 -22.3838
-21.5646 0.696336 0 -24.189
-43.8733 0.650722 0 -22.351
-42.6651 0.651543 0 -22.3674
-61.9244 0.579583 0 -19.5507
-58.3002 0.580862 0 -19.6
-19.7522 0.698539 0 -24.2137
-20.9605 0.697107 0 -24.1971
-60.1123 0.580293 0 -19.5753
-39.0407 0.653593 0 -22.4167
-20.3563 0.697849 0 -24.2053
-41.457 0.652317 0 -22.3838
-40.2488 0.653019 0 -22.4002
-58.3002 0.580862 0 -19.6
-54.6757 0.581318 0 -19.6494
-18.5438 0.699552 0 -24.2308
-19.7522 0.698539 0 -24.2137
-56.4881 0.581243 0 -19.6247
-36.6242 0.654067 0 -22.45
-19.148 0.699129 0 -24.2221
-39.0407 0.653593 0 -22.4167
-37.8325 0.653978 0 -22.4333
-54.6757 0.581318 0 -19.6494
-51.0506 0.579763 0 -19.6988
-17.3347 0.699709 0 -24.2495
-18.5438 0.699552 0 -24.2308
-52.8633 0.580913 0 -19.6742
-34.2067 0.652747 0 -22.4842
-17.9394 0.699785 0 -24.2399
-36.6242 0.654067 0 -22.45
-35.4156 0.653743 0 -22.467
-51.0506 0.579763 0 -19.6988
-47.4228 0.574179 0 -19.7482
-16.1246 0.697739 0 -24.2716
-17.3347 0.699709 0 -24.2495
-49.2373 0.577676 0 -19.7235
-31.7868 0.64757 0 -22.5202
-16.7298 0.699112 0 -24.26
-34.2067 0.652747 0 -22.4842
-32.9972 0.650817 0 -22.5018
-47.4228 0.574179 0 -19.7482
-43.7898 0.560043 0 -19.797
-14.9102 0.692063 0 -24.3008
-16.1246 0.697739 0 -24.2716
-45.607 0.568601 0 -19.7727
-29.3611 0.634954 0 -22.56
-15.5183 0.69553 0 -24.285
-31.7868 0.64757 0 -22.5202
-30.575 0.642591 0 -22.5395
-43.7898 0.560043 0 -19.797
-40.1425 0.530933 0 -19.8455
-13.6898 0.678287 0 -24.3439
-14.9102 0.692063 0 -24.3008
-41.9689 0.547981 0 -19.8213
-26.9227 0.60816 0 -22.6076
-14.3006 0.686547 0 -24.3201
-29.3611 0.634954 0 -22.56
-28.144 0.623803 0 -22.5823
-40.1425 0.530933 0 -19.8455
-36.4715 0.473084 0 -19.8927
-12.4517 0.652752 0 -24.4135
-13.6898 0.678287 0 -24.3439
-38.3101 0.50671 0 -19.8695
-24.4588 0.557589 0 -22.6699
-13.0745 0.667402 0 -24.3743
-26.9227 0.60816 0 -22.6076
-25.6948 0.586974 0 -22.6366
-36.4715 0.473084 0 -19.8927
-32.7435 0.372547 0 -19.9413
-11.1913 0.603688 0 -24.5288
-12.4517 0.652752 0 -24.4135
-34.6183 0.42952 0 -19.9164
-21.9467 0.467093 0 -22.7592
-11.8235 0.631831 0 -24.4639
-24.4588 0.557589 0 -22.6699
-23.2107 0.517915 0 -22.7094
-32.7435 0.372547 0 -19.9413
-28.9322 0.198464 0 -19.9907
-9.87271 0.530574 0 -24.7217
-11.1913 0.603688 0 -24.5288
-30.8482 0.296284 0 -19.9664
-19.3499 0.323228 0 -22.8957
-10.5442 0.570537 0 -24.6129
-21.9467 0.467093 0 -22.7592
-20.6612 0.403972 0 -22.8215
-28.9322 0.198464 0 -19.9907
-24.9393 -0.0517246 0 -20.0598
-8.49714 0.414027 0 -25.0283
-9.87271 0.530574 0 -24.7217
-26.9703 0.0836527 0 -20.0201
-16.6119 0.110688 0 -23.1096
-9.18771 0.477172 0 -24.8586
-19.3499 0.323228 0 -22.8957
-18.004 0.222565 0 -22.9875
-24.9393 -0.0517246 0 -20.0598
-20.7297 -0.402427 0 -20.1602
-6.98204 0.305795 0 -25.4886
-8.49714 0.414027 0 -25.0283
-22.8562 -0.219112 0 -20.1063
-13.6712 -0.127019 0 -23.4391
-7.77079 0.355929 0 -25.2363
-16.6119 0.110688 0 -23.1096
-15.1686 -0.00544972 0 -23.2632
-20.7297 -0.402427 0 -20.1602
-16.0965 -0.675652 0 -20.3868
-5.41472 0.226075 0 -26.0799
-6.98204 0.305795 0 -25.4886
-18.4958 -0.561277 0 -20.246
-10.4696 -0.282691 0 -23.9188
-6.18392 0.250499 0 -25.7737
-13.6712 -0.127019 0 -23.4391
-12.1125 -0.242309 0 -23.6468
-16.0965 -0.675652 0 -20.3868
-11.2073 -0.645132 0 -20.7985
-3.69805 0.506419 0 -26.6593
-5.41472 0.226075 0 -26.0799
-13.6437 -0.74997 0 -20.5682
-7.10495 0.067853 0 -24.5153
-4.60514 0.302161 0 -26.3857
-10.4696 -0.282691 0 -23.9188
-8.78491 -0.19222 0 -24.2298
-11.2073 -0.645132 0 -20.7985
-6.02367 0.902569 0 -21.6005
-2.28815 1.3411 0 -26.6894
-3.69805 0.506419 0 -26.6593
-8.69405 -0.149404 0 -21.1314
-3.88015 1.56319 0 -24.9466
-2.87831 0.814047 0 -26.7983
-7.10495 0.067853 0 -24.5153
-5.4719 0.572585 0 -24.7459
-6.02367 0.902568 0 -21.6005
-2.1277 5.5905 0 -22.1514
-0.96838 3.473 0 -25.1861
-2.28815 1.3411 0 -26.6894
-3.71615 2.60203 0 -21.9982
-1.72989 5.30691 0 -24.1271
-1.69655 2.2736 0 -26.207
-3.88015 1.56319 0 -24.9466
-2.53815 3.18374 0 -24.875
-2.1277 5.5905 0 -22.1514
0.165709 17.1926 0 -20.1976
-0.657606 5.73375 0 -20.5375
-0.96838 3.473 0 -25.1861
-0.856498 10.5966 0 -21.7699
-0.51214 11.2134 0 -19.9823
-0.514719 4.62863 0 -23.3642
-1.72989 5.30691 0 -24.1271
-1.16033 7.94643 0 -22.4998
0.165709 17.1926 0 -20.1976
0.706983 30.2883 0 -10.3941
-0.964253 8.66732 0 -11.6683
-0.657606 5.73375 0 -20.5375
0.826282 24.4041 0 -16.5578
0.336772 18.6826 0 -11.6713
-0.942223 7.05017 0 -16.6638
-0.51214 11.2134 0 -19.9823
0.0786689 14.9915 0 -16.4585
-231.354 -69.3987 0 92.4541
-225.781 -38.6765 0 30.6582
224.442 37.9622 0 30.5712
229.933 68.9878 0 92.3732
-221.797 -54.2281 0 58.3203
-0.711328 -0.365237 0 34.7064
220.424 53.6397 0 58.2521
-0.759314 -0.204658 0 94.3319
-0.727361 -0.306249 0 65.261
-225.781 -38.6765 0 30.6582
-237.913 -23.4966 0 -6.32038
236.614 22.6345 0 -6.47329
224.442 37.9622 0 30.5712
-235.157 -30.2294 0 8.91119
-0.695226 -0.439353 0 -4.45371
233.841 29.4281 0 8.79112
-0.711328 -0.365237 0 34.7064
-0.704156 -0.407145 0 10.5959
-237.913 -23.4966 0 -6.32038
-238.733 -9.74096 0 -23.0533
237.458 8.79455 0 -23.2779
236.614 22.6345 0 -6.47329
-237.475 -15.8997 0 -16.4125
-0.68569 -0.487211 0 -22.6022
236.188 14.9914 0 -16.6004
-0.695226 -0.439353 0 -4.45371
-0.688449 -0.465686 0 -14.7678
-238.733 -9.74096 0 -23.0533
-239.41 -3.33115 0 -28.9955
238.157 2.31663 0 -29.2874
237.458 8.79455 0 -23.2779
-240.124 -5.98348 0 -27.0406
-0.677886 -0.519687 0 -29.6135
238.86 5.00167 0 -27.3001
-0.68569 -0.487211 0 -22.6022
-0.683082 -0.504698 0 -27.4196
-239.41 -3.33115 0 -28.9955
-236.851 -0.00422352 0 -29.5961
235.616 -1.06452 0 -29.9478
238.157 2.31663 0 -29.2874
-237.819 -1.22151 0 -29.6281
-0.668677 -0.545854 0 -30.8096
236.575 0.177825 0 -29.9506
-0.677886 -0.519687 0 -29.6135
-0.672658 -0.533635 0 -30.5061
-236.851 -0.00422352 0 -29.5961
-234.704 0.608761 0 -28.5056
233.481 -1.71462 0 -28.912
235.616 -1.06452 0 -29.9478
-236.014 0.444183 0 -29.1587
-0.661314 -0.563347 0 -29.7717
234.786 -1.53376 0 -29.5382
-0.668677 -0.545854 0 -30.8096
-0.664988 -0.555685 0 -30.4939
-234.704 0.608761 0 -28.5056
-232.18 0.634202 0 -27.1079
230.964 -1.75873 0 -27.5682
233.481 -1.71462 0 -28.912
-233.277 0.701183 0 -27.7783
-0.656712 -0.572907 0 -28.3026
232.059 -1.81863 0 -28.2115
-0.661314 -0.563347 0 -29.7717
-0.658457 -0.569158 0 -28.9882
-232.18 0.634202 0 -27.1079
-230.239 0.280769 0 -25.9933
229.025 -1.40793 0 -26.5082
230.964 -1.75873 0 -27.5682
-231.233 0.455239 0 -26.5101
-0.654842 -0.574394 0 -27.0612
230.019 -1.58286 0 -26.9975
-0.656712 -0.572907 0 -28.3026
-0.655583 -0.574551 0 -27.6545
-230.239 0.280769 0 -25.9933
-228.449 0.0105469 0 -25.2136
227.234 -1.12808 0 -25.7843
229.025 -1.40793 0 -26.5082
-229.277 0.14382 0 -25.5594
-0.654777 -0.569875 0 -26.1976
228.063 -1.26747 0 -26.1021
-0.654842 -0.574394 0 -27.0612
-0.6546 -0.57279 0 -26.5732
-228.449 0.0105469 0 -25.2136
-226.951 -0.213999 0 -24.724
225.733 -0.885444 0 -25.3512
227.234 -1.12808 0 -25.7843
-227.695 -0.115884 0 -24.9397
-0.655598 -0.560896 0 -25.6538
226.479 -0.993445 0 -25.5386
-0.654777 -0.569875 0 -26.1976
-0.655155 -0.565832 0 -25.8957
-226.951 -0.213999 0 -24.724
-225.555 -0.341615 0 -24.4278
224.334 -0.734453 0 -25.1117
225.733 -0.885444 0 -25.3512
-226.231 -0.284998 0 -24.5559
-0.656599 -0.549173 0 -25.338
225.011 -0.803261 0 -25.2115
-0.655598 -0.560896 0 -25.6538
-0.656101 -0.5553 0 -25.471
-225.555 -0.341615 0 -24.4278
-224.261 -0.418013 0 -24.2549
223.038 -0.63172 0 -24.9951
224.334 -0.734453 0 -25.1117
-224.904 -0.386831 0 -24.33
-0.657332 -0.535834 0 -25.1642
223.683 -0.676327 0 -25.0421
-0.656599 -0.549173 0 -25.338
-0.657024 -0.542645 0 -25.2386
-224.261 -0.418013 0 -24.2549
-223.004 -0.45175 0 -24.1524
221.78 -0.570263 0 -24.9481
223.038 -0.63172 0 -24.9951
-223.626 -0.438218 0 -24.1971
-0.657591 -0.521741 0 -25.0745
222.403 -0.597759 0 -24.9651
-0.657332 -0.535834 0 -25.1642
-0.657526 -0.528846 0 -25.1112
-223.004 -0.45175 0 -24.1524
-221.775 -0.464295 0 -24.089
220.552 -0.529584 0 -24.9394
221.78 -0.570263 0 -24.9481
-222.388 -0.460421 0 -24.1173
-0.657316 -0.507395 0 -25.0305
221.165 -0.547535 0 -24.9405
-0.657591 -0.521741 0 -25.0745
-0.657522 -0.514577 0 -25.0487
-221.775 -0.464295 0 -24.089
-220.556 -0.463134 0 -24.0459
219.334 -0.502746 0 -24.9499
220.552 -0.529584 0 -24.9394
-221.164 -0.464767 0 -24.0657
-0.656546 -0.493101 0 -25.0105
219.941 -0.515075 0 -24.943
-0.657316 -0.507395 0 -25.0305
-0.656989 -0.50023 0 -25.0184
-220.556 -0.463134 0 -24.0459
-219.344 -0.455738 0 -24.013
218.123 -0.482545 0 -24.9695
219.334 -0.502746 0 -24.9499
-219.95 -0.460072 0 -24.0286
-0.655355 -0.479002 0 -25.0022
218.728 -0.49195 0 -24.959
-0.656546 -0.493101 0 -25.0105
-0.655997 -0.486022 0 -25.0054
-219.344 -0.455738 0 -24.013
-218.133 -0.444952 0 -23.9851
216.915 -0.466236 0 -24.9929
218.123 -0.482545 0 -24.9695
-218.738 -0.450583 0 -23.9986
-0.653836 -0.465158 0 -24.9992
217.519 -0.474088 0 -24.9809
-0.655355 -0.479002 0 -25.0022
-0.654631 -0.472047 0 -25.0003
-218.133 -0.444952 0 -23.9851
-216.923 -0.432882 0 -23.9594
215.708 -0.451714 0 -25.0176
216.915 -0.466236 0 -24.9929
-217.528 -0.439034 0 -23.972
-0.652073 -0.451572 0 -24.9985
216.311 -0.458797 0 -25.0052
-0.653836 -0.465158 0 -24.9992
-0.65298 -0.458334 0 -24.9987
-216.923 -0.432882 0 -23.9594
-215.713 -0.420295 0 -23.9349
214.501 -0.438169 0 -25.0423
215.708 -0.451714 0 -25.0176
-216.318 -0.426611 0 -23.947
-0.650138 -0.438224 0 -24.9986
215.104 -0.444866 0 -25.03
-0.652073 -0.451572 0 -24.9985
-0.651123 -0.44487 0 -24.9985
-215.713 -0.420295 0 -23.9349
-214.503 -0.407655 0 -23.911
213.294 -0.425077 0 -25.0668
214.501 -0.438169 0 -25.0423
-215.108 -0.413974 0 -23.9229
-0.648089 -0.425082 0 -24.9989
213.897 -0.431579 0 -25.0546
-0.650138 -0.438224 0 -24.9986
-0.649125 -0.431629 0 -24.9987
-214.503 -0.407655 0 -23.911
-213.292 -0.395097 0 -23.8876
212.087 -0.412243 0 -25.0906
213.294 -0.425077 0 -25.0668
-213.897 -0.401359 0 -23.8992
-0.645969 -0.412117 0 -24.9991
212.691 -0.418638 0 -25.0788
-0.648089 -0.425082 0 -24.9989
-0.647036 -0.418579 0 -24.999
-213.292 -0.395097 0 -23.8876
-212.082 -0.382679 0 -23.8645
210.881 -0.399552 0 -25.114
212.087 -0.412243 0 -25.0906
-212.687 -0.388871 0 -23.876
-0.643806 -0.399298 0 -24.9993
211.484 -0.405882 0 -25.1024
-0.645969 -0.412117 0 -24.9991
-0.644891 -0.40569 0 -24.9992
-212.082 -0.382679 0 -23.8645
-210.871 -0.370398 0 -23.8419
209.674 -0.386965 0 -25.1368
210.881 -0.399552 0 -25.114
-211.477 -0.376522 0 -23.8532
-0.641623 -0.386604 0 -24.9994
210.277 -0.393248 0 -25.1254
-0.643806 -0.399298 0 -24.9993
-0.642716 -0.392937 0 -24.9994
-210.871 -0.370398 0 -23.8419
-209.661 -0.358242 0 -23.8197
208.467 -0.37446 0 -25.159
209.674 -0.386965 0 -25.1368
-210.266 -0.364306 0 -23.8308
-0.639433 -0.374016 0 -24.9995
209.071 -0.380703 0 -25.148
-0.641623 -0.386604 0 -24.9994
-0.640528 -0.380298 0 -24.9994
-209.661 -0.358242 0 -23.8197
-208.45 -0.346192 0 -23.7979
207.26 -0.362027 0 -25.1808
208.467 -0.37446 0 -25.159
-209.056 -0.352204 0 -23.8088
-0.637244 -0.361522 0 -24.9995
207.864 -0.368235 0 -25.17
-0.639433 -0.374016 0 -24.9995
-0.638338 -0.367758 0 -24.9995
-208.45 -0.346192 0 -23.7979
-207.24 -0.334237 0 -23.7766
206.054 -0.349664 0 -25.2022
207.26 -0.362027 0 -25.1808
-207.845 -0.340203 0 -23.7872
-0.635061 -0.349111 0 -24.9994
206.657 -0.355837 0 -25.1916
-0.637244 -0.361522 0 -24.9995
-0.636151 -0.355306 0 -24.9995
-207.24 -0.334237 0 -23.7766
-206.029 -0.322365 0 -23.7556
204.847 -0.337366 0 -25.223
206.054 -0.349664 0 -25.2022
-206.635 -0.328291 0 -23.766
-0.632887 -0.336777 0 -24.9994
205.45 -0.343507 0 -25.2127
-0.635061 -0.349111 0 -24.9994
-0.633972 -0.342935 0 -24.9994
-206.029 -0.322365 0 -23.7556
-204.819 -0.310572 0 -23.7351
203.64 -0.325134 0 -25.2435
204.847 -0.337366 0 -25.223
-205.424 -0.316459 0 -23.7453
-0.630723 -0.324517 0 -24.9994
204.243 -0.331242 0 -25.2333
-0.632887 -0.336777 0 -24.9994
-0.631803 -0.330638 0 -24.9994
-204.819 -0.310572 0 -23.7351
-203.608 -0.298851 0 -23.7151
202.433 -0.312966 0 -25.2634
203.64 -0.325134 0 -25.2435
-204.213 -0.304702 0 -23.7251
-0.628569 -0.312326 0 -24.9993
203.036 -0.319042 0 -25.2535
-0.630723 -0.324517 0 -24.9994
-0.629645 -0.318413 0 -24.9994
-203.608 -0.298851 0 -23.7151
-202.398 -0.287202 0 -23.6955
201.226 -0.300862 0 -25.283
202.433 -0.312966 0 -25.2634
-203.003 -0.293018 0 -23.7052
-0.626426 -0.300205 0 -24.9993
201.83 -0.306906 0 -25.2733
-0.628569 -0.312326 0 -24.9993
-0.627497 -0.306257 0 -24.9993
-202.398 -0.287202 0 -23.6955
-201.187 -0.275622 0 -23.6763
200.019 -0.288822 0 -25.3021
201.226 -0.300862 0 -25.283
-201.792 -0.281403 0 -23.6858
-0.624294 -0.288152 0 -24.9993
200.623 -0.294834 0 -25.2926
-0.626426 -0.300205 0 -24.9993
-0.625359 -0.29417 0 -24.9993
-201.187 -0.275622 0 -23.6763
-199.977 -0.26411 0 -23.6575
198.812 -0.276846 0 -25.3208
200.019 -0.288822 0 -25.3021
-200.582 -0.269857 0 -23.6668
-0.622171 -0.276167 0 -24.9992
199.416 -0.282826 0 -25.3115
-0.624294 -0.288152 0 -24.9993
-0.623231 -0.282151 0 -24.9992
-199.977 -0.26411 0 -23.6575
-198.766 -0.252667 0 -23.6392
197.605 -0.264933 0 -25.339
198.812 -0.276846 0 -25.3208
-199.371 -0.25838 0 -23.6483
-0.620059 -0.264249 0 -24.9992
198.209 -0.270882 0 -25.33
-0.622171 -0.276167 0 -24.9992
-0.621114 -0.270199 0 -24.9992
-198.766 -0.252667 0 -23.6392
-197.556 -0.241292 0 -23.6213
196.398 -0.253086 0 -25.3569
197.605 -0.264933 0 -25.339
-198.161 -0.246971 0 -23.6302
-0.617955 -0.252399 0 -24.9991
197.002 -0.259001 0 -25.348
-0.620059 -0.264249 0 -24.9992
-0.619006 -0.258315 0 -24.9992
-197.556 -0.241292 0 -23.6213
-196.345 -0.229985 0 -23.6038
195.191 -0.241303 0 -25.3743
196.398 -0.253086 0 -25.3569
-196.95 -0.23563 0 -23.6125
-0.615862 -0.240616 0 -24.9991
195.795 -0.247186 0 -25.3656
-0.617955 -0.252399 0 -24.9991
-0.616907 -0.246499 0 -24.9991
-196.345 -0.229985 0 -23.6038
-195.135 -0.218746 0 -23.5867
193.985 -0.229585 0 -25.3912
195.191 -0.241303 0 -25.3743
-195.74 -0.224357 0 -23.5952
-0.613777 -0.228902 0 -24.999
194.588 -0.235435 0 -25.3828
-0.615862 -0.240616 0 -24.9991
-0.614818 -0.234751 0 -24.9991
-195.135 -0.218746 0 -23.5867
-193.924 -0.207575 0 -23.5701
192.778 -0.217932 0 -25.4078
193.985 -0.229585 0 -25.3912
-194.529 -0.213152 0 -23.5783
-0.611701 -0.217256 0 -24.999
193.381 -0.22375 0 -25.3996
-0.613777 -0.228902 0 -24.999
-0.612738 -0.223071 0 -24.999
-193.924 -0.207575 0 -23.5701
-192.714 -0.196472 0 -23.5538
191.571 -0.206345 0 -25.4239
192.778 -0.217932 0 -25.4078
-193.319 -0.202015 0 -23.5619
-0.609635 -0.205679 0 -24.9989
192.174 -0.212131 0 -25.4159
-0.611701 -0.217256 0 -24.999
-0.610667 -0.211459 0 -24.999
-192.714 -0.196472 0 -23.5538
-191.503 -0.185437 0 -23.538
190.364 -0.194825 0 -25.4397
191.571 -0.206345 0 -25.4239
-192.108 -0.190946 0 -23.5458
-0.607578 -0.194169 0 -24.9989
190.967 -0.200577 0 -25.4318
-0.609635 -0.205679 0 -24.9989
-0.608605 -0.199915 0 -24.9989
-191.503 -0.185437 0 -23.538
-190.293 -0.174471 0 -23.5226
189.157 -0.18337 0 -25.455
190.364 -0.194825 0 -25.4397
-190.898 -0.179946 0 -23.5302
-0.60553 -0.182729 0 -24.9988
189.76 -0.189089 0 -25.4474
-0.607578 -0.194169 0 -24.9989
-0.606553 -0.18844 0 -24.9989
-190.293 -0.174471 0 -23.5226
-189.082 -0.163572 0 -23.5076
187.95 -0.171983 0 -25.4699
189.157 -0.18337 0 -25.455
-189.687 -0.169013 0 -23.515
-0.603491 -0.171357 0 -24.9988
188.553 -0.177668 0 -25.4625
-0.60553 -0.182729 0 -24.9988
-0.604509 -0.177034 0 -24.9988
-189.082 -0.163572 0 -23.5076
-187.872 -0.152741 0 -23.493
186.743 -0.160662 0 -25.4844
187.95 -0.171983 0 -25.4699
-188.477 -0.158148 0 -23.5002
-0.601461 -0.160054 0 -24.9987
187.346 -0.166314 0 -25.4772
-0.603491 -0.171357 0 -24.9988
-0.602475 -0.165697 0 -24.9987
-187.872 -0.152741 0 -23.493
-186.661 -0.141977 0 -23.4787
185.536 -0.149409 0 -25.4985
186.743 -0.160662 0 -25.4844
-187.267 -0.147351 0 -23.4858
-0.599441 -0.14882 0 -24.9987
186.139 -0.155027 0 -25.4915
-0.601461 -0.160054 0 -24.9987
-0.60045 -0.154428 0 -24.9987
-186.661 -0.141977 0 -23.4787
-185.451 -0.131282 0 -23.4649
184.329 -0.138222 0 -25.5122
185.536 -0.149409 0 -25.4985
-186.056 -0.136621 0 -23.4718
-0.59743 -0.137655 0 -24.9986
184.932 -0.143807 0 -25.5054
-0.599441 -0.14882 0 -24.9987
-0.598434 -0.143229 0 -24.9986
-185.451 -0.131282 0 -23.4649
-184.24 -0.120654 0 -23.4515
183.122 -0.127104 0 -25.5255
184.329 -0.138222 0 -25.5122
-184.846 -0.12596 0 -23.4582
-0.595428 -0.126559 0 -24.9986
183.725 -0.132655 0 -25.5189
-0.59743 -0.137655 0 -24.9986
-0.596428 -0.132099 0 -24.9986
-184.24 -0.120654 0 -23.4515
-183.03 -0.110094 0 -23.4385
181.915 -0.116053 0 -25.5384
183.122 -0.127104 0 -25.5255
-183.635 -0.115366 0 -23.445
-0.593436 -0.115533 0 -24.9985
182.518 -0.12157 0 -25.532
-0.595428 -0.126559 0 -24.9986
-0.594431 -0.121037 0 -24.9985
-183.03 -0.110094 0 -23.4385
-181.82 -0.0996017 0 -23.4259
180.708 -0.10507 0 -25.5509
181.915 -0.116053 0 -25.5384
-182.425 -0.10484 0 -23.4322
-0.591454 -0.104575 0 -24.9984
181.311 -0.110553 0 -25.5447
-0.593436 -0.115533 0 -24.9985
-0.592444 -0.110045 0 -24.9985
-181.82 -0.0996017 0 -23.4259
-180.609 -0.0891767 0 -23.4137
179.501 -0.0941557 0 -25.5631
180.708 -0.10507 0 -25.5509
-181.214 -0.0943808 0 -23.4197
-0.589481 -0.0936872 0 -24.9984
180.104 -0.0996044 0 -25.557
-0.591454 -0.104575 0 -24.9984
-0.590466 -0.0991225 0 -24.9984
-180.609 -0.0891767 0 -23.4137
-179.399 -0.0788191 0 -23.4018
178.294 -0.0833097 0 -25.5748
179.501 -0.0941557 0 -25.5631
-180.004 -0.0839895 0 -23.4077
-0.587518 -0.0828685 0 -24.9983
178.897 -0.0887241 0 -25.569
-0.589481 -0.0936872 0 -24.9984
-0.588498 -0.0882692 0 -24.9984
-179.399 -0.0788191 0 -23.4018
-178.188 -0.0685289 0 -23.3903
177.087 -0.0725323 0 -25.5861
178.294 -0.0833097 0 -25.5748
-178.794 -0.0736656 0 -23.396
-0.585565 -0.0721194 0 -24.9983
177.69 -0.0779124 0 -25.5805
-0.587518 -0.0828685 0 -24.9983
-0.58654 -0.0774853 0 -24.9983
-178.188 -0.0685289 0 -23.3903
-176.978 -0.0583061 0 -23.3792
175.88 -0.0618238 0 -25.5971
177.087 -0.0725323 0 -25.5861
-177.583 -0.0634091 0 -23.3847
-0.583622 -0.0614398 0 -24.9982
176.483 -0.0671694 0 -25.5917
-0.585565 -0.0721194 0 -24.9983
-0.584592 -0.0667709 0 -24.9982
-176.978 -0.0583061 0 -23.3792
-175.768 -0.0481504 0 -23.3685
174.673 -0.0511843 0 -25.6077
175.88 -0.0618238 0 -25.5971
-176.373 -0.0532198 0 -23.3738
-0.581688 -0.0508298 0 -24.9981
175.276 -0.0564954 0 -25.6025
-0.583622 -0.0614398 0 -24.9982
-0.582654 -0.0561261 0 -24.9982
-175.768 -0.0481504 0 -23.3685
-174.557 -0.038062 0 -23.3582
173.466 -0.0406141 0 -25.6179
174.673 -0.0511843 0 -25.6077
-175.163 -0.0430978 0 -23.3633
-0.579765 -0.0402895 0 -24.9981
174.069 -0.0458905 0 -25.6129
-0.581688 -0.0508298 0 -24.9981
-0.580725 -0.0455509 0 -24.9981
-174.557 -0.038062 0 -23.3582
-173.347 -0.0280408 0 -23.3482
172.258 -0.0301133 0 -25.6278
173.466 -0.0406141 0 -25.6179
-173.952 -0.033043 0 -23.3532
-0.577852 -0.0298189 0 -24.998
172.862 -0.035355 0 -25.6229
-0.579765 -0.0402895 0 -24.9981
-0.578807 -0.0350455 0 -24.9981
-173.347 -0.0280408 0 -23.3482
-172.137 -0.0180866 0 -23.3387
171.051 -0.0196821 0 -25.6372
172.258 -0.0301133 0 -25.6278
-172.742 -0.0230553 0 -23.3434
-0.575948 -0.0194182 0 -24.998
171.655 -0.024889 0 -25.6325
-0.577852 -0.0298189 0 -24.998
-0.576899 -0.0246098 0 -24.998
-172.137 -0.0180866 0 -23.3387
-170.926 -0.00819949 0 -23.3294
169.844 -0.00932074 0 -25.6463
171.051 -0.0196821 0 -25.6372
-171.532 -0.0131347 0 -23.334
-0.574056 -0.00908732 0 -24.9979
170.448 -0.0144927 0 -25.6418
-0.575948 -0.0194182 0 -24.998
-0.575001 -0.014244 0 -24.9979
-170.926 -0.0081995 0 -23.3294
-169.716 0.00162063 0 -23.3206
168.637 0.000970657 0 -25.6551
169.844 -0.00932074 0 -25.6463
-170.321 -0.00328106 0 -23.325
-0.572173 0.00117361 0 -24.9978
169.241 -0.00416628 0 -25.6507
-0.574056 -0.00908731 0 -24.9979
-0.573113 -0.0039481 0 -24.9979
-169.716 0.00162062 0 -23.3206
-168.506 0.0113738 0 -23.3121
167.43 0.0111919 0 -25.6634
168.637 0.000970658 0 -25.6551
-169.111 0.00650558 0 -23.3163
-0.570301 0.0113645 0 -24.9978
168.034 0.00609006 0 -25.6593
-0.572173 0.0011736 0 -24.9978
-0.571235 0.00627781 0 -24.9978
-168.506 0.0113738 0 -23.3121
-167.295 0.02106 0 -23.3039
166.223 0.0213428 0 -25.6714
167.43 0.0111919 0 -25.6634
-167.901 0.0162253 0 -23.308
-0.568439 0.0214853 0 -24.9977
166.827 0.0162762 0 -25.6675
-0.570301 0.0113645 0 -24.9978
-0.569368 0.0164337 0 -24.9977
-167.295 0.02106 0 -23.3039
-166.085 0.0306794 0 -23.2962
165.016 0.0314232 0 -25.6791
166.223 0.0213428 0 -25.6714
-166.69 0.0258781 0 -23.3
-0.566587 0.031536 0 -24.9976
165.62 0.0263918 0 -25.6753
-0.568439 0.0214853 0 -24.9977
-0.567512 0.0265194 0 -24.9977
-166.085 0.0306794 0 -23.2962
-164.875 0.040232 0 -23.2888
163.809 0.041433 0 -25.6864
165.016 0.0314232 0 -25.6791
-165.48 0.0354641 0 -23.2924
-0.564746 0.0415164 0 -24.9976
164.412 0.0364369 0 -25.6828
-0.566587 0.031536 0 -24.9976
-0.565666 0.036535 0 -24.9976
-164.875 0.040232 0 -23.2888
-163.665 0.0497178 0 -23.2817
162.602 0.0513719 0 -25.6933
163.809 0.041433 0 -25.6864
-164.27 0.0449832 0 -23.2852
-0.562916 0.0514266 0 -24.9975
163.205 0.0464113 0 -25.6899
-0.564746 0.0415164 0 -24.9976
-0.56383 0.0464803 0 -24.9975
-163.665 0.0497178 0 -23.2817
-162.454 0.0591368 0 -23.275
161.395 0.0612398 0 -25.6999
162.602 0.0513719 0 -25.6933
-163.06 0.0544356 0 -23.2783
-0.561097 0.0612665 0 -24.9974
161.998 0.0563147 0 -25.6967
-0.562916 0.0514266 0 -24.9975
-0.562005 0.0563554 0 -24.9975
-162.454 0.0591368 0 -23.275
-161.244 0.068489 0 -23.2686
160.188 0.0710366 0 -25.7062
161.395 0.0612398 0 -25.6999
-161.849 0.0638212 0 -23.2717
-0.559288 0.071036 0 -24.9974
160.791 0.0661471 0 -25.7031
-0.561097 0.0612665 0 -24.9974
-0.560191 0.06616 0 -24.9974
-161.244 0.068489 0 -23.2686
-160.034 0.0777746 0 -23.2626
158.98 0.0807621 0 -25.7121
160.188 0.0710366 0 -25.7062
-160.639 0.0731402 0 -23.2655
-0.55749 0.080735 0 -24.9973
159.584 0.0759083 0 -25.7092
-0.559288 0.071036 0 -24.9974
-0.558387 0.0758943 0 -24.9974
-160.034 0.0777746 0 -23.2626
-158.824 0.0869936 0 -23.2569
157.773 0.0904161 0 -25.7176
158.98 0.0807621 0 -25.7121
-159.429 0.0823924 0 -23.2597
-0.555702 0.0903635 0 -24.9973
158.377 0.085598 0 -25.7149
-0.55749 0.080735 0 -24.9973
-0.556595 0.085558 0 -24.9973
-158.824 0.0869936 0 -23.2569
-157.614 0.0961458 0 -23.2515
156.566 0.0999985 0 -25.7228
157.773 0.0904161 0 -25.7176
-158.219 0.091578 0 -23.2542
-0.553926 0.0999214 0 -24.9972
157.17 0.0952163 0 -25.7203
-0.555702 0.0903635 0 -24.9973
-0.554813 0.0951512 0 -24.9972
-157.614 0.0961458 0 -23.2515
-156.403 0.105232 0 -23.2465
155.359 0.109509 0 -25.7277
156.566 0.0999985 0 -25.7228
-157.009 0.100697 0 -23.249
-0.552161 0.109409 0 -24.9971
155.963 0.104763 0 -25.7253
-0.553926 0.0999214 0 -24.9972
-0.553042 0.104674 0 -24.9972
-156.403 0.105232 0 -23.2465
-155.193 0.114251 0 -23.2419
154.152 0.118948 0 -25.7322
155.359 0.109509 0 -25.7277
-155.798 0.109749 0 -23.2442
-0.550406 0.118825 0 -24.997
154.755 0.114238 0 -25.73
-0.552161 0.109409 0 -24.9971
-0.551282 0.114126 0 -24.9971
-155.193 0.114251 0 -23.2419
-153.983 0.123203 0 -23.2375
152.945 0.128315 0 -25.7365
154.152 0.118948 0 -25.7322
-154.588 0.118735 0 -23.2396
-0.548663 0.128171 0 -24.997
153.548 0.12364 0 -25.7344
-0.550406 0.118825 0 -24.997
-0.549533 0.123507 0 -24.997
-153.983 0.123203 0 -23.2375
-152.773 0.132089 0 -23.2335
151.738 0.137609 0 -25.7403
152.945 0.128315 0 -25.7365
-153.378 0.127654 0 -23.2355
-0.546931 0.137446 0 -24.9969
152.341 0.132971 0 -25.7384
-0.548663 0.128171 0 -24.997
-0.547796 0.132817 0 -24.9969
-152.773 0.132089 0 -23.2335
-151.563 0.140908 0 -23.2298
150.53 0.146832 0 -25.7439
151.738 0.137609 0 -25.7403
-152.168 0.136507 0 -23.2316
-0.54521 0.14665 0 -24.9968
151.134 0.142229 0 -25.7421
-0.546931 0.137446 0 -24.9969
-0.546069 0.142057 0 -24.9969
-151.563 0.140908 0 -23.2298
-150.353 0.149661 0 -23.2265
149.323 0.155981 0 -25.7471
150.53 0.146832 0 -25.7439
-150.958 0.145293 0 -23.2281
-0.543501 0.155783 0 -24.9968
149.927 0.151416 0 -25.7455
-0.54521 0.14665 0 -24.9968
-0.544354 0.151225 0 -24.9968
-150.353 0.149661 0 -23.2265
-149.143 0.158348 0 -23.2234
148.116 0.165059 0 -25.75
149.323 0.155981 0 -25.7471
-149.748 0.154013 0 -23.2249
-0.541803 0.164845 0 -24.9967
148.72 0.160529 0 -25.7486
-0.543501 0.155783 0 -24.9968
-0.54265 0.160323 0 -24.9967
-149.143 0.158348 0 -23.2234
-147.933 0.166968 0 -23.2207
146.909 0.174063 0 -25.7526
148.116 0.165059 0 -25.75
-148.538 0.162666 0 -23.222
-0.540116 0.173836 0 -24.9966
147.512 0.16957 0 -25.7513
-0.541803 0.164845 0 -24.9967
-0.540958 0.16935 0 -24.9967
-147.933 0.166968 0 -23.2207
-146.722 0.175521 0 -23.2183
145.702 0.182995 0 -25.7549
146.909 0.174063 0 -25.7526
-147.327 0.171253 0 -23.2195
-0.538441 0.182756 0 -24.9966
146.305 0.178538 0 -25.7538
-0.540116 0.173836 0 -24.9966
-0.539277 0.178305 0 -24.9966
-146.722 0.175521 0 -23.2183
-145.512 0.184008 0 -23.2162
144.494 0.191854 0 -25.7568
145.702 0.182995 0 -25.7549
-146.117 0.179773 0 -23.2172
-0.536777 0.191605 0 -24.9965
145.098 0.187433 0 -25.7559
-0.53844 0.182756 0 -24.9966
-0.537607 0.18719 0 -24.9965
-145.512 0.184008 0 -23.2162
-144.302 0.192429 0 -23.2144
143.287 0.200639 0 -25.7585
144.494 0.191854 0 -25.7568
-144.907 0.188227 0 -23.2153
-0.535124 0.200383 0 -24.9964
143.891 0.196256 0 -25.7577
-0.536777 0.191605 0 -24.9965
-0.535949 0.196003 0 -24.9965
-144.302 0.192429 0 -23.2144
-143.092 0.200783 0 -23.213
142.08 0.209352 0 -25.7598
143.287 0.200639 0 -25.7585
-143.697 0.196614 0 -23.2137
-0.533484 0.209089 0 -24.9964
142.684 0.205005 0 -25.7592
-0.535124 0.200383 0 -24.9964
-0.534303 0.204745 0 -24.9964
-143.092 0.200783 0 -23.213
-141.882 0.20907 0 -23.2118
140.873 0.217991 0 -25.7608
142.08 0.209352 0 -25.7598
-142.487 0.204935 0 -23.2123
-0.531855 0.217724 0 -24.9963
141.476 0.213681 0 -25.7604
-0.533484 0.209089 0 -24.9964
-0.532668 0.213416 0 -24.9963
-141.882 0.20907 0 -23.2118
-140.672 0.217291 0 -23.2109
139.666 0.226557 0 -25.7616
140.873 0.217991 0 -25.7608
-141.277 0.213189 0 -23.2113
-0.530237 0.226288 0 -24.9962
140.269 0.222283 0 -25.7612
-0.531855 0.217724 0 -24.9963
-0.531045 0.222015 0 -24.9963
-140.672 0.217291 0 -23.2109
-139.462 0.225446 0 -23.2104
138.458 0.235049 0 -25.762
139.666 0.226557 0 -25.7616
-140.067 0.221377 0 -23.2106
-0.528632 0.23478 0 -24.9962
139.062 0.230812 0 -25.7618
-0.530237 0.226288 0 -24.9962
-0.529433 0.230543 0 -24.9962
-139.462 0.225446 0 -23.2104
-138.252 0.233534 0 -23.2101
137.251 0.243468 0 -25.7621
138.458 0.235049 0 -25.762
-138.857 0.229498 0 -23.2102
-0.527038 0.243201 0 -24.9961
137.855 0.239268 0 -25.7621
-0.528632 0.23478 0 -24.9962
-0.527834 0.238999 0 -24.9961
-138.252 0.233534 0 -23.2101
-137.042 0.241556 0 -23.2101
136.044 0.251813 0 -25.7619
137.251 0.243468 0 -25.7621
-137.647 0.237553 0 -23.2101
-0.525457 0.25155 0 -24.996
136.648 0.24765 0 -25.7621
-0.527038 0.243201 0 -24.9961
-0.526246 0.247384 0 -24.9961
-137.042 0.241556 0 -23.2101
-135.832 0.249511 0 -23.2105
134.837 0.260085 0 -25.7615
136.044 0.251813 0 -25.7619
-136.437 0.245542 0 -23.2103
-0.523887 0.259827 0 -24.996
135.44 0.255958 0 -25.7617
-0.525457 0.25155 0 -24.996
-0.52467 0.255697 0 -24.996
-135.832 0.249511 0 -23.2105
-134.622 0.2574 0 -23.2111
133.629 0.268282 0 -25.7607
134.837 0.260085 0 -25.7615
-135.227 0.253464 0 -23.2107
-0.522329 0.268033 0 -24.9959
134.233 0.264192 0 -25.7611
-0.523887 0.259827 0 -24.996
-0.523106 0.263939 0 -24.9959
-134.622 0.2574 0 -23.2111
-133.413 0.265222 0 -23.212
132.422 0.276405 0 -25.7597
133.629 0.268282 0 -25.7607
-134.017 0.261319 0 -23.2115
-0.520783 0.276167 0 -24.9958
133.026 0.272353 0 -25.7602
-0.522329 0.268033 0 -24.9959
-0.521555 0.272109 0 -24.9958
-133.413 0.265222 0 -23.212
-132.203 0.272978 0 -23.2132
131.215 0.284454 0 -25.7583
132.422 0.276405 0 -25.7597
-132.808 0.269108 0 -23.2126
-0.51925 0.28423 0 -24.9957
131.819 0.280439 0 -25.759
-0.520783 0.276167 0 -24.9958
-0.520015 0.280207 0 -24.9958
-132.203 0.272978 0 -23.2132
-130.993 0.280667 0 -23.2147
130.008 0.292429 0 -25.7567
131.215 0.284454 0 -25.7583
-131.598 0.276831 0 -23.2139
-0.517728 0.29222 0 -24.9957
130.611 0.288451 0 -25.7576
-0.51925 0.28423 0 -24.9957
-0.518487 0.288234 0 -24.9957
-130.993 0.280667 0 -23.2147
-129.783 0.28829 0 -23.2164
128.8 0.30033 0 -25.7548
130.008 0.292429 0 -25.7567
-130.388 0.284487 0 -23.2155
-0.516219 0.300139 0 -24.9956
129.404 0.296389 0 -25.7558
-0.517728 0.29222 0 -24.9957
-0.516972 0.296189 0 -24.9956
-129.783 0.28829 0 -23.2164
-128.573 0.295846 0 -23.2184
127.593 0.308157 0 -25.7527
128.8 0.30033 0 -25.7548
-129.178 0.292077 0 -23.2174
-0.514722 0.307986 0 -24.9955
128.197 0.304253 0 -25.7538
-0.516219 0.300139 0 -24.9956
-0.515469 0.304071 0 -24.9956
-128.573 0.295846 0 -23.2184
-127.363 0.303336 0 -23.2208
126.386 0.315909 0 -25.7502
127.593 0.308157 0 -25.7527
-127.968 0.299599 0 -23.2196
-0.513237 0.315761 0 -24.9955
126.99 0.312042 0 -25.7515
-0.514722 0.307986 0 -24.9955
-0.513978 0.311882 0 -24.9955
-127.363 0.303336 0 -23.2208
-126.153 0.310759 0 -23.2233
125.179 0.323586 0 -25.7475
126.386 0.315909 0 -25.7502
-126.758 0.307056 0 -23.222
-0.511765 0.323463 0 -24.9954
125.782 0.319757 0 -25.7489
-0.513237 0.315761 0 -24.9955
-0.512499 0.319621 0 -24.9954
-126.153 0.310759 0 -23.2233
-124.944 0.318116 0 -23.2262
123.971 0.331189 0 -25.7445
125.179 0.323586 0 -25.7475
-125.548 0.314446 0 -23.2247
-0.510305 0.331094 0 -24.9953
124.575 0.327397 0 -25.7461
-0.511765 0.323463 0 -24.9954
-0.511033 0.327288 0 -24.9954
-124.944 0.318116 0 -23.2262
-123.734 0.325406 0 -23.2293
122.764 0.338717 0 -25.7413
123.971 0.331189 0 -25.7445
-124.339 0.321769 0 -23.2277
-0.508857 0.338653 0 -24.9953
123.368 0.334962 0 -25.7429
-0.510305 0.331094 0 -24.9953
-0.509579 0.334883 0 -24.9953
-123.734 0.325406 0 -23.2293
-122.524 0.332629 0 -23.2327
121.557 0.34617 0 -25.7378
122.764 0.338717 0 -25.7413
-123.129 0.329025 0 -23.231
-0.507422 0.34614 0 -24.9952
122.16 0.342453 0 -25.7396
-0.508857 0.338653 0 -24.9953
-0.508138 0.342405 0 -24.9952
-122.524 0.332629 0 -23.2327
-121.314 0.339785 0 -23.2363
120.349 0.353549 0 -25.734
121.557 0.34617 0 -25.7378
-121.919 0.336215 0 -23.2345
-0.506 0.353554 0 -24.9951
120.953 0.349869 0 -25.7359
-0.507422 0.34614 0 -24.9952
-0.506709 0.349856 0 -24.9952
-121.314 0.339785 0 -23.2363
-120.104 0.346875 0 -23.2402
119.142 0.360853 0 -25.7299
120.349 0.353549 0 -25.734
-120.709 0.343339 0 -23.2382
-0.50459 0.360896 0 -24.9951
119.746 0.35721 0 -25.732
-0.506 0.353554 0 -24.9951
-0.505293 0.357234 0 -24.9951
-120.104 0.346875 0 -23.2402
-118.895 0.353899 0 -23.2444
117.935 0.368081 0 -25.7257
119.142 0.360853 0 -25.7299
-119.5 0.350395 0 -23.2423
-0.503193 0.368166 0 -24.995
118.538 0.364476 0 -25.7278
-0.50459 0.360896 0 -24.9951
-0.50389 0.36454 0 -24.995
-118.895 0.353899 0 -23.2444
-117.685 0.360855 0 -23.2488
116.727 0.375235 0 -25.7211
117.935 0.368081 0 -25.7257
-118.29 0.357385 0 -23.2466
-0.501808 0.375363 0 -24.9949
117.331 0.371668 0 -25.7234
-0.503193 0.368166 0 -24.995
-0.502499 0.371774 0 -24.995
-117.685 0.360855 0 -23.2488
-116.475 0.367745 0 -23.2535
115.52 0.382314 0 -25.7163
116.727 0.375235 0 -25.7211
-117.08 0.364308 0 -23.2511
-0.500436 0.382488 0 -24.9949
116.124 0.378784 0 -25.7187
-0.501808 0.375363 0 -24.9949
-0.501121 0.378935 0 -24.9949
-116.475 0.367745 0 -23.2535
-115.266 0.374568 0 -23.2584
114.313 0.389317 0 -25.7113
115.52 0.382314 0 -25.7163
-115.87 0.371165 0 -23.2559
-0.499077 0.389541 0 -24.9948
114.917 0.385825 0 -25.7138
-0.500436 0.382488 0 -24.9949
-0.499755 0.386024 0 -24.9948
-115.266 0.374568 0 -23.2584
-114.056 0.381324 0 -23.2636
113.106 0.396246 0 -25.706
114.313 0.389317 0 -25.7113
-114.661 0.377954 0 -23.2609
-0.497731 0.396521 0 -24.9947
113.709 0.392791 0 -25.7086
-0.499077 0.389541 0 -24.9948
-0.498402 0.39304 0 -24.9948
-114.056 0.381324 0 -23.2636
-112.846 0.388013 0 -23.269
111.898 0.403099 0 -25.7004
113.106 0.396246 0 -25.706
-113.451 0.384677 0 -23.2662
-0.496398 0.403429 0 -24.9947
112.502 0.399682 0 -25.7032
-0.497731 0.396521 0 -24.9947
-0.497063 0.399984 0 -24.9947
-112.846 0.388013 0 -23.269
-111.637 0.394635 0 -23.2746
110.691 0.409877 0 -25.6946
111.898 0.403099 0 -25.7004
-112.241 0.391333 0 -23.2718
-0.495077 0.410264 0 -24.9946
111.294 0.406497 0 -25.6976
-0.496398 0.403429 0 -24.9947
-0.495736 0.406856 0 -24.9946
-111.637 0.394635 0 -23.2746
-110.427 0.401191 0 -23.2805
109.483 0.416579 0 -25.6886
110.691 0.409877 0 -25.6946
-111.032 0.397922 0 -23.2775
-0.49377 0.417027 0 -24.9945
110.087 0.413237 0 -25.6917
-0.495077 0.410264 0 -24.9946
-0.494422 0.413654 0 -24.9946
-110.427 0.401191 0 -23.2805
-109.217 0.407679 0 -23.2866
108.276 0.423206 0 -25.6824
109.483 0.416579 0 -25.6886
-109.822 0.404444 0 -23.2835
-0.492475 0.423717 0 -24.9945
108.88 0.419902 0 -25.6855
-0.49377 0.417027 0 -24.9945
-0.493121 0.420381 0 -24.9945
-109.217 0.407679 0 -23.2866
-108.008 0.414101 0 -23.293
107.069 0.429758 0 -25.6759
108.276 0.423206 0 -25.6824
-108.613 0.410898 0 -23.2898
-0.491194 0.430334 0 -24.9944
107.672 0.426491 0 -25.6792
-0.492475 0.423717 0 -24.9945
-0.491833 0.427034 0 -24.9944
-108.008 0.414101 0 -23.293
-106.798 0.420455 0 -23.2996
105.861 0.436234 0 -25.6692
107.069 0.429758 0 -25.6759
-107.403 0.417286 0 -23.2962
-0.489925 0.436878 0 -24.9943
106.465 0.433005 0 -25.6726
-0.491194 0.430334 0 -24.9944
-0.490558 0.433615 0 -24.9944
-106.798 0.420455 0 -23.2996
-105.589 0.426743 0 -23.3064
104.654 0.442635 0 -25.6622
105.861 0.436234 0 -25.6692
-106.193 0.423607 0 -23.303
-0.48867 0.44335 0 -24.9943
105.258 0.439444 0 -25.6657
-0.489925 0.436878 0 -24.9943
-0.489296 0.440123 0 -24.9943
-105.589 0.426743 0 -23.3064
-104.379 0.432963 0 -23.3134
103.447 0.44896 0 -25.655
104.654 0.442635 0 -25.6622
-104.984 0.429861 0 -23.3099
-0.487428 0.449749 0 -24.9942
104.05 0.445807 0 -25.6587
-0.48867 0.44335 0 -24.9943
-0.488048 0.446559 0 -24.9942
-104.379 0.432963 0 -23.3134
-103.17 0.439116 0 -23.3207
102.239 0.455209 0 -25.6477
103.447 0.44896 0 -25.655
-103.774 0.436048 0 -23.317
-0.486199 0.456075 0 -24.9941
102.843 0.452094 0 -25.6514
-0.487428 0.449749 0 -24.9942
-0.486812 0.452921 0 -24.9942
-103.17 0.439116 0 -23.3207
-101.96 0.445202 0 -23.3282
101.032 0.461383 0 -25.64
102.239 0.455209 0 -25.6477
-102.565 0.442167 0 -23.3244
-0.484984 0.462328 0 -24.9941
101.636 0.458305 0 -25.6439
-0.486199 0.456075 0 -24.9941
-0.48559 0.459211 0 -24.9941
-101.96 0.445202 0 -23.3282
-100.751 0.45122 0 -23.3359
99.8244 0.467481 0 -25.6322
101.032 0.461383 0 -25.64
-101.355 0.448219 0 -23.332
-0.483781 0.468509 0 -24.994
100.428 0.464441 0 -25.6362
-0.484984 0.462328 0 -24.9941
-0.484381 0.465428 0 -24.994
-100.751 0.45122 0 -23.3359
-99.5411 0.457171 0 -23.3438
98.617 0.473504 0 -25.6242
99.8244 0.467481 0 -25.6322
-100.146 0.454204 0 -23.3398
-0.482592 0.474616 0 -24.994
99.2207 0.470502 0 -25.6282
-0.483781 0.468509 0 -24.994
-0.483185 0.471571 0 -24.994
-99.5411 0.457171 0 -23.3438
-98.3317 0.463055 0 -23.352
97.4096 0.47945 0 -25.6159
98.617 0.473504 0 -25.6242
-98.9364 0.460122 0 -23.3479
-0.481417 0.48065 0 -24.9939
98.0133 0.476486 0 -25.6201
-0.482592 0.474616 0 -24.994
-0.482003 0.477642 0 -24.9939
-98.3317 0.463055 0 -23.352
-97.1222 0.468872 0 -23.3603
96.2022 0.485321 0 -25.6074
97.4096 0.47945 0 -25.6159
-97.7269 0.465972 0 -23.3561
-0.480255 0.486611 0 -24.9938
96.8059 0.482395 0 -25.6117
-0.481417 0.48065 0 -24.9939
-0.480834 0.48364 0 -24.9939
-97.1222 0.468872 0 -23.3603
-95.9128 0.474621 0 -23.3689
94.9947 0.491116 0 -25.5988
96.2022 0.485321 0 -25.6074
-96.5175 0.471755 0 -23.3646
-0.479106 0.4925 0 -24.9938
95.5984 0.488228 0 -25.6031
-0.480255 0.486611 0 -24.9938
-0.479679 0.489565 0 -24.9938
-95.9128 0.474621 0 -23.3689
-94.7034 0.480303 0 -23.3776
93.7873 0.496836 0 -25.5899
94.9947 0.491116 0 -25.5988
-95.3081 0.47747 0 -23.3732
-0.47797 0.498315 0 -24.9937
94.391 0.493986 0 -25.5944
-0.479106 0.4925 0 -24.9938
-0.478536 0.495416 0 -24.9937
-94.7034 0.480303 0 -23.3776
-93.494 0.485917 0 -23.3866
92.5798 0.502479 0 -25.5808
93.7873 0.496836 0 -25.5899
-94.0987 0.483118 0 -23.3821
-0.476849 0.504057 0 -24.9937
93.1836 0.499667 0 -25.5854
-0.47797 0.498315 0 -24.9937
-0.477408 0.501195 0 -24.9937
-93.494 0.485917 0 -23.3866
-92.2846 0.491463 0 -23.3957
91.3724 0.508047 0 -25.5715
92.5798 0.502479 0 -25.5808
-92.8893 0.488698 0 -23.3911
-0.47574 0.509725 0 -24.9936
91.9761 0.505273 0 -25.5762
-0.476849 0.504057 0 -24.9937
-0.476293 0.5069 0 -24.9936
-92.2846 0.491463 0 -23.3957
-91.0753 0.496942 0 -23.4051
90.1649 0.513539 0 -25.562
91.3724 0.508047 0 -25.5715
-91.6799 0.494211 0 -23.4004
-0.474646 0.515321 0 -24.9935
90.7687 0.510802 0 -25.5668
-0.47574 0.509725 0 -24.9936
-0.475191 0.512532 0 -24.9936
-91.0753 0.496942 0 -23.4051
-89.8659 0.502353 0 -23.4147
88.9575 0.518955 0 -25.5524
90.1649 0.513539 0 -25.562
-90.4706 0.499656 0 -23.4099
-0.473565 0.520843 0 -24.9935
89.5612 0.516256 0 -25.5572
-0.474646 0.515321 0 -24.9935
-0.474104 0.518091 0 -24.9935
-89.8659 0.502353 0 -23.4147
-88.6566 0.507696 0 -23.4244
87.75 0.524295 0 -25.5425
88.9575 0.518955 0 -25.5524
-89.2613 0.505033 0 -23.4195
-0.472497 0.526292 0 -24.9934
88.3537 0.521634 0 -25.5475
-0.473565 0.520843 0 -24.9935
-0.473029 0.523577 0 -24.9934
-88.6566 0.507696 0 -23.4244
-87.4473 0.512972 0 -23.4343
86.5425 0.529559 0 -25.5325
87.75 0.524295 0 -25.5425
-88.0519 0.510342 0 -23.4293
-0.471444 0.531668 0 -24.9934
87.1463 0.526936 0 -25.5375
-0.472497 0.526292 0 -24.9934
-0.471969 0.528989 0 -24.9934
-87.4473 0.512972 0 -23.4343
-86.238 0.518179 0 -23.4445
85.335 0.534747 0 -25.5222
86.5425 0.529559 0 -25.5325
-86.8426 0.515584 0 -23.4394
-0.470404 0.53697 0 -24.9933
85.9388 0.532163 0 -25.5274
-0.471444 0.531668 0 -24.9934
-0.470922 0.534328 0 -24.9933
-86.238 0.518179 0 -23.4445
-85.0287 0.523319 0 -23.4548
84.1276 0.539859 0 -25.5118
85.335 0.534747 0 -25.5222
-85.6334 0.520757 0 -23.4496
-0.469378 0.542199 0 -24.9932
84.7313 0.537313 0 -25.517
-0.470404 0.53697 0 -24.9933
-0.469889 0.539594 0 -24.9933
-85.0287 0.523319 0 -23.4548
-83.8195 0.52839 0 -23.4653
82.9201 0.544896 0 -25.5012
84.1276 0.539859 0 -25.5118
-84.4241 0.525863 0 -23.46
-0.468365 0.547355 0 -24.9932
83.5238 0.542387 0 -25.5065
-0.469378 0.542199 0 -24.9932
-0.46887 0.544786 0 -24.9932
-83.8195 0.52839 0 -23.4653
-82.6102 0.533394 0 -23.4759
81.7126 0.549856 0 -25.4904
82.9201 0.544896 0 -25.5012
-83.2148 0.530901 0 -23.4706
-0.467367 0.552437 0 -24.9931
82.3163 0.547386 0 -25.4958
-0.468365 0.547355 0 -24.9932
-0.467864 0.549905 0 -24.9932
-82.6102 0.533394 0 -23.4759
-81.401 0.53833 0 -23.4868
80.505 0.554741 0 -25.4795
81.7126 0.549856 0 -25.4904
-82.0056 0.53587 0 -23.4813
-0.466382 0.557445 0 -24.9931
81.1088 0.552308 0 -25.485
-0.467367 0.552437 0 -24.9931
-0.466873 0.55495 0 -24.9931
-81.401 0.53833 0 -23.4868
-80.1918 0.543197 0 -23.4978
79.2975 0.559549 0 -25.4683
80.505 0.554741 0 -25.4795
-80.7964 0.540772 0 -23.4923
-0.465411 0.56238 0 -24.993
79.9013 0.557154 0 -25.4739
-0.466382 0.557445 0 -24.9931
-0.465895 0.559922 0 -24.9931
-80.1918 0.543197 0 -23.4978
-78.9826 0.547996 0 -23.509
78.09 0.564282 0 -25.457
79.2975 0.559549 0 -25.4683
-79.5872 0.545605 0 -23.5034
-0.464454 0.567242 0 -24.993
78.6938 0.561925 0 -25.4627
-0.465411 0.56238 0 -24.993
-0.464931 0.56482 0 -24.993
-78.9826 0.547996 0 -23.509
-77.7734 0.552727 0 -23.5204
76.8825 0.568939 0 -25.4456
78.09 0.564282 0 -25.457
-78.378 0.55037 0 -23.5147
-0.463511 0.57203 0 -24.9929
77.4862 0.56662 0 -25.4513
-0.464454 0.567242 0 -24.993
-0.463981 0.569645 0 -24.9929
-77.7734 0.552727 0 -23.5204
-76.5643 0.557389 0 -23.5319
75.6749 0.573519 0 -25.4339
76.8825 0.568939 0 -25.4456
-77.1688 0.555067 0 -23.5261
-0.462582 0.576744 0 -24.9929
76.2787 0.571238 0 -25.4398
-0.463511 0.57203 0 -24.9929
-0.463045 0.574396 0 -24.9929
-76.5643 0.557389 0 -23.5319
-75.3551 0.561983 0 -23.5436
74.4674 0.578024 0 -25.4221
75.6749 0.573519 0 -25.4339
-75.9597 0.559695 0 -23.5377
-0.461667 0.581385 0 -24.9928
75.0711 0.575781 0 -25.4281
-0.462582 0.576744 0 -24.9929
-0.462123 0.579074 0 -24.9928
-75.3551 0.561983 0 -23.5436
-74.146 0.566509 0 -23.5554
73.2598 0.582453 0 -25.4102
74.4674 0.578024 0 -25.4221
-74.7506 0.564255 0 -23.5495
-0.460766 0.585952 0 -24.9928
73.8636 0.580248 0 -25.4162
-0.461667 0.581385 0 -24.9928
-0.461215 0.583677 0 -24.9928
-74.146 0.566509 0 -23.5554
-72.9369 0.570966 0 -23.5675
72.0522 0.586806 0 -25.3981
73.2598 0.582453 0 -25.4102
-73.5414 0.568746 0 -23.5614
-0.45988 0.590445 0 -24.9927
72.656 0.584639 0 -25.4041
-0.460766 0.585952 0 -24.9928
-0.460321 0.588208 0 -24.9927
-72.9369 0.570966 0 -23.5675
-71.7278 0.575354 0 -23.5796
70.8447 0.591083 0 -25.3858
72.0522 0.586806 0 -25.3981
-72.3323 0.573169 0 -23.5735
-0.459007 0.594865 0 -24.9927
71.4485 0.588954 0 -25.3919
-0.45988 0.590445 0 -24.9927
-0.459441 0.592664 0 -24.9927
-71.7278 0.575354 0 -23.5796
-70.5187 0.579674 0 -23.592
69.6371 0.595284 0 -25.3734
70.8447 0.591083 0 -25.3858
-71.1232 0.577523 0 -23.5858
-0.458148 0.59921 0 -24.9926
70.2409 0.593193 0 -25.3796
-0.459007 0.594865 0 -24.9927
-0.458576 0.597047 0 -24.9926
-70.5187 0.579674 0 -23.592
-69.3097 0.583925 0 -23.6044
68.4295 0.599409 0 -25.3608
69.6371 0.595284 0 -25.3734
-69.9142 0.581808 0 -23.5982
-0.457304 0.603482 0 -24.9926
69.0333 0.597356 0 -25.3671
-0.458148 0.59921 0 -24.9926
-0.457724 0.601356 0 -24.9926
-69.3097 0.583925 0 -23.6044
-68.1006 0.588107 0 -23.6171
67.2219 0.603459 0 -25.3481
68.4295 0.599409 0 -25.3608
-68.7051 0.586024 0 -23.6107
-0.456473 0.607681 0 -24.9925
67.8257 0.601444 0 -25.3545
-0.457304 0.603482 0 -24.9926
-0.456887 0.605591 0 -24.9925
-68.1006 0.588107 0 -23.6171
-66.8916 0.59222 0 -23.6298
66.0143 0.607432 0 -25.3352
67.2219 0.603459 0 -25.3481
-67.4961 0.590172 0 -23.6234
-0.455657 0.611805 0 -24.9925
66.6181 0.605455 0 -25.3417
-0.456473 0.607681 0 -24.9925
-0.456064 0.609752 0 -24.9925
-66.8916 0.59222 0 -23.6298
-65.6826 0.596264 0 -23.6427
64.8067 0.61133 0 -25.3222
66.0143 0.607432 0 -25.3352
-66.2871 0.594251 0 -23.6363
-0.454855 0.615856 0 -24.9924
65.4105 0.609391 0 -25.3287
-0.455657 0.611805 0 -24.9925
-0.455255 0.61384 0 -24.9925
-65.6826 0.596264 0 -23.6427
-64.4736 0.60024 0 -23.6558
63.5991 0.615152 0 -25.3091
64.8067 0.61133 0 -25.3222
-65.0781 0.598261 0 -23.6492
-0.454068 0.619832 0 -24.9924
64.2029 0.613251 0 -25.3157
-0.454855 0.615856 0 -24.9924
-0.45446 0.617853 0 -24.9924
-64.4736 0.60024 0 -23.6558
-63.2646 0.604146 0 -23.669
62.3914 0.618898 0 -25.2958
63.5991 0.615152 0 -25.3091
-63.8691 0.602201 0 -23.6624
-0.453295 0.623735 0 -24.9923
62.9952 0.617035 0 -25.3024
-0.454068 0.619832 0 -24.9924
-0.453679 0.621793 0 -24.9924
-63.2646 0.604146 0 -23.669
-62.0556 0.607983 0 -23.6823
61.1838 0.622569 0 -25.2824
62.3914 0.618898 0 -25.2958
-62.6601 0.606073 0 -23.6756
-0.452536 0.627564 0 -24.9923
61.7876 0.620743 0 -25.2891
-0.453295 0.623735 0 -24.9923
-0.452913 0.625659 0 -24.9923
-62.0556 0.607983 0 -23.6823
-60.8467 0.61175 0 -23.6958
59.9761 0.626163 0 -25.2688
61.1838 0.622569 0 -25.2824
-61.4512 0.609875 0 -23.689
-0.451791 0.631319 0 -24.9923
60.58 0.624376 0 -25.2756
-0.452536 0.627564 0 -24.9923
-0.452162 0.629451 0 -24.9923
-60.8467 0.61175 0 -23.6958
-59.6378 0.615449 0 -23.7094
58.7685 0.629682 0 -25.2552
59.9761 0.626163 0 -25.2688
-60.2422 0.613608 0 -23.7026
-0.451061 0.635 0 -24.9922
59.3723 0.627932 0 -25.262
-0.451791 0.631319 0 -24.9923
-0.451424 0.633169 0 -24.9922
-59.6378 0.615449 0 -23.7094
-58.4288 0.619078 0 -23.7231
57.5608 0.633126 0 -25.2413
58.7685 0.629682 0 -25.2552
-59.0333 0.617272 0 -23.7162
-0.450345 0.638607 0 -24.9922
58.1647 0.631413 0 -25.2483
-0.451061 0.635 0 -24.9922
-0.450701 0.636813 0 -24.9922
-58.4288 0.619078 0 -23.7231
-57.22 0.622638 0 -23.7369
56.3531 0.636493 0 -25.2274
57.5608 0.633126 0 -25.2413
-57.8244 0.620866 0 -23.73
-0.449643 0.64214 0 -24.9921
56.957 0.634819 0 -25.2344
-0.450345 0.638607 0 -24.9922
-0.449992 0.640383 0 -24.9922
-57.22 0.622638 0 -23.7369
-56.0111 0.626128 0 -23.7509
55.1455 0.639785 0 -25.2134
56.3531 0.636493 0 -25.2274
-56.6155 0.624391 0 -23.7439
-0.448956 0.645599 0 -24.9921
55.7493 0.638148 0 -25.2204
-0.449643 0.64214 0 -24.9921
-0.449298 0.643879 0 -24.9921
-56.0111 0.626128 0 -23.7509
-54.8022 0.629548 0 -23.765
53.9378 0.643001 0 -25.1992
55.1455 0.639785 0 -25.2134
-55.4066 0.627847 0 -23.7579
-0.448283 0.648984 0 -24.9921
54.5416 0.641403 0 -25.2063
-0.448956 0.645599 0 -24.9921
-0.448618 0.6473 0 -24.9921
-54.8022 0.629548 0 -23.765
-53.5934 0.632899 0 -23.7792
52.7301 0.646142 0 -25.1849
53.9378 0.643001 0 -25.1992
-54.1978 0.631232 0 -23.7721
-0.447625 0.652294 0 -24.992
53.3339 0.644581 0 -25.1921
-0.448283 0.648984 0 -24.9921
-0.447953 0.650648 0 -24.992
-53.5934 0.632899 0 -23.7792
-52.3845 0.63618 0 -23.7935
51.5224 0.649207 0 -25.1705
52.7301 0.646142 0 -25.1849
-52.9889 0.634548 0 -23.7863
-0.446982 0.655531 0 -24.992
52.1262 0.647684 0 -25.1777
-0.447625 0.652294 0 -24.992
-0.447302 0.653922 0 -24.992
-52.3845 0.63618 0 -23.7935
-51.1757 0.639391 0 -23.8079
50.3146 0.652197 0 -25.156
51.5224 0.649207 0 -25.1705
-51.7801 0.637794 0 -23.8007
-0.446352 0.658694 0 -24.9919
50.9185 0.650712 0 -25.1633
-0.446982 0.655531 0 -24.992
-0.446665 0.657122 0 -24.992
-51.1757 0.639391 0 -23.8079
-49.9669 0.642533 0 -23.8225
49.1069 0.655111 0 -25.1414
50.3146 0.652197 0 -25.156
-50.5713 0.640971 0 -23.8152
-0.445738 0.661782 0 -24.9919
49.7108 0.653664 0 -25.1487
-0.446353 0.658694 0 -24.9919
-0.446043 0.660247 0 -24.9919
-49.9669 0.642533 0 -23.8225
-48.7581 0.645604 0 -23.8371
47.8992 0.65795 0 -25.1267
49.1069 0.655111 0 -25.1414
-49.3625 0.644077 0 -23.8298
-0.445138 0.664796 0 -24.9919
48.503 0.65654 0 -25.1341
-0.445738 0.661782 0 -24.9919
-0.445436 0.663298 0 -24.9919
-48.7581 0.645604 0 -23.8371
-47.5494 0.648605 0 -23.8519
46.6914 0.660714 0 -25.1119
47.8992 0.65795 0 -25.1267
-48.1537 0.647113 0 -23.8445
-0.444552 0.667736 0 -24.9918
47.2953 0.659341 0 -25.1193
-0.445138 0.664796 0 -24.9919
-0.444843 0.666276 0 -24.9919
-47.5494 0.648605 0 -23.8519
-46.3406 0.651536 0 -23.8667
45.4837 0.663402 0 -25.0969
46.6914 0.660714 0 -25.1119
-46.945 0.65008 0 -23.8593
-0.443982 0.670602 0 -24.9918
46.0875 0.662067 0 -25.1044
-0.444552 0.667736 0 -24.9918
-0.444265 0.669178 0 -24.9918
-46.3406 0.651536 0 -23.8667
-45.1319 0.654397 0 -23.8817
44.2759 0.666014 0 -25.0819
45.4837 0.663402 0 -25.0969
-45.7362 0.652976 0 -23.8742
-0.443425 0.673394 0 -24.9918
44.8798 0.664717 0 -25.0895
-0.443982 0.670602 0 -24.9918
-0.443702 0.672007 0 -24.9918
-45.1319 0.654397 0 -23.8817
-43.9231 0.657188 0 -23.8967
43.0681 0.668552 0 -25.0668
44.2759 0.666014 0 -25.0819
-44.5275 0.655801 0 -23.8892
-0.442884 0.676111 0 -24.9917
43.672 0.667292 0 -25.0744
-0.443425 0.673394 0 -24.9918
-0.443153 0.674762 0 -24.9918
-43.9231 0.657188 0 -23.8967
-42.7144 0.659908 0 -23.9119
41.8603 0.671014 0 -25.0516
43.0681 0.668552 0 -25.0668
-43.3188 0.658557 0 -23.9043
-0.442357 0.678754 0 -24.9917
42.4642 0.669792 0 -25.0592
-0.442884 0.676111 0 -24.9917
-0.442619 0.677442 0 -24.9917
-42.7144 0.659908 0 -23.9119
-41.5058 0.662558 0 -23.9271
40.6525 0.6734 0 -25.0363
41.8603 0.671014 0 -25.0516
-42.1101 0.661242 0 -23.9195
-0.441845 0.681322 0 -24.9917
41.2564 0.672216 0 -25.044
-0.442357 0.678754 0 -24.9917
-0.442099 0.680047 0 -24.9917
-41.5058 0.662558 0 -23.9271
-40.2971 0.665136 0 -23.9425
39.4447 0.675711 0 -25.0209
40.6525 0.6734 0 -25.0363
-40.9014 0.663856 0 -23.9348
-0.441347 0.683816 0 -24.9916
40.0486 0.674565 0 -25.0286
-0.441845 0.681322 0 -24.9917
-0.441594 0.682578 0 -24.9917
-40.2971 0.665136 0 -23.9425
-39.0884 0.667644 0 -23.9579
38.2369 0.677947 0 -25.0055
39.4447 0.675711 0 -25.0209
-39.6927 0.666399 0 -23.9501
-0.440864 0.686235 0 -24.9916
38.8408 0.676839 0 -25.0132
-0.441347 0.683816 0 -24.9916
-0.441103 0.685035 0 -24.9916
-39.0884 0.667644 0 -23.9579
-37.8798 0.67008 0 -23.9734
37.0291 0.680107 0 -24.9899
38.2369 0.677947 0 -25.0055
-38.4841 0.668871 0 -23.9656
-0.440395 0.688579 0 -24.9916
37.633 0.679036 0 -24.9977
-0.440864 0.686235 0 -24.9916
-0.440627 0.687416 0 -24.9916
-37.8798 0.67008 0 -23.9734
-36.6711 0.672445 0 -23.9889
35.8213 0.682191 0 -24.9743
37.0291 0.680107 0 -24.9899
-37.2755 0.671271 0 -23.9811
-0.43994 0.690848 0 -24.9916
36.4252 0.681158 0 -24.9821
-0.440395 0.688579 0 -24.9916
-0.440165 0.689723 0 -24.9916
-36.6711 0.672445 0 -23.9889
-35.4625 0.674738 0 -24.0046
34.6134 0.684199 0 -24.9586
35.8213 0.682191 0 -24.9743
-36.0668 0.6736 0 -23.9968
-0.439498 0.693041 0 -24.9915
35.2173 0.683204 0 -24.9664
-0.43994 0.690848 0 -24.9916
-0.439717 0.691954 0 -24.9915
-35.4625 0.674738 0 -24.0046
-34.2539 0.676958 0 -24.0203
33.4056 0.68613 0 -24.9428
34.6134 0.684199 0 -24.9586
-34.8582 0.675857 0 -24.0124
-0.43907 0.695158 0 -24.9915
34.0095 0.685174 0 -24.9507
-0.439498 0.693041 0 -24.9915
-0.439283 0.694109 0 -24.9915
-34.2539 0.676958 0 -24.0203
-33.0453 0.679106 0 -24.0361
32.1977 0.687984 0 -24.9269
33.4056 0.68613 0 -24.9428
-33.6496 0.678041 0 -24.0282
-0.438655 0.697199 0 -24.9915
32.8016 0.687066 0 -24.9349
-0.43907 0.695158 0 -24.9915
-0.438861 0.696188 0 -24.9915
-33.0453 0.679106 0 -24.0361
-31.8368 0.681181 0 -24.052
30.9898 0.689761 0 -24.911
32.1977 0.687984 0 -24.9269
-32.441 0.680153 0 -24.0441
-0.438251 0.699163 0 -24.9915
31.5938 0.688882 0 -24.919
-0.438655 0.697199 0 -24.9915
-0.438451 0.69819 0 -24.9915
-31.8368 0.681181 0 -24.052
-30.6282 0.683185 0 -24.0679
29.782 0.691459 0 -24.895
30.9898 0.689761 0 -24.911
-31.2325 0.682192 0 -24.06
-0.437857 0.701051 0 -24.9914
30.3859 0.69062 0 -24.903
-0.438251 0.699163 0 -24.9915
-0.438053 0.700116 0 -24.9914
-30.6282 0.683185 0 -24.0679
-29.4196 0.685118 0 -24.0839
28.5741 0.69308 0 -24.879
29.782 0.691459 0 -24.895
-30.0239 0.68416 0 -24.0759
-0.437472 0.702863 0 -24.9914
29.178 0.692279 0 -24.887
-0.437857 0.701051 0 -24.9914
-0.437664 0.701966 0 -24.9914
-29.4196 0.685118 0 -24.0839
-28.2111 0.686983 0 -24.1
27.3662 0.694622 0 -24.8628
28.5741 0.69308 0 -24.879
-28.8154 0.686058 0 -24.092
-0.437095 0.704601 0 -24.9914
27.9701 0.693861 0 -24.8709
-0.437472 0.702863 0 -24.9914
-0.437283 0.703741 0 -24.9914
-28.2111 0.686983 0 -24.1
-27.0026 0.688786 0 -24.1161
26.1583 0.696088 0 -24.8466
27.3662 0.694622 0 -24.8628
-27.6068 0.687892 0 -24.108
-0.436725 0.706267 0 -24.9913
26.7623 0.695364 0 -24.8547
-0.437095 0.704601 0 -24.9914
-0.436909 0.705443 0 -24.9913
-27.0026 0.688786 0 -24.1161
-25.7941 0.690533 0 -24.1322
24.9505 0.69748 0 -24.8304
26.1583 0.696088 0 -24.8466
-26.3983 0.689666 0 -24.1242
-0.436361 0.707869 0 -24.9912
25.5544 0.696793 0 -24.8385
-0.436725 0.706267 0 -24.9913
-0.436542 0.707076 0 -24.9913
-25.7941 0.690533 0 -24.1322
-24.5856 0.692236 0 -24.1484
23.7426 0.698807 0 -24.814
24.9505 0.69748 0 -24.8304
-25.1898 0.69139 0 -24.1403
-0.436004 0.709416 0 -24.9911
24.3465 0.698151 0 -24.8222
-0.436361 0.707869 0 -24.9912
-0.436181 0.708648 0 -24.9912
-24.5856 0.692236 0 -24.1484
-23.3772 0.693903 0 -24.1646
22.5348 0.700091 0 -24.7976
23.7426 0.698807 0 -24.814
-23.9814 0.693074 0 -24.1565
-0.435659 0.710922 0 -24.991
23.1387 0.699452 0 -24.8058
-0.436004 0.709416 0 -24.9911
-0.43583 0.710173 0 -24.9911
-23.3772 0.693903 0 -24.1646
-22.1688 0.695537 0 -24.1808
21.327 0.701372 0 -24.7811
22.5348 0.700091 0 -24.7976
-22.773 0.694724 0 -24.1727
-0.435336 0.712414 0 -24.9908
21.9309 0.700728 0 -24.7893
-0.435659 0.710922 0 -24.991
-0.435494 0.711668 0 -24.9909
-22.1688 0.695537 0 -24.1808
-20.9605 0.697107 0 -24.1971
20.1192 0.702751 0 -24.7645
21.327 0.701372 0 -24.7811
-21.5646 0.696336 0 -24.189
-0.435055 0.713926 0 -24.9907
20.7231 0.702038 0 -24.7728
-0.435336 0.712414 0 -24.9908
-0.435189 0.713164 0 -24.9908
-20.9605 0.697107 0 -24.1971
-19.7522 0.698539 0 -24.2137
18.9112 0.704404 0 -24.748
20.1192 0.702751 0 -24.7645
-20.3563 0.697849 0 -24.2053
-0.434852 0.715512 0 -24.9908
19.5152 0.703527 0 -24.7562
-0.435055 0.713926 0 -24.9907
-0.434941 0.714705 0 -24.9907
-19.7522 0.698539 0 -24.2137
-18.5438 0.699552 0 -24.2308
17.703 0.706756 0 -24.7319
18.9112 0.704404 0 -24.748
-19.148 0.699129 0 -24.2221
-0.434791 0.717252 0 -24.9915
18.3071 0.70545 0 -24.7398
-0.434852 0.715512 0 -24.9908
-0.434799 0.716357 0 -24.991
-18.5438 0.699552 0 -24.2308
-17.3347 0.699709 0 -24.2495
16.4936 0.710454 0 -24.717
17.703 0.706756 0 -24.7319
-17.9394 0.699785 0 -24.2399
-0.434977 0.719257 0 -24.9939
17.0985 0.708373 0 -24.7242
-0.434791 0.717252 0 -24.9915
-0.434844 0.718212 0 -24.9924
-17.3347 0.699709 0 -24.2495
-16.1246 0.697739 0 -24.2716
15.2824 0.717066 0 -24.7052
16.4936 0.710454 0 -24.717
-16.7298 0.699112 0 -24.26
-0.435584 0.721693 0 -25.0003
15.8882 0.713251 0 -24.7106
-0.434977 0.719257 0 -24.9939
-0.435215 0.720409 0 -24.9965
-16.1246 0.697739 0 -24.2716
-14.9102 0.692063 0 -24.3008
14.0657 0.728603 0 -24.6998
15.2824 0.717066 0 -24.7052
-15.5183 0.69553 0 -24.285
-0.436892 0.724796 0 -25.0148
14.6751 0.72202 0 -24.7013
-0.435584 0.721693 0 -25.0003
-0.436125 0.723141 0 -25.0061
-14.9102 0.692063 0 -24.3008
-13.6898 0.678287 0 -24.3439
12.841 0.750051 0 -24.7074
14.0657 0.728603 0 -24.6998
-14.3006 0.686547 0 -24.3201
-0.439344 0.728903 0 -25.0456
13.4543 0.737684 0 -24.7014
-0.436892 0.724796 0 -25.0148
-0.437945 0.726702 0 -25.0277
-13.6898 0.678287 0 -24.3439
-12.4517 0.652752 0 -24.4135
11.5954 0.785927 0 -24.74
12.841 0.750051 0 -24.7074
-13.0745 0.667402 0 -24.3743
-0.44361 0.734496 0 -25.1066
12.2224 0.765707 0 -24.7195
-0.439344 0.728903 0 -25.0456
-0.441186 0.73147 0 -25.0708
-12.4517 0.652752 0 -24.4135
-11.1913 0.603688 0 -24.5288
10.3224 0.849087 0 -24.8163
11.5954 0.785927 0 -24.74
-11.8235 0.631831 0 -24.4639
-0.450672 0.742193 0 -25.2207
10.9617 0.813354 0 -24.7712
-0.44361 0.734496 0 -25.1066
-0.44674 0.738052 0 -25.1559
-11.1913 0.603688 0 -24.5288
-9.87271 0.530574 0 -24.7217
8.98394 0.941461 0 -24.967
10.3224 0.849087 0 -24.8163
-10.5442 0.570537 0 -24.6129
-0.461841 0.75277 0 -25.4215
9.66654 0.89112 0 -24.8798
-0.450672 0.742193 0 -25.2207
-0.455597 0.74704 0 -25.3062
-9.87271 0.530574 0 -24.7217
-8.49714 0.414027 0 -25.0283
7.5784 1.0835 0 -25.2278
8.98394 0.941461 0 -24.967
-9.18771 0.477172 0 -24.8586
-0.478579 0.76677 0 -25.7505
8.28538 1.00681 0 -25.0813
-0.461841 0.75277 0 -25.4215
-0.469511 0.759389 0 -25.5702
-8.49714 0.414027 0 -25.0283
-6.98204 0.305795 0 -25.4886
6.0206 1.22356 0 -25.6387
7.5784 1.0835 0 -25.2278
-7.77079 0.355929 0 -25.2363
-0.501891 0.784003 0 -26.2385
6.83248 1.15676 0 -25.4118
-0.478579 0.76677 0 -25.7505
-0.489195 0.774927 0 -25.9677
-6.98204 0.305795 0 -25.4886
-5.41472 0.226075 0 -26.0799
4.39962 1.3365 0 -26.1807
6.0206 1.22356 0 -25.6387
-6.18392 0.250499 0 -25.7737
-0.53035 0.801255 0 -26.8522
5.19665 1.29594 0 -25.8981
-0.501891 0.784003 0 -26.2385
-0.516033 0.793243 0 -26.5465
-5.41472 0.226075 0 -26.0799
-3.69805 0.506419 0 -26.6593
2.62789 1.07649 0 -26.72
4.39962 1.3365 0 -26.1807
-4.60514 0.302161 0 -26.3857
-0.556734 0.809498 0 -27.3758
3.56172 1.27354 0 -26.4654
-0.53035 0.801255 0 -26.8522
-0.543935 0.806917 0 -27.1287
-3.69805 0.506419 0 -26.6593
-2.28815 1.3411 0 -26.6894
1.19563 0.211008 0 -26.7402
2.62789 1.07649 0 -26.72
-2.87831 0.814047 0 -26.7983
-0.562223 0.788288 0 -27.2394
1.78947 0.763497 0 -26.8469
-0.556734 0.809498 0 -27.3758
-0.564868 0.805191 0 -27.4774
-2.28815 1.3411 0 -26.6894
-0.96838 3.473 0 -25.1861
-0.053729 -2.06673 0 -25.2742
1.19563 0.211008 0 -26.7402
-1.69655 2.2736 0 -26.207
-0.517834 0.707887 0 -25.4875
0.622856 -0.77537 0 -26.2737
-0.562223 0.788288 0 -27.2394
-0.546436 0.755859 0 -26.5727
-0.96838 3.473 0 -25.1861
-0.657606 5.73375 0 -20.5375
-0.10523 -4.67544 0 -20.703
-0.0537291 -2.06673 0 -25.2742
-0.514719 4.62863 0 -23.3642
-0.386424 0.532987 0 -20.9022
-0.407945 -3.36638 0 -23.4822
-0.517834 0.707887 0 -25.4875
-0.468719 0.63756 0 -23.7389
-0.657606 5.73375 0 -20.5375
-0.964253 8.66732 0 -11.6683
0.709703 -8.19148 0 -11.916
-0.10523 -4.67544 0 -20.703
-0.942223 7.05017 0 -16.6638
-0.100095 0.242572 0 -11.4519
0.400741 -6.25481 0 -16.8788
-0.386424 0.532987 0 -20.9022
-0.265529 0.393464 0 -16.8022
229.933 68.9878 0 92.3732
224.442 37.9622 0 30.5712
697.295 121.541 0 -2.2269
641.865 192.456 0 58.804
220.424 53.6397 0 58.2521
460.68 79.6523 0 17.9106
679.498 154.498 0 21.9477
426.354 127.875 0 84.3279
450.725 107.313 0 41.6908
224.442 37.9622 0 30.5712
236.614 22.6345 0 -6.47329
710.617 53.021 0 -21.2857
697.295 121.541 0 -2.2269
233.841 29.4281 0 8.79112
471.703 41.1451 0 -11.7909
703.241 84.7681 0 -14.4905
460.68 79.6523 0 17.9106
465.686 57.3437 0 1.83124
236.614 22.6345 0 -6.47329
237.458 8.79455 0 -23.2779
717.459 18.4077 0 -25.0363
710.617 53.021 0 -21.2857
236.188 14.9914 0 -16.6004
477.433 16.1095 0 -24.6234
717.116 32.2281 0 -24.6547
471.703 41.1451 0 -11.7909
476.125 27.4079 0 -20.6431
237.458 8.79455 0 -23.2779
238.157 2.31663 0 -29.2874
712.064 2.34284 0 -23.2617
717.459 18.4077 0 -25.0363
238.86 5.00167 0 -27.3001
475.993 3.7226 0 -27.5021
714.513 8.46156 0 -24.0397
477.433 16.1095 0 -24.6234
477.102 8.48615 0 -26.4249
238.157 2.31663 0 -29.2874
235.616 -1.06452 0 -29.9478
705.701 -2.35944 0 -22.0746
712.064 2.34284 0 -23.2617
236.575 0.177825 0 -29.9506
471.67 -1.53253 0 -27.1223
709.419 -0.783105 0 -22.6734
475.993 3.7226 0 -27.5021
474.09 0.495677 0 -27.646
235.616 -1.06452 0 -29.9478
233.481 -1.71462 0 -28.912
698.336 -3.51356 0 -21.3057
705.701 -2.35944 0 -22.0746
234.786 -1.53376 0 -29.5382
466.69 -2.76527 0 -26.052
701.665 -3.27394 0 -21.5581
471.67 -1.53253 0 -27.1223
469.102 -2.49879 0 -26.5113
233.481 -1.71462 0 -28.912
230.964 -1.75873 0 -27.5682
692.386 -2.94279 0 -21.1262
698.336 -3.51356 0 -21.3057
232.059 -1.81863 0 -28.2115
462.187 -2.63272 0 -25.1054
695.369 -3.29541 0 -21.2031
466.69 -2.76527 0 -26.052
464.371 -2.77692 0 -25.5825
230.964 -1.75873 0 -27.5682
229.025 -1.40793 0 -26.5082
687.018 -2.23868 0 -21.0975
692.386 -2.94279 0 -21.1262
230.019 -1.58286 0 -26.9975
458.315 -2.04854 0 -24.4586
689.534 -2.60334 0 -21.0817
462.187 -2.63272 0 -25.1054
460.163 -2.36579 0 -24.7243
229.025 -1.40793 0 -26.5082
227.234 -1.12808 0 -25.7843
682.459 -1.568 0 -21.1875
687.018 -2.23868 0 -21.0975
228.063 -1.26747 0 -26.1021
454.994 -1.51603 0 -24.0695
684.706 -1.87506 0 -21.1434
458.315 -2.04854 0 -24.4586
456.6 -1.76324 0 -24.2453
227.234 -1.12808 0 -25.7843
225.733 -0.885444 0 -25.3512
678.255 -1.12097 0 -21.287
682.459 -1.568 0 -21.1875
226.479 -0.993445 0 -25.5386
452.051 -1.10996 0 -23.8677
680.299 -1.32439 0 -21.2332
454.994 -1.51603 0 -24.0695
453.484 -1.29665 0 -23.9455
225.733 -0.885444 0 -25.3512
224.334 -0.734453 0 -25.1117
674.348 -0.821801 0 -21.3954
678.255 -1.12097 0 -21.287
225.011 -0.803261 0 -25.2115
449.347 -0.846045 0 -23.7808
676.287 -0.951829 0 -21.3432
452.051 -1.10996 0 -23.8677
450.678 -0.961742 0 -23.8154
224.334 -0.734453 0 -25.1117
223.038 -0.63172 0 -24.9951
670.568 -0.647169 0 -21.4946
674.348 -0.821801 0 -21.3954
223.683 -0.676327 0 -25.0421
446.782 -0.680911 0 -23.7629
672.442 -0.723551 0 -21.4452
449.347 -0.846045 0 -23.7808
448.052 -0.753479 0 -23.7647
223.038 -0.63172 0 -24.9951
221.78 -0.570263 0 -24.9481
666.875 -0.54275 0 -21.5888
670.568 -0.647169 0 -21.4946
222.403 -0.597759 0 -24.9651
444.293 -0.583191 0 -23.7815
668.717 -0.58733 0 -21.5428
446.782 -0.680911 0 -23.7629
445.531 -0.625346 0 -23.7694
221.78 -0.570263 0 -24.9481
220.552 -0.529584 0 -24.9394
663.217 -0.483717 0 -21.6766
666.875 -0.54275 0 -21.5888
221.165 -0.547535 0 -24.9405
441.843 -0.524749 0 -23.8192
665.042 -0.509363 0 -21.6332
444.293 -0.583191 0 -23.7815
443.064 -0.550283 0 -23.7986
220.552 -0.529584 0 -24.9394
219.334 -0.502746 0 -24.9499
659.579 -0.448048 0 -21.7604
663.217 -0.483717 0 -21.6766
219.941 -0.515075 0 -24.943
439.412 -0.489043 0 -23.8655
661.397 -0.463566 0 -21.719
441.843 -0.524749 0 -23.8192
440.626 -0.504787 0 -23.8418
219.334 -0.502746 0 -24.9499
218.123 -0.482545 0 -24.9695
655.948 -0.425547 0 -21.8408
659.579 -0.448048 0 -21.7604
218.728 -0.49195 0 -24.959
436.991 -0.465306 0 -23.9154
657.763 -0.435717 0 -21.801
439.412 -0.489043 0 -23.8655
438.201 -0.476108 0 -23.8902
218.123 -0.482545 0 -24.9695
216.915 -0.466236 0 -24.9929
652.321 -0.40926 0 -21.9187
655.948 -0.425547 0 -21.8408
217.519 -0.474088 0 -24.9809
434.573 -0.44779 0 -23.966
654.135 -0.416827 0 -21.8801
436.991 -0.465306 0 -23.9154
435.782 -0.456002 0 -23.9407
216.915 -0.466236 0 -24.9929
215.708 -0.451714 0 -25.0176
648.695 -0.396109 0 -21.9946
652.321 -0.40926 0 -21.9187
216.311 -0.458797 0 -25.0052
432.156 -0.433275 0 -24.0163
650.508 -0.402442 0 -21.9569
434.573 -0.44779 0 -23.966
433.365 -0.440278 0 -23.9912
215.708 -0.451714 0 -25.0176
214.501 -0.438169 0 -25.0423
645.069 -0.384286 0 -22.0686
648.695 -0.396109 0 -21.9946
215.104 -0.444866 0 -25.03
429.74 -0.420179 0 -24.0658
646.882 -0.390081 0 -22.0318
432.156 -0.433275 0 -24.0163
430.948 -0.426609 0 -24.0412
214.501 -0.438169 0 -25.0423
213.294 -0.425077 0 -25.0668
641.442 -0.373058 0 -22.1411
645.069 -0.384286 0 -22.0686
213.897 -0.431579 0 -25.0546
427.324 -0.407716 0 -24.1143
643.256 -0.37863 0 -22.1051
429.74 -0.420179 0 -24.0658
428.532 -0.413896 0 -24.0902
213.294 -0.425077 0 -25.0668
212.087 -0.412243 0 -25.0906
637.816 -0.362052 0 -22.212
641.442 -0.373058 0 -22.1411
212.691 -0.418638 0 -25.0788
424.908 -0.395535 0 -24.1617
639.629 -0.367537 0 -22.1768
427.324 -0.407716 0 -24.1143
426.116 -0.401602 0 -24.1381
212.087 -0.412243 0 -25.0906
210.881 -0.399552 0 -25.114
634.189 -0.351137 0 -22.2816
637.816 -0.362052 0 -22.212
211.484 -0.405882 0 -25.1024
422.492 -0.383485 0 -24.2082
636.003 -0.356588 0 -22.247
424.908 -0.395535 0 -24.1617
423.7 -0.389499 0 -24.1851
210.881 -0.399552 0 -25.114
209.674 -0.386965 0 -25.1368
630.563 -0.340263 0 -22.3497
634.189 -0.351137 0 -22.2816
210.277 -0.393248 0 -25.1254
420.075 -0.37151 0 -24.2536
632.376 -0.345696 0 -22.3158
422.492 -0.383485 0 -24.2082
421.284 -0.37749 0 -24.231
209.674 -0.386965 0 -25.1368
208.467 -0.37446 0 -25.159
626.936 -0.329419 0 -22.4164
630.563 -0.340263 0 -22.3497
209.071 -0.380703 0 -25.148
417.659 -0.35959 0 -24.2981
628.749 -0.334837 0 -22.3832
420.075 -0.37151 0 -24.2536
418.867 -0.365543 0 -24.276
208.467 -0.37446 0 -25.159
207.26 -0.362027 0 -25.1808
623.309 -0.318606 0 -22.4818
626.936 -0.329419 0 -22.4164
207.864 -0.368235 0 -25.17
415.242 -0.347721 0 -24.3417
625.122 -0.324008 0 -22.4493
417.659 -0.35959 0 -24.2981
416.451 -0.353649 0 -24.32
207.26 -0.362027 0 -25.1808
206.054 -0.349664 0 -25.2022
619.682 -0.30783 0 -22.5458
623.309 -0.318606 0 -22.4818
206.657 -0.355837 0 -25.1916
412.826 -0.335904 0 -24.3844
621.496 -0.313214 0 -22.514
415.242 -0.347721 0 -24.3417
414.034 -0.341806 0 -24.3632
206.054 -0.349664 0 -25.2022
204.847 -0.337366 0 -25.223
616.055 -0.297093 0 -22.6085
619.682 -0.30783 0 -22.5458
205.45 -0.343507 0 -25.2127
410.409 -0.32414 0 -24.4262
617.869 -0.302457 0 -22.5773
412.826 -0.335904 0 -24.3844
411.618 -0.330015 0 -24.4054
204.847 -0.337366 0 -25.223
203.64 -0.325134 0 -25.2435
612.429 -0.286399 0 -22.6699
616.055 -0.297093 0 -22.6085
204.243 -0.331242 0 -25.2333
407.993 -0.31243 0 -24.4671
614.242 -0.291741 0 -22.6394
410.409 -0.32414 0 -24.4262
409.201 -0.318278 0 -24.4467
203.64 -0.325134 0 -25.2435
202.433 -0.312966 0 -25.2634
608.802 -0.27575 0 -22.7299
612.429 -0.286399 0 -22.6699
203.036 -0.319042 0 -25.2535
405.576 -0.300776 0 -24.5071
610.615 -0.281069 0 -22.7001
407.993 -0.31243 0 -24.4671
406.785 -0.306596 0 -24.4872
202.433 -0.312966 0 -25.2634
201.226 -0.300862 0 -25.283
605.175 -0.265147 0 -22.7887
608.802 -0.27575 0 -22.7299
201.83 -0.306906 0 -25.2733
403.16 -0.289178 0 -24.5462
606.988 -0.270443 0 -22.7595
405.576 -0.300776 0 -24.5071
404.368 -0.29497 0 -24.5268
201.226 -0.300862 0 -25.283
200.019 -0.288822 0 -25.3021
601.548 -0.25459 0 -22.8461
605.175 -0.265147 0 -22.7887
200.623 -0.294834 0 -25.2926
400.743 -0.277637 0 -24.5845
603.361 -0.259862 0 -22.8176
403.16 -0.289178 0 -24.5462
401.952 -0.2834 0 -24.5655
200.019 -0.288822 0 -25.3021
198.812 -0.276846 0 -25.3208
597.921 -0.244081 0 -22.9023
601.548 -0.25459 0 -22.8461
199.416 -0.282826 0 -25.3115
398.327 -0.266152 0 -24.6219
599.735 -0.24933 0 -22.8744
400.743 -0.277637 0 -24.5845
399.535 -0.271887 0 -24.6033
198.812 -0.276846 0 -25.3208
197.605 -0.264933 0 -25.339
594.294 -0.233621 0 -22.9571
597.921 -0.244081 0 -22.9023
198.209 -0.270882 0 -25.33
395.91 -0.254726 0 -24.6584
596.108 -0.238845 0 -22.9299
398.327 -0.266152 0 -24.6219
397.118 -0.260432 0 -24.6403
197.605 -0.264933 0 -25.339
196.398 -0.253086 0 -25.3569
590.667 -0.22321 0 -23.0107
594.294 -0.233621 0 -22.9571
197.002 -0.259001 0 -25.348
393.494 -0.243358 0 -24.6941
592.481 -0.228409 0 -22.9841
395.91 -0.254726 0 -24.6584
394.702 -0.249035 0 -24.6764
196.398 -0.253086 0 -25.3569
195.191 -0.241303 0 -25.3743
587.041 -0.212849 0 -23.063
590.667 -0.22321 0 -23.0107
195.795 -0.247186 0 -25.3656
391.077 -0.232048 0 -24.729
588.854 -0.218023 0 -23.037
393.494 -0.243358 0 -24.6941
392.285 -0.237696 0 -24.7117
195.191 -0.241303 0 -25.3743
193.985 -0.229585 0 -25.3912
583.414 -0.202538 0 -23.1141
587.041 -0.212849 0 -23.063
194.588 -0.235435 0 -25.3828
388.66 -0.220798 0 -24.763
585.227 -0.207687 0 -23.0887
391.077 -0.232048 0 -24.729
389.869 -0.226416 0 -24.7461
193.985 -0.229585 0 -25.3912
192.778 -0.217932 0 -25.4078
579.787 -0.192279 0 -23.1639
583.414 -0.202538 0 -23.1141
193.381 -0.22375 0 -25.3996
386.244 -0.209608 0 -24.7962
581.6 -0.197402 0 -23.1391
388.66 -0.220798 0 -24.763
387.452 -0.215196 0 -24.7797
192.778 -0.217932 0 -25.4078
191.571 -0.206345 0 -25.4239
576.16 -0.182072 0 -23.2124
579.787 -0.192279 0 -23.1639
192.174 -0.212131 0 -25.4159
383.827 -0.198478 0 -24.8285
577.974 -0.187169 0 -23.1883
386.244 -0.209608 0 -24.7962
385.036 -0.204036 0 -24.8125
191.571 -0.206345 0 -25.4239
190.364 -0.194825 0 -25.4397
572.533 -0.171917 0 -23.2598
576.16 -0.182072 0 -23.2124
190.967 -0.200577 0 -25.4318
381.411 -0.187409 0 -24.86
574.347 -0.176988 0 -23.2363
383.827 -0.198478 0 -24.8285
382.619 -0.192936 0 -24.8444
190.364 -0.194825 0 -25.4397
189.157 -0.18337 0 -25.455
568.907 -0.161815 0 -23.3058
572.533 -0.171917 0 -23.2598
189.76 -0.189089 0 -25.4474
378.994 -0.176401 0 -24.8907
570.72 -0.166859 0 -23.283
381.411 -0.187409 0 -24.86
380.202 -0.181897 0 -24.8755
189.157 -0.18337 0 -25.455
187.95 -0.171983 0 -25.4699
565.28 -0.151767 0 -23.3507
568.907 -0.161815 0 -23.3058
188.553 -0.177668 0 -25.4625
376.578 -0.165455 0 -24.9206
567.093 -0.156784 0 -23.3284
378.994 -0.176401 0 -24.8907
377.786 -0.17092 0 -24.9058
187.95 -0.171983 0 -25.4699
186.743 -0.160662 0 -25.4844
561.653 -0.141773 0 -23.3943
565.28 -0.151767 0 -23.3507
187.346 -0.166314 0 -25.4772
374.161 -0.15457 0 -24.9497
563.466 -0.146763 0 -23.3727
376.578 -0.165455 0 -24.9206
375.369 -0.160005 0 -24.9353
186.743 -0.160662 0 -25.4844
185.536 -0.149409 0 -25.4985
558.026 -0.131834 0 -23.4368
561.653 -0.141773 0 -23.3943
186.139 -0.155027 0 -25.4915
371.744 -0.143748 0 -24.978
559.84 -0.136797 0 -23.4157
374.161 -0.15457 0 -24.9497
372.953 -0.149151 0 -24.9639
185.536 -0.149409 0 -25.4985
184.329 -0.138222 0 -25.5122
554.399 -0.12195 0 -23.478
558.026 -0.131834 0 -23.4368
184.932 -0.143807 0 -25.5054
369.328 -0.132989 0 -25.0054
556.213 -0.126885 0 -23.4575
371.744 -0.143748 0 -24.978
370.536 -0.138361 0 -24.9918
184.329 -0.138222 0 -25.5122
183.122 -0.127104 0 -25.5255
550.773 -0.112122 0 -23.5181
554.399 -0.12195 0 -23.478
183.725 -0.132655 0 -25.5189
366.911 -0.122293 0 -25.0321
552.586 -0.117029 0 -23.4982
369.328 -0.132989 0 -25.0054
368.119 -0.127633 0 -25.0189
183.122 -0.127104 0 -25.5255
181.915 -0.116053 0 -25.5384
547.146 -0.102351 0 -23.5569
550.773 -0.112122 0 -23.5181
182.518 -0.12157 0 -25.532
364.495 -0.111661 0 -25.058
548.959 -0.107229 0 -23.5376
366.911 -0.122293 0 -25.0321
365.703 -0.116969 0 -25.0451
181.915 -0.116053 0 -25.5384
180.708 -0.10507 0 -25.5509
543.519 -0.092636 0 -23.5946
547.146 -0.102351 0 -23.5569
181.311 -0.110553 0 -25.5447
362.078 -0.101092 0 -25.0831
545.333 -0.0974862 0 -23.5759
364.495 -0.111661 0 -25.058
363.286 -0.106368 0 -25.0706
180.708 -0.10507 0 -25.5509
179.501 -0.0941557 0 -25.5631
539.893 -0.0829785 0 -23.6311
543.519 -0.092636 0 -23.5946
180.104 -0.0996044 0 -25.557
359.661 -0.0905878 0 -25.1074
541.706 -0.0878 0 -23.613
362.078 -0.101092 0 -25.0831
360.87 -0.0958319 0 -25.0953
179.501 -0.0941557 0 -25.5631
178.294 -0.0833097 0 -25.5748
536.266 -0.0733789 0 -23.6665
539.893 -0.0829785 0 -23.6311
178.897 -0.0887241 0 -25.569
357.245 -0.0801481 0 -25.1309
538.079 -0.0781714 0 -23.6489
359.661 -0.0905878 0 -25.1074
358.453 -0.0853598 0 -25.1193
178.294 -0.0833097 0 -25.5748
177.087 -0.0725323 0 -25.5861
532.639 -0.0638374 0 -23.7007
536.266 -0.0733789 0 -23.6665
177.69 -0.0779124 0 -25.5805
354.828 -0.0697733 0 -25.1537
534.452 -0.0686009 0 -23.6837
357.245 -0.0801481 0 -25.1309
356.037 -0.0749525 0 -25.1424
177.087 -0.0725323 0 -25.5861
175.88 -0.0618238 0 -25.5971
529.012 -0.0543547 0 -23.7337
532.639 -0.0638374 0 -23.7007
176.483 -0.0671694 0 -25.5917
352.412 -0.0594637 0 -25.1757
530.826 -0.0590887 0 -23.7173
354.828 -0.0697733 0 -25.1537
353.62 -0.0646103 0 -25.1648
175.88 -0.0618238 0 -25.5971
174.673 -0.0511843 0 -25.6077
525.386 -0.0449311 0 -23.7656
529.012 -0.0543547 0 -23.7337
175.276 -0.0564954 0 -25.6025
349.995 -0.0492197 0 -25.197
527.199 -0.0496355 0 -23.7498
352.412 -0.0594637 0 -25.1757
351.203 -0.0543335 0 -25.1864
174.673 -0.0511843 0 -25.6077
173.466 -0.0406141 0 -25.6179
521.759 -0.0355672 0 -23.7964
525.386 -0.0449311 0 -23.7656
174.069 -0.0458905 0 -25.6129
347.578 -0.0390416 0 -25.2175
523.572 -0.0402417 0 -23.7812
349.995 -0.0492197 0 -25.197
348.787 -0.0441224 0 -25.2073
173.466 -0.0406141 0 -25.6179
172.258 -0.0301133 0 -25.6278
518.132 -0.0262632 0 -23.8261
521.759 -0.0355672 0 -23.7964
172.862 -0.035355 0 -25.6229
345.162 -0.0289296 0 -25.2372
519.946 -0.0309077 0 -23.8114
347.578 -0.0390416 0 -25.2175
346.37 -0.0339773 0 -25.2274
172.258 -0.0301133 0 -25.6278
171.051 -0.0196821 0 -25.6372
514.506 -0.0170198 0 -23.8546
518.132 -0.0262632 0 -23.8261
171.655 -0.024889 0 -25.6325
342.745 -0.0188842 0 -25.2562
516.319 -0.0216339 0 -23.8405
345.162 -0.0289296 0 -25.2372
343.954 -0.0238986 0 -25.2468
171.051 -0.0196821 0 -25.6372
169.844 -0.00932074 0 -25.6463
510.879 -0.00783714 0 -23.8821
514.506 -0.0170198 0 -23.8546
170.448 -0.0144927 0 -25.6418
340.329 -0.00890558 0 -25.2745
512.693 -0.0124208 0 -23.8685
342.745 -0.0188842 0 -25.2562
341.537 -0.0138865 0 -25.2654
169.844 -0.00932074 0 -25.6463
168.637 0.000970657 0 -25.6551
507.253 0.00128421 0 -23.9084
510.879 -0.00783714 0 -23.8821
169.241 -0.00416628 0 -25.6507
337.912 0.00100597 0 -25.292
509.066 -0.00326878 0 -23.8954
340.329 -0.00890559 0 -25.2745
339.12 -0.00394141 0 -25.2833
168.637 0.000970658 0 -25.6551
167.43 0.0111919 0 -25.6634
503.626 0.0103439 0 -23.9337
507.253 0.00128421 0 -23.9084
168.034 0.00609006 0 -25.6593
335.496 0.0108501 0 -25.3088
505.439 0.00582179 0 -23.9212
337.912 0.00100596 0 -25.292
336.704 0.00593649 0 -25.3005
167.43 0.0111919 0 -25.6634
166.223 0.0213428 0 -25.6714
499.999 0.0193415 0 -23.9579
503.626 0.0103439 0 -23.9337
166.827 0.0162762 0 -25.6675
333.079 0.0206267 0 -25.3249
501.813 0.0148505 0 -23.9459
335.496 0.0108501 0 -25.3088
334.287 0.0157469 0 -25.317
166.223 0.0213428 0 -25.6714
165.016 0.0314232 0 -25.6791
496.373 0.0282767 0 -23.981
499.999 0.0193415 0 -23.9579
165.62 0.0263918 0 -25.6753
330.662 0.0303353 0 -25.3403
498.186 0.0238169 0 -23.9695
333.079 0.0206267 0 -25.3249
331.871 0.0254895 0 -25.3327
165.016 0.0314232 0 -25.6791
163.809 0.041433 0 -25.6864
492.746 0.0371491 0 -24.003
496.373 0.0282767 0 -23.981
164.412 0.0364369 0 -25.6828
328.246 0.0399756 0 -25.3549
494.56 0.0327208 0 -23.9921
330.662 0.0303353 0 -25.3403
329.454 0.035164 0 -25.3477
163.809 0.041433 0 -25.6864
162.602 0.0513719 0 -25.6933
489.12 0.0459583 0 -24.024
492.746 0.0371491 0 -24.003
163.205 0.0464113 0 -25.6899
325.829 0.0495476 0 -25.3689
490.933 0.0415616 0 -24.0136
328.246 0.0399756 0 -25.3549
327.038 0.0447702 0 -25.362
162.602 0.0513719 0 -25.6933
161.395 0.0612398 0 -25.6999
485.493 0.0547039 0 -24.0439
489.12 0.0459583 0 -24.024
161.998 0.0563147 0 -25.6967
323.413 0.0590508 0 -25.3821
487.307 0.0503391 0 -24.034
325.829 0.0495476 0 -25.3689
324.621 0.0543078 0 -25.3756
161.395 0.0612398 0 -25.6999
160.188 0.0710366 0 -25.7062
481.867 0.0633857 0 -24.0627
485.493 0.0547039 0 -24.0439
160.791 0.0661471 0 -25.7031
320.996 0.068485 0 -25.3947
483.68 0.0590528 0 -24.0534
323.413 0.0590508 0 -25.3821
322.204 0.0637765 0 -25.3885
160.188 0.0710366 0 -25.7062
158.98 0.0807621 0 -25.7121
478.24 0.0720032 0 -24.0806
481.867 0.0633857 0 -24.0627
159.584 0.0759083 0 -25.7092
318.58 0.07785 0 -25.4066
480.054 0.0677025 0 -24.0718
320.996 0.068485 0 -25.3947
319.788 0.0731762 0 -25.4007
158.98 0.0807621 0 -25.7121
157.773 0.0904161 0 -25.7176
474.614 0.0805562 0 -24.0974
478.24 0.0720032 0 -24.0806
158.377 0.085598 0 -25.7149
316.163 0.0871455 0 -25.4177
476.427 0.0762878 0 -24.0891
318.58 0.07785 0 -25.4066
317.371 0.0825065 0 -25.4122
157.773 0.0904161 0 -25.7176
156.566 0.0999985 0 -25.7228
470.987 0.0890443 0 -24.1132
474.614 0.0805562 0 -24.0974
157.17 0.0952163 0 -25.7203
313.747 0.0963713 0 -25.4282
472.801 0.0848084 0 -24.1054
316.163 0.0871455 0 -25.4177
314.955 0.0917672 0 -25.4231
156.566 0.0999985 0 -25.7228
155.359 0.109509 0 -25.7277
467.361 0.0974672 0 -24.128
470.987 0.0890443 0 -24.1132
155.963 0.104763 0 -25.7253
311.33 0.105527 0 -25.4381
469.174 0.093264 0 -24.1207
313.747 0.0963713 0 -25.4282
312.538 0.100958 0 -25.4332
155.359 0.109509 0 -25.7277
154.152 0.118948 0 -25.7322
463.735 0.105825 0 -24.1417
467.361 0.0974672 0 -24.128
154.755 0.114238 0 -25.73
308.913 0.114613 0 -25.4472
465.548 0.101654 0 -24.135
311.33 0.105527 0 -25.4381
310.122 0.110079 0 -25.4427
154.152 0.118948 0 -25.7322
152.945 0.128315 0 -25.7365
460.108 0.114116 0 -24.1545
463.735 0.105825 0 -24.1417
153.548 0.12364 0 -25.7344
306.497 0.123628 0 -25.4557
461.921 0.109979 0 -24.1482
308.913 0.114613 0 -25.4472
307.705 0.119129 0 -25.4515
152.945 0.128315 0 -25.7365
151.738 0.137609 0 -25.7403
456.482 0.122342 0 -24.1663
460.108 0.114116 0 -24.1545
152.341 0.132971 0 -25.7384
304.08 0.132573 0 -25.4635
458.295 0.118237 0 -24.1605
306.497 0.123628 0 -25.4557
305.289 0.128109 0 -25.4597
151.738 0.137609 0 -25.7403
150.53 0.146832 0 -25.7439
452.855 0.130501 0 -24.1771
456.482 0.122342 0 -24.1663
151.134 0.142229 0 -25.7421
301.664 0.141447 0 -25.4707
454.669 0.12643 0 -24.1718
304.08 0.132573 0 -25.4635
302.872 0.137019 0 -25.4672
150.53 0.146832 0 -25.7439
149.323 0.155981 0 -25.7471
449.229 0.138593 0 -24.1869
452.855 0.130501 0 -24.1771
149.927 0.151416 0 -25.7455
299.247 0.15025 0 -25.4772
451.042 0.134555 0 -24.1821
301.664 0.141447 0 -25.4707
300.456 0.145857 0 -25.4741
149.323 0.155981 0 -25.7471
148.116 0.165059 0 -25.75
445.603 0.146619 0 -24.1958
449.229 0.138593 0 -24.1869
148.72 0.160529 0 -25.7486
296.831 0.158982 0 -25.4831
447.416 0.142614 0 -24.1915
299.247 0.15025 0 -25.4772
298.039 0.154625 0 -25.4803
148.116 0.165059 0 -25.75
146.909 0.174063 0 -25.7526
441.976 0.154577 0 -24.2037
445.603 0.146619 0 -24.1958
147.512 0.16957 0 -25.7513
294.414 0.167642 0 -25.4884
443.79 0.150606 0 -24.1999
296.831 0.158982 0 -25.4831
295.623 0.163321 0 -25.4858
146.909 0.174063 0 -25.7526
145.702 0.182995 0 -25.7549
438.35 0.162468 0 -24.2107
441.976 0.154577 0 -24.2037
146.305 0.178538 0 -25.7538
291.998 0.17623 0 -25.493
440.163 0.158531 0 -24.2073
294.414 0.167642 0 -25.4884
293.206 0.171945 0 -25.4907
145.702 0.182995 0 -25.7549
144.494 0.191854 0 -25.7568
434.724 0.170291 0 -24.2167
438.35 0.162468 0 -24.2107
145.098 0.187433 0 -25.7559
289.581 0.184747 0 -25.497
436.537 0.166388 0 -24.2138
291.998 0.17623 0 -25.493
290.79 0.180498 0 -25.495
144.494 0.191854 0 -25.7568
143.287 0.200639 0 -25.7585
431.098 0.178046 0 -24.2218
434.724 0.170291 0 -24.2167
143.891 0.196256 0 -25.7577
287.165 0.193192 0 -25.5003
432.911 0.174177 0 -24.2193
289.581 0.184747 0 -25.497
288.373 0.188979 0 -25.4987
143.287 0.200639 0 -25.7585
142.08 0.209352 0 -25.7598
427.471 0.185732 0 -24.2259
431.098 0.178046 0 -24.2218
142.684 0.205005 0 -25.7592
284.748 0.201565 0 -25.5031
429.284 0.181898 0 -24.224
287.165 0.193192 0 -25.5003
285.957 0.197388 0 -25.5018
142.08 0.209352 0 -25.7598
140.873 0.217991 0 -25.7608
423.845 0.193351 0 -24.2292
427.471 0.185732 0 -24.2259
141.476 0.213681 0 -25.7604
282.332 0.209865 0 -25.5052
425.658 0.18955 0 -24.2277
284.748 0.201565 0 -25.5031
283.54 0.205724 0 -25.5042
140.873 0.217991 0 -25.7608
139.666 0.226557 0 -25.7616
420.219 0.200901 0 -24.2315
423.845 0.193351 0 -24.2292
140.269 0.222283 0 -25.7612
279.915 0.218093 0 -25.5067
422.032 0.197134 0 -24.2304
282.332 0.209865 0 -25.5052
281.124 0.213988 0 -25.506
139.666 0.226557 0 -25.7616
138.458 0.235049 0 -25.762
416.593 0.208382 0 -24.2329
420.219 0.200901 0 -24.2315
139.062 0.230812 0 -25.7618
277.499 0.226249 0 -25.5076
418.406 0.20465 0 -24.2323
279.915 0.218093 0 -25.5067
278.707 0.22218 0 -25.5072
138.458 0.235049 0 -25.762
137.251 0.243468 0 -25.7621
412.967 0.215793 0 -24.2334
416.593 0.208382 0 -24.2329
137.855 0.239268 0 -25.7621
275.082 0.234331 0 -25.508
414.78 0.212096 0 -24.2333
277.499 0.226249 0 -25.5076
276.291 0.230299 0 -25.5079
137.251 0.243468 0 -25.7621
136.044 0.251813 0 -25.7619
409.34 0.223136 0 -24.2331
412.967 0.215793 0 -24.2334
136.648 0.24765 0 -25.7621
272.666 0.242341 0 -25.5077
411.153 0.219473 0 -24.2334
275.082 0.234331 0 -25.508
273.874 0.238345 0 -25.5079
136.044 0.251813 0 -25.7619
134.837 0.260085 0 -25.7615
405.714 0.230409 0 -24.2318
409.34 0.223136 0 -24.2331
135.44 0.255958 0 -25.7617
270.249 0.250277 0 -25.5068
407.527 0.226781 0 -24.2326
272.666 0.242341 0 -25.5077
271.458 0.246318 0 -25.5073
134.837 0.260085 0 -25.7615
133.629 0.268282 0 -25.7607
402.088 0.237613 0 -24.2297
405.714 0.230409 0 -24.2318
134.233 0.264192 0 -25.7611
267.833 0.25814 0 -25.5054
403.901 0.23402 0 -24.2309
270.249 0.250277 0 -25.5068
269.041 0.254218 0 -25.5062
133.629 0.268282 0 -25.7607
132.422 0.276405 0 -25.7597
398.462 0.244746 0 -24.2267
402.088 0.237613 0 -24.2297
133.026 0.272353 0 -25.7602
265.416 0.26593 0 -25.5034
400.275 0.241188 0 -24.2283
267.833 0.25814 0 -25.5054
266.625 0.262044 0 -25.5045
132.422 0.276405 0 -25.7597
131.215 0.284454 0 -25.7583
394.836 0.25181 0 -24.2229
398.462 0.244746 0 -24.2267
131.819 0.280439 0 -25.759
263 0.273646 0 -25.5008
396.649 0.248287 0 -24.2249
265.416 0.26593 0 -25.5034
264.208 0.269797 0 -25.5022
131.215 0.284454 0 -25.7583
130.008 0.292429 0 -25.7567
391.21 0.258803 0 -24.2182
394.836 0.25181 0 -24.2229
130.611 0.288451 0 -25.7576
260.584 0.281289 0 -25.4976
393.023 0.255315 0 -24.2207
263 0.273646 0 -25.5008
261.792 0.277477 0 -25.4993
130.008 0.292429 0 -25.7567
128.8 0.30033 0 -25.7548
387.584 0.265726 0 -24.2127
391.21 0.258803 0 -24.2182
129.404 0.296389 0 -25.7558
258.167 0.288858 0 -25.4939
389.397 0.262273 0 -24.2156
260.584 0.281289 0 -25.4976
259.375 0.285083 0 -25.4959
128.8 0.30033 0 -25.7548
127.593 0.308157 0 -25.7527
383.958 0.272579 0 -24.2063
387.584 0.265726 0 -24.2127
128.197 0.304253 0 -25.7538
255.751 0.296353 0 -25.4897
385.771 0.269161 0 -24.2096
258.167 0.288858 0 -25.4939
256.959 0.292615 0 -25.4919
127.593 0.308157 0 -25.7527
126.386 0.315909 0 -25.7502
380.332 0.279361 0 -24.1992
383.958 0.272579 0 -24.2063
126.99 0.312042 0 -25.7515
253.334 0.303774 0 -25.4849
382.145 0.275978 0 -24.2029
255.751 0.296353 0 -25.4897
254.542 0.300072 0 -25.4873
126.386 0.315909 0 -25.7502
125.179 0.323586 0 -25.7475
376.706 0.286072 0 -24.1912
380.332 0.279361 0 -24.1992
125.782 0.319757 0 -25.7489
250.918 0.311121 0 -25.4795
378.519 0.282725 0 -24.1953
253.334 0.303774 0 -25.4849
252.126 0.307456 0 -25.4822
125.179 0.323586 0 -25.7475
123.971 0.331189 0 -25.7445
373.08 0.292712 0 -24.1824
376.706 0.286072 0 -24.1912
124.575 0.327397 0 -25.7461
248.501 0.318393 0 -25.4736
374.893 0.289401 0 -24.1869
250.918 0.311121 0 -25.4795
249.71 0.314766 0 -25.4766
123.971 0.331189 0 -25.7445
122.764 0.338717 0 -25.7413
369.454 0.299281 0 -24.1727
373.08 0.292712 0 -24.1824
123.368 0.334962 0 -25.7429
246.085 0.325592 0 -25.4672
371.267 0.296005 0 -24.1777
248.501 0.318393 0 -25.4736
247.293 0.322002 0 -25.4705
122.764 0.338717 0 -25.7413
121.557 0.34617 0 -25.7378
365.828 0.305779 0 -24.1623
369.454 0.299281 0 -24.1727
122.16 0.342453 0 -25.7396
243.669 0.332715 0 -25.4602
367.641 0.302539 0 -24.1676
246.085 0.325592 0 -25.4672
244.877 0.329163 0 -25.4638
121.557 0.34617 0 -25.7378
120.349 0.353549 0 -25.734
362.202 0.312206 0 -24.1512
365.828 0.305779 0 -24.1623
120.953 0.349869 0 -25.7359
241.252 0.339765 0 -25.4527
364.015 0.309001 0 -24.1568
243.669 0.332715 0 -25.4602
242.46 0.336249 0 -25.4565
120.349 0.353549 0 -25.734
119.142 0.360853 0 -25.7299
358.576 0.318561 0 -24.1392
362.202 0.312206 0 -24.1512
119.746 0.35721 0 -25.732
238.836 0.34674 0 -25.4447
360.389 0.315392 0 -24.1453
241.252 0.339765 0 -25.4527
240.044 0.343261 0 -25.4488
119.142 0.360853 0 -25.7299
117.935 0.368081 0 -25.7257
354.95 0.324845 0 -24.1265
358.576 0.318561 0 -24.1392
118.538 0.364476 0 -25.7278
236.419 0.35364 0 -25.4362
356.763 0.321712 0 -24.1329
238.836 0.34674 0 -25.4447
237.628 0.350199 0 -25.4405
117.935 0.368081 0 -25.7257
116.727 0.375235 0 -25.7211
351.325 0.331057 0 -24.113
354.95 0.324845 0 -24.1265
117.331 0.371668 0 -25.7234
234.003 0.360465 0 -25.4272
353.138 0.32796 0 -24.1198
236.419 0.35364 0 -25.4362
235.211 0.357062 0 -25.4317
116.727 0.375235 0 -25.7211
115.52 0.382314 0 -25.7163
347.699 0.337197 0 -24.0987
351.325 0.331057 0 -24.113
116.124 0.378784 0 -25.7187
231.587 0.367215 0 -25.4176
349.512 0.334136 0 -24.1059
234.003 0.360465 0 -25.4272
232.795 0.363849 0 -25.4225
115.52 0.382314 0 -25.7163
114.313 0.389317 0 -25.7113
344.073 0.343266 0 -24.0837
347.699 0.337197 0 -24.0987
114.917 0.385825 0 -25.7138
229.17 0.373891 0 -25.4076
345.886 0.340241 0 -24.0913
231.587 0.367215 0 -25.4176
230.378 0.370562 0 -25.4127
114.313 0.389317 0 -25.7113
113.106 0.396246 0 -25.706
340.447 0.349263 0 -24.068
344.073 0.343266 0 -24.0837
113.709 0.392791 0 -25.7086
226.754 0.380491 0 -25.3971
342.26 0.346273 0 -24.0759
229.17 0.373891 0 -25.4076
227.962 0.377201 0 -25.4024
113.106 0.396246 0 -25.706
111.898 0.403099 0 -25.7004
336.821 0.355188 0 -24.0515
340.447 0.349263 0 -24.068
112.502 0.399682 0 -25.7032
224.337 0.387017 0 -25.3861
338.634 0.352234 0 -24.0598
226.754 0.380491 0 -25.3971
225.546 0.383764 0 -25.3916
111.898 0.403099 0 -25.7004
110.691 0.409877 0 -25.6946
333.196 0.36104 0 -24.0343
336.821 0.355188 0 -24.0515
111.294 0.406497 0 -25.6976
221.921 0.393467 0 -25.3746
335.009 0.358123 0 -24.043
224.337 0.387017 0 -25.3861
223.129 0.390251 0 -25.3804
110.691 0.409877 0 -25.6946
109.483 0.416579 0 -25.6886
329.57 0.366821 0 -24.0164
333.196 0.36104 0 -24.0343
110.087 0.413237 0 -25.6917
219.505 0.399842 0 -25.3626
331.383 0.36394 0 -24.0254
221.921 0.393467 0 -25.3746
220.713 0.396664 0 -25.3687
109.483 0.416579 0 -25.6886
108.276 0.423206 0 -25.6824
325.944 0.37253 0 -23.9977
329.57 0.366821 0 -24.0164
108.88 0.419902 0 -25.6855
217.088 0.406142 0 -25.3502
327.757 0.369684 0 -24.0071
219.505 0.399842 0 -25.3626
218.297 0.403002 0 -25.3565
108.276 0.423206 0 -25.6824
107.069 0.429758 0 -25.6759
322.319 0.378166 0 -23.9784
325.944 0.37253 0 -23.9977
107.672 0.426491 0 -25.6792
214.672 0.412367 0 -25.3373
324.131 0.375357 0 -23.9882
217.088 0.406142 0 -25.3502
215.88 0.409264 0 -25.3438
107.069 0.429758 0 -25.6759
105.861 0.436234 0 -25.6692
318.693 0.38373 0 -23.9584
322.319 0.378166 0 -23.9784
106.465 0.433005 0 -25.6726
212.256 0.418516 0 -25.3239
320.506 0.380957 0 -23.9685
214.672 0.412367 0 -25.3373
213.464 0.415451 0 -25.3307
105.861 0.436234 0 -25.6692
104.654 0.442635 0 -25.6622
315.067 0.389222 0 -23.9377
318.693 0.38373 0 -23.9584
105.258 0.439444 0 -25.6657
209.839 0.42459 0 -25.3101
316.88 0.386485 0 -23.9481
212.256 0.418516 0 -25.3239
211.047 0.421563 0 -25.3171
104.654 0.442635 0 -25.6622
103.447 0.44896 0 -25.655
311.442 0.394642 0 -23.9163
315.067 0.389222 0 -23.9377
104.05 0.445807 0 -25.6587
207.423 0.430589 0 -25.2958
313.254 0.391941 0 -23.9271
209.839 0.42459 0 -25.3101
208.631 0.427599 0 -25.303
103.447 0.44896 0 -25.655
102.239 0.455209 0 -25.6477
307.816 0.399989 0 -23.8943
311.442 0.394642 0 -23.9163
102.843 0.452094 0 -25.6514
205.007 0.436512 0 -25.2811
309.629 0.397324 0 -23.9054
207.423 0.430589 0 -25.2958
206.215 0.43356 0 -25.2885
102.239 0.455209 0 -25.6477
101.032 0.461383 0 -25.64
304.19 0.405264 0 -23.8716
307.816 0.399989 0 -23.8943
101.636 0.458305 0 -25.6439
202.59 0.44236 0 -25.2659
306.003 0.402635 0 -23.883
205.007 0.436512 0 -25.2811
203.798 0.439445 0 -25.2736
101.032 0.461383 0 -25.64
99.8244 0.467481 0 -25.6322
300.565 0.410466 0 -23.8482
304.19 0.405264 0 -23.8716
100.428 0.464441 0 -25.6362
200.174 0.448132 0 -25.2503
302.378 0.407874 0 -23.86
202.59 0.44236 0 -25.2659
201.382 0.445255 0 -25.2582
99.8244 0.467481 0 -25.6322
98.617 0.473504 0 -25.6242
296.939 0.415596 0 -23.8242
300.565 0.410466 0 -23.8482
99.2207 0.470502 0 -25.6282
197.758 0.453829 0 -25.2343
298.752 0.41304 0 -23.8363
200.174 0.448132 0 -25.2503
198.966 0.45099 0 -25.2424
98.617 0.473504 0 -25.6242
97.4096 0.47945 0 -25.6159
293.314 0.420654 0 -23.7996
296.939 0.415596 0 -23.8242
98.0133 0.476486 0 -25.6201
195.341 0.45945 0 -25.2179
295.127 0.418134 0 -23.812
197.758 0.453829 0 -25.2343
196.549 0.456649 0 -25.2261
97.4096 0.47945 0 -25.6159
96.2022 0.485321 0 -25.6074
289.688 0.425639 0 -23.7743
293.314 0.420654 0 -23.7996
96.8059 0.482395 0 -25.6117
192.925 0.464995 0 -25.201
291.501 0.423155 0 -23.787
195.341 0.45945 0 -25.2179
194.133 0.462232 0 -25.2095
96.2022 0.485321 0 -25.6074
94.9947 0.491116 0 -25.5988
286.063 0.430552 0 -23.7484
289.688 0.425639 0 -23.7743
95.5984 0.488228 0 -25.6031
190.509 0.470465 0 -25.1837
287.876 0.428104 0 -23.7614
192.925 0.464995 0 -25.201
191.717 0.46774 0 -25.1924
94.9947 0.491116 0 -25.5988
93.7873 0.496836 0 -25.5899
282.437 0.435392 0 -23.7219
286.063 0.430552 0 -23.7484
94.391 0.493986 0 -25.5944
188.092 0.47586 0 -25.166
284.25 0.432981 0 -23.7352
190.509 0.470465 0 -25.1837
189.301 0.473172 0 -25.1749
93.7873 0.496836 0 -25.5899
92.5798 0.502479 0 -25.5808
278.812 0.44016 0 -23.6948
282.437 0.435392 0 -23.7219
93.1836 0.499667 0 -25.5854
185.676 0.481179 0 -25.1479
280.625 0.437785 0 -23.7084
188.092 0.47586 0 -25.166
186.884 0.478529 0 -25.157
92.5798 0.502479 0 -25.5808
91.3724 0.508047 0 -25.5715
275.186 0.444855 0 -23.6671
278.812 0.44016 0 -23.6948
91.9761 0.505273 0 -25.5762
183.26 0.486422 0 -25.1294
276.999 0.442517 0 -23.681
185.676 0.481179 0 -25.1479
184.468 0.48381 0 -25.1387
91.3724 0.508047 0 -25.5715
90.1649 0.513539 0 -25.562
271.561 0.449478 0 -23.6388
275.186 0.444855 0 -23.6671
90.7687 0.510802 0 -25.5668
180.843 0.49159 0 -25.1105
273.374 0.447176 0 -23.653
183.26 0.486422 0 -25.1294
182.052 0.489015 0 -25.12
90.1649 0.513539 0 -25.562
88.9575 0.518955 0 -25.5524
267.936 0.454029 0 -23.6099
271.561 0.449478 0 -23.6388
89.5612 0.516256 0 -25.5572
178.427 0.496682 0 -25.0912
269.748 0.451763 0 -23.6244
180.843 0.49159 0 -25.1105
179.635 0.494145 0 -25.1009
88.9575 0.518955 0 -25.5524
87.75 0.524295 0 -25.5425
264.31 0.458507 0 -23.5804
267.936 0.454029 0 -23.6099
88.3537 0.521634 0 -25.5475
176.011 0.501698 0 -25.0716
266.123 0.456277 0 -23.5952
178.427 0.496682 0 -25.0912
177.219 0.499199 0 -25.0814
87.75 0.524295 0 -25.5425
86.5425 0.529559 0 -25.5325
260.685 0.462913 0 -23.5504
264.31 0.458507 0 -23.5804
87.1463 0.526936 0 -25.5375
173.595 0.506639 0 -25.0515
262.498 0.460719 0 -23.5655
176.011 0.501698 0 -25.0716
174.803 0.504178 0 -25.0616
86.5425 0.529559 0 -25.5325
85.335 0.534747 0 -25.5222
257.06 0.467247 0 -23.5198
260.685 0.462913 0 -23.5504
85.9388 0.532163 0 -25.5274
171.178 0.511504 0 -25.0311
258.872 0.465089 0 -23.5352
173.595 0.506639 0 -25.0515
172.386 0.509081 0 -25.0414
85.335 0.534747 0 -25.5222
84.1276 0.539859 0 -25.5118
253.434 0.471509 0 -23.4887
257.06 0.467247 0 -23.5198
84.7313 0.537313 0 -25.517
168.762 0.516294 0 -25.0103
255.247 0.469387 0 -23.5043
171.178 0.511504 0 -25.0311
169.97 0.513909 0 -25.0208
84.1276 0.539859 0 -25.5118
82.9201 0.544896 0 -25.5012
249.809 0.475698 0 -23.457
253.434 0.471509 0 -23.4887
83.5238 0.542387 0 -25.5065
166.346 0.521009 0 -24.9892
251.622 0.473612 0 -23.4729
168.762 0.516294 0 -25.0103
167.554 0.518661 0 -24.9998
82.9201 0.544896 0 -25.5012
81.7126 0.549856 0 -25.4904
246.184 0.479815 0 -23.4247
249.809 0.475698 0 -23.457
82.3163 0.547386 0 -25.4958
163.93 0.525647 0 -24.9677
247.996 0.477766 0 -23.4409
166.346 0.521009 0 -24.9892
165.138 0.523337 0 -24.9785
81.7126 0.549856 0 -25.4904
80.505 0.554741 0 -25.4795
242.558 0.48386 0 -23.392
246.184 0.479815 0 -23.4247
81.1088 0.552308 0 -25.485
161.513 0.530211 0 -24.9458
244.371 0.481847 0 -23.4084
163.93 0.525647 0 -24.9677
162.721 0.527938 0 -24.9568
80.505 0.554741 0 -25.4795
79.2975 0.559549 0 -25.4683
238.933 0.487833 0 -23.3587
242.558 0.48386 0 -23.392
79.9013 0.557154 0 -25.4739
159.097 0.534699 0 -24.9236
240.746 0.485856 0 -23.3754
161.513 0.530211 0 -24.9458
160.305 0.532464 0 -24.9347
79.2975 0.559549 0 -25.4683
78.09 0.564282 0 -25.457
235.308 0.491734 0 -23.3249
238.933 0.487833 0 -23.3587
78.6938 0.561925 0 -25.4627
156.681 0.539111 0 -24.9011
237.12 0.489793 0 -23.3419
159.097 0.534699 0 -24.9236
157.889 0.536914 0 -24.9124
78.09 0.564282 0 -25.457
76.8825 0.568939 0 -25.4456
231.683 0.495564 0 -23.2906
235.308 0.491734 0 -23.3249
77.4862 0.56662 0 -25.4513
154.264 0.543448 0 -24.8782
233.495 0.493658 0 -23.3078
156.681 0.539111 0 -24.9011
155.473 0.541289 0 -24.8897
76.8825 0.568939 0 -25.4456
75.6749 0.573519 0 -25.4339
228.057 0.499321 0 -23.2558
231.683 0.495564 0 -23.2906
76.2787 0.571238 0 -25.4398
151.848 0.54771 0 -24.855
229.87 0.497451 0 -23.2733
154.264 0.543448 0 -24.8782
153.056 0.545588 0 -24.8666
75.6749 0.573519 0 -25.4339
74.4674 0.578024 0 -25.4221
224.432 0.503007 0 -23.2206
228.057 0.499321 0 -23.2558
75.0711 0.575781 0 -25.4281
149.432 0.551896 0 -24.8314
226.245 0.501173 0 -23.2383
151.848 0.54771 0 -24.855
150.64 0.549813 0 -24.8432
74.4674 0.578024 0 -25.4221
73.2598 0.582453 0 -25.4102
220.807 0.506621 0 -23.1848
224.432 0.503007 0 -23.2206
73.8636 0.580248 0 -25.4162
147.016 0.556008 0 -24.8076
222.62 0.504823 0 -23.2027
149.432 0.551896 0 -24.8314
148.224 0.553961 0 -24.8195
73.2598 0.582453 0 -25.4102
72.0522 0.586806 0 -25.3981
217.182 0.510163 0 -23.1486
220.807 0.506621 0 -23.1848
72.656 0.584639 0 -25.4041
144.599 0.560044 0 -24.7834
218.994 0.508401 0 -23.1667
147.016 0.556008 0 -24.8076
145.808 0.558035 0 -24.7955
72.0522 0.586806 0 -25.3981
70.8447 0.591083 0 -25.3858
213.557 0.513634 0 -23.1119
217.182 0.510163 0 -23.1486
71.4485 0.588954 0 -25.3919
142.183 0.564004 0 -24.7589
215.369 0.511907 0 -23.1303
144.599 0.560044 0 -24.7834
143.391 0.562033 0 -24.7712
70.8447 0.591083 0 -25.3858
69.6371 0.595284 0 -25.3734
209.932 0.517033 0 -23.0747
213.557 0.513634 0 -23.1119
70.2409 0.593193 0 -25.3796
139.767 0.56789 0 -24.7341
211.744 0.515342 0 -23.0933
142.183 0.564004 0 -24.7589
140.975 0.565957 0 -24.7465
69.6371 0.595284 0 -25.3734
68.4295 0.599409 0 -25.3608
206.307 0.520361 0 -23.0371
209.932 0.517033 0 -23.0747
69.0333 0.597356 0 -25.3671
137.351 0.571701 0 -24.709
208.119 0.518706 0 -23.056
139.767 0.56789 0 -24.7341
138.559 0.569805 0 -24.7216
68.4295 0.599409 0 -25.3608
67.2219 0.603459 0 -25.3481
202.681 0.523618 0 -22.999
206.307 0.520361 0 -23.0371
67.8257 0.601444 0 -25.3545
134.935 0.575436 0 -24.6836
204.494 0.521999 0 -23.0181
137.351 0.571701 0 -24.709
136.143 0.573578 0 -24.6964
67.2219 0.603459 0 -25.3481
66.0143 0.607432 0 -25.3352
199.056 0.526804 0 -22.9606
202.681 0.523618 0 -22.999
66.6181 0.605455 0 -25.3417
132.518 0.579097 0 -24.6579
200.869 0.52522 0 -22.9799
134.935 0.575436 0 -24.6836
133.726 0.577276 0 -24.6708
66.0143 0.607432 0 -25.3352
64.8067 0.61133 0 -25.3222
195.431 0.529919 0 -22.9216
199.056 0.526804 0 -22.9606
65.4105 0.609391 0 -25.3287
130.102 0.582683 0 -24.632
197.244 0.52837 0 -22.9412
132.518 0.579097 0 -24.6579
131.31 0.580899 0 -24.645
64.8067 0.61133 0 -25.3222
63.5991 0.615152 0 -25.3091
191.806 0.532963 0 -22.8823
195.431 0.529919 0 -22.9216
64.2029 0.613251 0 -25.3157
127.686 0.586194 0 -24.6057
193.619 0.53145 0 -22.902
130.102 0.582683 0 -24.632
128.894 0.584448 0 -24.6189
63.5991 0.615152 0 -25.3091
62.3914 0.618898 0 -25.2958
188.181 0.535936 0 -22.8426
191.806 0.532963 0 -22.8823
62.9952 0.617035 0 -25.3024
125.27 0.58963 0 -24.5792
189.994 0.534458 0 -22.8625
127.686 0.586194 0 -24.6057
126.478 0.587921 0 -24.5925
62.3914 0.618898 0 -25.2958
61.1838 0.622569 0 -25.2824
184.556 0.538838 0 -22.8024
188.181 0.535936 0 -22.8426
61.7876 0.620743 0 -25.2891
122.853 0.592991 0 -24.5524
186.369 0.537396 0 -22.8225
125.27 0.58963 0 -24.5792
124.061 0.59132 0 -24.5659
61.1838 0.622569 0 -25.2824
59.9761 0.626163 0 -25.2688
180.931 0.54167 0 -22.7619
184.556 0.538838 0 -22.8024
60.58 0.624376 0 -25.2756
120.437 0.596278 0 -24.5254
182.744 0.540263 0 -22.7822
122.853 0.592991 0 -24.5524
121.645 0.594644 0 -24.5389
59.9761 0.626163 0 -25.2688
58.7685 0.629682 0 -25.2552
177.306 0.544431 0 -22.7209
180.931 0.54167 0 -22.7619
59.3723 0.627932 0 -25.262
118.021 0.599491 0 -24.4981
179.119 0.543059 0 -22.7414
120.437 0.596278 0 -24.5254
119.229 0.597894 0 -24.5118
58.7685 0.629682 0 -25.2552
57.5608 0.633126 0 -25.2413
173.681 0.547122 0 -22.6796
177.306 0.544431 0 -22.7209
58.1647 0.631413 0 -25.2483
115.605 0.602629 0 -24.4705
175.494 0.545785 0 -22.7003
118.021 0.599491 0 -24.4981
116.813 0.601069 0 -24.4843
57.5608 0.633126 0 -25.2413
56.3531 0.636493 0 -25.2274
170.056 0.549743 0 -22.6379
173.681 0.547122 0 -22.6796
56.957 0.634819 0 -25.2344
113.188 0.605692 0 -24.4427
171.869 0.548441 0 -22.6588
115.605 0.602629 0 -24.4705
114.397 0.60417 0 -24.4566
56.3531 0.636493 0 -25.2274
55.1455 0.639785 0 -25.2134
166.431 0.552294 0 -22.5959
170.056 0.549743 0 -22.6379
55.7493 0.638148 0 -25.2204
110.772 0.608681 0 -24.4147
168.244 0.551027 0 -22.6169
113.188 0.605692 0 -24.4427
111.98 0.607196 0 -24.4287
55.1455 0.639785 0 -25.2134
53.9378 0.643001 0 -25.1992
162.806 0.554775 0 -22.5535
166.431 0.552294 0 -22.5959
54.5416 0.641403 0 -25.2063
108.356 0.611596 0 -24.3864
164.619 0.553543 0 -22.5747
110.772 0.608681 0 -24.4147
109.564 0.610148 0 -24.4005
53.9378 0.643001 0 -25.1992
52.7301 0.646142 0 -25.1849
159.181 0.557186 0 -22.5107
162.806 0.554775 0 -22.5535
53.3339 0.644581 0 -25.1921
105.94 0.614437 0 -24.3578
160.994 0.555989 0 -22.5321
108.356 0.611596 0 -24.3864
107.148 0.613026 0 -24.3721
52.7301 0.646142 0 -25.1849
51.5224 0.649207 0 -25.1705
155.556 0.559527 0 -22.4676
159.181 0.557186 0 -22.5107
52.1262 0.647684 0 -25.1777
103.524 0.617204 0 -24.3291
157.369 0.558365 0 -22.4892
105.94 0.614437 0 -24.3578
104.732 0.61583 0 -24.3435
51.5224 0.649207 0 -25.1705
50.3146 0.652197 0 -25.156
151.932 0.561799 0 -22.4242
155.556 0.559527 0 -22.4676
50.9185 0.650712 0 -25.1633
101.107 0.619897 0 -24.3001
153.744 0.560672 0 -22.4459
103.524 0.617204 0 -24.3291
102.315 0.61856 0 -24.3146
50.3146 0.652197 0 -25.156
49.1069 0.655111 0 -25.1414
148.307 0.564001 0 -22.3804
151.932 0.561799 0 -22.4242
49.7108 0.653664 0 -25.1487
98.691 0.622516 0 -24.2709
150.119 0.562909 0 -22.4023
101.107 0.619897 0 -24.3001
99.8992 0.621216 0 -24.2856
49.1069 0.655111 0 -25.1414
47.8992 0.65795 0 -25.1267
144.682 0.566135 0 -22.3363
148.307 0.564001 0 -22.3804
48.503 0.65654 0 -25.1341
96.2748 0.625061 0 -24.2415
146.494 0.565077 0 -22.3584
98.691 0.622516 0 -24.2709
97.4829 0.623798 0 -24.2563
47.8992 0.65795 0 -25.1267
46.6914 0.660714 0 -25.1119
141.057 0.568199 0 -22.2919
144.682 0.566135 0 -22.3363
47.2953 0.659341 0 -25.1193
93.8586 0.627532 0 -24.2119
142.869 0.567176 0 -22.3142
96.2748 0.625061 0 -24.2415
95.0667 0.626306 0 -24.2268
46.6914 0.660714 0 -25.1119
45.4837 0.663402 0 -25.0969
137.432 0.570194 0 -22.2472
141.057 0.568199 0 -22.2919
46.0875 0.662067 0 -25.1044
91.4424 0.62993 0 -24.1821
139.245 0.569205 0 -22.2696
93.8586 0.627532 0 -24.2119
92.6505 0.628741 0 -24.197
45.4837 0.663402 0 -25.0969
44.2759 0.666014 0 -25.0819
133.807 0.572121 0 -22.2022
137.432 0.570194 0 -22.2472
44.8798 0.664717 0 -25.0895
89.0261 0.632255 0 -24.1521
135.62 0.571166 0 -22.2248
91.4424 0.62993 0 -24.1821
90.2342 0.631102 0 -24.1671
44.2759 0.666014 0 -25.0819
43.0681 0.668552 0 -25.0668
130.182 0.573979 0 -22.157
133.807 0.572121 0 -22.2022
43.672 0.667292 0 -25.0744
86.6099 0.634506 0 -24.1219
131.995 0.573058 0 -22.1796
89.0261 0.632255 0 -24.1521
87.818 0.633389 0 -24.137
43.0681 0.668552 0 -25.0668
41.8603 0.671014 0 -25.0516
126.558 0.575768 0 -22.1114
130.182 0.573979 0 -22.157
42.4642 0.669792 0 -25.0592
84.1937 0.636683 0 -24.0915
128.37 0.574882 0 -22.1342
86.6099 0.634506 0 -24.1219
85.4018 0.635604 0 -24.1067
41.8603 0.671014 0 -25.0516
40.6525 0.6734 0 -25.0363
122.933 0.577489 0 -22.0656
126.558 0.575768 0 -22.1114
41.2564 0.672216 0 -25.044
81.7774 0.638787 0 -24.061
124.745 0.576637 0 -22.0885
84.1937 0.636683 0 -24.0915
82.9855 0.637744 0 -24.0763
40.6525 0.6734 0 -25.0363
39.4447 0.675711 0 -25.0209
119.308 0.579142 0 -22.0195
122.933 0.577489 0 -22.0656
40.0486 0.674565 0 -25.0286
79.3612 0.640818 0 -24.0302
121.12 0.578324 0 -22.0426
81.7774 0.638787 0 -24.061
80.5693 0.639812 0 -24.0456
39.4447 0.675711 0 -25.0209
38.2369 0.677947 0 -25.0055
115.683 0.580727 0 -21.9731
119.308 0.579142 0 -22.0195
38.8408 0.676839 0 -25.0132
76.9449 0.642775 0 -23.9993
117.496 0.579943 0 -21.9964
79.3612 0.640818 0 -24.0302
78.1531 0.641806 0 -24.0148
38.2369 0.677947 0 -25.0055
37.0291 0.680107 0 -24.9899
112.058 0.582243 0 -21.9266
115.683 0.580727 0 -21.9731
37.633 0.679036 0 -24.9977
74.5287 0.644659 0 -23.9682
113.871 0.581493 0 -21.9499
76.9449 0.642775 0 -23.9993
75.7368 0.643727 0 -23.9838
37.0291 0.680107 0 -24.9899
35.8213 0.682191 0 -24.9743
108.434 0.583691 0 -21.8797
112.058 0.582243 0 -21.9266
36.4252 0.681158 0 -24.9821
72.1125 0.64647 0 -23.937
110.246 0.582975 0 -21.9032
74.5287 0.644659 0 -23.9682
73.3206 0.645574 0 -23.9526
35.8213 0.682191 0 -24.9743
34.6134 0.684199 0 -24.9586
104.809 0.585071 0 -21.8327
108.434 0.583691 0 -21.8797
35.2173 0.683204 0 -24.9664
69.6962 0.648206 0 -23.9056
106.621 0.584389 0 -21.8562
72.1125 0.64647 0 -23.937
70.9043 0.647347 0 -23.9213
34.6134 0.684199 0 -24.9586
33.4056 0.68613 0 -24.9428
101.184 0.586382 0 -21.7854
104.809 0.585071 0 -21.8327
34.0095 0.685174 0 -24.9507
67.28 0.649869 0 -23.8741
102.997 0.585735 0 -21.809
69.6962 0.648206 0 -23.9056
68.4881 0.649047 0 -23.8899
33.4056 0.68613 0 -24.9428
32.1977 0.687984 0 -24.9269
97.5594 0.587624 0 -21.7379
101.184 0.586382 0 -21.7854
32.8016 0.687066 0 -24.9349
64.8637 0.651457 0 -23.8424
99.3718 0.587012 0 -21.7616
67.28 0.649869 0 -23.8741
66.0718 0.650672 0 -23.8583
32.1977 0.687984 0 -24.9269
30.9898 0.689761 0 -24.911
93.9347 0.588797 0 -21.6902
97.5594 0.587624 0 -21.7379
31.5938 0.688882 0 -24.919
62.4475 0.65297 0 -23.8106
95.7471 0.588219 0 -21.714
64.8637 0.651457 0 -23.8424
63.6556 0.652223 0 -23.8265
30.9898 0.689761 0 -24.911
29.782 0.691459 0 -24.895
90.31 0.5899 0 -21.6422
93.9347 0.588797 0 -21.6902
30.3859 0.69062 0 -24.903
60.0312 0.654406 0 -23.7786
92.1224 0.589357 0 -21.6662
62.4475 0.65297 0 -23.8106
61.2394 0.653697 0 -23.7946
29.782 0.691459 0 -24.895
28.5741 0.69308 0 -24.879
86.6853 0.590931 0 -21.5941
90.31 0.5899 0 -21.6422
29.178 0.692279 0 -24.887
57.615 0.655766 0 -23.7466
88.4977 0.590424 0 -21.6182
60.0312 0.654406 0 -23.7786
58.8231 0.655096 0 -23.7626
28.5741 0.69308 0 -24.879
27.3662 0.694622 0 -24.8628
83.0606 0.591888 0 -21.5459
86.6853 0.590931 0 -21.5941
27.9701 0.693861 0 -24.8709
55.1988 0.657047 0 -23.7144
84.873 0.591419 0 -21.57
57.615 0.655766 0 -23.7466
56.4069 0.656416 0 -23.7305
27.3662 0.694622 0 -24.8628
26.1583 0.696088 0 -24.8466
79.436 0.59277 0 -21.4974
83.0606 0.591888 0 -21.5459
26.7623 0.695364 0 -24.8547
52.7825 0.65825 0 -23.682
81.2483 0.592339 0 -21.5217
55.1988 0.657047 0 -23.7144
53.9906 0.657658 0 -23.6982
26.1583 0.696088 0 -24.8466
24.9505 0.69748 0 -24.8304
75.8113 0.593576 0 -21.4488
79.436 0.59277 0 -21.4974
25.5544 0.696793 0 -24.8385
50.3664 0.659374 0 -23.6496
77.6237 0.593183 0 -21.4731
52.7825 0.65825 0 -23.682
51.5744 0.658822 0 -23.6658
24.9505 0.69748 0 -24.8304
23.7426 0.698807 0 -24.814
72.1868 0.594309 0 -21.4
75.8113 0.593576 0 -21.4488
24.3465 0.698151 0 -24.8222
47.9502 0.660428 0 -23.617
73.9991 0.593951 0 -21.4244
50.3664 0.659374 0 -23.6496
49.1583 0.659909 0 -23.6333
23.7426 0.698807 0 -24.814
22.5348 0.700091 0 -24.7976
68.5623 0.594983 0 -21.351
72.1868 0.594309 0 -21.4
23.1387 0.699452 0 -24.8058
45.5341 0.661431 0 -23.5843
70.3745 0.594652 0 -21.3755
47.9502 0.660428 0 -23.617
46.7422 0.660933 0 -23.6007
22.5348 0.700091 0 -24.7976
21.327 0.701372 0 -24.7811
64.9379 0.59565 0 -21.3019
68.5623 0.594983 0 -21.351
21.9309 0.700728 0 -24.7893
43.1181 0.662439 0 -23.5514
66.7501 0.595311 0 -21.3265
45.5341 0.661431 0 -23.5843
44.3261 0.661928 0 -23.5679
21.327 0.701372 0 -24.7811
20.1192 0.702751 0 -24.7645
61.3136 0.596421 0 -21.2525
64.9379 0.59565 0 -21.3019
20.7231 0.702038 0 -24.7728
40.7021 0.663583 0 -23.5184
63.1258 0.59601 0 -21.2772
43.1181 0.662439 0 -23.5514
41.9101 0.662981 0 -23.5349
20.1192 0.702751 0 -24.7645
18.9112 0.704404 0 -24.748
57.6894 0.597592 0 -21.2028
61.3136 0.596421 0 -21.2525
19.5152 0.703527 0 -24.7562
38.2861 0.665145 0 -23.4853
59.5015 0.596925 0 -21.2277
40.7021 0.663583 0 -23.5184
39.4941 0.664281 0 -23.5019
18.9112 0.704404 0 -24.748
17.703 0.706756 0 -24.7319
54.0649 0.59972 0 -21.1528
57.6894 0.597592 0 -21.2028
18.3071 0.70545 0 -24.7398
35.8696 0.667728 0 -23.4522
55.8773 0.59848 0 -21.1779
38.2861 0.665145 0 -23.4853
37.0779 0.666252 0 -23.4687
17.703 0.706756 0 -24.7319
16.4936 0.710454 0 -24.717
50.4398 0.604091 0 -21.102
54.0649 0.59972 0 -21.1528
17.0985 0.708373 0 -24.7242
33.452 0.672489 0 -23.4194
52.2524 0.601496 0 -21.1275
35.8696 0.667728 0 -23.4522
34.6611 0.669713 0 -23.4357
16.4936 0.710454 0 -24.717
15.2824 0.717066 0 -24.7052
46.8117 0.612855 0 -21.0502
50.4398 0.604091 0 -21.102
15.8882 0.713251 0 -24.7106
31.0315 0.681715 0 -23.3876
48.6263 0.607713 0 -21.0762
33.452 0.672489 0 -23.4194
32.2423 0.676349 0 -23.4033
15.2824 0.717066 0 -24.7052
14.0657 0.728603 0 -24.6998
43.1784 0.630665 0 -20.9966
46.8117 0.612855 0 -21.0502
14.6751 0.72202 0 -24.7013
28.6043 0.699292 0 -23.3587
44.9958 0.620201 0 -21.0237
31.0315 0.681715 0 -23.3876
29.819 0.689041 0 -23.3728
14.0657 0.728603 0 -24.6998
12.841 0.750051 0 -24.7074
39.5305 0.664107 0 -20.9406
43.1784 0.630665 0 -20.9966
13.4543 0.737684 0 -24.7014
26.1631 0.732373 0 -23.3357
41.3573 0.644797 0 -20.9689
28.6043 0.699292 0 -23.3587
27.386 0.713384 0 -23.346
12.841 0.750051 0 -24.7074
11.5954 0.785927 0 -24.74
35.8582 0.727034 0 -20.8804
39.5305 0.664107 0 -20.9406
12.2224 0.765707 0 -24.7195
23.6943 0.791089 0 -23.325
37.6976 0.69078 0 -20.9113
26.1631 0.732373 0 -23.3357
24.9331 0.757375 0 -23.3287
11.5954 0.785927 0 -24.74
10.3224 0.849087 0 -24.8163
32.1282 0.83359 0 -20.8169
35.8582 0.727034 0 -20.8804
10.9617 0.813354 0 -24.7712
21.1741 0.892333 0 -23.3376
34.0042 0.773465 0 -20.8487
23.6943 0.791089 0 -23.325
22.4428 0.835729 0 -23.3267
10.3224 0.849087 0 -24.8163
8.98394 0.941461 0 -24.967
28.3133 1.01453 0 -20.7479
32.1282 0.83359 0 -20.8169
9.66654 0.89112 0 -24.8798
18.564 1.05037 0 -23.3919
30.2312 0.913219 0 -20.7836
21.1741 0.892333 0 -23.3376
19.8827 0.962118 0 -23.3595
8.98394 0.941461 0 -24.967
7.5784 1.0835 0 -25.2278
24.3138 1.27303 0 -20.6895
28.3133 1.01453 0 -20.7479
8.28538 1.00681 0 -25.0813
15.8053 1.28159 0 -23.5166
26.3487 1.13321 0 -20.715
18.564 1.05037 0 -23.3919
17.2091 1.15961 0 -23.44
7.5784 1.0835 0 -25.2278
6.0206 1.22356 0 -25.6387
20.0928 1.63342 0 -20.6521
24.3138 1.27303 0 -20.6895
6.83248 1.15676 0 -25.4118
12.8335 1.54286 0 -23.75
22.2256 1.44519 0 -20.668
15.8053 1.28159 0 -23.5166
14.3476 1.40917 0 -23.6229
6.0206 1.22356 0 -25.6387
4.39962 1.3365 0 -26.1807
15.4363 1.92107 0 -20.7319
20.0928 1.63342 0 -20.6521
5.19665 1.29594 0 -25.8981
9.58773 1.72636 0 -24.13
17.8496 1.79839 0 -20.666
12.8335 1.54286 0 -23.75
11.2553 1.67115 0 -23.9076
4.39962 1.3365 0 -26.1807
2.62789 1.07649 0 -26.72
10.5071 1.91036 0 -21.0021
15.4363 1.92107 0 -20.7319
3.56172 1.27354 0 -26.4654
6.16791 1.40034 0 -24.6413
12.9658 2.00486 0 -20.839
9.58773 1.72636 0 -24.13
7.87515 1.65041 0 -24.395
2.62789 1.07649 0 -26.72
1.19563 0.211008 0 -26.7402
5.2517 0.391686 0 -21.7072
10.5071 1.91036 0 -21.0021
1.78947 0.763497 0 -26.8469
2.89315 -0.0972833 0 -25.0332
7.96329 1.42762 0 -21.2791
6.16791 1.40034 0 -24.6413
4.50976 0.898424 0 -24.8432
1.19563 0.211008 0 -26.7402
-0.053729 -2.06673 0 -25.2742
1.28996 -4.30734 0 -22.3025
5.2517 0.391686 0 -21.7072
0.622856 -0.77537 0 -26.2737
0.765431 -3.94284 0 -24.2803
2.90528 -1.30147 0 -22.0963
2.89315 -0.0972833 0 -25.0332
1.54208 -1.74573 0 -24.9788
-0.0537291 -2.06673 0 -25.2742
-0.10523 -4.67544 0 -20.703
-0.936397 -16.124 0 -20.6411
1.28996 -4.30734 0 -22.3025
-0.407945 -3.36638 0 -23.4822
-0.239659 -10.1702 0 -20.2942
0.0198012 -9.37668 0 -22.0423
0.765431 -3.94284 0 -24.2803
0.277303 -6.71499 0 -22.725
-0.10523 -4.67544 0 -20.703
0.709703 -8.19148 0 -11.916
-0.984301 -29.9608 0 -11.2138
-0.936397 -16.124 0 -20.6411
0.400741 -6.25481 0 -16.8788
-0.676674 -18.2577 0 -12.1835
-1.41979 -23.6278 0 -17.1989
-0.239659 -10.1702 0 -20.2942
-0.649299 -14.2016 0 -16.8697
641.865 192.456 0 58.804
697.295 121.541 0 -2.2269
1180.71 127.455 0 -65.8371
1115.06 334.185 0 -45.0867
679.498 154.498 0 21.9477
923.986 140.246 0 -27.3909
1158.48 240.329 0 -76.2392
912.273 273.455 0 8.90053
902.802 194.795 0 -8.93068
697.295 121.541 0 -2.2269
710.617 53.021 0 -21.2857
1198.56 37.8141 0 -31.7194
1180.71 127.455 0 -65.8371
703.241 84.7681 0 -14.4905
957.132 54.7329 0 -32.0712
1197.48 65.497 0 -47.6907
923.986 140.246 0 -27.3909
949.533 94.2959 0 -35.9085
710.617 53.021 0 -21.2857
717.459 18.4077 0 -25.0363
1183.54 6.59907 0 -12.2517
1198.56 37.8141 0 -31.7194
717.116 32.2281 0 -24.6547
954.971 15.6399 0 -21.7888
1189.54 18.4999 0 -18.926
957.132 54.7329 0 -32.0712
956.729 29.531 0 -25.5068
717.459 18.4077 0 -25.0363
712.064 2.34284 0 -23.2617
1173.18 -0.217105 0 -7.99297
1183.54 6.59907 0 -12.2517
714.513 8.46156 0 -24.0397
945.919 0.610922 0 -16.7805
1178.95 1.655 0 -9.36966
954.971 15.6399 0 -21.7888
951.1 6.46346 0 -19.0927
712.064 2.34284 0 -23.2617
705.701 -2.35944 0 -22.0746
1162.8 -2.75835 0 -7.9195
1173.18 -0.217105 0 -7.99297
709.419 -0.783105 0 -22.6734
936.154 -3.06209 0 -15.2782
1167.15 -1.85818 0 -7.52109
945.919 0.610922 0 -16.7805
940.622 -2.19478 0 -15.4958
705.701 -2.35944 0 -22.0746
698.336 -3.51356 0 -21.3057
1155.62 -2.34223 0 -9.53526
1162.8 -2.75835 0 -7.9195
701.665 -3.27394 0 -21.5581
928.015 -3.54166 0 -15.501
1159.32 -2.68248 0 -8.76424
936.154 -3.06209 0 -15.2782
931.999 -3.4433 0 -15.3835
698.336 -3.51356 0 -21.3057
692.386 -2.94279 0 -21.1262
1148.69 -1.90284 0 -10.9231
1155.62 -2.34223 0 -9.53526
695.369 -3.29541 0 -21.2031
921.042 -2.7755 0 -16.1671
1151.94 -2.13674 0 -10.2299
928.015 -3.54166 0 -15.501
924.344 -3.25614 0 -15.77
692.386 -2.94279 0 -21.1262
687.018 -2.23868 0 -21.0975
1142.53 -1.29671 0 -12.0847
1148.69 -1.90284 0 -10.9231
689.534 -2.60334 0 -21.0817
915.001 -2.01523 0 -16.8367
1145.64 -1.58118 0 -11.5706
921.042 -2.7755 0 -16.1671
917.955 -2.36005 0 -16.5391
687.018 -2.23868 0 -21.0975
682.459 -1.568 0 -21.1875
1136.37 -0.921002 0 -12.8491
1142.53 -1.29671 0 -12.0847
684.706 -1.87506 0 -21.1434
909.495 -1.37911 0 -17.3658
1139.41 -1.09224 0 -12.4972
915.001 -2.01523 0 -16.8367
912.187 -1.68123 0 -17.1111
682.459 -1.568 0 -21.1875
678.255 -1.12097 0 -21.287
1130.36 -0.647641 0 -13.3848
1136.37 -0.921002 0 -12.8491
680.299 -1.32439 0 -21.2332
904.315 -0.966696 0 -17.7494
1133.38 -0.767071 0 -13.1477
909.495 -1.37911 0 -17.3658
906.88 -1.14479 0 -17.5787
678.255 -1.12097 0 -21.287
674.348 -0.821801 0 -21.3954
1124.32 -0.492779 0 -13.7381
1130.36 -0.647641 0 -13.3848
676.287 -0.951829 0 -21.3432
899.309 -0.70282 0 -18.0253
1127.33 -0.560803 0 -13.5762
904.315 -0.966696 0 -17.7494
901.795 -0.820236 0 -17.8965
674.348 -0.821801 0 -21.3954
670.568 -0.647169 0 -21.4946
1118.3 -0.397628 0 -13.9952
1124.32 -0.492779 0 -13.7381
672.442 -0.723551 0 -21.4452
894.394 -0.550624 0 -18.2279
1121.32 -0.438128 0 -13.8773
899.309 -0.70282 0 -18.0253
896.844 -0.61512 0 -18.1347
670.568 -0.647169 0 -21.4946
666.875 -0.54275 0 -21.5888
1112.27 -0.345478 0 -14.1899
1118.3 -0.397628 0 -13.9952
668.717 -0.58733 0 -21.5428
889.524 -0.46219 0 -18.3867
1115.28 -0.368104 0 -14.0976
894.394 -0.550624 0 -18.2279
891.955 -0.500544 0 -18.3111
666.875 -0.54275 0 -21.5888
663.217 -0.483717 0 -21.6766
1106.23 -0.314601 0 -14.3531
1112.27 -0.345478 0 -14.1899
665.042 -0.509363 0 -21.6332
884.675 -0.41262 0 -18.5193
1109.25 -0.327832 0 -14.2746
889.524 -0.46219 0 -18.3867
887.098 -0.433704 0 -18.4557
663.217 -0.483717 0 -21.6766
659.579 -0.448048 0 -21.7604
1100.18 -0.296379 0 -14.4978
1106.23 -0.314601 0 -14.3531
661.397 -0.463566 0 -21.719
879.834 -0.383258 0 -18.6373
1103.21 -0.304498 0 -14.427
884.675 -0.41262 0 -18.5193
882.254 -0.396167 0 -18.5796
659.579 -0.448048 0 -21.7604
655.948 -0.425547 0 -21.8408
1094.14 -0.284034 0 -14.633
1100.18 -0.296379 0 -14.4978
657.763 -0.435717 0 -21.801
874.997 -0.364755 0 -18.7466
1097.16 -0.289646 0 -14.5663
879.834 -0.383258 0 -18.6373
877.415 -0.373038 0 -18.6928
655.948 -0.425547 0 -21.8408
652.321 -0.40926 0 -21.9187
1088.09 -0.274744 0 -14.7622
1094.14 -0.284034 0 -14.633
654.135 -0.416827 0 -21.8801
870.16 -0.351393 0 -18.851
1091.11 -0.279163 0 -14.6981
874.997 -0.364755 0 -18.7466
872.578 -0.357648 0 -18.7993
652.321 -0.40926 0 -21.9187
648.695 -0.396109 0 -21.9946
1082.04 -0.266725 0 -14.8878
1088.09 -0.274744 0 -14.7622
650.508 -0.402442 0 -21.9569
865.323 -0.340486 0 -18.9519
1085.07 -0.270623 0 -14.8254
870.16 -0.351393 0 -18.851
867.742 -0.345736 0 -18.9018
648.695 -0.396109 0 -21.9946
645.069 -0.384286 0 -22.0686
1075.99 -0.259271 0 -15.0105
1082.04 -0.266725 0 -14.8878
646.882 -0.390081 0 -22.0318
860.486 -0.3306 0 -19.0504
1079.02 -0.262962 0 -14.9495
865.323 -0.340486 0 -18.9519
862.905 -0.335465 0 -19.0014
645.069 -0.384286 0 -22.0686
641.442 -0.373058 0 -22.1411
1069.94 -0.252002 0 -15.1308
1075.99 -0.259271 0 -15.0105
643.256 -0.37863 0 -22.1051
855.649 -0.321129 0 -19.1468
1072.97 -0.255622 0 -15.071
860.486 -0.3306 0 -19.0504
858.068 -0.325834 0 -19.0988
641.442 -0.373058 0 -22.1411
637.816 -0.362052 0 -22.212
1063.89 -0.24479 0 -15.2488
1069.94 -0.252002 0 -15.1308
639.629 -0.367537 0 -22.1768
850.811 -0.311794 0 -19.2412
1066.92 -0.248394 0 -15.1901
855.649 -0.321129 0 -19.1468
853.23 -0.316453 0 -19.1942
637.816 -0.362052 0 -22.212
634.189 -0.351137 0 -22.2816
1057.84 -0.237582 0 -15.3645
1063.89 -0.24479 0 -15.2488
636.003 -0.356588 0 -22.247
845.974 -0.3025 0 -19.3338
1060.87 -0.241186 0 -15.3069
850.811 -0.311794 0 -19.2412
848.392 -0.307145 0 -19.2877
634.189 -0.351137 0 -22.2816
630.563 -0.340263 0 -22.3497
1051.8 -0.230368 0 -15.478
1057.84 -0.237582 0 -15.3645
632.376 -0.345696 0 -22.3158
841.136 -0.293216 0 -19.4246
1054.82 -0.233976 0 -15.4215
845.974 -0.3025 0 -19.3338
843.555 -0.297857 0 -19.3794
630.563 -0.340263 0 -22.3497
626.936 -0.329419 0 -22.4164
1045.75 -0.22315 0 -15.5892
1051.8 -0.230368 0 -15.478
628.749 -0.334837 0 -22.3832
836.298 -0.283941 0 -19.5135
1048.77 -0.226759 0 -15.5339
841.136 -0.293216 0 -19.4246
838.717 -0.288577 0 -19.4693
626.936 -0.329419 0 -22.4164
623.309 -0.318606 0 -22.4818
1039.7 -0.215935 0 -15.6982
1045.75 -0.22315 0 -15.5892
625.122 -0.324008 0 -22.4493
831.46 -0.274681 0 -19.6007
1042.72 -0.219542 0 -15.644
836.298 -0.283941 0 -19.5135
833.879 -0.279309 0 -19.5574
623.309 -0.318606 0 -22.4818
619.682 -0.30783 0 -22.5458
1033.65 -0.208728 0 -15.805
1039.7 -0.215935 0 -15.6982
621.496 -0.313214 0 -22.514
826.622 -0.265441 0 -19.6861
1036.67 -0.21233 0 -15.7519
831.46 -0.274681 0 -19.6007
829.041 -0.270058 0 -19.6436
619.682 -0.30783 0 -22.5458
616.055 -0.297093 0 -22.6085
1027.6 -0.201531 0 -15.9096
1033.65 -0.208728 0 -15.805
617.869 -0.302457 0 -22.5773
821.785 -0.256227 0 -19.7697
1030.62 -0.205128 0 -15.8576
826.622 -0.265441 0 -19.6861
824.203 -0.260831 0 -19.7282
616.055 -0.297093 0 -22.6085
612.429 -0.286399 0 -22.6699
1021.55 -0.194349 0 -16.0119
1027.6 -0.201531 0 -15.9096
614.242 -0.291741 0 -22.6394
816.947 -0.247043 0 -19.8516
1024.57 -0.197938 0 -15.961
821.785 -0.256227 0 -19.7697
819.366 -0.251631 0 -19.8109
612.429 -0.286399 0 -22.6699
608.802 -0.27575 0 -22.7299
1015.5 -0.187184 0 -16.1121
1021.55 -0.194349 0 -16.0119
610.615 -0.281069 0 -22.7001
812.109 -0.237889 0 -19.9317
1018.52 -0.190764 0 -16.0623
816.947 -0.247043 0 -19.8516
814.528 -0.242462 0 -19.8919
608.802 -0.27575 0 -22.7299
605.175 -0.265147 0 -22.7887
1009.45 -0.180036 0 -16.2101
1015.5 -0.187184 0 -16.1121
606.988 -0.270443 0 -22.7595
807.271 -0.228769 0 -20.0101
1012.47 -0.183608 0 -16.1614
812.109 -0.237889 0 -19.9317
809.69 -0.233325 0 -19.9711
605.175 -0.265147 0 -22.7887
601.548 -0.25459 0 -22.8461
1003.4 -0.172908 0 -16.3059
1009.45 -0.180036 0 -16.2101
603.361 -0.259862 0 -22.8176
802.433 -0.219683 0 -20.0867
1006.42 -0.176469 0 -16.2583
807.271 -0.228769 0 -20.0101
804.852 -0.224222 0 -20.0486
601.548 -0.25459 0 -22.8461
597.921 -0.244081 0 -22.9023
997.35 -0.1658 0 -16.3996
1003.4 -0.172908 0 -16.3059
599.735 -0.24933 0 -22.8744
797.596 -0.210633 0 -20.1616
1000.37 -0.169351 0 -16.353
802.433 -0.219683 0 -20.0867
800.015 -0.215154 0 -20.1244
597.921 -0.244081 0 -22.9023
594.294 -0.233621 0 -22.9571
991.301 -0.158713 0 -16.4911
997.35 -0.1658 0 -16.3996
596.108 -0.238845 0 -22.9299
792.758 -0.20162 0 -20.2348
994.326 -0.162254 0 -16.4456
797.596 -0.210633 0 -20.1616
795.177 -0.206122 0 -20.1984
594.294 -0.233621 0 -22.9571
590.667 -0.22321 0 -23.0107
985.252 -0.151649 0 -16.5805
991.301 -0.158713 0 -16.4911
592.481 -0.228409 0 -22.9841
787.92 -0.192643 0 -20.3063
988.276 -0.155178 0 -16.5361
792.758 -0.20162 0 -20.2348
790.339 -0.197127 0 -20.2707
590.667 -0.22321 0 -23.0107
587.041 -0.212849 0 -23.063
979.203 -0.144609 0 -16.6678
985.252 -0.151649 0 -16.5805
588.854 -0.218023 0 -23.037
783.082 -0.183705 0 -20.3761
982.227 -0.148126 0 -16.6244
787.92 -0.192643 0 -20.3063
785.501 -0.188169 0 -20.3414
587.041 -0.212849 0 -23.063
583.414 -0.202538 0 -23.1141
973.153 -0.137593 0 -16.753
979.203 -0.144609 0 -16.6678
585.227 -0.207687 0 -23.0887
778.245 -0.174806 0 -20.4442
976.178 -0.141097 0 -16.7107
783.082 -0.183705 0 -20.3761
780.664 -0.17925 0 -20.4103
583.414 -0.202538 0 -23.1141
579.787 -0.192279 0 -23.1639
967.104 -0.130602 0 -16.8361
973.153 -0.137593 0 -16.753
581.6 -0.197402 0 -23.1391
773.407 -0.165946 0 -20.5106
970.129 -0.134094 0 -16.7948
778.245 -0.174806 0 -20.4442
775.826 -0.170371 0 -20.4776
579.787 -0.192279 0 -23.1639
576.16 -0.182072 0 -23.2124
961.055 -0.123638 0 -16.9171
967.104 -0.130602 0 -16.8361
577.974 -0.187169 0 -23.1883
768.569 -0.157127 0 -20.5754
964.08 -0.127116 0 -16.8768
773.407 -0.165946 0 -20.5106
770.988 -0.161532 0 -20.5432
576.16 -0.182072 0 -23.2124
572.533 -0.171917 0 -23.2598
955.006 -0.116701 0 -16.996
961.055 -0.123638 0 -16.9171
574.347 -0.176988 0 -23.2363
763.732 -0.14835 0 -20.6385
958.031 -0.120166 0 -16.9568
768.569 -0.157127 0 -20.5754
766.151 -0.152734 0 -20.6072
572.533 -0.171917 0 -23.2598
568.907 -0.161815 0 -23.3058
948.957 -0.109792 0 -17.0729
955.006 -0.116701 0 -16.996
570.72 -0.166859 0 -23.283
758.894 -0.139615 0 -20.7
951.982 -0.113242 0 -17.0347
763.732 -0.14835 0 -20.6385
761.313 -0.143977 0 -20.6695
568.907 -0.161815 0 -23.3058
565.28 -0.151767 0 -23.3507
942.908 -0.102912 0 -17.1478
948.957 -0.109792 0 -17.0729
567.093 -0.156784 0 -23.3284
754.057 -0.130922 0 -20.7598
945.933 -0.106348 0 -17.1106
758.894 -0.139615 0 -20.7
756.475 -0.135263 0 -20.7301
565.28 -0.151767 0 -23.3507
561.653 -0.141773 0 -23.3943
936.859 -0.0960618 0 -17.2206
942.908 -0.102912 0 -17.1478
563.466 -0.146763 0 -23.3727
749.219 -0.122273 0 -20.8181
939.884 -0.099483 0 -17.1844
754.057 -0.130922 0 -20.7598
751.638 -0.126592 0 -20.7892
561.653 -0.141773 0 -23.3943
558.026 -0.131834 0 -23.4368
930.81 -0.0892425 0 -17.2914
936.859 -0.0960618 0 -17.2206
559.84 -0.136797 0 -23.4157
744.382 -0.113668 0 -20.8747
933.835 -0.0926483 0 -17.2562
749.219 -0.122273 0 -20.8181
746.8 -0.117965 0 -20.8466
558.026 -0.131834 0 -23.4368
554.399 -0.12195 0 -23.478
924.761 -0.0824548 0 -17.3602
930.81 -0.0892425 0 -17.2914
556.213 -0.126885 0 -23.4575
739.544 -0.105108 0 -20.9297
927.786 -0.0858447 0 -17.3261
744.382 -0.113668 0 -20.8747
741.963 -0.109383 0 -20.9024
554.399 -0.12195 0 -23.478
550.773 -0.112122 0 -23.5181
918.713 -0.0756994 0 -17.427
924.761 -0.0824548 0 -17.3602
552.586 -0.117029 0 -23.4982
734.707 -0.0965939 0 -20.9831
921.737 -0.079073 0 -17.3939
739.544 -0.105108 0 -20.9297
737.125 -0.100845 0 -20.9566
550.773 -0.112122 0 -23.5181
547.146 -0.102351 0 -23.5569
912.664 -0.0689772 0 -17.4919
918.713 -0.0756994 0 -17.427
548.959 -0.107229 0 -23.5376
729.869 -0.0881256 0 -21.035
915.688 -0.0723341 0 -17.4597
734.707 -0.0965939 0 -20.9831
732.288 -0.0923539 0 -21.0093
547.146 -0.102351 0 -23.5569
543.519 -0.092636 0 -23.5946
906.615 -0.0622888 0 -17.5548
912.664 -0.0689772 0 -17.4919
545.333 -0.0974862 0 -23.5759
725.032 -0.0797043 0 -21.0853
909.64 -0.0656287 0 -17.5236
729.869 -0.0881256 0 -21.035
727.45 -0.0839091 0 -21.0603
543.519 -0.092636 0 -23.5946
539.893 -0.0829785 0 -23.6311
900.566 -0.0556351 0 -17.6157
906.615 -0.0622888 0 -17.5548
541.706 -0.0878 0 -23.613
720.194 -0.0713303 0 -21.134
903.591 -0.0589576 0 -17.5855
725.032 -0.0797043 0 -21.0853
722.613 -0.0755113 0 -21.1098
539.893 -0.0829785 0 -23.6311
536.266 -0.0733789 0 -23.6665
894.518 -0.0490169 0 -17.6747
900.566 -0.0556351 0 -17.6157
538.079 -0.0781714 0 -23.6489
715.357 -0.0630045 0 -21.1812
897.542 -0.0523215 0 -17.6455
720.194 -0.0713303 0 -21.134
717.776 -0.0671614 0 -21.1578
536.266 -0.0733789 0 -23.6665
532.639 -0.0638374 0 -23.7007
888.469 -0.0424348 0 -17.7318
894.518 -0.0490169 0 -17.6747
534.452 -0.0686009 0 -23.6837
710.519 -0.0547273 0 -21.2268
891.494 -0.0457213 0 -17.7035
715.357 -0.0630045 0 -21.1812
712.938 -0.0588598 0 -21.2042
532.639 -0.0638374 0 -23.7007
529.012 -0.0543547 0 -23.7337
882.421 -0.0358895 0 -17.787
888.469 -0.0424348 0 -17.7318
530.826 -0.0590887 0 -23.7173
705.682 -0.0464993 0 -21.2709
885.445 -0.0391575 0 -17.7596
710.519 -0.0547273 0 -21.2268
708.101 -0.0506071 0 -21.249
529.012 -0.0543547 0 -23.7337
525.386 -0.0449311 0 -23.7656
876.372 -0.0293819 0 -17.8403
882.421 -0.0358895 0 -17.787
527.199 -0.0496355 0 -23.7498
700.845 -0.0383212 0 -21.3135
879.396 -0.032631 0 -17.8138
705.682 -0.0464993 0 -21.2709
703.263 -0.042404 0 -21.2924
525.386 -0.0449311 0 -23.7656
521.759 -0.0355672 0 -23.7964
870.324 -0.0229124 0 -17.8916
876.372 -0.0293819 0 -17.8403
523.572 -0.0402417 0 -23.7812
696.008 -0.0301935 0 -21.3546
873.348 -0.0261423 0 -17.8662
700.845 -0.0383212 0 -21.3135
698.426 -0.034251 0 -21.3342
521.759 -0.0355672 0 -23.7964
518.132 -0.0262632 0 -23.8261
864.275 -0.0164819 0 -17.9412
870.324 -0.0229124 0 -17.8916
519.946 -0.0309077 0 -23.8114
691.17 -0.0221166 0 -21.3942
867.299 -0.0196923 0 -17.9166
696.008 -0.0301935 0 -21.3546
693.589 -0.0261486 0 -21.3746
518.132 -0.0262632 0 -23.8261
514.506 -0.0170198 0 -23.8546
858.227 -0.010091 0 -17.9888
864.275 -0.0164819 0 -17.9412
516.319 -0.0216339 0 -23.8405
686.333 -0.0140913 0 -21.4323
861.251 -0.0132815 0 -17.9652
691.17 -0.0221166 0 -21.3942
688.752 -0.0180975 0 -21.4134
514.506 -0.0170198 0 -23.8546
510.879 -0.00783714 0 -23.8821
852.179 -0.00374033 0 -18.0347
858.227 -0.010091 0 -17.9888
512.693 -0.0124208 0 -23.8685
681.496 -0.00611801 0 -21.4689
855.203 -0.0069106 0 -18.012
686.333 -0.0140913 0 -21.4323
683.914 -0.0100981 0 -21.4508
510.879 -0.00783714 0 -23.8821
507.253 0.00128421 0 -23.9084
846.13 0.00256948 0 -18.0787
852.179 -0.00374033 0 -18.0347
509.066 -0.00326878 0 -23.8954
676.659 0.00180277 0 -21.5041
849.154 -0.000580272 0 -18.0569
681.496 -0.00611802 0 -21.4689
679.077 -0.00215103 0 -21.4867
507.253 0.00128421 0 -23.9084
503.626 0.0103439 0 -23.9337
840.082 0.00883781 0 -18.1208
846.13 0.00256948 0 -18.0787
505.439 0.00582179 0 -23.9212
671.822 0.00967051 0 -21.5378
843.106 0.00570887 0 -18.1
676.659 0.00180277 0 -21.5041
674.24 0.0057433 0 -21.5211
503.626 0.0103439 0 -23.9337
499.999 0.0193415 0 -23.9579
834.034 0.015064 0 -18.1612
840.082 0.00883781 0 -18.1208
501.813 0.0148505 0 -23.9459
666.984 0.0174847 0 -21.57
837.058 0.0119562 0 -18.1412
671.822 0.00967051 0 -21.5378
669.403 0.0135843 0 -21.5541
499.999 0.0193415 0 -23.9579
496.373 0.0282767 0 -23.981
827.986 0.0212476 0 -18.1998
834.034 0.015064 0 -18.1612
498.186 0.0238169 0 -23.9695
662.147 0.0252449 0 -21.6009
831.01 0.0181612 0 -18.1807
666.984 0.0174847 0 -21.57
664.566 0.0213716 0 -21.5856
496.373 0.0282767 0 -23.981
492.746 0.0371491 0 -24.003
821.938 0.0273878 0 -18.2366
827.986 0.0212476 0 -18.1998
494.56 0.0327208 0 -23.9921
657.31 0.0329505 0 -21.6303
824.962 0.0243232 0 -18.2184
662.147 0.0252449 0 -21.6009
659.729 0.0291046 0 -21.6157
492.746 0.0371491 0 -24.003
489.12 0.0459583 0 -24.024
815.89 0.0334843 0 -18.2716
821.938 0.0273878 0 -18.2366
490.933 0.0415616 0 -24.0136
652.473 0.0406012 0 -21.6583
818.914 0.0304416 0 -18.2543
657.31 0.0329506 0 -21.6303
654.892 0.0367828 0 -21.6445
489.12 0.0459583 0 -24.024
485.493 0.0547039 0 -24.0439
809.842 0.0395363 0 -18.3049
815.89 0.0334843 0 -18.2716
487.307 0.0503391 0 -24.034
647.636 0.0481965 0 -21.6849
812.866 0.0365159 0 -18.2885
652.473 0.0406012 0 -21.6583
650.055 0.0444058 0 -21.6717
485.493 0.0547039 0 -24.0439
481.867 0.0633857 0 -24.0627
803.794 0.0455435 0 -18.3364
809.842 0.0395363 0 -18.3049
483.68 0.0590528 0 -24.0534
642.799 0.0557359 0 -21.7101
806.818 0.0425455 0 -18.3209
647.636 0.0481965 0 -21.6849
645.218 0.0519732 0 -21.6976
481.867 0.0633857 0 -24.0627
478.24 0.0720032 0 -24.0806
797.746 0.0515051 0 -18.3663
803.794 0.0455435 0 -18.3364
480.054 0.0677025 0 -24.0718
637.962 0.0632191 0 -21.7339
800.77 0.04853 0 -18.3516
642.799 0.0557359 0 -21.7101
640.381 0.0594846 0 -21.7222
478.24 0.0720032 0 -24.0806
474.614 0.0805562 0 -24.0974
791.698 0.0574208 0 -18.3944
797.746 0.0515051 0 -18.3663
476.427 0.0762878 0 -24.0891
633.126 0.0706454 0 -21.7563
794.722 0.0544687 0 -18.3805
637.962 0.0632191 0 -21.7339
635.544 0.0669394 0 -21.7453
474.614 0.0805562 0 -24.0974
470.987 0.0890443 0 -24.1132
785.65 0.06329 0 -18.4208
791.698 0.0574208 0 -18.3944
472.801 0.0848084 0 -24.1054
628.289 0.0780147 0 -21.7774
788.674 0.0603613 0 -18.4078
633.126 0.0706454 0 -21.7563
630.707 0.0743372 0 -21.7671
470.987 0.0890443 0 -24.1132
467.361 0.0974672 0 -24.128
779.603 0.0691123 0 -18.4455
785.65 0.06329 0 -18.4208
469.174 0.093264 0 -24.1207
623.452 0.0853264 0 -21.7972
782.627 0.0662071 0 -18.4333
628.289 0.0780147 0 -21.7774
625.87 0.0816777 0 -21.7875
467.361 0.0974672 0 -24.128
463.735 0.105825 0 -24.1417
773.555 0.0748871 0 -18.4685
779.603 0.0691123 0 -18.4455
465.548 0.101654 0 -24.135
618.615 0.0925801 0 -21.8156
776.579 0.0720057 0 -18.4572
623.452 0.0853264 0 -21.7972
621.033 0.0889605 0 -21.8065
463.735 0.105825 0 -24.1417
460.108 0.114116 0 -24.1545
767.508 0.080614 0 -18.4899
773.555 0.0748871 0 -18.4685
461.921 0.109979 0 -24.1482
613.778 0.0997756 0 -21.8326
770.531 0.0777566 0 -18.4794
618.615 0.0925801 0 -21.8156
616.197 0.0961852 0 -21.8243
460.108 0.114116 0 -24.1545
456.482 0.122342 0 -24.1663
761.46 0.0862926 0 -18.5096
767.508 0.080614 0 -18.4899
458.295 0.118237 0 -24.1605
608.942 0.106912 0 -21.8484
764.484 0.0834594 0 -18.4999
613.778 0.0997756 0 -21.8326
611.36 0.103351 0 -21.8407
456.482 0.122342 0 -24.1663
452.855 0.130501 0 -24.1771
755.413 0.0919224 0 -18.5277
761.46 0.0862926 0 -18.5096
454.669 0.12643 0 -24.1718
604.105 0.11399 0 -21.8628
758.436 0.0891136 0 -18.5189
608.942 0.106912 0 -21.8484
606.523 0.110459 0 -21.8558
452.855 0.130501 0 -24.1771
449.229 0.138593 0 -24.1869
749.365 0.0975029 0 -18.5442
755.413 0.0919224 0 -18.5277
451.042 0.134555 0 -24.1821
599.268 0.121008 0 -21.876
752.389 0.0947188 0 -18.5361
604.105 0.11399 0 -21.8628
601.687 0.117507 0 -21.8696
449.229 0.138593 0 -24.1869
445.603 0.146619 0 -24.1958
743.318 0.103034 0 -18.559
749.365 0.0975029 0 -18.5442
447.416 0.142614 0 -24.1915
594.432 0.127967 0 -21.8878
746.341 0.100275 0 -18.5518
599.268 0.121008 0 -21.876
596.85 0.124495 0 -21.8821
445.603 0.146619 0 -24.1958
441.976 0.154577 0 -24.2037
737.27 0.108515 0 -18.5723
743.318 0.103034 0 -18.559
443.79 0.150606 0 -24.1999
589.595 0.134865 0 -21.8984
740.294 0.105781 0 -18.5658
594.432 0.127967 0 -21.8878
592.013 0.131424 0 -21.8933
441.976 0.154577 0 -24.2037
438.35 0.162468 0 -24.2107
731.223 0.113945 0 -18.584
737.27 0.108515 0 -18.5723
440.163 0.158531 0 -24.2073
584.759 0.141703 0 -21.9077
734.247 0.111236 0 -18.5783
589.595 0.134865 0 -21.8984
587.177 0.138292 0 -21.9032
438.35 0.162468 0 -24.2107
434.724 0.170291 0 -24.2167
725.176 0.119325 0 -18.5941
731.223 0.113945 0 -18.584
436.537 0.166388 0 -24.2138
579.922 0.148481 0 -21.9158
728.2 0.116641 0 -18.5892
584.759 0.141703 0 -21.9077
582.34 0.145099 0 -21.9119
434.724 0.170291 0 -24.2167
431.098 0.178046 0 -24.2218
719.129 0.124653 0 -18.6026
725.176 0.119325 0 -18.5941
432.911 0.174177 0 -24.2193
575.086 0.155197 0 -21.9226
722.152 0.121995 0 -18.5985
579.922 0.148481 0 -21.9158
577.504 0.151846 0 -21.9194
431.098 0.178046 0 -24.2218
427.471 0.185732 0 -24.2259
713.082 0.12993 0 -18.6096
719.129 0.124653 0 -18.6026
429.284 0.181898 0 -24.224
570.249 0.161852 0 -21.9282
716.105 0.127298 0 -18.6063
575.086 0.155197 0 -21.9226
572.667 0.158532 0 -21.9255
427.471 0.185732 0 -24.2259
423.845 0.193351 0 -24.2292
707.035 0.135155 0 -18.6151
713.082 0.12993 0 -18.6096
425.658 0.18955 0 -24.2277
565.413 0.168445 0 -21.9325
710.058 0.132549 0 -18.6126
570.249 0.161852 0 -21.9282
567.831 0.165156 0 -21.9305
423.845 0.193351 0 -24.2292
420.219 0.200901 0 -24.2315
700.988 0.140328 0 -18.6191
707.035 0.135155 0 -18.6151
422.032 0.197134 0 -24.2304
560.576 0.174976 0 -21.9357
704.011 0.137748 0 -18.6173
565.413 0.168445 0 -21.9325
562.995 0.171718 0 -21.9342
420.219 0.200901 0 -24.2315
416.593 0.208382 0 -24.2329
694.941 0.145448 0 -18.6215
700.988 0.140328 0 -18.6191
418.406 0.20465 0 -24.2323
555.74 0.181446 0 -21.9376
697.964 0.142895 0 -18.6205
560.576 0.174976 0 -21.9357
558.158 0.178219 0 -21.9368
416.593 0.208382 0 -24.2329
412.967 0.215793 0 -24.2334
688.894 0.150516 0 -18.6225
694.941 0.145448 0 -18.6215
414.78 0.212096 0 -24.2333
550.904 0.187852 0 -21.9383
691.917 0.147989 0 -18.6222
555.74 0.181446 0 -21.9376
553.322 0.184657 0 -21.9381
412.967 0.215793 0 -24.2334
409.34 0.223136 0 -24.2331
682.847 0.15553 0 -18.6219
688.894 0.150516 0 -18.6225
411.153 0.219473 0 -24.2334
546.067 0.194197 0 -21.9379
685.871 0.153029 0 -18.6224
550.904 0.187852 0 -21.9383
548.486 0.191032 0 -21.9383
409.34 0.223136 0 -24.2331
405.714 0.230409 0 -24.2318
676.8 0.160491 0 -18.6199
682.847 0.15553 0 -18.6219
407.527 0.226781 0 -24.2326
541.231 0.200478 0 -21.9363
679.824 0.158017 0 -18.6211
546.067 0.194197 0 -21.9379
543.649 0.197345 0 -21.9372
405.714 0.230409 0 -24.2318
402.088 0.237613 0 -24.2297
670.754 0.165398 0 -18.6165
676.8 0.160491 0 -18.6199
403.901 0.23402 0 -24.2309
536.395 0.206696 0 -21.9335
673.777 0.162951 0 -18.6184
541.231 0.200478 0 -21.9363
538.813 0.203595 0 -21.935
402.088 0.237613 0 -24.2297
398.462 0.244746 0 -24.2267
664.707 0.170251 0 -18.6116
670.754 0.165398 0 -18.6165
400.275 0.241188 0 -24.2283
531.559 0.212851 0 -21.9296
667.73 0.167831 0 -18.6142
536.395 0.206696 0 -21.9335
533.977 0.209781 0 -21.9317
398.462 0.244746 0 -24.2267
394.836 0.25181 0 -24.2229
658.661 0.17505 0 -18.6053
664.707 0.170251 0 -18.6116
396.649 0.248287 0 -24.2249
526.723 0.218942 0 -21.9245
661.684 0.172657 0 -18.6086
531.559 0.212851 0 -21.9296
529.141 0.215904 0 -21.9272
394.836 0.25181 0 -24.2229
391.21 0.258803 0 -24.2182
652.614 0.179794 0 -18.5976
658.661 0.17505 0 -18.6053
393.023 0.255315 0 -24.2207
521.887 0.224969 0 -21.9183
655.637 0.177429 0 -18.6016
526.723 0.218942 0 -21.9245
524.305 0.221963 0 -21.9215
391.21 0.258803 0 -24.2182
387.584 0.265726 0 -24.2127
646.568 0.184484 0 -18.5885
652.614 0.179794 0 -18.5976
389.397 0.262273 0 -24.2156
517.051 0.230932 0 -21.9109
649.591 0.182146 0 -18.5932
521.887 0.224969 0 -21.9183
519.469 0.227959 0 -21.9147
387.584 0.265726 0 -24.2127
383.958 0.272579 0 -24.2063
640.521 0.189119 0 -18.5779
646.568 0.184484 0 -18.5885
385.771 0.269161 0 -24.2096
512.215 0.236831 0 -21.9025
643.544 0.186808 0 -18.5834
517.051 0.230932 0 -21.9109
514.633 0.23389 0 -21.9069
383.958 0.272579 0 -24.2063
380.332 0.279361 0 -24.1992
634.475 0.193698 0 -18.5661
640.521 0.189119 0 -18.5779
382.145 0.275978 0 -24.2029
507.379 0.242666 0 -21.893
637.498 0.191415 0 -18.5722
512.215 0.236831 0 -21.9025
509.797 0.239757 0 -21.8979
380.332 0.279361 0 -24.1992
376.706 0.286072 0 -24.1912
628.429 0.198222 0 -18.5528
634.475 0.193698 0 -18.5661
378.519 0.282725 0 -24.1953
502.543 0.248436 0 -21.8823
631.452 0.195967 0 -18.5596
507.379 0.242666 0 -21.893
504.961 0.245559 0 -21.8878
376.706 0.286072 0 -24.1912
373.08 0.292712 0 -24.1824
622.383 0.202691 0 -18.5382
628.429 0.198222 0 -18.5528
374.893 0.289401 0 -24.1869
497.707 0.254142 0 -21.8706
625.406 0.200464 0 -18.5457
502.543 0.248436 0 -21.8823
500.125 0.251297 0 -21.8766
373.08 0.292712 0 -24.1824
369.454 0.299281 0 -24.1727
616.336 0.207104 0 -18.5223
622.383 0.202691 0 -18.5382
371.267 0.296005 0 -24.1777
492.871 0.259783 0 -21.8578
619.359 0.204905 0 -18.5304
497.707 0.254142 0 -21.8706
495.289 0.25697 0 -21.8644
369.454 0.299281 0 -24.1727
365.828 0.305779 0 -24.1623
610.29 0.211461 0 -18.505
616.336 0.207104 0 -18.5223
367.641 0.302539 0 -24.1676
488.035 0.265358 0 -21.844
613.313 0.209289 0 -18.5138
492.871 0.259783 0 -21.8578
490.453 0.262579 0 -21.8511
365.828 0.305779 0 -24.1623
362.202 0.312206 0 -24.1512
604.244 0.215762 0 -18.4864
610.29 0.211461 0 -18.505
364.015 0.309001 0 -24.1568
483.2 0.270869 0 -21.8291
607.267 0.213618 0 -18.4959
488.035 0.265358 0 -21.844
485.617 0.268122 0 -21.8367
362.202 0.312206 0 -24.1512
358.576 0.318561 0 -24.1392
598.198 0.220007 0 -18.4665
604.244 0.215762 0 -18.4864
360.389 0.315392 0 -24.1453
478.364 0.276314 0 -21.8132
601.221 0.217891 0 -18.4766
483.2 0.270869 0 -21.8291
480.782 0.2736 0 -21.8213
358.576 0.318561 0 -24.1392
354.95 0.324845 0 -24.1265
592.152 0.224195 0 -18.4454
598.198 0.220007 0 -18.4665
356.763 0.321712 0 -24.1329
473.528 0.281694 0 -21.7962
595.175 0.222108 0 -18.4561
478.364 0.276314 0 -21.8132
475.946 0.279012 0 -21.8048
354.95 0.324845 0 -24.1265
351.325 0.331057 0 -24.113
586.107 0.228327 0 -18.423
592.152 0.224195 0 -18.4454
353.138 0.32796 0 -24.1198
468.692 0.287008 0 -21.7783
589.13 0.226268 0 -18.4343
473.528 0.281694 0 -21.7962
471.11 0.284359 0 -21.7874
351.325 0.331057 0 -24.113
347.699 0.337197 0 -24.0987
580.061 0.232402 0 -18.3993
586.107 0.228327 0 -18.423
349.512 0.334136 0 -24.1059
463.857 0.292257 0 -21.7593
583.084 0.230371 0 -18.4113
468.692 0.287008 0 -21.7783
466.275 0.289641 0 -21.7689
347.699 0.337197 0 -24.0987
344.073 0.343266 0 -24.0837
574.015 0.23642 0 -18.3743
580.061 0.232402 0 -18.3993
345.886 0.340241 0 -24.0913
459.021 0.29744 0 -21.7393
577.038 0.234418 0 -18.387
463.857 0.292257 0 -21.7593
461.439 0.294857 0 -21.7494
344.073 0.343266 0 -24.0837
340.447 0.349263 0 -24.068
567.969 0.240382 0 -18.3482
574.015 0.23642 0 -18.3743
342.26 0.346273 0 -24.0759
454.186 0.302557 0 -21.7184
570.992 0.238408 0 -18.3614
459.021 0.29744 0 -21.7393
456.604 0.300007 0 -21.729
340.447 0.349263 0 -24.068
336.821 0.355188 0 -24.0515
561.924 0.244286 0 -18.3208
567.969 0.240382 0 -18.3482
338.634 0.352234 0 -24.0598
449.35 0.307608 0 -21.6964
564.947 0.242341 0 -18.3346
454.186 0.302557 0 -21.7184
451.768 0.305091 0 -21.7075
336.821 0.355188 0 -24.0515
333.196 0.36104 0 -24.0343
555.878 0.248134 0 -18.2922
561.924 0.244286 0 -18.3208
335.009 0.358123 0 -24.043
444.515 0.312593 0 -21.6735
558.901 0.246217 0 -18.3067
449.35 0.307608 0 -21.6964
446.932 0.310109 0 -21.6851
333.196 0.36104 0 -24.0343
329.57 0.366821 0 -24.0164
549.833 0.251924 0 -18.2624
555.878 0.248134 0 -18.2922
331.383 0.36394 0 -24.0254
439.679 0.317512 0 -21.6497
552.856 0.250036 0 -18.2775
444.515 0.312593 0 -21.6735
442.097 0.315061 0 -21.6617
329.57 0.366821 0 -24.0164
325.944 0.37253 0 -23.9977
543.787 0.255657 0 -18.2315
549.833 0.251924 0 -18.2624
327.757 0.369684 0 -24.0071
434.844 0.322365 0 -21.6249
546.81 0.253798 0 -18.2471
439.679 0.317512 0 -21.6497
437.262 0.319947 0 -21.6374
325.944 0.37253 0 -23.9977
322.319 0.378166 0 -23.9784
537.742 0.259333 0 -18.1993
543.787 0.255657 0 -18.2315
324.131 0.375357 0 -23.9882
430.009 0.327152 0 -21.5992
540.765 0.257502 0 -18.2155
434.844 0.322365 0 -21.6249
432.426 0.324767 0 -21.6121
322.319 0.378166 0 -23.9784
318.693 0.38373 0 -23.9584
531.697 0.262952 0 -18.1661
537.742 0.259333 0 -18.1993
320.506 0.380957 0 -23.9685
425.173 0.331873 0 -21.5725
534.719 0.26115 0 -18.1828
430.009 0.327152 0 -21.5992
427.591 0.329521 0 -21.586
318.693 0.38373 0 -23.9584
315.067 0.389222 0 -23.9377
525.652 0.266513 0 -18.1316
531.697 0.262952 0 -18.1661
316.88 0.386485 0 -23.9481
420.338 0.336527 0 -21.5449
528.674 0.264739 0 -18.149
425.173 0.331873 0 -21.5725
422.756 0.334208 0 -21.5588
315.067 0.389222 0 -23.9377
311.442 0.394642 0 -23.9163
519.606 0.270017 0 -18.0961
525.652 0.266513 0 -18.1316
313.254 0.391941 0 -23.9271
415.503 0.341115 0 -21.5165
522.629 0.268272 0 -18.114
420.338 0.336527 0 -21.5449
417.92 0.338829 0 -21.5308
311.442 0.394642 0 -23.9163
307.816 0.399989 0 -23.8943
513.561 0.273463 0 -18.0594
519.606 0.270017 0 -18.0961
309.629 0.397324 0 -23.9054
410.668 0.345637 0 -21.4871
516.584 0.271747 0 -18.0779
415.503 0.341115 0 -21.5165
413.085 0.343384 0 -21.5019
307.816 0.399989 0 -23.8943
304.19 0.405264 0 -23.8716
507.516 0.276852 0 -18.0216
513.561 0.273463 0 -18.0594
306.003 0.402635 0 -23.883
405.832 0.350092 0 -21.4569
510.539 0.275165 0 -18.0407
410.668 0.345637 0 -21.4871
408.25 0.347873 0 -21.4721
304.19 0.405264 0 -23.8716
300.565 0.410466 0 -23.8482
501.471 0.280184 0 -17.9828
507.516 0.276852 0 -18.0216
302.378 0.407874 0 -23.86
400.997 0.354481 0 -21.4258
504.494 0.278525 0 -18.0023
405.832 0.350092 0 -21.4569
403.415 0.352295 0 -21.4414
300.565 0.410466 0 -23.8482
296.939 0.415596 0 -23.8242
495.426 0.283458 0 -17.9428
501.471 0.280184 0 -17.9828
298.752 0.41304 0 -23.8363
396.162 0.358803 0 -21.3938
498.449 0.281828 0 -17.9629
400.997 0.354481 0 -21.4258
398.58 0.35665 0 -21.4099
296.939 0.415596 0 -23.8242
293.314 0.420654 0 -23.7996
489.381 0.286675 0 -17.9018
495.426 0.283458 0 -17.9428
295.127 0.418134 0 -23.812
391.327 0.363059 0 -21.361
492.404 0.285073 0 -17.9225
396.162 0.358803 0 -21.3938
393.745 0.36094 0 -21.3775
293.314 0.420654 0 -23.7996
289.688 0.425639 0 -23.7743
483.337 0.289834 0 -17.8598
489.381 0.286675 0 -17.9018
291.501 0.423155 0 -23.787
386.492 0.367249 0 -21.3273
486.359 0.288261 0 -17.8809
391.327 0.363059 0 -21.361
388.91 0.365163 0 -21.3442
289.688 0.425639 0 -23.7743
286.063 0.430552 0 -23.7484
477.292 0.292936 0 -17.8167
483.337 0.289834 0 -17.8598
287.876 0.428104 0 -23.7614
381.657 0.371372 0 -21.2928
480.314 0.291392 0 -17.8384
386.492 0.367249 0 -21.3273
384.075 0.369319 0 -21.3101
286.063 0.430552 0 -23.7484
282.437 0.435392 0 -23.7219
471.247 0.29598 0 -17.7726
477.292 0.292936 0 -17.8167
284.25 0.432981 0 -23.7352
376.822 0.375429 0 -21.2575
474.269 0.294465 0 -17.7948
381.657 0.371372 0 -21.2928
379.24 0.373409 0 -21.2752
282.437 0.435392 0 -23.7219
278.812 0.44016 0 -23.6948
465.202 0.298967 0 -17.7274
471.247 0.29598 0 -17.7726
280.625 0.437785 0 -23.7084
371.987 0.37942 0 -21.2214
468.225 0.297481 0 -17.7501
376.822 0.375429 0 -21.2575
374.405 0.377433 0 -21.2395
278.812 0.44016 0 -23.6948
275.186 0.444855 0 -23.6671
459.158 0.301897 0 -17.6813
465.202 0.298967 0 -17.7274
276.999 0.442517 0 -23.681
367.152 0.383344 0 -21.1844
462.18 0.300439 0 -17.7045
371.987 0.37942 0 -21.2214
369.57 0.38139 0 -21.203
275.186 0.444855 0 -23.6671
271.561 0.449478 0 -23.6388
453.113 0.30477 0 -17.6342
459.158 0.301897 0 -17.6813
273.374 0.447176 0 -23.653
362.318 0.387202 0 -21.1467
456.136 0.303341 0 -17.6579
367.152 0.383344 0 -21.1844
364.735 0.385282 0 -21.1657
271.561 0.449478 0 -23.6388
267.936 0.454029 0 -23.6099
447.069 0.307585 0 -17.5861
453.113 0.30477 0 -17.6342
269.748 0.451763 0 -23.6244
357.483 0.390994 0 -21.1082
450.091 0.306185 0 -17.6103
362.318 0.387202 0 -21.1467
359.9 0.389107 0 -21.1276
267.936 0.454029 0 -23.6099
264.31 0.458507 0 -23.5804
441.024 0.310344 0 -17.5371
447.069 0.307585 0 -17.5861
266.123 0.456277 0 -23.5952
352.648 0.39472 0 -21.069
444.047 0.308972 0 -17.5617
357.483 0.390994 0 -21.1082
355.065 0.392865 0 -21.0887
264.31 0.458507 0 -23.5804
260.685 0.462913 0 -23.5504
434.98 0.313045 0 -17.4871
441.024 0.310344 0 -17.5371
262.498 0.460719 0 -23.5655
347.813 0.398379 0 -21.029
438.002 0.311701 0 -17.5122
352.648 0.39472 0 -21.069
350.231 0.396558 0 -21.0491
260.685 0.462913 0 -23.5504
257.06 0.467247 0 -23.5198
428.936 0.315689 0 -17.4362
434.98 0.313045 0 -17.4871
258.872 0.465089 0 -23.5352
342.979 0.401973 0 -20.9882
431.958 0.314374 0 -17.4617
347.813 0.398379 0 -21.029
345.396 0.400184 0 -21.0087
257.06 0.467247 0 -23.5198
253.434 0.471509 0 -23.4887
422.892 0.318277 0 -17.3843
428.936 0.315689 0 -17.4362
255.247 0.469387 0 -23.5043
338.144 0.4055 0 -20.9467
425.914 0.31699 0 -17.4104
342.979 0.401973 0 -20.9882
340.561 0.403745 0 -20.9675
253.434 0.471509 0 -23.4887
249.809 0.475698 0 -23.457
416.847 0.320808 0 -17.3316
422.892 0.318277 0 -17.3843
251.622 0.473612 0 -23.4729
333.309 0.408962 0 -20.9045
419.869 0.319549 0 -17.3581
338.144 0.4055 0 -20.9467
335.727 0.407239 0 -20.9257
249.809 0.475698 0 -23.457
246.184 0.479815 0 -23.4247
410.803 0.323282 0 -17.2779
416.847 0.320808 0 -17.3316
247.996 0.477766 0 -23.4409
328.475 0.412357 0 -20.8615
413.825 0.322052 0 -17.3049
333.309 0.408962 0 -20.9045
330.892 0.410668 0 -20.8831
246.184 0.479815 0 -23.4247
242.558 0.48386 0 -23.392
404.759 0.325699 0 -17.2234
410.803 0.323282 0 -17.2779
244.371 0.481847 0 -23.4084
323.64 0.415687 0 -20.8179
407.781 0.324498 0 -17.2508
328.475 0.412357 0 -20.8615
326.058 0.41403 0 -20.8398
242.558 0.48386 0 -23.392
238.933 0.487833 0 -23.3587
398.715 0.32806 0 -17.168
404.759 0.325699 0 -17.2234
240.746 0.485856 0 -23.3754
318.806 0.418951 0 -20.7736
401.737 0.326887 0 -17.1958
323.64 0.415687 0 -20.8179
321.223 0.417327 0 -20.7958
238.933 0.487833 0 -23.3587
235.308 0.491734 0 -23.3249
392.671 0.330365 0 -17.1118
398.715 0.32806 0 -17.168
237.12 0.489793 0 -23.3419
313.971 0.42215 0 -20.7285
395.693 0.32922 0 -17.14
318.806 0.418951 0 -20.7736
316.389 0.420559 0 -20.7511
235.308 0.491734 0 -23.3249
231.683 0.495564 0 -23.2906
386.627 0.332614 0 -17.0547
392.671 0.330365 0 -17.1118
233.495 0.493658 0 -23.3078
309.137 0.425283 0 -20.6828
389.649 0.331497 0 -17.0833
313.971 0.42215 0 -20.7285
311.554 0.423724 0 -20.7058
231.683 0.495564 0 -23.2906
228.057 0.499321 0 -23.2558
380.583 0.334807 0 -16.9967
386.627 0.332614 0 -17.0547
229.87 0.497451 0 -23.2733
304.302 0.42835 0 -20.6365
383.605 0.333717 0 -17.0258
309.137 0.425283 0 -20.6828
306.72 0.426825 0 -20.6597
228.057 0.499321 0 -23.2558
224.432 0.503007 0 -23.2206
374.54 0.336943 0 -16.938
380.583 0.334807 0 -16.9967
226.245 0.501173 0 -23.2383
299.468 0.431353 0 -20.5895
377.562 0.335882 0 -16.9675
304.302 0.42835 0 -20.6365
301.885 0.42986 0 -20.6131
224.432 0.503007 0 -23.2206
220.807 0.506621 0 -23.1848
368.496 0.339024 0 -16.8785
374.54 0.336943 0 -16.938
222.62 0.504823 0 -23.2027
294.634 0.43429 0 -20.5418
371.518 0.337991 0 -16.9083
299.468 0.431353 0 -20.5895
297.051 0.43283 0 -20.5657
220.807 0.506621 0 -23.1848
217.182 0.510163 0 -23.1486
362.452 0.34105 0 -16.8181
368.496 0.339024 0 -16.8785
218.994 0.508401 0 -23.1667
289.799 0.437162 0 -20.4935
365.474 0.340044 0 -16.8484
294.634 0.43429 0 -20.5418
292.217 0.435734 0 -20.5177
217.182 0.510163 0 -23.1486
213.557 0.513634 0 -23.1119
356.409 0.34302 0 -16.757
362.452 0.34105 0 -16.8181
215.369 0.511907 0 -23.1303
284.965 0.43997 0 -20.4446
359.43 0.342042 0 -16.7877
289.799 0.437162 0 -20.4935
287.382 0.438574 0 -20.4691
213.557 0.513634 0 -23.1119
209.932 0.517033 0 -23.0747
350.365 0.344934 0 -16.6951
356.409 0.34302 0 -16.757
211.744 0.515342 0 -23.0933
280.131 0.442712 0 -20.3951
353.387 0.343984 0 -16.7262
284.965 0.43997 0 -20.4446
282.548 0.441349 0 -20.4199
209.932 0.517033 0 -23.0747
206.307 0.520361 0 -23.0371
344.322 0.346794 0 -16.6325
350.365 0.344934 0 -16.6951
208.119 0.518706 0 -23.056
275.297 0.44539 0 -20.345
347.343 0.345871 0 -16.6639
280.131 0.442712 0 -20.3951
277.714 0.444059 0 -20.3701
206.307 0.520361 0 -23.0371
202.681 0.523618 0 -22.999
338.278 0.348599 0 -16.5691
344.322 0.346794 0 -16.6325
204.494 0.521999 0 -23.0181
270.463 0.448003 0 -20.2943
341.3 0.347703 0 -16.6009
275.297 0.44539 0 -20.345
272.88 0.446704 0 -20.3197
202.681 0.523618 0 -22.999
199.056 0.526804 0 -22.9606
332.235 0.350349 0 -16.5051
338.278 0.348599 0 -16.5691
200.869 0.52522 0 -22.9799
265.628 0.450552 0 -20.243
335.256 0.349481 0 -16.5372
270.463 0.448003 0 -20.2943
268.046 0.449285 0 -20.2687
199.056 0.526804 0 -22.9606
195.431 0.529919 0 -22.9216
326.191 0.352044 0 -16.4402
332.235 0.350349 0 -16.5051
197.244 0.52837 0 -22.9412
260.794 0.453036 0 -20.1911
329.213 0.351203 0 -16.4727
265.628 0.450552 0 -20.243
263.211 0.451802 0 -20.2171
195.431 0.529919 0 -22.9216
191.806 0.532963 0 -22.8823
320.148 0.353686 0 -16.3747
326.191 0.352044 0 -16.4402
193.619 0.53145 0 -22.902
255.96 0.455457 0 -20.1387
323.17 0.352872 0 -16.4076
260.794 0.453036 0 -20.1911
258.377 0.454255 0 -20.165
191.806 0.532963 0 -22.8823
188.181 0.535936 0 -22.8426
314.105 0.355273 0 -16.3086
320.148 0.353686 0 -16.3747
189.994 0.534458 0 -22.8625
251.126 0.457814 0 -20.0857
317.126 0.354486 0 -16.3417
255.96 0.455457 0 -20.1387
253.543 0.456643 0 -20.1123
188.181 0.535936 0 -22.8426
184.556 0.538838 0 -22.8024
308.062 0.356806 0 -16.2417
314.105 0.355273 0 -16.3086
186.369 0.537396 0 -22.8225
246.292 0.460107 0 -20.0322
311.083 0.356046 0 -16.2752
251.126 0.457814 0 -20.0857
248.709 0.458968 0 -20.059
184.556 0.538838 0 -22.8024
180.931 0.54167 0 -22.7619
302.019 0.358285 0 -16.1742
308.062 0.356806 0 -16.2417
182.744 0.540263 0 -22.7822
241.458 0.462336 0 -19.9781
305.04 0.357552 0 -16.208
246.292 0.460107 0 -20.0322
243.875 0.461229 0 -20.0052
180.931 0.54167 0 -22.7619
177.306 0.544431 0 -22.7209
295.975 0.359711 0 -16.106
302.019 0.358285 0 -16.1742
179.119 0.543059 0 -22.7414
236.624 0.464502 0 -19.9236
298.997 0.359005 0 -16.1402
241.458 0.462336 0 -19.9781
239.041 0.463427 0 -19.9509
177.306 0.544431 0 -22.7209
173.681 0.547122 0 -22.6796
289.932 0.361084 0 -16.0372
295.975 0.359711 0 -16.106
175.494 0.545785 0 -22.7003
231.79 0.466604 0 -19.8685
292.954 0.360404 0 -16.0717
236.624 0.464502 0 -19.9236
234.207 0.465561 0 -19.8961
173.681 0.547122 0 -22.6796
170.056 0.549743 0 -22.6379
283.889 0.362403 0 -15.9677
289.932 0.361084 0 -16.0372
171.869 0.548441 0 -22.6588
226.957 0.468644 0 -19.813
286.911 0.36175 0 -16.0025
231.79 0.466604 0 -19.8685
229.373 0.467632 0 -19.8408
170.056 0.549743 0 -22.6379
166.431 0.552294 0 -22.5959
277.847 0.36367 0 -15.8977
283.889 0.362403 0 -15.9677
168.244 0.551027 0 -22.6169
222.123 0.47062 0 -19.7569
280.868 0.363043 0 -15.9328
226.957 0.468644 0 -19.813
224.54 0.46964 0 -19.785
166.431 0.552294 0 -22.5959
162.806 0.554775 0 -22.5535
271.804 0.364884 0 -15.8271
277.847 0.36367 0 -15.8977
164.619 0.553543 0 -22.5747
217.289 0.472534 0 -19.7004
274.825 0.364284 0 -15.8625
222.123 0.47062 0 -19.7569
219.706 0.471585 0 -19.7287
162.806 0.554775 0 -22.5535
159.181 0.557186 0 -22.5107
265.761 0.366046 0 -15.7559
271.804 0.364884 0 -15.8271
160.994 0.555989 0 -22.5321
212.455 0.474386 0 -19.6434
268.782 0.365472 0 -15.7915
217.289 0.472534 0 -19.7004
214.872 0.473468 0 -19.6719
159.181 0.557186 0 -22.5107
155.556 0.559527 0 -22.4676
259.718 0.367156 0 -15.6841
265.761 0.366046 0 -15.7559
157.369 0.558365 0 -22.4892
207.621 0.476175 0 -19.5859
262.739 0.366608 0 -15.72
212.455 0.474386 0 -19.6434
210.038 0.475288 0 -19.6147
155.556 0.559527 0 -22.4676
151.932 0.561799 0 -22.4242
253.675 0.368214 0 -15.6117
259.718 0.367156 0 -15.6841
153.744 0.560672 0 -22.4459
202.788 0.477902 0 -19.528
256.697 0.367692 0 -15.648
207.621 0.476175 0 -19.5859
205.204 0.477046 0 -19.557
151.932 0.561799 0 -22.4242
148.307 0.564001 0 -22.3804
247.633 0.369221 0 -15.5388
253.675 0.368214 0 -15.6117
150.119 0.562909 0 -22.4023
197.954 0.479567 0 -19.4697
250.654 0.368724 0 -15.5753
202.788 0.477902 0 -19.528
200.371 0.478742 0 -19.4989
148.307 0.564001 0 -22.3804
144.682 0.566135 0 -22.3363
241.59 0.370176 0 -15.4654
247.633 0.369221 0 -15.5388
146.494 0.565077 0 -22.3584
193.12 0.48117 0 -19.411
244.611 0.369705 0 -15.5022
197.954 0.479567 0 -19.4697
195.537 0.480376 0 -19.4404
144.682 0.566135 0 -22.3363
141.057 0.568199 0 -22.2919
235.547 0.37108 0 -15.3915
241.59 0.370176 0 -15.4654
142.869 0.567176 0 -22.3142
188.287 0.482712 0 -19.3518
238.569 0.370634 0 -15.4285
193.12 0.48117 0 -19.411
190.703 0.481949 0 -19.3814
141.057 0.568199 0 -22.2919
137.432 0.570194 0 -22.2472
229.505 0.371933 0 -15.317
235.547 0.37108 0 -15.3915
139.245 0.569205 0 -22.2696
183.453 0.484192 0 -19.2922
232.526 0.371513 0 -15.3543
188.287 0.482712 0 -19.3518
185.87 0.48346 0 -19.3221
137.432 0.570194 0 -22.2472
133.807 0.572121 0 -22.2022
223.462 0.372736 0 -15.2421
229.505 0.371933 0 -15.317
135.62 0.571166 0 -22.2248
178.619 0.485612 0 -19.2323
226.484 0.372341 0 -15.2796
183.453 0.484192 0 -19.2922
181.036 0.48491 0 -19.2623
133.807 0.572121 0 -22.2022
130.182 0.573979 0 -22.157
217.42 0.373489 0 -15.1667
223.462 0.372736 0 -15.2421
131.995 0.573058 0 -22.1796
173.786 0.48697 0 -19.1719
220.441 0.373119 0 -15.2045
178.619 0.485612 0 -19.2323
176.203 0.486299 0 -19.2021
130.182 0.573979 0 -22.157
126.558 0.575768 0 -22.1114
211.378 0.374191 0 -15.0908
217.42 0.373489 0 -15.1667
128.37 0.574882 0 -22.1342
168.952 0.488268 0 -19.1112
214.399 0.373846 0 -15.1288
173.786 0.48697 0 -19.1719
171.369 0.487627 0 -19.1416
126.558 0.575768 0 -22.1114
122.933 0.577489 0 -22.0656
205.335 0.374844 0 -15.0145
211.378 0.374191 0 -15.0908
124.745 0.576637 0 -22.0885
164.119 0.489505 0 -19.0501
208.356 0.374524 0 -15.0527
168.952 0.488268 0 -19.1112
166.535 0.488894 0 -19.0807
122.933 0.577489 0 -22.0656
119.308 0.579142 0 -22.0195
199.293 0.375448 0 -14.9377
205.335 0.374844 0 -15.0145
121.12 0.578324 0 -22.0426
159.285 0.490682 0 -18.9887
202.314 0.375152 0 -14.9761
164.119 0.489505 0 -19.0501
161.702 0.490101 0 -19.0194
119.308 0.579142 0 -22.0195
115.683 0.580727 0 -21.9731
193.251 0.376002 0 -14.8605
199.293 0.375448 0 -14.9377
117.496 0.579943 0 -21.9964
154.452 0.491799 0 -18.9269
196.272 0.375731 0 -14.8992
159.285 0.490682 0 -18.9887
156.869 0.491248 0 -18.9578
115.683 0.580727 0 -21.9731
112.058 0.582243 0 -21.9266
187.209 0.376507 0 -14.7829
193.251 0.376002 0 -14.8605
113.871 0.581493 0 -21.9499
149.618 0.492856 0 -18.8648
190.23 0.376261 0 -14.8217
154.452 0.491799 0 -18.9269
152.035 0.492335 0 -18.8959
112.058 0.582243 0 -21.9266
108.434 0.583691 0 -21.8797
181.166 0.376964 0 -14.7049
187.209 0.376507 0 -14.7829
110.246 0.582975 0 -21.9032
144.785 0.493853 0 -18.8024
184.187 0.376742 0 -14.7439
149.618 0.492856 0 -18.8648
147.202 0.493362 0 -18.8336
108.434 0.583691 0 -21.8797
104.809 0.585071 0 -21.8327
175.124 0.377372 0 -14.6265
181.166 0.376964 0 -14.7049
106.621 0.584389 0 -21.8562
139.952 0.49479 0 -18.7396
178.145 0.377174 0 -14.6657
144.785 0.493853 0 -18.8024
142.368 0.494329 0 -18.771
104.809 0.585071 0 -21.8327
101.184 0.586382 0 -21.7854
169.082 0.377732 0 -14.5477
175.124 0.377372 0 -14.6265
102.997 0.585735 0 -21.809
135.118 0.495667 0 -18.6766
172.103 0.377558 0 -14.5871
139.952 0.49479 0 -18.7396
137.535 0.495236 0 -18.7081
101.184 0.586382 0 -21.7854
97.5594 0.587624 0 -21.7379
163.04 0.378044 0 -14.4686
169.082 0.377732 0 -14.5477
99.3718 0.587012 0 -21.7616
130.285 0.496484 0 -18.6133
166.061 0.377894 0 -14.5082
135.118 0.495667 0 -18.6766
132.702 0.496083 0 -18.645
97.5594 0.587624 0 -21.7379
93.9347 0.588797 0 -21.6902
156.998 0.378307 0 -14.3891
163.04 0.378044 0 -14.4686
95.7471 0.588219 0 -21.714
125.452 0.49724 0 -18.5497
160.019 0.378181 0 -14.4289
130.285 0.496484 0 -18.6133
127.868 0.49687 0 -18.5815
93.9347 0.588797 0 -21.6902
90.31 0.5899 0 -21.6422
150.956 0.378522 0 -14.3093
156.998 0.378307 0 -14.3891
92.1224 0.589357 0 -21.6662
120.618 0.497936 0 -18.4858
153.977 0.37842 0 -14.3492
125.452 0.49724 0 -18.5497
123.035 0.497596 0 -18.5178
90.31 0.5899 0 -21.6422
86.6853 0.590931 0 -21.5941
144.914 0.378687 0 -14.2291
150.956 0.378522 0 -14.3093
88.4977 0.590424 0 -21.6182
115.785 0.498569 0 -18.4217
147.935 0.378611 0 -14.2692
120.618 0.497936 0 -18.4858
118.202 0.49826 0 -18.4538
86.6853 0.590931 0 -21.5941
83.0606 0.591888 0 -21.5459
138.872 0.378803 0 -14.1487
144.914 0.378687 0 -14.2291
84.873 0.591419 0 -21.57
110.952 0.499138 0 -18.3573
141.893 0.378751 0 -14.1889
115.785 0.498569 0 -18.4217
113.368 0.498861 0 -18.3895
83.0606 0.591888 0 -21.5459
79.436 0.59277 0 -21.4974
132.831 0.378867 0 -14.068
138.872 0.378803 0 -14.1487
81.2483 0.592339 0 -21.5217
106.119 0.49964 0 -18.2927
135.851 0.378841 0 -14.1084
110.952 0.499138 0 -18.3573
108.535 0.499397 0 -18.3251
79.436 0.59277 0 -21.4974
75.8113 0.593576 0 -21.4488
126.789 0.378877 0 -13.987
132.831 0.378867 0 -14.068
77.6237 0.593183 0 -21.4731
101.285 0.500074 0 -18.2279
129.81 0.378879 0 -14.0275
106.119 0.49964 0 -18.2927
103.702 0.499866 0 -18.2604
75.8113 0.593576 0 -21.4488
72.1868 0.594309 0 -21.4
120.747 0.378833 0 -13.9058
126.789 0.378877 0 -13.987
73.9991 0.593951 0 -21.4244
96.4524 0.500439 0 -18.1629
123.768 0.378862 0 -13.9464
101.285 0.500074 0 -18.2279
98.8689 0.500265 0 -18.1955
72.1868 0.594309 0 -21.4
68.5623 0.594983 0 -21.351
114.705 0.378738 0 -13.8243
120.747 0.378833 0 -13.9058
70.3745 0.594652 0 -21.3755
91.6193 0.500742 0 -18.0977
117.726 0.378791 0 -13.8651
96.4524 0.500439 0 -18.1629
94.0358 0.500597 0 -18.1304
68.5623 0.594983 0 -21.351
64.9379 0.59565 0 -21.3019
108.664 0.378606 0 -13.7426
114.705 0.378738 0 -13.8243
66.7501 0.595311 0 -21.3265
86.7864 0.501018 0 -18.0323
111.685 0.378676 0 -13.7835
91.6193 0.500742 0 -18.0977
89.2029 0.50088 0 -18.0651
64.9379 0.59565 0 -21.3019
61.3136 0.596421 0 -21.2525
102.622 0.378484 0 -13.6607
108.664 0.378606 0 -13.7426
63.1258 0.59601 0 -21.2772
81.9537 0.501351 0 -17.9667
105.643 0.378538 0 -13.7017
86.7864 0.501018 0 -18.0323
84.37 0.501167 0 -17.9995
61.3136 0.596421 0 -21.2525
57.6894 0.597592 0 -21.2028
96.581 0.378478 0 -13.5784
102.622 0.378484 0 -13.6607
59.5015 0.596925 0 -21.2277
77.1211 0.501959 0 -17.9006
99.6016 0.378457 0 -13.6196
81.9537 0.501351 0 -17.9667
79.5374 0.501601 0 -17.9337
57.6894 0.597592 0 -21.2028
54.0649 0.59972 0 -21.1528
90.5402 0.378863 0 -13.4954
96.581 0.378478 0 -13.5784
55.8773 0.59848 0 -21.1779
72.2887 0.503297 0 -17.8338
93.5605 0.378592 0 -13.537
77.1211 0.501959 0 -17.9006
74.7049 0.502482 0 -17.8673
54.0649 0.59972 0 -21.1528
50.4398 0.604091 0 -21.102
84.5 0.380145 0 -13.4111
90.5402 0.378863 0 -13.4954
52.2524 0.601496 0 -21.1275
67.4563 0.506384 0 -17.7658
87.52 0.379347 0 -13.4535
72.2887 0.503297 0 -17.8338
69.8725 0.50454 0 -17.8
50.4398 0.604091 0 -21.102
46.8117 0.612855 0 -21.0502
78.4613 0.38352 0 -13.324
84.5 0.380145 0 -13.4111
48.6263 0.607713 0 -21.0762
62.6231 0.513048 0 -17.6951
81.4803 0.381453 0 -13.3681
67.4563 0.506384 0 -17.7658
65.0398 0.509043 0 -17.7309
46.8117 0.612855 0 -21.0502
43.1784 0.630665 0 -20.9966
72.424 0.390829 0 -13.2314
78.4613 0.38352 0 -13.324
44.9958 0.620201 0 -21.0237
57.7876 0.527138 0 -17.6193
75.4426 0.38651 0 -13.2786
62.6231 0.513048 0 -17.6951
60.2059 0.518915 0 -17.658
43.1784 0.630665 0 -20.9966
39.5305 0.664107 0 -20.9406
66.391 0.406466 0 -13.127
72.424 0.390829 0 -13.2314
41.3573 0.644797 0 -20.9689
52.946 0.554539 0 -17.5342
69.4065 0.397245 0 -13.1813
57.7876 0.527138 0 -17.6193
55.3678 0.538375 0 -17.5785
39.5305 0.664107 0 -20.9406
35.8582 0.727034 0 -20.8804
60.3593 0.43542 0 -13.0025
66.391 0.406466 0 -13.127
37.6976 0.69078 0 -20.9113
48.0898 0.607262 0 -17.4321
63.3758 0.418697 0 -13.068
52.946 0.554539 0 -17.5342
50.5206 0.577259 0 -17.4855
35.8582 0.727034 0 -20.8804
32.1282 0.83359 0 -20.8169
54.3374 0.491808 0 -12.8374
60.3593 0.43542 0 -13.0025
34.0042 0.773465 0 -20.8487
43.2036 0.699434 0 -17.3013
57.3454 0.459453 0 -12.927
48.0898 0.607262 0 -17.4321
45.6511 0.645949 0 -17.372
32.1282 0.83359 0 -20.8169
28.3133 1.01453 0 -20.7479
48.3029 0.582469 0 -12.6111
54.3374 0.491808 0 -12.8374
30.2312 0.913219 0 -20.7836
38.2541 0.860394 0 -17.1258
51.3256 0.531012 0 -12.7334
43.2036 0.699434 0 -17.3013
40.7408 0.771812 0 -17.2188
28.3133 1.01453 0 -20.7479
24.3138 1.27303 0 -20.6895
42.2784 0.747618 0 -12.2713
48.3029 0.582469 0 -12.6111
26.3487 1.13321 0 -20.715
33.1919 1.10426 0 -16.8872
45.2838 0.656167 0 -12.4604
38.2541 0.860394 0 -17.1258
35.7379 0.965517 0 -17.0191
24.3138 1.27303 0 -20.6895
20.0928 1.63342 0 -20.6521
36.1416 0.958714 0 -11.7968
42.2784 0.747618 0 -12.2713
22.2256 1.44519 0 -20.668
27.9022 1.46945 0 -16.583
39.2421 0.841536 0 -12.0514
33.1919 1.10426 0 -16.8872
30.5919 1.28254 0 -16.7353
20.0928 1.63342 0 -20.6521
15.4363 1.92107 0 -20.7319
29.9316 1.31107 0 -11.1089
36.1416 0.958714 0 -11.7968
17.8496 1.79839 0 -20.666
22.2687 1.85156 0 -16.2537
33.0295 1.13324 0 -11.4859
27.9022 1.46945 0 -16.583
25.1224 1.64752 0 -16.4304
15.4363 1.92107 0 -20.7319
10.5071 1.91036 0 -21.0021
23.0891 1.46208 0 -10.3687
29.9316 1.31107 0 -11.1089
12.9658 2.00486 0 -20.839
15.9618 2.08076 0 -16.1051
26.6625 1.39617 0 -10.7287
22.2687 1.85156 0 -16.2537
19.2605 2.06153 0 -16.1058
10.5071 1.91036 0 -21.0021
5.2517 0.391686 0 -21.7072
15.6496 1.42482 0 -9.84721
23.0891 1.46208 0 -10.3687
7.96329 1.42762 0 -21.2791
8.99734 1.03167 0 -16.6021
19.4045 1.60493 0 -10.0373
15.9618 2.08076 0 -16.1051
12.4927 1.76235 0 -16.2821
5.2517 0.391686 0 -21.7072
1.28996 -4.30734 0 -22.3025
6.02267 -1.59908 0 -11.3886
15.6496 1.42482 0 -9.84721
2.90528 -1.30147 0 -22.0963
1.41472 -3.79713 0 -18.6541
11.3087 0.369086 0 -10.1852
8.99734 1.03167 0 -16.6021
5.41534 -0.423824 0 -17.2576
1.28996 -4.30734 0 -22.3025
-0.936397 -16.124 0 -20.6411
-1.91276 -13.7554 0 -17.4894
6.02267 -1.59908 0 -11.3886
0.0198012 -9.37668 0 -22.0423
-1.28734 -18.4988 0 -20.4973
1.48936 -4.77549 0 -13.523
1.41472 -3.79713 0 -18.6541
-1.41849 -9.79782 0 -20.1373
-0.936397 -16.124 0 -20.6411
-0.984301 -29.9608 0 -11.2138
0.509851 -60.0693 0 -18.4309
-1.91276 -13.7554 0 -17.4894
-1.41979 -23.6278 0 -17.1989
2.01659 -43.0457 0 -10.842
-3.18378 -32.7189 0 -20.869
-1.28734 -18.4988 0 -20.4973
0.154368 -30.2989 0 -17.9739
1115.06 334.185 0 -45.0867
1180.71 127.455 0 -65.8371
1584.76 -29.6345 0 21.7709
2455.95 736.03 0 -585.468
1158.48 240.329 0 -76.2392
1473.14 90.5458 0 -85.3773
1762.73 -33.8733 0 -83.1028
1311.2 392.945 0 -142.007
1454.42 198.511 0 -133.418
1180.71 127.455 0 -65.8371
1198.56 37.8141 0 -31.7194
1569.3 -17.0228 0 6.39296
1584.76 -29.6345 0 21.7709
1197.48 65.497 0 -47.6907
1417.77 13.1057 0 -14.879
1571.51 5.3361 0 9.2898
1473.14 90.5458 0 -85.3773
1435.64 32.5413 0 -34.9755
1198.56 37.8141 0 -31.7194
1183.54 6.59907 0 -12.2517
1598.16 5.4433 0 2.50977
1569.3 -17.0228 0 6.39296
1189.54 18.4999 0 -18.926
1399.03 0.161408 0 -2.19542
1585.95 -10.9803 0 6.40614
1417.77 13.1057 0 -14.879
1407.56 4.79007 0 -7.58676
1183.54 6.59907 0 -12.2517
1173.18 -0.217105 0 -7.99297
1605.1 -1.64356 0 -1.30152
1598.16 5.4433 0 2.50977
1178.95 1.655 0 -9.36966
1390.32 -1.60887 0 -0.470518
1602.05 5.02691 0 -1.46195
1399.03 0.161408 0 -2.19542
1393.02 -1.64196 0 0.150483
1173.18 -0.217105 0 -7.99297
1162.8 -2.75835 0 -7.9195
1610.8 1.79151 0 -0.895966
1605.1 -1.64356 0 -1.30152
1167.15 -1.85818 0 -7.52109
1386.26 -1.48917 0 -2.51614
1609.2 -1.15922 0 -0.417136
1390.32 -1.60887 0 -0.470518
1388.69 -1.39782 0 -1.7642
1162.8 -2.75835 0 -7.9195
1155.62 -2.34223 0 -9.53526
1608.41 -0.294838 0 -1.59121
1610.8 1.79151 0 -0.895966
1159.32 -2.68248 0 -8.76424
1381.31 -1.16163 0 -4.425
1609.75 1.29583 0 -1.64594
1386.26 -1.48917 0 -2.51614
1383.64 -1.43446 0 -3.3717
1155.62 -2.34223 0 -9.53526
1148.69 -1.90284 0 -10.9231
1604.69 0.357403 0 -1.56405
1608.41 -0.294838 0 -1.59121
1151.94 -2.13674 0 -10.2299
1376.06 -0.783549 0 -5.97226
1607.02 -0.241176 0 -1.39849
1381.31 -1.16163 0 -4.425
1378.89 -0.912762 0 -5.32946
1148.69 -1.90284 0 -10.9231
1142.53 -1.29671 0 -12.0847
1598.2 -0.109822 0 -1.86119
1604.69 0.357403 0 -1.56405
1145.64 -1.58118 0 -11.5706
1369.93 -0.56626 0 -7.0331
1601.54 0.231952 0 -1.80721
1376.06 -0.783549 0 -5.97226
1373.01 -0.684433 0 -6.53343
1142.53 -1.29671 0 -12.0847
1136.37 -0.921002 0 -12.8491
1591.04 0.013372 0 -2.00244
1598.2 -0.109822 0 -1.86119
1139.41 -1.09224 0 -12.4972
1363.42 -0.397878 0 -7.7345
1594.76 -0.106521 0 -1.88796
1369.93 -0.56626 0 -7.0331
1366.75 -0.462881 0 -7.4305
1136.37 -0.921002 0 -12.8491
1130.36 -0.647641 0 -13.3848
1583.09 -0.0810357 0 -2.21709
1591.04 0.013372 0 -2.00244
1133.38 -0.767071 0 -13.1477
1356.54 -0.313 0 -8.21106
1587.1 -0.0122483 0 -2.13185
1363.42 -0.397878 0 -7.7345
1359.99 -0.354139 0 -7.99254
1130.36 -0.647641 0 -13.3848
1124.32 -0.492779 0 -13.7381
1574.92 -0.0582641 0 -2.40009
1583.09 -0.0810357 0 -2.21709
1127.33 -0.560803 0 -13.5762
1349.5 -0.255202 0 -8.5397
1579.04 -0.0819695 0 -2.29846
1356.54 -0.313 0 -8.21106
1353.04 -0.278263 0 -8.39013
1124.32 -0.492779 0 -13.7381
1118.3 -0.397628 0 -13.9952
1566.55 -0.0744393 0 -2.5958
1574.92 -0.0582641 0 -2.40009
1121.32 -0.438128 0 -13.8773
1342.34 -0.226599 0 -8.79043
1570.74 -0.0620558 0 -2.50305
1349.5 -0.255202 0 -8.5397
1345.92 -0.239917 0 -8.67223
1118.3 -0.397628 0 -13.9952
1112.27 -0.345478 0 -14.1899
1558.12 -0.0694831 0 -2.78412
1566.55 -0.0744393 0 -2.5958
1115.28 -0.368104 0 -14.0976
1335.13 -0.207926 0 -8.99364
1562.34 -0.0744858 0 -2.68799
1342.34 -0.226599 0 -8.79043
1338.74 -0.21561 0 -8.89628
1112.27 -0.345478 0 -14.1899
1106.23 -0.314601 0 -14.3531
1549.66 -0.0707594 0 -2.97209
1558.12 -0.0694831 0 -2.78412
1109.25 -0.327832 0 -14.2746
1327.89 -0.19755 0 -9.1734
1553.89 -0.069276 0 -2.87945
1335.13 -0.207926 0 -8.99364
1331.51 -0.20243 0 -9.08568
1106.23 -0.314601 0 -14.3531
1100.18 -0.296379 0 -14.4978
1541.18 -0.0687763 0 -3.15649
1549.66 -0.0707594 0 -2.97209
1103.21 -0.304498 0 -14.427
1320.63 -0.190008 0 -9.33922
1545.42 -0.0702498 0 -3.06421
1327.89 -0.19755 0 -9.1734
1324.26 -0.193364 0 -9.25753
1100.18 -0.296379 0 -14.4978
1094.14 -0.284034 0 -14.633
1532.71 -0.0676222 0 -3.33805
1541.18 -0.0687763 0 -3.15649
1097.16 -0.289646 0 -14.5663
1313.37 -0.184396 0 -9.4977
1536.94 -0.0680389 0 -3.24784
1320.63 -0.190008 0 -9.33922
1317 -0.187143 0 -9.41917
1094.14 -0.284034 0 -14.633
1088.09 -0.274744 0 -14.7622
1524.23 -0.0661135 0 -3.51641
1532.71 -0.0676222 0 -3.33805
1091.11 -0.279163 0 -14.6981
1306.11 -0.179397 0 -9.65125
1528.47 -0.0669489 0 -3.42754
1313.37 -0.184396 0 -9.4977
1309.74 -0.181811 0 -9.57497
1088.09 -0.274744 0 -14.7622
1082.04 -0.266725 0 -14.8878
1515.75 -0.0646576 0 -3.69154
1524.23 -0.0661135 0 -3.51641
1085.07 -0.270623 0 -14.8254
1298.85 -0.174728 0 -9.80134
1519.99 -0.0653592 0 -3.6044
1306.11 -0.179397 0 -9.65125
1302.48 -0.177061 0 -9.72668
1082.04 -0.266725 0 -14.8878
1075.99 -0.259271 0 -15.0105
1507.27 -0.0631959 0 -3.86346
1515.75 -0.0646576 0 -3.69154
1079.02 -0.262962 0 -14.9495
1291.59 -0.170131 0 -9.94842
1511.51 -0.0639388 0 -3.77789
1298.85 -0.174728 0 -9.80134
1295.22 -0.172418 0 -9.87523
1075.99 -0.259271 0 -15.0105
1069.94 -0.252002 0 -15.1308
1498.8 -0.0617003 0 -4.03214
1507.27 -0.0631959 0 -3.86346
1072.97 -0.255622 0 -15.071
1284.33 -0.165547 0 -10.0928
1503.04 -0.0624471 0 -3.9482
1291.59 -0.170131 0 -9.94842
1287.96 -0.167844 0 -10.0209
1069.94 -0.252002 0 -15.1308
1063.89 -0.24479 0 -15.2488
1490.32 -0.060201 0 -4.19761
1498.8 -0.0617003 0 -4.03214
1066.92 -0.248394 0 -15.1901
1277.06 -0.160945 0 -10.2344
1494.56 -0.0609539 0 -4.11527
1284.33 -0.165547 0 -10.0928
1280.7 -0.163247 0 -10.1639
1063.89 -0.24479 0 -15.2488
1057.84 -0.237582 0 -15.3645
1481.85 -0.0586655 0 -4.35987
1490.32 -0.060201 0 -4.19761
1060.87 -0.241186 0 -15.3069
1269.8 -0.156322 0 -10.3733
1486.08 -0.0594365 0 -4.27914
1277.06 -0.160945 0 -10.2344
1273.43 -0.158637 0 -10.3042
1057.84 -0.237582 0 -15.3645
1051.8 -0.230368 0 -15.478
1473.37 -0.0571103 0 -4.51896
1481.85 -0.0586655 0 -4.35987
1054.82 -0.233976 0 -15.4215
1262.54 -0.151679 0 -10.5095
1477.61 -0.057891 0 -4.43981
1269.8 -0.156322 0 -10.3733
1266.17 -0.154002 0 -10.4418
1051.8 -0.230368 0 -15.478
1045.75 -0.22315 0 -15.5892
1464.9 -0.0555234 0 -4.67488
1473.37 -0.0571103 0 -4.51896
1048.77 -0.226759 0 -15.5339
1255.28 -0.147022 0 -10.6431
1469.13 -0.0563205 0 -4.59731
1262.54 -0.151679 0 -10.5095
1258.91 -0.149352 0 -10.5766
1045.75 -0.22315 0 -15.5892
1039.7 -0.215935 0 -15.6982
1456.42 -0.0539114 0 -4.82765
1464.9 -0.0555234 0 -4.67488
1042.72 -0.219542 0 -15.644
1248.02 -0.142354 0 -10.774
1460.66 -0.0547206 0 -4.75165
1255.28 -0.147022 0 -10.6431
1251.65 -0.144689 0 -10.7089
1039.7 -0.215935 0 -15.6982
1033.65 -0.208728 0 -15.805
1447.95 -0.0522716 0 -4.97729
1456.42 -0.0539114 0 -4.82765
1036.67 -0.21233 0 -15.7519
1240.75 -0.137678 0 -10.9022
1452.18 -0.0530948 0 -4.90286
1248.02 -0.142354 0 -10.774
1244.39 -0.140017 0 -10.8384
1033.65 -0.208728 0 -15.805
1027.6 -0.201531 0 -15.9096
1439.47 -0.0506068 0 -5.12382
1447.95 -0.0522715 0 -4.97729
1030.62 -0.205128 0 -15.8576
1233.49 -0.132997 0 -11.0277
1443.71 -0.0514422 0 -5.05094
1240.75 -0.137678 0 -10.9022
1237.12 -0.135338 0 -10.9653
1027.6 -0.201531 0 -15.9096
1021.55 -0.194349 0 -16.0119
1431 -0.0489176 0 -5.26726
1439.47 -0.0506068 0 -5.12382
1024.57 -0.197938 0 -15.961
1226.23 -0.128314 0 -11.1506
1435.24 -0.0497652 0 -5.19592
1233.49 -0.132997 0 -11.0277
1229.86 -0.130656 0 -11.0895
1021.55 -0.194349 0 -16.0119
1015.5 -0.187184 0 -16.1121
1422.52 -0.0472056 0 -5.40762
1431 -0.0489176 0 -5.26726
1018.52 -0.190764 0 -16.0623
1218.97 -0.123628 0 -11.2709
1426.76 -0.0480644 0 -5.33782
1226.23 -0.128314 0 -11.1506
1222.6 -0.125971 0 -11.2111
1015.5 -0.187184 0 -16.1121
1009.45 -0.180036 0 -16.2101
1414.05 -0.0454721 0 -5.54493
1422.52 -0.0472056 0 -5.40762
1012.47 -0.183608 0 -16.1614
1211.71 -0.118942 0 -11.3885
1418.29 -0.0463415 0 -5.47666
1218.97 -0.123628 0 -11.2709
1215.34 -0.121285 0 -11.33
1009.45 -0.180036 0 -16.2101
1003.4 -0.172908 0 -16.3059
1405.57 -0.0437186 0 -5.6792
1414.05 -0.0454721 0 -5.54493
1006.42 -0.176469 0 -16.2583
1204.45 -0.114258 0 -11.5035
1409.81 -0.0445978 0 -5.61244
1211.71 -0.118942 0 -11.3885
1208.08 -0.1166 0 -11.4463
1003.4 -0.172908 0 -16.3059
997.35 -0.1658 0 -16.3996
1397.1 -0.0419463 0 -5.81045
1405.57 -0.0437186 0 -5.6792
1000.37 -0.169351 0 -16.353
1197.19 -0.109576 0 -11.616
1401.34 -0.0428347 0 -5.7452
1204.45 -0.114258 0 -11.5035
1200.82 -0.111916 0 -11.5601
997.35 -0.1658 0 -16.3996
991.301 -0.158713 0 -16.4911
1388.63 -0.0401566 0 -5.9387
1397.1 -0.0419462 0 -5.81045
994.326 -0.162254 0 -16.4456
1189.92 -0.104897 0 -11.7259
1392.86 -0.0410535 0 -5.87495
1197.19 -0.109576 0 -11.616
1193.55 -0.107236 0 -11.6712
991.301 -0.158713 0 -16.4911
985.252 -0.151649 0 -16.5805
1380.15 -0.0383508 0 -6.06397
1388.63 -0.0401566 0 -5.9387
988.276 -0.155178 0 -16.5361
1182.66 -0.100223 0 -11.8332
1384.39 -0.0392556 0 -6.00171
1189.92 -0.104897 0 -11.7259
1186.29 -0.10256 0 -11.7798
985.252 -0.151649 0 -16.5805
979.203 -0.144609 0 -16.6678
1371.68 -0.0365303 0 -6.18627
1380.15 -0.0383508 0 -6.06397
982.227 -0.148126 0 -16.6244
1175.4 -0.0955553 0 -11.938
1375.91 -0.0374424 0 -6.12549
1182.66 -0.100223 0 -11.8332
1179.03 -0.0978885 0 -11.8859
979.203 -0.144609 0 -16.6678
973.153 -0.137593 0 -16.753
1363.2 -0.0346964 0 -6.30563
1371.68 -0.0365303 0 -6.18627
976.178 -0.141097 0 -16.7107
1168.14 -0.0908943 0 -12.0402
1367.44 -0.035615 0 -6.24632
1175.4 -0.0955553 0 -11.938
1171.77 -0.0932239 0 -11.9894
973.153 -0.137593 0 -16.753
967.104 -0.130602 0 -16.8361
1354.73 -0.0328503 0 -6.42206
1363.2 -0.0346964 0 -6.30563
970.129 -0.134094 0 -16.7948
1160.88 -0.0862414 0 -12.14
1358.97 -0.0337748 0 -6.36421
1168.14 -0.0908943 0 -12.0402
1164.51 -0.0885668 0 -12.0904
967.104 -0.130602 0 -16.8361
961.055 -0.123638 0 -16.9171
1346.26 -0.0309932 0 -6.53558
1354.73 -0.0328503 0 -6.42206
964.08 -0.127116 0 -16.8768
1153.62 -0.0815977 0 -12.2372
1350.49 -0.031923 0 -6.47918
1160.88 -0.0862414 0 -12.14
1157.25 -0.0839183 0 -12.1889
961.055 -0.123638 0 -16.9171
955.006 -0.116701 0 -16.996
1337.78 -0.0291263 0 -6.6462
1346.26 -0.0309932 0 -6.53558
958.031 -0.120166 0 -16.9568
1146.36 -0.0769641 0 -12.332
1342.02 -0.0300609 0 -6.59125
1153.62 -0.0815977 0 -12.2372
1149.99 -0.0792796 0 -12.2849
955.006 -0.116701 0 -16.996
948.957 -0.109792 0 -17.0729
1329.31 -0.027251 0 -6.75396
1337.78 -0.0291263 0 -6.6462
951.982 -0.113242 0 -17.0347
1139.1 -0.0723419 0 -12.4243
1333.55 -0.0281896 0 -6.70044
1146.36 -0.0769641 0 -12.332
1142.73 -0.0746515 0 -12.3785
948.957 -0.109792 0 -17.0729
942.908 -0.102912 0 -17.1478
1320.84 -0.0253682 0 -6.85885
1329.31 -0.027251 0 -6.75396
945.933 -0.106348 0 -17.1106
1131.83 -0.067732 0 -12.5142
1325.07 -0.0263105 0 -6.80676
1139.1 -0.0723419 0 -12.4243
1135.46 -0.0700354 0 -12.4696
942.908 -0.102912 0 -17.1478
936.859 -0.0960618 0 -17.2206
1312.36 -0.0234793 0 -6.96091
1320.84 -0.0253682 0 -6.85885
939.884 -0.099483 0 -17.1844
1124.57 -0.0631354 0 -12.6016
1316.6 -0.0244245 0 -6.91024
1131.83 -0.067732 0 -12.5142
1128.2 -0.065432 0 -12.5582
936.859 -0.0960618 0 -17.2206
930.81 -0.0892425 0 -17.2914
1303.89 -0.0215854 0 -7.06015
1312.36 -0.0234793 0 -6.96091
933.835 -0.0926483 0 -17.2562
1117.31 -0.058553 0 -12.6866
1308.13 -0.0225329 0 -7.01089
1124.57 -0.0631354 0 -12.6016
1120.94 -0.0608424 0 -12.6444
930.81 -0.0892425 0 -17.2914
924.761 -0.0824548 0 -17.3602
1295.42 -0.0196875 0 -7.1566
1303.89 -0.0215854 0 -7.06015
927.786 -0.0858447 0 -17.3261
1110.05 -0.053986 0 -12.7693
1299.65 -0.0206368 0 -7.10872
1117.31 -0.058553 0 -12.6866
1113.68 -0.0562676 0 -12.7283
924.761 -0.0824548 0 -17.3602
918.713 -0.0756994 0 -17.427
1286.94 -0.0177867 0 -7.25025
1295.42 -0.0196875 0 -7.1566
921.737 -0.079073 0 -17.3939
1102.79 -0.0494351 0 -12.8495
1291.18 -0.0187374 0 -7.20377
1110.05 -0.053986 0 -12.7693
1106.42 -0.0517085 0 -12.8097
918.713 -0.0756994 0 -17.427
912.664 -0.0689772 0 -17.4919
1278.47 -0.0158842 0 -7.34115
1286.94 -0.0177867 0 -7.25025
915.688 -0.0723341 0 -17.4597
1095.53 -0.0449015 0 -12.9274
1282.71 -0.0168356 0 -7.29605
1102.79 -0.0494352 0 -12.8495
1099.16 -0.0471661 0 -12.8887
912.664 -0.0689772 0 -17.4919
906.615 -0.0622888 0 -17.5548
1270 -0.0139809 0 -7.4293
1278.47 -0.0158842 0 -7.34115
909.64 -0.0656287 0 -17.5236
1088.27 -0.0403858 0 -13.0029
1274.23 -0.0149326 0 -7.38556
1095.53 -0.0449015 0 -12.9274
1091.9 -0.0426413 0 -12.9654
906.615 -0.0622888 0 -17.5548
900.566 -0.0556351 0 -17.6157
1261.52 -0.0120781 0 -7.51472
1270 -0.0139809 0 -7.4293
903.591 -0.0589576 0 -17.5855
1081.01 -0.0358891 0 -13.076
1265.76 -0.0130294 0 -7.47235
1088.27 -0.0403858 0 -13.0029
1084.64 -0.0381351 0 -13.0397
900.566 -0.0556351 0 -17.6157
894.518 -0.0490169 0 -17.6747
1253.05 -0.0101765 0 -7.59743
1261.52 -0.0120781 0 -7.51472
897.542 -0.0523215 0 -17.6455
1073.75 -0.0314123 0 -13.1469
1257.29 -0.011127 0 -7.55641
1081.01 -0.0358891 0 -13.076
1077.38 -0.0336482 0 -13.1118
894.518 -0.0490169 0 -17.6747
888.469 -0.0424348 0 -17.7318
1244.58 -0.00827725 0 -7.67745
1253.05 -0.0101765 0 -7.59743
891.494 -0.0457213 0 -17.7035
1066.49 -0.0269562 0 -13.2154
1248.81 -0.00922654 0 -7.63777
1073.75 -0.0314123 0 -13.1469
1070.12 -0.0291817 0 -13.1815
888.469 -0.0424348 0 -17.7318
882.421 -0.0358895 0 -17.787
1236.1 -0.00638136 0 -7.7548
1244.58 -0.00827725 0 -7.67745
885.445 -0.0391575 0 -17.7596
1059.23 -0.0225216 0 -13.2817
1240.34 -0.00732879 0 -7.71645
1066.49 -0.0269562 0 -13.2154
1062.86 -0.0247361 0 -13.2489
882.421 -0.0358895 0 -17.787
876.372 -0.0293819 0 -17.8403
1227.63 -0.00448969 0 -7.82949
1236.1 -0.00638136 0 -7.7548
879.396 -0.032631 0 -17.8138
1051.97 -0.0181094 0 -13.3457
1231.87 -0.00543495 0 -7.79247
1059.23 -0.0225216 0 -13.2817
1055.6 -0.0203127 0 -13.314
876.372 -0.0293819 0 -17.8403
870.324 -0.0229124 0 -17.8916
1219.16 -0.00260328 0 -7.90154
1227.63 -0.00448971 0 -7.82949
873.348 -0.0261423 0 -17.8662
1044.71 -0.0137204 0 -13.4074
1223.4 -0.00354576 0 -7.86584
1051.97 -0.0181094 0 -13.3457
1048.34 -0.015912 0 -13.3768
870.324 -0.0229124 0 -17.8916
864.275 -0.0164819 0 -17.9412
1210.69 -0.000722956 0 -7.97098
1219.16 -0.00260328 0 -7.90154
867.299 -0.0196923 0 -17.9166
1037.45 -0.00935541 0 -13.4669
1214.92 -0.0016623 0 -7.93659
1044.71 -0.0137204 0 -13.4074
1041.08 -0.0115349 0 -13.4374
864.275 -0.0164819 0 -17.9412
858.227 -0.010091 0 -17.9888
1202.22 0.00115031 0 -8.03782
1210.69 -0.000722956 0 -7.97098
861.251 -0.0132815 0 -17.9652
1030.19 -0.00501518 0 -13.5241
1206.45 0.000214631 0 -8.00472
1037.45 -0.00935541 0 -13.4669
1033.82 -0.00718215 0 -13.4958
858.227 -0.010091 0 -17.9888
852.179 -0.00374033 0 -18.0347
1193.74 0.00301568 0 -8.10207
1202.22 0.00115031 0 -8.03782
855.203 -0.0069106 0 -18.012
1022.93 -0.000700472 0 -13.5791
1197.98 0.00208405 0 -8.07027
1030.19 -0.00501518 0 -13.5241
1026.56 -0.00285459 0 -13.5519
852.179 -0.00374033 0 -18.0347
846.13 0.00256948 0 -18.0787
1185.27 0.00487231 0 -8.16376
1193.74 0.00301567 0 -8.10207
849.154 -0.000580272 0 -18.0569
1015.67 0.00358796 0 -13.632
1189.51 0.00394515 0 -8.13324
1022.93 -0.000700469 0 -13.5791
1019.3 0.00144707 0 -13.6058
846.13 0.00256948 0 -18.0787
840.082 0.00883781 0 -18.1208
1176.8 0.00671931 0 -8.22291
1185.27 0.00487231 0 -8.16376
843.106 0.00570887 0 -18.1
1008.41 0.00784938 0 -13.6826
1181.03 0.00579708 0 -8.19365
1015.67 0.00358795 0 -13.632
1012.04 0.00572209 0 -13.6576
840.082 0.00883781 0 -18.1208
834.034 0.015064 0 -18.1612
1168.33 0.00855588 0 -8.27953
1176.8 0.00671931 0 -8.22291
837.058 0.0119562 0 -18.1412
1001.15 0.0120831 0 -13.7311
1172.56 0.00763895 0 -8.25153
1008.41 0.00784938 0 -13.6826
1004.78 0.00996973 0 -13.7071
834.034 0.015064 0 -18.1612
827.986 0.0212476 0 -18.1998
1159.86 0.0103812 0 -8.33364
1168.33 0.00855588 0 -8.27953
831.01 0.0181612 0 -18.1807
993.888 0.0162883 0 -13.7775
1164.09 0.00947002 0 -8.30689
1001.15 0.0120831 0 -13.7311
997.518 0.0141893 0 -13.7546
827.986 0.0212476 0 -18.1998
821.938 0.0273878 0 -18.2366
1151.38 0.0121945 0 -8.38526
1159.86 0.0103812 0 -8.33364
824.962 0.0243232 0 -18.2184
986.629 0.0204645 0 -13.8217
1155.62 0.0112894 0 -8.35976
993.888 0.0162883 0 -13.7775
990.259 0.0183801 0 -13.7998
821.938 0.0273878 0 -18.2366
815.89 0.0334843 0 -18.2716
1142.91 0.0139951 0 -8.4344
1151.38 0.0121945 0 -8.38526
818.914 0.0304416 0 -18.2543
979.369 0.0246109 0 -13.8637
1147.15 0.0130965 0 -8.41014
986.629 0.0204645 0 -13.8217
982.999 0.0225414 0 -13.843
815.89 0.0334843 0 -18.2716
809.842 0.0395363 0 -18.3049
1134.44 0.015782 0 -8.48109
1142.91 0.0139951 0 -8.4344
812.866 0.0365159 0 -18.2885
972.11 0.0287268 0 -13.9037
1138.68 0.0148903 0 -8.45805
979.369 0.0246109 0 -13.8637
975.74 0.0266727 0 -13.884
809.842 0.0395363 0 -18.3049
803.794 0.0455435 0 -18.3364
1125.97 0.0175548 0 -8.52535
1134.44 0.015782 0 -8.48109
806.818 0.0425455 0 -18.3209
964.85 0.0328117 0 -13.9416
1130.2 0.0166703 0 -8.50352
972.11 0.0287268 0 -13.9037
968.48 0.0307732 0 -13.9229
803.794 0.0455435 0 -18.3364
797.746 0.0515051 0 -18.3663
1117.5 0.0193125 0 -8.56719
1125.97 0.0175548 0 -8.52535
800.77 0.04853 0 -18.3516
957.591 0.0368649 0 -13.9774
1121.73 0.0184356 0 -8.54657
964.85 0.0328117 0 -13.9416
961.221 0.0348423 0 -13.9598
797.746 0.0515051 0 -18.3663
791.698 0.0574208 0 -18.3944
1109.03 0.0210545 0 -8.60662
1117.5 0.0193125 0 -8.56719
794.722 0.0544687 0 -18.3805
950.332 0.0408858 0 -14.0112
1113.26 0.0201855 0 -8.5872
957.591 0.0368649 0 -13.9774
953.962 0.0388795 0 -13.9946
791.698 0.0574208 0 -18.3944
785.65 0.06329 0 -18.4208
1100.56 0.0227802 0 -8.64368
1109.03 0.0210545 0 -8.60662
788.674 0.0603613 0 -18.4078
943.073 0.0448739 0 -14.0429
1104.79 0.0219195 0 -8.62545
950.332 0.0408858 0 -14.0112
946.702 0.042884 0 -14.0273
785.65 0.06329 0 -18.4208
779.603 0.0691123 0 -18.4455
1092.08 0.0244889 0 -8.67837
1100.56 0.0227802 0 -8.64368
782.627 0.0662071 0 -18.4333
935.814 0.0488285 0 -14.0726
1096.32 0.0236367 0 -8.66132
943.073 0.0448739 0 -14.0429
939.443 0.0468554 0 -14.058
779.603 0.0691123 0 -18.4455
773.555 0.0748871 0 -18.4685
1083.61 0.0261799 0 -8.71072
1092.08 0.0244889 0 -8.67837
776.579 0.0720057 0 -18.4572
928.555 0.0527491 0 -14.1003
1087.85 0.0253367 0 -8.69484
935.814 0.0488285 0 -14.0726
932.184 0.0507931 0 -14.0867
773.555 0.0748871 0 -18.4685
767.508 0.080614 0 -18.4899
1075.14 0.0278526 0 -8.74074
1083.61 0.0261799 0 -8.71072
770.531 0.0777566 0 -18.4794
921.296 0.0566351 0 -14.126
1079.38 0.0270186 0 -8.72602
928.555 0.0527491 0 -14.1003
924.925 0.0546964 0 -14.1134
767.508 0.080614 0 -18.4899
761.46 0.0862926 0 -18.5096
1066.67 0.0295064 0 -8.76846
1075.14 0.0278526 0 -8.74074
764.484 0.0834594 0 -18.4999
914.037 0.060486 0 -14.1497
1070.91 0.0286819 0 -8.75489
921.296 0.0566351 0 -14.126
917.666 0.0585649 0 -14.1381
761.46 0.0862926 0 -18.5096
755.413 0.0919224 0 -18.5277
1058.2 0.0311407 0 -8.79388
1066.67 0.0295064 0 -8.76846
758.436 0.0891136 0 -18.5189
906.778 0.0643013 0 -14.1714
1062.44 0.0303261 0 -8.78145
914.037 0.060486 0 -14.1497
910.408 0.0623981 0 -14.1608
755.413 0.0919224 0 -18.5277
749.365 0.0975029 0 -18.5442
1049.73 0.032755 0 -8.81703
1058.2 0.0311407 0 -8.79388
752.389 0.0947188 0 -18.5361
899.52 0.0680805 0 -14.1912
1053.97 0.0319504 0 -8.80574
906.778 0.0643013 0 -14.1714
903.149 0.0661955 0 -14.1816
749.365 0.0975029 0 -18.5442
743.318 0.103034 0 -18.559
1041.26 0.0343486 0 -8.83793
1049.73 0.032755 0 -8.81703
746.341 0.100275 0 -18.5518
892.261 0.0718231 0 -14.2091
1045.5 0.0335544 0 -8.82776
899.52 0.0680805 0 -14.1912
895.89 0.0699564 0 -14.2004
743.318 0.103034 0 -18.559
737.27 0.108515 0 -18.5723
1032.79 0.0359211 0 -8.85659
1041.26 0.0343486 0 -8.83793
740.294 0.105781 0 -18.5658
885.003 0.0755287 0 -14.2251
1037.03 0.0351375 0 -8.84754
892.261 0.0718231 0 -14.2091
888.632 0.0736806 0 -14.2173
737.27 0.108515 0 -18.5723
731.223 0.113945 0 -18.584
1024.32 0.0374718 0 -8.87303
1032.79 0.0359211 0 -8.85659
734.247 0.111236 0 -18.5783
877.744 0.0791967 0 -14.2391
1028.56 0.0366992 0 -8.86508
885.003 0.0755287 0 -14.2251
881.373 0.0773674 0 -14.2323
731.223 0.113945 0 -18.584
725.176 0.119325 0 -18.5941
1015.85 0.0390004 0 -8.88727
1024.32 0.0374718 0 -8.87303
728.2 0.116641 0 -18.5892
870.486 0.0828267 0 -14.2513
1020.09 0.0382389 0 -8.88043
877.744 0.0791967 0 -14.2391
874.115 0.0810165 0 -14.2454
725.176 0.119325 0 -18.5941
719.129 0.124653 0 -18.6026
1007.38 0.0405062 0 -8.89934
1015.85 0.0390004 0 -8.88727
722.152 0.121995 0 -18.5985
863.228 0.0864184 0 -14.2616
1011.62 0.0397562 0 -8.89358
870.486 0.0828267 0 -14.2513
866.857 0.0846274 0 -14.2567
719.129 0.124653 0 -18.6026
713.082 0.12993 0 -18.6096
998.912 0.0419889 0 -8.90924
1007.38 0.0405062 0 -8.89934
716.105 0.127298 0 -18.6063
855.969 0.0899712 0 -14.27
1003.15 0.0412505 0 -8.90456
863.228 0.0864184 0 -14.2616
859.598 0.0881997 0 -14.2661
713.082 0.12993 0 -18.6096
707.035 0.135155 0 -18.6151
990.442 0.0434479 0 -8.91699
998.912 0.0419889 0 -8.90924
710.058 0.132549 0 -18.6126
848.711 0.0934848 0 -14.2767
994.677 0.0427214 0 -8.91338
855.969 0.0899712 0 -14.27
852.34 0.0917329 0 -14.2736
707.035 0.135155 0 -18.6151
700.988 0.140328 0 -18.6191
981.973 0.0448829 0 -8.92262
990.442 0.0434479 0 -8.91699
704.011 0.137748 0 -18.6173
841.453 0.0969588 0 -14.2814
986.208 0.0441684 0 -8.92007
848.711 0.0934848 0 -14.2767
845.082 0.0952268 0 -14.2793
700.988 0.140328 0 -18.6191
694.941 0.145448 0 -18.6215
973.503 0.0462933 0 -8.92614
981.973 0.0448829 0 -8.92262
697.964 0.142895 0 -18.6205
834.195 0.100393 0 -14.2844
977.738 0.0455912 0 -8.92464
841.453 0.0969588 0 -14.2814
837.824 0.0986808 0 -14.2832
694.941 0.145448 0 -18.6215
688.894 0.150516 0 -18.6225
965.034 0.0476788 0 -8.92757
973.503 0.0462933 0 -8.92614
691.917 0.147989 0 -18.6222
826.937 0.103786 0 -14.2856
969.269 0.0469892 0 -8.92712
834.195 0.100393 0 -14.2844
830.566 0.102095 0 -14.2852
688.894 0.150516 0 -18.6225
682.847 0.15553 0 -18.6219
956.565 0.049039 0 -8.92693
965.034 0.0476788 0 -8.92757
685.871 0.153029 0 -18.6224
819.68 0.107139 0 -14.285
960.8 0.0483621 0 -8.92751
826.937 0.103786 0 -14.2856
823.309 0.105468 0 -14.2855
682.847 0.15553 0 -18.6219
676.8 0.160491 0 -18.6199
948.096 0.0503734 0 -8.92424
956.565 0.049039 0 -8.92693
679.824 0.158017 0 -18.6211
812.422 0.110451 0 -14.2827
952.33 0.0497095 0 -8.92584
819.68 0.107139 0 -14.285
816.051 0.1088 0 -14.2841
676.8 0.160491 0 -18.6199
670.754 0.165398 0 -18.6165
939.627 0.0516818 0 -8.91951
948.096 0.0503735 0 -8.92424
673.777 0.162951 0 -18.6184
805.164 0.113722 0 -14.2786
943.861 0.0510309 0 -8.92213
812.422 0.110451 0 -14.2827
808.793 0.112092 0 -14.2808
670.754 0.165398 0 -18.6165
664.707 0.170251 0 -18.6116
931.158 0.0529638 0 -8.91276
939.627 0.0516818 0 -8.91951
667.73 0.167831 0 -18.6142
797.907 0.116951 0 -14.2728
935.393 0.0523262 0 -8.91638
805.164 0.113722 0 -14.2786
801.536 0.115342 0 -14.2759
664.707 0.170251 0 -18.6116
658.661 0.17505 0 -18.6053
922.689 0.054219 0 -8.90401
931.158 0.0529638 0 -8.91276
661.684 0.172657 0 -18.6086
790.649 0.120138 0 -14.2652
926.924 0.0535948 0 -8.90864
797.907 0.116951 0 -14.2728
794.278 0.118549 0 -14.2692
658.661 0.17505 0 -18.6053
652.614 0.179794 0 -18.5976
914.221 0.0554471 0 -8.89329
922.689 0.054219 0 -8.90401
655.637 0.177429 0 -18.6016
783.392 0.123282 0 -14.256
918.455 0.0548364 0 -8.8989
790.649 0.120138 0 -14.2652
787.021 0.121715 0 -14.2608
652.614 0.179794 0 -18.5976
646.568 0.184484 0 -18.5885
905.752 0.0566477 0 -8.8806
914.221 0.0554471 0 -8.89329
649.591 0.182146 0 -18.5932
776.135 0.126384 0 -14.2451
909.987 0.0560509 0 -8.88719
783.392 0.123282 0 -14.256
779.764 0.124839 0 -14.2507
646.568 0.184484 0 -18.5885
640.521 0.189119 0 -18.5779
897.284 0.0578207 0 -8.86596
905.752 0.0566477 0 -8.8806
643.544 0.186808 0 -18.5834
768.878 0.129444 0 -14.2325
901.518 0.0572377 0 -8.87352
776.135 0.126384 0 -14.2451
772.506 0.127919 0 -14.239
640.521 0.189119 0 -18.5779
634.475 0.193698 0 -18.5661
888.816 0.0589657 0 -8.8494
897.284 0.0578207 0 -8.86596
637.498 0.191415 0 -18.5722
761.621 0.13246 0 -14.2183
893.05 0.0583967 0 -8.85792
768.878 0.129444 0 -14.2325
765.249 0.130957 0 -14.2256
634.475 0.193698 0 -18.5661
628.429 0.198222 0 -18.5528
880.348 0.0600824 0 -8.83094
888.816 0.0589657 0 -8.8494
631.452 0.195967 0 -18.5596
754.364 0.135433 0 -14.2024
884.582 0.0595276 0 -8.84041
761.621 0.13246 0 -14.2183
757.992 0.133952 0 -14.2105
628.429 0.198222 0 -18.5528
622.383 0.202691 0 -18.5382
871.88 0.0611707 0 -8.81058
880.348 0.0600824 0 -8.83094
625.406 0.200464 0 -18.5457
747.107 0.138363 0 -14.1849
876.114 0.0606301 0 -8.82099
754.364 0.135433 0 -14.2024
750.735 0.136903 0 -14.1939
622.383 0.202691 0 -18.5382
616.336 0.207104 0 -18.5223
863.412 0.0622302 0 -8.78835
871.88 0.0611707 0 -8.81058
619.359 0.204905 0 -18.5304
739.85 0.141248 0 -14.1658
867.646 0.061704 0 -8.7997
747.107 0.138363 0 -14.1849
743.478 0.139811 0 -14.1756
616.336 0.207104 0 -18.5223
610.29 0.211461 0 -18.505
854.944 0.0632607 0 -8.76427
863.412 0.0622302 0 -8.78835
613.313 0.209289 0 -18.5138
732.593 0.14409 0 -14.1451
859.178 0.0627491 0 -8.77654
739.85 0.141248 0 -14.1658
736.222 0.142675 0 -14.1557
610.29 0.211461 0 -18.505
604.244 0.215762 0 -18.4864
846.476 0.0642621 0 -8.73835
854.944 0.0632607 0 -8.76427
607.267 0.213618 0 -18.4959
725.337 0.146888 0 -14.1229
850.71 0.0637651 0 -8.75154
732.593 0.14409 0 -14.1451
728.965 0.145495 0 -14.1342
604.244 0.215762 0 -18.4864
598.198 0.220007 0 -18.4665
838.009 0.0652341 0 -8.71062
846.476 0.0642621 0 -8.73835
601.221 0.217891 0 -18.4766
718.08 0.149642 0 -14.0991
842.242 0.0647518 0 -8.72471
725.337 0.146888 0 -14.1229
721.708 0.148271 0 -14.1112
598.198 0.220007 0 -18.4665
592.152 0.224195 0 -18.4454
829.541 0.0661765 0 -8.68109
838.009 0.0652341 0 -8.71062
595.175 0.222108 0 -18.4561
710.823 0.152351 0 -14.0737
833.775 0.065709 0 -8.69608
718.08 0.149642 0 -14.0991
714.452 0.151002 0 -14.0866
592.152 0.224195 0 -18.4454
586.107 0.228327 0 -18.423
821.074 0.0670892 0 -8.64977
829.541 0.0661765 0 -8.68109
589.13 0.226268 0 -18.4343
703.567 0.155016 0 -14.0469
825.308 0.0666366 0 -8.66565
710.823 0.152351 0 -14.0737
707.195 0.153689 0 -14.0605
586.107 0.228327 0 -18.423
580.061 0.232402 0 -18.3993
812.607 0.067972 0 -8.6167
821.074 0.0670892 0 -8.64977
583.084 0.230371 0 -18.4113
696.311 0.157635 0 -14.0185
816.84 0.0675344 0 -8.63346
703.567 0.155016 0 -14.0469
699.939 0.156331 0 -14.0329
580.061 0.232402 0 -18.3993
574.015 0.23642 0 -18.3743
804.14 0.0688248 0 -8.58188
812.607 0.067972 0 -8.6167
577.038 0.234418 0 -18.387
689.055 0.16021 0 -13.9886
808.373 0.0684022 0 -8.59951
696.311 0.157635 0 -14.0185
692.683 0.158928 0 -14.0037
574.015 0.23642 0 -18.3743
567.969 0.240382 0 -18.3482
795.673 0.0696474 0 -8.54533
804.14 0.0688248 0 -8.58188
570.992 0.238408 0 -18.3614
681.798 0.16274 0 -13.9572
799.906 0.0692399 0 -8.56382
689.055 0.16021 0 -13.9886
685.426 0.161481 0 -13.9731
567.969 0.240382 0 -18.3482
561.924 0.244286 0 -18.3208
787.206 0.0704398 0 -8.50708
795.673 0.0696474 0 -8.54533
564.947 0.242341 0 -18.3346
674.542 0.165225 0 -13.9244
791.439 0.0700474 0 -8.52642
681.798 0.16274 0 -13.9572
678.17 0.163988 0 -13.941
561.924 0.244286 0 -18.3208
555.878 0.248134 0 -18.2922
778.739 0.0712017 0 -8.46714
787.206 0.0704398 0 -8.50708
558.901 0.246217 0 -18.3067
667.286 0.167665 0 -13.8901
782.972 0.0708246 0 -8.48732
674.542 0.165225 0 -13.9244
670.914 0.166451 0 -13.9075
555.878 0.248134 0 -18.2922
549.833 0.251924 0 -18.2624
770.272 0.0719332 0 -8.42553
778.739 0.0712017 0 -8.46714
552.856 0.250036 0 -18.2775
660.031 0.17006 0 -13.8544
774.506 0.0715713 0 -8.44654
667.286 0.167665 0 -13.8901
663.658 0.168868 0 -13.8725
549.833 0.251924 0 -18.2624
543.787 0.255657 0 -18.2315
761.806 0.0726341 0 -8.38226
770.272 0.0719332 0 -8.42553
546.81 0.253798 0 -18.2471
652.775 0.172409 0 -13.8173
766.039 0.0722875 0 -8.4041
660.031 0.17006 0 -13.8544
656.403 0.17124 0 -13.836
543.787 0.255657 0 -18.2315
537.742 0.259333 0 -18.1993
753.34 0.0733044 0 -8.33736
761.806 0.0726341 0 -8.38226
540.765 0.257502 0 -18.2155
645.519 0.174712 0 -13.7788
757.573 0.0729731 0 -8.36001
652.775 0.172409 0 -13.8173
649.147 0.173566 0 -13.7982
537.742 0.259333 0 -18.1993
531.697 0.262952 0 -18.1661
744.873 0.073944 0 -8.29084
753.34 0.0733044 0 -8.33736
534.719 0.26115 0 -18.1828
638.263 0.176971 0 -13.7389
749.106 0.0736281 0 -8.3143
645.519 0.174712 0 -13.7788
641.891 0.175847 0 -13.759
531.697 0.262952 0 -18.1661
525.652 0.266513 0 -18.1316
736.407 0.0745529 0 -8.24273
744.873 0.073944 0 -8.29084
528.674 0.264739 0 -18.149
631.008 0.179183 0 -13.6976
740.64 0.0742523 0 -8.26698
638.263 0.176971 0 -13.7389
634.636 0.178083 0 -13.7184
525.652 0.266513 0 -18.1316
519.606 0.270017 0 -18.0961
727.941 0.075131 0 -8.19303
736.407 0.0745529 0 -8.24273
522.629 0.268272 0 -18.114
623.752 0.181351 0 -13.655
732.174 0.0748458 0 -8.21807
631.008 0.179183 0 -13.6976
627.38 0.180273 0 -13.6765
519.606 0.270017 0 -18.0961
513.561 0.273463 0 -18.0594
719.475 0.0756783 0 -8.14177
727.941 0.075131 0 -8.19303
516.584 0.271747 0 -18.0779
616.497 0.183472 0 -13.611
723.708 0.0754085 0 -8.16759
623.752 0.181351 0 -13.655
620.125 0.182417 0 -13.6332
513.561 0.273463 0 -18.0594
507.516 0.276852 0 -18.0216
711.009 0.0761948 0 -8.08897
719.475 0.0756783 0 -8.14177
510.539 0.275165 0 -18.0407
609.242 0.185548 0 -13.5657
715.242 0.0759404 0 -8.11556
616.497 0.183472 0 -13.611
612.869 0.184516 0 -13.5885
507.516 0.276852 0 -18.0216
501.471 0.280184 0 -17.9828
702.544 0.0766806 0 -8.03464
711.009 0.0761948 0 -8.08897
504.494 0.278525 0 -18.0023
601.987 0.187579 0 -13.5191
706.776 0.0764416 0 -8.062
609.242 0.185548 0 -13.5657
605.614 0.186569 0 -13.5426
501.471 0.280184 0 -17.9828
495.426 0.283458 0 -17.9428
694.078 0.0771355 0 -7.97881
702.544 0.0766806 0 -8.03464
498.449 0.281828 0 -17.9629
594.731 0.189564 0 -13.4712
698.311 0.0769119 0 -8.00691
601.987 0.187579 0 -13.5191
598.359 0.188577 0 -13.4953
495.426 0.283458 0 -17.9428
489.381 0.286675 0 -17.9018
685.613 0.0775597 0 -7.92148
694.078 0.0771355 0 -7.97881
492.404 0.285073 0 -17.9225
587.476 0.191503 0 -13.422
689.845 0.0773514 0 -7.95033
594.731 0.189564 0 -13.4712
591.104 0.190539 0 -13.4468
489.381 0.286675 0 -17.9018
483.337 0.289834 0 -17.8598
677.147 0.0779531 0 -7.86269
685.613 0.0775597 0 -7.92148
486.359 0.288261 0 -17.8809
580.222 0.193397 0 -13.3716
681.38 0.0777602 0 -7.89227
587.476 0.191503 0 -13.422
583.849 0.192456 0 -13.397
483.337 0.289834 0 -17.8598
477.292 0.292936 0 -17.8167
668.682 0.0783159 0 -7.80244
677.147 0.0779531 0 -7.86269
480.314 0.291392 0 -17.8384
572.967 0.195245 0 -13.3199
672.915 0.0781384 0 -7.83274
580.222 0.193397 0 -13.3716
576.594 0.194327 0 -13.3459
477.292 0.292936 0 -17.8167
471.247 0.29598 0 -17.7726
660.217 0.0786481 0 -7.74076
668.682 0.0783159 0 -7.80244
474.269 0.294465 0 -17.7948
565.712 0.197048 0 -13.267
664.449 0.0784858 0 -7.77178
572.967 0.195245 0 -13.3199
569.339 0.196153 0 -13.2936
471.247 0.29598 0 -17.7726
465.202 0.298967 0 -17.7274
651.752 0.0789497 0 -7.67766
660.217 0.0786481 0 -7.74076
468.225 0.297481 0 -17.7501
558.457 0.198806 0 -13.2129
655.984 0.0788027 0 -7.70938
565.712 0.197048 0 -13.267
562.085 0.197933 0 -13.2401
465.202 0.298967 0 -17.7274
459.158 0.301897 0 -17.6813
643.287 0.0792208 0 -7.61316
651.752 0.0789497 0 -7.67766
462.18 0.300439 0 -17.7045
551.203 0.200518 0 -13.1576
647.519 0.0790891 0 -7.64558
558.457 0.198806 0 -13.2129
554.83 0.199668 0 -13.1854
459.158 0.301897 0 -17.6813
453.113 0.30477 0 -17.6342
634.822 0.0794616 0 -7.54728
643.287 0.0792208 0 -7.61316
456.136 0.303341 0 -17.6579
543.948 0.202185 0 -13.1011
639.055 0.079345 0 -7.58039
551.203 0.200518 0 -13.1576
547.575 0.201357 0 -13.1295
453.113 0.30477 0 -17.6342
447.069 0.307585 0 -17.5861
626.358 0.0796721 0 -7.48004
634.822 0.0794616 0 -7.54728
450.091 0.306185 0 -17.6103
536.694 0.203806 0 -13.0434
630.59 0.0795706 0 -7.51383
543.948 0.202185 0 -13.1011
540.321 0.203001 0 -13.0724
447.069 0.307585 0 -17.5861
441.024 0.310344 0 -17.5371
617.893 0.0798524 0 -7.41146
626.358 0.0796721 0 -7.48004
444.047 0.308972 0 -17.5617
529.439 0.205383 0 -12.9846
622.125 0.079766 0 -7.44592
536.694 0.203806 0 -13.0434
533.067 0.2046 0 -13.0142
441.024 0.310344 0 -17.5371
434.98 0.313045 0 -17.4871
609.429 0.0800026 0 -7.34155
617.893 0.0798524 0 -7.41146
438.002 0.311701 0 -17.5122
522.185 0.206915 0 -12.9247
613.661 0.0799312 0 -7.37667
529.439 0.205383 0 -12.9846
525.812 0.206154 0 -12.9548
434.98 0.313045 0 -17.4871
428.936 0.315689 0 -17.4362
600.964 0.0801229 0 -7.27033
609.429 0.0800026 0 -7.34155
431.958 0.314374 0 -17.4617
514.931 0.208401 0 -12.8636
605.196 0.0800665 0 -7.3061
522.185 0.206915 0 -12.9247
518.558 0.207664 0 -12.8943
428.936 0.315689 0 -17.4362
422.892 0.318277 0 -17.3843
592.5 0.0802134 0 -7.19783
600.964 0.0801229 0 -7.27033
425.914 0.31699 0 -17.4104
507.677 0.209843 0 -12.8014
596.732 0.0801719 0 -7.23424
514.931 0.208401 0 -12.8636
511.304 0.209128 0 -12.8326
422.892 0.318277 0 -17.3843
416.847 0.320808 0 -17.3316
584.036 0.0802743 0 -7.12405
592.5 0.0802134 0 -7.19783
419.869 0.319549 0 -17.3581
500.423 0.21124 0 -12.7381
588.268 0.0802476 0 -7.1611
507.677 0.209843 0 -12.8014
504.05 0.210547 0 -12.7699
416.847 0.320808 0 -17.3316
410.803 0.323282 0 -17.2779
575.572 0.0803057 0 -7.04902
584.036 0.0802743 0 -7.12405
413.825 0.322052 0 -17.3049
493.169 0.212593 0 -12.6738
579.804 0.0802937 0 -7.08669
500.423 0.21124 0 -12.7381
496.796 0.211922 0 -12.7061
410.803 0.323282 0 -17.2779
404.759 0.325699 0 -17.2234
567.108 0.0803078 0 -6.97276
575.572 0.0803057 0 -7.04902
407.781 0.324498 0 -17.2508
485.915 0.213901 0 -12.6084
571.34 0.0803104 0 -7.01105
493.169 0.212593 0 -12.6738
489.542 0.213253 0 -12.6412
404.759 0.325699 0 -17.2234
398.715 0.32806 0 -17.168
558.644 0.0802807 0 -6.89528
567.108 0.0803078 0 -6.97276
401.737 0.326887 0 -17.1958
478.661 0.215165 0 -12.542
562.876 0.0802979 0 -6.93417
485.915 0.213901 0 -12.6084
482.288 0.214539 0 -12.5753
398.715 0.32806 0 -17.168
392.671 0.330365 0 -17.1118
550.181 0.0802247 0 -6.8166
558.644 0.0802807 0 -6.89528
395.693 0.32922 0 -17.14
471.408 0.216385 0 -12.4745
554.412 0.0802563 0 -6.85609
478.661 0.215165 0 -12.542
475.034 0.215781 0 -12.5083
392.671 0.330365 0 -17.1118
386.627 0.332614 0 -17.0547
541.717 0.0801399 0 -6.73675
550.181 0.0802247 0 -6.8166
389.649 0.331497 0 -17.0833
464.154 0.217561 0 -12.406
545.949 0.0801859 0 -6.77682
471.408 0.216385 0 -12.4745
467.781 0.216979 0 -12.4404
386.627 0.332614 0 -17.0547
380.583 0.334807 0 -16.9967
533.254 0.0800266 0 -6.65573
541.717 0.0801399 0 -6.73675
383.605 0.333717 0 -17.0258
456.9 0.218694 0 -12.3365
537.485 0.0800868 0 -6.69638
464.154 0.217561 0 -12.406
460.527 0.218133 0 -12.3714
380.583 0.334807 0 -16.9967
374.54 0.336943 0 -16.938
524.79 0.079885 0 -6.57356
533.254 0.0800266 0 -6.65573
377.562 0.335882 0 -16.9675
449.647 0.219782 0 -12.2661
529.022 0.0799593 0 -6.61479
456.9 0.218694 0 -12.3365
453.274 0.219244 0 -12.3014
374.54 0.336943 0 -16.938
368.496 0.339024 0 -16.8785
516.327 0.0797152 0 -6.49027
524.79 0.079885 0 -6.57356
371.518 0.337991 0 -16.9083
442.394 0.220828 0 -12.1947
520.559 0.0798036 0 -6.53206
449.647 0.219782 0 -12.2661
446.02 0.22031 0 -12.2305
368.496 0.339024 0 -16.8785
362.452 0.34105 0 -16.8181
507.864 0.0795175 0 -6.40588
516.327 0.0797152 0 -6.49027
365.474 0.340044 0 -16.8484
435.14 0.22183 0 -12.1223
512.095 0.0796198 0 -6.44821
442.394 0.220828 0 -12.1947
438.767 0.221334 0 -12.1586
362.452 0.34105 0 -16.8181
356.409 0.34302 0 -16.757
499.401 0.0792922 0 -6.32039
507.864 0.0795175 0 -6.40588
359.43 0.342042 0 -16.7877
427.887 0.222789 0 -12.049
503.632 0.0794083 0 -6.36327
435.14 0.22183 0 -12.1223
431.514 0.222315 0 -12.0857
356.409 0.34302 0 -16.757
350.365 0.344934 0 -16.6951
490.938 0.0790395 0 -6.23384
499.401 0.0792922 0 -6.32039
353.387 0.343984 0 -16.7262
420.634 0.223705 0 -11.9748
495.169 0.0791693 0 -6.27725
427.887 0.222789 0 -12.049
424.261 0.223252 0 -12.012
350.365 0.344934 0 -16.6951
344.322 0.346794 0 -16.6325
482.475 0.0787596 0 -6.14623
490.938 0.0790395 0 -6.23384
347.343 0.345871 0 -16.6639
413.381 0.224579 0 -11.8996
486.707 0.0789029 0 -6.19016
420.634 0.223705 0 -11.9748
417.008 0.224147 0 -11.9373
344.322 0.346794 0 -16.6325
338.278 0.348599 0 -16.5691
474.013 0.0784528 0 -6.05759
482.475 0.0787596 0 -6.14623
341.3 0.347703 0 -16.6009
406.128 0.22541 0 -11.8236
478.244 0.0786095 0 -6.10204
413.381 0.224579 0 -11.8996
409.755 0.225 0 -11.8617
338.278 0.348599 0 -16.5691
332.235 0.350349 0 -16.5051
465.55 0.0781194 0 -5.96793
474.013 0.0784528 0 -6.05759
335.256 0.349481 0 -16.5372
398.875 0.2262 0 -11.7467
469.781 0.0782894 0 -6.01288
406.128 0.22541 0 -11.8236
402.502 0.22581 0 -11.7853
332.235 0.350349 0 -16.5051
326.191 0.352044 0 -16.4402
457.088 0.0777597 0 -5.87727
465.55 0.0781194 0 -5.96793
329.213 0.351203 0 -16.4727
391.622 0.226947 0 -11.669
461.319 0.0779429 0 -5.92272
398.875 0.2262 0 -11.7467
395.249 0.226579 0 -11.708
326.191 0.352044 0 -16.4402
320.148 0.353686 0 -16.3747
448.625 0.0773739 0 -5.78563
457.088 0.0777597 0 -5.87727
323.17 0.352872 0 -16.4076
384.37 0.227653 0 -11.5904
452.856 0.07757 0 -5.83157
391.622 0.226947 0 -11.669
387.996 0.227305 0 -11.6298
320.148 0.353686 0 -16.3747
314.105 0.355273 0 -16.3086
440.163 0.0769623 0 -5.69303
448.625 0.0773739 0 -5.78563
317.126 0.354486 0 -16.3417
377.117 0.228317 0 -11.511
444.394 0.0771713 0 -5.73945
384.37 0.227653 0 -11.5904
380.743 0.22799 0 -11.5508
314.105 0.355273 0 -16.3086
308.062 0.356806 0 -16.2417
431.701 0.0765253 0 -5.59949
440.163 0.0769623 0 -5.69303
311.083 0.356046 0 -16.2752
369.865 0.22894 0 -11.4308
435.932 0.076747 0 -5.64638
377.117 0.228317 0 -11.511
373.491 0.228634 0 -11.471
308.062 0.356806 0 -16.2417
302.019 0.358285 0 -16.1742
423.239 0.0760631 0 -5.50502
431.701 0.0765253 0 -5.59949
305.04 0.357552 0 -16.208
362.612 0.229522 0 -11.3498
427.47 0.0762974 0 -5.55237
369.865 0.22894 0 -11.4308
366.238 0.229236 0 -11.3904
302.019 0.358285 0 -16.1742
295.975 0.359711 0 -16.106
414.777 0.0755761 0 -5.40964
423.239 0.0760631 0 -5.50502
298.997 0.359005 0 -16.1402
355.36 0.230064 0 -11.268
419.008 0.0758227 0 -5.45744
362.612 0.229522 0 -11.3498
358.986 0.229798 0 -11.309
295.975 0.359711 0 -16.106
289.932 0.361084 0 -16.0372
406.315 0.0750646 0 -5.31338
414.777 0.0755761 0 -5.40964
292.954 0.360404 0 -16.0717
348.107 0.230565 0 -11.1855
410.546 0.0753234 0 -5.36162
355.36 0.230064 0 -11.268
351.733 0.23032 0 -11.2269
289.932 0.361084 0 -16.0372
283.889 0.362403 0 -15.9677
397.853 0.0745288 0 -5.21624
406.315 0.0750646 0 -5.31338
286.911 0.36175 0 -16.0025
340.855 0.231027 0 -11.1022
402.084 0.0747997 0 -5.26492
348.107 0.230565 0 -11.1855
344.481 0.230801 0 -11.1439
283.889 0.362403 0 -15.9677
277.847 0.36367 0 -15.8977
389.392 0.0739692 0 -5.11825
397.853 0.0745289 0 -5.21624
280.868 0.363043 0 -15.9328
333.603 0.231448 0 -11.0182
393.623 0.074252 0 -5.16735
340.855 0.231027 0 -11.1022
337.229 0.231242 0 -11.0603
277.847 0.36367 0 -15.8977
271.804 0.364884 0 -15.8271
380.93 0.0733861 0 -5.01943
389.392 0.0739692 0 -5.11825
274.825 0.364284 0 -15.8625
326.351 0.23183 0 -10.9334
385.161 0.0736806 0 -5.06895
333.603 0.231448 0 -11.0182
329.977 0.231644 0 -10.9759
271.804 0.364884 0 -15.8271
265.761 0.366046 0 -15.7559
372.469 0.0727798 0 -4.91979
380.93 0.0733861 0 -5.01943
268.782 0.365472 0 -15.7915
319.099 0.232173 0 -10.848
376.7 0.0730859 0 -4.96971
326.351 0.23183 0 -10.9334
322.725 0.232006 0 -10.8908
265.761 0.366046 0 -15.7559
259.718 0.367156 0 -15.6841
364.008 0.0721507 0 -4.81935
372.469 0.0727798 0 -4.91979
262.739 0.366608 0 -15.72
311.847 0.232476 0 -10.7619
368.238 0.0724681 0 -4.86967
319.099 0.232173 0 -10.848
315.473 0.232329 0 -10.805
259.718 0.367156 0 -15.6841
253.675 0.368214 0 -15.6117
355.546 0.0714992 0 -4.71814
364.008 0.0721507 0 -4.81935
256.697 0.367692 0 -15.648
304.595 0.232742 0 -10.6751
359.777 0.0718277 0 -4.76884
311.847 0.232476 0 -10.7619
308.221 0.232614 0 -10.7186
253.675 0.368214 0 -15.6117
247.633 0.369221 0 -15.5388
347.085 0.0708255 0 -4.61616
355.546 0.0714992 0 -4.71814
250.654 0.368724 0 -15.5753
297.343 0.232968 0 -10.5877
351.316 0.0711651 0 -4.66724
304.595 0.232742 0 -10.6751
300.969 0.23286 0 -10.6315
247.633 0.369221 0 -15.5388
241.59 0.370176 0 -15.4654
338.624 0.0701301 0 -4.51343
347.085 0.0708255 0 -4.61616
244.611 0.369705 0 -15.5022
290.091 0.233157 0 -10.4996
342.855 0.0704805 0 -4.56489
297.343 0.232968 0 -10.5877
293.717 0.233068 0 -10.5437
241.59 0.370176 0 -15.4654
235.547 0.37108 0 -15.3915
330.163 0.0694134 0 -4.40998
338.624 0.0701301 0 -4.51343
238.569 0.370634 0 -15.4285
282.84 0.233309 0 -10.4109
334.394 0.0697744 0 -4.4618
290.091 0.233157 0 -10.4996
286.465 0.233238 0 -10.4553
235.547 0.37108 0 -15.3915
229.505 0.371933 0 -15.317
321.703 0.0686758 0 -4.30583
330.163 0.0694134 0 -4.40998
232.526 0.371513 0 -15.3543
275.588 0.233423 0 -10.3216
325.933 0.0690472 0 -4.35799
282.84 0.233309 0 -10.4109
279.214 0.23337 0 -10.3663
229.505 0.371933 0 -15.317
223.462 0.372736 0 -15.2421
313.242 0.0679175 0 -4.20098
321.703 0.0686758 0 -4.30583
226.484 0.372341 0 -15.2796
268.337 0.2335 0 -10.2317
317.472 0.0682992 0 -4.25349
275.588 0.233423 0 -10.3216
271.962 0.233466 0 -10.2767
223.462 0.372736 0 -15.2421
217.42 0.373489 0 -15.1667
304.781 0.0671391 0 -4.09547
313.242 0.0679175 0 -4.20098
220.441 0.373119 0 -15.2045
261.085 0.23354 0 -10.1412
309.012 0.0675308 0 -4.14831
268.337 0.2335 0 -10.2317
264.711 0.233524 0 -10.1865
217.42 0.373489 0 -15.1667
211.378 0.374191 0 -15.0908
296.321 0.0663409 0 -3.9893
304.781 0.0671391 0 -4.09547
214.399 0.373846 0 -15.1288
253.834 0.233544 0 -10.0502
300.551 0.0667425 0 -4.04246
261.085 0.23354 0 -10.1412
257.459 0.233546 0 -10.0958
211.378 0.374191 0 -15.0908
205.335 0.374844 0 -15.0145
287.86 0.0655233 0 -3.88249
296.321 0.0663409 0 -3.9893
208.356 0.374524 0 -15.0527
246.582 0.233512 0 -9.95862
292.091 0.0659345 0 -3.93597
253.834 0.233544 0 -10.0502
250.208 0.233532 0 -10.0045
205.335 0.374844 0 -15.0145
199.293 0.375448 0 -14.9377
279.4 0.0646868 0 -3.77507
287.86 0.0655233 0 -3.88249
202.314 0.375152 0 -14.9761
239.331 0.233444 0 -9.86652
283.63 0.0651074 0 -3.82886
246.582 0.233512 0 -9.95862
242.957 0.233482 0 -9.91263
199.293 0.375448 0 -14.9377
193.251 0.376002 0 -14.8605
270.94 0.0638317 0 -3.66705
279.4 0.0646868 0 -3.77507
196.272 0.375731 0 -14.8992
232.08 0.233341 0 -9.7739
275.17 0.0642616 0 -3.72114
239.331 0.233444 0 -9.86652
235.706 0.233397 0 -9.82027
193.251 0.376002 0 -14.8605
187.209 0.376507 0 -14.7829
262.48 0.0629585 0 -3.55846
270.94 0.0638317 0 -3.66705
190.23 0.376261 0 -14.8217
224.829 0.233203 0 -9.68079
266.71 0.0633974 0 -3.61283
232.08 0.233341 0 -9.7739
228.454 0.233276 0 -9.72741
187.209 0.376507 0 -14.7829
181.166 0.376964 0 -14.7049
254.02 0.0620676 0 -3.44929
262.48 0.0629585 0 -3.55846
184.187 0.376742 0 -14.7439
217.578 0.233031 0 -9.5872
258.25 0.0625153 0 -3.50394
224.829 0.233203 0 -9.68079
221.203 0.233121 0 -9.63406
181.166 0.376964 0 -14.7049
175.124 0.377372 0 -14.6265
245.56 0.0611594 0 -3.33959
254.02 0.0620676 0 -3.44929
178.145 0.377174 0 -14.6657
210.327 0.232824 0 -9.49314
249.79 0.0616157 0 -3.39451
217.578 0.233031 0 -9.5872
213.952 0.232931 0 -9.54023
175.124 0.377372 0 -14.6265
169.082 0.377732 0 -14.5477
237.1 0.0602344 0 -3.22936
245.56 0.0611594 0 -3.33959
172.103 0.377558 0 -14.5871
203.076 0.232583 0 -9.39863
241.33 0.060699 0 -3.28454
210.327 0.232824 0 -9.49314
206.701 0.232708 0 -9.44594
169.082 0.377732 0 -14.5477
163.04 0.378044 0 -14.4686
228.64 0.059293 0 -3.11862
237.1 0.0602344 0 -3.22936
166.061 0.377894 0 -14.5082
195.825 0.232309 0 -9.30369
232.87 0.0597657 0 -3.17405
203.076 0.232583 0 -9.39863
199.451 0.23245 0 -9.35121
163.04 0.378044 0 -14.4686
156.998 0.378307 0 -14.3891
220.181 0.0583356 0 -3.00739
228.64 0.059293 0 -3.11862
160.019 0.378181 0 -14.4289
188.574 0.232001 0 -9.20833
224.41 0.0588163 0 -3.06307
195.825 0.232309 0 -9.30369
192.2 0.232159 0 -9.25606
156.998 0.378307 0 -14.3891
150.956 0.378522 0 -14.3093
211.721 0.0573629 0 -2.89569
220.181 0.0583356 0 -3.00739
153.977 0.37842 0 -14.3492
181.324 0.23166 0 -9.11257
215.951 0.0578512 0 -2.9516
188.574 0.232001 0 -9.20833
184.949 0.231834 0 -9.1605
150.956 0.378522 0 -14.3093
144.914 0.378687 0 -14.2291
203.262 0.0563751 0 -2.78354
211.721 0.0573629 0 -2.89569
147.935 0.378611 0 -14.2692
174.073 0.231286 0 -9.01642
207.491 0.0568708 0 -2.83967
181.324 0.23166 0 -9.11257
177.698 0.231477 0 -9.06454
144.914 0.378687 0 -14.2291
138.872 0.378803 0 -14.1487
194.802 0.0553733 0 -2.67095
203.262 0.0563751 0 -2.78354
141.893 0.378751 0 -14.1889
166.822 0.230879 0 -8.91991
199.032 0.0558759 0 -2.7273
174.073 0.231286 0 -9.01642
170.448 0.231087 0 -8.96821
138.872 0.378803 0 -14.1487
132.831 0.378867 0 -14.068
186.343 0.0543572 0 -2.55795
194.802 0.0553733 0 -2.67095
135.851 0.378841 0 -14.1084
159.572 0.230439 0 -8.82305
190.572 0.0548668 0 -2.6145
166.822 0.230879 0 -8.91991
163.197 0.230663 0 -8.87153
132.831 0.378867 0 -14.068
126.789 0.378877 0 -13.987
177.883 0.0533297 0 -2.44455
186.343 0.0543572 0 -2.55795
129.81 0.378879 0 -14.0275
152.321 0.229964 0 -8.72587
182.113 0.0538449 0 -2.5013
159.572 0.230439 0 -8.82305
155.947 0.230206 0 -8.7745
126.789 0.378877 0 -13.987
120.747 0.378833 0 -13.9058
169.424 0.0522891 0 -2.33076
177.883 0.0533297 0 -2.44455
123.768 0.378862 0 -13.9464
145.071 0.229455 0 -8.62838
173.654 0.0528107 0 -2.3877
152.321 0.229964 0 -8.72587
148.696 0.229714 0 -8.67716
120.747 0.378833 0 -13.9058
114.705 0.378738 0 -13.8243
160.965 0.0512417 0 -2.21661
169.424 0.0522891 0 -2.33076
117.726 0.378791 0 -13.8651
137.82 0.22891 0 -8.53061
165.195 0.051766 0 -2.27373
145.071 0.229455 0 -8.62838
141.446 0.229187 0 -8.57953
114.705 0.378738 0 -13.8243
108.664 0.378606 0 -13.7426
152.505 0.0501853 0 -2.10211
160.965 0.0512417 0 -2.21661
111.685 0.378676 0 -13.7835
130.57 0.228333 0 -8.43258
156.735 0.0507152 0 -2.1594
137.82 0.22891 0 -8.53061
134.195 0.228624 0 -8.48162
108.664 0.378606 0 -13.7426
102.622 0.378484 0 -13.6607
144.046 0.0491264 0 -1.98729
152.505 0.0501853 0 -2.10211
105.643 0.378538 0 -13.7017
123.319 0.227726 0 -8.33428
148.276 0.0496528 0 -2.04474
130.57 0.228333 0 -8.43258
126.945 0.228033 0 -8.38346
102.622 0.378484 0 -13.6607
96.581 0.378478 0 -13.5784
135.586 0.0480805 0 -1.87217
144.046 0.0491264 0 -1.98729
99.6016 0.378457 0 -13.6196
116.069 0.227125 0 -8.23571
139.816 0.0486115 0 -1.92975
123.319 0.227726 0 -8.33428
119.694 0.22742 0 -8.28504
96.581 0.378478 0 -13.5784
90.5402 0.378863 0 -13.4954
127.126 0.0469901 0 -1.75675
135.586 0.0480805 0 -1.87217
93.5605 0.378592 0 -13.537
108.819 0.226563 0 -8.13667
131.356 0.047516 0 -1.81451
116.069 0.227125 0 -8.23571
112.444 0.226839 0 -8.18626
90.5402 0.378863 0 -13.4954
84.5 0.380145 0 -13.4111
118.665 0.0460523 0 -1.64116
127.126 0.0469901 0 -1.75675
87.52 0.379347 0 -13.4535
101.57 0.226238 0 -8.03683
122.895 0.0465733 0 -1.69892
108.819 0.226563 0 -8.13667
105.194 0.226348 0 -8.08689
84.5 0.380145 0 -13.4111
78.4613 0.38352 0 -13.324
110.206 0.0446552 0 -1.52528
118.665 0.0460523 0 -1.64116
81.4803 0.381453 0 -13.3681
94.3221 0.226314 0 -7.93513
114.435 0.0452557 0 -1.58336
101.57 0.226238 0 -8.03683
97.9456 0.226228 0 -7.98629
78.4613 0.38352 0 -13.324
72.424 0.390829 0 -13.2314
101.751 0.0442535 0 -1.40977
110.206 0.0446552 0 -1.52528
75.4426 0.38651 0 -13.2786
87.0799 0.227632 0 -7.82986
105.977 0.0447588 0 -1.46722
94.3221 0.226314 0 -7.93513
90.7 0.226714 0 -7.88317
72.424 0.390829 0 -13.2314
66.391 0.406466 0 -13.127
93.3027 0.0407541 0 -1.29367
101.751 0.0442535 0 -1.40977
69.4065 0.397245 0 -13.1813
79.8469 0.230838 0 -7.71665
97.5254 0.0419912 0 -1.35226
87.0799 0.227632 0 -7.82986
83.4622 0.229054 0 -7.7745
66.391 0.406466 0 -13.127
60.3593 0.43542 0 -13.0025
84.8849 0.0429818 0 -1.18033
93.3027 0.0407541 0 -1.29367
63.3758 0.418697 0 -13.068
72.6364 0.238863 0 -7.58865
89.0882 0.0435103 0 -1.23558
79.8469 0.230838 0 -7.71665
76.2372 0.233762 0 -7.65548
60.3593 0.43542 0 -13.0025
54.3374 0.491808 0 -12.8374
76.507 0.0278471 0 -1.0644
84.8849 0.0429818 0 -1.18033
57.3454 0.459453 0 -12.927
65.4613 0.253874 0 -7.4314
80.6899 0.0326482 0 -1.12485
72.6364 0.238863 0 -7.58865
69.0445 0.246018 0 -7.51418
54.3374 0.491808 0 -12.8374
48.3029 0.582469 0 -12.6111
68.2669 0.0429601 0 -0.96084
76.507 0.0278471 0 -1.0644
51.3256 0.531012 0 -12.7334
58.3671 0.284377 0 -7.22196
72.3626 0.0439369 0 -1.00648
65.4613 0.253874 0 -7.4314
61.898 0.264887 0 -7.33726
48.3029 0.582469 0 -12.6111
42.2784 0.747618 0 -12.2713
60.1891 -0.0298174 0 -0.844856
68.2669 0.0429601 0 -0.96084
45.2838 0.656167 0 -12.4604
51.38 0.337261 0 -6.92326
64.2032 -0.00826899 0 -0.914386
58.3671 0.284377 0 -7.22196
54.8637 0.311498 0 -7.08279
42.2784 0.747618 0 -12.2713
36.1416 0.958714 0 -11.7968
52.6301 0.045232 0 -0.776321
60.1891 -0.0298174 0 -0.844856
39.2421 0.841536 0 -12.0514
44.6371 0.432047 0 -6.46816
56.3245 0.0510059 0 -0.784037
51.38 0.337261 0 -6.92326
47.9557 0.368828 0 -6.73137
36.1416 0.958714 0 -11.7968
29.9316 1.31107 0 -11.1089
45.6223 -0.29435 0 -0.654202
52.6301 0.045232 0 -0.776321
33.0295 1.13324 0 -11.4859
38.1103 0.588592 0 -5.80603
49.0317 -0.201979 0 -0.769605
44.6371 0.432047 0 -6.46816
41.3758 0.521104 0 -6.14645
29.9316 1.31107 0 -11.1089
23.0891 1.46208 0 -10.3687
40.2844 0.0492817 0 -0.685298
45.6223 -0.29435 0 -0.654202
26.6625 1.39617 0 -10.7287
32.1451 0.831604 0 -4.78251
42.7225 0.0889312 0 -0.555751
38.1103 0.588592 0 -5.80603
34.9776 0.655084 0 -5.39953
23.0891 1.46208 0 -10.3687
15.6496 1.42482 0 -9.84721
36.8048 -1.30073 0 -0.328927
40.2844 0.0492817 0 -0.685298
19.4045 1.60493 0 -10.0373
25.9555 1.16714 0 -3.67039
38.1136 -1.05928 0 -0.821288
32.1451 0.831604 0 -4.78251
29.2695 1.07114 0 -4.11504
15.6496 1.42482 0 -9.84721
6.02267 -1.59908 0 -11.3886
39.7426 1.1664 0 0.679289
36.8048 -1.30073 0 -0.328927
11.3087 0.369086 0 -10.1852
19.1716 0.969062 0 -2.94197
37.5168 0.797411 0 0.354183
25.9555 1.16714 0 -3.67039
22.4808 1.09699 0 -3.38361
6.02267 -1.59908 0 -11.3886
-1.91276 -13.7554 0 -17.4894
55.6139 5.49835 0 8.79846
39.7426 1.1664 0 0.679289
1.48936 -4.77549 0 -13.523
2.2771 -7.68054 0 -10.1131
44.0319 -1.79537 0 1.9154
19.1716 0.969062 0 -2.94197
13.5676 -0.520599 0 -4.26425
-1.91276 -13.7554 0 -17.4894
0.509851 -60.0693 0 -18.4309
7.49009 -76.3124 0 -48.5515
55.6139 5.49835 0 8.79846
-3.18378 -32.7189 0 -20.869
-6.48678 -75.777 0 -29.2463
58.116 13.8089 0 3.64651
2.2771 -7.68054 0 -10.1131
-5.76539 -25.6548 0 -18.9078
      </DataArray> 
      <DataArray type="Float64" NumberOfComponents="4" Name="GreenStrain" format="ascii">
-0.0011159 -1.11022e-16 0.000478242 -0.000379403
-0.000795689 0.000252215 0.000232917 1.45606e-05
-0.000571154 0.000113302 0.000196222 -4.24841e-05
-0.000507295 0 0.000217412 -2.90365e-05
-0.000885115 0.000281166 0.000258835 -5.34285e-05
-0.00072247 0.000175575 0.000234383 -5.50559e-05
-0.00054313 5.35188e-05 0.000209834 -4.92979e-05
-0.000596249 0 0.000255535 -9.20907e-05
-0.000696976 0.000118806 0.000247787 -8.63345e-05
-0.000795689 0.000252215 0.000232917 1.45606e-05
-0.00078636 0.000243654 0.000232588 4.51497e-06
-0.000593438 0.000160693 0.000185462 -2.0225e-05
-0.000571154 0.000113302 0.000196222 -4.24841e-05
-0.000784011 0.000232724 0.000236266 6.37277e-06
-0.000706374 0.000205894 0.000214491 -9.2269e-06
-0.000588785 0.000146754 0.000189442 -3.06343e-05
-0.00072247 0.000175575 0.000234383 -5.50559e-05
-0.000712388 0.000198905 0.000220064 -2.22892e-05
-0.00078636 0.000243654 0.000232588 4.51497e-06
-0.000797491 0.000236751 0.000240317 2.09851e-06
-0.000590571 0.000173968 0.000178544 -7.53032e-06
-0.000593438 0.000160693 0.000185462 -2.0225e-05
-0.000793825 0.000243146 0.000236005 4.57433e-06
-0.000698982 0.000209508 0.000209774 -9.538e-07
-0.000591803 0.000168951 0.000181222 -1.1889e-05
-0.000706374 0.000205894 0.000214491 -9.2269e-06
-0.000702535 0.00020849 0.000211733 -4.48049e-06
-0.000797491 0.000236751 0.000240317 2.09851e-06
-0.000802045 0.000241365 0.000240291 -2.43221e-07
-0.00058641 0.000175778 0.000175985 -4.7124e-06
-0.000590571 0.000173968 0.000178544 -7.53032e-06
-0.000799513 0.000237555 0.000240839 -4.18931e-07
-0.000694915 0.000209068 0.000208221 2.39921e-07
-0.000589016 0.000175727 0.000177124 -5.63474e-06
-0.000698982 0.000209508 0.000209774 -9.538e-07
-0.00069626 0.000209496 0.000208613 6.03367e-07
-0.000802045 0.000241365 0.000240291 -2.43221e-07
-0.000804372 0.000240494 0.000241662 1.62411e-07
-0.000581607 0.000175473 0.000174058 -4.59528e-06
-0.00058641 0.000175778 0.000175985 -4.7124e-06
-0.000804021 0.000241736 0.000240979 4.03841e-07
-0.000692884 0.000208395 0.000207638 -9.91287e-07
-0.000583644 0.000175682 0.000174841 -4.37307e-06
-0.000694915 0.000209068 0.000208221 2.39921e-07
-0.000694079 0.000208715 0.000208013 -5.54119e-07
-0.000804372 0.000240494 0.000241662 1.62411e-07
-0.000803479 0.000241181 0.000240985 -1.49275e-07
-0.00057796 0.00017418 0.000173049 -5.56284e-06
-0.000581607 0.000175473 0.000174058 -4.59528e-06
-0.000803919 0.000240585 0.000241429 -2.55535e-07
-0.000690362 0.000207486 0.000206947 -2.12153e-06
-0.000579859 0.000174908 0.00017355 -5.10445e-06
-0.000692884 0.000208395 0.000207638 -9.91287e-07
-0.000691566 0.000207973 0.000207254 -1.49311e-06
-0.000803479 0.000241181 0.000240985 -1.49275e-07
-0.000801509 0.000240291 0.000240522 8.16958e-09
-0.000574433 0.000172921 0.000172077 -6.37388e-06
-0.00057796 0.00017418 0.000173049 -5.56284e-06
-0.00080277 0.000240943 0.000240783 4.65664e-08
-0.000687683 0.000206511 0.000206216 -3.01135e-06
-0.000576092 0.000173525 0.000172529 -5.96949e-06
-0.000690362 0.000207486 0.000206947 -2.12153e-06
-0.000689119 0.000207 0.000206622 -2.6518e-06
-0.000801509 0.000240291 0.000240522 8.16958e-09
-0.000798324 0.000239549 0.000239475 -4.83575e-08
-0.000571264 0.000171696 0.000171244 -7.03397e-06
-0.000574433 0.000172921 0.000172077 -6.37388e-06
-0.000799945 0.000239879 0.000240028 -8.14746e-08
-0.000684582 0.000205484 0.000205328 -3.58382e-06
-0.000572864 0.000172304 0.000171668 -6.74759e-06
-0.000687683 0.000206511 0.000206216 -3.01135e-06
-0.000686142 0.000206005 0.000205773 -3.31761e-06
-0.000798324 0.000239549 0.000239475 -4.83575e-08
-0.000794719 0.000238411 0.000238418 -5.64422e-09
-0.000568133 0.00017059 0.000170376 -7.43441e-06
-0.000571264 0.000171696 0.000171244 -7.03397e-06
-0.000796598 0.00023903 0.000238958 1.95592e-09
-0.0006813 0.000204426 0.000204375 -3.92314e-06
-0.000569674 0.000171128 0.000170806 -7.25393e-06
-0.000684582 0.000205484 0.000205328 -3.58382e-06
-0.000682977 0.000204957 0.000204866 -3.78364e-06
-0.000794719 0.000238411 0.000238418 -5.64422e-09
-0.000790751 0.000237264 0.000237209 -1.34652e-08
-0.000565086 0.000169556 0.000169513 -7.68657e-06
-0.000568133 0.00017059 0.000170376 -7.43441e-06
-0.000792749 0.000237832 0.000237821 -2.36614e-08
-0.000677843 0.000203353 0.000203353 -4.11799e-06
-0.000566613 0.000170066 0.000169949 -7.58041e-06
-0.0006813 0.000204426 0.000204375 -3.92314e-06
-0.000679578 0.000203891 0.000203866 -4.03318e-06
-0.000790751 0.000237264 0.000237209 -1.34652e-08
-0.000786657 0.000236026 0.000235985 -3.01403e-09
-0.000562044 0.000168578 0.000168628 -7.82136e-06
-0.000565086 0.000169556 0.000169513 -7.68657e-06
-0.000788722 0.000236656 0.0002366 -1.31315e-09
-0.000674314 0.000202271 0.000202304 -4.21872e-06
-0.00056356 0.000169061 0.000169071 -7.76335e-06
-0.000677843 0.000203353 0.000203353 -4.11799e-06
-0.00067609 0.000202813 0.000202833 -4.17765e-06
-0.000786657 0.000236026 0.000235985 -3.01403e-09
-0.000782475 0.000234779 0.000234727 -3.25549e-09
-0.00055902 0.000167632 0.000167737 -7.89532e-06
-0.000562044 0.000168578 0.000168628 -7.82136e-06
-0.00078457 0.000235402 0.000235358 -6.17889e-09
-0.000670729 0.000201185 0.000201233 -4.27107e-06
-0.000560533 0.000168102 0.000168185 -7.865e-06
-0.000674314 0.000202271 0.000202304 -4.21872e-06
-0.000672524 0.000201728 0.000201769 -4.24927e-06
-0.000782475 0.000234779 0.000234727 -3.2555e-09
-0.000778263 0.000233513 0.000233464 -9.38938e-10
-0.000555995 0.000166706 0.000166838 -7.93066e-06
-0.00055902 0.000167632 0.000167737 -7.89532e-06
-0.000780373 0.000234148 0.000234096 -5.23759e-10
-0.000667123 0.000200098 0.000200154 -4.29481e-06
-0.000557506 0.000167167 0.000167288 -7.91603e-06
-0.000670729 0.000201185 0.000201233 -4.27107e-06
-0.000668929 0.000200642 0.000200694 -4.28541e-06
-0.000778263 0.000233513 0.000233464 -9.38938e-10
-0.000774035 0.000232246 0.000232195 -6.38782e-10
-0.000552972 0.000165791 0.000165935 -7.9476e-06
-0.000555995 0.000166706 0.000166838 -7.93066e-06
-0.00077615 0.00023288 0.00023283 -1.38536e-09
-0.000663503 0.00019901 0.000199068 -4.30554e-06
-0.000554484 0.000166248 0.000166387 -7.94093e-06
-0.000667123 0.000200098 0.000200154 -4.29481e-06
-0.000665314 0.000199554 0.000199611 -4.3013e-06
-0.000774035 0.000232246 0.000232195 -6.38782e-10
-0.000769803 0.000230976 0.000230926 -1.96464e-10
-0.000549949 0.00016488 0.000165029 -7.95442e-06
-0.000552972 0.000165791 0.000165935 -7.9476e-06
-0.00077192 0.000231611 0.000231561 -8.53883e-11
-0.000659879 0.000197922 0.000197981 -4.30938e-06
-0.000551461 0.000165335 0.000165482 -7.95176e-06
-0.000663503 0.00019901 0.000199068 -4.30554e-06
-0.000661691 0.000198466 0.000198525 -4.30799e-06
-0.000769803 0.000230976 0.000230926 -1.96464e-10
-0.00076557 0.000229706 0.000229656 -7.37005e-11
-0.000546926 0.000163973 0.000164123 -7.95695e-06
-0.000549949 0.00016488 0.000165029 -7.95442e-06
-0.000767686 0.000230341 0.000230291 -2.36572e-10
-0.000656251 0.000196834 0.000196893 -4.31056e-06
-0.000548438 0.000164426 0.000164576 -7.95606e-06
-0.000659879 0.000197922 0.000197981 -4.30938e-06
-0.000658065 0.000197378 0.000197437 -4.31018e-06
-0.00076557 0.000229706 0.000229656 -7.37005e-11
-0.000761336 0.000228436 0.000228386 -1.36503e-11
-0.000543903 0.000163066 0.000163216 -7.95748e-06
-0.000546926 0.000163973 0.000164123 -7.95695e-06
-0.000763453 0.000229071 0.000229021 1.94125e-11
-0.000652624 0.000195747 0.000195804 -4.31056e-06
-0.000545414 0.00016352 0.000163669 -7.95734e-06
-0.000656251 0.000196834 0.000196893 -4.31056e-06
-0.000654438 0.000196291 0.000196349 -4.31063e-06
-0.000761336 0.000228436 0.000228386 -1.36503e-11
-0.000757104 0.000227166 0.000227116 1.43503e-11
-0.000540879 0.000162161 0.000162308 -7.95736e-06
-0.000543903 0.000163066 0.000163216 -7.95748e-06
-0.00075922 0.000227801 0.000227751 -1.32281e-11
-0.000648996 0.000194659 0.000194716 -4.31028e-06
-0.000542391 0.000162613 0.000162762 -7.95746e-06
-0.000652624 0.000195747 0.000195804 -4.31056e-06
-0.00065081 0.000195203 0.00019526 -4.31043e-06
-0.000757104 0.000227166 0.000227116 1.43503e-11
-0.000752872 0.000225896 0.000225847 1.29161e-11
-0.000537856 0.000161255 0.0001614 -7.95706e-06
-0.000540879 0.000162161 0.000162308 -7.95736e-06
-0.000754988 0.000226531 0.000226482 2.3609e-11
-0.000645368 0.000193571 0.000193627 -4.30996e-06
-0.000539368 0.000161708 0.000161854 -7.95721e-06
-0.000648996 0.000194659 0.000194716 -4.31028e-06
-0.000647182 0.000194115 0.000194171 -4.31011e-06
-0.000752872 0.000225896 0.000225847 1.29161e-11
-0.00074864 0.000224626 0.000224577 1.54603e-11
-0.000534832 0.000160349 0.000160493 -7.95679e-06
-0.000537856 0.000161255 0.0001614 -7.95706e-06
-0.000750756 0.000225261 0.000225212 1.3265e-11
-0.00064174 0.000192484 0.000192539 -4.30972e-06
-0.000536344 0.000160802 0.000160947 -7.95692e-06
-0.000645368 0.000193571 0.000193627 -4.30996e-06
-0.000643554 0.000193028 0.000193083 -4.30983e-06
-0.00074864 0.000224626 0.000224577 1.54603e-11
-0.000744409 0.000223357 0.000223308 1.02839e-11
-0.000531809 0.000159444 0.000159585 -7.9566e-06
-0.000534832 0.000160349 0.000160493 -7.95679e-06
-0.000746525 0.000223991 0.000223943 1.38238e-11
-0.000638113 0.000191396 0.00019145 -4.30957e-06
-0.000533321 0.000159896 0.000160039 -7.95668e-06
-0.00064174 0.000192484 0.000192539 -4.30972e-06
-0.000639927 0.00019194 0.000191994 -4.30964e-06
-0.000744409 0.000223357 0.000223308 1.02839e-11
-0.000740178 0.000222087 0.000222039 9.06899e-12
-0.000528785 0.000158538 0.000158677 -7.95648e-06
-0.000531809 0.000159444 0.000159585 -7.9566e-06
-0.000742293 0.000222722 0.000222673 9.85791e-12
-0.000634485 0.000190309 0.000190362 -4.30948e-06
-0.000530297 0.000158991 0.000159131 -7.95653e-06
-0.000638113 0.000191396 0.00019145 -4.30957e-06
-0.000636299 0.000190852 0.000190906 -4.30951e-06
-0.000740178 0.000222087 0.000222039 9.06899e-12
-0.000735947 0.000220818 0.00022077 6.52019e-12
-0.000525762 0.000157632 0.00015777 -7.95642e-06
-0.000528785 0.000158538 0.000158677 -7.95648e-06
-0.000738062 0.000221452 0.000221404 7.64416e-12
-0.000630858 0.000189221 0.000189273 -4.30943e-06
-0.000527273 0.000158085 0.000158224 -7.95644e-06
-0.000634485 0.000190309 0.000190362 -4.30948e-06
-0.000632672 0.000189765 0.000189817 -4.30945e-06
-0.000735947 0.000220818 0.00022077 6.52019e-12
-0.000731716 0.000219548 0.0002195 5.66888e-12
-0.000522738 0.000156726 0.000156862 -7.95639e-06
-0.000525762 0.000157632 0.00015777 -7.95642e-06
-0.000733831 0.000220183 0.000220135 6.17618e-12
-0.000627231 0.000188133 0.000188185 -4.30941e-06
-0.00052425 0.000157179 0.000157316 -7.9564e-06
-0.000630858 0.000189221 0.000189273 -4.30943e-06
-0.000629044 0.000188677 0.000188729 -4.30942e-06
-0.000731716 0.000219548 0.0002195 5.6693e-12
-0.000727485 0.000218279 0.000218231 4.74492e-12
-0.000519715 0.000155821 0.000155955 -7.95638e-06
-0.000522738 0.000156726 0.000156862 -7.95639e-06
-0.0007296 0.000218913 0.000218866 5.07716e-12
-0.000623603 0.000187046 0.000187096 -4.30941e-06
-0.000521226 0.000156273 0.000156408 -7.95638e-06
-0.000627231 0.000188133 0.000188185 -4.30941e-06
-0.000625417 0.00018759 0.00018764 -4.30941e-06
-0.000727485 0.000218279 0.000218231 4.74492e-12
-0.000723254 0.000217009 0.000216962 4.41294e-12
-0.000516691 0.000154915 0.000155047 -7.95639e-06
-0.000519715 0.000155821 0.000155955 -7.95638e-06
-0.000725369 0.000217644 0.000217596 4.59177e-12
-0.000619976 0.000185958 0.000186008 -4.30941e-06
-0.000518203 0.000155368 0.000155501 -7.95639e-06
-0.000623603 0.000187046 0.000187096 -4.30941e-06
-0.00062179 0.000186502 0.000186552 -4.30941e-06
-0.000723254 0.000217009 0.000216962 4.41378e-12
-0.000719022 0.00021574 0.000215693 4.13508e-12
-0.000513668 0.000154009 0.000154139 -7.9564e-06
-0.000516691 0.000154915 0.000155047 -7.95639e-06
-0.000721138 0.000216375 0.000216327 4.21936e-12
-0.000616349 0.000184871 0.000184919 -4.30942e-06
-0.000515179 0.000154462 0.000154593 -7.95639e-06
-0.000619976 0.000185958 0.000186008 -4.30941e-06
-0.000618162 0.000185415 0.000185463 -4.30941e-06
-0.000719022 0.00021574 0.000215693 4.13508e-12
-0.000714791 0.00021447 0.000214423 4.02311e-12
-0.000510644 0.000153103 0.000153232 -7.95642e-06
-0.000513668 0.000154009 0.000154139 -7.9564e-06
-0.000716907 0.000215105 0.000215058 4.07705e-12
-0.000612721 0.000183783 0.000183831 -4.30943e-06
-0.000512156 0.000153556 0.000153686 -7.95641e-06
-0.000616349 0.000184871 0.000184919 -4.30942e-06
-0.000614535 0.000184327 0.000184375 -4.30942e-06
-0.000714791 0.00021447 0.000214423 4.02311e-12
-0.00071056 0.000213201 0.000213154 3.94981e-12
-0.000507621 0.000152198 0.000152324 -7.95643e-06
-0.000510644 0.000153103 0.000153232 -7.95642e-06
-0.000712676 0.000213836 0.000213789 3.96912e-12
-0.000609094 0.000182696 0.000182742 -4.30944e-06
-0.000509132 0.00015265 0.000152778 -7.95642e-06
-0.000612721 0.000183783 0.000183831 -4.30943e-06
-0.000610908 0.000183239 0.000183286 -4.30943e-06
-0.00071056 0.000213201 0.000213154 3.94981e-12
-0.00070633 0.000211932 0.000211885 3.91356e-12
-0.000504597 0.000151292 0.000151417 -7.95644e-06
-0.000507621 0.000152198 0.000152324 -7.95643e-06
-0.000708445 0.000212566 0.000212519 3.92908e-12
-0.000605467 0.000181608 0.000181654 -4.30945e-06
-0.000506109 0.000151745 0.00015187 -7.95644e-06
-0.000609094 0.000182696 0.000182742 -4.30944e-06
-0.000607281 0.000182152 0.000182198 -4.30944e-06
-0.00070633 0.000211932 0.000211885 3.91107e-12
-0.000702099 0.000210662 0.000210616 3.87573e-12
-0.000501574 0.000150386 0.000150509 -7.95646e-06
-0.000504597 0.000151292 0.000151417 -7.95644e-06
-0.000704214 0.000211297 0.00021125 3.8927e-12
-0.00060184 0.000180521 0.000180565 -4.30946e-06
-0.000503085 0.000150839 0.000150963 -7.95645e-06
-0.000605467 0.000181608 0.000181654 -4.30945e-06
-0.000603653 0.000181064 0.00018111 -4.30945e-06
-0.000702099 0.000210662 0.000210616 3.87573e-12
-0.000697868 0.000209393 0.000209346 3.85902e-12
-0.00049855 0.00014948 0.000149601 -7.95647e-06
-0.000501574 0.000150386 0.000150509 -7.95646e-06
-0.000699983 0.000210027 0.000209981 3.86894e-12
-0.000598212 0.000179433 0.000179477 -4.30947e-06
-0.000500062 0.000149933 0.000150055 -7.95647e-06
-0.00060184 0.000180521 0.000180565 -4.30946e-06
-0.000600026 0.000179977 0.000180021 -4.30946e-06
-0.000697868 0.000209393 0.000209346 3.86234e-12
-0.000693637 0.000208123 0.000208077 3.84081e-12
-0.000495527 0.000148574 0.000148694 -7.95649e-06
-0.00049855 0.00014948 0.000149601 -7.95647e-06
-0.000695752 0.000208758 0.000208712 3.85285e-12
-0.000594585 0.000178345 0.000178388 -4.30948e-06
-0.000497039 0.000149027 0.000149148 -7.95648e-06
-0.000598212 0.000179433 0.000179477 -4.30947e-06
-0.000596399 0.000178889 0.000178933 -4.30947e-06
-0.000693637 0.000208123 0.000208077 3.84081e-12
-0.000689406 0.000206854 0.000206808 3.82531e-12
-0.000492503 0.000147669 0.000147786 -7.9565e-06
-0.000495527 0.000148574 0.000148694 -7.95649e-06
-0.000691521 0.000207489 0.000207442 3.82787e-12
-0.000590958 0.000177258 0.0001773 -4.30949e-06
-0.000494015 0.000148122 0.00014824 -7.95649e-06
-0.000594585 0.000178345 0.000178388 -4.30948e-06
-0.000592772 0.000177802 0.000177844 -4.30948e-06
-0.000689406 0.000206854 0.000206808 3.81869e-12
-0.000685175 0.000205585 0.000205539 3.79365e-12
-0.00048948 0.000146763 0.000146879 -7.95651e-06
-0.000492503 0.000147669 0.000147786 -7.9565e-06
-0.00068729 0.000206219 0.000206173 3.81024e-12
-0.000587331 0.00017617 0.000176212 -4.3095e-06
-0.000490992 0.000147216 0.000147333 -7.95651e-06
-0.000590958 0.000177258 0.0001773 -4.30949e-06
-0.000589144 0.000176714 0.000176756 -4.30949e-06
-0.000685175 0.000205585 0.000205539 3.79365e-12
-0.000680944 0.000204315 0.000204269 3.77179e-12
-0.000486457 0.000145857 0.000145971 -7.95652e-06
-0.00048948 0.000146763 0.000146879 -7.95651e-06
-0.000683059 0.00020495 0.000204904 3.79009e-12
-0.000583703 0.000175083 0.000175123 -4.3095e-06
-0.000487968 0.00014631 0.000146425 -7.95652e-06
-0.000587331 0.00017617 0.000176212 -4.3095e-06
-0.000585517 0.000175627 0.000175667 -4.3095e-06
-0.000680944 0.000204315 0.000204269 3.77841e-12
-0.000676713 0.000203046 0.000203 3.76216e-12
-0.000483433 0.000144951 0.000145064 -7.95654e-06
-0.000486457 0.000145857 0.000145971 -7.95652e-06
-0.000678828 0.00020368 0.000203635 3.77382e-12
-0.000580076 0.000173995 0.000174035 -4.30951e-06
-0.000484945 0.000145404 0.000145517 -7.95653e-06
-0.000583703 0.000175083 0.000175123 -4.3095e-06
-0.00058189 0.000174539 0.000174579 -4.30951e-06
-0.000676713 0.000203046 0.000203 3.76216e-12
-0.000672482 0.000201776 0.000201731 3.74036e-12
-0.00048041 0.000144045 0.000144156 -7.95655e-06
-0.000483433 0.000144951 0.000145064 -7.95654e-06
-0.000674597 0.000202411 0.000202366 3.75694e-12
-0.000576449 0.000172908 0.000172946 -4.30952e-06
-0.000481922 0.000144498 0.00014461 -7.95654e-06
-0.000580076 0.000173995 0.000174035 -4.30951e-06
-0.000578263 0.000173451 0.000173491 -4.30952e-06
-0.000672482 0.000201776 0.000201731 3.73705e-12
-0.000668251 0.000200507 0.000200462 3.70813e-12
-0.000477387 0.00014314 0.000143249 -7.95656e-06
-0.00048041 0.000144045 0.000144156 -7.95655e-06
-0.000670366 0.000201142 0.000201096 3.71332e-12
-0.000572822 0.00017182 0.000171858 -4.30953e-06
-0.000478898 0.000143593 0.000143702 -7.95655e-06
-0.000576449 0.000172908 0.000172946 -4.30952e-06
-0.000574635 0.000172364 0.000172402 -4.30952e-06
-0.000668251 0.000200507 0.000200462 3.70813e-12
-0.00066402 0.000199238 0.000199192 3.6888e-12
-0.000474363 0.000142234 0.000142341 -7.95657e-06
-0.000477387 0.00014314 0.000143249 -7.95656e-06
-0.000666135 0.000199872 0.000199827 3.69877e-12
-0.000569195 0.000170733 0.000170769 -4.30954e-06
-0.000475875 0.000142687 0.000142795 -7.95656e-06
-0.000572822 0.00017182 0.000171858 -4.30953e-06
-0.000571008 0.000171276 0.000171314 -4.30953e-06
-0.00066402 0.000199238 0.000199192 3.6888e-12
-0.000659789 0.000197968 0.000197923 3.65291e-12
-0.00047134 0.000141328 0.000141434 -7.95658e-06
-0.000474363 0.000142234 0.000142341 -7.95657e-06
-0.000661904 0.000198603 0.000198558 3.66866e-12
-0.000565568 0.000169645 0.000169681 -4.30954e-06
-0.000472852 0.000141781 0.000141887 -7.95658e-06
-0.000569195 0.000170733 0.000170769 -4.30954e-06
-0.000567381 0.000170189 0.000170225 -4.30954e-06
-0.000659789 0.000197968 0.000197923 3.65292e-12
-0.000655558 0.000196699 0.000196654 3.6343e-12
-0.000468317 0.000140422 0.000140526 -7.95659e-06
-0.00047134 0.000141328 0.000141434 -7.95658e-06
-0.000657674 0.000197334 0.000197289 3.63993e-12
-0.00056194 0.000168557 0.000168593 -4.30955e-06
-0.000469828 0.000140875 0.00014098 -7.95659e-06
-0.000565568 0.000169645 0.000169681 -4.30954e-06
-0.000563754 0.000169101 0.000169137 -4.30955e-06
-0.000655558 0.000196699 0.000196654 3.6343e-12
-0.000651327 0.000195429 0.000195385 3.61507e-12
-0.000465293 0.000139516 0.000139619 -7.9566e-06
-0.000468317 0.000140422 0.000140526 -7.95659e-06
-0.000653443 0.000196064 0.000196019 3.61729e-12
-0.000558313 0.00016747 0.000167504 -4.30956e-06
-0.000466805 0.000139969 0.000140072 -7.9566e-06
-0.00056194 0.000168557 0.000168593 -4.30955e-06
-0.000560127 0.000168014 0.000168048 -4.30956e-06
-0.000651327 0.000195429 0.000195385 3.6093e-12
-0.000647096 0.00019416 0.000194116 3.58289e-12
-0.00046227 0.000138611 0.000138711 -7.95662e-06
-0.000465293 0.000139516 0.000139619 -7.9566e-06
-0.000649212 0.000194795 0.00019475 3.59732e-12
-0.000554686 0.000166382 0.000166416 -4.30957e-06
-0.000463782 0.000139064 0.000139165 -7.95661e-06
-0.000558313 0.00016747 0.000167504 -4.30956e-06
-0.0005565 0.000166926 0.00016696 -4.30956e-06
-0.000647096 0.00019416 0.000194116 3.58289e-12
-0.000642865 0.000192891 0.000192846 3.54816e-12
-0.000459247 0.000137705 0.000137804 -7.95663e-06
-0.00046227 0.000138611 0.000138711 -7.95662e-06
-0.000644981 0.000193525 0.000193481 3.57208e-12
-0.000551059 0.000165295 0.000165328 -4.30957e-06
-0.000460758 0.000138158 0.000138257 -7.95662e-06
-0.000554686 0.000166382 0.000166416 -4.30957e-06
-0.000552873 0.000165839 0.000165872 -4.30957e-06
-0.000642865 0.000192891 0.000192846 3.54898e-12
-0.000638635 0.000191621 0.000191577 3.538e-12
-0.000456223 0.000136799 0.000136896 -7.95664e-06
-0.000459247 0.000137705 0.000137804 -7.95663e-06
-0.00064075 0.000192256 0.000192212 3.53608e-12
-0.000547432 0.000164207 0.000164239 -4.30958e-06
-0.000457735 0.000137252 0.00013735 -7.95663e-06
-0.000551059 0.000165295 0.000165328 -4.30957e-06
-0.000549245 0.000164751 0.000164783 -4.30958e-06
-0.000638635 0.000191621 0.000191577 3.538e-12
-0.000634404 0.000190352 0.000190308 3.49857e-12
-0.0004532 0.000135893 0.000135989 -7.95665e-06
-0.000456223 0.000136799 0.000136896 -7.95664e-06
-0.000636519 0.000190987 0.000190942 3.53252e-12
-0.000543805 0.00016312 0.000163151 -4.30959e-06
-0.000454712 0.000136346 0.000136442 -7.95664e-06
-0.000547432 0.000164207 0.000164239 -4.30958e-06
-0.000545618 0.000163663 0.000163695 -4.30959e-06
-0.000634404 0.000190352 0.000190308 3.49857e-12
-0.000630173 0.000189083 0.000189039 3.47299e-12
-0.000450177 0.000134987 0.000135081 -7.95666e-06
-0.0004532 0.000135893 0.000135989 -7.95665e-06
-0.000632288 0.000189717 0.000189673 3.48045e-12
-0.000540178 0.000162032 0.000162062 -4.3096e-06
-0.000451689 0.00013544 0.000135535 -7.95665e-06
-0.000543805 0.00016312 0.000163151 -4.30959e-06
-0.000541991 0.000162576 0.000162607 -4.30959e-06
-0.000630173 0.000189083 0.000189039 3.47299e-12
-0.000625942 0.000187813 0.000187769 3.45554e-12
-0.000447154 0.000134082 0.000134174 -7.95667e-06
-0.000450177 0.000134987 0.000135081 -7.95666e-06
-0.000628057 0.000188448 0.000188404 3.46779e-12
-0.000536551 0.000160945 0.000160974 -4.30961e-06
-0.000448665 0.000134534 0.000134628 -7.95666e-06
-0.000540178 0.000162032 0.000162062 -4.3096e-06
-0.000538364 0.000161488 0.000161518 -4.3096e-06
-0.000625942 0.000187813 0.000187769 3.46217e-12
-0.000621711 0.000186544 0.0001865 3.41757e-12
-0.000444131 0.000133176 0.000133266 -7.95668e-06
-0.000447154 0.000134082 0.000134174 -7.95667e-06
-0.000623826 0.000187179 0.000187135 3.45166e-12
-0.000532924 0.000159857 0.000159886 -4.30961e-06
-0.000445642 0.000133629 0.00013372 -7.95668e-06
-0.000536551 0.000160945 0.000160974 -4.30961e-06
-0.000534737 0.000160401 0.00016043 -4.30961e-06
-0.000621711 0.000186544 0.0001865 3.41757e-12
-0.00061748 0.000185275 0.000185231 3.39782e-12
-0.000441107 0.00013227 0.000132359 -7.95669e-06
-0.000444131 0.000133176 0.000133266 -7.95668e-06
-0.000619596 0.000185909 0.000185866 3.40174e-12
-0.000529296 0.000158769 0.000158797 -4.30962e-06
-0.000442619 0.000132723 0.000132813 -7.95669e-06
-0.000532924 0.000159857 0.000159886 -4.30961e-06
-0.00053111 0.000159313 0.000159341 -4.30962e-06
-0.00061748 0.000185275 0.000185231 3.39782e-12
-0.000613249 0.000184005 0.000183962 3.36843e-12
-0.000438084 0.000131364 0.000131451 -7.9567e-06
-0.000441107 0.00013227 0.000132359 -7.95669e-06
-0.000615365 0.00018464 0.000184596 3.40084e-12
-0.000525669 0.000157682 0.000157709 -4.30963e-06
-0.000439596 0.000131817 0.000131905 -7.9567e-06
-0.000529296 0.000158769 0.000158797 -4.30962e-06
-0.000527483 0.000158226 0.000158253 -4.30962e-06
-0.000613249 0.000184005 0.000183962 3.38169e-12
-0.000609019 0.000182736 0.000182693 3.35221e-12
-0.000435061 0.000130458 0.000130544 -7.95671e-06
-0.000438084 0.000131364 0.000131451 -7.9567e-06
-0.000611134 0.000183371 0.000183327 3.36447e-12
-0.000522042 0.000156594 0.000156621 -4.30964e-06
-0.000436573 0.000130911 0.000130998 -7.95671e-06
-0.000525669 0.000157682 0.000157709 -4.30963e-06
-0.000523856 0.000157138 0.000157165 -4.30963e-06
-0.000609019 0.000182736 0.000182693 3.35385e-12
-0.000604788 0.000181467 0.000181423 3.32715e-12
-0.000432038 0.000129552 0.000129637 -7.95672e-06
-0.000435061 0.000130458 0.000130544 -7.95671e-06
-0.000606903 0.000182101 0.000182058 3.34718e-12
-0.000518415 0.000155507 0.000155532 -4.30964e-06
-0.000433549 0.000130005 0.00013009 -7.95672e-06
-0.000522042 0.000156594 0.000156621 -4.30964e-06
-0.000520229 0.000156051 0.000156076 -4.30964e-06
-0.000604788 0.000181467 0.000181423 3.32715e-12
-0.000600557 0.000180197 0.000180154 3.30397e-12
-0.000429015 0.000128646 0.000128729 -7.95673e-06
-0.000432038 0.000129552 0.000129637 -7.95672e-06
-0.000602672 0.000180832 0.000180789 3.30022e-12
-0.000514788 0.000154419 0.000154444 -4.30965e-06
-0.000430526 0.000129099 0.000129183 -7.95673e-06
-0.000518415 0.000155507 0.000155532 -4.30964e-06
-0.000516602 0.000154963 0.000154988 -4.30965e-06
-0.000600557 0.000180197 0.000180154 3.30397e-12
-0.000596326 0.000178928 0.000178885 3.2628e-12
-0.000425992 0.000127741 0.000127822 -7.95674e-06
-0.000429015 0.000128646 0.000128729 -7.95673e-06
-0.000598442 0.000179563 0.00017952 3.28944e-12
-0.000511161 0.000153332 0.000153356 -4.30966e-06
-0.000427503 0.000128194 0.000128276 -7.95674e-06
-0.000514788 0.000154419 0.000154444 -4.30965e-06
-0.000512975 0.000153875 0.0001539 -4.30965e-06
-0.000596326 0.000178928 0.000178885 3.27106e-12
-0.000592095 0.000177659 0.000177616 3.24359e-12
-0.000422968 0.000126835 0.000126914 -7.95676e-06
-0.000425992 0.000127741 0.000127822 -7.95674e-06
-0.000594211 0.000178293 0.00017825 3.25314e-12
-0.000507534 0.000152244 0.000152267 -4.30967e-06
-0.00042448 0.000127288 0.000127368 -7.95675e-06
-0.000511161 0.000153332 0.000153356 -4.30966e-06
-0.000509348 0.000152788 0.000152811 -4.30966e-06
-0.000592095 0.000177659 0.000177616 3.23697e-12
-0.000587865 0.000176389 0.000176347 3.22561e-12
-0.000419945 0.000125929 0.000126007 -7.95677e-06
-0.000422968 0.000126835 0.000126914 -7.95676e-06
-0.00058998 0.000177024 0.000176981 3.22512e-12
-0.000503907 0.000151157 0.000151179 -4.30967e-06
-0.000421457 0.000126382 0.000126461 -7.95676e-06
-0.000507534 0.000152244 0.000152267 -4.30967e-06
-0.000505721 0.0001517 0.000151723 -4.30967e-06
-0.000587865 0.000176389 0.000176347 3.22561e-12
-0.000583634 0.00017512 0.000175077 3.19917e-12
-0.000416922 0.000125023 0.0001251 -7.95678e-06
-0.000419945 0.000125929 0.000126007 -7.95677e-06
-0.000585749 0.000175755 0.000175712 3.21664e-12
-0.00050028 0.000150069 0.000150091 -4.30968e-06
-0.000418434 0.000125476 0.000125553 -7.95677e-06
-0.000503907 0.000151157 0.000151179 -4.30967e-06
-0.000502094 0.000150613 0.000150635 -4.30968e-06
-0.000583634 0.00017512 0.000175077 3.19917e-12
-0.000579403 0.000173851 0.000173808 3.17179e-12
-0.000413899 0.000124117 0.000124192 -7.95679e-06
-0.000416922 0.000125023 0.0001251 -7.95678e-06
-0.000581518 0.000174485 0.000174443 3.18945e-12
-0.000496653 0.000148981 0.000149002 -4.30969e-06
-0.000415411 0.00012457 0.000124646 -7.95678e-06
-0.00050028 0.000150069 0.000150091 -4.30968e-06
-0.000498467 0.000149525 0.000149546 -4.30968e-06
-0.000579403 0.000173851 0.000173808 3.17178e-12
-0.000575172 0.000172581 0.000172539 3.14303e-12
-0.000410876 0.000123211 0.000123285 -7.9568e-06
-0.000413899 0.000124117 0.000124192 -7.95679e-06
-0.000577288 0.000173216 0.000173174 3.15119e-12
-0.000493027 0.000147894 0.000147914 -4.3097e-06
-0.000412388 0.000123664 0.000123739 -7.95679e-06
-0.000496653 0.000148981 0.000149002 -4.30969e-06
-0.00049484 0.000148438 0.000148458 -4.30969e-06
-0.000575172 0.000172581 0.000172539 3.15631e-12
-0.000570942 0.000171312 0.00017127 3.13097e-12
-0.000407853 0.000122305 0.000122378 -7.95681e-06
-0.000410876 0.000123211 0.000123285 -7.9568e-06
-0.000573057 0.000171947 0.000171904 3.1435e-12
-0.0004894 0.000146806 0.000146826 -4.3097e-06
-0.000409365 0.000122758 0.000122831 -7.9568e-06
-0.000493027 0.000147894 0.000147914 -4.3097e-06
-0.000491213 0.00014735 0.00014737 -4.3097e-06
-0.000570942 0.000171312 0.00017127 3.13097e-12
-0.000566711 0.000170043 0.000170001 3.09514e-12
-0.00040483 0.0001214 0.00012147 -7.95682e-06
-0.000407853 0.000122305 0.000122378 -7.95681e-06
-0.000568826 0.000170677 0.000170635 3.11404e-12
-0.000485773 0.000145719 0.000145737 -4.30971e-06
-0.000406342 0.000121853 0.000121924 -7.95681e-06
-0.0004894 0.000146806 0.000146826 -4.3097e-06
-0.000487586 0.000146263 0.000146282 -4.30971e-06
-0.000566711 0.000170043 0.000170001 3.09514e-12
-0.00056248 0.000168773 0.000168731 3.07004e-12
-0.000401807 0.000120494 0.000120563 -7.95683e-06
-0.00040483 0.0001214 0.00012147 -7.95682e-06
-0.000564595 0.000169408 0.000169366 3.06863e-12
-0.000482146 0.000144631 0.000144649 -4.30972e-06
-0.000403318 0.000120947 0.000121017 -7.95682e-06
-0.000485773 0.000145719 0.000145737 -4.30971e-06
-0.000483959 0.000145175 0.000145193 -4.30971e-06
-0.00056248 0.000168773 0.000168731 3.05842e-12
-0.000558249 0.000167504 0.000167462 3.05015e-12
-0.000398784 0.000119588 0.000119655 -7.95684e-06
-0.000401807 0.000120494 0.000120563 -7.95683e-06
-0.000560365 0.000168139 0.000168097 3.05725e-12
-0.000478519 0.000143544 0.000143561 -4.30972e-06
-0.000400295 0.000120041 0.000120109 -7.95683e-06
-0.000482146 0.000144631 0.000144649 -4.30972e-06
-0.000480332 0.000144087 0.000144105 -4.30972e-06
-0.000558249 0.000167504 0.000167462 3.03689e-12
-0.000554019 0.000166235 0.000166193 3.02256e-12
-0.000395761 0.000118682 0.000118748 -7.95685e-06
-0.000398784 0.000119588 0.000119655 -7.95684e-06
-0.000556134 0.000166869 0.000166828 3.03684e-12
-0.000474892 0.000142456 0.000142473 -4.30973e-06
-0.000397272 0.000119135 0.000119202 -7.95684e-06
-0.000478519 0.000143544 0.000143561 -4.30972e-06
-0.000476705 0.000143 0.000143017 -4.30973e-06
-0.000554019 0.000166235 0.000166193 3.02256e-12
-0.000549788 0.000164965 0.000164924 2.9976e-12
-0.000392738 0.000117776 0.000117841 -7.95686e-06
-0.000395761 0.000118682 0.000118748 -7.95685e-06
-0.000551903 0.0001656 0.000165558 3.01218e-12
-0.000471265 0.000141369 0.000141384 -4.30974e-06
-0.000394249 0.000118229 0.000118295 -7.95685e-06
-0.000474892 0.000142456 0.000142473 -4.30973e-06
-0.000473079 0.000141912 0.000141928 -4.30974e-06
-0.000549788 0.000164965 0.000164924 2.9976e-12
-0.000545557 0.000163696 0.000163655 2.95566e-12
-0.000389715 0.00011687 0.000116934 -7.95687e-06
-0.000392738 0.000117776 0.000117841 -7.95686e-06
-0.000547673 0.000164331 0.000164289 2.99069e-12
-0.000467638 0.000140281 0.000140296 -4.30975e-06
-0.000391227 0.000117323 0.000117387 -7.95686e-06
-0.000471265 0.000141369 0.000141384 -4.30974e-06
-0.000469452 0.000140825 0.00014084 -4.30974e-06
-0.000545557 0.000163696 0.000163655 2.96891e-12
-0.000541327 0.000162427 0.000162386 2.93979e-12
-0.000386692 0.000115964 0.000116026 -7.95688e-06
-0.000389715 0.00011687 0.000116934 -7.95687e-06
-0.000543442 0.000163061 0.00016302 2.95002e-12
-0.000464011 0.000139193 0.000139208 -4.30975e-06
-0.000388204 0.000116417 0.00011648 -7.95687e-06
-0.000467638 0.000140281 0.000140296 -4.30975e-06
-0.000465825 0.000139737 0.000139752 -4.30975e-06
-0.000541327 0.000162427 0.000162386 2.93315e-12
-0.000537096 0.000161158 0.000161116 2.90967e-12
-0.000383669 0.000115058 0.000115119 -7.95689e-06
-0.000386692 0.000115964 0.000116026 -7.95688e-06
-0.000539211 0.000161792 0.000161751 2.9348e-12
-0.000460385 0.000138106 0.000138119 -4.30976e-06
-0.000385181 0.000115511 0.000115573 -7.95688e-06
-0.000464011 0.000139193 0.000139208 -4.30975e-06
-0.000462198 0.00013865 0.000138664 -4.30976e-06
-0.000537096 0.000161158 0.000161116 2.90967e-12
-0.000532865 0.000159888 0.000159847 2.88003e-12
-0.000380646 0.000114152 0.000114212 -7.9569e-06
-0.000383669 0.000115058 0.000115119 -7.95689e-06
-0.00053498 0.000160523 0.000160482 2.89636e-12
-0.000456758 0.000137018 0.000137031 -4.30977e-06
-0.000382158 0.000114605 0.000114665 -7.95689e-06
-0.000460385 0.000138106 0.000138119 -4.30976e-06
-0.000458571 0.000137562 0.000137575 -4.30976e-06
-0.000532865 0.000159888 0.000159847 2.88003e-12
-0.000528635 0.000158619 0.000158578 2.86743e-12
-0.000377623 0.000113247 0.000113304 -7.95691e-06
-0.000380646 0.000114152 0.000114212 -7.9569e-06
-0.00053075 0.000159254 0.000159213 2.8763e-12
-0.000453131 0.000135931 0.000135943 -4.30977e-06
-0.000379135 0.0001137 0.000113758 -7.9569e-06
-0.000456758 0.000137018 0.000137031 -4.30977e-06
-0.000454944 0.000136475 0.000136487 -4.30977e-06
-0.000528635 0.000158619 0.000158578 2.85418e-12
-0.000524404 0.00015735 0.000157309 2.84437e-12
-0.0003746 0.000112341 0.000112397 -7.95692e-06
-0.000377623 0.000113247 0.000113304 -7.95691e-06
-0.000526519 0.000157984 0.000157943 2.85008e-12
-0.000449504 0.000134843 0.000134855 -4.30978e-06
-0.000376112 0.000112794 0.000112851 -7.95691e-06
-0.000453131 0.000135931 0.000135943 -4.30977e-06
-0.000451318 0.000135387 0.000135399 -4.30978e-06
-0.000524404 0.00015735 0.000157309 2.83775e-12
-0.000520173 0.00015608 0.00015604 2.82846e-12
-0.000371578 0.000111435 0.00011149 -7.95693e-06
-0.0003746 0.000112341 0.000112397 -7.95692e-06
-0.000522289 0.000156715 0.000156674 2.83062e-12
-0.000445877 0.000133756 0.000133766 -4.30979e-06
-0.000373089 0.000111888 0.000111943 -7.95692e-06
-0.000449504 0.000134843 0.000134855 -4.30978e-06
-0.000447691 0.000134299 0.000134311 -4.30979e-06
-0.000520173 0.00015608 0.00015604 2.82846e-12
-0.000515943 0.000154811 0.000154771 2.77653e-12
-0.000368555 0.000110529 0.000110583 -7.95694e-06
-0.000371578 0.000111435 0.00011149 -7.95693e-06
-0.000518058 0.000155446 0.000155405 2.81836e-12
-0.000442251 0.000132668 0.000132678 -4.3098e-06
-0.000370066 0.000110982 0.000111036 -7.95693e-06
-0.000445877 0.000133756 0.000133766 -4.30979e-06
-0.000444064 0.000133212 0.000133222 -4.30979e-06
-0.000515943 0.000154811 0.000154771 2.77653e-12
-0.000511712 0.000153542 0.000153501 2.76567e-12
-0.000365532 0.000109623 0.000109675 -7.95695e-06
-0.000368555 0.000110529 0.000110583 -7.95694e-06
-0.000513827 0.000154177 0.000154136 2.78479e-12
-0.000438624 0.000131581 0.00013159 -4.3098e-06
-0.000367043 0.000110076 0.000110129 -7.95694e-06
-0.000442251 0.000132668 0.000132678 -4.3098e-06
-0.000440437 0.000132124 0.000132134 -4.3098e-06
-0.000511712 0.000153542 0.000153501 2.7607e-12
-0.000507481 0.000152273 0.000152232 2.73812e-12
-0.000362509 0.000108717 0.000108768 -7.95696e-06
-0.000365532 0.000109623 0.000109675 -7.95695e-06
-0.000509597 0.000152907 0.000152867 2.73518e-12
-0.000434997 0.000130493 0.000130502 -4.30981e-06
-0.00036402 0.00010917 0.000109222 -7.95695e-06
-0.000438624 0.000131581 0.00013159 -4.3098e-06
-0.00043681 0.000131037 0.000131046 -4.30981e-06
-0.000507481 0.000152273 0.000152232 2.72984e-12
-0.000503251 0.000151003 0.000150963 2.70672e-12
-0.000359486 0.000107811 0.000107861 -7.95697e-06
-0.000362509 0.000108717 0.000108768 -7.95696e-06
-0.000505366 0.000151638 0.000151598 2.724e-12
-0.00043137 0.000129405 0.000129414 -4.30982e-06
-0.000360998 0.000108264 0.000108314 -7.95696e-06
-0.000434997 0.000130493 0.000130502 -4.30981e-06
-0.000433184 0.000129949 0.000129958 -4.30981e-06
-0.000503251 0.000151003 0.000150963 2.70672e-12
-0.00049902 0.000149734 0.000149694 2.69997e-12
-0.000356463 0.000106905 0.000106954 -7.95698e-06
-0.000359486 0.000107811 0.000107861 -7.95697e-06
-0.000501135 0.000150369 0.000150329 2.70257e-12
-0.000427744 0.000128318 0.000128325 -4.30983e-06
-0.000357975 0.000107358 0.000107407 -7.95697e-06
-0.00043137 0.000129405 0.000129414 -4.30982e-06
-0.000429557 0.000128862 0.000128869 -4.30982e-06
-0.00049902 0.000149734 0.000149694 2.69997e-12
-0.00049479 0.000148465 0.000148425 2.66585e-12
-0.000353441 0.000105999 0.000106046 -7.95699e-06
-0.000356463 0.000106905 0.000106954 -7.95698e-06
-0.000496905 0.000149099 0.000149059 2.69024e-12
-0.000424117 0.00012723 0.000127237 -4.30983e-06
-0.000354952 0.000106452 0.0001065 -7.95698e-06
-0.000427744 0.000128318 0.000128325 -4.30983e-06
-0.00042593 0.000127774 0.000127781 -4.30983e-06
-0.00049479 0.000148465 0.000148425 2.65261e-12
-0.000490559 0.000147196 0.000147156 2.62156e-12
-0.000350418 0.000105093 0.000105139 -7.957e-06
-0.000353441 0.000105999 0.000106046 -7.95699e-06
-0.000492674 0.00014783 0.00014779 2.65621e-12
-0.00042049 0.000126143 0.000126149 -4.30984e-06
-0.000351929 0.000105546 0.000105593 -7.95699e-06
-0.000424117 0.00012723 0.000127237 -4.30983e-06
-0.000422303 0.000126686 0.000126693 -4.30984e-06
-0.000490559 0.000147196 0.000147156 2.64311e-12
-0.000486328 0.000145926 0.000145887 2.62821e-12
-0.000347395 0.000104187 0.000104232 -7.95701e-06
-0.000350418 0.000105093 0.000105139 -7.957e-06
-0.000488444 0.000146561 0.000146521 2.63229e-12
-0.000416863 0.000125055 0.000125061 -4.30985e-06
-0.000348906 0.00010464 0.000104685 -7.957e-06
-0.00042049 0.000126143 0.000126149 -4.30984e-06
-0.000418677 0.000125599 0.000125605 -4.30984e-06
-0.000486328 0.000145926 0.000145887 2.62821e-12
-0.000482098 0.000144657 0.000144617 2.60428e-12
-0.000344372 0.000103281 0.000103325 -7.95702e-06
-0.000347395 0.000104187 0.000104232 -7.95701e-06
-0.000484213 0.000145292 0.000145252 2.61306e-12
-0.000413237 0.000123968 0.000123972 -4.30985e-06
-0.000345884 0.000103734 0.000103778 -7.95701e-06
-0.000416863 0.000125055 0.000125061 -4.30985e-06
-0.00041505 0.000124511 0.000124517 -4.30985e-06
-0.000482098 0.000144657 0.000144617 2.60428e-12
-0.000477867 0.000143388 0.000143348 2.59161e-12
-0.00034135 0.000102375 0.000102417 -7.95703e-06
-0.000344372 0.000103281 0.000103325 -7.95702e-06
-0.000479983 0.000144022 0.000143983 2.60169e-12
-0.00040961 0.00012288 0.000122884 -4.30986e-06
-0.000342861 0.000102828 0.000102871 -7.95702e-06
-0.000413237 0.000123968 0.000123972 -4.30985e-06
-0.000411423 0.000123424 0.000123428 -4.30986e-06
-0.000477867 0.000143388 0.000143348 2.57833e-12
-0.000473637 0.000142119 0.000142079 2.53846e-12
-0.000338327 0.000101469 0.00010151 -7.95704e-06
-0.00034135 0.000102375 0.000102417 -7.95703e-06
-0.000475752 0.000142753 0.000142714 2.57528e-12
-0.000405983 0.000121792 0.000121796 -4.30987e-06
-0.000339838 0.000101922 0.000101964 -7.95703e-06
-0.00040961 0.00012288 0.000122884 -4.30986e-06
-0.000407797 0.000122336 0.00012234 -4.30986e-06
-0.000473637 0.000142119 0.000142079 2.54672e-12
-0.000469406 0.000140849 0.00014081 2.52819e-12
-0.000335304 0.000100564 0.000100603 -7.95705e-06
-0.000338327 0.000101469 0.00010151 -7.95704e-06
-0.000471521 0.000141484 0.000141445 2.54822e-12
-0.000402357 0.000120705 0.000120708 -4.30988e-06
-0.000336815 0.000101017 0.000101057 -7.95704e-06
-0.000405983 0.000121792 0.000121796 -4.30987e-06
-0.00040417 0.000121249 0.000121252 -4.30987e-06
-0.000469406 0.000140849 0.00014081 2.52819e-12
-0.000465176 0.00013958 0.000139541 2.50339e-12
-0.000332281 9.96576e-05 9.96959e-05 -7.95706e-06
-0.000335304 0.000100564 0.000100603 -7.95705e-06
-0.000467291 0.000140215 0.000140176 2.52596e-12
-0.00039873 0.000119617 0.00011962 -4.30988e-06
-0.000333793 0.000100111 0.00010015 -7.95705e-06
-0.000402357 0.000120705 0.000120708 -4.30988e-06
-0.000400543 0.000120161 0.000120164 -4.30988e-06
-0.000465176 0.00013958 0.000139541 2.50339e-12
-0.000460945 0.000138311 0.000138272 2.4645e-12
-0.000329259 9.87516e-05 9.87888e-05 -7.95707e-06
-0.000332281 9.96576e-05 9.96959e-05 -7.95706e-06
-0.00046306 0.000138945 0.000138906 2.48385e-12
-0.000395103 0.00011853 0.000118532 -4.30989e-06
-0.00033077 9.92046e-05 9.92424e-05 -7.95706e-06
-0.00039873 0.000119617 0.00011962 -4.30988e-06
-0.000396917 0.000119074 0.000119076 -4.30989e-06
-0.000460945 0.000138311 0.000138272 2.43801e-12
-0.000456715 0.000137042 0.000137003 2.4424e-12
-0.000326236 9.78457e-05 9.78816e-05 -7.95708e-06
-0.000329259 9.87516e-05 9.87888e-05 -7.95707e-06
-0.00045883 0.000137676 0.000137637 2.45215e-12
-0.000391477 0.000117442 0.000117443 -4.3099e-06
-0.000327747 9.82986e-05 9.83352e-05 -7.95707e-06
-0.000395103 0.00011853 0.000118532 -4.30989e-06
-0.00039329 0.000117986 0.000117988 -4.30989e-06
-0.000456715 0.000137042 0.000137003 2.449e-12
-0.000452484 0.000135772 0.000135734 2.44129e-12
-0.000323213 9.69397e-05 9.69745e-05 -7.95709e-06
-0.000326236 9.78457e-05 9.78816e-05 -7.95708e-06
-0.000454599 0.000136407 0.000136368 2.45575e-12
-0.00038785 0.000116355 0.000116355 -4.3099e-06
-0.000324725 9.73927e-05 9.7428e-05 -7.95708e-06
-0.000391477 0.000117442 0.000117443 -4.3099e-06
-0.000389664 0.000116898 0.000116899 -4.3099e-06
-0.000452484 0.000135772 0.000135734 2.44129e-12
-0.000448254 0.000134503 0.000134465 2.40597e-12
-0.000320191 9.60337e-05 9.60673e-05 -7.9571e-06
-0.000323213 9.69397e-05 9.69745e-05 -7.95709e-06
-0.000450369 0.000135138 0.000135099 2.43454e-12
-0.000384224 0.000115267 0.000115267 -4.30991e-06
-0.000321702 9.64867e-05 9.65209e-05 -7.95709e-06
-0.00038785 0.000116355 0.000116355 -4.3099e-06
-0.000386037 0.000115811 0.000115811 -4.30991e-06
-0.000448254 0.000134503 0.000134465 2.40597e-12
-0.000444023 0.000133234 0.000133195 2.3623e-12
-0.000317168 9.51277e-05 9.51602e-05 -7.95711e-06
-0.000320191 9.60337e-05 9.60673e-05 -7.9571e-06
-0.000446138 0.000133869 0.00013383 2.39962e-12
-0.000380597 0.000114179 0.000114179 -4.30992e-06
-0.00031868 9.55807e-05 9.56138e-05 -7.9571e-06
-0.000384224 0.000115267 0.000115267 -4.30991e-06
-0.00038241 0.000114723 0.000114723 -4.30991e-06
-0.000444023 0.000133234 0.000133195 2.3623e-12
-0.000439793 0.000131965 0.000131926 2.3515e-12
-0.000314146 9.42218e-05 9.42531e-05 -7.95712e-06
-0.000317168 9.51277e-05 9.51602e-05 -7.95711e-06
-0.000441908 0.000132599 0.000132561 2.37406e-12
-0.000376971 0.000113092 0.000113091 -4.30993e-06
-0.000315657 9.46748e-05 9.47066e-05 -7.95711e-06
-0.000380597 0.000114179 0.000114179 -4.30992e-06
-0.000378784 0.000113636 0.000113635 -4.30992e-06
-0.000439793 0.000131965 0.000131926 2.3515e-12
-0.000435562 0.000130695 0.000130657 2.31639e-12
-0.000311123 9.33158e-05 9.3346e-05 -7.95713e-06
-0.000314146 9.42218e-05 9.42531e-05 -7.95712e-06
-0.000437678 0.00013133 0.000131292 2.33206e-12
-0.000373344 0.000112004 0.000112003 -4.30993e-06
-0.000312634 9.37688e-05 9.37995e-05 -7.95712e-06
-0.000376971 0.000113092 0.000113091 -4.30993e-06
-0.000375157 0.000112548 0.000112547 -4.30993e-06
-0.000435562 0.000130695 0.000130657 2.31639e-12
-0.000431332 0.000129426 0.000129388 2.31413e-12
-0.0003081 9.24098e-05 9.24389e-05 -7.95714e-06
-0.000311123 9.33158e-05 9.3346e-05 -7.95713e-06
-0.000433447 0.000130061 0.000130023 2.30403e-12
-0.000369717 0.000110917 0.000110915 -4.30994e-06
-0.000309612 9.28628e-05 9.28924e-05 -7.95713e-06
-0.000373344 0.000112004 0.000112003 -4.30993e-06
-0.000371531 0.00011146 0.000111459 -4.30994e-06
-0.000431332 0.000129426 0.000129388 2.31413e-12
-0.000427101 0.000128157 0.000128119 2.26876e-12
-0.000305078 9.15038e-05 9.15318e-05 -7.95715e-06
-0.0003081 9.24098e-05 9.24389e-05 -7.95714e-06
-0.000429217 0.000128792 0.000128754 2.28492e-12
-0.000366091 0.000109829 0.000109827 -4.30995e-06
-0.000306589 9.19568e-05 9.19853e-05 -7.95714e-06
-0.000369717 0.000110917 0.000110915 -4.30994e-06
-0.000367904 0.000110373 0.000110371 -4.30994e-06
-0.000427101 0.000128157 0.000128119 2.26376e-12
-0.000422871 0.000126888 0.00012685 2.24939e-12
-0.000302055 9.05978e-05 9.06247e-05 -7.95716e-06
-0.000305078 9.15038e-05 9.15318e-05 -7.95715e-06
-0.000424986 0.000127522 0.000127484 2.26604e-12
-0.000362464 0.000108742 0.000108738 -4.30995e-06
-0.000303567 9.10508e-05 9.10782e-05 -7.95715e-06
-0.000366091 0.000109829 0.000109827 -4.30995e-06
-0.000364278 0.000109285 0.000109282 -4.30995e-06
-0.000422871 0.000126888 0.00012685 2.23608e-12
-0.000418641 0.000125619 0.000125581 2.21229e-12
-0.000299033 8.96918e-05 8.97176e-05 -7.95717e-06
-0.000302055 9.05978e-05 9.06247e-05 -7.95716e-06
-0.000420756 0.000126253 0.000126215 2.25318e-12
-0.000358838 0.000107654 0.00010765 -4.30996e-06
-0.000300544 9.01448e-05 9.01711e-05 -7.95716e-06
-0.000362464 0.000108742 0.000108738 -4.30995e-06
-0.000360651 0.000108198 0.000108194 -4.30996e-06
-0.000418641 0.000125619 0.000125581 2.21229e-12
-0.00041441 0.000124349 0.000124312 2.20485e-12
-0.00029601 8.87858e-05 8.88105e-05 -7.95718e-06
-0.000299033 8.96918e-05 8.97176e-05 -7.95717e-06
-0.000416525 0.000124984 0.000124946 2.21262e-12
-0.000355211 0.000106566 0.000106562 -4.30997e-06
-0.000297522 8.92388e-05 8.9264e-05 -7.95717e-06
-0.000358838 0.000107654 0.00010765 -4.30996e-06
-0.000357025 0.00010711 0.000107106 -4.30996e-06
-0.00041441 0.000124349 0.000124312 2.20485e-12
-0.00041018 0.00012308 0.000123043 2.14844e-12
-0.000292988 8.78798e-05 8.79034e-05 -7.95719e-06
-0.00029601 8.87858e-05 8.88105e-05 -7.95718e-06
-0.000412295 0.000123715 0.000123677 2.18411e-12
-0.000351585 0.000105479 0.000105474 -4.30998e-06
-0.000294499 8.83328e-05 8.8357e-05 -7.95718e-06
-0.000355211 0.000106566 0.000106562 -4.30997e-06
-0.000353398 0.000106023 0.000106018 -4.30997e-06
-0.00041018 0.00012308 0.000123043 2.18487e-12
-0.000405949 0.000121811 0.000121774 2.14504e-12
-0.000289965 8.69738e-05 8.69964e-05 -7.9572e-06
-0.000292988 8.78798e-05 8.79034e-05 -7.95719e-06
-0.000408065 0.000122446 0.000122408 2.16188e-12
-0.000347959 0.000104391 0.000104386 -4.30998e-06
-0.000291477 8.74268e-05 8.74499e-05 -7.95719e-06
-0.000351585 0.000105479 0.000105474 -4.30998e-06
-0.000349772 0.000104935 0.00010493 -4.30998e-06
-0.000405949 0.000121811 0.000121774 2.14501e-12
-0.000401719 0.000120542 0.000120505 2.10263e-12
-0.000286943 8.60678e-05 8.60893e-05 -7.95721e-06
-0.000289965 8.69738e-05 8.69964e-05 -7.9572e-06
-0.000403834 0.000121176 0.000121139 2.12773e-12
-0.000344332 0.000103304 0.000103298 -4.30999e-06
-0.000288454 8.65208e-05 8.65428e-05 -7.9572e-06
-0.000347959 0.000104391 0.000104386 -4.30998e-06
-0.000346145 0.000103847 0.000103842 -4.30999e-06
-0.000401719 0.000120542 0.000120505 2.10263e-12
-0.000397489 0.000119273 0.000119235 2.09664e-12
-0.00028392 8.51617e-05 8.51823e-05 -7.95722e-06
-0.000286943 8.60678e-05 8.60893e-05 -7.95721e-06
-0.000399604 0.000119907 0.00011987 2.09896e-12
-0.000340706 0.000102216 0.00010221 -4.31e-06
-0.000285432 8.56148e-05 8.56358e-05 -7.95722e-06
-0.000344332 0.000103304 0.000103298 -4.30999e-06
-0.000342519 0.00010276 0.000102754 -4.30999e-06
-0.000397489 0.000119273 0.000119235 2.09664e-12
-0.000393258 0.000118003 0.000117966 2.08825e-12
-0.000280898 8.42557e-05 8.42752e-05 -7.95723e-06
-0.00028392 8.51617e-05 8.51823e-05 -7.95722e-06
-0.000395373 0.000118638 0.000118601 2.08244e-12
-0.000337079 0.000101128 0.000101122 -4.31e-06
-0.000282409 8.47087e-05 8.47288e-05 -7.95723e-06
-0.000340706 0.000102216 0.00010221 -4.31e-06
-0.000338892 0.000101672 0.000101666 -4.31e-06
-0.000393258 0.000118003 0.000117966 2.08825e-12
-0.000389028 0.000116734 0.000116697 2.04908e-12
-0.000277876 8.33497e-05 8.33682e-05 -7.95724e-06
-0.000280898 8.42557e-05 8.42752e-05 -7.95723e-06
-0.000391143 0.000117369 0.000117332 2.06714e-12
-0.000333453 0.000100041 0.000100034 -4.31001e-06
-0.000279387 8.38027e-05 8.38217e-05 -7.95724e-06
-0.000337079 0.000101128 0.000101122 -4.31e-06
-0.000335266 0.000100585 0.000100578 -4.31001e-06
-0.000389028 0.000116734 0.000116697 2.04915e-12
-0.000384798 0.000115465 0.000115428 2.02425e-12
-0.000274853 8.24437e-05 8.24612e-05 -7.95725e-06
-0.000277876 8.33497e-05 8.33682e-05 -7.95724e-06
-0.000386913 0.0001161 0.000116063 2.04188e-12
-0.000329826 9.89533e-05 9.89456e-05 -4.31002e-06
-0.000276364 8.28967e-05 8.29147e-05 -7.95725e-06
-0.000333453 0.000100041 0.000100034 -4.31001e-06
-0.00033164 9.94971e-05 9.94896e-05 -4.31002e-06
-0.000384798 0.000115465 0.000115428 2.02425e-12
-0.000380567 0.000114196 0.000114159 2.00414e-12
-0.000271831 8.15376e-05 8.15542e-05 -7.95726e-06
-0.000274853 8.24437e-05 8.24612e-05 -7.95725e-06
-0.000382682 0.00011483 0.000114794 2.01227e-12
-0.0003262 9.78657e-05 9.78576e-05 -4.31003e-06
-0.000273342 8.19906e-05 8.20077e-05 -7.95726e-06
-0.000329826 9.89533e-05 9.89456e-05 -4.31002e-06
-0.000328013 9.84095e-05 9.84016e-05 -4.31002e-06
-0.000380567 0.000114196 0.000114159 2.00414e-12
-0.000376337 0.000112927 0.00011289 1.96752e-12
-0.000268808 8.06316e-05 8.06472e-05 -7.95727e-06
-0.000271831 8.15376e-05 8.15542e-05 -7.95726e-06
-0.000378452 0.000113561 0.000113525 1.98227e-12
-0.000322574 9.67781e-05 9.67695e-05 -4.31003e-06
-0.00027032 8.10846e-05 8.11007e-05 -7.95727e-06
-0.0003262 9.78657e-05 9.78576e-05 -4.31003e-06
-0.000324387 9.73219e-05 9.73135e-05 -4.31003e-06
-0.000376337 0.000112927 0.00011289 1.9941e-12
-0.000372107 0.000111657 0.000111621 1.96743e-12
-0.000265786 7.97255e-05 7.97402e-05 -7.95728e-06
-0.000268808 8.06316e-05 8.06472e-05 -7.95727e-06
-0.000374222 0.000112292 0.000112256 1.98058e-12
-0.000318947 9.56905e-05 9.56815e-05 -4.31004e-06
-0.000267297 8.01786e-05 8.01937e-05 -7.95728e-06
-0.000322574 9.67781e-05 9.67695e-05 -4.31003e-06
-0.00032076 9.62343e-05 9.62255e-05 -4.31004e-06
-0.000372107 0.000111657 0.000111621 1.96749e-12
-0.000367876 0.000110388 0.000110352 1.93988e-12
-0.000262764 7.88195e-05 7.88332e-05 -7.95729e-06
-0.000265786 7.97255e-05 7.97402e-05 -7.95728e-06
-0.000369991 0.000111023 0.000110987 1.94393e-12
-0.000315321 9.46029e-05 9.45934e-05 -4.31005e-06
-0.000264275 7.92725e-05 7.92867e-05 -7.95729e-06
-0.000318947 9.56905e-05 9.56815e-05 -4.31004e-06
-0.000317134 9.51467e-05 9.51374e-05 -4.31005e-06
-0.000367876 0.000110388 0.000110352 1.93988e-12
-0.000363646 0.000109119 0.000109083 1.8914e-12
-0.000259741 7.79134e-05 7.79262e-05 -7.9573e-06
-0.000262764 7.88195e-05 7.88332e-05 -7.95729e-06
-0.000365761 0.000109754 0.000109717 1.90431e-12
-0.000311695 9.35153e-05 9.35054e-05 -4.31006e-06
-0.000261252 7.83665e-05 7.83797e-05 -7.9573e-06
-0.000315321 9.46029e-05 9.45934e-05 -4.31005e-06
-0.000313508 9.40591e-05 9.40494e-05 -4.31005e-06
-0.000363646 0.000109119 0.000109083 1.8914e-12
-0.000359416 0.00010785 0.000107814 1.87113e-12
-0.000256719 7.70074e-05 7.70192e-05 -7.95731e-06
-0.000259741 7.79134e-05 7.79262e-05 -7.9573e-06
-0.000361531 0.000108484 0.000108448 1.88905e-12
-0.000308068 9.24277e-05 9.24174e-05 -4.31006e-06
-0.00025823 7.74604e-05 7.74727e-05 -7.95731e-06
-0.000311695 9.35153e-05 9.35054e-05 -4.31006e-06
-0.000309881 9.29715e-05 9.29614e-05 -4.31006e-06
-0.000359416 0.00010785 0.000107814 1.87114e-12
-0.000355185 0.000106581 0.000106545 1.84642e-12
-0.000253697 7.61013e-05 7.61123e-05 -7.95732e-06
-0.000256719 7.70074e-05 7.70192e-05 -7.95731e-06
-0.000357301 0.000107215 0.000107179 1.87053e-12
-0.000304442 9.13401e-05 9.13293e-05 -4.31007e-06
-0.000255208 7.65544e-05 7.65657e-05 -7.95732e-06
-0.000308068 9.24277e-05 9.24174e-05 -4.31006e-06
-0.000306255 9.18839e-05 9.18734e-05 -4.31007e-06
-0.000355185 0.000106581 0.000106545 1.84302e-12
-0.000350955 0.000105312 0.000105276 1.83726e-12
-0.000250674 7.51953e-05 7.52053e-05 -7.95733e-06
-0.000253697 7.61013e-05 7.61123e-05 -7.95732e-06
-0.00035307 0.000105946 0.00010591 1.84413e-12
-0.000300816 9.02525e-05 9.02413e-05 -4.31008e-06
-0.000252185 7.56483e-05 7.56588e-05 -7.95733e-06
-0.000304442 9.13401e-05 9.13293e-05 -4.31007e-06
-0.000302629 9.07963e-05 9.07853e-05 -4.31007e-06
-0.000350955 0.000105312 0.000105276 1.83726e-12
-0.000346725 0.000104042 0.000104007 1.7831e-12
-0.000247652 7.42892e-05 7.42984e-05 -7.95735e-06
-0.000250674 7.51953e-05 7.52053e-05 -7.95733e-06
-0.00034884 0.000104677 0.000104641 1.82024e-12
-0.000297189 8.91649e-05 8.91533e-05 -4.31009e-06
-0.000249163 7.47422e-05 7.47518e-05 -7.95734e-06
-0.000300816 9.02525e-05 9.02413e-05 -4.31008e-06
-0.000299002 8.97087e-05 8.96973e-05 -4.31008e-06
-0.000346725 0.000104042 0.000104007 1.7831e-12
-0.000342495 0.000102773 0.000102738 1.76167e-12
-0.00024463 7.33831e-05 7.33914e-05 -7.95736e-06
-0.000247652 7.42892e-05 7.42984e-05 -7.95735e-06
-0.00034461 0.000103408 0.000103372 1.79462e-12
-0.000293563 8.80773e-05 8.80653e-05 -4.31009e-06
-0.000246141 7.38362e-05 7.38449e-05 -7.95735e-06
-0.000297189 8.91649e-05 8.91533e-05 -4.31009e-06
-0.000295376 8.86211e-05 8.86093e-05 -4.31009e-06
-0.000342495 0.000102773 0.000102738 1.8014e-12
-0.000338264 0.000101504 0.000101469 1.74739e-12
-0.000241608 7.2477e-05 7.24845e-05 -7.95737e-06
-0.00024463 7.33831e-05 7.33914e-05 -7.95736e-06
-0.000340379 0.000102139 0.000102103 1.75721e-12
-0.000289937 8.69897e-05 8.69773e-05 -4.3101e-06
-0.000243119 7.29301e-05 7.2938e-05 -7.95736e-06
-0.000293563 8.80773e-05 8.80653e-05 -4.31009e-06
-0.00029175 8.75335e-05 8.75213e-05 -4.3101e-06
-0.000338264 0.000101504 0.000101469 1.74739e-12
-0.000334034 0.000100235 0.0001002 1.72415e-12
-0.000238585 7.1571e-05 7.15776e-05 -7.95738e-06
-0.000241608 7.2477e-05 7.24845e-05 -7.95737e-06
-0.000336149 0.000100869 0.000100834 1.73255e-12
-0.000286311 8.59021e-05 8.58893e-05 -4.31011e-06
-0.000240096 7.2024e-05 7.2031e-05 -7.95737e-06
-0.000289937 8.69897e-05 8.69773e-05 -4.3101e-06
-0.000288124 8.64459e-05 8.64333e-05 -4.3101e-06
-0.000334034 0.000100235 0.0001002 1.72415e-12
-0.000329804 9.89657e-05 9.89307e-05 1.72544e-12
-0.000235563 7.06649e-05 7.06707e-05 -7.95739e-06
-0.000238585 7.1571e-05 7.15776e-05 -7.95738e-06
-0.000331919 9.96002e-05 9.95652e-05 1.74478e-12
-0.000282684 8.48145e-05 8.48013e-05 -4.31012e-06
-0.000237074 7.11179e-05 7.11241e-05 -7.95738e-06
-0.000286311 8.59021e-05 8.58893e-05 -4.31011e-06
-0.000284497 8.53583e-05 8.53453e-05 -4.31011e-06
-0.000329804 9.89657e-05 9.89307e-05 1.72544e-12
-0.000325574 9.76965e-05 9.76617e-05 1.66826e-12
-0.000232541 6.97588e-05 6.97637e-05 -7.9574e-06
-0.000235563 7.06649e-05 7.06707e-05 -7.95739e-06
-0.000327689 9.83311e-05 9.82962e-05 1.6813e-12
-0.000279058 8.37269e-05 8.37134e-05 -4.31012e-06
-0.000234052 7.02118e-05 7.02172e-05 -7.95739e-06
-0.000282684 8.48145e-05 8.48013e-05 -4.31012e-06
-0.000280871 8.42707e-05 8.42573e-05 -4.31012e-06
-0.000325574 9.76965e-05 9.76617e-05 1.66826e-12
-0.000321343 9.64273e-05 9.63926e-05 1.66815e-12
-0.000229519 6.88527e-05 6.88568e-05 -7.95741e-06
-0.000232541 6.97588e-05 6.97637e-05 -7.9574e-06
-0.000323459 9.70619e-05 9.70271e-05 1.66101e-12
-0.000275432 8.26393e-05 8.26254e-05 -4.31013e-06
-0.00023103 6.93057e-05 6.93103e-05 -7.9574e-06
-0.000279058 8.37269e-05 8.37134e-05 -4.31012e-06
-0.000277245 8.31831e-05 8.31694e-05 -4.31013e-06
-0.000321343 9.64273e-05 9.63926e-05 1.6813e-12
-0.000317113 9.51582e-05 9.51236e-05 1.64177e-12
-0.000226496 6.79466e-05 6.795e-05 -7.95742e-06
-0.000229519 6.88527e-05 6.88568e-05 -7.95741e-06
-0.000319228 9.57928e-05 9.57581e-05 1.68416e-12
-0.000271806 8.15517e-05 8.15374e-05 -4.31014e-06
-0.000228008 6.83996e-05 6.84034e-05 -7.95741e-06
-0.000275432 8.26393e-05 8.26254e-05 -4.31013e-06
-0.000273619 8.20955e-05 8.20814e-05 -4.31014e-06
-0.000317113 9.51582e-05 9.51236e-05 1.64177e-12
-0.000312883 9.3889e-05 9.38546e-05 1.6204e-12
-0.000223474 6.70405e-05 6.70431e-05 -7.95743e-06
-0.000226496 6.79466e-05 6.795e-05 -7.95742e-06
-0.000314998 9.45236e-05 9.44891e-05 1.6532e-12
-0.000268179 8.04641e-05 8.04494e-05 -4.31015e-06
-0.000224985 6.74935e-05 6.74965e-05 -7.95743e-06
-0.000271806 8.15517e-05 8.15374e-05 -4.31014e-06
-0.000269993 8.10079e-05 8.09934e-05 -4.31014e-06
-0.000312883 9.3889e-05 9.38546e-05 1.6204e-12
-0.000308653 9.26199e-05 9.25856e-05 1.59452e-12
-0.000220452 6.61344e-05 6.61362e-05 -7.95744e-06
-0.000223474 6.70405e-05 6.70431e-05 -7.95743e-06
-0.000310768 9.32544e-05 9.32201e-05 1.60136e-12
-0.000264553 7.93764e-05 7.93615e-05 -4.31015e-06
-0.000221963 6.65874e-05 6.65896e-05 -7.95744e-06
-0.000268179 8.04641e-05 8.04494e-05 -4.31015e-06
-0.000266366 7.99202e-05 7.99055e-05 -4.31015e-06
-0.000308653 9.26199e-05 9.25856e-05 1.59453e-12
-0.000304423 9.13507e-05 9.13166e-05 1.5834e-12
-0.00021743 6.52283e-05 6.52293e-05 -7.95745e-06
-0.000220452 6.61344e-05 6.61362e-05 -7.95744e-06
-0.000306538 9.19853e-05 9.19511e-05 1.58874e-12
-0.000260927 7.82888e-05 7.82735e-05 -4.31016e-06
-0.000218941 6.56813e-05 6.56828e-05 -7.95745e-06
-0.000264553 7.93764e-05 7.93615e-05 -4.31015e-06
-0.00026274 7.88326e-05 7.88175e-05 -4.31016e-06
-0.000304423 9.13507e-05 9.13166e-05 1.58336e-12
-0.000300193 9.00816e-05 9.00476e-05 1.53531e-12
-0.000214408 6.43221e-05 6.43225e-05 -7.95746e-06
-0.00021743 6.52283e-05 6.52293e-05 -7.95745e-06
-0.000302308 9.07161e-05 9.06821e-05 1.55453e-12
-0.000257301 7.72012e-05 7.71856e-05 -4.31017e-06
-0.000215919 6.47752e-05 6.47759e-05 -7.95746e-06
-0.000260927 7.82888e-05 7.82735e-05 -4.31016e-06
-0.000259114 7.7745e-05 7.77296e-05 -4.31017e-06
-0.000300193 9.00816e-05 9.00476e-05 1.53531e-12
-0.000295962 8.88124e-05 8.87786e-05 1.5255e-12
-0.000211386 6.3416e-05 6.34156e-05 -7.95748e-06
-0.000214408 6.43221e-05 6.43225e-05 -7.95746e-06
-0.000298078 8.9447e-05 8.94131e-05 1.51728e-12
-0.000253675 7.61136e-05 7.60977e-05 -4.31018e-06
-0.000212897 6.38691e-05 6.3869e-05 -7.95747e-06
-0.000257301 7.72012e-05 7.71856e-05 -4.31017e-06
-0.000255488 7.66574e-05 7.66416e-05 -4.31017e-06
-0.000295962 8.88124e-05 8.87786e-05 1.5255e-12
-0.000291732 8.75433e-05 8.75096e-05 1.49236e-12
-0.000208364 6.25099e-05 6.25088e-05 -7.95749e-06
-0.000211386 6.3416e-05 6.34156e-05 -7.95748e-06
-0.000293847 8.81778e-05 8.81441e-05 1.49826e-12
-0.000250049 7.5026e-05 7.50097e-05 -4.31019e-06
-0.000209875 6.2963e-05 6.29622e-05 -7.95748e-06
-0.000253675 7.61136e-05 7.60977e-05 -4.31018e-06
-0.000251862 7.55698e-05 7.55537e-05 -4.31018e-06
-0.000291732 8.75433e-05 8.75096e-05 1.4924e-12
-0.000287502 8.62741e-05 8.62406e-05 1.46856e-12
-0.000205342 6.16038e-05 6.16019e-05 -7.9575e-06
-0.000208364 6.25099e-05 6.25088e-05 -7.95749e-06
-0.000289617 8.69087e-05 8.68751e-05 1.46085e-12
-0.000246423 7.39383e-05 7.39218e-05 -4.31019e-06
-0.000206853 6.20568e-05 6.20554e-05 -7.95749e-06
-0.000250049 7.5026e-05 7.50097e-05 -4.31019e-06
-0.000248236 7.44822e-05 7.44658e-05 -4.31019e-06
-0.000287502 8.62741e-05 8.62406e-05 1.4818e-12
-0.000283272 8.5005e-05 8.49716e-05 1.43958e-12
-0.00020232 6.06976e-05 6.06951e-05 -7.95751e-06
-0.000205342 6.16038e-05 6.16019e-05 -7.9575e-06
-0.000285387 8.56395e-05 8.56061e-05 1.45975e-12
-0.000242796 7.28507e-05 7.28339e-05 -4.3102e-06
-0.000203831 6.11507e-05 6.11485e-05 -7.9575e-06
-0.000246423 7.39383e-05 7.39218e-05 -4.31019e-06
-0.000244609 7.33945e-05 7.33778e-05 -4.3102e-06
-0.000283272 8.5005e-05 8.49716e-05 1.43958e-12
-0.000279042 8.37358e-05 8.37026e-05 1.41256e-12
-0.000199298 5.97915e-05 5.97883e-05 -7.95752e-06
-0.00020232 6.06976e-05 6.06951e-05 -7.95751e-06
-0.000281157 8.43704e-05 8.43371e-05 1.43779e-12
-0.00023917 7.17631e-05 7.1746e-05 -4.31021e-06
-0.000200809 6.02446e-05 6.02417e-05 -7.95751e-06
-0.000242796 7.28507e-05 7.28339e-05 -4.3102e-06
-0.000240983 7.23069e-05 7.22899e-05 -4.3102e-06
-0.000279042 8.37358e-05 8.37026e-05 1.41256e-12
-0.000274812 8.24667e-05 8.24337e-05 1.41408e-12
-0.000196276 5.88854e-05 5.88815e-05 -7.95753e-06
-0.000199298 5.97915e-05 5.97883e-05 -7.95752e-06
-0.000276927 8.31012e-05 8.30681e-05 1.4186e-12
-0.000235544 7.06755e-05 7.0658e-05 -4.31022e-06
-0.000197787 5.93384e-05 5.93349e-05 -7.95753e-06
-0.00023917 7.17631e-05 7.1746e-05 -4.31021e-06
-0.000237357 7.12193e-05 7.1202e-05 -4.31021e-06
-0.000274812 8.24667e-05 8.24337e-05 1.38753e-12
-0.000270582 8.11975e-05 8.11647e-05 1.37813e-12
-0.000193253 5.79792e-05 5.79747e-05 -7.95754e-06
-0.000196276 5.88854e-05 5.88815e-05 -7.95753e-06
-0.000272697 8.18321e-05 8.17992e-05 1.41033e-12
-0.000231918 6.95878e-05 6.95701e-05 -4.31022e-06
-0.000194765 5.84323e-05 5.84281e-05 -7.95754e-06
-0.000235544 7.06755e-05 7.0658e-05 -4.31022e-06
-0.000233731 7.01317e-05 7.01141e-05 -4.31022e-06
-0.000270582 8.11975e-05 8.11647e-05 1.37825e-12
-0.000266352 7.99284e-05 7.98957e-05 1.3489e-12
-0.000190231 5.7073e-05 5.70679e-05 -7.95755e-06
-0.000193253 5.79792e-05 5.79747e-05 -7.95754e-06
-0.000268467 8.0563e-05 8.05302e-05 1.36397e-12
-0.000228292 6.85002e-05 6.84822e-05 -4.31023e-06
-0.000191742 5.75261e-05 5.75213e-05 -7.95755e-06
-0.000231918 6.95878e-05 6.95701e-05 -4.31022e-06
-0.000230105 6.9044e-05 6.90262e-05 -4.31023e-06
-0.000266352 7.99284e-05 7.98957e-05 1.3489e-12
-0.000262122 7.86593e-05 7.86267e-05 1.29724e-12
-0.00018721 5.61669e-05 5.61611e-05 -7.95757e-06
-0.000190231 5.7073e-05 5.70679e-05 -7.95755e-06
-0.000264237 7.92938e-05 7.92612e-05 1.34575e-12
-0.000224666 6.74126e-05 6.73943e-05 -4.31024e-06
-0.00018872 5.662e-05 5.66145e-05 -7.95756e-06
-0.000228292 6.85002e-05 6.84822e-05 -4.31023e-06
-0.000226479 6.79564e-05 6.79383e-05 -4.31024e-06
-0.000262122 7.86593e-05 7.86267e-05 1.29724e-12
-0.000257892 7.73901e-05 7.73578e-05 1.32624e-12
-0.000184188 5.52607e-05 5.52543e-05 -7.95758e-06
-0.00018721 5.61669e-05 5.61611e-05 -7.95757e-06
-0.000260007 7.80247e-05 7.79922e-05 1.32165e-12
-0.00022104 6.6325e-05 6.63065e-05 -4.31025e-06
-0.000185699 5.57138e-05 5.57077e-05 -7.95757e-06
-0.000224666 6.74126e-05 6.73943e-05 -4.31024e-06
-0.000222853 6.68688e-05 6.68504e-05 -4.31024e-06
-0.000257892 7.73901e-05 7.73578e-05 1.32627e-12
-0.000253662 7.6121e-05 7.60888e-05 1.27145e-12
-0.000181166 5.43546e-05 5.43476e-05 -7.95759e-06
-0.000184188 5.52607e-05 5.52543e-05 -7.95758e-06
-0.000255777 7.67556e-05 7.67233e-05 1.28617e-12
-0.000217414 6.52373e-05 6.52186e-05 -4.31026e-06
-0.000182677 5.48076e-05 5.4801e-05 -7.95758e-06
-0.00022104 6.6325e-05 6.63065e-05 -4.31025e-06
-0.000219227 6.57811e-05 6.57625e-05 -4.31025e-06
-0.000253662 7.6121e-05 7.60888e-05 1.29804e-12
-0.000249431 7.48519e-05 7.48198e-05 1.26846e-12
-0.000178144 5.34484e-05 5.34408e-05 -7.9576e-06
-0.000181166 5.43546e-05 5.43476e-05 -7.95759e-06
-0.000251546 7.54864e-05 7.54543e-05 1.29152e-12
-0.000213788 6.41497e-05 6.41307e-05 -4.31026e-06
-0.000179655 5.39015e-05 5.38942e-05 -7.9576e-06
-0.000217414 6.52373e-05 6.52186e-05 -4.31026e-06
-0.000215601 6.46935e-05 6.46746e-05 -4.31026e-06
-0.000249431 7.48519e-05 7.48198e-05 1.26846e-12
-0.000245201 7.35827e-05 7.35509e-05 1.22885e-12
-0.000175122 5.25422e-05 5.25341e-05 -7.95761e-06
-0.000178144 5.34484e-05 5.34408e-05 -7.9576e-06
-0.000247316 7.42173e-05 7.41853e-05 1.23112e-12
-0.000210162 6.3062e-05 6.30428e-05 -4.31027e-06
-0.000176633 5.29953e-05 5.29874e-05 -7.95761e-06
-0.000213788 6.41497e-05 6.41307e-05 -4.31026e-06
-0.000211975 6.36059e-05 6.35868e-05 -4.31027e-06
-0.000245201 7.35827e-05 7.35509e-05 1.22885e-12
-0.000240971 7.23136e-05 7.22819e-05 1.19151e-12
-0.0001721 5.1636e-05 5.16273e-05 -7.95763e-06
-0.000175122 5.25422e-05 5.25341e-05 -7.95761e-06
-0.000243086 7.29482e-05 7.29164e-05 1.20547e-12
-0.000206536 6.19744e-05 6.1955e-05 -4.31028e-06
-0.000173611 5.20891e-05 5.20807e-05 -7.95762e-06
-0.000210162 6.3062e-05 6.30428e-05 -4.31027e-06
-0.000208349 6.25182e-05 6.24989e-05 -4.31028e-06
-0.000240971 7.23136e-05 7.22819e-05 1.21486e-12
-0.000236741 7.10445e-05 7.1013e-05 1.16213e-12
-0.000169078 5.07298e-05 5.07206e-05 -7.95764e-06
-0.0001721 5.1636e-05 5.16273e-05 -7.95763e-06
-0.000238856 7.1679e-05 7.16474e-05 1.18696e-12
-0.00020291 6.08868e-05 6.08671e-05 -4.31029e-06
-0.000170589 5.11829e-05 5.1174e-05 -7.95763e-06
-0.000206536 6.19744e-05 6.1955e-05 -4.31028e-06
-0.000204723 6.14306e-05 6.1411e-05 -4.31029e-06
-0.000236741 7.10445e-05 7.1013e-05 1.16216e-12
-0.000232511 6.97754e-05 6.9744e-05 1.18676e-12
-0.000166056 4.98237e-05 4.98139e-05 -7.95765e-06
-0.000169078 5.07298e-05 5.07206e-05 -7.95764e-06
-0.000234626 7.04099e-05 7.03785e-05 1.14669e-12
-0.000199284 5.97991e-05 5.97793e-05 -4.3103e-06
-0.000167567 5.02768e-05 5.02672e-05 -7.95764e-06
-0.00020291 6.08868e-05 6.08671e-05 -4.31029e-06
-0.000201097 6.03429e-05 6.03232e-05 -4.31029e-06
-0.000232511 6.97754e-05 6.9744e-05 1.18676e-12
-0.000228281 6.85062e-05 6.84751e-05 1.13916e-12
-0.000163034 4.89175e-05 4.89071e-05 -7.95766e-06
-0.000166056 4.98237e-05 4.98139e-05 -7.95765e-06
-0.000230396 6.91408e-05 6.91095e-05 1.1567e-12
-0.000195658 5.87115e-05 5.86914e-05 -4.31031e-06
-0.000164545 4.93706e-05 4.93605e-05 -7.95765e-06
-0.000199284 5.97991e-05 5.97793e-05 -4.3103e-06
-0.000197471 5.92553e-05 5.92353e-05 -4.3103e-06
-0.000228281 6.85062e-05 6.84751e-05 1.13916e-12
-0.000224051 6.72371e-05 6.72061e-05 1.11538e-12
-0.000160012 4.80113e-05 4.80004e-05 -7.95767e-06
-0.000163034 4.89175e-05 4.89071e-05 -7.95766e-06
-0.000226166 6.78717e-05 6.78406e-05 1.0884e-12
-0.000192032 5.76238e-05 5.76036e-05 -4.31031e-06
-0.000161523 4.84644e-05 4.84538e-05 -7.95767e-06
-0.000195658 5.87115e-05 5.86914e-05 -4.31031e-06
-0.000193845 5.81677e-05 5.81475e-05 -4.31031e-06
-0.000224051 6.72371e-05 6.72061e-05 1.11538e-12
-0.000219821 6.5968e-05 6.59372e-05 1.06307e-12
-0.00015699 4.71051e-05 4.70937e-05 -7.95769e-06
-0.000160012 4.80113e-05 4.80004e-05 -7.95767e-06
-0.000221936 6.66026e-05 6.65716e-05 1.08703e-12
-0.000188406 5.65362e-05 5.65157e-05 -4.31032e-06
-0.000158501 4.75582e-05 4.75471e-05 -7.95768e-06
-0.000192032 5.76238e-05 5.76036e-05 -4.31031e-06
-0.000190219 5.708e-05 5.70597e-05 -4.31032e-06
-0.000219821 6.5968e-05 6.59372e-05 1.07634e-12
-0.000215591 6.46989e-05 6.46682e-05 1.07992e-12
-0.000153969 4.61988e-05 4.6187e-05 -7.9577e-06
-0.00015699 4.71051e-05 4.70937e-05 -7.95769e-06
-0.000217706 6.53334e-05 6.53027e-05 1.10218e-12
-0.00018478 5.54485e-05 5.54279e-05 -4.31033e-06
-0.00015548 4.6652e-05 4.66404e-05 -7.95769e-06
-0.000188406 5.65362e-05 5.65157e-05 -4.31032e-06
-0.000186593 5.59924e-05 5.59718e-05 -4.31033e-06
-0.000215591 6.46989e-05 6.46682e-05 1.07992e-12
-0.000211361 6.34298e-05 6.33993e-05 1.04369e-12
-0.000150947 4.52926e-05 4.52804e-05 -7.95771e-06
-0.000153969 4.61988e-05 4.6187e-05 -7.9577e-06
-0.000213476 6.40643e-05 6.40338e-05 1.03396e-12
-0.000181154 5.43609e-05 5.43401e-05 -4.31034e-06
-0.000152458 4.57457e-05 4.57337e-05 -7.9577e-06
-0.00018478 5.54485e-05 5.54279e-05 -4.31033e-06
-0.000182967 5.49047e-05 5.4884e-05 -4.31033e-06
-0.000211361 6.34298e-05 6.33993e-05 1.03367e-12
-0.000207132 6.21606e-05 6.21304e-05 1.00878e-12
-0.000147925 4.43864e-05 4.43737e-05 -7.95772e-06
-0.000150947 4.52926e-05 4.52804e-05 -7.95771e-06
-0.000209246 6.27952e-05 6.27648e-05 1.03644e-12
-0.000177529 5.32732e-05 5.32523e-05 -4.31035e-06
-0.000149436 4.48395e-05 4.4827e-05 -7.95772e-06
-0.000181154 5.43609e-05 5.43401e-05 -4.31034e-06
-0.000179342 5.38171e-05 5.37962e-05 -4.31034e-06
-0.000207132 6.21606e-05 6.21304e-05 1.00878e-12
-0.000202902 6.08915e-05 6.08614e-05 1.02152e-12
-0.000144903 4.34802e-05 4.3467e-05 -7.95773e-06
-0.000147925 4.43864e-05 4.43737e-05 -7.95772e-06
-0.000205017 6.15261e-05 6.14959e-05 1.00213e-12
-0.000173903 5.21856e-05 5.21645e-05 -4.31036e-06
-0.000146414 4.39333e-05 4.39203e-05 -7.95773e-06
-0.000177529 5.32732e-05 5.32523e-05 -4.31035e-06
-0.000175716 5.27294e-05 5.27084e-05 -4.31035e-06
-0.000202902 6.08915e-05 6.08614e-05 1.02152e-12
-0.000198672 5.96224e-05 5.95925e-05 1.00097e-12
-0.000141881 4.2574e-05 4.25603e-05 -7.95775e-06
-0.000144903 4.34802e-05 4.3467e-05 -7.95773e-06
-0.000200787 6.0257e-05 6.0227e-05 1.01153e-12
-0.000170277 5.10979e-05 5.10767e-05 -4.31036e-06
-0.000143392 4.30271e-05 4.30137e-05 -7.95774e-06
-0.000173903 5.21856e-05 5.21645e-05 -4.31036e-06
-0.00017209 5.16417e-05 5.16206e-05 -4.31036e-06
-0.000198672 5.96224e-05 5.95925e-05 1.0009e-12
-0.000194442 5.83533e-05 5.83236e-05 9.12052e-13
-0.00013886 4.16677e-05 4.16537e-05 -7.95776e-06
-0.000141881 4.2574e-05 4.25603e-05 -7.95775e-06
-0.000196557 5.89879e-05 5.89581e-05 9.34775e-13
-0.000166651 5.00103e-05 4.99889e-05 -4.31037e-06
-0.000140371 4.21208e-05 4.2107e-05 -7.95775e-06
-0.000170277 5.10979e-05 5.10767e-05 -4.31036e-06
-0.000168464 5.05541e-05 5.05328e-05 -4.31037e-06
-0.000194442 5.83533e-05 5.83236e-05 9.41849e-13
-0.000190212 5.70842e-05 5.70547e-05 9.52865e-13
-0.000135838 4.07615e-05 4.0747e-05 -7.95777e-06
-0.00013886 4.16677e-05 4.16537e-05 -7.95776e-06
-0.000192327 5.77188e-05 5.76891e-05 9.46076e-13
-0.000163025 4.89226e-05 4.89011e-05 -4.31038e-06
-0.000137349 4.12146e-05 4.12004e-05 -7.95777e-06
-0.000166651 5.00103e-05 4.99889e-05 -4.31037e-06
-0.000164838 4.94664e-05 4.9445e-05 -4.31038e-06
-0.000190212 5.70842e-05 5.70547e-05 9.52865e-13
-0.000185982 5.58151e-05 5.57858e-05 9.05671e-13
-0.000132816 3.98552e-05 3.98404e-05 -7.95778e-06
-0.000135838 4.07615e-05 4.0747e-05 -7.95777e-06
-0.000188097 5.64496e-05 5.64202e-05 9.03029e-13
-0.000159399 4.78349e-05 4.78133e-05 -4.31039e-06
-0.000134327 4.03084e-05 4.02937e-05 -7.95778e-06
-0.000163025 4.89226e-05 4.89011e-05 -4.31038e-06
-0.000161212 4.83788e-05 4.83572e-05 -4.31039e-06
-0.000185982 5.58151e-05 5.57858e-05 9.05671e-13
-0.000181752 5.4546e-05 5.45168e-05 8.7867e-13
-0.000129794 3.8949e-05 3.89338e-05 -7.9578e-06
-0.000132816 3.98552e-05 3.98404e-05 -7.95778e-06
-0.000183867 5.51805e-05 5.51513e-05 8.77624e-13
-0.000155773 4.67473e-05 4.67255e-05 -4.3104e-06
-0.000131305 3.94021e-05 3.93871e-05 -7.95779e-06
-0.000159399 4.78349e-05 4.78133e-05 -4.31039e-06
-0.000157586 4.72911e-05 4.72694e-05 -4.31039e-06
-0.000181752 5.4546e-05 5.45168e-05 8.55379e-13
-0.000177522 5.32769e-05 5.32479e-05 8.71775e-13
-0.000126773 3.80427e-05 3.80272e-05 -7.95781e-06
-0.000129794 3.8949e-05 3.89338e-05 -7.9578e-06
-0.000179637 5.39114e-05 5.38824e-05 8.33657e-13
-0.000152148 4.56596e-05 4.56377e-05 -4.31041e-06
-0.000128284 3.84959e-05 3.84805e-05 -7.9578e-06
-0.000155773 4.67473e-05 4.67255e-05 -4.3104e-06
-0.000153961 4.62034e-05 4.61816e-05 -4.3104e-06
-0.000177522 5.32769e-05 5.32479e-05 8.71776e-13
-0.000173292 5.20078e-05 5.1979e-05 8.62117e-13
-0.000123751 3.71365e-05 3.71206e-05 -7.95782e-06
-0.000126773 3.80427e-05 3.80272e-05 -7.95781e-06
-0.000175407 5.26423e-05 5.26135e-05 8.61361e-13
-0.000148522 4.45719e-05 4.455e-05 -4.31042e-06
-0.000125262 3.75896e-05 3.75739e-05 -7.95782e-06
-0.000152148 4.56596e-05 4.56377e-05 -4.31041e-06
-0.000150335 4.51158e-05 4.50939e-05 -4.31041e-06
-0.000173292 5.20078e-05 5.1979e-05 8.62117e-13
-0.000169062 5.07387e-05 5.07101e-05 8.40747e-13
-0.000120729 3.62302e-05 3.62139e-05 -7.95784e-06
-0.000123751 3.71365e-05 3.71206e-05 -7.95782e-06
-0.000171177 5.13732e-05 5.13446e-05 8.85091e-13
-0.000144896 4.34842e-05 4.34622e-05 -4.31042e-06
-0.00012224 3.66834e-05 3.66672e-05 -7.95783e-06
-0.000148522 4.45719e-05 4.455e-05 -4.31042e-06
-0.000146709 4.40281e-05 4.40061e-05 -4.31042e-06
-0.000169062 5.07387e-05 5.07101e-05 8.40747e-13
-0.000164832 4.94696e-05 4.94412e-05 7.85024e-13
-0.000117708 3.5324e-05 3.53074e-05 -7.95785e-06
-0.000120729 3.62302e-05 3.62139e-05 -7.95784e-06
-0.000166947 5.01041e-05 5.00757e-05 7.98055e-13
-0.00014127 4.23966e-05 4.23745e-05 -4.31043e-06
-0.000119219 3.57771e-05 3.57607e-05 -7.95784e-06
-0.000144896 4.34842e-05 4.34622e-05 -4.31042e-06
-0.000143083 4.29404e-05 4.29183e-05 -4.31043e-06
-0.000164832 4.94696e-05 4.94412e-05 7.85024e-13
-0.000160603 4.82005e-05 4.81723e-05 7.59571e-13
-0.000114686 3.44177e-05 3.44008e-05 -7.95786e-06
-0.000117708 3.5324e-05 3.53074e-05 -7.95785e-06
-0.000162717 4.8835e-05 4.88068e-05 7.87095e-13
-0.000137645 4.13089e-05 4.12867e-05 -4.31044e-06
-0.000116197 3.48708e-05 3.48541e-05 -7.95786e-06
-0.00014127 4.23966e-05 4.23745e-05 -4.31043e-06
-0.000139457 4.18527e-05 4.18306e-05 -4.31044e-06
-0.000160603 4.82005e-05 4.81723e-05 7.99388e-13
-0.000156373 4.69314e-05 4.69034e-05 7.43988e-13
-0.000111665 3.35114e-05 3.34942e-05 -7.95788e-06
-0.000114686 3.44177e-05 3.44008e-05 -7.95786e-06
-0.000158488 4.75659e-05 4.75379e-05 7.39013e-13
-0.000134019 4.02212e-05 4.0199e-05 -4.31045e-06
-0.000113175 3.39645e-05 3.39475e-05 -7.95787e-06
-0.000137645 4.13089e-05 4.12867e-05 -4.31044e-06
-0.000135832 4.07651e-05 4.07428e-05 -4.31045e-06
-0.000156373 4.69314e-05 4.69034e-05 7.43988e-13
-0.000152143 4.56623e-05 4.56345e-05 7.28179e-13
-0.000108643 3.26051e-05 3.25876e-05 -7.95789e-06
-0.000111665 3.35114e-05 3.34942e-05 -7.95788e-06
-0.000154258 4.62968e-05 4.6269e-05 7.48207e-13
-0.000130393 3.91335e-05 3.91112e-05 -4.31046e-06
-0.000110154 3.30583e-05 3.30409e-05 -7.95788e-06
-0.000134019 4.02212e-05 4.0199e-05 -4.31045e-06
-0.000132206 3.96774e-05 3.96551e-05 -4.31046e-06
-0.000152143 4.56623e-05 4.56345e-05 7.28179e-13
-0.000147913 4.43932e-05 4.43656e-05 6.88462e-13
-0.000105621 3.16988e-05 3.16811e-05 -7.9579e-06
-0.000108643 3.26051e-05 3.25876e-05 -7.95789e-06
-0.000150028 4.50277e-05 4.50001e-05 6.9009e-13
-0.000126767 3.80459e-05 3.80235e-05 -4.31047e-06
-0.000107132 3.2152e-05 3.21343e-05 -7.9579e-06
-0.000130393 3.91335e-05 3.91112e-05 -4.31046e-06
-0.00012858 3.85897e-05 3.85674e-05 -4.31046e-06
-0.000147913 4.43932e-05 4.43656e-05 7.05081e-13
-0.000143683 4.31241e-05 4.30968e-05 6.49962e-13
-0.0001026 3.07925e-05 3.07745e-05 -7.95792e-06
-0.000105621 3.16988e-05 3.16811e-05 -7.9579e-06
-0.000145798 4.37586e-05 4.37312e-05 6.50008e-13
-0.000123142 3.69582e-05 3.69358e-05 -4.31048e-06
-0.000104111 3.12457e-05 3.12278e-05 -7.95791e-06
-0.000126767 3.80459e-05 3.80235e-05 -4.31047e-06
-0.000124954 3.7502e-05 3.74796e-05 -4.31047e-06
-0.000143683 4.31241e-05 4.30968e-05 6.50005e-13
-0.000139453 4.1855e-05 4.18279e-05 6.31112e-13
-9.95781e-05 2.98862e-05 2.9868e-05 -7.95793e-06
-0.0001026 3.07925e-05 3.07745e-05 -7.95792e-06
-0.000141568 4.24895e-05 4.24623e-05 6.46717e-13
-0.000119516 3.58705e-05 3.5848e-05 -4.31049e-06
-0.000101089 3.03394e-05 3.03212e-05 -7.95792e-06
-0.000123142 3.69582e-05 3.69358e-05 -4.31048e-06
-0.000121329 3.64143e-05 3.63919e-05 -4.31048e-06
-0.000139453 4.1855e-05 4.18279e-05 6.31112e-13
-0.000135224 4.05859e-05 4.0559e-05 5.94659e-13
-9.65566e-05 2.89799e-05 2.89614e-05 -7.95794e-06
-9.95781e-05 2.98862e-05 2.9868e-05 -7.95793e-06
-0.000137338 4.12204e-05 4.11934e-05 6.37353e-13
-0.00011589 3.47828e-05 3.47603e-05 -4.3105e-06
-9.80674e-05 2.94331e-05 2.94147e-05 -7.95794e-06
-0.000119516 3.58705e-05 3.5848e-05 -4.31049e-06
-0.000117703 3.53266e-05 3.53042e-05 -4.31049e-06
-0.000135224 4.05859e-05 4.0559e-05 5.94659e-13
-0.000130994 3.93168e-05 3.92901e-05 5.87605e-13
-9.3535e-05 2.80736e-05 2.80549e-05 -7.95795e-06
-9.65566e-05 2.89799e-05 2.89614e-05 -7.95794e-06
-0.000133109 3.99514e-05 3.99246e-05 5.85311e-13
-0.000112265 3.36951e-05 3.36726e-05 -4.31051e-06
-9.50458e-05 2.85268e-05 2.85082e-05 -7.95795e-06
-0.00011589 3.47828e-05 3.47603e-05 -4.3105e-06
-0.000114077 3.42389e-05 3.42165e-05 -4.3105e-06
-0.000130994 3.93168e-05 3.92901e-05 5.87562e-13
-0.000126764 3.80477e-05 3.80213e-05 5.60466e-13
-9.05135e-05 2.71673e-05 2.71484e-05 -7.95797e-06
-9.3535e-05 2.80736e-05 2.80549e-05 -7.95795e-06
-0.000128879 3.86823e-05 3.86557e-05 5.66742e-13
-0.000108639 3.26074e-05 3.25849e-05 -4.31051e-06
-9.20243e-05 2.76205e-05 2.76016e-05 -7.95796e-06
-0.000112265 3.36951e-05 3.36726e-05 -4.31051e-06
-0.000110452 3.31513e-05 3.31288e-05 -4.31051e-06
-0.000126764 3.80477e-05 3.80213e-05 5.73807e-13
-0.000122534 3.67786e-05 3.67524e-05 5.01751e-13
-8.7492e-05 2.6261e-05 2.62419e-05 -7.95798e-06
-9.05135e-05 2.71673e-05 2.71484e-05 -7.95797e-06
-0.000124649 3.74132e-05 3.73868e-05 5.1029e-13
-0.000105013 3.15197e-05 3.14972e-05 -4.31052e-06
-8.90028e-05 2.67142e-05 2.66951e-05 -7.95797e-06
-0.000108639 3.26074e-05 3.25849e-05 -4.31051e-06
-0.000106826 3.20636e-05 3.20411e-05 -4.31052e-06
-0.000122534 3.67786e-05 3.67524e-05 5.01751e-13
-0.000118304 3.55095e-05 3.54835e-05 4.5795e-13
-8.44705e-05 2.53547e-05 2.53353e-05 -7.95799e-06
-8.7492e-05 2.6261e-05 2.62419e-05 -7.95798e-06
-0.000120419 3.61441e-05 3.6118e-05 4.87447e-13
-0.000101388 3.0432e-05 3.04095e-05 -4.31053e-06
-8.59812e-05 2.58078e-05 2.57886e-05 -7.95799e-06
-0.000105013 3.15197e-05 3.14972e-05 -4.31052e-06
-0.0001032 3.09759e-05 3.09534e-05 -4.31053e-06
-0.000118304 3.55095e-05 3.54835e-05 4.5795e-13
-0.000114075 3.42405e-05 3.42147e-05 4.5528e-13
-8.1449e-05 2.44484e-05 2.44289e-05 -7.958e-06
-8.44705e-05 2.53547e-05 2.53353e-05 -7.95799e-06
-0.00011619 3.4875e-05 3.48491e-05 4.84324e-13
-9.77619e-05 2.93443e-05 2.93218e-05 -4.31054e-06
-8.29598e-05 2.49015e-05 2.48821e-05 -7.958e-06
-0.000101388 3.0432e-05 3.04095e-05 -4.31053e-06
-9.95747e-05 2.98882e-05 2.98657e-05 -4.31053e-06
-0.000114075 3.42405e-05 3.42147e-05 4.55358e-13
-0.000109845 3.29714e-05 3.29458e-05 4.51231e-13
-7.84275e-05 2.3542e-05 2.35224e-05 -7.95801e-06
-8.1449e-05 2.44484e-05 2.44289e-05 -7.958e-06
-0.00011196 3.36059e-05 3.35802e-05 4.37033e-13
-9.41363e-05 2.82566e-05 2.82342e-05 -4.31054e-06
-7.99383e-05 2.39952e-05 2.39756e-05 -7.95801e-06
-9.77619e-05 2.93443e-05 2.93218e-05 -4.31054e-06
-9.59491e-05 2.88005e-05 2.8778e-05 -4.31054e-06
-0.000109845 3.29714e-05 3.29458e-05 4.51306e-13
-0.000105615 3.17023e-05 3.16769e-05 4.6451e-13
-7.54061e-05 2.26357e-05 2.26159e-05 -7.95802e-06
-7.84275e-05 2.3542e-05 2.35224e-05 -7.95801e-06
-0.00010773 3.23368e-05 3.23114e-05 4.26251e-13
-9.05107e-05 2.71689e-05 2.71465e-05 -4.31055e-06
-7.69168e-05 2.30889e-05 2.30691e-05 -7.95802e-06
-9.41363e-05 2.82566e-05 2.82342e-05 -4.31054e-06
-9.23235e-05 2.77128e-05 2.76903e-05 -4.31055e-06
-0.000105615 3.17023e-05 3.16769e-05 4.6451e-13
-0.000101385 3.04332e-05 3.04081e-05 5.50673e-13
-7.23846e-05 2.17293e-05 2.17094e-05 -7.95803e-06
-7.54061e-05 2.26357e-05 2.26159e-05 -7.95802e-06
-0.0001035 3.10678e-05 3.10425e-05 4.75742e-13
-8.68851e-05 2.60812e-05 2.60588e-05 -4.31056e-06
-7.38954e-05 2.21825e-05 2.21627e-05 -7.95803e-06
-9.05107e-05 2.71689e-05 2.71465e-05 -4.31055e-06
-8.86979e-05 2.66251e-05 2.66027e-05 -4.31055e-06
-0.000101385 3.04332e-05 3.04081e-05 5.50673e-13
-9.71557e-05 2.91641e-05 2.91392e-05 6.94312e-13
-6.93632e-05 2.0823e-05 2.0803e-05 -7.95804e-06
-7.23846e-05 2.17293e-05 2.17094e-05 -7.95803e-06
-9.92706e-05 2.97987e-05 2.97737e-05 6.24677e-13
-8.32595e-05 2.49935e-05 2.49712e-05 -4.31057e-06
-7.08739e-05 2.12762e-05 2.12562e-05 -7.95804e-06
-8.68851e-05 2.60812e-05 2.60588e-05 -4.31056e-06
-8.50723e-05 2.55374e-05 2.5515e-05 -4.31056e-06
-9.71557e-05 2.91641e-05 2.91392e-05 6.94389e-13
-9.2926e-05 2.78951e-05 2.78704e-05 1.08731e-12
-6.63418e-05 1.99167e-05 1.98965e-05 -7.95806e-06
-6.93632e-05 2.0823e-05 2.0803e-05 -7.95804e-06
-9.50408e-05 2.85296e-05 2.85048e-05 8.21314e-13
-7.9634e-05 2.39058e-05 2.38835e-05 -4.31058e-06
-6.78525e-05 2.03698e-05 2.03497e-05 -7.95805e-06
-8.32595e-05 2.49935e-05 2.49712e-05 -4.31057e-06
-8.14467e-05 2.44496e-05 2.44273e-05 -4.31057e-06
-9.2926e-05 2.78951e-05 2.78704e-05 1.13037e-12
-8.86963e-05 2.6626e-05 2.66016e-05 1.54514e-12
-6.33204e-05 1.90103e-05 1.899e-05 -7.95808e-06
-6.63418e-05 1.99167e-05 1.98965e-05 -7.95806e-06
-9.08111e-05 2.72605e-05 2.7236e-05 1.27599e-12
-7.60084e-05 2.28181e-05 2.27959e-05 -4.31059e-06
-6.48311e-05 1.94635e-05 1.94433e-05 -7.95807e-06
-7.9634e-05 2.39058e-05 2.38835e-05 -4.31058e-06
-7.78212e-05 2.33619e-05 2.33397e-05 -4.31058e-06
-8.86963e-05 2.6626e-05 2.66016e-05 1.54514e-12
-8.44666e-05 2.53569e-05 2.53327e-05 2.80893e-12
-6.02991e-05 1.8104e-05 1.80836e-05 -7.95812e-06
-6.33204e-05 1.90103e-05 1.899e-05 -7.95808e-06
-8.65814e-05 2.59914e-05 2.59671e-05 2.35643e-12
-7.23829e-05 2.17304e-05 2.17082e-05 -4.31063e-06
-6.18097e-05 1.85571e-05 1.85368e-05 -7.9581e-06
-7.60084e-05 2.28181e-05 2.27959e-05 -4.31059e-06
-7.41956e-05 2.22742e-05 2.2252e-05 -4.31061e-06
-8.44666e-05 2.53569e-05 2.53327e-05 2.80893e-12
-8.02368e-05 2.40878e-05 2.40639e-05 3.66817e-12
-5.72777e-05 1.71976e-05 1.71772e-05 -7.95819e-06
-6.02991e-05 1.8104e-05 1.80836e-05 -7.95812e-06
-8.23517e-05 2.47224e-05 2.46983e-05 2.98884e-12
-6.87573e-05 2.06427e-05 2.06206e-05 -4.31068e-06
-5.87884e-05 1.76508e-05 1.76304e-05 -7.95815e-06
-7.23829e-05 2.17304e-05 2.17082e-05 -4.31063e-06
-7.05701e-05 2.11865e-05 2.11644e-05 -4.31065e-06
-8.02368e-05 2.40878e-05 2.40639e-05 3.66472e-12
-7.6007e-05 2.28187e-05 2.2795e-05 5.37163e-12
-5.42564e-05 1.62913e-05 1.62707e-05 -7.95828e-06
-5.72777e-05 1.71976e-05 1.71772e-05 -7.95819e-06
-7.81219e-05 2.34533e-05 2.34294e-05 5.96326e-12
-6.51317e-05 1.95549e-05 1.95329e-05 -4.31076e-06
-5.5767e-05 1.67445e-05 1.6724e-05 -7.95823e-06
-6.87573e-05 2.06427e-05 2.06206e-05 -4.31068e-06
-6.69445e-05 2.00988e-05 2.00767e-05 -4.31072e-06
-7.6007e-05 2.28187e-05 2.2795e-05 5.37151e-12
-7.17771e-05 2.15495e-05 2.15261e-05 5.07294e-12
-5.12351e-05 1.5385e-05 1.53643e-05 -7.95841e-06
-5.42564e-05 1.62913e-05 1.62707e-05 -7.95828e-06
-7.38921e-05 2.21841e-05 2.21605e-05 3.2089e-12
-6.15061e-05 1.84672e-05 1.84452e-05 -4.31088e-06
-5.27457e-05 1.58381e-05 1.58175e-05 -7.95834e-06
-6.51317e-05 1.95549e-05 1.95329e-05 -4.31076e-06
-6.33189e-05 1.90111e-05 1.89891e-05 -4.31082e-06
-7.17771e-05 2.15495e-05 2.15261e-05 5.07294e-12
-6.7547e-05 2.02803e-05 2.02571e-05 -1.75851e-12
-4.82139e-05 1.44786e-05 1.4458e-05 -7.95852e-06
-5.12351e-05 1.5385e-05 1.53643e-05 -7.95841e-06
-6.9662e-05 2.09149e-05 2.08916e-05 1.06645e-11
-5.78805e-05 1.73795e-05 1.73576e-05 -4.31103e-06
-4.97245e-05 1.49318e-05 1.49112e-05 -7.95847e-06
-6.15061e-05 1.84672e-05 1.84452e-05 -4.31088e-06
-5.96933e-05 1.79233e-05 1.79014e-05 -4.31095e-06
-6.7547e-05 2.02803e-05 2.02571e-05 -1.75851e-12
-6.33166e-05 1.9011e-05 1.89881e-05 -1.12034e-11
-4.51927e-05 1.35721e-05 1.35517e-05 -7.95845e-06
-4.82139e-05 1.44786e-05 1.4458e-05 -7.95852e-06
-6.54318e-05 1.96457e-05 1.96226e-05 -1.87142e-11
-5.42548e-05 1.62917e-05 1.62699e-05 -4.3111e-06
-4.67033e-05 1.40254e-05 1.40048e-05 -7.95852e-06
-5.78805e-05 1.73795e-05 1.73576e-05 -4.31103e-06
-5.60676e-05 1.68356e-05 1.68137e-05 -4.31108e-06
-6.33166e-05 1.9011e-05 1.89881e-05 -1.12034e-11
-5.9086e-05 1.77416e-05 1.7719e-05 -8.20735e-11
-4.21716e-05 1.26652e-05 1.26456e-05 -7.95787e-06
-4.51927e-05 1.35721e-05 1.35517e-05 -7.95845e-06
-6.12013e-05 1.83763e-05 1.83536e-05 -1.44436e-12
-5.06294e-05 1.52038e-05 1.51824e-05 -4.31091e-06
-4.36822e-05 1.31187e-05 1.30986e-05 -7.95825e-06
-5.42548e-05 1.62917e-05 1.62699e-05 -4.3111e-06
-5.24421e-05 1.57478e-05 1.57261e-05 -4.31107e-06
-5.9086e-05 1.77416e-05 1.7719e-05 -8.209e-11
-5.48554e-05 1.64724e-05 1.64499e-05 -1.21539e-10
-3.91507e-05 1.17574e-05 1.174e-05 -7.95583e-06
-4.21716e-05 1.26652e-05 1.26456e-05 -7.95787e-06
-5.69707e-05 1.7107e-05 1.70845e-05 -1.69191e-10
-4.70046e-05 1.4116e-05 1.40951e-05 -4.30982e-06
-4.06611e-05 1.22114e-05 1.21927e-05 -7.95713e-06
-5.06294e-05 1.52038e-05 1.51824e-05 -4.31091e-06
-4.88169e-05 1.46599e-05 1.46387e-05 -4.31053e-06
-5.48554e-05 1.64724e-05 1.64499e-05 -1.21539e-10
-5.06265e-05 1.52032e-05 1.51814e-05 -5.15897e-10
-3.61296e-05 1.08478e-05 1.08351e-05 -7.95082e-06
-3.91507e-05 1.17574e-05 1.174e-05 -7.95583e-06
-5.27406e-05 1.58375e-05 1.58156e-05 -1.15063e-10
-4.33816e-05 1.30281e-05 1.30086e-05 -4.30677e-06
-3.76403e-05 1.13029e-05 1.12874e-05 -7.95383e-06
-4.70046e-05 1.4116e-05 1.40951e-05 -4.30982e-06
-4.51927e-05 1.3572e-05 1.35517e-05 -4.30868e-06
-5.06265e-05 1.52032e-05 1.51814e-05 -5.15897e-10
-4.64008e-05 1.39364e-05 1.39133e-05 -5.78948e-10
-3.31087e-05 9.93441e-06 9.93184e-06 -7.93894e-06
-3.61296e-05 1.08478e-05 1.08351e-05 -7.95082e-06
-4.85133e-05 1.45699e-05 1.45472e-05 -8.87109e-10
-3.97621e-05 1.19403e-05 1.19236e-05 -4.29898e-06
-3.46189e-05 1.03917e-05 1.03831e-05 -7.94612e-06
-4.33816e-05 1.30281e-05 1.30086e-05 -4.30677e-06
-4.15714e-05 1.24842e-05 1.2466e-05 -4.30362e-06
-4.64008e-05 1.39364e-05 1.39133e-05 -5.78987e-10
-4.2188e-05 1.26708e-05 1.26502e-05 -2.33249e-09
-3.00856e-05 9.0142e-06 9.03059e-06 -7.91496e-06
-3.31087e-05 9.93441e-06 9.93184e-06 -7.93894e-06
-4.42916e-05 1.3302e-05 1.32813e-05 -5.83893e-10
-3.61519e-05 1.0853e-05 1.08424e-05 -4.28207e-06
-3.15979e-05 9.47557e-06 9.481e-06 -7.92888e-06
-3.97621e-05 1.19403e-05 1.19236e-05 -4.29898e-06
-3.79551e-05 1.13966e-05 1.13822e-05 -4.2923e-06
-4.2188e-05 1.26708e-05 1.26502e-05 -2.33249e-09
-3.79958e-05 1.14193e-05 1.13899e-05 -2.01312e-09
-2.70618e-05 8.08099e-06 8.13461e-06 -7.86603e-06
-3.00856e-05 9.0142e-06 9.03059e-06 -7.91496e-06
-4.00896e-05 1.20456e-05 1.20188e-05 -3.79357e-09
-3.25563e-05 9.76651e-06 9.76705e-06 -4.2467e-06
-2.85731e-05 8.54938e-06 8.58159e-06 -7.89487e-06
-3.61519e-05 1.0853e-05 1.08424e-05 -4.28207e-06
-3.43523e-05 1.03094e-05 1.03041e-05 -4.26701e-06
-3.79958e-05 1.14193e-05 1.13899e-05 -2.01312e-09
-3.38651e-05 1.01726e-05 1.01539e-05 -8.83285e-09
-2.40245e-05 7.12761e-06 7.24153e-06 -7.77915e-06
-2.70618e-05 8.08099e-06 8.13461e-06 -7.86603e-06
-3.59174e-05 1.07881e-05 1.07697e-05 -1.72768e-09
-2.89958e-05 8.68295e-06 8.70552e-06 -4.17788e-06
-2.55471e-05 7.60835e-06 7.68802e-06 -7.82821e-06
-3.25563e-05 9.76651e-06 9.76705e-06 -4.2467e-06
-3.07691e-05 9.22469e-06 9.23332e-06 -4.21911e-06
-3.38651e-05 1.01726e-05 1.01539e-05 -8.83285e-09
-2.98245e-05 8.99259e-06 8.92797e-06 -5.44692e-09
-2.09779e-05 6.13639e-06 6.36064e-06 -7.62092e-06
-2.40245e-05 7.12761e-06 7.24153e-06 -7.77915e-06
-3.18354e-05 9.58666e-06 9.53518e-06 -1.46814e-08
-2.54813e-05 7.60196e-06 7.66255e-06 -4.05159e-06
-2.24996e-05 6.63577e-06 6.79879e-06 -7.71222e-06
-2.89958e-05 8.68295e-06 8.70552e-06 -4.17788e-06
-2.7234e-05 8.14093e-06 8.18276e-06 -4.12128e-06
-2.98245e-05 8.99259e-06 8.92797e-06 -5.44692e-09
-2.60161e-05 7.81579e-06 7.80011e-06 -2.95145e-08
-1.78648e-05 5.10287e-06 5.46942e-06 -7.37855e-06
-2.09779e-05 6.13639e-06 6.36064e-06 -7.62092e-06
-2.78717e-05 8.3697e-06 8.35798e-06 -1.45789e-09
-2.20759e-05 6.53282e-06 6.66134e-06 -3.82359e-06
-1.94396e-05 5.63054e-06 5.91815e-06 -7.51036e-06
-2.54813e-05 7.60196e-06 7.66255e-06 -4.05159e-06
-2.37558e-05 7.06813e-06 7.15184e-06 -3.96079e-06
-2.60161e-05 7.81579e-06 7.80011e-06 -2.95145e-08
-2.2536e-05 6.92437e-06 6.69069e-06 -1.0143e-08
-1.46894e-05 3.98422e-06 4.58793e-06 -7.00166e-06
-1.78648e-05 5.10287e-06 5.46942e-06 -7.37855e-06
-2.42425e-05 7.39575e-06 7.22005e-06 -5.50917e-08
-1.87617e-05 5.46061e-06 5.70045e-06 -3.46171e-06
-1.62745e-05 4.54391e-06 5.02741e-06 -7.21135e-06
-2.20759e-05 6.53282e-06 6.66134e-06 -3.82359e-06
-2.04189e-05 5.99196e-06 6.18295e-06 -3.64859e-06
-2.2536e-05 6.92437e-06 6.69069e-06 -1.0143e-08
-1.97797e-05 5.94223e-06 5.93035e-06 -8.11521e-08
-1.12281e-05 2.8707e-06 3.58176e-06 -6.59621e-06
-1.46894e-05 3.98422e-06 4.58793e-06 -7.00166e-06
-2.10103e-05 6.29209e-06 6.30782e-06 2.3968e-08
-1.57025e-05 4.42148e-06 4.83471e-06 -2.86397e-06
-1.30328e-05 3.4451e-06 4.10901e-06 -6.7909e-06
-1.87617e-05 5.46061e-06 5.70045e-06 -3.46171e-06
-1.71682e-05 4.94803e-06 5.23723e-06 -3.23139e-06
-1.97797e-05 5.94223e-06 5.93035e-06 -8.11521e-08
-1.81803e-05 6.06811e-06 5.19093e-06 1.31325e-07
-7.50441e-06 1.76738e-06 2.45872e-06 -6.3367e-06
-1.12281e-05 2.8707e-06 3.58176e-06 -6.59621e-06
-1.88383e-05 6.16285e-06 5.43233e-06 -1.77806e-07
-1.25123e-05 3.30107e-06 3.94765e-06 -2.2149e-06
-9.35787e-06 2.24237e-06 3.0495e-06 -6.42194e-06
-1.57025e-05 4.42148e-06 4.83471e-06 -2.86397e-06
-1.42039e-05 3.85616e-06 4.43476e-06 -2.4656e-06
-1.81803e-05 6.06811e-06 5.19093e-06 1.31325e-07
-1.91745e-05 5.23351e-06 5.97472e-06 7.86367e-07
-3.18309e-06 1.86434e-06 5.6518e-07 -7.40249e-06
-7.50441e-06 1.76738e-06 2.45872e-06 -6.3367e-06
-1.81707e-05 5.10598e-06 5.59917e-06 5.5989e-07
-9.10767e-06 2.36696e-06 2.88888e-06 -1.82021e-06
-5.50155e-06 1.65094e-06 1.65026e-06 -6.58986e-06
-1.25123e-05 3.30107e-06 3.94765e-06 -2.2149e-06
-1.0767e-05 2.80809e-06 3.41095e-06 -2.06754e-06
-1.91745e-05 5.23351e-06 5.97472e-06 7.86367e-07
-2.61151e-05 5.25908e-06 8.93831e-06 6.10655e-06
-1.16335e-06 6.843e-06 -2.43414e-06 -1.12994e-05
-3.18309e-06 1.86434e-06 5.6518e-07 -7.40249e-06
-2.16649e-05 7.30557e-06 6.15402e-06 1.64753e-06
-2.09752e-06 4.28576e-06 -9.37819e-07 -6.55226e-06
-1.44002e-06 2.80926e-06 -5.86814e-07 -8.7954e-06
-9.10767e-06 2.36696e-06 2.88888e-06 -1.82021e-06
-6.547e-06 2.29546e-06 1.82209e-06 -2.72261e-06
-2.61151e-05 5.25908e-06 8.93831e-06 6.10655e-06
-1.49404e-05 3.97657e-05 -1.06394e-05 -3.08788e-05
-9.2898e-06 3.02209e-05 -8.97046e-06 -1.14125e-05
-1.16335e-06 6.843e-06 -2.43414e-06 -1.12994e-05
-2.60378e-05 1.56746e-06 1.04873e-05 2.66269e-06
-8.31467e-06 3.71698e-05 -1.23665e-05 -1.83501e-05
-3.42323e-06 1.61442e-05 -5.45184e-06 -1.3305e-05
-2.09752e-06 4.28576e-06 -9.37819e-07 -6.55226e-06
-9.54824e-07 1.21955e-05 -4.81741e-06 -1.21452e-05
-0.000507295 0 0.000217412 -2.90365e-05
-0.000571154 0.000113302 0.000196222 -4.24841e-05
-0.000330781 4.36809e-05 0.000123043 -1.28993e-06
-0.000292496 0 0.000125355 3.83748e-05
-0.00054313 5.35188e-05 0.000209834 -4.92979e-05
-0.000441135 6.83493e-05 0.000159765 -1.75954e-05
-0.000316964 2.45613e-05 0.000125316 1.44186e-05
-0.000415322 0 0.000177995 6.02657e-06
-0.000422369 3.78936e-05 0.000164775 -5.61073e-06
-0.000571154 0.000113302 0.000196222 -4.24841e-05
-0.000593438 0.000160693 0.000185462 -2.0225e-05
-0.000347679 7.98892e-05 0.000114767 -1.36315e-05
-0.000330781 4.36809e-05 0.000123043 -1.28993e-06
-0.000588785 0.000146754 0.000189442 -3.06343e-05
-0.000470482 0.000116031 0.000151908 -2.05515e-05
-0.000339251 6.29361e-05 0.000118421 -9.24402e-06
-0.000441135 6.83493e-05 0.000159765 -1.75954e-05
-0.000460784 9.51415e-05 0.000156704 -2.30882e-05
-0.000593438 0.000160693 0.000185462 -2.0225e-05
-0.000590571 0.000173968 0.000178544 -7.53032e-06
-0.000356245 9.81526e-05 0.000110611 -1.60123e-05
-0.000347679 7.98892e-05 0.000114767 -1.36315e-05
-0.000591803 0.000168951 0.000181222 -1.1889e-05
-0.000475205 0.000135171 0.000145729 -1.38065e-05
-0.000354024 9.12266e-05 0.000112627 -1.5791e-05
-0.000470482 0.000116031 0.000151908 -2.05515e-05
-0.000474025 0.00012853 0.000148069 -1.62496e-05
-0.000590571 0.000173968 0.000178544 -7.53032e-06
-0.00058641 0.000175778 0.000175985 -4.7124e-06
-0.000355922 0.000105318 0.000107402 -1.48121e-05
-0.000356245 9.81526e-05 0.000110611 -1.60123e-05
-0.000589016 0.000175727 0.000177124 -5.63474e-06
-0.000472905 0.00014127 0.00014213 -1.05031e-05
-0.000356244 0.000102652 0.000108682 -1.534e-05
-0.000475205 0.000135171 0.000145729 -1.38065e-05
-0.00047463 0.000139145 0.000143779 -1.20304e-05
-0.00058641 0.000175778 0.000175985 -4.7124e-06
-0.000581607 0.000175473 0.000174058 -4.59528e-06
-0.000353426 0.000106676 0.00010575 -1.39988e-05
-0.000355922 0.000105318 0.000107402 -1.48121e-05
-0.000583644 0.000175682 0.000174841 -4.37307e-06
-0.000468564 0.000141607 0.000140124 -9.47454e-06
-0.000355056 0.000106463 0.00010654 -1.4409e-05
-0.000472905 0.00014127 0.00014213 -1.05031e-05
-0.000470671 0.000141858 0.00014092 -9.64283e-06
-0.000581607 0.000175473 0.000174058 -4.59528e-06
-0.00057796 0.00017418 0.000173049 -5.56284e-06
-0.000349908 0.000106128 0.000104477 -1.34545e-05
-0.000353426 0.000106676 0.00010575 -1.39988e-05
-0.000579859 0.000174908 0.00017355 -5.10445e-06
-0.000464566 0.000140611 0.000138838 -9.55863e-06
-0.00035154 0.000106516 0.00010501 -1.36413e-05
-0.000468564 0.000141607 0.000140124 -9.47454e-06
-0.000466543 0.000141165 0.000139448 -9.51382e-06
-0.00057796 0.00017418 0.000173049 -5.56284e-06
-0.000574433 0.000172921 0.000172077 -6.37388e-06
-0.000346844 0.000104941 0.000103673 -1.32892e-05
-0.000349908 0.000106128 0.000104477 -1.34545e-05
-0.000576092 0.000173525 0.000172529 -5.96949e-06
-0.000460967 0.000139177 0.00013791 -9.92347e-06
-0.000348389 0.000105568 0.000104066 -1.33641e-05
-0.000464566 0.000140611 0.000138838 -9.55863e-06
-0.000462688 0.000139915 0.000138332 -9.70013e-06
-0.000574433 0.000172921 0.000172077 -6.37388e-06
-0.000571264 0.000171696 0.000171244 -7.03397e-06
-0.000344055 0.000103783 0.000102974 -1.32178e-05
-0.000346844 0.000104941 0.000103673 -1.32892e-05
-0.000572864 0.000172304 0.000171668 -6.74759e-06
-0.000457835 0.000137893 0.000137118 -1.02857e-05
-0.000345367 0.000104342 0.000103297 -1.32343e-05
-0.000460967 0.000139177 0.00013791 -9.92347e-06
-0.000459362 0.000138507 0.000137509 -1.01293e-05
-0.000571264 0.000171696 0.000171244 -7.03397e-06
-0.000568133 0.00017059 0.000170376 -7.43441e-06
-0.000341677 0.000102767 0.00010239 -1.32211e-05
-0.000344055 0.000103783 0.000102974 -1.32178e-05
-0.000569674 0.000171128 0.000170806 -7.25393e-06
-0.000454989 0.000136753 0.000136387 -1.05542e-05
-0.000342845 0.000103256 0.000102681 -1.32202e-05
-0.000457835 0.000137893 0.000137118 -1.02857e-05
-0.000456379 0.000137306 0.000136746 -1.04266e-05
-0.000568133 0.00017059 0.000170376 -7.43441e-06
-0.000565086 0.000169556 0.000169513 -7.68657e-06
-0.000339509 0.00010192 0.000101824 -1.32291e-05
-0.000341677 0.000102767 0.00010239 -1.32211e-05
-0.000566613 0.000170066 0.000169949 -7.58041e-06
-0.000452339 0.000135776 0.00013567 -1.07272e-05
-0.000340561 0.000102325 0.000102101 -1.32226e-05
-0.000454989 0.000136753 0.000136387 -1.05542e-05
-0.000453647 0.000136247 0.000136029 -1.06544e-05
-0.000565086 0.000169556 0.000169513 -7.68657e-06
-0.000562044 0.000168578 0.000168628 -7.82136e-06
-0.000337513 0.000101192 0.00010128 -1.32429e-05
-0.000339509 0.00010192 0.000101824 -1.32291e-05
-0.00056356 0.000169061 0.000169071 -7.76335e-06
-0.000449797 0.0001349 0.000134956 -1.08306e-05
-0.000338501 0.000101544 0.000101553 -1.32373e-05
-0.000452339 0.000135776 0.00013567 -1.07272e-05
-0.000451058 0.000135329 0.000135312 -1.07848e-05
-0.000562044 0.000168578 0.000168628 -7.82136e-06
-0.00055902 0.000167632 0.000167737 -7.89532e-06
-0.000335597 0.000100546 0.000100736 -1.32512e-05
-0.000337513 0.000101192 0.00010128 -1.32429e-05
-0.000560533 0.000168102 0.000168185 -7.865e-06
-0.000447318 0.000134094 0.000134239 -1.08874e-05
-0.000336545 0.000100861 0.000101007 -1.32471e-05
-0.000449797 0.0001349 0.000134956 -1.08306e-05
-0.000448553 0.000134491 0.000134598 -1.08641e-05
-0.00055902 0.000167632 0.000167737 -7.89532e-06
-0.000555995 0.000166706 0.000166838 -7.93066e-06
-0.000333736 9.99487e-05 0.000100195 -1.32571e-05
-0.000335597 0.000100546 0.000100736 -1.32512e-05
-0.000557506 0.000167167 0.000167288 -7.91603e-06
-0.000444871 0.000133327 0.000133519 -1.09172e-05
-0.000334663 0.000100243 0.000100466 -1.32547e-05
-0.000447318 0.000134094 0.000134239 -1.08874e-05
-0.000446092 0.000133707 0.000133879 -1.09046e-05
-0.000555995 0.000166706 0.000166838 -7.93066e-06
-0.000552972 0.000165791 0.000165935 -7.9476e-06
-0.000331898 9.93789e-05 9.96512e-05 -1.32601e-05
-0.000333736 9.99487e-05 0.000100195 -1.32571e-05
-0.000554484 0.000166248 0.000166387 -7.94093e-06
-0.000442439 0.000132582 0.000132796 -1.09316e-05
-0.000332815 9.96613e-05 9.99228e-05 -1.32588e-05
-0.000444871 0.000133327 0.000133519 -1.09172e-05
-0.000443654 0.000132952 0.000133158 -1.09259e-05
-0.000552972 0.000165791 0.000165935 -7.9476e-06
-0.000549949 0.00016488 0.000165029 -7.95442e-06
-0.000330074 9.88237e-05 9.91073e-05 -1.32618e-05
-0.000331898 9.93789e-05 9.96512e-05 -1.32601e-05
-0.000551461 0.000165335 0.000165482 -7.95176e-06
-0.000440015 0.000131848 0.000132072 -1.09381e-05
-0.000330985 9.91e-05 9.93794e-05 -1.32611e-05
-0.000442439 0.000132582 0.000132796 -1.09316e-05
-0.000441227 0.000132214 0.000132434 -1.09354e-05
-0.000549949 0.00016488 0.000165029 -7.95442e-06
-0.000546926 0.000163973 0.000164123 -7.95695e-06
-0.000328255 9.82759e-05 9.85625e-05 -1.32624e-05
-0.000330074 9.88237e-05 9.91073e-05 -1.32618e-05
-0.000548438 0.000164426 0.000164576 -7.95606e-06
-0.000437594 0.00013112 0.000131346 -1.09406e-05
-0.000329164 9.85492e-05 9.8835e-05 -1.32622e-05
-0.000440015 0.000131848 0.000132072 -1.09381e-05
-0.000438805 0.000131484 0.000131709 -1.09397e-05
-0.000546926 0.000163973 0.000164123 -7.95695e-06
-0.000543903 0.000163066 0.000163216 -7.95748e-06
-0.000326439 9.77315e-05 9.80174e-05 -1.32627e-05
-0.000328255 9.82759e-05 9.85625e-05 -1.32624e-05
-0.000545414 0.00016352 0.000163669 -7.95734e-06
-0.000435175 0.000130395 0.00013062 -1.09414e-05
-0.000327347 9.80034e-05 9.829e-05 -1.32626e-05
-0.000437594 0.00013112 0.000131346 -1.09406e-05
-0.000436384 0.000130757 0.000130983 -1.09411e-05
-0.000543903 0.000163066 0.000163216 -7.95748e-06
-0.000540879 0.000162161 0.000162308 -7.95736e-06
-0.000324623 9.71887e-05 9.74719e-05 -1.32627e-05
-0.000326439 9.77315e-05 9.80174e-05 -1.32627e-05
-0.000542391 0.000162613 0.000162762 -7.95746e-06
-0.000432755 0.00012967 0.000129893 -1.09414e-05
-0.000325531 9.746e-05 9.77447e-05 -1.32627e-05
-0.000435175 0.000130395 0.00013062 -1.09414e-05
-0.000433965 0.000130032 0.000130257 -1.09415e-05
-0.000540879 0.000162161 0.000162308 -7.95736e-06
-0.000537856 0.000161255 0.0001614 -7.95706e-06
-0.000322808 9.66464e-05 9.69263e-05 -1.32626e-05
-0.000324623 9.71887e-05 9.74719e-05 -1.32627e-05
-0.000539368 0.000161708 0.000161854 -7.95721e-06
-0.000430336 0.000128946 0.000129167 -1.09413e-05
-0.000323716 9.69175e-05 9.71992e-05 -1.32627e-05
-0.000432755 0.00012967 0.000129893 -1.09414e-05
-0.000431546 0.000129308 0.00012953 -1.09414e-05
-0.000537856 0.000161255 0.0001614 -7.95706e-06
-0.000534832 0.000160349 0.000160493 -7.95679e-06
-0.000320992 9.61042e-05 9.63807e-05 -1.32626e-05
-0.000322808 9.66464e-05 9.69263e-05 -1.32626e-05
-0.000536344 0.000160802 0.000160947 -7.95692e-06
-0.000427916 0.000128223 0.00012844 -1.09411e-05
-0.0003219 9.63753e-05 9.66535e-05 -1.32626e-05
-0.000430336 0.000128946 0.000129167 -1.09413e-05
-0.000429126 0.000128585 0.000128804 -1.09412e-05
-0.000534832 0.000160349 0.000160493 -7.95679e-06
-0.000531809 0.000159444 0.000159585 -7.9566e-06
-0.000319177 9.5562e-05 9.5835e-05 -1.32625e-05
-0.000320992 9.61042e-05 9.63807e-05 -1.32626e-05
-0.000533321 0.000159896 0.000160039 -7.95668e-06
-0.000425497 0.000127499 0.000127713 -1.0941e-05
-0.000320085 9.58331e-05 9.61078e-05 -1.32625e-05
-0.000427916 0.000128223 0.00012844 -1.09411e-05
-0.000426707 0.000127861 0.000128077 -1.0941e-05
-0.000531809 0.000159444 0.000159585 -7.9566e-06
-0.000528785 0.000158538 0.000158677 -7.95648e-06
-0.000317361 9.50197e-05 9.52893e-05 -1.32625e-05
-0.000319177 9.5562e-05 9.5835e-05 -1.32625e-05
-0.000530297 0.000158991 0.000159131 -7.95653e-06
-0.000423077 0.000126775 0.000126987 -1.09409e-05
-0.000318269 9.52908e-05 9.55621e-05 -1.32625e-05
-0.000425497 0.000127499 0.000127713 -1.0941e-05
-0.000424287 0.000127137 0.00012735 -1.09409e-05
-0.000528785 0.000158538 0.000158677 -7.95648e-06
-0.000525762 0.000157632 0.00015777 -7.95642e-06
-0.000315546 9.44774e-05 9.47436e-05 -1.32625e-05
-0.000317361 9.50197e-05 9.52893e-05 -1.32625e-05
-0.000527273 0.000158085 0.000158224 -7.95644e-06
-0.000420658 0.000126051 0.00012626 -1.09408e-05
-0.000316454 9.47486e-05 9.50164e-05 -1.32625e-05
-0.000423077 0.000126775 0.000126987 -1.09409e-05
-0.000421867 0.000126413 0.000126623 -1.09408e-05
-0.000525762 0.000157632 0.00015777 -7.95642e-06
-0.000522738 0.000156726 0.000156862 -7.95639e-06
-0.00031373 9.3935e-05 9.41979e-05 -1.32625e-05
-0.000315546 9.44774e-05 9.47436e-05 -1.32625e-05
-0.00052425 0.000157179 0.000157316 -7.9564e-06
-0.000418238 0.000125327 0.000125533 -1.09408e-05
-0.000314638 9.42062e-05 9.44707e-05 -1.32625e-05
-0.000420658 0.000126051 0.00012626 -1.09408e-05
-0.000419448 0.000125689 0.000125897 -1.09408e-05
-0.000522738 0.000156726 0.000156862 -7.95639e-06
-0.000519715 0.000155821 0.000155955 -7.95638e-06
-0.000311914 9.33926e-05 9.36522e-05 -1.32625e-05
-0.00031373 9.3935e-05 9.41979e-05 -1.32625e-05
-0.000521226 0.000156273 0.000156408 -7.95638e-06
-0.000415818 0.000124603 0.000124807 -1.09408e-05
-0.000312822 9.36638e-05 9.39251e-05 -1.32625e-05
-0.000418238 0.000125327 0.000125533 -1.09408e-05
-0.000417028 0.000124965 0.00012517 -1.09408e-05
-0.000519715 0.000155821 0.000155955 -7.95638e-06
-0.000516691 0.000154915 0.000155047 -7.95639e-06
-0.000310099 9.28502e-05 9.31066e-05 -1.32625e-05
-0.000311914 9.33926e-05 9.36522e-05 -1.32625e-05
-0.000518203 0.000155368 0.000155501 -7.95639e-06
-0.000413399 0.000123879 0.00012408 -1.09408e-05
-0.000311007 9.31214e-05 9.33794e-05 -1.32625e-05
-0.000415818 0.000124603 0.000124807 -1.09408e-05
-0.000414609 0.000124241 0.000124443 -1.09408e-05
-0.000516691 0.000154915 0.000155047 -7.95639e-06
-0.000513668 0.000154009 0.000154139 -7.9564e-06
-0.000308283 9.23077e-05 9.25609e-05 -1.32625e-05
-0.000310099 9.28502e-05 9.31066e-05 -1.32625e-05
-0.000515179 0.000154462 0.000154593 -7.95639e-06
-0.000410979 0.000123155 0.000123353 -1.09408e-05
-0.000309191 9.2579e-05 9.28337e-05 -1.32625e-05
-0.000413399 0.000123879 0.00012408 -1.09408e-05
-0.000412189 0.000123517 0.000123717 -1.09408e-05
-0.000513668 0.000154009 0.000154139 -7.9564e-06
-0.000510644 0.000153103 0.000153232 -7.95642e-06
-0.000306468 9.17653e-05 9.20153e-05 -1.32625e-05
-0.000308283 9.23077e-05 9.25609e-05 -1.32625e-05
-0.000512156 0.000153556 0.000153686 -7.95641e-06
-0.00040856 0.000122431 0.000122627 -1.09408e-05
-0.000307375 9.20365e-05 9.22881e-05 -1.32625e-05
-0.000410979 0.000123155 0.000123353 -1.09408e-05
-0.000409769 0.000122793 0.00012299 -1.09408e-05
-0.000510644 0.000153103 0.000153232 -7.95642e-06
-0.000507621 0.000152198 0.000152324 -7.95643e-06
-0.000304652 9.12228e-05 9.14696e-05 -1.32625e-05
-0.000306468 9.17653e-05 9.20153e-05 -1.32625e-05
-0.000509132 0.00015265 0.000152778 -7.95642e-06
-0.00040614 0.000121707 0.0001219 -1.09408e-05
-0.00030556 9.14941e-05 9.17424e-05 -1.32625e-05
-0.00040856 0.000122431 0.000122627 -1.09408e-05
-0.00040735 0.000122069 0.000122263 -1.09408e-05
-0.000507621 0.000152198 0.000152324 -7.95643e-06
-0.000504597 0.000151292 0.000151417 -7.95644e-06
-0.000302836 9.06804e-05 9.0924e-05 -1.32625e-05
-0.000304652 9.12228e-05 9.14696e-05 -1.32625e-05
-0.000506109 0.000151745 0.00015187 -7.95644e-06
-0.00040372 0.000120983 0.000121173 -1.09408e-05
-0.000303744 9.09516e-05 9.11968e-05 -1.32625e-05
-0.00040614 0.000121707 0.0001219 -1.09408e-05
-0.00040493 0.000121345 0.000121537 -1.09408e-05
-0.000504597 0.000151292 0.000151417 -7.95644e-06
-0.000501574 0.000150386 0.000150509 -7.95646e-06
-0.000301021 9.01379e-05 9.03784e-05 -1.32625e-05
-0.000302836 9.06804e-05 9.0924e-05 -1.32625e-05
-0.000503085 0.000150839 0.000150963 -7.95645e-06
-0.000401301 0.000120258 0.000120447 -1.09409e-05
-0.000301929 9.04091e-05 9.06512e-05 -1.32625e-05
-0.00040372 0.000120983 0.000121173 -1.09408e-05
-0.000402511 0.00012062 0.00012081 -1.09409e-05
-0.000501574 0.000150386 0.000150509 -7.95646e-06
-0.00049855 0.00014948 0.000149601 -7.95647e-06
-0.000299205 8.95954e-05 8.98328e-05 -1.32626e-05
-0.000301021 9.01379e-05 9.03784e-05 -1.32625e-05
-0.000500062 0.000149933 0.000150055 -7.95647e-06
-0.000398881 0.000119534 0.00011972 -1.09409e-05
-0.000300113 8.98666e-05 9.01056e-05 -1.32625e-05
-0.000401301 0.000120258 0.000120447 -1.09409e-05
-0.000400091 0.000119896 0.000120083 -1.09409e-05
-0.00049855 0.00014948 0.000149601 -7.95647e-06
-0.000495527 0.000148574 0.000148694 -7.95649e-06
-0.00029739 8.90529e-05 8.92872e-05 -1.32626e-05
-0.000299205 8.95954e-05 8.98328e-05 -1.32626e-05
-0.000497039 0.000149027 0.000149148 -7.95648e-06
-0.000396462 0.00011881 0.000118993 -1.09409e-05
-0.000298297 8.93241e-05 8.956e-05 -1.32626e-05
-0.000398881 0.000119534 0.00011972 -1.09409e-05
-0.000397671 0.000119172 0.000119357 -1.09409e-05
-0.000495527 0.000148574 0.000148694 -7.95649e-06
-0.000492503 0.000147669 0.000147786 -7.9565e-06
-0.000295574 8.85104e-05 8.87416e-05 -1.32626e-05
-0.00029739 8.90529e-05 8.92872e-05 -1.32626e-05
-0.000494015 0.000148122 0.00014824 -7.95649e-06
-0.000394042 0.000118086 0.000118267 -1.09409e-05
-0.000296482 8.87817e-05 8.90144e-05 -1.32626e-05
-0.000396462 0.00011881 0.000118993 -1.09409e-05
-0.000395252 0.000118448 0.00011863 -1.09409e-05
-0.000492503 0.000147669 0.000147786 -7.9565e-06
-0.00048948 0.000146763 0.000146879 -7.95651e-06
-0.000293759 8.79679e-05 8.8196e-05 -1.32626e-05
-0.000295574 8.85104e-05 8.87416e-05 -1.32626e-05
-0.000490992 0.000147216 0.000147333 -7.95651e-06
-0.000391623 0.000117362 0.00011754 -1.09409e-05
-0.000294666 8.82392e-05 8.84688e-05 -1.32626e-05
-0.000394042 0.000118086 0.000118267 -1.09409e-05
-0.000392832 0.000117724 0.000117904 -1.09409e-05
-0.00048948 0.000146763 0.000146879 -7.95651e-06
-0.000486457 0.000145857 0.000145971 -7.95652e-06
-0.000291943 8.74254e-05 8.76504e-05 -1.32626e-05
-0.000293759 8.79679e-05 8.8196e-05 -1.32626e-05
-0.000487968 0.00014631 0.000146425 -7.95652e-06
-0.000389203 0.000116638 0.000116814 -1.09409e-05
-0.000292851 8.76966e-05 8.79232e-05 -1.32626e-05
-0.000391623 0.000117362 0.00011754 -1.09409e-05
-0.000390413 0.000117 0.000117177 -1.09409e-05
-0.000486457 0.000145857 0.000145971 -7.95652e-06
-0.000483433 0.000144951 0.000145064 -7.95654e-06
-0.000290128 8.68829e-05 8.71049e-05 -1.32626e-05
-0.000291943 8.74254e-05 8.76504e-05 -1.32626e-05
-0.000484945 0.000145404 0.000145517 -7.95653e-06
-0.000386784 0.000115914 0.000116087 -1.09409e-05
-0.000291035 8.71541e-05 8.73777e-05 -1.32626e-05
-0.000389203 0.000116638 0.000116814 -1.09409e-05
-0.000387993 0.000116276 0.00011645 -1.09409e-05
-0.000483433 0.000144951 0.000145064 -7.95654e-06
-0.00048041 0.000144045 0.000144156 -7.95655e-06
-0.000288312 8.63403e-05 8.65593e-05 -1.32626e-05
-0.000290128 8.68829e-05 8.71049e-05 -1.32626e-05
-0.000481922 0.000144498 0.00014461 -7.95654e-06
-0.000384364 0.00011519 0.000115361 -1.0941e-05
-0.00028922 8.66116e-05 8.68321e-05 -1.32626e-05
-0.000386784 0.000115914 0.000116087 -1.09409e-05
-0.000385574 0.000115552 0.000115724 -1.09409e-05
-0.00048041 0.000144045 0.000144156 -7.95655e-06
-0.000477387 0.00014314 0.000143249 -7.95656e-06
-0.000286497 8.57978e-05 8.60138e-05 -1.32626e-05
-0.000288312 8.63403e-05 8.65593e-05 -1.32626e-05
-0.000478898 0.000143593 0.000143702 -7.95655e-06
-0.000381945 0.000114466 0.000114634 -1.0941e-05
-0.000287404 8.60691e-05 8.62866e-05 -1.32626e-05
-0.000384364 0.00011519 0.000115361 -1.0941e-05
-0.000383155 0.000114828 0.000114997 -1.0941e-05
-0.000477387 0.00014314 0.000143249 -7.95656e-06
-0.000474363 0.000142234 0.000142341 -7.95657e-06
-0.000284681 8.52553e-05 8.54683e-05 -1.32626e-05
-0.000286497 8.57978e-05 8.60138e-05 -1.32626e-05
-0.000475875 0.000142687 0.000142795 -7.95656e-06
-0.000379525 0.000113741 0.000113907 -1.0941e-05
-0.000285589 8.55265e-05 8.5741e-05 -1.32626e-05
-0.000381945 0.000114466 0.000114634 -1.0941e-05
-0.000380735 0.000114103 0.000114271 -1.0941e-05
-0.000474363 0.000142234 0.000142341 -7.95657e-06
-0.00047134 0.000141328 0.000141434 -7.95658e-06
-0.000282866 8.47127e-05 8.49228e-05 -1.32626e-05
-0.000284681 8.52553e-05 8.54683e-05 -1.32626e-05
-0.000472852 0.000141781 0.000141887 -7.95658e-06
-0.000377106 0.000113017 0.000113181 -1.0941e-05
-0.000283774 8.4984e-05 8.51955e-05 -1.32626e-05
-0.000379525 0.000113741 0.000113907 -1.0941e-05
-0.000378316 0.000113379 0.000113544 -1.0941e-05
-0.00047134 0.000141328 0.000141434 -7.95658e-06
-0.000468317 0.000140422 0.000140526 -7.95659e-06
-0.00028105 8.41702e-05 8.43773e-05 -1.32626e-05
-0.000282866 8.47127e-05 8.49228e-05 -1.32626e-05
-0.000469828 0.000140875 0.00014098 -7.95659e-06
-0.000374687 0.000112293 0.000112454 -1.0941e-05
-0.000281958 8.44414e-05 8.465e-05 -1.32626e-05
-0.000377106 0.000113017 0.000113181 -1.0941e-05
-0.000375896 0.000112655 0.000112818 -1.0941e-05
-0.000468317 0.000140422 0.000140526 -7.95659e-06
-0.000465293 0.000139516 0.000139619 -7.9566e-06
-0.000279235 8.36276e-05 8.38318e-05 -1.32627e-05
-0.00028105 8.41702e-05 8.43773e-05 -1.32626e-05
-0.000466805 0.000139969 0.000140072 -7.9566e-06
-0.000372267 0.000111569 0.000111728 -1.0941e-05
-0.000280143 8.38989e-05 8.41045e-05 -1.32626e-05
-0.000374687 0.000112293 0.000112454 -1.0941e-05
-0.000373477 0.000111931 0.000112091 -1.0941e-05
-0.000465293 0.000139516 0.000139619 -7.9566e-06
-0.00046227 0.000138611 0.000138711 -7.95662e-06
-0.00027742 8.3085e-05 8.32863e-05 -1.32627e-05
-0.000279235 8.36276e-05 8.38318e-05 -1.32627e-05
-0.000463782 0.000139064 0.000139165 -7.95661e-06
-0.000369848 0.000110845 0.000111001 -1.0941e-05
-0.000278327 8.33563e-05 8.3559e-05 -1.32627e-05
-0.000372267 0.000111569 0.000111728 -1.0941e-05
-0.000371058 0.000111207 0.000111365 -1.0941e-05
-0.00046227 0.000138611 0.000138711 -7.95662e-06
-0.000459247 0.000137705 0.000137804 -7.95663e-06
-0.000275604 8.25425e-05 8.27408e-05 -1.32627e-05
-0.00027742 8.3085e-05 8.32863e-05 -1.32627e-05
-0.000460758 0.000138158 0.000138257 -7.95662e-06
-0.000367428 0.000110121 0.000110275 -1.0941e-05
-0.000276512 8.28137e-05 8.30135e-05 -1.32627e-05
-0.000369848 0.000110845 0.000111001 -1.0941e-05
-0.000368638 0.000110483 0.000110638 -1.0941e-05
-0.000459247 0.000137705 0.000137804 -7.95663e-06
-0.000456223 0.000136799 0.000136896 -7.95664e-06
-0.000273789 8.19999e-05 8.21953e-05 -1.32627e-05
-0.000275604 8.25425e-05 8.27408e-05 -1.32627e-05
-0.000457735 0.000137252 0.00013735 -7.95663e-06
-0.000365009 0.000109397 0.000109548 -1.0941e-05
-0.000274697 8.22712e-05 8.24681e-05 -1.32627e-05
-0.000367428 0.000110121 0.000110275 -1.0941e-05
-0.000366219 0.000109759 0.000109912 -1.0941e-05
-0.000456223 0.000136799 0.000136896 -7.95664e-06
-0.0004532 0.000135893 0.000135989 -7.95665e-06
-0.000271974 8.14573e-05 8.16499e-05 -1.32627e-05
-0.000273789 8.19999e-05 8.21953e-05 -1.32627e-05
-0.000454712 0.000136346 0.000136442 -7.95664e-06
-0.00036259 0.000108672 0.000108822 -1.09411e-05
-0.000272881 8.17286e-05 8.19226e-05 -1.32627e-05
-0.000365009 0.000109397 0.000109548 -1.0941e-05
-0.000363799 0.000109034 0.000109185 -1.0941e-05
-0.0004532 0.000135893 0.000135989 -7.95665e-06
-0.000450177 0.000134987 0.000135081 -7.95666e-06
-0.000270158 8.09147e-05 8.11044e-05 -1.32627e-05
-0.000271974 8.14573e-05 8.16499e-05 -1.32627e-05
-0.000451689 0.00013544 0.000135535 -7.95665e-06
-0.00036017 0.000107948 0.000108095 -1.09411e-05
-0.000271066 8.1186e-05 8.13772e-05 -1.32627e-05
-0.00036259 0.000108672 0.000108822 -1.09411e-05
-0.00036138 0.00010831 0.000108459 -1.09411e-05
-0.000450177 0.000134987 0.000135081 -7.95666e-06
-0.000447154 0.000134082 0.000134174 -7.95667e-06
-0.000268343 8.03721e-05 8.0559e-05 -1.32627e-05
-0.000270158 8.09147e-05 8.11044e-05 -1.32627e-05
-0.000448665 0.000134534 0.000134628 -7.95666e-06
-0.000357751 0.000107224 0.000107369 -1.09411e-05
-0.000269251 8.06434e-05 8.08317e-05 -1.32627e-05
-0.00036017 0.000107948 0.000108095 -1.09411e-05
-0.000358961 0.000107586 0.000107732 -1.09411e-05
-0.000447154 0.000134082 0.000134174 -7.95667e-06
-0.000444131 0.000133176 0.000133266 -7.95668e-06
-0.000266528 7.98295e-05 8.00136e-05 -1.32627e-05
-0.000268343 8.03721e-05 8.0559e-05 -1.32627e-05
-0.000445642 0.000133629 0.00013372 -7.95668e-06
-0.000355332 0.0001065 0.000106642 -1.09411e-05
-0.000267435 8.01008e-05 8.02863e-05 -1.32627e-05
-0.000357751 0.000107224 0.000107369 -1.09411e-05
-0.000356542 0.000106862 0.000107006 -1.09411e-05
-0.000444131 0.000133176 0.000133266 -7.95668e-06
-0.000441107 0.00013227 0.000132359 -7.95669e-06
-0.000264713 7.92868e-05 7.94682e-05 -1.32627e-05
-0.000266528 7.98295e-05 8.00136e-05 -1.32627e-05
-0.000442619 0.000132723 0.000132813 -7.95669e-06
-0.000352913 0.000105776 0.000105916 -1.09411e-05
-0.00026562 7.95581e-05 7.97409e-05 -1.32627e-05
-0.000355332 0.0001065 0.000106642 -1.09411e-05
-0.000354122 0.000106138 0.000106279 -1.09411e-05
-0.000441107 0.00013227 0.000132359 -7.95669e-06
-0.000438084 0.000131364 0.000131451 -7.9567e-06
-0.000262897 7.87442e-05 7.89228e-05 -1.32627e-05
-0.000264713 7.92868e-05 7.94682e-05 -1.32627e-05
-0.000439596 0.000131817 0.000131905 -7.9567e-06
-0.000350493 0.000105051 0.000105189 -1.09411e-05
-0.000263805 7.90155e-05 7.91955e-05 -1.32627e-05
-0.000352913 0.000105776 0.000105916 -1.09411e-05
-0.000351703 0.000105414 0.000105553 -1.09411e-05
-0.000438084 0.000131364 0.000131451 -7.9567e-06
-0.000435061 0.000130458 0.000130544 -7.95671e-06
-0.000261082 7.82016e-05 7.83774e-05 -1.32627e-05
-0.000262897 7.87442e-05 7.89228e-05 -1.32627e-05
-0.000436573 0.000130911 0.000130998 -7.95671e-06
-0.000348074 0.000104327 0.000104463 -1.09411e-05
-0.00026199 7.84729e-05 7.86501e-05 -1.32627e-05
-0.000350493 0.000105051 0.000105189 -1.09411e-05
-0.000349284 0.000104689 0.000104826 -1.09411e-05
-0.000435061 0.000130458 0.000130544 -7.95671e-06
-0.000432038 0.000129552 0.000129637 -7.95672e-06
-0.000259267 7.76589e-05 7.7832e-05 -1.32627e-05
-0.000261082 7.82016e-05 7.83774e-05 -1.32627e-05
-0.000433549 0.000130005 0.00013009 -7.95672e-06
-0.000345655 0.000103603 0.000103737 -1.09411e-05
-0.000260174 7.79303e-05 7.81047e-05 -1.32627e-05
-0.000348074 0.000104327 0.000104463 -1.09411e-05
-0.000346865 0.000103965 0.0001041 -1.09411e-05
-0.000432038 0.000129552 0.000129637 -7.95672e-06
-0.000429015 0.000128646 0.000128729 -7.95673e-06
-0.000257452 7.71163e-05 7.72866e-05 -1.32627e-05
-0.000259267 7.76589e-05 7.7832e-05 -1.32627e-05
-0.000430526 0.000129099 0.000129183 -7.95673e-06
-0.000343236 0.000102879 0.00010301 -1.09411e-05
-0.000258359 7.73876e-05 7.75593e-05 -1.32627e-05
-0.000345655 0.000103603 0.000103737 -1.09411e-05
-0.000344445 0.000103241 0.000103373 -1.09411e-05
-0.000429015 0.000128646 0.000128729 -7.95673e-06
-0.000425992 0.000127741 0.000127822 -7.95674e-06
-0.000255637 7.65736e-05 7.67412e-05 -1.32627e-05
-0.000257452 7.71163e-05 7.72866e-05 -1.32627e-05
-0.000427503 0.000128194 0.000128276 -7.95674e-06
-0.000340817 0.000102155 0.000102284 -1.09411e-05
-0.000256544 7.6845e-05 7.70139e-05 -1.32627e-05
-0.000343236 0.000102879 0.00010301 -1.09411e-05
-0.000342026 0.000102517 0.000102647 -1.09411e-05
-0.000425992 0.000127741 0.000127822 -7.95674e-06
-0.000422968 0.000126835 0.000126914 -7.95676e-06
-0.000253821 7.6031e-05 7.61959e-05 -1.32628e-05
-0.000255637 7.65736e-05 7.67412e-05 -1.32627e-05
-0.00042448 0.000127288 0.000127368 -7.95675e-06
-0.000338397 0.00010143 0.000101557 -1.09412e-05
-0.000254729 7.63023e-05 7.64686e-05 -1.32628e-05
-0.000340817 0.000102155 0.000102284 -1.09411e-05
-0.000339607 0.000101792 0.000101921 -1.09412e-05
-0.000422968 0.000126835 0.000126914 -7.95676e-06
-0.000419945 0.000125929 0.000126007 -7.95677e-06
-0.000252006 7.54883e-05 7.56506e-05 -1.32628e-05
-0.000253821 7.6031e-05 7.61959e-05 -1.32628e-05
-0.000421457 0.000126382 0.000126461 -7.95676e-06
-0.000335978 0.000100706 0.000100831 -1.09412e-05
-0.000252914 7.57596e-05 7.59232e-05 -1.32628e-05
-0.000338397 0.00010143 0.000101557 -1.09412e-05
-0.000337188 0.000101068 0.000101194 -1.09412e-05
-0.000419945 0.000125929 0.000126007 -7.95677e-06
-0.000416922 0.000125023 0.0001251 -7.95678e-06
-0.000250191 7.49456e-05 7.51052e-05 -1.32628e-05
-0.000252006 7.54883e-05 7.56506e-05 -1.32628e-05
-0.000418434 0.000125476 0.000125553 -7.95677e-06
-0.000333559 9.99819e-05 0.000100105 -1.09412e-05
-0.000251099 7.52169e-05 7.53779e-05 -1.32628e-05
-0.000335978 0.000100706 0.000100831 -1.09412e-05
-0.000334769 0.000100344 0.000100468 -1.09412e-05
-0.000416922 0.000125023 0.0001251 -7.95678e-06
-0.000413899 0.000124117 0.000124192 -7.95679e-06
-0.000248376 7.44029e-05 7.45599e-05 -1.32628e-05
-0.000250191 7.49456e-05 7.51052e-05 -1.32628e-05
-0.000415411 0.00012457 0.000124646 -7.95678e-06
-0.00033114 9.92577e-05 9.93781e-05 -1.09412e-05
-0.000249284 7.46743e-05 7.48326e-05 -1.32628e-05
-0.000333559 9.99819e-05 0.000100105 -1.09412e-05
-0.00033235 9.96198e-05 9.97413e-05 -1.09412e-05
-0.000413899 0.000124117 0.000124192 -7.95679e-06
-0.000410876 0.000123211 0.000123285 -7.9568e-06
-0.000246561 7.38602e-05 7.40146e-05 -1.32628e-05
-0.000248376 7.44029e-05 7.45599e-05 -1.32628e-05
-0.000412388 0.000123664 0.000123739 -7.95679e-06
-0.000328721 9.85334e-05 9.86518e-05 -1.09412e-05
-0.000247468 7.41316e-05 7.42872e-05 -1.32628e-05
-0.00033114 9.92577e-05 9.93781e-05 -1.09412e-05
-0.00032993 9.88955e-05 9.9015e-05 -1.09412e-05
-0.000410876 0.000123211 0.000123285 -7.9568e-06
-0.000407853 0.000122305 0.000122378 -7.95681e-06
-0.000244746 7.33175e-05 7.34693e-05 -1.32628e-05
-0.000246561 7.38602e-05 7.40146e-05 -1.32628e-05
-0.000409365 0.000122758 0.000122831 -7.9568e-06
-0.000326302 9.78092e-05 9.79254e-05 -1.09412e-05
-0.000245653 7.35889e-05 7.37419e-05 -1.32628e-05
-0.000328721 9.85334e-05 9.86518e-05 -1.09412e-05
-0.000327511 9.81713e-05 9.82886e-05 -1.09412e-05
-0.000407853 0.000122305 0.000122378 -7.95681e-06
-0.00040483 0.0001214 0.00012147 -7.95682e-06
-0.000242931 7.27748e-05 7.2924e-05 -1.32628e-05
-0.000244746 7.33175e-05 7.34693e-05 -1.32628e-05
-0.000406342 0.000121853 0.000121924 -7.95681e-06
-0.000323883 9.70849e-05 9.71991e-05 -1.09412e-05
-0.000243838 7.30462e-05 7.31966e-05 -1.32628e-05
-0.000326302 9.78092e-05 9.79254e-05 -1.09412e-05
-0.000325092 9.7447e-05 9.75622e-05 -1.09412e-05
-0.00040483 0.0001214 0.00012147 -7.95682e-06
-0.000401807 0.000120494 0.000120563 -7.95683e-06
-0.000241116 7.22321e-05 7.23787e-05 -1.32628e-05
-0.000242931 7.27748e-05 7.2924e-05 -1.32628e-05
-0.000403318 0.000120947 0.000121017 -7.95682e-06
-0.000321464 9.63606e-05 9.64727e-05 -1.09412e-05
-0.000242023 7.25034e-05 7.26514e-05 -1.32628e-05
-0.000323883 9.70849e-05 9.71991e-05 -1.09412e-05
-0.000322673 9.67228e-05 9.68359e-05 -1.09412e-05
-0.000401807 0.000120494 0.000120563 -7.95683e-06
-0.000398784 0.000119588 0.000119655 -7.95684e-06
-0.000239301 7.16894e-05 7.18335e-05 -1.32628e-05
-0.000241116 7.22321e-05 7.23787e-05 -1.32628e-05
-0.000400295 0.000120041 0.000120109 -7.95683e-06
-0.000319045 9.56364e-05 9.57464e-05 -1.09412e-05
-0.000240208 7.19607e-05 7.21061e-05 -1.32628e-05
-0.000321464 9.63606e-05 9.64727e-05 -1.09412e-05
-0.000320254 9.59985e-05 9.61096e-05 -1.09412e-05
-0.000398784 0.000119588 0.000119655 -7.95684e-06
-0.000395761 0.000118682 0.000118748 -7.95685e-06
-0.000237486 7.11466e-05 7.12882e-05 -1.32628e-05
-0.000239301 7.16894e-05 7.18335e-05 -1.32628e-05
-0.000397272 0.000119135 0.000119202 -7.95684e-06
-0.000316626 9.49121e-05 9.50201e-05 -1.09412e-05
-0.000238393 7.1418e-05 7.15608e-05 -1.32628e-05
-0.000319045 9.56364e-05 9.57464e-05 -1.09412e-05
-0.000317835 9.52742e-05 9.53832e-05 -1.09412e-05
-0.000395761 0.000118682 0.000118748 -7.95685e-06
-0.000392738 0.000117776 0.000117841 -7.95686e-06
-0.000235671 7.06039e-05 7.0743e-05 -1.32628e-05
-0.000237486 7.11466e-05 7.12882e-05 -1.32628e-05
-0.000394249 0.000118229 0.000118295 -7.95685e-06
-0.000314207 9.41878e-05 9.42938e-05 -1.09413e-05
-0.000236578 7.08753e-05 7.10156e-05 -1.32628e-05
-0.000316626 9.49121e-05 9.50201e-05 -1.09412e-05
-0.000315416 9.455e-05 9.46569e-05 -1.09412e-05
-0.000392738 0.000117776 0.000117841 -7.95686e-06
-0.000389715 0.00011687 0.000116934 -7.95687e-06
-0.000233856 7.00611e-05 7.01977e-05 -1.32628e-05
-0.000235671 7.06039e-05 7.0743e-05 -1.32628e-05
-0.000391227 0.000117323 0.000117387 -7.95686e-06
-0.000311788 9.34635e-05 9.35674e-05 -1.09413e-05
-0.000234763 7.03325e-05 7.04703e-05 -1.32628e-05
-0.000314207 9.41878e-05 9.42938e-05 -1.09413e-05
-0.000312997 9.38257e-05 9.39306e-05 -1.09413e-05
-0.000389715 0.00011687 0.000116934 -7.95687e-06
-0.000386692 0.000115964 0.000116026 -7.95688e-06
-0.000232041 6.95184e-05 6.96525e-05 -1.32628e-05
-0.000233856 7.00611e-05 7.01977e-05 -1.32628e-05
-0.000388204 0.000116417 0.00011648 -7.95687e-06
-0.000309369 9.27392e-05 9.28412e-05 -1.09413e-05
-0.000232948 6.97898e-05 6.99251e-05 -1.32628e-05
-0.000311788 9.34635e-05 9.35674e-05 -1.09413e-05
-0.000310578 9.31014e-05 9.32043e-05 -1.09413e-05
-0.000386692 0.000115964 0.000116026 -7.95688e-06
-0.000383669 0.000115058 0.000115119 -7.95689e-06
-0.000230226 6.89756e-05 6.91073e-05 -1.32628e-05
-0.000232041 6.95184e-05 6.96525e-05 -1.32628e-05
-0.000385181 0.000115511 0.000115573 -7.95688e-06
-0.00030695 9.20149e-05 9.21149e-05 -1.09413e-05
-0.000231133 6.9247e-05 6.93799e-05 -1.32628e-05
-0.000309369 9.27392e-05 9.28412e-05 -1.09413e-05
-0.000308159 9.23771e-05 9.2478e-05 -1.09413e-05
-0.000383669 0.000115058 0.000115119 -7.95689e-06
-0.000380646 0.000114152 0.000114212 -7.9569e-06
-0.000228411 6.84328e-05 6.85621e-05 -1.32628e-05
-0.000230226 6.89756e-05 6.91073e-05 -1.32628e-05
-0.000382158 0.000114605 0.000114665 -7.95689e-06
-0.000304531 9.12906e-05 9.13886e-05 -1.09413e-05
-0.000229318 6.87042e-05 6.88347e-05 -1.32628e-05
-0.00030695 9.20149e-05 9.21149e-05 -1.09413e-05
-0.00030574 9.16528e-05 9.17517e-05 -1.09413e-05
-0.000380646 0.000114152 0.000114212 -7.9569e-06
-0.000377623 0.000113247 0.000113304 -7.95691e-06
-0.000226596 6.78901e-05 6.80169e-05 -1.32629e-05
-0.000228411 6.84328e-05 6.85621e-05 -1.32628e-05
-0.000379135 0.0001137 0.000113758 -7.9569e-06
-0.000302112 9.05663e-05 9.06623e-05 -1.09413e-05
-0.000227504 6.81615e-05 6.82895e-05 -1.32628e-05
-0.000304531 9.12906e-05 9.13886e-05 -1.09413e-05
-0.000303321 9.09285e-05 9.10255e-05 -1.09413e-05
-0.000377623 0.000113247 0.000113304 -7.95691e-06
-0.0003746 0.000112341 0.000112397 -7.95692e-06
-0.000224781 6.73473e-05 6.74717e-05 -1.32629e-05
-0.000226596 6.78901e-05 6.80169e-05 -1.32629e-05
-0.000376112 0.000112794 0.000112851 -7.95691e-06
-0.000299693 8.9842e-05 8.99361e-05 -1.09413e-05
-0.000225689 6.76187e-05 6.77443e-05 -1.32629e-05
-0.000302112 9.05663e-05 9.06623e-05 -1.09413e-05
-0.000300902 9.02042e-05 9.02992e-05 -1.09413e-05
-0.0003746 0.000112341 0.000112397 -7.95692e-06
-0.000371578 0.000111435 0.00011149 -7.95693e-06
-0.000222966 6.68045e-05 6.69265e-05 -1.32629e-05
-0.000224781 6.73473e-05 6.74717e-05 -1.32629e-05
-0.000373089 0.000111888 0.000111943 -7.95692e-06
-0.000297274 8.91177e-05 8.92098e-05 -1.09413e-05
-0.000223874 6.70759e-05 6.71991e-05 -1.32629e-05
-0.000299693 8.9842e-05 8.99361e-05 -1.09413e-05
-0.000298483 8.94799e-05 8.95729e-05 -1.09413e-05
-0.000371578 0.000111435 0.00011149 -7.95693e-06
-0.000368555 0.000110529 0.000110583 -7.95694e-06
-0.000221152 6.62617e-05 6.63814e-05 -1.32629e-05
-0.000222966 6.68045e-05 6.69265e-05 -1.32629e-05
-0.000370066 0.000110982 0.000111036 -7.95693e-06
-0.000294855 8.83934e-05 8.84836e-05 -1.09413e-05
-0.000222059 6.65331e-05 6.6654e-05 -1.32629e-05
-0.000297274 8.91177e-05 8.92098e-05 -1.09413e-05
-0.000296064 8.87555e-05 8.88467e-05 -1.09413e-05
-0.000368555 0.000110529 0.000110583 -7.95694e-06
-0.000365532 0.000109623 0.000109675 -7.95695e-06
-0.000219337 6.57189e-05 6.58362e-05 -1.32629e-05
-0.000221152 6.62617e-05 6.63814e-05 -1.32629e-05
-0.000367043 0.000110076 0.000110129 -7.95694e-06
-0.000292436 8.7669e-05 8.77573e-05 -1.09413e-05
-0.000220244 6.59903e-05 6.61088e-05 -1.32629e-05
-0.000294855 8.83934e-05 8.84836e-05 -1.09413e-05
-0.000293646 8.80312e-05 8.81205e-05 -1.09413e-05
-0.000365532 0.000109623 0.000109675 -7.95695e-06
-0.000362509 0.000108717 0.000108768 -7.95696e-06
-0.000217522 6.5176e-05 6.52911e-05 -1.32629e-05
-0.000219337 6.57189e-05 6.58362e-05 -1.32629e-05
-0.00036402 0.00010917 0.000109222 -7.95695e-06
-0.000290017 8.69447e-05 8.70311e-05 -1.09413e-05
-0.000218429 6.54475e-05 6.55637e-05 -1.32629e-05
-0.000292436 8.7669e-05 8.77573e-05 -1.09413e-05
-0.000291227 8.73069e-05 8.73942e-05 -1.09413e-05
-0.000362509 0.000108717 0.000108768 -7.95696e-06
-0.000359486 0.000107811 0.000107861 -7.95697e-06
-0.000215707 6.46332e-05 6.4746e-05 -1.32629e-05
-0.000217522 6.5176e-05 6.52911e-05 -1.32629e-05
-0.000360998 0.000108264 0.000108314 -7.95696e-06
-0.000287598 8.62203e-05 8.63049e-05 -1.09414e-05
-0.000216615 6.49046e-05 6.50185e-05 -1.32629e-05
-0.000290017 8.69447e-05 8.70311e-05 -1.09413e-05
-0.000288808 8.65825e-05 8.6668e-05 -1.09414e-05
-0.000359486 0.000107811 0.000107861 -7.95697e-06
-0.000356463 0.000106905 0.000106954 -7.95698e-06
-0.000213892 6.40904e-05 6.42008e-05 -1.32629e-05
-0.000215707 6.46332e-05 6.4746e-05 -1.32629e-05
-0.000357975 0.000107358 0.000107407 -7.95697e-06
-0.00028518 8.5496e-05 8.55787e-05 -1.09414e-05
-0.0002148 6.43618e-05 6.44734e-05 -1.32629e-05
-0.000287598 8.62203e-05 8.63049e-05 -1.09414e-05
-0.000286389 8.58582e-05 8.59418e-05 -1.09414e-05
-0.000356463 0.000106905 0.000106954 -7.95698e-06
-0.000353441 0.000105999 0.000106046 -7.95699e-06
-0.000212078 6.35475e-05 6.36557e-05 -1.32629e-05
-0.000213892 6.40904e-05 6.42008e-05 -1.32629e-05
-0.000354952 0.000106452 0.0001065 -7.95698e-06
-0.000282761 8.47716e-05 8.48525e-05 -1.09414e-05
-0.000212985 6.3819e-05 6.39283e-05 -1.32629e-05
-0.00028518 8.5496e-05 8.55787e-05 -1.09414e-05
-0.00028397 8.51338e-05 8.52156e-05 -1.09414e-05
-0.000353441 0.000105999 0.000106046 -7.95699e-06
-0.000350418 0.000105093 0.000105139 -7.957e-06
-0.000210263 6.30047e-05 6.31106e-05 -1.32629e-05
-0.000212078 6.35475e-05 6.36557e-05 -1.32629e-05
-0.000351929 0.000105546 0.000105593 -7.95699e-06
-0.000280342 8.40473e-05 8.41263e-05 -1.09414e-05
-0.00021117 6.32761e-05 6.33832e-05 -1.32629e-05
-0.000282761 8.47716e-05 8.48525e-05 -1.09414e-05
-0.000281551 8.44095e-05 8.44894e-05 -1.09414e-05
-0.000350418 0.000105093 0.000105139 -7.957e-06
-0.000347395 0.000104187 0.000104232 -7.95701e-06
-0.000208448 6.24618e-05 6.25656e-05 -1.32629e-05
-0.000210263 6.30047e-05 6.31106e-05 -1.32629e-05
-0.000348906 0.00010464 0.000104685 -7.957e-06
-0.000277923 8.33229e-05 8.34002e-05 -1.09414e-05
-0.000209355 6.27333e-05 6.28381e-05 -1.32629e-05
-0.000280342 8.40473e-05 8.41263e-05 -1.09414e-05
-0.000279133 8.36851e-05 8.37633e-05 -1.09414e-05
-0.000347395 0.000104187 0.000104232 -7.95701e-06
-0.000344372 0.000103281 0.000103325 -7.95702e-06
-0.000206633 6.1919e-05 6.20205e-05 -1.32629e-05
-0.000208448 6.24618e-05 6.25656e-05 -1.32629e-05
-0.000345884 0.000103734 0.000103778 -7.95701e-06
-0.000275505 8.25985e-05 8.2674e-05 -1.09414e-05
-0.000207541 6.21904e-05 6.2293e-05 -1.32629e-05
-0.000277923 8.33229e-05 8.34002e-05 -1.09414e-05
-0.000276714 8.29607e-05 8.30371e-05 -1.09414e-05
-0.000344372 0.000103281 0.000103325 -7.95702e-06
-0.00034135 0.000102375 0.000102417 -7.95703e-06
-0.000204819 6.13761e-05 6.14754e-05 -1.32629e-05
-0.000206633 6.1919e-05 6.20205e-05 -1.32629e-05
-0.000342861 0.000102828 0.000102871 -7.95702e-06
-0.000273086 8.18741e-05 8.19479e-05 -1.09414e-05
-0.000205726 6.16475e-05 6.1748e-05 -1.32629e-05
-0.000275505 8.25985e-05 8.2674e-05 -1.09414e-05
-0.000274295 8.22363e-05 8.23109e-05 -1.09414e-05
-0.00034135 0.000102375 0.000102417 -7.95703e-06
-0.000338327 0.000101469 0.00010151 -7.95704e-06
-0.000203004 6.08332e-05 6.09304e-05 -1.32629e-05
-0.000204819 6.13761e-05 6.14754e-05 -1.32629e-05
-0.000339838 0.000101922 0.000101964 -7.95703e-06
-0.000270667 8.11498e-05 8.12217e-05 -1.09414e-05
-0.000203911 6.11047e-05 6.12029e-05 -1.32629e-05
-0.000273086 8.18741e-05 8.19479e-05 -1.09414e-05
-0.000271876 8.1512e-05 8.15848e-05 -1.09414e-05
-0.000338327 0.000101469 0.00010151 -7.95704e-06
-0.000335304 0.000100564 0.000100603 -7.95705e-06
-0.000201189 6.02903e-05 6.03853e-05 -1.32629e-05
-0.000203004 6.08332e-05 6.09304e-05 -1.32629e-05
-0.000336815 0.000101017 0.000101057 -7.95704e-06
-0.000268248 8.04254e-05 8.04956e-05 -1.09414e-05
-0.000202097 6.05618e-05 6.06579e-05 -1.32629e-05
-0.000270667 8.11498e-05 8.12217e-05 -1.09414e-05
-0.000269458 8.07876e-05 8.08586e-05 -1.09414e-05
-0.000335304 0.000100564 0.000100603 -7.95705e-06
-0.000332281 9.96576e-05 9.96959e-05 -7.95706e-06
-0.000199375 5.97474e-05 5.98403e-05 -1.32629e-05
-0.000201189 6.02903e-05 6.03853e-05 -1.32629e-05
-0.000333793 0.000100111 0.00010015 -7.95705e-06
-0.00026583 7.9701e-05 7.97695e-05 -1.09414e-05
-0.000200282 6.00189e-05 6.01128e-05 -1.32629e-05
-0.000268248 8.04254e-05 8.04956e-05 -1.09414e-05
-0.000267039 8.00632e-05 8.01325e-05 -1.09414e-05
-0.000332281 9.96576e-05 9.96959e-05 -7.95706e-06
-0.000329259 9.87516e-05 9.87888e-05 -7.95707e-06
-0.00019756 5.92045e-05 5.92953e-05 -1.32629e-05
-0.000199375 5.97474e-05 5.98403e-05 -1.32629e-05
-0.00033077 9.92046e-05 9.92424e-05 -7.95706e-06
-0.000263411 7.89766e-05 7.90433e-05 -1.09414e-05
-0.000198467 5.9476e-05 5.95678e-05 -1.32629e-05
-0.00026583 7.9701e-05 7.97695e-05 -1.09414e-05
-0.00026462 7.93388e-05 7.94064e-05 -1.09414e-05
-0.000329259 9.87516e-05 9.87888e-05 -7.95707e-06
-0.000326236 9.78457e-05 9.78816e-05 -7.95708e-06
-0.000195746 5.86616e-05 5.87503e-05 -1.3263e-05
-0.00019756 5.92045e-05 5.92953e-05 -1.32629e-05
-0.000327747 9.82986e-05 9.83352e-05 -7.95707e-06
-0.000260992 7.82521e-05 7.83172e-05 -1.09415e-05
-0.000196653 5.89331e-05 5.90228e-05 -1.32629e-05
-0.000263411 7.89766e-05 7.90433e-05 -1.09414e-05
-0.000262202 7.86144e-05 7.86803e-05 -1.09415e-05
-0.000326236 9.78457e-05 9.78816e-05 -7.95708e-06
-0.000323213 9.69397e-05 9.69745e-05 -7.95709e-06
-0.000193931 5.81187e-05 5.82053e-05 -1.3263e-05
-0.000195746 5.86616e-05 5.87503e-05 -1.3263e-05
-0.000324725 9.73927e-05 9.7428e-05 -7.95708e-06
-0.000258574 7.75277e-05 7.75911e-05 -1.09415e-05
-0.000194838 5.83901e-05 5.84778e-05 -1.3263e-05
-0.000260992 7.82521e-05 7.83172e-05 -1.09415e-05
-0.000259783 7.78899e-05 7.79542e-05 -1.09415e-05
-0.000323213 9.69397e-05 9.69745e-05 -7.95709e-06
-0.000320191 9.60337e-05 9.60673e-05 -7.9571e-06
-0.000192116 5.75757e-05 5.76603e-05 -1.3263e-05
-0.000193931 5.81187e-05 5.82053e-05 -1.3263e-05
-0.000321702 9.64867e-05 9.65209e-05 -7.95709e-06
-0.000256155 7.68033e-05 7.6865e-05 -1.09415e-05
-0.000193024 5.78472e-05 5.79328e-05 -1.3263e-05
-0.000258574 7.75277e-05 7.75911e-05 -1.09415e-05
-0.000257364 7.71655e-05 7.72281e-05 -1.09415e-05
-0.000320191 9.60337e-05 9.60673e-05 -7.9571e-06
-0.000317168 9.51277e-05 9.51602e-05 -7.95711e-06
-0.000190302 5.70328e-05 5.71153e-05 -1.3263e-05
-0.000192116 5.75757e-05 5.76603e-05 -1.3263e-05
-0.00031868 9.55807e-05 9.56138e-05 -7.9571e-06
-0.000253736 7.60789e-05 7.6139e-05 -1.09415e-05
-0.000191209 5.73043e-05 5.73878e-05 -1.3263e-05
-0.000256155 7.68033e-05 7.6865e-05 -1.09415e-05
-0.000254946 7.64411e-05 7.6502e-05 -1.09415e-05
-0.000317168 9.51277e-05 9.51602e-05 -7.95711e-06
-0.000314146 9.42218e-05 9.42531e-05 -7.95712e-06
-0.000188487 5.64899e-05 5.65704e-05 -1.3263e-05
-0.000190302 5.70328e-05 5.71153e-05 -1.3263e-05
-0.000315657 9.46748e-05 9.47066e-05 -7.95711e-06
-0.000251318 7.53544e-05 7.54129e-05 -1.09415e-05
-0.000189395 5.67613e-05 5.68428e-05 -1.3263e-05
-0.000253736 7.60789e-05 7.6139e-05 -1.09415e-05
-0.000252527 7.57167e-05 7.57759e-05 -1.09415e-05
-0.000314146 9.42218e-05 9.42531e-05 -7.95712e-06
-0.000311123 9.33158e-05 9.3346e-05 -7.95713e-06
-0.000186673 5.59469e-05 5.60254e-05 -1.3263e-05
-0.000188487 5.64899e-05 5.65704e-05 -1.3263e-05
-0.000312634 9.37688e-05 9.37995e-05 -7.95712e-06
-0.000248899 7.463e-05 7.46869e-05 -1.09415e-05
-0.00018758 5.62184e-05 5.62979e-05 -1.3263e-05
-0.000251318 7.53544e-05 7.54129e-05 -1.09415e-05
-0.000250109 7.49922e-05 7.50499e-05 -1.09415e-05
-0.000311123 9.33158e-05 9.3346e-05 -7.95713e-06
-0.0003081 9.24098e-05 9.24389e-05 -7.95714e-06
-0.000184858 5.54039e-05 5.54805e-05 -1.3263e-05
-0.000186673 5.59469e-05 5.60254e-05 -1.3263e-05
-0.000309612 9.28628e-05 9.28924e-05 -7.95713e-06
-0.000246481 7.39055e-05 7.39608e-05 -1.09415e-05
-0.000185766 5.56754e-05 5.57529e-05 -1.3263e-05
-0.000248899 7.463e-05 7.46869e-05 -1.09415e-05
-0.00024769 7.42678e-05 7.43238e-05 -1.09415e-05
-0.0003081 9.24098e-05 9.24389e-05 -7.95714e-06
-0.000305078 9.15038e-05 9.15318e-05 -7.95715e-06
-0.000183044 5.4861e-05 5.49355e-05 -1.3263e-05
-0.000184858 5.54039e-05 5.54805e-05 -1.3263e-05
-0.000306589 9.19568e-05 9.19853e-05 -7.95714e-06
-0.000244062 7.31811e-05 7.32348e-05 -1.09415e-05
-0.000183951 5.51324e-05 5.5208e-05 -1.3263e-05
-0.000246481 7.39055e-05 7.39608e-05 -1.09415e-05
-0.000245271 7.35433e-05 7.35978e-05 -1.09415e-05
-0.000305078 9.15038e-05 9.15318e-05 -7.95715e-06
-0.000302055 9.05978e-05 9.06247e-05 -7.95716e-06
-0.000181229 5.4318e-05 5.43906e-05 -1.3263e-05
-0.000183044 5.4861e-05 5.49355e-05 -1.3263e-05
-0.000303567 9.10508e-05 9.10782e-05 -7.95715e-06
-0.000241644 7.24566e-05 7.25087e-05 -1.09415e-05
-0.000182137 5.45895e-05 5.46631e-05 -1.3263e-05
-0.000244062 7.31811e-05 7.32348e-05 -1.09415e-05
-0.000242853 7.28189e-05 7.28718e-05 -1.09415e-05
-0.000302055 9.05978e-05 9.06247e-05 -7.95716e-06
-0.000299033 8.96918e-05 8.97176e-05 -7.95717e-06
-0.000179415 5.3775e-05 5.38457e-05 -1.3263e-05
-0.000181229 5.4318e-05 5.43906e-05 -1.3263e-05
-0.000300544 9.01448e-05 9.01711e-05 -7.95716e-06
-0.000239225 7.17322e-05 7.17827e-05 -1.09415e-05
-0.000180322 5.40465e-05 5.41182e-05 -1.3263e-05
-0.000241644 7.24566e-05 7.25087e-05 -1.09415e-05
-0.000240434 7.20944e-05 7.21457e-05 -1.09415e-05
-0.000299033 8.96918e-05 8.97176e-05 -7.95717e-06
-0.00029601 8.87858e-05 8.88105e-05 -7.95718e-06
-0.000177601 5.3232e-05 5.33008e-05 -1.3263e-05
-0.000179415 5.3775e-05 5.38457e-05 -1.3263e-05
-0.000297522 8.92388e-05 8.9264e-05 -7.95717e-06
-0.000236807 7.10077e-05 7.10567e-05 -1.09416e-05
-0.000178508 5.35035e-05 5.35733e-05 -1.3263e-05
-0.000239225 7.17322e-05 7.17827e-05 -1.09415e-05
-0.000238016 7.13699e-05 7.14197e-05 -1.09415e-05
-0.00029601 8.87858e-05 8.88105e-05 -7.95718e-06
-0.000292988 8.78798e-05 8.79034e-05 -7.95719e-06
-0.000175786 5.2689e-05 5.27559e-05 -1.3263e-05
-0.000177601 5.3232e-05 5.33008e-05 -1.3263e-05
-0.000294499 8.83328e-05 8.8357e-05 -7.95718e-06
-0.000234388 7.02832e-05 7.03307e-05 -1.09416e-05
-0.000176693 5.29605e-05 5.30284e-05 -1.3263e-05
-0.000236807 7.10077e-05 7.10567e-05 -1.09416e-05
-0.000235597 7.06454e-05 7.06937e-05 -1.09416e-05
-0.000292988 8.78798e-05 8.79034e-05 -7.95719e-06
-0.000289965 8.69738e-05 8.69964e-05 -7.9572e-06
-0.000173972 5.2146e-05 5.22111e-05 -1.3263e-05
-0.000175786 5.2689e-05 5.27559e-05 -1.3263e-05
-0.000291477 8.74268e-05 8.74499e-05 -7.95719e-06
-0.00023197 6.95587e-05 6.96047e-05 -1.09416e-05
-0.000174879 5.24175e-05 5.24835e-05 -1.3263e-05
-0.000234388 7.02832e-05 7.03307e-05 -1.09416e-05
-0.000233179 6.9921e-05 6.99677e-05 -1.09416e-05
-0.000289965 8.69738e-05 8.69964e-05 -7.9572e-06
-0.000286943 8.60678e-05 8.60893e-05 -7.95721e-06
-0.000172157 5.1603e-05 5.16662e-05 -1.3263e-05
-0.000173972 5.2146e-05 5.22111e-05 -1.3263e-05
-0.000288454 8.65208e-05 8.65428e-05 -7.9572e-06
-0.000229551 6.88342e-05 6.88788e-05 -1.09416e-05
-0.000173065 5.18745e-05 5.19386e-05 -1.3263e-05
-0.00023197 6.95587e-05 6.96047e-05 -1.09416e-05
-0.000230761 6.91965e-05 6.92417e-05 -1.09416e-05
-0.000286943 8.60678e-05 8.60893e-05 -7.95721e-06
-0.00028392 8.51617e-05 8.51823e-05 -7.95722e-06
-0.000170343 5.10599e-05 5.11214e-05 -1.3263e-05
-0.000172157 5.1603e-05 5.16662e-05 -1.3263e-05
-0.000285432 8.56148e-05 8.56358e-05 -7.95722e-06
-0.000227133 6.81097e-05 6.81528e-05 -1.09416e-05
-0.00017125 5.13314e-05 5.13938e-05 -1.3263e-05
-0.000229551 6.88342e-05 6.88788e-05 -1.09416e-05
-0.000228342 6.8472e-05 6.85158e-05 -1.09416e-05
-0.00028392 8.51617e-05 8.51823e-05 -7.95722e-06
-0.000280898 8.42557e-05 8.42752e-05 -7.95723e-06
-0.000168529 5.05169e-05 5.05765e-05 -1.3263e-05
-0.000170343 5.10599e-05 5.11214e-05 -1.3263e-05
-0.000282409 8.47087e-05 8.47288e-05 -7.95723e-06
-0.000224714 6.73852e-05 6.74268e-05 -1.09416e-05
-0.000169436 5.07884e-05 5.08489e-05 -1.3263e-05
-0.000227133 6.81097e-05 6.81528e-05 -1.09416e-05
-0.000225924 6.77475e-05 6.77898e-05 -1.09416e-05
-0.000280898 8.42557e-05 8.42752e-05 -7.95723e-06
-0.000277876 8.33497e-05 8.33682e-05 -7.95724e-06
-0.000166714 4.99738e-05 5.00317e-05 -1.32631e-05
-0.000168529 5.05169e-05 5.05765e-05 -1.3263e-05
-0.000279387 8.38027e-05 8.38217e-05 -7.95724e-06
-0.000222296 6.66607e-05 6.67009e-05 -1.09416e-05
-0.000167622 5.02454e-05 5.03041e-05 -1.3263e-05
-0.000224714 6.73852e-05 6.74268e-05 -1.09416e-05
-0.000223505 6.70229e-05 6.70638e-05 -1.09416e-05
-0.000277876 8.33497e-05 8.33682e-05 -7.95724e-06
-0.000274853 8.24437e-05 8.24612e-05 -7.95725e-06
-0.0001649 4.94308e-05 4.94869e-05 -1.32631e-05
-0.000166714 4.99738e-05 5.00317e-05 -1.32631e-05
-0.000276364 8.28967e-05 8.29147e-05 -7.95725e-06
-0.000219878 6.59362e-05 6.59749e-05 -1.09416e-05
-0.000165807 4.97023e-05 4.97593e-05 -1.32631e-05
-0.000222296 6.66607e-05 6.67009e-05 -1.09416e-05
-0.000221087 6.62984e-05 6.63379e-05 -1.09416e-05
-0.000274853 8.24437e-05 8.24612e-05 -7.95725e-06
-0.000271831 8.15376e-05 8.15542e-05 -7.95726e-06
-0.000163086 4.88877e-05 4.89421e-05 -1.32631e-05
-0.0001649 4.94308e-05 4.94869e-05 -1.32631e-05
-0.000273342 8.19906e-05 8.20077e-05 -7.95726e-06
-0.000217459 6.52116e-05 6.5249e-05 -1.09416e-05
-0.000163993 4.91592e-05 4.92145e-05 -1.32631e-05
-0.000219878 6.59362e-05 6.59749e-05 -1.09416e-05
-0.000218669 6.55739e-05 6.5612e-05 -1.09416e-05
-0.000271831 8.15376e-05 8.15542e-05 -7.95726e-06
-0.000268808 8.06316e-05 8.06472e-05 -7.95727e-06
-0.000161272 4.83446e-05 4.83973e-05 -1.32631e-05
-0.000163086 4.88877e-05 4.89421e-05 -1.32631e-05
-0.00027032 8.10846e-05 8.11007e-05 -7.95727e-06
-0.000215041 6.44871e-05 6.45231e-05 -1.09416e-05
-0.000162179 4.86162e-05 4.86697e-05 -1.32631e-05
-0.000217459 6.52116e-05 6.5249e-05 -1.09416e-05
-0.00021625 6.48494e-05 6.4886e-05 -1.09416e-05
-0.000268808 8.06316e-05 8.06472e-05 -7.95727e-06
-0.000265786 7.97255e-05 7.97402e-05 -7.95728e-06
-0.000159457 4.78016e-05 4.78525e-05 -1.32631e-05
-0.000161272 4.83446e-05 4.83973e-05 -1.32631e-05
-0.000267297 8.01786e-05 8.01937e-05 -7.95728e-06
-0.000212623 6.37626e-05 6.37972e-05 -1.09417e-05
-0.000160364 4.80731e-05 4.81249e-05 -1.32631e-05
-0.000215041 6.44871e-05 6.45231e-05 -1.09416e-05
-0.000213832 6.41248e-05 6.41601e-05 -1.09416e-05
-0.000265786 7.97255e-05 7.97402e-05 -7.95728e-06
-0.000262764 7.88195e-05 7.88332e-05 -7.95729e-06
-0.000157643 4.72585e-05 4.73077e-05 -1.32631e-05
-0.000159457 4.78016e-05 4.78525e-05 -1.32631e-05
-0.000264275 7.92725e-05 7.92867e-05 -7.95729e-06
-0.000210204 6.3038e-05 6.30713e-05 -1.09417e-05
-0.00015855 4.753e-05 4.75801e-05 -1.32631e-05
-0.000212623 6.37626e-05 6.37972e-05 -1.09417e-05
-0.000211413 6.34003e-05 6.34342e-05 -1.09417e-05
-0.000262764 7.88195e-05 7.88332e-05 -7.95729e-06
-0.000259741 7.79134e-05 7.79262e-05 -7.9573e-06
-0.000155829 4.67154e-05 4.6763e-05 -1.32631e-05
-0.000157643 4.72585e-05 4.73077e-05 -1.32631e-05
-0.000261252 7.83665e-05 7.83797e-05 -7.9573e-06
-0.000207786 6.23135e-05 6.23454e-05 -1.09417e-05
-0.000156736 4.69869e-05 4.70353e-05 -1.32631e-05
-0.000210204 6.3038e-05 6.30713e-05 -1.09417e-05
-0.000208995 6.26757e-05 6.27083e-05 -1.09417e-05
-0.000259741 7.79134e-05 7.79262e-05 -7.9573e-06
-0.000256719 7.70074e-05 7.70192e-05 -7.95731e-06
-0.000154015 4.61723e-05 4.62182e-05 -1.32631e-05
-0.000155829 4.67154e-05 4.6763e-05 -1.32631e-05
-0.00025823 7.74604e-05 7.74727e-05 -7.95731e-06
-0.000205368 6.15889e-05 6.16195e-05 -1.09417e-05
-0.000154922 4.64438e-05 4.64906e-05 -1.32631e-05
-0.000207786 6.23135e-05 6.23454e-05 -1.09417e-05
-0.000206577 6.19512e-05 6.19825e-05 -1.09417e-05
-0.000256719 7.70074e-05 7.70192e-05 -7.95731e-06
-0.000253697 7.61013e-05 7.61123e-05 -7.95732e-06
-0.000152201 4.56292e-05 4.56735e-05 -1.32631e-05
-0.000154015 4.61723e-05 4.62182e-05 -1.32631e-05
-0.000255208 7.65544e-05 7.65657e-05 -7.95732e-06
-0.00020295 6.08643e-05 6.08936e-05 -1.09417e-05
-0.000153108 4.59007e-05 4.59458e-05 -1.32631e-05
-0.000205368 6.15889e-05 6.16195e-05 -1.09417e-05
-0.000204159 6.12266e-05 6.12566e-05 -1.09417e-05
-0.000253697 7.61013e-05 7.61123e-05 -7.95732e-06
-0.000250674 7.51953e-05 7.52053e-05 -7.95733e-06
-0.000150386 4.5086e-05 4.51287e-05 -1.32631e-05
-0.000152201 4.56292e-05 4.56735e-05 -1.32631e-05
-0.000252185 7.56483e-05 7.56588e-05 -7.95733e-06
-0.000200531 6.01398e-05 6.01678e-05 -1.09417e-05
-0.000151293 4.53576e-05 4.54011e-05 -1.32631e-05
-0.00020295 6.08643e-05 6.08936e-05 -1.09417e-05
-0.00020174 6.05021e-05 6.05307e-05 -1.09417e-05
-0.000250674 7.51953e-05 7.52053e-05 -7.95733e-06
-0.000247652 7.42892e-05 7.42984e-05 -7.95735e-06
-0.000148572 4.45429e-05 4.4584e-05 -1.32631e-05
-0.000150386 4.5086e-05 4.51287e-05 -1.32631e-05
-0.000249163 7.47422e-05 7.47518e-05 -7.95734e-06
-0.000198113 5.94152e-05 5.94419e-05 -1.09417e-05
-0.000149479 4.48145e-05 4.48564e-05 -1.32631e-05
-0.000200531 6.01398e-05 6.01678e-05 -1.09417e-05
-0.000199322 5.97775e-05 5.98049e-05 -1.09417e-05
-0.000247652 7.42892e-05 7.42984e-05 -7.95735e-06
-0.00024463 7.33831e-05 7.33914e-05 -7.95736e-06
-0.000146758 4.39998e-05 4.40393e-05 -1.32631e-05
-0.000148572 4.45429e-05 4.4584e-05 -1.32631e-05
-0.000246141 7.38362e-05 7.38449e-05 -7.95735e-06
-0.000195695 5.86906e-05 5.87161e-05 -1.09417e-05
-0.000147665 4.42713e-05 4.43117e-05 -1.32631e-05
-0.000198113 5.94152e-05 5.94419e-05 -1.09417e-05
-0.000196904 5.90529e-05 5.9079e-05 -1.09417e-05
-0.00024463 7.33831e-05 7.33914e-05 -7.95736e-06
-0.000241608 7.2477e-05 7.24845e-05 -7.95737e-06
-0.000144944 4.34566e-05 4.34946e-05 -1.32631e-05
-0.000146758 4.39998e-05 4.40393e-05 -1.32631e-05
-0.000243119 7.29301e-05 7.2938e-05 -7.95736e-06
-0.000193277 5.7966e-05 5.79903e-05 -1.09417e-05
-0.000145851 4.37282e-05 4.3767e-05 -1.32631e-05
-0.000195695 5.86906e-05 5.87161e-05 -1.09417e-05
-0.000194486 5.83283e-05 5.83532e-05 -1.09417e-05
-0.000241608 7.2477e-05 7.24845e-05 -7.95737e-06
-0.000238585 7.1571e-05 7.15776e-05 -7.95738e-06
-0.00014313 4.29134e-05 4.295e-05 -1.32631e-05
-0.000144944 4.34566e-05 4.34946e-05 -1.32631e-05
-0.000240096 7.2024e-05 7.2031e-05 -7.95737e-06
-0.000190858 5.72414e-05 5.72644e-05 -1.09417e-05
-0.000144037 4.3185e-05 4.32223e-05 -1.32631e-05
-0.000193277 5.7966e-05 5.79903e-05 -1.09417e-05
-0.000192068 5.76037e-05 5.76274e-05 -1.09417e-05
-0.000238585 7.1571e-05 7.15776e-05 -7.95738e-06
-0.000235563 7.06649e-05 7.06707e-05 -7.95739e-06
-0.000141316 4.23703e-05 4.24053e-05 -1.32631e-05
-0.00014313 4.29134e-05 4.295e-05 -1.32631e-05
-0.000237074 7.11179e-05 7.11241e-05 -7.95738e-06
-0.00018844 5.65168e-05 5.65386e-05 -1.09418e-05
-0.000142223 4.26419e-05 4.26776e-05 -1.32631e-05
-0.000190858 5.72414e-05 5.72644e-05 -1.09417e-05
-0.000189649 5.68791e-05 5.69015e-05 -1.09417e-05
-0.000235563 7.06649e-05 7.06707e-05 -7.95739e-06
-0.000232541 6.97588e-05 6.97637e-05 -7.9574e-06
-0.000139502 4.18271e-05 4.18606e-05 -1.32632e-05
-0.000141316 4.23703e-05 4.24053e-05 -1.32631e-05
-0.000234052 7.02118e-05 7.02172e-05 -7.95739e-06
-0.000186022 5.57922e-05 5.58128e-05 -1.09418e-05
-0.000140409 4.20987e-05 4.2133e-05 -1.32632e-05
-0.00018844 5.65168e-05 5.65386e-05 -1.09418e-05
-0.000187231 5.61545e-05 5.61757e-05 -1.09418e-05
-0.000232541 6.97588e-05 6.97637e-05 -7.9574e-06
-0.000229519 6.88527e-05 6.88568e-05 -7.95741e-06
-0.000137688 4.12839e-05 4.1316e-05 -1.32632e-05
-0.000139502 4.18271e-05 4.18606e-05 -1.32632e-05
-0.00023103 6.93057e-05 6.93103e-05 -7.9574e-06
-0.000183604 5.50676e-05 5.5087e-05 -1.09418e-05
-0.000138595 4.15555e-05 4.15883e-05 -1.32632e-05
-0.000186022 5.57922e-05 5.58128e-05 -1.09418e-05
-0.000184813 5.54299e-05 5.54499e-05 -1.09418e-05
-0.000229519 6.88527e-05 6.88568e-05 -7.95741e-06
-0.000226496 6.79466e-05 6.795e-05 -7.95742e-06
-0.000135874 4.07407e-05 4.07713e-05 -1.32632e-05
-0.000137688 4.12839e-05 4.1316e-05 -1.32632e-05
-0.000228008 6.83996e-05 6.84034e-05 -7.95741e-06
-0.000181186 5.43429e-05 5.43613e-05 -1.09418e-05
-0.000136781 4.10123e-05 4.10437e-05 -1.32632e-05
-0.000183604 5.50676e-05 5.5087e-05 -1.09418e-05
-0.000182395 5.47053e-05 5.47242e-05 -1.09418e-05
-0.000226496 6.79466e-05 6.795e-05 -7.95742e-06
-0.000223474 6.70405e-05 6.70431e-05 -7.95743e-06
-0.00013406 4.01975e-05 4.02267e-05 -1.32632e-05
-0.000135874 4.07407e-05 4.07713e-05 -1.32632e-05
-0.000224985 6.74935e-05 6.74965e-05 -7.95743e-06
-0.000178768 5.36183e-05 5.36355e-05 -1.09418e-05
-0.000134967 4.04691e-05 4.0499e-05 -1.32632e-05
-0.000181186 5.43429e-05 5.43613e-05 -1.09418e-05
-0.000179977 5.39806e-05 5.39984e-05 -1.09418e-05
-0.000223474 6.70405e-05 6.70431e-05 -7.95743e-06
-0.000220452 6.61344e-05 6.61362e-05 -7.95744e-06
-0.000132246 3.96543e-05 3.96821e-05 -1.32632e-05
-0.00013406 4.01975e-05 4.02267e-05 -1.32632e-05
-0.000221963 6.65874e-05 6.65896e-05 -7.95744e-06
-0.00017635 5.28937e-05 5.29097e-05 -1.09418e-05
-0.000133153 3.99259e-05 3.99544e-05 -1.32632e-05
-0.000178768 5.36183e-05 5.36355e-05 -1.09418e-05
-0.000177559 5.3256e-05 5.32726e-05 -1.09418e-05
-0.000220452 6.61344e-05 6.61362e-05 -7.95744e-06
-0.00021743 6.52283e-05 6.52293e-05 -7.95745e-06
-0.000130432 3.91111e-05 3.91375e-05 -1.32632e-05
-0.000132246 3.96543e-05 3.96821e-05 -1.32632e-05
-0.000218941 6.56813e-05 6.56828e-05 -7.95745e-06
-0.000173932 5.2169e-05 5.2184e-05 -1.09418e-05
-0.000131339 3.93827e-05 3.94098e-05 -1.32632e-05
-0.00017635 5.28937e-05 5.29097e-05 -1.09418e-05
-0.000175141 5.25313e-05 5.25469e-05 -1.09418e-05
-0.00021743 6.52283e-05 6.52293e-05 -7.95745e-06
-0.000214408 6.43221e-05 6.43225e-05 -7.95746e-06
-0.000128618 3.85679e-05 3.85929e-05 -1.32632e-05
-0.000130432 3.91111e-05 3.91375e-05 -1.32632e-05
-0.000215919 6.47752e-05 6.47759e-05 -7.95746e-06
-0.000171514 5.14444e-05 5.14583e-05 -1.09418e-05
-0.000129525 3.88395e-05 3.88652e-05 -1.32632e-05
-0.000173932 5.2169e-05 5.2184e-05 -1.09418e-05
-0.000172723 5.18067e-05 5.18211e-05 -1.09418e-05
-0.000214408 6.43221e-05 6.43225e-05 -7.95746e-06
-0.000211386 6.3416e-05 6.34156e-05 -7.95748e-06
-0.000126804 3.80246e-05 3.80483e-05 -1.32632e-05
-0.000128618 3.85679e-05 3.85929e-05 -1.32632e-05
-0.000212897 6.38691e-05 6.3869e-05 -7.95747e-06
-0.000169096 5.07197e-05 5.07325e-05 -1.09418e-05
-0.000127711 3.82963e-05 3.83206e-05 -1.32632e-05
-0.000171514 5.14444e-05 5.14583e-05 -1.09418e-05
-0.000170305 5.1082e-05 5.10954e-05 -1.09418e-05
-0.000211386 6.3416e-05 6.34156e-05 -7.95748e-06
-0.000208364 6.25099e-05 6.25088e-05 -7.95749e-06
-0.00012499 3.74814e-05 3.75038e-05 -1.32632e-05
-0.000126804 3.80246e-05 3.80483e-05 -1.32632e-05
-0.000209875 6.2963e-05 6.29622e-05 -7.95748e-06
-0.000166678 4.9995e-05 5.00068e-05 -1.09418e-05
-0.000125897 3.7753e-05 3.77761e-05 -1.32632e-05
-0.000169096 5.07197e-05 5.07325e-05 -1.09418e-05
-0.000167887 5.03574e-05 5.03697e-05 -1.09418e-05
-0.000208364 6.25099e-05 6.25088e-05 -7.95749e-06
-0.000205342 6.16038e-05 6.16019e-05 -7.9575e-06
-0.000123176 3.69381e-05 3.69592e-05 -1.32632e-05
-0.00012499 3.74814e-05 3.75038e-05 -1.32632e-05
-0.000206853 6.20568e-05 6.20554e-05 -7.95749e-06
-0.00016426 4.92704e-05 4.92811e-05 -1.09419e-05
-0.000124083 3.72098e-05 3.72315e-05 -1.32632e-05
-0.000166678 4.9995e-05 5.00068e-05 -1.09418e-05
-0.000165469 4.96327e-05 4.96439e-05 -1.09419e-05
-0.000205342 6.16038e-05 6.16019e-05 -7.9575e-06
-0.00020232 6.06976e-05 6.06951e-05 -7.95751e-06
-0.000121362 3.63949e-05 3.64147e-05 -1.32632e-05
-0.000123176 3.69381e-05 3.69592e-05 -1.32632e-05
-0.000203831 6.11507e-05 6.11485e-05 -7.9575e-06
-0.000161842 4.85457e-05 4.85554e-05 -1.09419e-05
-0.000122269 3.66665e-05 3.66869e-05 -1.32632e-05
-0.00016426 4.92704e-05 4.92811e-05 -1.09419e-05
-0.000163051 4.8908e-05 4.89182e-05 -1.09419e-05
-0.00020232 6.06976e-05 6.06951e-05 -7.95751e-06
-0.000199298 5.97915e-05 5.97883e-05 -7.95752e-06
-0.000119549 3.58516e-05 3.58701e-05 -1.32632e-05
-0.000121362 3.63949e-05 3.64147e-05 -1.32632e-05
-0.000200809 6.02446e-05 6.02417e-05 -7.95751e-06
-0.000159424 4.7821e-05 4.78297e-05 -1.09419e-05
-0.000120456 3.61232e-05 3.61424e-05 -1.32632e-05
-0.000161842 4.85457e-05 4.85554e-05 -1.09419e-05
-0.000160633 4.81833e-05 4.81925e-05 -1.09419e-05
-0.000199298 5.97915e-05 5.97883e-05 -7.95752e-06
-0.000196276 5.88854e-05 5.88815e-05 -7.95753e-06
-0.000117735 3.53083e-05 3.53256e-05 -1.32632e-05
-0.000119549 3.58516e-05 3.58701e-05 -1.32632e-05
-0.000197787 5.93384e-05 5.93349e-05 -7.95753e-06
-0.000157006 4.70963e-05 4.7104e-05 -1.09419e-05
-0.000118642 3.558e-05 3.55979e-05 -1.32632e-05
-0.000159424 4.7821e-05 4.78297e-05 -1.09419e-05
-0.000158215 4.74586e-05 4.74669e-05 -1.09419e-05
-0.000196276 5.88854e-05 5.88815e-05 -7.95753e-06
-0.000193253 5.79792e-05 5.79747e-05 -7.95754e-06
-0.000115921 3.4765e-05 3.47811e-05 -1.32633e-05
-0.000117735 3.53083e-05 3.53256e-05 -1.32632e-05
-0.000194765 5.84323e-05 5.84281e-05 -7.95754e-06
-0.000154588 4.63716e-05 4.63784e-05 -1.09419e-05
-0.000116828 3.50367e-05 3.50534e-05 -1.32633e-05
-0.000157006 4.70963e-05 4.7104e-05 -1.09419e-05
-0.000155797 4.67339e-05 4.67412e-05 -1.09419e-05
-0.000193253 5.79792e-05 5.79747e-05 -7.95754e-06
-0.000190231 5.7073e-05 5.70679e-05 -7.95755e-06
-0.000114107 3.42217e-05 3.42366e-05 -1.32633e-05
-0.000115921 3.4765e-05 3.47811e-05 -1.32633e-05
-0.000191742 5.75261e-05 5.75213e-05 -7.95755e-06
-0.00015217 4.56469e-05 4.56527e-05 -1.09419e-05
-0.000115014 3.44934e-05 3.45089e-05 -1.32633e-05
-0.000154588 4.63716e-05 4.63784e-05 -1.09419e-05
-0.000153379 4.60092e-05 4.60155e-05 -1.09419e-05
-0.000190231 5.7073e-05 5.70679e-05 -7.95755e-06
-0.00018721 5.61669e-05 5.61611e-05 -7.95757e-06
-0.000112293 3.36784e-05 3.36921e-05 -1.32633e-05
-0.000114107 3.42217e-05 3.42366e-05 -1.32633e-05
-0.00018872 5.662e-05 5.66145e-05 -7.95756e-06
-0.000149752 4.49222e-05 4.4927e-05 -1.09419e-05
-0.0001132 3.39501e-05 3.39644e-05 -1.32633e-05
-0.00015217 4.56469e-05 4.56527e-05 -1.09419e-05
-0.000150961 4.52845e-05 4.52899e-05 -1.09419e-05
-0.00018721 5.61669e-05 5.61611e-05 -7.95757e-06
-0.000184188 5.52607e-05 5.52543e-05 -7.95758e-06
-0.00011048 3.31351e-05 3.31477e-05 -1.32633e-05
-0.000112293 3.36784e-05 3.36921e-05 -1.32633e-05
-0.000185699 5.57138e-05 5.57077e-05 -7.95757e-06
-0.000147334 4.41974e-05 4.42014e-05 -1.09419e-05
-0.000111387 3.34068e-05 3.34199e-05 -1.32633e-05
-0.000149752 4.49222e-05 4.4927e-05 -1.09419e-05
-0.000148543 4.45598e-05 4.45642e-05 -1.09419e-05
-0.000184188 5.52607e-05 5.52543e-05 -7.95758e-06
-0.000181166 5.43546e-05 5.43476e-05 -7.95759e-06
-0.000108666 3.25918e-05 3.26032e-05 -1.32633e-05
-0.00011048 3.31351e-05 3.31477e-05 -1.32633e-05
-0.000182677 5.48076e-05 5.4801e-05 -7.95758e-06
-0.000144916 4.34727e-05 4.34758e-05 -1.0942e-05
-0.000109573 3.28634e-05 3.28754e-05 -1.32633e-05
-0.000147334 4.41974e-05 4.42014e-05 -1.09419e-05
-0.000146125 4.38351e-05 4.38386e-05 -1.09419e-05
-0.000181166 5.43546e-05 5.43476e-05 -7.95759e-06
-0.000178144 5.34484e-05 5.34408e-05 -7.9576e-06
-0.000106852 3.20484e-05 3.20587e-05 -1.32633e-05
-0.000108666 3.25918e-05 3.26032e-05 -1.32633e-05
-0.000179655 5.39015e-05 5.38942e-05 -7.9576e-06
-0.000142498 4.2748e-05 4.27502e-05 -1.0942e-05
-0.000107759 3.23201e-05 3.2331e-05 -1.32633e-05
-0.000144916 4.34727e-05 4.34758e-05 -1.0942e-05
-0.000143707 4.31103e-05 4.3113e-05 -1.0942e-05
-0.000178144 5.34484e-05 5.34408e-05 -7.9576e-06
-0.000175122 5.25422e-05 5.25341e-05 -7.95761e-06
-0.000105038 3.15051e-05 3.15143e-05 -1.32633e-05
-0.000106852 3.20484e-05 3.20587e-05 -1.32633e-05
-0.000176633 5.29953e-05 5.29874e-05 -7.95761e-06
-0.000140081 4.20232e-05 4.20246e-05 -1.0942e-05
-0.000105945 3.17768e-05 3.17865e-05 -1.32633e-05
-0.000142498 4.2748e-05 4.27502e-05 -1.0942e-05
-0.000141289 4.23856e-05 4.23874e-05 -1.0942e-05
-0.000175122 5.25422e-05 5.25341e-05 -7.95761e-06
-0.0001721 5.1636e-05 5.16273e-05 -7.95763e-06
-0.000103225 3.09618e-05 3.09699e-05 -1.32633e-05
-0.000105038 3.15051e-05 3.15143e-05 -1.32633e-05
-0.000173611 5.20891e-05 5.20807e-05 -7.95762e-06
-0.000137663 4.12985e-05 4.1299e-05 -1.0942e-05
-0.000104132 3.12334e-05 3.12421e-05 -1.32633e-05
-0.000140081 4.20232e-05 4.20246e-05 -1.0942e-05
-0.000138872 4.16609e-05 4.16618e-05 -1.0942e-05
-0.0001721 5.1636e-05 5.16273e-05 -7.95763e-06
-0.000169078 5.07298e-05 5.07206e-05 -7.95764e-06
-0.000101411 3.04184e-05 3.04255e-05 -1.32633e-05
-0.000103225 3.09618e-05 3.09699e-05 -1.32633e-05
-0.000170589 5.11829e-05 5.1174e-05 -7.95763e-06
-0.000135245 4.05737e-05 4.05734e-05 -1.0942e-05
-0.000102318 3.06901e-05 3.06977e-05 -1.32633e-05
-0.000137663 4.12985e-05 4.1299e-05 -1.0942e-05
-0.000136454 4.09361e-05 4.09362e-05 -1.0942e-05
-0.000169078 5.07298e-05 5.07206e-05 -7.95764e-06
-0.000166056 4.98237e-05 4.98139e-05 -7.95765e-06
-9.95975e-05 2.9875e-05 2.9881e-05 -1.32633e-05
-0.000101411 3.04184e-05 3.04255e-05 -1.32633e-05
-0.000167567 5.02768e-05 5.02672e-05 -7.95764e-06
-0.000132827 3.9849e-05 3.98478e-05 -1.0942e-05
-0.000100504 3.01467e-05 3.01533e-05 -1.32633e-05
-0.000135245 4.05737e-05 4.05734e-05 -1.0942e-05
-0.000134036 4.02113e-05 4.02106e-05 -1.0942e-05
-0.000166056 4.98237e-05 4.98139e-05 -7.95765e-06
-0.000163034 4.89175e-05 4.89071e-05 -7.95766e-06
-9.77838e-05 2.93316e-05 2.93367e-05 -1.32633e-05
-9.95975e-05 2.9875e-05 2.9881e-05 -1.32633e-05
-0.000164545 4.93706e-05 4.93605e-05 -7.95765e-06
-0.000130409 3.91242e-05 3.91222e-05 -1.0942e-05
-9.86907e-05 2.96033e-05 2.96089e-05 -1.32633e-05
-0.000132827 3.9849e-05 3.98478e-05 -1.0942e-05
-0.000131618 3.94866e-05 3.9485e-05 -1.0942e-05
-0.000163034 4.89175e-05 4.89071e-05 -7.95766e-06
-0.000160012 4.80113e-05 4.80004e-05 -7.95767e-06
-9.59702e-05 2.87883e-05 2.87923e-05 -1.32634e-05
-9.77838e-05 2.93316e-05 2.93367e-05 -1.32633e-05
-0.000161523 4.84644e-05 4.84538e-05 -7.95767e-06
-0.000127992 3.83994e-05 3.83967e-05 -1.0942e-05
-9.6877e-05 2.906e-05 2.90645e-05 -1.32633e-05
-0.000130409 3.91242e-05 3.91222e-05 -1.0942e-05
-0.0001292 3.87618e-05 3.87594e-05 -1.0942e-05
-0.000160012 4.80113e-05 4.80004e-05 -7.95767e-06
-0.00015699 4.71051e-05 4.70937e-05 -7.95769e-06
-9.41566e-05 2.82449e-05 2.82479e-05 -1.32634e-05
-9.59702e-05 2.87883e-05 2.87923e-05 -1.32634e-05
-0.000158501 4.75582e-05 4.75471e-05 -7.95768e-06
-0.000125574 3.76746e-05 3.76711e-05 -1.0942e-05
-9.50634e-05 2.85166e-05 2.85201e-05 -1.32634e-05
-0.000127992 3.83994e-05 3.83967e-05 -1.0942e-05
-0.000126783 3.8037e-05 3.80339e-05 -1.0942e-05
-0.00015699 4.71051e-05 4.70937e-05 -7.95769e-06
-0.000153969 4.61988e-05 4.6187e-05 -7.9577e-06
-9.23431e-05 2.77015e-05 2.77035e-05 -1.32634e-05
-9.41566e-05 2.82449e-05 2.82479e-05 -1.32634e-05
-0.00015548 4.6652e-05 4.66404e-05 -7.95769e-06
-0.000123156 3.69498e-05 3.69456e-05 -1.09421e-05
-9.32498e-05 2.79732e-05 2.79757e-05 -1.32634e-05
-0.000125574 3.76746e-05 3.76711e-05 -1.0942e-05
-0.000124365 3.73122e-05 3.73083e-05 -1.09421e-05
-0.000153969 4.61988e-05 4.6187e-05 -7.9577e-06
-0.000150947 4.52926e-05 4.52804e-05 -7.95771e-06
-9.05295e-05 2.7158e-05 2.71592e-05 -1.32634e-05
-9.23431e-05 2.77015e-05 2.77035e-05 -1.32634e-05
-0.000152458 4.57457e-05 4.57337e-05 -7.9577e-06
-0.000120738 3.6225e-05 3.62201e-05 -1.09421e-05
-9.14363e-05 2.74298e-05 2.74314e-05 -1.32634e-05
-0.000123156 3.69498e-05 3.69456e-05 -1.09421e-05
-0.000121947 3.65874e-05 3.65828e-05 -1.09421e-05
-0.000150947 4.52926e-05 4.52804e-05 -7.95771e-06
-0.000147925 4.43864e-05 4.43737e-05 -7.95772e-06
-8.8716e-05 2.66146e-05 2.66149e-05 -1.32634e-05
-9.05295e-05 2.7158e-05 2.71592e-05 -1.32634e-05
-0.000149436 4.48395e-05 4.4827e-05 -7.95772e-06
-0.000118321 3.55002e-05 3.54945e-05 -1.09421e-05
-8.96227e-05 2.68863e-05 2.6887e-05 -1.32634e-05
-0.000120738 3.6225e-05 3.62201e-05 -1.09421e-05
-0.00011953 3.58626e-05 3.58573e-05 -1.09421e-05
-0.000147925 4.43864e-05 4.43737e-05 -7.95772e-06
-0.000144903 4.34802e-05 4.3467e-05 -7.95773e-06
-8.69024e-05 2.60712e-05 2.60705e-05 -1.32634e-05
-8.8716e-05 2.66146e-05 2.66149e-05 -1.32634e-05
-0.000146414 4.39333e-05 4.39203e-05 -7.95773e-06
-0.000115903 3.47754e-05 3.4769e-05 -1.09421e-05
-8.78092e-05 2.63429e-05 2.63427e-05 -1.32634e-05
-0.000118321 3.55002e-05 3.54945e-05 -1.09421e-05
-0.000117112 3.51378e-05 3.51318e-05 -1.09421e-05
-0.000144903 4.34802e-05 4.3467e-05 -7.95773e-06
-0.000141881 4.2574e-05 4.25603e-05 -7.95775e-06
-8.50889e-05 2.55277e-05 2.55262e-05 -1.32634e-05
-8.69024e-05 2.60712e-05 2.60705e-05 -1.32634e-05
-0.000143392 4.30271e-05 4.30137e-05 -7.95774e-06
-0.000113485 3.40506e-05 3.40435e-05 -1.09421e-05
-8.59957e-05 2.57995e-05 2.57984e-05 -1.32634e-05
-0.000115903 3.47754e-05 3.4769e-05 -1.09421e-05
-0.000114694 3.4413e-05 3.44063e-05 -1.09421e-05
-0.000141881 4.2574e-05 4.25603e-05 -7.95775e-06
-0.00013886 4.16677e-05 4.16537e-05 -7.95776e-06
-8.32754e-05 2.49843e-05 2.49819e-05 -1.32634e-05
-8.50889e-05 2.55277e-05 2.55262e-05 -1.32634e-05
-0.000140371 4.21208e-05 4.2107e-05 -7.95775e-06
-0.000111068 3.33257e-05 3.3318e-05 -1.09421e-05
-8.41822e-05 2.5256e-05 2.52541e-05 -1.32634e-05
-0.000113485 3.40506e-05 3.40435e-05 -1.09421e-05
-0.000112277 3.36882e-05 3.36808e-05 -1.09421e-05
-0.00013886 4.16677e-05 4.16537e-05 -7.95776e-06
-0.000135838 4.07615e-05 4.0747e-05 -7.95777e-06
-8.1462e-05 2.44408e-05 2.44376e-05 -1.32634e-05
-8.32754e-05 2.49843e-05 2.49819e-05 -1.32634e-05
-0.000137349 4.12146e-05 4.12004e-05 -7.95777e-06
-0.00010865 3.26009e-05 3.25926e-05 -1.09421e-05
-8.23687e-05 2.47126e-05 2.47098e-05 -1.32634e-05
-0.000111068 3.33257e-05 3.3318e-05 -1.09421e-05
-0.000109859 3.29633e-05 3.29553e-05 -1.09421e-05
-0.000135838 4.07615e-05 4.0747e-05 -7.95777e-06
-0.000132816 3.98552e-05 3.98404e-05 -7.95778e-06
-7.96485e-05 2.38974e-05 2.38934e-05 -1.32634e-05
-8.1462e-05 2.44408e-05 2.44376e-05 -1.32634e-05
-0.000134327 4.03084e-05 4.02937e-05 -7.95778e-06
-0.000106233 3.18761e-05 3.18671e-05 -1.09421e-05
-8.05552e-05 2.41691e-05 2.41655e-05 -1.32634e-05
-0.00010865 3.26009e-05 3.25926e-05 -1.09421e-05
-0.000107441 3.22385e-05 3.22298e-05 -1.09421e-05
-0.000132816 3.98552e-05 3.98404e-05 -7.95778e-06
-0.000129794 3.8949e-05 3.89338e-05 -7.9578e-06
-7.78351e-05 2.33539e-05 2.33491e-05 -1.32635e-05
-7.96485e-05 2.38974e-05 2.38934e-05 -1.32634e-05
-0.000131305 3.94021e-05 3.93871e-05 -7.95779e-06
-0.000103815 3.11512e-05 3.11416e-05 -1.09422e-05
-7.87418e-05 2.36256e-05 2.36212e-05 -1.32634e-05
-0.000106233 3.18761e-05 3.18671e-05 -1.09421e-05
-0.000105024 3.15136e-05 3.15044e-05 -1.09422e-05
-0.000129794 3.8949e-05 3.89338e-05 -7.9578e-06
-0.000126773 3.80427e-05 3.80272e-05 -7.95781e-06
-7.60217e-05 2.28104e-05 2.28048e-05 -1.32635e-05
-7.78351e-05 2.33539e-05 2.33491e-05 -1.32635e-05
-0.000128284 3.84959e-05 3.84805e-05 -7.9578e-06
-0.000101397 3.04264e-05 3.04162e-05 -1.09422e-05
-7.69284e-05 2.30821e-05 2.3077e-05 -1.32635e-05
-0.000103815 3.11512e-05 3.11416e-05 -1.09422e-05
-0.000102606 3.07888e-05 3.07789e-05 -1.09422e-05
-0.000126773 3.80427e-05 3.80272e-05 -7.95781e-06
-0.000123751 3.71365e-05 3.71206e-05 -7.95782e-06
-7.42083e-05 2.22669e-05 2.22606e-05 -1.32635e-05
-7.60217e-05 2.28104e-05 2.28048e-05 -1.32635e-05
-0.000125262 3.75896e-05 3.75739e-05 -7.95782e-06
-9.89799e-05 2.97015e-05 2.96908e-05 -1.09422e-05
-7.5115e-05 2.25387e-05 2.25327e-05 -1.32635e-05
-0.000101397 3.04264e-05 3.04162e-05 -1.09422e-05
-0.000100189 3.00639e-05 3.00535e-05 -1.09422e-05
-0.000123751 3.71365e-05 3.71206e-05 -7.95782e-06
-0.000120729 3.62302e-05 3.62139e-05 -7.95784e-06
-7.23949e-05 2.17234e-05 2.17164e-05 -1.32635e-05
-7.42083e-05 2.22669e-05 2.22606e-05 -1.32635e-05
-0.00012224 3.66834e-05 3.66672e-05 -7.95783e-06
-9.65624e-05 2.89766e-05 2.89653e-05 -1.09422e-05
-7.33016e-05 2.19952e-05 2.19885e-05 -1.32635e-05
-9.89799e-05 2.97015e-05 2.96908e-05 -1.09422e-05
-9.77711e-05 2.9339e-05 2.9328e-05 -1.09422e-05
-0.000120729 3.62302e-05 3.62139e-05 -7.95784e-06
-0.000117708 3.5324e-05 3.53074e-05 -7.95785e-06
-7.05815e-05 2.11799e-05 2.11721e-05 -1.32635e-05
-7.23949e-05 2.17234e-05 2.17164e-05 -1.32635e-05
-0.000119219 3.57771e-05 3.57607e-05 -7.95784e-06
-9.41449e-05 2.82517e-05 2.82399e-05 -1.09422e-05
-7.14882e-05 2.14516e-05 2.14442e-05 -1.32635e-05
-9.65624e-05 2.89766e-05 2.89653e-05 -1.09422e-05
-9.53536e-05 2.86142e-05 2.86026e-05 -1.09422e-05
-0.000117708 3.5324e-05 3.53074e-05 -7.95785e-06
-0.000114686 3.44177e-05 3.44008e-05 -7.95786e-06
-6.87682e-05 2.06364e-05 2.06279e-05 -1.32635e-05
-7.05815e-05 2.11799e-05 2.11721e-05 -1.32635e-05
-0.000116197 3.48708e-05 3.48541e-05 -7.95786e-06
-9.17274e-05 2.75268e-05 2.75145e-05 -1.09422e-05
-6.96749e-05 2.09081e-05 2.09e-05 -1.32635e-05
-9.41449e-05 2.82517e-05 2.82399e-05 -1.09422e-05
-9.29361e-05 2.78893e-05 2.78772e-05 -1.09422e-05
-0.000114686 3.44177e-05 3.44008e-05 -7.95786e-06
-0.000111665 3.35114e-05 3.34942e-05 -7.95788e-06
-6.69549e-05 2.00928e-05 2.00837e-05 -1.32635e-05
-6.87682e-05 2.06364e-05 2.06279e-05 -1.32635e-05
-0.000113175 3.39645e-05 3.39475e-05 -7.95787e-06
-8.93099e-05 2.68019e-05 2.67891e-05 -1.09422e-05
-6.78615e-05 2.03646e-05 2.03558e-05 -1.32635e-05
-9.17274e-05 2.75268e-05 2.75145e-05 -1.09422e-05
-9.05186e-05 2.71644e-05 2.71518e-05 -1.09422e-05
-0.000111665 3.35114e-05 3.34942e-05 -7.95788e-06
-0.000108643 3.26051e-05 3.25876e-05 -7.95789e-06
-6.51416e-05 1.95493e-05 1.95395e-05 -1.32635e-05
-6.69549e-05 2.00928e-05 2.00837e-05 -1.32635e-05
-0.000110154 3.30583e-05 3.30409e-05 -7.95788e-06
-8.68924e-05 2.6077e-05 2.60637e-05 -1.09423e-05
-6.60482e-05 1.98211e-05 1.98116e-05 -1.32635e-05
-8.93099e-05 2.68019e-05 2.67891e-05 -1.09422e-05
-8.81011e-05 2.64395e-05 2.64264e-05 -1.09422e-05
-0.000108643 3.26051e-05 3.25876e-05 -7.95789e-06
-0.000105621 3.16988e-05 3.16811e-05 -7.9579e-06
-6.33283e-05 1.90057e-05 1.89954e-05 -1.32635e-05
-6.51416e-05 1.95493e-05 1.95395e-05 -1.32635e-05
-0.000107132 3.2152e-05 3.21343e-05 -7.9579e-06
-8.44749e-05 2.53521e-05 2.53383e-05 -1.09423e-05
-6.42349e-05 1.92775e-05 1.92675e-05 -1.32635e-05
-8.68924e-05 2.6077e-05 2.60637e-05 -1.09423e-05
-8.56837e-05 2.57146e-05 2.5701e-05 -1.09423e-05
-0.000105621 3.16988e-05 3.16811e-05 -7.9579e-06
-0.0001026 3.07925e-05 3.07745e-05 -7.95792e-06
-6.1515e-05 1.84622e-05 1.84512e-05 -1.32636e-05
-6.33283e-05 1.90057e-05 1.89954e-05 -1.32635e-05
-0.000104111 3.12457e-05 3.12278e-05 -7.95791e-06
-8.20575e-05 2.46272e-05 2.4613e-05 -1.09423e-05
-6.24216e-05 1.8734e-05 1.87233e-05 -1.32635e-05
-8.44749e-05 2.53521e-05 2.53383e-05 -1.09423e-05
-8.32662e-05 2.49897e-05 2.49757e-05 -1.09423e-05
-0.0001026 3.07925e-05 3.07745e-05 -7.95792e-06
-9.95781e-05 2.98862e-05 2.9868e-05 -7.95793e-06
-5.97017e-05 1.79186e-05 1.79071e-05 -1.32636e-05
-6.1515e-05 1.84622e-05 1.84512e-05 -1.32636e-05
-0.000101089 3.03394e-05 3.03212e-05 -7.95792e-06
-7.96401e-05 2.39023e-05 2.38876e-05 -1.09423e-05
-6.06084e-05 1.81904e-05 1.81791e-05 -1.32636e-05
-8.20575e-05 2.46272e-05 2.4613e-05 -1.09423e-05
-8.08488e-05 2.42648e-05 2.42503e-05 -1.09423e-05
-9.95781e-05 2.98862e-05 2.9868e-05 -7.95793e-06
-9.65566e-05 2.89799e-05 2.89614e-05 -7.95794e-06
-5.78885e-05 1.7375e-05 1.73629e-05 -1.32636e-05
-5.97017e-05 1.79186e-05 1.79071e-05 -1.32636e-05
-9.80674e-05 2.94331e-05 2.94147e-05 -7.95794e-06
-7.72227e-05 2.31774e-05 2.31623e-05 -1.09423e-05
-5.87951e-05 1.76468e-05 1.7635e-05 -1.32636e-05
-7.96401e-05 2.39023e-05 2.38876e-05 -1.09423e-05
-7.84314e-05 2.35398e-05 2.3525e-05 -1.09423e-05
-9.65566e-05 2.89799e-05 2.89614e-05 -7.95794e-06
-9.3535e-05 2.80736e-05 2.80549e-05 -7.95795e-06
-5.60753e-05 1.68314e-05 1.68188e-05 -1.32636e-05
-5.78885e-05 1.7375e-05 1.73629e-05 -1.32636e-05
-9.50458e-05 2.85268e-05 2.85082e-05 -7.95795e-06
-7.48053e-05 2.24524e-05 2.24369e-05 -1.09423e-05
-5.69819e-05 1.71032e-05 1.70909e-05 -1.32636e-05
-7.72227e-05 2.31774e-05 2.31623e-05 -1.09423e-05
-7.6014e-05 2.28149e-05 2.27996e-05 -1.09423e-05
-9.3535e-05 2.80736e-05 2.80549e-05 -7.95795e-06
-9.05135e-05 2.71673e-05 2.71484e-05 -7.95797e-06
-5.42621e-05 1.62878e-05 1.62747e-05 -1.32636e-05
-5.60753e-05 1.68314e-05 1.68188e-05 -1.32636e-05
-9.20243e-05 2.76205e-05 2.76016e-05 -7.95796e-06
-7.23879e-05 2.17275e-05 2.17116e-05 -1.09423e-05
-5.51687e-05 1.65596e-05 1.65467e-05 -1.32636e-05
-7.48053e-05 2.24524e-05 2.24369e-05 -1.09423e-05
-7.35966e-05 2.20899e-05 2.20743e-05 -1.09423e-05
-9.05135e-05 2.71673e-05 2.71484e-05 -7.95797e-06
-8.7492e-05 2.6261e-05 2.62419e-05 -7.95798e-06
-5.24489e-05 1.57442e-05 1.57306e-05 -1.32636e-05
-5.42621e-05 1.62878e-05 1.62747e-05 -1.32636e-05
-8.90028e-05 2.67142e-05 2.66951e-05 -7.95797e-06
-6.99706e-05 2.10025e-05 2.09863e-05 -1.09424e-05
-5.33555e-05 1.6016e-05 1.60026e-05 -1.32636e-05
-7.23879e-05 2.17275e-05 2.17116e-05 -1.09423e-05
-7.11792e-05 2.1365e-05 2.1349e-05 -1.09423e-05
-8.7492e-05 2.6261e-05 2.62419e-05 -7.95798e-06
-8.44705e-05 2.53547e-05 2.53353e-05 -7.95799e-06
-5.06357e-05 1.52006e-05 1.51865e-05 -1.32636e-05
-5.24489e-05 1.57442e-05 1.57306e-05 -1.32636e-05
-8.59812e-05 2.58078e-05 2.57886e-05 -7.95799e-06
-6.75532e-05 2.02776e-05 2.0261e-05 -1.09424e-05
-5.15423e-05 1.54724e-05 1.54585e-05 -1.32636e-05
-6.99706e-05 2.10025e-05 2.09863e-05 -1.09424e-05
-6.87619e-05 2.064e-05 2.06237e-05 -1.09424e-05
-8.44705e-05 2.53547e-05 2.53353e-05 -7.95799e-06
-8.1449e-05 2.44484e-05 2.44289e-05 -7.958e-06
-4.88226e-05 1.4657e-05 1.46424e-05 -1.32636e-05
-5.06357e-05 1.52006e-05 1.51865e-05 -1.32636e-05
-8.29598e-05 2.49015e-05 2.48821e-05 -7.958e-06
-6.51359e-05 1.95526e-05 1.95357e-05 -1.09424e-05
-4.97291e-05 1.49288e-05 1.49144e-05 -1.32636e-05
-6.75532e-05 2.02776e-05 2.0261e-05 -1.09424e-05
-6.63446e-05 1.99151e-05 1.98984e-05 -1.09424e-05
-8.1449e-05 2.44484e-05 2.44289e-05 -7.958e-06
-7.84275e-05 2.3542e-05 2.35224e-05 -7.95801e-06
-4.70094e-05 1.41133e-05 1.40983e-05 -1.32636e-05
-4.88226e-05 1.4657e-05 1.46424e-05 -1.32636e-05
-7.99383e-05 2.39952e-05 2.39756e-05 -7.95801e-06
-6.27186e-05 1.88276e-05 1.88104e-05 -1.09424e-05
-4.7916e-05 1.43852e-05 1.43704e-05 -1.32636e-05
-6.51359e-05 1.95526e-05 1.95357e-05 -1.09424e-05
-6.39272e-05 1.91901e-05 1.91731e-05 -1.09424e-05
-7.84275e-05 2.3542e-05 2.35224e-05 -7.95801e-06
-7.54061e-05 2.26357e-05 2.26159e-05 -7.95802e-06
-4.51963e-05 1.35697e-05 1.35543e-05 -1.32636e-05
-4.70094e-05 1.41133e-05 1.40983e-05 -1.32636e-05
-7.69168e-05 2.30889e-05 2.30691e-05 -7.95802e-06
-6.03013e-05 1.81026e-05 1.80851e-05 -1.09424e-05
-4.61029e-05 1.38415e-05 1.38263e-05 -1.32636e-05
-6.27186e-05 1.88276e-05 1.88104e-05 -1.09424e-05
-6.15099e-05 1.84651e-05 1.84478e-05 -1.09424e-05
-7.54061e-05 2.26357e-05 2.26159e-05 -7.95802e-06
-7.23846e-05 2.17293e-05 2.17094e-05 -7.95803e-06
-4.33832e-05 1.3026e-05 1.30102e-05 -1.32636e-05
-4.51963e-05 1.35697e-05 1.35543e-05 -1.32636e-05
-7.38954e-05 2.21825e-05 2.21627e-05 -7.95803e-06
-5.7884e-05 1.73776e-05 1.73599e-05 -1.09424e-05
-4.42898e-05 1.32979e-05 1.32822e-05 -1.32636e-05
-6.03013e-05 1.81026e-05 1.80851e-05 -1.09424e-05
-5.90927e-05 1.77401e-05 1.77225e-05 -1.09424e-05
-7.23846e-05 2.17293e-05 2.17094e-05 -7.95803e-06
-6.93632e-05 2.0823e-05 2.0803e-05 -7.95804e-06
-4.15701e-05 1.24824e-05 1.24662e-05 -1.32637e-05
-4.33832e-05 1.3026e-05 1.30102e-05 -1.32636e-05
-7.08739e-05 2.12762e-05 2.12562e-05 -7.95804e-06
-5.54668e-05 1.66526e-05 1.66346e-05 -1.09424e-05
-4.24767e-05 1.27542e-05 1.27382e-05 -1.32637e-05
-5.7884e-05 1.73776e-05 1.73599e-05 -1.09424e-05
-5.66754e-05 1.70151e-05 1.69973e-05 -1.09424e-05
-6.93632e-05 2.0823e-05 2.0803e-05 -7.95804e-06
-6.63418e-05 1.99167e-05 1.98965e-05 -7.95806e-06
-3.97571e-05 1.19387e-05 1.19222e-05 -1.32637e-05
-4.15701e-05 1.24824e-05 1.24662e-05 -1.32637e-05
-6.78525e-05 2.03698e-05 2.03497e-05 -7.95805e-06
-5.30495e-05 1.59276e-05 1.59094e-05 -1.09424e-05
-4.06636e-05 1.22106e-05 1.21942e-05 -1.32637e-05
-5.54668e-05 1.66526e-05 1.66346e-05 -1.09424e-05
-5.42581e-05 1.62901e-05 1.6272e-05 -1.09424e-05
-6.63418e-05 1.99167e-05 1.98965e-05 -7.95806e-06
-6.33204e-05 1.90103e-05 1.899e-05 -7.95808e-06
-3.79441e-05 1.13951e-05 1.13781e-05 -1.32637e-05
-3.97571e-05 1.19387e-05 1.19222e-05 -1.32637e-05
-6.48311e-05 1.94635e-05 1.94433e-05 -7.95807e-06
-5.06323e-05 1.52026e-05 1.51841e-05 -1.09424e-05
-3.88506e-05 1.16669e-05 1.16501e-05 -1.32637e-05
-5.30495e-05 1.59276e-05 1.59094e-05 -1.09424e-05
-5.18409e-05 1.55651e-05 1.55468e-05 -1.09424e-05
-6.33204e-05 1.90103e-05 1.899e-05 -7.95808e-06
-6.02991e-05 1.8104e-05 1.80836e-05 -7.95812e-06
-3.61311e-05 1.08514e-05 1.08341e-05 -1.32637e-05
-3.79441e-05 1.13951e-05 1.13781e-05 -1.32637e-05
-6.18097e-05 1.85571e-05 1.85368e-05 -7.9581e-06
-4.82151e-05 1.44777e-05 1.44589e-05 -1.09425e-05
-3.70376e-05 1.11232e-05 1.11061e-05 -1.32637e-05
-5.06323e-05 1.52026e-05 1.51841e-05 -1.09424e-05
-4.94237e-05 1.48402e-05 1.48215e-05 -1.09425e-05
-6.02991e-05 1.8104e-05 1.80836e-05 -7.95812e-06
-5.72777e-05 1.71976e-05 1.71772e-05 -7.95819e-06
-3.43182e-05 1.03078e-05 1.02902e-05 -1.32637e-05
-3.61311e-05 1.08514e-05 1.08341e-05 -1.32637e-05
-5.87884e-05 1.76508e-05 1.76304e-05 -7.95815e-06
-4.5798e-05 1.37527e-05 1.37337e-05 -1.09425e-05
-3.52246e-05 1.05796e-05 1.05621e-05 -1.32637e-05
-4.82151e-05 1.44777e-05 1.44589e-05 -1.09425e-05
-4.70066e-05 1.41152e-05 1.40963e-05 -1.09425e-05
-5.72777e-05 1.71976e-05 1.71772e-05 -7.95819e-06
-5.42564e-05 1.62913e-05 1.62707e-05 -7.95828e-06
-3.25053e-05 9.76418e-06 9.74619e-06 -1.32637e-05
-3.43182e-05 1.03078e-05 1.02902e-05 -1.32637e-05
-5.5767e-05 1.67445e-05 1.6724e-05 -7.95823e-06
-4.33809e-05 1.30277e-05 1.30085e-05 -1.09426e-05
-3.34117e-05 1.0036e-05 1.00182e-05 -1.32637e-05
-4.5798e-05 1.37527e-05 1.37337e-05 -1.09425e-05
-4.45895e-05 1.33902e-05 1.33711e-05 -1.09425e-05
-5.42564e-05 1.62913e-05 1.62707e-05 -7.95828e-06
-5.12351e-05 1.5385e-05 1.53643e-05 -7.95841e-06
-3.06925e-05 9.22054e-06 9.20226e-06 -1.32637e-05
-3.25053e-05 9.76418e-06 9.74619e-06 -1.32637e-05
-5.27457e-05 1.58381e-05 1.58175e-05 -7.95834e-06
-4.09639e-05 1.23028e-05 1.22833e-05 -1.09427e-05
-3.15989e-05 9.49237e-06 9.47422e-06 -1.32637e-05
-4.33809e-05 1.30277e-05 1.30085e-05 -1.09426e-05
-4.21724e-05 1.26653e-05 1.26459e-05 -1.09426e-05
-5.12351e-05 1.5385e-05 1.53643e-05 -7.95841e-06
-4.82139e-05 1.44786e-05 1.4458e-05 -7.95852e-06
-2.88797e-05 8.67676e-06 8.65839e-06 -1.32637e-05
-3.06925e-05 9.22054e-06 9.20226e-06 -1.32637e-05
-4.97245e-05 1.49318e-05 1.49112e-05 -7.95847e-06
-3.85469e-05 1.15777e-05 1.15582e-05 -1.09427e-05
-2.97861e-05 8.94868e-06 8.93031e-06 -1.32637e-05
-4.09639e-05 1.23028e-05 1.22833e-05 -1.09427e-05
-3.97554e-05 1.19403e-05 1.19208e-05 -1.09427e-05
-4.82139e-05 1.44786e-05 1.4458e-05 -7.95852e-06
-4.51927e-05 1.35721e-05 1.35517e-05 -7.95845e-06
-2.70666e-05 8.13254e-06 8.11461e-06 -1.32637e-05
-2.88797e-05 8.67676e-06 8.65839e-06 -1.32637e-05
-4.67033e-05 1.40254e-05 1.40048e-05 -7.95852e-06
-3.61299e-05 1.08523e-05 1.08333e-05 -1.09425e-05
-2.79732e-05 8.40473e-06 8.38649e-06 -1.32637e-05
-3.85469e-05 1.15777e-05 1.15582e-05 -1.09427e-05
-3.73384e-05 1.12151e-05 1.11957e-05 -1.09426e-05
-4.51927e-05 1.35721e-05 1.35517e-05 -7.95845e-06
-4.21716e-05 1.26652e-05 1.26456e-05 -7.95787e-06
-2.5253e-05 7.58724e-06 7.57104e-06 -1.32635e-05
-2.70666e-05 8.13254e-06 8.11461e-06 -1.32637e-05
-4.36822e-05 1.31187e-05 1.30986e-05 -7.95825e-06
-3.37126e-05 1.01261e-05 1.01085e-05 -1.09419e-05
-2.61599e-05 7.86009e-06 7.84278e-06 -1.32636e-05
-3.61299e-05 1.08523e-05 1.08333e-05 -1.09425e-05
-3.49213e-05 1.04894e-05 1.04708e-05 -1.09423e-05
-4.21716e-05 1.26652e-05 1.26456e-05 -7.95787e-06
-3.91507e-05 1.17574e-05 1.174e-05 -7.95583e-06
-2.34374e-05 7.03955e-06 7.02766e-06 -1.32632e-05
-2.5253e-05 7.58724e-06 7.57104e-06 -1.32635e-05
-4.06611e-05 1.22114e-05 1.21927e-05 -7.95713e-06
-3.12943e-05 9.39808e-06 9.38408e-06 -1.094e-05
-2.43456e-05 7.31383e-06 7.29933e-06 -1.32634e-05
-3.37126e-05 1.01261e-05 1.01085e-05 -1.09419e-05
-3.25036e-05 9.76244e-06 9.74621e-06 -1.09412e-05
-3.91507e-05 1.17574e-05 1.174e-05 -7.95583e-06
-3.61296e-05 1.08478e-05 1.08351e-05 -7.95082e-06
-2.1618e-05 6.48684e-06 6.4848e-06 -1.32624e-05
-2.34374e-05 7.03955e-06 7.02766e-06 -1.32632e-05
-3.76403e-05 1.13029e-05 1.12874e-05 -7.95383e-06
-2.88736e-05 8.66606e-06 8.66037e-06 -1.09355e-05
-2.25283e-05 6.76404e-06 6.75612e-06 -1.32629e-05
-3.12943e-05 9.39808e-06 9.38408e-06 -1.094e-05
-3.00844e-05 9.03272e-06 9.02213e-06 -1.09382e-05
-3.61296e-05 1.08478e-05 1.08351e-05 -7.95082e-06
-3.31087e-05 9.93441e-06 9.93184e-06 -7.93894e-06
-1.97893e-05 5.92453e-06 5.94205e-06 -1.3261e-05
-2.1618e-05 6.48684e-06 6.4848e-06 -1.32624e-05
-3.46189e-05 1.03917e-05 1.03831e-05 -7.94612e-06
-2.64476e-05 7.92652e-06 7.93762e-06 -1.09259e-05
-2.07054e-05 6.20735e-06 6.21347e-06 -1.32618e-05
-2.88736e-05 8.66606e-06 8.66037e-06 -1.09355e-05
-2.76615e-05 8.29767e-06 8.29879e-06 -1.09317e-05
-3.31087e-05 9.93441e-06 9.93184e-06 -7.93894e-06
-3.00856e-05 9.0142e-06 9.03059e-06 -7.91496e-06
-1.79444e-05 5.34434e-06 5.40004e-06 -1.32583e-05
-1.97893e-05 5.92453e-06 5.94205e-06 -1.3261e-05
-3.15979e-05 9.47557e-06 9.481e-06 -7.92888e-06
-2.40103e-05 7.17214e-06 7.21635e-06 -1.09067e-05
-1.88692e-05 5.63725e-06 5.67082e-06 -1.326e-05
-2.64476e-05 7.92652e-06 7.93762e-06 -1.09259e-05
-2.52309e-05 7.55156e-06 7.57686e-06 -1.09177e-05
-3.00856e-05 9.0142e-06 9.03059e-06 -7.91496e-06
-2.70618e-05 8.08099e-06 8.13461e-06 -7.86603e-06
-1.60647e-05 4.73428e-06 4.85591e-06 -1.32555e-05
-1.79444e-05 5.34434e-06 5.40004e-06 -1.32583e-05
-2.85731e-05 8.54938e-06 8.58159e-06 -7.89487e-06
-2.15516e-05 6.39337e-06 6.49637e-06 -1.08707e-05
-1.7011e-05 5.04429e-06 5.1286e-06 -1.32566e-05
-2.40103e-05 7.17214e-06 7.21635e-06 -1.09067e-05
-2.27843e-05 6.78716e-06 6.85593e-06 -1.08919e-05
-2.70618e-05 8.08099e-06 8.13461e-06 -7.86603e-06
-2.40245e-05 7.12761e-06 7.24153e-06 -7.77915e-06
-1.41323e-05 4.07496e-06 4.3103e-06 -1.32518e-05
-1.60647e-05 4.73428e-06 4.85591e-06 -1.32555e-05
-2.55471e-05 7.60835e-06 7.68802e-06 -7.82821e-06
-1.90502e-05 5.57036e-06 5.77707e-06 -1.08084e-05
-1.51053e-05 4.41154e-06 4.58303e-06 -1.32541e-05
-2.15516e-05 6.39337e-06 6.49637e-06 -1.08707e-05
-2.03081e-05 5.98775e-06 6.13731e-06 -1.08425e-05
-2.40245e-05 7.12761e-06 7.24153e-06 -7.77915e-06
-2.09779e-05 6.13639e-06 6.36064e-06 -7.62092e-06
-1.20974e-05 3.35006e-06 3.74887e-06 -1.32585e-05
-1.41323e-05 4.07496e-06 4.3103e-06 -1.32518e-05
-2.24996e-05 6.63577e-06 6.79879e-06 -7.71222e-06
-1.64791e-05 4.68829e-06 5.05322e-06 -1.07084e-05
-1.31338e-05 3.72291e-06 4.03322e-06 -1.32522e-05
-1.90502e-05 5.57036e-06 5.77707e-06 -1.08084e-05
-1.77748e-05 5.14012e-06 5.41488e-06 -1.07661e-05
-2.09779e-05 6.13639e-06 6.36064e-06 -7.62092e-06
-1.78648e-05 5.10287e-06 5.46942e-06 -7.37855e-06
-9.93861e-06 2.54189e-06 3.17002e-06 -1.32826e-05
-1.20974e-05 3.35006e-06 3.74887e-06 -1.32585e-05
-1.94396e-05 5.63054e-06 5.91815e-06 -7.51036e-06
-1.37758e-05 3.71091e-06 4.31353e-06 -1.05705e-05
-1.10301e-05 2.95327e-06 3.46151e-06 -1.32684e-05
-1.64791e-05 4.68829e-06 5.05322e-06 -1.07084e-05
-1.51504e-05 4.20842e-06 4.68941e-06 -1.0639e-05
-1.78648e-05 5.10287e-06 5.46942e-06 -7.37855e-06
-1.46894e-05 3.98422e-06 4.58793e-06 -7.00166e-06
-7.57735e-06 1.70668e-06 2.516e-06 -1.33856e-05
-9.93861e-06 2.54189e-06 3.17002e-06 -1.32826e-05
-1.62745e-05 4.54391e-06 5.02741e-06 -7.21135e-06
-1.0899e-05 2.67349e-06 3.52523e-06 -1.04204e-05
-8.79648e-06 2.12606e-06 2.85876e-06 -1.33168e-05
-1.37758e-05 3.71091e-06 4.31353e-06 -1.05705e-05
-1.23579e-05 3.20435e-06 3.92294e-06 -1.05028e-05
-1.46894e-05 3.98422e-06 4.58793e-06 -7.00166e-06
-1.12281e-05 2.8707e-06 3.58176e-06 -6.59621e-06
-5.13042e-06 9.81637e-07 1.77805e-06 -1.36092e-05
-7.57735e-06 1.70668e-06 2.516e-06 -1.33856e-05
-1.30328e-05 3.4451e-06 4.10901e-06 -6.7909e-06
-7.71542e-06 1.61554e-06 2.61424e-06 -1.03913e-05
-6.3368e-06 1.29859e-06 2.15923e-06 -1.34807e-05
-1.0899e-05 2.67349e-06 3.52523e-06 -1.04204e-05
-9.36349e-06 2.11729e-06 3.10551e-06 -1.0358e-05
-1.12281e-05 2.8707e-06 3.58176e-06 -6.59621e-06
-7.50441e-06 1.76738e-06 2.45872e-06 -6.3367e-06
-2.75664e-06 9.63818e-07 7.68351e-07 -1.40975e-05
-5.13042e-06 9.81637e-07 1.77805e-06 -1.36092e-05
-9.35787e-06 2.24237e-06 3.0495e-06 -6.42194e-06
-4.4112e-06 1.10801e-06 1.41565e-06 -1.07707e-05
-3.94233e-06 8.46701e-07 1.3267e-06 -1.38073e-05
-7.71542e-06 1.61554e-06 2.61424e-06 -1.03913e-05
-6.03721e-06 1.2598e-06 2.04746e-06 -1.05372e-05
-7.50441e-06 1.76738e-06 2.45872e-06 -6.3367e-06
-3.18309e-06 1.86434e-06 5.6518e-07 -7.40249e-06
-1.50177e-06 2.71329e-06 -5.19222e-07 -1.44625e-05
-2.75664e-06 9.63818e-07 7.68351e-07 -1.40975e-05
-5.50155e-06 1.65094e-06 1.65026e-06 -6.58986e-06
-1.40051e-06 2.41629e-06 -4.35336e-07 -1.21179e-05
-1.85067e-06 1.46029e-06 1.6731e-07 -1.43503e-05
-4.4112e-06 1.10801e-06 1.41565e-06 -1.07707e-05
-2.85857e-06 1.30992e-06 6.63709e-07 -1.12132e-05
-3.18309e-06 1.86434e-06 5.6518e-07 -7.40249e-06
-1.16335e-06 6.843e-06 -2.43414e-06 -1.12994e-05
-2.12945e-06 8.20441e-06 -2.60355e-06 -1.32769e-05
-1.50177e-06 2.71329e-06 -5.19222e-07 -1.44625e-05
-1.44002e-06 2.80926e-06 -5.86814e-07 -8.7954e-06
-2.28994e-06 9.34461e-06 -3.02343e-06 -1.31767e-05
-1.62351e-06 5.0321e-06 -1.46083e-06 -1.42483e-05
-1.40051e-06 2.41629e-06 -4.35336e-07 -1.21179e-05
-9.17469e-07 5.0029e-06 -1.7509e-06 -1.30395e-05
-1.16335e-06 6.843e-06 -2.43414e-06 -1.12994e-05
-9.2898e-06 3.02209e-05 -8.97046e-06 -1.14125e-05
-3.99843e-06 1.48465e-05 -4.64917e-06 -7.0203e-06
-2.12945e-06 8.20441e-06 -2.60355e-06 -1.32769e-05
-3.42323e-06 1.61442e-05 -5.45184e-06 -1.3305e-05
-7.38296e-06 2.18138e-05 -6.18466e-06 -6.65453e-06
-2.94573e-06 1.1776e-05 -3.7844e-06 -1.0971e-05
-2.28994e-06 9.34461e-06 -3.02343e-06 -1.31767e-05
-4.71332e-06 1.53563e-05 -4.56128e-06 -1.14081e-05
-0.000292496 0 0.000125355 3.83748e-05
-0.000330781 4.36809e-05 0.000123043 -1.28993e-06
-0.000107108 1.45391e-05 3.96724e-05 1.99187e-05
-0.000105277 -1.11022e-16 4.51188e-05 6.01132e-05
-0.000316964 2.45613e-05 0.000125316 1.44186e-05
-0.000218893 2.9132e-05 8.13261e-05 1.17462e-05
-0.000102781 6.16222e-06 4.14079e-05 3.79126e-05
-0.000194565 0 8.33849e-05 5.49211e-05
-0.0002098 1.38687e-05 8.39707e-05 2.72017e-05
-0.000330781 4.36809e-05 0.000123043 -1.28993e-06
-0.000347679 7.98892e-05 0.000114767 -1.36315e-05
-0.000115447 2.39431e-05 3.92159e-05 -4.1452e-06
-0.000107108 1.45391e-05 3.96724e-05 1.99187e-05
-0.000339251 6.29361e-05 0.000118421 -9.24402e-06
-0.000230135 4.99612e-05 7.72175e-05 -7.53648e-06
-0.000113062 2.01676e-05 3.9812e-05 5.76888e-06
-0.000218893 2.9132e-05 8.13261e-05 1.17462e-05
-0.000224715 4.09925e-05 7.87381e-05 1.30264e-06
-0.000347679 7.98892e-05 0.000114767 -1.36315e-05
-0.000356245 9.81526e-05 0.000110611 -1.60123e-05
-0.000117911 3.0933e-05 3.72764e-05 -1.5048e-05
-0.000115447 2.39431e-05 3.92159e-05 -4.1452e-06
-0.000354024 9.12266e-05 0.000112627 -1.5791e-05
-0.000236721 6.32835e-05 7.43302e-05 -1.58371e-05
-0.000116363 2.76705e-05 3.80112e-05 -1.07182e-05
-0.000230135 4.99612e-05 7.72175e-05 -7.53648e-06
-0.000234392 5.74649e-05 7.58257e-05 -1.32707e-05
-0.000356245 9.81526e-05 0.000110611 -1.60123e-05
-0.000355922 0.000105318 0.000107402 -1.48121e-05
-0.000119203 3.42305e-05 3.6417e-05 -1.8935e-05
-0.000117911 3.0933e-05 3.72764e-05 -1.5048e-05
-0.000356244 0.000102652 0.000108682 -1.534e-05
-0.000237825 6.92098e-05 7.22637e-05 -1.76716e-05
-0.000119166 3.30155e-05 3.69218e-05 -1.76526e-05
-0.000236721 6.32835e-05 7.43302e-05 -1.58371e-05
-0.00023768 6.70188e-05 7.31404e-05 -1.69886e-05
-0.000355922 0.000105318 0.000107402 -1.48121e-05
-0.000353426 0.000106676 0.00010575 -1.39988e-05
-0.000118417 3.55038e-05 3.55341e-05 -1.93474e-05
-0.000119203 3.42305e-05 3.6417e-05 -1.8935e-05
-0.000355056 0.000106463 0.00010654 -1.4409e-05
-0.000236428 7.11515e-05 7.08328e-05 -1.73934e-05
-0.000118721 3.50431e-05 3.58619e-05 -1.93573e-05
-0.000237825 6.92098e-05 7.22637e-05 -1.76716e-05
-0.000237345 7.05173e-05 7.14975e-05 -1.77491e-05
-0.000353426 0.000106676 0.00010575 -1.39988e-05
-0.000349908 0.000106128 0.000104477 -1.34545e-05
-0.00011743 3.54839e-05 3.51199e-05 -1.86589e-05
-0.000118417 3.55038e-05 3.55341e-05 -1.93474e-05
-0.00035154 0.000106516 0.00010501 -1.36413e-05
-0.000234109 7.09964e-05 6.99053e-05 -1.66676e-05
-0.000118063 3.56001e-05 3.53412e-05 -1.90735e-05
-0.000236428 7.11515e-05 7.08328e-05 -1.73934e-05
-0.000235281 7.12356e-05 7.03051e-05 -1.69812e-05
-0.000349908 0.000106128 0.000104477 -1.34545e-05
-0.000346844 0.000104941 0.000103673 -1.32892e-05
-0.000116168 3.51146e-05 3.47374e-05 -1.77696e-05
-0.00011743 3.54839e-05 3.51199e-05 -1.86589e-05
-0.000348389 0.000105568 0.000104066 -1.33641e-05
-0.00023183 7.02426e-05 6.92518e-05 -1.60206e-05
-0.000116729 3.53144e-05 3.4892e-05 -1.81958e-05
-0.000234109 7.09964e-05 6.99053e-05 -1.66676e-05
-0.000232947 7.06471e-05 6.95571e-05 -1.6347e-05
-0.000346844 0.000104941 0.000103673 -1.32892e-05
-0.000344055 0.000103783 0.000102974 -1.32178e-05
-0.000115141 3.46435e-05 3.44991e-05 -1.70639e-05
-0.000116168 3.51146e-05 3.47374e-05 -1.77696e-05
-0.000345367 0.000104342 0.000103297 -1.32343e-05
-0.000229804 6.93664e-05 6.87591e-05 -1.55662e-05
-0.000115667 3.48815e-05 3.46222e-05 -1.73905e-05
-0.00023183 7.02426e-05 6.92518e-05 -1.60206e-05
-0.000230776 6.98029e-05 6.89886e-05 -1.57562e-05
-0.000344055 0.000103783 0.000102974 -1.32178e-05
-0.000341677 0.000102767 0.00010239 -1.32211e-05
-0.000114203 3.42365e-05 3.42711e-05 -1.65756e-05
-0.000115141 3.46435e-05 3.44991e-05 -1.70639e-05
-0.000342845 0.000103256 0.000102681 -1.32202e-05
-0.000228064 6.86045e-05 6.83396e-05 -1.52772e-05
-0.000114638 3.44291e-05 3.43754e-05 -1.67911e-05
-0.000229804 6.93664e-05 6.87591e-05 -1.55662e-05
-0.000228903 6.89671e-05 6.85442e-05 -1.54097e-05
-0.000341677 0.000102767 0.00010239 -1.32211e-05
-0.000339509 0.00010192 0.000101824 -1.32291e-05
-0.000113416 3.38959e-05 3.408e-05 -1.62757e-05
-0.000114203 3.42365e-05 3.42711e-05 -1.65756e-05
-0.000340561 0.000102325 0.000102101 -1.32226e-05
-0.000226532 6.79663e-05 6.79569e-05 -1.51089e-05
-0.000113805 3.40585e-05 3.4177e-05 -1.64068e-05
-0.000228064 6.86045e-05 6.83396e-05 -1.52772e-05
-0.000227276 6.82711e-05 6.8145e-05 -1.51781e-05
-0.000339509 0.00010192 0.000101824 -1.32291e-05
-0.000337513 0.000101192 0.00010128 -1.32429e-05
-0.000112695 3.36188e-05 3.38896e-05 -1.61012e-05
-0.000113416 3.38959e-05 3.408e-05 -1.62757e-05
-0.000338501 0.000101544 0.000101553 -1.32373e-05
-0.000225142 6.74369e-05 6.75879e-05 -1.50148e-05
-0.000113043 3.37505e-05 3.39826e-05 -1.61755e-05
-0.000226532 6.79663e-05 6.79569e-05 -1.51089e-05
-0.000225824 6.769e-05 6.77717e-05 -1.50561e-05
-0.000337513 0.000101192 0.00010128 -1.32429e-05
-0.000335597 0.000100546 0.000100736 -1.32512e-05
-0.000112032 3.33826e-05 3.37069e-05 -1.60068e-05
-0.000112695 3.36188e-05 3.38896e-05 -1.61012e-05
-0.000336545 0.000100861 0.000101007 -1.32471e-05
-0.000223836 6.69788e-05 6.72244e-05 -1.49658e-05
-0.000112361 3.34967e-05 3.37988e-05 -1.60467e-05
-0.000225142 6.74369e-05 6.75879e-05 -1.50148e-05
-0.000224481 6.72009e-05 6.74058e-05 -1.49856e-05
-0.000335597 0.000100546 0.000100736 -1.32512e-05
-0.000333736 9.99487e-05 0.000100195 -1.32571e-05
-0.000111394 3.31731e-05 3.35234e-05 -1.59578e-05
-0.000112032 3.33826e-05 3.37069e-05 -1.60068e-05
-0.000334663 0.000100243 0.000100466 -1.32547e-05
-0.000222577 6.6566e-05 6.68619e-05 -1.4941e-05
-0.00011171 3.32753e-05 3.36147e-05 -1.59781e-05
-0.000223836 6.69788e-05 6.72244e-05 -1.49658e-05
-0.000223202 6.67681e-05 6.70432e-05 -1.49515e-05
-0.000333736 9.99487e-05 0.000100195 -1.32571e-05
-0.000331898 9.93789e-05 9.96512e-05 -1.32601e-05
-0.000110774 3.29785e-05 3.33409e-05 -1.59341e-05
-0.000111394 3.31731e-05 3.35234e-05 -1.59578e-05
-0.000332815 9.96613e-05 9.99228e-05 -1.32588e-05
-0.000221344 6.61788e-05 6.64992e-05 -1.49294e-05
-0.000111083 3.30745e-05 3.34324e-05 -1.59438e-05
-0.000222577 6.6566e-05 6.68619e-05 -1.4941e-05
-0.000221958 6.63701e-05 6.66806e-05 -1.49339e-05
-0.000331898 9.93789e-05 9.96512e-05 -1.32601e-05
-0.000330074 9.88237e-05 9.91073e-05 -1.32618e-05
-0.000110161 3.27922e-05 3.31579e-05 -1.59232e-05
-0.000110774 3.29785e-05 3.33409e-05 -1.59341e-05
-0.000330985 9.91e-05 9.93794e-05 -1.32611e-05
-0.000220123 6.58056e-05 6.61359e-05 -1.49241e-05
-0.000110466 3.28846e-05 3.32493e-05 -1.59275e-05
-0.000221344 6.61788e-05 6.64992e-05 -1.49294e-05
-0.000220732 6.59909e-05 6.63176e-05 -1.49263e-05
-0.000330074 9.88237e-05 9.91073e-05 -1.32618e-05
-0.000328255 9.82759e-05 9.85625e-05 -1.32624e-05
-0.000109551 3.26099e-05 3.29748e-05 -1.59187e-05
-0.000110161 3.27922e-05 3.31579e-05 -1.59232e-05
-0.000329164 9.85492e-05 9.8835e-05 -1.32622e-05
-0.000218908 6.54394e-05 6.57721e-05 -1.4922e-05
-0.000109856 3.27007e-05 3.30664e-05 -1.59204e-05
-0.000220123 6.58056e-05 6.61359e-05 -1.49241e-05
-0.000219515 6.56219e-05 6.5954e-05 -1.49228e-05
-0.000328255 9.82759e-05 9.85625e-05 -1.32624e-05
-0.000326439 9.77315e-05 9.80174e-05 -1.32627e-05
-0.000108943 3.24295e-05 3.27915e-05 -1.59171e-05
-0.000109551 3.26099e-05 3.29748e-05 -1.59187e-05
-0.000327347 9.80034e-05 9.829e-05 -1.32626e-05
-0.000217695 6.50766e-05 6.54079e-05 -1.49213e-05
-0.000109247 3.25195e-05 3.28832e-05 -1.59177e-05
-0.000218908 6.54394e-05 6.57721e-05 -1.4922e-05
-0.000218301 6.52577e-05 6.559e-05 -1.49216e-05
-0.000326439 9.77315e-05 9.80174e-05 -1.32627e-05
-0.000324623 9.71887e-05 9.74719e-05 -1.32627e-05
-0.000108336 3.225e-05 3.26081e-05 -1.59166e-05
-0.000108943 3.24295e-05 3.27915e-05 -1.59171e-05
-0.000325531 9.746e-05 9.77447e-05 -1.32627e-05
-0.000216483 6.47152e-05 6.50435e-05 -1.49211e-05
-0.000108639 3.23397e-05 3.26998e-05 -1.59168e-05
-0.000217695 6.50766e-05 6.54079e-05 -1.49213e-05
-0.000217089 6.48958e-05 6.52257e-05 -1.49211e-05
-0.000324623 9.71887e-05 9.74719e-05 -1.32627e-05
-0.000322808 9.66464e-05 9.69263e-05 -1.32626e-05
-0.000107728 3.20708e-05 3.24247e-05 -1.59167e-05
-0.000108336 3.225e-05 3.26081e-05 -1.59166e-05
-0.000323716 9.69175e-05 9.71992e-05 -1.32627e-05
-0.000215272 6.43545e-05 6.4679e-05 -1.49211e-05
-0.000108032 3.21604e-05 3.25164e-05 -1.59166e-05
-0.000216483 6.47152e-05 6.50435e-05 -1.49211e-05
-0.000215878 6.45348e-05 6.48612e-05 -1.49211e-05
-0.000322808 9.66464e-05 9.69263e-05 -1.32626e-05
-0.000320992 9.61042e-05 9.63807e-05 -1.32626e-05
-0.000107121 3.18916e-05 3.22412e-05 -1.59168e-05
-0.000107728 3.20708e-05 3.24247e-05 -1.59167e-05
-0.0003219 9.63753e-05 9.66535e-05 -1.32626e-05
-0.000214061 6.39938e-05 6.43144e-05 -1.49211e-05
-0.000107425 3.19812e-05 3.2333e-05 -1.59167e-05
-0.000215272 6.43545e-05 6.4679e-05 -1.49211e-05
-0.000214666 6.41741e-05 6.44967e-05 -1.49211e-05
-0.000320992 9.61042e-05 9.63807e-05 -1.32626e-05
-0.000319177 9.5562e-05 9.5835e-05 -1.32625e-05
-0.000106514 3.17123e-05 3.20577e-05 -1.59169e-05
-0.000107121 3.18916e-05 3.22412e-05 -1.59168e-05
-0.000320085 9.58331e-05 9.61078e-05 -1.32625e-05
-0.000212849 6.36331e-05 6.39498e-05 -1.49212e-05
-0.000106817 3.18019e-05 3.21495e-05 -1.59169e-05
-0.000214061 6.39938e-05 6.43144e-05 -1.49211e-05
-0.000213455 6.38135e-05 6.41321e-05 -1.49212e-05
-0.000319177 9.5562e-05 9.5835e-05 -1.32625e-05
-0.000317361 9.50197e-05 9.52893e-05 -1.32625e-05
-0.000105906 3.1533e-05 3.18743e-05 -1.5917e-05
-0.000106514 3.17123e-05 3.20577e-05 -1.59169e-05
-0.000318269 9.52908e-05 9.55621e-05 -1.32625e-05
-0.000211638 6.32724e-05 6.35851e-05 -1.49212e-05
-0.00010621 3.16227e-05 3.1966e-05 -1.5917e-05
-0.000212849 6.36331e-05 6.39498e-05 -1.49212e-05
-0.000212243 6.34528e-05 6.37674e-05 -1.49212e-05
-0.000317361 9.50197e-05 9.52893e-05 -1.32625e-05
-0.000315546 9.44774e-05 9.47436e-05 -1.32625e-05
-0.000105299 3.13536e-05 3.16908e-05 -1.59171e-05
-0.000105906 3.1533e-05 3.18743e-05 -1.5917e-05
-0.000316454 9.47486e-05 9.50164e-05 -1.32625e-05
-0.000210426 6.29116e-05 6.32205e-05 -1.49213e-05
-0.000105603 3.14433e-05 3.17825e-05 -1.59171e-05
-0.000211638 6.32724e-05 6.35851e-05 -1.49212e-05
-0.000211032 6.3092e-05 6.34028e-05 -1.49213e-05
-0.000315546 9.44774e-05 9.47436e-05 -1.32625e-05
-0.00031373 9.3935e-05 9.41979e-05 -1.32625e-05
-0.000104691 3.11742e-05 3.15074e-05 -1.59171e-05
-0.000105299 3.13536e-05 3.16908e-05 -1.59171e-05
-0.000314638 9.42062e-05 9.44707e-05 -1.32625e-05
-0.000209215 6.25508e-05 6.28559e-05 -1.49213e-05
-0.000104995 3.12639e-05 3.15991e-05 -1.59171e-05
-0.000210426 6.29116e-05 6.32205e-05 -1.49213e-05
-0.00020982 6.27312e-05 6.30382e-05 -1.49213e-05
-0.00031373 9.3935e-05 9.41979e-05 -1.32625e-05
-0.000311914 9.33926e-05 9.36522e-05 -1.32625e-05
-0.000104084 3.09948e-05 3.13239e-05 -1.59172e-05
-0.000104691 3.11742e-05 3.15074e-05 -1.59171e-05
-0.000312822 9.36638e-05 9.39251e-05 -1.32625e-05
-0.000208003 6.21899e-05 6.24913e-05 -1.49213e-05
-0.000104388 3.10845e-05 3.14156e-05 -1.59172e-05
-0.000209215 6.25508e-05 6.28559e-05 -1.49213e-05
-0.000208609 6.23704e-05 6.26736e-05 -1.49213e-05
-0.000311914 9.33926e-05 9.36522e-05 -1.32625e-05
-0.000310099 9.28502e-05 9.31066e-05 -1.32625e-05
-0.000103477 3.08153e-05 3.11405e-05 -1.59172e-05
-0.000104084 3.09948e-05 3.13239e-05 -1.59172e-05
-0.000311007 9.31214e-05 9.33794e-05 -1.32625e-05
-0.000206791 6.1829e-05 6.21267e-05 -1.49213e-05
-0.00010378 3.09051e-05 3.12322e-05 -1.59172e-05
-0.000208003 6.21899e-05 6.24913e-05 -1.49213e-05
-0.000207397 6.20095e-05 6.2309e-05 -1.49213e-05
-0.000310099 9.28502e-05 9.31066e-05 -1.32625e-05
-0.000308283 9.23077e-05 9.25609e-05 -1.32625e-05
-0.000102869 3.06359e-05 3.09571e-05 -1.59172e-05
-0.000103477 3.08153e-05 3.11405e-05 -1.59172e-05
-0.000309191 9.2579e-05 9.28337e-05 -1.32625e-05
-0.00020558 6.14681e-05 6.17622e-05 -1.49213e-05
-0.000103173 3.07256e-05 3.10488e-05 -1.59172e-05
-0.000206791 6.1829e-05 6.21267e-05 -1.49213e-05
-0.000206186 6.16486e-05 6.19444e-05 -1.49213e-05
-0.000308283 9.23077e-05 9.25609e-05 -1.32625e-05
-0.000306468 9.17653e-05 9.20153e-05 -1.32625e-05
-0.000102262 3.04564e-05 3.07737e-05 -1.59172e-05
-0.000102869 3.06359e-05 3.09571e-05 -1.59172e-05
-0.000307375 9.20365e-05 9.22881e-05 -1.32625e-05
-0.000204368 6.11072e-05 6.13976e-05 -1.49213e-05
-0.000102565 3.05461e-05 3.08654e-05 -1.59172e-05
-0.00020558 6.14681e-05 6.17622e-05 -1.49213e-05
-0.000204974 6.12877e-05 6.15799e-05 -1.49213e-05
-0.000306468 9.17653e-05 9.20153e-05 -1.32625e-05
-0.000304652 9.12228e-05 9.14696e-05 -1.32625e-05
-0.000101654 3.02769e-05 3.05903e-05 -1.59172e-05
-0.000102262 3.04564e-05 3.07737e-05 -1.59172e-05
-0.00030556 9.14941e-05 9.17424e-05 -1.32625e-05
-0.000203157 6.07463e-05 6.10331e-05 -1.49213e-05
-0.000101958 3.03666e-05 3.0682e-05 -1.59172e-05
-0.000204368 6.11072e-05 6.13976e-05 -1.49213e-05
-0.000203762 6.09267e-05 6.12153e-05 -1.49213e-05
-0.000304652 9.12228e-05 9.14696e-05 -1.32625e-05
-0.000302836 9.06804e-05 9.0924e-05 -1.32625e-05
-0.000101047 3.00974e-05 3.04069e-05 -1.59172e-05
-0.000101654 3.02769e-05 3.05903e-05 -1.59172e-05
-0.000303744 9.09516e-05 9.11968e-05 -1.32625e-05
-0.000201945 6.03853e-05 6.06685e-05 -1.49214e-05
-0.000101351 3.01871e-05 3.04986e-05 -1.59172e-05
-0.000203157 6.07463e-05 6.10331e-05 -1.49213e-05
-0.000202551 6.05658e-05 6.08508e-05 -1.49214e-05
-0.000302836 9.06804e-05 9.0924e-05 -1.32625e-05
-0.000301021 9.01379e-05 9.03784e-05 -1.32625e-05
-0.00010044 2.99179e-05 3.02236e-05 -1.59172e-05
-0.000101047 3.00974e-05 3.04069e-05 -1.59172e-05
-0.000301929 9.04091e-05 9.06512e-05 -1.32625e-05
-0.000200734 6.00244e-05 6.0304e-05 -1.49214e-05
-0.000100743 3.00076e-05 3.03153e-05 -1.59172e-05
-0.000201945 6.03853e-05 6.06685e-05 -1.49214e-05
-0.000201339 6.02048e-05 6.04863e-05 -1.49214e-05
-0.000301021 9.01379e-05 9.03784e-05 -1.32625e-05
-0.000299205 8.95954e-05 8.98328e-05 -1.32626e-05
-9.98322e-05 2.97383e-05 3.00402e-05 -1.59172e-05
-0.00010044 2.99179e-05 3.02236e-05 -1.59172e-05
-0.000300113 8.98666e-05 9.01056e-05 -1.32625e-05
-0.000199522 5.96634e-05 5.99395e-05 -1.49214e-05
-0.000100136 2.98281e-05 3.01319e-05 -1.59172e-05
-0.000200734 6.00244e-05 6.0304e-05 -1.49214e-05
-0.000200128 5.98439e-05 6.01217e-05 -1.49214e-05
-0.000299205 8.95954e-05 8.98328e-05 -1.32626e-05
-0.00029739 8.90529e-05 8.92872e-05 -1.32626e-05
-9.92248e-05 2.95588e-05 2.98569e-05 -1.59172e-05
-9.98322e-05 2.97383e-05 3.00402e-05 -1.59172e-05
-0.000298297 8.93241e-05 8.956e-05 -1.32626e-05
-0.000198311 5.93024e-05 5.9575e-05 -1.49214e-05
-9.95285e-05 2.96486e-05 2.99485e-05 -1.59172e-05
-0.000199522 5.96634e-05 5.99395e-05 -1.49214e-05
-0.000198916 5.94829e-05 5.97572e-05 -1.49214e-05
-0.00029739 8.90529e-05 8.92872e-05 -1.32626e-05
-0.000295574 8.85104e-05 8.87416e-05 -1.32626e-05
-9.86175e-05 2.93792e-05 2.96735e-05 -1.59172e-05
-9.92248e-05 2.95588e-05 2.98569e-05 -1.59172e-05
-0.000296482 8.87817e-05 8.90144e-05 -1.32626e-05
-0.000197099 5.89414e-05 5.92105e-05 -1.49214e-05
-9.89212e-05 2.9469e-05 2.97652e-05 -1.59172e-05
-0.000198311 5.93024e-05 5.9575e-05 -1.49214e-05
-0.000197705 5.91219e-05 5.93927e-05 -1.49214e-05
-0.000295574 8.85104e-05 8.87416e-05 -1.32626e-05
-0.000293759 8.79679e-05 8.8196e-05 -1.32626e-05
-9.80102e-05 2.91997e-05 2.94902e-05 -1.59172e-05
-9.86175e-05 2.93792e-05 2.96735e-05 -1.59172e-05
-0.000294666 8.82392e-05 8.84688e-05 -1.32626e-05
-0.000195888 5.85804e-05 5.8846e-05 -1.49214e-05
-9.83139e-05 2.92895e-05 2.95819e-05 -1.59172e-05
-0.000197099 5.89414e-05 5.92105e-05 -1.49214e-05
-0.000196493 5.87609e-05 5.90282e-05 -1.49214e-05
-0.000293759 8.79679e-05 8.8196e-05 -1.32626e-05
-0.000291943 8.74254e-05 8.76504e-05 -1.32626e-05
-9.7403e-05 2.90201e-05 2.93069e-05 -1.59172e-05
-9.80102e-05 2.91997e-05 2.94902e-05 -1.59172e-05
-0.000292851 8.76966e-05 8.79232e-05 -1.32626e-05
-0.000194676 5.82194e-05 5.84815e-05 -1.49214e-05
-9.77066e-05 2.91099e-05 2.93986e-05 -1.59172e-05
-0.000195888 5.85804e-05 5.8846e-05 -1.49214e-05
-0.000195282 5.83999e-05 5.86638e-05 -1.49214e-05
-0.000291943 8.74254e-05 8.76504e-05 -1.32626e-05
-0.000290128 8.68829e-05 8.71049e-05 -1.32626e-05
-9.67957e-05 2.88406e-05 2.91236e-05 -1.59172e-05
-9.7403e-05 2.90201e-05 2.93069e-05 -1.59172e-05
-0.000291035 8.71541e-05 8.73777e-05 -1.32626e-05
-0.000193465 5.78584e-05 5.81171e-05 -1.49214e-05
-9.70993e-05 2.89303e-05 2.92153e-05 -1.59172e-05
-0.000194676 5.82194e-05 5.84815e-05 -1.49214e-05
-0.000194071 5.80389e-05 5.82993e-05 -1.49214e-05
-0.000290128 8.68829e-05 8.71049e-05 -1.32626e-05
-0.000288312 8.63403e-05 8.65593e-05 -1.32626e-05
-9.61885e-05 2.8661e-05 2.89403e-05 -1.59172e-05
-9.67957e-05 2.88406e-05 2.91236e-05 -1.59172e-05
-0.00028922 8.66116e-05 8.68321e-05 -1.32626e-05
-0.000192254 5.74974e-05 5.77526e-05 -1.49214e-05
-9.64921e-05 2.87508e-05 2.9032e-05 -1.59172e-05
-0.000193465 5.78584e-05 5.81171e-05 -1.49214e-05
-0.000192859 5.76779e-05 5.79348e-05 -1.49214e-05
-0.000288312 8.63403e-05 8.65593e-05 -1.32626e-05
-0.000286497 8.57978e-05 8.60138e-05 -1.32626e-05
-9.55812e-05 2.84814e-05 2.87571e-05 -1.59172e-05
-9.61885e-05 2.8661e-05 2.89403e-05 -1.59172e-05
-0.000287404 8.60691e-05 8.62866e-05 -1.32626e-05
-0.000191042 5.71364e-05 5.73882e-05 -1.49214e-05
-9.58848e-05 2.85712e-05 2.88487e-05 -1.59172e-05
-0.000192254 5.74974e-05 5.77526e-05 -1.49214e-05
-0.000191648 5.73169e-05 5.75704e-05 -1.49214e-05
-0.000286497 8.57978e-05 8.60138e-05 -1.32626e-05
-0.000284681 8.52553e-05 8.54683e-05 -1.32626e-05
-9.4974e-05 2.83018e-05 2.85738e-05 -1.59172e-05
-9.55812e-05 2.84814e-05 2.87571e-05 -1.59172e-05
-0.000285589 8.55265e-05 8.5741e-05 -1.32626e-05
-0.000189831 5.67754e-05 5.70238e-05 -1.49214e-05
-9.52776e-05 2.83916e-05 2.86654e-05 -1.59172e-05
-0.000191042 5.71364e-05 5.73882e-05 -1.49214e-05
-0.000190436 5.69559e-05 5.7206e-05 -1.49214e-05
-0.000284681 8.52553e-05 8.54683e-05 -1.32626e-05
-0.000282866 8.47127e-05 8.49228e-05 -1.32626e-05
-9.43668e-05 2.81222e-05 2.83906e-05 -1.59172e-05
-9.4974e-05 2.83018e-05 2.85738e-05 -1.59172e-05
-0.000283774 8.4984e-05 8.51955e-05 -1.32626e-05
-0.000188619 5.64143e-05 5.66593e-05 -1.49214e-05
-9.46704e-05 2.8212e-05 2.84822e-05 -1.59172e-05
-0.000189831 5.67754e-05 5.70238e-05 -1.49214e-05
-0.000189225 5.65949e-05 5.68415e-05 -1.49214e-05
-0.000282866 8.47127e-05 8.49228e-05 -1.32626e-05
-0.00028105 8.41702e-05 8.43773e-05 -1.32626e-05
-9.37597e-05 2.79426e-05 2.82073e-05 -1.59172e-05
-9.43668e-05 2.81222e-05 2.83906e-05 -1.59172e-05
-0.000281958 8.44414e-05 8.465e-05 -1.32626e-05
-0.000187408 5.60533e-05 5.62949e-05 -1.49214e-05
-9.40632e-05 2.80324e-05 2.82989e-05 -1.59172e-05
-0.000188619 5.64143e-05 5.66593e-05 -1.49214e-05
-0.000188014 5.62338e-05 5.64771e-05 -1.49214e-05
-0.00028105 8.41702e-05 8.43773e-05 -1.32626e-05
-0.000279235 8.36276e-05 8.38318e-05 -1.32627e-05
-9.31525e-05 2.77629e-05 2.80241e-05 -1.59172e-05
-9.37597e-05 2.79426e-05 2.82073e-05 -1.59172e-05
-0.000280143 8.38989e-05 8.41045e-05 -1.32626e-05
-0.000186197 5.56922e-05 5.59305e-05 -1.49214e-05
-9.34561e-05 2.78527e-05 2.81157e-05 -1.59172e-05
-0.000187408 5.60533e-05 5.62949e-05 -1.49214e-05
-0.000186802 5.58728e-05 5.61127e-05 -1.49214e-05
-0.000279235 8.36276e-05 8.38318e-05 -1.32627e-05
-0.00027742 8.3085e-05 8.32863e-05 -1.32627e-05
-9.25454e-05 2.75833e-05 2.78409e-05 -1.59172e-05
-9.31525e-05 2.77629e-05 2.80241e-05 -1.59172e-05
-0.000278327 8.33563e-05 8.3559e-05 -1.32627e-05
-0.000184986 5.53312e-05 5.55662e-05 -1.49214e-05
-9.28489e-05 2.76731e-05 2.79325e-05 -1.59172e-05
-0.000186197 5.56922e-05 5.59305e-05 -1.49214e-05
-0.000185591 5.55117e-05 5.57483e-05 -1.49214e-05
-0.00027742 8.3085e-05 8.32863e-05 -1.32627e-05
-0.000275604 8.25425e-05 8.27408e-05 -1.32627e-05
-9.19383e-05 2.74036e-05 2.76577e-05 -1.59172e-05
-9.25454e-05 2.75833e-05 2.78409e-05 -1.59172e-05
-0.000276512 8.28137e-05 8.30135e-05 -1.32627e-05
-0.000183774 5.49701e-05 5.52018e-05 -1.49214e-05
-9.22418e-05 2.74935e-05 2.77493e-05 -1.59172e-05
-0.000184986 5.53312e-05 5.55662e-05 -1.49214e-05
-0.00018438 5.51506e-05 5.5384e-05 -1.49214e-05
-0.000275604 8.25425e-05 8.27408e-05 -1.32627e-05
-0.000273789 8.19999e-05 8.21953e-05 -1.32627e-05
-9.13312e-05 2.7224e-05 2.74745e-05 -1.59172e-05
-9.19383e-05 2.74036e-05 2.76577e-05 -1.59172e-05
-0.000274697 8.22712e-05 8.24681e-05 -1.32627e-05
-0.000182563 5.4609e-05 5.48374e-05 -1.49214e-05
-9.16347e-05 2.73138e-05 2.75661e-05 -1.59172e-05
-0.000183774 5.49701e-05 5.52018e-05 -1.49214e-05
-0.000183169 5.47896e-05 5.50196e-05 -1.49214e-05
-0.000273789 8.19999e-05 8.21953e-05 -1.32627e-05
-0.000271974 8.14573e-05 8.16499e-05 -1.32627e-05
-9.07241e-05 2.70443e-05 2.72913e-05 -1.59171e-05
-9.13312e-05 2.7224e-05 2.74745e-05 -1.59172e-05
-0.000272881 8.17286e-05 8.19226e-05 -1.32627e-05
-0.000181352 5.42479e-05 5.44731e-05 -1.49214e-05
-9.10276e-05 2.71342e-05 2.73829e-05 -1.59171e-05
-0.000182563 5.4609e-05 5.48374e-05 -1.49214e-05
-0.000181957 5.44285e-05 5.46552e-05 -1.49214e-05
-0.000271974 8.14573e-05 8.16499e-05 -1.32627e-05
-0.000270158 8.09147e-05 8.11044e-05 -1.32627e-05
-9.0117e-05 2.68646e-05 2.71082e-05 -1.59171e-05
-9.07241e-05 2.70443e-05 2.72913e-05 -1.59171e-05
-0.000271066 8.1186e-05 8.13772e-05 -1.32627e-05
-0.000180141 5.38868e-05 5.41087e-05 -1.49214e-05
-9.04205e-05 2.69545e-05 2.71997e-05 -1.59171e-05
-0.000181352 5.42479e-05 5.44731e-05 -1.49214e-05
-0.000180746 5.40674e-05 5.42909e-05 -1.49214e-05
-0.000270158 8.09147e-05 8.11044e-05 -1.32627e-05
-0.000268343 8.03721e-05 8.0559e-05 -1.32627e-05
-8.951e-05 2.6685e-05 2.6925e-05 -1.59171e-05
-9.0117e-05 2.68646e-05 2.71082e-05 -1.59171e-05
-0.000269251 8.06434e-05 8.08317e-05 -1.32627e-05
-0.000178929 5.35257e-05 5.37444e-05 -1.49214e-05
-8.98135e-05 2.67748e-05 2.70166e-05 -1.59171e-05
-0.000180141 5.38868e-05 5.41087e-05 -1.49214e-05
-0.000179535 5.37063e-05 5.39266e-05 -1.49214e-05
-0.000268343 8.03721e-05 8.0559e-05 -1.32627e-05
-0.000266528 7.98295e-05 8.00136e-05 -1.32627e-05
-8.89029e-05 2.65053e-05 2.67419e-05 -1.59171e-05
-8.951e-05 2.6685e-05 2.6925e-05 -1.59171e-05
-0.000267435 8.01008e-05 8.02863e-05 -1.32627e-05
-0.000177718 5.31646e-05 5.33801e-05 -1.49214e-05
-8.92064e-05 2.65951e-05 2.68334e-05 -1.59171e-05
-0.000178929 5.35257e-05 5.37444e-05 -1.49214e-05
-0.000178324 5.33452e-05 5.35622e-05 -1.49214e-05
-0.000266528 7.98295e-05 8.00136e-05 -1.32627e-05
-0.000264713 7.92868e-05 7.94682e-05 -1.32627e-05
-8.82959e-05 2.63256e-05 2.65587e-05 -1.59171e-05
-8.89029e-05 2.65053e-05 2.67419e-05 -1.59171e-05
-0.00026562 7.95581e-05 7.97409e-05 -1.32627e-05
-0.000176507 5.28035e-05 5.30158e-05 -1.49214e-05
-8.85994e-05 2.64154e-05 2.66503e-05 -1.59171e-05
-0.000177718 5.31646e-05 5.33801e-05 -1.49214e-05
-0.000177113 5.2984e-05 5.31979e-05 -1.49214e-05
-0.000264713 7.92868e-05 7.94682e-05 -1.32627e-05
-0.000262897 7.87442e-05 7.89228e-05 -1.32627e-05
-8.76889e-05 2.61458e-05 2.63756e-05 -1.59171e-05
-8.82959e-05 2.63256e-05 2.65587e-05 -1.59171e-05
-0.000263805 7.90155e-05 7.91955e-05 -1.32627e-05
-0.000175296 5.24423e-05 5.26515e-05 -1.49214e-05
-8.79924e-05 2.62357e-05 2.64672e-05 -1.59171e-05
-0.000176507 5.28035e-05 5.30158e-05 -1.49214e-05
-0.000175901 5.26229e-05 5.28336e-05 -1.49214e-05
-0.000262897 7.87442e-05 7.89228e-05 -1.32627e-05
-0.000261082 7.82016e-05 7.83774e-05 -1.32627e-05
-8.7082e-05 2.59661e-05 2.61925e-05 -1.59171e-05
-8.76889e-05 2.61458e-05 2.63756e-05 -1.59171e-05
-0.00026199 7.84729e-05 7.86501e-05 -1.32627e-05
-0.000174085 5.20812e-05 5.22872e-05 -1.49214e-05
-8.73854e-05 2.6056e-05 2.62841e-05 -1.59171e-05
-0.000175296 5.24423e-05 5.26515e-05 -1.49214e-05
-0.00017469 5.22618e-05 5.24693e-05 -1.49214e-05
-0.000261082 7.82016e-05 7.83774e-05 -1.32627e-05
-0.000259267 7.76589e-05 7.7832e-05 -1.32627e-05
-8.6475e-05 2.57864e-05 2.60094e-05 -1.59171e-05
-8.7082e-05 2.59661e-05 2.61925e-05 -1.59171e-05
-0.000260174 7.79303e-05 7.81047e-05 -1.32627e-05
-0.000172874 5.17201e-05 5.19229e-05 -1.49214e-05
-8.67785e-05 2.58763e-05 2.6101e-05 -1.59171e-05
-0.000174085 5.20812e-05 5.22872e-05 -1.49214e-05
-0.000173479 5.19006e-05 5.21051e-05 -1.49214e-05
-0.000259267 7.76589e-05 7.7832e-05 -1.32627e-05
-0.000257452 7.71163e-05 7.72866e-05 -1.32627e-05
-8.58681e-05 2.56066e-05 2.58263e-05 -1.59171e-05
-8.6475e-05 2.57864e-05 2.60094e-05 -1.59171e-05
-0.000258359 7.73876e-05 7.75593e-05 -1.32627e-05
-0.000171662 5.13589e-05 5.15587e-05 -1.49214e-05
-8.61715e-05 2.56965e-05 2.59179e-05 -1.59171e-05
-0.000172874 5.17201e-05 5.19229e-05 -1.49214e-05
-0.000172268 5.15395e-05 5.17408e-05 -1.49214e-05
-0.000257452 7.71163e-05 7.72866e-05 -1.32627e-05
-0.000255637 7.65736e-05 7.67412e-05 -1.32627e-05
-8.52611e-05 2.54269e-05 2.56433e-05 -1.59171e-05
-8.58681e-05 2.56066e-05 2.58263e-05 -1.59171e-05
-0.000256544 7.6845e-05 7.70139e-05 -1.32627e-05
-0.000170451 5.09977e-05 5.11944e-05 -1.49214e-05
-8.55646e-05 2.55168e-05 2.57348e-05 -1.59171e-05
-0.000171662 5.13589e-05 5.15587e-05 -1.49214e-05
-0.000171057 5.11783e-05 5.13766e-05 -1.49214e-05
-0.000255637 7.65736e-05 7.67412e-05 -1.32627e-05
-0.000253821 7.6031e-05 7.61959e-05 -1.32628e-05
-8.46542e-05 2.52471e-05 2.54602e-05 -1.59171e-05
-8.52611e-05 2.54269e-05 2.56433e-05 -1.59171e-05
-0.000254729 7.63023e-05 7.64686e-05 -1.32628e-05
-0.00016924 5.06365e-05 5.08302e-05 -1.49214e-05
-8.49577e-05 2.5337e-05 2.55517e-05 -1.59171e-05
-0.000170451 5.09977e-05 5.11944e-05 -1.49214e-05
-0.000169846 5.08171e-05 5.10123e-05 -1.49214e-05
-0.000253821 7.6031e-05 7.61959e-05 -1.32628e-05
-0.000252006 7.54883e-05 7.56506e-05 -1.32628e-05
-8.40474e-05 2.50674e-05 2.52771e-05 -1.59171e-05
-8.46542e-05 2.52471e-05 2.54602e-05 -1.59171e-05
-0.000252914 7.57596e-05 7.59232e-05 -1.32628e-05
-0.000168029 5.02754e-05 5.0466e-05 -1.49214e-05
-8.43508e-05 2.51572e-05 2.53687e-05 -1.59171e-05
-0.00016924 5.06365e-05 5.08302e-05 -1.49214e-05
-0.000168635 5.04559e-05 5.06481e-05 -1.49214e-05
-0.000252006 7.54883e-05 7.56506e-05 -1.32628e-05
-0.000250191 7.49456e-05 7.51052e-05 -1.32628e-05
-8.34405e-05 2.48876e-05 2.50941e-05 -1.59171e-05
-8.40474e-05 2.50674e-05 2.52771e-05 -1.59171e-05
-0.000251099 7.52169e-05 7.53779e-05 -1.32628e-05
-0.000166818 4.99142e-05 5.01018e-05 -1.49214e-05
-8.37439e-05 2.49775e-05 2.51856e-05 -1.59171e-05
-0.000168029 5.02754e-05 5.0466e-05 -1.49214e-05
-0.000167424 5.00948e-05 5.02839e-05 -1.49214e-05
-0.000250191 7.49456e-05 7.51052e-05 -1.32628e-05
-0.000248376 7.44029e-05 7.45599e-05 -1.32628e-05
-8.28336e-05 2.47078e-05 2.49111e-05 -1.59171e-05
-8.34405e-05 2.48876e-05 2.50941e-05 -1.59171e-05
-0.000249284 7.46743e-05 7.48326e-05 -1.32628e-05
-0.000165607 4.9553e-05 4.97376e-05 -1.49214e-05
-8.31371e-05 2.47977e-05 2.50026e-05 -1.59171e-05
-0.000166818 4.99142e-05 5.01018e-05 -1.49214e-05
-0.000166213 4.97336e-05 4.99197e-05 -1.49214e-05
-0.000248376 7.44029e-05 7.45599e-05 -1.32628e-05
-0.000246561 7.38602e-05 7.40146e-05 -1.32628e-05
-8.22268e-05 2.4528e-05 2.47281e-05 -1.59171e-05
-8.28336e-05 2.47078e-05 2.49111e-05 -1.59171e-05
-0.000247468 7.41316e-05 7.42872e-05 -1.32628e-05
-0.000164396 4.91917e-05 4.93734e-05 -1.49214e-05
-8.25302e-05 2.46179e-05 2.48196e-05 -1.59171e-05
-0.000165607 4.9553e-05 4.97376e-05 -1.49214e-05
-0.000165002 4.93723e-05 4.95555e-05 -1.49214e-05
-0.000246561 7.38602e-05 7.40146e-05 -1.32628e-05
-0.000244746 7.33175e-05 7.34693e-05 -1.32628e-05
-8.162e-05 2.43482e-05 2.45451e-05 -1.59171e-05
-8.22268e-05 2.4528e-05 2.47281e-05 -1.59171e-05
-0.000245653 7.35889e-05 7.37419e-05 -1.32628e-05
-0.000163185 4.88305e-05 4.90092e-05 -1.49214e-05
-8.19234e-05 2.44381e-05 2.46366e-05 -1.59171e-05
-0.000164396 4.91917e-05 4.93734e-05 -1.49214e-05
-0.000163791 4.90111e-05 4.91913e-05 -1.49214e-05
-0.000244746 7.33175e-05 7.34693e-05 -1.32628e-05
-0.000242931 7.27748e-05 7.2924e-05 -1.32628e-05
-8.10132e-05 2.41683e-05 2.43621e-05 -1.59171e-05
-8.162e-05 2.43482e-05 2.45451e-05 -1.59171e-05
-0.000243838 7.30462e-05 7.31966e-05 -1.32628e-05
-0.000161974 4.84693e-05 4.8645e-05 -1.49215e-05
-8.13166e-05 2.42583e-05 2.44536e-05 -1.59171e-05
-0.000163185 4.88305e-05 4.90092e-05 -1.49214e-05
-0.00016258 4.86499e-05 4.88271e-05 -1.49215e-05
-0.000242931 7.27748e-05 7.2924e-05 -1.32628e-05
-0.000241116 7.22321e-05 7.23787e-05 -1.32628e-05
-8.04064e-05 2.39885e-05 2.41791e-05 -1.59171e-05
-8.10132e-05 2.41683e-05 2.43621e-05 -1.59171e-05
-0.000242023 7.25034e-05 7.26514e-05 -1.32628e-05
-0.000160763 4.8108e-05 4.82809e-05 -1.49215e-05
-8.07098e-05 2.40784e-05 2.42706e-05 -1.59171e-05
-0.000161974 4.84693e-05 4.8645e-05 -1.49215e-05
-0.000161369 4.82887e-05 4.84629e-05 -1.49215e-05
-0.000241116 7.22321e-05 7.23787e-05 -1.32628e-05
-0.000239301 7.16894e-05 7.18335e-05 -1.32628e-05
-7.97997e-05 2.38087e-05 2.39961e-05 -1.59171e-05
-8.04064e-05 2.39885e-05 2.41791e-05 -1.59171e-05
-0.000240208 7.19607e-05 7.21061e-05 -1.32628e-05
-0.000159552 4.77468e-05 4.79167e-05 -1.49215e-05
-8.0103e-05 2.38986e-05 2.40876e-05 -1.59171e-05
-0.000160763 4.8108e-05 4.82809e-05 -1.49215e-05
-0.000160158 4.79274e-05 4.80988e-05 -1.49215e-05
-0.000239301 7.16894e-05 7.18335e-05 -1.32628e-05
-0.000237486 7.11466e-05 7.12882e-05 -1.32628e-05
-7.91929e-05 2.36288e-05 2.38132e-05 -1.59171e-05
-7.97997e-05 2.38087e-05 2.39961e-05 -1.59171e-05
-0.000238393 7.1418e-05 7.15608e-05 -1.32628e-05
-0.000158342 4.73855e-05 4.75526e-05 -1.49215e-05
-7.94963e-05 2.37187e-05 2.39047e-05 -1.59171e-05
-0.000159552 4.77468e-05 4.79167e-05 -1.49215e-05
-0.000158947 4.75662e-05 4.77346e-05 -1.49215e-05
-0.000237486 7.11466e-05 7.12882e-05 -1.32628e-05
-0.000235671 7.06039e-05 7.0743e-05 -1.32628e-05
-7.85862e-05 2.3449e-05 2.36303e-05 -1.59171e-05
-7.91929e-05 2.36288e-05 2.38132e-05 -1.59171e-05
-0.000236578 7.08753e-05 7.10156e-05 -1.32628e-05
-0.000157131 4.70243e-05 4.71885e-05 -1.49215e-05
-7.88896e-05 2.35389e-05 2.37217e-05 -1.59171e-05
-0.000158342 4.73855e-05 4.75526e-05 -1.49215e-05
-0.000157736 4.72049e-05 4.73705e-05 -1.49215e-05
-0.000235671 7.06039e-05 7.0743e-05 -1.32628e-05
-0.000233856 7.00611e-05 7.01977e-05 -1.32628e-05
-7.79795e-05 2.32691e-05 2.34473e-05 -1.5917e-05
-7.85862e-05 2.3449e-05 2.36303e-05 -1.59171e-05
-0.000234763 7.03325e-05 7.04703e-05 -1.32628e-05
-0.00015592 4.6663e-05 4.68243e-05 -1.49215e-05
-7.82829e-05 2.3359e-05 2.35388e-05 -1.59171e-05
-0.000157131 4.70243e-05 4.71885e-05 -1.49215e-05
-0.000156525 4.68436e-05 4.70064e-05 -1.49215e-05
-0.000233856 7.00611e-05 7.01977e-05 -1.32628e-05
-0.000232041 6.95184e-05 6.96525e-05 -1.32628e-05
-7.73728e-05 2.30892e-05 2.32644e-05 -1.5917e-05
-7.79795e-05 2.32691e-05 2.34473e-05 -1.5917e-05
-0.000232948 6.97898e-05 6.99251e-05 -1.32628e-05
-0.000154709 4.63017e-05 4.64603e-05 -1.49215e-05
-7.76762e-05 2.31791e-05 2.33559e-05 -1.5917e-05
-0.00015592 4.6663e-05 4.68243e-05 -1.49215e-05
-0.000155314 4.64823e-05 4.66423e-05 -1.49215e-05
-0.000232041 6.95184e-05 6.96525e-05 -1.32628e-05
-0.000230226 6.89756e-05 6.91073e-05 -1.32628e-05
-7.67662e-05 2.29093e-05 2.30815e-05 -1.5917e-05
-7.73728e-05 2.30892e-05 2.32644e-05 -1.5917e-05
-0.000231133 6.9247e-05 6.93799e-05 -1.32628e-05
-0.000153498 4.59404e-05 4.60962e-05 -1.49215e-05
-7.70695e-05 2.29993e-05 2.3173e-05 -1.5917e-05
-0.000154709 4.63017e-05 4.64603e-05 -1.49215e-05
-0.000154104 4.61211e-05 4.62782e-05 -1.49215e-05
-0.000230226 6.89756e-05 6.91073e-05 -1.32628e-05
-0.000228411 6.84328e-05 6.85621e-05 -1.32628e-05
-7.61595e-05 2.27294e-05 2.28986e-05 -1.5917e-05
-7.67662e-05 2.29093e-05 2.30815e-05 -1.5917e-05
-0.000229318 6.87042e-05 6.88347e-05 -1.32628e-05
-0.000152287 4.55791e-05 4.57321e-05 -1.49215e-05
-7.64628e-05 2.28194e-05 2.29901e-05 -1.5917e-05
-0.000153498 4.59404e-05 4.60962e-05 -1.49215e-05
-0.000152893 4.57598e-05 4.59141e-05 -1.49215e-05
-0.000228411 6.84328e-05 6.85621e-05 -1.32628e-05
-0.000226596 6.78901e-05 6.80169e-05 -1.32629e-05
-7.55529e-05 2.25495e-05 2.27157e-05 -1.5917e-05
-7.61595e-05 2.27294e-05 2.28986e-05 -1.5917e-05
-0.000227504 6.81615e-05 6.82895e-05 -1.32628e-05
-0.000151077 4.52178e-05 4.5368e-05 -1.49215e-05
-7.58562e-05 2.26394e-05 2.28072e-05 -1.5917e-05
-0.000152287 4.55791e-05 4.57321e-05 -1.49215e-05
-0.000151682 4.53984e-05 4.55501e-05 -1.49215e-05
-0.000226596 6.78901e-05 6.80169e-05 -1.32629e-05
-0.000224781 6.73473e-05 6.74717e-05 -1.32629e-05
-7.49463e-05 2.23696e-05 2.25329e-05 -1.5917e-05
-7.55529e-05 2.25495e-05 2.27157e-05 -1.5917e-05
-0.000225689 6.76187e-05 6.77443e-05 -1.32629e-05
-0.000149866 4.48565e-05 4.5004e-05 -1.49215e-05
-7.52496e-05 2.24595e-05 2.26243e-05 -1.5917e-05
-0.000151077 4.52178e-05 4.5368e-05 -1.49215e-05
-0.000150471 4.50371e-05 4.5186e-05 -1.49215e-05
-0.000224781 6.73473e-05 6.74717e-05 -1.32629e-05
-0.000222966 6.68045e-05 6.69265e-05 -1.32629e-05
-7.43397e-05 2.21896e-05 2.235e-05 -1.5917e-05
-7.49463e-05 2.23696e-05 2.25329e-05 -1.5917e-05
-0.000223874 6.70759e-05 6.71991e-05 -1.32629e-05
-0.000148655 4.44951e-05 4.46399e-05 -1.49215e-05
-7.4643e-05 2.22796e-05 2.24414e-05 -1.5917e-05
-0.000149866 4.48565e-05 4.5004e-05 -1.49215e-05
-0.00014926 4.46758e-05 4.4822e-05 -1.49215e-05
-0.000222966 6.68045e-05 6.69265e-05 -1.32629e-05
-0.000221152 6.62617e-05 6.63814e-05 -1.32629e-05
-7.37331e-05 2.20097e-05 2.21672e-05 -1.5917e-05
-7.43397e-05 2.21896e-05 2.235e-05 -1.5917e-05
-0.000222059 6.65331e-05 6.6654e-05 -1.32629e-05
-0.000147444 4.41338e-05 4.42759e-05 -1.49215e-05
-7.40364e-05 2.20997e-05 2.22586e-05 -1.5917e-05
-0.000148655 4.44951e-05 4.46399e-05 -1.49215e-05
-0.00014805 4.43145e-05 4.44579e-05 -1.49215e-05
-0.000221152 6.62617e-05 6.63814e-05 -1.32629e-05
-0.000219337 6.57189e-05 6.58362e-05 -1.32629e-05
-7.31266e-05 2.18297e-05 2.19844e-05 -1.5917e-05
-7.37331e-05 2.20097e-05 2.21672e-05 -1.5917e-05
-0.000220244 6.59903e-05 6.61088e-05 -1.32629e-05
-0.000146234 4.37724e-05 4.39119e-05 -1.49215e-05
-7.34298e-05 2.19197e-05 2.20758e-05 -1.5917e-05
-0.000147444 4.41338e-05 4.42759e-05 -1.49215e-05
-0.000146839 4.39531e-05 4.40939e-05 -1.49215e-05
-0.000219337 6.57189e-05 6.58362e-05 -1.32629e-05
-0.000217522 6.5176e-05 6.52911e-05 -1.32629e-05
-7.252e-05 2.16498e-05 2.18015e-05 -1.5917e-05
-7.31266e-05 2.18297e-05 2.19844e-05 -1.5917e-05
-0.000218429 6.54475e-05 6.55637e-05 -1.32629e-05
-0.000145023 4.34111e-05 4.35479e-05 -1.49215e-05
-7.28233e-05 2.17398e-05 2.18929e-05 -1.5917e-05
-0.000146234 4.37724e-05 4.39119e-05 -1.49215e-05
-0.000145628 4.35918e-05 4.37299e-05 -1.49215e-05
-0.000217522 6.5176e-05 6.52911e-05 -1.32629e-05
-0.000215707 6.46332e-05 6.4746e-05 -1.32629e-05
-7.19135e-05 2.14698e-05 2.16187e-05 -1.5917e-05
-7.252e-05 2.16498e-05 2.18015e-05 -1.5917e-05
-0.000216615 6.49046e-05 6.50185e-05 -1.32629e-05
-0.000143812 4.30497e-05 4.31839e-05 -1.49215e-05
-7.22168e-05 2.15598e-05 2.17101e-05 -1.5917e-05
-0.000145023 4.34111e-05 4.35479e-05 -1.49215e-05
-0.000144417 4.32304e-05 4.33659e-05 -1.49215e-05
-0.000215707 6.46332e-05 6.4746e-05 -1.32629e-05
-0.000213892 6.40904e-05 6.42008e-05 -1.32629e-05
-7.1307e-05 2.12898e-05 2.14359e-05 -1.5917e-05
-7.19135e-05 2.14698e-05 2.16187e-05 -1.5917e-05
-0.0002148 6.43618e-05 6.44734e-05 -1.32629e-05
-0.000142601 4.26883e-05 4.28199e-05 -1.49215e-05
-7.16103e-05 2.13798e-05 2.15273e-05 -1.5917e-05
-0.000143812 4.30497e-05 4.31839e-05 -1.49215e-05
-0.000143207 4.2869e-05 4.30019e-05 -1.49215e-05
-0.000213892 6.40904e-05 6.42008e-05 -1.32629e-05
-0.000212078 6.35475e-05 6.36557e-05 -1.32629e-05
-7.07005e-05 2.11098e-05 2.12532e-05 -1.5917e-05
-7.1307e-05 2.12898e-05 2.14359e-05 -1.5917e-05
-0.000212985 6.3819e-05 6.39283e-05 -1.32629e-05
-0.000141391 4.23269e-05 4.24559e-05 -1.49215e-05
-7.10038e-05 2.11998e-05 2.13445e-05 -1.5917e-05
-0.000142601 4.26883e-05 4.28199e-05 -1.49215e-05
-0.000141996 4.25076e-05 4.26379e-05 -1.49215e-05
-0.000212078 6.35475e-05 6.36557e-05 -1.32629e-05
-0.000210263 6.30047e-05 6.31106e-05 -1.32629e-05
-7.00941e-05 2.09298e-05 2.10704e-05 -1.5917e-05
-7.07005e-05 2.11098e-05 2.12532e-05 -1.5917e-05
-0.00021117 6.32761e-05 6.33832e-05 -1.32629e-05
-0.00014018 4.19655e-05 4.2092e-05 -1.49215e-05
-7.03973e-05 2.10198e-05 2.11618e-05 -1.5917e-05
-0.000141391 4.23269e-05 4.24559e-05 -1.49215e-05
-0.000140786 4.21462e-05 4.2274e-05 -1.49215e-05
-0.000210263 6.30047e-05 6.31106e-05 -1.32629e-05
-0.000208448 6.24618e-05 6.25656e-05 -1.32629e-05
-6.94876e-05 2.07498e-05 2.08876e-05 -1.5917e-05
-7.00941e-05 2.09298e-05 2.10704e-05 -1.5917e-05
-0.000209355 6.27333e-05 6.28381e-05 -1.32629e-05
-0.00013897 4.16041e-05 4.1728e-05 -1.49215e-05
-6.97908e-05 2.08398e-05 2.0979e-05 -1.5917e-05
-0.00014018 4.19655e-05 4.2092e-05 -1.49215e-05
-0.000139575 4.17848e-05 4.191e-05 -1.49215e-05
-0.000208448 6.24618e-05 6.25656e-05 -1.32629e-05
-0.000206633 6.1919e-05 6.20205e-05 -1.32629e-05
-6.88812e-05 2.05698e-05 2.07049e-05 -1.5917e-05
-6.94876e-05 2.07498e-05 2.08876e-05 -1.5917e-05
-0.000207541 6.21904e-05 6.2293e-05 -1.32629e-05
-0.000137759 4.12427e-05 4.13641e-05 -1.49215e-05
-6.91844e-05 2.06598e-05 2.07963e-05 -1.5917e-05
-0.00013897 4.16041e-05 4.1728e-05 -1.49215e-05
-0.000138364 4.14234e-05 4.15461e-05 -1.49215e-05
-0.000206633 6.1919e-05 6.20205e-05 -1.32629e-05
-0.000204819 6.13761e-05 6.14754e-05 -1.32629e-05
-6.82748e-05 2.03897e-05 2.05222e-05 -1.5917e-05
-6.88812e-05 2.05698e-05 2.07049e-05 -1.5917e-05
-0.000205726 6.16475e-05 6.1748e-05 -1.32629e-05
-0.000136548 4.08813e-05 4.10002e-05 -1.49215e-05
-6.8578e-05 2.04798e-05 2.06135e-05 -1.5917e-05
-0.000137759 4.12427e-05 4.13641e-05 -1.49215e-05
-0.000137154 4.1062e-05 4.11822e-05 -1.49215e-05
-0.000204819 6.13761e-05 6.14754e-05 -1.32629e-05
-0.000203004 6.08332e-05 6.09304e-05 -1.32629e-05
-6.76684e-05 2.02097e-05 2.03394e-05 -1.5917e-05
-6.82748e-05 2.03897e-05 2.05222e-05 -1.5917e-05
-0.000203911 6.11047e-05 6.12029e-05 -1.32629e-05
-0.000135338 4.05199e-05 4.06363e-05 -1.49215e-05
-6.79716e-05 2.02997e-05 2.04308e-05 -1.5917e-05
-0.000136548 4.08813e-05 4.10002e-05 -1.49215e-05
-0.000135943 4.07006e-05 4.08182e-05 -1.49215e-05
-0.000203004 6.08332e-05 6.09304e-05 -1.32629e-05
-0.000201189 6.02903e-05 6.03853e-05 -1.32629e-05
-6.7062e-05 2.00296e-05 2.01567e-05 -1.59169e-05
-6.76684e-05 2.02097e-05 2.03394e-05 -1.5917e-05
-0.000202097 6.05618e-05 6.06579e-05 -1.32629e-05
-0.000134127 4.01584e-05 4.02724e-05 -1.49215e-05
-6.73652e-05 2.01197e-05 2.02481e-05 -1.59169e-05
-0.000135338 4.05199e-05 4.06363e-05 -1.49215e-05
-0.000134733 4.03391e-05 4.04543e-05 -1.49215e-05
-0.000201189 6.02903e-05 6.03853e-05 -1.32629e-05
-0.000199375 5.97474e-05 5.98403e-05 -1.32629e-05
-6.64557e-05 1.98496e-05 1.9974e-05 -1.59169e-05
-6.7062e-05 2.00296e-05 2.01567e-05 -1.59169e-05
-0.000200282 6.00189e-05 6.01128e-05 -1.32629e-05
-0.000132917 3.9797e-05 3.99085e-05 -1.49215e-05
-6.67589e-05 1.99396e-05 2.00654e-05 -1.59169e-05
-0.000134127 4.01584e-05 4.02724e-05 -1.49215e-05
-0.000133522 3.99777e-05 4.00904e-05 -1.49215e-05
-0.000199375 5.97474e-05 5.98403e-05 -1.32629e-05
-0.00019756 5.92045e-05 5.92953e-05 -1.32629e-05
-6.58494e-05 1.96695e-05 1.97914e-05 -1.59169e-05
-6.64557e-05 1.98496e-05 1.9974e-05 -1.59169e-05
-0.000198467 5.9476e-05 5.95678e-05 -1.32629e-05
-0.000131706 3.94355e-05 3.95446e-05 -1.49215e-05
-6.61525e-05 1.97595e-05 1.98827e-05 -1.59169e-05
-0.000132917 3.9797e-05 3.99085e-05 -1.49215e-05
-0.000132312 3.96162e-05 3.97266e-05 -1.49215e-05
-0.00019756 5.92045e-05 5.92953e-05 -1.32629e-05
-0.000195746 5.86616e-05 5.87503e-05 -1.3263e-05
-6.5243e-05 1.94894e-05 1.96087e-05 -1.59169e-05
-6.58494e-05 1.96695e-05 1.97914e-05 -1.59169e-05
-0.000196653 5.89331e-05 5.90228e-05 -1.32629e-05
-0.000130496 3.9074e-05 3.91808e-05 -1.49215e-05
-6.55462e-05 1.95795e-05 1.97e-05 -1.59169e-05
-0.000131706 3.94355e-05 3.95446e-05 -1.49215e-05
-0.000131101 3.92548e-05 3.93627e-05 -1.49215e-05
-0.000195746 5.86616e-05 5.87503e-05 -1.3263e-05
-0.000193931 5.81187e-05 5.82053e-05 -1.3263e-05
-6.46368e-05 1.93093e-05 1.9426e-05 -1.59169e-05
-6.5243e-05 1.94894e-05 1.96087e-05 -1.59169e-05
-0.000194838 5.83901e-05 5.84778e-05 -1.3263e-05
-0.000129285 3.87125e-05 3.88169e-05 -1.49215e-05
-6.49399e-05 1.93994e-05 1.95174e-05 -1.59169e-05
-0.000130496 3.9074e-05 3.91808e-05 -1.49215e-05
-0.000129891 3.88933e-05 3.89988e-05 -1.49215e-05
-0.000193931 5.81187e-05 5.82053e-05 -1.3263e-05
-0.000192116 5.75757e-05 5.76603e-05 -1.3263e-05
-6.40305e-05 1.91292e-05 1.92434e-05 -1.59169e-05
-6.46368e-05 1.93093e-05 1.9426e-05 -1.59169e-05
-0.000193024 5.78472e-05 5.79328e-05 -1.3263e-05
-0.000128075 3.8351e-05 3.84531e-05 -1.49215e-05
-6.43336e-05 1.92193e-05 1.93347e-05 -1.59169e-05
-0.000129285 3.87125e-05 3.88169e-05 -1.49215e-05
-0.00012868 3.85318e-05 3.8635e-05 -1.49215e-05
-0.000192116 5.75757e-05 5.76603e-05 -1.3263e-05
-0.000190302 5.70328e-05 5.71153e-05 -1.3263e-05
-6.34242e-05 1.89491e-05 1.90608e-05 -1.59169e-05
-6.40305e-05 1.91292e-05 1.92434e-05 -1.59169e-05
-0.000191209 5.73043e-05 5.73878e-05 -1.3263e-05
-0.000126864 3.79895e-05 3.80893e-05 -1.49215e-05
-6.37274e-05 1.90392e-05 1.91521e-05 -1.59169e-05
-0.000128075 3.8351e-05 3.84531e-05 -1.49215e-05
-0.00012747 3.81703e-05 3.82712e-05 -1.49215e-05
-0.000190302 5.70328e-05 5.71153e-05 -1.3263e-05
-0.000188487 5.64899e-05 5.65704e-05 -1.3263e-05
-6.2818e-05 1.8769e-05 1.88782e-05 -1.59169e-05
-6.34242e-05 1.89491e-05 1.90608e-05 -1.59169e-05
-0.000189395 5.67613e-05 5.68428e-05 -1.3263e-05
-0.000125654 3.7628e-05 3.77254e-05 -1.49215e-05
-6.31211e-05 1.8859e-05 1.89695e-05 -1.59169e-05
-0.000126864 3.79895e-05 3.80893e-05 -1.49215e-05
-0.000126259 3.78088e-05 3.79074e-05 -1.49215e-05
-0.000188487 5.64899e-05 5.65704e-05 -1.3263e-05
-0.000186673 5.59469e-05 5.60254e-05 -1.3263e-05
-6.22118e-05 1.85888e-05 1.86955e-05 -1.59169e-05
-6.2818e-05 1.8769e-05 1.88782e-05 -1.59169e-05
-0.00018758 5.62184e-05 5.62979e-05 -1.3263e-05
-0.000124444 3.72665e-05 3.73616e-05 -1.49215e-05
-6.25149e-05 1.86789e-05 1.87869e-05 -1.59169e-05
-0.000125654 3.7628e-05 3.77254e-05 -1.49215e-05
-0.000125049 3.74473e-05 3.75435e-05 -1.49215e-05
-0.000186673 5.59469e-05 5.60254e-05 -1.3263e-05
-0.000184858 5.54039e-05 5.54805e-05 -1.3263e-05
-6.16056e-05 1.84087e-05 1.8513e-05 -1.59169e-05
-6.22118e-05 1.85888e-05 1.86955e-05 -1.59169e-05
-0.000185766 5.56754e-05 5.57529e-05 -1.3263e-05
-0.000123233 3.6905e-05 3.69979e-05 -1.49215e-05
-6.19087e-05 1.84988e-05 1.86043e-05 -1.59169e-05
-0.000124444 3.72665e-05 3.73616e-05 -1.49215e-05
-0.000123838 3.70857e-05 3.71797e-05 -1.49215e-05
-0.000184858 5.54039e-05 5.54805e-05 -1.3263e-05
-0.000183044 5.4861e-05 5.49355e-05 -1.3263e-05
-6.09994e-05 1.82285e-05 1.83304e-05 -1.59169e-05
-6.16056e-05 1.84087e-05 1.8513e-05 -1.59169e-05
-0.000183951 5.51324e-05 5.5208e-05 -1.3263e-05
-0.000122023 3.65434e-05 3.66341e-05 -1.49215e-05
-6.13025e-05 1.83186e-05 1.84217e-05 -1.59169e-05
-0.000123233 3.6905e-05 3.69979e-05 -1.49215e-05
-0.000122628 3.67242e-05 3.6816e-05 -1.49215e-05
-0.000183044 5.4861e-05 5.49355e-05 -1.3263e-05
-0.000181229 5.4318e-05 5.43906e-05 -1.3263e-05
-6.03932e-05 1.80483e-05 1.81478e-05 -1.59169e-05
-6.09994e-05 1.82285e-05 1.83304e-05 -1.59169e-05
-0.000182137 5.45895e-05 5.46631e-05 -1.3263e-05
-0.000120813 3.61819e-05 3.62703e-05 -1.49215e-05
-6.06963e-05 1.81384e-05 1.82391e-05 -1.59169e-05
-0.000122023 3.65434e-05 3.66341e-05 -1.49215e-05
-0.000121418 3.63627e-05 3.64522e-05 -1.49215e-05
-0.000181229 5.4318e-05 5.43906e-05 -1.3263e-05
-0.000179415 5.3775e-05 5.38457e-05 -1.3263e-05
-5.97871e-05 1.78682e-05 1.79653e-05 -1.59169e-05
-6.03932e-05 1.80483e-05 1.81478e-05 -1.59169e-05
-0.000180322 5.40465e-05 5.41182e-05 -1.3263e-05
-0.000119602 3.58203e-05 3.59066e-05 -1.49215e-05
-6.00902e-05 1.79583e-05 1.80565e-05 -1.59169e-05
-0.000120813 3.61819e-05 3.62703e-05 -1.49215e-05
-0.000120207 3.60011e-05 3.60884e-05 -1.49215e-05
-0.000179415 5.3775e-05 5.38457e-05 -1.3263e-05
-0.000177601 5.3232e-05 5.33008e-05 -1.3263e-05
-5.9181e-05 1.7688e-05 1.77827e-05 -1.59169e-05
-5.97871e-05 1.78682e-05 1.79653e-05 -1.59169e-05
-0.000178508 5.35035e-05 5.35733e-05 -1.3263e-05
-0.000118392 3.54588e-05 3.55428e-05 -1.49215e-05
-5.9484e-05 1.77781e-05 1.7874e-05 -1.59169e-05
-0.000119602 3.58203e-05 3.59066e-05 -1.49215e-05
-0.000118997 3.56395e-05 3.57247e-05 -1.49215e-05
-0.000177601 5.3232e-05 5.33008e-05 -1.3263e-05
-0.000175786 5.2689e-05 5.27559e-05 -1.3263e-05
-5.85749e-05 1.75078e-05 1.76002e-05 -1.59169e-05
-5.9181e-05 1.7688e-05 1.77827e-05 -1.59169e-05
-0.000176693 5.29605e-05 5.30284e-05 -1.3263e-05
-0.000117182 3.50972e-05 3.51791e-05 -1.49215e-05
-5.88779e-05 1.75979e-05 1.76914e-05 -1.59169e-05
-0.000118392 3.54588e-05 3.55428e-05 -1.49215e-05
-0.000117787 3.5278e-05 3.5361e-05 -1.49215e-05
-0.000175786 5.2689e-05 5.27559e-05 -1.3263e-05
-0.000173972 5.2146e-05 5.22111e-05 -1.3263e-05
-5.79688e-05 1.73276e-05 1.74177e-05 -1.59169e-05
-5.85749e-05 1.75078e-05 1.76002e-05 -1.59169e-05
-0.000174879 5.24175e-05 5.24835e-05 -1.3263e-05
-0.000115971 3.47356e-05 3.48154e-05 -1.49215e-05
-5.82718e-05 1.74177e-05 1.75089e-05 -1.59169e-05
-0.000117182 3.50972e-05 3.51791e-05 -1.49215e-05
-0.000116577 3.49164e-05 3.49972e-05 -1.49215e-05
-0.000173972 5.2146e-05 5.22111e-05 -1.3263e-05
-0.000172157 5.1603e-05 5.16662e-05 -1.3263e-05
-5.73627e-05 1.71473e-05 1.72352e-05 -1.59169e-05
-5.79688e-05 1.73276e-05 1.74177e-05 -1.59169e-05
-0.000173065 5.18745e-05 5.19386e-05 -1.3263e-05
-0.000114761 3.4374e-05 3.44517e-05 -1.49215e-05
-5.76657e-05 1.72374e-05 1.73264e-05 -1.59169e-05
-0.000115971 3.47356e-05 3.48154e-05 -1.49215e-05
-0.000115366 3.45548e-05 3.46335e-05 -1.49215e-05
-0.000172157 5.1603e-05 5.16662e-05 -1.3263e-05
-0.000170343 5.10599e-05 5.11214e-05 -1.3263e-05
-5.67567e-05 1.69671e-05 1.70527e-05 -1.59169e-05
-5.73627e-05 1.71473e-05 1.72352e-05 -1.59169e-05
-0.00017125 5.13314e-05 5.13938e-05 -1.3263e-05
-0.000113551 3.40124e-05 3.4088e-05 -1.49215e-05
-5.70597e-05 1.70572e-05 1.71439e-05 -1.59169e-05
-0.000114761 3.4374e-05 3.44517e-05 -1.49215e-05
-0.000114156 3.41932e-05 3.42698e-05 -1.49215e-05
-0.000170343 5.10599e-05 5.11214e-05 -1.3263e-05
-0.000168529 5.05169e-05 5.05765e-05 -1.3263e-05
-5.61506e-05 1.67868e-05 1.68702e-05 -1.59168e-05
-5.67567e-05 1.69671e-05 1.70527e-05 -1.59169e-05
-0.000169436 5.07884e-05 5.08489e-05 -1.3263e-05
-0.000112341 3.36508e-05 3.37243e-05 -1.49215e-05
-5.64537e-05 1.6877e-05 1.69614e-05 -1.59168e-05
-0.000113551 3.40124e-05 3.4088e-05 -1.49215e-05
-0.000112946 3.38316e-05 3.39061e-05 -1.49215e-05
-0.000168529 5.05169e-05 5.05765e-05 -1.3263e-05
-0.000166714 4.99738e-05 5.00317e-05 -1.32631e-05
-5.55446e-05 1.66066e-05 1.66877e-05 -1.59168e-05
-5.61506e-05 1.67868e-05 1.68702e-05 -1.59168e-05
-0.000167622 5.02454e-05 5.03041e-05 -1.3263e-05
-0.000111131 3.32891e-05 3.33606e-05 -1.49215e-05
-5.58476e-05 1.66967e-05 1.6779e-05 -1.59168e-05
-0.000112341 3.36508e-05 3.37243e-05 -1.49215e-05
-0.000111736 3.347e-05 3.35425e-05 -1.49215e-05
-0.000166714 4.99738e-05 5.00317e-05 -1.32631e-05
-0.0001649 4.94308e-05 4.94869e-05 -1.32631e-05
-5.49386e-05 1.64263e-05 1.65053e-05 -1.59168e-05
-5.55446e-05 1.66066e-05 1.66877e-05 -1.59168e-05
-0.000165807 4.97023e-05 4.97593e-05 -1.32631e-05
-0.00010992 3.29275e-05 3.2997e-05 -1.49215e-05
-5.52416e-05 1.65165e-05 1.65965e-05 -1.59168e-05
-0.000111131 3.32891e-05 3.33606e-05 -1.49215e-05
-0.000110526 3.31083e-05 3.31788e-05 -1.49215e-05
-0.0001649 4.94308e-05 4.94869e-05 -1.32631e-05
-0.000163086 4.88877e-05 4.89421e-05 -1.32631e-05
-5.43327e-05 1.6246e-05 1.63228e-05 -1.59168e-05
-5.49386e-05 1.64263e-05 1.65053e-05 -1.59168e-05
-0.000163993 4.91592e-05 4.92145e-05 -1.32631e-05
-0.00010871 3.25659e-05 3.26333e-05 -1.49215e-05
-5.46357e-05 1.63362e-05 1.64141e-05 -1.59168e-05
-0.00010992 3.29275e-05 3.2997e-05 -1.49215e-05
-0.000109315 3.27467e-05 3.28152e-05 -1.49215e-05
-0.000163086 4.88877e-05 4.89421e-05 -1.32631e-05
-0.000161272 4.83446e-05 4.83973e-05 -1.32631e-05
-5.37267e-05 1.60658e-05 1.61404e-05 -1.59168e-05
-5.43327e-05 1.6246e-05 1.63228e-05 -1.59168e-05
-0.000162179 4.86162e-05 4.86697e-05 -1.32631e-05
-0.0001075 3.22042e-05 3.22697e-05 -1.49215e-05
-5.40297e-05 1.61559e-05 1.62316e-05 -1.59168e-05
-0.00010871 3.25659e-05 3.26333e-05 -1.49215e-05
-0.000108105 3.2385e-05 3.24515e-05 -1.49215e-05
-0.000161272 4.83446e-05 4.83973e-05 -1.32631e-05
-0.000159457 4.78016e-05 4.78525e-05 -1.32631e-05
-5.31208e-05 1.58855e-05 1.5958e-05 -1.59168e-05
-5.37267e-05 1.60658e-05 1.61404e-05 -1.59168e-05
-0.000160364 4.80731e-05 4.81249e-05 -1.32631e-05
-0.00010629 3.18425e-05 3.19061e-05 -1.49215e-05
-5.34238e-05 1.59756e-05 1.60492e-05 -1.59168e-05
-0.0001075 3.22042e-05 3.22697e-05 -1.49215e-05
-0.000106895 3.20234e-05 3.20879e-05 -1.49215e-05
-0.000159457 4.78016e-05 4.78525e-05 -1.32631e-05
-0.000157643 4.72585e-05 4.73077e-05 -1.32631e-05
-5.25149e-05 1.57052e-05 1.57756e-05 -1.59168e-05
-5.31208e-05 1.58855e-05 1.5958e-05 -1.59168e-05
-0.00015855 4.753e-05 4.75801e-05 -1.32631e-05
-0.00010508 3.14808e-05 3.15425e-05 -1.49215e-05
-5.28178e-05 1.57953e-05 1.58668e-05 -1.59168e-05
-0.00010629 3.18425e-05 3.19061e-05 -1.49215e-05
-0.000105685 3.16617e-05 3.17243e-05 -1.49215e-05
-0.000157643 4.72585e-05 4.73077e-05 -1.32631e-05
-0.000155829 4.67154e-05 4.6763e-05 -1.32631e-05
-5.1909e-05 1.55248e-05 1.55932e-05 -1.59168e-05
-5.25149e-05 1.57052e-05 1.57756e-05 -1.59168e-05
-0.000156736 4.69869e-05 4.70353e-05 -1.32631e-05
-0.00010387 3.11192e-05 3.11789e-05 -1.49215e-05
-5.22119e-05 1.5615e-05 1.56844e-05 -1.59168e-05
-0.00010508 3.14808e-05 3.15425e-05 -1.49215e-05
-0.000104475 3.13e-05 3.13607e-05 -1.49215e-05
-0.000155829 4.67154e-05 4.6763e-05 -1.32631e-05
-0.000154015 4.61723e-05 4.62182e-05 -1.32631e-05
-5.13031e-05 1.53445e-05 1.54108e-05 -1.59168e-05
-5.1909e-05 1.55248e-05 1.55932e-05 -1.59168e-05
-0.000154922 4.64438e-05 4.64906e-05 -1.32631e-05
-0.00010266 3.07575e-05 3.08153e-05 -1.49215e-05
-5.1606e-05 1.54347e-05 1.5502e-05 -1.59168e-05
-0.00010387 3.11192e-05 3.11789e-05 -1.49215e-05
-0.000103265 3.09383e-05 3.09971e-05 -1.49215e-05
-0.000154015 4.61723e-05 4.62182e-05 -1.32631e-05
-0.000152201 4.56292e-05 4.56735e-05 -1.32631e-05
-5.06972e-05 1.51642e-05 1.52285e-05 -1.59168e-05
-5.13031e-05 1.53445e-05 1.54108e-05 -1.59168e-05
-0.000153108 4.59007e-05 4.59458e-05 -1.32631e-05
-0.00010145 3.03958e-05 3.04517e-05 -1.49215e-05
-5.10002e-05 1.52543e-05 1.53196e-05 -1.59168e-05
-0.00010266 3.07575e-05 3.08153e-05 -1.49215e-05
-0.000102055 3.05766e-05 3.06335e-05 -1.49215e-05
-0.000152201 4.56292e-05 4.56735e-05 -1.32631e-05
-0.000150386 4.5086e-05 4.51287e-05 -1.32631e-05
-5.00914e-05 1.49838e-05 1.50461e-05 -1.59168e-05
-5.06972e-05 1.51642e-05 1.52285e-05 -1.59168e-05
-0.000151293 4.53576e-05 4.54011e-05 -1.32631e-05
-0.00010024 3.0034e-05 3.00882e-05 -1.49215e-05
-5.03943e-05 1.5074e-05 1.51373e-05 -1.59168e-05
-0.00010145 3.03958e-05 3.04517e-05 -1.49215e-05
-0.000100845 3.02149e-05 3.027e-05 -1.49215e-05
-0.000150386 4.5086e-05 4.51287e-05 -1.32631e-05
-0.000148572 4.45429e-05 4.4584e-05 -1.32631e-05
-4.94856e-05 1.48034e-05 1.48638e-05 -1.59168e-05
-5.00914e-05 1.49838e-05 1.50461e-05 -1.59168e-05
-0.000149479 4.48145e-05 4.48564e-05 -1.32631e-05
-9.90298e-05 2.96723e-05 2.97246e-05 -1.49215e-05
-4.97885e-05 1.48936e-05 1.49549e-05 -1.59168e-05
-0.00010024 3.0034e-05 3.00882e-05 -1.49215e-05
-9.96348e-05 2.98532e-05 2.99064e-05 -1.49215e-05
-0.000148572 4.45429e-05 4.4584e-05 -1.32631e-05
-0.000146758 4.39998e-05 4.40393e-05 -1.32631e-05
-4.88798e-05 1.46231e-05 1.46815e-05 -1.59168e-05
-4.94856e-05 1.48034e-05 1.48638e-05 -1.59168e-05
-0.000147665 4.42713e-05 4.43117e-05 -1.32631e-05
-9.78198e-05 2.93106e-05 2.93611e-05 -1.49215e-05
-4.91827e-05 1.47133e-05 1.47726e-05 -1.59168e-05
-9.90298e-05 2.96723e-05 2.97246e-05 -1.49215e-05
-9.84248e-05 2.94914e-05 2.95429e-05 -1.49215e-05
-0.000146758 4.39998e-05 4.40393e-05 -1.32631e-05
-0.000144944 4.34566e-05 4.34946e-05 -1.32631e-05
-4.8274e-05 1.44427e-05 1.44991e-05 -1.59168e-05
-4.88798e-05 1.46231e-05 1.46815e-05 -1.59168e-05
-0.000145851 4.37282e-05 4.3767e-05 -1.32631e-05
-9.66099e-05 2.89488e-05 2.89976e-05 -1.49215e-05
-4.85769e-05 1.45329e-05 1.45903e-05 -1.59168e-05
-9.78198e-05 2.93106e-05 2.93611e-05 -1.49215e-05
-9.72149e-05 2.91297e-05 2.91794e-05 -1.49215e-05
-0.000144944 4.34566e-05 4.34946e-05 -1.32631e-05
-0.00014313 4.29134e-05 4.295e-05 -1.32631e-05
-4.76683e-05 1.42623e-05 1.43168e-05 -1.59168e-05
-4.8274e-05 1.44427e-05 1.44991e-05 -1.59168e-05
-0.000144037 4.3185e-05 4.32223e-05 -1.32631e-05
-9.53999e-05 2.85871e-05 2.86341e-05 -1.49215e-05
-4.79711e-05 1.43525e-05 1.4408e-05 -1.59168e-05
-9.66099e-05 2.89488e-05 2.89976e-05 -1.49215e-05
-9.60049e-05 2.87679e-05 2.88158e-05 -1.49215e-05
-0.00014313 4.29134e-05 4.295e-05 -1.32631e-05
-0.000141316 4.23703e-05 4.24053e-05 -1.32631e-05
-4.70625e-05 1.40819e-05 1.41346e-05 -1.59168e-05
-4.76683e-05 1.42623e-05 1.43168e-05 -1.59168e-05
-0.000142223 4.26419e-05 4.26776e-05 -1.32631e-05
-9.419e-05 2.82253e-05 2.82706e-05 -1.49215e-05
-4.73654e-05 1.41721e-05 1.42257e-05 -1.59168e-05
-9.53999e-05 2.85871e-05 2.86341e-05 -1.49215e-05
-9.4795e-05 2.84062e-05 2.84523e-05 -1.49215e-05
-0.000141316 4.23703e-05 4.24053e-05 -1.32631e-05
-0.000139502 4.18271e-05 4.18606e-05 -1.32632e-05
-4.64568e-05 1.39015e-05 1.39523e-05 -1.59168e-05
-4.70625e-05 1.40819e-05 1.41346e-05 -1.59168e-05
-0.000140409 4.20987e-05 4.2133e-05 -1.32632e-05
-9.29801e-05 2.78635e-05 2.79071e-05 -1.49215e-05
-4.67597e-05 1.39917e-05 1.40434e-05 -1.59168e-05
-9.419e-05 2.82253e-05 2.82706e-05 -1.49215e-05
-9.35851e-05 2.80444e-05 2.80888e-05 -1.49215e-05
-0.000139502 4.18271e-05 4.18606e-05 -1.32632e-05
-0.000137688 4.12839e-05 4.1316e-05 -1.32632e-05
-4.58511e-05 1.3721e-05 1.377e-05 -1.59168e-05
-4.64568e-05 1.39015e-05 1.39523e-05 -1.59168e-05
-0.000138595 4.15555e-05 4.15883e-05 -1.32632e-05
-9.17702e-05 2.75017e-05 2.75436e-05 -1.49215e-05
-4.61539e-05 1.38112e-05 1.38612e-05 -1.59168e-05
-9.29801e-05 2.78635e-05 2.79071e-05 -1.49215e-05
-9.23752e-05 2.76826e-05 2.77254e-05 -1.49215e-05
-0.000137688 4.12839e-05 4.1316e-05 -1.32632e-05
-0.000135874 4.07407e-05 4.07713e-05 -1.32632e-05
-4.52454e-05 1.35406e-05 1.35878e-05 -1.59168e-05
-4.58511e-05 1.3721e-05 1.377e-05 -1.59168e-05
-0.000136781 4.10123e-05 4.10437e-05 -1.32632e-05
-9.05604e-05 2.71399e-05 2.71802e-05 -1.49215e-05
-4.55482e-05 1.36308e-05 1.36789e-05 -1.59168e-05
-9.17702e-05 2.75017e-05 2.75436e-05 -1.49215e-05
-9.11653e-05 2.73208e-05 2.73619e-05 -1.49215e-05
-0.000135874 4.07407e-05 4.07713e-05 -1.32632e-05
-0.00013406 4.01975e-05 4.02267e-05 -1.32632e-05
-4.46397e-05 1.33601e-05 1.34055e-05 -1.59168e-05
-4.52454e-05 1.35406e-05 1.35878e-05 -1.59168e-05
-0.000134967 4.04691e-05 4.0499e-05 -1.32632e-05
-8.93505e-05 2.67781e-05 2.68167e-05 -1.49215e-05
-4.49426e-05 1.34504e-05 1.34967e-05 -1.59168e-05
-9.05604e-05 2.71399e-05 2.71802e-05 -1.49215e-05
-8.99554e-05 2.6959e-05 2.69985e-05 -1.49215e-05
-0.00013406 4.01975e-05 4.02267e-05 -1.32632e-05
-0.000132246 3.96543e-05 3.96821e-05 -1.32632e-05
-4.40341e-05 1.31797e-05 1.32233e-05 -1.59168e-05
-4.46397e-05 1.33601e-05 1.34055e-05 -1.59168e-05
-0.000133153 3.99259e-05 3.99544e-05 -1.32632e-05
-8.81407e-05 2.64163e-05 2.64533e-05 -1.49215e-05
-4.43369e-05 1.32699e-05 1.33144e-05 -1.59168e-05
-8.93505e-05 2.67781e-05 2.68167e-05 -1.49215e-05
-8.87456e-05 2.65972e-05 2.6635e-05 -1.49215e-05
-0.000132246 3.96543e-05 3.96821e-05 -1.32632e-05
-0.000130432 3.91111e-05 3.91375e-05 -1.32632e-05
-4.34285e-05 1.29992e-05 1.30411e-05 -1.59168e-05
-4.40341e-05 1.31797e-05 1.32233e-05 -1.59168e-05
-0.000131339 3.93827e-05 3.94098e-05 -1.32632e-05
-8.69309e-05 2.60545e-05 2.60899e-05 -1.49215e-05
-4.37313e-05 1.30894e-05 1.31322e-05 -1.59168e-05
-8.81407e-05 2.64163e-05 2.64533e-05 -1.49215e-05
-8.75358e-05 2.62354e-05 2.62716e-05 -1.49215e-05
-0.000130432 3.91111e-05 3.91375e-05 -1.32632e-05
-0.000128618 3.85679e-05 3.85929e-05 -1.32632e-05
-4.28229e-05 1.28187e-05 1.28589e-05 -1.59168e-05
-4.34285e-05 1.29992e-05 1.30411e-05 -1.59168e-05
-0.000129525 3.88395e-05 3.88652e-05 -1.32632e-05
-8.57211e-05 2.56927e-05 2.57265e-05 -1.49215e-05
-4.31257e-05 1.2909e-05 1.295e-05 -1.59168e-05
-8.69309e-05 2.60545e-05 2.60899e-05 -1.49215e-05
-8.6326e-05 2.58736e-05 2.59082e-05 -1.49215e-05
-0.000128618 3.85679e-05 3.85929e-05 -1.32632e-05
-0.000126804 3.80246e-05 3.80483e-05 -1.32632e-05
-4.22173e-05 1.26382e-05 1.26767e-05 -1.59167e-05
-4.28229e-05 1.28187e-05 1.28589e-05 -1.59168e-05
-0.000127711 3.82963e-05 3.83206e-05 -1.32632e-05
-8.45113e-05 2.53308e-05 2.53631e-05 -1.49215e-05
-4.25201e-05 1.27285e-05 1.27678e-05 -1.59167e-05
-8.57211e-05 2.56927e-05 2.57265e-05 -1.49215e-05
-8.51162e-05 2.55117e-05 2.55448e-05 -1.49215e-05
-0.000126804 3.80246e-05 3.80483e-05 -1.32632e-05
-0.00012499 3.74814e-05 3.75038e-05 -1.32632e-05
-4.16117e-05 1.24577e-05 1.24946e-05 -1.59167e-05
-4.22173e-05 1.26382e-05 1.26767e-05 -1.59167e-05
-0.000125897 3.7753e-05 3.77761e-05 -1.32632e-05
-8.33016e-05 2.49689e-05 2.49997e-05 -1.49215e-05
-4.19145e-05 1.2548e-05 1.25857e-05 -1.59167e-05
-8.45113e-05 2.53308e-05 2.53631e-05 -1.49215e-05
-8.39064e-05 2.51499e-05 2.51814e-05 -1.49215e-05
-0.00012499 3.74814e-05 3.75038e-05 -1.32632e-05
-0.000123176 3.69381e-05 3.69592e-05 -1.32632e-05
-4.10062e-05 1.22772e-05 1.23124e-05 -1.59167e-05
-4.16117e-05 1.24577e-05 1.24946e-05 -1.59167e-05
-0.000124083 3.72098e-05 3.72315e-05 -1.32632e-05
-8.20918e-05 2.46071e-05 2.46363e-05 -1.49215e-05
-4.13089e-05 1.23675e-05 1.24035e-05 -1.59167e-05
-8.33016e-05 2.49689e-05 2.49997e-05 -1.49215e-05
-8.26967e-05 2.4788e-05 2.4818e-05 -1.49215e-05
-0.000123176 3.69381e-05 3.69592e-05 -1.32632e-05
-0.000121362 3.63949e-05 3.64147e-05 -1.32632e-05
-4.04006e-05 1.20967e-05 1.21303e-05 -1.59167e-05
-4.10062e-05 1.22772e-05 1.23124e-05 -1.59167e-05
-0.000122269 3.66665e-05 3.66869e-05 -1.32632e-05
-8.08821e-05 2.42452e-05 2.4273e-05 -1.49215e-05
-4.07034e-05 1.21869e-05 1.22213e-05 -1.59167e-05
-8.20918e-05 2.46071e-05 2.46363e-05 -1.49215e-05
-8.1487e-05 2.44261e-05 2.44546e-05 -1.49215e-05
-0.000121362 3.63949e-05 3.64147e-05 -1.32632e-05
-0.000119549 3.58516e-05 3.58701e-05 -1.32632e-05
-3.97951e-05 1.19161e-05 1.19481e-05 -1.59167e-05
-4.04006e-05 1.20967e-05 1.21303e-05 -1.59167e-05
-0.000120456 3.61232e-05 3.61424e-05 -1.32632e-05
-7.96724e-05 2.38833e-05 2.39096e-05 -1.49215e-05
-4.00979e-05 1.20064e-05 1.20392e-05 -1.59167e-05
-8.08821e-05 2.42452e-05 2.4273e-05 -1.49215e-05
-8.02773e-05 2.40643e-05 2.40913e-05 -1.49215e-05
-0.000119549 3.58516e-05 3.58701e-05 -1.32632e-05
-0.000117735 3.53083e-05 3.53256e-05 -1.32632e-05
-3.91896e-05 1.17356e-05 1.1766e-05 -1.59167e-05
-3.97951e-05 1.19161e-05 1.19481e-05 -1.59167e-05
-0.000118642 3.558e-05 3.55979e-05 -1.32632e-05
-7.84627e-05 2.35214e-05 2.35463e-05 -1.49215e-05
-3.94924e-05 1.18259e-05 1.18571e-05 -1.59167e-05
-7.96724e-05 2.38833e-05 2.39096e-05 -1.49215e-05
-7.90676e-05 2.37024e-05 2.3728e-05 -1.49215e-05
-0.000117735 3.53083e-05 3.53256e-05 -1.32632e-05
-0.000115921 3.4765e-05 3.47811e-05 -1.32633e-05
-3.85842e-05 1.1555e-05 1.15839e-05 -1.59167e-05
-3.91896e-05 1.17356e-05 1.1766e-05 -1.59167e-05
-0.000116828 3.50367e-05 3.50534e-05 -1.32633e-05
-7.72531e-05 2.31595e-05 2.3183e-05 -1.49215e-05
-3.88869e-05 1.16453e-05 1.1675e-05 -1.59167e-05
-7.84627e-05 2.35214e-05 2.35463e-05 -1.49215e-05
-7.78579e-05 2.33405e-05 2.33646e-05 -1.49215e-05
-0.000115921 3.4765e-05 3.47811e-05 -1.32633e-05
-0.000114107 3.42217e-05 3.42366e-05 -1.32633e-05
-3.79787e-05 1.13744e-05 1.14018e-05 -1.59167e-05
-3.85842e-05 1.1555e-05 1.15839e-05 -1.59167e-05
-0.000115014 3.44934e-05 3.45089e-05 -1.32633e-05
-7.60435e-05 2.27976e-05 2.28197e-05 -1.49216e-05
-3.82814e-05 1.14647e-05 1.14929e-05 -1.59167e-05
-7.72531e-05 2.31595e-05 2.3183e-05 -1.49215e-05
-7.66483e-05 2.29785e-05 2.30013e-05 -1.49215e-05
-0.000114107 3.42217e-05 3.42366e-05 -1.32633e-05
-0.000112293 3.36784e-05 3.36921e-05 -1.32633e-05
-3.73733e-05 1.11939e-05 1.12197e-05 -1.59167e-05
-3.79787e-05 1.13744e-05 1.14018e-05 -1.59167e-05
-0.0001132 3.39501e-05 3.39644e-05 -1.32633e-05
-7.48338e-05 2.24357e-05 2.24564e-05 -1.49216e-05
-3.7676e-05 1.12842e-05 1.13108e-05 -1.59167e-05
-7.60435e-05 2.27976e-05 2.28197e-05 -1.49216e-05
-7.54386e-05 2.26166e-05 2.2638e-05 -1.49216e-05
-0.000112293 3.36784e-05 3.36921e-05 -1.32633e-05
-0.00011048 3.31351e-05 3.31477e-05 -1.32633e-05
-3.67679e-05 1.10133e-05 1.10377e-05 -1.59167e-05
-3.73733e-05 1.11939e-05 1.12197e-05 -1.59167e-05
-0.000111387 3.34068e-05 3.34199e-05 -1.32633e-05
-7.36242e-05 2.20737e-05 2.20931e-05 -1.49216e-05
-3.70706e-05 1.11036e-05 1.11287e-05 -1.59167e-05
-7.48338e-05 2.24357e-05 2.24564e-05 -1.49216e-05
-7.4229e-05 2.22547e-05 2.22747e-05 -1.49216e-05
-0.00011048 3.31351e-05 3.31477e-05 -1.32633e-05
-0.000108666 3.25918e-05 3.26032e-05 -1.32633e-05
-3.61625e-05 1.08327e-05 1.08556e-05 -1.59167e-05
-3.67679e-05 1.10133e-05 1.10377e-05 -1.59167e-05
-0.000109573 3.28634e-05 3.28754e-05 -1.32633e-05
-7.24147e-05 2.17118e-05 2.17298e-05 -1.49216e-05
-3.64652e-05 1.0923e-05 1.09467e-05 -1.59167e-05
-7.36242e-05 2.20737e-05 2.20931e-05 -1.49216e-05
-7.30194e-05 2.18927e-05 2.19114e-05 -1.49216e-05
-0.000108666 3.25918e-05 3.26032e-05 -1.32633e-05
-0.000106852 3.20484e-05 3.20587e-05 -1.32633e-05
-3.55571e-05 1.0652e-05 1.06736e-05 -1.59167e-05
-3.61625e-05 1.08327e-05 1.08556e-05 -1.59167e-05
-0.000107759 3.23201e-05 3.2331e-05 -1.32633e-05
-7.12051e-05 2.13498e-05 2.13666e-05 -1.49216e-05
-3.58598e-05 1.07424e-05 1.07646e-05 -1.59167e-05
-7.24147e-05 2.17118e-05 2.17298e-05 -1.49216e-05
-7.18099e-05 2.15308e-05 2.15482e-05 -1.49216e-05
-0.000106852 3.20484e-05 3.20587e-05 -1.32633e-05
-0.000105038 3.15051e-05 3.15143e-05 -1.32633e-05
-3.49517e-05 1.04714e-05 1.04916e-05 -1.59167e-05
-3.55571e-05 1.0652e-05 1.06736e-05 -1.59167e-05
-0.000105945 3.17768e-05 3.17865e-05 -1.32633e-05
-6.99955e-05 2.09878e-05 2.10033e-05 -1.49216e-05
-3.52544e-05 1.05617e-05 1.05826e-05 -1.59167e-05
-7.12051e-05 2.13498e-05 2.13666e-05 -1.49216e-05
-7.06003e-05 2.11688e-05 2.11849e-05 -1.49216e-05
-0.000105038 3.15051e-05 3.15143e-05 -1.32633e-05
-0.000103225 3.09618e-05 3.09699e-05 -1.32633e-05
-3.43464e-05 1.02908e-05 1.03096e-05 -1.59167e-05
-3.49517e-05 1.04714e-05 1.04916e-05 -1.59167e-05
-0.000104132 3.12334e-05 3.12421e-05 -1.32633e-05
-6.8786e-05 2.06259e-05 2.06401e-05 -1.49216e-05
-3.46491e-05 1.03811e-05 1.04006e-05 -1.59167e-05
-6.99955e-05 2.09878e-05 2.10033e-05 -1.49216e-05
-6.93908e-05 2.08068e-05 2.08217e-05 -1.49216e-05
-0.000103225 3.09618e-05 3.09699e-05 -1.32633e-05
-0.000101411 3.04184e-05 3.04255e-05 -1.32633e-05
-3.37411e-05 1.01101e-05 1.01276e-05 -1.59167e-05
-3.43464e-05 1.02908e-05 1.03096e-05 -1.59167e-05
-0.000102318 3.06901e-05 3.06977e-05 -1.32633e-05
-6.75765e-05 2.02639e-05 2.02769e-05 -1.49216e-05
-3.40437e-05 1.02005e-05 1.02186e-05 -1.59167e-05
-6.8786e-05 2.06259e-05 2.06401e-05 -1.49216e-05
-6.81813e-05 2.04449e-05 2.04585e-05 -1.49216e-05
-0.000101411 3.04184e-05 3.04255e-05 -1.32633e-05
-9.95975e-05 2.9875e-05 2.9881e-05 -1.32633e-05
-3.31358e-05 9.92946e-06 9.94557e-06 -1.59167e-05
-3.37411e-05 1.01101e-05 1.01276e-05 -1.59167e-05
-0.000100504 3.01467e-05 3.01533e-05 -1.32633e-05
-6.6367e-05 1.99019e-05 1.99136e-05 -1.49216e-05
-3.34384e-05 1.00198e-05 1.00366e-05 -1.59167e-05
-6.75765e-05 2.02639e-05 2.02769e-05 -1.49216e-05
-6.69718e-05 2.00829e-05 2.00952e-05 -1.49216e-05
-9.95975e-05 2.9875e-05 2.9881e-05 -1.32633e-05
-9.77838e-05 2.93316e-05 2.93367e-05 -1.32633e-05
-3.25305e-05 9.74879e-06 9.76359e-06 -1.59167e-05
-3.31358e-05 9.92946e-06 9.94557e-06 -1.59167e-05
-9.86907e-05 2.96033e-05 2.96089e-05 -1.32633e-05
-6.51576e-05 1.95398e-05 1.95504e-05 -1.49216e-05
-3.28331e-05 9.83913e-06 9.85458e-06 -1.59167e-05
-6.6367e-05 1.99019e-05 1.99136e-05 -1.49216e-05
-6.57623e-05 1.97209e-05 1.9732e-05 -1.49216e-05
-9.77838e-05 2.93316e-05 2.93367e-05 -1.32633e-05
-9.59702e-05 2.87883e-05 2.87923e-05 -1.32634e-05
-3.19252e-05 9.56811e-06 9.58163e-06 -1.59167e-05
-3.25305e-05 9.74879e-06 9.76359e-06 -1.59167e-05
-9.6877e-05 2.906e-05 2.90645e-05 -1.32633e-05
-6.39481e-05 1.91778e-05 1.91873e-05 -1.49216e-05
-3.22279e-05 9.65845e-06 9.67261e-06 -1.59167e-05
-6.51576e-05 1.95398e-05 1.95504e-05 -1.49216e-05
-6.45528e-05 1.93588e-05 1.93689e-05 -1.49216e-05
-9.59702e-05 2.87883e-05 2.87923e-05 -1.32634e-05
-9.41566e-05 2.82449e-05 2.82479e-05 -1.32634e-05
-3.132e-05 9.38741e-06 9.39968e-06 -1.59167e-05
-3.19252e-05 9.56811e-06 9.58163e-06 -1.59167e-05
-9.50634e-05 2.85166e-05 2.85201e-05 -1.32634e-05
-6.27387e-05 1.88158e-05 1.88241e-05 -1.49216e-05
-3.16226e-05 9.47776e-06 9.49066e-06 -1.59167e-05
-6.39481e-05 1.91778e-05 1.91873e-05 -1.49216e-05
-6.33434e-05 1.89968e-05 1.90057e-05 -1.49216e-05
-9.41566e-05 2.82449e-05 2.82479e-05 -1.32634e-05
-9.23431e-05 2.77015e-05 2.77035e-05 -1.32634e-05
-3.07148e-05 9.2067e-06 9.21775e-06 -1.59167e-05
-3.132e-05 9.38741e-06 9.39968e-06 -1.59167e-05
-9.32498e-05 2.79732e-05 2.79757e-05 -1.32634e-05
-6.15293e-05 1.84538e-05 1.84609e-05 -1.49216e-05
-3.10174e-05 9.29706e-06 9.30872e-06 -1.59167e-05
-6.27387e-05 1.88158e-05 1.88241e-05 -1.49216e-05
-6.2134e-05 1.86348e-05 1.86425e-05 -1.49216e-05
-9.23431e-05 2.77015e-05 2.77035e-05 -1.32634e-05
-9.05295e-05 2.7158e-05 2.71592e-05 -1.32634e-05
-3.01096e-05 9.02598e-06 9.03583e-06 -1.59167e-05
-3.07148e-05 9.2067e-06 9.21775e-06 -1.59167e-05
-9.14363e-05 2.74298e-05 2.74314e-05 -1.32634e-05
-6.03199e-05 1.80917e-05 1.80978e-05 -1.49216e-05
-3.04122e-05 9.11635e-06 9.12679e-06 -1.59167e-05
-6.15293e-05 1.84538e-05 1.84609e-05 -1.49216e-05
-6.09246e-05 1.82727e-05 1.82794e-05 -1.49216e-05
-9.05295e-05 2.7158e-05 2.71592e-05 -1.32634e-05
-8.8716e-05 2.66146e-05 2.66149e-05 -1.32634e-05
-2.95044e-05 8.84526e-06 8.85392e-06 -1.59167e-05
-3.01096e-05 9.02598e-06 9.03583e-06 -1.59167e-05
-8.96227e-05 2.68863e-05 2.6887e-05 -1.32634e-05
-5.91105e-05 1.77296e-05 1.77347e-05 -1.49216e-05
-2.9807e-05 8.93562e-06 8.94487e-06 -1.59167e-05
-6.03199e-05 1.80917e-05 1.80978e-05 -1.49216e-05
-5.97152e-05 1.79107e-05 1.79162e-05 -1.49216e-05
-8.8716e-05 2.66146e-05 2.66149e-05 -1.32634e-05
-8.69024e-05 2.60712e-05 2.60705e-05 -1.32634e-05
-2.88992e-05 8.66452e-06 8.67203e-06 -1.59167e-05
-2.95044e-05 8.84526e-06 8.85392e-06 -1.59167e-05
-8.78092e-05 2.63429e-05 2.63427e-05 -1.32634e-05
-5.79011e-05 1.73676e-05 1.73715e-05 -1.49216e-05
-2.92018e-05 8.75489e-06 8.76297e-06 -1.59167e-05
-5.91105e-05 1.77296e-05 1.77347e-05 -1.49216e-05
-5.85058e-05 1.75486e-05 1.75531e-05 -1.49216e-05
-8.69024e-05 2.60712e-05 2.60705e-05 -1.32634e-05
-8.50889e-05 2.55277e-05 2.55262e-05 -1.32634e-05
-2.82941e-05 8.48376e-06 8.49014e-06 -1.59167e-05
-2.88992e-05 8.66452e-06 8.67203e-06 -1.59167e-05
-8.59957e-05 2.57995e-05 2.57984e-05 -1.32634e-05
-5.66918e-05 1.70055e-05 1.70084e-05 -1.49216e-05
-2.85967e-05 8.57414e-06 8.58108e-06 -1.59167e-05
-5.79011e-05 1.73676e-05 1.73715e-05 -1.49216e-05
-5.72965e-05 1.71865e-05 1.719e-05 -1.49216e-05
-8.50889e-05 2.55277e-05 2.55262e-05 -1.32634e-05
-8.32754e-05 2.49843e-05 2.49819e-05 -1.32634e-05
-2.7689e-05 8.303e-06 8.30827e-06 -1.59167e-05
-2.82941e-05 8.48376e-06 8.49014e-06 -1.59167e-05
-8.41822e-05 2.5256e-05 2.52541e-05 -1.32634e-05
-5.54825e-05 1.66434e-05 1.66453e-05 -1.49216e-05
-2.79915e-05 8.39338e-06 8.39921e-06 -1.59167e-05
-5.66918e-05 1.70055e-05 1.70084e-05 -1.49216e-05
-5.60871e-05 1.68244e-05 1.68269e-05 -1.49216e-05
-8.32754e-05 2.49843e-05 2.49819e-05 -1.32634e-05
-8.1462e-05 2.44408e-05 2.44376e-05 -1.32634e-05
-2.70839e-05 8.12223e-06 8.12642e-06 -1.59167e-05
-2.7689e-05 8.303e-06 8.30827e-06 -1.59167e-05
-8.23687e-05 2.47126e-05 2.47098e-05 -1.32634e-05
-5.42732e-05 1.62813e-05 1.62822e-05 -1.49216e-05
-2.73864e-05 8.21262e-06 8.21735e-06 -1.59167e-05
-5.54825e-05 1.66434e-05 1.66453e-05 -1.49216e-05
-5.48778e-05 1.64623e-05 1.64638e-05 -1.49216e-05
-8.1462e-05 2.44408e-05 2.44376e-05 -1.32634e-05
-7.96485e-05 2.38974e-05 2.38934e-05 -1.32634e-05
-2.64788e-05 7.94144e-06 7.94458e-06 -1.59167e-05
-2.70839e-05 8.12223e-06 8.12642e-06 -1.59167e-05
-8.05552e-05 2.41691e-05 2.41655e-05 -1.32634e-05
-5.30639e-05 1.59192e-05 1.59192e-05 -1.49216e-05
-2.67813e-05 8.03184e-06 8.0355e-06 -1.59167e-05
-5.42732e-05 1.62813e-05 1.62822e-05 -1.49216e-05
-5.36685e-05 1.61002e-05 1.61007e-05 -1.49216e-05
-7.96485e-05 2.38974e-05 2.38934e-05 -1.32634e-05
-7.78351e-05 2.33539e-05 2.33491e-05 -1.32635e-05
-2.58737e-05 7.76064e-06 7.76275e-06 -1.59167e-05
-2.64788e-05 7.94144e-06 7.94458e-06 -1.59167e-05
-7.87418e-05 2.36256e-05 2.36212e-05 -1.32634e-05
-5.18547e-05 1.5557e-05 1.55561e-05 -1.49216e-05
-2.61763e-05 7.85104e-06 7.85366e-06 -1.59167e-05
-5.30639e-05 1.59192e-05 1.59192e-05 -1.49216e-05
-5.24593e-05 1.57381e-05 1.57376e-05 -1.49216e-05
-7.78351e-05 2.33539e-05 2.33491e-05 -1.32635e-05
-7.60217e-05 2.28104e-05 2.28048e-05 -1.32635e-05
-2.52687e-05 7.57984e-06 7.58093e-06 -1.59167e-05
-2.58737e-05 7.76064e-06 7.76275e-06 -1.59167e-05
-7.69284e-05 2.30821e-05 2.3077e-05 -1.32635e-05
-5.06454e-05 1.51949e-05 1.51931e-05 -1.49217e-05
-2.55712e-05 7.67024e-06 7.67184e-06 -1.59167e-05
-5.18547e-05 1.5557e-05 1.55561e-05 -1.49216e-05
-5.125e-05 1.5376e-05 1.53746e-05 -1.49216e-05
-7.60217e-05 2.28104e-05 2.28048e-05 -1.32635e-05
-7.42083e-05 2.22669e-05 2.22606e-05 -1.32635e-05
-2.46636e-05 7.39902e-06 7.39913e-06 -1.59167e-05
-2.52687e-05 7.57984e-06 7.58093e-06 -1.59167e-05
-7.5115e-05 2.25387e-05 2.25327e-05 -1.32635e-05
-4.94362e-05 1.48327e-05 1.483e-05 -1.49217e-05
-2.49662e-05 7.48943e-06 7.49003e-06 -1.59167e-05
-5.06454e-05 1.51949e-05 1.51931e-05 -1.49217e-05
-5.00408e-05 1.50138e-05 1.50116e-05 -1.49217e-05
-7.42083e-05 2.22669e-05 2.22606e-05 -1.32635e-05
-7.23949e-05 2.17234e-05 2.17164e-05 -1.32635e-05
-2.40586e-05 7.21819e-06 7.21734e-06 -1.59167e-05
-2.46636e-05 7.39902e-06 7.39913e-06 -1.59167e-05
-7.33016e-05 2.19952e-05 2.19885e-05 -1.32635e-05
-4.8227e-05 1.44706e-05 1.4467e-05 -1.49217e-05
-2.43611e-05 7.3086e-06 7.30823e-06 -1.59167e-05
-4.94362e-05 1.48327e-05 1.483e-05 -1.49217e-05
-4.88316e-05 1.46517e-05 1.46485e-05 -1.49217e-05
-7.23949e-05 2.17234e-05 2.17164e-05 -1.32635e-05
-7.05815e-05 2.11799e-05 2.11721e-05 -1.32635e-05
-2.34537e-05 7.03734e-06 7.03556e-06 -1.59167e-05
-2.40586e-05 7.21819e-06 7.21734e-06 -1.59167e-05
-7.14882e-05 2.14516e-05 2.14442e-05 -1.32635e-05
-4.70178e-05 1.41084e-05 1.4104e-05 -1.49217e-05
-2.37561e-05 7.12777e-06 7.12645e-06 -1.59167e-05
-4.8227e-05 1.44706e-05 1.4467e-05 -1.49217e-05
-4.76224e-05 1.42895e-05 1.42855e-05 -1.49217e-05
-7.05815e-05 2.11799e-05 2.11721e-05 -1.32635e-05
-6.87682e-05 2.06364e-05 2.06279e-05 -1.32635e-05
-2.28487e-05 6.85649e-06 6.8538e-06 -1.59167e-05
-2.34537e-05 7.03734e-06 7.03556e-06 -1.59167e-05
-6.96749e-05 2.09081e-05 2.09e-05 -1.32635e-05
-4.58086e-05 1.37462e-05 1.3741e-05 -1.49217e-05
-2.31512e-05 6.94692e-06 6.94468e-06 -1.59167e-05
-4.70178e-05 1.41084e-05 1.4104e-05 -1.49217e-05
-4.64132e-05 1.39273e-05 1.39225e-05 -1.49217e-05
-6.87682e-05 2.06364e-05 2.06279e-05 -1.32635e-05
-6.69549e-05 2.00928e-05 2.00837e-05 -1.32635e-05
-2.22437e-05 6.67563e-06 6.67205e-06 -1.59167e-05
-2.28487e-05 6.85649e-06 6.8538e-06 -1.59167e-05
-6.78615e-05 2.03646e-05 2.03558e-05 -1.32635e-05
-4.45995e-05 1.33841e-05 1.3378e-05 -1.49217e-05
-2.25462e-05 6.76606e-06 6.76292e-06 -1.59167e-05
-4.58086e-05 1.37462e-05 1.3741e-05 -1.49217e-05
-4.52041e-05 1.35652e-05 1.35595e-05 -1.49217e-05
-6.69549e-05 2.00928e-05 2.00837e-05 -1.32635e-05
-6.51416e-05 1.95493e-05 1.95395e-05 -1.32635e-05
-2.16388e-05 6.49475e-06 6.49031e-06 -1.59167e-05
-2.22437e-05 6.67563e-06 6.67205e-06 -1.59167e-05
-6.60482e-05 1.98211e-05 1.98116e-05 -1.32635e-05
-4.33904e-05 1.30219e-05 1.30151e-05 -1.49217e-05
-2.19413e-05 6.58519e-06 6.58118e-06 -1.59167e-05
-4.45995e-05 1.33841e-05 1.3378e-05 -1.49217e-05
-4.39949e-05 1.3203e-05 1.31966e-05 -1.49217e-05
-6.51416e-05 1.95493e-05 1.95395e-05 -1.32635e-05
-6.33283e-05 1.90057e-05 1.89954e-05 -1.32635e-05
-2.10339e-05 6.31386e-06 6.30859e-06 -1.59167e-05
-2.16388e-05 6.49475e-06 6.49031e-06 -1.59167e-05
-6.42349e-05 1.92775e-05 1.92675e-05 -1.32635e-05
-4.21812e-05 1.26596e-05 1.26521e-05 -1.49217e-05
-2.13363e-05 6.40431e-06 6.39945e-06 -1.59167e-05
-4.33904e-05 1.30219e-05 1.30151e-05 -1.49217e-05
-4.27858e-05 1.28408e-05 1.28336e-05 -1.49217e-05
-6.33283e-05 1.90057e-05 1.89954e-05 -1.32635e-05
-6.1515e-05 1.84622e-05 1.84512e-05 -1.32636e-05
-2.0429e-05 6.13296e-06 6.12688e-06 -1.59167e-05
-2.10339e-05 6.31386e-06 6.30859e-06 -1.59167e-05
-6.24216e-05 1.8734e-05 1.87233e-05 -1.32635e-05
-4.09722e-05 1.22974e-05 1.22892e-05 -1.49217e-05
-2.07314e-05 6.22341e-06 6.21773e-06 -1.59167e-05
-4.21812e-05 1.26596e-05 1.26521e-05 -1.49217e-05
-4.15767e-05 1.24785e-05 1.24706e-05 -1.49217e-05
-6.1515e-05 1.84622e-05 1.84512e-05 -1.32636e-05
-5.97017e-05 1.79186e-05 1.79071e-05 -1.32636e-05
-1.98241e-05 5.95205e-06 5.94518e-06 -1.59167e-05
-2.0429e-05 6.13296e-06 6.12688e-06 -1.59167e-05
-6.06084e-05 1.81904e-05 1.81791e-05 -1.32636e-05
-3.97631e-05 1.19352e-05 1.19262e-05 -1.49217e-05
-2.01266e-05 6.04251e-06 6.03603e-06 -1.59167e-05
-4.09722e-05 1.22974e-05 1.22892e-05 -1.49217e-05
-4.03676e-05 1.21163e-05 1.21077e-05 -1.49217e-05
-5.97017e-05 1.79186e-05 1.79071e-05 -1.32636e-05
-5.78885e-05 1.7375e-05 1.73629e-05 -1.32636e-05
-1.92193e-05 5.77113e-06 5.76349e-06 -1.59167e-05
-1.98241e-05 5.95205e-06 5.94518e-06 -1.59167e-05
-5.87951e-05 1.76468e-05 1.7635e-05 -1.32636e-05
-3.8554e-05 1.15729e-05 1.15633e-05 -1.49217e-05
-1.95217e-05 5.86159e-06 5.85433e-06 -1.59167e-05
-3.97631e-05 1.19352e-05 1.19262e-05 -1.49217e-05
-3.91586e-05 1.17541e-05 1.17448e-05 -1.49217e-05
-5.78885e-05 1.7375e-05 1.73629e-05 -1.32636e-05
-5.60753e-05 1.68314e-05 1.68188e-05 -1.32636e-05
-1.86144e-05 5.5902e-06 5.58182e-06 -1.59167e-05
-1.92193e-05 5.77113e-06 5.76349e-06 -1.59167e-05
-5.69819e-05 1.71032e-05 1.70909e-05 -1.32636e-05
-3.7345e-05 1.12107e-05 1.12004e-05 -1.49217e-05
-1.89169e-05 5.68066e-06 5.67266e-06 -1.59167e-05
-3.8554e-05 1.15729e-05 1.15633e-05 -1.49217e-05
-3.79495e-05 1.13918e-05 1.13819e-05 -1.49217e-05
-5.60753e-05 1.68314e-05 1.68188e-05 -1.32636e-05
-5.42621e-05 1.62878e-05 1.62747e-05 -1.32636e-05
-1.80096e-05 5.40925e-06 5.40017e-06 -1.59167e-05
-1.86144e-05 5.5902e-06 5.58182e-06 -1.59167e-05
-5.51687e-05 1.65596e-05 1.65467e-05 -1.32636e-05
-3.6136e-05 1.08484e-05 1.08375e-05 -1.49217e-05
-1.8312e-05 5.49972e-06 5.49099e-06 -1.59167e-05
-3.7345e-05 1.12107e-05 1.12004e-05 -1.49217e-05
-3.67405e-05 1.10296e-05 1.1019e-05 -1.49217e-05
-5.42621e-05 1.62878e-05 1.62747e-05 -1.32636e-05
-5.24489e-05 1.57442e-05 1.57306e-05 -1.32636e-05
-1.74048e-05 5.22829e-06 5.21852e-06 -1.59167e-05
-1.80096e-05 5.40925e-06 5.40017e-06 -1.59167e-05
-5.33555e-05 1.6016e-05 1.60026e-05 -1.32636e-05
-3.4927e-05 1.04862e-05 1.04746e-05 -1.49217e-05
-1.77072e-05 5.31877e-06 5.30934e-06 -1.59167e-05
-3.6136e-05 1.08484e-05 1.08375e-05 -1.49217e-05
-3.55315e-05 1.06673e-05 1.06561e-05 -1.49217e-05
-5.24489e-05 1.57442e-05 1.57306e-05 -1.32636e-05
-5.06357e-05 1.52006e-05 1.51865e-05 -1.32636e-05
-1.68001e-05 5.04732e-06 5.03689e-06 -1.59167e-05
-1.74048e-05 5.22829e-06 5.21852e-06 -1.59167e-05
-5.15423e-05 1.54724e-05 1.54585e-05 -1.32636e-05
-3.3718e-05 1.01239e-05 1.01118e-05 -1.49217e-05
-1.71024e-05 5.13781e-06 5.1277e-06 -1.59167e-05
-3.4927e-05 1.04862e-05 1.04746e-05 -1.49217e-05
-3.43225e-05 1.0305e-05 1.02932e-05 -1.49217e-05
-5.06357e-05 1.52006e-05 1.51865e-05 -1.32636e-05
-4.88226e-05 1.4657e-05 1.46424e-05 -1.32636e-05
-1.61953e-05 4.86634e-06 4.85527e-06 -1.59167e-05
-1.68001e-05 5.04732e-06 5.03689e-06 -1.59167e-05
-4.97291e-05 1.49288e-05 1.49144e-05 -1.32636e-05
-3.2509e-05 9.76157e-06 9.74891e-06 -1.49217e-05
-1.64977e-05 4.95683e-06 4.94608e-06 -1.59167e-05
-3.3718e-05 1.01239e-05 1.01118e-05 -1.49217e-05
-3.31135e-05 9.94272e-06 9.93034e-06 -1.49217e-05
-4.88226e-05 1.4657e-05 1.46424e-05 -1.32636e-05
-4.70094e-05 1.41133e-05 1.40983e-05 -1.32636e-05
-1.55906e-05 4.68534e-06 4.67367e-06 -1.59167e-05
-1.61953e-05 4.86634e-06 4.85527e-06 -1.59167e-05
-4.7916e-05 1.43852e-05 1.43704e-05 -1.32636e-05
-3.13001e-05 9.39926e-06 9.38607e-06 -1.49218e-05
-1.58929e-05 4.77584e-06 4.76447e-06 -1.59167e-05
-3.2509e-05 9.76157e-06 9.74891e-06 -1.49217e-05
-3.19046e-05 9.58042e-06 9.56749e-06 -1.49218e-05
-4.70094e-05 1.41133e-05 1.40983e-05 -1.32636e-05
-4.51963e-05 1.35697e-05 1.35543e-05 -1.32636e-05
-1.49858e-05 4.50434e-06 4.49207e-06 -1.59167e-05
-1.55906e-05 4.68534e-06 4.67367e-06 -1.59167e-05
-4.61029e-05 1.38415e-05 1.38263e-05 -1.32636e-05
-3.00912e-05 9.03694e-06 9.02324e-06 -1.49218e-05
-1.52882e-05 4.59484e-06 4.58287e-06 -1.59167e-05
-3.13001e-05 9.39926e-06 9.38607e-06 -1.49218e-05
-3.06956e-05 9.2181e-06 9.20465e-06 -1.49218e-05
-4.51963e-05 1.35697e-05 1.35543e-05 -1.32636e-05
-4.33832e-05 1.3026e-05 1.30102e-05 -1.32636e-05
-1.43811e-05 4.32332e-06 4.31049e-06 -1.59167e-05
-1.49858e-05 4.50434e-06 4.49207e-06 -1.59167e-05
-4.42898e-05 1.32979e-05 1.32822e-05 -1.32636e-05
-2.88823e-05 8.67461e-06 8.66042e-06 -1.49218e-05
-1.46835e-05 4.41383e-06 4.40128e-06 -1.59167e-05
-3.00912e-05 9.03694e-06 9.02324e-06 -1.49218e-05
-2.94867e-05 8.85578e-06 8.84183e-06 -1.49218e-05
-4.33832e-05 1.3026e-05 1.30102e-05 -1.32636e-05
-4.15701e-05 1.24824e-05 1.24662e-05 -1.32637e-05
-1.37764e-05 4.14229e-06 4.12893e-06 -1.59167e-05
-1.43811e-05 4.32332e-06 4.31049e-06 -1.59167e-05
-4.24767e-05 1.27542e-05 1.27382e-05 -1.32637e-05
-2.76734e-05 8.31227e-06 8.29761e-06 -1.49218e-05
-1.40788e-05 4.2328e-06 4.21971e-06 -1.59167e-05
-2.88823e-05 8.67461e-06 8.66042e-06 -1.49218e-05
-2.82778e-05 8.49344e-06 8.47902e-06 -1.49218e-05
-4.15701e-05 1.24824e-05 1.24662e-05 -1.32637e-05
-3.97571e-05 1.19387e-05 1.19222e-05 -1.32637e-05
-1.31718e-05 3.96125e-06 3.94737e-06 -1.59167e-05
-1.37764e-05 4.14229e-06 4.12893e-06 -1.59167e-05
-4.06636e-05 1.22106e-05 1.21942e-05 -1.32637e-05
-2.64645e-05 7.94993e-06 7.93482e-06 -1.49217e-05
-1.34741e-05 4.05177e-06 4.03815e-06 -1.59167e-05
-2.76734e-05 8.31227e-06 8.29761e-06 -1.49218e-05
-2.70689e-05 8.1311e-06 8.11622e-06 -1.49217e-05
-3.97571e-05 1.19387e-05 1.19222e-05 -1.32637e-05
-3.79441e-05 1.13951e-05 1.13781e-05 -1.32637e-05
-1.25671e-05 3.78021e-06 3.76583e-06 -1.59166e-05
-1.31718e-05 3.96125e-06 3.94737e-06 -1.59167e-05
-3.88506e-05 1.16669e-05 1.16501e-05 -1.32637e-05
-2.52557e-05 7.5876e-06 7.57204e-06 -1.49217e-05
-1.28695e-05 3.87073e-06 3.8566e-06 -1.59167e-05
-2.64645e-05 7.94993e-06 7.93482e-06 -1.49217e-05
-2.58601e-05 7.76876e-06 7.75343e-06 -1.49217e-05
-3.79441e-05 1.13951e-05 1.13781e-05 -1.32637e-05
-3.61311e-05 1.08514e-05 1.08341e-05 -1.32637e-05
-1.19625e-05 3.59918e-06 3.58429e-06 -1.59166e-05
-1.25671e-05 3.78021e-06 3.76583e-06 -1.59166e-05
-3.70376e-05 1.11232e-05 1.11061e-05 -1.32637e-05
-2.40469e-05 7.22527e-06 7.20927e-06 -1.49217e-05
-1.22648e-05 3.6897e-06 3.67506e-06 -1.59166e-05
-2.52557e-05 7.5876e-06 7.57204e-06 -1.49217e-05
-2.46513e-05 7.40643e-06 7.39065e-06 -1.49217e-05
-3.61311e-05 1.08514e-05 1.08341e-05 -1.32637e-05
-3.43182e-05 1.03078e-05 1.02902e-05 -1.32637e-05
-1.1358e-05 3.41816e-06 3.40277e-06 -1.59165e-05
-1.19625e-05 3.59918e-06 3.58429e-06 -1.59166e-05
-3.52246e-05 1.05796e-05 1.05621e-05 -1.32637e-05
-2.28381e-05 6.86295e-06 6.84651e-06 -1.49217e-05
-1.16602e-05 3.50867e-06 3.49353e-06 -1.59166e-05
-2.40469e-05 7.22527e-06 7.20927e-06 -1.49217e-05
-2.34425e-05 7.04411e-06 7.02788e-06 -1.49217e-05
-3.43182e-05 1.03078e-05 1.02902e-05 -1.32637e-05
-3.25053e-05 9.76418e-06 9.74619e-06 -1.32637e-05
-1.07534e-05 3.23715e-06 3.22127e-06 -1.59165e-05
-1.1358e-05 3.41816e-06 3.40277e-06 -1.59165e-05
-3.34117e-05 1.0036e-05 1.00182e-05 -1.32637e-05
-2.16295e-05 6.50065e-06 6.48377e-06 -1.49216e-05
-1.10557e-05 3.32765e-06 3.31202e-06 -1.59165e-05
-2.28381e-05 6.86295e-06 6.84651e-06 -1.49217e-05
-2.22338e-05 6.6818e-06 6.66514e-06 -1.49217e-05
-3.25053e-05 9.76418e-06 9.74619e-06 -1.32637e-05
-3.06925e-05 9.22054e-06 9.20226e-06 -1.32637e-05
-1.0149e-05 3.05614e-06 3.03978e-06 -1.59164e-05
-1.07534e-05 3.23715e-06 3.22127e-06 -1.59165e-05
-3.15989e-05 9.49237e-06 9.47422e-06 -1.32637e-05
-2.04208e-05 6.13832e-06 6.12107e-06 -1.49216e-05
-1.04512e-05 3.14665e-06 3.13052e-06 -1.59164e-05
-2.16295e-05 6.50065e-06 6.48377e-06 -1.49216e-05
-2.10251e-05 6.31949e-06 6.30241e-06 -1.49216e-05
-3.06925e-05 9.22054e-06 9.20226e-06 -1.32637e-05
-2.88797e-05 8.67676e-06 8.65839e-06 -1.32637e-05
-9.54447e-06 2.87508e-06 2.85831e-06 -1.59165e-05
-1.0149e-05 3.05614e-06 3.03978e-06 -1.59164e-05
-2.97861e-05 8.94868e-06 8.93031e-06 -1.32637e-05
-1.92121e-05 5.77585e-06 5.75841e-06 -1.49216e-05
-9.84673e-06 2.96562e-06 2.94904e-06 -1.59164e-05
-2.04208e-05 6.13832e-06 6.12107e-06 -1.49216e-05
-1.98165e-05 5.95712e-06 5.93973e-06 -1.49216e-05
-2.88797e-05 8.67676e-06 8.65839e-06 -1.32637e-05
-2.70666e-05 8.13254e-06 8.11461e-06 -1.32637e-05
-8.93992e-06 2.69382e-06 2.6769e-06 -1.59169e-05
-9.54447e-06 2.87508e-06 2.85831e-06 -1.59165e-05
-2.79732e-05 8.40473e-06 8.38649e-06 -1.32637e-05
-1.80033e-05 5.41296e-06 5.39585e-06 -1.49219e-05
-9.2422e-06 2.78449e-06 2.76759e-06 -1.59166e-05
-1.92121e-05 5.77585e-06 5.75841e-06 -1.49216e-05
-1.86078e-05 5.59449e-06 5.57712e-06 -1.49217e-05
-2.70666e-05 8.13254e-06 8.11461e-06 -1.32637e-05
-2.5253e-05 7.58724e-06 7.57104e-06 -1.32635e-05
-8.33489e-06 2.51202e-06 2.49552e-06 -1.59183e-05
-8.93992e-06 2.69382e-06 2.6769e-06 -1.59169e-05
-2.61599e-05 7.86009e-06 7.84278e-06 -1.32636e-05
-1.67937e-05 5.04905e-06 5.03341e-06 -1.49226e-05
-8.63751e-06 2.60302e-06 2.58621e-06 -1.59174e-05
-1.80033e-05 5.41296e-06 5.39585e-06 -1.49219e-05
-1.73986e-05 5.2312e-06 5.21461e-06 -1.49221e-05
-2.5253e-05 7.58724e-06 7.57104e-06 -1.32635e-05
-2.34374e-05 7.03955e-06 7.02766e-06 -1.32632e-05
-7.72894e-06 2.32895e-06 2.31428e-06 -1.59219e-05
-8.33489e-06 2.51202e-06 2.49552e-06 -1.59183e-05
-2.43456e-05 7.31383e-06 7.29933e-06 -1.32634e-05
-1.55823e-05 4.68283e-06 4.67119e-06 -1.49243e-05
-8.03203e-06 2.4207e-06 2.40486e-06 -1.59197e-05
-1.67937e-05 5.04905e-06 5.03341e-06 -1.49226e-05
-1.61883e-05 4.86634e-06 4.85227e-06 -1.49232e-05
-2.34374e-05 7.03955e-06 7.02766e-06 -1.32632e-05
-2.1618e-05 6.48684e-06 6.4848e-06 -1.32624e-05
-7.12024e-06 2.1433e-06 2.13298e-06 -1.59299e-05
-7.72894e-06 2.32895e-06 2.31428e-06 -1.59219e-05
-2.25283e-05 6.76404e-06 6.75612e-06 -1.32629e-05
-1.43668e-05 4.31196e-06 4.3092e-06 -1.49285e-05
-7.42516e-06 2.23659e-06 2.22367e-06 -1.59251e-05
-1.55823e-05 4.68283e-06 4.67119e-06 -1.49243e-05
-1.49752e-05 4.49821e-06 4.49015e-06 -1.4926e-05
-2.1618e-05 6.48684e-06 6.4848e-06 -1.32624e-05
-1.97893e-05 5.92453e-06 5.94205e-06 -1.3261e-05
-6.50707e-06 1.95246e-06 1.95198e-06 -1.59469e-05
-7.12024e-06 2.1433e-06 2.13298e-06 -1.59299e-05
-2.07054e-05 6.20735e-06 6.21347e-06 -1.32618e-05
-1.31427e-05 3.93199e-06 3.94745e-06 -1.49373e-05
-6.81421e-06 2.04869e-06 2.04236e-06 -1.5937e-05
-1.43668e-05 4.31196e-06 4.3092e-06 -1.49285e-05
-1.37562e-05 4.12344e-06 4.12831e-06 -1.4932e-05
-1.97893e-05 5.92453e-06 5.94205e-06 -1.3261e-05
-1.79444e-05 5.34434e-06 5.40004e-06 -1.32583e-05
-5.88287e-06 1.75264e-06 1.7701e-06 -1.59808e-05
-6.50707e-06 1.95246e-06 1.95198e-06 -1.59469e-05
-1.88692e-05 5.63725e-06 5.67082e-06 -1.326e-05
-1.19021e-05 3.53608e-06 3.58544e-06 -1.49552e-05
-6.19717e-06 1.85412e-06 1.86131e-06 -1.5961e-05
-1.31427e-05 3.93199e-06 3.94745e-06 -1.49373e-05
-1.25251e-05 3.73674e-06 3.76644e-06 -1.4945e-05
-1.79444e-05 5.34434e-06 5.40004e-06 -1.32583e-05
-1.60647e-05 4.73428e-06 4.85591e-06 -1.32555e-05
-5.24315e-06 1.53691e-06 1.58839e-06 -1.6044e-05
-5.88287e-06 1.75264e-06 1.7701e-06 -1.59808e-05
-1.7011e-05 5.04429e-06 5.1286e-06 -1.32566e-05
-1.0631e-05 3.11253e-06 3.2222e-06 -1.49899e-05
-5.56468e-06 1.64701e-06 1.679e-06 -1.60077e-05
-1.19021e-05 3.53608e-06 3.58544e-06 -1.49552e-05
-1.12715e-05 3.32838e-06 3.40418e-06 -1.49694e-05
-1.60647e-05 4.73428e-06 4.85591e-06 -1.32555e-05
-1.41323e-05 4.07496e-06 4.3103e-06 -1.32518e-05
-4.56938e-06 1.29906e-06 1.40157e-06 -1.61568e-05
-5.24315e-06 1.53691e-06 1.58839e-06 -1.6044e-05
-1.51053e-05 4.41154e-06 4.58303e-06 -1.32541e-05
-9.30864e-06 2.64875e-06 2.85424e-06 -1.5054e-05
-4.91311e-06 1.42174e-06 1.4963e-06 -1.60925e-05
-1.0631e-05 3.11253e-06 3.2222e-06 -1.49899e-05
-9.9777e-06 2.88709e-06 3.03884e-06 -1.50183e-05
-1.41323e-05 4.07496e-06 4.3103e-06 -1.32518e-05
-1.20974e-05 3.35006e-06 3.74887e-06 -1.32585e-05
-3.8586e-06 1.02893e-06 1.21272e-06 -1.63425e-05
-4.56938e-06 1.29906e-06 1.40157e-06 -1.61568e-05
-1.31338e-05 3.72291e-06 4.03322e-06 -1.32522e-05
-7.90412e-06 2.12813e-06 2.47542e-06 -1.51664e-05
-4.21641e-06 1.16714e-06 1.30683e-06 -1.62391e-05
-9.30864e-06 2.64875e-06 2.85424e-06 -1.5054e-05
-8.61904e-06 2.39498e-06 2.66746e-06 -1.51006e-05
-1.20974e-05 3.35006e-06 3.74887e-06 -1.32585e-05
-9.93861e-06 2.54189e-06 3.17002e-06 -1.32826e-05
-3.07657e-06 7.39284e-07 1.0017e-06 -1.6627e-05
-3.8586e-06 1.02893e-06 1.21272e-06 -1.63425e-05
-1.10301e-05 2.95327e-06 3.46151e-06 -1.32684e-05
-6.39236e-06 1.56246e-06 2.06996e-06 -1.53518e-05
-3.48299e-06 8.87189e-07 1.11248e-06 -1.64706e-05
-7.90412e-06 2.12813e-06 2.47542e-06 -1.51664e-05
-7.16239e-06 1.85091e-06 2.27635e-06 -1.52521e-05
-9.93861e-06 2.54189e-06 3.17002e-06 -1.32826e-05
-7.57735e-06 1.70668e-06 2.516e-06 -1.33856e-05
-2.27038e-06 4.53727e-07 7.78566e-07 -1.69963e-05
-3.07657e-06 7.39284e-07 1.0017e-06 -1.6627e-05
-8.79648e-06 2.12606e-06 2.85876e-06 -1.33168e-05
-4.75985e-06 9.96014e-07 1.61307e-06 -1.56332e-05
-2.66412e-06 5.8681e-07 8.90276e-07 -1.68045e-05
-6.39236e-06 1.56246e-06 2.06996e-06 -1.53518e-05
-5.59215e-06 1.26741e-06 1.85346e-06 -1.54717e-05
-7.57735e-06 1.70668e-06 2.516e-06 -1.33856e-05
-5.13042e-06 9.81637e-07 1.77805e-06 -1.36092e-05
-1.44374e-06 3.26016e-07 4.79023e-07 -1.73598e-05
-2.27038e-06 4.53727e-07 7.78566e-07 -1.69963e-05
-6.3368e-06 1.29859e-06 2.15923e-06 -1.34807e-05
-3.11964e-06 6.56094e-07 1.0558e-06 -1.59936e-05
-1.87153e-06 3.64848e-07 6.4572e-07 -1.71884e-05
-4.75985e-06 9.96014e-07 1.61307e-06 -1.56332e-05
-3.92563e-06 7.83079e-07 1.34681e-06 -1.58209e-05
-5.13042e-06 9.81637e-07 1.77805e-06 -1.36092e-05
-2.75664e-06 9.63818e-07 7.68351e-07 -1.40975e-05
-8.63466e-07 5.31346e-07 1.42337e-07 -1.73742e-05
-1.44374e-06 3.26016e-07 4.79023e-07 -1.73598e-05
-3.94233e-06 8.46701e-07 1.3267e-06 -1.38073e-05
-1.72391e-06 9.12399e-07 3.47791e-07 -1.62582e-05
-1.07754e-06 3.54389e-07 3.09921e-07 -1.74455e-05
-3.11964e-06 6.56094e-07 1.0558e-06 -1.59936e-05
-2.37477e-06 6.5944e-07 7.3514e-07 -1.61332e-05
-2.75664e-06 9.63818e-07 7.68351e-07 -1.40975e-05
-1.50177e-06 2.71329e-06 -5.19222e-07 -1.44625e-05
-5.50362e-07 1.4264e-06 -3.75444e-07 -1.64047e-05
-8.63466e-07 5.31346e-07 1.42337e-07 -1.73742e-05
-1.85067e-06 1.46029e-06 1.6731e-07 -1.43503e-05
-1.2249e-06 2.47632e-06 -5.3632e-07 -1.574e-05
-7.16186e-07 9.17527e-07 -8.62888e-08 -1.70638e-05
-1.72391e-06 9.12399e-07 3.47791e-07 -1.62582e-05
-1.29723e-06 1.52262e-06 -9.65942e-08 -1.62142e-05
-1.50177e-06 2.71329e-06 -5.19222e-07 -1.44625e-05
-2.12945e-06 8.20441e-06 -2.60355e-06 -1.32769e-05
-8.1769e-07 2.59395e-06 -7.61253e-07 -1.34018e-05
-5.50362e-07 1.4264e-06 -3.75444e-07 -1.64047e-05
-1.62351e-06 5.0321e-06 -1.46083e-06 -1.42483e-05
-1.57618e-06 5.32123e-06 -1.60502e-06 -1.30892e-05
-5.29646e-07 1.96901e-06 -6.16872e-07 -1.52273e-05
-1.2249e-06 2.47632e-06 -5.3632e-07 -1.574e-05
-1.36514e-06 3.7398e-06 -1.01771e-06 -1.47014e-05
-2.12945e-06 8.20441e-06 -2.60355e-06 -1.32769e-05
-3.99843e-06 1.48465e-05 -4.64917e-06 -7.0203e-06
-1.57061e-06 4.26654e-06 -1.1554e-06 -7.66833e-06
-8.1769e-07 2.59395e-06 -7.61253e-07 -1.34018e-05
-2.94573e-06 1.1776e-05 -3.7844e-06 -1.0971e-05
-2.42118e-06 9.07776e-06 -2.85282e-06 -7.7488e-06
-1.22713e-06 3.36465e-06 -9.16078e-07 -1.08993e-05
-1.57618e-06 5.32123e-06 -1.60502e-06 -1.30892e-05
-1.91065e-06 7.1849e-06 -2.26039e-06 -1.08284e-05
-0.000105277 0 4.51188e-05 6.01132e-05
-0.000107108 1.45391e-05 3.96724e-05 1.99187e-05
0.000106508 -1.46751e-05 -3.93568e-05 1.98804e-05
0.000104609 0 -4.48323e-05 6.00247e-05
-0.000102781 6.16222e-06 4.14079e-05 3.79126e-05
-3.05931e-07 -7.19625e-08 1.61955e-07 2.25591e-05
0.00010215 -6.2371e-06 -4.11055e-05 3.78595e-05
-3.45488e-07 0 1.48066e-07 6.13158e-05
-3.21321e-07 -4.43188e-08 1.56703e-07 4.24197e-05
-0.000107108 1.45391e-05 3.96724e-05 1.99187e-05
-0.000115447 2.39431e-05 3.92159e-05 -4.1452e-06
0.000114897 -2.41706e-05 -3.88828e-05 -4.17076e-06
0.000106508 -1.46751e-05 -3.93568e-05 1.98804e-05
-0.000113062 2.01676e-05 3.9812e-05 5.76888e-06
-2.80224e-07 -1.16897e-07 1.70195e-07 -2.89495e-06
0.000112488 -2.03534e-05 -3.94863e-05 5.73757e-06
-3.05931e-07 -7.19625e-08 1.61955e-07 2.25591e-05
-2.93545e-07 -9.55132e-08 1.66739e-07 6.88732e-06
-0.000115447 2.39431e-05 3.92159e-05 -4.1452e-06
-0.000117911 3.0933e-05 3.72764e-05 -1.5048e-05
0.000117404 -3.1228e-05 -3.69325e-05 -1.50674e-05
0.000114897 -2.41706e-05 -3.88828e-05 -4.17076e-06
-0.000116363 2.76705e-05 3.80112e-05 -1.07182e-05
-2.58026e-07 -1.52954e-07 1.76134e-07 -1.46915e-05
0.000115835 -2.79337e-05 -3.7672e-05 -1.07403e-05
-2.80224e-07 -1.16897e-07 1.70195e-07 -2.89495e-06
-2.68071e-07 -1.36074e-07 1.73205e-07 -9.59914e-06
-0.000117911 3.0933e-05 3.72764e-05 -1.5048e-05
-0.000119203 3.42305e-05 3.6417e-05 -1.8935e-05
0.000118733 -3.45809e-05 -3.60652e-05 -1.8949e-05
0.000117404 -3.1228e-05 -3.69325e-05 -1.50674e-05
-0.000119166 3.30155e-05 3.69218e-05 -1.76526e-05
-2.40115e-07 -1.79833e-07 1.79978e-07 -1.92489e-05
0.000118678 -3.33397e-05 -3.65736e-05 -1.7669e-05
-2.58026e-07 -1.52954e-07 1.76134e-07 -1.46915e-05
-2.49047e-07 -1.6736e-07 1.7846e-07 -1.78228e-05
-0.000119203 3.42305e-05 3.6417e-05 -1.8935e-05
-0.000118417 3.55038e-05 3.55341e-05 -1.93474e-05
0.000117976 -3.58967e-05 -3.51769e-05 -1.93562e-05
0.000118733 -3.45809e-05 -3.60652e-05 -1.8949e-05
-0.000118721 3.50431e-05 3.58619e-05 -1.93573e-05
-2.25107e-07 -2.00842e-07 1.8255e-07 -2.00263e-05
0.000118266 -3.54165e-05 -3.55071e-05 -1.93689e-05
-2.40115e-07 -1.79833e-07 1.79978e-07 -1.92489e-05
-2.31982e-07 -1.91068e-07 1.81307e-07 -1.9829e-05
-0.000118417 3.55038e-05 3.55341e-05 -1.93474e-05
-0.00011743 3.54839e-05 3.51199e-05 -1.86589e-05
0.000117011 -3.59059e-05 -3.47593e-05 -1.86626e-05
0.000117976 -3.58967e-05 -3.51769e-05 -1.93562e-05
-0.000118063 3.56001e-05 3.53412e-05 -1.90735e-05
-2.14331e-07 -2.15107e-07 1.84045e-07 -1.93516e-05
0.000117634 -3.60091e-05 -3.4982e-05 -1.90795e-05
-2.25107e-07 -2.00842e-07 1.8255e-07 -2.00263e-05
-2.19299e-07 -2.08782e-07 1.83464e-07 -1.98211e-05
-0.00011743 3.54839e-05 3.51199e-05 -1.86589e-05
-0.000116168 3.51146e-05 3.47374e-05 -1.77696e-05
0.000115763 -3.55539e-05 -3.43752e-05 -1.77699e-05
0.000117011 -3.59059e-05 -3.47593e-05 -1.86626e-05
-0.000116729 3.53144e-05 3.4892e-05 -1.81958e-05
-2.07101e-07 -2.23994e-07 1.84755e-07 -1.83967e-05
0.000116317 -3.57463e-05 -3.45304e-05 -1.81976e-05
-2.14331e-07 -2.15107e-07 1.84045e-07 -1.93516e-05
-2.10268e-07 -2.20162e-07 1.8447e-07 -1.88423e-05
-0.000116168 3.51146e-05 3.47374e-05 -1.77696e-05
-0.000115141 3.46435e-05 3.44991e-05 -1.70639e-05
0.000114744 -3.50909e-05 -3.41371e-05 -1.70621e-05
0.000115763 -3.55539e-05 -3.43752e-05 -1.77699e-05
-0.000115667 3.48815e-05 3.46222e-05 -1.73905e-05
-2.02692e-07 -2.28207e-07 1.84671e-07 -1.75898e-05
0.000115266 -3.53258e-05 -3.42599e-05 -1.73895e-05
-2.07101e-07 -2.23994e-07 1.84755e-07 -1.83967e-05
-2.04641e-07 -2.26602e-07 1.84818e-07 -1.79754e-05
-0.000115141 3.46435e-05 3.44991e-05 -1.70639e-05
-0.000114203 3.42365e-05 3.42711e-05 -1.65756e-05
0.00011381 -3.46858e-05 -3.39106e-05 -1.65731e-05
0.000114744 -3.50909e-05 -3.41371e-05 -1.70621e-05
-0.000114638 3.44291e-05 3.43754e-05 -1.67911e-05
-1.99959e-07 -2.29294e-07 1.83965e-07 -1.70285e-05
0.000114244 -3.48781e-05 -3.40139e-05 -1.67889e-05
-2.02692e-07 -2.28207e-07 1.84671e-07 -1.75898e-05
-2.01165e-07 -2.29064e-07 1.84384e-07 -1.72726e-05
-0.000114203 3.42365e-05 3.42711e-05 -1.65756e-05
-0.000113416 3.38959e-05 3.408e-05 -1.62757e-05
0.000113027 -3.43431e-05 -3.37219e-05 -1.62733e-05
0.00011381 -3.46858e-05 -3.39106e-05 -1.65731e-05
-0.000113805 3.40585e-05 3.4177e-05 -1.64068e-05
-1.98104e-07 -2.28268e-07 1.82731e-07 -1.6675e-05
0.000113415 -3.45071e-05 -3.38175e-05 -1.64042e-05
-1.99959e-07 -2.29294e-07 1.83965e-07 -1.70285e-05
-1.98971e-07 -2.28984e-07 1.8341e-07 -1.68322e-05
-0.000113416 3.38959e-05 3.408e-05 -1.62757e-05
-0.000112695 3.36188e-05 3.38896e-05 -1.61012e-05
0.000112309 -3.40617e-05 -3.35348e-05 -1.60994e-05
0.000113027 -3.43431e-05 -3.37219e-05 -1.62733e-05
-0.000113043 3.37505e-05 3.39826e-05 -1.61755e-05
-1.96523e-07 -2.26081e-07 1.81116e-07 -1.64697e-05
0.000112656 -3.41957e-05 -3.3626e-05 -1.61734e-05
-1.98104e-07 -2.28268e-07 1.82731e-07 -1.6675e-05
-1.97305e-07 -2.27276e-07 1.81963e-07 -1.65562e-05
-0.000112695 3.36188e-05 3.38896e-05 -1.61012e-05
-0.000112032 3.33826e-05 3.37069e-05 -1.60068e-05
0.00011165 -3.382e-05 -3.33559e-05 -1.60057e-05
0.000112309 -3.40617e-05 -3.35348e-05 -1.60994e-05
-0.000112361 3.34967e-05 3.37988e-05 -1.60467e-05
-1.94884e-07 -2.233e-07 1.79222e-07 -1.63568e-05
0.000111977 -3.39369e-05 -3.34458e-05 -1.60452e-05
-1.96523e-07 -2.26081e-07 1.81116e-07 -1.64697e-05
-1.95727e-07 -2.24737e-07 1.80199e-07 -1.64051e-05
-0.000112032 3.33826e-05 3.37069e-05 -1.60068e-05
-0.000111394 3.31731e-05 3.35234e-05 -1.59578e-05
0.000111016 -3.36047e-05 -3.31764e-05 -1.59575e-05
0.00011165 -3.382e-05 -3.33559e-05 -1.60057e-05
-0.00011171 3.32753e-05 3.36147e-05 -1.59781e-05
-1.93014e-07 -2.20325e-07 1.77145e-07 -1.62985e-05
0.00011133 -3.37098e-05 -3.32657e-05 -1.59774e-05
-1.94884e-07 -2.233e-07 1.79222e-07 -1.63568e-05
-1.93984e-07 -2.2182e-07 1.78202e-07 -1.63224e-05
-0.000111394 3.31731e-05 3.35234e-05 -1.59578e-05
-0.000110774 3.29785e-05 3.33409e-05 -1.59341e-05
0.0001104 -3.34044e-05 -3.29983e-05 -1.59345e-05
0.000111016 -3.36047e-05 -3.31764e-05 -1.59575e-05
-0.000111083 3.30745e-05 3.34324e-05 -1.59438e-05
-1.90855e-07 -2.17364e-07 1.74951e-07 -1.62699e-05
0.000110707 -3.35032e-05 -3.30876e-05 -1.59439e-05
-1.93014e-07 -2.20325e-07 1.77145e-07 -1.62985e-05
-1.91971e-07 -2.18834e-07 1.7606e-07 -1.62817e-05
-0.000110774 3.29785e-05 3.33409e-05 -1.59341e-05
-0.000110161 3.27922e-05 3.31579e-05 -1.59232e-05
0.000109792 -3.32125e-05 -3.28197e-05 -1.59242e-05
0.0001104 -3.34044e-05 -3.29983e-05 -1.59345e-05
-0.000110466 3.28846e-05 3.32493e-05 -1.59275e-05
-1.88417e-07 -2.14529e-07 1.72691e-07 -1.62569e-05
0.000110095 -3.33077e-05 -3.2909e-05 -1.59282e-05
-1.90855e-07 -2.17364e-07 1.74951e-07 -1.62699e-05
-1.89669e-07 -2.15927e-07 1.73827e-07 -1.6262e-05
-0.000110161 3.27922e-05 3.31579e-05 -1.59232e-05
-0.000109551 3.26099e-05 3.29748e-05 -1.59187e-05
0.000109188 -3.3025e-05 -3.26412e-05 -1.59201e-05
0.000109792 -3.32125e-05 -3.28197e-05 -1.59242e-05
-0.000109856 3.27007e-05 3.30664e-05 -1.59204e-05
-1.85736e-07 -2.11858e-07 1.70397e-07 -1.62515e-05
0.00010949 -3.31184e-05 -3.27305e-05 -1.59216e-05
-1.88417e-07 -2.14529e-07 1.72691e-07 -1.62569e-05
-1.87103e-07 -2.13172e-07 1.71547e-07 -1.62536e-05
-0.000109551 3.26099e-05 3.29748e-05 -1.59187e-05
-0.000108943 3.24295e-05 3.27915e-05 -1.59171e-05
0.000108585 -3.28398e-05 -3.24624e-05 -1.59188e-05
0.000109188 -3.3025e-05 -3.26412e-05 -1.59201e-05
-0.000109247 3.25195e-05 3.28832e-05 -1.59177e-05
-1.82863e-07 -2.09354e-07 1.68093e-07 -1.62496e-05
0.000108886 -3.29322e-05 -3.25518e-05 -1.59192e-05
-1.85736e-07 -2.11858e-07 1.70397e-07 -1.62515e-05
-1.8432e-07 -2.10586e-07 1.69245e-07 -1.62503e-05
-0.000108943 3.24295e-05 3.27915e-05 -1.59171e-05
-0.000108336 3.225e-05 3.26081e-05 -1.59166e-05
0.000107984 -3.26557e-05 -3.22836e-05 -1.59186e-05
0.000108585 -3.28398e-05 -3.24624e-05 -1.59188e-05
-0.000108639 3.23397e-05 3.26998e-05 -1.59168e-05
-1.79846e-07 -2.06998e-07 1.6579e-07 -1.62492e-05
0.000108285 -3.27477e-05 -3.2373e-05 -1.59186e-05
-1.82863e-07 -2.09354e-07 1.68093e-07 -1.62496e-05
-1.8137e-07 -2.08159e-07 1.66941e-07 -1.62493e-05
-0.000108336 3.225e-05 3.26081e-05 -1.59166e-05
-0.000107728 3.20708e-05 3.24247e-05 -1.59167e-05
0.000107383 -3.24721e-05 -3.21046e-05 -1.59187e-05
0.000107984 -3.26557e-05 -3.22836e-05 -1.59186e-05
-0.000108032 3.21604e-05 3.25164e-05 -1.59166e-05
-1.76729e-07 -2.04766e-07 1.63498e-07 -1.62492e-05
0.000107684 -3.25639e-05 -3.21941e-05 -1.59186e-05
-1.79846e-07 -2.06998e-07 1.6579e-07 -1.62492e-05
-1.78298e-07 -2.05868e-07 1.64643e-07 -1.62492e-05
-0.000107728 3.20708e-05 3.24247e-05 -1.59167e-05
-0.000107121 3.18916e-05 3.22412e-05 -1.59168e-05
0.000106782 -3.22888e-05 -3.19257e-05 -1.59189e-05
0.000107383 -3.24721e-05 -3.21046e-05 -1.59187e-05
-0.000107425 3.19812e-05 3.2333e-05 -1.59167e-05
-1.73547e-07 -2.02632e-07 1.61219e-07 -1.62494e-05
0.000107082 -3.23804e-05 -3.20152e-05 -1.59188e-05
-1.76729e-07 -2.04766e-07 1.63498e-07 -1.62492e-05
-1.75144e-07 -2.03688e-07 1.62357e-07 -1.62493e-05
-0.000107121 3.18916e-05 3.22412e-05 -1.59168e-05
-0.000106514 3.17123e-05 3.20577e-05 -1.59169e-05
0.000106181 -3.21055e-05 -3.17466e-05 -1.59191e-05
0.000106782 -3.22888e-05 -3.19257e-05 -1.59189e-05
-0.000106817 3.18019e-05 3.21495e-05 -1.59169e-05
-1.70325e-07 -2.00574e-07 1.58957e-07 -1.62496e-05
0.000106481 -3.21971e-05 -3.18361e-05 -1.5919e-05
-1.73547e-07 -2.02632e-07 1.61219e-07 -1.62494e-05
-1.71939e-07 -2.01595e-07 1.60086e-07 -1.62495e-05
-0.000106514 3.17123e-05 3.20577e-05 -1.59169e-05
-0.000105906 3.1533e-05 3.18743e-05 -1.5917e-05
0.00010558 -3.19223e-05 -3.15676e-05 -1.59193e-05
0.000106181 -3.21055e-05 -3.17466e-05 -1.59191e-05
-0.00010621 3.16227e-05 3.1966e-05 -1.5917e-05
-1.67084e-07 -1.98571e-07 1.56709e-07 -1.62497e-05
0.00010588 -3.20139e-05 -3.16571e-05 -1.59192e-05
-1.70325e-07 -2.00574e-07 1.58957e-07 -1.62496e-05
-1.68706e-07 -1.99566e-07 1.57831e-07 -1.62497e-05
-0.000105906 3.1533e-05 3.18743e-05 -1.5917e-05
-0.000105299 3.13536e-05 3.16908e-05 -1.59171e-05
0.000104979 -3.17391e-05 -3.13885e-05 -1.59193e-05
0.00010558 -3.19223e-05 -3.15676e-05 -1.59193e-05
-0.000105603 3.14433e-05 3.17825e-05 -1.59171e-05
-1.63837e-07 -1.96611e-07 1.54478e-07 -1.62498e-05
0.000105279 -3.18307e-05 -3.1478e-05 -1.59193e-05
-1.67084e-07 -1.98571e-07 1.56709e-07 -1.62497e-05
-1.65461e-07 -1.97587e-07 1.55592e-07 -1.62498e-05
-0.000105299 3.13536e-05 3.16908e-05 -1.59171e-05
-0.000104691 3.11742e-05 3.15074e-05 -1.59171e-05
0.000104378 -3.1556e-05 -3.12094e-05 -1.59194e-05
0.000104979 -3.17391e-05 -3.13885e-05 -1.59193e-05
-0.000104995 3.12639e-05 3.15991e-05 -1.59171e-05
-1.60594e-07 -1.94682e-07 1.52261e-07 -1.62499e-05
0.000104678 -3.16475e-05 -3.1299e-05 -1.59194e-05
-1.63837e-07 -1.96611e-07 1.54478e-07 -1.62498e-05
-1.62215e-07 -1.95643e-07 1.53368e-07 -1.62499e-05
-0.000104691 3.11742e-05 3.15074e-05 -1.59171e-05
-0.000104084 3.09948e-05 3.13239e-05 -1.59172e-05
0.000103777 -3.13728e-05 -3.10303e-05 -1.59194e-05
0.000104378 -3.1556e-05 -3.12094e-05 -1.59194e-05
-0.000104388 3.10845e-05 3.14156e-05 -1.59172e-05
-1.57362e-07 -1.92775e-07 1.50059e-07 -1.62499e-05
0.000104077 -3.14644e-05 -3.11199e-05 -1.59194e-05
-1.60594e-07 -1.94682e-07 1.52261e-07 -1.62499e-05
-1.58976e-07 -1.93726e-07 1.51158e-07 -1.62499e-05
-0.000104084 3.09948e-05 3.13239e-05 -1.59172e-05
-0.000103477 3.08153e-05 3.11405e-05 -1.59172e-05
0.000103176 -3.11897e-05 -3.08512e-05 -1.59194e-05
0.000103777 -3.13728e-05 -3.10303e-05 -1.59194e-05
-0.00010378 3.09051e-05 3.12322e-05 -1.59172e-05
-1.54143e-07 -1.90886e-07 1.47869e-07 -1.62499e-05
0.000103476 -3.12812e-05 -3.09407e-05 -1.59194e-05
-1.57362e-07 -1.92775e-07 1.50059e-07 -1.62499e-05
-1.5575e-07 -1.91829e-07 1.48962e-07 -1.62499e-05
-0.000103477 3.08153e-05 3.11405e-05 -1.59172e-05
-0.000102869 3.06359e-05 3.09571e-05 -1.59172e-05
0.000102575 -3.10065e-05 -3.0672e-05 -1.59194e-05
0.000103176 -3.11897e-05 -3.08512e-05 -1.59194e-05
-0.000103173 3.07256e-05 3.10488e-05 -1.59172e-05
-1.5094e-07 -1.89011e-07 1.45693e-07 -1.62499e-05
0.000102875 -3.10981e-05 -3.07616e-05 -1.59194e-05
-1.54143e-07 -1.90886e-07 1.47869e-07 -1.62499e-05
-1.52539e-07 -1.89947e-07 1.4678e-07 -1.62499e-05
-0.000102869 3.06359e-05 3.09571e-05 -1.59172e-05
-0.000102262 3.04564e-05 3.07737e-05 -1.59172e-05
0.000101973 -3.08234e-05 -3.04929e-05 -1.59194e-05
0.000102575 -3.10065e-05 -3.0672e-05 -1.59194e-05
-0.000102565 3.05461e-05 3.08654e-05 -1.59172e-05
-1.47755e-07 -1.87148e-07 1.4353e-07 -1.62499e-05
0.000102274 -3.09149e-05 -3.05825e-05 -1.59194e-05
-1.5094e-07 -1.89011e-07 1.45693e-07 -1.62499e-05
-1.49345e-07 -1.88078e-07 1.4461e-07 -1.62499e-05
-0.000102262 3.04564e-05 3.07737e-05 -1.59172e-05
-0.000101654 3.02769e-05 3.05903e-05 -1.59172e-05
0.000101372 -3.06403e-05 -3.03137e-05 -1.59193e-05
0.000101973 -3.08234e-05 -3.04929e-05 -1.59194e-05
-0.000101958 3.03666e-05 3.0682e-05 -1.59172e-05
-1.44587e-07 -1.85295e-07 1.41378e-07 -1.62499e-05
0.000101673 -3.07318e-05 -3.04033e-05 -1.59194e-05
-1.47755e-07 -1.87148e-07 1.4353e-07 -1.62499e-05
-1.46169e-07 -1.8622e-07 1.42452e-07 -1.62499e-05
-0.000101654 3.02769e-05 3.05903e-05 -1.59172e-05
-0.000101047 3.00974e-05 3.04069e-05 -1.59172e-05
0.000100771 -3.04572e-05 -3.01346e-05 -1.59193e-05
0.000101372 -3.06403e-05 -3.03137e-05 -1.59193e-05
-0.000101351 3.01871e-05 3.04986e-05 -1.59172e-05
-1.41438e-07 -1.83452e-07 1.39238e-07 -1.62499e-05
0.000101072 -3.05487e-05 -3.02242e-05 -1.59193e-05
-1.44587e-07 -1.85295e-07 1.41378e-07 -1.62499e-05
-1.4301e-07 -1.84372e-07 1.40307e-07 -1.62499e-05
-0.000101047 3.00974e-05 3.04069e-05 -1.59172e-05
-0.00010044 2.99179e-05 3.02236e-05 -1.59172e-05
0.00010017 -3.02741e-05 -2.99554e-05 -1.59193e-05
0.000100771 -3.04572e-05 -3.01346e-05 -1.59193e-05
-0.000100743 3.00076e-05 3.03153e-05 -1.59172e-05
-1.38307e-07 -1.81618e-07 1.37111e-07 -1.62499e-05
0.000100471 -3.03656e-05 -3.0045e-05 -1.59193e-05
-1.41438e-07 -1.83452e-07 1.39238e-07 -1.62499e-05
-1.3987e-07 -1.82534e-07 1.38173e-07 -1.62499e-05
-0.00010044 2.99179e-05 3.02236e-05 -1.59172e-05
-9.98322e-05 2.97383e-05 3.00402e-05 -1.59172e-05
9.95688e-05 -3.0091e-05 -2.97762e-05 -1.59193e-05
0.00010017 -3.02741e-05 -2.99554e-05 -1.59193e-05
-0.000100136 2.98281e-05 3.01319e-05 -1.59172e-05
-1.35194e-07 -1.79793e-07 1.34994e-07 -1.62499e-05
9.98694e-05 -3.01825e-05 -2.98658e-05 -1.59193e-05
-1.38307e-07 -1.81618e-07 1.37111e-07 -1.62499e-05
-1.36748e-07 -1.80704e-07 1.36051e-07 -1.62499e-05
-9.98322e-05 2.97383e-05 3.00402e-05 -1.59172e-05
-9.92248e-05 2.95588e-05 2.98569e-05 -1.59172e-05
9.89675e-05 -2.99079e-05 -2.9597e-05 -1.59193e-05
9.95688e-05 -3.0091e-05 -2.97762e-05 -1.59193e-05
-9.95285e-05 2.96486e-05 2.99485e-05 -1.59172e-05
-1.321e-07 -1.77977e-07 1.3289e-07 -1.62499e-05
9.92681e-05 -2.99994e-05 -2.96866e-05 -1.59193e-05
-1.35194e-07 -1.79793e-07 1.34994e-07 -1.62499e-05
-1.33645e-07 -1.78884e-07 1.33941e-07 -1.62499e-05
-9.92248e-05 2.95588e-05 2.98569e-05 -1.59172e-05
-9.86175e-05 2.93792e-05 2.96735e-05 -1.59172e-05
9.83663e-05 -2.97248e-05 -2.94178e-05 -1.59193e-05
9.89675e-05 -2.99079e-05 -2.9597e-05 -1.59193e-05
-9.89212e-05 2.9469e-05 2.97652e-05 -1.59172e-05
-1.29023e-07 -1.7617e-07 1.30797e-07 -1.62499e-05
9.86669e-05 -2.98163e-05 -2.95074e-05 -1.59193e-05
-1.321e-07 -1.77977e-07 1.3289e-07 -1.62499e-05
-1.30559e-07 -1.77072e-07 1.31842e-07 -1.62499e-05
-9.86175e-05 2.93792e-05 2.96735e-05 -1.59172e-05
-9.80102e-05 2.91997e-05 2.94902e-05 -1.59172e-05
9.7765e-05 -2.95417e-05 -2.92386e-05 -1.59193e-05
9.83663e-05 -2.97248e-05 -2.94178e-05 -1.59193e-05
-9.83139e-05 2.92895e-05 2.95819e-05 -1.59172e-05
-1.25964e-07 -1.74373e-07 1.28715e-07 -1.62499e-05
9.80657e-05 -2.96333e-05 -2.93282e-05 -1.59193e-05
-1.29023e-07 -1.7617e-07 1.30797e-07 -1.62499e-05
-1.27491e-07 -1.7527e-07 1.29755e-07 -1.62499e-05
-9.80102e-05 2.91997e-05 2.94902e-05 -1.59172e-05
-9.7403e-05 2.90201e-05 2.93069e-05 -1.59172e-05
9.71638e-05 -2.93587e-05 -2.90593e-05 -1.59192e-05
9.7765e-05 -2.95417e-05 -2.92386e-05 -1.59193e-05
-9.77066e-05 2.91099e-05 2.93986e-05 -1.59172e-05
-1.22922e-07 -1.72584e-07 1.26646e-07 -1.62498e-05
9.74644e-05 -2.94502e-05 -2.91489e-05 -1.59193e-05
-1.25964e-07 -1.74373e-07 1.28715e-07 -1.62499e-05
-1.24441e-07 -1.73477e-07 1.27679e-07 -1.62498e-05
-9.7403e-05 2.90201e-05 2.93069e-05 -1.59172e-05
-9.67957e-05 2.88406e-05 2.91236e-05 -1.59172e-05
9.65625e-05 -2.91756e-05 -2.88801e-05 -1.59192e-05
9.71638e-05 -2.93587e-05 -2.90593e-05 -1.59192e-05
-9.70993e-05 2.89303e-05 2.92153e-05 -1.59172e-05
-1.19898e-07 -1.70806e-07 1.24587e-07 -1.62498e-05
9.68631e-05 -2.92672e-05 -2.89697e-05 -1.59192e-05
-1.22922e-07 -1.72584e-07 1.26646e-07 -1.62498e-05
-1.21408e-07 -1.71694e-07 1.25615e-07 -1.62498e-05
-9.67957e-05 2.88406e-05 2.91236e-05 -1.59172e-05
-9.61885e-05 2.8661e-05 2.89403e-05 -1.59172e-05
9.59611e-05 -2.89926e-05 -2.87008e-05 -1.59192e-05
9.65625e-05 -2.91756e-05 -2.88801e-05 -1.59192e-05
-9.64921e-05 2.87508e-05 2.9032e-05 -1.59172e-05
-1.16892e-07 -1.69037e-07 1.22541e-07 -1.62498e-05
9.62618e-05 -2.90841e-05 -2.87904e-05 -1.59192e-05
-1.19898e-07 -1.70806e-07 1.24587e-07 -1.62498e-05
-1.18393e-07 -1.6992e-07 1.23563e-07 -1.62498e-05
-9.61885e-05 2.8661e-05 2.89403e-05 -1.59172e-05
-9.55812e-05 2.84814e-05 2.87571e-05 -1.59172e-05
9.53598e-05 -2.88096e-05 -2.85215e-05 -1.59192e-05
9.59611e-05 -2.89926e-05 -2.87008e-05 -1.59192e-05
-9.58848e-05 2.85712e-05 2.88487e-05 -1.59172e-05
-1.13903e-07 -1.67277e-07 1.20506e-07 -1.62498e-05
9.56605e-05 -2.89011e-05 -2.86112e-05 -1.59192e-05
-1.16892e-07 -1.69037e-07 1.22541e-07 -1.62498e-05
-1.15395e-07 -1.68156e-07 1.21522e-07 -1.62498e-05
-9.55812e-05 2.84814e-05 2.87571e-05 -1.59172e-05
-9.4974e-05 2.83018e-05 2.85738e-05 -1.59172e-05
9.47585e-05 -2.86265e-05 -2.83423e-05 -1.59192e-05
9.53598e-05 -2.88096e-05 -2.85215e-05 -1.59192e-05
-9.52776e-05 2.83916e-05 2.86654e-05 -1.59172e-05
-1.10932e-07 -1.65527e-07 1.18483e-07 -1.62498e-05
9.50592e-05 -2.87181e-05 -2.84319e-05 -1.59192e-05
-1.13903e-07 -1.67277e-07 1.20506e-07 -1.62498e-05
-1.12415e-07 -1.66401e-07 1.19493e-07 -1.62498e-05
-9.4974e-05 2.83018e-05 2.85738e-05 -1.59172e-05
-9.43668e-05 2.81222e-05 2.83906e-05 -1.59172e-05
9.41571e-05 -2.84435e-05 -2.8163e-05 -1.59192e-05
9.47585e-05 -2.86265e-05 -2.83423e-05 -1.59192e-05
-9.46704e-05 2.8212e-05 2.84822e-05 -1.59172e-05
-1.07978e-07 -1.63787e-07 1.16471e-07 -1.62498e-05
9.44578e-05 -2.8535e-05 -2.82526e-05 -1.59192e-05
-1.10932e-07 -1.65527e-07 1.18483e-07 -1.62498e-05
-1.09453e-07 -1.64656e-07 1.17475e-07 -1.62498e-05
-9.43668e-05 2.81222e-05 2.83906e-05 -1.59172e-05
-9.37597e-05 2.79426e-05 2.82073e-05 -1.59172e-05
9.35557e-05 -2.82605e-05 -2.79837e-05 -1.59192e-05
9.41571e-05 -2.84435e-05 -2.8163e-05 -1.59192e-05
-9.40632e-05 2.80324e-05 2.82989e-05 -1.59172e-05
-1.05042e-07 -1.62057e-07 1.14471e-07 -1.62498e-05
9.38564e-05 -2.8352e-05 -2.80733e-05 -1.59192e-05
-1.07978e-07 -1.63787e-07 1.16471e-07 -1.62498e-05
-1.06508e-07 -1.62921e-07 1.1547e-07 -1.62498e-05
-9.37597e-05 2.79426e-05 2.82073e-05 -1.59172e-05
-9.31525e-05 2.77629e-05 2.80241e-05 -1.59172e-05
9.29543e-05 -2.80775e-05 -2.78043e-05 -1.59191e-05
9.35557e-05 -2.82605e-05 -2.79837e-05 -1.59192e-05
-9.34561e-05 2.78527e-05 2.81157e-05 -1.59172e-05
-1.02124e-07 -1.60336e-07 1.12483e-07 -1.62498e-05
9.3255e-05 -2.8169e-05 -2.7894e-05 -1.59191e-05
-1.05042e-07 -1.62057e-07 1.14471e-07 -1.62498e-05
-1.03581e-07 -1.61195e-07 1.13475e-07 -1.62498e-05
-9.31525e-05 2.77629e-05 2.80241e-05 -1.59172e-05
-9.25454e-05 2.75833e-05 2.78409e-05 -1.59172e-05
9.23529e-05 -2.78946e-05 -2.7625e-05 -1.59191e-05
9.29543e-05 -2.80775e-05 -2.78043e-05 -1.59191e-05
-9.28489e-05 2.76731e-05 2.79325e-05 -1.59172e-05
-9.92231e-08 -1.58625e-07 1.10506e-07 -1.62498e-05
9.26536e-05 -2.79861e-05 -2.77147e-05 -1.59191e-05
-1.02124e-07 -1.60336e-07 1.12483e-07 -1.62498e-05
-1.00671e-07 -1.59479e-07 1.11493e-07 -1.62498e-05
-9.25454e-05 2.75833e-05 2.78409e-05 -1.59172e-05
-9.19383e-05 2.74036e-05 2.76577e-05 -1.59172e-05
9.17515e-05 -2.77116e-05 -2.74457e-05 -1.59191e-05
9.23529e-05 -2.78946e-05 -2.7625e-05 -1.59191e-05
-9.22418e-05 2.74935e-05 2.77493e-05 -1.59172e-05
-9.63399e-08 -1.56924e-07 1.08542e-07 -1.62498e-05
9.20522e-05 -2.78031e-05 -2.75353e-05 -1.59191e-05
-9.92231e-08 -1.58625e-07 1.10506e-07 -1.62498e-05
-9.77793e-08 -1.57774e-07 1.09523e-07 -1.62498e-05
-9.19383e-05 2.74036e-05 2.76577e-05 -1.59172e-05
-9.13312e-05 2.7224e-05 2.74745e-05 -1.59172e-05
9.11501e-05 -2.75286e-05 -2.72663e-05 -1.59191e-05
9.17515e-05 -2.77116e-05 -2.74457e-05 -1.59191e-05
-9.16347e-05 2.73138e-05 2.75661e-05 -1.59172e-05
-9.34743e-08 -1.55234e-07 1.06589e-07 -1.62497e-05
9.14508e-05 -2.76201e-05 -2.7356e-05 -1.59191e-05
-9.63399e-08 -1.56924e-07 1.08542e-07 -1.62498e-05
-9.49049e-08 -1.56078e-07 1.07564e-07 -1.62498e-05
-9.13312e-05 2.7224e-05 2.74745e-05 -1.59172e-05
-9.07241e-05 2.70443e-05 2.72913e-05 -1.59171e-05
9.05486e-05 -2.73457e-05 -2.7087e-05 -1.59191e-05
9.11501e-05 -2.75286e-05 -2.72663e-05 -1.59191e-05
-9.10276e-05 2.71342e-05 2.73829e-05 -1.59171e-05
-9.06265e-08 -1.53552e-07 1.04648e-07 -1.62497e-05
9.08493e-05 -2.74372e-05 -2.71766e-05 -1.59191e-05
-9.34743e-08 -1.55234e-07 1.06589e-07 -1.62497e-05
-9.20482e-08 -1.54392e-07 1.05617e-07 -1.62497e-05
-9.07241e-05 2.70443e-05 2.72913e-05 -1.59171e-05
-9.0117e-05 2.68646e-05 2.71082e-05 -1.59171e-05
8.99471e-05 -2.71627e-05 -2.69076e-05 -1.59191e-05
9.05486e-05 -2.73457e-05 -2.7087e-05 -1.59191e-05
-9.04205e-05 2.69545e-05 2.71997e-05 -1.59171e-05
-8.77963e-08 -1.51881e-07 1.02719e-07 -1.62497e-05
9.02479e-05 -2.72542e-05 -2.69973e-05 -1.59191e-05
-9.06265e-08 -1.53552e-07 1.04648e-07 -1.62497e-05
-8.92092e-08 -1.52716e-07 1.03682e-07 -1.62497e-05
-9.0117e-05 2.68646e-05 2.71082e-05 -1.59171e-05
-8.951e-05 2.6685e-05 2.6925e-05 -1.59171e-05
8.93456e-05 -2.69798e-05 -2.67282e-05 -1.5919e-05
8.99471e-05 -2.71627e-05 -2.69076e-05 -1.59191e-05
-8.98135e-05 2.67748e-05 2.70166e-05 -1.59171e-05
-8.49838e-08 -1.5022e-07 1.00802e-07 -1.62497e-05
8.96464e-05 -2.70713e-05 -2.68179e-05 -1.5919e-05
-8.77963e-08 -1.51881e-07 1.02719e-07 -1.62497e-05
-8.63878e-08 -1.5105e-07 1.01759e-07 -1.62497e-05
-8.951e-05 2.6685e-05 2.6925e-05 -1.59171e-05
-8.89029e-05 2.65053e-05 2.67419e-05 -1.59171e-05
8.87441e-05 -2.67969e-05 -2.65488e-05 -1.5919e-05
8.93456e-05 -2.69798e-05 -2.67282e-05 -1.5919e-05
-8.92064e-05 2.65951e-05 2.68334e-05 -1.59171e-05
-8.21891e-08 -1.48569e-07 9.88964e-08 -1.62497e-05
8.90449e-05 -2.68883e-05 -2.66385e-05 -1.5919e-05
-8.49838e-08 -1.5022e-07 1.00802e-07 -1.62497e-05
-8.35842e-08 -1.49393e-07 9.98476e-08 -1.62497e-05
-8.89029e-05 2.65053e-05 2.67419e-05 -1.59171e-05
-8.82959e-05 2.63256e-05 2.65587e-05 -1.59171e-05
8.81426e-05 -2.6614e-05 -2.63694e-05 -1.5919e-05
8.87441e-05 -2.67969e-05 -2.65488e-05 -1.5919e-05
-8.85994e-05 2.64154e-05 2.66503e-05 -1.59171e-05
-7.94121e-08 -1.46928e-07 9.7003e-08 -1.62497e-05
8.84433e-05 -2.67054e-05 -2.64591e-05 -1.5919e-05
-8.21891e-08 -1.48569e-07 9.88964e-08 -1.62497e-05
-8.07984e-08 -1.47747e-07 9.79482e-08 -1.62497e-05
-8.82959e-05 2.63256e-05 2.65587e-05 -1.59171e-05
-8.76889e-05 2.61458e-05 2.63756e-05 -1.59171e-05
8.7541e-05 -2.64311e-05 -2.619e-05 -1.5919e-05
8.81426e-05 -2.6614e-05 -2.63694e-05 -1.5919e-05
-8.79924e-05 2.62357e-05 2.64672e-05 -1.59171e-05
-7.6653e-08 -1.45297e-07 9.51214e-08 -1.62497e-05
8.78418e-05 -2.65225e-05 -2.62797e-05 -1.5919e-05
-7.94121e-08 -1.46928e-07 9.7003e-08 -1.62497e-05
-7.80303e-08 -1.46111e-07 9.60607e-08 -1.62497e-05
-8.76889e-05 2.61458e-05 2.63756e-05 -1.59171e-05
-8.7082e-05 2.59661e-05 2.61925e-05 -1.59171e-05
8.69395e-05 -2.62482e-05 -2.60105e-05 -1.5919e-05
8.7541e-05 -2.64311e-05 -2.619e-05 -1.5919e-05
-8.73854e-05 2.6056e-05 2.62841e-05 -1.59171e-05
-7.39117e-08 -1.43676e-07 9.32519e-08 -1.62497e-05
8.72402e-05 -2.63396e-05 -2.61003e-05 -1.5919e-05
-7.6653e-08 -1.45297e-07 9.51214e-08 -1.62497e-05
-7.52801e-08 -1.44485e-07 9.41852e-08 -1.62497e-05
-8.7082e-05 2.59661e-05 2.61925e-05 -1.59171e-05
-8.6475e-05 2.57864e-05 2.60094e-05 -1.59171e-05
8.63379e-05 -2.60653e-05 -2.58311e-05 -1.5919e-05
8.69395e-05 -2.62482e-05 -2.60105e-05 -1.5919e-05
-8.67785e-05 2.58763e-05 2.6101e-05 -1.59171e-05
-7.11882e-08 -1.42065e-07 9.13943e-08 -1.62497e-05
8.66387e-05 -2.61567e-05 -2.59208e-05 -1.5919e-05
-7.39117e-08 -1.43676e-07 9.32519e-08 -1.62497e-05
-7.25477e-08 -1.42869e-07 9.23216e-08 -1.62497e-05
-8.6475e-05 2.57864e-05 2.60094e-05 -1.59171e-05
-8.58681e-05 2.56066e-05 2.58263e-05 -1.59171e-05
8.57363e-05 -2.58824e-05 -2.56516e-05 -1.59189e-05
8.63379e-05 -2.60653e-05 -2.58311e-05 -1.5919e-05
-8.61715e-05 2.56965e-05 2.59179e-05 -1.59171e-05
-6.84826e-08 -1.40464e-07 8.95487e-08 -1.62496e-05
8.60371e-05 -2.59739e-05 -2.57414e-05 -1.59189e-05
-7.11882e-08 -1.42065e-07 9.13943e-08 -1.62497e-05
-6.98332e-08 -1.41264e-07 9.047e-08 -1.62497e-05
-8.58681e-05 2.56066e-05 2.58263e-05 -1.59171e-05
-8.52611e-05 2.54269e-05 2.56433e-05 -1.59171e-05
8.51346e-05 -2.56996e-05 -2.54722e-05 -1.59189e-05
8.57363e-05 -2.58824e-05 -2.56516e-05 -1.59189e-05
-8.55646e-05 2.55168e-05 2.57348e-05 -1.59171e-05
-6.57949e-08 -1.38874e-07 8.77152e-08 -1.62496e-05
8.54355e-05 -2.5791e-05 -2.55619e-05 -1.59189e-05
-6.84826e-08 -1.40464e-07 8.95487e-08 -1.62496e-05
-6.71365e-08 -1.39668e-07 8.86304e-08 -1.62496e-05
-8.52611e-05 2.54269e-05 2.56433e-05 -1.59171e-05
-8.46542e-05 2.52471e-05 2.54602e-05 -1.59171e-05
8.4533e-05 -2.55167e-05 -2.52927e-05 -1.59189e-05
8.51346e-05 -2.56996e-05 -2.54722e-05 -1.59189e-05
-8.49577e-05 2.5337e-05 2.55517e-05 -1.59171e-05
-6.31251e-08 -1.37293e-07 8.58936e-08 -1.62496e-05
8.48338e-05 -2.56081e-05 -2.53824e-05 -1.59189e-05
-6.57949e-08 -1.38874e-07 8.77152e-08 -1.62496e-05
-6.44578e-08 -1.38082e-07 8.68029e-08 -1.62496e-05
-8.46542e-05 2.52471e-05 2.54602e-05 -1.59171e-05
-8.40474e-05 2.50674e-05 2.52771e-05 -1.59171e-05
8.39314e-05 -2.53339e-05 -2.51132e-05 -1.59189e-05
8.4533e-05 -2.55167e-05 -2.52927e-05 -1.59189e-05
-8.43508e-05 2.51572e-05 2.53687e-05 -1.59171e-05
-6.04732e-08 -1.35723e-07 8.40841e-08 -1.62496e-05
8.42322e-05 -2.54253e-05 -2.5203e-05 -1.59189e-05
-6.31251e-08 -1.37293e-07 8.58936e-08 -1.62496e-05
-6.17969e-08 -1.36507e-07 8.49874e-08 -1.62496e-05
-8.40474e-05 2.50674e-05 2.52771e-05 -1.59171e-05
-8.34405e-05 2.48876e-05 2.50941e-05 -1.59171e-05
8.33297e-05 -2.5151e-05 -2.49337e-05 -1.59189e-05
8.39314e-05 -2.53339e-05 -2.51132e-05 -1.59189e-05
-8.37439e-05 2.49775e-05 2.51856e-05 -1.59171e-05
-5.78394e-08 -1.34163e-07 8.22867e-08 -1.62496e-05
8.36305e-05 -2.52424e-05 -2.50235e-05 -1.59189e-05
-6.04732e-08 -1.35723e-07 8.40841e-08 -1.62496e-05
-5.91541e-08 -1.34942e-07 8.31839e-08 -1.62496e-05
-8.34405e-05 2.48876e-05 2.50941e-05 -1.59171e-05
-8.28336e-05 2.47078e-05 2.49111e-05 -1.59171e-05
8.2728e-05 -2.49682e-05 -2.47542e-05 -1.59188e-05
8.33297e-05 -2.5151e-05 -2.49337e-05 -1.59189e-05
-8.31371e-05 2.47977e-05 2.50026e-05 -1.59171e-05
-5.52235e-08 -1.32613e-07 8.05014e-08 -1.62496e-05
8.30289e-05 -2.50596e-05 -2.4844e-05 -1.59189e-05
-5.78394e-08 -1.34163e-07 8.22867e-08 -1.62496e-05
-5.65292e-08 -1.33387e-07 8.13926e-08 -1.62496e-05
-8.28336e-05 2.47078e-05 2.49111e-05 -1.59171e-05
-8.22268e-05 2.4528e-05 2.47281e-05 -1.59171e-05
8.21263e-05 -2.47854e-05 -2.45747e-05 -1.59188e-05
8.2728e-05 -2.49682e-05 -2.47542e-05 -1.59188e-05
-8.25302e-05 2.46179e-05 2.48196e-05 -1.59171e-05
-5.26256e-08 -1.31074e-07 7.87282e-08 -1.62496e-05
8.24272e-05 -2.48768e-05 -2.46644e-05 -1.59188e-05
-5.52235e-08 -1.32613e-07 8.05014e-08 -1.62496e-05
-5.39223e-08 -1.31842e-07 7.96133e-08 -1.62496e-05
-8.22268e-05 2.4528e-05 2.47281e-05 -1.59171e-05
-8.162e-05 2.43482e-05 2.45451e-05 -1.59171e-05
8.15246e-05 -2.46026e-05 -2.43951e-05 -1.59188e-05
8.21263e-05 -2.47854e-05 -2.45747e-05 -1.59188e-05
-8.19234e-05 2.44381e-05 2.46366e-05 -1.59171e-05
-5.00457e-08 -1.29544e-07 7.69672e-08 -1.62496e-05
8.18254e-05 -2.4694e-05 -2.44849e-05 -1.59188e-05
-5.26256e-08 -1.31074e-07 7.87282e-08 -1.62496e-05
-5.13334e-08 -1.30308e-07 7.78462e-08 -1.62496e-05
-8.162e-05 2.43482e-05 2.45451e-05 -1.59171e-05
-8.10132e-05 2.41683e-05 2.43621e-05 -1.59171e-05
8.09228e-05 -2.44198e-05 -2.42156e-05 -1.59188e-05
8.15246e-05 -2.46026e-05 -2.43951e-05 -1.59188e-05
-8.13166e-05 2.42583e-05 2.44536e-05 -1.59171e-05
-4.74839e-08 -1.28025e-07 7.52182e-08 -1.62496e-05
8.12237e-05 -2.45112e-05 -2.43054e-05 -1.59188e-05
-5.00457e-08 -1.29544e-07 7.69672e-08 -1.62496e-05
-4.87625e-08 -1.28784e-07 7.60912e-08 -1.62496e-05
-8.10132e-05 2.41683e-05 2.43621e-05 -1.59171e-05
-8.04064e-05 2.39885e-05 2.41791e-05 -1.59171e-05
8.03211e-05 -2.4237e-05 -2.4036e-05 -1.59188e-05
8.09228e-05 -2.44198e-05 -2.42156e-05 -1.59188e-05
-8.07098e-05 2.40784e-05 2.42706e-05 -1.59171e-05
-4.49401e-08 -1.26517e-07 7.34815e-08 -1.62495e-05
8.0622e-05 -2.43284e-05 -2.41258e-05 -1.59188e-05
-4.74839e-08 -1.28025e-07 7.52182e-08 -1.62496e-05
-4.62098e-08 -1.2727e-07 7.43483e-08 -1.62496e-05
-8.04064e-05 2.39885e-05 2.41791e-05 -1.59171e-05
-7.97997e-05 2.38087e-05 2.39961e-05 -1.59171e-05
7.97193e-05 -2.40543e-05 -2.38565e-05 -1.59188e-05
8.03211e-05 -2.4237e-05 -2.4036e-05 -1.59188e-05
-8.0103e-05 2.38986e-05 2.40876e-05 -1.59171e-05
-4.24145e-08 -1.25018e-07 7.17569e-08 -1.62495e-05
8.00202e-05 -2.41456e-05 -2.39462e-05 -1.59188e-05
-4.49401e-08 -1.26517e-07 7.34815e-08 -1.62495e-05
-4.36751e-08 -1.25766e-07 7.26177e-08 -1.62495e-05
-7.97997e-05 2.38087e-05 2.39961e-05 -1.59171e-05
-7.91929e-05 2.36288e-05 2.38132e-05 -1.59171e-05
7.91175e-05 -2.38715e-05 -2.36769e-05 -1.59187e-05
7.97193e-05 -2.40543e-05 -2.38565e-05 -1.59188e-05
-7.94963e-05 2.37187e-05 2.39047e-05 -1.59171e-05
-3.9907e-08 -1.2353e-07 7.00446e-08 -1.62495e-05
7.94184e-05 -2.39629e-05 -2.37667e-05 -1.59187e-05
-4.24145e-08 -1.25018e-07 7.17569e-08 -1.62495e-05
-4.11585e-08 -1.24273e-07 7.08992e-08 -1.62495e-05
-7.91929e-05 2.36288e-05 2.38132e-05 -1.59171e-05
-7.85862e-05 2.3449e-05 2.36303e-05 -1.59171e-05
7.85157e-05 -2.36887e-05 -2.34973e-05 -1.59187e-05
7.91175e-05 -2.38715e-05 -2.36769e-05 -1.59187e-05
-7.88896e-05 2.35389e-05 2.37217e-05 -1.59171e-05
-3.74176e-08 -1.22053e-07 6.83444e-08 -1.62495e-05
7.88166e-05 -2.37801e-05 -2.35871e-05 -1.59187e-05
-3.9907e-08 -1.2353e-07 7.00446e-08 -1.62495e-05
-3.866e-08 -1.2279e-07 6.9193e-08 -1.62495e-05
-7.85862e-05 2.3449e-05 2.36303e-05 -1.59171e-05
-7.79795e-05 2.32691e-05 2.34473e-05 -1.5917e-05
7.79139e-05 -2.3506e-05 -2.33177e-05 -1.59187e-05
7.85157e-05 -2.36887e-05 -2.34973e-05 -1.59187e-05
-7.82829e-05 2.3359e-05 2.35388e-05 -1.59171e-05
-3.49464e-08 -1.20586e-07 6.66566e-08 -1.62495e-05
7.82148e-05 -2.35974e-05 -2.34075e-05 -1.59187e-05
-3.74176e-08 -1.22053e-07 6.83444e-08 -1.62495e-05
-3.61797e-08 -1.21318e-07 6.7499e-08 -1.62495e-05
-7.79795e-05 2.32691e-05 2.34473e-05 -1.5917e-05
-7.73728e-05 2.30892e-05 2.32644e-05 -1.5917e-05
7.7312e-05 -2.33233e-05 -2.3138e-05 -1.59187e-05
7.79139e-05 -2.3506e-05 -2.33177e-05 -1.59187e-05
-7.76762e-05 2.31791e-05 2.33559e-05 -1.5917e-05
-3.24933e-08 -1.19129e-07 6.49809e-08 -1.62495e-05
7.7613e-05 -2.34146e-05 -2.32279e-05 -1.59187e-05
-3.49464e-08 -1.20586e-07 6.66565e-08 -1.62495e-05
-3.37176e-08 -1.19856e-07 6.58172e-08 -1.62495e-05
-7.73728e-05 2.30892e-05 2.32644e-05 -1.5917e-05
-7.67662e-05 2.29093e-05 2.30815e-05 -1.5917e-05
7.67102e-05 -2.31406e-05 -2.29584e-05 -1.59187e-05
7.7312e-05 -2.33233e-05 -2.3138e-05 -1.59187e-05
-7.70695e-05 2.29993e-05 2.3173e-05 -1.5917e-05
-3.00585e-08 -1.17683e-07 6.33176e-08 -1.62495e-05
7.70111e-05 -2.32319e-05 -2.30482e-05 -1.59187e-05
-3.24933e-08 -1.19129e-07 6.49809e-08 -1.62495e-05
-3.12737e-08 -1.18404e-07 6.41477e-08 -1.62495e-05
-7.67662e-05 2.29093e-05 2.30815e-05 -1.5917e-05
-7.61595e-05 2.27294e-05 2.28986e-05 -1.5917e-05
7.61083e-05 -2.29578e-05 -2.27788e-05 -1.59186e-05
7.67102e-05 -2.31406e-05 -2.29584e-05 -1.59187e-05
-7.64628e-05 2.28194e-05 2.29901e-05 -1.5917e-05
-2.76419e-08 -1.16247e-07 6.16665e-08 -1.62495e-05
7.64092e-05 -2.30492e-05 -2.28686e-05 -1.59187e-05
-3.00585e-08 -1.17683e-07 6.33176e-08 -1.62495e-05
-2.88479e-08 -1.16963e-07 6.24905e-08 -1.62495e-05
-7.61595e-05 2.27294e-05 2.28986e-05 -1.5917e-05
-7.55529e-05 2.25495e-05 2.27157e-05 -1.5917e-05
7.55064e-05 -2.27751e-05 -2.25991e-05 -1.59186e-05
7.61083e-05 -2.29578e-05 -2.27788e-05 -1.59186e-05
-7.58562e-05 2.26394e-05 2.28072e-05 -1.5917e-05
-2.52435e-08 -1.14821e-07 6.00278e-08 -1.62494e-05
7.58074e-05 -2.28665e-05 -2.26889e-05 -1.59186e-05
-2.76419e-08 -1.16247e-07 6.16665e-08 -1.62495e-05
-2.64404e-08 -1.15533e-07 6.08456e-08 -1.62495e-05
-7.55529e-05 2.25495e-05 2.27157e-05 -1.5917e-05
-7.49463e-05 2.23696e-05 2.25329e-05 -1.5917e-05
7.49045e-05 -2.25925e-05 -2.24194e-05 -1.59186e-05
7.55064e-05 -2.27751e-05 -2.25991e-05 -1.59186e-05
-7.52496e-05 2.24595e-05 2.26243e-05 -1.5917e-05
-2.28634e-08 -1.13406e-07 5.84014e-08 -1.62494e-05
7.52055e-05 -2.26838e-05 -2.25093e-05 -1.59186e-05
-2.52435e-08 -1.14821e-07 6.00278e-08 -1.62494e-05
-2.40512e-08 -1.14113e-07 5.9213e-08 -1.62494e-05
-7.49463e-05 2.23696e-05 2.25329e-05 -1.5917e-05
-7.43397e-05 2.21896e-05 2.235e-05 -1.5917e-05
7.43026e-05 -2.24098e-05 -2.22398e-05 -1.59186e-05
7.49045e-05 -2.25925e-05 -2.24194e-05 -1.59186e-05
-7.4643e-05 2.22796e-05 2.24414e-05 -1.5917e-05
-2.05016e-08 -1.12002e-07 5.67873e-08 -1.62494e-05
7.46035e-05 -2.25011e-05 -2.23296e-05 -1.59186e-05
-2.28634e-08 -1.13406e-07 5.84014e-08 -1.62494e-05
-2.16802e-08 -1.12703e-07 5.75928e-08 -1.62494e-05
-7.43397e-05 2.21896e-05 2.235e-05 -1.5917e-05
-7.37331e-05 2.20097e-05 2.21672e-05 -1.5917e-05
7.37006e-05 -2.22271e-05 -2.20601e-05 -1.59186e-05
7.43026e-05 -2.24098e-05 -2.22398e-05 -1.59186e-05
-7.40364e-05 2.20997e-05 2.22586e-05 -1.5917e-05
-1.81581e-08 -1.10608e-07 5.51856e-08 -1.62494e-05
7.40016e-05 -2.23184e-05 -2.21499e-05 -1.59186e-05
-2.05016e-08 -1.12002e-07 5.67873e-08 -1.62494e-05
-1.93276e-08 -1.11304e-07 5.59849e-08 -1.62494e-05
-7.37331e-05 2.20097e-05 2.21672e-05 -1.5917e-05
-7.31266e-05 2.18297e-05 2.19844e-05 -1.5917e-05
7.30987e-05 -2.20445e-05 -2.18804e-05 -1.59186e-05
7.37006e-05 -2.22271e-05 -2.20601e-05 -1.59186e-05
-7.34298e-05 2.19197e-05 2.20758e-05 -1.5917e-05
-1.58329e-08 -1.09225e-07 5.35963e-08 -1.62494e-05
7.33996e-05 -2.21358e-05 -2.19702e-05 -1.59186e-05
-1.81581e-08 -1.10608e-07 5.51856e-08 -1.62494e-05
-1.69932e-08 -1.09916e-07 5.43895e-08 -1.62494e-05
-7.31266e-05 2.18297e-05 2.19844e-05 -1.5917e-05
-7.252e-05 2.16498e-05 2.18015e-05 -1.5917e-05
7.24967e-05 -2.18618e-05 -2.17007e-05 -1.59185e-05
7.30987e-05 -2.20445e-05 -2.18804e-05 -1.59186e-05
-7.28233e-05 2.17398e-05 2.18929e-05 -1.5917e-05
-1.3526e-08 -1.07853e-07 5.20194e-08 -1.62494e-05
7.27977e-05 -2.19531e-05 -2.17905e-05 -1.59185e-05
-1.58329e-08 -1.09225e-07 5.35963e-08 -1.62494e-05
-1.46772e-08 -1.08538e-07 5.28063e-08 -1.62494e-05
-7.252e-05 2.16498e-05 2.18015e-05 -1.5917e-05
-7.19135e-05 2.14698e-05 2.16187e-05 -1.5917e-05
7.18947e-05 -2.16792e-05 -2.15209e-05 -1.59185e-05
7.24967e-05 -2.18618e-05 -2.17007e-05 -1.59185e-05
-7.22168e-05 2.15598e-05 2.17101e-05 -1.5917e-05
-1.12376e-08 -1.06491e-07 5.0455e-08 -1.62494e-05
7.21957e-05 -2.17705e-05 -2.16108e-05 -1.59185e-05
-1.35261e-08 -1.07853e-07 5.20194e-08 -1.62494e-05
-1.23795e-08 -1.0717e-07 5.12357e-08 -1.62494e-05
-7.19135e-05 2.14698e-05 2.16187e-05 -1.5917e-05
-7.1307e-05 2.12898e-05 2.14359e-05 -1.5917e-05
7.12926e-05 -2.14965e-05 -2.13412e-05 -1.59185e-05
7.18947e-05 -2.16792e-05 -2.15209e-05 -1.59185e-05
-7.16103e-05 2.13798e-05 2.15273e-05 -1.5917e-05
-8.96748e-09 -1.05139e-07 4.89029e-08 -1.62494e-05
7.15937e-05 -2.15879e-05 -2.14311e-05 -1.59185e-05
-1.12376e-08 -1.06491e-07 5.0455e-08 -1.62494e-05
-1.01002e-08 -1.05814e-07 4.96774e-08 -1.62494e-05
-7.1307e-05 2.12898e-05 2.14359e-05 -1.5917e-05
-7.07005e-05 2.11098e-05 2.12532e-05 -1.5917e-05
7.06906e-05 -2.13139e-05 -2.11614e-05 -1.59185e-05
7.12926e-05 -2.14965e-05 -2.13412e-05 -1.59185e-05
-7.10038e-05 2.11998e-05 2.13445e-05 -1.5917e-05
-6.71579e-09 -1.03799e-07 4.73633e-08 -1.62493e-05
7.09916e-05 -2.14052e-05 -2.12513e-05 -1.59185e-05
-8.96748e-09 -1.05139e-07 4.89029e-08 -1.62494e-05
-7.83934e-09 -1.04468e-07 4.81316e-08 -1.62494e-05
-7.07005e-05 2.11098e-05 2.12532e-05 -1.5917e-05
-7.00941e-05 2.09298e-05 2.10704e-05 -1.5917e-05
7.00886e-05 -2.11313e-05 -2.09817e-05 -1.59185e-05
7.06906e-05 -2.13139e-05 -2.11614e-05 -1.59185e-05
-7.03973e-05 2.10198e-05 2.11618e-05 -1.5917e-05
-4.48251e-09 -1.02469e-07 4.58362e-08 -1.62493e-05
7.03896e-05 -2.12226e-05 -2.10716e-05 -1.59185e-05
-6.71579e-09 -1.03799e-07 4.73633e-08 -1.62493e-05
-5.59686e-09 -1.03132e-07 4.65982e-08 -1.62493e-05
-7.00941e-05 2.09298e-05 2.10704e-05 -1.5917e-05
-6.94876e-05 2.07498e-05 2.08876e-05 -1.5917e-05
6.94865e-05 -2.09487e-05 -2.08019e-05 -1.59184e-05
7.00886e-05 -2.11313e-05 -2.09817e-05 -1.59185e-05
-6.97908e-05 2.08398e-05 2.0979e-05 -1.5917e-05
-2.26769e-09 -1.01149e-07 4.43215e-08 -1.62493e-05
6.97875e-05 -2.104e-05 -2.08918e-05 -1.59185e-05
-4.48252e-09 -1.02469e-07 4.58362e-08 -1.62493e-05
-3.37281e-09 -1.01808e-07 4.50773e-08 -1.62493e-05
-6.94876e-05 2.07498e-05 2.08876e-05 -1.5917e-05
-6.88812e-05 2.05698e-05 2.07049e-05 -1.5917e-05
6.88844e-05 -2.07661e-05 -2.06221e-05 -1.59184e-05
6.94865e-05 -2.09487e-05 -2.08019e-05 -1.59184e-05
-6.91844e-05 2.06598e-05 2.07963e-05 -1.5917e-05
-7.13281e-11 -9.98406e-08 4.28194e-08 -1.62493e-05
6.91854e-05 -2.08574e-05 -2.0712e-05 -1.59184e-05
-2.26769e-09 -1.01149e-07 4.43215e-08 -1.62493e-05
-1.16721e-09 -1.00494e-07 4.35689e-08 -1.62493e-05
-6.88812e-05 2.05698e-05 2.07049e-05 -1.5917e-05
-6.82748e-05 2.03897e-05 2.05222e-05 -1.5917e-05
6.82823e-05 -2.05836e-05 -2.04423e-05 -1.59184e-05
6.88844e-05 -2.07661e-05 -2.06221e-05 -1.59184e-05
-6.8578e-05 2.04798e-05 2.06135e-05 -1.5917e-05
2.10656e-09 -9.85427e-08 4.13298e-08 -1.62493e-05
6.85833e-05 -2.06749e-05 -2.05322e-05 -1.59184e-05
-7.13281e-11 -9.98406e-08 4.28194e-08 -1.62493e-05
1.01991e-09 -9.91903e-08 4.2073e-08 -1.62493e-05
-6.82748e-05 2.03897e-05 2.05222e-05 -1.5917e-05
-6.76684e-05 2.02097e-05 2.03394e-05 -1.5917e-05
6.76802e-05 -2.0401e-05 -2.02625e-05 -1.59184e-05
6.82823e-05 -2.05836e-05 -2.04423e-05 -1.59184e-05
-6.79716e-05 2.02997e-05 2.04308e-05 -1.5917e-05
4.26595e-09 -9.72555e-08 3.98527e-08 -1.62493e-05
6.79812e-05 -2.04923e-05 -2.03524e-05 -1.59184e-05
2.10656e-09 -9.85427e-08 4.13298e-08 -1.62493e-05
3.18856e-09 -9.78977e-08 4.05896e-08 -1.62493e-05
-6.76684e-05 2.02097e-05 2.03394e-05 -1.5917e-05
-6.7062e-05 2.00296e-05 2.01567e-05 -1.59169e-05
6.7078e-05 -2.02185e-05 -2.00827e-05 -1.59184e-05
6.76802e-05 -2.0401e-05 -2.02625e-05 -1.59184e-05
-6.73652e-05 2.01197e-05 2.02481e-05 -1.59169e-05
6.40683e-09 -9.59791e-08 3.83881e-08 -1.62493e-05
6.73791e-05 -2.03097e-05 -2.01726e-05 -1.59184e-05
4.26595e-09 -9.72555e-08 3.98527e-08 -1.62493e-05
5.33869e-09 -9.6616e-08 3.91188e-08 -1.62493e-05
-6.7062e-05 2.00296e-05 2.01567e-05 -1.59169e-05
-6.64557e-05 1.98496e-05 1.9974e-05 -1.59169e-05
6.64759e-05 -2.00359e-05 -1.99028e-05 -1.59184e-05
6.7078e-05 -2.02185e-05 -2.00827e-05 -1.59184e-05
-6.67589e-05 1.99396e-05 2.00654e-05 -1.59169e-05
8.52916e-09 -9.47135e-08 3.69361e-08 -1.62493e-05
6.67769e-05 -2.01272e-05 -1.99928e-05 -1.59184e-05
6.40683e-09 -9.59791e-08 3.83881e-08 -1.62493e-05
7.4703e-09 -9.53449e-08 3.76606e-08 -1.62493e-05
-6.64557e-05 1.98496e-05 1.9974e-05 -1.59169e-05
-6.58494e-05 1.96695e-05 1.97914e-05 -1.59169e-05
6.58737e-05 -1.98534e-05 -1.9723e-05 -1.59183e-05
6.64759e-05 -2.00359e-05 -1.99028e-05 -1.59184e-05
-6.61525e-05 1.97595e-05 1.98827e-05 -1.59169e-05
1.0633e-08 -9.34586e-08 3.54967e-08 -1.62493e-05
6.61748e-05 -1.99447e-05 -1.98129e-05 -1.59183e-05
8.52916e-09 -9.47135e-08 3.69361e-08 -1.62493e-05
9.58336e-09 -9.40847e-08 3.62149e-08 -1.62493e-05
-6.58494e-05 1.96695e-05 1.97914e-05 -1.59169e-05
-6.5243e-05 1.94894e-05 1.96087e-05 -1.59169e-05
6.52715e-05 -1.96709e-05 -1.95431e-05 -1.59183e-05
6.58737e-05 -1.98534e-05 -1.9723e-05 -1.59183e-05
-6.55462e-05 1.95795e-05 1.97e-05 -1.59169e-05
1.27182e-08 -9.22146e-08 3.40699e-08 -1.62492e-05
6.55726e-05 -1.97621e-05 -1.96331e-05 -1.59183e-05
1.06329e-08 -9.34586e-08 3.54967e-08 -1.62493e-05
1.16779e-08 -9.28353e-08 3.47818e-08 -1.62492e-05
-6.5243e-05 1.94894e-05 1.96087e-05 -1.59169e-05
-6.46368e-05 1.93093e-05 1.9426e-05 -1.59169e-05
6.46693e-05 -1.94884e-05 -1.93632e-05 -1.59183e-05
6.52715e-05 -1.96709e-05 -1.95431e-05 -1.59183e-05
-6.49399e-05 1.93994e-05 1.95174e-05 -1.59169e-05
1.47848e-08 -9.09815e-08 3.26557e-08 -1.62492e-05
6.49704e-05 -1.95796e-05 -1.94532e-05 -1.59183e-05
1.27182e-08 -9.22146e-08 3.40699e-08 -1.62492e-05
1.37538e-08 -9.15967e-08 3.33612e-08 -1.62492e-05
-6.46368e-05 1.93093e-05 1.9426e-05 -1.59169e-05
-6.40305e-05 1.91292e-05 1.92434e-05 -1.59169e-05
6.4067e-05 -1.93059e-05 -1.91834e-05 -1.59183e-05
6.46693e-05 -1.94884e-05 -1.93632e-05 -1.59183e-05
-6.43336e-05 1.92193e-05 1.93347e-05 -1.59169e-05
1.68328e-08 -8.97591e-08 3.12541e-08 -1.62492e-05
6.43682e-05 -1.93971e-05 -1.92733e-05 -1.59183e-05
1.47848e-08 -9.09815e-08 3.26557e-08 -1.62492e-05
1.58111e-08 -9.03689e-08 3.19533e-08 -1.62492e-05
-6.40305e-05 1.91292e-05 1.92434e-05 -1.59169e-05
-6.34242e-05 1.89491e-05 1.90608e-05 -1.59169e-05
6.34648e-05 -1.91234e-05 -1.90035e-05 -1.59183e-05
6.4067e-05 -1.93059e-05 -1.91834e-05 -1.59183e-05
-6.37274e-05 1.90392e-05 1.91521e-05 -1.59169e-05
1.88622e-08 -8.85477e-08 2.98652e-08 -1.62492e-05
6.37659e-05 -1.92146e-05 -1.90934e-05 -1.59183e-05
1.68328e-08 -8.97591e-08 3.12541e-08 -1.62492e-05
1.78498e-08 -8.9152e-08 3.05581e-08 -1.62492e-05
-6.34242e-05 1.89491e-05 1.90608e-05 -1.59169e-05
-6.2818e-05 1.8769e-05 1.88782e-05 -1.59169e-05
6.28625e-05 -1.89409e-05 -1.88236e-05 -1.59182e-05
6.34648e-05 -1.91234e-05 -1.90035e-05 -1.59183e-05
-6.31211e-05 1.8859e-05 1.89695e-05 -1.59169e-05
2.0873e-08 -8.73471e-08 2.84889e-08 -1.62492e-05
6.31637e-05 -1.90321e-05 -1.89135e-05 -1.59182e-05
1.88622e-08 -8.85477e-08 2.98652e-08 -1.62492e-05
1.98699e-08 -8.7946e-08 2.91755e-08 -1.62492e-05
-6.2818e-05 1.8769e-05 1.88782e-05 -1.59169e-05
-6.22118e-05 1.85888e-05 1.86955e-05 -1.59169e-05
6.22602e-05 -1.87584e-05 -1.86436e-05 -1.59182e-05
6.28625e-05 -1.89409e-05 -1.88236e-05 -1.59182e-05
-6.25149e-05 1.86789e-05 1.87869e-05 -1.59169e-05
2.28651e-08 -8.61574e-08 2.71253e-08 -1.62492e-05
6.25614e-05 -1.88497e-05 -1.87336e-05 -1.59182e-05
2.0873e-08 -8.73471e-08 2.84889e-08 -1.62492e-05
2.18713e-08 -8.67509e-08 2.78055e-08 -1.62492e-05
-6.22118e-05 1.85888e-05 1.86955e-05 -1.59169e-05
-6.16056e-05 1.84087e-05 1.8513e-05 -1.59169e-05
6.16579e-05 -1.8576e-05 -1.84637e-05 -1.59182e-05
6.22602e-05 -1.87584e-05 -1.86436e-05 -1.59182e-05
-6.19087e-05 1.84988e-05 1.86043e-05 -1.59169e-05
2.48385e-08 -8.49787e-08 2.57744e-08 -1.62492e-05
6.19591e-05 -1.86672e-05 -1.85537e-05 -1.59182e-05
2.28651e-08 -8.61574e-08 2.71253e-08 -1.62492e-05
2.38541e-08 -8.55667e-08 2.64482e-08 -1.62492e-05
-6.16056e-05 1.84087e-05 1.8513e-05 -1.59169e-05
-6.09994e-05 1.82285e-05 1.83304e-05 -1.59169e-05
6.10556e-05 -1.83935e-05 -1.82837e-05 -1.59182e-05
6.16579e-05 -1.8576e-05 -1.84637e-05 -1.59182e-05
-6.13025e-05 1.83186e-05 1.84217e-05 -1.59169e-05
2.67932e-08 -8.38109e-08 2.44361e-08 -1.62492e-05
6.13568e-05 -1.84848e-05 -1.83737e-05 -1.59182e-05
2.48385e-08 -8.49787e-08 2.57744e-08 -1.62492e-05
2.58182e-08 -8.43934e-08 2.51037e-08 -1.62492e-05
-6.09994e-05 1.82285e-05 1.83304e-05 -1.59169e-05
-6.03932e-05 1.80483e-05 1.81478e-05 -1.59169e-05
6.04533e-05 -1.82111e-05 -1.81038e-05 -1.59182e-05
6.10556e-05 -1.83935e-05 -1.82837e-05 -1.59182e-05
-6.06963e-05 1.81384e-05 1.82391e-05 -1.59169e-05
2.87293e-08 -8.2654e-08 2.31106e-08 -1.62491e-05
6.07544e-05 -1.83023e-05 -1.81938e-05 -1.59182e-05
2.67932e-08 -8.38109e-08 2.44361e-08 -1.62492e-05
2.77636e-08 -8.32311e-08 2.37718e-08 -1.62491e-05
-6.03932e-05 1.80483e-05 1.81478e-05 -1.59169e-05
-5.97871e-05 1.78682e-05 1.79653e-05 -1.59169e-05
5.98509e-05 -1.80287e-05 -1.79238e-05 -1.59181e-05
6.04533e-05 -1.82111e-05 -1.81038e-05 -1.59182e-05
-6.00902e-05 1.79583e-05 1.80565e-05 -1.59169e-05
3.06466e-08 -8.15081e-08 2.17978e-08 -1.62491e-05
6.01521e-05 -1.81199e-05 -1.80138e-05 -1.59182e-05
2.87293e-08 -8.2654e-08 2.31106e-08 -1.62491e-05
2.96903e-08 -8.20797e-08 2.24526e-08 -1.62491e-05
-5.97871e-05 1.78682e-05 1.79653e-05 -1.59169e-05
-5.9181e-05 1.7688e-05 1.77827e-05 -1.59169e-05
5.92485e-05 -1.78463e-05 -1.77438e-05 -1.59181e-05
5.98509e-05 -1.80287e-05 -1.79238e-05 -1.59181e-05
-5.9484e-05 1.77781e-05 1.7874e-05 -1.59169e-05
3.25452e-08 -8.03732e-08 2.04977e-08 -1.62491e-05
5.95497e-05 -1.79375e-05 -1.78338e-05 -1.59181e-05
3.06466e-08 -8.15081e-08 2.17978e-08 -1.62491e-05
3.15982e-08 -8.09393e-08 2.11462e-08 -1.62491e-05
-5.9181e-05 1.7688e-05 1.77827e-05 -1.59169e-05
-5.85749e-05 1.75078e-05 1.76002e-05 -1.59169e-05
5.86461e-05 -1.76639e-05 -1.75638e-05 -1.59181e-05
5.92485e-05 -1.78463e-05 -1.77438e-05 -1.59181e-05
-5.88779e-05 1.75979e-05 1.76914e-05 -1.59169e-05
3.4425e-08 -7.92493e-08 1.92104e-08 -1.62491e-05
5.89473e-05 -1.77551e-05 -1.76538e-05 -1.59181e-05
3.25452e-08 -8.03732e-08 2.04977e-08 -1.62491e-05
3.34874e-08 -7.98099e-08 1.98525e-08 -1.62491e-05
-5.85749e-05 1.75078e-05 1.76002e-05 -1.59169e-05
-5.79688e-05 1.73276e-05 1.74177e-05 -1.59169e-05
5.80437e-05 -1.74815e-05 -1.73838e-05 -1.59181e-05
5.86461e-05 -1.76639e-05 -1.75638e-05 -1.59181e-05
-5.82718e-05 1.74177e-05 1.75089e-05 -1.59169e-05
3.6286e-08 -7.81364e-08 1.79359e-08 -1.62491e-05
5.83449e-05 -1.75727e-05 -1.74738e-05 -1.59181e-05
3.4425e-08 -7.92493e-08 1.92104e-08 -1.62491e-05
3.53578e-08 -7.86915e-08 1.85716e-08 -1.62491e-05
-5.79688e-05 1.73276e-05 1.74177e-05 -1.59169e-05
-5.73627e-05 1.71473e-05 1.72352e-05 -1.59169e-05
5.74413e-05 -1.72991e-05 -1.72038e-05 -1.59181e-05
5.80437e-05 -1.74815e-05 -1.73838e-05 -1.59181e-05
-5.76657e-05 1.72374e-05 1.73264e-05 -1.59169e-05
3.81283e-08 -7.70346e-08 1.66741e-08 -1.62491e-05
5.77425e-05 -1.73903e-05 -1.72938e-05 -1.59181e-05
3.6286e-08 -7.81364e-08 1.79359e-08 -1.62491e-05
3.72095e-08 -7.75841e-08 1.73034e-08 -1.62491e-05
-5.73627e-05 1.71473e-05 1.72352e-05 -1.59169e-05
-5.67567e-05 1.69671e-05 1.70527e-05 -1.59169e-05
5.68389e-05 -1.71167e-05 -1.70238e-05 -1.59181e-05
5.74413e-05 -1.72991e-05 -1.72038e-05 -1.59181e-05
-5.70597e-05 1.70572e-05 1.71439e-05 -1.59169e-05
3.99517e-08 -7.59438e-08 1.54252e-08 -1.62491e-05
5.71401e-05 -1.72079e-05 -1.71138e-05 -1.59181e-05
3.81283e-08 -7.70346e-08 1.66741e-08 -1.62491e-05
3.90423e-08 -7.64878e-08 1.60481e-08 -1.62491e-05
-5.67567e-05 1.69671e-05 1.70527e-05 -1.59169e-05
-5.61506e-05 1.67868e-05 1.68702e-05 -1.59168e-05
5.62364e-05 -1.69344e-05 -1.68437e-05 -1.5918e-05
5.68389e-05 -1.71167e-05 -1.70238e-05 -1.59181e-05
-5.64537e-05 1.6877e-05 1.69614e-05 -1.59168e-05
4.17563e-08 -7.48641e-08 1.4189e-08 -1.62491e-05
5.65376e-05 -1.70255e-05 -1.69337e-05 -1.5918e-05
3.99517e-08 -7.59438e-08 1.54252e-08 -1.62491e-05
4.08563e-08 -7.54025e-08 1.48055e-08 -1.62491e-05
-5.61506e-05 1.67868e-05 1.68702e-05 -1.59168e-05
-5.55446e-05 1.66066e-05 1.66877e-05 -1.59168e-05
5.56339e-05 -1.6752e-05 -1.66637e-05 -1.5918e-05
5.62364e-05 -1.69344e-05 -1.68437e-05 -1.5918e-05
-5.58476e-05 1.66967e-05 1.6779e-05 -1.59168e-05
4.35421e-08 -7.37954e-08 1.29657e-08 -1.6249e-05
5.59351e-05 -1.68432e-05 -1.67537e-05 -1.5918e-05
4.17563e-08 -7.48641e-08 1.4189e-08 -1.62491e-05
4.26516e-08 -7.43283e-08 1.35758e-08 -1.62491e-05
-5.55446e-05 1.66066e-05 1.66877e-05 -1.59168e-05
-5.49386e-05 1.64263e-05 1.65053e-05 -1.59168e-05
5.50314e-05 -1.65697e-05 -1.64836e-05 -1.5918e-05
5.56339e-05 -1.6752e-05 -1.66637e-05 -1.5918e-05
-5.52416e-05 1.65165e-05 1.65965e-05 -1.59168e-05
4.53091e-08 -7.27378e-08 1.17552e-08 -1.6249e-05
5.53327e-05 -1.66609e-05 -1.65736e-05 -1.5918e-05
4.35421e-08 -7.37954e-08 1.29657e-08 -1.6249e-05
4.4428e-08 -7.32652e-08 1.23588e-08 -1.6249e-05
-5.49386e-05 1.64263e-05 1.65053e-05 -1.59168e-05
-5.43327e-05 1.6246e-05 1.63228e-05 -1.59168e-05
5.44289e-05 -1.63874e-05 -1.63035e-05 -1.5918e-05
5.50314e-05 -1.65697e-05 -1.64836e-05 -1.5918e-05
-5.46357e-05 1.63362e-05 1.64141e-05 -1.59168e-05
4.70572e-08 -7.16914e-08 1.05575e-08 -1.6249e-05
5.47301e-05 -1.64785e-05 -1.63935e-05 -1.5918e-05
4.53091e-08 -7.27378e-08 1.17552e-08 -1.6249e-05
4.61855e-08 -7.22132e-08 1.11548e-08 -1.6249e-05
-5.43327e-05 1.6246e-05 1.63228e-05 -1.59168e-05
-5.37267e-05 1.60658e-05 1.61404e-05 -1.59168e-05
5.38263e-05 -1.62051e-05 -1.61234e-05 -1.5918e-05
5.44289e-05 -1.63874e-05 -1.63035e-05 -1.5918e-05
-5.40297e-05 1.61559e-05 1.62316e-05 -1.59168e-05
4.87864e-08 -7.06561e-08 9.37273e-09 -1.6249e-05
5.41276e-05 -1.62962e-05 -1.62135e-05 -1.5918e-05
4.70572e-08 -7.16914e-08 1.05575e-08 -1.6249e-05
4.79241e-08 -7.11723e-08 9.96353e-09 -1.6249e-05
-5.37267e-05 1.60658e-05 1.61404e-05 -1.59168e-05
-5.31208e-05 1.58855e-05 1.5958e-05 -1.59168e-05
5.32238e-05 -1.60228e-05 -1.59433e-05 -1.5918e-05
5.38263e-05 -1.62051e-05 -1.61234e-05 -1.5918e-05
-5.34238e-05 1.59756e-05 1.60492e-05 -1.59168e-05
5.04967e-08 -6.96319e-08 8.2008e-09 -1.6249e-05
5.35251e-05 -1.61139e-05 -1.60334e-05 -1.5918e-05
4.87864e-08 -7.06561e-08 9.37273e-09 -1.6249e-05
4.96439e-08 -7.01426e-08 8.78516e-09 -1.6249e-05
-5.31208e-05 1.58855e-05 1.5958e-05 -1.59168e-05
-5.25149e-05 1.57052e-05 1.57756e-05 -1.59168e-05
5.26212e-05 -1.58405e-05 -1.57632e-05 -1.59179e-05
5.32238e-05 -1.60228e-05 -1.59433e-05 -1.5918e-05
-5.28178e-05 1.57953e-05 1.58668e-05 -1.59168e-05
5.21881e-08 -6.86189e-08 7.04176e-09 -1.6249e-05
5.29225e-05 -1.59316e-05 -1.58532e-05 -1.59179e-05
5.04967e-08 -6.96319e-08 8.2008e-09 -1.6249e-05
5.13447e-08 -6.9124e-08 7.61967e-09 -1.6249e-05
-5.25149e-05 1.57052e-05 1.57756e-05 -1.59168e-05
-5.1909e-05 1.55248e-05 1.55932e-05 -1.59168e-05
5.20186e-05 -1.56582e-05 -1.5583e-05 -1.59179e-05
5.26212e-05 -1.58405e-05 -1.57632e-05 -1.59179e-05
-5.22119e-05 1.5615e-05 1.56844e-05 -1.59168e-05
5.38606e-08 -6.7617e-08 5.89561e-09 -1.6249e-05
5.23199e-05 -1.57493e-05 -1.56731e-05 -1.59179e-05
5.21881e-08 -6.86189e-08 7.04176e-09 -1.6249e-05
5.30267e-08 -6.81165e-08 6.46707e-09 -1.6249e-05
-5.1909e-05 1.55248e-05 1.55932e-05 -1.59168e-05
-5.13031e-05 1.53445e-05 1.54108e-05 -1.59168e-05
5.1416e-05 -1.54759e-05 -1.54029e-05 -1.59179e-05
5.20186e-05 -1.56582e-05 -1.5583e-05 -1.59179e-05
-5.1606e-05 1.54347e-05 1.5502e-05 -1.59168e-05
5.55141e-08 -6.66263e-08 4.76237e-09 -1.6249e-05
5.17173e-05 -1.5567e-05 -1.5493e-05 -1.59179e-05
5.38606e-08 -6.7617e-08 5.89561e-09 -1.6249e-05
5.46897e-08 -6.71202e-08 5.32738e-09 -1.6249e-05
-5.13031e-05 1.53445e-05 1.54108e-05 -1.59168e-05
-5.06972e-05 1.51642e-05 1.52285e-05 -1.59168e-05
5.08134e-05 -1.52937e-05 -1.52227e-05 -1.59179e-05
5.1416e-05 -1.54759e-05 -1.54029e-05 -1.59179e-05
-5.10002e-05 1.52543e-05 1.53196e-05 -1.59168e-05
5.71487e-08 -6.56468e-08 3.64205e-09 -1.6249e-05
5.11147e-05 -1.53848e-05 -1.53128e-05 -1.59179e-05
5.55141e-08 -6.66263e-08 4.76237e-09 -1.6249e-05
5.63338e-08 -6.61352e-08 4.2006e-09 -1.6249e-05
-5.06972e-05 1.51642e-05 1.52285e-05 -1.59168e-05
-5.00914e-05 1.49838e-05 1.50461e-05 -1.59168e-05
5.02107e-05 -1.51114e-05 -1.50426e-05 -1.59179e-05
5.08134e-05 -1.52937e-05 -1.52227e-05 -1.59179e-05
-5.03943e-05 1.5074e-05 1.51373e-05 -1.59168e-05
5.87643e-08 -6.46786e-08 2.53466e-09 -1.62489e-05
5.0512e-05 -1.52025e-05 -1.51327e-05 -1.59179e-05
5.71487e-08 -6.56468e-08 3.64205e-09 -1.6249e-05
5.79589e-08 -6.51613e-08 3.08674e-09 -1.62489e-05
-5.00914e-05 1.49838e-05 1.50461e-05 -1.59168e-05
-4.94856e-05 1.48034e-05 1.48638e-05 -1.59168e-05
4.96081e-05 -1.49292e-05 -1.48624e-05 -1.59178e-05
5.02107e-05 -1.51114e-05 -1.50426e-05 -1.59179e-05
-4.97885e-05 1.48936e-05 1.49549e-05 -1.59168e-05
6.0361e-08 -6.37215e-08 1.44021e-09 -1.62489e-05
4.99094e-05 -1.50203e-05 -1.49525e-05 -1.59179e-05
5.87643e-08 -6.46786e-08 2.53466e-09 -1.62489e-05
5.9565e-08 -6.41986e-08 1.98582e-09 -1.62489e-05
-4.94856e-05 1.48034e-05 1.48638e-05 -1.59168e-05
-4.88798e-05 1.46231e-05 1.46815e-05 -1.59168e-05
4.90054e-05 -1.47469e-05 -1.46822e-05 -1.59178e-05
4.96081e-05 -1.49292e-05 -1.48624e-05 -1.59178e-05
-4.91827e-05 1.47133e-05 1.47726e-05 -1.59168e-05
6.19387e-08 -6.27757e-08 3.5872e-10 -1.62489e-05
4.93067e-05 -1.48381e-05 -1.47723e-05 -1.59178e-05
6.0361e-08 -6.37215e-08 1.44021e-09 -1.62489e-05
6.11522e-08 -6.32472e-08 8.97846e-10 -1.62489e-05
-4.88798e-05 1.46231e-05 1.46815e-05 -1.59168e-05
-4.8274e-05 1.44427e-05 1.44991e-05 -1.59168e-05
4.84027e-05 -1.45647e-05 -1.4502e-05 -1.59178e-05
4.90054e-05 -1.47469e-05 -1.46822e-05 -1.59178e-05
-4.85769e-05 1.45329e-05 1.45903e-05 -1.59168e-05
6.34973e-08 -6.18411e-08 -7.09799e-10 -1.62489e-05
4.8704e-05 -1.46558e-05 -1.45921e-05 -1.59178e-05
6.19387e-08 -6.27757e-08 3.58722e-10 -1.62489e-05
6.27204e-08 -6.2307e-08 -1.77155e-10 -1.62489e-05
-4.8274e-05 1.44427e-05 1.44991e-05 -1.59168e-05
-4.76683e-05 1.42623e-05 1.43168e-05 -1.59168e-05
4.77999e-05 -1.43825e-05 -1.43217e-05 -1.59178e-05
4.84027e-05 -1.45647e-05 -1.4502e-05 -1.59178e-05
-4.79711e-05 1.43525e-05 1.4408e-05 -1.59168e-05
6.5037e-08 -6.09178e-08 -1.76535e-09 -1.62489e-05
4.81013e-05 -1.44736e-05 -1.44119e-05 -1.59178e-05
6.34973e-08 -6.18411e-08 -7.09803e-10 -1.62489e-05
6.42695e-08 -6.13781e-08 -1.2392e-09 -1.62489e-05
-4.76683e-05 1.42623e-05 1.43168e-05 -1.59168e-05
-4.70625e-05 1.40819e-05 1.41346e-05 -1.59168e-05
4.71972e-05 -1.42003e-05 -1.41415e-05 -1.59178e-05
4.77999e-05 -1.43825e-05 -1.43217e-05 -1.59178e-05
-4.73654e-05 1.41721e-05 1.42257e-05 -1.59168e-05
6.65576e-08 -6.00058e-08 -2.80791e-09 -1.62489e-05
4.74986e-05 -1.42914e-05 -1.42316e-05 -1.59178e-05
6.5037e-08 -6.09178e-08 -1.76535e-09 -1.62489e-05
6.57997e-08 -6.04604e-08 -2.28826e-09 -1.62489e-05
-4.70625e-05 1.40819e-05 1.41346e-05 -1.59168e-05
-4.64568e-05 1.39015e-05 1.39523e-05 -1.59168e-05
4.65944e-05 -1.40182e-05 -1.39613e-05 -1.59178e-05
4.71972e-05 -1.42003e-05 -1.41415e-05 -1.59178e-05
-4.67597e-05 1.39917e-05 1.40434e-05 -1.59168e-05
6.80592e-08 -5.91051e-08 -3.83747e-09 -1.62489e-05
4.68958e-05 -1.41092e-05 -1.40514e-05 -1.59178e-05
6.65576e-08 -6.00058e-08 -2.80791e-09 -1.62489e-05
6.73108e-08 -5.9554e-08 -3.32432e-09 -1.62489e-05
-4.64568e-05 1.39015e-05 1.39523e-05 -1.59168e-05
-4.58511e-05 1.3721e-05 1.377e-05 -1.59168e-05
4.59917e-05 -1.3836e-05 -1.3781e-05 -1.59177e-05
4.65944e-05 -1.40182e-05 -1.39613e-05 -1.59178e-05
-4.61539e-05 1.38112e-05 1.38612e-05 -1.59168e-05
6.95417e-08 -5.82156e-08 -4.85402e-09 -1.62489e-05
4.62931e-05 -1.39271e-05 -1.38711e-05 -1.59178e-05
6.80592e-08 -5.91051e-08 -3.83747e-09 -1.62489e-05
6.88028e-08 -5.86589e-08 -4.34737e-09 -1.62489e-05
-4.58511e-05 1.3721e-05 1.377e-05 -1.59168e-05
-4.52454e-05 1.35406e-05 1.35878e-05 -1.59168e-05
4.53889e-05 -1.36538e-05 -1.36007e-05 -1.59177e-05
4.59917e-05 -1.3836e-05 -1.3781e-05 -1.59177e-05
-4.55482e-05 1.36308e-05 1.36789e-05 -1.59168e-05
7.10051e-08 -5.73375e-08 -5.85754e-09 -1.62489e-05
4.56903e-05 -1.37449e-05 -1.36909e-05 -1.59177e-05
6.95417e-08 -5.82156e-08 -4.85402e-09 -1.62489e-05
7.02758e-08 -5.77752e-08 -5.35741e-09 -1.62489e-05
-4.52454e-05 1.35406e-05 1.35878e-05 -1.59168e-05
-4.46397e-05 1.33601e-05 1.34055e-05 -1.59168e-05
4.47861e-05 -1.34717e-05 -1.34204e-05 -1.59177e-05
4.53889e-05 -1.36538e-05 -1.36007e-05 -1.59177e-05
-4.49426e-05 1.34504e-05 1.34967e-05 -1.59168e-05
7.24495e-08 -5.64707e-08 -6.84804e-09 -1.62488e-05
4.50875e-05 -1.35628e-05 -1.35106e-05 -1.59177e-05
7.10051e-08 -5.73375e-08 -5.85754e-09 -1.62489e-05
7.17297e-08 -5.69027e-08 -6.35442e-09 -1.62488e-05
-4.46397e-05 1.33601e-05 1.34055e-05 -1.59168e-05
-4.40341e-05 1.31797e-05 1.32233e-05 -1.59168e-05
4.41832e-05 -1.32895e-05 -1.32401e-05 -1.59177e-05
4.47861e-05 -1.34717e-05 -1.34204e-05 -1.59177e-05
-4.43369e-05 1.32699e-05 1.33144e-05 -1.59168e-05
7.38748e-08 -5.56153e-08 -7.8255e-09 -1.62488e-05
4.44846e-05 -1.33806e-05 -1.33303e-05 -1.59177e-05
7.24495e-08 -5.64707e-08 -6.84804e-09 -1.62488e-05
7.31645e-08 -5.60416e-08 -7.3384e-09 -1.62488e-05
-4.40341e-05 1.31797e-05 1.32233e-05 -1.59168e-05
-4.34285e-05 1.29992e-05 1.30411e-05 -1.59168e-05
4.35804e-05 -1.31074e-05 -1.30598e-05 -1.59177e-05
4.41832e-05 -1.32895e-05 -1.32401e-05 -1.59177e-05
-4.37313e-05 1.30894e-05 1.31322e-05 -1.59168e-05
7.5281e-08 -5.47712e-08 -8.7899e-09 -1.62488e-05
4.38818e-05 -1.31985e-05 -1.315e-05 -1.59177e-05
7.38748e-08 -5.56153e-08 -7.8255e-09 -1.62488e-05
7.45802e-08 -5.51918e-08 -8.30932e-09 -1.62488e-05
-4.34285e-05 1.29992e-05 1.30411e-05 -1.59168e-05
-4.28229e-05 1.28187e-05 1.28589e-05 -1.59168e-05
4.29775e-05 -1.29253e-05 -1.28795e-05 -1.59177e-05
4.35804e-05 -1.31074e-05 -1.30598e-05 -1.59177e-05
-4.31257e-05 1.2909e-05 1.295e-05 -1.59168e-05
7.6668e-08 -5.39385e-08 -9.74124e-09 -1.62488e-05
4.32789e-05 -1.30164e-05 -1.29697e-05 -1.59177e-05
7.5281e-08 -5.47712e-08 -8.7899e-09 -1.62488e-05
7.59769e-08 -5.43534e-08 -9.2672e-09 -1.62488e-05
-4.28229e-05 1.28187e-05 1.28589e-05 -1.59168e-05
-4.22173e-05 1.26382e-05 1.26767e-05 -1.59167e-05
4.23746e-05 -1.27432e-05 -1.26992e-05 -1.59176e-05
4.29775e-05 -1.29253e-05 -1.28795e-05 -1.59177e-05
-4.25201e-05 1.27285e-05 1.27678e-05 -1.59167e-05
7.80359e-08 -5.31171e-08 -1.06795e-08 -1.62488e-05
4.26761e-05 -1.28343e-05 -1.27893e-05 -1.59177e-05
7.6668e-08 -5.39385e-08 -9.74124e-09 -1.62488e-05
7.73544e-08 -5.35264e-08 -1.0212e-08 -1.62488e-05
-4.22173e-05 1.26382e-05 1.26767e-05 -1.59167e-05
-4.16117e-05 1.24577e-05 1.24946e-05 -1.59167e-05
4.17717e-05 -1.25611e-05 -1.25188e-05 -1.59176e-05
4.23746e-05 -1.27432e-05 -1.26992e-05 -1.59176e-05
-4.19145e-05 1.2548e-05 1.25857e-05 -1.59167e-05
7.93847e-08 -5.23071e-08 -1.16047e-08 -1.62488e-05
4.20732e-05 -1.26522e-05 -1.2609e-05 -1.59176e-05
7.80359e-08 -5.31171e-08 -1.06795e-08 -1.62488e-05
7.87127e-08 -5.27107e-08 -1.11437e-08 -1.62488e-05
-4.16117e-05 1.24577e-05 1.24946e-05 -1.59167e-05
-4.10062e-05 1.22772e-05 1.23124e-05 -1.59167e-05
4.11688e-05 -1.2379e-05 -1.23385e-05 -1.59176e-05
4.17717e-05 -1.25611e-05 -1.25188e-05 -1.59176e-05
-4.13089e-05 1.23675e-05 1.24035e-05 -1.59167e-05
8.07144e-08 -5.15085e-08 -1.25168e-08 -1.62488e-05
4.14703e-05 -1.24701e-05 -1.24286e-05 -1.59176e-05
7.93847e-08 -5.23071e-08 -1.16047e-08 -1.62488e-05
8.00519e-08 -5.19064e-08 -1.20624e-08 -1.62488e-05
-4.10062e-05 1.22772e-05 1.23124e-05 -1.59167e-05
-4.04006e-05 1.20967e-05 1.21303e-05 -1.59167e-05
4.05658e-05 -1.2197e-05 -1.21581e-05 -1.59176e-05
4.11688e-05 -1.2379e-05 -1.23385e-05 -1.59176e-05
-4.07034e-05 1.21869e-05 1.22213e-05 -1.59167e-05
8.20248e-08 -5.07214e-08 -1.34158e-08 -1.62488e-05
4.08673e-05 -1.2288e-05 -1.22483e-05 -1.59176e-05
8.07144e-08 -5.15085e-08 -1.25168e-08 -1.62488e-05
8.1372e-08 -5.11135e-08 -1.29679e-08 -1.62488e-05
-4.04006e-05 1.20967e-05 1.21303e-05 -1.59167e-05
-3.97951e-05 1.19161e-05 1.19481e-05 -1.59167e-05
3.99629e-05 -1.20149e-05 -1.19777e-05 -1.59176e-05
4.05658e-05 -1.2197e-05 -1.21581e-05 -1.59176e-05
-4.00979e-05 1.20064e-05 1.20392e-05 -1.59167e-05
8.33162e-08 -4.99456e-08 -1.43017e-08 -1.62488e-05
4.02644e-05 -1.21059e-05 -1.20679e-05 -1.59176e-05
8.20248e-08 -5.07214e-08 -1.34158e-08 -1.62488e-05
8.26729e-08 -5.03321e-08 -1.38604e-08 -1.62488e-05
-3.97951e-05 1.19161e-05 1.19481e-05 -1.59167e-05
-3.91896e-05 1.17356e-05 1.1766e-05 -1.59167e-05
3.93599e-05 -1.18329e-05 -1.17973e-05 -1.59176e-05
3.99629e-05 -1.20149e-05 -1.19777e-05 -1.59176e-05
-3.94924e-05 1.18259e-05 1.18571e-05 -1.59167e-05
8.45883e-08 -4.91813e-08 -1.51744e-08 -1.62488e-05
3.96614e-05 -1.19239e-05 -1.18875e-05 -1.59176e-05
8.33162e-08 -4.99456e-08 -1.43017e-08 -1.62488e-05
8.39546e-08 -4.9562e-08 -1.47397e-08 -1.62488e-05
-3.91896e-05 1.17356e-05 1.1766e-05 -1.59167e-05
-3.85842e-05 1.1555e-05 1.15839e-05 -1.59167e-05
3.87569e-05 -1.16508e-05 -1.16169e-05 -1.59175e-05
3.93599e-05 -1.18329e-05 -1.17973e-05 -1.59176e-05
-3.88869e-05 1.16453e-05 1.1675e-05 -1.59167e-05
8.58412e-08 -4.84284e-08 -1.6034e-08 -1.62487e-05
3.90584e-05 -1.17418e-05 -1.17071e-05 -1.59176e-05
8.45883e-08 -4.91813e-08 -1.51744e-08 -1.62488e-05
8.52171e-08 -4.88034e-08 -1.56059e-08 -1.62488e-05
-3.85842e-05 1.1555e-05 1.15839e-05 -1.59167e-05
-3.79787e-05 1.13744e-05 1.14018e-05 -1.59167e-05
3.81539e-05 -1.14688e-05 -1.14365e-05 -1.59175e-05
3.87569e-05 -1.16508e-05 -1.16169e-05 -1.59175e-05
-3.82814e-05 1.14647e-05 1.14929e-05 -1.59167e-05
8.70749e-08 -4.7687e-08 -1.68805e-08 -1.62487e-05
3.84554e-05 -1.15598e-05 -1.15267e-05 -1.59175e-05
8.58412e-08 -4.84284e-08 -1.60341e-08 -1.62487e-05
8.64605e-08 -4.80563e-08 -1.64589e-08 -1.62487e-05
-3.79787e-05 1.13744e-05 1.14018e-05 -1.59167e-05
-3.73733e-05 1.11939e-05 1.12197e-05 -1.59167e-05
3.75509e-05 -1.12868e-05 -1.1256e-05 -1.59175e-05
3.81539e-05 -1.14688e-05 -1.14365e-05 -1.59175e-05
-3.7676e-05 1.12842e-05 1.13108e-05 -1.59167e-05
8.82895e-08 -4.6957e-08 -1.77139e-08 -1.62487e-05
3.78524e-05 -1.13778e-05 -1.13462e-05 -1.59175e-05
8.70749e-08 -4.7687e-08 -1.68805e-08 -1.62487e-05
8.76846e-08 -4.73206e-08 -1.72989e-08 -1.62487e-05
-3.73733e-05 1.11939e-05 1.12197e-05 -1.59167e-05
-3.67679e-05 1.10133e-05 1.10377e-05 -1.59167e-05
3.69478e-05 -1.11048e-05 -1.10756e-05 -1.59175e-05
3.75509e-05 -1.12868e-05 -1.1256e-05 -1.59175e-05
-3.70706e-05 1.11036e-05 1.11287e-05 -1.59167e-05
8.94847e-08 -4.62385e-08 -1.85341e-08 -1.62487e-05
3.72493e-05 -1.11958e-05 -1.11658e-05 -1.59175e-05
8.82895e-08 -4.6957e-08 -1.77139e-08 -1.62487e-05
8.88895e-08 -4.65964e-08 -1.81256e-08 -1.62487e-05
-3.67679e-05 1.10133e-05 1.10377e-05 -1.59167e-05
-3.61625e-05 1.08327e-05 1.08556e-05 -1.59167e-05
3.63447e-05 -1.09228e-05 -1.08951e-05 -1.59175e-05
3.69478e-05 -1.11048e-05 -1.10756e-05 -1.59175e-05
-3.64652e-05 1.0923e-05 1.09467e-05 -1.59167e-05
9.06608e-08 -4.55315e-08 -1.93411e-08 -1.62487e-05
3.66463e-05 -1.10138e-05 -1.09853e-05 -1.59175e-05
8.94847e-08 -4.62385e-08 -1.85341e-08 -1.62487e-05
9.00751e-08 -4.58836e-08 -1.89392e-08 -1.62487e-05
-3.61625e-05 1.08327e-05 1.08556e-05 -1.59167e-05
-3.55571e-05 1.0652e-05 1.06736e-05 -1.59167e-05
3.57416e-05 -1.07408e-05 -1.07146e-05 -1.59175e-05
3.63447e-05 -1.09228e-05 -1.08951e-05 -1.59175e-05
-3.58598e-05 1.07424e-05 1.07646e-05 -1.59167e-05
9.18176e-08 -4.4836e-08 -2.0135e-08 -1.62487e-05
3.60432e-05 -1.08318e-05 -1.08049e-05 -1.59175e-05
9.06608e-08 -4.55315e-08 -1.93411e-08 -1.62487e-05
9.12416e-08 -4.51823e-08 -1.97397e-08 -1.62487e-05
-3.55571e-05 1.0652e-05 1.06736e-05 -1.59167e-05
-3.49517e-05 1.04714e-05 1.04916e-05 -1.59167e-05
3.51385e-05 -1.05589e-05 -1.05341e-05 -1.59175e-05
3.57416e-05 -1.07408e-05 -1.07146e-05 -1.59175e-05
-3.52544e-05 1.05617e-05 1.05826e-05 -1.59167e-05
9.29551e-08 -4.4152e-08 -2.09156e-08 -1.62487e-05
3.54401e-05 -1.06498e-05 -1.06244e-05 -1.59175e-05
9.18176e-08 -4.4836e-08 -2.0135e-08 -1.62487e-05
9.23887e-08 -4.44926e-08 -2.05269e-08 -1.62487e-05
-3.49517e-05 1.04714e-05 1.04916e-05 -1.59167e-05
-3.43464e-05 1.02908e-05 1.03096e-05 -1.59167e-05
3.45354e-05 -1.03769e-05 -1.03536e-05 -1.59174e-05
3.51385e-05 -1.05589e-05 -1.05341e-05 -1.59175e-05
-3.46491e-05 1.03811e-05 1.04006e-05 -1.59167e-05
9.40734e-08 -4.34795e-08 -2.16831e-08 -1.62487e-05
3.4837e-05 -1.04679e-05 -1.04439e-05 -1.59175e-05
9.29551e-08 -4.4152e-08 -2.09156e-08 -1.62487e-05
9.35166e-08 -4.38143e-08 -2.1301e-08 -1.62487e-05
-3.43464e-05 1.02908e-05 1.03096e-05 -1.59167e-05
-3.37411e-05 1.01101e-05 1.01276e-05 -1.59167e-05
3.39322e-05 -1.0195e-05 -1.01731e-05 -1.59174e-05
3.45354e-05 -1.03769e-05 -1.03536e-05 -1.59174e-05
-3.40437e-05 1.02005e-05 1.02186e-05 -1.59167e-05
9.51724e-08 -4.28185e-08 -2.24374e-08 -1.62487e-05
3.42338e-05 -1.02859e-05 -1.02634e-05 -1.59174e-05
9.40734e-08 -4.34795e-08 -2.16831e-08 -1.62487e-05
9.46253e-08 -4.31476e-08 -2.20619e-08 -1.62487e-05
-3.37411e-05 1.01101e-05 1.01276e-05 -1.59167e-05
-3.31358e-05 9.92946e-06 9.94557e-06 -1.59167e-05
3.33291e-05 -1.0013e-05 -9.99259e-06 -1.59174e-05
3.39322e-05 -1.0195e-05 -1.01731e-05 -1.59174e-05
-3.34384e-05 1.00198e-05 1.00366e-05 -1.59167e-05
9.62522e-08 -4.21691e-08 -2.31785e-08 -1.62487e-05
3.36307e-05 -1.0104e-05 -1.00829e-05 -1.59174e-05
9.51724e-08 -4.28185e-08 -2.24374e-08 -1.62487e-05
9.57147e-08 -4.24923e-08 -2.28096e-08 -1.62487e-05
-3.31358e-05 9.92946e-06 9.94557e-06 -1.59167e-05
-3.25305e-05 9.74879e-06 9.76359e-06 -1.59167e-05
3.27259e-05 -9.83111e-06 -9.81205e-06 -1.59174e-05
3.33291e-05 -1.0013e-05 -9.99259e-06 -1.59174e-05
-3.28331e-05 9.83913e-06 9.85458e-06 -1.59167e-05
9.73126e-08 -4.15311e-08 -2.39063e-08 -1.62487e-05
3.30275e-05 -9.92207e-06 -9.90232e-06 -1.59174e-05
9.62522e-08 -4.21691e-08 -2.31785e-08 -1.62487e-05
9.67848e-08 -4.18486e-08 -2.35441e-08 -1.62487e-05
-3.25305e-05 9.74879e-06 9.76359e-06 -1.59167e-05
-3.19252e-05 9.56811e-06 9.58163e-06 -1.59167e-05
3.21227e-05 -9.6492e-06 -9.6315e-06 -1.59174e-05
3.27259e-05 -9.83111e-06 -9.81205e-06 -1.59174e-05
-3.22279e-05 9.65845e-06 9.67261e-06 -1.59167e-05
9.83537e-08 -4.09048e-08 -2.4621e-08 -1.62487e-05
3.24243e-05 -9.74015e-06 -9.72177e-06 -1.59174e-05
9.73126e-08 -4.15311e-08 -2.39063e-08 -1.62487e-05
9.78355e-08 -4.12165e-08 -2.42653e-08 -1.62487e-05
-3.19252e-05 9.56811e-06 9.58163e-06 -1.59167e-05
-3.132e-05 9.38741e-06 9.39968e-06 -1.59167e-05
3.15195e-05 -9.4673e-06 -9.45093e-06 -1.59174e-05
3.21227e-05 -9.6492e-06 -9.6315e-06 -1.59174e-05
-3.16226e-05 9.47776e-06 9.49066e-06 -1.59167e-05
9.93755e-08 -4.029e-08 -2.53224e-08 -1.62486e-05
3.18211e-05 -9.55825e-06 -9.54121e-06 -1.59174e-05
9.83537e-08 -4.09048e-08 -2.4621e-08 -1.62487e-05
9.8867e-08 -4.05959e-08 -2.49733e-08 -1.62486e-05
-3.132e-05 9.38741e-06 9.39968e-06 -1.59167e-05
-3.07148e-05 9.2067e-06 9.21775e-06 -1.59167e-05
3.09162e-05 -9.28542e-06 -9.27035e-06 -1.59174e-05
3.15195e-05 -9.4673e-06 -9.45093e-06 -1.59174e-05
-3.10174e-05 9.29706e-06 9.30872e-06 -1.59167e-05
1.00378e-07 -3.96867e-08 -2.60106e-08 -1.62486e-05
3.12178e-05 -9.37636e-06 -9.36064e-06 -1.59174e-05
9.93755e-08 -4.029e-08 -2.53224e-08 -1.62486e-05
9.98792e-08 -3.99869e-08 -2.56681e-08 -1.62486e-05
-3.07148e-05 9.2067e-06 9.21775e-06 -1.59167e-05
-3.01096e-05 9.02598e-06 9.03583e-06 -1.59167e-05
3.0313e-05 -9.10354e-06 -9.08975e-06 -1.59173e-05
3.09162e-05 -9.28542e-06 -9.27035e-06 -1.59174e-05
-3.04122e-05 9.11635e-06 9.12679e-06 -1.59167e-05
1.01361e-07 -3.9095e-08 -2.66855e-08 -1.62486e-05
3.06146e-05 -9.19448e-06 -9.18005e-06 -1.59173e-05
1.00378e-07 -3.96867e-08 -2.60106e-08 -1.62486e-05
1.00872e-07 -3.93894e-08 -2.63497e-08 -1.62486e-05
-3.01096e-05 9.02598e-06 9.03583e-06 -1.59167e-05
-2.95044e-05 8.84526e-06 8.85392e-06 -1.59167e-05
2.97097e-05 -8.92168e-06 -8.90915e-06 -1.59173e-05
3.0313e-05 -9.10354e-06 -9.08975e-06 -1.59173e-05
-2.9807e-05 8.93562e-06 8.94487e-06 -1.59167e-05
1.02325e-07 -3.85149e-08 -2.73472e-08 -1.62486e-05
3.00113e-05 -9.01261e-06 -8.99945e-06 -1.59173e-05
1.01361e-07 -3.9095e-08 -2.66855e-08 -1.62486e-05
1.01846e-07 -3.88035e-08 -2.7018e-08 -1.62486e-05
-2.95044e-05 8.84526e-06 8.85392e-06 -1.59167e-05
-2.88992e-05 8.66452e-06 8.67203e-06 -1.59167e-05
2.91064e-05 -8.73982e-06 -8.72853e-06 -1.59173e-05
2.97097e-05 -8.92168e-06 -8.90915e-06 -1.59173e-05
-2.92018e-05 8.75489e-06 8.76297e-06 -1.59167e-05
1.0327e-07 -3.79464e-08 -2.79956e-08 -1.62486e-05
2.9408e-05 -8.83075e-06 -8.81884e-06 -1.59173e-05
1.02325e-07 -3.85149e-08 -2.73472e-08 -1.62486e-05
1.028e-07 -3.82292e-08 -2.76731e-08 -1.62486e-05
-2.88992e-05 8.66452e-06 8.67203e-06 -1.59167e-05
-2.82941e-05 8.48376e-06 8.49014e-06 -1.59167e-05
2.85031e-05 -8.55798e-06 -8.5479e-06 -1.59173e-05
2.91064e-05 -8.73982e-06 -8.72853e-06 -1.59173e-05
-2.85967e-05 8.57414e-06 8.58108e-06 -1.59167e-05
1.04195e-07 -3.73895e-08 -2.86308e-08 -1.62486e-05
2.88047e-05 -8.6489e-06 -8.63821e-06 -1.59173e-05
1.0327e-07 -3.79464e-08 -2.79956e-08 -1.62486e-05
1.03735e-07 -3.76665e-08 -2.83149e-08 -1.62486e-05
-2.82941e-05 8.48376e-06 8.49014e-06 -1.59167e-05
-2.7689e-05 8.303e-06 8.30827e-06 -1.59167e-05
2.78997e-05 -8.37615e-06 -8.36725e-06 -1.59173e-05
2.85031e-05 -8.55798e-06 -8.5479e-06 -1.59173e-05
-2.79915e-05 8.39338e-06 8.39921e-06 -1.59167e-05
1.05101e-07 -3.68442e-08 -2.92527e-08 -1.62486e-05
2.82014e-05 -8.46707e-06 -8.45757e-06 -1.59173e-05
1.04195e-07 -3.73895e-08 -2.86308e-08 -1.62486e-05
1.0465e-07 -3.71154e-08 -2.89434e-08 -1.62486e-05
-2.7689e-05 8.303e-06 8.30827e-06 -1.59167e-05
-2.70839e-05 8.12223e-06 8.12642e-06 -1.59167e-05
2.72964e-05 -8.19433e-06 -8.18659e-06 -1.59173e-05
2.78997e-05 -8.37615e-06 -8.36725e-06 -1.59173e-05
-2.73864e-05 8.21262e-06 8.21735e-06 -1.59167e-05
1.05987e-07 -3.63105e-08 -2.98613e-08 -1.62486e-05
2.75981e-05 -8.28524e-06 -8.27692e-06 -1.59173e-05
1.05101e-07 -3.68442e-08 -2.92527e-08 -1.62486e-05
1.05546e-07 -3.65759e-08 -2.95587e-08 -1.62486e-05
-2.70839e-05 8.12223e-06 8.12642e-06 -1.59167e-05
-2.64788e-05 7.94144e-06 7.94458e-06 -1.59167e-05
2.6693e-05 -8.01253e-06 -8.00592e-06 -1.59173e-05
2.72964e-05 -8.19433e-06 -8.18659e-06 -1.59173e-05
-2.67813e-05 8.03184e-06 8.0355e-06 -1.59167e-05
1.06854e-07 -3.57885e-08 -3.04567e-08 -1.62486e-05
2.69947e-05 -8.10343e-06 -8.09626e-06 -1.59173e-05
1.05987e-07 -3.63105e-08 -2.98613e-08 -1.62486e-05
1.06423e-07 -3.6048e-08 -3.01606e-08 -1.62486e-05
-2.64788e-05 7.94144e-06 7.94458e-06 -1.59167e-05
-2.58737e-05 7.76064e-06 7.76275e-06 -1.59167e-05
2.60896e-05 -7.83073e-06 -7.82524e-06 -1.59172e-05
2.6693e-05 -8.01253e-06 -8.00592e-06 -1.59173e-05
-2.61763e-05 7.85104e-06 7.85366e-06 -1.59167e-05
1.07702e-07 -3.5278e-08 -3.10387e-08 -1.62486e-05
2.63913e-05 -7.92163e-06 -7.91558e-06 -1.59173e-05
1.06854e-07 -3.57885e-08 -3.04567e-08 -1.62486e-05
1.0728e-07 -3.55318e-08 -3.07493e-08 -1.62486e-05
-2.58737e-05 7.76064e-06 7.76275e-06 -1.59167e-05
-2.52687e-05 7.57984e-06 7.58093e-06 -1.59167e-05
2.54862e-05 -7.64895e-06 -7.64454e-06 -1.59172e-05
2.60896e-05 -7.83073e-06 -7.82524e-06 -1.59172e-05
-2.55712e-05 7.67024e-06 7.67184e-06 -1.59167e-05
1.0853e-07 -3.47792e-08 -3.16075e-08 -1.62486e-05
2.57879e-05 -7.73984e-06 -7.73489e-06 -1.59172e-05
1.07702e-07 -3.5278e-08 -3.10387e-08 -1.62486e-05
1.08118e-07 -3.50271e-08 -3.13247e-08 -1.62486e-05
-2.52687e-05 7.57984e-06 7.58093e-06 -1.59167e-05
-2.46636e-05 7.39902e-06 7.39913e-06 -1.59167e-05
2.48828e-05 -7.46718e-06 -7.46383e-06 -1.59172e-05
2.54862e-05 -7.64895e-06 -7.64454e-06 -1.59172e-05
-2.49662e-05 7.48943e-06 7.49003e-06 -1.59167e-05
1.09339e-07 -3.4292e-08 -3.21629e-08 -1.62486e-05
2.51845e-05 -7.55806e-06 -7.55418e-06 -1.59172e-05
1.0853e-07 -3.47792e-08 -3.16075e-08 -1.62486e-05
1.08937e-07 -3.45341e-08 -3.18868e-08 -1.62486e-05
-2.46636e-05 7.39902e-06 7.39913e-06 -1.59167e-05
-2.40586e-05 7.21819e-06 7.21734e-06 -1.59167e-05
2.42793e-05 -7.28541e-06 -7.2831e-06 -1.59172e-05
2.48828e-05 -7.46718e-06 -7.46383e-06 -1.59172e-05
-2.43611e-05 7.3086e-06 7.30823e-06 -1.59167e-05
1.10128e-07 -3.38165e-08 -3.2705e-08 -1.62486e-05
2.45811e-05 -7.37629e-06 -7.37347e-06 -1.59172e-05
1.09339e-07 -3.4292e-08 -3.21629e-08 -1.62486e-05
1.09736e-07 -3.40528e-08 -3.24356e-08 -1.62486e-05
-2.40586e-05 7.21819e-06 7.21734e-06 -1.59167e-05
-2.34537e-05 7.03734e-06 7.03556e-06 -1.59167e-05
2.36759e-05 -7.10366e-06 -7.10237e-06 -1.59172e-05
2.42793e-05 -7.28541e-06 -7.2831e-06 -1.59172e-05
-2.37561e-05 7.12777e-06 7.12645e-06 -1.59167e-05
1.10898e-07 -3.33526e-08 -3.32339e-08 -1.62486e-05
2.39776e-05 -7.19454e-06 -7.19274e-06 -1.59172e-05
1.10128e-07 -3.38165e-08 -3.2705e-08 -1.62486e-05
1.10516e-07 -3.35831e-08 -3.29711e-08 -1.62486e-05
-2.34537e-05 7.03734e-06 7.03556e-06 -1.59167e-05
-2.28487e-05 6.85649e-06 6.8538e-06 -1.59167e-05
2.30724e-05 -6.92193e-06 -6.92162e-06 -1.59172e-05
2.36759e-05 -7.10366e-06 -7.10237e-06 -1.59172e-05
-2.31512e-05 6.94692e-06 6.94468e-06 -1.59167e-05
1.11649e-07 -3.29004e-08 -3.37494e-08 -1.62485e-05
2.33741e-05 -7.01279e-06 -7.012e-06 -1.59172e-05
1.10898e-07 -3.33526e-08 -3.32339e-08 -1.62486e-05
1.11276e-07 -3.3125e-08 -3.34933e-08 -1.62485e-05
-2.28487e-05 6.85649e-06 6.8538e-06 -1.59167e-05
-2.22437e-05 6.67563e-06 6.67205e-06 -1.59167e-05
2.24689e-05 -6.7402e-06 -6.74086e-06 -1.59172e-05
2.30724e-05 -6.92193e-06 -6.92162e-06 -1.59172e-05
-2.25462e-05 6.76606e-06 6.76292e-06 -1.59167e-05
1.1238e-07 -3.24598e-08 -3.42515e-08 -1.62485e-05
2.27706e-05 -6.83106e-06 -6.83124e-06 -1.59172e-05
1.11649e-07 -3.29004e-08 -3.37494e-08 -1.62485e-05
1.12017e-07 -3.26786e-08 -3.40021e-08 -1.62485e-05
-2.22437e-05 6.67563e-06 6.67205e-06 -1.59167e-05
-2.16388e-05 6.49475e-06 6.49031e-06 -1.59167e-05
2.18653e-05 -6.55848e-06 -6.56008e-06 -1.59172e-05
2.24689e-05 -6.7402e-06 -6.74086e-06 -1.59172e-05
-2.19413e-05 6.58519e-06 6.58118e-06 -1.59167e-05
1.13092e-07 -3.2031e-08 -3.47404e-08 -1.62485e-05
2.21671e-05 -6.64934e-06 -6.65047e-06 -1.59172e-05
1.1238e-07 -3.24598e-08 -3.42515e-08 -1.62485e-05
1.12738e-07 -3.22439e-08 -3.44976e-08 -1.62485e-05
-2.16388e-05 6.49475e-06 6.49031e-06 -1.59167e-05
-2.10339e-05 6.31386e-06 6.30859e-06 -1.59167e-05
2.12618e-05 -6.37678e-06 -6.37929e-06 -1.59171e-05
2.18653e-05 -6.55848e-06 -6.56008e-06 -1.59172e-05
-2.13363e-05 6.40431e-06 6.39945e-06 -1.59167e-05
1.13784e-07 -3.16139e-08 -3.52158e-08 -1.62485e-05
2.15636e-05 -6.46763e-06 -6.46969e-06 -1.59172e-05
1.13092e-07 -3.2031e-08 -3.47404e-08 -1.62485e-05
1.1344e-07 -3.1821e-08 -3.49798e-08 -1.62485e-05
-2.10339e-05 6.31386e-06 6.30859e-06 -1.59167e-05
-2.0429e-05 6.13296e-06 6.12688e-06 -1.59167e-05
2.06582e-05 -6.19509e-06 -6.19849e-06 -1.59171e-05
2.12618e-05 -6.37678e-06 -6.37929e-06 -1.59171e-05
-2.07314e-05 6.22341e-06 6.21773e-06 -1.59167e-05
1.14457e-07 -3.12086e-08 -3.56779e-08 -1.62485e-05
2.096e-05 -6.28593e-06 -6.28889e-06 -1.59171e-05
1.13784e-07 -3.16139e-08 -3.52158e-08 -1.62485e-05
1.14123e-07 -3.14098e-08 -3.54485e-08 -1.62485e-05
-2.0429e-05 6.13296e-06 6.12688e-06 -1.59167e-05
-1.98241e-05 5.95205e-06 5.94518e-06 -1.59167e-05
2.00547e-05 -6.01341e-06 -6.01768e-06 -1.59171e-05
2.06582e-05 -6.19509e-06 -6.19849e-06 -1.59171e-05
-2.01266e-05 6.04251e-06 6.03603e-06 -1.59167e-05
1.15111e-07 -3.08152e-08 -3.61267e-08 -1.62485e-05
2.03564e-05 -6.10425e-06 -6.10809e-06 -1.59171e-05
1.14457e-07 -3.12086e-08 -3.56779e-08 -1.62485e-05
1.14786e-07 -3.10104e-08 -3.5904e-08 -1.62485e-05
-1.98241e-05 5.95205e-06 5.94518e-06 -1.59167e-05
-1.92193e-05 5.77113e-06 5.76349e-06 -1.59167e-05
1.94511e-05 -5.83174e-06 -5.83685e-06 -1.59171e-05
2.00547e-05 -6.01341e-06 -6.01768e-06 -1.59171e-05
-1.95217e-05 5.86159e-06 5.85433e-06 -1.59167e-05
1.15745e-07 -3.04338e-08 -3.6562e-08 -1.62485e-05
1.97529e-05 -5.92257e-06 -5.92726e-06 -1.59171e-05
1.15111e-07 -3.08152e-08 -3.61267e-08 -1.62485e-05
1.1543e-07 -3.0623e-08 -3.6346e-08 -1.62485e-05
-1.92193e-05 5.77113e-06 5.76349e-06 -1.59167e-05
-1.86144e-05 5.5902e-06 5.58182e-06 -1.59167e-05
1.88474e-05 -5.65008e-06 -5.65601e-06 -1.59171e-05
1.94511e-05 -5.83174e-06 -5.83685e-06 -1.59171e-05
-1.89169e-05 5.68066e-06 5.67266e-06 -1.59167e-05
1.1636e-07 -3.00645e-08 -3.6984e-08 -1.62485e-05
1.91492e-05 -5.74091e-06 -5.74643e-06 -1.59171e-05
1.15745e-07 -3.04338e-08 -3.6562e-08 -1.62485e-05
1.16055e-07 -3.02476e-08 -3.67747e-08 -1.62485e-05
-1.86144e-05 5.5902e-06 5.58182e-06 -1.59167e-05
-1.80096e-05 5.40925e-06 5.40017e-06 -1.59167e-05
1.82438e-05 -5.46844e-06 -5.47515e-06 -1.59171e-05
1.88474e-05 -5.65008e-06 -5.65601e-06 -1.59171e-05
-1.8312e-05 5.49972e-06 5.49099e-06 -1.59167e-05
1.16957e-07 -2.97074e-08 -3.73925e-08 -1.62485e-05
1.85456e-05 -5.55926e-06 -5.56558e-06 -1.59171e-05
1.1636e-07 -3.00645e-08 -3.6984e-08 -1.62485e-05
1.16661e-07 -2.98844e-08 -3.71899e-08 -1.62485e-05
-1.80096e-05 5.40925e-06 5.40017e-06 -1.59167e-05
-1.74048e-05 5.22829e-06 5.21852e-06 -1.59167e-05
1.76401e-05 -5.28681e-06 -5.29429e-06 -1.59171e-05
1.82438e-05 -5.46844e-06 -5.47515e-06 -1.59171e-05
-1.77072e-05 5.31877e-06 5.30934e-06 -1.59167e-05
1.17534e-07 -2.93629e-08 -3.77877e-08 -1.62485e-05
1.7942e-05 -5.37762e-06 -5.38472e-06 -1.59171e-05
1.16957e-07 -2.97074e-08 -3.73925e-08 -1.62485e-05
1.17248e-07 -2.95336e-08 -3.75918e-08 -1.62485e-05
-1.74048e-05 5.22829e-06 5.21852e-06 -1.59167e-05
-1.68001e-05 5.04732e-06 5.03689e-06 -1.59167e-05
1.70365e-05 -5.10519e-06 -5.11341e-06 -1.59171e-05
1.76401e-05 -5.28681e-06 -5.29429e-06 -1.59171e-05
-1.71024e-05 5.13781e-06 5.1277e-06 -1.59167e-05
1.18093e-07 -2.90311e-08 -3.81694e-08 -1.62485e-05
1.73383e-05 -5.19599e-06 -5.20385e-06 -1.59171e-05
1.17534e-07 -2.93629e-08 -3.77877e-08 -1.62485e-05
1.17816e-07 -2.91954e-08 -3.79802e-08 -1.62485e-05
-1.68001e-05 5.04732e-06 5.03689e-06 -1.59167e-05
-1.61953e-05 4.86634e-06 4.85527e-06 -1.59167e-05
1.64328e-05 -4.92358e-06 -4.93251e-06 -1.59171e-05
1.70365e-05 -5.10519e-06 -5.11341e-06 -1.59171e-05
-1.64977e-05 4.95683e-06 4.94608e-06 -1.59167e-05
1.18634e-07 -2.87124e-08 -3.85379e-08 -1.62485e-05
1.67346e-05 -5.01438e-06 -5.02296e-06 -1.59171e-05
1.18093e-07 -2.90311e-08 -3.81694e-08 -1.62485e-05
1.18366e-07 -2.88701e-08 -3.83553e-08 -1.62485e-05
-1.61953e-05 4.86634e-06 4.85527e-06 -1.59167e-05
-1.55906e-05 4.68534e-06 4.67367e-06 -1.59167e-05
1.58291e-05 -4.74199e-06 -4.75161e-06 -1.59171e-05
1.64328e-05 -4.92358e-06 -4.93251e-06 -1.59171e-05
-1.58929e-05 4.77584e-06 4.76447e-06 -1.59167e-05
1.19158e-07 -2.84069e-08 -3.88931e-08 -1.62485e-05
1.61309e-05 -4.83278e-06 -4.84206e-06 -1.59171e-05
1.18634e-07 -2.87124e-08 -3.85379e-08 -1.62485e-05
1.18898e-07 -2.8558e-08 -3.87172e-08 -1.62485e-05
-1.55906e-05 4.68534e-06 4.67367e-06 -1.59167e-05
-1.49858e-05 4.50434e-06 4.49207e-06 -1.59167e-05
1.52253e-05 -4.56041e-06 -4.57069e-06 -1.5917e-05
1.58291e-05 -4.74199e-06 -4.75161e-06 -1.59171e-05
-1.52882e-05 4.59484e-06 4.58287e-06 -1.59167e-05
1.19664e-07 -2.81148e-08 -3.92354e-08 -1.62485e-05
1.55272e-05 -4.65119e-06 -4.66115e-06 -1.5917e-05
1.19158e-07 -2.84069e-08 -3.88931e-08 -1.62485e-05
1.19413e-07 -2.82592e-08 -3.90659e-08 -1.62485e-05
-1.49858e-05 4.50434e-06 4.49207e-06 -1.59167e-05
-1.43811e-05 4.32332e-06 4.31049e-06 -1.59167e-05
1.46216e-05 -4.37884e-06 -4.38976e-06 -1.5917e-05
1.52253e-05 -4.56041e-06 -4.57069e-06 -1.5917e-05
-1.46835e-05 4.41383e-06 4.40128e-06 -1.59167e-05
1.20154e-07 -2.78359e-08 -3.95649e-08 -1.62485e-05
1.49235e-05 -4.46962e-06 -4.48022e-06 -1.5917e-05
1.19664e-07 -2.81148e-08 -3.92354e-08 -1.62485e-05
1.19911e-07 -2.79737e-08 -3.94017e-08 -1.62485e-05
-1.43811e-05 4.32332e-06 4.31049e-06 -1.59167e-05
-1.37764e-05 4.14229e-06 4.12893e-06 -1.59167e-05
1.40179e-05 -4.19729e-06 -4.20881e-06 -1.5917e-05
1.46216e-05 -4.37884e-06 -4.38976e-06 -1.5917e-05
-1.40788e-05 4.2328e-06 4.21971e-06 -1.59167e-05
1.20628e-07 -2.75696e-08 -3.98821e-08 -1.62485e-05
1.43197e-05 -4.28806e-06 -4.29929e-06 -1.5917e-05
1.20154e-07 -2.78359e-08 -3.95649e-08 -1.62485e-05
1.20393e-07 -2.77013e-08 -3.9725e-08 -1.62485e-05
-1.37764e-05 4.14229e-06 4.12893e-06 -1.59167e-05
-1.31718e-05 3.96125e-06 3.94737e-06 -1.59167e-05
1.34141e-05 -4.01576e-06 -4.02786e-06 -1.5917e-05
1.40179e-05 -4.19729e-06 -4.20881e-06 -1.5917e-05
-1.34741e-05 4.05177e-06 4.03815e-06 -1.59167e-05
1.21086e-07 -2.73143e-08 -4.01877e-08 -1.62484e-05
1.3716e-05 -4.10652e-06 -4.11834e-06 -1.5917e-05
1.20628e-07 -2.75696e-08 -3.98821e-08 -1.62485e-05
1.20859e-07 -2.74407e-08 -4.00363e-08 -1.62484e-05
-1.31718e-05 3.96125e-06 3.94737e-06 -1.59167e-05
-1.25671e-05 3.78021e-06 3.76583e-06 -1.59166e-05
1.28103e-05 -3.83423e-06 -3.84689e-06 -1.5917e-05
1.34141e-05 -4.01576e-06 -4.02786e-06 -1.5917e-05
-1.28695e-05 3.87073e-06 3.8566e-06 -1.59167e-05
1.21526e-07 -2.7067e-08 -4.04826e-08 -1.62484e-05
1.31122e-05 -3.92499e-06 -3.93738e-06 -1.5917e-05
1.21086e-07 -2.73143e-08 -4.01877e-08 -1.62484e-05
1.21308e-07 -2.71899e-08 -4.03364e-08 -1.62484e-05
-1.25671e-05 3.78021e-06 3.76583e-06 -1.59166e-05
-1.19625e-05 3.59918e-06 3.58429e-06 -1.59166e-05
1.22065e-05 -3.65272e-06 -3.66592e-06 -1.59169e-05
1.28103e-05 -3.83423e-06 -3.84689e-06 -1.5917e-05
-1.22648e-05 3.6897e-06 3.67506e-06 -1.59166e-05
1.21948e-07 -2.68224e-08 -4.07681e-08 -1.62483e-05
1.25084e-05 -3.74348e-06 -3.75641e-06 -1.59169e-05
1.21526e-07 -2.7067e-08 -4.04826e-08 -1.62484e-05
1.2174e-07 -2.69448e-08 -4.06264e-08 -1.62484e-05
-1.19625e-05 3.59918e-06 3.58429e-06 -1.59166e-05
-1.1358e-05 3.41816e-06 3.40277e-06 -1.59165e-05
1.16028e-05 -3.47121e-06 -3.48495e-06 -1.59168e-05
1.22065e-05 -3.65272e-06 -3.66592e-06 -1.59169e-05
-1.16602e-05 3.50867e-06 3.49353e-06 -1.59166e-05
1.22346e-07 -2.65719e-08 -4.10458e-08 -1.62483e-05
1.19046e-05 -3.56197e-06 -3.57543e-06 -1.59169e-05
1.21948e-07 -2.68224e-08 -4.07681e-08 -1.62483e-05
1.2215e-07 -2.66986e-08 -4.09078e-08 -1.62483e-05
-1.1358e-05 3.41816e-06 3.40277e-06 -1.59165e-05
-1.07534e-05 3.23715e-06 3.22127e-06 -1.59165e-05
1.09989e-05 -3.28968e-06 -3.30397e-06 -1.59167e-05
1.16028e-05 -3.47121e-06 -3.48495e-06 -1.59168e-05
-1.10557e-05 3.32765e-06 3.31202e-06 -1.59165e-05
1.22711e-07 -2.63021e-08 -4.1318e-08 -1.62482e-05
1.13009e-05 -3.38045e-06 -3.39446e-06 -1.59168e-05
1.22346e-07 -2.65719e-08 -4.10458e-08 -1.62483e-05
1.22533e-07 -2.64405e-08 -4.11824e-08 -1.62482e-05
-1.07534e-05 3.23715e-06 3.22127e-06 -1.59165e-05
-1.0149e-05 3.05614e-06 3.03978e-06 -1.59164e-05
1.03951e-05 -3.10808e-06 -3.12301e-06 -1.59166e-05
1.09989e-05 -3.28968e-06 -3.30397e-06 -1.59167e-05
-1.04512e-05 3.14665e-06 3.13052e-06 -1.59164e-05
1.23029e-07 -2.59928e-08 -4.15869e-08 -1.62481e-05
1.0697e-05 -3.19889e-06 -3.21349e-06 -1.59167e-05
1.22711e-07 -2.63021e-08 -4.1318e-08 -1.62482e-05
1.22877e-07 -2.6154e-08 -4.14526e-08 -1.62481e-05
-1.0149e-05 3.05614e-06 3.03978e-06 -1.59164e-05
-9.54447e-06 2.87508e-06 2.85831e-06 -1.59165e-05
9.79113e-06 -2.92629e-06 -2.94207e-06 -1.59166e-05
1.03951e-05 -3.10808e-06 -3.12301e-06 -1.59166e-05
-9.84673e-06 2.96562e-06 2.94904e-06 -1.59164e-05
1.23277e-07 -2.5615e-08 -4.18553e-08 -1.62481e-05
1.00931e-05 -3.01722e-06 -3.03254e-06 -1.59166e-05
1.23029e-07 -2.59928e-08 -4.15869e-08 -1.62481e-05
1.23164e-07 -2.58147e-08 -4.1721e-08 -1.62481e-05
-9.54447e-06 2.87508e-06 2.85831e-06 -1.59165e-05
-8.93992e-06 2.69382e-06 2.6769e-06 -1.59169e-05
9.18688e-06 -2.7441e-06 -2.76119e-06 -1.59169e-05
9.79113e-06 -2.92629e-06 -2.94207e-06 -1.59166e-05
-9.2422e-06 2.78449e-06 2.76759e-06 -1.59166e-05
1.23421e-07 -2.51286e-08 -4.21254e-08 -1.62486e-05
9.48904e-06 -2.83526e-06 -2.85162e-06 -1.59167e-05
1.23277e-07 -2.5615e-08 -4.18553e-08 -1.62481e-05
1.23365e-07 -2.53885e-08 -4.19899e-08 -1.62483e-05
-8.93992e-06 2.69382e-06 2.6769e-06 -1.59169e-05
-8.33489e-06 2.51202e-06 2.49552e-06 -1.59183e-05
8.58187e-06 -2.56106e-06 -2.58035e-06 -1.5918e-05
9.18688e-06 -2.7441e-06 -2.76119e-06 -1.59169e-05
-8.63751e-06 2.60302e-06 2.58621e-06 -1.59174e-05
1.23409e-07 -2.44794e-08 -4.23983e-08 -1.62502e-05
8.88453e-06 -2.65273e-06 -2.67077e-06 -1.59173e-05
1.23421e-07 -2.51286e-08 -4.21254e-08 -1.62486e-05
1.23438e-07 -2.48282e-08 -4.22615e-08 -1.62492e-05
-8.33489e-06 2.51202e-06 2.49552e-06 -1.59183e-05
-7.72894e-06 2.32895e-06 2.31428e-06 -1.59219e-05
7.97552e-06 -2.37632e-06 -2.39966e-06 -1.59211e-05
8.58187e-06 -2.56106e-06 -2.58035e-06 -1.5918e-05
-8.03203e-06 2.4207e-06 2.40486e-06 -1.59197e-05
1.23168e-07 -2.35994e-08 -4.26725e-08 -1.62544e-05
8.27887e-06 -2.46897e-06 -2.48996e-06 -1.59192e-05
1.23409e-07 -2.44794e-08 -4.23983e-08 -1.62502e-05
1.23322e-07 -2.40733e-08 -4.25353e-08 -1.62519e-05
-7.72894e-06 2.32895e-06 2.31428e-06 -1.59219e-05
-7.12024e-06 2.1433e-06 2.13298e-06 -1.59299e-05
7.36582e-06 -2.1884e-06 -2.21889e-06 -1.59286e-05
7.97552e-06 -2.37632e-06 -2.39966e-06 -1.59211e-05
-7.42516e-06 2.23659e-06 2.22367e-06 -1.59251e-05
1.22601e-07 -2.24048e-08 -4.29414e-08 -1.62639e-05
7.67132e-06 -2.28291e-06 -2.30932e-06 -1.59241e-05
1.23168e-07 -2.35994e-08 -4.26725e-08 -1.62544e-05
1.22933e-07 -2.30468e-08 -4.28083e-08 -1.62582e-05
-7.12024e-06 2.1433e-06 2.13298e-06 -1.59299e-05
-6.50707e-06 1.95246e-06 1.95198e-06 -1.59469e-05
6.75079e-06 -1.99452e-06 -2.0384e-06 -1.59447e-05
7.36582e-06 -2.1884e-06 -2.21889e-06 -1.59286e-05
-6.81421e-06 2.04869e-06 2.04236e-06 -1.5937e-05
1.21581e-07 -2.08069e-08 -4.31891e-08 -1.62839e-05
7.05898e-06 -2.09238e-06 -2.12854e-06 -1.59352e-05
1.22601e-07 -2.24048e-08 -4.29414e-08 -1.62639e-05
1.22157e-07 -2.16625e-08 -4.3069e-08 -1.62722e-05
-6.50707e-06 1.95246e-06 1.95198e-06 -1.59469e-05
-5.88287e-06 1.75264e-06 1.7701e-06 -1.59808e-05
6.1236e-06 -1.79073e-06 -1.85694e-06 -1.59773e-05
6.75079e-06 -1.99452e-06 -2.0384e-06 -1.59447e-05
-6.19717e-06 1.85412e-06 1.86131e-06 -1.5961e-05
1.19952e-07 -1.87159e-08 -4.33868e-08 -1.63236e-05
6.43956e-06 -1.89432e-06 -1.94796e-06 -1.59583e-05
1.21581e-07 -2.08069e-08 -4.31891e-08 -1.62839e-05
1.20854e-07 -1.98264e-08 -4.32974e-08 -1.63003e-05
-5.88287e-06 1.75264e-06 1.7701e-06 -1.59808e-05
-5.24315e-06 1.53691e-06 1.58839e-06 -1.6044e-05
5.47943e-06 -1.56998e-06 -1.67548e-06 -1.60389e-05
6.1236e-06 -1.79073e-06 -1.85694e-06 -1.59773e-05
-5.56468e-06 1.64701e-06 1.679e-06 -1.60077e-05
1.17544e-07 -1.60905e-08 -4.348e-08 -1.63979e-05
5.80339e-06 -1.68272e-06 -1.766e-06 -1.60036e-05
1.19952e-07 -1.87159e-08 -4.33868e-08 -1.63236e-05
1.18855e-07 -1.74721e-08 -4.34499e-08 -1.63557e-05
-5.24315e-06 1.53691e-06 1.58839e-06 -1.6044e-05
-4.56938e-06 1.29906e-06 1.40157e-06 -1.61568e-05
4.79942e-06 -1.32611e-06 -1.48856e-06 -1.61497e-05
5.47943e-06 -1.56998e-06 -1.67548e-06 -1.60389e-05
-4.91311e-06 1.42174e-06 1.4963e-06 -1.60925e-05
1.14189e-07 -1.2953e-08 -4.33871e-08 -1.65286e-05
5.14651e-06 -1.45191e-06 -1.5834e-06 -1.60865e-05
1.17544e-07 -1.60905e-08 -4.348e-08 -1.63979e-05
1.15996e-07 -1.45735e-08 -4.34666e-08 -1.64535e-05
-4.56938e-06 1.29906e-06 1.40157e-06 -1.61568e-05
-3.8586e-06 1.02893e-06 1.21272e-06 -1.63425e-05
4.08041e-06 -1.04934e-06 -1.29903e-06 -1.63331e-05
4.79942e-06 -1.32611e-06 -1.48856e-06 -1.61497e-05
-4.21641e-06 1.16714e-06 1.30683e-06 -1.62391e-05
1.09824e-07 -9.5604e-09 -4.29699e-08 -1.67426e-05
4.44258e-06 -1.1909e-06 -1.39358e-06 -1.62309e-05
1.14189e-07 -1.2953e-08 -4.33871e-08 -1.65286e-05
1.1213e-07 -1.12683e-08 -4.32266e-08 -1.66253e-05
-3.8586e-06 1.02893e-06 1.21272e-06 -1.63425e-05
-3.07657e-06 7.39284e-07 1.0017e-06 -1.6627e-05
3.28828e-06 -7.53423e-07 -1.08637e-06 -1.66154e-05
4.08041e-06 -1.04934e-06 -1.29903e-06 -1.63331e-05
-3.48299e-06 8.87189e-07 1.11248e-06 -1.64706e-05
1.0453e-07 -6.41763e-09 -4.20482e-08 -1.70601e-05
3.69996e-06 -9.04324e-07 -1.19813e-06 -1.64601e-05
1.09824e-07 -9.5604e-09 -4.29699e-08 -1.67426e-05
1.07285e-07 -7.89268e-09 -4.25966e-08 -1.68839e-05
-3.07657e-06 7.39284e-07 1.0017e-06 -1.6627e-05
-2.27038e-06 4.53727e-07 7.78566e-07 -1.69963e-05
2.47095e-06 -4.63937e-07 -8.6015e-07 -1.69832e-05
3.28828e-06 -7.53423e-07 -1.08637e-06 -1.66154e-05
-2.66412e-06 5.8681e-07 8.90276e-07 -1.68045e-05
9.88999e-08 -4.73942e-09 -4.03545e-08 -1.74592e-05
2.8703e-06 -5.98502e-07 -9.73626e-07 -1.6792e-05
1.0453e-07 -6.41763e-09 -4.20482e-08 -1.70601e-05
1.01691e-07 -5.30938e-09 -4.13065e-08 -1.72604e-05
-2.27038e-06 4.53727e-07 7.78566e-07 -1.69963e-05
-1.44374e-06 3.26016e-07 4.79023e-07 -1.73598e-05
1.6341e-06 -3.38216e-07 -5.55377e-07 -1.73473e-05
2.47095e-06 -4.63937e-07 -8.6015e-07 -1.69832e-05
-1.87153e-06 3.64848e-07 6.4572e-07 -1.71884e-05
9.40026e-08 -6.21773e-09 -3.76221e-08 -1.77997e-05
2.06673e-06 -3.75026e-07 -7.25015e-07 -1.71752e-05
9.88999e-08 -4.73942e-09 -4.03545e-08 -1.74592e-05
9.62918e-08 -4.91848e-09 -3.916e-08 -1.7639e-05
-1.44374e-06 3.26016e-07 4.79023e-07 -1.73598e-05
-8.63466e-07 5.31346e-07 1.42337e-07 -1.73742e-05
1.04828e-06 -5.56605e-07 -2.10717e-07 -1.73656e-05
1.6341e-06 -3.38216e-07 -5.55377e-07 -1.73473e-05
-1.07754e-06 3.54389e-07 3.09921e-07 -1.74455e-05
9.20268e-08 -1.35796e-08 -3.36202e-08 -1.7711e-05
1.26422e-06 -3.71339e-07 -3.82664e-07 -1.74345e-05
9.40026e-08 -6.21773e-09 -3.76221e-08 -1.77997e-05
9.24439e-08 -9.01817e-09 -3.57539e-08 -1.78658e-05
-8.63466e-07 5.31346e-07 1.42337e-07 -1.73742e-05
-5.50362e-07 1.4264e-06 -3.75444e-07 -1.64047e-05
7.38705e-07 -1.48145e-06 3.18318e-07 -1.64037e-05
1.04828e-06 -5.56605e-07 -2.10717e-07 -1.73656e-05
-7.16186e-07 9.17527e-07 -8.62888e-08 -1.70638e-05
9.46885e-08 -2.87616e-08 -2.82544e-08 -1.65715e-05
9.01393e-07 -9.55402e-07 2.31465e-08 -1.70587e-05
9.20268e-08 -1.35796e-08 -3.36202e-08 -1.7711e-05
9.27687e-08 -2.01135e-08 -3.1138e-08 -1.72774e-05
-5.50362e-07 1.4264e-06 -3.75444e-07 -1.64047e-05
-8.1769e-07 2.59395e-06 -7.61253e-07 -1.34018e-05
1.02149e-06 -2.69512e-06 7.1727e-07 -1.34106e-05
7.38705e-07 -1.48145e-06 3.18318e-07 -1.64037e-05
-5.29646e-07 1.96901e-06 -6.16872e-07 -1.52273e-05
1.03883e-07 -5.29836e-08 -2.18139e-08 -1.35895e-05
7.24107e-07 -2.04562e-06 5.66365e-07 -1.52309e-05
9.46885e-08 -2.87616e-08 -2.82544e-08 -1.65715e-05
9.82401e-08 -3.96588e-08 -2.51062e-08 -1.54343e-05
-8.1769e-07 2.59395e-06 -7.61253e-07 -1.34018e-05
-1.57061e-06 4.26654e-06 -1.1554e-06 -7.66833e-06
1.79734e-06 -4.4161e-06 1.12233e-06 -7.66216e-06
1.02149e-06 -2.69512e-06 7.1727e-07 -1.34106e-05
-1.22713e-06 3.36465e-06 -9.16078e-07 -1.08993e-05
1.20105e-07 -7.0357e-08 -2.13205e-08 -7.44394e-06
1.44214e-06 -3.49133e-06 8.78226e-07 -1.0907e-05
1.03883e-07 -5.29836e-08 -2.18139e-08 -1.35895e-05
1.11281e-07 -6.67605e-08 -1.90802e-08 -1.09232e-05
0.000104609 0 -4.48323e-05 6.00247e-05
0.000106508 -1.46751e-05 -3.93568e-05 1.98804e-05
0.00033028 -4.37624e-05 -0.000122793 -1.39867e-06
0.000291963 0 -0.000125127 3.81907e-05
0.00010215 -6.2371e-06 -4.11055e-05 3.78595e-05
0.00021833 -2.92465e-05 -8.10356e-05 1.16659e-05
0.000316449 -2.46133e-05 -0.000125072 1.42753e-05
0.000193953 0 -8.31229e-05 5.47828e-05
0.000209209 -1.39241e-05 -8.36936e-05 2.70963e-05
0.000106508 -1.46751e-05 -3.93568e-05 1.98804e-05
0.000114897 -2.41706e-05 -3.88828e-05 -4.17076e-06
0.000347208 -8.00331e-05 -0.000114503 -1.37096e-05
0.00033028 -4.37624e-05 -0.000122793 -1.39867e-06
0.000112488 -2.03534e-05 -3.94863e-05 5.73757e-06
0.000229616 -5.01615e-05 -7.69091e-05 -7.58696e-06
0.000338762 -6.30466e-05 -0.000118164 -9.33209e-06
0.00021833 -2.92465e-05 -8.10356e-05 1.16659e-05
0.000224177 -4.11544e-05 -7.84382e-05 1.24043e-06
0.000114897 -2.41706e-05 -3.88828e-05 -4.17076e-06
0.000117404 -3.1228e-05 -3.69325e-05 -1.50674e-05
0.000355817 -9.83759e-05 -0.000110332 -1.60734e-05
0.000347208 -8.00331e-05 -0.000114503 -1.37096e-05
0.000115835 -2.79337e-05 -3.7672e-05 -1.07403e-05
0.000236241 -6.35498e-05 -7.40104e-05 -1.58756e-05
0.000353573 -9.14099e-05 -0.000112356 -1.58609e-05
0.000229616 -5.01615e-05 -7.69091e-05 -7.58696e-06
0.00023389 -5.76994e-05 -7.55102e-05 -1.3314e-05
0.000117404 -3.1228e-05 -3.69325e-05 -1.50674e-05
0.000118733 -3.45809e-05 -3.60652e-05 -1.8949e-05
0.000355533 -0.000105606 -0.000107112 -1.48533e-05
0.000355817 -9.83759e-05 -0.000110332 -1.60734e-05
0.000118678 -3.33397e-05 -3.65736e-05 -1.7669e-05
0.000237385 -6.95354e-05 -7.19353e-05 -1.76997e-05
0.000355838 -0.000102911 -0.000108397 -1.5392e-05
0.000236241 -6.35498e-05 -7.40104e-05 -1.58756e-05
0.000237221 -6.73161e-05 -7.28165e-05 -1.70226e-05
0.000118733 -3.45809e-05 -3.60652e-05 -1.8949e-05
0.000117976 -3.58967e-05 -3.51769e-05 -1.93562e-05
0.000353062 -0.000107007 -0.000105452 -1.40195e-05
0.000355533 -0.000105606 -0.000107112 -1.48533e-05
0.000118266 -3.54165e-05 -3.55071e-05 -1.93689e-05
0.000236016 -7.152e-05 -7.04985e-05 -1.74097e-05
0.000354681 -0.000106774 -0.000106246 -1.44392e-05
0.000237385 -6.95354e-05 -7.19353e-05 -1.76997e-05
0.00023692 -7.08665e-05 -7.11657e-05 -1.77712e-05
0.000117976 -3.58967e-05 -3.51769e-05 -1.93562e-05
0.000117011 -3.59059e-05 -3.47593e-05 -1.86626e-05
0.000349559 -0.000106483 -0.000104175 -1.34606e-05
0.000353062 -0.000107007 -0.000105452 -1.40195e-05
0.000117634 -3.60091e-05 -3.4982e-05 -1.90795e-05
0.000233717 -7.13936e-05 -6.9567e-05 -1.6674e-05
0.000351185 -0.000106861 -0.00010471 -1.36541e-05
0.000236016 -7.152e-05 -7.04985e-05 -1.74097e-05
0.00023488 -7.16201e-05 -6.99686e-05 -1.69923e-05
0.000117011 -3.59059e-05 -3.47593e-05 -1.86626e-05
0.000115763 -3.55539e-05 -3.43752e-05 -1.77699e-05
0.000346504 -0.000105309 -0.000103369 -1.32862e-05
0.000349559 -0.000106483 -0.000104175 -1.34606e-05
0.000116317 -3.57463e-05 -3.45304e-05 -1.81976e-05
0.00023145 -7.06555e-05 -6.89118e-05 -1.60202e-05
0.000348046 -0.000105931 -0.000103763 -1.33648e-05
0.000233717 -7.13936e-05 -6.9567e-05 -1.6674e-05
0.000232561 -7.10535e-05 -6.92177e-05 -1.63494e-05
0.000115763 -3.55539e-05 -3.43752e-05 -1.77699e-05
0.000114744 -3.50909e-05 -3.41371e-05 -1.70621e-05
0.000343721 -0.000104156 -0.00010267 -1.32108e-05
0.000346504 -0.000105309 -0.000103369 -1.32862e-05
0.000115266 -3.53258e-05 -3.42599e-05 -1.73895e-05
0.000229431 -6.97864e-05 -6.84191e-05 -1.55622e-05
0.000345031 -0.000104714 -0.000102993 -1.32288e-05
0.00023145 -7.06555e-05 -6.89118e-05 -1.60202e-05
0.0002304 -7.02203e-05 -6.86485e-05 -1.57536e-05
0.000114744 -3.50909e-05 -3.41371e-05 -1.70621e-05
0.00011381 -3.46858e-05 -3.39106e-05 -1.65731e-05
0.000341347 -0.000103142 -0.000102088 -1.32132e-05
0.000343721 -0.000104156 -0.00010267 -1.32108e-05
0.000114244 -3.48781e-05 -3.40139e-05 -1.67889e-05
0.000227695 -6.90257e-05 -6.80011e-05 -1.52721e-05
0.000342513 -0.00010363 -0.000102379 -1.32124e-05
0.000229431 -6.97864e-05 -6.84191e-05 -1.55622e-05
0.000228533 -6.93883e-05 -6.82048e-05 -1.54049e-05
0.00011381 -3.46858e-05 -3.39106e-05 -1.65731e-05
0.000113027 -3.43431e-05 -3.37219e-05 -1.62733e-05
0.000339183 -0.000102292 -0.000101525 -1.32224e-05
0.000341347 -0.000103142 -0.000102088 -1.32132e-05
0.000113415 -3.45071e-05 -3.38175e-05 -1.64042e-05
0.000226168 -6.83853e-05 -6.7621e-05 -1.51042e-05
0.000340233 -0.000102698 -0.000101801 -1.32151e-05
0.000227695 -6.90257e-05 -6.80011e-05 -1.52721e-05
0.000226909 -6.86915e-05 -6.78077e-05 -1.51731e-05
0.000113027 -3.43431e-05 -3.37219e-05 -1.62733e-05
0.000112309 -3.40617e-05 -3.35348e-05 -1.60994e-05
0.00033719 -0.00010156 -0.000100984 -1.32381e-05
0.000339183 -0.000102292 -0.000101525 -1.32224e-05
0.000112656 -3.41957e-05 -3.3626e-05 -1.61734e-05
0.000224781 -6.78518e-05 -6.72552e-05 -1.50113e-05
0.000338176 -0.000101914 -0.000101255 -1.32314e-05
0.000226168 -6.83853e-05 -6.7621e-05 -1.51042e-05
0.000225461 -6.81071e-05 -6.74373e-05 -1.50519e-05
0.000112309 -3.40617e-05 -3.35348e-05 -1.60994e-05
0.00011165 -3.382e-05 -3.33559e-05 -1.60057e-05
0.00033528 -0.00010091 -0.000100444 -1.32486e-05
0.00033719 -0.00010156 -0.000100984 -1.32381e-05
0.000111977 -3.39369e-05 -3.34458e-05 -1.60452e-05
0.000223478 -6.73886e-05 -6.68954e-05 -1.49638e-05
0.000336225 -0.000101227 -0.000100713 -1.32434e-05
0.000224781 -6.78518e-05 -6.72552e-05 -1.50113e-05
0.000224121 -6.76133e-05 -6.70749e-05 -1.49828e-05
0.00011165 -3.382e-05 -3.33559e-05 -1.60057e-05
0.000111016 -3.36047e-05 -3.31764e-05 -1.59575e-05
0.000333423 -0.000100308 -9.99063e-05 -1.32566e-05
0.00033528 -0.00010091 -0.000100444 -1.32486e-05
0.00011133 -3.37098e-05 -3.32657e-05 -1.59774e-05
0.000222223 -6.69705e-05 -6.65369e-05 -1.49405e-05
0.000334348 -0.000100605 -0.000100176 -1.32532e-05
0.000223478 -6.73886e-05 -6.68954e-05 -1.49638e-05
0.000222846 -6.71752e-05 -6.67162e-05 -1.49503e-05
0.000111016 -3.36047e-05 -3.31764e-05 -1.59575e-05
0.0001104 -3.34044e-05 -3.29983e-05 -1.59345e-05
0.00033159 -9.9734e-05 -9.93669e-05 -1.32613e-05
0.000333423 -0.000100308 -9.99063e-05 -1.32566e-05
0.000110707 -3.35032e-05 -3.30876e-05 -1.59439e-05
0.000220994 -6.6578e-05 -6.61784e-05 -1.49301e-05
0.000332504 -0.000100018 -9.96366e-05 -1.32592e-05
0.000222223 -6.69705e-05 -6.65369e-05 -1.49405e-05
0.000221607 -6.67719e-05 -6.63577e-05 -1.49341e-05
0.0001104 -3.34044e-05 -3.29983e-05 -1.59345e-05
0.000109792 -3.32125e-05 -3.28197e-05 -1.59242e-05
0.000329771 -9.91746e-05 -9.8827e-05 -1.32643e-05
0.00033159 -9.9734e-05 -9.93669e-05 -1.32613e-05
0.000110095 -3.33077e-05 -3.2909e-05 -1.59282e-05
0.000219778 -6.61998e-05 -6.58194e-05 -1.49259e-05
0.00033068 -9.9453e-05 -9.90972e-05 -1.3263e-05
0.000220994 -6.6578e-05 -6.61784e-05 -1.49301e-05
0.000220385 -6.63877e-05 -6.5999e-05 -1.49276e-05
0.000109792 -3.32125e-05 -3.28197e-05 -1.59242e-05
0.000109188 -3.3025e-05 -3.26412e-05 -1.59201e-05
0.000327957 -9.86229e-05 -9.82862e-05 -1.3266e-05
0.000329771 -9.91746e-05 -9.8827e-05 -1.32643e-05
0.00010949 -3.31184e-05 -3.27305e-05 -1.59216e-05
0.000218569 -6.5829e-05 -6.54599e-05 -1.49246e-05
0.000328864 -9.88981e-05 -9.85567e-05 -1.32653e-05
0.000219778 -6.61998e-05 -6.58194e-05 -1.49259e-05
0.000219173 -6.60138e-05 -6.56397e-05 -1.49251e-05
0.000109188 -3.3025e-05 -3.26412e-05 -1.59201e-05
0.000108585 -3.28398e-05 -3.24624e-05 -1.59188e-05
0.000326147 -9.80748e-05 -9.77451e-05 -1.3267e-05
0.000327957 -9.86229e-05 -9.82862e-05 -1.3266e-05
0.000108886 -3.29322e-05 -3.25518e-05 -1.59192e-05
0.000217362 -6.54617e-05 -6.51001e-05 -1.49245e-05
0.000327052 -9.83485e-05 -9.80157e-05 -1.32666e-05
0.000218569 -6.5829e-05 -6.54599e-05 -1.49246e-05
0.000217965 -6.5645e-05 -6.52801e-05 -1.49245e-05
0.000108585 -3.28398e-05 -3.24624e-05 -1.59188e-05
0.000107984 -3.26557e-05 -3.22836e-05 -1.59186e-05
0.000324337 -9.75284e-05 -9.72036e-05 -1.32675e-05
0.000326147 -9.80748e-05 -9.77451e-05 -1.3267e-05
0.000108285 -3.27477e-05 -3.2373e-05 -1.59186e-05
0.000216156 -6.50962e-05 -6.474e-05 -1.49247e-05
0.000325242 -9.78015e-05 -9.74744e-05 -1.32673e-05
0.000217362 -6.54617e-05 -6.51001e-05 -1.49245e-05
0.000216759 -6.52788e-05 -6.49201e-05 -1.49246e-05
0.000107984 -3.26557e-05 -3.22836e-05 -1.59186e-05
0.000107383 -3.24721e-05 -3.21046e-05 -1.59187e-05
0.000322527 -9.69827e-05 -9.66619e-05 -1.32678e-05
0.000324337 -9.75284e-05 -9.72036e-05 -1.32675e-05
0.000107684 -3.25639e-05 -3.21941e-05 -1.59186e-05
0.000214951 -6.47314e-05 -6.43798e-05 -1.4925e-05
0.000323432 -9.72555e-05 -9.69327e-05 -1.32677e-05
0.000216156 -6.50962e-05 -6.474e-05 -1.49247e-05
0.000215554 -6.49138e-05 -6.45599e-05 -1.49248e-05
0.000107383 -3.24721e-05 -3.21046e-05 -1.59187e-05
0.000106782 -3.22888e-05 -3.19257e-05 -1.59189e-05
0.000320717 -9.64372e-05 -9.61201e-05 -1.3268e-05
0.000322527 -9.69827e-05 -9.66619e-05 -1.32678e-05
0.000107082 -3.23804e-05 -3.20152e-05 -1.59188e-05
0.000213746 -6.4367e-05 -6.40194e-05 -1.49252e-05
0.000321622 -9.67099e-05 -9.6391e-05 -1.32679e-05
0.000214951 -6.47314e-05 -6.43798e-05 -1.4925e-05
0.000214348 -6.45492e-05 -6.41996e-05 -1.49251e-05
0.000106782 -3.22888e-05 -3.19257e-05 -1.59189e-05
0.000106181 -3.21055e-05 -3.17466e-05 -1.59191e-05
0.000318908 -9.58918e-05 -9.55782e-05 -1.3268e-05
0.000320717 -9.64372e-05 -9.61201e-05 -1.3268e-05
0.000106481 -3.21971e-05 -3.18361e-05 -1.5919e-05
0.00021254 -6.40026e-05 -6.3659e-05 -1.49253e-05
0.000319813 -9.61645e-05 -9.58492e-05 -1.3268e-05
0.000213746 -6.4367e-05 -6.40194e-05 -1.49252e-05
0.000213143 -6.41848e-05 -6.38392e-05 -1.49253e-05
0.000106181 -3.21055e-05 -3.17466e-05 -1.59191e-05
0.00010558 -3.19223e-05 -3.15676e-05 -1.59193e-05
0.000317098 -9.53464e-05 -9.50363e-05 -1.32681e-05
0.000318908 -9.58918e-05 -9.55782e-05 -1.3268e-05
0.00010588 -3.20139e-05 -3.16571e-05 -1.59192e-05
0.000211335 -6.36383e-05 -6.32986e-05 -1.49254e-05
0.000318003 -9.56191e-05 -9.53073e-05 -1.32681e-05
0.00021254 -6.40026e-05 -6.3659e-05 -1.49253e-05
0.000211938 -6.38204e-05 -6.34788e-05 -1.49254e-05
0.00010558 -3.19223e-05 -3.15676e-05 -1.59193e-05
0.000104979 -3.17391e-05 -3.13885e-05 -1.59193e-05
0.000315288 -9.4801e-05 -9.44944e-05 -1.32681e-05
0.000317098 -9.53464e-05 -9.50363e-05 -1.32681e-05
0.000105279 -3.18307e-05 -3.1478e-05 -1.59193e-05
0.00021013 -6.32739e-05 -6.29381e-05 -1.49255e-05
0.000316193 -9.50737e-05 -9.47653e-05 -1.32681e-05
0.000211335 -6.36383e-05 -6.32986e-05 -1.49254e-05
0.000210732 -6.34561e-05 -6.31184e-05 -1.49254e-05
0.000104979 -3.17391e-05 -3.13885e-05 -1.59193e-05
0.000104378 -3.1556e-05 -3.12094e-05 -1.59194e-05
0.000313478 -9.42556e-05 -9.39524e-05 -1.32681e-05
0.000315288 -9.4801e-05 -9.44944e-05 -1.32681e-05
0.000104678 -3.16475e-05 -3.1299e-05 -1.59194e-05
0.000208924 -6.29096e-05 -6.25776e-05 -1.49255e-05
0.000314383 -9.45283e-05 -9.42234e-05 -1.32681e-05
0.00021013 -6.32739e-05 -6.29381e-05 -1.49255e-05
0.000209527 -6.30918e-05 -6.27579e-05 -1.49255e-05
0.000104378 -3.1556e-05 -3.12094e-05 -1.59194e-05
0.000103777 -3.13728e-05 -3.10303e-05 -1.59194e-05
0.000311668 -9.37102e-05 -9.34105e-05 -1.3268e-05
0.000313478 -9.42556e-05 -9.39524e-05 -1.32681e-05
0.000104077 -3.14644e-05 -3.11199e-05 -1.59194e-05
0.000207719 -6.25453e-05 -6.22171e-05 -1.49255e-05
0.000312573 -9.39829e-05 -9.36815e-05 -1.3268e-05
0.000208924 -6.29096e-05 -6.25776e-05 -1.49255e-05
0.000208321 -6.27274e-05 -6.23974e-05 -1.49255e-05
0.000103777 -3.13728e-05 -3.10303e-05 -1.59194e-05
0.000103176 -3.11897e-05 -3.08512e-05 -1.59194e-05
0.000309858 -9.31648e-05 -9.28685e-05 -1.3268e-05
0.000311668 -9.37102e-05 -9.34105e-05 -1.3268e-05
0.000103476 -3.12812e-05 -3.09407e-05 -1.59194e-05
0.000206513 -6.2181e-05 -6.18566e-05 -1.49255e-05
0.000310763 -9.34375e-05 -9.31395e-05 -1.3268e-05
0.000207719 -6.25453e-05 -6.22171e-05 -1.49255e-05
0.000207116 -6.23631e-05 -6.20369e-05 -1.49255e-05
0.000103176 -3.11897e-05 -3.08512e-05 -1.59194e-05
0.000102575 -3.10065e-05 -3.0672e-05 -1.59194e-05
0.000308048 -9.26194e-05 -9.23265e-05 -1.3268e-05
0.000309858 -9.31648e-05 -9.28685e-05 -1.3268e-05
0.000102875 -3.10981e-05 -3.07616e-05 -1.59194e-05
0.000205308 -6.18166e-05 -6.14961e-05 -1.49254e-05
0.000308953 -9.28921e-05 -9.25975e-05 -1.3268e-05
0.000206513 -6.2181e-05 -6.18566e-05 -1.49255e-05
0.00020591 -6.19988e-05 -6.16764e-05 -1.49255e-05
0.000102575 -3.10065e-05 -3.0672e-05 -1.59194e-05
0.000101973 -3.08234e-05 -3.04929e-05 -1.59194e-05
0.000306238 -9.2074e-05 -9.17845e-05 -1.3268e-05
0.000308048 -9.26194e-05 -9.23265e-05 -1.3268e-05
0.000102274 -3.09149e-05 -3.05825e-05 -1.59194e-05
0.000204102 -6.14523e-05 -6.11356e-05 -1.49254e-05
0.000307143 -9.23467e-05 -9.20555e-05 -1.3268e-05
0.000205308 -6.18166e-05 -6.14961e-05 -1.49254e-05
0.000204705 -6.16345e-05 -6.13159e-05 -1.49254e-05
0.000101973 -3.08234e-05 -3.04929e-05 -1.59194e-05
0.000101372 -3.06403e-05 -3.03137e-05 -1.59193e-05
0.000304428 -9.15286e-05 -9.12425e-05 -1.32679e-05
0.000306238 -9.2074e-05 -9.17845e-05 -1.3268e-05
0.000101673 -3.07318e-05 -3.04033e-05 -1.59194e-05
0.000202896 -6.1088e-05 -6.0775e-05 -1.49254e-05
0.000305333 -9.18013e-05 -9.15135e-05 -1.32679e-05
0.000204102 -6.14523e-05 -6.11356e-05 -1.49254e-05
0.000203499 -6.12702e-05 -6.09553e-05 -1.49254e-05
0.000101372 -3.06403e-05 -3.03137e-05 -1.59193e-05
0.000100771 -3.04572e-05 -3.01346e-05 -1.59193e-05
0.000302618 -9.09832e-05 -9.07005e-05 -1.32679e-05
0.000304428 -9.15286e-05 -9.12425e-05 -1.32679e-05
0.000101072 -3.05487e-05 -3.02242e-05 -1.59193e-05
0.000201691 -6.07237e-05 -6.04145e-05 -1.49254e-05
0.000303523 -9.12559e-05 -9.09715e-05 -1.32679e-05
0.000202896 -6.1088e-05 -6.0775e-05 -1.49254e-05
0.000202294 -6.09059e-05 -6.05948e-05 -1.49254e-05
0.000100771 -3.04572e-05 -3.01346e-05 -1.59193e-05
0.00010017 -3.02741e-05 -2.99554e-05 -1.59193e-05
0.000300808 -9.04378e-05 -9.01585e-05 -1.32679e-05
0.000302618 -9.09832e-05 -9.07005e-05 -1.32679e-05
0.000100471 -3.03656e-05 -3.0045e-05 -1.59193e-05
0.000200485 -6.03595e-05 -6.00539e-05 -1.49254e-05
0.000301713 -9.07105e-05 -9.04295e-05 -1.32679e-05
0.000201691 -6.07237e-05 -6.04145e-05 -1.49254e-05
0.000201088 -6.05416e-05 -6.02342e-05 -1.49254e-05
0.00010017 -3.02741e-05 -2.99554e-05 -1.59193e-05
9.95688e-05 -3.0091e-05 -2.97762e-05 -1.59193e-05
0.000298998 -8.98924e-05 -8.96165e-05 -1.32679e-05
0.000300808 -9.04378e-05 -9.01585e-05 -1.32679e-05
9.98694e-05 -3.01825e-05 -2.98658e-05 -1.59193e-05
0.00019928 -5.99952e-05 -5.96934e-05 -1.49253e-05
0.000299903 -9.01651e-05 -8.98875e-05 -1.32679e-05
0.000200485 -6.03595e-05 -6.00539e-05 -1.49254e-05
0.000199882 -6.01773e-05 -5.98736e-05 -1.49254e-05
9.95688e-05 -3.0091e-05 -2.97762e-05 -1.59193e-05
9.89675e-05 -2.99079e-05 -2.9597e-05 -1.59193e-05
0.000297187 -8.93471e-05 -8.90745e-05 -1.32678e-05
0.000298998 -8.98924e-05 -8.96165e-05 -1.32679e-05
9.92681e-05 -2.99994e-05 -2.96866e-05 -1.59193e-05
0.000198074 -5.96309e-05 -5.93328e-05 -1.49253e-05
0.000298093 -8.96197e-05 -8.93455e-05 -1.32678e-05
0.00019928 -5.99952e-05 -5.96934e-05 -1.49253e-05
0.000198677 -5.9813e-05 -5.95131e-05 -1.49253e-05
9.89675e-05 -2.99079e-05 -2.9597e-05 -1.59193e-05
9.83663e-05 -2.97248e-05 -2.94178e-05 -1.59193e-05
0.000295377 -8.88017e-05 -8.85324e-05 -1.32678e-05
0.000297187 -8.93471e-05 -8.90745e-05 -1.32678e-05
9.86669e-05 -2.98163e-05 -2.95074e-05 -1.59193e-05
0.000196868 -5.92666e-05 -5.89722e-05 -1.49253e-05
0.000296282 -8.90744e-05 -8.88034e-05 -1.32678e-05
0.000198074 -5.96309e-05 -5.93328e-05 -1.49253e-05
0.000197471 -5.94488e-05 -5.91525e-05 -1.49253e-05
9.83663e-05 -2.97248e-05 -2.94178e-05 -1.59193e-05
9.7765e-05 -2.95417e-05 -2.92386e-05 -1.59193e-05
0.000293567 -8.82563e-05 -8.79904e-05 -1.32678e-05
0.000295377 -8.88017e-05 -8.85324e-05 -1.32678e-05
9.80657e-05 -2.96333e-05 -2.93282e-05 -1.59193e-05
0.000195663 -5.89024e-05 -5.86116e-05 -1.49253e-05
0.000294472 -8.8529e-05 -8.82614e-05 -1.32678e-05
0.000196868 -5.92666e-05 -5.89722e-05 -1.49253e-05
0.000196266 -5.90845e-05 -5.87919e-05 -1.49253e-05
9.7765e-05 -2.95417e-05 -2.92386e-05 -1.59193e-05
9.71638e-05 -2.93587e-05 -2.90593e-05 -1.59192e-05
0.000291757 -8.7711e-05 -8.74483e-05 -1.32678e-05
0.000293567 -8.82563e-05 -8.79904e-05 -1.32678e-05
9.74644e-05 -2.94502e-05 -2.91489e-05 -1.59193e-05
0.000194457 -5.85381e-05 -5.8251e-05 -1.49253e-05
0.000292662 -8.79837e-05 -8.77193e-05 -1.32678e-05
0.000195663 -5.89024e-05 -5.86116e-05 -1.49253e-05
0.00019506 -5.87203e-05 -5.84313e-05 -1.49253e-05
9.71638e-05 -2.93587e-05 -2.90593e-05 -1.59192e-05
9.65625e-05 -2.91756e-05 -2.88801e-05 -1.59192e-05
0.000289947 -8.71657e-05 -8.69062e-05 -1.32677e-05
0.000291757 -8.7711e-05 -8.74483e-05 -1.32678e-05
9.68631e-05 -2.92672e-05 -2.89697e-05 -1.59192e-05
0.000193251 -5.81739e-05 -5.78903e-05 -1.49252e-05
0.000290852 -8.74383e-05 -8.71773e-05 -1.32677e-05
0.000194457 -5.85381e-05 -5.8251e-05 -1.49253e-05
0.000193854 -5.8356e-05 -5.80707e-05 -1.49252e-05
9.65625e-05 -2.91756e-05 -2.88801e-05 -1.59192e-05
9.59611e-05 -2.89926e-05 -2.87008e-05 -1.59192e-05
0.000288137 -8.66203e-05 -8.63641e-05 -1.32677e-05
0.000289947 -8.71657e-05 -8.69062e-05 -1.32677e-05
9.62618e-05 -2.90841e-05 -2.87904e-05 -1.59192e-05
0.000192046 -5.78097e-05 -5.75297e-05 -1.49252e-05
0.000289042 -8.6893e-05 -8.66352e-05 -1.32677e-05
0.000193251 -5.81739e-05 -5.78903e-05 -1.49252e-05
0.000192649 -5.79918e-05 -5.771e-05 -1.49252e-05
9.59611e-05 -2.89926e-05 -2.87008e-05 -1.59192e-05
9.53598e-05 -2.88096e-05 -2.85215e-05 -1.59192e-05
0.000286326 -8.6075e-05 -8.58221e-05 -1.32677e-05
0.000288137 -8.66203e-05 -8.63641e-05 -1.32677e-05
9.56605e-05 -2.89011e-05 -2.86112e-05 -1.59192e-05
0.00019084 -5.74455e-05 -5.71691e-05 -1.49252e-05
0.000287232 -8.63477e-05 -8.60931e-05 -1.32677e-05
0.000192046 -5.78097e-05 -5.75297e-05 -1.49252e-05
0.000191443 -5.76276e-05 -5.73494e-05 -1.49252e-05
9.53598e-05 -2.88096e-05 -2.85215e-05 -1.59192e-05
9.47585e-05 -2.86265e-05 -2.83423e-05 -1.59192e-05
0.000284516 -8.55297e-05 -8.528e-05 -1.32677e-05
0.000286326 -8.6075e-05 -8.58221e-05 -1.32677e-05
9.50592e-05 -2.87181e-05 -2.84319e-05 -1.59192e-05
0.000189634 -5.70813e-05 -5.68084e-05 -1.49252e-05
0.000285421 -8.58023e-05 -8.5551e-05 -1.32677e-05
0.00019084 -5.74455e-05 -5.71691e-05 -1.49252e-05
0.000190237 -5.72634e-05 -5.69887e-05 -1.49252e-05
9.47585e-05 -2.86265e-05 -2.83423e-05 -1.59192e-05
9.41571e-05 -2.84435e-05 -2.8163e-05 -1.59192e-05
0.000282706 -8.49844e-05 -8.47378e-05 -1.32676e-05
0.000284516 -8.55297e-05 -8.528e-05 -1.32677e-05
9.44578e-05 -2.8535e-05 -2.82526e-05 -1.59192e-05
0.000188428 -5.67171e-05 -5.64477e-05 -1.49252e-05
0.000283611 -8.5257e-05 -8.50089e-05 -1.32677e-05
0.000189634 -5.70813e-05 -5.68084e-05 -1.49252e-05
0.000189031 -5.68992e-05 -5.66281e-05 -1.49252e-05
9.41571e-05 -2.84435e-05 -2.8163e-05 -1.59192e-05
9.35557e-05 -2.82605e-05 -2.79837e-05 -1.59192e-05
0.000280896 -8.44391e-05 -8.41957e-05 -1.32676e-05
0.000282706 -8.49844e-05 -8.47378e-05 -1.32676e-05
9.38564e-05 -2.8352e-05 -2.80733e-05 -1.59192e-05
0.000187223 -5.63529e-05 -5.60871e-05 -1.49251e-05
0.000281801 -8.47117e-05 -8.44668e-05 -1.32676e-05
0.000188428 -5.67171e-05 -5.64477e-05 -1.49252e-05
0.000187826 -5.6535e-05 -5.62674e-05 -1.49251e-05
9.35557e-05 -2.82605e-05 -2.79837e-05 -1.59192e-05
9.29543e-05 -2.80775e-05 -2.78043e-05 -1.59191e-05
0.000279086 -8.38938e-05 -8.36536e-05 -1.32676e-05
0.000280896 -8.44391e-05 -8.41957e-05 -1.32676e-05
9.3255e-05 -2.8169e-05 -2.7894e-05 -1.59191e-05
0.000186017 -5.59887e-05 -5.57264e-05 -1.49251e-05
0.000279991 -8.41664e-05 -8.39247e-05 -1.32676e-05
0.000187223 -5.63529e-05 -5.60871e-05 -1.49251e-05
0.00018662 -5.61708e-05 -5.59067e-05 -1.49251e-05
9.29543e-05 -2.80775e-05 -2.78043e-05 -1.59191e-05
9.23529e-05 -2.78946e-05 -2.7625e-05 -1.59191e-05
0.000277275 -8.33485e-05 -8.31115e-05 -1.32676e-05
0.000279086 -8.38938e-05 -8.36536e-05 -1.32676e-05
9.26536e-05 -2.79861e-05 -2.77147e-05 -1.59191e-05
0.000184811 -5.56245e-05 -5.53657e-05 -1.49251e-05
0.00027818 -8.36211e-05 -8.33825e-05 -1.32676e-05
0.000186017 -5.59887e-05 -5.57264e-05 -1.49251e-05
0.000185414 -5.58066e-05 -5.5546e-05 -1.49251e-05
9.23529e-05 -2.78946e-05 -2.7625e-05 -1.59191e-05
9.17515e-05 -2.77116e-05 -2.74457e-05 -1.59191e-05
0.000275465 -8.28032e-05 -8.25693e-05 -1.32675e-05
0.000277275 -8.33485e-05 -8.31115e-05 -1.32676e-05
9.20522e-05 -2.78031e-05 -2.75353e-05 -1.59191e-05
0.000183605 -5.52604e-05 -5.5005e-05 -1.49251e-05
0.00027637 -8.30759e-05 -8.28404e-05 -1.32676e-05
0.000184811 -5.56245e-05 -5.53657e-05 -1.49251e-05
0.000184208 -5.54424e-05 -5.51853e-05 -1.49251e-05
9.17515e-05 -2.77116e-05 -2.74457e-05 -1.59191e-05
9.11501e-05 -2.75286e-05 -2.72663e-05 -1.59191e-05
0.000273655 -8.2258e-05 -8.20272e-05 -1.32675e-05
0.000275465 -8.28032e-05 -8.25693e-05 -1.32675e-05
9.14508e-05 -2.76201e-05 -2.7356e-05 -1.59191e-05
0.000182399 -5.48962e-05 -5.46442e-05 -1.49251e-05
0.00027456 -8.25306e-05 -8.22982e-05 -1.32675e-05
0.000183605 -5.52604e-05 -5.5005e-05 -1.49251e-05
0.000183002 -5.50783e-05 -5.48246e-05 -1.49251e-05
9.11501e-05 -2.75286e-05 -2.72663e-05 -1.59191e-05
9.05486e-05 -2.73457e-05 -2.7087e-05 -1.59191e-05
0.000271844 -8.17127e-05 -8.1485e-05 -1.32675e-05
0.000273655 -8.2258e-05 -8.20272e-05 -1.32675e-05
9.08493e-05 -2.74372e-05 -2.71766e-05 -1.59191e-05
0.000181194 -5.45321e-05 -5.42835e-05 -1.4925e-05
0.000272749 -8.19853e-05 -8.17561e-05 -1.32675e-05
0.000182399 -5.48962e-05 -5.46442e-05 -1.49251e-05
0.000181797 -5.47141e-05 -5.44639e-05 -1.4925e-05
9.05486e-05 -2.73457e-05 -2.7087e-05 -1.59191e-05
8.99471e-05 -2.71627e-05 -2.69076e-05 -1.59191e-05
0.000270034 -8.11674e-05 -8.09428e-05 -1.32675e-05
0.000271844 -8.17127e-05 -8.1485e-05 -1.32675e-05
9.02479e-05 -2.72542e-05 -2.69973e-05 -1.59191e-05
0.000179988 -5.41679e-05 -5.39228e-05 -1.4925e-05
0.000270939 -8.14401e-05 -8.12139e-05 -1.32675e-05
0.000181194 -5.45321e-05 -5.42835e-05 -1.4925e-05
0.000180591 -5.435e-05 -5.41031e-05 -1.4925e-05
8.99471e-05 -2.71627e-05 -2.69076e-05 -1.59191e-05
8.93456e-05 -2.69798e-05 -2.67282e-05 -1.5919e-05
0.000268224 -8.06222e-05 -8.04006e-05 -1.32674e-05
0.000270034 -8.11674e-05 -8.09428e-05 -1.32675e-05
8.96464e-05 -2.70713e-05 -2.68179e-05 -1.5919e-05
0.000178782 -5.38038e-05 -5.3562e-05 -1.4925e-05
0.000269129 -8.08948e-05 -8.06717e-05 -1.32675e-05
0.000179988 -5.41679e-05 -5.39228e-05 -1.4925e-05
0.000179385 -5.39859e-05 -5.37424e-05 -1.4925e-05
8.93456e-05 -2.69798e-05 -2.67282e-05 -1.5919e-05
8.87441e-05 -2.67969e-05 -2.65488e-05 -1.5919e-05
0.000266413 -8.0077e-05 -7.98584e-05 -1.32674e-05
0.000268224 -8.06222e-05 -8.04006e-05 -1.32674e-05
8.90449e-05 -2.68883e-05 -2.66385e-05 -1.5919e-05
0.000177576 -5.34397e-05 -5.32012e-05 -1.4925e-05
0.000267318 -8.03496e-05 -8.01295e-05 -1.32674e-05
0.000178782 -5.38038e-05 -5.3562e-05 -1.4925e-05
0.000178179 -5.36217e-05 -5.33816e-05 -1.4925e-05
8.87441e-05 -2.67969e-05 -2.65488e-05 -1.5919e-05
8.81426e-05 -2.6614e-05 -2.63694e-05 -1.5919e-05
0.000264603 -7.95317e-05 -7.93162e-05 -1.32674e-05
0.000266413 -8.0077e-05 -7.98584e-05 -1.32674e-05
8.84433e-05 -2.67054e-05 -2.64591e-05 -1.5919e-05
0.00017637 -5.30756e-05 -5.28405e-05 -1.49249e-05
0.000265508 -7.98043e-05 -7.95873e-05 -1.32674e-05
0.000177576 -5.34397e-05 -5.32012e-05 -1.4925e-05
0.000176973 -5.32576e-05 -5.30209e-05 -1.4925e-05
8.81426e-05 -2.6614e-05 -2.63694e-05 -1.5919e-05
8.7541e-05 -2.64311e-05 -2.619e-05 -1.5919e-05
0.000262793 -7.89865e-05 -7.8774e-05 -1.32674e-05
0.000264603 -7.95317e-05 -7.93162e-05 -1.32674e-05
8.78418e-05 -2.65225e-05 -2.62797e-05 -1.5919e-05
0.000175164 -5.27115e-05 -5.24797e-05 -1.49249e-05
0.000263698 -7.92591e-05 -7.90451e-05 -1.32674e-05
0.00017637 -5.30756e-05 -5.28405e-05 -1.49249e-05
0.000175767 -5.28935e-05 -5.26601e-05 -1.49249e-05
8.7541e-05 -2.64311e-05 -2.619e-05 -1.5919e-05
8.69395e-05 -2.62482e-05 -2.60105e-05 -1.5919e-05
0.000260982 -7.84413e-05 -7.82318e-05 -1.32673e-05
0.000262793 -7.89865e-05 -7.8774e-05 -1.32674e-05
8.72402e-05 -2.63396e-05 -2.61003e-05 -1.5919e-05
0.000173958 -5.23474e-05 -5.21189e-05 -1.49249e-05
0.000261887 -7.87139e-05 -7.85029e-05 -1.32674e-05
0.000175164 -5.27115e-05 -5.24797e-05 -1.49249e-05
0.000174561 -5.25294e-05 -5.22993e-05 -1.49249e-05
8.69395e-05 -2.62482e-05 -2.60105e-05 -1.5919e-05
8.63379e-05 -2.60653e-05 -2.58311e-05 -1.5919e-05
0.000259172 -7.78961e-05 -7.76896e-05 -1.32673e-05
0.000260982 -7.84413e-05 -7.82318e-05 -1.32673e-05
8.66387e-05 -2.61567e-05 -2.59208e-05 -1.5919e-05
0.000172752 -5.19833e-05 -5.17581e-05 -1.49249e-05
0.000260077 -7.81687e-05 -7.79607e-05 -1.32673e-05
0.000173958 -5.23474e-05 -5.21189e-05 -1.49249e-05
0.000173355 -5.21653e-05 -5.19385e-05 -1.49249e-05
8.63379e-05 -2.60653e-05 -2.58311e-05 -1.5919e-05
8.57363e-05 -2.58824e-05 -2.56516e-05 -1.59189e-05
0.000257361 -7.73509e-05 -7.71473e-05 -1.32673e-05
0.000259172 -7.78961e-05 -7.76896e-05 -1.32673e-05
8.60371e-05 -2.59739e-05 -2.57414e-05 -1.59189e-05
0.000171546 -5.16192e-05 -5.13973e-05 -1.49249e-05
0.000258266 -7.76235e-05 -7.74184e-05 -1.32673e-05
0.000172752 -5.19833e-05 -5.17581e-05 -1.49249e-05
0.000172149 -5.18013e-05 -5.15777e-05 -1.49249e-05
8.57363e-05 -2.58824e-05 -2.56516e-05 -1.59189e-05
8.51346e-05 -2.56996e-05 -2.54722e-05 -1.59189e-05
0.000255551 -7.68057e-05 -7.66051e-05 -1.32673e-05
0.000257361 -7.73509e-05 -7.71473e-05 -1.32673e-05
8.54355e-05 -2.5791e-05 -2.55619e-05 -1.59189e-05
0.00017034 -5.12552e-05 -5.10364e-05 -1.49248e-05
0.000256456 -7.70783e-05 -7.68762e-05 -1.32673e-05
0.000171546 -5.16192e-05 -5.13973e-05 -1.49249e-05
0.000170943 -5.14372e-05 -5.12169e-05 -1.49248e-05
8.51346e-05 -2.56996e-05 -2.54722e-05 -1.59189e-05
8.4533e-05 -2.55167e-05 -2.52927e-05 -1.59189e-05
0.00025374 -7.62605e-05 -7.60628e-05 -1.32672e-05
0.000255551 -7.68057e-05 -7.66051e-05 -1.32673e-05
8.48338e-05 -2.56081e-05 -2.53824e-05 -1.59189e-05
0.000169134 -5.08911e-05 -5.06756e-05 -1.49248e-05
0.000254646 -7.65331e-05 -7.63339e-05 -1.32673e-05
0.00017034 -5.12552e-05 -5.10364e-05 -1.49248e-05
0.000169737 -5.10731e-05 -5.0856e-05 -1.49248e-05
8.4533e-05 -2.55167e-05 -2.52927e-05 -1.59189e-05
8.39314e-05 -2.53339e-05 -2.51132e-05 -1.59189e-05
0.00025193 -7.57153e-05 -7.55205e-05 -1.32672e-05
0.00025374 -7.62605e-05 -7.60628e-05 -1.32672e-05
8.42322e-05 -2.54253e-05 -2.5203e-05 -1.59189e-05
0.000167928 -5.05271e-05 -5.03147e-05 -1.49248e-05
0.000252835 -7.59879e-05 -7.57917e-05 -1.32672e-05
0.000169134 -5.08911e-05 -5.06756e-05 -1.49248e-05
0.000168531 -5.07091e-05 -5.04952e-05 -1.49248e-05
8.39314e-05 -2.53339e-05 -2.51132e-05 -1.59189e-05
8.33297e-05 -2.5151e-05 -2.49337e-05 -1.59189e-05
0.000250119 -7.51702e-05 -7.49782e-05 -1.32672e-05
0.00025193 -7.57153e-05 -7.55205e-05 -1.32672e-05
8.36305e-05 -2.52424e-05 -2.50235e-05 -1.59189e-05
0.000166722 -5.0163e-05 -4.99539e-05 -1.49248e-05
0.000251025 -7.54428e-05 -7.52494e-05 -1.32672e-05
0.000167928 -5.05271e-05 -5.03147e-05 -1.49248e-05
0.000167325 -5.03451e-05 -5.01343e-05 -1.49248e-05
8.33297e-05 -2.5151e-05 -2.49337e-05 -1.59189e-05
8.2728e-05 -2.49682e-05 -2.47542e-05 -1.59188e-05
0.000248309 -7.4625e-05 -7.44359e-05 -1.32672e-05
0.000250119 -7.51702e-05 -7.49782e-05 -1.32672e-05
8.30289e-05 -2.50596e-05 -2.4844e-05 -1.59189e-05
0.000165516 -4.9799e-05 -4.9593e-05 -1.49247e-05
0.000249214 -7.48976e-05 -7.47071e-05 -1.32672e-05
0.000166722 -5.0163e-05 -4.99539e-05 -1.49248e-05
0.000166119 -4.9981e-05 -4.97735e-05 -1.49248e-05
8.2728e-05 -2.49682e-05 -2.47542e-05 -1.59188e-05
8.21263e-05 -2.47854e-05 -2.45747e-05 -1.59188e-05
0.000246498 -7.40799e-05 -7.38936e-05 -1.32671e-05
0.000248309 -7.4625e-05 -7.44359e-05 -1.32672e-05
8.24272e-05 -2.48768e-05 -2.46644e-05 -1.59188e-05
0.00016431 -4.9435e-05 -4.92321e-05 -1.49247e-05
0.000247404 -7.43525e-05 -7.41648e-05 -1.32672e-05
0.000165516 -4.9799e-05 -4.9593e-05 -1.49247e-05
0.000164913 -4.9617e-05 -4.94126e-05 -1.49247e-05
8.21263e-05 -2.47854e-05 -2.45747e-05 -1.59188e-05
8.15246e-05 -2.46026e-05 -2.43951e-05 -1.59188e-05
0.000244688 -7.35347e-05 -7.33513e-05 -1.32671e-05
0.000246498 -7.40799e-05 -7.38936e-05 -1.32671e-05
8.18254e-05 -2.4694e-05 -2.44849e-05 -1.59188e-05
0.000163104 -4.9071e-05 -4.88712e-05 -1.49247e-05
0.000245593 -7.38073e-05 -7.36225e-05 -1.32671e-05
0.00016431 -4.9435e-05 -4.92321e-05 -1.49247e-05
0.000163707 -4.9253e-05 -4.90517e-05 -1.49247e-05
8.15246e-05 -2.46026e-05 -2.43951e-05 -1.59188e-05
8.09228e-05 -2.44198e-05 -2.42156e-05 -1.59188e-05
0.000242877 -7.29896e-05 -7.2809e-05 -1.32671e-05
0.000244688 -7.35347e-05 -7.33513e-05 -1.32671e-05
8.12237e-05 -2.45112e-05 -2.43054e-05 -1.59188e-05
0.000161898 -4.8707e-05 -4.85103e-05 -1.49247e-05
0.000243783 -7.32622e-05 -7.30802e-05 -1.32671e-05
0.000163104 -4.9071e-05 -4.88712e-05 -1.49247e-05
0.000162501 -4.8889e-05 -4.86908e-05 -1.49247e-05
8.09228e-05 -2.44198e-05 -2.42156e-05 -1.59188e-05
8.03211e-05 -2.4237e-05 -2.4036e-05 -1.59188e-05
0.000241067 -7.24445e-05 -7.22667e-05 -1.32671e-05
0.000242877 -7.29896e-05 -7.2809e-05 -1.32671e-05
8.0622e-05 -2.43284e-05 -2.41258e-05 -1.59188e-05
0.000160692 -4.8343e-05 -4.81494e-05 -1.49247e-05
0.000241972 -7.27171e-05 -7.25378e-05 -1.32671e-05
0.000161898 -4.8707e-05 -4.85103e-05 -1.49247e-05
0.000161295 -4.8525e-05 -4.83299e-05 -1.49247e-05
8.03211e-05 -2.4237e-05 -2.4036e-05 -1.59188e-05
7.97193e-05 -2.40543e-05 -2.38565e-05 -1.59188e-05
0.000239256 -7.18994e-05 -7.17243e-05 -1.3267e-05
0.000241067 -7.24445e-05 -7.22667e-05 -1.32671e-05
8.00202e-05 -2.41456e-05 -2.39462e-05 -1.59188e-05
0.000159486 -4.7979e-05 -4.77885e-05 -1.49246e-05
0.000240161 -7.21719e-05 -7.19955e-05 -1.32671e-05
0.000160692 -4.8343e-05 -4.81494e-05 -1.49247e-05
0.000160089 -4.8161e-05 -4.7969e-05 -1.49246e-05
7.97193e-05 -2.40543e-05 -2.38565e-05 -1.59188e-05
7.91175e-05 -2.38715e-05 -2.36769e-05 -1.59187e-05
0.000237446 -7.13543e-05 -7.1182e-05 -1.3267e-05
0.000239256 -7.18994e-05 -7.17243e-05 -1.3267e-05
7.94184e-05 -2.39629e-05 -2.37667e-05 -1.59187e-05
0.000158279 -4.76151e-05 -4.74275e-05 -1.49246e-05
0.000238351 -7.16268e-05 -7.14532e-05 -1.3267e-05
0.000159486 -4.7979e-05 -4.77885e-05 -1.49246e-05
0.000158882 -4.77971e-05 -4.7608e-05 -1.49246e-05
7.91175e-05 -2.38715e-05 -2.36769e-05 -1.59187e-05
7.85157e-05 -2.36887e-05 -2.34973e-05 -1.59187e-05
0.000235635 -7.08092e-05 -7.06396e-05 -1.3267e-05
0.000237446 -7.13543e-05 -7.1182e-05 -1.3267e-05
7.88166e-05 -2.37801e-05 -2.35871e-05 -1.59187e-05
0.000157073 -4.72511e-05 -4.70666e-05 -1.49246e-05
0.00023654 -7.10817e-05 -7.09108e-05 -1.3267e-05
0.000158279 -4.76151e-05 -4.74275e-05 -1.49246e-05
0.000157676 -4.74331e-05 -4.72471e-05 -1.49246e-05
7.85157e-05 -2.36887e-05 -2.34973e-05 -1.59187e-05
7.79139e-05 -2.3506e-05 -2.33177e-05 -1.59187e-05
0.000233824 -7.02641e-05 -7.00973e-05 -1.3267e-05
0.000235635 -7.08092e-05 -7.06396e-05 -1.3267e-05
7.82148e-05 -2.35974e-05 -2.34075e-05 -1.59187e-05
0.000155867 -4.68872e-05 -4.67056e-05 -1.49246e-05
0.00023473 -7.05366e-05 -7.03684e-05 -1.3267e-05
0.000157073 -4.72511e-05 -4.70666e-05 -1.49246e-05
0.00015647 -4.70691e-05 -4.68861e-05 -1.49246e-05
7.79139e-05 -2.3506e-05 -2.33177e-05 -1.59187e-05
7.7312e-05 -2.33233e-05 -2.3138e-05 -1.59187e-05
0.000232014 -6.9719e-05 -6.95549e-05 -1.32669e-05
0.000233824 -7.02641e-05 -7.00973e-05 -1.3267e-05
7.7613e-05 -2.34146e-05 -2.32279e-05 -1.59187e-05
0.000154661 -4.65232e-05 -4.63447e-05 -1.49245e-05
0.000232919 -6.99916e-05 -6.98261e-05 -1.32669e-05
0.000155867 -4.68872e-05 -4.67056e-05 -1.49246e-05
0.000155264 -4.67052e-05 -4.65252e-05 -1.49245e-05
7.7312e-05 -2.33233e-05 -2.3138e-05 -1.59187e-05
7.67102e-05 -2.31406e-05 -2.29584e-05 -1.59187e-05
0.000230203 -6.91739e-05 -6.90125e-05 -1.32669e-05
0.000232014 -6.9719e-05 -6.95549e-05 -1.32669e-05
7.70111e-05 -2.32319e-05 -2.30482e-05 -1.59187e-05
0.000153455 -4.61593e-05 -4.59837e-05 -1.49245e-05
0.000231108 -6.94465e-05 -6.92837e-05 -1.32669e-05
0.000154661 -4.65232e-05 -4.63447e-05 -1.49245e-05
0.000154058 -4.63413e-05 -4.61642e-05 -1.49245e-05
7.67102e-05 -2.31406e-05 -2.29584e-05 -1.59187e-05
7.61083e-05 -2.29578e-05 -2.27788e-05 -1.59186e-05
0.000228392 -6.86289e-05 -6.84701e-05 -1.32669e-05
0.000230203 -6.91739e-05 -6.90125e-05 -1.32669e-05
7.64092e-05 -2.30492e-05 -2.28686e-05 -1.59187e-05
0.000152248 -4.57954e-05 -4.56227e-05 -1.49245e-05
0.000229298 -6.89014e-05 -6.87413e-05 -1.32669e-05
0.000153455 -4.61593e-05 -4.59837e-05 -1.49245e-05
0.000152851 -4.59773e-05 -4.58032e-05 -1.49245e-05
7.61083e-05 -2.29578e-05 -2.27788e-05 -1.59186e-05
7.55064e-05 -2.27751e-05 -2.25991e-05 -1.59186e-05
0.000226582 -6.80838e-05 -6.79277e-05 -1.32669e-05
0.000228392 -6.86289e-05 -6.84701e-05 -1.32669e-05
7.58074e-05 -2.28665e-05 -2.26889e-05 -1.59186e-05
0.000151042 -4.54315e-05 -4.52617e-05 -1.49245e-05
0.000227487 -6.83564e-05 -6.81989e-05 -1.32669e-05
0.000152248 -4.57954e-05 -4.56227e-05 -1.49245e-05
0.000151645 -4.56134e-05 -4.54422e-05 -1.49245e-05
7.55064e-05 -2.27751e-05 -2.25991e-05 -1.59186e-05
7.49045e-05 -2.25925e-05 -2.24194e-05 -1.59186e-05
0.000224771 -6.75388e-05 -6.73853e-05 -1.32668e-05
0.000226582 -6.80838e-05 -6.79277e-05 -1.32669e-05
7.52055e-05 -2.26838e-05 -2.25093e-05 -1.59186e-05
0.000149836 -4.50676e-05 -4.49007e-05 -1.49244e-05
0.000225676 -6.78113e-05 -6.76565e-05 -1.32668e-05
0.000151042 -4.54315e-05 -4.52617e-05 -1.49245e-05
0.000150439 -4.52495e-05 -4.50812e-05 -1.49245e-05
7.49045e-05 -2.25925e-05 -2.24194e-05 -1.59186e-05
7.43026e-05 -2.24098e-05 -2.22398e-05 -1.59186e-05
0.00022296 -6.69937e-05 -6.68428e-05 -1.32668e-05
0.000224771 -6.75388e-05 -6.73853e-05 -1.32668e-05
7.46035e-05 -2.25011e-05 -2.23296e-05 -1.59186e-05
0.00014863 -4.47037e-05 -4.45396e-05 -1.49244e-05
0.000223866 -6.72663e-05 -6.7114e-05 -1.32668e-05
0.000149836 -4.50676e-05 -4.49007e-05 -1.49244e-05
0.000149233 -4.48856e-05 -4.47202e-05 -1.49244e-05
7.43026e-05 -2.24098e-05 -2.22398e-05 -1.59186e-05
7.37006e-05 -2.22271e-05 -2.20601e-05 -1.59186e-05
0.00022115 -6.64487e-05 -6.63004e-05 -1.32668e-05
0.00022296 -6.69937e-05 -6.68428e-05 -1.32668e-05
7.40016e-05 -2.23184e-05 -2.21499e-05 -1.59186e-05
0.000147423 -4.43398e-05 -4.41786e-05 -1.49244e-05
0.000222055 -6.67212e-05 -6.65716e-05 -1.32668e-05
0.00014863 -4.47037e-05 -4.45396e-05 -1.49244e-05
0.000148026 -4.45218e-05 -4.43591e-05 -1.49244e-05
7.37006e-05 -2.22271e-05 -2.20601e-05 -1.59186e-05
7.30987e-05 -2.20445e-05 -2.18804e-05 -1.59186e-05
0.000219339 -6.59037e-05 -6.57579e-05 -1.32668e-05
0.00022115 -6.64487e-05 -6.63004e-05 -1.32668e-05
7.33996e-05 -2.21358e-05 -2.19702e-05 -1.59186e-05
0.000146217 -4.39759e-05 -4.38176e-05 -1.49244e-05
0.000220244 -6.61762e-05 -6.60292e-05 -1.32668e-05
0.000147423 -4.43398e-05 -4.41786e-05 -1.49244e-05
0.00014682 -4.41579e-05 -4.39981e-05 -1.49244e-05
7.30987e-05 -2.20445e-05 -2.18804e-05 -1.59186e-05
7.24967e-05 -2.18618e-05 -2.17007e-05 -1.59185e-05
0.000217528 -6.53587e-05 -6.52155e-05 -1.32667e-05
0.000219339 -6.59037e-05 -6.57579e-05 -1.32668e-05
7.27977e-05 -2.19531e-05 -2.17905e-05 -1.59185e-05
0.000145011 -4.36121e-05 -4.34565e-05 -1.49243e-05
0.000218434 -6.56312e-05 -6.54867e-05 -1.32667e-05
0.000146217 -4.39759e-05 -4.38176e-05 -1.49244e-05
0.000145614 -4.3794e-05 -4.3637e-05 -1.49244e-05
7.24967e-05 -2.18618e-05 -2.17007e-05 -1.59185e-05
7.18947e-05 -2.16792e-05 -2.15209e-05 -1.59185e-05
0.000215717 -6.48137e-05 -6.4673e-05 -1.32667e-05
0.000217528 -6.53587e-05 -6.52155e-05 -1.32667e-05
7.21957e-05 -2.17705e-05 -2.16108e-05 -1.59185e-05
0.000143804 -4.32482e-05 -4.30954e-05 -1.49243e-05
0.000216623 -6.50862e-05 -6.49442e-05 -1.32667e-05
0.000145011 -4.36121e-05 -4.34565e-05 -1.49243e-05
0.000144407 -4.34302e-05 -4.3276e-05 -1.49243e-05
7.18947e-05 -2.16792e-05 -2.15209e-05 -1.59185e-05
7.12926e-05 -2.14965e-05 -2.13412e-05 -1.59185e-05
0.000213907 -6.42687e-05 -6.41305e-05 -1.32667e-05
0.000215717 -6.48137e-05 -6.4673e-05 -1.32667e-05
7.15937e-05 -2.15879e-05 -2.14311e-05 -1.59185e-05
0.000142598 -4.28844e-05 -4.27343e-05 -1.49243e-05
0.000214812 -6.45412e-05 -6.44018e-05 -1.32667e-05
0.000143804 -4.32482e-05 -4.30954e-05 -1.49243e-05
0.000143201 -4.30663e-05 -4.29149e-05 -1.49243e-05
7.12926e-05 -2.14965e-05 -2.13412e-05 -1.59185e-05
7.06906e-05 -2.13139e-05 -2.11614e-05 -1.59185e-05
0.000212096 -6.37237e-05 -6.3588e-05 -1.32667e-05
0.000213907 -6.42687e-05 -6.41305e-05 -1.32667e-05
7.09916e-05 -2.14052e-05 -2.12513e-05 -1.59185e-05
0.000141391 -4.25206e-05 -4.23732e-05 -1.49243e-05
0.000213001 -6.39962e-05 -6.38593e-05 -1.32667e-05
0.000142598 -4.28844e-05 -4.27343e-05 -1.49243e-05
0.000141995 -4.27025e-05 -4.25538e-05 -1.49243e-05
7.06906e-05 -2.13139e-05 -2.11614e-05 -1.59185e-05
7.00886e-05 -2.11313e-05 -2.09817e-05 -1.59185e-05
0.000210285 -6.31787e-05 -6.30455e-05 -1.32666e-05
0.000212096 -6.37237e-05 -6.3588e-05 -1.32667e-05
7.03896e-05 -2.12226e-05 -2.10716e-05 -1.59185e-05
0.000140185 -4.21567e-05 -4.20121e-05 -1.49243e-05
0.00021119 -6.34512e-05 -6.33168e-05 -1.32666e-05
0.000141391 -4.25206e-05 -4.23732e-05 -1.49243e-05
0.000140788 -4.23387e-05 -4.21927e-05 -1.49243e-05
7.00886e-05 -2.11313e-05 -2.09817e-05 -1.59185e-05
6.94865e-05 -2.09487e-05 -2.08019e-05 -1.59184e-05
0.000208474 -6.26338e-05 -6.2503e-05 -1.32666e-05
0.000210285 -6.31787e-05 -6.30455e-05 -1.32666e-05
6.97875e-05 -2.104e-05 -2.08918e-05 -1.59185e-05
0.000138979 -4.17929e-05 -4.1651e-05 -1.49242e-05
0.00020938 -6.29063e-05 -6.27743e-05 -1.32666e-05
0.000140185 -4.21567e-05 -4.20121e-05 -1.49243e-05
0.000139582 -4.19748e-05 -4.18316e-05 -1.49242e-05
6.94865e-05 -2.09487e-05 -2.08019e-05 -1.59184e-05
6.88844e-05 -2.07661e-05 -2.06221e-05 -1.59184e-05
0.000206663 -6.20888e-05 -6.19605e-05 -1.32666e-05
0.000208474 -6.26338e-05 -6.2503e-05 -1.32666e-05
6.91854e-05 -2.08574e-05 -2.0712e-05 -1.59184e-05
0.000137772 -4.14291e-05 -4.12899e-05 -1.49242e-05
0.000207569 -6.23613e-05 -6.22318e-05 -1.32666e-05
0.000138979 -4.17929e-05 -4.1651e-05 -1.49242e-05
0.000138375 -4.1611e-05 -4.14705e-05 -1.49242e-05
6.88844e-05 -2.07661e-05 -2.06221e-05 -1.59184e-05
6.82823e-05 -2.05836e-05 -2.04423e-05 -1.59184e-05
0.000204852 -6.15439e-05 -6.1418e-05 -1.32665e-05
0.000206663 -6.20888e-05 -6.19605e-05 -1.32666e-05
6.85833e-05 -2.06749e-05 -2.05322e-05 -1.59184e-05
0.000136566 -4.10654e-05 -4.09287e-05 -1.49242e-05
0.000205758 -6.18163e-05 -6.16893e-05 -1.32666e-05
0.000137772 -4.14291e-05 -4.12899e-05 -1.49242e-05
0.000137169 -4.12472e-05 -4.11093e-05 -1.49242e-05
6.82823e-05 -2.05836e-05 -2.04423e-05 -1.59184e-05
6.76802e-05 -2.0401e-05 -2.02625e-05 -1.59184e-05
0.000203042 -6.09989e-05 -6.08754e-05 -1.32665e-05
0.000204852 -6.15439e-05 -6.1418e-05 -1.32665e-05
6.79812e-05 -2.04923e-05 -2.03524e-05 -1.59184e-05
0.000135359 -4.07016e-05 -4.05676e-05 -1.49242e-05
0.000203947 -6.12714e-05 -6.11467e-05 -1.32665e-05
0.000136566 -4.10654e-05 -4.09287e-05 -1.49242e-05
0.000135963 -4.08835e-05 -4.07482e-05 -1.49242e-05
6.76802e-05 -2.0401e-05 -2.02625e-05 -1.59184e-05
6.7078e-05 -2.02185e-05 -2.00827e-05 -1.59184e-05
0.000201231 -6.0454e-05 -6.03329e-05 -1.32665e-05
0.000203042 -6.09989e-05 -6.08754e-05 -1.32665e-05
6.73791e-05 -2.03097e-05 -2.01726e-05 -1.59184e-05
0.000134153 -4.03378e-05 -4.02064e-05 -1.49241e-05
0.000202136 -6.07265e-05 -6.06042e-05 -1.32665e-05
0.000135359 -4.07016e-05 -4.05676e-05 -1.49242e-05
0.000134756 -4.05197e-05 -4.0387e-05 -1.49241e-05
6.7078e-05 -2.02185e-05 -2.00827e-05 -1.59184e-05
6.64759e-05 -2.00359e-05 -1.99028e-05 -1.59184e-05
0.00019942 -5.99091e-05 -5.97903e-05 -1.32665e-05
0.000201231 -6.0454e-05 -6.03329e-05 -1.32665e-05
6.67769e-05 -2.01272e-05 -1.99928e-05 -1.59184e-05
0.000132946 -3.9974e-05 -3.98453e-05 -1.49241e-05
0.000200325 -6.01815e-05 -6.00616e-05 -1.32665e-05
0.000134153 -4.03378e-05 -4.02064e-05 -1.49241e-05
0.00013355 -4.01559e-05 -4.00258e-05 -1.49241e-05
6.64759e-05 -2.00359e-05 -1.99028e-05 -1.59184e-05
6.58737e-05 -1.98534e-05 -1.9723e-05 -1.59183e-05
0.000197609 -5.93642e-05 -5.92478e-05 -1.32664e-05
0.00019942 -5.99091e-05 -5.97903e-05 -1.32665e-05
6.61748e-05 -1.99447e-05 -1.98129e-05 -1.59183e-05
0.00013174 -3.96103e-05 -3.94841e-05 -1.49241e-05
0.000198514 -5.96366e-05 -5.9519e-05 -1.32665e-05
0.000132946 -3.9974e-05 -3.98453e-05 -1.49241e-05
0.000132343 -3.97922e-05 -3.96647e-05 -1.49241e-05
6.58737e-05 -1.98534e-05 -1.9723e-05 -1.59183e-05
6.52715e-05 -1.96709e-05 -1.95431e-05 -1.59183e-05
0.000195798 -5.88193e-05 -5.87052e-05 -1.32664e-05
0.000197609 -5.93642e-05 -5.92478e-05 -1.32664e-05
6.55726e-05 -1.97621e-05 -1.96331e-05 -1.59183e-05
0.000130533 -3.92466e-05 -3.91229e-05 -1.49241e-05
0.000196703 -5.90917e-05 -5.89765e-05 -1.32664e-05
0.00013174 -3.96103e-05 -3.94841e-05 -1.49241e-05
0.000131137 -3.94284e-05 -3.93035e-05 -1.49241e-05
6.52715e-05 -1.96709e-05 -1.95431e-05 -1.59183e-05
6.46693e-05 -1.94884e-05 -1.93632e-05 -1.59183e-05
0.000193987 -5.82744e-05 -5.81626e-05 -1.32664e-05
0.000195798 -5.88193e-05 -5.87052e-05 -1.32664e-05
6.49704e-05 -1.95796e-05 -1.94532e-05 -1.59183e-05
0.000129327 -3.88828e-05 -3.87617e-05 -1.4924e-05
0.000194893 -5.85468e-05 -5.84339e-05 -1.32664e-05
0.000130533 -3.92466e-05 -3.91229e-05 -1.49241e-05
0.00012993 -3.90647e-05 -3.89423e-05 -1.49241e-05
6.46693e-05 -1.94884e-05 -1.93632e-05 -1.59183e-05
6.4067e-05 -1.93059e-05 -1.91834e-05 -1.59183e-05
0.000192176 -5.77295e-05 -5.762e-05 -1.32664e-05
0.000193987 -5.82744e-05 -5.81626e-05 -1.32664e-05
6.43682e-05 -1.93971e-05 -1.92733e-05 -1.59183e-05
0.00012812 -3.85191e-05 -3.84004e-05 -1.4924e-05
0.000193082 -5.80019e-05 -5.78913e-05 -1.32664e-05
0.000129327 -3.88828e-05 -3.87617e-05 -1.4924e-05
0.000128723 -3.8701e-05 -3.85811e-05 -1.4924e-05
6.4067e-05 -1.93059e-05 -1.91834e-05 -1.59183e-05
6.34648e-05 -1.91234e-05 -1.90035e-05 -1.59183e-05
0.000190365 -5.71846e-05 -5.70774e-05 -1.32663e-05
0.000192176 -5.77295e-05 -5.762e-05 -1.32664e-05
6.37659e-05 -1.92146e-05 -1.90934e-05 -1.59183e-05
0.000126914 -3.81554e-05 -3.80392e-05 -1.4924e-05
0.000191271 -5.7457e-05 -5.73487e-05 -1.32663e-05
0.00012812 -3.85191e-05 -3.84004e-05 -1.4924e-05
0.000127517 -3.83372e-05 -3.82198e-05 -1.4924e-05
6.34648e-05 -1.91234e-05 -1.90035e-05 -1.59183e-05
6.28625e-05 -1.89409e-05 -1.88236e-05 -1.59182e-05
0.000188554 -5.66397e-05 -5.65348e-05 -1.32663e-05
0.000190365 -5.71846e-05 -5.70774e-05 -1.32663e-05
6.31637e-05 -1.90321e-05 -1.89135e-05 -1.59182e-05
0.000125707 -3.77917e-05 -3.7678e-05 -1.4924e-05
0.00018946 -5.69122e-05 -5.68061e-05 -1.32663e-05
0.000126914 -3.81554e-05 -3.80392e-05 -1.4924e-05
0.00012631 -3.79735e-05 -3.78586e-05 -1.4924e-05
6.28625e-05 -1.89409e-05 -1.88236e-05 -1.59182e-05
6.22602e-05 -1.87584e-05 -1.86436e-05 -1.59182e-05
0.000186743 -5.60949e-05 -5.59921e-05 -1.32663e-05
0.000188554 -5.66397e-05 -5.65348e-05 -1.32663e-05
6.25614e-05 -1.88497e-05 -1.87336e-05 -1.59182e-05
0.0001245 -3.7428e-05 -3.73167e-05 -1.4924e-05
0.000187649 -5.63673e-05 -5.62634e-05 -1.32663e-05
0.000125707 -3.77917e-05 -3.7678e-05 -1.4924e-05
0.000125104 -3.76098e-05 -3.74973e-05 -1.4924e-05
6.22602e-05 -1.87584e-05 -1.86436e-05 -1.59182e-05
6.16579e-05 -1.8576e-05 -1.84637e-05 -1.59182e-05
0.000184932 -5.555e-05 -5.54495e-05 -1.32663e-05
0.000186743 -5.60949e-05 -5.59921e-05 -1.32663e-05
6.19591e-05 -1.86672e-05 -1.85537e-05 -1.59182e-05
0.000123294 -3.70643e-05 -3.69554e-05 -1.49239e-05
0.000185838 -5.58224e-05 -5.57208e-05 -1.32663e-05
0.0001245 -3.7428e-05 -3.73167e-05 -1.4924e-05
0.000123897 -3.72462e-05 -3.71361e-05 -1.49239e-05
6.16579e-05 -1.8576e-05 -1.84637e-05 -1.59182e-05
6.10556e-05 -1.83935e-05 -1.82837e-05 -1.59182e-05
0.000183121 -5.50052e-05 -5.49068e-05 -1.32662e-05
0.000184932 -5.555e-05 -5.54495e-05 -1.32663e-05
6.13568e-05 -1.84848e-05 -1.83737e-05 -1.59182e-05
0.000122087 -3.67007e-05 -3.65942e-05 -1.49239e-05
0.000184027 -5.52776e-05 -5.51782e-05 -1.32662e-05
0.000123294 -3.70643e-05 -3.69554e-05 -1.49239e-05
0.00012269 -3.68825e-05 -3.67748e-05 -1.49239e-05
6.10556e-05 -1.83935e-05 -1.82837e-05 -1.59182e-05
6.04533e-05 -1.82111e-05 -1.81038e-05 -1.59182e-05
0.00018131 -5.44603e-05 -5.43642e-05 -1.32662e-05
0.000183121 -5.50052e-05 -5.49068e-05 -1.32662e-05
6.07544e-05 -1.83023e-05 -1.81938e-05 -1.59182e-05
0.00012088 -3.6337e-05 -3.62329e-05 -1.49239e-05
0.000182216 -5.47328e-05 -5.46355e-05 -1.32662e-05
0.000122087 -3.67007e-05 -3.65942e-05 -1.49239e-05
0.000121484 -3.65188e-05 -3.64135e-05 -1.49239e-05
6.04533e-05 -1.82111e-05 -1.81038e-05 -1.59182e-05
5.98509e-05 -1.80287e-05 -1.79238e-05 -1.59181e-05
0.000179499 -5.39155e-05 -5.38215e-05 -1.32662e-05
0.00018131 -5.44603e-05 -5.43642e-05 -1.32662e-05
6.01521e-05 -1.81199e-05 -1.80138e-05 -1.59182e-05
0.000119674 -3.59733e-05 -3.58716e-05 -1.49239e-05
0.000180405 -5.41879e-05 -5.40928e-05 -1.32662e-05
0.00012088 -3.6337e-05 -3.62329e-05 -1.49239e-05
0.000120277 -3.61552e-05 -3.60522e-05 -1.49239e-05
5.98509e-05 -1.80287e-05 -1.79238e-05 -1.59181e-05
5.92485e-05 -1.78463e-05 -1.77438e-05 -1.59181e-05
0.000177688 -5.33707e-05 -5.32788e-05 -1.32662e-05
0.000179499 -5.39155e-05 -5.38215e-05 -1.32662e-05
5.95497e-05 -1.79375e-05 -1.78338e-05 -1.59181e-05
0.000118467 -3.56097e-05 -3.55103e-05 -1.49238e-05
0.000178593 -5.36431e-05 -5.35502e-05 -1.32662e-05
0.000119674 -3.59733e-05 -3.58716e-05 -1.49239e-05
0.00011907 -3.57915e-05 -3.56909e-05 -1.49238e-05
5.92485e-05 -1.78463e-05 -1.77438e-05 -1.59181e-05
5.86461e-05 -1.76639e-05 -1.75638e-05 -1.59181e-05
0.000175877 -5.28259e-05 -5.27361e-05 -1.32661e-05
0.000177688 -5.33707e-05 -5.32788e-05 -1.32662e-05
5.89473e-05 -1.77551e-05 -1.76538e-05 -1.59181e-05
0.00011726 -3.52461e-05 -3.51489e-05 -1.49238e-05
0.000176782 -5.30983e-05 -5.30075e-05 -1.32661e-05
0.000118467 -3.56097e-05 -3.55103e-05 -1.49238e-05
0.000117864 -3.54279e-05 -3.53296e-05 -1.49238e-05
5.86461e-05 -1.76639e-05 -1.75638e-05 -1.59181e-05
5.80437e-05 -1.74815e-05 -1.73838e-05 -1.59181e-05
0.000174066 -5.22811e-05 -5.21934e-05 -1.32661e-05
0.000175877 -5.28259e-05 -5.27361e-05 -1.32661e-05
5.83449e-05 -1.75727e-05 -1.74738e-05 -1.59181e-05
0.000116054 -3.48825e-05 -3.47876e-05 -1.49238e-05
0.000174971 -5.25535e-05 -5.24648e-05 -1.32661e-05
0.00011726 -3.52461e-05 -3.51489e-05 -1.49238e-05
0.000116657 -3.50643e-05 -3.49683e-05 -1.49238e-05
5.80437e-05 -1.74815e-05 -1.73838e-05 -1.59181e-05
5.74413e-05 -1.72991e-05 -1.72038e-05 -1.59181e-05
0.000172255 -5.17363e-05 -5.16507e-05 -1.32661e-05
0.000174066 -5.22811e-05 -5.21934e-05 -1.32661e-05
5.77425e-05 -1.73903e-05 -1.72938e-05 -1.59181e-05
0.000114847 -3.45189e-05 -3.44263e-05 -1.49238e-05
0.00017316 -5.20087e-05 -5.19221e-05 -1.32661e-05
0.000116054 -3.48825e-05 -3.47876e-05 -1.49238e-05
0.00011545 -3.47007e-05 -3.46069e-05 -1.49238e-05
5.74413e-05 -1.72991e-05 -1.72038e-05 -1.59181e-05
5.68389e-05 -1.71167e-05 -1.70238e-05 -1.59181e-05
0.000170443 -5.11915e-05 -5.1108e-05 -1.32661e-05
0.000172255 -5.17363e-05 -5.16507e-05 -1.32661e-05
5.71401e-05 -1.72079e-05 -1.71138e-05 -1.59181e-05
0.00011364 -3.41553e-05 -3.40649e-05 -1.49237e-05
0.000171349 -5.14639e-05 -5.13793e-05 -1.32661e-05
0.000114847 -3.45189e-05 -3.44263e-05 -1.49238e-05
0.000114243 -3.43371e-05 -3.42456e-05 -1.49238e-05
5.68389e-05 -1.71167e-05 -1.70238e-05 -1.59181e-05
5.62364e-05 -1.69344e-05 -1.68437e-05 -1.5918e-05
0.000168632 -5.06468e-05 -5.05652e-05 -1.3266e-05
0.000170443 -5.11915e-05 -5.1108e-05 -1.32661e-05
5.65376e-05 -1.70255e-05 -1.69337e-05 -1.5918e-05
0.000112433 -3.37917e-05 -3.37035e-05 -1.49237e-05
0.000169538 -5.09192e-05 -5.08366e-05 -1.3266e-05
0.00011364 -3.41553e-05 -3.40649e-05 -1.49237e-05
0.000113037 -3.39735e-05 -3.38842e-05 -1.49237e-05
5.62364e-05 -1.69344e-05 -1.68437e-05 -1.5918e-05
5.56339e-05 -1.6752e-05 -1.66637e-05 -1.5918e-05
0.000166821 -5.0102e-05 -5.00225e-05 -1.3266e-05
0.000168632 -5.06468e-05 -5.05652e-05 -1.3266e-05
5.59351e-05 -1.68432e-05 -1.67537e-05 -1.5918e-05
0.000111226 -3.34281e-05 -3.33421e-05 -1.49237e-05
0.000167727 -5.03744e-05 -5.02939e-05 -1.3266e-05
0.000112433 -3.37917e-05 -3.37035e-05 -1.49237e-05
0.00011183 -3.36099e-05 -3.35228e-05 -1.49237e-05
5.56339e-05 -1.6752e-05 -1.66637e-05 -1.5918e-05
5.50314e-05 -1.65697e-05 -1.64836e-05 -1.5918e-05
0.00016501 -4.95573e-05 -4.94797e-05 -1.3266e-05
0.000166821 -5.0102e-05 -5.00225e-05 -1.3266e-05
5.53327e-05 -1.66609e-05 -1.65736e-05 -1.5918e-05
0.00011002 -3.30645e-05 -3.29808e-05 -1.49237e-05
0.000165916 -4.98296e-05 -4.97511e-05 -1.3266e-05
0.000111226 -3.34281e-05 -3.33421e-05 -1.49237e-05
0.000110623 -3.32463e-05 -3.31614e-05 -1.49237e-05
5.50314e-05 -1.65697e-05 -1.64836e-05 -1.5918e-05
5.44289e-05 -1.63874e-05 -1.63035e-05 -1.5918e-05
0.000163199 -4.90125e-05 -4.8937e-05 -1.32659e-05
0.00016501 -4.95573e-05 -4.94797e-05 -1.3266e-05
5.47301e-05 -1.64785e-05 -1.63935e-05 -1.5918e-05
0.000108813 -3.2701e-05 -3.26193e-05 -1.49237e-05
0.000164104 -4.92849e-05 -4.92084e-05 -1.3266e-05
0.00011002 -3.30645e-05 -3.29808e-05 -1.49237e-05
0.000109416 -3.28828e-05 -3.28e-05 -1.49237e-05
5.44289e-05 -1.63874e-05 -1.63035e-05 -1.5918e-05
5.38263e-05 -1.62051e-05 -1.61234e-05 -1.5918e-05
0.000161388 -4.84678e-05 -4.83942e-05 -1.32659e-05
0.000163199 -4.90125e-05 -4.8937e-05 -1.32659e-05
5.41276e-05 -1.62962e-05 -1.62135e-05 -1.5918e-05
0.000107606 -3.23374e-05 -3.22579e-05 -1.49236e-05
0.000162293 -4.87402e-05 -4.86656e-05 -1.32659e-05
0.000108813 -3.2701e-05 -3.26193e-05 -1.49237e-05
0.000108209 -3.25192e-05 -3.24386e-05 -1.49236e-05
5.38263e-05 -1.62051e-05 -1.61234e-05 -1.5918e-05
5.32238e-05 -1.60228e-05 -1.59433e-05 -1.5918e-05
0.000159576 -4.79231e-05 -4.78514e-05 -1.32659e-05
0.000161388 -4.84678e-05 -4.83942e-05 -1.32659e-05
5.35251e-05 -1.61139e-05 -1.60334e-05 -1.5918e-05
0.000106399 -3.19739e-05 -3.18965e-05 -1.49236e-05
0.000160482 -4.81954e-05 -4.81228e-05 -1.32659e-05
0.000107606 -3.23374e-05 -3.22579e-05 -1.49236e-05
0.000107002 -3.21557e-05 -3.20772e-05 -1.49236e-05
5.32238e-05 -1.60228e-05 -1.59433e-05 -1.5918e-05
5.26212e-05 -1.58405e-05 -1.57632e-05 -1.59179e-05
0.000157765 -4.73784e-05 -4.73086e-05 -1.32659e-05
0.000159576 -4.79231e-05 -4.78514e-05 -1.32659e-05
5.29225e-05 -1.59316e-05 -1.58532e-05 -1.59179e-05
0.000105192 -3.16104e-05 -3.15351e-05 -1.49236e-05
0.000158671 -4.76507e-05 -4.758e-05 -1.32659e-05
0.000106399 -3.19739e-05 -3.18965e-05 -1.49236e-05
0.000105796 -3.17921e-05 -3.17158e-05 -1.49236e-05
5.26212e-05 -1.58405e-05 -1.57632e-05 -1.59179e-05
5.20186e-05 -1.56582e-05 -1.5583e-05 -1.59179e-05
0.000155954 -4.68336e-05 -4.67658e-05 -1.32658e-05
0.000157765 -4.73784e-05 -4.73086e-05 -1.32659e-05
5.23199e-05 -1.57493e-05 -1.56731e-05 -1.59179e-05
0.000103985 -3.12469e-05 -3.11736e-05 -1.49236e-05
0.000156859 -4.7106e-05 -4.70372e-05 -1.32659e-05
0.000105192 -3.16104e-05 -3.15351e-05 -1.49236e-05
0.000104589 -3.14286e-05 -3.13543e-05 -1.49236e-05
5.20186e-05 -1.56582e-05 -1.5583e-05 -1.59179e-05
5.1416e-05 -1.54759e-05 -1.54029e-05 -1.59179e-05
0.000154143 -4.6289e-05 -4.6223e-05 -1.32658e-05
0.000155954 -4.68336e-05 -4.67658e-05 -1.32658e-05
5.17173e-05 -1.5567e-05 -1.5493e-05 -1.59179e-05
0.000102778 -3.08834e-05 -3.08121e-05 -1.49235e-05
0.000155048 -4.65613e-05 -4.64944e-05 -1.32658e-05
0.000103985 -3.12469e-05 -3.11736e-05 -1.49236e-05
0.000103382 -3.10651e-05 -3.09929e-05 -1.49236e-05
5.1416e-05 -1.54759e-05 -1.54029e-05 -1.59179e-05
5.08134e-05 -1.52937e-05 -1.52227e-05 -1.59179e-05
0.000152331 -4.57443e-05 -4.56801e-05 -1.32658e-05
0.000154143 -4.6289e-05 -4.6223e-05 -1.32658e-05
5.11147e-05 -1.53848e-05 -1.53128e-05 -1.59179e-05
0.000101571 -3.05199e-05 -3.04507e-05 -1.49235e-05
0.000153237 -4.60166e-05 -4.59516e-05 -1.32658e-05
0.000102778 -3.08834e-05 -3.08121e-05 -1.49235e-05
0.000102175 -3.07016e-05 -3.06314e-05 -1.49235e-05
5.08134e-05 -1.52937e-05 -1.52227e-05 -1.59179e-05
5.02107e-05 -1.51114e-05 -1.50426e-05 -1.59179e-05
0.00015052 -4.51996e-05 -4.51373e-05 -1.32658e-05
0.000152331 -4.57443e-05 -4.56801e-05 -1.32658e-05
5.0512e-05 -1.52025e-05 -1.51327e-05 -1.59179e-05
0.000100364 -3.01564e-05 -3.00892e-05 -1.49235e-05
0.000151426 -4.54719e-05 -4.54087e-05 -1.32658e-05
0.000101571 -3.05199e-05 -3.04507e-05 -1.49235e-05
0.000100968 -3.03381e-05 -3.02699e-05 -1.49235e-05
5.02107e-05 -1.51114e-05 -1.50426e-05 -1.59179e-05
4.96081e-05 -1.49292e-05 -1.48624e-05 -1.59178e-05
0.000148709 -4.46549e-05 -4.45945e-05 -1.32657e-05
0.00015052 -4.51996e-05 -4.51373e-05 -1.32658e-05
4.99094e-05 -1.50203e-05 -1.49525e-05 -1.59179e-05
9.91575e-05 -2.97929e-05 -2.97277e-05 -1.49235e-05
0.000149614 -4.49273e-05 -4.48659e-05 -1.32658e-05
0.000100364 -3.01564e-05 -3.00892e-05 -1.49235e-05
9.9761e-05 -2.99746e-05 -2.99084e-05 -1.49235e-05
4.96081e-05 -1.49292e-05 -1.48624e-05 -1.59178e-05
4.90054e-05 -1.47469e-05 -1.46822e-05 -1.59178e-05
0.000146897 -4.41103e-05 -4.40516e-05 -1.32657e-05
0.000148709 -4.46549e-05 -4.45945e-05 -1.32657e-05
4.93067e-05 -1.48381e-05 -1.47723e-05 -1.59178e-05
9.79505e-05 -2.94294e-05 -2.93662e-05 -1.49235e-05
0.000147803 -4.43826e-05 -4.4323e-05 -1.32657e-05
9.91575e-05 -2.97929e-05 -2.97277e-05 -1.49235e-05
9.8554e-05 -2.96112e-05 -2.95469e-05 -1.49235e-05
4.90054e-05 -1.47469e-05 -1.46822e-05 -1.59178e-05
4.84027e-05 -1.45647e-05 -1.4502e-05 -1.59178e-05
0.000145086 -4.35656e-05 -4.35087e-05 -1.32657e-05
0.000146897 -4.41103e-05 -4.40516e-05 -1.32657e-05
4.8704e-05 -1.46558e-05 -1.45921e-05 -1.59178e-05
9.67435e-05 -2.9066e-05 -2.90046e-05 -1.49234e-05
0.000145992 -4.38379e-05 -4.37802e-05 -1.32657e-05
9.79505e-05 -2.94294e-05 -2.93662e-05 -1.49235e-05
9.7347e-05 -2.92477e-05 -2.91854e-05 -1.49234e-05
4.84027e-05 -1.45647e-05 -1.4502e-05 -1.59178e-05
4.77999e-05 -1.43825e-05 -1.43217e-05 -1.59178e-05
0.000143275 -4.3021e-05 -4.29658e-05 -1.32657e-05
0.000145086 -4.35656e-05 -4.35087e-05 -1.32657e-05
4.81013e-05 -1.44736e-05 -1.44119e-05 -1.59178e-05
9.55365e-05 -2.87025e-05 -2.86431e-05 -1.49234e-05
0.00014418 -4.32933e-05 -4.32373e-05 -1.32657e-05
9.67435e-05 -2.9066e-05 -2.90046e-05 -1.49234e-05
9.614e-05 -2.88843e-05 -2.88239e-05 -1.49234e-05
4.77999e-05 -1.43825e-05 -1.43217e-05 -1.59178e-05
4.71972e-05 -1.42003e-05 -1.41415e-05 -1.59178e-05
0.000141463 -4.24763e-05 -4.24229e-05 -1.32656e-05
0.000143275 -4.3021e-05 -4.29658e-05 -1.32657e-05
4.74986e-05 -1.42914e-05 -1.42316e-05 -1.59178e-05
9.43294e-05 -2.83391e-05 -2.82816e-05 -1.49234e-05
0.000142369 -4.27487e-05 -4.26944e-05 -1.32657e-05
9.55365e-05 -2.87025e-05 -2.86431e-05 -1.49234e-05
9.49329e-05 -2.85208e-05 -2.84623e-05 -1.49234e-05
4.71972e-05 -1.42003e-05 -1.41415e-05 -1.59178e-05
4.65944e-05 -1.40182e-05 -1.39613e-05 -1.59178e-05
0.000139652 -4.19317e-05 -4.188e-05 -1.32656e-05
0.000141463 -4.24763e-05 -4.24229e-05 -1.32656e-05
4.68958e-05 -1.41092e-05 -1.40514e-05 -1.59178e-05
9.31224e-05 -2.79757e-05 -2.792e-05 -1.49234e-05
0.000140558 -4.2204e-05 -4.21515e-05 -1.32656e-05
9.43294e-05 -2.83391e-05 -2.82816e-05 -1.49234e-05
9.37259e-05 -2.81574e-05 -2.81008e-05 -1.49234e-05
4.65944e-05 -1.40182e-05 -1.39613e-05 -1.59178e-05
4.59917e-05 -1.3836e-05 -1.3781e-05 -1.59177e-05
0.00013784 -4.13871e-05 -4.13371e-05 -1.32656e-05
0.000139652 -4.19317e-05 -4.188e-05 -1.32656e-05
4.62931e-05 -1.39271e-05 -1.38711e-05 -1.59178e-05
9.19153e-05 -2.76123e-05 -2.75584e-05 -1.49233e-05
0.000138746 -4.16594e-05 -4.16086e-05 -1.32656e-05
9.31224e-05 -2.79757e-05 -2.792e-05 -1.49234e-05
9.25188e-05 -2.7794e-05 -2.77392e-05 -1.49234e-05
4.59917e-05 -1.3836e-05 -1.3781e-05 -1.59177e-05
4.53889e-05 -1.36538e-05 -1.36007e-05 -1.59177e-05
0.000136029 -4.08425e-05 -4.07942e-05 -1.32656e-05
0.00013784 -4.13871e-05 -4.13371e-05 -1.32656e-05
4.56903e-05 -1.37449e-05 -1.36909e-05 -1.59177e-05
9.07082e-05 -2.72489e-05 -2.71968e-05 -1.49233e-05
0.000136935 -4.11148e-05 -4.10657e-05 -1.32656e-05
9.19153e-05 -2.76123e-05 -2.75584e-05 -1.49233e-05
9.13117e-05 -2.74306e-05 -2.73776e-05 -1.49233e-05
4.53889e-05 -1.36538e-05 -1.36007e-05 -1.59177e-05
4.47861e-05 -1.34717e-05 -1.34204e-05 -1.59177e-05
0.000134218 -4.02979e-05 -4.02513e-05 -1.32655e-05
0.000136029 -4.08425e-05 -4.07942e-05 -1.32656e-05
4.50875e-05 -1.35628e-05 -1.35106e-05 -1.59177e-05
8.95011e-05 -2.68855e-05 -2.68353e-05 -1.49233e-05
0.000135123 -4.05702e-05 -4.05227e-05 -1.32656e-05
9.07082e-05 -2.72489e-05 -2.71968e-05 -1.49233e-05
9.01046e-05 -2.70672e-05 -2.70161e-05 -1.49233e-05
4.47861e-05 -1.34717e-05 -1.34204e-05 -1.59177e-05
4.41832e-05 -1.32895e-05 -1.32401e-05 -1.59177e-05
0.000132406 -3.97533e-05 -3.97083e-05 -1.32655e-05
0.000134218 -4.02979e-05 -4.02513e-05 -1.32655e-05
4.44846e-05 -1.33806e-05 -1.33303e-05 -1.59177e-05
8.8294e-05 -2.65221e-05 -2.64736e-05 -1.49233e-05
0.000133312 -4.00256e-05 -3.99798e-05 -1.32655e-05
8.95011e-05 -2.68855e-05 -2.68353e-05 -1.49233e-05
8.88975e-05 -2.67038e-05 -2.66544e-05 -1.49233e-05
4.41832e-05 -1.32895e-05 -1.32401e-05 -1.59177e-05
4.35804e-05 -1.31074e-05 -1.30598e-05 -1.59177e-05
0.000130595 -3.92088e-05 -3.91654e-05 -1.32655e-05
0.000132406 -3.97533e-05 -3.97083e-05 -1.32655e-05
4.38818e-05 -1.31985e-05 -1.315e-05 -1.59177e-05
8.70868e-05 -2.61588e-05 -2.6112e-05 -1.49233e-05
0.0001315 -3.9481e-05 -3.94368e-05 -1.32655e-05
8.8294e-05 -2.65221e-05 -2.64736e-05 -1.49233e-05
8.76904e-05 -2.63404e-05 -2.62928e-05 -1.49233e-05
4.35804e-05 -1.31074e-05 -1.30598e-05 -1.59177e-05
4.29775e-05 -1.29253e-05 -1.28795e-05 -1.59177e-05
0.000128783 -3.86642e-05 -3.86224e-05 -1.32655e-05
0.000130595 -3.92088e-05 -3.91654e-05 -1.32655e-05
4.32789e-05 -1.30164e-05 -1.29697e-05 -1.59177e-05
8.58797e-05 -2.57954e-05 -2.57504e-05 -1.49232e-05
0.000129689 -3.89365e-05 -3.88939e-05 -1.32655e-05
8.70868e-05 -2.61588e-05 -2.6112e-05 -1.49233e-05
8.64832e-05 -2.59771e-05 -2.59312e-05 -1.49232e-05
4.29775e-05 -1.29253e-05 -1.28795e-05 -1.59177e-05
4.23746e-05 -1.27432e-05 -1.26992e-05 -1.59176e-05
0.000126972 -3.81196e-05 -3.80794e-05 -1.32655e-05
0.000128783 -3.86642e-05 -3.86224e-05 -1.32655e-05
4.26761e-05 -1.28343e-05 -1.27893e-05 -1.59177e-05
8.46725e-05 -2.54321e-05 -2.53888e-05 -1.49232e-05
0.000127877 -3.83919e-05 -3.83509e-05 -1.32655e-05
8.58797e-05 -2.57954e-05 -2.57504e-05 -1.49232e-05
8.52761e-05 -2.56137e-05 -2.55696e-05 -1.49232e-05
4.23746e-05 -1.27432e-05 -1.26992e-05 -1.59176e-05
4.17717e-05 -1.25611e-05 -1.25188e-05 -1.59176e-05
0.00012516 -3.75751e-05 -3.75364e-05 -1.32654e-05
0.000126972 -3.81196e-05 -3.80794e-05 -1.32655e-05
4.20732e-05 -1.26522e-05 -1.2609e-05 -1.59176e-05
8.34653e-05 -2.50687e-05 -2.50271e-05 -1.49232e-05
0.000126066 -3.78474e-05 -3.78079e-05 -1.32654e-05
8.46725e-05 -2.54321e-05 -2.53888e-05 -1.49232e-05
8.40689e-05 -2.52504e-05 -2.52079e-05 -1.49232e-05
4.17717e-05 -1.25611e-05 -1.25188e-05 -1.59176e-05
4.11688e-05 -1.2379e-05 -1.23385e-05 -1.59176e-05
0.000123349 -3.70306e-05 -3.69934e-05 -1.32654e-05
0.00012516 -3.75751e-05 -3.75364e-05 -1.32654e-05
4.14703e-05 -1.24701e-05 -1.24286e-05 -1.59176e-05
8.22581e-05 -2.47054e-05 -2.46654e-05 -1.49232e-05
0.000124254 -3.73028e-05 -3.72649e-05 -1.32654e-05
8.34653e-05 -2.50687e-05 -2.50271e-05 -1.49232e-05
8.28617e-05 -2.48871e-05 -2.48463e-05 -1.49232e-05
4.11688e-05 -1.2379e-05 -1.23385e-05 -1.59176e-05
4.05658e-05 -1.2197e-05 -1.21581e-05 -1.59176e-05
0.000121537 -3.6486e-05 -3.64504e-05 -1.32654e-05
0.000123349 -3.70306e-05 -3.69934e-05 -1.32654e-05
4.08673e-05 -1.2288e-05 -1.22483e-05 -1.59176e-05
8.10508e-05 -2.43421e-05 -2.43038e-05 -1.49231e-05
0.000122443 -3.67583e-05 -3.67219e-05 -1.32654e-05
8.22581e-05 -2.47054e-05 -2.46654e-05 -1.49232e-05
8.16545e-05 -2.45237e-05 -2.44846e-05 -1.49232e-05
4.05658e-05 -1.2197e-05 -1.21581e-05 -1.59176e-05
3.99629e-05 -1.20149e-05 -1.19777e-05 -1.59176e-05
0.000119725 -3.59415e-05 -3.59074e-05 -1.32654e-05
0.000121537 -3.6486e-05 -3.64504e-05 -1.32654e-05
4.02644e-05 -1.21059e-05 -1.20679e-05 -1.59176e-05
7.98436e-05 -2.39788e-05 -2.39421e-05 -1.49231e-05
0.000120631 -3.62138e-05 -3.61789e-05 -1.32654e-05
8.10508e-05 -2.43421e-05 -2.43038e-05 -1.49231e-05
8.04472e-05 -2.41604e-05 -2.41229e-05 -1.49231e-05
3.99629e-05 -1.20149e-05 -1.19777e-05 -1.59176e-05
3.93599e-05 -1.18329e-05 -1.17973e-05 -1.59176e-05
0.000117914 -3.5397e-05 -3.53644e-05 -1.32653e-05
0.000119725 -3.59415e-05 -3.59074e-05 -1.32654e-05
3.96614e-05 -1.19239e-05 -1.18875e-05 -1.59176e-05
7.86363e-05 -2.36155e-05 -2.35804e-05 -1.49231e-05
0.00011882 -3.56693e-05 -3.56359e-05 -1.32653e-05
7.98436e-05 -2.39788e-05 -2.39421e-05 -1.49231e-05
7.924e-05 -2.37971e-05 -2.37612e-05 -1.49231e-05
3.93599e-05 -1.18329e-05 -1.17973e-05 -1.59176e-05
3.87569e-05 -1.16508e-05 -1.16169e-05 -1.59175e-05
0.000116102 -3.48525e-05 -3.48213e-05 -1.32653e-05
0.000117914 -3.5397e-05 -3.53644e-05 -1.32653e-05
3.90584e-05 -1.17418e-05 -1.17071e-05 -1.59176e-05
7.7429e-05 -2.32522e-05 -2.32186e-05 -1.49231e-05
0.000117008 -3.51248e-05 -3.50928e-05 -1.32653e-05
7.86363e-05 -2.36155e-05 -2.35804e-05 -1.49231e-05
7.80327e-05 -2.34338e-05 -2.33995e-05 -1.49231e-05
3.87569e-05 -1.16508e-05 -1.16169e-05 -1.59175e-05
3.81539e-05 -1.14688e-05 -1.14365e-05 -1.59175e-05
0.000114291 -3.4308e-05 -3.42783e-05 -1.32653e-05
0.000116102 -3.48525e-05 -3.48213e-05 -1.32653e-05
3.84554e-05 -1.15598e-05 -1.15267e-05 -1.59175e-05
7.62217e-05 -2.28889e-05 -2.28569e-05 -1.49231e-05
0.000115196 -3.45803e-05 -3.45498e-05 -1.32653e-05
7.7429e-05 -2.32522e-05 -2.32186e-05 -1.49231e-05
7.68254e-05 -2.30706e-05 -2.30378e-05 -1.49231e-05
3.81539e-05 -1.14688e-05 -1.14365e-05 -1.59175e-05
3.75509e-05 -1.12868e-05 -1.1256e-05 -1.59175e-05
0.000112479 -3.37635e-05 -3.37352e-05 -1.32653e-05
0.000114291 -3.4308e-05 -3.42783e-05 -1.32653e-05
3.78524e-05 -1.13778e-05 -1.13462e-05 -1.59175e-05
7.50144e-05 -2.25257e-05 -2.24952e-05 -1.4923e-05
0.000113385 -3.40358e-05 -3.40067e-05 -1.32653e-05
7.62217e-05 -2.28889e-05 -2.28569e-05 -1.49231e-05
7.56181e-05 -2.27073e-05 -2.26761e-05 -1.49231e-05
3.75509e-05 -1.12868e-05 -1.1256e-05 -1.59175e-05
3.69478e-05 -1.11048e-05 -1.10756e-05 -1.59175e-05
0.000110667 -3.32191e-05 -3.31921e-05 -1.32652e-05
0.000112479 -3.37635e-05 -3.37352e-05 -1.32653e-05
3.72493e-05 -1.11958e-05 -1.11658e-05 -1.59175e-05
7.38071e-05 -2.21624e-05 -2.21334e-05 -1.4923e-05
0.000111573 -3.34913e-05 -3.34637e-05 -1.32652e-05
7.50144e-05 -2.25257e-05 -2.24952e-05 -1.4923e-05
7.44108e-05 -2.2344e-05 -2.23143e-05 -1.4923e-05
3.69478e-05 -1.11048e-05 -1.10756e-05 -1.59175e-05
3.63447e-05 -1.09228e-05 -1.08951e-05 -1.59175e-05
0.000108856 -3.26746e-05 -3.2649e-05 -1.32652e-05
0.000110667 -3.32191e-05 -3.31921e-05 -1.32652e-05
3.66463e-05 -1.10138e-05 -1.09853e-05 -1.59175e-05
7.25997e-05 -2.17992e-05 -2.17717e-05 -1.4923e-05
0.000109762 -3.29468e-05 -3.29206e-05 -1.32652e-05
7.38071e-05 -2.21624e-05 -2.21334e-05 -1.4923e-05
7.32034e-05 -2.19808e-05 -2.19526e-05 -1.4923e-05
3.63447e-05 -1.09228e-05 -1.08951e-05 -1.59175e-05
3.57416e-05 -1.07408e-05 -1.07146e-05 -1.59175e-05
0.000107044 -3.21302e-05 -3.21059e-05 -1.32652e-05
0.000108856 -3.26746e-05 -3.2649e-05 -1.32652e-05
3.60432e-05 -1.08318e-05 -1.08049e-05 -1.59175e-05
7.13924e-05 -2.14359e-05 -2.14099e-05 -1.4923e-05
0.00010795 -3.24024e-05 -3.23775e-05 -1.32652e-05
7.25997e-05 -2.17992e-05 -2.17717e-05 -1.4923e-05
7.1996e-05 -2.16176e-05 -2.15908e-05 -1.4923e-05
3.57416e-05 -1.07408e-05 -1.07146e-05 -1.59175e-05
3.51385e-05 -1.05589e-05 -1.05341e-05 -1.59175e-05
0.000105232 -3.15857e-05 -3.15628e-05 -1.32652e-05
0.000107044 -3.21302e-05 -3.21059e-05 -1.32652e-05
3.54401e-05 -1.06498e-05 -1.06244e-05 -1.59175e-05
7.0185e-05 -2.10727e-05 -2.10481e-05 -1.4923e-05
0.000106138 -3.18579e-05 -3.18344e-05 -1.32652e-05
7.13924e-05 -2.14359e-05 -2.14099e-05 -1.4923e-05
7.07887e-05 -2.12543e-05 -2.1229e-05 -1.4923e-05
3.51385e-05 -1.05589e-05 -1.05341e-05 -1.59175e-05
3.45354e-05 -1.03769e-05 -1.03536e-05 -1.59174e-05
0.000103421 -3.10413e-05 -3.10197e-05 -1.32651e-05
0.000105232 -3.15857e-05 -3.15628e-05 -1.32652e-05
3.4837e-05 -1.04679e-05 -1.04439e-05 -1.59175e-05
6.89776e-05 -2.07095e-05 -2.06863e-05 -1.49229e-05
0.000104326 -3.13135e-05 -3.12913e-05 -1.32652e-05
7.0185e-05 -2.10727e-05 -2.10481e-05 -1.4923e-05
6.95813e-05 -2.08911e-05 -2.08672e-05 -1.4923e-05
3.45354e-05 -1.03769e-05 -1.03536e-05 -1.59174e-05
3.39322e-05 -1.0195e-05 -1.01731e-05 -1.59174e-05
0.000101609 -3.04969e-05 -3.04766e-05 -1.32651e-05
0.000103421 -3.10413e-05 -3.10197e-05 -1.32651e-05
3.42338e-05 -1.02859e-05 -1.02634e-05 -1.59174e-05
6.77701e-05 -2.03463e-05 -2.03245e-05 -1.49229e-05
0.000102515 -3.07691e-05 -3.07481e-05 -1.32651e-05
6.89776e-05 -2.07095e-05 -2.06863e-05 -1.49229e-05
6.83739e-05 -2.05279e-05 -2.05054e-05 -1.49229e-05
3.39322e-05 -1.0195e-05 -1.01731e-05 -1.59174e-05
3.33291e-05 -1.0013e-05 -9.99259e-06 -1.59174e-05
9.97971e-05 -2.99525e-05 -2.99334e-05 -1.32651e-05
0.000101609 -3.04969e-05 -3.04766e-05 -1.32651e-05
3.36307e-05 -1.0104e-05 -1.00829e-05 -1.59174e-05
6.65627e-05 -1.99831e-05 -1.99627e-05 -1.49229e-05
0.000100703 -3.02247e-05 -3.0205e-05 -1.32651e-05
6.77701e-05 -2.03463e-05 -2.03245e-05 -1.49229e-05
6.71664e-05 -2.01647e-05 -2.01436e-05 -1.49229e-05
3.33291e-05 -1.0013e-05 -9.99259e-06 -1.59174e-05
3.27259e-05 -9.83111e-06 -9.81205e-06 -1.59174e-05
9.79853e-05 -2.9408e-05 -2.93903e-05 -1.32651e-05
9.97971e-05 -2.99525e-05 -2.99334e-05 -1.32651e-05
3.30275e-05 -9.92207e-06 -9.90232e-06 -1.59174e-05
6.53552e-05 -1.962e-05 -1.96008e-05 -1.49229e-05
9.88912e-05 -2.96803e-05 -2.96618e-05 -1.32651e-05
6.65627e-05 -1.99831e-05 -1.99627e-05 -1.49229e-05
6.5959e-05 -1.98015e-05 -1.97818e-05 -1.49229e-05
3.27259e-05 -9.83111e-06 -9.81205e-06 -1.59174e-05
3.21227e-05 -9.6492e-06 -9.6315e-06 -1.59174e-05
9.61736e-05 -2.88637e-05 -2.88471e-05 -1.32651e-05
9.79853e-05 -2.9408e-05 -2.93903e-05 -1.32651e-05
3.24243e-05 -9.74015e-06 -9.72177e-06 -1.59174e-05
6.41478e-05 -1.92568e-05 -1.9239e-05 -1.49229e-05
9.70795e-05 -2.91359e-05 -2.91187e-05 -1.32651e-05
6.53552e-05 -1.962e-05 -1.96008e-05 -1.49229e-05
6.47515e-05 -1.94384e-05 -1.94199e-05 -1.49229e-05
3.21227e-05 -9.6492e-06 -9.6315e-06 -1.59174e-05
3.15195e-05 -9.4673e-06 -9.45093e-06 -1.59174e-05
9.43618e-05 -2.83193e-05 -2.83039e-05 -1.3265e-05
9.61736e-05 -2.88637e-05 -2.88471e-05 -1.32651e-05
3.18211e-05 -9.55825e-06 -9.54121e-06 -1.59174e-05
6.29403e-05 -1.88936e-05 -1.88771e-05 -1.49228e-05
9.52677e-05 -2.85915e-05 -2.85755e-05 -1.3265e-05
6.41478e-05 -1.92568e-05 -1.9239e-05 -1.49229e-05
6.3544e-05 -1.90752e-05 -1.90581e-05 -1.49229e-05
3.15195e-05 -9.4673e-06 -9.45093e-06 -1.59174e-05
3.09162e-05 -9.28542e-06 -9.27035e-06 -1.59174e-05
9.255e-05 -2.77749e-05 -2.77607e-05 -1.3265e-05
9.43618e-05 -2.83193e-05 -2.83039e-05 -1.3265e-05
3.12178e-05 -9.37636e-06 -9.36064e-06 -1.59174e-05
6.17328e-05 -1.85305e-05 -1.85153e-05 -1.49228e-05
9.34559e-05 -2.80471e-05 -2.80323e-05 -1.3265e-05
6.29403e-05 -1.88936e-05 -1.88771e-05 -1.49228e-05
6.23365e-05 -1.87121e-05 -1.86962e-05 -1.49228e-05
3.09162e-05 -9.28542e-06 -9.27035e-06 -1.59174e-05
3.0313e-05 -9.10354e-06 -9.08975e-06 -1.59173e-05
9.07381e-05 -2.72305e-05 -2.72175e-05 -1.3265e-05
9.255e-05 -2.77749e-05 -2.77607e-05 -1.3265e-05
3.06146e-05 -9.19448e-06 -9.18005e-06 -1.59173e-05
6.05252e-05 -1.81674e-05 -1.81534e-05 -1.49228e-05
9.16441e-05 -2.75027e-05 -2.74891e-05 -1.3265e-05
6.17328e-05 -1.85305e-05 -1.85153e-05 -1.49228e-05
6.1129e-05 -1.83489e-05 -1.83343e-05 -1.49228e-05
3.0313e-05 -9.10354e-06 -9.08975e-06 -1.59173e-05
2.97097e-05 -8.92168e-06 -8.90915e-06 -1.59173e-05
8.89263e-05 -2.66862e-05 -2.66743e-05 -1.3265e-05
9.07381e-05 -2.72305e-05 -2.72175e-05 -1.3265e-05
3.00113e-05 -9.01261e-06 -8.99945e-06 -1.59173e-05
5.93177e-05 -1.78042e-05 -1.77915e-05 -1.49228e-05
8.98322e-05 -2.69584e-05 -2.69459e-05 -1.3265e-05
6.05252e-05 -1.81674e-05 -1.81534e-05 -1.49228e-05
5.99215e-05 -1.79858e-05 -1.79724e-05 -1.49228e-05
2.97097e-05 -8.92168e-06 -8.90915e-06 -1.59173e-05
2.91064e-05 -8.73982e-06 -8.72853e-06 -1.59173e-05
8.71144e-05 -2.61418e-05 -2.61311e-05 -1.32649e-05
8.89263e-05 -2.66862e-05 -2.66743e-05 -1.3265e-05
2.9408e-05 -8.83075e-06 -8.81884e-06 -1.59173e-05
5.81101e-05 -1.74411e-05 -1.74296e-05 -1.49228e-05
8.80204e-05 -2.6414e-05 -2.64027e-05 -1.3265e-05
5.93177e-05 -1.78042e-05 -1.77915e-05 -1.49228e-05
5.87139e-05 -1.76227e-05 -1.76105e-05 -1.49228e-05
2.91064e-05 -8.73982e-06 -8.72853e-06 -1.59173e-05
2.85031e-05 -8.55798e-06 -8.5479e-06 -1.59173e-05
8.53026e-05 -2.55975e-05 -2.55879e-05 -1.32649e-05
8.71144e-05 -2.61418e-05 -2.61311e-05 -1.32649e-05
2.88047e-05 -8.6489e-06 -8.63821e-06 -1.59173e-05
5.69025e-05 -1.7078e-05 -1.70676e-05 -1.49228e-05
8.62085e-05 -2.58697e-05 -2.58595e-05 -1.32649e-05
5.81101e-05 -1.74411e-05 -1.74296e-05 -1.49228e-05
5.75063e-05 -1.72596e-05 -1.72486e-05 -1.49228e-05
2.85031e-05 -8.55798e-06 -8.5479e-06 -1.59173e-05
2.78997e-05 -8.37615e-06 -8.36725e-06 -1.59173e-05
8.34907e-05 -2.50532e-05 -2.50447e-05 -1.32649e-05
8.53026e-05 -2.55975e-05 -2.55879e-05 -1.32649e-05
2.82014e-05 -8.46707e-06 -8.45757e-06 -1.59173e-05
5.56949e-05 -1.67149e-05 -1.67057e-05 -1.49227e-05
8.43966e-05 -2.53253e-05 -2.53163e-05 -1.32649e-05
5.69025e-05 -1.7078e-05 -1.70676e-05 -1.49228e-05
5.62987e-05 -1.68965e-05 -1.68867e-05 -1.49227e-05
2.78997e-05 -8.37615e-06 -8.36725e-06 -1.59173e-05
2.72964e-05 -8.19433e-06 -8.18659e-06 -1.59173e-05
8.16788e-05 -2.45088e-05 -2.45014e-05 -1.32649e-05
8.34907e-05 -2.50532e-05 -2.50447e-05 -1.32649e-05
2.75981e-05 -8.28524e-06 -8.27692e-06 -1.59173e-05
5.44873e-05 -1.63518e-05 -1.63438e-05 -1.49227e-05
8.25847e-05 -2.4781e-05 -2.4773e-05 -1.32649e-05
5.56949e-05 -1.67149e-05 -1.67057e-05 -1.49227e-05
5.50911e-05 -1.65334e-05 -1.65247e-05 -1.49227e-05
2.72964e-05 -8.19433e-06 -8.18659e-06 -1.59173e-05
2.6693e-05 -8.01253e-06 -8.00592e-06 -1.59173e-05
7.98669e-05 -2.39645e-05 -2.39581e-05 -1.32649e-05
8.16788e-05 -2.45088e-05 -2.45014e-05 -1.32649e-05
2.69947e-05 -8.10343e-06 -8.09626e-06 -1.59173e-05
5.32797e-05 -1.59888e-05 -1.59818e-05 -1.49227e-05
8.07728e-05 -2.42367e-05 -2.42298e-05 -1.32649e-05
5.44873e-05 -1.63518e-05 -1.63438e-05 -1.49227e-05
5.38835e-05 -1.61703e-05 -1.61628e-05 -1.49227e-05
2.6693e-05 -8.01253e-06 -8.00592e-06 -1.59173e-05
2.60896e-05 -7.83073e-06 -7.82524e-06 -1.59172e-05
7.80549e-05 -2.34202e-05 -2.34149e-05 -1.32648e-05
7.98669e-05 -2.39645e-05 -2.39581e-05 -1.32649e-05
2.63913e-05 -7.92163e-06 -7.91558e-06 -1.59173e-05
5.2072e-05 -1.56257e-05 -1.56198e-05 -1.49227e-05
7.89609e-05 -2.36924e-05 -2.36865e-05 -1.32648e-05
5.32797e-05 -1.59888e-05 -1.59818e-05 -1.49227e-05
5.26759e-05 -1.58072e-05 -1.58008e-05 -1.49227e-05
2.60896e-05 -7.83073e-06 -7.82524e-06 -1.59172e-05
2.54862e-05 -7.64895e-06 -7.64454e-06 -1.59172e-05
7.6243e-05 -2.28759e-05 -2.28716e-05 -1.32648e-05
7.80549e-05 -2.34202e-05 -2.34149e-05 -1.32648e-05
2.57879e-05 -7.73984e-06 -7.73489e-06 -1.59172e-05
5.08643e-05 -1.52627e-05 -1.52579e-05 -1.49227e-05
7.71489e-05 -2.31481e-05 -2.31432e-05 -1.32648e-05
5.2072e-05 -1.56257e-05 -1.56198e-05 -1.49227e-05
5.14682e-05 -1.54442e-05 -1.54389e-05 -1.49227e-05
2.54862e-05 -7.64895e-06 -7.64454e-06 -1.59172e-05
2.48828e-05 -7.46718e-06 -7.46383e-06 -1.59172e-05
7.4431e-05 -2.23317e-05 -2.23283e-05 -1.32648e-05
7.6243e-05 -2.28759e-05 -2.28716e-05 -1.32648e-05
2.51845e-05 -7.55806e-06 -7.55418e-06 -1.59172e-05
4.96567e-05 -1.48996e-05 -1.48959e-05 -1.49226e-05
7.5337e-05 -2.26038e-05 -2.25999e-05 -1.32648e-05
5.08643e-05 -1.52627e-05 -1.52579e-05 -1.49227e-05
5.02605e-05 -1.50812e-05 -1.50769e-05 -1.49227e-05
2.48828e-05 -7.46718e-06 -7.46383e-06 -1.59172e-05
2.42793e-05 -7.28541e-06 -7.2831e-06 -1.59172e-05
7.2619e-05 -2.17874e-05 -2.1785e-05 -1.32648e-05
7.4431e-05 -2.23317e-05 -2.23283e-05 -1.32648e-05
2.45811e-05 -7.37629e-06 -7.37347e-06 -1.59172e-05
4.8449e-05 -1.45366e-05 -1.45339e-05 -1.49226e-05
7.3525e-05 -2.20595e-05 -2.20566e-05 -1.32648e-05
4.96567e-05 -1.48996e-05 -1.48959e-05 -1.49226e-05
4.90528e-05 -1.47181e-05 -1.47149e-05 -1.49226e-05
2.42793e-05 -7.28541e-06 -7.2831e-06 -1.59172e-05
2.36759e-05 -7.10366e-06 -7.10237e-06 -1.59172e-05
7.0807e-05 -2.12431e-05 -2.12417e-05 -1.32647e-05
7.2619e-05 -2.17874e-05 -2.1785e-05 -1.32648e-05
2.39776e-05 -7.19454e-06 -7.19274e-06 -1.59172e-05
4.72412e-05 -1.41736e-05 -1.41718e-05 -1.49226e-05
7.1713e-05 -2.15153e-05 -2.15133e-05 -1.32648e-05
4.8449e-05 -1.45366e-05 -1.45339e-05 -1.49226e-05
4.78451e-05 -1.43551e-05 -1.43529e-05 -1.49226e-05
2.36759e-05 -7.10366e-06 -7.10237e-06 -1.59172e-05
2.30724e-05 -6.92193e-06 -6.92162e-06 -1.59172e-05
6.8995e-05 -2.06989e-05 -2.06983e-05 -1.32647e-05
7.0807e-05 -2.12431e-05 -2.12417e-05 -1.32647e-05
2.33741e-05 -7.01279e-06 -7.012e-06 -1.59172e-05
4.60335e-05 -1.38106e-05 -1.38098e-05 -1.49226e-05
6.9901e-05 -2.0971e-05 -2.097e-05 -1.32647e-05
4.72412e-05 -1.41736e-05 -1.41718e-05 -1.49226e-05
4.66374e-05 -1.39921e-05 -1.39908e-05 -1.49226e-05
2.30724e-05 -6.92193e-06 -6.92162e-06 -1.59172e-05
2.24689e-05 -6.7402e-06 -6.74086e-06 -1.59172e-05
6.71829e-05 -2.01546e-05 -2.0155e-05 -1.32647e-05
6.8995e-05 -2.06989e-05 -2.06983e-05 -1.32647e-05
2.27706e-05 -6.83106e-06 -6.83124e-06 -1.59172e-05
4.48257e-05 -1.34476e-05 -1.34478e-05 -1.49226e-05
6.8089e-05 -2.04268e-05 -2.04267e-05 -1.32647e-05
4.60335e-05 -1.38106e-05 -1.38098e-05 -1.49226e-05
4.54296e-05 -1.36291e-05 -1.36288e-05 -1.49226e-05
2.24689e-05 -6.7402e-06 -6.74086e-06 -1.59172e-05
2.18653e-05 -6.55848e-06 -6.56008e-06 -1.59172e-05
6.53709e-05 -1.96104e-05 -1.96116e-05 -1.32647e-05
6.71829e-05 -2.01546e-05 -2.0155e-05 -1.32647e-05
2.21671e-05 -6.64934e-06 -6.65047e-06 -1.59172e-05
4.36179e-05 -1.30846e-05 -1.30857e-05 -1.49226e-05
6.62769e-05 -1.98825e-05 -1.98833e-05 -1.32647e-05
4.48257e-05 -1.34476e-05 -1.34478e-05 -1.49226e-05
4.42218e-05 -1.32661e-05 -1.32667e-05 -1.49226e-05
2.18653e-05 -6.55848e-06 -6.56008e-06 -1.59172e-05
2.12618e-05 -6.37678e-06 -6.37929e-06 -1.59171e-05
6.35588e-05 -1.90662e-05 -1.90683e-05 -1.32647e-05
6.53709e-05 -1.96104e-05 -1.96116e-05 -1.32647e-05
2.15636e-05 -6.46763e-06 -6.46969e-06 -1.59172e-05
4.24101e-05 -1.27216e-05 -1.27236e-05 -1.49225e-05
6.44649e-05 -1.93383e-05 -1.934e-05 -1.32647e-05
4.36179e-05 -1.30846e-05 -1.30857e-05 -1.49226e-05
4.3014e-05 -1.29031e-05 -1.29047e-05 -1.49225e-05
2.12618e-05 -6.37678e-06 -6.37929e-06 -1.59171e-05
2.06582e-05 -6.19509e-06 -6.19849e-06 -1.59171e-05
6.17467e-05 -1.8522e-05 -1.85249e-05 -1.32646e-05
6.35588e-05 -1.90662e-05 -1.90683e-05 -1.32647e-05
2.096e-05 -6.28593e-06 -6.28889e-06 -1.59171e-05
4.12023e-05 -1.23587e-05 -1.23616e-05 -1.49225e-05
6.26528e-05 -1.87941e-05 -1.87966e-05 -1.32647e-05
4.24101e-05 -1.27216e-05 -1.27236e-05 -1.49225e-05
4.18062e-05 -1.25402e-05 -1.25426e-05 -1.49225e-05
2.06582e-05 -6.19509e-06 -6.19849e-06 -1.59171e-05
2.00547e-05 -6.01341e-06 -6.01768e-06 -1.59171e-05
5.99346e-05 -1.79778e-05 -1.79815e-05 -1.32646e-05
6.17467e-05 -1.8522e-05 -1.85249e-05 -1.32646e-05
2.03564e-05 -6.10425e-06 -6.10809e-06 -1.59171e-05
3.99945e-05 -1.19957e-05 -1.19995e-05 -1.49225e-05
6.08407e-05 -1.82499e-05 -1.82532e-05 -1.32646e-05
4.12023e-05 -1.23587e-05 -1.23616e-05 -1.49225e-05
4.05984e-05 -1.21772e-05 -1.21805e-05 -1.49225e-05
2.00547e-05 -6.01341e-06 -6.01768e-06 -1.59171e-05
1.94511e-05 -5.83174e-06 -5.83685e-06 -1.59171e-05
5.81225e-05 -1.74336e-05 -1.74381e-05 -1.32646e-05
5.99346e-05 -1.79778e-05 -1.79815e-05 -1.32646e-05
1.97529e-05 -5.92257e-06 -5.92726e-06 -1.59171e-05
3.87866e-05 -1.16328e-05 -1.16374e-05 -1.49225e-05
5.90286e-05 -1.77057e-05 -1.77098e-05 -1.32646e-05
3.99945e-05 -1.19957e-05 -1.19995e-05 -1.49225e-05
3.93906e-05 -1.18143e-05 -1.18184e-05 -1.49225e-05
1.94511e-05 -5.83174e-06 -5.83685e-06 -1.59171e-05
1.88474e-05 -5.65008e-06 -5.65601e-06 -1.59171e-05
5.63104e-05 -1.68894e-05 -1.68947e-05 -1.32646e-05
5.81225e-05 -1.74336e-05 -1.74381e-05 -1.32646e-05
1.91492e-05 -5.74091e-06 -5.74643e-06 -1.59171e-05
3.75788e-05 -1.12699e-05 -1.12752e-05 -1.49225e-05
5.72164e-05 -1.71615e-05 -1.71664e-05 -1.32646e-05
3.87866e-05 -1.16328e-05 -1.16374e-05 -1.49225e-05
3.81827e-05 -1.14513e-05 -1.14563e-05 -1.49225e-05
1.88474e-05 -5.65008e-06 -5.65601e-06 -1.59171e-05
1.82438e-05 -5.46844e-06 -5.47515e-06 -1.59171e-05
5.44982e-05 -1.63452e-05 -1.63513e-05 -1.32646e-05
5.63104e-05 -1.68894e-05 -1.68947e-05 -1.32646e-05
1.85456e-05 -5.55926e-06 -5.56558e-06 -1.59171e-05
3.63709e-05 -1.09069e-05 -1.09131e-05 -1.49225e-05
5.54043e-05 -1.66173e-05 -1.6623e-05 -1.32646e-05
3.75788e-05 -1.12699e-05 -1.12752e-05 -1.49225e-05
3.69748e-05 -1.10884e-05 -1.10942e-05 -1.49225e-05
1.82438e-05 -5.46844e-06 -5.47515e-06 -1.59171e-05
1.76401e-05 -5.28681e-06 -5.29429e-06 -1.59171e-05
5.26861e-05 -1.58011e-05 -1.58079e-05 -1.32645e-05
5.44982e-05 -1.63452e-05 -1.63513e-05 -1.32646e-05
1.7942e-05 -5.37762e-06 -5.38472e-06 -1.59171e-05
3.5163e-05 -1.0544e-05 -1.0551e-05 -1.49224e-05
5.35921e-05 -1.60731e-05 -1.60796e-05 -1.32646e-05
3.63709e-05 -1.09069e-05 -1.09131e-05 -1.49225e-05
3.57669e-05 -1.07255e-05 -1.0732e-05 -1.49224e-05
1.76401e-05 -5.28681e-06 -5.29429e-06 -1.59171e-05
1.70365e-05 -5.10519e-06 -5.11341e-06 -1.59171e-05
5.08739e-05 -1.52569e-05 -1.52644e-05 -1.32645e-05
5.26861e-05 -1.58011e-05 -1.58079e-05 -1.32645e-05
1.73383e-05 -5.19599e-06 -5.20385e-06 -1.59171e-05
3.39551e-05 -1.01811e-05 -1.01888e-05 -1.49224e-05
5.178e-05 -1.5529e-05 -1.55361e-05 -1.32645e-05
3.5163e-05 -1.0544e-05 -1.0551e-05 -1.49224e-05
3.4559e-05 -1.03626e-05 -1.03699e-05 -1.49224e-05
1.70365e-05 -5.10519e-06 -5.11341e-06 -1.59171e-05
1.64328e-05 -4.92358e-06 -4.93251e-06 -1.59171e-05
4.90617e-05 -1.47128e-05 -1.4721e-05 -1.32645e-05
5.08739e-05 -1.52569e-05 -1.52644e-05 -1.32645e-05
1.67346e-05 -5.01438e-06 -5.02296e-06 -1.59171e-05
3.27471e-05 -9.81826e-06 -9.82665e-06 -1.49224e-05
4.99678e-05 -1.49848e-05 -1.49927e-05 -1.32645e-05
3.39551e-05 -1.01811e-05 -1.01888e-05 -1.49224e-05
3.33511e-05 -9.9997e-06 -1.00077e-05 -1.49224e-05
1.64328e-05 -4.92358e-06 -4.93251e-06 -1.59171e-05
1.58291e-05 -4.74199e-06 -4.75161e-06 -1.59171e-05
4.72495e-05 -1.41686e-05 -1.41775e-05 -1.32645e-05
4.90617e-05 -1.47128e-05 -1.4721e-05 -1.32645e-05
1.61309e-05 -4.83278e-06 -4.84206e-06 -1.59171e-05
3.15392e-05 -9.4554e-06 -9.46447e-06 -1.49224e-05
4.81556e-05 -1.44407e-05 -1.44492e-05 -1.32645e-05
3.27471e-05 -9.81826e-06 -9.82665e-06 -1.49224e-05
3.21431e-05 -9.63683e-06 -9.64556e-06 -1.49224e-05
1.58291e-05 -4.74199e-06 -4.75161e-06 -1.59171e-05
1.52253e-05 -4.56041e-06 -4.57069e-06 -1.5917e-05
4.54372e-05 -1.36245e-05 -1.3634e-05 -1.32645e-05
4.72495e-05 -1.41686e-05 -1.41775e-05 -1.32645e-05
1.55272e-05 -4.65119e-06 -4.66115e-06 -1.5917e-05
3.03312e-05 -9.09254e-06 -9.10228e-06 -1.49224e-05
4.63433e-05 -1.38966e-05 -1.39058e-05 -1.32645e-05
3.15392e-05 -9.4554e-06 -9.46447e-06 -1.49224e-05
3.09352e-05 -9.27397e-06 -9.28338e-06 -1.49224e-05
1.52253e-05 -4.56041e-06 -4.57069e-06 -1.5917e-05
1.46216e-05 -4.37884e-06 -4.38976e-06 -1.5917e-05
4.3625e-05 -1.30804e-05 -1.30905e-05 -1.32645e-05
4.54372e-05 -1.36245e-05 -1.3634e-05 -1.32645e-05
1.49235e-05 -4.46962e-06 -4.48022e-06 -1.5917e-05
2.91232e-05 -8.7297e-06 -8.74008e-06 -1.49224e-05
4.45311e-05 -1.33525e-05 -1.33623e-05 -1.32645e-05
3.03312e-05 -9.09254e-06 -9.10228e-06 -1.49224e-05
2.97272e-05 -8.91112e-06 -8.92118e-06 -1.49224e-05
1.46216e-05 -4.37884e-06 -4.38976e-06 -1.5917e-05
1.40179e-05 -4.19729e-06 -4.20881e-06 -1.5917e-05
4.18127e-05 -1.25363e-05 -1.2547e-05 -1.32645e-05
4.3625e-05 -1.30804e-05 -1.30905e-05 -1.32645e-05
1.43197e-05 -4.28806e-06 -4.29929e-06 -1.5917e-05
2.79152e-05 -8.36688e-06 -8.37786e-06 -1.49224e-05
4.27189e-05 -1.28084e-05 -1.28188e-05 -1.32645e-05
2.91232e-05 -8.7297e-06 -8.74008e-06 -1.49224e-05
2.85192e-05 -8.54829e-06 -8.55897e-06 -1.49224e-05
1.40179e-05 -4.19729e-06 -4.20881e-06 -1.5917e-05
1.34141e-05 -4.01576e-06 -4.02786e-06 -1.5917e-05
4.00005e-05 -1.19922e-05 -1.20035e-05 -1.32645e-05
4.18127e-05 -1.25363e-05 -1.2547e-05 -1.32645e-05
1.3716e-05 -4.10652e-06 -4.11834e-06 -1.5917e-05
2.67072e-05 -8.00407e-06 -8.01564e-06 -1.49223e-05
4.09066e-05 -1.22643e-05 -1.22753e-05 -1.32645e-05
2.79152e-05 -8.36688e-06 -8.37786e-06 -1.49224e-05
2.73112e-05 -8.18547e-06 -8.19675e-06 -1.49224e-05
1.34141e-05 -4.01576e-06 -4.02786e-06 -1.5917e-05
1.28103e-05 -3.83423e-06 -3.84689e-06 -1.5917e-05
3.81882e-05 -1.14482e-05 -1.146e-05 -1.32645e-05
4.00005e-05 -1.19922e-05 -1.20035e-05 -1.32645e-05
1.31122e-05 -3.92499e-06 -3.93738e-06 -1.5917e-05
2.54992e-05 -7.64128e-06 -7.6534e-06 -1.49223e-05
3.90943e-05 -1.17202e-05 -1.17318e-05 -1.32645e-05
2.67072e-05 -8.00407e-06 -8.01564e-06 -1.49223e-05
2.61032e-05 -7.82267e-06 -7.83452e-06 -1.49223e-05
1.28103e-05 -3.83423e-06 -3.84689e-06 -1.5917e-05
1.22065e-05 -3.65272e-06 -3.66592e-06 -1.59169e-05
3.6376e-05 -1.09042e-05 -1.09165e-05 -1.32644e-05
3.81882e-05 -1.14482e-05 -1.146e-05 -1.32645e-05
1.25084e-05 -3.74348e-06 -3.75641e-06 -1.59169e-05
2.42912e-05 -7.2785e-06 -7.29116e-06 -1.49223e-05
3.72821e-05 -1.11762e-05 -1.11882e-05 -1.32645e-05
2.54992e-05 -7.64128e-06 -7.6534e-06 -1.49223e-05
2.48952e-05 -7.45989e-06 -7.47228e-06 -1.49223e-05
1.22065e-05 -3.65272e-06 -3.66592e-06 -1.59169e-05
1.16028e-05 -3.47121e-06 -3.48495e-06 -1.59168e-05
3.45637e-05 -1.03601e-05 -1.0373e-05 -1.32644e-05
3.6376e-05 -1.09042e-05 -1.09165e-05 -1.32644e-05
1.19046e-05 -3.56197e-06 -3.57543e-06 -1.59169e-05
2.30832e-05 -6.91574e-06 -6.92892e-06 -1.49222e-05
3.54698e-05 -1.06321e-05 -1.06447e-05 -1.32644e-05
2.42912e-05 -7.2785e-06 -7.29116e-06 -1.49223e-05
2.36872e-05 -7.09712e-06 -7.11004e-06 -1.49223e-05
1.16028e-05 -3.47121e-06 -3.48495e-06 -1.59168e-05
1.09989e-05 -3.28968e-06 -3.30397e-06 -1.59167e-05
3.27515e-05 -9.81611e-06 -9.82945e-06 -1.32644e-05
3.45637e-05 -1.03601e-05 -1.0373e-05 -1.32644e-05
1.13009e-05 -3.38045e-06 -3.39446e-06 -1.59168e-05
2.18752e-05 -6.55296e-06 -6.56669e-06 -1.49221e-05
3.36576e-05 -1.00881e-05 -1.01012e-05 -1.32644e-05
2.30832e-05 -6.91574e-06 -6.92892e-06 -1.49222e-05
2.24792e-05 -6.73435e-06 -6.7478e-06 -1.49222e-05
1.09989e-05 -3.28968e-06 -3.30397e-06 -1.59167e-05
1.03951e-05 -3.10808e-06 -3.12301e-06 -1.59166e-05
3.09393e-05 -9.27202e-06 -9.28597e-06 -1.32643e-05
3.27515e-05 -9.81611e-06 -9.82945e-06 -1.32644e-05
1.0697e-05 -3.19889e-06 -3.21349e-06 -1.59167e-05
2.06672e-05 -6.19009e-06 -6.20448e-06 -1.4922e-05
3.18454e-05 -9.54408e-06 -9.55771e-06 -1.32643e-05
2.18752e-05 -6.55296e-06 -6.56669e-06 -1.49221e-05
2.12712e-05 -6.37154e-06 -6.38558e-06 -1.49221e-05
1.03951e-05 -3.10808e-06 -3.12301e-06 -1.59166e-05
9.79113e-06 -2.92629e-06 -2.94207e-06 -1.59166e-05
2.9127e-05 -8.72771e-06 -8.74256e-06 -1.32641e-05
3.09393e-05 -9.27202e-06 -9.28597e-06 -1.32643e-05
1.00931e-05 -3.01722e-06 -3.03254e-06 -1.59166e-05
1.94591e-05 -5.82698e-06 -5.84233e-06 -1.49219e-05
3.00332e-05 -8.99991e-06 -9.01425e-06 -1.32642e-05
2.06672e-05 -6.19009e-06 -6.20448e-06 -1.4922e-05
2.00632e-05 -6.00858e-06 -6.0234e-06 -1.4922e-05
9.79113e-06 -2.92629e-06 -2.94207e-06 -1.59166e-05
9.18688e-06 -2.7441e-06 -2.76119e-06 -1.59169e-05
2.73144e-05 -8.18286e-06 -8.19925e-06 -1.32637e-05
2.9127e-05 -8.72771e-06 -8.74256e-06 -1.32641e-05
9.48904e-06 -2.83526e-06 -2.85162e-06 -1.59167e-05
1.82506e-05 -5.46328e-06 -5.48027e-06 -1.49218e-05
2.82208e-05 -8.45539e-06 -8.47089e-06 -1.32639e-05
1.94591e-05 -5.82698e-06 -5.84233e-06 -1.49219e-05
1.88549e-05 -5.64523e-06 -5.66128e-06 -1.49218e-05
9.18688e-06 -2.7441e-06 -2.76119e-06 -1.59169e-05
8.58187e-06 -2.56106e-06 -2.58035e-06 -1.5918e-05
2.55011e-05 -7.63675e-06 -7.65616e-06 -1.3263e-05
2.73144e-05 -8.18286e-06 -8.19925e-06 -1.32637e-05
8.88453e-06 -2.65273e-06 -2.67077e-06 -1.59173e-05
1.70411e-05 -5.09829e-06 -5.11836e-06 -1.4922e-05
2.64079e-05 -7.91003e-06 -7.92766e-06 -1.32634e-05
1.82506e-05 -5.46328e-06 -5.48027e-06 -1.49218e-05
1.7646e-05 -5.28102e-06 -5.29929e-06 -1.49219e-05
8.58187e-06 -2.56106e-06 -2.58035e-06 -1.5918e-05
7.97552e-06 -2.37632e-06 -2.39966e-06 -1.59211e-05
2.36857e-05 -7.08798e-06 -7.11331e-06 -1.32617e-05
2.55011e-05 -7.63675e-06 -7.65616e-06 -1.3263e-05
8.27887e-06 -2.46897e-06 -2.48996e-06 -1.59192e-05
1.58296e-05 -4.73064e-06 -4.75668e-06 -1.49231e-05
2.45938e-05 -7.36284e-06 -7.38471e-06 -1.32624e-05
1.70411e-05 -5.09829e-06 -5.11836e-06 -1.4922e-05
1.64357e-05 -4.91492e-06 -4.93748e-06 -1.49224e-05
7.97552e-06 -2.37632e-06 -2.39966e-06 -1.59211e-05
7.36582e-06 -2.1884e-06 -2.21889e-06 -1.59286e-05
2.18662e-05 -6.53383e-06 -6.57101e-06 -1.32595e-05
2.36857e-05 -7.08798e-06 -7.11331e-06 -1.32617e-05
7.67132e-06 -2.28291e-06 -2.30932e-06 -1.59241e-05
1.46134e-05 -4.35783e-06 -4.39524e-06 -1.49261e-05
2.27766e-05 -6.8118e-06 -6.84204e-06 -1.32608e-05
1.58296e-05 -4.73064e-06 -4.75668e-06 -1.49231e-05
1.52223e-05 -4.54513e-06 -4.57591e-06 -1.49243e-05
7.36582e-06 -2.1884e-06 -2.21889e-06 -1.59286e-05
6.75079e-06 -1.99452e-06 -2.0384e-06 -1.59447e-05
2.0037e-05 -5.96962e-06 -6.02887e-06 -1.3256e-05
2.18662e-05 -6.53383e-06 -6.57101e-06 -1.32595e-05
7.05898e-06 -2.09238e-06 -2.12854e-06 -1.59352e-05
1.3388e-05 -3.97527e-06 -4.03404e-06 -1.49333e-05
2.09534e-05 -6.25345e-06 -6.29998e-06 -1.32579e-05
1.46134e-05 -4.35783e-06 -4.39524e-06 -1.49261e-05
1.40022e-05 -4.1681e-06 -4.21463e-06 -1.49289e-05
6.75079e-06 -1.99452e-06 -2.0384e-06 -1.59447e-05
6.1236e-06 -1.79073e-06 -1.85694e-06 -1.59773e-05
1.81911e-05 -5.38693e-06 -5.4875e-06 -1.32504e-05
2.0037e-05 -5.96962e-06 -6.02887e-06 -1.3256e-05
6.43956e-06 -1.89432e-06 -1.94796e-06 -1.59583e-05
1.21452e-05 -3.57595e-06 -3.67255e-06 -1.4949e-05
1.91164e-05 -5.68117e-06 -5.75795e-06 -1.32536e-05
1.3388e-05 -3.97527e-06 -4.03404e-06 -1.49333e-05
1.27695e-05 -3.77842e-06 -3.85331e-06 -1.494e-05
6.1236e-06 -1.79073e-06 -1.85694e-06 -1.59773e-05
5.47943e-06 -1.56998e-06 -1.67548e-06 -1.60389e-05
1.63097e-05 -4.77368e-06 -4.944e-06 -1.32436e-05
1.81911e-05 -5.38693e-06 -5.4875e-06 -1.32504e-05
5.80339e-06 -1.68272e-06 -1.766e-06 -1.60036e-05
1.08707e-05 -3.14807e-06 -3.30972e-06 -1.49807e-05
1.72569e-05 -5.08538e-06 -5.21637e-06 -1.32469e-05
1.21452e-05 -3.57595e-06 -3.67255e-06 -1.4949e-05
1.15131e-05 -3.3662e-06 -3.49152e-06 -1.49617e-05
5.47943e-06 -1.56998e-06 -1.67548e-06 -1.60389e-05
4.79942e-06 -1.32611e-06 -1.48856e-06 -1.61497e-05
1.43746e-05 -4.11042e-06 -4.39894e-06 -1.32346e-05
1.63097e-05 -4.77368e-06 -4.944e-06 -1.32436e-05
5.14651e-06 -1.45191e-06 -1.5834e-06 -1.60865e-05
9.54353e-06 -2.67906e-06 -2.94192e-06 -1.50409e-05
1.5349e-05 -4.44907e-06 -4.67141e-06 -1.32397e-05
1.08707e-05 -3.14807e-06 -3.30972e-06 -1.49807e-05
1.02152e-05 -2.92012e-06 -3.12647e-06 -1.50072e-05
4.79942e-06 -1.32611e-06 -1.48856e-06 -1.61497e-05
4.08041e-06 -1.04934e-06 -1.29903e-06 -1.63331e-05
1.23357e-05 -3.38088e-06 -3.8378e-06 -1.3235e-05
1.43746e-05 -4.11042e-06 -4.39894e-06 -1.32346e-05
4.44258e-06 -1.1909e-06 -1.39358e-06 -1.62309e-05
8.13232e-06 -2.15244e-06 -2.5628e-06 -1.51488e-05
1.33743e-05 -3.75614e-06 -4.12205e-06 -1.3232e-05
9.54353e-06 -2.67906e-06 -2.94192e-06 -1.50409e-05
8.85083e-06 -2.42234e-06 -2.75507e-06 -1.50853e-05
4.08041e-06 -1.04934e-06 -1.29903e-06 -1.63331e-05
3.28828e-06 -7.53423e-07 -1.08637e-06 -1.66154e-05
1.01713e-05 -2.56759e-06 -3.25874e-06 -1.3252e-05
1.23357e-05 -3.38088e-06 -3.8378e-06 -1.3235e-05
3.69996e-06 -9.04324e-07 -1.19813e-06 -1.64601e-05
6.61197e-06 -1.5808e-06 -2.15622e-06 -1.53296e-05
1.12659e-05 -2.98156e-06 -3.55041e-06 -1.32415e-05
8.13232e-06 -2.15244e-06 -2.5628e-06 -1.51488e-05
7.38652e-06 -1.87219e-06 -2.36328e-06 -1.52321e-05
3.28828e-06 -7.53423e-07 -1.08637e-06 -1.66154e-05
2.47095e-06 -4.63937e-07 -8.6015e-07 -1.69832e-05
7.80212e-06 -1.72748e-06 -2.60342e-06 -1.33485e-05
1.01713e-05 -2.56759e-06 -3.25874e-06 -1.3252e-05
2.8703e-06 -5.98502e-07 -9.73626e-07 -1.6792e-05
4.96899e-06 -1.00961e-06 -1.69688e-06 -1.56074e-05
9.02558e-06 -2.14924e-06 -2.947e-06 -1.32827e-05
6.61197e-06 -1.5808e-06 -2.15622e-06 -1.53296e-05
5.80677e-06 -1.28305e-06 -1.93874e-06 -1.54474e-05
2.47095e-06 -4.63937e-07 -8.6015e-07 -1.69832e-05
1.6341e-06 -3.38216e-07 -5.55377e-07 -1.73473e-05
5.34474e-06 -9.99056e-07 -1.86244e-06 -1.35684e-05
7.80212e-06 -1.72748e-06 -2.60342e-06 -1.33485e-05
2.06673e-06 -3.75026e-07 -7.25015e-07 -1.71752e-05
3.3177e-06 -6.69369e-07 -1.135e-06 -1.59676e-05
6.55662e-06 -1.31731e-06 -2.24542e-06 -1.34411e-05
4.96899e-06 -1.00961e-06 -1.69688e-06 -1.56074e-05
4.12914e-06 -7.95739e-07 -1.4286e-06 -1.57944e-05
1.6341e-06 -3.38216e-07 -5.55377e-07 -1.73473e-05
1.04828e-06 -5.56605e-07 -2.10717e-07 -1.73656e-05
2.95813e-06 -9.83378e-07 -8.46322e-07 -1.40603e-05
5.34474e-06 -9.99056e-07 -1.86244e-06 -1.35684e-05
1.26422e-06 -3.71339e-07 -3.82664e-07 -1.74345e-05
1.91232e-06 -9.34338e-07 -4.19135e-07 -1.62383e-05
4.15056e-06 -8.64163e-07 -1.40846e-06 -1.3767e-05
3.3177e-06 -6.69369e-07 -1.135e-06 -1.59676e-05
2.56774e-06 -6.75436e-07 -8.10986e-07 -1.61092e-05
1.04828e-06 -5.56605e-07 -2.10717e-07 -1.73656e-05
7.38705e-07 -1.48145e-06 3.18318e-07 -1.64037e-05
1.6928e-06 -2.74934e-06 4.52804e-07 -1.44405e-05
2.95813e-06 -9.83378e-07 -8.46322e-07 -1.40603e-05
9.01393e-07 -9.55402e-07 2.31465e-08 -1.70587e-05
1.41152e-06 -2.52415e-06 4.76843e-07 -1.57336e-05
2.04602e-06 -1.48513e-06 -2.4038e-07 -1.43191e-05
1.91232e-06 -9.34338e-07 -4.19135e-07 -1.62383e-05
1.48305e-06 -1.55489e-06 3.07914e-08 -1.62003e-05
7.38705e-07 -1.48145e-06 3.18318e-07 -1.64037e-05
1.02149e-06 -2.69512e-06 7.1727e-07 -1.34106e-05
2.32095e-06 -8.29254e-06 2.55925e-06 -1.32746e-05
1.6928e-06 -2.74934e-06 4.52804e-07 -1.44405e-05
7.24107e-07 -2.04562e-06 5.66365e-07 -1.52309e-05
1.77052e-06 -5.41435e-06 1.56164e-06 -1.30966e-05
1.81295e-06 -5.08832e-06 1.40373e-06 -1.42372e-05
1.41152e-06 -2.52415e-06 4.76843e-07 -1.57336e-05
1.55494e-06 -3.80861e-06 9.65859e-07 -1.47025e-05
1.02149e-06 -2.69512e-06 7.1727e-07 -1.34106e-05
1.79734e-06 -4.4161e-06 1.12233e-06 -7.66216e-06
4.20075e-06 -1.50318e-05 4.64189e-06 -7.02482e-06
2.32095e-06 -8.29254e-06 2.55925e-06 -1.32746e-05
1.44214e-06 -3.49133e-06 8.78226e-07 -1.0907e-05
2.61789e-06 -9.24513e-06 2.84025e-06 -7.75772e-06
3.14186e-06 -1.19089e-05 3.7573e-06 -1.09747e-05
1.77052e-06 -5.41435e-06 1.56164e-06 -1.30966e-05
2.10819e-06 -7.30631e-06 2.22777e-06 -1.08389e-05
0.000291963 0 -0.000125127 3.81907e-05
0.00033028 -4.37624e-05 -0.000122793 -1.39867e-06
0.000570837 -0.000113233 -0.000196116 -4.26281e-05
0.000507097 2.22045e-16 -0.000217327 -2.9264e-05
0.000316449 -2.46133e-05 -0.000125072 1.42753e-05
0.000440716 -6.83745e-05 -0.000159575 -1.77151e-05
0.000542835 -5.34465e-05 -0.000209738 -4.94458e-05
0.000414912 0 -0.000177819 5.77849e-06
0.000421962 -3.79167e-05 -0.000164591 -5.76731e-06
0.00033028 -4.37624e-05 -0.000122793 -1.39867e-06
0.000347208 -8.00331e-05 -0.000114503 -1.37096e-05
0.000593163 -0.00016074 -0.000185324 -2.0357e-05
0.000570837 -0.000113233 -0.000196116 -4.26281e-05
0.000338762 -6.30466e-05 -0.000118164 -9.33209e-06
0.000470083 -0.000116116 -0.0001517 -2.06569e-05
0.000588484 -0.000146735 -0.000189321 -3.07823e-05
0.000440716 -6.83745e-05 -0.000159575 -1.77151e-05
0.000460361 -9.51879e-05 -0.000156503 -2.31981e-05
0.000347208 -8.00331e-05 -0.000114503 -1.37096e-05
0.000355817 -9.83759e-05 -0.000110332 -1.60734e-05
0.000590332 -0.0001741 -0.000178385 -7.61462e-06
0.000593163 -0.00016074 -0.000185324 -2.0357e-05
0.000353573 -9.14099e-05 -0.000112356 -1.58609e-05
0.000474859 -0.000135346 -0.000145506 -1.38883e-05
0.000591552 -0.000169049 -0.000181073 -1.19992e-05
0.000470083 -0.000116116 -0.0001517 -2.06569e-05
0.000473656 -0.000128661 -0.000147855 -1.63475e-05
0.000355817 -9.83759e-05 -0.000110332 -1.60734e-05
0.000355533 -0.000105606 -0.000107112 -1.48533e-05
0.000586181 -0.000175957 -0.00017581 -4.75153e-06
0.000590332 -0.0001741 -0.000178385 -7.61462e-06
0.000355838 -0.000102911 -0.000108397 -1.5392e-05
0.00047259 -0.000141507 -0.000141892 -1.05504e-05
0.000588782 -0.000175885 -0.000176956 -5.69364e-06
0.000474859 -0.000135346 -0.000145506 -1.38883e-05
0.0004743 -0.000139356 -0.000143547 -1.20939e-05
0.000355533 -0.000105606 -0.000107112 -1.48533e-05
0.000353062 -0.000107007 -0.000105452 -1.40195e-05
0.000581381 -0.000175675 -0.000173874 -4.60691e-06
0.000586181 -0.000175957 -0.00017581 -4.75153e-06
0.000354681 -0.000106774 -0.000106246 -1.44392e-05
0.000468265 -0.000141883 -0.000139878 -9.49467e-06
0.000583417 -0.000175876 -0.000174661 -4.39696e-06
0.00047259 -0.000141507 -0.000141892 -1.05504e-05
0.000470365 -0.000142118 -0.000140677 -9.67563e-06
0.000353062 -0.000107007 -0.000105452 -1.40195e-05
0.000349559 -0.000106483 -0.000104175 -1.34606e-05
0.000577737 -0.000174395 -0.000172861 -5.55907e-06
0.000581381 -0.000175675 -0.000173874 -4.60691e-06
0.000351185 -0.000106861 -0.00010471 -1.36541e-05
0.000464275 -0.000140907 -0.000138586 -9.56108e-06
0.000579634 -0.000175118 -0.000173364 -5.1067e-06
0.000468265 -0.000141883 -0.000139878 -9.49467e-06
0.000466248 -0.000141453 -0.000139198 -9.52371e-06
0.000349559 -0.000106483 -0.000104175 -1.34606e-05
0.000346504 -0.000105309 -0.000103369 -1.32862e-05
0.000574213 -0.00017314 -0.000171889 -6.36389e-06
0.000577737 -0.000174395 -0.000172861 -5.55907e-06
0.000348046 -0.000105931 -0.000103763 -1.33648e-05
0.000460681 -0.000139482 -0.000137657 -9.91688e-06
0.00057587 -0.000173742 -0.00017234 -5.96197e-06
0.000464275 -0.000140907 -0.000138586 -9.56108e-06
0.0004624 -0.000140215 -0.000138079 -9.69724e-06
0.000346504 -0.000105309 -0.000103369 -1.32862e-05
0.000343721 -0.000104156 -0.00010267 -1.32108e-05
0.00057105 -0.000171917 -0.000171057 -7.02246e-06
0.000574213 -0.00017314 -0.000171889 -6.36389e-06
0.000345031 -0.000104714 -0.000102993 -1.32288e-05
0.000457554 -0.0001382 -0.000136866 -1.02757e-05
0.000572647 -0.000172525 -0.000171481 -6.73627e-06
0.000460681 -0.000139482 -0.000137657 -9.91688e-06
0.000459079 -0.000138814 -0.000137257 -1.01204e-05
0.000343721 -0.000104156 -0.00010267 -1.32108e-05
0.000341347 -0.000103142 -0.000102088 -1.32132e-05
0.000567926 -0.000170811 -0.000170192 -7.42426e-06
0.00057105 -0.000171917 -0.000171057 -7.02246e-06
0.000342513 -0.00010363 -0.000102379 -1.32124e-05
0.000454712 -0.000137061 -0.000136136 -1.05443e-05
0.000569463 -0.000171349 -0.00017062 -7.24294e-06
0.000457554 -0.0001382 -0.000136866 -1.02757e-05
0.000456101 -0.000137614 -0.000136494 -1.04163e-05
0.000341347 -0.000103142 -0.000102088 -1.32132e-05
0.000339183 -0.000102292 -0.000101525 -1.32224e-05
0.000564885 -0.000169776 -0.000169332 -7.67886e-06
0.000567926 -0.000170811 -0.000170192 -7.42426e-06
0.000340233 -0.000102698 -0.000101801 -1.32151e-05
0.000452067 -0.000136082 -0.000135422 -1.07192e-05
0.000566409 -0.000170287 -0.000169767 -7.57137e-06
0.000454712 -0.000137061 -0.000136136 -1.05443e-05
0.000453373 -0.000136554 -0.00013578 -1.06453e-05
0.000339183 -0.000102292 -0.000101525 -1.32224e-05
0.00033719 -0.00010156 -0.000100984 -1.32381e-05
0.000561851 -0.000168797 -0.000168451 -7.81644e-06
0.000564885 -0.000169776 -0.000169332 -7.67886e-06
0.000338176 -0.000101914 -0.000101255 -1.32314e-05
0.000449531 -0.000135203 -0.000134712 -1.08251e-05
0.000563363 -0.000169281 -0.000168892 -7.75705e-06
0.000452067 -0.000136082 -0.000135422 -1.07192e-05
0.000450789 -0.000135633 -0.000135067 -1.0778e-05
0.00033719 -0.00010156 -0.000100984 -1.32381e-05
0.00033528 -0.00010091 -0.000100444 -1.32486e-05
0.000558832 -0.00016785 -0.000167564 -7.89299e-06
0.000561851 -0.000168797 -0.000168451 -7.81644e-06
0.000336225 -0.000101227 -0.000100713 -1.32434e-05
0.000447057 -0.000134394 -0.000133998 -1.08846e-05
0.000560342 -0.000168321 -0.000168009 -7.86141e-06
0.000449531 -0.000135203 -0.000134712 -1.08251e-05
0.000448289 -0.000134792 -0.000134356 -1.086e-05
0.00033528 -0.00010091 -0.000100444 -1.32486e-05
0.000333423 -0.000100308 -9.99063e-05 -1.32566e-05
0.000555813 -0.000166923 -0.000166667 -7.93055e-06
0.000558832 -0.00016785 -0.000167564 -7.89299e-06
0.000334348 -0.000100605 -0.000100176 -1.32532e-05
0.000444615 -0.000133624 -0.000133282 -1.09168e-05
0.000557322 -0.000167385 -0.000167116 -7.91487e-06
0.000447057 -0.000134394 -0.000133998 -1.08846e-05
0.000445833 -0.000134005 -0.000133641 -1.0903e-05
0.000333423 -0.000100308 -9.99063e-05 -1.32566e-05
0.00033159 -9.9734e-05 -9.93669e-05 -1.32613e-05
0.000552797 -0.000166005 -0.000165768 -7.94925e-06
0.000555813 -0.000166923 -0.000166667 -7.93055e-06
0.000332504 -0.000100018 -9.96366e-05 -1.32592e-05
0.000442189 -0.000132875 -0.000132563 -1.09331e-05
0.000554305 -0.000166463 -0.000166218 -7.94175e-06
0.000444615 -0.000133624 -0.000133282 -1.09168e-05
0.000443401 -0.000133247 -0.000132923 -1.09265e-05
0.00033159 -9.9734e-05 -9.93669e-05 -1.32613e-05
0.000329771 -9.91746e-05 -9.8827e-05 -1.32643e-05
0.000549779 -0.000165094 -0.000164865 -7.9574e-06
0.000552797 -0.000166005 -0.000165768 -7.94925e-06
0.00033068 -9.9453e-05 -9.90972e-05 -1.3263e-05
0.00043977 -0.000132139 -0.000131842 -1.09411e-05
0.000551288 -0.000165549 -0.000165317 -7.95413e-06
0.000442189 -0.000132875 -0.000132563 -1.09331e-05
0.000440979 -0.000132506 -0.000132203 -1.09377e-05
0.000329771 -9.91746e-05 -9.8827e-05 -1.32643e-05
0.000327957 -9.86229e-05 -9.82862e-05 -1.3266e-05
0.000546761 -0.000164184 -0.000163961 -7.9609e-06
0.000549779 -0.000165094 -0.000164865 -7.9574e-06
0.000328864 -9.88981e-05 -9.85567e-05 -1.32653e-05
0.000437354 -0.000131408 -0.00013112 -1.09447e-05
0.00054827 -0.000164639 -0.000164413 -7.95957e-06
0.00043977 -0.000132139 -0.000131842 -1.09411e-05
0.000438562 -0.000131773 -0.000131481 -1.09433e-05
0.000327957 -9.86229e-05 -9.82862e-05 -1.3266e-05
0.000326147 -9.80748e-05 -9.77451e-05 -1.3267e-05
0.000543742 -0.000163276 -0.000163057 -7.9621e-06
0.000546761 -0.000164184 -0.000163961 -7.9609e-06
0.000327052 -9.83485e-05 -9.80157e-05 -1.32666e-05
0.00043494 -0.000130679 -0.000130397 -1.09463e-05
0.000545252 -0.00016373 -0.000163509 -7.96166e-06
0.000437354 -0.000131408 -0.00013112 -1.09447e-05
0.000436147 -0.000131043 -0.000130759 -1.09457e-05
0.000326147 -9.80748e-05 -9.77451e-05 -1.3267e-05
0.000324337 -9.75284e-05 -9.72036e-05 -1.32675e-05
0.000540724 -0.000162369 -0.000162152 -7.96243e-06
0.000543742 -0.000163276 -0.000163057 -7.9621e-06
0.000325242 -9.78015e-05 -9.74744e-05 -1.32673e-05
0.000432526 -0.000129952 -0.000129674 -1.09469e-05
0.000542233 -0.000162822 -0.000162605 -7.96233e-06
0.00043494 -0.000130679 -0.000130397 -1.09463e-05
0.000433733 -0.000130316 -0.000130036 -1.09467e-05
0.000324337 -9.75284e-05 -9.72036e-05 -1.32675e-05
0.000322527 -9.69827e-05 -9.66619e-05 -1.32678e-05
0.000537705 -0.000161461 -0.000161247 -7.9624e-06
0.000540724 -0.000162369 -0.000162152 -7.96243e-06
0.000323432 -9.72555e-05 -9.69327e-05 -1.32677e-05
0.000430112 -0.000129226 -0.000128951 -1.09471e-05
0.000539214 -0.000161915 -0.0001617 -7.96243e-06
0.000432526 -0.000129952 -0.000129674 -1.09469e-05
0.000431319 -0.000129589 -0.000129313 -1.0947e-05
0.000322527 -9.69827e-05 -9.66619e-05 -1.32678e-05
0.000320717 -9.64372e-05 -9.61201e-05 -1.3268e-05
0.000534686 -0.000160554 -0.000160342 -7.9623e-06
0.000537705 -0.000161461 -0.000161247 -7.9624e-06
0.000321622 -9.67099e-05 -9.6391e-05 -1.32679e-05
0.000427697 -0.0001285 -0.000128228 -1.09471e-05
0.000536195 -0.000161008 -0.000160795 -7.96236e-06
0.000430112 -0.000129226 -0.000128951 -1.09471e-05
0.000428905 -0.000128863 -0.000128589 -1.09471e-05
0.000320717 -9.64372e-05 -9.61201e-05 -1.3268e-05
0.000318908 -9.58918e-05 -9.55782e-05 -1.3268e-05
0.000531666 -0.000159647 -0.000159437 -7.96219e-06
0.000534686 -0.000160554 -0.000160342 -7.9623e-06
0.000319813 -9.61645e-05 -9.58492e-05 -1.3268e-05
0.000425283 -0.000127773 -0.000127504 -1.09471e-05
0.000533176 -0.0001601 -0.00015989 -7.96224e-06
0.000427697 -0.0001285 -0.000128228 -1.09471e-05
0.00042649 -0.000128136 -0.000127866 -1.09471e-05
0.000318908 -9.58918e-05 -9.55782e-05 -1.3268e-05
0.000317098 -9.53464e-05 -9.50363e-05 -1.32681e-05
0.000528647 -0.000158739 -0.000158532 -7.9621e-06
0.000531666 -0.000159647 -0.000159437 -7.96219e-06
0.000318003 -9.56191e-05 -9.53073e-05 -1.32681e-05
0.000422869 -0.000127047 -0.000126781 -1.0947e-05
0.000530157 -0.000159193 -0.000158985 -7.96214e-06
0.000425283 -0.000127773 -0.000127504 -1.09471e-05
0.000424076 -0.00012741 -0.000127143 -1.0947e-05
0.000317098 -9.53464e-05 -9.50363e-05 -1.32681e-05
0.000315288 -9.4801e-05 -9.44944e-05 -1.32681e-05
0.000525628 -0.000157832 -0.000157627 -7.96204e-06
0.000528647 -0.000158739 -0.000158532 -7.9621e-06
0.000316193 -9.50737e-05 -9.47653e-05 -1.32681e-05
0.000420454 -0.00012632 -0.000126057 -1.0947e-05
0.000527138 -0.000158286 -0.000158079 -7.96207e-06
0.000422869 -0.000127047 -0.000126781 -1.0947e-05
0.000421661 -0.000126684 -0.000126419 -1.0947e-05
0.000315288 -9.4801e-05 -9.44944e-05 -1.32681e-05
0.000313478 -9.42556e-05 -9.39524e-05 -1.32681e-05
0.000522609 -0.000156925 -0.000156722 -7.96199e-06
0.000525628 -0.000157832 -0.000157627 -7.96204e-06
0.000314383 -9.45283e-05 -9.42234e-05 -1.32681e-05
0.00041804 -0.000125594 -0.000125334 -1.09469e-05
0.000524118 -0.000157378 -0.000157174 -7.96201e-06
0.000420454 -0.00012632 -0.000126057 -1.0947e-05
0.000419247 -0.000125957 -0.000125696 -1.0947e-05
0.000313478 -9.42556e-05 -9.39524e-05 -1.32681e-05
0.000311668 -9.37102e-05 -9.34105e-05 -1.3268e-05
0.000519589 -0.000156017 -0.000155817 -7.96195e-06
0.000522609 -0.000156925 -0.000156722 -7.96199e-06
0.000312573 -9.39829e-05 -9.36815e-05 -1.3268e-05
0.000415625 -0.000124868 -0.00012461 -1.09469e-05
0.000521099 -0.000156471 -0.000156269 -7.96196e-06
0.00041804 -0.000125594 -0.000125334 -1.09469e-05
0.000416832 -0.000125231 -0.000124972 -1.09469e-05
0.000311668 -9.37102e-05 -9.34105e-05 -1.3268e-05
0.000309858 -9.31648e-05 -9.28685e-05 -1.3268e-05
0.00051657 -0.00015511 -0.000154912 -7.96191e-06
0.000519589 -0.000156017 -0.000155817 -7.96195e-06
0.000310763 -9.34375e-05 -9.31395e-05 -1.3268e-05
0.00041321 -0.000124141 -0.000123887 -1.09469e-05
0.00051808 -0.000155564 -0.000155364 -7.96193e-06
0.000415625 -0.000124868 -0.00012461 -1.09469e-05
0.000414418 -0.000124504 -0.000124249 -1.09469e-05
0.000309858 -9.31648e-05 -9.28685e-05 -1.3268e-05
0.000308048 -9.26194e-05 -9.23265e-05 -1.3268e-05
0.000513551 -0.000154203 -0.000154006 -7.96189e-06
0.00051657 -0.00015511 -0.000154912 -7.96191e-06
0.000308953 -9.28921e-05 -9.25975e-05 -1.3268e-05
0.000410796 -0.000123415 -0.000123163 -1.09468e-05
0.000515061 -0.000154656 -0.000154459 -7.9619e-06
0.00041321 -0.000124141 -0.000123887 -1.09469e-05
0.000412003 -0.000123778 -0.000123525 -1.09469e-05
0.000308048 -9.26194e-05 -9.23265e-05 -1.3268e-05
0.000306238 -9.2074e-05 -9.17845e-05 -1.3268e-05
0.000510532 -0.000153295 -0.000153101 -7.96186e-06
0.000513551 -0.000154203 -0.000154006 -7.96189e-06
0.000307143 -9.23467e-05 -9.20555e-05 -1.3268e-05
0.000408381 -0.000122688 -0.00012244 -1.09468e-05
0.000512041 -0.000153749 -0.000153554 -7.96187e-06
0.000410796 -0.000123415 -0.000123163 -1.09468e-05
0.000409588 -0.000123052 -0.000122802 -1.09468e-05
0.000306238 -9.2074e-05 -9.17845e-05 -1.3268e-05
0.000304428 -9.15286e-05 -9.12425e-05 -1.32679e-05
0.000507512 -0.000152388 -0.000152196 -7.96184e-06
0.000510532 -0.000153295 -0.000153101 -7.96186e-06
0.000305333 -9.18013e-05 -9.15135e-05 -1.32679e-05
0.000405966 -0.000121962 -0.000121716 -1.09468e-05
0.000509022 -0.000152842 -0.000152649 -7.96185e-06
0.000408381 -0.000122688 -0.00012244 -1.09468e-05
0.000407174 -0.000122325 -0.000122078 -1.09468e-05
0.000304428 -9.15286e-05 -9.12425e-05 -1.32679e-05
0.000302618 -9.09832e-05 -9.07005e-05 -1.32679e-05
0.000504493 -0.000151481 -0.000151291 -7.96181e-06
0.000507512 -0.000152388 -0.000152196 -7.96184e-06
0.000303523 -9.12559e-05 -9.09715e-05 -1.32679e-05
0.000403552 -0.000121236 -0.000120993 -1.09468e-05
0.000506003 -0.000151934 -0.000151744 -7.96182e-06
0.000405966 -0.000121962 -0.000121716 -1.09468e-05
0.000404759 -0.000121599 -0.000121354 -1.09468e-05
0.000302618 -9.09832e-05 -9.07005e-05 -1.32679e-05
0.000300808 -9.04378e-05 -9.01585e-05 -1.32679e-05
0.000501474 -0.000150573 -0.000150386 -7.96179e-06
0.000504493 -0.000151481 -0.000151291 -7.96181e-06
0.000301713 -9.07105e-05 -9.04295e-05 -1.32679e-05
0.000401137 -0.000120509 -0.000120269 -1.09467e-05
0.000502983 -0.000151027 -0.000150838 -7.9618e-06
0.000403552 -0.000121236 -0.000120993 -1.09468e-05
0.000402344 -0.000120872 -0.000120631 -1.09467e-05
0.000300808 -9.04378e-05 -9.01585e-05 -1.32679e-05
0.000298998 -8.98924e-05 -8.96165e-05 -1.32679e-05
0.000498454 -0.000149666 -0.000149481 -7.96177e-06
0.000501474 -0.000150573 -0.000150386 -7.96179e-06
0.000299903 -9.01651e-05 -8.98875e-05 -1.32679e-05
0.000398722 -0.000119783 -0.000119546 -1.09467e-05
0.000499964 -0.00015012 -0.000149933 -7.96178e-06
0.000401137 -0.000120509 -0.000120269 -1.09467e-05
0.00039993 -0.000120146 -0.000119907 -1.09467e-05
0.000298998 -8.98924e-05 -8.96165e-05 -1.32679e-05
0.000297187 -8.93471e-05 -8.90745e-05 -1.32678e-05
0.000495435 -0.000148759 -0.000148576 -7.96175e-06
0.000498454 -0.000149666 -0.000149481 -7.96177e-06
0.000298093 -8.96197e-05 -8.93455e-05 -1.32678e-05
0.000396308 -0.000119056 -0.000118822 -1.09467e-05
0.000496945 -0.000149212 -0.000149028 -7.96176e-06
0.000398722 -0.000119783 -0.000119546 -1.09467e-05
0.000397515 -0.00011942 -0.000119184 -1.09467e-05
0.000297187 -8.93471e-05 -8.90745e-05 -1.32678e-05
0.000295377 -8.88017e-05 -8.85324e-05 -1.32678e-05
0.000492416 -0.000147851 -0.00014767 -7.96173e-06
0.000495435 -0.000148759 -0.000148576 -7.96175e-06
0.000296282 -8.90744e-05 -8.88034e-05 -1.32678e-05
0.000393893 -0.00011833 -0.000118098 -1.09467e-05
0.000493925 -0.000148305 -0.000148123 -7.96174e-06
0.000396308 -0.000119056 -0.000118822 -1.09467e-05
0.0003951 -0.000118693 -0.00011846 -1.09467e-05
0.000295377 -8.88017e-05 -8.85324e-05 -1.32678e-05
0.000293567 -8.82563e-05 -8.79904e-05 -1.32678e-05
0.000489396 -0.000146944 -0.000146765 -7.96171e-06
0.000492416 -0.000147851 -0.00014767 -7.96173e-06
0.000294472 -8.8529e-05 -8.82614e-05 -1.32678e-05
0.000391478 -0.000117604 -0.000117375 -1.09466e-05
0.000490906 -0.000147398 -0.000147218 -7.96172e-06
0.000393893 -0.00011833 -0.000118098 -1.09467e-05
0.000392686 -0.000117967 -0.000117737 -1.09466e-05
0.000293567 -8.82563e-05 -8.79904e-05 -1.32678e-05
0.000291757 -8.7711e-05 -8.74483e-05 -1.32678e-05
0.000486377 -0.000146037 -0.00014586 -7.96169e-06
0.000489396 -0.000146944 -0.000146765 -7.96171e-06
0.000292662 -8.79837e-05 -8.77193e-05 -1.32678e-05
0.000389064 -0.000116877 -0.000116651 -1.09466e-05
0.000487887 -0.00014649 -0.000146313 -7.9617e-06
0.000391478 -0.000117604 -0.000117375 -1.09466e-05
0.000390271 -0.00011724 -0.000117013 -1.09466e-05
0.000291757 -8.7711e-05 -8.74483e-05 -1.32678e-05
0.000289947 -8.71657e-05 -8.69062e-05 -1.32677e-05
0.000483357 -0.000145129 -0.000144955 -7.96166e-06
0.000486377 -0.000146037 -0.00014586 -7.96169e-06
0.000290852 -8.74383e-05 -8.71773e-05 -1.32677e-05
0.000386649 -0.000116151 -0.000115928 -1.09466e-05
0.000484867 -0.000145583 -0.000145407 -7.96167e-06
0.000389064 -0.000116877 -0.000116651 -1.09466e-05
0.000387856 -0.000116514 -0.00011629 -1.09466e-05
0.000289947 -8.71657e-05 -8.69062e-05 -1.32677e-05
0.000288137 -8.66203e-05 -8.63641e-05 -1.32677e-05
0.000480338 -0.000144222 -0.00014405 -7.96164e-06
0.000483357 -0.000145129 -0.000144955 -7.96166e-06
0.000289042 -8.6893e-05 -8.66352e-05 -1.32677e-05
0.000384234 -0.000115424 -0.000115204 -1.09466e-05
0.000481848 -0.000144676 -0.000144502 -7.96165e-06
0.000386649 -0.000116151 -0.000115928 -1.09466e-05
0.000385442 -0.000115788 -0.000115566 -1.09466e-05
0.000288137 -8.66203e-05 -8.63641e-05 -1.32677e-05
0.000286326 -8.6075e-05 -8.58221e-05 -1.32677e-05
0.000477319 -0.000143315 -0.000143144 -7.96162e-06
0.000480338 -0.000144222 -0.00014405 -7.96164e-06
0.000287232 -8.63477e-05 -8.60931e-05 -1.32677e-05
0.000381819 -0.000114698 -0.000114481 -1.09465e-05
0.000478828 -0.000143769 -0.000143597 -7.96163e-06
0.000384234 -0.000115424 -0.000115204 -1.09466e-05
0.000383027 -0.000115061 -0.000114842 -1.09465e-05
0.000286326 -8.6075e-05 -8.58221e-05 -1.32677e-05
0.000284516 -8.55297e-05 -8.528e-05 -1.32677e-05
0.000474299 -0.000142408 -0.000142239 -7.9616e-06
0.000477319 -0.000143315 -0.000143144 -7.96162e-06
0.000285421 -8.58023e-05 -8.5551e-05 -1.32677e-05
0.000379405 -0.000113972 -0.000113757 -1.09465e-05
0.000475809 -0.000142861 -0.000142692 -7.96161e-06
0.000381819 -0.000114698 -0.000114481 -1.09465e-05
0.000380612 -0.000114335 -0.000114119 -1.09465e-05
0.000284516 -8.55297e-05 -8.528e-05 -1.32677e-05
0.000282706 -8.49844e-05 -8.47378e-05 -1.32676e-05
0.00047128 -0.0001415 -0.000141334 -7.96158e-06
0.000474299 -0.000142408 -0.000142239 -7.9616e-06
0.000283611 -8.5257e-05 -8.50089e-05 -1.32677e-05
0.00037699 -0.000113245 -0.000113033 -1.09465e-05
0.00047279 -0.000141954 -0.000141787 -7.96159e-06
0.000379405 -0.000113972 -0.000113757 -1.09465e-05
0.000378197 -0.000113609 -0.000113395 -1.09465e-05
0.000282706 -8.49844e-05 -8.47378e-05 -1.32676e-05
0.000280896 -8.44391e-05 -8.41957e-05 -1.32676e-05
0.00046826 -0.000140593 -0.000140429 -7.96156e-06
0.00047128 -0.0001415 -0.000141334 -7.96158e-06
0.000281801 -8.47117e-05 -8.44668e-05 -1.32676e-05
0.000374575 -0.000112519 -0.00011231 -1.09465e-05
0.00046977 -0.000141047 -0.000140881 -7.96157e-06
0.00037699 -0.000113245 -0.000113033 -1.09465e-05
0.000375782 -0.000112882 -0.000112671 -1.09465e-05
0.000280896 -8.44391e-05 -8.41957e-05 -1.32676e-05
0.000279086 -8.38938e-05 -8.36536e-05 -1.32676e-05
0.000465241 -0.000139686 -0.000139524 -7.96154e-06
0.00046826 -0.000140593 -0.000140429 -7.96156e-06
0.000279991 -8.41664e-05 -8.39247e-05 -1.32676e-05
0.00037216 -0.000111793 -0.000111586 -1.09464e-05
0.000466751 -0.000140139 -0.000139976 -7.96155e-06
0.000374575 -0.000112519 -0.00011231 -1.09465e-05
0.000373368 -0.000112156 -0.000111948 -1.09465e-05
0.000279086 -8.38938e-05 -8.36536e-05 -1.32676e-05
0.000277275 -8.33485e-05 -8.31115e-05 -1.32676e-05
0.000462222 -0.000138778 -0.000138618 -7.96152e-06
0.000465241 -0.000139686 -0.000139524 -7.96154e-06
0.00027818 -8.36211e-05 -8.33825e-05 -1.32676e-05
0.000369745 -0.000111066 -0.000110862 -1.09464e-05
0.000463731 -0.000139232 -0.000139071 -7.96153e-06
0.00037216 -0.000111793 -0.000111586 -1.09464e-05
0.000370953 -0.00011143 -0.000111224 -1.09464e-05
0.000277275 -8.33485e-05 -8.31115e-05 -1.32676e-05
0.000275465 -8.28032e-05 -8.25693e-05 -1.32675e-05
0.000459202 -0.000137871 -0.000137713 -7.9615e-06
0.000462222 -0.000138778 -0.000138618 -7.96152e-06
0.00027637 -8.30759e-05 -8.28404e-05 -1.32676e-05
0.000367331 -0.00011034 -0.000110139 -1.09464e-05
0.000460712 -0.000138325 -0.000138166 -7.96151e-06
0.000369745 -0.000111066 -0.000110862 -1.09464e-05
0.000368538 -0.000110703 -0.000110501 -1.09464e-05
0.000275465 -8.28032e-05 -8.25693e-05 -1.32675e-05
0.000273655 -8.2258e-05 -8.20272e-05 -1.32675e-05
0.000456183 -0.000136964 -0.000136808 -7.96148e-06
0.000459202 -0.000137871 -0.000137713 -7.9615e-06
0.00027456 -8.25306e-05 -8.22982e-05 -1.32675e-05
0.000364916 -0.000109614 -0.000109415 -1.09464e-05
0.000457692 -0.000137418 -0.000137261 -7.96149e-06
0.000367331 -0.00011034 -0.000110139 -1.09464e-05
0.000366123 -0.000109977 -0.000109777 -1.09464e-05
0.000273655 -8.2258e-05 -8.20272e-05 -1.32675e-05
0.000271844 -8.17127e-05 -8.1485e-05 -1.32675e-05
0.000453163 -0.000136057 -0.000135903 -7.96146e-06
0.000456183 -0.000136964 -0.000136808 -7.96148e-06
0.000272749 -8.19853e-05 -8.17561e-05 -1.32675e-05
0.000362501 -0.000108888 -0.000108691 -1.09463e-05
0.000454673 -0.00013651 -0.000136355 -7.96147e-06
0.000364916 -0.000109614 -0.000109415 -1.09464e-05
0.000363708 -0.000109251 -0.000109053 -1.09464e-05
0.000271844 -8.17127e-05 -8.1485e-05 -1.32675e-05
0.000270034 -8.11674e-05 -8.09428e-05 -1.32675e-05
0.000450144 -0.000135149 -0.000134998 -7.96144e-06
0.000453163 -0.000136057 -0.000135903 -7.96146e-06
0.000270939 -8.14401e-05 -8.12139e-05 -1.32675e-05
0.000360086 -0.000108161 -0.000107968 -1.09463e-05
0.000451653 -0.000135603 -0.00013545 -7.96145e-06
0.000362501 -0.000108888 -0.000108691 -1.09463e-05
0.000361293 -0.000108524 -0.00010833 -1.09463e-05
0.000270034 -8.11674e-05 -8.09428e-05 -1.32675e-05
0.000268224 -8.06222e-05 -8.04006e-05 -1.32674e-05
0.000447124 -0.000134242 -0.000134092 -7.96141e-06
0.000450144 -0.000135149 -0.000134998 -7.96144e-06
0.000269129 -8.08948e-05 -8.06717e-05 -1.32675e-05
0.000357671 -0.000107435 -0.000107244 -1.09463e-05
0.000448634 -0.000134696 -0.000134545 -7.96142e-06
0.000360086 -0.000108161 -0.000107968 -1.09463e-05
0.000358879 -0.000107798 -0.000107606 -1.09463e-05
0.000268224 -8.06222e-05 -8.04006e-05 -1.32674e-05
0.000266413 -8.0077e-05 -7.98584e-05 -1.32674e-05
0.000444105 -0.000133335 -0.000133187 -7.96139e-06
0.000447124 -0.000134242 -0.000134092 -7.96141e-06
0.000267318 -8.03496e-05 -8.01295e-05 -1.32674e-05
0.000355256 -0.000106709 -0.00010652 -1.09463e-05
0.000445614 -0.000133789 -0.00013364 -7.9614e-06
0.000357671 -0.000107435 -0.000107244 -1.09463e-05
0.000356464 -0.000107072 -0.000106882 -1.09463e-05
0.000266413 -8.0077e-05 -7.98584e-05 -1.32674e-05
0.000264603 -7.95317e-05 -7.93162e-05 -1.32674e-05
0.000441085 -0.000132428 -0.000132282 -7.96137e-06
0.000444105 -0.000133335 -0.000133187 -7.96139e-06
0.000265508 -7.98043e-05 -7.95873e-05 -1.32674e-05
0.000352841 -0.000105982 -0.000105797 -1.09462e-05
0.000442595 -0.000132881 -0.000132734 -7.96138e-06
0.000355256 -0.000106709 -0.00010652 -1.09463e-05
0.000354049 -0.000106346 -0.000106159 -1.09463e-05
0.000264603 -7.95317e-05 -7.93162e-05 -1.32674e-05
0.000262793 -7.89865e-05 -7.8774e-05 -1.32674e-05
0.000438066 -0.00013152 -0.000131376 -7.96135e-06
0.000441085 -0.000132428 -0.000132282 -7.96137e-06
0.000263698 -7.92591e-05 -7.90451e-05 -1.32674e-05
0.000350426 -0.000105256 -0.000105073 -1.09462e-05
0.000439575 -0.000131974 -0.000131829 -7.96136e-06
0.000352841 -0.000105982 -0.000105797 -1.09462e-05
0.000351634 -0.000105619 -0.000105435 -1.09462e-05
0.000262793 -7.89865e-05 -7.8774e-05 -1.32674e-05
0.000260982 -7.84413e-05 -7.82318e-05 -1.32673e-05
0.000435046 -0.000130613 -0.000130471 -7.96133e-06
0.000438066 -0.00013152 -0.000131376 -7.96135e-06
0.000261887 -7.87139e-05 -7.85029e-05 -1.32674e-05
0.000348011 -0.00010453 -0.000104349 -1.09462e-05
0.000436556 -0.000131067 -0.000130924 -7.96134e-06
0.000350426 -0.000105256 -0.000105073 -1.09462e-05
0.000349219 -0.000104893 -0.000104711 -1.09462e-05
0.000260982 -7.84413e-05 -7.82318e-05 -1.32673e-05
0.000259172 -7.78961e-05 -7.76896e-05 -1.32673e-05
0.000432027 -0.000129706 -0.000129566 -7.96131e-06
0.000435046 -0.000130613 -0.000130471 -7.96133e-06
0.000260077 -7.81687e-05 -7.79607e-05 -1.32673e-05
0.000345596 -0.000103804 -0.000103626 -1.09462e-05
0.000433536 -0.00013016 -0.000130019 -7.96132e-06
0.000348011 -0.00010453 -0.000104349 -1.09462e-05
0.000346804 -0.000104167 -0.000103987 -1.09462e-05
0.000259172 -7.78961e-05 -7.76896e-05 -1.32673e-05
0.000257361 -7.73509e-05 -7.71473e-05 -1.32673e-05
0.000429007 -0.000128799 -0.000128661 -7.96129e-06
0.000432027 -0.000129706 -0.000129566 -7.96131e-06
0.000258266 -7.76235e-05 -7.74184e-05 -1.32673e-05
0.000343182 -0.000103077 -0.000102902 -1.09461e-05
0.000430517 -0.000129252 -0.000129113 -7.9613e-06
0.000345596 -0.000103804 -0.000103626 -1.09462e-05
0.000344389 -0.000103441 -0.000103264 -1.09462e-05
0.000257361 -7.73509e-05 -7.71473e-05 -1.32673e-05
0.000255551 -7.68057e-05 -7.66051e-05 -1.32673e-05
0.000425987 -0.000127892 -0.000127755 -7.96126e-06
0.000429007 -0.000128799 -0.000128661 -7.96129e-06
0.000256456 -7.70783e-05 -7.68762e-05 -1.32673e-05
0.000340767 -0.000102351 -0.000102178 -1.09461e-05
0.000427497 -0.000128345 -0.000128208 -7.96128e-06
0.000343182 -0.000103077 -0.000102902 -1.09461e-05
0.000341974 -0.000102714 -0.00010254 -1.09461e-05
0.000255551 -7.68057e-05 -7.66051e-05 -1.32673e-05
0.00025374 -7.62605e-05 -7.60628e-05 -1.32672e-05
0.000422968 -0.000126984 -0.00012685 -7.96124e-06
0.000425987 -0.000127892 -0.000127755 -7.96126e-06
0.000254646 -7.65331e-05 -7.63339e-05 -1.32673e-05
0.000338352 -0.000101625 -0.000101454 -1.09461e-05
0.000424478 -0.000127438 -0.000127303 -7.96125e-06
0.000340767 -0.000102351 -0.000102178 -1.09461e-05
0.000339559 -0.000101988 -0.000101816 -1.09461e-05
0.00025374 -7.62605e-05 -7.60628e-05 -1.32672e-05
0.00025193 -7.57153e-05 -7.55205e-05 -1.32672e-05
0.000419948 -0.000126077 -0.000125945 -7.96122e-06
0.000422968 -0.000126984 -0.00012685 -7.96124e-06
0.000252835 -7.59879e-05 -7.57917e-05 -1.32672e-05
0.000335937 -0.000100899 -0.000100731 -1.09461e-05
0.000421458 -0.000126531 -0.000126397 -7.96123e-06
0.000338352 -0.000101625 -0.000101454 -1.09461e-05
0.000337144 -0.000101262 -0.000101092 -1.09461e-05
0.00025193 -7.57153e-05 -7.55205e-05 -1.32672e-05
0.000250119 -7.51702e-05 -7.49782e-05 -1.32672e-05
0.000416929 -0.00012517 -0.000125039 -7.9612e-06
0.000419948 -0.000126077 -0.000125945 -7.96122e-06
0.000251025 -7.54428e-05 -7.52494e-05 -1.32672e-05
0.000333522 -0.000100172 -0.000100007 -1.0946e-05
0.000418438 -0.000125623 -0.000125492 -7.96121e-06
0.000335937 -0.000100899 -0.000100731 -1.09461e-05
0.000334729 -0.000100536 -0.000100369 -1.09461e-05
0.000250119 -7.51702e-05 -7.49782e-05 -1.32672e-05
0.000248309 -7.4625e-05 -7.44359e-05 -1.32672e-05
0.000413909 -0.000124263 -0.000124134 -7.96118e-06
0.000416929 -0.00012517 -0.000125039 -7.9612e-06
0.000249214 -7.48976e-05 -7.47071e-05 -1.32672e-05
0.000331107 -9.94462e-05 -9.9283e-05 -1.0946e-05
0.000415419 -0.000124716 -0.000124587 -7.96119e-06
0.000333522 -0.000100172 -0.000100007 -1.0946e-05
0.000332314 -9.98094e-05 -9.96449e-05 -1.0946e-05
0.000248309 -7.4625e-05 -7.44359e-05 -1.32672e-05
0.000246498 -7.40799e-05 -7.38936e-05 -1.32671e-05
0.000410889 -0.000123355 -0.000123229 -7.96116e-06
0.000413909 -0.000124263 -0.000124134 -7.96118e-06
0.000247404 -7.43525e-05 -7.41648e-05 -1.32672e-05
0.000328692 -9.872e-05 -9.85592e-05 -1.0946e-05
0.000412399 -0.000123809 -0.000123682 -7.96117e-06
0.000331107 -9.94462e-05 -9.9283e-05 -1.0946e-05
0.000329899 -9.90831e-05 -9.89211e-05 -1.0946e-05
0.000246498 -7.40799e-05 -7.38936e-05 -1.32671e-05
0.000244688 -7.35347e-05 -7.33513e-05 -1.32671e-05
0.00040787 -0.000122448 -0.000122324 -7.96113e-06
0.000410889 -0.000123355 -0.000123229 -7.96116e-06
0.000245593 -7.38073e-05 -7.36225e-05 -1.32671e-05
0.000326277 -9.79938e-05 -9.78354e-05 -1.0946e-05
0.00040938 -0.000122902 -0.000122776 -7.96115e-06
0.000328692 -9.872e-05 -9.85592e-05 -1.0946e-05
0.000327484 -9.83569e-05 -9.81973e-05 -1.0946e-05
0.000244688 -7.35347e-05 -7.33513e-05 -1.32671e-05
0.000242877 -7.29896e-05 -7.2809e-05 -1.32671e-05
0.00040485 -0.000121541 -0.000121418 -7.96111e-06
0.00040787 -0.000122448 -0.000122324 -7.96113e-06
0.000243783 -7.32622e-05 -7.30802e-05 -1.32671e-05
0.000323861 -9.72676e-05 -9.71116e-05 -1.09459e-05
0.00040636 -0.000121995 -0.000121871 -7.96112e-06
0.000326277 -9.79938e-05 -9.78354e-05 -1.0946e-05
0.000325069 -9.76307e-05 -9.74735e-05 -1.0946e-05
0.000242877 -7.29896e-05 -7.2809e-05 -1.32671e-05
0.000241067 -7.24445e-05 -7.22667e-05 -1.32671e-05
0.000401831 -0.000120634 -0.000120513 -7.96109e-06
0.00040485 -0.000121541 -0.000121418 -7.96111e-06
0.000241972 -7.27171e-05 -7.25378e-05 -1.32671e-05
0.000321446 -9.65414e-05 -9.63878e-05 -1.09459e-05
0.00040334 -0.000121087 -0.000120966 -7.9611e-06
0.000323861 -9.72676e-05 -9.71116e-05 -1.09459e-05
0.000322654 -9.69045e-05 -9.67497e-05 -1.09459e-05
0.000241067 -7.24445e-05 -7.22667e-05 -1.32671e-05
0.000239256 -7.18994e-05 -7.17243e-05 -1.3267e-05
0.000398811 -0.000119727 -0.000119608 -7.96107e-06
0.000401831 -0.000120634 -0.000120513 -7.96109e-06
0.000240161 -7.21719e-05 -7.19955e-05 -1.32671e-05
0.000319031 -9.58153e-05 -9.5664e-05 -1.09459e-05
0.000400321 -0.00012018 -0.00012006 -7.96108e-06
0.000321446 -9.65414e-05 -9.63878e-05 -1.09459e-05
0.000320239 -9.61784e-05 -9.60259e-05 -1.09459e-05
0.000239256 -7.18994e-05 -7.17243e-05 -1.3267e-05
0.000237446 -7.13543e-05 -7.1182e-05 -1.3267e-05
0.000395791 -0.00011882 -0.000118702 -7.96105e-06
0.000398811 -0.000119727 -0.000119608 -7.96107e-06
0.000238351 -7.16268e-05 -7.14532e-05 -1.3267e-05
0.000316616 -9.50891e-05 -9.49402e-05 -1.09459e-05
0.000397301 -0.000119273 -0.000119155 -7.96106e-06
0.000319031 -9.58153e-05 -9.5664e-05 -1.09459e-05
0.000317824 -9.54522e-05 -9.53021e-05 -1.09459e-05
0.000237446 -7.13543e-05 -7.1182e-05 -1.3267e-05
0.000235635 -7.08092e-05 -7.06396e-05 -1.3267e-05
0.000392772 -0.000117912 -0.000117797 -7.96103e-06
0.000395791 -0.00011882 -0.000118702 -7.96105e-06
0.00023654 -7.10817e-05 -7.09108e-05 -1.3267e-05
0.000314201 -9.43629e-05 -9.42164e-05 -1.09458e-05
0.000394281 -0.000118366 -0.000118249 -7.96104e-06
0.000316616 -9.50891e-05 -9.49402e-05 -1.09459e-05
0.000315409 -9.4726e-05 -9.45783e-05 -1.09459e-05
0.000235635 -7.08092e-05 -7.06396e-05 -1.3267e-05
0.000233824 -7.02641e-05 -7.00973e-05 -1.3267e-05
0.000389752 -0.000117005 -0.000116891 -7.961e-06
0.000392772 -0.000117912 -0.000117797 -7.96103e-06
0.00023473 -7.05366e-05 -7.03684e-05 -1.3267e-05
0.000311786 -9.36368e-05 -9.34925e-05 -1.09458e-05
0.000391262 -0.000117459 -0.000117344 -7.96101e-06
0.000314201 -9.43629e-05 -9.42164e-05 -1.09458e-05
0.000312994 -9.39998e-05 -9.38545e-05 -1.09458e-05
0.000233824 -7.02641e-05 -7.00973e-05 -1.3267e-05
0.000232014 -6.9719e-05 -6.95549e-05 -1.32669e-05
0.000386732 -0.000116098 -0.000115986 -7.96098e-06
0.000389752 -0.000117005 -0.000116891 -7.961e-06
0.000232919 -6.99916e-05 -6.98261e-05 -1.32669e-05
0.000309371 -9.29106e-05 -9.27687e-05 -1.09458e-05
0.000388242 -0.000116552 -0.000116439 -7.96099e-06
0.000311786 -9.36368e-05 -9.34925e-05 -1.09458e-05
0.000310578 -9.32737e-05 -9.31306e-05 -1.09458e-05
0.000232014 -6.9719e-05 -6.95549e-05 -1.32669e-05
0.000230203 -6.91739e-05 -6.90125e-05 -1.32669e-05
0.000383713 -0.000115191 -0.000115081 -7.96096e-06
0.000386732 -0.000116098 -0.000115986 -7.96098e-06
0.000231108 -6.94465e-05 -6.92837e-05 -1.32669e-05
0.000306956 -9.21845e-05 -9.20448e-05 -1.09458e-05
0.000385222 -0.000115644 -0.000115533 -7.96097e-06
0.000309371 -9.29106e-05 -9.27687e-05 -1.09458e-05
0.000308163 -9.25475e-05 -9.24068e-05 -1.09458e-05
0.000230203 -6.91739e-05 -6.90125e-05 -1.32669e-05
0.000228392 -6.86289e-05 -6.84701e-05 -1.32669e-05
0.000380693 -0.000114284 -0.000114175 -7.96094e-06
0.000383713 -0.000115191 -0.000115081 -7.96096e-06
0.000229298 -6.89014e-05 -6.87413e-05 -1.32669e-05
0.000304541 -9.14583e-05 -9.1321e-05 -1.09457e-05
0.000382203 -0.000114737 -0.000114628 -7.96095e-06
0.000306956 -9.21845e-05 -9.20448e-05 -1.09458e-05
0.000305748 -9.18214e-05 -9.16829e-05 -1.09457e-05
0.000228392 -6.86289e-05 -6.84701e-05 -1.32669e-05
0.000226582 -6.80838e-05 -6.79277e-05 -1.32669e-05
0.000377673 -0.000113377 -0.00011327 -7.96092e-06
0.000380693 -0.000114284 -0.000114175 -7.96094e-06
0.000227487 -6.83564e-05 -6.81989e-05 -1.32669e-05
0.000302125 -9.07322e-05 -9.05971e-05 -1.09457e-05
0.000379183 -0.00011383 -0.000113723 -7.96093e-06
0.000304541 -9.14583e-05 -9.1321e-05 -1.09457e-05
0.000303333 -9.10952e-05 -9.0959e-05 -1.09457e-05
0.000226582 -6.80838e-05 -6.79277e-05 -1.32669e-05
0.000224771 -6.75388e-05 -6.73853e-05 -1.32668e-05
0.000374653 -0.000112469 -0.000112365 -7.96089e-06
0.000377673 -0.000113377 -0.00011327 -7.96092e-06
0.000225676 -6.78113e-05 -6.76565e-05 -1.32668e-05
0.00029971 -9.00061e-05 -8.98732e-05 -1.09457e-05
0.000376163 -0.000112923 -0.000112817 -7.9609e-06
0.000302125 -9.07322e-05 -9.05971e-05 -1.09457e-05
0.000300918 -9.03691e-05 -9.02352e-05 -1.09457e-05
0.000224771 -6.75388e-05 -6.73853e-05 -1.32668e-05
0.00022296 -6.69937e-05 -6.68428e-05 -1.32668e-05
0.000371634 -0.000111562 -0.000111459 -7.96087e-06
0.000374653 -0.000112469 -0.000112365 -7.96089e-06
0.000223866 -6.72663e-05 -6.7114e-05 -1.32668e-05
0.000297295 -8.92799e-05 -8.91493e-05 -1.09457e-05
0.000373144 -0.000112016 -0.000111912 -7.96088e-06
0.00029971 -9.00061e-05 -8.98732e-05 -1.09457e-05
0.000298503 -8.9643e-05 -8.95113e-05 -1.09457e-05
0.00022296 -6.69937e-05 -6.68428e-05 -1.32668e-05
0.00022115 -6.64487e-05 -6.63004e-05 -1.32668e-05
0.000368614 -0.000110655 -0.000110554 -7.96085e-06
0.000371634 -0.000111562 -0.000111459 -7.96087e-06
0.000222055 -6.67212e-05 -6.65716e-05 -1.32668e-05
0.00029488 -8.85538e-05 -8.84255e-05 -1.09456e-05
0.000370124 -0.000111109 -0.000111006 -7.96086e-06
0.000297295 -8.92799e-05 -8.91493e-05 -1.09457e-05
0.000296087 -8.89169e-05 -8.87874e-05 -1.09456e-05
0.00022115 -6.64487e-05 -6.63004e-05 -1.32668e-05
0.000219339 -6.59037e-05 -6.57579e-05 -1.32668e-05
0.000365594 -0.000109748 -0.000109648 -7.96083e-06
0.000368614 -0.000110655 -0.000110554 -7.96085e-06
0.000220244 -6.61762e-05 -6.60292e-05 -1.32668e-05
0.000292465 -8.78277e-05 -8.77015e-05 -1.09456e-05
0.000367104 -0.000110202 -0.000110101 -7.96084e-06
0.00029488 -8.85538e-05 -8.84255e-05 -1.09456e-05
0.000293672 -8.81908e-05 -8.80635e-05 -1.09456e-05
0.000219339 -6.59037e-05 -6.57579e-05 -1.32668e-05
0.000217528 -6.53587e-05 -6.52155e-05 -1.32667e-05
0.000362574 -0.000108841 -0.000108743 -7.96081e-06
0.000365594 -0.000109748 -0.000109648 -7.96083e-06
0.000218434 -6.56312e-05 -6.54867e-05 -1.32667e-05
0.000290049 -8.71016e-05 -8.69776e-05 -1.09456e-05
0.000364084 -0.000109294 -0.000109196 -7.96082e-06
0.000292465 -8.78277e-05 -8.77015e-05 -1.09456e-05
0.000291257 -8.74647e-05 -8.73396e-05 -1.09456e-05
0.000217528 -6.53587e-05 -6.52155e-05 -1.32667e-05
0.000215717 -6.48137e-05 -6.4673e-05 -1.32667e-05
0.000359555 -0.000107934 -0.000107838 -7.96078e-06
0.000362574 -0.000108841 -0.000108743 -7.96081e-06
0.000216623 -6.50862e-05 -6.49442e-05 -1.32667e-05
0.000287634 -8.63755e-05 -8.62537e-05 -1.09456e-05
0.000361065 -0.000108387 -0.00010829 -7.96079e-06
0.000290049 -8.71016e-05 -8.69776e-05 -1.09456e-05
0.000288842 -8.67386e-05 -8.66157e-05 -1.09456e-05
0.000215717 -6.48137e-05 -6.4673e-05 -1.32667e-05
0.000213907 -6.42687e-05 -6.41305e-05 -1.32667e-05
0.000356535 -0.000107027 -0.000106932 -7.96076e-06
0.000359555 -0.000107934 -0.000107838 -7.96078e-06
0.000214812 -6.45412e-05 -6.44018e-05 -1.32667e-05
0.000285219 -8.56494e-05 -8.55298e-05 -1.09455e-05
0.000358045 -0.00010748 -0.000107385 -7.96077e-06
0.000287634 -8.63755e-05 -8.62537e-05 -1.09456e-05
0.000286427 -8.60125e-05 -8.58918e-05 -1.09455e-05
0.000213907 -6.42687e-05 -6.41305e-05 -1.32667e-05
0.000212096 -6.37237e-05 -6.3588e-05 -1.32667e-05
0.000353515 -0.000106119 -0.000106027 -7.96074e-06
0.000356535 -0.000107027 -0.000106932 -7.96076e-06
0.000213001 -6.39962e-05 -6.38593e-05 -1.32667e-05
0.000282804 -8.49234e-05 -8.48059e-05 -1.09455e-05
0.000355025 -0.000106573 -0.000106479 -7.96075e-06
0.000285219 -8.56494e-05 -8.55298e-05 -1.09455e-05
0.000284011 -8.52864e-05 -8.51678e-05 -1.09455e-05
0.000212096 -6.37237e-05 -6.3588e-05 -1.32667e-05
0.000210285 -6.31787e-05 -6.30455e-05 -1.32666e-05
0.000350495 -0.000105212 -0.000105121 -7.96072e-06
0.000353515 -0.000106119 -0.000106027 -7.96074e-06
0.00021119 -6.34512e-05 -6.33168e-05 -1.32666e-05
0.000280388 -8.41973e-05 -8.40819e-05 -1.09455e-05
0.000352005 -0.000105666 -0.000105574 -7.96073e-06
0.000282804 -8.49234e-05 -8.48059e-05 -1.09455e-05
0.000281596 -8.45603e-05 -8.44439e-05 -1.09455e-05
0.000210285 -6.31787e-05 -6.30455e-05 -1.32666e-05
0.000208474 -6.26338e-05 -6.2503e-05 -1.32666e-05
0.000347475 -0.000104305 -0.000104216 -7.9607e-06
0.000350495 -0.000105212 -0.000105121 -7.96072e-06
0.00020938 -6.29063e-05 -6.27743e-05 -1.32666e-05
0.000277973 -8.34712e-05 -8.3358e-05 -1.09454e-05
0.000348985 -0.000104759 -0.000104669 -7.96071e-06
0.000280388 -8.41973e-05 -8.40819e-05 -1.09455e-05
0.000279181 -8.38343e-05 -8.37199e-05 -1.09455e-05
0.000208474 -6.26338e-05 -6.2503e-05 -1.32666e-05
0.000206663 -6.20888e-05 -6.19605e-05 -1.32666e-05
0.000344456 -0.000103398 -0.00010331 -7.96067e-06
0.000347475 -0.000104305 -0.000104216 -7.9607e-06
0.000207569 -6.23613e-05 -6.22318e-05 -1.32666e-05
0.000275558 -8.27452e-05 -8.2634e-05 -1.09454e-05
0.000345966 -0.000103852 -0.000103763 -7.96068e-06
0.000277973 -8.34712e-05 -8.3358e-05 -1.09454e-05
0.000276765 -8.31082e-05 -8.2996e-05 -1.09454e-05
0.000206663 -6.20888e-05 -6.19605e-05 -1.32666e-05
0.000204852 -6.15439e-05 -6.1418e-05 -1.32665e-05
0.000341436 -0.000102491 -0.000102405 -7.96065e-06
0.000344456 -0.000103398 -0.00010331 -7.96067e-06
0.000205758 -6.18163e-05 -6.16893e-05 -1.32666e-05
0.000273143 -8.20191e-05 -8.191e-05 -1.09454e-05
0.000342946 -0.000102945 -0.000102858 -7.96066e-06
0.000275558 -8.27452e-05 -8.2634e-05 -1.09454e-05
0.00027435 -8.23821e-05 -8.2272e-05 -1.09454e-05
0.000204852 -6.15439e-05 -6.1418e-05 -1.32665e-05
0.000203042 -6.09989e-05 -6.08754e-05 -1.32665e-05
0.000338416 -0.000101584 -0.000101499 -7.96063e-06
0.000341436 -0.000102491 -0.000102405 -7.96065e-06
0.000203947 -6.12714e-05 -6.11467e-05 -1.32665e-05
0.000270727 -8.12931e-05 -8.11861e-05 -1.09454e-05
0.000339926 -0.000102038 -0.000101952 -7.96064e-06
0.000273143 -8.20191e-05 -8.191e-05 -1.09454e-05
0.000271935 -8.16561e-05 -8.1548e-05 -1.09454e-05
0.000203042 -6.09989e-05 -6.08754e-05 -1.32665e-05
0.000201231 -6.0454e-05 -6.03329e-05 -1.32665e-05
0.000335396 -0.000100677 -0.000100594 -7.96061e-06
0.000338416 -0.000101584 -0.000101499 -7.96063e-06
0.000202136 -6.07265e-05 -6.06042e-05 -1.32665e-05
0.000268312 -8.0567e-05 -8.04621e-05 -1.09453e-05
0.000336906 -0.00010113 -0.000101047 -7.96062e-06
0.000270727 -8.12931e-05 -8.11861e-05 -1.09454e-05
0.00026952 -8.09301e-05 -8.08241e-05 -1.09454e-05
0.000201231 -6.0454e-05 -6.03329e-05 -1.32665e-05
0.00019942 -5.99091e-05 -5.97903e-05 -1.32665e-05
0.000332376 -9.97699e-05 -9.96885e-05 -7.96058e-06
0.000335396 -0.000100677 -0.000100594 -7.96061e-06
0.000200325 -6.01815e-05 -6.00616e-05 -1.32665e-05
0.000265897 -7.9841e-05 -7.97381e-05 -1.09453e-05
0.000333886 -0.000100223 -0.000100141 -7.9606e-06
0.000268312 -8.0567e-05 -8.04621e-05 -1.09453e-05
0.000267104 -8.0204e-05 -8.01001e-05 -1.09453e-05
0.00019942 -5.99091e-05 -5.97903e-05 -1.32665e-05
0.000197609 -5.93642e-05 -5.92478e-05 -1.32664e-05
0.000329356 -9.88628e-05 -9.8783e-05 -7.96056e-06
0.000332376 -9.97699e-05 -9.96885e-05 -7.96058e-06
0.000198514 -5.96366e-05 -5.9519e-05 -1.32665e-05
0.000263481 -7.9115e-05 -7.90141e-05 -1.09453e-05
0.000330866 -9.93163e-05 -9.92357e-05 -7.96057e-06
0.000265897 -7.9841e-05 -7.97381e-05 -1.09453e-05
0.000264689 -7.9478e-05 -7.93761e-05 -1.09453e-05
0.000197609 -5.93642e-05 -5.92478e-05 -1.32664e-05
0.000195798 -5.88193e-05 -5.87052e-05 -1.32664e-05
0.000326337 -9.79557e-05 -9.78775e-05 -7.96054e-06
0.000329356 -9.88628e-05 -9.8783e-05 -7.96056e-06
0.000196703 -5.90917e-05 -5.89765e-05 -1.32664e-05
0.000261066 -7.8389e-05 -7.82901e-05 -1.09453e-05
0.000327846 -9.84092e-05 -9.83302e-05 -7.96055e-06
0.000263481 -7.9115e-05 -7.90141e-05 -1.09453e-05
0.000262273 -7.8752e-05 -7.86521e-05 -1.09453e-05
0.000195798 -5.88193e-05 -5.87052e-05 -1.32664e-05
0.000193987 -5.82744e-05 -5.81626e-05 -1.32664e-05
0.000323317 -9.70487e-05 -9.6972e-05 -7.96052e-06
0.000326337 -9.79557e-05 -9.78775e-05 -7.96054e-06
0.000194893 -5.85468e-05 -5.84339e-05 -1.32664e-05
0.00025865 -7.7663e-05 -7.7566e-05 -1.09452e-05
0.000324827 -9.75022e-05 -9.74247e-05 -7.96053e-06
0.000261066 -7.8389e-05 -7.82901e-05 -1.09453e-05
0.000259858 -7.8026e-05 -7.7928e-05 -1.09453e-05
0.000193987 -5.82744e-05 -5.81626e-05 -1.32664e-05
0.000192176 -5.77295e-05 -5.762e-05 -1.32664e-05
0.000320297 -9.61416e-05 -9.60665e-05 -7.9605e-06
0.000323317 -9.70487e-05 -9.6972e-05 -7.96052e-06
0.000193082 -5.80019e-05 -5.78913e-05 -1.32664e-05
0.000256235 -7.6937e-05 -7.6842e-05 -1.09452e-05
0.000321807 -9.65951e-05 -9.65192e-05 -7.96051e-06
0.00025865 -7.7663e-05 -7.7566e-05 -1.09452e-05
0.000257443 -7.73e-05 -7.7204e-05 -1.09452e-05
0.000192176 -5.77295e-05 -5.762e-05 -1.32664e-05
0.000190365 -5.71846e-05 -5.70774e-05 -1.32663e-05
0.000317277 -9.52345e-05 -9.5161e-05 -7.96047e-06
0.000320297 -9.61416e-05 -9.60665e-05 -7.9605e-06
0.000191271 -5.7457e-05 -5.73487e-05 -1.32663e-05
0.00025382 -7.6211e-05 -7.6118e-05 -1.09452e-05
0.000318787 -9.56881e-05 -9.56137e-05 -7.96049e-06
0.000256235 -7.6937e-05 -7.6842e-05 -1.09452e-05
0.000255027 -7.6574e-05 -7.648e-05 -1.09452e-05
0.000190365 -5.71846e-05 -5.70774e-05 -1.32663e-05
0.000188554 -5.66397e-05 -5.65348e-05 -1.32663e-05
0.000314257 -9.43275e-05 -9.42555e-05 -7.96045e-06
0.000317277 -9.52345e-05 -9.5161e-05 -7.96047e-06
0.00018946 -5.69122e-05 -5.68061e-05 -1.32663e-05
0.000251404 -7.5485e-05 -7.53939e-05 -1.09452e-05
0.000315767 -9.4781e-05 -9.47082e-05 -7.96046e-06
0.00025382 -7.6211e-05 -7.6118e-05 -1.09452e-05
0.000252612 -7.5848e-05 -7.57559e-05 -1.09452e-05
0.000188554 -5.66397e-05 -5.65348e-05 -1.32663e-05
0.000186743 -5.60949e-05 -5.59921e-05 -1.32663e-05
0.000311237 -9.34205e-05 -9.33499e-05 -7.96043e-06
0.000314257 -9.43275e-05 -9.42555e-05 -7.96045e-06
0.000187649 -5.63673e-05 -5.62634e-05 -1.32663e-05
0.000248989 -7.4759e-05 -7.46699e-05 -1.09451e-05
0.000312747 -9.3874e-05 -9.38027e-05 -7.96044e-06
0.000251404 -7.5485e-05 -7.53939e-05 -1.09452e-05
0.000250196 -7.5122e-05 -7.50319e-05 -1.09452e-05
0.000186743 -5.60949e-05 -5.59921e-05 -1.32663e-05
0.000184932 -5.555e-05 -5.54495e-05 -1.32663e-05
0.000308217 -9.25134e-05 -9.24444e-05 -7.96041e-06
0.000311237 -9.34205e-05 -9.33499e-05 -7.96043e-06
0.000185838 -5.58224e-05 -5.57208e-05 -1.32663e-05
0.000246573 -7.4033e-05 -7.39458e-05 -1.09451e-05
0.000309727 -9.29669e-05 -9.28972e-05 -7.96042e-06
0.000248989 -7.4759e-05 -7.46699e-05 -1.09451e-05
0.000247781 -7.4396e-05 -7.43078e-05 -1.09451e-05
0.000184932 -5.555e-05 -5.54495e-05 -1.32663e-05
0.000183121 -5.50052e-05 -5.49068e-05 -1.32662e-05
0.000305197 -9.16064e-05 -9.15389e-05 -7.96039e-06
0.000308217 -9.25134e-05 -9.24444e-05 -7.96041e-06
0.000184027 -5.52776e-05 -5.51782e-05 -1.32662e-05
0.000244158 -7.33071e-05 -7.32217e-05 -1.09451e-05
0.000306707 -9.20599e-05 -9.19916e-05 -7.9604e-06
0.000246573 -7.4033e-05 -7.39458e-05 -1.09451e-05
0.000245366 -7.36701e-05 -7.35838e-05 -1.09451e-05
0.000183121 -5.50052e-05 -5.49068e-05 -1.32662e-05
0.00018131 -5.44603e-05 -5.43642e-05 -1.32662e-05
0.000302177 -9.06994e-05 -9.06333e-05 -7.96036e-06
0.000305197 -9.16064e-05 -9.15389e-05 -7.96039e-06
0.000182216 -5.47328e-05 -5.46355e-05 -1.32662e-05
0.000241742 -7.25811e-05 -7.24977e-05 -1.09451e-05
0.000303687 -9.11529e-05 -9.10861e-05 -7.96038e-06
0.000244158 -7.33071e-05 -7.32217e-05 -1.09451e-05
0.00024295 -7.29441e-05 -7.28597e-05 -1.09451e-05
0.00018131 -5.44603e-05 -5.43642e-05 -1.32662e-05
0.000179499 -5.39155e-05 -5.38215e-05 -1.32662e-05
0.000299157 -8.97923e-05 -8.97278e-05 -7.96034e-06
0.000302177 -9.06994e-05 -9.06333e-05 -7.96036e-06
0.000180405 -5.41879e-05 -5.40928e-05 -1.32662e-05
0.000239327 -7.18552e-05 -7.17736e-05 -1.0945e-05
0.000300667 -9.02459e-05 -9.01806e-05 -7.96035e-06
0.000241742 -7.25811e-05 -7.24977e-05 -1.09451e-05
0.000240535 -7.22182e-05 -7.21356e-05 -1.0945e-05
0.000179499 -5.39155e-05 -5.38215e-05 -1.32662e-05
0.000177688 -5.33707e-05 -5.32788e-05 -1.32662e-05
0.000296137 -8.88853e-05 -8.88222e-05 -7.96032e-06
0.000299157 -8.97923e-05 -8.97278e-05 -7.96034e-06
0.000178593 -5.36431e-05 -5.35502e-05 -1.32662e-05
0.000236911 -7.11292e-05 -7.10495e-05 -1.0945e-05
0.000297647 -8.93388e-05 -8.9275e-05 -7.96033e-06
0.000239327 -7.18552e-05 -7.17736e-05 -1.0945e-05
0.000238119 -7.14922e-05 -7.14115e-05 -1.0945e-05
0.000177688 -5.33707e-05 -5.32788e-05 -1.32662e-05
0.000175877 -5.28259e-05 -5.27361e-05 -1.32661e-05
0.000293117 -8.79783e-05 -8.79167e-05 -7.9603e-06
0.000296137 -8.88853e-05 -8.88222e-05 -7.96032e-06
0.000176782 -5.30983e-05 -5.30075e-05 -1.32661e-05
0.000234496 -7.04033e-05 -7.03254e-05 -1.0945e-05
0.000294627 -8.84318e-05 -8.83694e-05 -7.96031e-06
0.000236911 -7.11292e-05 -7.10495e-05 -1.0945e-05
0.000235704 -7.07663e-05 -7.06874e-05 -1.0945e-05
0.000175877 -5.28259e-05 -5.27361e-05 -1.32661e-05
0.000174066 -5.22811e-05 -5.21934e-05 -1.32661e-05
0.000290097 -8.70713e-05 -8.70111e-05 -7.96028e-06
0.000293117 -8.79783e-05 -8.79167e-05 -7.9603e-06
0.000174971 -5.25535e-05 -5.24648e-05 -1.32661e-05
0.00023208 -6.96774e-05 -6.96012e-05 -1.0945e-05
0.000291607 -8.75248e-05 -8.74639e-05 -7.96029e-06
0.000234496 -7.04033e-05 -7.03254e-05 -1.0945e-05
0.000233288 -7.00403e-05 -6.99633e-05 -1.0945e-05
0.000174066 -5.22811e-05 -5.21934e-05 -1.32661e-05
0.000172255 -5.17363e-05 -5.16507e-05 -1.32661e-05
0.000287077 -8.61643e-05 -8.61055e-05 -7.96025e-06
0.000290097 -8.70713e-05 -8.70111e-05 -7.96028e-06
0.00017316 -5.20087e-05 -5.19221e-05 -1.32661e-05
0.000229665 -6.89515e-05 -6.88771e-05 -1.09449e-05
0.000288587 -8.66178e-05 -8.65583e-05 -7.96027e-06
0.00023208 -6.96774e-05 -6.96012e-05 -1.0945e-05
0.000230873 -6.93144e-05 -6.92392e-05 -1.09449e-05
0.000172255 -5.17363e-05 -5.16507e-05 -1.32661e-05
0.000170443 -5.11915e-05 -5.1108e-05 -1.32661e-05
0.000284057 -8.52573e-05 -8.51999e-05 -7.96023e-06
0.000287077 -8.61643e-05 -8.61055e-05 -7.96025e-06
0.000171349 -5.14639e-05 -5.13793e-05 -1.32661e-05
0.000227249 -6.82256e-05 -6.8153e-05 -1.09449e-05
0.000285567 -8.57108e-05 -8.56527e-05 -7.96024e-06
0.000229665 -6.89515e-05 -6.88771e-05 -1.09449e-05
0.000228457 -6.85885e-05 -6.85151e-05 -1.09449e-05
0.000170443 -5.11915e-05 -5.1108e-05 -1.32661e-05
0.000168632 -5.06468e-05 -5.05652e-05 -1.3266e-05
0.000281037 -8.43503e-05 -8.42944e-05 -7.96021e-06
0.000284057 -8.52573e-05 -8.51999e-05 -7.96023e-06
0.000169538 -5.09192e-05 -5.08366e-05 -1.3266e-05
0.000224834 -6.74997e-05 -6.74288e-05 -1.09449e-05
0.000282547 -8.48038e-05 -8.47471e-05 -7.96022e-06
0.000227249 -6.82256e-05 -6.8153e-05 -1.09449e-05
0.000226041 -6.78626e-05 -6.77909e-05 -1.09449e-05
0.000168632 -5.06468e-05 -5.05652e-05 -1.3266e-05
0.000166821 -5.0102e-05 -5.00225e-05 -1.3266e-05
0.000278017 -8.34433e-05 -8.33888e-05 -7.96019e-06
0.000281037 -8.43503e-05 -8.42944e-05 -7.96021e-06
0.000167727 -5.03744e-05 -5.02939e-05 -1.3266e-05
0.000222418 -6.67738e-05 -6.67047e-05 -1.09449e-05
0.000279527 -8.38968e-05 -8.38416e-05 -7.9602e-06
0.000224834 -6.74997e-05 -6.74288e-05 -1.09449e-05
0.000223626 -6.71367e-05 -6.70668e-05 -1.09449e-05
0.000166821 -5.0102e-05 -5.00225e-05 -1.3266e-05
0.00016501 -4.95573e-05 -4.94797e-05 -1.3266e-05
0.000274997 -8.25364e-05 -8.24832e-05 -7.96017e-06
0.000278017 -8.34433e-05 -8.33888e-05 -7.96019e-06
0.000165916 -4.98296e-05 -4.97511e-05 -1.3266e-05
0.000220002 -6.60479e-05 -6.59805e-05 -1.09448e-05
0.000276507 -8.29899e-05 -8.2936e-05 -7.96018e-06
0.000222418 -6.67738e-05 -6.67047e-05 -1.09449e-05
0.00022121 -6.64108e-05 -6.63426e-05 -1.09448e-05
0.00016501 -4.95573e-05 -4.94797e-05 -1.3266e-05
0.000163199 -4.90125e-05 -4.8937e-05 -1.32659e-05
0.000271977 -8.16294e-05 -8.15775e-05 -7.96015e-06
0.000274997 -8.25364e-05 -8.24832e-05 -7.96017e-06
0.000164104 -4.92849e-05 -4.92084e-05 -1.3266e-05
0.000217587 -6.5322e-05 -6.52564e-05 -1.09448e-05
0.000273487 -8.20829e-05 -8.20304e-05 -7.96016e-06
0.000220002 -6.60479e-05 -6.59805e-05 -1.09448e-05
0.000218795 -6.56849e-05 -6.56185e-05 -1.09448e-05
0.000163199 -4.90125e-05 -4.8937e-05 -1.32659e-05
0.000161388 -4.84678e-05 -4.83942e-05 -1.32659e-05
0.000268957 -8.07224e-05 -8.06719e-05 -7.96012e-06
0.000271977 -8.16294e-05 -8.15775e-05 -7.96015e-06
0.000162293 -4.87402e-05 -4.86656e-05 -1.32659e-05
0.000215171 -6.45961e-05 -6.45322e-05 -1.09448e-05
0.000270467 -8.11759e-05 -8.11247e-05 -7.96014e-06
0.000217587 -6.5322e-05 -6.52564e-05 -1.09448e-05
0.000216379 -6.49591e-05 -6.48943e-05 -1.09448e-05
0.000161388 -4.84678e-05 -4.83942e-05 -1.32659e-05
0.000159576 -4.79231e-05 -4.78514e-05 -1.32659e-05
0.000265937 -7.98155e-05 -7.97663e-05 -7.9601e-06
0.000268957 -8.07224e-05 -8.06719e-05 -7.96012e-06
0.000160482 -4.81954e-05 -4.81228e-05 -1.32659e-05
0.000212756 -6.38703e-05 -6.3808e-05 -1.09448e-05
0.000267447 -8.0269e-05 -8.02191e-05 -7.96011e-06
0.000215171 -6.45961e-05 -6.45322e-05 -1.09448e-05
0.000213963 -6.42332e-05 -6.41701e-05 -1.09448e-05
0.000159576 -4.79231e-05 -4.78514e-05 -1.32659e-05
0.000157765 -4.73784e-05 -4.73086e-05 -1.32659e-05
0.000262917 -7.89085e-05 -7.88607e-05 -7.96008e-06
0.000265937 -7.98155e-05 -7.97663e-05 -7.9601e-06
0.000158671 -4.76507e-05 -4.758e-05 -1.32659e-05
0.00021034 -6.31444e-05 -6.30838e-05 -1.09447e-05
0.000264427 -7.9362e-05 -7.93135e-05 -7.96009e-06
0.000212756 -6.38703e-05 -6.3808e-05 -1.09448e-05
0.000211548 -6.35073e-05 -6.34459e-05 -1.09447e-05
0.000157765 -4.73784e-05 -4.73086e-05 -1.32659e-05
0.000155954 -4.68336e-05 -4.67658e-05 -1.32658e-05
0.000259897 -7.80016e-05 -7.7955e-05 -7.96006e-06
0.000262917 -7.89085e-05 -7.88607e-05 -7.96008e-06
0.000156859 -4.7106e-05 -4.70372e-05 -1.32659e-05
0.000207924 -6.24185e-05 -6.23596e-05 -1.09447e-05
0.000261407 -7.8455e-05 -7.84079e-05 -7.96007e-06
0.00021034 -6.31444e-05 -6.30838e-05 -1.09447e-05
0.000209132 -6.27815e-05 -6.27217e-05 -1.09447e-05
0.000155954 -4.68336e-05 -4.67658e-05 -1.32658e-05
0.000154143 -4.6289e-05 -4.6223e-05 -1.32658e-05
0.000256877 -7.70946e-05 -7.70494e-05 -7.96004e-06
0.000259897 -7.80016e-05 -7.7955e-05 -7.96006e-06
0.000155048 -4.65613e-05 -4.64944e-05 -1.32658e-05
0.000205509 -6.16927e-05 -6.16354e-05 -1.09447e-05
0.000258387 -7.75481e-05 -7.75022e-05 -7.96005e-06
0.000207924 -6.24185e-05 -6.23596e-05 -1.09447e-05
0.000206716 -6.20556e-05 -6.19975e-05 -1.09447e-05
0.000154143 -4.6289e-05 -4.6223e-05 -1.32658e-05
0.000152331 -4.57443e-05 -4.56801e-05 -1.32658e-05
0.000253856 -7.61877e-05 -7.61438e-05 -7.96002e-06
0.000256877 -7.70946e-05 -7.70494e-05 -7.96004e-06
0.000153237 -4.60166e-05 -4.59516e-05 -1.32658e-05
0.000203093 -6.09669e-05 -6.09112e-05 -1.09447e-05
0.000255367 -7.66411e-05 -7.65966e-05 -7.96003e-06
0.000205509 -6.16927e-05 -6.16354e-05 -1.09447e-05
0.000204301 -6.13298e-05 -6.12733e-05 -1.09447e-05
0.000152331 -4.57443e-05 -4.56801e-05 -1.32658e-05
0.00015052 -4.51996e-05 -4.51373e-05 -1.32658e-05
0.000250836 -7.52807e-05 -7.52381e-05 -7.95999e-06
0.000253856 -7.61877e-05 -7.61438e-05 -7.96002e-06
0.000151426 -4.54719e-05 -4.54087e-05 -1.32658e-05
0.000200677 -6.0241e-05 -6.01869e-05 -1.09446e-05
0.000252346 -7.57342e-05 -7.56909e-05 -7.96001e-06
0.000203093 -6.09669e-05 -6.09112e-05 -1.09447e-05
0.000201885 -6.0604e-05 -6.05491e-05 -1.09446e-05
0.00015052 -4.51996e-05 -4.51373e-05 -1.32658e-05
0.000148709 -4.46549e-05 -4.45945e-05 -1.32657e-05
0.000247816 -7.43738e-05 -7.43324e-05 -7.95997e-06
0.000250836 -7.52807e-05 -7.52381e-05 -7.95999e-06
0.000149614 -4.49273e-05 -4.48659e-05 -1.32658e-05
0.000198262 -5.95152e-05 -5.94627e-05 -1.09446e-05
0.000249326 -7.48273e-05 -7.47853e-05 -7.95998e-06
0.000200677 -6.0241e-05 -6.01869e-05 -1.09446e-05
0.000199469 -5.98781e-05 -5.98248e-05 -1.09446e-05
0.000148709 -4.46549e-05 -4.45945e-05 -1.32657e-05
0.000146897 -4.41103e-05 -4.40516e-05 -1.32657e-05
0.000244796 -7.34669e-05 -7.34268e-05 -7.95995e-06
0.000247816 -7.43738e-05 -7.43324e-05 -7.95997e-06
0.000147803 -4.43826e-05 -4.4323e-05 -1.32657e-05
0.000195846 -5.87894e-05 -5.87385e-05 -1.09446e-05
0.000246306 -7.39203e-05 -7.38796e-05 -7.95996e-06
0.000198262 -5.95152e-05 -5.94627e-05 -1.09446e-05
0.000197054 -5.91523e-05 -5.91006e-05 -1.09446e-05
0.000146897 -4.41103e-05 -4.40516e-05 -1.32657e-05
0.000145086 -4.35656e-05 -4.35087e-05 -1.32657e-05
0.000241776 -7.256e-05 -7.25211e-05 -7.95993e-06
0.000244796 -7.34669e-05 -7.34268e-05 -7.95995e-06
0.000145992 -4.38379e-05 -4.37802e-05 -1.32657e-05
0.00019343 -5.80636e-05 -5.80142e-05 -1.09446e-05
0.000243286 -7.30134e-05 -7.29739e-05 -7.95994e-06
0.000195846 -5.87894e-05 -5.87385e-05 -1.09446e-05
0.000194638 -5.84265e-05 -5.83763e-05 -1.09446e-05
0.000145086 -4.35656e-05 -4.35087e-05 -1.32657e-05
0.000143275 -4.3021e-05 -4.29658e-05 -1.32657e-05
0.000238756 -7.16531e-05 -7.16154e-05 -7.95991e-06
0.000241776 -7.256e-05 -7.25211e-05 -7.95993e-06
0.00014418 -4.32933e-05 -4.32373e-05 -1.32657e-05
0.000191014 -5.73378e-05 -5.72899e-05 -1.09445e-05
0.000240266 -7.21065e-05 -7.20683e-05 -7.95992e-06
0.00019343 -5.80636e-05 -5.80142e-05 -1.09446e-05
0.000192222 -5.77007e-05 -5.76521e-05 -1.09445e-05
0.000143275 -4.3021e-05 -4.29658e-05 -1.32657e-05
0.000141463 -4.24763e-05 -4.24229e-05 -1.32656e-05
0.000235736 -7.07461e-05 -7.07097e-05 -7.95989e-06
0.000238756 -7.16531e-05 -7.16154e-05 -7.95991e-06
0.000142369 -4.27487e-05 -4.26944e-05 -1.32657e-05
0.000188599 -5.6612e-05 -5.65657e-05 -1.09445e-05
0.000237246 -7.11996e-05 -7.11626e-05 -7.9599e-06
0.000191014 -5.73378e-05 -5.72899e-05 -1.09445e-05
0.000189806 -5.69749e-05 -5.69278e-05 -1.09445e-05
0.000141463 -4.24763e-05 -4.24229e-05 -1.32656e-05
0.000139652 -4.19317e-05 -4.188e-05 -1.32656e-05
0.000232715 -6.98392e-05 -6.9804e-05 -7.95987e-06
0.000235736 -7.07461e-05 -7.07097e-05 -7.95989e-06
0.000140558 -4.2204e-05 -4.21515e-05 -1.32656e-05
0.000186183 -5.58862e-05 -5.58414e-05 -1.09445e-05
0.000234225 -7.02927e-05 -7.02569e-05 -7.95988e-06
0.000188599 -5.6612e-05 -5.65657e-05 -1.09445e-05
0.000187391 -5.62491e-05 -5.62035e-05 -1.09445e-05
0.000139652 -4.19317e-05 -4.188e-05 -1.32656e-05
0.00013784 -4.13871e-05 -4.13371e-05 -1.32656e-05
0.000229695 -6.89323e-05 -6.88983e-05 -7.95985e-06
0.000232715 -6.98392e-05 -6.9804e-05 -7.95987e-06
0.000138746 -4.16594e-05 -4.16086e-05 -1.32656e-05
0.000183767 -5.51605e-05 -5.51171e-05 -1.09445e-05
0.000231205 -6.93858e-05 -6.93512e-05 -7.95986e-06
0.000186183 -5.58862e-05 -5.58414e-05 -1.09445e-05
0.000184975 -5.55234e-05 -5.54792e-05 -1.09445e-05
0.00013784 -4.13871e-05 -4.13371e-05 -1.32656e-05
0.000136029 -4.08425e-05 -4.07942e-05 -1.32656e-05
0.000226675 -6.80255e-05 -6.79926e-05 -7.95982e-06
0.000229695 -6.89323e-05 -6.88983e-05 -7.95985e-06
0.000136935 -4.11148e-05 -4.10657e-05 -1.32656e-05
0.000181351 -5.44347e-05 -5.43928e-05 -1.09444e-05
0.000228185 -6.84789e-05 -6.84455e-05 -7.95983e-06
0.000183767 -5.51605e-05 -5.51171e-05 -1.09445e-05
0.000182559 -5.47976e-05 -5.47549e-05 -1.09444e-05
0.000136029 -4.08425e-05 -4.07942e-05 -1.32656e-05
0.000134218 -4.02979e-05 -4.02513e-05 -1.32655e-05
0.000223655 -6.71186e-05 -6.70869e-05 -7.9598e-06
0.000226675 -6.80255e-05 -6.79926e-05 -7.95982e-06
0.000135123 -4.05702e-05 -4.05227e-05 -1.32656e-05
0.000178935 -5.37089e-05 -5.36685e-05 -1.09444e-05
0.000225165 -6.7572e-05 -6.75398e-05 -7.95981e-06
0.000181351 -5.44347e-05 -5.43928e-05 -1.09444e-05
0.000180143 -5.40718e-05 -5.40306e-05 -1.09444e-05
0.000134218 -4.02979e-05 -4.02513e-05 -1.32655e-05
0.000132406 -3.97533e-05 -3.97083e-05 -1.32655e-05
0.000220634 -6.62117e-05 -6.61812e-05 -7.95978e-06
0.000223655 -6.71186e-05 -6.70869e-05 -7.9598e-06
0.000133312 -4.00256e-05 -3.99798e-05 -1.32655e-05
0.00017652 -5.29832e-05 -5.29442e-05 -1.09444e-05
0.000222145 -6.66651e-05 -6.6634e-05 -7.95979e-06
0.000178935 -5.37089e-05 -5.36685e-05 -1.09444e-05
0.000177727 -5.33461e-05 -5.33063e-05 -1.09444e-05
0.000132406 -3.97533e-05 -3.97083e-05 -1.32655e-05
0.000130595 -3.92088e-05 -3.91654e-05 -1.32655e-05
0.000217614 -6.53048e-05 -6.52754e-05 -7.95976e-06
0.000220634 -6.62117e-05 -6.61812e-05 -7.95978e-06
0.0001315 -3.9481e-05 -3.94368e-05 -1.32655e-05
0.000174104 -5.22575e-05 -5.22198e-05 -1.09444e-05
0.000219124 -6.57583e-05 -6.57283e-05 -7.95977e-06
0.00017652 -5.29832e-05 -5.29442e-05 -1.09444e-05
0.000175312 -5.26203e-05 -5.2582e-05 -1.09444e-05
0.000130595 -3.92088e-05 -3.91654e-05 -1.32655e-05
0.000128783 -3.86642e-05 -3.86224e-05 -1.32655e-05
0.000214594 -6.43979e-05 -6.43697e-05 -7.95974e-06
0.000217614 -6.53048e-05 -6.52754e-05 -7.95976e-06
0.000129689 -3.89365e-05 -3.88939e-05 -1.32655e-05
0.000171688 -5.15317e-05 -5.14955e-05 -1.09443e-05
0.000216104 -6.48514e-05 -6.48226e-05 -7.95975e-06
0.000174104 -5.22575e-05 -5.22198e-05 -1.09444e-05
0.000172896 -5.18946e-05 -5.18577e-05 -1.09443e-05
0.000128783 -3.86642e-05 -3.86224e-05 -1.32655e-05
0.000126972 -3.81196e-05 -3.80794e-05 -1.32655e-05
0.000211574 -6.34911e-05 -6.3464e-05 -7.95972e-06
0.000214594 -6.43979e-05 -6.43697e-05 -7.95974e-06
0.000127877 -3.83919e-05 -3.83509e-05 -1.32655e-05
0.000169272 -5.0806e-05 -5.07711e-05 -1.09443e-05
0.000213084 -6.39445e-05 -6.39168e-05 -7.95973e-06
0.000171688 -5.15317e-05 -5.14955e-05 -1.09443e-05
0.00017048 -5.11689e-05 -5.11333e-05 -1.09443e-05
0.000126972 -3.81196e-05 -3.80794e-05 -1.32655e-05
0.00012516 -3.75751e-05 -3.75364e-05 -1.32654e-05
0.000208553 -6.25842e-05 -6.25582e-05 -7.9597e-06
0.000211574 -6.34911e-05 -6.3464e-05 -7.95972e-06
0.000126066 -3.78474e-05 -3.78079e-05 -1.32654e-05
0.000166856 -5.00803e-05 -5.00468e-05 -1.09443e-05
0.000210064 -6.30377e-05 -6.30111e-05 -7.95971e-06
0.000169272 -5.0806e-05 -5.07711e-05 -1.09443e-05
0.000168064 -5.04431e-05 -5.0409e-05 -1.09443e-05
0.00012516 -3.75751e-05 -3.75364e-05 -1.32654e-05
0.000123349 -3.70306e-05 -3.69934e-05 -1.32654e-05
0.000205533 -6.16774e-05 -6.16524e-05 -7.95968e-06
0.000208553 -6.25842e-05 -6.25582e-05 -7.9597e-06
0.000124254 -3.73028e-05 -3.72649e-05 -1.32654e-05
0.00016444 -4.93546e-05 -4.93224e-05 -1.09443e-05
0.000207043 -6.21308e-05 -6.21053e-05 -7.95969e-06
0.000166856 -5.00803e-05 -5.00468e-05 -1.09443e-05
0.000165648 -4.97174e-05 -4.96846e-05 -1.09443e-05
0.000123349 -3.70306e-05 -3.69934e-05 -1.32654e-05
0.000121537 -3.6486e-05 -3.64504e-05 -1.32654e-05
0.000202513 -6.07705e-05 -6.07467e-05 -7.95966e-06
0.000205533 -6.16774e-05 -6.16524e-05 -7.95968e-06
0.000122443 -3.67583e-05 -3.67219e-05 -1.32654e-05
0.000162024 -4.86289e-05 -4.8598e-05 -1.09442e-05
0.000204023 -6.12239e-05 -6.11996e-05 -7.95967e-06
0.00016444 -4.93546e-05 -4.93224e-05 -1.09443e-05
0.000163232 -4.89917e-05 -4.89602e-05 -1.09442e-05
0.000121537 -3.6486e-05 -3.64504e-05 -1.32654e-05
0.000119725 -3.59415e-05 -3.59074e-05 -1.32654e-05
0.000199492 -5.98637e-05 -5.98409e-05 -7.95964e-06
0.000202513 -6.07705e-05 -6.07467e-05 -7.95966e-06
0.000120631 -3.62138e-05 -3.61789e-05 -1.32654e-05
0.000159608 -4.79032e-05 -4.78737e-05 -1.09442e-05
0.000201003 -6.03171e-05 -6.02938e-05 -7.95965e-06
0.000162024 -4.86289e-05 -4.8598e-05 -1.09442e-05
0.000160816 -4.8266e-05 -4.82359e-05 -1.09442e-05
0.000119725 -3.59415e-05 -3.59074e-05 -1.32654e-05
0.000117914 -3.5397e-05 -3.53644e-05 -1.32653e-05
0.000196472 -5.89568e-05 -5.89351e-05 -7.95962e-06
0.000199492 -5.98637e-05 -5.98409e-05 -7.95964e-06
0.00011882 -3.56693e-05 -3.56359e-05 -1.32653e-05
0.000157192 -4.71775e-05 -4.71493e-05 -1.09442e-05
0.000197982 -5.94103e-05 -5.9388e-05 -7.95963e-06
0.000159608 -4.79032e-05 -4.78737e-05 -1.09442e-05
0.0001584 -4.75403e-05 -4.75115e-05 -1.09442e-05
0.000117914 -3.5397e-05 -3.53644e-05 -1.32653e-05
0.000116102 -3.48525e-05 -3.48213e-05 -1.32653e-05
0.000193452 -5.805e-05 -5.80293e-05 -7.95959e-06
0.000196472 -5.89568e-05 -5.89351e-05 -7.95962e-06
0.000117008 -3.51248e-05 -3.50928e-05 -1.32653e-05
0.000154776 -4.64518e-05 -4.64249e-05 -1.09442e-05
0.000194962 -5.85034e-05 -5.84822e-05 -7.9596e-06
0.000157192 -4.71775e-05 -4.71493e-05 -1.09442e-05
0.000155984 -4.68146e-05 -4.67871e-05 -1.09442e-05
0.000116102 -3.48525e-05 -3.48213e-05 -1.32653e-05
0.000114291 -3.4308e-05 -3.42783e-05 -1.32653e-05
0.000190431 -5.71432e-05 -5.71235e-05 -7.95957e-06
0.000193452 -5.805e-05 -5.80293e-05 -7.95959e-06
0.000115196 -3.45803e-05 -3.45498e-05 -1.32653e-05
0.000152361 -4.57261e-05 -4.57005e-05 -1.09441e-05
0.000191942 -5.75966e-05 -5.75764e-05 -7.95958e-06
0.000154776 -4.64518e-05 -4.64249e-05 -1.09442e-05
0.000153569 -4.6089e-05 -4.60627e-05 -1.09441e-05
0.000114291 -3.4308e-05 -3.42783e-05 -1.32653e-05
0.000112479 -3.37635e-05 -3.37352e-05 -1.32653e-05
0.000187411 -5.62364e-05 -5.62177e-05 -7.95955e-06
0.000190431 -5.71432e-05 -5.71235e-05 -7.95957e-06
0.000113385 -3.40358e-05 -3.40067e-05 -1.32653e-05
0.000149945 -4.50005e-05 -4.4976e-05 -1.09441e-05
0.000188921 -5.66898e-05 -5.66706e-05 -7.95956e-06
0.000152361 -4.57261e-05 -4.57005e-05 -1.09441e-05
0.000151153 -4.53633e-05 -4.53383e-05 -1.09441e-05
0.000112479 -3.37635e-05 -3.37352e-05 -1.32653e-05
0.000110667 -3.32191e-05 -3.31921e-05 -1.32652e-05
0.000184391 -5.53296e-05 -5.53119e-05 -7.95953e-06
0.000187411 -5.62364e-05 -5.62177e-05 -7.95955e-06
0.000111573 -3.34913e-05 -3.34637e-05 -1.32652e-05
0.000147529 -4.42748e-05 -4.42516e-05 -1.09441e-05
0.000185901 -5.5783e-05 -5.57648e-05 -7.95954e-06
0.000149945 -4.50005e-05 -4.4976e-05 -1.09441e-05
0.000148737 -4.46376e-05 -4.46138e-05 -1.09441e-05
0.000110667 -3.32191e-05 -3.31921e-05 -1.32652e-05
0.000108856 -3.26746e-05 -3.2649e-05 -1.32652e-05
0.00018137 -5.44228e-05 -5.44061e-05 -7.95951e-06
0.000184391 -5.53296e-05 -5.53119e-05 -7.95953e-06
0.000109762 -3.29468e-05 -3.29206e-05 -1.32652e-05
0.000145113 -4.35491e-05 -4.35272e-05 -1.09441e-05
0.000182881 -5.48762e-05 -5.4859e-05 -7.95952e-06
0.000147529 -4.42748e-05 -4.42516e-05 -1.09441e-05
0.000146321 -4.3912e-05 -4.38894e-05 -1.09441e-05
0.000108856 -3.26746e-05 -3.2649e-05 -1.32652e-05
0.000107044 -3.21302e-05 -3.21059e-05 -1.32652e-05
0.00017835 -5.35159e-05 -5.35003e-05 -7.95949e-06
0.00018137 -5.44228e-05 -5.44061e-05 -7.95951e-06
0.00010795 -3.24024e-05 -3.23775e-05 -1.32652e-05
0.000142697 -4.28235e-05 -4.28027e-05 -1.0944e-05
0.00017986 -5.39694e-05 -5.39532e-05 -7.9595e-06
0.000145113 -4.35491e-05 -4.35272e-05 -1.09441e-05
0.000143905 -4.31863e-05 -4.31649e-05 -1.09441e-05
0.000107044 -3.21302e-05 -3.21059e-05 -1.32652e-05
0.000105232 -3.15857e-05 -3.15628e-05 -1.32652e-05
0.00017533 -5.26092e-05 -5.25945e-05 -7.95947e-06
0.00017835 -5.35159e-05 -5.35003e-05 -7.95949e-06
0.000106138 -3.18579e-05 -3.18344e-05 -1.32652e-05
0.00014028 -4.20979e-05 -4.20783e-05 -1.0944e-05
0.00017684 -5.30626e-05 -5.30474e-05 -7.95948e-06
0.000142697 -4.28235e-05 -4.28027e-05 -1.0944e-05
0.000141489 -4.24607e-05 -4.24405e-05 -1.0944e-05
0.000105232 -3.15857e-05 -3.15628e-05 -1.32652e-05
0.000103421 -3.10413e-05 -3.10197e-05 -1.32651e-05
0.000172309 -5.17024e-05 -5.16886e-05 -7.95945e-06
0.00017533 -5.26092e-05 -5.25945e-05 -7.95947e-06
0.000104326 -3.13135e-05 -3.12913e-05 -1.32652e-05
0.000137864 -4.13722e-05 -4.13538e-05 -1.0944e-05
0.000173819 -5.21558e-05 -5.21415e-05 -7.95946e-06
0.00014028 -4.20979e-05 -4.20783e-05 -1.0944e-05
0.000139072 -4.17351e-05 -4.1716e-05 -1.0944e-05
0.000103421 -3.10413e-05 -3.10197e-05 -1.32651e-05
0.000101609 -3.04969e-05 -3.04766e-05 -1.32651e-05
0.000169289 -5.07956e-05 -5.07828e-05 -7.95943e-06
0.000172309 -5.17024e-05 -5.16886e-05 -7.95945e-06
0.000102515 -3.07691e-05 -3.07481e-05 -1.32651e-05
0.000135448 -4.06466e-05 -4.06293e-05 -1.0944e-05
0.000170799 -5.1249e-05 -5.12357e-05 -7.95944e-06
0.000137864 -4.13722e-05 -4.13538e-05 -1.0944e-05
0.000136656 -4.10094e-05 -4.09916e-05 -1.0944e-05
0.000101609 -3.04969e-05 -3.04766e-05 -1.32651e-05
9.97971e-05 -2.99525e-05 -2.99334e-05 -1.32651e-05
0.000166268 -4.98888e-05 -4.98769e-05 -7.95941e-06
0.000169289 -5.07956e-05 -5.07828e-05 -7.95943e-06
0.000100703 -3.02247e-05 -3.0205e-05 -1.32651e-05
0.000133032 -3.9921e-05 -3.99048e-05 -1.09439e-05
0.000167779 -5.03422e-05 -5.03299e-05 -7.95942e-06
0.000135448 -4.06466e-05 -4.06293e-05 -1.0944e-05
0.00013424 -4.02838e-05 -4.02671e-05 -1.0944e-05
9.97971e-05 -2.99525e-05 -2.99334e-05 -1.32651e-05
9.79853e-05 -2.9408e-05 -2.93903e-05 -1.32651e-05
0.000163248 -4.8982e-05 -4.89711e-05 -7.95939e-06
0.000166268 -4.98888e-05 -4.98769e-05 -7.95941e-06
9.88912e-05 -2.96803e-05 -2.96618e-05 -1.32651e-05
0.000130616 -3.91954e-05 -3.91803e-05 -1.09439e-05
0.000164758 -4.94354e-05 -4.9424e-05 -7.9594e-06
0.000133032 -3.9921e-05 -3.99048e-05 -1.09439e-05
0.000131824 -3.95582e-05 -3.95426e-05 -1.09439e-05
9.79853e-05 -2.9408e-05 -2.93903e-05 -1.32651e-05
9.61736e-05 -2.88637e-05 -2.88471e-05 -1.32651e-05
0.000160227 -4.80753e-05 -4.80652e-05 -7.95937e-06
0.000163248 -4.8982e-05 -4.89711e-05 -7.95939e-06
9.70795e-05 -2.91359e-05 -2.91187e-05 -1.32651e-05
0.0001282 -3.84698e-05 -3.84558e-05 -1.09439e-05
0.000161738 -4.85286e-05 -4.85181e-05 -7.95938e-06
0.000130616 -3.91954e-05 -3.91803e-05 -1.09439e-05
0.000129408 -3.88326e-05 -3.88181e-05 -1.09439e-05
9.61736e-05 -2.88637e-05 -2.88471e-05 -1.32651e-05
9.43618e-05 -2.83193e-05 -2.83039e-05 -1.3265e-05
0.000157207 -4.71685e-05 -4.71593e-05 -7.95935e-06
0.000160227 -4.80753e-05 -4.80652e-05 -7.95937e-06
9.52677e-05 -2.85915e-05 -2.85755e-05 -1.3265e-05
0.000125784 -3.77442e-05 -3.77313e-05 -1.09439e-05
0.000158717 -4.76219e-05 -4.76123e-05 -7.95936e-06
0.0001282 -3.84698e-05 -3.84558e-05 -1.09439e-05
0.000126992 -3.8107e-05 -3.80936e-05 -1.09439e-05
9.43618e-05 -2.83193e-05 -2.83039e-05 -1.3265e-05
9.255e-05 -2.77749e-05 -2.77607e-05 -1.3265e-05
0.000154186 -4.62617e-05 -4.62534e-05 -7.95933e-06
0.000157207 -4.71685e-05 -4.71593e-05 -7.95935e-06
9.34559e-05 -2.80471e-05 -2.80323e-05 -1.3265e-05
0.000123368 -3.70186e-05 -3.70068e-05 -1.09439e-05
0.000155697 -4.67151e-05 -4.67064e-05 -7.95934e-06
0.000125784 -3.77442e-05 -3.77313e-05 -1.09439e-05
0.000124576 -3.73814e-05 -3.73691e-05 -1.09439e-05
9.255e-05 -2.77749e-05 -2.77607e-05 -1.3265e-05
9.07381e-05 -2.72305e-05 -2.72175e-05 -1.3265e-05
0.000151166 -4.5355e-05 -4.53476e-05 -7.95931e-06
0.000154186 -4.62617e-05 -4.62534e-05 -7.95933e-06
9.16441e-05 -2.75027e-05 -2.74891e-05 -1.3265e-05
0.000120952 -3.62931e-05 -3.62823e-05 -1.09438e-05
0.000152676 -4.58084e-05 -4.58005e-05 -7.95932e-06
0.000123368 -3.70186e-05 -3.70068e-05 -1.09439e-05
0.00012216 -3.66559e-05 -3.66445e-05 -1.09438e-05
9.07381e-05 -2.72305e-05 -2.72175e-05 -1.3265e-05
8.89263e-05 -2.66862e-05 -2.66743e-05 -1.3265e-05
0.000148145 -4.44482e-05 -4.44417e-05 -7.95929e-06
0.000151166 -4.5355e-05 -4.53476e-05 -7.95931e-06
8.98322e-05 -2.69584e-05 -2.69459e-05 -1.3265e-05
0.000118536 -3.55675e-05 -3.55577e-05 -1.09438e-05
0.000149656 -4.49016e-05 -4.48946e-05 -7.9593e-06
0.000120952 -3.62931e-05 -3.62823e-05 -1.09438e-05
0.000119744 -3.59303e-05 -3.592e-05 -1.09438e-05
8.89263e-05 -2.66862e-05 -2.66743e-05 -1.3265e-05
8.71144e-05 -2.61418e-05 -2.61311e-05 -1.32649e-05
0.000145125 -4.35415e-05 -4.35358e-05 -7.95927e-06
0.000148145 -4.44482e-05 -4.44417e-05 -7.95929e-06
8.80204e-05 -2.6414e-05 -2.64027e-05 -1.3265e-05
0.000116119 -3.4842e-05 -3.48332e-05 -1.09438e-05
0.000146635 -4.39949e-05 -4.39887e-05 -7.95928e-06
0.000118536 -3.55675e-05 -3.55577e-05 -1.09438e-05
0.000117327 -3.52047e-05 -3.51955e-05 -1.09438e-05
8.71144e-05 -2.61418e-05 -2.61311e-05 -1.32649e-05
8.53026e-05 -2.55975e-05 -2.55879e-05 -1.32649e-05
0.000142104 -4.26348e-05 -4.26298e-05 -7.95925e-06
0.000145125 -4.35415e-05 -4.35358e-05 -7.95927e-06
8.62085e-05 -2.58697e-05 -2.58595e-05 -1.32649e-05
0.000113703 -3.41164e-05 -3.41086e-05 -1.09438e-05
0.000143615 -4.30881e-05 -4.30828e-05 -7.95926e-06
0.000116119 -3.4842e-05 -3.48332e-05 -1.09438e-05
0.000114911 -3.44792e-05 -3.44709e-05 -1.09438e-05
8.53026e-05 -2.55975e-05 -2.55879e-05 -1.32649e-05
8.34907e-05 -2.50532e-05 -2.50447e-05 -1.32649e-05
0.000139084 -4.1728e-05 -4.17239e-05 -7.95923e-06
0.000142104 -4.26348e-05 -4.26298e-05 -7.95925e-06
8.43966e-05 -2.53253e-05 -2.53163e-05 -1.32649e-05
0.000111287 -3.33909e-05 -3.33841e-05 -1.09437e-05
0.000140594 -4.21814e-05 -4.21769e-05 -7.95924e-06
0.000113703 -3.41164e-05 -3.41086e-05 -1.09438e-05
0.000112495 -3.37536e-05 -3.37463e-05 -1.09438e-05
8.34907e-05 -2.50532e-05 -2.50447e-05 -1.32649e-05
8.16788e-05 -2.45088e-05 -2.45014e-05 -1.32649e-05
0.000136063 -4.08213e-05 -4.0818e-05 -7.95921e-06
0.000139084 -4.1728e-05 -4.17239e-05 -7.95923e-06
8.25847e-05 -2.4781e-05 -2.4773e-05 -1.32649e-05
0.000108871 -3.26653e-05 -3.26595e-05 -1.09437e-05
0.000137574 -4.12747e-05 -4.1271e-05 -7.95922e-06
0.000111287 -3.33909e-05 -3.33841e-05 -1.09437e-05
0.000110079 -3.30281e-05 -3.30218e-05 -1.09437e-05
8.16788e-05 -2.45088e-05 -2.45014e-05 -1.32649e-05
7.98669e-05 -2.39645e-05 -2.39581e-05 -1.32649e-05
0.000133043 -3.99146e-05 -3.99121e-05 -7.95919e-06
0.000136063 -4.08213e-05 -4.0818e-05 -7.95921e-06
8.07728e-05 -2.42367e-05 -2.42298e-05 -1.32649e-05
0.000106455 -3.19398e-05 -3.19349e-05 -1.09437e-05
0.000134553 -4.03679e-05 -4.0365e-05 -7.9592e-06
0.000108871 -3.26653e-05 -3.26595e-05 -1.09437e-05
0.000107663 -3.23026e-05 -3.22972e-05 -1.09437e-05
7.98669e-05 -2.39645e-05 -2.39581e-05 -1.32649e-05
7.80549e-05 -2.34202e-05 -2.34149e-05 -1.32648e-05
0.000130022 -3.90079e-05 -3.90061e-05 -7.95918e-06
0.000133043 -3.99146e-05 -3.99121e-05 -7.95919e-06
7.89609e-05 -2.36924e-05 -2.36865e-05 -1.32648e-05
0.000104038 -3.12143e-05 -3.12103e-05 -1.09437e-05
0.000131532 -3.94612e-05 -3.94591e-05 -7.95919e-06
0.000106455 -3.19398e-05 -3.19349e-05 -1.09437e-05
0.000105246 -3.1577e-05 -3.15726e-05 -1.09437e-05
7.80549e-05 -2.34202e-05 -2.34149e-05 -1.32648e-05
7.6243e-05 -2.28759e-05 -2.28716e-05 -1.32648e-05
0.000127002 -3.81012e-05 -3.81002e-05 -7.95916e-06
0.000130022 -3.90079e-05 -3.90061e-05 -7.95918e-06
7.71489e-05 -2.31481e-05 -2.31432e-05 -1.32648e-05
0.000101622 -3.04888e-05 -3.04857e-05 -1.09437e-05
0.000128512 -3.85545e-05 -3.85532e-05 -7.95917e-06
0.000104038 -3.12143e-05 -3.12103e-05 -1.09437e-05
0.00010283 -3.08515e-05 -3.0848e-05 -1.09437e-05
7.6243e-05 -2.28759e-05 -2.28716e-05 -1.32648e-05
7.4431e-05 -2.23317e-05 -2.23283e-05 -1.32648e-05
0.000123981 -3.71945e-05 -3.71942e-05 -7.95914e-06
0.000127002 -3.81012e-05 -3.81002e-05 -7.95916e-06
7.5337e-05 -2.26038e-05 -2.25999e-05 -1.32648e-05
9.92058e-05 -2.97633e-05 -2.97611e-05 -1.09436e-05
0.000125491 -3.76478e-05 -3.76472e-05 -7.95915e-06
0.000101622 -3.04888e-05 -3.04857e-05 -1.09437e-05
0.000100414 -3.0126e-05 -3.01234e-05 -1.09436e-05
7.4431e-05 -2.23317e-05 -2.23283e-05 -1.32648e-05
7.2619e-05 -2.17874e-05 -2.1785e-05 -1.32648e-05
0.00012096 -3.62878e-05 -3.62883e-05 -7.95912e-06
0.000123981 -3.71945e-05 -3.71942e-05 -7.95914e-06
7.3525e-05 -2.20595e-05 -2.20566e-05 -1.32648e-05
9.67895e-05 -2.90378e-05 -2.90364e-05 -1.09436e-05
0.000122471 -3.67411e-05 -3.67412e-05 -7.95913e-06
9.92058e-05 -2.97633e-05 -2.97611e-05 -1.09436e-05
9.79976e-05 -2.94005e-05 -2.93988e-05 -1.09436e-05
7.2619e-05 -2.17874e-05 -2.1785e-05 -1.32648e-05
7.0807e-05 -2.12431e-05 -2.12417e-05 -1.32647e-05
0.00011794 -3.53811e-05 -3.53823e-05 -7.9591e-06
0.00012096 -3.62878e-05 -3.62883e-05 -7.95912e-06
7.1713e-05 -2.15153e-05 -2.15133e-05 -1.32648e-05
9.43732e-05 -2.83123e-05 -2.83118e-05 -1.09436e-05
0.00011945 -3.58344e-05 -3.58353e-05 -7.95911e-06
9.67895e-05 -2.90378e-05 -2.90364e-05 -1.09436e-05
9.55813e-05 -2.8675e-05 -2.86741e-05 -1.09436e-05
7.0807e-05 -2.12431e-05 -2.12417e-05 -1.32647e-05
6.8995e-05 -2.06989e-05 -2.06983e-05 -1.32647e-05
0.000114919 -3.44744e-05 -3.44763e-05 -7.95908e-06
0.00011794 -3.53811e-05 -3.53823e-05 -7.9591e-06
6.9901e-05 -2.0971e-05 -2.097e-05 -1.32647e-05
9.19569e-05 -2.75868e-05 -2.75872e-05 -1.09436e-05
0.000116429 -3.49277e-05 -3.49293e-05 -7.95909e-06
9.43732e-05 -2.83123e-05 -2.83118e-05 -1.09436e-05
9.3165e-05 -2.79496e-05 -2.79495e-05 -1.09436e-05
6.8995e-05 -2.06989e-05 -2.06983e-05 -1.32647e-05
6.71829e-05 -2.01546e-05 -2.0155e-05 -1.32647e-05
0.000111898 -3.35677e-05 -3.35703e-05 -7.95906e-06
0.000114919 -3.44744e-05 -3.44763e-05 -7.95908e-06
6.8089e-05 -2.04268e-05 -2.04267e-05 -1.32647e-05
8.95405e-05 -2.68614e-05 -2.68625e-05 -1.09435e-05
0.000113409 -3.4021e-05 -3.40233e-05 -7.95907e-06
9.19569e-05 -2.75868e-05 -2.75872e-05 -1.09436e-05
9.07487e-05 -2.72241e-05 -2.72248e-05 -1.09436e-05
6.71829e-05 -2.01546e-05 -2.0155e-05 -1.32647e-05
6.53709e-05 -1.96104e-05 -1.96116e-05 -1.32647e-05
0.000108878 -3.2661e-05 -3.26643e-05 -7.95904e-06
0.000111898 -3.35677e-05 -3.35703e-05 -7.95906e-06
6.62769e-05 -1.98825e-05 -1.98833e-05 -1.32647e-05
8.71242e-05 -2.61359e-05 -2.61378e-05 -1.09435e-05
0.000110388 -3.31144e-05 -3.31173e-05 -7.95905e-06
8.95405e-05 -2.68614e-05 -2.68625e-05 -1.09435e-05
8.83324e-05 -2.64986e-05 -2.65002e-05 -1.09435e-05
6.53709e-05 -1.96104e-05 -1.96116e-05 -1.32647e-05
6.35588e-05 -1.90662e-05 -1.90683e-05 -1.32647e-05
0.000105857 -3.17544e-05 -3.17583e-05 -7.95902e-06
0.000108878 -3.2661e-05 -3.26643e-05 -7.95904e-06
6.44649e-05 -1.93383e-05 -1.934e-05 -1.32647e-05
8.47078e-05 -2.54104e-05 -2.54132e-05 -1.09435e-05
0.000107367 -3.22077e-05 -3.22113e-05 -7.95903e-06
8.71242e-05 -2.61359e-05 -2.61378e-05 -1.09435e-05
8.5916e-05 -2.57732e-05 -2.57755e-05 -1.09435e-05
6.35588e-05 -1.90662e-05 -1.90683e-05 -1.32647e-05
6.17467e-05 -1.8522e-05 -1.85249e-05 -1.32646e-05
0.000102836 -3.08477e-05 -3.08523e-05 -7.959e-06
0.000105857 -3.17544e-05 -3.17583e-05 -7.95902e-06
6.26528e-05 -1.87941e-05 -1.87966e-05 -1.32647e-05
8.22915e-05 -2.4685e-05 -2.46885e-05 -1.09435e-05
0.000104347 -3.1301e-05 -3.13053e-05 -7.95901e-06
8.47078e-05 -2.54104e-05 -2.54132e-05 -1.09435e-05
8.34996e-05 -2.50477e-05 -2.50508e-05 -1.09435e-05
6.17467e-05 -1.8522e-05 -1.85249e-05 -1.32646e-05
5.99346e-05 -1.79778e-05 -1.79815e-05 -1.32646e-05
9.98158e-05 -2.9941e-05 -2.99463e-05 -7.95899e-06
0.000102836 -3.08477e-05 -3.08523e-05 -7.959e-06
6.08407e-05 -1.82499e-05 -1.82532e-05 -1.32646e-05
7.98751e-05 -2.39595e-05 -2.39638e-05 -1.09435e-05
0.000101326 -3.03944e-05 -3.03993e-05 -7.959e-06
8.22915e-05 -2.4685e-05 -2.46885e-05 -1.09435e-05
8.10833e-05 -2.43223e-05 -2.43261e-05 -1.09435e-05
5.99346e-05 -1.79778e-05 -1.79815e-05 -1.32646e-05
5.81225e-05 -1.74336e-05 -1.74381e-05 -1.32646e-05
9.67951e-05 -2.90344e-05 -2.90403e-05 -7.95897e-06
9.98158e-05 -2.9941e-05 -2.99463e-05 -7.95899e-06
5.90286e-05 -1.77057e-05 -1.77098e-05 -1.32646e-05
7.74587e-05 -2.32341e-05 -2.32391e-05 -1.09434e-05
9.83054e-05 -2.94877e-05 -2.94933e-05 -7.95898e-06
7.98751e-05 -2.39595e-05 -2.39638e-05 -1.09435e-05
7.86669e-05 -2.35968e-05 -2.36014e-05 -1.09435e-05
5.81225e-05 -1.74336e-05 -1.74381e-05 -1.32646e-05
5.63104e-05 -1.68894e-05 -1.68947e-05 -1.32646e-05
9.37744e-05 -2.81277e-05 -2.81343e-05 -7.95895e-06
9.67951e-05 -2.90344e-05 -2.90403e-05 -7.95897e-06
5.72164e-05 -1.71615e-05 -1.71664e-05 -1.32646e-05
7.50422e-05 -2.25087e-05 -2.25144e-05 -1.09434e-05
9.52847e-05 -2.85811e-05 -2.85873e-05 -7.95896e-06
7.74587e-05 -2.32341e-05 -2.32391e-05 -1.09434e-05
7.62505e-05 -2.28714e-05 -2.28767e-05 -1.09434e-05
5.63104e-05 -1.68894e-05 -1.68947e-05 -1.32646e-05
5.44982e-05 -1.63452e-05 -1.63513e-05 -1.32646e-05
9.07536e-05 -2.72211e-05 -2.72282e-05 -7.95893e-06
9.37744e-05 -2.81277e-05 -2.81343e-05 -7.95895e-06
5.54043e-05 -1.66173e-05 -1.6623e-05 -1.32646e-05
7.26258e-05 -2.17833e-05 -2.17897e-05 -1.09434e-05
9.2264e-05 -2.76744e-05 -2.76812e-05 -7.95894e-06
7.50422e-05 -2.25087e-05 -2.25144e-05 -1.09434e-05
7.3834e-05 -2.2146e-05 -2.2152e-05 -1.09434e-05
5.44982e-05 -1.63452e-05 -1.63513e-05 -1.32646e-05
5.26861e-05 -1.58011e-05 -1.58079e-05 -1.32645e-05
8.77329e-05 -2.63145e-05 -2.63222e-05 -7.95891e-06
9.07536e-05 -2.72211e-05 -2.72282e-05 -7.95893e-06
5.35921e-05 -1.60731e-05 -1.60796e-05 -1.32646e-05
7.02094e-05 -2.10579e-05 -2.10649e-05 -1.09434e-05
8.92433e-05 -2.67678e-05 -2.67752e-05 -7.95892e-06
7.26258e-05 -2.17833e-05 -2.17897e-05 -1.09434e-05
7.14176e-05 -2.14206e-05 -2.14273e-05 -1.09434e-05
5.26861e-05 -1.58011e-05 -1.58079e-05 -1.32645e-05
5.08739e-05 -1.52569e-05 -1.52644e-05 -1.32645e-05
8.47121e-05 -2.54078e-05 -2.54161e-05 -7.9589e-06
8.77329e-05 -2.63145e-05 -2.63222e-05 -7.95891e-06
5.178e-05 -1.5529e-05 -1.55361e-05 -1.32645e-05
6.77929e-05 -2.03325e-05 -2.03402e-05 -1.09434e-05
8.62225e-05 -2.58612e-05 -2.58692e-05 -7.95891e-06
7.02094e-05 -2.10579e-05 -2.10649e-05 -1.09434e-05
6.90011e-05 -2.06952e-05 -2.07026e-05 -1.09434e-05
5.08739e-05 -1.52569e-05 -1.52644e-05 -1.32645e-05
4.90617e-05 -1.47128e-05 -1.4721e-05 -1.32645e-05
8.16914e-05 -2.45012e-05 -2.45101e-05 -7.95888e-06
8.47121e-05 -2.54078e-05 -2.54161e-05 -7.9589e-06
4.99678e-05 -1.49848e-05 -1.49927e-05 -1.32645e-05
6.53764e-05 -1.96071e-05 -1.96154e-05 -1.09433e-05
8.32018e-05 -2.49545e-05 -2.49631e-05 -7.95889e-06
6.77929e-05 -2.03325e-05 -2.03402e-05 -1.09434e-05
6.65847e-05 -1.99698e-05 -1.99778e-05 -1.09434e-05
4.90617e-05 -1.47128e-05 -1.4721e-05 -1.32645e-05
4.72495e-05 -1.41686e-05 -1.41775e-05 -1.32645e-05
7.86706e-05 -2.35946e-05 -2.3604e-05 -7.95887e-06
8.16914e-05 -2.45012e-05 -2.45101e-05 -7.95888e-06
4.81556e-05 -1.44407e-05 -1.44492e-05 -1.32645e-05
6.29599e-05 -1.88817e-05 -1.88907e-05 -1.09433e-05
8.0181e-05 -2.40479e-05 -2.4057e-05 -7.95888e-06
6.53764e-05 -1.96071e-05 -1.96154e-05 -1.09433e-05
6.41682e-05 -1.92444e-05 -1.92531e-05 -1.09433e-05
4.72495e-05 -1.41686e-05 -1.41775e-05 -1.32645e-05
4.54372e-05 -1.36245e-05 -1.3634e-05 -1.32645e-05
7.56498e-05 -2.2688e-05 -2.26979e-05 -7.95886e-06
7.86706e-05 -2.35946e-05 -2.3604e-05 -7.95887e-06
4.63433e-05 -1.38966e-05 -1.39058e-05 -1.32645e-05
6.05434e-05 -1.81563e-05 -1.81659e-05 -1.09433e-05
7.71602e-05 -2.31413e-05 -2.3151e-05 -7.95887e-06
6.29599e-05 -1.88817e-05 -1.88907e-05 -1.09433e-05
6.17517e-05 -1.8519e-05 -1.85283e-05 -1.09433e-05
4.54372e-05 -1.36245e-05 -1.3634e-05 -1.32645e-05
4.3625e-05 -1.30804e-05 -1.30905e-05 -1.32645e-05
7.2629e-05 -2.17814e-05 -2.17918e-05 -7.95885e-06
7.56498e-05 -2.2688e-05 -2.26979e-05 -7.95886e-06
4.45311e-05 -1.33525e-05 -1.33623e-05 -1.32645e-05
5.81269e-05 -1.7431e-05 -1.74411e-05 -1.09433e-05
7.41394e-05 -2.22347e-05 -2.22449e-05 -7.95886e-06
6.05434e-05 -1.81563e-05 -1.81659e-05 -1.09433e-05
5.93352e-05 -1.77936e-05 -1.78035e-05 -1.09433e-05
4.3625e-05 -1.30804e-05 -1.30905e-05 -1.32645e-05
4.18127e-05 -1.25363e-05 -1.2547e-05 -1.32645e-05
6.96082e-05 -2.08748e-05 -2.08857e-05 -7.95885e-06
7.2629e-05 -2.17814e-05 -2.17918e-05 -7.95885e-06
4.27189e-05 -1.28084e-05 -1.28188e-05 -1.32645e-05
5.57104e-05 -1.67056e-05 -1.67163e-05 -1.09433e-05
7.11186e-05 -2.13281e-05 -2.13388e-05 -7.95885e-06
5.81269e-05 -1.7431e-05 -1.74411e-05 -1.09433e-05
5.69186e-05 -1.70683e-05 -1.70787e-05 -1.09433e-05
4.18127e-05 -1.25363e-05 -1.2547e-05 -1.32645e-05
4.00005e-05 -1.19922e-05 -1.20035e-05 -1.32645e-05
6.65873e-05 -1.99682e-05 -1.99796e-05 -7.95886e-06
6.96082e-05 -2.08748e-05 -2.08857e-05 -7.95885e-06
4.09066e-05 -1.22643e-05 -1.22753e-05 -1.32645e-05
5.32938e-05 -1.59803e-05 -1.59915e-05 -1.09433e-05
6.80978e-05 -2.04215e-05 -2.04327e-05 -7.95886e-06
5.57104e-05 -1.67056e-05 -1.67163e-05 -1.09433e-05
5.45021e-05 -1.6343e-05 -1.63539e-05 -1.09433e-05
4.00005e-05 -1.19922e-05 -1.20035e-05 -1.32645e-05
3.81882e-05 -1.14482e-05 -1.146e-05 -1.32645e-05
6.35665e-05 -1.90616e-05 -1.90735e-05 -7.95888e-06
6.65873e-05 -1.99682e-05 -1.99796e-05 -7.95886e-06
3.90943e-05 -1.17202e-05 -1.17318e-05 -1.32645e-05
5.08773e-05 -1.5255e-05 -1.52667e-05 -1.09433e-05
6.50769e-05 -1.95149e-05 -1.95266e-05 -7.95887e-06
5.32938e-05 -1.59803e-05 -1.59915e-05 -1.09433e-05
5.20856e-05 -1.56176e-05 -1.56291e-05 -1.09433e-05
3.81882e-05 -1.14482e-05 -1.146e-05 -1.32645e-05
3.6376e-05 -1.09042e-05 -1.09165e-05 -1.32644e-05
6.05456e-05 -1.8155e-05 -1.81674e-05 -7.95891e-06
6.35665e-05 -1.90616e-05 -1.90735e-05 -7.95888e-06
3.72821e-05 -1.11762e-05 -1.11882e-05 -1.32645e-05
4.84608e-05 -1.45297e-05 -1.45419e-05 -1.09433e-05
6.20561e-05 -1.86083e-05 -1.86205e-05 -7.9589e-06
5.08773e-05 -1.5255e-05 -1.52667e-05 -1.09433e-05
4.9669e-05 -1.48923e-05 -1.49043e-05 -1.09433e-05
3.6376e-05 -1.09042e-05 -1.09165e-05 -1.32644e-05
3.45637e-05 -1.03601e-05 -1.0373e-05 -1.32644e-05
5.75248e-05 -1.72485e-05 -1.72613e-05 -7.95897e-06
6.05456e-05 -1.8155e-05 -1.81674e-05 -7.95891e-06
3.54698e-05 -1.06321e-05 -1.06447e-05 -1.32644e-05
4.60442e-05 -1.38044e-05 -1.38171e-05 -1.09434e-05
5.90352e-05 -1.77018e-05 -1.77143e-05 -7.95894e-06
4.84608e-05 -1.45297e-05 -1.45419e-05 -1.09433e-05
4.72525e-05 -1.4167e-05 -1.41795e-05 -1.09434e-05
3.45637e-05 -1.03601e-05 -1.0373e-05 -1.32644e-05
3.27515e-05 -9.81611e-06 -9.82945e-06 -1.32644e-05
5.45039e-05 -1.63419e-05 -1.63551e-05 -7.95903e-06
5.75248e-05 -1.72485e-05 -1.72613e-05 -7.95897e-06
3.36576e-05 -1.00881e-05 -1.01012e-05 -1.32644e-05
4.36277e-05 -1.30791e-05 -1.30923e-05 -1.09434e-05
5.60143e-05 -1.67952e-05 -1.68082e-05 -7.959e-06
4.60442e-05 -1.38044e-05 -1.38171e-05 -1.09434e-05
4.4836e-05 -1.34417e-05 -1.34547e-05 -1.09434e-05
3.27515e-05 -9.81611e-06 -9.82945e-06 -1.32644e-05
3.09393e-05 -9.27202e-06 -9.28597e-06 -1.32643e-05
5.14831e-05 -1.54354e-05 -1.5449e-05 -7.95908e-06
5.45039e-05 -1.63419e-05 -1.63551e-05 -7.95903e-06
3.18454e-05 -9.54408e-06 -9.55771e-06 -1.32643e-05
4.12113e-05 -1.23538e-05 -1.23675e-05 -1.09433e-05
5.29935e-05 -1.58887e-05 -1.59021e-05 -7.95906e-06
4.36277e-05 -1.30791e-05 -1.30923e-05 -1.09434e-05
4.24195e-05 -1.27165e-05 -1.27299e-05 -1.09434e-05
3.09393e-05 -9.27202e-06 -9.28597e-06 -1.32643e-05
2.9127e-05 -8.72771e-06 -8.74256e-06 -1.32641e-05
4.84623e-05 -1.45288e-05 -1.45429e-05 -7.95904e-06
5.14831e-05 -1.54354e-05 -1.5449e-05 -7.95908e-06
3.00332e-05 -8.99991e-06 -9.01425e-06 -1.32642e-05
3.87948e-05 -1.16284e-05 -1.16428e-05 -1.09432e-05
4.99727e-05 -1.49821e-05 -1.4996e-05 -7.95908e-06
4.12113e-05 -1.23538e-05 -1.23675e-05 -1.09433e-05
4.0003e-05 -1.19911e-05 -1.20051e-05 -1.09433e-05
2.9127e-05 -8.72771e-06 -8.74256e-06 -1.32641e-05
2.73144e-05 -8.18286e-06 -8.19925e-06 -1.32637e-05
4.54416e-05 -1.3622e-05 -1.3637e-05 -7.9587e-06
4.84623e-05 -1.45288e-05 -1.45429e-05 -7.95904e-06
2.82208e-05 -8.45539e-06 -8.47089e-06 -1.32639e-05
3.63783e-05 -1.09025e-05 -1.09182e-05 -1.09427e-05
4.69519e-05 -1.40754e-05 -1.40899e-05 -7.95893e-06
3.87948e-05 -1.16284e-05 -1.16428e-05 -1.09432e-05
3.75866e-05 -1.12655e-05 -1.12804e-05 -1.0943e-05
2.73144e-05 -8.18286e-06 -8.19925e-06 -1.32637e-05
2.55011e-05 -7.63675e-06 -7.65616e-06 -1.3263e-05
4.24211e-05 -1.27148e-05 -1.27313e-05 -7.95765e-06
4.54416e-05 -1.3622e-05 -1.3637e-05 -7.9587e-06
2.64079e-05 -7.91003e-06 -7.92766e-06 -1.32634e-05
3.39614e-05 -1.01758e-05 -1.01938e-05 -1.09414e-05
4.39314e-05 -1.31685e-05 -1.31841e-05 -7.9583e-06
3.63783e-05 -1.09025e-05 -1.09182e-05 -1.09427e-05
3.51699e-05 -1.05393e-05 -1.0556e-05 -1.09422e-05
2.55011e-05 -7.63675e-06 -7.65616e-06 -1.3263e-05
2.36857e-05 -7.08798e-06 -7.11331e-06 -1.32617e-05
3.94009e-05 -1.18068e-05 -1.18261e-05 -7.95485e-06
4.24211e-05 -1.27148e-05 -1.27313e-05 -7.95765e-06
2.45938e-05 -7.36284e-06 -7.38471e-06 -1.32624e-05
3.15436e-05 -9.44711e-06 -9.46993e-06 -1.09386e-05
4.09109e-05 -1.2261e-05 -1.22786e-05 -7.95657e-06
3.39614e-05 -1.01758e-05 -1.01938e-05 -1.09414e-05
3.27527e-05 -9.81182e-06 -9.8318e-06 -1.09403e-05
2.36857e-05 -7.08798e-06 -7.11331e-06 -1.32617e-05
2.18662e-05 -6.53383e-06 -6.57101e-06 -1.32595e-05
3.63807e-05 -1.08969e-05 -1.09217e-05 -7.94863e-06
3.94009e-05 -1.18068e-05 -1.18261e-05 -7.95485e-06
2.27766e-05 -6.8118e-06 -6.84204e-06 -1.32608e-05
2.91234e-05 -8.71423e-06 -8.74678e-06 -1.09327e-05
3.78909e-05 -1.13522e-05 -1.13737e-05 -7.95231e-06
3.15436e-05 -9.44711e-06 -9.46993e-06 -1.09386e-05
3.03339e-05 -9.08135e-06 -9.10825e-06 -1.09361e-05
2.18662e-05 -6.53383e-06 -6.57101e-06 -1.32595e-05
2.0037e-05 -5.96962e-06 -6.02887e-06 -1.3256e-05
3.33612e-05 -9.98317e-06 -1.00191e-05 -7.93494e-06
3.63807e-05 -1.08969e-05 -1.09217e-05 -7.94863e-06
2.09534e-05 -6.25345e-06 -6.29998e-06 -1.32579e-05
2.66979e-05 -7.97359e-06 -8.02469e-06 -1.09209e-05
3.48707e-05 -1.04406e-05 -1.047e-05 -7.94311e-06
2.91234e-05 -8.71423e-06 -8.74678e-06 -1.09327e-05
2.79115e-05 -8.34532e-06 -8.38551e-06 -1.09279e-05
2.0037e-05 -5.96962e-06 -6.02887e-06 -1.3256e-05
1.81911e-05 -5.38693e-06 -5.4875e-06 -1.32504e-05
3.03398e-05 -9.06264e-06 -9.11879e-06 -7.90831e-06
3.33612e-05 -9.98317e-06 -1.00191e-05 -7.93494e-06
1.91164e-05 -5.68117e-06 -5.75795e-06 -1.32536e-05
2.4261e-05 -7.21778e-06 -7.30422e-06 -1.08985e-05
3.18512e-05 -9.52418e-06 -9.56871e-06 -7.92367e-06
2.66979e-05 -7.97359e-06 -8.02469e-06 -1.09209e-05
2.54814e-05 -7.59796e-06 -7.66432e-06 -1.09112e-05
1.81911e-05 -5.38693e-06 -5.4875e-06 -1.32504e-05
1.63097e-05 -4.77368e-06 -4.944e-06 -1.32436e-05
2.73185e-05 -8.12912e-06 -8.22403e-06 -7.85561e-06
3.03398e-05 -9.06264e-06 -9.11879e-06 -7.90831e-06
1.72569e-05 -5.08538e-06 -5.21637e-06 -1.32469e-05
2.18026e-05 -6.43723e-06 -6.58516e-06 -1.08583e-05
2.88285e-05 -8.59766e-06 -8.67035e-06 -7.8865e-06
2.4261e-05 -7.21778e-06 -7.30422e-06 -1.08985e-05
2.30352e-05 -6.83196e-06 -6.94424e-06 -1.08818e-05
1.63097e-05 -4.77368e-06 -4.944e-06 -1.32436e-05
1.43746e-05 -4.11042e-06 -4.39894e-06 -1.32346e-05
2.42847e-05 -7.17546e-06 -7.33252e-06 -7.76359e-06
2.73185e-05 -8.12912e-06 -8.22403e-06 -7.85561e-06
1.5349e-05 -4.44907e-06 -4.67141e-06 -1.32397e-05
1.93015e-05 -5.61197e-06 -5.86693e-06 -1.07902e-05
2.58054e-05 -7.65633e-06 -7.77818e-06 -7.8154e-06
2.18026e-05 -6.43723e-06 -6.58516e-06 -1.08583e-05
2.05593e-05 -6.03054e-06 -6.22662e-06 -1.08274e-05
1.43746e-05 -4.11042e-06 -4.39894e-06 -1.32346e-05
1.23357e-05 -3.38088e-06 -3.8378e-06 -1.3235e-05
2.12425e-05 -6.18398e-06 -6.45367e-06 -7.59848e-06
2.42847e-05 -7.17546e-06 -7.33252e-06 -7.76359e-06
1.33743e-05 -3.75614e-06 -4.12205e-06 -1.3232e-05
1.67304e-05 -4.72721e-06 -5.14421e-06 -1.06829e-05
2.27619e-05 -6.68347e-06 -6.89073e-06 -7.69347e-06
1.93015e-05 -5.61197e-06 -5.86693e-06 -1.07902e-05
1.80261e-05 -5.18046e-06 -5.50529e-06 -1.07444e-05
1.23357e-05 -3.38088e-06 -3.8378e-06 -1.3235e-05
1.01713e-05 -2.56759e-06 -3.25874e-06 -1.3252e-05
1.8135e-05 -5.15027e-06 -5.56487e-06 -7.34736e-06
2.12425e-05 -6.18398e-06 -6.45367e-06 -7.59848e-06
1.12659e-05 -2.98156e-06 -3.55041e-06 -1.32415e-05
1.40262e-05 -3.74651e-06 -4.40557e-06 -1.05361e-05
1.97069e-05 -5.67807e-06 -6.01234e-06 -7.48378e-06
1.67304e-05 -4.72721e-06 -5.14421e-06 -1.06829e-05
1.54013e-05 -4.24575e-06 -4.78097e-06 -1.06092e-05
1.01713e-05 -2.56759e-06 -3.25874e-06 -1.3252e-05
7.80212e-06 -1.72748e-06 -2.60342e-06 -1.33485e-05
1.49657e-05 -4.0311e-06 -4.68627e-06 -6.95957e-06
1.8135e-05 -5.15027e-06 -5.56487e-06 -7.34736e-06
9.02558e-06 -2.14924e-06 -2.947e-06 -1.32827e-05
1.11471e-05 -2.70537e-06 -3.6179e-06 -1.03765e-05
1.65477e-05 -4.59104e-06 -5.12426e-06 -7.175e-06
1.40262e-05 -3.74651e-06 -4.40557e-06 -1.05361e-05
1.26073e-05 -3.23819e-06 -4.01533e-06 -1.04637e-05
7.80212e-06 -1.72748e-06 -2.60342e-06 -1.33485e-05
5.34474e-06 -9.99056e-07 -1.86244e-06 -1.35684e-05
1.15095e-05 -2.91682e-06 -3.68259e-06 -6.54172e-06
1.49657e-05 -4.0311e-06 -4.68627e-06 -6.95957e-06
6.55662e-06 -1.31731e-06 -2.24542e-06 -1.34411e-05
7.95759e-06 -1.64297e-06 -2.70627e-06 -1.03389e-05
1.33121e-05 -3.49178e-06 -4.2087e-06 -6.74278e-06
1.11471e-05 -2.70537e-06 -3.6179e-06 -1.03765e-05
9.60935e-06 -2.14693e-06 -3.19818e-06 -1.03094e-05
5.34474e-06 -9.99056e-07 -1.86244e-06 -1.35684e-05
2.95813e-06 -9.83378e-07 -8.46322e-07 -1.40603e-05
7.78703e-06 -1.81112e-06 -2.5611e-06 -6.26968e-06
1.15095e-05 -2.91682e-06 -3.68259e-06 -6.54172e-06
4.15056e-06 -8.64163e-07 -1.40846e-06 -1.3767e-05
4.64255e-06 -1.13266e-06 -1.50424e-06 -1.07152e-05
9.64039e-06 -2.28725e-06 -3.15135e-06 -6.36094e-06
7.95759e-06 -1.64297e-06 -2.70627e-06 -1.03389e-05
6.27446e-06 -1.28545e-06 -2.13814e-06 -1.04823e-05
2.95813e-06 -9.83378e-07 -8.46322e-07 -1.40603e-05
1.6928e-06 -2.74934e-06 4.52804e-07 -1.44405e-05
3.45596e-06 -1.90783e-06 -6.63482e-07 -7.33082e-06
7.78703e-06 -1.81112e-06 -2.5611e-06 -6.26968e-06
2.04602e-06 -1.48513e-06 -2.4038e-07 -1.43191e-05
1.61303e-06 -2.4472e-06 3.57501e-07 -1.20734e-05
5.78152e-06 -1.69442e-06 -1.75161e-06 -6.51895e-06
4.64255e-06 -1.13266e-06 -1.50424e-06 -1.07152e-05
3.08202e-06 -1.33527e-06 -7.48608e-07 -1.11603e-05
1.6928e-06 -2.74934e-06 4.52804e-07 -1.44405e-05
2.32095e-06 -8.29254e-06 2.55925e-06 -1.32746e-05
1.42149e-06 -6.90564e-06 2.35035e-06 -1.12568e-05
3.45596e-06 -1.90783e-06 -6.63482e-07 -7.33082e-06
1.81295e-06 -5.08832e-06 1.40373e-06 -1.42372e-05
2.49907e-06 -9.42467e-06 2.96812e-06 -1.31628e-05
1.70455e-06 -2.85487e-06 4.92994e-07 -8.72997e-06
1.61303e-06 -2.4472e-06 3.57501e-07 -1.20734e-05
1.12293e-06 -5.04902e-06 1.68261e-06 -1.30086e-05
2.32095e-06 -8.29254e-06 2.55925e-06 -1.32746e-05
4.20075e-06 -1.50318e-05 4.64189e-06 -7.02482e-06
9.59101e-06 -3.0438e-05 8.93441e-06 -1.14285e-05
1.42149e-06 -6.90564e-06 2.35035e-06 -1.12568e-05
3.14186e-06 -1.19089e-05 3.7573e-06 -1.09747e-05
7.65537e-06 -2.20161e-05 6.15462e-06 -6.63792e-06
3.68942e-06 -1.6256e-05 5.38566e-06 -1.32929e-05
2.49907e-06 -9.42467e-06 2.96812e-06 -1.31628e-05
4.94276e-06 -1.54939e-05 4.5219e-06 -1.14038e-05
0.000507097 2.22045e-16 -0.000217327 -2.9264e-05
0.000570837 -0.000113233 -0.000196116 -4.26281e-05
0.000795992 -0.000252289 -0.000233015 1.44787e-05
0.00111621 -1.11022e-16 -0.000478376 -0.000379344
0.000542835 -5.34465e-05 -0.000209738 -4.94458e-05
0.000722341 -0.000175491 -0.000234364 -5.5206e-05
0.000885461 -0.0002811 -0.000259012 -5.35363e-05
0.000596242 0 -0.000255532 -9.21472e-05
0.000696844 -0.000118692 -0.00024778 -8.64653e-05
0.000570837 -0.000113233 -0.000196116 -4.26281e-05
0.000593163 -0.00016074 -0.000185324 -2.0357e-05
0.000786395 -0.00024367 -0.000232597 4.52911e-06
0.000795992 -0.000252289 -0.000233015 1.44787e-05
0.000588484 -0.000146735 -0.000189321 -3.07823e-05
0.000706279 -0.00020592 -0.00021444 -9.34808e-06
0.000784149 -0.000232811 -0.000236288 6.37847e-06
0.000722341 -0.000175491 -0.000234364 -5.5206e-05
0.000712294 -0.000198879 -0.000220035 -2.24418e-05
0.000593163 -0.00016074 -0.000185324 -2.0357e-05
0.000590332 -0.0001741 -0.000178385 -7.61462e-06
0.000797434 -0.00023675 -0.000240293 2.10435e-06
0.000786395 -0.00024367 -0.000232597 4.52911e-06
0.000591552 -0.000169049 -0.000181073 -1.19992e-05
0.000698858 -0.000209585 -0.000209689 -1.00933e-06
0.0007938 -0.000243139 -0.000235998 4.5808e-06
0.000706279 -0.00020592 -0.00021444 -9.34808e-06
0.000702425 -0.000208549 -0.000211661 -4.56213e-06
0.000590332 -0.0001741 -0.000178385 -7.61462e-06
0.000586181 -0.000175957 -0.00017581 -4.75153e-06
0.000801963 -0.000241338 -0.000240268 -2.3778e-07
0.000797434 -0.00023675 -0.000240293 2.10435e-06
0.000588782 -0.000175885 -0.000176956 -5.69364e-06
0.000694771 -0.000209164 -0.000208117 2.19899e-07
0.000799442 -0.000237543 -0.000240814 -4.10446e-07
0.000698858 -0.000209585 -0.000209689 -1.00933e-06
0.000696126 -0.000209585 -0.000208517 5.67265e-07
0.000586181 -0.000175957 -0.00017581 -4.75153e-06
0.000581381 -0.000175675 -0.000173874 -4.60691e-06
0.000804289 -0.000240471 -0.000241636 1.62642e-07
0.000801963 -0.000241338 -0.000240268 -2.3778e-07
0.000583417 -0.000175876 -0.000174661 -4.39696e-06
0.000692732 -0.000208499 -0.000207528 -9.92128e-07
0.000803934 -0.000241708 -0.000240954 4.04878e-07
0.000694771 -0.000209164 -0.000208117 2.19899e-07
0.000693929 -0.000208816 -0.000207906 -5.62198e-07
0.000581381 -0.000175675 -0.000173874 -4.60691e-06
0.000577737 -0.000174395 -0.000172861 -5.55907e-06
0.000803411 -0.000241158 -0.000240965 -1.48166e-07
0.000804289 -0.000240471 -0.000241636 1.62642e-07
0.000579634 -0.000175118 -0.000173364 -5.1067e-06
0.000690212 -0.000207596 -0.000206836 -2.1145e-06
0.000803844 -0.000240564 -0.000241406 -2.54218e-07
0.000692732 -0.000208499 -0.000207528 -9.92128e-07
0.000691414 -0.00020808 -0.000207143 -1.48926e-06
0.000577737 -0.000174395 -0.000172861 -5.55907e-06
0.000574213 -0.00017314 -0.000171889 -6.36389e-06
0.000801458 -0.000240275 -0.000240507 7.99143e-09
0.000803411 -0.000241158 -0.000240965 -1.48166e-07
0.00057587 -0.000173742 -0.00017234 -5.96197e-06
0.00068754 -0.000206624 -0.000206107 -3.00185e-06
0.000802709 -0.000240923 -0.000240765 4.66057e-08
0.000690212 -0.000207596 -0.000206836 -2.1145e-06
0.000688972 -0.000207111 -0.000206512 -2.64298e-06
0.000574213 -0.00017314 -0.000171889 -6.36389e-06
0.00057105 -0.000171917 -0.000171057 -7.02246e-06
0.000798291 -0.000239538 -0.000239465 -4.81457e-08
0.000801458 -0.000240275 -0.000240507 7.99143e-09
0.000572647 -0.000172525 -0.000171481 -6.73627e-06
0.00068445 -0.000205599 -0.000205222 -3.57475e-06
0.000799903 -0.000239866 -0.000240016 -8.12737e-08
0.00068754 -0.000206624 -0.000206107 -3.00185e-06
0.000686004 -0.000206118 -0.000205665 -3.3081e-06
0.00057105 -0.000171917 -0.000171057 -7.02246e-06
0.000567926 -0.000170811 -0.000170192 -7.42426e-06
0.000794701 -0.000238405 -0.000238412 -5.77042e-09
0.000798291 -0.000239538 -0.000239465 -4.81457e-08
0.000569463 -0.000171349 -0.00017062 -7.24294e-06
0.000681178 -0.000204542 -0.000204272 -3.91581e-06
0.000796573 -0.000239021 -0.000238951 1.87729e-09
0.00068445 -0.000205599 -0.000205222 -3.57475e-06
0.00068285 -0.000205073 -0.000204762 -3.77537e-06
0.000567926 -0.000170811 -0.000170192 -7.42426e-06
0.000564885 -0.000169776 -0.000169332 -7.67886e-06
0.000790748 -0.000237263 -0.000237208 -1.34672e-08
0.000794701 -0.000238405 -0.000238412 -5.77042e-09
0.000566409 -0.000170287 -0.000169767 -7.57137e-06
0.000677731 -0.000203471 -0.000203254 -4.11278e-06
0.000792738 -0.000237828 -0.000237819 -2.3675e-08
0.000681178 -0.000204542 -0.000204272 -3.91581e-06
0.000679461 -0.000204008 -0.000203766 -4.0269e-06
0.000564885 -0.000169776 -0.000169332 -7.67886e-06
0.000561851 -0.000168797 -0.000168451 -7.81644e-06
0.000786664 -0.000236028 -0.000235987 -3.09435e-09
0.000790748 -0.000237263 -0.000237208 -1.34672e-08
0.000563363 -0.000169281 -0.000168892 -7.75705e-06
0.00067421 -0.00020239 -0.000202209 -4.2156e-06
0.000788724 -0.000236656 -0.000236601 -1.39005e-09
0.000677731 -0.000203471 -0.000203254 -4.11278e-06
0.000675982 -0.000202931 -0.000202736 -4.17353e-06
0.000561851 -0.000168797 -0.000168451 -7.81644e-06
0.000558832 -0.00016785 -0.000167564 -7.89299e-06
0.000782491 -0.000234783 -0.000234732 -3.29554e-09
0.000786664 -0.000236028 -0.000235987 -3.09435e-09
0.000560342 -0.000168321 -0.000168009 -7.86141e-06
0.000670634 -0.000201305 -0.000201141 -4.26976e-06
0.000784582 -0.000235405 -0.000235362 -6.22628e-09
0.00067421 -0.00020239 -0.000202209 -4.2156e-06
0.000672424 -0.000201848 -0.000201676 -4.2471e-06
0.000558832 -0.00016785 -0.000167564 -7.89299e-06
0.000555813 -0.000166923 -0.000166667 -7.93055e-06
0.000778286 -0.00023352 -0.000233471 -9.90859e-10
0.000782491 -0.000234783 -0.000234732 -3.29555e-09
0.000557322 -0.000167385 -0.000167116 -7.91487e-06
0.000667034 -0.000200218 -0.000200064 -4.29497e-06
0.000780392 -0.000234154 -0.000234102 -5.80009e-10
0.000670634 -0.000201305 -0.000201141 -4.26976e-06
0.000668837 -0.000200761 -0.000200604 -4.28488e-06
0.000555813 -0.000166923 -0.000166667 -7.93055e-06
0.000552797 -0.000166005 -0.000165768 -7.94925e-06
0.000774064 -0.000232254 -0.000232204 -6.74499e-10
0.000778286 -0.00023352 -0.000233471 -9.90859e-10
0.000554305 -0.000166463 -0.000166218 -7.94175e-06
0.00066342 -0.00019913 -0.000198982 -4.30683e-06
0.000776176 -0.000232887 -0.000232838 -1.42629e-09
0.000667034 -0.000200218 -0.000200064 -4.29497e-06
0.000665228 -0.000199674 -0.000199523 -4.30207e-06
0.000552797 -0.000166005 -0.000165768 -7.94925e-06
0.000549779 -0.000165094 -0.000164865 -7.9574e-06
0.000769836 -0.000230985 -0.000230936 -2.2975e-10
0.000774064 -0.000232254 -0.000232204 -6.74499e-10
0.000551288 -0.000165549 -0.000165317 -7.95413e-06
0.000659801 -0.000198042 -0.000197897 -4.31151e-06
0.00077195 -0.00023162 -0.00023157 -1.22701e-10
0.00066342 -0.00019913 -0.000198982 -4.30683e-06
0.000661611 -0.000198586 -0.000198439 -4.30973e-06
0.000549779 -0.000165094 -0.000164865 -7.9574e-06
0.000546761 -0.000164184 -0.000163961 -7.9609e-06
0.000765605 -0.000229716 -0.000229667 -9.88821e-11
0.000769836 -0.000230985 -0.000230936 -2.2975e-10
0.00054827 -0.000164639 -0.000164413 -7.95957e-06
0.000656178 -0.000196953 -0.000196811 -4.31328e-06
0.000767721 -0.00023035 -0.000230302 -2.6517e-10
0.000659801 -0.000198042 -0.000197897 -4.31151e-06
0.000657989 -0.000197498 -0.000197354 -4.31263e-06
0.000546761 -0.000164184 -0.000163961 -7.9609e-06
0.000543742 -0.000163276 -0.000163057 -7.9621e-06
0.000761375 -0.000228446 -0.000228398 -3.50319e-11
0.000765605 -0.000229716 -0.000229667 -9.88821e-11
0.000545252 -0.00016373 -0.000163509 -7.96166e-06
0.000652554 -0.000195865 -0.000195724 -4.31368e-06
0.00076349 -0.000229081 -0.000229033 -4.54979e-12
0.000656178 -0.000196953 -0.000196811 -4.31328e-06
0.000654366 -0.000196409 -0.000196267 -4.31357e-06
0.000543742 -0.000163276 -0.000163057 -7.9621e-06
0.000540724 -0.000162369 -0.000162152 -7.96243e-06
0.000757145 -0.000227177 -0.000227129 -2.67138e-12
0.000761375 -0.000228446 -0.000228398 -3.50319e-11
0.000542233 -0.000162822 -0.000162605 -7.96233e-06
0.00064893 -0.000194777 -0.000194637 -4.31365e-06
0.00075926 -0.000227812 -0.000227764 -3.22314e-11
0.000652554 -0.000195865 -0.000195724 -4.31368e-06
0.000650742 -0.000195321 -0.000195181 -4.31369e-06
0.000540724 -0.000162369 -0.000162152 -7.96243e-06
0.000537705 -0.000161461 -0.000161247 -7.9624e-06
0.000752916 -0.000225908 -0.00022586 -1.48173e-12
0.000757145 -0.000227177 -0.000227129 -2.67138e-12
0.000539214 -0.000161915 -0.0001617 -7.96243e-06
0.000645306 -0.000193689 -0.00019355 -4.31349e-06
0.00075503 -0.000226543 -0.000226495 7.7944e-12
0.00064893 -0.000194777 -0.000194637 -4.31365e-06
0.000647118 -0.000194233 -0.000194094 -4.31358e-06
0.000537705 -0.000161461 -0.000161247 -7.9624e-06
0.000534686 -0.000160554 -0.000160342 -7.9623e-06
0.000748686 -0.000224639 -0.000224592 3.31147e-12
0.000752916 -0.000225908 -0.00022586 -1.48173e-12
0.000536195 -0.000161008 -0.000160795 -7.96236e-06
0.000641682 -0.0001926 -0.000192464 -4.31334e-06
0.000750801 -0.000225273 -0.000225226 9.33367e-14
0.000645306 -0.000193689 -0.00019355 -4.31349e-06
0.000643494 -0.000193145 -0.000193007 -4.31341e-06
0.000534686 -0.000160554 -0.000160342 -7.9623e-06
0.000531666 -0.000159647 -0.000159437 -7.96219e-06
0.000744457 -0.00022337 -0.000223323 -4.30023e-13
0.000748686 -0.000224639 -0.000224592 3.31147e-12
0.000533176 -0.0001601 -0.00015989 -7.96224e-06
0.000638058 -0.000191512 -0.000191377 -4.31323e-06
0.000746572 -0.000224004 -0.000223957 2.42113e-12
0.000641682 -0.0001926 -0.000192464 -4.31334e-06
0.00063987 -0.000192056 -0.00019192 -4.31328e-06
0.000531666 -0.000159647 -0.000159437 -7.96219e-06
0.000528647 -0.000158739 -0.000158532 -7.9621e-06
0.000740228 -0.000222101 -0.000222054 -5.73274e-13
0.000744457 -0.00022337 -0.000223323 -4.30023e-13
0.000530157 -0.000159193 -0.000158985 -7.96214e-06
0.000634434 -0.000190424 -0.00019029 -4.31315e-06
0.000742343 -0.000222735 -0.000222689 -2.53851e-13
0.000638058 -0.000191512 -0.000191377 -4.31323e-06
0.000636246 -0.000190968 -0.000190833 -4.31318e-06
0.000528647 -0.000158739 -0.000158532 -7.9621e-06
0.000525628 -0.000157832 -0.000157627 -7.96204e-06
0.000735999 -0.000220832 -0.000220786 -2.45435e-12
0.000740228 -0.000222101 -0.000222054 -5.73274e-13
0.000527138 -0.000158286 -0.000158079 -7.96207e-06
0.00063081 -0.000189336 -0.000189203 -4.31309e-06
0.000738114 -0.000221467 -0.00022142 -1.61074e-12
0.000634434 -0.000190424 -0.00019029 -4.31315e-06
0.000632622 -0.00018988 -0.000189746 -4.31312e-06
0.000525628 -0.000157832 -0.000157627 -7.96204e-06
0.000522609 -0.000156925 -0.000156722 -7.96199e-06
0.00073177 -0.000219563 -0.000219517 -2.83019e-12
0.000735999 -0.000220832 -0.000220786 -2.45435e-12
0.000524118 -0.000157378 -0.000157174 -7.96201e-06
0.000627186 -0.000188248 -0.000188116 -4.31305e-06
0.000733885 -0.000220198 -0.000220152 -2.51158e-12
0.00063081 -0.000189336 -0.000189203 -4.31309e-06
0.000628998 -0.000188792 -0.00018866 -4.31307e-06
0.000522609 -0.000156925 -0.000156722 -7.96199e-06
0.000519589 -0.000156017 -0.000155817 -7.96195e-06
0.000727541 -0.000218294 -0.000218249 -3.46085e-12
0.00073177 -0.000219563 -0.000219517 -2.8302e-12
0.000521099 -0.000156471 -0.000156269 -7.96196e-06
0.000623562 -0.00018716 -0.000187029 -4.31302e-06
0.000729656 -0.000218929 -0.000218883 -3.24694e-12
0.000627186 -0.000188248 -0.000188116 -4.31305e-06
0.000625374 -0.000187704 -0.000187573 -4.31304e-06
0.000519589 -0.000156017 -0.000155817 -7.96195e-06
0.00051657 -0.00015511 -0.000154912 -7.96191e-06
0.000723312 -0.000217025 -0.00021698 -3.61146e-12
0.000727541 -0.000218294 -0.000218249 -3.46085e-12
0.00051808 -0.000155564 -0.000155364 -7.96193e-06
0.000619938 -0.000186071 -0.000185943 -4.313e-06
0.000725427 -0.00021766 -0.000217614 -3.5003e-12
0.000623562 -0.00018716 -0.000187029 -4.31302e-06
0.00062175 -0.000186615 -0.000186486 -4.31301e-06
0.00051657 -0.00015511 -0.000154912 -7.96191e-06
0.000513551 -0.000154203 -0.000154006 -7.96189e-06
0.000719083 -0.000215756 -0.000215712 -3.78006e-12
0.000723312 -0.000217025 -0.00021698 -3.61395e-12
0.000515061 -0.000154656 -0.000154459 -7.9619e-06
0.000616313 -0.000184983 -0.000184856 -4.31298e-06
0.000721198 -0.000216391 -0.000216346 -3.73554e-12
0.000619938 -0.000186071 -0.000185943 -4.313e-06
0.000618125 -0.000185527 -0.000185399 -4.31299e-06
0.000513551 -0.000154203 -0.000154006 -7.96189e-06
0.000510532 -0.000153295 -0.000153101 -7.96186e-06
0.000714855 -0.000214487 -0.000214443 -3.80721e-12
0.000719083 -0.000215756 -0.000215712 -3.78006e-12
0.000512041 -0.000153749 -0.000153554 -7.96187e-06
0.000612689 -0.000183895 -0.000183769 -4.31297e-06
0.000716969 -0.000215122 -0.000215077 -3.7819e-12
0.000616313 -0.000184983 -0.000184856 -4.31298e-06
0.000614501 -0.000184439 -0.000184312 -4.31298e-06
0.000510532 -0.000153295 -0.000153101 -7.96186e-06
0.000507512 -0.000152388 -0.000152196 -7.96184e-06
0.000710626 -0.000213219 -0.000213174 -3.8316e-12
0.000714855 -0.000214487 -0.000214443 -3.81135e-12
0.000509022 -0.000152842 -0.000152649 -7.96185e-06
0.000609065 -0.000182807 -0.000182682 -4.31295e-06
0.00071274 -0.000213853 -0.000213809 -3.82841e-12
0.000612689 -0.000183895 -0.000183769 -4.31297e-06
0.000610877 -0.000183351 -0.000183226 -4.31296e-06
0.000507512 -0.000152388 -0.000152196 -7.96184e-06
0.000504493 -0.000151481 -0.000151291 -7.96181e-06
0.000706397 -0.00021195 -0.000211906 -3.83042e-12
0.000710626 -0.000213219 -0.000213174 -3.8316e-12
0.000506003 -0.000151934 -0.000151744 -7.96182e-06
0.000605441 -0.000181719 -0.000181595 -4.31294e-06
0.000708511 -0.000212584 -0.00021254 -3.83286e-12
0.000609065 -0.000182807 -0.000182682 -4.31295e-06
0.000607253 -0.000182263 -0.000182139 -4.31295e-06
0.000504493 -0.000151481 -0.000151291 -7.96181e-06
0.000501474 -0.000150573 -0.000150386 -7.96179e-06
0.000702168 -0.000210681 -0.000210637 -3.82121e-12
0.000706397 -0.00021195 -0.000211906 -3.83041e-12
0.000502983 -0.000151027 -0.000150838 -7.9618e-06
0.000601817 -0.000180631 -0.000180509 -4.31292e-06
0.000704282 -0.000211315 -0.000211272 -3.83e-12
0.000605441 -0.000181719 -0.000181595 -4.31294e-06
0.000603629 -0.000181175 -0.000181052 -4.31293e-06
0.000501474 -0.000150573 -0.000150386 -7.96179e-06
0.000498454 -0.000149666 -0.000149481 -7.96177e-06
0.000697939 -0.000209412 -0.000209369 -3.80224e-12
0.000702168 -0.000210681 -0.000210637 -3.82121e-12
0.000499964 -0.00015012 -0.000149933 -7.96178e-06
0.000598193 -0.000179542 -0.000179422 -4.31291e-06
0.000700053 -0.000210046 -0.000210003 -3.81057e-12
0.000601817 -0.000180631 -0.000180509 -4.31292e-06
0.000600005 -0.000180086 -0.000179965 -4.31292e-06
0.000498454 -0.000149666 -0.000149481 -7.96177e-06
0.000495435 -0.000148759 -0.000148576 -7.96175e-06
0.00069371 -0.000208143 -0.0002081 -3.79522e-12
0.000697939 -0.000209412 -0.000209369 -3.80852e-12
0.000496945 -0.000149212 -0.000149028 -7.96176e-06
0.000594569 -0.000178454 -0.000178335 -4.3129e-06
0.000695824 -0.000208777 -0.000208734 -3.8001e-12
0.000598193 -0.000179542 -0.000179422 -4.31291e-06
0.000596381 -0.000178998 -0.000178878 -4.3129e-06
0.000495435 -0.000148759 -0.000148576 -7.96175e-06
0.000492416 -0.000147851 -0.00014767 -7.96173e-06
0.000689481 -0.000206874 -0.000206832 -3.76643e-12
0.00069371 -0.000208143 -0.0002081 -3.79522e-12
0.000493925 -0.000148305 -0.000148123 -7.96174e-06
0.000590945 -0.000177366 -0.000177248 -4.31288e-06
0.000691595 -0.000207508 -0.000207466 -3.78359e-12
0.000594569 -0.000178454 -0.000178335 -4.3129e-06
0.000592757 -0.00017791 -0.000177791 -4.31289e-06
0.000492416 -0.000147851 -0.00014767 -7.96173e-06
0.000489396 -0.000146944 -0.000146765 -7.96171e-06
0.000685252 -0.000205605 -0.000205563 -3.75099e-12
0.000689481 -0.000206874 -0.000206832 -3.76644e-12
0.000490906 -0.000147398 -0.000147218 -7.96172e-06
0.000587321 -0.000176278 -0.000176161 -4.31287e-06
0.000687367 -0.000206239 -0.000206197 -3.76386e-12
0.000590945 -0.000177366 -0.000177248 -4.31288e-06
0.000589133 -0.000176822 -0.000176705 -4.31288e-06
0.000489396 -0.000146944 -0.000146765 -7.96171e-06
0.000486377 -0.000146037 -0.00014586 -7.96169e-06
0.000681023 -0.000204336 -0.000204294 -3.73197e-12
0.000685252 -0.000205605 -0.000205563 -3.75099e-12
0.000487887 -0.00014649 -0.000146313 -7.9617e-06
0.000583697 -0.00017519 -0.000175074 -4.31286e-06
0.000683138 -0.000204971 -0.000204929 -3.73712e-12
0.000587321 -0.000176278 -0.000176161 -4.31287e-06
0.000585509 -0.000175734 -0.000175618 -4.31287e-06
0.000486377 -0.000146037 -0.00014586 -7.96169e-06
0.000483357 -0.000145129 -0.000144955 -7.96166e-06
0.000676794 -0.000203067 -0.000203026 -3.70231e-12
0.000681023 -0.000204336 -0.000204294 -3.73493e-12
0.000484867 -0.000145583 -0.000145407 -7.96167e-06
0.000580073 -0.000174102 -0.000173988 -4.31285e-06
0.000678909 -0.000203702 -0.00020366 -3.70961e-12
0.000583697 -0.00017519 -0.000175074 -4.31286e-06
0.000581885 -0.000174646 -0.000174531 -4.31285e-06
0.000483357 -0.000145129 -0.000144955 -7.96166e-06
0.000480338 -0.000144222 -0.00014405 -7.96164e-06
0.000672565 -0.000201798 -0.000201757 -3.68188e-12
0.000676794 -0.000203067 -0.000203026 -3.70231e-12
0.000481848 -0.000144676 -0.000144502 -7.96165e-06
0.000576448 -0.000173013 -0.000172901 -4.31283e-06
0.00067468 -0.000202433 -0.000202392 -3.69915e-12
0.000580073 -0.000174102 -0.000173988 -4.31285e-06
0.000578261 -0.000173558 -0.000173444 -4.31284e-06
0.000480338 -0.000144222 -0.00014405 -7.96164e-06
0.000477319 -0.000143315 -0.000143144 -7.96162e-06
0.000668336 -0.000200529 -0.000200489 -3.66599e-12
0.000672565 -0.000201798 -0.000201757 -3.68554e-12
0.000478828 -0.000143769 -0.000143597 -7.96163e-06
0.000572824 -0.000171925 -0.000171814 -4.31282e-06
0.000670451 -0.000201164 -0.000201123 -3.67225e-12
0.000576448 -0.000173013 -0.000172901 -4.31283e-06
0.000574636 -0.000172469 -0.000172357 -4.31283e-06
0.000477319 -0.000143315 -0.000143144 -7.96162e-06
0.000474299 -0.000142408 -0.000142239 -7.9616e-06
0.000664108 -0.00019926 -0.00019922 -3.63048e-12
0.000668336 -0.000200529 -0.000200489 -3.66599e-12
0.000475809 -0.000142861 -0.000142692 -7.96161e-06
0.0005692 -0.000170837 -0.000170727 -4.31281e-06
0.000666222 -0.000199895 -0.000199855 -3.64937e-12
0.000572824 -0.000171925 -0.000171814 -4.31282e-06
0.000571012 -0.000171381 -0.00017127 -4.31281e-06
0.000474299 -0.000142408 -0.000142239 -7.9616e-06
0.00047128 -0.0001415 -0.000141334 -7.96158e-06
0.000659879 -0.000197991 -0.000197952 -3.60483e-12
0.000664108 -0.00019926 -0.00019922 -3.63048e-12
0.00047279 -0.000141954 -0.000141787 -7.96159e-06
0.000565576 -0.000169749 -0.00016964 -4.31279e-06
0.000661993 -0.000198626 -0.000198586 -3.61927e-12
0.0005692 -0.000170837 -0.000170727 -4.31281e-06
0.000567388 -0.000170293 -0.000170184 -4.3128e-06
0.00047128 -0.0001415 -0.000141334 -7.96158e-06
0.00046826 -0.000140593 -0.000140429 -7.96156e-06
0.00065565 -0.000196722 -0.000196683 -3.58697e-12
0.000659879 -0.000197991 -0.000197952 -3.61809e-12
0.00046977 -0.000141047 -0.000140881 -7.96157e-06
0.000561952 -0.000168661 -0.000168553 -4.31278e-06
0.000657764 -0.000197357 -0.000197317 -3.60499e-12
0.000565576 -0.000169749 -0.00016964 -4.31279e-06
0.000563764 -0.000169205 -0.000169097 -4.31279e-06
0.00046826 -0.000140593 -0.000140429 -7.96156e-06
0.000465241 -0.000139686 -0.000139524 -7.96154e-06
0.000651421 -0.000195453 -0.000195415 -3.56024e-12
0.00065565 -0.000196722 -0.000196683 -3.58697e-12
0.000466751 -0.000140139 -0.000139976 -7.96155e-06
0.000558328 -0.000167573 -0.000167466 -4.31277e-06
0.000653535 -0.000196088 -0.000196049 -3.57996e-12
0.000561952 -0.000168661 -0.000168553 -4.31278e-06
0.00056014 -0.000168117 -0.00016801 -4.31277e-06
0.000465241 -0.000139686 -0.000139524 -7.96154e-06
0.000462222 -0.000138778 -0.000138618 -7.96152e-06
0.000647192 -0.000194184 -0.000194146 -3.54263e-12
0.000651421 -0.000195453 -0.000195415 -3.56771e-12
0.000463731 -0.000139232 -0.000139071 -7.96153e-06
0.000554704 -0.000166484 -0.00016638 -4.31276e-06
0.000649306 -0.000194819 -0.00019478 -3.55012e-12
0.000558328 -0.000167573 -0.000167466 -4.31277e-06
0.000556516 -0.000167029 -0.000166923 -4.31276e-06
0.000462222 -0.000138778 -0.000138618 -7.96152e-06
0.000459202 -0.000137871 -0.000137713 -7.9615e-06
0.000642963 -0.000192916 -0.000192877 -3.52082e-12
0.000647192 -0.000194184 -0.000194146 -3.54263e-12
0.000460712 -0.000138325 -0.000138166 -7.96151e-06
0.000551079 -0.000165396 -0.000165293 -4.31274e-06
0.000645077 -0.00019355 -0.000193512 -3.53546e-12
0.000554704 -0.000166484 -0.00016638 -4.31276e-06
0.000552892 -0.00016594 -0.000165836 -4.31275e-06
0.000459202 -0.000137871 -0.000137713 -7.9615e-06
0.000456183 -0.000136964 -0.000136808 -7.96148e-06
0.000638734 -0.000191647 -0.000191609 -3.48878e-12
0.000642963 -0.000192916 -0.000192877 -3.51381e-12
0.000457692 -0.000137418 -0.000137261 -7.96149e-06
0.000547455 -0.000164308 -0.000164206 -4.31273e-06
0.000640848 -0.000192281 -0.000192243 -3.5053e-12
0.000551079 -0.000165396 -0.000165293 -4.31274e-06
0.000549267 -0.000164852 -0.000164749 -4.31274e-06
0.000456183 -0.000136964 -0.000136808 -7.96148e-06
0.000453163 -0.000136057 -0.000135903 -7.96146e-06
0.000634505 -0.000190378 -0.00019034 -3.46827e-12
0.000638734 -0.000191647 -0.000191609 -3.48878e-12
0.000454673 -0.00013651 -0.000136355 -7.96147e-06
0.000543831 -0.00016322 -0.000163119 -4.31272e-06
0.000636619 -0.000191012 -0.000190975 -3.4675e-12
0.000547455 -0.000164308 -0.000164206 -4.31273e-06
0.000545643 -0.000163764 -0.000163662 -4.31272e-06
0.000453163 -0.000136057 -0.000135903 -7.96146e-06
0.000450144 -0.000135149 -0.000134998 -7.96144e-06
0.000630276 -0.000189109 -0.000189072 -3.44542e-12
0.000634505 -0.000190378 -0.00019034 -3.45465e-12
0.000451653 -0.000135603 -0.00013545 -7.96145e-06
0.000540207 -0.000162132 -0.000162032 -4.3127e-06
0.00063239 -0.000189743 -0.000189706 -3.45831e-12
0.000543831 -0.00016322 -0.000163119 -4.31272e-06
0.000542019 -0.000162676 -0.000162576 -4.31271e-06
0.000450144 -0.000135149 -0.000134998 -7.96144e-06
0.000447124 -0.000134242 -0.000134092 -7.96141e-06
0.000626047 -0.00018784 -0.000187803 -3.41203e-12
0.000630276 -0.000189109 -0.000189072 -3.44542e-12
0.000448634 -0.000134696 -0.000134545 -7.96142e-06
0.000536583 -0.000161044 -0.000160945 -4.31269e-06
0.000628162 -0.000188474 -0.000188437 -3.41654e-12
0.000540207 -0.000162132 -0.000162032 -4.3127e-06
0.000538395 -0.000161588 -0.000161489 -4.3127e-06
0.000447124 -0.000134242 -0.000134092 -7.96141e-06
0.000444105 -0.000133335 -0.000133187 -7.96139e-06
0.000621818 -0.000186571 -0.000186535 -3.40754e-12
0.000626047 -0.00018784 -0.000187803 -3.40539e-12
0.000445614 -0.000133789 -0.00013364 -7.9614e-06
0.000532959 -0.000159956 -0.000159858 -4.31268e-06
0.000623933 -0.000187205 -0.000187169 -3.40719e-12
0.000536583 -0.000161044 -0.000160945 -4.31269e-06
0.000534771 -0.0001605 -0.000160402 -4.31268e-06
0.000444105 -0.000133335 -0.000133187 -7.96139e-06
0.000441085 -0.000132428 -0.000132282 -7.96137e-06
0.000617589 -0.000185302 -0.000185266 -3.36378e-12
0.000621818 -0.000186571 -0.000186535 -3.40754e-12
0.000442595 -0.000132881 -0.000132734 -7.96138e-06
0.000529334 -0.000158867 -0.000158772 -4.31266e-06
0.000619704 -0.000185936 -0.0001859 -3.38888e-12
0.000532959 -0.000159956 -0.000159858 -4.31268e-06
0.000531146 -0.000159412 -0.000159315 -4.31267e-06
0.000441085 -0.000132428 -0.000132282 -7.96137e-06
0.000438066 -0.00013152 -0.000131376 -7.96135e-06
0.00061336 -0.000184033 -0.000183997 -3.32702e-12
0.000617589 -0.000185302 -0.000185266 -3.36378e-12
0.000439575 -0.000131974 -0.000131829 -7.96136e-06
0.00052571 -0.000157779 -0.000157685 -4.31265e-06
0.000615475 -0.000184667 -0.000184632 -3.35574e-12
0.000529334 -0.000158867 -0.000158772 -4.31266e-06
0.000527522 -0.000158323 -0.000158228 -4.31266e-06
0.000438066 -0.00013152 -0.000131376 -7.96135e-06
0.000435046 -0.000130613 -0.000130471 -7.96133e-06
0.000609131 -0.000182764 -0.000182729 -3.32066e-12
0.00061336 -0.000184033 -0.000183997 -3.32904e-12
0.000436556 -0.000131067 -0.000130924 -7.96134e-06
0.000522086 -0.000156691 -0.000156598 -4.31264e-06
0.000611246 -0.000183398 -0.000183363 -3.3335e-12
0.00052571 -0.000157779 -0.000157685 -4.31265e-06
0.000523898 -0.000157235 -0.000157141 -4.31264e-06
0.000435046 -0.000130613 -0.000130471 -7.96133e-06
0.000432027 -0.000129706 -0.000129566 -7.96131e-06
0.000604902 -0.000181495 -0.00018146 -3.2988e-12
0.000609131 -0.000182764 -0.000182729 -3.31569e-12
0.000433536 -0.00013016 -0.000130019 -7.96132e-06
0.000518462 -0.000155603 -0.000155511 -4.31262e-06
0.000607017 -0.000182129 -0.000182095 -3.30324e-12
0.000522086 -0.000156691 -0.000156598 -4.31264e-06
0.000520274 -0.000156147 -0.000156054 -4.31263e-06
0.000432027 -0.000129706 -0.000129566 -7.96131e-06
0.000429007 -0.000128799 -0.000128661 -7.96129e-06
0.000600673 -0.000180226 -0.000180192 -3.26149e-12
0.000604902 -0.000181495 -0.00018146 -3.2988e-12
0.000430517 -0.000129252 -0.000129113 -7.9613e-06
0.000514838 -0.000154515 -0.000154424 -4.31261e-06
0.000602788 -0.00018086 -0.000180826 -3.28197e-12
0.000518462 -0.000155603 -0.000155511 -4.31262e-06
0.00051665 -0.000155059 -0.000154967 -4.31262e-06
0.000429007 -0.000128799 -0.000128661 -7.96129e-06
0.000425987 -0.000127892 -0.000127755 -7.96126e-06
0.000596444 -0.000178957 -0.000178923 -3.25388e-12
0.000600673 -0.000180226 -0.000180192 -3.26149e-12
0.000427497 -0.000128345 -0.000128208 -7.96128e-06
0.000511213 -0.000153427 -0.000153337 -4.3126e-06
0.000598559 -0.000179591 -0.000179557 -3.2661e-12
0.000514838 -0.000154515 -0.000154424 -4.31261e-06
0.000513025 -0.000153971 -0.000153881 -4.3126e-06
0.000425987 -0.000127892 -0.000127755 -7.96126e-06
0.000422968 -0.000126984 -0.00012685 -7.96124e-06
0.000592215 -0.000177688 -0.000177655 -3.21305e-12
0.000596444 -0.000178957 -0.000178923 -3.26092e-12
0.000424478 -0.000127438 -0.000127303 -7.96125e-06
0.000507589 -0.000152339 -0.00015225 -4.31258e-06
0.00059433 -0.000178322 -0.000178289 -3.25013e-12
0.000511213 -0.000153427 -0.000153337 -4.3126e-06
0.000509401 -0.000152883 -0.000152794 -4.31259e-06
0.000422968 -0.000126984 -0.00012685 -7.96124e-06
0.000419948 -0.000126077 -0.000125945 -7.96122e-06
0.000587986 -0.000176419 -0.000176386 -3.19695e-12
0.000592215 -0.000177688 -0.000177655 -3.23295e-12
0.000421458 -0.000126531 -0.000126397 -7.96123e-06
0.000503965 -0.000151251 -0.000151163 -4.31257e-06
0.000590101 -0.000177053 -0.00017702 -3.20884e-12
0.000507589 -0.000152339 -0.00015225 -4.31258e-06
0.000505777 -0.000151795 -0.000151707 -4.31258e-06
0.000419948 -0.000126077 -0.000125945 -7.96122e-06
0.000416929 -0.00012517 -0.000125039 -7.9612e-06
0.000583757 -0.00017515 -0.000175117 -3.1801e-12
0.000587986 -0.000176419 -0.000176386 -3.19695e-12
0.000418438 -0.000125623 -0.000125492 -7.96121e-06
0.000500341 -0.000150162 -0.000150076 -4.31256e-06
0.000585872 -0.000175785 -0.000175752 -3.20012e-12
0.000503965 -0.000151251 -0.000151163 -4.31257e-06
0.000502153 -0.000150706 -0.00015062 -4.31256e-06
0.000416929 -0.00012517 -0.000125039 -7.9612e-06
0.000413909 -0.000124263 -0.000124134 -7.96118e-06
0.000579528 -0.000173881 -0.000173849 -3.14649e-12
0.000583757 -0.00017515 -0.000175117 -3.1801e-12
0.000415419 -0.000124716 -0.000124587 -7.96119e-06
0.000496716 -0.000149074 -0.000148989 -4.31254e-06
0.000581643 -0.000174516 -0.000174483 -3.16834e-12
0.000500341 -0.000150162 -0.000150076 -4.31256e-06
0.000498528 -0.000149618 -0.000149533 -4.31255e-06
0.000413909 -0.000124263 -0.000124134 -7.96118e-06
0.000410889 -0.000123355 -0.000123229 -7.96116e-06
0.000575299 -0.000172612 -0.00017258 -3.13287e-12
0.000579528 -0.000173881 -0.000173849 -3.13821e-12
0.000412399 -0.000123809 -0.000123682 -7.96117e-06
0.000493092 -0.000147986 -0.000147903 -4.31253e-06
0.000577414 -0.000173247 -0.000173215 -3.13325e-12
0.000496716 -0.000149074 -0.000148989 -4.31254e-06
0.000494904 -0.00014853 -0.000148446 -4.31254e-06
0.000410889 -0.000123355 -0.000123229 -7.96116e-06
0.00040787 -0.000122448 -0.000122324 -7.96113e-06
0.00057107 -0.000171343 -0.000171312 -3.11782e-12
0.000575299 -0.000172612 -0.00017258 -3.14082e-12
0.00040938 -0.000122902 -0.000122776 -7.96115e-06
0.000489468 -0.000146898 -0.000146816 -4.31252e-06
0.000573185 -0.000171978 -0.000171946 -3.11703e-12
0.000493092 -0.000147986 -0.000147903 -4.31253e-06
0.00049128 -0.000147442 -0.000147359 -4.31252e-06
0.00040787 -0.000122448 -0.000122324 -7.96113e-06
0.00040485 -0.000121541 -0.000121418 -7.96111e-06
0.000566841 -0.000170074 -0.000170043 -3.07819e-12
0.00057107 -0.000171343 -0.000171312 -3.11782e-12
0.00040636 -0.000121995 -0.000121871 -7.96112e-06
0.000485844 -0.00014581 -0.000145729 -4.3125e-06
0.000568956 -0.000170709 -0.000170677 -3.08735e-12
0.000489468 -0.000146898 -0.000146816 -4.31252e-06
0.000487656 -0.000146354 -0.000146272 -4.31251e-06
0.00040485 -0.000121541 -0.000121418 -7.96111e-06
0.000401831 -0.000120634 -0.000120513 -7.96109e-06
0.000562612 -0.000168805 -0.000168775 -3.06525e-12
0.000566841 -0.000170074 -0.000170043 -3.07819e-12
0.00040334 -0.000121087 -0.000120966 -7.9611e-06
0.000482219 -0.000144722 -0.000144642 -4.31249e-06
0.000564727 -0.00016944 -0.000169409 -3.05753e-12
0.000485844 -0.00014581 -0.000145729 -4.3125e-06
0.000484031 -0.000145266 -0.000145185 -4.3125e-06
0.000401831 -0.000120634 -0.000120513 -7.96109e-06
0.000398811 -0.000119727 -0.000119608 -7.96107e-06
0.000558383 -0.000167536 -0.000167506 -3.03565e-12
0.000562612 -0.000168805 -0.000168775 -3.05862e-12
0.000400321 -0.00012018 -0.00012006 -7.96108e-06
0.000478595 -0.000143634 -0.000143555 -4.31247e-06
0.000560498 -0.000168171 -0.00016814 -3.04081e-12
0.000482219 -0.000144722 -0.000144642 -4.31249e-06
0.000480407 -0.000144178 -0.000144098 -4.31248e-06
0.000398811 -0.000119727 -0.000119608 -7.96107e-06
0.000395791 -0.00011882 -0.000118702 -7.96105e-06
0.000554154 -0.000166267 -0.000166237 -3.00644e-12
0.000558383 -0.000167536 -0.000167506 -3.0217e-12
0.000397301 -0.000119273 -0.000119155 -7.96106e-06
0.000474971 -0.000142546 -0.000142468 -4.31246e-06
0.000556269 -0.000166902 -0.000166872 -3.02415e-12
0.000478595 -0.000143634 -0.000143555 -4.31247e-06
0.000476783 -0.00014309 -0.000143011 -4.31247e-06
0.000395791 -0.00011882 -0.000118702 -7.96105e-06
0.000392772 -0.000117912 -0.000117797 -7.96103e-06
0.000549925 -0.000164998 -0.000164969 -2.98289e-12
0.000554154 -0.000166267 -0.000166237 -3.00644e-12
0.000394281 -0.000118366 -0.000118249 -7.96104e-06
0.000471346 -0.000141457 -0.000141381 -4.31245e-06
0.00055204 -0.000165633 -0.000165603 -2.99387e-12
0.000474971 -0.000142546 -0.000142468 -4.31246e-06
0.000473159 -0.000142001 -0.000141924 -4.31245e-06
0.000392772 -0.000117912 -0.000117797 -7.96103e-06
0.000389752 -0.000117005 -0.000116891 -7.961e-06
0.000545696 -0.000163729 -0.0001637 -2.95923e-12
0.000549925 -0.000164998 -0.000164969 -2.98289e-12
0.000391262 -0.000117459 -0.000117344 -7.96101e-06
0.000467722 -0.000140369 -0.000140294 -4.31243e-06
0.000547811 -0.000164364 -0.000164335 -2.96495e-12
0.000471346 -0.000141457 -0.000141381 -4.31245e-06
0.000469534 -0.000140913 -0.000140838 -4.31244e-06
0.000389752 -0.000117005 -0.000116891 -7.961e-06
0.000386732 -0.000116098 -0.000115986 -7.96098e-06
0.000541467 -0.00016246 -0.000162432 -2.93738e-12
0.000545696 -0.000163729 -0.0001637 -2.95924e-12
0.000388242 -0.000116552 -0.000116439 -7.96099e-06
0.000464098 -0.000139281 -0.000139207 -4.31242e-06
0.000543582 -0.000163095 -0.000163066 -2.95207e-12
0.000467722 -0.000140369 -0.000140294 -4.31243e-06
0.00046591 -0.000139825 -0.000139751 -4.31243e-06
0.000386732 -0.000116098 -0.000115986 -7.96098e-06
0.000383713 -0.000115191 -0.000115081 -7.96096e-06
0.000537238 -0.000161191 -0.000161163 -2.92743e-12
0.000541467 -0.00016246 -0.000162432 -2.95068e-12
0.000385222 -0.000115644 -0.000115533 -7.96097e-06
0.000460473 -0.000138193 -0.00013812 -4.31241e-06
0.000539353 -0.000161826 -0.000161797 -2.93091e-12
0.000464098 -0.000139281 -0.000139207 -4.31242e-06
0.000462286 -0.000138737 -0.000138664 -4.31241e-06
0.000383713 -0.000115191 -0.000115081 -7.96096e-06
0.000380693 -0.000114284 -0.000114175 -7.96094e-06
0.000533009 -0.000159922 -0.000159895 -2.89657e-12
0.000537238 -0.000161191 -0.000161163 -2.92743e-12
0.000382203 -0.000114737 -0.000114628 -7.96095e-06
0.000456849 -0.000137105 -0.000137033 -4.31239e-06
0.000535124 -0.000160557 -0.000160529 -2.89064e-12
0.000460473 -0.000138193 -0.00013812 -4.31241e-06
0.000458661 -0.000137649 -0.000137577 -4.3124e-06
0.000380693 -0.000114284 -0.000114175 -7.96094e-06
0.000377673 -0.000113377 -0.00011327 -7.96092e-06
0.00052878 -0.000158653 -0.000158626 -2.86313e-12
0.000533009 -0.000159922 -0.000159895 -2.89657e-12
0.000379183 -0.00011383 -0.000113723 -7.96093e-06
0.000453225 -0.000136017 -0.000135946 -4.31238e-06
0.000530895 -0.000159288 -0.00015926 -2.87664e-12
0.000456849 -0.000137105 -0.000137033 -4.31239e-06
0.000455037 -0.000136561 -0.00013649 -4.31239e-06
0.000377673 -0.000113377 -0.00011327 -7.96092e-06
0.000374653 -0.000112469 -0.000112365 -7.96089e-06
0.000524551 -0.000157384 -0.000157357 -2.85167e-12
0.00052878 -0.000158653 -0.000158626 -2.87842e-12
0.000376163 -0.000112923 -0.000112817 -7.9609e-06
0.0004496 -0.000134929 -0.000134859 -4.31237e-06
0.000526666 -0.000158019 -0.000157992 -2.86135e-12
0.000453225 -0.000136017 -0.000135946 -4.31238e-06
0.000451413 -0.000135473 -0.000135403 -4.31237e-06
0.000374653 -0.000112469 -0.000112365 -7.96089e-06
0.000371634 -0.000111562 -0.000111459 -7.96087e-06
0.000520322 -0.000156115 -0.000156089 -2.83018e-12
0.000524551 -0.000157384 -0.000157357 -2.84638e-12
0.000373144 -0.000112016 -0.000111912 -7.96088e-06
0.000445976 -0.000133841 -0.000133772 -4.31235e-06
0.000522437 -0.00015675 -0.000156723 -2.84358e-12
0.0004496 -0.000134929 -0.000134859 -4.31237e-06
0.000447788 -0.000134385 -0.000134316 -4.31236e-06
0.000371634 -0.000111562 -0.000111459 -7.96087e-06
0.000368614 -0.000110655 -0.000110554 -7.96085e-06
0.000516093 -0.000154846 -0.00015482 -2.81026e-12
0.000520322 -0.000156115 -0.000156089 -2.83018e-12
0.000370124 -0.000111109 -0.000111006 -7.96086e-06
0.000442352 -0.000132753 -0.000132685 -4.31234e-06
0.000518208 -0.000155481 -0.000155455 -2.83649e-12
0.000445976 -0.000133841 -0.000133772 -4.31235e-06
0.000444164 -0.000133297 -0.000133229 -4.31235e-06
0.000368614 -0.000110655 -0.000110554 -7.96085e-06
0.000365594 -0.000109748 -0.000109648 -7.96083e-06
0.000511864 -0.000153577 -0.000153552 -2.77579e-12
0.000516093 -0.000154846 -0.00015482 -2.81026e-12
0.000367104 -0.000110202 -0.000110101 -7.96084e-06
0.000438727 -0.000131664 -0.000131598 -4.31232e-06
0.000513979 -0.000154212 -0.000154186 -2.80135e-12
0.000442352 -0.000132753 -0.000132685 -4.31234e-06
0.00044054 -0.000132209 -0.000132142 -4.31233e-06
0.000365594 -0.000109748 -0.000109648 -7.96083e-06
0.000362574 -0.000108841 -0.000108743 -7.96081e-06
0.000507635 -0.000152308 -0.000152283 -2.75374e-12
0.000511864 -0.000153577 -0.000153552 -2.76917e-12
0.000364084 -0.000109294 -0.000109196 -7.96082e-06
0.000435103 -0.000130576 -0.000130511 -4.31231e-06
0.00050975 -0.000152943 -0.000152917 -2.76795e-12
0.000438727 -0.000131664 -0.000131598 -4.31232e-06
0.000436915 -0.00013112 -0.000131055 -4.31232e-06
0.000362574 -0.000108841 -0.000108743 -7.96081e-06
0.000359555 -0.000107934 -0.000107838 -7.96078e-06
0.000503406 -0.000151039 -0.000151014 -2.72092e-12
0.000507635 -0.000152308 -0.000152283 -2.76673e-12
0.000361065 -0.000108387 -0.00010829 -7.96079e-06
0.000431479 -0.000129488 -0.000129424 -4.3123e-06
0.000505521 -0.000151674 -0.000151649 -2.73915e-12
0.000435103 -0.000130576 -0.000130511 -4.31231e-06
0.000433291 -0.000130032 -0.000129968 -4.3123e-06
0.000359555 -0.000107934 -0.000107838 -7.96078e-06
0.000356535 -0.000107027 -0.000106932 -7.96076e-06
0.000499177 -0.00014977 -0.000149746 -2.69777e-12
0.000503406 -0.000151039 -0.000151014 -2.72092e-12
0.000358045 -0.00010748 -0.000107385 -7.96077e-06
0.000427854 -0.0001284 -0.000128337 -4.31228e-06
0.000501292 -0.000150405 -0.00015038 -2.71565e-12
0.000431479 -0.000129488 -0.000129424 -4.3123e-06
0.000429667 -0.000128944 -0.000128881 -4.31229e-06
0.000356535 -0.000107027 -0.000106932 -7.96076e-06
0.000353515 -0.000106119 -0.000106027 -7.96074e-06
0.000494948 -0.000148501 -0.000148477 -2.66249e-12
0.000499177 -0.00014977 -0.000149746 -2.69777e-12
0.000355025 -0.000106573 -0.000106479 -7.96075e-06
0.00042423 -0.000127312 -0.00012725 -4.31227e-06
0.000497063 -0.000149136 -0.000149112 -2.70155e-12
0.000427854 -0.0001284 -0.000128337 -4.31228e-06
0.000426042 -0.000127856 -0.000127794 -4.31228e-06
0.000353515 -0.000106119 -0.000106027 -7.96074e-06
0.000350495 -0.000105212 -0.000105121 -7.96072e-06
0.000490719 -0.000147232 -0.000147209 -2.66531e-12
0.000494948 -0.000148501 -0.000148477 -2.68276e-12
0.000352005 -0.000105666 -0.000105574 -7.96073e-06
0.000420606 -0.000126224 -0.000126164 -4.31226e-06
0.000492834 -0.000147867 -0.000147843 -2.67974e-12
0.00042423 -0.000127312 -0.00012725 -4.31227e-06
0.000422418 -0.000126768 -0.000126707 -4.31226e-06
0.000350495 -0.000105212 -0.000105121 -7.96072e-06
0.000347475 -0.000104305 -0.000104216 -7.9607e-06
0.00048649 -0.000145963 -0.00014594 -2.64087e-12
0.000490719 -0.000147232 -0.000147209 -2.64673e-12
0.000348985 -0.000104759 -0.000104669 -7.96071e-06
0.000416981 -0.000125136 -0.000125077 -4.31224e-06
0.000488605 -0.000146598 -0.000146574 -2.64232e-12
0.000420606 -0.000126224 -0.000126164 -4.31226e-06
0.000418793 -0.00012568 -0.00012562 -4.31225e-06
0.000347475 -0.000104305 -0.000104216 -7.9607e-06
0.000344456 -0.000103398 -0.00010331 -7.96067e-06
0.000482261 -0.000144694 -0.000144672 -2.62813e-12
0.00048649 -0.000145963 -0.00014594 -2.64087e-12
0.000345966 -0.000103852 -0.000103763 -7.96068e-06
0.000413357 -0.000124048 -0.00012399 -4.31223e-06
0.000484376 -0.000145329 -0.000145306 -2.62318e-12
0.000416981 -0.000125136 -0.000125077 -4.31224e-06
0.000415169 -0.000124592 -0.000124533 -4.31224e-06
0.000344456 -0.000103398 -0.00010331 -7.96067e-06
0.000341436 -0.000102491 -0.000102405 -7.96065e-06
0.000478032 -0.000143425 -0.000143403 -2.58014e-12
0.000482261 -0.000144694 -0.000144672 -2.62813e-12
0.000342946 -0.000102945 -0.000102858 -7.96066e-06
0.000409732 -0.00012296 -0.000122903 -4.31222e-06
0.000480147 -0.00014406 -0.000144037 -2.60659e-12
0.000413357 -0.000124048 -0.00012399 -4.31223e-06
0.000411545 -0.000123504 -0.000123446 -4.31222e-06
0.000341436 -0.000102491 -0.000102405 -7.96065e-06
0.000338416 -0.000101584 -0.000101499 -7.96063e-06
0.000473803 -0.000142156 -0.000142134 -2.58371e-12
0.000478032 -0.000143425 -0.000143403 -2.60669e-12
0.000339926 -0.000102038 -0.000101952 -7.96064e-06
0.000406108 -0.000121872 -0.000121816 -4.3122e-06
0.000475918 -0.000142791 -0.000142769 -2.57004e-12
0.000409732 -0.00012296 -0.000122903 -4.31222e-06
0.00040792 -0.000122416 -0.000122359 -4.31221e-06
0.000338416 -0.000101584 -0.000101499 -7.96063e-06
0.000335396 -0.000100677 -0.000100594 -7.96061e-06
0.000469574 -0.000140887 -0.000140866 -2.54599e-12
0.000473803 -0.000142156 -0.000142134 -2.55684e-12
0.000336906 -0.00010113 -0.000101047 -7.96062e-06
0.000402484 -0.000120784 -0.000120729 -4.31219e-06
0.000471689 -0.000141522 -0.0001415 -2.54684e-12
0.000406108 -0.000121872 -0.000121816 -4.3122e-06
0.000404296 -0.000121328 -0.000121272 -4.31219e-06
0.000335396 -0.000100677 -0.000100594 -7.96061e-06
0.000332376 -9.97699e-05 -9.96885e-05 -7.96058e-06
0.000465345 -0.000139618 -0.000139597 -2.5288e-12
0.000469574 -0.000140887 -0.000140866 -2.54599e-12
0.000333886 -0.000100223 -0.000100141 -7.9606e-06
0.000398859 -0.000119696 -0.000119642 -4.31217e-06
0.00046746 -0.000140253 -0.000140232 -2.55653e-12
0.000402484 -0.000120784 -0.000120729 -4.31219e-06
0.000400671 -0.00012024 -0.000120185 -4.31218e-06
0.000332376 -9.97699e-05 -9.96885e-05 -7.96058e-06
0.000329356 -9.88628e-05 -9.8783e-05 -7.96056e-06
0.000461116 -0.000138349 -0.000138329 -2.50032e-12
0.000465345 -0.000139618 -0.000139597 -2.5288e-12
0.000330866 -9.93163e-05 -9.92357e-05 -7.96057e-06
0.000395235 -0.000118608 -0.000118554 -4.31216e-06
0.000463231 -0.000138984 -0.000138963 -2.5377e-12
0.000398859 -0.000119696 -0.000119642 -4.31217e-06
0.000397047 -0.000119152 -0.000119098 -4.31217e-06
0.000329356 -9.88628e-05 -9.8783e-05 -7.96056e-06
0.000326337 -9.79557e-05 -9.78775e-05 -7.96054e-06
0.000456887 -0.00013708 -0.00013706 -2.49378e-12
0.000461116 -0.000138349 -0.000138329 -2.48705e-12
0.000327846 -9.84092e-05 -9.83302e-05 -7.96055e-06
0.00039161 -0.000117519 -0.000117467 -4.31215e-06
0.000459002 -0.000137715 -0.000137694 -2.48806e-12
0.000395235 -0.000118608 -0.000118554 -4.31216e-06
0.000393422 -0.000118064 -0.000118011 -4.31215e-06
0.000326337 -9.79557e-05 -9.78775e-05 -7.96054e-06
0.000323317 -9.70487e-05 -9.6972e-05 -7.96052e-06
0.000452658 -0.000135811 -0.000135791 -2.44245e-12
0.000456887 -0.00013708 -0.00013706 -2.49347e-12
0.000324827 -9.75022e-05 -9.74247e-05 -7.96053e-06
0.000387986 -0.000116431 -0.00011638 -4.31213e-06
0.000454772 -0.000136446 -0.000136426 -2.45993e-12
0.00039161 -0.000117519 -0.000117467 -4.31215e-06
0.000389798 -0.000116975 -0.000116924 -4.31214e-06
0.000323317 -9.70487e-05 -9.6972e-05 -7.96052e-06
0.000320297 -9.61416e-05 -9.60665e-05 -7.9605e-06
0.000448429 -0.000134542 -0.000134523 -2.44364e-12
0.000452658 -0.000135811 -0.000135791 -2.44245e-12
0.000321807 -9.65951e-05 -9.65192e-05 -7.96051e-06
0.000384361 -0.000115343 -0.000115293 -4.31212e-06
0.000450543 -0.000135177 -0.000135157 -2.43701e-12
0.000387986 -0.000116431 -0.00011638 -4.31213e-06
0.000386174 -0.000115887 -0.000115837 -4.31213e-06
0.000320297 -9.61416e-05 -9.60665e-05 -7.9605e-06
0.000317277 -9.52345e-05 -9.5161e-05 -7.96047e-06
0.0004442 -0.000133273 -0.000133254 -2.41637e-12
0.000448429 -0.000134542 -0.000134523 -2.44364e-12
0.000318787 -9.56881e-05 -9.56137e-05 -7.96049e-06
0.000380737 -0.000114255 -0.000114206 -4.31211e-06
0.000446314 -0.000133908 -0.000133889 -2.45257e-12
0.000384361 -0.000115343 -0.000115293 -4.31212e-06
0.000382549 -0.000114799 -0.00011475 -4.31211e-06
0.000317277 -9.52345e-05 -9.5161e-05 -7.96047e-06
0.000314257 -9.43275e-05 -9.42555e-05 -7.96045e-06
0.000439971 -0.000132004 -0.000131986 -2.37873e-12
0.0004442 -0.000133273 -0.000133254 -2.40347e-12
0.000315767 -9.4781e-05 -9.47082e-05 -7.96046e-06
0.000377112 -0.000113167 -0.000113119 -4.31209e-06
0.000442085 -0.000132639 -0.00013262 -2.39204e-12
0.000380737 -0.000114255 -0.000114206 -4.31211e-06
0.000378925 -0.000113711 -0.000113663 -4.3121e-06
0.000314257 -9.43275e-05 -9.42555e-05 -7.96045e-06
0.000311237 -9.34205e-05 -9.33499e-05 -7.96043e-06
0.000435742 -0.000130735 -0.000130717 -2.35544e-12
0.000439971 -0.000132004 -0.000131986 -2.40662e-12
0.000312747 -9.3874e-05 -9.38027e-05 -7.96044e-06
0.000373488 -0.000112079 -0.000112032 -4.31208e-06
0.000437856 -0.00013137 -0.000131351 -2.37408e-12
0.000377112 -0.000113167 -0.000113119 -4.31209e-06
0.0003753 -0.000112623 -0.000112576 -4.31209e-06
0.000311237 -9.34205e-05 -9.33499e-05 -7.96043e-06
0.000308217 -9.25134e-05 -9.24444e-05 -7.96041e-06
0.000431513 -0.000129466 -0.000129448 -2.35218e-12
0.000435742 -0.000130735 -0.000130717 -2.35544e-12
0.000309727 -9.29669e-05 -9.28972e-05 -7.96042e-06
0.000369863 -0.000110991 -0.000110945 -4.31206e-06
0.000433627 -0.000130101 -0.000130083 -2.36658e-12
0.000373488 -0.000112079 -0.000112032 -4.31208e-06
0.000371676 -0.000111535 -0.000111489 -4.31207e-06
0.000308217 -9.25134e-05 -9.24444e-05 -7.96041e-06
0.000305197 -9.16064e-05 -9.15389e-05 -7.96039e-06
0.000427284 -0.000128197 -0.00012818 -2.33519e-12
0.000431513 -0.000129466 -0.000129448 -2.35218e-12
0.000306707 -9.20599e-05 -9.19916e-05 -7.9604e-06
0.000366239 -0.000109903 -0.000109858 -4.31205e-06
0.000429398 -0.000128832 -0.000128814 -2.35752e-12
0.000369863 -0.000110991 -0.000110945 -4.31206e-06
0.000368051 -0.000110447 -0.000110402 -4.31206e-06
0.000305197 -9.16064e-05 -9.15389e-05 -7.96039e-06
0.000302177 -9.06994e-05 -9.06333e-05 -7.96036e-06
0.000423054 -0.000126928 -0.000126911 -2.3171e-12
0.000427284 -0.000128197 -0.00012818 -2.317e-12
0.000303687 -9.11529e-05 -9.10861e-05 -7.96038e-06
0.000362615 -0.000108815 -0.000108771 -4.31204e-06
0.000425169 -0.000127563 -0.000127546 -2.2975e-12
0.000366239 -0.000109903 -0.000109858 -4.31205e-06
0.000364427 -0.000109359 -0.000109315 -4.31204e-06
0.000302177 -9.06994e-05 -9.06333e-05 -7.96036e-06
0.000299157 -8.97923e-05 -8.97278e-05 -7.96034e-06
0.000418825 -0.000125659 -0.000125643 -2.29124e-12
0.000423054 -0.000126928 -0.000126911 -2.32176e-12
0.000300667 -9.02459e-05 -9.01806e-05 -7.96035e-06
0.00035899 -0.000107727 -0.000107684 -4.31202e-06
0.00042094 -0.000126294 -0.000126277 -2.26726e-12
0.000362615 -0.000108815 -0.000108771 -4.31204e-06
0.000360802 -0.000108271 -0.000108228 -4.31203e-06
0.000299157 -8.97923e-05 -8.97278e-05 -7.96034e-06
0.000296137 -8.88853e-05 -8.88222e-05 -7.96032e-06
0.000414596 -0.00012439 -0.000124374 -2.2606e-12
0.000418825 -0.000125659 -0.000125643 -2.29124e-12
0.000297647 -8.93388e-05 -8.9275e-05 -7.96033e-06
0.000355366 -0.000106639 -0.000106597 -4.31201e-06
0.000416711 -0.000125025 -0.000125008 -2.27324e-12
0.00035899 -0.000107727 -0.000107684 -4.31202e-06
0.000357178 -0.000107183 -0.000107141 -4.31202e-06
0.000296137 -8.88853e-05 -8.88222e-05 -7.96032e-06
0.000293117 -8.79783e-05 -8.79167e-05 -7.9603e-06
0.000410367 -0.000123121 -0.000123105 -2.23382e-12
0.000414596 -0.00012439 -0.000124374 -2.2606e-12
0.000294627 -8.84318e-05 -8.83694e-05 -7.96031e-06
0.000351741 -0.000105551 -0.00010551 -4.312e-06
0.000412482 -0.000123756 -0.00012374 -2.25296e-12
0.000355366 -0.000106639 -0.000106597 -4.31201e-06
0.000353553 -0.000106095 -0.000106054 -4.312e-06
0.000293117 -8.79783e-05 -8.79167e-05 -7.9603e-06
0.000290097 -8.70713e-05 -8.70111e-05 -7.96028e-06
0.000406138 -0.000121852 -0.000121837 -2.21786e-12
0.000410367 -0.000123121 -0.000123105 -2.22023e-12
0.000291607 -8.75248e-05 -8.74639e-05 -7.96029e-06
0.000348116 -0.000104463 -0.000104423 -4.31198e-06
0.000408253 -0.000122487 -0.000122471 -2.21576e-12
0.000351741 -0.000105551 -0.00010551 -4.312e-06
0.000349929 -0.000105007 -0.000104967 -4.31199e-06
0.000290097 -8.70713e-05 -8.70111e-05 -7.96028e-06
0.000287077 -8.61643e-05 -8.61055e-05 -7.96025e-06
0.000401909 -0.000120583 -0.000120568 -2.2146e-12
0.000406138 -0.000121852 -0.000121837 -2.21783e-12
0.000288587 -8.66178e-05 -8.65583e-05 -7.96027e-06
0.000344492 -0.000103375 -0.000103336 -4.31197e-06
0.000404024 -0.000121218 -0.000121203 -2.20805e-12
0.000348116 -0.000104463 -0.000104423 -4.31198e-06
0.000346304 -0.000103919 -0.000103879 -4.31198e-06
0.000287077 -8.61643e-05 -8.61055e-05 -7.96025e-06
0.000284057 -8.52573e-05 -8.51999e-05 -7.96023e-06
0.00039768 -0.000119314 -0.0001193 -2.17391e-12
0.000401909 -0.000120583 -0.000120568 -2.2146e-12
0.000285567 -8.57108e-05 -8.56527e-05 -7.96024e-06
0.000340867 -0.000102287 -0.000102249 -4.31196e-06
0.000399795 -0.000119949 -0.000119934 -2.18267e-12
0.000344492 -0.000103375 -0.000103336 -4.31197e-06
0.00034268 -0.000102831 -0.000102792 -4.31196e-06
0.000284057 -8.52573e-05 -8.51999e-05 -7.96023e-06
0.000281037 -8.43503e-05 -8.42944e-05 -7.96021e-06
0.000393451 -0.000118045 -0.000118031 -2.15693e-12
0.00039768 -0.000119314 -0.0001193 -2.17391e-12
0.000282547 -8.48038e-05 -8.47471e-05 -7.96022e-06
0.000337243 -0.000101199 -0.000101162 -4.31194e-06
0.000395565 -0.00011868 -0.000118665 -2.17304e-12
0.000340867 -0.000102287 -0.000102249 -4.31196e-06
0.000339055 -0.000101743 -0.000101705 -4.31195e-06
0.000281037 -8.43503e-05 -8.42944e-05 -7.96021e-06
0.000278017 -8.34433e-05 -8.33888e-05 -7.96019e-06
0.000389222 -0.000116776 -0.000116762 -2.1105e-12
0.000393451 -0.000118045 -0.000118031 -2.15687e-12
0.000279527 -8.38968e-05 -8.38416e-05 -7.9602e-06
0.000333618 -0.000100111 -0.000100075 -4.31193e-06
0.000391336 -0.000117411 -0.000117397 -2.10799e-12
0.000337243 -0.000101199 -0.000101162 -4.31194e-06
0.000335431 -0.000100655 -0.000100618 -4.31194e-06
0.000278017 -8.34433e-05 -8.33888e-05 -7.96019e-06
0.000274997 -8.25364e-05 -8.24832e-05 -7.96017e-06
0.000384993 -0.000115507 -0.000115494 -2.10293e-12
0.000389222 -0.000116776 -0.000116762 -2.11036e-12
0.000276507 -8.29899e-05 -8.2936e-05 -7.96018e-06
0.000329994 -9.90228e-05 -9.89876e-05 -4.31192e-06
0.000387107 -0.000116142 -0.000116128 -2.10293e-12
0.000333618 -0.000100111 -0.000100075 -4.31193e-06
0.000331806 -9.95668e-05 -9.95311e-05 -4.31192e-06
0.000274997 -8.25364e-05 -8.24832e-05 -7.96017e-06
0.000271977 -8.16294e-05 -8.15775e-05 -7.96015e-06
0.000380764 -0.000114238 -0.000114225 -2.05982e-12
0.000384993 -0.000115507 -0.000115494 -2.10293e-12
0.000273487 -8.20829e-05 -8.20304e-05 -7.96016e-06
0.000326369 -9.79347e-05 -9.79005e-05 -4.3119e-06
0.000382878 -0.000114872 -0.00011486 -2.09357e-12
0.000329994 -9.90228e-05 -9.89876e-05 -4.31192e-06
0.000328182 -9.84787e-05 -9.84441e-05 -4.31191e-06
0.000271977 -8.16294e-05 -8.15775e-05 -7.96015e-06
0.000268957 -8.07224e-05 -8.06719e-05 -7.96012e-06
0.000376534 -0.000112969 -0.000112957 -2.06622e-12
0.000380764 -0.000114238 -0.000114225 -2.05982e-12
0.000270467 -8.11759e-05 -8.11247e-05 -7.96014e-06
0.000322745 -9.68467e-05 -9.68134e-05 -4.31189e-06
0.000378649 -0.000113603 -0.000113591 -2.09008e-12
0.000326369 -9.79347e-05 -9.79005e-05 -4.3119e-06
0.000324557 -9.73907e-05 -9.7357e-05 -4.3119e-06
0.000268957 -8.07224e-05 -8.06719e-05 -7.96012e-06
0.000265937 -7.98155e-05 -7.97663e-05 -7.9601e-06
0.000372305 -0.0001117 -0.000111688 -2.03305e-12
0.000376534 -0.000112969 -0.000112957 -2.07878e-12
0.000267447 -8.0269e-05 -8.02191e-05 -7.96011e-06
0.00031912 -9.57587e-05 -9.57263e-05 -4.31187e-06
0.00037442 -0.000112334 -0.000112322 -2.05062e-12
0.000322745 -9.68467e-05 -9.68134e-05 -4.31189e-06
0.000320932 -9.63027e-05 -9.62699e-05 -4.31188e-06
0.000265937 -7.98155e-05 -7.97663e-05 -7.9601e-06
0.000262917 -7.89085e-05 -7.88607e-05 -7.96008e-06
0.000368076 -0.000110431 -0.000110419 -2.04218e-12
0.000372305 -0.0001117 -0.000111688 -2.03305e-12
0.000264427 -7.9362e-05 -7.93135e-05 -7.96009e-06
0.000315496 -9.46707e-05 -9.46392e-05 -4.31186e-06
0.000370191 -0.000111065 -0.000111054 -2.02323e-12
0.00031912 -9.57587e-05 -9.57263e-05 -4.31187e-06
0.000317308 -9.52147e-05 -9.51828e-05 -4.31187e-06
0.000262917 -7.89085e-05 -7.88607e-05 -7.96008e-06
0.000259897 -7.80016e-05 -7.7955e-05 -7.96006e-06
0.000363847 -0.000109162 -0.000109151 -1.98356e-12
0.000368076 -0.000110431 -0.000110419 -2.04218e-12
0.000261407 -7.8455e-05 -7.84079e-05 -7.96007e-06
0.000311871 -9.35827e-05 -9.35521e-05 -4.31185e-06
0.000365962 -0.000109796 -0.000109785 -2.02237e-12
0.000315496 -9.46707e-05 -9.46392e-05 -4.31186e-06
0.000313683 -9.41267e-05 -9.40957e-05 -4.31185e-06
0.000259897 -7.80016e-05 -7.7955e-05 -7.96006e-06
0.000256877 -7.70946e-05 -7.70494e-05 -7.96004e-06
0.000359618 -0.000107893 -0.000107882 -1.96562e-12
0.000363847 -0.000109162 -0.000109151 -1.98356e-12
0.000258387 -7.75481e-05 -7.75022e-05 -7.96005e-06
0.000308246 -9.24947e-05 -9.2465e-05 -4.31183e-06
0.000361733 -0.000108527 -0.000108516 -1.95762e-12
0.000311871 -9.35827e-05 -9.35521e-05 -4.31185e-06
0.000310059 -9.30387e-05 -9.30086e-05 -4.31184e-06
0.000256877 -7.70946e-05 -7.70494e-05 -7.96004e-06
0.000253856 -7.61877e-05 -7.61438e-05 -7.96002e-06
0.000355389 -0.000106624 -0.000106614 -1.95118e-12
0.000359618 -0.000107893 -0.000107882 -1.96562e-12
0.000255367 -7.66411e-05 -7.65966e-05 -7.96003e-06
0.000304622 -9.14067e-05 -9.13779e-05 -4.31182e-06
0.000357503 -0.000107258 -0.000107248 -1.94778e-12
0.000308246 -9.24947e-05 -9.2465e-05 -4.31183e-06
0.000306434 -9.19507e-05 -9.19214e-05 -4.31183e-06
0.000253856 -7.61877e-05 -7.61438e-05 -7.96002e-06
0.000250836 -7.52807e-05 -7.52381e-05 -7.95999e-06
0.00035116 -0.000105355 -0.000105345 -1.93885e-12
0.000355389 -0.000106624 -0.000106614 -1.95042e-12
0.000252346 -7.57342e-05 -7.56909e-05 -7.96001e-06
0.000300997 -9.03187e-05 -9.02908e-05 -4.31181e-06
0.000353274 -0.000105989 -0.000105979 -1.95326e-12
0.000304622 -9.14067e-05 -9.13779e-05 -4.31182e-06
0.000302809 -9.08627e-05 -9.08343e-05 -4.31181e-06
0.000250836 -7.52807e-05 -7.52381e-05 -7.95999e-06
0.000247816 -7.43738e-05 -7.43324e-05 -7.95997e-06
0.000346931 -0.000104086 -0.000104076 -1.89841e-12
0.00035116 -0.000105355 -0.000105345 -1.93885e-12
0.000249326 -7.48273e-05 -7.47853e-05 -7.95998e-06
0.000297373 -8.92307e-05 -8.92036e-05 -4.31179e-06
0.000349045 -0.00010472 -0.000104711 -1.89373e-12
0.000300997 -9.03187e-05 -9.02908e-05 -4.31181e-06
0.000299185 -8.97747e-05 -8.97472e-05 -4.3118e-06
0.000247816 -7.43738e-05 -7.43324e-05 -7.95997e-06
0.000244796 -7.34669e-05 -7.34268e-05 -7.95995e-06
0.000342701 -0.000102817 -0.000102808 -1.85205e-12
0.000346931 -0.000104086 -0.000104076 -1.89841e-12
0.000246306 -7.39203e-05 -7.38796e-05 -7.95996e-06
0.000293748 -8.81427e-05 -8.81165e-05 -4.31178e-06
0.000344816 -0.000103451 -0.000103442 -1.88572e-12
0.000297373 -8.92307e-05 -8.92036e-05 -4.31179e-06
0.00029556 -8.86867e-05 -8.86601e-05 -4.31179e-06
0.000244796 -7.34669e-05 -7.34268e-05 -7.95995e-06
0.000241776 -7.256e-05 -7.25211e-05 -7.95993e-06
0.000338472 -0.000101548 -0.000101539 -1.85862e-12
0.000342701 -0.000102817 -0.000102808 -1.86533e-12
0.000243286 -7.30134e-05 -7.29739e-05 -7.95994e-06
0.000290123 -8.70547e-05 -8.70294e-05 -4.31177e-06
0.000340587 -0.000102182 -0.000102173 -1.86928e-12
0.000293748 -8.81427e-05 -8.81165e-05 -4.31178e-06
0.000291936 -8.75987e-05 -8.7573e-05 -4.31177e-06
0.000241776 -7.256e-05 -7.25211e-05 -7.95993e-06
0.000238756 -7.16531e-05 -7.16154e-05 -7.95991e-06
0.000334243 -0.000100279 -0.00010027 -1.85237e-12
0.000338472 -0.000101548 -0.000101539 -1.85862e-12
0.000240266 -7.21065e-05 -7.20683e-05 -7.95992e-06
0.000286499 -8.59667e-05 -8.59423e-05 -4.31175e-06
0.000336358 -0.000100913 -0.000100905 -1.83569e-12
0.000290123 -8.70547e-05 -8.70294e-05 -4.31177e-06
0.000288311 -8.65107e-05 -8.64858e-05 -4.31176e-06
0.000238756 -7.16531e-05 -7.16154e-05 -7.95991e-06
0.000235736 -7.07461e-05 -7.07097e-05 -7.95989e-06
0.000330014 -9.90097e-05 -9.90019e-05 -1.81859e-12
0.000334243 -0.000100279 -0.00010027 -1.85237e-12
0.000237246 -7.11996e-05 -7.11626e-05 -7.9599e-06
0.000282874 -8.48787e-05 -8.48551e-05 -4.31174e-06
0.000332129 -9.96442e-05 -9.96362e-05 -1.84668e-12
0.000286499 -8.59667e-05 -8.59423e-05 -4.31175e-06
0.000284686 -8.54227e-05 -8.53987e-05 -4.31175e-06
0.000235736 -7.07461e-05 -7.07097e-05 -7.95989e-06
0.000232715 -6.98392e-05 -6.9804e-05 -7.95987e-06
0.000325785 -9.77407e-05 -9.77332e-05 -1.80094e-12
0.000330014 -9.90097e-05 -9.90019e-05 -1.81859e-12
0.000234225 -7.02927e-05 -7.02569e-05 -7.95988e-06
0.000279249 -8.37907e-05 -8.3768e-05 -4.31173e-06
0.000327899 -9.83752e-05 -9.83675e-05 -1.80863e-12
0.000282874 -8.48787e-05 -8.48551e-05 -4.31174e-06
0.000281062 -8.43347e-05 -8.43115e-05 -4.31173e-06
0.000232715 -6.98392e-05 -6.9804e-05 -7.95987e-06
0.000229695 -6.89323e-05 -6.88983e-05 -7.95985e-06
0.000321556 -9.64717e-05 -9.64646e-05 -1.76587e-12
0.000325785 -9.77407e-05 -9.77332e-05 -1.80094e-12
0.000231205 -6.93858e-05 -6.93512e-05 -7.95986e-06
0.000275625 -8.27028e-05 -8.26808e-05 -4.31171e-06
0.00032367 -9.71062e-05 -9.70989e-05 -1.80607e-12
0.000279249 -8.37907e-05 -8.3768e-05 -4.31173e-06
0.000277437 -8.32467e-05 -8.32244e-05 -4.31172e-06
0.000229695 -6.89323e-05 -6.88983e-05 -7.95985e-06
0.000226675 -6.80255e-05 -6.79926e-05 -7.95982e-06
0.000317327 -9.52026e-05 -9.5196e-05 -1.76385e-12
0.000321556 -9.64717e-05 -9.64646e-05 -1.78202e-12
0.000228185 -6.84789e-05 -6.84455e-05 -7.95983e-06
0.000272 -8.16148e-05 -8.15937e-05 -4.3117e-06
0.000319441 -9.58372e-05 -9.58303e-05 -1.75433e-12
0.000275625 -8.27028e-05 -8.26808e-05 -4.31171e-06
0.000273812 -8.21588e-05 -8.21373e-05 -4.31171e-06
0.000226675 -6.80255e-05 -6.79926e-05 -7.95982e-06
0.000223655 -6.71186e-05 -6.70869e-05 -7.9598e-06
0.000313097 -9.39336e-05 -9.39273e-05 -1.73145e-12
0.000317327 -9.52026e-05 -9.5196e-05 -1.76385e-12
0.000225165 -6.7572e-05 -6.75398e-05 -7.95981e-06
0.000268375 -8.05268e-05 -8.05065e-05 -4.31169e-06
0.000315212 -9.45681e-05 -9.45617e-05 -1.73438e-12
0.000272 -8.16148e-05 -8.15937e-05 -4.3117e-06
0.000270188 -8.10708e-05 -8.10501e-05 -4.3117e-06
0.000223655 -6.71186e-05 -6.70869e-05 -7.9598e-06
0.000220634 -6.62117e-05 -6.61812e-05 -7.95978e-06
0.000308868 -9.26646e-05 -9.26587e-05 -1.68662e-12
0.000313097 -9.39336e-05 -9.39273e-05 -1.73145e-12
0.000222145 -6.66651e-05 -6.6634e-05 -7.95979e-06
0.000264751 -7.94388e-05 -7.94194e-05 -4.31168e-06
0.000310983 -9.32991e-05 -9.3293e-05 -1.72103e-12
0.000268375 -8.05268e-05 -8.05065e-05 -4.31169e-06
0.000266563 -7.99828e-05 -7.99629e-05 -4.31168e-06
0.000220634 -6.62117e-05 -6.61812e-05 -7.95978e-06
0.000217614 -6.53048e-05 -6.52754e-05 -7.95976e-06
0.000304639 -9.13956e-05 -9.13901e-05 -1.68373e-12
0.000308868 -9.26646e-05 -9.26587e-05 -1.69912e-12
0.000219124 -6.57583e-05 -6.57283e-05 -7.95977e-06
0.000261126 -7.83509e-05 -7.83322e-05 -4.31166e-06
0.000306754 -9.20301e-05 -9.20244e-05 -1.68119e-12
0.000264751 -7.94388e-05 -7.94194e-05 -4.31168e-06
0.000262938 -7.88948e-05 -7.88758e-05 -4.31167e-06
0.000217614 -6.53048e-05 -6.52754e-05 -7.95976e-06
0.000214594 -6.43979e-05 -6.43697e-05 -7.95974e-06
0.00030041 -9.01265e-05 -9.01214e-05 -1.67349e-12
0.000304639 -9.13956e-05 -9.13901e-05 -1.68415e-12
0.000216104 -6.48514e-05 -6.48226e-05 -7.95975e-06
0.000257501 -7.72629e-05 -7.7245e-05 -4.31165e-06
0.000302525 -9.07611e-05 -9.07558e-05 -1.67302e-12
0.000261126 -7.83509e-05 -7.83322e-05 -4.31166e-06
0.000259314 -7.78069e-05 -7.77886e-05 -4.31166e-06
0.000214594 -6.43979e-05 -6.43697e-05 -7.95974e-06
0.000211574 -6.34911e-05 -6.3464e-05 -7.95972e-06
0.000296181 -8.88575e-05 -8.88528e-05 -1.64055e-12
0.00030041 -9.01265e-05 -9.01214e-05 -1.67349e-12
0.000213084 -6.39445e-05 -6.39168e-05 -7.95973e-06
0.000253877 -7.61749e-05 -7.61578e-05 -4.31164e-06
0.000298295 -8.9492e-05 -8.94871e-05 -1.65353e-12
0.000257501 -7.72629e-05 -7.7245e-05 -4.31165e-06
0.000255689 -7.67189e-05 -7.67014e-05 -4.31164e-06
0.000211574 -6.34911e-05 -6.3464e-05 -7.95972e-06
0.000208553 -6.25842e-05 -6.25582e-05 -7.9597e-06
0.000291952 -8.75885e-05 -8.75842e-05 -1.63639e-12
0.000296181 -8.88575e-05 -8.88528e-05 -1.64055e-12
0.000210064 -6.30377e-05 -6.30111e-05 -7.95971e-06
0.000250252 -7.5087e-05 -7.50707e-05 -4.31162e-06
0.000294066 -8.8223e-05 -8.82185e-05 -1.62411e-12
0.000253877 -7.61749e-05 -7.61578e-05 -4.31164e-06
0.000252064 -7.56309e-05 -7.56143e-05 -4.31163e-06
0.000208553 -6.25842e-05 -6.25582e-05 -7.9597e-06
0.000205533 -6.16774e-05 -6.16524e-05 -7.95968e-06
0.000287722 -8.63195e-05 -8.63155e-05 -1.57963e-12
0.000291952 -8.75885e-05 -8.75842e-05 -1.63646e-12
0.000207043 -6.21308e-05 -6.21053e-05 -7.95969e-06
0.000246627 -7.3999e-05 -7.39835e-05 -4.31161e-06
0.000289837 -8.6954e-05 -8.69499e-05 -1.58926e-12
0.000250252 -7.5087e-05 -7.50707e-05 -4.31162e-06
0.000248439 -7.4543e-05 -7.45271e-05 -4.31162e-06
0.000205533 -6.16774e-05 -6.16524e-05 -7.95968e-06
0.000202513 -6.07705e-05 -6.07467e-05 -7.95966e-06
0.000283493 -8.50504e-05 -8.50469e-05 -1.5855e-12
0.000287722 -8.63195e-05 -8.63155e-05 -1.57923e-12
0.000204023 -6.12239e-05 -6.11996e-05 -7.95967e-06
0.000243002 -7.29111e-05 -7.28963e-05 -4.3116e-06
0.000285608 -8.56849e-05 -8.56812e-05 -1.57046e-12
0.000246627 -7.3999e-05 -7.39835e-05 -4.31161e-06
0.000244815 -7.3455e-05 -7.34399e-05 -4.3116e-06
0.000202513 -6.07705e-05 -6.07467e-05 -7.95966e-06
0.000199492 -5.98637e-05 -5.98409e-05 -7.95964e-06
0.000279264 -8.37814e-05 -8.37783e-05 -1.56269e-12
0.000283493 -8.50504e-05 -8.50469e-05 -1.5855e-12
0.000201003 -6.03171e-05 -6.02938e-05 -7.95965e-06
0.000239378 -7.18231e-05 -7.18091e-05 -4.31158e-06
0.000281379 -8.44159e-05 -8.44126e-05 -1.56358e-12
0.000243002 -7.29111e-05 -7.28963e-05 -4.3116e-06
0.00024119 -7.23671e-05 -7.23527e-05 -4.31159e-06
0.000199492 -5.98637e-05 -5.98409e-05 -7.95964e-06
0.000196472 -5.89568e-05 -5.89351e-05 -7.95962e-06
0.000275035 -8.25124e-05 -8.25096e-05 -1.53845e-12
0.000279264 -8.37814e-05 -8.37783e-05 -1.56269e-12
0.000197982 -5.94103e-05 -5.9388e-05 -7.95963e-06
0.000235753 -7.07351e-05 -7.07219e-05 -4.31157e-06
0.000277149 -8.31469e-05 -8.31439e-05 -1.54927e-12
0.000239378 -7.18231e-05 -7.18091e-05 -4.31158e-06
0.000237565 -7.12791e-05 -7.12655e-05 -4.31158e-06
0.000196472 -5.89568e-05 -5.89351e-05 -7.95962e-06
0.000193452 -5.805e-05 -5.80293e-05 -7.95959e-06
0.000270806 -8.12433e-05 -8.1241e-05 -1.50754e-12
0.000275035 -8.25124e-05 -8.25096e-05 -1.54803e-12
0.000194962 -5.85034e-05 -5.84822e-05 -7.9596e-06
0.000232128 -6.96472e-05 -6.96347e-05 -4.31156e-06
0.00027292 -8.18779e-05 -8.18753e-05 -1.55378e-12
0.000235753 -7.07351e-05 -7.07219e-05 -4.31157e-06
0.000233941 -7.01912e-05 -7.01783e-05 -4.31156e-06
0.000193452 -5.805e-05 -5.80293e-05 -7.95959e-06
0.000190431 -5.71432e-05 -5.71235e-05 -7.95957e-06
0.000266576 -7.99743e-05 -7.99723e-05 -1.50598e-12
0.000270806 -8.12433e-05 -8.1241e-05 -1.50754e-12
0.000191942 -5.75966e-05 -5.75764e-05 -7.95958e-06
0.000228503 -6.85593e-05 -6.85475e-05 -4.31155e-06
0.000268691 -8.06088e-05 -8.06066e-05 -1.51339e-12
0.000232128 -6.96472e-05 -6.96347e-05 -4.31156e-06
0.000230316 -6.91032e-05 -6.90911e-05 -4.31155e-06
0.000190431 -5.71432e-05 -5.71235e-05 -7.95957e-06
0.000187411 -5.62364e-05 -5.62177e-05 -7.95955e-06
0.000262347 -7.87053e-05 -7.87037e-05 -1.46657e-12
0.000266576 -7.99743e-05 -7.99723e-05 -1.50598e-12
0.000188921 -5.66898e-05 -5.66706e-05 -7.95956e-06
0.000224879 -6.74713e-05 -6.74603e-05 -4.31153e-06
0.000264462 -7.93398e-05 -7.9338e-05 -1.46462e-12
0.000228503 -6.85593e-05 -6.85475e-05 -4.31155e-06
0.000226691 -6.80153e-05 -6.80039e-05 -4.31154e-06
0.000187411 -5.62364e-05 -5.62177e-05 -7.95955e-06
0.000184391 -5.53296e-05 -5.53119e-05 -7.95953e-06
0.000258118 -7.74362e-05 -7.7435e-05 -1.46029e-12
0.000262347 -7.87053e-05 -7.87037e-05 -1.46657e-12
0.000185901 -5.5783e-05 -5.57648e-05 -7.95954e-06
0.000221254 -6.63834e-05 -6.63731e-05 -4.31152e-06
0.000260233 -7.80708e-05 -7.80694e-05 -1.45374e-12
0.000224879 -6.74713e-05 -6.74603e-05 -4.31153e-06
0.000223066 -6.69273e-05 -6.69167e-05 -4.31153e-06
0.000184391 -5.53296e-05 -5.53119e-05 -7.95953e-06
0.00018137 -5.44228e-05 -5.44061e-05 -7.95951e-06
0.000253889 -7.61672e-05 -7.61664e-05 -1.44818e-12
0.000258118 -7.74362e-05 -7.7435e-05 -1.46029e-12
0.000182881 -5.48762e-05 -5.4859e-05 -7.95952e-06
0.000217629 -6.52954e-05 -6.52858e-05 -4.31151e-06
0.000256003 -7.68017e-05 -7.68007e-05 -1.41649e-12
0.000221254 -6.63834e-05 -6.63731e-05 -4.31152e-06
0.000219441 -6.58394e-05 -6.58295e-05 -4.31151e-06
0.00018137 -5.44228e-05 -5.44061e-05 -7.95951e-06
0.00017835 -5.35159e-05 -5.35003e-05 -7.95949e-06
0.00024966 -7.48982e-05 -7.48977e-05 -1.41862e-12
0.000253889 -7.61672e-05 -7.61664e-05 -1.46103e-12
0.00017986 -5.39694e-05 -5.39532e-05 -7.9595e-06
0.000214004 -6.42075e-05 -6.41986e-05 -4.31149e-06
0.000251774 -7.55327e-05 -7.55321e-05 -1.43773e-12
0.000217629 -6.52954e-05 -6.52858e-05 -4.31151e-06
0.000215817 -6.47515e-05 -6.47422e-05 -4.3115e-06
0.00017835 -5.35159e-05 -5.35003e-05 -7.95949e-06
0.00017533 -5.26092e-05 -5.25945e-05 -7.95947e-06
0.00024543 -7.36291e-05 -7.36291e-05 -1.36237e-12
0.00024966 -7.48982e-05 -7.48977e-05 -1.41862e-12
0.00017684 -5.30626e-05 -5.30474e-05 -7.95948e-06
0.00021038 -6.31196e-05 -6.31114e-05 -4.31148e-06
0.000247545 -7.42637e-05 -7.42634e-05 -1.38983e-12
0.000214004 -6.42075e-05 -6.41986e-05 -4.31149e-06
0.000212192 -6.36635e-05 -6.3655e-05 -4.31149e-06
0.00017533 -5.26092e-05 -5.25945e-05 -7.95947e-06
0.000172309 -5.17024e-05 -5.16886e-05 -7.95945e-06
0.000241201 -7.23601e-05 -7.23604e-05 -1.37456e-12
0.00024543 -7.36291e-05 -7.36291e-05 -1.36237e-12
0.000173819 -5.21558e-05 -5.21415e-05 -7.95946e-06
0.000206755 -6.20317e-05 -6.20242e-05 -4.31147e-06
0.000243316 -7.29946e-05 -7.29947e-05 -1.35252e-12
0.00021038 -6.31196e-05 -6.31114e-05 -4.31148e-06
0.000208567 -6.25756e-05 -6.25678e-05 -4.31148e-06
0.000172309 -5.17024e-05 -5.16886e-05 -7.95945e-06
0.000169289 -5.07956e-05 -5.07828e-05 -7.95943e-06
0.000236972 -7.10911e-05 -7.10918e-05 -1.32507e-12
0.000241201 -7.23601e-05 -7.23604e-05 -1.34763e-12
0.000170799 -5.1249e-05 -5.12357e-05 -7.95944e-06
0.00020313 -6.09437e-05 -6.09369e-05 -4.31146e-06
0.000239086 -7.17256e-05 -7.17261e-05 -1.34089e-12
0.000206755 -6.20317e-05 -6.20242e-05 -4.31147e-06
0.000204942 -6.14877e-05 -6.14805e-05 -4.31146e-06
0.000169289 -5.07956e-05 -5.07828e-05 -7.95943e-06
0.000166268 -4.98888e-05 -4.98769e-05 -7.95941e-06
0.000232743 -6.9822e-05 -6.98231e-05 -1.30719e-12
0.000236972 -7.10911e-05 -7.10918e-05 -1.325e-12
0.000167779 -5.03422e-05 -5.03299e-05 -7.95942e-06
0.000199505 -5.98558e-05 -5.98497e-05 -4.31144e-06
0.000234857 -7.04566e-05 -7.04574e-05 -1.3181e-12
0.00020313 -6.09437e-05 -6.09369e-05 -4.31146e-06
0.000201317 -6.03998e-05 -6.03933e-05 -4.31145e-06
0.000166268 -4.98888e-05 -4.98769e-05 -7.95941e-06
0.000163248 -4.8982e-05 -4.89711e-05 -7.95939e-06
0.000228513 -6.8553e-05 -6.85544e-05 -1.26831e-12
0.000232743 -6.9822e-05 -6.98231e-05 -1.30719e-12
0.000164758 -4.94354e-05 -4.9424e-05 -7.9594e-06
0.00019588 -5.87679e-05 -5.87624e-05 -4.31143e-06
0.000230628 -6.91875e-05 -6.91888e-05 -1.30304e-12
0.000199505 -5.98558e-05 -5.98497e-05 -4.31144e-06
0.000197693 -5.93118e-05 -5.93061e-05 -4.31144e-06
0.000163248 -4.8982e-05 -4.89711e-05 -7.95939e-06
0.000160227 -4.80753e-05 -4.80652e-05 -7.95937e-06
0.000224284 -6.7284e-05 -6.72858e-05 -1.2681e-12
0.000228513 -6.8553e-05 -6.85544e-05 -1.26831e-12
0.000161738 -4.85286e-05 -4.85181e-05 -7.95938e-06
0.000192255 -5.768e-05 -5.76752e-05 -4.31142e-06
0.000226399 -6.79185e-05 -6.79201e-05 -1.25563e-12
0.00019588 -5.87679e-05 -5.87624e-05 -4.31143e-06
0.000194068 -5.82239e-05 -5.82188e-05 -4.31142e-06
0.000160227 -4.80753e-05 -4.80652e-05 -7.95937e-06
0.000157207 -4.71685e-05 -4.71593e-05 -7.95935e-06
0.000220055 -6.60149e-05 -6.60171e-05 -1.2436e-12
0.000224284 -6.7284e-05 -6.72858e-05 -1.26803e-12
0.000158717 -4.76219e-05 -4.76123e-05 -7.95936e-06
0.000188631 -5.65921e-05 -5.65879e-05 -4.31141e-06
0.000222169 -6.66495e-05 -6.66514e-05 -1.24753e-12
0.000192255 -5.768e-05 -5.76752e-05 -4.31142e-06
0.000190443 -5.7136e-05 -5.71315e-05 -4.31141e-06
0.000157207 -4.71685e-05 -4.71593e-05 -7.95935e-06
0.000154186 -4.62617e-05 -4.62534e-05 -7.95933e-06
0.000215826 -6.47459e-05 -6.47484e-05 -1.20032e-12
0.000220055 -6.60149e-05 -6.60171e-05 -1.25975e-12
0.000155697 -4.67151e-05 -4.67064e-05 -7.95934e-06
0.000185006 -5.55042e-05 -5.55007e-05 -4.31139e-06
0.00021794 -6.53804e-05 -6.53828e-05 -1.23442e-12
0.000188631 -5.65921e-05 -5.65879e-05 -4.31141e-06
0.000186818 -5.60481e-05 -5.60443e-05 -4.3114e-06
0.000154186 -4.62617e-05 -4.62534e-05 -7.95933e-06
0.000151166 -4.5355e-05 -4.53476e-05 -7.95931e-06
0.000211596 -6.34769e-05 -6.34798e-05 -1.21208e-12
0.000215826 -6.47459e-05 -6.47484e-05 -1.20032e-12
0.000152676 -4.58084e-05 -4.58005e-05 -7.95932e-06
0.000181381 -5.44162e-05 -5.44134e-05 -4.31138e-06
0.000213711 -6.41114e-05 -6.41141e-05 -1.20907e-12
0.000185006 -5.55042e-05 -5.55007e-05 -4.31139e-06
0.000183193 -5.49602e-05 -5.4957e-05 -4.31139e-06
0.000151166 -4.5355e-05 -4.53476e-05 -7.95931e-06
0.000148145 -4.44482e-05 -4.44417e-05 -7.95929e-06
0.000207367 -6.22078e-05 -6.22111e-05 -1.20246e-12
0.000211596 -6.34769e-05 -6.34798e-05 -1.1687e-12
0.000149656 -4.49016e-05 -4.48946e-05 -7.9593e-06
0.000177756 -5.33283e-05 -5.33261e-05 -4.31137e-06
0.000209482 -6.28424e-05 -6.28454e-05 -1.20995e-12
0.000181381 -5.44162e-05 -5.44134e-05 -4.31138e-06
0.000179568 -5.38723e-05 -5.38698e-05 -4.31137e-06
0.000148145 -4.44482e-05 -4.44417e-05 -7.95929e-06
0.000145125 -4.35415e-05 -4.35358e-05 -7.95927e-06
0.000203138 -6.09388e-05 -6.09424e-05 -1.15522e-12
0.000207367 -6.22078e-05 -6.22111e-05 -1.20246e-12
0.000146635 -4.39949e-05 -4.39887e-05 -7.95928e-06
0.000174131 -5.22404e-05 -5.22388e-05 -4.31136e-06
0.000205252 -6.15733e-05 -6.15768e-05 -1.13606e-12
0.000177756 -5.33283e-05 -5.33261e-05 -4.31137e-06
0.000175944 -5.27844e-05 -5.27825e-05 -4.31136e-06
0.000145125 -4.35415e-05 -4.35358e-05 -7.95927e-06
0.000142104 -4.26348e-05 -4.26298e-05 -7.95925e-06
0.000198909 -5.96698e-05 -5.96738e-05 -1.13159e-12
0.000203138 -6.09388e-05 -6.09424e-05 -1.15522e-12
0.000143615 -4.30881e-05 -4.30828e-05 -7.95926e-06
0.000170506 -5.11525e-05 -5.11516e-05 -4.31134e-06
0.000201023 -6.03043e-05 -6.03081e-05 -1.15097e-12
0.000174131 -5.22404e-05 -5.22388e-05 -4.31136e-06
0.000172319 -5.16965e-05 -5.16952e-05 -4.31135e-06
0.000142104 -4.26348e-05 -4.26298e-05 -7.95925e-06
0.000139084 -4.1728e-05 -4.17239e-05 -7.95923e-06
0.000194679 -5.84007e-05 -5.84051e-05 -1.10701e-12
0.000198909 -5.96698e-05 -5.96738e-05 -1.13159e-12
0.000140594 -4.21814e-05 -4.21769e-05 -7.95924e-06
0.000166881 -5.00646e-05 -5.00643e-05 -4.31133e-06
0.000196794 -5.90352e-05 -5.90394e-05 -1.16337e-12
0.000170506 -5.11525e-05 -5.11516e-05 -4.31134e-06
0.000168694 -5.06086e-05 -5.06079e-05 -4.31134e-06
0.000139084 -4.1728e-05 -4.17239e-05 -7.95923e-06
0.000136063 -4.08213e-05 -4.0818e-05 -7.95921e-06
0.00019045 -5.71317e-05 -5.71364e-05 -1.0899e-12
0.000194679 -5.84007e-05 -5.84051e-05 -1.10637e-12
0.000137574 -4.12747e-05 -4.1271e-05 -7.95922e-06
0.000163256 -4.89768e-05 -4.8977e-05 -4.31132e-06
0.000192565 -5.77662e-05 -5.77707e-05 -1.15887e-12
0.000166881 -5.00646e-05 -5.00643e-05 -4.31133e-06
0.000165069 -4.95207e-05 -4.95206e-05 -4.31133e-06
0.000136063 -4.08213e-05 -4.0818e-05 -7.95921e-06
0.000133043 -3.99146e-05 -3.99121e-05 -7.95919e-06
0.000186221 -5.58626e-05 -5.58677e-05 -1.07688e-12
0.00019045 -5.71317e-05 -5.71364e-05 -1.0899e-12
0.000134553 -4.03679e-05 -4.0365e-05 -7.9592e-06
0.000159631 -4.78889e-05 -4.78897e-05 -4.31131e-06
0.000188335 -5.64972e-05 -5.65021e-05 -1.0638e-12
0.000163256 -4.89768e-05 -4.8977e-05 -4.31132e-06
0.000161444 -4.84328e-05 -4.84333e-05 -4.31131e-06
0.000133043 -3.99146e-05 -3.99121e-05 -7.95919e-06
0.000130022 -3.90079e-05 -3.90061e-05 -7.95918e-06
0.000181991 -5.45936e-05 -5.4599e-05 -1.06551e-12
0.000186221 -5.58626e-05 -5.58677e-05 -1.07688e-12
0.000131532 -3.94612e-05 -3.94591e-05 -7.95919e-06
0.000156007 -4.6801e-05 -4.68024e-05 -4.31129e-06
0.000184106 -5.52281e-05 -5.52334e-05 -1.00773e-12
0.000159631 -4.78889e-05 -4.78897e-05 -4.31131e-06
0.000157819 -4.73449e-05 -4.7346e-05 -4.3113e-06
0.000130022 -3.90079e-05 -3.90061e-05 -7.95918e-06
0.000127002 -3.81012e-05 -3.81002e-05 -7.95916e-06
0.000177762 -5.33246e-05 -5.33304e-05 -1.02208e-12
0.000181991 -5.45936e-05 -5.4599e-05 -1.06509e-12
0.000128512 -3.85545e-05 -3.85532e-05 -7.95917e-06
0.000152382 -4.57131e-05 -4.57151e-05 -4.31128e-06
0.000179877 -5.39591e-05 -5.39647e-05 -1.05832e-12
0.000156007 -4.6801e-05 -4.68024e-05 -4.31129e-06
0.000154194 -4.6257e-05 -4.62587e-05 -4.31129e-06
0.000127002 -3.81012e-05 -3.81002e-05 -7.95916e-06
0.000123981 -3.71945e-05 -3.71942e-05 -7.95914e-06
0.000173533 -5.20555e-05 -5.20617e-05 -1.01116e-12
0.000177762 -5.33246e-05 -5.33304e-05 -1.02243e-12
0.000125491 -3.76478e-05 -3.76472e-05 -7.95915e-06
0.000148757 -4.46252e-05 -4.46278e-05 -4.31127e-06
0.000175647 -5.26901e-05 -5.2696e-05 -1.01264e-12
0.000152382 -4.57131e-05 -4.57151e-05 -4.31128e-06
0.000150569 -4.51692e-05 -4.51714e-05 -4.31128e-06
0.000123981 -3.71945e-05 -3.71942e-05 -7.95914e-06
0.00012096 -3.62878e-05 -3.62883e-05 -7.95912e-06
0.000169303 -5.07865e-05 -5.0793e-05 -9.54915e-13
0.000173533 -5.20555e-05 -5.20617e-05 -1.01116e-12
0.000122471 -3.67411e-05 -3.67412e-05 -7.95913e-06
0.000145132 -4.35373e-05 -4.35404e-05 -4.31126e-06
0.000171418 -5.1421e-05 -5.14273e-05 -9.59194e-13
0.000148757 -4.46252e-05 -4.46278e-05 -4.31127e-06
0.000146944 -4.40813e-05 -4.40841e-05 -4.31126e-06
0.00012096 -3.62878e-05 -3.62883e-05 -7.95912e-06
0.00011794 -3.53811e-05 -3.53823e-05 -7.9591e-06
0.000165074 -4.95175e-05 -4.95243e-05 -9.46265e-13
0.000169303 -5.07865e-05 -5.0793e-05 -9.54915e-13
0.00011945 -3.58344e-05 -3.58353e-05 -7.95911e-06
0.000141507 -4.24495e-05 -4.24531e-05 -4.31125e-06
0.000167189 -5.0152e-05 -5.01586e-05 -1.00313e-12
0.000145132 -4.35373e-05 -4.35404e-05 -4.31126e-06
0.000143319 -4.29934e-05 -4.29968e-05 -4.31125e-06
0.00011794 -3.53811e-05 -3.53823e-05 -7.9591e-06
0.000114919 -3.44744e-05 -3.44763e-05 -7.95908e-06
0.000160845 -4.82484e-05 -4.82556e-05 -9.48593e-13
0.000165074 -4.95175e-05 -4.95243e-05 -9.46265e-13
0.000116429 -3.49277e-05 -3.49293e-05 -7.95909e-06
0.000137882 -4.13616e-05 -4.13658e-05 -4.31123e-06
0.000162959 -4.88829e-05 -4.88899e-05 -9.6093e-13
0.000141507 -4.24495e-05 -4.24531e-05 -4.31125e-06
0.000139694 -4.19055e-05 -4.19095e-05 -4.31124e-06
0.000114919 -3.44744e-05 -3.44763e-05 -7.95908e-06
0.000111898 -3.35677e-05 -3.35703e-05 -7.95906e-06
0.000156615 -4.69794e-05 -4.69869e-05 -9.00576e-13
0.000160845 -4.82484e-05 -4.82556e-05 -9.31993e-13
0.000113409 -3.4021e-05 -3.40233e-05 -7.95907e-06
0.000134257 -4.02737e-05 -4.02785e-05 -4.31122e-06
0.00015873 -4.76139e-05 -4.76212e-05 -9.28021e-13
0.000137882 -4.13616e-05 -4.13658e-05 -4.31123e-06
0.000136069 -4.08177e-05 -4.08221e-05 -4.31123e-06
0.000111898 -3.35677e-05 -3.35703e-05 -7.95906e-06
0.000108878 -3.2661e-05 -3.26643e-05 -7.95904e-06
0.000152386 -4.57103e-05 -4.57182e-05 -8.69595e-13
0.000156615 -4.69794e-05 -4.69869e-05 -9.00576e-13
0.000110388 -3.31144e-05 -3.31173e-05 -7.95905e-06
0.000130632 -3.91858e-05 -3.91911e-05 -4.31121e-06
0.000154501 -4.63449e-05 -4.63525e-05 -8.93631e-13
0.000134257 -4.02737e-05 -4.02785e-05 -4.31122e-06
0.000132444 -3.97298e-05 -3.97348e-05 -4.31122e-06
0.000108878 -3.2661e-05 -3.26643e-05 -7.95904e-06
0.000105857 -3.17544e-05 -3.17583e-05 -7.95902e-06
0.000148157 -4.44413e-05 -4.44495e-05 -8.52464e-13
0.000152386 -4.57103e-05 -4.57182e-05 -8.69595e-13
0.000107367 -3.22077e-05 -3.22113e-05 -7.95903e-06
0.000127007 -3.8098e-05 -3.81038e-05 -4.3112e-06
0.000150271 -4.50758e-05 -4.50839e-05 -8.89299e-13
0.000130632 -3.91858e-05 -3.91911e-05 -4.31121e-06
0.000128819 -3.86419e-05 -3.86475e-05 -4.3112e-06
0.000105857 -3.17544e-05 -3.17583e-05 -7.95902e-06
0.000102836 -3.08477e-05 -3.08523e-05 -7.959e-06
0.000143927 -4.31722e-05 -4.31808e-05 -8.43629e-13
0.000148157 -4.44413e-05 -4.44495e-05 -8.65377e-13
0.000104347 -3.1301e-05 -3.13053e-05 -7.95901e-06
0.000123382 -3.70101e-05 -3.70164e-05 -4.31119e-06
0.000146042 -4.38068e-05 -4.38152e-05 -8.30238e-13
0.000127007 -3.8098e-05 -3.81038e-05 -4.3112e-06
0.000125194 -3.75541e-05 -3.75601e-05 -4.31119e-06
0.000102836 -3.08477e-05 -3.08523e-05 -7.959e-06
9.98158e-05 -2.9941e-05 -2.99463e-05 -7.95899e-06
0.000139698 -4.19032e-05 -4.19121e-05 -8.0485e-13
0.000143927 -4.31722e-05 -4.31808e-05 -8.43706e-13
0.000101326 -3.03944e-05 -3.03993e-05 -7.959e-06
0.000119757 -3.59223e-05 -3.59291e-05 -4.31117e-06
0.000141813 -4.25377e-05 -4.25464e-05 -8.20293e-13
0.000123382 -3.70101e-05 -3.70164e-05 -4.31119e-06
0.000121569 -3.64662e-05 -3.64728e-05 -4.31118e-06
9.98158e-05 -2.9941e-05 -2.99463e-05 -7.95899e-06
9.67951e-05 -2.90344e-05 -2.90403e-05 -7.95897e-06
0.000135469 -4.06342e-05 -4.06434e-05 -7.9081e-13
0.000139698 -4.19032e-05 -4.19121e-05 -8.0485e-13
9.83054e-05 -2.94877e-05 -2.94933e-05 -7.95898e-06
0.000116132 -3.48344e-05 -3.48417e-05 -4.31116e-06
0.000137583 -4.12687e-05 -4.12777e-05 -7.82179e-13
0.000119757 -3.59223e-05 -3.59291e-05 -4.31117e-06
0.000117944 -3.53783e-05 -3.53854e-05 -4.31117e-06
9.67951e-05 -2.90344e-05 -2.90403e-05 -7.95897e-06
9.37744e-05 -2.81277e-05 -2.81343e-05 -7.95895e-06
0.000131239 -3.93651e-05 -3.93747e-05 -7.63481e-13
0.000135469 -4.06342e-05 -4.06434e-05 -7.9081e-13
9.52847e-05 -2.85811e-05 -2.85873e-05 -7.95896e-06
0.000112507 -3.37466e-05 -3.37544e-05 -4.31115e-06
0.000133354 -3.99996e-05 -4.0009e-05 -8.03138e-13
0.000116132 -3.48344e-05 -3.48417e-05 -4.31116e-06
0.000114319 -3.42905e-05 -3.4298e-05 -4.31116e-06
9.37744e-05 -2.81277e-05 -2.81343e-05 -7.95895e-06
9.07536e-05 -2.72211e-05 -2.72282e-05 -7.95893e-06
0.00012701 -3.80961e-05 -3.8106e-05 -7.2898e-13
0.000131239 -3.93651e-05 -3.93747e-05 -7.63557e-13
9.2264e-05 -2.76744e-05 -2.76812e-05 -7.95894e-06
0.000108882 -3.26587e-05 -3.2667e-05 -4.31114e-06
0.000129125 -3.87306e-05 -3.87403e-05 -7.44067e-13
0.000112507 -3.37466e-05 -3.37544e-05 -4.31115e-06
0.000110694 -3.32026e-05 -3.32107e-05 -4.31115e-06
9.07536e-05 -2.72211e-05 -2.72282e-05 -7.95893e-06
8.77329e-05 -2.63145e-05 -2.63222e-05 -7.95891e-06
0.000122781 -3.6827e-05 -3.68373e-05 -6.87129e-13
0.00012701 -3.80961e-05 -3.8106e-05 -7.41531e-13
8.92433e-05 -2.67678e-05 -2.67752e-05 -7.95892e-06
0.000105257 -3.15709e-05 -3.15796e-05 -4.31113e-06
0.000124895 -3.74616e-05 -3.74716e-05 -7.49856e-13
0.000108882 -3.26587e-05 -3.2667e-05 -4.31114e-06
0.000107069 -3.21148e-05 -3.21233e-05 -4.31113e-06
8.77329e-05 -2.63145e-05 -2.63222e-05 -7.95891e-06
8.47121e-05 -2.54078e-05 -2.54161e-05 -7.9589e-06
0.000118551 -3.5558e-05 -3.55685e-05 -6.58618e-13
0.000122781 -3.6827e-05 -3.68373e-05 -6.87129e-13
8.62225e-05 -2.58612e-05 -2.58692e-05 -7.95891e-06
0.000101632 -3.0483e-05 -3.04922e-05 -4.31112e-06
0.000120666 -3.61925e-05 -3.62029e-05 -6.84622e-13
0.000105257 -3.15709e-05 -3.15796e-05 -4.31113e-06
0.000103444 -3.10269e-05 -3.10359e-05 -4.31112e-06
8.47121e-05 -2.54078e-05 -2.54161e-05 -7.9589e-06
8.16914e-05 -2.45012e-05 -2.45101e-05 -7.95888e-06
0.000114322 -3.42889e-05 -3.42998e-05 -6.23682e-13
0.000118551 -3.5558e-05 -3.55685e-05 -6.58618e-13
8.32018e-05 -2.49545e-05 -2.49631e-05 -7.95889e-06
9.80065e-05 -2.93952e-05 -2.94049e-05 -4.31111e-06
0.000116437 -3.49235e-05 -3.49342e-05 -6.52967e-13
0.000101632 -3.0483e-05 -3.04922e-05 -4.31112e-06
9.98191e-05 -2.99391e-05 -2.99486e-05 -4.31111e-06
8.16914e-05 -2.45012e-05 -2.45101e-05 -7.95888e-06
7.86706e-05 -2.35946e-05 -2.3604e-05 -7.95887e-06
0.000110092 -3.30199e-05 -3.30311e-05 -5.31437e-13
0.000114322 -3.42889e-05 -3.42998e-05 -6.2333e-13
8.0181e-05 -2.40479e-05 -2.4057e-05 -7.95888e-06
9.43814e-05 -2.83073e-05 -2.83175e-05 -4.3111e-06
0.000112207 -3.36544e-05 -3.36655e-05 -5.90601e-13
9.80065e-05 -2.93952e-05 -2.94049e-05 -4.31111e-06
9.6194e-05 -2.88513e-05 -2.88612e-05 -4.3111e-06
7.86706e-05 -2.35946e-05 -2.3604e-05 -7.95887e-06
7.56498e-05 -2.2688e-05 -2.26979e-05 -7.95886e-06
0.000105863 -3.17508e-05 -3.17624e-05 -4.50192e-13
0.000110092 -3.30199e-05 -3.30311e-05 -5.31513e-13
7.71602e-05 -2.31413e-05 -2.3151e-05 -7.95887e-06
9.07563e-05 -2.72195e-05 -2.72301e-05 -4.31109e-06
0.000107978 -3.23854e-05 -3.23967e-05 -4.58567e-13
9.43814e-05 -2.83073e-05 -2.83175e-05 -4.3111e-06
9.25689e-05 -2.77634e-05 -2.77738e-05 -4.3111e-06
7.56498e-05 -2.2688e-05 -2.26979e-05 -7.95886e-06
7.2629e-05 -2.17814e-05 -2.17918e-05 -7.95885e-06
0.000101634 -3.04818e-05 -3.04937e-05 -2.33804e-13
0.000105863 -3.17508e-05 -3.17624e-05 -4.50192e-13
7.41394e-05 -2.22347e-05 -2.22449e-05 -7.95886e-06
8.71312e-05 -2.61317e-05 -2.61427e-05 -4.31109e-06
0.000103748 -3.11163e-05 -3.1128e-05 -3.66982e-13
9.07563e-05 -2.72195e-05 -2.72301e-05 -4.31109e-06
8.89438e-05 -2.66756e-05 -2.66864e-05 -4.31109e-06
7.2629e-05 -2.17814e-05 -2.17918e-05 -7.95885e-06
6.96082e-05 -2.08748e-05 -2.08857e-05 -7.95885e-06
9.74042e-05 -2.92127e-05 -2.92249e-05 -3.37751e-14
0.000101634 -3.04818e-05 -3.04937e-05 -2.33804e-13
7.11186e-05 -2.13281e-05 -2.13388e-05 -7.95885e-06
8.35061e-05 -2.50438e-05 -2.50553e-05 -4.31109e-06
9.95189e-05 -2.98473e-05 -2.98593e-05 -1.37726e-13
8.71312e-05 -2.61317e-05 -2.61427e-05 -4.31109e-06
8.53187e-05 -2.55877e-05 -2.5599e-05 -4.31109e-06
6.96082e-05 -2.08748e-05 -2.08857e-05 -7.95885e-06
6.65873e-05 -1.99682e-05 -1.99796e-05 -7.95886e-06
9.31748e-05 -2.79437e-05 -2.79562e-05 4.58933e-13
9.74042e-05 -2.92127e-05 -2.92249e-05 -3.41255e-14
6.80978e-05 -2.04215e-05 -2.04327e-05 -7.95886e-06
7.9881e-05 -2.3956e-05 -2.39679e-05 -4.3111e-06
9.52895e-05 -2.85782e-05 -2.85906e-05 1.73763e-13
8.35061e-05 -2.50438e-05 -2.50553e-05 -4.31109e-06
8.16935e-05 -2.44999e-05 -2.45116e-05 -4.31109e-06
6.65873e-05 -1.99682e-05 -1.99796e-05 -7.95886e-06
6.35665e-05 -1.90616e-05 -1.90735e-05 -7.95888e-06
8.89453e-05 -2.66746e-05 -2.66874e-05 8.36526e-13
9.31748e-05 -2.79437e-05 -2.79562e-05 4.32767e-13
6.50769e-05 -1.95149e-05 -1.95266e-05 -7.95887e-06
7.62558e-05 -2.28682e-05 -2.28804e-05 -4.31111e-06
9.106e-05 -2.73091e-05 -2.73218e-05 6.64991e-13
7.9881e-05 -2.3956e-05 -2.39679e-05 -4.3111e-06
7.80684e-05 -2.34121e-05 -2.34241e-05 -4.3111e-06
6.35665e-05 -1.90616e-05 -1.90735e-05 -7.95888e-06
6.05456e-05 -1.8155e-05 -1.81674e-05 -7.95891e-06
8.47158e-05 -2.54055e-05 -2.54187e-05 1.91683e-12
8.89453e-05 -2.66746e-05 -2.66874e-05 8.36526e-13
6.20561e-05 -1.86083e-05 -1.86205e-05 -7.9589e-06
7.26306e-05 -2.17803e-05 -2.1793e-05 -4.31114e-06
8.68305e-05 -2.60401e-05 -2.60531e-05 1.55475e-12
7.62558e-05 -2.28682e-05 -2.28804e-05 -4.31111e-06
7.44432e-05 -2.23242e-05 -2.23367e-05 -4.31113e-06
6.05456e-05 -1.8155e-05 -1.81674e-05 -7.95891e-06
5.75248e-05 -1.72485e-05 -1.72613e-05 -7.95897e-06
8.04862e-05 -2.41364e-05 -2.41499e-05 2.33076e-12
8.47158e-05 -2.54055e-05 -2.54187e-05 1.91683e-12
5.90352e-05 -1.77018e-05 -1.77143e-05 -7.95894e-06
6.90054e-05 -2.06925e-05 -2.07055e-05 -4.31119e-06
8.2601e-05 -2.4771e-05 -2.47843e-05 1.89188e-12
7.26306e-05 -2.17803e-05 -2.1793e-05 -4.31114e-06
7.0818e-05 -2.12364e-05 -2.12493e-05 -4.31117e-06
5.75248e-05 -1.72485e-05 -1.72613e-05 -7.95897e-06
5.45039e-05 -1.63419e-05 -1.63551e-05 -7.95903e-06
7.62565e-05 -2.28673e-05 -2.28811e-05 3.04023e-12
8.04862e-05 -2.41364e-05 -2.41499e-05 2.27847e-12
5.60143e-05 -1.67952e-05 -1.68082e-05 -7.959e-06
6.53801e-05 -1.96046e-05 -1.96181e-05 -4.31127e-06
7.83713e-05 -2.35019e-05 -2.35155e-05 4.27714e-12
6.90054e-05 -2.06925e-05 -2.07055e-05 -4.31119e-06
6.71927e-05 -2.01486e-05 -2.01618e-05 -4.31123e-06
5.45039e-05 -1.63419e-05 -1.63551e-05 -7.95903e-06
5.14831e-05 -1.54354e-05 -1.5449e-05 -7.95908e-06
7.20266e-05 -2.15981e-05 -2.16122e-05 1.34612e-12
7.62565e-05 -2.28673e-05 -2.28811e-05 3.04031e-12
5.29935e-05 -1.58887e-05 -1.59021e-05 -7.95906e-06
6.17548e-05 -1.85168e-05 -1.85306e-05 -4.31135e-06
7.41415e-05 -2.22327e-05 -2.22466e-05 2.90605e-13
6.53801e-05 -1.96046e-05 -1.96181e-05 -4.31127e-06
6.35675e-05 -1.90607e-05 -1.90743e-05 -4.31131e-06
5.14831e-05 -1.54354e-05 -1.5449e-05 -7.95908e-06
4.84623e-05 -1.45288e-05 -1.45429e-05 -7.95904e-06
6.77965e-05 -2.03289e-05 -2.03433e-05 -8.02838e-12
7.20266e-05 -2.15981e-05 -2.16122e-05 1.34612e-12
4.99727e-05 -1.49821e-05 -1.4996e-05 -7.95908e-06
5.81295e-05 -1.74289e-05 -1.74431e-05 -4.31143e-06
6.99116e-05 -2.09635e-05 -2.09778e-05 5.88059e-12
6.17548e-05 -1.85168e-05 -1.85306e-05 -4.31135e-06
5.99421e-05 -1.79729e-05 -1.79868e-05 -4.3114e-06
4.84623e-05 -1.45288e-05 -1.45429e-05 -7.95904e-06
4.54416e-05 -1.3622e-05 -1.3637e-05 -7.9587e-06
6.35663e-05 -1.90595e-05 -1.90743e-05 -2.08037e-11
6.77965e-05 -2.03289e-05 -2.03433e-05 -8.02838e-12
4.69519e-05 -1.40754e-05 -1.40899e-05 -7.95893e-06
5.45042e-05 -1.63411e-05 -1.63556e-05 -4.31136e-06
6.56814e-05 -1.96942e-05 -1.97088e-05 -2.65521e-11
5.81295e-05 -1.74289e-05 -1.74431e-05 -4.31143e-06
5.63168e-05 -1.6885e-05 -1.68994e-05 -4.31142e-06
4.54416e-05 -1.3622e-05 -1.3637e-05 -7.9587e-06
4.24211e-05 -1.27148e-05 -1.27313e-05 -7.95765e-06
5.9336e-05 -1.77902e-05 -1.78053e-05 -9.75587e-11
6.35663e-05 -1.90595e-05 -1.90743e-05 -2.08037e-11
4.39314e-05 -1.31685e-05 -1.31841e-05 -7.9583e-06
5.08793e-05 -1.52532e-05 -1.52683e-05 -4.31092e-06
6.14511e-05 -1.84248e-05 -1.84398e-05 -1.3622e-11
5.45042e-05 -1.63411e-05 -1.63556e-05 -4.31136e-06
5.26917e-05 -1.57971e-05 -1.58119e-05 -4.31121e-06
4.24211e-05 -1.27148e-05 -1.27313e-05 -7.95765e-06
3.94009e-05 -1.18068e-05 -1.18261e-05 -7.95485e-06
5.51059e-05 -1.65211e-05 -1.65364e-05 -1.43363e-10
5.9336e-05 -1.77902e-05 -1.78053e-05 -9.7572e-11
4.09109e-05 -1.2261e-05 -1.22786e-05 -7.95657e-06
4.72552e-05 -1.41653e-05 -1.41814e-05 -4.3094e-06
5.72209e-05 -1.71556e-05 -1.71708e-05 -1.87987e-10
5.08793e-05 -1.52532e-05 -1.52683e-05 -4.31092e-06
4.90671e-05 -1.47092e-05 -1.47248e-05 -4.31034e-06
3.94009e-05 -1.18068e-05 -1.18261e-05 -7.95485e-06
3.63807e-05 -1.08969e-05 -1.09217e-05 -7.94863e-06
5.0878e-05 -1.52521e-05 -1.52682e-05 -5.50264e-10
5.51059e-05 -1.65211e-05 -1.65364e-05 -1.43363e-10
3.78909e-05 -1.13522e-05 -1.13737e-05 -7.95231e-06
4.36334e-05 -1.30775e-05 -1.30954e-05 -4.30565e-06
5.29914e-05 -1.58863e-05 -1.59022e-05 -1.42371e-10
4.72552e-05 -1.41653e-05 -1.41814e-05 -4.3094e-06
4.54438e-05 -1.36214e-05 -1.36382e-05 -4.30795e-06
3.63807e-05 -1.08969e-05 -1.09217e-05 -7.94863e-06
3.33612e-05 -9.98317e-06 -1.00191e-05 -7.93494e-06
4.66541e-05 -1.39858e-05 -1.40007e-05 -6.23077e-10
5.0878e-05 -1.52521e-05 -1.52682e-05 -5.50264e-10
3.48707e-05 -1.04406e-05 -1.047e-05 -7.94311e-06
4.00157e-05 -1.199e-05 -1.2011e-05 -4.2968e-06
4.87655e-05 -1.46191e-05 -1.46342e-05 -9.27735e-10
4.36334e-05 -1.30775e-05 -1.30954e-05 -4.30565e-06
4.1824e-05 -1.25337e-05 -1.2553e-05 -4.30203e-06
3.33612e-05 -9.98317e-06 -1.00191e-05 -7.93494e-06
3.03398e-05 -9.06264e-06 -9.11879e-06 -7.90831e-06
4.24443e-05 -1.27212e-05 -1.27385e-05 -2.40156e-09
4.66541e-05 -1.39858e-05 -1.40007e-05 -6.23077e-10
3.18512e-05 -9.52418e-06 -9.56871e-06 -7.92367e-06
3.64083e-05 -1.09032e-05 -1.09308e-05 -4.2783e-06
4.45461e-05 -1.33518e-05 -1.3369e-05 -6.3849e-10
4.00157e-05 -1.199e-05 -1.2011e-05 -4.2968e-06
3.821e-05 -1.14466e-05 -1.14701e-05 -4.28941e-06
3.03398e-05 -9.06264e-06 -9.11879e-06 -7.90831e-06
2.73185e-05 -8.12912e-06 -8.22403e-06 -7.85561e-06
3.82571e-05 -1.14712e-05 -1.14797e-05 -2.09391e-09
4.24443e-05 -1.27212e-05 -1.27385e-05 -2.40156e-09
2.88285e-05 -8.59766e-06 -8.67035e-06 -7.8865e-06
3.28169e-05 -9.81766e-06 -9.85684e-06 -4.24063e-06
4.03481e-05 -1.20967e-05 -1.21077e-05 -3.87511e-09
3.64083e-05 -1.09032e-05 -1.09308e-05 -4.2783e-06
3.46106e-05 -1.036e-05 -1.03931e-05 -4.26219e-06
2.73185e-05 -8.12912e-06 -8.22403e-06 -7.85561e-06
2.42847e-05 -7.17546e-06 -7.33252e-06 -7.76359e-06
3.41343e-05 -1.02269e-05 -1.0246e-05 -8.96473e-09
3.82571e-05 -1.14712e-05 -1.14797e-05 -2.09391e-09
2.58054e-05 -7.65633e-06 -7.77818e-06 -7.8154e-06
2.92627e-05 -8.73554e-06 -8.79737e-06 -4.16855e-06
3.61821e-05 -1.0841e-05 -1.08605e-05 -1.82207e-09
3.28169e-05 -9.81766e-06 -9.85684e-06 -4.24063e-06
3.10326e-05 -9.27649e-06 -9.32404e-06 -4.21156e-06
2.42847e-05 -7.17546e-06 -7.33252e-06 -7.76359e-06
2.12425e-05 -6.18398e-06 -6.45367e-06 -7.59848e-06
3.01056e-05 -9.05063e-06 -9.02354e-06 -5.59695e-09
3.41343e-05 -1.02269e-05 -1.0246e-05 -8.96473e-09
2.27619e-05 -6.68347e-06 -6.89073e-06 -7.69347e-06
2.5757e-05 -7.65663e-06 -7.75731e-06 -4.0378e-06
3.21099e-05 -9.64267e-06 -9.62883e-06 -1.48565e-08
2.92627e-05 -8.73554e-06 -8.79737e-06 -4.16855e-06
2.7505e-05 -8.19445e-06 -8.27596e-06 -4.10988e-06
2.12425e-05 -6.18398e-06 -6.45367e-06 -7.59848e-06
1.8135e-05 -5.15027e-06 -5.56487e-06 -7.34736e-06
2.63148e-05 -7.87906e-06 -7.90104e-06 -2.9786e-08
3.01056e-05 -9.05063e-06 -9.02354e-06 -5.59695e-09
1.97069e-05 -5.67807e-06 -6.01234e-06 -7.48378e-06
2.23643e-05 -6.59055e-06 -6.76016e-06 -3.80367e-06
2.81607e-05 -8.42996e-06 -8.45602e-06 -1.59086e-09
2.5757e-05 -7.65663e-06 -7.75731e-06 -4.0378e-06
2.40373e-05 -7.12423e-06 -7.24844e-06 -3.94423e-06
1.8135e-05 -5.15027e-06 -5.56487e-06 -7.34736e-06
1.49657e-05 -4.0311e-06 -4.68627e-06 -6.95957e-06
2.28607e-05 -6.99637e-06 -6.79898e-06 -1.0505e-08
2.63148e-05 -7.87906e-06 -7.90104e-06 -2.9786e-08
1.65477e-05 -4.59104e-06 -5.12426e-06 -7.175e-06
1.90665e-05 -5.52224e-06 -5.80469e-06 -3.43367e-06
2.45531e-05 -7.46324e-06 -7.32423e-06 -5.56012e-08
2.23643e-05 -6.59055e-06 -6.76016e-06 -3.80367e-06
2.0715e-05 -6.0515e-06 -6.28436e-06 -3.62482e-06
1.49657e-05 -4.0311e-06 -4.68627e-06 -6.95957e-06
1.15095e-05 -2.91682e-06 -3.68259e-06 -6.54172e-06
2.01416e-05 -6.02518e-06 -6.04989e-06 -8.18971e-08
2.28607e-05 -6.99637e-06 -6.79898e-06 -1.0505e-08
1.33121e-05 -3.49178e-06 -4.2087e-06 -6.74278e-06
1.60299e-05 -4.4883e-06 -4.9464e-06 -2.82462e-06
2.1352e-05 -6.36842e-06 -6.42154e-06 2.38761e-08
1.90665e-05 -5.52224e-06 -5.80469e-06 -3.43367e-06
1.74833e-05 -5.01217e-06 -5.34477e-06 -3.19839e-06
1.15095e-05 -2.91682e-06 -3.68259e-06 -6.54172e-06
7.78703e-06 -1.81112e-06 -2.5611e-06 -6.26968e-06
1.85982e-05 -6.17212e-06 -5.32547e-06 1.30529e-07
2.01416e-05 -6.02518e-06 -6.04989e-06 -8.18971e-08
9.64039e-06 -2.28725e-06 -3.15135e-06 -6.36094e-06
1.28656e-05 -3.37288e-06 -4.06832e-06 -2.16087e-06
1.92251e-05 -6.25646e-06 -5.55799e-06 -1.79793e-07
1.60299e-05 -4.4883e-06 -4.9464e-06 -2.82462e-06
1.45446e-05 -3.92556e-06 -4.55101e-06 -2.41903e-06
7.78703e-06 -1.81112e-06 -2.5611e-06 -6.26968e-06
3.45596e-06 -1.90783e-06 -6.63482e-07 -7.33082e-06
1.96787e-05 -5.36089e-06 -6.1362e-06 7.90084e-07
1.85982e-05 -6.17212e-06 -5.32547e-06 1.3053e-07
5.78152e-06 -1.69442e-06 -1.75161e-06 -6.51895e-06
9.49123e-06 -2.44207e-06 -3.02107e-06 -1.747e-06
1.86273e-05 -5.21765e-06 -5.74699e-06 5.61931e-07
1.28656e-05 -3.37288e-06 -4.06832e-06 -2.16087e-06
1.11341e-05 -2.88203e-06 -3.53662e-06 -2.00525e-06
3.45596e-06 -1.90783e-06 -6.63482e-07 -7.33082e-06
1.42149e-06 -6.90564e-06 2.35035e-06 -1.12568e-05
2.68156e-05 -5.42693e-06 -9.16657e-06 6.17035e-06
1.96787e-05 -5.36089e-06 -6.1362e-06 7.90084e-07
1.70455e-06 -2.85487e-06 4.92994e-07 -8.72997e-06
2.47234e-06 -4.36366e-06 8.10565e-07 -6.48087e-06
2.22442e-05 -7.46188e-06 -6.33528e-06 1.65903e-06
9.49123e-06 -2.44207e-06 -3.02107e-06 -1.747e-06
6.93716e-06 -2.37078e-06 -1.95702e-06 -2.64328e-06
1.42149e-06 -6.90564e-06 2.35035e-06 -1.12568e-05
9.59101e-06 -3.0438e-05 8.93441e-06 -1.14285e-05
1.60655e-05 -4.01571e-05 1.0325e-05 -3.07837e-05
2.68156e-05 -5.42693e-06 -9.16657e-06 6.17035e-06
3.68942e-06 -1.6256e-05 5.38566e-06 -1.32929e-05
8.64465e-06 -3.74388e-05 1.23404e-05 -1.83759e-05
2.69139e-05 -1.74067e-06 -1.07885e-05 2.77138e-06
2.47234e-06 -4.36366e-06 8.10565e-07 -6.48087e-06
1.30536e-06 -1.23029e-05 4.71321e-06 -1.21055e-05
      </DataArray> 
    </PointData>
    <CellData>
      <DataArray type="Float64" NumberOfComponents="1" Name="Process" format="ascii">
3
3
3
3
3
3
3
3
3
3
3
3
3
3
3
3
3
3
3
3
3
3
3
3
3
2
2
2
2
2
2
2
2
2
2
2
2
2
2
2
2
2
2
2
2
2
2
2
2
1
1
1
1
1
1
1
1
1
1
1
1
1
1
1
1
1
1
1
1
1
1
1
1
1
0
0
0
0
0
0
0
0
0
0
0
0
0
0
0
0
0
0
0
0
0
0
0
0
0
5
5
5
5
5
5
5
5
5
5
5
5
5
5
5
5
5
5
5
5
5
5
5
5
5
4
4
4
4
4
4
4
4
4
4
4
4
4
4
4
4
4
4
4
4
4
4
4
4
7
7
7
7
7
7
7
7
7
7
7
7
7
7
7
7
7
7
7
7
7
7
7
7
7
6
6
6
6
6
6
6
6
6
6
6
6
6
6
6
6
6
6
6
6
6
6
6
6
3
3
3
3
3
3
3
3
3
3
3
3
3
3
3
3
3
3
3
3
3
3
3
3
3
2
2
2
2
2
2
2
2
2
2
2
2
2
2
2
2
2
2
2
2
2
2
2
2
1
1
1
1
1
1
1
1
1
1
1
1
1
1
1
1
1
1
1
1
1
1
1
1
1
0
0
0
0
0
0
0
0
0
0
0
0
0
0
0
0
0
0
0
0
0
0
0
0
0
5
5
5
5
5
5
5
5
5
5
5
5
5
5
5
5
5
5
5
5
5
5
5
5
5
4
4
4
4
4
4
4
4
4
4
4
4
4
4
4
4
4
4
4
4
4
4
4
4
7
7
7
7
7
7
7
7
7
7
7
7
7
7
7
7
7
7
7
7
7
7
7
7
7
6
6
6
6
6
6
6
6
6
6
6
6
6
6
6
6
6
6
6
6
6
6
6
6
3
3
3
3
3
3
3
3
3
3
3
3
3
3
3
3
3
3
3
3
3
3
3
3
3
2
2
2
2
2
2
2
2
2
2
2
2
2
2
2
2
2
2
2
2
2
2
2
2
1
1
1
1
1
1
1
1
1
1
1
1
1
1
1
1
1
1
1
1
1
1
1
1
1
0
0
0
0
0
0
0
0
0
0
0
0
0
0
0
0
0
0
0
0
0
0
0
0
0
5
5
5
5
5
5
5
5
5
5
5
5
5
5
5
5
5
5
5
5
5
5
5
5
5
4
4
4
4
4
4
4
4
4
4
4
4
4
4
4
4
4
4
4
4
4
4
4
4
7
7
7
7
7
7
7
7
7
7
7
7
7
7
7
7
7
7
7
7
7
7
7
7
7
6
6
6
6
6
6
6
6
6
6
6
6
6
6
6
6
6
6
6
6
6
6
6
6
3
3
3
3
3
3
3
3
3
3
3
3
3
3
3
3
3
3
3
3
3
3
3
3
3
2
2
2
2
2
2
2
2
2
2
2
2
2
2
2
2
2
2
2
2
2
2
2
2
1
1
1
1
1
1
1
1
1
1
1
1
1
1
1
1
1
1
1
1
1
1
1
1
1
0
0
0
0
0
0
0
0
0
0
0
0
0
0
0
0
0
0
0
0
0
0
0
0
0
5
5
5
5
5
5
5
5
5
5
5
5
5
5
5
5
5
5
5
5
5
5
5
5
5
4
4
4
4
4
4
4
4
4
4
4
4
4
4
4
4
4
4
4
4
4
4
4
4
7
7
7
7
7
7
7
7
7
7
7
7
7
7
7
7
7
7
7
7
7
7
7
7
7
6
6
6
6
6
6
6
6
6
6
6
6
6
6
6
6
6
6
6
6
6
6
6
6
3
3
3
3
3
3
3
3
3
3
3
3
3
3
3
3
3
3
3
3
3
3
3
3
3
2
2
2
2
2
2
2
2
2
2
2
2
2
2
2
2
2
2
2
2
2
2
2
2
1
1
1
1
1
1
1
1
1
1
1
1
1
1
1
1
1
1
1
1
1
1
1
1
1
0
0
0
0
0
0
0
0
0
0
0
0
0
0
0
0
0
0
0
0
0
0
0
0
0
5
5
5
5
5
5
5
5
5
5
5
5
5
5
5
5
5
5
5
5
5
5
5
5
5
4
4
4
4
4
4
4
4
4
4
4
4
4
4
4
4
4
4
4
4
4
4
4
4
7
7
7
7
7
7
7
7
7
7
7
7
7
7
7
7
7
7
7
7
7
7
7
7
7
6
6
6
6
6
6
6
6
6
6
6
6
6
6
6
6
6
6
6
6
6
6
6
6
3
3
3
3
3
3
3
3
3
3
3
3
3
3
3
3
3
3
3
3
3
3
3
3
3
2
2
2
2
2
2
2
2
2
2
2
2
2
2
2
2
2
2
2
2
2
2
2
2
1
1
1
1
1
1
1
1
1
1
1
1
1
1
1
1
1
1
1
1
1
1
1
1
1
0
0
0
0
0
0
0
0
0
0
0
0
0
0
0
0
0
0
0
0
0
0
0
0
0
5
5
5
5
5
5
5
5
5
5
5
5
5
5
5
5
5
5
5
5
5
5
5
5
5
4
4
4
4
4
4
4
4
4
4
4
4
4
4
4
4
4
4
4
4
4
4
4
4
7
7
7
7
7
7
7
7
7
7
7
7
7
7
7
7
7
7
7
7
7
7
7
7
7
6
6
6
6
6
6
6
6
6
6
6
6
6
6
6
6
6
6
6
6
6
6
6
6
3
3
3
3
3
3
3
3
3
3
3
3
3
3
3
3
3
3
3
3
3
3
3
3
3
2
2
2
2
2
2
2
2
2
2
2
2
2
2
2
2
2
2
2
2
2
2
2
2
1
1
1
1
1
1
1
1
1
1
1
1
1
1
1
1
1
1
1
1
1
1
1
1
1
0
0
0
0
0
0
0
0
0
0
0
0
0
0
0
0
0
0
0
0
0
0
0
0
0
5
5
5
5
5
5
5
5
5
5
5
5
5
5
5
5
5
5
5
5
5
5
5
5
5
4
4
4
4
4
4
4
4
4
4
4
4
4
4
4
4
4
4
4
4
4
4
4
4
7
7
7
7
7
7
7
7
7
7
7
7
7
7
7
7
7
7
7
7
7
7
7
7
7
6
6
6
6
6
6
6
6
6
6
6
6
6
6
6
6
6
6
6
6
6
6
6
6
      </DataArray> 
    </CellData>
  </Piece>
  </UnstructuredGrid>
</VTKFile>
