<?xml version="1.0"?>
<VTKFile type="UnstructuredGrid">
  <UnstructuredGrid>
  <Piece NumberOfPoints="400"  NumberOfCells="25">
    <Points>
      <DataArray type="Float64" NumberOfComponents="3" format="ascii">
0 15 0
6.74453 14.0174 0
8.92851 23.7301 0
0 25 0
2.2278 14.8099 0
4.47974 14.4871 0
7.5099 17.3324 0
8.21452 20.5704 0
3.03403 24.7404 0
6.01195 24.3212 0
0 18.3333 0
0 21.6667 0
2.5214 18.2081 0
5.02544 17.8637 0
2.75584 21.5174 0
5.50163 21.141 0
6.74453 14.0174 0
13.5248 11.7285 0
17.2664 20.972 0
8.92851 23.7301 0
9.01165 13.3919 0
11.2739 12.623 0
14.8089 14.8603 0
16.0336 17.9484 0
11.7788 22.9612 0
14.5592 22.0333 0
7.5099 17.3324 0
8.21452 20.5704 0
9.97201 16.6436 0
12.4068 15.8147 0
10.8756 19.8359 0
13.4817 18.9565 0
13.5248 11.7285 0
20.177 8.43134 0
24.9556 17.1919 0
17.2664 20.972 0
15.7592 10.7247 0
17.9764 9.62252 0
21.7993 11.3808 0
23.3769 14.3084 0
19.8987 19.8008 0
22.4599 18.536 0
14.8089 14.8603 0
16.0336 17.9484 0
17.174 13.7944 0
19.5033 12.6303 0
18.5323 16.8274 0
20.9794 15.609 0
20.177 8.43134 0
26.6938 4.42367 0
32.1039 12.8173 0
24.9556 17.1919 0
22.3619 7.16081 0
24.5333 5.82137 0
28.5172 7.23695 0
30.3065 10.0436 0
27.3913 15.7827 0
29.7722 14.3206 0
21.7993 11.3808 0
23.3769 14.3084 0
24.0647 10.0583 0
26.3028 8.67365 0
25.7271 12.9401 0
28.0351 11.5151 0
26.6938 4.42367 0
33.1429 -0.0254584 0
38.8625 8.16274 0
32.1039 12.8173 0
28.8462 2.97785 0
30.9945 1.49221 0
35.0602 2.70798 0
36.9556 5.4452 0
34.3918 11.284 0
36.6425 9.72966 0
28.5172 7.23695 0
30.3065 10.0436 0
30.7117 5.75813 0
32.891 4.24574 0
32.5468 8.5355 0
34.7614 6.99981 0
33.1429 -0.0254584 0
39.6317 -4.69321 0
45.3993 3.4635 0
38.8625 8.16274 0
35.2956 -1.56737 0
37.4571 -3.12584 0
41.5566 -1.97959 0
43.4689 0.746615 0
41.0583 6.59138 0
43.2355 5.02269 0
35.0602 2.70798 0
36.9556 5.4452 0
37.2244 1.1529 0
39.3883 -0.412048 0
39.1347 3.88008 0
41.304 2.3116 0
39.6317 -4.69321 0
46.2767 -9.37522 0
51.8615 -1.09269 0
45.3993 3.4635 0
41.8238 -6.26194 0
44.0374 -7.82493 0
48.1337 -6.62792 0
49.9861 -3.86106 0
47.5551 1.92052 0
49.7076 0.399811 0
41.5566 -1.97959 0
43.4689 0.746615 0
43.7341 -3.54254 0
45.925 -5.09419 0
45.6345 -0.808098 0
47.8055 -2.34611 0
46.2767 -9.37522 0
53.1841 -13.8798 0
58.3726 -5.34429 0
51.8615 -1.09269 0
48.5455 -10.9058 0
50.8469 -12.4097 0
54.9038 -11.0561 0
56.6248 -8.20625 0
54.0214 -2.55115 0
56.1907 -3.97014 0
48.1337 -6.62792 0
49.9861 -3.86106 0
50.3642 -8.13716 0
52.6199 -9.6154 0
52.1806 -5.3467 0
54.3924 -6.79705 0
53.1841 -13.8798 0
60.4341 -18.0174 0
65.0206 -9.14572 0
58.3726 -5.34429 0
55.5599 -15.3091 0
57.976 -16.6906 0
61.9502 -15.0893 0
63.4712 -12.129 0
60.5702 -6.66832 0
62.7855 -7.93714 0
54.9038 -11.0561 0
56.6248 -8.20625 0
57.2189 -12.4529 0
59.5672 -13.7994 0
58.8807 -9.56845 0
61.1622 -10.8779 0
60.4341 -18.0174 0
68.0679 -21.6006 0
71.8563 -12.3619 0
65.0206 -9.14572 0
62.9355 -19.2825 0
65.4802 -20.4791 0
69.3173 -18.5575 0
70.5733 -15.4764 0
67.277 -10.2891 0
69.5555 -11.3627 0
61.9502 -15.0893 0
63.4712 -12.129 0
64.3694 -16.3164 0
66.8252 -17.4744 0
65.8091 -13.3159 0
68.1764 -14.4335 0
68.0679 -21.6006 0
76.0778 -24.4504 0
78.8902 -14.8712 0
71.8563 -12.3619 0
70.6981 -22.6404 0
73.3688 -23.5923 0
77.0037 -21.3001 0
77.9358 -18.107 0
74.1796 -13.2824 0
76.5246 -14.1201 0
69.3173 -18.5575 0
70.5733 -15.4764 0
71.8456 -19.5598 0
74.4083 -20.4757 0
72.9997 -16.4394 0
75.4543 -17.3178 0
76.0778 -24.4504 0
84.4032 -26.4086 0
86.0949 -16.5709 0
78.8902 -14.8712 0
78.8224 -25.2089 0
81.599 -25.8632 0
84.9595 -23.1769 0
85.5199 -19.8989 0
81.2752 -15.532 0
83.6775 -16.0996 0
77.0037 -21.3001 0
77.9358 -18.107 0
79.6296 -22.0278 0
82.2827 -22.6548 0
80.4424 -18.8027 0
82.9714 -19.4011 0
84.4032 -26.4086 0
92.9353 -27.3558 0
93.4103 -17.3859 0
86.0949 -16.5709 0
87.2309 -26.841 0
90.0767 -27.1575 0
93.0915 -24.0826 0
93.2485 -20.7612 0
88.5248 -16.9436 0
90.9643 -17.2158 0
84.9595 -23.1769 0
85.5199 -19.8989 0
87.6563 -23.5905 0
90.3685 -23.8931 0
88.0848 -20.2928 0
90.6623 -20.5809 0
92.9353 -27.3558 0
101.53 -27.2271 0
100.755 -17.2762 0
93.4103 -17.3859 0
95.801 -27.4337 0
98.668 -27.3908 0
101.276 -23.9602 0
101.018 -20.6451 0
95.8596 -17.4529 0
98.3089 -17.4163 0
93.0915 -24.0826 0
93.2485 -20.7612 0
95.8204 -24.1572 0
98.5502 -24.1164 0
95.8394 -20.8321 0
98.4308 -20.7935 0
101.53 -27.2271 0
110.033 -26.0219 0
108.039 -16.2412 0
100.755 -17.2762 0
104.382 -26.9429 0
107.218 -26.5404 0
109.377 -22.8093 0
108.716 -19.5502 0
103.194 -17.0327 0
105.623 -16.6873 0
101.276 -23.9602 0
101.018 -20.6451 0
103.992 -23.6891 0
106.694 -23.3048 0
103.598 -20.3874 0
106.165 -20.0218 0
110.033 -26.0219 0
118.299 -23.8042 0
115.181 -14.3202 0
108.039 -16.2412 0
112.82 -25.3903 0
115.577 -24.6495 0
117.273 -20.6857 0
116.239 -17.5243 0
110.439 -15.6963 0
112.821 -15.055 0
109.377 -22.8093 0
108.716 -19.5502 0
112.037 -22.2052 0
114.67 -21.496 0
111.248 -18.9747 0
113.756 -18.2983 0
118.299 -23.8042 0
126.219 -20.6912 0
122.121 -11.5864 0
115.181 -14.3202 0
120.981 -22.8588 0
123.622 -21.8192 0
124.868 -17.6932 0
123.508 -14.6565 0
117.519 -13.4946 0
119.832 -12.5821 0
117.273 -20.6857 0
116.239 -17.5243 0
119.841 -19.7785 0
122.374 -18.7792 0
118.693 -16.6564 0
121.116 -15.699 0
126.219 -20.6912 0
133.734 -16.8389 0
128.828 -8.14072 0
122.121 -11.5864 0
128.771 -19.4809 0
131.276 -18.1947 0
132.114 -13.9689 0
130.486 -11.0665 0
124.382 -10.5115 0
126.618 -9.36149 0
124.868 -17.6932 0
123.508 -14.6565 0
127.323 -16.5255 0
129.738 -15.2821 0
125.867 -13.5336 0
128.193 -12.3353 0
133.734 -16.8389 0
140.837 -12.4214 0
135.313 -4.0997 0
128.828 -8.14072 0
136.147 -15.4202 0
138.514 -13.9454 0
139.007 -9.67029 0
137.174 -6.89106 0
131.013 -6.85356 0
133.174 -5.50488 0
132.114 -13.9689 0
130.486 -11.0665 0
134.449 -12.5919 0
136.747 -11.157 0
132.746 -9.73238 0
134.974 -8.33861 0
140.837 -12.4214 0
147.569 -7.6218 0
141.624 0.405348 0
135.313 -4.0997 0
143.119 -10.8551 0
145.362 -9.25311 0
145.594 -4.9601 0
143.621 -2.27943 0
137.433 -2.64302 0
139.535 -1.13972 0
139.007 -9.67029 0
137.174 -6.89106 0
141.233 -8.13765 0
143.428 -6.56546 0
139.346 -5.39541 0
141.494 -3.8566 0
147.569 -7.6218 0
154.011 -2.61884 0
147.845 5.24088 0
141.624 0.405348 0
149.743 -5.96771 0
151.889 -4.29773 0
151.957 -0.00692246 0
149.91 2.6226 0
143.702 1.98726 0
145.774 3.60085 0
145.594 -4.9601 0
143.621 -2.27943 0
147.735 -3.3279 0
149.854 -1.67486 0
145.73 -0.669091 0
147.825 0.967401 0
154.011 -2.61884 0
160.274 2.4036 0
154.102 10.2566 0
147.845 5.24088 0
156.114 -0.937957 0
158.2 0.738355 0
158.207 5.02318 0
156.16 7.64481 0
149.921 6.90174 0
152.005 8.57617 0
151.957 -0.00692246 0
149.91 2.6226 0
154.045 1.66985 0
156.127 3.34882 0
151.99 4.28977 0
154.072 5.96493 0
160.274 2.4036 0
166.48 7.26146 0
160.535 15.2816 0
154.102 10.2566 0
162.341 4.05104 0
164.407 5.67298 0
164.483 9.94555 0
162.514 12.6348 0
156.218 11.9362 0
158.359 13.6119 0
158.207 5.02318 0
156.16 7.64481 0
160.291 6.68597 0
162.382 8.32941 0
158.261 9.32446 0
160.378 10.9922 0
166.48 7.26146 0
172.727 11.7433 0
167.32 20.0972 0
160.535 15.2816 0
168.564 8.80841 0
170.651 10.3053 0
170.912 14.5698 0
169.129 17.3507 0
162.753 16.938 0
165.015 18.554 0
164.483 9.94555 0
162.514 12.6348 0
166.598 11.5271 0
168.737 13.0698 0
164.674 14.2414 0
166.873 15.8124 0
172.727 11.7433 0
179.189 15 0
174.109 25 0
167.32 20.0972 0
174.797 13.091 0
176.924 14.2252 0
177.797 18.3333 0
176.019 21.6667 0
169.654 21.5737 0
171.945 23.1423 0
170.912 14.5698 0
169.129 17.3507 0
173.136 16.007 0
175.425 17.2956 0
171.442 18.8543 0
173.761 20.3017 0
      </DataArray>
    </Points>
    <Cells>
      <DataArray type="Int32" Name="connectivity" format="ascii">
0 1 2 3 4 5 6 7 8 9 10 11 12 13 14 15 
16 17 18 19 20 21 22 23 24 25 26 27 28 29 30 31 
32 33 34 35 36 37 38 39 40 41 42 43 44 45 46 47 
48 49 50 51 52 53 54 55 56 57 58 59 60 61 62 63 
64 65 66 67 68 69 70 71 72 73 74 75 76 77 78 79 
80 81 82 83 84 85 86 87 88 89 90 91 92 93 94 95 
96 97 98 99 100 101 102 103 104 105 106 107 108 109 110 111 
112 113 114 115 116 117 118 119 120 121 122 123 124 125 126 127 
128 129 130 131 132 133 134 135 136 137 138 139 140 141 142 143 
144 145 146 147 148 149 150 151 152 153 154 155 156 157 158 159 
160 161 162 163 164 165 166 167 168 169 170 171 172 173 174 175 
176 177 178 179 180 181 182 183 184 185 186 187 188 189 190 191 
192 193 194 195 196 197 198 199 200 201 202 203 204 205 206 207 
208 209 210 211 212 213 214 215 216 217 218 219 220 221 222 223 
224 225 226 227 228 229 230 231 232 233 234 235 236 237 238 239 
240 241 242 243 244 245 246 247 248 249 250 251 252 253 254 255 
256 257 258 259 260 261 262 263 264 265 266 267 268 269 270 271 
272 273 274 275 276 277 278 279 280 281 282 283 284 285 286 287 
288 289 290 291 292 293 294 295 296 297 298 299 300 301 302 303 
304 305 306 307 308 309 310 311 312 313 314 315 316 317 318 319 
320 321 322 323 324 325 326 327 328 329 330 331 332 333 334 335 
336 337 338 339 340 341 342 343 344 345 346 347 348 349 350 351 
352 353 354 355 356 357 358 359 360 361 362 363 364 365 366 367 
368 369 370 371 372 373 374 375 376 377 378 379 380 381 382 383 
384 385 386 387 388 389 390 391 392 393 394 395 396 397 398 399 
      </DataArray>
      <DataArray type="Int32" Name="offsets" format="ascii">
16
32
48
64
80
96
112
128
144
160
176
192
208
224
240
256
272
288
304
320
336
352
368
384
400
      </DataArray>
      <DataArray type="UInt8" Name="types" format="ascii">
70
70
70
70
70
70
70
70
70
70
70
70
70
70
70
70
70
70
70
70
70
70
70
70
70
      </DataArray>
    </Cells>
    <PointData>
      <DataArray type="Float64" NumberOfComponents="2" Name="Displacement" format="ascii">
0 0
-1.25547 -0.982598
0.928509 -1.26986
0 0
-0.438869 -0.190124
-0.853589 -0.512908
-0.490096 -1.00098
0.214523 -1.09627
0.36736 -0.259649
0.678612 -0.678817
0 0
0 0
-0.145266 -0.125214
-0.30789 -0.469665
0.0891763 -0.149276
0.168299 -0.525711
-1.25547 -0.982598
-2.4752 -3.27152
1.26643 -4.02797
0.928509 -1.26986
-1.65502 -1.60811
-2.05946 -2.377
-1.19113 -3.47305
0.033639 -3.71831
1.11213 -2.03884
1.22586 -2.96667
-0.490096 -1.00098
0.214523 -1.09627
-0.694653 -1.68977
-0.926502 -2.51861
0.208942 -1.83072
0.14839 -2.71012
-2.4752 -3.27152
-3.82302 -6.56866
0.955621 -7.80808
1.26643 -4.02797
-2.9075 -4.27529
-3.35695 -5.37748
-2.20065 -6.95256
-0.623142 -7.35823
1.23199 -5.19919
1.12657 -6.46405
-1.19113 -3.47305
0.033639 -3.71831
-1.49268 -4.53891
-1.83002 -5.70305
-0.134356 -4.83929
-0.353907 -6.05768
-3.82302 -6.56866
-5.30623 -10.5763
0.103893 -12.1827
0.955621 -7.80808
-4.30479 -7.83919
-4.80005 -9.17863
-3.48278 -11.0964
-1.69349 -11.6231
0.724602 -9.21726
0.438902 -10.6794
-2.20065 -6.95256
-0.623142 -7.35823
-2.60193 -8.27499
-3.03049 -9.65968
-0.939569 -8.72654
-1.29821 -10.1516
-5.30623 -10.5763
-6.85713 -15.0255
-1.13749 -16.8373
0.103893 -12.1827
-5.82048 -12.0221
-6.33885 -13.5078
-4.93976 -15.6254
-3.0444 -16.2215
-0.274837 -13.716
-0.69085 -15.2703
-3.48278 -11.0964
-1.69349 -11.6231
-3.95499 -12.5752
-4.44234 -14.0876
-2.11984 -13.1312
-2.57191 -14.6669
-6.85713 -15.0255
-8.36833 -19.6932
-2.60066 -21.5365
-1.13749 -16.8373
-7.37106 -16.5674
-7.87627 -18.1258
-6.44341 -20.3129
-4.53111 -20.9201
-1.60834 -18.4086
-2.09784 -19.9773
-4.93976 -15.6254
-3.0444 -16.2215
-5.44227 -17.1804
-5.94507 -18.7454
-3.53199 -17.7866
-4.02934 -19.3551
-8.36833 -19.6932
-9.72329 -24.3752
-4.1385 -26.0927
-2.60066 -21.5365
-8.84291 -21.2619
-9.2959 -22.8249
-7.86631 -24.9613
-6.01389 -25.5277
-3.11158 -23.0795
-3.62577 -24.6002
-6.44341 -20.3129
-4.53111 -20.9201
-6.93261 -21.8759
-7.40834 -23.4275
-5.03213 -22.4748
-5.52784 -24.0128
-9.72329 -24.3752
-10.8159 -28.8798
-5.62739 -30.3443
-4.1385 -26.0927
-10.1212 -25.9058
-10.4864 -27.4097
-9.09616 -29.3895
-7.37524 -29.8729
-4.64528 -27.5512
-5.14265 -28.9701
-7.86631 -24.9613
-6.01389 -25.5277
-8.30245 -26.4705
-8.71344 -27.9487
-6.48606 -27.0134
-6.94093 -28.4637
-10.8159 -28.8798
-11.5659 -33.0174
-6.9794 -34.1457
-5.62739 -30.3443
-11.1068 -30.3091
-11.3573 -31.6906
-10.0498 -33.4227
-8.52879 -33.7956
-6.09648 -31.6683
-6.5478 -32.9371
-9.09616 -29.3895
-7.37524 -29.8729
-9.44772 -30.7863
-9.76618 -32.1328
-7.78597 -31.2351
-8.17109 -32.5446
-11.5659 -33.0174
-11.9321 -36.6006
-8.14369 -37.3619
-6.9794 -34.1457
-11.7312 -34.2825
-11.8532 -35.4791
-10.6827 -36.8909
-9.42667 -37.1431
-7.38962 -35.2891
-7.77784 -36.3627
-10.0498 -33.4227
-8.52879 -33.7956
-10.2972 -34.6497
-10.5082 -35.8078
-8.85754 -34.9826
-9.15689 -36.1002
-11.9321 -36.6006
-11.9222 -39.4504
-9.10975 -39.8712
-8.14369 -37.3619
-11.9686 -37.6404
-11.9645 -38.5923
-10.9963 -39.6334
-10.0642 -39.7737
-8.48704 -38.2824
-8.80871 -39.1201
-10.6827 -36.8909
-9.42667 -37.1431
-10.8211 -37.8931
-10.925 -38.809
-9.66698 -38.1061
-9.879 -38.9845
-11.9222 -39.4504
-11.5968 -41.4086
-9.90514 -41.5709
-9.10975 -39.8712
-11.8442 -40.2089
-11.7344 -40.8632
-11.0405 -41.5102
-10.4801 -41.5655
-9.39142 -40.532
-9.65579 -41.0996
-10.9963 -39.6334
-10.0642 -39.7737
-11.0371 -40.3612
-11.0506 -40.9881
-10.2243 -40.4693
-10.362 -41.0677
-11.5968 -41.4086
-11.0647 -42.3558
-10.5897 -42.3859
-9.90514 -41.5709
-11.4358 -41.841
-11.2566 -42.1575
-10.9085 -42.416
-10.7515 -42.4279
-10.1419 -41.9436
-10.369 -42.2158
-11.0405 -41.5102
-10.4801 -41.5655
-11.0104 -41.9238
-10.9648 -42.2265
-10.5819 -41.9595
-10.6711 -42.2476
-11.0647 -42.3558
-10.4696 -42.2271
-11.2452 -42.2762
-10.5897 -42.3859
-10.8657 -42.4337
-10.6653 -42.3908
-10.7243 -42.2936
-10.9817 -42.3118
-10.807 -42.4529
-11.0244 -42.4163
-10.9085 -42.416
-10.7515 -42.4279
-10.8463 -42.4905
-10.7832 -42.4497
-10.8272 -42.4988
-10.9025 -42.4601
-10.4696 -42.2271
-9.96734 -41.0219
-11.9607 -41.2412
-11.2452 -42.2762
-10.2843 -41.9429
-10.1151 -41.5404
-10.6226 -41.1427
-11.2838 -41.2169
-11.4727 -42.0327
-11.7101 -41.6873
-10.7243 -42.2936
-10.9817 -42.3118
-10.6747 -42.0225
-10.6392 -41.6381
-11.069 -42.0541
-11.1684 -41.6885
-9.96734 -41.0219
-9.70149 -38.8042
-12.8188 -39.3202
-11.9607 -41.2412
-9.84631 -40.3903
-9.75633 -39.6495
-10.7273 -39.019
-11.7612 -39.191
-12.2275 -40.6963
-12.5128 -40.055
-10.6226 -41.1427
-11.2838 -41.2169
-10.6292 -40.5385
-10.6629 -39.8293
-11.419 -40.6413
-11.5771 -39.9649
-9.70149 -38.8042
-9.78071 -35.6912
-13.8794 -36.5864
-12.8188 -39.3202
-9.6856 -37.8588
-9.71124 -36.8192
-11.1319 -36.0265
-12.4917 -36.3232
-13.1477 -38.4946
-13.5008 -37.5821
-10.7273 -39.019
-11.7612 -39.191
-10.8255 -38.1118
-10.9597 -37.1126
-11.9739 -38.3231
-12.2169 -37.3656
-9.78071 -35.6912
-10.2656 -31.8389
-15.172 -33.1407
-13.8794 -36.5864
-9.89595 -34.4809
-10.0575 -33.1947
-11.8863 -32.3022
-13.5143 -32.7332
-14.2842 -35.5115
-14.7152 -34.3615
-11.1319 -36.0265
-12.4917 -36.3232
-11.3435 -34.8588
-11.595 -33.6154
-12.7994 -35.2003
-13.1403 -34.002
-10.2656 -31.8389
-11.1629 -27.4214
-16.687 -29.0997
-15.172 -33.1407
-10.52 -30.4202
-10.8197 -28.9454
-12.9925 -28.0036
-14.826 -28.5577
-15.654 -31.8536
-16.1596 -30.5049
-11.8863 -32.3022
-13.5143 -32.7332
-12.2173 -30.9252
-12.5866 -29.4904
-13.921 -31.399
-14.3589 -30.0053
-11.1629 -27.4214
-12.4314 -22.6218
-18.3761 -24.5947
-16.687 -29.0997
-11.5478 -25.8551
-11.9717 -24.2531
-14.4064 -23.2934
-16.3791 -23.9461
-17.234 -27.643
-17.798 -26.1397
-12.9925 -28.0036
-14.826 -28.5577
-13.4332 -26.471
-13.9056 -24.8988
-15.3204 -27.0621
-15.8392 -25.5233
-12.4314 -22.6218
-13.9887 -17.6188
-20.155 -19.7591
-18.3761 -24.5947
-12.9236 -20.9677
-13.4442 -19.2977
-16.0435 -18.3403
-18.0899 -19.0441
-18.9649 -23.0127
-19.5596 -21.3992
-14.4064 -23.2934
-16.3791 -23.9461
-14.9321 -21.6612
-15.479 -20.0082
-16.937 -22.3358
-17.5086 -20.6993
-13.9887 -17.6188
-15.7256 -12.5964
-21.8976 -14.7434
-20.155 -19.7591
-14.5531 -15.938
-15.1333 -14.2616
-17.7934 -13.3101
-19.8401 -14.0219
-20.7459 -18.0983
-21.3282 -16.4238
-16.0435 -18.3403
-18.0899 -19.0441
-16.6213 -16.6635
-17.2067 -14.9845
-18.6762 -17.3769
-19.2617 -15.7017
-15.7256 -12.5964
-17.5201 -7.73854
-23.4652 -9.71837
-21.8976 -14.7434
-16.3256 -10.949
-16.9263 -9.32702
-19.5169 -8.38779
-21.4863 -9.03191
-22.4492 -13.0638
-22.9747 -11.3881
-17.7934 -13.3101
-19.8401 -14.0219
-18.376 -11.6474
-18.9514 -10.0039
-20.406 -12.3422
-20.9557 -10.6744
-17.5201 -7.73854
-19.2729 -3.25669
-24.6798 -4.90282
-23.4652 -9.71837
-18.1025 -6.19159
-18.6827 -4.69474
-21.0878 -3.76357
-22.8715 -4.31595
-23.9134 -8.06196
-24.318 -6.44604
-19.5169 -8.38779
-21.4863 -9.03191
-20.0687 -6.8062
-20.5963 -5.26356
-21.9926 -7.42525
-22.4599 -5.85423
-19.2729 -3.25669
-20.8107 0
-25.891 0
-24.6798 -4.90282
-19.8701 -1.909
-20.4094 -0.774786
-22.2033 0
-23.9813 0
-25.0131 -3.42633
-25.3886 -1.85773
-21.0878 -3.76357
-22.8715 -4.31595
-21.5305 -2.32635
-21.9081 -1.03774
-23.2244 -2.81235
-23.5719 -1.36492
      </DataArray> 
      <DataArray type="Float64" NumberOfComponents="4" Name="CauchyStress" format="ascii">
-282.239 -119.705 0 -20.6781
-186.019 -9.57238 0 47.2588
256.11 10.275 0 -60.0331
405.834 100.292 0 -77.4809
-231.709 -10.205 0 18.9847
-202.465 9.52132 0 41.8965
-89.6436 -9.71053 0 -0.203081
64.5902 1.56101 0 -37.9423
337.141 11.8042 0 -43.015
292.211 -3.96875 0 -44.731
-104.587 -34.8709 0 -1.18716
74.9749 21.2337 0 -7.79283
-103.116 -13.7379 0 -7.34128
-98.5765 -8.53134 0 -5.4837
73.899 -7.92515 0 -26.9351
73.1858 -7.26293 0 -36.6364
-186.019 -9.57238 0 47.2588
-123.453 -20.0896 0 53.8758
169.797 26.7289 0 -70.3278
256.11 10.275 0 -60.0331
-167.062 -19.7611 0 48.9949
-144.548 -20.6155 0 51.7494
-59.9277 -2.2294 0 6.59978
35.7838 13.9524 0 -34.6594
225.447 23.0541 0 -71.443
197.747 27.2881 0 -73.7194
-89.6436 -9.71053 0 -0.203081
64.5902 1.56101 0 -37.9423
-78.1321 -8.45324 0 3.93966
-67.5606 -4.95656 0 5.72094
51.8586 7.02852 0 -36.3181
42.7731 10.9466 0 -35.507
-123.453 -20.0896 0 53.8758
-77.9864 -24.9417 0 43.6617
98.9383 30.2758 0 -56.6047
169.797 26.7289 0 -70.3278
-106.201 -21.9272 0 53.0164
-91.3135 -24.0745 0 49.0733
-39.4728 0.26674 0 6.49179
20.5932 19.7913 0 -27.484
142.619 27.0349 0 -65.7491
119.142 29.1663 0 -61.6152
-59.9277 -2.2294 0 6.59978
35.7838 13.9524 0 -34.6594
-53.4413 -1.06557 0 7.12489
-46.2872 -0.36704 0 7.01478
30.4381 16.8737 0 -33.1099
25.8239 19.1605 0 -30.7691
-77.9864 -24.9417 0 43.6617
-40.5782 -17.4711 0 27.4668
55.0047 21.59 0 -35.7819
98.9383 30.2758 0 -56.6047
-64.8192 -23.476 0 38.1625
-51.9852 -20.5852 0 32.7885
-23.7156 5.16381 0 2.67652
7.97611 18.4661 0 -18.497
82.2445 28.9875 0 -50.2915
68.0892 25.922 0 -43.2503
-39.4728 0.26674 0 6.49179
20.5932 19.7913 0 -27.484
-33.3689 1.65608 0 5.5086
-28.0316 3.59839 0 4.10071
15.4314 19.4867 0 -24.0614
11.3648 19.1795 0 -21.1783
-40.5782 -17.4711 0 27.4668
-13.3229 -6.63238 0 9.54566
21.2104 9.29943 0 -15.6048
55.0047 21.59 0 -35.7819
-30.7271 -14.2772 0 21.8093
-21.7471 -10.608 0 15.7119
-12.4685 8.49314 0 -2.14432
-0.454063 14.2302 0 -10.7843
42.542 17.2637 0 -28.5876
31.2105 13.3645 0 -21.9715
-23.7156 5.16381 0 2.67652
7.97611 18.4661 0 -18.497
-19.8692 6.30986 0 1.22628
-16.0657 7.43415 0 -0.428001
5.04384 17.4036 0 -15.8887
2.29849 16.0517 0 -13.3593
-13.3229 -6.63238 0 9.54566
10.9961 5.7422 0 -7.67471
-3.50126 -3.75441 0 2.62535
21.2104 9.29943 0 -15.6048
-5.05786 -2.43433 0 3.58136
3.07334 1.76657 0 -2.15761
-3.39694 11.7729 0 -7.29902
-8.01899 8.71824 0 -3.94537
12.4356 4.95078 0 -9.32365
4.29938 0.558113 0 -3.22125
-12.4685 8.49314 0 -2.14432
-0.454063 14.2302 0 -10.7843
-9.17072 9.65317 0 -3.87165
-6.18509 10.8334 0 -5.61131
-3.14792 12.2928 0 -8.28035
-5.68135 10.5048 0 -6.01481
10.9961 5.7422 0 -7.67471
33.9783 16.0615 0 -23.1605
-26.2966 -14.0993 0 17.8315
-3.50126 -3.75441 0 2.62535
18.668 9.47108 0 -13.0137
26.2239 12.94 0 -18.1893
4.53571 13.2019 0 -12.0827
-15.1492 3.27548 0 1.46895
-11.2532 -7.68913 0 8.10134
-18.9414 -11.126 0 13.1598
-3.39694 11.7729 0 -7.29902
-8.01899 8.71824 0 -3.94537
-0.735596 12.4333 0 -8.92265
1.84267 12.8954 0 -10.5156
-10.33 6.89689 0 -2.0167
-12.7676 5.06282 0 -0.20878
33.9783 16.0615 0 -23.1605
58.4054 22.2446 0 -35.8824
-48.1105 -20.1272 0 29.6833
-26.2966 -14.0993 0 17.8315
41.9212 18.691 0 -27.7995
49.9641 20.7277 0 -32.029
12.4714 12.9212 0 -16.0772
-22.6558 -1.19481 0 5.70691
-33.4887 -16.612 0 22.1775
-40.8135 -18.6458 0 26.1617
4.53571 13.2019 0 -12.0827
-15.1492 3.27548 0 1.46895
7.21232 13.3418 0 -13.5496
9.75386 13.2374 0 -14.8682
-17.5808 1.6239 0 3.03513
-20.1714 0.123281 0 4.46805
58.4054 22.2446 0 -35.8824
84.7364 23.3174 0 -44.2938
-70.7536 -21.2029 0 37.0524
-48.1105 -20.1272 0 29.6833
67.0346 23.2031 0 -39.2623
75.669 23.5298 0 -42.0621
20.751 10.4882 0 -18.5821
-30.5911 -4.37176 0 8.43357
-55.5494 -21.0334 0 32.6966
-63.2121 -21.4009 0 35.1717
12.4714 12.9212 0 -16.0772
-22.6558 -1.19481 0 5.70691
15.2189 12.3518 0 -17.1173
17.851 11.5028 0 -17.9388
-25.2051 -2.37837 0 6.77973
-27.9691 -3.46804 0 7.70683
84.7364 23.3174 0 -44.2938
112.238 19.3669 0 -46.5203
-93.3565 -17.8095 0 38.8167
-70.7536 -21.2029 0 37.0524
93.9432 22.5316 0 -45.8375
102.963 21.1587 0 -46.5792
29.3441 6.38118 0 -18.8954
-38.6294 -6.10346 0 9.44323
-78.2896 -20.4884 0 38.3141
-85.9413 -19.3494 0 38.9179
20.751 10.4882 0 -18.5821
-30.5911 -4.37176 0 8.43357
23.6836 9.29873 0 -18.985
26.4073 7.89544 0 -19.0842
-33.2295 -5.09179 0 8.96739
-36.0397 -5.68191 0 9.31407
112.238 19.3669 0 -46.5203
138.317 12.2271 0 -41.0479
-114.256 -11.7272 0 34.0148
-93.3565 -17.8095 0 38.8167
121.368 17.2316 0 -45.6128
129.919 14.8006 0 -43.8012
37.4781 1.42433 0 -16.4101
-46.0389 -6.71323 0 8.49835
-100.594 -15.9575 0 37.9643
-107.687 -13.9079 0 36.35
29.3441 6.38118 0 -18.8954
-38.6294 -6.10346 0 9.44323
32.2371 4.77813 0 -18.4051
34.8115 3.09389 0 -17.5881
-41.1507 -6.39443 0 9.34079
-43.7522 -6.60564 0 9.01379
138.317 12.2271 0 -41.0479
159.131 4.81818 0 -27.6652
-130.568 -5.4944 0 22.7794
-114.256 -11.7272 0 34.0148
146.161 9.63451 0 -37.419
152.987 7.12047 0 -32.9817
43.9953 -3.01751 0 -11.0471
-51.8109 -6.67638 0 5.68889
-120.308 -9.52464 0 30.9392
-125.849 -7.41537 0 27.1467
37.4781 1.42433 0 -16.4101
-46.0389 -6.71323 0 8.49835
39.9876 -0.176136 0 -14.9227
42.0504 -1.67824 0 -13.1648
-48.1282 -6.73878 0 7.75801
-50.1593 -6.72303 0 6.78363
159.131 4.81818 0 -27.6652
170.691 0.371797 0 -8.25068
-139.511 -1.8339 0 6.78539
-130.568 -5.4944 0 22.7794
164.287 2.86299 0 -21.6798
168.077 1.35067 0 -15.2396
47.5979 -5.587 0 -3.48989
-54.9749 -6.57877 0 1.50271
-134.446 -3.88049 0 17.8639
-137.487 -2.64388 0 12.4599
43.9953 -3.01751 0 -11.0471
-51.8109 -6.67638 0 5.68889
45.6506 -4.1394 0 -8.69588
46.7888 -5.00916 0 -6.22341
-53.1443 -6.62621 0 4.42506
-54.2606 -6.59135 0 2.96932
170.691 0.371797 0 -8.25068
170.509 1.06123 0 13.375
-139.225 -2.32934 0 -10.9663
-139.511 -1.8339 0 6.78539
172.052 0.00319251 0 -1.01806
171.991 0.238486 0 6.15464
47.4858 -5.381 0 4.87112
-54.9477 -6.77522 0 -3.18102
-140.473 -1.50671 0 0.898185
-140.375 -1.66886 0 -5.11131
47.5979 -5.587 0 -3.48989
-54.9749 -6.57877 0 1.50271
48.0382 -5.84367 0 -0.667982
47.9993 -5.77693 0 2.06906
-55.2962 -6.6073 0 -0.0252983
-55.2881 -6.67669 0 -1.65528
170.509 1.06123 0 13.375
158.557 6.63272 0 32.5955
-129.938 -7.08982 0 -26.7428
-139.225 -2.32934 0 -10.9663
167.759 2.42784 0 20.3333
163.828 4.28816 0 26.7124
43.6886 -2.44438 0 12.3315
-51.7068 -7.23431 0 -7.33771
-137.051 -3.50929 0 -16.5755
-133.903 -5.13163 0 -21.8977
47.4858 -5.381 0 4.87112
-54.9477 -6.77522 0 -3.18102
46.607 -4.67144 0 7.57345
45.4016 -3.68546 0 10.0133
-54.2099 -6.9041 0 -4.64092
-53.0686 -7.0599 0 -6.08545
158.557 6.63272 0 32.5955
137.684 15.3072 0 45.6458
-113.244 -14.0589 0 -37.7474
-129.938 -7.08982 0 -26.7428
152.353 9.4001 0 37.7871
145.515 12.3695 0 42.1096
37.0489 2.30838 0 17.5402
-45.9527 -7.63566 0 -10.0928
-125.101 -9.27548 0 -31.0621
-119.414 -11.6091 0 -34.792
43.6886 -2.44438 0 12.3315
-51.7068 -7.23431 0 -7.33771
41.6902 -0.992191 0 14.4158
39.5801 0.607798 0 16.128
-50.042 -7.42121 0 -8.41665
-48.0221 -7.57386 0 -9.36962
137.684 15.3072 0 45.6458
111.595 22.8841 0 50.7845
-92.6592 -21.0518 0 -42.0743
-113.244 -14.0589 0 -37.7474
129.267 18.0271 0 48.3272
120.686 20.5321 0 50.0455
28.9688 7.54514 0 19.8147
-38.5446 -7.21541 0 -11.0361
-106.692 -16.5799 0 -39.8876
-99.7466 -18.9842 0 -41.31
37.0489 2.30838 0 17.5402
-45.9527 -7.63566 0 -10.0928
34.3923 4.08743 0 18.6271
31.8419 5.87286 0 19.3699
-43.6734 -7.55666 0 -10.6011
-41.0667 -7.38439 0 -10.9287
111.595 22.8841 0 50.7845
84.8486 28.116 0 48.1669
-70.1062 -24.4435 0 -40.2995
-92.6592 -21.0518 0 -42.0743
102.518 25.1903 0 50.622
93.7969 27.1227 0 49.7204
20.4821 11.6638 0 19.3709
-30.7333 -5.80988 0 -9.92836
-85.2528 -22.552 0 -42.2178
-77.5471 -23.5889 0 -41.6562
28.9688 7.54514 0 19.8147
-38.5446 -7.21541 0 -11.0361
26.0296 9.06214 0 19.9871
23.3193 10.4419 0 19.8609
-36.0075 -7.0098 0 -10.8845
-33.2953 -6.58091 0 -10.4891
84.8486 28.116 0 48.1669
58.9405 25.9415 0 39.9187
-48.8981 -24.4127 0 -32.4142
-70.1062 -24.4435 0 -40.2995
75.8552 27.902 0 46.0909
67.2603 26.9745 0 43.4215
12.6482 14.4808 0 16.6029
-22.9141 -2.49775 0 -7.54404
-63.0067 -25.2189 0 -38.1372
-55.9421 -25.4125 0 -35.4045
20.4821 11.6638 0 19.3709
-30.7333 -5.80988 0 -9.92836
17.7706 12.8474 0 18.5897
15.3213 13.893 0 17.6602
-28.1117 -4.65551 0 -9.26397
-25.3446 -3.42477 0 -8.47556
58.9405 25.9415 0 39.9187
36.7177 22.025 0 26.5924
-27.8986 -16.6673 0 -21.6023
-48.8981 -24.4127 0 -32.4142
51.3111 25.3836 0 35.6434
44.2105 24.5314 0 31.0722
5.1639 14.1153 0 12.8354
-15.9611 1.76428 0 -2.89592
-41.629 -21.8579 0 -29.3074
-34.4026 -18.7973 0 -25.8049
12.6482 14.4808 0 16.6029
-22.9141 -2.49775 0 -7.54404
9.91342 14.4964 0 15.4998
7.46547 14.2526 0 14.3064
-20.7266 -1.72251 0 -6.27805
-18.4075 -0.439973 0 -4.64851
36.7177 22.025 0 26.5924
14.2123 7.09587 0 12.8352
-7.90132 -8.96004 0 -5.091
-27.8986 -16.6673 0 -21.6023
28.6024 17.1186 0 22.4695
20.7898 11.4014 0 18.1603
-2.0073 13.782 0 7.32226
-9.3678 7.63089 0 1.02904
-21.8612 -15.9536 0 -16.4295
-15.328 -14.3152 0 -10.6887
5.1639 14.1153 0 12.8354
-15.9611 1.76428 0 -2.89592
3.01494 14.4147 0 11.042
0.770008 14.5971 0 9.13825
-13.3175 4.54998 0 -1.38949
-10.8983 6.75228 0 -0.164531
14.2123 7.09587 0 12.8352
-4.82622 0.205258 0 -7.03653
13.5572 11.1503 0 9.25504
-7.90132 -8.96004 0 -5.091
9.19179 5.61685 0 6.02578
3.69279 4.51409 0 -1.13789
-9.31584 8.39293 0 3.37286
-2.17066 14.1916 0 9.77052
0.0508199 0.709904 0 -0.372341
7.40504 9.42153 0 4.01379
-2.0073 13.782 0 7.32226
-9.3678 7.63089 0 1.02904
-4.93883 11.5621 0 5.84656
-7.39589 9.19193 0 4.63027
-8.20204 8.05476 0 2.9705
-6.03714 9.93307 0 6.01021
-4.82622 0.205258 0 -7.03653
-30.2526 -23.0862 0 -19.7334
44.1983 17.2028 0 36.5334
13.5572 11.1503 0 9.25504
-16.57 -9.322 0 -10.6024
-26.7376 -19.3158 0 -13.8525
-21.5916 6.92914 0 -4.14869
1.66624 16.831 0 13.0017
20.2961 5.12495 0 16.9802
30.2735 2.99627 0 26.6579
-9.31584 8.39293 0 3.37286
-2.17066 14.1916 0 9.77052
-11.7917 9.5638 0 1.44887
-15.922 10.0285 0 -1.22407
1.96387 18.5099 0 12.5841
3.60567 19.5217 0 13.4374
-30.2526 -23.0862 0 -19.7334
-88.5846 -16.2166 0 -47.0368
71.2846 7.98784 0 29.8946
44.1983 17.2028 0 36.5334
-31.3303 -18.2108 0 -31.1346
-46.8625 -12.7136 0 -43.301
-30.8521 4.13344 0 3.85734
32.1972 23.2735 0 36.6115
57.2518 45.0873 0 41.3101
65.773 53.1913 0 38.3659
-21.5916 6.92914 0 -4.14869
1.66624 16.831 0 13.0017
-26.0574 0.732041 0 -5.54223
-28.5216 -2.32231 0 -3.30204
1.61393 15.4278 0 15.0879
10.9447 18.5282 0 22.9614
-88.5846 -16.2166 0 -47.0368
-75.4406 31.8555 0 -112.562
89.6815 838.146 0 39.3426
71.2846 7.98784 0 29.8946
-139.368 -48.075 0 -45.1228
-153.137 -67.8609 0 -57.5352
127.926 170.481 0 -169.665
93.3874 319.077 0 -148.945
63.3587 -40.8753 0 36.5273
54.5064 85.3017 0 55.5954
-30.8521 4.13344 0 3.85734
32.1972 23.2735 0 36.6115
-31.6337 10.8286 0 2.68215
-0.162548 38.0661 0 -38.6165
40.3397 23.2258 0 39.3659
36.7361 70.4895 0 -4.05236
      </DataArray> 
    </PointData>
    <CellData>
      <DataArray type="Float64" NumberOfComponents="1" Name="Process" format="ascii">
0
1
0
1
1
0
1
1
1
0
0
0
2
0
2
2
2
2
2
3
3
3
3
3
3
      </DataArray> 
    </CellData>
  </Piece>
  </UnstructuredGrid>
</VTKFile>
