<?xml version="1.0"?>
<VTKFile type="UnstructuredGrid">
  <UnstructuredGrid>
  <Piece NumberOfPoints="12411"  NumberOfCells="1379">
    <Points>
      <DataArray type="Float64" NumberOfComponents="3" format="ascii">
0 0 0
2.52653 -0.00574058 0
2.53119 4.28378 0
0 4.28571 0
1.26275 -0.00358239 0
2.52938 2.13939 0
1.2657 4.28502 0
0 2.14286 0
1.26489 2.14133 0
2.52653 -0.00574058 0
5.05461 -0.00995914 0
5.0618 4.28013 0
2.53119 4.28378 0
3.79056 -0.00777014 0
5.05839 2.1353 0
3.79653 4.28213 0
2.52938 2.13939 0
3.79386 2.13741 0
5.05461 -0.00995914 0
7.5826 -0.0150498 0
7.59235 4.2751 0
5.0618 4.28013 0
6.31863 -0.012355 0
7.58753 2.13019 0
6.32707 4.27779 0
5.05839 2.1353 0
6.32295 2.13292 0
7.5826 -0.0150498 0
10.1105 -0.0216047 0
10.1229 4.26856 0
7.59235 4.2751 0
8.84657 -0.0181288 0
10.1167 2.12365 0
8.85763 4.27203 0
7.58753 2.13019 0
8.85213 2.12712 0
10.1105 -0.0216047 0
12.6384 -0.0297588 0
12.6536 4.26038 0
10.1229 4.26856 0
11.3744 -0.0254763 0
12.646 2.11548 0
11.3882 4.26468 0
10.1167 2.12365 0
11.3814 2.11978 0
12.6384 -0.0297588 0
15.1662 -0.0396037 0
15.1843 4.25051 0
12.6536 4.26038 0
13.9023 -0.0344678 0
15.1753 2.10563 0
13.9189 4.25566 0
12.646 2.11548 0
13.9106 2.11077 0
15.1662 -0.0396037 0
17.694 -0.0511514 0
17.715 4.23892 0
15.1843 4.25051 0
16.4301 -0.0451641 0
17.7045 2.09407 0
16.4496 4.24493 0
15.1753 2.10563 0
16.4399 2.10006 0
17.694 -0.0511514 0
20.2219 -0.064413 0
20.2457 4.22563 0
17.715 4.23892 0
18.958 -0.0575681 0
20.2339 2.08079 0
18.9804 4.23249 0
17.7045 2.09407 0
18.9692 2.08764 0
20.2219 -0.064413 0
22.7498 -0.0793814 0
22.7765 4.21062 0
20.2457 4.22563 0
21.4859 -0.0716843 0
22.7632 2.0658 0
21.5111 4.21834 0
20.2339 2.08079 0
21.4985 2.07351 0
22.7498 -0.0793814 0
25.2778 -0.0960506 0
25.3074 4.19391 0
22.7765 4.21062 0
24.0138 -0.087504 0
25.2926 2.04911 0
24.0419 4.20247 0
22.7632 2.0658 0
24.0279 2.05767 0
25.2778 -0.0960506 0
27.8058 -0.114411 0
27.8382 4.1755 0
25.3074 4.19391 0
26.5418 -0.10502 0
27.822 2.03073 0
26.5728 4.18492 0
25.2926 2.04911 0
26.5573 2.04013 0
27.8058 -0.114411 0
30.3338 -0.134453 0
30.3691 4.15541 0
27.8382 4.1755 0
29.0698 -0.124223 0
30.3515 2.01066 0
29.1036 4.16567 0
27.822 2.03073 0
29.0867 2.0209 0
30.3338 -0.134453 0
32.8619 -0.156169 0
32.9 4.13365 0
30.3691 4.15541 0
31.5978 -0.145102 0
32.881 1.98892 0
31.6345 4.14474 0
30.3515 2.01066 0
31.6162 2 0
32.8619 -0.156169 0
35.39 -0.179547 0
35.4309 4.11022 0
32.9 4.13365 0
34.1259 -0.16765 0
35.4105 1.96552 0
34.1654 4.12215 0
32.881 1.98892 0
34.1457 1.97743 0
35.39 -0.179547 0
37.9181 -0.20458 0
37.9618 4.08514 0
35.4309 4.11022 0
36.654 -0.191857 0
37.94 1.94046 0
36.6964 4.09789 0
35.4105 1.96552 0
36.6752 1.95319 0
37.9181 -0.20458 0
40.4463 -0.231257 0
40.4928 4.05841 0
37.9618 4.08514 0
39.1822 -0.217713 0
40.4696 1.91375 0
39.2273 4.07198 0
37.94 1.94046 0
39.2048 1.92731 0
40.4463 -0.231257 0
42.9745 -0.259571 0
43.0238 4.03004 0
40.4928 4.05841 0
41.7104 -0.24521 0
42.9992 1.88541 0
41.7583 4.04443 0
40.4696 1.91375 0
41.7344 1.89979 0
42.9745 -0.259571 0
45.5028 -0.289512 0
45.5548 4.00005 0
43.0238 4.03004 0
44.2386 -0.274339 0
45.5288 1.85544 0
44.2893 4.01525 0
42.9992 1.88541 0
44.264 1.87063 0
45.5028 -0.289512 0
48.0311 -0.321071 0
48.0858 3.96843 0
45.5548 4.00005 0
46.7669 -0.30509 0
48.0585 1.82385 0
46.8203 3.98444 0
45.5288 1.85544 0
46.7936 1.83985 0
48.0311 -0.321071 0
50.5594 -0.354238 0
50.6169 3.9352 0
48.0858 3.96843 0
49.2952 -0.337454 0
50.5882 1.79065 0
49.3513 3.95202 0
48.0585 1.82385 0
49.3233 1.80745 0
50.5594 -0.354238 0
53.0877 -0.389006 0
53.1479 3.90037 0
50.6169 3.9352 0
51.8236 -0.371423 0
53.1179 1.75586 0
51.8824 3.91799 0
50.5882 1.79065 0
51.853 1.77345 0
53.0877 -0.389006 0
55.6161 -0.425365 0
55.679 3.86395 0
53.1479 3.90037 0
54.3519 -0.406987 0
55.6476 1.71946 0
54.4135 3.88236 0
53.1179 1.75586 0
54.3827 1.73786 0
55.6161 -0.425365 0
58.1445 -0.463306 0
58.2101 3.82595 0
55.679 3.86395 0
56.8803 -0.444138 0
58.1774 1.68149 0
56.9445 3.84515 0
55.6476 1.71946 0
56.9125 1.70068 0
58.1445 -0.463306 0
60.673 -0.50282 0
60.7412 3.78637 0
58.2101 3.82595 0
59.4088 -0.482867 0
60.7071 1.64194 0
59.4756 3.80636 0
58.1774 1.68149 0
59.4422 1.66191 0
60.673 -0.50282 0
63.2015 -0.543898 0
63.2723 3.74523 0
60.7412 3.78637 0
61.9372 -0.523164 0
63.2369 1.60083 0
62.0067 3.76599 0
60.7071 1.64194 0
61.972 1.62158 0
63.2015 -0.543898 0
65.73 -0.586531 0
65.8034 3.70253 0
63.2723 3.74523 0
64.4657 -0.56502 0
65.7667 1.55816 0
64.5379 3.72407 0
63.2369 1.60083 0
64.5018 1.57969 0
65.73 -0.586531 0
68.2585 -0.63071 0
68.3346 3.65828 0
65.8034 3.70253 0
66.9942 -0.608427 0
68.2966 1.51395 0
67.069 3.6806 0
65.7667 1.55816 0
67.0317 1.53625 0
68.2585 -0.63071 0
70.7871 -0.676426 0
70.8657 3.61249 0
68.3346 3.65828 0
69.5228 -0.653376 0
70.8264 1.4682 0
69.6002 3.63558 0
68.2966 1.51395 0
69.5615 1.49127 0
70.7871 -0.676426 0
73.3156 -0.72367 0
73.3969 3.56518 0
70.8657 3.61249 0
72.0513 -0.699857 0
73.3563 1.42092 0
72.1313 3.58903 0
70.8264 1.4682 0
72.0914 1.44475 0
73.3156 -0.72367 0
75.8442 -0.772433 0
75.9281 3.51634 0
73.3969 3.56518 0
74.5799 -0.747862 0
75.8862 1.37212 0
74.6625 3.54095 0
73.3563 1.42092 0
74.6213 1.39671 0
75.8442 -0.772433 0
78.3729 -0.822706 0
78.4593 3.46599 0
75.9281 3.51634 0
77.1086 -0.797381 0
78.4161 1.32181 0
77.1937 3.49136 0
75.8862 1.37212 0
77.1512 1.34715 0
78.3729 -0.822706 0
80.9015 -0.87448 0
80.9905 3.41415 0
78.4593 3.46599 0
79.6372 -0.848406 0
80.946 1.26999 0
79.7249 3.44026 0
78.4161 1.32181 0
79.6811 1.29609 0
80.9015 -0.87448 0
83.4302 -0.927746 0
83.5217 3.3608 0
80.9905 3.41415 0
82.1659 -0.900927 0
83.476 1.21669 0
82.2561 3.38766 0
80.946 1.26999 0
82.211 1.24353 0
83.4302 -0.927746 0
85.9589 -0.982495 0
86.0529 3.30598 0
83.5217 3.3608 0
84.6946 -0.954936 0
86.0059 1.1619 0
84.7873 3.33357 0
83.476 1.21669 0
84.741 1.18948 0
85.9589 -0.982495 0
88.4876 -1.03872 0
88.5841 3.24967 0
86.0529 3.30598 0
87.2233 -1.01042 0
88.5359 1.10564 0
87.3185 3.27801 0
86.0059 1.1619 0
87.2709 1.13395 0
88.4876 -1.03872 0
91.0164 -1.09641 0
91.1153 3.19191 0
88.5841 3.24967 0
89.752 -1.06738 0
91.0659 1.04791 0
89.8497 3.22097 0
88.5359 1.10564 0
89.8009 1.07695 0
91.0164 -1.09641 0
93.5452 -1.15555 0
93.6465 3.13268 0
91.1153 3.19191 0
92.2808 -1.1258 0
93.5959 0.98872 0
92.3809 3.16248 0
91.0659 1.04791 0
92.3309 1.01849 0
93.5452 -1.15555 0
96.0739 -1.21614 0
96.1777 3.07201 0
93.6465 3.13268 0
94.8095 -1.18567 0
96.1259 0.928087 0
94.9121 3.10253 0
93.5959 0.98872 0
94.8609 0.958584 0
96.0739 -1.21614 0
98.6027 -1.27817 0
98.709 3.0099 0
96.1777 3.07201 0
97.3383 -1.24698 0
98.6559 0.866015 0
97.4434 3.04113 0
96.1259 0.928087 0
97.3909 0.897231 0
98.6027 -1.27817 0
101.132 -1.34163 0
101.24 2.94635 0
98.709 3.0099 0
99.8672 -1.30972 0
101.186 0.802514 0
99.9746 2.9783 0
98.6559 0.866015 0
99.9209 0.834443 0
101.132 -1.34163 0
103.66 -1.40651 0
103.771 2.88139 0
101.24 2.94635 0
102.396 -1.37389 0
103.716 0.737593 0
102.506 2.91405 0
101.186 0.802514 0
102.451 0.77023 0
103.66 -1.40651 0
106.189 -1.4728 0
106.303 2.81502 0
103.771 2.88139 0
104.925 -1.43948 0
106.246 0.67126 0
105.037 2.84838 0
103.716 0.737593 0
104.981 0.704602 0
106.189 -1.4728 0
108.718 -1.54049 0
108.834 2.74724 0
106.303 2.81502 0
107.454 -1.50647 0
108.776 0.603524 0
107.568 2.7813 0
106.246 0.67126 0
107.511 0.637566 0
108.718 -1.54049 0
111.247 -1.60957 0
111.365 2.67807 0
108.834 2.74724 0
109.983 -1.57486 0
111.306 0.534395 0
110.1 2.71283 0
108.776 0.603524 0
110.041 0.569133 0
111.247 -1.60957 0
113.776 -1.68004 0
113.896 2.60751 0
111.365 2.67807 0
112.511 -1.64463 0
113.836 0.463882 0
112.631 2.64296 0
111.306 0.534395 0
112.571 0.499311 0
113.776 -1.68004 0
116.305 -1.75188 0
116.428 2.53558 0
113.896 2.60751 0
115.04 -1.71579 0
116.366 0.391993 0
115.162 2.57172 0
113.836 0.463882 0
115.101 0.428109 0
116.305 -1.75188 0
118.834 -1.82509 0
118.959 2.46228 0
116.428 2.53558 0
117.569 -1.78832 0
118.896 0.318738 0
117.693 2.4991 0
116.366 0.391993 0
117.631 0.355536 0
118.834 -1.82509 0
121.363 -1.89966 0
121.49 2.38762 0
118.959 2.46228 0
120.098 -1.86221 0
121.426 0.244126 0
120.225 2.42512 0
118.896 0.318738 0
120.161 0.281601 0
121.363 -1.89966 0
123.892 -1.97557 0
124.021 2.31162 0
121.49 2.38762 0
122.627 -1.93745 0
123.957 0.168165 0
122.756 2.34979 0
121.426 0.244126 0
122.692 0.206313 0
123.892 -1.97557 0
126.421 -2.05283 0
126.553 2.23427 0
124.021 2.31162 0
125.156 -2.01403 0
126.487 0.090865 0
125.287 2.27311 0
123.957 0.168165 0
125.222 0.129682 0
126.421 -2.05283 0
128.95 -2.13141 0
129.084 2.1556 0
126.553 2.23427 0
127.685 -2.09195 0
129.017 0.0122349 0
127.818 2.1951 0
126.487 0.090865 0
127.752 0.0517157 0
128.95 -2.13141 0
131.479 -2.21131 0
131.615 2.0756 0
129.084 2.1556 0
130.214 -2.1712 0
131.547 -0.0677165 0
130.349 2.11576 0
129.017 0.0122349 0
130.282 -0.0275762 0
131.479 -2.21131 0
134.008 -2.29253 0
134.146 1.99429 0
131.615 2.0756 0
132.743 -2.25176 0
134.077 -0.14898 0
132.881 2.03511 0
131.547 -0.0677165 0
132.812 -0.108185 0
134.008 -2.29253 0
136.537 -2.37505 0
136.678 1.91168 0
134.146 1.99429 0
135.272 -2.33363 0
136.607 -0.231547 0
135.412 1.95315 0
134.077 -0.14898 0
135.342 -0.190101 0
136.537 -2.37505 0
139.066 -2.45886 0
139.209 1.82777 0
136.678 1.91168 0
137.801 -2.41679 0
139.137 -0.315408 0
137.943 1.86988 0
136.607 -0.231547 0
137.872 -0.273316 0
139.066 -2.45886 0
141.595 -2.54396 0
141.74 1.74258 0
139.209 1.82777 0
140.33 -2.50125 0
141.667 -0.400554 0
140.474 1.78533 0
139.137 -0.315408 0
140.402 -0.357821 0
141.595 -2.54396 0
144.124 -2.63033 0
144.271 1.65611 0
141.74 1.74258 0
142.859 -2.58698 0
144.198 -0.486976 0
143.006 1.6995 0
141.667 -0.400554 0
142.932 -0.443606 0
144.124 -2.63033 0
146.653 -2.71797 0
146.802 1.56837 0
144.271 1.65611 0
145.388 -2.67399 0
146.728 -0.574665 0
145.537 1.6124 0
144.198 -0.486976 0
145.463 -0.530663 0
146.653 -2.71797 0
149.182 -2.80687 0
149.334 1.47937 0
146.802 1.56837 0
147.917 -2.76226 0
149.258 -0.663612 0
148.068 1.52403 0
146.728 -0.574665 0
147.993 -0.618982 0
149.182 -2.80687 0
151.711 -2.89701 0
151.865 1.38913 0
149.334 1.47937 0
150.447 -2.85178 0
151.788 -0.753809 0
150.599 1.43441 0
149.258 -0.663612 0
150.523 -0.708555 0
151.711 -2.89701 0
154.24 -2.9884 0
154.396 1.29765 0
151.865 1.38913 0
152.976 -2.94255 0
154.318 -0.845245 0
153.13 1.34354 0
151.788 -0.753809 0
153.053 -0.799372 0
154.24 -2.9884 0
156.769 -3.08101 0
156.927 1.20493 0
154.396 1.29765 0
155.505 -3.03455 0
156.848 -0.937912 0
155.662 1.25144 0
154.318 -0.845245 0
155.583 -0.891425 0
156.769 -3.08101 0
159.298 -3.17485 0
159.458 1.11099 0
156.927 1.20493 0
158.034 -3.12778 0
159.378 -1.0318 0
158.193 1.15811 0
156.848 -0.937912 0
158.113 -0.984705 0
159.298 -3.17485 0
161.828 -3.2699 0
161.989 1.01584 0
159.458 1.11099 0
160.563 -3.22223 0
161.909 -1.1269 0
160.724 1.06357 0
159.378 -1.0318 0
160.643 -1.0792 0
161.828 -3.2699 0
164.357 -3.36616 0
164.521 0.919485 0
161.989 1.01584 0
163.092 -3.31788 0
164.439 -1.22321 0
163.255 0.967813 0
161.909 -1.1269 0
163.174 -1.17491 0
164.357 -3.36616 0
166.886 -3.46361 0
167.052 0.821935 0
164.521 0.919485 0
165.621 -3.41473 0
166.969 -1.32071 0
165.786 0.870859 0
164.439 -1.22321 0
165.704 -1.27181 0
166.886 -3.46361 0
169.415 -3.56224 0
169.583 0.723199 0
167.052 0.821935 0
168.15 -3.51278 0
169.499 -1.4194 0
168.317 0.772715 0
166.969 -1.32071 0
168.234 -1.36991 0
169.415 -3.56224 0
171.944 -3.66206 0
172.114 0.623286 0
169.583 0.723199 0
170.68 -3.612 0
172.029 -1.51926 0
170.849 0.673389 0
169.499 -1.4194 0
170.764 -1.46918 0
171.944 -3.66206 0
174.473 -3.76303 0
174.645 0.522204 0
172.114 0.623286 0
173.209 -3.7124 0
174.559 -1.62029 0
173.38 0.57289 0
172.029 -1.51926 0
173.294 -1.56963 0
174.473 -3.76303 0
177.002 -3.86517 0
177.176 0.419964 0
174.645 0.522204 0
175.738 -3.81396 0
177.089 -1.72248 0
175.911 0.471229 0
174.559 -1.62029 0
175.824 -1.67124 0
177.002 -3.86517 0
179.532 -3.96846 0
179.707 0.316574 0
177.176 0.419964 0
178.267 -3.91667 0
179.62 -1.82582 0
178.442 0.368413 0
177.089 -1.72248 0
178.355 -1.77401 0
179.532 -3.96846 0
182.061 -4.07289 0
182.239 0.212044 0
179.707 0.316574 0
180.796 -4.02053 0
182.15 -1.9303 0
180.973 0.264451 0
179.62 -1.82582 0
180.885 -1.87792 0
182.061 -4.07289 0
184.59 -4.17845 0
184.77 0.106381 0
182.239 0.212044 0
183.325 -4.12553 0
184.68 -2.03591 0
183.504 0.159353 0
182.15 -1.9303 0
183.415 -1.98297 0
184.59 -4.17845 0
187.119 -4.28513 0
187.301 -0.000404098 0
184.77 0.106381 0
185.855 -4.23165 0
187.21 -2.14265 0
186.035 0.0531283 0
184.68 -2.03591 0
185.945 -2.08914 0
187.119 -4.28513 0
189.648 -4.39293 0
189.832 -0.108303 0
187.301 -0.000404098 0
188.384 -4.33889 0
189.74 -2.2505 0
188.566 -0.0542149 0
187.21 -2.14265 0
188.475 -2.19644 0
189.648 -4.39293 0
192.178 -4.50183 0
192.363 -0.217307 0
189.832 -0.108303 0
190.913 -4.44724 0
192.27 -2.35945 0
191.097 -0.162667 0
189.74 -2.2505 0
191.005 -2.30484 0
192.178 -4.50183 0
194.707 -4.61182 0
194.894 -0.327406 0
192.363 -0.217307 0
193.442 -4.55669 0
194.8 -2.4695 0
193.628 -0.27222 0
192.27 -2.35945 0
193.535 -2.41434 0
194.707 -4.61182 0
197.236 -4.72291 0
197.425 -0.438592 0
194.894 -0.327406 0
195.971 -4.66723 0
197.331 -2.58063 0
196.159 -0.382864 0
194.8 -2.4695 0
196.066 -2.52493 0
197.236 -4.72291 0
199.765 -4.83507 0
199.956 -0.550855 0
197.425 -0.438592 0
198.501 -4.77885 0
199.861 -2.69285 0
198.691 -0.49459 0
197.331 -2.58063 0
198.596 -2.63661 0
199.765 -4.83507 0
202.295 -4.94829 0
202.487 -0.664187 0
199.956 -0.550855 0
201.03 -4.89155 0
202.391 -2.80613 0
201.222 -0.607388 0
199.861 -2.69285 0
201.126 -2.74936 0
202.295 -4.94829 0
204.824 -5.06258 0
205.018 -0.778579 0
202.487 -0.664187 0
203.559 -5.00531 0
204.921 -2.92047 0
203.753 -0.721251 0
202.391 -2.80613 0
203.656 -2.86317 0
204.824 -5.06258 0
207.353 -5.17792 0
207.549 -0.894021 0
205.018 -0.778579 0
206.088 -5.12012 0
207.451 -3.03586 0
206.284 -0.836169 0
204.921 -2.92047 0
206.186 -2.97803 0
207.353 -5.17792 0
209.882 -5.2943 0
210.08 -1.0105 0
207.549 -0.894021 0
208.618 -5.23598 0
209.981 -3.15229 0
208.815 -0.952133 0
207.451 -3.03586 0
208.716 -3.09395 0
209.882 -5.2943 0
212.412 -5.41171 0
212.611 -1.12802 0
210.08 -1.0105 0
211.147 -5.35288 0
212.511 -3.26976 0
211.346 -1.06913 0
209.981 -3.15229 0
211.246 -3.2109 0
212.412 -5.41171 0
214.941 -5.53015 0
215.142 -1.24656 0
212.611 -1.12802 0
213.676 -5.4708 0
215.042 -3.38825 0
213.877 -1.18716 0
212.511 -3.26976 0
213.776 -3.32887 0
214.941 -5.53015 0
217.47 -5.6496 0
217.673 -1.36611 0
215.142 -1.24656 0
216.205 -5.58975 0
217.572 -3.50775 0
216.408 -1.30621 0
215.042 -3.38825 0
216.307 -3.44787 0
217.47 -5.6496 0
219.999 -5.77005 0
220.204 -1.48667 0
217.673 -1.36611 0
218.735 -5.7097 0
220.102 -3.62826 0
218.939 -1.42627 0
217.572 -3.50775 0
218.837 -3.56788 0
219.999 -5.77005 0
222.529 -5.8915 0
222.735 -1.60823 0
220.204 -1.48667 0
221.264 -5.83065 0
222.632 -3.74976 0
221.47 -1.54732 0
220.102 -3.62826 0
221.367 -3.68888 0
222.529 -5.8915 0
225.058 -6.01394 0
225.266 -1.73077 0
222.735 -1.60823 0
223.793 -5.9526 0
225.162 -3.87225 0
224.001 -1.66937 0
222.632 -3.74976 0
223.897 -3.81088 0
225.058 -6.01394 0
227.587 -6.13736 0
227.797 -1.85429 0
225.266 -1.73077 0
226.323 -6.07553 0
227.692 -3.99572 0
226.531 -1.79241 0
225.162 -3.87225 0
226.427 -3.93386 0
227.587 -6.13736 0
230.117 -6.26174 0
230.328 -1.97878 0
227.797 -1.85429 0
228.852 -6.19943 0
230.222 -4.12016 0
229.062 -1.91641 0
227.692 -3.99572 0
228.957 -4.05782 0
230.117 -6.26174 0
232.646 -6.38709 0
232.859 -2.10423 0
230.328 -1.97878 0
231.381 -6.3243 0
232.752 -4.24556 0
231.593 -2.04138 0
230.222 -4.12016 0
231.487 -4.18274 0
232.646 -6.38709 0
235.175 -6.51339 0
235.39 -2.23063 0
232.859 -2.10423 0
233.911 -6.45012 0
235.283 -4.37191 0
234.124 -2.16731 0
232.752 -4.24556 0
234.017 -4.30862 0
235.175 -6.51339 0
237.705 -6.64063 0
237.921 -2.35797 0
235.39 -2.23063 0
236.44 -6.57689 0
237.813 -4.4992 0
236.655 -2.29418 0
235.283 -4.37191 0
236.548 -4.43544 0
237.705 -6.64063 0
240.234 -6.7688 0
240.452 -2.48625 0
237.921 -2.35797 0
238.969 -6.7046 0
240.343 -4.62743 0
239.186 -2.42199 0
237.813 -4.4992 0
239.078 -4.5632 0
240.234 -6.7688 0
242.763 -6.8979 0
242.982 -2.61544 0
240.452 -2.48625 0
241.499 -6.83323 0
242.873 -4.75657 0
241.717 -2.55073 0
240.343 -4.62743 0
241.608 -4.69189 0
242.763 -6.8979 0
245.293 -7.02791 0
245.513 -2.74556 0
242.982 -2.61544 0
244.028 -6.96279 0
245.403 -4.88664 0
244.248 -2.68039 0
242.873 -4.75657 0
244.138 -4.82149 0
245.293 -7.02791 0
247.822 -7.15883 0
248.044 -2.87658 0
245.513 -2.74556 0
246.557 -7.09326 0
247.933 -5.01761 0
246.779 -2.81096 0
245.403 -4.88664 0
246.668 -4.95201 0
247.822 -7.15883 0
250.351 -7.29064 0
250.575 -3.0085 0
248.044 -2.87658 0
249.087 -7.22462 0
250.463 -5.14948 0
249.31 -2.94243 0
247.933 -5.01761 0
249.198 -5.08343 0
250.351 -7.29064 0
252.881 -7.42335 0
253.106 -3.1413 0
250.575 -3.0085 0
251.616 -7.35688 0
252.993 -5.28223 0
251.84 -3.07479 0
250.463 -5.14948 0
251.728 -5.21574 0
252.881 -7.42335 0
255.41 -7.55693 0
255.637 -3.27498 0
253.106 -3.1413 0
254.145 -7.49003 0
255.523 -5.41587 0
254.371 -3.20803 0
252.993 -5.28223 0
254.258 -5.34894 0
255.41 -7.55693 0
257.939 -7.69138 0
258.168 -3.40954 0
255.637 -3.27498 0
256.675 -7.62405 0
258.054 -5.55037 0
256.902 -3.34215 0
255.523 -5.41587 0
256.789 -5.48301 0
257.939 -7.69138 0
260.469 -7.8267 0
260.698 -3.54495 0
258.168 -3.40954 0
259.204 -7.75893 0
260.584 -5.68573 0
259.433 -3.47714 0
258.054 -5.55037 0
259.319 -5.61795 0
260.469 -7.8267 0
262.998 -7.96286 0
263.229 -3.68122 0
260.698 -3.54495 0
261.734 -7.89467 0
263.114 -5.82195 0
261.964 -3.61298 0
260.584 -5.68573 0
261.849 -5.75374 0
262.998 -7.96286 0
265.528 -8.09987 0
265.76 -3.81833 0
263.229 -3.68122 0
264.263 -8.03126 0
265.644 -5.95901 0
264.495 -3.74967 0
263.114 -5.82195 0
264.379 -5.89038 0
265.528 -8.09987 0
268.057 -8.23771 0
268.291 -3.95627 0
265.76 -3.81833 0
266.792 -8.16869 0
268.174 -6.0969 0
267.026 -3.88719 0
265.644 -5.95901 0
266.909 -6.02785 0
268.057 -8.23771 0
270.586 -8.37638 0
270.822 -4.09504 0
268.291 -3.95627 0
269.322 -8.30694 0
270.704 -6.23562 0
269.556 -4.02555 0
268.174 -6.0969 0
269.439 -6.16616 0
270.586 -8.37638 0
273.116 -8.51586 0
273.353 -4.23462 0
270.822 -4.09504 0
271.851 -8.44602 0
273.234 -6.37516 0
272.087 -4.16472 0
270.704 -6.23562 0
271.969 -6.30529 0
273.116 -8.51586 0
275.645 -8.65615 0
275.883 -4.37501 0
273.353 -4.23462 0
274.381 -8.58591 0
275.764 -6.5155 0
274.618 -4.30471 0
273.234 -6.37516 0
274.499 -6.44523 0
275.645 -8.65615 0
278.175 -8.79724 0
278.414 -4.51619 0
275.883 -4.37501 0
276.91 -8.7266 0
278.295 -6.65663 0
277.149 -4.4455 0
275.764 -6.5155 0
277.029 -6.58597 0
278.175 -8.79724 0
280.704 -8.93912 0
280.945 -4.65817 0
278.414 -4.51619 0
279.44 -8.86808 0
280.825 -6.79856 0
279.68 -4.58708 0
278.295 -6.65663 0
279.56 -6.7275 0
280.704 -8.93912 0
283.234 -9.08178 0
283.476 -4.80092 0
280.945 -4.65817 0
281.969 -9.01035 0
283.355 -6.94127 0
282.21 -4.72945 0
280.825 -6.79856 0
282.09 -6.86982 0
283.234 -9.08178 0
285.763 -9.2252 0
286.006 -4.94444 0
283.476 -4.80092 0
284.498 -9.15339 0
285.885 -7.08474 0
284.741 -4.87259 0
283.355 -6.94127 0
284.62 -7.01291 0
285.763 -9.2252 0
288.293 -9.36939 0
288.537 -5.08873 0
286.006 -4.94444 0
287.028 -9.2972 0
288.415 -7.22898 0
287.272 -5.01649 0
285.885 -7.08474 0
287.15 -7.15677 0
288.293 -9.36939 0
290.822 -9.51434 0
291.068 -5.23377 0
288.537 -5.08873 0
289.557 -9.44177 0
290.945 -7.37397 0
289.803 -5.16116 0
288.415 -7.22898 0
289.68 -7.30139 0
290.822 -9.51434 0
293.352 -9.66002 0
293.599 -5.37955 0
291.068 -5.23377 0
292.087 -9.58709 0
293.475 -7.51971 0
292.333 -5.30657 0
290.945 -7.37397 0
292.21 -7.44675 0
293.352 -9.66002 0
295.881 -9.80644 0
296.13 -5.52606 0
293.599 -5.37955 0
294.617 -9.73314 0
296.005 -7.66618 0
294.864 -5.45272 0
293.475 -7.51971 0
294.74 -7.59285 0
295.881 -9.80644 0
298.411 -9.95359 0
298.66 -5.6733 0
296.13 -5.52606 0
297.146 -9.87993 0
298.536 -7.81337 0
297.395 -5.59959 0
296.005 -7.66618 0
297.271 -7.73969 0
298.411 -9.95359 0
300.94 -10.1015 0
301.191 -5.82126 0
298.66 -5.6733 0
299.676 -10.0274 0
301.066 -7.96128 0
299.926 -5.74719 0
298.536 -7.81337 0
299.801 -7.88724 0
300.94 -10.1015 0
303.47 -10.25 0
303.722 -5.96993 0
301.191 -5.82126 0
302.205 -10.1757 0
303.596 -8.1099 0
302.456 -5.89551 0
301.066 -7.96128 0
302.331 -8.03551 0
303.47 -10.25 0
306 -10.3993 0
306.252 -6.11929 0
303.722 -5.96993 0
304.735 -10.3246 0
306.126 -8.25922 0
304.987 -6.04452 0
303.596 -8.1099 0
304.861 -8.18447 0
306 -10.3993 0
308.529 -10.5493 0
308.783 -6.26934 0
306.252 -6.11929 0
307.264 -10.4742 0
308.656 -8.40923 0
307.518 -6.19423 0
306.126 -8.25922 0
307.391 -8.33414 0
308.529 -10.5493 0
311.059 -10.6999 0
311.314 -6.42007 0
308.783 -6.26934 0
309.794 -10.6245 0
311.186 -8.55991 0
310.049 -6.34462 0
308.656 -8.40923 0
309.921 -8.48448 0
311.059 -10.6999 0
313.588 -10.8512 0
313.845 -6.57147 0
311.314 -6.42007 0
312.324 -10.7755 0
313.717 -8.71127 0
312.579 -6.49569 0
311.186 -8.55991 0
312.451 -8.63551 0
313.588 -10.8512 0
316.118 -11.0032 0
316.375 -6.72354 0
313.845 -6.57147 0
314.853 -10.9271 0
316.247 -8.86329 0
315.11 -6.64742 0
313.717 -8.71127 0
314.982 -8.7872 0
316.118 -11.0032 0
318.648 -11.1558 0
318.906 -6.87625 0
316.375 -6.72354 0
317.383 -11.0794 0
318.777 -9.01596 0
317.641 -6.79981 0
316.247 -8.86329 0
317.512 -8.93955 0
318.648 -11.1558 0
321.177 -11.3091 0
321.437 -7.02961 0
318.906 -6.87625 0
319.912 -11.2324 0
321.307 -9.16928 0
320.172 -6.95285 0
318.777 -9.01596 0
320.042 -9.09254 0
321.177 -11.3091 0
323.707 -11.463 0
323.968 -7.18361 0
321.437 -7.02961 0
322.442 -11.386 0
323.837 -9.32324 0
322.702 -7.10653 0
321.307 -9.16928 0
322.572 -9.24618 0
323.707 -11.463 0
326.237 -11.6175 0
326.498 -7.33823 0
323.968 -7.18361 0
324.972 -11.5402 0
326.368 -9.47781 0
325.233 -7.26084 0
323.837 -9.32324 0
325.102 -9.40045 0
326.237 -11.6175 0
328.766 -11.7727 0
329.029 -7.49347 0
326.498 -7.33823 0
327.501 -11.695 0
328.898 -9.63301 0
327.764 -7.41578 0
326.368 -9.47781 0
327.633 -9.55534 0
328.766 -11.7727 0
331.296 -11.9284 0
331.56 -7.64932 0
329.029 -7.49347 0
330.031 -11.8505 0
331.428 -9.78882 0
330.295 -7.57132 0
328.898 -9.63301 0
330.163 -9.71084 0
331.296 -11.9284 0
333.826 -12.0848 0
334.091 -7.80576 0
331.56 -7.64932 0
332.561 -12.0065 0
333.958 -9.94522 0
332.825 -7.72747 0
331.428 -9.78882 0
332.693 -9.86694 0
333.826 -12.0848 0
336.356 -12.2417 0
336.621 -7.9628 0
334.091 -7.80576 0
335.091 -12.1632 0
336.488 -10.1022 0
335.356 -7.88421 0
333.958 -9.94522 0
335.223 -10.0236 0
336.356 -12.2417 0
338.885 -12.3993 0
339.152 -8.12041 0
336.621 -7.9628 0
337.62 -12.3204 0
339.019 -10.2598 0
337.887 -8.04153 0
336.488 -10.1022 0
337.754 -10.1809 0
338.885 -12.3993 0
341.415 -12.5574 0
341.683 -8.2786 0
339.152 -8.12041 0
340.15 -12.4783 0
341.549 -10.4179 0
340.417 -8.19944 0
339.019 -10.2598 0
340.284 -10.3388 0
341.415 -12.5574 0
343.945 -12.7161 0
344.214 -8.43735 0
341.683 -8.2786 0
342.68 -12.6366 0
344.079 -10.5766 0
342.948 -8.35791 0
341.549 -10.4179 0
342.814 -10.4972 0
343.945 -12.7161 0
346.475 -12.8753 0
346.744 -8.59665 0
344.214 -8.43735 0
345.21 -12.7956 0
346.61 -10.7359 0
345.479 -8.51693 0
344.079 -10.5766 0
345.344 -10.6562 0
346.475 -12.8753 0
349.005 -13.035 0
349.275 -8.7565 0
346.744 -8.59665 0
347.74 -12.9551 0
349.14 -10.8957 0
348.01 -8.67651 0
346.61 -10.7359 0
347.875 -10.8157 0
349.005 -13.035 0
351.534 -13.1953 0
351.806 -8.91689 0
349.275 -8.7565 0
350.27 -13.1151 0
351.67 -11.0561 0
350.54 -8.83663 0
349.14 -10.8957 0
350.405 -10.9758 0
351.534 -13.1953 0
354.064 -13.3562 0
354.337 -9.0778 0
351.806 -8.91689 0
352.799 -13.2757 0
354.201 -11.2169 0
353.071 -8.99728 0
351.67 -11.0561 0
352.935 -11.1364 0
354.064 -13.3562 0
356.594 -13.5175 0
356.867 -9.23922 0
354.337 -9.0778 0
355.329 -13.4368 0
356.731 -11.3783 0
355.602 -9.15845 0
354.201 -11.2169 0
355.466 -11.2976 0
356.594 -13.5175 0
359.124 -13.6794 0
359.398 -9.40116 0
356.867 -9.23922 0
357.859 -13.5984 0
359.261 -11.5402 0
358.133 -9.32013 0
356.731 -11.3783 0
357.996 -11.4592 0
359.124 -13.6794 0
361.654 -13.8417 0
361.929 -9.5636 0
359.398 -9.40116 0
360.389 -13.7605 0
361.792 -11.7026 0
360.664 -9.48232 0
359.261 -11.5402 0
360.526 -11.6214 0
361.654 -13.8417 0
364.184 -14.0046 0
364.46 -9.72652 0
361.929 -9.5636 0
362.919 -13.9231 0
364.322 -11.8655 0
363.194 -9.645 0
361.792 -11.7026 0
363.057 -11.784 0
364.184 -14.0046 0
366.714 -14.1679 0
366.991 -9.88993 0
364.46 -9.72652 0
365.449 -14.0862 0
366.852 -12.0289 0
365.725 -9.80817 0
364.322 -11.8655 0
365.587 -11.9471 0
366.714 -14.1679 0
369.244 -14.3317 0
369.521 -10.0538 0
366.991 -9.88993 0
367.979 -14.2498 0
369.383 -12.1927 0
368.256 -9.97181 0
366.852 -12.0289 0
368.118 -12.1107 0
369.244 -14.3317 0
371.774 -14.496 0
372.052 -10.2182 0
369.521 -10.0538 0
370.509 -14.4138 0
371.913 -12.357 0
370.787 -10.1359 0
369.383 -12.1927 0
370.648 -12.2748 0
371.774 -14.496 0
374.304 -14.6607 0
374.583 -10.3829 0
372.052 -10.2182 0
373.039 -14.5783 0
374.444 -12.5218 0
373.318 -10.3005 0
371.913 -12.357 0
373.178 -12.4394 0
374.304 -14.6607 0
376.834 -14.8259 0
377.114 -10.5482 0
374.583 -10.3829 0
375.569 -14.7433 0
376.974 -12.687 0
375.848 -10.4655 0
374.444 -12.5218 0
375.709 -12.6043 0
376.834 -14.8259 0
379.364 -14.9915 0
379.645 -10.7139 0
377.114 -10.5482 0
378.099 -14.9086 0
379.505 -12.8526 0
378.379 -10.631 0
376.974 -12.687 0
378.239 -12.7698 0
379.364 -14.9915 0
381.895 -15.1575 0
382.176 -10.88 0
379.645 -10.7139 0
380.63 -15.0745 0
382.035 -13.0187 0
380.91 -10.7969 0
379.505 -12.8526 0
380.77 -12.9356 0
381.895 -15.1575 0
384.425 -15.324 0
384.706 -11.0465 0
382.176 -10.88 0
383.16 -15.2407 0
384.566 -13.1852 0
383.441 -10.9632 0
382.035 -13.0187 0
383.3 -13.1019 0
384.425 -15.324 0
386.955 -15.4909 0
387.237 -11.2134 0
384.706 -11.0465 0
385.69 -15.4074 0
387.096 -13.3521 0
385.972 -11.1299 0
384.566 -13.1852 0
385.831 -13.2686 0
386.955 -15.4909 0
389.485 -15.6581 0
389.768 -11.3808 0
387.237 -11.2134 0
388.22 -15.5744 0
389.627 -13.5194 0
388.503 -11.2971 0
387.096 -13.3521 0
388.361 -13.4357 0
389.485 -15.6581 0
392.015 -15.8258 0
392.299 -11.5485 0
389.768 -11.3808 0
390.75 -15.7419 0
392.157 -13.6871 0
391.034 -11.4646 0
389.627 -13.5194 0
390.892 -13.6032 0
392.015 -15.8258 0
394.546 -15.9938 0
394.83 -11.7166 0
392.299 -11.5485 0
393.281 -15.9098 0
394.688 -13.8552 0
393.564 -11.6325 0
392.157 -13.6871 0
393.423 -13.7711 0
394.546 -15.9938 0
397.076 -16.1622 0
397.361 -11.8851 0
394.83 -11.7166 0
395.811 -16.078 0
397.219 -14.0236 0
396.095 -11.8008 0
394.688 -13.8552 0
395.953 -13.9394 0
397.076 -16.1622 0
399.606 -16.331 0
399.892 -12.0539 0
397.361 -11.8851 0
398.341 -16.2466 0
399.749 -14.1924 0
398.626 -11.9695 0
397.219 -14.0236 0
398.484 -14.108 0
399.606 -16.331 0
402.137 -16.5002 0
402.423 -12.2231 0
399.892 -12.0539 0
400.872 -16.4156 0
402.28 -14.3616 0
401.157 -12.1385 0
399.749 -14.1924 0
401.014 -14.277 0
402.137 -16.5002 0
404.667 -16.6696 0
404.954 -12.3927 0
402.423 -12.2231 0
403.402 -16.5849 0
404.81 -14.5311 0
403.688 -12.3079 0
402.28 -14.3616 0
403.545 -14.4463 0
404.667 -16.6696 0
407.198 -16.8395 0
407.485 -12.5625 0
404.954 -12.3927 0
405.932 -16.7545 0
407.341 -14.701 0
406.219 -12.4776 0
404.81 -14.5311 0
406.076 -14.616 0
407.198 -16.8395 0
409.728 -17.0096 0
410.016 -12.7328 0
407.485 -12.5625 0
408.463 -16.9245 0
409.872 -14.8712 0
408.75 -12.6476 0
407.341 -14.701 0
408.607 -14.786 0
409.728 -17.0096 0
412.259 -17.1801 0
412.547 -12.9033 0
410.016 -12.7328 0
410.993 -17.0948 0
412.403 -15.0417 0
411.281 -12.818 0
409.872 -14.8712 0
411.137 -14.9564 0
412.259 -17.1801 0
414.789 -17.3509 0
415.078 -13.0741 0
412.547 -12.9033 0
413.524 -17.2654 0
414.933 -15.2125 0
413.812 -12.9887 0
412.403 -15.0417 0
413.668 -15.127 0
414.789 -17.3509 0
417.32 -17.5219 0
417.609 -13.2453 0
415.078 -13.0741 0
416.054 -17.4364 0
417.464 -15.3836 0
416.343 -13.1597 0
414.933 -15.2125 0
416.199 -15.298 0
417.32 -17.5219 0
419.85 -17.6933 0
420.14 -13.4167 0
417.609 -13.2453 0
418.585 -17.6076 0
419.995 -15.555 0
418.874 -13.3309 0
417.464 -15.3836 0
418.73 -15.4692 0
419.85 -17.6933 0
422.381 -17.865 0
422.671 -13.5884 0
420.14 -13.4167 0
421.116 -17.7791 0
422.526 -15.7267 0
421.405 -13.5025 0
419.995 -15.555 0
421.261 -15.6408 0
422.381 -17.865 0
424.912 -18.0369 0
425.202 -13.7604 0
422.671 -13.5884 0
423.646 -17.9509 0
425.057 -15.8986 0
423.937 -13.6744 0
422.526 -15.7267 0
423.791 -15.8126 0
424.912 -18.0369 0
427.442 -18.2091 0
427.733 -13.9326 0
425.202 -13.7604 0
426.177 -18.123 0
427.588 -16.0709 0
426.468 -13.8465 0
425.057 -15.8986 0
426.322 -15.9847 0
427.442 -18.2091 0
429.973 -18.3816 0
430.264 -14.1052 0
427.733 -13.9326 0
428.708 -18.2953 0
430.119 -16.2433 0
428.999 -14.0189 0
427.588 -16.0709 0
428.853 -16.1571 0
429.973 -18.3816 0
432.504 -18.5543 0
432.796 -14.2779 0
430.264 -14.1052 0
431.238 -18.4679 0
432.65 -16.4161 0
431.53 -14.1915 0
430.119 -16.2433 0
431.384 -16.3297 0
432.504 -18.5543 0
435.035 -18.7272 0
435.327 -14.4509 0
432.796 -14.2779 0
433.769 -18.6407 0
435.181 -16.589 0
434.061 -14.3644 0
432.65 -16.4161 0
433.915 -16.5025 0
435.035 -18.7272 0
437.565 -18.9004 0
437.858 -14.6241 0
435.327 -14.4509 0
436.3 -18.8138 0
437.712 -16.7622 0
436.592 -14.5375 0
435.181 -16.589 0
436.446 -16.6756 0
437.565 -18.9004 0
440.096 -19.0738 0
440.389 -14.7976 0
437.858 -14.6241 0
438.831 -18.9871 0
440.243 -16.9356 0
439.124 -14.7108 0
437.712 -16.7622 0
438.977 -16.8489 0
440.096 -19.0738 0
442.627 -19.2474 0
442.921 -14.9712 0
440.389 -14.7976 0
441.362 -19.1606 0
442.774 -17.1093 0
441.655 -14.8844 0
440.243 -16.9356 0
441.508 -17.0224 0
442.627 -19.2474 0
445.158 -19.4212 0
445.452 -15.1451 0
442.921 -14.9712 0
443.893 -19.3343 0
445.305 -17.2831 0
444.186 -15.0581 0
442.774 -17.1093 0
444.039 -17.1962 0
445.158 -19.4212 0
447.689 -19.5952 0
447.983 -15.3191 0
445.452 -15.1451 0
446.424 -19.5082 0
447.836 -17.4571 0
446.717 -15.2321 0
445.305 -17.2831 0
446.571 -17.3701 0
447.689 -19.5952 0
450.22 -19.7694 0
450.514 -15.4933 0
447.983 -15.3191 0
448.955 -19.6823 0
450.367 -17.6313 0
449.249 -15.4062 0
447.836 -17.4571 0
449.102 -17.5442 0
450.22 -19.7694 0
452.751 -19.9437 0
453.046 -15.6677 0
450.514 -15.4933 0
451.486 -19.8565 0
452.899 -17.8057 0
451.78 -15.5805 0
450.367 -17.6313 0
451.633 -17.7185 0
452.751 -19.9437 0
455.282 -20.1183 0
455.577 -15.8423 0
453.046 -15.6677 0
454.017 -20.031 0
455.43 -17.9803 0
454.312 -15.755 0
452.899 -17.8057 0
454.164 -17.893 0
455.282 -20.1183 0
457.814 -20.2929 0
458.109 -16.017 0
455.577 -15.8423 0
456.548 -20.2056 0
457.961 -18.155 0
456.843 -15.9296 0
455.43 -17.9803 0
456.696 -18.0676 0
457.814 -20.2929 0
460.345 -20.4678 0
460.64 -16.1919 0
458.109 -16.017 0
459.079 -20.3803 0
460.493 -18.3298 0
459.374 -16.1044 0
457.961 -18.155 0
459.227 -18.2424 0
460.345 -20.4678 0
462.876 -20.6427 0
463.172 -16.3669 0
460.64 -16.1919 0
461.61 -20.5552 0
463.024 -18.5048 0
461.906 -16.2794 0
460.493 -18.3298 0
461.758 -18.4173 0
462.876 -20.6427 0
465.407 -20.8178 0
465.703 -16.542 0
463.172 -16.3669 0
464.142 -20.7303 0
465.555 -18.6799 0
464.437 -16.4545 0
463.024 -18.5048 0
464.29 -18.5923 0
465.407 -20.8178 0
467.939 -20.9931 0
468.235 -16.7173 0
465.703 -16.542 0
466.673 -20.9054 0
468.087 -18.8552 0
466.969 -16.6296 0
465.555 -18.6799 0
466.821 -18.7675 0
467.939 -20.9931 0
470.47 -21.1684 0
470.766 -16.8927 0
468.235 -16.7173 0
469.204 -21.0807 0
470.618 -19.0305 0
469.5 -16.805 0
468.087 -18.8552 0
469.352 -18.9428 0
470.47 -21.1684 0
473.002 -21.3438 0
473.298 -17.0681 0
470.766 -16.8927 0
471.736 -21.2561 0
473.15 -19.206 0
472.032 -16.9804 0
470.618 -19.0305 0
471.884 -19.1182 0
473.002 -21.3438 0
475.533 -21.5194 0
475.829 -17.2437 0
473.298 -17.0681 0
474.267 -21.4316 0
475.681 -19.3815 0
474.564 -17.1559 0
473.15 -19.206 0
474.416 -19.2937 0
475.533 -21.5194 0
478.065 -21.695 0
478.361 -17.4193 0
475.829 -17.2437 0
476.799 -21.6072 0
478.213 -19.5572 0
477.095 -17.3315 0
475.681 -19.3815 0
476.947 -19.4693 0
478.065 -21.695 0
480.596 -21.8707 0
480.893 -17.5951 0
478.361 -17.4193 0
479.33 -21.7828 0
480.745 -19.7329 0
479.627 -17.5072 0
478.213 -19.5572 0
479.479 -19.645 0
480.596 -21.8707 0
483.128 -22.0464 0
483.425 -17.7709 0
480.893 -17.5951 0
481.862 -21.9585 0
483.276 -19.9086 0
482.159 -17.6829 0
480.745 -19.7329 0
482.01 -19.8207 0
483.128 -22.0464 0
485.66 -22.2222 0
485.956 -17.9467 0
483.425 -17.7709 0
484.394 -22.1343 0
485.808 -20.0845 0
484.69 -17.8588 0
483.276 -19.9086 0
484.542 -19.9965 0
485.66 -22.2222 0
488.191 -22.3981 0
488.488 -18.1226 0
485.956 -17.9467 0
486.925 -22.3102 0
488.34 -20.2603 0
487.222 -18.0346 0
485.808 -20.0845 0
487.074 -20.1724 0
488.191 -22.3981 0
490.723 -22.574 0
491.02 -18.2985 0
488.488 -18.1226 0
489.457 -22.4861 0
490.872 -20.4363 0
489.754 -18.2106 0
488.34 -20.2603 0
489.606 -20.3483 0
490.723 -22.574 0
493.255 -22.75 0
493.552 -18.4746 0
491.02 -18.2985 0
491.989 -22.662 0
493.403 -20.6123 0
492.286 -18.3865 0
490.872 -20.4363 0
492.137 -20.5243 0
493.255 -22.75 0
495.786 -22.9262 0
496.084 -18.6507 0
493.552 -18.4746 0
494.521 -22.8381 0
495.935 -20.7884 0
494.818 -18.5626 0
493.403 -20.6123 0
494.669 -20.7003 0
495.786 -22.9262 0
498.318 -23.103 0
498.616 -18.8269 0
496.084 -18.6507 0
497.052 -23.0144 0
498.467 -20.9649 0
497.35 -18.7388 0
495.935 -20.7884 0
497.201 -20.8766 0
0 4.28571 0
2.53119 4.28378 0
2.53406 8.57103 0
0 8.57143 0
1.2657 4.28502 0
2.53268 6.42759 0
1.26709 8.57155 0
0 6.42857 0
1.26638 6.42837 0
2.53119 4.28378 0
5.0618 4.28013 0
5.06781 8.56834 0
2.53406 8.57103 0
3.79653 4.28213 0
5.06491 6.42445 0
3.80096 8.56994 0
2.53268 6.42759 0
3.79884 6.42626 0
5.0618 4.28013 0
7.59235 4.2751 0
7.60139 8.5637 0
5.06781 8.56834 0
6.32707 4.27779 0
7.59696 6.4196 0
6.33461 8.56625 0
5.06491 6.42445 0
6.33094 6.42223 0
7.59235 4.2751 0
10.1229 4.26856 0
10.1349 8.55726 0
7.60139 8.5637 0
8.85763 4.27203 0
10.129 6.4131 0
8.86815 8.5607 0
7.59696 6.4196 0
8.86297 6.41656 0
10.1229 4.26856 0
12.6536 4.26038 0
12.6685 8.54908 0
10.1349 8.55726 0
11.3882 4.26468 0
12.6611 6.40491 0
11.4017 8.55339 0
10.129 6.4131 0
11.395 6.40922 0
12.6536 4.26038 0
15.1843 4.25051 0
15.202 8.53918 0
12.6685 8.54908 0
13.9189 4.25566 0
15.1932 6.39502 0
13.9353 8.54434 0
12.6611 6.40491 0
13.9271 6.40018 0
15.1843 4.25051 0
17.715 4.23892 0
17.7357 8.52755 0
15.202 8.53918 0
16.4496 4.24493 0
17.7254 6.38342 0
16.4689 8.53358 0
15.1932 6.39502 0
16.4593 6.38944 0
17.715 4.23892 0
20.2457 4.22563 0
20.2693 8.51421 0
17.7357 8.52755 0
18.9804 4.23249 0
20.2576 6.3701 0
19.0025 8.5211 0
17.7254 6.38342 0
18.9915 6.37698 0
20.2457 4.22563 0
22.7765 4.21062 0
22.803 8.49916 0
20.2693 8.51421 0
21.5111 4.21834 0
22.7898 6.35507 0
21.5361 8.5069 0
20.2576 6.3701 0
21.5237 6.3628 0
22.7765 4.21062 0
25.3074 4.19391 0
25.3367 8.48241 0
22.803 8.49916 0
24.0419 4.20247 0
25.322 6.33834 0
24.0698 8.491 0
22.7898 6.35507 0
24.0559 6.34692 0
25.3074 4.19391 0
27.8382 4.1755 0
27.8704 8.46397 0
25.3367 8.48241 0
26.5728 4.18492 0
27.8543 6.31992 0
26.6035 8.4734 0
25.322 6.33834 0
26.5882 6.32934 0
27.8382 4.1755 0
30.3691 4.15541 0
30.4041 8.44384 0
27.8704 8.46397 0
29.1036 4.16567 0
30.3866 6.29981 0
29.1372 8.45411 0
27.8543 6.31992 0
29.1205 6.31007 0
30.3691 4.15541 0
32.9 4.13365 0
32.9378 8.42204 0
30.4041 8.44384 0
31.6345 4.14474 0
32.9189 6.27802 0
31.6709 8.43315 0
30.3866 6.29981 0
31.6528 6.28912 0
32.9 4.13365 0
35.4309 4.11022 0
35.4715 8.39857 0
32.9378 8.42204 0
34.1654 4.12215 0
35.4512 6.25457 0
34.2047 8.41051 0
32.9189 6.27802 0
34.1851 6.26651 0
35.4309 4.11022 0
37.9618 4.08514 0
38.0053 8.37344 0
35.4715 8.39857 0
36.6964 4.09789 0
37.9836 6.22947 0
36.7384 8.38621 0
35.4512 6.25457 0
36.7174 6.24223 0
37.9618 4.08514 0
40.4928 4.05841 0
40.539 8.34667 0
38.0053 8.37344 0
39.2273 4.07198 0
40.5159 6.20271 0
39.2722 8.36026 0
37.9836 6.22947 0
39.2498 6.2163 0
40.4928 4.05841 0
43.0238 4.03004 0
43.0728 8.31825 0
40.539 8.34667 0
41.7583 4.04443 0
43.0483 6.17432 0
41.8059 8.33266 0
40.5159 6.20271 0
41.7821 6.18872 0
43.0238 4.03004 0
45.5548 4.00005 0
45.6065 8.28821 0
43.0728 8.31825 0
44.2893 4.01525 0
45.5807 6.1443 0
44.3397 8.30343 0
43.0483 6.17432 0
44.3145 6.15952 0
45.5548 4.00005 0
48.0858 3.96843 0
48.1403 8.25654 0
45.6065 8.28821 0
46.8203 3.98444 0
48.1131 6.11266 0
46.8734 8.27258 0
45.5807 6.1443 0
46.8469 6.12868 0
48.0858 3.96843 0
50.6169 3.9352 0
50.6741 8.22327 0
48.1403 8.25654 0
49.3513 3.95202 0
50.6455 6.07941 0
49.4072 8.24011 0
48.1131 6.11266 0
49.3793 6.09623 0
50.6169 3.9352 0
53.1479 3.90037 0
53.2078 8.18839 0
50.6741 8.22327 0
51.8824 3.91799 0
53.1779 6.04455 0
51.9409 8.20603 0
50.6455 6.07941 0
51.9117 6.06218 0
53.1479 3.90037 0
55.679 3.86395 0
55.7416 8.15191 0
53.2078 8.18839 0
54.4135 3.88236 0
55.7103 6.0081 0
54.4747 8.17035 0
53.1779 6.04455 0
54.4441 6.02653 0
55.679 3.86395 0
58.2101 3.82595 0
58.2754 8.11385 0
55.7416 8.15191 0
56.9445 3.84515 0
58.2427 5.97007 0
57.0085 8.13308 0
55.7103 6.0081 0
56.9765 5.98928 0
58.2101 3.82595 0
60.7412 3.78637 0
60.8091 8.07422 0
58.2754 8.11385 0
59.4756 3.80636 0
60.7752 5.93046 0
59.5422 8.09423 0
58.2427 5.97007 0
59.509 5.95046 0
60.7412 3.78637 0
63.2723 3.74523 0
63.3429 8.03301 0
60.8091 8.07422 0
62.0067 3.76599 0
63.3076 5.88929 0
62.076 8.05381 0
60.7752 5.93046 0
62.0414 5.91007 0
63.2723 3.74523 0
65.8034 3.70253 0
65.8766 7.99025 0
63.3429 8.03301 0
64.5379 3.72407 0
65.8401 5.84656 0
64.6098 8.01183 0
63.3076 5.88929 0
64.5738 5.86812 0
65.8034 3.70253 0
68.3346 3.65828 0
68.4104 7.94595 0
65.8766 7.99025 0
67.069 3.6806 0
68.3725 5.80228 0
67.1435 7.96829 0
65.8401 5.84656 0
67.1063 5.82461 0
68.3346 3.65828 0
70.8657 3.61249 0
70.9441 7.9001 0
68.4104 7.94595 0
69.6002 3.63558 0
70.905 5.75646 0
69.6773 7.92321 0
68.3725 5.80228 0
69.6387 5.77956 0
70.8657 3.61249 0
73.3969 3.56518 0
73.4779 7.85272 0
70.9441 7.9001 0
72.1313 3.58903 0
73.4374 5.70911 0
72.211 7.8766 0
70.905 5.75646 0
72.1712 5.73298 0
73.3969 3.56518 0
75.9281 3.51634 0
76.0116 7.80382 0
73.4779 7.85272 0
74.6625 3.54095 0
75.9699 5.66024 0
74.7448 7.82846 0
73.4374 5.70911 0
74.7037 5.68487 0
75.9281 3.51634 0
78.4593 3.46599 0
78.5454 7.75341 0
76.0116 7.80382 0
77.1937 3.49136 0
78.5023 5.60986 0
77.2785 7.7788 0
75.9699 5.66024 0
77.2361 5.63524 0
78.4593 3.46599 0
80.9905 3.41415 0
81.0791 7.70149 0
78.5454 7.75341 0
79.7249 3.44026 0
81.0348 5.55798 0
79.8122 7.72764 0
78.5023 5.60986 0
79.7686 5.58411 0
80.9905 3.41415 0
83.5217 3.3608 0
83.6128 7.64808 0
81.0791 7.70149 0
82.2561 3.38766 0
83.5673 5.5046 0
82.346 7.67497 0
81.0348 5.55798 0
82.301 5.53147 0
83.5217 3.3608 0
86.0529 3.30598 0
86.1465 7.59318 0
83.6128 7.64808 0
84.7873 3.33357 0
86.0997 5.44974 0
84.8797 7.62082 0
83.5673 5.5046 0
84.8335 5.47735 0
86.0529 3.30598 0
88.5841 3.24967 0
88.6802 7.53681 0
86.1465 7.59318 0
87.3185 3.27801 0
88.6322 5.3934 0
87.4134 7.56518 0
86.0997 5.44974 0
87.366 5.42175 0
88.5841 3.24967 0
91.1153 3.19191 0
91.2139 7.47897 0
88.6802 7.53681 0
89.8497 3.22097 0
91.1646 5.33559 0
89.9471 7.50807 0
88.6322 5.3934 0
89.8984 5.36468 0
91.1153 3.19191 0
93.6465 3.13268 0
93.7476 7.41967 0
91.2139 7.47897 0
92.3809 3.16248 0
93.6971 5.27633 0
92.4808 7.4495 0
91.1646 5.33559 0
92.4309 5.30615 0
93.6465 3.13268 0
96.1777 3.07201 0
96.2813 7.35893 0
93.7476 7.41967 0
94.9121 3.10253 0
96.2295 5.21562 0
95.0144 7.38948 0
93.6971 5.27633 0
94.9633 5.24616 0
96.1777 3.07201 0
98.709 3.0099 0
98.8149 7.29674 0
96.2813 7.35893 0
97.4434 3.04113 0
98.762 5.15347 0
97.5481 7.32801 0
96.2295 5.21562 0
97.4958 5.18473 0
98.709 3.0099 0
101.24 2.94635 0
101.349 7.23312 0
98.8149 7.29674 0
99.9746 2.9783 0
101.294 5.08989 0
100.082 7.26511 0
98.762 5.15347 0
100.028 5.12186 0
101.24 2.94635 0
103.771 2.88139 0
103.882 7.16808 0
101.349 7.23312 0
102.506 2.91405 0
103.827 5.02489 0
102.615 7.20078 0
101.294 5.08989 0
102.561 5.05757 0
103.771 2.88139 0
106.303 2.81502 0
106.416 7.10163 0
103.882 7.16808 0
105.037 2.84838 0
106.359 4.95847 0
105.149 7.13503 0
103.827 5.02489 0
105.093 4.99186 0
106.303 2.81502 0
108.834 2.74724 0
108.949 7.03377 0
106.416 7.10163 0
107.568 2.7813 0
108.892 4.89066 0
107.683 7.06788 0
106.359 4.95847 0
107.626 4.92474 0
108.834 2.74724 0
111.365 2.67807 0
111.483 6.96452 0
108.949 7.03377 0
110.1 2.71283 0
111.424 4.82144 0
110.216 6.99932 0
108.892 4.89066 0
110.158 4.85622 0
111.365 2.67807 0
113.896 2.60751 0
114.017 6.89389 0
111.483 6.96452 0
112.631 2.64296 0
113.957 4.75085 0
112.75 6.92938 0
111.424 4.82144 0
112.69 4.78632 0
113.896 2.60751 0
116.428 2.53558 0
116.55 6.82187 0
114.017 6.89389 0
115.162 2.57172 0
116.489 4.67887 0
115.283 6.85805 0
113.957 4.75085 0
115.223 4.71503 0
116.428 2.53558 0
118.959 2.46228 0
119.084 6.74849 0
116.55 6.82187 0
117.693 2.4991 0
119.021 4.60553 0
117.817 6.78535 0
116.489 4.67887 0
117.755 4.64237 0
118.959 2.46228 0
121.49 2.38762 0
121.617 6.67375 0
119.084 6.74849 0
120.225 2.42512 0
121.554 4.53083 0
120.35 6.71129 0
119.021 4.60553 0
120.288 4.56835 0
121.49 2.38762 0
124.021 2.31162 0
124.151 6.59766 0
121.617 6.67375 0
122.756 2.34979 0
124.086 4.45478 0
122.884 6.63588 0
121.554 4.53083 0
122.82 4.49298 0
124.021 2.31162 0
126.553 2.23427 0
126.684 6.52023 0
124.151 6.59766 0
125.287 2.27311 0
126.618 4.3774 0
125.418 6.55912 0
124.086 4.45478 0
125.352 4.41626 0
126.553 2.23427 0
129.084 2.1556 0
129.218 6.44147 0
126.684 6.52023 0
127.818 2.1951 0
129.151 4.29868 0
127.951 6.48102 0
126.618 4.3774 0
127.885 4.3382 0
129.084 2.1556 0
131.615 2.0756 0
131.751 6.36139 0
129.218 6.44147 0
130.349 2.11576 0
131.683 4.21864 0
130.484 6.4016 0
129.151 4.29868 0
130.417 4.25882 0
131.615 2.0756 0
134.146 1.99429 0
134.285 6.27999 0
131.751 6.36139 0
132.881 2.03511 0
134.215 4.13728 0
133.018 6.32086 0
131.683 4.21864 0
132.949 4.17812 0
134.146 1.99429 0
136.678 1.91168 0
136.818 6.19729 0
134.285 6.27999 0
135.412 1.95315 0
136.748 4.05462 0
135.551 6.23881 0
134.215 4.13728 0
135.482 4.09612 0
136.678 1.91168 0
139.209 1.82777 0
139.351 6.1133 0
136.818 6.19729 0
137.943 1.86988 0
139.28 3.97067 0
138.085 6.15546 0
136.748 4.05462 0
138.014 4.01281 0
139.209 1.82777 0
141.74 1.74258 0
141.885 6.02802 0
139.351 6.1133 0
140.474 1.78533 0
141.812 3.88543 0
140.618 6.07082 0
139.28 3.97067 0
140.546 3.92821 0
141.74 1.74258 0
144.271 1.65611 0
144.418 5.94146 0
141.885 6.02802 0
143.006 1.6995 0
144.345 3.79892 0
143.152 5.9849 0
141.812 3.88543 0
143.079 3.84234 0
144.271 1.65611 0
146.802 1.56837 0
146.952 5.85363 0
144.418 5.94146 0
145.537 1.6124 0
146.877 3.71114 0
145.685 5.89771 0
144.345 3.79892 0
145.611 3.75519 0
146.802 1.56837 0
149.334 1.47937 0
149.485 5.76455 0
146.952 5.85363 0
148.068 1.52403 0
149.409 3.6221 0
148.218 5.80925 0
146.877 3.71114 0
148.143 3.66677 0
149.334 1.47937 0
151.865 1.38913 0
152.018 5.67421 0
149.485 5.76455 0
150.599 1.43441 0
151.941 3.5318 0
150.751 5.71954 0
149.409 3.6221 0
150.675 3.57711 0
151.865 1.38913 0
154.396 1.29765 0
154.551 5.58264 0
152.018 5.67421 0
153.13 1.34354 0
154.474 3.44027 0
153.285 5.62858 0
151.941 3.5318 0
153.208 3.48619 0
154.396 1.29765 0
156.927 1.20493 0
157.085 5.48983 0
154.551 5.58264 0
155.662 1.25144 0
157.006 3.34751 0
155.818 5.53639 0
154.474 3.44027 0
155.74 3.39405 0
156.927 1.20493 0
159.458 1.11099 0
159.618 5.3958 0
157.085 5.48983 0
158.193 1.15811 0
159.538 3.25353 0
158.351 5.44297 0
157.006 3.34751 0
158.272 3.30067 0
159.458 1.11099 0
161.989 1.01584 0
162.151 5.30056 0
159.618 5.3958 0
160.724 1.06357 0
162.07 3.15833 0
160.885 5.34833 0
159.538 3.25353 0
160.804 3.20608 0
161.989 1.01584 0
164.521 0.919485 0
164.684 5.20411 0
162.151 5.30056 0
163.255 0.967813 0
164.603 3.06193 0
163.418 5.25249 0
162.07 3.15833 0
163.336 3.11028 0
164.521 0.919485 0
167.052 0.821935 0
167.217 5.10647 0
164.684 5.20411 0
165.786 0.870859 0
167.135 2.96433 0
165.951 5.15544 0
164.603 3.06193 0
165.869 3.01328 0
167.052 0.821935 0
169.583 0.723199 0
169.751 5.00764 0
167.217 5.10647 0
168.317 0.772715 0
169.667 2.86554 0
168.484 5.0572 0
167.135 2.96433 0
168.401 2.91508 0
169.583 0.723199 0
172.114 0.623286 0
172.284 4.90763 0
169.751 5.00764 0
170.849 0.673389 0
172.199 2.76558 0
171.017 4.95778 0
169.667 2.86554 0
170.933 2.81571 0
172.114 0.623286 0
174.645 0.522204 0
174.817 4.80646 0
172.284 4.90763 0
173.38 0.57289 0
174.731 2.66445 0
173.55 4.85719 0
172.199 2.76558 0
173.465 2.71516 0
174.645 0.522204 0
177.176 0.419964 0
177.35 4.70412 0
174.817 4.80646 0
175.911 0.471229 0
177.263 2.56217 0
176.083 4.75544 0
174.731 2.66445 0
175.997 2.61345 0
177.176 0.419964 0
179.707 0.316574 0
179.883 4.60064 0
177.35 4.70412 0
178.442 0.368413 0
179.795 2.45873 0
178.616 4.65253 0
177.263 2.56217 0
178.529 2.51059 0
179.707 0.316574 0
182.239 0.212044 0
182.416 4.49601 0
179.883 4.60064 0
180.973 0.264451 0
182.327 2.35415 0
181.149 4.54847 0
179.795 2.45873 0
181.061 2.40658 0
182.239 0.212044 0
184.77 0.106381 0
184.949 4.39026 0
182.416 4.49601 0
183.504 0.159353 0
184.859 2.24844 0
183.682 4.44328 0
182.327 2.35415 0
183.593 2.30143 0
184.77 0.106381 0
187.301 -0.000404098 0
187.482 4.28338 0
184.949 4.39026 0
186.035 0.0531283 0
187.391 2.1416 0
186.215 4.33696 0
184.859 2.24844 0
186.125 2.19516 0
187.301 -0.000404098 0
189.832 -0.108303 0
190.015 4.17538 0
187.482 4.28338 0
188.566 -0.0542149 0
189.923 2.03366 0
188.748 4.22952 0
187.391 2.1416 0
188.657 2.08777 0
189.832 -0.108303 0
192.363 -0.217307 0
192.548 4.06628 0
190.015 4.17538 0
191.097 -0.162667 0
192.455 1.92461 0
191.281 4.12097 0
189.923 2.03366 0
191.189 1.97927 0
192.363 -0.217307 0
194.894 -0.327406 0
195.081 3.95609 0
192.548 4.06628 0
193.628 -0.27222 0
194.987 1.81446 0
193.814 4.01132 0
192.455 1.92461 0
193.721 1.86967 0
194.894 -0.327406 0
197.425 -0.438592 0
197.614 3.84481 0
195.081 3.95609 0
196.159 -0.382864 0
197.519 1.70322 0
196.347 3.90058 0
194.987 1.81446 0
196.253 1.75897 0
197.425 -0.438592 0
199.956 -0.550855 0
200.147 3.73245 0
197.614 3.84481 0
198.691 -0.49459 0
200.051 1.59091 0
198.88 3.78876 0
197.519 1.70322 0
198.785 1.6472 0
199.956 -0.550855 0
202.487 -0.664187 0
202.679 3.61902 0
200.147 3.73245 0
201.222 -0.607388 0
202.583 1.47753 0
201.413 3.67587 0
200.051 1.59091 0
201.317 1.53435 0
202.487 -0.664187 0
205.018 -0.778579 0
205.212 3.50453 0
202.679 3.61902 0
203.753 -0.721251 0
205.115 1.36309 0
203.946 3.56191 0
202.583 1.47753 0
203.849 1.42044 0
205.018 -0.778579 0
207.549 -0.894021 0
207.745 3.389 0
205.212 3.50453 0
206.284 -0.836169 0
207.647 1.2476 0
206.479 3.4469 0
205.115 1.36309 0
206.381 1.30547 0
207.549 -0.894021 0
210.08 -1.0105 0
210.278 3.27242 0
207.745 3.389 0
208.815 -0.952133 0
210.179 1.13107 0
209.011 3.33084 0
207.647 1.2476 0
208.913 1.18946 0
210.08 -1.0105 0
212.611 -1.12802 0
212.81 3.15481 0
210.278 3.27242 0
211.346 -1.06913 0
212.711 1.0135 0
211.544 3.21374 0
210.179 1.13107 0
211.445 1.07241 0
212.611 -1.12802 0
215.142 -1.24656 0
215.343 3.03617 0
212.81 3.15481 0
213.877 -1.18716 0
215.243 0.894913 0
214.077 3.09561 0
212.711 1.0135 0
213.977 0.954334 0
215.142 -1.24656 0
217.673 -1.36611 0
217.876 2.91652 0
215.343 3.03617 0
216.408 -1.30621 0
217.775 0.775311 0
216.609 2.97647 0
215.243 0.894913 0
216.509 0.835238 0
217.673 -1.36611 0
220.204 -1.48667 0
220.408 2.79587 0
217.876 2.91652 0
218.939 -1.42627 0
220.306 0.654703 0
219.142 2.85632 0
217.775 0.775311 0
219.04 0.715132 0
220.204 -1.48667 0
222.735 -1.60823 0
222.941 2.67422 0
220.408 2.79587 0
221.47 -1.54732 0
222.838 0.5331 0
221.675 2.73517 0
220.306 0.654703 0
221.572 0.594026 0
222.735 -1.60823 0
225.266 -1.73077 0
225.474 2.55158 0
222.941 2.67422 0
224.001 -1.66937 0
225.37 0.410509 0
224.207 2.61302 0
222.838 0.5331 0
224.104 0.471927 0
225.266 -1.73077 0
227.797 -1.85429 0
228.006 2.42796 0
225.474 2.55158 0
226.531 -1.79241 0
227.902 0.28694 0
226.74 2.48989 0
225.37 0.410509 0
226.636 0.348846 0
227.797 -1.85429 0
230.328 -1.97878 0
230.539 2.30338 0
228.006 2.42796 0
229.062 -1.91641 0
230.433 0.162402 0
229.273 2.36579 0
227.902 0.28694 0
229.168 0.224791 0
230.328 -1.97878 0
232.859 -2.10423 0
233.071 2.17783 0
230.539 2.30338 0
231.593 -2.04138 0
232.965 0.0369038 0
231.805 2.24073 0
230.433 0.162402 0
231.699 0.0997723 0
232.859 -2.10423 0
235.39 -2.23063 0
235.604 2.05134 0
233.071 2.17783 0
234.124 -2.16731 0
235.497 -0.0895452 0
234.338 2.1147 0
232.965 0.0369038 0
234.231 -0.0262024 0
235.39 -2.23063 0
237.921 -2.35797 0
238.136 1.9239 0
235.604 2.05134 0
236.655 -2.29418 0
238.029 -0.216936 0
236.87 1.98774 0
235.497 -0.0895452 0
236.763 -0.153123 0
237.921 -2.35797 0
240.452 -2.48625 0
240.669 1.79553 0
238.136 1.9239 0
239.186 -2.42199 0
240.56 -0.34526 0
239.403 1.85983 0
238.029 -0.216936 0
239.294 -0.280982 0
240.452 -2.48625 0
242.982 -2.61544 0
243.201 1.66624 0
240.669 1.79553 0
241.717 -2.55073 0
243.092 -0.474508 0
241.935 1.731 0
240.56 -0.34526 0
241.826 -0.409769 0
242.982 -2.61544 0
245.513 -2.74556 0
245.734 1.53603 0
243.201 1.66624 0
244.248 -2.68039 0
245.624 -0.60467 0
244.468 1.60125 0
243.092 -0.474508 0
244.358 -0.539475 0
245.513 -2.74556 0
248.044 -2.87658 0
248.266 1.40491 0
245.734 1.53603 0
246.779 -2.81096 0
248.155 -0.735738 0
247 1.47058 0
245.624 -0.60467 0
246.889 -0.670091 0
248.044 -2.87658 0
250.575 -3.0085 0
250.799 1.2729 0
248.266 1.40491 0
249.31 -2.94243 0
250.687 -0.867703 0
249.532 1.33902 0
248.155 -0.735738 0
249.421 -0.801609 0
250.575 -3.0085 0
253.106 -3.1413 0
253.331 1.14 0
250.799 1.2729 0
251.84 -3.07479 0
253.218 -1.00056 0
252.065 1.20656 0
250.687 -0.867703 0
251.953 -0.934019 0
253.106 -3.1413 0
255.637 -3.27498 0
255.863 1.00623 0
253.331 1.14 0
254.371 -3.20803 0
255.75 -1.13429 0
254.597 1.07323 0
253.218 -1.00056 0
254.484 -1.06731 0
255.637 -3.27498 0
258.168 -3.40954 0
258.396 0.871581 0
255.863 1.00623 0
256.902 -3.34215 0
258.282 -1.26889 0
257.129 0.939012 0
255.75 -1.13429 0
257.016 -1.20148 0
258.168 -3.40954 0
260.698 -3.54495 0
260.928 0.736074 0
258.396 0.871581 0
259.433 -3.47714 0
260.813 -1.40435 0
259.662 0.803935 0
258.282 -1.26889 0
259.547 -1.33651 0
260.698 -3.54495 0
263.229 -3.68122 0
263.46 0.599716 0
260.928 0.736074 0
261.964 -3.61298 0
263.345 -1.54066 0
262.194 0.668001 0
260.813 -1.40435 0
262.079 -1.4724 0
263.229 -3.68122 0
265.76 -3.81833 0
265.992 0.462516 0
263.46 0.599716 0
264.495 -3.74967 0
265.876 -1.67782 0
264.726 0.531221 0
263.345 -1.54066 0
264.61 -1.60913 0
265.76 -3.81833 0
268.291 -3.95627 0
268.524 0.324483 0
265.992 0.462516 0
267.026 -3.88719 0
268.408 -1.81581 0
267.258 0.393603 0
265.876 -1.67782 0
267.142 -1.74671 0
268.291 -3.95627 0
270.822 -4.09504 0
271.057 0.185625 0
268.524 0.324483 0
269.556 -4.02555 0
270.939 -1.95462 0
269.791 0.255156 0
268.408 -1.81581 0
269.673 -1.88511 0
270.822 -4.09504 0
273.353 -4.23462 0
273.589 0.0459522 0
271.057 0.185625 0
272.087 -4.16472 0
273.471 -2.09425 0
272.323 0.11589 0
270.939 -1.95462 0
272.205 -2.02433 0
273.353 -4.23462 0
275.883 -4.37501 0
276.121 -0.0945267 0
273.589 0.0459522 0
274.618 -4.30471 0
276.002 -2.23468 0
274.855 -0.0241871 0
273.471 -2.09425 0
274.736 -2.16436 0
275.883 -4.37501 0
278.414 -4.51619 0
278.653 -0.235803 0
276.121 -0.0945267 0
277.149 -4.4455 0
278.534 -2.37591 0
277.387 -0.165066 0
276.002 -2.23468 0
277.268 -2.3052 0
278.414 -4.51619 0
280.945 -4.65817 0
281.185 -0.377867 0
278.653 -0.235803 0
279.68 -4.58708 0
281.065 -2.51793 0
279.919 -0.306737 0
278.534 -2.37591 0
279.799 -2.44683 0
280.945 -4.65817 0
283.476 -4.80092 0
283.717 -0.52071 0
281.185 -0.377867 0
282.21 -4.72945 0
283.597 -2.66073 0
282.451 -0.449191 0
281.065 -2.51793 0
282.331 -2.58924 0
283.476 -4.80092 0
286.006 -4.94444 0
286.249 -0.664322 0
283.717 -0.52071 0
284.741 -4.87259 0
286.128 -2.8043 0
284.983 -0.59242 0
283.597 -2.66073 0
284.862 -2.73242 0
286.006 -4.94444 0
288.537 -5.08873 0
288.781 -0.808696 0
286.249 -0.664322 0
287.272 -5.01649 0
288.659 -2.94863 0
287.515 -0.736415 0
286.128 -2.8043 0
287.394 -2.87637 0
288.537 -5.08873 0
291.068 -5.23377 0
291.313 -0.953821 0
288.781 -0.808696 0
289.803 -5.16116 0
291.191 -3.09372 0
290.047 -0.881165 0
288.659 -2.94863 0
289.925 -3.02108 0
291.068 -5.23377 0
293.599 -5.37955 0
293.845 -1.09969 0
291.313 -0.953821 0
292.333 -5.30657 0
293.722 -3.23954 0
292.579 -1.02666 0
291.191 -3.09372 0
292.456 -3.16654 0
293.599 -5.37955 0
296.13 -5.52606 0
296.377 -1.24629 0
293.845 -1.09969 0
294.864 -5.45272 0
296.254 -3.3861 0
295.111 -1.1729 0
293.722 -3.23954 0
294.988 -3.31273 0
296.13 -5.52606 0
298.66 -5.6733 0
298.909 -1.39362 0
296.377 -1.24629 0
297.395 -5.59959 0
298.785 -3.53339 0
297.643 -1.31986 0
296.254 -3.3861 0
297.519 -3.45965 0
298.66 -5.6733 0
301.191 -5.82126 0
301.441 -1.54166 0
298.909 -1.39362 0
299.926 -5.74719 0
301.316 -3.68139 0
300.175 -1.46755 0
298.785 -3.53339 0
300.051 -3.6073 0
301.191 -5.82126 0
303.722 -5.96993 0
303.973 -1.69041 0
301.441 -1.54166 0
302.456 -5.89551 0
303.848 -3.83009 0
302.707 -1.61595 0
301.316 -3.68139 0
302.582 -3.75565 0
303.722 -5.96993 0
306.252 -6.11929 0
306.505 -1.83986 0
303.973 -1.69041 0
304.987 -6.04452 0
306.379 -3.9795 0
305.239 -1.76505 0
303.848 -3.83009 0
305.113 -3.90471 0
306.252 -6.11929 0
308.783 -6.26934 0
309.037 -1.98999 0
306.505 -1.83986 0
307.518 -6.19423 0
308.91 -4.12959 0
307.771 -1.91484 0
306.379 -3.9795 0
307.645 -4.05446 0
308.783 -6.26934 0
311.314 -6.42007 0
311.569 -2.1408 0
309.037 -1.98999 0
310.049 -6.34462 0
311.442 -4.28037 0
310.303 -2.06531 0
308.91 -4.12959 0
310.176 -4.2049 0
311.314 -6.42007 0
313.845 -6.57147 0
314.101 -2.29229 0
311.569 -2.1408 0
312.579 -6.49569 0
313.973 -4.43181 0
312.835 -2.21646 0
311.442 -4.28037 0
312.707 -4.35601 0
313.845 -6.57147 0
316.375 -6.72354 0
316.633 -2.44444 0
314.101 -2.29229 0
315.11 -6.64742 0
316.504 -4.58392 0
315.367 -2.36828 0
313.973 -4.43181 0
315.238 -4.50778 0
316.375 -6.72354 0
318.906 -6.87625 0
319.165 -2.59723 0
316.633 -2.44444 0
317.641 -6.79981 0
319.035 -4.73668 0
317.899 -2.52075 0
316.504 -4.58392 0
317.77 -4.66022 0
318.906 -6.87625 0
321.437 -7.02961 0
321.696 -2.75068 0
319.165 -2.59723 0
320.172 -6.95285 0
321.567 -4.89008 0
320.43 -2.67387 0
319.035 -4.73668 0
320.301 -4.8133 0
321.437 -7.02961 0
323.968 -7.18361 0
324.228 -2.90475 0
321.696 -2.75068 0
322.702 -7.10653 0
324.098 -5.04412 0
322.962 -2.82763 0
321.567 -4.89008 0
322.832 -4.96702 0
323.968 -7.18361 0
326.498 -7.33823 0
326.76 -3.05945 0
324.228 -2.90475 0
325.233 -7.26084 0
326.629 -5.19878 0
325.494 -2.98202 0
324.098 -5.04412 0
325.364 -5.12137 0
326.498 -7.33823 0
329.029 -7.49347 0
329.292 -3.21477 0
326.76 -3.05945 0
327.764 -7.41578 0
329.16 -5.35406 0
328.026 -3.13703 0
326.629 -5.19878 0
327.895 -5.27634 0
329.029 -7.49347 0
331.56 -7.64932 0
331.823 -3.37069 0
329.292 -3.21477 0
330.295 -7.57132 0
331.692 -5.50994 0
330.558 -3.29266 0
329.16 -5.35406 0
330.426 -5.43192 0
331.56 -7.64932 0
334.091 -7.80576 0
334.355 -3.52722 0
331.823 -3.37069 0
332.825 -7.72747 0
334.223 -5.66643 0
333.089 -3.44888 0
331.692 -5.50994 0
332.957 -5.58811 0
334.091 -7.80576 0
336.621 -7.9628 0
336.887 -3.68433 0
334.355 -3.52722 0
335.356 -7.88421 0
336.754 -5.8235 0
335.621 -3.6057 0
334.223 -5.66643 0
335.489 -5.74489 0
336.621 -7.9628 0
339.152 -8.12041 0
339.419 -3.84202 0
336.887 -3.68433 0
337.887 -8.04153 0
339.285 -5.98116 0
338.153 -3.7631 0
336.754 -5.8235 0
338.02 -5.90226 0
339.152 -8.12041 0
341.683 -8.2786 0
341.95 -4.00028 0
339.419 -3.84202 0
340.417 -8.19944 0
341.817 -6.13938 0
340.684 -3.92108 0
339.285 -5.98116 0
340.551 -6.0602 0
341.683 -8.2786 0
344.214 -8.43735 0
344.482 -4.15911 0
341.95 -4.00028 0
342.948 -8.35791 0
344.348 -6.29817 0
343.216 -4.07962 0
341.817 -6.13938 0
343.082 -6.21871 0
344.214 -8.43735 0
346.744 -8.59665 0
347.014 -4.31848 0
344.482 -4.15911 0
345.479 -8.51693 0
346.879 -6.45751 0
345.748 -4.23873 0
344.348 -6.29817 0
345.613 -6.37777 0
346.744 -8.59665 0
349.275 -8.7565 0
349.545 -4.4784 0
347.014 -4.31848 0
348.01 -8.67651 0
349.41 -6.6174 0
348.279 -4.39838 0
346.879 -6.45751 0
348.145 -6.53739 0
349.275 -8.7565 0
351.806 -8.91689 0
352.077 -4.63886 0
349.545 -4.4784 0
350.54 -8.83663 0
351.941 -6.77782 0
350.811 -4.55857 0
349.41 -6.6174 0
350.676 -6.69754 0
351.806 -8.91689 0
354.337 -9.0778 0
354.609 -4.79984 0
352.077 -4.63886 0
353.071 -8.99728 0
354.473 -6.93876 0
353.343 -4.71928 0
351.941 -6.77782 0
353.207 -6.85823 0
354.337 -9.0778 0
356.867 -9.23922 0
357.14 -4.96134 0
354.609 -4.79984 0
355.602 -9.15845 0
357.004 -7.10023 0
355.874 -4.88053 0
354.473 -6.93876 0
355.738 -7.01943 0
356.867 -9.23922 0
359.398 -9.40116 0
359.672 -5.12334 0
357.14 -4.96134 0
358.133 -9.32013 0
359.535 -7.2622 0
358.406 -5.04228 0
357.004 -7.10023 0
358.269 -7.18115 0
359.398 -9.40116 0
361.929 -9.5636 0
362.203 -5.28585 0
359.672 -5.12334 0
360.664 -9.48232 0
362.066 -7.42467 0
360.938 -5.20454 0
359.535 -7.2622 0
360.801 -7.34337 0
361.929 -9.5636 0
364.46 -9.72652 0
364.735 -5.44884 0
362.203 -5.28585 0
363.194 -9.645 0
364.597 -7.58763 0
363.469 -5.36729 0
362.066 -7.42467 0
363.332 -7.50609 0
364.46 -9.72652 0
366.991 -9.88993 0
367.267 -5.61232 0
364.735 -5.44884 0
365.725 -9.80817 0
367.129 -7.75107 0
366.001 -5.53052 0
364.597 -7.58763 0
365.863 -7.66929 0
366.991 -9.88993 0
369.521 -10.0538 0
369.798 -5.77626 0
367.267 -5.61232 0
368.256 -9.97181 0
369.66 -7.91499 0
368.532 -5.69423 0
367.129 -7.75107 0
368.394 -7.83297 0
369.521 -10.0538 0
372.052 -10.2182 0
372.33 -5.94067 0
369.798 -5.77626 0
370.787 -10.1359 0
372.191 -8.07937 0
371.064 -5.85841 0
369.66 -7.91499 0
370.925 -7.99712 0
372.052 -10.2182 0
374.583 -10.3829 0
374.861 -6.10553 0
372.33 -5.94067 0
373.318 -10.3005 0
374.722 -8.2442 0
373.596 -6.02305 0
372.191 -8.07937 0
373.457 -8.16172 0
374.583 -10.3829 0
377.114 -10.5482 0
377.393 -6.27084 0
374.861 -6.10553 0
375.848 -10.4655 0
377.253 -8.40947 0
376.127 -6.18813 0
374.722 -8.2442 0
375.988 -8.32678 0
377.114 -10.5482 0
379.645 -10.7139 0
379.925 -6.43658 0
377.393 -6.27084 0
378.379 -10.631 0
379.785 -8.57518 0
378.659 -6.35366 0
377.253 -8.40947 0
378.519 -8.49227 0
379.645 -10.7139 0
382.176 -10.88 0
382.456 -6.60275 0
379.925 -6.43658 0
380.91 -10.7969 0
382.316 -8.74132 0
381.19 -6.51961 0
379.785 -8.57518 0
381.05 -8.6582 0
382.176 -10.88 0
384.706 -11.0465 0
384.988 -6.76934 0
382.456 -6.60275 0
383.441 -10.9632 0
384.847 -8.90788 0
383.722 -6.68599 0
382.316 -8.74132 0
383.581 -8.82455 0
384.706 -11.0465 0
387.237 -11.2134 0
387.519 -6.93633 0
384.988 -6.76934 0
385.972 -11.1299 0
387.378 -9.07484 0
386.253 -6.85278 0
384.847 -8.90788 0
386.113 -8.99131 0
387.237 -11.2134 0
389.768 -11.3808 0
390.051 -7.10372 0
387.519 -6.93633 0
388.503 -11.2971 0
389.91 -9.24221 0
388.785 -7.01998 0
387.378 -9.07484 0
388.644 -9.15847 0
389.768 -11.3808 0
392.299 -11.5485 0
392.582 -7.27151 0
390.051 -7.10372 0
391.034 -11.4646 0
392.441 -9.40996 0
391.317 -7.18757 0
389.91 -9.24221 0
391.175 -9.32603 0
392.299 -11.5485 0
394.83 -11.7166 0
395.114 -7.43967 0
392.582 -7.27151 0
393.564 -11.6325 0
394.972 -9.5781 0
393.848 -7.35554 0
392.441 -9.40996 0
393.706 -9.49398 0
394.83 -11.7166 0
397.361 -11.8851 0
397.645 -7.60821 0
395.114 -7.43967 0
396.095 -11.8008 0
397.503 -9.74661 0
396.38 -7.52389 0
394.972 -9.5781 0
396.238 -9.66231 0
397.361 -11.8851 0
399.892 -12.0539 0
400.177 -7.77711 0
397.645 -7.60821 0
398.626 -11.9695 0
400.034 -9.91548 0
398.911 -7.69261 0
397.503 -9.74661 0
398.769 -9.831 0
399.892 -12.0539 0
402.423 -12.2231 0
402.709 -7.94636 0
400.177 -7.77711 0
401.157 -12.1385 0
402.566 -10.0847 0
401.443 -7.86169 0
400.034 -9.91548 0
401.3 -10 0
402.423 -12.2231 0
404.954 -12.3927 0
405.24 -8.11596 0
402.709 -7.94636 0
403.688 -12.3079 0
405.097 -10.2543 0
403.974 -8.03112 0
402.566 -10.0847 0
403.831 -10.1694 0
404.954 -12.3927 0
407.485 -12.5625 0
407.772 -8.28589 0
405.24 -8.11596 0
406.219 -12.4776 0
407.628 -10.4242 0
406.506 -8.20088 0
405.097 -10.2543 0
406.363 -10.3392 0
407.485 -12.5625 0
410.016 -12.7328 0
410.303 -8.45615 0
407.772 -8.28589 0
408.75 -12.6476 0
410.159 -10.5944 0
409.037 -8.37098 0
407.628 -10.4242 0
408.894 -10.5093 0
410.016 -12.7328 0
412.547 -12.9033 0
412.835 -8.62673 0
410.303 -8.45615 0
411.281 -12.818 0
412.691 -10.765 0
411.569 -8.5414 0
410.159 -10.5944 0
411.425 -10.6797 0
412.547 -12.9033 0
415.078 -13.0741 0
415.366 -8.79762 0
412.835 -8.62673 0
413.812 -12.9887 0
415.222 -10.9358 0
414.1 -8.71214 0
412.691 -10.765 0
413.956 -10.8504 0
415.078 -13.0741 0
417.609 -13.2453 0
417.898 -8.96881 0
415.366 -8.79762 0
416.343 -13.1597 0
417.753 -11.107 0
416.632 -8.88318 0
415.222 -10.9358 0
416.488 -11.0214 0
417.609 -13.2453 0
420.14 -13.4167 0
420.429 -9.14029 0
417.898 -8.96881 0
418.874 -13.3309 0
420.285 -11.2785 0
419.164 -9.05451 0
417.753 -11.107 0
419.019 -11.1927 0
420.14 -13.4167 0
422.671 -13.5884 0
422.961 -9.31205 0
420.429 -9.14029 0
421.405 -13.5025 0
422.816 -11.4502 0
421.695 -9.22613 0
420.285 -11.2785 0
421.55 -11.3643 0
422.671 -13.5884 0
425.202 -13.7604 0
425.492 -9.48408 0
422.961 -9.31205 0
423.937 -13.6744 0
425.347 -11.6222 0
424.227 -9.39803 0
422.816 -11.4502 0
424.082 -11.5362 0
425.202 -13.7604 0
427.733 -13.9326 0
428.024 -9.65638 0
425.492 -9.48408 0
426.468 -13.8465 0
427.879 -11.7945 0
426.758 -9.57019 0
425.347 -11.6222 0
426.613 -11.7083 0
427.733 -13.9326 0
430.264 -14.1052 0
430.556 -9.82893 0
428.024 -9.65638 0
428.999 -14.0189 0
430.41 -11.967 0
429.29 -9.74262 0
427.879 -11.7945 0
429.144 -11.8807 0
430.264 -14.1052 0
432.796 -14.2779 0
433.087 -10.0017 0
430.556 -9.82893 0
431.53 -14.1915 0
432.941 -12.1398 0
431.821 -9.91529 0
430.41 -11.967 0
431.676 -12.0534 0
432.796 -14.2779 0
435.327 -14.4509 0
435.619 -10.1748 0
433.087 -10.0017 0
434.061 -14.3644 0
435.473 -12.3128 0
434.353 -10.0882 0
432.941 -12.1398 0
434.207 -12.2263 0
435.327 -14.4509 0
437.858 -14.6241 0
438.15 -10.348 0
435.619 -10.1748 0
436.592 -14.5375 0
438.004 -12.486 0
436.885 -10.2614 0
435.473 -12.3128 0
436.739 -12.3994 0
437.858 -14.6241 0
440.389 -14.7976 0
440.682 -10.5215 0
438.15 -10.348 0
439.124 -14.7108 0
440.536 -12.6595 0
439.416 -10.4347 0
438.004 -12.486 0
439.27 -12.5727 0
440.389 -14.7976 0
442.921 -14.9712 0
443.214 -10.6952 0
440.682 -10.5215 0
441.655 -14.8844 0
443.067 -12.8332 0
441.948 -10.6083 0
440.536 -12.6595 0
441.801 -12.7463 0
442.921 -14.9712 0
445.452 -15.1451 0
445.745 -10.8691 0
443.214 -10.6952 0
444.186 -15.0581 0
445.599 -13.007 0
444.479 -10.7821 0
443.067 -12.8332 0
444.333 -12.9201 0
445.452 -15.1451 0
447.983 -15.3191 0
448.277 -11.0432 0
445.745 -10.8691 0
446.717 -15.2321 0
448.13 -13.1811 0
447.011 -10.9561 0
445.599 -13.007 0
446.864 -13.0941 0
447.983 -15.3191 0
450.514 -15.4933 0
450.808 -11.2174 0
448.277 -11.0432 0
449.249 -15.4062 0
450.662 -13.3554 0
449.543 -11.1303 0
448.13 -13.1811 0
449.396 -13.2682 0
450.514 -15.4933 0
453.046 -15.6677 0
453.34 -11.3919 0
450.808 -11.2174 0
451.78 -15.5805 0
453.193 -13.5298 0
452.074 -11.3046 0
450.662 -13.3554 0
451.927 -13.4425 0
453.046 -15.6677 0
455.577 -15.8423 0
455.872 -11.5665 0
453.34 -11.3919 0
454.312 -15.755 0
455.725 -13.7044 0
454.606 -11.4791 0
453.193 -13.5298 0
454.459 -13.617 0
455.577 -15.8423 0
458.109 -16.017 0
458.403 -11.7412 0
455.872 -11.5665 0
456.843 -15.9296 0
458.256 -13.8791 0
457.138 -11.6538 0
455.725 -13.7044 0
456.99 -13.7917 0
458.109 -16.017 0
460.64 -16.1919 0
460.935 -11.9161 0
458.403 -11.7412 0
459.374 -16.1044 0
460.788 -14.054 0
459.669 -11.8286 0
458.256 -13.8791 0
459.522 -13.9665 0
460.64 -16.1919 0
463.172 -16.3669 0
463.467 -12.0912 0
460.935 -11.9161 0
461.906 -16.2794 0
463.319 -14.229 0
462.201 -12.0036 0
460.788 -14.054 0
462.053 -14.1415 0
463.172 -16.3669 0
465.703 -16.542 0
465.999 -12.2663 0
463.467 -12.0912 0
464.437 -16.4545 0
465.851 -14.4042 0
464.733 -12.1787 0
463.319 -14.229 0
464.585 -14.3166 0
465.703 -16.542 0
468.235 -16.7173 0
468.53 -12.4416 0
465.999 -12.2663 0
466.969 -16.6296 0
468.383 -14.5794 0
467.264 -12.3539 0
465.851 -14.4042 0
467.117 -14.4918 0
468.235 -16.7173 0
470.766 -16.8927 0
471.062 -12.617 0
468.53 -12.4416 0
469.5 -16.805 0
470.914 -14.7548 0
469.796 -12.5293 0
468.383 -14.5794 0
469.648 -14.6671 0
470.766 -16.8927 0
473.298 -17.0681 0
473.594 -12.7925 0
471.062 -12.617 0
472.032 -16.9804 0
473.446 -14.9303 0
472.328 -12.7047 0
470.914 -14.7548 0
472.18 -14.8426 0
473.298 -17.0681 0
475.829 -17.2437 0
476.126 -12.9681 0
473.594 -12.7925 0
474.564 -17.1559 0
475.978 -15.1059 0
474.86 -12.8803 0
473.446 -14.9303 0
474.712 -15.0181 0
475.829 -17.2437 0
478.361 -17.4193 0
478.657 -13.1438 0
476.126 -12.9681 0
477.095 -17.3315 0
478.509 -15.2815 0
477.391 -13.0559 0
475.978 -15.1059 0
477.243 -15.1937 0
478.361 -17.4193 0
480.893 -17.5951 0
481.189 -13.3195 0
478.657 -13.1438 0
479.627 -17.5072 0
481.041 -15.4573 0
479.923 -13.2316 0
478.509 -15.2815 0
479.775 -15.3694 0
480.893 -17.5951 0
483.425 -17.7709 0
483.721 -13.4953 0
481.189 -13.3195 0
482.159 -17.6829 0
483.573 -15.6331 0
482.455 -13.4074 0
481.041 -15.4573 0
482.307 -15.5452 0
483.425 -17.7709 0
485.956 -17.9467 0
486.253 -13.6712 0
483.721 -13.4953 0
484.69 -17.8588 0
486.105 -15.8089 0
484.987 -13.5833 0
483.573 -15.6331 0
484.839 -15.721 0
485.956 -17.9467 0
488.488 -18.1226 0
488.785 -13.8471 0
486.253 -13.6712 0
487.222 -18.0346 0
488.637 -15.9849 0
487.519 -13.7592 0
486.105 -15.8089 0
487.371 -15.8969 0
488.488 -18.1226 0
491.02 -18.2985 0
491.317 -14.0231 0
488.785 -13.8471 0
489.754 -18.2106 0
491.168 -16.1608 0
490.051 -13.9351 0
488.637 -15.9849 0
489.902 -16.0728 0
491.02 -18.2985 0
493.552 -18.4746 0
493.849 -14.1991 0
491.317 -14.0231 0
492.286 -18.3865 0
493.7 -16.3368 0
492.583 -14.1111 0
491.168 -16.1608 0
492.434 -16.2488 0
493.552 -18.4746 0
496.084 -18.6507 0
496.381 -14.3751 0
493.849 -14.1991 0
494.818 -18.5626 0
496.232 -16.5129 0
495.115 -14.2871 0
493.7 -16.3368 0
494.966 -16.4249 0
496.084 -18.6507 0
498.616 -18.8269 0
498.913 -14.551 0
496.381 -14.3751 0
497.35 -18.7388 0
498.764 -16.6889 0
497.647 -14.4631 0
496.232 -16.5129 0
497.498 -16.6009 0
0 8.57143 0
2.53406 8.57103 0
2.53674 12.8574 0
0 12.8571 0
1.26709 8.57155 0
2.53541 10.7143 0
1.26837 12.8576 0
0 10.7143 0
1.26774 10.7146 0
2.53406 8.57103 0
5.06781 8.56834 0
5.07337 12.8551 0
2.53674 12.8574 0
3.80096 8.56994 0
5.07062 10.7119 0
3.80507 12.8565 0
2.53541 10.7143 0
3.80303 10.7134 0
5.06781 8.56834 0
7.60139 8.5637 0
7.60994 12.8508 0
5.07337 12.8551 0
6.33461 8.56625 0
7.6057 10.7074 0
6.34166 12.8532 0
5.07062 10.7119 0
6.33817 10.7099 0
7.60139 8.5637 0
10.1349 8.55726 0
10.1465 12.8444 0
7.60994 12.8508 0
8.86815 8.5607 0
10.1407 10.701 0
8.87822 12.8478 0
7.6057 10.7074 0
8.87322 10.7044 0
10.1349 8.55726 0
12.6685 8.54908 0
12.683 12.8363 0
10.1465 12.8444 0
11.4017 8.55339 0
12.6758 10.6929 0
11.4148 12.8406 0
10.1407 10.701 0
11.4083 10.6972 0
12.6685 8.54908 0
15.202 8.53918 0
15.2196 12.8264 0
12.683 12.8363 0
13.9353 8.54434 0
15.2108 10.683 0
13.9513 12.8315 0
12.6758 10.6929 0
13.9433 10.6881 0
15.202 8.53918 0
17.7357 8.52755 0
17.7561 12.8147 0
15.2196 12.8264 0
16.4689 8.53358 0
17.7459 10.6713 0
16.4878 12.8207 0
15.2108 10.683 0
16.4784 10.6773 0
17.7357 8.52755 0
20.2693 8.51421 0
20.2927 12.8013 0
17.7561 12.8147 0
19.0025 8.5211 0
20.281 10.658 0
19.0244 12.8082 0
17.7459 10.6713 0
19.0135 10.6648 0
20.2693 8.51421 0
22.803 8.49916 0
22.8292 12.7862 0
20.2927 12.8013 0
21.5361 8.5069 0
22.8161 10.6429 0
21.561 12.794 0
20.281 10.658 0
21.5486 10.6506 0
22.803 8.49916 0
25.3367 8.48241 0
25.3658 12.7695 0
22.8292 12.7862 0
24.0698 8.491 0
25.3513 10.6261 0
24.0975 12.7781 0
22.8161 10.6429 0
24.0837 10.6347 0
25.3367 8.48241 0
27.8704 8.46397 0
27.9024 12.751 0
25.3658 12.7695 0
26.6035 8.4734 0
27.8864 10.6077 0
26.6341 12.7604 0
25.3513 10.6261 0
26.6188 10.6171 0
27.8704 8.46397 0
30.4041 8.44384 0
30.4389 12.7308 0
27.9024 12.751 0
29.1372 8.45411 0
30.4215 10.5875 0
29.1706 12.7411 0
27.8864 10.6077 0
29.154 10.5978 0
30.4041 8.44384 0
32.9378 8.42204 0
32.9755 12.709 0
30.4389 12.7308 0
31.6709 8.43315 0
32.9567 10.5657 0
31.7072 12.7201 0
30.4215 10.5875 0
31.6891 10.5768 0
32.9378 8.42204 0
35.4715 8.39857 0
35.512 12.6855 0
32.9755 12.709 0
34.2047 8.41051 0
35.4918 10.5422 0
34.2438 12.6975 0
32.9567 10.5657 0
34.2242 10.5542 0
35.4715 8.39857 0
38.0053 8.37344 0
38.0486 12.6603 0
35.512 12.6855 0
36.7384 8.38621 0
38.0269 10.5171 0
36.7803 12.6731 0
35.4918 10.5422 0
36.7594 10.5298 0
38.0053 8.37344 0
40.539 8.34667 0
40.5851 12.6335 0
38.0486 12.6603 0
39.2722 8.36026 0
40.5621 10.4903 0
39.3168 12.6471 0
38.0269 10.5171 0
39.2945 10.5039 0
40.539 8.34667 0
43.0728 8.31825 0
43.1216 12.6051 0
40.5851 12.6335 0
41.8059 8.33266 0
43.0972 10.4618 0
41.8533 12.6195 0
40.5621 10.4903 0
41.8296 10.4763 0
43.0728 8.31825 0
45.6065 8.28821 0
45.6581 12.575 0
43.1216 12.6051 0
44.3397 8.30343 0
45.6323 10.4318 0
44.3899 12.5902 0
43.0972 10.4618 0
44.3648 10.447 0
45.6065 8.28821 0
48.1403 8.25654 0
48.1946 12.5433 0
45.6581 12.575 0
46.8734 8.27258 0
48.1675 10.4001 0
46.9264 12.5593 0
45.6323 10.4318 0
46.8999 10.4161 0
48.1403 8.25654 0
50.6741 8.22327 0
50.7311 12.51 0
48.1946 12.5433 0
49.4072 8.24011 0
50.7026 10.3668 0
49.4628 12.5268 0
48.1675 10.4001 0
49.435 10.3836 0
50.6741 8.22327 0
53.2078 8.18839 0
53.2676 12.475 0
50.7311 12.51 0
51.9409 8.20603 0
53.2377 10.3319 0
51.9993 12.4927 0
50.7026 10.3668 0
51.9701 10.3495 0
53.2078 8.18839 0
55.7416 8.15191 0
55.804 12.4385 0
53.2676 12.475 0
54.4747 8.17035 0
55.7728 10.2954 0
54.5358 12.457 0
53.2377 10.3319 0
54.5053 10.3138 0
55.7416 8.15191 0
58.2754 8.11385 0
58.3404 12.4004 0
55.804 12.4385 0
57.0085 8.13308 0
58.3079 10.2573 0
57.0722 12.4197 0
55.7728 10.2954 0
57.0404 10.2765 0
58.2754 8.11385 0
60.8091 8.07422 0
60.8769 12.3607 0
58.3404 12.4004 0
59.5422 8.09423 0
60.843 10.2176 0
59.6087 12.3808 0
58.3079 10.2573 0
59.5755 10.2377 0
60.8091 8.07422 0
63.3429 8.03301 0
63.4133 12.3195 0
60.8769 12.3607 0
62.076 8.05381 0
63.3781 10.1764 0
62.1451 12.3403 0
60.843 10.2176 0
62.1105 10.1972 0
63.3429 8.03301 0
65.8766 7.99025 0
65.9497 12.2767 0
63.4133 12.3195 0
64.6098 8.01183 0
65.9132 10.1336 0
64.6815 12.2983 0
63.3781 10.1764 0
64.6456 10.1552 0
65.8766 7.99025 0
68.4104 7.94595 0
68.486 12.2323 0
65.9497 12.2767 0
67.1435 7.96829 0
68.4482 10.0893 0
67.2178 12.2547 0
65.9132 10.1336 0
67.1807 10.1116 0
68.4104 7.94595 0
70.9441 7.9001 0
71.0224 12.1864 0
68.486 12.2323 0
69.6773 7.92321 0
70.9833 10.0434 0
69.7542 12.2095 0
68.4482 10.0893 0
69.7158 10.0665 0
70.9441 7.9001 0
73.4779 7.85272 0
73.5587 12.139 0
71.0224 12.1864 0
72.211 7.8766 0
73.5183 9.996 0
72.2905 12.1629 0
70.9833 10.0434 0
72.2508 10.0199 0
73.4779 7.85272 0
76.0116 7.80382 0
76.095 12.09 0
73.5587 12.139 0
74.7448 7.82846 0
76.0533 9.94707 0
74.8269 12.1147 0
73.5183 9.996 0
74.7858 9.97173 0
76.0116 7.80382 0
78.5454 7.75341 0
78.6313 12.0395 0
76.095 12.09 0
77.2785 7.7788 0
78.5883 9.89663 0
77.3632 12.065 0
76.0533 9.94707 0
77.3208 9.92204 0
78.5454 7.75341 0
81.0791 7.70149 0
81.1676 11.9876 0
78.6313 12.0395 0
79.8122 7.72764 0
81.1233 9.84468 0
79.8994 12.0137 0
78.5883 9.89663 0
79.8558 9.87084 0
81.0791 7.70149 0
83.6128 7.64808 0
83.7038 11.9341 0
81.1676 11.9876 0
82.346 7.67497 0
83.6583 9.79124 0
82.4357 11.961 0
81.1233 9.84468 0
82.3908 9.81815 0
83.6128 7.64808 0
86.1465 7.59318 0
86.24 11.8791 0
83.7038 11.9341 0
84.8797 7.62082 0
86.1933 9.73631 0
84.9719 11.9068 0
83.6583 9.79124 0
84.9258 9.76396 0
86.1465 7.59318 0
88.6802 7.53681 0
88.7762 11.8227 0
86.24 11.8791 0
87.4134 7.56518 0
88.7282 9.67991 0
87.5081 11.8511 0
86.1933 9.73631 0
87.4608 9.70829 0
88.6802 7.53681 0
91.2139 7.47897 0
91.3124 11.7648 0
88.7762 11.8227 0
89.9471 7.50807 0
91.2632 9.62204 0
90.0443 11.7939 0
88.7282 9.67991 0
89.9957 9.65115 0
91.2139 7.47897 0
93.7476 7.41967 0
93.8485 11.7054 0
91.3124 11.7648 0
92.4808 7.4495 0
93.7981 9.5627 0
92.5804 11.7353 0
91.2632 9.62204 0
92.5306 9.59255 0
93.7476 7.41967 0
96.2813 7.35893 0
96.3846 11.6446 0
93.8485 11.7054 0
95.0144 7.38948 0
96.333 9.50192 0
95.1166 11.6752 0
93.7981 9.5627 0
95.0655 9.53249 0
96.2813 7.35893 0
98.8149 7.29674 0
98.9207 11.5824 0
96.3846 11.6446 0
97.5481 7.32801 0
98.8678 9.4397 0
97.6527 11.6137 0
96.333 9.50192 0
97.6004 9.47099 0
98.8149 7.29674 0
101.349 7.23312 0
101.457 11.5187 0
98.9207 11.5824 0
100.082 7.26511 0
101.403 9.37605 0
100.189 11.5507 0
98.8678 9.4397 0
100.135 9.40805 0
101.349 7.23312 0
103.882 7.16808 0
103.993 11.4536 0
101.457 11.5187 0
102.615 7.20078 0
103.938 9.31097 0
102.725 11.4863 0
101.403 9.37605 0
102.67 9.34369 0
103.882 7.16808 0
106.416 7.10163 0
106.529 11.387 0
103.993 11.4536 0
105.149 7.13503 0
106.472 9.24449 0
105.261 11.4205 0
103.938 9.31097 0
105.205 9.27791 0
106.416 7.10163 0
108.949 7.03377 0
109.065 11.3191 0
106.529 11.387 0
107.683 7.06788 0
109.007 9.17659 0
107.797 11.3533 0
106.472 9.24449 0
107.74 9.21071 0
108.949 7.03377 0
111.483 6.96452 0
111.601 11.2498 0
109.065 11.3191 0
110.216 6.99932 0
111.542 9.10731 0
110.333 11.2846 0
109.007 9.17659 0
110.275 9.14212 0
111.483 6.96452 0
114.017 6.89389 0
114.137 11.1791 0
111.601 11.2498 0
112.75 6.92938 0
114.077 9.03663 0
112.869 11.2146 0
111.542 9.10731 0
112.809 9.07214 0
114.017 6.89389 0
116.55 6.82187 0
116.673 11.107 0
114.137 11.1791 0
115.283 6.85805 0
116.611 8.96458 0
115.405 11.1432 0
114.077 9.03663 0
115.344 9.00078 0
116.55 6.82187 0
119.084 6.74849 0
119.208 11.0335 0
116.673 11.107 0
117.817 6.78535 0
119.146 8.89116 0
117.94 11.0704 0
116.611 8.96458 0
117.879 8.92804 0
119.084 6.74849 0
121.617 6.67375 0
121.744 10.9587 0
119.208 11.0335 0
120.35 6.71129 0
121.681 8.81638 0
120.476 10.9963 0
119.146 8.89116 0
120.413 8.85394 0
121.617 6.67375 0
124.151 6.59766 0
124.28 10.8826 0
121.744 10.9587 0
122.884 6.63588 0
124.215 8.74026 0
123.012 10.9208 0
121.681 8.81638 0
122.948 8.77849 0
124.151 6.59766 0
126.684 6.52023 0
126.816 10.8051 0
124.28 10.8826 0
125.418 6.55912 0
126.75 8.66279 0
125.548 10.844 0
124.215 8.74026 0
125.483 8.70169 0
126.684 6.52023 0
129.218 6.44147 0
129.351 10.7262 0
126.816 10.8051 0
127.951 6.48102 0
129.285 8.58399 0
128.084 10.7658 0
126.75 8.66279 0
128.017 8.62355 0
129.218 6.44147 0
131.751 6.36139 0
131.887 10.6461 0
129.351 10.7262 0
130.484 6.4016 0
131.819 8.50387 0
130.619 10.6863 0
129.285 8.58399 0
130.552 8.54409 0
131.751 6.36139 0
134.285 6.27999 0
134.423 10.5646 0
131.887 10.6461 0
133.018 6.32086 0
134.354 8.42243 0
133.155 10.6055 0
131.819 8.50387 0
133.086 8.46331 0
134.285 6.27999 0
136.818 6.19729 0
136.958 10.4818 0
134.423 10.5646 0
135.551 6.23881 0
136.888 8.33969 0
135.691 10.5234 0
134.354 8.42243 0
135.621 8.38122 0
136.818 6.19729 0
139.351 6.1133 0
139.494 10.3977 0
136.958 10.4818 0
138.085 6.15546 0
139.423 8.25565 0
138.226 10.4399 0
136.888 8.33969 0
138.155 8.29783 0
139.351 6.1133 0
141.885 6.02802 0
142.03 10.3124 0
139.494 10.3977 0
140.618 6.07082 0
141.957 8.17033 0
140.762 10.3552 0
139.423 8.25565 0
140.69 8.21315 0
141.885 6.02802 0
144.418 5.94146 0
144.565 10.2257 0
142.03 10.3124 0
143.152 5.9849 0
144.492 8.08373 0
143.297 10.2692 0
141.957 8.17033 0
143.224 8.12719 0
144.418 5.94146 0
146.952 5.85363 0
147.1 10.1378 0
144.565 10.2257 0
145.685 5.89771 0
147.026 7.99586 0
145.833 10.1819 0
144.492 8.08373 0
145.759 8.03996 0
146.952 5.85363 0
149.485 5.76455 0
149.636 10.0487 0
147.1 10.1378 0
148.218 5.80925 0
149.56 7.90674 0
148.368 10.0934 0
147.026 7.99586 0
148.293 7.95146 0
149.485 5.76455 0
152.018 5.67421 0
152.171 9.95824 0
149.636 10.0487 0
150.751 5.71954 0
152.095 7.81636 0
150.904 10.0036 0
149.56 7.90674 0
150.828 7.8617 0
152.018 5.67421 0
154.551 5.58264 0
154.707 9.86658 0
152.171 9.95824 0
153.285 5.62858 0
154.629 7.72474 0
153.439 9.91257 0
152.095 7.81636 0
153.362 7.77071 0
154.551 5.58264 0
157.085 5.48983 0
157.242 9.77369 0
154.707 9.86658 0
155.818 5.53639 0
157.163 7.63189 0
155.974 9.82029 0
154.629 7.72474 0
155.896 7.67847 0
157.085 5.48983 0
159.618 5.3958 0
159.777 9.67958 0
157.242 9.77369 0
158.351 5.44297 0
159.698 7.53782 0
158.51 9.72679 0
157.163 7.63189 0
158.431 7.58501 0
159.618 5.3958 0
162.151 5.30056 0
162.313 9.58425 0
159.777 9.67958 0
160.885 5.34833 0
162.232 7.44253 0
161.045 9.63207 0
159.698 7.53782 0
160.965 7.49033 0
162.151 5.30056 0
164.684 5.20411 0
164.848 9.48772 0
162.313 9.58425 0
163.418 5.25249 0
164.766 7.34604 0
163.58 9.53614 0
162.232 7.44253 0
163.499 7.39444 0
164.684 5.20411 0
167.217 5.10647 0
167.383 9.38999 0
164.848 9.48772 0
165.951 5.15544 0
167.3 7.24836 0
166.115 9.439 0
164.766 7.34604 0
166.033 7.29735 0
167.217 5.10647 0
169.751 5.00764 0
169.918 9.29108 0
167.383 9.38999 0
168.484 5.0572 0
169.834 7.14948 0
168.651 9.34068 0
167.3 7.24836 0
168.567 7.19907 0
169.751 5.00764 0
172.284 4.90763 0
172.453 9.19098 0
169.918 9.29108 0
171.017 4.95778 0
172.368 7.04943 0
171.186 9.24118 0
169.834 7.14948 0
171.101 7.09961 0
172.284 4.90763 0
174.817 4.80646 0
174.988 9.08972 0
172.453 9.19098 0
173.55 4.85719 0
174.903 6.94821 0
173.721 9.1405 0
172.368 7.04943 0
173.636 6.99897 0
174.817 4.80646 0
177.35 4.70412 0
177.523 8.9873 0
174.988 9.08972 0
176.083 4.75544 0
177.437 6.84584 0
176.256 9.03866 0
174.903 6.94821 0
176.17 6.89717 0
177.35 4.70412 0
179.883 4.60064 0
180.058 8.88373 0
177.523 8.9873 0
178.616 4.65253 0
179.971 6.74231 0
178.791 8.93566 0
177.437 6.84584 0
178.704 6.79422 0
179.883 4.60064 0
182.416 4.49601 0
182.593 8.77902 0
180.058 8.88373 0
181.149 4.54847 0
182.505 6.63764 0
181.326 8.83152 0
179.971 6.74231 0
181.238 6.69012 0
182.416 4.49601 0
184.949 4.39026 0
185.128 8.67318 0
182.593 8.77902 0
183.682 4.44328 0
185.039 6.53184 0
183.861 8.72624 0
182.505 6.63764 0
183.772 6.58488 0
184.949 4.39026 0
187.482 4.28338 0
187.663 8.56621 0
185.128 8.67318 0
186.215 4.33696 0
187.573 6.42491 0
186.396 8.61983 0
185.039 6.53184 0
186.306 6.47851 0
187.482 4.28338 0
190.015 4.17538 0
190.198 8.45813 0
187.663 8.56621 0
188.748 4.22952 0
190.106 6.31687 0
188.93 8.51231 0
187.573 6.42491 0
188.839 6.37103 0
190.015 4.17538 0
192.548 4.06628 0
192.733 8.34894 0
190.198 8.45813 0
191.281 4.12097 0
192.64 6.20773 0
191.465 8.40367 0
190.106 6.31687 0
191.373 6.26244 0
192.548 4.06628 0
195.081 3.95609 0
195.267 8.23866 0
192.733 8.34894 0
193.814 4.01132 0
195.174 6.09749 0
194 8.29394 0
192.64 6.20773 0
193.907 6.15275 0
195.081 3.95609 0
197.614 3.84481 0
197.802 8.12729 0
195.267 8.23866 0
196.347 3.90058 0
197.708 5.98616 0
196.535 8.18311 0
195.174 6.09749 0
196.441 6.04196 0
197.614 3.84481 0
200.147 3.73245 0
200.337 8.01484 0
197.802 8.12729 0
198.88 3.78876 0
200.242 5.87376 0
199.069 8.0712 0
197.708 5.98616 0
198.975 5.9301 0
200.147 3.73245 0
202.679 3.61902 0
202.871 7.90133 0
200.337 8.01484 0
201.413 3.67587 0
202.775 5.76029 0
201.604 7.95822 0
200.242 5.87376 0
201.509 5.81716 0
202.679 3.61902 0
205.212 3.50453 0
205.406 7.78675 0
202.871 7.90133 0
203.946 3.56191 0
205.309 5.64575 0
204.139 7.84417 0
202.775 5.76029 0
204.042 5.70315 0
205.212 3.50453 0
207.745 3.389 0
207.941 7.67113 0
205.406 7.78675 0
206.479 3.4469 0
207.843 5.53017 0
206.673 7.72907 0
205.309 5.64575 0
206.576 5.58809 0
207.745 3.389 0
210.278 3.27242 0
210.475 7.55446 0
207.941 7.67113 0
209.011 3.33084 0
210.376 5.41355 0
209.208 7.61292 0
207.843 5.53017 0
209.11 5.47199 0
210.278 3.27242 0
212.81 3.15481 0
213.01 7.43676 0
210.475 7.55446 0
211.544 3.21374 0
212.91 5.29589 0
211.742 7.49574 0
210.376 5.41355 0
211.643 5.35485 0
212.81 3.15481 0
215.343 3.03617 0
215.544 7.31804 0
213.01 7.43676 0
214.077 3.09561 0
215.444 5.17721 0
214.277 7.37753 0
212.91 5.29589 0
214.177 5.23668 0
215.343 3.03617 0
217.876 2.91652 0
218.078 7.1983 0
215.544 7.31804 0
216.609 2.97647 0
217.977 5.05752 0
216.811 7.25829 0
215.444 5.17721 0
216.71 5.11749 0
217.876 2.91652 0
220.408 2.79587 0
220.613 7.07756 0
218.078 7.1983 0
219.142 2.85632 0
220.511 4.93682 0
219.346 7.13805 0
217.977 5.05752 0
219.244 4.99729 0
220.408 2.79587 0
222.941 2.67422 0
223.147 6.95582 0
220.613 7.07756 0
221.675 2.73517 0
223.044 4.81512 0
221.88 7.01681 0
220.511 4.93682 0
221.777 4.87609 0
222.941 2.67422 0
225.474 2.55158 0
225.681 6.83309 0
223.147 6.95582 0
224.207 2.61302 0
225.578 4.69244 0
224.414 6.89458 0
223.044 4.81512 0
224.311 4.7539 0
225.474 2.55158 0
228.006 2.42796 0
228.215 6.70939 0
225.681 6.83309 0
226.74 2.48989 0
228.111 4.56878 0
226.948 6.77136 0
225.578 4.69244 0
226.844 4.63073 0
228.006 2.42796 0
230.539 2.30338 0
230.75 6.58472 0
228.215 6.70939 0
229.273 2.36579 0
230.644 4.44415 0
229.483 6.64717 0
228.111 4.56878 0
229.378 4.50659 0
230.539 2.30338 0
233.071 2.17783 0
233.284 6.45909 0
230.75 6.58472 0
231.805 2.24073 0
233.178 4.31856 0
232.017 6.52202 0
230.644 4.44415 0
231.911 4.38147 0
233.071 2.17783 0
235.604 2.05134 0
235.818 6.3325 0
233.284 6.45909 0
234.338 2.1147 0
235.711 4.19202 0
234.551 6.39591 0
233.178 4.31856 0
234.444 4.25541 0
235.604 2.05134 0
238.136 1.9239 0
238.352 6.20498 0
235.818 6.3325 0
236.87 1.98774 0
238.244 4.06454 0
237.085 6.26886 0
235.711 4.19202 0
236.978 4.1284 0
238.136 1.9239 0
240.669 1.79553 0
240.886 6.07652 0
238.352 6.20498 0
239.403 1.85983 0
240.777 3.93612 0
239.619 6.14087 0
238.244 4.06454 0
239.511 4.00045 0
240.669 1.79553 0
243.201 1.66624 0
243.42 5.94714 0
240.886 6.07652 0
241.935 1.731 0
243.311 3.80679 0
242.153 6.01195 0
240.777 3.93612 0
242.044 3.87157 0
243.201 1.66624 0
245.734 1.53603 0
245.954 5.81685 0
243.42 5.94714 0
244.468 1.60125 0
245.844 3.67653 0
244.687 5.88211 0
243.311 3.80679 0
244.577 3.74177 0
245.734 1.53603 0
248.266 1.40491 0
248.488 5.68565 0
245.954 5.81685 0
247 1.47058 0
248.377 3.54537 0
247.221 5.75136 0
245.844 3.67653 0
247.11 3.61107 0
248.266 1.40491 0
250.799 1.2729 0
251.022 5.55355 0
248.488 5.68565 0
249.532 1.33902 0
250.91 3.41332 0
249.755 5.61971 0
248.377 3.54537 0
249.644 3.47946 0
250.799 1.2729 0
253.331 1.14 0
253.556 5.42057 0
251.022 5.55355 0
252.065 1.20656 0
253.443 3.28038 0
252.289 5.48717 0
250.91 3.41332 0
252.177 3.34696 0
253.331 1.14 0
255.863 1.00623 0
256.089 5.2867 0
253.556 5.42057 0
254.597 1.07323 0
255.976 3.14656 0
254.823 5.35374 0
253.443 3.28038 0
254.71 3.21358 0
255.863 1.00623 0
258.396 0.871581 0
258.623 5.15197 0
256.089 5.2867 0
257.129 0.939012 0
258.509 3.01187 0
257.356 5.21945 0
255.976 3.14656 0
257.243 3.07932 0
258.396 0.871581 0
260.928 0.736074 0
261.157 5.01638 0
258.623 5.15197 0
259.662 0.803935 0
261.042 2.87632 0
259.89 5.08428 0
258.509 3.01187 0
259.776 2.9442 0
260.928 0.736074 0
263.46 0.599716 0
263.691 4.87994 0
261.157 5.01638 0
262.194 0.668001 0
263.575 2.73992 0
262.424 4.94826 0
261.042 2.87632 0
262.309 2.80822 0
263.46 0.599716 0
265.992 0.462516 0
266.224 4.74265 0
263.691 4.87994 0
264.726 0.531221 0
266.108 2.60267 0
264.957 4.8114 0
263.575 2.73992 0
264.842 2.6714 0
265.992 0.462516 0
268.524 0.324483 0
268.758 4.60454 0
266.224 4.74265 0
267.258 0.393603 0
268.641 2.4646 0
267.491 4.6737 0
266.108 2.60267 0
267.375 2.53374 0
268.524 0.324483 0
271.057 0.185625 0
271.291 4.4656 0
268.758 4.60454 0
269.791 0.255156 0
271.174 2.3257 0
270.025 4.53517 0
268.641 2.4646 0
269.908 2.39525 0
271.057 0.185625 0
273.589 0.0459522 0
273.825 4.32584 0
271.291 4.4656 0
272.323 0.11589 0
273.707 2.18598 0
272.558 4.39582 0
271.174 2.3257 0
272.441 2.25594 0
273.589 0.0459522 0
276.121 -0.0945267 0
276.358 4.18528 0
273.825 4.32584 0
274.855 -0.0241871 0
276.24 2.04546 0
275.092 4.25566 0
273.707 2.18598 0
274.973 2.11582 0
276.121 -0.0945267 0
278.653 -0.235803 0
278.892 4.04392 0
276.358 4.18528 0
277.387 -0.165066 0
278.773 1.90414 0
277.625 4.1147 0
276.24 2.04546 0
277.506 1.9749 0
278.653 -0.235803 0
281.185 -0.377867 0
281.425 3.90177 0
278.892 4.04392 0
279.919 -0.306737 0
281.305 1.76204 0
280.159 3.97295 0
278.773 1.90414 0
280.039 1.83319 0
281.185 -0.377867 0
283.717 -0.52071 0
283.959 3.75885 0
281.425 3.90177 0
282.451 -0.449191 0
283.838 1.61915 0
282.692 3.83041 0
281.305 1.76204 0
282.572 1.69069 0
283.717 -0.52071 0
286.249 -0.664322 0
286.492 3.61516 0
283.959 3.75885 0
284.983 -0.59242 0
286.371 1.4755 0
285.225 3.6871 0
283.838 1.61915 0
285.104 1.54742 0
286.249 -0.664322 0
288.781 -0.808696 0
289.025 3.4707 0
286.492 3.61516 0
287.515 -0.736415 0
288.903 1.33108 0
287.759 3.54302 0
286.371 1.4755 0
287.637 1.40339 0
288.781 -0.808696 0
291.313 -0.953821 0
291.559 3.3255 0
289.025 3.4707 0
290.047 -0.881165 0
291.436 1.18592 0
290.292 3.39819 0
288.903 1.33108 0
290.17 1.25859 0
291.313 -0.953821 0
293.845 -1.09969 0
294.092 3.17955 0
291.559 3.3255 0
292.579 -1.02666 0
293.969 1.04001 0
292.825 3.25262 0
291.436 1.18592 0
292.702 1.11305 0
293.845 -1.09969 0
296.377 -1.24629 0
296.625 3.03287 0
294.092 3.17955 0
295.111 -1.1729 0
296.501 0.893366 0
295.359 3.1063 0
293.969 1.04001 0
295.235 0.966778 0
296.377 -1.24629 0
298.909 -1.39362 0
299.158 2.88547 0
296.625 3.03287 0
297.643 -1.31986 0
299.034 0.745999 0
297.892 2.95926 0
296.501 0.893366 0
297.768 0.819773 0
298.909 -1.39362 0
301.441 -1.54166 0
301.692 2.73735 0
299.158 2.88547 0
300.175 -1.46755 0
301.566 0.597917 0
300.425 2.81149 0
299.034 0.745999 0
300.3 0.672047 0
301.441 -1.54166 0
303.973 -1.69041 0
304.225 2.58852 0
301.692 2.73735 0
302.707 -1.61595 0
304.099 0.449129 0
302.958 2.66302 0
301.566 0.597917 0
302.833 0.523611 0
303.973 -1.69041 0
306.505 -1.83986 0
306.758 2.439 0
304.225 2.58852 0
305.239 -1.76505 0
306.631 0.299643 0
305.491 2.51384 0
304.099 0.449129 0
305.365 0.374473 0
306.505 -1.83986 0
309.037 -1.98999 0
309.291 2.28879 0
306.758 2.439 0
307.771 -1.91484 0
309.164 0.14947 0
308.024 2.36398 0
306.631 0.299643 0
307.898 0.224642 0
309.037 -1.98999 0
311.569 -2.1408 0
311.824 2.1379 0
309.291 2.28879 0
310.303 -2.06531 0
311.696 -0.00138322 0
310.557 2.21343 0
309.164 0.14947 0
310.43 0.0741276 0
311.569 -2.1408 0
314.101 -2.29229 0
314.357 1.98634 0
311.824 2.1379 0
312.835 -2.21646 0
314.229 -0.152906 0
313.09 2.0622 0
311.696 -0.00138322 0
312.963 -0.0770615 0
314.101 -2.29229 0
316.633 -2.44444 0
316.89 1.83412 0
314.357 1.98634 0
315.367 -2.36828 0
316.761 -0.30509 0
315.623 1.91031 0
314.229 -0.152906 0
315.495 -0.228916 0
316.633 -2.44444 0
319.165 -2.59723 0
319.423 1.68125 0
316.89 1.83412 0
317.899 -2.52075 0
319.294 -0.457926 0
318.156 1.75776 0
316.761 -0.30509 0
318.027 -0.381427 0
319.165 -2.59723 0
321.696 -2.75068 0
321.956 1.52773 0
319.423 1.68125 0
320.43 -2.67387 0
321.826 -0.611405 0
320.689 1.60457 0
319.294 -0.457926 0
320.56 -0.534586 0
321.696 -2.75068 0
324.228 -2.90475 0
324.488 1.37358 0
321.956 1.52773 0
322.962 -2.82763 0
324.358 -0.765518 0
323.222 1.45074 0
321.826 -0.611405 0
323.092 -0.688383 0
324.228 -2.90475 0
326.76 -3.05945 0
327.021 1.21881 0
324.488 1.37358 0
325.494 -2.98202 0
326.891 -0.920256 0
325.755 1.29627 0
324.358 -0.765518 0
325.624 -0.84281 0
326.76 -3.05945 0
329.292 -3.21477 0
329.554 1.06342 0
327.021 1.21881 0
328.026 -3.13703 0
329.423 -1.07561 0
328.288 1.14119 0
326.891 -0.920256 0
328.157 -0.997856 0
329.292 -3.21477 0
331.823 -3.37069 0
332.087 0.907428 0
329.554 1.06342 0
330.558 -3.29266 0
331.955 -1.23157 0
330.82 0.9855 0
329.423 -1.07561 0
330.689 -1.15351 0
331.823 -3.37069 0
334.355 -3.52722 0
334.62 0.750836 0
332.087 0.907428 0
333.089 -3.44888 0
334.487 -1.38813 0
333.353 0.829206 0
331.955 -1.23157 0
333.221 -1.30977 0
334.355 -3.52722 0
336.887 -3.68433 0
337.152 0.593656 0
334.62 0.750836 0
335.621 -3.6057 0
337.02 -1.54527 0
335.886 0.672319 0
334.487 -1.38813 0
335.753 -1.46663 0
336.887 -3.68433 0
339.419 -3.84202 0
339.685 0.435897 0
337.152 0.593656 0
338.153 -3.7631 0
339.552 -1.703 0
338.419 0.514848 0
337.02 -1.54527 0
338.286 -1.62407 0
339.419 -3.84202 0
341.95 -4.00028 0
342.218 0.277567 0
339.685 0.435897 0
340.684 -3.92108 0
342.084 -1.8613 0
340.951 0.356802 0
339.552 -1.703 0
340.818 -1.78208 0
341.95 -4.00028 0
344.482 -4.15911 0
344.75 0.118676 0
342.218 0.277567 0
343.216 -4.07962 0
344.616 -2.02016 0
343.484 0.198191 0
342.084 -1.8613 0
343.35 -1.94066 0
344.482 -4.15911 0
347.014 -4.31848 0
347.283 -0.0407666 0
344.75 0.118676 0
345.748 -4.23873 0
347.148 -2.17957 0
346.016 0.0390233 0
344.616 -2.02016 0
345.882 -2.09979 0
347.014 -4.31848 0
349.545 -4.4784 0
349.815 -0.200752 0
347.283 -0.0407666 0
348.279 -4.39838 0
349.68 -2.33952 0
348.549 -0.120692 0
347.148 -2.17957 0
348.414 -2.25948 0
349.545 -4.4784 0
352.077 -4.63886 0
352.348 -0.361272 0
349.815 -0.200752 0
350.811 -4.55857 0
352.212 -2.50001 0
351.082 -0.280946 0
349.68 -2.33952 0
350.946 -2.4197 0
352.077 -4.63886 0
354.609 -4.79984 0
354.88 -0.522317 0
352.348 -0.361272 0
353.343 -4.71928 0
354.745 -2.66102 0
353.614 -0.44173 0
352.212 -2.50001 0
353.478 -2.58045 0
354.609 -4.79984 0
357.14 -4.96134 0
357.413 -0.683878 0
354.88 -0.522317 0
355.874 -4.88053 0
357.277 -2.82256 0
356.147 -0.603034 0
354.745 -2.66102 0
356.011 -2.74173 0
357.14 -4.96134 0
359.672 -5.12334 0
359.945 -0.845946 0
357.413 -0.683878 0
358.406 -5.04228 0
359.809 -2.98459 0
358.679 -0.764849 0
357.277 -2.82256 0
358.543 -2.90351 0
359.672 -5.12334 0
362.203 -5.28585 0
362.478 -1.00851 0
359.945 -0.845946 0
360.938 -5.20454 0
362.341 -3.14713 0
361.212 -0.927167 0
359.809 -2.98459 0
361.075 -3.0658 0
362.203 -5.28585 0
364.735 -5.44884 0
365.01 -1.17157 0
362.478 -1.00851 0
363.469 -5.36729 0
364.873 -3.31015 0
363.744 -1.08998 0
362.341 -3.14713 0
363.607 -3.22858 0
364.735 -5.44884 0
367.267 -5.61232 0
367.543 -1.3351 0
365.01 -1.17157 0
366.001 -5.53052 0
367.405 -3.47366 0
366.276 -1.25327 0
364.873 -3.31015 0
366.139 -3.39185 0
367.267 -5.61232 0
369.798 -5.77626 0
370.075 -1.4991 0
367.543 -1.3351 0
368.532 -5.69423 0
369.937 -3.63764 0
368.809 -1.41704 0
367.405 -3.47366 0
368.671 -3.55559 0
369.798 -5.77626 0
372.33 -5.94067 0
372.607 -1.66357 0
370.075 -1.4991 0
371.064 -5.85841 0
372.469 -3.80207 0
371.341 -1.58128 0
369.937 -3.63764 0
371.203 -3.7198 0
372.33 -5.94067 0
374.861 -6.10553 0
375.14 -1.82849 0
372.607 -1.66357 0
373.596 -6.02305 0
375.001 -3.96697 0
373.874 -1.74597 0
372.469 -3.80207 0
373.735 -3.88446 0
374.861 -6.10553 0
377.393 -6.27084 0
377.672 -1.99385 0
375.14 -1.82849 0
376.127 -6.18813 0
377.533 -4.1323 0
376.406 -1.91112 0
375.001 -3.96697 0
376.267 -4.04958 0
377.393 -6.27084 0
379.925 -6.43658 0
380.204 -2.15965 0
377.672 -1.99385 0
378.659 -6.35366 0
380.064 -4.29807 0
378.938 -2.0767 0
377.533 -4.1323 0
378.799 -4.21513 0
379.925 -6.43658 0
382.456 -6.60275 0
382.737 -2.32587 0
380.204 -2.15965 0
381.19 -6.51961 0
382.596 -4.46427 0
381.47 -2.24271 0
380.064 -4.29807 0
381.33 -4.38112 0
382.456 -6.60275 0
384.988 -6.76934 0
385.269 -2.49251 0
382.737 -2.32587 0
383.722 -6.68599 0
385.128 -4.63088 0
384.003 -2.40914 0
382.596 -4.46427 0
383.862 -4.54752 0
384.988 -6.76934 0
387.519 -6.93633 0
387.801 -2.65956 0
385.269 -2.49251 0
386.253 -6.85278 0
387.66 -4.7979 0
386.535 -2.57598 0
385.128 -4.63088 0
386.394 -4.71434 0
387.519 -6.93633 0
390.051 -7.10372 0
390.333 -2.827 0
387.801 -2.65956 0
388.785 -7.01998 0
390.192 -4.96532 0
389.067 -2.74323 0
387.66 -4.7979 0
388.926 -4.88156 0
390.051 -7.10372 0
392.582 -7.27151 0
392.865 -2.99483 0
390.333 -2.827 0
391.317 -7.18757 0
392.724 -5.13313 0
391.599 -2.91087 0
390.192 -4.96532 0
391.458 -5.04918 0
392.582 -7.27151 0
395.114 -7.43967 0
395.398 -3.16305 0
392.865 -2.99483 0
393.848 -7.35554 0
395.256 -5.30132 0
394.132 -3.07889 0
392.724 -5.13313 0
393.99 -5.21718 0
395.114 -7.43967 0
397.645 -7.60821 0
397.93 -3.33163 0
395.398 -3.16305 0
396.38 -7.52389 0
397.788 -5.46988 0
396.664 -3.24729 0
395.256 -5.30132 0
396.522 -5.38555 0
397.645 -7.60821 0
400.177 -7.77711 0
400.462 -3.50058 0
397.93 -3.33163 0
398.911 -7.69261 0
400.32 -5.63881 0
399.196 -3.41606 0
397.788 -5.46988 0
399.054 -5.5543 0
400.177 -7.77711 0
402.709 -7.94636 0
402.994 -3.66988 0
400.462 -3.50058 0
401.443 -7.86169 0
402.851 -5.80808 0
401.728 -3.58519 0
400.32 -5.63881 0
401.585 -5.7234 0
402.709 -7.94636 0
405.24 -8.11596 0
405.526 -3.83952 0
402.994 -3.66988 0
403.974 -8.03112 0
405.383 -5.97771 0
404.26 -3.75466 0
402.851 -5.80808 0
404.117 -5.89285 0
405.24 -8.11596 0
407.772 -8.28589 0
408.058 -4.0095 0
405.526 -3.83952 0
406.506 -8.20088 0
407.915 -6.14766 0
406.792 -3.92447 0
405.383 -5.97771 0
406.649 -6.06264 0
407.772 -8.28589 0
410.303 -8.45615 0
410.59 -4.17981 0
408.058 -4.0095 0
409.037 -8.37098 0
410.447 -6.31795 0
409.324 -4.09462 0
407.915 -6.14766 0
409.181 -6.23276 0
410.303 -8.45615 0
412.835 -8.62673 0
413.122 -4.35043 0
410.59 -4.17981 0
411.569 -8.5414 0
412.979 -6.48855 0
411.856 -4.26508 0
410.447 -6.31795 0
411.713 -6.40321 0
412.835 -8.62673 0
415.366 -8.79762 0
415.655 -4.52136 0
413.122 -4.35043 0
414.1 -8.71214 0
415.51 -6.65946 0
414.389 -4.43586 0
412.979 -6.48855 0
414.245 -6.57397 0
415.366 -8.79762 0
417.898 -8.96881 0
418.187 -4.69259 0
415.655 -4.52136 0
416.632 -8.88318 0
418.042 -6.83067 0
416.921 -4.60694 0
415.51 -6.65946 0
416.776 -6.74503 0
417.898 -8.96881 0
420.429 -9.14029 0
420.719 -4.86411 0
418.187 -4.69259 0
419.164 -9.05451 0
420.574 -7.00217 0
419.453 -4.77831 0
418.042 -6.83067 0
419.308 -6.91638 0
420.429 -9.14029 0
422.961 -9.31205 0
423.251 -5.03591 0
420.719 -4.86411 0
421.695 -9.22613 0
423.106 -7.17395 0
421.985 -4.94997 0
420.574 -7.00217 0
421.84 -7.08802 0
422.961 -9.31205 0
425.492 -9.48408 0
425.783 -5.20798 0
423.251 -5.03591 0
424.227 -9.39803 0
425.638 -7.346 0
424.517 -5.12191 0
423.106 -7.17395 0
424.372 -7.25994 0
425.492 -9.48408 0
428.024 -9.65638 0
428.315 -5.38031 0
425.783 -5.20798 0
426.758 -9.57019 0
428.169 -7.51832 0
427.049 -5.29411 0
425.638 -7.346 0
426.903 -7.43213 0
428.024 -9.65638 0
430.556 -9.82893 0
430.847 -5.5529 0
428.315 -5.38031 0
429.29 -9.74262 0
430.701 -7.69089 0
429.581 -5.46657 0
428.169 -7.51832 0
429.435 -7.60457 0
430.556 -9.82893 0
433.087 -10.0017 0
433.379 -5.72573 0
430.847 -5.5529 0
431.821 -9.91529 0
433.233 -7.8637 0
432.113 -5.63929 0
430.701 -7.69089 0
431.967 -7.77727 0
433.087 -10.0017 0
435.619 -10.1748 0
435.911 -5.8988 0
433.379 -5.72573 0
434.353 -10.0882 0
435.765 -8.03675 0
434.645 -5.81224 0
433.233 -7.8637 0
434.499 -7.9502 0
435.619 -10.1748 0
438.15 -10.348 0
438.443 -6.07209 0
435.911 -5.8988 0
436.885 -10.2614 0
438.296 -8.21003 0
437.177 -5.98542 0
435.765 -8.03675 0
437.031 -8.12337 0
438.15 -10.348 0
440.682 -10.5215 0
440.975 -6.24561 0
438.443 -6.07209 0
439.416 -10.4347 0
440.828 -8.38353 0
439.709 -6.15882 0
438.296 -8.21003 0
439.562 -8.29675 0
440.682 -10.5215 0
443.214 -10.6952 0
443.506 -6.41933 0
440.975 -6.24561 0
441.948 -10.6083 0
443.36 -8.55724 0
442.241 -6.33244 0
440.828 -8.38353 0
442.094 -8.47036 0
443.214 -10.6952 0
445.745 -10.8691 0
446.038 -6.59324 0
443.506 -6.41933 0
444.479 -10.7821 0
445.892 -8.73114 0
444.772 -6.50626 0
443.36 -8.55724 0
444.626 -8.64416 0
445.745 -10.8691 0
448.277 -11.0432 0
448.57 -6.76735 0
446.038 -6.59324 0
447.011 -10.9561 0
448.424 -8.90524 0
447.304 -6.68028 0
445.892 -8.73114 0
447.158 -8.81817 0
448.277 -11.0432 0
450.808 -11.2174 0
451.102 -6.94165 0
448.57 -6.76735 0
449.543 -11.1303 0
450.955 -9.07951 0
449.836 -6.85448 0
448.424 -8.90524 0
449.69 -8.99235 0
450.808 -11.2174 0
453.34 -11.3919 0
453.634 -7.11611 0
451.102 -6.94165 0
452.074 -11.3046 0
453.487 -9.25397 0
452.368 -7.02886 0
450.955 -9.07951 0
452.221 -9.16672 0
453.34 -11.3919 0
455.872 -11.5665 0
456.166 -7.29074 0
453.634 -7.11611 0
454.606 -11.4791 0
456.019 -9.42858 0
454.9 -7.2034 0
453.487 -9.25397 0
454.753 -9.34125 0
455.872 -11.5665 0
458.403 -11.7412 0
458.698 -7.46552 0
456.166 -7.29074 0
457.138 -11.6538 0
458.551 -9.60335 0
457.432 -7.37811 0
456.019 -9.42858 0
457.285 -9.51595 0
458.403 -11.7412 0
460.935 -11.9161 0
461.23 -7.64044 0
458.698 -7.46552 0
459.669 -11.8286 0
461.083 -9.77826 0
459.964 -7.55296 0
458.551 -9.60335 0
459.817 -9.69079 0
460.935 -11.9161 0
463.467 -12.0912 0
463.762 -7.8155 0
461.23 -7.64044 0
462.201 -12.0036 0
463.614 -9.95332 0
462.496 -7.72796 0
461.083 -9.77826 0
462.349 -9.86577 0
463.467 -12.0912 0
465.999 -12.2663 0
466.294 -7.99069 0
463.762 -7.8155 0
464.733 -12.1787 0
466.146 -10.1285 0
465.028 -7.90308 0
463.614 -9.95332 0
464.88 -10.0409 0
465.999 -12.2663 0
468.53 -12.4416 0
468.826 -8.166 0
466.294 -7.99069 0
467.264 -12.3539 0
468.678 -10.3038 0
467.56 -8.07833 0
466.146 -10.1285 0
467.412 -10.2161 0
468.53 -12.4416 0
471.062 -12.617 0
471.358 -8.34142 0
468.826 -8.166 0
469.796 -12.5293 0
471.21 -10.4792 0
470.092 -8.2537 0
468.678 -10.3038 0
469.944 -10.3915 0
471.062 -12.617 0
473.594 -12.7925 0
473.89 -8.51693 0
471.358 -8.34142 0
472.328 -12.7047 0
473.742 -10.6547 0
472.624 -8.42916 0
471.21 -10.4792 0
472.476 -10.5669 0
473.594 -12.7925 0
476.126 -12.9681 0
476.422 -8.69254 0
473.89 -8.51693 0
474.86 -12.8803 0
476.274 -10.8303 0
475.156 -8.60473 0
473.742 -10.6547 0
475.008 -10.7425 0
476.126 -12.9681 0
478.657 -13.1438 0
478.953 -8.86824 0
476.422 -8.69254 0
477.391 -13.0559 0
478.805 -11.006 0
477.688 -8.78038 0
476.274 -10.8303 0
477.54 -10.9181 0
478.657 -13.1438 0
481.189 -13.3195 0
481.485 -9.044 0
478.953 -8.86824 0
479.923 -13.2316 0
481.337 -11.1818 0
480.219 -8.95611 0
478.805 -11.006 0
480.071 -11.0939 0
481.189 -13.3195 0
483.721 -13.4953 0
484.017 -9.21983 0
481.485 -9.044 0
482.455 -13.4074 0
483.869 -11.3576 0
482.751 -9.13191 0
481.337 -11.1818 0
482.603 -11.2697 0
483.721 -13.4953 0
486.253 -13.6712 0
486.549 -9.39572 0
484.017 -9.21983 0
484.987 -13.5833 0
486.401 -11.5335 0
485.283 -9.30777 0
483.869 -11.3576 0
485.135 -11.4455 0
486.253 -13.6712 0
488.785 -13.8471 0
489.081 -9.57166 0
486.549 -9.39572 0
487.519 -13.7592 0
488.933 -11.7094 0
487.815 -9.48369 0
486.401 -11.5335 0
487.667 -11.6214 0
488.785 -13.8471 0
491.317 -14.0231 0
491.613 -9.74763 0
489.081 -9.57166 0
490.051 -13.9351 0
491.465 -11.8854 0
490.347 -9.65964 0
488.933 -11.7094 0
490.199 -11.7974 0
491.317 -14.0231 0
493.849 -14.1991 0
494.145 -9.9236 0
491.613 -9.74763 0
492.583 -14.1111 0
493.997 -12.0613 0
492.879 -9.83561 0
491.465 -11.8854 0
492.731 -11.9733 0
493.849 -14.1991 0
496.381 -14.3751 0
496.677 -10.0995 0
494.145 -9.9236 0
495.115 -14.2871 0
496.529 -12.2373 0
495.411 -10.0116 0
493.997 -12.0613 0
495.263 -12.1493 0
496.381 -14.3751 0
498.913 -14.551 0
499.209 -10.2754 0
496.677 -10.0995 0
497.647 -14.4631 0
499.061 -12.4132 0
497.943 -10.1875 0
496.529 -12.2373 0
497.795 -12.3252 0
0 12.8571 0
2.53674 12.8574 0
2.53936 17.1431 0
0 17.1429 0
1.26837 12.8576 0
2.53805 15.0003 0
1.26968 17.1433 0
0 15 0
1.26902 15.0005 0
2.53674 12.8574 0
5.07337 12.8551 0
5.07884 17.1408 0
2.53936 17.1431 0
3.80507 12.8565 0
5.0761 14.9981 0
3.80909 17.1422 0
2.53805 15.0003 0
3.80708 14.9995 0
5.07337 12.8551 0
7.60994 12.8508 0
7.61836 17.1364 0
5.07884 17.1408 0
6.34166 12.8532 0
7.61415 14.9938 0
6.34859 17.1389 0
5.0761 14.9981 0
6.34513 14.9962 0
7.60994 12.8508 0
10.1465 12.8444 0
10.1579 17.1301 0
7.61836 17.1364 0
8.87822 12.8478 0
10.1522 14.9875 0
8.88813 17.1335 0
7.61415 14.9938 0
8.88318 14.9908 0
10.1465 12.8444 0
12.683 12.8363 0
12.6975 17.1219 0
10.1579 17.1301 0
11.4148 12.8406 0
12.6902 14.9793 0
11.4277 17.1263 0
10.1522 14.9875 0
11.4212 14.9836 0
12.683 12.8363 0
15.2196 12.8264 0
15.237 17.112 0
12.6975 17.1219 0
13.9513 12.8315 0
15.2283 14.9694 0
13.9672 17.1172 0
12.6902 14.9793 0
13.9593 14.9746 0
15.2196 12.8264 0
17.7561 12.8147 0
17.7765 17.1003 0
15.237 17.112 0
16.4878 12.8207 0
17.7663 14.9577 0
16.5067 17.1064 0
15.2283 14.9694 0
16.4973 14.9638 0
17.7561 12.8147 0
20.2927 12.8013 0
20.316 17.087 0
17.7765 17.1003 0
19.0244 12.8082 0
20.3043 14.9443 0
19.0462 17.0939 0
17.7663 14.9577 0
19.0353 14.9512 0
20.2927 12.8013 0
22.8292 12.7862 0
22.8554 17.0719 0
20.316 17.087 0
21.561 12.794 0
22.8423 14.9292 0
21.5857 17.0796 0
20.3043 14.9443 0
21.5733 14.937 0
22.8292 12.7862 0
25.3658 12.7695 0
25.3949 17.0551 0
22.8554 17.0719 0
24.0975 12.7781 0
25.3804 14.9124 0
24.1252 17.0637 0
22.8423 14.9292 0
24.1114 14.9211 0
25.3658 12.7695 0
27.9024 12.751 0
27.9343 17.0366 0
25.3949 17.0551 0
26.6341 12.7604 0
27.9183 14.894 0
26.6646 17.046 0
25.3804 14.9124 0
26.6493 14.9034 0
27.9024 12.751 0
30.4389 12.7308 0
30.4737 17.0164 0
27.9343 17.0366 0
29.1706 12.7411 0
30.4563 14.8738 0
29.204 17.0267 0
27.9183 14.894 0
29.1873 14.8841 0
30.4389 12.7308 0
32.9755 12.709 0
33.0131 16.9945 0
30.4737 17.0164 0
31.7072 12.7201 0
32.9943 14.8519 0
31.7434 17.0057 0
30.4563 14.8738 0
31.7253 14.8631 0
32.9755 12.709 0
35.512 12.6855 0
35.5524 16.971 0
33.0131 16.9945 0
34.2438 12.6975 0
35.5322 14.8284 0
34.2828 16.983 0
32.9943 14.8519 0
34.2633 14.8404 0
35.512 12.6855 0
38.0486 12.6603 0
38.0918 16.9458 0
35.5524 16.971 0
36.7803 12.6731 0
38.0702 14.8032 0
36.8221 16.9586 0
35.5322 14.8284 0
36.8012 14.816 0
38.0486 12.6603 0
40.5851 12.6335 0
40.6311 16.919 0
38.0918 16.9458 0
39.3168 12.6471 0
40.6081 14.7764 0
39.3614 16.9326 0
38.0702 14.8032 0
39.3391 14.79 0
40.5851 12.6335 0
43.1216 12.6051 0
43.1704 16.8905 0
40.6311 16.919 0
41.8533 12.6195 0
43.146 14.7479 0
41.9007 16.9049 0
40.6081 14.7764 0
41.877 14.7624 0
43.1216 12.6051 0
45.6581 12.575 0
45.7096 16.8604 0
43.1704 16.8905 0
44.3899 12.5902 0
45.6839 14.7178 0
44.44 16.8756 0
43.146 14.7479 0
44.4149 14.7331 0
45.6581 12.575 0
48.1946 12.5433 0
48.2488 16.8286 0
45.7096 16.8604 0
46.9264 12.5593 0
48.2217 14.6861 0
46.9792 16.8447 0
45.6839 14.7178 0
46.9528 14.7022 0
48.1946 12.5433 0
50.7311 12.51 0
50.788 16.7953 0
48.2488 16.8286 0
49.4628 12.5268 0
50.7596 14.6528 0
49.5185 16.8121 0
48.2217 14.6861 0
49.4907 14.6697 0
50.7311 12.51 0
53.2676 12.475 0
53.3272 16.7603 0
50.788 16.7953 0
51.9993 12.4927 0
53.2974 14.6178 0
52.0576 16.778 0
50.7596 14.6528 0
52.0285 14.6355 0
53.2676 12.475 0
55.804 12.4385 0
55.8664 16.7237 0
53.3272 16.7603 0
54.5358 12.457 0
55.8352 14.5813 0
54.5968 16.7422 0
53.2974 14.6178 0
54.5663 14.5998 0
55.804 12.4385 0
58.3404 12.4004 0
58.4055 16.6856 0
55.8664 16.7237 0
57.0722 12.4197 0
58.373 14.5432 0
57.1359 16.7049 0
55.8352 14.5813 0
57.1041 14.5624 0
58.3404 12.4004 0
60.8769 12.3607 0
60.9445 16.6459 0
58.4055 16.6856 0
59.6087 12.3808 0
60.9107 14.5035 0
59.675 16.6659 0
58.373 14.5432 0
59.6418 14.5235 0
60.8769 12.3607 0
63.4133 12.3195 0
63.4836 16.6046 0
60.9445 16.6459 0
62.1451 12.3403 0
63.4484 14.4622 0
62.2141 16.6254 0
60.9107 14.5035 0
62.1796 14.483 0
63.4133 12.3195 0
65.9497 12.2767 0
66.0226 16.5617 0
63.4836 16.6046 0
64.6815 12.2983 0
65.9861 14.4194 0
64.7531 16.5834 0
63.4484 14.4622 0
64.7173 14.441 0
65.9497 12.2767 0
68.486 12.2323 0
68.5616 16.5173 0
66.0226 16.5617 0
67.2178 12.2547 0
68.5238 14.375 0
67.2921 16.5397 0
65.9861 14.4194 0
67.255 14.3974 0
68.486 12.2323 0
71.0224 12.1864 0
71.1005 16.4714 0
68.5616 16.5173 0
69.7542 12.2095 0
71.0615 14.329 0
69.8311 16.4945 0
68.5238 14.375 0
69.7926 14.3522 0
71.0224 12.1864 0
73.5587 12.139 0
73.6394 16.4239 0
71.1005 16.4714 0
72.2905 12.1629 0
73.5991 14.2816 0
72.37 16.4478 0
71.0615 14.329 0
72.3303 14.3055 0
73.5587 12.139 0
76.095 12.09 0
76.1783 16.3749 0
73.6394 16.4239 0
74.8269 12.1147 0
76.1367 14.2326 0
74.9089 16.3996 0
73.5991 14.2816 0
74.8679 14.2573 0
76.095 12.09 0
78.6313 12.0395 0
78.7171 16.3244 0
76.1783 16.3749 0
77.3632 12.065 0
78.6742 14.1821 0
77.4477 16.3498 0
76.1367 14.2326 0
77.4054 14.2075 0
78.6313 12.0395 0
81.1676 11.9876 0
81.2559 16.2723 0
78.7171 16.3244 0
79.8994 12.0137 0
81.2118 14.1301 0
79.9865 16.2985 0
78.6742 14.1821 0
79.943 14.1563 0
81.1676 11.9876 0
83.7038 11.9341 0
83.7947 16.2188 0
81.2559 16.2723 0
82.4357 11.961 0
83.7492 14.0766 0
82.5253 16.2458 0
81.2118 14.1301 0
82.4805 14.1035 0
83.7038 11.9341 0
86.24 11.8791 0
86.3334 16.1638 0
83.7947 16.2188 0
84.9719 11.9068 0
86.2867 14.0216 0
85.0641 16.1915 0
83.7492 14.0766 0
85.018 14.0493 0
86.24 11.8791 0
88.7762 11.8227 0
88.8721 16.1073 0
86.3334 16.1638 0
87.5081 11.8511 0
88.8242 13.9652 0
87.6028 16.1357 0
86.2867 14.0216 0
87.5554 13.9936 0
88.7762 11.8227 0
91.3124 11.7648 0
91.4107 16.0494 0
88.8721 16.1073 0
90.0443 11.7939 0
91.3616 13.9072 0
90.1414 16.0785 0
88.8242 13.9652 0
90.0929 13.9364 0
91.3124 11.7648 0
93.8485 11.7054 0
93.9493 15.9899 0
91.4107 16.0494 0
92.5804 11.7353 0
93.8989 13.8478 0
92.68 16.0198 0
91.3616 13.9072 0
92.6302 13.8777 0
93.8485 11.7054 0
96.3846 11.6446 0
96.4879 15.9291 0
93.9493 15.9899 0
95.1166 11.6752 0
96.4363 13.787 0
95.2186 15.9597 0
93.8989 13.8478 0
95.1676 13.8176 0
96.3846 11.6446 0
98.9207 11.5824 0
99.0264 15.8668 0
96.4879 15.9291 0
97.6527 11.6137 0
98.9736 13.7247 0
97.7571 15.8981 0
96.4363 13.787 0
97.7049 13.756 0
98.9207 11.5824 0
101.457 11.5187 0
101.565 15.803 0
99.0264 15.8668 0
100.189 11.5507 0
101.511 13.661 0
100.296 15.8351 0
98.9736 13.7247 0
100.242 13.693 0
101.457 11.5187 0
103.993 11.4536 0
104.103 15.7378 0
101.565 15.803 0
102.725 11.4863 0
104.048 13.5959 0
102.834 15.7706 0
101.511 13.661 0
102.779 13.6286 0
103.993 11.4536 0
106.529 11.387 0
106.642 15.6713 0
104.103 15.7378 0
105.261 11.4205 0
106.585 13.5293 0
105.372 15.7047 0
104.048 13.5959 0
105.317 13.5628 0
106.529 11.387 0
109.065 11.3191 0
109.18 15.6033 0
106.642 15.6713 0
107.797 11.3533 0
109.122 13.4613 0
107.911 15.6374 0
106.585 13.5293 0
107.854 13.4955 0
109.065 11.3191 0
111.601 11.2498 0
111.718 15.5339 0
109.18 15.6033 0
110.333 11.2846 0
111.66 13.392 0
110.449 15.5687 0
109.122 13.4613 0
110.391 13.4268 0
111.601 11.2498 0
114.137 11.1791 0
114.257 15.4631 0
111.718 15.5339 0
112.869 11.2146 0
114.197 13.3212 0
112.987 15.4987 0
111.66 13.392 0
112.928 13.3568 0
114.137 11.1791 0
116.673 11.107 0
116.795 15.391 0
114.257 15.4631 0
115.405 11.1432 0
116.734 13.2491 0
115.526 15.4272 0
114.197 13.3212 0
115.465 13.2854 0
116.673 11.107 0
119.208 11.0335 0
119.333 15.3174 0
116.795 15.391 0
117.94 11.0704 0
119.271 13.1756 0
118.064 15.3544 0
116.734 13.2491 0
118.002 13.2125 0
119.208 11.0335 0
121.744 10.9587 0
121.871 15.2425 0
119.333 15.3174 0
120.476 10.9963 0
121.808 13.1008 0
120.602 15.2802 0
119.271 13.1756 0
120.539 13.1384 0
121.744 10.9587 0
124.28 10.8826 0
124.409 15.1663 0
121.871 15.2425 0
123.012 10.9208 0
124.345 13.0246 0
123.14 15.2046 0
121.808 13.1008 0
123.076 13.0629 0
124.28 10.8826 0
126.816 10.8051 0
126.947 15.0887 0
124.409 15.1663 0
125.548 10.844 0
126.881 12.947 0
125.678 15.1277 0
124.345 13.0246 0
125.613 12.986 0
126.816 10.8051 0
129.351 10.7262 0
129.485 15.0098 0
126.947 15.0887 0
128.084 10.7658 0
129.418 12.8682 0
128.216 15.0495 0
126.881 12.947 0
128.15 12.9078 0
129.351 10.7262 0
131.887 10.6461 0
132.023 14.9296 0
129.485 15.0098 0
130.619 10.6863 0
131.955 12.788 0
130.754 14.9699 0
129.418 12.8682 0
130.687 12.8282 0
131.887 10.6461 0
134.423 10.5646 0
134.561 14.8481 0
132.023 14.9296 0
133.155 10.6055 0
134.492 12.7065 0
133.292 14.889 0
131.955 12.788 0
133.223 12.7474 0
134.423 10.5646 0
136.958 10.4818 0
137.099 14.7652 0
134.561 14.8481 0
135.691 10.5234 0
137.029 12.6236 0
135.83 14.8068 0
134.492 12.7065 0
135.76 12.6652 0
136.958 10.4818 0
139.494 10.3977 0
139.636 14.6811 0
137.099 14.7652 0
138.226 10.4399 0
139.565 12.5395 0
138.368 14.7233 0
137.029 12.6236 0
138.297 12.5818 0
139.494 10.3977 0
142.03 10.3124 0
142.174 14.5956 0
139.636 14.6811 0
140.762 10.3552 0
142.102 12.4541 0
140.905 14.6385 0
139.565 12.5395 0
140.833 12.497 0
142.03 10.3124 0
144.565 10.2257 0
144.712 14.5089 0
142.174 14.5956 0
143.297 10.2692 0
144.638 12.3675 0
143.443 14.5524 0
142.102 12.4541 0
143.37 12.411 0
144.565 10.2257 0
147.1 10.1378 0
147.249 14.4209 0
144.712 14.5089 0
145.833 10.1819 0
147.175 12.2795 0
145.981 14.4651 0
144.638 12.3675 0
145.907 12.3236 0
147.1 10.1378 0
149.636 10.0487 0
149.787 14.3317 0
147.249 14.4209 0
148.368 10.0934 0
149.711 12.1903 0
148.518 14.3765 0
147.175 12.2795 0
148.443 12.2351 0
149.636 10.0487 0
152.171 9.95824 0
152.324 14.2412 0
149.787 14.3317 0
150.904 10.0036 0
152.248 12.0999 0
151.056 14.2866 0
149.711 12.1903 0
150.98 12.1452 0
152.171 9.95824 0
154.707 9.86658 0
154.862 14.1495 0
152.324 14.2412 0
153.439 9.91257 0
154.784 12.0082 0
153.593 14.1955 0
152.248 12.0999 0
153.516 12.0542 0
154.707 9.86658 0
157.242 9.77369 0
157.399 14.0565 0
154.862 14.1495 0
155.974 9.82029 0
157.321 11.9152 0
156.131 14.1031 0
154.784 12.0082 0
156.052 11.9618 0
157.242 9.77369 0
159.777 9.67958 0
159.937 13.9623 0
157.399 14.0565 0
158.51 9.72679 0
159.857 11.8211 0
158.668 14.0096 0
157.321 11.9152 0
158.589 11.8683 0
159.777 9.67958 0
162.313 9.58425 0
162.474 13.8669 0
159.937 13.9623 0
161.045 9.63207 0
162.393 11.7257 0
161.205 13.9148 0
159.857 11.8211 0
161.125 11.7735 0
162.313 9.58425 0
164.848 9.48772 0
165.011 13.7703 0
162.474 13.8669 0
163.58 9.53614 0
164.929 11.6291 0
163.743 13.8188 0
162.393 11.7257 0
163.661 11.6776 0
164.848 9.48772 0
167.383 9.38999 0
167.548 13.6725 0
165.011 13.7703 0
166.115 9.439 0
167.466 11.5314 0
166.28 13.7216 0
164.929 11.6291 0
166.198 11.5804 0
167.383 9.38999 0
169.918 9.29108 0
170.086 13.5735 0
167.548 13.6725 0
168.651 9.34068 0
170.002 11.4324 0
168.817 13.6232 0
167.466 11.5314 0
168.734 11.482 0
169.918 9.29108 0
172.453 9.19098 0
172.623 13.4733 0
170.086 13.5735 0
171.186 9.24118 0
172.538 11.3323 0
171.354 13.5236 0
170.002 11.4324 0
171.27 11.3825 0
172.453 9.19098 0
174.988 9.08972 0
175.16 13.372 0
172.623 13.4733 0
173.721 9.1405 0
175.074 11.231 0
173.891 13.4228 0
172.538 11.3323 0
173.806 11.2818 0
174.988 9.08972 0
177.523 8.9873 0
177.697 13.2695 0
175.16 13.372 0
176.256 9.03866 0
177.61 11.1285 0
176.428 13.3209 0
175.074 11.231 0
176.342 11.1799 0
177.523 8.9873 0
180.058 8.88373 0
180.234 13.1659 0
177.697 13.2695 0
178.791 8.93566 0
180.146 11.0249 0
178.965 13.2178 0
177.61 11.1285 0
178.878 11.0769 0
180.058 8.88373 0
182.593 8.77902 0
182.77 13.0611 0
180.234 13.1659 0
181.326 8.83152 0
182.682 10.9202 0
181.502 13.1136 0
180.146 11.0249 0
181.414 10.9727 0
182.593 8.77902 0
185.128 8.67318 0
185.307 12.9551 0
182.77 13.0611 0
183.861 8.72624 0
185.218 10.8143 0
184.039 13.0082 0
182.682 10.9202 0
183.95 10.8674 0
185.128 8.67318 0
187.663 8.56621 0
187.844 12.8481 0
185.307 12.9551 0
186.396 8.61983 0
187.753 10.7073 0
186.576 12.9018 0
185.218 10.8143 0
186.486 10.7609 0
187.663 8.56621 0
190.198 8.45813 0
190.381 12.7399 0
187.844 12.8481 0
188.93 8.51231 0
190.289 10.5991 0
189.112 12.7941 0
187.753 10.7073 0
189.021 10.6533 0
190.198 8.45813 0
192.733 8.34894 0
192.917 12.6307 0
190.381 12.7399 0
191.465 8.40367 0
192.825 10.4899 0
191.649 12.6854 0
190.289 10.5991 0
191.557 10.5447 0
192.733 8.34894 0
195.267 8.23866 0
195.454 12.5203 0
192.917 12.6307 0
194 8.29394 0
195.361 10.3796 0
194.186 12.5756 0
192.825 10.4899 0
194.093 10.4349 0
195.267 8.23866 0
197.802 8.12729 0
197.99 12.4089 0
195.454 12.5203 0
196.535 8.18311 0
197.896 10.2682 0
196.722 12.4647 0
195.361 10.3796 0
196.628 10.324 0
197.802 8.12729 0
200.337 8.01484 0
200.527 12.2963 0
197.99 12.4089 0
199.069 8.0712 0
200.432 10.1557 0
199.259 12.3527 0
197.896 10.2682 0
199.164 10.2121 0
200.337 8.01484 0
202.871 7.90133 0
203.063 12.1827 0
200.527 12.2963 0
201.604 7.95822 0
202.967 10.0421 0
201.795 12.2397 0
200.432 10.1557 0
201.7 10.0991 0
202.871 7.90133 0
205.406 7.78675 0
205.6 12.0681 0
203.063 12.1827 0
204.139 7.84417 0
205.503 9.92753 0
204.332 12.1255 0
202.967 10.0421 0
204.235 9.98497 0
205.406 7.78675 0
207.941 7.67113 0
208.136 11.9524 0
205.6 12.0681 0
206.673 7.72907 0
208.038 9.81186 0
206.868 12.0104 0
205.503 9.92753 0
206.771 9.86982 0
207.941 7.67113 0
210.475 7.55446 0
210.672 11.8356 0
208.136 11.9524 0
209.208 7.61292 0
210.574 9.69515 0
209.404 11.8941 0
208.038 9.81186 0
209.306 9.75363 0
210.475 7.55446 0
213.01 7.43676 0
213.208 11.7178 0
210.672 11.8356 0
211.742 7.49574 0
213.109 9.57741 0
211.94 11.7769 0
210.574 9.69515 0
211.841 9.63641 0
213.01 7.43676 0
215.544 7.31804 0
215.745 11.599 0
213.208 11.7178 0
214.277 7.37753 0
215.644 9.45865 0
214.477 11.6586 0
213.109 9.57741 0
214.377 9.51816 0
215.544 7.31804 0
218.078 7.1983 0
218.281 11.4792 0
215.745 11.599 0
216.811 7.25829 0
218.18 9.33887 0
217.013 11.5393 0
215.644 9.45865 0
216.912 9.39888 0
218.078 7.1983 0
220.613 7.07756 0
220.817 11.3584 0
218.281 11.4792 0
219.346 7.13805 0
220.715 9.21808 0
219.549 11.4189 0
218.18 9.33887 0
219.447 9.2786 0
220.613 7.07756 0
223.147 6.95582 0
223.353 11.2366 0
220.817 11.3584 0
221.88 7.01681 0
223.25 9.09631 0
222.085 11.2976 0
220.715 9.21808 0
221.982 9.15732 0
223.147 6.95582 0
225.681 6.83309 0
225.889 11.1138 0
223.353 11.2366 0
224.414 6.89458 0
225.785 8.97354 0
224.621 11.1753 0
223.25 9.09631 0
224.517 9.03504 0
225.681 6.83309 0
228.215 6.70939 0
228.425 10.99 0
225.889 11.1138 0
226.948 6.77136 0
228.32 8.84979 0
227.157 11.052 0
225.785 8.97354 0
227.053 8.91179 0
228.215 6.70939 0
230.75 6.58472 0
230.96 10.8652 0
228.425 10.99 0
229.483 6.64717 0
230.855 8.72508 0
229.692 10.9277 0
228.32 8.84979 0
229.588 8.78756 0
230.75 6.58472 0
233.284 6.45909 0
233.496 10.7395 0
230.96 10.8652 0
232.017 6.52202 0
233.39 8.59941 0
232.228 10.8025 0
230.855 8.72508 0
232.123 8.66236 0
233.284 6.45909 0
235.818 6.3325 0
236.032 10.6129 0
233.496 10.7395 0
234.551 6.39591 0
235.925 8.47279 0
234.764 10.6763 0
233.39 8.59941 0
234.657 8.53622 0
235.818 6.3325 0
238.352 6.20498 0
238.568 10.4853 0
236.032 10.6129 0
237.085 6.26886 0
238.46 8.34522 0
237.3 10.5492 0
235.925 8.47279 0
237.192 8.40912 0
238.352 6.20498 0
240.886 6.07652 0
241.103 10.3567 0
238.568 10.4853 0
239.619 6.14087 0
240.995 8.21672 0
239.835 10.4211 0
238.46 8.34522 0
239.727 8.28109 0
240.886 6.07652 0
243.42 5.94714 0
243.639 10.2273 0
241.103 10.3567 0
242.153 6.01195 0
243.529 8.0873 0
242.371 10.2921 0
240.995 8.21672 0
242.262 8.15213 0
243.42 5.94714 0
245.954 5.81685 0
246.174 10.0969 0
243.639 10.2273 0
244.687 5.88211 0
246.064 7.95697 0
244.906 10.1622 0
243.529 8.0873 0
244.797 8.02225 0
245.954 5.81685 0
248.488 5.68565 0
248.71 9.96561 0
246.174 10.0969 0
247.221 5.75136 0
248.599 7.82573 0
247.442 10.0314 0
246.064 7.95697 0
247.331 7.89146 0
248.488 5.68565 0
251.022 5.55355 0
251.245 9.83344 0
248.71 9.96561 0
249.755 5.61971 0
251.133 7.69359 0
249.977 9.89964 0
248.599 7.82573 0
249.866 7.75977 0
251.022 5.55355 0
253.556 5.42057 0
253.78 9.70038 0
251.245 9.83344 0
252.289 5.48717 0
253.668 7.56057 0
252.513 9.76702 0
251.133 7.69359 0
252.401 7.62719 0
253.556 5.42057 0
256.089 5.2867 0
256.316 9.56644 0
253.78 9.70038 0
254.823 5.35374 0
256.203 7.42666 0
255.048 9.63352 0
253.668 7.56057 0
254.935 7.49372 0
256.089 5.2867 0
258.623 5.15197 0
258.851 9.43163 0
256.316 9.56644 0
257.356 5.21945 0
258.737 7.29189 0
257.583 9.49914 0
256.203 7.42666 0
257.47 7.35939 0
258.623 5.15197 0
261.157 5.01638 0
261.386 9.29596 0
258.851 9.43163 0
259.89 5.08428 0
261.271 7.15626 0
260.118 9.3639 0
258.737 7.29189 0
260.004 7.22418 0
261.157 5.01638 0
263.691 4.87994 0
263.921 9.15944 0
261.386 9.29596 0
262.424 4.94826 0
263.806 7.01978 0
262.654 9.22781 0
261.271 7.15626 0
262.539 7.08813 0
263.691 4.87994 0
266.224 4.74265 0
266.456 9.02208 0
263.921 9.15944 0
264.957 4.8114 0
266.34 6.88246 0
265.189 9.09087 0
263.806 7.01978 0
265.073 6.95122 0
266.224 4.74265 0
268.758 4.60454 0
268.991 8.88389 0
266.456 9.02208 0
267.491 4.6737 0
268.875 6.7443 0
267.724 8.95309 0
266.34 6.88246 0
267.607 6.81348 0
268.758 4.60454 0
271.291 4.4656 0
271.526 8.74487 0
268.991 8.88389 0
270.025 4.53517 0
271.409 6.60532 0
270.259 8.81448 0
268.875 6.7443 0
270.142 6.67491 0
271.291 4.4656 0
273.825 4.32584 0
274.061 8.60504 0
271.526 8.74487 0
272.558 4.39582 0
273.943 6.46553 0
272.794 8.67506 0
271.409 6.60532 0
272.676 6.53552 0
273.825 4.32584 0
276.358 4.18528 0
276.596 8.4644 0
274.061 8.60504 0
275.092 4.25566 0
276.477 6.32493 0
275.328 8.53482 0
273.943 6.46553 0
275.21 6.39533 0
276.358 4.18528 0
278.892 4.04392 0
279.131 8.32297 0
276.596 8.4644 0
277.625 4.1147 0
279.011 6.18353 0
277.863 8.39379 0
276.477 6.32493 0
277.744 6.25433 0
278.892 4.04392 0
281.425 3.90177 0
281.665 8.18075 0
279.131 8.32297 0
280.159 3.97295 0
281.545 6.04135 0
280.398 8.25196 0
279.011 6.18353 0
280.278 6.11254 0
281.425 3.90177 0
283.959 3.75885 0
284.2 8.03776 0
281.665 8.18075 0
282.692 3.83041 0
284.079 5.89839 0
282.933 8.10935 0
281.545 6.04135 0
282.812 5.96996 0
283.959 3.75885 0
286.492 3.61516 0
286.735 7.89399 0
284.2 8.03776 0
285.225 3.6871 0
286.613 5.75465 0
285.467 7.96597 0
284.079 5.89839 0
285.346 5.82662 0
286.492 3.61516 0
289.025 3.4707 0
289.269 7.74946 0
286.735 7.89399 0
287.759 3.54302 0
289.147 5.61016 0
288.002 7.82182 0
286.613 5.75465 0
287.88 5.6825 0
289.025 3.4707 0
291.559 3.3255 0
291.804 7.60419 0
289.269 7.74946 0
290.292 3.39819 0
291.681 5.46492 0
290.537 7.67692 0
289.147 5.61016 0
290.414 5.53764 0
291.559 3.3255 0
294.092 3.17955 0
294.338 7.45817 0
291.804 7.60419 0
292.825 3.25262 0
294.215 5.31894 0
293.071 7.53127 0
291.681 5.46492 0
292.948 5.39202 0
294.092 3.17955 0
296.625 3.03287 0
296.873 7.31141 0
294.338 7.45817 0
295.359 3.1063 0
296.749 5.17222 0
295.606 7.38488 0
294.215 5.31894 0
295.482 5.24567 0
296.625 3.03287 0
299.158 2.88547 0
299.407 7.16394 0
296.873 7.31141 0
297.892 2.95926 0
299.283 5.02478 0
298.14 7.23777 0
296.749 5.17222 0
298.016 5.09859 0
299.158 2.88547 0
301.692 2.73735 0
301.942 7.01575 0
299.407 7.16394 0
300.425 2.81149 0
301.817 4.87662 0
300.674 7.08993 0
299.283 5.02478 0
300.55 4.95079 0
301.692 2.73735 0
304.225 2.58852 0
304.476 6.86685 0
301.942 7.01575 0
302.958 2.66302 0
304.35 4.72776 0
303.209 6.94139 0
301.817 4.87662 0
303.083 4.80228 0
304.225 2.58852 0
306.758 2.439 0
307.01 6.71726 0
304.476 6.86685 0
305.491 2.51384 0
306.884 4.5782 0
305.743 6.79215 0
304.35 4.72776 0
305.617 4.65307 0
306.758 2.439 0
309.291 2.28879 0
309.544 6.56698 0
307.01 6.71726 0
308.024 2.36398 0
309.418 4.42796 0
308.277 6.64221 0
306.884 4.5782 0
308.151 4.50317 0
309.291 2.28879 0
311.824 2.1379 0
312.079 6.41603 0
309.544 6.56698 0
310.557 2.21343 0
311.951 4.27703 0
310.811 6.49159 0
309.418 4.42796 0
310.684 4.35258 0
311.824 2.1379 0
314.357 1.98634 0
314.613 6.2644 0
312.079 6.41603 0
313.09 2.0622 0
314.485 4.12544 0
313.346 6.3403 0
311.951 4.27703 0
313.218 4.20132 0
314.357 1.98634 0
316.89 1.83412 0
317.147 6.11211 0
314.613 6.2644 0
315.623 1.91031 0
317.018 3.97319 0
315.88 6.18834 0
314.485 4.12544 0
315.751 4.04939 0
316.89 1.83412 0
319.423 1.68125 0
319.681 5.95918 0
317.147 6.11211 0
318.156 1.75776 0
319.552 3.82028 0
318.414 6.03573 0
317.018 3.97319 0
318.285 3.89681 0
319.423 1.68125 0
321.956 1.52773 0
322.215 5.8056 0
319.681 5.95918 0
320.689 1.60457 0
322.085 3.66673 0
320.948 5.88247 0
319.552 3.82028 0
320.818 3.74359 0
321.956 1.52773 0
324.488 1.37358 0
324.749 5.65139 0
322.215 5.8056 0
323.222 1.45074 0
324.618 3.51255 0
323.482 5.72857 0
322.085 3.66673 0
323.352 3.58972 0
324.488 1.37358 0
327.021 1.21881 0
327.282 5.49655 0
324.749 5.65139 0
325.755 1.29627 0
327.152 3.35775 0
326.016 5.57404 0
324.618 3.51255 0
325.885 3.43523 0
327.021 1.21881 0
329.554 1.06342 0
329.816 5.3411 0
327.282 5.49655 0
328.288 1.14119 0
329.685 3.20232 0
328.549 5.4189 0
327.152 3.35775 0
328.418 3.28011 0
329.554 1.06342 0
332.087 0.907428 0
332.35 5.18504 0
329.816 5.3411 0
330.82 0.9855 0
332.218 3.0463 0
331.083 5.26314 0
329.685 3.20232 0
330.952 3.12439 0
332.087 0.907428 0
334.62 0.750836 0
334.884 5.02839 0
332.35 5.18504 0
333.353 0.829206 0
334.752 2.88967 0
333.617 5.10679 0
332.218 3.0463 0
333.485 2.96806 0
334.62 0.750836 0
337.152 0.593656 0
337.417 4.87115 0
334.884 5.02839 0
335.886 0.672319 0
337.285 2.73246 0
336.151 4.94984 0
334.752 2.88967 0
336.018 2.81114 0
337.152 0.593656 0
339.685 0.435897 0
339.951 4.71333 0
337.417 4.87115 0
338.419 0.514848 0
339.818 2.57467 0
338.684 4.79231 0
337.285 2.73246 0
338.551 2.65364 0
339.685 0.435897 0
342.218 0.277567 0
342.485 4.55494 0
339.951 4.71333 0
340.951 0.356802 0
342.351 2.41631 0
341.218 4.6342 0
339.818 2.57467 0
341.085 2.49556 0
342.218 0.277567 0
344.75 0.118676 0
345.018 4.39599 0
342.485 4.55494 0
343.484 0.198191 0
344.884 2.25739 0
343.752 4.47553 0
342.351 2.41631 0
343.618 2.33692 0
344.75 0.118676 0
347.283 -0.0407666 0
347.552 4.23649 0
345.018 4.39599 0
346.016 0.0390233 0
347.417 2.09792 0
346.285 4.31631 0
344.884 2.25739 0
346.151 2.17772 0
347.283 -0.0407666 0
349.815 -0.200752 0
350.085 4.07645 0
347.552 4.23649 0
348.549 -0.120692 0
349.95 1.9379 0
348.819 4.15653 0
347.417 2.09792 0
348.684 2.01798 0
349.815 -0.200752 0
352.348 -0.361272 0
352.619 3.91587 0
350.085 4.07645 0
351.082 -0.280946 0
352.483 1.77735 0
351.352 3.99622 0
349.95 1.9379 0
351.217 1.8577 0
352.348 -0.361272 0
354.88 -0.522317 0
355.152 3.75477 0
352.619 3.91587 0
353.614 -0.44173 0
355.016 1.61628 0
353.885 3.83538 0
352.483 1.77735 0
353.75 1.69688 0
354.88 -0.522317 0
357.413 -0.683878 0
357.686 3.59315 0
355.152 3.75477 0
356.147 -0.603034 0
357.549 1.45469 0
356.419 3.67402 0
355.016 1.61628 0
356.283 1.53555 0
357.413 -0.683878 0
359.945 -0.845946 0
360.219 3.43103 0
357.686 3.59315 0
358.679 -0.764849 0
360.082 1.2926 0
358.952 3.51215 0
357.549 1.45469 0
358.816 1.37371 0
359.945 -0.845946 0
362.478 -1.00851 0
362.752 3.26841 0
360.219 3.43103 0
361.212 -0.927167 0
362.615 1.13 0
361.485 3.34978 0
360.082 1.2926 0
361.349 1.21136 0
362.478 -1.00851 0
365.01 -1.17157 0
365.285 3.10531 0
362.752 3.26841 0
363.744 -1.08998 0
365.148 0.966922 0
364.019 3.18692 0
362.615 1.13 0
363.881 1.04852 0
365.01 -1.17157 0
367.543 -1.3351 0
367.819 2.94172 0
365.285 3.10531 0
366.276 -1.25327 0
367.681 0.803361 0
366.552 3.02357 0
365.148 0.966922 0
366.414 0.885201 0
367.543 -1.3351 0
370.075 -1.4991 0
370.352 2.77767 0
367.819 2.94172 0
368.809 -1.41704 0
370.213 0.63933 0
369.085 2.85975 0
367.681 0.803361 0
368.947 0.721404 0
370.075 -1.4991 0
372.607 -1.66357 0
372.885 2.61315 0
370.352 2.77767 0
371.341 -1.58128 0
372.746 0.474838 0
371.618 2.69546 0
370.213 0.63933 0
371.48 0.557141 0
372.607 -1.66357 0
375.14 -1.82849 0
375.418 2.44818 0
372.885 2.61315 0
373.874 -1.74597 0
375.279 0.309893 0
374.151 2.53072 0
372.746 0.474838 0
374.012 0.392422 0
375.14 -1.82849 0
377.672 -1.99385 0
377.951 2.28277 0
375.418 2.44818 0
376.406 -1.91112 0
377.812 0.144506 0
376.684 2.36553 0
375.279 0.309893 0
376.545 0.227255 0
377.672 -1.99385 0
380.204 -2.15965 0
380.484 2.11693 0
377.951 2.28277 0
378.938 -2.0767 0
380.344 -0.0213154 0
379.218 2.1999 0
377.812 0.144506 0
379.078 0.061649 0
380.204 -2.15965 0
382.737 -2.32587 0
383.017 1.95066 0
380.484 2.11693 0
381.47 -2.24271 0
382.877 -0.187562 0
381.75 2.03384 0
380.344 -0.0213154 0
381.61 -0.104386 0
382.737 -2.32587 0
385.269 -2.49251 0
385.55 1.78397 0
383.017 1.95066 0
384.003 -2.40914 0
385.409 -0.354224 0
384.283 1.86737 0
382.877 -0.187562 0
384.143 -0.270842 0
385.269 -2.49251 0
387.801 -2.65956 0
388.083 1.61688 0
385.55 1.78397 0
386.535 -2.57598 0
387.942 -0.521294 0
386.816 1.70048 0
385.409 -0.354224 0
386.676 -0.437709 0
387.801 -2.65956 0
390.333 -2.827 0
390.616 1.44939 0
388.083 1.61688 0
389.067 -2.74323 0
390.475 -0.688761 0
389.349 1.53319 0
387.942 -0.521294 0
389.208 -0.604978 0
390.333 -2.827 0
392.865 -2.99483 0
393.149 1.28152 0
390.616 1.44939 0
391.599 -2.91087 0
393.007 -0.856617 0
391.882 1.3655 0
390.475 -0.688761 0
391.741 -0.772641 0
392.865 -2.99483 0
395.398 -3.16305 0
395.681 1.11326 0
393.149 1.28152 0
394.132 -3.07889 0
395.54 -1.02485 0
394.415 1.19744 0
393.007 -0.856617 0
394.273 -0.940688 0
395.398 -3.16305 0
397.93 -3.33163 0
398.214 0.944636 0
395.681 1.11326 0
396.664 -3.24729 0
398.072 -1.19346 0
396.948 1.029 0
395.54 -1.02485 0
396.806 -1.10911 0
397.93 -3.33163 0
400.462 -3.50058 0
400.747 0.775649 0
398.214 0.944636 0
399.196 -3.41606 0
400.604 -1.36243 0
399.481 0.860187 0
398.072 -1.19346 0
399.338 -1.2779 0
400.462 -3.50058 0
402.994 -3.66988 0
403.28 0.60631 0
400.747 0.775649 0
401.728 -3.58519 0
403.137 -1.53175 0
402.013 0.691023 0
400.604 -1.36243 0
401.871 -1.44704 0
402.994 -3.66988 0
405.526 -3.83952 0
405.812 0.436627 0
403.28 0.60631 0
404.26 -3.75466 0
405.669 -1.70141 0
404.546 0.521511 0
403.137 -1.53175 0
404.403 -1.61654 0
405.526 -3.83952 0
408.058 -4.0095 0
408.345 0.266611 0
405.812 0.436627 0
406.792 -3.92447 0
408.202 -1.87141 0
407.079 0.35166 0
405.669 -1.70141 0
406.935 -1.78637 0
408.058 -4.0095 0
410.59 -4.17981 0
410.878 0.096269 0
408.345 0.266611 0
409.324 -4.09462 0
410.734 -2.04174 0
409.611 0.18148 0
408.202 -1.87141 0
409.468 -1.95653 0
410.59 -4.17981 0
413.122 -4.35043 0
413.41 -0.0743886 0
410.878 0.096269 0
411.856 -4.26508 0
413.266 -2.21238 0
412.144 0.0109791 0
410.734 -2.04174 0
412 -2.12702 0
413.122 -4.35043 0
415.655 -4.52136 0
415.943 -0.245353 0
413.41 -0.0743886 0
414.389 -4.43586 0
415.799 -2.38332 0
414.676 -0.159833 0
413.266 -2.21238 0
414.533 -2.29781 0
415.655 -4.52136 0
418.187 -4.69259 0
418.475 -0.416615 0
415.943 -0.245353 0
416.921 -4.60694 0
418.331 -2.55457 0
417.209 -0.330948 0
415.799 -2.38332 0
417.065 -2.46891 0
418.187 -4.69259 0
420.719 -4.86411 0
421.008 -0.588167 0
418.475 -0.416615 0
419.453 -4.77831 0
420.863 -2.72611 0
419.742 -0.502355 0
418.331 -2.55457 0
419.597 -2.6403 0
420.719 -4.86411 0
423.251 -5.03591 0
423.54 -0.759997 0
421.008 -0.588167 0
421.985 -4.94997 0
423.395 -2.89792 0
422.274 -0.674048 0
420.863 -2.72611 0
422.129 -2.81198 0
423.251 -5.03591 0
425.783 -5.20798 0
426.073 -0.932099 0
423.54 -0.759997 0
424.517 -5.12191 0
425.928 -3.07001 0
424.807 -0.846015 0
423.395 -2.89792 0
424.662 -2.98393 0
425.783 -5.20798 0
428.315 -5.38031 0
428.605 -1.10446 0
426.073 -0.932099 0
427.049 -5.29411 0
428.46 -3.24236 0
427.339 -1.01825 0
425.928 -3.07001 0
427.194 -3.15615 0
428.315 -5.38031 0
430.847 -5.5529 0
431.138 -1.27708 0
428.605 -1.10446 0
429.581 -5.46657 0
430.992 -3.41496 0
429.871 -1.19074 0
428.46 -3.24236 0
429.726 -3.32863 0
430.847 -5.5529 0
433.379 -5.72573 0
433.67 -1.44994 0
431.138 -1.27708 0
432.113 -5.63929 0
433.524 -3.58781 0
432.404 -1.36348 0
430.992 -3.41496 0
432.258 -3.50136 0
433.379 -5.72573 0
435.911 -5.8988 0
436.202 -1.62303 0
433.67 -1.44994 0
434.645 -5.81224 0
436.056 -3.76089 0
434.936 -1.53646 0
433.524 -3.58781 0
434.79 -3.67432 0
435.911 -5.8988 0
438.443 -6.07209 0
438.735 -1.79635 0
436.202 -1.62303 0
437.177 -5.98542 0
438.589 -3.9342 0
437.469 -1.70966 0
436.056 -3.76089 0
437.323 -3.84752 0
438.443 -6.07209 0
440.975 -6.24561 0
441.267 -1.96989 0
438.735 -1.79635 0
439.709 -6.15882 0
441.121 -4.10772 0
440.001 -1.88309 0
438.589 -3.9342 0
439.855 -4.02094 0
440.975 -6.24561 0
443.506 -6.41933 0
443.799 -2.14363 0
441.267 -1.96989 0
442.241 -6.33244 0
443.653 -4.28146 0
442.533 -2.05673 0
441.121 -4.10772 0
442.387 -4.19457 0
443.506 -6.41933 0
446.038 -6.59324 0
446.332 -2.31757 0
443.799 -2.14363 0
444.772 -6.50626 0
446.185 -4.45539 0
445.065 -2.23058 0
443.653 -4.28146 0
444.919 -4.3684 0
446.038 -6.59324 0
448.57 -6.76735 0
448.864 -2.4917 0
446.332 -2.31757 0
447.304 -6.68028 0
448.717 -4.62951 0
447.598 -2.40462 0
446.185 -4.45539 0
447.451 -4.54243 0
448.57 -6.76735 0
451.102 -6.94165 0
451.396 -2.66602 0
448.864 -2.4917 0
449.836 -6.85448 0
451.249 -4.80381 0
450.13 -2.57884 0
448.717 -4.62951 0
449.983 -4.71664 0
451.102 -6.94165 0
453.634 -7.11611 0
453.928 -2.8405 0
451.396 -2.66602 0
452.368 -7.02886 0
453.781 -4.97829 0
452.662 -2.75324 0
451.249 -4.80381 0
452.515 -4.89103 0
453.634 -7.11611 0
456.166 -7.29074 0
456.461 -3.01514 0
453.928 -2.8405 0
454.9 -7.2034 0
456.313 -5.15292 0
455.194 -2.9278 0
453.781 -4.97829 0
455.047 -5.06559 0
456.166 -7.29074 0
458.698 -7.46552 0
458.993 -3.18994 0
456.461 -3.01514 0
457.432 -7.37811 0
458.845 -5.32771 0
457.727 -3.10252 0
456.313 -5.15292 0
457.579 -5.2403 0
458.698 -7.46552 0
461.23 -7.64044 0
461.525 -3.36488 0
458.993 -3.18994 0
459.964 -7.55296 0
461.377 -5.50265 0
460.259 -3.2774 0
458.845 -5.32771 0
460.111 -5.41516 0
461.23 -7.64044 0
463.762 -7.8155 0
464.057 -3.53996 0
461.525 -3.36488 0
462.496 -7.72796 0
463.909 -5.67772 0
462.791 -3.45241 0
461.377 -5.50265 0
462.643 -5.59017 0
463.762 -7.8155 0
466.294 -7.99069 0
466.589 -3.71517 0
464.057 -3.53996 0
465.028 -7.90308 0
466.441 -5.85292 0
465.323 -3.62755 0
463.909 -5.67772 0
465.175 -5.7653 0
466.294 -7.99069 0
468.826 -8.166 0
469.121 -3.89049 0
466.589 -3.71517 0
467.56 -8.07833 0
468.974 -6.02823 0
467.855 -3.80281 0
466.441 -5.85292 0
467.708 -5.94056 0
468.826 -8.166 0
471.358 -8.34142 0
471.653 -4.06591 0
469.121 -3.89049 0
470.092 -8.2537 0
471.506 -6.20366 0
470.387 -3.97819 0
468.974 -6.02823 0
470.24 -6.11593 0
471.358 -8.34142 0
473.89 -8.51693 0
474.185 -4.24144 0
471.653 -4.06591 0
472.624 -8.42916 0
474.038 -6.37918 0
472.919 -4.15367 0
471.506 -6.20366 0
472.772 -6.29141 0
473.89 -8.51693 0
476.422 -8.69254 0
476.717 -4.41706 0
474.185 -4.24144 0
475.156 -8.60473 0
476.57 -6.55479 0
475.451 -4.32924 0
474.038 -6.37918 0
475.304 -6.46698 0
476.422 -8.69254 0
478.953 -8.86824 0
479.25 -4.59276 0
476.717 -4.41706 0
477.688 -8.78038 0
479.102 -6.73049 0
477.984 -4.5049 0
476.57 -6.55479 0
477.836 -6.64263 0
478.953 -8.86824 0
481.485 -9.044 0
481.782 -4.76853 0
479.25 -4.59276 0
480.219 -8.95611 0
481.633 -6.90626 0
480.516 -4.68064 0
479.102 -6.73049 0
480.368 -6.81837 0
481.485 -9.044 0
484.017 -9.21983 0
484.314 -4.94437 0
481.782 -4.76853 0
482.751 -9.13191 0
484.165 -7.0821 0
483.048 -4.85645 0
481.633 -6.90626 0
482.899 -6.99417 0
484.017 -9.21983 0
486.549 -9.39572 0
486.846 -5.12027 0
484.314 -4.94437 0
485.283 -9.30777 0
486.697 -7.25799 0
485.58 -5.03231 0
484.165 -7.0821 0
485.431 -7.17004 0
486.549 -9.39572 0
489.081 -9.57166 0
489.378 -5.29621 0
486.846 -5.12027 0
487.815 -9.48369 0
489.229 -7.43393 0
488.112 -5.20823 0
486.697 -7.25799 0
487.963 -7.34596 0
489.081 -9.57166 0
491.613 -9.74763 0
491.91 -5.47218 0
489.378 -5.29621 0
490.347 -9.65964 0
491.761 -7.6099 0
490.644 -5.38419 0
489.229 -7.43393 0
490.495 -7.52191 0
491.613 -9.74763 0
494.145 -9.9236 0
494.442 -5.64815 0
491.91 -5.47218 0
492.879 -9.83561 0
494.293 -7.78586 0
493.176 -5.56016 0
491.761 -7.6099 0
493.027 -7.69788 0
494.145 -9.9236 0
496.677 -10.0995 0
496.974 -5.82408 0
494.442 -5.64815 0
495.411 -10.0116 0
496.825 -7.96179 0
495.708 -5.73612 0
494.293 -7.78586 0
495.559 -7.87384 0
496.677 -10.0995 0
499.209 -10.2754 0
499.506 -5.99992 0
496.974 -5.82408 0
497.943 -10.1875 0
499.357 -8.13762 0
498.24 -5.91202 0
496.825 -7.96179 0
498.091 -8.04972 0
0 17.1429 0
2.53936 17.1431 0
2.54204 21.4281 0
0 21.4286 0
1.26968 17.1433 0
2.54069 19.2857 0
1.27096 21.4287 0
0 19.2857 0
1.27031 19.286 0
2.53936 17.1431 0
5.07884 17.1408 0
5.08439 21.4254 0
2.54204 21.4281 0
3.80909 17.1422 0
5.08159 19.2833 0
3.81319 21.4271 0
2.54069 19.2857 0
3.81112 19.2848 0
5.07884 17.1408 0
7.61836 17.1364 0
7.62691 21.4208 0
5.08439 21.4254 0
6.34859 17.1389 0
7.6226 19.2788 0
6.35564 21.4233 0
5.08159 19.2833 0
6.35208 19.2813 0
7.61836 17.1364 0
10.1579 17.1301 0
10.1695 21.4143 0
7.62691 21.4208 0
8.88813 17.1335 0
10.1637 19.2724 0
8.89819 21.4178 0
7.6226 19.2788 0
8.89313 19.2758 0
10.1579 17.1301 0
12.6975 17.1219 0
12.712 21.4061 0
10.1695 21.4143 0
11.4277 17.1263 0
12.7047 19.2642 0
11.4407 21.4104 0
10.1637 19.2724 0
11.4342 19.2685 0
12.6975 17.1219 0
15.237 17.112 0
15.2545 21.3961 0
12.712 21.4061 0
13.9672 17.1172 0
15.2457 19.2543 0
13.9833 21.4013 0
12.7047 19.2642 0
13.9752 19.2595 0
15.237 17.112 0
17.7765 17.1003 0
17.7969 21.3845 0
15.2545 21.3961 0
16.5067 17.1064 0
17.7867 19.2426 0
16.5257 21.3905 0
15.2457 19.2543 0
16.5162 19.2486 0
17.7765 17.1003 0
20.316 17.087 0
20.3393 21.3711 0
17.7969 21.3845 0
19.0462 17.0939 0
20.3276 19.2292 0
19.0681 21.378 0
17.7867 19.2426 0
19.0572 19.2361 0
20.316 17.087 0
22.8554 17.0719 0
22.8817 21.356 0
20.3393 21.3711 0
21.5857 17.0796 0
22.8686 19.2141 0
21.6105 21.3638 0
20.3276 19.2292 0
21.5981 19.2219 0
22.8554 17.0719 0
25.3949 17.0551 0
25.424 21.3392 0
22.8817 21.356 0
24.1252 17.0637 0
25.4094 19.1973 0
24.1529 21.3478 0
22.8686 19.2141 0
24.139 19.2059 0
25.3949 17.0551 0
27.9343 17.0366 0
27.9663 21.3207 0
25.424 21.3392 0
26.6646 17.046 0
27.9503 19.1788 0
26.6952 21.3301 0
25.4094 19.1973 0
26.6799 19.1883 0
27.9343 17.0366 0
30.4737 17.0164 0
30.5085 21.3005 0
27.9663 21.3207 0
29.204 17.0267 0
30.4911 19.1586 0
29.2374 21.3108 0
27.9503 19.1788 0
29.2207 19.1689 0
30.4737 17.0164 0
33.0131 16.9945 0
33.0507 21.2786 0
30.5085 21.3005 0
31.7434 17.0057 0
33.0319 19.1367 0
31.7796 21.2898 0
30.4911 19.1586 0
31.7615 19.1479 0
33.0131 16.9945 0
35.5524 16.971 0
35.5929 21.2551 0
33.0507 21.2786 0
34.2828 16.983 0
35.5727 19.1132 0
34.3218 21.2671 0
33.0319 19.1367 0
34.3023 19.1252 0
35.5524 16.971 0
38.0918 16.9458 0
38.135 21.2299 0
35.5929 21.2551 0
36.8221 16.9586 0
38.1134 19.088 0
36.864 21.2427 0
35.5727 19.1132 0
36.843 19.1008 0
38.0918 16.9458 0
40.6311 16.919 0
40.6771 21.203 0
38.135 21.2299 0
39.3614 16.9326 0
40.6541 19.0612 0
39.4061 21.2166 0
38.1134 19.088 0
39.3837 19.0748 0
40.6311 16.919 0
43.1704 16.8905 0
43.2192 21.1745 0
40.6771 21.203 0
41.9007 16.9049 0
43.1947 19.0327 0
41.9481 21.189 0
40.6541 19.0612 0
41.9244 19.0471 0
43.1704 16.8905 0
45.7096 16.8604 0
45.7612 21.1444 0
43.2192 21.1745 0
44.44 16.8756 0
45.7354 19.0025 0
44.4902 21.1596 0
43.1947 19.0327 0
44.4651 19.0178 0
45.7096 16.8604 0
48.2488 16.8286 0
48.3031 21.1126 0
45.7612 21.1444 0
46.9792 16.8447 0
48.276 18.9708 0
47.0321 21.1287 0
45.7354 19.0025 0
47.0057 18.9869 0
48.2488 16.8286 0
50.788 16.7953 0
50.845 21.0792 0
48.3031 21.1126 0
49.5185 16.8121 0
50.8165 18.9374 0
49.5741 21.0961 0
48.276 18.9708 0
49.5463 18.9543 0
50.788 16.7953 0
53.3272 16.7603 0
53.3869 21.0442 0
50.845 21.0792 0
52.0576 16.778 0
53.3571 18.9024 0
52.116 21.0619 0
50.8165 18.9374 0
52.0868 18.9201 0
53.3272 16.7603 0
55.8664 16.7237 0
55.9287 21.0076 0
53.3869 21.0442 0
54.5968 16.7422 0
55.8975 18.8659 0
54.6578 21.0261 0
53.3571 18.9024 0
54.6273 18.8843 0
55.8664 16.7237 0
58.4055 16.6856 0
58.4705 20.9695 0
55.9287 21.0076 0
57.1359 16.7049 0
58.438 18.8277 0
57.1996 20.9887 0
55.8975 18.8659 0
57.1678 18.847 0
58.4055 16.6856 0
60.9445 16.6459 0
61.0123 20.9297 0
58.4705 20.9695 0
59.675 16.6659 0
60.9784 18.788 0
59.7414 20.9498 0
58.438 18.8277 0
59.7082 18.808 0
60.9445 16.6459 0
63.4836 16.6046 0
63.5539 20.8884 0
61.0123 20.9297 0
62.2141 16.6254 0
63.5188 18.7466 0
62.2831 20.9092 0
60.9784 18.788 0
62.2486 18.7675 0
63.4836 16.6046 0
66.0226 16.5617 0
66.0956 20.8455 0
63.5539 20.8884 0
64.7531 16.5834 0
66.0591 18.7038 0
64.8248 20.8671 0
63.5188 18.7466 0
64.7889 18.7254 0
66.0226 16.5617 0
68.5616 16.5173 0
68.6372 20.801 0
66.0956 20.8455 0
67.2921 16.5397 0
68.5994 18.6593 0
67.3664 20.8234 0
66.0591 18.7038 0
67.3292 18.6817 0
68.5616 16.5173 0
71.1005 16.4714 0
71.1787 20.755 0
68.6372 20.801 0
69.8311 16.4945 0
71.1396 18.6134 0
69.9079 20.7782 0
68.5994 18.6593 0
69.8695 18.6365 0
71.1005 16.4714 0
73.6394 16.4239 0
73.7202 20.7075 0
71.1787 20.755 0
72.37 16.4478 0
73.6798 18.5659 0
72.4495 20.7315 0
71.1396 18.6134 0
72.4097 18.5898 0
73.6394 16.4239 0
76.1783 16.3749 0
76.2616 20.6585 0
73.7202 20.7075 0
74.9089 16.3996 0
76.22 18.5168 0
74.9909 20.6832 0
73.6798 18.5659 0
74.9499 18.5415 0
76.1783 16.3749 0
78.7171 16.3244 0
78.803 20.6079 0
76.2616 20.6585 0
77.4477 16.3498 0
78.7601 18.4663 0
77.5323 20.6334 0
76.22 18.5168 0
77.49 18.4918 0
78.7171 16.3244 0
81.2559 16.2723 0
81.3443 20.5558 0
78.803 20.6079 0
79.9865 16.2985 0
81.3001 18.4142 0
80.0737 20.5821 0
78.7601 18.4663 0
80.0301 18.4405 0
81.2559 16.2723 0
83.7947 16.2188 0
83.8856 20.5023 0
81.3443 20.5558 0
82.5253 16.2458 0
83.8401 18.3607 0
82.615 20.5292 0
81.3001 18.4142 0
82.5701 18.3877 0
83.7947 16.2188 0
86.3334 16.1638 0
86.4268 20.4472 0
83.8856 20.5023 0
85.0641 16.1915 0
86.3801 18.3057 0
85.1562 20.4749 0
83.8401 18.3607 0
85.1101 18.3334 0
86.3334 16.1638 0
88.8721 16.1073 0
88.968 20.3907 0
86.4268 20.4472 0
87.6028 16.1357 0
88.92 18.2492 0
87.6974 20.4191 0
86.3801 18.3057 0
87.6501 18.2776 0
88.8721 16.1073 0
91.4107 16.0494 0
91.5091 20.3327 0
88.968 20.3907 0
90.1414 16.0785 0
91.4599 18.1912 0
90.2386 20.3619 0
88.92 18.2492 0
90.19 18.2203 0
91.4107 16.0494 0
93.9493 15.9899 0
94.0502 20.2732 0
91.5091 20.3327 0
92.68 16.0198 0
93.9997 18.1317 0
92.7797 20.3031 0
91.4599 18.1912 0
92.7298 18.1616 0
93.9493 15.9899 0
96.4879 15.9291 0
96.5912 20.2123 0
94.0502 20.2732 0
95.2186 15.9597 0
96.5395 18.0708 0
95.3207 20.2429 0
93.9997 18.1317 0
95.2696 18.1015 0
96.4879 15.9291 0
99.0264 15.8668 0
99.1321 20.1499 0
96.5912 20.2123 0
97.7571 15.8981 0
99.0792 18.0085 0
97.8616 20.1813 0
96.5395 18.0708 0
97.8094 18.0398 0
99.0264 15.8668 0
101.565 15.803 0
101.673 20.0861 0
99.1321 20.1499 0
100.296 15.8351 0
101.619 17.9447 0
100.403 20.1182 0
99.0792 18.0085 0
100.349 17.9768 0
101.565 15.803 0
104.103 15.7378 0
104.214 20.0209 0
101.673 20.0861 0
102.834 15.7706 0
104.159 17.8795 0
102.943 20.0537 0
101.619 17.9447 0
102.889 17.9123 0
104.103 15.7378 0
106.642 15.6713 0
106.755 19.9543 0
104.214 20.0209 0
105.372 15.7047 0
106.698 17.8129 0
105.484 19.9878 0
104.159 17.8795 0
105.428 17.8464 0
106.642 15.6713 0
109.18 15.6033 0
109.295 19.8862 0
106.755 19.9543 0
107.911 15.6374 0
109.238 17.7449 0
108.025 19.9204 0
106.698 17.8129 0
107.968 17.7791 0
109.18 15.6033 0
111.718 15.5339 0
111.836 19.8168 0
109.295 19.8862 0
110.449 15.5687 0
111.777 17.6755 0
110.566 19.8517 0
109.238 17.7449 0
110.507 17.7104 0
111.718 15.5339 0
114.257 15.4631 0
114.376 19.7459 0
111.836 19.8168 0
112.987 15.4987 0
114.317 17.6047 0
113.106 19.7815 0
111.777 17.6755 0
113.047 17.6402 0
114.257 15.4631 0
116.795 15.391 0
116.917 19.6737 0
114.376 19.7459 0
115.526 15.4272 0
116.856 17.5325 0
115.647 19.71 0
114.317 17.6047 0
115.586 17.5688 0
116.795 15.391 0
119.333 15.3174 0
119.457 19.6002 0
116.917 19.6737 0
118.064 15.3544 0
119.395 17.4589 0
118.187 19.6371 0
116.856 17.5325 0
118.126 17.4959 0
119.333 15.3174 0
121.871 15.2425 0
121.998 19.5252 0
119.457 19.6002 0
120.602 15.2802 0
121.934 17.384 0
120.728 19.5629 0
119.395 17.4589 0
120.665 17.4217 0
121.871 15.2425 0
124.409 15.1663 0
124.538 19.4489 0
121.998 19.5252 0
123.14 15.2046 0
124.474 17.3078 0
123.268 19.4872 0
121.934 17.384 0
123.204 17.3461 0
124.409 15.1663 0
126.947 15.0887 0
127.078 19.3713 0
124.538 19.4489 0
125.678 15.1277 0
127.013 17.2302 0
125.808 19.4103 0
124.474 17.3078 0
125.743 17.2691 0
126.947 15.0887 0
129.485 15.0098 0
129.619 19.2923 0
127.078 19.3713 0
128.216 15.0495 0
129.552 17.1512 0
128.349 19.332 0
127.013 17.2302 0
128.282 17.1909 0
129.485 15.0098 0
132.023 14.9296 0
132.159 19.212 0
129.619 19.2923 0
130.754 14.9699 0
132.091 17.071 0
130.889 19.2523 0
129.552 17.1512 0
130.821 17.1113 0
132.023 14.9296 0
134.561 14.8481 0
134.699 19.1304 0
132.159 19.212 0
133.292 14.889 0
134.63 16.9894 0
133.429 19.1714 0
132.091 17.071 0
133.36 17.0303 0
134.561 14.8481 0
137.099 14.7652 0
137.239 19.0475 0
134.699 19.1304 0
135.83 14.8068 0
137.169 16.9065 0
135.969 19.0891 0
134.63 16.9894 0
135.899 16.9481 0
137.099 14.7652 0
139.636 14.6811 0
139.779 18.9633 0
137.239 19.0475 0
138.368 14.7233 0
139.708 16.8223 0
138.509 19.0056 0
137.169 16.9065 0
138.438 16.8646 0
139.636 14.6811 0
142.174 14.5956 0
142.319 18.8778 0
139.779 18.9633 0
140.905 14.6385 0
142.246 16.7368 0
141.049 18.9207 0
139.708 16.8223 0
140.977 16.7797 0
142.174 14.5956 0
144.712 14.5089 0
144.859 18.791 0
142.319 18.8778 0
143.443 14.5524 0
144.785 16.6501 0
143.589 18.8346 0
142.246 16.7368 0
143.516 16.6936 0
144.712 14.5089 0
147.249 14.4209 0
147.398 18.703 0
144.859 18.791 0
145.981 14.4651 0
147.324 16.5621 0
146.128 18.7472 0
144.785 16.6501 0
146.054 16.6063 0
147.249 14.4209 0
149.787 14.3317 0
149.938 18.6137 0
147.398 18.703 0
148.518 14.3765 0
149.862 16.4728 0
148.668 18.6585 0
147.324 16.5621 0
148.593 16.5176 0
149.787 14.3317 0
152.324 14.2412 0
152.478 18.5231 0
149.938 18.6137 0
151.056 14.2866 0
152.401 16.3823 0
151.208 18.5685 0
149.862 16.4728 0
151.132 16.4277 0
152.324 14.2412 0
154.862 14.1495 0
155.017 18.4313 0
152.478 18.5231 0
153.593 14.1955 0
154.939 16.2905 0
153.747 18.4774 0
152.401 16.3823 0
153.67 16.3366 0
154.862 14.1495 0
157.399 14.0565 0
157.557 18.3383 0
155.017 18.4313 0
156.131 14.1031 0
157.478 16.1975 0
156.287 18.3849 0
154.939 16.2905 0
156.209 16.2442 0
157.399 14.0565 0
159.937 13.9623 0
160.096 18.244 0
157.557 18.3383 0
158.668 14.0096 0
160.016 16.1033 0
158.826 18.2913 0
157.478 16.1975 0
158.747 16.1506 0
159.937 13.9623 0
162.474 13.8669 0
162.635 18.1485 0
160.096 18.244 0
161.205 13.9148 0
162.555 16.0079 0
161.366 18.1964 0
160.016 16.1033 0
161.285 16.0557 0
162.474 13.8669 0
165.011 13.7703 0
165.175 18.0519 0
162.635 18.1485 0
163.743 13.8188 0
165.093 15.9112 0
163.905 18.1004 0
162.555 16.0079 0
163.824 15.9597 0
165.011 13.7703 0
167.548 13.6725 0
167.714 17.954 0
165.175 18.0519 0
166.28 13.7216 0
167.631 15.8134 0
166.444 18.0031 0
165.093 15.9112 0
166.362 15.8624 0
167.548 13.6725 0
170.086 13.5735 0
170.253 17.8549 0
167.714 17.954 0
168.817 13.6232 0
170.169 15.7143 0
168.983 17.9046 0
167.631 15.8134 0
168.9 15.764 0
170.086 13.5735 0
172.623 13.4733 0
172.792 17.7547 0
170.253 17.8549 0
171.354 13.5236 0
172.707 15.6141 0
171.522 17.805 0
170.169 15.7143 0
171.438 15.6644 0
172.623 13.4733 0
175.16 13.372 0
175.331 17.6533 0
172.792 17.7547 0
173.891 13.4228 0
175.245 15.5128 0
174.061 17.7041 0
172.707 15.6141 0
173.976 15.5636 0
175.16 13.372 0
177.697 13.2695 0
177.87 17.5507 0
175.331 17.6533 0
176.428 13.3209 0
177.783 15.4102 0
176.6 17.6021 0
175.245 15.5128 0
176.514 15.4616 0
177.697 13.2695 0
180.234 13.1659 0
180.409 17.447 0
177.87 17.5507 0
178.965 13.2178 0
180.321 15.3065 0
179.139 17.499 0
177.783 15.4102 0
179.052 15.3585 0
180.234 13.1659 0
182.77 13.0611 0
182.948 17.3421 0
180.409 17.447 0
181.502 13.1136 0
182.859 15.2017 0
181.678 17.3947 0
180.321 15.3065 0
181.59 15.2543 0
182.77 13.0611 0
185.307 12.9551 0
185.486 17.2361 0
182.948 17.3421 0
184.039 13.0082 0
185.397 15.0958 0
184.217 17.2893 0
182.859 15.2017 0
184.128 15.1489 0
185.307 12.9551 0
187.844 12.8481 0
188.025 17.129 0
185.486 17.2361 0
186.576 12.9018 0
187.934 14.9887 0
186.756 17.1827 0
185.397 15.0958 0
186.666 15.0424 0
187.844 12.8481 0
190.381 12.7399 0
190.563 17.0208 0
188.025 17.129 0
189.112 12.7941 0
190.472 14.8805 0
189.294 17.075 0
187.934 14.9887 0
189.203 14.9347 0
190.381 12.7399 0
192.917 12.6307 0
193.102 16.9114 0
190.563 17.0208 0
191.649 12.6854 0
193.01 14.7712 0
191.833 16.9663 0
190.472 14.8805 0
191.741 14.826 0
192.917 12.6307 0
195.454 12.5203 0
195.64 16.801 0
193.102 16.9114 0
194.186 12.5756 0
195.547 14.6608 0
194.371 16.8564 0
193.01 14.7712 0
194.278 14.7161 0
195.454 12.5203 0
197.99 12.4089 0
198.179 16.6895 0
195.64 16.801 0
196.722 12.4647 0
198.085 14.5493 0
196.91 16.7454 0
195.547 14.6608 0
196.816 14.6052 0
197.99 12.4089 0
200.527 12.2963 0
200.717 16.5769 0
198.179 16.6895 0
199.259 12.3527 0
200.622 14.4367 0
199.448 16.6333 0
198.085 14.5493 0
199.353 14.4931 0
200.527 12.2963 0
203.063 12.1827 0
203.255 16.4632 0
200.717 16.5769 0
201.795 12.2397 0
203.159 14.3231 0
201.986 16.5202 0
200.622 14.4367 0
201.891 14.38 0
203.063 12.1827 0
205.6 12.0681 0
205.793 16.3485 0
203.255 16.4632 0
204.332 12.1255 0
205.697 14.2084 0
204.524 16.406 0
203.159 14.3231 0
204.428 14.2659 0
205.6 12.0681 0
208.136 11.9524 0
208.332 16.2327 0
205.793 16.3485 0
206.868 12.0104 0
208.234 14.0927 0
207.063 16.2907 0
205.697 14.2084 0
206.965 14.1507 0
208.136 11.9524 0
210.672 11.8356 0
210.87 16.1159 0
208.332 16.2327 0
209.404 11.8941 0
210.771 13.9759 0
209.601 16.1744 0
208.234 14.0927 0
209.502 14.0344 0
210.672 11.8356 0
213.208 11.7178 0
213.407 15.998 0
210.87 16.1159 0
211.94 11.7769 0
213.308 13.8581 0
212.139 16.0571 0
210.771 13.9759 0
212.039 13.9171 0
213.208 11.7178 0
215.745 11.599 0
215.945 15.8792 0
213.407 15.998 0
214.477 11.6586 0
215.845 13.7392 0
214.676 15.9387 0
213.308 13.8581 0
214.577 13.7988 0
215.745 11.599 0
218.281 11.4792 0
218.483 15.7593 0
215.945 15.8792 0
217.013 11.5393 0
218.382 13.6194 0
217.214 15.8194 0
215.845 13.7392 0
217.113 13.6794 0
218.281 11.4792 0
220.817 11.3584 0
221.021 15.6384 0
218.483 15.7593 0
219.549 11.4189 0
220.919 13.4985 0
219.752 15.699 0
218.382 13.6194 0
219.65 13.5591 0
220.817 11.3584 0
223.353 11.2366 0
223.559 15.5165 0
221.021 15.6384 0
222.085 11.2976 0
223.456 13.3766 0
222.29 15.5776 0
220.919 13.4985 0
222.187 13.4377 0
223.353 11.2366 0
225.889 11.1138 0
226.096 15.3936 0
223.559 15.5165 0
224.621 11.1753 0
225.992 13.2538 0
224.827 15.4552 0
223.456 13.3766 0
224.724 13.3153 0
225.889 11.1138 0
228.425 10.99 0
228.634 15.2698 0
226.096 15.3936 0
227.157 11.052 0
228.529 13.13 0
227.365 15.3318 0
225.992 13.2538 0
227.261 13.192 0
228.425 10.99 0
230.96 10.8652 0
231.171 15.1449 0
228.634 15.2698 0
229.692 10.9277 0
231.066 13.0052 0
229.902 15.2075 0
228.529 13.13 0
229.797 13.0677 0
230.96 10.8652 0
233.496 10.7395 0
233.708 15.0192 0
231.171 15.1449 0
232.228 10.8025 0
233.602 12.8794 0
232.44 15.0822 0
231.066 13.0052 0
232.334 12.9424 0
233.496 10.7395 0
236.032 10.6129 0
236.246 14.8924 0
233.708 15.0192 0
234.764 10.6763 0
236.139 12.7527 0
234.977 14.9559 0
233.602 12.8794 0
234.871 12.8162 0
236.032 10.6129 0
238.568 10.4853 0
238.783 14.7647 0
236.246 14.8924 0
237.3 10.5492 0
238.675 12.6251 0
237.514 14.8287 0
236.139 12.7527 0
237.407 12.689 0
238.568 10.4853 0
241.103 10.3567 0
241.32 14.6361 0
238.783 14.7647 0
239.835 10.4211 0
241.212 12.4965 0
240.052 14.7006 0
238.675 12.6251 0
239.943 12.5609 0
241.103 10.3567 0
243.639 10.2273 0
243.857 14.5066 0
241.32 14.6361 0
242.371 10.2921 0
243.748 12.367 0
242.589 14.5715 0
241.212 12.4965 0
242.48 12.4319 0
243.639 10.2273 0
246.174 10.0969 0
246.394 14.3762 0
243.857 14.5066 0
244.906 10.1622 0
246.284 12.2366 0
245.126 14.4415 0
243.748 12.367 0
245.016 12.3019 0
246.174 10.0969 0
248.71 9.96561 0
248.931 14.2448 0
246.394 14.3762 0
247.442 10.0314 0
248.82 12.1053 0
247.663 14.3106 0
246.284 12.2366 0
247.552 12.1711 0
248.71 9.96561 0
251.245 9.83344 0
251.468 14.1126 0
248.931 14.2448 0
249.977 9.89964 0
251.357 11.9731 0
250.2 14.1788 0
248.82 12.1053 0
250.089 12.0393 0
251.245 9.83344 0
253.78 9.70038 0
254.005 13.9794 0
251.468 14.1126 0
252.513 9.76702 0
253.893 11.84 0
252.737 14.0461 0
251.357 11.9731 0
252.625 11.9067 0
253.78 9.70038 0
256.316 9.56644 0
256.542 13.8454 0
254.005 13.9794 0
255.048 9.63352 0
256.429 11.706 0
255.273 13.9125 0
253.893 11.84 0
255.161 11.7731 0
256.316 9.56644 0
258.851 9.43163 0
259.078 13.7105 0
256.542 13.8454 0
257.583 9.49914 0
258.965 11.5712 0
257.81 13.7781 0
256.429 11.706 0
257.697 11.6387 0
258.851 9.43163 0
261.386 9.29596 0
261.615 13.5748 0
259.078 13.7105 0
260.118 9.3639 0
261.501 11.4355 0
260.347 13.6428 0
258.965 11.5712 0
260.233 11.5034 0
261.386 9.29596 0
263.921 9.15944 0
264.152 13.4382 0
261.615 13.5748 0
262.654 9.22781 0
264.036 11.2989 0
262.883 13.5066 0
261.501 11.4355 0
262.768 11.3673 0
263.921 9.15944 0
266.456 9.02208 0
266.688 13.3008 0
264.152 13.4382 0
265.189 9.09087 0
266.572 11.1615 0
265.42 13.3696 0
264.036 11.2989 0
265.304 11.2303 0
266.456 9.02208 0
268.991 8.88389 0
269.224 13.1625 0
266.688 13.3008 0
267.724 8.95309 0
269.108 11.0233 0
267.956 13.2318 0
266.572 11.1615 0
267.84 11.0925 0
268.991 8.88389 0
271.526 8.74487 0
271.761 13.0234 0
269.224 13.1625 0
270.259 8.81448 0
271.643 10.8842 0
270.493 13.0931 0
269.108 11.0233 0
270.376 10.9539 0
271.526 8.74487 0
274.061 8.60504 0
274.297 12.8835 0
271.761 13.0234 0
272.794 8.67506 0
274.179 10.7444 0
273.029 12.9536 0
271.643 10.8842 0
272.911 10.8144 0
274.061 8.60504 0
276.596 8.4644 0
276.833 12.7428 0
274.297 12.8835 0
275.328 8.53482 0
276.715 10.6037 0
275.565 12.8133 0
274.179 10.7444 0
275.447 10.6741 0
276.596 8.4644 0
279.131 8.32297 0
279.369 12.6013 0
276.833 12.7428 0
277.863 8.39379 0
279.25 10.4622 0
278.101 12.6722 0
276.715 10.6037 0
277.982 10.5331 0
279.131 8.32297 0
281.665 8.18075 0
281.906 12.4591 0
279.369 12.6013 0
280.398 8.25196 0
281.785 10.32 0
280.637 12.5303 0
279.25 10.4622 0
280.518 10.3912 0
281.665 8.18075 0
284.2 8.03776 0
284.442 12.316 0
281.906 12.4591 0
282.933 8.10935 0
284.321 10.177 0
283.174 12.3876 0
281.785 10.32 0
283.053 10.2486 0
284.2 8.03776 0
286.735 7.89399 0
286.977 12.1722 0
284.442 12.316 0
285.467 7.96597 0
286.856 10.0332 0
285.709 12.2442 0
284.321 10.177 0
285.588 10.1052 0
286.735 7.89399 0
289.269 7.74946 0
289.513 12.0276 0
286.977 12.1722 0
288.002 7.82182 0
289.391 9.8886 0
288.245 12.1 0
286.856 10.0332 0
288.124 9.96097 0
289.269 7.74946 0
291.804 7.60419 0
292.049 11.8822 0
289.513 12.0276 0
290.537 7.67692 0
291.927 9.74329 0
290.781 11.955 0
289.391 9.8886 0
290.659 9.81604 0
291.804 7.60419 0
294.338 7.45817 0
294.585 11.7362 0
292.049 11.8822 0
293.071 7.53127 0
294.462 9.59724 0
293.317 11.8093 0
291.927 9.74329 0
293.194 9.67036 0
294.338 7.45817 0
296.873 7.31141 0
297.121 11.5893 0
294.585 11.7362 0
295.606 7.38488 0
296.997 9.45045 0
295.853 11.6628 0
294.462 9.59724 0
295.729 9.52394 0
296.873 7.31141 0
299.407 7.16394 0
299.656 11.4418 0
297.121 11.5893 0
298.14 7.23777 0
299.532 9.30295 0
298.388 11.5157 0
296.997 9.45045 0
298.264 9.37679 0
299.407 7.16394 0
301.942 7.01575 0
302.192 11.2935 0
299.656 11.4418 0
300.674 7.08993 0
302.067 9.15473 0
300.924 11.3678 0
299.532 9.30295 0
300.799 9.22892 0
301.942 7.01575 0
304.476 6.86685 0
304.727 11.1446 0
302.192 11.2935 0
303.209 6.94139 0
304.602 9.0058 0
303.459 11.2192 0
302.067 9.15473 0
303.334 9.08035 0
304.476 6.86685 0
307.01 6.71726 0
307.263 10.9949 0
304.727 11.1446 0
305.743 6.79215 0
307.136 8.85618 0
305.995 11.0699 0
304.602 9.0058 0
305.869 8.93107 0
307.01 6.71726 0
309.544 6.56698 0
309.798 10.8446 0
307.263 10.9949 0
308.277 6.64221 0
309.671 8.70587 0
308.53 10.9199 0
307.136 8.85618 0
308.404 8.78111 0
309.544 6.56698 0
312.079 6.41603 0
312.333 10.6936 0
309.798 10.8446 0
310.811 6.49159 0
312.206 8.55488 0
311.066 10.7692 0
309.671 8.70587 0
310.939 8.63046 0
312.079 6.41603 0
314.613 6.2644 0
314.868 10.5419 0
312.333 10.6936 0
313.346 6.3403 0
314.741 8.40322 0
313.601 10.6178 0
312.206 8.55488 0
313.473 8.47913 0
314.613 6.2644 0
317.147 6.11211 0
317.404 10.3896 0
314.868 10.5419 0
315.88 6.18834 0
317.275 8.2509 0
316.136 10.4658 0
314.741 8.40322 0
316.008 8.32714 0
317.147 6.11211 0
319.681 5.95918 0
319.939 10.2366 0
317.404 10.3896 0
318.414 6.03573 0
319.81 8.09794 0
318.671 10.3131 0
317.275 8.2509 0
318.542 8.1745 0
319.681 5.95918 0
322.215 5.8056 0
322.474 10.0829 0
319.939 10.2366 0
320.948 5.88247 0
322.344 7.94433 0
321.206 10.1598 0
319.81 8.09794 0
321.077 8.02121 0
322.215 5.8056 0
324.749 5.65139 0
325.009 9.92865 0
322.474 10.0829 0
323.482 5.72857 0
324.879 7.79009 0
323.741 10.0059 0
322.344 7.94433 0
323.611 7.86729 0
324.749 5.65139 0
327.282 5.49655 0
327.544 9.77376 0
325.009 9.92865 0
326.016 5.57404 0
327.413 7.63522 0
326.276 9.85128 0
324.879 7.79009 0
326.146 7.71273 0
327.282 5.49655 0
329.816 5.3411 0
330.079 9.61825 0
327.544 9.77376 0
328.549 5.4189 0
329.947 7.47974 0
328.811 9.69608 0
327.413 7.63522 0
328.68 7.55756 0
329.816 5.3411 0
332.35 5.18504 0
332.613 9.46214 0
330.079 9.61825 0
331.083 5.26314 0
332.482 7.32366 0
331.346 9.54027 0
329.947 7.47974 0
331.215 7.40177 0
332.35 5.18504 0
334.884 5.02839 0
335.148 9.30543 0
332.613 9.46214 0
333.617 5.10679 0
335.016 7.16697 0
333.881 9.38386 0
332.482 7.32366 0
333.749 7.24539 0
334.884 5.02839 0
337.417 4.87115 0
337.683 9.14814 0
335.148 9.30543 0
336.151 4.94984 0
337.55 7.00971 0
336.415 9.22686 0
335.016 7.16697 0
336.283 7.08841 0
337.417 4.87115 0
339.951 4.71333 0
340.217 8.99027 0
337.683 9.14814 0
338.684 4.79231 0
340.084 6.85186 0
338.95 9.06928 0
337.55 7.00971 0
338.817 6.93085 0
339.951 4.71333 0
342.485 4.55494 0
342.752 8.83183 0
340.217 8.99027 0
341.218 4.6342 0
342.618 6.69344 0
341.485 8.91112 0
340.084 6.85186 0
341.351 6.77272 0
342.485 4.55494 0
345.018 4.39599 0
345.286 8.67283 0
342.752 8.83183 0
343.752 4.47553 0
345.152 6.53447 0
344.019 8.7524 0
342.618 6.69344 0
343.885 6.61403 0
345.018 4.39599 0
347.552 4.23649 0
347.821 8.51328 0
345.286 8.67283 0
346.285 4.31631 0
347.686 6.37494 0
346.554 8.59312 0
345.152 6.53447 0
346.419 6.45477 0
347.552 4.23649 0
350.085 4.07645 0
350.355 8.35318 0
347.821 8.51328 0
348.819 4.15653 0
350.22 6.21487 0
349.088 8.4333 0
347.686 6.37494 0
348.953 6.29497 0
350.085 4.07645 0
352.619 3.91587 0
352.89 8.19256 0
350.355 8.35318 0
351.352 3.99622 0
352.754 6.05427 0
351.622 8.27294 0
350.22 6.21487 0
351.487 6.13464 0
352.619 3.91587 0
355.152 3.75477 0
355.424 8.03141 0
352.89 8.19256 0
353.885 3.83538 0
355.288 5.89315 0
354.157 8.11205 0
352.754 6.05427 0
354.021 5.97377 0
355.152 3.75477 0
357.686 3.59315 0
357.958 7.86975 0
355.424 8.03141 0
356.419 3.67402 0
357.822 5.73151 0
356.691 7.95064 0
355.288 5.89315 0
356.555 5.81239 0
357.686 3.59315 0
360.219 3.43103 0
360.492 7.70758 0
357.958 7.86975 0
358.952 3.51215 0
360.356 5.56936 0
359.225 7.78873 0
357.822 5.73151 0
359.089 5.65049 0
360.219 3.43103 0
362.752 3.26841 0
363.026 7.54492 0
360.492 7.70758 0
361.485 3.34978 0
362.889 5.40672 0
361.759 7.62631 0
360.356 5.56936 0
361.622 5.4881 0
362.752 3.26841 0
365.285 3.10531 0
365.56 7.38176 0
363.026 7.54492 0
364.019 3.18692 0
365.423 5.24359 0
364.293 7.4634 0
362.889 5.40672 0
364.156 5.32521 0
365.285 3.10531 0
367.819 2.94172 0
368.094 7.21813 0
365.56 7.38176 0
366.552 3.02357 0
367.957 5.07998 0
366.827 7.30001 0
365.423 5.24359 0
366.69 5.16184 0
367.819 2.94172 0
370.352 2.77767 0
370.628 7.05404 0
368.094 7.21813 0
369.085 2.85975 0
370.49 4.9159 0
369.361 7.13614 0
367.957 5.07998 0
369.223 4.998 0
370.352 2.77767 0
372.885 2.61315 0
373.162 6.88948 0
370.628 7.05404 0
371.618 2.69546 0
373.024 4.75136 0
371.895 6.97181 0
370.49 4.9159 0
371.757 4.83369 0
372.885 2.61315 0
375.418 2.44818 0
375.696 6.72447 0
373.162 6.88948 0
374.151 2.53072 0
375.557 4.58637 0
374.429 6.80703 0
373.024 4.75136 0
374.29 4.66892 0
375.418 2.44818 0
377.951 2.28277 0
378.23 6.55902 0
375.696 6.72447 0
376.684 2.36553 0
378.09 4.42094 0
376.963 6.6418 0
375.557 4.58637 0
376.824 4.50371 0
377.951 2.28277 0
380.484 2.11693 0
380.764 6.39313 0
378.23 6.55902 0
379.218 2.1999 0
380.624 4.25508 0
379.497 6.47613 0
378.09 4.42094 0
379.357 4.33806 0
380.484 2.11693 0
383.017 1.95066 0
383.297 6.22683 0
380.764 6.39313 0
381.75 2.03384 0
383.157 4.08879 0
382.031 6.31003 0
380.624 4.25508 0
381.891 4.17198 0
383.017 1.95066 0
385.55 1.78397 0
385.831 6.0601 0
383.297 6.22683 0
384.283 1.86737 0
385.69 3.92208 0
384.564 6.14352 0
383.157 4.08879 0
384.424 4.00549 0
385.55 1.78397 0
388.083 1.61688 0
388.365 5.89298 0
385.831 6.0601 0
386.816 1.70048 0
388.224 3.75497 0
387.098 5.97659 0
385.69 3.92208 0
386.957 3.83858 0
388.083 1.61688 0
390.616 1.44939 0
390.898 5.72545 0
388.365 5.89298 0
389.349 1.53319 0
390.757 3.58747 0
389.631 5.80926 0
388.224 3.75497 0
389.49 3.67127 0
390.616 1.44939 0
393.149 1.28152 0
393.432 5.55754 0
390.898 5.72545 0
391.882 1.3655 0
393.29 3.41957 0
392.165 5.64154 0
390.757 3.58747 0
392.024 3.50357 0
393.149 1.28152 0
395.681 1.11326 0
395.965 5.38925 0
393.432 5.55754 0
394.415 1.19744 0
395.823 3.2513 0
394.698 5.47344 0
393.29 3.41957 0
394.557 3.33548 0
395.681 1.11326 0
398.214 0.944636 0
398.499 5.22059 0
395.965 5.38925 0
396.948 1.029 0
398.356 3.08265 0
397.232 5.30497 0
395.823 3.2513 0
397.09 3.16702 0
398.214 0.944636 0
400.747 0.775649 0
401.032 5.05157 0
398.499 5.22059 0
399.481 0.860187 0
400.889 2.91365 0
399.765 5.13613 0
398.356 3.08265 0
399.623 2.9982 0
400.747 0.775649 0
403.28 0.60631 0
403.565 4.8822 0
401.032 5.05157 0
402.013 0.691023 0
403.422 2.74429 0
402.299 4.96693 0
400.889 2.91365 0
402.156 2.82901 0
403.28 0.60631 0
405.812 0.436627 0
406.098 4.71249 0
403.565 4.8822 0
404.546 0.521511 0
405.955 2.57459 0
404.832 4.79739 0
403.422 2.74429 0
404.689 2.65949 0
405.812 0.436627 0
408.345 0.266611 0
408.632 4.54244 0
406.098 4.71249 0
407.079 0.35166 0
408.488 2.40456 0
407.365 4.62751 0
405.955 2.57459 0
407.222 2.48962 0
408.345 0.266611 0
410.878 0.096269 0
411.165 4.37207 0
408.632 4.54244 0
409.611 0.18148 0
411.021 2.23421 0
409.898 4.4573 0
408.488 2.40456 0
409.755 2.31942 0
410.878 0.096269 0
413.41 -0.0743886 0
413.698 4.20139 0
411.165 4.37207 0
412.144 0.0109791 0
413.554 2.06353 0
412.431 4.28677 0
411.021 2.23421 0
412.288 2.14891 0
413.41 -0.0743886 0
415.943 -0.245353 0
416.231 4.0304 0
413.698 4.20139 0
414.676 -0.159833 0
416.087 1.89255 0
414.964 4.11593 0
413.554 2.06353 0
414.82 1.97808 0
415.943 -0.245353 0
418.475 -0.416615 0
418.764 3.85911 0
416.231 4.0304 0
417.209 -0.330948 0
418.62 1.72128 0
417.498 3.94479 0
416.087 1.89255 0
417.353 1.80695 0
418.475 -0.416615 0
421.008 -0.588167 0
421.297 3.68753 0
418.764 3.85911 0
419.742 -0.502355 0
421.152 1.54971 0
420.031 3.77336 0
418.62 1.72128 0
419.886 1.63553 0
421.008 -0.588167 0
423.54 -0.759997 0
423.83 3.51568 0
421.297 3.68753 0
422.274 -0.674048 0
423.685 1.37787 0
422.564 3.60164 0
421.152 1.54971 0
422.419 1.46383 0
423.54 -0.759997 0
426.073 -0.932099 0
426.363 3.34355 0
423.83 3.51568 0
424.807 -0.846015 0
426.218 1.20576 0
425.096 3.42965 0
423.685 1.37787 0
424.951 1.29185 0
426.073 -0.932099 0
428.605 -1.10446 0
428.896 3.17117 0
426.363 3.34355 0
427.339 -1.01825 0
428.75 1.03338 0
427.629 3.25739 0
426.218 1.20576 0
427.484 1.1196 0
428.605 -1.10446 0
431.138 -1.27708 0
431.429 2.99853 0
428.896 3.17117 0
429.871 -1.19074 0
431.283 0.860753 0
430.162 3.08488 0
428.75 1.03338 0
430.017 0.947098 0
431.138 -1.27708 0
433.67 -1.44994 0
433.961 2.82565 0
431.429 2.99853 0
432.404 -1.36348 0
433.816 0.687883 0
432.695 2.91212 0
431.283 0.860753 0
432.549 0.774348 0
433.67 -1.44994 0
436.202 -1.62303 0
436.494 2.65254 0
433.961 2.82565 0
434.936 -1.53646 0
436.348 0.514778 0
435.228 2.73912 0
433.816 0.687883 0
435.082 0.601359 0
436.202 -1.62303 0
438.735 -1.79635 0
439.027 2.4792 0
436.494 2.65254 0
437.469 -1.70966 0
438.881 0.341449 0
437.761 2.5659 0
436.348 0.514778 0
437.615 0.428141 0
438.735 -1.79635 0
441.267 -1.96989 0
441.56 2.30565 0
439.027 2.4792 0
440.001 -1.88309 0
441.413 0.167903 0
440.293 2.39245 0
438.881 0.341449 0
440.147 0.254702 0
441.267 -1.96989 0
443.799 -2.14363 0
444.092 2.13189 0
441.56 2.30565 0
442.533 -2.05673 0
443.946 -0.0058493 0
442.826 2.21879 0
441.413 0.167903 0
442.68 0.0810522 0
443.799 -2.14363 0
446.332 -2.31757 0
446.625 1.95793 0
444.092 2.13189 0
445.065 -2.23058 0
446.478 -0.1798 0
445.359 2.04493 0
443.946 -0.0058493 0
445.212 -0.0928003 0
446.332 -2.31757 0
448.864 -2.4917 0
449.157 1.78379 0
446.625 1.95793 0
447.598 -2.40462 0
449.011 -0.353939 0
447.891 1.87088 0
446.478 -0.1798 0
447.744 -0.266846 0
448.864 -2.4917 0
451.396 -2.66602 0
451.69 1.60946 0
449.157 1.78379 0
450.13 -2.57884 0
451.543 -0.528257 0
450.424 1.69665 0
449.011 -0.353939 0
450.277 -0.441076 0
451.396 -2.66602 0
453.928 -2.8405 0
454.222 1.43497 0
451.69 1.60946 0
452.662 -2.75324 0
454.075 -0.702747 0
452.956 1.52224 0
451.543 -0.528257 0
452.809 -0.615481 0
453.928 -2.8405 0
456.461 -3.01514 0
456.755 1.26031 0
454.222 1.43497 0
455.194 -2.9278 0
456.608 -0.877398 0
455.489 1.34766 0
454.075 -0.702747 0
455.342 -0.790053 0
456.461 -3.01514 0
458.993 -3.18994 0
459.287 1.08551 0
456.755 1.26031 0
457.727 -3.10252 0
459.14 -1.0522 0
458.021 1.17293 0
456.608 -0.877398 0
457.874 -0.964782 0
458.993 -3.18994 0
461.525 -3.36488 0
461.82 0.910554 0
459.287 1.08551 0
460.259 -3.2774 0
461.672 -1.22715 0
460.554 0.998047 0
459.14 -1.0522 0
460.406 -1.13966 0
461.525 -3.36488 0
464.057 -3.53996 0
464.352 0.73547 0
461.82 0.910554 0
462.791 -3.45241 0
464.205 -1.40223 0
463.086 0.823028 0
461.672 -1.22715 0
462.938 -1.31467 0
464.057 -3.53996 0
466.589 -3.71517 0
466.884 0.56026 0
464.352 0.73547 0
465.323 -3.62755 0
466.737 -1.57744 0
465.618 0.64788 0
464.205 -1.40223 0
465.471 -1.48982 0
466.589 -3.71517 0
469.121 -3.89049 0
469.417 0.384934 0
466.884 0.56026 0
467.855 -3.80281 0
469.269 -1.75276 0
468.151 0.472611 0
466.737 -1.57744 0
468.003 -1.66509 0
469.121 -3.89049 0
471.653 -4.06591 0
471.949 0.209502 0
469.417 0.384934 0
470.387 -3.97819 0
471.801 -1.92819 0
470.683 0.297231 0
469.269 -1.75276 0
470.535 -1.84047 0
471.653 -4.06591 0
474.185 -4.24144 0
474.481 0.0339715 0
471.949 0.209502 0
472.919 -4.15367 0
474.333 -2.10372 0
473.215 0.121748 0
471.801 -1.92819 0
473.067 -2.01595 0
474.185 -4.24144 0
476.717 -4.41706 0
477.013 -0.141648 0
474.481 0.0339715 0
475.451 -4.32924 0
476.865 -2.27934 0
475.747 -0.0538275 0
474.333 -2.10372 0
475.599 -2.19152 0
476.717 -4.41706 0
479.25 -4.59276 0
479.546 -0.317347 0
477.013 -0.141648 0
477.984 -4.5049 0
479.398 -2.45505 0
478.28 -0.229488 0
476.865 -2.27934 0
478.132 -2.36719 0
479.25 -4.59276 0
481.782 -4.76853 0
482.078 -0.493117 0
479.546 -0.317347 0
480.516 -4.68064 0
481.93 -2.63082 0
480.812 -0.405223 0
479.398 -2.45505 0
480.664 -2.54292 0
481.782 -4.76853 0
484.314 -4.94437 0
484.61 -0.66895 0
482.078 -0.493117 0
483.048 -4.85645 0
484.462 -2.80666 0
483.344 -0.581026 0
481.93 -2.63082 0
483.196 -2.71873 0
484.314 -4.94437 0
486.846 -5.12027 0
487.142 -0.844837 0
484.61 -0.66895 0
485.58 -5.03231 0
486.994 -2.98255 0
485.876 -0.756887 0
484.462 -2.80666 0
485.728 -2.89459 0
486.846 -5.12027 0
489.378 -5.29621 0
489.674 -1.02077 0
487.142 -0.844837 0
488.112 -5.20823 0
489.526 -3.15849 0
488.408 -0.932799 0
486.994 -2.98255 0
488.26 -3.07051 0
489.378 -5.29621 0
491.91 -5.47218 0
492.206 -1.19675 0
489.674 -1.02077 0
490.644 -5.38419 0
492.058 -3.33446 0
490.94 -1.10876 0
489.526 -3.15849 0
490.792 -3.24647 0
491.91 -5.47218 0
494.442 -5.64815 0
494.738 -1.37276 0
492.206 -1.19675 0
493.176 -5.56016 0
494.59 -3.51045 0
493.472 -1.28475 0
492.058 -3.33446 0
493.324 -3.42245 0
494.442 -5.64815 0
496.974 -5.82408 0
497.27 -1.54876 0
494.738 -1.37276 0
495.708 -5.73612 0
497.122 -3.68641 0
496.004 -1.46076 0
494.59 -3.51045 0
495.856 -3.59843 0
496.974 -5.82408 0
499.506 -5.99992 0
499.802 -1.72469 0
497.27 -1.54876 0
498.24 -5.91202 0
499.654 -3.86228 0
498.536 -1.63674 0
497.122 -3.68641 0
498.388 -3.77436 0
0 21.4286 0
2.54204 21.4281 0
2.54492 25.7123 0
0 25.7143 0
1.27096 21.4287 0
2.54343 23.5704 0
1.27236 25.7136 0
0 23.5714 0
1.27167 23.5712 0
2.54204 21.4281 0
5.08439 21.4254 0
5.0904 25.7086 0
2.54492 25.7123 0
3.81319 21.4271 0
5.08729 23.5673 0
3.81762 25.7107 0
2.54343 23.5704 0
3.81531 23.5691 0
5.08439 21.4254 0
7.62691 21.4208 0
7.63595 25.7036 0
5.0904 25.7086 0
6.35564 21.4233 0
7.63134 23.5624 0
6.36318 25.7063 0
5.08729 23.5673 0
6.35931 23.565 0
7.62691 21.4208 0
10.1695 21.4143 0
10.1815 25.697 0
7.63595 25.7036 0
8.89819 21.4178 0
10.1754 23.5558 0
8.90871 25.7005 0
7.63134 23.5624 0
8.90337 23.5593 0
10.1695 21.4143 0
12.712 21.4061 0
12.7269 25.6887 0
10.1815 25.697 0
11.4407 21.4104 0
12.7194 23.5476 0
11.4542 25.6931 0
10.1754 23.5558 0
11.4474 23.5519 0
12.712 21.4061 0
15.2545 21.3961 0
15.2723 25.6788 0
12.7269 25.6887 0
13.9833 21.4013 0
15.2634 23.5377 0
13.9996 25.684 0
12.7194 23.5476 0
13.9914 23.5428 0
15.2545 21.3961 0
17.7969 21.3845 0
17.8176 25.6671 0
15.2723 25.6788 0
16.5257 21.3905 0
17.8072 23.526 0
16.5449 25.6732 0
15.2634 23.5377 0
16.5353 23.532 0
17.7969 21.3845 0
20.3393 21.3711 0
20.3629 25.6538 0
17.8176 25.6671 0
19.0681 21.378 0
20.3511 23.5126 0
19.0902 25.6607 0
17.8072 23.526 0
19.0792 23.5195 0
20.3393 21.3711 0
22.8817 21.356 0
22.9081 25.6387 0
20.3629 25.6538 0
21.6105 21.3638 0
22.8949 23.4975 0
21.6355 25.6464 0
20.3511 23.5126 0
21.623 23.5053 0
22.8817 21.356 0
25.424 21.3392 0
25.4533 25.6219 0
22.9081 25.6387 0
24.1529 21.3478 0
25.4386 23.4807 0
24.1807 25.6305 0
22.8949 23.4975 0
24.1668 23.4893 0
25.424 21.3392 0
27.9663 21.3207 0
27.9984 25.6034 0
25.4533 25.6219 0
26.6952 21.3301 0
27.9823 23.4622 0
26.7259 25.6128 0
25.4386 23.4807 0
26.7105 23.4717 0
27.9663 21.3207 0
30.5085 21.3005 0
30.5435 25.5832 0
27.9984 25.6034 0
29.2374 21.3108 0
30.526 23.442 0
29.271 25.5935 0
27.9823 23.4622 0
29.2542 23.4523 0
30.5085 21.3005 0
33.0507 21.2786 0
33.0885 25.5613 0
30.5435 25.5832 0
31.7796 21.2898 0
33.0696 23.4201 0
31.816 25.5724 0
30.526 23.442 0
31.7978 23.4313 0
33.0507 21.2786 0
35.5929 21.2551 0
35.6335 25.5377 0
33.0885 25.5613 0
34.3218 21.2671 0
35.6132 23.3966 0
34.361 25.5497 0
33.0696 23.4201 0
34.3414 23.4086 0
35.5929 21.2551 0
38.135 21.2299 0
38.1784 25.5125 0
35.6335 25.5377 0
36.864 21.2427 0
38.1567 23.3714 0
36.906 25.5253 0
35.6132 23.3966 0
36.8849 23.3842 0
38.135 21.2299 0
40.6771 21.203 0
40.7233 25.4856 0
38.1784 25.5125 0
39.4061 21.2166 0
40.7002 23.3445 0
39.4509 25.4993 0
38.1567 23.3714 0
39.4284 23.3581 0
40.6771 21.203 0
43.2192 21.1745 0
43.2681 25.4571 0
40.7233 25.4856 0
41.9481 21.189 0
43.2436 23.316 0
41.9957 25.4716 0
40.7002 23.3445 0
41.9719 23.3304 0
43.2192 21.1745 0
45.7612 21.1444 0
45.8128 25.427 0
43.2681 25.4571 0
44.4902 21.1596 0
45.787 23.2858 0
44.5405 25.4423 0
43.2436 23.316 0
44.5153 23.3011 0
45.7612 21.1444 0
48.3031 21.1126 0
48.3575 25.3952 0
45.8128 25.427 0
47.0321 21.1287 0
48.3303 23.2541 0
47.0852 25.4113 0
45.787 23.2858 0
47.0586 23.2702 0
48.3031 21.1126 0
50.845 21.0792 0
50.9022 25.3618 0
48.3575 25.3952 0
49.5741 21.0961 0
50.8736 23.2207 0
49.6299 25.3787 0
48.3303 23.2541 0
49.6019 23.2376 0
50.845 21.0792 0
53.3869 21.0442 0
53.4467 25.3268 0
50.9022 25.3618 0
52.116 21.0619 0
53.4168 23.1857 0
52.1745 25.3445 0
50.8736 23.2207 0
52.1452 23.2034 0
53.3869 21.0442 0
55.9287 21.0076 0
55.9913 25.2902 0
53.4467 25.3268 0
54.6578 21.0261 0
55.96 23.1491 0
54.719 25.3087 0
53.4168 23.1857 0
54.6884 23.1676 0
55.9287 21.0076 0
58.4705 20.9695 0
58.5357 25.252 0
55.9913 25.2902 0
57.1996 20.9887 0
58.5031 23.1109 0
57.2635 25.2713 0
55.96 23.1491 0
57.2315 23.1302 0
58.4705 20.9695 0
61.0123 20.9297 0
61.0801 25.2122 0
58.5357 25.252 0
59.7414 20.9498 0
61.0462 23.0711 0
59.8079 25.2323 0
58.5031 23.1109 0
59.7746 23.0912 0
61.0123 20.9297 0
63.5539 20.8884 0
63.6244 25.1708 0
61.0801 25.2122 0
62.2831 20.9092 0
63.5892 23.0298 0
62.3523 25.1917 0
61.0462 23.0711 0
62.3177 23.0506 0
63.5539 20.8884 0
66.0956 20.8455 0
66.1687 25.1279 0
63.6244 25.1708 0
64.8248 20.8671 0
66.1321 22.9869 0
64.8966 25.1496 0
63.5892 23.0298 0
64.8606 23.0085 0
66.0956 20.8455 0
68.6372 20.801 0
68.7129 25.0834 0
66.1687 25.1279 0
67.3664 20.8234 0
68.675 22.9424 0
67.4408 25.1059 0
66.1321 22.9869 0
67.4036 22.9648 0
68.6372 20.801 0
71.1787 20.755 0
71.257 25.0374 0
68.7129 25.0834 0
69.9079 20.7782 0
71.2178 22.8964 0
69.985 25.0606 0
68.675 22.9424 0
69.9464 22.9196 0
71.1787 20.755 0
73.7202 20.7075 0
73.8011 24.9899 0
71.257 25.0374 0
72.4495 20.7315 0
73.7606 22.8488 0
72.5291 25.0138 0
71.2178 22.8964 0
72.4892 22.8728 0
73.7202 20.7075 0
76.2616 20.6585 0
76.3451 24.9408 0
73.8011 24.9899 0
74.9909 20.6832 0
76.3033 22.7998 0
75.0731 24.9655 0
73.7606 22.8488 0
75.032 22.8245 0
76.2616 20.6585 0
78.803 20.6079 0
78.889 24.8902 0
76.3451 24.9408 0
77.5323 20.6334 0
78.846 22.7492 0
77.6171 24.9157 0
76.3033 22.7998 0
77.5747 22.7747 0
78.803 20.6079 0
81.3443 20.5558 0
81.4329 24.8381 0
78.889 24.8902 0
80.0737 20.5821 0
81.3886 22.6971 0
80.161 24.8643 0
78.846 22.7492 0
80.1173 22.7233 0
81.3443 20.5558 0
83.8856 20.5023 0
83.9767 24.7845 0
81.4329 24.8381 0
82.615 20.5292 0
83.9311 22.6435 0
82.7048 24.8115 0
81.3886 22.6971 0
82.6599 22.6705 0
83.8856 20.5023 0
86.4268 20.4472 0
86.5204 24.7294 0
83.9767 24.7845 0
85.1562 20.4749 0
86.4736 22.5884 0
85.2485 24.7571 0
83.9311 22.6435 0
85.2024 22.6162 0
86.4268 20.4472 0
88.968 20.3907 0
89.064 24.6728 0
86.5204 24.7294 0
87.6974 20.4191 0
89.016 22.5319 0
87.7922 24.7013 0
86.4736 22.5884 0
87.7448 22.5604 0
88.968 20.3907 0
91.5091 20.3327 0
91.6076 24.6147 0
89.064 24.6728 0
90.2386 20.3619 0
91.5584 22.4739 0
90.3358 24.6439 0
89.016 22.5319 0
90.2872 22.5031 0
91.5091 20.3327 0
94.0502 20.2732 0
94.1511 24.5552 0
91.6076 24.6147 0
92.7797 20.3031 0
94.1006 22.4144 0
92.8794 24.5852 0
91.5584 22.4739 0
92.8295 22.4443 0
94.0502 20.2732 0
96.5912 20.2123 0
96.6946 24.4943 0
94.1511 24.5552 0
95.3207 20.2429 0
96.6428 22.3534 0
95.4229 24.5249 0
94.1006 22.4144 0
95.3717 22.3841 0
96.5912 20.2123 0
99.1321 20.1499 0
99.2379 24.4319 0
96.6946 24.4943 0
97.8616 20.1813 0
99.185 22.291 0
97.9663 24.4632 0
96.6428 22.3534 0
97.9139 22.3224 0
99.1321 20.1499 0
101.673 20.0861 0
101.781 24.368 0
99.2379 24.4319 0
100.403 20.1182 0
101.727 22.2272 0
100.51 24.4001 0
99.185 22.291 0
100.456 22.2593 0
101.673 20.0861 0
104.214 20.0209 0
104.324 24.3028 0
101.781 24.368 0
102.943 20.0537 0
104.269 22.162 0
103.053 24.3356 0
101.727 22.2272 0
102.998 22.1948 0
104.214 20.0209 0
106.755 19.9543 0
106.868 24.2361 0
104.324 24.3028 0
105.484 19.9878 0
106.811 22.0953 0
105.596 24.2696 0
104.269 22.162 0
105.54 22.1288 0
106.755 19.9543 0
109.295 19.8862 0
109.411 24.168 0
106.868 24.2361 0
108.025 19.9204 0
109.353 22.0272 0
108.139 24.2022 0
106.811 22.0953 0
108.082 22.0615 0
109.295 19.8862 0
111.836 19.8168 0
111.954 24.0985 0
109.411 24.168 0
110.566 19.8517 0
111.895 21.9578 0
110.682 24.1334 0
109.353 22.0272 0
110.624 21.9927 0
111.836 19.8168 0
114.376 19.7459 0
114.497 24.0276 0
111.954 24.0985 0
113.106 19.7815 0
114.437 21.8869 0
113.225 24.0632 0
111.895 21.9578 0
113.166 21.9225 0
114.376 19.7459 0
116.917 19.6737 0
117.039 23.9553 0
114.497 24.0276 0
115.647 19.71 0
116.978 21.8147 0
115.768 23.9916 0
114.437 21.8869 0
115.707 21.851 0
116.917 19.6737 0
119.457 19.6002 0
119.582 23.8817 0
117.039 23.9553 0
118.187 19.6371 0
119.52 21.7411 0
118.311 23.9187 0
116.978 21.8147 0
118.249 21.7781 0
119.457 19.6002 0
121.998 19.5252 0
122.125 23.8067 0
119.582 23.8817 0
120.728 19.5629 0
122.061 21.6661 0
120.853 23.8444 0
119.52 21.7411 0
120.791 21.7038 0
121.998 19.5252 0
124.538 19.4489 0
124.667 23.7304 0
122.125 23.8067 0
123.268 19.4872 0
124.603 21.5898 0
123.396 23.7687 0
122.061 21.6661 0
123.332 21.6281 0
124.538 19.4489 0
127.078 19.3713 0
127.21 23.6527 0
124.667 23.7304 0
125.808 19.4103 0
127.144 21.5121 0
125.939 23.6917 0
124.603 21.5898 0
125.873 21.5511 0
127.078 19.3713 0
129.619 19.2923 0
129.752 23.5737 0
127.21 23.6527 0
128.349 19.332 0
129.686 21.4331 0
128.481 23.6133 0
127.144 21.5121 0
128.415 21.4728 0
129.619 19.2923 0
132.159 19.212 0
132.295 23.4933 0
129.752 23.5737 0
130.889 19.2523 0
132.227 21.3528 0
131.024 23.5337 0
129.686 21.4331 0
130.956 21.3931 0
132.159 19.212 0
134.699 19.1304 0
134.837 23.4117 0
132.295 23.4933 0
133.429 19.1714 0
134.768 21.2712 0
133.566 23.4527 0
132.227 21.3528 0
133.497 21.3122 0
134.699 19.1304 0
137.239 19.0475 0
137.379 23.3287 0
134.837 23.4117 0
135.969 19.0891 0
137.309 21.1882 0
136.108 23.3703 0
134.768 21.2712 0
136.039 21.2299 0
137.239 19.0475 0
139.779 18.9633 0
139.921 23.2444 0
137.379 23.3287 0
138.509 19.0056 0
139.85 21.104 0
138.65 23.2867 0
137.309 21.1882 0
138.58 21.1463 0
139.779 18.9633 0
142.319 18.8778 0
142.463 23.1589 0
139.921 23.2444 0
141.049 18.9207 0
142.391 21.0185 0
141.192 23.2018 0
139.85 21.104 0
141.121 21.0614 0
142.319 18.8778 0
144.859 18.791 0
145.005 23.072 0
142.463 23.1589 0
143.589 18.8346 0
144.932 20.9317 0
143.734 23.1156 0
142.391 21.0185 0
143.661 20.9752 0
144.859 18.791 0
147.398 18.703 0
147.547 22.9839 0
145.005 23.072 0
146.128 18.7472 0
147.473 20.8436 0
146.276 23.0281 0
144.932 20.9317 0
146.202 20.8878 0
147.398 18.703 0
149.938 18.6137 0
150.089 22.8946 0
147.547 22.9839 0
148.668 18.6585 0
150.013 20.7542 0
148.818 22.9394 0
147.473 20.8436 0
148.743 20.7991 0
149.938 18.6137 0
152.478 18.5231 0
152.631 22.8039 0
150.089 22.8946 0
151.208 18.5685 0
152.554 20.6637 0
151.36 22.8494 0
150.013 20.7542 0
151.284 20.7091 0
152.478 18.5231 0
155.017 18.4313 0
155.172 22.7121 0
152.631 22.8039 0
153.747 18.4774 0
155.095 20.5718 0
153.902 22.7582 0
152.554 20.6637 0
153.824 20.6179 0
155.017 18.4313 0
157.557 18.3383 0
157.714 22.619 0
155.172 22.7121 0
156.287 18.3849 0
157.635 20.4788 0
156.443 22.6657 0
155.095 20.5718 0
156.365 20.5254 0
157.557 18.3383 0
160.096 18.244 0
160.255 22.5247 0
157.714 22.619 0
158.826 18.2913 0
160.176 20.3845 0
158.985 22.572 0
157.635 20.4788 0
158.905 20.4318 0
160.096 18.244 0
162.635 18.1485 0
162.797 22.4291 0
160.255 22.5247 0
161.366 18.1964 0
162.716 20.289 0
161.526 22.4771 0
160.176 20.3845 0
161.446 20.3369 0
162.635 18.1485 0
165.175 18.0519 0
165.338 22.3324 0
162.797 22.4291 0
163.905 18.1004 0
165.256 20.1923 0
164.067 22.3809 0
162.716 20.289 0
163.986 20.2408 0
165.175 18.0519 0
167.714 17.954 0
167.879 22.2345 0
165.338 22.3324 0
166.444 18.0031 0
167.797 20.0944 0
166.609 22.2836 0
165.256 20.1923 0
166.526 20.1435 0
167.714 17.954 0
170.253 17.8549 0
170.42 22.1353 0
167.879 22.2345 0
168.983 17.9046 0
170.337 19.9953 0
169.15 22.185 0
167.797 20.0944 0
169.067 20.045 0
170.253 17.8549 0
172.792 17.7547 0
172.961 22.035 0
170.42 22.1353 0
171.522 17.805 0
172.877 19.895 0
171.691 22.0853 0
170.337 19.9953 0
171.607 19.9453 0
172.792 17.7547 0
175.331 17.6533 0
175.502 21.9336 0
172.961 22.035 0
174.061 17.7041 0
175.417 19.7935 0
174.232 21.9844 0
172.877 19.895 0
174.147 19.8444 0
175.331 17.6533 0
177.87 17.5507 0
178.043 21.8309 0
175.502 21.9336 0
176.6 17.6021 0
177.957 19.6909 0
176.773 21.8824 0
175.417 19.7935 0
176.687 19.7424 0
177.87 17.5507 0
180.409 17.447 0
180.584 21.7272 0
178.043 21.8309 0
179.139 17.499 0
180.496 19.5872 0
179.314 21.7792 0
177.957 19.6909 0
179.227 19.6392 0
180.409 17.447 0
182.948 17.3421 0
183.125 21.6222 0
180.584 21.7272 0
181.678 17.3947 0
183.036 19.4823 0
181.854 21.6748 0
180.496 19.5872 0
181.766 19.5349 0
182.948 17.3421 0
185.486 17.2361 0
185.665 21.5162 0
183.125 21.6222 0
184.217 17.2893 0
185.576 19.3763 0
184.395 21.5693 0
183.036 19.4823 0
184.306 19.4294 0
185.486 17.2361 0
188.025 17.129 0
188.206 21.409 0
185.665 21.5162 0
186.756 17.1827 0
188.115 19.2691 0
186.936 21.4627 0
185.576 19.3763 0
186.846 19.3228 0
188.025 17.129 0
190.563 17.0208 0
190.746 21.3007 0
188.206 21.409 0
189.294 17.075 0
190.655 19.1609 0
189.476 21.355 0
188.115 19.2691 0
189.385 19.2151 0
190.563 17.0208 0
193.102 16.9114 0
193.287 21.1913 0
190.746 21.3007 0
191.833 16.9663 0
193.194 19.0515 0
192.017 21.2461 0
190.655 19.1609 0
191.925 19.1063 0
193.102 16.9114 0
195.64 16.801 0
195.827 21.0808 0
193.287 21.1913 0
194.371 16.8564 0
195.734 18.941 0
194.557 21.1362 0
193.194 19.0515 0
194.464 18.9964 0
195.64 16.801 0
198.179 16.6895 0
198.367 20.9692 0
195.827 21.0808 0
196.91 16.7454 0
198.273 18.8295 0
197.097 21.0251 0
195.734 18.941 0
197.003 18.8854 0
198.179 16.6895 0
200.717 16.5769 0
200.907 20.8565 0
198.367 20.9692 0
199.448 16.6333 0
200.812 18.7168 0
199.637 20.913 0
198.273 18.8295 0
199.543 18.7733 0
200.717 16.5769 0
203.255 16.4632 0
203.447 20.7428 0
200.907 20.8565 0
201.986 16.5202 0
203.351 18.6031 0
202.177 20.7998 0
200.812 18.7168 0
202.082 18.6601 0
203.255 16.4632 0
205.793 16.3485 0
205.987 20.628 0
203.447 20.7428 0
204.524 16.406 0
205.89 18.4884 0
204.717 20.6855 0
203.351 18.6031 0
204.621 18.5459 0
205.793 16.3485 0
208.332 16.2327 0
208.527 20.5122 0
205.987 20.628 0
207.063 16.2907 0
208.429 18.3726 0
207.257 20.5702 0
205.89 18.4884 0
207.16 18.4306 0
208.332 16.2327 0
210.87 16.1159 0
211.067 20.3953 0
208.527 20.5122 0
209.601 16.1744 0
210.968 18.2557 0
209.797 20.4539 0
208.429 18.3726 0
209.699 18.3143 0
210.87 16.1159 0
213.407 15.998 0
213.607 20.2774 0
211.067 20.3953 0
212.139 16.0571 0
213.507 18.1378 0
212.337 20.3365 0
210.968 18.2557 0
212.238 18.1969 0
213.407 15.998 0
215.945 15.8792 0
216.146 20.1584 0
213.607 20.2774 0
214.676 15.9387 0
216.046 18.0189 0
214.876 20.218 0
213.507 18.1378 0
214.776 18.0785 0
215.945 15.8792 0
218.483 15.7593 0
218.686 20.0385 0
216.146 20.1584 0
217.214 15.8194 0
218.584 17.899 0
217.416 20.0986 0
216.046 18.0189 0
217.315 17.9591 0
218.483 15.7593 0
221.021 15.6384 0
221.225 19.9175 0
218.686 20.0385 0
219.752 15.699 0
221.123 17.7781 0
219.955 19.9781 0
218.584 17.899 0
219.854 17.8386 0
221.021 15.6384 0
223.559 15.5165 0
223.764 19.7956 0
221.225 19.9175 0
222.29 15.5776 0
223.661 17.6561 0
222.495 19.8567 0
221.123 17.7781 0
222.392 17.7172 0
223.559 15.5165 0
226.096 15.3936 0
226.304 19.6726 0
223.764 19.7956 0
224.827 15.4552 0
226.2 17.5332 0
225.034 19.7342 0
223.661 17.6561 0
224.931 17.5948 0
226.096 15.3936 0
228.634 15.2698 0
228.843 19.5487 0
226.304 19.6726 0
227.365 15.3318 0
228.738 17.4093 0
227.573 19.6108 0
226.2 17.5332 0
227.469 17.4714 0
228.634 15.2698 0
231.171 15.1449 0
231.382 19.4238 0
228.843 19.5487 0
229.902 15.2075 0
231.277 17.2845 0
230.112 19.4864 0
228.738 17.4093 0
230.007 17.347 0
231.171 15.1449 0
233.708 15.0192 0
233.921 19.298 0
231.382 19.4238 0
232.44 15.0822 0
233.815 17.1587 0
232.651 19.361 0
231.277 17.2845 0
232.546 17.2217 0
233.708 15.0192 0
236.246 14.8924 0
236.46 19.1712 0
233.921 19.298 0
234.977 14.9559 0
236.353 17.0319 0
235.19 19.2347 0
233.815 17.1587 0
235.084 17.0954 0
236.246 14.8924 0
238.783 14.7647 0
238.999 19.0434 0
236.46 19.1712 0
237.514 14.8287 0
238.891 16.9042 0
237.729 19.1074 0
236.353 17.0319 0
237.622 16.9682 0
238.783 14.7647 0
241.32 14.6361 0
241.537 18.9148 0
238.999 19.0434 0
240.052 14.7006 0
241.429 16.7755 0
240.268 18.9792 0
238.891 16.9042 0
240.16 16.84 0
241.32 14.6361 0
243.857 14.5066 0
244.076 18.7852 0
241.537 18.9148 0
242.589 14.5715 0
243.967 16.646 0
242.807 18.8501 0
241.429 16.7755 0
242.698 16.7109 0
243.857 14.5066 0
246.394 14.3762 0
246.615 18.6547 0
244.076 18.7852 0
245.126 14.4415 0
246.504 16.5155 0
245.345 18.72 0
243.967 16.646 0
245.236 16.5809 0
246.394 14.3762 0
248.931 14.2448 0
249.153 18.5232 0
246.615 18.6547 0
247.663 14.3106 0
249.042 16.3841 0
247.884 18.5891 0
246.504 16.5155 0
247.773 16.4499 0
248.931 14.2448 0
251.468 14.1126 0
251.691 18.3909 0
249.153 18.5232 0
250.2 14.1788 0
251.58 16.2518 0
250.422 18.4572 0
249.042 16.3841 0
250.311 16.3181 0
251.468 14.1126 0
254.005 13.9794 0
254.23 18.2577 0
251.691 18.3909 0
252.737 14.0461 0
254.117 16.1187 0
252.961 18.3244 0
251.58 16.2518 0
252.849 16.1854 0
254.005 13.9794 0
256.542 13.8454 0
256.768 18.1237 0
254.23 18.2577 0
255.273 13.9125 0
256.655 15.9846 0
255.499 18.1908 0
254.117 16.1187 0
255.386 16.0518 0
256.542 13.8454 0
259.078 13.7105 0
259.306 17.9887 0
256.768 18.1237 0
257.81 13.7781 0
259.192 15.8497 0
258.037 18.0563 0
256.655 15.9846 0
257.924 15.9173 0
259.078 13.7105 0
261.615 13.5748 0
261.844 17.8529 0
259.306 17.9887 0
260.347 13.6428 0
261.73 15.714 0
260.575 17.9209 0
259.192 15.8497 0
260.461 15.782 0
261.615 13.5748 0
264.152 13.4382 0
264.382 17.7163 0
261.844 17.8529 0
262.883 13.5066 0
264.267 15.5773 0
263.113 17.7847 0
261.73 15.714 0
262.998 15.6458 0
264.152 13.4382 0
266.688 13.3008 0
266.92 17.5788 0
264.382 17.7163 0
265.42 13.3696 0
266.804 15.4399 0
265.651 17.6476 0
264.267 15.5773 0
265.535 15.5087 0
266.688 13.3008 0
269.224 13.1625 0
269.458 17.4405 0
266.92 17.5788 0
267.956 13.2318 0
269.341 15.3016 0
268.189 17.5097 0
266.804 15.4399 0
268.073 15.3708 0
269.224 13.1625 0
271.761 13.0234 0
271.996 17.3013 0
269.458 17.4405 0
270.493 13.0931 0
271.878 15.1625 0
270.727 17.371 0
269.341 15.3016 0
270.61 15.2321 0
271.761 13.0234 0
274.297 12.8835 0
274.533 17.1614 0
271.996 17.3013 0
273.029 12.9536 0
274.415 15.0225 0
273.264 17.2314 0
271.878 15.1625 0
273.147 15.0926 0
274.297 12.8835 0
276.833 12.7428 0
277.071 17.0206 0
274.533 17.1614 0
275.565 12.8133 0
276.952 14.8818 0
275.802 17.0911 0
274.415 15.0225 0
275.684 14.9523 0
276.833 12.7428 0
279.369 12.6013 0
279.608 16.879 0
277.071 17.0206 0
278.101 12.6722 0
279.489 14.7403 0
278.34 16.9499 0
276.952 14.8818 0
278.22 14.8111 0
279.369 12.6013 0
281.906 12.4591 0
282.146 16.7367 0
279.608 16.879 0
280.637 12.5303 0
282.026 14.598 0
280.877 16.808 0
279.489 14.7403 0
280.757 14.6692 0
281.906 12.4591 0
284.442 12.316 0
284.683 16.5936 0
282.146 16.7367 0
283.174 12.3876 0
284.562 14.4549 0
283.414 16.6652 0
282.026 14.598 0
283.294 14.5265 0
284.442 12.316 0
286.977 12.1722 0
287.22 16.4497 0
284.683 16.5936 0
285.709 12.2442 0
287.099 14.311 0
285.952 16.5217 0
284.562 14.4549 0
285.831 14.383 0
286.977 12.1722 0
289.513 12.0276 0
289.757 16.305 0
287.22 16.4497 0
288.245 12.1 0
289.635 14.1664 0
288.489 16.3775 0
287.099 14.311 0
288.367 14.2388 0
289.513 12.0276 0
292.049 11.8822 0
292.294 16.1596 0
289.757 16.305 0
290.781 11.955 0
292.172 14.021 0
291.026 16.2324 0
289.635 14.1664 0
290.904 14.0938 0
292.049 11.8822 0
294.585 11.7362 0
294.831 16.0135 0
292.294 16.1596 0
293.317 11.8093 0
294.708 13.8749 0
293.563 16.0867 0
292.172 14.021 0
293.44 13.9481 0
294.585 11.7362 0
297.121 11.5893 0
297.368 15.8666 0
294.831 16.0135 0
295.853 11.6628 0
297.244 13.7281 0
296.1 15.9402 0
294.708 13.8749 0
295.976 13.8016 0
297.121 11.5893 0
299.656 11.4418 0
299.905 15.719 0
297.368 15.8666 0
298.388 11.5157 0
299.781 13.5805 0
298.637 15.7929 0
297.244 13.7281 0
298.513 13.6544 0
299.656 11.4418 0
302.192 11.2935 0
302.442 15.5707 0
299.905 15.719 0
300.924 11.3678 0
302.317 13.4322 0
301.174 15.645 0
299.781 13.5805 0
301.049 13.5064 0
302.192 11.2935 0
304.727 11.1446 0
304.979 15.4217 0
302.442 15.5707 0
303.459 11.2192 0
304.853 13.2832 0
303.71 15.4963 0
302.317 13.4322 0
303.585 13.3578 0
304.727 11.1446 0
307.263 10.9949 0
307.515 15.272 0
304.979 15.4217 0
305.995 11.0699 0
307.389 13.1336 0
306.247 15.347 0
304.853 13.2832 0
306.121 13.2085 0
307.263 10.9949 0
309.798 10.8446 0
310.052 15.1216 0
307.515 15.272 0
308.53 10.9199 0
309.925 12.9832 0
308.783 15.1969 0
307.389 13.1336 0
308.657 13.0585 0
309.798 10.8446 0
312.333 10.6936 0
312.588 14.9706 0
310.052 15.1216 0
311.066 10.7692 0
312.461 12.8321 0
311.32 15.0462 0
309.925 12.9832 0
311.193 12.9077 0
312.333 10.6936 0
314.868 10.5419 0
315.124 14.8188 0
312.588 14.9706 0
313.601 10.6178 0
314.996 12.6804 0
313.856 14.8948 0
312.461 12.8321 0
313.729 12.7564 0
314.868 10.5419 0
317.404 10.3896 0
317.661 14.6664 0
315.124 14.8188 0
316.136 10.4658 0
317.532 12.5281 0
316.393 14.7427 0
314.996 12.6804 0
316.264 12.6043 0
317.404 10.3896 0
319.939 10.2366 0
320.197 14.5134 0
317.661 14.6664 0
318.671 10.3131 0
320.068 12.375 0
318.929 14.59 0
317.532 12.5281 0
318.8 12.4516 0
319.939 10.2366 0
322.474 10.0829 0
322.733 14.3597 0
320.197 14.5134 0
321.206 10.1598 0
322.603 12.2214 0
321.465 14.4366 0
320.068 12.375 0
321.336 12.2983 0
322.474 10.0829 0
325.009 9.92865 0
325.269 14.2054 0
322.733 14.3597 0
323.741 10.0059 0
325.139 12.0671 0
324.001 14.2826 0
322.603 12.2214 0
323.871 12.1443 0
325.009 9.92865 0
327.544 9.77376 0
327.805 14.0504 0
325.269 14.2054 0
326.276 9.85128 0
327.674 11.9122 0
326.537 14.128 0
325.139 12.0671 0
326.407 11.9897 0
327.544 9.77376 0
330.079 9.61825 0
330.341 13.8949 0
327.805 14.0504 0
328.811 9.69608 0
330.21 11.7566 0
329.073 13.9727 0
327.674 11.9122 0
328.942 11.8345 0
330.079 9.61825 0
332.613 9.46214 0
332.877 13.7387 0
330.341 13.8949 0
331.346 9.54027 0
332.745 11.6005 0
331.609 13.8169 0
330.21 11.7566 0
331.477 11.6786 0
332.613 9.46214 0
335.148 9.30543 0
335.413 13.582 0
332.877 13.7387 0
333.881 9.38386 0
335.28 11.4438 0
334.145 13.6604 0
332.745 11.6005 0
334.013 11.5222 0
335.148 9.30543 0
337.683 9.14814 0
337.948 13.4246 0
335.413 13.582 0
336.415 9.22686 0
337.815 11.2864 0
336.68 13.5034 0
335.28 11.4438 0
336.548 11.3652 0
337.683 9.14814 0
340.217 8.99027 0
340.484 13.2667 0
337.948 13.4246 0
338.95 9.06928 0
340.351 11.1286 0
339.216 13.3457 0
337.815 11.2864 0
339.083 11.2076 0
340.217 8.99027 0
342.752 8.83183 0
343.019 13.1082 0
340.484 13.2667 0
341.485 8.91112 0
342.886 10.9701 0
341.752 13.1875 0
340.351 11.1286 0
341.618 11.0494 0
342.752 8.83183 0
345.286 8.67283 0
345.555 12.9492 0
343.019 13.1082 0
344.019 8.7524 0
345.421 10.8111 0
344.287 13.0288 0
342.886 10.9701 0
344.153 10.8906 0
345.286 8.67283 0
347.821 8.51328 0
348.09 12.7896 0
345.555 12.9492 0
346.554 8.59312 0
347.955 10.6515 0
346.822 12.8695 0
345.421 10.8111 0
346.688 10.7313 0
347.821 8.51328 0
350.355 8.35318 0
350.625 12.6295 0
348.09 12.7896 0
349.088 8.4333 0
350.49 10.4914 0
349.358 12.7096 0
347.955 10.6515 0
349.223 10.5715 0
350.355 8.35318 0
352.89 8.19256 0
353.161 12.4688 0
350.625 12.6295 0
351.622 8.27294 0
353.025 10.3307 0
351.893 12.5492 0
350.49 10.4914 0
351.758 10.4111 0
352.89 8.19256 0
355.424 8.03141 0
355.696 12.3076 0
353.161 12.4688 0
354.157 8.11205 0
355.56 10.1696 0
354.428 12.3883 0
353.025 10.3307 0
354.292 10.2502 0
355.424 8.03141 0
357.958 7.86975 0
358.231 12.1459 0
355.696 12.3076 0
356.691 7.95064 0
358.094 10.0079 0
356.963 12.2268 0
355.56 10.1696 0
356.827 10.0888 0
357.958 7.86975 0
360.492 7.70758 0
360.766 11.9837 0
358.231 12.1459 0
359.225 7.78873 0
360.629 9.84569 0
359.498 12.0649 0
358.094 10.0079 0
359.362 9.92685 0
360.492 7.70758 0
363.026 7.54492 0
363.301 11.821 0
360.766 11.9837 0
361.759 7.62631 0
363.164 9.68301 0
362.033 11.9024 0
360.629 9.84569 0
361.896 9.76441 0
363.026 7.54492 0
365.56 7.38176 0
365.836 11.6578 0
363.301 11.821 0
364.293 7.4634 0
365.698 9.51984 0
364.568 11.7395 0
363.164 9.68301 0
364.431 9.60148 0
365.56 7.38176 0
368.094 7.21813 0
368.371 11.4941 0
365.836 11.6578 0
366.827 7.30001 0
368.232 9.35619 0
367.103 11.576 0
365.698 9.51984 0
366.965 9.43807 0
368.094 7.21813 0
370.628 7.05404 0
370.905 11.33 0
368.371 11.4941 0
369.361 7.13614 0
370.767 9.19207 0
369.638 11.4121 0
368.232 9.35619 0
369.5 9.27419 0
370.628 7.05404 0
373.162 6.88948 0
373.44 11.1654 0
370.905 11.33 0
371.895 6.97181 0
373.301 9.02749 0
372.173 11.2478 0
370.767 9.19207 0
372.034 9.10984 0
373.162 6.88948 0
375.696 6.72447 0
375.975 11.0004 0
373.44 11.1654 0
374.429 6.80703 0
375.835 8.86247 0
374.707 11.0829 0
373.301 9.02749 0
374.568 8.94504 0
375.696 6.72447 0
378.23 6.55902 0
378.509 10.8349 0
375.975 11.0004 0
376.963 6.6418 0
378.369 8.697 0
377.242 10.9177 0
375.835 8.86247 0
377.102 8.77979 0
378.23 6.55902 0
380.764 6.39313 0
381.044 10.669 0
378.509 10.8349 0
379.497 6.47613 0
380.904 8.5311 0
379.776 10.752 0
378.369 8.697 0
379.637 8.6141 0
380.764 6.39313 0
383.297 6.22683 0
383.578 10.5026 0
381.044 10.669 0
382.031 6.31003 0
383.438 8.36477 0
382.311 10.5859 0
380.904 8.5311 0
382.171 8.44799 0
383.297 6.22683 0
385.831 6.0601 0
386.112 10.3359 0
383.578 10.5026 0
384.564 6.14352 0
385.972 8.19804 0
384.845 10.4193 0
383.438 8.36477 0
384.705 8.28146 0
385.831 6.0601 0
388.365 5.89298 0
388.647 10.1687 0
386.112 10.3359 0
387.098 5.97659 0
388.506 8.03089 0
387.379 10.2523 0
385.972 8.19804 0
387.239 8.11451 0
388.365 5.89298 0
390.898 5.72545 0
391.181 10.0012 0
388.647 10.1687 0
389.631 5.80926 0
391.039 7.86335 0
389.914 10.085 0
388.506 8.03089 0
389.773 7.94717 0
390.898 5.72545 0
393.432 5.55754 0
393.715 9.83323 0
391.181 10.0012 0
392.165 5.64154 0
393.573 7.69543 0
392.448 9.91725 0
391.039 7.86335 0
392.306 7.77944 0
393.432 5.55754 0
395.965 5.38925 0
396.249 9.66491 0
393.715 9.83323 0
394.698 5.47344 0
396.107 7.52712 0
394.982 9.74912 0
393.573 7.69543 0
394.84 7.61132 0
395.965 5.38925 0
398.499 5.22059 0
398.783 9.49623 0
396.249 9.66491 0
397.232 5.30497 0
398.641 7.35845 0
397.516 9.58062 0
396.107 7.52712 0
397.374 7.44283 0
398.499 5.22059 0
401.032 5.05157 0
401.317 9.32718 0
398.783 9.49623 0
399.765 5.13613 0
401.174 7.18942 0
400.05 9.41175 0
398.641 7.35845 0
399.908 7.27398 0
401.032 5.05157 0
403.565 4.8822 0
403.851 9.15779 0
401.317 9.32718 0
402.299 4.96693 0
403.708 7.02003 0
402.584 9.24253 0
401.174 7.18942 0
402.441 7.10477 0
403.565 4.8822 0
406.098 4.71249 0
406.385 8.98805 0
403.851 9.15779 0
404.832 4.79739 0
406.242 6.85031 0
405.118 9.07296 0
403.708 7.02003 0
404.975 6.93521 0
406.098 4.71249 0
408.632 4.54244 0
408.918 8.81799 0
406.385 8.98805 0
407.365 4.62751 0
408.775 6.68025 0
407.652 8.90306 0
406.242 6.85031 0
407.508 6.76532 0
408.632 4.54244 0
411.165 4.37207 0
411.452 8.64759 0
408.918 8.81799 0
409.898 4.4573 0
411.308 6.50987 0
410.185 8.73283 0
408.775 6.68025 0
410.042 6.5951 0
411.165 4.37207 0
413.698 4.20139 0
413.986 8.47689 0
411.452 8.64759 0
412.431 4.28677 0
413.842 6.33917 0
412.719 8.56228 0
411.308 6.50987 0
412.575 6.42456 0
413.698 4.20139 0
416.231 4.0304 0
416.519 8.30588 0
413.986 8.47689 0
414.964 4.11593 0
416.375 6.16817 0
415.253 8.39142 0
413.842 6.33917 0
415.109 6.25371 0
416.231 4.0304 0
418.764 3.85911 0
419.053 8.13457 0
416.519 8.30588 0
417.498 3.94479 0
418.908 5.99687 0
417.786 8.22026 0
416.375 6.16817 0
417.642 6.08256 0
418.764 3.85911 0
421.297 3.68753 0
421.586 7.96298 0
419.053 8.13457 0
420.031 3.77336 0
421.442 5.82529 0
420.32 8.04881 0
418.908 5.99687 0
420.175 5.91112 0
421.297 3.68753 0
423.83 3.51568 0
424.12 7.79111 0
421.586 7.96298 0
422.564 3.60164 0
423.975 5.65342 0
422.853 7.87708 0
421.442 5.82529 0
422.708 5.73939 0
423.83 3.51568 0
426.363 3.34355 0
426.653 7.61897 0
424.12 7.79111 0
425.096 3.42965 0
426.508 5.48129 0
425.387 7.70507 0
423.975 5.65342 0
425.241 5.56739 0
426.363 3.34355 0
428.896 3.17117 0
429.187 7.44657 0
426.653 7.61897 0
427.629 3.25739 0
429.041 5.3089 0
427.92 7.5328 0
426.508 5.48129 0
427.775 5.39513 0
428.896 3.17117 0
431.429 2.99853 0
431.72 7.27392 0
429.187 7.44657 0
430.162 3.08488 0
431.574 5.13625 0
430.453 7.36028 0
429.041 5.3089 0
430.308 5.22261 0
431.429 2.99853 0
433.961 2.82565 0
434.253 7.10103 0
431.72 7.27392 0
432.695 2.91212 0
434.107 4.96337 0
432.986 7.1875 0
431.574 5.13625 0
432.841 5.04984 0
433.961 2.82565 0
436.494 2.65254 0
436.786 6.92791 0
434.253 7.10103 0
435.228 2.73912 0
436.64 4.79025 0
435.52 7.0145 0
434.107 4.96337 0
435.374 4.87684 0
436.494 2.65254 0
439.027 2.4792 0
439.319 6.75456 0
436.786 6.92791 0
437.761 2.5659 0
439.173 4.6169 0
438.053 6.84126 0
436.64 4.79025 0
437.907 4.7036 0
439.027 2.4792 0
441.56 2.30565 0
441.852 6.581 0
439.319 6.75456 0
440.293 2.39245 0
441.706 4.44335 0
440.586 6.6678 0
439.173 4.6169 0
440.439 4.53015 0
441.56 2.30565 0
444.092 2.13189 0
444.385 6.40723 0
441.852 6.581 0
442.826 2.21879 0
444.239 4.26958 0
443.119 6.49414 0
441.706 4.44335 0
442.972 4.35649 0
444.092 2.13189 0
446.625 1.95793 0
446.918 6.23327 0
444.385 6.40723 0
445.359 2.04493 0
446.771 4.09562 0
445.652 6.32027 0
444.239 4.26958 0
445.505 4.18263 0
446.625 1.95793 0
449.157 1.78379 0
449.451 6.05911 0
446.918 6.23327 0
447.891 1.87088 0
449.304 3.92147 0
448.185 6.14621 0
446.771 4.09562 0
448.038 4.00857 0
449.157 1.78379 0
451.69 1.60946 0
451.984 5.88478 0
449.451 6.05911 0
450.424 1.69665 0
451.837 3.74714 0
450.717 5.97197 0
449.304 3.92147 0
450.571 3.83433 0
451.69 1.60946 0
454.222 1.43497 0
454.517 5.71029 0
451.984 5.88478 0
452.956 1.52224 0
454.37 3.57265 0
453.25 5.79756 0
451.837 3.74714 0
453.103 3.65992 0
454.222 1.43497 0
456.755 1.26031 0
457.049 5.53563 0
454.517 5.71029 0
455.489 1.34766 0
456.902 3.39799 0
455.783 5.62298 0
454.37 3.57265 0
455.636 3.48534 0
456.755 1.26031 0
459.287 1.08551 0
459.582 5.36082 0
457.049 5.53563 0
458.021 1.17293 0
459.435 3.22318 0
458.316 5.44824 0
456.902 3.39799 0
458.168 3.3106 0
459.287 1.08551 0
461.82 0.910554 0
462.115 5.18587 0
459.582 5.36082 0
460.554 0.998047 0
461.967 3.04823 0
460.848 5.27336 0
459.435 3.22318 0
460.701 3.13572 0
461.82 0.910554 0
464.352 0.73547 0
464.647 5.01078 0
462.115 5.18587 0
463.086 0.823028 0
464.5 2.87314 0
463.381 5.09834 0
461.967 3.04823 0
463.233 2.9607 0
464.352 0.73547 0
466.884 0.56026 0
467.18 4.83557 0
464.647 5.01078 0
465.618 0.64788 0
467.032 2.69793 0
465.914 4.92319 0
464.5 2.87314 0
465.766 2.78555 0
466.884 0.56026 0
469.417 0.384934 0
469.712 4.66025 0
467.18 4.83557 0
468.151 0.472611 0
469.564 2.52261 0
468.446 4.74793 0
467.032 2.69793 0
468.298 2.61028 0
469.417 0.384934 0
471.949 0.209502 0
472.245 4.48482 0
469.712 4.66025 0
470.683 0.297231 0
472.097 2.34717 0
470.979 4.57255 0
469.564 2.52261 0
470.831 2.4349 0
471.949 0.209502 0
474.481 0.0339715 0
474.777 4.3093 0
472.245 4.48482 0
473.215 0.121748 0
474.629 2.17165 0
473.511 4.39707 0
472.097 2.34717 0
473.363 2.25942 0
474.481 0.0339715 0
477.013 -0.141648 0
477.31 4.13368 0
474.777 4.3093 0
475.747 -0.0538275 0
477.161 1.99603 0
476.043 4.2215 0
474.629 2.17165 0
475.895 2.08385 0
477.013 -0.141648 0
479.546 -0.317347 0
479.842 3.95799 0
477.31 4.13368 0
478.28 -0.229488 0
479.694 1.82033 0
478.576 4.04585 0
477.161 1.99603 0
478.428 1.90819 0
479.546 -0.317347 0
482.078 -0.493117 0
482.374 3.78223 0
479.842 3.95799 0
480.812 -0.405223 0
482.226 1.64457 0
481.108 3.87012 0
479.694 1.82033 0
480.96 1.73246 0
482.078 -0.493117 0
484.61 -0.66895 0
484.906 3.60641 0
482.374 3.78223 0
483.344 -0.581026 0
484.758 1.46874 0
483.64 3.69433 0
482.226 1.64457 0
483.492 1.55666 0
484.61 -0.66895 0
487.142 -0.844837 0
487.439 3.43054 0
484.906 3.60641 0
485.876 -0.756887 0
487.29 1.29286 0
486.172 3.51848 0
484.758 1.46874 0
486.024 1.38081 0
487.142 -0.844837 0
489.674 -1.02077 0
489.971 3.25462 0
487.439 3.43054 0
488.408 -0.932799 0
489.822 1.11693 0
488.705 3.34259 0
487.29 1.29286 0
488.556 1.2049 0
489.674 -1.02077 0
492.206 -1.19675 0
492.503 3.07865 0
489.971 3.25462 0
490.94 -1.10876 0
492.354 0.940957 0
491.237 3.16664 0
489.822 1.11693 0
491.088 1.02895 0
492.206 -1.19675 0
494.738 -1.37276 0
495.035 2.90262 0
492.503 3.07865 0
493.472 -1.28475 0
494.886 0.764932 0
493.769 2.99065 0
492.354 0.940957 0
493.62 0.852952 0
494.738 -1.37276 0
497.27 -1.54876 0
497.567 2.72647 0
495.035 2.90262 0
496.004 -1.46076 0
497.418 0.588857 0
496.301 2.81456 0
494.886 0.764932 0
496.152 0.676898 0
497.27 -1.54876 0
499.802 -1.72469 0
500.099 2.55025 0
497.567 2.72647 0
498.536 -1.63674 0
499.95 0.412826 0
498.833 2.63836 0
497.418 0.588857 0
498.684 0.500824 0
0 25.7143 0
2.54492 25.7123 0
2.54957 29.9942 0
0 30 0
1.27236 25.7136 0
2.54672 27.8537 0
1.27529 29.9964 0
0 27.8571 0
1.27316 27.8556 0
2.54492 25.7123 0
5.0904 25.7086 0
5.09759 29.99 0
2.54957 29.9942 0
3.81762 25.7107 0
5.09381 27.8495 0
3.82359 29.9922 0
2.54672 27.8537 0
3.82029 27.8516 0
5.0904 25.7086 0
7.63595 25.7036 0
7.64569 29.9848 0
5.09759 29.99 0
6.36318 25.7063 0
7.64076 27.8444 0
6.37162 29.9875 0
5.09381 27.8495 0
6.3673 27.8471 0
7.63595 25.7036 0
10.1815 25.697 0
10.1939 29.9782 0
7.64569 29.9848 0
8.90871 25.7005 0
10.1876 27.8377 0
8.91977 29.9817 0
7.64076 27.8444 0
8.9142 27.8412 0
10.1815 25.697 0
12.7269 25.6887 0
12.7421 29.97 0
10.1939 29.9782 0
11.4542 25.6931 0
12.7345 27.8295 0
11.468 29.9743 0
10.1876 27.8377 0
11.4611 27.8338 0
12.7269 25.6887 0
15.2723 25.6788 0
15.2903 29.96 0
12.7421 29.97 0
13.9996 25.684 0
15.2813 27.8196 0
14.0162 29.9652 0
12.7345 27.8295 0
14.0079 27.8248 0
15.2723 25.6788 0
17.8176 25.6671 0
17.8385 29.9484 0
15.2903 29.96 0
16.5449 25.6732 0
17.828 27.8079 0
16.5644 29.9544 0
15.2813 27.8196 0
16.5546 27.814 0
17.8176 25.6671 0
20.3629 25.6538 0
20.3867 29.935 0
17.8385 29.9484 0
19.0902 25.6607 0
20.3747 27.7946 0
19.1126 29.9419 0
17.828 27.8079 0
19.1014 27.8015 0
20.3629 25.6538 0
22.9081 25.6387 0
22.9348 29.9199 0
20.3867 29.935 0
21.6355 25.6464 0
22.9214 27.7795 0
21.6607 29.9277 0
20.3747 27.7946 0
21.6481 27.7872 0
22.9081 25.6387 0
25.4533 25.6219 0
25.4828 29.9031 0
22.9348 29.9199 0
24.1807 25.6305 0
25.468 27.7627 0
24.2088 29.9117 0
22.9214 27.7795 0
24.1947 27.7713 0
25.4533 25.6219 0
27.9984 25.6034 0
28.0308 29.8846 0
25.4828 29.9031 0
26.7259 25.6128 0
28.0146 27.7442 0
26.7568 29.8941 0
25.468 27.7627 0
26.7413 27.7536 0
27.9984 25.6034 0
30.5435 25.5832 0
30.5787 29.8644 0
28.0308 29.8846 0
29.271 25.5935 0
30.5611 27.724 0
29.3047 29.8747 0
28.0146 27.7442 0
29.2878 27.7343 0
30.5435 25.5832 0
33.0885 25.5613 0
33.1265 29.8425 0
30.5787 29.8644 0
31.816 25.5724 0
33.1075 27.7021 0
31.8526 29.8537 0
30.5611 27.724 0
31.8343 27.7132 0
33.0885 25.5613 0
35.6335 25.5377 0
35.6743 29.819 0
33.1265 29.8425 0
34.361 25.5497 0
35.6539 27.6785 0
34.4004 29.831 0
33.1075 27.7021 0
34.3807 27.6905 0
35.6335 25.5377 0
38.1784 25.5125 0
38.222 29.7938 0
35.6743 29.819 0
36.906 25.5253 0
38.2002 27.6533 0
36.9482 29.8066 0
35.6539 27.6785 0
36.927 27.6661 0
38.1784 25.5125 0
40.7233 25.4856 0
40.7697 29.7669 0
38.222 29.7938 0
39.4509 25.4993 0
40.7464 27.6264 0
39.4959 29.7805 0
38.2002 27.6533 0
39.4733 27.6401 0
40.7233 25.4856 0
43.2681 25.4571 0
43.3172 29.7384 0
40.7697 29.7669 0
41.9957 25.4716 0
43.2926 27.5979 0
42.0435 29.7528 0
40.7464 27.6264 0
42.0195 27.6124 0
43.2681 25.4571 0
45.8128 25.427 0
45.8647 29.7082 0
43.3172 29.7384 0
44.5405 25.4423 0
45.8388 27.5678 0
44.591 29.7235 0
43.2926 27.5979 0
44.5657 27.583 0
45.8128 25.427 0
48.3575 25.3952 0
48.4122 29.6764 0
45.8647 29.7082 0
47.0852 25.4113 0
48.3848 27.536 0
47.1385 29.6925 0
45.8388 27.5678 0
47.1118 27.5521 0
48.3575 25.3952 0
50.9022 25.3618 0
50.9595 29.643 0
48.4122 29.6764 0
49.6299 25.3787 0
50.9308 27.5026 0
49.6859 29.6599 0
48.3848 27.536 0
49.6578 27.5195 0
50.9022 25.3618 0
53.4467 25.3268 0
53.5068 29.608 0
50.9595 29.643 0
52.1745 25.3445 0
53.4767 27.4675 0
52.2332 29.6257 0
50.9308 27.5026 0
52.2038 27.4852 0
53.4467 25.3268 0
55.9913 25.2902 0
56.054 29.5713 0
53.5068 29.608 0
54.719 25.3087 0
56.0226 27.4309 0
54.7804 29.5898 0
53.4767 27.4675 0
54.7497 27.4494 0
55.9913 25.2902 0
58.5357 25.252 0
58.6011 29.5331 0
56.054 29.5713 0
57.2635 25.2713 0
58.5684 27.3927 0
57.3276 29.5524 0
56.0226 27.4309 0
57.2955 27.412 0
58.5357 25.252 0
61.0801 25.2122 0
61.1482 29.4933 0
58.6011 29.5331 0
59.8079 25.2323 0
61.1141 27.3529 0
59.8746 29.5134 0
58.5684 27.3927 0
59.8412 27.373 0
61.0801 25.2122 0
63.6244 25.1708 0
63.6951 29.4519 0
61.1482 29.4933 0
62.3523 25.1917 0
63.6597 27.3115 0
62.4217 29.4728 0
61.1141 27.3529 0
62.3869 27.3324 0
63.6244 25.1708 0
66.1687 25.1279 0
66.242 29.409 0
63.6951 29.4519 0
64.8966 25.1496 0
66.2053 27.2686 0
64.9686 29.4307 0
63.6597 27.3115 0
64.9325 27.2903 0
66.1687 25.1279 0
68.7129 25.0834 0
68.7888 29.3645 0
66.242 29.409 0
67.4408 25.1059 0
68.7508 27.2241 0
67.5154 29.3869 0
66.2053 27.2686 0
67.4781 27.2466 0
68.7129 25.0834 0
71.257 25.0374 0
71.3355 29.3185 0
68.7888 29.3645 0
69.985 25.0606 0
71.2962 27.1781 0
70.0622 29.3417 0
68.7508 27.2241 0
70.0235 27.2013 0
71.257 25.0374 0
73.8011 24.9899 0
73.8822 29.2709 0
71.3355 29.3185 0
72.5291 25.0138 0
73.8416 27.1305 0
72.6089 29.2949 0
71.2962 27.1781 0
72.5689 27.1545 0
73.8011 24.9899 0
76.3451 24.9408 0
76.4288 29.2218 0
73.8822 29.2709 0
75.0731 24.9655 0
76.3869 27.0814 0
75.1555 29.2465 0
73.8416 27.1305 0
75.1143 27.1062 0
76.3451 24.9408 0
78.889 24.8902 0
78.9752 29.1711 0
76.4288 29.2218 0
77.6171 24.9157 0
78.9321 27.0308 0
77.702 29.1966 0
76.3869 27.0814 0
77.6595 27.0563 0
78.889 24.8902 0
81.4329 24.8381 0
81.5216 29.119 0
78.9752 29.1711 0
80.161 24.8643 0
81.4772 26.9787 0
80.2484 29.1453 0
78.9321 27.0308 0
80.2047 27.0049 0
81.4329 24.8381 0
83.9767 24.7845 0
84.0679 29.0654 0
81.5216 29.119 0
82.7048 24.8115 0
84.0223 26.9251 0
82.7948 29.0924 0
81.4772 26.9787 0
82.7498 26.9521 0
83.9767 24.7845 0
86.5204 24.7294 0
86.6142 29.0103 0
84.0679 29.0654 0
85.2485 24.7571 0
86.5672 26.87 0
85.3411 29.038 0
84.0223 26.9251 0
85.2948 26.8977 0
86.5204 24.7294 0
89.064 24.6728 0
89.1603 28.9536 0
86.6142 29.0103 0
87.7922 24.7013 0
89.1121 26.8134 0
87.8872 28.9821 0
86.5672 26.87 0
87.8397 26.8419 0
89.064 24.6728 0
91.6076 24.6147 0
91.7064 28.8956 0
89.1603 28.9536 0
90.3358 24.6439 0
91.657 26.7553 0
90.4333 28.9248 0
89.1121 26.8134 0
90.3846 26.7845 0
91.6076 24.6147 0
94.1511 24.5552 0
94.2523 28.836 0
91.7064 28.8956 0
92.8794 24.5852 0
94.2017 26.6958 0
92.9793 28.866 0
91.657 26.7553 0
92.9293 26.7257 0
94.1511 24.5552 0
96.6946 24.4943 0
96.7982 28.775 0
94.2523 28.836 0
95.4229 24.5249 0
96.7464 26.6348 0
95.5253 28.8057 0
94.2017 26.6958 0
95.474 26.6655 0
96.6946 24.4943 0
99.2379 24.4319 0
99.344 28.7126 0
96.7982 28.775 0
97.9663 24.4632 0
99.2909 26.5724 0
98.0711 28.744 0
96.7464 26.6348 0
98.0187 26.6038 0
99.2379 24.4319 0
101.781 24.368 0
101.89 28.6487 0
99.344 28.7126 0
100.51 24.4001 0
101.835 26.5085 0
100.617 28.6808 0
99.2909 26.5724 0
100.563 26.5406 0
101.781 24.368 0
104.324 24.3028 0
104.435 28.5834 0
101.89 28.6487 0
103.053 24.3356 0
104.38 26.4432 0
103.163 28.6162 0
101.835 26.5085 0
103.108 26.476 0
104.324 24.3028 0
106.868 24.2361 0
106.981 28.5167 0
104.435 28.5834 0
105.596 24.2696 0
106.924 26.3765 0
105.708 28.5502 0
104.38 26.4432 0
105.652 26.41 0
106.868 24.2361 0
109.411 24.168 0
109.526 28.4485 0
106.981 28.5167 0
108.139 24.2022 0
109.468 26.3084 0
108.254 28.4828 0
106.924 26.3765 0
108.196 26.3426 0
109.411 24.168 0
111.954 24.0985 0
112.072 28.379 0
109.526 28.4485 0
110.682 24.1334 0
112.013 26.2389 0
110.799 28.4139 0
109.468 26.3084 0
110.741 26.2738 0
111.954 24.0985 0
114.497 24.0276 0
114.617 28.3081 0
112.072 28.379 0
113.225 24.0632 0
114.557 26.168 0
113.344 28.3437 0
112.013 26.2389 0
113.285 26.2036 0
114.497 24.0276 0
117.039 23.9553 0
117.162 28.2358 0
114.617 28.3081 0
115.768 23.9916 0
117.101 26.0957 0
115.889 28.2721 0
114.557 26.168 0
115.829 26.132 0
117.039 23.9553 0
119.582 23.8817 0
119.707 28.1621 0
117.162 28.2358 0
118.311 23.9187 0
119.645 26.0221 0
118.435 28.1991 0
117.101 26.0957 0
118.373 26.0591 0
119.582 23.8817 0
122.125 23.8067 0
122.252 28.0871 0
119.707 28.1621 0
120.853 23.8444 0
122.188 25.947 0
120.98 28.1248 0
119.645 26.0221 0
120.916 25.9847 0
122.125 23.8067 0
124.667 23.7304 0
124.797 28.0107 0
122.252 28.0871 0
123.396 23.7687 0
124.732 25.8707 0
123.524 28.049 0
122.188 25.947 0
123.46 25.909 0
124.667 23.7304 0
127.21 23.6527 0
127.342 27.9329 0
124.797 28.0107 0
125.939 23.6917 0
127.276 25.793 0
126.069 27.972 0
124.732 25.8707 0
126.004 25.832 0
127.21 23.6527 0
129.752 23.5737 0
129.886 27.8539 0
127.342 27.9329 0
128.481 23.6133 0
129.819 25.7139 0
128.614 27.8936 0
127.276 25.793 0
128.548 25.7536 0
129.752 23.5737 0
132.295 23.4933 0
132.431 27.7735 0
129.886 27.8539 0
131.024 23.5337 0
132.363 25.6335 0
131.159 27.8139 0
129.819 25.7139 0
131.091 25.6739 0
132.295 23.4933 0
134.837 23.4117 0
134.975 27.6918 0
132.431 27.7735 0
133.566 23.4527 0
134.906 25.5519 0
133.703 27.7328 0
132.363 25.6335 0
133.635 25.5929 0
134.837 23.4117 0
137.379 23.3287 0
137.52 27.6088 0
134.975 27.6918 0
136.108 23.3703 0
137.45 25.4689 0
136.248 27.6504 0
134.906 25.5519 0
136.178 25.5105 0
137.379 23.3287 0
139.921 23.2444 0
140.064 27.5244 0
137.52 27.6088 0
138.65 23.2867 0
139.993 25.3846 0
138.792 27.5668 0
137.45 25.4689 0
138.721 25.4269 0
139.921 23.2444 0
142.463 23.1589 0
142.608 27.4388 0
140.064 27.5244 0
141.192 23.2018 0
142.536 25.299 0
141.336 27.4818 0
139.993 25.3846 0
141.264 25.3419 0
142.463 23.1589 0
145.005 23.072 0
145.152 27.352 0
142.608 27.4388 0
143.734 23.1156 0
145.079 25.2121 0
143.88 27.3956 0
142.536 25.299 0
143.807 25.2557 0
145.005 23.072 0
147.547 22.9839 0
147.696 27.2638 0
145.152 27.352 0
146.276 23.0281 0
147.622 25.124 0
146.424 27.308 0
145.079 25.2121 0
146.35 25.1682 0
147.547 22.9839 0
150.089 22.8946 0
150.24 27.1744 0
147.696 27.2638 0
148.818 22.9394 0
150.165 25.0346 0
148.968 27.2192 0
147.622 25.124 0
148.893 25.0795 0
150.089 22.8946 0
152.631 22.8039 0
152.784 27.0837 0
150.24 27.1744 0
151.36 22.8494 0
152.707 24.944 0
151.512 27.1292 0
150.165 25.0346 0
151.436 24.9894 0
152.631 22.8039 0
155.172 22.7121 0
155.328 26.9918 0
152.784 27.0837 0
153.902 22.7582 0
155.25 24.8521 0
154.056 27.0379 0
152.707 24.944 0
153.979 24.8982 0
155.172 22.7121 0
157.714 22.619 0
157.872 26.8987 0
155.328 26.9918 0
156.443 22.6657 0
157.793 24.759 0
156.6 26.9454 0
155.25 24.8521 0
156.521 24.8057 0
157.714 22.619 0
160.255 22.5247 0
160.415 26.8043 0
157.872 26.8987 0
158.985 22.572 0
160.335 24.6646 0
159.143 26.8516 0
157.793 24.759 0
159.064 24.7119 0
160.255 22.5247 0
162.797 22.4291 0
162.958 26.7087 0
160.415 26.8043 0
161.526 22.4771 0
162.878 24.569 0
161.687 26.7566 0
160.335 24.6646 0
161.606 24.617 0
162.797 22.4291 0
165.338 22.3324 0
165.502 26.6119 0
162.958 26.7087 0
164.067 22.3809 0
165.42 24.4723 0
164.23 26.6605 0
162.878 24.569 0
164.149 24.5208 0
165.338 22.3324 0
167.879 22.2345 0
168.045 26.5139 0
165.502 26.6119 0
166.609 22.2836 0
167.962 24.3743 0
166.773 26.5631 0
165.42 24.4723 0
166.691 24.4234 0
167.879 22.2345 0
170.42 22.1353 0
170.588 26.4147 0
168.045 26.5139 0
169.15 22.185 0
170.504 24.2752 0
169.317 26.4645 0
167.962 24.3743 0
169.233 24.3249 0
170.42 22.1353 0
172.961 22.035 0
173.131 26.3144 0
170.588 26.4147 0
171.691 22.0853 0
173.046 24.1748 0
171.86 26.3647 0
170.504 24.2752 0
171.775 24.2251 0
172.961 22.035 0
175.502 21.9336 0
175.674 26.2129 0
173.131 26.3144 0
174.232 21.9844 0
175.588 24.0733 0
174.403 26.2638 0
173.046 24.1748 0
174.317 24.1242 0
175.502 21.9336 0
178.043 21.8309 0
178.217 26.1102 0
175.674 26.2129 0
176.773 21.8824 0
178.13 23.9707 0
176.946 26.1617 0
175.588 24.0733 0
176.859 24.0221 0
178.043 21.8309 0
180.584 21.7272 0
180.76 26.0063 0
178.217 26.1102 0
179.314 21.7792 0
180.672 23.8669 0
179.488 26.0584 0
178.13 23.9707 0
179.401 23.9189 0
180.584 21.7272 0
183.125 21.6222 0
183.302 25.9013 0
180.76 26.0063 0
181.854 21.6748 0
183.214 23.7619 0
182.031 25.954 0
180.672 23.8669 0
181.943 23.8145 0
183.125 21.6222 0
185.665 21.5162 0
185.845 25.7952 0
183.302 25.9013 0
184.395 21.5693 0
185.755 23.6558 0
184.574 25.8484 0
183.214 23.7619 0
184.484 23.709 0
185.665 21.5162 0
188.206 21.409 0
188.387 25.688 0
185.845 25.7952 0
186.936 21.4627 0
188.297 23.5486 0
187.116 25.7418 0
185.755 23.6558 0
187.026 23.6024 0
188.206 21.409 0
190.746 21.3007 0
190.93 25.5796 0
188.387 25.688 0
189.476 21.355 0
190.838 23.4403 0
189.658 25.634 0
188.297 23.5486 0
189.567 23.4946 0
190.746 21.3007 0
193.287 21.1913 0
193.472 25.4702 0
190.93 25.5796 0
192.017 21.2461 0
193.379 23.3309 0
192.201 25.525 0
190.838 23.4403 0
192.109 23.3857 0
193.287 21.1913 0
195.827 21.0808 0
196.014 25.3596 0
193.472 25.4702 0
194.557 21.1362 0
195.92 23.2203 0
194.743 25.415 0
193.379 23.3309 0
194.65 23.2757 0
195.827 21.0808 0
198.367 20.9692 0
198.556 25.248 0
196.014 25.3596 0
197.097 21.0251 0
198.462 23.1087 0
197.285 25.3039 0
195.92 23.2203 0
197.191 23.1647 0
198.367 20.9692 0
200.907 20.8565 0
201.098 25.1353 0
198.556 25.248 0
199.637 20.913 0
201.003 22.996 0
199.827 25.1918 0
198.462 23.1087 0
199.732 23.0525 0
200.907 20.8565 0
203.447 20.7428 0
203.64 25.0215 0
201.098 25.1353 0
202.177 20.7998 0
203.543 22.8823 0
202.369 25.0785 0
201.003 22.996 0
202.273 22.9393 0
203.447 20.7428 0
205.987 20.628 0
206.181 24.9066 0
203.64 25.0215 0
204.717 20.6855 0
206.084 22.7674 0
204.911 24.9642 0
203.543 22.8823 0
204.814 22.825 0
205.987 20.628 0
208.527 20.5122 0
208.723 24.7907 0
206.181 24.9066 0
207.257 20.5702 0
208.625 22.6516 0
207.452 24.8488 0
206.084 22.7674 0
207.355 22.7096 0
208.527 20.5122 0
211.067 20.3953 0
211.265 24.6738 0
208.723 24.7907 0
209.797 20.4539 0
211.166 22.5346 0
209.994 24.7324 0
208.625 22.6516 0
209.895 22.5932 0
211.067 20.3953 0
213.607 20.2774 0
213.806 24.5558 0
211.265 24.6738 0
212.337 20.3365 0
213.706 22.4167 0
212.535 24.6149 0
211.166 22.5346 0
212.436 22.4758 0
213.607 20.2774 0
216.146 20.1584 0
216.347 24.4368 0
213.806 24.5558 0
214.876 20.218 0
216.247 22.2977 0
215.077 24.4964 0
213.706 22.4167 0
214.976 22.3573 0
216.146 20.1584 0
218.686 20.0385 0
218.888 24.3168 0
216.347 24.4368 0
217.416 20.0986 0
218.787 22.1777 0
217.618 24.3769 0
216.247 22.2977 0
217.517 22.2379 0
218.686 20.0385 0
221.225 19.9175 0
221.43 24.1958 0
218.888 24.3168 0
219.955 19.9781 0
221.327 22.0568 0
220.159 24.2564 0
218.787 22.1777 0
220.057 22.1174 0
221.225 19.9175 0
223.764 19.7956 0
223.971 24.0738 0
221.43 24.1958 0
222.495 19.8567 0
223.867 21.9348 0
222.7 24.1349 0
221.327 22.0568 0
222.597 21.9959 0
223.764 19.7956 0
226.304 19.6726 0
226.511 23.9508 0
223.971 24.0738 0
225.034 19.7342 0
226.408 21.8118 0
225.241 24.0124 0
223.867 21.9348 0
225.138 21.8734 0
226.304 19.6726 0
228.843 19.5487 0
229.052 23.8268 0
226.511 23.9508 0
227.573 19.6108 0
228.948 21.6879 0
227.782 23.8889 0
226.408 21.8118 0
227.678 21.7499 0
228.843 19.5487 0
231.382 19.4238 0
231.593 23.7019 0
229.052 23.8268 0
230.112 19.4864 0
231.487 21.5629 0
230.323 23.7644 0
228.948 21.6879 0
230.217 21.6255 0
231.382 19.4238 0
233.921 19.298 0
234.134 23.5759 0
231.593 23.7019 0
232.651 19.361 0
234.027 21.4371 0
232.863 23.639 0
231.487 21.5629 0
232.757 21.5001 0
233.921 19.298 0
236.46 19.1712 0
236.674 23.4491 0
234.134 23.5759 0
235.19 19.2347 0
236.567 21.3102 0
235.404 23.5126 0
234.027 21.4371 0
235.297 21.3738 0
236.46 19.1712 0
238.999 19.0434 0
239.214 23.3213 0
236.674 23.4491 0
237.729 19.1074 0
239.107 21.1825 0
237.944 23.3853 0
236.567 21.3102 0
237.837 21.2465 0
238.999 19.0434 0
241.537 18.9148 0
241.755 23.1926 0
239.214 23.3213 0
240.268 18.9792 0
241.646 21.0538 0
240.485 23.257 0
239.107 21.1825 0
240.376 21.1182 0
241.537 18.9148 0
244.076 18.7852 0
244.295 23.0629 0
241.755 23.1926 0
242.807 18.8501 0
244.185 20.9241 0
243.025 23.1279 0
241.646 21.0538 0
242.916 20.9891 0
244.076 18.7852 0
246.615 18.6547 0
246.835 22.9324 0
244.295 23.0629 0
245.345 18.72 0
246.725 20.7936 0
245.565 22.9978 0
244.185 20.9241 0
245.455 20.859 0
246.615 18.6547 0
249.153 18.5232 0
249.375 22.8009 0
246.835 22.9324 0
247.884 18.5891 0
249.264 20.6622 0
248.105 22.8667 0
246.725 20.7936 0
247.994 20.728 0
249.153 18.5232 0
251.691 18.3909 0
251.915 22.6685 0
249.375 22.8009 0
250.422 18.4572 0
251.803 20.5298 0
250.645 22.7348 0
249.264 20.6622 0
250.534 20.5961 0
251.691 18.3909 0
254.23 18.2577 0
254.455 22.5353 0
251.915 22.6685 0
252.961 18.3244 0
254.342 20.3966 0
253.185 22.602 0
251.803 20.5298 0
253.073 20.4633 0
254.23 18.2577 0
256.768 18.1237 0
256.994 22.4012 0
254.455 22.5353 0
255.499 18.1908 0
256.881 20.2625 0
255.725 22.4683 0
254.342 20.3966 0
255.612 20.3297 0
256.768 18.1237 0
259.306 17.9887 0
259.534 22.2662 0
256.994 22.4012 0
258.037 18.0563 0
259.42 20.1275 0
258.264 22.3338 0
256.881 20.2625 0
258.151 20.1951 0
259.306 17.9887 0
261.844 17.8529 0
262.074 22.1303 0
259.534 22.2662 0
260.575 17.9209 0
261.959 19.9917 0
260.804 22.1983 0
259.42 20.1275 0
260.69 20.0597 0
261.844 17.8529 0
264.382 17.7163 0
264.613 21.9936 0
262.074 22.1303 0
263.113 17.7847 0
264.498 19.855 0
263.343 22.0621 0
261.959 19.9917 0
263.228 19.9235 0
264.382 17.7163 0
266.92 17.5788 0
267.152 21.8561 0
264.613 21.9936 0
265.651 17.6476 0
267.036 19.7175 0
265.883 21.9249 0
264.498 19.855 0
265.767 19.7864 0
266.92 17.5788 0
269.458 17.4405 0
269.692 21.7177 0
267.152 21.8561 0
268.189 17.5097 0
269.575 19.5792 0
268.422 21.787 0
267.036 19.7175 0
268.305 19.6484 0
269.458 17.4405 0
271.996 17.3013 0
272.231 21.5785 0
269.692 21.7177 0
270.727 17.371 0
272.113 19.44 0
270.961 21.6482 0
269.575 19.5792 0
270.844 19.5097 0
271.996 17.3013 0
274.533 17.1614 0
274.77 21.4385 0
272.231 21.5785 0
273.264 17.2314 0
274.651 19.3 0
273.5 21.5086 0
272.113 19.44 0
273.382 19.3701 0
274.533 17.1614 0
277.071 17.0206 0
277.309 21.2977 0
274.77 21.4385 0
275.802 17.0911 0
277.19 19.1592 0
276.039 21.3682 0
274.651 19.3 0
275.921 19.2297 0
277.071 17.0206 0
279.608 16.879 0
279.847 21.1561 0
277.309 21.2977 0
278.34 16.9499 0
279.728 19.0176 0
278.578 21.227 0
277.19 19.1592 0
278.459 19.0885 0
279.608 16.879 0
282.146 16.7367 0
282.386 21.0137 0
279.847 21.1561 0
280.877 16.808 0
282.266 18.8753 0
281.117 21.085 0
279.728 19.0176 0
280.997 18.9465 0
282.146 16.7367 0
284.683 16.5936 0
284.925 20.8705 0
282.386 21.0137 0
283.414 16.6652 0
284.804 18.7321 0
283.655 20.9422 0
282.266 18.8753 0
283.535 18.8038 0
284.683 16.5936 0
287.22 16.4497 0
287.463 20.7265 0
284.925 20.8705 0
285.952 16.5217 0
287.342 18.5882 0
286.194 20.7986 0
284.804 18.7321 0
286.073 18.6603 0
287.22 16.4497 0
289.757 16.305 0
290.002 20.5818 0
287.463 20.7265 0
288.489 16.3775 0
289.879 18.4435 0
288.732 20.6543 0
287.342 18.5882 0
288.611 18.516 0
289.757 16.305 0
292.294 16.1596 0
292.54 20.4364 0
290.002 20.5818 0
291.026 16.2324 0
292.417 18.2981 0
291.271 20.5092 0
289.879 18.4435 0
291.148 18.3709 0
292.294 16.1596 0
294.831 16.0135 0
295.078 20.2902 0
292.54 20.4364 0
293.563 16.0867 0
294.955 18.1519 0
293.809 20.3634 0
292.417 18.2981 0
293.686 18.2251 0
294.831 16.0135 0
297.368 15.8666 0
297.616 20.1433 0
295.078 20.2902 0
296.1 15.9402 0
297.492 18.005 0
296.347 20.2168 0
294.955 18.1519 0
296.224 18.0786 0
297.368 15.8666 0
299.905 15.719 0
300.154 19.9957 0
297.616 20.1433 0
298.637 15.7929 0
300.03 17.8574 0
298.885 20.0696 0
297.492 18.005 0
298.761 17.9313 0
299.905 15.719 0
302.442 15.5707 0
302.692 19.8473 0
300.154 19.9957 0
301.174 15.645 0
302.567 17.7091 0
301.423 19.9216 0
300.03 17.8574 0
301.298 17.7834 0
302.442 15.5707 0
304.979 15.4217 0
305.23 19.6982 0
302.692 19.8473 0
303.71 15.4963 0
305.104 17.5601 0
303.961 19.7729 0
302.567 17.7091 0
303.836 17.6347 0
304.979 15.4217 0
307.515 15.272 0
307.768 19.5485 0
305.23 19.6982 0
306.247 15.347 0
307.642 17.4103 0
306.499 19.6235 0
305.104 17.5601 0
306.373 17.4853 0
307.515 15.272 0
310.052 15.1216 0
310.306 19.3981 0
307.768 19.5485 0
308.783 15.1969 0
310.179 17.2599 0
309.037 19.4734 0
307.642 17.4103 0
308.91 17.3352 0
310.052 15.1216 0
312.588 14.9706 0
312.843 19.2469 0
310.306 19.3981 0
311.32 15.0462 0
312.716 17.1088 0
311.574 19.3226 0
310.179 17.2599 0
311.447 17.1845 0
312.588 14.9706 0
315.124 14.8188 0
315.381 19.0952 0
312.843 19.2469 0
313.856 14.8948 0
315.253 16.9571 0
314.112 19.1711 0
312.716 17.1088 0
313.984 17.033 0
315.124 14.8188 0
317.661 14.6664 0
317.918 18.9427 0
315.381 19.0952 0
316.393 14.7427 0
317.789 16.8046 0
316.649 19.019 0
315.253 16.9571 0
316.521 16.8809 0
317.661 14.6664 0
320.197 14.5134 0
320.455 18.7896 0
317.918 18.9427 0
318.929 14.59 0
320.326 16.6516 0
319.187 18.8663 0
317.789 16.8046 0
319.058 16.7282 0
320.197 14.5134 0
322.733 14.3597 0
322.993 18.6359 0
320.455 18.7896 0
321.465 14.4366 0
322.863 16.4979 0
321.724 18.7129 0
320.326 16.6516 0
321.594 16.5748 0
322.733 14.3597 0
325.269 14.2054 0
325.53 18.4816 0
322.993 18.6359 0
324.001 14.2826 0
325.399 16.3435 0
324.261 18.5588 0
322.863 16.4979 0
324.131 16.4208 0
325.269 14.2054 0
327.805 14.0504 0
328.067 18.3266 0
325.53 18.4816 0
326.537 14.128 0
327.936 16.1886 0
326.798 18.4041 0
325.399 16.3435 0
326.668 16.2661 0
327.805 14.0504 0
330.341 13.8949 0
330.604 18.171 0
328.067 18.3266 0
329.073 13.9727 0
330.472 16.033 0
329.335 18.2488 0
327.936 16.1886 0
329.204 16.1109 0
330.341 13.8949 0
332.877 13.7387 0
333.14 18.0148 0
330.604 18.171 0
331.609 13.8169 0
333.009 15.8768 0
331.872 18.093 0
330.472 16.033 0
331.74 15.955 0
332.877 13.7387 0
335.413 13.582 0
335.677 17.858 0
333.14 18.0148 0
334.145 13.6604 0
335.545 15.72 0
334.409 17.9365 0
333.009 15.8768 0
334.277 15.7985 0
335.413 13.582 0
337.948 13.4246 0
338.214 17.7006 0
335.677 17.858 0
336.68 13.5034 0
338.081 15.5627 0
336.945 17.7794 0
335.545 15.72 0
336.813 15.6414 0
337.948 13.4246 0
340.484 13.2667 0
340.75 17.5427 0
338.214 17.7006 0
339.216 13.3457 0
340.617 15.4047 0
339.482 17.6217 0
338.081 15.5627 0
339.349 15.4838 0
340.484 13.2667 0
343.019 13.1082 0
343.287 17.3841 0
340.75 17.5427 0
341.752 13.1875 0
343.153 15.2462 0
342.019 17.4635 0
340.617 15.4047 0
341.885 15.3256 0
343.019 13.1082 0
345.555 12.9492 0
345.823 17.2251 0
343.287 17.3841 0
344.287 13.0288 0
345.689 15.0872 0
344.555 17.3047 0
343.153 15.2462 0
344.421 15.1668 0
345.555 12.9492 0
348.09 12.7896 0
348.36 17.0654 0
345.823 17.2251 0
346.822 12.8695 0
348.225 14.9276 0
347.091 17.1453 0
345.689 15.0872 0
346.957 15.0074 0
348.09 12.7896 0
350.625 12.6295 0
350.896 16.9053 0
348.36 17.0654 0
349.358 12.7096 0
350.761 14.7674 0
349.628 16.9854 0
348.225 14.9276 0
349.493 14.8476 0
350.625 12.6295 0
353.161 12.4688 0
353.432 16.7446 0
350.896 16.9053 0
351.893 12.5492 0
353.296 14.6067 0
352.164 16.825 0
350.761 14.7674 0
352.028 14.6871 0
353.161 12.4688 0
355.696 12.3076 0
355.968 16.5833 0
353.432 16.7446 0
354.428 12.3883 0
355.832 14.4455 0
354.7 16.664 0
353.296 14.6067 0
354.564 14.5262 0
355.696 12.3076 0
358.231 12.1459 0
358.504 16.4216 0
355.968 16.5833 0
356.963 12.2268 0
358.367 14.2838 0
357.236 16.5025 0
355.832 14.4455 0
357.1 14.3647 0
358.231 12.1459 0
360.766 11.9837 0
361.04 16.2594 0
358.504 16.4216 0
359.498 12.0649 0
360.903 14.1216 0
359.772 16.3405 0
358.367 14.2838 0
359.635 14.2028 0
360.766 11.9837 0
363.301 11.821 0
363.575 16.0966 0
361.04 16.2594 0
362.033 11.9024 0
363.438 13.9589 0
362.308 16.1781 0
360.903 14.1216 0
362.17 14.0403 0
363.301 11.821 0
365.836 11.6578 0
366.111 15.9334 0
363.575 16.0966 0
364.568 11.7395 0
365.973 13.7957 0
364.843 16.0151 0
363.438 13.9589 0
364.706 13.8773 0
365.836 11.6578 0
368.371 11.4941 0
368.647 15.7697 0
366.111 15.9334 0
367.103 11.576 0
368.509 13.632 0
367.379 15.8516 0
365.973 13.7957 0
367.241 13.7139 0
368.371 11.4941 0
370.905 11.33 0
371.182 15.6056 0
368.647 15.7697 0
369.638 11.4121 0
371.044 13.4678 0
369.915 15.6877 0
368.509 13.632 0
369.776 13.55 0
370.905 11.33 0
373.44 11.1654 0
373.718 15.4409 0
371.182 15.6056 0
372.173 11.2478 0
373.579 13.3032 0
372.45 15.5233 0
371.044 13.4678 0
372.311 13.3856 0
373.44 11.1654 0
375.975 11.0004 0
376.253 15.2759 0
373.718 15.4409 0
374.707 11.0829 0
376.114 13.1382 0
374.985 15.3585 0
373.579 13.3032 0
374.846 13.2208 0
375.975 11.0004 0
378.509 10.8349 0
378.788 15.1104 0
376.253 15.2759 0
377.242 10.9177 0
378.649 12.9727 0
377.521 15.1932 0
376.114 13.1382 0
377.381 13.0555 0
378.509 10.8349 0
381.044 10.669 0
381.324 14.9444 0
378.788 15.1104 0
379.776 10.752 0
381.184 12.8067 0
380.056 15.0274 0
378.649 12.9727 0
379.916 12.8898 0
381.044 10.669 0
383.578 10.5026 0
383.859 14.7781 0
381.324 14.9444 0
382.311 10.5859 0
383.718 12.6404 0
382.591 14.8613 0
381.184 12.8067 0
382.451 12.7236 0
383.578 10.5026 0
386.112 10.3359 0
386.394 14.6113 0
383.859 14.7781 0
384.845 10.4193 0
386.253 12.4736 0
385.126 14.6947 0
383.718 12.6404 0
384.986 12.5571 0
386.112 10.3359 0
388.647 10.1687 0
388.929 14.4441 0
386.394 14.6113 0
387.379 10.2523 0
388.788 12.3065 0
387.661 14.5277 0
386.253 12.4736 0
387.52 12.3901 0
388.647 10.1687 0
391.181 10.0012 0
391.464 14.2765 0
388.929 14.4441 0
389.914 10.085 0
391.322 12.1389 0
390.196 14.3604 0
388.788 12.3065 0
390.055 12.2227 0
391.181 10.0012 0
393.715 9.83323 0
393.998 14.1086 0
391.464 14.2765 0
392.448 9.91725 0
393.857 11.9709 0
392.731 14.1926 0
391.322 12.1389 0
392.589 12.055 0
393.715 9.83323 0
396.249 9.66491 0
396.533 13.9402 0
393.998 14.1086 0
394.982 9.74912 0
396.391 11.8026 0
395.266 14.0245 0
393.857 11.9709 0
395.124 11.8868 0
396.249 9.66491 0
398.783 9.49623 0
399.068 13.7715 0
396.533 13.9402 0
397.516 9.58062 0
398.925 11.6339 0
397.8 13.8559 0
396.391 11.8026 0
397.658 11.7183 0
398.783 9.49623 0
401.317 9.32718 0
401.602 13.6025 0
399.068 13.7715 0
400.05 9.41175 0
401.46 11.4649 0
400.335 13.6871 0
398.925 11.6339 0
400.192 11.5494 0
401.317 9.32718 0
403.851 9.15779 0
404.137 13.4331 0
401.602 13.6025 0
402.584 9.24253 0
403.994 11.2955 0
402.87 13.5178 0
401.46 11.4649 0
402.727 11.3802 0
403.851 9.15779 0
406.385 8.98805 0
406.671 13.2633 0
404.137 13.4331 0
405.118 9.07296 0
406.528 11.1257 0
405.404 13.3482 0
403.994 11.2955 0
405.261 11.2106 0
406.385 8.98805 0
408.918 8.81799 0
409.205 13.0932 0
406.671 13.2633 0
407.652 8.90306 0
409.062 10.9556 0
407.938 13.1783 0
406.528 11.1257 0
407.795 11.0407 0
408.918 8.81799 0
411.452 8.64759 0
411.74 12.9228 0
409.205 13.0932 0
410.185 8.73283 0
411.596 10.7852 0
410.473 13.0081 0
409.062 10.9556 0
410.329 10.8705 0
411.452 8.64759 0
413.986 8.47689 0
414.274 12.7521 0
411.74 12.9228 0
412.719 8.56228 0
414.13 10.6145 0
413.007 12.8375 0
411.596 10.7852 0
412.863 10.6999 0
413.986 8.47689 0
416.519 8.30588 0
416.808 12.5811 0
414.274 12.7521 0
415.253 8.39142 0
416.664 10.4435 0
415.541 12.6666 0
414.13 10.6145 0
415.397 10.5291 0
416.519 8.30588 0
419.053 8.13457 0
419.342 12.4098 0
416.808 12.5811 0
417.786 8.22026 0
419.197 10.2722 0
418.075 12.4955 0
416.664 10.4435 0
417.931 10.3579 0
419.053 8.13457 0
421.586 7.96298 0
421.876 12.2382 0
419.342 12.4098 0
420.32 8.04881 0
421.731 10.1006 0
420.609 12.324 0
419.197 10.2722 0
420.464 10.1864 0
421.586 7.96298 0
424.12 7.79111 0
424.41 12.0663 0
421.876 12.2382 0
422.853 7.87708 0
424.265 9.92873 0
423.143 12.1523 0
421.731 10.1006 0
422.998 10.0147 0
424.12 7.79111 0
426.653 7.61897 0
426.944 11.8941 0
424.41 12.0663 0
425.387 7.70507 0
426.798 9.75659 0
425.677 11.9803 0
424.265 9.92873 0
425.532 9.84269 0
426.653 7.61897 0
429.187 7.44657 0
429.477 11.7217 0
426.944 11.8941 0
427.92 7.5328 0
429.332 9.58419 0
428.211 11.808 0
426.798 9.75659 0
428.065 9.67042 0
429.187 7.44657 0
431.72 7.27392 0
432.011 11.5491 0
429.477 11.7217 0
430.453 7.36028 0
431.865 9.41153 0
430.744 11.6354 0
429.332 9.58419 0
430.599 9.49789 0
431.72 7.27392 0
434.253 7.10103 0
434.545 11.3762 0
432.011 11.5491 0
432.986 7.1875 0
434.399 9.23864 0
433.278 11.4627 0
431.865 9.41153 0
433.132 9.32511 0
434.253 7.10103 0
436.786 6.92791 0
437.078 11.2031 0
434.545 11.3762 0
435.52 7.0145 0
436.932 9.06551 0
435.812 11.2897 0
434.399 9.23864 0
435.666 9.1521 0
436.786 6.92791 0
439.319 6.75456 0
439.612 11.0297 0
437.078 11.2031 0
438.053 6.84126 0
439.465 8.89216 0
438.345 11.1164 0
436.932 9.06551 0
438.199 8.97886 0
439.319 6.75456 0
441.852 6.581 0
442.145 10.8561 0
439.612 11.0297 0
440.586 6.6678 0
441.999 8.7186 0
440.878 10.943 0
439.465 8.89216 0
440.732 8.80541 0
441.852 6.581 0
444.385 6.40723 0
444.678 10.6824 0
442.145 10.8561 0
443.119 6.49414 0
444.532 8.54483 0
443.412 10.7693 0
441.999 8.7186 0
443.265 8.63174 0
444.385 6.40723 0
446.918 6.23327 0
447.212 10.5084 0
444.678 10.6824 0
445.652 6.32027 0
447.065 8.37086 0
445.945 10.5954 0
444.532 8.54483 0
445.798 8.45787 0
446.918 6.23327 0
449.451 6.05911 0
449.745 10.3343 0
447.212 10.5084 0
448.185 6.14621 0
449.598 8.19671 0
448.478 10.4214 0
447.065 8.37086 0
448.331 8.28381 0
449.451 6.05911 0
451.984 5.88478 0
452.278 10.1599 0
449.745 10.3343 0
450.717 5.97197 0
452.131 8.02238 0
451.012 10.2471 0
449.598 8.19671 0
450.864 8.10957 0
451.984 5.88478 0
454.517 5.71029 0
454.811 9.98545 0
452.278 10.1599 0
453.25 5.79756 0
454.664 7.84789 0
453.545 10.0727 0
452.131 8.02238 0
453.397 7.93516 0
454.517 5.71029 0
457.049 5.53563 0
457.344 9.81079 0
454.811 9.98545 0
455.783 5.62298 0
457.197 7.67323 0
456.078 9.89814 0
454.664 7.84789 0
455.93 7.76058 0
457.049 5.53563 0
459.582 5.36082 0
459.877 9.63599 0
457.344 9.81079 0
458.316 5.44824 0
459.73 7.49842 0
458.611 9.72341 0
457.197 7.67323 0
458.463 7.58584 0
459.582 5.36082 0
462.115 5.18587 0
462.41 9.46105 0
459.877 9.63599 0
460.848 5.27336 0
462.262 7.32347 0
461.144 9.54854 0
459.73 7.49842 0
460.996 7.41097 0
462.115 5.18587 0
464.647 5.01078 0
464.943 9.28597 0
462.41 9.46105 0
463.381 5.09834 0
464.795 7.14839 0
463.676 9.37352 0
462.262 7.32347 0
463.529 7.23595 0
464.647 5.01078 0
467.18 4.83557 0
467.476 9.11077 0
464.943 9.28597 0
465.914 4.92319 0
467.328 6.97319 0
466.209 9.19838 0
464.795 7.14839 0
466.061 7.0608 0
467.18 4.83557 0
469.712 4.66025 0
470.008 8.93546 0
467.476 9.11077 0
468.446 4.74793 0
469.86 6.79787 0
468.742 9.02313 0
467.328 6.97319 0
468.594 6.88554 0
469.712 4.66025 0
472.245 4.48482 0
472.541 8.76004 0
470.008 8.93546 0
470.979 4.57255 0
472.393 6.62244 0
471.275 8.84776 0
469.86 6.79787 0
471.127 6.71017 0
472.245 4.48482 0
474.777 4.3093 0
475.073 8.58453 0
472.541 8.76004 0
473.511 4.39707 0
474.925 6.44692 0
473.807 8.67229 0
472.393 6.62244 0
473.659 6.5347 0
474.777 4.3093 0
477.31 4.13368 0
477.606 8.40893 0
475.073 8.58453 0
476.043 4.2215 0
477.458 6.27132 0
476.34 8.49674 0
474.925 6.44692 0
476.191 6.35913 0
477.31 4.13368 0
479.842 3.95799 0
480.138 8.23325 0
477.606 8.40893 0
478.576 4.04585 0
479.99 6.09563 0
478.872 8.3211 0
477.458 6.27132 0
478.724 6.18348 0
479.842 3.95799 0
482.374 3.78223 0
482.671 8.0575 0
480.138 8.23325 0
481.108 3.87012 0
482.522 5.91988 0
481.405 8.14539 0
479.99 6.09563 0
481.256 6.00776 0
482.374 3.78223 0
484.906 3.60641 0
485.203 7.8817 0
482.671 8.0575 0
483.64 3.69433 0
485.055 5.74407 0
483.937 7.96961 0
482.522 5.91988 0
483.789 5.83198 0
484.906 3.60641 0
487.439 3.43054 0
487.735 7.70584 0
485.203 7.8817 0
486.172 3.51848 0
487.587 5.5682 0
486.469 7.79378 0
485.055 5.74407 0
486.321 5.65614 0
487.439 3.43054 0
489.971 3.25462 0
490.268 7.52994 0
487.735 7.70584 0
488.705 3.34259 0
490.119 5.39229 0
489.002 7.6179 0
487.587 5.5682 0
488.853 5.48025 0
489.971 3.25462 0
492.503 3.07865 0
492.8 7.35398 0
490.268 7.52994 0
491.237 3.16664 0
492.651 5.21633 0
491.534 7.44197 0
490.119 5.39229 0
491.385 5.30432 0
492.503 3.07865 0
495.035 2.90262 0
495.332 7.17795 0
492.8 7.35398 0
493.769 2.99065 0
495.183 5.04029 0
494.066 7.26598 0
492.651 5.21633 0
493.917 5.12832 0
495.035 2.90262 0
497.567 2.72647 0
497.864 7.00174 0
495.332 7.17795 0
496.301 2.81456 0
497.715 4.86411 0
496.598 7.08987 0
495.183 5.04029 0
496.449 4.95223 0
497.567 2.72647 0
500.099 2.55025 0
500.397 6.82481 0
497.864 7.00174 0
498.833 2.63836 0
500.247 4.68758 0
499.13 6.91348 0
497.715 4.86411 0
498.981 4.77589 0
      </DataArray>
    </Points>
    <Cells>
      <DataArray type="Int32" Name="connectivity" format="ascii">
0 1 2 3 4 5 6 7 8 
9 10 11 12 13 14 15 16 17 
18 19 20 21 22 23 24 25 26 
27 28 29 30 31 32 33 34 35 
36 37 38 39 40 41 42 43 44 
45 46 47 48 49 50 51 52 53 
54 55 56 57 58 59 60 61 62 
63 64 65 66 67 68 69 70 71 
72 73 74 75 76 77 78 79 80 
81 82 83 84 85 86 87 88 89 
90 91 92 93 94 95 96 97 98 
99 100 101 102 103 104 105 106 107 
108 109 110 111 112 113 114 115 116 
117 118 119 120 121 122 123 124 125 
126 127 128 129 130 131 132 133 134 
135 136 137 138 139 140 141 142 143 
144 145 146 147 148 149 150 151 152 
153 154 155 156 157 158 159 160 161 
162 163 164 165 166 167 168 169 170 
171 172 173 174 175 176 177 178 179 
180 181 182 183 184 185 186 187 188 
189 190 191 192 193 194 195 196 197 
198 199 200 201 202 203 204 205 206 
207 208 209 210 211 212 213 214 215 
216 217 218 219 220 221 222 223 224 
225 226 227 228 229 230 231 232 233 
234 235 236 237 238 239 240 241 242 
243 244 245 246 247 248 249 250 251 
252 253 254 255 256 257 258 259 260 
261 262 263 264 265 266 267 268 269 
270 271 272 273 274 275 276 277 278 
279 280 281 282 283 284 285 286 287 
288 289 290 291 292 293 294 295 296 
297 298 299 300 301 302 303 304 305 
306 307 308 309 310 311 312 313 314 
315 316 317 318 319 320 321 322 323 
324 325 326 327 328 329 330 331 332 
333 334 335 336 337 338 339 340 341 
342 343 344 345 346 347 348 349 350 
351 352 353 354 355 356 357 358 359 
360 361 362 363 364 365 366 367 368 
369 370 371 372 373 374 375 376 377 
378 379 380 381 382 383 384 385 386 
387 388 389 390 391 392 393 394 395 
396 397 398 399 400 401 402 403 404 
405 406 407 408 409 410 411 412 413 
414 415 416 417 418 419 420 421 422 
423 424 425 426 427 428 429 430 431 
432 433 434 435 436 437 438 439 440 
441 442 443 444 445 446 447 448 449 
450 451 452 453 454 455 456 457 458 
459 460 461 462 463 464 465 466 467 
468 469 470 471 472 473 474 475 476 
477 478 479 480 481 482 483 484 485 
486 487 488 489 490 491 492 493 494 
495 496 497 498 499 500 501 502 503 
504 505 506 507 508 509 510 511 512 
513 514 515 516 517 518 519 520 521 
522 523 524 525 526 527 528 529 530 
531 532 533 534 535 536 537 538 539 
540 541 542 543 544 545 546 547 548 
549 550 551 552 553 554 555 556 557 
558 559 560 561 562 563 564 565 566 
567 568 569 570 571 572 573 574 575 
576 577 578 579 580 581 582 583 584 
585 586 587 588 589 590 591 592 593 
594 595 596 597 598 599 600 601 602 
603 604 605 606 607 608 609 610 611 
612 613 614 615 616 617 618 619 620 
621 622 623 624 625 626 627 628 629 
630 631 632 633 634 635 636 637 638 
639 640 641 642 643 644 645 646 647 
648 649 650 651 652 653 654 655 656 
657 658 659 660 661 662 663 664 665 
666 667 668 669 670 671 672 673 674 
675 676 677 678 679 680 681 682 683 
684 685 686 687 688 689 690 691 692 
693 694 695 696 697 698 699 700 701 
702 703 704 705 706 707 708 709 710 
711 712 713 714 715 716 717 718 719 
720 721 722 723 724 725 726 727 728 
729 730 731 732 733 734 735 736 737 
738 739 740 741 742 743 744 745 746 
747 748 749 750 751 752 753 754 755 
756 757 758 759 760 761 762 763 764 
765 766 767 768 769 770 771 772 773 
774 775 776 777 778 779 780 781 782 
783 784 785 786 787 788 789 790 791 
792 793 794 795 796 797 798 799 800 
801 802 803 804 805 806 807 808 809 
810 811 812 813 814 815 816 817 818 
819 820 821 822 823 824 825 826 827 
828 829 830 831 832 833 834 835 836 
837 838 839 840 841 842 843 844 845 
846 847 848 849 850 851 852 853 854 
855 856 857 858 859 860 861 862 863 
864 865 866 867 868 869 870 871 872 
873 874 875 876 877 878 879 880 881 
882 883 884 885 886 887 888 889 890 
891 892 893 894 895 896 897 898 899 
900 901 902 903 904 905 906 907 908 
909 910 911 912 913 914 915 916 917 
918 919 920 921 922 923 924 925 926 
927 928 929 930 931 932 933 934 935 
936 937 938 939 940 941 942 943 944 
945 946 947 948 949 950 951 952 953 
954 955 956 957 958 959 960 961 962 
963 964 965 966 967 968 969 970 971 
972 973 974 975 976 977 978 979 980 
981 982 983 984 985 986 987 988 989 
990 991 992 993 994 995 996 997 998 
999 1000 1001 1002 1003 1004 1005 1006 1007 
1008 1009 1010 1011 1012 1013 1014 1015 1016 
1017 1018 1019 1020 1021 1022 1023 1024 1025 
1026 1027 1028 1029 1030 1031 1032 1033 1034 
1035 1036 1037 1038 1039 1040 1041 1042 1043 
1044 1045 1046 1047 1048 1049 1050 1051 1052 
1053 1054 1055 1056 1057 1058 1059 1060 1061 
1062 1063 1064 1065 1066 1067 1068 1069 1070 
1071 1072 1073 1074 1075 1076 1077 1078 1079 
1080 1081 1082 1083 1084 1085 1086 1087 1088 
1089 1090 1091 1092 1093 1094 1095 1096 1097 
1098 1099 1100 1101 1102 1103 1104 1105 1106 
1107 1108 1109 1110 1111 1112 1113 1114 1115 
1116 1117 1118 1119 1120 1121 1122 1123 1124 
1125 1126 1127 1128 1129 1130 1131 1132 1133 
1134 1135 1136 1137 1138 1139 1140 1141 1142 
1143 1144 1145 1146 1147 1148 1149 1150 1151 
1152 1153 1154 1155 1156 1157 1158 1159 1160 
1161 1162 1163 1164 1165 1166 1167 1168 1169 
1170 1171 1172 1173 1174 1175 1176 1177 1178 
1179 1180 1181 1182 1183 1184 1185 1186 1187 
1188 1189 1190 1191 1192 1193 1194 1195 1196 
1197 1198 1199 1200 1201 1202 1203 1204 1205 
1206 1207 1208 1209 1210 1211 1212 1213 1214 
1215 1216 1217 1218 1219 1220 1221 1222 1223 
1224 1225 1226 1227 1228 1229 1230 1231 1232 
1233 1234 1235 1236 1237 1238 1239 1240 1241 
1242 1243 1244 1245 1246 1247 1248 1249 1250 
1251 1252 1253 1254 1255 1256 1257 1258 1259 
1260 1261 1262 1263 1264 1265 1266 1267 1268 
1269 1270 1271 1272 1273 1274 1275 1276 1277 
1278 1279 1280 1281 1282 1283 1284 1285 1286 
1287 1288 1289 1290 1291 1292 1293 1294 1295 
1296 1297 1298 1299 1300 1301 1302 1303 1304 
1305 1306 1307 1308 1309 1310 1311 1312 1313 
1314 1315 1316 1317 1318 1319 1320 1321 1322 
1323 1324 1325 1326 1327 1328 1329 1330 1331 
1332 1333 1334 1335 1336 1337 1338 1339 1340 
1341 1342 1343 1344 1345 1346 1347 1348 1349 
1350 1351 1352 1353 1354 1355 1356 1357 1358 
1359 1360 1361 1362 1363 1364 1365 1366 1367 
1368 1369 1370 1371 1372 1373 1374 1375 1376 
1377 1378 1379 1380 1381 1382 1383 1384 1385 
1386 1387 1388 1389 1390 1391 1392 1393 1394 
1395 1396 1397 1398 1399 1400 1401 1402 1403 
1404 1405 1406 1407 1408 1409 1410 1411 1412 
1413 1414 1415 1416 1417 1418 1419 1420 1421 
1422 1423 1424 1425 1426 1427 1428 1429 1430 
1431 1432 1433 1434 1435 1436 1437 1438 1439 
1440 1441 1442 1443 1444 1445 1446 1447 1448 
1449 1450 1451 1452 1453 1454 1455 1456 1457 
1458 1459 1460 1461 1462 1463 1464 1465 1466 
1467 1468 1469 1470 1471 1472 1473 1474 1475 
1476 1477 1478 1479 1480 1481 1482 1483 1484 
1485 1486 1487 1488 1489 1490 1491 1492 1493 
1494 1495 1496 1497 1498 1499 1500 1501 1502 
1503 1504 1505 1506 1507 1508 1509 1510 1511 
1512 1513 1514 1515 1516 1517 1518 1519 1520 
1521 1522 1523 1524 1525 1526 1527 1528 1529 
1530 1531 1532 1533 1534 1535 1536 1537 1538 
1539 1540 1541 1542 1543 1544 1545 1546 1547 
1548 1549 1550 1551 1552 1553 1554 1555 1556 
1557 1558 1559 1560 1561 1562 1563 1564 1565 
1566 1567 1568 1569 1570 1571 1572 1573 1574 
1575 1576 1577 1578 1579 1580 1581 1582 1583 
1584 1585 1586 1587 1588 1589 1590 1591 1592 
1593 1594 1595 1596 1597 1598 1599 1600 1601 
1602 1603 1604 1605 1606 1607 1608 1609 1610 
1611 1612 1613 1614 1615 1616 1617 1618 1619 
1620 1621 1622 1623 1624 1625 1626 1627 1628 
1629 1630 1631 1632 1633 1634 1635 1636 1637 
1638 1639 1640 1641 1642 1643 1644 1645 1646 
1647 1648 1649 1650 1651 1652 1653 1654 1655 
1656 1657 1658 1659 1660 1661 1662 1663 1664 
1665 1666 1667 1668 1669 1670 1671 1672 1673 
1674 1675 1676 1677 1678 1679 1680 1681 1682 
1683 1684 1685 1686 1687 1688 1689 1690 1691 
1692 1693 1694 1695 1696 1697 1698 1699 1700 
1701 1702 1703 1704 1705 1706 1707 1708 1709 
1710 1711 1712 1713 1714 1715 1716 1717 1718 
1719 1720 1721 1722 1723 1724 1725 1726 1727 
1728 1729 1730 1731 1732 1733 1734 1735 1736 
1737 1738 1739 1740 1741 1742 1743 1744 1745 
1746 1747 1748 1749 1750 1751 1752 1753 1754 
1755 1756 1757 1758 1759 1760 1761 1762 1763 
1764 1765 1766 1767 1768 1769 1770 1771 1772 
1773 1774 1775 1776 1777 1778 1779 1780 1781 
1782 1783 1784 1785 1786 1787 1788 1789 1790 
1791 1792 1793 1794 1795 1796 1797 1798 1799 
1800 1801 1802 1803 1804 1805 1806 1807 1808 
1809 1810 1811 1812 1813 1814 1815 1816 1817 
1818 1819 1820 1821 1822 1823 1824 1825 1826 
1827 1828 1829 1830 1831 1832 1833 1834 1835 
1836 1837 1838 1839 1840 1841 1842 1843 1844 
1845 1846 1847 1848 1849 1850 1851 1852 1853 
1854 1855 1856 1857 1858 1859 1860 1861 1862 
1863 1864 1865 1866 1867 1868 1869 1870 1871 
1872 1873 1874 1875 1876 1877 1878 1879 1880 
1881 1882 1883 1884 1885 1886 1887 1888 1889 
1890 1891 1892 1893 1894 1895 1896 1897 1898 
1899 1900 1901 1902 1903 1904 1905 1906 1907 
1908 1909 1910 1911 1912 1913 1914 1915 1916 
1917 1918 1919 1920 1921 1922 1923 1924 1925 
1926 1927 1928 1929 1930 1931 1932 1933 1934 
1935 1936 1937 1938 1939 1940 1941 1942 1943 
1944 1945 1946 1947 1948 1949 1950 1951 1952 
1953 1954 1955 1956 1957 1958 1959 1960 1961 
1962 1963 1964 1965 1966 1967 1968 1969 1970 
1971 1972 1973 1974 1975 1976 1977 1978 1979 
1980 1981 1982 1983 1984 1985 1986 1987 1988 
1989 1990 1991 1992 1993 1994 1995 1996 1997 
1998 1999 2000 2001 2002 2003 2004 2005 2006 
2007 2008 2009 2010 2011 2012 2013 2014 2015 
2016 2017 2018 2019 2020 2021 2022 2023 2024 
2025 2026 2027 2028 2029 2030 2031 2032 2033 
2034 2035 2036 2037 2038 2039 2040 2041 2042 
2043 2044 2045 2046 2047 2048 2049 2050 2051 
2052 2053 2054 2055 2056 2057 2058 2059 2060 
2061 2062 2063 2064 2065 2066 2067 2068 2069 
2070 2071 2072 2073 2074 2075 2076 2077 2078 
2079 2080 2081 2082 2083 2084 2085 2086 2087 
2088 2089 2090 2091 2092 2093 2094 2095 2096 
2097 2098 2099 2100 2101 2102 2103 2104 2105 
2106 2107 2108 2109 2110 2111 2112 2113 2114 
2115 2116 2117 2118 2119 2120 2121 2122 2123 
2124 2125 2126 2127 2128 2129 2130 2131 2132 
2133 2134 2135 2136 2137 2138 2139 2140 2141 
2142 2143 2144 2145 2146 2147 2148 2149 2150 
2151 2152 2153 2154 2155 2156 2157 2158 2159 
2160 2161 2162 2163 2164 2165 2166 2167 2168 
2169 2170 2171 2172 2173 2174 2175 2176 2177 
2178 2179 2180 2181 2182 2183 2184 2185 2186 
2187 2188 2189 2190 2191 2192 2193 2194 2195 
2196 2197 2198 2199 2200 2201 2202 2203 2204 
2205 2206 2207 2208 2209 2210 2211 2212 2213 
2214 2215 2216 2217 2218 2219 2220 2221 2222 
2223 2224 2225 2226 2227 2228 2229 2230 2231 
2232 2233 2234 2235 2236 2237 2238 2239 2240 
2241 2242 2243 2244 2245 2246 2247 2248 2249 
2250 2251 2252 2253 2254 2255 2256 2257 2258 
2259 2260 2261 2262 2263 2264 2265 2266 2267 
2268 2269 2270 2271 2272 2273 2274 2275 2276 
2277 2278 2279 2280 2281 2282 2283 2284 2285 
2286 2287 2288 2289 2290 2291 2292 2293 2294 
2295 2296 2297 2298 2299 2300 2301 2302 2303 
2304 2305 2306 2307 2308 2309 2310 2311 2312 
2313 2314 2315 2316 2317 2318 2319 2320 2321 
2322 2323 2324 2325 2326 2327 2328 2329 2330 
2331 2332 2333 2334 2335 2336 2337 2338 2339 
2340 2341 2342 2343 2344 2345 2346 2347 2348 
2349 2350 2351 2352 2353 2354 2355 2356 2357 
2358 2359 2360 2361 2362 2363 2364 2365 2366 
2367 2368 2369 2370 2371 2372 2373 2374 2375 
2376 2377 2378 2379 2380 2381 2382 2383 2384 
2385 2386 2387 2388 2389 2390 2391 2392 2393 
2394 2395 2396 2397 2398 2399 2400 2401 2402 
2403 2404 2405 2406 2407 2408 2409 2410 2411 
2412 2413 2414 2415 2416 2417 2418 2419 2420 
2421 2422 2423 2424 2425 2426 2427 2428 2429 
2430 2431 2432 2433 2434 2435 2436 2437 2438 
2439 2440 2441 2442 2443 2444 2445 2446 2447 
2448 2449 2450 2451 2452 2453 2454 2455 2456 
2457 2458 2459 2460 2461 2462 2463 2464 2465 
2466 2467 2468 2469 2470 2471 2472 2473 2474 
2475 2476 2477 2478 2479 2480 2481 2482 2483 
2484 2485 2486 2487 2488 2489 2490 2491 2492 
2493 2494 2495 2496 2497 2498 2499 2500 2501 
2502 2503 2504 2505 2506 2507 2508 2509 2510 
2511 2512 2513 2514 2515 2516 2517 2518 2519 
2520 2521 2522 2523 2524 2525 2526 2527 2528 
2529 2530 2531 2532 2533 2534 2535 2536 2537 
2538 2539 2540 2541 2542 2543 2544 2545 2546 
2547 2548 2549 2550 2551 2552 2553 2554 2555 
2556 2557 2558 2559 2560 2561 2562 2563 2564 
2565 2566 2567 2568 2569 2570 2571 2572 2573 
2574 2575 2576 2577 2578 2579 2580 2581 2582 
2583 2584 2585 2586 2587 2588 2589 2590 2591 
2592 2593 2594 2595 2596 2597 2598 2599 2600 
2601 2602 2603 2604 2605 2606 2607 2608 2609 
2610 2611 2612 2613 2614 2615 2616 2617 2618 
2619 2620 2621 2622 2623 2624 2625 2626 2627 
2628 2629 2630 2631 2632 2633 2634 2635 2636 
2637 2638 2639 2640 2641 2642 2643 2644 2645 
2646 2647 2648 2649 2650 2651 2652 2653 2654 
2655 2656 2657 2658 2659 2660 2661 2662 2663 
2664 2665 2666 2667 2668 2669 2670 2671 2672 
2673 2674 2675 2676 2677 2678 2679 2680 2681 
2682 2683 2684 2685 2686 2687 2688 2689 2690 
2691 2692 2693 2694 2695 2696 2697 2698 2699 
2700 2701 2702 2703 2704 2705 2706 2707 2708 
2709 2710 2711 2712 2713 2714 2715 2716 2717 
2718 2719 2720 2721 2722 2723 2724 2725 2726 
2727 2728 2729 2730 2731 2732 2733 2734 2735 
2736 2737 2738 2739 2740 2741 2742 2743 2744 
2745 2746 2747 2748 2749 2750 2751 2752 2753 
2754 2755 2756 2757 2758 2759 2760 2761 2762 
2763 2764 2765 2766 2767 2768 2769 2770 2771 
2772 2773 2774 2775 2776 2777 2778 2779 2780 
2781 2782 2783 2784 2785 2786 2787 2788 2789 
2790 2791 2792 2793 2794 2795 2796 2797 2798 
2799 2800 2801 2802 2803 2804 2805 2806 2807 
2808 2809 2810 2811 2812 2813 2814 2815 2816 
2817 2818 2819 2820 2821 2822 2823 2824 2825 
2826 2827 2828 2829 2830 2831 2832 2833 2834 
2835 2836 2837 2838 2839 2840 2841 2842 2843 
2844 2845 2846 2847 2848 2849 2850 2851 2852 
2853 2854 2855 2856 2857 2858 2859 2860 2861 
2862 2863 2864 2865 2866 2867 2868 2869 2870 
2871 2872 2873 2874 2875 2876 2877 2878 2879 
2880 2881 2882 2883 2884 2885 2886 2887 2888 
2889 2890 2891 2892 2893 2894 2895 2896 2897 
2898 2899 2900 2901 2902 2903 2904 2905 2906 
2907 2908 2909 2910 2911 2912 2913 2914 2915 
2916 2917 2918 2919 2920 2921 2922 2923 2924 
2925 2926 2927 2928 2929 2930 2931 2932 2933 
2934 2935 2936 2937 2938 2939 2940 2941 2942 
2943 2944 2945 2946 2947 2948 2949 2950 2951 
2952 2953 2954 2955 2956 2957 2958 2959 2960 
2961 2962 2963 2964 2965 2966 2967 2968 2969 
2970 2971 2972 2973 2974 2975 2976 2977 2978 
2979 2980 2981 2982 2983 2984 2985 2986 2987 
2988 2989 2990 2991 2992 2993 2994 2995 2996 
2997 2998 2999 3000 3001 3002 3003 3004 3005 
3006 3007 3008 3009 3010 3011 3012 3013 3014 
3015 3016 3017 3018 3019 3020 3021 3022 3023 
3024 3025 3026 3027 3028 3029 3030 3031 3032 
3033 3034 3035 3036 3037 3038 3039 3040 3041 
3042 3043 3044 3045 3046 3047 3048 3049 3050 
3051 3052 3053 3054 3055 3056 3057 3058 3059 
3060 3061 3062 3063 3064 3065 3066 3067 3068 
3069 3070 3071 3072 3073 3074 3075 3076 3077 
3078 3079 3080 3081 3082 3083 3084 3085 3086 
3087 3088 3089 3090 3091 3092 3093 3094 3095 
3096 3097 3098 3099 3100 3101 3102 3103 3104 
3105 3106 3107 3108 3109 3110 3111 3112 3113 
3114 3115 3116 3117 3118 3119 3120 3121 3122 
3123 3124 3125 3126 3127 3128 3129 3130 3131 
3132 3133 3134 3135 3136 3137 3138 3139 3140 
3141 3142 3143 3144 3145 3146 3147 3148 3149 
3150 3151 3152 3153 3154 3155 3156 3157 3158 
3159 3160 3161 3162 3163 3164 3165 3166 3167 
3168 3169 3170 3171 3172 3173 3174 3175 3176 
3177 3178 3179 3180 3181 3182 3183 3184 3185 
3186 3187 3188 3189 3190 3191 3192 3193 3194 
3195 3196 3197 3198 3199 3200 3201 3202 3203 
3204 3205 3206 3207 3208 3209 3210 3211 3212 
3213 3214 3215 3216 3217 3218 3219 3220 3221 
3222 3223 3224 3225 3226 3227 3228 3229 3230 
3231 3232 3233 3234 3235 3236 3237 3238 3239 
3240 3241 3242 3243 3244 3245 3246 3247 3248 
3249 3250 3251 3252 3253 3254 3255 3256 3257 
3258 3259 3260 3261 3262 3263 3264 3265 3266 
3267 3268 3269 3270 3271 3272 3273 3274 3275 
3276 3277 3278 3279 3280 3281 3282 3283 3284 
3285 3286 3287 3288 3289 3290 3291 3292 3293 
3294 3295 3296 3297 3298 3299 3300 3301 3302 
3303 3304 3305 3306 3307 3308 3309 3310 3311 
3312 3313 3314 3315 3316 3317 3318 3319 3320 
3321 3322 3323 3324 3325 3326 3327 3328 3329 
3330 3331 3332 3333 3334 3335 3336 3337 3338 
3339 3340 3341 3342 3343 3344 3345 3346 3347 
3348 3349 3350 3351 3352 3353 3354 3355 3356 
3357 3358 3359 3360 3361 3362 3363 3364 3365 
3366 3367 3368 3369 3370 3371 3372 3373 3374 
3375 3376 3377 3378 3379 3380 3381 3382 3383 
3384 3385 3386 3387 3388 3389 3390 3391 3392 
3393 3394 3395 3396 3397 3398 3399 3400 3401 
3402 3403 3404 3405 3406 3407 3408 3409 3410 
3411 3412 3413 3414 3415 3416 3417 3418 3419 
3420 3421 3422 3423 3424 3425 3426 3427 3428 
3429 3430 3431 3432 3433 3434 3435 3436 3437 
3438 3439 3440 3441 3442 3443 3444 3445 3446 
3447 3448 3449 3450 3451 3452 3453 3454 3455 
3456 3457 3458 3459 3460 3461 3462 3463 3464 
3465 3466 3467 3468 3469 3470 3471 3472 3473 
3474 3475 3476 3477 3478 3479 3480 3481 3482 
3483 3484 3485 3486 3487 3488 3489 3490 3491 
3492 3493 3494 3495 3496 3497 3498 3499 3500 
3501 3502 3503 3504 3505 3506 3507 3508 3509 
3510 3511 3512 3513 3514 3515 3516 3517 3518 
3519 3520 3521 3522 3523 3524 3525 3526 3527 
3528 3529 3530 3531 3532 3533 3534 3535 3536 
3537 3538 3539 3540 3541 3542 3543 3544 3545 
3546 3547 3548 3549 3550 3551 3552 3553 3554 
3555 3556 3557 3558 3559 3560 3561 3562 3563 
3564 3565 3566 3567 3568 3569 3570 3571 3572 
3573 3574 3575 3576 3577 3578 3579 3580 3581 
3582 3583 3584 3585 3586 3587 3588 3589 3590 
3591 3592 3593 3594 3595 3596 3597 3598 3599 
3600 3601 3602 3603 3604 3605 3606 3607 3608 
3609 3610 3611 3612 3613 3614 3615 3616 3617 
3618 3619 3620 3621 3622 3623 3624 3625 3626 
3627 3628 3629 3630 3631 3632 3633 3634 3635 
3636 3637 3638 3639 3640 3641 3642 3643 3644 
3645 3646 3647 3648 3649 3650 3651 3652 3653 
3654 3655 3656 3657 3658 3659 3660 3661 3662 
3663 3664 3665 3666 3667 3668 3669 3670 3671 
3672 3673 3674 3675 3676 3677 3678 3679 3680 
3681 3682 3683 3684 3685 3686 3687 3688 3689 
3690 3691 3692 3693 3694 3695 3696 3697 3698 
3699 3700 3701 3702 3703 3704 3705 3706 3707 
3708 3709 3710 3711 3712 3713 3714 3715 3716 
3717 3718 3719 3720 3721 3722 3723 3724 3725 
3726 3727 3728 3729 3730 3731 3732 3733 3734 
3735 3736 3737 3738 3739 3740 3741 3742 3743 
3744 3745 3746 3747 3748 3749 3750 3751 3752 
3753 3754 3755 3756 3757 3758 3759 3760 3761 
3762 3763 3764 3765 3766 3767 3768 3769 3770 
3771 3772 3773 3774 3775 3776 3777 3778 3779 
3780 3781 3782 3783 3784 3785 3786 3787 3788 
3789 3790 3791 3792 3793 3794 3795 3796 3797 
3798 3799 3800 3801 3802 3803 3804 3805 3806 
3807 3808 3809 3810 3811 3812 3813 3814 3815 
3816 3817 3818 3819 3820 3821 3822 3823 3824 
3825 3826 3827 3828 3829 3830 3831 3832 3833 
3834 3835 3836 3837 3838 3839 3840 3841 3842 
3843 3844 3845 3846 3847 3848 3849 3850 3851 
3852 3853 3854 3855 3856 3857 3858 3859 3860 
3861 3862 3863 3864 3865 3866 3867 3868 3869 
3870 3871 3872 3873 3874 3875 3876 3877 3878 
3879 3880 3881 3882 3883 3884 3885 3886 3887 
3888 3889 3890 3891 3892 3893 3894 3895 3896 
3897 3898 3899 3900 3901 3902 3903 3904 3905 
3906 3907 3908 3909 3910 3911 3912 3913 3914 
3915 3916 3917 3918 3919 3920 3921 3922 3923 
3924 3925 3926 3927 3928 3929 3930 3931 3932 
3933 3934 3935 3936 3937 3938 3939 3940 3941 
3942 3943 3944 3945 3946 3947 3948 3949 3950 
3951 3952 3953 3954 3955 3956 3957 3958 3959 
3960 3961 3962 3963 3964 3965 3966 3967 3968 
3969 3970 3971 3972 3973 3974 3975 3976 3977 
3978 3979 3980 3981 3982 3983 3984 3985 3986 
3987 3988 3989 3990 3991 3992 3993 3994 3995 
3996 3997 3998 3999 4000 4001 4002 4003 4004 
4005 4006 4007 4008 4009 4010 4011 4012 4013 
4014 4015 4016 4017 4018 4019 4020 4021 4022 
4023 4024 4025 4026 4027 4028 4029 4030 4031 
4032 4033 4034 4035 4036 4037 4038 4039 4040 
4041 4042 4043 4044 4045 4046 4047 4048 4049 
4050 4051 4052 4053 4054 4055 4056 4057 4058 
4059 4060 4061 4062 4063 4064 4065 4066 4067 
4068 4069 4070 4071 4072 4073 4074 4075 4076 
4077 4078 4079 4080 4081 4082 4083 4084 4085 
4086 4087 4088 4089 4090 4091 4092 4093 4094 
4095 4096 4097 4098 4099 4100 4101 4102 4103 
4104 4105 4106 4107 4108 4109 4110 4111 4112 
4113 4114 4115 4116 4117 4118 4119 4120 4121 
4122 4123 4124 4125 4126 4127 4128 4129 4130 
4131 4132 4133 4134 4135 4136 4137 4138 4139 
4140 4141 4142 4143 4144 4145 4146 4147 4148 
4149 4150 4151 4152 4153 4154 4155 4156 4157 
4158 4159 4160 4161 4162 4163 4164 4165 4166 
4167 4168 4169 4170 4171 4172 4173 4174 4175 
4176 4177 4178 4179 4180 4181 4182 4183 4184 
4185 4186 4187 4188 4189 4190 4191 4192 4193 
4194 4195 4196 4197 4198 4199 4200 4201 4202 
4203 4204 4205 4206 4207 4208 4209 4210 4211 
4212 4213 4214 4215 4216 4217 4218 4219 4220 
4221 4222 4223 4224 4225 4226 4227 4228 4229 
4230 4231 4232 4233 4234 4235 4236 4237 4238 
4239 4240 4241 4242 4243 4244 4245 4246 4247 
4248 4249 4250 4251 4252 4253 4254 4255 4256 
4257 4258 4259 4260 4261 4262 4263 4264 4265 
4266 4267 4268 4269 4270 4271 4272 4273 4274 
4275 4276 4277 4278 4279 4280 4281 4282 4283 
4284 4285 4286 4287 4288 4289 4290 4291 4292 
4293 4294 4295 4296 4297 4298 4299 4300 4301 
4302 4303 4304 4305 4306 4307 4308 4309 4310 
4311 4312 4313 4314 4315 4316 4317 4318 4319 
4320 4321 4322 4323 4324 4325 4326 4327 4328 
4329 4330 4331 4332 4333 4334 4335 4336 4337 
4338 4339 4340 4341 4342 4343 4344 4345 4346 
4347 4348 4349 4350 4351 4352 4353 4354 4355 
4356 4357 4358 4359 4360 4361 4362 4363 4364 
4365 4366 4367 4368 4369 4370 4371 4372 4373 
4374 4375 4376 4377 4378 4379 4380 4381 4382 
4383 4384 4385 4386 4387 4388 4389 4390 4391 
4392 4393 4394 4395 4396 4397 4398 4399 4400 
4401 4402 4403 4404 4405 4406 4407 4408 4409 
4410 4411 4412 4413 4414 4415 4416 4417 4418 
4419 4420 4421 4422 4423 4424 4425 4426 4427 
4428 4429 4430 4431 4432 4433 4434 4435 4436 
4437 4438 4439 4440 4441 4442 4443 4444 4445 
4446 4447 4448 4449 4450 4451 4452 4453 4454 
4455 4456 4457 4458 4459 4460 4461 4462 4463 
4464 4465 4466 4467 4468 4469 4470 4471 4472 
4473 4474 4475 4476 4477 4478 4479 4480 4481 
4482 4483 4484 4485 4486 4487 4488 4489 4490 
4491 4492 4493 4494 4495 4496 4497 4498 4499 
4500 4501 4502 4503 4504 4505 4506 4507 4508 
4509 4510 4511 4512 4513 4514 4515 4516 4517 
4518 4519 4520 4521 4522 4523 4524 4525 4526 
4527 4528 4529 4530 4531 4532 4533 4534 4535 
4536 4537 4538 4539 4540 4541 4542 4543 4544 
4545 4546 4547 4548 4549 4550 4551 4552 4553 
4554 4555 4556 4557 4558 4559 4560 4561 4562 
4563 4564 4565 4566 4567 4568 4569 4570 4571 
4572 4573 4574 4575 4576 4577 4578 4579 4580 
4581 4582 4583 4584 4585 4586 4587 4588 4589 
4590 4591 4592 4593 4594 4595 4596 4597 4598 
4599 4600 4601 4602 4603 4604 4605 4606 4607 
4608 4609 4610 4611 4612 4613 4614 4615 4616 
4617 4618 4619 4620 4621 4622 4623 4624 4625 
4626 4627 4628 4629 4630 4631 4632 4633 4634 
4635 4636 4637 4638 4639 4640 4641 4642 4643 
4644 4645 4646 4647 4648 4649 4650 4651 4652 
4653 4654 4655 4656 4657 4658 4659 4660 4661 
4662 4663 4664 4665 4666 4667 4668 4669 4670 
4671 4672 4673 4674 4675 4676 4677 4678 4679 
4680 4681 4682 4683 4684 4685 4686 4687 4688 
4689 4690 4691 4692 4693 4694 4695 4696 4697 
4698 4699 4700 4701 4702 4703 4704 4705 4706 
4707 4708 4709 4710 4711 4712 4713 4714 4715 
4716 4717 4718 4719 4720 4721 4722 4723 4724 
4725 4726 4727 4728 4729 4730 4731 4732 4733 
4734 4735 4736 4737 4738 4739 4740 4741 4742 
4743 4744 4745 4746 4747 4748 4749 4750 4751 
4752 4753 4754 4755 4756 4757 4758 4759 4760 
4761 4762 4763 4764 4765 4766 4767 4768 4769 
4770 4771 4772 4773 4774 4775 4776 4777 4778 
4779 4780 4781 4782 4783 4784 4785 4786 4787 
4788 4789 4790 4791 4792 4793 4794 4795 4796 
4797 4798 4799 4800 4801 4802 4803 4804 4805 
4806 4807 4808 4809 4810 4811 4812 4813 4814 
4815 4816 4817 4818 4819 4820 4821 4822 4823 
4824 4825 4826 4827 4828 4829 4830 4831 4832 
4833 4834 4835 4836 4837 4838 4839 4840 4841 
4842 4843 4844 4845 4846 4847 4848 4849 4850 
4851 4852 4853 4854 4855 4856 4857 4858 4859 
4860 4861 4862 4863 4864 4865 4866 4867 4868 
4869 4870 4871 4872 4873 4874 4875 4876 4877 
4878 4879 4880 4881 4882 4883 4884 4885 4886 
4887 4888 4889 4890 4891 4892 4893 4894 4895 
4896 4897 4898 4899 4900 4901 4902 4903 4904 
4905 4906 4907 4908 4909 4910 4911 4912 4913 
4914 4915 4916 4917 4918 4919 4920 4921 4922 
4923 4924 4925 4926 4927 4928 4929 4930 4931 
4932 4933 4934 4935 4936 4937 4938 4939 4940 
4941 4942 4943 4944 4945 4946 4947 4948 4949 
4950 4951 4952 4953 4954 4955 4956 4957 4958 
4959 4960 4961 4962 4963 4964 4965 4966 4967 
4968 4969 4970 4971 4972 4973 4974 4975 4976 
4977 4978 4979 4980 4981 4982 4983 4984 4985 
4986 4987 4988 4989 4990 4991 4992 4993 4994 
4995 4996 4997 4998 4999 5000 5001 5002 5003 
5004 5005 5006 5007 5008 5009 5010 5011 5012 
5013 5014 5015 5016 5017 5018 5019 5020 5021 
5022 5023 5024 5025 5026 5027 5028 5029 5030 
5031 5032 5033 5034 5035 5036 5037 5038 5039 
5040 5041 5042 5043 5044 5045 5046 5047 5048 
5049 5050 5051 5052 5053 5054 5055 5056 5057 
5058 5059 5060 5061 5062 5063 5064 5065 5066 
5067 5068 5069 5070 5071 5072 5073 5074 5075 
5076 5077 5078 5079 5080 5081 5082 5083 5084 
5085 5086 5087 5088 5089 5090 5091 5092 5093 
5094 5095 5096 5097 5098 5099 5100 5101 5102 
5103 5104 5105 5106 5107 5108 5109 5110 5111 
5112 5113 5114 5115 5116 5117 5118 5119 5120 
5121 5122 5123 5124 5125 5126 5127 5128 5129 
5130 5131 5132 5133 5134 5135 5136 5137 5138 
5139 5140 5141 5142 5143 5144 5145 5146 5147 
5148 5149 5150 5151 5152 5153 5154 5155 5156 
5157 5158 5159 5160 5161 5162 5163 5164 5165 
5166 5167 5168 5169 5170 5171 5172 5173 5174 
5175 5176 5177 5178 5179 5180 5181 5182 5183 
5184 5185 5186 5187 5188 5189 5190 5191 5192 
5193 5194 5195 5196 5197 5198 5199 5200 5201 
5202 5203 5204 5205 5206 5207 5208 5209 5210 
5211 5212 5213 5214 5215 5216 5217 5218 5219 
5220 5221 5222 5223 5224 5225 5226 5227 5228 
5229 5230 5231 5232 5233 5234 5235 5236 5237 
5238 5239 5240 5241 5242 5243 5244 5245 5246 
5247 5248 5249 5250 5251 5252 5253 5254 5255 
5256 5257 5258 5259 5260 5261 5262 5263 5264 
5265 5266 5267 5268 5269 5270 5271 5272 5273 
5274 5275 5276 5277 5278 5279 5280 5281 5282 
5283 5284 5285 5286 5287 5288 5289 5290 5291 
5292 5293 5294 5295 5296 5297 5298 5299 5300 
5301 5302 5303 5304 5305 5306 5307 5308 5309 
5310 5311 5312 5313 5314 5315 5316 5317 5318 
5319 5320 5321 5322 5323 5324 5325 5326 5327 
5328 5329 5330 5331 5332 5333 5334 5335 5336 
5337 5338 5339 5340 5341 5342 5343 5344 5345 
5346 5347 5348 5349 5350 5351 5352 5353 5354 
5355 5356 5357 5358 5359 5360 5361 5362 5363 
5364 5365 5366 5367 5368 5369 5370 5371 5372 
5373 5374 5375 5376 5377 5378 5379 5380 5381 
5382 5383 5384 5385 5386 5387 5388 5389 5390 
5391 5392 5393 5394 5395 5396 5397 5398 5399 
5400 5401 5402 5403 5404 5405 5406 5407 5408 
5409 5410 5411 5412 5413 5414 5415 5416 5417 
5418 5419 5420 5421 5422 5423 5424 5425 5426 
5427 5428 5429 5430 5431 5432 5433 5434 5435 
5436 5437 5438 5439 5440 5441 5442 5443 5444 
5445 5446 5447 5448 5449 5450 5451 5452 5453 
5454 5455 5456 5457 5458 5459 5460 5461 5462 
5463 5464 5465 5466 5467 5468 5469 5470 5471 
5472 5473 5474 5475 5476 5477 5478 5479 5480 
5481 5482 5483 5484 5485 5486 5487 5488 5489 
5490 5491 5492 5493 5494 5495 5496 5497 5498 
5499 5500 5501 5502 5503 5504 5505 5506 5507 
5508 5509 5510 5511 5512 5513 5514 5515 5516 
5517 5518 5519 5520 5521 5522 5523 5524 5525 
5526 5527 5528 5529 5530 5531 5532 5533 5534 
5535 5536 5537 5538 5539 5540 5541 5542 5543 
5544 5545 5546 5547 5548 5549 5550 5551 5552 
5553 5554 5555 5556 5557 5558 5559 5560 5561 
5562 5563 5564 5565 5566 5567 5568 5569 5570 
5571 5572 5573 5574 5575 5576 5577 5578 5579 
5580 5581 5582 5583 5584 5585 5586 5587 5588 
5589 5590 5591 5592 5593 5594 5595 5596 5597 
5598 5599 5600 5601 5602 5603 5604 5605 5606 
5607 5608 5609 5610 5611 5612 5613 5614 5615 
5616 5617 5618 5619 5620 5621 5622 5623 5624 
5625 5626 5627 5628 5629 5630 5631 5632 5633 
5634 5635 5636 5637 5638 5639 5640 5641 5642 
5643 5644 5645 5646 5647 5648 5649 5650 5651 
5652 5653 5654 5655 5656 5657 5658 5659 5660 
5661 5662 5663 5664 5665 5666 5667 5668 5669 
5670 5671 5672 5673 5674 5675 5676 5677 5678 
5679 5680 5681 5682 5683 5684 5685 5686 5687 
5688 5689 5690 5691 5692 5693 5694 5695 5696 
5697 5698 5699 5700 5701 5702 5703 5704 5705 
5706 5707 5708 5709 5710 5711 5712 5713 5714 
5715 5716 5717 5718 5719 5720 5721 5722 5723 
5724 5725 5726 5727 5728 5729 5730 5731 5732 
5733 5734 5735 5736 5737 5738 5739 5740 5741 
5742 5743 5744 5745 5746 5747 5748 5749 5750 
5751 5752 5753 5754 5755 5756 5757 5758 5759 
5760 5761 5762 5763 5764 5765 5766 5767 5768 
5769 5770 5771 5772 5773 5774 5775 5776 5777 
5778 5779 5780 5781 5782 5783 5784 5785 5786 
5787 5788 5789 5790 5791 5792 5793 5794 5795 
5796 5797 5798 5799 5800 5801 5802 5803 5804 
5805 5806 5807 5808 5809 5810 5811 5812 5813 
5814 5815 5816 5817 5818 5819 5820 5821 5822 
5823 5824 5825 5826 5827 5828 5829 5830 5831 
5832 5833 5834 5835 5836 5837 5838 5839 5840 
5841 5842 5843 5844 5845 5846 5847 5848 5849 
5850 5851 5852 5853 5854 5855 5856 5857 5858 
5859 5860 5861 5862 5863 5864 5865 5866 5867 
5868 5869 5870 5871 5872 5873 5874 5875 5876 
5877 5878 5879 5880 5881 5882 5883 5884 5885 
5886 5887 5888 5889 5890 5891 5892 5893 5894 
5895 5896 5897 5898 5899 5900 5901 5902 5903 
5904 5905 5906 5907 5908 5909 5910 5911 5912 
5913 5914 5915 5916 5917 5918 5919 5920 5921 
5922 5923 5924 5925 5926 5927 5928 5929 5930 
5931 5932 5933 5934 5935 5936 5937 5938 5939 
5940 5941 5942 5943 5944 5945 5946 5947 5948 
5949 5950 5951 5952 5953 5954 5955 5956 5957 
5958 5959 5960 5961 5962 5963 5964 5965 5966 
5967 5968 5969 5970 5971 5972 5973 5974 5975 
5976 5977 5978 5979 5980 5981 5982 5983 5984 
5985 5986 5987 5988 5989 5990 5991 5992 5993 
5994 5995 5996 5997 5998 5999 6000 6001 6002 
6003 6004 6005 6006 6007 6008 6009 6010 6011 
6012 6013 6014 6015 6016 6017 6018 6019 6020 
6021 6022 6023 6024 6025 6026 6027 6028 6029 
6030 6031 6032 6033 6034 6035 6036 6037 6038 
6039 6040 6041 6042 6043 6044 6045 6046 6047 
6048 6049 6050 6051 6052 6053 6054 6055 6056 
6057 6058 6059 6060 6061 6062 6063 6064 6065 
6066 6067 6068 6069 6070 6071 6072 6073 6074 
6075 6076 6077 6078 6079 6080 6081 6082 6083 
6084 6085 6086 6087 6088 6089 6090 6091 6092 
6093 6094 6095 6096 6097 6098 6099 6100 6101 
6102 6103 6104 6105 6106 6107 6108 6109 6110 
6111 6112 6113 6114 6115 6116 6117 6118 6119 
6120 6121 6122 6123 6124 6125 6126 6127 6128 
6129 6130 6131 6132 6133 6134 6135 6136 6137 
6138 6139 6140 6141 6142 6143 6144 6145 6146 
6147 6148 6149 6150 6151 6152 6153 6154 6155 
6156 6157 6158 6159 6160 6161 6162 6163 6164 
6165 6166 6167 6168 6169 6170 6171 6172 6173 
6174 6175 6176 6177 6178 6179 6180 6181 6182 
6183 6184 6185 6186 6187 6188 6189 6190 6191 
6192 6193 6194 6195 6196 6197 6198 6199 6200 
6201 6202 6203 6204 6205 6206 6207 6208 6209 
6210 6211 6212 6213 6214 6215 6216 6217 6218 
6219 6220 6221 6222 6223 6224 6225 6226 6227 
6228 6229 6230 6231 6232 6233 6234 6235 6236 
6237 6238 6239 6240 6241 6242 6243 6244 6245 
6246 6247 6248 6249 6250 6251 6252 6253 6254 
6255 6256 6257 6258 6259 6260 6261 6262 6263 
6264 6265 6266 6267 6268 6269 6270 6271 6272 
6273 6274 6275 6276 6277 6278 6279 6280 6281 
6282 6283 6284 6285 6286 6287 6288 6289 6290 
6291 6292 6293 6294 6295 6296 6297 6298 6299 
6300 6301 6302 6303 6304 6305 6306 6307 6308 
6309 6310 6311 6312 6313 6314 6315 6316 6317 
6318 6319 6320 6321 6322 6323 6324 6325 6326 
6327 6328 6329 6330 6331 6332 6333 6334 6335 
6336 6337 6338 6339 6340 6341 6342 6343 6344 
6345 6346 6347 6348 6349 6350 6351 6352 6353 
6354 6355 6356 6357 6358 6359 6360 6361 6362 
6363 6364 6365 6366 6367 6368 6369 6370 6371 
6372 6373 6374 6375 6376 6377 6378 6379 6380 
6381 6382 6383 6384 6385 6386 6387 6388 6389 
6390 6391 6392 6393 6394 6395 6396 6397 6398 
6399 6400 6401 6402 6403 6404 6405 6406 6407 
6408 6409 6410 6411 6412 6413 6414 6415 6416 
6417 6418 6419 6420 6421 6422 6423 6424 6425 
6426 6427 6428 6429 6430 6431 6432 6433 6434 
6435 6436 6437 6438 6439 6440 6441 6442 6443 
6444 6445 6446 6447 6448 6449 6450 6451 6452 
6453 6454 6455 6456 6457 6458 6459 6460 6461 
6462 6463 6464 6465 6466 6467 6468 6469 6470 
6471 6472 6473 6474 6475 6476 6477 6478 6479 
6480 6481 6482 6483 6484 6485 6486 6487 6488 
6489 6490 6491 6492 6493 6494 6495 6496 6497 
6498 6499 6500 6501 6502 6503 6504 6505 6506 
6507 6508 6509 6510 6511 6512 6513 6514 6515 
6516 6517 6518 6519 6520 6521 6522 6523 6524 
6525 6526 6527 6528 6529 6530 6531 6532 6533 
6534 6535 6536 6537 6538 6539 6540 6541 6542 
6543 6544 6545 6546 6547 6548 6549 6550 6551 
6552 6553 6554 6555 6556 6557 6558 6559 6560 
6561 6562 6563 6564 6565 6566 6567 6568 6569 
6570 6571 6572 6573 6574 6575 6576 6577 6578 
6579 6580 6581 6582 6583 6584 6585 6586 6587 
6588 6589 6590 6591 6592 6593 6594 6595 6596 
6597 6598 6599 6600 6601 6602 6603 6604 6605 
6606 6607 6608 6609 6610 6611 6612 6613 6614 
6615 6616 6617 6618 6619 6620 6621 6622 6623 
6624 6625 6626 6627 6628 6629 6630 6631 6632 
6633 6634 6635 6636 6637 6638 6639 6640 6641 
6642 6643 6644 6645 6646 6647 6648 6649 6650 
6651 6652 6653 6654 6655 6656 6657 6658 6659 
6660 6661 6662 6663 6664 6665 6666 6667 6668 
6669 6670 6671 6672 6673 6674 6675 6676 6677 
6678 6679 6680 6681 6682 6683 6684 6685 6686 
6687 6688 6689 6690 6691 6692 6693 6694 6695 
6696 6697 6698 6699 6700 6701 6702 6703 6704 
6705 6706 6707 6708 6709 6710 6711 6712 6713 
6714 6715 6716 6717 6718 6719 6720 6721 6722 
6723 6724 6725 6726 6727 6728 6729 6730 6731 
6732 6733 6734 6735 6736 6737 6738 6739 6740 
6741 6742 6743 6744 6745 6746 6747 6748 6749 
6750 6751 6752 6753 6754 6755 6756 6757 6758 
6759 6760 6761 6762 6763 6764 6765 6766 6767 
6768 6769 6770 6771 6772 6773 6774 6775 6776 
6777 6778 6779 6780 6781 6782 6783 6784 6785 
6786 6787 6788 6789 6790 6791 6792 6793 6794 
6795 6796 6797 6798 6799 6800 6801 6802 6803 
6804 6805 6806 6807 6808 6809 6810 6811 6812 
6813 6814 6815 6816 6817 6818 6819 6820 6821 
6822 6823 6824 6825 6826 6827 6828 6829 6830 
6831 6832 6833 6834 6835 6836 6837 6838 6839 
6840 6841 6842 6843 6844 6845 6846 6847 6848 
6849 6850 6851 6852 6853 6854 6855 6856 6857 
6858 6859 6860 6861 6862 6863 6864 6865 6866 
6867 6868 6869 6870 6871 6872 6873 6874 6875 
6876 6877 6878 6879 6880 6881 6882 6883 6884 
6885 6886 6887 6888 6889 6890 6891 6892 6893 
6894 6895 6896 6897 6898 6899 6900 6901 6902 
6903 6904 6905 6906 6907 6908 6909 6910 6911 
6912 6913 6914 6915 6916 6917 6918 6919 6920 
6921 6922 6923 6924 6925 6926 6927 6928 6929 
6930 6931 6932 6933 6934 6935 6936 6937 6938 
6939 6940 6941 6942 6943 6944 6945 6946 6947 
6948 6949 6950 6951 6952 6953 6954 6955 6956 
6957 6958 6959 6960 6961 6962 6963 6964 6965 
6966 6967 6968 6969 6970 6971 6972 6973 6974 
6975 6976 6977 6978 6979 6980 6981 6982 6983 
6984 6985 6986 6987 6988 6989 6990 6991 6992 
6993 6994 6995 6996 6997 6998 6999 7000 7001 
7002 7003 7004 7005 7006 7007 7008 7009 7010 
7011 7012 7013 7014 7015 7016 7017 7018 7019 
7020 7021 7022 7023 7024 7025 7026 7027 7028 
7029 7030 7031 7032 7033 7034 7035 7036 7037 
7038 7039 7040 7041 7042 7043 7044 7045 7046 
7047 7048 7049 7050 7051 7052 7053 7054 7055 
7056 7057 7058 7059 7060 7061 7062 7063 7064 
7065 7066 7067 7068 7069 7070 7071 7072 7073 
7074 7075 7076 7077 7078 7079 7080 7081 7082 
7083 7084 7085 7086 7087 7088 7089 7090 7091 
7092 7093 7094 7095 7096 7097 7098 7099 7100 
7101 7102 7103 7104 7105 7106 7107 7108 7109 
7110 7111 7112 7113 7114 7115 7116 7117 7118 
7119 7120 7121 7122 7123 7124 7125 7126 7127 
7128 7129 7130 7131 7132 7133 7134 7135 7136 
7137 7138 7139 7140 7141 7142 7143 7144 7145 
7146 7147 7148 7149 7150 7151 7152 7153 7154 
7155 7156 7157 7158 7159 7160 7161 7162 7163 
7164 7165 7166 7167 7168 7169 7170 7171 7172 
7173 7174 7175 7176 7177 7178 7179 7180 7181 
7182 7183 7184 7185 7186 7187 7188 7189 7190 
7191 7192 7193 7194 7195 7196 7197 7198 7199 
7200 7201 7202 7203 7204 7205 7206 7207 7208 
7209 7210 7211 7212 7213 7214 7215 7216 7217 
7218 7219 7220 7221 7222 7223 7224 7225 7226 
7227 7228 7229 7230 7231 7232 7233 7234 7235 
7236 7237 7238 7239 7240 7241 7242 7243 7244 
7245 7246 7247 7248 7249 7250 7251 7252 7253 
7254 7255 7256 7257 7258 7259 7260 7261 7262 
7263 7264 7265 7266 7267 7268 7269 7270 7271 
7272 7273 7274 7275 7276 7277 7278 7279 7280 
7281 7282 7283 7284 7285 7286 7287 7288 7289 
7290 7291 7292 7293 7294 7295 7296 7297 7298 
7299 7300 7301 7302 7303 7304 7305 7306 7307 
7308 7309 7310 7311 7312 7313 7314 7315 7316 
7317 7318 7319 7320 7321 7322 7323 7324 7325 
7326 7327 7328 7329 7330 7331 7332 7333 7334 
7335 7336 7337 7338 7339 7340 7341 7342 7343 
7344 7345 7346 7347 7348 7349 7350 7351 7352 
7353 7354 7355 7356 7357 7358 7359 7360 7361 
7362 7363 7364 7365 7366 7367 7368 7369 7370 
7371 7372 7373 7374 7375 7376 7377 7378 7379 
7380 7381 7382 7383 7384 7385 7386 7387 7388 
7389 7390 7391 7392 7393 7394 7395 7396 7397 
7398 7399 7400 7401 7402 7403 7404 7405 7406 
7407 7408 7409 7410 7411 7412 7413 7414 7415 
7416 7417 7418 7419 7420 7421 7422 7423 7424 
7425 7426 7427 7428 7429 7430 7431 7432 7433 
7434 7435 7436 7437 7438 7439 7440 7441 7442 
7443 7444 7445 7446 7447 7448 7449 7450 7451 
7452 7453 7454 7455 7456 7457 7458 7459 7460 
7461 7462 7463 7464 7465 7466 7467 7468 7469 
7470 7471 7472 7473 7474 7475 7476 7477 7478 
7479 7480 7481 7482 7483 7484 7485 7486 7487 
7488 7489 7490 7491 7492 7493 7494 7495 7496 
7497 7498 7499 7500 7501 7502 7503 7504 7505 
7506 7507 7508 7509 7510 7511 7512 7513 7514 
7515 7516 7517 7518 7519 7520 7521 7522 7523 
7524 7525 7526 7527 7528 7529 7530 7531 7532 
7533 7534 7535 7536 7537 7538 7539 7540 7541 
7542 7543 7544 7545 7546 7547 7548 7549 7550 
7551 7552 7553 7554 7555 7556 7557 7558 7559 
7560 7561 7562 7563 7564 7565 7566 7567 7568 
7569 7570 7571 7572 7573 7574 7575 7576 7577 
7578 7579 7580 7581 7582 7583 7584 7585 7586 
7587 7588 7589 7590 7591 7592 7593 7594 7595 
7596 7597 7598 7599 7600 7601 7602 7603 7604 
7605 7606 7607 7608 7609 7610 7611 7612 7613 
7614 7615 7616 7617 7618 7619 7620 7621 7622 
7623 7624 7625 7626 7627 7628 7629 7630 7631 
7632 7633 7634 7635 7636 7637 7638 7639 7640 
7641 7642 7643 7644 7645 7646 7647 7648 7649 
7650 7651 7652 7653 7654 7655 7656 7657 7658 
7659 7660 7661 7662 7663 7664 7665 7666 7667 
7668 7669 7670 7671 7672 7673 7674 7675 7676 
7677 7678 7679 7680 7681 7682 7683 7684 7685 
7686 7687 7688 7689 7690 7691 7692 7693 7694 
7695 7696 7697 7698 7699 7700 7701 7702 7703 
7704 7705 7706 7707 7708 7709 7710 7711 7712 
7713 7714 7715 7716 7717 7718 7719 7720 7721 
7722 7723 7724 7725 7726 7727 7728 7729 7730 
7731 7732 7733 7734 7735 7736 7737 7738 7739 
7740 7741 7742 7743 7744 7745 7746 7747 7748 
7749 7750 7751 7752 7753 7754 7755 7756 7757 
7758 7759 7760 7761 7762 7763 7764 7765 7766 
7767 7768 7769 7770 7771 7772 7773 7774 7775 
7776 7777 7778 7779 7780 7781 7782 7783 7784 
7785 7786 7787 7788 7789 7790 7791 7792 7793 
7794 7795 7796 7797 7798 7799 7800 7801 7802 
7803 7804 7805 7806 7807 7808 7809 7810 7811 
7812 7813 7814 7815 7816 7817 7818 7819 7820 
7821 7822 7823 7824 7825 7826 7827 7828 7829 
7830 7831 7832 7833 7834 7835 7836 7837 7838 
7839 7840 7841 7842 7843 7844 7845 7846 7847 
7848 7849 7850 7851 7852 7853 7854 7855 7856 
7857 7858 7859 7860 7861 7862 7863 7864 7865 
7866 7867 7868 7869 7870 7871 7872 7873 7874 
7875 7876 7877 7878 7879 7880 7881 7882 7883 
7884 7885 7886 7887 7888 7889 7890 7891 7892 
7893 7894 7895 7896 7897 7898 7899 7900 7901 
7902 7903 7904 7905 7906 7907 7908 7909 7910 
7911 7912 7913 7914 7915 7916 7917 7918 7919 
7920 7921 7922 7923 7924 7925 7926 7927 7928 
7929 7930 7931 7932 7933 7934 7935 7936 7937 
7938 7939 7940 7941 7942 7943 7944 7945 7946 
7947 7948 7949 7950 7951 7952 7953 7954 7955 
7956 7957 7958 7959 7960 7961 7962 7963 7964 
7965 7966 7967 7968 7969 7970 7971 7972 7973 
7974 7975 7976 7977 7978 7979 7980 7981 7982 
7983 7984 7985 7986 7987 7988 7989 7990 7991 
7992 7993 7994 7995 7996 7997 7998 7999 8000 
8001 8002 8003 8004 8005 8006 8007 8008 8009 
8010 8011 8012 8013 8014 8015 8016 8017 8018 
8019 8020 8021 8022 8023 8024 8025 8026 8027 
8028 8029 8030 8031 8032 8033 8034 8035 8036 
8037 8038 8039 8040 8041 8042 8043 8044 8045 
8046 8047 8048 8049 8050 8051 8052 8053 8054 
8055 8056 8057 8058 8059 8060 8061 8062 8063 
8064 8065 8066 8067 8068 8069 8070 8071 8072 
8073 8074 8075 8076 8077 8078 8079 8080 8081 
8082 8083 8084 8085 8086 8087 8088 8089 8090 
8091 8092 8093 8094 8095 8096 8097 8098 8099 
8100 8101 8102 8103 8104 8105 8106 8107 8108 
8109 8110 8111 8112 8113 8114 8115 8116 8117 
8118 8119 8120 8121 8122 8123 8124 8125 8126 
8127 8128 8129 8130 8131 8132 8133 8134 8135 
8136 8137 8138 8139 8140 8141 8142 8143 8144 
8145 8146 8147 8148 8149 8150 8151 8152 8153 
8154 8155 8156 8157 8158 8159 8160 8161 8162 
8163 8164 8165 8166 8167 8168 8169 8170 8171 
8172 8173 8174 8175 8176 8177 8178 8179 8180 
8181 8182 8183 8184 8185 8186 8187 8188 8189 
8190 8191 8192 8193 8194 8195 8196 8197 8198 
8199 8200 8201 8202 8203 8204 8205 8206 8207 
8208 8209 8210 8211 8212 8213 8214 8215 8216 
8217 8218 8219 8220 8221 8222 8223 8224 8225 
8226 8227 8228 8229 8230 8231 8232 8233 8234 
8235 8236 8237 8238 8239 8240 8241 8242 8243 
8244 8245 8246 8247 8248 8249 8250 8251 8252 
8253 8254 8255 8256 8257 8258 8259 8260 8261 
8262 8263 8264 8265 8266 8267 8268 8269 8270 
8271 8272 8273 8274 8275 8276 8277 8278 8279 
8280 8281 8282 8283 8284 8285 8286 8287 8288 
8289 8290 8291 8292 8293 8294 8295 8296 8297 
8298 8299 8300 8301 8302 8303 8304 8305 8306 
8307 8308 8309 8310 8311 8312 8313 8314 8315 
8316 8317 8318 8319 8320 8321 8322 8323 8324 
8325 8326 8327 8328 8329 8330 8331 8332 8333 
8334 8335 8336 8337 8338 8339 8340 8341 8342 
8343 8344 8345 8346 8347 8348 8349 8350 8351 
8352 8353 8354 8355 8356 8357 8358 8359 8360 
8361 8362 8363 8364 8365 8366 8367 8368 8369 
8370 8371 8372 8373 8374 8375 8376 8377 8378 
8379 8380 8381 8382 8383 8384 8385 8386 8387 
8388 8389 8390 8391 8392 8393 8394 8395 8396 
8397 8398 8399 8400 8401 8402 8403 8404 8405 
8406 8407 8408 8409 8410 8411 8412 8413 8414 
8415 8416 8417 8418 8419 8420 8421 8422 8423 
8424 8425 8426 8427 8428 8429 8430 8431 8432 
8433 8434 8435 8436 8437 8438 8439 8440 8441 
8442 8443 8444 8445 8446 8447 8448 8449 8450 
8451 8452 8453 8454 8455 8456 8457 8458 8459 
8460 8461 8462 8463 8464 8465 8466 8467 8468 
8469 8470 8471 8472 8473 8474 8475 8476 8477 
8478 8479 8480 8481 8482 8483 8484 8485 8486 
8487 8488 8489 8490 8491 8492 8493 8494 8495 
8496 8497 8498 8499 8500 8501 8502 8503 8504 
8505 8506 8507 8508 8509 8510 8511 8512 8513 
8514 8515 8516 8517 8518 8519 8520 8521 8522 
8523 8524 8525 8526 8527 8528 8529 8530 8531 
8532 8533 8534 8535 8536 8537 8538 8539 8540 
8541 8542 8543 8544 8545 8546 8547 8548 8549 
8550 8551 8552 8553 8554 8555 8556 8557 8558 
8559 8560 8561 8562 8563 8564 8565 8566 8567 
8568 8569 8570 8571 8572 8573 8574 8575 8576 
8577 8578 8579 8580 8581 8582 8583 8584 8585 
8586 8587 8588 8589 8590 8591 8592 8593 8594 
8595 8596 8597 8598 8599 8600 8601 8602 8603 
8604 8605 8606 8607 8608 8609 8610 8611 8612 
8613 8614 8615 8616 8617 8618 8619 8620 8621 
8622 8623 8624 8625 8626 8627 8628 8629 8630 
8631 8632 8633 8634 8635 8636 8637 8638 8639 
8640 8641 8642 8643 8644 8645 8646 8647 8648 
8649 8650 8651 8652 8653 8654 8655 8656 8657 
8658 8659 8660 8661 8662 8663 8664 8665 8666 
8667 8668 8669 8670 8671 8672 8673 8674 8675 
8676 8677 8678 8679 8680 8681 8682 8683 8684 
8685 8686 8687 8688 8689 8690 8691 8692 8693 
8694 8695 8696 8697 8698 8699 8700 8701 8702 
8703 8704 8705 8706 8707 8708 8709 8710 8711 
8712 8713 8714 8715 8716 8717 8718 8719 8720 
8721 8722 8723 8724 8725 8726 8727 8728 8729 
8730 8731 8732 8733 8734 8735 8736 8737 8738 
8739 8740 8741 8742 8743 8744 8745 8746 8747 
8748 8749 8750 8751 8752 8753 8754 8755 8756 
8757 8758 8759 8760 8761 8762 8763 8764 8765 
8766 8767 8768 8769 8770 8771 8772 8773 8774 
8775 8776 8777 8778 8779 8780 8781 8782 8783 
8784 8785 8786 8787 8788 8789 8790 8791 8792 
8793 8794 8795 8796 8797 8798 8799 8800 8801 
8802 8803 8804 8805 8806 8807 8808 8809 8810 
8811 8812 8813 8814 8815 8816 8817 8818 8819 
8820 8821 8822 8823 8824 8825 8826 8827 8828 
8829 8830 8831 8832 8833 8834 8835 8836 8837 
8838 8839 8840 8841 8842 8843 8844 8845 8846 
8847 8848 8849 8850 8851 8852 8853 8854 8855 
8856 8857 8858 8859 8860 8861 8862 8863 8864 
8865 8866 8867 8868 8869 8870 8871 8872 8873 
8874 8875 8876 8877 8878 8879 8880 8881 8882 
8883 8884 8885 8886 8887 8888 8889 8890 8891 
8892 8893 8894 8895 8896 8897 8898 8899 8900 
8901 8902 8903 8904 8905 8906 8907 8908 8909 
8910 8911 8912 8913 8914 8915 8916 8917 8918 
8919 8920 8921 8922 8923 8924 8925 8926 8927 
8928 8929 8930 8931 8932 8933 8934 8935 8936 
8937 8938 8939 8940 8941 8942 8943 8944 8945 
8946 8947 8948 8949 8950 8951 8952 8953 8954 
8955 8956 8957 8958 8959 8960 8961 8962 8963 
8964 8965 8966 8967 8968 8969 8970 8971 8972 
8973 8974 8975 8976 8977 8978 8979 8980 8981 
8982 8983 8984 8985 8986 8987 8988 8989 8990 
8991 8992 8993 8994 8995 8996 8997 8998 8999 
9000 9001 9002 9003 9004 9005 9006 9007 9008 
9009 9010 9011 9012 9013 9014 9015 9016 9017 
9018 9019 9020 9021 9022 9023 9024 9025 9026 
9027 9028 9029 9030 9031 9032 9033 9034 9035 
9036 9037 9038 9039 9040 9041 9042 9043 9044 
9045 9046 9047 9048 9049 9050 9051 9052 9053 
9054 9055 9056 9057 9058 9059 9060 9061 9062 
9063 9064 9065 9066 9067 9068 9069 9070 9071 
9072 9073 9074 9075 9076 9077 9078 9079 9080 
9081 9082 9083 9084 9085 9086 9087 9088 9089 
9090 9091 9092 9093 9094 9095 9096 9097 9098 
9099 9100 9101 9102 9103 9104 9105 9106 9107 
9108 9109 9110 9111 9112 9113 9114 9115 9116 
9117 9118 9119 9120 9121 9122 9123 9124 9125 
9126 9127 9128 9129 9130 9131 9132 9133 9134 
9135 9136 9137 9138 9139 9140 9141 9142 9143 
9144 9145 9146 9147 9148 9149 9150 9151 9152 
9153 9154 9155 9156 9157 9158 9159 9160 9161 
9162 9163 9164 9165 9166 9167 9168 9169 9170 
9171 9172 9173 9174 9175 9176 9177 9178 9179 
9180 9181 9182 9183 9184 9185 9186 9187 9188 
9189 9190 9191 9192 9193 9194 9195 9196 9197 
9198 9199 9200 9201 9202 9203 9204 9205 9206 
9207 9208 9209 9210 9211 9212 9213 9214 9215 
9216 9217 9218 9219 9220 9221 9222 9223 9224 
9225 9226 9227 9228 9229 9230 9231 9232 9233 
9234 9235 9236 9237 9238 9239 9240 9241 9242 
9243 9244 9245 9246 9247 9248 9249 9250 9251 
9252 9253 9254 9255 9256 9257 9258 9259 9260 
9261 9262 9263 9264 9265 9266 9267 9268 9269 
9270 9271 9272 9273 9274 9275 9276 9277 9278 
9279 9280 9281 9282 9283 9284 9285 9286 9287 
9288 9289 9290 9291 9292 9293 9294 9295 9296 
9297 9298 9299 9300 9301 9302 9303 9304 9305 
9306 9307 9308 9309 9310 9311 9312 9313 9314 
9315 9316 9317 9318 9319 9320 9321 9322 9323 
9324 9325 9326 9327 9328 9329 9330 9331 9332 
9333 9334 9335 9336 9337 9338 9339 9340 9341 
9342 9343 9344 9345 9346 9347 9348 9349 9350 
9351 9352 9353 9354 9355 9356 9357 9358 9359 
9360 9361 9362 9363 9364 9365 9366 9367 9368 
9369 9370 9371 9372 9373 9374 9375 9376 9377 
9378 9379 9380 9381 9382 9383 9384 9385 9386 
9387 9388 9389 9390 9391 9392 9393 9394 9395 
9396 9397 9398 9399 9400 9401 9402 9403 9404 
9405 9406 9407 9408 9409 9410 9411 9412 9413 
9414 9415 9416 9417 9418 9419 9420 9421 9422 
9423 9424 9425 9426 9427 9428 9429 9430 9431 
9432 9433 9434 9435 9436 9437 9438 9439 9440 
9441 9442 9443 9444 9445 9446 9447 9448 9449 
9450 9451 9452 9453 9454 9455 9456 9457 9458 
9459 9460 9461 9462 9463 9464 9465 9466 9467 
9468 9469 9470 9471 9472 9473 9474 9475 9476 
9477 9478 9479 9480 9481 9482 9483 9484 9485 
9486 9487 9488 9489 9490 9491 9492 9493 9494 
9495 9496 9497 9498 9499 9500 9501 9502 9503 
9504 9505 9506 9507 9508 9509 9510 9511 9512 
9513 9514 9515 9516 9517 9518 9519 9520 9521 
9522 9523 9524 9525 9526 9527 9528 9529 9530 
9531 9532 9533 9534 9535 9536 9537 9538 9539 
9540 9541 9542 9543 9544 9545 9546 9547 9548 
9549 9550 9551 9552 9553 9554 9555 9556 9557 
9558 9559 9560 9561 9562 9563 9564 9565 9566 
9567 9568 9569 9570 9571 9572 9573 9574 9575 
9576 9577 9578 9579 9580 9581 9582 9583 9584 
9585 9586 9587 9588 9589 9590 9591 9592 9593 
9594 9595 9596 9597 9598 9599 9600 9601 9602 
9603 9604 9605 9606 9607 9608 9609 9610 9611 
9612 9613 9614 9615 9616 9617 9618 9619 9620 
9621 9622 9623 9624 9625 9626 9627 9628 9629 
9630 9631 9632 9633 9634 9635 9636 9637 9638 
9639 9640 9641 9642 9643 9644 9645 9646 9647 
9648 9649 9650 9651 9652 9653 9654 9655 9656 
9657 9658 9659 9660 9661 9662 9663 9664 9665 
9666 9667 9668 9669 9670 9671 9672 9673 9674 
9675 9676 9677 9678 9679 9680 9681 9682 9683 
9684 9685 9686 9687 9688 9689 9690 9691 9692 
9693 9694 9695 9696 9697 9698 9699 9700 9701 
9702 9703 9704 9705 9706 9707 9708 9709 9710 
9711 9712 9713 9714 9715 9716 9717 9718 9719 
9720 9721 9722 9723 9724 9725 9726 9727 9728 
9729 9730 9731 9732 9733 9734 9735 9736 9737 
9738 9739 9740 9741 9742 9743 9744 9745 9746 
9747 9748 9749 9750 9751 9752 9753 9754 9755 
9756 9757 9758 9759 9760 9761 9762 9763 9764 
9765 9766 9767 9768 9769 9770 9771 9772 9773 
9774 9775 9776 9777 9778 9779 9780 9781 9782 
9783 9784 9785 9786 9787 9788 9789 9790 9791 
9792 9793 9794 9795 9796 9797 9798 9799 9800 
9801 9802 9803 9804 9805 9806 9807 9808 9809 
9810 9811 9812 9813 9814 9815 9816 9817 9818 
9819 9820 9821 9822 9823 9824 9825 9826 9827 
9828 9829 9830 9831 9832 9833 9834 9835 9836 
9837 9838 9839 9840 9841 9842 9843 9844 9845 
9846 9847 9848 9849 9850 9851 9852 9853 9854 
9855 9856 9857 9858 9859 9860 9861 9862 9863 
9864 9865 9866 9867 9868 9869 9870 9871 9872 
9873 9874 9875 9876 9877 9878 9879 9880 9881 
9882 9883 9884 9885 9886 9887 9888 9889 9890 
9891 9892 9893 9894 9895 9896 9897 9898 9899 
9900 9901 9902 9903 9904 9905 9906 9907 9908 
9909 9910 9911 9912 9913 9914 9915 9916 9917 
9918 9919 9920 9921 9922 9923 9924 9925 9926 
9927 9928 9929 9930 9931 9932 9933 9934 9935 
9936 9937 9938 9939 9940 9941 9942 9943 9944 
9945 9946 9947 9948 9949 9950 9951 9952 9953 
9954 9955 9956 9957 9958 9959 9960 9961 9962 
9963 9964 9965 9966 9967 9968 9969 9970 9971 
9972 9973 9974 9975 9976 9977 9978 9979 9980 
9981 9982 9983 9984 9985 9986 9987 9988 9989 
9990 9991 9992 9993 9994 9995 9996 9997 9998 
9999 10000 10001 10002 10003 10004 10005 10006 10007 
10008 10009 10010 10011 10012 10013 10014 10015 10016 
10017 10018 10019 10020 10021 10022 10023 10024 10025 
10026 10027 10028 10029 10030 10031 10032 10033 10034 
10035 10036 10037 10038 10039 10040 10041 10042 10043 
10044 10045 10046 10047 10048 10049 10050 10051 10052 
10053 10054 10055 10056 10057 10058 10059 10060 10061 
10062 10063 10064 10065 10066 10067 10068 10069 10070 
10071 10072 10073 10074 10075 10076 10077 10078 10079 
10080 10081 10082 10083 10084 10085 10086 10087 10088 
10089 10090 10091 10092 10093 10094 10095 10096 10097 
10098 10099 10100 10101 10102 10103 10104 10105 10106 
10107 10108 10109 10110 10111 10112 10113 10114 10115 
10116 10117 10118 10119 10120 10121 10122 10123 10124 
10125 10126 10127 10128 10129 10130 10131 10132 10133 
10134 10135 10136 10137 10138 10139 10140 10141 10142 
10143 10144 10145 10146 10147 10148 10149 10150 10151 
10152 10153 10154 10155 10156 10157 10158 10159 10160 
10161 10162 10163 10164 10165 10166 10167 10168 10169 
10170 10171 10172 10173 10174 10175 10176 10177 10178 
10179 10180 10181 10182 10183 10184 10185 10186 10187 
10188 10189 10190 10191 10192 10193 10194 10195 10196 
10197 10198 10199 10200 10201 10202 10203 10204 10205 
10206 10207 10208 10209 10210 10211 10212 10213 10214 
10215 10216 10217 10218 10219 10220 10221 10222 10223 
10224 10225 10226 10227 10228 10229 10230 10231 10232 
10233 10234 10235 10236 10237 10238 10239 10240 10241 
10242 10243 10244 10245 10246 10247 10248 10249 10250 
10251 10252 10253 10254 10255 10256 10257 10258 10259 
10260 10261 10262 10263 10264 10265 10266 10267 10268 
10269 10270 10271 10272 10273 10274 10275 10276 10277 
10278 10279 10280 10281 10282 10283 10284 10285 10286 
10287 10288 10289 10290 10291 10292 10293 10294 10295 
10296 10297 10298 10299 10300 10301 10302 10303 10304 
10305 10306 10307 10308 10309 10310 10311 10312 10313 
10314 10315 10316 10317 10318 10319 10320 10321 10322 
10323 10324 10325 10326 10327 10328 10329 10330 10331 
10332 10333 10334 10335 10336 10337 10338 10339 10340 
10341 10342 10343 10344 10345 10346 10347 10348 10349 
10350 10351 10352 10353 10354 10355 10356 10357 10358 
10359 10360 10361 10362 10363 10364 10365 10366 10367 
10368 10369 10370 10371 10372 10373 10374 10375 10376 
10377 10378 10379 10380 10381 10382 10383 10384 10385 
10386 10387 10388 10389 10390 10391 10392 10393 10394 
10395 10396 10397 10398 10399 10400 10401 10402 10403 
10404 10405 10406 10407 10408 10409 10410 10411 10412 
10413 10414 10415 10416 10417 10418 10419 10420 10421 
10422 10423 10424 10425 10426 10427 10428 10429 10430 
10431 10432 10433 10434 10435 10436 10437 10438 10439 
10440 10441 10442 10443 10444 10445 10446 10447 10448 
10449 10450 10451 10452 10453 10454 10455 10456 10457 
10458 10459 10460 10461 10462 10463 10464 10465 10466 
10467 10468 10469 10470 10471 10472 10473 10474 10475 
10476 10477 10478 10479 10480 10481 10482 10483 10484 
10485 10486 10487 10488 10489 10490 10491 10492 10493 
10494 10495 10496 10497 10498 10499 10500 10501 10502 
10503 10504 10505 10506 10507 10508 10509 10510 10511 
10512 10513 10514 10515 10516 10517 10518 10519 10520 
10521 10522 10523 10524 10525 10526 10527 10528 10529 
10530 10531 10532 10533 10534 10535 10536 10537 10538 
10539 10540 10541 10542 10543 10544 10545 10546 10547 
10548 10549 10550 10551 10552 10553 10554 10555 10556 
10557 10558 10559 10560 10561 10562 10563 10564 10565 
10566 10567 10568 10569 10570 10571 10572 10573 10574 
10575 10576 10577 10578 10579 10580 10581 10582 10583 
10584 10585 10586 10587 10588 10589 10590 10591 10592 
10593 10594 10595 10596 10597 10598 10599 10600 10601 
10602 10603 10604 10605 10606 10607 10608 10609 10610 
10611 10612 10613 10614 10615 10616 10617 10618 10619 
10620 10621 10622 10623 10624 10625 10626 10627 10628 
10629 10630 10631 10632 10633 10634 10635 10636 10637 
10638 10639 10640 10641 10642 10643 10644 10645 10646 
10647 10648 10649 10650 10651 10652 10653 10654 10655 
10656 10657 10658 10659 10660 10661 10662 10663 10664 
10665 10666 10667 10668 10669 10670 10671 10672 10673 
10674 10675 10676 10677 10678 10679 10680 10681 10682 
10683 10684 10685 10686 10687 10688 10689 10690 10691 
10692 10693 10694 10695 10696 10697 10698 10699 10700 
10701 10702 10703 10704 10705 10706 10707 10708 10709 
10710 10711 10712 10713 10714 10715 10716 10717 10718 
10719 10720 10721 10722 10723 10724 10725 10726 10727 
10728 10729 10730 10731 10732 10733 10734 10735 10736 
10737 10738 10739 10740 10741 10742 10743 10744 10745 
10746 10747 10748 10749 10750 10751 10752 10753 10754 
10755 10756 10757 10758 10759 10760 10761 10762 10763 
10764 10765 10766 10767 10768 10769 10770 10771 10772 
10773 10774 10775 10776 10777 10778 10779 10780 10781 
10782 10783 10784 10785 10786 10787 10788 10789 10790 
10791 10792 10793 10794 10795 10796 10797 10798 10799 
10800 10801 10802 10803 10804 10805 10806 10807 10808 
10809 10810 10811 10812 10813 10814 10815 10816 10817 
10818 10819 10820 10821 10822 10823 10824 10825 10826 
10827 10828 10829 10830 10831 10832 10833 10834 10835 
10836 10837 10838 10839 10840 10841 10842 10843 10844 
10845 10846 10847 10848 10849 10850 10851 10852 10853 
10854 10855 10856 10857 10858 10859 10860 10861 10862 
10863 10864 10865 10866 10867 10868 10869 10870 10871 
10872 10873 10874 10875 10876 10877 10878 10879 10880 
10881 10882 10883 10884 10885 10886 10887 10888 10889 
10890 10891 10892 10893 10894 10895 10896 10897 10898 
10899 10900 10901 10902 10903 10904 10905 10906 10907 
10908 10909 10910 10911 10912 10913 10914 10915 10916 
10917 10918 10919 10920 10921 10922 10923 10924 10925 
10926 10927 10928 10929 10930 10931 10932 10933 10934 
10935 10936 10937 10938 10939 10940 10941 10942 10943 
10944 10945 10946 10947 10948 10949 10950 10951 10952 
10953 10954 10955 10956 10957 10958 10959 10960 10961 
10962 10963 10964 10965 10966 10967 10968 10969 10970 
10971 10972 10973 10974 10975 10976 10977 10978 10979 
10980 10981 10982 10983 10984 10985 10986 10987 10988 
10989 10990 10991 10992 10993 10994 10995 10996 10997 
10998 10999 11000 11001 11002 11003 11004 11005 11006 
11007 11008 11009 11010 11011 11012 11013 11014 11015 
11016 11017 11018 11019 11020 11021 11022 11023 11024 
11025 11026 11027 11028 11029 11030 11031 11032 11033 
11034 11035 11036 11037 11038 11039 11040 11041 11042 
11043 11044 11045 11046 11047 11048 11049 11050 11051 
11052 11053 11054 11055 11056 11057 11058 11059 11060 
11061 11062 11063 11064 11065 11066 11067 11068 11069 
11070 11071 11072 11073 11074 11075 11076 11077 11078 
11079 11080 11081 11082 11083 11084 11085 11086 11087 
11088 11089 11090 11091 11092 11093 11094 11095 11096 
11097 11098 11099 11100 11101 11102 11103 11104 11105 
11106 11107 11108 11109 11110 11111 11112 11113 11114 
11115 11116 11117 11118 11119 11120 11121 11122 11123 
11124 11125 11126 11127 11128 11129 11130 11131 11132 
11133 11134 11135 11136 11137 11138 11139 11140 11141 
11142 11143 11144 11145 11146 11147 11148 11149 11150 
11151 11152 11153 11154 11155 11156 11157 11158 11159 
11160 11161 11162 11163 11164 11165 11166 11167 11168 
11169 11170 11171 11172 11173 11174 11175 11176 11177 
11178 11179 11180 11181 11182 11183 11184 11185 11186 
11187 11188 11189 11190 11191 11192 11193 11194 11195 
11196 11197 11198 11199 11200 11201 11202 11203 11204 
11205 11206 11207 11208 11209 11210 11211 11212 11213 
11214 11215 11216 11217 11218 11219 11220 11221 11222 
11223 11224 11225 11226 11227 11228 11229 11230 11231 
11232 11233 11234 11235 11236 11237 11238 11239 11240 
11241 11242 11243 11244 11245 11246 11247 11248 11249 
11250 11251 11252 11253 11254 11255 11256 11257 11258 
11259 11260 11261 11262 11263 11264 11265 11266 11267 
11268 11269 11270 11271 11272 11273 11274 11275 11276 
11277 11278 11279 11280 11281 11282 11283 11284 11285 
11286 11287 11288 11289 11290 11291 11292 11293 11294 
11295 11296 11297 11298 11299 11300 11301 11302 11303 
11304 11305 11306 11307 11308 11309 11310 11311 11312 
11313 11314 11315 11316 11317 11318 11319 11320 11321 
11322 11323 11324 11325 11326 11327 11328 11329 11330 
11331 11332 11333 11334 11335 11336 11337 11338 11339 
11340 11341 11342 11343 11344 11345 11346 11347 11348 
11349 11350 11351 11352 11353 11354 11355 11356 11357 
11358 11359 11360 11361 11362 11363 11364 11365 11366 
11367 11368 11369 11370 11371 11372 11373 11374 11375 
11376 11377 11378 11379 11380 11381 11382 11383 11384 
11385 11386 11387 11388 11389 11390 11391 11392 11393 
11394 11395 11396 11397 11398 11399 11400 11401 11402 
11403 11404 11405 11406 11407 11408 11409 11410 11411 
11412 11413 11414 11415 11416 11417 11418 11419 11420 
11421 11422 11423 11424 11425 11426 11427 11428 11429 
11430 11431 11432 11433 11434 11435 11436 11437 11438 
11439 11440 11441 11442 11443 11444 11445 11446 11447 
11448 11449 11450 11451 11452 11453 11454 11455 11456 
11457 11458 11459 11460 11461 11462 11463 11464 11465 
11466 11467 11468 11469 11470 11471 11472 11473 11474 
11475 11476 11477 11478 11479 11480 11481 11482 11483 
11484 11485 11486 11487 11488 11489 11490 11491 11492 
11493 11494 11495 11496 11497 11498 11499 11500 11501 
11502 11503 11504 11505 11506 11507 11508 11509 11510 
11511 11512 11513 11514 11515 11516 11517 11518 11519 
11520 11521 11522 11523 11524 11525 11526 11527 11528 
11529 11530 11531 11532 11533 11534 11535 11536 11537 
11538 11539 11540 11541 11542 11543 11544 11545 11546 
11547 11548 11549 11550 11551 11552 11553 11554 11555 
11556 11557 11558 11559 11560 11561 11562 11563 11564 
11565 11566 11567 11568 11569 11570 11571 11572 11573 
11574 11575 11576 11577 11578 11579 11580 11581 11582 
11583 11584 11585 11586 11587 11588 11589 11590 11591 
11592 11593 11594 11595 11596 11597 11598 11599 11600 
11601 11602 11603 11604 11605 11606 11607 11608 11609 
11610 11611 11612 11613 11614 11615 11616 11617 11618 
11619 11620 11621 11622 11623 11624 11625 11626 11627 
11628 11629 11630 11631 11632 11633 11634 11635 11636 
11637 11638 11639 11640 11641 11642 11643 11644 11645 
11646 11647 11648 11649 11650 11651 11652 11653 11654 
11655 11656 11657 11658 11659 11660 11661 11662 11663 
11664 11665 11666 11667 11668 11669 11670 11671 11672 
11673 11674 11675 11676 11677 11678 11679 11680 11681 
11682 11683 11684 11685 11686 11687 11688 11689 11690 
11691 11692 11693 11694 11695 11696 11697 11698 11699 
11700 11701 11702 11703 11704 11705 11706 11707 11708 
11709 11710 11711 11712 11713 11714 11715 11716 11717 
11718 11719 11720 11721 11722 11723 11724 11725 11726 
11727 11728 11729 11730 11731 11732 11733 11734 11735 
11736 11737 11738 11739 11740 11741 11742 11743 11744 
11745 11746 11747 11748 11749 11750 11751 11752 11753 
11754 11755 11756 11757 11758 11759 11760 11761 11762 
11763 11764 11765 11766 11767 11768 11769 11770 11771 
11772 11773 11774 11775 11776 11777 11778 11779 11780 
11781 11782 11783 11784 11785 11786 11787 11788 11789 
11790 11791 11792 11793 11794 11795 11796 11797 11798 
11799 11800 11801 11802 11803 11804 11805 11806 11807 
11808 11809 11810 11811 11812 11813 11814 11815 11816 
11817 11818 11819 11820 11821 11822 11823 11824 11825 
11826 11827 11828 11829 11830 11831 11832 11833 11834 
11835 11836 11837 11838 11839 11840 11841 11842 11843 
11844 11845 11846 11847 11848 11849 11850 11851 11852 
11853 11854 11855 11856 11857 11858 11859 11860 11861 
11862 11863 11864 11865 11866 11867 11868 11869 11870 
11871 11872 11873 11874 11875 11876 11877 11878 11879 
11880 11881 11882 11883 11884 11885 11886 11887 11888 
11889 11890 11891 11892 11893 11894 11895 11896 11897 
11898 11899 11900 11901 11902 11903 11904 11905 11906 
11907 11908 11909 11910 11911 11912 11913 11914 11915 
11916 11917 11918 11919 11920 11921 11922 11923 11924 
11925 11926 11927 11928 11929 11930 11931 11932 11933 
11934 11935 11936 11937 11938 11939 11940 11941 11942 
11943 11944 11945 11946 11947 11948 11949 11950 11951 
11952 11953 11954 11955 11956 11957 11958 11959 11960 
11961 11962 11963 11964 11965 11966 11967 11968 11969 
11970 11971 11972 11973 11974 11975 11976 11977 11978 
11979 11980 11981 11982 11983 11984 11985 11986 11987 
11988 11989 11990 11991 11992 11993 11994 11995 11996 
11997 11998 11999 12000 12001 12002 12003 12004 12005 
12006 12007 12008 12009 12010 12011 12012 12013 12014 
12015 12016 12017 12018 12019 12020 12021 12022 12023 
12024 12025 12026 12027 12028 12029 12030 12031 12032 
12033 12034 12035 12036 12037 12038 12039 12040 12041 
12042 12043 12044 12045 12046 12047 12048 12049 12050 
12051 12052 12053 12054 12055 12056 12057 12058 12059 
12060 12061 12062 12063 12064 12065 12066 12067 12068 
12069 12070 12071 12072 12073 12074 12075 12076 12077 
12078 12079 12080 12081 12082 12083 12084 12085 12086 
12087 12088 12089 12090 12091 12092 12093 12094 12095 
12096 12097 12098 12099 12100 12101 12102 12103 12104 
12105 12106 12107 12108 12109 12110 12111 12112 12113 
12114 12115 12116 12117 12118 12119 12120 12121 12122 
12123 12124 12125 12126 12127 12128 12129 12130 12131 
12132 12133 12134 12135 12136 12137 12138 12139 12140 
12141 12142 12143 12144 12145 12146 12147 12148 12149 
12150 12151 12152 12153 12154 12155 12156 12157 12158 
12159 12160 12161 12162 12163 12164 12165 12166 12167 
12168 12169 12170 12171 12172 12173 12174 12175 12176 
12177 12178 12179 12180 12181 12182 12183 12184 12185 
12186 12187 12188 12189 12190 12191 12192 12193 12194 
12195 12196 12197 12198 12199 12200 12201 12202 12203 
12204 12205 12206 12207 12208 12209 12210 12211 12212 
12213 12214 12215 12216 12217 12218 12219 12220 12221 
12222 12223 12224 12225 12226 12227 12228 12229 12230 
12231 12232 12233 12234 12235 12236 12237 12238 12239 
12240 12241 12242 12243 12244 12245 12246 12247 12248 
12249 12250 12251 12252 12253 12254 12255 12256 12257 
12258 12259 12260 12261 12262 12263 12264 12265 12266 
12267 12268 12269 12270 12271 12272 12273 12274 12275 
12276 12277 12278 12279 12280 12281 12282 12283 12284 
12285 12286 12287 12288 12289 12290 12291 12292 12293 
12294 12295 12296 12297 12298 12299 12300 12301 12302 
12303 12304 12305 12306 12307 12308 12309 12310 12311 
12312 12313 12314 12315 12316 12317 12318 12319 12320 
12321 12322 12323 12324 12325 12326 12327 12328 12329 
12330 12331 12332 12333 12334 12335 12336 12337 12338 
12339 12340 12341 12342 12343 12344 12345 12346 12347 
12348 12349 12350 12351 12352 12353 12354 12355 12356 
12357 12358 12359 12360 12361 12362 12363 12364 12365 
12366 12367 12368 12369 12370 12371 12372 12373 12374 
12375 12376 12377 12378 12379 12380 12381 12382 12383 
12384 12385 12386 12387 12388 12389 12390 12391 12392 
12393 12394 12395 12396 12397 12398 12399 12400 12401 
12402 12403 12404 12405 12406 12407 12408 12409 12410 
      </DataArray>
      <DataArray type="Int32" Name="offsets" format="ascii">
9
18
27
36
45
54
63
72
81
90
99
108
117
126
135
144
153
162
171
180
189
198
207
216
225
234
243
252
261
270
279
288
297
306
315
324
333
342
351
360
369
378
387
396
405
414
423
432
441
450
459
468
477
486
495
504
513
522
531
540
549
558
567
576
585
594
603
612
621
630
639
648
657
666
675
684
693
702
711
720
729
738
747
756
765
774
783
792
801
810
819
828
837
846
855
864
873
882
891
900
909
918
927
936
945
954
963
972
981
990
999
1008
1017
1026
1035
1044
1053
1062
1071
1080
1089
1098
1107
1116
1125
1134
1143
1152
1161
1170
1179
1188
1197
1206
1215
1224
1233
1242
1251
1260
1269
1278
1287
1296
1305
1314
1323
1332
1341
1350
1359
1368
1377
1386
1395
1404
1413
1422
1431
1440
1449
1458
1467
1476
1485
1494
1503
1512
1521
1530
1539
1548
1557
1566
1575
1584
1593
1602
1611
1620
1629
1638
1647
1656
1665
1674
1683
1692
1701
1710
1719
1728
1737
1746
1755
1764
1773
1782
1791
1800
1809
1818
1827
1836
1845
1854
1863
1872
1881
1890
1899
1908
1917
1926
1935
1944
1953
1962
1971
1980
1989
1998
2007
2016
2025
2034
2043
2052
2061
2070
2079
2088
2097
2106
2115
2124
2133
2142
2151
2160
2169
2178
2187
2196
2205
2214
2223
2232
2241
2250
2259
2268
2277
2286
2295
2304
2313
2322
2331
2340
2349
2358
2367
2376
2385
2394
2403
2412
2421
2430
2439
2448
2457
2466
2475
2484
2493
2502
2511
2520
2529
2538
2547
2556
2565
2574
2583
2592
2601
2610
2619
2628
2637
2646
2655
2664
2673
2682
2691
2700
2709
2718
2727
2736
2745
2754
2763
2772
2781
2790
2799
2808
2817
2826
2835
2844
2853
2862
2871
2880
2889
2898
2907
2916
2925
2934
2943
2952
2961
2970
2979
2988
2997
3006
3015
3024
3033
3042
3051
3060
3069
3078
3087
3096
3105
3114
3123
3132
3141
3150
3159
3168
3177
3186
3195
3204
3213
3222
3231
3240
3249
3258
3267
3276
3285
3294
3303
3312
3321
3330
3339
3348
3357
3366
3375
3384
3393
3402
3411
3420
3429
3438
3447
3456
3465
3474
3483
3492
3501
3510
3519
3528
3537
3546
3555
3564
3573
3582
3591
3600
3609
3618
3627
3636
3645
3654
3663
3672
3681
3690
3699
3708
3717
3726
3735
3744
3753
3762
3771
3780
3789
3798
3807
3816
3825
3834
3843
3852
3861
3870
3879
3888
3897
3906
3915
3924
3933
3942
3951
3960
3969
3978
3987
3996
4005
4014
4023
4032
4041
4050
4059
4068
4077
4086
4095
4104
4113
4122
4131
4140
4149
4158
4167
4176
4185
4194
4203
4212
4221
4230
4239
4248
4257
4266
4275
4284
4293
4302
4311
4320
4329
4338
4347
4356
4365
4374
4383
4392
4401
4410
4419
4428
4437
4446
4455
4464
4473
4482
4491
4500
4509
4518
4527
4536
4545
4554
4563
4572
4581
4590
4599
4608
4617
4626
4635
4644
4653
4662
4671
4680
4689
4698
4707
4716
4725
4734
4743
4752
4761
4770
4779
4788
4797
4806
4815
4824
4833
4842
4851
4860
4869
4878
4887
4896
4905
4914
4923
4932
4941
4950
4959
4968
4977
4986
4995
5004
5013
5022
5031
5040
5049
5058
5067
5076
5085
5094
5103
5112
5121
5130
5139
5148
5157
5166
5175
5184
5193
5202
5211
5220
5229
5238
5247
5256
5265
5274
5283
5292
5301
5310
5319
5328
5337
5346
5355
5364
5373
5382
5391
5400
5409
5418
5427
5436
5445
5454
5463
5472
5481
5490
5499
5508
5517
5526
5535
5544
5553
5562
5571
5580
5589
5598
5607
5616
5625
5634
5643
5652
5661
5670
5679
5688
5697
5706
5715
5724
5733
5742
5751
5760
5769
5778
5787
5796
5805
5814
5823
5832
5841
5850
5859
5868
5877
5886
5895
5904
5913
5922
5931
5940
5949
5958
5967
5976
5985
5994
6003
6012
6021
6030
6039
6048
6057
6066
6075
6084
6093
6102
6111
6120
6129
6138
6147
6156
6165
6174
6183
6192
6201
6210
6219
6228
6237
6246
6255
6264
6273
6282
6291
6300
6309
6318
6327
6336
6345
6354
6363
6372
6381
6390
6399
6408
6417
6426
6435
6444
6453
6462
6471
6480
6489
6498
6507
6516
6525
6534
6543
6552
6561
6570
6579
6588
6597
6606
6615
6624
6633
6642
6651
6660
6669
6678
6687
6696
6705
6714
6723
6732
6741
6750
6759
6768
6777
6786
6795
6804
6813
6822
6831
6840
6849
6858
6867
6876
6885
6894
6903
6912
6921
6930
6939
6948
6957
6966
6975
6984
6993
7002
7011
7020
7029
7038
7047
7056
7065
7074
7083
7092
7101
7110
7119
7128
7137
7146
7155
7164
7173
7182
7191
7200
7209
7218
7227
7236
7245
7254
7263
7272
7281
7290
7299
7308
7317
7326
7335
7344
7353
7362
7371
7380
7389
7398
7407
7416
7425
7434
7443
7452
7461
7470
7479
7488
7497
7506
7515
7524
7533
7542
7551
7560
7569
7578
7587
7596
7605
7614
7623
7632
7641
7650
7659
7668
7677
7686
7695
7704
7713
7722
7731
7740
7749
7758
7767
7776
7785
7794
7803
7812
7821
7830
7839
7848
7857
7866
7875
7884
7893
7902
7911
7920
7929
7938
7947
7956
7965
7974
7983
7992
8001
8010
8019
8028
8037
8046
8055
8064
8073
8082
8091
8100
8109
8118
8127
8136
8145
8154
8163
8172
8181
8190
8199
8208
8217
8226
8235
8244
8253
8262
8271
8280
8289
8298
8307
8316
8325
8334
8343
8352
8361
8370
8379
8388
8397
8406
8415
8424
8433
8442
8451
8460
8469
8478
8487
8496
8505
8514
8523
8532
8541
8550
8559
8568
8577
8586
8595
8604
8613
8622
8631
8640
8649
8658
8667
8676
8685
8694
8703
8712
8721
8730
8739
8748
8757
8766
8775
8784
8793
8802
8811
8820
8829
8838
8847
8856
8865
8874
8883
8892
8901
8910
8919
8928
8937
8946
8955
8964
8973
8982
8991
9000
9009
9018
9027
9036
9045
9054
9063
9072
9081
9090
9099
9108
9117
9126
9135
9144
9153
9162
9171
9180
9189
9198
9207
9216
9225
9234
9243
9252
9261
9270
9279
9288
9297
9306
9315
9324
9333
9342
9351
9360
9369
9378
9387
9396
9405
9414
9423
9432
9441
9450
9459
9468
9477
9486
9495
9504
9513
9522
9531
9540
9549
9558
9567
9576
9585
9594
9603
9612
9621
9630
9639
9648
9657
9666
9675
9684
9693
9702
9711
9720
9729
9738
9747
9756
9765
9774
9783
9792
9801
9810
9819
9828
9837
9846
9855
9864
9873
9882
9891
9900
9909
9918
9927
9936
9945
9954
9963
9972
9981
9990
9999
10008
10017
10026
10035
10044
10053
10062
10071
10080
10089
10098
10107
10116
10125
10134
10143
10152
10161
10170
10179
10188
10197
10206
10215
10224
10233
10242
10251
10260
10269
10278
10287
10296
10305
10314
10323
10332
10341
10350
10359
10368
10377
10386
10395
10404
10413
10422
10431
10440
10449
10458
10467
10476
10485
10494
10503
10512
10521
10530
10539
10548
10557
10566
10575
10584
10593
10602
10611
10620
10629
10638
10647
10656
10665
10674
10683
10692
10701
10710
10719
10728
10737
10746
10755
10764
10773
10782
10791
10800
10809
10818
10827
10836
10845
10854
10863
10872
10881
10890
10899
10908
10917
10926
10935
10944
10953
10962
10971
10980
10989
10998
11007
11016
11025
11034
11043
11052
11061
11070
11079
11088
11097
11106
11115
11124
11133
11142
11151
11160
11169
11178
11187
11196
11205
11214
11223
11232
11241
11250
11259
11268
11277
11286
11295
11304
11313
11322
11331
11340
11349
11358
11367
11376
11385
11394
11403
11412
11421
11430
11439
11448
11457
11466
11475
11484
11493
11502
11511
11520
11529
11538
11547
11556
11565
11574
11583
11592
11601
11610
11619
11628
11637
11646
11655
11664
11673
11682
11691
11700
11709
11718
11727
11736
11745
11754
11763
11772
11781
11790
11799
11808
11817
11826
11835
11844
11853
11862
11871
11880
11889
11898
11907
11916
11925
11934
11943
11952
11961
11970
11979
11988
11997
12006
12015
12024
12033
12042
12051
12060
12069
12078
12087
12096
12105
12114
12123
12132
12141
12150
12159
12168
12177
12186
12195
12204
12213
12222
12231
12240
12249
12258
12267
12276
12285
12294
12303
12312
12321
12330
12339
12348
12357
12366
12375
12384
12393
12402
12411
      </DataArray>
      <DataArray type="UInt8" Name="types" format="ascii">
70
70
70
70
70
70
70
70
70
70
70
70
70
70
70
70
70
70
70
70
70
70
70
70
70
70
70
70
70
70
70
70
70
70
70
70
70
70
70
70
70
70
70
70
70
70
70
70
70
70
70
70
70
70
70
70
70
70
70
70
70
70
70
70
70
70
70
70
70
70
70
70
70
70
70
70
70
70
70
70
70
70
70
70
70
70
70
70
70
70
70
70
70
70
70
70
70
70
70
70
70
70
70
70
70
70
70
70
70
70
70
70
70
70
70
70
70
70
70
70
70
70
70
70
70
70
70
70
70
70
70
70
70
70
70
70
70
70
70
70
70
70
70
70
70
70
70
70
70
70
70
70
70
70
70
70
70
70
70
70
70
70
70
70
70
70
70
70
70
70
70
70
70
70
70
70
70
70
70
70
70
70
70
70
70
70
70
70
70
70
70
70
70
70
70
70
70
70
70
70
70
70
70
70
70
70
70
70
70
70
70
70
70
70
70
70
70
70
70
70
70
70
70
70
70
70
70
70
70
70
70
70
70
70
70
70
70
70
70
70
70
70
70
70
70
70
70
70
70
70
70
70
70
70
70
70
70
70
70
70
70
70
70
70
70
70
70
70
70
70
70
70
70
70
70
70
70
70
70
70
70
70
70
70
70
70
70
70
70
70
70
70
70
70
70
70
70
70
70
70
70
70
70
70
70
70
70
70
70
70
70
70
70
70
70
70
70
70
70
70
70
70
70
70
70
70
70
70
70
70
70
70
70
70
70
70
70
70
70
70
70
70
70
70
70
70
70
70
70
70
70
70
70
70
70
70
70
70
70
70
70
70
70
70
70
70
70
70
70
70
70
70
70
70
70
70
70
70
70
70
70
70
70
70
70
70
70
70
70
70
70
70
70
70
70
70
70
70
70
70
70
70
70
70
70
70
70
70
70
70
70
70
70
70
70
70
70
70
70
70
70
70
70
70
70
70
70
70
70
70
70
70
70
70
70
70
70
70
70
70
70
70
70
70
70
70
70
70
70
70
70
70
70
70
70
70
70
70
70
70
70
70
70
70
70
70
70
70
70
70
70
70
70
70
70
70
70
70
70
70
70
70
70
70
70
70
70
70
70
70
70
70
70
70
70
70
70
70
70
70
70
70
70
70
70
70
70
70
70
70
70
70
70
70
70
70
70
70
70
70
70
70
70
70
70
70
70
70
70
70
70
70
70
70
70
70
70
70
70
70
70
70
70
70
70
70
70
70
70
70
70
70
70
70
70
70
70
70
70
70
70
70
70
70
70
70
70
70
70
70
70
70
70
70
70
70
70
70
70
70
70
70
70
70
70
70
70
70
70
70
70
70
70
70
70
70
70
70
70
70
70
70
70
70
70
70
70
70
70
70
70
70
70
70
70
70
70
70
70
70
70
70
70
70
70
70
70
70
70
70
70
70
70
70
70
70
70
70
70
70
70
70
70
70
70
70
70
70
70
70
70
70
70
70
70
70
70
70
70
70
70
70
70
70
70
70
70
70
70
70
70
70
70
70
70
70
70
70
70
70
70
70
70
70
70
70
70
70
70
70
70
70
70
70
70
70
70
70
70
70
70
70
70
70
70
70
70
70
70
70
70
70
70
70
70
70
70
70
70
70
70
70
70
70
70
70
70
70
70
70
70
70
70
70
70
70
70
70
70
70
70
70
70
70
70
70
70
70
70
70
70
70
70
70
70
70
70
70
70
70
70
70
70
70
70
70
70
70
70
70
70
70
70
70
70
70
70
70
70
70
70
70
70
70
70
70
70
70
70
70
70
70
70
70
70
70
70
70
70
70
70
70
70
70
70
70
70
70
70
70
70
70
70
70
70
70
70
70
70
70
70
70
70
70
70
70
70
70
70
70
70
70
70
70
70
70
70
70
70
70
70
70
70
70
70
70
70
70
70
70
70
70
70
70
70
70
70
70
70
70
70
70
70
70
70
70
70
70
70
70
70
70
70
70
70
70
70
70
70
70
70
70
70
70
70
70
70
70
70
70
70
70
70
70
70
70
70
70
70
70
70
70
70
70
70
70
70
70
70
70
70
70
70
70
70
70
70
70
70
70
70
70
70
70
70
70
70
70
70
70
70
70
70
70
70
70
70
70
70
70
70
70
70
70
70
70
70
70
70
70
70
70
70
70
70
70
70
70
70
70
70
70
70
70
70
70
70
70
70
70
70
70
70
70
70
70
70
70
70
70
70
70
70
70
70
70
70
70
70
70
70
70
70
70
70
70
70
70
70
70
70
70
70
70
70
70
70
70
70
70
70
70
70
70
70
70
70
70
70
70
70
70
70
70
70
70
70
70
70
70
70
70
70
70
70
70
70
70
70
70
70
70
70
70
70
70
70
70
70
70
70
70
70
70
70
70
70
70
70
70
70
70
70
70
70
70
70
70
70
70
70
70
70
70
70
70
70
70
70
70
70
70
70
70
70
70
70
70
70
70
70
70
70
70
70
70
70
70
70
70
70
70
70
70
70
70
70
70
70
70
70
70
70
70
70
70
70
70
70
70
70
70
70
70
70
70
70
70
70
70
70
70
70
70
70
70
70
70
70
70
70
70
70
70
70
70
70
70
70
70
70
70
70
70
70
70
70
70
70
70
70
70
70
70
70
70
70
70
70
70
70
70
70
70
70
70
70
70
70
70
70
70
70
70
70
70
70
70
70
70
70
70
70
70
70
70
70
70
70
70
70
70
70
70
70
70
70
70
70
70
70
70
70
70
70
70
70
70
70
70
70
70
70
70
70
70
70
70
70
70
70
70
70
70
70
70
70
70
70
70
70
70
70
70
70
70
70
70
70
70
70
70
70
70
70
70
70
70
70
70
70
70
70
70
70
70
70
70
70
70
70
70
70
70
70
70
70
70
70
70
70
70
70
70
70
70
70
70
70
70
70
70
70
70
70
70
70
70
70
70
70
70
70
70
70
70
70
70
70
70
70
70
70
70
70
70
70
70
70
70
70
70
70
70
70
70
70
70
70
70
70
70
70
70
70
70
70
70
70
70
70
70
70
70
70
70
70
70
70
70
70
70
70
70
70
70
70
70
70
70
70
70
70
70
70
70
70
70
70
70
70
70
70
70
70
70
70
70
70
      </DataArray>
    </Cells>
    <PointData>
      <DataArray type="Float64" NumberOfComponents="3" Name="Displacement" format="ascii">
0 0 0
-0.0115427 -0.00574058 -0.00574058
-0.00688503 -0.00193404 -0.00193404
0 0 0
-0.00628294 -0.00358239 -0.00358239
-0.00869545 -0.00346746 -0.00346746
-0.00334048 -0.000691874 -0.000691874
0 0 0
-0.00414644 -0.00152928 -0.00152928
-0.0115427 -0.00574058 -0.00574058
-0.0215293 -0.00995914 -0.00995914
-0.0143417 -0.00558898 -0.00558898
-0.00688503 -0.00193404 -0.00193404
-0.0165499 -0.00777014 -0.00777014
-0.0177556 -0.0075525 -0.0075525
-0.0105778 -0.00358494 -0.00358494
-0.00869545 -0.00346746 -0.00346746
-0.0132511 -0.00544882 -0.00544882
-0.0215293 -0.00995914 -0.00995914
-0.0316087 -0.0150498 -0.0150498
-0.0218662 -0.0106124 -0.0106124
-0.0143417 -0.00558898 -0.00558898
-0.0265507 -0.012355 -0.012355
-0.0266845 -0.0126627 -0.0126627
-0.0181083 -0.00792361 -0.00792361
-0.0177556 -0.0075525 -0.0075525
-0.0222314 -0.00994066 -0.00994066
-0.0316087 -0.0150498 -0.0150498
-0.0417743 -0.0216047 -0.0216047
-0.0293552 -0.0171583 -0.0171583
-0.0218662 -0.0106124 -0.0106124
-0.0366837 -0.0181288 -0.0181288
-0.0355398 -0.0192052 -0.0192052
-0.0256168 -0.0136861 -0.0136861
-0.0266845 -0.0126627 -0.0126627
-0.0311181 -0.0157414 -0.0157414
-0.0417743 -0.0216047 -0.0216047
-0.0519977 -0.0297588 -0.0297588
-0.0367842 -0.0253357 -0.0253357
-0.0293552 -0.0171583 -0.0171583
-0.0468816 -0.0254763 -0.0254763
-0.0443688 -0.0273724 -0.0273724
-0.0330766 -0.0210385 -0.0210385
-0.0355398 -0.0192052 -0.0192052
-0.0399569 -0.0230797 -0.0230797
-0.0519977 -0.0297588 -0.0297588
-0.0622289 -0.0396037 -0.0396037
-0.0441691 -0.0352069 -0.0352069
-0.0367842 -0.0253357 -0.0253357
-0.0571139 -0.0344678 -0.0344678
-0.0531728 -0.0372251 -0.0372251
-0.0404816 -0.0300578 -0.0300578
-0.0443688 -0.0273724 -0.0273724
-0.048774 -0.0320862 -0.0320862
-0.0622289 -0.0396037 -0.0396037
-0.0724511 -0.0511514 -0.0511514
-0.0515141 -0.0467895 -0.0467895
-0.0441691 -0.0352069 -0.0352069
-0.0673422 -0.0451641 -0.0451641
-0.0619521 -0.0487894 -0.0487894
-0.0478463 -0.0407839 -0.0407839
-0.0531728 -0.0372251 -0.0372251
-0.0575658 -0.0427927 -0.0427927
-0.0724511 -0.0511514 -0.0511514
-0.0826462 -0.064413 -0.064413
-0.0588258 -0.0600879 -0.0600879
-0.0515141 -0.0467895 -0.0467895
-0.0775527 -0.0575681 -0.0575681
-0.070702 -0.0620681 -0.0620681
-0.0551739 -0.0532244 -0.0532244
-0.0619521 -0.0487894 -0.0487894
-0.0663309 -0.0552146 -0.0552146
-0.0826462 -0.064413 -0.064413
-0.0928076 -0.0793814 -0.0793814
-0.0661065 -0.0750965 -0.0750965
-0.0588258 -0.0600879 -0.0600879
-0.0877314 -0.0716843 -0.0716843
-0.0794208 -0.0770567 -0.0770567
-0.0624699 -0.0673789 -0.0673789
-0.070702 -0.0620681 -0.0620681
-0.0750654 -0.0693491 -0.0693491
-0.0928076 -0.0793814 -0.0793814
-0.10293 -0.0960506 -0.0960506
-0.0733586 -0.0918077 -0.0918077
-0.0661065 -0.0750965 -0.0750965
-0.097874 -0.087504 -0.087504
-0.0881068 -0.0937473 -0.0937473
-0.069736 -0.0832398 -0.0832398
-0.0794208 -0.0770567 -0.0770567
-0.0837679 -0.0851899 -0.0851899
-0.10293 -0.0960506 -0.0960506
-0.113013 -0.114411 -0.114411
-0.0805834 -0.110212 -0.110212
-0.0733586 -0.0918077 -0.0918077
-0.107977 -0.10502 -0.10502
-0.0967599 -0.11213 -0.11213
-0.0769743 -0.100799 -0.100799
-0.0881068 -0.0937473 -0.0937473
-0.0924375 -0.102728 -0.102728
-0.113013 -0.114411 -0.114411
-0.123056 -0.134453 -0.134453
-0.0877823 -0.1303 -0.1303
-0.0805834 -0.110212 -0.110212
-0.11804 -0.124223 -0.124223
-0.10538 -0.132197 -0.132197
-0.084186 -0.120046 -0.120046
-0.0967599 -0.11213 -0.11213
-0.101074 -0.121954 -0.121954
-0.123056 -0.134453 -0.134453
-0.133059 -0.156169 -0.156169
-0.0949564 -0.152063 -0.152063
-0.0877823 -0.1303 -0.1303
-0.128062 -0.145102 -0.145102
-0.113968 -0.153936 -0.153936
-0.0913724 -0.140973 -0.140973
-0.10538 -0.132197 -0.132197
-0.109678 -0.142858 -0.142858
-0.133059 -0.156169 -0.156169
-0.143022 -0.179547 -0.179547
-0.102107 -0.175491 -0.175491
-0.0949564 -0.152063 -0.152063
-0.138045 -0.16765 -0.16765
-0.122525 -0.177341 -0.177341
-0.0985345 -0.163569 -0.163569
-0.113968 -0.153936 -0.153936
-0.118251 -0.165431 -0.165431
-0.143022 -0.179547 -0.179547
-0.152948 -0.20458 -0.20458
-0.109234 -0.200574 -0.200574
-0.102107 -0.175491 -0.175491
-0.14799 -0.191857 -0.191857
-0.131052 -0.2024 -0.2024
-0.105673 -0.187826 -0.187826
-0.122525 -0.177341 -0.177341
-0.126792 -0.189664 -0.189664
-0.152948 -0.20458 -0.20458
-0.162836 -0.231257 -0.231257
-0.11634 -0.227304 -0.227304
-0.109234 -0.200574 -0.200574
-0.157897 -0.217713 -0.217713
-0.139548 -0.229105 -0.229105
-0.11279 -0.213734 -0.213734
-0.131052 -0.2024 -0.2024
-0.135304 -0.215547 -0.215547
-0.162836 -0.231257 -0.231257
-0.172688 -0.259571 -0.259571
-0.123425 -0.255672 -0.255672
-0.11634 -0.227304 -0.227304
-0.167767 -0.24521 -0.24521
-0.148017 -0.257446 -0.257446
-0.119885 -0.241284 -0.241284
-0.139548 -0.229105 -0.229105
-0.143786 -0.243072 -0.243072
-0.172688 -0.259571 -0.259571
-0.182505 -0.289512 -0.289512
-0.130491 -0.285669 -0.285669
-0.123425 -0.255672 -0.255672
-0.177601 -0.274339 -0.274339
-0.156458 -0.287416 -0.287416
-0.12696 -0.270468 -0.270468
-0.148017 -0.257446 -0.257446
-0.152241 -0.272228 -0.272228
-0.182505 -0.289512 -0.289512
-0.192287 -0.321071 -0.321071
-0.137537 -0.317285 -0.317285
-0.130491 -0.285669 -0.285669
-0.1874 -0.30509 -0.30509
-0.164872 -0.319005 -0.319005
-0.134016 -0.301275 -0.301275
-0.156458 -0.287416 -0.287416
-0.160668 -0.303009 -0.303009
-0.192287 -0.321071 -0.321071
-0.202036 -0.354238 -0.354238
-0.144565 -0.350512 -0.350512
-0.137537 -0.317285 -0.317285
-0.197166 -0.337454 -0.337454
-0.173261 -0.352203 -0.352203
-0.141053 -0.333698 -0.333698
-0.164872 -0.319005 -0.319005
-0.16907 -0.335403 -0.335403
-0.202036 -0.354238 -0.354238
-0.211753 -0.389006 -0.389006
-0.151577 -0.38534 -0.38534
-0.144565 -0.350512 -0.350512
-0.206899 -0.371423 -0.371423
-0.181625 -0.387002 -0.387002
-0.148073 -0.367726 -0.367726
-0.173261 -0.352203 -0.352203
-0.177446 -0.369403 -0.369403
-0.211753 -0.389006 -0.389006
-0.221438 -0.425365 -0.425365
-0.158572 -0.42176 -0.42176
-0.151577 -0.38534 -0.38534
-0.2166 -0.406987 -0.406987
-0.189965 -0.423393 -0.423393
-0.155076 -0.403352 -0.403352
-0.181625 -0.387002 -0.387002
-0.185798 -0.404999 -0.404999
-0.221438 -0.425365 -0.425365
-0.231093 -0.463306 -0.463306
-0.165552 -0.459765 -0.459765
-0.158572 -0.42176 -0.42176
-0.226269 -0.444138 -0.444138
-0.198282 -0.461366 -0.461366
-0.162064 -0.440565 -0.440565
-0.189965 -0.423393 -0.423393
-0.194126 -0.442182 -0.442182
-0.231093 -0.463306 -0.463306
-0.240717 -0.50282 -0.50282
-0.172517 -0.499343 -0.499343
-0.165552 -0.459765 -0.459765
-0.235908 -0.482867 -0.482867
-0.206577 -0.500913 -0.500913
-0.169036 -0.479358 -0.479358
-0.198282 -0.461366 -0.461366
-0.202432 -0.480943 -0.480943
-0.240717 -0.50282 -0.50282
-0.250313 -0.543898 -0.543898
-0.179469 -0.540487 -0.540487
-0.172517 -0.499343 -0.499343
-0.245518 -0.523164 -0.523164
-0.21485 -0.542025 -0.542025
-0.175995 -0.51972 -0.51972
-0.206577 -0.500913 -0.500913
-0.210716 -0.521274 -0.521274
-0.250313 -0.543898 -0.543898
-0.25988 -0.586531 -0.586531
-0.186408 -0.583188 -0.583188
-0.179469 -0.540487 -0.540487
-0.2551 -0.56502 -0.56502
-0.223103 -0.584693 -0.584693
-0.18294 -0.561643 -0.561643
-0.21485 -0.542025 -0.542025
-0.218979 -0.563165 -0.563165
-0.25988 -0.586531 -0.586531
-0.26942 -0.63071 -0.63071
-0.193335 -0.627435 -0.627435
-0.186408 -0.583188 -0.583188
-0.264653 -0.608427 -0.608427
-0.231337 -0.628907 -0.628907
-0.189873 -0.605119 -0.605119
-0.223103 -0.584693 -0.584693
-0.227223 -0.606607 -0.606607
-0.26942 -0.63071 -0.63071
-0.278933 -0.676426 -0.676426
-0.200251 -0.673221 -0.673221
-0.193335 -0.627435 -0.627435
-0.27418 -0.653376 -0.653376
-0.239551 -0.674659 -0.674659
-0.196795 -0.650137 -0.650137
-0.231337 -0.628907 -0.628907
-0.235446 -0.651592 -0.651592
-0.278933 -0.676426 -0.676426
-0.28842 -0.72367 -0.72367
-0.207157 -0.720537 -0.720537
-0.200251 -0.673221 -0.673221
-0.28368 -0.699857 -0.699857
-0.247748 -0.72194 -0.72194
-0.203705 -0.696689 -0.696689
-0.239551 -0.674659 -0.674659
-0.243652 -0.698109 -0.698109
-0.28842 -0.72367 -0.72367
-0.297883 -0.772433 -0.772433
-0.214052 -0.769373 -0.769373
-0.207157 -0.720537 -0.720537
-0.293155 -0.747862 -0.747862
-0.255927 -0.77074 -0.77074
-0.210606 -0.744765 -0.744765
-0.247748 -0.72194 -0.72194
-0.251839 -0.746151 -0.746151
-0.297883 -0.772433 -0.772433
-0.307321 -0.822706 -0.822706
-0.220939 -0.81972 -0.81972
-0.214052 -0.769373 -0.769373
-0.302605 -0.797381 -0.797381
-0.264089 -0.821052 -0.821052
-0.217497 -0.794358 -0.794358
-0.255927 -0.77074 -0.77074
-0.26001 -0.795708 -0.795708
-0.307321 -0.822706 -0.822706
-0.316735 -0.87448 -0.87448
-0.227817 -0.871569 -0.871569
-0.220939 -0.81972 -0.81972
-0.312031 -0.848406 -0.848406
-0.272235 -0.872864 -0.872864
-0.224379 -0.845457 -0.845457
-0.264089 -0.821052 -0.821052
-0.268164 -0.846771 -0.846771
-0.316735 -0.87448 -0.87448
-0.326126 -0.927746 -0.927746
-0.234688 -0.924911 -0.924911
-0.227817 -0.871569 -0.871569
-0.321433 -0.900927 -0.900927
-0.280366 -0.92617 -0.92617
-0.231254 -0.898054 -0.898054
-0.272235 -0.872864 -0.872864
-0.276302 -0.899331 -0.899331
-0.326126 -0.927746 -0.927746
-0.335495 -0.982495 -0.982495
-0.241552 -0.979738 -0.979738
-0.234688 -0.924911 -0.924911
-0.330814 -0.954936 -0.954936
-0.288483 -0.980959 -0.980959
-0.238121 -0.95214 -0.95214
-0.280366 -0.92617 -0.92617
-0.284426 -0.953379 -0.953379
-0.335495 -0.982495 -0.982495
-0.344843 -1.03872 -1.03872
-0.24841 -1.03604 -1.03604
-0.241552 -0.979738 -0.979738
-0.340172 -1.01042 -1.01042
-0.296585 -1.03722 -1.03722
-0.244982 -1.00771 -1.00771
-0.288483 -0.980959 -0.980959
-0.292536 -1.00891 -1.00891
-0.344843 -1.03872 -1.03872
-0.354169 -1.09641 -1.09641
-0.255263 -1.09381 -1.09381
-0.24841 -1.03604 -1.03604
-0.349509 -1.06738 -1.06738
-0.304675 -1.09495 -1.09495
-0.251837 -1.06474 -1.06474
-0.296585 -1.03722 -1.03722
-0.300632 -1.0659 -1.0659
-0.354169 -1.09641 -1.09641
-0.363476 -1.15555 -1.15555
-0.26211 -1.15303 -1.15303
-0.255263 -1.09381 -1.09381
-0.358825 -1.1258 -1.1258
-0.312752 -1.15414 -1.15414
-0.258687 -1.12324 -1.12324
-0.304675 -1.09495 -1.09495
-0.308715 -1.12436 -1.12436
-0.363476 -1.15555 -1.15555
-0.372762 -1.21614 -1.21614
-0.268953 -1.21371 -1.21371
-0.26211 -1.15303 -1.15303
-0.368121 -1.18567 -1.18567
-0.320816 -1.21477 -1.21477
-0.265532 -1.18319 -1.18319
-0.312752 -1.15414 -1.15414
-0.316785 -1.18427 -1.18427
-0.372762 -1.21614 -1.21614
-0.38203 -1.27817 -1.27817
-0.275793 -1.27582 -1.27582
-0.268953 -1.21371 -1.21371
-0.377398 -1.24698 -1.24698
-0.32887 -1.27684 -1.27684
-0.272374 -1.24458 -1.24458
-0.320816 -1.21477 -1.21477
-0.324844 -1.24563 -1.24563
-0.38203 -1.27817 -1.27817
-0.391279 -1.34163 -1.34163
-0.282629 -1.33936 -1.33936
-0.275793 -1.27582 -1.27582
-0.386657 -1.30972 -1.30972
-0.336913 -1.34034 -1.34034
-0.279212 -1.30741 -1.30741
-0.32887 -1.27684 -1.27684
-0.332893 -1.30841 -1.30841
-0.391279 -1.34163 -1.34163
-0.40051 -1.40651 -1.40651
-0.289463 -1.40432 -1.40432
-0.282629 -1.33936 -1.33936
-0.395897 -1.37389 -1.37389
-0.344945 -1.40526 -1.40526
-0.286047 -1.37166 -1.37166
-0.336913 -1.34034 -1.34034
-0.34093 -1.37263 -1.37263
-0.40051 -1.40651 -1.40651
-0.409724 -1.4728 -1.4728
-0.296296 -1.4707 -1.4707
-0.289463 -1.40432 -1.40432
-0.405119 -1.43948 -1.43948
-0.352968 -1.4716 -1.4716
-0.29288 -1.43733 -1.43733
-0.344945 -1.40526 -1.40526
-0.348958 -1.43826 -1.43826
-0.409724 -1.4728 -1.4728
-0.418921 -1.54049 -1.54049
-0.303126 -1.53848 -1.53848
-0.296296 -1.4707 -1.4707
-0.414325 -1.50647 -1.50647
-0.360982 -1.53933 -1.53933
-0.299711 -1.50441 -1.50441
-0.352968 -1.4716 -1.4716
-0.356976 -1.50529 -1.50529
-0.418921 -1.54049 -1.54049
-0.428102 -1.60957 -1.60957
-0.309956 -1.60765 -1.60765
-0.303126 -1.53848 -1.53848
-0.423513 -1.57486 -1.57486
-0.368987 -1.60846 -1.60846
-0.306541 -1.57289 -1.57289
-0.360982 -1.53933 -1.53933
-0.364986 -1.57372 -1.57372
-0.428102 -1.60957 -1.60957
-0.437267 -1.68004 -1.68004
-0.316786 -1.6782 -1.6782
-0.309956 -1.60765 -1.60765
-0.432686 -1.64463 -1.64463
-0.376984 -1.67898 -1.67898
-0.313371 -1.64275 -1.64275
-0.368987 -1.60846 -1.60846
-0.372987 -1.64355 -1.64355
-0.437267 -1.68004 -1.68004
-0.446417 -1.75188 -1.75188
-0.323615 -1.75014 -1.75014
-0.316786 -1.6782 -1.6782
-0.441844 -1.71579 -1.71579
-0.384974 -1.75086 -1.75086
-0.3202 -1.714 -1.714
-0.376984 -1.67898 -1.67898
-0.38098 -1.71475 -1.71475
-0.446417 -1.75188 -1.75188
-0.455552 -1.82509 -1.82509
-0.330446 -1.82343 -1.82343
-0.323615 -1.75014 -1.75014
-0.450986 -1.78832 -1.78832
-0.392957 -1.82412 -1.82412
-0.32703 -1.78662 -1.78662
-0.384974 -1.75086 -1.75086
-0.388966 -1.78732 -1.78732
-0.455552 -1.82509 -1.82509
-0.464673 -1.89966 -1.89966
-0.337277 -1.89809 -1.89809
-0.330446 -1.82343 -1.82343
-0.460114 -1.86221 -1.86221
-0.400933 -1.89873 -1.89873
-0.333861 -1.86059 -1.86059
-0.392957 -1.82412 -1.82412
-0.396946 -1.86126 -1.86126
-0.464673 -1.89966 -1.89966
-0.47378 -1.97557 -1.97557
-0.34411 -1.9741 -1.9741
-0.337277 -1.89809 -1.89809
-0.469228 -1.93745 -1.93745
-0.408903 -1.97469 -1.97469
-0.340693 -1.93593 -1.93593
-0.400933 -1.89873 -1.89873
-0.404919 -1.93654 -1.93654
-0.47378 -1.97557 -1.97557
-0.482874 -2.05283 -2.05283
-0.350945 -2.05144 -2.05144
-0.34411 -1.9741 -1.9741
-0.478328 -2.01403 -2.01403
-0.416867 -2.05199 -2.05199
-0.347527 -2.0126 -2.0126
-0.408903 -1.97469 -1.97469
-0.412886 -2.01318 -2.01318
-0.482874 -2.05283 -2.05283
-0.491954 -2.13141 -2.13141
-0.357783 -2.13012 -2.13012
-0.350945 -2.05144 -2.05144
-0.487416 -2.09195 -2.09195
-0.424826 -2.13062 -2.13062
-0.354364 -2.09061 -2.09061
-0.416867 -2.05199 -2.05199
-0.420848 -2.09114 -2.09114
-0.491954 -2.13141 -2.13141
-0.501023 -2.21131 -2.21131
-0.364623 -2.21011 -2.21011
-0.357783 -2.13012 -2.13012
-0.49649 -2.1712 -2.1712
-0.432781 -2.21057 -2.21057
-0.361203 -2.16995 -2.16995
-0.424826 -2.13062 -2.13062
-0.428804 -2.17043 -2.17043
-0.501023 -2.21131 -2.21131
-0.510079 -2.29253 -2.29253
-0.371467 -2.29142 -2.29142
-0.364623 -2.21011 -2.21011
-0.505552 -2.25176 -2.25176
-0.440731 -2.29184 -2.29184
-0.368045 -2.25061 -2.25061
-0.432781 -2.21057 -2.21057
-0.436756 -2.25104 -2.25104
-0.510079 -2.29253 -2.29253
-0.519123 -2.37505 -2.37505
-0.378314 -2.37404 -2.37404
-0.371467 -2.29142 -2.29142
-0.514602 -2.33363 -2.33363
-0.448677 -2.3744 -2.3744
-0.37489 -2.33257 -2.33257
-0.440731 -2.29184 -2.29184
-0.444704 -2.33296 -2.33296
-0.519123 -2.37505 -2.37505
-0.528156 -2.45886 -2.45886
-0.385166 -2.45795 -2.45795
-0.378314 -2.37404 -2.37404
-0.523641 -2.41679 -2.41679
-0.456619 -2.45826 -2.45826
-0.38174 -2.41583 -2.41583
-0.448677 -2.3744 -2.3744
-0.452648 -2.41617 -2.41617
-0.528156 -2.45886 -2.45886
-0.537178 -2.54396 -2.54396
-0.392022 -2.54314 -2.54314
-0.385166 -2.45795 -2.45795
-0.532669 -2.50125 -2.50125
-0.464558 -2.54341 -2.54341
-0.388593 -2.50038 -2.50038
-0.456619 -2.45826 -2.45826
-0.460589 -2.50068 -2.50068
-0.537178 -2.54396 -2.54396
-0.54619 -2.63033 -2.63033
-0.398882 -2.62961 -2.62961
-0.392022 -2.54314 -2.54314
-0.541685 -2.58698 -2.58698
-0.472494 -2.62983 -2.62983
-0.395451 -2.58621 -2.58621
-0.464558 -2.54341 -2.54341
-0.468526 -2.58646 -2.58646
-0.54619 -2.63033 -2.63033
-0.555191 -2.71797 -2.71797
-0.405748 -2.71734 -2.71734
-0.398882 -2.62961 -2.62961
-0.550692 -2.67399 -2.67399
-0.480427 -2.71752 -2.71752
-0.402315 -2.67332 -2.67332
-0.472494 -2.62983 -2.62983
-0.476461 -2.67352 -2.67352
-0.555191 -2.71797 -2.71797
-0.564182 -2.80687 -2.80687
-0.412619 -2.80634 -2.80634
-0.405748 -2.71734 -2.71734
-0.559688 -2.76226 -2.76226
-0.488358 -2.80647 -2.80647
-0.409183 -2.76169 -2.76169
-0.480427 -2.71752 -2.71752
-0.484393 -2.76184 -2.76184
-0.564182 -2.80687 -2.80687
-0.573163 -2.89701 -2.89701
-0.419496 -2.89658 -2.89658
-0.412619 -2.80634 -2.80634
-0.568674 -2.85178 -2.85178
-0.496287 -2.89667 -2.89667
-0.416057 -2.85131 -2.85131
-0.488358 -2.80647 -2.80647
-0.492323 -2.85141 -2.85141
-0.573163 -2.89701 -2.89701
-0.582135 -2.9884 -2.9884
-0.426379 -2.98807 -2.98807
-0.419496 -2.89658 -2.89658
-0.57765 -2.94255 -2.94255
-0.504214 -2.9881 -2.9881
-0.422936 -2.94217 -2.94217
-0.496287 -2.89667 -2.89667
-0.500251 -2.94223 -2.94223
-0.582135 -2.9884 -2.9884
-0.591098 -3.08101 -3.08101
-0.433268 -3.08078 -3.08078
-0.426379 -2.98807 -2.98807
-0.586618 -3.03455 -3.03455
-0.51214 -3.08077 -3.08077
-0.429822 -3.03427 -3.03427
-0.504214 -2.9881 -2.9881
-0.508178 -3.03428 -3.03428
-0.591098 -3.08101 -3.08101
-0.600052 -3.17485 -3.17485
-0.440163 -3.17472 -3.17472
-0.433268 -3.08078 -3.08078
-0.595576 -3.12778 -3.12778
-0.520065 -3.17466 -3.17466
-0.436715 -3.1276 -3.1276
-0.51214 -3.08077 -3.08077
-0.516103 -3.12756 -3.12756
-0.600052 -3.17485 -3.17485
-0.608998 -3.2699 -3.2699
-0.447065 -3.26987 -3.26987
-0.440163 -3.17472 -3.17472
-0.604526 -3.22223 -3.22223
-0.527989 -3.26976 -3.26976
-0.443613 -3.22215 -3.22215
-0.520065 -3.17466 -3.17466
-0.524027 -3.22206 -3.22206
-0.608998 -3.2699 -3.2699
-0.617935 -3.36616 -3.36616
-0.453975 -3.36623 -3.36623
-0.447065 -3.26987 -3.26987
-0.613467 -3.31788 -3.31788
-0.535912 -3.36607 -3.36607
-0.450519 -3.3179 -3.3179
-0.527989 -3.26976 -3.26976
-0.531951 -3.31776 -3.31776
-0.617935 -3.36616 -3.36616
-0.626864 -3.46361 -3.46361
-0.460891 -3.46378 -3.46378
-0.453975 -3.36623 -3.36623
-0.6224 -3.41473 -3.41473
-0.543835 -3.46357 -3.46357
-0.457432 -3.41486 -3.41486
-0.535912 -3.36607 -3.36607
-0.539874 -3.41467 -3.41467
-0.626864 -3.46361 -3.46361
-0.635785 -3.56224 -3.56224
-0.467816 -3.56252 -3.56252
-0.460891 -3.46378 -3.46378
-0.631325 -3.51278 -3.51278
-0.551757 -3.56225 -3.56225
-0.464353 -3.513 -3.513
-0.543835 -3.46357 -3.46357
-0.547796 -3.51276 -3.51276
-0.635785 -3.56224 -3.56224
-0.644698 -3.66206 -3.66206
-0.474747 -3.66243 -3.66243
-0.467816 -3.56252 -3.56252
-0.640242 -3.612 -3.612
-0.55968 -3.66212 -3.66212
-0.47128 -3.61233 -3.61233
-0.551757 -3.56225 -3.56225
-0.555719 -3.61204 -3.61204
-0.644698 -3.66206 -3.66206
-0.653604 -3.76303 -3.76303
-0.481687 -3.76351 -3.76351
-0.474747 -3.66243 -3.66243
-0.649152 -3.7124 -3.7124
-0.567603 -3.76315 -3.76315
-0.478216 -3.71282 -3.71282
-0.55968 -3.66212 -3.66212
-0.563641 -3.71249 -3.71249
-0.653604 -3.76303 -3.76303
-0.662502 -3.86517 -3.86517
-0.488635 -3.86575 -3.86575
-0.481687 -3.76351 -3.76351
-0.658054 -3.81396 -3.81396
-0.575526 -3.86534 -3.86534
-0.48516 -3.81449 -3.81449
-0.567603 -3.76315 -3.76315
-0.571564 -3.8141 -3.8141
-0.662502 -3.86517 -3.86517
-0.671394 -3.96846 -3.96846
-0.49559 -3.96914 -3.96914
-0.488635 -3.86575 -3.86575
-0.666949 -3.91667 -3.91667
-0.583449 -3.96868 -3.96868
-0.492111 -3.9173 -3.9173
-0.575526 -3.86534 -3.86534
-0.579487 -3.91687 -3.91687
-0.671394 -3.96846 -3.96846
-0.680278 -4.07289 -4.07289
-0.502555 -4.07367 -4.07367
-0.49559 -3.96914 -3.96914
-0.675836 -4.02053 -4.02053
-0.591373 -4.07316 -4.07316
-0.499071 -4.02126 -4.02126
-0.583449 -3.96868 -3.96868
-0.587411 -4.02078 -4.02078
-0.680278 -4.07289 -4.07289
-0.689155 -4.17845 -4.17845
-0.509527 -4.17933 -4.17933
-0.502555 -4.07367 -4.07367
-0.684717 -4.12553 -4.12553
-0.599298 -4.17877 -4.17877
-0.50604 -4.12636 -4.12636
-0.591373 -4.07316 -4.07316
-0.595336 -4.12582 -4.12582
-0.689155 -4.17845 -4.17845
-0.698026 -4.28513 -4.28513
-0.516508 -4.28612 -4.28612
-0.509527 -4.17933 -4.17933
-0.693591 -4.23165 -4.23165
-0.607224 -4.28551 -4.28551
-0.513017 -4.23259 -4.23259
-0.599298 -4.17877 -4.17877
-0.603261 -4.232 -4.232
-0.698026 -4.28513 -4.28513
-0.706889 -4.39293 -4.39293
-0.523498 -4.39402 -4.39402
-0.516508 -4.28612 -4.28612
-0.702458 -4.33889 -4.33889
-0.615151 -4.39336 -4.39336
-0.520002 -4.33993 -4.33993
-0.607224 -4.28551 -4.28551
-0.611188 -4.33929 -4.33929
-0.706889 -4.39293 -4.39293
-0.715747 -4.50183 -4.50183
-0.530497 -4.50302 -4.50302
-0.523498 -4.39402 -4.39402
-0.711319 -4.44724 -4.44724
-0.623079 -4.50231 -4.50231
-0.526997 -4.44838 -4.44838
-0.615151 -4.39336 -4.39336
-0.619115 -4.44769 -4.44769
-0.715747 -4.50183 -4.50183
-0.724598 -4.61182 -4.61182
-0.537505 -4.61312 -4.61312
-0.530497 -4.50302 -4.50302
-0.720173 -4.55669 -4.55669
-0.631008 -4.61236 -4.61236
-0.534 -4.55793 -4.55793
-0.623079 -4.50231 -4.50231
-0.627044 -4.5572 -4.5572
-0.724598 -4.61182 -4.61182
-0.733442 -4.72291 -4.72291
-0.544522 -4.72431 -4.72431
-0.537505 -4.61312 -4.61312
-0.729021 -4.66723 -4.66723
-0.638939 -4.72349 -4.72349
-0.541012 -4.66858 -4.66858
-0.631008 -4.61236 -4.61236
-0.634974 -4.66779 -4.66779
-0.733442 -4.72291 -4.72291
-0.74228 -4.83507 -4.83507
-0.551547 -4.83657 -4.83657
-0.544522 -4.72431 -4.72431
-0.737862 -4.77885 -4.77885
-0.646871 -4.8357 -4.8357
-0.548033 -4.7803 -4.7803
-0.638939 -4.72349 -4.72349
-0.642905 -4.77946 -4.77946
-0.74228 -4.83507 -4.83507
-0.751112 -4.94829 -4.94829
-0.558582 -4.9499 -4.9499
-0.551547 -4.83657 -4.83657
-0.746697 -4.89155 -4.89155
-0.654804 -4.94899 -4.94899
-0.555064 -4.8931 -4.8931
-0.646871 -4.8357 -4.8357
-0.650838 -4.89221 -4.89221
-0.751112 -4.94829 -4.94829
-0.759938 -5.06258 -5.06258
-0.565626 -5.06429 -5.06429
-0.558582 -4.9499 -4.9499
-0.755526 -5.00531 -5.00531
-0.662739 -5.06333 -5.06333
-0.562103 -5.00697 -5.00697
-0.654804 -4.94899 -4.94899
-0.658772 -5.00602 -5.00602
-0.759938 -5.06258 -5.06258
-0.768757 -5.17792 -5.17792
-0.57268 -5.17974 -5.17974
-0.565626 -5.06429 -5.06429
-0.764348 -5.12012 -5.12012
-0.670676 -5.17872 -5.17872
-0.569152 -5.12188 -5.12188
-0.662739 -5.06333 -5.06333
-0.666707 -5.12089 -5.12089
-0.768757 -5.17792 -5.17792
-0.777571 -5.2943 -5.2943
-0.579742 -5.29622 -5.29622
-0.57268 -5.17974 -5.17974
-0.773165 -5.23598 -5.23598
-0.678614 -5.29515 -5.29515
-0.57621 -5.23785 -5.23785
-0.670676 -5.17872 -5.17872
-0.674644 -5.2368 -5.2368
-0.777571 -5.2943 -5.2943
-0.786378 -5.41171 -5.41171
-0.586814 -5.41373 -5.41373
-0.579742 -5.29622 -5.29622
-0.781975 -5.35288 -5.35288
-0.686553 -5.41261 -5.41261
-0.583277 -5.35485 -5.35485
-0.678614 -5.29515 -5.29515
-0.682583 -5.35375 -5.35375
-0.786378 -5.41171 -5.41171
-0.795179 -5.53015 -5.53015
-0.593895 -5.53227 -5.53227
-0.586814 -5.41373 -5.41373
-0.790779 -5.4708 -5.4708
-0.694494 -5.5311 -5.5311
-0.590353 -5.47288 -5.47288
-0.686553 -5.41261 -5.41261
-0.690523 -5.47173 -5.47173
-0.795179 -5.53015 -5.53015
-0.803974 -5.6496 -5.6496
-0.600985 -5.65183 -5.65183
-0.593895 -5.53227 -5.53227
-0.799577 -5.58975 -5.58975
-0.702437 -5.65061 -5.65061
-0.597438 -5.59192 -5.59192
-0.694494 -5.5311 -5.5311
-0.698465 -5.59073 -5.59073
-0.803974 -5.6496 -5.6496
-0.812763 -5.77005 -5.77005
-0.608084 -5.77239 -5.77239
-0.600985 -5.65183 -5.65183
-0.808369 -5.7097 -5.7097
-0.710381 -5.77111 -5.77111
-0.604533 -5.71198 -5.71198
-0.702437 -5.65061 -5.65061
-0.706408 -5.71073 -5.71073
-0.812763 -5.77005 -5.77005
-0.821545 -5.8915 -5.8915
-0.615192 -5.89394 -5.89394
-0.608084 -5.77239 -5.77239
-0.817155 -5.83065 -5.83065
-0.718326 -5.89262 -5.89262
-0.611637 -5.83304 -5.83304
-0.710381 -5.77111 -5.77111
-0.714353 -5.83174 -5.83174
-0.821545 -5.8915 -5.8915
-0.830322 -6.01394 -6.01394
-0.62231 -6.01648 -6.01648
-0.615192 -5.89394 -5.89394
-0.825934 -5.9526 -5.9526
-0.726273 -6.01511 -6.01511
-0.61875 -5.95509 -5.95509
-0.718326 -5.89262 -5.89262
-0.722299 -5.95374 -5.95374
-0.830322 -6.01394 -6.01394
-0.839092 -6.13736 -6.13736
-0.629437 -6.14 -6.14
-0.62231 -6.01648 -6.01648
-0.834708 -6.07553 -6.07553
-0.734221 -6.13858 -6.13858
-0.625872 -6.07812 -6.07812
-0.726273 -6.01511 -6.01511
-0.730247 -6.07672 -6.07672
-0.839092 -6.13736 -6.13736
-0.847855 -6.26174 -6.26174
-0.636572 -6.26449 -6.26449
-0.629437 -6.14 -6.14
-0.843474 -6.19943 -6.19943
-0.742171 -6.26302 -6.26302
-0.633003 -6.20213 -6.20213
-0.734221 -6.13858 -6.13858
-0.738196 -6.20068 -6.20068
-0.847855 -6.26174 -6.26174
-0.856613 -6.38709 -6.38709
-0.643717 -6.38994 -6.38994
-0.636572 -6.26449 -6.26449
-0.852235 -6.3243 -6.3243
-0.750122 -6.38842 -6.38842
-0.640143 -6.3271 -6.3271
-0.742171 -6.26302 -6.26302
-0.746146 -6.3256 -6.3256
-0.856613 -6.38709 -6.38709
-0.865363 -6.51339 -6.51339
-0.65087 -6.51634 -6.51634
-0.643717 -6.38994 -6.38994
-0.860989 -6.45012 -6.45012
-0.758074 -6.51477 -6.51477
-0.647292 -6.45302 -6.45302
-0.750122 -6.38842 -6.38842
-0.754098 -6.45147 -6.45147
-0.865363 -6.51339 -6.51339
-0.874107 -6.64063 -6.64063
-0.658032 -6.64368 -6.64368
-0.65087 -6.51634 -6.51634
-0.869736 -6.57689 -6.57689
-0.766027 -6.64206 -6.64206
-0.65445 -6.5799 -6.5799
-0.758074 -6.51477 -6.51477
-0.76205 -6.57829 -6.57829
-0.874107 -6.64063 -6.64063
-0.882845 -6.7688 -6.7688
-0.665203 -6.77196 -6.77196
-0.658032 -6.64368 -6.64368
-0.878477 -6.7046 -6.7046
-0.773981 -6.77028 -6.77028
-0.661616 -6.70771 -6.70771
-0.766027 -6.64206 -6.64206
-0.770004 -6.70605 -6.70605
-0.882845 -6.7688 -6.7688
-0.891575 -6.8979 -6.8979
-0.672382 -6.90116 -6.90116
-0.665203 -6.77196 -6.77196
-0.887211 -6.83323 -6.83323
-0.781936 -6.89943 -6.89943
-0.668791 -6.83644 -6.83644
-0.773981 -6.77028 -6.77028
-0.777959 -6.83474 -6.83474
-0.891575 -6.8979 -6.8979
-0.900299 -7.02791 -7.02791
-0.67957 -7.03127 -7.03127
-0.672382 -6.90116 -6.90116
-0.895938 -6.96279 -6.96279
-0.789892 -7.0295 -7.0295
-0.675975 -6.9661 -6.9661
-0.781936 -6.89943 -6.89943
-0.785914 -6.96435 -6.96435
-0.900299 -7.02791 -7.02791
-0.909015 -7.15883 -7.15883
-0.686766 -7.16229 -7.16229
-0.67957 -7.03127 -7.03127
-0.904658 -7.09326 -7.09326
-0.797848 -7.16047 -7.16047
-0.683167 -7.09667 -7.09667
-0.789892 -7.0295 -7.0295
-0.79387 -7.09487 -7.09487
-0.909015 -7.15883 -7.15883
-0.917725 -7.29064 -7.29064
-0.69397 -7.29421 -7.29421
-0.686766 -7.16229 -7.16229
-0.913371 -7.22462 -7.22462
-0.805804 -7.29233 -7.29233
-0.690367 -7.22814 -7.22814
-0.797848 -7.16047 -7.16047
-0.801826 -7.22629 -7.22629
-0.917725 -7.29064 -7.29064
-0.926426 -7.42335 -7.42335
-0.701182 -7.42702 -7.42702
-0.69397 -7.29421 -7.29421
-0.922076 -7.35688 -7.35688
-0.813761 -7.42509 -7.42509
-0.697575 -7.3605 -7.3605
-0.805804 -7.29233 -7.29233
-0.809783 -7.3586 -7.3586
-0.926426 -7.42335 -7.42335
-0.935121 -7.55693 -7.55693
-0.708401 -7.5607 -7.5607
-0.701182 -7.42702 -7.42702
-0.930774 -7.49003 -7.49003
-0.821718 -7.55872 -7.55872
-0.704791 -7.49375 -7.49375
-0.813761 -7.42509 -7.42509
-0.81774 -7.4918 -7.4918
-0.935121 -7.55693 -7.55693
-0.943807 -7.69138 -7.69138
-0.715629 -7.69525 -7.69525
-0.708401 -7.5607 -7.5607
-0.939465 -7.62405 -7.62405
-0.829675 -7.69323 -7.69323
-0.712014 -7.62787 -7.62787
-0.821718 -7.55872 -7.55872
-0.825697 -7.62587 -7.62587
-0.943807 -7.69138 -7.69138
-0.952486 -7.8267 -7.8267
-0.722864 -7.83067 -7.83067
-0.715629 -7.69525 -7.69525
-0.948147 -7.75893 -7.75893
-0.837632 -7.82859 -7.82859
-0.719245 -7.76285 -7.76285
-0.829675 -7.69323 -7.69323
-0.833654 -7.7608 -7.7608
-0.952486 -7.8267 -7.8267
-0.961156 -7.96286 -7.96286
-0.730106 -7.96693 -7.96693
-0.722864 -7.83067 -7.83067
-0.956822 -7.89467 -7.89467
-0.845588 -7.96481 -7.96481
-0.726484 -7.89869 -7.89869
-0.837632 -7.82859 -7.82859
-0.84161 -7.89659 -7.89659
-0.961156 -7.96286 -7.96286
-0.969819 -8.09987 -8.09987
-0.737355 -8.10404 -8.10404
-0.730106 -7.96693 -7.96693
-0.965488 -8.03126 -8.03126
-0.853544 -8.10187 -8.10187
-0.733729 -8.03538 -8.03538
-0.845588 -7.96481 -7.96481
-0.849566 -8.03323 -8.03323
-0.969819 -8.09987 -8.09987
-0.978472 -8.23771 -8.23771
-0.744611 -8.24198 -8.24198
-0.737355 -8.10404 -8.10404
-0.974146 -8.16869 -8.16869
-0.861499 -8.23976 -8.23976
-0.740982 -8.17291 -8.17291
-0.853544 -8.10187 -8.10187
-0.857522 -8.17071 -8.17071
-0.978472 -8.23771 -8.23771
-0.987117 -8.37638 -8.37638
-0.751873 -8.38075 -8.38075
-0.744611 -8.24198 -8.24198
-0.982796 -8.30694 -8.30694
-0.869453 -8.37848 -8.37848
-0.748241 -8.31126 -8.31126
-0.861499 -8.23976 -8.23976
-0.865476 -8.30902 -8.30902
-0.987117 -8.37638 -8.37638
-0.995753 -8.51586 -8.51586
-0.759142 -8.52033 -8.52033
-0.751873 -8.38075 -8.38075
-0.991436 -8.44602 -8.44602
-0.877405 -8.51801 -8.51801
-0.755507 -8.45044 -8.45044
-0.869453 -8.37848 -8.37848
-0.873429 -8.44814 -8.44814
-0.995753 -8.51586 -8.51586
-1.00438 -8.65615 -8.65615
-0.766417 -8.66072 -8.66072
-0.759142 -8.52033 -8.52033
-1.00007 -8.58591 -8.58591
-0.885356 -8.65835 -8.65835
-0.762779 -8.59043 -8.59043
-0.877405 -8.51801 -8.51801
-0.881381 -8.58808 -8.58808
-1.00438 -8.65615 -8.65615
-1.013 -8.79724 -8.79724
-0.773698 -8.80191 -8.80191
-0.766417 -8.66072 -8.66072
-1.00869 -8.7266 -8.7266
-0.893305 -8.79949 -8.79949
-0.770057 -8.73121 -8.73121
-0.885356 -8.65835 -8.65835
-0.889331 -8.72882 -8.72882
-1.013 -8.79724 -8.79724
-1.02161 -8.93912 -8.93912
-0.780985 -8.94388 -8.94388
-0.773698 -8.80191 -8.80191
-1.0173 -8.86808 -8.86808
-0.901253 -8.94142 -8.94142
-0.777341 -8.8728 -8.8728
-0.893305 -8.79949 -8.79949
-0.897279 -8.87036 -8.87036
-1.02161 -8.93912 -8.93912
-1.0302 -9.08178 -9.08178
-0.788277 -9.08663 -9.08663
-0.780985 -8.94388 -8.94388
-1.02591 -9.01035 -9.01035
-0.909198 -9.08412 -9.08412
-0.78463 -9.01516 -9.01516
-0.901253 -8.94142 -8.94142
-0.905225 -9.01267 -9.01267
-1.0302 -9.08178 -9.08178
-1.03879 -9.2252 -9.2252
-0.795574 -9.23016 -9.23016
-0.788277 -9.08663 -9.08663
-1.0345 -9.15339 -9.15339
-0.91714 -9.2276 -9.2276
-0.791925 -9.1583 -9.1583
-0.909198 -9.08412 -9.08412
-0.913169 -9.15577 -9.15577
-1.03879 -9.2252 -9.2252
-1.04737 -9.36939 -9.36939
-0.802876 -9.37444 -9.37444
-0.795574 -9.23016 -9.23016
-1.04308 -9.2972 -9.2972
-0.925079 -9.37184 -9.37184
-0.799224 -9.30221 -9.30221
-0.91714 -9.2276 -9.2276
-0.92111 -9.29963 -9.29963
-1.04737 -9.36939 -9.36939
-1.05593 -9.51434 -9.51434
-0.810182 -9.51948 -9.51948
-0.802876 -9.37444 -9.37444
-1.05165 -9.44177 -9.44177
-0.933016 -9.51683 -9.51683
-0.806528 -9.44687 -9.44687
-0.925079 -9.37184 -9.37184
-0.929048 -9.44424 -9.44424
-1.05593 -9.51434 -9.51434
-1.06449 -9.66002 -9.66002
-0.817493 -9.66526 -9.66526
-0.810182 -9.51948 -9.51948
-1.06021 -9.58709 -9.58709
-0.940949 -9.66257 -9.66257
-0.813837 -9.59228 -9.59228
-0.933016 -9.51683 -9.51683
-0.936983 -9.58961 -9.58961
-1.06449 -9.66002 -9.66002
-1.07303 -9.80644 -9.80644
-0.824808 -9.81178 -9.81178
-0.817493 -9.66526 -9.66526
-1.06876 -9.73314 -9.73314
-0.948878 -9.80904 -9.80904
-0.82115 -9.73843 -9.73843
-0.940949 -9.66257 -9.66257
-0.944914 -9.73571 -9.73571
-1.07303 -9.80644 -9.80644
-1.08156 -9.95359 -9.95359
-0.832126 -9.95902 -9.95902
-0.824808 -9.81178 -9.81178
-1.0773 -9.87993 -9.87993
-0.956803 -9.95623 -9.95623
-0.828466 -9.88531 -9.88531
-0.948878 -9.80904 -9.80904
-0.952841 -9.88254 -9.88254
-1.08156 -9.95359 -9.95359
-1.09009 -10.1015 -10.1015
-0.839447 -10.107 -10.107
-0.832126 -9.95902 -9.95902
-1.08583 -10.0274 -10.0274
-0.964724 -10.1041 -10.1041
-0.835786 -10.0329 -10.0329
-0.956803 -9.95623 -9.95623
-0.960764 -10.0301 -10.0301
-1.09009 -10.1015 -10.1015
-1.09859 -10.25 -10.25
-0.846772 -10.2556 -10.2556
-0.839447 -10.107 -10.107
-1.09434 -10.1757 -10.1757
-0.97264 -10.2528 -10.2528
-0.843109 -10.1812 -10.1812
-0.964724 -10.1041 -10.1041
-0.968683 -10.1784 -10.1784
-1.09859 -10.25 -10.25
-1.10709 -10.3993 -10.3993
-0.854099 -10.405 -10.405
-0.846772 -10.2556 -10.2556
-1.10284 -10.3246 -10.3246
-0.980552 -10.4021 -10.4021
-0.850435 -10.3302 -10.3302
-0.97264 -10.2528 -10.2528
-0.976597 -10.3273 -10.3273
-1.10709 -10.3993 -10.3993
-1.11557 -10.5493 -10.5493
-0.861429 -10.5551 -10.5551
-0.854099 -10.405 -10.405
-1.11133 -10.4742 -10.4742
-0.988458 -10.5521 -10.5521
-0.857764 -10.4799 -10.4799
-0.980552 -10.4021 -10.4021
-0.984505 -10.477 -10.477
-1.11557 -10.5493 -10.5493
-1.12404 -10.6999 -10.6999
-0.86876 -10.7058 -10.7058
-0.861429 -10.5551 -10.5551
-1.11981 -10.6245 -10.6245
-0.996358 -10.7028 -10.7028
-0.865094 -10.6303 -10.6303
-0.988458 -10.5521 -10.5521
-0.992408 -10.6273 -10.6273
-1.12404 -10.6999 -10.6999
-1.13249 -10.8512 -10.8512
-0.876094 -10.8572 -10.8572
-0.86876 -10.7058 -10.7058
-1.12827 -10.7755 -10.7755
-1.00425 -10.8541 -10.8541
-0.872427 -10.7814 -10.7814
-0.996358 -10.7028 -10.7028
-1.00031 -10.7784 -10.7784
-1.13249 -10.8512 -10.8512
-1.14093 -11.0032 -11.0032
-0.883428 -11.0093 -11.0093
-0.876094 -10.8572 -10.8572
-1.13672 -10.9271 -10.9271
-1.01214 -11.0061 -11.0061
-0.879761 -10.9331 -10.9331
-1.00425 -10.8541 -10.8541
-1.0082 -10.9301 -10.9301
-1.14093 -11.0032 -11.0032
-1.14936 -11.1558 -11.1558
-0.890763 -11.162 -11.162
-0.883428 -11.0093 -11.0093
-1.14515 -11.0794 -11.0794
-1.02002 -11.1588 -11.1588
-0.887096 -11.0855 -11.0855
-1.01214 -11.0061 -11.0061
-1.01608 -11.0824 -11.0824
-1.14936 -11.1558 -11.1558
-1.15777 -11.3091 -11.3091
-0.898099 -11.3153 -11.3153
-0.890763 -11.162 -11.162
-1.15357 -11.2324 -11.2324
-1.02789 -11.3121 -11.3121
-0.894431 -11.2386 -11.2386
-1.02002 -11.1588 -11.1588
-1.02396 -11.2354 -11.2354
-1.15777 -11.3091 -11.3091
-1.16617 -11.463 -11.463
-0.905435 -11.4693 -11.4693
-0.898099 -11.3153 -11.3153
-1.16197 -11.386 -11.386
-1.03576 -11.4661 -11.4661
-0.901767 -11.3922 -11.3922
-1.02789 -11.3121 -11.3121
-1.03183 -11.389 -11.389
-1.16617 -11.463 -11.463
-1.17455 -11.6175 -11.6175
-0.912771 -11.6239 -11.6239
-0.905435 -11.4693 -11.4693
-1.17036 -11.5402 -11.5402
-1.04362 -11.6207 -11.6207
-0.909103 -11.5466 -11.5466
-1.03576 -11.4661 -11.4661
-1.03969 -11.5433 -11.5433
-1.17455 -11.6175 -11.6175
-1.18292 -11.7727 -11.7727
-0.920106 -11.7792 -11.7792
-0.912771 -11.6239 -11.6239
-1.17873 -11.695 -11.695
-1.05147 -11.7759 -11.7759
-0.916438 -11.7015 -11.7015
-1.04362 -11.6207 -11.6207
-1.04755 -11.6982 -11.6982
-1.18292 -11.7727 -11.7727
-1.19126 -11.9284 -11.9284
-0.92744 -11.935 -11.935
-0.920106 -11.7792 -11.7792
-1.18709 -11.8505 -11.8505
-1.05931 -11.9317 -11.9317
-0.923773 -11.857 -11.857
-1.05147 -11.7759 -11.7759
-1.05539 -11.8537 -11.8537
-1.19126 -11.9284 -11.9284
-1.1996 -12.0848 -12.0848
-0.934772 -12.0915 -12.0915
-0.92744 -11.935 -11.935
-1.19543 -12.0065 -12.0065
-1.06714 -12.0881 -12.0881
-0.931106 -12.0132 -12.0132
-1.05931 -11.9317 -11.9317
-1.06323 -12.0098 -12.0098
-1.1996 -12.0848 -12.0848
-1.20791 -12.2417 -12.2417
-0.942102 -12.2485 -12.2485
-0.934772 -12.0915 -12.0915
-1.20376 -12.1632 -12.1632
-1.07496 -12.2451 -12.2451
-0.938437 -12.1699 -12.1699
-1.06714 -12.0881 -12.0881
-1.07105 -12.1665 -12.1665
-1.20791 -12.2417 -12.2417
-1.21621 -12.3993 -12.3993
-0.949431 -12.4061 -12.4061
-0.942102 -12.2485 -12.2485
-1.21206 -12.3204 -12.3204
-1.08278 -12.4026 -12.4026
-0.945767 -12.3272 -12.3272
-1.07496 -12.2451 -12.2451
-1.07887 -12.3238 -12.3238
-1.21621 -12.3993 -12.3993
-1.22449 -12.5574 -12.5574
-0.956756 -12.5643 -12.5643
-0.949431 -12.4061 -12.4061
-1.22035 -12.4783 -12.4783
-1.09058 -12.5608 -12.5608
-0.953094 -12.4852 -12.4852
-1.08278 -12.4026 -12.4026
-1.08668 -12.4816 -12.4816
-1.22449 -12.5574 -12.5574
-1.23275 -12.7161 -12.7161
-0.964078 -12.7231 -12.7231
-0.956756 -12.5643 -12.5643
-1.22862 -12.6366 -12.6366
-1.09837 -12.7195 -12.7195
-0.960417 -12.6436 -12.6436
-1.09058 -12.5608 -12.5608
-1.09448 -12.6401 -12.6401
-1.23275 -12.7161 -12.7161
-1.24099 -12.8753 -12.8753
-0.971397 -12.8824 -12.8824
-0.964078 -12.7231 -12.7231
-1.23687 -12.7956 -12.7956
-1.10615 -12.8788 -12.8788
-0.967738 -12.8026 -12.8026
-1.09837 -12.7195 -12.7195
-1.10226 -12.7991 -12.7991
-1.24099 -12.8753 -12.8753
-1.24921 -13.035 -13.035
-0.978711 -13.0422 -13.0422
-0.971397 -12.8824 -12.8824
-1.2451 -12.9551 -12.9551
-1.11392 -13.0386 -13.0386
-0.975055 -12.9622 -12.9622
-1.10615 -12.8788 -12.8788
-1.11004 -12.9586 -12.9586
-1.24921 -13.035 -13.035
-1.25741 -13.1953 -13.1953
-0.986021 -13.2026 -13.2026
-0.978711 -13.0422 -13.0422
-1.25331 -13.1151 -13.1151
-1.12168 -13.1989 -13.1989
-0.982367 -13.1223 -13.1223
-1.11392 -13.0386 -13.0386
-1.1178 -13.1187 -13.1187
-1.25741 -13.1953 -13.1953
-1.26559 -13.3562 -13.3562
-0.993326 -13.3635 -13.3635
-0.986021 -13.2026 -13.2026
-1.26151 -13.2757 -13.2757
-1.12942 -13.3598 -13.3598
-0.989674 -13.283 -13.283
-1.12168 -13.1989 -13.1989
-1.12555 -13.2793 -13.2793
-1.26559 -13.3562 -13.3562
-1.27375 -13.5175 -13.5175
-1.00063 -13.5249 -13.5249
-0.993326 -13.3635 -13.3635
-1.26968 -13.4368 -13.4368
-1.13715 -13.5212 -13.5212
-0.996977 -13.4442 -13.4442
-1.12942 -13.3598 -13.3598
-1.13329 -13.4404 -13.4404
-1.27375 -13.5175 -13.5175
-1.28189 -13.6794 -13.6794
-1.00792 -13.6869 -13.6869
-1.00063 -13.5249 -13.5249
-1.27783 -13.5984 -13.5984
-1.14487 -13.6831 -13.6831
-1.00427 -13.6058 -13.6058
-1.13715 -13.5212 -13.5212
-1.14101 -13.6021 -13.6021
-1.28189 -13.6794 -13.6794
-1.29001 -13.8417 -13.8417
-1.01521 -13.8493 -13.8493
-1.00792 -13.6869 -13.6869
-1.28596 -13.7605 -13.7605
-1.15257 -13.8455 -13.8455
-1.01156 -13.768 -13.768
-1.14487 -13.6831 -13.6831
-1.14872 -13.7642 -13.7642
-1.29001 -13.8417 -13.8417
-1.29811 -14.0046 -14.0046
-1.02249 -14.0122 -14.0122
-1.01521 -13.8493 -13.8493
-1.29406 -13.9231 -13.9231
-1.16026 -14.0084 -14.0084
-1.01885 -13.9307 -13.9307
-1.15257 -13.8455 -13.8455
-1.15641 -13.9269 -13.9269
-1.29811 -14.0046 -14.0046
-1.30618 -14.1679 -14.1679
-1.02976 -14.1756 -14.1756
-1.02249 -14.0122 -14.0122
-1.30215 -14.0862 -14.0862
-1.16793 -14.1717 -14.1717
-1.02612 -14.0939 -14.0939
-1.16026 -14.0084 -14.0084
-1.1641 -14.09 -14.09
-1.30618 -14.1679 -14.1679
-1.31423 -14.3317 -14.3317
-1.03702 -14.3395 -14.3395
-1.02976 -14.1756 -14.1756
-1.31021 -14.2498 -14.2498
-1.17559 -14.3356 -14.3356
-1.03339 -14.2575 -14.2575
-1.16793 -14.1717 -14.1717
-1.17176 -14.2536 -14.2536
-1.31423 -14.3317 -14.3317
-1.32226 -14.496 -14.496
-1.04428 -14.5039 -14.5039
-1.03702 -14.3395 -14.3395
-1.31825 -14.4138 -14.4138
-1.18323 -14.4999 -14.4999
-1.04065 -14.4216 -14.4216
-1.17559 -14.3356 -14.3356
-1.17941 -14.4177 -14.4177
-1.32226 -14.496 -14.496
-1.33026 -14.6607 -14.6607
-1.05153 -14.6687 -14.6687
-1.04428 -14.5039 -14.5039
-1.32626 -14.5783 -14.5783
-1.19085 -14.6647 -14.6647
-1.04791 -14.5862 -14.5862
-1.18323 -14.4999 -14.4999
-1.18704 -14.5822 -14.5822
-1.33026 -14.6607 -14.6607
-1.33824 -14.8259 -14.8259
-1.05877 -14.8339 -14.8339
-1.05153 -14.6687 -14.6687
-1.33425 -14.7433 -14.7433
-1.19846 -14.8299 -14.8299
-1.05515 -14.7512 -14.7512
-1.19085 -14.6647 -14.6647
-1.19466 -14.7472 -14.7472
-1.33824 -14.8259 -14.8259
-1.34619 -14.9915 -14.9915
-1.066 -14.9996 -14.9996
-1.05877 -14.8339 -14.8339
-1.34222 -14.9086 -14.9086
-1.20605 -14.9955 -14.9955
-1.06238 -14.9167 -14.9167
-1.19846 -14.8299 -14.8299
-1.20226 -14.9126 -14.9126
-1.34619 -14.9915 -14.9915
-1.35412 -15.1575 -15.1575
-1.07321 -15.1657 -15.1657
-1.066 -14.9996 -14.9996
-1.35016 -15.0745 -15.0745
-1.21363 -15.1616 -15.1616
-1.06961 -15.0826 -15.0826
-1.20605 -14.9955 -14.9955
-1.20984 -15.0785 -15.0785
-1.35412 -15.1575 -15.1575
-1.36202 -15.324 -15.324
-1.08042 -15.3322 -15.3322
-1.07321 -15.1657 -15.1657
-1.35807 -15.2407 -15.2407
-1.22118 -15.3281 -15.3281
-1.07682 -15.2489 -15.2489
-1.21363 -15.1616 -15.1616
-1.2174 -15.2448 -15.2448
-1.36202 -15.324 -15.324
-1.36989 -15.4909 -15.4909
-1.08762 -15.4991 -15.4991
-1.08042 -15.3322 -15.3322
-1.36596 -15.4074 -15.4074
-1.22871 -15.495 -15.495
-1.08402 -15.4156 -15.4156
-1.22118 -15.3281 -15.3281
-1.22495 -15.4115 -15.4115
-1.36989 -15.4909 -15.4909
-1.37774 -15.6581 -15.6581
-1.0948 -15.6665 -15.6665
-1.08762 -15.4991 -15.4991
-1.37382 -15.5744 -15.5744
-1.23623 -15.6623 -15.6623
-1.09121 -15.5828 -15.5828
-1.22871 -15.495 -15.495
-1.23247 -15.5786 -15.5786
-1.37774 -15.6581 -15.6581
-1.38556 -15.8258 -15.8258
-1.10197 -15.8342 -15.8342
-1.0948 -15.6665 -15.6665
-1.38165 -15.7419 -15.7419
-1.24372 -15.83 -15.83
-1.09839 -15.7503 -15.7503
-1.23623 -15.6623 -15.6623
-1.23998 -15.7461 -15.7461
-1.38556 -15.8258 -15.8258
-1.39335 -15.9938 -15.9938
-1.10913 -16.0023 -16.0023
-1.10197 -15.8342 -15.8342
-1.38946 -15.9098 -15.9098
-1.2512 -15.998 -15.998
-1.10555 -15.9182 -15.9182
-1.24372 -15.83 -15.83
-1.24746 -15.914 -15.914
-1.39335 -15.9938 -15.9938
-1.40111 -16.1622 -16.1622
-1.11627 -16.1708 -16.1708
-1.10913 -16.0023 -16.0023
-1.39723 -16.078 -16.078
-1.25865 -16.1665 -16.1665
-1.1127 -16.0865 -16.0865
-1.2512 -15.998 -15.998
-1.25493 -16.0822 -16.0822
-1.40111 -16.1622 -16.1622
-1.40884 -16.331 -16.331
-1.1234 -16.3396 -16.3396
-1.11627 -16.1708 -16.1708
-1.40498 -16.2466 -16.2466
-1.26608 -16.3353 -16.3353
-1.11984 -16.2552 -16.2552
-1.25865 -16.1665 -16.1665
-1.26237 -16.2508 -16.2508
-1.40884 -16.331 -16.331
-1.41654 -16.5002 -16.5002
-1.13052 -16.5088 -16.5088
-1.1234 -16.3396 -16.3396
-1.4127 -16.4156 -16.4156
-1.27349 -16.5045 -16.5045
-1.12696 -16.4242 -16.4242
-1.26608 -16.3353 -16.3353
-1.26979 -16.4198 -16.4198
-1.41654 -16.5002 -16.5002
-1.42421 -16.6696 -16.6696
-1.13762 -16.6784 -16.6784
-1.13052 -16.5088 -16.5088
-1.42038 -16.5849 -16.5849
-1.28088 -16.674 -16.674
-1.13407 -16.5936 -16.5936
-1.27349 -16.5045 -16.5045
-1.27719 -16.5892 -16.5892
-1.42421 -16.6696 -16.6696
-1.43185 -16.8395 -16.8395
-1.14471 -16.8483 -16.8483
-1.13762 -16.6784 -16.6784
-1.42804 -16.7545 -16.7545
-1.28824 -16.8438 -16.8438
-1.14116 -16.7633 -16.7633
-1.28088 -16.674 -16.674
-1.28456 -16.7589 -16.7589
-1.43185 -16.8395 -16.8395
-1.43946 -17.0096 -17.0096
-1.15177 -17.0185 -17.0185
-1.14471 -16.8483 -16.8483
-1.43566 -16.9245 -16.9245
-1.29558 -17.014 -17.014
-1.14824 -16.9333 -16.9333
-1.28824 -16.8438 -16.8438
-1.29191 -16.9289 -16.9289
-1.43946 -17.0096 -17.0096
-1.44704 -17.1801 -17.1801
-1.15882 -17.189 -17.189
-1.15177 -17.0185 -17.0185
-1.44326 -17.0948 -17.0948
-1.30289 -17.1845 -17.1845
-1.1553 -17.1037 -17.1037
-1.29558 -17.014 -17.014
-1.29924 -17.0992 -17.0992
-1.44704 -17.1801 -17.1801
-1.45458 -17.3509 -17.3509
-1.16586 -17.3598 -17.3598
-1.15882 -17.189 -17.189
-1.45082 -17.2654 -17.2654
-1.31018 -17.3553 -17.3553
-1.16234 -17.2744 -17.2744
-1.30289 -17.1845 -17.1845
-1.30654 -17.2699 -17.2699
-1.45458 -17.3509 -17.3509
-1.46209 -17.5219 -17.5219
-1.17287 -17.531 -17.531
-1.16586 -17.3598 -17.3598
-1.45834 -17.4364 -17.4364
-1.31744 -17.5264 -17.5264
-1.16937 -17.4454 -17.4454
-1.31018 -17.3553 -17.3553
-1.31382 -17.4408 -17.4408
-1.46209 -17.5219 -17.5219
-1.46957 -17.6933 -17.6933
-1.17987 -17.7024 -17.7024
-1.17287 -17.531 -17.531
-1.46584 -17.6076 -17.6076
-1.32468 -17.6978 -17.6978
-1.17638 -17.6167 -17.6167
-1.31744 -17.5264 -17.5264
-1.32107 -17.6121 -17.6121
-1.46957 -17.6933 -17.6933
-1.47701 -17.865 -17.865
-1.18685 -17.8741 -17.8741
-1.17987 -17.7024 -17.7024
-1.4733 -17.7791 -17.7791
-1.33189 -17.8695 -17.8695
-1.18336 -17.7882 -17.7882
-1.32468 -17.6978 -17.6978
-1.32829 -17.7836 -17.7836
-1.47701 -17.865 -17.865
-1.48442 -18.0369 -18.0369
-1.19381 -18.0461 -18.0461
-1.18685 -17.8741 -17.8741
-1.48072 -17.9509 -17.9509
-1.33907 -18.0415 -18.0415
-1.19033 -17.9601 -17.9601
-1.33189 -17.8695 -17.8695
-1.33549 -17.9555 -17.9555
-1.48442 -18.0369 -18.0369
-1.49179 -18.2091 -18.2091
-1.20075 -18.2184 -18.2184
-1.19381 -18.0461 -18.0461
-1.48811 -18.123 -18.123
-1.34623 -18.2137 -18.2137
-1.19728 -18.1322 -18.1322
-1.33907 -18.0415 -18.0415
-1.34266 -18.1276 -18.1276
-1.49179 -18.2091 -18.2091
-1.49913 -18.3816 -18.3816
-1.20766 -18.3909 -18.3909
-1.20075 -18.2184 -18.2184
-1.49546 -18.2953 -18.2953
-1.35336 -18.3862 -18.3862
-1.20421 -18.3046 -18.3046
-1.34623 -18.2137 -18.2137
-1.3498 -18.2999 -18.2999
-1.49913 -18.3816 -18.3816
-1.50642 -18.5543 -18.5543
-1.21456 -18.5636 -18.5636
-1.20766 -18.3909 -18.3909
-1.50278 -18.4679 -18.4679
-1.36045 -18.5589 -18.5589
-1.21111 -18.4772 -18.4772
-1.35336 -18.3862 -18.3862
-1.35691 -18.4725 -18.4725
-1.50642 -18.5543 -18.5543
-1.51369 -18.7272 -18.7272
-1.22143 -18.7366 -18.7366
-1.21456 -18.5636 -18.5636
-1.51006 -18.6407 -18.6407
-1.36752 -18.7319 -18.7319
-1.218 -18.6501 -18.6501
-1.36045 -18.5589 -18.5589
-1.36399 -18.6454 -18.6454
-1.51369 -18.7272 -18.7272
-1.52091 -18.9004 -18.9004
-1.22828 -18.9098 -18.9098
-1.22143 -18.7366 -18.7366
-1.5173 -18.8138 -18.8138
-1.37456 -18.9051 -18.9051
-1.22486 -18.8232 -18.8232
-1.36752 -18.7319 -18.7319
-1.37104 -18.8185 -18.8185
-1.52091 -18.9004 -18.9004
-1.52809 -19.0738 -19.0738
-1.23511 -19.0833 -19.0833
-1.22828 -18.9098 -18.9098
-1.52451 -18.9871 -18.9871
-1.38156 -19.0785 -19.0785
-1.2317 -18.9965 -18.9965
-1.37456 -18.9051 -18.9051
-1.37806 -18.9918 -18.9918
-1.52809 -19.0738 -19.0738
-1.53524 -19.2474 -19.2474
-1.24191 -19.2569 -19.2569
-1.23511 -19.0833 -19.0833
-1.53167 -19.1606 -19.1606
-1.38854 -19.2521 -19.2521
-1.23851 -19.1701 -19.1701
-1.38156 -19.0785 -19.0785
-1.38505 -19.1653 -19.1653
-1.53524 -19.2474 -19.2474
-1.54234 -19.4212 -19.4212
-1.24869 -19.4308 -19.4308
-1.24191 -19.2569 -19.2569
-1.53879 -19.3343 -19.3343
-1.39548 -19.426 -19.426
-1.2453 -19.3438 -19.3438
-1.38854 -19.2521 -19.2521
-1.39201 -19.339 -19.339
-1.54234 -19.4212 -19.4212
-1.54941 -19.5952 -19.5952
-1.25544 -19.6048 -19.6048
-1.24869 -19.4308 -19.4308
-1.54588 -19.5082 -19.5082
-1.40239 -19.6 -19.6
-1.25207 -19.5178 -19.5178
-1.39548 -19.426 -19.426
-1.39894 -19.5129 -19.5129
-1.54941 -19.5952 -19.5952
-1.55643 -19.7694 -19.7694
-1.26217 -19.779 -19.779
-1.25544 -19.6048 -19.6048
-1.55292 -19.6823 -19.6823
-1.40926 -19.7742 -19.7742
-1.25881 -19.6919 -19.6919
-1.40239 -19.6 -19.6
-1.40583 -19.6871 -19.6871
-1.55643 -19.7694 -19.7694
-1.56341 -19.9437 -19.9437
-1.26887 -19.9534 -19.9534
-1.26217 -19.779 -19.779
-1.55993 -19.8565 -19.8565
-1.4161 -19.9486 -19.9486
-1.26552 -19.8662 -19.8662
-1.40926 -19.7742 -19.7742
-1.41269 -19.8614 -19.8614
-1.56341 -19.9437 -19.9437
-1.57035 -20.1183 -20.1183
-1.27555 -20.128 -20.128
-1.26887 -19.9534 -19.9534
-1.56689 -20.031 -20.031
-1.42291 -20.1231 -20.1231
-1.27221 -20.0407 -20.0407
-1.4161 -19.9486 -19.9486
-1.41951 -20.0358 -20.0358
-1.57035 -20.1183 -20.1183
-1.57725 -20.2929 -20.2929
-1.28219 -20.3027 -20.3027
-1.27555 -20.128 -20.128
-1.57381 -20.2056 -20.2056
-1.42968 -20.2978 -20.2978
-1.27887 -20.2154 -20.2154
-1.42291 -20.1231 -20.1231
-1.4263 -20.2105 -20.2105
-1.57725 -20.2929 -20.2929
-1.5841 -20.4678 -20.4678
-1.28881 -20.4776 -20.4776
-1.28219 -20.3027 -20.3027
-1.58068 -20.3803 -20.3803
-1.43642 -20.4727 -20.4727
-1.28551 -20.3902 -20.3902
-1.42968 -20.2978 -20.2978
-1.43305 -20.3852 -20.3852
-1.5841 -20.4678 -20.4678
-1.59091 -20.6427 -20.6427
-1.2954 -20.6526 -20.6526
-1.28881 -20.4776 -20.4776
-1.58751 -20.5552 -20.5552
-1.44312 -20.6477 -20.6477
-1.29211 -20.5651 -20.5651
-1.43642 -20.4727 -20.4727
-1.43977 -20.5602 -20.5602
-1.59091 -20.6427 -20.6427
-1.59768 -20.8178 -20.8178
-1.30196 -20.8277 -20.8277
-1.2954 -20.6526 -20.6526
-1.5943 -20.7303 -20.7303
-1.44978 -20.8228 -20.8228
-1.29868 -20.7402 -20.7402
-1.44312 -20.6477 -20.6477
-1.44645 -20.7352 -20.7352
-1.59768 -20.8178 -20.8178
-1.6044 -20.9931 -20.9931
-1.30849 -21.003 -21.003
-1.30196 -20.8277 -20.8277
-1.60104 -20.9054 -20.9054
-1.45641 -20.998 -20.998
-1.30523 -20.9154 -20.9154
-1.44978 -20.8228 -20.8228
-1.4531 -20.9104 -20.9104
-1.6044 -20.9931 -20.9931
-1.61107 -21.1684 -21.1684
-1.31499 -21.1784 -21.1784
-1.30849 -21.003 -21.003
-1.60774 -21.0807 -21.0807
-1.46299 -21.1734 -21.1734
-1.31174 -21.0907 -21.0907
-1.45641 -20.998 -20.998
-1.4597 -21.0857 -21.0857
-1.61107 -21.1684 -21.1684
-1.6177 -21.3438 -21.3438
-1.32146 -21.3538 -21.3538
-1.31499 -21.1784 -21.1784
-1.61439 -21.2561 -21.2561
-1.46954 -21.3488 -21.3488
-1.31823 -21.2661 -21.2661
-1.46299 -21.1734 -21.1734
-1.46627 -21.2611 -21.2611
-1.6177 -21.3438 -21.3438
-1.62428 -21.5194 -21.5194
-1.32789 -21.5294 -21.5294
-1.32146 -21.3538 -21.3538
-1.62099 -21.4316 -21.4316
-1.47605 -21.5244 -21.5244
-1.32468 -21.4416 -21.4416
-1.46954 -21.3488 -21.3488
-1.4728 -21.4366 -21.4366
-1.62428 -21.5194 -21.5194
-1.63081 -21.695 -21.695
-1.3343 -21.7051 -21.7051
-1.32789 -21.5294 -21.5294
-1.62755 -21.6072 -21.6072
-1.48252 -21.7 -21.7
-1.3311 -21.6172 -21.6172
-1.47605 -21.5244 -21.5244
-1.47929 -21.6122 -21.6122
-1.63081 -21.695 -21.695
-1.6373 -21.8707 -21.8707
-1.34067 -21.8808 -21.8808
-1.3343 -21.7051 -21.7051
-1.63406 -21.7828 -21.7828
-1.48895 -21.8757 -21.8757
-1.33749 -21.7929 -21.7929
-1.48252 -21.7 -21.7
-1.48574 -21.7879 -21.7879
-1.6373 -21.8707 -21.8707
-1.64374 -22.0464 -22.0464
-1.347 -22.0566 -22.0566
-1.34067 -21.8808 -21.8808
-1.64052 -21.9585 -21.9585
-1.49533 -22.0515 -22.0515
-1.34384 -21.9687 -21.9687
-1.48895 -21.8757 -21.8757
-1.49214 -21.9636 -21.9636
-1.64374 -22.0464 -22.0464
-1.65013 -22.2222 -22.2222
-1.3533 -22.2324 -22.2324
-1.347 -22.0566 -22.0566
-1.64694 -22.1343 -22.1343
-1.50168 -22.2273 -22.2273
-1.35016 -22.1445 -22.1445
-1.49533 -22.0515 -22.0515
-1.49851 -22.1394 -22.1394
-1.65013 -22.2222 -22.2222
-1.65649 -22.3981 -22.3981
-1.35956 -22.4083 -22.4083
-1.3533 -22.2324 -22.2324
-1.65332 -22.3102 -22.3102
-1.508 -22.4032 -22.4032
-1.35644 -22.3204 -22.3204
-1.50168 -22.2273 -22.2273
-1.50484 -22.3152 -22.3152
-1.65649 -22.3981 -22.3981
-1.66283 -22.574 -22.574
-1.36578 -22.5843 -22.5843
-1.35956 -22.4083 -22.4083
-1.65966 -22.4861 -22.4861
-1.51427 -22.5791 -22.5791
-1.36268 -22.4963 -22.4963
-1.508 -22.4032 -22.4032
-1.51114 -22.4912 -22.4912
-1.66283 -22.574 -22.574
-1.66916 -22.75 -22.75
-1.37196 -22.7603 -22.7603
-1.36578 -22.5843 -22.5843
-1.66599 -22.662 -22.662
-1.52051 -22.7551 -22.7551
-1.36887 -22.6723 -22.6723
-1.51427 -22.5791 -22.5791
-1.5174 -22.6671 -22.6671
-1.66916 -22.75 -22.75
-1.67554 -22.9262 -22.9262
-1.37809 -22.9364 -22.9364
-1.37196 -22.7603 -22.7603
-1.67234 -22.8381 -22.8381
-1.5267 -22.9313 -22.9313
-1.37502 -22.8483 -22.8483
-1.52051 -22.7551 -22.7551
-1.52362 -22.8432 -22.8432
-1.67554 -22.9262 -22.9262
-1.682 -23.103 -23.103
-1.38426 -23.1126 -23.1126
-1.37809 -22.9364 -22.9364
-1.67878 -23.0144 -23.0144
-1.53287 -23.1078 -23.1078
-1.38116 -23.0245 -23.0245
-1.5267 -22.9313 -22.9313
-1.52977 -23.0195 -23.0195
0 0 0
-0.00688503 -0.00193404 -0.00193404
-0.00401138 -0.000401041 -0.000401041
0 0 0
-0.00334048 -0.000691874 -0.000691874
-0.00539465 -0.000980597 -0.000980597
-0.001945 0.000126426 0.000126426
0 0 0
-0.0026562 -0.000204605 -0.000204605
-0.00688503 -0.00193404 -0.00193404
-0.0143417 -0.00558898 -0.00558898
-0.0083288 -0.00308422 -0.00308422
-0.00401138 -0.000401041 -0.000401041
-0.0105778 -0.00358494 -0.00358494
-0.0112334 -0.0041202 -0.0041202
-0.00614309 -0.00148445 -0.00148445
-0.00539465 -0.000980597 -0.000980597
-0.00826718 -0.00231 -0.00231
-0.0143417 -0.00558898 -0.00558898
-0.0218662 -0.0106124 -0.0106124
-0.012827 -0.0077314 -0.0077314
-0.0083288 -0.00308422 -0.00308422
-0.0181083 -0.00792361 -0.00792361
-0.0172578 -0.00896892 -0.00896892
-0.010564 -0.00517516 -0.00517516
-0.0112334 -0.0041202 -0.0041202
-0.0142379 -0.00634132 -0.00634132
-0.0218662 -0.0106124 -0.0106124
-0.0293552 -0.0171583 -0.0171583
-0.0173643 -0.0141682 -0.0141682
-0.012827 -0.0077314 -0.0077314
-0.0256168 -0.0136861 -0.0136861
-0.0232952 -0.0154745 -0.0154745
-0.0150957 -0.010731 -0.010731
-0.0172578 -0.00896892 -0.00896892
-0.0202797 -0.0120128 -0.0120128
-0.0293552 -0.0171583 -0.0171583
-0.0367842 -0.0253357 -0.0253357
-0.0218897 -0.0223477 -0.0223477
-0.0173643 -0.0141682 -0.0141682
-0.0330766 -0.0210385 -0.0210385
-0.0292892 -0.0236573 -0.0236573
-0.0196303 -0.0180414 -0.0180414
-0.0232952 -0.0154745 -0.0154745
-0.0262985 -0.0193545 -0.0193545
-0.0367842 -0.0253357 -0.0253357
-0.0441691 -0.0352069 -0.0352069
-0.0263783 -0.0322516 -0.0322516
-0.0218897 -0.0223477 -0.0223477
-0.0404816 -0.0300578 -0.0300578
-0.0352364 -0.0335467 -0.0335467
-0.0241388 -0.0270844 -0.0270844
-0.0292892 -0.0236573 -0.0236573
-0.0322684 -0.0283877 -0.0283877
-0.0441691 -0.0352069 -0.0352069
-0.0515141 -0.0467895 -0.0467895
-0.0308332 -0.0438767 -0.0438767
-0.0263783 -0.0322516 -0.0322516
-0.0478463 -0.0407839 -0.0407839
-0.0411419 -0.0451508 -0.0451508
-0.0286097 -0.0378493 -0.0378493
-0.0352364 -0.0335467 -0.0335467
-0.0381939 -0.0391343 -0.0391343
-0.0515141 -0.0467895 -0.0467895
-0.0588258 -0.0600879 -0.0600879
-0.0352585 -0.0572169 -0.0572169
-0.0308332 -0.0438767 -0.0438767
-0.0551739 -0.0532244 -0.0532244
-0.0470133 -0.0584702 -0.0584702
-0.0330492 -0.0503328 -0.0503328
-0.0411419 -0.0451508 -0.0451508
-0.0440815 -0.0515963 -0.0515963
-0.0588258 -0.0600879 -0.0600879
-0.0661065 -0.0750965 -0.0750965
-0.0396609 -0.0722661 -0.0722661
-0.0352585 -0.0572169 -0.0572169
-0.0624699 -0.0673789 -0.0673789
-0.0528562 -0.0734994 -0.0734994
-0.0374622 -0.0645283 -0.0645283
-0.0470133 -0.0584702 -0.0584702
-0.049938 -0.0657715 -0.0657715
-0.0661065 -0.0750965 -0.0750965
-0.0733586 -0.0918077 -0.0918077
-0.0440449 -0.0890165 -0.0890165
-0.0396609 -0.0722661 -0.0722661
-0.069736 -0.0832398 -0.0832398
-0.0586748 -0.0902307 -0.0902307
-0.0418549 -0.0804292 -0.0804292
-0.0528562 -0.0734994 -0.0734994
-0.0557683 -0.0816528 -0.0816528
-0.0733586 -0.0918077 -0.0918077
-0.0805834 -0.110212 -0.110212
-0.0484142 -0.10746 -0.10746
-0.0440449 -0.0890165 -0.0890165
-0.0769743 -0.100799 -0.100799
-0.0644721 -0.108655 -0.108655
-0.0462312 -0.0980271 -0.0980271
-0.0586748 -0.0902307 -0.0902307
-0.0615759 -0.0992319 -0.0992319
-0.0805834 -0.110212 -0.110212
-0.0877823 -0.1303 -0.1303
-0.0527714 -0.127587 -0.127587
-0.0484142 -0.10746 -0.10746
-0.084186 -0.120046 -0.120046
-0.0702501 -0.128764 -0.128764
-0.0505942 -0.117314 -0.117314
-0.0644721 -0.108655 -0.108655
-0.0673634 -0.1185 -0.1185
-0.0877823 -0.1303 -0.1303
-0.0949564 -0.152063 -0.152063
-0.0571184 -0.14939 -0.14939
-0.0527714 -0.127587 -0.127587
-0.0913724 -0.140973 -0.140973
-0.0760106 -0.150548 -0.150548
-0.0549461 -0.13828 -0.13828
-0.0702501 -0.128764 -0.128764
-0.0731325 -0.139447 -0.139447
-0.0949564 -0.152063 -0.152063
-0.102107 -0.175491 -0.175491
-0.0614567 -0.17286 -0.17286
-0.0571184 -0.14939 -0.14939
-0.0985345 -0.163569 -0.163569
-0.0817548 -0.173997 -0.173997
-0.0592886 -0.160917 -0.160917
-0.0760106 -0.150548 -0.150548
-0.0788847 -0.162065 -0.162065
-0.102107 -0.175491 -0.175491
-0.109234 -0.200574 -0.200574
-0.0657875 -0.197986 -0.197986
-0.0614567 -0.17286 -0.17286
-0.105673 -0.187826 -0.187826
-0.0874839 -0.199103 -0.199103
-0.063623 -0.185216 -0.185216
-0.0817548 -0.173997 -0.173997
-0.0846212 -0.186344 -0.186344
-0.109234 -0.200574 -0.200574
-0.11634 -0.227304 -0.227304
-0.0701119 -0.224761 -0.224761
-0.0657875 -0.197986 -0.197986
-0.11279 -0.213734 -0.213734
-0.0931989 -0.225857 -0.225857
-0.0679504 -0.211168 -0.211168
-0.0874839 -0.199103 -0.199103
-0.0903431 -0.212275 -0.212275
-0.11634 -0.227304 -0.227304
-0.123425 -0.255672 -0.255672
-0.0744309 -0.253175 -0.253175
-0.0701119 -0.224761 -0.224761
-0.119885 -0.241284 -0.241284
-0.0989009 -0.254249 -0.254249
-0.072272 -0.238764 -0.238764
-0.0931989 -0.225857 -0.225857
-0.0960515 -0.239848 -0.239848
-0.123425 -0.255672 -0.255672
-0.130491 -0.285669 -0.285669
-0.0787454 -0.283219 -0.283219
-0.0744309 -0.253175 -0.253175
-0.12696 -0.270468 -0.270468
-0.104591 -0.28427 -0.28427
-0.0765886 -0.267994 -0.267994
-0.0989009 -0.254249 -0.254249
-0.101747 -0.269056 -0.269056
-0.130491 -0.285669 -0.285669
-0.137537 -0.317285 -0.317285
-0.0830565 -0.314885 -0.314885
-0.0787454 -0.283219 -0.283219
-0.134016 -0.301275 -0.301275
-0.110269 -0.315912 -0.315912
-0.0809014 -0.29885 -0.29885
-0.104591 -0.28427 -0.28427
-0.107431 -0.299889 -0.299889
-0.137537 -0.317285 -0.317285
-0.144565 -0.350512 -0.350512
-0.0873651 -0.348162 -0.348162
-0.0830565 -0.314885 -0.314885
-0.141053 -0.333698 -0.333698
-0.115938 -0.349165 -0.349165
-0.0852111 -0.331322 -0.331322
-0.110269 -0.315912 -0.315912
-0.113105 -0.332337 -0.332337
-0.144565 -0.350512 -0.350512
-0.151577 -0.38534 -0.38534
-0.0916719 -0.383043 -0.383043
-0.0873651 -0.348162 -0.348162
-0.148073 -0.367726 -0.367726
-0.121597 -0.38402 -0.38402
-0.0895186 -0.365402 -0.365402
-0.115938 -0.349165 -0.349165
-0.118768 -0.366393 -0.366393
-0.151577 -0.38534 -0.38534
-0.158572 -0.42176 -0.42176
-0.095978 -0.419517 -0.419517
-0.0916719 -0.383043 -0.383043
-0.155076 -0.403352 -0.403352
-0.127247 -0.420469 -0.420469
-0.093825 -0.401081 -0.401081
-0.121597 -0.38402 -0.38402
-0.124423 -0.402046 -0.402046
-0.158572 -0.42176 -0.42176
-0.165552 -0.459765 -0.459765
-0.100284 -0.457576 -0.457576
-0.095978 -0.419517 -0.419517
-0.162064 -0.440565 -0.440565
-0.13289 -0.458501 -0.458501
-0.098131 -0.438349 -0.438349
-0.127247 -0.420469 -0.420469
-0.13007 -0.439288 -0.439288
-0.165552 -0.459765 -0.459765
-0.172517 -0.499343 -0.499343
-0.104591 -0.497212 -0.497212
-0.100284 -0.457576 -0.457576
-0.169036 -0.479358 -0.479358
-0.138526 -0.498109 -0.498109
-0.102438 -0.477198 -0.477198
-0.13289 -0.458501 -0.458501
-0.135709 -0.478109 -0.478109
-0.172517 -0.499343 -0.499343
-0.179469 -0.540487 -0.540487
-0.1089 -0.538414 -0.538414
-0.104591 -0.497212 -0.497212
-0.175995 -0.51972 -0.51972
-0.144157 -0.539283 -0.539283
-0.106745 -0.517617 -0.517617
-0.138526 -0.498109 -0.498109
-0.141342 -0.518501 -0.518501
-0.179469 -0.540487 -0.540487
-0.186408 -0.583188 -0.583188
-0.113212 -0.581174 -0.581174
-0.1089 -0.538414 -0.538414
-0.18294 -0.561643 -0.561643
-0.149782 -0.582014 -0.582014
-0.111056 -0.5596 -0.5596
-0.144157 -0.539283 -0.539283
-0.14697 -0.560455 -0.560455
-0.186408 -0.583188 -0.583188
-0.193335 -0.627435 -0.627435
-0.117527 -0.625482 -0.625482
-0.113212 -0.581174 -0.581174
-0.189873 -0.605119 -0.605119
-0.155403 -0.626294 -0.626294
-0.115369 -0.603135 -0.603135
-0.149782 -0.582014 -0.582014
-0.152593 -0.603961 -0.603961
-0.193335 -0.627435 -0.627435
-0.200251 -0.673221 -0.673221
-0.121846 -0.67133 -0.67133
-0.117527 -0.625482 -0.625482
-0.196795 -0.650137 -0.650137
-0.16102 -0.672112 -0.672112
-0.119686 -0.648214 -0.648214
-0.155403 -0.626294 -0.626294
-0.158212 -0.649011 -0.649011
-0.200251 -0.673221 -0.673221
-0.207157 -0.720537 -0.720537
-0.12617 -0.718709 -0.718709
-0.121846 -0.67133 -0.67133
-0.203705 -0.696689 -0.696689
-0.166635 -0.71946 -0.71946
-0.124007 -0.694829 -0.694829
-0.16102 -0.672112 -0.672112
-0.163828 -0.695595 -0.695595
-0.207157 -0.720537 -0.720537
-0.214052 -0.769373 -0.769373
-0.130499 -0.76761 -0.76761
-0.12617 -0.718709 -0.718709
-0.210606 -0.744765 -0.744765
-0.172247 -0.768329 -0.768329
-0.128334 -0.74297 -0.74297
-0.166635 -0.71946 -0.71946
-0.169441 -0.743705 -0.743705
-0.214052 -0.769373 -0.769373
-0.220939 -0.81972 -0.81972
-0.134835 -0.818023 -0.818023
-0.130499 -0.76761 -0.76761
-0.217497 -0.794358 -0.794358
-0.177859 -0.81871 -0.81871
-0.132666 -0.792628 -0.792628
-0.172247 -0.768329 -0.768329
-0.175053 -0.793331 -0.793331
-0.220939 -0.81972 -0.81972
-0.227817 -0.871569 -0.871569
-0.139179 -0.869939 -0.869939
-0.134835 -0.818023 -0.818023
-0.224379 -0.845457 -0.845457
-0.18347 -0.870594 -0.870594
-0.137006 -0.843793 -0.843793
-0.177859 -0.81871 -0.81871
-0.180664 -0.844465 -0.844465
-0.227817 -0.871569 -0.871569
-0.234688 -0.924911 -0.924911
-0.14353 -0.92335 -0.92335
-0.139179 -0.869939 -0.869939
-0.231254 -0.898054 -0.898054
-0.18908 -0.923971 -0.923971
-0.141353 -0.896458 -0.896458
-0.18347 -0.870594 -0.870594
-0.186275 -0.897096 -0.897096
-0.234688 -0.924911 -0.924911
-0.241552 -0.979738 -0.979738
-0.147889 -0.978246 -0.978246
-0.14353 -0.92335 -0.92335
-0.238121 -0.95214 -0.95214
-0.194692 -0.978834 -0.978834
-0.145708 -0.950613 -0.950613
-0.18908 -0.923971 -0.923971
-0.191886 -0.951218 -0.951218
-0.241552 -0.979738 -0.979738
-0.24841 -1.03604 -1.03604
-0.152258 -1.03462 -1.03462
-0.147889 -0.978246 -0.978246
-0.244982 -1.00771 -1.00771
-0.200306 -1.03517 -1.03517
-0.150073 -1.00625 -1.00625
-0.194692 -0.978834 -0.978834
-0.197499 -1.00682 -1.00682
-0.24841 -1.03604 -1.03604
-0.255263 -1.09381 -1.09381
-0.156637 -1.09246 -1.09246
-0.152258 -1.03462 -1.03462
-0.251837 -1.06474 -1.06474
-0.205921 -1.09298 -1.09298
-0.154446 -1.06335 -1.06335
-0.200306 -1.03517 -1.03517
-0.203113 -1.06389 -1.06389
-0.255263 -1.09381 -1.09381
-0.26211 -1.15303 -1.15303
-0.161026 -1.15176 -1.15176
-0.156637 -1.09246 -1.09246
-0.258687 -1.12324 -1.12324
-0.211539 -1.15224 -1.15224
-0.15883 -1.12192 -1.12192
-0.205921 -1.09298 -1.09298
-0.20873 -1.12243 -1.12243
-0.26211 -1.15303 -1.15303
-0.268953 -1.21371 -1.21371
-0.165426 -1.2125 -1.2125
-0.161026 -1.15176 -1.15176
-0.265532 -1.18319 -1.18319
-0.217161 -1.21295 -1.21295
-0.163225 -1.18195 -1.18195
-0.211539 -1.15224 -1.15224
-0.21435 -1.18241 -1.18241
-0.268953 -1.21371 -1.21371
-0.275793 -1.27582 -1.27582
-0.169839 -1.27469 -1.27469
-0.165426 -1.2125 -1.2125
-0.272374 -1.24458 -1.24458
-0.222787 -1.2751 -1.2751
-0.167631 -1.24342 -1.24342
-0.217161 -1.21295 -1.21295
-0.219973 -1.24385 -1.24385
-0.275793 -1.27582 -1.27582
-0.282629 -1.33936 -1.33936
-0.174263 -1.33831 -1.33831
-0.169839 -1.27469 -1.27469
-0.279212 -1.30741 -1.30741
-0.228417 -1.33868 -1.33868
-0.172049 -1.30632 -1.30632
-0.222787 -1.2751 -1.2751
-0.225601 -1.30671 -1.30671
-0.282629 -1.33936 -1.33936
-0.289463 -1.40432 -1.40432
-0.1787 -1.40335 -1.40335
-0.174263 -1.33831 -1.33831
-0.286047 -1.37166 -1.37166
-0.234053 -1.40368 -1.40368
-0.17648 -1.37065 -1.37065
-0.228417 -1.33868 -1.33868
-0.231234 -1.37101 -1.37101
-0.289463 -1.40432 -1.40432
-0.296296 -1.4707 -1.4707
-0.183151 -1.4698 -1.4698
-0.1787 -1.40335 -1.40335
-0.29288 -1.43733 -1.43733
-0.239694 -1.4701 -1.4701
-0.180924 -1.4364 -1.4364
-0.234053 -1.40368 -1.40368
-0.236873 -1.43671 -1.43671
-0.296296 -1.4707 -1.4707
-0.303126 -1.53848 -1.53848
-0.187616 -1.53765 -1.53765
-0.183151 -1.4698 -1.4698
-0.299711 -1.50441 -1.50441
-0.245342 -1.53792 -1.53792
-0.185382 -1.50355 -1.50355
-0.239694 -1.4701 -1.4701
-0.242517 -1.50383 -1.50383
-0.303126 -1.53848 -1.53848
-0.309956 -1.60765 -1.60765
-0.192095 -1.60691 -1.60691
-0.187616 -1.53765 -1.53765
-0.306541 -1.57289 -1.57289
-0.250996 -1.60713 -1.60713
-0.189853 -1.57211 -1.57211
-0.245342 -1.53792 -1.53792
-0.248168 -1.57235 -1.57235
-0.309956 -1.60765 -1.60765
-0.316786 -1.6782 -1.6782
-0.196589 -1.67754 -1.67754
-0.192095 -1.60691 -1.60691
-0.313371 -1.64275 -1.64275
-0.256658 -1.67773 -1.67773
-0.19434 -1.64205 -1.64205
-0.250996 -1.60713 -1.60713
-0.253826 -1.64225 -1.64225
-0.316786 -1.6782 -1.6782
-0.323615 -1.75014 -1.75014
-0.201099 -1.74956 -1.74956
-0.196589 -1.67754 -1.67754
-0.3202 -1.714 -1.714
-0.262328 -1.7497 -1.7497
-0.198842 -1.71338 -1.71338
-0.256658 -1.67773 -1.67773
-0.259492 -1.71354 -1.71354
-0.323615 -1.75014 -1.75014
-0.330446 -1.82343 -1.82343
-0.205625 -1.82294 -1.82294
-0.201099 -1.74956 -1.74956
-0.32703 -1.78662 -1.78662
-0.268006 -1.82304 -1.82304
-0.20336 -1.78608 -1.78608
-0.262328 -1.7497 -1.7497
-0.265166 -1.7862 -1.7862
-0.330446 -1.82343 -1.82343
-0.337277 -1.89809 -1.89809
-0.210168 -1.89768 -1.89768
-0.205625 -1.82294 -1.82294
-0.333861 -1.86059 -1.86059
-0.273693 -1.89774 -1.89774
-0.207894 -1.86014 -1.86014
-0.268006 -1.82304 -1.82304
-0.270848 -1.86022 -1.86022
-0.337277 -1.89809 -1.89809
-0.34411 -1.9741 -1.9741
-0.214727 -1.97377 -1.97377
-0.210168 -1.89768 -1.89768
-0.340693 -1.93593 -1.93593
-0.279389 -1.97379 -1.97379
-0.212445 -1.93555 -1.93555
-0.273693 -1.89774 -1.89774
-0.27654 -1.9356 -1.9356
-0.34411 -1.9741 -1.9741
-0.350945 -2.05144 -2.05144
-0.219304 -2.05119 -2.05119
-0.214727 -1.97377 -1.97377
-0.347527 -2.0126 -2.0126
-0.285095 -2.05118 -2.05118
-0.217013 -2.01231 -2.01231
-0.279389 -1.97379 -1.97379
-0.282241 -2.01231 -2.01231
-0.350945 -2.05144 -2.05144
-0.357783 -2.13012 -2.13012
-0.223899 -2.12995 -2.12995
-0.219304 -2.05119 -2.05119
-0.354364 -2.09061 -2.09061
-0.290811 -2.12989 -2.12989
-0.221599 -2.09041 -2.09041
-0.285095 -2.05118 -2.05118
-0.287952 -2.09037 -2.09037
-0.357783 -2.13012 -2.13012
-0.364623 -2.21011 -2.21011
-0.228512 -2.21004 -2.21004
-0.223899 -2.12995 -2.12995
-0.361203 -2.16995 -2.16995
-0.296538 -2.20994 -2.20994
-0.226203 -2.16983 -2.16983
-0.290811 -2.12989 -2.12989
-0.293673 -2.16975 -2.16975
-0.364623 -2.21011 -2.21011
-0.371467 -2.29142 -2.29142
-0.233143 -2.29143 -2.29143
-0.228512 -2.21004 -2.21004
-0.368045 -2.25061 -2.25061
-0.302275 -2.29129 -2.29129
-0.230825 -2.25057 -2.25057
-0.296538 -2.20994 -2.20994
-0.299405 -2.25045 -2.25045
-0.371467 -2.29142 -2.29142
-0.378314 -2.37404 -2.37404
-0.237794 -2.37413 -2.37413
-0.233143 -2.29143 -2.29143
-0.37489 -2.33257 -2.33257
-0.308025 -2.37395 -2.37395
-0.235466 -2.33262 -2.33262
-0.302275 -2.29129 -2.29129
-0.305149 -2.33246 -2.33246
-0.378314 -2.37404 -2.37404
-0.385166 -2.45795 -2.45795
-0.242464 -2.45813 -2.45813
-0.237794 -2.37413 -2.37413
-0.38174 -2.41583 -2.41583
-0.313785 -2.4579 -2.4579
-0.240127 -2.41597 -2.41597
-0.308025 -2.37395 -2.37395
-0.310903 -2.41576 -2.41576
-0.385166 -2.45795 -2.45795
-0.392022 -2.54314 -2.54314
-0.247154 -2.54341 -2.54341
-0.242464 -2.45813 -2.45813
-0.388593 -2.50038 -2.50038
-0.319558 -2.54314 -2.54314
-0.244807 -2.50061 -2.50061
-0.313785 -2.4579 -2.4579
-0.31667 -2.50036 -2.50036
-0.392022 -2.54314 -2.54314
-0.398882 -2.62961 -2.62961
-0.251864 -2.62997 -2.62997
-0.247154 -2.54341 -2.54341
-0.395451 -2.58621 -2.58621
-0.325343 -2.62965 -2.62965
-0.249507 -2.58653 -2.58653
-0.319558 -2.54314 -2.54314
-0.322449 -2.58624 -2.58624
-0.398882 -2.62961 -2.62961
-0.405748 -2.71734 -2.71734
-0.256595 -2.71779 -2.71779
-0.251864 -2.62997 -2.62997
-0.402315 -2.67332 -2.67332
-0.331141 -2.71744 -2.71744
-0.254227 -2.67372 -2.67372
-0.325343 -2.62965 -2.62965
-0.328241 -2.67339 -2.67339
-0.405748 -2.71734 -2.71734
-0.412619 -2.80634 -2.80634
-0.261346 -2.80688 -2.80688
-0.256595 -2.71779 -2.71779
-0.409183 -2.76169 -2.76169
-0.336953 -2.80648 -2.80648
-0.258968 -2.76218 -2.76218
-0.331141 -2.71744 -2.71744
-0.334045 -2.7618 -2.7618
-0.412619 -2.80634 -2.80634
-0.419496 -2.89658 -2.89658
-0.266118 -2.89721 -2.89721
-0.261346 -2.80688 -2.80688
-0.416057 -2.85131 -2.85131
-0.342777 -2.89677 -2.89677
-0.263729 -2.85189 -2.85189
-0.336953 -2.80648 -2.80648
-0.339863 -2.85147 -2.85147
-0.419496 -2.89658 -2.89658
-0.426379 -2.98807 -2.98807
-0.270912 -2.98879 -2.98879
-0.266118 -2.89721 -2.89721
-0.422936 -2.94217 -2.94217
-0.348615 -2.9883 -2.9883
-0.268512 -2.94285 -2.94285
-0.342777 -2.89677 -2.89677
-0.345694 -2.94238 -2.94238
-0.426379 -2.98807 -2.98807
-0.433268 -3.08078 -3.08078
-0.275727 -3.0816 -3.0816
-0.270912 -2.98879 -2.98879
-0.429822 -3.03427 -3.03427
-0.354467 -3.08106 -3.08106
-0.273317 -3.03504 -3.03504
-0.348615 -2.9883 -2.9883
-0.35154 -3.03453 -3.03453
-0.433268 -3.08078 -3.08078
-0.440163 -3.17472 -3.17472
-0.280565 -3.17563 -3.17563
-0.275727 -3.0816 -3.0816
-0.436715 -3.1276 -3.1276
-0.360334 -3.17504 -3.17504
-0.278143 -3.12846 -3.12846
-0.354467 -3.08106 -3.08106
-0.357399 -3.1279 -3.1279
-0.440163 -3.17472 -3.17472
-0.447065 -3.26987 -3.26987
-0.285424 -3.27087 -3.27087
-0.280565 -3.17563 -3.17563
-0.443613 -3.22215 -3.22215
-0.366215 -3.27024 -3.27024
-0.282991 -3.2231 -3.2231
-0.360334 -3.17504 -3.17504
-0.363272 -3.22249 -3.22249
-0.447065 -3.26987 -3.26987
-0.453975 -3.36623 -3.36623
-0.290306 -3.36732 -3.36732
-0.285424 -3.27087 -3.27087
-0.450519 -3.3179 -3.3179
-0.37211 -3.36665 -3.36665
-0.287862 -3.31894 -3.31894
-0.366215 -3.27024 -3.27024
-0.369161 -3.31829 -3.31829
-0.453975 -3.36623 -3.36623
-0.460891 -3.46378 -3.46378
-0.29521 -3.46496 -3.46496
-0.290306 -3.36732 -3.36732
-0.457432 -3.41486 -3.41486
-0.378021 -3.46424 -3.46424
-0.292755 -3.41599 -3.41599
-0.37211 -3.36665 -3.36665
-0.375064 -3.4153 -3.4153
-0.460891 -3.46378 -3.46378
-0.467816 -3.56252 -3.56252
-0.300138 -3.56379 -3.56379
-0.29521 -3.46496 -3.46496
-0.464353 -3.513 -3.513
-0.383946 -3.56303 -3.56303
-0.297671 -3.51423 -3.51423
-0.378021 -3.46424 -3.46424
-0.380982 -3.51349 -3.51349
-0.467816 -3.56252 -3.56252
-0.474747 -3.66243 -3.66243
-0.305088 -3.6638 -3.6638
-0.300138 -3.56379 -3.56379
-0.47128 -3.61233 -3.61233
-0.389887 -3.66299 -3.66299
-0.30261 -3.61365 -3.61365
-0.383946 -3.56303 -3.56303
-0.386915 -3.61286 -3.61286
-0.474747 -3.66243 -3.66243
-0.481687 -3.76351 -3.76351
-0.310061 -3.76497 -3.76497
-0.305088 -3.6638 -3.6638
-0.478216 -3.71282 -3.71282
-0.395844 -3.76412 -3.76412
-0.307572 -3.71424 -3.71424
-0.389887 -3.66299 -3.66299
-0.392864 -3.71341 -3.71341
-0.481687 -3.76351 -3.76351
-0.488635 -3.86575 -3.86575
-0.315058 -3.8673 -3.8673
-0.310061 -3.76497 -3.76497
-0.48516 -3.81449 -3.81449
-0.401816 -3.8664 -3.8664
-0.312557 -3.81599 -3.81599
-0.395844 -3.76412 -3.76412
-0.398828 -3.81512 -3.81512
-0.488635 -3.86575 -3.86575
-0.49559 -3.96914 -3.96914
-0.320079 -3.97079 -3.97079
-0.315058 -3.8673 -3.8673
-0.492111 -3.9173 -3.9173
-0.407804 -3.96984 -3.96984
-0.317566 -3.9189 -3.9189
-0.401816 -3.8664 -3.8664
-0.404808 -3.91798 -3.91798
-0.49559 -3.96914 -3.96914
-0.502555 -4.07367 -4.07367
-0.325123 -4.07541 -4.07541
-0.320079 -3.97079 -3.97079
-0.499071 -4.02126 -4.02126
-0.413809 -4.07442 -4.07442
-0.322598 -4.02296 -4.02296
-0.407804 -3.96984 -3.96984
-0.410805 -4.02199 -4.02199
-0.502555 -4.07367 -4.07367
-0.509527 -4.17933 -4.17933
-0.330191 -4.18117 -4.18117
-0.325123 -4.07541 -4.07541
-0.50604 -4.12636 -4.12636
-0.419829 -4.18013 -4.18013
-0.327654 -4.12815 -4.12815
-0.413809 -4.07442 -4.07442
-0.416817 -4.12714 -4.12714
-0.509527 -4.17933 -4.17933
-0.516508 -4.28612 -4.28612
-0.335283 -4.28805 -4.28805
-0.330191 -4.18117 -4.18117
-0.513017 -4.23259 -4.23259
-0.425866 -4.28697 -4.28697
-0.332734 -4.23447 -4.23447
-0.419829 -4.18013 -4.18013
-0.422845 -4.23341 -4.23341
-0.516508 -4.28612 -4.28612
-0.523498 -4.39402 -4.39402
-0.340399 -4.39605 -4.39605
-0.335283 -4.28805 -4.28805
-0.520002 -4.33993 -4.33993
-0.431919 -4.39491 -4.39491
-0.337838 -4.34191 -4.34191
-0.425866 -4.28697 -4.28697
-0.42889 -4.3408 -4.3408
-0.523498 -4.39402 -4.39402
-0.530497 -4.50302 -4.50302
-0.34554 -4.50514 -4.50514
-0.340399 -4.39605 -4.39605
-0.526997 -4.44838 -4.44838
-0.437988 -4.50397 -4.50397
-0.342967 -4.45046 -4.45046
-0.431919 -4.39491 -4.39491
-0.434951 -4.4493 -4.4493
-0.530497 -4.50302 -4.50302
-0.537505 -4.61312 -4.61312
-0.350704 -4.61534 -4.61534
-0.34554 -4.50514 -4.50514
-0.534 -4.55793 -4.55793
-0.444074 -4.61411 -4.61411
-0.348119 -4.56011 -4.56011
-0.437988 -4.50397 -4.50397
-0.441029 -4.5589 -4.5589
-0.537505 -4.61312 -4.61312
-0.544522 -4.72431 -4.72431
-0.355893 -4.72662 -4.72662
-0.350704 -4.61534 -4.61534
-0.541012 -4.66858 -4.66858
-0.450177 -4.72535 -4.72535
-0.353296 -4.67084 -4.67084
-0.444074 -4.61411 -4.61411
-0.447124 -4.6696 -4.6696
-0.544522 -4.72431 -4.72431
-0.551547 -4.83657 -4.83657
-0.361107 -4.83898 -4.83898
-0.355893 -4.72662 -4.72662
-0.548033 -4.7803 -4.7803
-0.456297 -4.83766 -4.83766
-0.358497 -4.78267 -4.78267
-0.450177 -4.72535 -4.72535
-0.453235 -4.78137 -4.78137
-0.551547 -4.83657 -4.83657
-0.558582 -4.9499 -4.9499
-0.366344 -4.95241 -4.95241
-0.361107 -4.83898 -4.83898
-0.555064 -4.8931 -4.8931
-0.462433 -4.95104 -4.95104
-0.363723 -4.89556 -4.89556
-0.456297 -4.83766 -4.83766
-0.459363 -4.89422 -4.89422
-0.558582 -4.9499 -4.9499
-0.565626 -5.06429 -5.06429
-0.371607 -5.06689 -5.06689
-0.366344 -4.95241 -4.95241
-0.562103 -5.00697 -5.00697
-0.468586 -5.06548 -5.06548
-0.368973 -5.00952 -5.00952
-0.462433 -4.95104 -4.95104
-0.465508 -5.00813 -5.00813
-0.565626 -5.06429 -5.06429
-0.57268 -5.17974 -5.17974
-0.376894 -5.18243 -5.18243
-0.371607 -5.06689 -5.06689
-0.569152 -5.12188 -5.12188
-0.474756 -5.18097 -5.18097
-0.374247 -5.12453 -5.12453
-0.468586 -5.06548 -5.06548
-0.471669 -5.1231 -5.1231
-0.57268 -5.17974 -5.17974
-0.579742 -5.29622 -5.29622
-0.382205 -5.29901 -5.29901
-0.376894 -5.18243 -5.18243
-0.57621 -5.23785 -5.23785
-0.480943 -5.29751 -5.29751
-0.379546 -5.24059 -5.24059
-0.474756 -5.18097 -5.18097
-0.477848 -5.23911 -5.23911
-0.579742 -5.29622 -5.29622
-0.586814 -5.41373 -5.41373
-0.387541 -5.41662 -5.41662
-0.382205 -5.29901 -5.29901
-0.583277 -5.35485 -5.35485
-0.487147 -5.41507 -5.41507
-0.38487 -5.35769 -5.35769
-0.480943 -5.29751 -5.29751
-0.484043 -5.35616 -5.35616
-0.586814 -5.41373 -5.41373
-0.593895 -5.53227 -5.53227
-0.392902 -5.53526 -5.53526
-0.387541 -5.41662 -5.41662
-0.590353 -5.47288 -5.47288
-0.493368 -5.53366 -5.53366
-0.390219 -5.47581 -5.47581
-0.487147 -5.41507 -5.41507
-0.490256 -5.47424 -5.47424
-0.593895 -5.53227 -5.53227
-0.600985 -5.65183 -5.65183
-0.398287 -5.65491 -5.65491
-0.392902 -5.53526 -5.53526
-0.597438 -5.59192 -5.59192
-0.499606 -5.65326 -5.65326
-0.395592 -5.59496 -5.59496
-0.493368 -5.53366 -5.53366
-0.496485 -5.59333 -5.59333
-0.600985 -5.65183 -5.65183
-0.608084 -5.77239 -5.77239
-0.403697 -5.77556 -5.77556
-0.398287 -5.65491 -5.65491
-0.604533 -5.71198 -5.71198
-0.50586 -5.77387 -5.77387
-0.400989 -5.71511 -5.71511
-0.499606 -5.65326 -5.65326
-0.502731 -5.71344 -5.71344
-0.608084 -5.77239 -5.77239
-0.615192 -5.89394 -5.89394
-0.409131 -5.89721 -5.89721
-0.403697 -5.77556 -5.77556
-0.611637 -5.83304 -5.83304
-0.512132 -5.89547 -5.89547
-0.406411 -5.83626 -5.83626
-0.50586 -5.77387 -5.77387
-0.508994 -5.83455 -5.83455
-0.615192 -5.89394 -5.89394
-0.62231 -6.01648 -6.01648
-0.41459 -6.01985 -6.01985
-0.409131 -5.89721 -5.89721
-0.61875 -5.95509 -5.95509
-0.51842 -6.01806 -6.01806
-0.411858 -5.95841 -5.95841
-0.512132 -5.89547 -5.89547
-0.515274 -5.95664 -5.95664
-0.62231 -6.01648 -6.01648
-0.629437 -6.14 -6.14
-0.420073 -6.14347 -6.14347
-0.41459 -6.01985 -6.01985
-0.625872 -6.07812 -6.07812
-0.524725 -6.14163 -6.14163
-0.417329 -6.08154 -6.08154
-0.51842 -6.01806 -6.01806
-0.52157 -6.07973 -6.07973
-0.629437 -6.14 -6.14
-0.636572 -6.26449 -6.26449
-0.425581 -6.26805 -6.26805
-0.420073 -6.14347 -6.14347
-0.633003 -6.20213 -6.20213
-0.531046 -6.26617 -6.26617
-0.422824 -6.20564 -6.20564
-0.524725 -6.14163 -6.14163
-0.527883 -6.20378 -6.20378
-0.636572 -6.26449 -6.26449
-0.643717 -6.38994 -6.38994
-0.431113 -6.3936 -6.3936
-0.425581 -6.26805 -6.26805
-0.640143 -6.3271 -6.3271
-0.537384 -6.39167 -6.39167
-0.428344 -6.3307 -6.3307
-0.531046 -6.26617 -6.26617
-0.534213 -6.3288 -6.3288
-0.643717 -6.38994 -6.38994
-0.65087 -6.51634 -6.51634
-0.436668 -6.52009 -6.52009
-0.431113 -6.3936 -6.3936
-0.647292 -6.45302 -6.45302
-0.543739 -6.51812 -6.51812
-0.433887 -6.45672 -6.45672
-0.537384 -6.39167 -6.39167
-0.54056 -6.45477 -6.45477
-0.65087 -6.51634 -6.51634
-0.658032 -6.64368 -6.64368
-0.442248 -6.64753 -6.64753
-0.436668 -6.52009 -6.52009
-0.65445 -6.5799 -6.5799
-0.55011 -6.64551 -6.64551
-0.439455 -6.58369 -6.58369
-0.543739 -6.51812 -6.51812
-0.546923 -6.58169 -6.58169
-0.658032 -6.64368 -6.64368
-0.665203 -6.77196 -6.77196
-0.447852 -6.7759 -6.7759
-0.442248 -6.64753 -6.64753
-0.661616 -6.70771 -6.70771
-0.556498 -6.77383 -6.77383
-0.445047 -6.7116 -6.7116
-0.55011 -6.64551 -6.64551
-0.553302 -6.70955 -6.70955
-0.665203 -6.77196 -6.77196
-0.672382 -6.90116 -6.90116
-0.45348 -6.90519 -6.90519
-0.447852 -6.7759 -6.7759
-0.668791 -6.83644 -6.83644
-0.562901 -6.90308 -6.90308
-0.450663 -6.84043 -6.84043
-0.556498 -6.77383 -6.77383
-0.559697 -6.83834 -6.83834
-0.672382 -6.90116 -6.90116
-0.67957 -7.03127 -7.03127
-0.459132 -7.0354 -7.0354
-0.45348 -6.90519 -6.90519
-0.675975 -6.9661 -6.9661
-0.569321 -7.03324 -7.03324
-0.456303 -6.97018 -6.97018
-0.562901 -6.90308 -6.90308
-0.566109 -6.96805 -6.96805
-0.67957 -7.03127 -7.03127
-0.686766 -7.16229 -7.16229
-0.464807 -7.16652 -7.16652
-0.459132 -7.0354 -7.0354
-0.683167 -7.09667 -7.09667
-0.575756 -7.16431 -7.16431
-0.461967 -7.10085 -7.10085
-0.569321 -7.03324 -7.03324
-0.572537 -7.09866 -7.09866
-0.686766 -7.16229 -7.16229
-0.69397 -7.29421 -7.29421
-0.470506 -7.29853 -7.29853
-0.464807 -7.16652 -7.16652
-0.690367 -7.22814 -7.22814
-0.582208 -7.29627 -7.29627
-0.467654 -7.23241 -7.23241
-0.575756 -7.16431 -7.16431
-0.57898 -7.23018 -7.23018
-0.69397 -7.29421 -7.29421
-0.701182 -7.42702 -7.42702
-0.476228 -7.43142 -7.43142
-0.470506 -7.29853 -7.29853
-0.697575 -7.3605 -7.3605
-0.588675 -7.42913 -7.42913
-0.473364 -7.36486 -7.36486
-0.582208 -7.29627 -7.29627
-0.585439 -7.36259 -7.36259
-0.701182 -7.42702 -7.42702
-0.708401 -7.5607 -7.5607
-0.481973 -7.5652 -7.5652
-0.476228 -7.43142 -7.43142
-0.704791 -7.49375 -7.49375
-0.595157 -7.56286 -7.56286
-0.479097 -7.4982 -7.4982
-0.588675 -7.42913 -7.42913
-0.591914 -7.49588 -7.49588
-0.708401 -7.5607 -7.5607
-0.715629 -7.69525 -7.69525
-0.487741 -7.69985 -7.69985
-0.481973 -7.5652 -7.5652
-0.712014 -7.62787 -7.62787
-0.601655 -7.69746 -7.69746
-0.484854 -7.63242 -7.63242
-0.595157 -7.56286 -7.56286
-0.598404 -7.63005 -7.63005
-0.715629 -7.69525 -7.69525
-0.722864 -7.83067 -7.83067
-0.493532 -7.83535 -7.83535
-0.487741 -7.69985 -7.69985
-0.719245 -7.76285 -7.76285
-0.608168 -7.83292 -7.83292
-0.490633 -7.76749 -7.76749
-0.601655 -7.69746 -7.69746
-0.604909 -7.76508 -7.76508
-0.722864 -7.83067 -7.83067
-0.730106 -7.96693 -7.96693
-0.499345 -7.97171 -7.97171
-0.493532 -7.83535 -7.83535
-0.726484 -7.89869 -7.89869
-0.614695 -7.96923 -7.96923
-0.496436 -7.90343 -7.90343
-0.608168 -7.83292 -7.83292
-0.61143 -7.90097 -7.90097
-0.730106 -7.96693 -7.96693
-0.737355 -8.10404 -8.10404
-0.505181 -8.10891 -8.10891
-0.499345 -7.97171 -7.97171
-0.733729 -8.03538 -8.03538
-0.621238 -8.10639 -8.10639
-0.50226 -8.04021 -8.04021
-0.614695 -7.96923 -7.96923
-0.617965 -8.03771 -8.03771
-0.737355 -8.10404 -8.10404
-0.744611 -8.24198 -8.24198
-0.511039 -8.24695 -8.24695
-0.505181 -8.10891 -8.10891
-0.740982 -8.17291 -8.17291
-0.627795 -8.24438 -8.24438
-0.508107 -8.17783 -8.17783
-0.621238 -8.10639 -8.10639
-0.624514 -8.17528 -8.17528
-0.744611 -8.24198 -8.24198
-0.751873 -8.38075 -8.38075
-0.516918 -8.3858 -8.3858
-0.511039 -8.24695 -8.24695
-0.748241 -8.31126 -8.31126
-0.634366 -8.38319 -8.38319
-0.513976 -8.31627 -8.31627
-0.627795 -8.24438 -8.24438
-0.631079 -8.31368 -8.31368
-0.751873 -8.38075 -8.38075
-0.759142 -8.52033 -8.52033
-0.52282 -8.52548 -8.52548
-0.516918 -8.3858 -8.3858
-0.755507 -8.45044 -8.45044
-0.640951 -8.52282 -8.52282
-0.519867 -8.45554 -8.45554
-0.634366 -8.38319 -8.38319
-0.637657 -8.4529 -8.4529
-0.759142 -8.52033 -8.52033
-0.766417 -8.66072 -8.66072
-0.528743 -8.66596 -8.66596
-0.52282 -8.52548 -8.52548
-0.762779 -8.59043 -8.59043
-0.64755 -8.66325 -8.66325
-0.525779 -8.59562 -8.59562
-0.640951 -8.52282 -8.52282
-0.644249 -8.59294 -8.59294
-0.766417 -8.66072 -8.66072
-0.773698 -8.80191 -8.80191
-0.534687 -8.80723 -8.80723
-0.528743 -8.66596 -8.66596
-0.770057 -8.73121 -8.73121
-0.654163 -8.80449 -8.80449
-0.531713 -8.73649 -8.73649
-0.64755 -8.66325 -8.66325
-0.650855 -8.73377 -8.73377
-0.773698 -8.80191 -8.80191
-0.780985 -8.94388 -8.94388
-0.540653 -8.9493 -8.9493
-0.534687 -8.80723 -8.80723
-0.777341 -8.8728 -8.8728
-0.660789 -8.94651 -8.94651
-0.537667 -8.87817 -8.87817
-0.654163 -8.80449 -8.80449
-0.657474 -8.8754 -8.8754
-0.780985 -8.94388 -8.94388
-0.788277 -9.08663 -9.08663
-0.546639 -9.09214 -9.09214
-0.540653 -8.9493 -8.9493
-0.78463 -9.01516 -9.01516
-0.667428 -9.08931 -9.08931
-0.543643 -9.02062 -9.02062
-0.660789 -8.94651 -8.94651
-0.664107 -9.01781 -9.01781
-0.788277 -9.08663 -9.08663
-0.795574 -9.23016 -9.23016
-0.552645 -9.23575 -9.23575
-0.546639 -9.09214 -9.09214
-0.791925 -9.1583 -9.1583
-0.67408 -9.23287 -9.23287
-0.549639 -9.16385 -9.16385
-0.667428 -9.08931 -9.08931
-0.670752 -9.16099 -9.16099
-0.795574 -9.23016 -9.23016
-0.802876 -9.37444 -9.37444
-0.558671 -9.38012 -9.38012
-0.552645 -9.23575 -9.23575
-0.799224 -9.30221 -9.30221
-0.680744 -9.37721 -9.37721
-0.555656 -9.30784 -9.30784
-0.67408 -9.23287 -9.23287
-0.67741 -9.30495 -9.30495
-0.802876 -9.37444 -9.37444
-0.810182 -9.51948 -9.51948
-0.564718 -9.52525 -9.52525
-0.558671 -9.38012 -9.38012
-0.806528 -9.44687 -9.44687
-0.68742 -9.52229 -9.52229
-0.561692 -9.45259 -9.45259
-0.680744 -9.37721 -9.37721
-0.684081 -9.44965 -9.44965
-0.810182 -9.51948 -9.51948
-0.817493 -9.66526 -9.66526
-0.570784 -9.67112 -9.67112
-0.564718 -9.52525 -9.52525
-0.813837 -9.59228 -9.59228
-0.694109 -9.66811 -9.66811
-0.567748 -9.59809 -9.59809
-0.68742 -9.52229 -9.52229
-0.690763 -9.59511 -9.59511
-0.817493 -9.66526 -9.66526
-0.824808 -9.81178 -9.81178
-0.576869 -9.81772 -9.81772
-0.570784 -9.67112 -9.67112
-0.82115 -9.73843 -9.73843
-0.700809 -9.81467 -9.81467
-0.573824 -9.74433 -9.74433
-0.694109 -9.66811 -9.66811
-0.697457 -9.7413 -9.7413
-0.824808 -9.81178 -9.81178
-0.832126 -9.95902 -9.95902
-0.582973 -9.96505 -9.96505
-0.576869 -9.81772 -9.81772
-0.828466 -9.88531 -9.88531
-0.70752 -9.96196 -9.96196
-0.579919 -9.89129 -9.89129
-0.700809 -9.81467 -9.81467
-0.704163 -9.88823 -9.88823
-0.832126 -9.95902 -9.95902
-0.839447 -10.107 -10.107
-0.589096 -10.1131 -10.1131
-0.582973 -9.96505 -9.96505
-0.835786 -10.0329 -10.0329
-0.714242 -10.11 -10.11
-0.586032 -10.039 -10.039
-0.70752 -9.96196 -9.96196
-0.71088 -10.0359 -10.0359
-0.839447 -10.107 -10.107
-0.846772 -10.2556 -10.2556
-0.595237 -10.2618 -10.2618
-0.589096 -10.1131 -10.1131
-0.843109 -10.1812 -10.1812
-0.720975 -10.2587 -10.2587
-0.592165 -10.1874 -10.1874
-0.714242 -10.11 -10.11
-0.717607 -10.1842 -10.1842
-0.846772 -10.2556 -10.2556
-0.854099 -10.405 -10.405
-0.601396 -10.4113 -10.4113
-0.595237 -10.2618 -10.2618
-0.850435 -10.3302 -10.3302
-0.727718 -10.4081 -10.4081
-0.598315 -10.3365 -10.3365
-0.720975 -10.2587 -10.2587
-0.724346 -10.3333 -10.3333
-0.854099 -10.405 -10.405
-0.861429 -10.5551 -10.5551
-0.607573 -10.5614 -10.5614
-0.601396 -10.4113 -10.4113
-0.857764 -10.4799 -10.4799
-0.734472 -10.5582 -10.5582
-0.604483 -10.4863 -10.4863
-0.727718 -10.4081 -10.4081
-0.731094 -10.483 -10.483
-0.861429 -10.5551 -10.5551
-0.86876 -10.7058 -10.7058
-0.613767 -10.7122 -10.7122
-0.607573 -10.5614 -10.5614
-0.865094 -10.6303 -10.6303
-0.741235 -10.7089 -10.7089
-0.610668 -10.6367 -10.6367
-0.734472 -10.5582 -10.5582
-0.737852 -10.6335 -10.6335
-0.86876 -10.7058 -10.7058
-0.876094 -10.8572 -10.8572
-0.619978 -10.8637 -10.8637
-0.613767 -10.7122 -10.7122
-0.872427 -10.7814 -10.7814
-0.748007 -10.8604 -10.8604
-0.616871 -10.7879 -10.7879
-0.741235 -10.7089 -10.7089
-0.744619 -10.7846 -10.7846
-0.876094 -10.8572 -10.8572
-0.883428 -11.0093 -11.0093
-0.626206 -11.0159 -11.0159
-0.619978 -10.8637 -10.8637
-0.879761 -10.9331 -10.9331
-0.754788 -11.0125 -11.0125
-0.62309 -10.9397 -10.9397
-0.748007 -10.8604 -10.8604
-0.751396 -10.9364 -10.9364
-0.883428 -11.0093 -11.0093
-0.890763 -11.162 -11.162
-0.63245 -11.1687 -11.1687
-0.626206 -11.0159 -11.0159
-0.887096 -11.0855 -11.0855
-0.761577 -11.1652 -11.1652
-0.629326 -11.0922 -11.0922
-0.754788 -11.0125 -11.0125
-0.758181 -11.0888 -11.0888
-0.890763 -11.162 -11.162
-0.898099 -11.3153 -11.3153
-0.638709 -11.3221 -11.3221
-0.63245 -11.1687 -11.1687
-0.894431 -11.2386 -11.2386
-0.768375 -11.3187 -11.3187
-0.635577 -11.2453 -11.2453
-0.761577 -11.1652 -11.1652
-0.764975 -11.2419 -11.2419
-0.898099 -11.3153 -11.3153
-0.905435 -11.4693 -11.4693
-0.644984 -11.4762 -11.4762
-0.638709 -11.3221 -11.3221
-0.901767 -11.3922 -11.3922
-0.77518 -11.4727 -11.4727
-0.641845 -11.3991 -11.3991
-0.768375 -11.3187 -11.3187
-0.771777 -11.3956 -11.3956
-0.905435 -11.4693 -11.4693
-0.912771 -11.6239 -11.6239
-0.651274 -11.6309 -11.6309
-0.644984 -11.4762 -11.4762
-0.909103 -11.5466 -11.5466
-0.781993 -11.6273 -11.6273
-0.648127 -11.5535 -11.5535
-0.77518 -11.4727 -11.4727
-0.778586 -11.5499 -11.5499
-0.912771 -11.6239 -11.6239
-0.920106 -11.7792 -11.7792
-0.657579 -11.7862 -11.7862
-0.651274 -11.6309 -11.6309
-0.916438 -11.7015 -11.7015
-0.788813 -11.7826 -11.7826
-0.654424 -11.7085 -11.7085
-0.781993 -11.6273 -11.6273
-0.785402 -11.7049 -11.7049
-0.920106 -11.7792 -11.7792
-0.92744 -11.935 -11.935
-0.663897 -11.9421 -11.9421
-0.657579 -11.7862 -11.7862
-0.923773 -11.857 -11.857
-0.795639 -11.9385 -11.9385
-0.660736 -11.8641 -11.8641
-0.788813 -11.7826 -11.7826
-0.792225 -11.8605 -11.8605
-0.92744 -11.935 -11.935
-0.934772 -12.0915 -12.0915
-0.67023 -12.0986 -12.0986
-0.663897 -11.9421 -11.9421
-0.931106 -12.0132 -12.0132
-0.802472 -12.095 -12.095
-0.667062 -12.0203 -12.0203
-0.795639 -11.9385 -11.9385
-0.799055 -12.0167 -12.0167
-0.934772 -12.0915 -12.0915
-0.942102 -12.2485 -12.2485
-0.676576 -12.2558 -12.2558
-0.67023 -12.0986 -12.0986
-0.938437 -12.1699 -12.1699
-0.80931 -12.2521 -12.2521
-0.673401 -12.1771 -12.1771
-0.802472 -12.095 -12.095
-0.805891 -12.1735 -12.1735
-0.942102 -12.2485 -12.2485
-0.949431 -12.4061 -12.4061
-0.682935 -12.4134 -12.4134
-0.676576 -12.2558 -12.2558
-0.945767 -12.3272 -12.3272
-0.816154 -12.4097 -12.4097
-0.679754 -12.3345 -12.3345
-0.80931 -12.2521 -12.2521
-0.812732 -12.3308 -12.3308
-0.949431 -12.4061 -12.4061
-0.956756 -12.5643 -12.5643
-0.689307 -12.5717 -12.5717
-0.682935 -12.4134 -12.4134
-0.953094 -12.4852 -12.4852
-0.823003 -12.568 -12.568
-0.686119 -12.4925 -12.4925
-0.816154 -12.4097 -12.4097
-0.819578 -12.4888 -12.4888
-0.956756 -12.5643 -12.5643
-0.964078 -12.7231 -12.7231
-0.69569 -12.7305 -12.7305
-0.689307 -12.5717 -12.5717
-0.960417 -12.6436 -12.6436
-0.829856 -12.7267 -12.7267
-0.692497 -12.6511 -12.6511
-0.823003 -12.568 -12.568
-0.826428 -12.6473 -12.6473
-0.964078 -12.7231 -12.7231
-0.971397 -12.8824 -12.8824
-0.702086 -12.8899 -12.8899
-0.69569 -12.7305 -12.7305
-0.967738 -12.8026 -12.8026
-0.836713 -12.8861 -12.8861
-0.698887 -12.8102 -12.8102
-0.829856 -12.7267 -12.7267
-0.833284 -12.8063 -12.8063
-0.971397 -12.8824 -12.8824
-0.978711 -13.0422 -13.0422
-0.708492 -13.0498 -13.0498
-0.702086 -12.8899 -12.8899
-0.975055 -12.9622 -12.9622
-0.843573 -13.046 -13.046
-0.705288 -12.9698 -12.9698
-0.836713 -12.8861 -12.8861
-0.840142 -12.966 -12.966
-0.978711 -13.0422 -13.0422
-0.986021 -13.2026 -13.2026
-0.71491 -13.2103 -13.2103
-0.708492 -13.0498 -13.0498
-0.982367 -13.1223 -13.1223
-0.850437 -13.2064 -13.2064
-0.7117 -13.13 -13.13
-0.843573 -13.046 -13.046
-0.847005 -13.1261 -13.1261
-0.986021 -13.2026 -13.2026
-0.993326 -13.3635 -13.3635
-0.721337 -13.3713 -13.3713
-0.71491 -13.2103 -13.2103
-0.989674 -13.283 -13.283
-0.857303 -13.3673 -13.3673
-0.718122 -13.2907 -13.2907
-0.850437 -13.2064 -13.2064
-0.85387 -13.2868 -13.2868
-0.993326 -13.3635 -13.3635
-1.00063 -13.5249 -13.5249
-0.727775 -13.5328 -13.5328
-0.721337 -13.3713 -13.3713
-0.996977 -13.4442 -13.4442
-0.864172 -13.5288 -13.5288
-0.724555 -13.452 -13.452
-0.857303 -13.3673 -13.3673
-0.860737 -13.448 -13.448
-1.00063 -13.5249 -13.5249
-1.00792 -13.6869 -13.6869
-0.734222 -13.6948 -13.6948
-0.727775 -13.5328 -13.5328
-1.00427 -13.6058 -13.6058
-0.871042 -13.6908 -13.6908
-0.730997 -13.6137 -13.6137
-0.864172 -13.5288 -13.5288
-0.867607 -13.6097 -13.6097
-1.00792 -13.6869 -13.6869
-1.01521 -13.8493 -13.8493
-0.740677 -13.8573 -13.8573
-0.734222 -13.6948 -13.6948
-1.01156 -13.768 -13.768
-0.877913 -13.8532 -13.8532
-0.737448 -13.776 -13.776
-0.871042 -13.6908 -13.6908
-0.874477 -13.7719 -13.7719
-1.01521 -13.8493 -13.8493
-1.02249 -14.0122 -14.0122
-0.747141 -14.0203 -14.0203
-0.740677 -13.8573 -13.8573
-1.01885 -13.9307 -13.9307
-0.884785 -14.0162 -14.0162
-0.743908 -13.9387 -13.9387
-0.877913 -13.8532 -13.8532
-0.881349 -13.9347 -13.9347
-1.02249 -14.0122 -14.0122
-1.02976 -14.1756 -14.1756
-0.753613 -14.1837 -14.1837
-0.747141 -14.0203 -14.0203
-1.02612 -14.0939 -14.0939
-0.891658 -14.1796 -14.1796
-0.750376 -14.1019 -14.1019
-0.884785 -14.0162 -14.0162
-0.888222 -14.0979 -14.0979
-1.02976 -14.1756 -14.1756
-1.03702 -14.3395 -14.3395
-0.760093 -14.3477 -14.3477
-0.753613 -14.1837 -14.1837
-1.03339 -14.2575 -14.2575
-0.89853 -14.3436 -14.3436
-0.756852 -14.2657 -14.2657
-0.891658 -14.1796 -14.1796
-0.895094 -14.2615 -14.2615
-1.03702 -14.3395 -14.3395
-1.04428 -14.5039 -14.5039
-0.766579 -14.5121 -14.5121
-0.760093 -14.3477 -14.3477
-1.04065 -14.4216 -14.4216
-0.905402 -14.5079 -14.5079
-0.763335 -14.4298 -14.4298
-0.89853 -14.3436 -14.3436
-0.901966 -14.4257 -14.4257
-1.04428 -14.5039 -14.5039
-1.05153 -14.6687 -14.6687
-0.773072 -14.677 -14.677
-0.766579 -14.5121 -14.5121
-1.04791 -14.5862 -14.5862
-0.912272 -14.6728 -14.6728
-0.769825 -14.5945 -14.5945
-0.905402 -14.5079 -14.5079
-0.908837 -14.5903 -14.5903
-1.05153 -14.6687 -14.6687
-1.05877 -14.8339 -14.8339
-0.77957 -14.8423 -14.8423
-0.773072 -14.677 -14.677
-1.05515 -14.7512 -14.7512
-0.919141 -14.838 -14.838
-0.77632 -14.7596 -14.7596
-0.912272 -14.6728 -14.6728
-0.915707 -14.7554 -14.7554
-1.05877 -14.8339 -14.8339
-1.066 -14.9996 -14.9996
-0.786075 -15.008 -15.008
-0.77957 -14.8423 -14.8423
-1.06238 -14.9167 -14.9167
-0.926007 -15.0038 -15.0038
-0.782822 -14.9251 -14.9251
-0.919141 -14.838 -14.838
-0.922574 -14.9208 -14.9208
-1.066 -14.9996 -14.9996
-1.07321 -15.1657 -15.1657
-0.792584 -15.1742 -15.1742
-0.786075 -15.008 -15.008
-1.06961 -15.0826 -15.0826
-0.932871 -15.1699 -15.1699
-0.789328 -15.091 -15.091
-0.926007 -15.0038 -15.0038
-0.929439 -15.0868 -15.0868
-1.07321 -15.1657 -15.1657
-1.08042 -15.3322 -15.3322
-0.799097 -15.3408 -15.3408
-0.792584 -15.1742 -15.1742
-1.07682 -15.2489 -15.2489
-0.939731 -15.3364 -15.3364
-0.79584 -15.2574 -15.2574
-0.932871 -15.1699 -15.1699
-0.936301 -15.2531 -15.2531
-1.08042 -15.3322 -15.3322
-1.08762 -15.4991 -15.4991
-0.805614 -15.5078 -15.5078
-0.799097 -15.3408 -15.3408
-1.08402 -15.4156 -15.4156
-0.946587 -15.5034 -15.5034
-0.802355 -15.4242 -15.4242
-0.939731 -15.3364 -15.3364
-0.94316 -15.4199 -15.4199
-1.08762 -15.4991 -15.4991
-1.0948 -15.6665 -15.6665
-0.812134 -15.6752 -15.6752
-0.805614 -15.5078 -15.5078
-1.09121 -15.5828 -15.5828
-0.953439 -15.6708 -15.6708
-0.808874 -15.5914 -15.5914
-0.946587 -15.5034 -15.5034
-0.950014 -15.587 -15.587
-1.0948 -15.6665 -15.6665
-1.10197 -15.8342 -15.8342
-0.818658 -15.8429 -15.8429
-0.812134 -15.6752 -15.6752
-1.09839 -15.7503 -15.7503
-0.960287 -15.8385 -15.8385
-0.815396 -15.759 -15.759
-0.953439 -15.6708 -15.6708
-0.956864 -15.7546 -15.7546
-1.10197 -15.8342 -15.8342
-1.10913 -16.0023 -16.0023
-0.825183 -16.0111 -16.0111
-0.818658 -15.8429 -15.8429
-1.10555 -15.9182 -15.9182
-0.967129 -16.0067 -16.0067
-0.82192 -15.927 -15.927
-0.960287 -15.8385 -15.8385
-0.963708 -15.9226 -15.9226
-1.10913 -16.0023 -16.0023
-1.11627 -16.1708 -16.1708
-0.83171 -16.1796 -16.1796
-0.825183 -16.0111 -16.0111
-1.1127 -16.0865 -16.0865
-0.973964 -16.1752 -16.1752
-0.828447 -16.0953 -16.0953
-0.967129 -16.0067 -16.0067
-0.970547 -16.0909 -16.0909
-1.11627 -16.1708 -16.1708
-1.1234 -16.3396 -16.3396
-0.838239 -16.3485 -16.3485
-0.83171 -16.1796 -16.1796
-1.11984 -16.2552 -16.2552
-0.980794 -16.344 -16.344
-0.834974 -16.264 -16.264
-0.973964 -16.1752 -16.1752
-0.97738 -16.2596 -16.2596
-1.1234 -16.3396 -16.3396
-1.13052 -16.5088 -16.5088
-0.844767 -16.5178 -16.5178
-0.838239 -16.3485 -16.3485
-1.12696 -16.4242 -16.4242
-0.987616 -16.5133 -16.5133
-0.841503 -16.4331 -16.4331
-0.980794 -16.344 -16.344
-0.984206 -16.4286 -16.4286
-1.13052 -16.5088 -16.5088
-1.13762 -16.6784 -16.6784
-0.851296 -16.6874 -16.6874
-0.844767 -16.5178 -16.5178
-1.13407 -16.5936 -16.5936
-0.994431 -16.6828 -16.6828
-0.848032 -16.6025 -16.6025
-0.987616 -16.5133 -16.5133
-0.991025 -16.598 -16.598
-1.13762 -16.6784 -16.6784
-1.14471 -16.8483 -16.8483
-0.857825 -16.8573 -16.8573
-0.851296 -16.6874 -16.6874
-1.14116 -16.7633 -16.7633
-1.00124 -16.8528 -16.8528
-0.854561 -16.7723 -16.7723
-0.994431 -16.6828 -16.6828
-0.997835 -16.7678 -16.7678
-1.14471 -16.8483 -16.8483
-1.15177 -17.0185 -17.0185
-0.864352 -17.0276 -17.0276
-0.857825 -16.8573 -16.8573
-1.14824 -16.9333 -16.9333
-1.00804 -17.023 -17.023
-0.861089 -16.9424 -16.9424
-1.00124 -16.8528 -16.8528
-1.00464 -16.9378 -16.9378
-1.15177 -17.0185 -17.0185
-1.15882 -17.189 -17.189
-0.870878 -17.1982 -17.1982
-0.864352 -17.0276 -17.0276
-1.1553 -17.1037 -17.1037
-1.01482 -17.1935 -17.1935
-0.867615 -17.1128 -17.1128
-1.00804 -17.023 -17.023
-1.01143 -17.1082 -17.1082
-1.15882 -17.189 -17.189
-1.16586 -17.3598 -17.3598
-0.877401 -17.369 -17.369
-0.870878 -17.1982 -17.1982
-1.16234 -17.2744 -17.2744
-1.0216 -17.3644 -17.3644
-0.87414 -17.2836 -17.2836
-1.01482 -17.1935 -17.1935
-1.01821 -17.2789 -17.2789
-1.16586 -17.3598 -17.3598
-1.17287 -17.531 -17.531
-0.883922 -17.5402 -17.5402
-0.877401 -17.369 -17.369
-1.16937 -17.4454 -17.4454
-1.02837 -17.5356 -17.5356
-0.880662 -17.4546 -17.4546
-1.0216 -17.3644 -17.3644
-1.02499 -17.45 -17.45
-1.17287 -17.531 -17.531
-1.17987 -17.7024 -17.7024
-0.890439 -17.7117 -17.7117
-0.883922 -17.5402 -17.5402
-1.17638 -17.6167 -17.6167
-1.03513 -17.707 -17.707
-0.887181 -17.6259 -17.6259
-1.02837 -17.5356 -17.5356
-1.03175 -17.6213 -17.6213
-1.17987 -17.7024 -17.7024
-1.18685 -17.8741 -17.8741
-0.896952 -17.8835 -17.8835
-0.890439 -17.7117 -17.7117
-1.18336 -17.7882 -17.7882
-1.04187 -17.8788 -17.8788
-0.893696 -17.7976 -17.7976
-1.03513 -17.707 -17.707
-1.0385 -17.7929 -17.7929
-1.18685 -17.8741 -17.8741
-1.19381 -18.0461 -18.0461
-0.903461 -18.0555 -18.0555
-0.896952 -17.8835 -17.8835
-1.19033 -17.9601 -17.9601
-1.04861 -18.0508 -18.0508
-0.900207 -17.9695 -17.9695
-1.04187 -17.8788 -17.8788
-1.04524 -17.9647 -17.9647
-1.19381 -18.0461 -18.0461
-1.20075 -18.2184 -18.2184
-0.909965 -18.2278 -18.2278
-0.903461 -18.0555 -18.0555
-1.19728 -18.1322 -18.1322
-1.05533 -18.2231 -18.2231
-0.906714 -18.1416 -18.1416
-1.04861 -18.0508 -18.0508
-1.05197 -18.1369 -18.1369
-1.20075 -18.2184 -18.2184
-1.20766 -18.3909 -18.3909
-0.916463 -18.4004 -18.4004
-0.909965 -18.2278 -18.2278
-1.20421 -18.3046 -18.3046
-1.06204 -18.3956 -18.3956
-0.913215 -18.314 -18.314
-1.05533 -18.2231 -18.2231
-1.05868 -18.3093 -18.3093
-1.20766 -18.3909 -18.3909
-1.21456 -18.5636 -18.5636
-0.922955 -18.5732 -18.5732
-0.916463 -18.4004 -18.4004
-1.21111 -18.4772 -18.4772
-1.06873 -18.5684 -18.5684
-0.91971 -18.4867 -18.4867
-1.06204 -18.3956 -18.3956
-1.06538 -18.4819 -18.4819
-1.21456 -18.5636 -18.5636
-1.22143 -18.7366 -18.7366
-0.929439 -18.7462 -18.7462
-0.922955 -18.5732 -18.5732
-1.218 -18.6501 -18.6501
-1.07541 -18.7414 -18.7414
-0.926198 -18.6596 -18.6596
-1.06873 -18.5684 -18.5684
-1.07207 -18.6548 -18.6548
-1.22143 -18.7366 -18.7366
-1.22828 -18.9098 -18.9098
-0.935917 -18.9194 -18.9194
-0.929439 -18.7462 -18.7462
-1.22486 -18.8232 -18.8232
-1.08207 -18.9146 -18.9146
-0.932679 -18.8328 -18.8328
-1.07541 -18.7414 -18.7414
-1.07874 -18.828 -18.828
-1.22828 -18.9098 -18.9098
-1.23511 -19.0833 -19.0833
-0.942386 -19.0929 -19.0929
-0.935917 -18.9194 -18.9194
-1.2317 -18.9965 -18.9965
-1.08872 -19.0881 -19.0881
-0.939152 -19.0062 -19.0062
-1.08207 -18.9146 -18.9146
-1.0854 -19.0013 -19.0013
-1.23511 -19.0833 -19.0833
-1.24191 -19.2569 -19.2569
-0.948847 -19.2666 -19.2666
-0.942386 -19.0929 -19.0929
-1.23851 -19.1701 -19.1701
-1.09535 -19.2617 -19.2617
-0.945617 -19.1797 -19.1797
-1.08872 -19.0881 -19.0881
-1.09204 -19.1749 -19.1749
-1.24191 -19.2569 -19.2569
-1.24869 -19.4308 -19.4308
-0.955298 -19.4405 -19.4405
-0.948847 -19.2666 -19.2666
-1.2453 -19.3438 -19.3438
-1.10197 -19.4356 -19.4356
-0.952074 -19.3535 -19.3535
-1.09535 -19.2617 -19.2617
-1.09866 -19.3487 -19.3487
-1.24869 -19.4308 -19.4308
-1.25544 -19.6048 -19.6048
-0.961739 -19.6146 -19.6146
-0.955298 -19.4405 -19.4405
-1.25207 -19.5178 -19.5178
-1.10856 -19.6097 -19.6097
-0.95852 -19.5275 -19.5275
-1.10197 -19.4356 -19.4356
-1.10527 -19.5226 -19.5226
-1.25544 -19.6048 -19.6048
-1.26217 -19.779 -19.779
-0.96817 -19.7888 -19.7888
-0.961739 -19.6146 -19.6146
-1.25881 -19.6919 -19.6919
-1.11514 -19.7839 -19.7839
-0.964956 -19.7017 -19.7017
-1.10856 -19.6097 -19.6097
-1.11186 -19.6968 -19.6968
-1.26217 -19.779 -19.779
-1.26887 -19.9534 -19.9534
-0.97459 -19.9633 -19.9633
-0.96817 -19.7888 -19.7888
-1.26552 -19.8662 -19.8662
-1.1217 -19.9583 -19.9583
-0.971382 -19.876 -19.876
-1.11514 -19.7839 -19.7839
-1.11843 -19.8711 -19.8711
-1.26887 -19.9534 -19.9534
-1.27555 -20.128 -20.128
-0.980998 -20.1379 -20.1379
-0.97459 -19.9633 -19.9633
-1.27221 -20.0407 -20.0407
-1.12825 -20.1329 -20.1329
-0.977796 -20.0506 -20.0506
-1.1217 -19.9583 -19.9583
-1.12498 -20.0456 -20.0456
-1.27555 -20.128 -20.128
-1.28219 -20.3027 -20.3027
-0.987394 -20.3126 -20.3126
-0.980998 -20.1379 -20.1379
-1.27887 -20.2154 -20.2154
-1.13477 -20.3077 -20.3077
-0.984198 -20.2252 -20.2252
-1.12825 -20.1329 -20.1329
-1.13151 -20.2203 -20.2203
-1.28219 -20.3027 -20.3027
-1.28881 -20.4776 -20.4776
-0.993777 -20.4875 -20.4875
-0.987394 -20.3126 -20.3126
-1.28551 -20.3902 -20.3902
-1.14127 -20.4826 -20.4826
-0.990587 -20.4001 -20.4001
-1.13477 -20.3077 -20.3077
-1.13802 -20.3951 -20.3951
-1.28881 -20.4776 -20.4776
-1.2954 -20.6526 -20.6526
-1.00015 -20.6626 -20.6626
-0.993777 -20.4875 -20.4875
-1.29211 -20.5651 -20.5651
-1.14775 -20.6576 -20.6576
-0.996964 -20.575 -20.575
-1.14127 -20.4826 -20.4826
-1.14451 -20.5701 -20.5701
-1.2954 -20.6526 -20.6526
-1.30196 -20.8277 -20.8277
-1.0065 -20.8377 -20.8377
-1.00015 -20.6626 -20.6626
-1.29868 -20.7402 -20.7402
-1.15421 -20.8327 -20.8327
-1.00333 -20.7501 -20.7501
-1.14775 -20.6576 -20.6576
-1.15098 -20.7451 -20.7451
-1.30196 -20.8277 -20.8277
-1.30849 -21.003 -21.003
-1.01284 -21.013 -21.013
-1.0065 -20.8377 -20.8377
-1.30523 -20.9154 -20.9154
-1.16064 -21.008 -21.008
-1.00967 -20.9254 -20.9254
-1.15421 -20.8327 -20.8327
-1.15743 -20.9204 -20.9204
-1.30849 -21.003 -21.003
-1.31499 -21.1784 -21.1784
-1.01917 -21.1884 -21.1884
-1.01284 -21.013 -21.013
-1.31174 -21.0907 -21.0907
-1.16705 -21.1834 -21.1834
-1.01601 -21.1007 -21.1007
-1.16064 -21.008 -21.008
-1.16385 -21.0957 -21.0957
-1.31499 -21.1784 -21.1784
-1.32146 -21.3538 -21.3538
-1.02548 -21.3639 -21.3639
-1.01917 -21.1884 -21.1884
-1.31823 -21.2661 -21.2661
-1.17344 -21.3589 -21.3589
-1.02232 -21.2762 -21.2762
-1.16705 -21.1834 -21.1834
-1.17025 -21.2711 -21.2711
-1.32146 -21.3538 -21.3538
-1.32789 -21.5294 -21.5294
-1.03177 -21.5395 -21.5395
-1.02548 -21.3639 -21.3639
-1.32468 -21.4416 -21.4416
-1.17981 -21.5345 -21.5345
-1.02862 -21.4517 -21.4517
-1.17344 -21.3589 -21.3589
-1.17663 -21.4467 -21.4467
-1.32789 -21.5294 -21.5294
-1.3343 -21.7051 -21.7051
-1.03804 -21.7152 -21.7152
-1.03177 -21.5395 -21.5395
-1.3311 -21.6172 -21.6172
-1.18614 -21.7101 -21.7101
-1.03491 -21.6273 -21.6273
-1.17981 -21.5345 -21.5345
-1.18298 -21.6223 -21.6223
-1.3343 -21.7051 -21.7051
-1.34067 -21.8808 -21.8808
-1.04429 -21.8909 -21.8909
-1.03804 -21.7152 -21.7152
-1.33749 -21.7929 -21.7929
-1.19245 -21.8859 -21.8859
-1.04117 -21.8031 -21.8031
-1.18614 -21.7101 -21.7101
-1.1893 -21.798 -21.798
-1.34067 -21.8808 -21.8808
-1.347 -22.0566 -22.0566
-1.05052 -22.0668 -22.0668
-1.04429 -21.8909 -21.8909
-1.34384 -21.9687 -21.9687
-1.19874 -22.0617 -22.0617
-1.04741 -21.9788 -21.9788
-1.19245 -21.8859 -21.8859
-1.1956 -21.9737 -21.9737
-1.347 -22.0566 -22.0566
-1.3533 -22.2324 -22.2324
-1.05673 -22.2426 -22.2426
-1.05052 -22.0668 -22.0668
-1.35016 -22.1445 -22.1445
-1.20499 -22.2375 -22.2375
-1.05363 -22.1547 -22.1547
-1.19874 -22.0617 -22.0617
-1.20187 -22.1496 -22.1496
-1.3533 -22.2324 -22.2324
-1.35956 -22.4083 -22.4083
-1.06291 -22.4186 -22.4186
-1.05673 -22.2426 -22.2426
-1.35644 -22.3204 -22.3204
-1.2112 -22.4134 -22.4134
-1.05983 -22.3306 -22.3306
-1.20499 -22.2375 -22.2375
-1.2081 -22.3255 -22.3255
-1.35956 -22.4083 -22.4083
-1.36578 -22.5843 -22.5843
-1.06906 -22.5945 -22.5945
-1.06291 -22.4186 -22.4186
-1.36268 -22.4963 -22.4963
-1.21738 -22.5894 -22.5894
-1.06599 -22.5065 -22.5065
-1.2112 -22.4134 -22.4134
-1.2143 -22.5014 -22.5014
-1.36578 -22.5843 -22.5843
-1.37196 -22.7603 -22.7603
-1.07519 -22.7705 -22.7705
-1.06906 -22.5945 -22.5945
-1.36887 -22.6723 -22.6723
-1.22352 -22.7654 -22.7654
-1.07213 -22.6825 -22.6825
-1.21738 -22.5894 -22.5894
-1.22046 -22.6774 -22.6774
-1.37196 -22.7603 -22.7603
-1.37809 -22.9364 -22.9364
-1.08132 -22.9465 -22.9465
-1.07519 -22.7705 -22.7705
-1.37502 -22.8483 -22.8483
-1.22965 -22.9415 -22.9415
-1.07826 -22.8585 -22.8585
-1.22352 -22.7654 -22.7654
-1.22659 -22.8534 -22.8534
-1.37809 -22.9364 -22.9364
-1.38426 -23.1126 -23.1126
-1.08746 -23.1224 -23.1224
-1.08132 -22.9465 -22.9465
-1.38116 -23.0245 -23.0245
-1.23581 -23.1175 -23.1175
-1.08439 -23.0345 -23.0345
-1.22965 -22.9415 -22.9415
-1.23273 -23.0295 -23.0295
0 0 0
-0.00401138 -0.000401041 -0.000401041
-0.00133362 0.000216545 0.000216545
0 0 0
-0.001945 0.000126426 0.000126426
-0.00266268 -1.40187e-05 -1.40187e-05
-0.000664154 0.000431184 0.000431184
0 0 0
-0.00129292 0.000328138 0.000328138
-0.00401138 -0.000401041 -0.000401041
-0.0083288 -0.00308422 -0.00308422
-0.00277516 -0.00201318 -0.00201318
-0.00133362 0.000216545 0.000216545
-0.00614309 -0.00148445 -0.00148445
-0.00552654 -0.00239866 -0.00239866
-0.00204108 -0.000611987 -0.000611987
-0.00266268 -1.40187e-05 -1.40187e-05
-0.00407666 -0.000933447 -0.000933447
-0.0083288 -0.00308422 -0.00308422
-0.012827 -0.0077314 -0.0077314
-0.00426903 -0.00638818 -0.00638818
-0.00277516 -0.00201318 -0.00201318
-0.010564 -0.00517516 -0.00517516
-0.00851183 -0.00687972 -0.00687972
-0.00351789 -0.00394709 -0.00394709
-0.00552654 -0.00239866 -0.00239866
-0.00700843 -0.00439078 -0.00439078
-0.012827 -0.0077314 -0.0077314
-0.0173643 -0.0141682 -0.0141682
-0.00579765 -0.0127128 -0.0127128
-0.00426903 -0.00638818 -0.00638818
-0.0150957 -0.010731 -0.010731
-0.0115442 -0.0132502 -0.0132502
-0.00503082 -0.00931561 -0.00931561
-0.00851183 -0.00687972 -0.00687972
-0.0100258 -0.0098368 -0.0098368
-0.0173643 -0.0141682 -0.0141682
-0.0218897 -0.0223477 -0.0223477
-0.00732791 -0.0208661 -0.0208661
-0.00579765 -0.0127128 -0.0127128
-0.0196303 -0.0180414 -0.0180414
-0.0145773 -0.0214164 -0.0214164
-0.0065634 -0.0165657 -0.0165657
-0.0115442 -0.0132502 -0.0132502
-0.0130623 -0.0171124 -0.0171124
-0.0218897 -0.0223477 -0.0223477
-0.0263783 -0.0322516 -0.0322516
-0.00885451 -0.0307866 -0.0307866
-0.00732791 -0.0208661 -0.0208661
-0.0241388 -0.0270844 -0.0270844
-0.0175907 -0.0313299 -0.0313299
-0.00809199 -0.0256079 -0.0256079
-0.0145773 -0.0214164 -0.0214164
-0.0160869 -0.0261563 -0.0261563
-0.0263783 -0.0322516 -0.0322516
-0.0308332 -0.0438767 -0.0438767
-0.010372 -0.0424417 -0.0424417
-0.00885451 -0.0307866 -0.0307866
-0.0286097 -0.0378493 -0.0378493
-0.0205817 -0.0429722 -0.0429722
-0.00961432 -0.0363985 -0.0363985
-0.0175907 -0.0313299 -0.0313299
-0.0190889 -0.0369358 -0.0369358
-0.0308332 -0.0438767 -0.0438767
-0.0352585 -0.0572169 -0.0572169
-0.0118839 -0.0558154 -0.0558154
-0.010372 -0.0424417 -0.0424417
-0.0330492 -0.0503328 -0.0503328
-0.0235533 -0.056331 -0.056331
-0.0111285 -0.0489144 -0.0489144
-0.0205817 -0.0429722 -0.0429722
-0.0220696 -0.0494376 -0.0494376
-0.0352585 -0.0572169 -0.0572169
-0.0396609 -0.0722661 -0.0722661
-0.0133923 -0.0708974 -0.0708974
-0.0118839 -0.0558154 -0.0558154
-0.0374622 -0.0645283 -0.0645283
-0.0265106 -0.0713982 -0.0713982
-0.0126383 -0.0631434 -0.0631434
-0.0235533 -0.056331 -0.056331
-0.0250335 -0.0636515 -0.0636515
-0.0396609 -0.0722661 -0.0722661
-0.0440449 -0.0890165 -0.0890165
-0.0149006 -0.0876796 -0.0876796
-0.0133923 -0.0708974 -0.0708974
-0.0418549 -0.0804292 -0.0804292
-0.0294577 -0.0881659 -0.0881659
-0.0141463 -0.0790764 -0.0790764
-0.0265106 -0.0713982 -0.0713982
-0.0279852 -0.07957 -0.07957
-0.0440449 -0.0890165 -0.0890165
-0.0484142 -0.10746 -0.10746
-0.0164109 -0.106154 -0.106154
-0.0149006 -0.0876796 -0.0876796
-0.0462312 -0.0980271 -0.0980271
-0.032398 -0.106626 -0.106626
-0.0156554 -0.0967059 -0.0967059
-0.0294577 -0.0881659 -0.0881659
-0.0309286 -0.0971849 -0.0971849
-0.0484142 -0.10746 -0.10746
-0.0527714 -0.127587 -0.127587
-0.0179253 -0.126314 -0.126314
-0.0164109 -0.106154 -0.106154
-0.0505942 -0.117314 -0.117314
-0.035334 -0.126771 -0.126771
-0.0171675 -0.116024 -0.116024
-0.032398 -0.106626 -0.106626
-0.0338664 -0.116488 -0.116488
-0.0527714 -0.127587 -0.127587
-0.0571184 -0.14939 -0.14939
-0.0194452 -0.148149 -0.148149
-0.0179253 -0.126314 -0.126314
-0.0549461 -0.13828 -0.13828
-0.0382675 -0.148591 -0.148591
-0.0186845 -0.137022 -0.137022
-0.035334 -0.126771 -0.126771
-0.036801 -0.137472 -0.137472
-0.0571184 -0.14939 -0.14939
-0.0614567 -0.17286 -0.17286
-0.020972 -0.171652 -0.171652
-0.0194452 -0.148149 -0.148149
-0.0592886 -0.160917 -0.160917
-0.0412 -0.172078 -0.172078
-0.0202077 -0.159692 -0.159692
-0.0382675 -0.148591 -0.148591
-0.0397338 -0.160127 -0.160127
-0.0614567 -0.17286 -0.17286
-0.0657875 -0.197986 -0.197986
-0.0225067 -0.196813 -0.196813
-0.020972 -0.171652 -0.171652
-0.063623 -0.185216 -0.185216
-0.0441326 -0.197223 -0.197223
-0.0217382 -0.184026 -0.184026
-0.0412 -0.172078 -0.172078
-0.0426662 -0.184444 -0.184444
-0.0657875 -0.197986 -0.197986
-0.0701119 -0.224761 -0.224761
-0.0240504 -0.223625 -0.223625
-0.0225067 -0.196813 -0.196813
-0.0679504 -0.211168 -0.211168
-0.0470665 -0.224017 -0.224017
-0.0232773 -0.210013 -0.210013
-0.0441326 -0.197223 -0.197223
-0.0455993 -0.210414 -0.210414
-0.0701119 -0.224761 -0.224761
-0.0744309 -0.253175 -0.253175
-0.0256041 -0.252077 -0.252077
-0.0240504 -0.223625 -0.223625
-0.072272 -0.238764 -0.238764
-0.0500028 -0.252451 -0.252451
-0.0248259 -0.237646 -0.237646
-0.0470665 -0.224017 -0.224017
-0.0485343 -0.23803 -0.23803
-0.0744309 -0.253175 -0.253175
-0.0787454 -0.283219 -0.283219
-0.0271688 -0.282161 -0.282161
-0.0256041 -0.252077 -0.252077
-0.0765886 -0.267994 -0.267994
-0.0529423 -0.282516 -0.282516
-0.026385 -0.266916 -0.266916
-0.0500028 -0.252451 -0.252451
-0.0514721 -0.26728 -0.26728
-0.0787454 -0.283219 -0.283219
-0.0830565 -0.314885 -0.314885
-0.0287453 -0.313868 -0.313868
-0.0271688 -0.282161 -0.282161
-0.0809014 -0.29885 -0.29885
-0.0558861 -0.314203 -0.314203
-0.0279555 -0.297812 -0.297812
-0.0529423 -0.282516 -0.282516
-0.0544136 -0.298158 -0.298158
-0.0830565 -0.314885 -0.314885
-0.0873651 -0.348162 -0.348162
-0.0303347 -0.347188 -0.347188
-0.0287453 -0.313868 -0.313868
-0.0852111 -0.331322 -0.331322
-0.0588349 -0.347503 -0.347503
-0.0295384 -0.330327 -0.330327
-0.0558861 -0.314203 -0.314203
-0.0573598 -0.330652 -0.330652
-0.0873651 -0.348162 -0.348162
-0.0916719 -0.383043 -0.383043
-0.0319379 -0.382113 -0.382113
-0.0303347 -0.347188 -0.347188
-0.0895186 -0.365402 -0.365402
-0.0617898 -0.382407 -0.382407
-0.0311345 -0.364451 -0.364451
-0.0588349 -0.347503 -0.347503
-0.0603116 -0.364755 -0.364755
-0.0916719 -0.383043 -0.383043
-0.095978 -0.419517 -0.419517
-0.0335556 -0.418633 -0.418633
-0.0319379 -0.382113 -0.382113
-0.093825 -0.401081 -0.401081
-0.0647516 -0.418905 -0.418905
-0.0327448 -0.400174 -0.400174
-0.0617898 -0.382407 -0.382407
-0.0632698 -0.400457 -0.400457
-0.095978 -0.419517 -0.419517
-0.100284 -0.457576 -0.457576
-0.0351887 -0.45674 -0.45674
-0.0335556 -0.418633 -0.418633
-0.098131 -0.438349 -0.438349
-0.0677212 -0.456989 -0.456989
-0.0343702 -0.437489 -0.437489
-0.0647516 -0.418905 -0.418905
-0.0662354 -0.43775 -0.43775
-0.100284 -0.457576 -0.457576
-0.104591 -0.497212 -0.497212
-0.0368382 -0.496424 -0.496424
-0.0351887 -0.45674 -0.45674
-0.102438 -0.477198 -0.477198
-0.0706994 -0.49665 -0.49665
-0.0360114 -0.476386 -0.476386
-0.0677212 -0.456989 -0.456989
-0.0692092 -0.476623 -0.476623
-0.104591 -0.497212 -0.497212
-0.1089 -0.538414 -0.538414
-0.0385048 -0.537676 -0.537676
-0.0368382 -0.496424 -0.496424
-0.106745 -0.517617 -0.517617
-0.0736871 -0.537878 -0.537878
-0.0376693 -0.516855 -0.516855
-0.0706994 -0.49665 -0.49665
-0.072192 -0.517069 -0.517069
-0.1089 -0.538414 -0.538414
-0.113212 -0.581174 -0.581174
-0.0401894 -0.580488 -0.580488
-0.0385048 -0.537676 -0.537676
-0.111056 -0.5596 -0.5596
-0.076685 -0.580665 -0.580665
-0.0393449 -0.558888 -0.558888
-0.0736871 -0.537878 -0.537878
-0.0751847 -0.559077 -0.559077
-0.113212 -0.581174 -0.581174
-0.117527 -0.625482 -0.625482
-0.0418928 -0.624849 -0.624849
-0.0401894 -0.580488 -0.580488
-0.115369 -0.603135 -0.603135
-0.0796941 -0.625001 -0.625001
-0.0410387 -0.602475 -0.602475
-0.076685 -0.580665 -0.580665
-0.0781881 -0.60264 -0.60264
-0.117527 -0.625482 -0.625482
-0.121846 -0.67133 -0.67133
-0.0436157 -0.670752 -0.670752
-0.0418928 -0.624849 -0.624849
-0.119686 -0.648214 -0.648214
-0.082715 -0.670877 -0.670877
-0.0427518 -0.647608 -0.647608
-0.0796941 -0.625001 -0.625001
-0.081203 -0.647747 -0.647747
-0.121846 -0.67133 -0.67133
-0.12617 -0.718709 -0.718709
-0.045359 -0.718186 -0.718186
-0.0436157 -0.670752 -0.670752
-0.124007 -0.694829 -0.694829
-0.0857485 -0.718285 -0.718285
-0.0444847 -0.694278 -0.694278
-0.082715 -0.670877 -0.670877
-0.0842301 -0.69439 -0.69439
-0.12617 -0.718709 -0.718709
-0.130499 -0.76761 -0.76761
-0.0471232 -0.767143 -0.767143
-0.045359 -0.718186 -0.718186
-0.128334 -0.74297 -0.74297
-0.0887954 -0.767214 -0.767214
-0.0462384 -0.742475 -0.742475
-0.0857485 -0.718285 -0.718285
-0.0872702 -0.74256 -0.74256
-0.130499 -0.76761 -0.76761
-0.134835 -0.818023 -0.818023
-0.0489094 -0.817614 -0.817614
-0.0471232 -0.767143 -0.767143
-0.132666 -0.792628 -0.792628
-0.0918564 -0.817657 -0.817657
-0.0480135 -0.79219 -0.79219
-0.0887954 -0.767214 -0.767214
-0.0903241 -0.792247 -0.792247
-0.134835 -0.818023 -0.818023
-0.139179 -0.869939 -0.869939
-0.050718 -0.869589 -0.869589
-0.0489094 -0.817614 -0.817614
-0.137006 -0.843793 -0.843793
-0.0949323 -0.869604 -0.869604
-0.0498108 -0.843414 -0.843414
-0.0918564 -0.817657 -0.817657
-0.0933925 -0.843443 -0.843443
-0.139179 -0.869939 -0.869939
-0.14353 -0.92335 -0.92335
-0.0525498 -0.923061 -0.923061
-0.050718 -0.869589 -0.869589
-0.141353 -0.896458 -0.896458
-0.0980237 -0.923046 -0.923046
-0.051631 -0.896139 -0.896139
-0.0949323 -0.869604 -0.869604
-0.096476 -0.896139 -0.896139
-0.14353 -0.92335 -0.92335
-0.147889 -0.978246 -0.978246
-0.0544056 -0.978018 -0.978018
-0.0525498 -0.923061 -0.923061
-0.145708 -0.950613 -0.950613
-0.101131 -0.977974 -0.977974
-0.0534747 -0.950354 -0.950354
-0.0980237 -0.923046 -0.923046
-0.0995755 -0.950325 -0.950325
-0.147889 -0.978246 -0.978246
-0.152258 -1.03462 -1.03462
-0.0562859 -1.03445 -1.03445
-0.0544056 -0.978018 -0.978018
-0.150073 -1.00625 -1.00625
-0.104256 -1.03438 -1.03438
-0.0553426 -1.00605 -1.00605
-0.101131 -0.977974 -0.977974
-0.102691 -1.00599 -1.00599
-0.152258 -1.03462 -1.03462
-0.156637 -1.09246 -1.09246
-0.0581915 -1.09236 -1.09236
-0.0562859 -1.03445 -1.03445
-0.154446 -1.06335 -1.06335
-0.107398 -1.09225 -1.09225
-0.0572355 -1.06322 -1.06322
-0.104256 -1.03438 -1.03438
-0.105825 -1.06313 -1.06313
-0.156637 -1.09246 -1.09246
-0.161026 -1.15176 -1.15176
-0.060123 -1.15172 -1.15172
-0.0581915 -1.09236 -1.09236
-0.15883 -1.12192 -1.12192
-0.110558 -1.15158 -1.15158
-0.059154 -1.12186 -1.12186
-0.107398 -1.09225 -1.09225
-0.108976 -1.12173 -1.12173
-0.161026 -1.15176 -1.15176
-0.165426 -1.2125 -1.2125
-0.0620809 -1.21253 -1.21253
-0.060123 -1.15172 -1.15172
-0.163225 -1.18195 -1.18195
-0.113737 -1.21236 -1.21236
-0.0610986 -1.18194 -1.18194
-0.110558 -1.15158 -1.15158
-0.112145 -1.18179 -1.18179
-0.165426 -1.2125 -1.2125
-0.169839 -1.27469 -1.27469
-0.064066 -1.27478 -1.27478
-0.0620809 -1.21253 -1.21253
-0.167631 -1.24342 -1.24342
-0.116936 -1.27458 -1.27458
-0.06307 -1.24348 -1.24348
-0.113737 -1.21236 -1.21236
-0.115334 -1.24329 -1.24329
-0.169839 -1.27469 -1.27469
-0.174263 -1.33831 -1.33831
-0.0660787 -1.33847 -1.33847
-0.064066 -1.27478 -1.27478
-0.172049 -1.30632 -1.30632
-0.120154 -1.33824 -1.33824
-0.0650689 -1.30645 -1.30645
-0.116936 -1.27458 -1.27458
-0.118543 -1.30623 -1.30623
-0.174263 -1.33831 -1.33831
-0.1787 -1.40335 -1.40335
-0.0681198 -1.40358 -1.40358
-0.0660787 -1.33847 -1.33847
-0.17648 -1.37065 -1.37065
-0.123393 -1.40331 -1.40331
-0.0670957 -1.37085 -1.37085
-0.120154 -1.33824 -1.33824
-0.121771 -1.3706 -1.3706
-0.1787 -1.40335 -1.40335
-0.183151 -1.4698 -1.4698
-0.0701897 -1.4701 -1.4701
-0.0681198 -1.40358 -1.40358
-0.180924 -1.4364 -1.4364
-0.126654 -1.4698 -1.4698
-0.0691511 -1.43666 -1.43666
-0.123393 -1.40331 -1.40331
-0.125021 -1.43638 -1.43638
-0.183151 -1.4698 -1.4698
-0.187616 -1.53765 -1.53765
-0.0722889 -1.53803 -1.53803
-0.0701897 -1.4701 -1.4701
-0.185382 -1.50355 -1.50355
-0.129936 -1.53769 -1.53769
-0.0712356 -1.50389 -1.50389
-0.126654 -1.4698 -1.4698
-0.128292 -1.50357 -1.50357
-0.187616 -1.53765 -1.53765
-0.192095 -1.60691 -1.60691
-0.0744181 -1.60735 -1.60735
-0.0722889 -1.53803 -1.53803
-0.189853 -1.57211 -1.57211
-0.13324 -1.60698 -1.60698
-0.0733497 -1.57252 -1.57252
-0.129936 -1.53769 -1.53769
-0.131585 -1.57216 -1.57216
-0.192095 -1.60691 -1.60691
-0.196589 -1.67754 -1.67754
-0.0765777 -1.67806 -1.67806
-0.0744181 -1.60735 -1.60735
-0.19434 -1.64205 -1.64205
-0.136567 -1.67765 -1.67765
-0.0754941 -1.64253 -1.64253
-0.13324 -1.60698 -1.60698
-0.1349 -1.64214 -1.64214
-0.196589 -1.67754 -1.67754
-0.201099 -1.74956 -1.74956
-0.0787682 -1.75015 -1.75015
-0.0765777 -1.67806 -1.67806
-0.198842 -1.71338 -1.71338
-0.139917 -1.7497 -1.7497
-0.0776691 -1.71393 -1.71393
-0.136567 -1.67765 -1.67765
-0.138239 -1.71351 -1.71351
-0.201099 -1.74956 -1.74956
-0.205625 -1.82294 -1.82294
-0.0809902 -1.8236 -1.8236
-0.0787682 -1.75015 -1.75015
-0.20336 -1.78608 -1.78608
-0.143291 -1.82312 -1.82312
-0.0798753 -1.7867 -1.7867
-0.139917 -1.7497 -1.7497
-0.141601 -1.78624 -1.78624
-0.205625 -1.82294 -1.82294
-0.210168 -1.89768 -1.89768
-0.083244 -1.89842 -1.89842
-0.0809902 -1.8236 -1.8236
-0.207894 -1.86014 -1.86014
-0.146689 -1.8979 -1.8979
-0.0821131 -1.86084 -1.86084
-0.143291 -1.82312 -1.82312
-0.144987 -1.86034 -1.86034
-0.210168 -1.89768 -1.89768
-0.214727 -1.97377 -1.97377
-0.0855302 -1.97458 -1.97458
-0.083244 -1.89842 -1.89842
-0.212445 -1.93555 -1.93555
-0.150112 -1.97403 -1.97403
-0.0843831 -1.93633 -1.93633
-0.146689 -1.8979 -1.8979
-0.148397 -1.9358 -1.9358
-0.214727 -1.97377 -1.97377
-0.219304 -2.05119 -2.05119
-0.0878492 -2.05209 -2.05209
-0.0855302 -1.97458 -1.97458
-0.217013 -2.01231 -2.01231
-0.15356 -2.0515 -2.0515
-0.0866856 -2.01317 -2.01317
-0.150112 -1.97403 -1.97403
-0.151832 -2.0126 -2.0126
-0.219304 -2.05119 -2.05119
-0.223899 -2.12995 -2.12995
-0.0902014 -2.13092 -2.13092
-0.0878492 -2.05209 -2.05209
-0.221599 -2.09041 -2.09041
-0.157033 -2.1303 -2.1303
-0.0890212 -2.09134 -2.09134
-0.15356 -2.0515 -2.0515
-0.155293 -2.09073 -2.09073
-0.223899 -2.12995 -2.12995
-0.228512 -2.21004 -2.21004
-0.0925873 -2.21108 -2.21108
-0.0902014 -2.13092 -2.13092
-0.226203 -2.16983 -2.16983
-0.160532 -2.21042 -2.21042
-0.0913901 -2.17084 -2.17084
-0.157033 -2.1303 -2.1303
-0.158779 -2.17019 -2.17019
-0.228512 -2.21004 -2.21004
-0.233143 -2.29143 -2.29143
-0.0950072 -2.29256 -2.29256
-0.0925873 -2.21108 -2.21108
-0.230825 -2.25057 -2.25057
-0.164058 -2.29186 -2.29186
-0.093793 -2.25166 -2.25166
-0.160532 -2.21042 -2.21042
-0.162292 -2.25097 -2.25097
-0.233143 -2.29143 -2.29143
-0.237794 -2.37413 -2.37413
-0.0974615 -2.37534 -2.37534
-0.0950072 -2.29256 -2.29256
-0.235466 -2.33262 -2.33262
-0.167611 -2.3746 -2.3746
-0.09623 -2.33378 -2.33378
-0.164058 -2.29186 -2.29186
-0.165831 -2.33306 -2.33306
-0.237794 -2.37413 -2.37413
-0.242464 -2.45813 -2.45813
-0.0999506 -2.45941 -2.45941
-0.0974615 -2.37534 -2.37534
-0.240127 -2.41597 -2.41597
-0.17119 -2.45863 -2.45863
-0.0987017 -2.41721 -2.41721
-0.167611 -2.3746 -2.3746
-0.169397 -2.41645 -2.41645
-0.242464 -2.45813 -2.45813
-0.247154 -2.54341 -2.54341
-0.102475 -2.54477 -2.54477
-0.0999506 -2.45941 -2.45941
-0.244807 -2.50061 -2.50061
-0.174797 -2.54395 -2.54395
-0.101208 -2.50193 -2.50193
-0.17119 -2.45863 -2.45863
-0.17299 -2.50113 -2.50113
-0.247154 -2.54341 -2.54341
-0.251864 -2.62997 -2.62997
-0.105035 -2.63141 -2.63141
-0.102475 -2.54477 -2.54477
-0.249507 -2.58653 -2.58653
-0.178432 -2.63055 -2.63055
-0.10375 -2.58793 -2.58793
-0.174797 -2.54395 -2.54395
-0.176611 -2.5871 -2.5871
-0.251864 -2.62997 -2.62997
-0.256595 -2.71779 -2.71779
-0.10763 -2.71932 -2.71932
-0.105035 -2.63141 -2.63141
-0.254227 -2.67372 -2.67372
-0.182095 -2.71842 -2.71842
-0.106328 -2.67521 -2.67521
-0.178432 -2.63055 -2.63055
-0.18026 -2.67433 -2.67433
-0.256595 -2.71779 -2.71779
-0.261346 -2.80688 -2.80688
-0.110262 -2.80849 -2.80849
-0.10763 -2.71932 -2.71932
-0.258968 -2.76218 -2.76218
-0.185786 -2.80755 -2.80755
-0.108941 -2.76375 -2.76375
-0.182095 -2.71842 -2.71842
-0.183937 -2.76283 -2.76283
-0.261346 -2.80688 -2.80688
-0.266118 -2.89721 -2.89721
-0.11293 -2.8989 -2.8989
-0.110262 -2.80849 -2.80849
-0.263729 -2.85189 -2.85189
-0.189507 -2.89793 -2.89793
-0.111591 -2.85354 -2.85354
-0.185786 -2.80755 -2.80755
-0.187643 -2.85258 -2.85258
-0.266118 -2.89721 -2.89721
-0.270912 -2.98879 -2.98879
-0.115635 -2.99056 -2.99056
-0.11293 -2.8989 -2.8989
-0.268512 -2.94285 -2.94285
-0.193256 -2.98954 -2.98954
-0.114278 -2.94458 -2.94458
-0.189507 -2.89793 -2.89793
-0.191378 -2.94358 -2.94358
-0.270912 -2.98879 -2.98879
-0.275727 -3.0816 -3.0816
-0.118377 -3.08345 -3.08345
-0.115635 -2.99056 -2.99056
-0.273317 -3.03504 -3.03504
-0.197035 -3.08239 -3.08239
-0.117001 -3.03685 -3.03685
-0.193256 -2.98954 -2.98954
-0.195142 -3.03581 -3.03581
-0.275727 -3.0816 -3.0816
-0.280565 -3.17563 -3.17563
-0.121156 -3.17756 -3.17756
-0.118377 -3.08345 -3.08345
-0.278143 -3.12846 -3.12846
-0.200843 -3.17647 -3.17647
-0.119762 -3.13036 -3.13036
-0.197035 -3.08239 -3.08239
-0.198935 -3.12928 -3.12928
-0.280565 -3.17563 -3.17563
-0.285424 -3.27087 -3.27087
-0.123973 -3.27289 -3.27289
-0.121156 -3.17756 -3.17756
-0.282991 -3.2231 -3.2231
-0.204681 -3.27175 -3.27175
-0.12256 -3.22508 -3.22508
-0.200843 -3.17647 -3.17647
-0.202758 -3.22396 -3.22396
-0.285424 -3.27087 -3.27087
-0.290306 -3.36732 -3.36732
-0.126827 -3.36942 -3.36942
-0.123973 -3.27289 -3.27289
-0.287862 -3.31894 -3.31894
-0.208549 -3.36824 -3.36824
-0.125395 -3.32101 -3.32101
-0.204681 -3.27175 -3.27175
-0.206611 -3.31985 -3.31985
-0.290306 -3.36732 -3.36732
-0.29521 -3.46496 -3.46496
-0.12972 -3.46715 -3.46715
-0.126827 -3.36942 -3.36942
-0.292755 -3.41599 -3.41599
-0.212447 -3.46593 -3.46593
-0.128269 -3.41814 -3.41814
-0.208549 -3.36824 -3.36824
-0.210494 -3.41694 -3.41694
-0.29521 -3.46496 -3.46496
-0.300138 -3.56379 -3.56379
-0.13265 -3.56607 -3.56607
-0.12972 -3.46715 -3.46715
-0.297671 -3.51423 -3.51423
-0.216376 -3.5648 -3.5648
-0.13118 -3.51646 -3.51646
-0.212447 -3.46593 -3.46593
-0.214408 -3.51522 -3.51522
-0.300138 -3.56379 -3.56379
-0.305088 -3.6638 -3.6638
-0.135619 -3.66616 -3.66616
-0.13265 -3.56607 -3.56607
-0.30261 -3.61365 -3.61365
-0.220336 -3.66485 -3.66485
-0.13413 -3.61597 -3.61597
-0.216376 -3.5648 -3.5648
-0.218352 -3.61468 -3.61468
-0.305088 -3.6638 -3.6638
-0.310061 -3.76497 -3.76497
-0.138627 -3.76742 -3.76742
-0.135619 -3.66616 -3.66616
-0.307572 -3.71424 -3.71424
-0.224327 -3.76607 -3.76607
-0.137118 -3.71664 -3.71664
-0.220336 -3.66485 -3.66485
-0.222327 -3.71532 -3.71532
-0.310061 -3.76497 -3.76497
-0.315058 -3.8673 -3.8673
-0.141673 -3.86984 -3.86984
-0.138627 -3.76742 -3.76742
-0.312557 -3.81599 -3.81599
-0.228348 -3.86845 -3.86845
-0.140145 -3.81849 -3.81849
-0.224327 -3.76607 -3.76607
-0.226334 -3.81712 -3.81712
-0.315058 -3.8673 -3.8673
-0.320079 -3.97079 -3.97079
-0.144759 -3.97341 -3.97341
-0.141673 -3.86984 -3.86984
-0.317566 -3.9189 -3.9189
-0.232401 -3.97198 -3.97198
-0.143211 -3.92148 -3.92148
-0.228348 -3.86845 -3.86845
-0.230371 -3.92007 -3.92007
-0.320079 -3.97079 -3.97079
-0.325123 -4.07541 -4.07541
-0.147883 -4.07812 -4.07812
-0.144759 -3.97341 -3.97341
-0.322598 -4.02296 -4.02296
-0.236485 -4.07665 -4.07665
-0.146316 -4.02562 -4.02562
-0.232401 -3.97198 -3.97198
-0.234439 -4.02417 -4.02417
-0.325123 -4.07541 -4.07541
-0.330191 -4.18117 -4.18117
-0.151047 -4.18397 -4.18397
-0.147883 -4.07812 -4.07812
-0.327654 -4.12815 -4.12815
-0.240601 -4.18245 -4.18245
-0.14946 -4.1309 -4.1309
-0.236485 -4.07665 -4.07665
-0.238539 -4.12941 -4.12941
-0.330191 -4.18117 -4.18117
-0.335283 -4.28805 -4.28805
-0.15425 -4.29093 -4.29093
-0.151047 -4.18397 -4.18397
-0.332734 -4.23447 -4.23447
-0.244749 -4.28937 -4.28937
-0.152643 -4.23731 -4.23731
-0.240601 -4.18245 -4.18245
-0.242671 -4.23577 -4.23577
-0.335283 -4.28805 -4.28805
-0.340399 -4.39605 -4.39605
-0.157492 -4.39902 -4.39902
-0.15425 -4.29093 -4.29093
-0.337838 -4.34191 -4.34191
-0.248928 -4.39741 -4.39741
-0.155866 -4.34484 -4.34484
-0.244749 -4.28937 -4.28937
-0.246834 -4.34325 -4.34325
-0.340399 -4.39605 -4.39605
-0.34554 -4.50514 -4.50514
-0.160774 -4.5082 -4.5082
-0.157492 -4.39902 -4.39902
-0.342967 -4.45046 -4.45046
-0.253139 -4.50656 -4.50656
-0.159128 -4.45347 -4.45347
-0.248928 -4.39741 -4.39741
-0.25103 -4.45185 -4.45185
-0.34554 -4.50514 -4.50514
-0.350704 -4.61534 -4.61534
-0.164096 -4.61848 -4.61848
-0.160774 -4.5082 -4.5082
-0.348119 -4.56011 -4.56011
-0.257382 -4.6168 -4.6168
-0.16243 -4.56321 -4.56321
-0.253139 -4.50656 -4.50656
-0.255257 -4.56154 -4.56154
-0.350704 -4.61534 -4.61534
-0.355893 -4.72662 -4.72662
-0.167457 -4.72985 -4.72985
-0.164096 -4.61848 -4.61848
-0.353296 -4.67084 -4.67084
-0.261657 -4.72812 -4.72812
-0.165771 -4.67403 -4.67403
-0.257382 -4.6168 -4.6168
-0.259516 -4.67232 -4.67232
-0.355893 -4.72662 -4.72662
-0.361107 -4.83898 -4.83898
-0.170858 -4.8423 -4.8423
-0.167457 -4.72985 -4.72985
-0.358497 -4.78267 -4.78267
-0.265965 -4.84053 -4.84053
-0.169152 -4.78594 -4.78594
-0.261657 -4.72812 -4.72812
-0.263807 -4.78419 -4.78419
-0.361107 -4.83898 -4.83898
-0.366344 -4.95241 -4.95241
-0.174299 -4.95582 -4.95582
-0.170858 -4.8423 -4.8423
-0.363723 -4.89556 -4.89556
-0.270304 -4.954 -4.954
-0.172573 -4.89892 -4.89892
-0.265965 -4.84053 -4.84053
-0.26813 -4.89713 -4.89713
-0.366344 -4.95241 -4.95241
-0.371607 -5.06689 -5.06689
-0.177779 -5.07039 -5.07039
-0.174299 -4.95582 -4.95582
-0.368973 -5.00952 -5.00952
-0.274675 -5.06853 -5.06853
-0.176034 -5.01297 -5.01297
-0.270304 -4.954 -4.954
-0.272486 -5.01113 -5.01113
-0.371607 -5.06689 -5.06689
-0.376894 -5.18243 -5.18243
-0.1813 -5.18602 -5.18602
-0.177779 -5.07039 -5.07039
-0.374247 -5.12453 -5.12453
-0.279079 -5.18411 -5.18411
-0.179535 -5.12807 -5.12807
-0.274675 -5.06853 -5.06853
-0.276873 -5.12619 -5.12619
-0.376894 -5.18243 -5.18243
-0.382205 -5.29901 -5.29901
-0.184861 -5.30268 -5.30268
-0.1813 -5.18602 -5.18602
-0.379546 -5.24059 -5.24059
-0.283515 -5.30074 -5.30074
-0.183075 -5.24422 -5.24422
-0.279079 -5.18411 -5.18411
-0.281293 -5.2423 -5.2423
-0.382205 -5.29901 -5.29901
-0.387541 -5.41662 -5.41662
-0.188461 -5.42038 -5.42038
-0.184861 -5.30268 -5.30268
-0.38487 -5.35769 -5.35769
-0.287984 -5.41839 -5.41839
-0.186656 -5.3614 -5.3614
-0.283515 -5.30074 -5.30074
-0.285745 -5.35944 -5.35944
-0.387541 -5.41662 -5.41662
-0.392902 -5.53526 -5.53526
-0.192101 -5.53911 -5.53911
-0.188461 -5.42038 -5.42038
-0.390219 -5.47581 -5.47581
-0.292484 -5.53707 -5.53707
-0.190276 -5.47962 -5.47962
-0.287984 -5.41839 -5.41839
-0.29023 -5.47761 -5.47761
-0.392902 -5.53526 -5.53526
-0.398287 -5.65491 -5.65491
-0.195782 -5.65884 -5.65884
-0.192101 -5.53911 -5.53911
-0.395592 -5.59496 -5.59496
-0.297017 -5.65677 -5.65677
-0.193937 -5.59885 -5.59885
-0.292484 -5.53707 -5.53707
-0.294746 -5.59679 -5.59679
-0.398287 -5.65491 -5.65491
-0.403697 -5.77556 -5.77556
-0.199502 -5.77959 -5.77959
-0.195782 -5.65884 -5.65884
-0.400989 -5.71511 -5.71511
-0.301582 -5.77747 -5.77747
-0.197637 -5.71909 -5.71909
-0.297017 -5.65677 -5.65677
-0.299295 -5.71699 -5.71699
-0.403697 -5.77556 -5.77556
-0.409131 -5.89721 -5.89721
-0.203262 -5.90132 -5.90132
-0.199502 -5.77959 -5.77959
-0.406411 -5.83626 -5.83626
-0.306179 -5.89916 -5.89916
-0.201377 -5.84033 -5.84033
-0.301582 -5.77747 -5.77747
-0.303876 -5.83819 -5.83819
-0.409131 -5.89721 -5.89721
-0.41459 -6.01985 -6.01985
-0.207062 -6.02405 -6.02405
-0.203262 -5.90132 -5.90132
-0.411858 -5.95841 -5.95841
-0.310808 -6.02185 -6.02185
-0.205157 -5.96256 -5.96256
-0.306179 -5.89916 -5.89916
-0.30849 -5.96038 -5.96038
-0.41459 -6.01985 -6.01985
-0.420073 -6.14347 -6.14347
-0.210902 -6.14775 -6.14775
-0.207062 -6.02405 -6.02405
-0.417329 -6.08154 -6.08154
-0.31547 -6.14551 -6.14551
-0.208977 -6.08578 -6.08578
-0.310808 -6.02185 -6.02185
-0.313135 -6.08355 -6.08355
-0.420073 -6.14347 -6.14347
-0.425581 -6.26805 -6.26805
-0.214781 -6.27242 -6.27242
-0.210902 -6.14775 -6.14775
-0.422824 -6.20564 -6.20564
-0.320163 -6.27014 -6.27014
-0.212836 -6.20997 -6.20997
-0.31547 -6.14551 -6.14551
-0.317812 -6.2077 -6.2077
-0.425581 -6.26805 -6.26805
-0.431113 -6.3936 -6.3936
-0.2187 -6.39806 -6.39806
-0.214781 -6.27242 -6.27242
-0.428344 -6.3307 -6.3307
-0.324888 -6.39572 -6.39572
-0.216735 -6.33512 -6.33512
-0.320163 -6.27014 -6.27014
-0.322522 -6.33281 -6.33281
-0.431113 -6.3936 -6.3936
-0.436668 -6.52009 -6.52009
-0.222658 -6.52464 -6.52464
-0.2187 -6.39806 -6.39806
-0.433887 -6.45672 -6.45672
-0.329646 -6.52226 -6.52226
-0.220674 -6.46123 -6.46123
-0.324888 -6.39572 -6.39572
-0.327263 -6.45888 -6.45888
-0.436668 -6.52009 -6.52009
-0.442248 -6.64753 -6.64753
-0.226656 -6.65216 -6.65216
-0.222658 -6.52464 -6.52464
-0.439455 -6.58369 -6.58369
-0.334435 -6.64975 -6.64975
-0.224652 -6.58828 -6.58828
-0.329646 -6.52226 -6.52226
-0.332036 -6.58589 -6.58589
-0.442248 -6.64753 -6.64753
-0.447852 -6.7759 -6.7759
-0.230693 -6.78062 -6.78062
-0.226656 -6.65216 -6.65216
-0.445047 -6.7116 -6.7116
-0.339255 -6.77816 -6.77816
-0.22867 -6.71628 -6.71628
-0.334435 -6.64975 -6.64975
-0.336841 -6.71384 -6.71384
-0.447852 -6.7759 -6.7759
-0.45348 -6.90519 -6.90519
-0.23477 -6.91 -6.91
-0.230693 -6.78062 -6.78062
-0.450663 -6.84043 -6.84043
-0.344107 -6.9075 -6.9075
-0.232727 -6.8452 -6.8452
-0.339255 -6.77816 -6.77816
-0.341677 -6.84272 -6.84272
-0.45348 -6.90519 -6.90519
-0.459132 -7.0354 -7.0354
-0.238885 -7.0403 -7.0403
-0.23477 -6.91 -6.91
-0.456303 -6.97018 -6.97018
-0.348991 -7.03775 -7.03775
-0.236822 -6.97504 -6.97504
-0.344107 -6.9075 -6.9075
-0.346545 -6.97251 -6.97251
-0.459132 -7.0354 -7.0354
-0.464807 -7.16652 -7.16652
-0.243039 -7.1715 -7.1715
-0.238885 -7.0403 -7.0403
-0.461967 -7.10085 -7.10085
-0.353906 -7.16891 -7.16891
-0.240957 -7.10578 -7.10578
-0.348991 -7.03775 -7.03775
-0.351444 -7.10322 -7.10322
-0.464807 -7.16652 -7.16652
-0.470506 -7.29853 -7.29853
-0.247233 -7.30359 -7.30359
-0.243039 -7.1715 -7.1715
-0.467654 -7.23241 -7.23241
-0.358852 -7.30097 -7.30097
-0.245131 -7.23743 -7.23743
-0.353906 -7.16891 -7.16891
-0.356375 -7.23483 -7.23483
-0.470506 -7.29853 -7.29853
-0.476228 -7.43142 -7.43142
-0.251464 -7.43658 -7.43658
-0.247233 -7.30359 -7.30359
-0.473364 -7.36486 -7.36486
-0.363828 -7.43391 -7.43391
-0.249344 -7.36998 -7.36998
-0.358852 -7.30097 -7.30097
-0.361336 -7.36733 -7.36733
-0.476228 -7.43142 -7.43142
-0.481973 -7.5652 -7.5652
-0.255735 -7.57044 -7.57044
-0.251464 -7.43658 -7.43658
-0.479097 -7.4982 -7.4982
-0.368836 -7.56773 -7.56773
-0.253595 -7.5034 -7.5034
-0.363828 -7.43391 -7.43391
-0.366328 -7.50071 -7.50071
-0.481973 -7.5652 -7.5652
-0.487741 -7.69985 -7.69985
-0.260043 -7.70517 -7.70517
-0.255735 -7.57044 -7.57044
-0.484854 -7.63242 -7.63242
-0.373874 -7.70242 -7.70242
-0.257884 -7.6377 -7.6377
-0.368836 -7.56773 -7.56773
-0.371351 -7.63497 -7.63497
-0.487741 -7.69985 -7.69985
-0.493532 -7.83535 -7.83535
-0.26439 -7.84076 -7.84076
-0.260043 -7.70517 -7.70517
-0.490633 -7.76749 -7.76749
-0.378943 -7.83797 -7.83797
-0.262212 -7.77286 -7.77286
-0.373874 -7.70242 -7.70242
-0.376405 -7.77009 -7.77009
-0.493532 -7.83535 -7.83535
-0.499345 -7.97171 -7.97171
-0.268774 -7.97721 -7.97721
-0.26439 -7.84076 -7.84076
-0.496436 -7.90343 -7.90343
-0.384042 -7.97437 -7.97437
-0.266577 -7.90888 -7.90888
-0.378943 -7.83797 -7.83797
-0.381489 -7.90606 -7.90606
-0.499345 -7.97171 -7.97171
-0.505181 -8.10891 -8.10891
-0.273196 -8.11449 -8.11449
-0.268774 -7.97721 -7.97721
-0.50226 -8.04021 -8.04021
-0.389171 -8.11161 -8.11161
-0.270981 -8.04574 -8.04574
-0.384042 -7.97437 -7.97437
-0.386603 -8.04289 -8.04289
-0.505181 -8.10891 -8.10891
-0.511039 -8.24695 -8.24695
-0.277656 -8.25261 -8.25261
-0.273196 -8.11449 -8.11449
-0.508107 -8.17783 -8.17783
-0.39433 -8.24969 -8.24969
-0.275422 -8.18344 -8.18344
-0.389171 -8.11161 -8.11161
-0.391747 -8.18055 -8.18055
-0.511039 -8.24695 -8.24695
-0.516918 -8.3858 -8.3858
-0.282153 -8.39155 -8.39155
-0.277656 -8.25261 -8.25261
-0.513976 -8.31627 -8.31627
-0.399518 -8.38859 -8.38859
-0.2799 -8.32197 -8.32197
-0.39433 -8.24969 -8.24969
-0.39692 -8.31904 -8.31904
-0.516918 -8.3858 -8.3858
-0.52282 -8.52548 -8.52548
-0.286687 -8.5313 -8.5313
-0.282153 -8.39155 -8.39155
-0.519867 -8.45554 -8.45554
-0.404736 -8.5283 -8.5283
-0.284415 -8.46132 -8.46132
-0.399518 -8.38859 -8.38859
-0.402124 -8.45835 -8.45835
-0.52282 -8.52548 -8.52548
-0.528743 -8.66596 -8.66596
-0.291258 -8.67186 -8.67186
-0.286687 -8.5313 -8.5313
-0.525779 -8.59562 -8.59562
-0.409983 -8.66883 -8.66883
-0.288968 -8.60148 -8.60148
-0.404736 -8.5283 -8.5283
-0.407356 -8.59846 -8.59846
-0.528743 -8.66596 -8.66596
-0.534687 -8.80723 -8.80723
-0.295865 -8.81322 -8.81322
-0.291258 -8.67186 -8.67186
-0.531713 -8.73649 -8.73649
-0.415259 -8.81014 -8.81014
-0.293557 -8.74244 -8.74244
-0.409983 -8.66883 -8.66883
-0.412617 -8.73939 -8.73939
-0.534687 -8.80723 -8.80723
-0.540653 -8.9493 -8.9493
-0.300509 -8.95537 -8.95537
-0.295865 -8.81322 -8.81322
-0.537667 -8.87817 -8.87817
-0.420563 -8.95225 -8.95225
-0.298182 -8.8842 -8.8842
-0.415259 -8.81014 -8.81014
-0.417908 -8.8811 -8.8811
-0.540653 -8.9493 -8.9493
-0.546639 -9.09214 -9.09214
-0.305188 -9.09829 -9.09829
-0.300509 -8.95537 -8.95537
-0.543643 -9.02062 -9.02062
-0.425896 -9.09513 -9.09513
-0.302844 -9.02673 -9.02673
-0.420563 -8.95225 -8.95225
-0.423226 -9.02359 -9.02359
-0.546639 -9.09214 -9.09214
-0.552645 -9.23575 -9.23575
-0.309904 -9.24199 -9.24199
-0.305188 -9.09829 -9.09829
-0.549639 -9.16385 -9.16385
-0.431257 -9.23879 -9.23879
-0.307542 -9.17004 -9.17004
-0.425896 -9.09513 -9.09513
-0.428573 -9.16686 -9.16686
-0.552645 -9.23575 -9.23575
-0.558671 -9.38012 -9.38012
-0.314655 -9.38644 -9.38644
-0.309904 -9.24199 -9.24199
-0.555656 -9.30784 -9.30784
-0.436646 -9.3832 -9.3832
-0.312275 -9.31412 -9.31412
-0.431257 -9.23879 -9.23879
-0.433948 -9.3109 -9.3109
-0.558671 -9.38012 -9.38012
-0.564718 -9.52525 -9.52525
-0.319441 -9.53164 -9.53164
-0.314655 -9.38644 -9.38644
-0.561692 -9.45259 -9.45259
-0.442062 -9.52837 -9.52837
-0.317043 -9.45895 -9.45895
-0.436646 -9.3832 -9.3832
-0.439351 -9.45569 -9.45569
-0.564718 -9.52525 -9.52525
-0.570784 -9.67112 -9.67112
-0.324262 -9.67759 -9.67759
-0.319441 -9.53164 -9.53164
-0.567748 -9.59809 -9.59809
-0.447506 -9.67428 -9.67428
-0.321847 -9.60453 -9.60453
-0.442062 -9.52837 -9.52837
-0.444781 -9.60123 -9.60123
-0.570784 -9.67112 -9.67112
-0.576869 -9.81772 -9.81772
-0.329117 -9.82427 -9.82427
-0.324262 -9.67759 -9.67759
-0.573824 -9.74433 -9.74433
-0.452976 -9.82092 -9.82092
-0.326685 -9.75084 -9.75084
-0.447506 -9.67428 -9.67428
-0.450238 -9.74751 -9.74751
-0.576869 -9.81772 -9.81772
-0.582973 -9.96505 -9.96505
-0.334007 -9.97168 -9.97168
-0.329117 -9.82427 -9.82427
-0.579919 -9.89129 -9.89129
-0.458473 -9.96829 -9.96829
-0.331558 -9.89789 -9.89789
-0.452976 -9.82092 -9.82092
-0.455721 -9.89451 -9.89451
-0.582973 -9.96505 -9.96505
-0.589096 -10.1131 -10.1131
-0.338931 -10.1198 -10.1198
-0.334007 -9.97168 -9.97168
-0.586032 -10.039 -10.039
-0.463997 -10.1164 -10.1164
-0.336465 -10.0456 -10.0456
-0.458473 -9.96829 -9.96829
-0.461232 -10.0422 -10.0422
-0.589096 -10.1131 -10.1131
-0.595237 -10.2618 -10.2618
-0.343888 -10.2686 -10.2686
-0.338931 -10.1198 -10.1198
-0.592165 -10.1874 -10.1874
-0.469546 -10.2652 -10.2652
-0.341406 -10.1941 -10.1941
-0.463997 -10.1164 -10.1164
-0.466768 -10.1907 -10.1907
-0.595237 -10.2618 -10.2618
-0.601396 -10.4113 -10.4113
-0.348879 -10.4181 -10.4181
-0.343888 -10.2686 -10.2686
-0.598315 -10.3365 -10.3365
-0.475121 -10.4146 -10.4146
-0.34638 -10.3433 -10.3433
-0.469546 -10.2652 -10.2652
-0.47233 -10.3398 -10.3398
-0.601396 -10.4113 -10.4113
-0.607573 -10.5614 -10.5614
-0.353903 -10.5684 -10.5684
-0.348879 -10.4181 -10.4181
-0.604483 -10.4863 -10.4863
-0.480721 -10.5648 -10.5648
-0.351387 -10.4932 -10.4932
-0.475121 -10.4146 -10.4146
-0.477918 -10.4896 -10.4896
-0.607573 -10.5614 -10.5614
-0.613767 -10.7122 -10.7122
-0.358959 -10.7192 -10.7192
-0.353903 -10.5684 -10.5684
-0.610668 -10.6367 -10.6367
-0.486346 -10.7157 -10.7157
-0.356427 -10.6437 -10.6437
-0.480721 -10.5648 -10.5648
-0.483531 -10.6402 -10.6402
-0.613767 -10.7122 -10.7122
-0.619978 -10.8637 -10.8637
-0.364047 -10.8708 -10.8708
-0.358959 -10.7192 -10.7192
-0.616871 -10.7879 -10.7879
-0.491996 -10.8672 -10.8672
-0.361499 -10.7949 -10.7949
-0.486346 -10.7157 -10.7157
-0.489168 -10.7913 -10.7913
-0.619978 -10.8637 -10.8637
-0.626206 -11.0159 -11.0159
-0.369168 -11.023 -11.023
-0.364047 -10.8708 -10.8708
-0.62309 -10.9397 -10.9397
-0.49767 -11.0194 -11.0194
-0.366604 -10.9468 -10.9468
-0.491996 -10.8672 -10.8672
-0.49483 -10.9432 -10.9432
-0.626206 -11.0159 -11.0159
-0.63245 -11.1687 -11.1687
-0.37432 -11.1759 -11.1759
-0.369168 -11.023 -11.023
-0.629326 -11.0922 -11.0922
-0.503368 -11.1722 -11.1722
-0.37174 -11.0994 -11.0994
-0.49767 -11.0194 -11.0194
-0.500516 -11.0957 -11.0957
-0.63245 -11.1687 -11.1687
-0.638709 -11.3221 -11.3221
-0.379502 -11.3294 -11.3294
-0.37432 -11.1759 -11.1759
-0.635577 -11.2453 -11.2453
-0.509089 -11.3257 -11.3257
-0.376907 -11.2526 -11.2526
-0.503368 -11.1722 -11.1722
-0.506226 -11.2489 -11.2489
-0.638709 -11.3221 -11.3221
-0.644984 -11.4762 -11.4762
-0.384716 -11.4836 -11.4836
-0.379502 -11.3294 -11.3294
-0.641845 -11.3991 -11.3991
-0.514833 -11.4798 -11.4798
-0.382105 -11.4064 -11.4064
-0.509089 -11.3257 -11.3257
-0.511958 -11.4027 -11.4027
-0.644984 -11.4762 -11.4762
-0.651274 -11.6309 -11.6309
-0.38996 -11.6383 -11.6383
-0.384716 -11.4836 -11.4836
-0.648127 -11.5535 -11.5535
-0.5206 -11.6345 -11.6345
-0.387334 -11.5609 -11.5609
-0.514833 -11.4798 -11.4798
-0.517714 -11.5571 -11.5571
-0.651274 -11.6309 -11.6309
-0.657579 -11.7862 -11.7862
-0.395234 -11.7937 -11.7937
-0.38996 -11.6383 -11.6383
-0.654424 -11.7085 -11.7085
-0.52639 -11.7899 -11.7899
-0.392593 -11.716 -11.716
-0.5206 -11.6345 -11.6345
-0.523492 -11.7121 -11.7121
-0.657579 -11.7862 -11.7862
-0.663897 -11.9421 -11.9421
-0.400537 -11.9497 -11.9497
-0.395234 -11.7937 -11.7937
-0.660736 -11.8641 -11.8641
-0.532201 -11.9459 -11.9459
-0.397882 -11.8716 -11.8716
-0.52639 -11.7899 -11.7899
-0.529293 -11.8678 -11.8678
-0.663897 -11.9421 -11.9421
-0.67023 -12.0986 -12.0986
-0.40587 -12.1063 -12.1063
-0.400537 -11.9497 -11.9497
-0.667062 -12.0203 -12.0203
-0.538034 -12.1024 -12.1024
-0.4032 -12.0279 -12.0279
-0.532201 -11.9459 -11.9459
-0.535115 -12.0241 -12.0241
-0.67023 -12.0986 -12.0986
-0.676576 -12.2558 -12.2558
-0.411231 -12.2635 -12.2635
-0.40587 -12.1063 -12.1063
-0.673401 -12.1771 -12.1771
-0.543887 -12.2596 -12.2596
-0.408547 -12.1848 -12.1848
-0.538034 -12.1024 -12.1024
-0.540958 -12.1809 -12.1809
-0.676576 -12.2558 -12.2558
-0.682935 -12.4134 -12.4134
-0.416621 -12.4212 -12.4212
-0.411231 -12.2635 -12.2635
-0.679754 -12.3345 -12.3345
-0.549762 -12.4173 -12.4173
-0.413923 -12.3423 -12.3423
-0.543887 -12.2596 -12.2596
-0.546822 -12.3384 -12.3384
-0.682935 -12.4134 -12.4134
-0.689307 -12.5717 -12.5717
-0.422038 -12.5796 -12.5796
-0.416621 -12.4212 -12.4212
-0.686119 -12.4925 -12.4925
-0.555656 -12.5756 -12.5756
-0.419326 -12.5003 -12.5003
-0.549762 -12.4173 -12.4173
-0.552706 -12.4964 -12.4964
-0.689307 -12.5717 -12.5717
-0.69569 -12.7305 -12.7305
-0.427483 -12.7385 -12.7385
-0.422038 -12.5796 -12.5796
-0.692497 -12.6511 -12.6511
-0.56157 -12.7344 -12.7344
-0.424757 -12.659 -12.659
-0.555656 -12.5756 -12.5756
-0.558611 -12.6549 -12.6549
-0.69569 -12.7305 -12.7305
-0.702086 -12.8899 -12.8899
-0.432955 -12.8979 -12.8979
-0.427483 -12.7385 -12.7385
-0.698887 -12.8102 -12.8102
-0.567504 -12.8939 -12.8939
-0.430215 -12.8181 -12.8181
-0.56157 -12.7344 -12.7344
-0.564535 -12.8141 -12.8141
-0.702086 -12.8899 -12.8899
-0.708492 -13.0498 -13.0498
-0.438453 -13.0579 -13.0579
-0.432955 -12.8979 -12.8979
-0.705288 -12.9698 -12.9698
-0.573456 -13.0538 -13.0538
-0.4357 -12.9778 -12.9778
-0.567504 -12.8939 -12.8939
-0.570478 -12.9738 -12.9738
-0.708492 -13.0498 -13.0498
-0.71491 -13.2103 -13.2103
-0.443977 -13.2184 -13.2184
-0.438453 -13.0579 -13.0579
-0.7117 -13.13 -13.13
-0.579427 -13.2143 -13.2143
-0.441212 -13.1381 -13.1381
-0.573456 -13.0538 -13.0538
-0.57644 -13.134 -13.134
-0.71491 -13.2103 -13.2103
-0.721337 -13.3713 -13.3713
-0.449527 -13.3795 -13.3795
-0.443977 -13.2184 -13.2184
-0.718122 -13.2907 -13.2907
-0.585416 -13.3753 -13.3753
-0.446749 -13.2989 -13.2989
-0.579427 -13.2143 -13.2143
-0.582419 -13.2947 -13.2947
-0.721337 -13.3713 -13.3713
-0.727775 -13.5328 -13.5328
-0.455102 -13.541 -13.541
-0.449527 -13.3795 -13.3795
-0.724555 -13.452 -13.452
-0.591422 -13.5368 -13.5368
-0.452311 -13.4602 -13.4602
-0.585416 -13.3753 -13.3753
-0.588417 -13.456 -13.456
-0.727775 -13.5328 -13.5328
-0.734222 -13.6948 -13.6948
-0.460702 -13.7031 -13.7031
-0.455102 -13.541 -13.541
-0.730997 -13.6137 -13.6137
-0.597446 -13.6989 -13.6989
-0.457899 -13.622 -13.622
-0.591422 -13.5368 -13.5368
-0.594432 -13.6178 -13.6178
-0.734222 -13.6948 -13.6948
-0.740677 -13.8573 -13.8573
-0.466326 -13.8657 -13.8657
-0.460702 -13.7031 -13.7031
-0.737448 -13.776 -13.776
-0.603485 -13.8614 -13.8614
-0.463511 -13.7843 -13.7843
-0.597446 -13.6989 -13.6989
-0.600464 -13.7801 -13.7801
-0.740677 -13.8573 -13.8573
-0.747141 -14.0203 -14.0203
-0.471973 -14.0287 -14.0287
-0.466326 -13.8657 -13.8657
-0.743908 -13.9387 -13.9387
-0.609541 -14.0244 -14.0244
-0.469146 -13.9471 -13.9471
-0.603485 -13.8614 -13.8614
-0.606511 -13.9429 -13.9429
-0.747141 -14.0203 -14.0203
-0.753613 -14.1837 -14.1837
-0.477644 -14.1922 -14.1922
-0.471973 -14.0287 -14.0287
-0.750376 -14.1019 -14.1019
-0.615613 -14.1879 -14.1879
-0.474806 -14.1104 -14.1104
-0.609541 -14.0244 -14.0244
-0.612575 -14.1061 -14.1061
-0.753613 -14.1837 -14.1837
-0.760093 -14.3477 -14.3477
-0.483337 -14.3562 -14.3562
-0.477644 -14.1922 -14.1922
-0.756852 -14.2657 -14.2657
-0.621699 -14.3519 -14.3519
-0.480488 -14.2742 -14.2742
-0.615613 -14.1879 -14.1879
-0.618654 -14.2699 -14.2699
-0.760093 -14.3477 -14.3477
-0.766579 -14.5121 -14.5121
-0.489053 -14.5207 -14.5207
-0.483337 -14.3562 -14.3562
-0.763335 -14.4298 -14.4298
-0.6278 -14.5164 -14.5164
-0.486192 -14.4384 -14.4384
-0.621699 -14.3519 -14.3519
-0.624748 -14.4341 -14.4341
-0.766579 -14.5121 -14.5121
-0.773072 -14.677 -14.677
-0.49479 -14.6856 -14.6856
-0.489053 -14.5207 -14.5207
-0.769825 -14.5945 -14.5945
-0.633915 -14.6813 -14.6813
-0.491919 -14.6031 -14.6031
-0.6278 -14.5164 -14.5164
-0.630856 -14.5987 -14.5987
-0.773072 -14.677 -14.677
-0.77957 -14.8423 -14.8423
-0.500549 -14.851 -14.851
-0.49479 -14.6856 -14.6856
-0.77632 -14.7596 -14.7596
-0.640044 -14.8466 -14.8466
-0.497667 -14.7683 -14.7683
-0.633915 -14.6813 -14.6813
-0.636978 -14.7639 -14.7639
-0.77957 -14.8423 -14.8423
-0.786075 -15.008 -15.008
-0.506328 -15.0168 -15.0168
-0.500549 -14.851 -14.851
-0.782822 -14.9251 -14.9251
-0.646186 -15.0124 -15.0124
-0.503436 -14.9338 -14.9338
-0.640044 -14.8466 -14.8466
-0.643113 -14.9294 -14.9294
-0.786075 -15.008 -15.008
-0.792584 -15.1742 -15.1742
-0.512127 -15.183 -15.183
-0.506328 -15.0168 -15.0168
-0.789328 -15.091 -15.091
-0.65234 -15.1786 -15.1786
-0.509225 -15.0998 -15.0998
-0.646186 -15.0124 -15.0124
-0.649261 -15.0954 -15.0954
-0.792584 -15.1742 -15.1742
-0.799097 -15.3408 -15.3408
-0.517946 -15.3497 -15.3497
-0.512127 -15.183 -15.183
-0.79584 -15.2574 -15.2574
-0.658506 -15.3452 -15.3452
-0.515034 -15.2663 -15.2663
-0.65234 -15.1786 -15.1786
-0.655422 -15.2618 -15.2618
-0.799097 -15.3408 -15.3408
-0.805614 -15.5078 -15.5078
-0.523785 -15.5167 -15.5167
-0.517946 -15.3497 -15.3497
-0.802355 -15.4242 -15.4242
-0.664684 -15.5122 -15.5122
-0.520863 -15.4331 -15.4331
-0.658506 -15.3452 -15.3452
-0.661594 -15.4286 -15.4286
-0.805614 -15.5078 -15.5078
-0.812134 -15.6752 -15.6752
-0.529641 -15.6841 -15.6841
-0.523785 -15.5167 -15.5167
-0.808874 -15.5914 -15.5914
-0.670873 -15.6796 -15.6796
-0.526711 -15.6004 -15.6004
-0.664684 -15.5122 -15.5122
-0.667777 -15.5958 -15.5958
-0.812134 -15.6752 -15.6752
-0.818658 -15.8429 -15.8429
-0.535516 -15.852 -15.852
-0.529641 -15.6841 -15.6841
-0.815396 -15.759 -15.759
-0.677072 -15.8474 -15.8474
-0.532576 -15.768 -15.768
-0.670873 -15.6796 -15.6796
-0.673971 -15.7635 -15.7635
-0.818658 -15.8429 -15.8429
-0.825183 -16.0111 -16.0111
-0.541408 -16.0202 -16.0202
-0.535516 -15.852 -15.852
-0.82192 -15.927 -15.927
-0.683281 -16.0156 -16.0156
-0.53846 -15.936 -15.936
-0.677072 -15.8474 -15.8474
-0.680175 -15.9315 -15.9315
-0.825183 -16.0111 -16.0111
-0.83171 -16.1796 -16.1796
-0.547318 -16.1888 -16.1888
-0.541408 -16.0202 -16.0202
-0.828447 -16.0953 -16.0953
-0.689499 -16.1842 -16.1842
-0.544361 -16.1044 -16.1044
-0.683281 -16.0156 -16.0156
-0.686389 -16.0998 -16.0998
-0.83171 -16.1796 -16.1796
-0.838239 -16.3485 -16.3485
-0.553243 -16.3577 -16.3577
-0.547318 -16.1888 -16.1888
-0.834974 -16.264 -16.264
-0.695726 -16.3531 -16.3531
-0.550278 -16.2732 -16.2732
-0.689499 -16.1842 -16.1842
-0.692611 -16.2686 -16.2686
-0.838239 -16.3485 -16.3485
-0.844767 -16.5178 -16.5178
-0.559185 -16.527 -16.527
-0.553243 -16.3577 -16.3577
-0.841503 -16.4331 -16.4331
-0.701961 -16.5224 -16.5224
-0.556212 -16.4423 -16.4423
-0.695726 -16.3531 -16.3531
-0.698843 -16.4377 -16.4377
-0.844767 -16.5178 -16.5178
-0.851296 -16.6874 -16.6874
-0.565142 -16.6967 -16.6967
-0.559185 -16.527 -16.527
-0.848032 -16.6025 -16.6025
-0.708204 -16.692 -16.692
-0.562161 -16.6118 -16.6118
-0.701961 -16.5224 -16.5224
-0.705082 -16.6071 -16.6071
-0.851296 -16.6874 -16.6874
-0.857825 -16.8573 -16.8573
-0.571113 -16.8666 -16.8666
-0.565142 -16.6967 -16.6967
-0.854561 -16.7723 -16.7723
-0.714454 -16.8619 -16.8619
-0.568126 -16.7816 -16.7816
-0.708204 -16.692 -16.692
-0.711328 -16.7769 -16.7769
-0.857825 -16.8573 -16.8573
-0.864352 -17.0276 -17.0276
-0.577099 -17.037 -17.037
-0.571113 -16.8666 -16.8666
-0.861089 -16.9424 -16.9424
-0.720711 -17.0322 -17.0322
-0.574105 -16.9518 -16.9518
-0.714454 -16.8619 -16.8619
-0.717582 -16.9471 -16.9471
-0.864352 -17.0276 -17.0276
-0.870878 -17.1982 -17.1982
-0.583099 -17.2076 -17.2076
-0.577099 -17.037 -17.037
-0.867615 -17.1128 -17.1128
-0.726973 -17.2028 -17.2028
-0.580097 -17.1222 -17.1222
-0.720711 -17.0322 -17.0322
-0.723841 -17.1175 -17.1175
-0.870878 -17.1982 -17.1982
-0.877401 -17.369 -17.369
-0.589111 -17.3785 -17.3785
-0.583099 -17.2076 -17.2076
-0.87414 -17.2836 -17.2836
-0.733241 -17.3737 -17.3737
-0.586103 -17.293 -17.293
-0.726973 -17.2028 -17.2028
-0.730107 -17.2883 -17.2883
-0.877401 -17.369 -17.369
-0.883922 -17.5402 -17.5402
-0.595136 -17.5497 -17.5497
-0.589111 -17.3785 -17.3785
-0.880662 -17.4546 -17.4546
-0.739514 -17.545 -17.545
-0.592122 -17.4641 -17.4641
-0.733241 -17.3737 -17.3737
-0.736377 -17.4593 -17.4593
-0.883922 -17.5402 -17.5402
-0.890439 -17.7117 -17.7117
-0.601173 -17.7213 -17.7213
-0.595136 -17.5497 -17.5497
-0.887181 -17.6259 -17.6259
-0.745791 -17.7165 -17.7165
-0.598153 -17.6355 -17.6355
-0.739514 -17.545 -17.545
-0.742652 -17.6307 -17.6307
-0.890439 -17.7117 -17.7117
-0.896952 -17.8835 -17.8835
-0.607221 -17.8931 -17.8931
-0.601173 -17.7213 -17.7213
-0.893696 -17.7976 -17.7976
-0.752072 -17.8882 -17.8882
-0.604196 -17.8071 -17.8071
-0.745791 -17.7165 -17.7165
-0.748931 -17.8023 -17.8023
-0.896952 -17.8835 -17.8835
-0.903461 -18.0555 -18.0555
-0.61328 -18.0651 -18.0651
-0.607221 -17.8931 -17.8931
-0.900207 -17.9695 -17.9695
-0.758356 -18.0603 -18.0603
-0.610249 -17.9791 -17.9791
-0.752072 -17.8882 -17.8882
-0.755214 -17.9742 -17.9742
-0.903461 -18.0555 -18.0555
-0.909965 -18.2278 -18.2278
-0.619349 -18.2375 -18.2375
-0.61328 -18.0651 -18.0651
-0.906714 -18.1416 -18.1416
-0.764643 -18.2326 -18.2326
-0.616313 -18.1513 -18.1513
-0.758356 -18.0603 -18.0603
-0.761499 -18.1464 -18.1464
-0.909965 -18.2278 -18.2278
-0.916463 -18.4004 -18.4004
-0.625428 -18.41 -18.41
-0.619349 -18.2375 -18.2375
-0.913215 -18.314 -18.314
-0.770931 -18.4052 -18.4052
-0.622387 -18.3237 -18.3237
-0.764643 -18.2326 -18.2326
-0.767787 -18.3189 -18.3189
-0.916463 -18.4004 -18.4004
-0.922955 -18.5732 -18.5732
-0.631516 -18.5829 -18.5829
-0.625428 -18.41 -18.41
-0.91971 -18.4867 -18.4867
-0.777221 -18.578 -18.578
-0.628471 -18.4964 -18.4964
-0.770931 -18.4052 -18.4052
-0.774076 -18.4916 -18.4916
-0.922955 -18.5732 -18.5732
-0.929439 -18.7462 -18.7462
-0.637612 -18.7559 -18.7559
-0.631516 -18.5829 -18.5829
-0.926198 -18.6596 -18.6596
-0.783511 -18.751 -18.751
-0.634563 -18.6694 -18.6694
-0.777221 -18.578 -18.578
-0.780366 -18.6645 -18.6645
-0.929439 -18.7462 -18.7462
-0.935917 -18.9194 -18.9194
-0.643716 -18.9292 -18.9292
-0.637612 -18.7559 -18.7559
-0.932679 -18.8328 -18.8328
-0.789802 -18.9243 -18.9243
-0.640663 -18.8426 -18.8426
-0.783511 -18.751 -18.751
-0.786657 -18.8377 -18.8377
-0.935917 -18.9194 -18.9194
-0.942386 -19.0929 -19.0929
-0.649827 -19.1027 -19.1027
-0.643716 -18.9292 -18.9292
-0.939152 -19.0062 -19.0062
-0.796092 -19.0978 -19.0978
-0.64677 -19.016 -19.016
-0.789802 -18.9243 -18.9243
-0.792947 -19.011 -19.011
-0.942386 -19.0929 -19.0929
-0.948847 -19.2666 -19.2666
-0.655944 -19.2765 -19.2765
-0.649827 -19.1027 -19.1027
-0.945617 -19.1797 -19.1797
-0.802381 -19.2715 -19.2715
-0.652885 -19.1896 -19.1896
-0.796092 -19.0978 -19.0978
-0.799237 -19.1846 -19.1846
-0.948847 -19.2666 -19.2666
-0.955298 -19.4405 -19.4405
-0.662068 -19.4504 -19.4504
-0.655944 -19.2765 -19.2765
-0.952074 -19.3535 -19.3535
-0.808669 -19.4454 -19.4454
-0.659005 -19.3634 -19.3634
-0.802381 -19.2715 -19.2715
-0.805526 -19.3584 -19.3584
-0.955298 -19.4405 -19.4405
-0.961739 -19.6146 -19.6146
-0.668197 -19.6245 -19.6245
-0.662068 -19.4504 -19.4504
-0.95852 -19.5275 -19.5275
-0.814954 -19.6195 -19.6195
-0.665132 -19.5374 -19.5374
-0.808669 -19.4454 -19.4454
-0.811812 -19.5325 -19.5325
-0.961739 -19.6146 -19.6146
-0.96817 -19.7888 -19.7888
-0.674331 -19.7988 -19.7988
-0.668197 -19.6245 -19.6245
-0.964956 -19.7017 -19.7017
-0.821237 -19.7938 -19.7938
-0.671263 -19.7116 -19.7116
-0.814954 -19.6195 -19.6195
-0.818096 -19.7066 -19.7066
-0.96817 -19.7888 -19.7888
-0.97459 -19.9633 -19.9633
-0.680469 -19.9733 -19.9733
-0.674331 -19.7988 -19.7988
-0.971382 -19.876 -19.876
-0.827516 -19.9683 -19.9683
-0.677399 -19.886 -19.886
-0.821237 -19.7938 -19.7938
-0.824377 -19.881 -19.881
-0.97459 -19.9633 -19.9633
-0.980998 -20.1379 -20.1379
-0.68661 -20.1479 -20.1479
-0.680469 -19.9733 -19.9733
-0.977796 -20.0506 -20.0506
-0.833791 -20.1429 -20.1429
-0.683539 -20.0605 -20.0605
-0.827516 -19.9683 -19.9683
-0.830654 -20.0555 -20.0555
-0.980998 -20.1379 -20.1379
-0.987394 -20.3126 -20.3126
-0.692755 -20.3227 -20.3227
-0.68661 -20.1479 -20.1479
-0.984198 -20.2252 -20.2252
-0.840061 -20.3176 -20.3176
-0.689682 -20.2353 -20.2353
-0.833791 -20.1429 -20.1429
-0.836926 -20.2302 -20.2302
-0.987394 -20.3126 -20.3126
-0.993777 -20.4875 -20.4875
-0.698902 -20.4976 -20.4976
-0.692755 -20.3227 -20.3227
-0.990587 -20.4001 -20.4001
-0.846326 -20.4925 -20.4925
-0.695828 -20.4101 -20.4101
-0.840061 -20.3176 -20.3176
-0.843194 -20.4051 -20.4051
-0.993777 -20.4875 -20.4875
-1.00015 -20.6626 -20.6626
-0.70505 -20.6726 -20.6726
-0.698902 -20.4976 -20.4976
-0.996964 -20.575 -20.575
-0.852585 -20.6676 -20.6676
-0.701976 -20.5851 -20.5851
-0.846326 -20.4925 -20.4925
-0.849456 -20.5801 -20.5801
-1.00015 -20.6626 -20.6626
-1.0065 -20.8377 -20.8377
-0.7112 -20.8478 -20.8478
-0.70505 -20.6726 -20.6726
-1.00333 -20.7501 -20.7501
-0.858837 -20.8428 -20.8428
-0.708125 -20.7602 -20.7602
-0.852585 -20.6676 -20.6676
-0.855712 -20.7552 -20.7552
-1.0065 -20.8377 -20.8377
-1.01284 -21.013 -21.013
-0.71735 -21.0231 -21.0231
-0.7112 -20.8478 -20.8478
-1.00967 -20.9254 -20.9254
-0.865083 -21.0181 -21.0181
-0.714275 -20.9355 -20.9355
-0.858837 -20.8428 -20.8428
-0.861961 -20.9304 -20.9304
-1.01284 -21.013 -21.013
-1.01917 -21.1884 -21.1884
-0.7235 -21.1986 -21.1986
-0.71735 -21.0231 -21.0231
-1.01601 -21.1007 -21.1007
-0.87132 -21.1935 -21.1935
-0.720425 -21.1108 -21.1108
-0.865083 -21.0181 -21.0181
-0.868203 -21.1058 -21.1058
-1.01917 -21.1884 -21.1884
-1.02548 -21.3639 -21.3639
-0.729649 -21.3741 -21.3741
-0.7235 -21.1986 -21.1986
-1.02232 -21.2762 -21.2762
-0.877549 -21.369 -21.369
-0.726575 -21.2863 -21.2863
-0.87132 -21.1935 -21.1935
-0.874436 -21.2812 -21.2812
-1.02548 -21.3639 -21.3639
-1.03177 -21.5395 -21.5395
-0.735797 -21.5497 -21.5497
-0.729649 -21.3741 -21.3741
-1.02862 -21.4517 -21.4517
-0.883769 -21.5446 -21.5446
-0.732723 -21.4619 -21.4619
-0.877549 -21.369 -21.369
-0.88066 -21.4568 -21.4568
-1.03177 -21.5395 -21.5395
-1.03804 -21.7152 -21.7152
-0.741942 -21.7254 -21.7254
-0.735797 -21.5497 -21.5497
-1.03491 -21.6273 -21.6273
-0.889977 -21.7203 -21.7203
-0.73887 -21.6375 -21.6375
-0.883769 -21.5446 -21.5446
-0.886874 -21.6324 -21.6324
-1.03804 -21.7152 -21.7152
-1.04429 -21.8909 -21.8909
-0.748084 -21.9011 -21.9011
-0.741942 -21.7254 -21.7254
-1.04117 -21.8031 -21.8031
-0.896174 -21.896 -21.896
-0.745014 -21.8133 -21.8133
-0.889977 -21.7203 -21.7203
-0.893078 -21.8081 -21.8081
-1.04429 -21.8909 -21.8909
-1.05052 -22.0668 -22.0668
-0.754221 -22.077 -22.077
-0.748084 -21.9011 -21.9011
-1.04741 -21.9788 -21.9788
-0.902358 -22.0719 -22.0719
-0.751153 -21.9891 -21.9891
-0.896174 -21.896 -21.896
-0.899268 -21.9839 -21.9839
-1.05052 -22.0668 -22.0668
-1.05673 -22.2426 -22.2426
-0.760353 -22.2529 -22.2529
-0.754221 -22.077 -22.077
-1.05363 -22.1547 -22.1547
-0.908525 -22.2477 -22.2477
-0.757288 -22.1649 -22.1649
-0.902358 -22.0719 -22.0719
-0.905443 -22.1598 -22.1598
-1.05673 -22.2426 -22.2426
-1.06291 -22.4186 -22.4186
-0.766477 -22.4288 -22.4288
-0.760353 -22.2529 -22.2529
-1.05983 -22.3306 -22.3306
-0.914675 -22.4237 -22.4237
-0.763416 -22.3408 -22.3408
-0.908525 -22.2477 -22.2477
-0.911602 -22.3357 -22.3357
-1.06291 -22.4186 -22.4186
-1.06906 -22.5945 -22.5945
-0.772594 -22.6048 -22.6048
-0.766477 -22.4288 -22.4288
-1.06599 -22.5065 -22.5065
-0.920809 -22.5996 -22.5996
-0.769536 -22.5168 -22.5168
-0.914675 -22.4237 -22.4237
-0.917744 -22.5117 -22.5117
-1.06906 -22.5945 -22.5945
-1.07519 -22.7705 -22.7705
-0.778707 -22.7807 -22.7807
-0.772594 -22.6048 -22.6048
-1.07213 -22.6825 -22.6825
-0.92693 -22.7756 -22.7756
-0.775651 -22.6928 -22.6928
-0.920809 -22.5996 -22.5996
-0.92387 -22.6876 -22.6876
-1.07519 -22.7705 -22.7705
-1.08132 -22.9465 -22.9465
-0.784815 -22.9567 -22.9567
-0.778707 -22.7807 -22.7807
-1.07826 -22.8585 -22.8585
-0.93305 -22.9516 -22.9516
-0.781761 -22.8687 -22.8687
-0.92693 -22.7756 -22.7756
-0.92999 -22.8636 -22.8636
-1.08132 -22.9465 -22.9465
-1.08746 -23.1224 -23.1224
-0.790923 -23.1325 -23.1325
-0.784815 -22.9567 -22.9567
-1.08439 -23.0345 -23.0345
-0.93917 -23.1274 -23.1274
-0.787869 -23.0446 -23.0446
-0.93305 -22.9516 -22.9516
-0.93611 -23.0395 -23.0395
0 0 0
-0.00133362 0.000216545 0.000216545
0.0012927 0.000208184 0.000208184
0 0 0
-0.000664154 0.000431184 0.000431184
-2.05574e-05 0.000290515 0.000290515
0.000643096 0.000426491 0.000426491
0 0 0
-1.06275e-05 0.000462006 0.000462006
-0.00133362 0.000216545 0.000216545
-0.00277516 -0.00201318 -0.00201318
0.00269493 -0.00202907 -0.00202907
0.0012927 0.000208184 0.000208184
-0.00204108 -0.000611987 -0.000611987
-4.016e-05 -0.00189242 -0.00189242
0.00198062 -0.000624002 -0.000624002
-2.05574e-05 0.000290515 0.000290515
-3.03158e-05 -0.000509598 -0.000509598
-0.00277516 -0.00201318 -0.00201318
-0.00426903 -0.00638818 -0.00638818
0.00414681 -0.00641262 -0.00641262
0.00269493 -0.00202907 -0.00202907
-0.00351789 -0.00394709 -0.00394709
-6.0936e-05 -0.00623411 -0.00623411
0.0034172 -0.0039671 -0.0039671
-4.016e-05 -0.00189242 -0.00189242
-5.02887e-05 -0.00380835 -0.00380835
-0.00426903 -0.00638818 -0.00638818
-0.00579765 -0.0127128 -0.0127128
0.0056277 -0.0127471 -0.0127471
0.00414681 -0.00641262 -0.00641262
-0.00503082 -0.00931561 -0.00931561
-8.46119e-05 -0.0125459 -0.0125459
0.00488562 -0.00934481 -0.00934481
-6.0936e-05 -0.00623411 -0.00623411
-7.23267e-05 -0.0091527 -0.0091527
-0.00579765 -0.0127128 -0.0127128
-0.00732791 -0.0208661 -0.0208661
0.00710195 -0.0209118 -0.0209118
0.0056277 -0.0127471 -0.0127471
-0.0065634 -0.0165657 -0.0165657
-0.000112458 -0.020698 -0.020698
0.00636665 -0.0166055 -0.0166055
-8.46119e-05 -0.0125459 -0.0125459
-9.79321e-05 -0.0163971 -0.0163971
-0.00732791 -0.0208661 -0.0208661
-0.00885451 -0.0307866 -0.0307866
0.00856156 -0.0308448 -0.0308448
0.00710195 -0.0209118 -0.0209118
-0.00809199 -0.0256079 -0.0256079
-0.000145816 -0.0306247 -0.0306247
0.00783408 -0.0256597 -0.0256597
-0.000112458 -0.020698 -0.020698
-0.000128366 -0.0254422 -0.0254422
-0.00885451 -0.0307866 -0.0307866
-0.010372 -0.0424417 -0.0424417
0.00999843 -0.0425139 -0.0425139
0.00856156 -0.0308448 -0.0308448
-0.00961432 -0.0363985 -0.0363985
-0.000185991 -0.0422888 -0.0422888
0.00928292 -0.0364636 -0.0364636
-0.000145816 -0.0306247 -0.0306247
-0.000164969 -0.036241 -0.036241
-0.010372 -0.0424417 -0.0424417
-0.0118839 -0.0558154 -0.0558154
0.0114134 -0.055903 -0.055903
0.00999843 -0.0425139 -0.0425139
-0.0111285 -0.0489144 -0.0489144
-0.000234293 -0.0556726 -0.0556726
0.0107086 -0.0489941 -0.0489941
-0.000185991 -0.0422888 -0.0422888
-0.000209047 -0.0487665 -0.0487665
-0.0118839 -0.0558154 -0.0558154
-0.0133923 -0.0708974 -0.0708974
0.0128062 -0.0710018 -0.0710018
0.0114134 -0.055903 -0.055903
-0.0126383 -0.0631434 -0.0631434
-0.000291958 -0.0707652 -0.0707652
0.0121125 -0.0632392 -0.0632392
-0.000234293 -0.0556726 -0.0556726
-0.00026188 -0.0630059 -0.0630059
-0.0133923 -0.0708974 -0.0708974
-0.0149006 -0.0876796 -0.0876796
0.0141778 -0.0878025 -0.0878025
0.0128062 -0.0710018 -0.0710018
-0.0141463 -0.0790764 -0.0790764
-0.000360167 -0.0875585 -0.0875585
0.0134946 -0.0791899 -0.0791899
-0.000291958 -0.0707652 -0.0707652
-0.000324674 -0.0789498 -0.0789498
-0.0149006 -0.0876796 -0.0876796
-0.0164109 -0.106154 -0.106154
0.0155281 -0.106297 -0.106297
0.0141778 -0.0878025 -0.0878025
-0.0156554 -0.0967059 -0.0967059
-0.000440036 -0.106045 -0.106045
0.0148556 -0.0968387 -0.0968387
-0.000360167 -0.0875585 -0.0875585
-0.000398576 -0.0965905 -0.0965905
-0.0164109 -0.106154 -0.106154
-0.0179253 -0.126314 -0.126314
0.016857 -0.126478 -0.126478
0.0155281 -0.106297 -0.106297
-0.0171675 -0.116024 -0.116024
-0.000532638 -0.126216 -0.126216
0.0161953 -0.116178 -0.116178
-0.000440036 -0.106045 -0.106045
-0.00048468 -0.11592 -0.11592
-0.0179253 -0.126314 -0.126314
-0.0194452 -0.148149 -0.148149
0.0181639 -0.148337 -0.148337
0.016857 -0.126478 -0.126478
-0.0186845 -0.137022 -0.137022
-0.000639012 -0.148064 -0.148064
0.0175132 -0.137199 -0.137199
-0.000532638 -0.126216 -0.126216
-0.00058404 -0.136931 -0.136931
-0.0194452 -0.148149 -0.148149
-0.020972 -0.171652 -0.171652
0.0194481 -0.171866 -0.171866
0.0181639 -0.148337 -0.148337
-0.0202077 -0.159692 -0.159692
-0.00076017 -0.171581 -0.171581
0.0188089 -0.159893 -0.159893
-0.000639012 -0.148064 -0.148064
-0.000697681 -0.159615 -0.159615
-0.020972 -0.171652 -0.171652
-0.0225067 -0.196813 -0.196813
0.0207087 -0.197054 -0.197054
0.0194481 -0.171866 -0.171866
-0.0217382 -0.184026 -0.184026
-0.000897103 -0.196757 -0.196757
0.0200814 -0.184253 -0.184253
-0.00076017 -0.171581 -0.171581
-0.000826604 -0.183962 -0.183962
-0.0225067 -0.196813 -0.196813
-0.0240504 -0.223625 -0.223625
0.0219448 -0.223894 -0.223894
0.0207087 -0.197054 -0.197054
-0.0232773 -0.210013 -0.210013
-0.00105079 -0.223584 -0.223584
0.0213298 -0.210268 -0.210268
-0.000897103 -0.196757 -0.196757
-0.00097179 -0.209965 -0.209965
-0.0240504 -0.223625 -0.223625
-0.0256041 -0.252077 -0.252077
0.0231555 -0.252377 -0.252377
0.0219448 -0.223894 -0.223894
-0.0248259 -0.237646 -0.237646
-0.00122218 -0.252052 -0.252052
0.0225534 -0.237931 -0.237931
-0.00105079 -0.223584 -0.223584
-0.00113421 -0.237614 -0.237614
-0.0256041 -0.252077 -0.252077
-0.0271688 -0.282161 -0.282161
0.0243399 -0.282493 -0.282493
0.0231555 -0.252377 -0.252377
-0.026385 -0.266916 -0.266916
-0.00141222 -0.282153 -0.282153
0.023751 -0.267231 -0.267231
-0.00122218 -0.252052 -0.252052
-0.00131481 -0.266899 -0.266899
-0.0271688 -0.282161 -0.282161
-0.0287453 -0.313868 -0.313868
0.025497 -0.314233 -0.314233
0.0243399 -0.282493 -0.282493
-0.0279555 -0.297812 -0.297812
-0.00162184 -0.313878 -0.313878
0.0249219 -0.29816 -0.29816
-0.00141222 -0.282153 -0.282153
-0.00151453 -0.297813 -0.297813
-0.0287453 -0.313868 -0.313868
-0.0303347 -0.347188 -0.347188
0.026626 -0.347588 -0.347588
0.025497 -0.314233 -0.314233
-0.0295384 -0.330327 -0.330327
-0.00185197 -0.347217 -0.347217
0.0260651 -0.330709 -0.330709
-0.00162184 -0.313878 -0.313878
-0.00173429 -0.330346 -0.330346
-0.0303347 -0.347188 -0.347188
-0.0319379 -0.382113 -0.382113
0.0277259 -0.38255 -0.38255
0.026626 -0.347588 -0.347588
-0.0311345 -0.364451 -0.364451
-0.00210348 -0.382161 -0.382161
0.0271796 -0.364869 -0.364869
-0.00185197 -0.347217 -0.347217
-0.00197499 -0.364489 -0.364489
-0.0319379 -0.382113 -0.382113
-0.0335556 -0.418633 -0.418633
0.0287958 -0.419108 -0.419108
0.0277259 -0.38255 -0.38255
-0.0327448 -0.400174 -0.400174
-0.00237728 -0.418701 -0.418701
0.0282646 -0.40063 -0.40063
-0.00210348 -0.382161 -0.382161
-0.00223754 -0.400232 -0.400232
-0.0335556 -0.418633 -0.418633
-0.0351887 -0.45674 -0.45674
0.0298349 -0.457254 -0.457254
0.0287958 -0.419108 -0.419108
-0.0343702 -0.437489 -0.437489
-0.00267421 -0.456828 -0.456828
0.0293193 -0.437983 -0.437983
-0.00237728 -0.418701 -0.418701
-0.0025228 -0.437567 -0.437567
-0.0351887 -0.45674 -0.45674
-0.0368382 -0.496424 -0.496424
0.0308424 -0.496979 -0.496979
0.0298349 -0.457254 -0.457254
-0.0360114 -0.476386 -0.476386
-0.00299515 -0.496534 -0.496534
0.0303427 -0.47692 -0.47692
-0.00267421 -0.456828 -0.456828
-0.00283163 -0.476485 -0.476485
-0.0368382 -0.496424 -0.496424
-0.0385048 -0.537676 -0.537676
0.0318173 -0.538274 -0.538274
0.0308424 -0.496979 -0.496979
-0.0376693 -0.516855 -0.516855
-0.00334091 -0.537808 -0.537808
0.0313339 -0.517431 -0.517431
-0.00299515 -0.496534 -0.496534
-0.00316487 -0.516976 -0.516976
-0.0385048 -0.537676 -0.537676
-0.0401894 -0.580488 -0.580488
0.0327589 -0.581129 -0.581129
0.0318173 -0.538274 -0.538274
-0.0393449 -0.558888 -0.558888
-0.00371232 -0.580643 -0.580643
0.0322923 -0.559507 -0.559507
-0.00334091 -0.537808 -0.537808
-0.00352336 -0.559031 -0.559031
-0.0401894 -0.580488 -0.580488
-0.0418928 -0.624849 -0.624849
0.0336664 -0.625536 -0.625536
0.0327589 -0.581129 -0.581129
-0.0410387 -0.602475 -0.602475
-0.00411018 -0.625028 -0.625028
0.033217 -0.603139 -0.603139
-0.00371232 -0.580643 -0.580643
-0.00390789 -0.602642 -0.602642
-0.0418928 -0.624849 -0.624849
-0.0436157 -0.670752 -0.670752
0.034539 -0.671484 -0.671484
0.0336664 -0.625536 -0.625536
-0.0427518 -0.647608 -0.647608
-0.00453527 -0.670954 -0.670954
0.0341071 -0.648318 -0.648318
-0.00411018 -0.625028 -0.625028
-0.00431927 -0.647799 -0.647799
-0.0436157 -0.670752 -0.670752
-0.045359 -0.718186 -0.718186
0.0353758 -0.718966 -0.718966
0.034539 -0.671484 -0.671484
-0.0444847 -0.694278 -0.694278
-0.00498836 -0.718413 -0.718413
0.0349619 -0.695034 -0.695034
-0.00453527 -0.670954 -0.670954
-0.00475826 -0.694493 -0.694493
-0.045359 -0.718186 -0.718186
-0.0471232 -0.767143 -0.767143
0.0361763 -0.767972 -0.767972
0.0353758 -0.718966 -0.718966
-0.0462384 -0.742475 -0.742475
-0.0054702 -0.767396 -0.767396
0.0357807 -0.743279 -0.743279
-0.00498836 -0.718413 -0.718413
-0.00522564 -0.742715 -0.742715
-0.0471232 -0.767143 -0.767143
-0.0489094 -0.817614 -0.817614
0.0369396 -0.818493 -0.818493
0.0361763 -0.767972 -0.767972
-0.0480135 -0.79219 -0.79219
-0.00598152 -0.817893 -0.817893
0.0365626 -0.793044 -0.793044
-0.0054702 -0.767396 -0.767396
-0.00572213 -0.792456 -0.792456
-0.0489094 -0.817614 -0.817614
-0.050718 -0.869589 -0.869589
0.037665 -0.87052 -0.87052
0.0369396 -0.818493 -0.818493
-0.0498108 -0.843414 -0.843414
-0.00652306 -0.869895 -0.869895
0.0373071 -0.844319 -0.844319
-0.00598152 -0.817893 -0.817893
-0.00624847 -0.843706 -0.843706
-0.050718 -0.869589 -0.869589
-0.0525498 -0.923061 -0.923061
0.0383518 -0.924044 -0.924044
0.037665 -0.87052 -0.87052
-0.051631 -0.896139 -0.896139
-0.0070955 -0.923393 -0.923393
0.0380133 -0.897095 -0.897095
-0.00652306 -0.869895 -0.869895
-0.00680537 -0.896458 -0.896458
-0.0525498 -0.923061 -0.923061
-0.0544056 -0.978018 -0.978018
0.0389994 -0.979055 -0.979055
0.0383518 -0.924044 -0.924044
-0.0534747 -0.950354 -0.950354
-0.00769953 -0.978378 -0.978378
0.0386806 -0.951364 -0.951364
-0.0070955 -0.923393 -0.923393
-0.00739352 -0.9507 -0.9507
-0.0544056 -0.978018 -0.978018
-0.0562859 -1.03445 -1.03445
0.039607 -1.03554 -1.03554
0.0389994 -0.979055 -0.979055
-0.0553426 -1.00605 -1.00605
-0.00833583 -1.03484 -1.03484
0.0393082 -1.00712 -1.00712
-0.00769953 -0.978378 -0.978378
-0.00801361 -1.00643 -1.00643
-0.0562859 -1.03445 -1.03445
-0.0581915 -1.09236 -1.09236
0.040174 -1.0935 -1.0935
0.039607 -1.03554 -1.03554
-0.0572355 -1.06322 -1.06322
-0.00900505 -1.09277 -1.09277
0.0398956 -1.06434 -1.06434
-0.00833583 -1.03484 -1.03484
-0.00866629 -1.06362 -1.06362
-0.0581915 -1.09236 -1.09236
-0.060123 -1.15172 -1.15172
0.0406998 -1.15292 -1.15292
0.040174 -1.0935 -1.0935
-0.059154 -1.12186 -1.12186
-0.00970783 -1.15217 -1.15217
0.0404421 -1.12303 -1.12303
-0.00900505 -1.09277 -1.09277
-0.00935221 -1.12229 -1.12229
-0.060123 -1.15172 -1.15172
-0.0620809 -1.21253 -1.21253
0.0411837 -1.21379 -1.21379
0.0406998 -1.15292 -1.15292
-0.0610986 -1.18194 -1.18194
-0.0104448 -1.21301 -1.21301
0.040947 -1.18318 -1.18318
-0.00970783 -1.15217 -1.15217
-0.010072 -1.18241 -1.18241
-0.0620809 -1.21253 -1.21253
-0.064066 -1.27478 -1.27478
0.0416251 -1.27611 -1.27611
0.0411837 -1.21379 -1.21379
-0.06307 -1.24348 -1.24348
-0.0112165 -1.27529 -1.27529
0.0414097 -1.24477 -1.24477
-0.0104448 -1.21301 -1.21301
-0.0108263 -1.24397 -1.24397
-0.064066 -1.27478 -1.27478
-0.0660787 -1.33847 -1.33847
0.0420235 -1.33985 -1.33985
0.0416251 -1.27611 -1.27611
-0.0650689 -1.30645 -1.30645
-0.0120237 -1.33901 -1.33901
0.0418297 -1.3078 -1.3078
-0.0112165 -1.27529 -1.27529
-0.0116157 -1.30697 -1.30697
-0.0660787 -1.33847 -1.33847
-0.0681198 -1.40358 -1.40358
0.0423782 -1.40502 -1.40502
0.0420235 -1.33985 -1.33985
-0.0670957 -1.37085 -1.37085
-0.0128668 -1.40415 -1.40415
0.0422063 -1.37226 -1.37226
-0.0120237 -1.33901 -1.33901
-0.0124407 -1.3714 -1.3714
-0.0681198 -1.40358 -1.40358
-0.0701897 -1.4701 -1.4701
0.0426887 -1.47161 -1.47161
0.0423782 -1.40502 -1.40502
-0.0691511 -1.43666 -1.43666
-0.0137464 -1.4707 -1.4707
0.042539 -1.43814 -1.43814
-0.0128668 -1.40415 -1.40415
-0.013302 -1.43725 -1.43725
-0.0701897 -1.4701 -1.4701
-0.0722889 -1.53803 -1.53803
0.0429545 -1.53959 -1.53959
0.0426887 -1.47161 -1.47161
-0.0712356 -1.50389 -1.50389
-0.0146631 -1.53866 -1.53866
0.0428273 -1.50542 -1.50542
-0.0137464 -1.4707 -1.4707
-0.0142001 -1.50451 -1.50451
-0.0722889 -1.53803 -1.53803
-0.0744181 -1.60735 -1.60735
0.043175 -1.60898 -1.60898
0.0429545 -1.53959 -1.53959
-0.0733497 -1.57252 -1.57252
-0.0156173 -1.60802 -1.60802
0.0430705 -1.57411 -1.57411
-0.0146631 -1.53866 -1.53866
-0.0151355 -1.57317 -1.57317
-0.0744181 -1.60735 -1.60735
-0.0765777 -1.67806 -1.67806
0.0433498 -1.67975 -1.67975
0.043175 -1.60898 -1.60898
-0.0754941 -1.64253 -1.64253
-0.0166097 -1.67876 -1.67876
0.0432682 -1.64419 -1.64419
-0.0156173 -1.60802 -1.60802
-0.0161087 -1.64322 -1.64322
-0.0765777 -1.67806 -1.67806
-0.0787682 -1.75015 -1.75015
0.0434782 -1.75191 -1.75191
0.0433498 -1.67975 -1.67975
-0.0776691 -1.71393 -1.71393
-0.0176407 -1.75088 -1.75088
0.0434198 -1.71566 -1.71566
-0.0166097 -1.67876 -1.67876
-0.0171204 -1.71465 -1.71465
-0.0787682 -1.75015 -1.75015
-0.0809902 -1.8236 -1.8236
0.0435598 -1.82543 -1.82543
0.0434782 -1.75191 -1.75191
-0.0798753 -1.7867 -1.7867
-0.0187108 -1.82437 -1.82437
0.0435249 -1.7885 -1.7885
-0.0176407 -1.75088 -1.75088
-0.0181709 -1.78745 -1.78745
-0.0809902 -1.8236 -1.8236
-0.083244 -1.89842 -1.89842
0.0435942 -1.90031 -1.90031
0.0435598 -1.82543 -1.82543
-0.0821131 -1.86084 -1.86084
-0.0198205 -1.89922 -1.89922
0.043583 -1.8627 -1.8627
-0.0187108 -1.82437 -1.82437
-0.0192607 -1.86162 -1.86162
-0.083244 -1.89842 -1.89842
-0.0855302 -1.97458 -1.97458
0.0435809 -1.97654 -1.97654
0.0435942 -1.90031 -1.90031
-0.0843831 -1.93633 -1.93633
-0.0209702 -1.97542 -1.97542
0.0435936 -1.93826 -1.93826
-0.0198205 -1.89922 -1.89922
-0.0203903 -1.93715 -1.93715
-0.0855302 -1.97458 -1.97458
-0.0878492 -2.05209 -2.05209
0.0435194 -2.05411 -2.05411
0.0435809 -1.97654 -1.97654
-0.0866856 -2.01317 -2.01317
-0.0221604 -2.05296 -2.05296
0.0435562 -2.01516 -2.01516
-0.0209702 -1.97542 -1.97542
-0.0215602 -2.01402 -2.01402
-0.0878492 -2.05209 -2.05209
-0.0902014 -2.13092 -2.13092
0.0434094 -2.13302 -2.13302
0.0435194 -2.05411 -2.05411
-0.0890212 -2.09134 -2.09134
-0.0233915 -2.13183 -2.13183
0.0434705 -2.0934 -2.0934
-0.0221604 -2.05296 -2.05296
-0.0227708 -2.09223 -2.09223
-0.0902014 -2.13092 -2.13092
-0.0925873 -2.21108 -2.21108
0.0432503 -2.21325 -2.21325
0.0434094 -2.13302 -2.13302
-0.0913901 -2.17084 -2.17084
-0.0246639 -2.21203 -2.21203
0.043336 -2.17297 -2.17297
-0.0233915 -2.13183 -2.13183
-0.0240225 -2.17176 -2.17176
-0.0925873 -2.21108 -2.21108
-0.0950072 -2.29256 -2.29256
0.0430419 -2.2948 -2.2948
0.0432503 -2.21325 -2.21325
-0.093793 -2.25166 -2.25166
-0.025978 -2.29354 -2.29354
0.0431523 -2.25386 -2.25386
-0.0246639 -2.21203 -2.21203
-0.0253157 -2.25262 -2.25262
-0.0950072 -2.29256 -2.29256
-0.0974615 -2.37534 -2.37534
0.0427837 -2.37765 -2.37765
0.0430419 -2.2948 -2.2948
-0.09623 -2.33378 -2.33378
-0.0273343 -2.37635 -2.37635
0.042919 -2.33606 -2.33606
-0.025978 -2.29354 -2.29354
-0.0266509 -2.33478 -2.33478
-0.0974615 -2.37534 -2.37534
-0.0999506 -2.45941 -2.45941
0.0424753 -2.46179 -2.46179
0.0427837 -2.37765 -2.37765
-0.0987017 -2.41721 -2.41721
-0.028733 -2.46046 -2.46046
0.0426358 -2.41956 -2.41956
-0.0273343 -2.37635 -2.37635
-0.0280283 -2.41825 -2.41825
-0.0999506 -2.45941 -2.45941
-0.102475 -2.54477 -2.54477
0.0421164 -2.54723 -2.54723
0.0424753 -2.46179 -2.46179
-0.101208 -2.50193 -2.50193
-0.0301745 -2.54586 -2.54586
0.0423022 -2.50435 -2.50435
-0.028733 -2.46046 -2.46046
-0.0294483 -2.503 -2.503
-0.102475 -2.54477 -2.54477
-0.105035 -2.63141 -2.63141
0.0417067 -2.63394 -2.63394
0.0421164 -2.54723 -2.54723
-0.10375 -2.58793 -2.58793
-0.0316592 -2.63254 -2.63254
0.0419179 -2.59042 -2.59042
-0.0301745 -2.54586 -2.54586
-0.0309114 -2.58904 -2.58904
-0.105035 -2.63141 -2.63141
-0.10763 -2.71932 -2.71932
0.0412458 -2.72192 -2.72192
0.0417067 -2.63394 -2.63394
-0.106328 -2.67521 -2.67521
-0.0331874 -2.72048 -2.72048
0.0414826 -2.67777 -2.67777
-0.0316592 -2.63254 -2.63254
-0.0324178 -2.67635 -2.67635
-0.10763 -2.71932 -2.71932
-0.110262 -2.80849 -2.80849
0.0407333 -2.81116 -2.81116
0.0412458 -2.72192 -2.72192
-0.108941 -2.76375 -2.76375
-0.0347594 -2.80969 -2.80969
0.040996 -2.76638 -2.76638
-0.0331874 -2.72048 -2.72048
-0.0339679 -2.76493 -2.76493
-0.110262 -2.80849 -2.80849
-0.11293 -2.8989 -2.8989
0.0401691 -2.90165 -2.90165
0.0407333 -2.81116 -2.81116
-0.111591 -2.85354 -2.85354
-0.0363756 -2.90014 -2.90014
0.0404577 -2.85625 -2.85625
-0.0347594 -2.80969 -2.80969
-0.035562 -2.85476 -2.85476
-0.11293 -2.8989 -2.8989
-0.115635 -2.99056 -2.99056
0.0395528 -2.99339 -2.99339
0.0401691 -2.90165 -2.90165
-0.114278 -2.94458 -2.94458
-0.0380362 -2.99184 -2.99184
0.0398675 -2.94736 -2.94736
-0.0363756 -2.90014 -2.90014
-0.0372003 -2.94584 -2.94584
-0.115635 -2.99056 -2.99056
-0.118377 -3.08345 -3.08345
0.0388841 -3.08635 -3.08635
0.0395528 -2.99339 -2.99339
-0.117001 -3.03685 -3.03685
-0.0397414 -3.08477 -3.08477
0.039225 -3.03971 -3.03971
-0.0380362 -2.99184 -2.99184
-0.0388832 -3.03815 -3.03815
-0.118377 -3.08345 -3.08345
-0.121156 -3.17756 -3.17756
0.0381628 -3.18054 -3.18054
0.0388841 -3.08635 -3.08635
-0.119762 -3.13036 -3.13036
-0.0414916 -3.17892 -3.17892
0.0385301 -3.13329 -3.13329
-0.0397414 -3.08477 -3.08477
-0.0406109 -3.13169 -3.13169
-0.121156 -3.17756 -3.17756
-0.123973 -3.27289 -3.27289
0.0373887 -3.27594 -3.27594
0.0381628 -3.18054 -3.18054
-0.12256 -3.22508 -3.22508
-0.0432871 -3.27429 -3.27429
0.0377824 -3.22809 -3.22809
-0.0414916 -3.17892 -3.17892
-0.0423837 -3.22645 -3.22645
-0.123973 -3.27289 -3.27289
-0.126827 -3.36942 -3.36942
0.0365614 -3.37255 -3.37255
0.0373887 -3.27594 -3.27594
-0.125395 -3.32101 -3.32101
-0.0451279 -3.37086 -3.37086
0.0369817 -3.3241 -3.3241
-0.0432871 -3.27429 -3.27429
-0.0442018 -3.32242 -3.32242
-0.126827 -3.36942 -3.36942
-0.12972 -3.46715 -3.46715
0.0356807 -3.47036 -3.47036
0.0365614 -3.37255 -3.37255
-0.128269 -3.41814 -3.41814
-0.0470145 -3.46863 -3.46863
0.0361277 -3.42131 -3.42131
-0.0451279 -3.37086 -3.37086
-0.0460655 -3.4196 -3.4196
-0.12972 -3.46715 -3.46715
-0.13265 -3.56607 -3.56607
0.0347465 -3.56935 -3.56935
0.0356807 -3.47036 -3.47036
-0.13118 -3.51646 -3.51646
-0.0489469 -3.56758 -3.56758
0.0352203 -3.51971 -3.51971
-0.0470145 -3.46863 -3.46863
-0.0479749 -3.51796 -3.51796
-0.13265 -3.56607 -3.56607
-0.135619 -3.66616 -3.66616
0.0337586 -3.66952 -3.66952
0.0347465 -3.56935 -3.56935
-0.13413 -3.61597 -3.61597
-0.0509254 -3.66771 -3.66771
0.0342593 -3.61929 -3.61929
-0.0489469 -3.56758 -3.56758
-0.0499304 -3.6175 -3.6175
-0.135619 -3.66616 -3.66616
-0.138627 -3.76742 -3.76742
0.0327167 -3.77086 -3.77086
0.0337586 -3.66952 -3.66952
-0.137118 -3.71664 -3.71664
-0.0529501 -3.76902 -3.76902
0.0332444 -3.72004 -3.72004
-0.0509254 -3.66771 -3.66771
-0.0519319 -3.71822 -3.71822
-0.138627 -3.76742 -3.76742
-0.141673 -3.86984 -3.86984
0.0316207 -3.87336 -3.87336
0.0327167 -3.77086 -3.77086
-0.140145 -3.81849 -3.81849
-0.0550213 -3.87148 -3.87148
0.0321755 -3.82196 -3.82196
-0.0529501 -3.76902 -3.76902
-0.0539799 -3.8201 -3.8201
-0.141673 -3.86984 -3.86984
-0.144759 -3.97341 -3.97341
0.0304704 -3.97701 -3.97701
0.0316207 -3.87336 -3.87336
-0.143211 -3.92148 -3.92148
-0.0571391 -3.97509 -3.97509
0.0310524 -3.92504 -3.92504
-0.0550213 -3.87148 -3.87148
-0.0560743 -3.92314 -3.92314
-0.144759 -3.97341 -3.97341
-0.147883 -4.07812 -4.07812
0.0292658 -4.0818 -4.0818
0.0304704 -3.97701 -3.97701
-0.146316 -4.02562 -4.02562
-0.0593036 -4.07984 -4.07984
0.0298749 -4.02926 -4.02926
-0.0571391 -3.97509 -3.97509
-0.0582155 -4.02732 -4.02732
-0.147883 -4.07812 -4.07812
-0.151047 -4.18397 -4.18397
0.0280065 -4.18772 -4.18772
0.0292658 -4.0818 -4.0818
-0.14946 -4.1309 -4.1309
-0.061515 -4.18572 -4.18572
0.028643 -4.13462 -4.13462
-0.0593036 -4.07984 -4.07984
-0.0604034 -4.13264 -4.13264
-0.151047 -4.18397 -4.18397
-0.15425 -4.29093 -4.29093
0.0266926 -4.29477 -4.29477
0.0280065 -4.18772 -4.18772
-0.152643 -4.23731 -4.23731
-0.0637734 -4.29273 -4.29273
0.0273564 -4.2411 -4.2411
-0.061515 -4.18572 -4.18572
-0.0626383 -4.23909 -4.23909
-0.15425 -4.29093 -4.29093
-0.157492 -4.39902 -4.39902
0.0253239 -4.40293 -4.40293
0.0266926 -4.29477 -4.29477
-0.155866 -4.34484 -4.34484
-0.0660789 -4.40085 -4.40085
0.0260151 -4.34871 -4.34871
-0.0637734 -4.29273 -4.29273
-0.0649203 -4.34665 -4.34665
-0.157492 -4.39902 -4.39902
-0.160774 -4.5082 -4.5082
0.0239004 -4.51219 -4.51219
0.0253239 -4.40293 -4.40293
-0.159128 -4.45347 -4.45347
-0.0684317 -4.51008 -4.51008
0.024619 -4.45742 -4.45742
-0.0660789 -4.40085 -4.40085
-0.0672494 -4.45533 -4.45533
-0.160774 -4.5082 -4.5082
-0.164096 -4.61848 -4.61848
0.0224218 -4.62256 -4.62256
0.0239004 -4.51219 -4.51219
-0.16243 -4.56321 -4.56321
-0.0708317 -4.6204 -4.6204
0.023168 -4.56724 -4.56724
-0.0684317 -4.51008 -4.51008
-0.0696258 -4.56511 -4.56511
-0.164096 -4.61848 -4.61848
-0.167457 -4.72985 -4.72985
0.0208882 -4.73401 -4.73401
0.0224218 -4.62256 -4.62256
-0.165771 -4.67403 -4.67403
-0.0732791 -4.73181 -4.73181
0.0216619 -4.67815 -4.67815
-0.0708317 -4.6204 -4.6204
-0.0720495 -4.67597 -4.67597
-0.167457 -4.72985 -4.72985
-0.170858 -4.8423 -4.8423
0.0192995 -4.84653 -4.84653
0.0208882 -4.73401 -4.73401
-0.169152 -4.78594 -4.78594
-0.075774 -4.8443 -4.8443
0.0201007 -4.79013 -4.79013
-0.0732791 -4.73181 -4.73181
-0.0745206 -4.78792 -4.78792
-0.170858 -4.8423 -4.8423
-0.174299 -4.95582 -4.95582
0.0176556 -4.96013 -4.96013
0.0192995 -4.84653 -4.84653
-0.172573 -4.89892 -4.89892
-0.0783164 -4.95786 -4.95786
0.0184844 -4.9032 -4.9032
-0.075774 -4.8443 -4.8443
-0.0770392 -4.90095 -4.90095
-0.174299 -4.95582 -4.95582
-0.177779 -5.07039 -5.07039
0.0159565 -5.07478 -5.07478
0.0176556 -4.96013 -4.96013
-0.176034 -5.01297 -5.01297
-0.0809063 -5.07247 -5.07247
0.0168129 -5.01732 -5.01732
-0.0783164 -4.95786 -4.95786
-0.0796054 -5.01503 -5.01503
-0.177779 -5.07039 -5.07039
-0.1813 -5.18602 -5.18602
0.0142021 -5.19049 -5.19049
0.0159565 -5.07478 -5.07478
-0.179535 -5.12807 -5.12807
-0.0835438 -5.18814 -5.18814
0.0150862 -5.13251 -5.13251
-0.0809063 -5.07247 -5.07247
-0.0822191 -5.13018 -5.13018
-0.1813 -5.18602 -5.18602
-0.184861 -5.30268 -5.30268
0.0123925 -5.30724 -5.30724
0.0142021 -5.19049 -5.19049
-0.183075 -5.24422 -5.24422
-0.0862289 -5.30485 -5.30485
0.0133043 -5.24873 -5.24873
-0.0835438 -5.18814 -5.18814
-0.0848804 -5.24637 -5.24637
-0.184861 -5.30268 -5.30268
-0.188461 -5.42038 -5.42038
0.0105277 -5.42502 -5.42502
0.0123925 -5.30724 -5.30724
-0.186656 -5.3614 -5.3614
-0.0889615 -5.42259 -5.42259
0.011467 -5.366 -5.366
-0.0862289 -5.30485 -5.30485
-0.0875892 -5.36359 -5.36359
-0.188461 -5.42038 -5.42038
-0.192101 -5.53911 -5.53911
0.00860754 -5.54382 -5.54382
0.0105277 -5.42502 -5.42502
-0.190276 -5.47962 -5.47962
-0.0917418 -5.54135 -5.54135
0.00957452 -5.48429 -5.48429
-0.0889615 -5.42259 -5.42259
-0.0903457 -5.48184 -5.48184
-0.192101 -5.53911 -5.53911
-0.195782 -5.65884 -5.65884
0.00663216 -5.66364 -5.66364
0.00860754 -5.54382 -5.54382
-0.193937 -5.59885 -5.59885
-0.0945697 -5.66113 -5.66113
0.00762676 -5.6036 -5.6036
-0.0917418 -5.54135 -5.54135
-0.0931498 -5.60112 -5.60112
-0.195782 -5.65884 -5.65884
-0.199502 -5.77959 -5.77959
0.00460155 -5.78446 -5.78446
0.00663216 -5.66364 -5.66364
-0.197637 -5.71909 -5.71909
-0.0974451 -5.78192 -5.78192
0.00562376 -5.72392 -5.72392
-0.0945697 -5.66113 -5.66113
-0.0960014 -5.7214 -5.7214
-0.199502 -5.77959 -5.77959
-0.203262 -5.90132 -5.90132
0.00251576 -5.90628 -5.90628
0.00460155 -5.78446 -5.78446
-0.201377 -5.84033 -5.84033
-0.100368 -5.90369 -5.90369
0.00356555 -5.84524 -5.84524
-0.0974451 -5.78192 -5.78192
-0.0989006 -5.84268 -5.84268
-0.203262 -5.90132 -5.90132
-0.207062 -6.02405 -6.02405
0.000374823 -6.02908 -6.02908
0.00251576 -5.90628 -5.90628
-0.205157 -5.96256 -5.96256
-0.103338 -6.02646 -6.02646
0.00145218 -5.96756 -5.96756
-0.100368 -5.90369 -5.90369
-0.101847 -5.96496 -5.96496
-0.207062 -6.02405 -6.02405
-0.210902 -6.14775 -6.14775
-0.0018212 -6.15287 -6.15287
0.000374823 -6.02908 -6.02908
-0.208977 -6.08578 -6.08578
-0.106356 -6.15021 -6.15021
-0.000716305 -6.09085 -6.09085
-0.103338 -6.02646 -6.02646
-0.104841 -6.08821 -6.08821
-0.210902 -6.14775 -6.14775
-0.214781 -6.27242 -6.27242
-0.00407223 -6.27762 -6.27762
-0.0018212 -6.15287 -6.15287
-0.212836 -6.20997 -6.20997
-0.109421 -6.27492 -6.27492
-0.00293984 -6.21512 -6.21512
-0.106356 -6.15021 -6.15021
-0.107883 -6.21244 -6.21244
-0.214781 -6.27242 -6.27242
-0.2187 -6.39806 -6.39806
-0.0063782 -6.40333 -6.40333
-0.00407223 -6.27762 -6.27762
-0.216735 -6.33512 -6.33512
-0.112534 -6.40059 -6.40059
-0.00521836 -6.34035 -6.34035
-0.109421 -6.27492 -6.27492
-0.110972 -6.33764 -6.33764
-0.2187 -6.39806 -6.39806
-0.222658 -6.52464 -6.52464
-0.00873903 -6.52999 -6.52999
-0.0063782 -6.40333 -6.40333
-0.220674 -6.46123 -6.46123
-0.115694 -6.52721 -6.52721
-0.00755176 -6.46654 -6.46654
-0.112534 -6.40059 -6.40059
-0.114108 -6.46378 -6.46378
-0.222658 -6.52464 -6.52464
-0.226656 -6.65216 -6.65216
-0.0111546 -6.6576 -6.6576
-0.00873903 -6.52999 -6.52999
-0.224652 -6.58828 -6.58828
-0.1189 -6.65478 -6.65478
-0.00993997 -6.59368 -6.59368
-0.115694 -6.52721 -6.52721
-0.117291 -6.59088 -6.59088
-0.226656 -6.65216 -6.65216
-0.230693 -6.78062 -6.78062
-0.0136248 -6.78613 -6.78613
-0.0111546 -6.6576 -6.6576
-0.22867 -6.71628 -6.71628
-0.122154 -6.78328 -6.78328
-0.0123829 -6.72175 -6.72175
-0.1189 -6.65478 -6.65478
-0.120521 -6.71891 -6.71891
-0.230693 -6.78062 -6.78062
-0.23477 -6.91 -6.91
-0.0161495 -6.91559 -6.91559
-0.0136248 -6.78613 -6.78613
-0.232727 -6.8452 -6.8452
-0.125454 -6.9127 -6.9127
-0.0148804 -6.85075 -6.85075
-0.122154 -6.78328 -6.78328
-0.123798 -6.84787 -6.84787
-0.23477 -6.91 -6.91
-0.238885 -7.0403 -7.0403
-0.0187287 -7.04596 -7.04596
-0.0161495 -6.91559 -6.91559
-0.236822 -6.97504 -6.97504
-0.128802 -7.04303 -7.04303
-0.0174323 -6.98066 -6.98066
-0.125454 -6.9127 -6.9127
-0.127122 -6.97775 -6.97775
-0.238885 -7.0403 -7.0403
-0.243039 -7.1715 -7.1715
-0.0213621 -7.17724 -7.17724
-0.0187287 -7.04596 -7.04596
-0.240957 -7.10578 -7.10578
-0.132196 -7.17427 -7.17427
-0.0200386 -7.11149 -7.11149
-0.128802 -7.04303 -7.04303
-0.130493 -7.10854 -7.10854
-0.243039 -7.1715 -7.1715
-0.247233 -7.30359 -7.30359
-0.0240496 -7.30942 -7.30942
-0.0213621 -7.17724 -7.17724
-0.245131 -7.23743 -7.23743
-0.135636 -7.30641 -7.30641
-0.0226991 -7.24322 -7.24322
-0.132196 -7.17427 -7.17427
-0.13391 -7.24023 -7.24023
-0.247233 -7.30359 -7.30359
-0.251464 -7.43658 -7.43658
-0.026791 -7.44248 -7.44248
-0.0240496 -7.30942 -7.30942
-0.249344 -7.36998 -7.36998
-0.139123 -7.43943 -7.43943
-0.0254135 -7.37584 -7.37584
-0.135636 -7.30641 -7.30641
-0.137374 -7.37281 -7.37281
-0.251464 -7.43658 -7.43658
-0.255735 -7.57044 -7.57044
-0.0295862 -7.57642 -7.57642
-0.026791 -7.44248 -7.44248
-0.253595 -7.5034 -7.5034
-0.142655 -7.57334 -7.57334
-0.0281819 -7.50934 -7.50934
-0.139123 -7.43943 -7.43943
-0.140883 -7.50628 -7.50628
-0.255735 -7.57044 -7.57044
-0.260043 -7.70517 -7.70517
-0.032435 -7.71123 -7.71123
-0.0295862 -7.57642 -7.57642
-0.257884 -7.6377 -7.6377
-0.146234 -7.70811 -7.70811
-0.0310039 -7.64372 -7.64372
-0.142655 -7.57334 -7.57334
-0.144439 -7.64061 -7.64061
-0.260043 -7.70517 -7.70517
-0.26439 -7.84076 -7.84076
-0.0353373 -7.8469 -7.8469
-0.032435 -7.71123 -7.71123
-0.262212 -7.77286 -7.77286
-0.149859 -7.84374 -7.84374
-0.0338795 -7.77896 -7.77896
-0.146234 -7.70811 -7.70811
-0.148041 -7.77582 -7.77582
-0.26439 -7.84076 -7.84076
-0.268774 -7.97721 -7.97721
-0.0382928 -7.98342 -7.98342
-0.0353373 -7.8469 -7.8469
-0.266577 -7.90888 -7.90888
-0.153529 -7.98022 -7.98022
-0.0368084 -7.91505 -7.91505
-0.149859 -7.84374 -7.84374
-0.151688 -7.91187 -7.91187
-0.268774 -7.97721 -7.97721
-0.273196 -8.11449 -8.11449
-0.0413012 -8.12078 -8.12078
-0.0382928 -7.98342 -7.98342
-0.270981 -8.04574 -8.04574
-0.157244 -8.11754 -8.11754
-0.0397904 -8.05199 -8.05199
-0.153529 -7.98022 -7.98022
-0.155381 -8.04878 -8.04878
-0.273196 -8.11449 -8.11449
-0.277656 -8.25261 -8.25261
-0.0443625 -8.25897 -8.25897
-0.0413012 -8.12078 -8.12078
-0.275422 -8.18344 -8.18344
-0.161004 -8.2557 -8.2557
-0.0428253 -8.18977 -8.18977
-0.157244 -8.11754 -8.11754
-0.159119 -8.18652 -8.18652
-0.277656 -8.25261 -8.25261
-0.282153 -8.39155 -8.39155
-0.0474764 -8.39799 -8.39799
-0.0443625 -8.25897 -8.25897
-0.2799 -8.32197 -8.32197
-0.16481 -8.39468 -8.39468
-0.0459129 -8.32838 -8.32838
-0.161004 -8.2557 -8.2557
-0.162902 -8.32509 -8.32509
-0.282153 -8.39155 -8.39155
-0.286687 -8.5313 -8.5313
-0.0506427 -8.53782 -8.53782
-0.0474764 -8.39799 -8.39799
-0.284415 -8.46132 -8.46132
-0.16866 -8.53447 -8.53447
-0.049053 -8.4678 -8.4678
-0.16481 -8.39468 -8.39468
-0.166729 -8.46448 -8.46448
-0.286687 -8.5313 -8.5313
-0.291258 -8.67186 -8.67186
-0.053861 -8.67845 -8.67845
-0.0506427 -8.53782 -8.53782
-0.288968 -8.60148 -8.60148
-0.172555 -8.67507 -8.67507
-0.0522453 -8.60803 -8.60803
-0.16866 -8.53447 -8.53447
-0.170602 -8.60467 -8.60467
-0.291258 -8.67186 -8.67186
-0.295865 -8.81322 -8.81322
-0.0571312 -8.81989 -8.81989
-0.053861 -8.67845 -8.67845
-0.293557 -8.74244 -8.74244
-0.176493 -8.81647 -8.81647
-0.0554896 -8.74907 -8.74907
-0.172555 -8.67507 -8.67507
-0.174519 -8.74567 -8.74567
-0.295865 -8.81322 -8.81322
-0.300509 -8.95537 -8.95537
-0.060453 -8.9621 -8.9621
-0.0571312 -8.81989 -8.81989
-0.298182 -8.8842 -8.8842
-0.180476 -8.95865 -8.95865
-0.0587857 -8.8909 -8.8909
-0.176493 -8.81647 -8.81647
-0.178479 -8.88746 -8.88746
-0.300509 -8.95537 -8.95537
-0.305188 -9.09829 -9.09829
-0.0638262 -9.1051 -9.1051
-0.060453 -8.9621 -8.9621
-0.302844 -9.02673 -9.02673
-0.184503 -9.10161 -9.10161
-0.0621332 -9.03351 -9.03351
-0.180476 -8.95865 -8.95865
-0.182484 -9.03004 -9.03004
-0.305188 -9.09829 -9.09829
-0.309904 -9.24199 -9.24199
-0.0672504 -9.24887 -9.24887
-0.0638262 -9.1051 -9.1051
-0.307542 -9.17004 -9.17004
-0.188572 -9.24535 -9.24535
-0.0655319 -9.17689 -9.17689
-0.184503 -9.10161 -9.10161
-0.186532 -9.17338 -9.17338
-0.309904 -9.24199 -9.24199
-0.314655 -9.38644 -9.38644
-0.0707254 -9.39339 -9.39339
-0.0672504 -9.24887 -9.24887
-0.312275 -9.31412 -9.31412
-0.192685 -9.38984 -9.38984
-0.0689816 -9.32104 -9.32104
-0.188572 -9.24535 -9.24535
-0.190624 -9.3175 -9.3175
-0.314655 -9.38644 -9.38644
-0.319441 -9.53164 -9.53164
-0.0742509 -9.53867 -9.53867
-0.0707254 -9.39339 -9.39339
-0.317043 -9.45895 -9.45895
-0.196841 -9.53508 -9.53508
-0.0724819 -9.46594 -9.46594
-0.192685 -9.38984 -9.38984
-0.194758 -9.46236 -9.46236
-0.319441 -9.53164 -9.53164
-0.324262 -9.67759 -9.67759
-0.0778266 -9.68469 -9.68469
-0.0742509 -9.53867 -9.53867
-0.321847 -9.60453 -9.60453
-0.20104 -9.68106 -9.68106
-0.0760325 -9.61159 -9.61159
-0.196841 -9.53508 -9.53508
-0.198935 -9.60798 -9.60798
-0.324262 -9.67759 -9.67759
-0.329117 -9.82427 -9.82427
-0.0814522 -9.83144 -9.83144
-0.0778266 -9.68469 -9.68469
-0.326685 -9.75084 -9.75084
-0.20528 -9.82778 -9.82778
-0.0796332 -9.75798 -9.75798
-0.20104 -9.68106 -9.68106
-0.203155 -9.75433 -9.75433
-0.329117 -9.82427 -9.82427
-0.334007 -9.97168 -9.97168
-0.0851274 -9.97892 -9.97892
-0.0814522 -9.83144 -9.83144
-0.331558 -9.89789 -9.89789
-0.209563 -9.97522 -9.97522
-0.0832836 -9.90509 -9.90509
-0.20528 -9.82778 -9.82778
-0.207416 -9.90141 -9.90141
-0.334007 -9.97168 -9.97168
-0.338931 -10.1198 -10.1198
-0.0888518 -10.1271 -10.1271
-0.0851274 -9.97892 -9.97892
-0.336465 -10.0456 -10.0456
-0.213887 -10.1234 -10.1234
-0.0869834 -10.0529 -10.0529
-0.209563 -9.97522 -9.97522
-0.21172 -10.0492 -10.0492
-0.338931 -10.1198 -10.1198
-0.343888 -10.2686 -10.2686
-0.0926251 -10.276 -10.276
-0.0888518 -10.1271 -10.1271
-0.341406 -10.1941 -10.1941
-0.218252 -10.2722 -10.2722
-0.0907324 -10.2015 -10.2015
-0.213887 -10.1234 -10.1234
-0.216065 -10.1977 -10.1977
-0.343888 -10.2686 -10.2686
-0.348879 -10.4181 -10.4181
-0.0964471 -10.4256 -10.4256
-0.0926251 -10.276 -10.276
-0.34638 -10.3433 -10.3433
-0.222659 -10.4218 -10.4218
-0.09453 -10.3507 -10.3507
-0.218252 -10.2722 -10.2722
-0.22045 -10.3469 -10.3469
-0.348879 -10.4181 -10.4181
-0.353903 -10.5684 -10.5684
-0.100317 -10.5759 -10.5759
-0.0964471 -10.4256 -10.4256
-0.351387 -10.4932 -10.4932
-0.227106 -10.572 -10.572
-0.0983761 -10.5006 -10.5006
-0.222659 -10.4218 -10.4218
-0.224877 -10.4968 -10.4968
-0.353903 -10.5684 -10.5684
-0.358959 -10.7192 -10.7192
-0.104235 -10.7268 -10.7268
-0.100317 -10.5759 -10.5759
-0.356427 -10.6437 -10.6437
-0.231593 -10.723 -10.723
-0.10227 -10.6513 -10.6513
-0.227106 -10.572 -10.572
-0.229344 -10.6474 -10.6474
-0.358959 -10.7192 -10.7192
-0.364047 -10.8708 -10.8708
-0.108201 -10.8785 -10.8785
-0.104235 -10.7268 -10.7268
-0.361499 -10.7949 -10.7949
-0.23612 -10.8746 -10.8746
-0.106212 -10.8026 -10.8026
-0.231593 -10.723 -10.723
-0.233851 -10.7987 -10.7987
-0.364047 -10.8708 -10.8708
-0.369168 -11.023 -11.023
-0.112214 -11.0307 -11.0307
-0.108201 -10.8785 -10.8785
-0.366604 -10.9468 -10.9468
-0.240686 -11.0268 -11.0268
-0.110201 -10.9545 -10.9545
-0.23612 -10.8746 -10.8746
-0.238398 -10.9506 -10.9506
-0.369168 -11.023 -11.023
-0.37432 -11.1759 -11.1759
-0.116273 -11.1837 -11.1837
-0.112214 -11.0307 -11.0307
-0.37174 -11.0994 -11.0994
-0.245292 -11.1797 -11.1797
-0.114238 -11.1071 -11.1071
-0.240686 -11.0268 -11.0268
-0.242984 -11.1032 -11.1032
-0.37432 -11.1759 -11.1759
-0.379502 -11.3294 -11.3294
-0.120379 -11.3373 -11.3373
-0.116273 -11.1837 -11.1837
-0.376907 -11.2526 -11.2526
-0.249937 -11.3333 -11.3333
-0.11832 -11.2604 -11.2604
-0.245292 -11.1797 -11.1797
-0.24761 -11.2564 -11.2564
-0.379502 -11.3294 -11.3294
-0.384716 -11.4836 -11.4836
-0.124531 -11.4915 -11.4915
-0.120379 -11.3373 -11.3373
-0.382105 -11.4064 -11.4064
-0.25462 -11.4874 -11.4874
-0.122449 -11.4143 -11.4143
-0.249937 -11.3333 -11.3333
-0.252273 -11.4103 -11.4103
-0.384716 -11.4836 -11.4836
-0.38996 -11.6383 -11.6383
-0.128729 -11.6463 -11.6463
-0.124531 -11.4915 -11.4915
-0.387334 -11.5609 -11.5609
-0.25934 -11.6423 -11.6423
-0.126624 -11.5688 -11.5688
-0.25462 -11.4874 -11.4874
-0.256975 -11.5648 -11.5648
-0.38996 -11.6383 -11.6383
-0.395234 -11.7937 -11.7937
-0.132972 -11.8018 -11.8018
-0.128729 -11.6463 -11.6463
-0.392593 -11.716 -11.716
-0.264099 -11.7977 -11.7977
-0.130845 -11.724 -11.724
-0.25934 -11.6423 -11.6423
-0.261715 -11.7199 -11.7199
-0.395234 -11.7937 -11.7937
-0.400537 -11.9497 -11.9497
-0.137259 -11.9578 -11.9578
-0.132972 -11.8018 -11.8018
-0.397882 -11.8716 -11.8716
-0.268894 -11.9537 -11.9537
-0.13511 -11.8797 -11.8797
-0.264099 -11.7977 -11.7977
-0.266492 -11.8756 -11.8756
-0.400537 -11.9497 -11.9497
-0.40587 -12.1063 -12.1063
-0.141591 -12.1145 -12.1145
-0.137259 -11.9578 -11.9578
-0.4032 -12.0279 -12.0279
-0.273727 -12.1103 -12.1103
-0.13942 -12.0361 -12.0361
-0.268894 -11.9537 -11.9537
-0.271306 -12.0319 -12.0319
-0.40587 -12.1063 -12.1063
-0.411231 -12.2635 -12.2635
-0.145968 -12.2717 -12.2717
-0.141591 -12.1145 -12.1145
-0.408547 -12.1848 -12.1848
-0.278596 -12.2675 -12.2675
-0.143774 -12.193 -12.193
-0.273727 -12.1103 -12.1103
-0.276157 -12.1889 -12.1889
-0.411231 -12.2635 -12.2635
-0.416621 -12.4212 -12.4212
-0.150387 -12.4295 -12.4295
-0.145968 -12.2717 -12.2717
-0.413923 -12.3423 -12.3423
-0.2835 -12.4253 -12.4253
-0.148172 -12.3505 -12.3505
-0.278596 -12.2675 -12.2675
-0.281043 -12.3464 -12.3464
-0.416621 -12.4212 -12.4212
-0.422038 -12.5796 -12.5796
-0.15485 -12.5879 -12.5879
-0.150387 -12.4295 -12.4295
-0.419326 -12.5003 -12.5003
-0.28844 -12.5837 -12.5837
-0.152613 -12.5087 -12.5087
-0.2835 -12.4253 -12.4253
-0.285966 -12.5044 -12.5044
-0.422038 -12.5796 -12.5796
-0.427483 -12.7385 -12.7385
-0.159355 -12.7469 -12.7469
-0.15485 -12.5879 -12.5879
-0.424757 -12.659 -12.659
-0.293415 -12.7426 -12.7426
-0.157097 -12.6673 -12.6673
-0.28844 -12.5837 -12.5837
-0.290924 -12.6631 -12.6631
-0.427483 -12.7385 -12.7385
-0.432955 -12.8979 -12.8979
-0.163903 -12.9064 -12.9064
-0.159355 -12.7469 -12.7469
-0.430215 -12.8181 -12.8181
-0.298425 -12.9021 -12.9021
-0.161624 -12.8266 -12.8266
-0.293415 -12.7426 -12.7426
-0.295916 -12.8223 -12.8223
-0.432955 -12.8979 -12.8979
-0.438453 -13.0579 -13.0579
-0.168493 -13.0664 -13.0664
-0.163903 -12.9064 -12.9064
-0.4357 -12.9778 -12.9778
-0.303469 -13.0621 -13.0621
-0.166193 -12.9863 -12.9863
-0.298425 -12.9021 -12.9021
-0.300943 -12.982 -12.982
-0.438453 -13.0579 -13.0579
-0.443977 -13.2184 -13.2184
-0.173124 -13.227 -13.227
-0.168493 -13.0664 -13.0664
-0.441212 -13.1381 -13.1381
-0.308547 -13.2226 -13.2226
-0.170803 -13.1466 -13.1466
-0.303469 -13.0621 -13.0621
-0.306004 -13.1423 -13.1423
-0.443977 -13.2184 -13.2184
-0.449527 -13.3795 -13.3795
-0.177795 -13.3881 -13.3881
-0.173124 -13.227 -13.227
-0.446749 -13.2989 -13.2989
-0.313658 -13.3837 -13.3837
-0.175454 -13.3075 -13.3075
-0.308547 -13.2226 -13.2226
-0.311098 -13.3031 -13.3031
-0.449527 -13.3795 -13.3795
-0.455102 -13.541 -13.541
-0.182507 -13.5497 -13.5497
-0.177795 -13.3881 -13.3881
-0.452311 -13.4602 -13.4602
-0.318801 -13.5453 -13.5453
-0.180146 -13.4688 -13.4688
-0.313658 -13.3837 -13.3837
-0.316225 -13.4644 -13.4644
-0.455102 -13.541 -13.541
-0.460702 -13.7031 -13.7031
-0.18726 -13.7118 -13.7118
-0.182507 -13.5497 -13.5497
-0.457899 -13.622 -13.622
-0.323977 -13.7074 -13.7074
-0.184879 -13.6307 -13.6307
-0.318801 -13.5453 -13.5453
-0.321385 -13.6263 -13.6263
-0.460702 -13.7031 -13.7031
-0.466326 -13.8657 -13.8657
-0.192051 -13.8744 -13.8744
-0.18726 -13.7118 -13.7118
-0.463511 -13.7843 -13.7843
-0.329185 -13.87 -13.87
-0.18965 -13.7931 -13.7931
-0.323977 -13.7074 -13.7074
-0.326577 -13.7886 -13.7886
-0.466326 -13.8657 -13.8657
-0.471973 -14.0287 -14.0287
-0.196882 -14.0376 -14.0376
-0.192051 -13.8744 -13.8744
-0.469146 -13.9471 -13.9471
-0.334424 -14.0331 -14.0331
-0.194462 -13.9559 -13.9559
-0.329185 -13.87 -13.87
-0.331801 -13.9515 -13.9515
-0.471973 -14.0287 -14.0287
-0.477644 -14.1922 -14.1922
-0.201751 -14.2011 -14.2011
-0.196882 -14.0376 -14.0376
-0.474806 -14.1104 -14.1104
-0.339694 -14.1966 -14.1966
-0.199311 -14.1193 -14.1193
-0.334424 -14.0331 -14.0331
-0.337055 -14.1148 -14.1148
-0.477644 -14.1922 -14.1922
-0.483337 -14.3562 -14.3562
-0.206658 -14.3652 -14.3652
-0.201751 -14.2011 -14.2011
-0.480488 -14.2742 -14.2742
-0.344994 -14.3607 -14.3607
-0.204199 -14.2831 -14.2831
-0.339694 -14.1966 -14.1966
-0.34234 -14.2786 -14.2786
-0.483337 -14.3562 -14.3562
-0.489053 -14.5207 -14.5207
-0.211602 -14.5297 -14.5297
-0.206658 -14.3652 -14.3652
-0.486192 -14.4384 -14.4384
-0.350324 -14.5252 -14.5252
-0.209125 -14.4474 -14.4474
-0.344994 -14.3607 -14.3607
-0.347656 -14.4429 -14.4429
-0.489053 -14.5207 -14.5207
-0.49479 -14.6856 -14.6856
-0.216584 -14.6947 -14.6947
-0.211602 -14.5297 -14.5297
-0.491919 -14.6031 -14.6031
-0.355684 -14.6901 -14.6901
-0.214088 -14.6121 -14.6121
-0.350324 -14.5252 -14.5252
-0.353 -14.6076 -14.6076
-0.49479 -14.6856 -14.6856
-0.500549 -14.851 -14.851
-0.221602 -14.8601 -14.8601
-0.216584 -14.6947 -14.6947
-0.497667 -14.7683 -14.7683
-0.361072 -14.8555 -14.8555
-0.219088 -14.7773 -14.7773
-0.355684 -14.6901 -14.6901
-0.358374 -14.7727 -14.7727
-0.500549 -14.851 -14.851
-0.506328 -15.0168 -15.0168
-0.226655 -15.0259 -15.0259
-0.221602 -14.8601 -14.8601
-0.503436 -14.9338 -14.9338
-0.366489 -15.0213 -15.0213
-0.224124 -14.943 -14.943
-0.361072 -14.8555 -14.8555
-0.363777 -14.9384 -14.9384
-0.506328 -15.0168 -15.0168
-0.512127 -15.183 -15.183
-0.231745 -15.1922 -15.1922
-0.226655 -15.0259 -15.0259
-0.509225 -15.0998 -15.0998
-0.371933 -15.1876 -15.1876
-0.229196 -15.109 -15.109
-0.366489 -15.0213 -15.0213
-0.369207 -15.1044 -15.1044
-0.512127 -15.183 -15.183
-0.517946 -15.3497 -15.3497
-0.236869 -15.3589 -15.3589
-0.231745 -15.1922 -15.1922
-0.515034 -15.2663 -15.2663
-0.377405 -15.3542 -15.3542
-0.234303 -15.2755 -15.2755
-0.371933 -15.1876 -15.1876
-0.374666 -15.2708 -15.2708
-0.517946 -15.3497 -15.3497
-0.523785 -15.5167 -15.5167
-0.242028 -15.526 -15.526
-0.236869 -15.3589 -15.3589
-0.520863 -15.4331 -15.4331
-0.382903 -15.5213 -15.5213
-0.239444 -15.4424 -15.4424
-0.377405 -15.3542 -15.3542
-0.380151 -15.4377 -15.4377
-0.523785 -15.5167 -15.5167
-0.529641 -15.6841 -15.6841
-0.24722 -15.6935 -15.6935
-0.242028 -15.526 -15.526
-0.526711 -15.6004 -15.6004
-0.388428 -15.6888 -15.6888
-0.24462 -15.6097 -15.6097
-0.382903 -15.5213 -15.5213
-0.385662 -15.605 -15.605
-0.529641 -15.6841 -15.6841
-0.535516 -15.852 -15.852
-0.252446 -15.8613 -15.8613
-0.24722 -15.6935 -15.6935
-0.532576 -15.768 -15.768
-0.393978 -15.8566 -15.8566
-0.249829 -15.7774 -15.7774
-0.388428 -15.6888 -15.6888
-0.3912 -15.7726 -15.7726
-0.535516 -15.852 -15.852
-0.541408 -16.0202 -16.0202
-0.257705 -16.0296 -16.0296
-0.252446 -15.8613 -15.8613
-0.53846 -15.936 -15.936
-0.399554 -16.0249 -16.0249
-0.255071 -15.9454 -15.9454
-0.393978 -15.8566 -15.8566
-0.396763 -15.9407 -15.9407
-0.541408 -16.0202 -16.0202
-0.547318 -16.1888 -16.1888
-0.262996 -16.1982 -16.1982
-0.257705 -16.0296 -16.0296
-0.544361 -16.1044 -16.1044
-0.405154 -16.1935 -16.1935
-0.260346 -16.1139 -16.1139
-0.399554 -16.0249 -16.0249
-0.402351 -16.1091 -16.1091
-0.547318 -16.1888 -16.1888
-0.553243 -16.3577 -16.3577
-0.268318 -16.3672 -16.3672
-0.262996 -16.1982 -16.1982
-0.550278 -16.2732 -16.2732
-0.410778 -16.3624 -16.3624
-0.265653 -16.2827 -16.2827
-0.405154 -16.1935 -16.1935
-0.407963 -16.2779 -16.2779
-0.553243 -16.3577 -16.3577
-0.559185 -16.527 -16.527
-0.273672 -16.5365 -16.5365
-0.268318 -16.3672 -16.3672
-0.556212 -16.4423 -16.4423
-0.416426 -16.5317 -16.5317
-0.270991 -16.4518 -16.4518
-0.410778 -16.3624 -16.3624
-0.413599 -16.447 -16.447
-0.559185 -16.527 -16.527
-0.565142 -16.6967 -16.6967
-0.279056 -16.7062 -16.7062
-0.273672 -16.5365 -16.5365
-0.562161 -16.6118 -16.6118
-0.422097 -16.7014 -16.7014
-0.276361 -16.6213 -16.6213
-0.416426 -16.5317 -16.5317
-0.419259 -16.6165 -16.6165
-0.565142 -16.6967 -16.6967
-0.571113 -16.8666 -16.8666
-0.284471 -16.8762 -16.8762
-0.279056 -16.7062 -16.7062
-0.568126 -16.7816 -16.7816
-0.42779 -16.8714 -16.8714
-0.28176 -16.7912 -16.7912
-0.422097 -16.7014 -16.7014
-0.42494 -16.7864 -16.7864
-0.571113 -16.8666 -16.8666
-0.577099 -17.037 -17.037
-0.289915 -17.0466 -17.0466
-0.284471 -16.8762 -16.8762
-0.574105 -16.9518 -16.9518
-0.433505 -17.0417 -17.0417
-0.287189 -16.9614 -16.9614
-0.42779 -16.8714 -16.8714
-0.430644 -16.9565 -16.9565
-0.577099 -17.037 -17.037
-0.583099 -17.2076 -17.2076
-0.295387 -17.2172 -17.2172
-0.289915 -17.0466 -17.0466
-0.580097 -17.1222 -17.1222
-0.439241 -17.2124 -17.2124
-0.292647 -17.1319 -17.1319
-0.433505 -17.0417 -17.0417
-0.43637 -17.127 -17.127
-0.583099 -17.2076 -17.2076
-0.589111 -17.3785 -17.3785
-0.300888 -17.3882 -17.3882
-0.295387 -17.2172 -17.2172
-0.586103 -17.293 -17.293
-0.444998 -17.3833 -17.3833
-0.298134 -17.3027 -17.3027
-0.439241 -17.2124 -17.2124
-0.442117 -17.2978 -17.2978
-0.589111 -17.3785 -17.3785
-0.595136 -17.5497 -17.5497
-0.306417 -17.5595 -17.5595
-0.300888 -17.3882 -17.3882
-0.592122 -17.4641 -17.4641
-0.450775 -17.5546 -17.5546
-0.303649 -17.4738 -17.4738
-0.444998 -17.3833 -17.3833
-0.447884 -17.4689 -17.4689
-0.595136 -17.5497 -17.5497
-0.601173 -17.7213 -17.7213
-0.311973 -17.731 -17.731
-0.306417 -17.5595 -17.5595
-0.598153 -17.6355 -17.6355
-0.456571 -17.7261 -17.7261
-0.309192 -17.6452 -17.6452
-0.450775 -17.5546 -17.5546
-0.45367 -17.6403 -17.6403
-0.601173 -17.7213 -17.7213
-0.607221 -17.8931 -17.8931
-0.317556 -17.9029 -17.9029
-0.311973 -17.731 -17.731
-0.604196 -17.8071 -17.8071
-0.462387 -17.8979 -17.8979
-0.314761 -17.8169 -17.8169
-0.456571 -17.7261 -17.7261
-0.459476 -17.812 -17.812
-0.607221 -17.8931 -17.8931
-0.61328 -18.0651 -18.0651
-0.323165 -18.075 -18.075
-0.317556 -17.9029 -17.9029
-0.610249 -17.9791 -17.9791
-0.46822 -18.07 -18.07
-0.320357 -17.9889 -17.9889
-0.462387 -17.8979 -17.8979
-0.465301 -17.9839 -17.9839
-0.61328 -18.0651 -18.0651
-0.619349 -18.2375 -18.2375
-0.328799 -18.2473 -18.2473
-0.323165 -18.075 -18.075
-0.616313 -18.1513 -18.1513
-0.474072 -18.2424 -18.2424
-0.325978 -18.1611 -18.1611
-0.46822 -18.07 -18.07
-0.471144 -18.1562 -18.1562
-0.619349 -18.2375 -18.2375
-0.625428 -18.41 -18.41
-0.334457 -18.4199 -18.4199
-0.328799 -18.2473 -18.2473
-0.622387 -18.3237 -18.3237
-0.479941 -18.415 -18.415
-0.331625 -18.3336 -18.3336
-0.474072 -18.2424 -18.2424
-0.477004 -18.3286 -18.3286
-0.625428 -18.41 -18.41
-0.631516 -18.5829 -18.5829
-0.340141 -18.5928 -18.5928
-0.334457 -18.4199 -18.4199
-0.628471 -18.4964 -18.4964
-0.485826 -18.5878 -18.5878
-0.337296 -18.5063 -18.5063
-0.479941 -18.415 -18.415
-0.482882 -18.5014 -18.5014
-0.631516 -18.5829 -18.5829
-0.637612 -18.7559 -18.7559
-0.345847 -18.7659 -18.7659
-0.340141 -18.5928 -18.5928
-0.634563 -18.6694 -18.6694
-0.491728 -18.7609 -18.7609
-0.342991 -18.6793 -18.6793
-0.485826 -18.5878 -18.5878
-0.488775 -18.6743 -18.6743
-0.637612 -18.7559 -18.7559
-0.643716 -18.9292 -18.9292
-0.351577 -18.9392 -18.9392
-0.345847 -18.7659 -18.7659
-0.640663 -18.8426 -18.8426
-0.497645 -18.9342 -18.9342
-0.348709 -18.8525 -18.8525
-0.491728 -18.7609 -18.7609
-0.494684 -18.8475 -18.8475
-0.643716 -18.9292 -18.9292
-0.649827 -19.1027 -19.1027
-0.35733 -19.1127 -19.1127
-0.351577 -18.9392 -18.9392
-0.64677 -19.016 -19.016
-0.503577 -19.1077 -19.1077
-0.354451 -19.026 -19.026
-0.497645 -18.9342 -18.9342
-0.500609 -19.0209 -19.0209
-0.649827 -19.1027 -19.1027
-0.655944 -19.2765 -19.2765
-0.363104 -19.2865 -19.2865
-0.35733 -19.1127 -19.1127
-0.652885 -19.1896 -19.1896
-0.509523 -19.2815 -19.2815
-0.360214 -19.1996 -19.1996
-0.503577 -19.1077 -19.1077
-0.506548 -19.1946 -19.1946
-0.655944 -19.2765 -19.2765
-0.662068 -19.4504 -19.4504
-0.368899 -19.4604 -19.4604
-0.363104 -19.2865 -19.2865
-0.659005 -19.3634 -19.3634
-0.515482 -19.4554 -19.4554
-0.365999 -19.3734 -19.3734
-0.509523 -19.2815 -19.2815
-0.512501 -19.3684 -19.3684
-0.662068 -19.4504 -19.4504
-0.668197 -19.6245 -19.6245
-0.374715 -19.6346 -19.6346
-0.368899 -19.4604 -19.4604
-0.665132 -19.5374 -19.5374
-0.521455 -19.6295 -19.6295
-0.371805 -19.5475 -19.5475
-0.515482 -19.4554 -19.4554
-0.518467 -19.5424 -19.5424
-0.668197 -19.6245 -19.6245
-0.674331 -19.7988 -19.7988
-0.380551 -19.8089 -19.8089
-0.374715 -19.6346 -19.6346
-0.671263 -19.7116 -19.7116
-0.52744 -19.8038 -19.8038
-0.377631 -19.7217 -19.7217
-0.521455 -19.6295 -19.6295
-0.524446 -19.7166 -19.7166
-0.674331 -19.7988 -19.7988
-0.680469 -19.9733 -19.9733
-0.386407 -19.9834 -19.9834
-0.380551 -19.8089 -19.8089
-0.677399 -19.886 -19.886
-0.533437 -19.9783 -19.9783
-0.383477 -19.8961 -19.8961
-0.52744 -19.8038 -19.8038
-0.530437 -19.891 -19.891
-0.680469 -19.9733 -19.9733
-0.68661 -20.1479 -20.1479
-0.392281 -20.158 -20.158
-0.386407 -19.9834 -19.9834
-0.683539 -20.0605 -20.0605
-0.539445 -20.1529 -20.1529
-0.389342 -20.0707 -20.0707
-0.533437 -19.9783 -19.9783
-0.536439 -20.0656 -20.0656
-0.68661 -20.1479 -20.1479
-0.692755 -20.3227 -20.3227
-0.398174 -20.3328 -20.3328
-0.392281 -20.158 -20.158
-0.689682 -20.2353 -20.2353
-0.545463 -20.3277 -20.3277
-0.395226 -20.2454 -20.2454
-0.539445 -20.1529 -20.1529
-0.542453 -20.2403 -20.2403
-0.692755 -20.3227 -20.3227
-0.698902 -20.4976 -20.4976
-0.404084 -20.5077 -20.5077
-0.398174 -20.3328 -20.3328
-0.695828 -20.4101 -20.4101
-0.551492 -20.5026 -20.5026
-0.401127 -20.4203 -20.4203
-0.545463 -20.3277 -20.3277
-0.548476 -20.4152 -20.4152
-0.698902 -20.4976 -20.4976
-0.70505 -20.6726 -20.6726
-0.410012 -20.6828 -20.6828
-0.404084 -20.5077 -20.5077
-0.701976 -20.5851 -20.5851
-0.55753 -20.6777 -20.6777
-0.407046 -20.5953 -20.5953
-0.551492 -20.5026 -20.5026
-0.55451 -20.5902 -20.5902
-0.70505 -20.6726 -20.6726
-0.7112 -20.8478 -20.8478
-0.415955 -20.858 -20.858
-0.410012 -20.6828 -20.6828
-0.708125 -20.7602 -20.7602
-0.563577 -20.8529 -20.8529
-0.412981 -20.7704 -20.7704
-0.55753 -20.6777 -20.6777
-0.560552 -20.7653 -20.7653
-0.7112 -20.8478 -20.8478
-0.71735 -21.0231 -21.0231
-0.421915 -21.0333 -21.0333
-0.415955 -20.858 -20.858
-0.714275 -20.9355 -20.9355
-0.569632 -21.0282 -21.0282
-0.418933 -20.9457 -20.9457
-0.563577 -20.8529 -20.8529
-0.566603 -20.9406 -20.9406
-0.71735 -21.0231 -21.0231
-0.7235 -21.1986 -21.1986
-0.42789 -21.2088 -21.2088
-0.421915 -21.0333 -21.0333
-0.720425 -21.1108 -21.1108
-0.575694 -21.2037 -21.2037
-0.4249 -21.121 -21.121
-0.569632 -21.0282 -21.0282
-0.572662 -21.1159 -21.1159
-0.7235 -21.1986 -21.1986
-0.729649 -21.3741 -21.3741
-0.433879 -21.3843 -21.3843
-0.42789 -21.2088 -21.2088
-0.726575 -21.2863 -21.2863
-0.581764 -21.3792 -21.3792
-0.430883 -21.2965 -21.2965
-0.575694 -21.2037 -21.2037
-0.578728 -21.2914 -21.2914
-0.729649 -21.3741 -21.3741
-0.735797 -21.5497 -21.5497
-0.439883 -21.5599 -21.5599
-0.433879 -21.3843 -21.3843
-0.732723 -21.4619 -21.4619
-0.58784 -21.5548 -21.5548
-0.436879 -21.4721 -21.4721
-0.581764 -21.3792 -21.3792
-0.584801 -21.467 -21.467
-0.735797 -21.5497 -21.5497
-0.741942 -21.7254 -21.7254
-0.445901 -21.7356 -21.7356
-0.439883 -21.5599 -21.5599
-0.73887 -21.6375 -21.6375
-0.593921 -21.7305 -21.7305
-0.442891 -21.6478 -21.6478
-0.58784 -21.5548 -21.5548
-0.59088 -21.6426 -21.6426
-0.741942 -21.7254 -21.7254
-0.748084 -21.9011 -21.9011
-0.451934 -21.9114 -21.9114
-0.445901 -21.7356 -21.7356
-0.745014 -21.8133 -21.8133
-0.600009 -21.9063 -21.9063
-0.448916 -21.8235 -21.8235
-0.593921 -21.7305 -21.7305
-0.596964 -21.8184 -21.8184
-0.748084 -21.9011 -21.9011
-0.754221 -22.077 -22.077
-0.45798 -22.0872 -22.0872
-0.451934 -21.9114 -21.9114
-0.751153 -21.9891 -21.9891
-0.606101 -22.0821 -22.0821
-0.454955 -21.9993 -21.9993
-0.600009 -21.9063 -21.9063
-0.603054 -21.9942 -21.9942
-0.754221 -22.077 -22.077
-0.760353 -22.2529 -22.2529
-0.464042 -22.2631 -22.2631
-0.45798 -22.0872 -22.0872
-0.757288 -22.1649 -22.1649
-0.612197 -22.258 -22.258
-0.461009 -22.1752 -22.1752
-0.606101 -22.0821 -22.0821
-0.609149 -22.17 -22.17
-0.760353 -22.2529 -22.2529
-0.766477 -22.4288 -22.4288
-0.470117 -22.4391 -22.4391
-0.464042 -22.2631 -22.2631
-0.763416 -22.3408 -22.3408
-0.618297 -22.4339 -22.4339
-0.467077 -22.3511 -22.3511
-0.612197 -22.258 -22.258
-0.615247 -22.346 -22.346
-0.766477 -22.4288 -22.4288
-0.772594 -22.6048 -22.6048
-0.476204 -22.615 -22.615
-0.470117 -22.4391 -22.4391
-0.769536 -22.5168 -22.5168
-0.624399 -22.6099 -22.6099
-0.473159 -22.527 -22.527
-0.618297 -22.4339 -22.4339
-0.621348 -22.5219 -22.5219
-0.772594 -22.6048 -22.6048
-0.778707 -22.7807 -22.7807
-0.482296 -22.791 -22.791
-0.476204 -22.615 -22.615
-0.775651 -22.6928 -22.6928
-0.630501 -22.7859 -22.7859
-0.479249 -22.703 -22.703
-0.624399 -22.6099 -22.6099
-0.62745 -22.6979 -22.6979
-0.778707 -22.7807 -22.7807
-0.784815 -22.9567 -22.9567
-0.488387 -22.9669 -22.9669
-0.482296 -22.791 -22.791
-0.781761 -22.8687 -22.8687
-0.6366 -22.9618 -22.9618
-0.485342 -22.879 -22.879
-0.630501 -22.7859 -22.7859
-0.633551 -22.8738 -22.8738
-0.784815 -22.9567 -22.9567
-0.790923 -23.1325 -23.1325
-0.494462 -23.1428 -23.1428
-0.488387 -22.9669 -22.9669
-0.787869 -23.0446 -23.0446
-0.642691 -23.1376 -23.1376
-0.491427 -23.0549 -23.0549
-0.6366 -22.9618 -22.9618
-0.639647 -23.0497 -23.0497
0 0 0
0.0012927 0.000208184 0.000208184
0.00397216 -0.000423207 -0.000423207
0 0 0
0.000643096 0.000426491 0.000426491
0.00262235 -2.99751e-05 -2.99751e-05
0.00192541 0.000115113 0.000115113
0 0 0
0.00127244 0.000319845 0.000319845
0.0012927 0.000208184 0.000208184
0.00269493 -0.00202907 -0.00202907
0.00824841 -0.0031285 -0.0031285
0.00397216 -0.000423207 -0.000423207
0.00198062 -0.000624002 -0.000624002
0.00544647 -0.00242972 -0.00242972
0.00608369 -0.00151741 -0.00151741
0.00262235 -2.99751e-05 -2.99751e-05
0.00401667 -0.000956864 -0.000956864
0.00269493 -0.00202907 -0.00202907
0.00414681 -0.00641262 -0.00641262
0.0127015 -0.00780162 -0.00780162
0.00824841 -0.0031285 -0.0031285
0.0034172 -0.0039671 -0.0039671
0.0083885 -0.00692775 -0.00692775
0.0104616 -0.00523183 -0.00523183
0.00544647 -0.00242972 -0.00242972
0.00690732 -0.00442998 -0.00442998
0.00414681 -0.00641262 -0.00641262
0.0056277 -0.0127471 -0.0127471
0.0171885 -0.0142689 -0.0142689
0.0127015 -0.00780162 -0.00780162
0.00488562 -0.00934481 -0.00934481
0.011372 -0.0133182 -0.0133182
0.0149459 -0.0108159 -0.0108159
0.0083885 -0.00692775 -0.00692775
0.00987891 -0.00989444 -0.00989444
0.0056277 -0.0127471 -0.0127471
0.00710195 -0.0209118 -0.0209118
0.0216556 -0.0224825 -0.0224825
0.0171885 -0.0142689 -0.0142689
0.00636665 -0.0166055 -0.0166055
0.0143483 -0.0215071 -0.0215071
0.0194266 -0.0181587 -0.0181587
0.011372 -0.0133182 -0.0133182
0.0128629 -0.0171914 -0.0171914
0.00710195 -0.0209118 -0.0209118
0.00856156 -0.0308448 -0.0308448
0.026075 -0.0324242 -0.0324242
0.0216556 -0.0224825 -0.0224825
0.00783408 -0.0256597 -0.0256597
0.0172939 -0.0314459 -0.0314459
0.0238716 -0.0272377 -0.0272377
0.0143483 -0.0215071 -0.0215071
0.0158255 -0.0262593 -0.0262593
0.00856156 -0.0308448 -0.0308448
0.00999843 -0.0425139 -0.0425139
0.030447 -0.044091 -0.044091
0.026075 -0.0324242 -0.0324242
0.00928292 -0.0364636 -0.0364636
0.0202033 -0.0431161 -0.0431161
0.0282668 -0.0380422 -0.0380422
0.0172939 -0.0314459 -0.0314459
0.0187531 -0.0370654 -0.0370654
0.00999843 -0.0425139 -0.0425139
0.0114134 -0.055903 -0.055903
0.0347729 -0.057477 -0.057477
0.030447 -0.044091 -0.044091
0.0107086 -0.0489941 -0.0489941
0.0230772 -0.0565055 -0.0565055
0.0326154 -0.0505694 -0.0505694
0.0202033 -0.0431161 -0.0431161
0.0216445 -0.0495964 -0.0495964
0.0114134 -0.055903 -0.055903
0.0128062 -0.0710018 -0.0710018
0.0390572 -0.0725767 -0.0725767
0.0347729 -0.057477 -0.057477
0.0121125 -0.0632392 -0.0632392
0.0259179 -0.0716064 -0.0716064
0.03692 -0.0648131 -0.0648131
0.0230772 -0.0565055 -0.0565055
0.0245015 -0.0638425 -0.0638425
0.0128062 -0.0710018 -0.0710018
0.0141778 -0.0878025 -0.0878025
0.043302 -0.0893825 -0.0893825
0.0390572 -0.0725767 -0.0725767
0.0134946 -0.0791899 -0.0791899
0.0287274 -0.088411 -0.088411
0.0411844 -0.0807669 -0.0807669
0.0259179 -0.0716064 -0.0716064
0.0273265 -0.0797962 -0.0797962
0.0141778 -0.0878025 -0.0878025
0.0155281 -0.106297 -0.106297
0.0475091 -0.107886 -0.107886
0.043302 -0.0893825 -0.0893825
0.0148556 -0.0968387 -0.0968387
0.0315068 -0.106912 -0.106912
0.0454102 -0.0984227 -0.0984227
0.0287274 -0.088411 -0.088411
0.0301209 -0.0974498 -0.0974498
0.0155281 -0.106297 -0.106297
0.016857 -0.126478 -0.126478
0.0516786 -0.12808 -0.12808
0.0475091 -0.107886 -0.107886
0.0161953 -0.116178 -0.116178
0.0342565 -0.1271 -0.1271
0.0495985 -0.117772 -0.117772
0.0315068 -0.106912 -0.106912
0.0328854 -0.116795 -0.116795
0.016857 -0.126478 -0.126478
0.0181639 -0.148337 -0.148337
0.0558106 -0.149953 -0.149953
0.0516786 -0.12808 -0.12808
0.0175132 -0.137199 -0.137199
0.0369762 -0.148967 -0.148967
0.0537493 -0.138807 -0.138807
0.0342565 -0.1271 -0.1271
0.0356201 -0.137824 -0.137824
0.0181639 -0.148337 -0.148337
0.0194481 -0.171866 -0.171866
0.0599043 -0.173498 -0.173498
0.0558106 -0.149953 -0.149953
0.0188089 -0.159893 -0.159893
0.0396654 -0.172505 -0.172505
0.0578623 -0.161517 -0.161517
0.0369762 -0.148967 -0.148967
0.0383247 -0.160528 -0.160528
0.0194481 -0.171866 -0.171866
0.0207087 -0.197054 -0.197054
0.0639592 -0.198706 -0.198706
0.0599043 -0.173498 -0.173498
0.0200814 -0.184253 -0.184253
0.0423232 -0.197704 -0.197704
0.0619367 -0.185895 -0.185895
0.0396654 -0.172505 -0.172505
0.0409983 -0.184897 -0.184897
0.0207087 -0.197054 -0.197054
0.0219448 -0.223894 -0.223894
0.0679742 -0.225567 -0.225567
0.0639592 -0.198706 -0.198706
0.0213298 -0.210268 -0.210268
0.0449489 -0.224555 -0.224555
0.0659717 -0.21193 -0.21193
0.0423232 -0.197704 -0.197704
0.0436401 -0.210924 -0.210924
0.0219448 -0.223894 -0.223894
0.0231555 -0.252377 -0.252377
0.0719485 -0.254072 -0.254072
0.0679742 -0.225567 -0.225567
0.0225534 -0.237931 -0.237931
0.0475415 -0.25305 -0.25305
0.0699665 -0.239615 -0.239615
0.0449489 -0.224555 -0.224555
0.0462494 -0.238598 -0.238598
0.0231555 -0.252377 -0.252377
0.0243399 -0.282493 -0.282493
0.0758811 -0.284212 -0.284212
0.0719485 -0.254072 -0.254072
0.023751 -0.267231 -0.267231
0.0501001 -0.283179 -0.283179
0.0739201 -0.268938 -0.268938
0.0475415 -0.25305 -0.25305
0.0488251 -0.267911 -0.267911
0.0243399 -0.282493 -0.282493
0.025497 -0.314233 -0.314233
0.0797712 -0.315978 -0.315978
0.0758811 -0.284212 -0.284212
0.0249219 -0.29816 -0.29816
0.0526238 -0.314933 -0.314933
0.0778315 -0.299892 -0.299892
0.0501001 -0.283179 -0.283179
0.0513664 -0.298853 -0.298853
0.025497 -0.314233 -0.314233
0.026626 -0.347588 -0.347588
0.0836177 -0.349361 -0.349361
0.0797712 -0.315978 -0.315978
0.0260651 -0.330709 -0.330709
0.0551117 -0.348303 -0.348303
0.0816999 -0.332468 -0.332468
0.0526238 -0.314933 -0.314933
0.0538723 -0.331417 -0.331417
0.026626 -0.347588 -0.347588
0.0277259 -0.38255 -0.38255
0.0874198 -0.384351 -0.384351
0.0836177 -0.349361 -0.349361
0.0271796 -0.364869 -0.364869
0.0575628 -0.38328 -0.38328
0.0855244 -0.366656 -0.366656
0.0551117 -0.348303 -0.348303
0.0563419 -0.365591 -0.365591
0.0277259 -0.38255 -0.38255
0.0287958 -0.419108 -0.419108
0.0911767 -0.42094 -0.42094
0.0874198 -0.384351 -0.384351
0.0282646 -0.40063 -0.40063
0.0599763 -0.419854 -0.419854
0.089304 -0.402446 -0.402446
0.0575628 -0.38328 -0.38328
0.0587743 -0.401368 -0.401368
0.0287958 -0.419108 -0.419108
0.0298349 -0.457254 -0.457254
0.0948874 -0.459118 -0.459118
0.0911767 -0.42094 -0.42094
0.0293193 -0.437983 -0.437983
0.0623512 -0.458017 -0.458017
0.0930378 -0.439831 -0.439831
0.0599763 -0.419854 -0.419854
0.0611686 -0.438738 -0.438738
0.0298349 -0.457254 -0.457254
0.0308424 -0.496979 -0.496979
0.098551 -0.498876 -0.498876
0.0948874 -0.459118 -0.459118
0.0303427 -0.47692 -0.47692
0.0646869 -0.49776 -0.49776
0.0967251 -0.4788 -0.4788
0.0623512 -0.458017 -0.458017
0.063524 -0.477692 -0.477692
0.0308424 -0.496979 -0.496979
0.0318173 -0.538274 -0.538274
0.102167 -0.540205 -0.540205
0.098551 -0.498876 -0.498876
0.0313339 -0.517431 -0.517431
0.0669823 -0.539073 -0.539073
0.100365 -0.519345 -0.519345
0.0646869 -0.49776 -0.49776
0.0658397 -0.518221 -0.518221
0.0318173 -0.538274 -0.538274
0.0327589 -0.581129 -0.581129
0.105734 -0.583096 -0.583096
0.102167 -0.540205 -0.540205
0.0322923 -0.559507 -0.559507
0.0692368 -0.581947 -0.581947
0.103957 -0.561456 -0.561456
0.0669823 -0.539073 -0.539073
0.0681147 -0.560315 -0.560315
0.0327589 -0.581129 -0.581129
0.0336664 -0.625536 -0.625536
0.109252 -0.62754 -0.62754
0.105734 -0.583096 -0.583096
0.033217 -0.603139 -0.603139
0.0714495 -0.626373 -0.626373
0.107499 -0.605125 -0.605125
0.0692368 -0.581947 -0.581947
0.0703484 -0.603967 -0.603967
0.0336664 -0.625536 -0.625536
0.034539 -0.671484 -0.671484
0.112719 -0.673527 -0.673527
0.109252 -0.62754 -0.62754
0.0341071 -0.648318 -0.648318
0.0736195 -0.672342 -0.672342
0.110992 -0.650341 -0.650341
0.0714495 -0.626373 -0.626373
0.0725399 -0.649165 -0.649165
0.034539 -0.671484 -0.671484
0.0353758 -0.718966 -0.718966
0.116135 -0.721049 -0.721049
0.112719 -0.673527 -0.673527
0.0349619 -0.695034 -0.695034
0.0757462 -0.719845 -0.719845
0.114434 -0.697097 -0.697097
0.0736195 -0.672342 -0.672342
0.0746883 -0.695902 -0.695902
0.0353758 -0.718966 -0.718966
0.0361763 -0.767972 -0.767972
0.1195 -0.770097 -0.770097
0.116135 -0.721049 -0.721049
0.0357807 -0.743279 -0.743279
0.0778288 -0.768873 -0.768873
0.117824 -0.745383 -0.745383
0.0757462 -0.719845 -0.719845
0.0767931 -0.744169 -0.744169
0.0361763 -0.767972 -0.767972
0.0369396 -0.818493 -0.818493
0.122812 -0.82066 -0.82066
0.1195 -0.770097 -0.770097
0.0365626 -0.793044 -0.793044
0.0798666 -0.819416 -0.819416
0.121163 -0.795189 -0.795189
0.0778288 -0.768873 -0.768873
0.0788534 -0.793955 -0.793955
0.0369396 -0.818493 -0.818493
0.037665 -0.87052 -0.87052
0.126071 -0.87273 -0.87273
0.122812 -0.82066 -0.82066
0.0373071 -0.844319 -0.844319
0.0818588 -0.871465 -0.871465
0.124448 -0.846507 -0.846507
0.0798666 -0.819416 -0.819416
0.0808685 -0.845253 -0.845253
0.037665 -0.87052 -0.87052
0.0383518 -0.924044 -0.924044
0.129276 -0.926299 -0.926299
0.126071 -0.87273 -0.87273
0.0380133 -0.897095 -0.897095
0.0838048 -0.925012 -0.925012
0.12768 -0.899328 -0.899328
0.0818588 -0.871465 -0.871465
0.0828376 -0.898052 -0.898052
0.0383518 -0.924044 -0.924044
0.0389994 -0.979055 -0.979055
0.132426 -0.981356 -0.981356
0.129276 -0.926299 -0.926299
0.0386806 -0.951364 -0.951364
0.0857038 -0.980047 -0.980047
0.130858 -0.953642 -0.953642
0.0838048 -0.925012 -0.925012
0.0847602 -0.952344 -0.952344
0.0389994 -0.979055 -0.979055
0.039607 -1.03554 -1.03554
0.135521 -1.03789 -1.03789
0.132426 -0.981356 -0.981356
0.0393082 -1.00712 -1.00712
0.0875551 -1.03656 -1.03656
0.133981 -1.00944 -1.00944
0.0857038 -0.980047 -0.980047
0.0866354 -1.00812 -1.00812
0.039607 -1.03554 -1.03554
0.040174 -1.0935 -1.0935
0.13856 -1.0959 -1.0959
0.135521 -1.03789 -1.03789
0.0398956 -1.06434 -1.06434
0.0893582 -1.09455 -1.09455
0.137048 -1.06671 -1.06671
0.0875551 -1.03656 -1.03656
0.0884627 -1.06537 -1.06537
0.040174 -1.0935 -1.0935
0.0406998 -1.15292 -1.15292
0.141543 -1.15537 -1.15537
0.13856 -1.0959 -1.0959
0.0404421 -1.12303 -1.12303
0.0911124 -1.15399 -1.15399
0.140059 -1.12545 -1.12545
0.0893582 -1.09455 -1.09455
0.0902415 -1.12409 -1.12409
0.0406998 -1.15292 -1.15292
0.0411837 -1.21379 -1.21379
0.144468 -1.21629 -1.21629
0.141543 -1.15537 -1.15537
0.040947 -1.18318 -1.18318
0.092817 -1.21489 -1.21489
0.143012 -1.18565 -1.18565
0.0911124 -1.15399 -1.15399
0.0919709 -1.18426 -1.18426
0.0411837 -1.21379 -1.21379
0.0416251 -1.27611 -1.27611
0.147335 -1.27865 -1.27865
0.144468 -1.21629 -1.21629
0.0414097 -1.24477 -1.24477
0.0944715 -1.27723 -1.27723
0.145909 -1.24729 -1.24729
0.092817 -1.21489 -1.21489
0.0936506 -1.24588 -1.24588
0.0416251 -1.27611 -1.27611
0.0420235 -1.33985 -1.33985
0.150144 -1.34245 -1.34245
0.147335 -1.27865 -1.27865
0.0418297 -1.3078 -1.3078
0.0960753 -1.341 -1.341
0.148747 -1.31037 -1.31037
0.0944715 -1.27723 -1.27723
0.0952798 -1.30893 -1.30893
0.0420235 -1.33985 -1.33985
0.0423782 -1.40502 -1.40502
0.152894 -1.40767 -1.40767
0.150144 -1.34245 -1.34245
0.0422063 -1.37226 -1.37226
0.0976277 -1.4062 -1.4062
0.151527 -1.37488 -1.37488
0.0960753 -1.341 -1.341
0.096858 -1.37342 -1.37342
0.0423782 -1.40502 -1.40502
0.0426887 -1.47161 -1.47161
0.155585 -1.47431 -1.47431
0.152894 -1.40767 -1.40767
0.042539 -1.43814 -1.43814
0.0991283 -1.47281 -1.47281
0.154247 -1.44082 -1.44082
0.0976277 -1.4062 -1.4062
0.0983845 -1.43933 -1.43933
0.0426887 -1.47161 -1.47161
0.0429545 -1.53959 -1.53959
0.158215 -1.54236 -1.54236
0.155585 -1.47431 -1.47431
0.0428273 -1.50542 -1.50542
0.100576 -1.54083 -1.54083
0.156908 -1.50816 -1.50816
0.0991283 -1.47281 -1.47281
0.099859 -1.50664 -1.50664
0.0429545 -1.53959 -1.53959
0.043175 -1.60898 -1.60898
0.160785 -1.6118 -1.6118
0.158215 -1.54236 -1.54236
0.0430705 -1.57411 -1.57411
0.101972 -1.61024 -1.61024
0.159508 -1.5769 -1.5769
0.100576 -1.54083 -1.54083
0.101281 -1.57536 -1.57536
0.043175 -1.60898 -1.60898
0.0433498 -1.67975 -1.67975
0.163294 -1.68263 -1.68263
0.160785 -1.6118 -1.6118
0.0432682 -1.64419 -1.64419
0.103313 -1.68104 -1.68104
0.162047 -1.64704 -1.64704
0.101972 -1.61024 -1.61024
0.102649 -1.64547 -1.64547
0.0433498 -1.67975 -1.67975
0.0434782 -1.75191 -1.75191
0.165741 -1.75484 -1.75484
0.163294 -1.68263 -1.68263
0.0434198 -1.71566 -1.71566
0.104601 -1.75323 -1.75323
0.164525 -1.71856 -1.71856
0.103313 -1.68104 -1.68104
0.103964 -1.71696 -1.71696
0.0434782 -1.75191 -1.75191
0.0435598 -1.82543 -1.82543
0.168125 -1.82842 -1.82842
0.165741 -1.75484 -1.75484
0.0435249 -1.7885 -1.7885
0.105834 -1.82678 -1.82678
0.166941 -1.79146 -1.79146
0.104601 -1.75323 -1.75323
0.105225 -1.78983 -1.78983
0.0435598 -1.82543 -1.82543
0.0435942 -1.90031 -1.90031
0.170448 -1.90336 -1.90336
0.168125 -1.82842 -1.82842
0.043583 -1.8627 -1.8627
0.107013 -1.90169 -1.90169
0.169294 -1.86572 -1.86572
0.105834 -1.82678 -1.82678
0.10643 -1.86406 -1.86406
0.0435942 -1.90031 -1.90031
0.0435809 -1.97654 -1.97654
0.172707 -1.97965 -1.97965
0.170448 -1.90336 -1.90336
0.0435936 -1.93826 -1.93826
0.108136 -1.97795 -1.97795
0.171585 -1.94134 -1.94134
0.107013 -1.90169 -1.90169
0.107581 -1.93965 -1.93965
0.0435809 -1.97654 -1.97654
0.0435194 -2.05411 -2.05411
0.174903 -2.05729 -2.05729
0.172707 -1.97965 -1.97965
0.0435562 -2.01516 -2.01516
0.109203 -2.05556 -2.05556
0.173813 -2.0183 -2.0183
0.108136 -1.97795 -1.97795
0.108676 -2.01659 -2.01659
0.0435194 -2.05411 -2.05411
0.0434094 -2.13302 -2.13302
0.177034 -2.13625 -2.13625
0.174903 -2.05729 -2.05729
0.0434705 -2.0934 -2.0934
0.110214 -2.1345 -2.1345
0.175976 -2.0966 -2.0966
0.109203 -2.05556 -2.05556
0.109715 -2.09486 -2.09486
0.0434094 -2.13302 -2.13302
0.0432503 -2.21325 -2.21325
0.179102 -2.21655 -2.21655
0.177034 -2.13625 -2.13625
0.043336 -2.17297 -2.17297
0.111168 -2.21476 -2.21476
0.178076 -2.17623 -2.17623
0.110214 -2.1345 -2.1345
0.110698 -2.17446 -2.17446
0.0432503 -2.21325 -2.21325
0.0430419 -2.2948 -2.2948
0.181104 -2.29815 -2.29815
0.179102 -2.21655 -2.21655
0.0431523 -2.25386 -2.25386
0.112065 -2.29634 -2.29634
0.180111 -2.25719 -2.25719
0.111168 -2.21476 -2.21476
0.111624 -2.25538 -2.25538
0.0430419 -2.2948 -2.2948
0.0427837 -2.37765 -2.37765
0.183042 -2.38107 -2.38107
0.181104 -2.29815 -2.29815
0.042919 -2.33606 -2.33606
0.112905 -2.37922 -2.37922
0.182081 -2.33945 -2.33945
0.112065 -2.29634 -2.29634
0.112492 -2.33761 -2.33761
0.0427837 -2.37765 -2.37765
0.0424753 -2.46179 -2.46179
0.184914 -2.46528 -2.46528
0.183042 -2.38107 -2.38107
0.0426358 -2.41956 -2.41956
0.113687 -2.4634 -2.4634
0.183986 -2.42301 -2.42301
0.112905 -2.37922 -2.37922
0.113303 -2.42115 -2.42115
0.0424753 -2.46179 -2.46179
0.0421164 -2.54723 -2.54723
0.18672 -2.55078 -2.55078
0.184914 -2.46528 -2.46528
0.0423022 -2.50435 -2.50435
0.11441 -2.54886 -2.54886
0.185825 -2.50787 -2.50787
0.113687 -2.4634 -2.4634
0.114056 -2.50597 -2.50597
0.0421164 -2.54723 -2.54723
0.0417067 -2.63394 -2.63394
0.18846 -2.63755 -2.63755
0.18672 -2.55078 -2.55078
0.0419179 -2.59042 -2.59042
0.115076 -2.63561 -2.63561
0.187598 -2.59401 -2.59401
0.11441 -2.54886 -2.54886
0.11475 -2.59208 -2.59208
0.0417067 -2.63394 -2.63394
0.0412458 -2.72192 -2.72192
0.190134 -2.7256 -2.7256
0.18846 -2.63755 -2.63755
0.0414826 -2.67777 -2.67777
0.115682 -2.72363 -2.72363
0.189305 -2.68142 -2.68142
0.115076 -2.63561 -2.63561
0.115386 -2.67946 -2.67946
0.0412458 -2.72192 -2.72192
0.0407333 -2.81116 -2.81116
0.19174 -2.81491 -2.81491
0.190134 -2.7256 -2.7256
0.040996 -2.76638 -2.76638
0.116229 -2.8129 -2.8129
0.190945 -2.7701 -2.7701
0.115682 -2.72363 -2.72363
0.115963 -2.76811 -2.76811
0.0407333 -2.81116 -2.81116
0.0401691 -2.90165 -2.90165
0.19328 -2.90547 -2.90547
0.19174 -2.81491 -2.81491
0.0404577 -2.85625 -2.85625
0.116717 -2.90343 -2.90343
0.192518 -2.86003 -2.86003
0.116229 -2.8129 -2.8129
0.11648 -2.85801 -2.85801
0.0401691 -2.90165 -2.90165
0.0395528 -2.99339 -2.99339
0.194752 -2.99727 -2.99727
0.19328 -2.90547 -2.90547
0.0398675 -2.94736 -2.94736
0.117145 -2.99519 -2.99519
0.194024 -2.95121 -2.95121
0.116717 -2.90343 -2.90343
0.116938 -2.94916 -2.94916
0.0395528 -2.99339 -2.99339
0.0388841 -3.08635 -3.08635
0.196156 -3.0903 -3.0903
0.194752 -2.99727 -2.99727
0.039225 -3.03971 -3.03971
0.117512 -3.08819 -3.08819
0.195462 -3.04363 -3.04363
0.117145 -2.99519 -2.99519
0.117336 -3.04154 -3.04154
0.0388841 -3.08635 -3.08635
0.0381628 -3.18054 -3.18054
0.197493 -3.18456 -3.18456
0.196156 -3.0903 -3.0903
0.0385301 -3.13329 -3.13329
0.11782 -3.18242 -3.18242
0.196833 -3.13728 -3.13728
0.117512 -3.08819 -3.08819
0.117674 -3.13515 -3.13515
0.0381628 -3.18054 -3.18054
0.0373887 -3.27594 -3.27594
0.198761 -3.28003 -3.28003
0.197493 -3.18456 -3.18456
0.0377824 -3.22809 -3.22809
0.118067 -3.27786 -3.27786
0.198135 -3.23214 -3.23214
0.11782 -3.18242 -3.18242
0.117951 -3.22999 -3.22999
0.0373887 -3.27594 -3.27594
0.0365614 -3.37255 -3.37255
0.19996 -3.37671 -3.37671
0.198761 -3.28003 -3.28003
0.0369817 -3.3241 -3.3241
0.118253 -3.3745 -3.3745
0.199369 -3.32822 -3.32822
0.118067 -3.27786 -3.27786
0.118168 -3.32603 -3.32603
0.0365614 -3.37255 -3.37255
0.0356807 -3.47036 -3.47036
0.201091 -3.47458 -3.47458
0.19996 -3.37671 -3.37671
0.0361277 -3.42131 -3.42131
0.118378 -3.47234 -3.47234
0.200534 -3.42549 -3.42549
0.118253 -3.3745 -3.3745
0.118323 -3.42327 -3.42327
0.0356807 -3.47036 -3.47036
0.0347465 -3.56935 -3.56935
0.202153 -3.57364 -3.57364
0.201091 -3.47458 -3.47458
0.0352203 -3.51971 -3.51971
0.118442 -3.57137 -3.57137
0.201631 -3.52396 -3.52396
0.118378 -3.47234 -3.47234
0.118418 -3.52171 -3.52171
0.0347465 -3.56935 -3.56935
0.0337586 -3.66952 -3.66952
0.203146 -3.67388 -3.67388
0.202153 -3.57364 -3.57364
0.0342593 -3.61929 -3.61929
0.118445 -3.67158 -3.67158
0.202659 -3.62362 -3.62362
0.118442 -3.57137 -3.57137
0.118451 -3.62133 -3.62133
0.0337586 -3.66952 -3.66952
0.0327167 -3.77086 -3.77086
0.20407 -3.77529 -3.77529
0.203146 -3.67388 -3.67388
0.0332444 -3.72004 -3.72004
0.118386 -3.77295 -3.77295
0.203617 -3.72444 -3.72444
0.118445 -3.67158 -3.67158
0.118423 -3.72212 -3.72212
0.0327167 -3.77086 -3.77086
0.0316207 -3.87336 -3.87336
0.204924 -3.87786 -3.87786
0.20407 -3.77529 -3.77529
0.0321755 -3.82196 -3.82196
0.118265 -3.87549 -3.87549
0.204506 -3.82643 -3.82643
0.118386 -3.77295 -3.77295
0.118333 -3.82407 -3.82407
0.0316207 -3.87336 -3.87336
0.0304704 -3.97701 -3.97701
0.205709 -3.98158 -3.98158
0.204924 -3.87786 -3.87786
0.0310524 -3.92504 -3.92504
0.118082 -3.97917 -3.97917
0.205326 -3.92958 -3.92958
0.118265 -3.87549 -3.87549
0.118181 -3.92719 -3.92719
0.0304704 -3.97701 -3.97701
0.0292658 -4.0818 -4.0818
0.206424 -4.08644 -4.08644
0.205709 -3.98158 -3.98158
0.0298749 -4.02926 -4.02926
0.117837 -4.084 -4.084
0.206075 -4.03387 -4.03387
0.118082 -3.97917 -3.97917
0.117968 -4.03144 -4.03144
0.0292658 -4.0818 -4.0818
0.0280065 -4.18772 -4.18772
0.207069 -4.19244 -4.19244
0.206424 -4.08644 -4.08644
0.028643 -4.13462 -4.13462
0.11753 -4.18996 -4.18996
0.206755 -4.1393 -4.1393
0.117837 -4.084 -4.084
0.117692 -4.13684 -4.13684
0.0280065 -4.18772 -4.18772
0.0266926 -4.29477 -4.29477
0.207644 -4.29956 -4.29956
0.207069 -4.19244 -4.19244
0.0273564 -4.2411 -4.2411
0.117161 -4.29704 -4.29704
0.207365 -4.24586 -4.24586
0.11753 -4.18996 -4.18996
0.117353 -4.24336 -4.24336
0.0266926 -4.29477 -4.29477
0.0253239 -4.40293 -4.40293
0.208149 -4.40779 -4.40779
0.207644 -4.29956 -4.29956
0.0260151 -4.34871 -4.34871
0.116729 -4.40524 -4.40524
0.207905 -4.35353 -4.35353
0.117161 -4.29704 -4.29704
0.116953 -4.351 -4.351
0.0253239 -4.40293 -4.40293
0.0239004 -4.51219 -4.51219
0.208584 -4.51713 -4.51713
0.208149 -4.40779 -4.40779
0.024619 -4.45742 -4.45742
0.116235 -4.51454 -4.51454
0.208375 -4.46232 -4.46232
0.116729 -4.40524 -4.40524
0.11649 -4.45975 -4.45975
0.0239004 -4.51219 -4.51219
0.0224218 -4.62256 -4.62256
0.208948 -4.62756 -4.62756
0.208584 -4.51713 -4.51713
0.023168 -4.56724 -4.56724
0.115678 -4.62494 -4.62494
0.208775 -4.57221 -4.57221
0.116235 -4.51454 -4.51454
0.115964 -4.56961 -4.56961
0.0224218 -4.62256 -4.62256
0.0208882 -4.73401 -4.73401
0.209242 -4.73908 -4.73908
0.208948 -4.62756 -4.62756
0.0216619 -4.67815 -4.67815
0.115058 -4.73643 -4.73643
0.209104 -4.68319 -4.68319
0.115678 -4.62494 -4.62494
0.115376 -4.68055 -4.68055
0.0208882 -4.73401 -4.73401
0.0192995 -4.84653 -4.84653
0.209466 -4.85168 -4.85168
0.209242 -4.73908 -4.73908
0.0201007 -4.79013 -4.79013
0.114375 -4.84899 -4.84899
0.209363 -4.79525 -4.79525
0.115058 -4.73643 -4.73643
0.114724 -4.79258 -4.79258
0.0192995 -4.84653 -4.84653
0.0176556 -4.96013 -4.96013
0.209619 -4.96535 -4.96535
0.209466 -4.85168 -4.85168
0.0184844 -4.9032 -4.9032
0.11363 -4.96262 -4.96262
0.209551 -4.90838 -4.90838
0.114375 -4.84899 -4.84899
0.11401 -4.90567 -4.90567
0.0176556 -4.96013 -4.96013
0.0159565 -5.07478 -5.07478
0.209701 -5.08008 -5.08008
0.209619 -4.96535 -4.96535
0.0168129 -5.01732 -5.01732
0.112821 -5.07732 -5.07732
0.209669 -5.02258 -5.02258
0.11363 -4.96262 -4.96262
0.113233 -5.01984 -5.01984
0.0159565 -5.07478 -5.07478
0.0142021 -5.19049 -5.19049
0.209713 -5.19585 -5.19585
0.209701 -5.08008 -5.08008
0.0150862 -5.13251 -5.13251
0.11195 -5.19306 -5.19306
0.209716 -5.13783 -5.13783
0.112821 -5.07732 -5.07732
0.112394 -5.13506 -5.13506
0.0142021 -5.19049 -5.19049
0.0123925 -5.30724 -5.30724
0.209655 -5.31267 -5.31267
0.209713 -5.19585 -5.19585
0.0133043 -5.24873 -5.24873
0.111016 -5.30984 -5.30984
0.209693 -5.25413 -5.25413
0.11195 -5.19306 -5.19306
0.111491 -5.25132 -5.25132
0.0123925 -5.30724 -5.30724
0.0105277 -5.42502 -5.42502
0.209525 -5.43053 -5.43053
0.209655 -5.31267 -5.31267
0.011467 -5.366 -5.366
0.110019 -5.42766 -5.42766
0.209599 -5.37147 -5.37147
0.111016 -5.30984 -5.30984
0.110525 -5.36862 -5.36862
0.0105277 -5.42502 -5.42502
0.00860754 -5.54382 -5.54382
0.209325 -5.5494 -5.5494
0.209525 -5.43053 -5.43053
0.00957452 -5.48429 -5.48429
0.108959 -5.5465 -5.5465
0.209434 -5.48984 -5.48984
0.110019 -5.42766 -5.42766
0.109497 -5.48695 -5.48695
0.00860754 -5.54382 -5.54382
0.00663216 -5.66364 -5.66364
0.209055 -5.66929 -5.66929
0.209325 -5.5494 -5.5494
0.00762676 -5.6036 -5.6036
0.107836 -5.66636 -5.66636
0.209199 -5.60922 -5.60922
0.108959 -5.5465 -5.5465
0.108406 -5.6063 -5.6063
0.00663216 -5.66364 -5.66364
0.00460155 -5.78446 -5.78446
0.208714 -5.79019 -5.79019
0.209055 -5.66929 -5.66929
0.00562376 -5.72392 -5.72392
0.10665 -5.78722 -5.78722
0.208893 -5.72961 -5.72961
0.107836 -5.66636 -5.66636
0.107251 -5.72666 -5.72666
0.00460155 -5.78446 -5.78446
0.00251576 -5.90628 -5.90628
0.208303 -5.91208 -5.91208
0.208714 -5.79019 -5.79019
0.00356555 -5.84524 -5.84524
0.105402 -5.90907 -5.90907
0.208517 -5.85101 -5.85101
0.10665 -5.78722 -5.78722
0.106034 -5.84802 -5.84802
0.00251576 -5.90628 -5.90628
0.000374823 -6.02908 -6.02908
0.207821 -6.03495 -6.03495
0.208303 -5.91208 -5.91208
0.00145218 -5.96756 -5.96756
0.10409 -6.03191 -6.03191
0.20807 -5.97339 -5.97339
0.105402 -5.90907 -5.90907
0.104754 -5.97037 -5.97037
0.000374823 -6.02908 -6.02908
-0.0018212 -6.15287 -6.15287
0.207268 -6.15881 -6.15881
0.207821 -6.03495 -6.03495
-0.000716305 -6.09085 -6.09085
0.102716 -6.15573 -6.15573
0.207553 -6.09676 -6.09676
0.10409 -6.03191 -6.03191
0.103411 -6.0937 -6.0937
-0.0018212 -6.15287 -6.15287
-0.00407223 -6.27762 -6.27762
0.206646 -6.28363 -6.28363
0.207268 -6.15881 -6.15881
-0.00293984 -6.21512 -6.21512
0.101279 -6.28052 -6.28052
0.206966 -6.2211 -6.2211
0.102716 -6.15573 -6.15573
0.102006 -6.21801 -6.21801
-0.00407223 -6.27762 -6.27762
-0.0063782 -6.40333 -6.40333
0.205953 -6.40942 -6.40942
0.206646 -6.28363 -6.28363
-0.00521836 -6.34035 -6.34035
0.0997798 -6.40627 -6.40627
0.206308 -6.34641 -6.34641
0.101279 -6.28052 -6.28052
0.100537 -6.34328 -6.34328
-0.0063782 -6.40333 -6.40333
-0.00873903 -6.52999 -6.52999
0.205189 -6.53615 -6.53615
0.205953 -6.40942 -6.40942
-0.00755176 -6.46654 -6.46654
0.0982178 -6.53297 -6.53297
0.20558 -6.47267 -6.47267
0.0997798 -6.40627 -6.40627
0.0990066 -6.4695 -6.4695
-0.00873903 -6.52999 -6.52999
-0.0111546 -6.6576 -6.6576
0.204356 -6.66383 -6.66383
0.205189 -6.53615 -6.53615
-0.00993997 -6.59368 -6.59368
0.0965934 -6.66061 -6.66061
0.204782 -6.59987 -6.59987
0.0982178 -6.53297 -6.53297
0.0974134 -6.59667 -6.59667
-0.0111546 -6.6576 -6.6576
-0.0136248 -6.78613 -6.78613
0.203453 -6.79243 -6.79243
0.204356 -6.66383 -6.66383
-0.0123829 -6.72175 -6.72175
0.0949067 -6.78918 -6.78918
0.203913 -6.72801 -6.72801
0.0965934 -6.66061 -6.66061
0.0957578 -6.72478 -6.72478
-0.0136248 -6.78613 -6.78613
-0.0161495 -6.91559 -6.91559
0.20248 -6.92196 -6.92196
0.203453 -6.79243 -6.79243
-0.0148804 -6.85075 -6.85075
0.0931578 -6.91868 -6.91868
0.202975 -6.85708 -6.85708
0.0949067 -6.78918 -6.78918
0.09404 -6.85382 -6.85382
-0.0161495 -6.91559 -6.91559
-0.0187287 -7.04596 -7.04596
0.201437 -7.05241 -7.05241
0.20248 -6.92196 -6.92196
-0.0174323 -6.98066 -6.98066
0.0913469 -7.04909 -7.04909
0.201967 -6.98707 -6.98707
0.0931578 -6.91868 -6.91868
0.0922601 -6.98377 -6.98377
-0.0187287 -7.04596 -7.04596
-0.0213621 -7.17724 -7.17724
0.200325 -7.18376 -7.18376
0.201437 -7.05241 -7.05241
-0.0200386 -7.11149 -7.11149
0.089474 -7.1804 -7.1804
0.20089 -7.11797 -7.11797
0.0913469 -7.04909 -7.04909
0.0904182 -7.11463 -7.11463
-0.0213621 -7.17724 -7.17724
-0.0240496 -7.30942 -7.30942
0.199143 -7.316 -7.316
0.200325 -7.18376 -7.18376
-0.0226991 -7.24322 -7.24322
0.0875394 -7.31262 -7.31262
0.199743 -7.24977 -7.24977
0.089474 -7.1804 -7.1804
0.0885144 -7.2464 -7.2464
-0.0240496 -7.30942 -7.30942
-0.026791 -7.44248 -7.44248
0.197892 -7.44914 -7.44914
0.199143 -7.316 -7.316
-0.0254135 -7.37584 -7.37584
0.0855432 -7.44571 -7.44571
0.198527 -7.38246 -7.38246
0.0875394 -7.31262 -7.31262
0.086549 -7.37905 -7.37905
-0.026791 -7.44248 -7.44248
-0.0295862 -7.57642 -7.57642
0.196572 -7.58314 -7.58314
0.197892 -7.44914 -7.44914
-0.0281819 -7.50934 -7.50934
0.0834855 -7.57969 -7.57969
0.197241 -7.51603 -7.51603
0.0855432 -7.44571 -7.44571
0.084522 -7.51259 -7.51259
-0.0295862 -7.57642 -7.57642
-0.032435 -7.71123 -7.71123
0.195183 -7.71802 -7.71802
0.196572 -7.58314 -7.58314
-0.0310039 -7.64372 -7.64372
0.0813666 -7.71453 -7.71453
0.195887 -7.65048 -7.65048
0.0834855 -7.57969 -7.57969
0.0824337 -7.647 -7.647
-0.032435 -7.71123 -7.71123
-0.0353373 -7.8469 -7.8469
0.193726 -7.85376 -7.85376
0.195183 -7.71802 -7.71802
-0.0338795 -7.77896 -7.77896
0.0791866 -7.85024 -7.85024
0.194463 -7.78579 -7.78579
0.0813666 -7.71453 -7.71453
0.0802842 -7.78228 -7.78228
-0.0353373 -7.8469 -7.8469
-0.0382928 -7.98342 -7.98342
0.192199 -7.99035 -7.99035
0.193726 -7.85376 -7.85376
-0.0368084 -7.91505 -7.91505
0.0769457 -7.98679 -7.98679
0.192971 -7.92195 -7.92195
0.0791866 -7.85024 -7.85024
0.0780738 -7.91841 -7.91841
-0.0382928 -7.98342 -7.98342
-0.0413012 -8.12078 -8.12078
0.190605 -8.12778 -8.12778
0.192199 -7.99035 -7.99035
-0.0397904 -8.05199 -8.05199
0.0746442 -8.12419 -8.12419
0.191411 -8.05896 -8.05896
0.0769457 -7.98679 -7.98679
0.0758025 -8.05538 -8.05538
-0.0413012 -8.12078 -8.12078
-0.0443625 -8.25897 -8.25897
0.188942 -8.26604 -8.26604
0.190605 -8.12778 -8.12778
-0.0428253 -8.18977 -8.18977
0.0722821 -8.26242 -8.26242
0.189782 -8.1968 -8.1968
0.0746442 -8.12419 -8.12419
0.0734707 -8.1932 -8.1932
-0.0443625 -8.25897 -8.25897
-0.0474764 -8.39799 -8.39799
0.187212 -8.40512 -8.40512
0.188942 -8.26604 -8.26604
-0.0459129 -8.32838 -8.32838
0.0698599 -8.40147 -8.40147
0.188085 -8.33548 -8.33548
0.0722821 -8.26242 -8.26242
0.0710785 -8.33184 -8.33184
-0.0474764 -8.39799 -8.39799
-0.0506427 -8.53782 -8.53782
0.185413 -8.54502 -8.54502
0.187212 -8.40512 -8.40512
-0.049053 -8.4678 -8.4678
0.0673776 -8.54133 -8.54133
0.186321 -8.47497 -8.47497
0.0698599 -8.40147 -8.40147
0.0686262 -8.4713 -8.4713
-0.0506427 -8.53782 -8.53782
-0.053861 -8.67845 -8.67845
0.183548 -8.68572 -8.68572
0.185413 -8.54502 -8.54502
-0.0522453 -8.60803 -8.60803
0.0648356 -8.682 -8.682
0.184489 -8.61527 -8.61527
0.0673776 -8.54133 -8.54133
0.0661141 -8.61157 -8.61157
-0.053861 -8.67845 -8.67845
-0.0571312 -8.81989 -8.81989
0.181615 -8.82722 -8.82722
0.183548 -8.68572 -8.68572
-0.0554896 -8.74907 -8.74907
0.062234 -8.82347 -8.82347
0.18259 -8.75638 -8.75638
0.0648356 -8.682 -8.682
0.0635422 -8.75264 -8.75264
-0.0571312 -8.81989 -8.81989
-0.060453 -8.9621 -8.9621
0.179615 -8.96951 -8.96951
0.181615 -8.82722 -8.82722
-0.0587857 -8.8909 -8.8909
0.0595732 -8.96572 -8.96572
0.180623 -8.89827 -8.89827
0.062234 -8.82347 -8.82347
0.060911 -8.8945 -8.8945
-0.060453 -8.9621 -8.9621
-0.0638262 -9.1051 -9.1051
0.177549 -9.11257 -9.11257
0.179615 -8.96951 -8.96951
-0.0621332 -9.03351 -9.03351
0.0568534 -9.10875 -9.10875
0.17859 -9.04094 -9.04094
0.0595732 -8.96572 -8.96572
0.0582207 -9.03714 -9.03714
-0.0638262 -9.1051 -9.1051
-0.0672504 -9.24887 -9.24887
0.175416 -9.2564 -9.2564
0.177549 -9.11257 -9.11257
-0.0655319 -9.17689 -9.17689
0.0540749 -9.25255 -9.25255
0.176491 -9.18439 -9.18439
0.0568534 -9.10875 -9.10875
0.0554715 -9.18056 -9.18056
-0.0672504 -9.24887 -9.24887
-0.0707254 -9.39339 -9.39339
0.173217 -9.40099 -9.40099
0.175416 -9.2564 -9.2564
-0.0689816 -9.32104 -9.32104
0.0512379 -9.39711 -9.39711
0.174325 -9.3286 -9.3286
0.0540749 -9.25255 -9.25255
0.0526637 -9.32474 -9.32474
-0.0707254 -9.39339 -9.39339
-0.0742509 -9.53867 -9.53867
0.170952 -9.54634 -9.54634
0.173217 -9.40099 -9.40099
-0.0724819 -9.46594 -9.46594
0.0483428 -9.54242 -9.54242
0.172093 -9.47357 -9.47357
0.0512379 -9.39711 -9.39711
0.0497976 -9.46968 -9.46968
-0.0742509 -9.53867 -9.53867
-0.0778266 -9.68469 -9.68469
0.168622 -9.69242 -9.69242
0.170952 -9.54634 -9.54634
-0.0760325 -9.61159 -9.61159
0.0453899 -9.68848 -9.68848
0.169795 -9.61929 -9.61929
0.0483428 -9.54242 -9.54242
0.0468735 -9.61536 -9.61536
-0.0778266 -9.68469 -9.68469
-0.0814522 -9.83144 -9.83144
0.166227 -9.83923 -9.83923
0.168622 -9.69242 -9.69242
-0.0796332 -9.75798 -9.75798
0.0423794 -9.83526 -9.83526
0.167433 -9.76574 -9.76574
0.0453899 -9.68848 -9.68848
0.0438918 -9.76178 -9.76178
-0.0814522 -9.83144 -9.83144
-0.0851274 -9.97892 -9.97892
0.163767 -9.98677 -9.98677
0.166227 -9.83923 -9.83923
-0.0832836 -9.90509 -9.90509
0.0393116 -9.98277 -9.98277
0.165005 -9.91291 -9.91291
0.0423794 -9.83526 -9.83526
0.0408526 -9.90892 -9.90892
-0.0851274 -9.97892 -9.97892
-0.0888518 -10.1271 -10.1271
0.161242 -10.135 -10.135
0.163767 -9.98677 -9.98677
-0.0869834 -10.0529 -10.0529
0.036187 -10.131 -10.131
0.162512 -10.0608 -10.0608
0.0393116 -9.98277 -9.98277
0.0377564 -10.0568 -10.0568
-0.0888518 -10.1271 -10.1271
-0.0926251 -10.276 -10.276
0.158653 -10.284 -10.284
0.161242 -10.135 -10.135
-0.0907324 -10.2015 -10.2015
0.0330058 -10.2799 -10.2799
0.159955 -10.2094 -10.2094
0.036187 -10.131 -10.131
0.0346034 -10.2054 -10.2054
-0.0926251 -10.276 -10.276
-0.0964471 -10.4256 -10.4256
0.156 -10.4336 -10.4336
0.158653 -10.284 -10.284
-0.09453 -10.3507 -10.3507
0.0297683 -10.4295 -10.4295
0.157334 -10.3587 -10.3587
0.0330058 -10.2799 -10.2799
0.0313941 -10.3546 -10.3546
-0.0964471 -10.4256 -10.4256
-0.100317 -10.5759 -10.5759
0.153284 -10.584 -10.584
0.156 -10.4336 -10.4336
-0.0983761 -10.5006 -10.5006
0.026475 -10.5798 -10.5798
0.15465 -10.5087 -10.5087
0.0297683 -10.4295 -10.4295
0.0281286 -10.5046 -10.5046
-0.100317 -10.5759 -10.5759
-0.104235 -10.7268 -10.7268
0.150504 -10.735 -10.735
0.153284 -10.584 -10.584
-0.10227 -10.6513 -10.6513
0.0231261 -10.7308 -10.7308
0.151902 -10.6594 -10.6594
0.026475 -10.5798 -10.5798
0.0248075 -10.6553 -10.6553
-0.104235 -10.7268 -10.7268
-0.108201 -10.8785 -10.8785
0.147662 -10.8867 -10.8867
0.150504 -10.735 -10.735
-0.106212 -10.8026 -10.8026
0.019722 -10.8825 -10.8825
0.149091 -10.8107 -10.8107
0.0231261 -10.7308 -10.7308
0.021431 -10.8066 -10.8066
-0.108201 -10.8785 -10.8785
-0.112214 -11.0307 -11.0307
0.144757 -11.039 -11.039
0.147662 -10.8867 -10.8867
-0.110201 -10.9545 -10.9545
0.0162632 -11.0348 -11.0348
0.146217 -10.9628 -10.9628
0.019722 -10.8825 -10.8825
0.0179994 -10.9586 -10.9586
-0.112214 -11.0307 -11.0307
-0.116273 -11.1837 -11.1837
0.14179 -11.192 -11.192
0.144757 -11.039 -11.039
-0.114238 -11.1071 -11.1071
0.0127499 -11.1878 -11.1878
0.143281 -11.1154 -11.1154
0.0162632 -11.0348 -11.0348
0.0145133 -11.1112 -11.1112
-0.116273 -11.1837 -11.1837
-0.120379 -11.3373 -11.3373
0.138761 -11.3457 -11.3457
0.14179 -11.192 -11.192
-0.11832 -11.2604 -11.2604
0.00918248 -11.3414 -11.3414
0.140283 -11.2688 -11.2688
0.0127499 -11.1878 -11.1878
0.0109729 -11.2645 -11.2645
-0.120379 -11.3373 -11.3373
-0.124531 -11.4915 -11.4915
0.135671 -11.4999 -11.4999
0.138761 -11.3457 -11.3457
-0.122449 -11.4143 -11.4143
0.00556143 -11.4956 -11.4956
0.137224 -11.4227 -11.4227
0.00918248 -11.3414 -11.3414
0.00737864 -11.4184 -11.4184
-0.124531 -11.4915 -11.4915
-0.128729 -11.6463 -11.6463
0.13252 -11.6548 -11.6548
0.135671 -11.4999 -11.4999
-0.126624 -11.5688 -11.5688
0.00188711 -11.6505 -11.6505
0.134103 -11.5773 -11.5773
0.00556143 -11.4956 -11.4956
0.00373091 -11.573 -11.573
-0.128729 -11.6463 -11.6463
-0.132972 -11.8018 -11.8018
0.129309 -11.8103 -11.8103
0.13252 -11.6548 -11.6548
-0.130845 -11.724 -11.724
-0.00184009 -11.806 -11.806
0.130922 -11.7325 -11.7325
0.00188711 -11.6505 -11.6505
3.00914e-05 -11.7282 -11.7282
-0.132972 -11.8018 -11.8018
-0.137259 -11.9578 -11.9578
0.126037 -11.9664 -11.9664
0.129309 -11.8103 -11.8103
-0.13511 -11.8797 -11.8797
-0.00561977 -11.9621 -11.9621
0.12768 -11.8883 -11.8883
-0.00184009 -11.806 -11.806
-0.0037234 -11.8839 -11.8839
-0.137259 -11.9578 -11.9578
-0.141591 -12.1145 -12.1145
0.122706 -12.1231 -12.1231
0.126037 -11.9664 -11.9664
-0.13942 -12.0361 -12.0361
-0.00945149 -12.1187 -12.1187
0.124379 -12.0447 -12.0447
-0.00561977 -11.9621 -11.9621
-0.00752915 -12.0403 -12.0403
-0.141591 -12.1145 -12.1145
-0.145968 -12.2717 -12.2717
0.119315 -12.2804 -12.2804
0.122706 -12.1231 -12.1231
-0.143774 -12.193 -12.193
-0.0133349 -12.276 -12.276
0.121018 -12.2017 -12.2017
-0.00945149 -12.1187 -12.1187
-0.0113867 -12.1973 -12.1973
-0.145968 -12.2717 -12.2717
-0.150387 -12.4295 -12.4295
0.115866 -12.4383 -12.4383
0.119315 -12.2804 -12.2804
-0.148172 -12.3505 -12.3505
-0.0172694 -12.4339 -12.4339
0.117598 -12.3593 -12.3593
-0.0133349 -12.276 -12.276
-0.0152958 -12.3549 -12.3549
-0.150387 -12.4295 -12.4295
-0.15485 -12.5879 -12.5879
0.112358 -12.5967 -12.5967
0.115866 -12.4383 -12.4383
-0.152613 -12.5087 -12.5087
-0.0212548 -12.5923 -12.5923
0.114119 -12.5175 -12.5175
-0.0172694 -12.4339 -12.4339
-0.0192558 -12.513 -12.513
-0.15485 -12.5879 -12.5879
-0.159355 -12.7469 -12.7469
0.108792 -12.7557 -12.7557
0.112358 -12.5967 -12.5967
-0.157097 -12.6673 -12.6673
-0.0252904 -12.7512 -12.7512
0.110582 -12.6762 -12.6762
-0.0212548 -12.5923 -12.5923
-0.0232663 -12.6717 -12.6717
-0.159355 -12.7469 -12.7469
-0.163903 -12.9064 -12.9064
0.105169 -12.9153 -12.9153
0.108792 -12.7557 -12.7557
-0.161624 -12.8266 -12.8266
-0.029376 -12.9108 -12.9108
0.106988 -12.8355 -12.8355
-0.0252904 -12.7512 -12.7512
-0.027327 -12.8309 -12.8309
-0.163903 -12.9064 -12.9064
-0.168493 -13.0664 -13.0664
0.101488 -13.0754 -13.0754
0.105169 -12.9153 -12.9153
-0.166193 -12.9863 -12.9863
-0.033511 -13.0708 -13.0708
0.103336 -12.9953 -12.9953
-0.029376 -12.9108 -12.9108
-0.0314374 -12.9907 -12.9907
-0.168493 -13.0664 -13.0664
-0.173124 -13.227 -13.227
0.0977514 -13.236 -13.236
0.101488 -13.0754 -13.0754
-0.170803 -13.1466 -13.1466
-0.037695 -13.2314 -13.2314
0.0996269 -13.1556 -13.1556
-0.033511 -13.0708 -13.0708
-0.0355969 -13.1511 -13.1511
-0.173124 -13.227 -13.227
-0.177795 -13.3881 -13.3881
0.0939582 -13.3972 -13.3972
0.0977514 -13.236 -13.236
-0.175454 -13.3075 -13.3075
-0.0419275 -13.3926 -13.3926
0.0958618 -13.3165 -13.3165
-0.037695 -13.2314 -13.2314
-0.0398052 -13.3119 -13.3119
-0.177795 -13.3881 -13.3881
-0.182507 -13.5497 -13.5497
0.0901093 -13.5588 -13.5588
0.0939582 -13.3972 -13.3972
-0.180146 -13.4688 -13.4688
-0.0462081 -13.5542 -13.5542
0.0920407 -13.4779 -13.4779
-0.0419275 -13.3926 -13.3926
-0.0440618 -13.4733 -13.4733
-0.182507 -13.5497 -13.5497
-0.18726 -13.7118 -13.7118
0.0862052 -13.721 -13.721
0.0901093 -13.5588 -13.5588
-0.184879 -13.6307 -13.6307
-0.0505363 -13.7164 -13.7164
0.0881641 -13.6398 -13.6398
-0.0462081 -13.5542 -13.5542
-0.0483663 -13.6352 -13.6352
-0.18726 -13.7118 -13.7118
-0.192051 -13.8744 -13.8744
0.0822464 -13.8837 -13.8837
0.0862052 -13.721 -13.721
-0.18965 -13.7931 -13.7931
-0.0549115 -13.879 -13.879
0.0842326 -13.8023 -13.8023
-0.0505363 -13.7164 -13.7164
-0.052718 -13.7976 -13.7976
-0.192051 -13.8744 -13.8744
-0.196882 -14.0376 -14.0376
0.0782333 -14.0468 -14.0468
0.0822464 -13.8837 -13.8837
-0.194462 -13.9559 -13.9559
-0.0593334 -14.0421 -14.0421
0.0802466 -13.9652 -13.9652
-0.0549115 -13.879 -13.879
-0.0571166 -13.9605 -13.9605
-0.196882 -14.0376 -14.0376
-0.201751 -14.2011 -14.2011
0.0741664 -14.2104 -14.2104
0.0782333 -14.0468 -14.0468
-0.199311 -14.1193 -14.1193
-0.0638013 -14.2057 -14.2057
0.0762065 -14.1286 -14.1286
-0.0593334 -14.0421 -14.0421
-0.0615616 -14.1239 -14.1239
-0.201751 -14.2011 -14.2011
-0.206658 -14.3652 -14.3652
0.0700463 -14.3745 -14.3745
0.0741664 -14.2104 -14.2104
-0.204199 -14.2831 -14.2831
-0.068315 -14.3698 -14.3698
0.072113 -14.2924 -14.2924
-0.0638013 -14.2057 -14.2057
-0.0660525 -14.2877 -14.2877
-0.206658 -14.3652 -14.3652
-0.211602 -14.5297 -14.5297
0.0658734 -14.5391 -14.5391
0.0700463 -14.3745 -14.3745
-0.209125 -14.4474 -14.4474
-0.0728737 -14.5344 -14.5344
0.0679664 -14.4568 -14.4568
-0.068315 -14.3698 -14.3698
-0.0705887 -14.452 -14.452
-0.211602 -14.5297 -14.5297
-0.216584 -14.6947 -14.6947
0.0616482 -14.7041 -14.7041
0.0658734 -14.5391 -14.5391
-0.214088 -14.6121 -14.6121
-0.0774771 -14.6993 -14.6993
0.0637673 -14.6215 -14.6215
-0.0728737 -14.5344 -14.5344
-0.0751699 -14.6168 -14.6168
-0.216584 -14.6947 -14.6947
-0.221602 -14.8601 -14.8601
0.0573712 -14.8696 -14.8696
0.0616482 -14.7041 -14.7041
-0.219088 -14.7773 -14.7773
-0.0821246 -14.8648 -14.8648
0.0595162 -14.7868 -14.7868
-0.0774771 -14.6993 -14.6993
-0.0797954 -14.782 -14.782
-0.221602 -14.8601 -14.8601
-0.226655 -15.0259 -15.0259
0.0530431 -15.0354 -15.0354
0.0573712 -14.8696 -14.8696
-0.224124 -14.943 -14.943
-0.0868157 -15.0306 -15.0306
0.0552135 -14.9524 -14.9524
-0.0821246 -14.8648 -14.8648
-0.0844647 -14.9477 -14.9477
-0.226655 -15.0259 -15.0259
-0.231745 -15.1922 -15.1922
0.0486642 -15.2017 -15.2017
0.0530431 -15.0354 -15.0354
-0.229196 -15.109 -15.109
-0.0915499 -15.1969 -15.1969
0.0508599 -15.1185 -15.1185
-0.0868157 -15.0306 -15.0306
-0.0891774 -15.1137 -15.1137
-0.231745 -15.1922 -15.1922
-0.236869 -15.3589 -15.3589
0.0442351 -15.3685 -15.3685
0.0486642 -15.2017 -15.2017
-0.234303 -15.2755 -15.2755
-0.0963266 -15.3636 -15.3636
0.0464559 -15.2851 -15.2851
-0.0915499 -15.1969 -15.1969
-0.093933 -15.2802 -15.2802
-0.236869 -15.3589 -15.3589
-0.242028 -15.526 -15.526
0.0397563 -15.5356 -15.5356
0.0442351 -15.3685 -15.3685
-0.239444 -15.4424 -15.4424
-0.101145 -15.5307 -15.5307
0.0420019 -15.452 -15.452
-0.0963266 -15.3636 -15.3636
-0.0987308 -15.4471 -15.4471
-0.242028 -15.526 -15.526
-0.24722 -15.6935 -15.6935
0.0352284 -15.7031 -15.7031
0.0397563 -15.5356 -15.5356
-0.24462 -15.6097 -15.6097
-0.106006 -15.6982 -15.6982
0.0374985 -15.6193 -15.6193
-0.101145 -15.5307 -15.5307
-0.10357 -15.6144 -15.6144
-0.24722 -15.6935 -15.6935
-0.252446 -15.8613 -15.8613
0.0306519 -15.871 -15.871
0.0352284 -15.7031 -15.7031
-0.249829 -15.7774 -15.7774
-0.110907 -15.8661 -15.8661
0.0329462 -15.787 -15.787
-0.106006 -15.6982 -15.6982
-0.108451 -15.7821 -15.7821
-0.252446 -15.8613 -15.8613
-0.257705 -16.0296 -16.0296
0.0260274 -16.0393 -16.0393
0.0306519 -15.871 -15.871
-0.255071 -15.9454 -15.9454
-0.115849 -16.0344 -16.0344
0.0283456 -15.9551 -15.9551
-0.110907 -15.8661 -15.8661
-0.113373 -15.9502 -15.9502
-0.257705 -16.0296 -16.0296
-0.262996 -16.1982 -16.1982
0.0213553 -16.208 -16.208
0.0260274 -16.0393 -16.0393
-0.260346 -16.1139 -16.1139
-0.12083 -16.2031 -16.2031
0.0236972 -16.1236 -16.1236
-0.115849 -16.0344 -16.0344
-0.118334 -16.1187 -16.1187
-0.262996 -16.1982 -16.1982
-0.268318 -16.3672 -16.3672
0.0166362 -16.377 -16.377
0.0213553 -16.208 -16.208
-0.265653 -16.2827 -16.2827
-0.125851 -16.3721 -16.3721
0.0190016 -16.2924 -16.2924
-0.12083 -16.2031 -16.2031
-0.123336 -16.2875 -16.2875
-0.268318 -16.3672 -16.3672
-0.273672 -16.5365 -16.5365
0.0118708 -16.5464 -16.5464
0.0166362 -16.377 -16.377
-0.270991 -16.4518 -16.4518
-0.130911 -16.5414 -16.5414
0.0142593 -16.4616 -16.4616
-0.125851 -16.3721 -16.3721
-0.128376 -16.4567 -16.4567
-0.273672 -16.5365 -16.5365
-0.279056 -16.7062 -16.7062
0.00705943 -16.7161 -16.7161
0.0118708 -16.5464 -16.5464
-0.276361 -16.6213 -16.6213
-0.136009 -16.7111 -16.7111
0.00947079 -16.6312 -16.6312
-0.130911 -16.5414 -16.5414
-0.133455 -16.6262 -16.6262
-0.279056 -16.7062 -16.7062
-0.284471 -16.8762 -16.8762
0.0022028 -16.8861 -16.8861
0.00705943 -16.7161 -16.7161
-0.28176 -16.7912 -16.7912
-0.141144 -16.8812 -16.8812
0.00463674 -16.8011 -16.8011
-0.136009 -16.7111 -16.7111
-0.138572 -16.7961 -16.7961
-0.284471 -16.8762 -16.8762
-0.289915 -17.0466 -17.0466
-0.00269856 -17.0565 -17.0565
0.0022028 -16.8861 -16.8861
-0.287189 -16.9614 -16.9614
-0.146317 -17.0515 -17.0515
-0.000242323 -16.9713 -16.9713
-0.141144 -16.8812 -16.8812
-0.143726 -16.9663 -16.9663
-0.289915 -17.0466 -17.0466
-0.295387 -17.2172 -17.2172
-0.00764409 -17.2272 -17.2272
-0.00269856 -17.0565 -17.0565
-0.292647 -17.1319 -17.1319
-0.151526 -17.2222 -17.2222
-0.00516584 -17.1418 -17.1418
-0.146317 -17.0515 -17.0515
-0.148917 -17.1368 -17.1368
-0.295387 -17.2172 -17.2172
-0.300888 -17.3882 -17.3882
-0.0126332 -17.3982 -17.3982
-0.00764409 -17.2272 -17.2272
-0.298134 -17.3027 -17.3027
-0.156771 -17.3932 -17.3932
-0.0101332 -17.3126 -17.3126
-0.151526 -17.2222 -17.2222
-0.154144 -17.3076 -17.3076
-0.300888 -17.3882 -17.3882
-0.306417 -17.5595 -17.5595
-0.0176654 -17.5695 -17.5695
-0.0126332 -17.3982 -17.3982
-0.303649 -17.4738 -17.4738
-0.162052 -17.5644 -17.5644
-0.015144 -17.4838 -17.4838
-0.156771 -17.3932 -17.3932
-0.159407 -17.4788 -17.4788
-0.306417 -17.5595 -17.5595
-0.311973 -17.731 -17.731
-0.02274 -17.741 -17.741
-0.0176654 -17.5695 -17.5695
-0.309192 -17.6452 -17.6452
-0.167367 -17.736 -17.736
-0.0201974 -17.6552 -17.6552
-0.162052 -17.5644 -17.5644
-0.164705 -17.6502 -17.6502
-0.311973 -17.731 -17.731
-0.317556 -17.9029 -17.9029
-0.0278564 -17.9129 -17.9129
-0.02274 -17.741 -17.741
-0.314761 -17.8169 -17.8169
-0.172717 -17.9078 -17.9078
-0.025293 -17.8269 -17.8269
-0.167367 -17.736 -17.736
-0.170038 -17.8219 -17.8219
-0.317556 -17.9029 -17.9029
-0.323165 -18.075 -18.075
-0.0330142 -18.085 -18.085
-0.0278564 -17.9129 -17.9129
-0.320357 -17.9889 -17.9889
-0.1781 -18.08 -18.08
-0.0304302 -17.9989 -17.9989
-0.172717 -17.9078 -17.9078
-0.175404 -17.9939 -17.9939
-0.323165 -18.075 -18.075
-0.328799 -18.2473 -18.2473
-0.0382127 -18.2574 -18.2574
-0.0330142 -18.085 -18.085
-0.325978 -18.1611 -18.1611
-0.183516 -18.2523 -18.2523
-0.0356084 -18.1712 -18.1712
-0.1781 -18.08 -18.08
-0.180804 -18.1661 -18.1661
-0.328799 -18.2473 -18.2473
-0.334457 -18.4199 -18.4199
-0.0434512 -18.43 -18.43
-0.0382127 -18.2574 -18.2574
-0.331625 -18.3336 -18.3336
-0.188965 -18.425 -18.425
-0.040827 -18.3437 -18.3437
-0.183516 -18.2523 -18.2523
-0.186237 -18.3386 -18.3386
-0.334457 -18.4199 -18.4199
-0.340141 -18.5928 -18.5928
-0.0487293 -18.6029 -18.6029
-0.0434512 -18.43 -18.43
-0.337296 -18.5063 -18.5063
-0.194446 -18.5978 -18.5978
-0.0460854 -18.5165 -18.5165
-0.188965 -18.425 -18.425
-0.191701 -18.5114 -18.5114
-0.340141 -18.5928 -18.5928
-0.345847 -18.7659 -18.7659
-0.0540463 -18.776 -18.776
-0.0487293 -18.6029 -18.6029
-0.342991 -18.6793 -18.6793
-0.199958 -18.7709 -18.7709
-0.051383 -18.6894 -18.6894
-0.194446 -18.5978 -18.5978
-0.197198 -18.6844 -18.6844
-0.345847 -18.7659 -18.7659
-0.351577 -18.9392 -18.9392
-0.0594017 -18.9494 -18.9494
-0.0540463 -18.776 -18.776
-0.348709 -18.8525 -18.8525
-0.2055 -18.9443 -18.9443
-0.0567192 -18.8627 -18.8627
-0.199958 -18.7709 -18.7709
-0.202725 -18.8576 -18.8576
-0.351577 -18.9392 -18.9392
-0.35733 -19.1127 -19.1127
-0.0647947 -19.1229 -19.1229
-0.0594017 -18.9494 -18.9494
-0.354451 -19.026 -19.026
-0.211073 -19.1178 -19.1178
-0.0620935 -19.0361 -19.0361
-0.2055 -18.9443 -18.9443
-0.208283 -19.031 -19.031
-0.35733 -19.1127 -19.1127
-0.363104 -19.2865 -19.2865
-0.0702249 -19.2967 -19.2967
-0.0647947 -19.1229 -19.1229
-0.360214 -19.1996 -19.1996
-0.216675 -19.2916 -19.2916
-0.0675052 -19.2098 -19.2098
-0.211073 -19.1178 -19.1178
-0.213871 -19.2047 -19.2047
-0.363104 -19.2865 -19.2865
-0.368899 -19.4604 -19.4604
-0.0756917 -19.4706 -19.4706
-0.0702249 -19.2967 -19.2967
-0.365999 -19.3734 -19.3734
-0.222307 -19.4655 -19.4655
-0.0729538 -19.3836 -19.3836
-0.216675 -19.2916 -19.2916
-0.219487 -19.3785 -19.3785
-0.368899 -19.4604 -19.4604
-0.374715 -19.6346 -19.6346
-0.0811943 -19.6448 -19.6448
-0.0756917 -19.4706 -19.4706
-0.371805 -19.5475 -19.5475
-0.227966 -19.6397 -19.6397
-0.0784385 -19.5577 -19.5577
-0.222307 -19.4655 -19.4655
-0.225133 -19.5526 -19.5526
-0.374715 -19.6346 -19.6346
-0.380551 -19.8089 -19.8089
-0.0867323 -19.8191 -19.8191
-0.0811943 -19.6448 -19.6448
-0.377631 -19.7217 -19.7217
-0.233653 -19.814 -19.814
-0.0839589 -19.7319 -19.7319
-0.227966 -19.6397 -19.6397
-0.230806 -19.7268 -19.7268
-0.380551 -19.8089 -19.8089
-0.386407 -19.9834 -19.9834
-0.0923049 -19.9936 -19.9936
-0.0867323 -19.8191 -19.8191
-0.383477 -19.8961 -19.8961
-0.239367 -19.9885 -19.9885
-0.0895143 -19.9063 -19.9063
-0.233653 -19.814 -19.814
-0.236507 -19.9012 -19.9012
-0.386407 -19.9834 -19.9834
-0.392281 -20.158 -20.158
-0.0979117 -20.1683 -20.1683
-0.0923049 -19.9936 -19.9936
-0.389342 -20.0707 -20.0707
-0.245108 -20.1631 -20.1631
-0.0951041 -20.0809 -20.0809
-0.239367 -19.9885 -19.9885
-0.242234 -20.0758 -20.0758
-0.392281 -20.158 -20.158
-0.398174 -20.3328 -20.3328
-0.103552 -20.3431 -20.3431
-0.0979117 -20.1683 -20.1683
-0.395226 -20.2454 -20.2454
-0.250874 -20.3379 -20.3379
-0.100728 -20.2556 -20.2556
-0.245108 -20.1631 -20.1631
-0.247988 -20.2505 -20.2505
-0.398174 -20.3328 -20.3328
-0.404084 -20.5077 -20.5077
-0.109225 -20.518 -20.518
-0.103552 -20.3431 -20.3431
-0.401127 -20.4203 -20.4203
-0.256666 -20.5129 -20.5129
-0.106384 -20.4305 -20.4305
-0.250874 -20.3379 -20.3379
-0.253767 -20.4254 -20.4254
-0.404084 -20.5077 -20.5077
-0.410012 -20.6828 -20.6828
-0.11493 -20.6931 -20.6931
-0.109225 -20.518 -20.518
-0.407046 -20.5953 -20.5953
-0.262483 -20.6879 -20.6879
-0.112074 -20.6055 -20.6055
-0.256666 -20.5129 -20.5129
-0.259571 -20.6004 -20.6004
-0.410012 -20.6828 -20.6828
-0.415955 -20.858 -20.858
-0.120667 -20.8683 -20.8683
-0.11493 -20.6931 -20.6931
-0.412981 -20.7704 -20.7704
-0.268323 -20.8632 -20.8632
-0.117795 -20.7807 -20.7807
-0.262483 -20.6879 -20.6879
-0.2654 -20.7755 -20.7755
-0.415955 -20.858 -20.858
-0.421915 -21.0333 -21.0333
-0.126435 -21.0436 -21.0436
-0.120667 -20.8683 -20.8683
-0.418933 -20.9457 -20.9457
-0.274187 -21.0385 -21.0385
-0.123548 -20.956 -20.956
-0.268323 -20.8632 -20.8632
-0.271252 -20.9508 -20.9508
-0.421915 -21.0333 -21.0333
-0.42789 -21.2088 -21.2088
-0.132234 -21.2191 -21.2191
-0.126435 -21.0436 -21.0436
-0.4249 -21.121 -21.121
-0.280074 -21.2139 -21.2139
-0.129331 -21.1313 -21.1313
-0.274187 -21.0385 -21.0385
-0.277127 -21.1262 -21.1262
-0.42789 -21.2088 -21.2088
-0.433879 -21.3843 -21.3843
-0.138063 -21.3946 -21.3946
-0.132234 -21.2191 -21.2191
-0.430883 -21.2965 -21.2965
-0.285983 -21.3894 -21.3894
-0.135145 -21.3068 -21.3068
-0.280074 -21.2139 -21.2139
-0.283026 -21.3017 -21.3017
-0.433879 -21.3843 -21.3843
-0.439883 -21.5599 -21.5599
-0.143921 -21.5702 -21.5702
-0.138063 -21.3946 -21.3946
-0.436879 -21.4721 -21.4721
-0.291915 -21.5651 -21.5651
-0.140988 -21.4824 -21.4824
-0.285983 -21.3894 -21.3894
-0.288946 -21.4772 -21.4772
-0.439883 -21.5599 -21.5599
-0.445901 -21.7356 -21.7356
-0.14981 -21.7459 -21.7459
-0.143921 -21.5702 -21.5702
-0.442891 -21.6478 -21.6478
-0.297869 -21.7408 -21.7408
-0.146862 -21.6581 -21.6581
-0.291915 -21.5651 -21.5651
-0.294889 -21.6529 -21.6529
-0.445901 -21.7356 -21.7356
-0.451934 -21.9114 -21.9114
-0.155728 -21.9217 -21.9217
-0.14981 -21.7459 -21.7459
-0.448916 -21.8235 -21.8235
-0.303845 -21.9165 -21.9165
-0.152765 -21.8338 -21.8338
-0.297869 -21.7408 -21.7408
-0.300854 -21.8286 -21.8286
-0.451934 -21.9114 -21.9114
-0.45798 -22.0872 -22.0872
-0.161678 -22.0975 -22.0975
-0.155728 -21.9217 -21.9217
-0.454955 -21.9993 -21.9993
-0.309844 -22.0924 -22.0924
-0.158699 -22.0096 -22.0096
-0.303845 -21.9165 -21.9165
-0.306842 -22.0044 -22.0044
-0.45798 -22.0872 -22.0872
-0.464042 -22.2631 -22.2631
-0.16766 -22.2734 -22.2734
-0.161678 -22.0975 -22.0975
-0.461009 -22.1752 -22.1752
-0.315868 -22.2683 -22.2683
-0.164665 -22.1855 -22.1855
-0.309844 -22.0924 -22.0924
-0.312853 -22.1803 -22.1803
-0.464042 -22.2631 -22.2631
-0.470117 -22.4391 -22.4391
-0.173677 -22.4493 -22.4493
-0.16766 -22.2734 -22.2734
-0.467077 -22.3511 -22.3511
-0.321916 -22.4442 -22.4442
-0.170664 -22.3614 -22.3614
-0.315868 -22.2683 -22.2683
-0.318889 -22.3562 -22.3562
-0.470117 -22.4391 -22.4391
-0.476204 -22.615 -22.615
-0.179728 -22.6253 -22.6253
-0.173677 -22.4493 -22.4493
-0.473159 -22.527 -22.527
-0.327987 -22.6202 -22.6202
-0.176698 -22.5373 -22.5373
-0.321916 -22.4442 -22.4442
-0.324949 -22.5322 -22.5322
-0.476204 -22.615 -22.615
-0.482296 -22.791 -22.791
-0.185807 -22.8013 -22.8013
-0.179728 -22.6253 -22.6253
-0.479249 -22.703 -22.703
-0.334072 -22.7962 -22.7962
-0.182765 -22.7133 -22.7133
-0.327987 -22.6202 -22.6202
-0.331029 -22.7082 -22.7082
-0.482296 -22.791 -22.791
-0.488387 -22.9669 -22.9669
-0.191888 -22.9773 -22.9773
-0.185807 -22.8013 -22.8013
-0.485342 -22.879 -22.879
-0.340155 -22.9721 -22.9721
-0.188849 -22.8893 -22.8893
-0.334072 -22.7962 -22.7962
-0.337115 -22.8841 -22.8841
-0.488387 -22.9669 -22.9669
-0.494462 -23.1428 -23.1428
-0.197948 -23.1533 -23.1533
-0.191888 -22.9773 -22.9773
-0.491427 -23.0549 -23.0549
-0.346224 -23.148 -23.148
-0.194923 -23.0653 -23.0653
-0.340155 -22.9721 -22.9721
-0.343192 -23.0601 -23.0601
0 0 0
0.00397216 -0.000423207 -0.000423207
0.00684684 -0.00196076 -0.00196076
0 0 0
0.00192541 0.000115113 0.000115113
0.00535678 -0.00100683 -0.00100683
0.00332328 -0.000705096 -0.000705096
0 0 0
0.00263773 -0.000218511 -0.000218511
0.00397216 -0.000423207 -0.000423207
0.00824841 -0.0031285 -0.0031285
0.0142574 -0.00565269 -0.00565269
0.00684684 -0.00196076 -0.00196076
0.00608369 -0.00151741 -0.00151741
0.0111516 -0.00417494 -0.00417494
0.010517 -0.00362854 -0.00362854
0.00535678 -0.00100683 -0.00100683
0.00820802 -0.00234958 -0.00234958
0.00824841 -0.0031285 -0.0031285
0.0127015 -0.00780162 -0.00780162
0.0217336 -0.0107225 -0.0107225
0.0142574 -0.00565269 -0.00565269
0.0104616 -0.00523183 -0.00523183
0.017129 -0.00905966 -0.00905966
0.0180002 -0.00800971 -0.00800971
0.0111516 -0.00417494 -0.00417494
0.014133 -0.00641323 -0.00641323
0.0127015 -0.00780162 -0.00780162
0.0171885 -0.0142689 -0.0142689
0.0291688 -0.01732 -0.01732
0.0217336 -0.0107225 -0.0107225
0.0149459 -0.0108159 -0.0108159
0.0231144 -0.0156065 -0.0156065
0.0254582 -0.0138214 -0.0138214
0.017129 -0.00905966 -0.00905966
0.0201258 -0.0121236 -0.0121236
0.0171885 -0.0142689 -0.0142689
0.0216556 -0.0224825 -0.0224825
0.0365352 -0.0255536 -0.0255536
0.0291688 -0.01732 -0.01732
0.0194266 -0.0181587 -0.0181587
0.0290484 -0.0238348 -0.0238348
0.0328602 -0.0212276 -0.0212276
0.0231144 -0.0156065 -0.0156065
0.0260889 -0.0195086 -0.0195086
0.0216556 -0.0224825 -0.0224825
0.026075 -0.0324242 -0.0324242
0.0438459 -0.0354867 -0.0354867
0.0365352 -0.0255536 -0.0255536
0.0238716 -0.0272377 -0.0272377
0.0349243 -0.0337743 -0.0337743
0.0401971 -0.0303059 -0.0303059
0.0290484 -0.0238348 -0.0238348
0.0319935 -0.0285897 -0.0285897
0.026075 -0.0324242 -0.0324242
0.030447 -0.044091 -0.044091
0.0511026 -0.0471378 -0.0471378
0.0438459 -0.0354867 -0.0354867
0.0282668 -0.0380422 -0.0380422
0.0407446 -0.0454335 -0.0454335
0.0474808 -0.041097 -0.041097
0.0349243 -0.0337743 -0.0337743
0.0378411 -0.0393887 -0.0393887
0.030447 -0.044091 -0.044091
0.0347729 -0.057477 -0.057477
0.0583096 -0.0605121 -0.0605121
0.0511026 -0.0471378 -0.0471378
0.0326154 -0.0505694 -0.0505694
0.0465144 -0.0588138 -0.0588138
0.0547122 -0.0536097 -0.0536097
0.0407446 -0.0454335 -0.0454335
0.0436356 -0.0519087 -0.0519087
0.0347729 -0.057477 -0.057477
0.0390572 -0.0725767 -0.0725767
0.065467 -0.0756047 -0.0756047
0.0583096 -0.0605121 -0.0605121
0.03692 -0.0648131 -0.0648131
0.052237 -0.0739102 -0.0739102
0.0618945 -0.067844 -0.067844
0.0465144 -0.0588138 -0.0588138
0.0493814 -0.066148 -0.066148
0.0390572 -0.0725767 -0.0725767
0.043302 -0.0893825 -0.0893825
0.0725751 -0.0924083 -0.0924083
0.065467 -0.0756047 -0.0756047
0.0411844 -0.0807669 -0.0807669
0.0579143 -0.0907154 -0.0907154
0.0690273 -0.0837931 -0.0837931
0.052237 -0.0739102 -0.0739102
0.0550812 -0.0820997 -0.0820997
0.043302 -0.0893825 -0.0893825
0.0475091 -0.107886 -0.107886
0.0796331 -0.110914 -0.110914
0.0725751 -0.0924083 -0.0924083
0.0454102 -0.0984227 -0.0984227
0.0635473 -0.109221 -0.109221
0.0761105 -0.101449 -0.101449
0.0579143 -0.0907154 -0.0907154
0.0607363 -0.0997561 -0.0997561
0.0475091 -0.107886 -0.107886
0.0516786 -0.12808 -0.12808
0.0866401 -0.131112 -0.131112
0.0796331 -0.110914 -0.110914
0.0495985 -0.117772 -0.117772
0.0691358 -0.129417 -0.129417
0.0831431 -0.120802 -0.120802
0.0635473 -0.109221 -0.109221
0.0663471 -0.119108 -0.119108
0.0516786 -0.12808 -0.12808
0.0558106 -0.149953 -0.149953
0.0935952 -0.152993 -0.152993
0.0866401 -0.131112 -0.131112
0.0537493 -0.138807 -0.138807
0.0746794 -0.151295 -0.151295
0.0901242 -0.141842 -0.141842
0.0691358 -0.129417 -0.129417
0.0719133 -0.140146 -0.140146
0.0558106 -0.149953 -0.149953
0.0599043 -0.173498 -0.173498
0.100497 -0.176548 -0.176548
0.0935952 -0.152993 -0.152993
0.0578623 -0.161517 -0.161517
0.0801775 -0.174846 -0.174846
0.0970529 -0.164562 -0.164562
0.0746794 -0.151295 -0.151295
0.0774342 -0.162862 -0.162862
0.0599043 -0.173498 -0.173498
0.0639592 -0.198706 -0.198706
0.107345 -0.201767 -0.201767
0.100497 -0.176548 -0.176548
0.0619367 -0.185895 -0.185895
0.085629 -0.20006 -0.20006
0.103928 -0.18895 -0.18895
0.0801775 -0.174846 -0.174846
0.0829091 -0.187246 -0.187246
0.0639592 -0.198706 -0.198706
0.0679742 -0.225567 -0.225567
0.114138 -0.228641 -0.228641
0.107345 -0.201767 -0.201767
0.0659717 -0.21193 -0.21193
0.0910331 -0.226929 -0.226929
0.110749 -0.214997 -0.214997
0.085629 -0.20006 -0.20006
0.0883371 -0.213288 -0.213288
0.0679742 -0.225567 -0.225567
0.0719485 -0.254072 -0.254072
0.120875 -0.257161 -0.257161
0.114138 -0.228641 -0.228641
0.0699665 -0.239615 -0.239615
0.0963889 -0.255442 -0.255442
0.117514 -0.242696 -0.242696
0.0910331 -0.226929 -0.226929
0.0937171 -0.240981 -0.240981
0.0719485 -0.254072 -0.254072
0.0758811 -0.284212 -0.284212
0.127556 -0.287317 -0.287317
0.120875 -0.257161 -0.257161
0.0739201 -0.268938 -0.268938
0.101695 -0.285592 -0.285592
0.124223 -0.272035 -0.272035
0.0963889 -0.255442 -0.255442
0.0990484 -0.270313 -0.270313
0.0758811 -0.284212 -0.284212
0.0797712 -0.315978 -0.315978
0.134178 -0.319102 -0.319102
0.127556 -0.287317 -0.287317
0.0778315 -0.299892 -0.299892
0.106952 -0.317368 -0.317368
0.130874 -0.303007 -0.303007
0.101695 -0.285592 -0.285592
0.10433 -0.301277 -0.301277
0.0797712 -0.315978 -0.315978
0.0836177 -0.349361 -0.349361
0.140741 -0.352504 -0.352504
0.134178 -0.319102 -0.319102
0.0816999 -0.332468 -0.332468
0.112157 -0.350761 -0.350761
0.137467 -0.335601 -0.335601
0.106952 -0.317368 -0.317368
0.109561 -0.333863 -0.333863
0.0836177 -0.349361 -0.349361
0.0874198 -0.384351 -0.384351
0.147245 -0.387515 -0.387515
0.140741 -0.352504 -0.352504
0.0855244 -0.366656 -0.366656
0.11731 -0.385763 -0.385763
0.144 -0.369809 -0.369809
0.112157 -0.350761 -0.350761
0.11474 -0.368062 -0.368062
0.0874198 -0.384351 -0.384351
0.0911767 -0.42094 -0.42094
0.153688 -0.424127 -0.424127
0.147245 -0.387515 -0.387515
0.089304 -0.402446 -0.402446
0.12241 -0.422364 -0.422364
0.150474 -0.405622 -0.405622
0.11731 -0.385763 -0.385763
0.119866 -0.403864 -0.403864
0.0911767 -0.42094 -0.42094
0.0948874 -0.459118 -0.459118
0.160069 -0.462329 -0.462329
0.153688 -0.424127 -0.424127
0.0930378 -0.439831 -0.439831
0.127456 -0.460555 -0.460555
0.156886 -0.44303 -0.44303
0.12241 -0.422364 -0.422364
0.12494 -0.441261 -0.441261
0.0948874 -0.459118 -0.459118
0.098551 -0.498876 -0.498876
0.166388 -0.502113 -0.502113
0.160069 -0.462329 -0.462329
0.0967251 -0.4788 -0.4788
0.132447 -0.500327 -0.500327
0.163237 -0.482024 -0.482024
0.127456 -0.460555 -0.460555
0.129958 -0.480244 -0.480244
0.098551 -0.498876 -0.498876
0.102167 -0.540205 -0.540205
0.172644 -0.543469 -0.543469
0.166388 -0.502113 -0.502113
0.100365 -0.519345 -0.519345
0.137383 -0.541671 -0.541671
0.169524 -0.522595 -0.522595
0.132447 -0.500327 -0.500327
0.134922 -0.520803 -0.520803
0.102167 -0.540205 -0.540205
0.105734 -0.583096 -0.583096
0.178836 -0.586388 -0.586388
0.172644 -0.543469 -0.543469
0.103957 -0.561456 -0.561456
0.142263 -0.584577 -0.584577
0.175748 -0.564734 -0.564734
0.137383 -0.541671 -0.541671
0.13983 -0.562929 -0.562929
0.105734 -0.583096 -0.583096
0.109252 -0.62754 -0.62754
0.184964 -0.630862 -0.630862
0.178836 -0.586388 -0.586388
0.107499 -0.605125 -0.605125
0.147085 -0.629036 -0.629036
0.181908 -0.608431 -0.608431
0.142263 -0.584577 -0.584577
0.144681 -0.606613 -0.606613
0.109252 -0.62754 -0.62754
0.112719 -0.673527 -0.673527
0.191025 -0.67688 -0.67688
0.184964 -0.630862 -0.630862
0.110992 -0.650341 -0.650341
0.15185 -0.67504 -0.67504
0.188003 -0.653679 -0.653679
0.147085 -0.629036 -0.629036
0.149475 -0.651846 -0.651846
0.112719 -0.673527 -0.673527
0.116135 -0.721049 -0.721049
0.19702 -0.724434 -0.724434
0.191025 -0.67688 -0.67688
0.114434 -0.697097 -0.697097
0.156556 -0.722579 -0.722579
0.194031 -0.700466 -0.700466
0.15185 -0.67504 -0.67504
0.15421 -0.698618 -0.698618
0.116135 -0.721049 -0.721049
0.1195 -0.770097 -0.770097
0.202949 -0.773515 -0.773515
0.19702 -0.724434 -0.724434
0.117824 -0.745383 -0.745383
0.161202 -0.771644 -0.771644
0.199993 -0.748784 -0.748784
0.156556 -0.722579 -0.722579
0.158887 -0.746921 -0.746921
0.1195 -0.770097 -0.770097
0.122812 -0.82066 -0.82066
0.208809 -0.824113 -0.824113
0.202949 -0.773515 -0.773515
0.121163 -0.795189 -0.795189
0.165789 -0.822226 -0.822226
0.205887 -0.798625 -0.798625
0.161202 -0.771644 -0.771644
0.163503 -0.796746 -0.796746
0.122812 -0.82066 -0.82066
0.126071 -0.87273 -0.87273
0.2146 -0.87622 -0.87622
0.208809 -0.824113 -0.824113
0.124448 -0.846507 -0.846507
0.170314 -0.874315 -0.874315
0.211713 -0.849978 -0.849978
0.165789 -0.822226 -0.822226
0.168059 -0.848083 -0.848083
0.126071 -0.87273 -0.87273
0.129276 -0.926299 -0.926299
0.220323 -0.929825 -0.929825
0.2146 -0.87622 -0.87622
0.12768 -0.899328 -0.899328
0.174778 -0.927903 -0.927903
0.21747 -0.902836 -0.902836
0.170314 -0.874315 -0.874315
0.172554 -0.900922 -0.900922
0.129276 -0.926299 -0.926299
0.132426 -0.981356 -0.981356
0.225975 -0.98492 -0.98492
0.220323 -0.929825 -0.929825
0.130858 -0.953642 -0.953642
0.179179 -0.98298 -0.98298
0.223158 -0.957187 -0.957187
0.174778 -0.927903 -0.927903
0.176986 -0.955256 -0.955256
0.132426 -0.981356 -0.981356
0.135521 -1.03789 -1.03789
0.231557 -1.0415 -1.0415
0.225975 -0.98492 -0.98492
0.133981 -1.00944 -1.00944
0.183518 -1.03954 -1.03954
0.228775 -1.01302 -1.01302
0.179179 -0.98298 -0.98298
0.181356 -1.01107 -1.01107
0.135521 -1.03789 -1.03789
0.13856 -1.0959 -1.0959
0.237068 -1.09954 -1.09954
0.231557 -1.0415 -1.0415
0.137048 -1.06671 -1.06671
0.187792 -1.09757 -1.09757
0.234321 -1.07034 -1.07034
0.183518 -1.03954 -1.03954
0.185663 -1.06837 -1.06837
0.13856 -1.0959 -1.0959
0.141543 -1.15537 -1.15537
0.242506 -1.15905 -1.15905
0.237068 -1.09954 -1.09954
0.140059 -1.12545 -1.12545
0.192003 -1.15706 -1.15706
0.239796 -1.12912 -1.12912
0.187792 -1.09757 -1.09757
0.189906 -1.12713 -1.12713
0.141543 -1.15537 -1.15537
0.144468 -1.21629 -1.21629
0.247872 -1.22002 -1.22002
0.242506 -1.15905 -1.15905
0.143012 -1.18565 -1.18565
0.196149 -1.218 -1.218
0.245199 -1.18935 -1.18935
0.192003 -1.15706 -1.15706
0.194084 -1.18735 -1.18735
0.144468 -1.21629 -1.21629
0.147335 -1.27865 -1.27865
0.253165 -1.28243 -1.28243
0.247872 -1.22002 -1.22002
0.145909 -1.24729 -1.24729
0.200229 -1.28039 -1.28039
0.250528 -1.25104 -1.25104
0.196149 -1.218 -1.218
0.198197 -1.24901 -1.24901
0.147335 -1.27865 -1.27865
0.150144 -1.34245 -1.34245
0.258385 -1.34627 -1.34627
0.253165 -1.28243 -1.28243
0.148747 -1.31037 -1.31037
0.204243 -1.34421 -1.34421
0.255784 -1.31417 -1.31417
0.200229 -1.28039 -1.28039
0.202244 -1.31212 -1.31212
0.150144 -1.34245 -1.34245
0.152894 -1.40767 -1.40767
0.263529 -1.41154 -1.41154
0.258385 -1.34627 -1.34627
0.151527 -1.37488 -1.37488
0.208191 -1.40945 -1.40945
0.260966 -1.37872 -1.37872
0.204243 -1.34421 -1.34421
0.206225 -1.37665 -1.37665
0.152894 -1.40767 -1.40767
0.155585 -1.47431 -1.47431
0.268599 -1.47822 -1.47822
0.263529 -1.41154 -1.41154
0.154247 -1.44082 -1.44082
0.212071 -1.47612 -1.47612
0.266074 -1.4447 -1.4447
0.208191 -1.40945 -1.40945
0.210139 -1.44261 -1.44261
0.155585 -1.47431 -1.47431
0.158215 -1.54236 -1.54236
0.273594 -1.54631 -1.54631
0.268599 -1.47822 -1.47822
0.156908 -1.50816 -1.50816
0.215884 -1.54418 -1.54418
0.271106 -1.51209 -1.51209
0.212071 -1.47612 -1.47612
0.213986 -1.50997 -1.50997
0.158215 -1.54236 -1.54236
0.160785 -1.6118 -1.6118
0.278512 -1.6158 -1.6158
0.273594 -1.54631 -1.54631
0.159508 -1.5769 -1.5769
0.219628 -1.61365 -1.61365
0.276063 -1.58088 -1.58088
0.215884 -1.54418 -1.54418
0.217764 -1.57874 -1.57874
0.160785 -1.6118 -1.6118
0.163294 -1.68263 -1.68263
0.283355 -1.68668 -1.68668
0.278512 -1.6158 -1.6158
0.162047 -1.64704 -1.64704
0.223303 -1.68451 -1.68451
0.280943 -1.65107 -1.65107
0.219628 -1.61365 -1.61365
0.221474 -1.64891 -1.64891
0.163294 -1.68263 -1.68263
0.165741 -1.75484 -1.75484
0.28812 -1.75894 -1.75894
0.283355 -1.68668 -1.68668
0.164525 -1.71856 -1.71856
0.226909 -1.75674 -1.75674
0.285747 -1.72264 -1.72264
0.223303 -1.68451 -1.68451
0.225115 -1.72045 -1.72045
0.165741 -1.75484 -1.75484
0.168125 -1.82842 -1.82842
0.292807 -1.83257 -1.83257
0.28812 -1.75894 -1.75894
0.166941 -1.79146 -1.79146
0.230446 -1.83035 -1.83035
0.290473 -1.79559 -1.79559
0.226909 -1.75674 -1.75674
0.228686 -1.79338 -1.79338
0.168125 -1.82842 -1.82842
0.170448 -1.90336 -1.90336
0.297417 -1.90756 -1.90756
0.292807 -1.83257 -1.83257
0.169294 -1.86572 -1.86572
0.233912 -1.90532 -1.90532
0.295122 -1.8699 -1.8699
0.230446 -1.83035 -1.83035
0.232187 -1.86766 -1.86766
0.170448 -1.90336 -1.90336
0.172707 -1.97965 -1.97965
0.301948 -1.98391 -1.98391
0.297417 -1.90756 -1.90756
0.171585 -1.94134 -1.94134
0.237307 -1.98164 -1.98164
0.299692 -1.94557 -1.94557
0.233912 -1.90532 -1.90532
0.235618 -1.94331 -1.94331
0.172707 -1.97965 -1.97965
0.174903 -2.05729 -2.05729
0.306401 -2.0616 -2.0616
0.301948 -1.98391 -1.98391
0.173813 -2.0183 -2.0183
0.240631 -2.0593 -2.0593
0.304184 -2.02259 -2.02259
0.237307 -1.98164 -1.98164
0.238978 -2.0203 -2.0203
0.174903 -2.05729 -2.05729
0.177034 -2.13625 -2.13625
0.310774 -2.14062 -2.14062
0.306401 -2.0616 -2.0616
0.175976 -2.0966 -2.0966
0.243884 -2.13829 -2.13829
0.308597 -2.10094 -2.10094
0.240631 -2.0593 -2.0593
0.242266 -2.09863 -2.09863
0.177034 -2.13625 -2.13625
0.179102 -2.21655 -2.21655
0.315068 -2.22097 -2.22097
0.310774 -2.14062 -2.14062
0.178076 -2.17623 -2.17623
0.247064 -2.21861 -2.21861
0.312931 -2.18063 -2.18063
0.243884 -2.13829 -2.13829
0.245483 -2.17829 -2.17829
0.179102 -2.21655 -2.21655
0.181104 -2.29815 -2.29815
0.319281 -2.30263 -2.30263
0.315068 -2.22097 -2.22097
0.180111 -2.25719 -2.25719
0.250172 -2.30025 -2.30025
0.317184 -2.26163 -2.26163
0.247064 -2.21861 -2.21861
0.248627 -2.25927 -2.25927
0.181104 -2.29815 -2.29815
0.183042 -2.38107 -2.38107
0.323414 -2.3856 -2.3856
0.319281 -2.30263 -2.30263
0.182081 -2.33945 -2.33945
0.253207 -2.38319 -2.38319
0.321358 -2.34395 -2.34395
0.250172 -2.30025 -2.30025
0.251699 -2.34156 -2.34156
0.183042 -2.38107 -2.38107
0.184914 -2.46528 -2.46528
0.327466 -2.46986 -2.46986
0.323414 -2.3856 -2.3856
0.183986 -2.42301 -2.42301
0.25617 -2.46743 -2.46743
0.32545 -2.42757 -2.42757
0.253207 -2.38319 -2.38319
0.254698 -2.42515 -2.42515
0.184914 -2.46528 -2.46528
0.18672 -2.55078 -2.55078
0.331437 -2.55542 -2.55542
0.327466 -2.46986 -2.46986
0.185825 -2.50787 -2.50787
0.259058 -2.55296 -2.55296
0.329462 -2.51248 -2.51248
0.25617 -2.46743 -2.46743
0.257623 -2.51004 -2.51004
0.18672 -2.55078 -2.55078
0.18846 -2.63755 -2.63755
0.335327 -2.64225 -2.64225
0.331437 -2.55542 -2.55542
0.187598 -2.59401 -2.59401
0.261873 -2.63977 -2.63977
0.333392 -2.59868 -2.59868
0.259058 -2.55296 -2.55296
0.260475 -2.59621 -2.59621
0.18846 -2.63755 -2.63755
0.190134 -2.7256 -2.7256
0.339134 -2.73036 -2.73036
0.335327 -2.64225 -2.64225
0.189305 -2.68142 -2.68142
0.264614 -2.72784 -2.72784
0.337241 -2.68615 -2.68615
0.261873 -2.63977 -2.63977
0.263253 -2.68365 -2.68365
0.190134 -2.7256 -2.7256
0.19174 -2.81491 -2.81491
0.34286 -2.81972 -2.81972
0.339134 -2.73036 -2.73036
0.190945 -2.7701 -2.7701
0.26728 -2.81718 -2.81718
0.341007 -2.77489 -2.77489
0.264614 -2.72784 -2.72784
0.265956 -2.77236 -2.77236
0.19174 -2.81491 -2.81491
0.19328 -2.90547 -2.90547
0.346502 -2.91034 -2.91034
0.34286 -2.81972 -2.81972
0.192518 -2.86003 -2.86003
0.269871 -2.90777 -2.90777
0.344691 -2.86488 -2.86488
0.26728 -2.81718 -2.81718
0.268585 -2.86232 -2.86232
0.19328 -2.90547 -2.90547
0.194752 -2.99727 -2.99727
0.350063 -3.0022 -3.0022
0.346502 -2.91034 -2.91034
0.194024 -2.95121 -2.95121
0.272387 -2.9996 -2.9996
0.348293 -2.95612 -2.95612
0.269871 -2.90777 -2.90777
0.271138 -2.95353 -2.95353
0.194752 -2.99727 -2.99727
0.196156 -3.0903 -3.0903
0.35354 -3.0953 -3.0953
0.350063 -3.0022 -3.0022
0.195462 -3.04363 -3.04363
0.274828 -3.09267 -3.09267
0.351812 -3.0486 -3.0486
0.272387 -2.9996 -2.9996
0.273617 -3.04598 -3.04598
0.196156 -3.0903 -3.0903
0.197493 -3.18456 -3.18456
0.356934 -3.18961 -3.18961
0.35354 -3.0953 -3.0953
0.196833 -3.13728 -3.13728
0.277193 -3.18695 -3.18695
0.355247 -3.1423 -3.1423
0.274828 -3.09267 -3.09267
0.27602 -3.13966 -3.13966
0.197493 -3.18456 -3.18456
0.198761 -3.28003 -3.28003
0.360244 -3.28515 -3.28515
0.356934 -3.18961 -3.18961
0.198135 -3.23214 -3.23214
0.279482 -3.28246 -3.28246
0.358599 -3.23723 -3.23723
0.277193 -3.18695 -3.18695
0.278347 -3.23456 -3.23456
0.198761 -3.28003 -3.28003
0.19996 -3.37671 -3.37671
0.36347 -3.38189 -3.38189
0.360244 -3.28515 -3.28515
0.199369 -3.32822 -3.32822
0.281695 -3.37917 -3.37917
0.361868 -3.33337 -3.33337
0.279482 -3.28246 -3.28246
0.280598 -3.33066 -3.33066
0.19996 -3.37671 -3.37671
0.201091 -3.47458 -3.47458
0.366613 -3.47982 -3.47982
0.36347 -3.38189 -3.38189
0.200534 -3.42549 -3.42549
0.283832 -3.47707 -3.47707
0.365052 -3.43071 -3.43071
0.281695 -3.37917 -3.37917
0.282773 -3.42797 -3.42797
0.201091 -3.47458 -3.47458
0.202153 -3.57364 -3.57364
0.369671 -3.57895 -3.57895
0.366613 -3.47982 -3.47982
0.201631 -3.52396 -3.52396
0.285892 -3.57617 -3.57617
0.368152 -3.52924 -3.52924
0.283832 -3.47707 -3.47707
0.284872 -3.52647 -3.52647
0.202153 -3.57364 -3.57364
0.203146 -3.67388 -3.67388
0.372645 -3.67925 -3.67925
0.369671 -3.57895 -3.57895
0.202659 -3.62362 -3.62362
0.287876 -3.67644 -3.67644
0.371168 -3.62895 -3.62895
0.285892 -3.57617 -3.57617
0.286893 -3.62616 -3.62616
0.203146 -3.67388 -3.67388
0.20407 -3.77529 -3.77529
0.375534 -3.78072 -3.78072
0.372645 -3.67925 -3.67925
0.203617 -3.72444 -3.72444
0.289782 -3.77788 -3.77788
0.3741 -3.72984 -3.72984
0.287876 -3.67644 -3.67644
0.288838 -3.72701 -3.72701
0.20407 -3.77529 -3.77529
0.204924 -3.87786 -3.87786
0.378339 -3.88335 -3.88335
0.375534 -3.78072 -3.78072
0.204506 -3.82643 -3.82643
0.291611 -3.88048 -3.88048
0.376947 -3.83189 -3.83189
0.289782 -3.77788 -3.77788
0.290706 -3.82904 -3.82904
0.204924 -3.87786 -3.87786
0.205709 -3.98158 -3.98158
0.381058 -3.98714 -3.98714
0.378339 -3.88335 -3.88335
0.205326 -3.92958 -3.92958
0.293364 -3.98424 -3.98424
0.379709 -3.9351 -3.9351
0.291611 -3.88048 -3.88048
0.292497 -3.93222 -3.93222
0.205709 -3.98158 -3.98158
0.206424 -4.08644 -4.08644
0.383692 -4.09206 -4.09206
0.381058 -3.98714 -3.98714
0.206075 -4.03387 -4.03387
0.295038 -4.08913 -4.08913
0.382386 -4.03946 -4.03946
0.293364 -3.98424 -3.98424
0.294211 -4.03654 -4.03654
0.206424 -4.08644 -4.08644
0.207069 -4.19244 -4.19244
0.386242 -4.19812 -4.19812
0.383692 -4.09206 -4.09206
0.206755 -4.1393 -4.1393
0.296635 -4.19516 -4.19516
0.384978 -4.14495 -4.14495
0.295038 -4.08913 -4.08913
0.295847 -4.142 -4.142
0.207069 -4.19244 -4.19244
0.207644 -4.29956 -4.29956
0.388706 -4.3053 -4.3053
0.386242 -4.19812 -4.19812
0.207365 -4.24586 -4.24586
0.298155 -4.30231 -4.30231
0.387484 -4.25157 -4.25157
0.296635 -4.19516 -4.19516
0.297405 -4.24859 -4.24859
0.207644 -4.29956 -4.29956
0.208149 -4.40779 -4.40779
0.391084 -4.4136 -4.4136
0.388706 -4.3053 -4.3053
0.207905 -4.35353 -4.35353
0.299597 -4.41057 -4.41057
0.389905 -4.35931 -4.35931
0.298155 -4.30231 -4.30231
0.298885 -4.3563 -4.3563
0.208149 -4.40779 -4.40779
0.208584 -4.51713 -4.51713
0.393377 -4.523 -4.523
0.391084 -4.4136 -4.4136
0.208375 -4.46232 -4.46232
0.30096 -4.51994 -4.51994
0.392241 -4.46816 -4.46816
0.299597 -4.41057 -4.41057
0.300288 -4.46512 -4.46512
0.208584 -4.51713 -4.51713
0.208948 -4.62756 -4.62756
0.395584 -4.6335 -4.6335
0.393377 -4.523 -4.523
0.208775 -4.57221 -4.57221
0.302246 -4.63041 -4.63041
0.394491 -4.57811 -4.57811
0.30096 -4.51994 -4.51994
0.301613 -4.57504 -4.57504
0.208948 -4.62756 -4.62756
0.209242 -4.73908 -4.73908
0.397706 -4.74508 -4.74508
0.395584 -4.6335 -4.6335
0.209104 -4.68319 -4.68319
0.303454 -4.74197 -4.74197
0.396656 -4.68916 -4.68916
0.302246 -4.63041 -4.63041
0.30286 -4.68605 -4.68605
0.209242 -4.73908 -4.73908
0.209466 -4.85168 -4.85168
0.399741 -4.85775 -4.85775
0.397706 -4.74508 -4.74508
0.209363 -4.79525 -4.79525
0.304584 -4.8546 -4.8546
0.398734 -4.80128 -4.80128
0.303454 -4.74197 -4.74197
0.304029 -4.79815 -4.79815
0.209466 -4.85168 -4.85168
0.209619 -4.96535 -4.96535
0.401691 -4.97148 -4.97148
0.399741 -4.85775 -4.85775
0.209551 -4.90838 -4.90838
0.305635 -4.9683 -4.9683
0.400727 -4.91448 -4.91448
0.304584 -4.8546 -4.8546
0.305119 -4.91132 -4.91132
0.209619 -4.96535 -4.96535
0.209701 -5.08008 -5.08008
0.403555 -5.08627 -5.08627
0.401691 -4.97148 -4.97148
0.209669 -5.02258 -5.02258
0.306608 -5.08306 -5.08306
0.402634 -5.02874 -5.02874
0.305635 -4.9683 -4.9683
0.306132 -5.02555 -5.02555
0.209701 -5.08008 -5.08008
0.209713 -5.19585 -5.19585
0.405334 -5.20212 -5.20212
0.403555 -5.08627 -5.08627
0.209716 -5.13783 -5.13783
0.307503 -5.19887 -5.19887
0.404455 -5.14406 -5.14406
0.306608 -5.08306 -5.08306
0.307066 -5.14084 -5.14084
0.209713 -5.19585 -5.19585
0.209655 -5.31267 -5.31267
0.407026 -5.319 -5.319
0.405334 -5.20212 -5.20212
0.209693 -5.25413 -5.25413
0.30832 -5.31573 -5.31573
0.40619 -5.26043 -5.26043
0.307503 -5.19887 -5.19887
0.307922 -5.25717 -5.25717
0.209655 -5.31267 -5.31267
0.209525 -5.43053 -5.43053
0.408632 -5.43692 -5.43692
0.407026 -5.319 -5.319
0.209599 -5.37147 -5.37147
0.309059 -5.43361 -5.43361
0.40784 -5.37783 -5.37783
0.30832 -5.31573 -5.31573
0.308699 -5.37454 -5.37454
0.209525 -5.43053 -5.43053
0.209325 -5.5494 -5.5494
0.410153 -5.55586 -5.55586
0.408632 -5.43692 -5.43692
0.209434 -5.48984 -5.48984
0.309719 -5.55252 -5.55252
0.409403 -5.49626 -5.49626
0.309059 -5.43361 -5.43361
0.309399 -5.49294 -5.49294
0.209325 -5.5494 -5.5494
0.209055 -5.66929 -5.66929
0.411587 -5.67581 -5.67581
0.410153 -5.55586 -5.55586
0.209199 -5.60922 -5.60922
0.310301 -5.67244 -5.67244
0.410881 -5.61571 -5.61571
0.309719 -5.55252 -5.55252
0.31002 -5.61236 -5.61236
0.209055 -5.66929 -5.66929
0.208714 -5.79019 -5.79019
0.412936 -5.79677 -5.79677
0.411587 -5.67581 -5.67581
0.208893 -5.72961 -5.72961
0.310805 -5.79337 -5.79337
0.412272 -5.73617 -5.73617
0.310301 -5.67244 -5.67244
0.310563 -5.73278 -5.73278
0.208714 -5.79019 -5.79019
0.208303 -5.91208 -5.91208
0.414199 -5.91873 -5.91873
0.412936 -5.79677 -5.79677
0.208517 -5.85101 -5.85101
0.311231 -5.91529 -5.91529
0.413578 -5.85762 -5.85762
0.310805 -5.79337 -5.79337
0.311028 -5.85421 -5.85421
0.208303 -5.91208 -5.91208
0.207821 -6.03495 -6.03495
0.415376 -6.04167 -6.04167
0.414199 -5.91873 -5.91873
0.20807 -5.97339 -5.97339
0.311578 -6.03821 -6.03821
0.414798 -5.98007 -5.98007
0.311231 -5.91529 -5.91529
0.311414 -5.97663 -5.97663
0.207821 -6.03495 -6.03495
0.207268 -6.15881 -6.15881
0.416467 -6.16559 -6.16559
0.415376 -6.04167 -6.04167
0.207553 -6.09676 -6.09676
0.311848 -6.16209 -6.16209
0.415932 -6.10351 -6.10351
0.311578 -6.03821 -6.03821
0.311723 -6.10003 -6.10003
0.207268 -6.15881 -6.15881
0.206646 -6.28363 -6.28363
0.417473 -6.29048 -6.29048
0.416467 -6.16559 -6.16559
0.206966 -6.2211 -6.2211
0.312039 -6.28695 -6.28695
0.416981 -6.22791 -6.22791
0.311848 -6.16209 -6.16209
0.311953 -6.2244 -6.2244
0.206646 -6.28363 -6.28363
0.205953 -6.40942 -6.40942
0.418393 -6.41632 -6.41632
0.417473 -6.29048 -6.29048
0.206308 -6.34641 -6.34641
0.312153 -6.41277 -6.41277
0.417944 -6.35328 -6.35328
0.312039 -6.28695 -6.28695
0.312106 -6.34974 -6.34974
0.205953 -6.40942 -6.40942
0.205189 -6.53615 -6.53615
0.419228 -6.54312 -6.54312
0.418393 -6.41632 -6.41632
0.20558 -6.47267 -6.47267
0.312189 -6.53953 -6.53953
0.418821 -6.4796 -6.4796
0.312153 -6.41277 -6.41277
0.31218 -6.47603 -6.47603
0.205189 -6.53615 -6.53615
0.204356 -6.66383 -6.66383
0.419977 -6.67086 -6.67086
0.419228 -6.54312 -6.54312
0.204782 -6.59987 -6.59987
0.312147 -6.66724 -6.66724
0.419613 -6.60687 -6.60687
0.312189 -6.53953 -6.53953
0.312177 -6.60327 -6.60327
0.204356 -6.66383 -6.66383
0.203453 -6.79243 -6.79243
0.420641 -6.79953 -6.79953
0.419977 -6.67086 -6.67086
0.203913 -6.72801 -6.72801
0.312027 -6.79588 -6.79588
0.42032 -6.73508 -6.73508
0.312147 -6.66724 -6.66724
0.312097 -6.73145 -6.73145
0.203453 -6.79243 -6.79243
0.20248 -6.92196 -6.92196
0.42122 -6.92913 -6.92913
0.420641 -6.79953 -6.79953
0.202975 -6.85708 -6.85708
0.31183 -6.92545 -6.92545
0.420941 -6.86421 -6.86421
0.312027 -6.79588 -6.79588
0.311938 -6.86055 -6.86055
0.20248 -6.92196 -6.92196
0.201437 -7.05241 -7.05241
0.421714 -7.05963 -7.05963
0.42122 -6.92913 -6.92913
0.201967 -6.98707 -6.98707
0.311556 -7.05592 -7.05592
0.421477 -6.99427 -6.99427
0.31183 -6.92545 -6.92545
0.311702 -6.99057 -6.99057
0.201437 -7.05241 -7.05241
0.200325 -7.18376 -7.18376
0.422123 -7.19105 -7.19105
0.421714 -7.05963 -7.05963
0.20089 -7.11797 -7.11797
0.311204 -7.18731 -7.18731
0.421929 -7.12523 -7.12523
0.311556 -7.05592 -7.05592
0.311389 -7.1215 -7.1215
0.200325 -7.18376 -7.18376
0.199143 -7.316 -7.316
0.422447 -7.32335 -7.32335
0.422123 -7.19105 -7.19105
0.199743 -7.24977 -7.24977
0.310775 -7.31958 -7.31958
0.422295 -7.25709 -7.25709
0.311204 -7.18731 -7.18731
0.310999 -7.25333 -7.25333
0.199143 -7.316 -7.316
0.197892 -7.44914 -7.44914
0.422687 -7.45655 -7.45655
0.422447 -7.32335 -7.32335
0.198527 -7.38246 -7.38246
0.310269 -7.45275 -7.45275
0.422577 -7.38984 -7.38984
0.310775 -7.31958 -7.31958
0.310532 -7.38605 -7.38605
0.197892 -7.44914 -7.44914
0.196572 -7.58314 -7.58314
0.422842 -7.59062 -7.59062
0.422687 -7.45655 -7.45655
0.197241 -7.51603 -7.51603
0.309687 -7.58679 -7.58679
0.422775 -7.52348 -7.52348
0.310269 -7.45275 -7.45275
0.309988 -7.51966 -7.51966
0.196572 -7.58314 -7.58314
0.195183 -7.71802 -7.71802
0.422913 -7.72556 -7.72556
0.422842 -7.59062 -7.59062
0.195887 -7.65048 -7.65048
0.309028 -7.7217 -7.7217
0.422888 -7.65798 -7.65798
0.309687 -7.58679 -7.58679
0.309367 -7.65414 -7.65414
0.195183 -7.71802 -7.71802
0.193726 -7.85376 -7.85376
0.4229 -7.86136 -7.86136
0.422913 -7.72556 -7.72556
0.194463 -7.78579 -7.78579
0.308293 -7.85747 -7.85747
0.422917 -7.79335 -7.79335
0.309028 -7.7217 -7.7217
0.30867 -7.78948 -7.78948
0.193726 -7.85376 -7.85376
0.192199 -7.99035 -7.99035
0.422803 -7.99801 -7.99801
0.4229 -7.86136 -7.86136
0.192971 -7.92195 -7.92195
0.307481 -7.99409 -7.99409
0.422862 -7.92958 -7.92958
0.308293 -7.85747 -7.85747
0.307896 -7.92567 -7.92567
0.192199 -7.99035 -7.99035
0.190605 -8.12778 -8.12778
0.422622 -8.1355 -8.1355
0.422803 -7.99801 -7.99801
0.191411 -8.05896 -8.05896
0.306593 -8.13155 -8.13155
0.422723 -8.06665 -8.06665
0.307481 -7.99409 -7.99409
0.307047 -8.06271 -8.06271
0.190605 -8.12778 -8.12778
0.188942 -8.26604 -8.26604
0.422359 -8.27382 -8.27382
0.422622 -8.1355 -8.1355
0.189782 -8.1968 -8.1968
0.30563 -8.26984 -8.26984
0.422501 -8.20456 -8.20456
0.306593 -8.13155 -8.13155
0.306121 -8.20059 -8.20059
0.188942 -8.26604 -8.26604
0.187212 -8.40512 -8.40512
0.422011 -8.41296 -8.41296
0.422359 -8.27382 -8.27382
0.188085 -8.33548 -8.33548
0.304591 -8.40896 -8.40896
0.422195 -8.34329 -8.34329
0.30563 -8.26984 -8.26984
0.30512 -8.3393 -8.3393
0.187212 -8.40512 -8.40512
0.185413 -8.54502 -8.54502
0.421581 -8.55292 -8.55292
0.422011 -8.41296 -8.41296
0.186321 -8.47497 -8.47497
0.303477 -8.54888 -8.54888
0.421807 -8.48284 -8.48284
0.304591 -8.40896 -8.40896
0.304044 -8.47882 -8.47882
0.185413 -8.54502 -8.54502
0.183548 -8.68572 -8.68572
0.421069 -8.69368 -8.69368
0.421581 -8.55292 -8.55292
0.184489 -8.61527 -8.61527
0.302288 -8.68962 -8.68962
0.421335 -8.6232 -8.6232
0.303477 -8.54888 -8.54888
0.302892 -8.61915 -8.61915
0.183548 -8.68572 -8.68572
0.181615 -8.82722 -8.82722
0.420473 -8.83524 -8.83524
0.421069 -8.69368 -8.69368
0.18259 -8.75638 -8.75638
0.301024 -8.83115 -8.83115
0.420781 -8.76436 -8.76436
0.302288 -8.68962 -8.68962
0.301665 -8.76028 -8.76028
0.181615 -8.82722 -8.82722
0.179615 -8.96951 -8.96951
0.419796 -8.97759 -8.97759
0.420473 -8.83524 -8.83524
0.180623 -8.89827 -8.89827
0.299685 -8.97346 -8.97346
0.420145 -8.90632 -8.90632
0.301024 -8.83115 -8.83115
0.300364 -8.90221 -8.90221
0.179615 -8.96951 -8.96951
0.177549 -9.11257 -9.11257
0.419036 -9.12071 -9.12071
0.419796 -8.97759 -8.97759
0.17859 -9.04094 -9.04094
0.298272 -9.11656 -9.11656
0.419426 -9.04905 -9.04905
0.299685 -8.97346 -8.97346
0.298988 -9.04491 -9.04491
0.177549 -9.11257 -9.11257
0.175416 -9.2564 -9.2564
0.418195 -9.2646 -9.2646
0.419036 -9.12071 -9.12071
0.176491 -9.18439 -9.18439
0.296785 -9.26042 -9.26042
0.418626 -9.19256 -9.19256
0.298272 -9.11656 -9.11656
0.297538 -9.18839 -9.18839
0.175416 -9.2564 -9.2564
0.173217 -9.40099 -9.40099
0.417273 -9.40924 -9.40924
0.418195 -9.2646 -9.2646
0.174325 -9.3286 -9.3286
0.295225 -9.40504 -9.40504
0.417744 -9.33683 -9.33683
0.296785 -9.26042 -9.26042
0.296014 -9.33263 -9.33263
0.173217 -9.40099 -9.40099
0.170952 -9.54634 -9.54634
0.416269 -9.55464 -9.55464
0.417273 -9.40924 -9.40924
0.172093 -9.47357 -9.47357
0.29359 -9.55041 -9.55041
0.416781 -9.48185 -9.48185
0.295225 -9.40504 -9.40504
0.294417 -9.47763 -9.47763
0.170952 -9.54634 -9.54634
0.168622 -9.69242 -9.69242
0.415185 -9.70078 -9.70078
0.416269 -9.55464 -9.55464
0.169795 -9.61929 -9.61929
0.291883 -9.69652 -9.69652
0.415737 -9.62762 -9.62762
0.29359 -9.55041 -9.55041
0.292746 -9.62337 -9.62337
0.168622 -9.69242 -9.69242
0.166227 -9.83923 -9.83923
0.41402 -9.84765 -9.84765
0.415185 -9.70078 -9.70078
0.167433 -9.76574 -9.76574
0.290103 -9.84336 -9.84336
0.414613 -9.77413 -9.77413
0.291883 -9.69652 -9.69652
0.291002 -9.76985 -9.76985
0.166227 -9.83923 -9.83923
0.163767 -9.98677 -9.98677
0.412775 -9.99524 -9.99524
0.41402 -9.84765 -9.84765
0.165005 -9.91291 -9.91291
0.28825 -9.99093 -9.99093
0.413408 -9.92136 -9.92136
0.290103 -9.84336 -9.84336
0.289186 -9.91706 -9.91706
0.163767 -9.98677 -9.98677
0.161242 -10.135 -10.135
0.41145 -10.1436 -10.1436
0.412775 -9.99524 -9.99524
0.162512 -10.0608 -10.0608
0.286325 -10.1392 -10.1392
0.412123 -10.0693 -10.0693
0.28825 -9.99093 -9.99093
0.287297 -10.065 -10.065
0.161242 -10.135 -10.135
0.158653 -10.284 -10.284
0.410046 -10.2926 -10.2926
0.41145 -10.1436 -10.1436
0.159955 -10.2094 -10.2094
0.284329 -10.2882 -10.2882
0.410758 -10.218 -10.218
0.286325 -10.1392 -10.1392
0.285336 -10.2136 -10.2136
0.158653 -10.284 -10.284
0.156 -10.4336 -10.4336
0.408562 -10.4423 -10.4423
0.410046 -10.2926 -10.2926
0.157334 -10.3587 -10.3587
0.28226 -10.4379 -10.4379
0.409314 -10.3673 -10.3673
0.284329 -10.2882 -10.2882
0.283304 -10.3629 -10.3629
0.156 -10.4336 -10.4336
0.153284 -10.584 -10.584
0.407 -10.5927 -10.5927
0.408562 -10.4423 -10.4423
0.15465 -10.5087 -10.5087
0.280121 -10.5882 -10.5882
0.407791 -10.5174 -10.5174
0.28226 -10.4379 -10.4379
0.2812 -10.513 -10.513
0.153284 -10.584 -10.584
0.150504 -10.735 -10.735
0.405359 -10.7437 -10.7437
0.407 -10.5927 -10.5927
0.151902 -10.6594 -10.6594
0.277911 -10.7393 -10.7393
0.406189 -10.6681 -10.6681
0.280121 -10.5882 -10.5882
0.279025 -10.6637 -10.6637
0.150504 -10.735 -10.735
0.147662 -10.8867 -10.8867
0.40364 -10.8955 -10.8955
0.405359 -10.7437 -10.7437
0.149091 -10.8107 -10.8107
0.27563 -10.891 -10.891
0.404509 -10.8195 -10.8195
0.277911 -10.7393 -10.7393
0.276779 -10.8151 -10.8151
0.147662 -10.8867 -10.8867
0.144757 -11.039 -11.039
0.401843 -11.0479 -11.0479
0.40364 -10.8955 -10.8955
0.146217 -10.9628 -10.9628
0.273279 -11.0434 -11.0434
0.402751 -10.9716 -10.9716
0.27563 -10.891 -10.891
0.274463 -10.9671 -10.9671
0.144757 -11.039 -11.039
0.14179 -11.192 -11.192
0.399969 -11.2009 -11.2009
0.401843 -11.0479 -11.0479
0.143281 -11.1154 -11.1154
0.270859 -11.1964 -11.1964
0.400916 -11.1243 -11.1243
0.273279 -11.0434 -11.0434
0.272078 -11.1198 -11.1198
0.14179 -11.192 -11.192
0.138761 -11.3457 -11.3457
0.398018 -11.3546 -11.3546
0.399969 -11.2009 -11.2009
0.140283 -11.2688 -11.2688
0.268369 -11.3501 -11.3501
0.399003 -11.2777 -11.2777
0.270859 -11.1964 -11.1964
0.269622 -11.2731 -11.2731
0.138761 -11.3457 -11.3457
0.135671 -11.4999 -11.4999
0.395991 -11.5089 -11.5089
0.398018 -11.3546 -11.3546
0.137224 -11.4227 -11.4227
0.26581 -11.5043 -11.5043
0.397014 -11.4317 -11.4317
0.268369 -11.3501 -11.3501
0.267098 -11.4271 -11.4271
0.135671 -11.4999 -11.4999
0.13252 -11.6548 -11.6548
0.393887 -11.6639 -11.6639
0.395991 -11.5089 -11.5089
0.134103 -11.5773 -11.5773
0.263182 -11.6593 -11.6593
0.394948 -11.5863 -11.5863
0.26581 -11.5043 -11.5043
0.264505 -11.5817 -11.5817
0.13252 -11.6548 -11.6548
0.129309 -11.8103 -11.8103
0.391707 -11.8194 -11.8194
0.393887 -11.6639 -11.6639
0.130922 -11.7325 -11.7325
0.260487 -11.8148 -11.8148
0.392806 -11.7416 -11.7416
0.263182 -11.6593 -11.6593
0.261843 -11.737 -11.737
0.129309 -11.8103 -11.8103
0.126037 -11.9664 -11.9664
0.389452 -11.9756 -11.9756
0.391707 -11.8194 -11.8194
0.12768 -11.8883 -11.8883
0.257723 -11.9709 -11.9709
0.390589 -11.8974 -11.8974
0.260487 -11.8148 -11.8148
0.259113 -11.8928 -11.8928
0.126037 -11.9664 -11.9664
0.122706 -12.1231 -12.1231
0.387122 -12.1323 -12.1323
0.389452 -11.9756 -11.9756
0.124379 -12.0447 -12.0447
0.254893 -12.1277 -12.1277
0.388296 -12.0539 -12.0539
0.257723 -11.9709 -11.9709
0.256316 -12.0492 -12.0492
0.122706 -12.1231 -12.1231
0.119315 -12.2804 -12.2804
0.384717 -12.2897 -12.2897
0.387122 -12.1323 -12.1323
0.121018 -12.2017 -12.2017
0.251995 -12.285 -12.285
0.385929 -12.2109 -12.2109
0.254893 -12.1277 -12.1277
0.253452 -12.2062 -12.2062
0.119315 -12.2804 -12.2804
0.115866 -12.4383 -12.4383
0.382238 -12.4476 -12.4476
0.384717 -12.2897 -12.2897
0.117598 -12.3593 -12.3593
0.249031 -12.4429 -12.4429
0.383487 -12.3685 -12.3685
0.251995 -12.285 -12.285
0.250521 -12.3639 -12.3639
0.115866 -12.4383 -12.4383
0.112358 -12.5967 -12.5967
0.379686 -12.6061 -12.6061
0.382238 -12.4476 -12.4476
0.114119 -12.5175 -12.5175
0.246001 -12.6013 -12.6013
0.380971 -12.5267 -12.5267
0.249031 -12.4429 -12.4429
0.247524 -12.522 -12.522
0.112358 -12.5967 -12.5967
0.108792 -12.7557 -12.7557
0.37706 -12.7651 -12.7651
0.379686 -12.6061 -12.6061
0.110582 -12.6762 -12.6762
0.242905 -12.7604 -12.7604
0.378382 -12.6855 -12.6855
0.246001 -12.6013 -12.6013
0.244461 -12.6808 -12.6808
0.108792 -12.7557 -12.7557
0.105169 -12.9153 -12.9153
0.374362 -12.9247 -12.9247
0.37706 -12.7651 -12.7651
0.106988 -12.8355 -12.8355
0.239744 -12.9199 -12.9199
0.37572 -12.8448 -12.8448
0.242905 -12.7604 -12.7604
0.241332 -12.8401 -12.8401
0.105169 -12.9153 -12.9153
0.101488 -13.0754 -13.0754
0.371591 -13.0848 -13.0848
0.374362 -12.9247 -12.9247
0.103336 -12.9953 -12.9953
0.236518 -13.0801 -13.0801
0.372985 -13.0047 -13.0047
0.239744 -12.9199 -12.9199
0.238139 -12.9999 -12.9999
0.101488 -13.0754 -13.0754
0.0977514 -13.236 -13.236
0.368748 -13.2455 -13.2455
0.371591 -13.0848 -13.0848
0.0996269 -13.1556 -13.1556
0.233228 -13.2407 -13.2407
0.370178 -13.1651 -13.1651
0.236518 -13.0801 -13.0801
0.234881 -13.1603 -13.1603
0.0977514 -13.236 -13.236
0.0939582 -13.3972 -13.3972
0.365834 -13.4067 -13.4067
0.368748 -13.2455 -13.2455
0.0958618 -13.3165 -13.3165
0.229874 -13.4019 -13.4019
0.3673 -13.326 -13.326
0.233228 -13.2407 -13.2407
0.231559 -13.3212 -13.3212
0.0939582 -13.3972 -13.3972
0.0901093 -13.5588 -13.5588
0.362848 -13.5684 -13.5684
0.365834 -13.4067 -13.4067
0.0920407 -13.4779 -13.4779
0.226457 -13.5635 -13.5635
0.36435 -13.4875 -13.4875
0.229874 -13.4019 -13.4019
0.228174 -13.4826 -13.4826
0.0901093 -13.5588 -13.5588
0.0862052 -13.721 -13.721
0.359793 -13.7306 -13.7306
0.362848 -13.5684 -13.5684
0.0881641 -13.6398 -13.6398
0.222977 -13.7257 -13.7257
0.361329 -13.6494 -13.6494
0.226457 -13.5635 -13.5635
0.224725 -13.6446 -13.6446
0.0862052 -13.721 -13.721
0.0822464 -13.8837 -13.8837
0.356667 -13.8933 -13.8933
0.359793 -13.7306 -13.7306
0.0842326 -13.8023 -13.8023
0.219435 -13.8884 -13.8884
0.358239 -13.8119 -13.8119
0.222977 -13.7257 -13.7257
0.221214 -13.807 -13.807
0.0822464 -13.8837 -13.8837
0.0782333 -14.0468 -14.0468
0.353472 -14.0565 -14.0565
0.356667 -13.8933 -13.8933
0.0802466 -13.9652 -13.9652
0.215831 -14.0516 -14.0516
0.355078 -13.9748 -13.9748
0.219435 -13.8884 -13.8884
0.217641 -13.9699 -13.9699
0.0782333 -14.0468 -14.0468
0.0741664 -14.2104 -14.2104
0.350207 -14.2201 -14.2201
0.353472 -14.0565 -14.0565
0.0762065 -14.1286 -14.1286
0.212165 -14.2152 -14.2152
0.351848 -14.1383 -14.1383
0.215831 -14.0516 -14.0516
0.214006 -14.1334 -14.1334
0.0741664 -14.2104 -14.2104
0.0700463 -14.3745 -14.3745
0.346875 -14.3843 -14.3843
0.350207 -14.2201 -14.2201
0.072113 -14.2924 -14.2924
0.208439 -14.3794 -14.3794
0.34855 -14.3022 -14.3022
0.212165 -14.2152 -14.2152
0.210309 -14.2972 -14.2972
0.0700463 -14.3745 -14.3745
0.0658734 -14.5391 -14.5391
0.343474 -14.5489 -14.5489
0.346875 -14.3843 -14.3843
0.0679664 -14.4568 -14.4568
0.204652 -14.5439 -14.5439
0.345183 -14.4665 -14.4665
0.208439 -14.3794 -14.3794
0.206553 -14.4616 -14.4616
0.0658734 -14.5391 -14.5391
0.0616482 -14.7041 -14.7041
0.340005 -14.7139 -14.7139
0.343474 -14.5489 -14.5489
0.0637673 -14.6215 -14.6215
0.200805 -14.709 -14.709
0.341748 -14.6313 -14.6313
0.204652 -14.5439 -14.5439
0.202736 -14.6264 -14.6264
0.0616482 -14.7041 -14.7041
0.0573712 -14.8696 -14.8696
0.33647 -14.8794 -14.8794
0.340005 -14.7139 -14.7139
0.0595162 -14.7868 -14.7868
0.196899 -14.8744 -14.8744
0.338246 -14.7966 -14.7966
0.200805 -14.709 -14.709
0.198859 -14.7916 -14.7916
0.0573712 -14.8696 -14.8696
0.0530431 -15.0354 -15.0354
0.332868 -15.0453 -15.0453
0.33647 -14.8794 -14.8794
0.0552135 -14.9524 -14.9524
0.192933 -15.0403 -15.0403
0.334677 -14.9623 -14.9623
0.196899 -14.8744 -14.8744
0.194923 -14.9573 -14.9573
0.0530431 -15.0354 -15.0354
0.0486642 -15.2017 -15.2017
0.3292 -15.2117 -15.2117
0.332868 -15.0453 -15.0453
0.0508599 -15.1185 -15.1185
0.18891 -15.2067 -15.2067
0.331042 -15.1284 -15.1284
0.192933 -15.0403 -15.0403
0.190929 -15.1234 -15.1234
0.0486642 -15.2017 -15.2017
0.0442351 -15.3685 -15.3685
0.325466 -15.3784 -15.3784
0.3292 -15.2117 -15.2117
0.0464559 -15.2851 -15.2851
0.184829 -15.3734 -15.3734
0.327341 -15.295 -15.295
0.18891 -15.2067 -15.2067
0.186876 -15.29 -15.29
0.0442351 -15.3685 -15.3685
0.0397563 -15.5356 -15.5356
0.321668 -15.5456 -15.5456
0.325466 -15.3784 -15.3784
0.0420019 -15.452 -15.452
0.18069 -15.5405 -15.5405
0.323575 -15.4619 -15.4619
0.184829 -15.3734 -15.3734
0.182766 -15.4569 -15.4569
0.0397563 -15.5356 -15.5356
0.0352284 -15.7031 -15.7031
0.317805 -15.7131 -15.7131
0.321668 -15.5456 -15.5456
0.0374985 -15.6193 -15.6193
0.176495 -15.7081 -15.7081
0.319745 -15.6293 -15.6293
0.18069 -15.5405 -15.5405
0.178599 -15.6243 -15.6243
0.0352284 -15.7031 -15.7031
0.0306519 -15.871 -15.871
0.313879 -15.8811 -15.8811
0.317805 -15.7131 -15.7131
0.0329462 -15.787 -15.787
0.172243 -15.876 -15.876
0.31585 -15.797 -15.797
0.176495 -15.7081 -15.7081
0.174376 -15.792 -15.792
0.0306519 -15.871 -15.871
0.0260274 -16.0393 -16.0393
0.309889 -16.0494 -16.0494
0.313879 -15.8811 -15.8811
0.0283456 -15.9551 -15.9551
0.167936 -16.0443 -16.0443
0.311891 -15.9652 -15.9652
0.172243 -15.876 -15.876
0.170096 -15.9601 -15.9601
0.0260274 -16.0393 -16.0393
0.0213553 -16.208 -16.208
0.305836 -16.2181 -16.2181
0.309889 -16.0494 -16.0494
0.0236972 -16.1236 -16.1236
0.163573 -16.213 -16.213
0.30787 -16.1337 -16.1337
0.167936 -16.0443 -16.0443
0.165761 -16.1286 -16.1286
0.0213553 -16.208 -16.208
0.0166362 -16.377 -16.377
0.301721 -16.3871 -16.3871
0.305836 -16.2181 -16.2181
0.0190016 -16.2924 -16.2924
0.159156 -16.382 -16.382
0.303786 -16.3025 -16.3025
0.163573 -16.213 -16.213
0.161371 -16.2975 -16.2975
0.0166362 -16.377 -16.377
0.0118708 -16.5464 -16.5464
0.297544 -16.5565 -16.5565
0.301721 -16.3871 -16.3871
0.0142593 -16.4616 -16.4616
0.154685 -16.5514 -16.5514
0.29964 -16.4718 -16.4718
0.159156 -16.382 -16.382
0.156927 -16.4667 -16.4667
0.0118708 -16.5464 -16.5464
0.00705943 -16.7161 -16.7161
0.293306 -16.7262 -16.7262
0.297544 -16.5565 -16.5565
0.00947079 -16.6312 -16.6312
0.15016 -16.7211 -16.7211
0.295433 -16.6413 -16.6413
0.154685 -16.5514 -16.5514
0.152429 -16.6362 -16.6362
0.00705943 -16.7161 -16.7161
0.0022028 -16.8861 -16.8861
0.289008 -16.8963 -16.8963
0.293306 -16.7262 -16.7262
0.00463674 -16.8011 -16.8011
0.145583 -16.8912 -16.8912
0.291165 -16.8112 -16.8112
0.15016 -16.7211 -16.7211
0.147878 -16.8061 -16.8061
0.0022028 -16.8861 -16.8861
-0.00269856 -17.0565 -17.0565
0.284649 -17.0667 -17.0667
0.289008 -16.8963 -16.8963
-0.000242323 -16.9713 -16.9713
0.140953 -17.0616 -17.0616
0.286836 -16.9815 -16.9815
0.145583 -16.8912 -16.8912
0.143274 -16.9763 -16.9763
-0.00269856 -17.0565 -17.0565
-0.00764409 -17.2272 -17.2272
0.280232 -17.2374 -17.2374
0.284649 -17.0667 -17.0667
-0.00516584 -17.1418 -17.1418
0.136271 -17.2323 -17.2323
0.282448 -17.152 -17.152
0.140953 -17.0616 -17.0616
0.138618 -17.1469 -17.1469
-0.00764409 -17.2272 -17.2272
-0.0126332 -17.3982 -17.3982
0.275755 -17.4084 -17.4084
0.280232 -17.2374 -17.2374
-0.0101332 -17.3126 -17.3126
0.131538 -17.4033 -17.4033
0.278001 -17.3229 -17.3229
0.136271 -17.2323 -17.2323
0.133911 -17.3177 -17.3177
-0.0126332 -17.3982 -17.3982
-0.0176654 -17.5695 -17.5695
0.27122 -17.5797 -17.5797
0.275755 -17.4084 -17.4084
-0.015144 -17.4838 -17.4838
0.126754 -17.5746 -17.5746
0.273495 -17.494 -17.494
0.131538 -17.4033 -17.4033
0.129152 -17.4889 -17.4889
-0.0176654 -17.5695 -17.5695
-0.02274 -17.741 -17.741
0.266627 -17.7513 -17.7513
0.27122 -17.5797 -17.5797
-0.0201974 -17.6552 -17.6552
0.121921 -17.7461 -17.7461
0.268931 -17.6655 -17.6655
0.126754 -17.5746 -17.5746
0.124344 -17.6603 -17.6603
-0.02274 -17.741 -17.741
-0.0278564 -17.9129 -17.9129
0.261977 -17.9232 -17.9232
0.266627 -17.7513 -17.7513
-0.025293 -17.8269 -17.8269
0.117037 -17.918 -17.918
0.264309 -17.8372 -17.8372
0.121921 -17.7461 -17.7461
0.119485 -17.832 -17.832
-0.0278564 -17.9129 -17.9129
-0.0330142 -18.085 -18.085
0.257271 -18.0953 -18.0953
0.261977 -17.9232 -17.9232
-0.0304302 -17.9989 -17.9989
0.112105 -18.0901 -18.0901
0.259631 -18.0092 -18.0092
0.117037 -17.918 -17.918
0.114577 -18.004 -18.004
-0.0330142 -18.085 -18.085
-0.0382127 -18.2574 -18.2574
0.252509 -18.2677 -18.2677
0.257271 -18.0953 -18.0953
-0.0356084 -18.1712 -18.1712
0.107125 -18.2625 -18.2625
0.254897 -18.1815 -18.1815
0.112105 -18.0901 -18.0901
0.109621 -18.1763 -18.1763
-0.0382127 -18.2574 -18.2574
-0.0434512 -18.43 -18.43
0.247691 -18.4404 -18.4404
0.252509 -18.2677 -18.2677
-0.040827 -18.3437 -18.3437
0.102097 -18.4352 -18.4352
0.250107 -18.354 -18.354
0.107125 -18.2625 -18.2625
0.104617 -18.3488 -18.3488
-0.0434512 -18.43 -18.43
-0.0487293 -18.6029 -18.6029
0.242818 -18.6133 -18.6133
0.247691 -18.4404 -18.4404
-0.0460854 -18.5165 -18.5165
0.0970212 -18.6081 -18.6081
0.245261 -18.5268 -18.5268
0.102097 -18.4352 -18.4352
0.0995647 -18.5216 -18.5216
-0.0487293 -18.6029 -18.6029
-0.0540463 -18.776 -18.776
0.237892 -18.7864 -18.7864
0.242818 -18.6133 -18.6133
-0.051383 -18.6894 -18.6894
0.0918993 -18.7812 -18.7812
0.240362 -18.6998 -18.6998
0.0970212 -18.6081 -18.6081
0.094466 -18.6946 -18.6946
-0.0540463 -18.776 -18.776
-0.0594017 -18.9494 -18.9494
0.232911 -18.9597 -18.9597
0.237892 -18.7864 -18.7864
-0.0567192 -18.8627 -18.8627
0.0867314 -18.9545 -18.9545
0.235408 -18.873 -18.873
0.0918993 -18.7812 -18.7812
0.089321 -18.8678 -18.8678
-0.0594017 -18.9494 -18.9494
-0.0647947 -19.1229 -19.1229
0.227878 -19.1333 -19.1333
0.232911 -18.9597 -18.9597
-0.0620935 -19.0361 -19.0361
0.0815181 -19.1281 -19.1281
0.230401 -19.0465 -19.0465
0.0867314 -18.9545 -18.9545
0.0841304 -19.0413 -19.0413
-0.0647947 -19.1229 -19.1229
-0.0702249 -19.2967 -19.2967
0.222792 -19.3071 -19.3071
0.227878 -19.1333 -19.1333
-0.0675052 -19.2098 -19.2098
0.0762601 -19.3018 -19.3018
0.225342 -19.2201 -19.2201
0.0815181 -19.1281 -19.1281
0.0788947 -19.2149 -19.2149
-0.0702249 -19.2967 -19.2967
-0.0756917 -19.4706 -19.4706
0.217655 -19.481 -19.481
0.222792 -19.3071 -19.3071
-0.0729538 -19.3836 -19.3836
0.0709579 -19.4758 -19.4758
0.22023 -19.394 -19.394
0.0762601 -19.3018 -19.3018
0.0736145 -19.3888 -19.3888
-0.0756917 -19.4706 -19.4706
-0.0811943 -19.6448 -19.6448
0.212466 -19.6552 -19.6552
0.217655 -19.481 -19.481
-0.0784385 -19.5577 -19.5577
0.0656122 -19.65 -19.65
0.215067 -19.5681 -19.5681
0.0709579 -19.4758 -19.4758
0.0682905 -19.5629 -19.5629
-0.0811943 -19.6448 -19.6448
-0.0867323 -19.8191 -19.8191
0.207227 -19.8295 -19.8295
0.212466 -19.6552 -19.6552
-0.0839589 -19.7319 -19.7319
0.0602236 -19.8243 -19.8243
0.209853 -19.7423 -19.7423
0.0656122 -19.65 -19.65
0.0629232 -19.7371 -19.7371
-0.0867323 -19.8191 -19.8191
-0.0923049 -19.9936 -19.9936
0.201938 -20.004 -20.004
0.207227 -19.8295 -19.8295
-0.0895143 -19.9063 -19.9063
0.0547925 -19.9988 -19.9988
0.204588 -19.9167 -19.9167
0.0602236 -19.8243 -19.8243
0.0575133 -19.9115 -19.9115
-0.0923049 -19.9936 -19.9936
-0.0979117 -20.1683 -20.1683
0.196599 -20.1787 -20.1787
0.201938 -20.004 -20.004
-0.0951041 -20.0809 -20.0809
0.0493198 -20.1734 -20.1734
0.199274 -20.0913 -20.0913
0.0547925 -19.9988 -19.9988
0.0520614 -20.0861 -20.0861
-0.0979117 -20.1683 -20.1683
-0.103552 -20.3431 -20.3431
0.191212 -20.3535 -20.3535
0.196599 -20.1787 -20.1787
-0.100728 -20.2556 -20.2556
0.043806 -20.3482 -20.3482
0.193911 -20.266 -20.266
0.0493198 -20.1734 -20.1734
0.046568 -20.2608 -20.2608
-0.103552 -20.3431 -20.3431
-0.109225 -20.518 -20.518
0.185776 -20.5284 -20.5284
0.191212 -20.3535 -20.3535
-0.106384 -20.4305 -20.4305
0.0382516 -20.5232 -20.5232
0.1885 -20.4409 -20.4409
0.043806 -20.3482 -20.3482
0.0410338 -20.4357 -20.4357
-0.109225 -20.518 -20.518
-0.11493 -20.6931 -20.6931
0.180293 -20.7035 -20.7035
0.185776 -20.5284 -20.5284
-0.112074 -20.6055 -20.6055
0.0326574 -20.6983 -20.6983
0.183041 -20.6159 -20.6159
0.0382516 -20.5232 -20.5232
0.0354595 -20.6107 -20.6107
-0.11493 -20.6931 -20.6931
-0.120667 -20.8683 -20.8683
0.174764 -20.8787 -20.8787
0.180293 -20.7035 -20.7035
-0.117795 -20.7807 -20.7807
0.0270239 -20.8735 -20.8735
0.177534 -20.7911 -20.7911
0.0326574 -20.6983 -20.6983
0.0298456 -20.7859 -20.7859
-0.120667 -20.8683 -20.8683
-0.126435 -21.0436 -21.0436
0.169187 -21.054 -21.054
0.174764 -20.8787 -20.8787
-0.123548 -20.956 -20.956
0.0213518 -21.0488 -21.0488
0.171981 -20.9664 -20.9664
0.0270239 -20.8735 -20.8735
0.0241927 -20.9611 -20.9611
-0.126435 -21.0436 -21.0436
-0.132234 -21.2191 -21.2191
0.163566 -21.2295 -21.2295
0.169187 -21.054 -21.054
-0.129331 -21.1313 -21.1313
0.0156416 -21.2243 -21.2243
0.166382 -21.1417 -21.1417
0.0213518 -21.0488 -21.0488
0.0185014 -21.1365 -21.1365
-0.132234 -21.2191 -21.2191
-0.138063 -21.3946 -21.3946
0.157899 -21.405 -21.405
0.163566 -21.2295 -21.2295
-0.135145 -21.3068 -21.3068
0.00989377 -21.3998 -21.3998
0.160738 -21.3172 -21.3172
0.0156416 -21.2243 -21.2243
0.0127723 -21.312 -21.312
-0.138063 -21.3946 -21.3946
-0.143921 -21.5702 -21.5702
0.152188 -21.5806 -21.5806
0.157899 -21.405 -21.405
-0.140988 -21.4824 -21.4824
0.00410883 -21.5754 -21.5754
0.155049 -21.4928 -21.4928
0.00989377 -21.3998 -21.3998
0.00700592 -21.4876 -21.4876
-0.143921 -21.5702 -21.5702
-0.14981 -21.7459 -21.7459
0.146433 -21.7563 -21.7563
0.152188 -21.5806 -21.5806
-0.146862 -21.6581 -21.6581
-0.00171301 -21.7511 -21.7511
0.149316 -21.6684 -21.6684
0.00410883 -21.5754 -21.5754
0.00120252 -21.6632 -21.6632
-0.14981 -21.7459 -21.7459
-0.155728 -21.9217 -21.9217
0.140635 -21.9321 -21.9321
0.146433 -21.7563 -21.7563
-0.152765 -21.8338 -21.8338
-0.00757186 -21.9269 -21.9269
0.14354 -21.8442 -21.8442
-0.00171301 -21.7511 -21.7511
-0.00463779 -21.839 -21.839
-0.155728 -21.9217 -21.9217
-0.161678 -22.0975 -22.0975
0.134794 -22.1079 -22.1079
0.140635 -21.9321 -21.9321
-0.158699 -22.0096 -22.0096
-0.0134683 -22.1027 -22.1027
0.13772 -22.02 -22.02
-0.00757186 -21.9269 -21.9269
-0.0105153 -22.0148 -22.0148
-0.161678 -22.0975 -22.0975
-0.16766 -22.2734 -22.2734
0.12891 -22.2837 -22.2837
0.134794 -22.1079 -22.1079
-0.164665 -22.1855 -22.1855
-0.019404 -22.2786 -22.2786
0.131858 -22.1958 -22.1958
-0.0134683 -22.1027 -22.1027
-0.0164312 -22.1906 -22.1906
-0.16766 -22.2734 -22.2734
-0.173677 -22.4493 -22.4493
0.122981 -22.4597 -22.4597
0.12891 -22.2837 -22.2837
-0.170664 -22.3614 -22.3614
-0.0253813 -22.4545 -22.4545
0.125951 -22.3717 -22.3717
-0.019404 -22.2786 -22.2786
-0.0223872 -22.3665 -22.3665
-0.173677 -22.4493 -22.4493
-0.179728 -22.6253 -22.6253
0.117003 -22.6356 -22.6356
0.122981 -22.4597 -22.4597
-0.176698 -22.5373 -22.5373
-0.0314041 -22.6305 -22.6305
0.119998 -22.5476 -22.5476
-0.0253813 -22.4545 -22.4545
-0.028387 -22.5425 -22.5425
-0.179728 -22.6253 -22.6253
-0.185807 -22.8013 -22.8013
0.11097 -22.8117 -22.8117
0.117003 -22.6356 -22.6356
-0.182765 -22.7133 -22.7133
-0.0374711 -22.8065 -22.8065
0.113994 -22.7236 -22.7236
-0.0314041 -22.6305 -22.6305
-0.0344323 -22.7185 -22.7185
-0.185807 -22.8013 -22.8013
-0.191888 -22.9773 -22.9773
0.104881 -22.9878 -22.9878
0.11097 -22.8117 -22.8117
-0.188849 -22.8893 -22.8893
-0.0435631 -22.9826 -22.9826
0.10793 -22.8997 -22.8997
-0.0374711 -22.8065 -22.8065
-0.0405183 -22.8945 -22.8945
-0.191888 -22.9773 -22.9773
-0.197948 -23.1533 -23.1533
0.0988165 -23.164 -23.164
0.104881 -22.9878 -22.9878
-0.194923 -23.0653 -23.0653
-0.0496064 -23.1586 -23.1586
0.101835 -23.0759 -23.0759
-0.0435631 -22.9826 -22.9826
-0.0465944 -23.0706 -23.0706
0 0 0
0.00684684 -0.00196076 -0.00196076
0.0114967 -0.00577038 -0.00577038
0 0 0
0.00332328 -0.000705096 -0.000705096
0.00865383 -0.00349187 -0.00349187
0.00625137 -0.00359012 -0.00359012
0 0 0
0.00412842 -0.00153746 -0.00153746
0.00684684 -0.00196076 -0.00196076
0.0142574 -0.00565269 -0.00565269
0.0214463 -0.0100425 -0.0100425
0.0114967 -0.00577038 -0.00577038
0.010517 -0.00362854 -0.00362854
0.0176688 -0.00762538 -0.00762538
0.0164876 -0.00782573 -0.00782573
0.00865383 -0.00349187 -0.00349187
0.0131867 -0.00549566 -0.00549566
0.0142574 -0.00565269 -0.00565269
0.0217336 -0.0107225 -0.0107225
0.0314743 -0.0151945 -0.0151945
0.0214463 -0.0100425 -0.0100425
0.0180002 -0.00800971 -0.00800971
0.0265491 -0.0127913 -0.0127913
0.0264435 -0.0124682 -0.0124682
0.0176688 -0.00762538 -0.00762538
0.0221211 -0.0100409 -0.0100409
0.0217336 -0.0107225 -0.0107225
0.0291688 -0.01732 -0.01732
0.0415777 -0.0218166 -0.0218166
0.0314743 -0.0151945 -0.0151945
0.0254582 -0.0138214 -0.0138214
0.0353481 -0.0193942 -0.0193942
0.0365195 -0.0183063 -0.0183063
0.0265491 -0.0127913 -0.0127913
0.0309556 -0.0158996 -0.0158996
0.0291688 -0.01732 -0.01732
0.0365352 -0.0255536 -0.0255536
0.0517283 -0.030046 -0.030046
0.0415777 -0.0218166 -0.0218166
0.0328602 -0.0212276 -0.0212276
0.0441105 -0.0276274 -0.0276274
0.04665 -0.0257247 -0.0257247
0.0353481 -0.0193942 -0.0193942
0.0397332 -0.023301 -0.023301
0.0365352 -0.0255536 -0.0255536
0.0438459 -0.0354867 -0.0354867
0.0618752 -0.0399753 -0.0399753
0.0517283 -0.030046 -0.030046
0.0401971 -0.0303059 -0.0303059
0.052836 -0.0375534 -0.0375534
0.0568039 -0.034796 -0.034796
0.0441105 -0.0276274 -0.0276274
0.0484781 -0.0323768 -0.0323768
0.0438459 -0.0354867 -0.0354867
0.0511026 -0.0471378 -0.0471378
0.0719997 -0.051618 -0.051618
0.0618752 -0.0399753 -0.0399753
0.0474808 -0.041097 -0.041097
0.0615228 -0.0491993 -0.0491993
0.0669415 -0.0455819 -0.0455819
0.052836 -0.0375534 -0.0375534
0.0571846 -0.0431607 -0.0431607
0.0511026 -0.0471378 -0.0471378
0.0583096 -0.0605121 -0.0605121
0.0820817 -0.0649858 -0.0649858
0.0719997 -0.051618 -0.051618
0.0547122 -0.0536097 -0.0536097
0.0701641 -0.0625689 -0.0625689
0.0770468 -0.0580864 -0.0580864
0.0615228 -0.0491993 -0.0491993
0.0658495 -0.0556688 -0.0556688
0.0583096 -0.0605121 -0.0605121
0.065467 -0.0756047 -0.0756047
0.0921122 -0.0800723 -0.0800723
0.0820817 -0.0649858 -0.0649858
0.0618945 -0.067844 -0.067844
0.0787561 -0.0776585 -0.0776585
0.0871039 -0.0723146 -0.0723146
0.0701641 -0.0625689 -0.0625689
0.0744666 -0.0698991 -0.0698991
0.065467 -0.0756047 -0.0756047
0.0725751 -0.0924083 -0.0924083
0.102084 -0.0968716 -0.0968716
0.0921122 -0.0800723 -0.0800723
0.0690273 -0.0837931 -0.0837931
0.0872949 -0.0944602 -0.0944602
0.0971058 -0.0882584 -0.0882584
0.0787561 -0.0776585 -0.0776585
0.0830324 -0.0858459 -0.0858459
0.0725751 -0.0924083 -0.0924083
0.0796331 -0.110914 -0.110914
0.111994 -0.115374 -0.115374
0.102084 -0.0968716 -0.0968716
0.0761105 -0.101449 -0.101449
0.0957781 -0.112965 -0.112965
0.107047 -0.105911 -0.105911
0.0872949 -0.0944602 -0.0944602
0.0915436 -0.1035 -0.1035
0.0796331 -0.110914 -0.110914
0.0866401 -0.131112 -0.131112
0.121839 -0.135571 -0.135571
0.111994 -0.115374 -0.115374
0.0831431 -0.120802 -0.120802
0.104204 -0.133163 -0.133163
0.116925 -0.125262 -0.125262
0.0957781 -0.112965 -0.112965
0.0999982 -0.122853 -0.122853
0.0866401 -0.131112 -0.131112
0.0935952 -0.152993 -0.152993
0.131617 -0.157453 -0.157453
0.121839 -0.135571 -0.135571
0.0901242 -0.141842 -0.141842
0.11257 -0.155046 -0.155046
0.126736 -0.146302 -0.146302
0.104204 -0.133163 -0.133163
0.108394 -0.143894 -0.143894
0.0935952 -0.152993 -0.152993
0.100497 -0.176548 -0.176548
0.141327 -0.181011 -0.181011
0.131617 -0.157453 -0.157453
0.0970529 -0.164562 -0.164562
0.120876 -0.178602 -0.178602
0.13648 -0.169023 -0.169023
0.11257 -0.155046 -0.155046
0.116731 -0.166615 -0.166615
0.100497 -0.176548 -0.176548
0.107345 -0.201767 -0.201767
0.150968 -0.206234 -0.206234
0.141327 -0.181011 -0.181011
0.103928 -0.18895 -0.18895
0.129121 -0.203825 -0.203825
0.146156 -0.193414 -0.193414
0.120876 -0.178602 -0.178602
0.125006 -0.191006 -0.191006
0.107345 -0.201767 -0.201767
0.114138 -0.228641 -0.228641
0.160538 -0.233114 -0.233114
0.150968 -0.206234 -0.206234
0.110749 -0.214997 -0.214997
0.137302 -0.230703 -0.230703
0.155762 -0.219467 -0.219467
0.129121 -0.203825 -0.203825
0.133219 -0.217057 -0.217057
0.114138 -0.228641 -0.228641
0.120875 -0.257161 -0.257161
0.170037 -0.261641 -0.261641
0.160538 -0.233114 -0.233114
0.117514 -0.242696 -0.242696
0.145421 -0.259227 -0.259227
0.165297 -0.247172 -0.247172
0.137302 -0.230703 -0.230703
0.14137 -0.24476 -0.24476
0.120875 -0.257161 -0.257161
0.127556 -0.287317 -0.287317
0.179464 -0.291807 -0.291807
0.170037 -0.261641 -0.261641
0.124223 -0.272035 -0.272035
0.153474 -0.289389 -0.289389
0.17476 -0.27652 -0.27652
0.145421 -0.259227 -0.259227
0.149456 -0.274104 -0.274104
0.127556 -0.287317 -0.287317
0.134178 -0.319102 -0.319102
0.188818 -0.323602 -0.323602
0.179464 -0.291807 -0.291807
0.130874 -0.303007 -0.303007
0.161462 -0.32118 -0.32118
0.18415 -0.307501 -0.307501
0.153474 -0.289389 -0.289389
0.157476 -0.305082 -0.305082
0.134178 -0.319102 -0.319102
0.140741 -0.352504 -0.352504
0.198097 -0.357016 -0.357016
0.188818 -0.323602 -0.323602
0.137467 -0.335601 -0.335601
0.169384 -0.354589 -0.354589
0.193467 -0.340107 -0.340107
0.161462 -0.32118 -0.32118
0.165431 -0.337683 -0.337683
0.140741 -0.352504 -0.352504
0.147245 -0.387515 -0.387515
0.207301 -0.392041 -0.392041
0.198097 -0.357016 -0.357016
0.144 -0.369809 -0.369809
0.177238 -0.389608 -0.389608
0.202709 -0.374328 -0.374328
0.169384 -0.354589 -0.354589
0.173319 -0.371898 -0.371898
0.147245 -0.387515 -0.387515
0.153688 -0.424127 -0.424127
0.21643 -0.428668 -0.428668
0.207301 -0.392041 -0.392041
0.150474 -0.405622 -0.405622
0.185024 -0.426228 -0.426228
0.211875 -0.410155 -0.410155
0.177238 -0.389608 -0.389608
0.181139 -0.407719 -0.407719
0.153688 -0.424127 -0.424127
0.160069 -0.462329 -0.462329
0.225482 -0.466887 -0.466887
0.21643 -0.428668 -0.428668
0.156886 -0.44303 -0.44303
0.19274 -0.46444 -0.46444
0.220965 -0.447579 -0.447579
0.185024 -0.426228 -0.426228
0.188891 -0.445136 -0.445136
0.160069 -0.462329 -0.462329
0.166388 -0.502113 -0.502113
0.234455 -0.506689 -0.506689
0.225482 -0.466887 -0.466887
0.163237 -0.482024 -0.482024
0.200387 -0.504233 -0.504233
0.229978 -0.48659 -0.48659
0.19274 -0.46444 -0.46444
0.196572 -0.484139 -0.484139
0.166388 -0.502113 -0.502113
0.172644 -0.543469 -0.543469
0.243351 -0.548064 -0.548064
0.234455 -0.506689 -0.506689
0.169524 -0.522595 -0.522595
0.207963 -0.5456 -0.5456
0.238913 -0.52718 -0.52718
0.200387 -0.504233 -0.504233
0.204184 -0.524721 -0.524721
0.172644 -0.543469 -0.543469
0.178836 -0.586388 -0.586388
0.252167 -0.591004 -0.591004
0.243351 -0.548064 -0.548064
0.175748 -0.564734 -0.564734
0.215467 -0.588531 -0.588531
0.247769 -0.569339 -0.569339
0.207963 -0.5456 -0.5456
0.211724 -0.566871 -0.566871
0.178836 -0.586388 -0.586388
0.184964 -0.630862 -0.630862
0.260903 -0.6355 -0.6355
0.252167 -0.591004 -0.591004
0.181908 -0.608431 -0.608431
0.222899 -0.633016 -0.633016
0.256545 -0.613058 -0.613058
0.215467 -0.588531 -0.588531
0.219192 -0.61058 -0.61058
0.184964 -0.630862 -0.630862
0.191025 -0.67688 -0.67688
0.269558 -0.681542 -0.681542
0.260903 -0.6355 -0.6355
0.188003 -0.653679 -0.653679
0.230257 -0.679047 -0.679047
0.265241 -0.658328 -0.658328
0.222899 -0.633016 -0.633016
0.226587 -0.655839 -0.655839
0.191025 -0.67688 -0.67688
0.19702 -0.724434 -0.724434
0.278132 -0.729121 -0.729121
0.269558 -0.681542 -0.681542
0.194031 -0.700466 -0.700466
0.237541 -0.726615 -0.726615
0.273855 -0.70514 -0.70514
0.230257 -0.679047 -0.679047
0.233909 -0.70264 -0.70264
0.19702 -0.724434 -0.724434
0.202949 -0.773515 -0.773515
0.286623 -0.778227 -0.778227
0.278132 -0.729121 -0.729121
0.199993 -0.748784 -0.748784
0.244751 -0.77571 -0.77571
0.282388 -0.753484 -0.753484
0.237541 -0.726615 -0.726615
0.241156 -0.750972 -0.750972
0.202949 -0.773515 -0.773515
0.208809 -0.824113 -0.824113
0.29503 -0.828853 -0.828853
0.286623 -0.778227 -0.778227
0.205887 -0.798625 -0.798625
0.251885 -0.826322 -0.826322
0.290837 -0.803351 -0.803351
0.244751 -0.77571 -0.77571
0.248328 -0.800827 -0.800827
0.208809 -0.824113 -0.824113
0.2146 -0.87622 -0.87622
0.303354 -0.880987 -0.880987
0.29503 -0.828853 -0.828853
0.211713 -0.849978 -0.849978
0.258943 -0.878444 -0.878444
0.299203 -0.854732 -0.854732
0.251885 -0.826322 -0.826322
0.255424 -0.852195 -0.852195
0.2146 -0.87622 -0.87622
0.220323 -0.929825 -0.929825
0.311594 -0.934622 -0.934622
0.303354 -0.880987 -0.880987
0.21747 -0.902836 -0.902836
0.265924 -0.932065 -0.932065
0.307485 -0.907618 -0.907618
0.258943 -0.878444 -0.878444
0.262443 -0.905067 -0.905067
0.220323 -0.929825 -0.929825
0.225975 -0.98492 -0.98492
0.319748 -0.989748 -0.989748
0.311594 -0.934622 -0.934622
0.223158 -0.957187 -0.957187
0.272827 -0.987177 -0.987177
0.315681 -0.962 -0.962
0.265924 -0.932065 -0.932065
0.269385 -0.959435 -0.959435
0.225975 -0.98492 -0.98492
0.231557 -1.0415 -1.0415
0.327816 -1.04636 -1.04636
0.319748 -0.989748 -0.989748
0.228775 -1.01302 -1.01302
0.279652 -1.04377 -1.04377
0.323793 -1.01787 -1.01787
0.272827 -0.987177 -0.987177
0.27625 -1.01529 -1.01529
0.231557 -1.0415 -1.0415
0.237068 -1.09954 -1.09954
0.335797 -1.10444 -1.10444
0.327816 -1.04636 -1.04636
0.234321 -1.07034 -1.07034
0.286399 -1.10183 -1.10183
0.331818 -1.07521 -1.07521
0.279652 -1.04377 -1.04377
0.283035 -1.07262 -1.07262
0.237068 -1.09954 -1.09954
0.242506 -1.15905 -1.15905
0.343692 -1.16398 -1.16398
0.335797 -1.10444 -1.10444
0.239796 -1.12912 -1.12912
0.293065 -1.16136 -1.16136
0.339755 -1.13403 -1.13403
0.286399 -1.10183 -1.10183
0.289742 -1.13142 -1.13142
0.242506 -1.15905 -1.15905
0.247872 -1.22002 -1.22002
0.351498 -1.22498 -1.22498
0.343692 -1.16398 -1.16398
0.245199 -1.18935 -1.18935
0.299651 -1.22234 -1.22234
0.347606 -1.1943 -1.1943
0.293065 -1.16136 -1.16136
0.296368 -1.19167 -1.19167
0.247872 -1.22002 -1.22002
0.253165 -1.28243 -1.28243
0.359216 -1.28742 -1.28742
0.351498 -1.22498 -1.22498
0.250528 -1.25104 -1.25104
0.306157 -1.28477 -1.28477
0.355368 -1.25602 -1.25602
0.299651 -1.22234 -1.22234
0.302914 -1.25338 -1.25338
0.253165 -1.28243 -1.28243
0.258385 -1.34627 -1.34627
0.366845 -1.3513 -1.3513
0.359216 -1.28742 -1.28742
0.255784 -1.31417 -1.31417
0.312581 -1.34863 -1.34863
0.363042 -1.31918 -1.31918
0.306157 -1.28477 -1.28477
0.309379 -1.31652 -1.31652
0.258385 -1.34627 -1.34627
0.263529 -1.41154 -1.41154
0.374384 -1.41661 -1.41661
0.366845 -1.3513 -1.3513
0.260966 -1.37872 -1.37872
0.318923 -1.41392 -1.41392
0.370626 -1.38378 -1.38378
0.312581 -1.34863 -1.34863
0.315762 -1.3811 -1.3811
0.263529 -1.41154 -1.41154
0.268599 -1.47822 -1.47822
0.381833 -1.48333 -1.48333
0.374384 -1.41661 -1.41661
0.266074 -1.4447 -1.4447
0.325182 -1.48063 -1.48063
0.37812 -1.44979 -1.44979
0.318923 -1.41392 -1.41392
0.322063 -1.4471 -1.4471
0.268599 -1.47822 -1.47822
0.273594 -1.54631 -1.54631
0.389191 -1.55146 -1.55146
0.381833 -1.48333 -1.48333
0.271106 -1.51209 -1.51209
0.331359 -1.54874 -1.54874
0.385523 -1.51722 -1.51722
0.325182 -1.48063 -1.48063
0.328281 -1.51451 -1.51451
0.273594 -1.54631 -1.54631
0.278512 -1.6158 -1.6158
0.396458 -1.621 -1.621
0.389191 -1.55146 -1.55146
0.276063 -1.58088 -1.58088
0.337452 -1.61825 -1.61825
0.392836 -1.58606 -1.58606
0.331359 -1.54874 -1.54874
0.334416 -1.58332 -1.58332
0.278512 -1.6158 -1.6158
0.283355 -1.68668 -1.68668
0.403633 -1.69192 -1.69192
0.396458 -1.621 -1.621
0.280943 -1.65107 -1.65107
0.34346 -1.68915 -1.68915
0.400057 -1.65628 -1.65628
0.337452 -1.61825 -1.61825
0.340467 -1.65353 -1.65353
0.283355 -1.68668 -1.68668
0.28812 -1.75894 -1.75894
0.410716 -1.76422 -1.76422
0.403633 -1.69192 -1.69192
0.285747 -1.72264 -1.72264
0.349384 -1.76143 -1.76143
0.407186 -1.7279 -1.7279
0.34346 -1.68915 -1.68915
0.346433 -1.72512 -1.72512
0.28812 -1.75894 -1.75894
0.292807 -1.83257 -1.83257
0.417706 -1.83789 -1.83789
0.410716 -1.76422 -1.76422
0.290473 -1.79559 -1.79559
0.355223 -1.83509 -1.83509
0.414223 -1.80088 -1.80088
0.349384 -1.76143 -1.76143
0.352314 -1.79809 -1.79809
0.292807 -1.83257 -1.83257
0.297417 -1.90756 -1.90756
0.424603 -1.91293 -1.91293
0.417706 -1.83789 -1.83789
0.295122 -1.8699 -1.8699
0.360977 -1.9101 -1.9101
0.421166 -1.87524 -1.87524
0.355223 -1.83509 -1.83509
0.358111 -1.87242 -1.87242
0.297417 -1.90756 -1.90756
0.301948 -1.98391 -1.98391
0.431406 -1.98932 -1.98932
0.424603 -1.91293 -1.91293
0.299692 -1.94557 -1.94557
0.366644 -1.98647 -1.98647
0.428016 -1.95095 -1.95095
0.360977 -1.9101 -1.9101
0.363821 -1.94812 -1.94812
0.301948 -1.98391 -1.98391
0.306401 -2.0616 -2.0616
0.438115 -2.06705 -2.06705
0.431406 -1.98932 -1.98932
0.304184 -2.02259 -2.02259
0.372225 -2.06418 -2.06418
0.434772 -2.02802 -2.02802
0.366644 -1.98647 -1.98647
0.369445 -2.02516 -2.02516
0.306401 -2.0616 -2.0616
0.310774 -2.14062 -2.14062
0.444729 -2.14612 -2.14612
0.438115 -2.06705 -2.06705
0.308597 -2.10094 -2.10094
0.377718 -2.14323 -2.14323
0.441434 -2.10642 -2.10642
0.372225 -2.06418 -2.06418
0.374982 -2.10354 -2.10354
0.310774 -2.14062 -2.14062
0.315068 -2.22097 -2.22097
0.451248 -2.22651 -2.22651
0.444729 -2.14612 -2.14612
0.312931 -2.18063 -2.18063
0.383125 -2.2236 -2.2236
0.448001 -2.18615 -2.18615
0.377718 -2.14323 -2.14323
0.380433 -2.18325 -2.18325
0.315068 -2.22097 -2.22097
0.319281 -2.30263 -2.30263
0.457672 -2.30822 -2.30822
0.451248 -2.22651 -2.22651
0.317184 -2.26163 -2.26163
0.388444 -2.30529 -2.30529
0.454472 -2.2672 -2.2672
0.383125 -2.2236 -2.2236
0.385795 -2.26428 -2.26428
0.319281 -2.30263 -2.30263
0.323414 -2.3856 -2.3856
0.464 -2.39124 -2.39124
0.457672 -2.30822 -2.30822
0.321358 -2.34395 -2.34395
0.393674 -2.38828 -2.38828
0.460848 -2.34957 -2.34957
0.388444 -2.30529 -2.30529
0.39107 -2.34662 -2.34662
0.323414 -2.3856 -2.3856
0.327466 -2.46986 -2.46986
0.470232 -2.47556 -2.47556
0.464 -2.39124 -2.39124
0.32545 -2.42757 -2.42757
0.398816 -2.47257 -2.47257
0.467129 -2.43324 -2.43324
0.393674 -2.38828 -2.38828
0.396256 -2.43026 -2.43026
0.327466 -2.46986 -2.46986
0.331437 -2.55542 -2.55542
0.476368 -2.56116 -2.56116
0.470232 -2.47556 -2.47556
0.329462 -2.51248 -2.51248
0.403869 -2.55815 -2.55815
0.473312 -2.5182 -2.5182
0.398816 -2.47257 -2.47257
0.401354 -2.5152 -2.5152
0.331437 -2.55542 -2.55542
0.335327 -2.64225 -2.64225
0.482407 -2.64805 -2.64805
0.476368 -2.56116 -2.56116
0.333392 -2.59868 -2.59868
0.408834 -2.64501 -2.64501
0.479399 -2.60444 -2.60444
0.403869 -2.55815 -2.55815
0.406363 -2.60142 -2.60142
0.335327 -2.64225 -2.64225
0.339134 -2.73036 -2.73036
0.488348 -2.7362 -2.7362
0.482407 -2.64805 -2.64805
0.337241 -2.68615 -2.68615
0.413708 -2.73314 -2.73314
0.485389 -2.69196 -2.69196
0.408834 -2.64501 -2.64501
0.411282 -2.68892 -2.68892
0.339134 -2.73036 -2.73036
0.34286 -2.81972 -2.81972
0.494192 -2.82562 -2.82562
0.488348 -2.7362 -2.7362
0.341007 -2.77489 -2.77489
0.418493 -2.82254 -2.82254
0.491282 -2.78075 -2.78075
0.413708 -2.73314 -2.73314
0.416112 -2.77768 -2.77768
0.34286 -2.81972 -2.81972
0.346502 -2.91034 -2.91034
0.499938 -2.91629 -2.91629
0.494192 -2.82562 -2.82562
0.344691 -2.86488 -2.86488
0.423187 -2.91318 -2.91318
0.497077 -2.8708 -2.8708
0.418493 -2.82254 -2.82254
0.420851 -2.8677 -2.8677
0.346502 -2.91034 -2.91034
0.350063 -3.0022 -3.0022
0.505586 -3.0082 -3.0082
0.499938 -2.91629 -2.91629
0.348293 -2.95612 -2.95612
0.427791 -3.00507 -3.00507
0.502774 -2.96209 -2.96209
0.423187 -2.91318 -2.91318
0.425501 -2.95897 -2.95897
0.350063 -3.0022 -3.0022
0.35354 -3.0953 -3.0953
0.511136 -3.10134 -3.10134
0.505586 -3.0082 -3.0082
0.351812 -3.0486 -3.0486
0.432305 -3.09819 -3.09819
0.508373 -3.05462 -3.05462
0.427791 -3.00507 -3.00507
0.43006 -3.05147 -3.05147
0.35354 -3.0953 -3.0953
0.356934 -3.18961 -3.18961
0.516587 -3.19572 -3.19572
0.511136 -3.10134 -3.10134
0.355247 -3.1423 -3.1423
0.436727 -3.19253 -3.19253
0.513874 -3.14838 -3.14838
0.432305 -3.09819 -3.09819
0.434528 -3.14521 -3.14521
0.356934 -3.18961 -3.18961
0.360244 -3.28515 -3.28515
0.521939 -3.2913 -3.2913
0.516587 -3.19572 -3.19572
0.358599 -3.23723 -3.23723
0.441059 -3.28809 -3.28809
0.519275 -3.24336 -3.24336
0.436727 -3.19253 -3.19253
0.438904 -3.24016 -3.24016
0.360244 -3.28515 -3.28515
0.36347 -3.38189 -3.38189
0.527192 -3.38809 -3.38809
0.521939 -3.2913 -3.2913
0.361868 -3.33337 -3.33337
0.445298 -3.38486 -3.38486
0.524578 -3.33955 -3.33955
0.441059 -3.28809 -3.28809
0.44319 -3.33633 -3.33633
0.36347 -3.38189 -3.38189
0.366613 -3.47982 -3.47982
0.532346 -3.48608 -3.48608
0.527192 -3.38809 -3.38809
0.365052 -3.43071 -3.43071
0.449447 -3.48283 -3.48283
0.529781 -3.43694 -3.43694
0.445298 -3.38486 -3.38486
0.447384 -3.43369 -3.43369
0.366613 -3.47982 -3.47982
0.369671 -3.57895 -3.57895
0.5374 -3.58526 -3.58526
0.532346 -3.48608 -3.48608
0.368152 -3.52924 -3.52924
0.453503 -3.58198 -3.58198
0.534885 -3.53553 -3.53553
0.449447 -3.48283 -3.48283
0.451486 -3.53225 -3.53225
0.369671 -3.57895 -3.57895
0.372645 -3.67925 -3.67925
0.542354 -3.68562 -3.68562
0.5374 -3.58526 -3.58526
0.371168 -3.62895 -3.62895
0.457467 -3.68231 -3.68231
0.53989 -3.63529 -3.63529
0.453503 -3.58198 -3.58198
0.455496 -3.632 -3.632
0.372645 -3.67925 -3.67925
0.375534 -3.78072 -3.78072
0.547209 -3.78715 -3.78715
0.542354 -3.68562 -3.68562
0.3741 -3.72984 -3.72984
0.461339 -3.78381 -3.78381
0.544794 -3.73624 -3.73624
0.457467 -3.68231 -3.68231
0.459414 -3.73291 -3.73291
0.375534 -3.78072 -3.78072
0.378339 -3.88335 -3.88335
0.551963 -3.88983 -3.88983
0.547209 -3.78715 -3.78715
0.376947 -3.83189 -3.83189
0.465118 -3.88647 -3.88647
0.549599 -3.83835 -3.83835
0.461339 -3.78381 -3.78381
0.46324 -3.83499 -3.83499
0.378339 -3.88335 -3.88335
0.381058 -3.98714 -3.98714
0.556618 -3.99367 -3.99367
0.551963 -3.88983 -3.88983
0.379709 -3.9351 -3.9351
0.468805 -3.99028 -3.99028
0.554303 -3.94161 -3.94161
0.465118 -3.88647 -3.88647
0.466973 -3.93823 -3.93823
0.381058 -3.98714 -3.98714
0.383692 -4.09206 -4.09206
0.561171 -4.09865 -4.09865
0.556618 -3.99367 -3.99367
0.382386 -4.03946 -4.03946
0.472399 -4.09524 -4.09524
0.558907 -4.04602 -4.04602
0.468805 -3.99028 -3.99028
0.470614 -4.04262 -4.04262
0.383692 -4.09206 -4.09206
0.386242 -4.19812 -4.19812
0.565625 -4.20477 -4.20477
0.561171 -4.09865 -4.09865
0.384978 -4.14495 -4.14495
0.475901 -4.20132 -4.20132
0.563411 -4.15157 -4.15157
0.472399 -4.09524 -4.09524
0.474162 -4.14814 -4.14814
0.386242 -4.19812 -4.19812
0.388706 -4.3053 -4.3053
0.569977 -4.31201 -4.31201
0.565625 -4.20477 -4.20477
0.387484 -4.25157 -4.25157
0.479309 -4.30853 -4.30853
0.567814 -4.25825 -4.25825
0.475901 -4.20132 -4.20132
0.477616 -4.25479 -4.25479
0.388706 -4.3053 -4.3053
0.391084 -4.4136 -4.4136
0.574229 -4.42036 -4.42036
0.569977 -4.31201 -4.31201
0.389905 -4.35931 -4.35931
0.482624 -4.41686 -4.41686
0.572116 -4.36604 -4.36604
0.479309 -4.30853 -4.30853
0.480978 -4.36256 -4.36256
0.391084 -4.4136 -4.4136
0.393377 -4.523 -4.523
0.57838 -4.52982 -4.52982
0.574229 -4.42036 -4.42036
0.392241 -4.46816 -4.46816
0.485846 -4.52629 -4.52629
0.576317 -4.47495 -4.47495
0.482624 -4.41686 -4.41686
0.484247 -4.47144 -4.47144
0.393377 -4.523 -4.523
0.395584 -4.6335 -4.6335
0.58243 -4.64037 -4.64037
0.57838 -4.52982 -4.52982
0.394491 -4.57811 -4.57811
0.488975 -4.63682 -4.63682
0.580418 -4.58496 -4.58496
0.485846 -4.52629 -4.52629
0.487422 -4.58142 -4.58142
0.395584 -4.6335 -4.6335
0.397706 -4.74508 -4.74508
0.586379 -4.75202 -4.75202
0.58243 -4.64037 -4.64037
0.396656 -4.68916 -4.68916
0.49201 -4.74843 -4.74843
0.584417 -4.69606 -4.69606
0.488975 -4.63682 -4.63682
0.490504 -4.69249 -4.69249
0.397706 -4.74508 -4.74508
0.399741 -4.85775 -4.85775
0.590227 -4.86474 -4.86474
0.586379 -4.75202 -4.75202
0.398734 -4.80128 -4.80128
0.494952 -4.86113 -4.86113
0.588316 -4.80824 -4.80824
0.49201 -4.74843 -4.74843
0.493492 -4.80465 -4.80465
0.399741 -4.85775 -4.85775
0.401691 -4.97148 -4.97148
0.593974 -4.97853 -4.97853
0.590227 -4.86474 -4.86474
0.400727 -4.91448 -4.91448
0.4978 -4.97489 -4.97489
0.592113 -4.9215 -4.9215
0.494952 -4.86113 -4.86113
0.496388 -4.91787 -4.91787
0.401691 -4.97148 -4.97148
0.403555 -5.08627 -5.08627
0.597619 -5.09338 -5.09338
0.593974 -4.97853 -4.97853
0.402634 -5.02874 -5.02874
0.500555 -5.08971 -5.08971
0.595809 -5.03582 -5.03582
0.4978 -4.97489 -4.97489
0.499189 -5.03217 -5.03217
0.403555 -5.08627 -5.08627
0.405334 -5.20212 -5.20212
0.601164 -5.20928 -5.20928
0.597619 -5.09338 -5.09338
0.404455 -5.14406 -5.14406
0.503216 -5.20558 -5.20558
0.599404 -5.15119 -5.15119
0.500555 -5.08971 -5.08971
0.501897 -5.14752 -5.14752
0.405334 -5.20212 -5.20212
0.407026 -5.319 -5.319
0.604607 -5.32622 -5.32622
0.601164 -5.20928 -5.20928
0.40619 -5.26043 -5.26043
0.505784 -5.3225 -5.3225
0.602898 -5.26762 -5.26762
0.503216 -5.20558 -5.20558
0.504512 -5.26391 -5.26391
0.407026 -5.319 -5.319
0.408632 -5.43692 -5.43692
0.607949 -5.44419 -5.44419
0.604607 -5.32622 -5.32622
0.40784 -5.37783 -5.37783
0.508258 -5.44044 -5.44044
0.606291 -5.38508 -5.38508
0.505784 -5.3225 -5.3225
0.507033 -5.38134 -5.38134
0.408632 -5.43692 -5.43692
0.410153 -5.55586 -5.55586
0.61119 -5.56319 -5.56319
0.607949 -5.44419 -5.44419
0.409403 -5.49626 -5.49626
0.510639 -5.55941 -5.55941
0.609582 -5.50356 -5.50356
0.508258 -5.44044 -5.44044
0.50946 -5.4998 -5.4998
0.410153 -5.55586 -5.55586
0.411587 -5.67581 -5.67581
0.614329 -5.6832 -5.6832
0.61119 -5.56319 -5.56319
0.410881 -5.61571 -5.61571
0.512926 -5.6794 -5.6794
0.612772 -5.62307 -5.62307
0.510639 -5.55941 -5.55941
0.511794 -5.61928 -5.61928
0.411587 -5.67581 -5.67581
0.412936 -5.79677 -5.79677
0.617368 -5.80422 -5.80422
0.614329 -5.6832 -5.6832
0.412272 -5.73617 -5.73617
0.515119 -5.80039 -5.80039
0.615861 -5.74358 -5.74358
0.512926 -5.6794 -5.6794
0.514034 -5.73977 -5.73977
0.412936 -5.79677 -5.79677
0.414199 -5.91873 -5.91873
0.620305 -5.92623 -5.92623
0.617368 -5.80422 -5.80422
0.413578 -5.85762 -5.85762
0.517219 -5.92237 -5.92237
0.618849 -5.8651 -5.8651
0.515119 -5.80039 -5.80039
0.516181 -5.86125 -5.86125
0.414199 -5.91873 -5.91873
0.415376 -6.04167 -6.04167
0.623141 -6.04923 -6.04923
0.620305 -5.92623 -5.92623
0.414798 -5.98007 -5.98007
0.519226 -6.04534 -6.04534
0.621736 -5.98761 -5.98761
0.517219 -5.92237 -5.92237
0.518234 -5.98373 -5.98373
0.415376 -6.04167 -6.04167
0.416467 -6.16559 -6.16559
0.625876 -6.1732 -6.1732
0.623141 -6.04923 -6.04923
0.415932 -6.10351 -6.10351
0.521139 -6.16929 -6.16929
0.624521 -6.11109 -6.11109
0.519226 -6.04534 -6.04534
0.520194 -6.1072 -6.1072
0.416467 -6.16559 -6.16559
0.417473 -6.29048 -6.29048
0.628511 -6.29815 -6.29815
0.625876 -6.1732 -6.1732
0.416981 -6.22791 -6.22791
0.522959 -6.29421 -6.29421
0.627206 -6.23556 -6.23556
0.521139 -6.16929 -6.16929
0.522061 -6.23163 -6.23163
0.417473 -6.29048 -6.29048
0.418393 -6.41632 -6.41632
0.631044 -6.42405 -6.42405
0.628511 -6.29815 -6.29815
0.417944 -6.35328 -6.35328
0.524686 -6.42009 -6.42009
0.62979 -6.36098 -6.36098
0.522959 -6.29421 -6.29421
0.523834 -6.35703 -6.35703
0.418393 -6.41632 -6.41632
0.419228 -6.54312 -6.54312
0.633476 -6.55091 -6.55091
0.631044 -6.42405 -6.42405
0.418821 -6.4796 -6.4796
0.526319 -6.54691 -6.54691
0.632273 -6.48736 -6.48736
0.524686 -6.42009 -6.42009
0.525514 -6.48338 -6.48338
0.419228 -6.54312 -6.54312
0.419977 -6.67086 -6.67086
0.635808 -6.6787 -6.6787
0.633476 -6.55091 -6.55091
0.419613 -6.60687 -6.60687
0.52786 -6.67468 -6.67468
0.634655 -6.61469 -6.61469
0.526319 -6.54691 -6.54691
0.527101 -6.61068 -6.61068
0.419977 -6.67086 -6.67086
0.420641 -6.79953 -6.79953
0.638039 -6.80743 -6.80743
0.635808 -6.6787 -6.6787
0.42032 -6.73508 -6.73508
0.529308 -6.80338 -6.80338
0.636936 -6.74295 -6.74295
0.52786 -6.67468 -6.67468
0.528595 -6.73891 -6.73891
0.420641 -6.79953 -6.79953
0.42122 -6.92913 -6.92913
0.64017 -6.93708 -6.93708
0.638039 -6.80743 -6.80743
0.420941 -6.86421 -6.86421
0.530662 -6.933 -6.933
0.639117 -6.87214 -6.87214
0.529308 -6.80338 -6.80338
0.529997 -6.86808 -6.86808
0.42122 -6.92913 -6.92913
0.421714 -7.05963 -7.05963
0.642201 -7.06764 -7.06764
0.64017 -6.93708 -6.93708
0.421477 -6.99427 -6.99427
0.531925 -7.06354 -7.06354
0.641198 -7.00225 -7.00225
0.530662 -6.933 -6.933
0.531305 -6.99816 -6.99816
0.421714 -7.05963 -7.05963
0.422123 -7.19105 -7.19105
0.644131 -7.19911 -7.19911
0.642201 -7.06764 -7.06764
0.421929 -7.12523 -7.12523
0.533094 -7.19498 -7.19498
0.643178 -7.13326 -7.13326
0.531925 -7.06354 -7.06354
0.532521 -7.12915 -7.12915
0.422123 -7.19105 -7.19105
0.422447 -7.32335 -7.32335
0.645961 -7.33147 -7.33147
0.644131 -7.19911 -7.19911
0.422295 -7.25709 -7.25709
0.534171 -7.32732 -7.32732
0.645059 -7.26518 -7.26518
0.533094 -7.19498 -7.19498
0.533644 -7.26104 -7.26104
0.422447 -7.32335 -7.32335
0.422687 -7.45655 -7.45655
0.647692 -7.46472 -7.46472
0.645961 -7.33147 -7.33147
0.422577 -7.38984 -7.38984
0.535156 -7.46054 -7.46054
0.646839 -7.39799 -7.39799
0.534171 -7.32732 -7.32732
0.534675 -7.39382 -7.39382
0.422687 -7.45655 -7.45655
0.422842 -7.59062 -7.59062
0.649322 -7.59885 -7.59885
0.647692 -7.46472 -7.46472
0.422775 -7.52348 -7.52348
0.536049 -7.59464 -7.59464
0.648519 -7.53168 -7.53168
0.535156 -7.46054 -7.46054
0.535614 -7.52748 -7.52748
0.422842 -7.59062 -7.59062
0.422913 -7.72556 -7.72556
0.650853 -7.73384 -7.73384
0.649322 -7.59885 -7.59885
0.422888 -7.65798 -7.65798
0.53685 -7.72961 -7.72961
0.6501 -7.66624 -7.66624
0.536049 -7.59464 -7.59464
0.536461 -7.66202 -7.66202
0.422913 -7.72556 -7.72556
0.4229 -7.86136 -7.86136
0.652285 -7.8697 -7.8697
0.650853 -7.73384 -7.73384
0.422917 -7.79335 -7.79335
0.53756 -7.86544 -7.86544
0.651582 -7.80166 -7.80166
0.53685 -7.72961 -7.72961
0.537217 -7.79742 -7.79742
0.4229 -7.86136 -7.86136
0.422803 -7.99801 -7.99801
0.653618 -8.0064 -8.0064
0.652285 -7.8697 -7.8697
0.422862 -7.92958 -7.92958
0.538178 -8.00211 -8.00211
0.652964 -7.93794 -7.93794
0.53756 -7.86544 -7.86544
0.53788 -7.93367 -7.93367
0.422803 -7.99801 -7.99801
0.422622 -8.1355 -8.1355
0.654852 -8.14394 -8.14394
0.653618 -8.0064 -8.0064
0.422723 -8.06665 -8.06665
0.538704 -8.13963 -8.13963
0.654247 -8.07507 -8.07507
0.538178 -8.00211 -8.00211
0.538452 -8.07077 -8.07077
0.422622 -8.1355 -8.1355
0.422359 -8.27382 -8.27382
0.655987 -8.28232 -8.28232
0.654852 -8.14394 -8.14394
0.422501 -8.20456 -8.20456
0.53914 -8.27798 -8.27798
0.655432 -8.21303 -8.21303
0.538704 -8.13963 -8.13963
0.538933 -8.2087 -8.2087
0.422359 -8.27382 -8.27382
0.422011 -8.41296 -8.41296
0.657023 -8.42151 -8.42151
0.655987 -8.28232 -8.28232
0.422195 -8.34329 -8.34329
0.539485 -8.41715 -8.41715
0.656517 -8.35181 -8.35181
0.53914 -8.27798 -8.27798
0.539324 -8.34746 -8.34746
0.422011 -8.41296 -8.41296
0.421581 -8.55292 -8.55292
0.657962 -8.56152 -8.56152
0.657023 -8.42151 -8.42151
0.421807 -8.48284 -8.48284
0.539739 -8.55714 -8.55714
0.657505 -8.49142 -8.49142
0.539485 -8.41715 -8.41715
0.539623 -8.48704 -8.48704
0.421581 -8.55292 -8.55292
0.421069 -8.69368 -8.69368
0.658802 -8.70234 -8.70234
0.657962 -8.56152 -8.56152
0.421335 -8.6232 -8.6232
0.539902 -8.69792 -8.69792
0.658394 -8.63183 -8.63183
0.539739 -8.55714 -8.55714
0.539832 -8.62743 -8.62743
0.421069 -8.69368 -8.69368
0.420473 -8.83524 -8.83524
0.659545 -8.84395 -8.84395
0.658802 -8.70234 -8.70234
0.420781 -8.76436 -8.76436
0.539976 -8.83951 -8.83951
0.659186 -8.77304 -8.77304
0.539902 -8.69792 -8.69792
0.53995 -8.76862 -8.76862
0.420473 -8.83524 -8.83524
0.419796 -8.97759 -8.97759
0.66019 -8.98634 -8.98634
0.659545 -8.84395 -8.84395
0.420145 -8.90632 -8.90632
0.53996 -8.98188 -8.98188
0.659879 -8.91505 -8.91505
0.539976 -8.83951 -8.83951
0.539979 -8.9106 -8.9106
0.419796 -8.97759 -8.97759
0.419036 -9.12071 -9.12071
0.660737 -9.12951 -9.12951
0.66019 -8.98634 -8.98634
0.419426 -9.04905 -9.04905
0.539854 -9.12503 -9.12503
0.660476 -9.05783 -9.05783
0.53996 -8.98188 -8.98188
0.539918 -9.05336 -9.05336
0.419036 -9.12071 -9.12071
0.418195 -9.2646 -9.2646
0.661188 -9.27345 -9.27345
0.660737 -9.12951 -9.12951
0.418626 -9.19256 -9.19256
0.539659 -9.26894 -9.26894
0.660975 -9.20139 -9.20139
0.539854 -9.12503 -9.12503
0.539768 -9.19689 -9.19689
0.418195 -9.2646 -9.2646
0.417273 -9.40924 -9.40924
0.661542 -9.41815 -9.41815
0.661188 -9.27345 -9.27345
0.417744 -9.33683 -9.33683
0.539375 -9.41362 -9.41362
0.661377 -9.34571 -9.34571
0.539659 -9.26894 -9.26894
0.539528 -9.34118 -9.34118
0.417273 -9.40924 -9.40924
0.416269 -9.55464 -9.55464
0.6618 -9.5636 -9.5636
0.661542 -9.41815 -9.41815
0.416781 -9.48185 -9.48185
0.539002 -9.55904 -9.55904
0.661683 -9.49078 -9.49078
0.539375 -9.41362 -9.41362
0.539199 -9.48623 -9.48623
0.416269 -9.55464 -9.55464
0.415185 -9.70078 -9.70078
0.661962 -9.70978 -9.70978
0.6618 -9.5636 -9.5636
0.415737 -9.62762 -9.62762
0.53854 -9.7052 -9.7052
0.661893 -9.6366 -9.6366
0.539002 -9.55904 -9.55904
0.538782 -9.63203 -9.63203
0.415185 -9.70078 -9.70078
0.41402 -9.84765 -9.84765
0.662028 -9.8567 -9.8567
0.661962 -9.70978 -9.70978
0.414613 -9.77413 -9.77413
0.537991 -9.8521 -9.8521
0.662007 -9.78315 -9.78315
0.53854 -9.7052 -9.7052
0.538277 -9.77856 -9.77856
0.41402 -9.84765 -9.84765
0.412775 -9.99524 -9.99524
0.661998 -10.0043 -10.0043
0.662028 -9.8567 -9.8567
0.413408 -9.92136 -9.92136
0.537354 -9.99971 -9.99971
0.662025 -9.93043 -9.93043
0.537991 -9.8521 -9.8521
0.537683 -9.92582 -9.92582
0.412775 -9.99524 -9.99524
0.41145 -10.1436 -10.1436
0.661874 -10.1527 -10.1527
0.661998 -10.0043 -10.0043
0.412123 -10.0693 -10.0693
0.536629 -10.148 -10.148
0.661948 -10.0784 -10.0784
0.537354 -9.99971 -9.99971
0.537002 -10.0738 -10.0738
0.41145 -10.1436 -10.1436
0.410046 -10.2926 -10.2926
0.661654 -10.3018 -10.3018
0.661874 -10.1527 -10.1527
0.410758 -10.218 -10.218
0.535817 -10.2971 -10.2971
0.661776 -10.2271 -10.2271
0.536629 -10.148 -10.148
0.536234 -10.2225 -10.2225
0.410046 -10.2926 -10.2926
0.408562 -10.4423 -10.4423
0.66134 -10.4515 -10.4515
0.661654 -10.3018 -10.3018
0.409314 -10.3673 -10.3673
0.534918 -10.4468 -10.4468
0.661509 -10.3765 -10.3765
0.535817 -10.2971 -10.2971
0.535378 -10.3719 -10.3719
0.408562 -10.4423 -10.4423
0.407 -10.5927 -10.5927
0.660932 -10.6019 -10.6019
0.66134 -10.4515 -10.4515
0.407791 -10.5174 -10.5174
0.533933 -10.5972 -10.5972
0.661148 -10.5266 -10.5266
0.534918 -10.4468 -10.4468
0.534436 -10.5219 -10.5219
0.407 -10.5927 -10.5927
0.405359 -10.7437 -10.7437
0.660431 -10.7531 -10.7531
0.660932 -10.6019 -10.6019
0.406189 -10.6681 -10.6681
0.532862 -10.7483 -10.7483
0.660693 -10.6774 -10.6774
0.533933 -10.5972 -10.5972
0.533408 -10.6727 -10.6727
0.405359 -10.7437 -10.7437
0.40364 -10.8955 -10.8955
0.659835 -10.9048 -10.9048
0.660431 -10.7531 -10.7531
0.404509 -10.8195 -10.8195
0.531704 -10.9001 -10.9001
0.660145 -10.8289 -10.8289
0.532862 -10.7483 -10.7483
0.532294 -10.8241 -10.8241
0.40364 -10.8955 -10.8955
0.401843 -11.0479 -11.0479
0.659147 -11.0573 -11.0573
0.659835 -10.9048 -10.9048
0.402751 -10.9716 -10.9716
0.530462 -11.0525 -11.0525
0.659503 -10.981 -10.981
0.531704 -10.9001 -10.9001
0.531094 -10.9762 -10.9762
0.401843 -11.0479 -11.0479
0.399969 -11.2009 -11.2009
0.658366 -11.2104 -11.2104
0.659147 -11.0573 -11.0573
0.400916 -11.1243 -11.1243
0.529134 -11.2056 -11.2056
0.658768 -11.1337 -11.1337
0.530462 -11.0525 -11.0525
0.529809 -11.1289 -11.1289
0.399969 -11.2009 -11.2009
0.398018 -11.3546 -11.3546
0.657493 -11.3641 -11.3641
0.658366 -11.2104 -11.2104
0.399003 -11.2777 -11.2777
0.527722 -11.3593 -11.3593
0.657941 -11.2871 -11.2871
0.529134 -11.2056 -11.2056
0.528439 -11.2823 -11.2823
0.398018 -11.3546 -11.3546
0.395991 -11.5089 -11.5089
0.656528 -11.5184 -11.5184
0.657493 -11.3641 -11.3641
0.397014 -11.4317 -11.4317
0.526226 -11.5136 -11.5136
0.657022 -11.4412 -11.4412
0.527722 -11.3593 -11.3593
0.526985 -11.4364 -11.4364
0.395991 -11.5089 -11.5089
0.393887 -11.6639 -11.6639
0.655472 -11.6734 -11.6734
0.656528 -11.5184 -11.5184
0.394948 -11.5863 -11.5863
0.524646 -11.6686 -11.6686
0.656011 -11.5959 -11.5959
0.526226 -11.5136 -11.5136
0.525446 -11.591 -11.591
0.393887 -11.6639 -11.6639
0.391707 -11.8194 -11.8194
0.654324 -11.829 -11.829
0.655472 -11.6734 -11.6734
0.392806 -11.7416 -11.7416
0.522982 -11.8241 -11.8241
0.654909 -11.7512 -11.7512
0.524646 -11.6686 -11.6686
0.523824 -11.7463 -11.7463
0.391707 -11.8194 -11.8194
0.389452 -11.9756 -11.9756
0.653086 -11.9852 -11.9852
0.654324 -11.829 -11.829
0.390589 -11.8974 -11.8974
0.521235 -11.9803 -11.9803
0.653716 -11.907 -11.907
0.522982 -11.8241 -11.8241
0.522119 -11.9022 -11.9022
0.389452 -11.9756 -11.9756
0.387122 -12.1323 -12.1323
0.651757 -12.142 -12.142
0.653086 -11.9852 -11.9852
0.388296 -12.0539 -12.0539
0.519406 -12.1371 -12.1371
0.652433 -12.0635 -12.0635
0.521235 -11.9803 -11.9803
0.520331 -12.0586 -12.0586
0.387122 -12.1323 -12.1323
0.384717 -12.2897 -12.2897
0.650339 -12.2994 -12.2994
0.651757 -12.142 -12.142
0.385929 -12.2109 -12.2109
0.517494 -12.2945 -12.2945
0.651059 -12.2206 -12.2206
0.519406 -12.1371 -12.1371
0.51846 -12.2157 -12.2157
0.384717 -12.2897 -12.2897
0.382238 -12.4476 -12.4476
0.648831 -12.4573 -12.4573
0.650339 -12.2994 -12.2994
0.383487 -12.3685 -12.3685
0.515501 -12.4524 -12.4524
0.649596 -12.3783 -12.3783
0.517494 -12.2945 -12.2945
0.516508 -12.3734 -12.3734
0.382238 -12.4476 -12.4476
0.379686 -12.6061 -12.6061
0.647234 -12.6159 -12.6159
0.648831 -12.4573 -12.4573
0.380971 -12.5267 -12.5267
0.513426 -12.6109 -12.6109
0.648044 -12.5365 -12.5365
0.515501 -12.4524 -12.4524
0.514474 -12.5316 -12.5316
0.379686 -12.6061 -12.6061
0.37706 -12.7651 -12.7651
0.645549 -12.7749 -12.7749
0.647234 -12.6159 -12.6159
0.378382 -12.6855 -12.6855
0.511271 -12.77 -12.77
0.646403 -12.6953 -12.6953
0.513426 -12.6109 -12.6109
0.512359 -12.6904 -12.6904
0.37706 -12.7651 -12.7651
0.374362 -12.9247 -12.9247
0.643775 -12.9346 -12.9346
0.645549 -12.7749 -12.7749
0.37572 -12.8448 -12.8448
0.509035 -12.9296 -12.9296
0.644673 -12.8547 -12.8547
0.511271 -12.77 -12.77
0.510163 -12.8497 -12.8497
0.374362 -12.9247 -12.9247
0.371591 -13.0848 -13.0848
0.641914 -13.0947 -13.0947
0.643775 -12.9346 -12.9346
0.372985 -13.0047 -13.0047
0.506719 -13.0897 -13.0897
0.642856 -13.0146 -13.0146
0.509035 -12.9296 -12.9296
0.507887 -13.0096 -13.0096
0.371591 -13.0848 -13.0848
0.368748 -13.2455 -13.2455
0.639966 -13.2554 -13.2554
0.641914 -13.0947 -13.0947
0.370178 -13.1651 -13.1651
0.504323 -13.2504 -13.2504
0.640951 -13.175 -13.175
0.506719 -13.0897 -13.0897
0.505531 -13.17 -13.17
0.368748 -13.2455 -13.2455
0.365834 -13.4067 -13.4067
0.637931 -13.4167 -13.4167
0.639966 -13.2554 -13.2554
0.3673 -13.326 -13.326
0.501848 -13.4116 -13.4116
0.63896 -13.336 -13.336
0.504323 -13.2504 -13.2504
0.503096 -13.3309 -13.3309
0.365834 -13.4067 -13.4067
0.362848 -13.5684 -13.5684
0.63581 -13.5784 -13.5784
0.637931 -13.4167 -13.4167
0.36435 -13.4875 -13.4875
0.499295 -13.5733 -13.5733
0.636882 -13.4975 -13.4975
0.501848 -13.4116 -13.4116
0.500582 -13.4924 -13.4924
0.362848 -13.5684 -13.5684
0.359793 -13.7306 -13.7306
0.633603 -13.7406 -13.7406
0.63581 -13.5784 -13.5784
0.361329 -13.6494 -13.6494
0.496664 -13.7356 -13.7356
0.634717 -13.6595 -13.6595
0.499295 -13.5733 -13.5733
0.497989 -13.6544 -13.6544
0.359793 -13.7306 -13.7306
0.356667 -13.8933 -13.8933
0.631311 -13.9034 -13.9034
0.633603 -13.7406 -13.7406
0.358239 -13.8119 -13.8119
0.493955 -13.8983 -13.8983
0.632468 -13.8219 -13.8219
0.496664 -13.7356 -13.7356
0.495319 -13.8169 -13.8169
0.356667 -13.8933 -13.8933
0.353472 -14.0565 -14.0565
0.628934 -14.0666 -14.0666
0.631311 -13.9034 -13.9034
0.355078 -13.9748 -13.9748
0.491169 -14.0615 -14.0615
0.630133 -13.9849 -13.9849
0.493955 -13.8983 -13.8983
0.492571 -13.9798 -13.9798
0.353472 -14.0565 -14.0565
0.350207 -14.2201 -14.2201
0.626473 -14.2303 -14.2303
0.628934 -14.0666 -14.0666
0.351848 -14.1383 -14.1383
0.488306 -14.2252 -14.2252
0.627714 -14.1484 -14.1484
0.491169 -14.0615 -14.0615
0.489747 -14.1433 -14.1433
0.350207 -14.2201 -14.2201
0.346875 -14.3843 -14.3843
0.623928 -14.3944 -14.3944
0.626473 -14.2303 -14.2303
0.34855 -14.3022 -14.3022
0.485367 -14.3893 -14.3893
0.625211 -14.3123 -14.3123
0.488306 -14.2252 -14.2252
0.486846 -14.3072 -14.3072
0.346875 -14.3843 -14.3843
0.343474 -14.5489 -14.5489
0.621299 -14.5591 -14.5591
0.623928 -14.3944 -14.3944
0.345183 -14.4665 -14.4665
0.482352 -14.5539 -14.5539
0.622624 -14.4767 -14.4767
0.485367 -14.3893 -14.3893
0.483869 -14.4716 -14.4716
0.343474 -14.5489 -14.5489
0.340005 -14.7139 -14.7139
0.618588 -14.7241 -14.7241
0.621299 -14.5591 -14.5591
0.341748 -14.6313 -14.6313
0.479262 -14.719 -14.719
0.619954 -14.6415 -14.6415
0.482352 -14.5539 -14.5539
0.480816 -14.6364 -14.6364
0.340005 -14.7139 -14.7139
0.33647 -14.8794 -14.8794
0.615794 -14.8896 -14.8896
0.618588 -14.7241 -14.7241
0.338246 -14.7966 -14.7966
0.476098 -14.8845 -14.8845
0.617201 -14.8068 -14.8068
0.479262 -14.719 -14.719
0.477689 -14.8017 -14.8017
0.33647 -14.8794 -14.8794
0.332868 -15.0453 -15.0453
0.612919 -15.0556 -15.0556
0.615794 -14.8896 -14.8896
0.334677 -14.9623 -14.9623
0.472859 -15.0504 -15.0504
0.614367 -14.9726 -14.9726
0.476098 -14.8845 -14.8845
0.474487 -14.9674 -14.9674
0.332868 -15.0453 -15.0453
0.3292 -15.2117 -15.2117
0.609962 -15.2219 -15.2219
0.612919 -15.0556 -15.0556
0.331042 -15.1284 -15.1284
0.469547 -15.2168 -15.2168
0.611451 -15.1387 -15.1387
0.472859 -15.0504 -15.0504
0.471212 -15.1335 -15.1335
0.3292 -15.2117 -15.2117
0.325466 -15.3784 -15.3784
0.606925 -15.3887 -15.3887
0.609962 -15.2219 -15.2219
0.327341 -15.295 -15.295
0.466161 -15.3835 -15.3835
0.608454 -15.3053 -15.3053
0.469547 -15.2168 -15.2168
0.467863 -15.3001 -15.3001
0.325466 -15.3784 -15.3784
0.321668 -15.5456 -15.5456
0.603808 -15.5559 -15.5559
0.606925 -15.3887 -15.3887
0.323575 -15.4619 -15.4619
0.462703 -15.5507 -15.5507
0.605376 -15.4723 -15.4723
0.466161 -15.3835 -15.3835
0.464441 -15.467 -15.467
0.321668 -15.5456 -15.5456
0.317805 -15.7131 -15.7131
0.60061 -15.7235 -15.7235
0.603808 -15.5559 -15.5559
0.319745 -15.6293 -15.6293
0.459173 -15.7182 -15.7182
0.602219 -15.6396 -15.6396
0.462703 -15.5507 -15.5507
0.460947 -15.6344 -15.6344
0.317805 -15.7131 -15.7131
0.313879 -15.8811 -15.8811
0.597334 -15.8914 -15.8914
0.60061 -15.7235 -15.7235
0.31585 -15.797 -15.797
0.455571 -15.8862 -15.8862
0.598982 -15.8074 -15.8074
0.459173 -15.7182 -15.7182
0.457381 -15.8022 -15.8022
0.313879 -15.8811 -15.8811
0.309889 -16.0494 -16.0494
0.593979 -16.0598 -16.0598
0.597334 -15.8914 -15.8914
0.311891 -15.9652 -15.9652
0.451899 -16.0545 -16.0545
0.595666 -15.9755 -15.9755
0.455571 -15.8862 -15.8862
0.453744 -15.9703 -15.9703
0.309889 -16.0494 -16.0494
0.305836 -16.2181 -16.2181
0.590546 -16.2285 -16.2285
0.593979 -16.0598 -16.0598
0.30787 -16.1337 -16.1337
0.448156 -16.2232 -16.2232
0.592272 -16.1441 -16.1441
0.451899 -16.0545 -16.0545
0.450036 -16.1388 -16.1388
0.305836 -16.2181 -16.2181
0.301721 -16.3871 -16.3871
0.587035 -16.3975 -16.3975
0.590546 -16.2285 -16.2285
0.303786 -16.3025 -16.3025
0.444343 -16.3923 -16.3923
0.5888 -16.3129 -16.3129
0.448156 -16.2232 -16.2232
0.446258 -16.3077 -16.3077
0.301721 -16.3871 -16.3871
0.297544 -16.5565 -16.5565
0.583448 -16.5669 -16.5669
0.587035 -16.3975 -16.3975
0.29964 -16.4718 -16.4718
0.440461 -16.5617 -16.5617
0.585251 -16.4822 -16.4822
0.444343 -16.3923 -16.3923
0.442411 -16.4769 -16.4769
0.297544 -16.5565 -16.5565
0.293306 -16.7262 -16.7262
0.579784 -16.7367 -16.7367
0.583448 -16.5669 -16.5669
0.295433 -16.6413 -16.6413
0.43651 -16.7314 -16.7314
0.581626 -16.6518 -16.6518
0.440461 -16.5617 -16.5617
0.438494 -16.6465 -16.6465
0.293306 -16.7262 -16.7262
0.289008 -16.8963 -16.8963
0.576044 -16.9068 -16.9068
0.579784 -16.7367 -16.7367
0.291165 -16.8112 -16.8112
0.432491 -16.9015 -16.9015
0.577924 -16.8217 -16.8217
0.43651 -16.7314 -16.7314
0.434509 -16.8164 -16.8164
0.289008 -16.8963 -16.8963
0.284649 -17.0667 -17.0667
0.572229 -17.0772 -17.0772
0.576044 -16.9068 -16.9068
0.286836 -16.9815 -16.9815
0.428404 -17.0719 -17.0719
0.574146 -16.9919 -16.9919
0.432491 -16.9015 -16.9015
0.430456 -16.9867 -16.9867
0.284649 -17.0667 -17.0667
0.280232 -17.2374 -17.2374
0.56834 -17.2479 -17.2479
0.572229 -17.0772 -17.0772
0.282448 -17.152 -17.152
0.42425 -17.2426 -17.2426
0.570294 -17.1625 -17.1625
0.428404 -17.0719 -17.0719
0.426336 -17.1572 -17.1572
0.280232 -17.2374 -17.2374
0.275755 -17.4084 -17.4084
0.564376 -17.4189 -17.4189
0.56834 -17.2479 -17.2479
0.278001 -17.3229 -17.3229
0.42003 -17.4136 -17.4136
0.566367 -17.3334 -17.3334
0.42425 -17.2426 -17.2426
0.422148 -17.3281 -17.3281
0.275755 -17.4084 -17.4084
0.27122 -17.5797 -17.5797
0.560339 -17.5902 -17.5902
0.564376 -17.4189 -17.4189
0.273495 -17.494 -17.494
0.415744 -17.5849 -17.5849
0.562366 -17.5045 -17.5045
0.42003 -17.4136 -17.4136
0.417895 -17.4992 -17.4992
0.27122 -17.5797 -17.5797
0.266627 -17.7513 -17.7513
0.556228 -17.7618 -17.7618
0.560339 -17.5902 -17.5902
0.268931 -17.6655 -17.6655
0.411392 -17.7565 -17.7565
0.558293 -17.676 -17.676
0.415744 -17.5849 -17.5849
0.413576 -17.6707 -17.6707
0.266627 -17.7513 -17.7513
0.261977 -17.9232 -17.9232
0.552046 -17.9337 -17.9337
0.556228 -17.7618 -17.7618
0.264309 -17.8372 -17.8372
0.406976 -17.9284 -17.9284
0.554146 -17.8477 -17.8477
0.411392 -17.7565 -17.7565
0.409192 -17.8424 -17.8424
0.261977 -17.9232 -17.9232
0.257271 -18.0953 -18.0953
0.547791 -18.1059 -18.1059
0.552046 -17.9337 -17.9337
0.259631 -18.0092 -18.0092
0.402495 -18.1006 -18.1006
0.549927 -18.0197 -18.0197
0.406976 -17.9284 -17.9284
0.404744 -18.0144 -18.0144
0.257271 -18.0953 -18.0953
0.252509 -18.2677 -18.2677
0.543465 -18.2783 -18.2783
0.547791 -18.1059 -18.1059
0.254897 -18.1815 -18.1815
0.397951 -18.273 -18.273
0.545637 -18.192 -18.192
0.402495 -18.1006 -18.1006
0.400231 -18.1867 -18.1867
0.252509 -18.2677 -18.2677
0.247691 -18.4404 -18.4404
0.539069 -18.4509 -18.4509
0.543465 -18.2783 -18.2783
0.250107 -18.354 -18.354
0.393344 -18.4456 -18.4456
0.541276 -18.3646 -18.3646
0.397951 -18.273 -18.273
0.395655 -18.3593 -18.3593
0.247691 -18.4404 -18.4404
0.242818 -18.6133 -18.6133
0.534602 -18.6238 -18.6238
0.539069 -18.4509 -18.4509
0.245261 -18.5268 -18.5268
0.388675 -18.6185 -18.6185
0.536844 -18.5373 -18.5373
0.393344 -18.4456 -18.4456
0.391017 -18.532 -18.532
0.242818 -18.6133 -18.6133
0.237892 -18.7864 -18.7864
0.530067 -18.7969 -18.7969
0.534602 -18.6238 -18.6238
0.240362 -18.6998 -18.6998
0.383943 -18.7916 -18.7916
0.532343 -18.7103 -18.7103
0.388675 -18.6185 -18.6185
0.386317 -18.705 -18.705
0.237892 -18.7864 -18.7864
0.232911 -18.9597 -18.9597
0.525462 -18.9703 -18.9703
0.530067 -18.7969 -18.7969
0.235408 -18.873 -18.873
0.379151 -18.965 -18.965
0.527773 -18.8836 -18.8836
0.383943 -18.7916 -18.7916
0.381554 -18.8783 -18.8783
0.232911 -18.9597 -18.9597
0.227878 -19.1333 -19.1333
0.520789 -19.1439 -19.1439
0.525462 -18.9703 -18.9703
0.230401 -19.0465 -19.0465
0.374297 -19.1385 -19.1385
0.523134 -19.057 -19.057
0.379151 -18.965 -18.965
0.376731 -19.0517 -19.0517
0.227878 -19.1333 -19.1333
0.222792 -19.3071 -19.3071
0.516048 -19.3176 -19.3176
0.520789 -19.1439 -19.1439
0.225342 -19.2201 -19.2201
0.369384 -19.3123 -19.3123
0.518427 -19.2307 -19.2307
0.374297 -19.1385 -19.1385
0.371848 -19.2254 -19.2254
0.222792 -19.3071 -19.3071
0.217655 -19.481 -19.481
0.51124 -19.4916 -19.4916
0.516048 -19.3176 -19.3176
0.22023 -19.394 -19.394
0.364411 -19.4863 -19.4863
0.513653 -19.4046 -19.4046
0.369384 -19.3123 -19.3123
0.366905 -19.3993 -19.3993
0.217655 -19.481 -19.481
0.212466 -19.6552 -19.6552
0.506366 -19.6657 -19.6657
0.51124 -19.4916 -19.4916
0.215067 -19.5681 -19.5681
0.35938 -19.6604 -19.6604
0.508811 -19.5786 -19.5786
0.364411 -19.4863 -19.4863
0.361903 -19.5733 -19.5733
0.212466 -19.6552 -19.6552
0.207227 -19.8295 -19.8295
0.501426 -19.8401 -19.8401
0.506366 -19.6657 -19.6657
0.209853 -19.7423 -19.7423
0.35429 -19.8348 -19.8348
0.503904 -19.7529 -19.7529
0.35938 -19.6604 -19.6604
0.356842 -19.7476 -19.7476
0.207227 -19.8295 -19.8295
0.201938 -20.004 -20.004
0.496421 -20.0146 -20.0146
0.501426 -19.8401 -19.8401
0.204588 -19.9167 -19.9167
0.349143 -20.0093 -20.0093
0.498932 -19.9273 -19.9273
0.35429 -19.8348 -19.8348
0.351724 -19.922 -19.922
0.201938 -20.004 -20.004
0.196599 -20.1787 -20.1787
0.491351 -20.1892 -20.1892
0.496421 -20.0146 -20.0146
0.199274 -20.0913 -20.0913
0.343939 -20.1839 -20.1839
0.493894 -20.1019 -20.1019
0.349143 -20.0093 -20.0093
0.346548 -20.0966 -20.0966
0.196599 -20.1787 -20.1787
0.191212 -20.3535 -20.3535
0.486217 -20.364 -20.364
0.491351 -20.1892 -20.1892
0.193911 -20.266 -20.266
0.338678 -20.3587 -20.3587
0.488792 -20.2766 -20.2766
0.343939 -20.1839 -20.1839
0.341315 -20.2713 -20.2713
0.191212 -20.3535 -20.3535
0.185776 -20.5284 -20.5284
0.48102 -20.539 -20.539
0.486217 -20.364 -20.364
0.1885 -20.4409 -20.4409
0.333361 -20.5337 -20.5337
0.483626 -20.4515 -20.4515
0.338678 -20.3587 -20.3587
0.336027 -20.4462 -20.4462
0.185776 -20.5284 -20.5284
0.180293 -20.7035 -20.7035
0.47576 -20.714 -20.714
0.48102 -20.539 -20.539
0.183041 -20.6159 -20.6159
0.32799 -20.7088 -20.7088
0.478398 -20.6265 -20.6265
0.333361 -20.5337 -20.5337
0.330683 -20.6212 -20.6212
0.180293 -20.7035 -20.7035
0.174764 -20.8787 -20.8787
0.470437 -20.8892 -20.8892
0.47576 -20.714 -20.714
0.177534 -20.7911 -20.7911
0.322564 -20.884 -20.884
0.473106 -20.8016 -20.8016
0.32799 -20.7088 -20.7088
0.325284 -20.7963 -20.7963
0.174764 -20.8787 -20.8787
0.169187 -21.054 -21.054
0.465054 -21.0645 -21.0645
0.470437 -20.8892 -20.8892
0.171981 -20.9664 -20.9664
0.317084 -21.0593 -21.0593
0.467753 -20.9769 -20.9769
0.322564 -20.884 -20.884
0.319831 -20.9716 -20.9716
0.169187 -21.054 -21.054
0.163566 -21.2295 -21.2295
0.459609 -21.24 -21.24
0.465054 -21.0645 -21.0645
0.166382 -21.1417 -21.1417
0.311551 -21.2347 -21.2347
0.462339 -21.1522 -21.1522
0.317084 -21.0593 -21.0593
0.314324 -21.147 -21.147
0.163566 -21.2295 -21.2295
0.157899 -21.405 -21.405
0.454104 -21.4155 -21.4155
0.459609 -21.24 -21.24
0.160738 -21.3172 -21.3172
0.305965 -21.4102 -21.4102
0.456864 -21.3277 -21.3277
0.311551 -21.2347 -21.2347
0.308765 -21.3224 -21.3224
0.157899 -21.405 -21.405
0.152188 -21.5806 -21.5806
0.448541 -21.5911 -21.5911
0.454104 -21.4155 -21.4155
0.155049 -21.4928 -21.4928
0.300328 -21.5858 -21.5858
0.45133 -21.5033 -21.5033
0.305965 -21.4102 -21.4102
0.303153 -21.498 -21.498
0.152188 -21.5806 -21.5806
0.146433 -21.7563 -21.7563
0.442919 -21.7668 -21.7668
0.448541 -21.5911 -21.5911
0.149316 -21.6684 -21.6684
0.29464 -21.7615 -21.7615
0.445737 -21.6789 -21.6789
0.300328 -21.5858 -21.5858
0.29749 -21.6737 -21.6737
0.146433 -21.7563 -21.7563
0.140635 -21.9321 -21.9321
0.437241 -21.9425 -21.9425
0.442919 -21.7668 -21.7668
0.14354 -21.8442 -21.8442
0.288903 -21.9373 -21.9373
0.440087 -21.8546 -21.8546
0.29464 -21.7615 -21.7615
0.291778 -21.8494 -21.8494
0.140635 -21.9321 -21.9321
0.134794 -22.1079 -22.1079
0.431509 -22.1183 -22.1183
0.437241 -21.9425 -21.9425
0.13772 -22.02 -22.02
0.283118 -22.1131 -22.1131
0.434381 -22.0304 -22.0304
0.288903 -21.9373 -21.9373
0.286017 -22.0252 -22.0252
0.134794 -22.1079 -22.1079
0.12891 -22.2837 -22.2837
0.425728 -22.2942 -22.2942
0.431509 -22.1183 -22.1183
0.131858 -22.1958 -22.1958
0.277288 -22.2889 -22.2889
0.428624 -22.2062 -22.2062
0.283118 -22.1131 -22.1131
0.280209 -22.201 -22.201
0.12891 -22.2837 -22.2837
0.122981 -22.4597 -22.4597
0.419905 -22.4701 -22.4701
0.425728 -22.2942 -22.2942
0.125951 -22.3717 -22.3717
0.271414 -22.4649 -22.4649
0.422821 -22.3821 -22.3821
0.277288 -22.2889 -22.2889
0.274356 -22.3769 -22.3769
0.122981 -22.4597 -22.4597
0.117003 -22.6356 -22.6356
0.414052 -22.646 -22.646
0.419905 -22.4701 -22.4701
0.119998 -22.5476 -22.5476
0.265499 -22.6408 -22.6408
0.416981 -22.558 -22.558
0.271414 -22.4649 -22.4649
0.268462 -22.5528 -22.5528
0.117003 -22.6356 -22.6356
0.11097 -22.8117 -22.8117
0.40819 -22.8221 -22.8221
0.414052 -22.646 -22.646
0.113994 -22.7236 -22.7236
0.259537 -22.8168 -22.8168
0.41112 -22.734 -22.734
0.265499 -22.6408 -22.6408
0.262524 -22.7288 -22.7288
0.11097 -22.8117 -22.8117
0.104881 -22.9878 -22.9878
0.402366 -22.9983 -22.9983
0.40819 -22.8221 -22.8221
0.10793 -22.8997 -22.8997
0.253508 -22.993 -22.993
0.405268 -22.9101 -22.9101
0.259537 -22.8168 -22.8168
0.256536 -22.9049 -22.9049
0.104881 -22.9878 -22.9878
0.0988165 -23.164 -23.164
0.396532 -23.1752 -23.1752
0.402366 -22.9983 -22.9983
0.101835 -23.0759 -23.0759
0.247404 -23.1696 -23.1696
0.399479 -23.0865 -23.0865
0.253508 -22.993 -22.993
0.25045 -23.0812 -23.0812
      </DataArray> 
      <DataArray type="Float64" NumberOfComponents="4" Name="CauchyStress" format="ascii">
-12172.1 -3670.77 0 -2869.38
-7855.19 148.68 0 125.579
-5882.58 -639.202 0 -317.926
-5558.12 -1675.81 0 -218.062
-8731.19 177.758 0 -390.501
-7321.7 -451.742 0 -409.693
-5773.99 -1204.39 0 -372.365
-6524.92 -1967.91 0 -700.679
-7231.93 -991.591 0 -651.526
-7855.19 148.68 0 125.579
-7787.71 84.8459 0 48.6728
-5968.55 -193.554 0 -143.491
-5882.58 -639.202 0 -317.926
-7796.6 -28.9198 0 61.7884
-7045.32 -67.5831 0 -56.7658
-5964.17 -330.245 0 -224.894
-7321.7 -451.742 0 -409.693
-7133.86 -163.08 0 -157.817
-7787.71 84.8459 0 48.6728
-7933.56 -28.3621 0 34.038
-5892.89 -39.7443 0 -43.319
-5968.55 -193.554 0 -143.491
-7871.71 54.6164 0 50.9021
-6953.57 -4.84806 0 9.3955
-5923.05 -98.2984 0 -78.1748
-7045.32 -67.5831 0 -56.7658
-6995.35 -27.2179 0 -19.1508
-7933.56 -28.3621 0 34.038
-7968.16 7.95712 0 21.2229
-5841.55 -7.12763 0 -18.7351
-5892.89 -39.7443 0 -43.319
-7953.17 -25.9628 0 17.21
-6911.22 3.11462 0 22.1541
-5870.11 -15.8433 0 -27.3242
-6953.57 -4.84806 0 9.3955
-6924.2 3.62799 0 23.0405
-7968.16 7.95712 0 21.2229
-7996.31 -9.51259 0 29.646
-5790.25 4.92903 0 -14.5526
-5841.55 -7.12763 0 -18.7351
-7988.44 5.46482 0 28.8541
-6891.55 2.22698 0 16.8994
-5811.72 0.670696 0 -14.5322
-6911.22 3.11462 0 22.1541
-6903.45 1.87011 0 18.1192
-7996.31 -9.51259 0 29.646
-7983.91 1.09055 0 32.6243
-5754.83 2.58877 0 -18.472
-5790.25 4.92903 0 -14.5526
-7990.88 -6.96534 0 29.114
-6867.07 0.519222 0 12.6198
-5773.1 4.38776 0 -16.724
-6891.55 2.22698 0 16.8994
-6878.6 1.90084 0 15.2266
-7983.91 1.09055 0 32.6243
-7965 -2.30349 0 39.1382
-5720.52 0.37211 0 -21.0779
-5754.83 2.58877 0 -18.472
-7976.78 0.767022 0 36.798
-6840.98 -1.33884 0 10.2679
-5736.62 1.5282 0 -19.794
-6867.07 0.519222 0 12.6198
-6855.09 -0.715778 0 10.7888
-7965 -2.30349 0 39.1382
-7932.33 0.0273239 0 43.9233
-5689.95 -2.56535 0 -22.4857
-5720.52 0.37211 0 -21.0779
-7949.1 -1.68018 0 41.0671
-6810.39 -2.35648 0 10.3308
-5705.42 -1.19736 0 -22.1175
-6840.98 -1.33884 0 10.2679
-6825.76 -1.80203 0 10.1493
-7932.33 0.0273239 0 43.9233
-7896.45 -0.672125 0 49.373
-5659.34 -4.30006 0 -21.9096
-5689.95 -2.56535 0 -22.4857
-7915.06 -0.0289976 0 46.8854
-6777.89 -3.12445 0 12.1349
-5674.43 -3.52043 0 -22.3462
-6810.39 -2.35648 0 10.3308
-6794.53 -2.83611 0 11.0102
-7896.45 -0.672125 0 49.373
-7856.7 -0.254565 0 54.337
-5629.39 -5.50339 0 -20.2321
-5659.34 -4.30006 0 -21.9096
-7876.74 -0.570775 0 51.7573
-6743.54 -3.4779 0 14.9754
-5644.43 -4.98858 0 -21.2176
-6777.89 -3.12445 0 12.1349
-6760.78 -3.30667 0 13.4673
-7856.7 -0.254565 0 54.337
-7815.92 -0.445031 0 59.3484
-5599.3 -6.11224 0 -17.7069
-5629.39 -5.50339 0 -20.2321
-7836.46 -0.28746 0 56.9081
-6708.43 -3.70544 0 18.4621
-5614.31 -5.85482 0 -19.0342
-6743.54 -3.4779 0 14.9754
-6726.1 -3.61973 0 16.6575
-7815.92 -0.445031 0 59.3484
-7774.24 -0.437272 0 64.1875
-5569.28 -6.42641 0 -14.7761
-5599.3 -6.11224 0 -17.7069
-7795.12 -0.462067 0 61.7553
-6672.74 -3.79523 0 22.2402
-5584.31 -6.3038 0 -16.2846
-6708.43 -3.70544 0 18.4621
-6690.61 -3.75414 0 20.3274
-7774.24 -0.437272 0 64.1875
-7732.34 -0.543828 0 68.9598
-5539.2 -6.53291 0 -11.614
-5569.28 -6.42641 0 -14.7761
-7753.32 -0.477327 0 66.5967
-6636.84 -3.8439 0 26.1593
-5554.24 -6.496 0 -13.2102
-6672.74 -3.79523 0 22.2402
-6654.82 -3.82688 0 24.1907
-7732.34 -0.543828 0 68.9598
-7690.28 -0.621883 0 73.6317
-5509.1 -6.54069 0 -8.37657
-5539.2 -6.53291 0 -11.614
-7711.32 -0.586541 0 71.3016
-6600.8 -3.85815 0 30.1005
-5524.16 -6.54683 0 -10.0008
-6636.84 -3.8439 0 26.1593
-6618.83 -3.85171 0 28.1308
-7690.28 -0.621883 0 73.6317
-7648.21 -0.721642 0 78.2216
-5478.98 -6.49284 0 -5.12683
-5509.1 -6.54069 0 -8.37657
-7669.25 -0.668793 0 75.9396
-6564.72 -3.8647 0 34.0186
-5494.04 -6.52082 0 -6.74935
-6600.8 -3.85815 0 30.1005
-6582.77 -3.86276 0 32.0649
-7648.21 -0.721642 0 78.2216
-7606.13 -0.821193 0 82.7265
-5448.86 -6.4226 0 -1.90845
-5478.98 -6.49284 0 -5.12683
-7627.17 -0.771698 0 80.4835
-6528.62 -3.86726 0 37.8828
-5463.92 -6.45967 0 -3.51259
-6564.72 -3.8647 0 34.0186
-6546.67 -3.8656 0 35.9583
-7606.13 -0.821193 0 82.7265
-7564.05 -0.926979 0 87.1494
-5418.73 -6.34351 0 1.26247
-5448.86 -6.4226 0 -1.90845
-7585.09 -0.873158 0 84.9486
-6492.51 -3.87191 0 41.683
-5433.79 -6.38343 0 -0.316186
-6528.62 -3.86726 0 37.8828
-6510.57 -3.86941 0 39.7914
-7564.05 -0.926979 0 87.1494
-7521.98 -1.0365 0 91.4909
-5388.59 -6.26383 0 4.37686
-5418.73 -6.34351 0 1.26247
-7543.02 -0.981378 0 89.3302
-6456.4 -3.87964 0 45.4135
-5403.66 -6.30354 0 2.82692
-6492.51 -3.87191 0 41.683
-6474.46 -3.87522 0 43.5571
-7521.98 -1.0365 0 91.4909
-7479.92 -1.15005 0 95.7516
-5358.45 -6.18657 0 7.43244
-5388.59 -6.26383 0 4.37686
-7500.95 -1.09273 0 93.6314
-6420.29 -3.8914 0 49.0736
-5373.52 -6.22476 0 5.9121
-6456.4 -3.87964 0 45.4135
-6438.34 -3.88506 0 47.2524
-7479.92 -1.15005 0 95.7516
-7437.86 -1.26752 0 99.932
-5328.31 -6.11312 0 10.4286
-5358.45 -6.18657 0 7.43244
-7458.89 -1.20833 0 97.8518
-6384.18 -3.9072 0 52.6632
-5343.38 -6.14935 0 8.9379
-6420.29 -3.8914 0 49.0736
-6402.23 -3.89878 0 50.8772
-7437.86 -1.26752 0 99.932
-7395.79 -1.38864 0 104.033
-5298.17 -6.04373 0 13.3659
-5328.31 -6.11312 0 10.4286
-7416.82 -1.32762 0 101.992
-6348.06 -3.92694 0 56.183
-5313.24 -6.07791 0 11.9045
-6384.18 -3.9072 0 52.6632
-6366.12 -3.9166 0 54.4318
-7395.79 -1.38864 0 104.033
-7353.72 -1.51337 0 108.054
-5268.02 -5.97833 0 16.245
-5298.17 -6.04373 0 13.3659
-7374.76 -1.45057 0 106.053
-6311.95 -3.95045 0 59.6339
-5283.09 -6.01055 0 14.8127
-6348.06 -3.92694 0 56.183
-6330.01 -3.93824 0 57.917
-7353.72 -1.51337 0 108.054
-7311.65 -1.64147 0 111.996
-5237.87 -5.91667 0 19.0669
-5268.02 -5.97833 0 16.245
-7332.69 -1.57701 0 110.035
-6275.83 -3.97749 0 63.0164
-5252.95 -5.94704 0 17.6631
-6311.95 -3.95045 0 59.6339
-6293.89 -3.96354 0 61.3336
-7311.65 -1.64147 0 111.996
-7269.58 -1.77282 0 115.86
-5207.72 -5.85851 0 21.832
-5237.87 -5.91667 0 19.0669
-7290.62 -1.70675 0 113.938
-6239.71 -4.00789 0 66.3312
-5222.8 -5.88717 0 20.4565
-6275.83 -3.97749 0 63.0164
-6257.77 -3.99229 0 64.6822
-7269.58 -1.77282 0 115.86
-7227.5 -1.90722 0 119.646
-5177.56 -5.80361 0 24.5411
-5207.72 -5.85851 0 21.832
-7248.54 -1.83965 0 117.763
-6203.58 -4.04145 0 69.579
-5192.64 -5.83066 0 23.1935
-6239.71 -4.00789 0 66.3312
-6221.65 -4.02428 0 67.9635
-7227.5 -1.90722 0 119.646
-7185.41 -2.04452 0 123.354
-5147.41 -5.75178 0 27.1945
-5177.56 -5.80361 0 24.5411
-7206.45 -1.97552 0 121.51
-6167.45 -4.07799 0 72.7601
-5162.49 -5.77732 0 25.8747
-6203.58 -4.04145 0 69.579
-6185.52 -4.05935 0 71.1778
-7185.41 -2.04452 0 123.354
-7143.32 -2.18454 0 126.986
-5117.25 -5.70283 0 29.7926
-5147.41 -5.75178 0 27.1945
-7164.37 -2.1142 0 125.18
-6131.32 -4.11735 0 75.875
-5132.33 -5.72695 0 28.5004
-6167.45 -4.07799 0 72.7601
-6149.39 -4.09733 0 74.3258
-7143.32 -2.18454 0 126.986
-7101.23 -2.3271 0 130.54
-5087.09 -5.65661 0 32.336
-5117.25 -5.70283 0 29.7926
-7122.27 -2.25551 0 128.772
-6095.18 -4.15938 0 78.9241
-5102.17 -5.67939 0 31.0711
-6131.32 -4.11735 0 75.875
-6113.25 -4.13804 0 77.4077
-7101.23 -2.3271 0 130.54
-7059.13 -2.47204 0 134.018
-5056.92 -5.61299 0 34.8248
-5087.09 -5.65661 0 32.336
-7080.18 -2.39928 0 132.289
-6059.05 -4.20393 0 81.9079
-5072 -5.63449 0 33.5872
-6095.18 -4.15938 0 78.9241
-6077.12 -4.18135 0 80.4241
-7059.13 -2.47204 0 134.018
-7017.03 -2.61919 0 137.421
-5026.76 -5.57183 0 37.2595
-5056.92 -5.61299 0 34.8248
-7038.08 -2.54535 0 135.729
-6022.9 -4.25085 0 84.8266
-5041.84 -5.59211 0 36.0489
-6059.05 -4.20393 0 81.9079
-6040.97 -4.2271 0 83.3753
-7017.03 -2.61919 0 137.421
-6974.92 -2.76839 0 140.747
-4996.59 -5.53301 0 39.6403
-5026.76 -5.57183 0 37.2595
-6995.98 -2.69354 0 139.093
-5986.76 -4.3 0 87.6808
-5011.67 -5.55214 0 38.4566
-6022.9 -4.25085 0 84.8266
-6004.83 -4.27515 0 86.2617
-6974.92 -2.76839 0 140.747
-6932.81 -2.91948 0 144
-4966.42 -5.49642 0 41.9676
-4996.59 -5.53301 0 39.6403
-6953.87 -2.84371 0 142.383
-5950.61 -4.35124 0 90.4707
-4981.5 -5.51444 0 40.8106
-5986.76 -4.3 0 87.6808
-5968.69 -4.32536 0 89.0837
-6932.81 -2.91948 0 144
-6890.7 -3.0723 0 147.177
-4936.25 -5.46193 0 44.2417
-4966.42 -5.49642 0 41.9676
-6911.76 -2.99568 0 145.598
-5914.46 -4.40444 0 93.1968
-4951.33 -5.47892 0 43.1113
-5950.61 -4.35124 0 90.4707
-5932.54 -4.3776 0 91.8417
-6890.7 -3.0723 0 147.177
-6848.59 -3.22669 0 150.281
-4906.07 -5.42945 0 46.4629
-4936.25 -5.46193 0 44.2417
-6869.64 -3.1493 0 148.738
-5878.31 -4.45946 0 95.8594
-4921.16 -5.44545 0 45.3589
-5914.46 -4.40444 0 93.1968
-5896.39 -4.43173 0 94.536
-6848.59 -3.22669 0 150.281
-6806.47 -3.3825 0 153.311
-4875.9 -5.39885 0 48.6316
-4906.07 -5.42945 0 46.4629
-6827.53 -3.30442 0 151.805
-5842.15 -4.51617 0 98.4589
-4890.98 -5.41392 0 47.5538
-5878.31 -4.45946 0 95.8594
-5860.23 -4.48761 0 97.167
-6806.47 -3.3825 0 153.311
-6764.35 -3.53958 0 156.268
-4845.72 -5.37003 0 50.748
-4875.9 -5.39885 0 48.6316
-6785.41 -3.46089 0 154.798
-5806 -4.57445 0 100.996
-4860.81 -5.38423 0 49.6963
-5842.15 -4.51617 0 98.4589
-5824.08 -4.54512 0 99.7352
-6764.35 -3.53958 0 156.268
-6722.22 -3.69779 0 159.152
-4815.54 -5.3429 0 52.8124
-4845.72 -5.37003 0 50.748
-6743.28 -3.61856 0 157.719
-5769.84 -4.63417 0 103.47
-4830.63 -5.35626 0 51.7867
-5806 -4.57445 0 100.996
-5787.92 -4.60414 0 102.241
-6722.22 -3.69779 0 159.152
-6680.1 -3.85698 0 161.964
-4785.36 -5.31734 0 54.8253
-4815.54 -5.3429 0 52.8124
-6701.16 -3.77727 0 160.567
-5733.68 -4.6952 0 105.883
-4800.45 -5.32993 0 53.8253
-5769.84 -4.63417 0 103.47
-5751.76 -4.66452 0 104.684
-6680.1 -3.85698 0 161.964
-6637.97 -4.017 0 164.704
-4755.18 -5.29326 0 56.7868
-4785.36 -5.31734 0 54.8253
-6659.03 -3.93689 0 163.343
-5697.52 -4.75742 0 108.234
-4770.27 -5.30512 0 55.8124
-5733.68 -4.6952 0 105.883
-5715.6 -4.72616 0 107.066
-6637.97 -4.017 0 164.704
-6595.84 -4.17772 0 167.373
-4725 -5.27054 0 58.6974
-4755.18 -5.29326 0 56.7868
-6616.9 -4.09728 0 166.048
-5661.35 -4.82071 0 110.524
-4740.09 -5.28173 0 57.7485
-5697.52 -4.75742 0 108.234
-5679.44 -4.78894 0 109.387
-6595.84 -4.17772 0 167.373
-6553.71 -4.339 0 169.971
-4694.82 -5.24911 0 60.5573
-4725 -5.27054 0 58.6974
-6574.77 -4.2583 0 168.681
-5625.19 -4.88496 0 112.753
-4709.91 -5.25967 0 59.6337
-5661.35 -4.82071 0 110.524
-5643.27 -4.85272 0 111.646
-6553.71 -4.339 0 169.971
-6511.57 -4.5007 0 172.499
-4664.64 -5.22886 0 62.3669
-4694.82 -5.24911 0 60.5573
-6532.64 -4.4198 0 171.244
-5589.02 -4.95005 0 114.922
-4679.73 -5.23884 0 61.4684
-5625.19 -4.88496 0 112.753
-5607.11 -4.9174 0 113.845
-6511.57 -4.5007 0 172.499
-6469.43 -4.6627 0 174.957
-4634.45 -5.20969 0 64.1265
-4664.64 -5.22886 0 62.3669
-6490.5 -4.58167 0 173.737
-5552.86 -5.01586 0 117.031
-4649.54 -5.21914 0 63.253
-5589.02 -4.95005 0 114.922
-5570.94 -4.98287 0 115.984
-6469.43 -4.6627 0 174.957
-6427.3 -4.82485 0 177.345
-4604.27 -5.19151 0 65.8365
-4634.45 -5.20969 0 64.1265
-6448.37 -4.74376 0 176.159
-5516.69 -5.08229 0 119.08
-4619.36 -5.20048 0 64.9877
-5552.86 -5.01586 0 117.031
-5534.77 -5.049 0 118.063
-6427.3 -4.82485 0 177.345
-6385.16 -4.98705 0 179.664
-4574.08 -5.17424 0 67.497
-4604.27 -5.19151 0 65.8365
-6406.23 -4.90595 0 178.513
-5480.52 -5.14922 0 121.07
-4589.18 -5.18277 0 66.6729
-5516.69 -5.08229 0 119.08
-5498.6 -5.11569 0 120.083
-6385.16 -4.98705 0 179.664
-6343.02 -5.14915 0 181.915
-4543.9 -5.15778 0 69.1086
-4574.08 -5.17424 0 67.497
-6364.09 -5.06812 0 180.798
-5444.35 -5.21655 0 123.001
-4558.99 -5.16592 0 68.3089
-5480.52 -5.14922 0 121.07
-5462.44 -5.18284 0 122.043
-6343.02 -5.14915 0 181.915
-6300.88 -5.31105 0 184.097
-4513.71 -5.14205 0 70.6714
-4543.9 -5.15778 0 69.1086
-6321.95 -5.23013 0 183.014
-5408.18 -5.28417 0 124.874
-4528.81 -5.14983 0 69.8961
-5444.35 -5.21655 0 123.001
-5426.27 -5.25033 0 123.945
-6300.88 -5.31105 0 184.097
-6258.73 -5.47261 0 186.212
-4483.53 -5.12696 0 72.1858
-4513.71 -5.14205 0 70.6714
-6279.81 -5.39188 0 185.163
-5372.01 -5.35199 0 126.689
-4498.62 -5.13443 0 71.4347
-5408.18 -5.28417 0 124.874
-5390.09 -5.31806 0 125.789
-6258.73 -5.47261 0 186.212
-6216.59 -5.63372 0 188.259
-4453.34 -5.11242 0 73.6522
-4483.53 -5.12696 0 72.1858
-6237.66 -5.55323 0 187.244
-5335.84 -5.41989 0 128.446
-4468.44 -5.11963 0 72.925
-5372.01 -5.35199 0 126.689
-5353.92 -5.38594 0 127.575
-6216.59 -5.63372 0 188.259
-6174.45 -5.79428 0 190.24
-4423.16 -5.09836 0 75.0709
-4453.34 -5.11242 0 73.6522
-6195.52 -5.71408 0 189.258
-5299.67 -5.48779 0 130.146
-4438.25 -5.10534 0 74.3675
-5335.84 -5.41989 0 128.446
-5317.75 -5.45385 0 129.303
-6174.45 -5.79428 0 190.24
-6132.3 -5.95415 0 192.154
-4392.97 -5.08469 0 76.4421
-4423.16 -5.09836 0 75.0709
-6153.37 -5.8743 0 191.206
-5263.49 -5.55558 0 131.789
-4408.07 -5.09148 0 75.7624
-5299.67 -5.48779 0 130.146
-5281.58 -5.52171 0 130.974
-6132.3 -5.95415 0 192.154
-6090.16 -6.11324 0 194.003
-4362.79 -5.07134 0 77.7662
-4392.97 -5.08469 0 76.4421
-6111.23 -6.0338 0 193.087
-5227.32 -5.62318 0 133.375
-4377.88 -5.07798 0 77.11
-5263.49 -5.55558 0 131.789
-5245.41 -5.58941 0 132.589
-6090.16 -6.11324 0 194.003
-6048.01 -6.27143 0 195.786
-4332.6 -5.05822 0 79.0436
-4362.79 -5.07134 0 77.7662
-6069.08 -6.19245 0 194.903
-5191.15 -5.69048 0 134.905
-4347.7 -5.06476 0 78.4107
-5227.32 -5.62318 0 133.375
-5209.24 -5.65687 0 134.147
-6048.01 -6.27143 0 195.786
-6005.87 -6.42863 0 197.504
-4302.42 -5.04527 0 80.2745
-4332.6 -5.05822 0 79.0436
-6026.94 -6.35016 0 196.653
-5154.98 -5.75739 0 136.38
-4317.51 -5.05173 0 79.6648
-5191.15 -5.69048 0 134.905
-5173.06 -5.72399 0 135.65
-6005.87 -6.42863 0 197.504
-5963.72 -6.58472 0 199.158
-4272.23 -5.03241 0 81.4593
-4302.42 -5.04527 0 80.2745
-5984.79 -6.50682 0 198.339
-5118.81 -5.82384 0 137.799
-4287.33 -5.03883 0 80.8726
-5154.98 -5.75739 0 136.38
-5136.89 -5.79068 0 137.097
-5963.72 -6.58472 0 199.158
-5921.57 -6.73961 0 200.747
-4242.05 -5.01956 0 82.5982
-4272.23 -5.03241 0 81.4593
-5942.65 -6.66232 0 199.96
-5082.63 -5.88973 0 139.164
-4257.14 -5.02599 0 82.0345
-5118.81 -5.82384 0 137.799
-5100.72 -5.85686 0 138.488
-5921.57 -6.73961 0 200.747
-5879.43 -6.89319 0 202.273
-4211.87 -5.00666 0 83.6918
-4242.05 -5.01956 0 82.5982
-5900.5 -6.81657 0 201.518
-5046.46 -5.95498 0 140.473
-4226.96 -5.01312 0 83.1507
-5082.63 -5.88973 0 139.164
-5064.55 -5.92244 0 139.825
-5879.43 -6.89319 0 202.273
-5837.28 -7.04538 0 203.736
-4181.68 -4.99363 0 84.7401
-4211.87 -5.00666 0 83.6918
-5858.35 -6.96947 0 203.012
-5010.29 -6.0195 0 141.729
-4196.78 -5.00016 0 84.2216
-5046.46 -5.95498 0 140.473
-5028.38 -5.98734 0 141.108
-5837.28 -7.04538 0 203.736
-5795.13 -7.19608 0 205.136
-4151.5 -4.98042 0 85.7437
-4181.68 -4.99363 0 84.7401
-5816.21 -7.12092 0 204.444
-4974.12 -6.08322 0 142.931
-4166.59 -4.98705 0 85.2475
-5010.29 -6.0195 0 141.729
-4992.21 -6.05147 0 142.337
-5795.13 -7.19608 0 205.136
-5752.99 -7.34519 0 206.473
-4121.32 -4.96694 0 86.7027
-4151.5 -4.98042 0 85.7437
-5774.06 -7.27084 0 205.812
-4937.95 -6.14605 0 144.079
-4136.41 -4.97372 0 86.2288
-4974.12 -6.08322 0 142.931
-4956.04 -6.11475 0 143.512
-5752.99 -7.34519 0 206.473
-5710.84 -7.49262 0 207.749
-4091.14 -4.95315 0 87.6176
-4121.32 -4.96694 0 86.7027
-5731.92 -7.41912 0 207.119
-4901.78 -6.20792 0 145.175
-4106.23 -4.96009 0 87.1657
-4937.95 -6.14605 0 144.079
-4919.87 -6.17711 0 144.634
-5710.84 -7.49262 0 207.749
-5668.7 -7.6383 0 208.964
-4060.96 -4.93898 0 88.4886
-4091.14 -4.95315 0 87.6176
-5689.77 -7.56569 0 208.364
-4865.61 -6.26876 0 146.218
-4076.05 -4.94612 0 88.0586
-4901.78 -6.20792 0 145.175
-4883.7 -6.23848 0 145.703
-5668.7 -7.6383 0 208.964
-5626.55 -7.78213 0 210.118
-4030.78 -4.92436 0 89.3161
-4060.96 -4.93898 0 88.4886
-5647.63 -7.71045 0 209.549
-4829.45 -6.32849 0 147.209
-4045.87 -4.93173 0 88.9078
-4865.61 -6.26876 0 146.218
-4847.53 -6.29877 0 146.72
-5626.55 -7.78213 0 210.118
-5584.41 -7.92402 0 211.211
-4000.61 -4.90924 0 90.1004
-4030.78 -4.92436 0 89.3161
-5605.48 -7.85332 0 210.672
-4793.28 -6.38704 0 148.147
-4015.7 -4.91687 0 89.7137
-4829.45 -6.32849 0 147.209
-4811.36 -6.35791 0 147.684
-5584.41 -7.92402 0 211.211
-5542.27 -8.06391 0 212.244
-3970.43 -4.89356 0 90.8419
-4000.61 -4.90924 0 90.1004
-5563.34 -7.99422 0 211.735
-4757.11 -6.44433 0 149.035
-3985.52 -4.90147 0 90.4765
-4793.28 -6.38704 0 148.147
-4775.2 -6.41585 0 148.597
-5542.27 -8.06391 0 212.244
-5500.12 -8.20171 0 213.218
-3940.26 -4.87726 0 91.5407
-3970.43 -4.89356 0 90.8419
-5521.2 -8.13308 0 212.739
-4720.95 -6.50032 0 149.871
-3955.34 -4.88549 0 91.1966
-4757.11 -6.44433 0 149.035
-4739.03 -6.47249 0 149.459
-5500.12 -8.20171 0 213.218
-5457.98 -8.33734 0 214.133
-3910.08 -4.86029 0 92.1974
-3940.26 -4.87726 0 91.5407
-5479.05 -8.2698 0 213.683
-4684.78 -6.55491 0 150.657
-3925.17 -4.86886 0 91.8743
-4720.95 -6.50032 0 149.871
-4702.87 -6.52779 0 150.27
-5457.98 -8.33734 0 214.133
-5415.84 -8.47074 0 214.989
-3879.91 -4.84259 0 92.8121
-3910.08 -4.86029 0 92.1974
-5436.91 -8.40432 0 214.568
-4648.62 -6.60807 0 151.392
-3895 -4.85154 0 92.5099
-4684.78 -6.55491 0 150.657
-4666.7 -6.58167 0 151.031
-5415.84 -8.47074 0 214.989
-5373.7 -8.60182 0 215.787
-3849.74 -4.82412 0 93.3852
-3879.91 -4.84259 0 92.8121
-5394.77 -8.53657 0 215.395
-4612.46 -6.65971 0 152.078
-3864.82 -4.83346 0 93.1038
-4648.62 -6.60807 0 151.392
-4630.54 -6.63408 0 151.741
-5373.7 -8.60182 0 215.787
-5331.57 -8.73051 0 216.527
-3819.57 -4.80482 0 93.9172
-3849.74 -4.82412 0 93.3852
-5352.64 -8.66647 0 216.164
-4576.3 -6.70978 0 152.714
-3834.65 -4.81458 0 93.6563
-4612.46 -6.65971 0 152.078
-4594.38 -6.68495 0 152.402
-5331.57 -8.73051 0 216.527
-5289.43 -8.85676 0 217.21
-3789.4 -4.78465 0 94.4081
-3819.57 -4.80482 0 93.9172
-5310.5 -8.79395 0 216.876
-4540.14 -6.75823 0 153.301
-3804.48 -4.79485 0 94.1677
-4576.3 -6.70978 0 152.714
-4558.22 -6.73421 0 153.014
-5289.43 -8.85676 0 217.21
-5247.29 -8.98049 0 217.836
-3759.23 -4.76355 0 94.8585
-3789.4 -4.78465 0 94.4081
-5268.36 -8.91894 0 217.53
-4503.99 -6.80499 0 153.839
-3774.32 -4.77422 0 94.6384
-4540.14 -6.75823 0 153.301
-4522.06 -6.78183 0 153.576
-5247.29 -8.98049 0 217.836
-5205.16 -9.10163 0 218.406
-3729.07 -4.74148 0 95.2686
-3759.23 -4.76355 0 94.8585
-5226.23 -9.04139 0 218.128
-4467.83 -6.85002 0 154.329
-3744.15 -4.75264 0 95.0685
-4503.99 -6.80499 0 153.839
-4485.91 -6.82773 0 154.09
-5205.16 -9.10163 0 218.406
-5163.03 -9.22014 0 218.92
-3698.9 -4.7184 0 95.6387
-3729.07 -4.74148 0 95.2686
-5184.09 -9.16122 0 218.67
-4431.68 -6.89325 0 154.771
-3713.99 -4.73007 0 95.4586
-4467.83 -6.85002 0 154.329
-4449.75 -6.87186 0 154.556
-5163.03 -9.22014 0 218.92
-5120.9 -9.33594 0 219.379
-3668.74 -4.69427 0 95.9692
-3698.9 -4.7184 0 95.6387
-5141.96 -9.27838 0 219.156
-4395.52 -6.93464 0 155.166
-3683.82 -4.70647 0 95.8089
-4431.68 -6.89325 0 154.771
-4413.6 -6.91418 0 154.974
-5120.9 -9.33594 0 219.379
-5078.77 -9.44898 0 219.782
-3638.58 -4.66903 0 96.2604
-3668.74 -4.69427 0 95.9692
-5099.83 -9.39281 0 219.587
-4359.37 -6.97413 0 155.513
-3653.66 -4.68179 0 96.1197
-4395.52 -6.93464 0 155.166
-4377.45 -6.95462 0 155.345
-5078.77 -9.44898 0 219.782
-5036.64 -9.5592 0 220.131
-3608.42 -4.64266 0 96.5126
-3638.58 -4.66903 0 96.2604
-5057.7 -9.50444 0 219.963
-4323.22 -7.01168 0 155.814
-3623.5 -4.65599 0 96.3914
-4359.37 -6.97413 0 155.513
-4341.3 -6.99315 0 155.669
-5036.64 -9.5592 0 220.131
-4994.51 -9.66655 0 220.426
-3578.26 -4.61511 0 96.7262
-3608.42 -4.64266 0 96.5126
-5015.57 -9.61324 0 220.285
-4287.08 -7.04725 0 156.068
-3593.34 -4.62903 0 96.6242
-4323.22 -7.01168 0 155.814
-4305.15 -7.02971 0 155.947
-4994.51 -9.66655 0 220.426
-4952.39 -9.77097 0 220.667
-3548.11 -4.58634 0 96.9014
-3578.26 -4.61511 0 96.7262
-4973.45 -9.71913 0 220.553
-4250.93 -7.08078 0 156.276
-3563.19 -4.60088 0 96.8185
-4287.08 -7.04725 0 156.068
-4269 -7.06427 0 156.178
-4952.39 -9.77097 0 220.667
-4910.26 -9.87242 0 220.855
-3517.96 -4.55633 0 97.0386
-3548.11 -4.58634 0 96.9014
-4931.33 -9.82207 0 220.768
-4214.79 -7.11223 0 156.439
-3533.03 -4.57149 0 96.9747
-4250.93 -7.08078 0 156.276
-4232.86 -7.09676 0 156.363
-4910.26 -9.87242 0 220.855
-4868.14 -9.97085 0 220.991
-3487.8 -4.52502 0 97.1381
-3517.96 -4.55633 0 97.0386
-4889.2 -9.92202 0 220.93
-4178.64 -7.14156 0 156.556
-3502.88 -4.54084 0 97.093
-4214.79 -7.11223 0 156.439
-4196.71 -7.12716 0 156.503
-4868.14 -9.97085 0 220.991
-4826.02 -10.0662 0 221.074
-3457.65 -4.49241 0 97.2003
-3487.8 -4.52502 0 97.1381
-4847.08 -10.0189 0 221.039
-4142.5 -7.16874 0 156.629
-3472.73 -4.50888 0 97.1738
-4178.64 -7.14156 0 156.556
-4160.57 -7.15542 0 156.598
-4826.02 -10.0662 0 221.074
-4783.91 -10.1585 0 221.105
-3427.51 -4.45844 0 97.2254
-3457.65 -4.49241 0 97.2003
-4804.96 -10.1127 0 221.096
-4106.37 -7.19372 0 156.657
-3442.58 -4.47559 0 97.2175
-4142.5 -7.16874 0 156.629
-4124.43 -7.18151 0 156.649
-4783.91 -10.1585 0 221.105
-4741.79 -10.2475 0 221.085
-3397.36 -4.42308 0 97.2138
-3427.51 -4.45844 0 97.2254
-4762.85 -10.2034 0 221.102
-4070.23 -7.21647 0 156.641
-3412.43 -4.44093 0 97.2242
-4106.37 -7.19372 0 156.657
-4088.3 -7.20538 0 156.655
-4741.79 -10.2475 0 221.085
-4699.68 -10.3334 0 221.014
-3367.22 -4.38632 0 97.1659
-3397.36 -4.42308 0 97.2138
-4720.73 -10.2909 0 221.056
-4034.1 -7.23695 0 156.582
-3382.29 -4.40488 0 97.1944
-4070.23 -7.21647 0 156.641
-4052.16 -7.227 0 156.617
-4699.68 -10.3334 0 221.014
-4657.56 -10.4161 0 220.893
-3337.07 -4.34812 0 97.0818
-3367.22 -4.38632 0 97.1659
-4678.62 -10.3752 0 220.96
-3997.96 -7.25513 0 156.479
-3352.14 -4.3674 0 97.1283
-4034.1 -7.23695 0 156.582
-4016.03 -7.24633 0 156.536
-4657.56 -10.4161 0 220.893
-4615.46 -10.4954 0 220.722
-3306.93 -4.30846 0 96.9621
-3337.07 -4.34812 0 97.0818
-4636.51 -10.4562 0 220.814
-3961.83 -7.27097 0 156.334
-3322 -4.32847 0 97.0264
-3997.96 -7.25513 0 156.479
-3979.9 -7.26334 0 156.412
-4615.46 -10.4954 0 220.722
-4573.35 -10.5715 0 220.501
-3276.8 -4.2673 0 96.8069
-3306.93 -4.30846 0 96.9621
-4594.4 -10.5339 0 220.617
-3925.71 -7.28445 0 156.146
-3291.86 -4.28807 0 96.8889
-3961.83 -7.27097 0 156.334
-3943.77 -7.27801 0 156.245
-4573.35 -10.5715 0 220.501
-4531.24 -10.6442 0 220.231
-3246.66 -4.22463 0 96.6166
-3276.8 -4.2673 0 96.8069
-4552.29 -10.6083 0 220.372
-3889.58 -7.29553 0 155.916
-3261.73 -4.24615 0 96.7161
-3925.71 -7.28445 0 156.146
-3907.64 -7.29029 0 156.036
-4531.24 -10.6442 0 220.231
-4489.14 -10.7136 0 219.912
-3216.53 -4.18042 0 96.3916
-3246.66 -4.22463 0 96.6166
-4510.19 -10.6793 0 220.078
-3853.46 -7.3042 0 155.644
-3231.59 -4.20272 0 96.5084
-3889.58 -7.29553 0 155.916
-3871.52 -7.30017 0 155.785
-4489.14 -10.7136 0 219.912
-4447.04 -10.7795 0 219.546
-3186.39 -4.13465 0 96.1321
-3216.53 -4.18042 0 96.3916
-4468.09 -10.747 0 219.735
-3817.33 -7.31041 0 155.331
-3201.46 -4.15773 0 96.2661
-3853.46 -7.3042 0 155.644
-3835.39 -7.30761 0 155.492
-4447.04 -10.7795 0 219.546
-4404.94 -10.842 0 219.131
-3156.26 -4.0873 0 95.8385
-3186.39 -4.13465 0 96.1321
-4425.99 -10.8112 0 219.344
-3781.22 -7.31416 0 154.976
-3171.33 -4.11117 0 95.9896
-3817.33 -7.31041 0 155.331
-3799.27 -7.3126 0 155.159
-4404.94 -10.842 0 219.131
-4362.84 -10.9011 0 218.669
-3126.14 -4.03835 0 95.5111
-3156.26 -4.0873 0 95.8385
-4383.89 -10.872 0 218.906
-3745.1 -7.31541 0 154.582
-3141.2 -4.06302 0 95.679
-3781.22 -7.31416 0 154.976
-3763.16 -7.3151 0 154.784
-4362.84 -10.9011 0 218.669
-4320.75 -10.9566 0 218.161
-3096.01 -3.98778 0 95.1503
-3126.14 -4.03835 0 95.5111
-4341.8 -10.9293 0 218.421
-3708.98 -7.31414 0 154.147
-3111.07 -4.01327 0 95.3349
-3745.1 -7.31541 0 154.582
-3727.04 -7.31509 0 154.37
-4320.75 -10.9566 0 218.161
-4278.66 -11.0087 0 217.606
-3065.89 -3.93558 0 94.7563
-3096.01 -3.98778 0 95.1503
-4299.7 -10.9831 0 217.889
-3672.87 -7.31034 0 153.673
-3080.95 -3.96188 0 94.9574
-3708.98 -7.31414 0 154.147
-3690.93 -7.31256 0 153.915
-4278.66 -11.0087 0 217.606
-4236.57 -11.0572 0 217.005
-3035.77 -3.88172 0 94.3295
-3065.89 -3.93558 0 94.7563
-4257.61 -11.0333 0 217.311
-3636.76 -7.30398 0 153.159
-3050.83 -3.90886 0 94.547
-3672.87 -7.31034 0 153.673
-3654.82 -7.30748 0 153.421
-4236.57 -11.0572 0 217.005
-4194.48 -11.1021 0 216.359
-3005.65 -3.82621 0 93.8702
-3035.77 -3.88172 0 94.3295
-4215.52 -11.0801 0 216.688
-3600.65 -7.29505 0 152.606
-3020.71 -3.85417 0 94.1039
-3636.76 -7.30398 0 153.159
-3618.71 -7.29984 0 152.887
-4194.48 -11.1021 0 216.359
-4152.39 -11.1435 0 215.668
-2975.53 -3.76901 0 93.3787
-3005.65 -3.82621 0 93.8702
-4173.44 -11.1233 0 216.019
-3564.55 -7.28353 0 152.015
-2990.59 -3.79782 0 93.6284
-3600.65 -7.29505 0 152.606
-3582.6 -7.28961 0 152.315
-4152.39 -11.1435 0 215.668
-4110.31 -11.1813 0 214.932
-2945.42 -3.71012 0 92.8553
-2975.53 -3.76901 0 93.3787
-4131.35 -11.1628 0 215.305
-3528.44 -7.26941 0 151.385
-2960.48 -3.73978 0 93.121
-3564.55 -7.28353 0 152.015
-3546.5 -7.27679 0 151.704
-4110.31 -11.1813 0 214.932
-4068.23 -11.2155 0 214.152
-2915.31 -3.64954 0 92.3005
-2945.42 -3.71012 0 92.8553
-4089.27 -11.1988 0 214.548
-3492.34 -7.25267 0 150.717
-2930.36 -3.68004 0 92.5818
-3528.44 -7.26941 0 151.385
-3510.39 -7.26136 0 151.056
-4068.23 -11.2155 0 214.152
-4026.15 -11.2461 0 213.329
-2885.2 -3.58724 0 91.7144
-2915.31 -3.64954 0 92.3005
-4047.19 -11.2312 0 213.746
-3456.25 -7.2333 0 150.013
-2900.25 -3.6186 0 92.0113
-3492.34 -7.25267 0 150.717
-3474.29 -7.24331 0 150.37
-4026.15 -11.2461 0 213.329
-3984.08 -11.273 0 212.462
-2855.09 -3.52322 0 91.0974
-2885.2 -3.58724 0 91.7144
-4005.12 -11.26 0 212.901
-3420.15 -7.21129 0 149.271
-2870.14 -3.55544 0 91.4098
-3456.25 -7.2333 0 150.013
-3438.2 -7.22262 0 149.646
-3984.08 -11.273 0 212.462
-3942 -11.2963 0 211.552
-2824.98 -3.45747 0 90.4499
-2855.09 -3.52322 0 91.0974
-3963.04 -11.2851 0 212.012
-3384.06 -7.18663 0 148.492
-2840.04 -3.49056 0 90.7775
-3420.15 -7.21129 0 149.271
-3402.1 -7.19929 0 148.886
-3942 -11.2963 0 211.552
-3899.93 -11.316 0 210.601
-2794.88 -3.38999 0 89.7722
-2824.98 -3.45747 0 90.4499
-3920.97 -11.3066 0 211.082
-3347.96 -7.15932 0 147.677
-2809.93 -3.42394 0 90.1148
-3384.06 -7.18663 0 148.492
-3366.01 -7.17331 0 148.089
-3899.93 -11.316 0 210.601
-3857.87 -11.332 0 209.607
-2764.78 -3.32076 0 89.0645
-2794.88 -3.38999 0 89.7722
-3878.9 -11.3244 0 210.109
-3311.88 -7.12934 0 146.827
-2779.83 -3.35559 0 89.4221
-3347.96 -7.15932 0 147.677
-3329.92 -7.14466 0 147.257
-3857.87 -11.332 0 209.607
-3815.8 -11.3443 0 208.572
-2734.68 -3.2498 0 88.3273
-2764.78 -3.32076 0 89.0645
-3836.83 -11.3386 0 209.095
-3275.79 -7.0967 0 145.941
-2749.73 -3.2855 0 88.6996
-3311.88 -7.12934 0 146.827
-3293.83 -7.11335 0 146.388
-3815.8 -11.3443 0 208.572
-3773.74 -11.3529 0 207.496
-2704.59 -3.17708 0 87.5608
-2734.68 -3.2498 0 88.3273
-3794.77 -11.3491 0 208.039
-3239.71 -7.06138 0 145.019
-2719.63 -3.21366 0 87.9477
-3275.79 -7.0967 0 145.941
-3257.75 -7.07937 0 145.484
-3773.74 -11.3529 0 207.496
-3731.67 -11.3579 0 206.38
-2674.49 -3.10262 0 86.7654
-2704.59 -3.17708 0 87.5608
-3752.7 -11.3559 0 206.943
-3203.62 -7.02339 0 144.063
-2689.54 -3.14007 0 87.1667
-3239.71 -7.06138 0 145.019
-3221.66 -7.04272 0 144.546
-3731.67 -11.3579 0 206.38
-3689.62 -11.3593 0 205.224
-2644.4 -3.0264 0 85.9413
-2674.49 -3.10262 0 86.7654
-3710.64 -11.3591 0 205.807
-3167.54 -6.98272 0 143.073
-2659.45 -3.06473 0 86.3569
-3203.62 -7.02339 0 144.063
-3185.58 -7.00339 0 143.572
-3689.62 -11.3593 0 205.224
-3647.56 -11.3569 0 204.028
-2614.31 -2.94843 0 85.089
-2644.4 -3.0264 0 85.9413
-3668.59 -11.3585 0 204.631
-3131.47 -6.93938 0 142.049
-2629.36 -2.98763 0 85.5187
-3167.54 -6.98272 0 143.073
-3149.51 -6.96138 0 142.565
-3647.56 -11.3569 0 204.028
-3605.51 -11.3509 0 202.793
-2584.22 -2.86871 0 84.2086
-2614.31 -2.94843 0 85.089
-3626.53 -11.3543 0 203.415
-3095.39 -6.89335 0 140.991
-2599.27 -2.90879 0 84.6523
-3131.47 -6.93938 0 142.049
-3113.43 -6.9167 0 141.524
-3605.51 -11.3509 0 202.793
-3563.45 -11.3412 0 201.519
-2554.14 -2.78723 0 83.3007
-2584.22 -2.86871 0 84.2086
-3584.48 -11.3465 0 202.161
-3059.32 -6.84466 0 139.9
-2569.18 -2.82819 0 83.7581
-3095.39 -6.89335 0 140.991
-3077.36 -6.86934 0 140.45
-3563.45 -11.3412 0 201.519
-3521.4 -11.3278 0 200.207
-2524.06 -2.70402 0 82.3654
-2554.14 -2.78723 0 83.3007
-3542.43 -11.3349 0 200.868
-3023.25 -6.79329 0 138.777
-2539.1 -2.74584 0 82.8364
-3059.32 -6.84466 0 139.9
-3041.29 -6.81931 0 139.342
-3521.4 -11.3278 0 200.207
-3479.36 -11.3108 0 198.858
-2493.98 -2.61905 0 81.4031
-2524.06 -2.70402 0 82.3654
-3500.38 -11.3197 0 199.537
-2987.18 -6.73926 0 137.62
-2509.02 -2.66175 0 81.8876
-3023.25 -6.79329 0 138.777
-3005.22 -6.76661 0 138.203
-3479.36 -11.3108 0 198.858
-3437.31 -11.2901 0 197.471
-2463.9 -2.53235 0 80.4141
-2493.98 -2.61905 0 81.4031
-3458.33 -11.3009 0 198.169
-2951.12 -6.68256 0 136.432
-2478.94 -2.57592 0 80.9119
-2987.18 -6.73926 0 137.62
-2969.15 -6.71124 0 137.03
-3437.31 -11.2901 0 197.471
-3395.27 -11.2657 0 196.047
-2433.82 -2.44392 0 79.3987
-2463.9 -2.53235 0 80.4141
-3416.29 -11.2784 0 196.763
-2915.06 -6.62321 0 135.213
-2448.86 -2.48835 0 79.9097
-2951.12 -6.68256 0 136.432
-2933.09 -6.65322 0 135.826
-3395.27 -11.2657 0 196.047
-3353.23 -11.2378 0 194.587
-2403.75 -2.35375 0 78.3574
-2433.82 -2.44392 0 79.3987
-3374.25 -11.2522 0 195.321
-2878.99 -6.56121 0 133.962
-2418.79 -2.39905 0 78.8813
-2915.06 -6.62321 0 135.213
-2897.02 -6.59254 0 134.591
-3353.23 -11.2378 0 194.587
-3311.19 -11.2062 0 193.09
-2373.68 -2.26187 0 77.2903
-2403.75 -2.35375 0 78.3574
-3332.21 -11.2224 0 193.843
-2842.94 -6.49658 0 132.68
-2388.71 -2.30803 0 77.827
-2878.99 -6.56121 0 133.962
-2860.97 -6.52923 0 133.325
-3311.19 -11.2062 0 193.09
-3269.16 -11.171 0 191.559
-2343.61 -2.16828 0 76.1978
-2373.68 -2.26187 0 77.2903
-3290.18 -11.189 0 192.329
-2806.88 -6.42932 0 131.368
-2358.64 -2.21529 0 76.7472
-2842.94 -6.49658 0 132.68
-2824.91 -6.46328 0 132.028
-3269.16 -11.171 0 191.559
-3227.12 -11.1321 0 189.992
-2313.54 -2.07299 0 75.0802
-2343.61 -2.16828 0 76.1978
-3248.14 -11.152 0 190.78
-2770.83 -6.35944 0 130.026
-2328.58 -2.12084 0 75.6421
-2806.88 -6.42932 0 131.368
-2788.85 -6.39471 0 130.701
-3227.12 -11.1321 0 189.992
-3185.09 -11.0897 0 188.391
-2283.48 -1.976 0 73.9379
-2313.54 -2.07299 0 75.0802
-3206.11 -11.1114 0 189.196
-2734.78 -6.28696 0 128.654
-2298.51 -2.0247 0 74.5122
-2770.83 -6.35944 0 130.026
-2752.8 -6.32352 0 129.343
-3185.09 -11.0897 0 188.391
-3143.07 -11.0437 0 186.755
-2253.42 -1.87733 0 72.7712
-2283.48 -1.976 0 73.9379
-3164.08 -11.0672 0 187.577
-2698.73 -6.21189 0 127.253
-2268.45 -1.92687 0 73.3576
-2734.78 -6.28696 0 128.654
-2716.75 -6.24974 0 127.957
-3143.07 -11.0437 0 186.755
-3101.04 -10.9942 0 185.086
-2223.35 -1.77699 0 71.5804
-2253.42 -1.87733 0 72.7712
-3122.05 -11.0194 0 185.925
-2662.68 -6.13424 0 125.822
-2238.38 -1.82737 0 72.1788
-2698.73 -6.21189 0 127.253
-2680.7 -6.17338 0 126.541
-3101.04 -10.9942 0 185.086
-3059.02 -10.9411 0 183.384
-2193.3 -1.675 0 70.3658
-2223.35 -1.77699 0 71.5804
-3080.03 -10.9681 0 184.239
-2626.63 -6.05402 0 124.364
-2208.33 -1.7262 0 70.976
-2662.68 -6.13424 0 125.822
-2644.66 -6.09445 0 125.097
-3059.02 -10.9411 0 183.384
-3016.99 -10.8845 0 181.648
-2163.24 -1.57137 0 69.1277
-2193.3 -1.675 0 70.3658
-3038 -10.9133 0 182.52
-2590.59 -5.97127 0 122.877
-2178.27 -1.62339 0 69.7496
-2626.63 -6.05402 0 124.364
-2608.61 -6.01296 0 123.624
-3016.99 -10.8845 0 181.648
-2974.97 -10.8244 0 179.881
-2133.19 -1.4661 0 67.8665
-2163.24 -1.57137 0 69.1277
-2995.98 -10.8549 0 180.769
-2554.55 -5.88598 0 121.362
-2148.21 -1.51894 0 68.5
-2590.59 -5.97127 0 122.877
-2572.57 -5.92894 0 122.123
-2974.97 -10.8244 0 179.881
-2932.96 -10.7609 0 178.081
-2103.13 -1.35923 0 66.5824
-2133.19 -1.4661 0 67.8665
-2953.96 -10.7931 0 178.985
-2518.51 -5.79819 0 119.821
-2118.16 -1.41287 0 67.2273
-2554.55 -5.88598 0 121.362
-2536.53 -5.8424 0 120.595
-2932.96 -10.7609 0 178.081
-2890.94 -10.6938 0 176.25
-2073.08 -1.25075 0 65.2759
-2103.13 -1.35923 0 66.5824
-2911.95 -10.7278 0 177.17
-2482.48 -5.70791 0 118.252
-2088.11 -1.30519 0 65.932
-2518.51 -5.79819 0 119.821
-2500.5 -5.75336 0 119.04
-2890.94 -10.6938 0 176.25
-2848.93 -10.6234 0 174.388
-2043.04 -1.1407 0 63.9472
-2073.08 -1.25075 0 65.2759
-2869.93 -10.659 0 175.323
-2446.44 -5.61515 0 116.656
-2058.06 -1.19592 0 64.6143
-2482.48 -5.70791 0 118.252
-2464.46 -5.66184 0 117.457
-2848.93 -10.6234 0 174.388
-2806.92 -10.5495 0 172.496
-2012.99 -1.02909 0 62.5967
-2043.04 -1.1407 0 63.9472
-2827.92 -10.5869 0 173.446
-2410.41 -5.51995 0 115.035
-2028.01 -1.08509 0 63.2747
-2446.44 -5.61515 0 116.656
-2428.43 -5.56786 0 115.849
-2806.92 -10.5495 0 172.496
-2764.91 -10.4723 0 170.573
-1982.95 -0.915926 0 61.2246
-2012.99 -1.02909 0 62.5967
-2785.91 -10.5113 0 171.538
-2374.38 -5.42232 0 113.387
-1997.97 -0.972698 0 61.9133
-2410.41 -5.51995 0 115.035
-2392.4 -5.47144 0 114.214
-2764.91 -10.4723 0 170.573
-2722.9 -10.3916 0 168.621
-1952.9 -0.801242 0 59.8313
-1982.95 -0.915926 0 61.2246
-2743.9 -10.4324 0 169.601
-2338.35 -5.32229 0 111.714
-1967.92 -0.858774 0 60.5306
-2374.38 -5.42232 0 113.387
-2356.37 -5.37261 0 112.554
-2722.9 -10.3916 0 168.621
-2680.89 -10.3077 0 166.64
-1922.86 -0.685054 0 58.4171
-1952.9 -0.801242 0 59.8313
-2701.9 -10.3501 0 167.634
-2302.33 -5.21988 0 110.016
-1937.88 -0.743335 0 59.1268
-2338.35 -5.32229 0 111.714
-2320.34 -5.27138 0 110.869
-2680.89 -10.3077 0 166.64
-2638.89 -10.2205 0 164.629
-1892.83 -0.567381 0 56.9824
-1922.86 -0.685054 0 58.4171
-2659.89 -10.2645 0 165.638
-2266.3 -5.11512 0 108.294
-1907.84 -0.626402 0 57.7023
-2302.33 -5.21988 0 110.016
-2284.32 -5.16779 0 109.158
-2638.89 -10.2205 0 164.629
-2596.89 -10.13 0 162.591
-1862.79 -0.448246 0 55.5274
-1892.83 -0.567381 0 56.9824
-2617.89 -10.1757 0 163.614
-2230.28 -5.00802 0 106.547
-1877.81 -0.507995 0 56.2574
-2266.3 -5.11512 0 108.294
-2248.29 -5.06186 0 107.423
-2596.89 -10.13 0 162.591
-2554.89 -10.0363 0 160.525
-1832.75 -0.327671 0 54.0525
-1862.79 -0.448246 0 55.5274
-2575.89 -10.0835 0 161.561
-2194.26 -4.89863 0 104.776
-1847.77 -0.388137 0 54.7924
-2230.28 -5.00802 0 106.547
-2212.27 -4.95361 0 105.665
-2554.89 -10.0363 0 160.525
-2512.89 -9.93934 0 158.431
-1802.72 -0.205678 0 52.5579
-1832.75 -0.327671 0 54.0525
-2533.89 -9.9882 0 159.481
-2158.24 -4.78696 0 102.982
-1817.74 -0.26685 0 53.3076
-2194.26 -4.89863 0 104.776
-2176.25 -4.84308 0 103.882
-2512.89 -9.93934 0 158.431
-2470.89 -9.83923 0 156.31
-1772.69 -0.0822912 0 51.0441
-1802.72 -0.205678 0 52.5579
-2491.89 -9.88968 0 157.374
-2122.23 -4.67304 0 101.165
-1787.71 -0.144157 0 51.8034
-2158.24 -4.78696 0 102.982
-2140.24 -4.73028 0 102.076
-2470.89 -9.83923 0 156.31
-2428.9 -9.73599 0 154.163
-1742.66 0.0424652 0 49.5113
-1772.69 -0.0822912 0 51.0441
-2449.89 -9.788 0 155.24
-2086.21 -4.55691 0 99.3245
-1757.68 -0.0200826 0 50.2801
-2122.23 -4.67304 0 101.165
-2104.22 -4.61525 0 100.247
-2428.9 -9.73599 0 154.163
-2386.9 -9.62965 0 151.99
-1712.64 0.168566 0 47.9599
-1742.66 0.0424652 0 49.5113
-2407.9 -9.68321 0 153.08
-2050.2 -4.43859 0 97.4621
-1727.65 0.105349 0 48.7379
-2086.21 -4.55691 0 99.3245
-2068.21 -4.49802 0 98.3961
-2386.9 -9.62965 0 151.99
-2344.91 -9.52024 0 149.791
-1682.61 0.295987 0 46.3902
-1712.64 0.168566 0 47.9599
-2365.91 -9.57533 0 150.893
-2014.19 -4.31811 0 95.5776
-1697.62 0.232113 0 47.1773
-2050.2 -4.43859 0 97.4621
-2032.19 -4.37862 0 96.5226
-2344.91 -9.52024 0 149.791
-2302.92 -9.4078 0 147.567
-1652.59 0.4247 0 44.8024
-1682.61 0.295987 0 46.3902
-2323.92 -9.4644 0 148.682
-1978.18 -4.19551 0 93.6716
-1667.6 0.360183 0 45.5985
-2014.19 -4.31811 0 95.5776
-1996.18 -4.25708 0 94.6273
-2302.92 -9.4078 0 147.567
-2260.93 -9.29238 0 145.318
-1622.56 0.554679 0 43.197
-1652.59 0.4247 0 44.8024
-2281.93 -9.35046 0 146.446
-1942.17 -4.07082 0 91.7444
-1637.57 0.489533 0 44.0019
-1978.18 -4.19551 0 93.6716
-1960.17 -4.13343 0 92.7107
-2260.93 -9.29238 0 145.318
-2218.95 -9.174 0 143.045
-1592.54 0.685896 0 41.5742
-1622.56 0.554679 0 43.197
-2239.94 -9.23355 0 144.185
-1906.16 -3.94407 0 89.7964
-1607.55 0.620134 0 42.3878
-1942.17 -4.07082 0 91.7444
-1924.17 -4.0077 0 90.773
-2218.95 -9.174 0 143.045
-2176.96 -9.0527 0 140.748
-1562.52 0.818324 0 39.9344
-1592.54 0.685896 0 41.5742
-2197.95 -9.11371 0 141.9
-1870.16 -3.81529 0 87.828
-1577.53 0.751961 0 40.7564
-1906.16 -3.94407 0 89.7964
-1888.16 -3.87993 0 88.8147
-2176.96 -9.0527 0 140.748
-2134.98 -8.92853 0 138.428
-1532.51 0.951933 0 38.2779
-1562.52 0.818324 0 39.9344
-2155.97 -8.99097 0 139.591
-1834.16 -3.68452 0 85.8395
-1547.51 0.884983 0 39.1082
-1870.16 -3.81529 0 87.828
-1852.16 -3.75015 0 86.8362
-2134.98 -8.92853 0 138.428
-2092.99 -8.80153 0 136.085
-1502.49 1.08669 0 36.6049
-1532.51 0.951933 0 38.2779
-2113.98 -8.86539 0 137.259
-1798.15 -3.55179 0 83.8313
-1517.5 1.01917 0 37.4434
-1834.16 -3.68452 0 85.8395
-1816.15 -3.6184 0 84.8379
-2092.99 -8.80153 0 136.085
-2051.01 -8.67174 0 133.72
-1472.47 1.22258 0 34.9159
-1502.49 1.08669 0 36.6049
-2072 -8.73699 0 134.905
-1762.15 -3.41715 0 81.8039
-1487.48 1.1545 0 35.7624
-1798.15 -3.55179 0 83.8313
-1780.15 -3.48471 0 82.82
-2051.01 -8.67174 0 133.72
-2009.03 -8.53921 0 131.332
-1442.46 1.35955 0 33.2111
-1472.47 1.22258 0 34.9159
-2030.02 -8.60582 0 132.528
-1726.15 -3.28062 0 79.7576
-1457.47 1.29093 0 34.0654
-1762.15 -3.41715 0 81.8039
-1744.15 -3.34911 0 80.7831
-2009.03 -8.53921 0 131.332
-1967.05 -8.40397 0 128.923
-1412.45 1.49759 0 31.4909
-1442.46 1.35955 0 33.2111
-1988.04 -8.47192 0 130.13
-1690.16 -3.14224 0 77.6928
-1427.46 1.42844 0 32.3529
-1726.15 -3.28062 0 79.7576
-1708.16 -3.21166 0 78.7275
-1967.05 -8.40397 0 128.923
-1925.07 -8.26607 0 126.493
-1382.44 1.63665 0 29.7555
-1412.45 1.49759 0 31.4909
-1946.06 -8.33535 0 127.71
-1654.16 -3.00206 0 75.6099
-1397.44 1.567 0 30.6251
-1690.16 -3.14224 0 77.6928
-1672.16 -3.07237 0 76.6536
-1925.07 -8.26607 0 126.493
-1883.1 -8.12556 0 124.042
-1352.43 1.77672 0 28.0054
-1382.44 1.63665 0 29.7555
-1904.08 -8.19614 0 125.27
-1618.16 -2.86011 0 73.5092
-1367.43 1.70656 0 28.8823
-1654.16 -3.00206 0 75.6099
-1636.16 -2.9313 0 74.5617
-1883.1 -8.12556 0 124.042
-1841.12 -7.98247 0 121.57
-1322.42 1.91774 0 26.2408
-1352.43 1.77672 0 28.0054
-1862.11 -8.05433 0 122.808
-1582.17 -2.71642 0 71.3912
-1337.43 1.84711 0 27.1249
-1618.16 -2.86011 0 73.5092
-1600.17 -2.78848 0 72.4523
-1841.12 -7.98247 0 121.57
-1799.14 -7.83687 0 119.079
-1292.42 2.0597 0 24.462
-1322.42 1.91774 0 26.2408
-1820.13 -7.90998 0 120.327
-1546.18 -2.57105 0 69.2562
-1307.42 1.98861 0 25.3531
-1582.17 -2.71642 0 71.3912
-1564.17 -2.64395 0 70.3258
-1799.14 -7.83687 0 119.079
-1757.17 -7.68879 0 116.569
-1262.41 2.20256 0 22.6693
-1292.42 2.0597 0 24.462
-1778.16 -7.76314 0 117.827
-1510.19 -2.42403 0 67.1046
-1277.41 2.13102 0 23.5674
-1546.18 -2.57105 0 69.2562
-1528.18 -2.49774 0 68.1824
-1757.17 -7.68879 0 116.569
-1715.2 -7.53828 0 114.04
-1232.41 2.34627 0 20.8632
-1262.41 2.20256 0 22.6693
-1736.18 -7.61384 0 115.307
-1474.19 -2.2754 0 64.9368
-1247.41 2.27431 0 21.7679
-1510.19 -2.42403 0 67.1046
-1492.19 -2.34991 0 66.0227
-1715.2 -7.53828 0 114.04
-1673.22 -7.3854 0 111.492
-1202.4 2.49082 0 19.0438
-1232.41 2.34627 0 20.8632
-1694.21 -7.46214 0 112.768
-1438.2 -2.1252 0 62.7532
-1217.4 2.41845 0 19.9552
-1474.19 -2.2754 0 64.9368
-1456.2 -2.20049 0 63.8469
-1673.22 -7.3854 0 111.492
-1631.25 -7.23019 0 108.927
-1172.4 2.63616 0 17.2116
-1202.4 2.49082 0 19.0438
-1652.24 -7.30808 0 110.212
-1402.22 -1.97347 0 60.5541
-1187.4 2.56339 0 18.1293
-1438.2 -2.1252 0 62.7532
-1420.21 -2.04952 0 61.6555
-1631.25 -7.23019 0 108.927
-1589.28 -7.07269 0 106.344
-1142.4 2.78226 0 15.3668
-1172.4 2.63616 0 17.2116
-1610.27 -7.15172 0 107.637
-1366.23 -1.82027 0 58.34
-1157.4 2.70912 0 16.2908
-1402.22 -1.97347 0 60.5541
-1384.22 -1.89705 0 59.4489
-1589.28 -7.07269 0 106.344
-1547.31 -6.91297 0 103.743
-1112.4 2.92908 0 13.5098
-1142.4 2.78226 0 15.3668
-1568.29 -6.99311 0 105.046
-1330.24 -1.66562 0 56.1112
-1127.4 2.85558 0 14.4398
-1366.23 -1.82027 0 58.34
-1348.23 -1.74312 0 57.2274
-1547.31 -6.91297 0 103.743
-1505.34 -6.75107 0 101.126
-1082.4 3.07658 0 11.6408
-1112.4 2.92908 0 13.5098
-1526.32 -6.83229 0 102.437
-1294.25 -1.50958 0 53.8682
-1097.4 3.00275 0 12.5768
-1330.24 -1.66562 0 56.1112
-1312.25 -1.58777 0 54.9915
-1505.34 -6.75107 0 101.126
-1463.37 -6.58705 0 98.4934
-1052.4 3.22473 0 9.76026
-1082.4 3.07658 0 11.6408
-1484.35 -6.66932 0 99.8119
-1258.27 -1.35219 0 51.6112
-1067.4 3.15058 0 10.702
-1294.25 -1.50958 0 53.8682
-1276.26 -1.43105 0 52.7414
-1463.37 -6.58705 0 98.4934
-1421.4 -6.42095 0 95.8445
-1022.4 3.37349 0 7.86841
-1052.4 3.22473 0 9.76026
-1442.38 -6.50425 0 97.1709
-1222.28 -1.19349 0 49.3407
-1037.4 3.29904 0 8.81573
-1258.27 -1.35219 0 51.6112
-1240.28 -1.273 0 50.4776
-1421.4 -6.42095 0 95.8445
-1379.43 -6.25283 0 93.1804
-992.408 3.52283 0 5.9656
-1022.4 3.37349 0 7.86841
-1400.42 -6.33714 0 94.5143
-1186.3 -1.03354 0 47.0571
-1007.41 3.44809 0 6.91836
-1222.28 -1.19349 0 49.3407
-1204.29 -1.11367 0 48.2005
-1379.43 -6.25283 0 93.1804
-1337.46 -6.08274 0 90.5013
-962.413 3.67269 0 4.05216
-992.408 3.52283 0 5.9656
-1358.45 -6.16803 0 91.8427
-1150.32 -0.872367 0 44.7607
-977.41 3.59769 0 5.01019
-1186.3 -1.03354 0 47.0571
-1168.31 -0.953101 0 45.9105
-1337.46 -6.08274 0 90.5013
-1295.49 -5.91074 0 87.8079
-932.417 3.82305 0 2.12839
-962.413 3.67269 0 4.05216
-1316.48 -5.99698 0 89.1564
-1114.33 -0.710029 0 42.452
-947.415 3.74781 0 3.09154
-1150.32 -0.872367 0 44.7607
-1132.32 -0.791341 0 43.6079
-1295.49 -5.91074 0 87.8079
-1253.53 -5.73688 0 85.1005
-902.423 3.97385 0 0.194629
-932.417 3.82305 0 2.12839
-1274.51 -5.82404 0 86.4559
-1078.35 -0.546571 0 40.1313
-917.42 3.8984 0 1.16274
-1114.33 -0.710029 0 42.452
-1096.34 -0.628437 0 41.2931
-1253.53 -5.73688 0 85.1005
-1211.56 -5.56122 0 82.3796
-872.429 4.12507 0 -1.7488
-902.423 3.97385 0 0.194629
-1232.54 -5.64927 0 83.7417
-1042.37 -0.382042 0 37.799
-887.426 4.04941 0 -0.775897
-1078.35 -0.546571 0 40.1313
-1060.36 -0.464438 0 38.9666
-1211.56 -5.56122 0 82.3796
-1169.59 -5.38381 0 79.6456
-842.436 4.27665 0 -3.70157
-872.429 4.12507 0 -1.7488
-1190.57 -5.47273 0 81.0142
-1006.39 -0.216491 0 35.4555
-857.433 4.20082 0 -2.72404
-1042.37 -0.382042 0 37.799
-1024.38 -0.299391 0 36.6286
-1169.59 -5.38381 0 79.6456
-1127.62 -5.2047 0 76.899
-812.444 4.42856 0 -5.66335
-842.436 4.27665 0 -3.70157
-1148.61 -5.29446 0 78.2739
-970.404 -0.0499659 0 33.1012
-827.44 4.35256 0 -4.68135
-1006.39 -0.216491 0 35.4555
-988.394 -0.133347 0 34.2797
-1127.62 -5.2047 0 76.899
-1085.65 -5.02396 0 74.1402
-782.452 4.58074 0 -7.63381
-812.444 4.42856 0 -5.66335
-1106.64 -5.11453 0 75.5211
-934.422 0.117482 0 30.7365
-797.448 4.50462 0 -6.64751
-970.404 -0.0499659 0 33.1012
-952.413 0.0336458 0 31.9201
-1085.65 -5.02396 0 74.1402
-1043.69 -4.84164 0 71.3698
-752.46 4.73317 0 -9.61262
-782.452 4.58074 0 -7.63381
-1064.67 -4.93299 0 72.7564
-898.441 0.285804 0 28.3617
-767.456 4.65693 0 -8.62219
-934.422 0.117482 0 30.7365
-916.432 0.201537 0 29.5503
-1043.69 -4.84164 0 71.3698
-1001.72 -4.65779 0 68.588
-722.469 4.8858 0 -11.5995
-752.46 4.73317 0 -9.61262
-1022.7 -4.7499 0 69.9803
-862.461 0.454951 0 25.9773
-737.465 4.80946 0 -10.6051
-898.441 0.285804 0 28.3617
-880.451 0.370277 0 27.1707
-1001.72 -4.65779 0 68.588
-959.749 -4.47248 0 65.7954
-692.479 5.03861 0 -13.594
-722.469 4.8858 0 -11.5995
-980.733 -4.56532 0 67.193
-826.48 0.624878 0 23.5836
-707.474 4.96218 0 -12.5958
-862.461 0.454951 0 25.9773
-844.47 0.539819 0 24.7816
-959.749 -4.47248 0 65.7954
-917.781 -4.28577 0 62.9925
-662.488 5.19158 0 -15.596
-692.479 5.03861 0 -13.594
-938.765 -4.3793 0 64.3952
-790.5 0.795544 0 21.1811
-677.483 5.11508 0 -14.5941
-826.48 0.624878 0 23.5836
-808.49 0.710121 0 22.3835
-917.781 -4.28577 0 62.9925
-875.813 -4.09771 0 60.1796
-632.499 5.34474 0 -17.605
-662.488 5.19158 0 -15.596
-896.797 -4.1919 0 61.5872
-754.52 0.966918 0 18.7701
-647.493 5.26814 0 -16.5996
-790.5 0.795544 0 21.1811
-772.51 0.881144 0 19.9766
-875.813 -4.09771 0 60.1796
-833.845 -3.90837 0 57.3573
-602.509 5.49811 0 -19.6211
-632.499 5.34474 0 -17.605
-854.829 -4.0032 0 58.7696
-718.54 1.13898 0 16.3508
-617.504 5.42139 0 -18.6122
-754.52 0.966918 0 18.7701
-736.53 1.05286 0 17.5614
-833.845 -3.90837 0 57.3573
-791.876 -3.71782 0 54.5259
-572.52 5.65175 0 -21.6439
-602.509 5.49811 0 -19.6211
-812.86 -3.81324 0 55.9427
-682.56 1.31173 0 13.9235
-587.514 5.57489 0 -20.6316
-718.54 1.13898 0 16.3508
-700.55 1.22527 0 15.1381
-791.876 -3.71782 0 54.5259
-749.906 -3.52612 0 51.6859
-542.53 5.80575 0 -23.6734
-572.52 5.65175 0 -21.6439
-770.891 -3.62212 0 53.107
-646.579 1.48517 0 11.4885
-557.525 5.7287 0 -22.6578
-682.56 1.31173 0 13.9235
-664.57 1.39837 0 12.7069
-749.906 -3.52612 0 51.6859
-707.935 -3.33335 0 48.8377
-512.541 5.96006 0 -25.7096
-542.53 5.80575 0 -23.6734
-728.921 -3.42984 0 50.2628
-610.598 1.65932 0 9.04578
-527.536 5.88288 0 -24.6907
-646.579 1.48517 0 11.4885
-628.589 1.57215 0 10.2681
-707.935 -3.33335 0 48.8377
-665.961 -3.13964 0 45.9816
-482.552 6.11446 0 -27.7524
-512.541 5.96006 0 -25.7096
-686.949 -3.23666 0 47.4107
-574.615 1.83406 0 6.59561
-497.547 6.03728 0 -26.7302
-610.598 1.65932 0 9.04578
-592.607 1.74664 0 7.82161
-665.961 -3.13964 0 45.9816
-623.982 -2.94478 0 43.1179
-452.562 6.26787 0 -29.801
-482.552 6.11446 0 -27.7524
-644.972 -3.04221 0 44.5506
-538.631 2.00926 0 4.13857
-467.557 6.19142 0 -28.7761
-574.615 1.83406 0 6.59561
-556.623 1.9216 0 5.36791
-623.982 -2.94478 0 43.1179
-581.998 -2.74971 0 40.2467
-422.572 6.41802 0 -31.8539
-452.562 6.26787 0 -29.801
-602.991 -2.84765 0 41.6835
-502.645 2.18387 0 1.67586
-437.567 6.34356 0 -30.8271
-538.631 2.00926 0 4.13857
-520.637 2.09677 0 2.90776
-581.998 -2.74971 0 40.2467
-540.007 -2.5517 0 37.369
-392.581 6.55871 0 -33.9053
-422.572 6.41802 0 -31.8539
-561.004 -2.65022 0 38.8082
-466.658 2.35656 0 -0.788224
-407.576 6.49019 0 -32.8804
-502.645 2.18387 0 1.67586
-484.652 2.27048 0 0.443718
-540.007 -2.5517 0 37.369
-498.023 -2.35739 0 34.483
-362.585 6.67999 0 -35.9463
-392.581 6.55871 0 -33.9053
-519.012 -2.45634 0 35.928
-430.681 2.52213 0 -3.24599
-377.585 6.62272 0 -34.9279
-466.658 2.35656 0 -0.788224
-448.667 2.4409 0 -2.01895
-498.023 -2.35739 0 34.483
-456.048 -2.148 0 31.5958
-332.591 6.75651 0 -37.9507
-362.585 6.67999 0 -35.9463
-477.034 -2.2498 0 33.0375
-394.723 2.67437 0 -5.6772
-347.586 6.72604 0 -36.9558
-430.681 2.52213 0 -3.24599
-412.7 2.59985 0 -4.46602
-456.048 -2.148 0 31.5958
-414.185 -1.96432 0 28.6967
-302.57 6.75837 0 -39.8847
-332.591 6.75651 0 -37.9507
-435.094 -2.06522 0 30.1513
-358.835 2.79341 0 -8.04764
-317.588 6.77005 0 -38.929
-394.723 2.67437 0 -5.6772
-376.764 2.74119 0 -6.875
-414.185 -1.96432 0 28.6967
-372.459 -1.69907 0 25.824
-272.545 6.60099 0 -41.6574
-302.57 6.75837 0 -39.8847
-393.302 -1.81605 0 27.2482
-323.056 2.85744 0 -10.2862
-287.552 6.70478 0 -40.8007
-358.835 2.79341 0 -8.04764
-340.934 2.83021 0 -9.18572
-372.459 -1.69907 0 25.824
-331.337 -1.57493 0 22.925
-242.383 6.23528 0 -43.1844
-272.545 6.60099 0 -41.6574
-351.786 -1.6828 0 24.3924
-287.576 2.80465 0 -12.2711
-257.502 6.45412 0 -42.456
-323.056 2.85744 0 -10.2862
-305.254 2.86015 0 -11.3312
-331.337 -1.57493 0 22.925
-290.885 -1.03784 0 20.1764
-212.147 5.42232 0 -44.2243
-242.383 6.23528 0 -43.1844
-311.014 -1.22393 0 21.4923
-252.476 2.57231 0 -13.8185
-227.251 5.88695 0 -43.7915
-287.576 2.80465 0 -12.2711
-269.996 2.69337 0 -13.0946
-290.885 -1.03784 0 20.1764
-252.87 -1.201 0 17.3349
-181.219 4.28764 0 -44.7143
-212.147 5.42232 0 -44.2243
-271.461 -1.34866 0 18.8339
-218.35 2.00496 0 -14.5617
-196.858 4.92336 0 -44.5306
-252.476 2.57231 0 -13.8185
-235.197 2.3952 0 -14.3727
-252.87 -1.201 0 17.3349
-217.288 0.594353 0 15.1336
-149.734 2.30437 0 -44.2951
-181.219 4.28764 0 -44.7143
-234.69 0.12095 0 15.9668
-185.009 0.971647 0 -14.2782
-165.472 3.32978 0 -44.6626
-218.35 2.00496 0 -14.5617
-201.71 1.44259 0 -14.4637
-217.288 0.594353 0 15.1336
-189.778 -0.887064 0 12.5699
-115.106 1.29769 0 -43.8306
-149.734 2.30437 0 -44.2951
-202.347 -1.25742 0 14.2236
-153.975 -0.780205 0 -12.1071
-133.154 1.73724 0 -43.9511
-185.009 0.971647 0 -14.2782
-168.866 0.450266 0 -13.7317
-189.778 -0.887064 0 12.5699
-170.575 5.49487 0 13.3258
-77.8007 1.44199 0 -44.6072
-115.106 1.29769 0 -43.8306
-178.385 4.68779 0 11.4361
-121.657 -3.00507 0 -9.71378
-96.5581 0.518045 0 -43.9297
-153.975 -0.780205 0 -12.1071
-138.805 -2.34852 0 -10.2993
-170.575 5.49487 0 13.3258
-181.797 -7.55669 0 18.2118
-31.6162 17.9623 0 -55.0099
-77.8007 1.44199 0 -44.6072
-172.428 -5.34636 0 15.9776
-86.5519 -2.13547 0 -9.34119
-56.6384 7.09875 0 -47.7117
-121.657 -3.00507 0 -9.71378
-103.803 -2.6796 0 -9.92277
-181.797 -7.55669 0 18.2118
-247.978 -35.4833 0 61.1977
2.49 82.6568 0 -82.6239
-31.6162 17.9623 0 -55.0099
-199.763 5.76625 0 26.9589
-8.8108 47.0635 0 -47.9746
-11.0889 35.4544 0 -65.9195
-86.5519 -2.13547 0 -9.34119
-59.6407 6.61377 0 -17.696
-247.978 -35.4833 0 61.1977
-42.879 416.439 0 -208.49
-8.62209 308.035 0 -66.0874
2.49 82.6568 0 -82.6239
-259.362 -70.7669 0 32.1799
18.046 393.689 0 -115.533
6.52179 177.836 0 -91.3321
-8.8108 47.0635 0 -47.9746
23.3774 142.39 0 -86.4132
-5558.12 -1675.81 0 -218.062
-5882.58 -639.202 0 -317.926
-3491.69 -616.01 0 -6.48641
-3217.31 -967.8 0 296.305
-5773.99 -1204.39 0 -372.365
-4614.47 -707.314 0 -130.045
-3403.76 -780.022 0 113.211
-4557.94 -1373.08 0 49.7289
-4509.71 -980.279 0 -39.3732
-5882.58 -639.202 0 -317.926
-5968.55 -193.554 0 -143.491
-3556.91 -274.597 0 -98.809
-3491.69 -616.01 0 -6.48641
-5964.17 -330.245 0 -224.894
-4777.54 -280.578 0 -149.129
-3520.77 -432.715 0 -66.4557
-4614.47 -707.314 0 -130.045
-4740.9 -477.782 0 -170.345
-5968.55 -193.554 0 -143.491
-5892.89 -39.7443 0 -43.319
-3590.02 -103.249 0 -114.526
-3556.91 -274.597 0 -98.809
-5923.05 -98.2984 0 -78.1748
-4765.24 -87.2136 0 -94.4267
-3588.77 -171.451 0 -114.05
-4777.54 -280.578 0 -149.129
-4774.51 -155.557 0 -114.572
-5892.89 -39.7443 0 -43.319
-5841.55 -7.12763 0 -18.7351
-3562.49 -24.413 0 -103.07
-3590.02 -103.249 0 -114.526
-5870.11 -15.8433 0 -27.3242
-4719.69 -13.6793 0 -66.4228
-3574.96 -54.3233 0 -108.217
-4765.24 -87.2136 0 -94.4267
-4745.67 -42.2348 0 -79.4594
-5841.55 -7.12763 0 -18.7351
-5790.25 4.92903 0 -14.5526
-3530.54 -1.9273 0 -94.7602
-3562.49 -24.413 0 -103.07
-5811.72 0.670696 0 -14.5322
-4671.08 3.67024 0 -55.9103
-3549.15 -9.35453 0 -98.9285
-4719.69 -13.6793 0 -66.4228
-4693.27 -0.230693 0 -58.5197
-5790.25 4.92903 0 -14.5526
-5754.83 2.58877 0 -18.472
-3493.8 3.29231 0 -88.543
-3530.54 -1.9273 0 -94.7602
-5773.1 4.38776 0 -16.724
-4630.72 5.63001 0 -53.8286
-3510.39 2.31524 0 -91.0006
-4671.08 3.67024 0 -55.9103
-4650.48 5.30085 0 -54.8622
-5754.83 2.58877 0 -18.472
-5720.52 0.37211 0 -21.0779
-3464.21 0.229476 0 -85.204
-3493.8 3.29231 0 -88.543
-5736.62 1.5282 0 -19.794
-4596.18 1.66485 0 -53.8203
-3479.04 2.06316 0 -86.8183
-4630.72 5.63001 0 -53.8286
-4612.53 4.10544 0 -53.5191
-5720.52 0.37211 0 -21.0779
-5689.95 -2.56535 0 -22.4857
-3437.54 -3.26896 0 -82.5463
-3464.21 0.229476 0 -85.204
-5705.42 -1.19736 0 -22.1175
-4566.22 -2.06414 0 -53.7345
-3450.04 -1.48048 0 -83.7328
-4596.18 1.66485 0 -53.8203
-4580.87 -0.394495 0 -53.9715
-5689.95 -2.56535 0 -22.4857
-5659.34 -4.30006 0 -21.9096
-3414.89 -6.45683 0 -80.4369
-3437.54 -3.26896 0 -82.5463
-5674.43 -3.52043 0 -22.3462
-4538.87 -5.07689 0 -52.9113
-3426.05 -5.01747 0 -81.4995
-4566.22 -2.06414 0 -53.7345
-4552.25 -3.65886 0 -53.3739
-5659.34 -4.30006 0 -21.9096
-5629.39 -5.50339 0 -20.2321
-3393.97 -8.4437 0 -78.3593
-3414.89 -6.45683 0 -80.4369
-5644.43 -4.98858 0 -21.2176
-4513.1 -6.91607 0 -51.3648
-3404.14 -7.55856 0 -79.3783
-4538.87 -5.07689 0 -52.9113
-4525.86 -6.14136 0 -52.241
-5629.39 -5.50339 0 -20.2321
-5599.3 -6.11224 0 -17.7069
-3374.51 -9.64724 0 -76.3373
-3393.97 -8.4437 0 -78.3593
-5614.31 -5.85482 0 -19.0342
-4488.16 -7.993 0 -49.3132
-3384.17 -9.14683 0 -77.3555
-4513.1 -6.91607 0 -51.3648
-4500.55 -7.52854 0 -50.3796
-5599.3 -6.11224 0 -17.7069
-5569.28 -6.42641 0 -14.7761
-3355.66 -10.2088 0 -74.2985
-3374.51 -9.64724 0 -76.3373
-5584.31 -6.3038 0 -16.2846
-4463.66 -8.50491 0 -46.9461
-3365.01 -9.98413 0 -75.3148
-4488.16 -7.993 0 -49.3132
-4475.88 -8.30706 0 -48.1631
-5569.28 -6.42641 0 -14.7761
-5539.2 -6.53291 0 -11.614
-3337.23 -10.4141 0 -72.2747
-3355.66 -10.2088 0 -74.2985
-5554.24 -6.496 0 -13.2102
-4439.36 -8.70111 0 -44.4201
-3346.43 -10.3496 0 -73.2866
-4463.66 -8.50491 0 -46.9461
-4451.49 -8.63168 0 -45.694
-5539.2 -6.53291 0 -11.614
-5509.1 -6.54069 0 -8.37657
-3318.95 -10.3954 0 -70.2655
-3337.23 -10.4141 0 -72.2747
-5524.16 -6.54683 0 -10.0008
-4415.16 -8.70918 0 -41.8274
-3328.07 -10.4235 0 -71.2666
-4439.36 -8.70111 0 -44.4201
-4427.26 -8.72273 0 -43.1287
-5509.1 -6.54069 0 -8.37657
-5478.98 -6.49284 0 -5.12683
-3300.77 -10.2664 0 -68.2849
-3318.95 -10.3954 0 -70.2655
-5494.04 -6.52082 0 -6.74935
-4391 -8.62419 0 -39.2269
-3309.86 -10.3415 0 -69.2717
-4415.16 -8.70918 0 -41.8274
-4403.08 -8.67453 0 -40.5253
-5478.98 -6.49284 0 -5.12683
-5448.86 -6.4226 0 -1.90845
-3282.61 -10.0798 0 -66.3364
-3300.77 -10.2664 0 -68.2849
-5463.92 -6.45967 0 -3.51259
-4366.86 -8.4929 0 -36.6485
-3291.68 -10.1775 0 -67.3062
-4391 -8.62419 0 -39.2269
-4378.93 -8.5624 0 -37.9339
-5448.86 -6.4226 0 -1.90845
-5418.73 -6.34351 0 1.26247
-3264.46 -9.87035 0 -64.4238
-3282.61 -10.0798 0 -66.3364
-5433.79 -6.38343 0 -0.316186
-4342.71 -8.34354 0 -34.1081
-3273.54 -9.97694 0 -65.3756
-4366.86 -8.4929 0 -36.6485
-4354.78 -8.41943 0 -35.3728
-5418.73 -6.34351 0 1.26247
-5388.59 -6.26383 0 4.37686
-3246.32 -9.65301 0 -62.5477
-3264.46 -9.87035 0 -64.4238
-5403.66 -6.30354 0 2.82692
-4318.56 -8.18882 0 -31.6124
-3255.39 -9.76197 0 -63.4811
-4342.71 -8.34354 0 -34.1081
-4330.64 -8.26638 0 -32.8544
-5388.59 -6.26383 0 4.37686
-5358.45 -6.18657 0 7.43244
-3228.17 -9.43602 0 -60.7084
-3246.32 -9.65301 0 -62.5477
-5373.52 -6.22476 0 5.9121
-4294.41 -8.03521 0 -29.1641
-3237.24 -9.54427 0 -61.6235
-4318.56 -8.18882 0 -31.6124
-4306.49 -8.11167 0 -30.3822
-5358.45 -6.18657 0 7.43244
-5328.31 -6.11312 0 10.4286
-3210.02 -9.2222 0 -58.9055
-3228.17 -9.43602 0 -60.7084
-5343.38 -6.14935 0 8.9379
-4270.26 -7.88502 0 -26.7636
-3219.09 -9.3286 0 -59.8024
-4294.41 -8.03521 0 -29.1641
-4282.33 -7.95962 0 -27.9579
-5328.31 -6.11312 0 10.4286
-5298.17 -6.04373 0 13.3659
-3191.86 -9.01267 0 -57.1383
-3210.02 -9.2222 0 -58.9055
-5313.24 -6.07791 0 11.9045
-4246.1 -7.73906 0 -24.4106
-3200.94 -9.11689 0 -58.0174
-4270.26 -7.88502 0 -26.7636
-4258.18 -7.8115 0 -25.5812
-5298.17 -6.04373 0 13.3659
-5268.02 -5.97833 0 16.245
-3173.71 -8.80741 0 -55.4063
-3191.86 -9.01267 0 -57.1383
-5283.09 -6.01055 0 14.8127
-4221.94 -7.59729 0 -22.1043
-3182.78 -8.90951 0 -56.2679
-4246.1 -7.73906 0 -24.4106
-4234.02 -7.66767 0 -23.2517
-5268.02 -5.97833 0 16.245
-5237.87 -5.91667 0 19.0669
-3155.55 -8.60615 0 -53.7088
-3173.71 -8.80741 0 -55.4063
-5252.95 -5.94704 0 17.6631
-4197.78 -7.45947 0 -19.8442
-3164.63 -8.7063 0 -54.5532
-4221.94 -7.59729 0 -22.1043
-4209.86 -7.52791 0 -20.9685
-5237.87 -5.91667 0 19.0669
-5207.72 -5.85851 0 21.832
-3137.38 -8.40853 0 -52.0455
-3155.55 -8.60615 0 -53.7088
-5222.8 -5.88717 0 20.4565
-4173.61 -7.32526 0 -17.6295
-3146.47 -8.50691 0 -52.8729
-4197.78 -7.45947 0 -19.8442
-4185.69 -7.39193 0 -18.7312
-5207.72 -5.85851 0 21.832
-5177.56 -5.80361 0 24.5411
-3119.22 -8.2142 0 -50.416
-3137.38 -8.40853 0 -52.0455
-5192.64 -5.83066 0 23.1935
-4149.45 -7.19438 0 -15.4599
-3128.3 -8.31097 0 -51.2266
-4173.61 -7.32526 0 -17.6295
-4161.53 -7.25942 0 -16.5391
-5177.56 -5.80361 0 24.5411
-5147.41 -5.75178 0 27.1945
-3101.06 -8.02291 0 -48.8199
-3119.22 -8.2142 0 -50.416
-5162.49 -5.77732 0 25.8747
-4125.28 -7.06659 0 -13.3348
-3110.14 -8.11819 0 -49.6138
-4149.45 -7.19438 0 -15.4599
-4137.36 -7.13012 0 -14.3918
-5147.41 -5.75178 0 27.1945
-5117.25 -5.70283 0 29.7926
-3082.89 -7.83443 0 -47.2569
-3101.06 -8.02291 0 -48.8199
-5132.33 -5.72695 0 28.5004
-4101.11 -6.9417 0 -11.2539
-3091.98 -7.92833 0 -48.0343
-4125.28 -7.06659 0 -13.3348
-4113.19 -7.0038 0 -12.2888
-5117.25 -5.70283 0 29.7926
-5087.09 -5.65661 0 32.336
-3064.73 -7.64862 0 -45.7269
-3082.89 -7.83443 0 -47.2569
-5102.17 -5.67939 0 31.0711
-4076.93 -6.81953 0 -9.21687
-3073.81 -7.7412 0 -46.4878
-4101.11 -6.9417 0 -11.2539
-4089.02 -6.88028 0 -10.2299
-5087.09 -5.65661 0 32.336
-5056.92 -5.61299 0 34.8248
-3046.56 -7.46534 0 -44.2296
-3064.73 -7.64862 0 -45.7269
-5072 -5.63449 0 33.5872
-4052.76 -6.69997 0 -7.22348
-3055.64 -7.55667 0 -44.9742
-4076.93 -6.81953 0 -9.21687
-4064.85 -6.75943 0 -8.21474
-5056.92 -5.61299 0 34.8248
-5026.76 -5.57183 0 37.2595
-3028.39 -7.2845 0 -42.7647
-3046.56 -7.46534 0 -44.2296
-5041.84 -5.59211 0 36.0489
-4028.59 -6.58289 0 -5.27342
-3037.48 -7.37462 0 -43.4931
-4052.76 -6.69997 0 -7.22348
-4040.67 -6.64113 0 -6.24305
-5026.76 -5.57183 0 37.2595
-4996.59 -5.53301 0 39.6403
-3010.23 -7.10599 0 -41.3321
-3028.39 -7.2845 0 -42.7647
-5011.67 -5.55214 0 38.4566
-4004.41 -6.46819 0 -3.36643
-3019.31 -7.19496 0 -42.0444
-4028.59 -6.58289 0 -5.27342
-4016.5 -6.52525 0 -4.31456
-4996.59 -5.53301 0 39.6403
-4966.42 -5.49642 0 41.9676
-2992.06 -6.92976 0 -39.9316
-3010.23 -7.10599 0 -41.3321
-4981.5 -5.51444 0 40.8106
-3980.23 -6.35576 0 -1.50226
-3001.14 -7.0176 0 -40.6279
-4004.41 -6.46819 0 -3.36643
-3992.32 -6.4117 0 -2.42901
-4966.42 -5.49642 0 41.9676
-4936.25 -5.46193 0 44.2417
-2973.89 -6.75572 0 -38.5631
-2992.06 -6.92976 0 -39.9316
-4951.33 -5.47892 0 43.1113
-3956.05 -6.24553 0 0.319345
-2982.97 -6.84247 0 -39.2434
-3980.23 -6.35576 0 -1.50226
-3968.14 -6.30038 0 -0.586155
-4936.25 -5.46193 0 44.2417
-4906.07 -5.42945 0 46.4629
-2955.72 -6.58381 0 -37.2262
-2973.89 -6.75572 0 -38.5631
-4921.16 -5.44545 0 45.3589
-3931.87 -6.1374 0 2.09864
-2964.8 -6.6695 0 -37.8907
-3956.05 -6.24553 0 0.319345
-3943.96 -6.19121 0 1.21427
-4906.07 -5.42945 0 46.4629
-4875.9 -5.39885 0 48.6316
-2937.55 -6.41396 0 -35.9209
-2955.72 -6.58381 0 -37.2262
-4890.98 -5.41392 0 47.5538
-3907.69 -6.03128 0 3.83589
-2946.63 -6.49863 0 -36.5696
-3931.87 -6.1374 0 2.09864
-3919.78 -6.0841 0 2.97251
-4875.9 -5.39885 0 48.6316
-4845.72 -5.37003 0 50.748
-2919.37 -6.24612 0 -34.6469
-2937.55 -6.41396 0 -35.9209
-4860.81 -5.38423 0 49.6963
-3883.51 -5.92709 0 5.53133
-2928.46 -6.32979 0 -35.28
-3907.69 -6.03128 0 3.83589
-3895.6 -5.97895 0 4.68882
-4845.72 -5.37003 0 50.748
-4815.54 -5.3429 0 52.8124
-2901.2 -6.08022 0 -33.4041
-2919.37 -6.24612 0 -34.6469
-4830.63 -5.35626 0 51.7867
-3859.33 -5.82475 0 7.18522
-2910.29 -6.16293 0 -34.0216
-3883.51 -5.92709 0 5.53133
-3871.42 -5.8757 0 6.36345
-4815.54 -5.3429 0 52.8124
-4785.36 -5.31734 0 54.8253
-2883.03 -5.91619 0 -32.1922
-2901.2 -6.08022 0 -33.4041
-4800.45 -5.32993 0 53.8253
-3835.15 -5.72417 0 8.79782
-2892.12 -5.99797 0 -32.7943
-3859.33 -5.82475 0 7.18522
-3847.24 -5.77425 0 7.99667
-4785.36 -5.31734 0 54.8253
-4755.18 -5.29326 0 56.7868
-2864.86 -5.75399 0 -31.0111
-2883.03 -5.91619 0 -32.1922
-4770.27 -5.30512 0 55.8124
-3810.96 -5.62528 0 10.3694
-2873.94 -5.83487 0 -31.5979
-3835.15 -5.72417 0 8.79782
-3823.05 -5.67452 0 9.58872
-4755.18 -5.29326 0 56.7868
-4725 -5.27054 0 58.6974
-2846.69 -5.59355 0 -29.8606
-2864.86 -5.75399 0 -31.0111
-4740.09 -5.28173 0 57.7485
-3786.78 -5.52799 0 11.9002
-2855.77 -5.67355 0 -30.4321
-3810.96 -5.62528 0 10.3694
-3798.87 -5.57644 0 11.1399
-4725 -5.27054 0 58.6974
-4694.82 -5.24911 0 60.5573
-2828.51 -5.43481 0 -28.7405
-2846.69 -5.59355 0 -29.8606
-4709.91 -5.25967 0 59.6337
-3762.59 -5.43222 0 13.3904
-2837.6 -5.51397 0 -29.2968
-3786.78 -5.52799 0 11.9002
-3774.69 -5.47992 0 12.6503
-4694.82 -5.24911 0 60.5573
-4664.64 -5.22886 0 62.3669
-2810.34 -5.27771 0 -27.6506
-2828.51 -5.43481 0 -28.7405
-4679.73 -5.23884 0 61.4684
-3738.41 -5.33791 0 14.8404
-2819.43 -5.35606 0 -28.1918
-3762.59 -5.43222 0 13.3904
-3750.5 -5.38489 0 14.1204
-4664.64 -5.22886 0 62.3669
-4634.45 -5.20969 0 64.1265
-2792.17 -5.1222 0 -26.5906
-2810.34 -5.27771 0 -27.6506
-4649.54 -5.21914 0 63.253
-3714.22 -5.24496 0 16.2504
-2801.25 -5.19976 0 -27.1168
-3738.41 -5.33791 0 14.8404
-3726.32 -5.29127 0 15.5504
-4634.45 -5.20969 0 64.1265
-4604.27 -5.19151 0 65.8365
-2774 -4.96823 0 -25.5605
-2792.17 -5.1222 0 -26.5906
-4619.36 -5.20048 0 64.9877
-3690.04 -5.15332 0 17.6207
-2783.08 -5.04503 0 -26.0718
-3714.22 -5.24496 0 16.2504
-3702.13 -5.19899 0 16.9405
-4604.27 -5.19151 0 65.8365
-4574.08 -5.17424 0 67.497
-2755.82 -4.81574 0 -24.56
-2774 -4.96823 0 -25.5605
-4589.18 -5.18277 0 66.6729
-3665.85 -5.06291 0 18.9514
-2764.91 -4.8918 0 -25.0565
-3690.04 -5.15332 0 17.6207
-3677.94 -5.10797 0 18.2909
-4574.08 -5.17424 0 67.497
-4543.9 -5.15778 0 69.1086
-2737.65 -4.66467 0 -23.5889
-2755.82 -4.81574 0 -24.56
-4558.99 -5.16592 0 68.3089
-3641.67 -4.97365 0 20.2429
-2746.74 -4.74003 0 -24.0707
-3665.85 -5.06291 0 18.9514
-3653.76 -5.01814 0 19.602
-4543.9 -5.15778 0 69.1086
-4513.71 -5.14205 0 70.6714
-2719.48 -4.51497 0 -22.647
-2737.65 -4.66467 0 -23.5889
-4528.81 -5.14983 0 69.8961
-3617.48 -4.88547 0 21.4955
-2728.57 -4.58965 0 -23.1143
-3641.67 -4.97365 0 20.2429
-3629.57 -4.92943 0 20.874
-4513.71 -5.14205 0 70.6714
-4483.53 -5.12696 0 72.1858
-2701.31 -4.3666 0 -21.7342
-2719.48 -4.51497 0 -22.647
-4498.62 -5.13443 0 71.4347
-3593.29 -4.79832 0 22.7093
-2710.39 -4.44062 0 -22.187
-3617.48 -4.88547 0 21.4955
-3605.39 -4.84177 0 22.1072
-4483.53 -5.12696 0 72.1858
-4453.34 -5.11242 0 73.6522
-2683.14 -4.21949 0 -20.8502
-2701.31 -4.3666 0 -21.7342
-4468.44 -5.11963 0 72.925
-3569.11 -4.71211 0 23.8846
-2692.22 -4.29289 0 -21.2886
-3593.29 -4.79832 0 22.7093
-3581.2 -4.7551 0 23.3017
-4453.34 -5.11242 0 73.6522
-4423.16 -5.09836 0 75.0709
-2664.97 -4.07361 0 -19.9948
-2683.14 -4.21949 0 -20.8502
-4438.25 -5.10534 0 74.3675
-3544.92 -4.62679 0 25.0218
-2674.05 -4.1464 0 -20.4189
-3569.11 -4.71211 0 23.8846
-3557.02 -4.66934 0 24.458
-4423.16 -5.09836 0 75.0709
-4392.97 -5.08469 0 76.4421
-2646.8 -3.9289 0 -19.1679
-2664.97 -4.07361 0 -19.9948
-4408.07 -5.09148 0 75.7624
-3520.74 -4.54229 0 26.121
-2655.88 -4.00111 0 -19.5778
-3544.92 -4.62679 0 25.0218
-3532.83 -4.58444 0 25.5761
-4392.97 -5.08469 0 76.4421
-4362.79 -5.07134 0 77.7662
-2628.63 -3.78532 0 -18.3693
-2646.8 -3.9289 0 -19.1679
-4377.88 -5.07798 0 77.11
-3496.56 -4.45854 0 27.1826
-2637.71 -3.85697 0 -18.7651
-3520.74 -4.54229 0 26.121
-3508.65 -4.50032 0 26.6565
-4362.79 -5.07134 0 77.7662
-4332.6 -5.05822 0 79.0436
-2610.46 -3.64281 0 -17.5987
-2628.63 -3.78532 0 -18.3693
-4347.7 -5.06476 0 78.4107
-3472.37 -4.37549 0 28.2067
-2619.54 -3.71393 0 -17.9805
-3496.56 -4.45854 0 27.1826
-3484.46 -4.41693 0 27.6993
-4332.6 -5.05822 0 79.0436
-4302.42 -5.04527 0 80.2745
-2592.29 -3.50135 0 -16.856
-2610.46 -3.64281 0 -17.5987
-4317.51 -5.05173 0 79.6648
-3448.19 -4.29307 0 29.1937
-2601.37 -3.57195 0 -17.2239
-3472.37 -4.37549 0 28.2067
-3460.28 -4.33421 0 28.7048
-4302.42 -5.04527 0 80.2745
-4272.23 -5.03241 0 81.4593
-2574.12 -3.36087 0 -16.141
-2592.29 -3.50135 0 -16.856
-4287.33 -5.03883 0 80.8726
-3424 -4.21123 0 30.1437
-2583.2 -3.43099 0 -16.495
-3448.19 -4.29307 0 29.1937
-3436.1 -4.25208 0 29.6733
-4272.23 -5.03241 0 81.4593
-4242.05 -5.01956 0 82.5982
-2555.95 -3.22133 0 -15.4534
-2574.12 -3.36087 0 -16.141
-4257.14 -5.02599 0 82.0345
-3399.82 -4.12991 0 31.0571
-2565.04 -3.29099 0 -15.7938
-3424 -4.21123 0 30.1437
-3411.91 -4.17051 0 30.605
-4242.05 -5.01956 0 82.5982
-4211.87 -5.00666 0 83.6918
-2537.78 -3.08271 0 -14.7932
-2555.95 -3.22133 0 -15.4534
-4226.96 -5.01312 0 83.1507
-3375.64 -4.04905 0 31.9341
-2546.87 -3.15191 0 -15.1199
-3399.82 -4.12991 0 31.0571
-3387.73 -4.08942 0 31.5002
-4211.87 -5.00666 0 83.6918
-4181.68 -4.99363 0 84.7401
-2519.62 -2.94494 0 -14.16
-2537.78 -3.08271 0 -14.7932
-4196.78 -5.00016 0 84.2216
-3351.46 -3.96859 0 32.775
-2528.7 -3.01372 0 -14.4732
-3375.64 -4.04905 0 31.9341
-3363.55 -4.00877 0 32.3591
-4181.68 -4.99363 0 84.7401
-4151.5 -4.98042 0 85.7437
-2501.45 -2.808 0 -13.5538
-2519.62 -2.94494 0 -14.16
-4166.59 -4.98705 0 85.2475
-3327.28 -3.88849 0 33.5801
-2510.54 -2.87637 0 -13.8536
-3351.46 -3.96859 0 32.775
-3339.37 -3.9285 0 33.182
-4151.5 -4.98042 0 85.7437
-4121.32 -4.96694 0 86.7027
-2483.29 -2.67184 0 -12.9742
-2501.45 -2.808 0 -13.5538
-4136.41 -4.97372 0 86.2288
-3303.1 -3.80869 0 34.3495
-2492.37 -2.73982 0 -13.2607
-3327.28 -3.88849 0 33.5801
-3315.19 -3.84855 0 33.9692
-4121.32 -4.96694 0 86.7027
-4091.14 -4.95315 0 87.6176
-2465.13 -2.53642 0 -12.4212
-2483.29 -2.67184 0 -12.9742
-4106.23 -4.96009 0 87.1657
-3278.92 -3.72913 0 35.0835
-2474.21 -2.60404 0 -12.6944
-3303.1 -3.80869 0 34.3495
-3291.01 -3.76888 0 34.7209
-4091.14 -4.95315 0 87.6176
-4060.96 -4.93898 0 88.4886
-2446.96 -2.40171 0 -11.8945
-2465.13 -2.53642 0 -12.4212
-4076.05 -4.94612 0 88.0586
-3254.75 -3.64977 0 35.7825
-2456.04 -2.46898 0 -12.1546
-3278.92 -3.72913 0 35.0835
-3266.83 -3.68943 0 35.4374
-4060.96 -4.93898 0 88.4886
-4030.78 -4.92436 0 89.3161
-2428.8 -2.26768 0 -11.3939
-2446.96 -2.40171 0 -11.8945
-4045.87 -4.93173 0 88.9078
-3230.57 -3.57057 0 36.4467
-2437.88 -2.33461 0 -11.641
-3254.75 -3.64977 0 35.7825
-3242.66 -3.61015 0 36.1189
-4030.78 -4.92436 0 89.3161
-4000.61 -4.90924 0 90.1004
-2410.64 -2.13427 0 -10.9193
-2428.8 -2.26768 0 -11.3939
-4015.7 -4.91687 0 89.7137
-3206.39 -3.49146 0 37.0763
-2419.72 -2.2009 0 -11.1534
-3230.57 -3.57057 0 36.4467
-3218.48 -3.531 0 36.7658
-4000.61 -4.90924 0 90.1004
-3970.43 -4.89356 0 90.8419
-2392.48 -2.00147 0 -10.4704
-2410.64 -2.13427 0 -10.9193
-3985.52 -4.90147 0 90.4765
-3182.22 -3.41241 0 37.6715
-2401.56 -2.0678 0 -10.6916
-3206.39 -3.49146 0 37.0763
-3194.31 -3.45193 0 37.3782
-3970.43 -4.89356 0 90.8419
-3940.26 -4.87726 0 91.5407
-2374.32 -1.86923 0 -10.047
-2392.48 -2.00147 0 -10.4704
-3955.34 -4.88549 0 91.1966
-3158.05 -3.33337 0 38.2327
-2383.4 -1.93528 0 -10.2555
-3182.22 -3.41241 0 37.6715
-3170.13 -3.3729 0 37.9564
-3940.26 -4.87726 0 91.5407
-3910.08 -4.86029 0 92.1974
-2356.17 -1.73753 0 -9.64896
-2374.32 -1.86923 0 -10.047
-3925.17 -4.86886 0 91.8743
-3133.88 -3.2543 0 38.7602
-2365.25 -1.80331 0 -9.84481
-3158.05 -3.33337 0 38.2327
-3145.96 -3.29385 0 38.5006
-3910.08 -4.86029 0 92.1974
-3879.91 -4.84259 0 92.8121
-2338.01 -1.60632 0 -9.27609
-2356.17 -1.73753 0 -9.64896
-3895 -4.85154 0 92.5099
-3109.71 -3.17516 0 39.254
-2347.09 -1.67186 0 -9.45939
-3133.88 -3.2543 0 38.7602
-3121.79 -3.21474 0 39.0113
-3879.91 -4.84259 0 92.8121
-3849.74 -4.82412 0 93.3852
-2319.86 -1.47559 0 -8.92818
-2338.01 -1.60632 0 -9.27609
-3864.82 -4.83346 0 93.1038
-3085.54 -3.09589 0 39.7147
-2328.93 -1.5409 0 -9.09903
-3109.71 -3.17516 0 39.254
-3097.62 -3.13554 0 39.4885
-3849.74 -4.82412 0 93.3852
-3819.57 -4.80482 0 93.9172
-2301.7 -1.34529 0 -8.60504
-2319.86 -1.47559 0 -8.92818
-3834.65 -4.81458 0 93.6563
-3061.37 -3.01647 0 40.1422
-2310.78 -1.41039 0 -8.76352
-3085.54 -3.09589 0 39.7147
-3073.45 -3.0562 0 39.9326
-3819.57 -4.80482 0 93.9172
-3789.4 -4.78465 0 94.4081
-2283.55 -1.21541 0 -8.30647
-2301.7 -1.34529 0 -8.60504
-3804.48 -4.79485 0 94.1677
-3037.2 -2.93685 0 40.5371
-2292.63 -1.2803 0 -8.45269
-3061.37 -3.01647 0 40.1422
-3049.29 -2.97669 0 40.3437
-3789.4 -4.78465 0 94.4081
-3759.23 -4.76355 0 94.8585
-2265.4 -1.0859 0 -8.03227
-2283.55 -1.21541 0 -8.30647
-3774.32 -4.77422 0 94.6384
-3013.04 -2.857 0 40.8994
-2274.47 -1.15061 0 -8.16633
-3037.2 -2.93685 0 40.5371
-3025.12 -2.89695 0 40.7223
-3759.23 -4.76355 0 94.8585
-3729.07 -4.74148 0 95.2686
-2247.25 -0.956755 0 -7.78226
-2265.4 -1.0859 0 -8.03227
-3744.15 -4.75264 0 95.0685
-2988.87 -2.77687 0 41.2296
-2256.32 -1.02129 0 -7.90425
-3013.04 -2.857 0 40.8994
-3000.96 -2.81697 0 41.0685
-3729.07 -4.74148 0 95.2686
-3698.9 -4.7184 0 95.6387
-2229.1 -0.827934 0 -7.55624
-2247.25 -0.956755 0 -7.78226
-3713.99 -4.73007 0 95.4586
-2964.71 -2.69644 0 41.5277
-2238.18 -0.892305 0 -7.66626
-2988.87 -2.77687 0 41.2296
-2976.79 -2.7367 0 41.3826
-3698.9 -4.7184 0 95.6387
-3668.74 -4.69427 0 95.9692
-2210.95 -0.699414 0 -7.35401
-2229.1 -0.827934 0 -7.55624
-3683.82 -4.70647 0 95.8089
-2940.55 -2.61567 0 41.7941
-2220.03 -0.763638 0 -7.45216
-2964.71 -2.69644 0 41.5277
-2952.63 -2.6561 0 41.6648
-3668.74 -4.69427 0 95.9692
-3638.58 -4.66903 0 96.2604
-2192.81 -0.57117 0 -7.17538
-2210.95 -0.699414 0 -7.35401
-3653.66 -4.68179 0 96.1197
-2916.39 -2.53452 0 42.0291
-2201.88 -0.635259 0 -7.26176
-2940.55 -2.61567 0 41.7941
-2928.47 -2.57514 0 41.9155
-3638.58 -4.66903 0 96.2604
-3608.42 -4.64266 0 96.5126
-2174.66 -0.443179 0 -7.02016
-2192.81 -0.57117 0 -7.17538
-3623.5 -4.65599 0 96.3914
-2892.24 -2.45296 0 42.2328
-2183.74 -0.507145 0 -7.09486
-2916.39 -2.53452 0 42.0291
-2904.31 -2.49379 0 42.1348
-3608.42 -4.64266 0 96.5126
-3578.26 -4.61511 0 96.7262
-2156.52 -0.315417 0 -6.88815
-2174.66 -0.443179 0 -7.02016
-3593.34 -4.62903 0 96.6242
-2868.08 -2.37097 0 42.4057
-2165.59 -0.379271 0 -6.95127
-2892.24 -2.45296 0 42.2328
-2880.16 -2.41202 0 42.3231
-3578.26 -4.61511 0 96.7262
-3548.11 -4.58634 0 96.9014
-2138.38 -0.18786 0 -6.77916
-2156.52 -0.315417 0 -6.88815
-3563.19 -4.60088 0 96.8185
-2843.93 -2.28851 0 42.5478
-2147.45 -0.251614 0 -6.83079
-2868.08 -2.37097 0 42.4057
-2856 -2.3298 0 42.4806
-3548.11 -4.58634 0 96.9014
-3517.96 -4.55633 0 97.0386
-2120.24 -0.0604888 0 -6.69299
-2138.38 -0.18786 0 -6.77916
-3533.03 -4.57149 0 96.9747
-2819.77 -2.20555 0 42.6595
-2129.31 -0.124153 0 -6.73323
-2843.93 -2.28851 0 42.5478
-2831.85 -2.2471 0 42.6075
-3517.96 -4.55633 0 97.0386
-3487.8 -4.52502 0 97.1381
-2102.1 0.066719 0 -6.62945
-2120.24 -0.0604888 0 -6.69299
-3502.88 -4.54084 0 97.093
-2795.62 -2.12207 0 42.7411
-2111.17 0.0031343 0 -6.6584
-2819.77 -2.20555 0 42.6595
-2807.7 -2.16388 0 42.7041
-3487.8 -4.52502 0 97.1381
-3457.65 -4.49241 0 97.2003
-2083.97 0.193783 0 -6.58834
-2102.1 0.066719 0 -6.62945
-3472.73 -4.50888 0 97.1738
-2771.47 -2.03804 0 42.7928
-2093.03 0.130268 0 -6.6061
-2795.62 -2.12207 0 42.7411
-2783.55 -2.08013 0 42.7707
-3457.65 -4.49241 0 97.2003
-3427.51 -4.45844 0 97.2254
-2065.83 0.320723 0 -6.56947
-2083.97 0.193783 0 -6.58834
-3442.58 -4.47559 0 97.2175
-2747.33 -1.95343 0 42.8148
-2074.9 0.257268 0 -6.57614
-2771.47 -2.03804 0 42.7928
-2759.4 -1.99581 0 42.8075
-3427.51 -4.45844 0 97.2254
-3397.36 -4.42308 0 97.2138
-2047.7 0.447557 0 -6.57265
-2065.83 0.320723 0 -6.56947
-3412.43 -4.44093 0 97.2242
-2723.18 -1.86822 0 42.8075
-2056.76 0.384152 0 -6.56832
-2747.33 -1.95343 0 42.8148
-2735.25 -1.9109 0 42.8148
-3397.36 -4.42308 0 97.2138
-3367.22 -4.38632 0 97.1659
-2029.56 0.574303 0 -6.59769
-2047.7 0.447557 0 -6.57265
-3382.29 -4.40488 0 97.1944
-2699.04 -1.78238 0 42.771
-2038.63 0.51094 0 -6.58245
-2723.18 -1.86822 0 42.8075
-2711.11 -1.82538 0 42.7928
-3367.22 -4.38632 0 97.1659
-3337.07 -4.34812 0 97.0818
-2011.43 0.700978 0 -6.64438
-2029.56 0.574303 0 -6.59769
-3352.14 -4.3674 0 97.1283
-2674.9 -1.6959 0 42.7056
-2020.5 0.637648 0 -6.61834
-2699.04 -1.78238 0 42.771
-2686.97 -1.73922 0 42.7419
-3337.07 -4.34812 0 97.0818
-3306.93 -4.30846 0 96.9621
-1993.31 0.827597 0 -6.71253
-2011.43 0.700978 0 -6.64438
-3322 -4.32847 0 97.0264
-2650.76 -1.60874 0 42.6117
-2002.37 0.764293 0 -6.67578
-2674.9 -1.6959 0 42.7056
-2662.83 -1.6524 0 42.6622
-3306.93 -4.30846 0 96.9621
-3276.8 -4.2673 0 96.8069
-1975.18 0.954177 0 -6.80195
-1993.31 0.827597 0 -6.71253
-3291.86 -4.28807 0 96.8889
-2626.62 -1.5209 0 42.4894
-1984.24 0.890891 0 -6.7546
-2650.76 -1.60874 0 42.6117
-2638.69 -1.56491 0 42.5541
-3276.8 -4.2673 0 96.8069
-3246.66 -4.22463 0 96.6166
-1957.05 1.08073 0 -6.91245
-1975.18 0.954177 0 -6.80195
-3261.73 -4.24615 0 96.7161
-2602.48 -1.43235 0 42.339
-1966.12 1.01746 0 -6.85458
-2626.62 -1.5209 0 42.4894
-2614.55 -1.47671 0 42.4177
-3246.66 -4.22463 0 96.6166
-3216.53 -4.18042 0 96.3916
-1938.93 1.20728 0 -7.04383
-1957.05 1.08073 0 -6.91245
-3231.59 -4.20272 0 96.5084
-2578.35 -1.34307 0 42.1608
-1947.99 1.144 0 -6.97554
-2602.48 -1.43235 0 42.339
-2590.42 -1.3878 0 42.2534
-3216.53 -4.18042 0 96.3916
-3186.39 -4.13465 0 96.1321
-1920.81 1.33382 0 -7.1959
-1938.93 1.20728 0 -7.04383
-3201.46 -4.15773 0 96.2661
-2554.22 -1.25305 0 41.9551
-1929.87 1.27055 0 -7.11729
-2578.35 -1.34307 0 42.1608
-2566.28 -1.29815 0 42.0614
-3186.39 -4.13465 0 96.1321
-3156.26 -4.0873 0 95.8385
-1902.69 1.46038 0 -7.36846
-1920.81 1.33382 0 -7.1959
-3171.33 -4.11117 0 95.9896
-2530.09 -1.16226 0 41.722
-1911.75 1.3971 0 -7.27963
-2554.22 -1.25305 0 41.9551
-2542.15 -1.20775 0 41.8419
-3156.26 -4.0873 0 95.8385
-3126.14 -4.03835 0 95.5111
-1884.57 1.58697 0 -7.56132
-1902.69 1.46038 0 -7.36846
-3141.2 -4.06302 0 95.679
-2505.96 -1.0707 0 41.4619
-1893.63 1.52367 0 -7.46237
-2530.09 -1.16226 0 41.722
-2518.02 -1.11658 0 41.5953
-3126.14 -4.03835 0 95.5111
-3096.01 -3.98778 0 95.1503
-1866.45 1.71359 0 -7.77429
-1884.57 1.58697 0 -7.56132
-3111.07 -4.01327 0 95.3349
-2481.83 -0.978345 0 41.1749
-1875.51 1.65027 0 -7.6653
-2505.96 -1.0707 0 41.4619
-2493.9 -1.02462 0 41.3217
-3096.01 -3.98778 0 95.1503
-3065.89 -3.93558 0 94.7563
-1848.33 1.84026 0 -8.00717
-1866.45 1.71359 0 -7.77429
-3080.95 -3.96188 0 94.9574
-2457.71 -0.885187 0 40.8615
-1857.39 1.77692 0 -7.88825
-2481.83 -0.978345 0 41.1749
-2469.77 -0.931868 0 41.0215
-3065.89 -3.93558 0 94.7563
-3035.77 -3.88172 0 94.3295
-1830.22 1.96699 0 -8.25976
-1848.33 1.84026 0 -8.00717
-3050.83 -3.90886 0 94.547
-2433.59 -0.791212 0 40.5218
-1839.28 1.90362 0 -8.13101
-2457.71 -0.885187 0 40.8615
-2445.65 -0.838303 0 40.6949
-3035.77 -3.88172 0 94.3295
-3005.65 -3.82621 0 93.8702
-1812.11 2.09378 0 -8.53188
-1830.22 1.96699 0 -8.25976
-3020.71 -3.85417 0 94.1039
-2409.47 -0.696408 0 40.1561
-1821.16 2.03038 0 -8.39339
-2433.59 -0.791212 0 40.5218
-2421.53 -0.743914 0 40.3422
-3005.65 -3.82621 0 93.8702
-2975.53 -3.76901 0 93.3787
-1794 2.22065 0 -8.82333
-1812.11 2.09378 0 -8.53188
-2990.59 -3.79782 0 93.6284
-2385.35 -0.600764 0 39.7646
-1803.05 2.1572 0 -8.6752
-2409.47 -0.696408 0 40.1561
-2397.41 -0.648691 0 39.9635
-2975.53 -3.76901 0 93.3787
-2945.42 -3.71012 0 92.8553
-1775.89 2.34759 0 -9.13391
-1794 2.22065 0 -8.82333
-2960.48 -3.73978 0 93.121
-2361.23 -0.50427 0 39.3476
-1784.94 2.28411 0 -8.97624
-2385.35 -0.600764 0 39.7646
-2373.29 -0.552624 0 39.5592
-2945.42 -3.71012 0 92.8553
-2915.31 -3.64954 0 92.3005
-1757.78 2.47463 0 -9.46344
-1775.89 2.34759 0 -9.13391
-2930.36 -3.68004 0 92.5818
-2337.12 -0.406918 0 38.9054
-1766.84 2.4111 0 -9.29632
-2361.23 -0.50427 0 39.3476
-2349.18 -0.455702 0 39.1296
-2915.31 -3.64954 0 92.3005
-2885.2 -3.58724 0 91.7144
-1739.68 2.60176 0 -9.81171
-1757.78 2.47463 0 -9.46344
-2900.25 -3.6186 0 92.0113
-2313.01 -0.3087 0 38.4382
-1748.73 2.53818 0 -9.63524
-2337.12 -0.406918 0 38.9054
-2325.06 -0.357918 0 38.6749
-2885.2 -3.58724 0 91.7144
-2855.09 -3.52322 0 91.0974
-1721.58 2.72898 0 -10.1785
-1739.68 2.60176 0 -9.81171
-2870.14 -3.55544 0 91.4098
-2288.9 -0.209607 0 37.9463
-1730.63 2.66536 0 -9.99282
-2313.01 -0.3087 0 38.4382
-2300.95 -0.259263 0 38.1953
-2855.09 -3.52322 0 91.0974
-2824.98 -3.45747 0 90.4499
-1703.47 2.85632 0 -10.5637
-1721.58 2.72898 0 -10.1785
-2840.04 -3.49056 0 90.7775
-2264.79 -0.109635 0 37.4299
-1712.52 2.79264 0 -10.3689
-2288.9 -0.209607 0 37.9463
-2276.84 -0.159732 0 37.6911
-2824.98 -3.45747 0 90.4499
-2794.88 -3.38999 0 89.7722
-1685.37 2.98376 0 -10.9671
-1703.47 2.85632 0 -10.5637
-2809.93 -3.42394 0 90.1148
-2240.68 -0.00877793 0 36.8893
-1694.42 2.92002 0 -10.7632
-2264.79 -0.109635 0 37.4299
-2252.74 -0.0593175 0 37.1626
-2794.88 -3.38999 0 89.7722
-2764.78 -3.32076 0 89.0645
-1667.28 3.11131 0 -11.3884
-1685.37 2.98376 0 -10.9671
-2779.83 -3.35559 0 89.4221
-2216.58 0.0929691 0 36.3248
-1676.33 3.04752 0 -11.1755
-2240.68 -0.00877793 0 36.8893
-2228.63 0.0419841 0 36.61
-2764.78 -3.32076 0 89.0645
-2734.68 -3.2498 0 88.3273
-1649.18 3.23897 0 -11.8275
-1667.28 3.11131 0 -11.3884
-2749.73 -3.2855 0 88.6996
-2192.48 0.195609 0 35.7366
-1658.23 3.17513 0 -11.6058
-2216.58 0.0929691 0 36.3248
-2204.53 0.144177 0 36.0336
-2734.68 -3.2498 0 88.3273
-2704.59 -3.17708 0 87.5608
-1631.09 3.36676 0 -12.2842
-1649.18 3.23897 0 -11.8275
-2719.63 -3.21366 0 87.9477
-2168.38 0.299146 0 35.1249
-1640.13 3.30285 0 -12.0537
-2192.48 0.195609 0 35.7366
-2180.43 0.247265 0 35.4337
-2704.59 -3.17708 0 87.5608
-2674.49 -3.10262 0 86.7654
-1612.99 3.49466 0 -12.7583
-1631.09 3.36676 0 -12.2842
-2689.54 -3.14007 0 87.1667
-2144.28 0.40358 0 34.4901
-1622.04 3.43069 0 -12.5191
-2168.38 0.299146 0 35.1249
-2156.33 0.351251 0 34.8104
-2674.49 -3.10262 0 86.7654
-2644.4 -3.0264 0 85.9413
-1594.9 3.62267 0 -13.2496
-1612.99 3.49466 0 -12.7583
-2659.45 -3.06473 0 86.3569
-2120.19 0.508914 0 33.8324
-1603.95 3.55865 0 -13.0018
-2144.28 0.40358 0 34.4901
-2132.23 0.456135 0 34.1641
-2644.4 -3.0264 0 85.9413
-2614.31 -2.94843 0 85.089
-1576.81 3.75081 0 -13.7579
-1594.9 3.62267 0 -13.2496
-2629.36 -2.98763 0 85.5187
-2096.09 0.615148 0 33.1521
-1585.86 3.68673 0 -13.5017
-2120.19 0.508914 0 33.8324
-2108.14 0.561918 0 33.4951
-2614.31 -2.94843 0 85.089
-2584.22 -2.86871 0 84.2086
-1558.73 3.87907 0 -14.283
-1576.81 3.75081 0 -13.7579
-2599.27 -2.90879 0 84.6523
-2072 0.72228 0 32.4493
-1567.77 3.81493 0 -14.0184
-2096.09 0.615148 0 33.1521
-2084.05 0.668601 0 32.8035
-2584.22 -2.86871 0 84.2086
-2554.14 -2.78723 0 83.3007
-1540.64 4.00744 0 -14.8248
-1558.73 3.87907 0 -14.283
-2569.18 -2.82819 0 83.7581
-2047.91 0.83031 0 31.7244
-1549.68 3.94324 0 -14.5518
-2072 0.72228 0 32.4493
-2059.96 0.776183 0 32.0896
-2554.14 -2.78723 0 83.3007
-2524.06 -2.70402 0 82.3654
-1522.56 4.13593 0 -15.3829
-1540.64 4.00744 0 -14.8248
-2539.1 -2.74584 0 82.8364
-2023.83 0.939236 0 30.9776
-1531.6 4.07167 0 -15.1018
-2047.91 0.83031 0 31.7244
-2035.87 0.884661 0 31.3537
-2524.06 -2.70402 0 82.3654
-2493.98 -2.61905 0 81.4031
-1504.48 4.26454 0 -15.9573
-1522.56 4.13593 0 -15.3829
-2509.02 -2.66175 0 81.8876
-1999.74 1.04905 0 30.2092
-1513.52 4.20022 0 -15.6681
-2023.83 0.939236 0 30.9776
-2011.78 0.994034 0 30.5961
-2493.98 -2.61905 0 81.4031
-2463.9 -2.53235 0 80.4141
-1486.39 4.39326 0 -16.5477
-1504.48 4.26454 0 -15.9573
-2478.94 -2.57592 0 80.9119
-1975.66 1.15976 0 29.4195
-1495.43 4.32888 0 -16.2505
-1999.74 1.04905 0 30.2092
-1987.7 1.1043 0 29.817
-2463.9 -2.53235 0 80.4141
-2433.82 -2.44392 0 79.3987
-1468.32 4.52208 0 -17.154
-1486.39 4.39326 0 -16.5477
-2448.86 -2.48835 0 79.9097
-1951.58 1.27135 0 28.6086
-1477.36 4.45765 0 -16.8489
-1975.66 1.15976 0 29.4195
-1963.62 1.21545 0 29.0167
-2433.82 -2.44392 0 79.3987
-2403.75 -2.35375 0 78.3574
-1450.24 4.65101 0 -17.776
-1468.32 4.52208 0 -17.154
-2418.79 -2.39905 0 78.8813
-1927.5 1.38383 0 27.7769
-1459.28 4.58653 0 -17.463
-1951.58 1.27135 0 28.6086
-1939.54 1.32748 0 28.1954
-2403.75 -2.35375 0 78.3574
-2373.68 -2.26187 0 77.2903
-1432.16 4.78004 0 -18.4134
-1450.24 4.65101 0 -17.776
-2388.71 -2.30803 0 77.827
-1903.42 1.49717 0 26.9246
-1441.2 4.71551 0 -18.0927
-1927.5 1.38383 0 27.7769
-1915.46 1.44039 0 27.3533
-2373.68 -2.26187 0 77.2903
-2343.61 -2.16828 0 76.1978
-1414.09 4.90917 0 -19.066
-1432.16 4.78004 0 -18.4134
-2358.64 -2.21529 0 76.7472
-1879.35 1.61139 0 26.052
-1423.13 4.84459 0 -18.7378
-1903.42 1.49717 0 26.9246
-1891.38 1.55417 0 26.4908
-2343.61 -2.16828 0 76.1978
-2313.54 -2.07299 0 75.0802
-1396.02 5.03838 0 -19.7337
-1414.09 4.90917 0 -19.066
-2328.58 -2.12084 0 75.6421
-1855.27 1.72646 0 25.1593
-1405.06 4.97376 0 -19.398
-1879.35 1.61139 0 26.052
-1867.31 1.66882 0 25.6081
-2313.54 -2.07299 0 75.0802
-2283.48 -1.976 0 73.9379
-1377.95 5.16768 0 -20.4164
-1396.02 5.03838 0 -19.7337
-2298.51 -2.0247 0 74.5122
-1831.2 1.84238 0 24.2468
-1386.98 5.10302 0 -20.0732
-1855.27 1.72646 0 25.1593
-1843.24 1.78432 0 24.7055
-2283.48 -1.976 0 73.9379
-2253.42 -1.87733 0 72.7712
-1359.88 5.29706 0 -21.1137
-1377.95 5.16768 0 -20.4164
-2268.45 -1.92687 0 73.3576
-1807.13 1.95915 0 23.3147
-1368.92 5.23236 0 -20.7632
-1831.2 1.84238 0 24.2468
-1819.17 1.90066 0 23.7831
-2253.42 -1.87733 0 72.7712
-2223.35 -1.77699 0 71.5804
-1341.81 5.4265 0 -21.8255
-1359.88 5.29706 0 -21.1137
-2238.38 -1.82737 0 72.1788
-1783.07 2.07675 0 22.3633
-1350.85 5.36177 0 -21.4678
-1807.13 1.95915 0 23.3147
-1795.1 2.01785 0 22.8414
-2223.35 -1.77699 0 71.5804
-2193.3 -1.675 0 70.3658
-1323.75 5.55601 0 -22.5516
-1341.81 5.4265 0 -21.8255
-2208.33 -1.7262 0 70.976
-1759 2.19518 0 21.3929
-1332.78 5.49125 0 -22.1868
-1783.07 2.07675 0 22.3633
-1771.03 2.13586 0 21.8805
-2193.3 -1.675 0 70.3658
-2163.24 -1.57137 0 69.1277
-1305.69 5.68558 0 -23.2918
-1323.75 5.55601 0 -22.5516
-2178.27 -1.62339 0 69.7496
-1734.94 2.31441 0 20.4037
-1314.72 5.62079 0 -22.9199
-1759 2.19518 0 21.3929
-1746.97 2.25469 0 20.9006
-2163.24 -1.57137 0 69.1277
-2133.19 -1.4661 0 67.8665
-1287.63 5.81519 0 -24.0459
-1305.69 5.68558 0 -23.2918
-2148.21 -1.51894 0 68.5
-1710.88 2.43445 0 19.3959
-1296.66 5.75038 0 -23.6671
-1734.94 2.31441 0 20.4037
-1722.91 2.37433 0 19.9021
-2133.19 -1.4661 0 67.8665
-2103.13 -1.35923 0 66.5824
-1269.57 5.94483 0 -24.8138
-1287.63 5.81519 0 -24.0459
-2118.16 -1.41287 0 67.2273
-1686.82 2.55528 0 18.3699
-1278.6 5.88 0 -24.4282
-1710.88 2.43445 0 19.3959
-1698.85 2.49477 0 18.8852
-2103.13 -1.35923 0 66.5824
-2073.08 -1.25075 0 65.2759
-1251.51 6.07451 0 -25.5952
-1269.57 5.94483 0 -24.8138
-2088.11 -1.30519 0 65.932
-1662.76 2.67688 0 17.3259
-1260.54 6.00967 0 -25.2028
-1686.82 2.55528 0 18.3699
-1674.79 2.61598 0 17.8501
-2073.08 -1.25075 0 65.2759
-2043.04 -1.1407 0 63.9472
-1233.45 6.2042 0 -26.3899
-1251.51 6.07451 0 -25.5952
-2058.06 -1.19592 0 64.6143
-1638.7 2.79924 0 16.2641
-1242.48 6.13935 0 -25.9909
-1662.76 2.67688 0 17.3259
-1650.73 2.73797 0 16.7972
-2043.04 -1.1407 0 63.9472
-2012.99 -1.02909 0 62.5967
-1215.4 6.3339 0 -27.1978
-1233.45 6.2042 0 -26.3899
-2028.01 -1.08509 0 63.2747
-1614.65 2.92236 0 15.1848
-1224.42 6.26905 0 -26.7922
-1638.7 2.79924 0 16.2641
-1626.68 2.86071 0 15.7266
-2012.99 -1.02909 0 62.5967
-1982.95 -0.915926 0 61.2246
-1197.34 6.46359 0 -28.0186
-1215.4 6.3339 0 -27.1978
-1997.97 -0.972698 0 61.9133
-1590.6 3.0462 0 14.0883
-1206.37 6.39874 0 -27.6066
-1614.65 2.92236 0 15.1848
-1602.62 2.98419 0 14.6387
-1982.95 -0.915926 0 61.2246
-1952.9 -0.801242 0 59.8313
-1179.29 6.59327 0 -28.8522
-1197.34 6.46359 0 -28.0186
-1967.92 -0.858774 0 60.5306
-1566.55 3.17077 0 12.9748
-1188.32 6.52843 0 -28.4338
-1590.6 3.0462 0 14.0883
-1578.57 3.1084 0 13.5336
-1952.9 -0.801242 0 59.8313
-1922.86 -0.685054 0 58.4171
-1161.24 6.72292 0 -29.6984
-1179.29 6.59327 0 -28.8522
-1937.88 -0.743335 0 59.1268
-1542.5 3.29604 0 11.8445
-1170.27 6.6581 0 -29.2738
-1566.55 3.17077 0 12.9748
-1554.52 3.23332 0 12.4117
-1922.86 -0.685054 0 58.4171
-1892.83 -0.567381 0 56.9824
-1143.19 6.85253 0 -30.5569
-1161.24 6.72292 0 -29.6984
-1907.84 -0.626402 0 57.7023
-1518.45 3.42199 0 10.6978
-1152.22 6.78773 0 -30.1261
-1542.5 3.29604 0 11.8445
-1530.48 3.35893 0 11.2732
-1892.83 -0.567381 0 56.9824
-1862.79 -0.448246 0 55.5274
-1125.14 6.98209 0 -31.4277
-1143.19 6.85253 0 -30.5569
-1877.81 -0.507995 0 56.2574
-1494.41 3.54861 0 9.53487
-1134.17 6.91732 0 -30.9908
-1518.45 3.42199 0 10.6978
-1506.43 3.48522 0 10.1184
-1862.79 -0.448246 0 55.5274
-1832.75 -0.327671 0 54.0525
-1107.1 7.11158 0 -32.3104
-1125.14 6.98209 0 -31.4277
-1847.77 -0.388137 0 54.7924
-1470.37 3.67589 0 8.35598
-1116.12 7.04684 0 -31.8675
-1494.41 3.54861 0 9.53487
-1482.39 3.61217 0 8.9474
-1832.75 -0.327671 0 54.0525
-1802.72 -0.205678 0 52.5579
-1089.05 7.241 0 -33.2049
-1107.1 7.11158 0 -32.3104
-1817.74 -0.26685 0 53.3076
-1446.33 3.80379 0 7.16138
-1098.08 7.1763 0 -32.7562
-1470.37 3.67589 0 8.35598
-1458.35 3.73976 0 7.76062
-1802.72 -0.205678 0 52.5579
-1772.69 -0.0822912 0 51.0441
-1071.01 7.37031 0 -34.111
-1089.05 7.241 0 -33.2049
-1787.71 -0.144157 0 51.8034
-1422.29 3.93231 0 5.95133
-1080.03 7.30567 0 -33.6565
-1446.33 3.80379 0 7.16138
-1434.31 3.86798 0 6.55827
-1772.69 -0.0822912 0 51.0441
-1742.66 0.0424652 0 49.5113
-1052.97 7.49953 0 -35.0286
-1071.01 7.37031 0 -34.111
-1757.68 -0.0200826 0 50.2801
-1398.25 4.06143 0 4.72609
-1061.99 7.43493 0 -34.5684
-1422.29 3.93231 0 5.95133
-1410.27 3.9968 0 5.34059
-1742.66 0.0424652 0 49.5113
-1712.64 0.168566 0 47.9599
-1034.93 7.62861 0 -35.9574
-1052.97 7.49953 0 -35.0286
-1727.65 0.105349 0 48.7379
-1374.21 4.19112 0 3.48591
-1043.95 7.56409 0 -35.4916
-1398.25 4.06143 0 4.72609
-1386.23 4.1262 0 4.10785
-1712.64 0.168566 0 47.9599
-1682.61 0.295987 0 46.3902
-1016.89 7.75756 0 -36.8972
-1034.93 7.62861 0 -35.9574
-1697.62 0.232113 0 47.1773
-1350.18 4.32136 0 2.23106
-1025.91 7.69311 0 -36.4259
-1374.21 4.19112 0 3.48591
-1362.19 4.25617 0 2.86031
-1682.61 0.295987 0 46.3902
-1652.59 0.4247 0 44.8024
-998.856 7.88636 0 -37.8478
-1016.89 7.75756 0 -36.8972
-1667.6 0.360183 0 45.5985
-1326.14 4.45214 0 0.961791
-1007.87 7.82198 0 -37.3711
-1350.18 4.32136 0 2.23106
-1338.16 4.38668 0 1.59821
-1652.59 0.4247 0 44.8024
-1622.56 0.554679 0 43.197
-980.82 8.01499 0 -38.8091
-998.856 7.88636 0 -37.8478
-1637.57 0.489533 0 44.0019
-1302.11 4.58342 0 -0.321647
-989.838 7.9507 0 -38.3271
-1326.14 4.45214 0 0.961791
-1314.13 4.51772 0 0.321827
-1622.56 0.554679 0 43.197
-1592.54 0.685896 0 41.5742
-962.786 8.14343 0 -39.7808
-980.82 8.01499 0 -38.8091
-1607.55 0.620134 0 42.3878
-1278.08 4.7152 0 -1.61899
-971.803 8.07923 0 -39.2937
-1302.11 4.58342 0 -0.321647
-1290.1 4.64925 0 -0.968597
-1592.54 0.685896 0 41.5742
-1562.52 0.818324 0 39.9344
-944.753 8.27166 0 -40.7628
-962.786 8.14343 0 -39.7808
-1577.53 0.751961 0 40.7564
-1254.05 4.84745 0 -2.92999
-953.77 8.20757 0 -40.2706
-1278.08 4.7152 0 -1.61899
-1266.07 4.78127 0 -2.2728
-1562.52 0.818324 0 39.9344
-1532.51 0.951933 0 38.2779
-926.722 8.39968 0 -41.7549
-944.753 8.27166 0 -40.7628
-1547.51 0.884983 0 39.1082
-1230.03 4.98014 0 -4.25439
-935.738 8.3357 0 -41.2576
-1254.05 4.84745 0 -2.92999
-1242.04 4.91374 0 -3.59053
-1532.51 0.951933 0 38.2779
-1502.49 1.08669 0 36.6049
-908.692 8.52746 0 -42.7569
-926.722 8.39968 0 -41.7549
-1517.5 1.01917 0 37.4434
-1206 5.11325 0 -5.59192
-917.707 8.4636 0 -42.2547
-1230.03 4.98014 0 -4.25439
-1218.01 5.04664 0 -4.92153
-1502.49 1.08669 0 36.6049
-1472.47 1.22258 0 34.9159
-890.663 8.65498 0 -43.7685
-908.692 8.52746 0 -42.7569
-1487.48 1.1545 0 35.7624
-1181.98 5.24676 0 -6.94234
-899.677 8.59125 0 -43.2615
-1206 5.11325 0 -5.59192
-1193.99 5.17995 0 -6.26554
-1472.47 1.22258 0 34.9159
-1442.46 1.35955 0 33.2111
-872.635 8.78223 0 -44.7897
-890.663 8.65498 0 -43.7685
-1457.47 1.29093 0 34.0654
-1157.95 5.38064 0 -8.30539
-881.649 8.71864 0 -44.2779
-1181.98 5.24676 0 -6.94234
-1169.97 5.31365 0 -7.62231
-1442.46 1.35955 0 33.2111
-1412.45 1.49759 0 31.4909
-854.609 8.90918 0 -45.8201
-872.635 8.78223 0 -44.7897
-1427.46 1.42844 0 32.3529
-1133.93 5.51486 0 -9.68082
-863.622 8.84574 0 -45.3037
-1157.95 5.38064 0 -8.30539
-1145.94 5.44771 0 -8.99157
-1412.45 1.49759 0 31.4909
-1382.44 1.63665 0 29.7555
-836.584 9.03582 0 -46.8597
-854.609 8.90918 0 -45.8201
-1397.44 1.567 0 30.6251
-1109.91 5.64941 0 -11.0684
-845.596 8.97254 0 -46.3388
-1133.93 5.51486 0 -9.68082
-1121.92 5.5821 0 -10.3731
-1382.44 1.63665 0 29.7555
-1352.43 1.77672 0 28.0054
-818.56 9.16214 0 -47.9082
-836.584 9.03582 0 -46.8597
-1367.43 1.70656 0 28.8823
-1085.89 5.78426 0 -12.4678
-827.572 9.09902 0 -47.3828
-1109.91 5.64941 0 -11.0684
-1097.9 5.7168 0 -11.7666
-1352.43 1.77672 0 28.0054
-1322.42 1.91774 0 26.2408
-800.537 9.2881 0 -48.9654
-818.56 9.16214 0 -47.9082
-1337.43 1.84711 0 27.1249
-1061.88 5.91938 0 -13.8788
-809.548 9.22516 0 -48.4357
-1085.89 5.78426 0 -12.4678
-1073.89 5.85179 0 -13.1718
-1322.42 1.91774 0 26.2408
-1292.42 2.0597 0 24.462
-782.515 9.41369 0 -50.0311
-800.537 9.2881 0 -48.9654
-1307.42 1.98861 0 25.3531
-1037.86 6.05474 0 -15.3011
-791.526 9.35094 0 -49.4972
-1061.88 5.91938 0 -13.8788
-1049.87 5.98703 0 -14.5885
-1292.42 2.0597 0 24.462
-1262.41 2.20256 0 22.6693
-764.495 9.53889 0 -51.1052
-782.515 9.41369 0 -50.0311
-1277.41 2.13102 0 23.5674
-1013.85 6.19032 0 -16.7346
-773.505 9.47634 0 -50.5671
-1037.86 6.05474 0 -15.3011
-1025.85 6.12251 0 -16.0165
-1262.41 2.20256 0 22.6693
-1232.41 2.34627 0 20.8632
-746.475 9.66368 0 -52.1875
-764.495 9.53889 0 -51.1052
-1247.41 2.27431 0 21.7679
-989.832 6.32609 0 -18.1788
-755.485 9.60134 0 -51.6453
-1013.85 6.19032 0 -16.7346
-1001.84 6.25818 0 -17.4554
-1232.41 2.34627 0 20.8632
-1202.4 2.49082 0 19.0438
-728.457 9.78804 0 -53.2777
-746.475 9.66368 0 -52.1875
-1217.4 2.41845 0 19.9552
-965.82 6.46202 0 -19.6337
-737.466 9.72592 0 -52.7316
-989.832 6.32609 0 -18.1788
-977.826 6.39404 0 -18.905
-1202.4 2.49082 0 19.0438
-1172.4 2.63616 0 17.2116
-710.44 9.91195 0 -54.3756
-728.457 9.78804 0 -53.2777
-1187.4 2.56339 0 18.1293
-941.808 6.59809 0 -21.0989
-719.448 9.85005 0 -53.8257
-965.82 6.46202 0 -19.6337
-953.814 6.53004 0 -20.365
-1172.4 2.63616 0 17.2116
-1142.4 2.78226 0 15.3668
-692.424 10.0354 0 -55.4812
-710.44 9.91195 0 -54.3756
-1157.4 2.70912 0 16.2908
-917.798 6.73426 0 -22.5742
-701.432 9.97372 0 -54.9275
-941.808 6.59809 0 -21.0989
-929.803 6.66616 0 -21.8353
-1142.4 2.78226 0 15.3668
-1112.4 2.92908 0 13.5098
-674.408 10.1583 0 -56.5941
-692.424 10.0354 0 -55.4812
-1127.4 2.85558 0 14.4398
-893.788 6.87051 0 -24.0592
-683.416 10.0969 0 -56.0368
-917.798 6.73426 0 -22.5742
-905.793 6.80238 0 -23.3155
-1112.4 2.92908 0 13.5098
-1082.4 3.07658 0 11.6408
-656.394 10.2807 0 -57.7143
-674.408 10.1583 0 -56.5941
-1097.4 3.00275 0 12.5768
-869.78 7.0068 0 -25.5539
-665.401 10.2196 0 -57.1533
-893.788 6.87051 0 -24.0592
-881.784 6.93865 0 -24.8054
-1082.4 3.07658 0 11.6408
-1052.4 3.22473 0 9.76026
-638.381 10.4026 0 -58.8414
-656.394 10.2807 0 -57.7143
-1067.4 3.15058 0 10.702
-845.772 7.14311 0 -27.0578
-647.387 10.3417 0 -58.277
-869.78 7.0068 0 -25.5539
-857.776 7.07496 0 -26.3047
-1052.4 3.22473 0 9.76026
-1022.4 3.37349 0 7.86841
-620.368 10.5239 0 -59.9754
-638.381 10.4026 0 -58.8414
-1037.4 3.29904 0 8.81573
-821.766 7.27941 0 -28.5708
-629.374 10.4633 0 -59.4076
-845.772 7.14311 0 -27.0578
-833.769 7.21127 0 -27.8132
-1022.4 3.37349 0 7.86841
-992.408 3.52283 0 5.9656
-602.357 10.6446 0 -61.116
-620.368 10.5239 0 -59.9754
-1007.41 3.44809 0 6.91836
-797.76 7.41566 0 -30.0926
-611.362 10.5843 0 -60.5448
-821.766 7.27941 0 -28.5708
-809.763 7.34754 0 -29.3306
-992.408 3.52283 0 5.9656
-962.413 3.67269 0 4.05216
-584.346 10.7647 0 -62.2629
-602.357 10.6446 0 -61.116
-977.41 3.59769 0 5.01019
-773.756 7.55184 0 -31.6229
-593.351 10.7048 0 -61.6887
-797.76 7.41566 0 -30.0926
-785.758 7.48376 0 -30.8567
-962.413 3.67269 0 4.05216
-932.417 3.82305 0 2.12839
-566.336 10.8842 0 -63.4162
-584.346 10.7647 0 -62.2629
-947.415 3.74781 0 3.09154
-749.752 7.6879 0 -33.1615
-575.341 10.8245 0 -62.8388
-773.756 7.55184 0 -31.6229
-761.754 7.61988 0 -32.3912
-932.417 3.82305 0 2.12839
-902.423 3.97385 0 0.194629
-548.327 11.003 0 -64.5754
-566.336 10.8842 0 -63.4162
-917.42 3.8984 0 1.16274
-725.749 7.82381 0 -34.7081
-557.332 10.9437 0 -63.9951
-749.752 7.6879 0 -33.1615
-737.75 7.75587 0 -33.9338
-902.423 3.97385 0 0.194629
-872.429 4.12507 0 -1.7488
-530.319 11.1211 0 -65.7405
-548.327 11.003 0 -64.5754
-887.426 4.04941 0 -0.775897
-701.746 7.95954 0 -36.2624
-539.323 11.0621 0 -65.1573
-725.749 7.82381 0 -34.7081
-713.747 7.8917 0 -35.4843
-872.429 4.12507 0 -1.7488
-842.436 4.27665 0 -3.70157
-512.312 11.2384 0 -66.9113
-530.319 11.1211 0 -65.7405
-857.433 4.20082 0 -2.72404
-677.745 8.09506 0 -37.8243
-521.315 11.1799 0 -66.3252
-701.746 7.95954 0 -36.2624
-689.745 8.02733 0 -37.0424
-842.436 4.27665 0 -3.70157
-812.444 4.42856 0 -5.66335
-494.305 11.355 0 -68.0874
-512.312 11.2384 0 -66.9113
-827.44 4.35256 0 -4.68135
-653.744 8.23032 0 -39.3933
-503.308 11.2968 0 -67.4987
-677.745 8.09506 0 -37.8243
-665.744 8.16272 0 -38.6079
-812.444 4.42856 0 -5.66335
-782.452 4.58074 0 -7.63381
-476.299 11.4708 0 -69.2688
-494.305 11.355 0 -68.0874
-797.448 4.50462 0 -6.64751
-629.743 8.36529 0 -40.9693
-485.302 11.413 0 -68.6775
-653.744 8.23032 0 -39.3933
-641.743 8.29784 0 -40.1805
-782.452 4.58074 0 -7.63381
-752.46 4.73317 0 -9.61262
-458.293 11.5859 0 -70.4552
-476.299 11.4708 0 -69.2688
-767.456 4.65693 0 -8.62219
-605.744 8.49993 0 -42.552
-467.296 11.5285 0 -69.8614
-629.743 8.36529 0 -40.9693
-617.743 8.43265 0 -41.7598
-752.46 4.73317 0 -9.61262
-722.469 4.8858 0 -11.5995
-440.288 11.7 0 -71.6465
-458.293 11.5859 0 -70.4552
-737.465 4.80946 0 -10.6051
-581.745 8.63424 0 -44.1411
-449.291 11.6431 0 -71.0503
-605.744 8.49993 0 -42.552
-593.744 8.56713 0 -43.3458
-722.469 4.8858 0 -11.5995
-692.479 5.03861 0 -13.594
-422.284 11.8134 0 -72.8424
-440.288 11.7 0 -71.6465
-707.474 4.96218 0 -12.5958
-557.746 8.7682 0 -45.7364
-431.286 11.7568 0 -72.2439
-581.745 8.63424 0 -44.1411
-569.745 8.70127 0 -44.938
-692.479 5.03861 0 -13.594
-662.488 5.19158 0 -15.596
-404.28 11.9261 0 -74.0428
-422.284 11.8134 0 -72.8424
-677.483 5.11508 0 -14.5941
-533.748 8.90184 0 -47.3376
-413.282 11.8698 0 -73.442
-557.746 8.7682 0 -45.7364
-545.747 8.83506 0 -46.5363
-662.488 5.19158 0 -15.596
-632.499 5.34474 0 -17.605
-386.277 12.038 0 -75.2474
-404.28 11.9261 0 -74.0428
-647.493 5.26814 0 -16.5996
-509.75 9.0352 0 -48.9446
-395.278 11.9821 0 -74.6446
-533.748 8.90184 0 -47.3376
-521.749 8.96855 0 -48.1404
-632.499 5.34474 0 -17.605
-602.509 5.49811 0 -19.6211
-368.274 12.1495 0 -76.4563
-386.277 12.038 0 -75.2474
-617.504 5.42139 0 -18.6122
-485.753 9.16839 0 -50.5571
-377.276 12.0938 0 -75.8513
-509.75 9.0352 0 -48.9446
-497.752 9.10181 0 -49.7502
-602.509 5.49811 0 -19.6211
-572.52 5.65175 0 -21.6439
-350.272 12.2607 0 -77.6693
-368.274 12.1495 0 -76.4563
-587.514 5.57489 0 -20.6316
-461.757 9.30156 0 -52.1752
-359.273 12.2051 0 -77.0623
-485.753 9.16839 0 -50.5571
-473.755 9.23497 0 -51.3655
-572.52 5.65175 0 -21.6439
-542.53 5.80575 0 -23.6734
-332.271 12.3718 0 -78.8864
-350.272 12.2607 0 -77.6693
-557.525 5.7287 0 -22.6578
-437.761 9.43482 0 -53.7987
-341.272 12.3163 0 -78.2773
-461.757 9.30156 0 -52.1752
-449.759 9.36817 0 -52.9862
-542.53 5.80575 0 -23.6734
-512.541 5.96006 0 -25.7096
-314.271 12.483 0 -80.108
-332.271 12.3718 0 -78.8864
-527.536 5.88288 0 -24.6907
-413.765 9.5682 0 -55.4278
-323.271 12.4274 0 -79.4966
-437.761 9.43482 0 -53.7987
-425.763 9.50152 0 -54.6126
-512.541 5.96006 0 -25.7096
-482.552 6.11446 0 -27.7524
-296.272 12.5936 0 -81.3341
-314.271 12.483 0 -80.108
-497.547 6.03728 0 -26.7302
-389.77 9.7012 0 -57.0624
-305.271 12.5384 0 -80.7204
-413.765 9.5682 0 -55.4278
-401.768 9.6348 0 -56.2444
-482.552 6.11446 0 -27.7524
-452.562 6.26787 0 -29.801
-278.272 12.7024 0 -82.5657
-296.272 12.5936 0 -81.3341
-467.557 6.19142 0 -28.7761
-365.775 9.83233 0 -58.7023
-287.272 12.6484 0 -81.9492
-389.77 9.7012 0 -57.0624
-377.773 9.76722 0 -57.8818
-452.562 6.26787 0 -29.801
-422.572 6.41802 0 -31.8539
-260.271 12.8046 0 -83.8035
-278.272 12.7024 0 -82.5657
-437.567 6.34356 0 -30.8271
-341.779 9.95737 0 -60.3464
-269.272 12.7548 0 -83.1838
-365.775 9.83233 0 -58.7023
-353.777 9.89595 0 -59.5239
-422.572 6.41802 0 -31.8539
-392.581 6.55871 0 -33.9053
-242.259 12.8917 0 -85.0497
-260.271 12.8046 0 -83.8035
-407.576 6.49019 0 -32.8804
-317.776 10.068 0 -61.9918
-251.267 12.8509 0 -84.4253
-341.779 9.95737 0 -60.3464
-329.778 10.0156 0 -61.1694
-392.581 6.55871 0 -33.9053
-362.585 6.67999 0 -35.9463
-224.224 12.943 0 -86.3061
-242.259 12.8917 0 -85.0497
-377.585 6.62272 0 -34.9279
-293.756 10.1454 0 -63.6317
-233.244 12.9238 0 -85.6767
-317.776 10.068 0 -61.9918
-305.769 10.1121 0 -62.8128
-362.585 6.67999 0 -35.9463
-332.591 6.75651 0 -37.9507
-206.125 12.9289 0 -87.58
-224.224 12.943 0 -86.3061
-347.586 6.72604 0 -36.9558
-269.698 10.1594 0 -65.253
-215.187 12.947 0 -86.94
-293.756 10.1454 0 -63.6317
-281.733 10.1645 0 -64.4467
-332.591 6.75651 0 -37.9507
-302.57 6.75837 0 -39.8847
-187.915 12.7825 0 -88.8756
-206.125 12.9289 0 -87.58
-317.588 6.77005 0 -38.929
-245.554 10.0474 0 -66.8319
-197.034 12.8777 0 -88.2255
-269.698 10.1594 0 -65.253
-257.641 10.1216 0 -66.0483
-302.57 6.75837 0 -39.8847
-272.545 6.60099 0 -41.6574
-169.436 12.4378 0 -90.2216
-187.915 12.7825 0 -88.8756
-287.552 6.70478 0 -40.8007
-221.24 9.73257 0 -68.3287
-178.727 12.6414 0 -89.5384
-245.554 10.0474 0 -66.8319
-233.423 9.92872 0 -67.5975
-272.545 6.60099 0 -41.6574
-242.383 6.23528 0 -43.1844
-150.561 11.7415 0 -91.6331
-169.436 12.4378 0 -90.2216
-257.502 6.45412 0 -42.456
-196.581 9.06003 0 -69.6943
-160.047 12.1419 0 -90.9209
-221.24 9.73257 0 -68.3287
-208.973 9.43834 0 -69.0243
-242.383 6.23528 0 -43.1844
-212.147 5.42232 0 -44.2243
-130.822 10.689 0 -93.2297
-150.561 11.7415 0 -91.6331
-227.251 5.88695 0 -43.7915
-171.323 7.94477 0 -70.8683
-140.856 11.2623 0 -92.3919
-196.581 9.06003 0 -69.6943
-184.035 8.5929 0 -70.3252
-212.147 5.42232 0 -44.2243
-181.219 4.28764 0 -44.7143
-110.057 9.15825 0 -95.0798
-130.822 10.689 0 -93.2297
-196.858 4.92336 0 -44.5306
-144.913 6.19922 0 -71.8968
-120.54 9.96172 0 -94.1275
-171.323 7.94477 0 -70.8683
-158.335 7.09143 0 -71.3604
-181.219 4.28764 0 -44.7143
-149.734 2.30437 0 -44.2951
-87.3033 8.06768 0 -97.6421
-110.057 9.15825 0 -95.0798
-165.472 3.32978 0 -44.6626
-116.822 4.36256 0 -72.9689
-99.0688 8.49033 0 -96.2114
-144.913 6.19922 0 -71.8968
-131.055 5.35242 0 -72.47
-149.734 2.30437 0 -44.2951
-115.106 1.29769 0 -43.8306
-63.4326 8.53772 0 -101.065
-87.3033 8.06768 0 -97.6421
-133.154 1.73724 0 -43.9511
-85.6474 3.43976 0 -75.1135
-75.308 7.85525 0 -99.2676
-116.822 4.36256 0 -72.9689
-101.874 3.37172 0 -73.6687
-115.106 1.29769 0 -43.8306
-77.8007 1.44199 0 -44.6072
-38.3605 16.621 0 -105.977
-63.4326 8.53772 0 -101.065
-96.5581 0.518045 0 -43.9297
-51.8611 9.28657 0 -80.0519
-51.2429 11.1847 0 -103.257
-85.6474 3.43976 0 -75.1135
-68.7506 5.30292 0 -77.3316
-77.8007 1.44199 0 -44.6072
-31.6162 17.9623 0 -55.0099
-19.523 39.8399 0 -108.267
-38.3605 16.621 0 -105.977
-56.6384 7.09875 0 -47.7117
-16.4719 34.7474 0 -91.0166
-27.2353 25.1607 0 -108.028
-51.8611 9.28657 0 -80.0519
-34.8661 17.0561 0 -84.084
-31.6162 17.9623 0 -55.0099
2.49 82.6568 0 -82.6239
-7.15521 95.3203 0 -95.7724
-19.523 39.8399 0 -108.267
-11.0889 35.4544 0 -65.9195
-4.6032 107.465 0 -94.5025
-13.0588 64.0716 0 -105.2
-16.4719 34.7474 0 -91.0166
-3.79378 65.1916 0 -96.7085
2.49 82.6568 0 -82.6239
-8.62209 308.035 0 -66.0874
0.748221 152.978 0 -43.7172
-7.15521 95.3203 0 -95.7724
6.52179 177.836 0 -91.3321
-11.2986 217.626 0 -35.8562
-1.93613 128.226 0 -75.8826
-4.6032 107.465 0 -94.5025
-9.12962 162.082 0 -76.5263
-3217.31 -967.8 0 296.305
-3491.69 -616.01 0 -6.48641
-1140.88 -200.293 0 153.85
-1169.51 -350.671 0 462.375
-3403.76 -780.022 0 113.211
-2316.68 -407.849 0 92.2792
-1121.33 -276.693 0 291.799
-2146.78 -644.83 0 422.774
-2267.69 -544.33 0 210.377
-3491.69 -616.01 0 -6.48641
-3556.91 -274.597 0 -98.809
-1201.06 -125.976 0 -30.1559
-1140.88 -200.293 0 153.85
-3520.77 -432.715 0 -66.4557
-2370.91 -217.422 0 -54.286
-1187.46 -158.986 0 45.5804
-2316.68 -407.849 0 92.2792
-2341.15 -297.546 0 12.7685
-3556.91 -274.597 0 -98.809
-3590.02 -103.249 0 -114.526
-1204.92 -58.1335 0 -113.005
-1201.06 -125.976 0 -30.1559
-3588.77 -171.451 0 -114.05
-2398.95 -93.563 0 -116.233
-1198.76 -88.5038 0 -80.2055
-2370.91 -217.422 0 -54.286
-2392.77 -149.432 0 -97.4194
-3590.02 -103.249 0 -114.526
-3562.49 -24.413 0 -103.07
-1208.09 -26.8127 0 -142.016
-1204.92 -58.1335 0 -113.005
-3574.96 -54.3233 0 -108.217
-2391.24 -32.8644 0 -128.689
-1211.76 -39.7274 0 -132.572
-2398.95 -93.563 0 -116.233
-2396.98 -56.082 0 -124.232
-3562.49 -24.413 0 -103.07
-3530.54 -1.9273 0 -94.7602
-1195.11 -10.7467 0 -144.425
-1208.09 -26.8127 0 -142.016
-3549.15 -9.35453 0 -98.9285
-2369.35 -7.50575 0 -125.087
-1200.03 -16.5723 0 -144.872
-2391.24 -32.8644 0 -128.689
-2381.58 -17.2331 0 -128.536
-3530.54 -1.9273 0 -94.7602
-3493.8 3.29231 0 -88.543
-1184.25 -8.06236 0 -138.44
-1195.11 -10.7467 0 -144.425
-3510.39 2.31524 0 -91.0006
-2344.36 -1.94149 0 -118.137
-1190.85 -8.7186 0 -141.968
-2369.35 -7.50575 0 -125.087
-2356.44 -3.01605 0 -121.228
-3493.8 3.29231 0 -88.543
-3464.21 0.229476 0 -85.204
-1171.56 -8.12782 0 -130.929
-1184.25 -8.06236 0 -138.44
-3479.04 2.06316 0 -86.8183
-2321.85 -2.8672 0 -111.799
-1177.08 -7.71952 0 -134.543
-2344.36 -1.94149 0 -118.137
-2332.77 -2.05146 0 -114.991
-3464.21 0.229476 0 -85.204
-3437.54 -3.26896 0 -82.5463
-1161.84 -9.92629 0 -124.821
-1171.56 -8.12782 0 -130.929
-3450.04 -1.48048 0 -83.7328
-2302.55 -5.81519 0 -106.923
-1166.82 -9.05587 0 -127.674
-2321.85 -2.8672 0 -111.799
-2311.75 -4.24099 0 -109.078
-3437.54 -3.26896 0 -82.5463
-3414.89 -6.45683 0 -80.4369
-1152.91 -11.1879 0 -120.373
-1161.84 -9.92629 0 -124.821
-3426.05 -5.01747 0 -81.4995
-2286.02 -8.328 0 -103.297
-1157.04 -10.5791 0 -122.378
-2302.55 -5.81519 0 -106.923
-2294.01 -7.18441 0 -105.02
-3414.89 -6.45683 0 -80.4369
-3393.97 -8.4437 0 -78.3593
-1145.44 -12.1382 0 -117.364
-1152.91 -11.1879 0 -120.373
-3404.14 -7.55856 0 -79.3783
-2271.37 -10.1016 0 -100.589
-1149.15 -11.742 0 -118.724
-2286.02 -8.328 0 -103.297
-2278.5 -9.307 0 -101.829
-3393.97 -8.4437 0 -78.3593
-3374.51 -9.64724 0 -76.3373
-1138.47 -12.553 0 -115.319
-1145.44 -12.1382 0 -117.364
-3384.17 -9.14683 0 -77.3555
-2257.9 -11.0987 0 -98.4535
-1141.85 -12.3864 0 -116.242
-2271.37 -10.1016 0 -100.589
-2264.53 -10.6874 0 -99.4759
-3374.51 -9.64724 0 -76.3373
-3355.66 -10.2088 0 -74.2985
-1132.02 -12.6835 0 -113.892
-1138.47 -12.553 0 -115.319
-3365.01 -9.98413 0 -75.3148
-2245.11 -11.5694 0 -96.6761
-1135.23 -12.6557 0 -114.548
-2257.9 -11.0987 0 -98.4535
-2251.45 -11.3867 0 -97.5265
-3355.66 -10.2088 0 -74.2985
-3337.23 -10.4141 0 -72.2747
-1125.73 -12.5883 0 -112.824
-1132.02 -12.6835 0 -113.892
-3346.43 -10.3496 0 -73.2866
-2232.68 -11.6895 0 -95.1044
-1128.84 -12.6535 0 -113.324
-2245.11 -11.5694 0 -96.6761
-2238.86 -11.6638 0 -95.8731
-3337.23 -10.4141 0 -72.2747
-3318.95 -10.3954 0 -70.2655
-1119.58 -12.384 0 -111.96
-1125.73 -12.5883 0 -112.824
-3328.07 -10.4235 0 -71.2666
-2220.42 -11.6118 0 -93.6574
-1122.65 -12.4981 0 -112.374
-2232.68 -11.6895 0 -95.1044
-2226.53 -11.6688 0 -94.3681
-3318.95 -10.3954 0 -70.2655
-3300.77 -10.2664 0 -68.2849
-1113.46 -12.1134 0 -111.208
-1119.58 -12.384 0 -111.96
-3309.86 -10.3415 0 -69.2717
-2208.25 -11.4251 0 -92.2851
-1116.51 -12.2535 0 -111.574
-2220.42 -11.6118 0 -93.6574
-2214.33 -11.5282 0 -92.9644
-3300.77 -10.2664 0 -68.2849
-3282.61 -10.0798 0 -66.3364
-1107.36 -11.8165 0 -110.518
-1113.46 -12.1134 0 -111.208
-3291.68 -10.1775 0 -67.3062
-2196.11 -11.1863 0 -90.9632
-1110.41 -11.9675 0 -110.857
-2208.25 -11.4251 0 -92.2851
-2202.18 -11.31 0 -91.6188
-3282.61 -10.0798 0 -66.3364
-3264.46 -9.87035 0 -64.4238
-1101.27 -11.5085 0 -109.862
-1107.36 -11.8165 0 -110.518
-3273.54 -9.97694 0 -65.3756
-2183.98 -10.9249 0 -89.6778
-1104.32 -11.6629 0 -110.187
-2196.11 -11.1863 0 -90.9632
-2190.05 -11.0573 0 -90.3165
-3264.46 -9.87035 0 -64.4238
-3246.32 -9.65301 0 -62.5477
-1095.18 -11.1997 0 -109.23
-1101.27 -11.5085 0 -109.862
-3255.39 -9.76197 0 -63.4811
-2171.86 -10.6568 0 -88.4224
-1098.23 -11.354 0 -109.544
-2183.98 -10.9249 0 -89.6778
-2177.92 -10.7911 0 -89.0466
-3246.32 -9.65301 0 -62.5477
-3228.17 -9.43602 0 -60.7084
-1089.08 -10.8936 0 -108.613
-1095.18 -11.1997 0 -109.23
-3237.24 -9.54427 0 -61.6235
-2159.73 -10.389 0 -87.1936
-1092.13 -11.0462 0 -108.919
-2171.86 -10.6568 0 -88.4224
-2165.79 -10.5226 0 -87.8048
-3228.17 -9.43602 0 -60.7084
-3210.02 -9.2222 0 -58.9055
-1082.99 -10.592 0 -108.009
-1089.08 -10.8936 0 -108.613
-3219.09 -9.3286 0 -59.8024
-2147.59 -10.1247 0 -85.9897
-1086.04 -10.7423 0 -108.309
-2159.73 -10.389 0 -87.1936
-2153.66 -10.2564 0 -86.5886
-3210.02 -9.2222 0 -58.9055
-3191.86 -9.01267 0 -57.1383
-1076.88 -10.2947 0 -107.417
-1082.99 -10.592 0 -108.009
-3200.94 -9.11689 0 -58.0174
-2135.46 -9.86466 0 -84.8097
-1079.94 -10.4428 0 -107.712
-2147.59 -10.1247 0 -85.9897
-2141.53 -9.99414 0 -85.3967
-3191.86 -9.01267 0 -57.1383
-3173.71 -8.80741 0 -55.4063
-1070.78 -10.0015 0 -106.837
-1076.88 -10.2947 0 -107.417
-3182.78 -8.90951 0 -56.2679
-2123.32 -9.60888 0 -83.653
-1073.83 -10.1476 0 -107.126
-2135.46 -9.86466 0 -84.8097
-2129.39 -9.73626 0 -84.2284
-3173.71 -8.80741 0 -55.4063
-3155.55 -8.60615 0 -53.7088
-1064.68 -9.71206 0 -106.268
-1070.78 -10.0015 0 -106.837
-3164.63 -8.7063 0 -54.5532
-2111.18 -9.35702 0 -82.5193
-1067.73 -9.85637 0 -106.551
-2123.32 -9.60888 0 -83.653
-2117.25 -9.48249 0 -83.0833
-3155.55 -8.60615 0 -53.7088
-3137.38 -8.40853 0 -52.0455
-1058.57 -9.42579 0 -105.71
-1064.68 -9.71206 0 -106.268
-3146.47 -8.50691 0 -52.8729
-2099.04 -9.10868 0 -81.4082
-1061.63 -9.56855 0 -105.987
-2111.18 -9.35702 0 -82.5193
-2105.11 -9.23243 0 -81.9609
-3137.38 -8.40853 0 -52.0455
-3119.22 -8.2142 0 -50.416
-1052.47 -9.14239 0 -105.163
-1058.57 -9.42579 0 -105.71
-3128.3 -8.31097 0 -51.2266
-2086.9 -8.86349 0 -80.3196
-1055.52 -9.28375 0 -105.435
-2099.04 -9.10868 0 -81.4082
-2092.97 -8.9857 0 -80.8611
-3119.22 -8.2142 0 -50.416
-3101.06 -8.02291 0 -48.8199
-1046.36 -8.86158 0 -104.627
-1052.47 -9.14239 0 -105.163
-3110.14 -8.11819 0 -49.6138
-2074.75 -8.62117 0 -79.2533
-1049.42 -9.00167 0 -104.894
-2086.9 -8.86349 0 -80.3196
-2080.83 -8.74198 0 -79.7837
-3101.06 -8.02291 0 -48.8199
-3082.89 -7.83443 0 -47.2569
-1040.26 -8.58317 0 -104.102
-1046.36 -8.86158 0 -104.627
-3091.98 -7.92833 0 -48.0343
-2062.61 -8.38152 0 -78.2089
-1043.31 -8.72208 0 -104.363
-2074.75 -8.62117 0 -79.2533
-2068.68 -8.50102 0 -78.7283
-3082.89 -7.83443 0 -47.2569
-3064.73 -7.64862 0 -45.7269
-1034.15 -8.30701 0 -103.588
-1040.26 -8.58317 0 -104.102
-3073.81 -7.7412 0 -46.4878
-2050.47 -8.14437 0 -77.1865
-1037.2 -8.44481 0 -103.844
-2062.61 -8.38152 0 -78.2089
-2056.54 -8.26264 0 -77.695
-3064.73 -7.64862 0 -45.7269
-3046.56 -7.46534 0 -44.2296
-1028.05 -8.03303 0 -103.085
-1034.15 -8.30701 0 -103.588
-3055.64 -7.55667 0 -44.9742
-2038.32 -7.90962 0 -76.1858
-1031.1 -8.16975 0 -103.335
-2050.47 -8.14437 0 -77.1865
-2044.4 -8.0267 0 -76.6835
-3046.56 -7.46534 0 -44.2296
-3028.39 -7.2845 0 -42.7647
-1021.94 -7.76114 0 -102.592
-1028.05 -8.03303 0 -103.085
-3037.48 -7.37462 0 -43.4931
-2026.18 -7.67716 0 -75.2068
-1024.99 -7.89682 0 -102.837
-2038.32 -7.90962 0 -76.1858
-2032.25 -7.79311 0 -75.6936
-3028.39 -7.2845 0 -42.7647
-3010.23 -7.10599 0 -41.3321
-1015.84 -7.4913 0 -102.11
-1021.94 -7.76114 0 -102.592
-3019.31 -7.19496 0 -42.0444
-2014.03 -7.44695 0 -74.2493
-1018.89 -7.62597 0 -102.35
-2026.18 -7.67716 0 -75.2068
-2020.11 -7.56178 0 -74.7254
-3010.23 -7.10599 0 -41.3321
-2992.06 -6.92976 0 -39.9316
-1009.73 -7.22349 0 -101.639
-1015.84 -7.4913 0 -102.11
-3001.14 -7.0176 0 -40.6279
-2001.89 -7.21891 0 -73.3131
-1012.78 -7.35714 0 -101.873
-2014.03 -7.44695 0 -74.2493
-2007.96 -7.33266 0 -73.7785
-2992.06 -6.92976 0 -39.9316
-2973.89 -6.75572 0 -38.5631
-1003.63 -6.95766 0 -101.179
-1009.73 -7.22349 0 -101.639
-2982.97 -6.84247 0 -39.2434
-1989.74 -6.99301 0 -72.3982
-1006.68 -7.09033 0 -101.408
-2001.89 -7.21891 0 -73.3131
-1995.82 -7.1057 0 -72.853
-2973.89 -6.75572 0 -38.5631
-2955.72 -6.58381 0 -37.2262
-997.521 -6.69381 0 -100.728
-1003.63 -6.95766 0 -101.179
-2964.8 -6.6695 0 -37.8907
-1977.6 -6.76919 0 -71.5044
-1000.57 -6.82549 0 -100.952
-1989.74 -6.99301 0 -72.3982
-1983.67 -6.88084 0 -71.9486
-2955.72 -6.58381 0 -37.2262
-2937.55 -6.41396 0 -35.9209
-991.416 -6.4319 0 -100.289
-997.521 -6.69381 0 -100.728
-2946.63 -6.49863 0 -36.5696
-1965.45 -6.54741 0 -70.6315
-994.468 -6.56261 0 -100.507
-1977.6 -6.76919 0 -71.5044
-1971.53 -6.65805 0 -71.0653
-2937.55 -6.41396 0 -35.9209
-2919.37 -6.24612 0 -34.6469
-985.311 -6.17193 0 -99.8594
-991.416 -6.4319 0 -100.289
-2928.46 -6.32979 0 -35.28
-1953.31 -6.32764 0 -69.7796
-988.363 -6.30167 0 -100.073
-1965.45 -6.54741 0 -70.6315
-1959.38 -6.43728 0 -70.203
-2919.37 -6.24612 0 -34.6469
-2901.2 -6.08022 0 -33.4041
-979.207 -5.91386 0 -99.4404
-985.311 -6.17193 0 -99.8594
-2910.29 -6.16293 0 -34.0216
-1941.16 -6.10983 0 -68.9484
-982.259 -6.04266 0 -99.6486
-1953.31 -6.32764 0 -69.7796
-1947.23 -6.21849 0 -69.3614
-2901.2 -6.08022 0 -33.4041
-2883.03 -5.91619 0 -32.1922
-973.102 -5.65769 0 -99.0317
-979.207 -5.91386 0 -99.4404
-2892.12 -5.99797 0 -32.7943
-1929.02 -5.89394 0 -68.1378
-976.154 -5.78554 0 -99.2348
-1941.16 -6.10983 0 -68.9484
-1935.09 -6.00165 0 -68.5405
-2883.03 -5.91619 0 -32.1922
-2864.86 -5.75399 0 -31.0111
-966.998 -5.40339 0 -98.6331
-973.102 -5.65769 0 -99.0317
-2873.94 -5.83487 0 -31.5979
-1916.87 -5.67993 0 -67.3477
-970.05 -5.53031 0 -98.8311
-1929.02 -5.89394 0 -68.1378
-1922.94 -5.7867 0 -67.7402
-2864.86 -5.75399 0 -31.0111
-2846.69 -5.59355 0 -29.8606
-960.894 -5.15095 0 -98.2447
-966.998 -5.40339 0 -98.6331
-2855.77 -5.67355 0 -30.4321
-1904.72 -5.46777 0 -66.5779
-963.946 -5.27694 0 -98.4377
-1916.87 -5.67993 0 -67.3477
-1910.8 -5.57362 0 -66.9603
-2846.69 -5.59355 0 -29.8606
-2828.51 -5.43481 0 -28.7405
-954.791 -4.90034 0 -97.8664
-960.894 -5.15095 0 -98.2447
-2837.6 -5.51397 0 -29.2968
-1892.58 -5.25741 0 -65.8284
-957.842 -5.02541 0 -98.0543
-1904.72 -5.46777 0 -66.5779
-1898.65 -5.36237 0 -66.2007
-2828.51 -5.43481 0 -28.7405
-2810.34 -5.27771 0 -27.6506
-948.687 -4.65155 0 -97.4981
-954.791 -4.90034 0 -97.8664
-2819.43 -5.35606 0 -28.1918
-1880.43 -5.04883 0 -65.099
-951.739 -4.77572 0 -97.681
-1892.58 -5.25741 0 -65.8284
-1886.51 -5.1529 0 -65.4612
-2810.34 -5.27771 0 -27.6506
-2792.17 -5.1222 0 -26.5906
-942.584 -4.40456 0 -97.1397
-948.687 -4.65155 0 -97.4981
-2801.25 -5.19976 0 -27.1168
-1868.29 -4.84197 0 -64.3896
-945.636 -4.52783 0 -97.3176
-1880.43 -5.04883 0 -65.099
-1874.36 -4.94518 0 -64.7418
-2792.17 -5.1222 0 -26.5906
-2774 -4.96823 0 -25.5605
-936.481 -4.15936 0 -96.7912
-942.584 -4.40456 0 -97.1397
-2783.08 -5.04503 0 -26.0718
-1856.14 -4.63681 0 -63.7001
-939.533 -4.28174 0 -96.9642
-1868.29 -4.84197 0 -64.3896
-1862.22 -4.73918 0 -64.0424
-2774 -4.96823 0 -25.5605
-2755.82 -4.81574 0 -24.56
-930.379 -3.91591 0 -96.4525
-936.481 -4.15936 0 -96.7912
-2764.91 -4.8918 0 -25.0565
-1844 -4.4333 0 -63.0302
-933.43 -4.03741 0 -96.6206
-1856.14 -4.63681 0 -63.7001
-1850.07 -4.53485 0 -63.3627
-2755.82 -4.81574 0 -24.56
-2737.65 -4.66467 0 -23.5889
-924.277 -3.67421 0 -96.1236
-930.379 -3.91591 0 -96.4525
-2746.74 -4.74003 0 -24.0707
-1831.86 -4.23142 0 -62.38
-927.328 -3.79485 0 -96.2869
-1844 -4.4333 0 -63.0302
-1837.93 -4.33216 0 -62.7027
-2737.65 -4.66467 0 -23.5889
-2719.48 -4.51497 0 -22.647
-918.175 -3.43425 0 -95.8044
-924.277 -3.67421 0 -96.1236
-2728.57 -4.58965 0 -23.1143
-1819.71 -4.03112 0 -61.7492
-921.226 -3.55401 0 -95.9628
-1831.86 -4.23142 0 -62.38
-1825.78 -4.13107 0 -62.0622
-2719.48 -4.51497 0 -22.647
-2701.31 -4.3666 0 -21.7342
-912.074 -3.19599 0 -95.4948
-918.175 -3.43425 0 -95.8044
-2710.39 -4.44062 0 -22.187
-1807.57 -3.83238 0 -61.1378
-915.124 -3.3149 0 -95.6484
-1819.71 -4.03112 0 -61.7492
-1813.64 -3.93156 0 -61.4411
-2701.31 -4.3666 0 -21.7342
-2683.14 -4.21949 0 -20.8502
-905.973 -2.95942 0 -95.1948
-912.074 -3.19599 0 -95.4948
-2692.22 -4.29289 0 -21.2886
-1795.42 -3.63515 0 -60.5455
-909.023 -3.0775 0 -95.3436
-1807.57 -3.83238 0 -61.1378
-1801.5 -3.73358 0 -60.8393
-2683.14 -4.21949 0 -20.8502
-2664.97 -4.07361 0 -19.9948
-899.872 -2.72454 0 -94.9043
-905.973 -2.95942 0 -95.1948
-2674.05 -4.1464 0 -20.4189
-1783.28 -3.43942 0 -59.9724
-902.923 -2.84177 0 -95.0484
-1795.42 -3.63515 0 -60.5455
-1789.35 -3.5371 0 -60.2566
-2664.97 -4.07361 0 -19.9948
-2646.8 -3.9289 0 -19.1679
-893.772 -2.49132 0 -94.6233
-899.872 -2.72454 0 -94.9043
-2655.88 -4.00111 0 -19.5778
-1771.14 -3.24513 0 -59.4182
-896.822 -2.60772 0 -94.7626
-1783.28 -3.43942 0 -59.9724
-1777.21 -3.3421 0 -59.6929
-2646.8 -3.9289 0 -19.1679
-2628.63 -3.78532 0 -18.3693
-887.673 -2.25974 0 -94.3516
-893.772 -2.49132 0 -94.6233
-2637.71 -3.85697 0 -18.7651
-1759 -3.05227 0 -58.8828
-890.722 -2.37532 0 -94.4863
-1771.14 -3.24513 0 -59.4182
-1765.07 -3.14853 0 -59.1482
-2628.63 -3.78532 0 -18.3693
-2610.46 -3.64281 0 -17.5987
-881.574 -2.02979 0 -94.0893
-887.673 -2.25974 0 -94.3516
-2619.54 -3.71393 0 -17.9805
-1746.86 -2.8608 0 -58.3662
-884.623 -2.14456 0 -94.2193
-1759 -3.05227 0 -58.8828
-1752.93 -2.95637 0 -58.6222
-2610.46 -3.64281 0 -17.5987
-2592.29 -3.50135 0 -16.856
-875.475 -1.80146 0 -93.8362
-881.574 -2.02979 0 -94.0893
-2601.37 -3.57195 0 -17.2239
-1734.72 -2.6707 0 -57.8681
-878.524 -1.91543 0 -93.9616
-1746.86 -2.8608 0 -58.3662
-1740.79 -2.76558 0 -58.1148
-2592.29 -3.50135 0 -16.856
-2574.12 -3.36087 0 -16.141
-869.377 -1.57473 0 -93.5923
-875.475 -1.80146 0 -93.8362
-2583.2 -3.43099 0 -16.495
-1722.58 -2.48192 0 -57.3884
-872.426 -1.6879 0 -93.7131
-1734.72 -2.6707 0 -57.8681
-1728.65 -2.57614 0 -57.626
-2574.12 -3.36087 0 -16.141
-2555.95 -3.22133 0 -15.4534
-863.279 -1.34959 0 -93.3575
-869.377 -1.57473 0 -93.5923
-2565.04 -3.29099 0 -15.7938
-1710.44 -2.29445 0 -56.9271
-866.328 -1.46197 0 -93.4737
-1722.58 -2.48192 0 -57.3884
-1716.51 -2.38802 0 -57.1555
-2555.95 -3.22133 0 -15.4534
-2537.78 -3.08271 0 -14.7932
-857.182 -1.12602 0 -93.1318
-863.279 -1.34959 0 -93.3575
-2546.87 -3.15191 0 -15.1199
-1698.3 -2.10825 0 -56.4839
-860.23 -1.23761 0 -93.2435
-1710.44 -2.29445 0 -56.9271
-1704.37 -2.20119 0 -56.7032
-2537.78 -3.08271 0 -14.7932
-2519.62 -2.94494 0 -14.16
-851.085 -0.904007 0 -92.9151
-857.182 -1.12602 0 -93.1318
-2528.7 -3.01372 0 -14.4732
-1686.16 -1.9233 0 -56.0588
-854.134 -1.01482 0 -93.0223
-1698.3 -2.10825 0 -56.4839
-1692.23 -2.01562 0 -56.2691
-2519.62 -2.94494 0 -14.16
-2501.45 -2.808 0 -13.5538
-844.989 -0.683539 0 -92.7073
-851.085 -0.904007 0 -92.9151
-2510.54 -2.87637 0 -13.8536
-1674.02 -1.73956 0 -55.6516
-848.037 -0.793581 0 -92.8101
-1686.16 -1.9233 0 -56.0588
-1680.09 -1.83128 0 -55.853
-2501.45 -2.808 0 -13.5538
-2483.29 -2.67184 0 -12.9742
-838.894 -0.464602 0 -92.5084
-844.989 -0.683539 0 -92.7073
-2492.37 -2.73982 0 -13.2607
-1661.89 -1.55702 0 -55.2623
-841.942 -0.573879 0 -92.6068
-1674.02 -1.73956 0 -55.6516
-1667.96 -1.64815 0 -55.4547
-2483.29 -2.67184 0 -12.9742
-2465.13 -2.53642 0 -12.4212
-832.799 -0.247183 0 -92.3184
-838.894 -0.464602 0 -92.5084
-2474.21 -2.60404 0 -12.6944
-1649.75 -1.37565 0 -54.8906
-835.846 -0.355703 0 -92.4123
-1661.89 -1.55702 0 -55.2623
-1655.82 -1.46619 0 -55.0742
-2465.13 -2.53642 0 -12.4212
-2446.96 -2.40171 0 -11.8945
-826.705 -0.0312705 0 -92.1371
-832.799 -0.247183 0 -92.3184
-2456.04 -2.46898 0 -12.1546
-1637.62 -1.19543 0 -54.5364
-829.752 -0.139039 0 -92.2266
-1649.75 -1.37565 0 -54.8906
-1643.68 -1.2854 0 -54.7113
-2446.96 -2.40171 0 -11.8945
-2428.8 -2.26768 0 -11.3939
-820.611 0.183148 0 -91.9644
-826.705 -0.0312705 0 -92.1371
-2437.88 -2.33461 0 -11.641
-1625.48 -1.01632 0 -54.1996
-823.658 0.0761249 0 -92.0497
-1637.62 -1.19543 0 -54.5364
-1631.55 -1.10573 0 -54.3658
-2428.8 -2.26768 0 -11.3939
-2410.64 -2.13427 0 -10.9193
-814.518 0.396086 0 -91.8004
-820.611 0.183148 0 -91.9644
-2419.72 -2.2009 0 -11.1534
-1613.35 -0.838301 0 -53.8801
-817.565 0.289801 0 -91.8813
-1625.48 -1.01632 0 -54.1996
-1619.42 -0.927173 0 -54.0377
-2410.64 -2.13427 0 -10.9193
-2392.48 -2.00147 0 -10.4704
-808.426 0.607553 0 -91.645
-814.518 0.396086 0 -91.8004
-2401.56 -2.0678 0 -10.6916
-1601.22 -0.661357 0 -53.5778
-811.472 0.502002 0 -91.7216
-1613.35 -0.838301 0 -53.8801
-1607.28 -0.749696 0 -53.7269
-2392.48 -2.00147 0 -10.4704
-2374.32 -1.86923 0 -10.047
-802.334 0.817561 0 -91.498
-808.426 0.607553 0 -91.645
-2383.4 -1.93528 0 -10.2555
-1589.09 -0.485462 0 -53.2925
-805.38 0.712739 0 -91.5704
-1601.22 -0.661357 0 -53.5778
-1595.15 -0.57328 0 -53.4331
-2374.32 -1.86923 0 -10.047
-2356.17 -1.73753 0 -9.64896
-796.243 1.02612 0 -91.3595
-802.334 0.817561 0 -91.498
-2365.25 -1.80331 0 -9.84481
-1576.96 -0.310593 0 -53.0241
-799.289 0.922022 0 -91.4277
-1589.09 -0.485462 0 -53.2925
-1583.02 -0.3979 0 -53.1562
-2356.17 -1.73753 0 -9.64896
-2338.01 -1.60632 0 -9.27609
-790.153 1.23325 0 -91.2294
-796.243 1.02612 0 -91.3595
-2347.09 -1.67186 0 -9.45939
-1564.83 -0.136729 0 -52.7725
-793.198 1.12986 0 -91.2934
-1576.96 -0.310593 0 -53.0241
-1570.89 -0.223537 0 -52.8962
-2338.01 -1.60632 0 -9.27609
-2319.86 -1.47559 0 -8.92818
-784.063 1.43894 0 -91.1075
-790.153 1.23325 0 -91.2294
-2328.93 -1.5409 0 -9.09903
-1552.7 0.0361502 0 -52.5375
-787.108 1.33627 0 -91.1674
-1564.83 -0.136729 0 -52.7725
-1558.76 -0.0501676 0 -52.6529
-2319.86 -1.47559 0 -8.92818
-2301.7 -1.34529 0 -8.60504
-777.974 1.64323 0 -90.9939
-784.063 1.43894 0 -91.1075
-2310.78 -1.41039 0 -8.76352
-1540.57 0.208065 0 -52.319
-781.019 1.54126 0 -91.0497
-1552.7 0.0361502 0 -52.5375
-1546.63 0.122227 0 -52.4262
-2301.7 -1.34529 0 -8.60504
-2283.55 -1.21541 0 -8.30647
-771.886 1.8461 0 -90.8885
-777.974 1.64323 0 -90.9939
-2292.63 -1.2803 0 -8.45269
-1528.45 0.379036 0 -52.1169
-774.93 1.74484 0 -90.9402
-1540.57 0.208065 0 -52.319
-1534.51 0.293667 0 -52.2159
-2283.55 -1.21541 0 -8.30647
-2265.4 -1.0859 0 -8.03227
-765.799 2.04758 0 -90.7912
-771.886 1.8461 0 -90.8885
-2274.47 -1.15061 0 -8.16633
-1516.32 0.549081 0 -51.931
-768.842 1.94701 0 -90.8388
-1528.45 0.379036 0 -52.1169
-1522.38 0.464173 0 -52.0219
-2265.4 -1.0859 0 -8.03227
-2247.25 -0.956755 0 -7.78226
-759.712 2.24767 0 -90.702
-765.799 2.04758 0 -90.7912
-2256.32 -1.02129 0 -7.90425
-1504.2 0.718219 0 -51.7613
-762.755 2.1478 0 -90.7456
-1516.32 0.549081 0 -51.931
-1510.26 0.633762 0 -51.8442
-2247.25 -0.956755 0 -7.78226
-2229.1 -0.827934 0 -7.55624
-753.626 2.44638 0 -90.6207
-759.712 2.24767 0 -90.702
-2238.18 -0.892305 0 -7.66626
-1492.07 0.886468 0 -51.6075
-756.669 2.3472 0 -90.6603
-1504.2 0.718219 0 -51.7613
-1498.13 0.802453 0 -51.6824
-2229.1 -0.827934 0 -7.55624
-2210.95 -0.699414 0 -7.35401
-747.54 2.64373 0 -90.5474
-753.626 2.44638 0 -90.6207
-2220.03 -0.763638 0 -7.45216
-1479.95 1.05384 0 -51.4697
-750.583 2.54523 0 -90.5831
-1492.07 0.886468 0 -51.6075
-1486.01 0.970264 0 -51.5366
-2210.95 -0.699414 0 -7.35401
-2192.81 -0.57117 0 -7.17538
-741.456 2.83971 0 -90.4819
-747.54 2.64373 0 -90.5474
-2201.88 -0.635259 0 -7.26176
-1467.83 1.22037 0 -51.3475
-744.498 2.74189 0 -90.5137
-1479.95 1.05384 0 -51.4697
-1473.89 1.13721 0 -51.4066
-2192.81 -0.57117 0 -7.17538
-2174.66 -0.443179 0 -7.02016
-735.372 3.03434 0 -90.4243
-741.456 2.83971 0 -90.4819
-2183.74 -0.507145 0 -7.09486
-1455.71 1.38605 0 -51.241
-738.414 2.93719 0 -90.4521
-1467.83 1.22037 0 -51.3475
-1461.77 1.30331 0 -51.2923
-2174.66 -0.443179 0 -7.02016
-2156.52 -0.315417 0 -6.88815
-729.289 3.22762 0 -90.3743
-735.372 3.03434 0 -90.4243
-2165.59 -0.379271 0 -6.95127
-1443.59 1.55091 0 -51.1499
-732.331 3.13115 0 -90.3983
-1455.71 1.38605 0 -51.241
-1449.65 1.46858 0 -51.1935
-2156.52 -0.315417 0 -6.88815
-2138.38 -0.18786 0 -6.77916
-723.207 3.41957 0 -90.3321
-729.289 3.22762 0 -90.3743
-2147.45 -0.251614 0 -6.83079
-1431.47 1.71496 0 -51.0742
-726.248 3.32376 0 -90.3523
-1443.59 1.55091 0 -51.1499
-1437.53 1.63304 0 -51.1102
-2138.38 -0.18786 0 -6.77916
-2120.24 -0.0604888 0 -6.69299
-717.125 3.61018 0 -90.2974
-723.207 3.41957 0 -90.3321
-2129.31 -0.124153 0 -6.73323
-1419.36 1.87822 0 -51.0137
-720.166 3.51504 0 -90.3138
-1431.47 1.71496 0 -51.0742
-1425.42 1.79669 0 -51.0421
-2120.24 -0.0604888 0 -6.69299
-2102.1 0.066719 0 -6.62945
-711.045 3.79948 0 -90.2703
-717.125 3.61018 0 -90.2974
-2111.17 0.0031343 0 -6.6584
-1407.24 2.0407 0 -50.9683
-714.085 3.705 0 -90.283
-1419.36 1.87822 0 -51.0137
-1413.3 1.95956 0 -50.9892
-2102.1 0.066719 0 -6.62945
-2083.97 0.193783 0 -6.58834
-704.965 3.98745 0 -90.2507
-711.045 3.79948 0 -90.2703
-2093.03 0.130268 0 -6.6061
-1395.13 2.20241 0 -50.9379
-708.005 3.89363 0 -90.2596
-1407.24 2.0407 0 -50.9683
-1401.19 2.12165 0 -50.9513
-2083.97 0.193783 0 -6.58834
-2065.83 0.320723 0 -6.56947
-698.886 4.17412 0 -90.2385
-704.965 3.98745 0 -90.2507
-2074.9 0.257268 0 -6.57614
-1383.02 2.36337 0 -50.9223
-701.925 4.08095 0 -90.2437
-1395.13 2.20241 0 -50.9379
-1389.07 2.28298 0 -50.9283
-2065.83 0.320723 0 -6.56947
-2047.7 0.447557 0 -6.57265
-692.808 4.35949 0 -90.2337
-698.886 4.17412 0 -90.2385
-2056.76 0.384152 0 -6.56832
-1370.91 2.52359 0 -50.9214
-695.847 4.26697 0 -90.2352
-1383.02 2.36337 0 -50.9223
-1376.96 2.44357 0 -50.92
-2047.7 0.447557 0 -6.57265
-2029.56 0.574303 0 -6.59769
-686.73 4.54355 0 -90.2361
-692.808 4.35949 0 -90.2337
-2038.63 0.51094 0 -6.58245
-1358.8 2.68308 0 -50.9351
-689.769 4.45168 0 -90.234
-1370.91 2.52359 0 -50.9214
-1364.85 2.60342 0 -50.9264
-2029.56 0.574303 0 -6.59769
-2011.43 0.700978 0 -6.64438
-680.654 4.72633 0 -90.2458
-686.73 4.54355 0 -90.2361
-2020.5 0.637648 0 -6.61834
-1346.69 2.84185 0 -50.9632
-683.692 4.6351 0 -90.2401
-1358.8 2.68308 0 -50.9351
-1352.74 2.76255 0 -50.9473
-2011.43 0.700978 0 -6.64438
-1993.31 0.827597 0 -6.71253
-674.578 4.90782 0 -90.2627
-680.654 4.72633 0 -90.2458
-2002.37 0.764293 0 -6.67578
-1334.58 2.99991 0 -51.0056
-677.616 4.81723 0 -90.2534
-1346.69 2.84185 0 -50.9632
-1340.63 2.92097 0 -50.9826
-1993.31 0.827597 0 -6.71253
-1975.18 0.954177 0 -6.80195
-668.503 5.08803 0 -90.2866
-674.578 4.90782 0 -90.2627
-1984.24 0.890891 0 -6.7546
-1322.47 3.15728 0 -51.0623
-671.54 4.99808 0 -90.2738
-1334.58 2.99991 0 -51.0056
-1328.53 3.07868 0 -51.0322
-1975.18 0.954177 0 -6.80195
-1957.05 1.08073 0 -6.91245
-662.429 5.26696 0 -90.3176
-668.503 5.08803 0 -90.2866
-1966.12 1.01746 0 -6.85458
-1310.37 3.31396 0 -51.1329
-665.466 5.17765 0 -90.3012
-1322.47 3.15728 0 -51.0623
-1316.42 3.23571 0 -51.0959
-1957.05 1.08073 0 -6.91245
-1938.93 1.20728 0 -7.04383
-656.356 5.44462 0 -90.3556
-662.429 5.26696 0 -90.3176
-1947.99 1.144 0 -6.97554
-1298.26 3.46997 0 -51.2176
-659.392 5.35595 0 -90.3357
-1310.37 3.31396 0 -51.1329
-1304.32 3.39205 0 -51.1735
-1938.93 1.20728 0 -7.04383
-1920.81 1.33382 0 -7.1959
-650.283 5.62102 0 -90.4004
-656.356 5.44462 0 -90.3556
-1929.87 1.27055 0 -7.11729
-1286.16 3.6253 0 -51.316
-653.319 5.53298 0 -90.3771
-1298.26 3.46997 0 -51.2176
-1292.21 3.54772 0 -51.2651
-1920.81 1.33382 0 -7.1959
-1902.69 1.46038 0 -7.36846
-644.212 5.79615 0 -90.4521
-650.283 5.62102 0 -90.4004
-1911.75 1.3971 0 -7.27963
-1274.06 3.77998 0 -51.4281
-647.247 5.70874 0 -90.4254
-1286.16 3.6253 0 -51.316
-1280.11 3.70272 0 -51.3703
-1902.69 1.46038 0 -7.36846
-1884.57 1.58697 0 -7.56132
-638.141 5.97002 0 -90.5106
-644.212 5.79615 0 -90.4521
-1893.63 1.52367 0 -7.46237
-1261.96 3.934 0 -51.5537
-641.176 5.88324 0 -90.4805
-1274.06 3.77998 0 -51.4281
-1268.01 3.85707 0 -51.4892
-1884.57 1.58697 0 -7.56132
-1866.45 1.71359 0 -7.77429
-632.071 6.14265 0 -90.5759
-638.141 5.97002 0 -90.5106
-1875.51 1.65027 0 -7.6653
-1249.86 4.08738 0 -51.6928
-635.106 6.05649 0 -90.5424
-1261.96 3.934 0 -51.5537
-1255.91 4.01077 0 -51.6216
-1866.45 1.71359 0 -7.77429
-1848.33 1.84026 0 -8.00717
-626.002 6.31402 0 -90.6477
-632.071 6.14265 0 -90.5759
-1857.39 1.77692 0 -7.88825
-1237.77 4.24012 0 -51.8451
-629.037 6.22849 0 -90.611
-1249.86 4.08738 0 -51.6928
-1243.81 4.16383 0 -51.7673
-1848.33 1.84026 0 -8.00717
-1830.22 1.96699 0 -8.25976
-619.934 6.48414 0 -90.7262
-626.002 6.31402 0 -90.6477
-1839.28 1.90362 0 -8.13101
-1225.67 4.39223 0 -52.0106
-622.968 6.39923 0 -90.6861
-1237.77 4.24012 0 -51.8451
-1231.72 4.31626 0 -51.9262
-1830.22 1.96699 0 -8.25976
-1812.11 2.09378 0 -8.53188
-613.867 6.65302 0 -90.8112
-619.934 6.48414 0 -90.7262
-1821.16 2.03038 0 -8.39339
-1213.58 4.54372 0 -52.1891
-616.9 6.56873 0 -90.7679
-1225.67 4.39223 0 -52.0106
-1219.62 4.46805 0 -52.0982
-1812.11 2.09378 0 -8.53188
-1794 2.22065 0 -8.82333
-607.801 6.82065 0 -90.9027
-613.867 6.65302 0 -90.8112
-1803.05 2.1572 0 -8.6752
-1201.48 4.69458 0 -52.3806
-610.834 6.73699 0 -90.8561
-1213.58 4.54372 0 -52.1891
-1207.53 4.61922 0 -52.2832
-1794 2.22065 0 -8.82333
-1775.89 2.34759 0 -9.13391
-601.735 6.98705 0 -91.0005
-607.801 6.82065 0 -90.9027
-1784.94 2.28411 0 -8.97624
-1189.39 4.84483 0 -52.5848
-604.768 6.904 0 -90.9508
-1201.48 4.69458 0 -52.3806
-1195.44 4.76978 0 -52.4811
-1775.89 2.34759 0 -9.13391
-1757.78 2.47463 0 -9.46344
-595.67 7.15221 0 -91.1047
-601.735 6.98705 0 -91.0005
-1766.84 2.4111 0 -9.29632
-1177.3 4.99446 0 -52.8016
-598.703 7.06978 0 -91.0518
-1189.39 4.84483 0 -52.5848
-1183.35 4.91972 0 -52.6916
-1757.78 2.47463 0 -9.46344
-1739.68 2.60176 0 -9.81171
-589.607 7.31614 0 -91.2152
-595.67 7.15221 0 -91.1047
-1748.73 2.53818 0 -9.63524
-1165.21 5.14349 0 -53.0309
-592.639 7.23433 0 -91.1592
-1177.3 4.99446 0 -52.8016
-1171.26 5.06905 0 -52.9147
-1739.68 2.60176 0 -9.81171
-1721.58 2.72898 0 -10.1785
-583.544 7.47883 0 -91.3319
-589.607 7.31614 0 -91.2152
-1730.63 2.66536 0 -9.99282
-1153.12 5.29192 0 -53.2727
-586.575 7.39764 0 -91.2728
-1165.21 5.14349 0 -53.0309
-1159.17 5.21778 0 -53.1503
-1721.58 2.72898 0 -10.1785
-1703.47 2.85632 0 -10.5637
-577.482 7.64029 0 -91.4547
-583.544 7.47883 0 -91.3319
-1712.52 2.79264 0 -10.3689
-1141.04 5.43975 0 -53.5267
-580.513 7.55972 0 -91.3926
-1153.12 5.29192 0 -53.2727
-1147.08 5.36591 0 -53.3982
-1703.47 2.85632 0 -10.5637
-1685.37 2.98376 0 -10.9671
-571.421 7.80053 0 -91.5837
-577.482 7.64029 0 -91.4547
-1694.42 2.92002 0 -10.7632
-1128.95 5.58698 0 -53.7928
-574.451 7.72056 0 -91.5184
-1141.04 5.43975 0 -53.5267
-1135 5.51344 0 -53.6582
-1685.37 2.98376 0 -10.9671
-1667.28 3.11131 0 -11.3884
-565.361 7.95953 0 -91.7186
-571.421 7.80053 0 -91.5837
-1676.33 3.04752 0 -11.1755
-1116.87 5.73362 0 -54.0709
-568.391 7.88018 0 -91.6504
-1128.95 5.58698 0 -53.7928
-1122.91 5.66037 0 -53.9304
-1667.28 3.11131 0 -11.3884
-1649.18 3.23897 0 -11.8275
-559.301 8.11731 0 -91.8595
-565.361 7.95953 0 -91.7186
-1658.23 3.17513 0 -11.6058
-1104.79 5.87966 0 -54.3609
-562.331 8.03858 0 -91.7883
-1116.87 5.73362 0 -54.0709
-1110.83 5.80672 0 -54.2145
-1649.18 3.23897 0 -11.8275
-1631.09 3.36676 0 -12.2842
-553.243 8.27387 0 -92.0063
-559.301 8.11731 0 -91.8595
-1640.13 3.30285 0 -12.0537
-1092.71 6.02512 0 -54.6627
-556.272 8.19574 0 -91.9322
-1104.79 5.87966 0 -54.3609
-1098.75 5.95246 0 -54.5103
-1631.09 3.36676 0 -12.2842
-1612.99 3.49466 0 -12.7583
-547.186 8.42919 0 -92.1589
-553.243 8.27387 0 -92.0063
-1622.04 3.43069 0 -12.5191
-1080.63 6.16998 0 -54.976
-550.214 8.35168 0 -92.0819
-1092.71 6.02512 0 -54.6627
-1086.67 6.09762 0 -54.8179
-1612.99 3.49466 0 -12.7583
-1594.9 3.62267 0 -13.2496
-541.129 8.5833 0 -92.3173
-547.186 8.42919 0 -92.1589
-1603.95 3.55865 0 -13.0018
-1068.55 6.31426 0 -55.3009
-544.157 8.5064 0 -92.2374
-1080.63 6.16998 0 -54.976
-1074.59 6.24219 0 -55.137
-1594.9 3.62267 0 -13.2496
-1576.81 3.75081 0 -13.7579
-535.073 8.73618 0 -92.4814
-541.129 8.5833 0 -92.3173
-1585.86 3.68673 0 -13.5017
-1056.47 6.45794 0 -55.6371
-538.101 8.65989 0 -92.3987
-1068.55 6.31426 0 -55.3009
-1062.51 6.38617 0 -55.4675
-1576.81 3.75081 0 -13.7579
-1558.73 3.87907 0 -14.283
-529.018 8.88783 0 -92.6512
-535.073 8.73618 0 -92.4814
-1567.77 3.81493 0 -14.0184
-1044.4 6.60104 0 -55.9845
-532.046 8.81216 0 -92.5656
-1056.47 6.45794 0 -55.6371
-1050.44 6.52956 0 -55.8094
-1558.73 3.87907 0 -14.283
-1540.64 4.00744 0 -14.8248
-522.964 9.03826 0 -92.8265
-529.018 8.88783 0 -92.6512
-1549.68 3.94324 0 -14.5518
-1032.32 6.74354 0 -56.343
-525.991 8.9632 0 -92.7381
-1044.4 6.60104 0 -55.9845
-1038.36 6.67236 0 -56.1624
-1540.64 4.00744 0 -14.8248
-1522.56 4.13593 0 -15.3829
-516.911 9.18746 0 -93.0073
-522.964 9.03826 0 -92.8265
-1531.6 4.07167 0 -15.1018
-1020.25 6.88546 0 -56.7125
-519.938 9.11301 0 -92.9162
-1032.32 6.74354 0 -56.343
-1026.29 6.81458 0 -56.5264
-1522.56 4.13593 0 -15.3829
-1504.48 4.26454 0 -15.9573
-510.859 9.33544 0 -93.1936
-516.911 9.18746 0 -93.0073
-1513.52 4.20022 0 -15.6681
-1008.18 7.02679 0 -57.0928
-513.885 9.26161 0 -93.0997
-1020.25 6.88546 0 -56.7125
-1014.22 6.9562 0 -56.9013
-1504.48 4.26454 0 -15.9573
-1486.39 4.39326 0 -16.5477
-504.808 9.48219 0 -93.3852
-510.859 9.33544 0 -93.1936
-1495.43 4.32888 0 -16.2505
-996.111 7.16752 0 -57.4839
-507.833 9.40897 0 -93.2887
-1008.18 7.02679 0 -57.0928
-1002.15 7.09723 0 -57.287
-1486.39 4.39326 0 -16.5477
-1468.32 4.52208 0 -17.154
-498.757 9.62772 0 -93.5822
-504.808 9.48219 0 -93.3852
-1477.36 4.45765 0 -16.8489
-984.043 7.30765 0 -57.8855
-501.782 9.55511 0 -93.4831
-996.111 7.16752 0 -57.4839
-990.077 7.23766 0 -57.6834
-1468.32 4.52208 0 -17.154
-1450.24 4.65101 0 -17.776
-492.707 9.77202 0 -93.7844
-498.757 9.62772 0 -93.5822
-1459.28 4.58653 0 -17.463
-971.976 7.44719 0 -58.2976
-495.732 9.70002 0 -93.6827
-984.043 7.30765 0 -57.8855
-978.009 7.37749 0 -58.0903
-1450.24 4.65101 0 -17.776
-1432.16 4.78004 0 -18.4134
-486.659 9.91508 0 -93.9919
-492.707 9.77202 0 -93.7844
-1441.2 4.71551 0 -18.0927
-959.91 7.58612 0 -58.72
-489.683 9.8437 0 -93.8875
-971.976 7.44719 0 -58.2976
-965.943 7.51673 0 -58.5075
-1432.16 4.78004 0 -18.4134
-1414.09 4.90917 0 -19.066
-480.611 10.0569 0 -94.2044
-486.659 9.91508 0 -93.9919
-1423.13 4.84459 0 -18.7378
-947.846 7.72446 0 -59.1527
-483.635 9.98615 0 -94.0975
-959.91 7.58612 0 -58.72
-953.878 7.65537 0 -58.9351
-1414.09 4.90917 0 -19.066
-1396.02 5.03838 0 -19.7337
-474.564 10.1975 0 -94.4221
-480.611 10.0569 0 -94.2044
-1405.06 4.97376 0 -19.398
-935.783 7.86218 0 -59.5954
-477.587 10.1274 0 -94.3126
-947.846 7.72446 0 -59.1527
-941.814 7.79339 0 -59.3728
-1396.02 5.03838 0 -19.7337
-1377.95 5.16768 0 -20.4164
-468.518 10.3369 0 -94.6447
-474.564 10.1975 0 -94.4221
-1386.98 5.10302 0 -20.0732
-923.721 7.99929 0 -60.048
-471.541 10.2674 0 -94.5328
-935.783 7.86218 0 -59.5954
-929.752 7.93081 0 -59.8204
-1377.95 5.16768 0 -20.4164
-1359.88 5.29706 0 -21.1137
-462.472 10.475 0 -94.8723
-468.518 10.3369 0 -94.6447
-1368.92 5.23236 0 -20.7632
-911.661 8.13579 0 -60.5105
-465.495 10.4061 0 -94.7579
-923.721 7.99929 0 -60.048
-917.691 8.06762 0 -60.278
-1359.88 5.29706 0 -21.1137
-1341.81 5.4265 0 -21.8255
-456.428 10.6119 0 -95.1048
-462.472 10.475 0 -94.8723
-1350.85 5.36177 0 -21.4678
-899.602 8.27167 0 -60.9826
-459.45 10.5436 0 -94.9879
-911.661 8.13579 0 -60.5105
-905.631 8.20381 0 -60.7453
-1341.81 5.4265 0 -21.8255
-1323.75 5.55601 0 -22.5516
-450.384 10.7476 0 -95.342
-456.428 10.6119 0 -95.1048
-1332.78 5.49125 0 -22.1868
-887.544 8.40692 0 -61.4643
-453.406 10.6799 0 -95.2228
-899.602 8.27167 0 -60.9826
-893.573 8.33937 0 -61.2223
-1323.75 5.55601 0 -22.5516
-1305.69 5.68558 0 -23.2918
-444.342 10.882 0 -95.5841
-450.384 10.7476 0 -95.342
-1314.72 5.62079 0 -22.9199
-875.488 8.54154 0 -61.9555
-447.363 10.8149 0 -95.4625
-887.544 8.40692 0 -61.4643
-881.516 8.47431 0 -61.7087
-1305.69 5.68558 0 -23.2918
-1287.63 5.81519 0 -24.0459
-438.3 11.0151 0 -95.8308
-444.342 10.882 0 -95.5841
-1296.66 5.75038 0 -23.6671
-863.433 8.67552 0 -62.4559
-441.321 10.9487 0 -95.7068
-875.488 8.54154 0 -61.9555
-869.46 8.60861 0 -62.2045
-1287.63 5.81519 0 -24.0459
-1269.57 5.94483 0 -24.8138
-432.259 11.147 0 -96.0821
-438.3 11.0151 0 -95.8308
-1278.6 5.88 0 -24.4282
-851.379 8.80886 0 -62.9655
-435.279 11.0812 0 -95.9559
-863.433 8.67552 0 -62.4559
-857.406 8.74227 0 -62.7096
-1269.57 5.94483 0 -24.8138
-1251.51 6.07451 0 -25.5952
-426.219 11.2777 0 -96.338
-432.259 11.147 0 -96.0821
-1260.54 6.00967 0 -25.2028
-839.327 8.94155 0 -63.4842
-429.239 11.2125 0 -96.2095
-851.379 8.80886 0 -62.9655
-845.353 8.87529 0 -63.2237
-1251.51 6.07451 0 -25.5952
-1233.45 6.2042 0 -26.3899
-420.179 11.4071 0 -96.5984
-426.219 11.2777 0 -96.338
-1242.48 6.13935 0 -25.9909
-827.276 9.07359 0 -64.0118
-423.199 11.3426 0 -96.4676
-839.327 8.94155 0 -63.4842
-833.301 9.00765 0 -63.7469
-1233.45 6.2042 0 -26.3899
-1215.4 6.3339 0 -27.1978
-414.141 11.5352 0 -96.8632
-420.179 11.4071 0 -96.5984
-1224.42 6.26905 0 -26.7922
-815.226 9.20496 0 -64.5482
-417.16 11.4713 0 -96.7302
-827.276 9.07359 0 -64.0118
-821.251 9.13936 0 -64.2789
-1215.4 6.3339 0 -27.1978
-1197.34 6.46359 0 -28.0186
-408.103 11.6621 0 -97.1324
-414.141 11.5352 0 -96.8632
-1206.37 6.39874 0 -27.6066
-803.177 9.33567 0 -65.0932
-411.122 11.5988 0 -96.9973
-815.226 9.20496 0 -64.5482
-809.201 9.2704 0 -64.8196
-1197.34 6.46359 0 -28.0186
-1179.29 6.59327 0 -28.8522
-402.066 11.7877 0 -97.4059
-408.103 11.6621 0 -97.1324
-1188.32 6.52843 0 -28.4338
-791.13 9.46569 0 -65.6468
-405.085 11.7251 0 -97.2686
-803.177 9.33567 0 -65.0932
-797.153 9.40077 0 -65.3689
-1179.29 6.59327 0 -28.8522
-1161.24 6.72292 0 -29.6984
-396.03 11.9121 0 -97.6836
-402.066 11.7877 0 -97.4059
-1170.27 6.6581 0 -29.2738
-779.083 9.59504 0 -66.2088
-399.048 11.8501 0 -97.5442
-791.13 9.46569 0 -65.6468
-785.106 9.53045 0 -65.9267
-1161.24 6.72292 0 -29.6984
-1143.19 6.85253 0 -30.5569
-389.995 12.0352 0 -97.9656
-396.03 11.9121 0 -97.6836
-1152.22 6.78773 0 -30.1261
-767.038 9.72369 0 -66.779
-393.013 11.9738 0 -97.8241
-779.083 9.59504 0 -66.2088
-773.061 9.65945 0 -66.4929
-1143.19 6.85253 0 -30.5569
-1125.14 6.98209 0 -31.4277
-383.961 12.157 0 -98.2516
-389.995 12.0352 0 -97.9656
-1134.17 6.91732 0 -30.9908
-754.995 9.85163 0 -67.3574
-386.978 12.0962 0 -98.1081
-767.038 9.72369 0 -66.779
-761.016 9.78775 0 -67.0672
-1125.14 6.98209 0 -31.4277
-1107.1 7.11158 0 -32.3104
-377.927 12.2775 0 -98.5417
-383.961 12.157 0 -98.2516
-1116.12 7.04684 0 -31.8675
-742.952 9.97887 0 -67.9439
-380.944 12.2174 0 -98.3962
-754.995 9.85163 0 -67.3574
-748.973 9.91534 0 -67.6497
-1107.1 7.11158 0 -32.3104
-1089.05 7.241 0 -33.2049
-371.894 12.3967 0 -98.8358
-377.927 12.2775 0 -98.5417
-1098.08 7.1763 0 -32.7562
-730.911 10.1054 0 -68.5382
-374.911 12.3372 0 -98.6882
-742.952 9.97887 0 -67.9439
-736.931 10.0422 0 -68.2401
-1089.05 7.241 0 -33.2049
-1071.01 7.37031 0 -34.111
-365.862 12.5146 0 -99.1338
-371.894 12.3967 0 -98.8358
-1080.03 7.30567 0 -33.6565
-718.871 10.2312 0 -69.1403
-368.878 12.4558 0 -98.9843
-730.911 10.1054 0 -68.5382
-724.891 10.1684 0 -68.8383
-1071.01 7.37031 0 -34.111
-1052.97 7.49953 0 -35.0286
-359.831 12.6313 0 -99.4357
-365.862 12.5146 0 -99.1338
-1061.99 7.43493 0 -34.5684
-706.832 10.3562 0 -69.75
-362.847 12.5731 0 -99.2842
-718.871 10.2312 0 -69.1403
-712.851 10.2938 0 -69.4442
-1052.97 7.49953 0 -35.0286
-1034.93 7.62861 0 -35.9574
-353.801 12.7466 0 -99.7413
-359.831 12.6313 0 -99.4357
-1043.95 7.56409 0 -35.4916
-694.794 10.4805 0 -70.3673
-356.816 12.6891 0 -99.588
-706.832 10.3562 0 -69.75
-700.813 10.4185 0 -70.0577
-1034.93 7.62861 0 -35.9574
-1016.89 7.75756 0 -36.8972
-347.771 12.8606 0 -100.051
-353.801 12.7466 0 -99.7413
-1025.91 7.69311 0 -36.4259
-682.757 10.6041 0 -70.9919
-350.786 12.8038 0 -99.8956
-694.794 10.4805 0 -70.3673
-688.775 10.5424 0 -70.6787
-1016.89 7.75756 0 -36.8972
-998.856 7.88636 0 -37.8478
-341.742 12.9733 0 -100.364
-347.771 12.8606 0 -100.051
-1007.87 7.82198 0 -37.3711
-670.722 10.7268 0 -71.6238
-344.756 12.9171 0 -100.207
-682.757 10.6041 0 -70.9919
-676.739 10.6656 0 -71.307
-998.856 7.88636 0 -37.8478
-980.82 8.01499 0 -38.8091
-335.714 13.0847 0 -100.68
-341.742 12.9733 0 -100.364
-989.838 7.9507 0 -38.3271
-658.687 10.8488 0 -72.2629
-338.728 13.0292 0 -100.522
-670.722 10.7268 0 -71.6238
-664.704 10.7879 0 -71.9425
-980.82 8.01499 0 -38.8091
-962.786 8.14343 0 -39.7808
-329.687 13.1948 0 -101.001
-335.714 13.0847 0 -100.68
-971.803 8.07923 0 -39.2937
-646.654 10.97 0 -72.9089
-332.7 13.1399 0 -100.84
-658.687 10.8488 0 -72.2629
-652.671 10.9095 0 -72.585
-962.786 8.14343 0 -39.7808
-944.753 8.27166 0 -40.7628
-323.66 13.3036 0 -101.324
-329.687 13.1948 0 -101.001
-953.77 8.20757 0 -40.2706
-634.622 11.0905 0 -73.5618
-326.673 13.2494 0 -101.162
-646.654 10.97 0 -72.9089
-640.638 11.0304 0 -73.2345
-944.753 8.27166 0 -40.7628
-926.722 8.39968 0 -41.7549
-317.634 13.411 0 -101.652
-323.66 13.3036 0 -101.324
-935.738 8.3357 0 -41.2576
-622.591 11.21 0 -74.2214
-320.647 13.3574 0 -101.488
-634.622 11.0905 0 -73.5618
-628.606 11.1504 0 -73.8908
-926.722 8.39968 0 -41.7549
-908.692 8.52746 0 -42.7569
-311.609 13.5171 0 -101.982
-317.634 13.411 0 -101.652
-917.707 8.4636 0 -42.2547
-610.561 11.3288 0 -74.8877
-314.621 13.4642 0 -101.816
-622.591 11.21 0 -74.2214
-616.576 11.2695 0 -74.5537
-908.692 8.52746 0 -42.7569
-890.663 8.65498 0 -43.7685
-305.584 13.6218 0 -102.316
-311.609 13.5171 0 -101.982
-899.677 8.59125 0 -43.2615
-598.532 11.4467 0 -75.5604
-308.597 13.5696 0 -102.149
-610.561 11.3288 0 -74.8877
-604.546 11.3879 0 -75.2233
-890.663 8.65498 0 -43.7685
-872.635 8.78223 0 -44.7897
-299.561 13.7252 0 -102.653
-305.584 13.6218 0 -102.316
-881.649 8.71864 0 -44.2779
-586.504 11.5638 0 -76.2395
-302.572 13.6737 0 -102.484
-598.532 11.4467 0 -75.5604
-592.518 11.5054 0 -75.8992
-872.635 8.78223 0 -44.7897
-854.609 8.90918 0 -45.8201
-293.538 13.8272 0 -102.993
-299.561 13.7252 0 -102.653
-863.622 8.84574 0 -45.3037
-574.477 11.68 0 -76.9249
-296.549 13.7764 0 -102.822
-586.504 11.5638 0 -76.2395
-580.49 11.622 0 -76.5814
-854.609 8.90918 0 -45.8201
-836.584 9.03582 0 -46.8597
-287.515 13.9279 0 -103.336
-293.538 13.8272 0 -102.993
-845.596 8.97254 0 -46.3388
-562.451 11.7954 0 -77.6163
-290.526 13.8777 0 -103.164
-574.477 11.68 0 -76.9249
-568.464 11.7378 0 -77.2699
-836.584 9.03582 0 -46.8597
-818.56 9.16214 0 -47.9082
-281.494 14.0272 0 -103.683
-287.515 13.9279 0 -103.336
-827.572 9.09902 0 -47.3828
-550.426 11.9099 0 -78.3138
-284.504 13.9777 0 -103.509
-562.451 11.7954 0 -77.6163
-556.438 11.8527 0 -77.9643
-818.56 9.16214 0 -47.9082
-800.537 9.2881 0 -48.9654
-275.473 14.1251 0 -104.032
-281.494 14.0272 0 -103.683
-809.548 9.22516 0 -48.4357
-538.402 12.0234 0 -79.0171
-278.483 14.0763 0 -103.857
-550.426 11.9099 0 -78.3138
-544.414 11.9667 0 -78.6647
-800.537 9.2881 0 -48.9654
-782.515 9.41369 0 -50.0311
-269.453 14.2217 0 -104.384
-275.473 14.1251 0 -104.032
-791.526 9.35094 0 -49.4972
-526.379 12.1361 0 -79.7261
-272.463 14.1736 0 -104.208
-538.402 12.0234 0 -79.0171
-532.39 12.0799 0 -79.3709
-782.515 9.41369 0 -50.0311
-764.495 9.53889 0 -51.1052
-263.433 14.3168 0 -104.739
-269.453 14.2217 0 -104.384
-773.505 9.47634 0 -50.5671
-514.357 12.2478 0 -80.4407
-266.443 14.2694 0 -104.561
-526.379 12.1361 0 -79.7261
-520.368 12.192 0 -80.0827
-764.495 9.53889 0 -51.1052
-746.475 9.66368 0 -52.1875
-257.414 14.4106 0 -105.097
-263.433 14.3168 0 -104.739
-755.485 9.60134 0 -51.6453
-502.336 12.3586 0 -81.1608
-260.424 14.3639 0 -104.918
-514.357 12.2478 0 -80.4407
-508.346 12.3033 0 -80.8
-746.475 9.66368 0 -52.1875
-728.457 9.78804 0 -53.2777
-251.396 14.5029 0 -105.457
-257.414 14.4106 0 -105.097
-737.466 9.72592 0 -52.7316
-490.316 12.4684 0 -81.8862
-254.405 14.4569 0 -105.277
-502.336 12.3586 0 -81.1608
-496.326 12.4136 0 -81.5228
-728.457 9.78804 0 -53.2777
-710.44 9.91195 0 -54.3756
-245.378 14.5939 0 -105.821
-251.396 14.5029 0 -105.457
-719.448 9.85005 0 -53.8257
-478.296 12.5773 0 -82.6168
-248.387 14.5486 0 -105.639
-490.316 12.4684 0 -81.8862
-484.306 12.523 0 -82.2508
-710.44 9.91195 0 -54.3756
-692.424 10.0354 0 -55.4812
-239.361 14.6834 0 -106.186
-245.378 14.5939 0 -105.821
-701.432 9.97372 0 -54.9275
-466.278 12.6852 0 -83.3525
-242.37 14.6388 0 -106.003
-478.296 12.5773 0 -82.6168
-472.287 12.6313 0 -82.984
-692.424 10.0354 0 -55.4812
-674.408 10.1583 0 -56.5941
-233.345 14.7715 0 -106.555
-239.361 14.6834 0 -106.186
-683.416 10.0969 0 -56.0368
-454.26 12.792 0 -84.0932
-236.353 14.7276 0 -106.37
-466.278 12.6852 0 -83.3525
-460.269 12.7387 0 -83.7222
-674.408 10.1583 0 -56.5941
-656.394 10.2807 0 -57.7143
-227.329 14.8582 0 -106.925
-233.345 14.7715 0 -106.555
-665.401 10.2196 0 -57.1533
-442.244 12.8979 0 -84.8387
-230.337 14.815 0 -106.74
-454.26 12.792 0 -84.0932
-448.252 12.8451 0 -84.4654
-656.394 10.2807 0 -57.7143
-638.381 10.4026 0 -58.8414
-221.314 14.9434 0 -107.299
-227.329 14.8582 0 -106.925
-647.387 10.3417 0 -58.277
-430.228 13.0028 0 -85.5889
-224.322 14.901 0 -107.112
-442.244 12.8979 0 -84.8387
-436.236 12.9505 0 -85.2132
-638.381 10.4026 0 -58.8414
-620.368 10.5239 0 -59.9754
-215.3 15.0272 0 -107.674
-221.314 14.9434 0 -107.299
-629.374 10.4633 0 -59.4076
-418.213 13.1066 0 -86.3437
-218.307 14.9855 0 -107.486
-430.228 13.0028 0 -85.5889
-424.22 13.0548 0 -85.9657
-620.368 10.5239 0 -59.9754
-602.357 10.6446 0 -61.116
-209.286 15.1095 0 -108.052
-215.3 15.0272 0 -107.674
-611.362 10.5843 0 -60.5448
-406.198 13.2093 0 -87.1029
-212.293 15.0685 0 -107.863
-418.213 13.1066 0 -86.3437
-412.205 13.1581 0 -86.7228
-602.357 10.6446 0 -61.116
-584.346 10.7647 0 -62.2629
-203.273 15.1904 0 -108.432
-209.286 15.1095 0 -108.052
-593.351 10.7048 0 -61.6887
-394.185 13.311 0 -87.8665
-206.279 15.1501 0 -108.242
-406.198 13.2093 0 -87.1029
-400.191 13.2603 0 -87.4842
-584.346 10.7647 0 -62.2629
-566.336 10.8842 0 -63.4162
-197.26 15.2697 0 -108.814
-203.273 15.1904 0 -108.432
-575.341 10.8245 0 -62.8388
-382.172 13.4115 0 -88.6342
-200.266 15.2302 0 -108.623
-394.185 13.311 0 -87.8665
-388.178 13.3614 0 -88.2498
-566.336 10.8842 0 -63.4162
-548.327 11.003 0 -64.5754
-191.248 15.3476 0 -109.198
-197.26 15.2697 0 -108.814
-557.332 10.9437 0 -63.9951
-370.16 13.511 0 -89.406
-194.254 15.3089 0 -109.006
-382.172 13.4115 0 -88.6342
-376.166 13.4614 0 -89.0196
-548.327 11.003 0 -64.5754
-530.319 11.1211 0 -65.7405
-185.236 15.424 0 -109.585
-191.248 15.3476 0 -109.198
-539.323 11.0621 0 -65.1573
-358.149 13.6093 0 -90.1817
-188.242 15.386 0 -109.391
-370.16 13.511 0 -89.406
-364.154 13.5603 0 -89.7934
-530.319 11.1211 0 -65.7405
-512.312 11.2384 0 -66.9113
-179.225 15.4988 0 -109.973
-185.236 15.424 0 -109.585
-521.315 11.1799 0 -66.3252
-346.138 13.7064 0 -90.9612
-182.23 15.4616 0 -109.779
-358.149 13.6093 0 -90.1817
-352.143 13.658 0 -90.571
-512.312 11.2384 0 -66.9113
-494.305 11.355 0 -68.0874
-173.214 15.5721 0 -110.363
-179.225 15.4988 0 -109.973
-503.308 11.2968 0 -67.4987
-334.128 13.8023 0 -91.7444
-176.22 15.5356 0 -110.168
-346.138 13.7064 0 -90.9612
-340.133 13.7545 0 -91.3524
-494.305 11.355 0 -68.0874
-476.299 11.4708 0 -69.2688
-167.204 15.6438 0 -110.755
-173.214 15.5721 0 -110.363
-485.302 11.413 0 -68.6775
-322.119 13.8971 0 -92.5311
-170.209 15.6081 0 -110.559
-334.128 13.8023 0 -91.7444
-328.123 13.8498 0 -92.1373
-476.299 11.4708 0 -69.2688
-458.293 11.5859 0 -70.4552
-161.194 15.714 0 -111.149
-167.204 15.6438 0 -110.755
-467.296 11.5285 0 -69.8614
-310.11 13.9906 0 -93.3212
-164.199 15.6791 0 -110.951
-322.119 13.8971 0 -92.5311
-316.114 13.944 0 -92.9257
-458.293 11.5859 0 -70.4552
-440.288 11.7 0 -71.6465
-155.185 15.7826 0 -111.544
-161.194 15.714 0 -111.149
-449.291 11.6431 0 -71.0503
-298.102 14.0829 0 -94.1145
-158.19 15.7485 0 -111.346
-310.11 13.9906 0 -93.3212
-304.106 14.0369 0 -93.7174
-440.288 11.7 0 -71.6465
-422.284 11.8134 0 -72.8424
-149.176 15.8497 0 -111.941
-155.185 15.7826 0 -111.544
-431.286 11.7568 0 -72.2439
-286.094 14.174 0 -94.9109
-152.181 15.8163 0 -111.742
-298.102 14.0829 0 -94.1145
-292.098 14.1285 0 -94.5123
-422.284 11.8134 0 -72.8424
-404.28 11.9261 0 -74.0428
-143.167 15.9153 0 -112.339
-149.176 15.8497 0 -111.941
-413.282 11.8698 0 -73.442
-274.086 14.2639 0 -95.7103
-146.172 15.8827 0 -112.14
-286.094 14.174 0 -94.9109
-280.09 14.2191 0 -95.3102
-404.28 11.9261 0 -74.0428
-386.277 12.038 0 -75.2474
-137.159 15.9797 0 -112.739
-143.167 15.9153 0 -112.339
-395.278 11.9821 0 -74.6446
-262.08 14.3529 0 -96.5126
-140.163 15.9477 0 -112.539
-274.086 14.2639 0 -95.7103
-268.083 14.3085 0 -96.1111
-386.277 12.038 0 -75.2474
-368.274 12.1495 0 -76.4563
-131.151 16.043 0 -113.14
-137.159 15.9797 0 -112.739
-377.276 12.0938 0 -75.8513
-250.073 14.4411 0 -97.3176
-134.155 16.0115 0 -112.939
-262.08 14.3529 0 -96.5126
-256.076 14.3971 0 -96.9148
-368.274 12.1495 0 -76.4563
-350.272 12.2607 0 -77.6693
-125.144 16.1056 0 -113.543
-131.151 16.043 0 -113.14
-359.273 12.2051 0 -77.0623
-238.068 14.5288 0 -98.1254
-128.147 16.0744 0 -113.341
-250.073 14.4411 0 -97.3176
-244.07 14.485 0 -97.7212
-350.272 12.2607 0 -77.6693
-332.271 12.3718 0 -78.8864
-119.137 16.168 0 -113.946
-125.144 16.1056 0 -113.543
-341.272 12.3163 0 -78.2773
-226.063 14.6163 0 -98.9359
-122.14 16.1368 0 -113.744
-238.068 14.5288 0 -98.1254
-232.065 14.5726 0 -98.5303
-332.271 12.3718 0 -78.8864
-314.271 12.483 0 -80.108
-113.132 16.2307 0 -114.352
-119.137 16.168 0 -113.946
-323.271 12.4274 0 -79.4966
-214.06 14.7039 0 -99.7495
-116.134 16.1993 0 -114.149
-226.063 14.6163 0 -98.9359
-220.061 14.6601 0 -99.3423
-314.271 12.483 0 -80.108
-296.272 12.5936 0 -81.3341
-107.128 16.2943 0 -114.76
-113.132 16.2307 0 -114.352
-305.271 12.5384 0 -80.7204
-202.057 14.7914 0 -100.567
-110.13 16.2624 0 -114.555
-214.06 14.7039 0 -99.7495
-208.058 14.7477 0 -100.158
-296.272 12.5936 0 -81.3341
-278.272 12.7024 0 -82.5657
-101.127 16.3591 0 -115.173
-107.128 16.2943 0 -114.76
-287.272 12.6484 0 -81.9492
-190.056 14.8778 0 -101.39
-104.127 16.3266 0 -114.965
-202.057 14.7914 0 -100.567
-196.057 14.8349 0 -100.977
-278.272 12.7024 0 -82.5657
-260.271 12.8046 0 -83.8035
-95.1265 16.4249 0 -115.595
-101.127 16.3591 0 -115.173
-269.272 12.7548 0 -83.1838
-178.054 14.9598 0 -102.221
-98.1267 16.3919 0 -115.382
-190.056 14.8778 0 -101.39
-184.055 14.9198 0 -101.804
-260.271 12.8046 0 -83.8035
-242.259 12.8917 0 -85.0497
-89.1287 16.4885 0 -116.037
-95.1265 16.4249 0 -115.595
-251.267 12.8509 0 -84.4253
-166.045 15.0298 0 -103.069
-92.1269 16.4573 0 -115.813
-178.054 14.9598 0 -102.221
-172.051 14.997 0 -102.642
-242.259 12.8917 0 -85.0497
-224.224 12.943 0 -86.3061
-83.1231 16.5465 0 -116.52
-89.1287 16.4885 0 -116.037
-233.244 12.9238 0 -85.6767
-154.016 15.0733 0 -103.945
-86.1284 16.5187 0 -116.272
-166.045 15.0298 0 -103.069
-160.034 15.0566 0 -103.502
-224.224 12.943 0 -86.3061
-206.125 12.9289 0 -87.58
-77.1082 16.5833 0 -117.078
-83.1231 16.5465 0 -116.52
-215.187 12.947 0 -86.94
-141.939 15.0613 0 -104.874
-80.1155 16.5689 0 -116.786
-154.016 15.0733 0 -103.945
-147.986 15.0762 0 -104.4
-206.125 12.9289 0 -87.58
-187.915 12.7825 0 -88.8756
-71.0389 16.5896 0 -117.779
-77.1082 16.5833 0 -117.078
-197.034 12.8777 0 -88.2255
-129.759 14.9522 0 -105.899
-74.0868 16.5916 0 -117.405
-141.939 15.0613 0 -104.874
-135.866 15.0242 0 -105.373
-187.915 12.7825 0 -88.8756
-169.436 12.4378 0 -90.2216
-64.9092 16.518 0 -118.724
-71.0389 16.5896 0 -117.779
-178.727 12.6414 0 -89.5384
-117.375 14.6739 0 -107.093
-67.9764 16.5661 0 -118.214
-129.759 14.9522 0 -105.899
-123.601 14.8362 0 -106.466
-169.436 12.4378 0 -90.2216
-150.561 11.7415 0 -91.6331
-58.5659 16.3806 0 -120.08
-64.9092 16.518 0 -118.724
-160.047 12.1419 0 -90.9209
-104.624 14.1687 0 -108.57
-61.7869 16.4584 0 -119.336
-117.375 14.6739 0 -107.093
-111.057 14.4603 0 -107.795
-150.561 11.7415 0 -91.6331
-130.822 10.689 0 -93.2297
-52.0416 16.0916 0 -122.029
-58.5659 16.3806 0 -120.08
-140.856 11.2623 0 -92.3919
-91.2507 13.3725 0 -110.497
-55.3033 16.2522 0 -120.971
-104.624 14.1687 0 -108.57
-98.0388 13.7902 0 -109.45
-130.822 10.689 0 -93.2297
-110.057 9.15825 0 -95.0798
-44.9505 15.9098 0 -124.775
-52.0416 16.0916 0 -122.029
-120.54 9.96172 0 -94.1275
-76.9735 12.5049 0 -113.061
-48.6336 15.9729 0 -123.286
-91.2507 13.3725 0 -110.497
-84.2356 12.9482 0 -111.716
-110.057 9.15825 0 -95.0798
-87.3033 8.06768 0 -97.6421
-37.7069 15.8829 0 -128.167
-44.9505 15.9098 0 -124.775
-99.0688 8.49033 0 -96.2114
-61.527 12.0902 0 -116.402
-41.2476 15.8251 0 -126.428
-76.9735 12.5049 0 -113.061
-69.436 12.1022 0 -114.575
-87.3033 8.06768 0 -97.6421
-63.4326 8.53772 0 -101.065
-29.7223 17.514 0 -131.417
-37.7069 15.8829 0 -128.167
-75.308 7.85525 0 -99.2676
-45.3608 14.1519 0 -120.182
-33.9668 16.4095 0 -129.881
-61.527 12.0902 0 -116.402
-53.4388 12.7239 0 -118.387
-63.4326 8.53772 0 -101.065
-38.3605 16.621 0 -105.977
-22.9156 21.3745 0 -131.674
-29.7223 17.514 0 -131.417
-51.2429 11.1847 0 -103.257
-29.7954 21.6125 0 -122.704
-25.8271 19.0031 0 -132.227
-45.3608 14.1519 0 -120.182
-37.4849 16.7184 0 -121.604
-38.3605 16.621 0 -105.977
-19.523 39.8399 0 -108.267
-15.5965 30.5222 0 -123.917
-22.9156 21.3745 0 -131.674
-27.2353 25.1607 0 -108.028
-18.7756 39.2052 0 -118.023
-19.7617 25.4742 0 -129.15
-29.7954 21.6125 0 -122.704
-23.17 29.3978 0 -122.19
-19.523 39.8399 0 -108.267
-7.15521 95.3203 0 -95.7724
-11.4029 38.273 0 -100.25
-15.5965 30.5222 0 -123.917
-13.0588 64.0716 0 -105.2
-10.4471 65.3392 0 -96.029
-12.3189 34.8283 0 -114.651
-18.7756 39.2052 0 -118.023
-15.0596 50.988 0 -109.296
-7.15521 95.3203 0 -95.7724
0.748221 152.978 0 -43.7172
-7.84676 47.083 0 -55.6884
-11.4029 38.273 0 -100.25
-1.93613 128.226 0 -75.8826
-1.96753 96.2964 0 -53.0578
-10.5902 42.1935 0 -80.6595
-10.4471 65.3392 0 -96.029
-5.61977 81.5865 0 -77.666
-1169.51 -350.671 0 462.375
-1140.88 -200.293 0 153.85
1107.47 182.477 0 151.679
1134.07 340.421 0 460.357
-1121.33 -276.693 0 291.799
-17.7436 -9.11076 0 173.197
1087.06 262.015 0 290.096
-18.94 -5.10541 0 470.946
-18.1433 -7.63932 0 325.777
-1140.88 -200.293 0 153.85
-1201.06 -125.976 0 -30.1559
1168.66 104.47 0 -33.97
1107.47 182.477 0 151.679
-1187.46 -158.986 0 45.5804
-17.3424 -10.9598 0 -22.3587
1154.65 138.998 0 42.5852
-17.7436 -9.11076 0 173.197
-17.5649 -10.1562 0 52.796
-1201.06 -125.976 0 -30.1559
-1204.92 -58.1335 0 -113.005
1173.1 34.524 0 -118.608
1168.66 104.47 0 -33.97
-1198.76 -88.5038 0 -80.2055
-17.1051 -12.154 0 -112.992
1166.65 65.846 0 -84.8937
-17.3424 -10.9598 0 -22.3587
-17.1736 -11.6169 0 -73.8668
-1204.92 -58.1335 0 -113.005
-1208.09 -26.8127 0 -142.016
1176.8 1.50344 0 -149.295
1173.1 34.524 0 -118.608
-1211.76 -39.7274 0 -132.572
-16.9112 -12.9646 0 -148.012
1180.21 15.2343 0 -139.045
-17.1051 -12.154 0 -112.992
-17.0404 -12.5905 0 -137.053
-1208.09 -26.8127 0 -142.016
-1195.11 -10.7467 0 -144.425
1164.3 -15.9161 0 -153.197
1176.8 1.50344 0 -149.295
-1200.03 -16.5723 0 -144.872
-16.6824 -13.6178 0 -153.991
1169 -9.46518 0 -152.916
-16.9112 -12.9646 0 -148.012
-16.7812 -13.3128 0 -152.472
-1195.11 -10.7467 0 -144.425
-1184.25 -8.06236 0 -138.44
1153.76 -19.5273 0 -148.576
1164.3 -15.9161 0 -153.197
-1190.85 -8.7186 0 -141.968
-16.4996 -14.0546 0 -148.815
1160.22 -18.4644 0 -151.431
-16.6824 -13.6178 0 -153.991
-16.5908 -13.8633 0 -152.418
-1184.25 -8.06236 0 -138.44
-1171.56 -8.12782 0 -130.929
1141.24 -19.9285 0 -142.408
1153.76 -19.5273 0 -148.576
-1177.08 -7.71952 0 -134.543
-16.3859 -14.2936 0 -141.483
1146.69 -20.1598 0 -145.349
-16.4996 -14.0546 0 -148.815
-16.4289 -14.1998 0 -144.905
-1171.56 -8.12782 0 -130.929
-1161.84 -9.92629 0 -124.821
1131.56 -18.1971 0 -137.662
1141.24 -19.9285 0 -142.408
-1166.82 -9.05587 0 -127.674
-16.3403 -14.3314 0 -135.287
1136.52 -19.0783 0 -139.831
-16.3859 -14.2936 0 -141.483
-16.3582 -14.3349 0 -138.248
-1161.84 -9.92629 0 -124.821
-1152.91 -11.1879 0 -120.373
1122.58 -16.6969 0 -134.604
1131.56 -18.1971 0 -137.662
-1157.04 -10.5791 0 -122.378
-16.3398 -14.2194 0 -130.975
1126.74 -17.4575 0 -135.911
-16.3403 -14.3314 0 -135.287
-16.3348 -14.2917 0 -132.85
-1152.91 -11.1879 0 -120.373
-1145.44 -12.1382 0 -117.364
1115.04 -15.297 0 -133.005
1122.58 -16.6969 0 -134.604
-1149.15 -11.742 0 -118.724
-16.3615 -13.9963 0 -128.259
1118.79 -15.939 0 -133.659
-16.3398 -14.2194 0 -130.975
-16.3498 -14.119 0 -129.468
-1145.44 -12.1382 0 -117.364
-1138.47 -12.553 0 -115.319
1108.01 -14.3013 0 -132.372
1115.04 -15.297 0 -133.005
-1141.85 -12.3864 0 -116.242
-16.3877 -13.7049 0 -126.68
1111.41 -14.7709 0 -132.589
-16.3615 -13.9963 0 -128.259
-16.3747 -13.8572 0 -127.345
-1138.47 -12.553 0 -115.319
-1132.02 -12.6835 0 -113.892
1101.5 -13.5161 0 -132.349
1108.01 -14.3013 0 -132.372
-1135.23 -12.6557 0 -114.548
-16.4074 -13.3733 0 -125.81
1104.73 -13.8776 0 -132.305
-16.3877 -13.7049 0 -126.68
-16.399 -13.5426 0 -126.183
-1132.02 -12.6835 0 -113.892
-1125.73 -12.5883 0 -112.824
1095.18 -12.9225 0 -132.666
1101.5 -13.5161 0 -132.349
-1128.84 -12.6535 0 -113.324
-16.4154 -13.0231 0 -125.359
1098.31 -13.2042 0 -132.477
-16.4074 -13.3733 0 -125.81
-16.413 -13.1996 0 -125.544
-1125.73 -12.5883 0 -112.824
-1119.58 -12.384 0 -111.96
1089.03 -12.4278 0 -133.165
1095.18 -12.9225 0 -132.666
-1122.65 -12.4981 0 -112.374
-16.4101 -12.6666 0 -125.136
1092.1 -12.6634 0 -132.9
-16.4154 -13.0231 0 -125.359
-16.4144 -12.8451 0 -125.229
-1119.58 -12.384 0 -111.96
-1113.46 -12.1134 0 -111.208
1082.93 -12.003 0 -133.748
1089.03 -12.4278 0 -133.165
-1116.51 -12.2535 0 -111.574
-16.3926 -12.3116 0 -125.033
1085.97 -12.2097 0 -133.45
-16.4101 -12.6666 0 -125.136
-16.4028 -12.4887 0 -125.074
-1113.46 -12.1134 0 -111.208
-1107.36 -11.8165 0 -110.518
1076.88 -11.6148 0 -134.366
1082.93 -12.003 0 -133.748
-1110.41 -11.9675 0 -110.857
-16.3647 -11.9616 0 -124.988
1079.91 -11.8049 0 -134.055
-16.3926 -12.3116 0 -125.033
-16.3798 -12.1358 0 -125.006
-1107.36 -11.8165 0 -110.518
-1101.27 -11.5085 0 -109.862
1070.85 -11.2506 0 -134.992
1076.88 -11.6148 0 -134.366
-1104.32 -11.6629 0 -110.187
-16.3288 -11.618 0 -124.969
1073.86 -11.4306 0 -134.679
-16.3647 -11.9616 0 -124.988
-16.3476 -11.789 0 -124.976
-1101.27 -11.5085 0 -109.862
-1095.18 -11.1997 0 -109.23
1064.83 -10.8998 0 -135.614
1070.85 -11.2506 0 -134.992
-1098.23 -11.354 0 -109.544
-16.2868 -11.2811 0 -124.962
1067.84 -11.0738 0 -135.304
-16.3288 -11.618 0 -124.969
-16.3084 -11.4488 0 -124.965
-1095.18 -11.1997 0 -109.23
-1089.08 -10.8936 0 -108.613
1058.81 -10.5581 0 -136.225
1064.83 -10.8998 0 -135.614
-1092.13 -11.0462 0 -108.919
-16.2407 -10.9501 0 -124.959
1061.82 -10.7281 0 -135.921
-16.2868 -11.2811 0 -124.962
-16.2642 -11.1149 0 -124.96
-1089.08 -10.8936 0 -108.613
-1082.99 -10.592 0 -108.009
1052.79 -10.2222 0 -136.825
1058.81 -10.5581 0 -136.225
-1086.04 -10.7423 0 -108.309
-16.1919 -10.6244 0 -124.956
1055.8 -10.3895 0 -136.527
-16.2407 -10.9501 0 -124.959
-16.2166 -10.7867 0 -124.958
-1082.99 -10.592 0 -108.009
-1076.88 -10.2947 0 -107.417
1046.77 -9.89052 0 -137.412
1052.79 -10.2222 0 -136.825
-1079.94 -10.4428 0 -107.712
-16.1413 -10.3033 0 -124.954
1049.78 -10.0559 0 -137.12
-16.1919 -10.6244 0 -124.956
-16.1668 -10.4633 0 -124.955
-1076.88 -10.2947 0 -107.417
-1070.78 -10.0015 0 -106.837
1040.76 -9.56206 0 -137.986
1046.77 -9.89052 0 -137.412
-1073.83 -10.1476 0 -107.126
-16.0898 -9.9859 0 -124.951
1043.76 -9.72593 0 -137.701
-16.1413 -10.3033 0 -124.954
-16.1157 -10.1442 0 -124.952
-1070.78 -10.0015 0 -106.837
-1064.68 -9.71206 0 -106.268
1034.74 -9.23616 0 -138.549
1040.76 -9.56206 0 -137.986
-1067.73 -9.85637 0 -106.551
-16.0379 -9.67173 0 -124.947
1037.75 -9.39883 0 -138.269
-16.0898 -9.9859 0 -124.951
-16.0639 -9.82844 0 -124.949
-1064.68 -9.71206 0 -106.268
-1058.57 -9.42579 0 -105.71
1028.72 -8.9124 0 -139.099
1034.74 -9.23616 0 -138.549
-1061.63 -9.56855 0 -105.987
-15.9859 -9.36032 0 -124.943
1031.73 -9.07403 0 -138.826
-16.0379 -9.67173 0 -124.947
-16.0119 -9.5157 0 -124.945
-1058.57 -9.42579 0 -105.71
-1052.47 -9.14239 0 -105.163
1022.71 -8.59048 0 -139.638
1028.72 -8.9124 0 -139.099
-1055.52 -9.28375 0 -105.435
-15.934 -9.05134 0 -124.938
1025.71 -8.75122 0 -139.37
-15.9859 -9.36032 0 -124.943
-15.96 -9.20554 0 -124.941
-1052.47 -9.14239 0 -105.163
-1046.36 -8.86158 0 -104.627
1016.69 -8.27025 0 -140.166
1022.71 -8.59048 0 -139.638
-1049.42 -9.00167 0 -104.894
-15.8824 -8.74456 0 -124.934
1019.7 -8.43016 0 -139.903
-15.934 -9.05134 0 -124.938
-15.9082 -8.89769 0 -124.936
-1046.36 -8.86158 0 -104.627
-1040.26 -8.58317 0 -104.102
1010.67 -7.95158 0 -140.682
1016.69 -8.27025 0 -140.166
-1043.31 -8.72208 0 -104.363
-15.8311 -8.4398 0 -124.929
1013.68 -8.11072 0 -140.425
-15.8824 -8.74456 0 -124.934
-15.8567 -8.59193 0 -124.931
-1040.26 -8.58317 0 -104.102
-1034.15 -8.30701 0 -103.588
1004.65 -7.63441 0 -141.187
1010.67 -7.95158 0 -140.682
-1037.2 -8.44481 0 -103.844
-15.7801 -8.13697 0 -124.924
1007.66 -7.79281 0 -140.936
-15.8311 -8.4398 0 -124.929
-15.8055 -8.28815 0 -124.927
-1034.15 -8.30701 0 -103.588
-1028.05 -8.03303 0 -103.085
998.628 -7.31871 0 -141.681
1004.65 -7.63441 0 -141.187
-1031.1 -8.16975 0 -103.335
-15.7295 -7.836 0 -124.919
1001.64 -7.47638 0 -141.435
-15.7801 -8.13697 0 -124.924
-15.7547 -7.98626 0 -124.921
-1028.05 -8.03303 0 -103.085
-1021.94 -7.76114 0 -102.592
992.608 -7.00446 0 -142.163
998.628 -7.31871 0 -141.681
-1024.99 -7.89682 0 -102.837
-15.6792 -7.53685 0 -124.914
995.618 -7.1614 0 -141.923
-15.7295 -7.836 0 -124.919
-15.7043 -7.6862 0 -124.916
-1021.94 -7.76114 0 -102.592
-1015.84 -7.4913 0 -102.11
986.587 -6.69168 0 -142.635
992.608 -7.00446 0 -142.163
-1018.89 -7.62597 0 -102.35
-15.6292 -7.23949 0 -124.908
989.597 -6.84789 0 -142.401
-15.6792 -7.53685 0 -124.914
-15.6541 -7.38794 0 -124.911
-1015.84 -7.4913 0 -102.11
-1009.73 -7.22349 0 -101.639
980.565 -6.38038 0 -143.096
986.587 -6.69168 0 -142.635
-1012.78 -7.35714 0 -101.873
-15.5796 -6.94392 0 -124.903
983.576 -6.53585 0 -142.867
-15.6292 -7.23949 0 -124.908
-15.6043 -7.09148 0 -124.905
-1009.73 -7.22349 0 -101.639
-1003.63 -6.95766 0 -101.179
974.543 -6.07058 0 -143.546
980.565 -6.38038 0 -143.096
-1006.68 -7.09033 0 -101.408
-15.5303 -6.65012 0 -124.897
977.554 -6.22529 0 -143.322
-15.5796 -6.94392 0 -124.903
-15.5549 -6.7968 0 -124.9
-1003.63 -6.95766 0 -101.179
-997.521 -6.69381 0 -100.728
968.52 -5.76229 0 -143.985
974.543 -6.07058 0 -143.546
-1000.57 -6.82549 0 -100.952
-15.4813 -6.35811 0 -124.891
971.532 -5.91624 0 -143.767
-15.5303 -6.65012 0 -124.897
-15.5057 -6.50389 0 -124.894
-997.521 -6.69381 0 -100.728
-991.416 -6.4319 0 -100.289
962.498 -5.45555 0 -144.414
968.52 -5.76229 0 -143.985
-994.468 -6.56261 0 -100.507
-15.4326 -6.06788 0 -124.885
965.509 -5.60872 0 -144.201
-15.4813 -6.35811 0 -124.891
-15.4569 -6.21277 0 -124.888
-991.416 -6.4319 0 -100.289
-985.311 -6.17193 0 -99.8594
956.474 -5.15037 0 -144.832
962.498 -5.45555 0 -144.414
-988.363 -6.30167 0 -100.073
-15.3842 -5.77944 0 -124.879
959.486 -5.30276 0 -144.624
-15.4326 -6.06788 0 -124.885
-15.4083 -5.92344 0 -124.882
-985.311 -6.17193 0 -99.8594
-979.207 -5.91386 0 -99.4404
950.451 -4.84679 0 -145.239
956.474 -5.15037 0 -144.832
-982.259 -6.04266 0 -99.6486
-15.3361 -5.49278 0 -124.873
953.463 -4.99838 0 -145.037
-15.3842 -5.77944 0 -124.879
-15.3601 -5.63588 0 -124.876
-979.207 -5.91386 0 -99.4404
-973.102 -5.65769 0 -99.0317
944.427 -4.54482 0 -145.636
950.451 -4.84679 0 -145.239
-976.154 -5.78554 0 -99.2348
-15.2882 -5.20791 0 -124.867
947.439 -4.6956 0 -145.439
-15.3361 -5.49278 0 -124.873
-15.3121 -5.35012 0 -124.87
-973.102 -5.65769 0 -99.0317
-966.998 -5.40339 0 -98.6331
938.403 -4.24448 0 -146.023
944.427 -4.54482 0 -145.636
-970.05 -5.53031 0 -98.8311
-15.2407 -4.92484 0 -124.86
941.415 -4.39445 0 -145.831
-15.2882 -5.20791 0 -124.867
-15.2645 -5.06615 0 -124.864
-966.998 -5.40339 0 -98.6331
-960.894 -5.15095 0 -98.2447
932.378 -3.94581 0 -146.399
938.403 -4.24448 0 -146.023
-963.946 -5.27694 0 -98.4377
-15.1935 -4.64355 0 -124.854
935.391 -4.09494 0 -146.212
-15.2407 -4.92484 0 -124.86
-15.2171 -4.78397 0 -124.857
-960.894 -5.15095 0 -98.2447
-954.791 -4.90034 0 -97.8664
926.354 -3.64881 0 -146.765
932.378 -3.94581 0 -146.399
-957.842 -5.02541 0 -98.0543
-15.1466 -4.36406 0 -124.847
929.366 -3.7971 0 -146.583
-15.1935 -4.64355 0 -124.854
-15.17 -4.50358 0 -124.851
-954.791 -4.90034 0 -97.8664
-948.687 -4.65155 0 -97.4981
920.329 -3.35352 0 -147.12
926.354 -3.64881 0 -146.765
-951.739 -4.77572 0 -97.681
-15.0999 -4.08637 0 -124.841
923.341 -3.50095 0 -146.944
-15.1466 -4.36406 0 -124.847
-15.1232 -4.22499 0 -124.844
-948.687 -4.65155 0 -97.4981
-942.584 -4.40456 0 -97.1397
914.304 -3.05994 0 -147.466
920.329 -3.35352 0 -147.12
-945.636 -4.52783 0 -97.3176
-15.0536 -3.81047 0 -124.834
917.316 -3.20651 0 -147.294
-15.0999 -4.08637 0 -124.841
-15.0767 -3.9482 0 -124.837
-942.584 -4.40456 0 -97.1397
-936.481 -4.15936 0 -96.7912
908.279 -2.76809 0 -147.801
914.304 -3.05994 0 -147.466
-939.533 -4.28174 0 -96.9642
-15.0075 -3.53637 0 -124.827
911.291 -2.9138 0 -147.635
-15.0536 -3.81047 0 -124.834
-15.0305 -3.6732 0 -124.831
-936.481 -4.15936 0 -96.7912
-930.379 -3.91591 0 -96.4525
902.253 -2.47801 0 -148.126
908.279 -2.76809 0 -147.801
-933.43 -4.03741 0 -96.6206
-14.9617 -3.26407 0 -124.82
905.266 -2.62283 0 -147.965
-15.0075 -3.53637 0 -124.827
-14.9846 -3.4 0 -124.824
-930.379 -3.91591 0 -96.4525
-924.277 -3.67421 0 -96.1236
896.228 -2.1897 0 -148.442
902.253 -2.47801 0 -148.126
-927.328 -3.79485 0 -96.2869
-14.9162 -2.99356 0 -124.813
899.241 -2.33363 0 -148.285
-14.9617 -3.26407 0 -124.82
-14.9389 -3.12859 0 -124.817
-924.277 -3.67421 0 -96.1236
-918.175 -3.43425 0 -95.8044
890.202 -1.90318 0 -148.747
896.228 -2.1897 0 -148.442
-921.226 -3.55401 0 -95.9628
-14.871 -2.72485 0 -124.806
893.215 -2.04621 0 -148.596
-14.9162 -2.99356 0 -124.813
-14.8936 -2.85898 0 -124.81
-918.175 -3.43425 0 -95.8044
-912.074 -3.19599 0 -95.4948
884.176 -1.61847 0 -149.043
890.202 -1.90318 0 -148.747
-915.124 -3.3149 0 -95.6484
-14.8261 -2.45793 0 -124.799
887.189 -1.7606 0 -148.896
-14.871 -2.72485 0 -124.806
-14.8485 -2.59117 0 -124.802
-912.074 -3.19599 0 -95.4948
-905.973 -2.95942 0 -95.1948
878.151 -1.33559 0 -149.329
884.176 -1.61847 0 -149.043
-909.023 -3.0775 0 -95.3436
-14.7815 -2.19282 0 -124.791
881.164 -1.4768 0 -149.187
-14.8261 -2.45793 0 -124.799
-14.8038 -2.32515 0 -124.795
-905.973 -2.95942 0 -95.1948
-899.872 -2.72454 0 -94.9043
872.125 -1.05455 0 -149.605
878.151 -1.33559 0 -149.329
-902.923 -2.84177 0 -95.0484
-14.7372 -1.9295 0 -124.784
875.138 -1.19483 0 -149.468
-14.7815 -2.19282 0 -124.791
-14.7593 -2.06093 0 -124.788
-899.872 -2.72454 0 -94.9043
-893.772 -2.49132 0 -94.6233
866.099 -0.775363 0 -149.872
872.125 -1.05455 0 -149.605
-896.822 -2.60772 0 -94.7626
-14.6931 -1.66797 0 -124.777
869.112 -0.914721 0 -149.74
-14.7372 -1.9295 0 -124.784
-14.7151 -1.79851 0 -124.78
-893.772 -2.49132 0 -94.6233
-887.673 -2.25974 0 -94.3516
860.073 -0.498056 0 -150.129
866.099 -0.775363 0 -149.872
-890.722 -2.37532 0 -94.4863
-14.6494 -1.40825 0 -124.769
863.086 -0.636474 0 -150.002
-14.6931 -1.66797 0 -124.777
-14.6712 -1.53789 0 -124.773
-887.673 -2.25974 0 -94.3516
-881.574 -2.02979 0 -94.0893
854.047 -0.222638 0 -150.377
860.073 -0.498056 0 -150.129
-884.623 -2.14456 0 -94.2193
-14.6059 -1.15032 0 -124.762
857.06 -0.360109 0 -150.254
-14.6494 -1.40825 0 -124.769
-14.6276 -1.27906 0 -124.765
-881.574 -2.02979 0 -94.0893
-875.475 -1.80146 0 -93.8362
848.021 0.050875 0 -150.615
854.047 -0.222638 0 -150.377
-878.524 -1.91543 0 -93.9616
-14.5627 -0.894184 0 -124.754
851.034 -0.0856423 0 -150.497
-14.6059 -1.15032 0 -124.762
-14.5843 -1.02203 0 -124.758
-875.475 -1.80146 0 -93.8362
-869.377 -1.57473 0 -93.5923
841.995 0.322468 0 -150.844
848.021 0.050875 0 -150.615
-872.426 -1.6879 0 -93.7131
-14.5199 -0.639848 0 -124.746
845.008 0.186912 0 -150.731
-14.5627 -0.894184 0 -124.754
-14.5413 -0.766792 0 -124.75
-869.377 -1.57473 0 -93.5923
-863.279 -1.34959 0 -93.3575
835.969 0.592126 0 -151.063
841.995 0.322468 0 -150.844
-866.328 -1.46197 0 -93.4737
-14.4773 -0.387309 0 -124.738
838.982 0.45754 0 -150.955
-14.5199 -0.639848 0 -124.746
-14.4985 -0.513354 0 -124.742
-863.279 -1.34959 0 -93.3575
-857.182 -1.12602 0 -93.1318
829.943 0.859837 0 -151.274
835.969 0.592126 0 -151.063
-860.23 -1.23761 0 -93.2435
-14.435 -0.136566 0 -124.731
832.956 0.726226 0 -151.17
-14.4773 -0.387309 0 -124.738
-14.4561 -0.261713 0 -124.734
-857.182 -1.12602 0 -93.1318
-851.085 -0.904007 0 -92.9151
823.918 1.12558 0 -151.475
829.943 0.859837 0 -151.274
-854.134 -1.01482 0 -93.0223
-14.393 0.11238 0 -124.723
826.93 0.992957 0 -151.376
-14.435 -0.136566 0 -124.731
-14.4139 -0.0118685 0 -124.727
-851.085 -0.904007 0 -92.9151
-844.989 -0.683539 0 -92.7073
817.892 1.38936 0 -151.668
823.918 1.12558 0 -151.475
-848.037 -0.793581 0 -92.8101
-14.3512 0.359529 0 -124.715
820.905 1.25772 0 -151.573
-14.393 0.11238 0 -124.723
-14.3721 0.236179 0 -124.719
-844.989 -0.683539 0 -92.7073
-838.894 -0.464602 0 -92.5084
811.866 1.65114 0 -151.851
817.892 1.38936 0 -151.668
-841.942 -0.573879 0 -92.6068
-14.3098 0.604882 0 -124.707
814.879 1.5205 0 -151.76
-14.3512 0.359529 0 -124.715
-14.3305 0.48243 0 -124.711
-838.894 -0.464602 0 -92.5084
-832.799 -0.247183 0 -92.3184
805.841 1.91092 0 -152.025
811.866 1.65114 0 -151.851
-835.846 -0.355703 0 -92.4123
-14.2687 0.848439 0 -124.699
808.853 1.78128 0 -151.939
-14.3098 0.604882 0 -124.707
-14.2892 0.726885 0 -124.703
-832.799 -0.247183 0 -92.3184
-826.705 -0.0312705 0 -92.1371
799.815 2.16869 0 -152.191
805.841 1.91092 0 -152.025
-829.752 -0.139039 0 -92.2266
-14.2278 1.0902 0 -124.69
802.828 2.04006 0 -152.109
-14.2687 0.848439 0 -124.699
-14.2482 0.969543 0 -124.695
-826.705 -0.0312705 0 -92.1371
-820.611 0.183148 0 -91.9644
793.79 2.42444 0 -152.347
799.815 2.16869 0 -152.191
-823.658 0.0761249 0 -92.0497
-14.1873 1.33016 0 -124.682
796.803 2.29682 0 -152.27
-14.2278 1.0902 0 -124.69
-14.2075 1.21041 0 -124.686
-820.611 0.183148 0 -91.9644
-814.518 0.396086 0 -91.8004
787.765 2.67814 0 -152.495
793.79 2.42444 0 -152.347
-817.565 0.289801 0 -91.8813
-14.147 1.56833 0 -124.674
790.777 2.55154 0 -152.423
-14.1873 1.33016 0 -124.682
-14.1671 1.44947 0 -124.678
-814.518 0.396086 0 -91.8004
-808.426 0.607553 0 -91.645
781.74 2.9298 0 -152.635
787.765 2.67814 0 -152.495
-811.472 0.502002 0 -91.7216
-14.107 1.8047 0 -124.666
784.752 2.80422 0 -152.566
-14.147 1.56833 0 -124.674
-14.127 1.68674 0 -124.67
-808.426 0.607553 0 -91.645
-802.334 0.817561 0 -91.498
775.715 3.17939 0 -152.766
781.74 2.9298 0 -152.635
-805.38 0.712739 0 -91.5704
-14.0674 2.03928 0 -124.658
778.728 3.05485 0 -152.701
-14.107 1.8047 0 -124.666
-14.0872 1.92221 0 -124.662
-802.334 0.817561 0 -91.498
-796.243 1.02612 0 -91.3595
769.69 3.42692 0 -152.888
775.715 3.17939 0 -152.766
-799.289 0.922022 0 -91.4277
-14.028 2.27206 0 -124.649
772.703 3.30341 0 -152.828
-14.0674 2.03928 0 -124.658
-14.0476 2.15589 0 -124.653
-796.243 1.02612 0 -91.3595
-790.153 1.23325 0 -91.2294
763.666 3.67236 0 -153.002
769.69 3.42692 0 -152.888
-793.198 1.12986 0 -91.2934
-13.9889 2.50304 0 -124.641
766.678 3.5499 0 -152.946
-14.028 2.27206 0 -124.649
-14.0084 2.38777 0 -124.645
-790.153 1.23325 0 -91.2294
-784.063 1.43894 0 -91.1075
757.642 3.91571 0 -153.107
763.666 3.67236 0 -153.002
-787.108 1.33627 0 -91.1674
-13.9501 2.73223 0 -124.633
760.654 3.79429 0 -153.055
-13.9889 2.50304 0 -124.641
-13.9694 2.61786 0 -124.637
-784.063 1.43894 0 -91.1075
-777.974 1.64323 0 -90.9939
751.618 4.15696 0 -153.204
757.642 3.91571 0 -153.107
-781.019 1.54126 0 -91.0497
-13.9116 2.95962 0 -124.624
754.63 4.03659 0 -153.157
-13.9501 2.73223 0 -124.633
-13.9308 2.84615 0 -124.628
-777.974 1.64323 0 -90.9939
-771.886 1.8461 0 -90.8885
745.594 4.39609 0 -153.293
751.618 4.15696 0 -153.204
-774.93 1.74484 0 -90.9402
-13.8734 3.18522 0 -124.616
748.606 4.27679 0 -153.25
-13.9116 2.95962 0 -124.624
-13.8924 3.07265 0 -124.62
-771.886 1.8461 0 -90.8885
-765.799 2.04758 0 -90.7912
739.57 4.63311 0 -153.374
745.594 4.39609 0 -153.293
-768.842 1.94701 0 -90.8388
-13.8354 3.40902 0 -124.607
742.582 4.51487 0 -153.334
-13.8734 3.18522 0 -124.616
-13.8544 3.29735 0 -124.611
-765.799 2.04758 0 -90.7912
-759.712 2.24767 0 -90.702
733.547 4.86799 0 -153.446
739.57 4.63311 0 -153.374
-762.755 2.1478 0 -90.7456
-13.7978 3.63103 0 -124.599
736.559 4.75082 0 -153.411
-13.8354 3.40902 0 -124.607
-13.8166 3.52025 0 -124.603
-759.712 2.24767 0 -90.702
-753.626 2.44638 0 -90.6207
727.524 5.10074 0 -153.511
733.547 4.86799 0 -153.446
-756.669 2.3472 0 -90.6603
-13.7604 3.85124 0 -124.59
730.535 4.98463 0 -153.479
-13.7978 3.63103 0 -124.599
-13.7791 3.74136 0 -124.595
-753.626 2.44638 0 -90.6207
-747.54 2.64373 0 -90.5474
721.501 5.33134 0 -153.567
727.524 5.10074 0 -153.511
-750.583 2.54523 0 -90.5831
-13.7234 4.06966 0 -124.582
724.512 5.21631 0 -153.54
-13.7604 3.85124 0 -124.59
-13.7419 3.96068 0 -124.586
-747.54 2.64373 0 -90.5474
-741.456 2.83971 0 -90.4819
715.479 5.55978 0 -153.616
721.501 5.33134 0 -153.567
-744.498 2.74189 0 -90.5137
-13.6866 4.28628 0 -124.573
718.49 5.44583 0 -153.593
-13.7234 4.06966 0 -124.582
-13.705 4.1782 0 -124.577
-741.456 2.83971 0 -90.4819
-735.372 3.03434 0 -90.4243
709.456 5.78606 0 -153.657
715.479 5.55978 0 -153.616
-738.414 2.93719 0 -90.4521
-13.6502 4.50111 0 -124.565
712.467 5.67319 0 -153.637
-13.6866 4.28628 0 -124.573
-13.6684 4.39392 0 -124.569
-735.372 3.03434 0 -90.4243
-729.289 3.22762 0 -90.3743
703.434 6.01017 0 -153.69
709.456 5.78606 0 -153.657
-732.331 3.13115 0 -90.3983
-13.614 4.71415 0 -124.556
706.445 5.89839 0 -153.674
-13.6502 4.50111 0 -124.565
-13.6321 4.60785 0 -124.56
-729.289 3.22762 0 -90.3743
-723.207 3.41957 0 -90.3321
697.412 6.23211 0 -153.715
703.434 6.01017 0 -153.69
-726.248 3.32376 0 -90.3523
-13.5781 4.92539 0 -124.547
700.423 6.12141 0 -153.703
-13.614 4.71415 0 -124.556
-13.596 4.81999 0 -124.552
-723.207 3.41957 0 -90.3321
-717.125 3.61018 0 -90.2974
691.391 6.45185 0 -153.733
697.412 6.23211 0 -153.715
-720.166 3.51504 0 -90.3138
-13.5426 5.13483 0 -124.539
694.402 6.34225 0 -153.725
-13.5781 4.92539 0 -124.547
-13.5603 5.03033 0 -124.543
-717.125 3.61018 0 -90.2974
-711.045 3.79948 0 -90.2703
685.37 6.66941 0 -153.743
691.391 6.45185 0 -153.733
-714.085 3.705 0 -90.283
-13.5073 5.34248 0 -124.53
688.38 6.5609 0 -153.739
-13.5426 5.13483 0 -124.539
-13.5249 5.23888 0 -124.535
-711.045 3.79948 0 -90.2703
-704.965 3.98745 0 -90.2507
679.349 6.88476 0 -153.746
685.37 6.66941 0 -153.743
-708.005 3.89363 0 -90.2596
-13.4723 5.54834 0 -124.522
682.359 6.77736 0 -153.745
-13.5073 5.34248 0 -124.53
-13.4897 5.44564 0 -124.526
-704.965 3.98745 0 -90.2507
-698.886 4.17412 0 -90.2385
673.329 7.09792 0 -153.741
679.349 6.88476 0 -153.746
-701.925 4.08095 0 -90.2437
-13.4376 5.75241 0 -124.513
676.339 6.99162 0 -153.744
-13.4723 5.54834 0 -124.522
-13.4549 5.6506 0 -124.517
-698.886 4.17412 0 -90.2385
-692.808 4.35949 0 -90.2337
667.308 7.30886 0 -153.729
673.329 7.09792 0 -153.741
-695.847 4.26697 0 -90.2352
-13.4032 5.95468 0 -124.505
670.318 7.20366 0 -153.736
-13.4376 5.75241 0 -124.513
-13.4203 5.85377 0 -124.509
-692.808 4.35949 0 -90.2337
-686.73 4.54355 0 -90.2361
661.288 7.51758 0 -153.709
667.308 7.30886 0 -153.729
-689.769 4.45168 0 -90.234
-13.3691 6.15516 0 -124.496
664.298 7.4135 0 -153.72
-13.4032 5.95468 0 -124.505
-13.3861 6.05514 0 -124.5
-686.73 4.54355 0 -90.2361
-680.654 4.72633 0 -90.2458
655.269 7.72409 0 -153.683
661.288 7.51758 0 -153.709
-683.692 4.6351 0 -90.2401
-13.3352 6.35384 0 -124.487
658.279 7.62111 0 -153.697
-13.3691 6.15516 0 -124.496
-13.3521 6.25473 0 -124.492
-680.654 4.72633 0 -90.2458
-674.578 4.90782 0 -90.2627
649.25 7.92836 0 -153.649
655.269 7.72409 0 -153.683
-677.616 4.81723 0 -90.2534
-13.3017 6.55074 0 -124.479
652.259 7.8265 0 -153.667
-13.3352 6.35384 0 -124.487
-13.3184 6.45252 0 -124.483
-674.578 4.90782 0 -90.2627
-668.503 5.08803 0 -90.2866
643.231 8.13041 0 -153.608
649.25 7.92836 0 -153.649
-671.54 4.99808 0 -90.2738
-13.2685 6.74584 0 -124.47
646.24 8.02966 0 -153.629
-13.3017 6.55074 0 -124.479
-13.2851 6.64851 0 -124.474
-668.503 5.08803 0 -90.2866
-662.429 5.26696 0 -90.3176
637.212 8.33022 0 -153.56
643.231 8.13041 0 -153.608
-665.466 5.17765 0 -90.3012
-13.2356 6.93915 0 -124.462
640.222 8.23059 0 -153.585
-13.2685 6.74584 0 -124.47
-13.252 6.84272 0 -124.466
-662.429 5.26696 0 -90.3176
-656.356 5.44462 0 -90.3556
631.194 8.52779 0 -153.505
637.212 8.33022 0 -153.56
-659.392 5.35595 0 -90.3357
-13.2029 7.13066 0 -124.453
634.203 8.42928 0 -153.534
-13.2356 6.93915 0 -124.462
-13.2192 7.03513 0 -124.457
-656.356 5.44462 0 -90.3556
-650.283 5.62102 0 -90.4004
625.176 8.72311 0 -153.443
631.194 8.52779 0 -153.505
-653.319 5.53298 0 -90.3771
-13.1706 7.32039 0 -124.444
628.185 8.62573 0 -153.475
-13.2029 7.13066 0 -124.453
-13.1867 7.22575 0 -124.449
-650.283 5.62102 0 -90.4004
-644.212 5.79615 0 -90.4521
619.159 8.91618 0 -153.375
625.176 8.72311 0 -153.443
-647.247 5.70874 0 -90.4254
-13.1385 7.50832 0 -124.436
622.168 8.81993 0 -153.41
-13.1706 7.32039 0 -124.444
-13.1545 7.41458 0 -124.44
-644.212 5.79615 0 -90.4521
-638.141 5.97002 0 -90.5106
613.142 9.10701 0 -153.3
619.159 8.91618 0 -153.375
-641.176 5.88324 0 -90.4805
-13.1068 7.69446 0 -124.427
616.15 9.01188 0 -153.338
-13.1385 7.50832 0 -124.436
-13.1226 7.60161 0 -124.432
-638.141 5.97002 0 -90.5106
-632.071 6.14265 0 -90.5759
607.125 9.29557 0 -153.218
613.142 9.10701 0 -153.3
-635.106 6.05649 0 -90.5424
-13.0753 7.87881 0 -124.419
610.133 9.20157 0 -153.259
-13.1068 7.69446 0 -124.427
-13.091 7.78686 0 -124.423
-632.071 6.14265 0 -90.5759
-626.002 6.31402 0 -90.6477
601.109 9.48188 0 -153.129
607.125 9.29557 0 -153.218
-629.037 6.22849 0 -90.611
-13.0442 8.06137 0 -124.41
604.117 9.38901 0 -153.174
-13.0753 7.87881 0 -124.419
-13.0597 7.97031 0 -124.415
-626.002 6.31402 0 -90.6477
-619.934 6.48414 0 -90.7262
595.093 9.66593 0 -153.034
601.109 9.48188 0 -153.129
-622.968 6.39923 0 -90.6861
-13.0133 8.24214 0 -124.402
598.101 9.57419 0 -153.082
-13.0442 8.06137 0 -124.41
-13.0287 8.15198 0 -124.406
-619.934 6.48414 0 -90.7262
-613.867 6.65302 0 -90.8112
589.077 9.84771 0 -152.932
595.093 9.66593 0 -153.034
-616.9 6.56873 0 -90.7679
-12.9828 8.42112 0 -124.394
592.085 9.7571 0 -152.984
-13.0133 8.24214 0 -124.402
-12.998 8.33185 0 -124.398
-613.867 6.65302 0 -90.8112
-607.801 6.82065 0 -90.9027
583.062 10.0272 0 -152.824
589.077 9.84771 0 -152.932
-610.834 6.73699 0 -90.8561
-12.9525 8.5983 0 -124.385
586.069 9.93775 0 -152.879
-12.9828 8.42112 0 -124.394
-12.9676 8.50993 0 -124.389
-607.801 6.82065 0 -90.9027
-601.735 6.98705 0 -91.0005
577.047 10.2045 0 -152.709
583.062 10.0272 0 -152.824
-604.768 6.904 0 -90.9508
-12.9225 8.7737 0 -124.377
580.054 10.1161 0 -152.767
-12.9525 8.5983 0 -124.385
-12.9375 8.68622 0 -124.381
-601.735 6.98705 0 -91.0005
-595.67 7.15221 0 -91.1047
571.032 10.3795 0 -152.589
577.047 10.2045 0 -152.709
-598.703 7.06978 0 -91.0518
-12.8929 8.94731 0 -124.369
574.04 10.2922 0 -152.65
-12.9225 8.7737 0 -124.377
-12.9077 8.86073 0 -124.373
-595.67 7.15221 0 -91.1047
-589.607 7.31614 0 -91.2152
565.018 10.5522 0 -152.462
571.032 10.3795 0 -152.589
-592.639 7.23433 0 -91.1592
-12.8635 9.11912 0 -124.36
568.025 10.4661 0 -152.526
-12.8929 8.94731 0 -124.369
-12.8781 9.03344 0 -124.364
-589.607 7.31614 0 -91.2152
-583.544 7.47883 0 -91.3319
559.005 10.7226 0 -152.329
565.018 10.5522 0 -152.462
-586.575 7.39764 0 -91.2728
-12.8344 9.28915 0 -124.352
562.011 10.6377 0 -152.396
-12.8635 9.11912 0 -124.36
-12.8489 9.20436 0 -124.356
-583.544 7.47883 0 -91.3319
-577.482 7.64029 0 -91.4547
552.991 10.8907 0 -152.189
559.005 10.7226 0 -152.329
-580.513 7.55972 0 -91.3926
-12.8056 9.45739 0 -124.344
555.998 10.8069 0 -152.26
-12.8344 9.28915 0 -124.352
-12.82 9.37349 0 -124.348
-577.482 7.64029 0 -91.4547
-571.421 7.80053 0 -91.5837
546.978 11.0566 0 -152.044
552.991 10.8907 0 -152.189
-574.451 7.72056 0 -91.5184
-12.7772 9.62384 0 -124.335
549.985 10.974 0 -152.118
-12.8056 9.45739 0 -124.344
-12.7914 9.54084 0 -124.34
-571.421 7.80053 0 -91.5837
-565.361 7.95953 0 -91.7186
540.966 11.2202 0 -151.893
546.978 11.0566 0 -152.044
-568.391 7.88018 0 -91.6504
-12.749 9.7885 0 -124.327
543.972 11.1387 0 -151.969
-12.7772 9.62384 0 -124.335
-12.763 9.70639 0 -124.331
-565.361 7.95953 0 -91.7186
-559.301 8.11731 0 -91.8595
534.953 11.3815 0 -151.736
540.966 11.2202 0 -151.893
-562.331 8.03858 0 -91.7883
-12.7211 9.95137 0 -124.319
537.96 11.3012 0 -151.815
-12.749 9.7885 0 -124.327
-12.735 9.87016 0 -124.323
-559.301 8.11731 0 -91.8595
-553.243 8.27387 0 -92.0063
528.942 11.5406 0 -151.573
534.953 11.3815 0 -151.736
-556.272 8.19574 0 -91.9322
-12.6935 10.1125 0 -124.311
531.948 11.4613 0 -151.655
-12.7211 9.95137 0 -124.319
-12.7073 10.0321 0 -124.315
-553.243 8.27387 0 -92.0063
-547.186 8.42919 0 -92.1589
522.93 11.6973 0 -151.405
528.942 11.5406 0 -151.573
-550.214 8.35168 0 -92.0819
-12.6662 10.2717 0 -124.303
525.936 11.6193 0 -151.49
-12.6935 10.1125 0 -124.311
-12.6798 10.1923 0 -124.307
-547.186 8.42919 0 -92.1589
-541.129 8.5833 0 -92.3173
516.919 11.8518 0 -151.23
522.93 11.6973 0 -151.405
-544.157 8.5064 0 -92.2374
-12.6392 10.4293 0 -124.295
519.925 11.7749 0 -151.318
-12.6662 10.2717 0 -124.303
-12.6527 10.3507 0 -124.299
-541.129 8.5833 0 -92.3173
-535.073 8.73618 0 -92.4814
510.908 12.004 0 -151.05
516.919 11.8518 0 -151.23
-538.101 8.65989 0 -92.3987
-12.6125 10.585 0 -124.287
513.914 11.9282 0 -151.141
-12.6392 10.4293 0 -124.295
-12.6258 10.5073 0 -124.291
-535.073 8.73618 0 -92.4814
-529.018 8.88783 0 -92.6512
504.898 12.154 0 -150.865
510.908 12.004 0 -151.05
-532.046 8.81216 0 -92.5656
-12.5862 10.7389 0 -124.279
507.903 12.0793 0 -150.958
-12.6125 10.585 0 -124.287
-12.5993 10.6622 0 -124.283
-529.018 8.88783 0 -92.6512
-522.964 9.03826 0 -92.8265
498.888 12.3016 0 -150.674
504.898 12.154 0 -150.865
-525.991 8.9632 0 -92.7381
-12.5601 10.891 0 -124.271
501.893 12.2281 0 -150.77
-12.5862 10.7389 0 -124.279
-12.5731 10.8152 0 -124.275
-522.964 9.03826 0 -92.8265
-516.911 9.18746 0 -93.0073
492.879 12.447 0 -150.478
498.888 12.3016 0 -150.674
-519.938 9.11301 0 -92.9162
-12.5343 11.0414 0 -124.264
495.883 12.3746 0 -150.576
-12.5601 10.891 0 -124.271
-12.5471 10.9664 0 -124.267
-516.911 9.18746 0 -93.0073
-510.859 9.33544 0 -93.1936
486.87 12.5901 0 -150.276
492.879 12.447 0 -150.478
-513.885 9.26161 0 -93.0997
-12.5088 11.19 0 -124.256
489.874 12.5188 0 -150.377
-12.5343 11.0414 0 -124.264
-12.5215 11.1159 0 -124.26
-510.859 9.33544 0 -93.1936
-504.808 9.48219 0 -93.3852
480.861 12.7309 0 -150.069
486.87 12.5901 0 -150.276
-507.833 9.40897 0 -93.2887
-12.4836 11.3368 0 -124.248
483.865 12.6608 0 -150.173
-12.5088 11.19 0 -124.256
-12.4961 11.2636 0 -124.252
-504.808 9.48219 0 -93.3852
-498.757 9.62772 0 -93.5822
474.852 12.8695 0 -149.857
480.861 12.7309 0 -150.069
-501.782 9.55511 0 -93.4831
-12.4587 11.4818 0 -124.24
477.857 12.8005 0 -149.963
-12.4836 11.3368 0 -124.248
-12.4711 11.4095 0 -124.244
-498.757 9.62772 0 -93.5822
-492.707 9.77202 0 -93.7844
468.844 13.0058 0 -149.639
474.852 12.8695 0 -149.857
-495.732 9.70002 0 -93.6827
-12.4341 11.625 0 -124.233
471.848 12.9379 0 -149.749
-12.4587 11.4818 0 -124.24
-12.4464 11.5536 0 -124.237
-492.707 9.77202 0 -93.7844
-486.659 9.91508 0 -93.9919
462.837 13.1398 0 -149.417
468.844 13.0058 0 -149.639
-489.683 9.8437 0 -93.8875
-12.4098 11.7664 0 -124.225
465.84 13.0731 0 -149.529
-12.4341 11.625 0 -124.233
-12.4219 11.6959 0 -124.229
-486.659 9.91508 0 -93.9919
-480.611 10.0569 0 -94.2044
456.829 13.2715 0 -149.19
462.837 13.1398 0 -149.417
-483.635 9.98615 0 -94.0975
-12.3858 11.906 0 -124.218
459.833 13.2059 0 -149.304
-12.4098 11.7664 0 -124.225
-12.3978 11.8364 0 -124.222
-480.611 10.0569 0 -94.2044
-474.564 10.1975 0 -94.4221
450.822 13.401 0 -148.957
456.829 13.2715 0 -149.19
-477.587 10.1274 0 -94.3126
-12.3621 12.0439 0 -124.21
453.826 13.3365 0 -149.074
-12.3858 11.906 0 -124.218
-12.3739 11.9752 0 -124.214
-474.564 10.1975 0 -94.4221
-468.518 10.3369 0 -94.6447
444.816 13.5282 0 -148.72
450.822 13.401 0 -148.957
-471.541 10.2674 0 -94.5328
-12.3387 12.1799 0 -124.203
447.819 13.4649 0 -148.839
-12.3621 12.0439 0 -124.21
-12.3504 12.1121 0 -124.207
-468.518 10.3369 0 -94.6447
-462.472 10.475 0 -94.8723
438.809 13.6532 0 -148.478
444.816 13.5282 0 -148.72
-465.495 10.4061 0 -94.7579
-12.3157 12.3142 0 -124.196
441.813 13.591 0 -148.599
-12.3387 12.1799 0 -124.203
-12.3272 12.2473 0 -124.199
-462.472 10.475 0 -94.8723
-456.428 10.6119 0 -95.1048
432.804 13.7759 0 -148.231
438.809 13.6532 0 -148.478
-459.45 10.5436 0 -94.9879
-12.2929 12.4467 0 -124.189
435.807 13.7148 0 -148.355
-12.3157 12.3142 0 -124.196
-12.3042 12.3807 0 -124.192
-456.428 10.6119 0 -95.1048
-450.384 10.7476 0 -95.342
426.798 13.8963 0 -147.979
432.804 13.7759 0 -148.231
-453.406 10.6799 0 -95.2228
-12.2704 12.5774 0 -124.181
429.801 13.8364 0 -148.106
-12.2929 12.4467 0 -124.189
-12.2816 12.5123 0 -124.185
-450.384 10.7476 0 -95.342
-444.342 10.882 0 -95.5841
420.793 14.0145 0 -147.723
426.798 13.8963 0 -147.979
-447.363 10.8149 0 -95.4625
-12.2482 12.7064 0 -124.174
423.795 13.9557 0 -147.852
-12.2704 12.5774 0 -124.181
-12.2593 12.6421 0 -124.178
-444.342 10.882 0 -95.5841
-438.3 11.0151 0 -95.8308
414.788 14.1304 0 -147.462
420.793 14.0145 0 -147.723
-441.321 10.9487 0 -95.7068
-12.2263 12.8335 0 -124.167
417.79 14.0728 0 -147.593
-12.2482 12.7064 0 -124.174
-12.2372 12.7702 0 -124.171
-438.3 11.0151 0 -95.8308
-432.259 11.147 0 -96.0821
408.783 14.2441 0 -147.197
414.788 14.1304 0 -147.462
-435.279 11.0812 0 -95.9559
-12.2047 12.9589 0 -124.16
411.786 14.1876 0 -147.33
-12.2263 12.8335 0 -124.167
-12.2155 12.8964 0 -124.164
-432.259 11.147 0 -96.0821
-426.219 11.2777 0 -96.338
402.779 14.3556 0 -146.928
408.783 14.2441 0 -147.197
-429.239 11.2125 0 -96.2095
-12.1835 13.0825 0 -124.154
405.781 14.3001 0 -147.063
-12.2047 12.9589 0 -124.16
-12.1941 13.0209 0 -124.157
-426.219 11.2777 0 -96.338
-420.179 11.4071 0 -96.5984
396.775 14.4648 0 -146.654
402.779 14.3556 0 -146.928
-423.199 11.3426 0 -96.4676
-12.1625 13.2043 0 -124.147
399.777 14.4105 0 -146.791
-12.1835 13.0825 0 -124.154
-12.1729 13.1436 0 -124.15
-420.179 11.4071 0 -96.5984
-414.141 11.5352 0 -96.8632
390.772 14.5718 0 -146.375
396.775 14.4648 0 -146.654
-417.16 11.4713 0 -96.7302
-12.1418 13.3243 0 -124.14
393.774 14.5186 0 -146.515
-12.1625 13.2043 0 -124.147
-12.1521 13.2645 0 -124.143
-414.141 11.5352 0 -96.8632
-408.103 11.6621 0 -97.1324
384.769 14.6765 0 -146.093
390.772 14.5718 0 -146.375
-411.122 11.5988 0 -96.9973
-12.1214 13.4425 0 -124.133
387.77 14.6244 0 -146.235
-12.1418 13.3243 0 -124.14
-12.1316 13.3836 0 -124.137
-408.103 11.6621 0 -97.1324
-402.066 11.7877 0 -97.4059
378.766 14.779 0 -145.806
384.769 14.6765 0 -146.093
-405.085 11.7251 0 -97.2686
-12.1014 13.5589 0 -124.127
381.767 14.7281 0 -145.95
-12.1214 13.4425 0 -124.133
-12.1114 13.5009 0 -124.13
-402.066 11.7877 0 -97.4059
-396.03 11.9121 0 -97.6836
372.763 14.8793 0 -145.516
378.766 14.779 0 -145.806
-399.048 11.8501 0 -97.5442
-12.0816 13.6736 0 -124.12
375.764 14.8295 0 -145.661
-12.1014 13.5589 0 -124.127
-12.0915 13.6165 0 -124.123
-396.03 11.9121 0 -97.6836
-389.995 12.0352 0 -97.9656
366.761 14.9774 0 -145.221
372.763 14.8793 0 -145.516
-393.013 11.9738 0 -97.8241
-12.0621 13.7865 0 -124.114
369.762 14.9287 0 -145.369
-12.0816 13.6736 0 -124.12
-12.0718 13.7303 0 -124.117
-389.995 12.0352 0 -97.9656
-383.961 12.157 0 -98.2516
360.759 15.0733 0 -144.922
366.761 14.9774 0 -145.221
-386.978 12.0962 0 -98.1081
-12.043 13.8976 0 -124.107
363.76 15.0256 0 -145.072
-12.0621 13.7865 0 -124.114
-12.0525 13.8422 0 -124.111
-383.961 12.157 0 -98.2516
-377.927 12.2775 0 -98.5417
354.757 15.1669 0 -144.619
360.759 15.0733 0 -144.922
-380.944 12.2174 0 -98.3962
-12.0241 14.0069 0 -124.101
357.758 15.1204 0 -144.771
-12.043 13.8976 0 -124.107
-12.0335 13.9525 0 -124.104
-377.927 12.2775 0 -98.5417
-371.894 12.3967 0 -98.8358
348.756 15.2584 0 -144.313
354.757 15.1669 0 -144.619
-374.911 12.3372 0 -98.6882
-12.0056 14.1144 0 -124.095
351.756 15.2129 0 -144.467
-12.0241 14.0069 0 -124.101
-12.0148 14.0609 0 -124.098
-371.894 12.3967 0 -98.8358
-365.862 12.5146 0 -99.1338
342.755 15.3477 0 -144.003
348.756 15.2584 0 -144.313
-368.878 12.4558 0 -98.9843
-11.9873 14.2202 0 -124.089
345.755 15.3033 0 -144.158
-12.0056 14.1144 0 -124.095
-11.9964 14.1675 0 -124.092
-365.862 12.5146 0 -99.1338
-359.831 12.6313 0 -99.4357
336.754 15.4347 0 -143.689
342.755 15.3477 0 -144.003
-362.847 12.5731 0 -99.2842
-11.9694 14.3241 0 -124.083
339.754 15.3915 0 -143.846
-11.9873 14.2202 0 -124.089
-11.9783 14.2724 0 -124.086
-359.831 12.6313 0 -99.4357
-353.801 12.7466 0 -99.7413
330.753 15.5196 0 -143.371
336.754 15.4347 0 -143.689
-356.816 12.6891 0 -99.588
-11.9517 14.4263 0 -124.077
333.753 15.4774 0 -143.531
-11.9694 14.3241 0 -124.083
-11.9605 14.3755 0 -124.08
-353.801 12.7466 0 -99.7413
-347.771 12.8606 0 -100.051
324.753 15.6023 0 -143.05
330.753 15.5196 0 -143.371
-350.786 12.8038 0 -99.8956
-11.9344 14.5267 0 -124.071
327.753 15.5612 0 -143.211
-11.9517 14.4263 0 -124.077
-11.943 14.4768 0 -124.074
-347.771 12.8606 0 -100.051
-341.742 12.9733 0 -100.364
318.753 15.6828 0 -142.726
324.753 15.6023 0 -143.05
-344.756 12.9171 0 -100.207
-11.9174 14.6254 0 -124.065
321.753 15.6428 0 -142.888
-11.9344 14.5267 0 -124.071
-11.9259 14.5763 0 -124.068
-341.742 12.9733 0 -100.364
-335.714 13.0847 0 -100.68
312.753 15.7611 0 -142.398
318.753 15.6828 0 -142.726
-338.728 13.0292 0 -100.522
-11.9006 14.7222 0 -124.06
315.753 15.7222 0 -142.562
-11.9174 14.6254 0 -124.065
-11.909 14.674 0 -124.062
-335.714 13.0847 0 -100.68
-329.687 13.1948 0 -101.001
306.753 15.8373 0 -142.066
312.753 15.7611 0 -142.398
-332.7 13.1399 0 -100.84
-11.8842 14.8173 0 -124.054
309.753 15.7995 0 -142.232
-11.9006 14.7222 0 -124.06
-11.8924 14.77 0 -124.057
-329.687 13.1948 0 -101.001
-323.66 13.3036 0 -101.324
300.754 15.9113 0 -141.732
306.753 15.8373 0 -142.066
-326.673 13.2494 0 -101.162
-11.8681 14.9106 0 -124.048
303.753 15.8746 0 -141.899
-11.8842 14.8173 0 -124.054
-11.8761 14.8641 0 -124.051
-323.66 13.3036 0 -101.324
-317.634 13.411 0 -101.652
294.755 15.9831 0 -141.394
300.754 15.9113 0 -141.732
-320.647 13.3574 0 -101.488
-11.8523 15.0021 0 -124.043
297.754 15.9475 0 -141.563
-11.8681 14.9106 0 -124.048
-11.8602 14.9565 0 -124.046
-317.634 13.411 0 -101.652
-311.609 13.5171 0 -101.982
288.756 16.0528 0 -141.052
294.755 15.9831 0 -141.394
-314.621 13.4642 0 -101.816
-11.8368 15.0918 0 -124.038
291.755 16.0183 0 -141.223
-11.8523 15.0021 0 -124.043
-11.8445 15.0472 0 -124.04
-311.609 13.5171 0 -101.982
-305.584 13.6218 0 -102.316
282.757 16.1204 0 -140.708
288.756 16.0528 0 -141.052
-308.597 13.5696 0 -102.149
-11.8216 15.1797 0 -124.032
285.756 16.0869 0 -140.881
-11.8368 15.0918 0 -124.038
-11.8291 15.136 0 -124.035
-305.584 13.6218 0 -102.316
-299.561 13.7252 0 -102.653
276.758 16.1858 0 -140.361
282.757 16.1204 0 -140.708
-302.572 13.6737 0 -102.484
-11.8067 15.2659 0 -124.027
279.758 16.1534 0 -140.535
-11.8216 15.1797 0 -124.032
-11.8141 15.223 0 -124.03
-299.561 13.7252 0 -102.653
-293.538 13.8272 0 -102.993
270.76 16.2491 0 -140.011
276.758 16.1858 0 -140.361
-296.549 13.7764 0 -102.822
-11.7921 15.3503 0 -124.022
273.759 16.2177 0 -140.186
-11.8067 15.2659 0 -124.027
-11.7993 15.3083 0 -124.025
-293.538 13.8272 0 -102.993
-287.515 13.9279 0 -103.336
264.762 16.3103 0 -139.657
270.76 16.2491 0 -140.011
-290.526 13.8777 0 -103.164
-11.7778 15.4329 0 -124.017
267.761 16.28 0 -139.834
-11.7921 15.3503 0 -124.022
-11.7849 15.3918 0 -124.02
-287.515 13.9279 0 -103.336
-281.494 14.0272 0 -103.683
258.764 16.3693 0 -139.301
264.762 16.3103 0 -139.657
-284.504 13.9777 0 -103.509
-11.7638 15.5137 0 -124.012
261.763 16.3401 0 -139.48
-11.7778 15.4329 0 -124.017
-11.7708 15.4735 0 -124.015
-281.494 14.0272 0 -103.683
-275.473 14.1251 0 -104.032
252.766 16.4263 0 -138.943
258.764 16.3693 0 -139.301
-278.483 14.0763 0 -103.857
-11.7501 15.5928 0 -124.008
255.765 16.3981 0 -139.122
-11.7638 15.5137 0 -124.012
-11.7569 15.5535 0 -124.01
-275.473 14.1251 0 -104.032
-269.453 14.2217 0 -104.384
246.769 16.4811 0 -138.581
252.766 16.4263 0 -138.943
-272.463 14.1736 0 -104.208
-11.7368 15.6701 0 -124.003
249.767 16.454 0 -138.762
-11.7501 15.5928 0 -124.008
-11.7434 15.6316 0 -124.005
-269.453 14.2217 0 -104.384
-263.433 14.3168 0 -104.739
240.771 16.5339 0 -138.217
246.769 16.4811 0 -138.581
-266.443 14.2694 0 -104.561
-11.7237 15.7455 0 -123.998
243.77 16.5078 0 -138.399
-11.7368 15.6701 0 -124.003
-11.7302 15.708 0 -124.001
-263.433 14.3168 0 -104.739
-257.414 14.4106 0 -105.097
234.774 16.5845 0 -137.85
240.771 16.5339 0 -138.217
-260.424 14.3639 0 -104.918
-11.7109 15.8193 0 -123.994
237.773 16.5595 0 -138.034
-11.7237 15.7455 0 -123.998
-11.7173 15.7826 0 -123.996
-257.414 14.4106 0 -105.097
-251.396 14.5029 0 -105.457
228.777 16.6331 0 -137.481
234.774 16.5845 0 -137.85
-254.405 14.4569 0 -105.277
-11.6985 15.8912 0 -123.99
231.775 16.6091 0 -137.666
-11.7109 15.8193 0 -123.994
-11.7047 15.8554 0 -123.992
-251.396 14.5029 0 -105.457
-245.378 14.5939 0 -105.821
222.78 16.6796 0 -137.109
228.777 16.6331 0 -137.481
-248.387 14.5486 0 -105.639
-11.6863 15.9614 0 -123.985
225.778 16.6566 0 -137.295
-11.6985 15.8912 0 -123.99
-11.6924 15.9265 0 -123.987
-245.378 14.5939 0 -105.821
-239.361 14.6834 0 -106.186
216.783 16.724 0 -136.735
222.78 16.6796 0 -137.109
-242.37 14.6388 0 -106.003
-11.6745 16.0297 0 -123.981
219.781 16.7021 0 -136.922
-11.6863 15.9614 0 -123.985
-11.6804 15.9958 0 -123.983
-239.361 14.6834 0 -106.186
-233.345 14.7715 0 -106.555
210.786 16.7664 0 -136.358
216.783 16.724 0 -136.735
-236.353 14.7276 0 -106.37
-11.663 16.0963 0 -123.977
213.784 16.7455 0 -136.547
-11.6745 16.0297 0 -123.981
-11.6687 16.0633 0 -123.979
-233.345 14.7715 0 -106.555
-227.329 14.8582 0 -106.925
204.789 16.8067 0 -135.98
210.786 16.7664 0 -136.358
-230.337 14.815 0 -106.74
-11.6517 16.1612 0 -123.973
207.788 16.7868 0 -136.169
-11.663 16.0963 0 -123.977
-11.6573 16.129 0 -123.975
-227.329 14.8582 0 -106.925
-221.314 14.9434 0 -107.299
198.793 16.845 0 -135.599
204.789 16.8067 0 -135.98
-224.322 14.901 0 -107.112
-11.6408 16.2242 0 -123.969
201.791 16.8261 0 -135.789
-11.6517 16.1612 0 -123.973
-11.6462 16.1929 0 -123.971
-221.314 14.9434 0 -107.299
-215.3 15.0272 0 -107.674
192.796 16.8812 0 -135.216
198.793 16.845 0 -135.599
-218.307 14.9855 0 -107.486
-11.6302 16.2854 0 -123.965
195.794 16.8634 0 -135.407
-11.6408 16.2242 0 -123.969
-11.6355 16.255 0 -123.967
-215.3 15.0272 0 -107.674
-209.286 15.1095 0 -108.052
186.8 16.9154 0 -134.83
192.796 16.8812 0 -135.216
-212.293 15.0685 0 -107.863
-11.6199 16.3449 0 -123.962
189.798 16.8986 0 -135.023
-11.6302 16.2854 0 -123.965
-11.625 16.3154 0 -123.963
-209.286 15.1095 0 -108.052
-203.273 15.1904 0 -108.432
180.803 16.9476 0 -134.443
186.8 16.9154 0 -134.83
-206.279 15.1501 0 -108.242
-11.6099 16.4026 0 -123.958
183.802 16.9317 0 -134.637
-11.6199 16.3449 0 -123.962
-11.6148 16.374 0 -123.96
-203.273 15.1904 0 -108.432
-197.26 15.2697 0 -108.814
174.807 16.9777 0 -134.054
180.803 16.9476 0 -134.443
-200.266 15.2302 0 -108.623
-11.6002 16.4585 0 -123.955
177.805 16.9629 0 -134.249
-11.6099 16.4026 0 -123.958
-11.605 16.4308 0 -123.956
-197.26 15.2697 0 -108.814
-191.248 15.3476 0 -109.198
168.811 17.0058 0 -133.663
174.807 16.9777 0 -134.054
-194.254 15.3089 0 -109.006
-11.5907 16.5126 0 -123.951
171.809 16.992 0 -133.859
-11.6002 16.4585 0 -123.955
-11.5954 16.4858 0 -123.953
-191.248 15.3476 0 -109.198
-185.236 15.424 0 -109.585
162.815 17.0319 0 -133.271
168.811 17.0058 0 -133.663
-188.242 15.386 0 -109.391
-11.5816 16.5649 0 -123.948
165.813 17.0191 0 -133.467
-11.5907 16.5126 0 -123.951
-11.5861 16.5389 0 -123.95
-185.236 15.424 0 -109.585
-179.225 15.4988 0 -109.973
156.819 17.0559 0 -132.876
162.815 17.0319 0 -133.271
-182.23 15.4616 0 -109.779
-11.5727 16.6153 0 -123.945
159.817 17.0441 0 -133.074
-11.5816 16.5649 0 -123.948
-11.5771 16.5903 0 -123.946
-179.225 15.4988 0 -109.973
-173.214 15.5721 0 -110.363
150.823 17.0779 0 -132.48
156.819 17.0559 0 -132.876
-176.22 15.5356 0 -110.168
-11.5641 16.664 0 -123.942
153.821 17.0672 0 -132.678
-11.5727 16.6153 0 -123.945
-11.5684 16.6399 0 -123.943
-173.214 15.5721 0 -110.363
-167.204 15.6438 0 -110.755
144.827 17.0979 0 -132.082
150.823 17.0779 0 -132.48
-170.209 15.6081 0 -110.559
-11.5557 16.7108 0 -123.939
147.825 17.0882 0 -132.281
-11.5641 16.664 0 -123.942
-11.5599 16.6876 0 -123.94
-167.204 15.6438 0 -110.755
-161.194 15.714 0 -111.149
138.831 17.1159 0 -131.683
144.827 17.0979 0 -132.082
-164.199 15.6791 0 -110.951
-11.5475 16.7557 0 -123.936
141.829 17.1072 0 -131.883
-11.5557 16.7108 0 -123.939
-11.5516 16.7335 0 -123.938
-161.194 15.714 0 -111.149
-155.185 15.7826 0 -111.544
132.835 17.1319 0 -131.282
138.831 17.1159 0 -131.683
-158.19 15.7485 0 -111.346
-11.5395 16.7989 0 -123.933
135.833 17.1241 0 -131.483
-11.5475 16.7557 0 -123.936
-11.5435 16.7776 0 -123.935
-155.185 15.7826 0 -111.544
-149.176 15.8497 0 -111.941
126.84 17.1459 0 -130.88
132.835 17.1319 0 -131.282
-152.181 15.8163 0 -111.742
-11.5316 16.8403 0 -123.931
129.837 17.1391 0 -131.081
-11.5395 16.7989 0 -123.933
-11.5355 16.8198 0 -123.932
-149.176 15.8497 0 -111.941
-143.167 15.9153 0 -112.339
120.844 17.158 0 -130.476
126.84 17.1459 0 -130.88
-146.172 15.8827 0 -112.14
-11.5238 16.88 0 -123.928
123.842 17.1522 0 -130.678
-11.5316 16.8403 0 -123.931
-11.5277 16.8604 0 -123.93
-143.167 15.9153 0 -112.339
-137.159 15.9797 0 -112.739
114.849 17.1684 0 -130.072
120.844 17.158 0 -130.476
-140.163 15.9477 0 -112.539
-11.5161 16.9182 0 -123.926
117.847 17.1634 0 -130.274
-11.5238 16.88 0 -123.928
-11.5199 16.8993 0 -123.927
-137.159 15.9797 0 -112.739
-131.151 16.043 0 -113.14
108.855 17.1772 0 -129.665
114.849 17.1684 0 -130.072
-134.155 16.0115 0 -112.939
-11.5085 16.9551 0 -123.923
111.852 17.173 0 -129.869
-11.5161 16.9182 0 -123.926
-11.5123 16.9368 0 -123.924
-131.151 16.043 0 -113.14
-125.144 16.1056 0 -113.543
102.86 17.185 0 -129.257
108.855 17.1772 0 -129.665
-128.147 16.0744 0 -113.341
-11.5011 16.991 0 -123.92
105.857 17.1812 0 -129.461
-11.5085 16.9551 0 -123.923
-11.5048 16.9731 0 -123.922
-125.144 16.1056 0 -113.543
-119.137 16.168 0 -113.946
96.8653 17.1922 0 -128.848
102.86 17.185 0 -129.257
-122.14 16.1368 0 -113.744
-11.4942 17.0267 0 -123.917
99.8627 17.1886 0 -129.053
-11.5011 16.991 0 -123.92
-11.4976 17.0088 0 -123.919
-119.137 16.168 0 -113.946
-113.132 16.2307 0 -114.352
90.8703 17.2002 0 -128.437
96.8653 17.1922 0 -128.848
-116.134 16.1993 0 -114.149
-11.4883 17.0629 0 -123.914
93.8679 17.196 0 -128.642
-11.4942 17.0267 0 -123.917
-11.4911 17.0446 0 -123.916
-113.132 16.2307 0 -114.352
-107.128 16.2943 0 -114.76
84.8736 17.2106 0 -128.024
90.8703 17.2002 0 -128.437
-110.13 16.2624 0 -114.555
-11.4843 17.101 0 -123.912
87.8723 17.2049 0 -128.23
-11.4883 17.0629 0 -123.914
-11.486 17.0816 0 -123.913
-107.128 16.2943 0 -114.76
-101.127 16.3591 0 -115.173
78.8734 17.2271 0 -127.611
84.8736 17.2106 0 -128.024
-104.127 16.3266 0 -114.965
-11.4837 17.143 0 -123.913
81.874 17.2178 0 -127.817
-11.4843 17.101 0 -123.912
-11.4834 17.1214 0 -123.912
-101.127 16.3591 0 -115.173
-95.1265 16.4249 0 -115.595
72.8638 17.2547 0 -127.201
78.8734 17.2271 0 -127.611
-98.1267 16.3919 0 -115.382
-11.4891 17.1917 0 -123.922
75.8704 17.239 0 -127.405
-11.4837 17.143 0 -123.913
-11.4854 17.1663 0 -123.916
-95.1265 16.4249 0 -115.595
-89.1287 16.4885 0 -116.037
66.8382 17.3042 0 -126.8
72.8638 17.2547 0 -127.201
-92.1269 16.4573 0 -115.813
-11.5049 17.2511 0 -123.949
69.8531 17.2758 0 -126.999
-11.4891 17.1917 0 -123.922
-11.4954 17.2198 0 -123.932
-89.1287 16.4885 0 -116.037
-83.1231 16.5465 0 -116.52
60.7742 17.3895 0 -126.424
66.8382 17.3042 0 -126.8
-86.1284 16.5187 0 -116.272
-11.5379 17.3271 0 -124.014
63.8135 17.3411 0 -126.608
-11.5049 17.2511 0 -123.949
-11.5186 17.2865 0 -123.974
-83.1231 16.5465 0 -116.52
-77.1082 16.5833 0 -117.078
54.6512 17.5411 0 -126.101
60.7742 17.3895 0 -126.424
-80.1155 16.5689 0 -116.786
-11.5992 17.428 0 -124.158
57.7203 17.4546 0 -126.254
-11.5379 17.3271 0 -124.014
-11.5643 17.3738 0 -124.074
-77.1082 16.5833 0 -117.078
-71.0389 16.5896 0 -117.779
48.3939 17.7894 0 -125.885
54.6512 17.5411 0 -126.101
-74.0868 16.5916 0 -117.405
-11.7054 17.5657 0 -124.449
51.5481 17.6502 0 -125.975
-11.5992 17.428 0 -124.158
-11.6451 17.4911 0 -124.278
-71.0389 16.5896 0 -117.779
-64.9092 16.518 0 -118.724
41.9537 18.2087 0 -125.861
48.3939 17.7894 0 -125.885
-67.9764 16.5661 0 -118.214
-11.8809 17.7556 0 -124.999
45.1946 17.9732 0 -125.841
-11.7054 17.5657 0 -124.449
-11.7832 17.6534 0 -124.686
-64.9092 16.518 0 -118.724
-58.5659 16.3806 0 -120.08
35.1161 18.8217 0 -126.17
41.9537 18.2087 0 -125.861
-61.7869 16.4584 0 -119.336
-12.1582 18.0169 0 -125.974
38.6122 18.4875 0 -125.962
-11.8809 17.7556 0 -124.999
-12.0032 17.8753 0 -125.413
-58.5659 16.3806 0 -120.08
-52.0416 16.0916 0 -122.029
27.8476 19.7406 0 -126.985
35.1161 18.8217 0 -126.17
-55.3033 16.2522 0 -120.971
-12.5737 18.3629 0 -127.579
31.5167 19.2452 0 -126.501
-12.1582 18.0169 0 -125.974
-12.3486 18.1805 0 -126.699
-52.0416 16.0916 0 -122.029
-44.9505 15.9098 0 -124.775
19.6965 20.7094 0 -128.502
27.8476 19.7406 0 -126.985
-48.6336 15.9729 0 -123.286
-13.1525 18.7891 0 -129.969
23.9537 20.2342 0 -127.645
-12.5737 18.3629 0 -127.579
-12.8373 18.5646 0 -128.641
-44.9505 15.9098 0 -124.775
-37.7069 15.8829 0 -128.167
11.12 21.5575 0 -130.671
19.6965 20.7094 0 -128.502
-41.2476 15.8251 0 -126.428
-13.8593 19.2156 0 -132.983
15.3522 21.2165 0 -129.518
-13.1525 18.7891 0 -129.969
-13.5037 19.0176 0 -131.481
-37.7069 15.8829 0 -128.167
-29.7223 17.514 0 -131.417
1.76686 20.4275 0 -132.928
11.12 21.5575 0 -130.671
-33.9668 16.4095 0 -129.881
-14.5153 19.4185 0 -135.561
6.6764 21.355 0 -131.862
-13.8593 19.2156 0 -132.983
-14.197 19.3553 0 -134.342
-29.7223 17.514 0 -131.417
-22.9156 21.3745 0 -131.674
-5.59893 15.7995 0 -132.938
1.76686 20.4275 0 -132.928
-25.8271 19.0031 0 -132.227
-14.6538 18.8906 0 -134.9
-2.59358 18.8038 0 -133.434
-14.5153 19.4185 0 -135.561
-14.7182 19.3108 0 -136.066
-22.9156 21.3745 0 -131.674
-15.5965 30.5222 0 -123.917
-11.1776 3.02992 0 -126.103
-5.59893 15.7995 0 -132.938
-19.7617 25.4742 0 -129.15
-13.5556 16.894 0 -126.286
-8.28878 10.3614 0 -130.805
-14.6538 18.8906 0 -134.9
-14.2635 18.0852 0 -131.624
-15.5965 30.5222 0 -123.917
-11.4029 38.273 0 -100.25
-8.94537 -13.3585 0 -104.359
-11.1776 3.02992 0 -126.103
-12.3189 34.8283 0 -114.651
-10.2988 12.5528 0 -103.709
-11.9916 -4.85157 0 -117.578
-13.5556 16.894 0 -126.286
-12.3388 15.1483 0 -117.681
-11.4029 38.273 0 -100.25
-7.84676 47.083 0 -55.6884
0.106353 -36.625 0 -61.8367
-8.94537 -13.3585 0 -104.359
-10.5902 42.1935 0 -80.6595
-3.19369 5.34672 0 -57.0869
-4.26853 -23.8053 0 -85.9955
-10.2988 12.5528 0 -103.709
-7.30042 9.09026 0 -83.4988
1134.07 340.421 0 460.357
1107.47 182.477 0 151.679
3475.89 601.055 0 -14.4023
3197.47 956.681 0 291.691
1087.06 262.015 0 290.096
2289.84 391.138 0 87.3551
3386.38 765.986 0 107.001
2117.41 634.459 0 419.801
2239.64 530.35 0 206.542
1107.47 182.477 0 151.679
1168.66 104.47 0 -33.97
3543.29 258.426 0 -111.481
3475.89 601.055 0 -14.4023
1154.65 138.998 0 42.5852
2345.43 197.634 0 -62.1412
3505.99 417.219 0 -76.4917
2289.84 391.138 0 87.3551
2315.2 279.02 0 6.53417
1168.66 104.47 0 -33.97
1173.1 34.524 0 -118.608
3578.15 84.6243 0 -132.232
3543.29 258.426 0 -111.481
1166.65 65.846 0 -84.8937
2374.43 71.8677 0 -127.655
3576.14 154.159 0 -129.366
2345.43 197.634 0 -62.1412
2367.67 128.644 0 -107.066
1173.1 34.524 0 -118.608
1176.8 1.50344 0 -149.295
3551.57 3.51133 0 -125.115
3578.15 84.6243 0 -132.232
1180.21 15.2343 0 -139.045
2367.56 9.26496 0 -143.323
3563.66 34.4799 0 -128.151
2374.43 71.8677 0 -127.655
2372.97 33.4205 0 -137.322
1176.8 1.50344 0 -149.295
1164.3 -15.9161 0 -153.197
3519.88 -20.6054 0 -120.79
3551.57 3.51133 0 -125.115
1169 -9.46518 0 -152.916
2346.14 -17.5464 0 -142.577
3538.43 -12.4513 0 -122.988
2367.56 9.26496 0 -143.323
2358.15 -7.16049 0 -144.629
1164.3 -15.9161 0 -153.197
1153.76 -19.5273 0 -148.576
3483.02 -26.7051 0 -118.547
3519.88 -20.6054 0 -120.79
1160.22 -18.4644 0 -151.431
2321.33 -24.0778 0 -138.313
3499.7 -25.3753 0 -119.004
2346.14 -17.5464 0 -142.577
2333.37 -22.5858 0 -140.069
1153.76 -19.5273 0 -148.576
1141.24 -19.9285 0 -142.408
3453.16 -23.9678 0 -119.289
3483.02 -26.7051 0 -118.547
1146.69 -20.1598 0 -145.349
2298.81 -23.5726 0 -134.668
3468.13 -25.695 0 -118.848
2321.33 -24.0778 0 -138.313
2309.74 -24.2387 0 -136.507
1141.24 -19.9285 0 -142.408
1131.56 -18.1971 0 -137.662
3426.19 -20.4072 0 -120.828
3453.16 -23.9678 0 -119.289
1136.52 -19.0783 0 -139.831
2279.41 -20.6542 0 -132.541
3438.84 -22.2669 0 -119.903
2298.81 -23.5726 0 -134.668
2288.67 -22.2564 0 -133.313
1131.56 -18.1971 0 -137.662
1122.58 -16.6969 0 -134.604
3403.27 -16.9123 0 -122.989
3426.19 -20.4072 0 -120.828
1126.74 -17.4575 0 -135.911
2262.73 -17.8725 0 -131.722
3414.57 -18.5281 0 -121.911
2279.41 -20.6542 0 -132.541
2270.8 -19.1805 0 -132.036
1122.58 -16.6969 0 -134.604
1115.04 -15.297 0 -133.005
3382.14 -14.473 0 -125.206
3403.27 -16.9123 0 -122.989
1118.79 -15.939 0 -133.659
2247.95 -15.6468 0 -131.849
3392.41 -15.5982 0 -124.078
2262.73 -17.8725 0 -131.722
2255.15 -16.6856 0 -131.67
1115.04 -15.297 0 -133.005
1108.01 -14.3013 0 -132.372
3362.5 -12.7371 0 -127.459
3382.14 -14.473 0 -125.206
1111.41 -14.7709 0 -132.589
2234.36 -14.0832 0 -132.549
3372.24 -13.5104 0 -126.344
2247.95 -15.6468 0 -131.849
2241.05 -14.7882 0 -132.156
1108.01 -14.3013 0 -132.372
1101.5 -13.5161 0 -132.349
3343.51 -11.6051 0 -129.647
3362.5 -12.7371 0 -127.459
1104.73 -13.8776 0 -132.305
2221.48 -12.9877 0 -133.584
3352.92 -12.118 0 -128.557
2234.36 -14.0832 0 -132.549
2227.86 -13.4877 0 -133.032
1101.5 -13.5161 0 -132.349
1095.18 -12.9225 0 -132.666
3324.97 -10.8159 0 -131.782
3343.51 -11.6051 0 -129.647
1098.31 -13.2042 0 -132.477
2208.98 -12.2166 0 -134.784
3334.22 -11.1729 0 -130.724
2221.48 -12.9877 0 -133.584
2215.2 -12.5696 0 -134.172
1095.18 -12.9225 0 -132.666
1089.03 -12.4278 0 -133.165
3306.6 -10.2512 0 -133.854
3324.97 -10.8159 0 -131.782
1092.1 -12.6634 0 -132.9
2196.7 -11.638 0 -136.06
3315.76 -10.5142 0 -132.824
2208.98 -12.2166 0 -134.784
2202.82 -11.909 0 -135.416
1089.03 -12.4278 0 -133.165
1082.93 -12.003 0 -133.748
3288.34 -9.80395 0 -135.873
3306.6 -10.2512 0 -133.854
1085.97 -12.2097 0 -133.45
2184.51 -11.1737 0 -137.357
3297.47 -10.0158 0 -134.87
2196.7 -11.638 0 -136.06
2190.59 -11.395 0 -136.709
1082.93 -12.003 0 -133.748
1076.88 -11.6148 0 -134.366
3270.12 -9.42462 0 -137.842
3288.34 -9.80395 0 -135.873
1079.91 -11.8049 0 -134.055
2172.38 -10.772 0 -138.65
3279.23 -9.6086 0 -136.863
2184.51 -11.1737 0 -137.357
2178.44 -10.9671 0 -138.005
1076.88 -11.6148 0 -134.366
1070.85 -11.2506 0 -134.992
3251.92 -9.07874 0 -139.766
3270.12 -9.42462 0 -137.842
1073.86 -11.4306 0 -134.679
2160.26 -10.405 0 -139.925
3261.02 -9.2485 0 -138.809
2172.38 -10.772 0 -138.65
2166.32 -10.5853 0 -139.291
1070.85 -11.2506 0 -134.992
1064.83 -10.8998 0 -135.614
3233.72 -8.75077 0 -141.647
3251.92 -9.07874 0 -139.766
1067.84 -11.0738 0 -135.304
2148.16 -10.0566 0 -141.177
3242.82 -8.91329 0 -140.712
2160.26 -10.405 0 -139.925
2154.21 -10.2291 0 -140.554
1064.83 -10.8998 0 -135.614
1058.81 -10.5581 0 -136.225
3215.52 -8.43132 0 -143.49
3233.72 -8.75077 0 -141.647
1061.82 -10.7281 0 -135.921
2136.06 -9.71836 0 -142.404
3224.62 -8.59026 0 -142.573
2148.16 -10.0566 0 -141.177
2142.11 -9.8865 0 -141.794
1058.81 -10.5581 0 -136.225
1052.79 -10.2222 0 -136.825
3197.32 -8.11631 0 -145.294
3215.52 -8.43132 0 -143.49
1055.8 -10.3895 0 -136.527
2123.96 -9.38597 0 -143.606
3206.42 -8.27345 0 -144.397
2136.06 -9.71836 0 -142.404
2130.01 -9.55161 0 -143.009
1052.79 -10.2222 0 -136.825
1046.77 -9.89052 0 -137.412
3179.12 -7.80346 0 -147.062
3197.32 -8.11631 0 -145.294
1049.78 -10.0559 0 -137.12
2111.86 -9.05711 0 -144.784
3188.22 -7.95968 0 -146.182
2123.96 -9.38597 0 -143.606
2117.91 -9.22118 0 -144.198
1046.77 -9.89052 0 -137.412
1040.76 -9.56206 0 -137.986
3160.92 -7.49182 0 -148.794
3179.12 -7.80346 0 -147.062
1043.76 -9.72593 0 -137.701
2099.76 -8.73061 0 -145.937
3170.02 -7.64753 0 -147.932
2111.86 -9.05711 0 -144.784
2105.81 -8.89361 0 -145.363
1040.76 -9.56206 0 -137.986
1034.74 -9.23616 0 -138.549
3142.72 -7.18089 0 -150.49
3160.92 -7.49182 0 -148.794
1037.75 -9.39883 0 -138.269
2087.66 -8.40582 0 -147.066
3151.82 -7.33628 0 -149.646
2099.76 -8.73061 0 -145.937
2093.71 -8.56803 0 -146.504
1034.74 -9.23616 0 -138.549
1028.72 -8.9124 0 -139.099
3124.51 -6.87046 0 -152.153
3142.72 -7.18089 0 -150.49
1031.73 -9.07403 0 -138.826
2075.56 -8.0824 0 -148.172
3133.62 -7.02562 0 -151.326
2087.66 -8.40582 0 -147.066
2081.61 -8.24395 0 -147.622
1028.72 -8.9124 0 -139.099
1022.71 -8.59048 0 -139.638
3106.31 -6.56044 0 -153.781
3124.51 -6.87046 0 -152.153
1025.71 -8.75122 0 -139.37
2063.45 -7.76015 0 -149.255
3115.41 -6.7154 0 -152.971
2075.56 -8.0824 0 -148.172
2069.5 -7.92114 0 -148.716
1022.71 -8.59048 0 -139.638
1016.69 -8.27025 0 -140.166
3088.1 -6.25079 0 -155.375
3106.31 -6.56044 0 -153.781
1019.7 -8.43016 0 -139.903
2051.35 -7.43897 0 -150.315
3097.2 -6.40556 0 -154.582
2063.45 -7.76015 0 -149.255
2057.4 -7.59943 0 -149.788
1016.69 -8.27025 0 -140.166
1010.67 -7.95158 0 -140.682
3069.89 -5.94152 0 -156.935
3088.1 -6.25079 0 -155.375
1013.68 -8.11072 0 -140.425
2039.24 -7.1188 0 -151.353
3079 -6.0961 0 -156.159
2051.35 -7.43897 0 -150.315
2045.29 -7.27876 0 -150.837
1010.67 -7.95158 0 -140.682
1004.65 -7.63441 0 -141.187
3051.68 -5.63267 0 -158.463
3069.89 -5.94152 0 -156.935
1007.66 -7.79281 0 -140.936
2027.14 -6.79963 0 -152.369
3060.79 -5.78704 0 -157.703
2039.24 -7.1188 0 -151.353
2033.19 -6.95909 0 -151.864
1004.65 -7.63441 0 -141.187
998.628 -7.31871 0 -141.681
3033.47 -5.32427 0 -159.957
3051.68 -5.63267 0 -158.463
1001.64 -7.47638 0 -141.435
2015.03 -6.48145 0 -153.362
3042.58 -5.47841 0 -159.214
2027.14 -6.79963 0 -152.369
2021.08 -6.64041 0 -152.868
998.628 -7.31871 0 -141.681
992.608 -7.00446 0 -142.163
3015.26 -5.0164 0 -161.418
3033.47 -5.32427 0 -159.957
995.618 -7.1614 0 -141.923
2002.92 -6.1643 0 -154.334
3024.37 -5.17027 0 -160.692
2015.03 -6.48145 0 -153.362
2008.98 -6.32274 0 -153.851
992.608 -7.00446 0 -142.163
986.587 -6.69168 0 -142.635
2997.05 -4.7091 0 -162.847
3015.26 -5.0164 0 -161.418
989.597 -6.84789 0 -142.401
1990.81 -5.8482 0 -155.284
3006.16 -4.86267 0 -162.137
2002.92 -6.1643 0 -154.334
1996.87 -6.00612 0 -154.812
986.587 -6.69168 0 -142.635
980.565 -6.38038 0 -143.096
2978.84 -4.40245 0 -164.243
2997.05 -4.7091 0 -162.847
983.576 -6.53585 0 -142.867
1978.7 -5.53321 0 -156.212
2987.95 -4.55569 0 -163.549
1990.81 -5.8482 0 -155.284
1984.76 -5.69057 0 -155.751
980.565 -6.38038 0 -143.096
974.543 -6.07058 0 -143.546
2960.63 -4.09651 0 -165.607
2978.84 -4.40245 0 -164.243
977.554 -6.22529 0 -143.322
1966.6 -5.21935 0 -157.119
2969.73 -4.24939 0 -164.929
1978.7 -5.53321 0 -156.212
1972.65 -5.37613 0 -156.668
974.543 -6.07058 0 -143.546
968.52 -5.76229 0 -143.985
2942.42 -3.79135 0 -166.939
2960.63 -4.09651 0 -165.607
971.532 -5.91624 0 -143.767
1954.49 -4.90668 0 -158.004
2951.52 -3.94383 0 -166.277
1966.6 -5.21935 0 -157.119
1960.54 -5.06286 0 -157.564
968.52 -5.76229 0 -143.985
962.498 -5.45555 0 -144.414
2924.2 -3.48703 0 -168.239
2942.42 -3.79135 0 -166.939
965.509 -5.60872 0 -144.201
1942.38 -4.59524 0 -158.867
2933.31 -3.63908 0 -167.593
1954.49 -4.90668 0 -158.004
1948.43 -4.7508 0 -158.438
962.498 -5.45555 0 -144.414
956.474 -5.15037 0 -144.832
2905.99 -3.18363 0 -169.507
2924.2 -3.48703 0 -168.239
959.486 -5.30276 0 -144.624
1930.27 -4.28508 0 -159.71
2915.1 -3.33521 0 -168.877
1942.38 -4.59524 0 -158.867
1936.32 -4.44 0 -159.291
956.474 -5.15037 0 -144.832
950.451 -4.84679 0 -145.239
2887.78 -2.88121 0 -170.744
2905.99 -3.18363 0 -169.507
953.463 -4.99838 0 -145.037
1918.16 -3.97624 0 -160.532
2896.89 -3.0323 0 -170.129
1930.27 -4.28508 0 -159.71
1924.21 -4.13049 0 -160.124
950.451 -4.84679 0 -145.239
944.427 -4.54482 0 -145.636
2869.57 -2.57984 0 -171.949
2887.78 -2.88121 0 -170.744
947.439 -4.6956 0 -145.439
1906.04 -3.66876 0 -161.333
2878.67 -2.73039 0 -171.35
1918.16 -3.97624 0 -160.532
1912.1 -3.82233 0 -160.935
944.427 -4.54482 0 -145.636
938.403 -4.24448 0 -146.023
2851.35 -2.27956 0 -173.123
2869.57 -2.57984 0 -171.949
941.415 -4.39445 0 -145.831
1893.93 -3.3627 0 -162.113
2860.46 -2.42956 0 -172.54
1906.04 -3.66876 0 -161.333
1899.99 -3.51555 0 -161.725
938.403 -4.24448 0 -146.023
932.378 -3.94581 0 -146.399
2833.14 -1.98046 0 -174.267
2851.35 -2.27956 0 -173.123
935.391 -4.09494 0 -146.212
1881.82 -3.05808 0 -162.872
2842.25 -2.12986 0 -173.699
1893.93 -3.3627 0 -162.113
1887.88 -3.2102 0 -162.495
932.378 -3.94581 0 -146.399
926.354 -3.64881 0 -146.765
2814.93 -1.68259 0 -175.38
2833.14 -1.98046 0 -174.267
929.366 -3.7971 0 -146.583
1869.71 -2.75495 0 -163.611
2824.03 -1.83137 0 -174.827
1881.82 -3.05808 0 -162.872
1875.77 -2.90633 0 -163.244
926.354 -3.64881 0 -146.765
920.329 -3.35352 0 -147.12
2796.72 -1.386 0 -176.462
2814.93 -1.68259 0 -175.38
923.341 -3.50095 0 -146.944
1857.6 -2.45335 0 -164.329
2805.82 -1.53413 0 -175.924
1869.71 -2.75495 0 -163.611
1863.66 -2.60396 0 -163.973
920.329 -3.35352 0 -147.12
914.304 -3.05994 0 -147.466
2778.5 -1.09076 0 -177.514
2796.72 -1.386 0 -176.462
917.316 -3.20651 0 -147.294
1845.49 -2.15333 0 -165.028
2787.61 -1.23821 0 -176.991
1857.6 -2.45335 0 -164.329
1851.54 -2.30314 0 -164.681
914.304 -3.05994 0 -147.466
908.279 -2.76809 0 -147.801
2760.29 -0.796916 0 -178.535
2778.5 -1.09076 0 -177.514
911.291 -2.9138 0 -147.635
1833.38 -1.8549 0 -165.706
2769.4 -0.943659 0 -178.028
1845.49 -2.15333 0 -165.028
1839.43 -2.00391 0 -165.369
908.279 -2.76809 0 -147.801
902.253 -2.47801 0 -148.126
2742.08 -0.504528 0 -179.527
2760.29 -0.796916 0 -178.535
905.266 -2.62283 0 -147.965
1821.27 -1.55812 0 -166.364
2751.19 -0.650537 0 -179.035
1833.38 -1.8549 0 -165.706
1827.32 -1.7063 0 -166.038
902.253 -2.47801 0 -148.126
896.228 -2.1897 0 -148.442
2723.87 -0.21365 0 -180.489
2742.08 -0.504528 0 -179.527
899.241 -2.33363 0 -148.285
1809.16 -1.26302 0 -167.003
2732.98 -0.358897 0 -180.012
1821.27 -1.55812 0 -166.364
1815.21 -1.41036 0 -166.686
896.228 -2.1897 0 -148.442
890.202 -1.90318 0 -148.747
2705.66 0.0756654 0 -181.422
2723.87 -0.21365 0 -180.489
893.215 -2.04621 0 -148.596
1797.05 -0.969632 0 -167.621
2714.77 -0.068794 0 -180.959
1809.16 -1.26302 0 -167.003
1803.1 -1.11611 0 -167.315
890.202 -1.90318 0 -148.747
884.176 -1.61847 0 -149.043
2687.45 0.363367 0 -182.325
2705.66 0.0756654 0 -181.422
887.189 -1.7606 0 -148.896
1784.93 -0.677991 0 -168.221
2696.56 0.219721 0 -181.877
1797.05 -0.969632 0 -167.621
1790.99 -0.823591 0 -167.924
884.176 -1.61847 0 -149.043
878.151 -1.33559 0 -149.329
2669.24 0.649405 0 -183.2
2687.45 0.363367 0 -182.325
881.164 -1.4768 0 -149.187
1772.82 -0.388133 0 -168.8
2678.35 0.506597 0 -182.766
1784.93 -0.677991 0 -168.221
1778.88 -0.532837 0 -168.513
878.151 -1.33559 0 -149.329
872.125 -1.05455 0 -149.605
2651.03 0.933728 0 -184.045
2669.24 0.649405 0 -183.2
875.138 -1.19483 0 -149.468
1760.71 -0.10009 0 -169.361
2660.14 0.791784 0 -183.626
1772.82 -0.388133 0 -168.8
1766.77 -0.243883 0 -169.083
872.125 -1.05455 0 -149.605
866.099 -0.775363 0 -149.872
2632.83 1.21629 0 -184.862
2651.03 0.933728 0 -184.045
869.112 -0.914721 0 -149.74
1748.6 0.186106 0 -169.902
2641.93 1.07523 0 -184.457
1760.71 -0.10009 0 -169.361
1754.66 0.0432409 0 -169.634
866.099 -0.775363 0 -149.872
860.073 -0.498056 0 -150.129
2614.62 1.49704 0 -185.65
2632.83 1.21629 0 -184.862
863.086 -0.636474 0 -150.002
1736.5 0.470423 0 -170.425
2623.72 1.35689 0 -185.259
1748.6 0.186106 0 -169.902
1742.55 0.328501 0 -170.166
860.073 -0.498056 0 -150.129
854.047 -0.222638 0 -150.377
2596.41 1.77593 0 -186.41
2614.62 1.49704 0 -185.65
857.06 -0.360109 0 -150.254
1724.39 0.75283 0 -170.928
2605.52 1.63672 0 -186.033
1736.5 0.470423 0 -170.425
1730.44 0.611867 0 -170.679
854.047 -0.222638 0 -150.377
848.021 0.050875 0 -150.615
2578.21 2.05293 0 -187.141
2596.41 1.77593 0 -186.41
851.034 -0.0856423 0 -150.497
1712.28 1.0333 0 -171.413
2587.31 1.91467 0 -186.779
1724.39 0.75283 0 -170.928
1718.33 0.893307 0 -171.173
848.021 0.050875 0 -150.615
841.995 0.322468 0 -150.844
2560 2.32797 0 -187.845
2578.21 2.05293 0 -187.141
845.008 0.186912 0 -150.731
1700.17 1.31179 0 -171.879
2569.11 2.19069 0 -187.497
1712.28 1.0333 0 -171.413
1706.22 1.17279 0 -171.648
841.995 0.322468 0 -150.844
835.969 0.592126 0 -151.063
2541.8 2.60103 0 -188.521
2560 2.32797 0 -187.845
838.982 0.45754 0 -150.955
1688.06 1.58829 0 -172.327
2550.9 2.46475 0 -188.187
1700.17 1.31179 0 -171.879
1694.12 1.45029 0 -172.105
835.969 0.592126 0 -151.063
829.943 0.859837 0 -151.274
2523.6 2.87205 0 -189.17
2541.8 2.60103 0 -188.521
832.956 0.726226 0 -151.17
1675.95 1.86276 0 -172.756
2532.7 2.7368 0 -188.849
1688.06 1.58829 0 -172.327
1682.01 1.72578 0 -172.543
829.943 0.859837 0 -151.274
823.918 1.12558 0 -151.475
2505.4 3.141 0 -189.791
2523.6 2.87205 0 -189.17
826.93 0.992957 0 -151.376
1663.85 2.13518 0 -173.167
2514.5 3.00679 0 -189.484
1675.95 1.86276 0 -172.756
1669.9 1.99923 0 -172.964
823.918 1.12558 0 -151.475
817.892 1.38936 0 -151.668
2487.2 3.40784 0 -190.386
2505.4 3.141 0 -189.791
820.905 1.25772 0 -151.573
1651.74 2.40552 0 -173.56
2496.3 3.27468 0 -190.092
1663.85 2.13518 0 -173.167
1657.79 2.27061 0 -173.366
817.892 1.38936 0 -151.668
811.866 1.65114 0 -151.851
2469 3.67252 0 -190.953
2487.2 3.40784 0 -190.386
814.879 1.5205 0 -151.76
1639.64 2.67374 0 -173.935
2478.1 3.54045 0 -190.673
1651.74 2.40552 0 -173.56
1645.69 2.53989 0 -173.75
811.866 1.65114 0 -151.851
805.841 1.91092 0 -152.025
2450.8 3.93501 0 -191.493
2469 3.67252 0 -190.953
808.853 1.78128 0 -151.939
1627.53 2.93984 0 -174.292
2459.9 3.80404 0 -191.226
1639.64 2.67374 0 -173.935
1633.58 2.80706 0 -174.116
805.841 1.91092 0 -152.025
799.815 2.16869 0 -152.191
2432.6 4.19527 0 -192.008
2450.8 3.93501 0 -191.493
802.828 2.04006 0 -152.109
1615.43 3.20377 0 -174.632
2441.7 4.06542 0 -191.754
1627.53 2.93984 0 -174.292
1621.48 3.07208 0 -174.464
799.815 2.16869 0 -152.191
793.79 2.42444 0 -152.347
2414.41 4.45326 0 -192.495
2432.6 4.19527 0 -192.008
796.803 2.29682 0 -152.27
1603.32 3.46553 0 -174.954
2423.51 4.32455 0 -192.255
1615.43 3.20377 0 -174.632
1609.37 3.33492 0 -174.795
793.79 2.42444 0 -152.347
787.765 2.67814 0 -152.495
2396.21 4.70895 0 -192.957
2414.41 4.45326 0 -192.495
790.777 2.55154 0 -152.423
1591.22 3.72507 0 -175.258
2405.31 4.5814 0 -192.73
1603.32 3.46553 0 -174.954
1597.27 3.59558 0 -175.108
787.765 2.67814 0 -152.495
781.74 2.9298 0 -152.635
2378.02 4.96231 0 -193.393
2396.21 4.70895 0 -192.957
784.752 2.80422 0 -152.566
1579.12 3.98239 0 -175.546
2387.12 4.83592 0 -193.178
1591.22 3.72507 0 -175.258
1585.17 3.85401 0 -175.404
781.74 2.9298 0 -152.635
775.715 3.17939 0 -152.766
2359.83 5.21329 0 -193.803
2378.02 4.96231 0 -193.393
778.728 3.05485 0 -152.701
1567.01 4.23746 0 -175.816
2368.93 5.0881 0 -193.601
1579.12 3.98239 0 -175.546
1573.06 4.11021 0 -175.683
775.715 3.17939 0 -152.766
769.69 3.42692 0 -152.888
2341.64 5.46187 0 -194.188
2359.83 5.21329 0 -193.803
772.703 3.30341 0 -152.828
1554.91 4.49025 0 -176.069
2350.74 5.33789 0 -193.999
1567.01 4.23746 0 -175.816
1560.96 4.36414 0 -175.945
769.69 3.42692 0 -152.888
763.666 3.67236 0 -153.002
2323.45 5.70802 0 -194.547
2341.64 5.46187 0 -194.188
766.678 3.5499 0 -152.946
1542.81 4.74075 0 -176.305
2332.55 5.58525 0 -194.37
1554.91 4.49025 0 -176.069
1548.86 4.61578 0 -176.189
763.666 3.67236 0 -153.002
757.642 3.91571 0 -153.107
2305.27 5.9517 0 -194.881
2323.45 5.70802 0 -194.547
760.654 3.79429 0 -153.055
1530.71 4.98893 0 -176.525
2314.36 5.83017 0 -194.717
1542.81 4.74075 0 -176.305
1536.76 4.86513 0 -176.417
757.642 3.91571 0 -153.107
751.618 4.15696 0 -153.204
2287.08 6.19288 0 -195.19
2305.27 5.9517 0 -194.881
754.63 4.03659 0 -153.157
1518.61 5.23477 0 -176.728
2296.17 6.07261 0 -195.039
1530.71 4.98893 0 -176.525
1524.66 5.11214 0 -176.629
751.618 4.15696 0 -153.204
745.594 4.39609 0 -153.293
2268.9 6.43154 0 -195.475
2287.08 6.19288 0 -195.19
748.606 4.27679 0 -153.25
1506.52 5.47826 0 -176.915
2277.99 6.31253 0 -195.336
1518.61 5.23477 0 -176.728
1512.57 5.35681 0 -176.823
745.594 4.39609 0 -153.293
739.57 4.63311 0 -153.374
2250.71 6.66765 0 -195.735
2268.9 6.43154 0 -195.475
742.582 4.51487 0 -153.334
1494.42 5.71938 0 -177.085
2259.8 6.54992 0 -195.608
1506.52 5.47826 0 -176.915
1500.47 5.59912 0 -177.002
739.57 4.63311 0 -153.374
733.547 4.86799 0 -153.446
2232.53 6.90117 0 -195.971
2250.71 6.66765 0 -195.735
736.559 4.75082 0 -153.411
1482.32 5.9581 0 -177.239
2241.62 6.78473 0 -195.856
1494.42 5.71938 0 -177.085
1488.37 5.83904 0 -177.164
733.547 4.86799 0 -153.446
727.524 5.10074 0 -153.511
2214.35 7.13209 0 -196.183
2232.53 6.90117 0 -195.971
730.535 4.98463 0 -153.479
1470.23 6.19442 0 -177.377
2223.44 7.01696 0 -196.08
1482.32 5.9581 0 -177.239
1476.28 6.07656 0 -177.31
727.524 5.10074 0 -153.511
721.501 5.33134 0 -153.567
2196.18 7.36037 0 -196.37
2214.35 7.13209 0 -196.183
724.512 5.21631 0 -153.54
1458.13 6.42831 0 -177.499
2205.26 7.24656 0 -196.28
1470.23 6.19442 0 -177.377
1464.18 6.31167 0 -177.44
721.501 5.33134 0 -153.567
715.479 5.55978 0 -153.616
2178 7.58599 0 -196.535
2196.18 7.36037 0 -196.37
718.49 5.44583 0 -153.593
1446.04 6.65975 0 -177.605
2187.09 7.47352 0 -196.455
1458.13 6.42831 0 -177.499
1452.09 6.54434 0 -177.554
715.479 5.55978 0 -153.616
709.456 5.78606 0 -153.657
2159.83 7.80894 0 -196.675
2178 7.58599 0 -196.535
712.467 5.67319 0 -153.637
1433.95 6.88874 0 -177.695
2168.91 7.6978 0 -196.608
1446.04 6.65975 0 -177.605
1439.99 6.77455 0 -177.652
709.456 5.78606 0 -153.657
703.434 6.01017 0 -153.69
2141.65 8.02917 0 -196.792
2159.83 7.80894 0 -196.675
706.445 5.89839 0 -153.674
1421.86 7.11525 0 -177.77
2150.74 7.91939 0 -196.737
1433.95 6.88874 0 -177.695
1427.9 7.0023 0 -177.735
703.434 6.01017 0 -153.69
697.412 6.23211 0 -153.715
2123.48 8.24668 0 -196.887
2141.65 8.02917 0 -196.792
700.423 6.12141 0 -153.703
1409.77 7.33927 0 -177.83
2132.57 8.13827 0 -196.842
1421.86 7.11525 0 -177.77
1415.81 7.22757 0 -177.802
697.412 6.23211 0 -153.715
691.391 6.45185 0 -153.733
2105.31 8.46144 0 -196.958
2123.48 8.24668 0 -196.887
694.402 6.34225 0 -153.725
1397.68 7.56079 0 -177.874
2114.4 8.35441 0 -196.925
1409.77 7.33927 0 -177.83
1403.72 7.45034 0 -177.854
691.391 6.45185 0 -153.733
685.37 6.66941 0 -153.743
2087.15 8.67343 0 -197.007
2105.31 8.46144 0 -196.958
688.38 6.5609 0 -153.739
1385.59 7.77979 0 -177.904
2096.23 8.56779 0 -196.985
1397.68 7.56079 0 -177.874
1391.63 7.6706 0 -177.891
685.37 6.66941 0 -153.743
679.349 6.88476 0 -153.746
2068.98 8.88263 0 -197.033
2087.15 8.67343 0 -197.007
682.359 6.77736 0 -153.745
1373.5 7.99626 0 -177.918
2078.06 8.77838 0 -197.022
1385.59 7.77979 0 -177.904
1379.54 7.88834 0 -177.912
679.349 6.88476 0 -153.746
673.329 7.09792 0 -153.741
2050.82 9.08903 0 -197.036
2068.98 8.88263 0 -197.033
676.339 6.99162 0 -153.744
1361.41 8.21019 0 -177.917
2059.9 8.98618 0 -197.037
1373.5 7.99626 0 -177.918
1367.46 8.10354 0 -177.919
673.329 7.09792 0 -153.741
667.308 7.30886 0 -153.729
2032.66 9.29259 0 -197.018
2050.82 9.08903 0 -197.036
670.318 7.20366 0 -153.736
1349.33 8.42156 0 -177.902
2041.74 9.19116 0 -197.03
1361.41 8.21019 0 -177.917
1355.37 8.31619 0 -177.911
667.308 7.30886 0 -153.729
661.288 7.51758 0 -153.709
2014.5 9.49331 0 -196.978
2032.66 9.29259 0 -197.018
664.298 7.4135 0 -153.72
1337.24 8.63037 0 -177.872
2023.58 9.39331 0 -197.001
1349.33 8.42156 0 -177.902
1343.29 8.52628 0 -177.889
661.288 7.51758 0 -153.709
655.269 7.72409 0 -153.683
1996.34 9.69118 0 -196.916
2014.5 9.49331 0 -196.978
658.279 7.62111 0 -153.697
1325.16 8.83659 0 -177.827
2005.42 9.5926 0 -196.95
1337.24 8.63037 0 -177.872
1331.2 8.7338 0 -177.851
655.269 7.72409 0 -153.683
649.25 7.92836 0 -153.649
1978.18 9.88616 0 -196.832
1996.34 9.69118 0 -196.916
652.259 7.8265 0 -153.667
1313.08 9.04024 0 -177.768
1987.26 9.78903 0 -196.877
1325.16 8.83659 0 -177.827
1319.12 8.93874 0 -177.8
649.25 7.92836 0 -153.649
643.231 8.13041 0 -153.608
1960.03 10.0783 0 -196.728
1978.18 9.88616 0 -196.832
646.24 8.02966 0 -153.629
1301 9.24128 0 -177.696
1969.1 9.98257 0 -196.783
1313.08 9.04024 0 -177.768
1307.04 9.14108 0 -177.734
643.231 8.13041 0 -153.608
637.212 8.33022 0 -153.56
1941.88 10.2674 0 -196.602
1960.03 10.0783 0 -196.728
640.222 8.23059 0 -153.585
1288.92 9.43971 0 -177.608
1950.95 10.1732 0 -196.667
1301 9.24128 0 -177.696
1294.96 9.34082 0 -177.654
637.212 8.33022 0 -153.56
631.194 8.52779 0 -153.505
1923.72 10.4537 0 -196.455
1941.88 10.2674 0 -196.602
634.203 8.42928 0 -153.534
1276.84 9.63553 0 -177.508
1932.8 10.3609 0 -196.531
1288.92 9.43971 0 -177.608
1282.88 9.53795 0 -177.56
631.194 8.52779 0 -153.505
625.176 8.72311 0 -153.443
1905.58 10.637 0 -196.288
1923.72 10.4537 0 -196.455
628.185 8.62573 0 -153.475
1264.76 9.82873 0 -177.393
1914.65 10.5457 0 -196.374
1276.84 9.63553 0 -177.508
1270.8 9.73246 0 -177.452
625.176 8.72311 0 -153.443
619.159 8.91618 0 -153.375
1887.43 10.8174 0 -196.1
1905.58 10.637 0 -196.288
622.168 8.81993 0 -153.41
1252.68 10.0193 0 -177.264
1896.5 10.7276 0 -196.196
1264.76 9.82873 0 -177.393
1258.72 9.92434 0 -177.33
619.159 8.91618 0 -153.375
613.142 9.10701 0 -153.3
1869.29 10.9949 0 -195.891
1887.43 10.8174 0 -196.1
616.15 9.01188 0 -153.338
1240.61 10.2072 0 -177.122
1878.36 10.9065 0 -195.998
1252.68 10.0193 0 -177.264
1246.64 10.1136 0 -177.195
613.142 9.10701 0 -153.3
607.125 9.29557 0 -153.218
1851.14 11.1693 0 -195.663
1869.29 10.9949 0 -195.891
610.133 9.20157 0 -153.259
1228.53 10.3925 0 -176.967
1860.21 11.0825 0 -195.78
1240.61 10.2072 0 -177.122
1234.57 10.3002 0 -177.046
607.125 9.29557 0 -153.218
601.109 9.48188 0 -153.129
1833 11.3408 0 -195.414
1851.14 11.1693 0 -195.663
604.117 9.38901 0 -153.174
1216.46 10.5751 0 -176.798
1842.07 11.2555 0 -195.541
1228.53 10.3925 0 -176.967
1222.49 10.4841 0 -176.884
601.109 9.48188 0 -153.129
595.093 9.66593 0 -153.034
1814.86 11.5093 0 -195.146
1833 11.3408 0 -195.414
598.101 9.57419 0 -153.082
1204.38 10.7551 0 -176.617
1823.93 11.4255 0 -195.283
1216.46 10.5751 0 -176.798
1210.42 10.6654 0 -176.709
595.093 9.66593 0 -153.034
589.077 9.84771 0 -152.932
1796.73 11.6749 0 -194.859
1814.86 11.5093 0 -195.146
592.085 9.7571 0 -152.984
1192.31 10.9324 0 -176.422
1805.79 11.5925 0 -195.005
1204.38 10.7551 0 -176.617
1198.35 10.844 0 -176.521
589.077 9.84771 0 -152.932
583.062 10.0272 0 -152.824
1778.59 11.8374 0 -194.552
1796.73 11.6749 0 -194.859
586.069 9.93775 0 -152.879
1180.24 11.107 0 -176.214
1787.66 11.7565 0 -194.708
1192.31 10.9324 0 -176.422
1186.28 11.02 0 -176.32
583.062 10.0272 0 -152.824
577.047 10.2045 0 -152.709
1760.46 11.9969 0 -194.226
1778.59 11.8374 0 -194.552
580.054 10.1161 0 -152.767
1168.17 11.2789 0 -175.994
1769.53 11.9175 0 -194.391
1180.24 11.107 0 -176.214
1174.21 11.1933 0 -176.106
577.047 10.2045 0 -152.709
571.032 10.3795 0 -152.589
1742.33 12.1534 0 -193.881
1760.46 11.9969 0 -194.226
574.04 10.2922 0 -152.65
1156.11 11.4482 0 -175.761
1751.39 12.0755 0 -194.056
1168.17 11.2789 0 -175.994
1162.14 11.3639 0 -175.879
571.032 10.3795 0 -152.589
565.018 10.5522 0 -152.462
1724.2 12.3068 0 -193.517
1742.33 12.1534 0 -193.881
568.025 10.4661 0 -152.526
1144.04 11.6148 0 -175.515
1733.26 12.2305 0 -193.701
1156.11 11.4482 0 -175.761
1150.07 11.5318 0 -175.64
565.018 10.5522 0 -152.462
559.005 10.7226 0 -152.329
1706.07 12.4573 0 -193.135
1724.2 12.3068 0 -193.517
562.011 10.6377 0 -152.396
1131.97 11.7787 0 -175.258
1715.14 12.3824 0 -193.328
1144.04 11.6148 0 -175.515
1138.01 11.6971 0 -175.388
559.005 10.7226 0 -152.329
552.991 10.8907 0 -152.189
1687.95 12.6047 0 -192.734
1706.07 12.4573 0 -193.135
555.998 10.8069 0 -152.26
1119.91 11.9399 0 -174.988
1697.01 12.5314 0 -192.937
1131.97 11.7787 0 -175.258
1125.94 11.8596 0 -175.124
552.991 10.8907 0 -152.189
546.978 11.0566 0 -152.044
1669.83 12.7491 0 -192.316
1687.95 12.6047 0 -192.734
549.985 10.974 0 -152.118
1107.85 12.0984 0 -174.706
1678.89 12.6773 0 -192.527
1119.91 11.9399 0 -174.988
1113.88 12.0195 0 -174.848
546.978 11.0566 0 -152.044
540.966 11.2202 0 -151.893
1651.71 12.8904 0 -191.879
1669.83 12.7491 0 -192.316
543.972 11.1387 0 -151.969
1095.78 12.2543 0 -174.412
1660.77 12.8201 0 -192.1
1107.85 12.0984 0 -174.706
1101.81 12.1767 0 -174.56
540.966 11.2202 0 -151.893
534.953 11.3815 0 -151.736
1633.59 13.0287 0 -191.425
1651.71 12.8904 0 -191.879
537.96 11.3012 0 -151.815
1083.72 12.4074 0 -174.106
1642.65 12.96 0 -191.654
1095.78 12.2543 0 -174.412
1089.75 12.3312 0 -174.26
534.953 11.3815 0 -151.736
528.942 11.5406 0 -151.573
1615.47 13.164 0 -190.953
1633.59 13.0287 0 -191.425
531.948 11.4613 0 -151.655
1071.66 12.5578 0 -173.788
1624.53 13.0968 0 -191.191
1083.72 12.4074 0 -174.106
1077.69 12.4829 0 -173.949
528.942 11.5406 0 -151.573
522.93 11.6973 0 -151.405
1597.36 13.2962 0 -190.464
1615.47 13.164 0 -190.953
525.936 11.6193 0 -151.49
1059.6 12.7056 0 -173.459
1606.41 13.2305 0 -190.71
1071.66 12.5578 0 -173.788
1065.63 12.632 0 -173.625
522.93 11.6973 0 -151.405
516.919 11.8518 0 -151.23
1579.24 13.4254 0 -189.957
1597.36 13.2962 0 -190.464
519.925 11.7749 0 -151.318
1047.55 12.8506 0 -173.119
1588.3 13.3612 0 -190.213
1059.6 12.7056 0 -173.459
1053.58 12.7784 0 -173.291
516.919 11.8518 0 -151.23
510.908 12.004 0 -151.05
1561.13 13.5516 0 -189.434
1579.24 13.4254 0 -189.957
513.914 11.9282 0 -151.141
1035.49 12.993 0 -172.767
1570.19 13.4889 0 -189.698
1047.55 12.8506 0 -173.119
1041.52 12.9221 0 -172.944
510.908 12.004 0 -151.05
504.898 12.154 0 -150.865
1543.03 13.6747 0 -188.894
1561.13 13.5516 0 -189.434
507.903 12.0793 0 -150.958
1023.44 13.1326 0 -172.404
1552.08 13.6135 0 -189.166
1035.49 12.993 0 -172.767
1029.46 13.0631 0 -172.587
504.898 12.154 0 -150.865
498.888 12.3016 0 -150.674
1524.92 13.7947 0 -188.337
1543.03 13.6747 0 -188.894
501.893 12.2281 0 -150.77
1011.38 13.2696 0 -172.03
1533.97 13.7351 0 -188.617
1023.44 13.1326 0 -172.404
1017.41 13.2014 0 -172.219
498.888 12.3016 0 -150.674
492.879 12.447 0 -150.478
1506.82 13.9118 0 -187.764
1524.92 13.7947 0 -188.337
495.883 12.3746 0 -150.576
999.328 13.4038 0 -171.646
1515.87 13.8536 0 -188.053
1011.38 13.2696 0 -172.03
1005.35 13.337 0 -171.839
492.879 12.447 0 -150.478
486.87 12.5901 0 -150.276
1488.71 14.0258 0 -187.175
1506.82 13.9118 0 -187.764
489.874 12.5188 0 -150.377
987.277 13.5354 0 -171.25
1497.76 13.9691 0 -187.472
999.328 13.4038 0 -171.646
993.302 13.47 0 -171.449
486.87 12.5901 0 -150.276
480.861 12.7309 0 -150.069
1470.61 14.1367 0 -186.57
1488.71 14.0258 0 -187.175
483.865 12.6608 0 -150.173
975.226 13.6643 0 -170.844
1479.66 14.0816 0 -186.874
987.277 13.5354 0 -171.25
981.251 13.6002 0 -171.048
480.861 12.7309 0 -150.069
474.852 12.8695 0 -149.857
1452.52 14.2447 0 -185.949
1470.61 14.1367 0 -186.57
477.857 12.8005 0 -149.963
963.177 13.7905 0 -170.427
1461.56 14.1911 0 -186.261
975.226 13.6643 0 -170.844
969.201 13.7277 0 -170.637
474.852 12.8695 0 -149.857
468.844 13.0058 0 -149.639
1434.42 14.3496 0 -185.312
1452.52 14.2447 0 -185.949
471.848 12.9379 0 -149.749
951.128 13.914 0 -170
1443.47 14.2975 0 -185.633
963.177 13.7905 0 -170.427
957.152 13.8526 0 -170.215
468.844 13.0058 0 -149.639
462.837 13.1398 0 -149.417
1416.32 14.4514 0 -184.661
1434.42 14.3496 0 -185.312
465.84 13.0731 0 -149.529
939.081 14.0348 0 -169.563
1425.37 14.4009 0 -184.988
951.128 13.914 0 -170
945.105 13.9748 0 -169.783
462.837 13.1398 0 -149.417
456.829 13.2715 0 -149.19
1398.23 14.5503 0 -183.994
1416.32 14.4514 0 -184.661
459.833 13.2059 0 -149.304
927.035 14.153 0 -169.116
1407.28 14.5013 0 -184.329
939.081 14.0348 0 -169.563
933.058 14.0943 0 -169.341
456.829 13.2715 0 -149.19
450.822 13.401 0 -148.957
1380.14 14.6462 0 -183.312
1398.23 14.5503 0 -183.994
453.826 13.3365 0 -149.074
914.99 14.2685 0 -168.659
1389.19 14.5986 0 -183.654
927.035 14.153 0 -169.116
921.012 14.2111 0 -168.888
450.822 13.401 0 -148.957
444.816 13.5282 0 -148.72
1362.05 14.7391 0 -182.615
1380.14 14.6462 0 -183.312
447.819 13.4649 0 -148.839
902.946 14.3813 0 -168.191
1371.1 14.693 0 -182.965
914.99 14.2685 0 -168.659
908.968 14.3252 0 -168.426
444.816 13.5282 0 -148.72
438.809 13.6532 0 -148.478
1343.97 14.8289 0 -181.903
1362.05 14.7391 0 -182.615
441.813 13.591 0 -148.599
890.903 14.4915 0 -167.715
1353.01 14.7844 0 -182.261
902.946 14.3813 0 -168.191
896.925 14.4367 0 -167.954
438.809 13.6532 0 -148.478
432.804 13.7759 0 -148.231
1325.88 14.9158 0 -181.178
1343.97 14.8289 0 -181.903
435.807 13.7148 0 -148.355
878.862 14.5989 0 -167.228
1334.92 14.8727 0 -181.542
890.903 14.4915 0 -167.715
884.883 14.5455 0 -167.473
432.804 13.7759 0 -148.231
426.798 13.8963 0 -147.979
1307.8 14.9997 0 -180.438
1325.88 14.9158 0 -181.178
429.801 13.8364 0 -148.106
866.821 14.7038 0 -166.732
1316.84 14.9581 0 -180.809
878.862 14.5989 0 -167.228
872.841 14.6517 0 -166.982
426.798 13.8963 0 -147.979
420.793 14.0145 0 -147.723
1289.72 15.0806 0 -179.684
1307.8 14.9997 0 -180.438
423.795 13.9557 0 -147.852
854.782 14.806 0 -166.227
1298.76 15.0406 0 -180.062
866.821 14.7038 0 -166.732
860.801 14.7552 0 -166.481
420.793 14.0145 0 -147.723
414.788 14.1304 0 -147.462
1271.64 15.1586 0 -178.916
1289.72 15.0806 0 -179.684
417.79 14.0728 0 -147.593
842.743 14.9055 0 -165.713
1280.68 15.12 0 -179.302
854.782 14.806 0 -166.227
848.763 14.8561 0 -165.971
414.788 14.1304 0 -147.462
408.783 14.2441 0 -147.197
1253.56 15.2336 0 -178.135
1271.64 15.1586 0 -178.916
411.786 14.1876 0 -147.33
830.706 15.0024 0 -165.19
1262.6 15.1965 0 -178.527
842.743 14.9055 0 -165.713
836.725 14.9543 0 -165.453
408.783 14.2441 0 -147.197
402.779 14.3556 0 -146.928
1235.49 15.3057 0 -177.34
1253.56 15.2336 0 -178.135
405.781 14.3001 0 -147.063
818.67 15.0967 0 -164.657
1244.53 15.27 0 -177.739
830.706 15.0024 0 -165.19
824.688 15.0499 0 -164.925
402.779 14.3556 0 -146.928
396.775 14.4648 0 -146.654
1217.42 15.3749 0 -176.532
1235.49 15.3057 0 -177.34
399.777 14.4105 0 -146.791
806.635 15.1884 0 -164.116
1226.45 15.3407 0 -176.937
818.67 15.0967 0 -164.657
812.652 15.1429 0 -164.388
396.775 14.4648 0 -146.654
390.772 14.5718 0 -146.375
1199.35 15.4411 0 -175.711
1217.42 15.3749 0 -176.532
393.774 14.5186 0 -146.515
794.601 15.2774 0 -163.567
1208.38 15.4083 0 -176.123
806.635 15.1884 0 -164.116
800.618 15.2332 0 -163.843
390.772 14.5718 0 -146.375
384.769 14.6765 0 -146.093
1181.28 15.5044 0 -174.877
1199.35 15.4411 0 -175.711
387.77 14.6244 0 -146.235
782.567 15.3639 0 -163.008
1190.31 15.4731 0 -175.295
794.601 15.2774 0 -163.567
788.584 15.321 0 -163.289
384.769 14.6765 0 -146.093
378.766 14.779 0 -145.806
1163.21 15.5648 0 -174.03
1181.28 15.5044 0 -174.877
381.767 14.7281 0 -145.95
770.535 15.4477 0 -162.442
1172.24 15.535 0 -174.455
782.567 15.3639 0 -163.008
776.551 15.4061 0 -162.726
378.766 14.779 0 -145.806
372.763 14.8793 0 -145.516
1145.14 15.6224 0 -173.172
1163.21 15.5648 0 -174.03
375.764 14.8295 0 -145.661
758.504 15.529 0 -161.867
1154.18 15.594 0 -173.603
770.535 15.4477 0 -162.442
764.52 15.4887 0 -162.155
372.763 14.8793 0 -145.516
366.761 14.9774 0 -145.221
1127.08 15.677 0 -172.3
1145.14 15.6224 0 -173.172
369.762 14.9287 0 -145.369
746.474 15.6076 0 -161.284
1136.11 15.6501 0 -172.738
758.504 15.529 0 -161.867
752.489 15.5686 0 -161.576
366.761 14.9774 0 -145.221
360.759 15.0733 0 -144.922
1109.02 15.7288 0 -171.417
1127.08 15.677 0 -172.3
363.76 15.0256 0 -145.072
734.445 15.6837 0 -160.693
1118.05 15.7033 0 -171.86
746.474 15.6076 0 -161.284
740.46 15.646 0 -160.989
360.759 15.0733 0 -144.922
354.757 15.1669 0 -144.619
1090.96 15.7778 0 -170.522
1109.02 15.7288 0 -171.417
357.758 15.1204 0 -144.771
722.417 15.7573 0 -160.094
1099.99 15.7537 0 -170.971
734.445 15.6837 0 -160.693
728.431 15.7208 0 -160.394
354.757 15.1669 0 -144.619
348.756 15.2584 0 -144.313
1072.9 15.8239 0 -169.615
1090.96 15.7778 0 -170.522
351.756 15.2129 0 -144.467
710.39 15.8283 0 -159.487
1081.93 15.8012 0 -170.07
722.417 15.7573 0 -160.094
716.403 15.7931 0 -159.792
348.756 15.2584 0 -144.313
342.755 15.3477 0 -144.003
1054.84 15.8672 0 -168.697
1072.9 15.8239 0 -169.615
345.755 15.3033 0 -144.158
698.364 15.8967 0 -158.873
1063.87 15.8459 0 -169.158
710.39 15.8283 0 -159.487
704.377 15.8628 0 -159.181
342.755 15.3477 0 -144.003
336.754 15.4347 0 -143.689
1036.79 15.9077 0 -167.768
1054.84 15.8672 0 -168.697
339.754 15.3915 0 -143.846
686.338 15.9626 0 -158.251
1045.81 15.8878 0 -168.234
698.364 15.8967 0 -158.873
692.351 15.93 0 -158.563
336.754 15.4347 0 -143.689
330.753 15.5196 0 -143.371
1018.73 15.9455 0 -166.827
1036.79 15.9077 0 -167.768
333.753 15.4774 0 -143.531
674.314 16.026 0 -157.622
1027.76 15.927 0 -167.299
686.338 15.9626 0 -158.251
680.326 15.9946 0 -157.938
330.753 15.5196 0 -143.371
324.753 15.6023 0 -143.05
1000.68 15.9804 0 -165.876
1018.73 15.9455 0 -166.827
327.753 15.5612 0 -143.211
662.291 16.0869 0 -156.986
1009.71 15.9633 0 -166.353
674.314 16.026 0 -157.622
668.302 16.0567 0 -157.305
324.753 15.6023 0 -143.05
318.753 15.6828 0 -142.726
982.63 16.0126 0 -164.914
1000.68 15.9804 0 -165.876
321.753 15.6428 0 -142.888
650.268 16.1452 0 -156.343
991.655 15.9969 0 -165.396
662.291 16.0869 0 -156.986
656.279 16.1163 0 -156.665
318.753 15.6828 0 -142.726
312.753 15.7611 0 -142.398
964.582 16.0421 0 -163.941
982.63 16.0126 0 -164.914
315.753 15.7222 0 -142.562
638.247 16.2011 0 -155.692
973.606 16.0277 0 -164.429
650.268 16.1452 0 -156.343
644.257 16.1735 0 -156.018
312.753 15.7611 0 -142.398
306.753 15.8373 0 -142.066
946.535 16.0688 0 -162.959
964.582 16.0421 0 -163.941
309.753 15.7995 0 -142.232
626.226 16.2545 0 -155.035
955.558 16.0558 0 -163.451
638.247 16.2011 0 -155.692
632.236 16.2281 0 -155.365
306.753 15.8373 0 -142.066
300.754 15.9113 0 -141.732
928.49 16.0929 0 -161.966
946.535 16.0688 0 -162.959
303.753 15.8746 0 -141.899
614.206 16.3054 0 -154.371
937.512 16.0812 0 -162.463
626.226 16.2545 0 -155.035
620.216 16.2802 0 -154.704
300.754 15.9113 0 -141.732
294.755 15.9831 0 -141.394
910.446 16.1142 0 -160.963
928.49 16.0929 0 -161.966
297.754 15.9475 0 -141.563
602.187 16.3539 0 -153.701
919.468 16.1039 0 -161.466
614.206 16.3054 0 -154.371
608.196 16.3299 0 -154.037
294.755 15.9831 0 -141.394
288.756 16.0528 0 -141.052
892.404 16.1329 0 -159.95
910.446 16.1142 0 -160.963
291.755 16.0183 0 -141.223
590.169 16.3999 0 -153.024
901.425 16.1239 0 -160.458
602.187 16.3539 0 -153.701
596.178 16.3772 0 -153.363
288.756 16.0528 0 -141.052
282.757 16.1204 0 -140.708
874.363 16.1489 0 -158.928
892.404 16.1329 0 -159.95
285.756 16.0869 0 -140.881
578.152 16.4435 0 -152.341
883.383 16.1412 0 -159.441
590.169 16.3999 0 -153.024
584.16 16.422 0 -152.683
282.757 16.1204 0 -140.708
276.758 16.1858 0 -140.361
856.324 16.1623 0 -157.897
874.363 16.1489 0 -158.928
279.758 16.1534 0 -140.535
566.135 16.4846 0 -151.651
865.343 16.1559 0 -158.414
578.152 16.4435 0 -152.341
572.143 16.4644 0 -151.997
276.758 16.1858 0 -140.361
270.76 16.2491 0 -140.011
838.286 16.1731 0 -156.856
856.324 16.1623 0 -157.897
273.759 16.2177 0 -140.186
554.119 16.5234 0 -150.956
847.305 16.168 0 -157.378
566.135 16.4846 0 -151.651
560.127 16.5043 0 -151.305
270.76 16.2491 0 -140.011
264.762 16.3103 0 -139.657
820.25 16.1813 0 -155.807
838.286 16.1731 0 -156.856
267.761 16.28 0 -139.834
542.104 16.5598 0 -150.255
829.268 16.1775 0 -156.333
554.119 16.5234 0 -150.956
548.112 16.5419 0 -150.606
264.762 16.3103 0 -139.657
258.764 16.3693 0 -139.301
802.215 16.1869 0 -154.749
820.25 16.1813 0 -155.807
261.763 16.3401 0 -139.48
530.09 16.5937 0 -149.548
811.233 16.1844 0 -155.279
542.104 16.5598 0 -150.255
536.097 16.577 0 -149.902
258.764 16.3693 0 -139.301
252.766 16.4263 0 -138.943
784.182 16.19 0 -153.682
802.215 16.1869 0 -154.749
255.765 16.3981 0 -139.122
518.077 16.6254 0 -148.835
793.199 16.1887 0 -154.217
530.09 16.5937 0 -149.548
524.083 16.6098 0 -149.192
252.766 16.4263 0 -138.943
246.769 16.4811 0 -138.581
766.15 16.1905 0 -152.607
784.182 16.19 0 -153.682
249.767 16.454 0 -138.762
506.064 16.6546 0 -148.116
775.166 16.1905 0 -153.146
518.077 16.6254 0 -148.835
512.07 16.6403 0 -148.476
246.769 16.4811 0 -138.581
240.771 16.5339 0 -138.217
748.12 16.1885 0 -151.524
766.15 16.1905 0 -152.607
243.77 16.5078 0 -138.399
494.052 16.6815 0 -147.393
757.135 16.1898 0 -152.067
506.064 16.6546 0 -148.116
500.058 16.6684 0 -147.755
240.771 16.5339 0 -138.217
234.774 16.5845 0 -137.85
730.09 16.184 0 -150.433
748.12 16.1885 0 -151.524
237.773 16.5595 0 -138.034
482.041 16.7061 0 -146.664
739.105 16.1866 0 -150.979
494.052 16.6815 0 -147.393
488.046 16.6941 0 -147.029
234.774 16.5845 0 -137.85
228.777 16.6331 0 -137.481
712.062 16.1771 0 -149.334
730.09 16.184 0 -150.433
231.775 16.6091 0 -137.666
470.03 16.7284 0 -145.929
721.076 16.1809 0 -149.884
482.041 16.7061 0 -146.664
476.035 16.7176 0 -146.297
228.777 16.6331 0 -137.481
222.78 16.6796 0 -137.109
694.036 16.1677 0 -148.227
712.062 16.1771 0 -149.334
225.778 16.6566 0 -137.295
458.02 16.7484 0 -145.19
703.049 16.1727 0 -148.781
470.03 16.7284 0 -145.929
464.025 16.7387 0 -145.56
222.78 16.6796 0 -137.109
216.783 16.724 0 -136.735
676.01 16.1558 0 -147.113
694.036 16.1677 0 -148.227
219.781 16.7021 0 -136.922
446.011 16.7661 0 -144.446
685.023 16.1621 0 -147.671
458.02 16.7484 0 -145.19
452.015 16.7575 0 -144.819
216.783 16.724 0 -136.735
210.786 16.7664 0 -136.358
657.986 16.1416 0 -145.992
676.01 16.1558 0 -147.113
213.784 16.7455 0 -136.547
434.002 16.7815 0 -143.697
666.998 16.149 0 -146.554
446.011 16.7661 0 -144.446
440.006 16.7741 0 -144.072
210.786 16.7664 0 -136.358
204.789 16.8067 0 -135.98
639.963 16.125 0 -144.864
657.986 16.1416 0 -145.992
207.788 16.7868 0 -136.169
421.994 16.7947 0 -142.944
648.975 16.1336 0 -145.429
434.002 16.7815 0 -143.697
427.998 16.7884 0 -143.321
204.789 16.8067 0 -135.98
198.793 16.845 0 -135.599
621.942 16.106 0 -143.729
639.963 16.125 0 -144.864
201.791 16.8261 0 -135.789
409.987 16.8056 0 -142.186
630.952 16.1158 0 -144.297
421.994 16.7947 0 -142.944
415.99 16.8004 0 -142.565
198.793 16.845 0 -135.599
192.796 16.8812 0 -135.216
603.921 16.0847 0 -142.588
621.942 16.106 0 -143.729
195.794 16.8634 0 -135.407
397.98 16.8143 0 -141.424
612.931 16.0956 0 -143.159
409.987 16.8056 0 -142.186
403.983 16.8102 0 -141.805
192.796 16.8812 0 -135.216
186.8 16.9154 0 -134.83
585.902 16.061 0 -141.44
603.921 16.0847 0 -142.588
189.798 16.8986 0 -135.023
385.973 16.8208 0 -140.657
594.911 16.0731 0 -142.014
397.98 16.8143 0 -141.424
391.977 16.8178 0 -141.041
186.8 16.9154 0 -134.83
180.803 16.9476 0 -134.443
567.883 16.0351 0 -140.286
585.902 16.061 0 -141.44
183.802 16.9317 0 -134.637
373.968 16.825 0 -139.886
576.892 16.0483 0 -140.863
385.973 16.8208 0 -140.657
379.97 16.8232 0 -140.272
180.803 16.9476 0 -134.443
174.807 16.9777 0 -134.054
549.866 16.0068 0 -139.125
567.883 16.0351 0 -140.286
177.805 16.9629 0 -134.249
361.962 16.8271 0 -139.112
558.875 16.0212 0 -139.706
373.968 16.825 0 -139.886
367.965 16.8264 0 -139.499
174.807 16.9777 0 -134.054
168.811 17.0058 0 -133.663
531.85 15.9763 0 -137.959
549.866 16.0068 0 -139.125
171.809 16.992 0 -133.859
349.958 16.827 0 -138.333
540.858 15.9919 0 -138.543
361.962 16.8271 0 -139.112
355.96 16.8274 0 -138.723
168.811 17.0058 0 -133.663
162.815 17.0319 0 -133.271
513.835 15.9436 0 -136.788
531.85 15.9763 0 -137.959
165.813 17.0191 0 -133.467
337.953 16.8248 0 -137.551
522.842 15.9602 0 -137.374
349.958 16.827 0 -138.333
343.955 16.8262 0 -137.942
162.815 17.0319 0 -133.271
156.819 17.0559 0 -132.876
495.821 15.9086 0 -135.611
513.835 15.9436 0 -136.788
159.817 17.0441 0 -133.074
325.95 16.8203 0 -136.765
504.827 15.9264 0 -136.2
337.953 16.8248 0 -137.551
331.951 16.8228 0 -137.158
156.819 17.0559 0 -132.876
150.823 17.0779 0 -132.48
477.807 15.8715 0 -134.428
495.821 15.9086 0 -135.611
153.821 17.0672 0 -132.678
313.946 16.8137 0 -135.976
486.814 15.8903 0 -135.02
325.95 16.8203 0 -136.765
319.948 16.8173 0 -136.371
150.823 17.0779 0 -132.48
144.827 17.0979 0 -132.082
459.795 15.8321 0 -133.241
477.807 15.8715 0 -134.428
147.825 17.0882 0 -132.281
301.943 16.805 0 -135.183
468.801 15.8521 0 -133.835
313.946 16.8137 0 -135.976
307.945 16.8097 0 -135.58
144.827 17.0979 0 -132.082
138.831 17.1159 0 -131.683
441.784 15.7906 0 -132.049
459.795 15.8321 0 -133.241
141.829 17.1072 0 -131.883
289.941 16.7942 0 -134.388
450.789 15.8117 0 -132.646
301.943 16.805 0 -135.183
295.942 16.7999 0 -134.786
138.831 17.1159 0 -131.683
132.835 17.1319 0 -131.282
423.774 15.747 0 -130.852
441.784 15.7906 0 -132.049
135.833 17.1241 0 -131.483
277.939 16.7812 0 -133.589
432.779 15.7691 0 -131.451
289.941 16.7942 0 -134.388
283.94 16.7879 0 -133.989
132.835 17.1319 0 -131.282
126.84 17.1459 0 -130.88
405.764 15.7012 0 -129.651
423.774 15.747 0 -130.852
129.837 17.1391 0 -131.081
265.938 16.7661 0 -132.787
414.769 15.7244 0 -130.252
277.939 16.7812 0 -133.589
271.939 16.7739 0 -133.188
126.84 17.1459 0 -130.88
120.844 17.158 0 -130.476
387.756 15.6534 0 -128.446
405.764 15.7012 0 -129.651
123.842 17.1522 0 -130.678
253.937 16.7491 0 -131.983
396.76 15.6776 0 -129.049
265.938 16.7661 0 -132.787
259.938 16.7579 0 -132.385
120.844 17.158 0 -130.476
114.849 17.1684 0 -130.072
369.748 15.6036 0 -127.237
387.756 15.6534 0 -128.446
117.847 17.1634 0 -130.274
241.937 16.7301 0 -131.176
378.752 15.6288 0 -127.842
253.937 16.7491 0 -131.983
247.937 16.7399 0 -131.58
114.849 17.1684 0 -130.072
108.855 17.1772 0 -129.665
351.742 15.552 0 -126.023
369.748 15.6036 0 -127.237
111.852 17.173 0 -129.869
229.938 16.7095 0 -130.366
360.745 15.5781 0 -126.63
241.937 16.7301 0 -131.176
235.938 16.72 0 -130.771
108.855 17.1772 0 -129.665
102.86 17.185 0 -129.257
333.737 15.4989 0 -124.806
351.742 15.552 0 -126.023
105.857 17.1812 0 -129.461
217.939 16.6875 0 -129.553
342.74 15.5256 0 -125.415
229.938 16.7095 0 -130.366
223.938 16.6986 0 -129.96
102.86 17.185 0 -129.257
96.8653 17.1922 0 -128.848
315.734 15.4447 0 -123.584
333.737 15.4989 0 -124.806
99.8627 17.1886 0 -129.053
205.941 16.6648 0 -128.737
324.735 15.4719 0 -124.196
217.939 16.6875 0 -129.553
211.94 16.6762 0 -129.145
96.8653 17.1922 0 -128.848
90.8703 17.2002 0 -128.437
297.731 15.3905 0 -122.358
315.734 15.4447 0 -123.584
93.8679 17.196 0 -128.642
193.944 16.6426 0 -127.918
306.732 15.4175 0 -122.972
205.941 16.6648 0 -128.737
199.942 16.6535 0 -128.328
90.8703 17.2002 0 -128.437
84.8736 17.2106 0 -128.024
279.73 15.3382 0 -121.126
297.731 15.3905 0 -122.358
87.8723 17.2049 0 -128.23
181.946 16.6231 0 -127.095
288.731 15.3639 0 -121.743
193.944 16.6426 0 -127.918
187.945 16.6323 0 -127.507
84.8736 17.2106 0 -128.024
78.8734 17.2271 0 -127.611
261.729 15.2912 0 -119.887
279.73 15.3382 0 -121.126
81.874 17.2178 0 -127.817
169.945 16.6103 0 -126.268
270.73 15.3137 0 -120.507
181.946 16.6231 0 -127.095
175.946 16.6155 0 -126.682
78.8734 17.2271 0 -127.611
72.8638 17.2547 0 -127.201
243.724 15.2567 0 -118.637
261.729 15.2912 0 -119.887
75.8704 17.239 0 -127.405
157.937 16.6114 0 -125.437
252.727 15.2717 0 -119.263
169.945 16.6103 0 -126.268
163.942 16.6084 0 -125.853
72.8638 17.2547 0 -127.201
66.8382 17.3042 0 -126.8
225.706 15.2465 0 -117.373
243.724 15.2567 0 -118.637
69.8531 17.2758 0 -126.999
145.91 16.6398 0 -124.604
234.718 15.2475 0 -118.007
157.937 16.6114 0 -125.437
151.927 16.6211 0 -125.02
66.8382 17.3042 0 -126.8
60.7742 17.3895 0 -126.424
207.662 15.2844 0 -116.086
225.706 15.2465 0 -117.373
63.8135 17.3411 0 -126.608
133.844 16.7175 0 -123.772
216.688 15.2573 0 -116.733
145.91 16.6398 0 -124.604
139.884 16.6702 0 -124.187
60.7742 17.3895 0 -126.424
54.6512 17.5411 0 -126.101
189.544 15.4043 0 -114.766
207.662 15.2844 0 -116.086
57.7203 17.4546 0 -126.254
121.697 16.8835 0 -122.951
198.617 15.3309 0 -115.431
133.844 16.7175 0 -123.772
127.784 16.7866 0 -123.358
54.6512 17.5411 0 -126.101
48.3939 17.7894 0 -125.885
171.304 15.675 0 -113.394
189.544 15.4043 0 -114.766
51.5481 17.6502 0 -125.975
109.396 17.1929 0 -122.164
180.441 15.5154 0 -114.089
121.697 16.8835 0 -122.951
115.571 17.0144 0 -122.553
48.3939 17.7894 0 -125.885
41.9537 18.2087 0 -125.861
152.772 16.1674 0 -111.96
171.304 15.675 0 -113.394
45.1946 17.9732 0 -125.841
96.8086 17.7359 0 -121.451
162.094 15.8864 0 -112.685
109.396 17.1929 0 -122.164
103.15 17.4311 0 -121.791
41.9537 18.2087 0 -125.861
35.1161 18.8217 0 -126.17
133.81 17.0322 0 -110.432
152.772 16.1674 0 -111.96
38.6122 18.4875 0 -125.962
83.7287 18.5906 0 -120.89
143.344 16.546 0 -111.211
96.8086 17.7359 0 -121.451
90.3423 18.1139 0 -121.153
35.1161 18.8217 0 -126.17
27.8476 19.7406 0 -126.985
113.904 18.2891 0 -108.864
133.81 17.0322 0 -110.432
31.5167 19.2452 0 -126.501
69.8401 19.8482 0 -120.602
124.037 17.6064 0 -109.645
83.7287 18.5906 0 -120.89
76.9185 19.181 0 -120.685
27.8476 19.7406 0 -126.985
19.6965 20.7094 0 -128.502
92.8571 20.0582 0 -107.297
113.904 18.2891 0 -108.864
23.9537 20.2342 0 -127.645
54.7914 21.298 0 -120.781
103.497 19.1337 0 -108.077
69.8401 19.8482 0 -120.602
62.4669 20.5552 0 -120.649
19.6965 20.7094 0 -128.502
11.12 21.5575 0 -130.671
69.5262 21.5042 0 -106.215
92.8571 20.0582 0 -107.297
15.3522 21.2165 0 -129.518
38.2481 22.4001 0 -121.649
81.6377 20.8769 0 -106.642
54.7914 21.298 0 -120.781
46.7684 22.0218 0 -121.053
11.12 21.5575 0 -130.671
1.76686 20.4275 0 -132.928
44.6598 21.5226 0 -106.125
69.5262 21.5042 0 -106.215
6.6764 21.355 0 -131.862
20.7102 20.9436 0 -123.314
57.0899 21.9503 0 -105.997
38.2481 22.4001 0 -121.649
29.4662 22.1252 0 -122.494
1.76686 20.4275 0 -132.928
-5.59893 15.7995 0 -132.938
17.8055 14.1559 0 -108.634
44.6598 21.5226 0 -106.125
-2.59358 18.8038 0 -133.434
3.90114 13.4224 0 -124.857
31.7121 19.1963 0 -106.932
20.7102 20.9436 0 -123.314
12.2099 18.4452 0 -124.023
-5.59893 15.7995 0 -132.938
-11.1776 3.02992 0 -126.103
-2.67012 -9.34316 0 -112.023
17.8055 14.1559 0 -108.634
-8.28878 10.3614 0 -130.805
-6.5662 -6.70111 0 -121.827
5.71256 5.77052 0 -110.469
3.90114 13.4224 0 -124.857
-2.95242 4.94314 0 -124.768
-11.1776 3.02992 0 -126.103
-8.94537 -13.3585 0 -104.359
-13.3869 -70.155 0 -106.783
-2.67012 -9.34316 0 -112.023
-11.9916 -4.85157 0 -117.578
-9.62634 -40.8009 0 -103.77
-9.11385 -35.1455 0 -111.965
-6.5662 -6.70111 0 -121.827
-8.26582 -21.7772 0 -114.885
-8.94537 -13.3585 0 -104.359
0.106353 -36.625 0 -61.8367
-9.06637 -146.213 0 -64.0651
-13.3869 -70.155 0 -106.783
-4.26853 -23.8053 0 -85.9955
-7.89924 -87.1139 0 -65.771
-14.2185 -110.316 0 -91.7962
-9.62634 -40.8009 0 -103.77
-9.96317 -63.3398 0 -87.871
3197.47 956.681 0 291.691
3475.89 601.055 0 -14.4023
5905.61 634.923 0 -336.177
5575.45 1664.35 0 -230.036
3386.38 765.986 0 107.001
4614.18 695.922 0 -141.461
5792.97 1197.53 0 -386.451
4554.34 1360.68 0 40.7445
4507.7 967.913 0 -48.2641
3475.89 601.055 0 -14.4023
3543.29 258.426 0 -111.481
5996.82 186.066 0 -168.534
5905.61 634.923 0 -336.177
3505.99 417.219 0 -76.4917
4781.34 268.765 0 -167.7
5990.79 325.285 0 -247.18
4614.18 695.922 0 -141.461
4742.52 466.543 0 -185.488
3543.29 258.426 0 -111.481
3578.15 84.6243 0 -132.232
5922.22 28.8662 0 -73.3088
5996.82 186.066 0 -168.534
3576.14 154.159 0 -129.366
4771.54 72.3693 0 -118.607
5952.13 88.855 0 -105.611
4781.34 268.765 0 -167.7
4780.01 142.391 0 -136.111
3578.15 84.6243 0 -132.232
3551.57 3.51133 0 -125.115
5870.18 -6.07659 0 -54.2714
5922.22 28.8662 0 -73.3088
3563.66 34.4799 0 -128.151
4726.53 -3.65061 0 -95.6116
5899.21 3.67403 0 -59.995
4771.54 72.3693 0 -118.607
4752.35 26.0038 0 -106.156
3551.57 3.51133 0 -125.115
3519.88 -20.6054 0 -120.79
5817.91 -19.1546 0 -56.463
5870.18 -6.07659 0 -54.2714
3538.43 -12.4513 0 -122.988
4677.6 -22.6198 0 -90.1323
5839.85 -14.5189 0 -53.1534
4726.53 -3.65061 0 -95.6116
4700.03 -18.019 0 -90.1959
3519.88 -20.6054 0 -120.79
3483.02 -26.7051 0 -118.547
5781.65 -17.2101 0 -67.3129
5817.91 -19.1546 0 -56.463
3499.7 -25.3753 0 -119.004
4636.69 -25.2714 0 -93.3874
5800.33 -18.8642 0 -62.0536
4677.6 -22.6198 0 -90.1323
4656.72 -24.689 0 -91.7144
3483.02 -26.7051 0 -118.547
3453.16 -23.9678 0 -119.289
5746.72 -14.9828 0 -77.1421
5781.65 -17.2101 0 -67.3129
3468.13 -25.695 0 -118.848
4601.6 -21.4999 0 -98.9478
5763.1 -16.1839 0 -72.2208
4636.69 -25.2714 0 -93.3874
4618.22 -23.8932 0 -95.8381
3453.16 -23.9678 0 -119.289
3426.19 -20.4072 0 -120.828
5715.7 -11.8388 0 -85.8873
5746.72 -14.9828 0 -77.1421
3438.84 -22.2669 0 -119.903
4571.19 -17.6137 0 -104.588
5731.38 -13.3243 0 -81.8455
4601.6 -21.4999 0 -98.9478
4586.06 -19.3937 0 -101.948
3426.19 -20.4072 0 -120.828
3403.27 -16.9123 0 -122.989
5684.76 -9.80217 0 -92.6494
5715.7 -11.8388 0 -85.8873
3414.57 -18.5281 0 -121.911
4543.49 -14.2761 0 -109.55
5700 -10.7417 0 -89.4218
4571.19 -17.6137 0 -104.588
4557.04 -15.872 0 -107.118
3403.27 -16.9123 0 -122.989
3382.14 -14.473 0 -125.206
5654.53 -8.25475 0 -98.2431
5684.76 -9.80217 0 -92.6494
3392.41 -15.5982 0 -124.078
4517.45 -12.0111 0 -113.783
5669.7 -8.94378 0 -95.6046
4543.49 -14.2761 0 -109.55
4530.34 -13.007 0 -111.774
3382.14 -14.473 0 -125.206
3362.5 -12.7371 0 -127.459
5624.19 -7.28976 0 -102.883
5654.53 -8.25475 0 -98.2431
3372.24 -13.5104 0 -126.344
4492.28 -10.4677 0 -117.455
5639.32 -7.72621 0 -100.643
4517.45 -12.0111 0 -113.783
4504.78 -11.1687 0 -115.669
3362.5 -12.7371 0 -127.459
3343.51 -11.6051 0 -129.647
5593.93 -6.6182 0 -106.993
5624.19 -7.28976 0 -102.883
3352.92 -12.118 0 -128.557
4467.59 -9.47133 0 -120.728
5609.08 -6.91892 0 -104.998
4492.28 -10.4677 0 -117.455
4479.9 -9.9124 0 -119.137
3343.51 -11.6051 0 -129.647
3324.97 -10.8159 0 -131.782
5563.58 -6.15963 0 -110.737
5593.93 -6.6182 0 -106.993
3334.22 -11.1729 0 -130.724
4443.12 -8.78976 0 -123.742
5578.75 -6.37189 0 -108.897
4467.59 -9.47133 0 -120.728
4455.33 -9.10151 0 -122.259
3324.97 -10.8159 0 -131.782
3306.6 -10.2512 0 -133.854
5533.22 -5.80621 0 -114.269
5563.58 -6.15963 0 -110.737
3315.76 -10.5142 0 -132.824
4418.76 -8.30127 0 -126.581
5548.41 -5.97198 0 -112.525
4443.12 -8.78976 0 -123.742
4430.93 -8.52703 0 -125.18
3306.6 -10.2512 0 -133.854
3288.34 -9.80395 0 -135.873
5502.83 -5.51533 0 -117.654
5533.22 -5.80621 0 -114.269
3297.47 -10.0158 0 -134.87
4394.43 -7.91431 0 -129.303
5518.03 -5.65592 0 -115.976
4418.76 -8.30127 0 -126.581
4406.59 -8.09884 0 -127.954
3288.34 -9.80395 0 -135.873
3270.12 -9.42462 0 -137.842
5472.41 -5.25302 0 -120.938
5502.83 -5.51533 0 -117.654
3279.23 -9.6086 0 -136.863
4370.13 -7.58253 0 -131.939
5487.62 -5.38148 0 -119.307
4394.43 -7.91431 0 -129.303
4382.28 -7.74346 0 -130.631
3270.12 -9.42462 0 -137.842
3251.92 -9.07874 0 -139.766
5441.98 -5.00508 0 -124.14
5472.41 -5.25302 0 -120.938
3261.02 -9.2485 0 -138.809
4345.82 -7.27739 0 -134.506
5457.2 -5.12805 0 -122.548
4370.13 -7.58253 0 -131.939
4357.97 -7.42772 0 -133.23
3251.92 -9.07874 0 -139.766
3233.72 -8.75077 0 -141.647
5411.54 -4.76242 0 -127.274
5441.98 -5.00508 0 -124.14
3242.82 -8.91329 0 -140.712
4321.51 -6.98519 0 -137.016
5426.76 -4.88334 0 -125.715
4345.82 -7.27739 0 -134.506
4333.67 -7.1302 0 -135.768
3233.72 -8.75077 0 -141.647
3215.52 -8.43132 0 -143.49
5381.1 -4.52137 0 -130.344
5411.54 -4.76242 0 -127.274
3224.62 -8.59026 0 -142.573
4297.2 -6.69852 0 -139.472
5396.32 -4.64188 0 -128.816
4321.51 -6.98519 0 -137.016
4309.36 -6.84144 0 -138.25
3215.52 -8.43132 0 -143.49
3197.32 -8.11631 0 -145.294
5350.65 -4.27992 0 -133.353
5381.1 -4.52137 0 -130.344
3206.42 -8.27345 0 -144.397
4272.89 -6.41402 0 -141.879
5365.87 -4.40074 0 -131.856
4297.2 -6.69852 0 -139.472
4285.04 -6.55612 0 -140.682
3197.32 -8.11631 0 -145.294
3179.12 -7.80346 0 -147.062
5320.19 -4.03737 0 -136.303
5350.65 -4.27992 0 -133.353
3188.22 -7.95968 0 -146.182
4248.57 -6.13007 0 -144.238
5335.42 -4.15881 0 -134.835
4272.89 -6.41402 0 -141.879
4260.73 -6.27203 0 -143.064
3179.12 -7.80346 0 -147.062
3160.92 -7.49182 0 -148.794
5289.74 -3.79343 0 -139.195
5320.19 -4.03737 0 -136.303
3170.02 -7.64753 0 -147.932
4224.25 -5.84603 0 -146.549
5304.96 -3.91558 0 -137.756
4248.57 -6.13007 0 -144.238
4236.41 -5.98809 0 -145.399
3160.92 -7.49182 0 -148.794
3142.72 -7.18089 0 -150.49
5259.28 -3.54807 0 -142.03
5289.74 -3.79343 0 -139.195
3151.82 -7.33628 0 -149.646
4199.92 -5.56162 0 -148.814
5274.51 -3.67093 0 -140.619
4224.25 -5.84603 0 -146.549
4212.09 -5.70388 0 -147.687
3142.72 -7.18089 0 -150.49
3124.51 -6.87046 0 -152.153
5228.82 -3.30134 0 -144.807
5259.28 -3.54807 0 -142.03
3133.62 -7.02562 0 -151.326
4175.6 -5.27678 0 -151.034
5244.05 -3.42487 0 -143.426
4199.92 -5.56162 0 -148.814
4187.76 -5.41925 0 -149.93
3124.51 -6.87046 0 -152.153
3106.31 -6.56044 0 -153.781
5198.36 -3.05333 0 -147.528
5228.82 -3.30134 0 -144.807
3115.41 -6.7154 0 -152.971
4151.27 -4.99151 0 -153.208
5213.59 -3.17749 0 -146.175
4175.6 -5.27678 0 -151.034
4163.44 -5.13419 0 -152.126
3106.31 -6.56044 0 -153.781
3088.1 -6.25079 0 -155.375
5167.89 -2.80414 0 -150.193
5198.36 -3.05333 0 -147.528
3097.2 -6.40556 0 -154.582
4126.95 -4.70586 0 -155.337
5183.13 -2.92887 0 -148.868
4151.27 -4.99151 0 -153.208
4139.11 -4.84873 0 -154.278
3088.1 -6.25079 0 -155.375
3069.89 -5.94152 0 -156.935
5137.43 -2.55389 0 -152.802
5167.89 -2.80414 0 -150.193
3079 -6.0961 0 -156.159
4102.62 -4.41991 0 -157.421
5152.66 -2.67914 0 -151.505
4126.95 -4.70586 0 -155.337
4114.78 -4.56292 0 -156.384
3069.89 -5.94152 0 -156.935
3051.68 -5.63267 0 -158.463
5106.97 -2.3027 0 -155.356
5137.43 -2.55389 0 -152.802
3060.79 -5.78704 0 -157.703
4078.29 -4.13371 0 -159.461
5122.2 -2.42841 0 -154.086
4102.62 -4.41991 0 -157.421
4090.46 -4.27683 0 -158.446
3051.68 -5.63267 0 -158.463
3033.47 -5.32427 0 -159.957
5076.5 -2.05068 0 -157.854
5106.97 -2.3027 0 -155.356
3042.58 -5.47841 0 -159.214
4053.96 -3.84737 0 -161.457
5091.74 -2.17679 0 -156.612
4078.29 -4.13371 0 -159.461
4066.13 -3.99056 0 -160.464
3033.47 -5.32427 0 -159.957
3015.26 -5.0164 0 -161.418
5046.04 -1.79795 0 -160.298
5076.5 -2.05068 0 -157.854
3024.37 -5.17027 0 -160.692
4029.64 -3.56097 0 -163.409
5061.27 -1.9244 0 -159.083
4053.96 -3.84737 0 -161.457
4041.8 -3.70417 0 -162.438
3015.26 -5.0164 0 -161.418
2997.05 -4.7091 0 -162.847
5015.58 -1.54462 0 -162.687
5046.04 -1.79795 0 -160.298
3006.16 -4.86267 0 -162.137
4005.31 -3.27459 0 -165.317
5030.81 -1.67135 0 -161.499
4029.64 -3.56097 0 -163.409
4017.47 -3.41777 0 -164.368
2997.05 -4.7091 0 -162.847
2978.84 -4.40245 0 -164.243
4985.11 -1.29081 0 -165.022
5015.58 -1.54462 0 -162.687
2987.95 -4.55569 0 -163.549
3980.98 -2.98833 0 -167.182
5000.34 -1.41777 0 -163.862
4005.31 -3.27459 0 -165.317
3993.14 -3.13144 0 -166.255
2978.84 -4.40245 0 -164.243
2960.63 -4.09651 0 -165.607
4954.65 -1.03664 0 -167.304
4985.11 -1.29081 0 -165.022
2969.73 -4.24939 0 -164.929
3956.65 -2.70228 0 -169.005
4969.88 -1.16376 0 -166.17
3980.98 -2.98833 0 -167.182
3968.81 -2.84527 0 -168.099
2960.63 -4.09651 0 -165.607
2942.42 -3.79135 0 -166.939
4924.18 -0.782207 0 -169.531
4954.65 -1.03664 0 -167.304
2951.52 -3.94383 0 -166.277
3932.31 -2.41653 0 -170.784
4939.42 -0.909446 0 -168.424
3956.65 -2.70228 0 -169.005
3944.48 -2.55936 0 -169.9
2942.42 -3.79135 0 -166.939
2924.2 -3.48703 0 -168.239
4893.72 -0.527638 0 -171.706
4924.18 -0.782207 0 -169.531
2933.31 -3.63908 0 -167.593
3907.98 -2.13117 0 -172.521
4908.95 -0.654933 0 -170.625
3932.31 -2.41653 0 -170.784
3920.15 -2.2738 0 -171.658
2924.2 -3.48703 0 -168.239
2905.99 -3.18363 0 -169.507
4863.26 -0.273035 0 -173.828
4893.72 -0.527638 0 -171.706
2915.1 -3.33521 0 -168.877
3883.65 -1.84629 0 -174.215
4878.49 -0.400333 0 -172.774
3907.98 -2.13117 0 -172.521
3895.82 -1.98866 0 -173.373
2905.99 -3.18363 0 -169.507
2887.78 -2.88121 0 -170.744
4832.79 -0.018506 0 -175.897
4863.26 -0.273035 0 -173.828
2896.89 -3.0323 0 -170.129
3859.32 -1.56197 0 -175.868
4848.02 -0.145754 0 -174.869
3883.65 -1.84629 0 -174.215
3871.49 -1.70405 0 -175.047
2887.78 -2.88121 0 -170.744
2869.57 -2.57984 0 -171.949
4802.33 0.235843 0 -177.914
4832.79 -0.018506 0 -175.897
2878.67 -2.73039 0 -171.35
3834.99 -1.2783 0 -177.479
4817.56 0.108698 0 -176.912
3859.32 -1.56197 0 -175.868
3847.16 -1.42005 0 -176.679
2869.57 -2.57984 0 -171.949
2851.35 -2.27956 0 -173.123
4771.87 0.489911 0 -179.88
4802.33 0.235843 0 -177.914
2860.46 -2.42956 0 -172.54
3810.66 -0.995361 0 -179.048
4787.1 0.362919 0 -178.903
3834.99 -1.2783 0 -177.479
3822.83 -1.13673 0 -178.269
2851.35 -2.27956 0 -173.123
2833.14 -1.98046 0 -174.267
4741.41 0.743594 0 -181.794
4771.87 0.489911 0 -179.88
2842.25 -2.12986 0 -173.699
3786.34 -0.713235 0 -180.576
4756.64 0.616807 0 -180.843
3810.66 -0.995361 0 -179.048
3798.5 -0.854191 0 -179.817
2833.14 -1.98046 0 -174.267
2814.93 -1.68259 0 -175.38
4710.95 0.996795 0 -183.656
4741.41 0.743594 0 -181.794
2824.03 -1.83137 0 -174.827
3762.01 -0.432001 0 -182.064
4726.18 0.870261 0 -182.731
3786.34 -0.713235 0 -180.576
3774.17 -0.572502 0 -181.325
2814.93 -1.68259 0 -175.38
2796.72 -1.386 0 -176.462
4680.49 1.24942 0 -185.468
4710.95 0.996795 0 -183.656
2805.82 -1.53413 0 -175.924
3737.68 -0.151738 0 -183.51
4695.72 1.12318 0 -184.568
3762.01 -0.432001 0 -182.064
3749.84 -0.291743 0 -182.792
2796.72 -1.386 0 -176.462
2778.5 -1.09076 0 -177.514
4650.03 1.50136 0 -187.229
4680.49 1.24942 0 -185.468
2787.61 -1.23821 0 -176.991
3713.35 0.127479 0 -184.916
4665.26 1.37548 0 -186.355
3737.68 -0.151738 0 -183.51
3725.51 -0.0119938 0 -184.218
2778.5 -1.09076 0 -177.514
2760.29 -0.796916 0 -178.535
4619.58 1.75254 0 -188.94
4650.03 1.50136 0 -187.229
2769.4 -0.943659 0 -178.028
3689.02 0.405575 0 -186.282
4634.8 1.62705 0 -188.091
3713.35 0.127479 0 -184.916
3701.19 0.266672 0 -185.604
2760.29 -0.796916 0 -178.535
2742.08 -0.504528 0 -179.527
4589.12 2.00286 0 -190.602
4619.58 1.75254 0 -188.94
2751.19 -0.650537 0 -179.035
3664.7 0.682476 0 -187.609
4604.35 1.87781 0 -189.777
3689.02 0.405575 0 -186.282
3676.86 0.544179 0 -186.951
2742.08 -0.504528 0 -179.527
2723.87 -0.21365 0 -180.489
4558.67 2.25222 0 -192.213
4589.12 2.00286 0 -190.602
2732.98 -0.358897 0 -180.012
3640.37 0.95811 0 -188.895
4573.89 2.12766 0 -191.414
3664.7 0.682476 0 -187.609
3652.54 0.820455 0 -188.257
2723.87 -0.21365 0 -180.489
2705.66 0.0756654 0 -181.422
4528.21 2.50055 0 -193.776
4558.67 2.25222 0 -192.213
2714.77 -0.068794 0 -180.959
3616.05 1.23241 0 -190.143
4543.44 2.37652 0 -193.001
3640.37 0.95811 0 -188.895
3628.21 1.09543 0 -189.524
2705.66 0.0756654 0 -181.422
2687.45 0.363367 0 -182.325
4497.76 2.74776 0 -195.29
4528.21 2.50055 0 -193.776
2696.56 0.219721 0 -181.877
3591.73 1.5053 0 -191.351
4512.99 2.6243 0 -194.539
3616.05 1.23241 0 -190.143
3603.89 1.36903 0 -190.751
2687.45 0.363367 0 -182.325
2669.24 0.649405 0 -183.2
4467.32 2.99375 0 -196.755
4497.76 2.74776 0 -195.29
2678.35 0.506597 0 -182.766
3567.4 1.77672 0 -192.52
4482.54 2.87091 0 -196.028
3591.73 1.5053 0 -191.351
3579.57 1.6412 0 -191.94
2669.24 0.649405 0 -183.2
2651.03 0.933728 0 -184.045
4436.87 3.23845 0 -198.172
4467.32 2.99375 0 -196.755
2660.14 0.791784 0 -183.626
3543.08 2.04659 0 -193.651
4452.09 3.11627 0 -197.47
3567.4 1.77672 0 -192.52
3555.24 1.91185 0 -193.09
2651.03 0.933728 0 -184.045
2632.83 1.21629 0 -184.862
4406.42 3.48178 0 -199.541
4436.87 3.23845 0 -198.172
2641.93 1.07523 0 -184.457
3518.76 2.31487 0 -194.744
4421.65 3.3603 0 -198.863
3543.08 2.04659 0 -193.651
3530.92 2.18094 0 -194.202
2632.83 1.21629 0 -184.862
2614.62 1.49704 0 -185.65
4375.98 3.72366 0 -200.863
4406.42 3.48178 0 -199.541
2623.72 1.35689 0 -185.259
3494.45 2.58147 0 -195.798
4391.2 3.60291 0 -200.208
3518.76 2.31487 0 -194.744
3506.61 2.44838 0 -195.276
2614.62 1.49704 0 -185.65
2596.41 1.77593 0 -186.41
4345.54 3.96401 0 -202.138
4375.98 3.72366 0 -200.863
2605.52 1.63672 0 -186.033
3470.13 2.84635 0 -196.815
4360.76 3.84403 0 -201.506
3494.45 2.58147 0 -195.798
3482.29 2.71413 0 -196.311
2596.41 1.77593 0 -186.41
2578.21 2.05293 0 -187.141
4315.1 4.20276 0 -203.365
4345.54 3.96401 0 -202.138
2587.31 1.91467 0 -186.779
3445.82 3.10943 0 -197.794
4330.32 4.08359 0 -202.757
3470.13 2.84635 0 -196.815
3457.97 2.97812 0 -197.309
2578.21 2.05293 0 -187.141
2560 2.32797 0 -187.845
4284.66 4.43982 0 -204.546
4315.1 4.20276 0 -203.365
2569.11 2.19069 0 -187.497
3421.5 3.37067 0 -198.736
4299.88 4.3215 0 -203.962
3445.82 3.10943 0 -197.794
3433.66 3.24029 0 -198.27
2560 2.32797 0 -187.845
2541.8 2.60103 0 -188.521
4254.23 4.67513 0 -205.681
4284.66 4.43982 0 -204.546
2550.9 2.46475 0 -188.187
3397.19 3.63 0 -199.642
4269.45 4.5577 0 -205.12
3421.5 3.37067 0 -198.736
3409.35 3.50058 0 -199.194
2541.8 2.60103 0 -188.521
2523.6 2.87205 0 -189.17
4223.8 4.90862 0 -206.77
4254.23 4.67513 0 -205.681
2532.7 2.7368 0 -188.849
3372.88 3.88736 0 -200.51
4239.01 4.79211 0 -206.232
3397.19 3.63 0 -199.642
3385.03 3.75893 0 -200.081
2523.6 2.87205 0 -189.17
2505.4 3.141 0 -189.791
4193.37 5.14022 0 -207.814
4223.8 4.90862 0 -206.77
2514.5 3.00679 0 -189.484
3348.57 4.14271 0 -201.342
4208.58 5.02466 0 -207.298
3372.88 3.88736 0 -200.51
3360.72 4.01529 0 -200.931
2505.4 3.141 0 -189.791
2487.2 3.40784 0 -190.386
4162.94 5.36985 0 -208.812
4193.37 5.14022 0 -207.814
2496.3 3.27468 0 -190.092
3324.26 4.39598 0 -202.138
4178.15 5.25528 0 -208.319
3348.57 4.14271 0 -201.342
3336.42 4.2696 0 -201.745
2487.2 3.40784 0 -190.386
2469 3.67252 0 -190.953
4132.52 5.59747 0 -209.766
4162.94 5.36985 0 -208.812
2478.1 3.54045 0 -190.673
3299.96 4.64712 0 -202.899
4147.73 5.48392 0 -209.295
3324.26 4.39598 0 -202.138
3312.11 4.52182 0 -202.523
2469 3.67252 0 -190.953
2450.8 3.93501 0 -191.493
4102.09 5.82299 0 -210.675
4132.52 5.59747 0 -209.766
2459.9 3.80404 0 -191.226
3275.65 4.89609 0 -203.623
4117.3 5.71049 0 -210.226
3299.96 4.64712 0 -202.899
3287.81 4.77188 0 -203.265
2450.8 3.93501 0 -191.493
2432.6 4.19527 0 -192.008
4071.67 6.04636 0 -211.54
4102.09 5.82299 0 -210.675
2441.7 4.06542 0 -191.754
3251.35 5.14282 0 -204.312
4086.88 5.93494 0 -211.113
3275.65 4.89609 0 -203.623
3263.5 5.01974 0 -203.972
2432.6 4.19527 0 -192.008
2414.41 4.45326 0 -192.495
4041.26 6.26751 0 -212.361
4071.67 6.04636 0 -211.54
2423.51 4.32455 0 -192.255
3227.05 5.38729 0 -204.966
4056.47 6.15721 0 -211.956
3251.35 5.14282 0 -204.312
3239.2 5.26534 0 -204.644
2414.41 4.45326 0 -192.495
2396.21 4.70895 0 -192.957
4010.84 6.48639 0 -213.139
4041.26 6.26751 0 -212.361
2405.31 4.5814 0 -192.73
3202.76 5.62942 0 -205.586
4026.05 6.37724 0 -212.755
3227.05 5.38729 0 -204.966
3214.9 5.50865 0 -205.28
2396.21 4.70895 0 -192.957
2378.02 4.96231 0 -193.393
3980.43 6.70294 0 -213.873
4010.84 6.48639 0 -213.139
2387.12 4.83592 0 -193.178
3178.46 5.86919 0 -206.171
3995.64 6.59496 0 -213.511
3202.76 5.62942 0 -205.586
3190.61 5.74961 0 -205.882
2378.02 4.96231 0 -193.393
2359.83 5.21329 0 -193.803
3950.03 6.91711 0 -214.564
3980.43 6.70294 0 -213.873
2368.93 5.0881 0 -193.601
3154.17 6.10654 0 -206.721
3965.23 6.81033 0 -214.224
3178.46 5.86919 0 -206.171
3166.31 5.98817 0 -206.45
2359.83 5.21329 0 -193.803
2341.64 5.46187 0 -194.188
3919.62 7.12883 0 -215.213
3950.03 6.91711 0 -214.564
2350.74 5.33789 0 -193.999
3129.88 6.34143 0 -207.238
3934.82 7.02327 0 -214.894
3154.17 6.10654 0 -206.721
3142.02 6.2243 0 -206.984
2341.64 5.46187 0 -194.188
2323.45 5.70802 0 -194.547
3889.22 7.33805 0 -215.82
3919.62 7.12883 0 -215.213
2332.55 5.58525 0 -194.37
3105.59 6.57382 0 -207.72
3904.42 7.23375 0 -215.522
3129.88 6.34143 0 -207.238
3117.73 6.45794 0 -207.483
2323.45 5.70802 0 -194.547
2305.27 5.9517 0 -194.881
3858.82 7.54473 0 -216.385
3889.22 7.33805 0 -215.82
2314.36 5.83017 0 -194.717
3081.3 6.80367 0 -208.17
3874.02 7.44171 0 -216.108
3105.59 6.57382 0 -207.72
3093.44 6.68907 0 -207.949
2305.27 5.9517 0 -194.881
2287.08 6.19288 0 -195.19
3828.42 7.74881 0 -216.908
3858.82 7.54473 0 -216.385
2296.17 6.07261 0 -195.039
3057.02 7.03093 0 -208.586
3843.62 7.64709 0 -216.652
3081.3 6.80367 0 -208.17
3069.16 6.91762 0 -208.382
2287.08 6.19288 0 -195.19
2268.9 6.43154 0 -195.475
3798.03 7.95024 0 -217.39
3828.42 7.74881 0 -216.908
2277.99 6.31253 0 -195.336
3032.73 7.25557 0 -208.969
3813.23 7.84985 0 -217.154
3057.02 7.03093 0 -208.586
3044.87 7.14358 0 -208.781
2268.9 6.43154 0 -195.475
2250.71 6.66765 0 -195.735
3767.64 8.14897 0 -217.832
3798.03 7.95024 0 -217.39
2259.8 6.54992 0 -195.608
3008.45 7.47755 0 -209.319
3782.84 8.04995 0 -217.616
3032.73 7.25557 0 -208.969
3020.59 7.36689 0 -209.148
2250.71 6.66765 0 -195.735
2232.53 6.90117 0 -195.971
3737.26 8.34497 0 -218.233
3767.64 8.14897 0 -217.832
2241.62 6.78473 0 -195.856
2984.18 7.69683 0 -209.637
3752.45 8.24732 0 -218.037
3008.45 7.47755 0 -209.319
2996.32 7.58753 0 -209.482
2232.53 6.90117 0 -195.971
2214.35 7.13209 0 -196.183
3706.88 8.53818 0 -218.593
3737.26 8.34497 0 -218.233
2223.44 7.01696 0 -196.08
2959.9 7.91338 0 -209.923
3722.07 8.44193 0 -218.418
2984.18 7.69683 0 -209.637
2972.04 7.80545 0 -209.784
2214.35 7.13209 0 -196.183
2196.18 7.36037 0 -196.37
3676.5 8.72857 0 -218.914
3706.88 8.53818 0 -218.593
2205.26 7.24656 0 -196.28
2935.63 8.12716 0 -210.177
3691.69 8.63373 0 -218.758
2959.9 7.91338 0 -209.923
2947.77 8.02062 0 -210.054
2196.18 7.36037 0 -196.37
2178 7.58599 0 -196.535
3646.12 8.91609 0 -219.195
3676.5 8.72857 0 -218.914
2187.09 7.47352 0 -196.455
2911.36 8.33814 0 -210.4
3661.31 8.82269 0 -219.059
2935.63 8.12716 0 -210.177
2923.49 8.233 0 -210.292
2178 7.58599 0 -196.535
2159.83 7.80894 0 -196.675
3615.75 9.10069 0 -219.437
3646.12 8.91609 0 -219.195
2168.91 7.6978 0 -196.608
2887.09 8.54629 0 -210.591
3630.93 9.00876 0 -219.321
2911.36 8.33814 0 -210.4
2899.23 8.44257 0 -210.499
2159.83 7.80894 0 -196.675
2141.65 8.02917 0 -196.792
3585.38 9.28235 0 -219.64
3615.75 9.10069 0 -219.437
2150.74 7.91939 0 -196.737
2862.83 8.75158 0 -210.751
3600.56 9.19189 0 -219.544
2887.09 8.54629 0 -210.591
2874.96 8.64929 0 -210.675
2141.65 8.02917 0 -196.792
2123.48 8.24668 0 -196.887
3555.02 9.46103 0 -219.805
3585.38 9.28235 0 -219.64
2132.57 8.13827 0 -196.842
2838.57 8.95397 0 -210.88
3570.2 9.37207 0 -219.727
2862.83 8.75158 0 -210.751
2850.7 8.85314 0 -210.819
2123.48 8.24668 0 -196.887
2105.31 8.46144 0 -196.958
3524.65 9.63668 0 -219.931
3555.02 9.46103 0 -219.805
2114.4 8.35441 0 -196.925
2814.31 9.15344 0 -210.979
3539.83 9.54923 0 -219.873
2838.57 8.95397 0 -210.88
2826.44 9.05407 0 -210.933
2105.31 8.46144 0 -196.958
2087.15 8.67343 0 -197.007
3494.3 9.80928 0 -220.02
3524.65 9.63668 0 -219.931
2096.23 8.56779 0 -196.985
2790.05 9.34997 0 -211.047
3509.47 9.72336 0 -219.98
2814.31 9.15344 0 -210.979
2802.18 9.25208 0 -211.017
2087.15 8.67343 0 -197.007
2068.98 8.88263 0 -197.033
3463.94 9.97879 0 -220.071
3494.3 9.80928 0 -220.02
2078.06 8.77838 0 -197.022
2765.79 9.54351 0 -211.085
3479.12 9.89442 0 -220.05
2790.05 9.34997 0 -211.047
2777.92 9.44711 0 -211.07
2068.98 8.88263 0 -197.033
2050.82 9.08903 0 -197.036
3433.59 10.1452 0 -220.085
3463.94 9.97879 0 -220.071
2059.9 8.98618 0 -197.037
2741.54 9.73406 0 -211.094
3448.77 10.0624 0 -220.082
2765.79 9.54351 0 -211.085
2753.67 9.63916 0 -211.093
2050.82 9.08903 0 -197.036
2032.66 9.29259 0 -197.018
3403.25 10.3084 0 -220.062
3433.59 10.1452 0 -220.085
2041.74 9.19116 0 -197.03
2717.29 9.92158 0 -211.073
3418.42 10.2272 0 -220.078
2741.54 9.73406 0 -211.094
2729.42 9.8282 0 -211.087
2032.66 9.29259 0 -197.018
2014.5 9.49331 0 -196.978
3372.9 10.4685 0 -220.002
3403.25 10.3084 0 -220.062
2023.58 9.39331 0 -197.001
2693.05 10.1061 0 -211.023
3388.07 10.3888 0 -220.036
2717.29 9.92158 0 -211.073
2705.17 10.0142 0 -211.052
2014.5 9.49331 0 -196.978
1996.34 9.69118 0 -196.916
3342.56 10.6253 0 -219.906
3372.9 10.4685 0 -220.002
2005.42 9.5926 0 -196.95
2668.81 10.2875 0 -210.944
3357.73 10.5473 0 -219.958
2693.05 10.1061 0 -211.023
2680.93 10.1971 0 -210.987
1996.34 9.69118 0 -196.916
1978.18 9.88616 0 -196.832
3312.23 10.7789 0 -219.774
3342.56 10.6253 0 -219.906
1987.26 9.78903 0 -196.877
2644.57 10.4658 0 -210.836
3327.4 10.7025 0 -219.845
2668.81 10.2875 0 -210.944
2656.69 10.377 0 -210.893
1978.18 9.88616 0 -196.832
1960.03 10.0783 0 -196.728
3281.9 10.9293 0 -219.607
3312.23 10.7789 0 -219.774
1969.1 9.98257 0 -196.783
2620.33 10.641 0 -210.7
3297.06 10.8545 0 -219.695
2644.57 10.4658 0 -210.836
2632.45 10.5538 0 -210.771
1960.03 10.0783 0 -196.728
1941.88 10.2674 0 -196.602
3251.57 11.0764 0 -219.405
3281.9 10.9293 0 -219.607
1950.95 10.1732 0 -196.667
2596.09 10.813 0 -210.535
3266.73 11.0032 0 -219.51
2620.33 10.641 0 -210.7
2608.21 10.7274 0 -210.621
1941.88 10.2674 0 -196.602
1923.72 10.4537 0 -196.455
3221.25 11.2201 0 -219.167
3251.57 11.0764 0 -219.405
1932.8 10.3609 0 -196.531
2571.86 10.9819 0 -210.343
3236.41 11.1487 0 -219.29
2596.09 10.813 0 -210.535
2583.98 10.8979 0 -210.443
1923.72 10.4537 0 -196.455
1905.58 10.637 0 -196.288
3190.93 11.3606 0 -218.895
3221.25 11.2201 0 -219.167
1914.65 10.5457 0 -196.374
2547.63 11.1477 0 -210.123
3206.09 11.2908 0 -219.036
2571.86 10.9819 0 -210.343
2559.75 11.0652 0 -210.237
1905.58 10.637 0 -196.288
1887.43 10.8174 0 -196.1
3160.61 11.4976 0 -218.589
3190.93 11.3606 0 -218.895
1896.5 10.7276 0 -196.196
2523.41 11.3103 0 -209.876
3175.77 11.4295 0 -218.746
2547.63 11.1477 0 -210.123
2535.52 11.2294 0 -210.003
1887.43 10.8174 0 -196.1
1869.29 10.9949 0 -195.891
3130.3 11.6314 0 -218.249
3160.61 11.4976 0 -218.589
1878.36 10.9065 0 -195.998
2499.18 11.4696 0 -209.602
3145.46 11.5649 0 -218.423
2523.41 11.3103 0 -209.876
2511.29 11.3903 0 -209.742
1869.29 10.9949 0 -195.891
1851.14 11.1693 0 -195.663
3099.99 11.7617 0 -217.875
3130.3 11.6314 0 -218.249
1860.21 11.0825 0 -195.78
2474.96 11.6258 0 -209.3
3115.15 11.697 0 -218.066
2499.18 11.4696 0 -209.602
2487.07 11.5481 0 -209.454
1851.14 11.1693 0 -195.663
1833 11.3408 0 -195.414
3069.69 11.8886 0 -217.469
3099.99 11.7617 0 -217.875
1842.07 11.2555 0 -195.541
2450.75 11.7787 0 -208.973
3084.84 11.8256 0 -217.676
2474.96 11.6258 0 -209.3
2462.85 11.7027 0 -209.14
1833 11.3408 0 -195.414
1814.86 11.5093 0 -195.146
3039.39 12.0121 0 -217.029
3069.69 11.8886 0 -217.469
1823.93 11.4255 0 -195.283
2426.53 11.9284 0 -208.619
3054.54 11.9508 0 -217.253
2450.75 11.7787 0 -208.973
2438.64 11.854 0 -208.799
1814.86 11.5093 0 -195.146
1796.73 11.6749 0 -194.859
3009.09 12.1322 0 -216.556
3039.39 12.0121 0 -217.029
1805.79 11.5925 0 -195.005
2402.32 12.0749 0 -208.238
3024.24 12.0726 0 -216.797
2426.53 11.9284 0 -208.619
2414.42 12.002 0 -208.432
1796.73 11.6749 0 -194.859
1778.59 11.8374 0 -194.552
2978.8 12.2489 0 -216.052
3009.09 12.1322 0 -216.556
1787.66 11.7565 0 -194.708
2378.11 12.218 0 -207.833
2993.95 12.191 0 -216.308
2402.32 12.0749 0 -208.238
2390.21 12.1469 0 -208.039
1778.59 11.8374 0 -194.552
1760.46 11.9969 0 -194.226
2948.51 12.3621 0 -215.515
2978.8 12.2489 0 -216.052
1769.53 11.9175 0 -194.391
2353.91 12.358 0 -207.401
2963.66 12.3059 0 -215.788
2378.11 12.218 0 -207.833
2366.01 12.2884 0 -207.62
1760.46 11.9969 0 -194.226
1742.33 12.1534 0 -193.881
2918.23 12.4718 0 -214.947
2948.51 12.3621 0 -215.515
1751.39 12.0755 0 -194.056
2329.7 12.4946 0 -206.944
2933.37 12.4174 0 -215.235
2353.91 12.358 0 -207.401
2341.8 12.4267 0 -207.176
1742.33 12.1534 0 -193.881
1724.2 12.3068 0 -193.517
2887.95 12.578 0 -214.348
2918.23 12.4718 0 -214.947
1733.26 12.2305 0 -193.701
2305.5 12.628 0 -206.463
2903.09 12.5253 0 -214.651
2329.7 12.4946 0 -206.944
2317.6 12.5617 0 -206.707
1724.2 12.3068 0 -193.517
1706.07 12.4573 0 -193.135
2857.67 12.6808 0 -213.718
2887.95 12.578 0 -214.348
1715.14 12.3824 0 -193.328
2281.31 12.758 0 -205.956
2872.81 12.6298 0 -214.037
2305.5 12.628 0 -206.463
2293.4 12.6934 0 -206.213
1706.07 12.4573 0 -193.135
1687.95 12.6047 0 -192.734
2827.4 12.78 0 -213.057
2857.67 12.6808 0 -213.718
1697.01 12.5314 0 -192.937
2257.11 12.8848 0 -205.425
2842.54 12.7308 0 -213.391
2281.31 12.758 0 -205.956
2269.21 12.8218 0 -205.694
1687.95 12.6047 0 -192.734
1669.83 12.7491 0 -192.316
2797.13 12.8758 0 -212.366
2827.4 12.78 0 -213.057
1678.89 12.6773 0 -192.527
2232.92 13.0082 0 -204.87
2812.27 12.8284 0 -212.715
2257.11 12.8848 0 -205.425
2245.02 12.9469 0 -205.151
1669.83 12.7491 0 -192.316
1651.71 12.8904 0 -191.879
2766.87 12.9681 0 -211.644
2797.13 12.8758 0 -212.366
1660.77 12.8201 0 -192.1
2208.73 13.1284 0 -204.291
2782 12.9224 0 -212.009
2232.92 13.0082 0 -204.87
2220.83 13.0687 0 -204.584
1651.71 12.8904 0 -191.879
1633.59 13.0287 0 -191.425
2736.61 13.0568 0 -210.894
2766.87 12.9681 0 -211.644
1642.65 12.96 0 -191.654
2184.55 13.2453 0 -203.689
2751.74 13.0129 0 -211.273
2208.73 13.1284 0 -204.291
2196.64 13.1872 0 -203.993
1633.59 13.0287 0 -191.425
1615.47 13.164 0 -190.953
2706.36 13.1421 0 -210.114
2736.61 13.0568 0 -210.894
1624.53 13.0968 0 -191.191
2160.37 13.3588 0 -203.063
2721.48 13.0999 0 -210.507
2184.55 13.2453 0 -203.689
2172.46 13.3024 0 -203.379
1615.47 13.164 0 -190.953
1597.36 13.2962 0 -190.464
2676.1 13.2238 0 -209.305
2706.36 13.1421 0 -210.114
1606.41 13.2305 0 -190.71
2136.19 13.469 0 -202.413
2691.23 13.1834 0 -209.713
2160.37 13.3588 0 -203.063
2148.28 13.4143 0 -202.741
1597.36 13.2962 0 -190.464
1579.24 13.4254 0 -189.957
2645.86 13.302 0 -208.467
2676.1 13.2238 0 -209.305
1588.3 13.3612 0 -190.213
2112.01 13.5759 0 -201.741
2660.98 13.2633 0 -208.89
2136.19 13.469 0 -202.413
2124.1 13.5229 0 -202.08
1579.24 13.4254 0 -189.957
1561.13 13.5516 0 -189.434
2615.61 13.3767 0 -207.601
2645.86 13.302 0 -208.467
1570.19 13.4889 0 -189.698
2087.84 13.6795 0 -201.047
2630.74 13.3398 0 -208.038
2112.01 13.5759 0 -201.741
2099.93 13.6281 0 -201.397
1561.13 13.5516 0 -189.434
1543.03 13.6747 0 -188.894
2585.37 13.4479 0 -206.708
2615.61 13.3767 0 -207.601
1552.08 13.6135 0 -189.166
2063.67 13.7798 0 -200.329
2600.49 13.4127 0 -207.158
2087.84 13.6795 0 -201.047
2075.76 13.7301 0 -200.691
1543.03 13.6747 0 -188.894
1524.92 13.7947 0 -188.337
2555.14 13.5156 0 -205.786
2585.37 13.4479 0 -206.708
1533.97 13.7351 0 -188.617
2039.51 13.8768 0 -199.59
2570.26 13.4822 0 -206.25
2063.67 13.7798 0 -200.329
2051.59 13.8287 0 -199.963
1524.92 13.7947 0 -188.337
1506.82 13.9118 0 -187.764
2524.91 13.5798 0 -204.837
2555.14 13.5156 0 -205.786
1515.87 13.8536 0 -188.053
2015.34 13.9704 0 -198.829
2540.02 13.5481 0 -205.315
2039.51 13.8768 0 -199.59
2027.42 13.924 0 -199.212
1506.82 13.9118 0 -187.764
1488.71 14.0258 0 -187.175
2494.68 13.6404 0 -203.862
2524.91 13.5798 0 -204.837
1497.76 13.9691 0 -187.472
1991.18 14.0608 0 -198.047
2509.79 13.6105 0 -204.353
2015.34 13.9704 0 -198.829
2003.26 14.016 0 -198.441
1488.71 14.0258 0 -187.175
1470.61 14.1367 0 -186.57
2464.46 13.6976 0 -202.859
2494.68 13.6404 0 -203.862
1479.66 14.0816 0 -186.874
1967.02 14.1478 0 -197.243
2479.57 13.6694 0 -203.364
1991.18 14.0608 0 -198.047
1979.1 14.1047 0 -197.647
1470.61 14.1367 0 -186.57
1452.52 14.2447 0 -185.949
2434.24 13.7513 0 -201.83
2464.46 13.6976 0 -202.859
1461.56 14.1911 0 -186.261
1942.87 14.2316 0 -196.418
2449.35 13.7249 0 -202.348
1967.02 14.1478 0 -197.243
1954.95 14.1901 0 -196.833
1452.52 14.2447 0 -185.949
1434.42 14.3496 0 -185.312
2404.02 13.8015 0 -200.776
2434.24 13.7513 0 -201.83
1443.47 14.2975 0 -185.633
1918.72 14.3121 0 -195.572
2419.13 13.7768 0 -201.306
1942.87 14.2316 0 -196.418
1930.79 14.2722 0 -195.997
1434.42 14.3496 0 -185.312
1416.32 14.4514 0 -184.661
2373.81 13.8482 0 -199.695
2404.02 13.8015 0 -200.776
1425.37 14.4009 0 -184.988
1894.57 14.3892 0 -194.706
2388.92 13.8253 0 -200.238
1918.72 14.3121 0 -195.572
1906.64 14.3511 0 -195.141
1416.32 14.4514 0 -184.661
1398.23 14.5503 0 -183.994
2343.61 13.8914 0 -198.589
2373.81 13.8482 0 -199.695
1407.28 14.5013 0 -184.329
1870.42 14.4631 0 -193.819
2358.71 13.8702 0 -199.145
1894.57 14.3892 0 -194.706
1882.49 14.4266 0 -194.265
1398.23 14.5503 0 -183.994
1380.14 14.6462 0 -183.312
2313.4 13.9312 0 -197.458
2343.61 13.8914 0 -198.589
1389.19 14.5986 0 -183.654
1846.28 14.5338 0 -192.913
2328.5 13.9117 0 -198.027
1870.42 14.4631 0 -193.819
1858.35 14.4989 0 -193.368
1380.14 14.6462 0 -183.312
1362.05 14.7391 0 -182.615
2283.2 13.9675 0 -196.303
2313.4 13.9312 0 -197.458
1371.1 14.693 0 -182.965
1822.14 14.6012 0 -191.986
2298.3 13.9498 0 -196.884
1846.28 14.5338 0 -192.913
1834.21 14.5679 0 -192.452
1362.05 14.7391 0 -182.615
1343.97 14.8289 0 -181.903
2253.01 14.0004 0 -195.123
2283.2 13.9675 0 -196.303
1353.01 14.7844 0 -182.261
1798 14.6653 0 -191.041
2268.11 13.9844 0 -195.716
1822.14 14.6012 0 -191.986
1810.07 14.6336 0 -191.516
1343.97 14.8289 0 -181.903
1325.88 14.9158 0 -181.178
2222.82 14.0299 0 -193.919
2253.01 14.0004 0 -195.123
1334.92 14.8727 0 -181.542
1773.87 14.7262 0 -190.076
2237.91 14.0156 0 -194.524
1798 14.6653 0 -191.041
1785.93 14.6961 0 -190.561
1325.88 14.9158 0 -181.178
1307.8 14.9997 0 -180.438
2192.63 14.056 0 -192.691
2222.82 14.0299 0 -193.919
1316.84 14.9581 0 -180.809
1749.74 14.7838 0 -189.092
2207.72 14.0434 0 -193.308
1773.87 14.7262 0 -190.076
1761.8 14.7554 0 -189.586
1307.8 14.9997 0 -180.438
1289.72 15.0806 0 -179.684
2162.45 14.0787 0 -191.44
2192.63 14.056 0 -192.691
1298.76 15.0406 0 -180.062
1725.61 14.8382 0 -188.089
2177.54 14.0677 0 -192.069
1749.74 14.7838 0 -189.092
1737.67 14.8114 0 -188.593
1289.72 15.0806 0 -179.684
1271.64 15.1586 0 -178.916
2132.27 14.0979 0 -190.166
2162.45 14.0787 0 -191.44
1280.68 15.12 0 -179.302
1701.48 14.8894 0 -187.068
2147.36 14.0887 0 -190.806
1725.61 14.8382 0 -188.089
1713.54 14.8642 0 -187.581
1271.64 15.1586 0 -178.916
1253.56 15.2336 0 -178.135
2102.09 14.1139 0 -188.869
2132.27 14.0979 0 -190.166
1262.6 15.1965 0 -178.527
1677.36 14.9375 0 -186.029
2117.18 14.1063 0 -189.521
1701.48 14.8894 0 -187.068
1689.42 14.9138 0 -186.551
1253.56 15.2336 0 -178.135
1235.49 15.3057 0 -177.34
2071.92 14.1264 0 -187.55
2102.09 14.1139 0 -188.869
1244.53 15.27 0 -177.739
1653.24 14.9823 0 -184.972
2087 14.1206 0 -188.213
1677.36 14.9375 0 -186.029
1665.3 14.9603 0 -185.503
1235.49 15.3057 0 -177.34
1217.42 15.3749 0 -176.532
2041.75 14.1357 0 -186.209
2071.92 14.1264 0 -187.55
1226.45 15.3407 0 -176.937
1629.12 15.024 0 -183.897
2056.83 14.1315 0 -186.882
1653.24 14.9823 0 -184.972
1641.18 15.0035 0 -184.437
1217.42 15.3749 0 -176.532
1199.35 15.4411 0 -175.711
2011.59 14.1416 0 -184.846
2041.75 14.1357 0 -186.209
1208.38 15.4083 0 -176.123
1605.01 15.0625 0 -182.805
2026.67 14.139 0 -185.53
1629.12 15.024 0 -183.897
1617.06 15.0436 0 -183.353
1199.35 15.4411 0 -175.711
1181.28 15.5044 0 -174.877
1981.43 14.1442 0 -183.461
2011.59 14.1416 0 -184.846
1190.31 15.4731 0 -175.295
1580.89 15.0979 0 -181.696
1996.51 14.1433 0 -184.156
1605.01 15.0625 0 -182.805
1592.95 15.0806 0 -182.252
1181.28 15.5044 0 -174.877
1163.21 15.5648 0 -174.03
1951.27 14.1435 0 -182.056
1981.43 14.1442 0 -183.461
1172.24 15.535 0 -174.455
1556.79 15.1301 0 -180.569
1966.35 14.1443 0 -182.761
1580.89 15.0979 0 -181.696
1568.84 15.1144 0 -181.135
1163.21 15.5648 0 -174.03
1145.14 15.6224 0 -173.172
1921.12 14.1396 0 -180.629
1951.27 14.1435 0 -182.056
1154.18 15.594 0 -173.603
1532.68 15.1593 0 -179.427
1936.19 14.142 0 -181.345
1556.79 15.1301 0 -180.569
1544.73 15.1451 0 -180
1145.14 15.6224 0 -173.172
1127.08 15.677 0 -172.3
1890.97 14.1325 0 -179.182
1921.12 14.1396 0 -180.629
1136.11 15.6501 0 -172.738
1508.58 15.1853 0 -178.267
1906.04 14.1365 0 -179.908
1532.68 15.1593 0 -179.427
1520.63 15.1727 0 -178.849
1127.08 15.677 0 -172.3
1109.02 15.7288 0 -171.417
1860.82 14.1221 0 -177.715
1890.97 14.1325 0 -179.182
1118.05 15.7033 0 -171.86
1484.47 15.2083 0 -177.092
1875.89 14.1277 0 -178.451
1508.58 15.1853 0 -178.267
1496.52 15.1972 0 -177.682
1109.02 15.7288 0 -171.417
1090.96 15.7778 0 -170.522
1830.68 14.1086 0 -176.228
1860.82 14.1221 0 -177.715
1099.99 15.7537 0 -170.971
1460.38 15.2282 0 -175.901
1845.75 14.1157 0 -176.974
1484.47 15.2083 0 -177.092
1472.42 15.2186 0 -176.499
1090.96 15.7778 0 -170.522
1072.9 15.8239 0 -169.615
1800.54 14.0918 0 -174.722
1830.68 14.1086 0 -176.228
1081.93 15.8012 0 -170.07
1436.28 15.2451 0 -174.695
1815.61 14.1006 0 -175.478
1460.38 15.2282 0 -175.901
1448.33 15.2371 0 -175.3
1072.9 15.8239 0 -169.615
1054.84 15.8672 0 -168.697
1770.4 14.072 0 -173.197
1800.54 14.0918 0 -174.722
1063.87 15.8459 0 -169.158
1412.19 15.259 0 -173.473
1785.47 14.0823 0 -173.962
1436.28 15.2451 0 -174.695
1424.23 15.2524 0 -174.086
1054.84 15.8672 0 -168.697
1036.79 15.9077 0 -167.768
1740.27 14.049 0 -171.652
1770.4 14.072 0 -173.197
1045.81 15.8878 0 -168.234
1388.1 15.2699 0 -172.236
1755.34 14.0609 0 -172.427
1412.19 15.259 0 -173.473
1400.14 15.2648 0 -172.856
1036.79 15.9077 0 -167.768
1018.73 15.9455 0 -166.827
1710.14 14.0229 0 -170.089
1740.27 14.049 0 -171.652
1027.76 15.927 0 -167.299
1364.01 15.2778 0 -170.984
1725.21 14.0364 0 -170.873
1388.1 15.2699 0 -172.236
1376.05 15.2742 0 -171.612
1018.73 15.9455 0 -166.827
1000.68 15.9804 0 -165.876
1680.02 13.9938 0 -168.508
1710.14 14.0229 0 -170.089
1009.71 15.9633 0 -166.353
1339.92 15.2827 0 -169.718
1695.08 14.0087 0 -169.301
1364.01 15.2778 0 -170.984
1351.97 15.2806 0 -170.353
1000.68 15.9804 0 -165.876
982.63 16.0126 0 -164.914
1649.9 13.9616 0 -166.91
1680.02 13.9938 0 -168.508
991.655 15.9969 0 -165.396
1315.84 15.2848 0 -168.437
1664.96 13.9781 0 -167.711
1339.92 15.2827 0 -169.718
1327.88 15.2841 0 -169.079
982.63 16.0126 0 -164.914
964.582 16.0421 0 -163.941
1619.78 13.9264 0 -165.293
1649.9 13.9616 0 -166.91
973.606 16.0277 0 -164.429
1291.76 15.2839 0 -167.142
1634.84 13.9444 0 -166.104
1315.84 15.2848 0 -168.437
1303.8 15.2847 0 -167.792
964.582 16.0421 0 -163.941
946.535 16.0688 0 -162.959
1589.67 13.8882 0 -163.659
1619.78 13.9264 0 -165.293
955.558 16.0558 0 -163.451
1267.68 15.2801 0 -165.834
1604.72 13.9077 0 -164.478
1291.76 15.2839 0 -167.142
1279.72 15.2823 0 -166.49
946.535 16.0688 0 -162.959
928.49 16.0929 0 -161.966
1559.55 13.8471 0 -162.009
1589.67 13.8882 0 -163.659
937.512 16.0812 0 -162.463
1243.61 15.2734 0 -164.512
1574.61 13.868 0 -162.836
1267.68 15.2801 0 -165.834
1255.64 15.2771 0 -165.175
928.49 16.0929 0 -161.966
910.446 16.1142 0 -160.963
1529.45 13.803 0 -160.342
1559.55 13.8471 0 -162.009
919.468 16.1039 0 -161.466
1219.53 15.2639 0 -163.177
1544.5 13.8254 0 -161.177
1243.61 15.2734 0 -164.512
1231.57 15.269 0 -163.846
910.446 16.1142 0 -160.963
892.404 16.1329 0 -159.95
1499.34 13.7561 0 -158.658
1529.45 13.803 0 -160.342
901.425 16.1239 0 -160.458
1195.46 15.2516 0 -161.829
1514.39 13.7799 0 -159.502
1219.53 15.2639 0 -163.177
1207.5 15.2581 0 -162.505
892.404 16.1329 0 -159.95
874.363 16.1489 0 -158.928
1469.24 13.7062 0 -156.959
1499.34 13.7561 0 -158.658
883.383 16.1412 0 -159.441
1171.39 15.2365 0 -160.468
1484.29 13.7315 0 -157.811
1195.46 15.2516 0 -161.829
1183.43 15.2444 0 -161.15
874.363 16.1489 0 -158.928
856.324 16.1623 0 -157.897
1439.14 13.6536 0 -155.244
1469.24 13.7062 0 -156.959
865.343 16.1559 0 -158.414
1147.33 15.2186 0 -159.095
1454.19 13.6803 0 -156.104
1171.39 15.2365 0 -160.468
1159.36 15.2279 0 -159.783
856.324 16.1623 0 -157.897
838.286 16.1731 0 -156.856
1409.05 13.5981 0 -153.514
1439.14 13.6536 0 -155.244
847.305 16.168 0 -157.378
1123.26 15.198 0 -157.71
1424.09 13.6262 0 -154.381
1147.33 15.2186 0 -159.095
1135.29 15.2086 0 -158.404
838.286 16.1731 0 -156.856
820.25 16.1813 0 -155.807
1378.96 13.5399 0 -151.769
1409.05 13.5981 0 -153.514
829.268 16.1775 0 -156.333
1099.2 15.1746 0 -156.312
1394 13.5693 0 -152.643
1123.26 15.198 0 -157.71
1111.23 15.1866 0 -157.013
820.25 16.1813 0 -155.807
802.215 16.1869 0 -154.749
1348.87 13.4789 0 -150.009
1378.96 13.5399 0 -151.769
811.233 16.1844 0 -155.279
1075.14 15.1486 0 -154.903
1363.91 13.5097 0 -150.891
1099.2 15.1746 0 -156.312
1087.17 15.1619 0 -155.609
802.215 16.1869 0 -154.749
784.182 16.19 0 -153.682
1318.78 13.4152 0 -148.235
1348.87 13.4789 0 -150.009
793.199 16.1887 0 -154.217
1051.08 15.1199 0 -153.483
1333.82 13.4474 0 -149.124
1075.14 15.1486 0 -154.903
1063.11 15.1346 0 -154.195
784.182 16.19 0 -153.682
766.15 16.1905 0 -152.607
1288.7 13.3488 0 -146.447
1318.78 13.4152 0 -148.235
775.166 16.1905 0 -153.146
1027.03 15.0885 0 -152.051
1303.74 13.3823 0 -147.343
1051.08 15.1199 0 -153.483
1039.06 15.1045 0 -152.769
766.15 16.1905 0 -152.607
748.12 16.1885 0 -151.524
1258.62 13.2798 0 -144.645
1288.7 13.3488 0 -146.447
757.135 16.1898 0 -152.067
1002.97 15.0546 0 -150.609
1273.66 13.3146 0 -145.548
1027.03 15.0885 0 -152.051
1015 15.0719 0 -151.331
748.12 16.1885 0 -151.524
730.09 16.184 0 -150.433
1228.54 13.2082 0 -142.83
1258.62 13.2798 0 -144.645
739.105 16.1866 0 -150.979
978.923 15.018 0 -149.156
1243.58 13.2443 0 -143.74
1002.97 15.0546 0 -150.609
990.949 15.0366 0 -149.883
730.09 16.184 0 -150.433
712.062 16.1771 0 -149.334
1198.47 13.134 0 -141.002
1228.54 13.2082 0 -142.83
721.076 16.1809 0 -149.884
954.874 14.9789 0 -147.692
1213.5 13.1714 0 -141.918
978.923 15.018 0 -149.156
966.899 14.9988 0 -148.425
712.062 16.1771 0 -149.334
694.036 16.1677 0 -148.227
1168.4 13.0573 0 -139.162
1198.47 13.134 0 -141.002
703.049 16.1727 0 -148.781
930.827 14.9373 0 -146.218
1183.43 13.096 0 -140.084
954.874 14.9789 0 -147.692
942.851 14.9584 0 -146.956
694.036 16.1677 0 -148.227
676.01 16.1558 0 -147.113
1138.33 12.9781 0 -137.308
1168.4 13.0573 0 -139.162
685.023 16.1621 0 -147.671
906.782 14.8931 0 -144.735
1153.36 13.018 0 -138.237
930.827 14.9373 0 -146.218
918.805 14.9155 0 -145.478
676.01 16.1558 0 -147.113
657.986 16.1416 0 -145.992
1108.26 12.8964 0 -135.443
1138.33 12.9781 0 -137.308
666.998 16.149 0 -146.554
882.739 14.8465 0 -143.241
1123.29 12.9375 0 -136.377
906.782 14.8931 0 -144.735
894.76 14.8701 0 -143.989
657.986 16.1416 0 -145.992
639.963 16.125 0 -144.864
1078.2 12.8123 0 -133.566
1108.26 12.8964 0 -135.443
648.975 16.1336 0 -145.429
858.698 14.7975 0 -141.739
1093.23 12.8546 0 -134.506
882.739 14.8465 0 -143.241
870.718 14.8223 0 -142.491
639.963 16.125 0 -144.864
621.942 16.106 0 -143.729
1048.14 12.7258 0 -131.678
1078.2 12.8123 0 -133.566
630.952 16.1158 0 -144.297
834.659 14.746 0 -140.227
1063.17 12.7693 0 -132.624
858.698 14.7975 0 -141.739
846.678 14.7721 0 -140.984
621.942 16.106 0 -143.729
603.921 16.0847 0 -142.588
1018.08 12.6369 0 -129.779
1048.14 12.7258 0 -131.678
612.931 16.0956 0 -143.159
810.621 14.6922 0 -138.706
1033.11 12.6817 0 -130.73
834.659 14.746 0 -140.227
822.64 14.7194 0 -139.468
603.921 16.0847 0 -142.588
585.902 16.061 0 -141.44
988.026 12.5458 0 -127.868
1018.08 12.6369 0 -129.779
594.911 16.0731 0 -142.014
786.585 14.636 0 -137.177
1003.05 12.5916 0 -128.825
810.621 14.6922 0 -138.706
798.603 14.6644 0 -137.943
585.902 16.061 0 -141.44
567.883 16.0351 0 -140.286
957.973 12.4523 0 -125.948
988.026 12.5458 0 -127.868
576.892 16.0483 0 -140.863
762.551 14.5775 0 -135.64
972.999 12.4993 0 -126.909
786.585 14.636 0 -137.177
774.568 14.607 0 -136.41
567.883 16.0351 0 -140.286
549.866 16.0068 0 -139.125
927.923 12.3567 0 -124.017
957.973 12.4523 0 -125.948
558.875 16.0212 0 -139.706
738.519 14.5166 0 -134.094
942.948 12.4048 0 -124.984
762.551 14.5775 0 -135.64
750.535 14.5473 0 -134.868
549.866 16.0068 0 -139.125
531.85 15.9763 0 -137.959
897.875 12.2588 0 -122.076
927.923 12.3567 0 -124.017
540.858 15.9919 0 -138.543
714.489 14.4535 0 -132.541
912.899 12.308 0 -123.048
738.519 14.5166 0 -134.094
726.504 14.4854 0 -133.319
531.85 15.9763 0 -137.959
513.835 15.9436 0 -136.788
867.83 12.1587 0 -120.126
897.875 12.2588 0 -122.076
522.842 15.9602 0 -137.374
690.46 14.3882 0 -130.98
882.852 12.209 0 -121.103
714.489 14.4535 0 -132.541
702.474 14.4212 0 -131.761
513.835 15.9436 0 -136.788
495.821 15.9086 0 -135.611
837.787 12.0566 0 -118.167
867.83 12.1587 0 -120.126
504.827 15.9264 0 -136.2
666.433 14.3207 0 -129.412
852.808 12.1079 0 -119.148
690.46 14.3882 0 -130.98
678.446 14.3547 0 -130.197
495.821 15.9086 0 -135.611
477.807 15.8715 0 -134.428
807.746 11.9523 0 -116.199
837.787 12.0566 0 -118.167
486.814 15.8903 0 -135.02
642.407 14.251 0 -127.837
822.766 12.0047 0 -117.184
666.433 14.3207 0 -129.412
654.419 14.2861 0 -128.625
477.807 15.8715 0 -134.428
459.795 15.8321 0 -133.241
777.707 11.846 0 -114.223
807.746 11.9523 0 -116.199
468.801 15.8521 0 -133.835
618.383 14.1791 0 -126.255
792.726 11.8994 0 -115.212
642.407 14.251 0 -127.837
630.395 14.2153 0 -127.047
459.795 15.8321 0 -133.241
441.784 15.7906 0 -132.049
747.671 11.7377 0 -112.238
777.707 11.846 0 -114.223
450.789 15.8117 0 -132.646
594.36 14.1051 0 -124.666
762.689 11.7921 0 -113.232
618.383 14.1791 0 -126.255
606.371 14.1424 0 -125.461
441.784 15.7906 0 -132.049
423.774 15.747 0 -130.852
717.636 11.6274 0 -110.246
747.671 11.7377 0 -112.238
432.779 15.7691 0 -131.451
570.339 14.029 0 -123.072
732.653 11.6828 0 -111.243
594.36 14.1051 0 -124.666
582.349 14.0673 0 -123.87
423.774 15.747 0 -130.852
405.764 15.7012 0 -129.651
687.604 11.5153 0 -108.246
717.636 11.6274 0 -110.246
414.769 15.7244 0 -130.252
546.319 13.9509 0 -121.471
702.62 11.5716 0 -109.247
570.339 14.029 0 -123.072
558.329 13.9902 0 -122.272
405.764 15.7012 0 -129.651
387.756 15.6534 0 -128.446
657.573 11.4012 0 -106.239
687.604 11.5153 0 -108.246
396.76 15.6776 0 -129.049
522.301 13.8707 0 -119.865
672.588 11.4584 0 -107.244
546.319 13.9509 0 -121.471
534.31 13.9111 0 -120.669
387.756 15.6534 0 -128.446
369.748 15.6036 0 -127.237
627.545 11.2853 0 -104.226
657.573 11.4012 0 -106.239
378.752 15.6288 0 -127.842
498.284 13.7886 0 -118.254
642.559 11.3435 0 -105.233
522.301 13.8707 0 -119.865
510.292 13.8299 0 -119.06
369.748 15.6036 0 -127.237
351.742 15.552 0 -126.023
597.518 11.1676 0 -102.205
627.545 11.2853 0 -104.226
360.745 15.5781 0 -126.63
474.268 13.7047 0 -116.637
612.531 11.2267 0 -103.216
498.284 13.7886 0 -118.254
486.276 13.7469 0 -117.446
351.742 15.552 0 -126.023
333.737 15.4989 0 -124.806
567.493 11.0483 0 -100.179
597.518 11.1676 0 -102.205
342.74 15.5256 0 -125.415
450.255 13.6191 0 -115.015
582.505 11.1082 0 -101.193
474.268 13.7047 0 -116.637
462.261 13.6621 0 -115.827
333.737 15.4989 0 -124.806
315.734 15.4447 0 -123.584
537.471 10.9275 0 -98.1462
567.493 11.0483 0 -100.179
324.735 15.4719 0 -124.196
426.243 13.5321 0 -113.388
552.482 10.9881 0 -99.1633
450.255 13.6191 0 -115.015
438.248 13.5757 0 -114.202
315.734 15.4447 0 -123.584
297.731 15.3905 0 -122.358
507.451 10.8056 0 -96.1072
537.471 10.9275 0 -98.1462
306.732 15.4175 0 -122.972
402.233 13.4445 0 -111.755
522.46 10.8667 0 -97.1276
426.243 13.5321 0 -113.388
414.238 13.4883 0 -112.572
297.731 15.3905 0 -122.358
279.73 15.3382 0 -121.126
477.435 10.6833 0 -94.0612
507.451 10.8056 0 -96.1072
288.731 15.3639 0 -121.743
378.227 13.3576 0 -110.115
492.442 10.7445 0 -95.0852
402.233 13.4445 0 -111.755
390.23 13.4008 0 -110.936
279.73 15.3382 0 -121.126
261.729 15.2912 0 -119.887
447.425 10.5619 0 -92.0059
477.435 10.6833 0 -94.0612
270.73 15.3137 0 -120.507
354.223 13.2739 0 -108.466
462.429 10.6223 0 -93.0349
378.227 13.3576 0 -110.115
366.225 13.3151 0 -109.292
261.729 15.2912 0 -119.887
243.724 15.2567 0 -118.637
417.422 10.4439 0 -89.9376
447.425 10.5619 0 -92.0059
252.727 15.2717 0 -119.263
330.223 13.1989 0 -106.804
432.422 10.5022 0 -90.9737
354.223 13.2739 0 -108.466
342.223 13.2349 0 -107.637
243.724 15.2567 0 -118.637
225.706 15.2465 0 -117.373
387.435 10.3347 0 -87.8469
417.422 10.4439 0 -89.9376
234.718 15.2475 0 -118.007
306.223 13.1415 0 -105.119
402.426 10.3877 0 -88.8959
330.223 13.1989 0 -106.804
318.223 13.1669 0 -105.965
225.706 15.2465 0 -117.373
207.662 15.2844 0 -116.086
357.466 10.2425 0 -85.7188
387.435 10.3347 0 -87.8469
216.688 15.2573 0 -116.733
282.219 13.1204 0 -103.395
372.448 10.2857 0 -86.7888
306.223 13.1415 0 -105.119
294.222 13.1252 0 -104.263
207.662 15.2844 0 -116.086
189.544 15.4043 0 -114.766
327.535 10.1861 0 -83.5195
357.466 10.2425 0 -85.7188
198.617 15.3309 0 -115.431
258.193 13.1634 0 -101.606
342.493 10.2083 0 -84.6312
282.219 13.1204 0 -103.395
270.209 13.1302 0 -102.512
189.544 15.4043 0 -114.766
171.304 15.675 0 -113.394
297.637 10.1858 0 -81.2018
327.535 10.1861 0 -83.5195
180.441 15.5154 0 -114.089
234.11 13.3267 0 -99.7058
312.585 10.1764 0 -82.3794
258.193 13.1634 0 -101.606
246.163 13.2278 0 -100.672
171.304 15.675 0 -113.394
152.772 16.1674 0 -111.96
267.83 10.3013 0 -78.6599
297.637 10.1858 0 -81.2018
162.094 15.8864 0 -112.685
209.9 13.6744 0 -97.6235
282.713 10.2265 0 -79.9686
234.11 13.3267 0 -99.7058
222.023 13.4661 0 -98.6973
152.772 16.1674 0 -111.96
133.81 17.0322 0 -110.432
238.019 10.5546 0 -75.779
267.83 10.3013 0 -78.6599
143.344 16.546 0 -111.211
185.405 14.3439 0 -95.2584
252.943 10.4023 0 -77.2708
209.9 13.6744 0 -97.6235
197.708 13.9715 0 -96.4754
133.81 17.0322 0 -110.432
113.904 18.2891 0 -108.864
208.35 11.1185 0 -72.2906
238.019 10.5546 0 -75.779
124.037 17.6064 0 -109.645
160.386 15.3927 0 -92.4999
223.135 10.8027 0 -74.1342
185.405 14.3439 0 -95.2584
172.962 14.7911 0 -93.954
113.904 18.2891 0 -108.864
92.8571 20.0582 0 -107.297
178.224 11.8353 0 -68.0619
208.35 11.1185 0 -72.2906
103.497 19.1337 0 -108.077
134.265 17.0099 0 -89.295
193.434 11.4285 0 -70.2781
160.386 15.3927 0 -92.4999
147.551 16.1809 0 -90.9148
92.8571 20.0582 0 -107.297
69.5262 21.5042 0 -106.215
147.879 13.1427 0 -62.6826
178.224 11.8353 0 -68.0619
81.6377 20.8769 0 -106.642
106.424 18.6892 0 -85.8511
162.994 12.4988 0 -65.5391
134.265 17.0099 0 -89.295
120.525 17.7916 0 -87.6482
69.5262 21.5042 0 -106.215
44.6598 21.5226 0 -106.125
114.393 13.4038 0 -56.8993
147.879 13.1427 0 -62.6826
57.0899 21.9503 0 -105.997
75.0546 19.6909 0 -83.1705
131.906 13.3167 0 -59.7834
106.424 18.6892 0 -85.8511
91.5203 19.6302 0 -84.1542
44.6598 21.5226 0 -106.125
17.8055 14.1559 0 -108.634
77.7444 12.8496 0 -52.0786
114.393 13.4038 0 -56.8993
31.7121 19.1963 0 -106.932
39.9119 14.6242 0 -83.9392
96.2974 13.8956 0 -54.1008
75.0546 19.6909 0 -83.1705
57.6063 18.1534 0 -83.1336
17.8055 14.1559 0 -108.634
-2.67012 -9.34316 0 -112.023
28.7625 -1.55375 0 -57.8145
77.7444 12.8496 0 -52.0786
5.71256 5.77052 0 -110.469
0.515702 -8.61024 0 -93.5031
55.9022 7.69936 0 -52.7847
39.9119 14.6242 0 -83.9392
21.5287 7.63118 0 -86.6339
-2.67012 -9.34316 0 -112.023
-13.3869 -70.155 0 -106.783
-14.7746 -59.2091 0 -89.6688
28.7625 -1.55375 0 -57.8145
-9.11385 -35.1455 0 -111.965
-14.6339 -81.7752 0 -106.465
4.77732 -16.3286 0 -68.109
0.515702 -8.61024 0 -93.5031
-14.7705 -38.0259 0 -101.945
-13.3869 -70.155 0 -106.783
-9.06637 -146.213 0 -64.0651
-4.17162 -291.898 0 -108.89
-14.7746 -59.2091 0 -89.6688
-14.2185 -110.316 0 -91.7962
7.32055 -211.379 0 -66.4361
-23.4709 -152.612 0 -111.831
-14.6339 -81.7752 0 -106.465
-6.21307 -142.928 0 -97.8347
5575.45 1664.35 0 -230.036
5905.61 634.923 0 -336.177
7954.08 -146.89 0 97.3382
12325.9 3679.16 0 -2959.97
5792.97 1197.53 0 -386.451
7380.22 452.829 0 -437.626
8851.16 -163.047 0 -431.47
6563.51 1958.71 0 -714.895
7284.21 991.422 0 -676.225
5905.61 634.923 0 -336.177
5996.82 186.066 0 -168.534
7870.17 -84.4999 0 20.5818
7954.08 -146.89 0 97.3382
5990.79 325.285 0 -247.18
7103.69 64.5131 0 -86.1896
7882.7 25.8142 0 35.9507
7380.22 452.829 0 -437.626
7193.37 162.565 0 -186.068
5996.82 186.066 0 -168.534
5922.22 28.8662 0 -73.3088
8012.96 27.0542 0 -1.98701
7870.17 -84.4999 0 20.5818
5952.13 88.855 0 -105.611
7008.82 -1.34579 0 -24.751
7952.69 -54.3558 0 19.21
7103.69 64.5131 0 -86.1896
7051.98 22.2441 0 -50.5847
5922.22 28.8662 0 -73.3088
5870.18 -6.07659 0 -54.2714
8047.54 -7.71981 0 -25.1879
8012.96 27.0542 0 -1.98701
5899.21 3.67403 0 -59.995
6964.39 -10.7396 0 -18.9163
8032.2 25.1894 0 -23.8391
7008.82 -1.34579 0 -24.751
6978.29 -10.6887 0 -14.3302
5870.18 -6.07659 0 -54.2714
5817.91 -19.1546 0 -56.463
8076 9.28007 0 -27.4542
8047.54 -7.71981 0 -25.1879
5839.85 -14.5189 0 -53.1534
6943.63 -10.2959 0 -32.456
8068.04 -5.32721 0 -22.9247
6964.39 -10.7396 0 -18.9163
6955.97 -9.79404 0 -27.0021
5817.91 -19.1546 0 -56.463
5781.65 -17.2101 0 -67.3129
8064.22 -0.965414 0 -35.2598
8076 9.28007 0 -27.4542
5800.33 -18.8642 0 -62.0536
6918.57 -8.66061 0 -45.5109
8070.85 6.8776 0 -33.3592
6943.63 -10.2959 0 -32.456
6930.35 -10.0357 0 -38.4713
5781.65 -17.2101 0 -67.3129
5746.72 -14.9828 0 -77.1421
8045.71 2.27729 0 -39.4123
8064.22 -0.965414 0 -35.2598
5763.1 -16.1839 0 -72.2208
6892.17 -6.69226 0 -56.844
8057.32 -0.698592 0 -36.4551
6918.57 -8.66061 0 -45.5109
6906.41 -7.3838 0 -51.8295
5746.72 -14.9828 0 -77.1421
5715.7 -11.8388 0 -85.8873
8013.31 0.0246925 0 -45.1138
8045.71 2.27729 0 -39.4123
5731.38 -13.3243 0 -81.8455
6861.38 -5.49171 0 -65.7403
8029.96 1.68888 0 -42.7415
6892.17 -6.69226 0 -56.844
6876.85 -6.14223 0 -61.4477
5715.7 -11.8388 0 -85.8873
5684.76 -9.80217 0 -92.6494
7977.47 0.680729 0 -49.9613
8013.31 0.0246925 0 -45.1138
5700 -10.7417 0 -89.4218
6828.7 -4.52121 0 -72.8069
7996.08 0.0615142 0 -47.3304
6861.38 -5.49171 0 -65.7403
6845.44 -4.91171 0 -69.5138
5684.76 -9.80217 0 -92.6494
5654.53 -8.25475 0 -98.2431
7937.58 0.278455 0 -55.096
7977.47 0.680729 0 -49.9613
5669.7 -8.94378 0 -95.6046
6794.14 -3.96025 0 -78.6933
7957.7 0.586542 0 -52.6475
6828.7 -4.52121 0 -72.8069
6811.49 -4.23471 0 -75.856
5654.53 -8.25475 0 -98.2431
5624.19 -7.28976 0 -102.883
7896.5 0.456789 0 -59.9981
7937.58 0.278455 0 -55.096
5639.32 -7.72621 0 -100.643
6758.77 -3.53197 0 -83.7793
7917.21 0.305397 0 -57.5063
6794.14 -3.96025 0 -78.6933
6776.58 -3.71725 0 -81.3184
5624.19 -7.28976 0 -102.883
5593.93 -6.6182 0 -106.993
7854.41 0.45159 0 -64.8903
7896.5 0.456789 0 -59.9981
5609.08 -6.91892 0 -104.998
6722.77 -3.24684 0 -88.4106
7875.51 0.474941 0 -62.4784
6758.77 -3.53197 0 -83.7793
6740.8 -3.38473 0 -86.1388
5593.93 -6.6182 0 -106.993
5563.58 -6.15963 0 -110.737
7811.99 0.555076 0 -69.6753
7854.41 0.45159 0 -64.8903
5578.75 -6.37189 0 -108.897
6686.51 -3.00934 0 -92.7397
7833.24 0.490047 0 -67.2819
6722.77 -3.24684 0 -88.4106
6704.68 -3.12013 0 -90.6045
5563.58 -6.15963 0 -110.737
5533.22 -5.80621 0 -114.269
7769.35 0.63384 0 -74.3893
7811.99 0.555076 0 -69.6753
5548.41 -5.97198 0 -112.525
6650.07 -2.81078 0 -96.8873
7790.68 0.598031 0 -72.0475
6686.51 -3.00934 0 -92.7397
6668.3 -2.90882 0 -94.8322
5533.22 -5.80621 0 -114.269
5502.83 -5.51533 0 -117.654
7726.63 0.733352 0 -79.0175
7769.35 0.63384 0 -74.3893
5518.03 -5.65592 0 -115.976
6613.56 -2.62385 0 -100.903
7748 0.680579 0 -76.7114
6650.07 -2.81078 0 -96.8873
6631.83 -2.71558 0 -98.9089
5502.83 -5.51533 0 -117.654
5472.41 -5.25302 0 -120.938
7683.88 0.833714 0 -83.5644
7726.63 0.733352 0 -79.0175
5487.62 -5.38148 0 -119.307
6577 -2.4438 0 -104.82
7705.26 0.783747 0 -81.3021
6613.56 -2.62385 0 -100.903
6595.28 -2.53387 0 -102.872
5472.41 -5.25302 0 -120.938
5441.98 -5.00508 0 -124.14
7641.11 0.940242 0 -88.0287
7683.88 0.833714 0 -83.5644
5457.2 -5.12805 0 -122.548
6540.41 -2.26403 0 -108.653
7662.5 0.886023 0 -85.8064
6577 -2.4438 0 -104.82
6558.71 -2.35384 0 -106.746
5441.98 -5.00508 0 -124.14
5411.54 -4.76242 0 -127.274
7598.34 1.05085 0 -92.4108
7641.11 0.940242 0 -88.0287
5426.76 -4.88334 0 -125.715
6503.82 -2.0831 0 -112.409
7619.72 0.995148 0 -90.2301
6540.41 -2.26403 0 -108.653
6522.12 -2.17391 0 -110.54
5411.54 -4.76242 0 -127.274
5381.1 -4.52137 0 -130.344
7555.56 1.16553 0 -96.7112
7598.34 1.05085 0 -92.4108
5396.32 -4.64188 0 -128.816
6467.22 -1.89977 0 -116.093
7576.95 1.10763 0 -94.5711
6503.82 -2.0831 0 -112.409
6485.52 -1.99172 0 -114.26
5381.1 -4.52137 0 -130.344
5350.65 -4.27992 0 -133.353
7512.78 1.28427 0 -100.93
7555.56 1.16553 0 -96.7112
5365.87 -4.40074 0 -131.856
6430.61 -1.71381 0 -119.706
7534.17 1.22443 0 -98.8308
6467.22 -1.89977 0 -116.093
6448.91 -1.80715 0 -117.908
5350.65 -4.27992 0 -133.353
5320.19 -4.03737 0 -136.303
7470 1.40671 0 -105.068
7512.78 1.28427 0 -100.93
5335.42 -4.15881 0 -134.835
6394 -1.52516 0 -123.249
7491.39 1.34502 0 -103.009
6430.61 -1.71381 0 -119.706
6412.31 -1.61981 0 -121.486
5320.19 -4.03737 0 -136.303
5289.74 -3.79343 0 -139.195
7427.22 1.53282 0 -109.126
7470 1.40671 0 -105.068
5304.96 -3.91558 0 -137.756
6357.39 -1.3339 0 -126.723
7448.61 1.46932 0 -107.107
6394 -1.52516 0 -123.249
6375.7 -1.42985 0 -124.995
5289.74 -3.79343 0 -139.195
5259.28 -3.54807 0 -142.03
7384.44 1.66233 0 -113.103
7427.22 1.53282 0 -109.126
5274.51 -3.67093 0 -140.619
6320.78 -1.14017 0 -130.129
7405.83 1.59716 0 -111.124
6357.39 -1.3339 0 -126.723
6339.09 -1.23733 0 -128.434
5259.28 -3.54807 0 -142.03
5228.82 -3.30134 0 -144.807
7341.65 1.79514 0 -117.001
7384.44 1.66233 0 -113.103
5244.05 -3.42487 0 -143.426
6284.17 -0.944114 0 -133.466
7363.04 1.72834 0 -115.062
6320.78 -1.14017 0 -130.129
6302.47 -1.04242 0 -131.806
5228.82 -3.30134 0 -144.807
5198.36 -3.05333 0 -147.528
7298.87 1.93102 0 -120.82
7341.65 1.79514 0 -117.001
5213.59 -3.17749 0 -146.175
6247.55 -0.745891 0 -136.735
7320.26 1.86271 0 -118.92
6284.17 -0.944114 0 -133.466
6265.86 -0.845264 0 -135.109
5198.36 -3.05333 0 -147.528
5167.89 -2.80414 0 -150.193
7256.09 2.06983 0 -124.56
7298.87 1.93102 0 -120.82
5183.13 -2.92887 0 -148.868
6210.94 -0.545647 0 -139.937
7277.48 2.00007 0 -122.7
6247.55 -0.745891 0 -136.735
6229.25 -0.646012 0 -138.344
5167.89 -2.80414 0 -150.193
5137.43 -2.55389 0 -152.802
7213.31 2.21137 0 -128.222
7256.09 2.06983 0 -124.56
5152.66 -2.67914 0 -151.505
6174.33 -0.343534 0 -143.072
7234.7 2.14027 0 -126.401
6210.94 -0.545647 0 -139.937
6192.63 -0.444815 0 -141.513
5137.43 -2.55389 0 -152.802
5106.97 -2.3027 0 -155.356
7170.52 2.35549 0 -131.806
7213.31 2.21137 0 -128.222
5122.2 -2.42841 0 -154.086
6137.71 -0.139698 0 -146.14
7191.92 2.28312 0 -130.024
6174.33 -0.343534 0 -143.072
6156.02 -0.241822 0 -144.614
5106.97 -2.3027 0 -155.356
5076.5 -2.05068 0 -157.854
7127.74 2.50199 0 -135.313
7170.52 2.35549 0 -131.806
5091.74 -2.17679 0 -156.612
6101.1 0.0657155 0 -149.142
7149.13 2.42845 0 -133.569
6137.71 -0.139698 0 -146.14
6119.4 -0.0371793 0 -147.649
5076.5 -2.05068 0 -157.854
5046.04 -1.79795 0 -160.298
7084.96 2.65073 0 -138.743
7127.74 2.50199 0 -135.313
5061.27 -1.9244 0 -159.083
6064.48 0.272563 0 -152.079
7106.35 2.57609 0 -137.038
6101.1 0.0657155 0 -149.142
6082.79 0.168969 0 -150.619
5046.04 -1.79795 0 -160.298
5015.58 -1.54462 0 -162.687
7042.18 2.80153 0 -142.097
7084.96 2.65073 0 -138.743
5030.81 -1.67135 0 -161.499
6027.87 0.480702 0 -154.95
7063.57 2.72588 0 -140.43
6064.48 0.272563 0 -152.079
6046.17 0.37648 0 -153.522
5015.58 -1.54462 0 -162.687
4985.11 -1.29081 0 -165.022
6999.4 2.95423 0 -145.375
7042.18 2.80153 0 -142.097
5000.34 -1.41777 0 -163.862
5991.25 0.689995 0 -157.756
7020.79 2.87765 0 -143.746
6027.87 0.480702 0 -154.95
6009.56 0.585213 0 -156.361
4985.11 -1.29081 0 -165.022
4954.65 -1.03664 0 -167.304
6956.62 3.10867 0 -148.578
6999.4 2.95423 0 -145.375
4969.88 -1.16376 0 -166.17
5954.64 0.900304 0 -160.497
6978.01 3.03125 0 -146.986
5991.25 0.689995 0 -157.756
5972.94 0.795031 0 -159.134
4954.65 -1.03664 0 -167.304
4924.18 -0.782207 0 -169.531
6913.84 3.2647 0 -151.706
6956.62 3.10867 0 -148.578
4939.42 -0.909446 0 -168.424
5918.02 1.11149 0 -163.174
6935.23 3.1865 0 -150.151
5954.64 0.900304 0 -160.497
5936.33 1.0058 0 -161.844
4924.18 -0.782207 0 -169.531
4893.72 -0.527638 0 -171.706
6871.06 3.42216 0 -154.759
6913.84 3.2647 0 -151.706
4908.95 -0.654933 0 -170.625
5881.41 1.32343 0 -165.788
6892.45 3.34326 0 -153.241
5918.02 1.11149 0 -163.174
5899.72 1.21738 0 -164.489
4893.72 -0.527638 0 -171.706
4863.26 -0.273035 0 -173.828
6828.29 3.58089 0 -157.738
6871.06 3.42216 0 -154.759
4878.49 -0.400333 0 -172.774
5844.8 1.53599 0 -168.338
6849.68 3.50138 0 -156.258
5881.41 1.32343 0 -165.788
5863.11 1.42964 0 -167.071
4863.26 -0.273035 0 -173.828
4832.79 -0.018506 0 -175.897
6785.51 3.74076 0 -160.643
6828.29 3.58089 0 -157.738
4848.02 -0.145754 0 -174.869
5808.19 1.74903 0 -170.825
6806.9 3.66069 0 -159.2
5844.8 1.53599 0 -168.338
5826.49 1.64246 0 -169.589
4832.79 -0.018506 0 -175.897
4802.33 0.235843 0 -177.914
6742.74 3.9016 0 -163.476
6785.51 3.74076 0 -160.643
4817.56 0.108698 0 -176.912
5771.58 1.96244 0 -173.249
6764.13 3.82107 0 -162.069
5808.19 1.74903 0 -170.825
5789.88 1.8557 0 -172.045
4802.33 0.235843 0 -177.914
4771.87 0.489911 0 -179.88
6699.97 4.06329 0 -166.236
6742.74 3.9016 0 -163.476
4787.1 0.362919 0 -178.903
5734.97 2.17609 0 -175.611
6721.35 3.98235 0 -164.865
5771.58 1.96244 0 -173.249
5753.27 2.06924 0 -174.438
4771.87 0.489911 0 -179.88
4741.41 0.743594 0 -181.794
6657.2 4.22567 0 -168.924
6699.97 4.06329 0 -166.236
4756.64 0.616807 0 -180.843
5698.36 2.38986 0 -177.912
6678.58 4.1444 0 -167.589
5734.97 2.17609 0 -175.611
5716.67 2.28297 0 -176.769
4741.41 0.743594 0 -181.794
4710.95 0.996795 0 -183.656
6614.43 4.38862 0 -171.54
6657.2 4.22567 0 -168.924
4726.18 0.870261 0 -182.731
5661.76 2.60364 0 -180.15
6635.82 4.30708 0 -170.241
5698.36 2.38986 0 -177.912
5680.06 2.49676 0 -179.039
4710.95 0.996795 0 -183.656
4680.49 1.24942 0 -185.468
6571.67 4.55198 0 -174.084
6614.43 4.38862 0 -171.54
4695.72 1.12318 0 -184.568
5625.15 2.81729 0 -182.328
6593.05 4.47025 0 -172.821
5661.76 2.60364 0 -180.15
5643.45 2.71048 0 -181.247
4680.49 1.24942 0 -185.468
4650.03 1.50136 0 -187.229
6528.91 4.71564 0 -176.559
6571.67 4.55198 0 -174.084
4665.26 1.37548 0 -186.355
5588.55 3.03072 0 -184.446
6550.29 4.63378 0 -175.33
5625.15 2.81729 0 -182.328
5606.85 2.92404 0 -183.394
4650.03 1.50136 0 -187.229
4619.58 1.75254 0 -188.94
6486.15 4.87945 0 -178.962
6528.91 4.71564 0 -176.559
4634.8 1.62705 0 -188.091
5551.95 3.2438 0 -186.503
6507.53 4.79753 0 -177.769
5588.55 3.03072 0 -184.446
5570.25 3.13731 0 -185.482
4619.58 1.75254 0 -188.94
4589.12 2.00286 0 -190.602
6443.39 5.04329 0 -181.296
6486.15 4.87945 0 -178.962
4604.35 1.87781 0 -189.777
5515.35 3.45643 0 -188.5
6464.77 4.96137 0 -180.138
5551.95 3.2438 0 -186.503
5533.65 3.35018 0 -187.509
4589.12 2.00286 0 -190.602
4558.67 2.25222 0 -192.213
6400.63 5.20704 0 -183.561
6443.39 5.04329 0 -181.296
4573.89 2.12766 0 -191.414
5478.75 3.66851 0 -190.437
6422.01 5.12519 0 -182.437
5515.35 3.45643 0 -188.5
5497.05 3.56255 0 -189.476
4558.67 2.25222 0 -192.213
4528.21 2.50055 0 -193.776
6357.88 5.37057 0 -185.756
6400.63 5.20704 0 -183.561
4543.44 2.37652 0 -193.001
5442.16 3.87991 0 -192.316
6379.26 5.28884 0 -184.667
5478.75 3.66851 0 -190.437
5460.46 3.7743 0 -191.384
4528.21 2.50055 0 -193.776
4497.76 2.74776 0 -195.29
6315.13 5.53376 0 -187.884
6357.88 5.37057 0 -185.756
4512.99 2.6243 0 -194.539
5405.57 4.09055 0 -194.136
6336.51 5.45221 0 -186.829
5442.16 3.87991 0 -192.316
5423.86 3.98533 0 -193.234
4497.76 2.74776 0 -195.29
4467.32 2.99375 0 -196.755
6272.39 5.69649 0 -189.943
6315.13 5.53376 0 -187.884
4482.54 2.87091 0 -196.028
5368.98 4.30032 0 -195.898
6293.76 5.61519 0 -188.922
5405.57 4.09055 0 -194.136
5387.27 4.19555 0 -195.024
4467.32 2.99375 0 -196.755
4436.87 3.23845 0 -198.172
6229.65 5.85864 0 -191.935
6272.39 5.69649 0 -189.943
4452.09 3.11627 0 -197.47
5332.39 4.50911 0 -197.602
6251.02 5.77764 0 -190.947
5368.98 4.30032 0 -195.898
5350.68 4.40484 0 -196.757
4436.87 3.23845 0 -198.172
4406.42 3.48178 0 -199.541
6186.91 6.02011 0 -193.86
6229.65 5.85864 0 -191.935
4421.65 3.3603 0 -198.863
5295.8 4.71684 0 -199.249
6208.28 5.93947 0 -192.906
5332.39 4.50911 0 -197.602
5314.1 4.61312 0 -198.433
4406.42 3.48178 0 -199.541
4375.98 3.72366 0 -200.863
6144.17 6.18078 0 -195.718
6186.91 6.02011 0 -193.86
4391.2 3.60291 0 -200.208
5259.22 4.92341 0 -200.838
6165.54 6.10055 0 -194.797
5295.8 4.71684 0 -199.249
5277.51 4.82028 0 -200.051
4375.98 3.72366 0 -200.863
4345.54 3.96401 0 -202.138
6101.44 6.34053 0 -197.51
6144.17 6.18078 0 -195.718
4360.76 3.84403 0 -201.506
5222.64 5.12872 0 -202.371
6122.81 6.26078 0 -196.622
5259.22 4.92341 0 -200.838
5240.93 5.02623 0 -201.612
4345.54 3.96401 0 -202.138
4315.1 4.20276 0 -203.365
6058.71 6.49928 0 -199.236
6101.44 6.34053 0 -197.51
4330.32 4.08359 0 -202.757
5186.07 5.33268 0 -203.848
6080.08 6.42004 0 -198.381
5222.64 5.12872 0 -202.371
5204.35 5.23088 0 -203.117
4315.1 4.20276 0 -203.365
4284.66 4.43982 0 -204.546
6015.99 6.65691 0 -200.897
6058.71 6.49928 0 -199.236
4299.88 4.3215 0 -203.962
5149.49 5.53521 0 -205.269
6037.35 6.57824 0 -200.075
5186.07 5.33268 0 -203.848
5167.78 5.43413 0 -204.565
4284.66 4.43982 0 -204.546
4254.23 4.67513 0 -205.681
5973.27 6.81331 0 -202.494
6015.99 6.65691 0 -200.897
4269.45 4.5577 0 -205.12
5112.92 5.73622 0 -206.634
5994.63 6.73527 0 -201.704
5149.49 5.53521 0 -205.269
5131.21 5.63591 0 -205.958
4254.23 4.67513 0 -205.681
4223.8 4.90862 0 -206.77
5930.56 6.9684 0 -204.026
5973.27 6.81331 0 -202.494
4239.01 4.79211 0 -206.232
5076.35 5.93562 0 -207.945
5951.91 6.89103 0 -203.268
5112.92 5.73622 0 -206.634
5094.64 5.83612 0 -207.296
4223.8 4.90862 0 -206.77
4193.37 5.14022 0 -207.814
5887.84 7.12207 0 -205.495
5930.56 6.9684 0 -204.026
4208.58 5.02466 0 -207.298
5039.79 6.13332 0 -209.2
5909.2 7.04542 0 -204.769
5076.35 5.93562 0 -207.945
5058.07 6.03469 0 -208.579
4193.37 5.14022 0 -207.814
4162.94 5.36985 0 -208.812
5845.14 7.27423 0 -206.9
5887.84 7.12207 0 -205.495
4178.15 5.25528 0 -208.319
5003.23 6.32926 0 -210.402
5866.49 7.19835 0 -206.205
5039.79 6.13332 0 -209.2
5021.51 6.23152 0 -209.808
4162.94 5.36985 0 -208.812
4132.52 5.59747 0 -209.766
5802.43 7.42479 0 -208.243
5845.14 7.27423 0 -206.9
4147.73 5.48392 0 -209.295
4966.67 6.52334 0 -211.549
5823.79 7.34971 0 -207.579
5003.23 6.32926 0 -210.402
4984.95 6.42653 0 -210.982
4132.52 5.59747 0 -209.766
4102.09 5.82299 0 -210.675
5759.74 7.57365 0 -209.523
5802.43 7.42479 0 -208.243
4117.3 5.71049 0 -210.226
4930.12 6.71549 0 -212.644
5781.08 7.49943 0 -208.89
4966.67 6.52334 0 -211.549
4948.4 6.61966 0 -212.103
4102.09 5.82299 0 -210.675
4071.67 6.04636 0 -211.54
5717.04 7.72073 0 -210.741
5759.74 7.57365 0 -209.523
4086.88 5.93494 0 -211.113
4893.57 6.90564 0 -213.685
5738.39 7.64742 0 -210.139
4930.12 6.71549 0 -212.644
4911.84 6.81082 0 -213.171
4071.67 6.04636 0 -211.54
4041.26 6.26751 0 -212.361
5674.35 7.86594 0 -211.897
5717.04 7.72073 0 -210.741
4056.47 6.15721 0 -211.956
4857.02 7.09372 0 -214.673
5695.7 7.79357 0 -211.327
4893.57 6.90564 0 -213.685
4875.3 6.99994 0 -214.186
4041.26 6.26751 0 -212.361
4010.84 6.48639 0 -213.139
5631.67 8.0092 0 -212.993
5674.35 7.86594 0 -211.897
4026.05 6.37724 0 -212.755
4820.48 7.27964 0 -215.61
5653.01 7.93782 0 -212.453
4857.02 7.09372 0 -214.673
4838.75 7.18695 0 -215.148
4010.84 6.48639 0 -213.139
3980.43 6.70294 0 -213.873
5588.99 8.15043 0 -214.028
5631.67 8.0092 0 -212.993
3995.64 6.59496 0 -213.511
4783.94 7.46334 0 -216.494
5610.33 8.08007 0 -213.518
4820.48 7.27964 0 -215.61
4802.21 7.37177 0 -216.058
3980.43 6.70294 0 -213.873
3950.03 6.91711 0 -214.564
5546.31 8.28955 0 -215.004
5588.99 8.15043 0 -214.028
3965.23 6.81033 0 -214.224
4747.41 7.64476 0 -217.327
5567.65 8.22026 0 -214.523
4783.94 7.46334 0 -216.494
4765.67 7.55434 0 -216.917
3950.03 6.91711 0 -214.564
3919.62 7.12883 0 -215.213
5503.65 8.42648 0 -215.919
5546.31 8.28955 0 -215.004
3934.82 7.02327 0 -214.894
4710.88 7.82383 0 -218.109
5524.98 8.35829 0 -215.469
4747.41 7.64476 0 -217.327
4729.14 7.73459 0 -217.724
3919.62 7.12883 0 -215.213
3889.22 7.33805 0 -215.82
5460.98 8.56114 0 -216.776
5503.65 8.42648 0 -215.919
3904.42 7.23375 0 -215.522
4674.35 8.00048 0 -218.84
5482.31 8.4941 0 -216.355
4710.88 7.82383 0 -218.109
4692.61 7.91246 0 -218.481
3889.22 7.33805 0 -215.82
3858.82 7.54473 0 -216.385
5418.32 8.69347 0 -217.573
5460.98 8.56114 0 -216.776
3874.02 7.44171 0 -216.108
4637.83 8.17465 0 -219.521
5439.65 8.6276 0 -217.182
4674.35 8.00048 0 -218.84
4656.09 8.08788 0 -219.187
3858.82 7.54473 0 -216.385
3828.42 7.74881 0 -216.908
5375.67 8.82339 0 -218.313
5418.32 8.69347 0 -217.573
3843.62 7.64709 0 -216.652
4601.31 8.34628 0 -220.153
5396.99 8.75874 0 -217.951
4637.83 8.17465 0 -219.521
4619.57 8.26079 0 -219.843
3828.42 7.74881 0 -216.908
3798.03 7.95024 0 -217.39
5333.02 8.95084 0 -218.995
5375.67 8.82339 0 -218.313
3813.23 7.84985 0 -217.154
4564.79 8.51532 0 -220.734
5354.34 8.88743 0 -218.661
4601.31 8.34628 0 -220.153
4583.05 8.43113 0 -220.45
3798.03 7.95024 0 -217.39
3767.64 8.14897 0 -217.832
5290.38 9.07575 0 -219.62
5333.02 8.95084 0 -218.995
3782.84 8.04995 0 -217.616
4528.28 8.6817 0 -221.267
5311.7 9.01362 0 -219.315
4564.79 8.51532 0 -220.734
4546.54 8.59884 0 -221.007
3767.64 8.14897 0 -217.832
3737.26 8.34497 0 -218.233
5247.74 9.19805 0 -220.188
5290.38 9.07575 0 -219.62
3752.45 8.24732 0 -218.037
4491.78 8.84537 0 -221.751
5269.06 9.13723 0 -219.911
4528.28 8.6817 0 -221.267
4510.03 8.76387 0 -221.515
3737.26 8.34497 0 -218.233
3706.88 8.53818 0 -218.593
5205.1 9.31768 0 -220.699
5247.74 9.19805 0 -220.188
3722.07 8.44193 0 -218.418
4455.28 9.00627 0 -222.187
5226.42 9.2582 0 -220.45
4491.78 8.84537 0 -221.751
4473.53 8.92617 0 -221.975
3706.88 8.53818 0 -218.593
3676.5 8.72857 0 -218.914
5162.48 9.43458 0 -221.155
5205.1 9.31768 0 -220.699
3691.69 8.63373 0 -218.758
4418.78 9.16437 0 -222.575
5183.79 9.37647 0 -220.934
4455.28 9.00627 0 -222.187
4437.03 9.08567 0 -222.387
3676.5 8.72857 0 -218.914
3646.12 8.91609 0 -219.195
5119.86 9.5487 0 -221.555
5162.48 9.43458 0 -221.155
3661.31 8.82269 0 -219.059
4382.29 9.31959 0 -222.915
5141.17 9.49199 0 -221.362
4418.78 9.16437 0 -222.575
4400.53 9.24234 0 -222.751
3646.12 8.91609 0 -219.195
3615.75 9.10069 0 -219.437
5077.24 9.65997 0 -221.901
5119.86 9.5487 0 -221.555
3630.93 9.00876 0 -219.321
4345.8 9.47191 0 -223.209
5098.55 9.60469 0 -221.735
4382.29 9.31959 0 -222.915
4364.04 9.39612 0 -223.068
3615.75 9.10069 0 -219.437
3585.38 9.28235 0 -219.64
5034.63 9.76834 0 -222.192
5077.24 9.65997 0 -221.901
3600.56 9.19189 0 -219.544
4309.31 9.62126 0 -223.456
5055.93 9.71452 0 -222.053
4345.8 9.47191 0 -223.209
4327.55 9.54696 0 -223.338
3585.38 9.28235 0 -219.64
3555.02 9.46103 0 -219.805
4992.03 9.87377 0 -222.429
5034.63 9.76834 0 -222.192
3570.2 9.37207 0 -219.727
4272.83 9.76762 0 -223.656
5013.33 9.82143 0 -222.317
4309.31 9.62126 0 -223.456
4291.07 9.69482 0 -223.562
3555.02 9.46103 0 -219.805
3524.65 9.63668 0 -219.931
4949.43 9.97619 0 -222.612
4992.03 9.87377 0 -222.429
3539.83 9.54923 0 -219.873
4236.36 9.91092 0 -223.811
4970.73 9.92536 0 -222.527
4272.83 9.76762 0 -223.656
4254.6 9.83965 0 -223.739
3524.65 9.63668 0 -219.931
3494.3 9.80928 0 -220.02
4906.84 10.0756 0 -222.743
4949.43 9.97619 0 -222.612
3509.47 9.72336 0 -219.98
4199.89 10.0511 0 -223.92
4928.13 10.0263 0 -222.684
4236.36 9.91092 0 -223.811
4218.13 9.98142 0 -223.871
3494.3 9.80928 0 -220.02
3463.94 9.97879 0 -220.071
4864.25 10.1719 0 -222.82
4906.84 10.0756 0 -222.743
3479.12 9.89442 0 -220.05
4163.43 10.1882 0 -223.984
4885.54 10.1241 0 -222.788
4199.89 10.0511 0 -223.92
4181.66 10.1201 0 -223.958
3463.94 9.97879 0 -220.071
3433.59 10.1452 0 -220.085
4821.67 10.265 0 -222.846
4864.25 10.1719 0 -222.82
3448.77 10.0624 0 -220.082
4126.97 10.3221 0 -224.004
4842.96 10.2188 0 -222.84
4163.43 10.1882 0 -223.984
4145.2 10.2556 0 -223.999
3433.59 10.1452 0 -220.085
3403.25 10.3084 0 -220.062
4779.09 10.3549 0 -222.82
4821.67 10.265 0 -222.846
3418.42 10.2272 0 -220.078
4090.51 10.4529 0 -223.979
4800.38 10.3104 0 -222.839
4126.97 10.3221 0 -224.004
4108.74 10.3879 0 -223.997
3403.25 10.3084 0 -220.062
3372.9 10.4685 0 -220.002
4736.53 10.4417 0 -222.743
4779.09 10.3549 0 -222.82
3388.07 10.3888 0 -220.036
4054.06 10.5803 0 -223.91
4757.81 10.3987 0 -222.788
4090.51 10.4529 0 -223.979
4072.29 10.517 0 -223.95
3372.9 10.4685 0 -220.002
3342.56 10.6253 0 -219.906
4693.96 10.5252 0 -222.615
4736.53 10.4417 0 -222.743
3357.73 10.5473 0 -219.958
4017.62 10.7045 0 -223.798
4715.24 10.4838 0 -222.685
4054.06 10.5803 0 -223.91
4035.84 10.6428 0 -223.859
3342.56 10.6253 0 -219.906
3312.23 10.7789 0 -219.774
4651.41 10.6053 0 -222.436
4693.96 10.5252 0 -222.615
3327.4 10.7025 0 -219.845
3981.18 10.8254 0 -223.643
4672.68 10.5657 0 -222.532
4017.62 10.7045 0 -223.798
3999.4 10.7654 0 -223.726
3312.23 10.7789 0 -219.774
3281.9 10.9293 0 -219.607
4608.86 10.6822 0 -222.208
4651.41 10.6053 0 -222.436
3297.06 10.8545 0 -219.695
3944.74 10.943 0 -223.445
4630.13 10.6442 0 -222.329
3981.18 10.8254 0 -223.643
3962.96 10.8846 0 -223.549
3281.9 10.9293 0 -219.607
3251.57 11.0764 0 -219.405
4566.31 10.7556 0 -221.931
4608.86 10.6822 0 -222.208
3266.73 11.0032 0 -219.51
3908.31 11.0572 0 -223.205
4587.58 10.7193 0 -222.076
3944.74 10.943 0 -223.445
3926.52 11.0005 0 -223.33
3251.57 11.0764 0 -219.405
3221.25 11.2201 0 -219.167
4523.78 10.8257 0 -221.605
4566.31 10.7556 0 -221.931
3236.41 11.1487 0 -219.29
3871.88 11.168 0 -222.923
4545.04 10.7911 0 -221.774
3908.31 11.0572 0 -223.205
3890.1 11.113 0 -223.069
3221.25 11.2201 0 -219.167
3190.93 11.3606 0 -218.895
4481.24 10.8923 0 -221.23
4523.78 10.8257 0 -221.605
3206.09 11.2908 0 -219.036
3835.46 11.2754 0 -222.599
4502.51 10.8594 0 -221.423
3871.88 11.168 0 -222.923
3853.67 11.2221 0 -222.766
3190.93 11.3606 0 -218.895
3160.61 11.4976 0 -218.589
4438.72 10.9555 0 -220.807
4481.24 10.8923 0 -221.23
3175.77 11.4295 0 -218.746
3799.05 11.3794 0 -222.234
4459.98 10.9243 0 -221.024
3835.46 11.2754 0 -222.599
3817.26 11.3278 0 -222.422
3160.61 11.4976 0 -218.589
3130.3 11.6314 0 -218.249
4396.2 11.0152 0 -220.337
4438.72 10.9555 0 -220.807
3145.46 11.5649 0 -218.423
3762.64 11.4799 0 -221.829
4417.46 10.9858 0 -220.578
3799.05 11.3794 0 -222.234
3780.84 11.4301 0 -222.037
3130.3 11.6314 0 -218.249
3099.99 11.7617 0 -217.875
4353.69 11.0713 0 -219.82
4396.2 11.0152 0 -220.337
3115.15 11.697 0 -218.066
3726.23 11.5769 0 -221.383
4374.94 11.0437 0 -220.084
3762.64 11.4799 0 -221.829
3744.43 11.5288 0 -221.611
3099.99 11.7617 0 -217.875
3069.69 11.8886 0 -217.469
4311.18 11.124 0 -219.256
4353.69 11.0713 0 -219.82
3084.84 11.8256 0 -217.676
3689.83 11.6704 0 -220.898
4332.43 11.0981 0 -219.544
3726.23 11.5769 0 -221.383
3708.03 11.6241 0 -221.145
3069.69 11.8886 0 -217.469
3039.39 12.0121 0 -217.029
4268.68 11.1731 0 -218.646
4311.18 11.124 0 -219.256
3054.54 11.9508 0 -217.253
3653.44 11.7603 0 -220.373
4289.93 11.149 0 -218.957
3689.83 11.6704 0 -220.898
3671.63 11.7158 0 -220.64
3039.39 12.0121 0 -217.029
3009.09 12.1322 0 -216.556
4226.19 11.2186 0 -217.99
4268.68 11.1731 0 -218.646
3024.24 12.0726 0 -216.797
3617.05 11.8468 0 -219.808
4247.43 11.1962 0 -218.324
3653.44 11.7603 0 -220.373
3635.24 11.804 0 -220.095
3009.09 12.1322 0 -216.556
2978.8 12.2489 0 -216.052
4183.7 11.2605 0 -217.289
4226.19 11.2186 0 -217.99
2993.95 12.191 0 -216.308
3580.66 11.9297 0 -219.206
4204.94 11.24 0 -217.646
3617.05 11.8468 0 -219.808
3598.85 11.8887 0 -219.512
2978.8 12.2489 0 -216.052
2948.51 12.3621 0 -215.515
4141.22 11.2988 0 -216.544
4183.7 11.2605 0 -217.289
2963.66 12.3059 0 -215.788
3544.28 12.009 0 -218.564
4162.46 11.2801 0 -216.922
3580.66 11.9297 0 -219.206
3562.47 11.9698 0 -218.89
2948.51 12.3621 0 -215.515
2918.23 12.4718 0 -214.947
4098.75 11.3334 0 -215.754
4141.22 11.2988 0 -216.544
2933.37 12.4174 0 -215.235
3507.91 12.0847 0 -217.885
4119.98 11.3165 0 -216.155
3544.28 12.009 0 -218.564
3526.1 12.0473 0 -218.23
2918.23 12.4718 0 -214.947
2887.95 12.578 0 -214.348
4056.28 11.3644 0 -214.921
4098.75 11.3334 0 -215.754
2903.09 12.5253 0 -214.651
3471.54 12.1568 0 -217.169
4077.51 11.3494 0 -215.343
3507.91 12.0847 0 -217.885
3489.72 12.1212 0 -217.532
2887.95 12.578 0 -214.348
2857.67 12.6808 0 -213.718
4013.82 11.3918 0 -214.044
4056.28 11.3644 0 -214.921
2872.81 12.6298 0 -214.037
3435.18 12.2254 0 -216.415
4035.05 11.3786 0 -214.487
3471.54 12.1568 0 -217.169
3453.36 12.1915 0 -216.796
2857.67 12.6808 0 -213.718
2827.4 12.78 0 -213.057
3971.36 11.4155 0 -213.124
4013.82 11.3918 0 -214.044
2842.54 12.7308 0 -213.391
3398.82 12.2903 0 -215.624
3992.59 11.4041 0 -213.589
3435.18 12.2254 0 -216.415
3417 12.2583 0 -216.024
2827.4 12.78 0 -213.057
2797.13 12.8758 0 -212.366
3928.91 11.4356 0 -212.162
3971.36 11.4155 0 -213.124
2812.27 12.8284 0 -212.715
3362.46 12.3516 0 -214.797
3950.14 11.426 0 -212.648
3398.82 12.2903 0 -215.624
3380.64 12.3214 0 -215.215
2797.13 12.8758 0 -212.366
2766.87 12.9681 0 -211.644
3886.47 11.4519 0 -211.157
3928.91 11.4356 0 -212.162
2782 12.9224 0 -212.009
3326.12 12.4092 0 -213.934
3907.69 11.4442 0 -211.665
3362.46 12.3516 0 -214.797
3344.29 12.3808 0 -214.37
2766.87 12.9681 0 -211.644
2736.61 13.0568 0 -210.894
3844.04 11.4646 0 -210.112
3886.47 11.4519 0 -211.157
2751.74 13.0129 0 -211.273
3289.77 12.4632 0 -213.036
3865.25 11.4587 0 -210.64
3326.12 12.4092 0 -213.934
3307.94 12.4367 0 -213.49
2736.61 13.0568 0 -210.894
2706.36 13.1421 0 -210.114
3801.61 11.4736 0 -209.025
3844.04 11.4646 0 -210.112
2721.48 13.0999 0 -210.507
3253.44 12.5136 0 -212.102
3822.82 11.4695 0 -209.573
3289.77 12.4632 0 -213.036
3271.6 12.4889 0 -212.574
2706.36 13.1421 0 -210.114
2676.1 13.2238 0 -209.305
3759.19 11.4789 0 -207.898
3801.61 11.4736 0 -209.025
2691.23 13.1834 0 -209.713
3217.1 12.5604 0 -211.134
3780.4 11.4767 0 -208.466
3253.44 12.5136 0 -212.102
3235.27 12.5375 0 -211.623
2676.1 13.2238 0 -209.305
2645.86 13.302 0 -208.467
3716.77 11.4805 0 -206.73
3759.19 11.4789 0 -207.898
2660.98 13.2633 0 -208.89
3180.78 12.6035 0 -210.131
3737.98 11.4801 0 -207.319
3217.1 12.5604 0 -211.134
3198.94 12.5824 0 -210.637
2645.86 13.302 0 -208.467
2615.61 13.3767 0 -207.601
3674.36 11.4784 0 -205.523
3716.77 11.4805 0 -206.73
2630.74 13.3398 0 -208.038
3144.45 12.643 0 -209.095
3695.57 11.4799 0 -206.131
3180.78 12.6035 0 -210.131
3162.61 12.6237 0 -209.617
2615.61 13.3767 0 -207.601
2585.37 13.4479 0 -206.708
3631.96 11.4726 0 -204.277
3674.36 11.4784 0 -205.523
2600.49 13.4127 0 -207.158
3108.14 12.6788 0 -208.025
3653.16 11.4759 0 -204.905
3144.45 12.643 0 -209.095
3126.29 12.6613 0 -208.564
2585.37 13.4479 0 -206.708
2555.14 13.5156 0 -205.786
3589.56 11.4631 0 -202.992
3631.96 11.4726 0 -204.277
2570.26 13.4822 0 -206.25
3071.82 12.711 0 -206.921
3610.76 11.4683 0 -203.639
3108.14 12.6788 0 -208.025
3089.98 12.6954 0 -207.477
2555.14 13.5156 0 -205.786
2524.91 13.5798 0 -204.837
3547.17 11.4499 0 -201.668
3589.56 11.4631 0 -202.992
2540.02 13.5481 0 -205.315
3035.52 12.7396 0 -205.785
3568.37 11.457 0 -202.335
3071.82 12.711 0 -206.921
3053.67 12.7257 0 -206.357
2524.91 13.5798 0 -204.837
2494.68 13.6404 0 -203.862
3504.79 11.4331 0 -200.307
3547.17 11.4499 0 -201.668
2509.79 13.6105 0 -204.353
2999.22 12.7645 0 -204.616
3525.98 11.442 0 -200.992
3035.52 12.7396 0 -205.785
3017.37 12.7525 0 -205.205
2494.68 13.6404 0 -203.862
2464.46 13.6976 0 -202.859
3462.41 11.4125 0 -198.908
3504.79 11.4331 0 -200.307
2479.57 13.6694 0 -203.364
2962.92 12.7858 0 -203.415
3483.6 11.4233 0 -199.612
2999.22 12.7645 0 -204.616
2981.07 12.7756 0 -204.02
2464.46 13.6976 0 -202.859
2434.24 13.7513 0 -201.83
3420.04 11.3884 0 -197.473
3462.41 11.4125 0 -198.908
2449.35 13.7249 0 -202.348
2926.63 12.8035 0 -202.183
3441.22 11.4009 0 -198.195
2962.92 12.7858 0 -203.415
2944.77 12.7951 0 -202.803
2434.24 13.7513 0 -201.83
2404.02 13.8015 0 -200.776
3377.68 11.3605 0 -196.001
3420.04 11.3884 0 -197.473
2419.13 13.7768 0 -201.306
2890.34 12.8176 0 -200.92
3398.86 11.3749 0 -196.742
2926.63 12.8035 0 -202.183
2908.49 12.811 0 -201.555
2404.02 13.8015 0 -200.776
2373.81 13.8482 0 -199.695
3335.32 11.329 0 -194.493
3377.68 11.3605 0 -196.001
2388.92 13.8253 0 -200.238
2854.06 12.8281 0 -199.625
3356.5 11.3452 0 -195.252
2890.34 12.8176 0 -200.92
2872.2 12.8233 0 -200.276
2373.81 13.8482 0 -199.695
2343.61 13.8914 0 -198.589
3292.97 11.2939 0 -192.95
3335.32 11.329 0 -194.493
2358.71 13.8702 0 -199.145
2817.79 12.835 0 -198.301
3314.14 11.3119 0 -193.726
2854.06 12.8281 0 -199.625
2835.92 12.832 0 -198.967
2343.61 13.8914 0 -198.589
2313.4 13.9312 0 -197.458
3250.62 11.2552 0 -191.371
3292.97 11.2939 0 -192.95
2328.5 13.9117 0 -198.027
2781.52 12.8383 0 -196.946
3271.79 11.275 0 -192.165
2817.79 12.835 0 -198.301
2799.65 12.8371 0 -197.627
2313.4 13.9312 0 -197.458
2283.2 13.9675 0 -196.303
3208.28 11.2128 0 -189.758
3250.62 11.2552 0 -191.371
2298.3 13.9498 0 -196.884
2745.25 12.8381 0 -195.561
3229.45 11.2344 0 -190.569
2781.52 12.8383 0 -196.946
2763.38 12.8386 0 -196.257
2283.2 13.9675 0 -196.303
2253.01 14.0004 0 -195.123
3165.95 11.1669 0 -188.111
3208.28 11.2128 0 -189.758
2268.11 13.9844 0 -195.716
2708.99 12.8343 0 -194.148
3187.11 11.1903 0 -188.939
2745.25 12.8381 0 -195.561
2727.12 12.8366 0 -194.858
2253.01 14.0004 0 -195.123
2222.82 14.0299 0 -193.919
3123.62 11.1174 0 -186.43
3165.95 11.1669 0 -188.111
2237.91 14.0156 0 -194.524
2672.73 12.827 0 -192.705
3144.78 11.1426 0 -187.275
2708.99 12.8343 0 -194.148
2690.86 12.8311 0 -193.43
2222.82 14.0299 0 -193.919
2192.63 14.056 0 -192.691
3081.3 11.0643 0 -184.716
3123.62 11.1174 0 -186.43
2207.72 14.0434 0 -193.308
2636.48 12.8161 0 -191.234
3102.46 11.0913 0 -185.577
2672.73 12.827 0 -192.705
2654.61 12.822 0 -191.973
2192.63 14.056 0 -192.691
2162.45 14.0787 0 -191.44
3038.99 11.0077 0 -182.969
3081.3 11.0643 0 -184.716
2177.54 14.0677 0 -192.069
2600.24 12.8018 0 -189.735
3060.14 11.0365 0 -183.846
2636.48 12.8161 0 -191.234
2618.36 12.8094 0 -190.488
2162.45 14.0787 0 -191.44
2132.27 14.0979 0 -190.166
2996.68 10.9476 0 -181.189
3038.99 11.0077 0 -182.969
2147.36 14.0887 0 -190.806
2564 12.784 0 -188.208
3017.83 10.9781 0 -182.083
2600.24 12.8018 0 -189.735
2582.12 12.7933 0 -188.975
2132.27 14.0979 0 -190.166
2102.09 14.1139 0 -188.869
2954.38 10.884 0 -179.378
2996.68 10.9476 0 -181.189
2117.18 14.1063 0 -189.521
2527.76 12.7627 0 -186.654
2975.53 10.9163 0 -180.288
2564 12.784 0 -188.208
2545.88 12.7738 0 -187.434
2102.09 14.1139 0 -188.869
2071.92 14.1264 0 -187.55
2912.08 10.817 0 -177.535
2954.38 10.884 0 -179.378
2087 14.1206 0 -188.213
2491.53 12.7379 0 -185.072
2933.23 10.8509 0 -178.461
2527.76 12.7627 0 -186.654
2509.65 12.7507 0 -185.866
2071.92 14.1264 0 -187.55
2041.75 14.1357 0 -186.209
2869.79 10.7465 0 -175.662
2912.08 10.817 0 -177.535
2056.83 14.1315 0 -186.882
2455.31 12.7098 0 -183.465
2890.94 10.7822 0 -176.602
2491.53 12.7379 0 -185.072
2473.42 12.7243 0 -184.272
2041.75 14.1357 0 -186.209
2011.59 14.1416 0 -184.846
2827.51 10.6726 0 -173.758
2869.79 10.7465 0 -175.662
2026.67 14.139 0 -185.53
2419.09 12.6782 0 -181.831
2848.65 10.7099 0 -174.713
2455.31 12.7098 0 -183.465
2437.2 12.6944 0 -182.651
2011.59 14.1416 0 -184.846
1981.43 14.1442 0 -183.461
2785.23 10.5952 0 -171.823
2827.51 10.6726 0 -173.758
1996.51 14.1433 0 -184.156
2382.87 12.6433 0 -180.171
2806.37 10.6343 0 -172.794
2419.09 12.6782 0 -181.831
2400.98 12.6612 0 -181.004
1981.43 14.1442 0 -183.461
1951.27 14.1435 0 -182.056
2742.96 10.5146 0 -169.86
2785.23 10.5952 0 -171.823
1966.35 14.1443 0 -182.761
2346.66 12.605 0 -178.487
2764.1 10.5553 0 -170.845
2382.87 12.6433 0 -180.171
2364.76 12.6245 0 -179.332
1951.27 14.1435 0 -182.056
1921.12 14.1396 0 -180.629
2700.7 10.4305 0 -167.867
2742.96 10.5146 0 -169.86
1936.19 14.142 0 -181.345
2310.45 12.5633 0 -176.777
2721.83 10.473 0 -168.867
2346.66 12.605 0 -178.487
2328.56 12.5846 0 -177.635
1921.12 14.1396 0 -180.629
1890.97 14.1325 0 -179.182
2658.44 10.3432 0 -165.845
2700.7 10.4305 0 -167.867
1906.04 14.1365 0 -179.908
2274.25 12.5184 0 -175.042
2679.56 10.3873 0 -166.859
2310.45 12.5633 0 -176.777
2292.35 12.5413 0 -175.913
1890.97 14.1325 0 -179.182
1860.82 14.1221 0 -177.715
2616.18 10.2526 0 -163.795
2658.44 10.3432 0 -165.845
1875.89 14.1277 0 -178.451
2238.06 12.4702 0 -173.284
2637.31 10.2983 0 -164.824
2274.25 12.5184 0 -175.042
2256.15 12.4947 0 -174.166
1860.82 14.1221 0 -177.715
1830.68 14.1086 0 -176.228
2573.93 10.1588 0 -161.717
2616.18 10.2526 0 -163.795
1845.75 14.1157 0 -176.974
2201.86 12.4187 0 -171.501
2595.06 10.2061 0 -162.76
2238.06 12.4702 0 -173.284
2219.96 12.4448 0 -172.396
1830.68 14.1086 0 -176.228
1800.54 14.0918 0 -174.722
2531.69 10.0617 0 -159.612
2573.93 10.1588 0 -161.717
1815.61 14.1006 0 -175.478
2165.68 12.364 0 -169.696
2552.81 10.1106 0 -160.668
2201.86 12.4187 0 -171.501
2183.77 12.3917 0 -170.601
1800.54 14.0918 0 -174.722
1770.4 14.072 0 -173.197
2489.46 9.96147 0 -157.481
2531.69 10.0617 0 -159.612
1785.47 14.0823 0 -173.962
2129.49 12.3061 0 -167.867
2510.57 10.012 0 -158.55
2165.68 12.364 0 -169.696
2147.58 12.3354 0 -168.784
1770.4 14.072 0 -173.197
1740.27 14.049 0 -171.652
2447.23 9.85809 0 -155.322
2489.46 9.96147 0 -157.481
1755.34 14.0609 0 -172.427
2093.31 12.245 0 -166.015
2468.34 9.91017 0 -156.405
2129.49 12.3061 0 -167.867
2111.4 12.276 0 -166.944
1740.27 14.049 0 -171.652
1710.14 14.0229 0 -170.089
2405 9.7516 0 -153.138
2447.23 9.85809 0 -155.322
1725.21 14.0364 0 -170.873
2057.14 12.1808 0 -164.142
2426.11 9.80523 0 -154.233
2093.31 12.245 0 -166.015
2075.23 12.2133 0 -165.081
1710.14 14.0229 0 -170.089
1680.02 13.9938 0 -168.508
2362.78 9.64204 0 -150.928
2405 9.7516 0 -153.138
1695.08 14.0087 0 -169.301
2020.97 12.1135 0 -162.246
2383.89 9.6972 0 -152.036
2057.14 12.1808 0 -164.142
2039.06 12.1475 0 -163.197
1680.02 13.9938 0 -168.508
1649.9 13.9616 0 -166.91
2320.57 9.52944 0 -148.694
2362.78 9.64204 0 -150.928
1664.96 13.9781 0 -167.711
1984.81 12.0431 0 -160.329
2341.67 9.58612 0 -149.814
2020.97 12.1135 0 -162.246
2002.89 12.0787 0 -161.29
1649.9 13.9616 0 -166.91
1619.78 13.9264 0 -165.293
2278.36 9.41385 0 -146.434
2320.57 9.52944 0 -148.694
1634.84 13.9444 0 -166.104
1948.65 11.9697 0 -158.391
2299.46 9.47202 0 -147.567
1984.81 12.0431 0 -160.329
1966.73 12.0068 0 -159.363
1619.78 13.9264 0 -165.293
1589.67 13.8882 0 -163.659
2236.16 9.29529 0 -144.151
2278.36 9.41385 0 -146.434
1604.72 13.9077 0 -164.478
1912.49 11.8933 0 -156.432
2257.26 9.35494 0 -145.295
1948.65 11.9697 0 -158.391
1930.57 11.9318 0 -157.414
1589.67 13.8882 0 -163.659
1559.55 13.8471 0 -162.009
2193.96 9.17382 0 -141.844
2236.16 9.29529 0 -144.151
1574.61 13.868 0 -162.836
1876.34 11.8138 0 -154.453
2215.06 9.23492 0 -143
1912.49 11.8933 0 -156.432
1894.41 11.8539 0 -155.445
1559.55 13.8471 0 -162.009
1529.45 13.803 0 -160.342
2151.77 9.04947 0 -139.513
2193.96 9.17382 0 -141.844
1544.5 13.8254 0 -161.177
1840.19 11.7315 0 -152.454
2172.86 9.11201 0 -140.681
1876.34 11.8138 0 -154.453
1858.27 11.773 0 -153.456
1529.45 13.803 0 -160.342
1499.34 13.7561 0 -158.658
2109.58 8.92229 0 -137.16
2151.77 9.04947 0 -139.513
1514.39 13.7799 0 -159.502
1804.05 11.6462 0 -150.436
2130.68 8.98623 0 -138.339
1840.19 11.7315 0 -152.454
1822.12 11.6892 0 -151.448
1499.34 13.7561 0 -158.658
1469.24 13.7062 0 -156.959
2067.4 8.79231 0 -134.784
2109.58 8.92229 0 -137.16
1484.29 13.7315 0 -157.811
1767.91 11.5581 0 -148.398
2088.49 8.85765 0 -135.975
1804.05 11.6462 0 -150.436
1785.98 11.6025 0 -149.42
1469.24 13.7062 0 -156.959
1439.14 13.6536 0 -155.244
2025.23 8.65958 0 -132.387
2067.4 8.79231 0 -134.784
1454.19 13.6803 0 -156.104
1731.78 11.4672 0 -146.342
2046.31 8.72629 0 -133.588
1767.91 11.5581 0 -148.398
1749.84 11.513 0 -147.373
1439.14 13.6536 0 -155.244
1409.05 13.5981 0 -153.514
1983.06 8.52415 0 -129.968
2025.23 8.65958 0 -132.387
1424.09 13.6262 0 -154.381
1695.65 11.3734 0 -144.267
2004.14 8.5922 0 -131.18
1731.78 11.4672 0 -146.342
1713.71 11.4206 0 -145.307
1409.05 13.5981 0 -153.514
1378.96 13.5399 0 -151.769
1940.89 8.38605 0 -127.528
1983.06 8.52415 0 -129.968
1394 13.5693 0 -152.643
1659.52 11.2769 0 -142.175
1961.97 8.45543 0 -128.75
1695.65 11.3734 0 -144.267
1677.58 11.3255 0 -143.223
1378.96 13.5399 0 -151.769
1348.87 13.4789 0 -150.009
1898.73 8.24533 0 -125.067
1940.89 8.38605 0 -127.528
1363.91 13.5097 0 -150.891
1623.4 11.1777 0 -140.065
1919.81 8.31602 0 -126.3
1659.52 11.2769 0 -142.175
1641.46 11.2277 0 -141.122
1348.87 13.4789 0 -150.009
1318.78 13.4152 0 -148.235
1856.58 8.10205 0 -122.587
1898.73 8.24533 0 -125.067
1333.82 13.4474 0 -149.124
1587.28 11.0758 0 -137.937
1877.65 8.17401 0 -123.83
1623.4 11.1777 0 -140.065
1605.34 11.1271 0 -139.003
1318.78 13.4152 0 -148.235
1288.7 13.3488 0 -146.447
1814.43 7.95624 0 -120.087
1856.58 8.10205 0 -122.587
1303.74 13.3823 0 -147.343
1551.16 10.9713 0 -135.793
1835.5 8.02946 0 -121.339
1587.28 11.0758 0 -137.937
1569.22 11.0239 0 -136.867
1288.7 13.3488 0 -146.447
1258.62 13.2798 0 -144.645
1772.28 7.80796 0 -117.568
1814.43 7.95624 0 -120.087
1273.66 13.3146 0 -145.548
1515.05 10.8642 0 -133.632
1793.35 7.88241 0 -118.83
1551.16 10.9713 0 -135.793
1533.11 10.9181 0 -134.715
1258.62 13.2798 0 -144.645
1228.54 13.2082 0 -142.83
1730.14 7.65725 0 -115.03
1772.28 7.80796 0 -117.568
1243.58 13.2443 0 -143.74
1478.95 10.7545 0 -131.456
1751.21 7.7329 0 -116.301
1515.05 10.8642 0 -133.632
1497 10.8097 0 -132.546
1228.54 13.2082 0 -142.83
1198.47 13.134 0 -141.002
1688 7.50416 0 -112.473
1730.14 7.65725 0 -115.03
1213.5 13.1714 0 -141.918
1442.84 10.6423 0 -129.263
1709.07 7.581 0 -113.754
1478.95 10.7545 0 -131.456
1460.89 10.6988 0 -130.361
1198.47 13.134 0 -141.002
1168.4 13.0573 0 -139.162
1645.87 7.34874 0 -109.899
1688 7.50416 0 -112.473
1183.43 13.096 0 -140.084
1406.74 10.5277 0 -127.056
1666.94 7.42674 0 -111.188
1442.84 10.6423 0 -129.263
1424.79 10.5853 0 -128.161
1168.4 13.0573 0 -139.162
1138.33 12.9781 0 -137.308
1603.75 7.19104 0 -107.308
1645.87 7.34874 0 -109.899
1153.36 13.018 0 -138.237
1370.65 10.4106 0 -124.833
1624.81 7.27017 0 -108.606
1406.74 10.5277 0 -127.056
1388.7 10.4695 0 -125.946
1138.33 12.9781 0 -137.308
1108.26 12.8964 0 -135.443
1561.63 7.03112 0 -104.699
1603.75 7.19104 0 -107.308
1123.29 12.9375 0 -136.377
1334.56 10.2912 0 -122.596
1582.69 7.11136 0 -106.006
1370.65 10.4106 0 -124.833
1352.6 10.3512 0 -123.717
1108.26 12.8964 0 -135.443
1078.2 12.8123 0 -133.566
1519.51 6.86902 0 -102.074
1561.63 7.03112 0 -104.699
1093.23 12.8546 0 -134.506
1298.47 10.1694 0 -120.345
1540.57 6.95034 0 -103.389
1334.56 10.2912 0 -122.596
1316.51 10.2306 0 -121.473
1078.2 12.8123 0 -133.566
1048.14 12.7258 0 -131.678
1477.4 6.70479 0 -99.4334
1519.51 6.86902 0 -102.074
1063.17 12.7693 0 -132.624
1262.38 10.0453 0 -118.081
1498.45 6.78717 0 -100.756
1298.47 10.1694 0 -120.345
1280.43 10.1076 0 -119.215
1048.14 12.7258 0 -131.678
1018.08 12.6369 0 -129.779
1435.29 6.53849 0 -96.777
1477.4 6.70479 0 -99.4334
1033.11 12.6817 0 -130.73
1226.3 9.91896 0 -115.802
1456.34 6.6219 0 -98.1071
1262.38 10.0453 0 -118.081
1244.34 9.9824 0 -116.943
1018.08 12.6369 0 -129.779
988.026 12.5458 0 -127.868
1393.18 6.37018 0 -94.1054
1435.29 6.53849 0 -96.777
1003.05 12.5916 0 -128.825
1190.22 9.79042 0 -113.511
1414.24 6.45458 0 -95.443
1226.3 9.91896 0 -115.802
1208.26 9.85496 0 -114.659
988.026 12.5458 0 -127.868
957.973 12.4523 0 -125.948
1351.09 6.1999 0 -91.4191
1393.18 6.37018 0 -94.1054
972.999 12.4993 0 -126.909
1154.15 9.65973 0 -111.208
1372.13 6.28528 0 -92.7641
1190.22 9.79042 0 -113.511
1172.19 9.72534 0 -112.361
957.973 12.4523 0 -125.948
927.923 12.3567 0 -124.017
1308.99 6.0277 0 -88.7187
1351.09 6.1999 0 -91.4191
942.948 12.4048 0 -124.984
1118.08 9.52692 0 -108.892
1330.04 6.11404 0 -90.0706
1154.15 9.65973 0 -111.208
1136.11 9.59359 0 -110.052
927.923 12.3567 0 -124.017
897.875 12.2588 0 -122.076
1266.9 5.85366 0 -86.0044
1308.99 6.0277 0 -88.7187
912.899 12.308 0 -123.048
1082.01 9.39206 0 -106.565
1287.94 5.94091 0 -87.3632
1118.08 9.52692 0 -108.892
1100.05 9.45974 0 -107.73
897.875 12.2588 0 -122.076
867.83 12.1587 0 -120.126
1224.81 5.67781 0 -83.2768
1266.9 5.85366 0 -86.0044
882.852 12.209 0 -121.103
1045.95 9.25517 0 -104.226
1245.86 5.76595 0 -84.6423
1082.01 9.39206 0 -106.565
1063.98 9.32386 0 -105.397
867.83 12.1587 0 -120.126
837.787 12.0566 0 -118.167
1182.73 5.50021 0 -80.5364
1224.81 5.67781 0 -83.2768
852.808 12.1079 0 -119.148
1009.89 9.11632 0 -101.876
1203.77 5.58922 0 -81.9082
1045.95 9.25517 0 -104.226
1027.92 9.18599 0 -103.052
837.787 12.0566 0 -118.167
807.746 11.9523 0 -116.199
1140.65 5.32093 0 -77.7835
1182.73 5.50021 0 -80.5364
822.766 12.0047 0 -117.184
973.827 8.97555 0 -99.5153
1161.69 5.41078 0 -79.1615
1009.89 9.11632 0 -101.876
991.856 9.04617 0 -100.697
807.746 11.9523 0 -116.199
777.707 11.846 0 -114.223
1098.58 5.14001 0 -75.0187
1140.65 5.32093 0 -77.7835
792.726 11.8994 0 -115.212
937.771 8.83291 0 -97.1445
1119.61 5.23067 0 -76.4026
973.827 8.97555 0 -99.5153
955.799 8.90446 0 -98.3311
777.707 11.846 0 -114.223
747.671 11.7377 0 -112.238
1056.5 4.95753 0 -72.2423
1098.58 5.14001 0 -75.0187
762.689 11.7921 0 -113.232
901.718 8.68844 0 -94.7639
1077.54 5.04896 0 -73.6319
937.771 8.83291 0 -97.1445
919.744 8.7609 0 -95.9554
747.671 11.7377 0 -112.238
717.636 11.6274 0 -110.246
1014.44 4.77352 0 -69.4548
1056.5 4.95753 0 -72.2423
732.653 11.6828 0 -111.243
865.668 8.5422 0 -92.3739
1035.47 4.86571 0 -70.8499
901.718 8.68844 0 -94.7639
883.693 8.61554 0 -93.5701
717.636 11.6274 0 -110.246
687.604 11.5153 0 -108.246
972.372 4.58805 0 -66.6567
1014.44 4.77352 0 -69.4548
702.62 11.5716 0 -109.247
829.621 8.39424 0 -89.9749
993.404 4.68096 0 -68.0571
865.668 8.5422 0 -92.3739
847.644 8.46843 0 -91.1755
687.604 11.5153 0 -108.246
657.573 11.4012 0 -106.239
930.311 4.40118 0 -63.8484
972.372 4.58805 0 -66.6567
672.588 11.4584 0 -107.244
793.576 8.2446 0 -87.5672
951.341 4.49479 0 -65.2538
829.621 8.39424 0 -89.9749
811.598 8.31962 0 -88.7721
657.573 11.4012 0 -106.239
627.545 11.2853 0 -104.226
888.252 4.21298 0 -61.0303
930.311 4.40118 0 -63.8484
642.559 11.3435 0 -105.233
757.533 8.09334 0 -85.1514
909.281 4.30725 0 -62.4405
793.576 8.2446 0 -87.5672
775.554 8.16917 0 -86.3603
627.545 11.2853 0 -104.226
597.518 11.1676 0 -102.205
846.197 4.0235 0 -58.2028
888.252 4.21298 0 -61.0303
612.531 11.2267 0 -103.216
721.493 7.94052 0 -82.7276
867.224 4.11839 0 -59.6177
757.533 8.09334 0 -85.1514
739.513 8.01712 0 -83.9404
597.518 11.1676 0 -102.205
567.493 11.0483 0 -100.179
804.143 3.83281 0 -55.3665
846.197 4.0235 0 -58.2028
582.505 11.1082 0 -101.193
685.455 7.78619 0 -80.2964
825.17 3.9283 0 -56.7857
721.493 7.94052 0 -82.7276
703.474 7.86354 0 -81.5129
567.493 11.0483 0 -100.179
537.471 10.9275 0 -98.1462
762.092 3.64097 0 -52.5216
804.143 3.83281 0 -55.3665
552.482 10.9881 0 -99.1633
649.419 7.63043 0 -77.858
783.117 3.73703 0 -53.9451
685.455 7.78619 0 -80.2964
667.437 7.70848 0 -79.0781
537.471 10.9275 0 -98.1462
507.451 10.8056 0 -96.1072
720.042 3.44806 0 -49.6687
762.092 3.64097 0 -52.5216
522.46 10.8667 0 -97.1276
613.385 7.47331 0 -75.4127
741.067 3.54463 0 -51.0962
649.419 7.63043 0 -77.858
631.402 7.55204 0 -76.6362
507.451 10.8056 0 -96.1072
477.435 10.6833 0 -94.0612
677.993 3.25423 0 -46.8083
720.042 3.44806 0 -49.6687
492.442 10.7445 0 -95.0852
577.355 7.31506 0 -72.9602
699.017 3.3513 0 -48.2394
613.385 7.47331 0 -75.4127
595.37 7.3943 0 -74.1873
477.435 10.6833 0 -94.0612
447.425 10.5619 0 -92.0059
635.947 3.05922 0 -43.9408
677.993 3.25423 0 -46.8083
462.429 10.6223 0 -93.0349
541.33 7.15581 0 -70.4997
656.97 3.15675 0 -45.3755
577.355 7.31506 0 -72.9602
559.342 7.23556 0 -71.731
447.425 10.5619 0 -92.0059
417.422 10.4439 0 -89.9376
593.907 2.86416 0 -41.0674
635.947 3.05922 0 -43.9408
432.422 10.5022 0 -90.9737
505.315 6.99644 0 -68.0294
614.926 2.96202 0 -42.5045
541.33 7.15581 0 -70.4997
523.321 7.07604 0 -69.266
417.422 10.4439 0 -89.9376
387.435 10.3347 0 -87.8469
551.876 2.66592 0 -38.1883
593.907 2.86416 0 -41.0674
402.426 10.3877 0 -88.8959
469.319 6.83727 0 -65.5439
572.89 2.76471 0 -39.6291
505.315 6.99644 0 -68.0294
487.315 6.91688 0 -66.789
387.435 10.3347 0 -87.8469
357.466 10.2425 0 -85.7188
509.881 2.47238 0 -35.3082
551.876 2.66592 0 -38.1883
372.448 10.2857 0 -86.7888
433.361 6.68165 0 -63.0344
530.872 2.57058 0 -36.7468
469.319 6.83727 0 -65.5439
451.333 6.75861 0 -64.2932
357.466 10.2425 0 -85.7188
327.535 10.1861 0 -83.5195
467.941 2.26236 0 -32.4249
509.881 2.47238 0 -35.3082
342.493 10.2083 0 -84.6312
397.47 6.53051 0 -60.479
488.902 2.36516 0 -33.8694
433.361 6.68165 0 -63.0344
415.406 6.60595 0 -61.7637
327.535 10.1861 0 -83.5195
297.637 10.1858 0 -81.2018
426.177 2.08274 0 -29.5603
467.941 2.26236 0 -32.4249
312.585 10.1764 0 -82.3794
361.722 6.39482 0 -57.8454
447.028 2.17999 0 -30.9837
397.47 6.53051 0 -60.479
379.569 6.45881 0 -59.1767
297.637 10.1858 0 -81.2018
267.83 10.3013 0 -78.6599
384.653 1.81434 0 -26.6975
426.177 2.08274 0 -29.5603
282.713 10.2265 0 -79.9686
326.199 6.27777 0 -55.0627
405.377 1.936 0 -28.1404
361.722 6.39482 0 -57.8454
343.932 6.33694 0 -56.4751
267.83 10.3013 0 -78.6599
238.019 10.5546 0 -75.779
343.868 1.70677 0 -23.9272
384.653 1.81434 0 -26.6975
252.943 10.4023 0 -77.2708
291.151 6.2093 0 -52.0248
364.134 1.79972 0 -25.2724
326.199 6.27777 0 -55.0627
308.582 6.22797 0 -53.595
238.019 10.5546 0 -75.779
208.35 11.1185 0 -72.2906
303.977 1.15261 0 -21.167
343.868 1.70677 0 -23.9272
223.135 10.8027 0 -74.1342
256.744 6.20464 0 -48.5506
323.78 1.36117 0 -22.6016
291.151 6.2093 0 -52.0248
273.885 6.21621 0 -50.3374
208.35 11.1185 0 -72.2906
178.224 11.8353 0 -68.0619
266.762 1.37464 0 -18.7515
303.977 1.15261 0 -21.167
193.434 11.4285 0 -70.2781
223.717 6.32501 0 -44.3345
284.945 1.46546 0 -19.7899
256.744 6.20464 0 -48.5506
239.935 6.2042 0 -46.6131
178.224 11.8353 0 -68.0619
147.879 13.1427 0 -62.6826
232.471 -0.507841 0 -16.3472
266.762 1.37464 0 -18.7515
162.994 12.4988 0 -65.5391
191.969 6.64512 0 -39.108
249.09 0.0729548 0 -17.8158
223.717 6.32501 0 -44.3345
207.84 6.54482 0 -41.7678
147.879 13.1427 0 -62.6826
114.393 13.4038 0 -56.8993
206.643 1.1438 0 -14.9928
232.471 -0.507841 0 -16.3472
131.906 13.3167 0 -59.7834
163.346 7.20902 0 -32.1793
218.448 1.31607 0 -14.9728
191.969 6.64512 0 -39.108
176.827 6.70551 0 -36.1488
114.393 13.4038 0 -56.8993
77.7444 12.8496 0 -52.0786
190.597 -5.90602 0 -12.724
206.643 1.1438 0 -14.9928
96.2974 13.8956 0 -54.1008
133.741 8.20013 0 -24.6757
196.225 -4.39066 0 -15.4319
163.346 7.20902 0 -32.1793
149.701 8.00348 0 -27.918
77.7444 12.8496 0 -52.0786
28.7625 -1.55375 0 -57.8145
207.539 5.90238 0 -7.91024
190.597 -5.90602 0 -12.724
55.9022 7.69936 0 -52.7847
101.074 6.79484 0 -18.9917
195.345 4.24328 0 -8.96306
133.741 8.20013 0 -24.6757
116.919 7.66652 0 -22.206
28.7625 -1.55375 0 -57.8145
-14.7746 -59.2091 0 -89.6688
295.197 23.4884 0 29.7924
207.539 5.90238 0 -7.91024
4.77732 -16.3286 0 -68.109
12.7334 -32.627 0 -52.2878
230.979 -9.58924 0 -3.78665
101.074 6.79484 0 -18.9917
72.6019 0.057498 0 -24.3263
-14.7746 -59.2091 0 -89.6688
-4.17162 -291.898 0 -108.89
30.5411 -354.138 0 -264.162
295.197 23.4884 0 29.7924
-23.4709 -152.612 0 -111.831
-44.9674 -364.988 0 -165.178
308.805 68.6483 0 6.31268
12.7334 -32.627 0 -52.2878
-33.2079 -117.996 0 -99.118
      </DataArray> 
      <DataArray type="Float64" NumberOfComponents="4" Name="GreenStrain" format="ascii">
-0.00556946 -1.11022e-16 0.00238691 -0.00189526
-0.00397069 0.00125867 0.00116229 7.35367e-05
-0.0028555 0.000566471 0.000981011 -0.000210767
-0.00253538 0 0.00108659 -0.000142774
-0.00441681 0.0014047 0.0012909 -0.000265736
-0.00360929 0.000877576 0.00117073 -0.000273466
-0.00271532 0.00026797 0.00104887 -0.000244754
-0.00297772 0 0.00127617 -0.000459349
-0.00348199 0.000594412 0.00123753 -0.000429863
-0.00397069 0.00125867 0.00116229 7.35367e-05
-0.00392675 0.0012165 0.00116154 2.24015e-05
-0.00296634 0.000801936 0.000927602 -9.97294e-05
-0.0028555 0.000566471 0.000981011 -0.000210767
-0.003914 0.00116119 0.00117977 3.17625e-05
-0.00352856 0.00102786 0.00107173 -4.48936e-05
-0.00294338 0.000733003 0.000947302 -0.000151551
-0.00360929 0.000877576 0.00117073 -0.000273466
-0.00355859 0.000993479 0.00109933 -0.000109809
-0.00392675 0.0012165 0.00116154 2.24015e-05
-0.00398322 0.00118218 0.00120045 1.04221e-05
-0.00295166 0.00086738 0.000893262 -3.68113e-05
-0.00296634 0.000801936 0.000927602 -9.97294e-05
-0.00396461 0.00121418 0.00117875 2.27799e-05
-0.00349191 0.00104538 0.00104851 -4.23673e-06
-0.00295793 0.000842673 0.00090654 -5.8319e-05
-0.00352856 0.00102786 0.00107173 -4.48936e-05
-0.00350953 0.00104048 0.00105816 -2.15876e-05
-0.00398322 0.00118218 0.00120045 1.04221e-05
-0.00400618 0.00120548 0.0012003 -1.26964e-06
-0.00293077 0.000875929 0.000880647 -2.31914e-05
-0.00295166 0.00086738 0.000893262 -3.68113e-05
-0.00399345 0.0011863 0.00120306 -2.17828e-06
-0.00347179 0.00104298 0.00104092 1.36989e-06
-0.00294383 0.000875886 0.000886261 -2.75996e-05
-0.00349191 0.00104538 0.00104851 -4.23673e-06
-0.00347843 0.0010452 0.00104281 3.34561e-06
-0.00400618 0.00120548 0.0012003 -1.26964e-06
-0.00401779 0.00120108 0.00120716 8.0919e-07
-0.00290674 0.000874175 0.000871098 -2.28814e-05
-0.00293077 0.000875929 0.000880647 -2.31914e-05
-0.00401608 0.00120734 0.00120374 2.00724e-06
-0.00346171 0.00103954 0.00103808 -4.9696e-06
-0.00291693 0.000875312 0.000874977 -2.16491e-05
-0.00347179 0.00104298 0.00104092 1.36989e-06
-0.00346767 0.00104117 0.00103993 -2.71456e-06
-0.00401779 0.00120108 0.00120716 8.0919e-07
-0.00401315 0.0012045 0.00120371 -7.56649e-07
-0.00288849 0.000867601 0.000866093 -2.7867e-05
-0.00290674 0.000874175 0.000871098 -2.28814e-05
-0.00401543 0.00120152 0.00120596 -1.28966e-06
-0.00344907 0.00103495 0.00103462 -1.0692e-05
-0.00289799 0.000871287 0.000868587 -2.55179e-05
-0.00346171 0.00103954 0.00103808 -4.9696e-06
-0.00345512 0.0010374 0.00103616 -7.5222e-06
-0.00401315 0.0012045 0.00120371 -7.56649e-07
-0.00400312 0.00119998 0.00120134 4.27278e-08
-0.00287081 0.000861255 0.000861237 -3.19792e-05
-0.00288849 0.000867601 0.000866093 -2.7867e-05
-0.00400952 0.00120328 0.00120267 2.32506e-07
-0.00343559 0.00103004 0.00103095 -1.51599e-05
-0.00287912 0.000864293 0.000863499 -2.99352e-05
-0.00344907 0.00103495 0.00103462 -1.0692e-05
-0.00344282 0.0010325 0.00103299 -1.33577e-05
-0.00400312 0.00119998 0.00120134 4.27278e-08
-0.003987 0.00119622 0.00119605 -2.43625e-07
-0.00285491 0.000855116 0.000857055 -3.52907e-05
-0.00287081 0.000861255 0.000861237 -3.19792e-05
-0.00399519 0.00119789 0.00119884 -4.09009e-07
-0.00341998 0.00102488 0.00102647 -1.80142e-05
-0.00286294 0.000858162 0.00085919 -3.38587e-05
-0.00343559 0.00103004 0.00103095 -1.51599e-05
-0.00342784 0.0010275 0.00102872 -1.66894e-05
-0.003987 0.00119622 0.00119605 -2.43625e-07
-0.00396881 0.00119048 0.00119071 -2.68765e-08
-0.00283919 0.000849582 0.000852688 -3.72766e-05
-0.00285491 0.000855116 0.000857055 -3.52907e-05
-0.00397828 0.0011936 0.00119344 1.06812e-08
-0.00340346 0.00101957 0.00102167 -1.96911e-05
-0.00284693 0.000852272 0.000854852 -3.63839e-05
-0.00341998 0.00102488 0.00102647 -1.80142e-05
-0.00341191 0.00102224 0.00102414 -1.90041e-05
-0.00396881 0.00119048 0.00119071 -2.68765e-08
-0.00394883 0.0011847 0.00118463 -6.72239e-08
-0.00282388 0.00084442 0.000848341 -3.85114e-05
-0.00283919 0.000849582 0.000852688 -3.72766e-05
-0.00395888 0.00118756 0.00118771 -1.18067e-07
-0.00338608 0.0010142 0.00101652 -2.06429e-05
-0.00283155 0.000846966 0.000850537 -3.79945e-05
-0.00340346 0.00101957 0.00102167 -1.96911e-05
-0.0033948 0.00101689 0.00101911 -2.02302e-05
-0.00394883 0.0011847 0.00118463 -6.72239e-08
-0.00392825 0.00117848 0.00117847 -1.42327e-08
-0.00280861 0.000839543 0.000843885 -3.91564e-05
-0.00282388 0.00084442 0.000848341 -3.85114e-05
-0.00393863 0.00118165 0.00118156 -5.74633e-09
-0.00336834 0.00100878 0.00101124 -2.1125e-05
-0.00281622 0.000841952 0.000846115 -3.88806e-05
-0.00338608 0.0010142 0.00101652 -2.06429e-05
-0.00337727 0.00101149 0.0010139 -2.09301e-05
-0.00392825 0.00117848 0.00117847 -1.42327e-08
-0.00390725 0.00117222 0.00117216 -1.58563e-08
-0.00279342 0.00083483 0.000839396 -3.94998e-05
-0.00280861 0.000839543 0.000843885 -3.91564e-05
-0.00391777 0.00117534 0.00117532 -3.03944e-08
-0.00335034 0.00100334 0.00100586 -2.13683e-05
-0.00280102 0.000837172 0.000841649 -3.9361e-05
-0.00336834 0.00100878 0.00101124 -2.1125e-05
-0.00335935 0.00100606 0.00100855 -2.12681e-05
-0.00390725 0.00117222 0.00117216 -1.58563e-08
-0.00388612 0.00116587 0.00116582 -4.16336e-09
-0.00277824 0.000830215 0.000834866 -3.96539e-05
-0.00279342 0.00083483 0.000839396 -3.94998e-05
-0.0038967 0.00116905 0.00116899 -2.03891e-09
-0.00333224 0.000997904 0.00100043 -2.1472e-05
-0.00278582 0.000832513 0.000837133 -3.95914e-05
-0.00335034 0.00100334 0.00100586 -2.13683e-05
-0.00334131 0.00100062 0.00100315 -2.1432e-05
-0.00388612 0.00116587 0.00116582 -4.16336e-09
-0.00386493 0.00115952 0.00115946 -2.83089e-09
-0.00276307 0.000825653 0.00083032 -3.97207e-05
-0.00277824 0.000830215 0.000834866 -3.96539e-05
-0.00387553 0.00116269 0.00116264 -6.51095e-09
-0.00331409 0.000992465 0.000994981 -2.15142e-05
-0.00277065 0.000827929 0.000832596 -3.96958e-05
-0.00333224 0.000997904 0.00100043 -2.1472e-05
-0.00332317 0.000995184 0.000997707 -2.14983e-05
-0.00386493 0.00115952 0.00115946 -2.83089e-09
-0.00384373 0.00115315 0.0011531 -6.43865e-10
-0.0027479 0.000821118 0.000825763 -3.97412e-05
-0.00276307 0.000825653 0.00083032 -3.97207e-05
-0.00385433 0.00115634 0.00115628 -4.70541e-11
-0.00329591 0.000987027 0.000989523 -2.15249e-05
-0.00275548 0.000823383 0.000828042 -3.97342e-05
-0.00331409 0.000992465 0.000994981 -2.15142e-05
-0.003305 0.000989746 0.000992253 -2.15219e-05
-0.00384373 0.00115315 0.0011531 -6.43865e-10
-0.00382252 0.00114679 0.00114674 -1.1303e-10
-0.00273273 0.000816597 0.000821201 -3.97439e-05
-0.0027479 0.000821118 0.000825763 -3.97412e-05
-0.00383312 0.00114997 0.00114992 -8.93426e-10
-0.00327773 0.000981591 0.000984061 -2.15248e-05
-0.00274032 0.000818857 0.000823483 -3.9744e-05
-0.00329591 0.000987027 0.000989523 -2.15249e-05
-0.00328682 0.000984309 0.000986792 -2.15256e-05
-0.00382252 0.00114679 0.00114674 -1.1303e-10
-0.00380133 0.00114043 0.00114038 1.50044e-10
-0.00271757 0.000812082 0.000816637 -3.97396e-05
-0.00273273 0.000816597 0.000821201 -3.97439e-05
-0.00381192 0.00114361 0.00114356 3.4124e-10
-0.00325955 0.000976157 0.000978599 -2.15207e-05
-0.00272515 0.000814339 0.000818919 -3.9742e-05
-0.00327773 0.000981591 0.000984061 -2.15248e-05
-0.00326864 0.000978874 0.00098133 -2.15229e-05
-0.00380133 0.00114043 0.00114038 1.50044e-10
-0.00378014 0.00113408 0.00113403 2.46212e-10
-0.00270241 0.000807568 0.000812073 -3.97342e-05
-0.00271757 0.000812082 0.000816637 -3.97396e-05
-0.00379073 0.00113725 0.0011372 1.27813e-10
-0.00324138 0.000970723 0.000973137 -2.15165e-05
-0.00270999 0.000809825 0.000814355 -3.97369e-05
-0.00325955 0.000976157 0.000978599 -2.15207e-05
-0.00325046 0.00097344 0.000975868 -2.15185e-05
-0.00378014 0.00113408 0.00113403 2.46212e-10
-0.00375896 0.00112772 0.00112767 2.13393e-10
-0.00268724 0.000803056 0.000807509 -3.97296e-05
-0.00270241 0.000807568 0.000812073 -3.97342e-05
-0.00376955 0.0011309 0.00113085 2.80873e-10
-0.0032232 0.00096529 0.000967677 -2.15132e-05
-0.00269482 0.000805312 0.000809791 -3.97318e-05
-0.00324138 0.000970723 0.000973137 -2.15165e-05
-0.00323229 0.000968007 0.000970407 -2.15147e-05
-0.00375896 0.00112772 0.00112767 2.13393e-10
-0.00373778 0.00112137 0.00112132 2.03682e-10
-0.00267208 0.000798544 0.000802945 -3.97263e-05
-0.00268724 0.000803056 0.000807509 -3.97296e-05
-0.00374837 0.00112454 0.0011245 2.02639e-10
-0.00320503 0.000959858 0.000962217 -2.1511e-05
-0.00267966 0.0008008 0.000805227 -3.97278e-05
-0.0032232 0.00096529 0.000967677 -2.15132e-05
-0.00321412 0.000962574 0.000964947 -2.1512e-05
-0.00373778 0.00112137 0.00112132 2.03682e-10
-0.0037166 0.00111501 0.00111497 1.63737e-10
-0.00265692 0.000794031 0.000798382 -3.97242e-05
-0.00267208 0.000798544 0.000802945 -3.97263e-05
-0.00372719 0.00111819 0.00111814 1.88177e-10
-0.00318686 0.000954426 0.000956758 -2.15096e-05
-0.0026645 0.000796288 0.000800663 -3.97251e-05
-0.00320503 0.000959858 0.000962217 -2.1511e-05
-0.00319595 0.000957142 0.000959487 -2.15102e-05
-0.0037166 0.00111501 0.00111497 1.63737e-10
-0.00369542 0.00110866 0.00110861 1.47e-10
-0.00264176 0.000789519 0.000793819 -3.9723e-05
-0.00265692 0.000794031 0.000798382 -3.97242e-05
-0.00370601 0.00111184 0.00111179 1.55454e-10
-0.00316869 0.000948994 0.000951299 -2.15089e-05
-0.00264934 0.000791775 0.0007961 -3.97235e-05
-0.00318686 0.000954426 0.000956758 -2.15096e-05
-0.00317778 0.00095171 0.000954028 -2.15092e-05
-0.00369542 0.00110866 0.00110861 1.47e-10
-0.00367425 0.00110231 0.00110226 1.27555e-10
-0.0026266 0.000785006 0.000789256 -3.97223e-05
-0.00264176 0.000789519 0.000793819 -3.9723e-05
-0.00368484 0.00110548 0.00110544 1.36082e-10
-0.00315052 0.000943562 0.00094584 -2.15085e-05
-0.00263418 0.000787262 0.000791537 -3.97226e-05
-0.00316869 0.000948994 0.000951299 -2.15089e-05
-0.00315961 0.000946278 0.000948569 -2.15087e-05
-0.00367425 0.00110231 0.00110226 1.27555e-10
-0.00365307 0.00109596 0.00109591 1.18708e-10
-0.00261144 0.000780493 0.000784694 -3.9722e-05
-0.0026266 0.000785006 0.000789256 -3.97223e-05
-0.00366366 0.00109913 0.00109908 1.23047e-10
-0.00313236 0.000938131 0.000940382 -2.15084e-05
-0.00261902 0.000782749 0.000786975 -3.97221e-05
-0.00315052 0.000943562 0.00094584 -2.15085e-05
-0.00314144 0.000940846 0.000943111 -2.15085e-05
-0.00365307 0.00109596 0.00109591 1.18708e-10
-0.0036319 0.0010896 0.00108956 1.1125e-10
-0.00259629 0.000775979 0.000780131 -3.97219e-05
-0.00261144 0.000780493 0.000784694 -3.9722e-05
-0.00364249 0.00109278 0.00109273 1.13996e-10
-0.00311419 0.000932699 0.000934924 -2.15084e-05
-0.00260387 0.000778236 0.000782412 -3.9722e-05
-0.00313236 0.000938131 0.000940382 -2.15084e-05
-0.00312327 0.000935415 0.000937653 -2.15084e-05
-0.0036319 0.0010896 0.00108956 1.1125e-10
-0.00361073 0.00108325 0.0010832 1.07743e-10
-0.00258113 0.000771466 0.00077557 -3.97219e-05
-0.00259629 0.000775979 0.000780131 -3.97219e-05
-0.00362131 0.00108643 0.00108638 1.09274e-10
-0.00309602 0.000927267 0.000929466 -2.15085e-05
-0.00258871 0.000773723 0.00077785 -3.97219e-05
-0.00311419 0.000932699 0.000934924 -2.15084e-05
-0.0031051 0.000929983 0.000932195 -2.15085e-05
-0.00361073 0.00108325 0.0010832 1.07744e-10
-0.00358955 0.0010769 0.00107685 1.05209e-10
-0.00256597 0.000766953 0.000771008 -3.9722e-05
-0.00258113 0.000771466 0.00077557 -3.97219e-05
-0.00360014 0.00108008 0.00108003 1.06009e-10
-0.00307785 0.000921835 0.000924008 -2.15086e-05
-0.00257355 0.000769209 0.000773289 -3.9722e-05
-0.00309602 0.000927267 0.000929466 -2.15085e-05
-0.00308694 0.000924551 0.000926737 -2.15086e-05
-0.00358955 0.0010769 0.00107685 1.05209e-10
-0.00356838 0.00107055 0.0010705 1.03934e-10
-0.00255081 0.000762439 0.000766447 -3.9722e-05
-0.00256597 0.000766953 0.000771008 -3.9722e-05
-0.00357897 0.00107372 0.00107368 1.04404e-10
-0.00305969 0.000916404 0.000918551 -2.15087e-05
-0.00255839 0.000764696 0.000768727 -3.9722e-05
-0.00307785 0.000921835 0.000924008 -2.15086e-05
-0.00306877 0.000919119 0.00092128 -2.15086e-05
-0.00356838 0.00107055 0.0010705 1.03931e-10
-0.00354721 0.0010642 0.00106415 1.03025e-10
-0.00253566 0.000757926 0.000761885 -3.97221e-05
-0.00255081 0.000762439 0.000766447 -3.9722e-05
-0.00355779 0.00106737 0.00106732 1.03271e-10
-0.00304152 0.000910972 0.000913093 -2.15087e-05
-0.00254324 0.000760182 0.000764166 -3.9722e-05
-0.00305969 0.000916404 0.000918551 -2.15087e-05
-0.00305061 0.000913688 0.000915822 -2.15087e-05
-0.00354721 0.0010642 0.00106415 1.03025e-10
-0.00352604 0.00105784 0.0010578 1.02447e-10
-0.0025205 0.000753412 0.000757324 -3.97221e-05
-0.00253566 0.000757926 0.000761885 -3.97221e-05
-0.00353662 0.00106102 0.00106097 1.02626e-10
-0.00302336 0.00090554 0.000907636 -2.15088e-05
-0.00252808 0.000755669 0.000759605 -3.97221e-05
-0.00304152 0.000910972 0.000913093 -2.15087e-05
-0.00303244 0.000908256 0.000910365 -2.15088e-05
-0.00352604 0.00105784 0.0010578 1.02448e-10
-0.00350486 0.00105149 0.00105145 1.01942e-10
-0.00250535 0.000748898 0.000752764 -3.9722e-05
-0.0025205 0.000753412 0.000757324 -3.97221e-05
-0.00351545 0.00105467 0.00105462 1.02094e-10
-0.00300519 0.000900109 0.000902179 -2.15088e-05
-0.00251292 0.000751155 0.000755044 -3.97221e-05
-0.00302336 0.00090554 0.000907636 -2.15088e-05
-0.00301428 0.000902824 0.000904908 -2.15088e-05
-0.00350486 0.00105149 0.00105145 1.01942e-10
-0.00348369 0.00104514 0.00104509 1.01481e-10
-0.00249019 0.000744384 0.000748203 -3.9722e-05
-0.00250535 0.000748898 0.000752764 -3.9722e-05
-0.00349428 0.00104832 0.00104827 1.01646e-10
-0.00298703 0.000894677 0.000896722 -2.15089e-05
-0.00249777 0.000746641 0.000750483 -3.9722e-05
-0.00300519 0.000900109 0.000902179 -2.15088e-05
-0.00299611 0.000897393 0.000899451 -2.15089e-05
-0.00348369 0.00104514 0.00104509 1.01478e-10
-0.00346252 0.00103879 0.00103874 1.01008e-10
-0.00247504 0.000739871 0.000743643 -3.97219e-05
-0.00249019 0.000744384 0.000748203 -3.9722e-05
-0.00347311 0.00104196 0.00104192 1.01188e-10
-0.00296887 0.000889245 0.000891266 -2.15089e-05
-0.00248261 0.000742128 0.000745923 -3.9722e-05
-0.00298703 0.000894677 0.000896722 -2.15089e-05
-0.00297795 0.000891961 0.000893994 -2.15089e-05
-0.00346252 0.00103879 0.00103874 1.01008e-10
-0.00344135 0.00103244 0.00103239 1.00518e-10
-0.00245988 0.000735357 0.000739083 -3.97218e-05
-0.00247504 0.000739871 0.000743643 -3.97219e-05
-0.00345194 0.00103561 0.00103557 1.00721e-10
-0.0029507 0.000883814 0.000885809 -2.15089e-05
-0.00246746 0.000737614 0.000741363 -3.97219e-05
-0.00296887 0.000889245 0.000891266 -2.15089e-05
-0.00295978 0.00088653 0.000888538 -2.15089e-05
-0.00344135 0.00103244 0.00103239 1.00518e-10
-0.00342018 0.00102609 0.00102604 9.99759e-11
-0.00244473 0.000730843 0.000734523 -3.97217e-05
-0.00245988 0.000735357 0.000739083 -3.97218e-05
-0.00343077 0.00102926 0.00102922 1.00193e-10
-0.00293254 0.000878382 0.000880353 -2.15088e-05
-0.00245231 0.0007331 0.000736803 -3.97218e-05
-0.0029507 0.000883814 0.000885809 -2.15089e-05
-0.00294162 0.000881098 0.000883081 -2.15089e-05
-0.00342018 0.00102609 0.00102604 9.99759e-11
-0.00339901 0.00101974 0.00101969 9.94145e-11
-0.00242958 0.000726329 0.000729964 -3.97216e-05
-0.00244473 0.000730843 0.000734523 -3.97217e-05
-0.0034096 0.00102291 0.00102286 9.96624e-11
-0.00291438 0.000872951 0.000874897 -2.15088e-05
-0.00243715 0.000728586 0.000732243 -3.97217e-05
-0.00293254 0.000878382 0.000880353 -2.15088e-05
-0.00292346 0.000875667 0.000877625 -2.15088e-05
-0.00339901 0.00101974 0.00101969 9.9422e-11
-0.00337784 0.00101338 0.00101334 9.88437e-11
-0.00241442 0.000721815 0.000725404 -3.97215e-05
-0.00242958 0.000726329 0.000729964 -3.97216e-05
-0.00338843 0.00101656 0.00101651 9.90878e-11
-0.00289621 0.000867519 0.000869441 -2.15088e-05
-0.002422 0.000724072 0.000727684 -3.97215e-05
-0.00291438 0.000872951 0.000874897 -2.15088e-05
-0.0029053 0.000870235 0.000872169 -2.15088e-05
-0.00337784 0.00101338 0.00101334 9.88437e-11
-0.00335667 0.00100703 0.00100699 9.82516e-11
-0.00239927 0.000717301 0.000720845 -3.97213e-05
-0.00241442 0.000721815 0.000725404 -3.97215e-05
-0.00336726 0.00101021 0.00101016 9.85225e-11
-0.00287805 0.000862088 0.000863985 -2.15088e-05
-0.00240685 0.000719558 0.000723125 -3.97214e-05
-0.00289621 0.000867519 0.000869441 -2.15088e-05
-0.00288713 0.000864804 0.000866713 -2.15088e-05
-0.00335667 0.00100703 0.00100699 9.82483e-11
-0.0033355 0.00100068 0.00100064 9.76152e-11
-0.00238412 0.000712787 0.000716286 -3.97212e-05
-0.00239927 0.000717301 0.000720845 -3.97213e-05
-0.00334609 0.00100386 0.00100381 9.78767e-11
-0.00285989 0.000856657 0.00085853 -2.15087e-05
-0.0023917 0.000715044 0.000718566 -3.97212e-05
-0.00287805 0.000862088 0.000863985 -2.15088e-05
-0.00286897 0.000859372 0.000861257 -2.15087e-05
-0.0033355 0.00100068 0.00100064 9.76152e-11
-0.00331434 0.000994332 0.000994287 9.70316e-11
-0.00236897 0.000708273 0.000711728 -3.9721e-05
-0.00238412 0.000712787 0.000716286 -3.97212e-05
-0.00332492 0.000997507 0.000997462 9.728e-11
-0.00284173 0.000851225 0.000853074 -2.15087e-05
-0.00237655 0.00071053 0.000714007 -3.97211e-05
-0.00285989 0.000856657 0.00085853 -2.15087e-05
-0.00285081 0.000853941 0.000855802 -2.15087e-05
-0.00331434 0.000994332 0.000994287 9.70316e-11
-0.00329317 0.000987982 0.000987937 9.63713e-11
-0.00235382 0.000703759 0.000707169 -3.97208e-05
-0.00236897 0.000708273 0.000711728 -3.9721e-05
-0.00330375 0.000991157 0.000991112 9.66721e-11
-0.00282357 0.000845794 0.000847619 -2.15086e-05
-0.0023614 0.000706016 0.000709448 -3.97209e-05
-0.00284173 0.000851225 0.000853074 -2.15087e-05
-0.00283265 0.00084851 0.000850347 -2.15086e-05
-0.00329317 0.000987982 0.000987937 9.63722e-11
-0.003272 0.000981631 0.000981587 9.57338e-11
-0.00233867 0.000699244 0.000702611 -3.97206e-05
-0.00235382 0.000703759 0.000707169 -3.97208e-05
-0.00328258 0.000984807 0.000984762 9.60085e-11
-0.00280541 0.000840363 0.000842164 -2.15086e-05
-0.00234625 0.000701501 0.00070489 -3.97207e-05
-0.00282357 0.000845794 0.000847619 -2.15086e-05
-0.00281449 0.000843078 0.000844892 -2.15086e-05
-0.003272 0.000981631 0.000981587 9.57338e-11
-0.00325083 0.000975281 0.000975237 9.5108e-11
-0.00232352 0.00069473 0.000698053 -3.97204e-05
-0.00233867 0.000699244 0.000702611 -3.97206e-05
-0.00326142 0.000978456 0.000978412 9.53935e-11
-0.00278725 0.000834931 0.00083671 -2.15085e-05
-0.0023311 0.000696987 0.000700332 -3.97205e-05
-0.00280541 0.000840363 0.000842164 -2.15086e-05
-0.00279633 0.000837647 0.000839437 -2.15085e-05
-0.00325083 0.000975281 0.000975237 9.51022e-11
-0.00322967 0.000968931 0.000968887 9.44639e-11
-0.00230837 0.000690216 0.000693496 -3.97202e-05
-0.00232352 0.00069473 0.000698053 -3.97204e-05
-0.00324025 0.000972106 0.000972062 9.47376e-11
-0.0027691 0.0008295 0.000831255 -2.15084e-05
-0.00231595 0.000692473 0.000695774 -3.97203e-05
-0.00278725 0.000834931 0.00083671 -2.15085e-05
-0.00277817 0.000832216 0.000833982 -2.15085e-05
-0.00322967 0.000968931 0.000968887 9.44639e-11
-0.0032085 0.000962582 0.000962537 9.38145e-11
-0.00229322 0.000685702 0.000688938 -3.972e-05
-0.00230837 0.000690216 0.000693496 -3.97202e-05
-0.00321908 0.000965756 0.000965712 9.41243e-11
-0.00275094 0.000824069 0.000825801 -2.15084e-05
-0.0023008 0.000687959 0.000691217 -3.97201e-05
-0.0027691 0.0008295 0.000831255 -2.15084e-05
-0.00276002 0.000826785 0.000828528 -2.15084e-05
-0.0032085 0.000962582 0.000962537 9.38154e-11
-0.00318734 0.000956232 0.000956188 9.31973e-11
-0.00227808 0.000681187 0.000684381 -3.97198e-05
-0.00229322 0.000685702 0.000688938 -3.972e-05
-0.00319792 0.000959407 0.000959363 9.34662e-11
-0.00273278 0.000818638 0.000820346 -2.15083e-05
-0.00228565 0.000683444 0.00068666 -3.97199e-05
-0.00275094 0.000824069 0.000825801 -2.15084e-05
-0.00274186 0.000821354 0.000823073 -2.15083e-05
-0.00318734 0.000956232 0.000956188 9.31973e-11
-0.00316617 0.000949882 0.000949838 9.25331e-11
-0.00226293 0.000676673 0.000679824 -3.97196e-05
-0.00227808 0.000681187 0.000684381 -3.97198e-05
-0.00317675 0.000953057 0.000953013 9.28585e-11
-0.00271462 0.000813207 0.000814892 -2.15082e-05
-0.0022705 0.00067893 0.000682103 -3.97197e-05
-0.00273278 0.000818638 0.000820346 -2.15083e-05
-0.0027237 0.000815923 0.000817619 -2.15083e-05
-0.00316617 0.000949882 0.000949838 9.25405e-11
-0.00314501 0.000943533 0.000943489 9.1905e-11
-0.00224778 0.000672159 0.000675268 -3.97193e-05
-0.00226293 0.000676673 0.000679824 -3.97196e-05
-0.00315559 0.000946708 0.000946664 9.21563e-11
-0.00269647 0.000807776 0.000809439 -2.15081e-05
-0.00225536 0.000674416 0.000677546 -3.97195e-05
-0.00271462 0.000813207 0.000814892 -2.15082e-05
-0.00270554 0.000810492 0.000812166 -2.15082e-05
-0.00314501 0.000943533 0.000943489 9.1905e-11
-0.00312384 0.000937184 0.00093714 9.13106e-11
-0.00223264 0.000667644 0.000670711 -3.97191e-05
-0.00224778 0.000672159 0.000675268 -3.97193e-05
-0.00313443 0.000940358 0.000940315 9.16016e-11
-0.00267831 0.000802345 0.000803985 -2.1508e-05
-0.00224021 0.000669901 0.000672989 -3.97192e-05
-0.00269647 0.000807776 0.000809439 -2.15081e-05
-0.00268739 0.000805061 0.000806712 -2.15081e-05
-0.00312384 0.000937184 0.00093714 9.13238e-11
-0.00310268 0.000930835 0.000930791 9.05865e-11
-0.00221749 0.00066313 0.000666155 -3.97188e-05
-0.00223264 0.000667644 0.000670711 -3.97191e-05
-0.00311326 0.000934009 0.000933966 9.09349e-11
-0.00266016 0.000796914 0.000798532 -2.1508e-05
-0.00222506 0.000665387 0.000668433 -3.9719e-05
-0.00267831 0.000802345 0.000803985 -2.1508e-05
-0.00266923 0.00079963 0.000801258 -2.1508e-05
-0.00310268 0.000930835 0.000930791 9.05865e-11
-0.00308152 0.000924486 0.000924442 8.99925e-11
-0.00220235 0.000658615 0.000661599 -3.97186e-05
-0.00221749 0.00066313 0.000666155 -3.97188e-05
-0.0030921 0.00092766 0.000927617 9.02295e-11
-0.002642 0.000791484 0.000793079 -2.15079e-05
-0.00220992 0.000660872 0.000663877 -3.97187e-05
-0.00266016 0.000796914 0.000798532 -2.1508e-05
-0.00265108 0.000794199 0.000795805 -2.15079e-05
-0.00308152 0.000924486 0.000924442 8.99925e-11
-0.00306036 0.000918137 0.000918094 8.93596e-11
-0.0021872 0.000654101 0.000657043 -3.97183e-05
-0.00220235 0.000658615 0.000661599 -3.97186e-05
-0.00307094 0.000921311 0.000921268 8.96816e-11
-0.00262385 0.000786053 0.000787626 -2.15078e-05
-0.00219477 0.000656358 0.000659321 -3.97185e-05
-0.002642 0.000791484 0.000793079 -2.15079e-05
-0.00263292 0.000788768 0.000790352 -2.15078e-05
-0.00306036 0.000918137 0.000918094 8.93614e-11
-0.00303919 0.000911788 0.000911745 8.87203e-11
-0.00217206 0.000649586 0.000652488 -3.97181e-05
-0.0021872 0.000654101 0.000657043 -3.97183e-05
-0.00304977 0.000914963 0.00091492 8.89929e-11
-0.00260569 0.000780622 0.000782173 -2.15077e-05
-0.00217963 0.000651843 0.000654766 -3.97182e-05
-0.00262385 0.000786053 0.000787626 -2.15078e-05
-0.00261477 0.000783338 0.000784899 -2.15077e-05
-0.00303919 0.000911788 0.000911745 8.87218e-11
-0.00301803 0.00090544 0.000905397 8.80754e-11
-0.00215692 0.000645071 0.000647933 -3.97178e-05
-0.00217206 0.000649586 0.000652488 -3.97181e-05
-0.00302861 0.000908614 0.000908571 8.83793e-11
-0.00258754 0.000775192 0.000776721 -2.15076e-05
-0.00216449 0.000647329 0.00065021 -3.97179e-05
-0.00260569 0.000780622 0.000782173 -2.15077e-05
-0.00259662 0.000777907 0.000779447 -2.15076e-05
-0.00301803 0.00090544 0.000905397 8.80754e-11
-0.00299687 0.000899092 0.000899049 8.74369e-11
-0.00214177 0.000640557 0.000643378 -3.97175e-05
-0.00215692 0.000645071 0.000647933 -3.97178e-05
-0.00300745 0.000902266 0.000902223 8.77216e-11
-0.00256939 0.000769761 0.000771268 -2.15075e-05
-0.00214934 0.000642814 0.000645655 -3.97177e-05
-0.00258754 0.000775192 0.000776721 -2.15076e-05
-0.00257846 0.000772476 0.000773994 -2.15075e-05
-0.00299687 0.000899092 0.000899049 8.74369e-11
-0.00297571 0.000892743 0.000892701 8.68131e-11
-0.00212663 0.000636042 0.000638823 -3.97172e-05
-0.00214177 0.000640557 0.000643378 -3.97175e-05
-0.00298629 0.000895917 0.000895875 8.71008e-11
-0.00255123 0.000764331 0.000765816 -2.15073e-05
-0.0021342 0.0006383 0.000641101 -3.97174e-05
-0.00256939 0.000769761 0.000771268 -2.15075e-05
-0.00256031 0.000767046 0.000768542 -2.15074e-05
-0.00297571 0.000892743 0.000892701 8.68149e-11
-0.00295455 0.000886395 0.000886353 8.61755e-11
-0.00211149 0.000631528 0.000634269 -3.97169e-05
-0.00212663 0.000636042 0.000638823 -3.97172e-05
-0.00296513 0.000889569 0.000889527 8.64663e-11
-0.00253308 0.0007589 0.000760364 -2.15072e-05
-0.00211906 0.000633785 0.000636546 -3.97171e-05
-0.00255123 0.000764331 0.000765816 -2.15073e-05
-0.00254216 0.000761615 0.00076309 -2.15073e-05
-0.00295455 0.000886395 0.000886353 8.61624e-11
-0.00293339 0.000880048 0.000880005 8.553e-11
-0.00209635 0.000627013 0.000629715 -3.97167e-05
-0.00211149 0.000631528 0.000634269 -3.97169e-05
-0.00294397 0.000883221 0.000883179 8.58183e-11
-0.00251493 0.00075347 0.000754913 -2.15071e-05
-0.00210392 0.00062927 0.000631992 -3.97168e-05
-0.00253308 0.0007589 0.000760364 -2.15072e-05
-0.00252401 0.000756185 0.000757638 -2.15072e-05
-0.00293339 0.000880048 0.000880005 8.553e-11
-0.00291223 0.0008737 0.000873658 8.49047e-11
-0.00208121 0.000622498 0.000625161 -3.97164e-05
-0.00209635 0.000627013 0.000629715 -3.97167e-05
-0.00292281 0.000876874 0.000876831 8.51888e-11
-0.00249678 0.000748039 0.000749461 -2.1507e-05
-0.00208878 0.000624755 0.000627438 -3.97165e-05
-0.00251493 0.00075347 0.000754913 -2.15071e-05
-0.00250586 0.000750754 0.000752187 -2.15071e-05
-0.00291223 0.0008737 0.000873658 8.49047e-11
-0.00289108 0.000867352 0.00086731 8.42563e-11
-0.00206607 0.000617983 0.000620607 -3.97161e-05
-0.00208121 0.000622498 0.000625161 -3.97164e-05
-0.00290166 0.000870526 0.000870484 8.45535e-11
-0.00247863 0.000742609 0.00074401 -2.15069e-05
-0.00207364 0.000620241 0.000622884 -3.97162e-05
-0.00249678 0.000748039 0.000749461 -2.1507e-05
-0.00248771 0.000745324 0.000746735 -2.15069e-05
-0.00289108 0.000867352 0.00086731 8.4258e-11
-0.00286992 0.000861005 0.000860963 8.36247e-11
-0.00205093 0.000613469 0.000616054 -3.97157e-05
-0.00206607 0.000617983 0.000620607 -3.97161e-05
-0.0028805 0.000864179 0.000864137 8.39123e-11
-0.00246048 0.000737179 0.000738559 -2.15068e-05
-0.0020585 0.000615726 0.000618331 -3.97159e-05
-0.00247863 0.000742609 0.00074401 -2.15069e-05
-0.00246956 0.000739894 0.000741284 -2.15068e-05
-0.00286992 0.000861005 0.000860963 8.3638e-11
-0.00284876 0.000854658 0.000854616 8.30114e-11
-0.00203579 0.000608954 0.000611501 -3.97154e-05
-0.00205093 0.000613469 0.000616054 -3.97157e-05
-0.00285934 0.000857831 0.000857789 8.32827e-11
-0.00244233 0.000731749 0.000733108 -2.15066e-05
-0.00204336 0.000611211 0.000613777 -3.97156e-05
-0.00246048 0.000737179 0.000738559 -2.15068e-05
-0.00245141 0.000734464 0.000735833 -2.15067e-05
-0.00284876 0.000854658 0.000854616 8.30114e-11
-0.00282761 0.000848311 0.000848269 8.23627e-11
-0.00202065 0.000604439 0.000606948 -3.97151e-05
-0.00203579 0.000608954 0.000611501 -3.97154e-05
-0.00283818 0.000851484 0.000851442 8.26616e-11
-0.00242419 0.000726319 0.000727657 -2.15065e-05
-0.00202822 0.000606696 0.000609225 -3.97153e-05
-0.00244233 0.000731749 0.000733108 -2.15066e-05
-0.00243326 0.000729034 0.000730383 -2.15066e-05
-0.00282761 0.000848311 0.000848269 8.23627e-11
-0.00280645 0.000841964 0.000841922 8.1727e-11
-0.00200551 0.000599924 0.000602396 -3.97148e-05
-0.00202065 0.000604439 0.000606948 -3.97151e-05
-0.00281703 0.000845137 0.000845096 8.20151e-11
-0.00240604 0.000720889 0.000722207 -2.15064e-05
-0.00201308 0.000602182 0.000604672 -3.9715e-05
-0.00242419 0.000726319 0.000727657 -2.15065e-05
-0.00241511 0.000723604 0.000724932 -2.15064e-05
-0.00280645 0.000841964 0.000841922 8.17288e-11
-0.00278529 0.000835617 0.000835576 8.11012e-11
-0.00199038 0.000595409 0.000597843 -3.97145e-05
-0.00200551 0.000599924 0.000602396 -3.97148e-05
-0.00279587 0.00083879 0.000838749 8.13819e-11
-0.00238789 0.000715459 0.000716757 -2.15062e-05
-0.00199795 0.000597667 0.000600119 -3.97146e-05
-0.00240604 0.000720889 0.000722207 -2.15064e-05
-0.00239696 0.000718174 0.000719482 -2.15063e-05
-0.00278529 0.000835617 0.000835576 8.10895e-11
-0.00276414 0.000829271 0.000829229 8.04722e-11
-0.00197524 0.000590894 0.000593291 -3.97141e-05
-0.00199038 0.000595409 0.000597843 -3.97145e-05
-0.00277472 0.000832444 0.000832402 8.07581e-11
-0.00236974 0.000710029 0.000711307 -2.15061e-05
-0.00198281 0.000593152 0.000595567 -3.97143e-05
-0.00238789 0.000715459 0.000716757 -2.15062e-05
-0.00237882 0.000712744 0.000714032 -2.15062e-05
-0.00276414 0.000829271 0.000829229 8.04722e-11
-0.00274298 0.000822924 0.000822883 7.9818e-11
-0.0019601 0.000586379 0.000588739 -3.97138e-05
-0.00197524 0.000590894 0.000593291 -3.97141e-05
-0.00275356 0.000826097 0.000826056 8.0121e-11
-0.0023516 0.000704599 0.000705857 -2.1506e-05
-0.00196767 0.000588637 0.000591015 -3.9714e-05
-0.00236974 0.000710029 0.000711307 -2.15061e-05
-0.00236067 0.000707314 0.000708582 -2.1506e-05
-0.00274298 0.000822924 0.000822883 7.9818e-11
-0.00272183 0.000816578 0.000816537 7.91875e-11
-0.00194497 0.000581865 0.000584188 -3.97135e-05
-0.0019601 0.000586379 0.000588739 -3.97138e-05
-0.00273241 0.000819751 0.00081971 7.94708e-11
-0.00233345 0.000699169 0.000700408 -2.15058e-05
-0.00195254 0.000584122 0.000586464 -3.97137e-05
-0.0023516 0.000704599 0.000705857 -2.1506e-05
-0.00234253 0.000701884 0.000703132 -2.15059e-05
-0.00272183 0.000816578 0.000816537 7.9194e-11
-0.00270068 0.000810232 0.000810191 7.85584e-11
-0.00192983 0.00057735 0.000579637 -3.97132e-05
-0.00194497 0.000581865 0.000584188 -3.97135e-05
-0.00271125 0.000813405 0.000813364 7.8845e-11
-0.00231531 0.000693739 0.000694958 -2.15057e-05
-0.0019374 0.000579607 0.000581912 -3.97133e-05
-0.00233345 0.000699169 0.000700408 -2.15058e-05
-0.00232438 0.000696454 0.000697683 -2.15058e-05
-0.00270068 0.000810232 0.000810191 7.85732e-11
-0.00267952 0.000803886 0.000803845 7.79314e-11
-0.0019147 0.000572835 0.000575085 -3.97128e-05
-0.00192983 0.00057735 0.000579637 -3.97132e-05
-0.0026901 0.000807059 0.000807018 7.82304e-11
-0.00229716 0.00068831 0.000689509 -2.15056e-05
-0.00192227 0.000575092 0.000577361 -3.9713e-05
-0.00231531 0.000693739 0.000694958 -2.15057e-05
-0.00230624 0.000691025 0.000692234 -2.15056e-05
-0.00267952 0.000803886 0.000803845 7.79314e-11
-0.00265837 0.00079754 0.000797499 7.73051e-11
-0.00189957 0.00056832 0.000570535 -3.97125e-05
-0.0019147 0.000572835 0.000575085 -3.97128e-05
-0.00266895 0.000800713 0.000800672 7.75942e-11
-0.00227902 0.00068288 0.00068406 -2.15054e-05
-0.00190713 0.000570577 0.00057281 -3.97126e-05
-0.00229716 0.00068831 0.000689509 -2.15056e-05
-0.00228809 0.000685595 0.000686785 -2.15055e-05
-0.00265837 0.00079754 0.000797499 7.73051e-11
-0.00263722 0.000791195 0.000791154 7.667e-11
-0.00188443 0.000563805 0.000565984 -3.97121e-05
-0.00189957 0.00056832 0.000570535 -3.97125e-05
-0.0026478 0.000794367 0.000794327 7.69564e-11
-0.00226088 0.000677451 0.000678612 -2.15053e-05
-0.001892 0.000566062 0.000568259 -3.97123e-05
-0.00227902 0.00068288 0.00068406 -2.15054e-05
-0.00226995 0.000680165 0.000681336 -2.15054e-05
-0.00263722 0.000791195 0.000791154 7.6665e-11
-0.00261607 0.000784849 0.000784809 7.60374e-11
-0.0018693 0.000559289 0.000561434 -3.97118e-05
-0.00188443 0.000563805 0.000565984 -3.97121e-05
-0.00262665 0.000788022 0.000787981 7.63434e-11
-0.00224274 0.000672021 0.000673163 -2.15051e-05
-0.00187687 0.000561547 0.000563709 -3.9712e-05
-0.00226088 0.000677451 0.000678612 -2.15053e-05
-0.00225181 0.000674736 0.000675887 -2.15052e-05
-0.00261607 0.000784849 0.000784809 7.60376e-11
-0.00259492 0.000778504 0.000778464 7.5411e-11
-0.00185417 0.000554774 0.000556884 -3.97114e-05
-0.0018693 0.000559289 0.000561434 -3.97118e-05
-0.00260549 0.000781677 0.000781636 7.57087e-11
-0.00222459 0.000666592 0.000667715 -2.1505e-05
-0.00186174 0.000557032 0.000559159 -3.97116e-05
-0.00224274 0.000672021 0.000673163 -2.15051e-05
-0.00223366 0.000669306 0.000670439 -2.15051e-05
-0.00259492 0.000778504 0.000778464 7.5411e-11
-0.00257377 0.000772159 0.000772119 7.47825e-11
-0.00183904 0.000550259 0.000552334 -3.97111e-05
-0.00185417 0.000554774 0.000556884 -3.97114e-05
-0.00258434 0.000775331 0.000775291 7.5087e-11
-0.00220645 0.000661162 0.000662267 -2.15049e-05
-0.0018466 0.000552517 0.000554609 -3.97113e-05
-0.00222459 0.000666592 0.000667715 -2.1505e-05
-0.00221552 0.000663877 0.000664991 -2.15049e-05
-0.00257377 0.000772159 0.000772119 7.47825e-11
-0.00255262 0.000765814 0.000765774 7.4157e-11
-0.00182391 0.000545744 0.000547785 -3.97107e-05
-0.00183904 0.000550259 0.000552334 -3.97111e-05
-0.00256319 0.000768986 0.000768946 7.44703e-11
-0.00218831 0.000655733 0.000656819 -2.15047e-05
-0.00183147 0.000548002 0.00055006 -3.97109e-05
-0.00220645 0.000661162 0.000662267 -2.15049e-05
-0.00219738 0.000658448 0.000659543 -2.15048e-05
-0.00255262 0.000765814 0.000765774 7.41454e-11
-0.00253147 0.000759469 0.000759429 7.35213e-11
-0.00180878 0.000541229 0.000543236 -3.97104e-05
-0.00182391 0.000545744 0.000547785 -3.97107e-05
-0.00254205 0.000762642 0.000762602 7.38018e-11
-0.00217017 0.000650304 0.000651372 -2.15046e-05
-0.00181634 0.000543487 0.00054551 -3.97106e-05
-0.00218831 0.000655733 0.000656819 -2.15047e-05
-0.00217924 0.000653019 0.000654095 -2.15046e-05
-0.00253147 0.000759469 0.000759429 7.3503e-11
-0.00251032 0.000753125 0.000753085 7.2889e-11
-0.00179365 0.000536714 0.000538687 -3.971e-05
-0.00180878 0.000541229 0.000543236 -3.97104e-05
-0.0025209 0.000756297 0.000756257 7.31929e-11
-0.00215203 0.000644875 0.000645924 -2.15044e-05
-0.00180121 0.000538971 0.000540961 -3.97102e-05
-0.00217017 0.000650304 0.000651372 -2.15046e-05
-0.0021611 0.000647589 0.000648648 -2.15045e-05
-0.00251032 0.000753125 0.000753085 7.2889e-11
-0.00248917 0.00074678 0.00074674 7.22679e-11
-0.00177852 0.000532199 0.000534138 -3.97097e-05
-0.00179365 0.000536714 0.000538687 -3.971e-05
-0.00249975 0.000749952 0.000749913 7.25433e-11
-0.00213389 0.000639446 0.000640477 -2.15043e-05
-0.00178609 0.000534456 0.000536412 -3.97099e-05
-0.00215203 0.000644875 0.000645924 -2.15044e-05
-0.00214296 0.00064216 0.000643201 -2.15043e-05
-0.00248917 0.00074678 0.00074674 7.22679e-11
-0.00246803 0.000740436 0.000740396 7.16221e-11
-0.00176339 0.000527684 0.00052959 -3.97093e-05
-0.00177852 0.000532199 0.000534138 -3.97097e-05
-0.0024786 0.000743608 0.000743568 7.1937e-11
-0.00211575 0.000634017 0.00063503 -2.15041e-05
-0.00177096 0.000529941 0.000531864 -3.97095e-05
-0.00213389 0.000639446 0.000640477 -2.15043e-05
-0.00212482 0.000636731 0.000637754 -2.15042e-05
-0.00246803 0.000740436 0.000740396 7.16368e-11
-0.00244688 0.000734092 0.000734052 7.09988e-11
-0.00174827 0.000523168 0.000525041 -3.9709e-05
-0.00176339 0.000527684 0.00052959 -3.97093e-05
-0.00245745 0.000737264 0.000737224 7.13089e-11
-0.00209762 0.000628588 0.000629584 -2.1504e-05
-0.00175583 0.000525426 0.000527316 -3.97092e-05
-0.00211575 0.000634017 0.00063503 -2.15041e-05
-0.00210669 0.000631302 0.000632307 -2.15041e-05
-0.00244688 0.000734092 0.000734052 7.1007e-11
-0.00242573 0.000727748 0.000727709 7.03869e-11
-0.00173314 0.000518653 0.000520494 -3.97086e-05
-0.00174827 0.000523168 0.000525041 -3.9709e-05
-0.00243631 0.00073092 0.00073088 7.06785e-11
-0.00207948 0.000623159 0.000624137 -2.15038e-05
-0.0017407 0.000520911 0.000522767 -3.97088e-05
-0.00209762 0.000628588 0.000629584 -2.1504e-05
-0.00208855 0.000625873 0.00062686 -2.15039e-05
-0.00242573 0.000727748 0.000727709 7.03869e-11
-0.00240459 0.000721404 0.000721365 6.97532e-11
-0.00171801 0.000514138 0.000515946 -3.97083e-05
-0.00173314 0.000518653 0.000520494 -3.97086e-05
-0.00241516 0.000724576 0.000724537 7.00506e-11
-0.00206134 0.00061773 0.000618691 -2.15037e-05
-0.00172557 0.000516395 0.00051822 -3.97085e-05
-0.00207948 0.000623159 0.000624137 -2.15038e-05
-0.00207041 0.000620445 0.000621414 -2.15038e-05
-0.00240459 0.000721404 0.000721365 6.97532e-11
-0.00238344 0.000715061 0.000715021 6.91348e-11
-0.00170289 0.000509623 0.000511399 -3.97079e-05
-0.00171801 0.000514138 0.000515946 -3.97083e-05
-0.00239402 0.000718232 0.000718193 6.94251e-11
-0.00204321 0.000612302 0.000613245 -2.15035e-05
-0.00171045 0.00051188 0.000513672 -3.97081e-05
-0.00206134 0.00061773 0.000618691 -2.15037e-05
-0.00205227 0.000615016 0.000615968 -2.15036e-05
-0.00238344 0.000715061 0.000715021 6.91299e-11
-0.0023623 0.000708717 0.000708678 6.84846e-11
-0.00168776 0.000505107 0.000506852 -3.97076e-05
-0.00170289 0.000509623 0.000511399 -3.97079e-05
-0.00237287 0.000711889 0.00071185 6.88109e-11
-0.00202507 0.000606873 0.000607799 -2.15034e-05
-0.00169532 0.000507365 0.000509125 -3.97078e-05
-0.00204321 0.000612302 0.000613245 -2.15035e-05
-0.00203414 0.000609587 0.000610522 -2.15035e-05
-0.0023623 0.000708717 0.000708678 6.8506e-11
-0.00234116 0.000702374 0.000702335 6.7863e-11
-0.00167264 0.000500592 0.000502305 -3.97072e-05
-0.00168776 0.000505107 0.000506852 -3.97076e-05
-0.00235173 0.000705546 0.000705507 6.81878e-11
-0.00200694 0.000601444 0.000602353 -2.15032e-05
-0.0016802 0.00050285 0.000504578 -3.97074e-05
-0.00202507 0.000606873 0.000607799 -2.15034e-05
-0.002016 0.000604159 0.000605076 -2.15033e-05
-0.00234116 0.000702374 0.000702335 6.7863e-11
-0.00232001 0.000696031 0.000695992 6.7257e-11
-0.00165751 0.000496077 0.000497758 -3.97069e-05
-0.00167264 0.000500592 0.000502305 -3.97072e-05
-0.00233058 0.000699202 0.000699164 6.75452e-11
-0.0019888 0.000596016 0.000596908 -2.15031e-05
-0.00166507 0.000498334 0.000500031 -3.9707e-05
-0.00200694 0.000601444 0.000602353 -2.15032e-05
-0.00199787 0.00059873 0.000599631 -2.15032e-05
-0.00232001 0.000696031 0.000695992 6.7257e-11
-0.00229887 0.000689688 0.000689649 6.66168e-11
-0.00164239 0.000491561 0.000493212 -3.97065e-05
-0.00165751 0.000496077 0.000497758 -3.97069e-05
-0.00230944 0.000692859 0.000692821 6.69067e-11
-0.00197067 0.000590587 0.000591463 -2.15029e-05
-0.00164995 0.000493819 0.000495485 -3.97067e-05
-0.0019888 0.000596016 0.000596908 -2.15031e-05
-0.00197973 0.000593302 0.000594185 -2.1503e-05
-0.00229887 0.000689688 0.000689649 6.6612e-11
-0.00227773 0.000683345 0.000683307 6.59905e-11
-0.00162727 0.000487046 0.000488666 -3.97062e-05
-0.00164239 0.000491561 0.000493212 -3.97065e-05
-0.0022883 0.000686517 0.000686478 6.63031e-11
-0.00195253 0.000585159 0.000586018 -2.15028e-05
-0.00163483 0.000489304 0.000490939 -3.97063e-05
-0.00197067 0.000590587 0.000591463 -2.15029e-05
-0.0019616 0.000587873 0.00058874 -2.15029e-05
-0.00227773 0.000683345 0.000683307 6.59986e-11
-0.00225659 0.000677003 0.000676964 6.53885e-11
-0.00161214 0.00048253 0.00048412 -3.97058e-05
-0.00162727 0.000487046 0.000488666 -3.97062e-05
-0.00226716 0.000680174 0.000680135 6.56774e-11
-0.0019344 0.000579731 0.000580573 -2.15027e-05
-0.0016197 0.000484788 0.000486393 -3.9706e-05
-0.00195253 0.000585159 0.000586018 -2.15028e-05
-0.00194347 0.000582445 0.000583296 -2.15027e-05
-0.00225659 0.000677003 0.000676964 6.53885e-11
-0.00223544 0.00067066 0.000670622 6.47623e-11
-0.00159702 0.000478015 0.000479574 -3.97055e-05
-0.00161214 0.00048253 0.00048412 -3.97058e-05
-0.00224601 0.000673831 0.000673793 6.50714e-11
-0.00191627 0.000574302 0.000575129 -2.15025e-05
-0.00160458 0.000480273 0.000481847 -3.97056e-05
-0.0019344 0.000579731 0.000580573 -2.15027e-05
-0.00192534 0.000577016 0.000577851 -2.15026e-05
-0.00223544 0.00067066 0.000670622 6.47623e-11
-0.0022143 0.000664318 0.00066428 6.41377e-11
-0.0015819 0.0004735 0.000475029 -3.97051e-05
-0.00159702 0.000478015 0.000479574 -3.97055e-05
-0.00222487 0.000667489 0.000667451 6.44404e-11
-0.00189814 0.000568874 0.000569684 -2.15024e-05
-0.00158946 0.000475757 0.000477302 -3.97053e-05
-0.00191627 0.000574302 0.000575129 -2.15025e-05
-0.0019072 0.000571588 0.000572407 -2.15024e-05
-0.0022143 0.000664318 0.00066428 6.41261e-11
-0.00219316 0.000657976 0.000657938 6.35093e-11
-0.00156678 0.000468984 0.000470484 -3.97048e-05
-0.0015819 0.0004735 0.000475029 -3.97051e-05
-0.00220373 0.000661147 0.000661109 6.38037e-11
-0.00188001 0.000563446 0.00056424 -2.15022e-05
-0.00157434 0.000471242 0.000472757 -3.97049e-05
-0.00189814 0.000568874 0.000569684 -2.15024e-05
-0.00188907 0.00056616 0.000566962 -2.15023e-05
-0.00219316 0.000657976 0.000657938 6.35093e-11
-0.00217202 0.000651634 0.000651596 6.28669e-11
-0.00155166 0.000464469 0.000465939 -3.97044e-05
-0.00156678 0.000468984 0.000470484 -3.97048e-05
-0.00218259 0.000654805 0.000654767 6.31771e-11
-0.00186188 0.000558018 0.000558797 -2.15021e-05
-0.00155922 0.000466726 0.000468212 -3.97046e-05
-0.00188001 0.000563446 0.00056424 -2.15022e-05
-0.00187094 0.000560732 0.000561518 -2.15021e-05
-0.00217202 0.000651634 0.000651596 6.28669e-11
-0.00215089 0.000645292 0.000645254 6.22579e-11
-0.00153654 0.000459953 0.000461395 -3.97041e-05
-0.00155166 0.000464469 0.000465939 -3.97044e-05
-0.00216145 0.000648463 0.000648425 6.25318e-11
-0.00184375 0.00055259 0.000553353 -2.15019e-05
-0.0015441 0.000462211 0.000463667 -3.97043e-05
-0.00186188 0.000558018 0.000558797 -2.15021e-05
-0.00185281 0.000555304 0.000556075 -2.1502e-05
-0.00215089 0.000645292 0.000645254 6.22579e-11
-0.00212975 0.00063895 0.000638913 6.16351e-11
-0.00152142 0.000455438 0.000456851 -3.97037e-05
-0.00153654 0.000459953 0.000461395 -3.97041e-05
-0.00214032 0.000642121 0.000642084 6.19298e-11
-0.00182562 0.000547162 0.00054791 -2.15018e-05
-0.00152898 0.000457695 0.000459123 -3.97039e-05
-0.00184375 0.00055259 0.000553353 -2.15019e-05
-0.00183468 0.000549876 0.000550631 -2.15019e-05
-0.00212975 0.00063895 0.000638913 6.16232e-11
-0.00210861 0.000632609 0.000632571 6.10103e-11
-0.0015063 0.000450922 0.000452307 -3.97034e-05
-0.00152142 0.000455438 0.000456851 -3.97037e-05
-0.00211918 0.00063578 0.000635742 6.13162e-11
-0.00180749 0.000541734 0.000542466 -2.15017e-05
-0.00151386 0.00045318 0.000454579 -3.97036e-05
-0.00182562 0.000547162 0.00054791 -2.15018e-05
-0.00181655 0.000544448 0.000545188 -2.15017e-05
-0.00210861 0.000632609 0.000632571 6.10005e-11
-0.00208747 0.000626268 0.00062623 6.03661e-11
-0.00149119 0.000446406 0.000447763 -3.97031e-05
-0.0015063 0.000450922 0.000452307 -3.97034e-05
-0.00209804 0.000629438 0.000629401 6.06723e-11
-0.00178936 0.000536306 0.000537023 -2.15015e-05
-0.00149875 0.000448664 0.000450035 -3.97032e-05
-0.00180749 0.000541734 0.000542466 -2.15017e-05
-0.00179842 0.00053902 0.000539745 -2.15016e-05
-0.00208747 0.000626268 0.00062623 6.03661e-11
-0.00206634 0.000619927 0.000619889 5.97664e-11
-0.00147607 0.000441891 0.00044322 -3.97027e-05
-0.00149119 0.000446406 0.000447763 -3.97031e-05
-0.0020769 0.000623097 0.00062306 6.00471e-11
-0.00177123 0.000530879 0.000531581 -2.15014e-05
-0.00148363 0.000444149 0.000445491 -3.97029e-05
-0.00178936 0.000536306 0.000537023 -2.15015e-05
-0.0017803 0.000533592 0.000534302 -2.15014e-05
-0.00206634 0.000619927 0.000619889 5.97664e-11
-0.0020452 0.000613586 0.000613549 5.91281e-11
-0.00146095 0.000437375 0.000438676 -3.97024e-05
-0.00147607 0.000441891 0.00044322 -3.97027e-05
-0.00205577 0.000616756 0.000616719 5.94416e-11
-0.00175311 0.000525451 0.000526138 -2.15012e-05
-0.00146851 0.000439633 0.000440948 -3.97026e-05
-0.00177123 0.000530879 0.000531581 -2.15014e-05
-0.00176217 0.000528165 0.000528859 -2.15013e-05
-0.0020452 0.000613586 0.000613549 5.91612e-11
-0.00202406 0.000607245 0.000607208 5.85185e-11
-0.00144584 0.00043286 0.000434134 -3.97021e-05
-0.00146095 0.000437375 0.000438676 -3.97024e-05
-0.00203463 0.000610415 0.000610378 5.88258e-11
-0.00173498 0.000520023 0.000520696 -2.15011e-05
-0.0014534 0.000435117 0.000436405 -3.97022e-05
-0.00175311 0.000525451 0.000526138 -2.15012e-05
-0.00174404 0.000522737 0.000523417 -2.15012e-05
-0.00202406 0.000607245 0.000607208 5.85183e-11
-0.00200293 0.000600904 0.000600867 5.78669e-11
-0.00143072 0.000428344 0.000429591 -3.97018e-05
-0.00144584 0.00043286 0.000434134 -3.97021e-05
-0.0020135 0.000604075 0.000604038 5.81996e-11
-0.00171685 0.000514596 0.000515254 -2.1501e-05
-0.00143828 0.000430602 0.000431862 -3.97019e-05
-0.00173498 0.000520023 0.000520696 -2.15011e-05
-0.00172592 0.00051731 0.000517975 -2.1501e-05
-0.00200293 0.000600904 0.000600867 5.78669e-11
-0.00198179 0.000594564 0.000594527 5.72734e-11
-0.00141561 0.000423828 0.000425049 -3.97014e-05
-0.00143072 0.000428344 0.000429591 -3.97018e-05
-0.00199236 0.000597734 0.000597697 5.75712e-11
-0.00169873 0.000509168 0.000509812 -2.15008e-05
-0.00142317 0.000426086 0.00042732 -3.97016e-05
-0.00171685 0.000514596 0.000515254 -2.1501e-05
-0.00170779 0.000511882 0.000512533 -2.15009e-05
-0.00198179 0.000594564 0.000594527 5.72734e-11
-0.00196066 0.000588224 0.000588187 5.66418e-11
-0.00140049 0.000419312 0.000420506 -3.97011e-05
-0.00141561 0.000423828 0.000425049 -3.97014e-05
-0.00197123 0.000591394 0.000591357 5.69435e-11
-0.0016806 0.000503741 0.00050437 -2.15007e-05
-0.00140805 0.00042157 0.000422777 -3.97013e-05
-0.00169873 0.000509168 0.000509812 -2.15008e-05
-0.00168967 0.000506455 0.000507091 -2.15008e-05
-0.00196066 0.000588224 0.000588187 5.66418e-11
-0.00193953 0.000581883 0.000581847 5.60243e-11
-0.00138538 0.000414797 0.000415965 -3.97008e-05
-0.00140049 0.000419312 0.000420506 -3.97011e-05
-0.00195009 0.000585053 0.000585017 5.63375e-11
-0.00166248 0.000498313 0.000498929 -2.15006e-05
-0.00139294 0.000417055 0.000418235 -3.9701e-05
-0.0016806 0.000503741 0.00050437 -2.15007e-05
-0.00167154 0.000501027 0.000501649 -2.15007e-05
-0.00193953 0.000581883 0.000581847 5.60341e-11
-0.00191839 0.000575543 0.000575507 5.54093e-11
-0.00137027 0.000410281 0.000411423 -3.97005e-05
-0.00138538 0.000414797 0.000415965 -3.97008e-05
-0.00192896 0.000578713 0.000578677 5.57079e-11
-0.00164436 0.000492886 0.000493488 -2.15005e-05
-0.00137782 0.000412539 0.000413694 -3.97006e-05
-0.00166248 0.000498313 0.000498929 -2.15006e-05
-0.00165342 0.0004956 0.000496208 -2.15005e-05
-0.00191839 0.000575543 0.000575507 5.54093e-11
-0.00189726 0.000569204 0.000569167 5.47935e-11
-0.00135516 0.000405765 0.000406882 -3.97002e-05
-0.00137027 0.000410281 0.000411423 -3.97005e-05
-0.00190783 0.000572373 0.000572337 5.51004e-11
-0.00162623 0.000487459 0.000488047 -2.15003e-05
-0.00136271 0.000408023 0.000409152 -3.97003e-05
-0.00164436 0.000492886 0.000493488 -2.15005e-05
-0.0016353 0.000490173 0.000490767 -2.15004e-05
-0.00189726 0.000569204 0.000569167 5.47935e-11
-0.00187613 0.000562864 0.000562828 5.41564e-11
-0.00134004 0.000401249 0.00040234 -3.96999e-05
-0.00135516 0.000405765 0.000406882 -3.97002e-05
-0.00188669 0.000566034 0.000565997 5.44496e-11
-0.00160811 0.000482032 0.000482606 -2.15002e-05
-0.0013476 0.000403507 0.000404611 -3.97e-05
-0.00162623 0.000487459 0.000488047 -2.15003e-05
-0.00161717 0.000484745 0.000485326 -2.15003e-05
-0.00187613 0.000562864 0.000562828 5.41663e-11
-0.001855 0.000556524 0.000556488 5.35782e-11
-0.00132493 0.000396733 0.0003978 -3.96996e-05
-0.00134004 0.000401249 0.00040234 -3.96999e-05
-0.00186556 0.000559694 0.000559658 5.38578e-11
-0.00158999 0.000476605 0.000477165 -2.15001e-05
-0.00133249 0.000398991 0.00040007 -3.96997e-05
-0.00160811 0.000482032 0.000482606 -2.15002e-05
-0.00159905 0.000479318 0.000479885 -2.15002e-05
-0.001855 0.000556524 0.000556488 5.35777e-11
-0.00183387 0.000550185 0.000550149 5.29259e-11
-0.00130982 0.000392217 0.000393259 -3.96993e-05
-0.00132493 0.000396733 0.0003978 -3.96996e-05
-0.00184443 0.000553355 0.000553319 5.32394e-11
-0.00157187 0.000471178 0.000471725 -2.15e-05
-0.00131738 0.000394475 0.000395529 -3.96994e-05
-0.00158999 0.000476605 0.000477165 -2.15001e-05
-0.00158093 0.000473891 0.000474445 -2.15e-05
-0.00183387 0.000550185 0.000550149 5.29259e-11
-0.00181274 0.000543846 0.00054381 5.22965e-11
-0.00129471 0.000387702 0.000388719 -3.9699e-05
-0.00130982 0.000392217 0.000393259 -3.96993e-05
-0.0018233 0.000547015 0.00054698 5.25817e-11
-0.00155375 0.000465751 0.000466285 -2.14999e-05
-0.00130227 0.00038996 0.000390989 -3.96991e-05
-0.00157187 0.000471178 0.000471725 -2.15e-05
-0.00156281 0.000468464 0.000469005 -2.14999e-05
-0.00181274 0.000543846 0.00054381 5.22965e-11
-0.00179161 0.000537507 0.000537471 5.16744e-11
-0.0012796 0.000383186 0.000384179 -3.96987e-05
-0.00129471 0.000387702 0.000388719 -3.9699e-05
-0.00180217 0.000540676 0.000540641 5.1996e-11
-0.00153563 0.000460324 0.000460845 -2.14998e-05
-0.00128716 0.000385444 0.000386449 -3.96988e-05
-0.00155375 0.000465751 0.000466285 -2.14999e-05
-0.00154469 0.000463037 0.000463565 -2.14998e-05
-0.00179161 0.000537507 0.000537471 5.16744e-11
-0.00177048 0.000531168 0.000531132 5.10747e-11
-0.00126449 0.00037867 0.000379639 -3.96984e-05
-0.0012796 0.000383186 0.000384179 -3.96987e-05
-0.00178104 0.000534337 0.000534302 5.13637e-11
-0.00151751 0.000454897 0.000455405 -2.14996e-05
-0.00127205 0.000380928 0.000381909 -3.96985e-05
-0.00153563 0.000460324 0.000460845 -2.14998e-05
-0.00152657 0.00045761 0.000458125 -2.14997e-05
-0.00177048 0.000531168 0.000531132 5.10678e-11
-0.00174935 0.000524829 0.000524794 5.04558e-11
-0.00124939 0.000374154 0.000375099 -3.96981e-05
-0.00126449 0.00037867 0.000379639 -3.96984e-05
-0.00175991 0.000527998 0.000527963 5.0755e-11
-0.00149939 0.00044947 0.000449965 -2.14995e-05
-0.00125694 0.000376412 0.000377369 -3.96983e-05
-0.00151751 0.000454897 0.000455405 -2.14996e-05
-0.00150845 0.000452183 0.000452685 -2.14996e-05
-0.00174935 0.000524829 0.000524794 5.04558e-11
-0.00172822 0.000518491 0.000518455 4.98301e-11
-0.00123428 0.000369638 0.00037056 -3.96978e-05
-0.00124939 0.000374154 0.000375099 -3.96981e-05
-0.00173878 0.00052166 0.000521625 5.01373e-11
-0.00148127 0.000444043 0.000444526 -2.14994e-05
-0.00124183 0.000371896 0.000372829 -3.9698e-05
-0.00149939 0.00044947 0.000449965 -2.14995e-05
-0.00149033 0.000446756 0.000447246 -2.14995e-05
-0.00172822 0.000518491 0.000518455 4.98301e-11
-0.00170709 0.000512152 0.000512117 4.92339e-11
-0.00121917 0.000365122 0.000366021 -3.96976e-05
-0.00123428 0.000369638 0.00037056 -3.96978e-05
-0.00171766 0.000515321 0.000515286 4.95403e-11
-0.00146315 0.000438616 0.000439087 -2.14993e-05
-0.00122672 0.00036738 0.00036829 -3.96977e-05
-0.00148127 0.000444043 0.000444526 -2.14994e-05
-0.00147221 0.00044133 0.000441806 -2.14994e-05
-0.00170709 0.000512152 0.000512117 4.9244e-11
-0.00168596 0.000505814 0.000505779 4.86163e-11
-0.00120406 0.000360605 0.000361482 -3.96973e-05
-0.00121917 0.000365122 0.000366021 -3.96976e-05
-0.00169653 0.000508983 0.000508948 4.89099e-11
-0.00144503 0.00043319 0.000433648 -2.14992e-05
-0.00121162 0.000362864 0.000363751 -3.96974e-05
-0.00146315 0.000438616 0.000439087 -2.14993e-05
-0.00145409 0.000435903 0.000436367 -2.14993e-05
-0.00168596 0.000505814 0.000505779 4.86163e-11
-0.00166484 0.000499476 0.000499441 4.79866e-11
-0.00118896 0.000356089 0.000356943 -3.9697e-05
-0.00120406 0.000360605 0.000361482 -3.96973e-05
-0.0016754 0.000502645 0.00050261 4.83101e-11
-0.00142692 0.000427763 0.000428209 -2.14991e-05
-0.00119651 0.000358347 0.000359213 -3.96972e-05
-0.00144503 0.00043319 0.000433648 -2.14992e-05
-0.00143598 0.000430476 0.000430929 -2.14992e-05
-0.00166484 0.000499476 0.000499441 4.79866e-11
-0.00164371 0.000493138 0.000493103 4.74075e-11
-0.00117385 0.000351573 0.000352405 -3.96968e-05
-0.00118896 0.000356089 0.000356943 -3.9697e-05
-0.00165427 0.000496307 0.000496272 4.77032e-11
-0.0014088 0.000422336 0.000422771 -2.1499e-05
-0.0011814 0.000353831 0.000354674 -3.96969e-05
-0.00142692 0.000427763 0.000428209 -2.14991e-05
-0.00141786 0.00042505 0.00042549 -2.14991e-05
-0.00164371 0.000493138 0.000493103 4.74075e-11
-0.00162259 0.0004868 0.000486765 4.6751e-11
-0.00115875 0.000347057 0.000347867 -3.96965e-05
-0.00117385 0.000351573 0.000352405 -3.96968e-05
-0.00163315 0.000489969 0.000489934 4.70702e-11
-0.00139069 0.00041691 0.000417332 -2.14989e-05
-0.0011663 0.000349315 0.000350136 -3.96967e-05
-0.0014088 0.000422336 0.000422771 -2.1499e-05
-0.00139974 0.000419623 0.000420052 -2.1499e-05
-0.00162259 0.0004868 0.000486765 4.6751e-11
-0.00160146 0.000480462 0.000480428 4.61494e-11
-0.00114364 0.000342541 0.000343329 -3.96963e-05
-0.00115875 0.000347057 0.000347867 -3.96965e-05
-0.00161202 0.000483631 0.000483597 4.64346e-11
-0.00137257 0.000411483 0.000411894 -2.14989e-05
-0.00115119 0.000344799 0.000345598 -3.96964e-05
-0.00139069 0.00041691 0.000417332 -2.14989e-05
-0.00138163 0.000414197 0.000414613 -2.14989e-05
-0.00160146 0.000480462 0.000480428 4.61588e-11
-0.00158034 0.000474125 0.000474091 4.55148e-11
-0.00112854 0.000338025 0.000338792 -3.96961e-05
-0.00114364 0.000342541 0.000343329 -3.96963e-05
-0.0015909 0.000477293 0.000477259 4.58704e-11
-0.00135446 0.000406057 0.000406456 -2.14988e-05
-0.00113609 0.000340283 0.00034106 -3.96962e-05
-0.00137257 0.000411483 0.000411894 -2.14989e-05
-0.00136351 0.00040877 0.000409175 -2.14988e-05
-0.00158034 0.000474125 0.000474091 4.55148e-11
-0.00155921 0.000467787 0.000467753 4.49231e-11
-0.00111344 0.000333508 0.000334254 -3.96958e-05
-0.00112854 0.000338025 0.000338792 -3.96961e-05
-0.00156977 0.000470956 0.000470922 4.5241e-11
-0.00133634 0.000400631 0.000401019 -2.14987e-05
-0.00112099 0.000335766 0.000336523 -3.96959e-05
-0.00135446 0.000406057 0.000406456 -2.14988e-05
-0.0013454 0.000403344 0.000403738 -2.14987e-05
-0.00155921 0.000467787 0.000467753 4.49231e-11
-0.00153809 0.00046145 0.000461416 4.42972e-11
-0.00109833 0.000328992 0.000329717 -3.96956e-05
-0.00111344 0.000333508 0.000334254 -3.96958e-05
-0.00154865 0.000464619 0.000464585 4.46152e-11
-0.00131823 0.000395204 0.000395581 -2.14986e-05
-0.00110588 0.00033125 0.000331986 -3.96957e-05
-0.00133634 0.000400631 0.000401019 -2.14987e-05
-0.00132728 0.000397917 0.0003983 -2.14986e-05
-0.00153809 0.00046145 0.000461416 4.42945e-11
-0.00151696 0.000455113 0.000455079 4.36935e-11
-0.00108323 0.000324476 0.000325181 -3.96954e-05
-0.00109833 0.000328992 0.000329717 -3.96956e-05
-0.00152753 0.000458282 0.000458248 4.39817e-11
-0.00130011 0.000389778 0.000390144 -2.14985e-05
-0.00109078 0.000326734 0.000327449 -3.96955e-05
-0.00131823 0.000395204 0.000395581 -2.14986e-05
-0.00130917 0.000392491 0.000392863 -2.14986e-05
-0.00151696 0.000455113 0.000455079 4.36938e-11
-0.00149584 0.000448776 0.000448742 4.30785e-11
-0.00106813 0.000319959 0.000320644 -3.96952e-05
-0.00108323 0.000324476 0.000325181 -3.96954e-05
-0.0015064 0.000451944 0.000451911 4.33782e-11
-0.001282 0.000384352 0.000384707 -2.14985e-05
-0.00107568 0.000322217 0.000322912 -3.96953e-05
-0.00130011 0.000389778 0.000390144 -2.14985e-05
-0.00129106 0.000387065 0.000387425 -2.14985e-05
-0.00149584 0.000448776 0.000448742 4.30785e-11
-0.00147472 0.000442439 0.000442406 4.24836e-11
-0.00105303 0.000315443 0.000316108 -3.96949e-05
-0.00106813 0.000319959 0.000320644 -3.96952e-05
-0.00148528 0.000445608 0.000445574 4.2759e-11
-0.00126389 0.000378926 0.00037927 -2.14984e-05
-0.00106058 0.000317701 0.000318376 -3.96951e-05
-0.001282 0.000384352 0.000384707 -2.14985e-05
-0.00127295 0.000381639 0.000381989 -2.14984e-05
-0.00147472 0.000442439 0.000442406 4.24836e-11
-0.0014536 0.000436103 0.000436069 4.18705e-11
-0.00103793 0.000310926 0.000311572 -3.96947e-05
-0.00105303 0.000315443 0.000316108 -3.96949e-05
-0.00146416 0.000439271 0.000439237 4.21707e-11
-0.00124578 0.000373499 0.000373833 -2.14983e-05
-0.00104548 0.000313184 0.00031384 -3.96948e-05
-0.00126389 0.000378926 0.00037927 -2.14984e-05
-0.00125483 0.000376213 0.000376552 -2.14984e-05
-0.0014536 0.000436103 0.000436069 4.18705e-11
-0.00143248 0.000429766 0.000429733 4.12675e-11
-0.00102283 0.00030641 0.000307036 -3.96945e-05
-0.00103793 0.000310926 0.000311572 -3.96947e-05
-0.00144304 0.000432934 0.000432901 4.15329e-11
-0.00122767 0.000368073 0.000368397 -2.14983e-05
-0.00103038 0.000308668 0.000309304 -3.96946e-05
-0.00124578 0.000373499 0.000373833 -2.14983e-05
-0.00123672 0.000370786 0.000371115 -2.14983e-05
-0.00143248 0.000429766 0.000429733 4.12376e-11
-0.00141136 0.00042343 0.000423397 4.06456e-11
-0.00100773 0.000301893 0.0003025 -3.96944e-05
-0.00102283 0.00030641 0.000307036 -3.96945e-05
-0.00142192 0.000426598 0.000426565 4.09247e-11
-0.00120956 0.000362647 0.000362961 -2.14982e-05
-0.00101528 0.000304151 0.000304768 -3.96945e-05
-0.00122767 0.000368073 0.000368397 -2.14983e-05
-0.00121861 0.00036536 0.000365679 -2.14982e-05
-0.00141136 0.00042343 0.000423397 4.06456e-11
-0.00139023 0.000417093 0.000417061 4.00234e-11
-0.000992628 0.000297376 0.000297965 -3.96942e-05
-0.00100773 0.000301893 0.0003025 -3.96944e-05
-0.00140079 0.000420261 0.000420229 4.03077e-11
-0.00119145 0.000357221 0.000357525 -2.14981e-05
-0.00100018 0.000299635 0.000300232 -3.96943e-05
-0.00120956 0.000362647 0.000362961 -2.14982e-05
-0.0012005 0.000359934 0.000360243 -2.14982e-05
-0.00139023 0.000417093 0.000417061 4.00234e-11
-0.00136911 0.000410757 0.000410725 3.94102e-11
-0.000977529 0.00029286 0.00029343 -3.9694e-05
-0.000992628 0.000297376 0.000297965 -3.96942e-05
-0.00137967 0.000413925 0.000413893 3.97074e-11
-0.00117334 0.000351795 0.000352089 -2.14981e-05
-0.000985078 0.000295118 0.000295697 -3.96941e-05
-0.00119145 0.000357221 0.000357525 -2.14981e-05
-0.00118239 0.000354508 0.000354807 -2.14981e-05
-0.00136911 0.000410757 0.000410725 3.94199e-11
-0.001348 0.000404421 0.000404389 3.88037e-11
-0.000962431 0.000288343 0.000288895 -3.96938e-05
-0.000977529 0.00029286 0.00029343 -3.9694e-05
-0.00135855 0.000407589 0.000407557 3.9109e-11
-0.00115523 0.000346369 0.000346653 -2.1498e-05
-0.00096998 0.000290602 0.000291162 -3.96939e-05
-0.00117334 0.000351795 0.000352089 -2.14981e-05
-0.00116428 0.000349082 0.000349371 -2.14981e-05
-0.001348 0.000404421 0.000404389 3.88032e-11
-0.00132688 0.000398085 0.000398053 3.81977e-11
-0.000947334 0.000283826 0.00028436 -3.96937e-05
-0.000962431 0.000288343 0.000288895 -3.96938e-05
-0.00133744 0.000401253 0.000401221 3.85024e-11
-0.00113712 0.000340944 0.000341218 -2.1498e-05
-0.000954882 0.000286085 0.000286628 -3.96937e-05
-0.00115523 0.000346369 0.000346653 -2.1498e-05
-0.00114617 0.000343656 0.000343935 -2.1498e-05
-0.00132688 0.000398085 0.000398053 3.81977e-11
-0.00130576 0.00039175 0.000391718 3.76008e-11
-0.000932237 0.00027931 0.000279826 -3.96935e-05
-0.000947334 0.000283826 0.00028436 -3.96937e-05
-0.00131632 0.000394918 0.000394885 3.78951e-11
-0.00111901 0.000335518 0.000335782 -2.14979e-05
-0.000939785 0.000281568 0.000282093 -3.96936e-05
-0.00113712 0.000340944 0.000341218 -2.1498e-05
-0.00112806 0.000338231 0.0003385 -2.1498e-05
-0.00130576 0.00039175 0.000391718 3.76008e-11
-0.00128464 0.000385414 0.000385382 3.69695e-11
-0.00091714 0.000274793 0.000275292 -3.96933e-05
-0.000932237 0.00027931 0.000279826 -3.96935e-05
-0.0012952 0.000388582 0.00038855 3.7269e-11
-0.0011009 0.000330092 0.000330347 -2.14979e-05
-0.000924688 0.000277051 0.000277559 -3.96934e-05
-0.00111901 0.000335518 0.000335782 -2.14979e-05
-0.00110996 0.000332805 0.000333065 -2.14979e-05
-0.00128464 0.000385414 0.000385382 3.69695e-11
-0.00126352 0.000379079 0.000379047 3.63572e-11
-0.000902044 0.000270276 0.000270758 -3.96932e-05
-0.00091714 0.000274793 0.000275292 -3.96933e-05
-0.00127408 0.000382246 0.000382214 3.66564e-11
-0.00108279 0.000324666 0.000324912 -2.14979e-05
-0.000909592 0.000272534 0.000273025 -3.96933e-05
-0.0011009 0.000330092 0.000330347 -2.14979e-05
-0.00109185 0.000327379 0.00032763 -2.14979e-05
-0.00126352 0.000379079 0.000379047 3.63375e-11
-0.0012424 0.000372743 0.000372712 3.57644e-11
-0.000886949 0.000265759 0.000266224 -3.96931e-05
-0.000902044 0.000270276 0.000270758 -3.96932e-05
-0.00125296 0.000375911 0.000375879 3.60513e-11
-0.00106469 0.00031924 0.000319477 -2.14978e-05
-0.000894496 0.000268018 0.000268491 -3.96931e-05
-0.00108279 0.000324666 0.000324912 -2.14979e-05
-0.00107374 0.000321953 0.000322195 -2.14979e-05
-0.0012424 0.000372743 0.000372712 3.57644e-11
-0.00122129 0.000366408 0.000366377 3.51184e-11
-0.000871854 0.000261242 0.000261691 -3.96929e-05
-0.000886949 0.000265759 0.000266224 -3.96931e-05
-0.00123185 0.000369576 0.000369544 3.54259e-11
-0.00104658 0.000313815 0.000314043 -2.14978e-05
-0.000879401 0.000263501 0.000263957 -3.9693e-05
-0.00106469 0.00031924 0.000319477 -2.14978e-05
-0.00105563 0.000316528 0.00031676 -2.14978e-05
-0.00122129 0.000366408 0.000366377 3.51184e-11
-0.00120017 0.000360073 0.000360042 3.45096e-11
-0.000856759 0.000256725 0.000257158 -3.96928e-05
-0.000871854 0.000261242 0.000261691 -3.96929e-05
-0.00121073 0.000363241 0.000363209 3.48429e-11
-0.00102848 0.000308389 0.000308609 -2.14978e-05
-0.000864307 0.000258984 0.000259424 -3.96929e-05
-0.00104658 0.000313815 0.000314043 -2.14978e-05
-0.00103753 0.000311102 0.000311326 -2.14978e-05
-0.00120017 0.000360073 0.000360042 3.45294e-11
-0.00117905 0.000353738 0.000353707 3.39164e-11
-0.000841665 0.000252208 0.000252625 -3.96927e-05
-0.000856759 0.000256725 0.000257158 -3.96928e-05
-0.00118961 0.000356906 0.000356874 3.42151e-11
-0.00101037 0.000302963 0.000303174 -2.14978e-05
-0.000849212 0.000254467 0.000254891 -3.96928e-05
-0.00102848 0.000308389 0.000308609 -2.14978e-05
-0.00101942 0.000305676 0.000305891 -2.14978e-05
-0.00117905 0.000353738 0.000353707 3.39164e-11
-0.00115794 0.000347403 0.000347372 3.32987e-11
-0.000826572 0.000247691 0.000248092 -3.96926e-05
-0.000841665 0.000252208 0.000252625 -3.96927e-05
-0.0011685 0.000350571 0.00035054 3.35845e-11
-0.000992265 0.000297538 0.00029774 -2.14978e-05
-0.000834119 0.000249949 0.000250358 -3.96926e-05
-0.00101037 0.000302963 0.000303174 -2.14978e-05
-0.00100132 0.000300251 0.000300457 -2.14978e-05
-0.00115794 0.000347403 0.000347372 3.32987e-11
-0.00113682 0.000341069 0.000341038 3.27084e-11
-0.000811479 0.000243174 0.000243559 -3.96925e-05
-0.000826572 0.000247691 0.000248092 -3.96926e-05
-0.00114738 0.000344236 0.000344205 3.30374e-11
-0.000974161 0.000292112 0.000292307 -2.14978e-05
-0.000819025 0.000245432 0.000245826 -3.96925e-05
-0.000992265 0.000297538 0.00029774 -2.14978e-05
-0.000983213 0.000294825 0.000295024 -2.14978e-05
-0.00113682 0.000341069 0.000341038 3.27084e-11
-0.00111571 0.000334734 0.000334704 3.21151e-11
-0.000796387 0.000238657 0.000239027 -3.96924e-05
-0.000811479 0.000243174 0.000243559 -3.96925e-05
-0.00112627 0.000337901 0.000337871 3.23748e-11
-0.000956057 0.000286687 0.000286873 -2.14977e-05
-0.000803933 0.000240915 0.000241293 -3.96924e-05
-0.000974161 0.000292112 0.000292307 -2.14978e-05
-0.000965109 0.000289399 0.00028959 -2.14977e-05
-0.00111571 0.000334734 0.000334704 3.21148e-11
-0.00109459 0.0003284 0.000328369 3.1488e-11
-0.000781295 0.000234139 0.000234495 -3.96923e-05
-0.000796387 0.000238657 0.000239027 -3.96924e-05
-0.00110515 0.000331567 0.000331536 3.18315e-11
-0.000937954 0.000281261 0.00028144 -2.14977e-05
-0.000788841 0.000236398 0.000236761 -3.96924e-05
-0.000956057 0.000286687 0.000286873 -2.14977e-05
-0.000947005 0.000283974 0.000284156 -2.14977e-05
-0.00109459 0.0003284 0.000328369 3.1494e-11
-0.00107348 0.000322065 0.000322035 3.09033e-11
-0.000766203 0.000229622 0.000229963 -3.96922e-05
-0.000781295 0.000234139 0.000234495 -3.96923e-05
-0.00108404 0.000325233 0.000325202 3.11792e-11
-0.000919851 0.000275836 0.000276006 -2.14977e-05
-0.000773749 0.000231881 0.000232229 -3.96923e-05
-0.000937954 0.000281261 0.00028144 -2.14977e-05
-0.000928902 0.000278548 0.000278723 -2.14977e-05
-0.00107348 0.000322065 0.000322035 3.09033e-11
-0.00105237 0.000315731 0.000315701 3.02948e-11
-0.000751112 0.000225105 0.000225432 -3.96922e-05
-0.000766203 0.000229622 0.000229963 -3.96922e-05
-0.00106292 0.000318898 0.000318868 3.05571e-11
-0.000901748 0.00027041 0.000270573 -2.14978e-05
-0.000758658 0.000227363 0.000227698 -3.96922e-05
-0.000919851 0.000275836 0.000276006 -2.14977e-05
-0.000910799 0.000273123 0.00027329 -2.14977e-05
-0.00105237 0.000315731 0.000315701 3.03146e-11
-0.00103125 0.000309397 0.000309367 2.96829e-11
-0.000736022 0.000220587 0.0002209 -3.96921e-05
-0.000751112 0.000225105 0.000225432 -3.96922e-05
-0.00104181 0.000312564 0.000312534 2.99752e-11
-0.000883646 0.000264985 0.00026514 -2.14978e-05
-0.000743567 0.000222846 0.000223166 -3.96921e-05
-0.000901748 0.00027041 0.000270573 -2.14978e-05
-0.000892697 0.000267697 0.000267857 -2.14978e-05
-0.00103125 0.000309397 0.000309367 2.96829e-11
-0.00101014 0.000303063 0.000303033 2.90694e-11
-0.000720932 0.00021607 0.000216369 -3.96921e-05
-0.000736022 0.000220587 0.0002209 -3.96921e-05
-0.0010207 0.00030623 0.0003062 2.93551e-11
-0.000865544 0.000259559 0.000259708 -2.14978e-05
-0.000728477 0.000218328 0.000218635 -3.96921e-05
-0.000883646 0.000264985 0.00026514 -2.14978e-05
-0.000874595 0.000262272 0.000262424 -2.14978e-05
-0.00101014 0.000303063 0.000303033 2.90694e-11
-0.000989029 0.000296729 0.0002967 2.84594e-11
-0.000705842 0.000211552 0.000211839 -3.9692e-05
-0.000720932 0.00021607 0.000216369 -3.96921e-05
-0.000999585 0.000299896 0.000299867 2.88041e-11
-0.000847443 0.000254134 0.000254275 -2.14978e-05
-0.000713387 0.000213811 0.000214104 -3.9692e-05
-0.000865544 0.000259559 0.000259708 -2.14978e-05
-0.000856493 0.000256847 0.000256991 -2.14978e-05
-0.000989029 0.000296729 0.0002967 2.84594e-11
-0.000967917 0.000290396 0.000290366 2.78433e-11
-0.000690753 0.000207035 0.000207308 -3.9692e-05
-0.000705842 0.000211552 0.000211839 -3.9692e-05
-0.000978473 0.000293563 0.000293533 2.81215e-11
-0.000829342 0.000248709 0.000248843 -2.14978e-05
-0.000698297 0.000209293 0.000209573 -3.9692e-05
-0.000847443 0.000254134 0.000254275 -2.14978e-05
-0.000838392 0.000251421 0.000251559 -2.14978e-05
-0.000967917 0.000290396 0.000290366 2.78532e-11
-0.000946805 0.000284062 0.000284033 2.72373e-11
-0.000675664 0.000202517 0.000202777 -3.9692e-05
-0.000690753 0.000207035 0.000207308 -3.9692e-05
-0.000957361 0.000287229 0.0002872 2.75607e-11
-0.000811242 0.000243283 0.000243411 -2.14979e-05
-0.000683209 0.000204776 0.000205043 -3.9692e-05
-0.000829342 0.000248709 0.000248843 -2.14978e-05
-0.000820292 0.000245996 0.000246127 -2.14978e-05
-0.000946805 0.000284062 0.000284033 2.72373e-11
-0.000925694 0.000277729 0.0002777 2.66493e-11
-0.000660576 0.000197999 0.000198247 -3.96919e-05
-0.000675664 0.000202517 0.000202777 -3.9692e-05
-0.00093625 0.000280895 0.000280866 2.69392e-11
-0.000793142 0.000237858 0.000237979 -2.14979e-05
-0.00066812 0.000200258 0.000200512 -3.96919e-05
-0.000811242 0.000243283 0.000243411 -2.14979e-05
-0.000802192 0.000240571 0.000240695 -2.14979e-05
-0.000925694 0.000277729 0.0002777 2.66493e-11
-0.000904583 0.000271395 0.000271366 2.60465e-11
-0.000645488 0.000193481 0.000193717 -3.96919e-05
-0.000660576 0.000197999 0.000198247 -3.96919e-05
-0.000915139 0.000274562 0.000274533 2.63271e-11
-0.000775042 0.000232433 0.000232547 -2.14979e-05
-0.000653032 0.00019574 0.000195982 -3.96919e-05
-0.000793142 0.000237858 0.000237979 -2.14979e-05
-0.000784092 0.000235145 0.000235263 -2.14979e-05
-0.000904583 0.000271395 0.000271366 2.60307e-11
-0.000883473 0.000265062 0.000265033 2.54661e-11
-0.000630401 0.000188964 0.000189188 -3.96919e-05
-0.000645488 0.000193481 0.000193717 -3.96919e-05
-0.000894028 0.000268229 0.0002682 2.57513e-11
-0.000756943 0.000227007 0.000227115 -2.1498e-05
-0.000637945 0.000191223 0.000191452 -3.96919e-05
-0.000775042 0.000232433 0.000232547 -2.14979e-05
-0.000765992 0.00022972 0.000229831 -2.14979e-05
-0.000883473 0.000265062 0.000265033 2.54664e-11
-0.000862363 0.000258729 0.0002587 2.48332e-11
-0.000615314 0.000184446 0.000184658 -3.96919e-05
-0.000630401 0.000188964 0.000189188 -3.96919e-05
-0.000872918 0.000261895 0.000261867 2.51672e-11
-0.000738844 0.000221582 0.000221684 -2.1498e-05
-0.000622858 0.000186705 0.000186923 -3.96919e-05
-0.000756943 0.000227007 0.000227115 -2.1498e-05
-0.000747893 0.000224295 0.000224399 -2.1498e-05
-0.000862363 0.000258729 0.0002587 2.48332e-11
-0.000841253 0.000252396 0.000252367 2.42447e-11
-0.000600228 0.000179928 0.000180129 -3.96919e-05
-0.000615314 0.000184446 0.000184658 -3.96919e-05
-0.000851808 0.000255562 0.000255534 2.4567e-11
-0.000720746 0.000216157 0.000216252 -2.14981e-05
-0.000607771 0.000182187 0.000182393 -3.96919e-05
-0.000738844 0.000221582 0.000221684 -2.1498e-05
-0.000729795 0.000218869 0.000218968 -2.1498e-05
-0.000841253 0.000252396 0.000252367 2.42447e-11
-0.000820143 0.000246063 0.000246035 2.36137e-11
-0.000585142 0.00017541 0.0001756 -3.9692e-05
-0.000600228 0.000179928 0.000180129 -3.96919e-05
-0.000830698 0.000249229 0.000249201 2.39185e-11
-0.000702648 0.000210731 0.000210821 -2.14981e-05
-0.000592685 0.000177669 0.000177864 -3.9692e-05
-0.000720746 0.000216157 0.000216252 -2.14981e-05
-0.000711697 0.000213444 0.000213537 -2.14981e-05
-0.000820143 0.000246063 0.000246035 2.36134e-11
-0.000799034 0.00023973 0.000239702 2.3021e-11
-0.000570057 0.000170892 0.000171071 -3.9692e-05
-0.000585142 0.00017541 0.0001756 -3.9692e-05
-0.000809589 0.000242896 0.000242868 2.33218e-11
-0.00068455 0.000205306 0.00020539 -2.14982e-05
-0.000577599 0.000173151 0.000173335 -3.9692e-05
-0.000702648 0.000210731 0.000210821 -2.14981e-05
-0.000693599 0.000208019 0.000208106 -2.14981e-05
-0.000799034 0.00023973 0.000239702 2.3028e-11
-0.000777926 0.000233397 0.000233369 2.24094e-11
-0.000554972 0.000166373 0.000166542 -3.9692e-05
-0.000570057 0.000170892 0.000171071 -3.9692e-05
-0.00078848 0.000236563 0.000236536 2.27492e-11
-0.000666453 0.000199881 0.00019996 -2.14982e-05
-0.000562514 0.000168633 0.000168806 -3.9692e-05
-0.00068455 0.000205306 0.00020539 -2.14982e-05
-0.000675502 0.000202594 0.000202675 -2.14982e-05
-0.000777926 0.000233397 0.000233369 2.24094e-11
-0.000756817 0.000227064 0.000227037 2.1819e-11
-0.000539887 0.000161855 0.000162014 -3.96921e-05
-0.000554972 0.000166373 0.000166542 -3.9692e-05
-0.000767371 0.000230231 0.000230203 2.21423e-11
-0.000648357 0.000194456 0.000194529 -2.14983e-05
-0.000547429 0.000164114 0.000164278 -3.96921e-05
-0.000666453 0.000199881 0.00019996 -2.14982e-05
-0.000657405 0.000197168 0.000197244 -2.14983e-05
-0.000756817 0.000227064 0.000227037 2.1819e-11
-0.000735709 0.000220732 0.000220705 2.11679e-11
-0.000524803 0.000157337 0.000157485 -3.96922e-05
-0.000539887 0.000161855 0.000162014 -3.96921e-05
-0.000746263 0.000223898 0.000223871 2.14941e-11
-0.00063026 0.000189031 0.000189098 -2.14984e-05
-0.000532345 0.000159596 0.00015975 -3.96921e-05
-0.000648357 0.000194456 0.000194529 -2.14983e-05
-0.000639308 0.000191743 0.000191814 -2.14984e-05
-0.000735709 0.000220732 0.000220705 2.11904e-11
-0.000714601 0.000214399 0.000214372 2.05346e-11
-0.000509719 0.000152819 0.000152957 -3.96922e-05
-0.000524803 0.000157337 0.000157485 -3.96922e-05
-0.000725155 0.000217566 0.000217538 2.08369e-11
-0.000612164 0.000183605 0.000183668 -2.14985e-05
-0.000517261 0.000155078 0.000155221 -3.96922e-05
-0.00063026 0.000189031 0.000189098 -2.14984e-05
-0.000621212 0.000186318 0.000186383 -2.14984e-05
-0.000714601 0.000214399 0.000214372 2.05343e-11
-0.000693494 0.000208067 0.00020804 1.98086e-11
-0.000494636 0.0001483 0.00014843 -3.96923e-05
-0.000509719 0.000152819 0.000152957 -3.96922e-05
-0.000704048 0.000211233 0.000211206 2.0202e-11
-0.000594069 0.00017818 0.000178238 -2.14986e-05
-0.000502178 0.000150559 0.000150694 -3.96923e-05
-0.000612164 0.000183605 0.000183668 -2.14985e-05
-0.000603116 0.000180893 0.000180953 -2.14985e-05
-0.000693494 0.000208067 0.00020804 1.98086e-11
-0.000672387 0.000201735 0.000201708 1.91357e-11
-0.000479553 0.000143782 0.000143902 -3.96924e-05
-0.000494636 0.0001483 0.00014843 -3.96923e-05
-0.00068294 0.000204901 0.000204874 1.95005e-11
-0.000575974 0.000172755 0.000172808 -2.14986e-05
-0.000487094 0.000146041 0.000146166 -3.96923e-05
-0.000594069 0.00017818 0.000178238 -2.14986e-05
-0.000585021 0.000175468 0.000175523 -2.14986e-05
-0.000672387 0.000201735 0.000201708 1.91357e-11
-0.00065128 0.000195403 0.000195376 1.83577e-11
-0.000464471 0.000139263 0.000139375 -3.96925e-05
-0.000479553 0.000143782 0.000143902 -3.96924e-05
-0.000661834 0.000198569 0.000198542 1.87649e-11
-0.000557879 0.00016733 0.000167378 -2.14987e-05
-0.000472012 0.000141522 0.000141638 -3.96924e-05
-0.000575974 0.000172755 0.000172808 -2.14986e-05
-0.000566926 0.000170042 0.000170093 -2.14987e-05
-0.00065128 0.000195403 0.000195376 1.83577e-11
-0.000630174 0.00018907 0.000189044 1.75728e-11
-0.000449389 0.000134744 0.000134848 -3.96925e-05
-0.000464471 0.000139263 0.000139375 -3.96925e-05
-0.000640727 0.000192236 0.00019221 1.79581e-11
-0.000539784 0.000161905 0.000161948 -2.14988e-05
-0.00045693 0.000137004 0.000137111 -3.96925e-05
-0.000557879 0.00016733 0.000167378 -2.14987e-05
-0.000548831 0.000164617 0.000164663 -2.14988e-05
-0.000630174 0.00018907 0.000189044 1.76089e-11
-0.000609068 0.000182738 0.000182712 1.66828e-11
-0.000434307 0.000130226 0.000130321 -3.96926e-05
-0.000449389 0.000134744 0.000134848 -3.96925e-05
-0.000619621 0.000185904 0.000185878 1.70837e-11
-0.00052169 0.000156479 0.000156519 -2.14989e-05
-0.000441848 0.000132485 0.000132584 -3.96926e-05
-0.000539784 0.000161905 0.000161948 -2.14988e-05
-0.000530737 0.000159192 0.000159234 -2.14989e-05
-0.000609068 0.000182738 0.000182712 1.66828e-11
-0.000587962 0.000176407 0.000176381 1.57308e-11
-0.000419226 0.000125707 0.000125794 -3.96927e-05
-0.000434307 0.000130226 0.000130321 -3.96926e-05
-0.000598515 0.000179572 0.000179547 1.61836e-11
-0.000503597 0.000151054 0.00015109 -2.1499e-05
-0.000426766 0.000127966 0.000128057 -3.96927e-05
-0.00052169 0.000156479 0.000156519 -2.14989e-05
-0.000512643 0.000153767 0.000153804 -2.14989e-05
-0.000587962 0.000176407 0.000176381 1.57308e-11
-0.000566856 0.000170075 0.000170049 1.46252e-11
-0.000404145 0.000121188 0.000121267 -3.96927e-05
-0.000419226 0.000125707 0.000125794 -3.96927e-05
-0.000577409 0.000173241 0.000173215 1.51587e-11
-0.000485503 0.000145629 0.00014566 -2.14991e-05
-0.000411685 0.000123447 0.000123531 -3.96927e-05
-0.000503597 0.000151054 0.00015109 -2.1499e-05
-0.00049455 0.000148342 0.000148375 -2.1499e-05
-0.000566856 0.000170075 0.000170049 1.46492e-11
-0.000545751 0.000163743 0.000163718 1.36082e-11
-0.000389065 0.000116669 0.000116741 -3.96928e-05
-0.000404145 0.000121188 0.000121267 -3.96927e-05
-0.000556304 0.000166909 0.000166883 1.40743e-11
-0.00046741 0.000140204 0.000140231 -2.14991e-05
-0.000396605 0.000118928 0.000119004 -3.96928e-05
-0.000485503 0.000145629 0.00014566 -2.14991e-05
-0.000476457 0.000142916 0.000142946 -2.14991e-05
-0.000545751 0.000163743 0.000163718 1.36082e-11
-0.000524646 0.000157411 0.000157386 1.25781e-11
-0.000373985 0.00011215 0.000112215 -3.96928e-05
-0.000389065 0.000116669 0.000116741 -3.96928e-05
-0.000535199 0.000160577 0.000160552 1.30108e-11
-0.000449318 0.000134779 0.000134802 -2.14992e-05
-0.000381525 0.000114409 0.000114478 -3.96928e-05
-0.00046741 0.000140204 0.000140231 -2.14991e-05
-0.000458364 0.000137491 0.000137517 -2.14991e-05
-0.000524646 0.000157411 0.000157386 1.25781e-11
-0.000503542 0.00015108 0.000151055 1.21051e-11
-0.000358905 0.000107631 0.000107689 -3.96928e-05
-0.000373985 0.00011215 0.000112215 -3.96928e-05
-0.000514094 0.000154246 0.000154221 1.21361e-11
-0.000431226 0.000129354 0.000129374 -2.14992e-05
-0.000366445 0.00010989 0.000109952 -3.96928e-05
-0.000449318 0.000134779 0.000134802 -2.14992e-05
-0.000440272 0.000132066 0.000132088 -2.14992e-05
-0.000503542 0.00015108 0.000151055 1.21051e-11
-0.000482438 0.000144749 0.000144724 1.18983e-11
-0.000343826 0.000103111 0.000103164 -3.96927e-05
-0.000358905 0.000107631 0.000107689 -3.96928e-05
-0.00049299 0.000147914 0.00014789 1.18256e-11
-0.000413134 0.000123929 0.000123945 -2.14992e-05
-0.000351366 0.000105371 0.000105426 -3.96927e-05
-0.000431226 0.000129354 0.000129374 -2.14992e-05
-0.00042218 0.000126641 0.00012666 -2.14992e-05
-0.000482438 0.000144749 0.000144724 1.18983e-11
-0.000461335 0.000138417 0.000138393 1.38269e-11
-0.000328748 9.85922e-05 9.86381e-05 -3.96927e-05
-0.000343826 0.000103111 0.000103164 -3.96927e-05
-0.000471886 0.000141583 0.000141559 1.23722e-11
-0.000395043 0.000118503 0.000118517 -2.14991e-05
-0.000336287 0.000100852 0.000100901 -3.96927e-05
-0.000413134 0.000123929 0.000123945 -2.14992e-05
-0.000404089 0.000121216 0.000121231 -2.14992e-05
-0.000461335 0.000138417 0.000138393 1.38628e-11
-0.000440231 0.000132086 0.000132062 1.65355e-11
-0.00031367 9.4073e-05 9.41129e-05 -3.96926e-05
-0.000328748 9.85922e-05 9.86381e-05 -3.96927e-05
-0.000450783 0.000135252 0.000135228 1.45576e-11
-0.000376952 0.000113078 0.000113089 -2.14991e-05
-0.000321209 9.63326e-05 9.63755e-05 -3.96926e-05
-0.000395043 0.000118503 0.000118517 -2.14991e-05
-0.000385998 0.000115791 0.000115803 -2.14991e-05
-0.000440231 0.000132086 0.000132062 1.65355e-11
-0.000419129 0.000125755 0.000125731 2.50402e-11
-0.000298592 8.95537e-05 8.95878e-05 -3.96927e-05
-0.00031367 9.4073e-05 9.41129e-05 -3.96926e-05
-0.00042968 0.000128921 0.000128897 2.07163e-11
-0.000358862 0.000107653 0.000107661 -2.14992e-05
-0.000306131 9.18133e-05 9.18503e-05 -3.96926e-05
-0.000376952 0.000113078 0.000113089 -2.14991e-05
-0.000367907 0.000110366 0.000110375 -2.14991e-05
-0.000419129 0.000125755 0.000125731 2.50402e-11
-0.000398027 0.000119425 0.000119401 3.36624e-11
-0.000283515 8.50345e-05 8.5063e-05 -3.96929e-05
-0.000298592 8.95537e-05 8.95878e-05 -3.96927e-05
-0.000408578 0.00012259 0.000122566 2.71909e-11
-0.000340772 0.000102228 0.000102233 -2.14994e-05
-0.000291053 8.72941e-05 8.73254e-05 -3.96928e-05
-0.000358862 0.000107653 0.000107661 -2.14992e-05
-0.000349817 0.000104941 0.000104947 -2.14993e-05
-0.000398027 0.000119425 0.000119401 3.36297e-11
-0.000376924 0.000113094 0.00011307 5.11684e-11
-0.000268438 8.05153e-05 8.05383e-05 -3.96936e-05
-0.000283515 8.50345e-05 8.5063e-05 -3.96929e-05
-0.000387476 0.000116259 0.000116236 4.8352e-11
-0.000322682 9.68034e-05 9.68052e-05 -2.14998e-05
-0.000275976 8.27749e-05 8.28006e-05 -3.96932e-05
-0.000340772 0.000102228 0.000102233 -2.14994e-05
-0.000331727 9.95159e-05 9.95191e-05 -2.14996e-05
-0.000376924 0.000113094 0.00011307 5.11681e-11
-0.000355822 0.000106763 0.00010674 6.36663e-11
-0.000253361 7.59962e-05 7.60137e-05 -3.96948e-05
-0.000268438 8.05153e-05 8.05383e-05 -3.96936e-05
-0.000366373 0.000109928 0.000109905 4.62746e-11
-0.000304592 9.13783e-05 9.13774e-05 -2.15007e-05
-0.0002609 7.82557e-05 7.82759e-05 -3.96941e-05
-0.000322682 9.68034e-05 9.68052e-05 -2.14998e-05
-0.000313637 9.40909e-05 9.40913e-05 -2.15002e-05
-0.000355822 0.000106763 0.00010674 6.36663e-11
-0.000334719 0.000100432 0.000100409 5.48627e-11
-0.000238285 7.14769e-05 7.14892e-05 -3.96966e-05
-0.000253361 7.59962e-05 7.60137e-05 -3.96948e-05
-0.000345271 0.000103597 0.000103574 1.01853e-10
-0.000286502 8.59531e-05 8.59496e-05 -2.1502e-05
-0.000245823 7.37366e-05 7.37514e-05 -3.96956e-05
-0.000304592 9.13783e-05 9.13774e-05 -2.15007e-05
-0.000295547 8.86658e-05 8.86635e-05 -2.15013e-05
-0.000334719 0.000100432 0.000100409 5.48627e-11
-0.000313614 9.40999e-05 9.40774e-05 4.08666e-11
-0.000223209 6.69571e-05 6.6965e-05 -3.96989e-05
-0.000238285 7.14769e-05 7.14892e-05 -3.96966e-05
-0.000324167 9.72659e-05 9.72432e-05 -1.43516e-11
-0.000268412 8.05277e-05 8.05217e-05 -2.15037e-05
-0.000230747 6.92171e-05 6.92271e-05 -3.96978e-05
-0.000286502 8.59531e-05 8.59496e-05 -2.1502e-05
-0.000277457 8.32405e-05 8.32357e-05 -2.15028e-05
-0.000313614 9.40999e-05 9.40774e-05 4.08666e-11
-0.000292507 8.77672e-05 8.77456e-05 -2.53799e-10
-0.000208132 6.24355e-05 6.24414e-05 -3.97005e-05
-0.000223209 6.69571e-05 6.6965e-05 -3.96989e-05
-0.000303061 9.09335e-05 9.09116e-05 1.14955e-10
-0.000250321 7.51016e-05 7.5094e-05 -2.15052e-05
-0.000215671 6.46966e-05 6.47031e-05 -3.96999e-05
-0.000268412 8.05277e-05 8.05217e-05 -2.15037e-05
-0.000259366 7.78147e-05 7.78078e-05 -2.15046e-05
-0.000292507 8.77672e-05 8.77456e-05 -2.53859e-10
-0.000271397 8.14347e-05 8.14125e-05 -3.87117e-10
-0.000193055 5.79099e-05 5.79193e-05 -3.96979e-05
-0.000208132 6.24355e-05 6.24414e-05 -3.97005e-05
-0.000281953 8.46013e-05 8.45791e-05 -6.54679e-10
-0.00023223 6.96748e-05 6.96667e-05 -2.1504e-05
-0.000200593 6.01734e-05 6.018e-05 -3.97001e-05
-0.000250321 7.51016e-05 7.5094e-05 -2.15052e-05
-0.000241276 7.23884e-05 7.23803e-05 -2.15051e-05
-0.000271397 8.14347e-05 8.14125e-05 -3.87117e-10
-0.000250291 7.5101e-05 7.50814e-05 -2.23032e-09
-0.000177974 5.33753e-05 5.33996e-05 -3.96847e-05
-0.000193055 5.79099e-05 5.79193e-05 -3.96979e-05
-0.000260843 7.82667e-05 7.82469e-05 -2.99509e-10
-0.000214145 6.42469e-05 6.42422e-05 -2.14956e-05
-0.000185516 5.56442e-05 5.56592e-05 -3.96932e-05
-0.00023223 6.96748e-05 6.96667e-05 -2.1504e-05
-0.000223186 6.69611e-05 6.69538e-05 -2.15013e-05
-0.000250291 7.5101e-05 7.50814e-05 -2.23032e-09
-0.000229193 6.87765e-05 6.875e-05 -2.44694e-09
-0.000162892 4.88223e-05 4.88869e-05 -3.96435e-05
-0.000177974 5.33753e-05 5.33996e-05 -3.96847e-05
-0.000239741 7.19397e-05 7.1915e-05 -4.01876e-09
-0.000196071 5.8818e-05 5.88228e-05 -2.14673e-05
-0.000170433 5.11017e-05 5.11418e-05 -3.96694e-05
-0.000214145 6.42469e-05 6.42422e-05 -2.14956e-05
-0.000205107 6.15325e-05 6.15319e-05 -2.14846e-05
-0.000229193 6.87765e-05 6.875e-05 -2.44695e-09
-0.000208146 6.24548e-05 6.24393e-05 -1.09466e-08
-0.000147793 4.42353e-05 4.43818e-05 -3.95502e-05
-0.000162892 4.88223e-05 4.88869e-05 -3.96435e-05
-0.000218658 6.56082e-05 6.55926e-05 -2.36915e-09
-0.000178033 5.33886e-05 5.34191e-05 -2.13987e-05
-0.000155347 4.65351e-05 4.66336e-05 -3.96053e-05
-0.000196071 5.8818e-05 5.88228e-05 -2.14673e-05
-0.000187044 5.61035e-05 5.61175e-05 -2.14411e-05
-0.000208146 6.24548e-05 6.24393e-05 -1.09466e-08
-0.000187184 5.61964e-05 5.61373e-05 -9.23523e-09
-0.000132683 3.95834e-05 3.98999e-05 -3.93436e-05
-0.000147793 4.42353e-05 4.43818e-05 -3.95502e-05
-0.000197656 5.93294e-05 5.9283e-05 -1.81074e-08
-0.000160054 4.79603e-05 4.80402e-05 -2.12452e-05
-0.000140236 4.19183e-05 4.21362e-05 -3.94671e-05
-0.000178033 5.33886e-05 5.34191e-05 -2.13987e-05
-0.000169037 5.06733e-05 5.07271e-05 -2.1334e-05
-0.000187184 5.61964e-05 5.61373e-05 -9.23523e-09
-0.000166499 4.99548e-05 4.99475e-05 -4.27476e-08
-0.000117498 3.48304e-05 3.54289e-05 -3.89614e-05
-0.000132683 3.95834e-05 3.98999e-05 -3.93436e-05
-0.00017678 5.3038e-05 5.30324e-05 -7.68171e-09
-0.00014223 4.2541e-05 4.2724e-05 -2.09343e-05
-0.000125111 3.72271e-05 3.76647e-05 -3.91786e-05
-0.000160054 4.79603e-05 4.80402e-05 -2.12452e-05
-0.000151111 4.52511e-05 4.53683e-05 -2.11223e-05
-0.000166499 4.99548e-05 4.99475e-05 -4.27476e-08
-0.000146223 4.40307e-05 4.37968e-05 -2.56755e-08
-0.000102255 2.98885e-05 3.10141e-05 -3.82406e-05
-0.000117498 3.48304e-05 3.54289e-05 -3.89614e-05
-0.00015632 4.70142e-05 4.68453e-05 -7.1483e-08
-0.000124609 3.7128e-05 3.7492e-05 -2.03488e-05
-0.00010987 3.23784e-05 3.32107e-05 -3.86593e-05
-0.00014223 4.2541e-05 4.2724e-05 -2.09343e-05
-0.000133401 3.98279e-05 4.01027e-05 -2.06727e-05
-0.000146223 4.40307e-05 4.37968e-05 -2.56755e-08
-0.000127048 3.81086e-05 3.81169e-05 -1.44521e-07
-8.66707e-05 2.4735e-05 2.65439e-05 -3.71188e-05
-0.000102255 2.98885e-05 3.10141e-05 -3.82406e-05
-0.000136402 4.09015e-05 4.09287e-05 -5.96244e-09
-0.000107496 3.17644e-05 3.24566e-05 -1.92725e-05
-9.45542e-05 2.73659e-05 2.8795e-05 -3.77303e-05
-0.000124609 3.7128e-05 3.7492e-05 -2.03488e-05
-0.000115945 3.44509e-05 3.49259e-05 -1.99235e-05
-0.000127048 3.81086e-05 3.81169e-05 -1.44521e-07
-0.000109429 3.35749e-05 3.25087e-05 -4.69981e-08
-7.07676e-05 1.91602e-05 2.21175e-05 -3.53474e-05
-8.66707e-05 2.4735e-05 2.65439e-05 -3.71188e-05
-0.000118083 3.59713e-05 3.51908e-05 -2.69713e-07
-9.07982e-05 2.63772e-05 2.7609e-05 -1.75483e-05
-7.87074e-05 2.19494e-05 2.43249e-05 -3.63363e-05
-0.000107496 3.17644e-05 3.24566e-05 -1.92725e-05
-9.91519e-05 2.90486e-05 3.00443e-05 -1.84381e-05
-0.000109429 3.35749e-05 3.25087e-05 -4.69981e-08
-9.53078e-05 2.85668e-05 2.86033e-05 -3.97354e-07
-5.34509e-05 1.36133e-05 1.70733e-05 -3.34484e-05
-7.07676e-05 1.91602e-05 2.21175e-05 -3.53474e-05
-0.000101649 3.03779e-05 3.05446e-05 1.20434e-07
-7.53119e-05 2.1142e-05 2.32156e-05 -1.46794e-05
-6.24744e-05 1.64728e-05 1.9715e-05 -3.43562e-05
-9.07982e-05 2.63772e-05 2.7609e-05 -1.75483e-05
-8.27474e-05 2.37953e-05 2.52652e-05 -1.64488e-05
-9.53078e-05 2.85668e-05 2.86033e-05 -3.97354e-07
-8.67698e-05 2.89844e-05 2.47652e-05 6.62997e-07
-3.48625e-05 8.13374e-06 1.14552e-05 -3.2279e-05
-5.34509e-05 1.36133e-05 1.70733e-05 -3.34484e-05
-9.03626e-05 2.95608e-05 2.60579e-05 -8.67057e-07
-5.91387e-05 1.55035e-05 1.87008e-05 -1.15879e-05
-4.41096e-05 1.04916e-05 1.44077e-05 -3.26441e-05
-7.53119e-05 2.1142e-05 2.32156e-05 -1.46794e-05
-6.77046e-05 1.82965e-05 2.11749e-05 -1.27642e-05
-8.67698e-05 2.89844e-05 2.47652e-05 6.62997e-07
-9.08691e-05 2.45881e-05 2.84061e-05 3.88582e-06
-1.34029e-05 8.62073e-06 2.0495e-06 -3.7642e-05
-3.48625e-05 8.13374e-06 1.14552e-05 -3.2279e-05
-8.63365e-05 2.41088e-05 2.6669e-05 2.77253e-06
-4.18538e-05 1.08115e-05 1.33038e-05 -9.81058e-06
-2.48977e-05 7.55586e-06 7.43224e-06 -3.35806e-05
-5.91387e-05 1.55035e-05 1.87008e-05 -1.15879e-05
-5.02948e-05 1.30233e-05 1.59735e-05 -1.09353e-05
-9.08691e-05 2.45881e-05 2.84061e-05 3.88582e-06
-0.000123535 2.43099e-05 4.25251e-05 2.9825e-05
-3.47332e-06 3.3267e-05 -1.27687e-05 -5.67913e-05
-1.34029e-05 8.62073e-06 2.0495e-06 -3.7642e-05
-0.000102544 3.46343e-05 2.91039e-05 8.1039e-06
-6.971e-06 2.03567e-05 -5.73671e-06 -3.33976e-05
-4.79052e-06 1.3314e-05 -3.65292e-06 -4.45278e-05
-4.18538e-05 1.08115e-05 1.33038e-05 -9.81058e-06
-2.90139e-05 1.04532e-05 7.95459e-06 -1.43732e-05
-0.000123535 2.43099e-05 4.25251e-05 2.9825e-05
-6.35539e-05 0.000194212 -5.59965e-05 -0.00015498
-4.35782e-05 0.000148346 -4.49004e-05 -5.67708e-05
-3.47332e-06 3.3267e-05 -1.27687e-05 -5.67913e-05
-0.000121396 5.84201e-06 4.95232e-05 1.21988e-05
-3.8427e-05 0.00018249 -6.17413e-05 -9.12791e-05
-1.46649e-05 7.91758e-05 -2.76476e-05 -6.64916e-05
-6.971e-06 2.03567e-05 -5.73671e-06 -3.33976e-05
-1.51172e-06 5.95204e-05 -2.48608e-05 -6.09816e-05
-0.00253538 0 0.00108659 -0.000142774
-0.0028555 0.000566471 0.000981011 -0.000210767
-0.00165689 0.000217304 0.000616966 -5.42575e-06
-0.00146602 0 0.000628296 0.000193408
-0.00271532 0.00026797 0.00104887 -0.000244754
-0.00220719 0.000341049 0.000799774 -8.67354e-05
-0.00158804 0.000122127 0.000628248 7.33667e-05
-0.00207818 0 0.000890651 3.25168e-05
-0.00211334 0.000188989 0.000824723 -2.6516e-05
-0.0028555 0.000566471 0.000981011 -0.000210767
-0.00296634 0.000801936 0.000927602 -9.97294e-05
-0.00174099 0.000397488 0.000575786 -6.73646e-05
-0.00165689 0.000217304 0.000616966 -5.42575e-06
-0.00294338 0.000733003 0.000947302 -0.000151551
-0.00235355 0.000578554 0.000760711 -0.000101639
-0.00169907 0.000313167 0.000593959 -4.53539e-05
-0.00220719 0.000341049 0.000799774 -8.67354e-05
-0.00230535 0.000474623 0.000784599 -0.000114262
-0.00296634 0.000801936 0.000927602 -9.97294e-05
-0.00295166 0.00086738 0.000893262 -3.68113e-05
-0.00178333 0.00048789 0.000555187 -7.94262e-05
-0.00174099 0.000397488 0.000575786 -6.73646e-05
-0.00295793 0.000842673 0.00090654 -5.8319e-05
-0.00237659 0.000673214 0.000730019 -6.81932e-05
-0.00177247 0.000453708 0.000565182 -7.82317e-05
-0.00235355 0.000578554 0.000760711 -0.000101639
-0.00237093 0.000640506 0.000741609 -8.02319e-05
-0.00295166 0.00086738 0.000893262 -3.68113e-05
-0.00293077 0.000875929 0.000880647 -2.31914e-05
-0.00178132 0.00052303 0.000539267 -7.36336e-05
-0.00178333 0.00048789 0.000555187 -7.94262e-05
-0.00294383 0.000875886 0.000886261 -2.75996e-05
-0.00236479 0.000703041 0.00071218 -5.20432e-05
-0.0017831 0.000510011 0.000545611 -7.61603e-05
-0.00237659 0.000673214 0.000730019 -6.81932e-05
-0.00237355 0.000692706 0.00072036 -5.95065e-05
-0.00293077 0.000875929 0.000880647 -2.31914e-05
-0.00290674 0.000874175 0.000871098 -2.28814e-05
-0.00176859 0.000529376 0.000531093 -6.97796e-05
-0.00178132 0.00052303 0.000539267 -7.36336e-05
-0.00291693 0.000875312 0.000874977 -2.16491e-05
-0.00234294 0.000704338 0.000702257 -4.71795e-05
-0.00177685 0.000528503 0.000535007 -7.17323e-05
-0.00236479 0.000703041 0.00071218 -5.20432e-05
-0.00235353 0.000705761 0.000706187 -4.78926e-05
-0.00290674 0.000874175 0.000871098 -2.28814e-05
-0.00288849 0.000867601 0.000866093 -2.7867e-05
-0.00175086 0.000526384 0.000524778 -6.72086e-05
-0.00176859 0.000529376 0.000531093 -6.97796e-05
-0.00289799 0.000871287 0.000868587 -2.55179e-05
-0.00232288 0.000699172 0.000695874 -4.77767e-05
-0.00175908 0.000528429 0.000527423 -6.80735e-05
-0.00234294 0.000704338 0.000702257 -4.71795e-05
-0.0023328 0.000702016 0.000698905 -4.74783e-05
-0.00288849 0.000867601 0.000866093 -2.7867e-05
-0.00287081 0.000861255 0.000861237 -3.19792e-05
-0.00173547 0.000520325 0.000520776 -6.64753e-05
-0.00175086 0.000526384 0.000524778 -6.72086e-05
-0.00287912 0.000864293 0.000863499 -2.99352e-05
-0.00230484 0.000691916 0.000691252 -4.96894e-05
-0.00174323 0.00052351 0.000522737 -6.68117e-05
-0.00232288 0.000699172 0.000695874 -4.77767e-05
-0.00231347 0.000695636 0.000693356 -4.85369e-05
-0.00287081 0.000861255 0.000861237 -3.19792e-05
-0.00285491 0.000855116 0.000857055 -3.52907e-05
-0.00172147 0.000514489 0.000517279 -6.61589e-05
-0.00173547 0.000520325 0.000520776 -6.64753e-05
-0.00286294 0.000858162 0.00085919 -3.38587e-05
-0.00228914 0.000685467 0.000687287 -5.15327e-05
-0.00172806 0.000517302 0.000518896 -6.62257e-05
-0.00230484 0.000691916 0.000691252 -4.96894e-05
-0.00229679 0.000688544 0.000689249 -5.07403e-05
-0.00285491 0.000855116 0.000857055 -3.52907e-05
-0.00283919 0.000849582 0.000852688 -3.72766e-05
-0.00170954 0.000509412 0.000514342 -6.61842e-05
-0.00172147 0.000514489 0.000517279 -6.61589e-05
-0.00284693 0.000852272 0.000854852 -3.63839e-05
-0.00227486 0.000679773 0.000683609 -5.2872e-05
-0.00171541 0.000511849 0.00051581 -6.61793e-05
-0.00228914 0.000685467 0.000687287 -5.15327e-05
-0.00228184 0.000682531 0.000685416 -5.22384e-05
-0.00283919 0.000849582 0.000852688 -3.72766e-05
-0.00282388 0.00084442 0.000848341 -3.85114e-05
-0.00169867 0.000505199 0.000511487 -6.62134e-05
-0.00170954 0.000509412 0.000514342 -6.61842e-05
-0.00283155 0.000846966 0.000850537 -3.79945e-05
-0.00226156 0.00067491 0.000679995 -5.37173e-05
-0.00170395 0.000507208 0.000512887 -6.61876e-05
-0.00227486 0.000679773 0.000683609 -5.2872e-05
-0.00226813 0.00067725 0.000681806 -5.33648e-05
-0.00282388 0.00084442 0.000848341 -3.85114e-05
-0.00280861 0.000839543 0.000843885 -3.91564e-05
-0.00168865 0.000501598 0.000508735 -6.62625e-05
-0.00169867 0.000505199 0.000511487 -6.62134e-05
-0.00281622 0.000841952 0.000846115 -3.88806e-05
-0.00224881 0.000670558 0.000676393 -5.42075e-05
-0.00169361 0.000503337 0.000510116 -6.6245e-05
-0.00226156 0.00067491 0.000679995 -5.37173e-05
-0.00225513 0.000672684 0.000678193 -5.39922e-05
-0.00280861 0.000839543 0.000843885 -3.91564e-05
-0.00279342 0.00083483 0.000839396 -3.94998e-05
-0.00167903 0.000498412 0.000505979 -6.62817e-05
-0.00168865 0.000501598 0.000508735 -6.62625e-05
-0.00280102 0.000837172 0.000841649 -3.9361e-05
-0.00223636 0.000666559 0.000672772 -5.44649e-05
-0.00168379 0.000499964 0.000507353 -6.62724e-05
-0.00224881 0.000670558 0.000676393 -5.42075e-05
-0.00224256 0.000668524 0.000674586 -5.43615e-05
-0.00279342 0.00083483 0.000839396 -3.94998e-05
-0.00277824 0.000830215 0.000834866 -3.96539e-05
-0.00166968 0.000495468 0.000503232 -6.62908e-05
-0.00167903 0.000498412 0.000505979 -6.62817e-05
-0.00278582 0.000832513 0.000837133 -3.95914e-05
-0.00222407 0.000662753 0.000669136 -5.459e-05
-0.00167434 0.000496918 0.000504609 -6.62889e-05
-0.00223636 0.000666559 0.000672772 -5.44649e-05
-0.0022302 0.000664639 0.000670955 -5.45382e-05
-0.00277824 0.000830215 0.000834866 -3.96539e-05
-0.00276307 0.000825653 0.00083032 -3.97207e-05
-0.00166044 0.000492662 0.000500476 -6.62879e-05
-0.00166968 0.000495468 0.000503232 -6.62908e-05
-0.00277065 0.000827929 0.000832596 -3.96958e-05
-0.00221186 0.000659059 0.000665486 -5.4642e-05
-0.00166505 0.000494053 0.000501854 -6.62898e-05
-0.00222407 0.000662753 0.000669136 -5.459e-05
-0.00221796 0.000660896 0.000667313 -5.46229e-05
-0.00276307 0.000825653 0.00083032 -3.97207e-05
-0.0027479 0.000821118 0.000825763 -3.97412e-05
-0.00165127 0.000489927 0.000497717 -6.62818e-05
-0.00166044 0.000492662 0.000500476 -6.62879e-05
-0.00275548 0.000823383 0.000828042 -3.97342e-05
-0.00219969 0.00065542 0.000661828 -5.4659e-05
-0.00165585 0.000491289 0.000499098 -6.62854e-05
-0.00221186 0.000659059 0.000665486 -5.4642e-05
-0.00220577 0.000657235 0.000663658 -5.46531e-05
-0.0027479 0.000821118 0.000825763 -3.97412e-05
-0.00273273 0.000816597 0.000821201 -3.97439e-05
-0.00164212 0.000487227 0.000494954 -6.62742e-05
-0.00165127 0.000489927 0.000497717 -6.62818e-05
-0.00274032 0.000818857 0.000823483 -3.9744e-05
-0.00218753 0.000651809 0.000658166 -5.466e-05
-0.00164669 0.000488574 0.000496336 -6.62779e-05
-0.00219969 0.00065542 0.000661828 -5.4659e-05
-0.00219361 0.000653612 0.000659998 -5.46608e-05
-0.00273273 0.000816597 0.000821201 -3.97439e-05
-0.00271757 0.000812082 0.000816637 -3.97396e-05
-0.00163298 0.000484542 0.000492189 -6.62674e-05
-0.00164212 0.000487227 0.000494954 -6.62742e-05
-0.00272515 0.000814339 0.000818919 -3.9742e-05
-0.00217538 0.000648209 0.000654501 -5.46556e-05
-0.00163755 0.000485883 0.000493572 -6.62707e-05
-0.00218753 0.000651809 0.000658166 -5.466e-05
-0.00218145 0.000650008 0.000656334 -5.46581e-05
-0.00271757 0.000812082 0.000816637 -3.97396e-05
-0.00270241 0.000807568 0.000812073 -3.97342e-05
-0.00162385 0.000481862 0.000489423 -6.62618e-05
-0.00163298 0.000484542 0.000492189 -6.62674e-05
-0.00270999 0.000809825 0.000814355 -3.97369e-05
-0.00216323 0.000644614 0.000650835 -5.46502e-05
-0.00162842 0.000483202 0.000490806 -6.62644e-05
-0.00217538 0.000648209 0.000654501 -5.46556e-05
-0.0021693 0.000646412 0.000652668 -5.46529e-05
-0.00270241 0.000807568 0.000812073 -3.97342e-05
-0.00268724 0.000803056 0.000807509 -3.97296e-05
-0.00161472 0.000479184 0.000486657 -6.62576e-05
-0.00162385 0.000481862 0.000489423 -6.62618e-05
-0.00269482 0.000805312 0.000809791 -3.97318e-05
-0.00215108 0.00064102 0.000647169 -5.46455e-05
-0.00161928 0.000480523 0.00048804 -6.62595e-05
-0.00216323 0.000644614 0.000650835 -5.46502e-05
-0.00215716 0.000642817 0.000649002 -5.46477e-05
-0.00268724 0.000803056 0.000807509 -3.97296e-05
-0.00267208 0.000798544 0.000802945 -3.97263e-05
-0.00160558 0.000476505 0.00048389 -6.62547e-05
-0.00161472 0.000479184 0.000486657 -6.62576e-05
-0.00267966 0.0008008 0.000805227 -3.97278e-05
-0.00213893 0.000637426 0.000643503 -5.46421e-05
-0.00161015 0.000477845 0.000485274 -6.6256e-05
-0.00215108 0.00064102 0.000647169 -5.46455e-05
-0.00214501 0.000639223 0.000645336 -5.46437e-05
-0.00267208 0.000798544 0.000802945 -3.97263e-05
-0.00265692 0.000794031 0.000798382 -3.97242e-05
-0.00159645 0.000473825 0.000481124 -6.62527e-05
-0.00160558 0.000476505 0.00048389 -6.62547e-05
-0.0026645 0.000796288 0.000800663 -3.97251e-05
-0.00212678 0.000633831 0.000639837 -5.46398e-05
-0.00160102 0.000475166 0.000482507 -6.62536e-05
-0.00213893 0.000637426 0.000643503 -5.46421e-05
-0.00213286 0.000635629 0.00064167 -5.46408e-05
-0.00265692 0.000794031 0.000798382 -3.97242e-05
-0.00264176 0.000789519 0.000793819 -3.9723e-05
-0.00158732 0.000471145 0.000478359 -6.62514e-05
-0.00159645 0.000473825 0.000481124 -6.62527e-05
-0.00264934 0.000791775 0.0007961 -3.97235e-05
-0.00211464 0.000630235 0.000636172 -5.46384e-05
-0.00159188 0.000472485 0.000479742 -6.6252e-05
-0.00212678 0.000633831 0.000639837 -5.46398e-05
-0.00212071 0.000632033 0.000638005 -5.4639e-05
-0.00264176 0.000789519 0.000793819 -3.9723e-05
-0.0026266 0.000785006 0.000789256 -3.97223e-05
-0.00157818 0.000468463 0.000475594 -6.62506e-05
-0.00158732 0.000471145 0.000478359 -6.62514e-05
-0.00263418 0.000787262 0.000791537 -3.97226e-05
-0.00210249 0.000626639 0.000632507 -5.46375e-05
-0.00158275 0.000469804 0.000476976 -6.6251e-05
-0.00211464 0.000630235 0.000636172 -5.46384e-05
-0.00210856 0.000628437 0.00063434 -5.46379e-05
-0.0026266 0.000785006 0.000789256 -3.97223e-05
-0.00261144 0.000780493 0.000784694 -3.9722e-05
-0.00156905 0.000465781 0.000472829 -6.62501e-05
-0.00157818 0.000468463 0.000475594 -6.62506e-05
-0.00261902 0.000782749 0.000786975 -3.97221e-05
-0.00209034 0.000623043 0.000628843 -5.46371e-05
-0.00157361 0.000467122 0.000474211 -6.62503e-05
-0.00210249 0.000626639 0.000632507 -5.46375e-05
-0.00209642 0.000624841 0.000630675 -5.46373e-05
-0.00261144 0.000780493 0.000784694 -3.9722e-05
-0.00259629 0.000775979 0.000780131 -3.97219e-05
-0.00155991 0.000463098 0.000470064 -6.62497e-05
-0.00156905 0.000465781 0.000472829 -6.62501e-05
-0.00260387 0.000778236 0.000782412 -3.9722e-05
-0.00207819 0.000619446 0.000625178 -5.46369e-05
-0.00156448 0.00046444 0.000471446 -6.62499e-05
-0.00209034 0.000623043 0.000628843 -5.46371e-05
-0.00208427 0.000621244 0.00062701 -5.4637e-05
-0.00259629 0.000775979 0.000780131 -3.97219e-05
-0.00258113 0.000771466 0.00077557 -3.97219e-05
-0.00155078 0.000460415 0.0004673 -6.62494e-05
-0.00155991 0.000463098 0.000470064 -6.62497e-05
-0.00258871 0.000773723 0.00077785 -3.97219e-05
-0.00206605 0.000615849 0.000621514 -5.46367e-05
-0.00155535 0.000461757 0.000468682 -6.62496e-05
-0.00207819 0.000619446 0.000625178 -5.46369e-05
-0.00207212 0.000617647 0.000623346 -5.46368e-05
-0.00258113 0.000771466 0.00077557 -3.97219e-05
-0.00256597 0.000766953 0.000771008 -3.9722e-05
-0.00154165 0.000457732 0.000464536 -6.62492e-05
-0.00155078 0.000460415 0.0004673 -6.62494e-05
-0.00257355 0.000769209 0.000773289 -3.9722e-05
-0.0020539 0.000612251 0.000617851 -5.46367e-05
-0.00154622 0.000459074 0.000465918 -6.62493e-05
-0.00206605 0.000615849 0.000621514 -5.46367e-05
-0.00205998 0.00061405 0.000619682 -5.46367e-05
-0.00256597 0.000766953 0.000771008 -3.9722e-05
-0.00255081 0.000762439 0.000766447 -3.9722e-05
-0.00153252 0.000455048 0.000461772 -6.62489e-05
-0.00154165 0.000457732 0.000464536 -6.62492e-05
-0.00255839 0.000764696 0.000768727 -3.9722e-05
-0.00204176 0.000608654 0.000614187 -5.46366e-05
-0.00153708 0.00045639 0.000463154 -6.6249e-05
-0.0020539 0.000612251 0.000617851 -5.46367e-05
-0.00204783 0.000610453 0.000616019 -5.46366e-05
-0.00255081 0.000762439 0.000766447 -3.9722e-05
-0.00253566 0.000757926 0.000761885 -3.97221e-05
-0.00152339 0.000452365 0.000459009 -6.62486e-05
-0.00153252 0.000455048 0.000461772 -6.62489e-05
-0.00254324 0.000760182 0.000764166 -3.9722e-05
-0.00202961 0.000605056 0.000610524 -5.46365e-05
-0.00152795 0.000453707 0.000460391 -6.62488e-05
-0.00204176 0.000608654 0.000614187 -5.46366e-05
-0.00203568 0.000606855 0.000612355 -5.46365e-05
-0.00253566 0.000757926 0.000761885 -3.97221e-05
-0.0025205 0.000753412 0.000757324 -3.97221e-05
-0.00151425 0.000449681 0.000456246 -6.62483e-05
-0.00152339 0.000452365 0.000459009 -6.62486e-05
-0.00252808 0.000755669 0.000759605 -3.97221e-05
-0.00201747 0.000601459 0.000606861 -5.46363e-05
-0.00151882 0.000451023 0.000457627 -6.62485e-05
-0.00202961 0.000605056 0.000610524 -5.46365e-05
-0.00202354 0.000603257 0.000608692 -5.46364e-05
-0.0025205 0.000753412 0.000757324 -3.97221e-05
-0.00250535 0.000748898 0.000752764 -3.9722e-05
-0.00150512 0.000446997 0.000453483 -6.6248e-05
-0.00151425 0.000449681 0.000456246 -6.62483e-05
-0.00251292 0.000751155 0.000755044 -3.97221e-05
-0.00200532 0.000597861 0.000603198 -5.46362e-05
-0.00150969 0.000448339 0.000454865 -6.62482e-05
-0.00201747 0.000601459 0.000606861 -5.46363e-05
-0.0020114 0.00059966 0.00060503 -5.46363e-05
-0.00250535 0.000748898 0.000752764 -3.9722e-05
-0.00249019 0.000744384 0.000748203 -3.9722e-05
-0.00149599 0.000444312 0.000450721 -6.62476e-05
-0.00150512 0.000446997 0.000453483 -6.6248e-05
-0.00249777 0.000746641 0.000750483 -3.9722e-05
-0.00199318 0.000594263 0.000599536 -5.4636e-05
-0.00150056 0.000445655 0.000452102 -6.62478e-05
-0.00200532 0.000597861 0.000603198 -5.46362e-05
-0.00199925 0.000596062 0.000601367 -5.46361e-05
-0.00249019 0.000744384 0.000748203 -3.9722e-05
-0.00247504 0.000739871 0.000743643 -3.97219e-05
-0.00148687 0.000441628 0.000447959 -6.62472e-05
-0.00149599 0.000444312 0.000450721 -6.62476e-05
-0.00248261 0.000742128 0.000745923 -3.9722e-05
-0.00198104 0.000590665 0.000595874 -5.46358e-05
-0.00149143 0.00044297 0.00044934 -6.62474e-05
-0.00199318 0.000594263 0.000599536 -5.4636e-05
-0.00198711 0.000592464 0.000597705 -5.46359e-05
-0.00247504 0.000739871 0.000743643 -3.97219e-05
-0.00245988 0.000735357 0.000739083 -3.97218e-05
-0.00147774 0.000438943 0.000445197 -6.62468e-05
-0.00148687 0.000441628 0.000447959 -6.62472e-05
-0.00246746 0.000737614 0.000741363 -3.97219e-05
-0.00196889 0.000587066 0.000592212 -5.46355e-05
-0.0014823 0.000440286 0.000446578 -6.6247e-05
-0.00198104 0.000590665 0.000595874 -5.46358e-05
-0.00197497 0.000588866 0.000594043 -5.46357e-05
-0.00245988 0.000735357 0.000739083 -3.97218e-05
-0.00244473 0.000730843 0.000734523 -3.97217e-05
-0.00146861 0.000436259 0.000442435 -6.62463e-05
-0.00147774 0.000438943 0.000445197 -6.62468e-05
-0.00245231 0.0007331 0.000736803 -3.97218e-05
-0.00195675 0.000583468 0.000588551 -5.46353e-05
-0.00147317 0.000437601 0.000443816 -6.62465e-05
-0.00196889 0.000587066 0.000592212 -5.46355e-05
-0.00196282 0.000585267 0.000590381 -5.46354e-05
-0.00244473 0.000730843 0.000734523 -3.97217e-05
-0.00242958 0.000726329 0.000729964 -3.97216e-05
-0.00145948 0.000433574 0.000439674 -6.62458e-05
-0.00146861 0.000436259 0.000442435 -6.62463e-05
-0.00243715 0.000728586 0.000732243 -3.97217e-05
-0.00194461 0.00057987 0.000584889 -5.4635e-05
-0.00146404 0.000434916 0.000441055 -6.62461e-05
-0.00195675 0.000583468 0.000588551 -5.46353e-05
-0.00195068 0.000581669 0.00058672 -5.46351e-05
-0.00242958 0.000726329 0.000729964 -3.97216e-05
-0.00241442 0.000721815 0.000725404 -3.97215e-05
-0.00145035 0.000430889 0.000436913 -6.62453e-05
-0.00145948 0.000433574 0.000439674 -6.62458e-05
-0.002422 0.000724072 0.000727684 -3.97215e-05
-0.00193247 0.000576271 0.000581228 -5.46347e-05
-0.00145492 0.000432231 0.000438294 -6.62456e-05
-0.00194461 0.00057987 0.000584889 -5.4635e-05
-0.00193854 0.000578071 0.000583059 -5.46349e-05
-0.00241442 0.000721815 0.000725404 -3.97215e-05
-0.00239927 0.000717301 0.000720845 -3.97213e-05
-0.00144123 0.000428203 0.000434153 -6.62448e-05
-0.00145035 0.000430889 0.000436913 -6.62453e-05
-0.00240685 0.000719558 0.000723125 -3.97214e-05
-0.00192033 0.000572673 0.000577568 -5.46344e-05
-0.00144579 0.000429546 0.000435533 -6.62451e-05
-0.00193247 0.000576271 0.000581228 -5.46347e-05
-0.0019264 0.000574472 0.000579398 -5.46345e-05
-0.00239927 0.000717301 0.000720845 -3.97213e-05
-0.00238412 0.000712787 0.000716286 -3.97212e-05
-0.0014321 0.000425518 0.000431392 -6.62443e-05
-0.00144123 0.000428203 0.000434153 -6.62448e-05
-0.0023917 0.000715044 0.000718566 -3.97212e-05
-0.00190819 0.000569074 0.000573907 -5.46341e-05
-0.00143666 0.000426861 0.000432772 -6.62445e-05
-0.00192033 0.000572673 0.000577568 -5.46344e-05
-0.00191426 0.000570873 0.000575737 -5.46342e-05
-0.00238412 0.000712787 0.000716286 -3.97212e-05
-0.00236897 0.000708273 0.000711728 -3.9721e-05
-0.00142297 0.000422832 0.000428632 -6.62437e-05
-0.0014321 0.000425518 0.000431392 -6.62443e-05
-0.00237655 0.00071053 0.000714007 -3.97211e-05
-0.00189605 0.000565475 0.000570247 -5.46337e-05
-0.00142754 0.000424175 0.000430012 -6.6244e-05
-0.00190819 0.000569074 0.000573907 -5.46341e-05
-0.00190212 0.000567274 0.000572077 -5.46339e-05
-0.00236897 0.000708273 0.000711728 -3.9721e-05
-0.00235382 0.000703759 0.000707169 -3.97208e-05
-0.00141385 0.000420147 0.000425873 -6.62432e-05
-0.00142297 0.000422832 0.000428632 -6.62437e-05
-0.0023614 0.000706016 0.000709448 -3.97209e-05
-0.00188391 0.000561876 0.000566587 -5.46334e-05
-0.00141841 0.00042149 0.000427252 -6.62434e-05
-0.00189605 0.000565475 0.000570247 -5.46337e-05
-0.00188998 0.000563676 0.000568417 -5.46335e-05
-0.00235382 0.000703759 0.000707169 -3.97208e-05
-0.00233867 0.000699244 0.000702611 -3.97206e-05
-0.00140472 0.000417461 0.000423113 -6.62426e-05
-0.00141385 0.000420147 0.000425873 -6.62432e-05
-0.00234625 0.000701501 0.00070489 -3.97207e-05
-0.00187177 0.000558277 0.000562928 -5.4633e-05
-0.00140929 0.000418804 0.000424493 -6.62429e-05
-0.00188391 0.000561876 0.000566587 -5.46334e-05
-0.00187784 0.000560077 0.000564757 -5.46332e-05
-0.00233867 0.000699244 0.000702611 -3.97206e-05
-0.00232352 0.00069473 0.000698053 -3.97204e-05
-0.0013956 0.000414775 0.000420354 -6.6242e-05
-0.00140472 0.000417461 0.000423113 -6.62426e-05
-0.0023311 0.000696987 0.000700332 -3.97205e-05
-0.00185964 0.000554678 0.000559268 -5.46326e-05
-0.00140016 0.000416118 0.000421734 -6.62423e-05
-0.00187177 0.000558277 0.000562928 -5.4633e-05
-0.00186571 0.000556477 0.000561098 -5.46328e-05
-0.00232352 0.00069473 0.000698053 -3.97204e-05
-0.00230837 0.000690216 0.000693496 -3.97202e-05
-0.00138648 0.000412088 0.000417595 -6.62414e-05
-0.0013956 0.000414775 0.000420354 -6.6242e-05
-0.00231595 0.000692473 0.000695774 -3.97203e-05
-0.0018475 0.000551078 0.000555609 -5.46322e-05
-0.00139104 0.000413432 0.000418975 -6.62417e-05
-0.00185964 0.000554678 0.000559268 -5.46326e-05
-0.00185357 0.000552878 0.000557439 -5.46324e-05
-0.00230837 0.000690216 0.000693496 -3.97202e-05
-0.00229322 0.000685702 0.000688938 -3.972e-05
-0.00137735 0.000409402 0.000414837 -6.62408e-05
-0.00138648 0.000412088 0.000417595 -6.62414e-05
-0.0023008 0.000687959 0.000691217 -3.97201e-05
-0.00183536 0.000547479 0.00055195 -5.46318e-05
-0.00138192 0.000410745 0.000416216 -6.62411e-05
-0.0018475 0.000551078 0.000555609 -5.46322e-05
-0.00184143 0.000549279 0.00055378 -5.4632e-05
-0.00229322 0.000685702 0.000688938 -3.972e-05
-0.00227808 0.000681187 0.000684381 -3.97198e-05
-0.00136823 0.000406715 0.000412079 -6.62401e-05
-0.00137735 0.000409402 0.000414837 -6.62408e-05
-0.00228565 0.000683444 0.00068666 -3.97199e-05
-0.00182323 0.00054388 0.000548292 -5.46314e-05
-0.00137279 0.000408059 0.000413458 -6.62404e-05
-0.00183536 0.000547479 0.00055195 -5.46318e-05
-0.0018293 0.000545679 0.000550121 -5.46316e-05
-0.00227808 0.000681187 0.000684381 -3.97198e-05
-0.00226293 0.000676673 0.000679824 -3.97196e-05
-0.00135911 0.000404029 0.000409321 -6.62395e-05
-0.00136823 0.000406715 0.000412079 -6.62401e-05
-0.0022705 0.00067893 0.000682103 -3.97197e-05
-0.00181109 0.00054028 0.000544634 -5.4631e-05
-0.00136367 0.000405372 0.0004107 -6.62398e-05
-0.00182323 0.00054388 0.000548292 -5.46314e-05
-0.00181716 0.00054208 0.000546463 -5.46312e-05
-0.00226293 0.000676673 0.000679824 -3.97196e-05
-0.00224778 0.000672159 0.000675268 -3.97193e-05
-0.00134999 0.000401342 0.000406563 -6.62388e-05
-0.00135911 0.000404029 0.000409321 -6.62395e-05
-0.00225536 0.000674416 0.000677546 -3.97195e-05
-0.00179896 0.00053668 0.000540976 -5.46306e-05
-0.00135455 0.000402685 0.000407942 -6.62391e-05
-0.00181109 0.00054028 0.000544634 -5.4631e-05
-0.00180502 0.00053848 0.000542805 -5.46308e-05
-0.00224778 0.000672159 0.000675268 -3.97193e-05
-0.00223264 0.000667644 0.000670711 -3.97191e-05
-0.00134087 0.000398655 0.000403806 -6.62381e-05
-0.00134999 0.000401342 0.000406563 -6.62388e-05
-0.00224021 0.000669901 0.000672989 -3.97192e-05
-0.00178682 0.00053308 0.000537318 -5.46301e-05
-0.00134543 0.000399998 0.000405184 -6.62385e-05
-0.00179896 0.00053668 0.000540976 -5.46306e-05
-0.00179289 0.00053488 0.000539147 -5.46303e-05
-0.00223264 0.000667644 0.000670711 -3.97191e-05
-0.00221749 0.00066313 0.000666155 -3.97188e-05
-0.00133175 0.000395967 0.000401049 -6.62375e-05
-0.00134087 0.000398655 0.000403806 -6.62381e-05
-0.00222506 0.000665387 0.000668433 -3.9719e-05
-0.00177469 0.00052948 0.000533661 -5.46297e-05
-0.00133631 0.000397311 0.000402427 -6.62378e-05
-0.00178682 0.00053308 0.000537318 -5.46301e-05
-0.00178076 0.00053128 0.000535489 -5.46299e-05
-0.00221749 0.00066313 0.000666155 -3.97188e-05
-0.00220235 0.000658615 0.000661599 -3.97186e-05
-0.00132263 0.00039328 0.000398292 -6.62368e-05
-0.00133175 0.000395967 0.000401049 -6.62375e-05
-0.00220992 0.000660872 0.000663877 -3.97187e-05
-0.00176256 0.00052588 0.000530004 -5.46292e-05
-0.00132719 0.000394624 0.00039967 -6.62371e-05
-0.00177469 0.00052948 0.000533661 -5.46297e-05
-0.00176862 0.00052768 0.000531832 -5.46294e-05
-0.00220235 0.000658615 0.000661599 -3.97186e-05
-0.0021872 0.000654101 0.000657043 -3.97183e-05
-0.00131351 0.000390592 0.000395536 -6.62361e-05
-0.00132263 0.00039328 0.000398292 -6.62368e-05
-0.00219477 0.000656358 0.000659321 -3.97185e-05
-0.00175042 0.00052228 0.000526347 -5.46287e-05
-0.00131807 0.000391936 0.000396914 -6.62364e-05
-0.00176256 0.00052588 0.000530004 -5.46292e-05
-0.00175649 0.00052408 0.000528175 -5.4629e-05
-0.0021872 0.000654101 0.000657043 -3.97183e-05
-0.00217206 0.000649586 0.000652488 -3.97181e-05
-0.00130439 0.000387905 0.00039278 -6.62353e-05
-0.00131351 0.000390592 0.000395536 -6.62361e-05
-0.00217963 0.000651843 0.000654766 -3.97182e-05
-0.00173829 0.00051868 0.00052269 -5.46283e-05
-0.00130895 0.000389249 0.000394158 -6.62357e-05
-0.00175042 0.00052228 0.000526347 -5.46287e-05
-0.00174436 0.00052048 0.000524519 -5.46285e-05
-0.00217206 0.000649586 0.000652488 -3.97181e-05
-0.00215692 0.000645071 0.000647933 -3.97178e-05
-0.00129527 0.000385217 0.000390024 -6.62346e-05
-0.00130439 0.000387905 0.00039278 -6.62353e-05
-0.00216449 0.000647329 0.00065021 -3.97179e-05
-0.00172616 0.00051508 0.000519034 -5.46278e-05
-0.00129983 0.000386561 0.000391402 -6.6235e-05
-0.00173829 0.00051868 0.00052269 -5.46283e-05
-0.00173223 0.00051688 0.000520862 -5.4628e-05
-0.00215692 0.000645071 0.000647933 -3.97178e-05
-0.00214177 0.000640557 0.000643378 -3.97175e-05
-0.00128616 0.000382529 0.000387269 -6.62339e-05
-0.00129527 0.000385217 0.000390024 -6.62346e-05
-0.00214934 0.000642814 0.000645655 -3.97177e-05
-0.00171403 0.000511479 0.000515378 -5.46273e-05
-0.00129071 0.000383873 0.000388646 -6.62343e-05
-0.00172616 0.00051508 0.000519034 -5.46278e-05
-0.00172009 0.00051328 0.000517206 -5.46275e-05
-0.00214177 0.000640557 0.000643378 -3.97175e-05
-0.00212663 0.000636042 0.000638823 -3.97172e-05
-0.00127704 0.00037984 0.000384514 -6.62332e-05
-0.00128616 0.000382529 0.000387269 -6.62339e-05
-0.0021342 0.0006383 0.000641101 -3.97174e-05
-0.0017019 0.000507879 0.000511723 -5.46268e-05
-0.0012816 0.000381185 0.000385891 -6.62335e-05
-0.00171403 0.000511479 0.000515378 -5.46273e-05
-0.00170796 0.000509679 0.00051355 -5.4627e-05
-0.00212663 0.000636042 0.000638823 -3.97172e-05
-0.00211149 0.000631528 0.000634269 -3.97169e-05
-0.00126792 0.000377152 0.000381759 -6.62324e-05
-0.00127704 0.00037984 0.000384514 -6.62332e-05
-0.00211906 0.000633785 0.000636546 -3.97171e-05
-0.00168977 0.000504278 0.000508067 -5.46263e-05
-0.00127248 0.000378496 0.000383136 -6.62328e-05
-0.0017019 0.000507879 0.000511723 -5.46268e-05
-0.00169583 0.000506078 0.000509895 -5.46265e-05
-0.00211149 0.000631528 0.000634269 -3.97169e-05
-0.00209635 0.000627013 0.000629715 -3.97167e-05
-0.00125881 0.000374463 0.000379004 -6.62316e-05
-0.00126792 0.000377152 0.000381759 -6.62324e-05
-0.00210392 0.00062927 0.000631992 -3.97168e-05
-0.00167764 0.000500677 0.000504412 -5.46257e-05
-0.00126336 0.000375808 0.000380381 -6.6232e-05
-0.00168977 0.000504278 0.000508067 -5.46263e-05
-0.0016837 0.000502478 0.00050624 -5.4626e-05
-0.00209635 0.000627013 0.000629715 -3.97167e-05
-0.00208121 0.000622498 0.000625161 -3.97164e-05
-0.00124969 0.000371775 0.00037625 -6.62309e-05
-0.00125881 0.000374463 0.000379004 -6.62316e-05
-0.00208878 0.000624755 0.000627438 -3.97165e-05
-0.00166551 0.000497076 0.000500757 -5.46252e-05
-0.00125425 0.000373119 0.000377627 -6.62313e-05
-0.00167764 0.000500677 0.000504412 -5.46257e-05
-0.00167157 0.000498877 0.000502585 -5.46255e-05
-0.00208121 0.000622498 0.000625161 -3.97164e-05
-0.00206607 0.000617983 0.000620607 -3.97161e-05
-0.00124058 0.000369086 0.000373496 -6.62301e-05
-0.00124969 0.000371775 0.00037625 -6.62309e-05
-0.00207364 0.000620241 0.000622884 -3.97162e-05
-0.00165338 0.000493476 0.000497103 -5.46247e-05
-0.00124513 0.00037043 0.000374873 -6.62305e-05
-0.00166551 0.000497076 0.000500757 -5.46252e-05
-0.00165945 0.000495276 0.00049893 -5.4625e-05
-0.00206607 0.000617983 0.000620607 -3.97161e-05
-0.00205093 0.000613469 0.000616054 -3.97157e-05
-0.00123146 0.000366397 0.000370743 -6.62293e-05
-0.00124058 0.000369086 0.000373496 -6.62301e-05
-0.0020585 0.000615726 0.000618331 -3.97159e-05
-0.00164125 0.000489875 0.000493449 -5.46242e-05
-0.00123602 0.000367741 0.000372119 -6.62297e-05
-0.00165338 0.000493476 0.000497103 -5.46247e-05
-0.00164732 0.000491675 0.000495276 -5.46244e-05
-0.00205093 0.000613469 0.000616054 -3.97157e-05
-0.00203579 0.000608954 0.000611501 -3.97154e-05
-0.00122235 0.000363708 0.000367989 -6.62285e-05
-0.00123146 0.000366397 0.000370743 -6.62293e-05
-0.00204336 0.000611211 0.000613777 -3.97156e-05
-0.00162913 0.000486273 0.000489795 -5.46236e-05
-0.00122691 0.000365052 0.000369366 -6.62289e-05
-0.00164125 0.000489875 0.000493449 -5.46242e-05
-0.00163519 0.000488074 0.000491622 -5.46239e-05
-0.00203579 0.000608954 0.000611501 -3.97154e-05
-0.00202065 0.000604439 0.000606948 -3.97151e-05
-0.00121324 0.000361018 0.000365236 -6.62277e-05
-0.00122235 0.000363708 0.000367989 -6.62285e-05
-0.00202822 0.000606696 0.000609225 -3.97153e-05
-0.001617 0.000482672 0.000486141 -5.46231e-05
-0.00121779 0.000362363 0.000366613 -6.62281e-05
-0.00162913 0.000486273 0.000489795 -5.46236e-05
-0.00162306 0.000484473 0.000487968 -5.46234e-05
-0.00202065 0.000604439 0.000606948 -3.97151e-05
-0.00200551 0.000599924 0.000602396 -3.97148e-05
-0.00120412 0.000358329 0.000362484 -6.62269e-05
-0.00121324 0.000361018 0.000365236 -6.62277e-05
-0.00201308 0.000602182 0.000604672 -3.9715e-05
-0.00160488 0.000479071 0.000482488 -5.46225e-05
-0.00120868 0.000359674 0.00036386 -6.62273e-05
-0.001617 0.000482672 0.000486141 -5.46231e-05
-0.00161094 0.000480871 0.000484315 -5.46228e-05
-0.00200551 0.000599924 0.000602396 -3.97148e-05
-0.00199038 0.000595409 0.000597843 -3.97145e-05
-0.00119501 0.000355639 0.000359732 -6.62261e-05
-0.00120412 0.000358329 0.000362484 -6.62269e-05
-0.00199795 0.000597667 0.000600119 -3.97146e-05
-0.00159275 0.000475469 0.000478835 -5.4622e-05
-0.00119957 0.000356984 0.000361108 -6.62265e-05
-0.00160488 0.000479071 0.000482488 -5.46225e-05
-0.00159881 0.00047727 0.000480661 -5.46223e-05
-0.00199038 0.000595409 0.000597843 -3.97145e-05
-0.00197524 0.000590894 0.000593291 -3.97141e-05
-0.0011859 0.000352949 0.00035698 -6.62253e-05
-0.00119501 0.000355639 0.000359732 -6.62261e-05
-0.00198281 0.000593152 0.000595567 -3.97143e-05
-0.00158063 0.000471868 0.000475182 -5.46214e-05
-0.00119046 0.000354294 0.000358356 -6.62257e-05
-0.00159275 0.000475469 0.000478835 -5.4622e-05
-0.00158669 0.000473669 0.000477008 -5.46217e-05
-0.00197524 0.000590894 0.000593291 -3.97141e-05
-0.0019601 0.000586379 0.000588739 -3.97138e-05
-0.00117679 0.000350259 0.000354228 -6.62245e-05
-0.0011859 0.000352949 0.00035698 -6.62253e-05
-0.00196767 0.000588637 0.000591015 -3.9714e-05
-0.0015685 0.000468266 0.00047153 -5.46209e-05
-0.00118135 0.000351604 0.000355604 -6.62249e-05
-0.00158063 0.000471868 0.000475182 -5.46214e-05
-0.00157456 0.000470067 0.000473356 -5.46211e-05
-0.0019601 0.000586379 0.000588739 -3.97138e-05
-0.00194497 0.000581865 0.000584188 -3.97135e-05
-0.00116768 0.000347569 0.000351477 -6.62237e-05
-0.00117679 0.000350259 0.000354228 -6.62245e-05
-0.00195254 0.000584122 0.000586464 -3.97137e-05
-0.00155638 0.000464664 0.000467877 -5.46203e-05
-0.00117224 0.000348914 0.000352852 -6.62241e-05
-0.0015685 0.000468266 0.00047153 -5.46209e-05
-0.00156244 0.000466465 0.000469704 -5.46206e-05
-0.00194497 0.000581865 0.000584188 -3.97135e-05
-0.00192983 0.00057735 0.000579637 -3.97132e-05
-0.00115857 0.000344879 0.000348725 -6.62228e-05
-0.00116768 0.000347569 0.000351477 -6.62237e-05
-0.0019374 0.000579607 0.000581912 -3.97133e-05
-0.00154426 0.000461063 0.000464226 -5.46197e-05
-0.00116313 0.000346224 0.000350101 -6.62233e-05
-0.00155638 0.000464664 0.000467877 -5.46203e-05
-0.00155032 0.000462864 0.000466052 -5.462e-05
-0.00192983 0.00057735 0.000579637 -3.97132e-05
-0.0019147 0.000572835 0.000575085 -3.97128e-05
-0.00114946 0.000342188 0.000345975 -6.6222e-05
-0.00115857 0.000344879 0.000348725 -6.62228e-05
-0.00192227 0.000575092 0.000577361 -3.9713e-05
-0.00153213 0.000457461 0.000460574 -5.46191e-05
-0.00115402 0.000343534 0.00034735 -6.62224e-05
-0.00154426 0.000461063 0.000464226 -5.46197e-05
-0.00153819 0.000459262 0.0004624 -5.46194e-05
-0.0019147 0.000572835 0.000575085 -3.97128e-05
-0.00189957 0.00056832 0.000570535 -3.97125e-05
-0.00114035 0.000339498 0.000343224 -6.62212e-05
-0.00114946 0.000342188 0.000345975 -6.6222e-05
-0.00190713 0.000570577 0.00057281 -3.97126e-05
-0.00152001 0.000453859 0.000456923 -5.46186e-05
-0.00114491 0.000340843 0.000344599 -6.62216e-05
-0.00153213 0.000457461 0.000460574 -5.46191e-05
-0.00152607 0.00045566 0.000458748 -5.46189e-05
-0.00189957 0.00056832 0.000570535 -3.97125e-05
-0.00188443 0.000563805 0.000565984 -3.97121e-05
-0.00113125 0.000336807 0.000340474 -6.62203e-05
-0.00114035 0.000339498 0.000343224 -6.62212e-05
-0.001892 0.000566062 0.000568259 -3.97123e-05
-0.00150789 0.000450257 0.000453272 -5.4618e-05
-0.0011358 0.000338152 0.000341849 -6.62208e-05
-0.00152001 0.000453859 0.000456923 -5.46186e-05
-0.00151395 0.000452058 0.000455097 -5.46183e-05
-0.00188443 0.000563805 0.000565984 -3.97121e-05
-0.0018693 0.000559289 0.000561434 -3.97118e-05
-0.00112214 0.000334116 0.000337724 -6.62195e-05
-0.00113125 0.000336807 0.000340474 -6.62203e-05
-0.00187687 0.000561547 0.000563709 -3.9712e-05
-0.00149577 0.000446654 0.000449621 -5.46174e-05
-0.00112669 0.000335461 0.000339099 -6.62199e-05
-0.00150789 0.000450257 0.000453272 -5.4618e-05
-0.00150183 0.000448455 0.000451446 -5.46177e-05
-0.0018693 0.000559289 0.000561434 -3.97118e-05
-0.00185417 0.000554774 0.000556884 -3.97114e-05
-0.00111303 0.000331425 0.000334975 -6.62187e-05
-0.00112214 0.000334116 0.000337724 -6.62195e-05
-0.00186174 0.000557032 0.000559159 -3.97116e-05
-0.00148365 0.000443052 0.000445971 -5.46168e-05
-0.00111759 0.00033277 0.00033635 -6.62191e-05
-0.00149577 0.000446654 0.000449621 -5.46174e-05
-0.00148971 0.000444853 0.000447796 -5.46171e-05
-0.00185417 0.000554774 0.000556884 -3.97114e-05
-0.00183904 0.000550259 0.000552334 -3.97111e-05
-0.00110393 0.000328734 0.000332226 -6.62178e-05
-0.00111303 0.000331425 0.000334975 -6.62187e-05
-0.0018466 0.000552517 0.000554609 -3.97113e-05
-0.00147153 0.00043945 0.000442321 -5.46162e-05
-0.00110848 0.000330079 0.0003336 -6.62182e-05
-0.00148365 0.000443052 0.000445971 -5.46168e-05
-0.00147759 0.000441251 0.000444146 -5.46165e-05
-0.00183904 0.000550259 0.000552334 -3.97111e-05
-0.00182391 0.000545744 0.000547785 -3.97107e-05
-0.00109482 0.000326042 0.000329477 -6.6217e-05
-0.00110393 0.000328734 0.000332226 -6.62178e-05
-0.00183147 0.000548002 0.00055006 -3.97109e-05
-0.00145941 0.000435847 0.000438671 -5.46156e-05
-0.00109937 0.000327388 0.000330851 -6.62174e-05
-0.00147153 0.00043945 0.000442321 -5.46162e-05
-0.00146547 0.000437648 0.000440496 -5.46159e-05
-0.00182391 0.000545744 0.000547785 -3.97107e-05
-0.00180878 0.000541229 0.000543236 -3.97104e-05
-0.00108572 0.000323351 0.000326728 -6.62161e-05
-0.00109482 0.000326042 0.000329477 -6.6217e-05
-0.00181634 0.000543487 0.00054551 -3.97106e-05
-0.00144729 0.000432245 0.000435021 -5.4615e-05
-0.00109027 0.000324696 0.000328103 -6.62165e-05
-0.00145941 0.000435847 0.000438671 -5.46156e-05
-0.00145335 0.000434046 0.000436846 -5.46153e-05
-0.00180878 0.000541229 0.000543236 -3.97104e-05
-0.00179365 0.000536714 0.000538687 -3.971e-05
-0.00107661 0.000320659 0.00032398 -6.62152e-05
-0.00108572 0.000323351 0.000326728 -6.62161e-05
-0.00180121 0.000538971 0.000540961 -3.97102e-05
-0.00143518 0.000428642 0.000431372 -5.46144e-05
-0.00108116 0.000322005 0.000325354 -6.62157e-05
-0.00144729 0.000432245 0.000435021 -5.4615e-05
-0.00144124 0.000430443 0.000433197 -5.46147e-05
-0.00179365 0.000536714 0.000538687 -3.971e-05
-0.00177852 0.000532199 0.000534138 -3.97097e-05
-0.00106751 0.000317967 0.000321232 -6.62144e-05
-0.00107661 0.000320659 0.00032398 -6.62152e-05
-0.00178609 0.000534456 0.000536412 -3.97099e-05
-0.00142306 0.000425039 0.000427723 -5.46138e-05
-0.00107206 0.000319313 0.000322606 -6.62148e-05
-0.00143518 0.000428642 0.000431372 -5.46144e-05
-0.00142912 0.00042684 0.000429548 -5.46141e-05
-0.00177852 0.000532199 0.000534138 -3.97097e-05
-0.00176339 0.000527684 0.00052959 -3.97093e-05
-0.00105841 0.000315275 0.000318485 -6.62135e-05
-0.00106751 0.000317967 0.000321232 -6.62144e-05
-0.00177096 0.000529941 0.000531864 -3.97095e-05
-0.00141094 0.000421436 0.000424074 -5.46133e-05
-0.00106296 0.000316621 0.000319858 -6.6214e-05
-0.00142306 0.000425039 0.000427723 -5.46138e-05
-0.001417 0.000423238 0.000425899 -5.46136e-05
-0.00176339 0.000527684 0.00052959 -3.97093e-05
-0.00174827 0.000523168 0.000525041 -3.9709e-05
-0.0010493 0.000312583 0.000315737 -6.62127e-05
-0.00105841 0.000315275 0.000318485 -6.62135e-05
-0.00175583 0.000525426 0.000527316 -3.97092e-05
-0.00139883 0.000417833 0.000420426 -5.46127e-05
-0.00105385 0.000313929 0.000317111 -6.62131e-05
-0.00141094 0.000421436 0.000424074 -5.46133e-05
-0.00140489 0.000419635 0.00042225 -5.4613e-05
-0.00174827 0.000523168 0.000525041 -3.9709e-05
-0.00173314 0.000518653 0.000520494 -3.97086e-05
-0.0010402 0.00030989 0.00031299 -6.62118e-05
-0.0010493 0.000312583 0.000315737 -6.62127e-05
-0.0017407 0.000520911 0.000522767 -3.97088e-05
-0.00138671 0.00041423 0.000416778 -5.46121e-05
-0.00104475 0.000311237 0.000314364 -6.62122e-05
-0.00139883 0.000417833 0.000420426 -5.46127e-05
-0.00139277 0.000416032 0.000418602 -5.46124e-05
-0.00173314 0.000518653 0.000520494 -3.97086e-05
-0.00171801 0.000514138 0.000515946 -3.97083e-05
-0.0010311 0.000307198 0.000310244 -6.6211e-05
-0.0010402 0.00030989 0.00031299 -6.62118e-05
-0.00172557 0.000516395 0.00051822 -3.97085e-05
-0.0013746 0.000410627 0.00041313 -5.46115e-05
-0.00103565 0.000308544 0.000311617 -6.62114e-05
-0.00138671 0.00041423 0.000416778 -5.46121e-05
-0.00138065 0.000412429 0.000414954 -5.46118e-05
-0.00171801 0.000514138 0.000515946 -3.97083e-05
-0.00170289 0.000509623 0.000511399 -3.97079e-05
-0.001022 0.000304505 0.000307498 -6.62101e-05
-0.0010311 0.000307198 0.000310244 -6.6211e-05
-0.00171045 0.00051188 0.000513672 -3.97081e-05
-0.00136248 0.000407024 0.000409483 -5.46109e-05
-0.00102655 0.000305852 0.000308871 -6.62105e-05
-0.0013746 0.000410627 0.00041313 -5.46115e-05
-0.00136854 0.000408825 0.000411307 -5.46112e-05
-0.00170289 0.000509623 0.000511399 -3.97079e-05
-0.00168776 0.000505107 0.000506852 -3.97076e-05
-0.0010129 0.000301812 0.000304752 -6.62092e-05
-0.001022 0.000304505 0.000307498 -6.62101e-05
-0.00169532 0.000507365 0.000509125 -3.97078e-05
-0.00135037 0.00040342 0.000405836 -5.46103e-05
-0.00101745 0.000303159 0.000306124 -6.62097e-05
-0.00136248 0.000407024 0.000409483 -5.46109e-05
-0.00135643 0.000405222 0.000407659 -5.46106e-05
-0.00168776 0.000505107 0.000506852 -3.97076e-05
-0.00167264 0.000500592 0.000502305 -3.97072e-05
-0.0010038 0.000299119 0.000302006 -6.62084e-05
-0.0010129 0.000301812 0.000304752 -6.62092e-05
-0.0016802 0.00050285 0.000504578 -3.97074e-05
-0.00133826 0.000399817 0.000402189 -5.46097e-05
-0.00100835 0.000300466 0.000303379 -6.62088e-05
-0.00135037 0.00040342 0.000405836 -5.46103e-05
-0.00134431 0.000401619 0.000404012 -5.461e-05
-0.00167264 0.000500592 0.000502305 -3.97072e-05
-0.00165751 0.000496077 0.000497758 -3.97069e-05
-0.000994701 0.000296426 0.00029926 -6.62075e-05
-0.0010038 0.000299119 0.000302006 -6.62084e-05
-0.00166507 0.000498334 0.000500031 -3.9707e-05
-0.00132615 0.000396213 0.000398542 -5.46091e-05
-0.00099925 0.000297773 0.000300633 -6.6208e-05
-0.00133826 0.000399817 0.000402189 -5.46097e-05
-0.0013322 0.000398015 0.000400366 -5.46094e-05
-0.00165751 0.000496077 0.000497758 -3.97069e-05
-0.00164239 0.000491561 0.000493212 -3.97065e-05
-0.000985602 0.000293733 0.000296515 -6.62067e-05
-0.000994701 0.000296426 0.00029926 -6.62075e-05
-0.00164995 0.000493819 0.000495485 -3.97067e-05
-0.00131403 0.00039261 0.000394896 -5.46085e-05
-0.000990151 0.00029508 0.000297888 -6.62071e-05
-0.00132615 0.000396213 0.000398542 -5.46091e-05
-0.00132009 0.000394412 0.000396719 -5.46088e-05
-0.00164239 0.000491561 0.000493212 -3.97065e-05
-0.00162727 0.000487046 0.000488666 -3.97062e-05
-0.000976504 0.000291039 0.000293771 -6.62058e-05
-0.000985602 0.000293733 0.000296515 -6.62067e-05
-0.00163483 0.000489304 0.000490939 -3.97063e-05
-0.00130192 0.000389006 0.00039125 -5.46079e-05
-0.000981053 0.000292386 0.000295143 -6.62062e-05
-0.00131403 0.00039261 0.000394896 -5.46085e-05
-0.00130798 0.000390808 0.000393073 -5.46082e-05
-0.00162727 0.000487046 0.000488666 -3.97062e-05
-0.00161214 0.00048253 0.00048412 -3.97058e-05
-0.000967407 0.000288346 0.000291026 -6.6205e-05
-0.000976504 0.000291039 0.000293771 -6.62058e-05
-0.0016197 0.000484788 0.000486393 -3.9706e-05
-0.00128981 0.000385402 0.000387604 -5.46073e-05
-0.000971956 0.000289693 0.000292398 -6.62054e-05
-0.00130192 0.000389006 0.00039125 -5.46079e-05
-0.00129587 0.000387204 0.000389427 -5.46076e-05
-0.00161214 0.00048253 0.00048412 -3.97058e-05
-0.00159702 0.000478015 0.000479574 -3.97055e-05
-0.00095831 0.000285652 0.000288282 -6.62041e-05
-0.000967407 0.000288346 0.000291026 -6.6205e-05
-0.00160458 0.000480273 0.000481847 -3.97056e-05
-0.0012777 0.000381798 0.000383959 -5.46067e-05
-0.000962859 0.000286999 0.000289654 -6.62045e-05
-0.00128981 0.000385402 0.000387604 -5.46073e-05
-0.00128376 0.0003836 0.000385782 -5.4607e-05
-0.00159702 0.000478015 0.000479574 -3.97055e-05
-0.0015819 0.0004735 0.000475029 -3.97051e-05
-0.000949214 0.000282958 0.000285538 -6.62033e-05
-0.00095831 0.000285652 0.000288282 -6.62041e-05
-0.00158946 0.000475757 0.000477302 -3.97053e-05
-0.00126559 0.000378194 0.000380314 -5.46061e-05
-0.000953762 0.000284305 0.00028691 -6.62037e-05
-0.0012777 0.000381798 0.000383959 -5.46067e-05
-0.00127165 0.000379996 0.000382136 -5.46064e-05
-0.0015819 0.0004735 0.000475029 -3.97051e-05
-0.00156678 0.000468984 0.000470484 -3.97048e-05
-0.000940119 0.000280264 0.000282795 -6.62024e-05
-0.000949214 0.000282958 0.000285538 -6.62033e-05
-0.00157434 0.000471242 0.000472757 -3.97049e-05
-0.00125348 0.00037459 0.000376669 -5.46055e-05
-0.000944666 0.000281611 0.000284167 -6.62028e-05
-0.00126559 0.000378194 0.000380314 -5.46061e-05
-0.00125954 0.000376392 0.000378491 -5.46058e-05
-0.00156678 0.000468984 0.000470484 -3.97048e-05
-0.00155166 0.000464469 0.000465939 -3.97044e-05
-0.000931024 0.00027757 0.000280052 -6.62016e-05
-0.000940119 0.000280264 0.000282795 -6.62024e-05
-0.00155922 0.000466726 0.000468212 -3.97046e-05
-0.00124138 0.000370986 0.000373024 -5.46049e-05
-0.000935571 0.000278917 0.000281423 -6.6202e-05
-0.00125348 0.00037459 0.000376669 -5.46055e-05
-0.00124743 0.000372788 0.000374847 -5.46052e-05
-0.00155166 0.000464469 0.000465939 -3.97044e-05
-0.00153654 0.000459953 0.000461395 -3.97041e-05
-0.000921929 0.000274875 0.000277309 -6.62007e-05
-0.000931024 0.00027757 0.000280052 -6.62016e-05
-0.0015441 0.000462211 0.000463667 -3.97043e-05
-0.00122927 0.000367381 0.00036938 -5.46044e-05
-0.000926476 0.000276223 0.00027868 -6.62012e-05
-0.00124138 0.000370986 0.000373024 -5.46049e-05
-0.00123532 0.000369184 0.000371202 -5.46047e-05
-0.00153654 0.000459953 0.000461395 -3.97041e-05
-0.00152142 0.000455438 0.000456851 -3.97037e-05
-0.000912835 0.000272181 0.000274566 -6.61999e-05
-0.000921929 0.000274875 0.000277309 -6.62007e-05
-0.00152898 0.000457695 0.000459123 -3.97039e-05
-0.00121716 0.000363777 0.000365736 -5.46038e-05
-0.000917382 0.000273528 0.000275937 -6.62003e-05
-0.00122927 0.000367381 0.00036938 -5.46044e-05
-0.00122322 0.000365579 0.000367558 -5.46041e-05
-0.00152142 0.000455438 0.000456851 -3.97037e-05
-0.0015063 0.000450922 0.000452307 -3.97034e-05
-0.000903742 0.000269486 0.000271824 -6.61991e-05
-0.000912835 0.000272181 0.000274566 -6.61999e-05
-0.00151386 0.00045318 0.000454579 -3.97036e-05
-0.00120506 0.000360173 0.000362093 -5.46032e-05
-0.000908289 0.000270833 0.000273195 -6.61995e-05
-0.00121716 0.000363777 0.000365736 -5.46038e-05
-0.00121111 0.000361975 0.000363914 -5.46035e-05
-0.0015063 0.000450922 0.000452307 -3.97034e-05
-0.00149119 0.000446406 0.000447763 -3.97031e-05
-0.000894649 0.000266791 0.000269082 -6.61982e-05
-0.000903742 0.000269486 0.000271824 -6.61991e-05
-0.00149875 0.000448664 0.000450035 -3.97032e-05
-0.00119295 0.000356568 0.000358449 -5.46026e-05
-0.000899196 0.000268139 0.000270453 -6.61987e-05
-0.00120506 0.000360173 0.000362093 -5.46032e-05
-0.001199 0.00035837 0.000360271 -5.46029e-05
-0.00149119 0.000446406 0.000447763 -3.97031e-05
-0.00147607 0.000441891 0.00044322 -3.97027e-05
-0.000885557 0.000264096 0.000266341 -6.61974e-05
-0.000894649 0.000266791 0.000269082 -6.61982e-05
-0.00148363 0.000444149 0.000445491 -3.97029e-05
-0.00118084 0.000352963 0.000354806 -5.46021e-05
-0.000890103 0.000265444 0.000267711 -6.61978e-05
-0.00119295 0.000356568 0.000358449 -5.46026e-05
-0.0011869 0.000354766 0.000356628 -5.46023e-05
-0.00147607 0.000441891 0.00044322 -3.97027e-05
-0.00146095 0.000437375 0.000438676 -3.97024e-05
-0.000876466 0.000261401 0.000263599 -6.61966e-05
-0.000885557 0.000264096 0.000266341 -6.61974e-05
-0.00146851 0.000439633 0.000440948 -3.97026e-05
-0.00116874 0.000349358 0.000351164 -5.46015e-05
-0.000881011 0.000262748 0.00026497 -6.6197e-05
-0.00118084 0.000352963 0.000354806 -5.46021e-05
-0.00117479 0.000351161 0.000352985 -5.46018e-05
-0.00146095 0.000437375 0.000438676 -3.97024e-05
-0.00144584 0.00043286 0.000434134 -3.97021e-05
-0.000867375 0.000258705 0.000260858 -6.61958e-05
-0.000876466 0.000261401 0.000263599 -6.61966e-05
-0.0014534 0.000435117 0.000436405 -3.97022e-05
-0.00115664 0.000345753 0.000347521 -5.46009e-05
-0.00087192 0.000260053 0.000262229 -6.61962e-05
-0.00116874 0.000349358 0.000351164 -5.46015e-05
-0.00116269 0.000347556 0.000349342 -5.46012e-05
-0.00144584 0.00043286 0.000434134 -3.97021e-05
-0.00143072 0.000428344 0.000429591 -3.97018e-05
-0.000858284 0.00025601 0.000258118 -6.6195e-05
-0.000867375 0.000258705 0.000260858 -6.61958e-05
-0.00143828 0.000430602 0.000431862 -3.97019e-05
-0.00114453 0.000342148 0.000343879 -5.46004e-05
-0.000862829 0.000257358 0.000259488 -6.61954e-05
-0.00115664 0.000345753 0.000347521 -5.46009e-05
-0.00115058 0.000343951 0.0003457 -5.46007e-05
-0.00143072 0.000428344 0.000429591 -3.97018e-05
-0.00141561 0.000423828 0.000425049 -3.97014e-05
-0.000849194 0.000253314 0.000255377 -6.61942e-05
-0.000858284 0.00025601 0.000258118 -6.6195e-05
-0.00142317 0.000426086 0.00042732 -3.97016e-05
-0.00113243 0.000338543 0.000340237 -5.45998e-05
-0.000853739 0.000254662 0.000256747 -6.61946e-05
-0.00114453 0.000342148 0.000343879 -5.46004e-05
-0.00113848 0.000340346 0.000342058 -5.46001e-05
-0.00141561 0.000423828 0.000425049 -3.97014e-05
-0.00140049 0.000419312 0.000420506 -3.97011e-05
-0.000840105 0.000250618 0.000252637 -6.61934e-05
-0.000849194 0.000253314 0.000255377 -6.61942e-05
-0.00140805 0.00042157 0.000422777 -3.97013e-05
-0.00112033 0.000334938 0.000336595 -5.45993e-05
-0.00084465 0.000251966 0.000254007 -6.61938e-05
-0.00113243 0.000338543 0.000340237 -5.45998e-05
-0.00112638 0.000336741 0.000338416 -5.45995e-05
-0.00140049 0.000419312 0.000420506 -3.97011e-05
-0.00138538 0.000414797 0.000415965 -3.97008e-05
-0.000831016 0.000247922 0.000249897 -6.61926e-05
-0.000840105 0.000250618 0.000252637 -6.61934e-05
-0.00139294 0.000417055 0.000418235 -3.9701e-05
-0.00110823 0.000331333 0.000332954 -5.45987e-05
-0.000835561 0.00024927 0.000251267 -6.6193e-05
-0.00112033 0.000334938 0.000336595 -5.45993e-05
-0.00111428 0.000333136 0.000334775 -5.4599e-05
-0.00138538 0.000414797 0.000415965 -3.97008e-05
-0.00137027 0.000410281 0.000411423 -3.97005e-05
-0.000821928 0.000245226 0.000247158 -6.61918e-05
-0.000831016 0.000247922 0.000249897 -6.61926e-05
-0.00137782 0.000412539 0.000413694 -3.97006e-05
-0.00109612 0.000327727 0.000329313 -5.45982e-05
-0.000826472 0.000246574 0.000248528 -6.61922e-05
-0.00110823 0.000331333 0.000332954 -5.45987e-05
-0.00110218 0.00032953 0.000331134 -5.45985e-05
-0.00137027 0.000410281 0.000411423 -3.97005e-05
-0.00135516 0.000405765 0.000406882 -3.97002e-05
-0.000812841 0.00024253 0.000244419 -6.6191e-05
-0.000821928 0.000245226 0.000247158 -6.61918e-05
-0.00136271 0.000408023 0.000409152 -3.97003e-05
-0.00108402 0.000324122 0.000325672 -5.45977e-05
-0.000817385 0.000243878 0.000245789 -6.61914e-05
-0.00109612 0.000327727 0.000329313 -5.45982e-05
-0.00109007 0.000325925 0.000327493 -5.45979e-05
-0.00135516 0.000405765 0.000406882 -3.97002e-05
-0.00134004 0.000401249 0.00040234 -3.96999e-05
-0.000803754 0.000239833 0.00024168 -6.61902e-05
-0.000812841 0.00024253 0.000244419 -6.6191e-05
-0.0013476 0.000403507 0.000404611 -3.97e-05
-0.00107192 0.000320516 0.000322032 -5.45971e-05
-0.000808297 0.000241182 0.00024305 -6.61906e-05
-0.00108402 0.000324122 0.000325672 -5.45977e-05
-0.00107797 0.000322319 0.000323852 -5.45974e-05
-0.00134004 0.000401249 0.00040234 -3.96999e-05
-0.00132493 0.000396733 0.0003978 -3.96996e-05
-0.000794667 0.000237137 0.000238942 -6.61895e-05
-0.000803754 0.000239833 0.00024168 -6.61902e-05
-0.00133249 0.000398991 0.00040007 -3.96997e-05
-0.00105982 0.000316911 0.000318392 -5.45966e-05
-0.000799211 0.000238485 0.000240311 -6.61898e-05
-0.00107192 0.000320516 0.000322032 -5.45971e-05
-0.00106587 0.000318714 0.000320212 -5.45969e-05
-0.00132493 0.000396733 0.0003978 -3.96996e-05
-0.00130982 0.000392217 0.000393259 -3.96993e-05
-0.000785582 0.00023444 0.000236204 -6.61887e-05
-0.000794667 0.000237137 0.000238942 -6.61895e-05
-0.00131738 0.000394475 0.000395529 -3.96994e-05
-0.00104773 0.000313305 0.000314752 -5.45961e-05
-0.000790124 0.000235788 0.000237573 -6.61891e-05
-0.00105982 0.000316911 0.000318392 -5.45966e-05
-0.00105378 0.000315108 0.000316572 -5.45963e-05
-0.00130982 0.000392217 0.000393259 -3.96993e-05
-0.00129471 0.000387702 0.000388719 -3.9699e-05
-0.000776496 0.000231743 0.000233466 -6.61879e-05
-0.000785582 0.00023444 0.000236204 -6.61887e-05
-0.00130227 0.00038996 0.000390989 -3.96991e-05
-0.00103563 0.000309699 0.000311112 -5.45956e-05
-0.000781039 0.000233091 0.000234835 -6.61883e-05
-0.00104773 0.000313305 0.000314752 -5.45961e-05
-0.00104168 0.000311502 0.000312932 -5.45958e-05
-0.00129471 0.000387702 0.000388719 -3.9699e-05
-0.0012796 0.000383186 0.000384179 -3.96987e-05
-0.000767412 0.000229046 0.000230728 -6.61872e-05
-0.000776496 0.000231743 0.000233466 -6.61879e-05
-0.00128716 0.000385444 0.000386449 -3.96988e-05
-0.00102353 0.000306093 0.000307473 -5.45951e-05
-0.000771954 0.000230394 0.000232097 -6.61876e-05
-0.00103563 0.000309699 0.000311112 -5.45956e-05
-0.00102958 0.000307896 0.000309293 -5.45953e-05
-0.0012796 0.000383186 0.000384179 -3.96987e-05
-0.00126449 0.00037867 0.000379639 -3.96984e-05
-0.000758327 0.000226348 0.000227991 -6.61864e-05
-0.000767412 0.000229046 0.000230728 -6.61872e-05
-0.00127205 0.000380928 0.000381909 -3.96985e-05
-0.00101143 0.000302487 0.000303834 -5.45946e-05
-0.000762869 0.000227697 0.00022936 -6.61868e-05
-0.00102353 0.000306093 0.000307473 -5.45951e-05
-0.00101748 0.00030429 0.000305654 -5.45948e-05
-0.00126449 0.00037867 0.000379639 -3.96984e-05
-0.00124939 0.000374154 0.000375099 -3.96981e-05
-0.000749244 0.000223651 0.000225254 -6.61857e-05
-0.000758327 0.000226348 0.000227991 -6.61864e-05
-0.00125694 0.000376412 0.000377369 -3.96983e-05
-0.000999337 0.000298881 0.000300195 -5.45941e-05
-0.000753785 0.000225 0.000226622 -6.61861e-05
-0.00101143 0.000302487 0.000303834 -5.45946e-05
-0.00100538 0.000300684 0.000302015 -5.45943e-05
-0.00124939 0.000374154 0.000375099 -3.96981e-05
-0.00123428 0.000369638 0.00037056 -3.96978e-05
-0.000740161 0.000220953 0.000222517 -6.6185e-05
-0.000749244 0.000223651 0.000225254 -6.61857e-05
-0.00124183 0.000371896 0.000372829 -3.9698e-05
-0.000987241 0.000295274 0.000296557 -5.45936e-05
-0.000744702 0.000222302 0.000223886 -6.61853e-05
-0.000999337 0.000298881 0.000300195 -5.45941e-05
-0.000993289 0.000297078 0.000298376 -5.45938e-05
-0.00123428 0.000369638 0.00037056 -3.96978e-05
-0.00121917 0.000365122 0.000366021 -3.96976e-05
-0.000731078 0.000218255 0.000219781 -6.61843e-05
-0.000740161 0.000220953 0.000222517 -6.6185e-05
-0.00122672 0.00036738 0.00036829 -3.96977e-05
-0.000975145 0.000291668 0.000292919 -5.45931e-05
-0.000735619 0.000219604 0.000221149 -6.61846e-05
-0.000987241 0.000295274 0.000296557 -5.45936e-05
-0.000981193 0.000293471 0.000294738 -5.45933e-05
-0.00121917 0.000365122 0.000366021 -3.96976e-05
-0.00120406 0.000360605 0.000361482 -3.96973e-05
-0.000721996 0.000215558 0.000217045 -6.61835e-05
-0.000731078 0.000218255 0.000219781 -6.61843e-05
-0.00121162 0.000362864 0.000363751 -3.96974e-05
-0.000963051 0.000288061 0.000289281 -5.45926e-05
-0.000726537 0.000216907 0.000218413 -6.61839e-05
-0.000975145 0.000291668 0.000292919 -5.45931e-05
-0.000969098 0.000289865 0.0002911 -5.45928e-05
-0.00120406 0.000360605 0.000361482 -3.96973e-05
-0.00118896 0.000356089 0.000356943 -3.9697e-05
-0.000712915 0.000212859 0.000214309 -6.61828e-05
-0.000721996 0.000215558 0.000217045 -6.61835e-05
-0.00119651 0.000358347 0.000359213 -3.96972e-05
-0.000950956 0.000284455 0.000285644 -5.45921e-05
-0.000717456 0.000214208 0.000215677 -6.61832e-05
-0.000963051 0.000288061 0.000289281 -5.45926e-05
-0.000957003 0.000286258 0.000287462 -5.45924e-05
-0.00118896 0.000356089 0.000356943 -3.9697e-05
-0.00117385 0.000351573 0.000352405 -3.96968e-05
-0.000703834 0.000210161 0.000211574 -6.61822e-05
-0.000712915 0.000212859 0.000214309 -6.61828e-05
-0.0011814 0.000353831 0.000354674 -3.96969e-05
-0.000938863 0.000280848 0.000282006 -5.45917e-05
-0.000708374 0.00021151 0.000212942 -6.61825e-05
-0.000950956 0.000284455 0.000285644 -5.45921e-05
-0.000944909 0.000282651 0.000283825 -5.45919e-05
-0.00117385 0.000351573 0.000352405 -3.96968e-05
-0.00115875 0.000347057 0.000347867 -3.96965e-05
-0.000694754 0.000207463 0.000208839 -6.61815e-05
-0.000703834 0.000210161 0.000211574 -6.61822e-05
-0.0011663 0.000349315 0.000350136 -3.96967e-05
-0.00092677 0.000277241 0.000278369 -5.45912e-05
-0.000699294 0.000208812 0.000210207 -6.61818e-05
-0.000938863 0.000280848 0.000282006 -5.45917e-05
-0.000932816 0.000279045 0.000280188 -5.45915e-05
-0.00115875 0.000347057 0.000347867 -3.96965e-05
-0.00114364 0.000342541 0.000343329 -3.96963e-05
-0.000685674 0.000204764 0.000206104 -6.61808e-05
-0.000694754 0.000207463 0.000208839 -6.61815e-05
-0.00115119 0.000344799 0.000345598 -3.96964e-05
-0.000914677 0.000273634 0.000274733 -5.45908e-05
-0.000690214 0.000206113 0.000207472 -6.61811e-05
-0.00092677 0.000277241 0.000278369 -5.45912e-05
-0.000920723 0.000275438 0.000276551 -5.4591e-05
-0.00114364 0.000342541 0.000343329 -3.96963e-05
-0.00112854 0.000338025 0.000338792 -3.96961e-05
-0.000676595 0.000202065 0.00020337 -6.61801e-05
-0.000685674 0.000204764 0.000206104 -6.61808e-05
-0.00113609 0.000340283 0.00034106 -3.96962e-05
-0.000902585 0.000270027 0.000271096 -5.45903e-05
-0.000681134 0.000203415 0.000204737 -6.61805e-05
-0.000914677 0.000273634 0.000274733 -5.45908e-05
-0.000908631 0.000271831 0.000272914 -5.45906e-05
-0.00112854 0.000338025 0.000338792 -3.96961e-05
-0.00111344 0.000333508 0.000334254 -3.96958e-05
-0.000667516 0.000199366 0.000200636 -6.61795e-05
-0.000676595 0.000202065 0.00020337 -6.61801e-05
-0.00112099 0.000335766 0.000336523 -3.96959e-05
-0.000890493 0.00026642 0.00026746 -5.45899e-05
-0.000672056 0.000200716 0.000202003 -6.61798e-05
-0.000902585 0.000270027 0.000271096 -5.45903e-05
-0.000896539 0.000268224 0.000269278 -5.45901e-05
-0.00111344 0.000333508 0.000334254 -3.96958e-05
-0.00109833 0.000328992 0.000329717 -3.96956e-05
-0.000658438 0.000196667 0.000197902 -6.61788e-05
-0.000667516 0.000199366 0.000200636 -6.61795e-05
-0.00110588 0.00033125 0.000331986 -3.96957e-05
-0.000878403 0.000262813 0.000263824 -5.45895e-05
-0.000662977 0.000198017 0.000199269 -6.61791e-05
-0.000890493 0.00026642 0.00026746 -5.45899e-05
-0.000884448 0.000264616 0.000265642 -5.45897e-05
-0.00109833 0.000328992 0.000329717 -3.96956e-05
-0.00108323 0.000324476 0.000325181 -3.96954e-05
-0.000649361 0.000193968 0.000195168 -6.61782e-05
-0.000658438 0.000196667 0.000197902 -6.61788e-05
-0.00109078 0.000326734 0.000327449 -3.96955e-05
-0.000866312 0.000259205 0.000260189 -5.45891e-05
-0.000653899 0.000195318 0.000196535 -6.61785e-05
-0.000878403 0.000262813 0.000263824 -5.45895e-05
-0.000872357 0.000261009 0.000262006 -5.45893e-05
-0.00108323 0.000324476 0.000325181 -3.96954e-05
-0.00106813 0.000319959 0.000320644 -3.96952e-05
-0.000640284 0.000191268 0.000192435 -6.61776e-05
-0.000649361 0.000193968 0.000195168 -6.61782e-05
-0.00107568 0.000322217 0.000322912 -3.96953e-05
-0.000854222 0.000255598 0.000256553 -5.45887e-05
-0.000644822 0.000192618 0.000193802 -6.61779e-05
-0.000866312 0.000259205 0.000260189 -5.45891e-05
-0.000860267 0.000257402 0.000258371 -5.45889e-05
-0.00106813 0.000319959 0.000320644 -3.96952e-05
-0.00105303 0.000315443 0.000316108 -3.96949e-05
-0.000631207 0.000188569 0.000189702 -6.61769e-05
-0.000640284 0.000191268 0.000192435 -6.61776e-05
-0.00106058 0.000317701 0.000318376 -3.96951e-05
-0.000842133 0.00025199 0.000252918 -5.45883e-05
-0.000635746 0.000189919 0.000191069 -6.61772e-05
-0.000854222 0.000255598 0.000256553 -5.45887e-05
-0.000848178 0.000253794 0.000254736 -5.45885e-05
-0.00105303 0.000315443 0.000316108 -3.96949e-05
-0.00103793 0.000310926 0.000311572 -3.96947e-05
-0.000622131 0.000185869 0.00018697 -6.61763e-05
-0.000631207 0.000188569 0.000189702 -6.61769e-05
-0.00104548 0.000313184 0.00031384 -3.96948e-05
-0.000830044 0.000248383 0.000249284 -5.45879e-05
-0.000626669 0.000187219 0.000188336 -6.61766e-05
-0.000842133 0.00025199 0.000252918 -5.45883e-05
-0.000836089 0.000250187 0.000251101 -5.45881e-05
-0.00103793 0.000310926 0.000311572 -3.96947e-05
-0.00102283 0.00030641 0.000307036 -3.96945e-05
-0.000613056 0.000183169 0.000184237 -6.61757e-05
-0.000622131 0.000185869 0.00018697 -6.61763e-05
-0.00103038 0.000308668 0.000309304 -3.96946e-05
-0.000817956 0.000244775 0.000245649 -5.45875e-05
-0.000617594 0.000184519 0.000185603 -6.6176e-05
-0.000830044 0.000248383 0.000249284 -5.45879e-05
-0.000824 0.000246579 0.000247466 -5.45877e-05
-0.00102283 0.00030641 0.000307036 -3.96945e-05
-0.00100773 0.000301893 0.0003025 -3.96944e-05
-0.000603981 0.000180469 0.000181505 -6.61751e-05
-0.000613056 0.000183169 0.000184237 -6.61757e-05
-0.00101528 0.000304151 0.000304768 -3.96945e-05
-0.000805869 0.000241167 0.000242015 -5.45871e-05
-0.000608519 0.000181819 0.000182871 -6.61754e-05
-0.000817956 0.000244775 0.000245649 -5.45875e-05
-0.000811912 0.000242971 0.000243832 -5.45873e-05
-0.00100773 0.000301893 0.0003025 -3.96944e-05
-0.000992628 0.000297376 0.000297965 -3.96942e-05
-0.000594907 0.000177769 0.000178774 -6.61746e-05
-0.000603981 0.000180469 0.000181505 -6.61751e-05
-0.00100018 0.000299635 0.000300232 -3.96943e-05
-0.000793782 0.000237559 0.000238381 -5.45868e-05
-0.000599444 0.000179119 0.000180139 -6.61749e-05
-0.000805869 0.000241167 0.000242015 -5.45871e-05
-0.000799825 0.000239363 0.000240198 -5.45869e-05
-0.000992628 0.000297376 0.000297965 -3.96942e-05
-0.000977529 0.00029286 0.00029343 -3.9694e-05
-0.000585833 0.000175068 0.000176042 -6.6174e-05
-0.000594907 0.000177769 0.000178774 -6.61746e-05
-0.000985078 0.000295118 0.000295697 -3.96941e-05
-0.000781695 0.000233951 0.000234748 -5.45864e-05
-0.00059037 0.000176418 0.000177408 -6.61743e-05
-0.000793782 0.000237559 0.000238381 -5.45868e-05
-0.000787738 0.000235755 0.000236564 -5.45866e-05
-0.000977529 0.00029286 0.00029343 -3.9694e-05
-0.000962431 0.000288343 0.000288895 -3.96938e-05
-0.00057676 0.000172367 0.000173311 -6.61735e-05
-0.000585833 0.000175068 0.000176042 -6.6174e-05
-0.00096998 0.000290602 0.000291162 -3.96939e-05
-0.000769609 0.000230342 0.000231114 -5.45861e-05
-0.000581297 0.000173718 0.000174677 -6.61737e-05
-0.000781695 0.000233951 0.000234748 -5.45864e-05
-0.000775652 0.000232147 0.000232931 -5.45862e-05
-0.000962431 0.000288343 0.000288895 -3.96938e-05
-0.000947334 0.000283826 0.00028436 -3.96937e-05
-0.000567688 0.000169667 0.00017058 -6.61729e-05
-0.00057676 0.000172367 0.000173311 -6.61735e-05
-0.000954882 0.000286085 0.000286628 -3.96937e-05
-0.000757524 0.000226734 0.000227481 -5.45857e-05
-0.000572224 0.000171017 0.000171946 -6.61732e-05
-0.000769609 0.000230342 0.000231114 -5.45861e-05
-0.000763566 0.000228538 0.000229298 -5.45859e-05
-0.000947334 0.000283826 0.00028436 -3.96937e-05
-0.000932237 0.00027931 0.000279826 -3.96935e-05
-0.000558615 0.000166966 0.00016785 -6.61724e-05
-0.000567688 0.000169667 0.00017058 -6.61729e-05
-0.000939785 0.000281568 0.000282093 -3.96936e-05
-0.000745439 0.000223126 0.000223848 -5.45854e-05
-0.000563151 0.000168316 0.000169215 -6.61726e-05
-0.000757524 0.000226734 0.000227481 -5.45857e-05
-0.000751481 0.00022493 0.000225665 -5.45855e-05
-0.000932237 0.00027931 0.000279826 -3.96935e-05
-0.00091714 0.000274793 0.000275292 -3.96933e-05
-0.000549544 0.000164264 0.00016512 -6.61719e-05
-0.000558615 0.000166966 0.00016785 -6.61724e-05
-0.000924688 0.000277051 0.000277559 -3.96934e-05
-0.000733354 0.000219517 0.000220216 -5.45851e-05
-0.00055408 0.000165615 0.000166485 -6.61721e-05
-0.000745439 0.000223126 0.000223848 -5.45854e-05
-0.000739396 0.000221321 0.000222032 -5.45852e-05
-0.00091714 0.000274793 0.000275292 -3.96933e-05
-0.000902044 0.000270276 0.000270758 -3.96932e-05
-0.000540473 0.000161563 0.00016239 -6.61714e-05
-0.000549544 0.000164264 0.00016512 -6.61719e-05
-0.000909592 0.000272534 0.000273025 -3.96933e-05
-0.00072127 0.000215908 0.000216584 -5.45848e-05
-0.000545008 0.000162914 0.000163755 -6.61716e-05
-0.000733354 0.000219517 0.000220216 -5.45851e-05
-0.000727312 0.000217713 0.0002184 -5.45849e-05
-0.000902044 0.000270276 0.000270758 -3.96932e-05
-0.000886949 0.000265759 0.000266224 -3.96931e-05
-0.000531402 0.000158862 0.00015966 -6.61709e-05
-0.000540473 0.000161563 0.00016239 -6.61714e-05
-0.000894496 0.000268018 0.000268491 -3.96931e-05
-0.000709187 0.000212299 0.000212952 -5.45845e-05
-0.000535937 0.000160212 0.000161025 -6.61711e-05
-0.00072127 0.000215908 0.000216584 -5.45848e-05
-0.000715229 0.000214104 0.000214768 -5.45846e-05
-0.000886949 0.000265759 0.000266224 -3.96931e-05
-0.000871854 0.000261242 0.000261691 -3.96929e-05
-0.000522332 0.00015616 0.000156931 -6.61704e-05
-0.000531402 0.000158862 0.00015966 -6.61709e-05
-0.000879401 0.000263501 0.000263957 -3.9693e-05
-0.000697104 0.000208691 0.00020932 -5.45842e-05
-0.000526867 0.000157511 0.000158296 -6.61706e-05
-0.000709187 0.000212299 0.000212952 -5.45845e-05
-0.000703145 0.000210495 0.000211136 -5.45843e-05
-0.000871854 0.000261242 0.000261691 -3.96929e-05
-0.000856759 0.000256725 0.000257158 -3.96928e-05
-0.000513263 0.000153458 0.000154202 -6.61699e-05
-0.000522332 0.00015616 0.000156931 -6.61704e-05
-0.000864307 0.000258984 0.000259424 -3.96929e-05
-0.000685022 0.000205081 0.000205689 -5.45839e-05
-0.000517797 0.000154809 0.000155566 -6.61701e-05
-0.000697104 0.000208691 0.00020932 -5.45842e-05
-0.000691063 0.000206886 0.000207504 -5.4584e-05
-0.000856759 0.000256725 0.000257158 -3.96928e-05
-0.000841665 0.000252208 0.000252625 -3.96927e-05
-0.000504194 0.000150756 0.000151473 -6.61694e-05
-0.000513263 0.000153458 0.000154202 -6.61699e-05
-0.000849212 0.000254467 0.000254891 -3.96928e-05
-0.00067294 0.000201472 0.000202058 -5.45836e-05
-0.000508728 0.000152107 0.000152838 -6.61697e-05
-0.000685022 0.000205081 0.000205689 -5.45839e-05
-0.000678981 0.000203277 0.000203873 -5.45838e-05
-0.000841665 0.000252208 0.000252625 -3.96927e-05
-0.000826572 0.000247691 0.000248092 -3.96926e-05
-0.000495125 0.000148054 0.000148745 -6.6169e-05
-0.000504194 0.000150756 0.000151473 -6.61694e-05
-0.000834119 0.000249949 0.000250358 -3.96926e-05
-0.000660859 0.000197863 0.000198427 -5.45834e-05
-0.00049966 0.000149405 0.000150109 -6.61692e-05
-0.00067294 0.000201472 0.000202058 -5.45836e-05
-0.000666899 0.000199668 0.000200242 -5.45835e-05
-0.000826572 0.000247691 0.000248092 -3.96926e-05
-0.000811479 0.000243174 0.000243559 -3.96925e-05
-0.000486058 0.000145352 0.000146017 -6.61686e-05
-0.000495125 0.000148054 0.000148745 -6.6169e-05
-0.000819025 0.000245432 0.000245826 -3.96925e-05
-0.000648778 0.000194254 0.000194796 -5.45831e-05
-0.000490591 0.000146703 0.000147381 -6.61688e-05
-0.000660859 0.000197863 0.000198427 -5.45834e-05
-0.000654818 0.000196058 0.000196611 -5.45832e-05
-0.000811479 0.000243174 0.000243559 -3.96925e-05
-0.000796387 0.000238657 0.000239027 -3.96924e-05
-0.00047699 0.000142649 0.000143289 -6.61681e-05
-0.000486058 0.000145352 0.000146017 -6.61686e-05
-0.000803933 0.000240915 0.000241293 -3.96924e-05
-0.000636698 0.000190644 0.000191166 -5.45829e-05
-0.000481524 0.000144 0.000144653 -6.61684e-05
-0.000648778 0.000194254 0.000194796 -5.45831e-05
-0.000642738 0.000192449 0.000192981 -5.4583e-05
-0.000796387 0.000238657 0.000239027 -3.96924e-05
-0.000781295 0.000234139 0.000234495 -3.96923e-05
-0.000467923 0.000139946 0.000140562 -6.61677e-05
-0.00047699 0.000142649 0.000143289 -6.61681e-05
-0.000788841 0.000236398 0.000236761 -3.96924e-05
-0.000624618 0.000187034 0.000187536 -5.45827e-05
-0.000472457 0.000141298 0.000141925 -6.61679e-05
-0.000636698 0.000190644 0.000191166 -5.45829e-05
-0.000630658 0.000188839 0.000189351 -5.45828e-05
-0.000781295 0.000234139 0.000234495 -3.96923e-05
-0.000766203 0.000229622 0.000229963 -3.96922e-05
-0.000458857 0.000137243 0.000137834 -6.61673e-05
-0.000467923 0.000139946 0.000140562 -6.61677e-05
-0.000773749 0.000231881 0.000232229 -3.96923e-05
-0.000612539 0.000183425 0.000183906 -5.45824e-05
-0.00046339 0.000138595 0.000139198 -6.61675e-05
-0.000624618 0.000187034 0.000187536 -5.45827e-05
-0.000618578 0.000185229 0.000185721 -5.45826e-05
-0.000766203 0.000229622 0.000229963 -3.96922e-05
-0.000751112 0.000225105 0.000225432 -3.96922e-05
-0.000449791 0.00013454 0.000135107 -6.6167e-05
-0.000458857 0.000137243 0.000137834 -6.61673e-05
-0.000758658 0.000227363 0.000227698 -3.96922e-05
-0.00060046 0.000179815 0.000180277 -5.45822e-05
-0.000454324 0.000135892 0.000136471 -6.61672e-05
-0.000612539 0.000183425 0.000183906 -5.45824e-05
-0.000606499 0.00018162 0.000182091 -5.45823e-05
-0.000751112 0.000225105 0.000225432 -3.96922e-05
-0.000736022 0.000220587 0.0002209 -3.96921e-05
-0.000440726 0.000131837 0.000132381 -6.61666e-05
-0.000449791 0.00013454 0.000135107 -6.6167e-05
-0.000743567 0.000222846 0.000223166 -3.96921e-05
-0.000588382 0.000176205 0.000176647 -5.4582e-05
-0.000445258 0.000133189 0.000133744 -6.61668e-05
-0.00060046 0.000179815 0.000180277 -5.45822e-05
-0.000594421 0.00017801 0.000178462 -5.45821e-05
-0.000736022 0.000220587 0.0002209 -3.96921e-05
-0.000720932 0.00021607 0.000216369 -3.96921e-05
-0.000431661 0.000129134 0.000129655 -6.61662e-05
-0.000440726 0.000131837 0.000132381 -6.61666e-05
-0.000728477 0.000218328 0.000218635 -3.96921e-05
-0.000576304 0.000172594 0.000173018 -5.45819e-05
-0.000436193 0.000130485 0.000131018 -6.61664e-05
-0.000588382 0.000176205 0.000176647 -5.4582e-05
-0.000582343 0.0001744 0.000174833 -5.4582e-05
-0.000720932 0.00021607 0.000216369 -3.96921e-05
-0.000705842 0.000211552 0.000211839 -3.9692e-05
-0.000422597 0.00012643 0.000126929 -6.61659e-05
-0.000431661 0.000129134 0.000129655 -6.61662e-05
-0.000713387 0.000213811 0.000214104 -3.9692e-05
-0.000564227 0.000168984 0.00016939 -5.45817e-05
-0.000427129 0.000127782 0.000128292 -6.61661e-05
-0.000576304 0.000172594 0.000173018 -5.45819e-05
-0.000570265 0.000170789 0.000171204 -5.45818e-05
-0.000705842 0.000211552 0.000211839 -3.9692e-05
-0.000690753 0.000207035 0.000207308 -3.9692e-05
-0.000413533 0.000123726 0.000124203 -6.61656e-05
-0.000422597 0.00012643 0.000126929 -6.61659e-05
-0.000698297 0.000209293 0.000209573 -3.9692e-05
-0.00055215 0.000165374 0.000165761 -5.45815e-05
-0.000418065 0.000125078 0.000125566 -6.61657e-05
-0.000564227 0.000168984 0.00016939 -5.45817e-05
-0.000558188 0.000167179 0.000167575 -5.45816e-05
-0.000690753 0.000207035 0.000207308 -3.9692e-05
-0.000675664 0.000202517 0.000202777 -3.9692e-05
-0.000404469 0.000121022 0.000121477 -6.61653e-05
-0.000413533 0.000123726 0.000124203 -6.61656e-05
-0.000683209 0.000204776 0.000205043 -3.9692e-05
-0.000540074 0.000161763 0.000162133 -5.45814e-05
-0.000409001 0.000122374 0.00012284 -6.61654e-05
-0.00055215 0.000165374 0.000165761 -5.45815e-05
-0.000546112 0.000163568 0.000163947 -5.45815e-05
-0.000675664 0.000202517 0.000202777 -3.9692e-05
-0.000660576 0.000197999 0.000198247 -3.96919e-05
-0.000395407 0.000118318 0.000118752 -6.6165e-05
-0.000404469 0.000121022 0.000121477 -6.61653e-05
-0.00066812 0.000200258 0.000200512 -3.96919e-05
-0.000527998 0.000158153 0.000158505 -5.45813e-05
-0.000399938 0.00011967 0.000120115 -6.61651e-05
-0.000540074 0.000161763 0.000162133 -5.45814e-05
-0.000534036 0.000159958 0.000160319 -5.45813e-05
-0.000660576 0.000197999 0.000198247 -3.96919e-05
-0.000645488 0.000193481 0.000193717 -3.96919e-05
-0.000386344 0.000115614 0.000116027 -6.61647e-05
-0.000395407 0.000118318 0.000118752 -6.6165e-05
-0.000653032 0.00019574 0.000195982 -3.96919e-05
-0.000515923 0.000154542 0.000154877 -5.45811e-05
-0.000390875 0.000116966 0.00011739 -6.61648e-05
-0.000527998 0.000158153 0.000158505 -5.45813e-05
-0.00052196 0.000156347 0.000156691 -5.45812e-05
-0.000645488 0.000193481 0.000193717 -3.96919e-05
-0.000630401 0.000188964 0.000189188 -3.96919e-05
-0.000377282 0.000112909 0.000113303 -6.61644e-05
-0.000386344 0.000115614 0.000116027 -6.61647e-05
-0.000637945 0.000191223 0.000191452 -3.96919e-05
-0.000503848 0.000150931 0.00015125 -5.4581e-05
-0.000381813 0.000114261 0.000114665 -6.61645e-05
-0.000515923 0.000154542 0.000154877 -5.45811e-05
-0.000509885 0.000152736 0.000153064 -5.45811e-05
-0.000630401 0.000188964 0.000189188 -3.96919e-05
-0.000615314 0.000184446 0.000184658 -3.96919e-05
-0.000368221 0.000110204 0.000110579 -6.61642e-05
-0.000377282 0.000112909 0.000113303 -6.61644e-05
-0.000622858 0.000186705 0.000186923 -3.96919e-05
-0.000491773 0.00014732 0.000147623 -5.45809e-05
-0.000372752 0.000111557 0.000111941 -6.61643e-05
-0.000503848 0.000150931 0.00015125 -5.4581e-05
-0.00049781 0.000149125 0.000149436 -5.4581e-05
-0.000615314 0.000184446 0.000184658 -3.96919e-05
-0.000600228 0.000179928 0.000180129 -3.96919e-05
-0.00035916 0.000107499 0.000107855 -6.61639e-05
-0.000368221 0.000110204 0.000110579 -6.61642e-05
-0.000607771 0.000182187 0.000182393 -3.96919e-05
-0.0004797 0.000143709 0.000143996 -5.45808e-05
-0.000363691 0.000108852 0.000109217 -6.6164e-05
-0.000491773 0.00014732 0.000147623 -5.45809e-05
-0.000485736 0.000145514 0.00014581 -5.45809e-05
-0.000600228 0.000179928 0.000180129 -3.96919e-05
-0.000585142 0.00017541 0.0001756 -3.9692e-05
-0.0003501 0.000104794 0.000105131 -6.61637e-05
-0.00035916 0.000107499 0.000107855 -6.61639e-05
-0.000592685 0.000177669 0.000177864 -3.9692e-05
-0.000467626 0.000140097 0.00014037 -5.45807e-05
-0.00035463 0.000106147 0.000106493 -6.61638e-05
-0.0004797 0.000143709 0.000143996 -5.45808e-05
-0.000473663 0.000141903 0.000142183 -5.45808e-05
-0.000585142 0.00017541 0.0001756 -3.9692e-05
-0.000570057 0.000170892 0.000171071 -3.9692e-05
-0.00034104 0.000102089 0.000102408 -6.61635e-05
-0.0003501 0.000104794 0.000105131 -6.61637e-05
-0.000577599 0.000173151 0.000173335 -3.9692e-05
-0.000455553 0.000136486 0.000136743 -5.45807e-05
-0.00034557 0.000103442 0.000103769 -6.61636e-05
-0.000467626 0.000140097 0.00014037 -5.45807e-05
-0.00046159 0.000138292 0.000138556 -5.45807e-05
-0.000570057 0.000170892 0.000171071 -3.9692e-05
-0.000554972 0.000166373 0.000166542 -3.9692e-05
-0.000331981 9.93836e-05 9.96845e-05 -6.61633e-05
-0.00034104 0.000102089 0.000102408 -6.61635e-05
-0.000562514 0.000168633 0.000168806 -3.9692e-05
-0.000443481 0.000132874 0.000133117 -5.45806e-05
-0.00033651 0.000100736 0.000101046 -6.61634e-05
-0.000455553 0.000136486 0.000136743 -5.45807e-05
-0.000449517 0.00013468 0.00013493 -5.45807e-05
-0.000554972 0.000166373 0.000166542 -3.9692e-05
-0.000539887 0.000161855 0.000162014 -3.96921e-05
-0.000322922 9.6678e-05 9.69617e-05 -6.61631e-05
-0.000331981 9.93836e-05 9.96845e-05 -6.61633e-05
-0.000547429 0.000164114 0.000164278 -3.96921e-05
-0.000431409 0.000129263 0.000129491 -5.45806e-05
-0.000327451 9.80308e-05 9.8323e-05 -6.61632e-05
-0.000443481 0.000132874 0.000133117 -5.45806e-05
-0.000437445 0.000131068 0.000131304 -5.45806e-05
-0.000539887 0.000161855 0.000162014 -3.96921e-05
-0.000524803 0.000157337 0.000157485 -3.96922e-05
-0.000313863 9.39721e-05 9.42391e-05 -6.61629e-05
-0.000322922 9.6678e-05 9.69617e-05 -6.61631e-05
-0.000532345 0.000159596 0.00015975 -3.96921e-05
-0.000419337 0.000125651 0.000125866 -5.45806e-05
-0.000318393 9.53251e-05 9.56004e-05 -6.6163e-05
-0.000431409 0.000129263 0.000129491 -5.45806e-05
-0.000425373 0.000127457 0.000127678 -5.45806e-05
-0.000524803 0.000157337 0.000157485 -3.96922e-05
-0.000509719 0.000152819 0.000152957 -3.96922e-05
-0.000304806 9.12661e-05 9.15169e-05 -6.61628e-05
-0.000313863 9.39721e-05 9.42391e-05 -6.61629e-05
-0.000517261 0.000155078 0.000155221 -3.96922e-05
-0.000407266 0.000122039 0.00012224 -5.45805e-05
-0.000309334 9.26192e-05 9.2878e-05 -6.61628e-05
-0.000419337 0.000125651 0.000125866 -5.45806e-05
-0.000413302 0.000123845 0.000124053 -5.45805e-05
-0.000509719 0.000152819 0.000152957 -3.96922e-05
-0.000494636 0.0001483 0.00014843 -3.96923e-05
-0.000295748 8.85599e-05 8.87949e-05 -6.61626e-05
-0.000304806 9.12661e-05 9.15169e-05 -6.61628e-05
-0.000502178 0.000150559 0.000150694 -3.96923e-05
-0.000395196 0.000118427 0.000118615 -5.45805e-05
-0.000300277 8.9913e-05 9.01559e-05 -6.61627e-05
-0.000407266 0.000122039 0.00012224 -5.45805e-05
-0.000401231 0.000120233 0.000120428 -5.45805e-05
-0.000494636 0.0001483 0.00014843 -3.96923e-05
-0.000479553 0.000143782 0.000143902 -3.96924e-05
-0.000286691 8.58535e-05 8.60733e-05 -6.61625e-05
-0.000295748 8.85599e-05 8.87949e-05 -6.61626e-05
-0.000487094 0.000146041 0.000146166 -3.96923e-05
-0.000383126 0.000114814 0.000114991 -5.45805e-05
-0.00029122 8.72067e-05 8.74341e-05 -6.61626e-05
-0.000395196 0.000118427 0.000118615 -5.45805e-05
-0.000389161 0.000116621 0.000116803 -5.45805e-05
-0.000479553 0.000143782 0.000143902 -3.96924e-05
-0.000464471 0.000139263 0.000139375 -3.96925e-05
-0.000277635 8.31469e-05 8.33519e-05 -6.61624e-05
-0.000286691 8.58535e-05 8.60733e-05 -6.61625e-05
-0.000472012 0.000141522 0.000141638 -3.96924e-05
-0.000371056 0.000111202 0.000111366 -5.45805e-05
-0.000282163 8.45002e-05 8.47125e-05 -6.61624e-05
-0.000383126 0.000114814 0.000114991 -5.45805e-05
-0.000377091 0.000113008 0.000113178 -5.45805e-05
-0.000464471 0.000139263 0.000139375 -3.96925e-05
-0.000449389 0.000134744 0.000134848 -3.96925e-05
-0.000268579 8.04401e-05 8.06308e-05 -6.61623e-05
-0.000277635 8.31469e-05 8.33519e-05 -6.61624e-05
-0.00045693 0.000137004 0.000137111 -3.96925e-05
-0.000358987 0.000107589 0.000107742 -5.45805e-05
-0.000273107 8.17935e-05 8.19913e-05 -6.61623e-05
-0.000371056 0.000111202 0.000111366 -5.45805e-05
-0.000365021 0.000109396 0.000109554 -5.45805e-05
-0.000449389 0.000134744 0.000134848 -3.96925e-05
-0.000434307 0.000130226 0.000130321 -3.96926e-05
-0.000259523 7.77331e-05 7.791e-05 -6.61621e-05
-0.000268579 8.04401e-05 8.06308e-05 -6.61623e-05
-0.000441848 0.000132485 0.000132584 -3.96926e-05
-0.000346918 0.000103977 0.000104118 -5.45806e-05
-0.000264051 7.90867e-05 7.92703e-05 -6.61622e-05
-0.000358987 0.000107589 0.000107742 -5.45805e-05
-0.000352952 0.000105783 0.00010593 -5.45805e-05
-0.000434307 0.000130226 0.000130321 -3.96926e-05
-0.000419226 0.000125707 0.000125794 -3.96927e-05
-0.000250468 7.50259e-05 7.51895e-05 -6.6162e-05
-0.000259523 7.77331e-05 7.791e-05 -6.61621e-05
-0.000426766 0.000127966 0.000128057 -3.96927e-05
-0.00033485 0.000100364 0.000100494 -5.45806e-05
-0.000254995 7.63796e-05 7.65497e-05 -6.61621e-05
-0.000346918 0.000103977 0.000104118 -5.45806e-05
-0.000340884 0.00010217 0.000102306 -5.45806e-05
-0.000419226 0.000125707 0.000125794 -3.96927e-05
-0.000404145 0.000121188 0.000121267 -3.96927e-05
-0.000241413 7.23185e-05 7.24692e-05 -6.61619e-05
-0.000250468 7.50259e-05 7.51895e-05 -6.6162e-05
-0.000411685 0.000123447 0.000123531 -3.96927e-05
-0.000322782 9.67509e-05 9.68704e-05 -5.45805e-05
-0.000245941 7.36722e-05 7.38293e-05 -6.6162e-05
-0.00033485 0.000100364 0.000100494 -5.45806e-05
-0.000328816 9.85575e-05 9.86821e-05 -5.45805e-05
-0.000404145 0.000121188 0.000121267 -3.96927e-05
-0.000389065 0.000116669 0.000116741 -3.96928e-05
-0.000232359 6.96109e-05 6.97492e-05 -6.61617e-05
-0.000241413 7.23185e-05 7.24692e-05 -6.61619e-05
-0.000396605 0.000118928 0.000119004 -3.96928e-05
-0.000310714 9.31378e-05 9.32471e-05 -5.45805e-05
-0.000236886 7.09647e-05 7.11092e-05 -6.61618e-05
-0.000322782 9.67509e-05 9.68704e-05 -5.45805e-05
-0.000316748 9.49444e-05 9.50587e-05 -5.45805e-05
-0.000389065 0.000116669 0.000116741 -3.96928e-05
-0.000373985 0.00011215 0.000112215 -3.96928e-05
-0.000223305 6.69031e-05 6.70296e-05 -6.61616e-05
-0.000232359 6.96109e-05 6.97492e-05 -6.61617e-05
-0.000381525 0.000114409 0.000114478 -3.96928e-05
-0.000298647 8.95245e-05 8.96241e-05 -5.45804e-05
-0.000227832 6.8257e-05 6.83894e-05 -6.61616e-05
-0.000310714 9.31378e-05 9.32471e-05 -5.45805e-05
-0.000304681 9.13312e-05 9.14356e-05 -5.45805e-05
-0.000373985 0.00011215 0.000112215 -3.96928e-05
-0.000358905 0.000107631 0.000107689 -3.96928e-05
-0.000214252 6.4195e-05 6.43102e-05 -6.61614e-05
-0.000223305 6.69031e-05 6.70296e-05 -6.61616e-05
-0.000366445 0.00010989 0.000109952 -3.96928e-05
-0.000286581 8.59111e-05 8.60013e-05 -5.45803e-05
-0.000218779 6.55491e-05 6.56698e-05 -6.61615e-05
-0.000298647 8.95245e-05 8.96241e-05 -5.45804e-05
-0.000292614 8.77178e-05 8.78127e-05 -5.45804e-05
-0.000358905 0.000107631 0.000107689 -3.96928e-05
-0.000343826 0.000103111 0.000103164 -3.96927e-05
-0.000205199 6.14868e-05 6.1591e-05 -6.61611e-05
-0.000214252 6.4195e-05 6.43102e-05 -6.61614e-05
-0.000351366 0.000105371 0.000105426 -3.96927e-05
-0.000274515 8.22975e-05 8.23788e-05 -5.45802e-05
-0.000209726 6.28409e-05 6.29506e-05 -6.61612e-05
-0.000286581 8.59111e-05 8.60013e-05 -5.45803e-05
-0.000280548 8.41043e-05 8.419e-05 -5.45803e-05
-0.000343826 0.000103111 0.000103164 -3.96927e-05
-0.000328748 9.85922e-05 9.86381e-05 -3.96927e-05
-0.000196147 5.87784e-05 5.88722e-05 -6.61609e-05
-0.000205199 6.14868e-05 6.1591e-05 -6.61611e-05
-0.000336287 0.000100852 0.000100901 -3.96927e-05
-0.000262449 7.86839e-05 7.87565e-05 -5.458e-05
-0.000200673 6.01326e-05 6.02316e-05 -6.6161e-05
-0.000274515 8.22975e-05 8.23788e-05 -5.45802e-05
-0.000268482 8.04907e-05 8.05676e-05 -5.45801e-05
-0.000328748 9.85922e-05 9.86381e-05 -3.96927e-05
-0.00031367 9.4073e-05 9.41129e-05 -3.96926e-05
-0.000187095 5.607e-05 5.61535e-05 -6.61606e-05
-0.000196147 5.87784e-05 5.88722e-05 -6.61609e-05
-0.000321209 9.63326e-05 9.63755e-05 -3.96926e-05
-0.000250384 7.50702e-05 7.51345e-05 -5.45799e-05
-0.000191621 5.74242e-05 5.75128e-05 -6.61607e-05
-0.000262449 7.86839e-05 7.87565e-05 -5.458e-05
-0.000256416 7.6877e-05 7.69455e-05 -5.458e-05
-0.00031367 9.4073e-05 9.41129e-05 -3.96926e-05
-0.000298592 8.95537e-05 8.95878e-05 -3.96927e-05
-0.000178043 5.33615e-05 5.34351e-05 -6.61605e-05
-0.000187095 5.607e-05 5.61535e-05 -6.61606e-05
-0.000306131 9.18133e-05 9.18503e-05 -3.96926e-05
-0.000238319 7.14564e-05 7.15126e-05 -5.45799e-05
-0.000182569 5.47157e-05 5.47943e-05 -6.61605e-05
-0.000250384 7.50702e-05 7.51345e-05 -5.45799e-05
-0.000244351 7.32633e-05 7.33235e-05 -5.45799e-05
-0.000298592 8.95537e-05 8.95878e-05 -3.96927e-05
-0.000283515 8.50345e-05 8.5063e-05 -3.96929e-05
-0.000168993 5.06532e-05 5.07169e-05 -6.61605e-05
-0.000178043 5.33615e-05 5.34351e-05 -6.61605e-05
-0.000291053 8.72941e-05 8.73254e-05 -3.96928e-05
-0.000226255 6.78428e-05 6.7891e-05 -5.45801e-05
-0.000173518 5.20073e-05 5.2076e-05 -6.61604e-05
-0.000238319 7.14564e-05 7.15126e-05 -5.45799e-05
-0.000232287 6.96496e-05 6.97018e-05 -5.458e-05
-0.000283515 8.50345e-05 8.5063e-05 -3.96929e-05
-0.000268438 8.05153e-05 8.05383e-05 -3.96936e-05
-0.000159943 4.79451e-05 4.79989e-05 -6.61608e-05
-0.000168993 5.06532e-05 5.07169e-05 -6.61605e-05
-0.000275976 8.27749e-05 8.28006e-05 -3.96932e-05
-0.000214191 6.42293e-05 6.42695e-05 -5.45807e-05
-0.000164468 4.92991e-05 4.93579e-05 -6.61606e-05
-0.000226255 6.78428e-05 6.7891e-05 -5.45801e-05
-0.000220223 6.6036e-05 6.60802e-05 -5.45804e-05
-0.000268438 8.05153e-05 8.05383e-05 -3.96936e-05
-0.000253361 7.59962e-05 7.60137e-05 -3.96948e-05
-0.000150893 4.52373e-05 4.52811e-05 -6.61618e-05
-0.000159943 4.79451e-05 4.79989e-05 -6.61608e-05
-0.0002609 7.82557e-05 7.82759e-05 -3.96941e-05
-0.000202128 6.06159e-05 6.06482e-05 -5.45819e-05
-0.000155418 4.65912e-05 4.664e-05 -6.61612e-05
-0.000214191 6.42293e-05 6.42695e-05 -5.45807e-05
-0.00020816 6.24226e-05 6.24588e-05 -5.45812e-05
-0.000253361 7.59962e-05 7.60137e-05 -3.96948e-05
-0.000238285 7.14769e-05 7.14892e-05 -3.96966e-05
-0.000141845 4.25296e-05 4.25636e-05 -6.61636e-05
-0.000150893 4.52373e-05 4.52811e-05 -6.61618e-05
-0.000245823 7.37366e-05 7.37514e-05 -3.96956e-05
-0.000190066 5.70025e-05 5.70272e-05 -5.45838e-05
-0.000146369 4.38835e-05 4.39223e-05 -6.61626e-05
-0.000202128 6.06159e-05 6.06482e-05 -5.45819e-05
-0.000196097 5.88092e-05 5.88377e-05 -5.45828e-05
-0.000238285 7.14769e-05 7.14892e-05 -3.96966e-05
-0.000223209 6.69571e-05 6.6965e-05 -3.96989e-05
-0.000132796 3.98209e-05 3.98464e-05 -6.61668e-05
-0.000141845 4.25296e-05 4.25636e-05 -6.61636e-05
-0.000230747 6.92171e-05 6.92271e-05 -3.96978e-05
-0.000178003 5.33881e-05 5.34066e-05 -5.45864e-05
-0.00013732 4.11755e-05 4.1205e-05 -6.6165e-05
-0.000190066 5.70025e-05 5.70272e-05 -5.45838e-05
-0.000184035 5.51955e-05 5.52168e-05 -5.45851e-05
-0.000223209 6.69571e-05 6.6965e-05 -3.96989e-05
-0.000208132 6.24355e-05 6.24414e-05 -3.97005e-05
-0.000123745 3.71087e-05 3.713e-05 -6.61718e-05
-0.000132796 3.98209e-05 3.98464e-05 -6.61668e-05
-0.000215671 6.46966e-05 6.47031e-05 -3.96999e-05
-0.00016594 4.97706e-05 4.97867e-05 -5.45888e-05
-0.000128271 3.84655e-05 3.8488e-05 -6.61691e-05
-0.000178003 5.33881e-05 5.34066e-05 -5.45864e-05
-0.000171972 5.15799e-05 5.15965e-05 -5.45877e-05
-0.000208132 6.24355e-05 6.24414e-05 -3.97005e-05
-0.000193055 5.79099e-05 5.79193e-05 -3.96979e-05
-0.000114687 3.43871e-05 3.44142e-05 -6.61793e-05
-0.000123745 3.71087e-05 3.713e-05 -6.61718e-05
-0.000200593 6.01734e-05 6.018e-05 -3.97001e-05
-0.000153871 4.61454e-05 4.61681e-05 -5.45888e-05
-0.000119218 3.57497e-05 3.5772e-05 -6.61752e-05
-0.00016594 4.97706e-05 4.97867e-05 -5.45888e-05
-0.000159906 4.79595e-05 4.79771e-05 -5.45895e-05
-0.000193055 5.79099e-05 5.79193e-05 -3.96979e-05
-0.000177974 5.33753e-05 5.33996e-05 -3.96847e-05
-0.000105612 3.16441e-05 3.17006e-05 -6.61891e-05
-0.000114687 3.43871e-05 3.44142e-05 -6.61793e-05
-0.000185516 5.56442e-05 5.56592e-05 -3.96932e-05
-0.000141791 4.25023e-05 4.25522e-05 -5.45809e-05
-0.000110152 3.30193e-05 3.30569e-05 -6.6184e-05
-0.000153871 4.61454e-05 4.61681e-05 -5.45888e-05
-0.000147833 4.43268e-05 4.43598e-05 -5.45861e-05
-0.000177974 5.33753e-05 5.33996e-05 -3.96847e-05
-0.000162892 4.88223e-05 4.88869e-05 -3.96435e-05
-9.64944e-05 2.8858e-05 2.8987e-05 -6.62028e-05
-0.000105612 3.16441e-05 3.17006e-05 -6.61891e-05
-0.000170433 5.11017e-05 5.11418e-05 -3.96694e-05
-0.000129684 3.88241e-05 3.89401e-05 -5.45544e-05
-0.000101061 3.02587e-05 3.03441e-05 -6.61952e-05
-0.000141791 4.25023e-05 4.25522e-05 -5.45809e-05
-0.000135742 4.06697e-05 4.07453e-05 -5.45715e-05
-0.000162892 4.88223e-05 4.88869e-05 -3.96435e-05
-0.000147793 4.42353e-05 4.43818e-05 -3.95502e-05
-8.73012e-05 2.59886e-05 2.62768e-05 -6.62183e-05
-9.64944e-05 2.8858e-05 2.8987e-05 -6.62028e-05
-0.000155347 4.65351e-05 4.66336e-05 -3.96053e-05
-0.000117521 3.50751e-05 3.53341e-05 -5.44892e-05
-9.19084e-05 2.74365e-05 2.76308e-05 -6.62109e-05
-0.000129684 3.88241e-05 3.89401e-05 -5.45544e-05
-0.000123613 3.69603e-05 3.71367e-05 -5.45273e-05
-0.000147793 4.42353e-05 4.43818e-05 -3.95502e-05
-0.000132683 3.95834e-05 3.98999e-05 -3.93436e-05
-7.79414e-05 2.29771e-05 2.35561e-05 -6.6244e-05
-8.73012e-05 2.59886e-05 2.62768e-05 -6.62183e-05
-0.000140236 4.19183e-05 4.21362e-05 -3.94671e-05
-0.000105252 3.12081e-05 3.17331e-05 -5.43528e-05
-8.26523e-05 2.45068e-05 2.49195e-05 -6.62285e-05
-0.000117521 3.50751e-05 3.53341e-05 -5.44892e-05
-0.000111404 3.31631e-05 3.35317e-05 -5.44352e-05
-0.000132683 3.95834e-05 3.98999e-05 -3.93436e-05
-0.000117498 3.48304e-05 3.54289e-05 -3.89614e-05
-6.83281e-05 1.97275e-05 2.08288e-05 -6.62772e-05
-7.79414e-05 2.29771e-05 2.35561e-05 -6.6244e-05
-0.000125111 3.72271e-05 3.76647e-05 -3.91786e-05
-9.27716e-05 2.71251e-05 2.81342e-05 -5.4099e-05
-7.31671e-05 2.13859e-05 2.21919e-05 -6.62611e-05
-0.000105252 3.12081e-05 3.17331e-05 -5.43528e-05
-9.90477e-05 2.91955e-05 2.99367e-05 -5.4239e-05
-0.000117498 3.48304e-05 3.54289e-05 -3.89614e-05
-0.000102255 2.98885e-05 3.10141e-05 -3.82406e-05
-5.82165e-05 1.61576e-05 1.80252e-05 -6.63737e-05
-6.83281e-05 1.97275e-05 2.08288e-05 -6.62772e-05
-0.00010987 3.23784e-05 3.32107e-05 -3.86593e-05
-7.99462e-05 2.27518e-05 2.45119e-05 -5.36736e-05
-6.33645e-05 1.79936e-05 1.94447e-05 -6.63097e-05
-9.27716e-05 2.71251e-05 2.81342e-05 -5.4099e-05
-8.64092e-05 2.49916e-05 2.63218e-05 -5.39225e-05
-0.000102255 2.98885e-05 3.10141e-05 -3.82406e-05
-8.66707e-05 2.4735e-05 2.65439e-05 -3.71188e-05
-4.75032e-05 1.21773e-05 1.51397e-05 -6.6565e-05
-5.82165e-05 1.61576e-05 1.80252e-05 -6.63737e-05
-9.45542e-05 2.73659e-05 2.8795e-05 -3.77303e-05
-6.64691e-05 1.79096e-05 2.08113e-05 -5.30733e-05
-5.29181e-05 1.42036e-05 1.65919e-05 -6.64581e-05
-7.99462e-05 2.27518e-05 2.45119e-05 -5.36736e-05
-7.33202e-05 2.03741e-05 2.26912e-05 -5.337e-05
-8.66707e-05 2.4735e-05 2.65439e-05 -3.71188e-05
-7.07676e-05 1.91602e-05 2.21175e-05 -3.53474e-05
-3.58032e-05 8.06003e-06 1.18899e-05 -6.71443e-05
-4.75032e-05 1.21773e-05 1.51397e-05 -6.6565e-05
-7.87074e-05 2.19494e-05 2.43249e-05 -3.63363e-05
-5.2141e-05 1.27719e-05 1.68725e-05 -5.24205e-05
-4.18417e-05 1.01282e-05 1.35915e-05 -6.67704e-05
-6.64691e-05 1.79096e-05 2.08113e-05 -5.30733e-05
-5.94053e-05 1.54004e-05 1.88592e-05 -5.27826e-05
-7.07676e-05 1.91602e-05 2.21175e-05 -3.53474e-05
-5.34509e-05 1.36133e-05 1.70733e-05 -3.34484e-05
-2.37009e-05 4.47723e-06 8.23873e-06 -6.82966e-05
-3.58032e-05 8.06003e-06 1.18899e-05 -6.71443e-05
-6.24744e-05 1.64728e-05 1.9715e-05 -3.43562e-05
-3.63187e-05 7.53906e-06 1.23341e-05 -5.23596e-05
-2.96641e-05 6.04515e-06 1.01224e-05 -6.76424e-05
-5.2141e-05 1.27719e-05 1.68725e-05 -5.24205e-05
-4.45032e-05 1.00198e-05 1.47786e-05 -5.21553e-05
-5.34509e-05 1.36133e-05 1.70733e-05 -3.34484e-05
-3.48625e-05 8.13374e-06 1.14552e-05 -3.2279e-05
-1.19872e-05 4.36744e-06 3.26559e-06 -7.06949e-05
-2.37009e-05 4.47723e-06 8.23873e-06 -6.82966e-05
-4.41096e-05 1.04916e-05 1.44077e-05 -3.26441e-05
-1.99433e-05 5.03553e-06 6.38905e-06 -5.42829e-05
-1.78348e-05 3.80389e-06 6.01327e-06 -6.92788e-05
-3.63187e-05 7.53906e-06 1.23341e-05 -5.23596e-05
-2.79959e-05 5.78248e-06 9.52002e-06 -5.31119e-05
-3.48625e-05 8.13374e-06 1.14552e-05 -3.2279e-05
-1.34029e-05 8.62073e-06 2.0495e-06 -3.7642e-05
-5.83118e-06 1.29306e-05 -3.04261e-06 -7.2364e-05
-1.19872e-05 4.36744e-06 3.26559e-06 -7.06949e-05
-2.48977e-05 7.55586e-06 7.43224e-06 -3.35806e-05
-5.11199e-06 1.15003e-05 -2.73784e-06 -6.08935e-05
-7.52891e-06 6.79156e-06 3.16006e-07 -7.18977e-05
-1.99433e-05 5.03553e-06 6.38905e-06 -5.42829e-05
-1.22768e-05 6.03622e-06 2.67452e-06 -5.64634e-05
-1.34029e-05 8.62073e-06 2.0495e-06 -3.7642e-05
-3.47332e-06 3.3267e-05 -1.27687e-05 -5.67913e-05
-8.95674e-06 3.98038e-05 -1.32202e-05 -6.62536e-05
-5.83118e-06 1.29306e-05 -3.04261e-06 -7.2364e-05
-4.79052e-06 1.3314e-05 -3.65292e-06 -4.45278e-05
-9.58143e-06 4.55721e-05 -1.54246e-05 -6.58684e-05
-6.45386e-06 2.42969e-05 -7.64702e-06 -7.11863e-05
-5.11199e-06 1.15003e-05 -2.73784e-06 -6.08935e-05
-2.77235e-06 2.4252e-05 -9.20555e-06 -6.53543e-05
-3.47332e-06 3.3267e-05 -1.27687e-05 -5.67913e-05
-4.35782e-05 0.000148346 -4.49004e-05 -5.67708e-05
-1.81713e-05 7.19685e-05 -2.3056e-05 -3.49755e-05
-8.95674e-06 3.98038e-05 -1.32202e-05 -6.62536e-05
-1.46649e-05 7.91758e-05 -2.76476e-05 -6.64916e-05
-3.43546e-05 0.000106556 -3.09434e-05 -3.33622e-05
-1.2982e-05 5.71742e-05 -1.89395e-05 -5.46915e-05
-9.58143e-06 4.55721e-05 -1.54246e-05 -6.58684e-05
-2.14667e-05 7.49881e-05 -2.29377e-05 -5.69519e-05
-0.00146602 0 0.000628296 0.000193408
-0.00165689 0.000217304 0.000616966 -5.42575e-06
-0.000540878 7.12437e-05 0.000201272 9.9774e-05
-0.000532413 -1.11022e-16 0.000228177 0.000301001
-0.00158804 0.000122127 0.000628248 7.33667e-05
-0.00109875 0.000144328 0.000409039 5.93854e-05
-0.000519571 3.00234e-05 0.000209806 0.000189782
-0.000977743 0 0.000419033 0.000275573
-0.00105362 6.86991e-05 0.000422111 0.00013682
-0.00165689 0.000217304 0.000616966 -5.42575e-06
-0.00174099 0.000397488 0.000575786 -6.73646e-05
-0.000582017 0.000117289 0.000199169 -2.05264e-05
-0.000540878 7.12437e-05 0.000201272 9.9774e-05
-0.00169907 0.000313167 0.000593959 -4.53539e-05
-0.00115446 0.00024748 0.000388705 -3.72097e-05
-0.000570351 9.88515e-05 0.000202071 2.90417e-05
-0.00109875 0.000144328 0.000409039 5.93854e-05
-0.00112757 0.000203079 0.000396212 7.05001e-06
-0.00174099 0.000397488 0.000575786 -6.73646e-05
-0.00178333 0.00048789 0.000555187 -7.94262e-05
-0.0005939 0.000151519 0.000189592 -7.50376e-05
-0.000582017 0.000117289 0.000199169 -2.05264e-05
-0.00177247 0.000453708 0.000565182 -7.82317e-05
-0.00118695 0.000313346 0.000374402 -7.87837e-05
-0.000586374 0.000135545 0.000193213 -5.33862e-05
-0.00115446 0.00024748 0.000388705 -3.72097e-05
-0.00117554 0.000284609 0.000381826 -6.59188e-05
-0.00178333 0.00048789 0.000555187 -7.94262e-05
-0.00178132 0.00052303 0.000539267 -7.36336e-05
-0.000599981 0.00016743 0.000185379 -9.45077e-05
-0.0005939 0.000151519 0.000189592 -7.50376e-05
-0.0017831 0.000510011 0.000545611 -7.61603e-05
-0.00119207 0.000342345 0.000364166 -8.80512e-05
-0.000599976 0.000161627 0.000187864 -8.80762e-05
-0.00118695 0.000313346 0.000374402 -7.87837e-05
-0.00119152 0.000331688 0.000368501 -8.4581e-05
-0.00178132 0.00052303 0.000539267 -7.36336e-05
-0.00176859 0.000529376 0.000531093 -6.97796e-05
-0.000595753 0.000173365 0.000181024 -9.66202e-05
-0.000599981 0.00016743 0.000185379 -9.45077e-05
-0.00177685 0.000528503 0.000535007 -7.17323e-05
-0.0011848 0.000351611 0.000357081 -8.67829e-05
-0.00059741 0.000171259 0.000182636 -9.66404e-05
-0.00119207 0.000342345 0.000364166 -8.80512e-05
-0.00118951 0.000348637 0.000360375 -8.85008e-05
-0.00176859 0.000529376 0.000531093 -6.97796e-05
-0.00175086 0.000526384 0.000524778 -6.72086e-05
-0.000590614 0.000172973 0.000178989 -9.32365e-05
-0.000595753 0.000173365 0.000181024 -9.66202e-05
-0.00175908 0.000528429 0.000527423 -6.80735e-05
-0.00117302 0.000350547 0.000352487 -8.32607e-05
-0.000593869 0.000173684 0.00018008 -9.52828e-05
-0.0011848 0.000351611 0.000357081 -8.67829e-05
-0.00117896 0.00035187 0.000354466 -8.47785e-05
-0.00175086 0.000526384 0.000524778 -6.72086e-05
-0.00173547 0.000520325 0.000520776 -6.64753e-05
-0.000584172 0.000170956 0.000177093 -8.8832e-05
-0.000590614 0.000172973 0.000178989 -9.32365e-05
-0.00174323 0.00052351 0.000522737 -6.68117e-05
-0.00116151 0.000346625 0.000349238 -8.00995e-05
-0.000587034 0.000172027 0.00017786 -9.0943e-05
-0.00117302 0.000350547 0.000352487 -8.32607e-05
-0.00116715 0.00034871 0.000350759 -8.16991e-05
-0.00173547 0.000520325 0.000520776 -6.64753e-05
-0.00172147 0.000514489 0.000517279 -6.61589e-05
-0.000578957 0.000168521 0.000175901 -8.53298e-05
-0.000584172 0.000170956 0.000177093 -8.8832e-05
-0.00172806 0.000517302 0.000518896 -6.62257e-05
-0.00115132 0.000342176 0.000346776 -7.78665e-05
-0.000581618 0.000169741 0.000176518 -8.69522e-05
-0.00116151 0.000346625 0.000349238 -8.00995e-05
-0.00115621 0.000344385 0.000347925 -7.88007e-05
-0.00172147 0.000514489 0.000517279 -6.61589e-05
-0.00170954 0.000509412 0.000514342 -6.61842e-05
-0.000574212 0.000166469 0.000174747 -8.28988e-05
-0.000578957 0.000168521 0.000175901 -8.53298e-05
-0.00171541 0.000511849 0.00051581 -6.61793e-05
-0.00114257 0.000338358 0.000344664 -7.64351e-05
-0.000576414 0.000167434 0.000175277 -8.39724e-05
-0.00115132 0.000342176 0.000346776 -7.78665e-05
-0.00114679 0.00034017 0.000345695 -7.70935e-05
-0.00170954 0.000509412 0.000514342 -6.61842e-05
-0.00169867 0.000505199 0.000511487 -6.62134e-05
-0.000570244 0.000164788 0.000173767 -8.14003e-05
-0.000574212 0.000166469 0.000174747 -8.28988e-05
-0.00170395 0.000507208 0.000512887 -6.61876e-05
-0.00113488 0.000335191 0.000342725 -7.55903e-05
-0.000572205 0.000165586 0.000174265 -8.20563e-05
-0.00114257 0.000338358 0.000344664 -7.64351e-05
-0.00113862 0.0003367 0.000343679 -7.59397e-05
-0.00169867 0.000505199 0.000511487 -6.62134e-05
-0.00168865 0.000501598 0.000508735 -6.62625e-05
-0.000566607 0.000163446 0.000172783 -8.05233e-05
-0.000570244 0.000164788 0.000173767 -8.14003e-05
-0.00169361 0.000503337 0.000510116 -6.6245e-05
-0.0011279 0.000332587 0.000340848 -7.51084e-05
-0.000568365 0.000164081 0.000173265 -8.08974e-05
-0.00113488 0.000335191 0.000342725 -7.55903e-05
-0.00113133 0.000333829 0.000341784 -7.53211e-05
-0.00168865 0.000501598 0.000508735 -6.62625e-05
-0.00167903 0.000498412 0.000505979 -6.62817e-05
-0.000563261 0.000162319 0.000171832 -8.00439e-05
-0.000566607 0.000163446 0.000172783 -8.05233e-05
-0.00168379 0.000499964 0.000507353 -6.62724e-05
-0.00112133 0.000330346 0.000338994 -7.48482e-05
-0.000564921 0.000162862 0.000172311 -8.02472e-05
-0.0011279 0.000332587 0.000340848 -7.51084e-05
-0.00112458 0.000331431 0.00033992 -7.49548e-05
-0.00167903 0.000498412 0.000505979 -6.62817e-05
-0.00166968 0.000495468 0.000503232 -6.62908e-05
-0.000560035 0.00016133 0.000170874 -7.97913e-05
-0.000563261 0.000162319 0.000171832 -8.00439e-05
-0.00167434 0.000496918 0.000504609 -6.62889e-05
-0.001115 0.000328335 0.000337141 -7.47093e-05
-0.000561631 0.000161811 0.000171351 -7.98963e-05
-0.00112133 0.000330346 0.000338994 -7.48482e-05
-0.00111814 0.000329319 0.000338068 -7.47692e-05
-0.00166968 0.000495468 0.000503232 -6.62908e-05
-0.00166044 0.000492662 0.000500476 -6.62879e-05
-0.00055689 0.000160413 0.000169918 -7.96655e-05
-0.000560035 0.00016133 0.000170874 -7.97913e-05
-0.00166505 0.000494053 0.000501854 -6.62898e-05
-0.00110878 0.000326451 0.000335286 -7.4638e-05
-0.000558459 0.000160865 0.000170397 -7.97175e-05
-0.001115 0.000328335 0.000337141 -7.47093e-05
-0.00111188 0.000327382 0.000336214 -7.46671e-05
-0.00166044 0.000492662 0.000500476 -6.62879e-05
-0.00165127 0.000489927 0.000497717 -6.62818e-05
-0.000553774 0.000159536 0.000168959 -7.96051e-05
-0.00055689 0.000160413 0.000169918 -7.96655e-05
-0.00165585 0.000491289 0.000499098 -6.62854e-05
-0.00110263 0.000324634 0.000333427 -7.4601e-05
-0.000555328 0.000159971 0.000169439 -7.96296e-05
-0.00110878 0.000326451 0.000335286 -7.4638e-05
-0.0011057 0.000325537 0.000334357 -7.46168e-05
-0.00165127 0.000489927 0.000497717 -6.62818e-05
-0.00164212 0.000487227 0.000494954 -6.62742e-05
-0.000550674 0.000158676 0.000167999 -7.95777e-05
-0.000553774 0.000159536 0.000168959 -7.96051e-05
-0.00164669 0.000488574 0.000496336 -6.62779e-05
-0.0010965 0.00032285 0.000331565 -7.4582e-05
-0.000552223 0.000159104 0.00016848 -7.95887e-05
-0.00110263 0.000324634 0.000333427 -7.4601e-05
-0.00109956 0.000323739 0.000332496 -7.45898e-05
-0.00164212 0.000487227 0.000494954 -6.62742e-05
-0.00163298 0.000484542 0.000492189 -6.62674e-05
-0.000547577 0.000157822 0.000167038 -7.95658e-05
-0.000550674 0.000158676 0.000167999 -7.95777e-05
-0.00163755 0.000485883 0.000493572 -6.62707e-05
-0.00109038 0.000321079 0.000329701 -7.45719e-05
-0.000549125 0.000158248 0.000167519 -7.95705e-05
-0.0010965 0.00032285 0.000331565 -7.4582e-05
-0.00109344 0.000321963 0.000330633 -7.45762e-05
-0.00163298 0.000484542 0.000492189 -6.62674e-05
-0.00162385 0.000481862 0.000489423 -6.62618e-05
-0.000544481 0.000156969 0.000166076 -7.95609e-05
-0.000547577 0.000157822 0.000167038 -7.95658e-05
-0.00162842 0.000483202 0.000490806 -6.62644e-05
-0.00108427 0.000319314 0.000327837 -7.45663e-05
-0.000546029 0.000157395 0.000166557 -7.95628e-05
-0.00109038 0.000321079 0.000329701 -7.45719e-05
-0.00108732 0.000320196 0.000328769 -7.45687e-05
-0.00162385 0.000481862 0.000489423 -6.62618e-05
-0.00161472 0.000479184 0.000486657 -6.62576e-05
-0.000541383 0.000156115 0.000165115 -7.95588e-05
-0.000544481 0.000156969 0.000166076 -7.95609e-05
-0.00161928 0.000480523 0.00048804 -6.62595e-05
-0.00107815 0.000317549 0.000325972 -7.4563e-05
-0.000542932 0.000156542 0.000165596 -7.95596e-05
-0.00108427 0.000319314 0.000327837 -7.45663e-05
-0.00108121 0.000318431 0.000326904 -7.45645e-05
-0.00161472 0.000479184 0.000486657 -6.62576e-05
-0.00160558 0.000476505 0.00048389 -6.62547e-05
-0.000538285 0.00015526 0.000164153 -7.95579e-05
-0.000541383 0.000156115 0.000165115 -7.95588e-05
-0.00161015 0.000477845 0.000485274 -6.6256e-05
-0.00107203 0.000315783 0.000324107 -7.4561e-05
-0.000539834 0.000155688 0.000164634 -7.95583e-05
-0.00107815 0.000317549 0.000325972 -7.4563e-05
-0.00107509 0.000316666 0.00032504 -7.45619e-05
-0.00160558 0.000476505 0.00048389 -6.62547e-05
-0.00159645 0.000473825 0.000481124 -6.62527e-05
-0.000535185 0.000154403 0.000163192 -7.95573e-05
-0.000538285 0.00015526 0.000164153 -7.95579e-05
-0.00160102 0.000475166 0.000482507 -6.62536e-05
-0.00106592 0.000314016 0.000322243 -7.45596e-05
-0.000536735 0.000154832 0.000163673 -7.95576e-05
-0.00107203 0.000315783 0.000324107 -7.4561e-05
-0.00106897 0.0003149 0.000323175 -7.45603e-05
-0.00159645 0.000473825 0.000481124 -6.62527e-05
-0.00158732 0.000471145 0.000478359 -6.62514e-05
-0.000532085 0.000153545 0.000162232 -7.95569e-05
-0.000535185 0.000154403 0.000163192 -7.95573e-05
-0.00159188 0.000472485 0.000479742 -6.6252e-05
-0.0010598 0.000312248 0.000320379 -7.45587e-05
-0.000533635 0.000153974 0.000162712 -7.95571e-05
-0.00106592 0.000314016 0.000322243 -7.45596e-05
-0.00106286 0.000313132 0.000321311 -7.45591e-05
-0.00158732 0.000471145 0.000478359 -6.62514e-05
-0.00157818 0.000468463 0.000475594 -6.62506e-05
-0.000528985 0.000152685 0.000161271 -7.95563e-05
-0.000532085 0.000153545 0.000162232 -7.95569e-05
-0.00158275 0.000469804 0.000476976 -6.6251e-05
-0.00105368 0.000310478 0.000318515 -7.4558e-05
-0.000530535 0.000153115 0.000161752 -7.95566e-05
-0.0010598 0.000312248 0.000320379 -7.45587e-05
-0.00105674 0.000311363 0.000319447 -7.45584e-05
-0.00157818 0.000468463 0.000475594 -6.62506e-05
-0.00156905 0.000465781 0.000472829 -6.62501e-05
-0.000525885 0.000151825 0.000160312 -7.95558e-05
-0.000528985 0.000152685 0.000161271 -7.95563e-05
-0.00157361 0.000467122 0.000474211 -6.62503e-05
-0.00104756 0.000308708 0.000316652 -7.45575e-05
-0.000527435 0.000152255 0.000160791 -7.95561e-05
-0.00105368 0.000310478 0.000318515 -7.4558e-05
-0.00105062 0.000309593 0.000317583 -7.45577e-05
-0.00156905 0.000465781 0.000472829 -6.62501e-05
-0.00155991 0.000463098 0.000470064 -6.62497e-05
-0.000522786 0.000150964 0.000159352 -7.95552e-05
-0.000525885 0.000151825 0.000160312 -7.95558e-05
-0.00156448 0.00046444 0.000471446 -6.62499e-05
-0.00104144 0.000306937 0.000314789 -7.4557e-05
-0.000524335 0.000151395 0.000159832 -7.95555e-05
-0.00104756 0.000308708 0.000316652 -7.45575e-05
-0.0010445 0.000307823 0.00031572 -7.45572e-05
-0.00155991 0.000463098 0.000470064 -6.62497e-05
-0.00155078 0.000460415 0.0004673 -6.62494e-05
-0.000519686 0.000150103 0.000158393 -7.95546e-05
-0.000522786 0.000150964 0.000159352 -7.95552e-05
-0.00155535 0.000461757 0.000468682 -6.62496e-05
-0.00103533 0.000305166 0.000312926 -7.45565e-05
-0.000521236 0.000150533 0.000158872 -7.95549e-05
-0.00104144 0.000306937 0.000314789 -7.4557e-05
-0.00103839 0.000306052 0.000313857 -7.45568e-05
-0.00155078 0.000460415 0.0004673 -6.62494e-05
-0.00154165 0.000457732 0.000464536 -6.62492e-05
-0.000516587 0.000149241 0.000157434 -7.95539e-05
-0.000519686 0.000150103 0.000158393 -7.95546e-05
-0.00154622 0.000459074 0.000465918 -6.62493e-05
-0.00102921 0.000303395 0.000311064 -7.45561e-05
-0.000518137 0.000149672 0.000157914 -7.95543e-05
-0.00103533 0.000305166 0.000312926 -7.45565e-05
-0.00103227 0.000304281 0.000311995 -7.45563e-05
-0.00154165 0.000457732 0.000464536 -6.62492e-05
-0.00153252 0.000455048 0.000461772 -6.62489e-05
-0.000513489 0.000148379 0.000156476 -7.95532e-05
-0.000516587 0.000149241 0.000157434 -7.95539e-05
-0.00153708 0.00045639 0.000463154 -6.6249e-05
-0.00102309 0.000301623 0.000309202 -7.45556e-05
-0.000515038 0.00014881 0.000156955 -7.95536e-05
-0.00102921 0.000303395 0.000311064 -7.45561e-05
-0.00102615 0.000302509 0.000310133 -7.45559e-05
-0.00153252 0.000455048 0.000461772 -6.62489e-05
-0.00152339 0.000452365 0.000459009 -6.62486e-05
-0.000510391 0.000147516 0.000155518 -7.95525e-05
-0.000513489 0.000148379 0.000156476 -7.95532e-05
-0.00152795 0.000453707 0.000460391 -6.62488e-05
-0.00101698 0.000299851 0.00030734 -7.45551e-05
-0.00051194 0.000147948 0.000155997 -7.95529e-05
-0.00102309 0.000301623 0.000309202 -7.45556e-05
-0.00102004 0.000300737 0.000308271 -7.45554e-05
-0.00152339 0.000452365 0.000459009 -6.62486e-05
-0.00151425 0.000449681 0.000456246 -6.62483e-05
-0.000507293 0.000146654 0.00015456 -7.95518e-05
-0.000510391 0.000147516 0.000155518 -7.95525e-05
-0.00151882 0.000451023 0.000457627 -6.62485e-05
-0.00101086 0.000298079 0.000305479 -7.45546e-05
-0.000508842 0.000147085 0.000155039 -7.95521e-05
-0.00101698 0.000299851 0.00030734 -7.45551e-05
-0.00101392 0.000298965 0.00030641 -7.45549e-05
-0.00151425 0.000449681 0.000456246 -6.62483e-05
-0.00150512 0.000446997 0.000453483 -6.6248e-05
-0.000504197 0.000145791 0.000153602 -7.9551e-05
-0.000507293 0.000146654 0.00015456 -7.95518e-05
-0.00150969 0.000448339 0.000454865 -6.62482e-05
-0.00100475 0.000296307 0.000303618 -7.4554e-05
-0.000505745 0.000146222 0.000154081 -7.95514e-05
-0.00101086 0.000298079 0.000305479 -7.45546e-05
-0.00100781 0.000297193 0.000304548 -7.45543e-05
-0.00150512 0.000446997 0.000453483 -6.6248e-05
-0.00149599 0.000444312 0.000450721 -6.62476e-05
-0.0005011 0.000144928 0.000152645 -7.95502e-05
-0.000504197 0.000145791 0.000153602 -7.9551e-05
-0.00150056 0.000445655 0.000452102 -6.62478e-05
-0.000998634 0.000294534 0.000301757 -7.45534e-05
-0.000502648 0.000145359 0.000153124 -7.95506e-05
-0.00100475 0.000296307 0.000303618 -7.4554e-05
-0.00100169 0.00029542 0.000302688 -7.45537e-05
-0.00149599 0.000444312 0.000450721 -6.62476e-05
-0.00148687 0.000441628 0.000447959 -6.62472e-05
-0.000498004 0.000144065 0.000151688 -7.95493e-05
-0.0005011 0.000144928 0.000152645 -7.95502e-05
-0.00149143 0.00044297 0.00044934 -6.62474e-05
-0.000992521 0.000292761 0.000299897 -7.45528e-05
-0.000499552 0.000144496 0.000152167 -7.95498e-05
-0.000998634 0.000294534 0.000301757 -7.45534e-05
-0.000995577 0.000293648 0.000300827 -7.45531e-05
-0.00148687 0.000441628 0.000447959 -6.62472e-05
-0.00147774 0.000438943 0.000445197 -6.62468e-05
-0.000494909 0.000143201 0.000150732 -7.95485e-05
-0.000498004 0.000144065 0.000151688 -7.95493e-05
-0.0014823 0.000440286 0.000446578 -6.6247e-05
-0.000986408 0.000290988 0.000298037 -7.45522e-05
-0.000496457 0.000143633 0.00015121 -7.95489e-05
-0.000992521 0.000292761 0.000299897 -7.45528e-05
-0.000989464 0.000291875 0.000298967 -7.45525e-05
-0.00147774 0.000438943 0.000445197 -6.62468e-05
-0.00146861 0.000436259 0.000442435 -6.62463e-05
-0.000491814 0.000142337 0.000149776 -7.95476e-05
-0.000494909 0.000143201 0.000150732 -7.95485e-05
-0.00147317 0.000437601 0.000443816 -6.62465e-05
-0.000980295 0.000289215 0.000296177 -7.45515e-05
-0.000493361 0.000142769 0.000150254 -7.9548e-05
-0.000986408 0.000290988 0.000298037 -7.45522e-05
-0.000983351 0.000290102 0.000297107 -7.45518e-05
-0.00146861 0.000436259 0.000442435 -6.62463e-05
-0.00145948 0.000433574 0.000439674 -6.62458e-05
-0.00048872 0.000141473 0.00014882 -7.95467e-05
-0.000491814 0.000142337 0.000149776 -7.95476e-05
-0.00146404 0.000434916 0.000441055 -6.62461e-05
-0.000974183 0.000287441 0.000294318 -7.45508e-05
-0.000490267 0.000141905 0.000149298 -7.95472e-05
-0.000980295 0.000289215 0.000296177 -7.45515e-05
-0.000977239 0.000288328 0.000295247 -7.45512e-05
-0.00145948 0.000433574 0.000439674 -6.62458e-05
-0.00145035 0.000430889 0.000436913 -6.62453e-05
-0.000485626 0.000140609 0.000147864 -7.95458e-05
-0.00048872 0.000141473 0.00014882 -7.95467e-05
-0.00145492 0.000432231 0.000438294 -6.62456e-05
-0.000968071 0.000285668 0.000292459 -7.45501e-05
-0.000487173 0.000141041 0.000148342 -7.95462e-05
-0.000974183 0.000287441 0.000294318 -7.45508e-05
-0.000971127 0.000286555 0.000293388 -7.45505e-05
-0.00145035 0.000430889 0.000436913 -6.62453e-05
-0.00144123 0.000428203 0.000434153 -6.62448e-05
-0.000482532 0.000139744 0.000146909 -7.95448e-05
-0.000485626 0.000140609 0.000147864 -7.95458e-05
-0.00144579 0.000429546 0.000435533 -6.62451e-05
-0.00096196 0.000283894 0.0002906 -7.45494e-05
-0.000484079 0.000140177 0.000147387 -7.95453e-05
-0.000968071 0.000285668 0.000292459 -7.45501e-05
-0.000965016 0.000284781 0.000291529 -7.45497e-05
-0.00144123 0.000428203 0.000434153 -6.62448e-05
-0.0014321 0.000425518 0.000431392 -6.62443e-05
-0.00047944 0.00013888 0.000145954 -7.95439e-05
-0.000482532 0.000139744 0.000146909 -7.95448e-05
-0.00143666 0.000426861 0.000432772 -6.62445e-05
-0.00095585 0.00028212 0.000288741 -7.45486e-05
-0.000480986 0.000139312 0.000146432 -7.95443e-05
-0.00096196 0.000283894 0.0002906 -7.45494e-05
-0.000958905 0.000283007 0.000289671 -7.4549e-05
-0.0014321 0.000425518 0.000431392 -6.62443e-05
-0.00142297 0.000422832 0.000428632 -6.62437e-05
-0.000476347 0.000138014 0.000145 -7.95429e-05
-0.00047944 0.00013888 0.000145954 -7.95439e-05
-0.00142754 0.000424175 0.000430012 -6.6244e-05
-0.00094974 0.000280345 0.000286883 -7.45478e-05
-0.000477893 0.000138447 0.000145477 -7.95434e-05
-0.00095585 0.00028212 0.000288741 -7.45486e-05
-0.000952795 0.000281233 0.000287812 -7.45482e-05
-0.00142297 0.000422832 0.000428632 -6.62437e-05
-0.00141385 0.000420147 0.000425873 -6.62432e-05
-0.000473255 0.000137149 0.000144045 -7.95419e-05
-0.000476347 0.000138014 0.000145 -7.95429e-05
-0.00141841 0.00042149 0.000427252 -6.62434e-05
-0.00094363 0.000278571 0.000285025 -7.4547e-05
-0.000474801 0.000137582 0.000144523 -7.95424e-05
-0.00094974 0.000280345 0.000286883 -7.45478e-05
-0.000946685 0.000279458 0.000285954 -7.45474e-05
-0.00141385 0.000420147 0.000425873 -6.62432e-05
-0.00140472 0.000417461 0.000423113 -6.62426e-05
-0.000470164 0.000136284 0.000143092 -7.95408e-05
-0.000473255 0.000137149 0.000144045 -7.95419e-05
-0.00140929 0.000418804 0.000424493 -6.62429e-05
-0.000937521 0.000276796 0.000283168 -7.45462e-05
-0.00047171 0.000136716 0.000143568 -7.95414e-05
-0.00094363 0.000278571 0.000285025 -7.4547e-05
-0.000940576 0.000277684 0.000284097 -7.45466e-05
-0.00140472 0.000417461 0.000423113 -6.62426e-05
-0.0013956 0.000414775 0.000420354 -6.6242e-05
-0.000467073 0.000135418 0.000142138 -7.95398e-05
-0.000470164 0.000136284 0.000143092 -7.95408e-05
-0.00140016 0.000416118 0.000421734 -6.62423e-05
-0.000931413 0.000275021 0.000281311 -7.45454e-05
-0.000468618 0.000135851 0.000142615 -7.95403e-05
-0.000937521 0.000276796 0.000283168 -7.45462e-05
-0.000934467 0.000275909 0.000282239 -7.45458e-05
-0.0013956 0.000414775 0.000420354 -6.6242e-05
-0.00138648 0.000412088 0.000417595 -6.62414e-05
-0.000463983 0.000134552 0.000141185 -7.95388e-05
-0.000467073 0.000135418 0.000142138 -7.95398e-05
-0.00139104 0.000413432 0.000418975 -6.62417e-05
-0.000925305 0.000273246 0.000279454 -7.45446e-05
-0.000465528 0.000134985 0.000141661 -7.95393e-05
-0.000931413 0.000275021 0.000281311 -7.45454e-05
-0.000928359 0.000274134 0.000280382 -7.4545e-05
-0.00138648 0.000412088 0.000417595 -6.62414e-05
-0.00137735 0.000409402 0.000414837 -6.62408e-05
-0.000460893 0.000133686 0.000140232 -7.95377e-05
-0.000463983 0.000134552 0.000141185 -7.95388e-05
-0.00138192 0.000410745 0.000416216 -6.62411e-05
-0.000919197 0.000271471 0.000277597 -7.45437e-05
-0.000462438 0.000134119 0.000140708 -7.95382e-05
-0.000925305 0.000273246 0.000279454 -7.45446e-05
-0.000922251 0.000272358 0.000278525 -7.45442e-05
-0.00137735 0.000409402 0.000414837 -6.62408e-05
-0.00136823 0.000406715 0.000412079 -6.62401e-05
-0.000457803 0.000132819 0.000139279 -7.95366e-05
-0.000460893 0.000133686 0.000140232 -7.95377e-05
-0.00137279 0.000408059 0.000413458 -6.62404e-05
-0.000913091 0.000269695 0.000275741 -7.45429e-05
-0.000459348 0.000133252 0.000139755 -7.95371e-05
-0.000919197 0.000271471 0.000277597 -7.45437e-05
-0.000916144 0.000270583 0.000276669 -7.45433e-05
-0.00136823 0.000406715 0.000412079 -6.62401e-05
-0.00135911 0.000404029 0.000409321 -6.62395e-05
-0.000454715 0.000131952 0.000138327 -7.95355e-05
-0.000457803 0.000132819 0.000139279 -7.95366e-05
-0.00136367 0.000405372 0.0004107 -6.62398e-05
-0.000906984 0.000267919 0.000273885 -7.4542e-05
-0.000456259 0.000132386 0.000138803 -7.95361e-05
-0.000913091 0.000269695 0.000275741 -7.45429e-05
-0.000910037 0.000268807 0.000274813 -7.45424e-05
-0.00135911 0.000404029 0.000409321 -6.62395e-05
-0.00134999 0.000401342 0.000406563 -6.62388e-05
-0.000451626 0.000131085 0.000137375 -7.95344e-05
-0.000454715 0.000131952 0.000138327 -7.95355e-05
-0.00135455 0.000402685 0.000407942 -6.62391e-05
-0.000900879 0.000266143 0.000272029 -7.45411e-05
-0.00045317 0.000131519 0.000137851 -7.95349e-05
-0.000906984 0.000267919 0.000273885 -7.4542e-05
-0.000903931 0.000267031 0.000272957 -7.45415e-05
-0.00134999 0.000401342 0.000406563 -6.62388e-05
-0.00134087 0.000398655 0.000403806 -6.62381e-05
-0.000448538 0.000130218 0.000136423 -7.95333e-05
-0.000451626 0.000131085 0.000137375 -7.95344e-05
-0.00134543 0.000399998 0.000405184 -6.62385e-05
-0.000894773 0.000264367 0.000270174 -7.45402e-05
-0.000450082 0.000130652 0.000136899 -7.95338e-05
-0.000900879 0.000266143 0.000272029 -7.45411e-05
-0.000897826 0.000265255 0.000271102 -7.45406e-05
-0.00134087 0.000398655 0.000403806 -6.62381e-05
-0.00133175 0.000395967 0.000401049 -6.62375e-05
-0.000445451 0.000129351 0.000135472 -7.95321e-05
-0.000448538 0.000130218 0.000136423 -7.95333e-05
-0.00133631 0.000397311 0.000402427 -6.62378e-05
-0.000888669 0.000262591 0.000268319 -7.45393e-05
-0.000446995 0.000129784 0.000135947 -7.95327e-05
-0.000894773 0.000264367 0.000270174 -7.45402e-05
-0.000891721 0.000263479 0.000269247 -7.45397e-05
-0.00133175 0.000395967 0.000401049 -6.62375e-05
-0.00132263 0.00039328 0.000398292 -6.62368e-05
-0.000442364 0.000128483 0.000134521 -7.9531e-05
-0.000445451 0.000129351 0.000135472 -7.95321e-05
-0.00132719 0.000394624 0.00039967 -6.62371e-05
-0.000882564 0.000260814 0.000266465 -7.45383e-05
-0.000443908 0.000128917 0.000134996 -7.95315e-05
-0.000888669 0.000262591 0.000268319 -7.45393e-05
-0.000885617 0.000261702 0.000267392 -7.45388e-05
-0.00132263 0.00039328 0.000398292 -6.62368e-05
-0.00131351 0.000390592 0.000395536 -6.62361e-05
-0.000439278 0.000127615 0.00013357 -7.95298e-05
-0.000442364 0.000128483 0.000134521 -7.9531e-05
-0.00131807 0.000391936 0.000396914 -6.62364e-05
-0.000876461 0.000259037 0.00026461 -7.45374e-05
-0.000440821 0.000128049 0.000134045 -7.95304e-05
-0.000882564 0.000260814 0.000266465 -7.45383e-05
-0.000879513 0.000259926 0.000265537 -7.45379e-05
-0.00131351 0.000390592 0.000395536 -6.62361e-05
-0.00130439 0.000387905 0.00039278 -6.62353e-05
-0.000436192 0.000126747 0.000132619 -7.95286e-05
-0.000439278 0.000127615 0.00013357 -7.95298e-05
-0.00130895 0.000389249 0.000394158 -6.62357e-05
-0.000870358 0.00025726 0.000262756 -7.45364e-05
-0.000437735 0.000127181 0.000133095 -7.95292e-05
-0.000876461 0.000259037 0.00026461 -7.45374e-05
-0.000873409 0.000258149 0.000263683 -7.45369e-05
-0.00130439 0.000387905 0.00039278 -6.62353e-05
-0.00129527 0.000385217 0.000390024 -6.62346e-05
-0.000433107 0.000125878 0.000131669 -7.95274e-05
-0.000436192 0.000126747 0.000132619 -7.95286e-05
-0.00129983 0.000386561 0.000391402 -6.6235e-05
-0.000864255 0.000255483 0.000260903 -7.45355e-05
-0.000434649 0.000126312 0.000132144 -7.9528e-05
-0.000870358 0.00025726 0.000262756 -7.45364e-05
-0.000867306 0.000256371 0.000261829 -7.4536e-05
-0.00129527 0.000385217 0.000390024 -6.62346e-05
-0.00128616 0.000382529 0.000387269 -6.62339e-05
-0.000430022 0.000125009 0.00013072 -7.95262e-05
-0.000433107 0.000125878 0.000131669 -7.95274e-05
-0.00129071 0.000383873 0.000388646 -6.62343e-05
-0.000858153 0.000253705 0.000259049 -7.45345e-05
-0.000431564 0.000125444 0.000131194 -7.95268e-05
-0.000864255 0.000255483 0.000260903 -7.45355e-05
-0.000861204 0.000254594 0.000259976 -7.4535e-05
-0.00128616 0.000382529 0.000387269 -6.62339e-05
-0.00127704 0.00037984 0.000384514 -6.62332e-05
-0.000426938 0.00012414 0.00012977 -7.9525e-05
-0.000430022 0.000125009 0.00013072 -7.95262e-05
-0.0012816 0.000381185 0.000385891 -6.62335e-05
-0.000852052 0.000251928 0.000257196 -7.45335e-05
-0.00042848 0.000124575 0.000130245 -7.95256e-05
-0.000858153 0.000253705 0.000259049 -7.45345e-05
-0.000855102 0.000252816 0.000258123 -7.4534e-05
-0.00127704 0.00037984 0.000384514 -6.62332e-05
-0.00126792 0.000377152 0.000381759 -6.62324e-05
-0.000423854 0.000123271 0.000128821 -7.95238e-05
-0.000426938 0.00012414 0.00012977 -7.9525e-05
-0.00127248 0.000378496 0.000383136 -6.62328e-05
-0.000845951 0.00025015 0.000255343 -7.45325e-05
-0.000425396 0.000123706 0.000129296 -7.95244e-05
-0.000852052 0.000251928 0.000257196 -7.45335e-05
-0.000849001 0.000251039 0.00025627 -7.4533e-05
-0.00126792 0.000377152 0.000381759 -6.62324e-05
-0.00125881 0.000374463 0.000379004 -6.62316e-05
-0.000420771 0.000122402 0.000127872 -7.95226e-05
-0.000423854 0.000123271 0.000128821 -7.95238e-05
-0.00126336 0.000375808 0.000380381 -6.6232e-05
-0.00083985 0.000248371 0.000253491 -7.45315e-05
-0.000422312 0.000122837 0.000128347 -7.95232e-05
-0.000845951 0.00025015 0.000255343 -7.45325e-05
-0.000842901 0.000249261 0.000254417 -7.4532e-05
-0.00125881 0.000374463 0.000379004 -6.62316e-05
-0.00124969 0.000371775 0.00037625 -6.62309e-05
-0.000417688 0.000121532 0.000126924 -7.95213e-05
-0.000420771 0.000122402 0.000127872 -7.95226e-05
-0.00125425 0.000373119 0.000377627 -6.62313e-05
-0.000833751 0.000246593 0.000251639 -7.45305e-05
-0.000419229 0.000121967 0.000127398 -7.95219e-05
-0.00083985 0.000248371 0.000253491 -7.45315e-05
-0.0008368 0.000247482 0.000252565 -7.4531e-05
-0.00124969 0.000371775 0.00037625 -6.62309e-05
-0.00124058 0.000369086 0.000373496 -6.62301e-05
-0.000414606 0.000120662 0.000125976 -7.95201e-05
-0.000417688 0.000121532 0.000126924 -7.95213e-05
-0.00124513 0.00037043 0.000374873 -6.62305e-05
-0.000827651 0.000244815 0.000249787 -7.45295e-05
-0.000416147 0.000121097 0.00012645 -7.95207e-05
-0.000833751 0.000246593 0.000251639 -7.45305e-05
-0.000830701 0.000245704 0.000250713 -7.453e-05
-0.00124058 0.000369086 0.000373496 -6.62301e-05
-0.00123146 0.000366397 0.000370743 -6.62293e-05
-0.000411524 0.000119792 0.000125028 -7.95188e-05
-0.000414606 0.000120662 0.000125976 -7.95201e-05
-0.00123602 0.000367741 0.000372119 -6.62297e-05
-0.000821553 0.000243036 0.000247936 -7.45284e-05
-0.000413065 0.000120227 0.000125502 -7.95194e-05
-0.000827651 0.000244815 0.000249787 -7.45295e-05
-0.000824602 0.000243925 0.000248861 -7.4529e-05
-0.00123146 0.000366397 0.000370743 -6.62293e-05
-0.00122235 0.000363708 0.000367989 -6.62285e-05
-0.000408443 0.000118922 0.00012408 -7.95175e-05
-0.000411524 0.000119792 0.000125028 -7.95188e-05
-0.00122691 0.000365052 0.000369366 -6.62289e-05
-0.000815454 0.000241257 0.000246085 -7.45274e-05
-0.000409983 0.000119357 0.000124554 -7.95182e-05
-0.000821553 0.000243036 0.000247936 -7.45284e-05
-0.000818503 0.000242146 0.00024701 -7.45279e-05
-0.00122235 0.000363708 0.000367989 -6.62285e-05
-0.00121324 0.000361018 0.000365236 -6.62277e-05
-0.000405362 0.000118051 0.000123133 -7.95163e-05
-0.000408443 0.000118922 0.00012408 -7.95175e-05
-0.00121779 0.000362363 0.000366613 -6.62281e-05
-0.000809357 0.000239478 0.000244234 -7.45264e-05
-0.000406902 0.000118486 0.000123607 -7.95169e-05
-0.000815454 0.000241257 0.000246085 -7.45274e-05
-0.000812406 0.000240367 0.000245159 -7.45269e-05
-0.00121324 0.000361018 0.000365236 -6.62277e-05
-0.00120412 0.000358329 0.000362484 -6.62269e-05
-0.000402282 0.00011718 0.000122186 -7.9515e-05
-0.000405362 0.000118051 0.000123133 -7.95163e-05
-0.00120868 0.000359674 0.00036386 -6.62273e-05
-0.00080326 0.000237698 0.000242383 -7.45253e-05
-0.000403822 0.000117615 0.00012266 -7.95156e-05
-0.000809357 0.000239478 0.000244234 -7.45264e-05
-0.000806308 0.000238588 0.000243309 -7.45258e-05
-0.00120412 0.000358329 0.000362484 -6.62269e-05
-0.00119501 0.000355639 0.000359732 -6.62261e-05
-0.000399202 0.000116309 0.00012124 -7.95137e-05
-0.000402282 0.00011718 0.000122186 -7.9515e-05
-0.00119957 0.000356984 0.000361108 -6.62265e-05
-0.000797163 0.000235919 0.000240533 -7.45243e-05
-0.000400742 0.000116744 0.000121713 -7.95143e-05
-0.00080326 0.000237698 0.000242383 -7.45253e-05
-0.000800211 0.000236809 0.000241458 -7.45248e-05
-0.00119501 0.000355639 0.000359732 -6.62261e-05
-0.0011859 0.000352949 0.00035698 -6.62253e-05
-0.000396123 0.000115437 0.000120294 -7.95124e-05
-0.000399202 0.000116309 0.00012124 -7.95137e-05
-0.00119046 0.000354294 0.000358356 -6.62257e-05
-0.000791067 0.000234139 0.000238683 -7.45232e-05
-0.000397662 0.000115873 0.000120767 -7.9513e-05
-0.000797163 0.000235919 0.000240533 -7.45243e-05
-0.000794115 0.000235029 0.000239608 -7.45237e-05
-0.0011859 0.000352949 0.00035698 -6.62253e-05
-0.00117679 0.000350259 0.000354228 -6.62245e-05
-0.000393044 0.000114566 0.000119348 -7.95111e-05
-0.000396123 0.000115437 0.000120294 -7.95124e-05
-0.00118135 0.000351604 0.000355604 -6.62249e-05
-0.000784972 0.000232359 0.000236834 -7.45221e-05
-0.000394583 0.000115001 0.000119821 -7.95117e-05
-0.000791067 0.000234139 0.000238683 -7.45232e-05
-0.000788019 0.000233249 0.000237759 -7.45227e-05
-0.00117679 0.000350259 0.000354228 -6.62245e-05
-0.00116768 0.000347569 0.000351477 -6.62237e-05
-0.000389966 0.000113694 0.000118402 -7.95098e-05
-0.000393044 0.000114566 0.000119348 -7.95111e-05
-0.00117224 0.000348914 0.000352852 -6.62241e-05
-0.000778877 0.000230579 0.000234985 -7.4521e-05
-0.000391505 0.00011413 0.000118875 -7.95104e-05
-0.000784972 0.000232359 0.000236834 -7.45221e-05
-0.000781924 0.000231469 0.000235909 -7.45216e-05
-0.00116768 0.000347569 0.000351477 -6.62237e-05
-0.00115857 0.000344879 0.000348725 -6.62228e-05
-0.000386888 0.000112822 0.000117457 -7.95085e-05
-0.000389966 0.000113694 0.000118402 -7.95098e-05
-0.00116313 0.000346224 0.000350101 -6.62233e-05
-0.000772782 0.000228798 0.000233136 -7.452e-05
-0.000388427 0.000113258 0.00011793 -7.95091e-05
-0.000778877 0.000230579 0.000234985 -7.4521e-05
-0.000775829 0.000229689 0.00023406 -7.45205e-05
-0.00115857 0.000344879 0.000348725 -6.62228e-05
-0.00114946 0.000342188 0.000345975 -6.6222e-05
-0.000383811 0.000111949 0.000116512 -7.95071e-05
-0.000386888 0.000112822 0.000117457 -7.95085e-05
-0.00115402 0.000343534 0.00034735 -6.62224e-05
-0.000766689 0.000227018 0.000231288 -7.45189e-05
-0.00038535 0.000112385 0.000116985 -7.95078e-05
-0.000772782 0.000228798 0.000233136 -7.452e-05
-0.000769735 0.000227908 0.000232212 -7.45194e-05
-0.00114946 0.000342188 0.000345975 -6.6222e-05
-0.00114035 0.000339498 0.000343224 -6.62212e-05
-0.000380734 0.000111077 0.000115568 -7.95058e-05
-0.000383811 0.000111949 0.000116512 -7.95071e-05
-0.00114491 0.000340843 0.000344599 -6.62216e-05
-0.000760595 0.000225237 0.000229439 -7.45178e-05
-0.000382273 0.000111513 0.00011604 -7.95065e-05
-0.000766689 0.000227018 0.000231288 -7.45189e-05
-0.000763642 0.000226127 0.000230363 -7.45183e-05
-0.00114035 0.000339498 0.000343224 -6.62212e-05
-0.00113125 0.000336807 0.000340474 -6.62203e-05
-0.000377658 0.000110204 0.000114623 -7.95045e-05
-0.000380734 0.000111077 0.000115568 -7.95058e-05
-0.0011358 0.000338152 0.000341849 -6.62208e-05
-0.000754503 0.000223456 0.000227591 -7.45167e-05
-0.000379196 0.00011064 0.000115096 -7.95052e-05
-0.000760595 0.000225237 0.000229439 -7.45178e-05
-0.000757549 0.000224346 0.000228515 -7.45172e-05
-0.00113125 0.000336807 0.000340474 -6.62203e-05
-0.00112214 0.000334116 0.000337724 -6.62195e-05
-0.000374583 0.00010933 0.00011368 -7.95032e-05
-0.000377658 0.000110204 0.000114623 -7.95045e-05
-0.00112669 0.000335461 0.000339099 -6.62199e-05
-0.00074841 0.000221675 0.000225744 -7.45156e-05
-0.00037612 0.000109767 0.000114151 -7.95038e-05
-0.000754503 0.000223456 0.000227591 -7.45167e-05
-0.000751456 0.000222565 0.000226668 -7.45161e-05
-0.00112214 0.000334116 0.000337724 -6.62195e-05
-0.00111303 0.000331425 0.000334975 -6.62187e-05
-0.000371508 0.000108457 0.000112736 -7.95018e-05
-0.000374583 0.00010933 0.00011368 -7.95032e-05
-0.00111759 0.00033277 0.00033635 -6.62191e-05
-0.000742319 0.000219893 0.000223897 -7.45145e-05
-0.000373045 0.000108894 0.000113208 -7.95025e-05
-0.00074841 0.000221675 0.000225744 -7.45156e-05
-0.000745365 0.000220784 0.00022482 -7.4515e-05
-0.00111303 0.000331425 0.000334975 -6.62187e-05
-0.00110393 0.000328734 0.000332226 -6.62178e-05
-0.000368433 0.000107583 0.000111793 -7.95005e-05
-0.000371508 0.000108457 0.000112736 -7.95018e-05
-0.00110848 0.000330079 0.0003336 -6.62182e-05
-0.000736228 0.000218111 0.00022205 -7.45134e-05
-0.00036997 0.00010802 0.000112264 -7.95011e-05
-0.000742319 0.000219893 0.000223897 -7.45145e-05
-0.000739273 0.000219002 0.000222973 -7.45139e-05
-0.00110393 0.000328734 0.000332226 -6.62178e-05
-0.00109482 0.000326042 0.000329477 -6.6217e-05
-0.000365359 0.00010671 0.00011085 -7.94991e-05
-0.000368433 0.000107583 0.000111793 -7.95005e-05
-0.00109937 0.000327388 0.000330851 -6.62174e-05
-0.000730137 0.00021633 0.000220203 -7.45123e-05
-0.000366896 0.000107147 0.000111321 -7.94998e-05
-0.000736228 0.000218111 0.00022205 -7.45134e-05
-0.000733182 0.000217221 0.000221127 -7.45128e-05
-0.00109482 0.000326042 0.000329477 -6.6217e-05
-0.00108572 0.000323351 0.000326728 -6.62161e-05
-0.000362285 0.000105836 0.000109907 -7.94978e-05
-0.000365359 0.00010671 0.00011085 -7.94991e-05
-0.00109027 0.000324696 0.000328103 -6.62165e-05
-0.000724047 0.000214548 0.000218357 -7.45112e-05
-0.000363822 0.000106273 0.000110378 -7.94985e-05
-0.000730137 0.00021633 0.000220203 -7.45123e-05
-0.000727092 0.000215439 0.00021928 -7.45117e-05
-0.00108572 0.000323351 0.000326728 -6.62161e-05
-0.00107661 0.000320659 0.00032398 -6.62152e-05
-0.000359212 0.000104961 0.000108965 -7.94964e-05
-0.000362285 0.000105836 0.000109907 -7.94978e-05
-0.00108116 0.000322005 0.000325354 -6.62157e-05
-0.000717958 0.000212765 0.000216511 -7.451e-05
-0.000360749 0.000105398 0.000109436 -7.94971e-05
-0.000724047 0.000214548 0.000218357 -7.45112e-05
-0.000721003 0.000213656 0.000217434 -7.45106e-05
-0.00107661 0.000320659 0.00032398 -6.62152e-05
-0.00106751 0.000317967 0.000321232 -6.62144e-05
-0.00035614 0.000104087 0.000108023 -7.94951e-05
-0.000359212 0.000104961 0.000108965 -7.94964e-05
-0.00107206 0.000319313 0.000322606 -6.62148e-05
-0.000711869 0.000210983 0.000214666 -7.45089e-05
-0.000357676 0.000104524 0.000108494 -7.94958e-05
-0.000717958 0.000212765 0.000216511 -7.451e-05
-0.000714913 0.000211874 0.000215588 -7.45095e-05
-0.00106751 0.000317967 0.000321232 -6.62144e-05
-0.00105841 0.000315275 0.000318485 -6.62135e-05
-0.000353068 0.000103212 0.000107081 -7.94937e-05
-0.00035614 0.000104087 0.000108023 -7.94951e-05
-0.00106296 0.000316621 0.000319858 -6.6214e-05
-0.000705781 0.0002092 0.00021282 -7.45078e-05
-0.000354604 0.000103649 0.000107552 -7.94944e-05
-0.000711869 0.000210983 0.000214666 -7.45089e-05
-0.000708825 0.000210091 0.000213743 -7.45084e-05
-0.00105841 0.000315275 0.000318485 -6.62135e-05
-0.0010493 0.000312583 0.000315737 -6.62127e-05
-0.000349996 0.000102337 0.00010614 -7.94924e-05
-0.000353068 0.000103212 0.000107081 -7.94937e-05
-0.00105385 0.000313929 0.000317111 -6.62131e-05
-0.000699693 0.000207417 0.000210975 -7.45067e-05
-0.000351532 0.000102774 0.00010661 -7.94931e-05
-0.000705781 0.0002092 0.00021282 -7.45078e-05
-0.000702737 0.000208309 0.000211898 -7.45073e-05
-0.0010493 0.000312583 0.000315737 -6.62127e-05
-0.0010402 0.00030989 0.00031299 -6.62118e-05
-0.000346925 0.000101461 0.000105199 -7.9491e-05
-0.000349996 0.000102337 0.00010614 -7.94924e-05
-0.00104475 0.000311237 0.000314364 -6.62122e-05
-0.000693606 0.000205634 0.000209131 -7.45056e-05
-0.000348461 0.000101899 0.000105669 -7.94917e-05
-0.000699693 0.000207417 0.000210975 -7.45067e-05
-0.000696649 0.000206526 0.000210053 -7.45061e-05
-0.0010402 0.00030989 0.00031299 -6.62118e-05
-0.0010311 0.000307198 0.000310244 -6.6211e-05
-0.000343855 0.000100586 0.000104258 -7.94897e-05
-0.000346925 0.000101461 0.000105199 -7.9491e-05
-0.00103565 0.000308544 0.000311617 -6.62114e-05
-0.000687519 0.000203851 0.000207286 -7.45045e-05
-0.00034539 0.000101024 0.000104728 -7.94904e-05
-0.000693606 0.000205634 0.000209131 -7.45056e-05
-0.000690562 0.000204742 0.000208209 -7.4505e-05
-0.0010311 0.000307198 0.000310244 -6.6211e-05
-0.001022 0.000304505 0.000307498 -6.62101e-05
-0.000340785 9.97099e-05 0.000103318 -7.94883e-05
-0.000343855 0.000100586 0.000104258 -7.94897e-05
-0.00102655 0.000305852 0.000308871 -6.62105e-05
-0.000681433 0.000202067 0.000205443 -7.45034e-05
-0.00034232 0.000100148 0.000103788 -7.9489e-05
-0.000687519 0.000203851 0.000207286 -7.45045e-05
-0.000684476 0.000202959 0.000206364 -7.45039e-05
-0.001022 0.000304505 0.000307498 -6.62101e-05
-0.0010129 0.000301812 0.000304752 -6.62092e-05
-0.000337715 9.88339e-05 0.000102378 -7.9487e-05
-0.000340785 9.97099e-05 0.000103318 -7.94883e-05
-0.00101745 0.000303159 0.000306124 -6.62097e-05
-0.000675348 0.000200283 0.000203599 -7.45022e-05
-0.00033925 9.92719e-05 0.000102848 -7.94877e-05
-0.000681433 0.000202067 0.000205443 -7.45034e-05
-0.00067839 0.000201175 0.000204521 -7.45028e-05
-0.0010129 0.000301812 0.000304752 -6.62092e-05
-0.0010038 0.000299119 0.000302006 -6.62084e-05
-0.000334646 9.79576e-05 0.000101438 -7.94856e-05
-0.000337715 9.88339e-05 0.000102378 -7.9487e-05
-0.00100835 0.000300466 0.000303379 -6.62088e-05
-0.000669263 0.000198499 0.000201756 -7.45011e-05
-0.000336181 9.83957e-05 0.000101908 -7.94863e-05
-0.000675348 0.000200283 0.000203599 -7.45022e-05
-0.000672305 0.000199391 0.000202677 -7.45017e-05
-0.0010038 0.000299119 0.000302006 -6.62084e-05
-0.000994701 0.000296426 0.00029926 -6.62075e-05
-0.000331578 9.7081e-05 0.000100499 -7.94843e-05
-0.000334646 9.79576e-05 0.000101438 -7.94856e-05
-0.00099925 0.000297773 0.000300633 -6.6208e-05
-0.000663178 0.000196715 0.000199913 -7.45e-05
-0.000333112 9.75193e-05 0.000100968 -7.9485e-05
-0.000669263 0.000198499 0.000201756 -7.45011e-05
-0.00066622 0.000197607 0.000200834 -7.45006e-05
-0.000994701 0.000296426 0.00029926 -6.62075e-05
-0.000985602 0.000293733 0.000296515 -6.62067e-05
-0.00032851 9.62042e-05 9.95597e-05 -7.94829e-05
-0.000331578 9.7081e-05 0.000100499 -7.94843e-05
-0.000990151 0.00029508 0.000297888 -6.62071e-05
-0.000657094 0.000194931 0.00019807 -7.44989e-05
-0.000330044 9.66426e-05 0.000100029 -7.94836e-05
-0.000663178 0.000196715 0.000199913 -7.45e-05
-0.000660136 0.000195823 0.000198991 -7.44994e-05
-0.000985602 0.000293733 0.000296515 -6.62067e-05
-0.000976504 0.000291039 0.000293771 -6.62058e-05
-0.000325443 9.53272e-05 9.8621e-05 -7.94816e-05
-0.00032851 9.62042e-05 9.95597e-05 -7.94829e-05
-0.000981053 0.000292386 0.000295143 -6.62062e-05
-0.000651011 0.000193146 0.000196228 -7.44978e-05
-0.000326976 9.57657e-05 9.90903e-05 -7.94823e-05
-0.000657094 0.000194931 0.00019807 -7.44989e-05
-0.000654053 0.000194039 0.000197149 -7.44983e-05
-0.000976504 0.000291039 0.000293771 -6.62058e-05
-0.000967407 0.000288346 0.000291026 -6.6205e-05
-0.000322376 9.44499e-05 9.76826e-05 -7.94802e-05
-0.000325443 9.53272e-05 9.8621e-05 -7.94816e-05
-0.000971956 0.000289693 0.000292398 -6.62054e-05
-0.000644928 0.000191362 0.000194386 -7.44967e-05
-0.000323909 9.48886e-05 9.81517e-05 -7.94809e-05
-0.000651011 0.000193146 0.000196228 -7.44978e-05
-0.00064797 0.000192254 0.000195307 -7.44972e-05
-0.000967407 0.000288346 0.000291026 -6.6205e-05
-0.00095831 0.000285652 0.000288282 -6.62041e-05
-0.00031931 9.35724e-05 9.67445e-05 -7.94789e-05
-0.000322376 9.44499e-05 9.76826e-05 -7.94802e-05
-0.000962859 0.000286999 0.000289654 -6.62045e-05
-0.000638846 0.000189577 0.000192544 -7.44956e-05
-0.000320843 9.40111e-05 9.72135e-05 -7.94796e-05
-0.000644928 0.000191362 0.000194386 -7.44967e-05
-0.000641887 0.000190469 0.000193465 -7.44961e-05
-0.00095831 0.000285652 0.000288282 -6.62041e-05
-0.000949214 0.000282958 0.000285538 -6.62033e-05
-0.000316244 9.26946e-05 9.58067e-05 -7.94776e-05
-0.00031931 9.35724e-05 9.67445e-05 -7.94789e-05
-0.000953762 0.000284305 0.00028691 -6.62037e-05
-0.000632764 0.000187791 0.000190703 -7.44945e-05
-0.000317777 9.31335e-05 9.62756e-05 -7.94782e-05
-0.000638846 0.000189577 0.000192544 -7.44956e-05
-0.000635805 0.000188684 0.000191623 -7.4495e-05
-0.000949214 0.000282958 0.000285538 -6.62033e-05
-0.000940119 0.000280264 0.000282795 -6.62024e-05
-0.000313178 9.18166e-05 9.48693e-05 -7.94762e-05
-0.000316244 9.26946e-05 9.58067e-05 -7.94776e-05
-0.000944666 0.000281611 0.000284167 -6.62028e-05
-0.000626683 0.000186006 0.000188862 -7.44934e-05
-0.000314711 9.22556e-05 9.5338e-05 -7.94769e-05
-0.000632764 0.000187791 0.000190703 -7.44945e-05
-0.000629724 0.000186899 0.000189782 -7.44939e-05
-0.000940119 0.000280264 0.000282795 -6.62024e-05
-0.000931024 0.00027757 0.000280052 -6.62016e-05
-0.000310113 9.09383e-05 9.39322e-05 -7.94749e-05
-0.000313178 9.18166e-05 9.48693e-05 -7.94762e-05
-0.000935571 0.000278917 0.000281423 -6.6202e-05
-0.000620603 0.00018422 0.000187021 -7.44923e-05
-0.000311646 9.13775e-05 9.44007e-05 -7.94756e-05
-0.000626683 0.000186006 0.000188862 -7.44934e-05
-0.000623643 0.000185113 0.000187941 -7.44928e-05
-0.000931024 0.00027757 0.000280052 -6.62016e-05
-0.000921929 0.000274875 0.000277309 -6.62007e-05
-0.000307049 9.00598e-05 9.29954e-05 -7.94736e-05
-0.000310113 9.09383e-05 9.39322e-05 -7.94749e-05
-0.000926476 0.000276223 0.00027868 -6.62012e-05
-0.000614523 0.000182435 0.000185181 -7.44912e-05
-0.000308581 9.04991e-05 9.34638e-05 -7.94742e-05
-0.000620603 0.00018422 0.000187021 -7.44923e-05
-0.000617563 0.000183328 0.000186101 -7.44917e-05
-0.000921929 0.000274875 0.000277309 -6.62007e-05
-0.000912835 0.000272181 0.000274566 -6.61999e-05
-0.000303985 8.9181e-05 9.2059e-05 -7.94722e-05
-0.000307049 9.00598e-05 9.29954e-05 -7.94736e-05
-0.000917382 0.000273528 0.000275937 -6.62003e-05
-0.000608443 0.000180649 0.00018334 -7.44901e-05
-0.000305517 8.96205e-05 9.25272e-05 -7.94729e-05
-0.000614523 0.000182435 0.000185181 -7.44912e-05
-0.000611483 0.000181542 0.00018426 -7.44906e-05
-0.000912835 0.000272181 0.000274566 -6.61999e-05
-0.000903742 0.000269486 0.000271824 -6.61991e-05
-0.000300922 8.8302e-05 9.11229e-05 -7.94709e-05
-0.000303985 8.9181e-05 9.2059e-05 -7.94722e-05
-0.000908289 0.000270833 0.000273195 -6.61995e-05
-0.000602364 0.000178862 0.000181501 -7.4489e-05
-0.000302454 8.87416e-05 9.15909e-05 -7.94716e-05
-0.000608443 0.000180649 0.00018334 -7.44901e-05
-0.000605404 0.000179756 0.000182421 -7.44895e-05
-0.000903742 0.000269486 0.000271824 -6.61991e-05
-0.000894649 0.000266791 0.000269082 -6.61982e-05
-0.000297859 8.74228e-05 9.01871e-05 -7.94696e-05
-0.000300922 8.8302e-05 9.11229e-05 -7.94709e-05
-0.000899196 0.000268139 0.000270453 -6.61987e-05
-0.000596286 0.000177076 0.000179661 -7.44879e-05
-0.000299391 8.78625e-05 9.06549e-05 -7.94703e-05
-0.000602364 0.000178862 0.000181501 -7.4489e-05
-0.000599325 0.000177969 0.000180581 -7.44884e-05
-0.000894649 0.000266791 0.000269082 -6.61982e-05
-0.000885557 0.000264096 0.000266341 -6.61974e-05
-0.000294797 8.65433e-05 8.92516e-05 -7.94683e-05
-0.000297859 8.74228e-05 9.01871e-05 -7.94696e-05
-0.000890103 0.000265444 0.000267711 -6.61978e-05
-0.000590208 0.000175289 0.000177822 -7.44868e-05
-0.000296328 8.69831e-05 8.97193e-05 -7.94689e-05
-0.000596286 0.000177076 0.000179661 -7.44879e-05
-0.000593247 0.000176183 0.000178742 -7.44874e-05
-0.000885557 0.000264096 0.000266341 -6.61974e-05
-0.000876466 0.000261401 0.000263599 -6.61966e-05
-0.000291735 8.56636e-05 8.83164e-05 -7.9467e-05
-0.000294797 8.65433e-05 8.92516e-05 -7.94683e-05
-0.000881011 0.000262748 0.00026497 -6.6197e-05
-0.000584131 0.000173502 0.000175984 -7.44857e-05
-0.000293266 8.61035e-05 8.8784e-05 -7.94676e-05
-0.000590208 0.000175289 0.000177822 -7.44868e-05
-0.000587169 0.000174396 0.000176903 -7.44863e-05
-0.000876466 0.000261401 0.000263599 -6.61966e-05
-0.000867375 0.000258705 0.000260858 -6.61958e-05
-0.000288674 8.47836e-05 8.73816e-05 -7.94657e-05
-0.000291735 8.56636e-05 8.83164e-05 -7.9467e-05
-0.00087192 0.000260053 0.000262229 -6.61962e-05
-0.000578054 0.000171715 0.000174145 -7.44847e-05
-0.000290205 8.52236e-05 8.7849e-05 -7.94663e-05
-0.000584131 0.000173502 0.000175984 -7.44857e-05
-0.000581092 0.000172609 0.000175064 -7.44852e-05
-0.000867375 0.000258705 0.000260858 -6.61958e-05
-0.000858284 0.00025601 0.000258118 -6.6195e-05
-0.000285613 8.39034e-05 8.64471e-05 -7.94644e-05
-0.000288674 8.47836e-05 8.73816e-05 -7.94657e-05
-0.000862829 0.000257358 0.000259488 -6.61954e-05
-0.000571978 0.000169928 0.000172307 -7.44836e-05
-0.000287144 8.43435e-05 8.69143e-05 -7.9465e-05
-0.000578054 0.000171715 0.000174145 -7.44847e-05
-0.000575016 0.000170822 0.000173226 -7.44841e-05
-0.000858284 0.00025601 0.000258118 -6.6195e-05
-0.000849194 0.000253314 0.000255377 -6.61942e-05
-0.000282553 8.30229e-05 8.55129e-05 -7.94631e-05
-0.000285613 8.39034e-05 8.64471e-05 -7.94644e-05
-0.000853739 0.000254662 0.000256747 -6.61946e-05
-0.000565902 0.000168141 0.000170469 -7.44826e-05
-0.000284083 8.34632e-05 8.598e-05 -7.94637e-05
-0.000571978 0.000169928 0.000172307 -7.44836e-05
-0.00056894 0.000169034 0.000171388 -7.44831e-05
-0.000849194 0.000253314 0.000255377 -6.61942e-05
-0.000840105 0.000250618 0.000252637 -6.61934e-05
-0.000279493 8.21422e-05 8.45791e-05 -7.94618e-05
-0.000282553 8.30229e-05 8.55129e-05 -7.94631e-05
-0.00084465 0.000251966 0.000254007 -6.61938e-05
-0.000559827 0.000166353 0.000168632 -7.44815e-05
-0.000281023 8.25826e-05 8.5046e-05 -7.94625e-05
-0.000565902 0.000168141 0.000170469 -7.44826e-05
-0.000562865 0.000167247 0.00016955 -7.4482e-05
-0.000840105 0.000250618 0.000252637 -6.61934e-05
-0.000831016 0.000247922 0.000249897 -6.61926e-05
-0.000276434 8.12613e-05 8.36455e-05 -7.94605e-05
-0.000279493 8.21422e-05 8.45791e-05 -7.94618e-05
-0.000835561 0.00024927 0.000251267 -6.6193e-05
-0.000553753 0.000164565 0.000166795 -7.44805e-05
-0.000277964 8.17018e-05 8.41123e-05 -7.94612e-05
-0.000559827 0.000166353 0.000168632 -7.44815e-05
-0.00055679 0.000165459 0.000167713 -7.4481e-05
-0.000831016 0.000247922 0.000249897 -6.61926e-05
-0.000821928 0.000245226 0.000247158 -6.61918e-05
-0.000273376 8.03801e-05 8.27123e-05 -7.94593e-05
-0.000276434 8.12613e-05 8.36455e-05 -7.94605e-05
-0.000826472 0.000246574 0.000248528 -6.61922e-05
-0.000547679 0.000162777 0.000164958 -7.44794e-05
-0.000274905 8.08207e-05 8.31789e-05 -7.94599e-05
-0.000553753 0.000164565 0.000166795 -7.44805e-05
-0.000550716 0.000163671 0.000165876 -7.44799e-05
-0.000821928 0.000245226 0.000247158 -6.61918e-05
-0.000812841 0.00024253 0.000244419 -6.6191e-05
-0.000270317 7.94986e-05 8.17794e-05 -7.9458e-05
-0.000273376 8.03801e-05 8.27123e-05 -7.94593e-05
-0.000817385 0.000243878 0.000245789 -6.61914e-05
-0.000541605 0.000160989 0.000163121 -7.44784e-05
-0.000271846 7.99394e-05 8.22458e-05 -7.94586e-05
-0.000547679 0.000162777 0.000164958 -7.44794e-05
-0.000544642 0.000161883 0.00016404 -7.44789e-05
-0.000812841 0.00024253 0.000244419 -6.6191e-05
-0.000803754 0.000239833 0.00024168 -6.61902e-05
-0.00026726 7.86169e-05 8.08469e-05 -7.94568e-05
-0.000270317 7.94986e-05 8.17794e-05 -7.9458e-05
-0.000808297 0.000241182 0.00024305 -6.61906e-05
-0.000535532 0.0001592 0.000161285 -7.44774e-05
-0.000268788 7.90578e-05 8.13131e-05 -7.94574e-05
-0.000541605 0.000160989 0.000163121 -7.44784e-05
-0.000538569 0.000160094 0.000162203 -7.44779e-05
-0.000803754 0.000239833 0.00024168 -6.61902e-05
-0.000794667 0.000237137 0.000238942 -6.61895e-05
-0.000264203 7.7735e-05 7.99146e-05 -7.94555e-05
-0.00026726 7.86169e-05 8.08469e-05 -7.94568e-05
-0.000799211 0.000238485 0.000240311 -6.61898e-05
-0.00052946 0.000157411 0.000159449 -7.44763e-05
-0.000265731 7.8176e-05 8.03807e-05 -7.94561e-05
-0.000535532 0.0001592 0.000161285 -7.44774e-05
-0.000532496 0.000158306 0.000160367 -7.44769e-05
-0.000794667 0.000237137 0.000238942 -6.61895e-05
-0.000785582 0.00023444 0.000236204 -6.61887e-05
-0.000261146 7.68528e-05 7.89827e-05 -7.94543e-05
-0.000264203 7.7735e-05 7.99146e-05 -7.94555e-05
-0.000790124 0.000235788 0.000237573 -6.61891e-05
-0.000523388 0.000155622 0.000157614 -7.44753e-05
-0.000262674 7.72939e-05 7.94486e-05 -7.94549e-05
-0.00052946 0.000157411 0.000159449 -7.44763e-05
-0.000526424 0.000156517 0.000158532 -7.44758e-05
-0.000785582 0.00023444 0.000236204 -6.61887e-05
-0.000776496 0.000231743 0.000233466 -6.61879e-05
-0.00025809 7.59704e-05 7.80511e-05 -7.94531e-05
-0.000261146 7.68528e-05 7.89827e-05 -7.94543e-05
-0.000781039 0.000233091 0.000234835 -6.61883e-05
-0.000517317 0.000153833 0.000155779 -7.44743e-05
-0.000259618 7.64116e-05 7.85169e-05 -7.94537e-05
-0.000523388 0.000155622 0.000157614 -7.44753e-05
-0.000520352 0.000154728 0.000156696 -7.44748e-05
-0.000776496 0.000231743 0.000233466 -6.61879e-05
-0.000767412 0.000229046 0.000230728 -6.61872e-05
-0.000255034 7.50877e-05 7.71199e-05 -7.94518e-05
-0.00025809 7.59704e-05 7.80511e-05 -7.94531e-05
-0.000771954 0.000230394 0.000232097 -6.61876e-05
-0.000511246 0.000152044 0.000153944 -7.44733e-05
-0.000256562 7.55291e-05 7.75855e-05 -7.94524e-05
-0.000517317 0.000153833 0.000155779 -7.44743e-05
-0.000514281 0.000152939 0.000154861 -7.44738e-05
-0.000767412 0.000229046 0.000230728 -6.61872e-05
-0.000758327 0.000226348 0.000227991 -6.61864e-05
-0.000251979 7.42048e-05 7.61889e-05 -7.94506e-05
-0.000255034 7.50877e-05 7.71199e-05 -7.94518e-05
-0.000762869 0.000227697 0.00022936 -6.61868e-05
-0.000505176 0.000150254 0.000152109 -7.44724e-05
-0.000253506 7.46463e-05 7.66544e-05 -7.94512e-05
-0.000511246 0.000152044 0.000153944 -7.44733e-05
-0.000508211 0.000151149 0.000153026 -7.44729e-05
-0.000758327 0.000226348 0.000227991 -6.61864e-05
-0.000749244 0.000223651 0.000225254 -6.61857e-05
-0.000248924 7.33216e-05 7.52583e-05 -7.94494e-05
-0.000251979 7.42048e-05 7.61889e-05 -7.94506e-05
-0.000753785 0.000225 0.000226622 -6.61861e-05
-0.000499106 0.000148465 0.000150275 -7.44714e-05
-0.000250452 7.37632e-05 7.57236e-05 -7.945e-05
-0.000505176 0.000150254 0.000152109 -7.44724e-05
-0.000502141 0.000149359 0.000151192 -7.44719e-05
-0.000749244 0.000223651 0.000225254 -6.61857e-05
-0.000740161 0.000220953 0.000222517 -6.6185e-05
-0.00024587 7.24382e-05 7.4328e-05 -7.94482e-05
-0.000248924 7.33216e-05 7.52583e-05 -7.94494e-05
-0.000744702 0.000222302 0.000223886 -6.61853e-05
-0.000493037 0.000146675 0.000148441 -7.44704e-05
-0.000247397 7.288e-05 7.47931e-05 -7.94488e-05
-0.000499106 0.000148465 0.000150275 -7.44714e-05
-0.000496072 0.00014757 0.000149358 -7.44709e-05
-0.000740161 0.000220953 0.000222517 -6.6185e-05
-0.000731078 0.000218255 0.000219781 -6.61843e-05
-0.000242817 7.15546e-05 7.3398e-05 -7.9447e-05
-0.00024587 7.24382e-05 7.4328e-05 -7.94482e-05
-0.000735619 0.000219604 0.000221149 -6.61846e-05
-0.000486969 0.000144884 0.000146608 -7.44695e-05
-0.000244343 7.19964e-05 7.3863e-05 -7.94476e-05
-0.000493037 0.000146675 0.000148441 -7.44704e-05
-0.000490003 0.000145779 0.000147524 -7.44699e-05
-0.000731078 0.000218255 0.000219781 -6.61843e-05
-0.000721996 0.000215558 0.000217045 -6.61835e-05
-0.000239764 7.06707e-05 7.24684e-05 -7.94459e-05
-0.000242817 7.15546e-05 7.3398e-05 -7.9447e-05
-0.000726537 0.000216907 0.000218413 -6.61839e-05
-0.000480901 0.000143094 0.000144774 -7.44685e-05
-0.00024129 7.11126e-05 7.29332e-05 -7.94465e-05
-0.000486969 0.000144884 0.000146608 -7.44695e-05
-0.000483935 0.000143989 0.000145691 -7.4469e-05
-0.000721996 0.000215558 0.000217045 -6.61835e-05
-0.000712915 0.000212859 0.000214309 -6.61828e-05
-0.000236711 6.97865e-05 7.1539e-05 -7.94447e-05
-0.000239764 7.06707e-05 7.24684e-05 -7.94459e-05
-0.000717456 0.000214208 0.000215677 -6.61832e-05
-0.000474833 0.000141303 0.000142941 -7.44676e-05
-0.000238237 7.02286e-05 7.20037e-05 -7.94453e-05
-0.000480901 0.000143094 0.000144774 -7.44685e-05
-0.000477867 0.000142199 0.000143858 -7.4468e-05
-0.000712915 0.000212859 0.000214309 -6.61828e-05
-0.000703834 0.000210161 0.000211574 -6.61822e-05
-0.000233659 6.89021e-05 7.061e-05 -7.94436e-05
-0.000236711 6.97865e-05 7.1539e-05 -7.94447e-05
-0.000708374 0.00021151 0.000212942 -6.61825e-05
-0.000468766 0.000139512 0.000141109 -7.44666e-05
-0.000235185 6.93443e-05 7.10745e-05 -7.94441e-05
-0.000474833 0.000141303 0.000142941 -7.44676e-05
-0.0004718 0.000140408 0.000142025 -7.44671e-05
-0.000703834 0.000210161 0.000211574 -6.61822e-05
-0.000694754 0.000207463 0.000208839 -6.61815e-05
-0.000230607 6.80175e-05 6.96814e-05 -7.94424e-05
-0.000233659 6.89021e-05 7.061e-05 -7.94436e-05
-0.000699294 0.000208812 0.000210207 -6.61818e-05
-0.0004627 0.000137721 0.000139276 -7.44657e-05
-0.000232133 6.84598e-05 7.01457e-05 -7.9443e-05
-0.000468766 0.000139512 0.000141109 -7.44666e-05
-0.000465733 0.000138617 0.000140193 -7.44662e-05
-0.000694754 0.000207463 0.000208839 -6.61815e-05
-0.000685674 0.000204764 0.000206104 -6.61808e-05
-0.000227556 6.71326e-05 6.8753e-05 -7.94413e-05
-0.000230607 6.80175e-05 6.96814e-05 -7.94424e-05
-0.000690214 0.000206113 0.000207472 -6.61811e-05
-0.000456634 0.00013593 0.000137444 -7.44648e-05
-0.000229082 6.7575e-05 6.92171e-05 -7.94418e-05
-0.0004627 0.000137721 0.000139276 -7.44657e-05
-0.000459667 0.000136826 0.00013836 -7.44653e-05
-0.000685674 0.000204764 0.000206104 -6.61808e-05
-0.000676595 0.000202065 0.00020337 -6.61801e-05
-0.000224506 6.62474e-05 6.78249e-05 -7.94402e-05
-0.000227556 6.71326e-05 6.8753e-05 -7.94413e-05
-0.000681134 0.000203415 0.000204737 -6.61805e-05
-0.000450568 0.000134139 0.000135613 -7.44639e-05
-0.000226031 6.669e-05 6.82889e-05 -7.94407e-05
-0.000456634 0.00013593 0.000137444 -7.44648e-05
-0.000453601 0.000135034 0.000136529 -7.44644e-05
-0.000676595 0.000202065 0.00020337 -6.61801e-05
-0.000667516 0.000199366 0.000200636 -6.61795e-05
-0.000221456 6.5362e-05 6.68972e-05 -7.9439e-05
-0.000224506 6.62474e-05 6.78249e-05 -7.94402e-05
-0.000672056 0.000200716 0.000202003 -6.61798e-05
-0.000444504 0.000132347 0.000133781 -7.4463e-05
-0.000222981 6.58048e-05 6.7361e-05 -7.94396e-05
-0.000450568 0.000134139 0.000135613 -7.44639e-05
-0.000447536 0.000133243 0.000134697 -7.44635e-05
-0.000667516 0.000199366 0.000200636 -6.61795e-05
-0.000658438 0.000196667 0.000197902 -6.61788e-05
-0.000218406 6.44764e-05 6.59698e-05 -7.94379e-05
-0.000221456 6.5362e-05 6.68972e-05 -7.9439e-05
-0.000662977 0.000198017 0.000199269 -6.61791e-05
-0.000438439 0.000130555 0.00013195 -7.44621e-05
-0.000219931 6.49193e-05 6.64335e-05 -7.94385e-05
-0.000444504 0.000132347 0.000133781 -7.4463e-05
-0.000441471 0.000131451 0.000132866 -7.44626e-05
-0.000658438 0.000196667 0.000197902 -6.61788e-05
-0.000649361 0.000193968 0.000195168 -6.61782e-05
-0.000215357 6.35905e-05 6.50428e-05 -7.94369e-05
-0.000218406 6.44764e-05 6.59698e-05 -7.94379e-05
-0.000653899 0.000195318 0.000196535 -6.61785e-05
-0.000432376 0.000128763 0.00013012 -7.44613e-05
-0.000216881 6.40335e-05 6.55063e-05 -7.94374e-05
-0.000438439 0.000130555 0.00013195 -7.44621e-05
-0.000435407 0.000129659 0.000131035 -7.44617e-05
-0.000649361 0.000193968 0.000195168 -6.61782e-05
-0.000640284 0.000191268 0.000192435 -6.61776e-05
-0.000212308 6.27044e-05 6.4116e-05 -7.94358e-05
-0.000215357 6.35905e-05 6.50428e-05 -7.94369e-05
-0.000644822 0.000192618 0.000193802 -6.61779e-05
-0.000426312 0.000126971 0.000128289 -7.44604e-05
-0.000213833 6.31475e-05 6.45793e-05 -7.94363e-05
-0.000432376 0.000128763 0.00013012 -7.44613e-05
-0.000429344 0.000127867 0.000129205 -7.44608e-05
-0.000640284 0.000191268 0.000192435 -6.61776e-05
-0.000631207 0.000188569 0.000189702 -6.61769e-05
-0.00020926 6.1818e-05 6.31896e-05 -7.94347e-05
-0.000212308 6.27044e-05 6.4116e-05 -7.94358e-05
-0.000635746 0.000189919 0.000191069 -6.61772e-05
-0.00042025 0.000125178 0.000126459 -7.44596e-05
-0.000210784 6.22612e-05 6.36527e-05 -7.94353e-05
-0.000426312 0.000126971 0.000128289 -7.44604e-05
-0.000423281 0.000126074 0.000127374 -7.446e-05
-0.000631207 0.000188569 0.000189702 -6.61769e-05
-0.000622131 0.000185869 0.00018697 -6.61763e-05
-0.000206213 6.09314e-05 6.22635e-05 -7.94337e-05
-0.00020926 6.1818e-05 6.31896e-05 -7.94347e-05
-0.000626669 0.000187219 0.000188336 -6.61766e-05
-0.000414188 0.000123385 0.00012463 -7.44587e-05
-0.000207737 6.13747e-05 6.27265e-05 -7.94342e-05
-0.00042025 0.000125178 0.000126459 -7.44596e-05
-0.000417219 0.000124282 0.000125544 -7.44591e-05
-0.000622131 0.000185869 0.00018697 -6.61763e-05
-0.000613056 0.000183169 0.000184237 -6.61757e-05
-0.000203166 6.00445e-05 6.13377e-05 -7.94326e-05
-0.000206213 6.09314e-05 6.22635e-05 -7.94337e-05
-0.000617594 0.000184519 0.000185603 -6.6176e-05
-0.000408126 0.000121592 0.0001228 -7.44579e-05
-0.000204689 6.0488e-05 6.18005e-05 -7.94332e-05
-0.000414188 0.000123385 0.00012463 -7.44587e-05
-0.000411157 0.000122489 0.000123715 -7.44583e-05
-0.000613056 0.000183169 0.000184237 -6.61757e-05
-0.000603981 0.000180469 0.000181505 -6.61751e-05
-0.000200119 5.91574e-05 6.04122e-05 -7.94316e-05
-0.000203166 6.00445e-05 6.13377e-05 -7.94326e-05
-0.000608519 0.000181819 0.000182871 -6.61754e-05
-0.000402065 0.000119799 0.000120971 -7.44571e-05
-0.000201642 5.9601e-05 6.08749e-05 -7.94321e-05
-0.000408126 0.000121592 0.0001228 -7.44579e-05
-0.000405095 0.000120696 0.000121886 -7.44575e-05
-0.000603981 0.000180469 0.000181505 -6.61751e-05
-0.000594907 0.000177769 0.000178774 -6.61746e-05
-0.000197073 5.82701e-05 5.9487e-05 -7.94306e-05
-0.000200119 5.91574e-05 6.04122e-05 -7.94316e-05
-0.000599444 0.000179119 0.000180139 -6.61749e-05
-0.000396004 0.000118006 0.000119142 -7.44563e-05
-0.000198596 5.87138e-05 5.99496e-05 -7.94311e-05
-0.000402065 0.000119799 0.000120971 -7.44571e-05
-0.000399035 0.000118902 0.000120057 -7.44567e-05
-0.000594907 0.000177769 0.000178774 -6.61746e-05
-0.000585833 0.000175068 0.000176042 -6.6174e-05
-0.000194028 5.73824e-05 5.85622e-05 -7.94296e-05
-0.000197073 5.82701e-05 5.9487e-05 -7.94306e-05
-0.00059037 0.000176418 0.000177408 -6.61743e-05
-0.000389944 0.000116212 0.000117314 -7.44555e-05
-0.00019555 5.78263e-05 5.90246e-05 -7.94301e-05
-0.000396004 0.000118006 0.000119142 -7.44563e-05
-0.000392974 0.000117109 0.000118228 -7.44559e-05
-0.000585833 0.000175068 0.000176042 -6.6174e-05
-0.00057676 0.000172367 0.000173311 -6.61735e-05
-0.000190983 5.64946e-05 5.76377e-05 -7.94286e-05
-0.000194028 5.73824e-05 5.85622e-05 -7.94296e-05
-0.000581297 0.000173718 0.000174677 -6.61737e-05
-0.000383885 0.000114418 0.000115486 -7.44547e-05
-0.000192505 5.69385e-05 5.80999e-05 -7.94291e-05
-0.000389944 0.000116212 0.000117314 -7.44555e-05
-0.000386914 0.000115315 0.0001164 -7.44551e-05
-0.00057676 0.000172367 0.000173311 -6.61735e-05
-0.000567688 0.000169667 0.00017058 -6.61729e-05
-0.000187938 5.56065e-05 5.67135e-05 -7.94277e-05
-0.000190983 5.64946e-05 5.76377e-05 -7.94286e-05
-0.000572224 0.000171017 0.000171946 -6.61732e-05
-0.000377826 0.000112624 0.000113658 -7.4454e-05
-0.00018946 5.60505e-05 5.71756e-05 -7.94281e-05
-0.000383885 0.000114418 0.000115486 -7.44547e-05
-0.000380855 0.000113521 0.000114572 -7.44544e-05
-0.000567688 0.000169667 0.00017058 -6.61729e-05
-0.000558615 0.000166966 0.00016785 -6.61724e-05
-0.000184894 5.47181e-05 5.57897e-05 -7.94267e-05
-0.000187938 5.56065e-05 5.67135e-05 -7.94277e-05
-0.000563151 0.000168316 0.000169215 -6.61726e-05
-0.000371767 0.00011083 0.00011183 -7.44532e-05
-0.000186416 5.51623e-05 5.62515e-05 -7.94272e-05
-0.000377826 0.000112624 0.000113658 -7.4454e-05
-0.000374796 0.000111727 0.000112744 -7.44536e-05
-0.000558615 0.000166966 0.00016785 -6.61724e-05
-0.000549544 0.000164264 0.00016512 -6.61719e-05
-0.00018185 5.38295e-05 5.48661e-05 -7.94258e-05
-0.000184894 5.47181e-05 5.57897e-05 -7.94267e-05
-0.00055408 0.000165615 0.000166485 -6.61721e-05
-0.000365709 0.000109035 0.000110003 -7.44525e-05
-0.000183372 5.42738e-05 5.53278e-05 -7.94262e-05
-0.000371767 0.00011083 0.00011183 -7.44532e-05
-0.000368738 0.000109933 0.000110917 -7.44529e-05
-0.000549544 0.000164264 0.00016512 -6.61719e-05
-0.000540473 0.000161563 0.00016239 -6.61714e-05
-0.000178807 5.29406e-05 5.39429e-05 -7.94248e-05
-0.00018185 5.38295e-05 5.48661e-05 -7.94258e-05
-0.000545008 0.000162914 0.000163755 -6.61716e-05
-0.000359652 0.000107241 0.000108176 -7.44518e-05
-0.000180329 5.33851e-05 5.44044e-05 -7.94253e-05
-0.000365709 0.000109035 0.000110003 -7.44525e-05
-0.00036268 0.000108138 0.00010909 -7.44521e-05
-0.000540473 0.000161563 0.00016239 -6.61714e-05
-0.000531402 0.000158862 0.00015966 -6.61709e-05
-0.000175765 5.20515e-05 5.302e-05 -7.94239e-05
-0.000178807 5.29406e-05 5.39429e-05 -7.94248e-05
-0.000535937 0.000160212 0.000161025 -6.61711e-05
-0.000353595 0.000105446 0.00010635 -7.44511e-05
-0.000177286 5.24961e-05 5.34814e-05 -7.94244e-05
-0.000359652 0.000107241 0.000108176 -7.44518e-05
-0.000356623 0.000106343 0.000107263 -7.44514e-05
-0.000531402 0.000158862 0.00015966 -6.61709e-05
-0.000522332 0.00015616 0.000156931 -6.61704e-05
-0.000172723 5.11622e-05 5.20974e-05 -7.9423e-05
-0.000175765 5.20515e-05 5.302e-05 -7.94239e-05
-0.000526867 0.000157511 0.000158296 -6.61706e-05
-0.000347538 0.00010365 0.000104523 -7.44504e-05
-0.000174244 5.16069e-05 5.25586e-05 -7.94235e-05
-0.000353595 0.000105446 0.00010635 -7.44511e-05
-0.000350567 0.000104548 0.000105437 -7.44507e-05
-0.000522332 0.00015616 0.000156931 -6.61704e-05
-0.000513263 0.000153458 0.000154202 -6.61699e-05
-0.000169681 5.02726e-05 5.11751e-05 -7.94221e-05
-0.000172723 5.11622e-05 5.20974e-05 -7.9423e-05
-0.000517797 0.000154809 0.000155566 -6.61701e-05
-0.000341483 0.000101855 0.000102697 -7.44497e-05
-0.000171202 5.07174e-05 5.16362e-05 -7.94226e-05
-0.000347538 0.00010365 0.000104523 -7.44504e-05
-0.00034451 0.000102753 0.00010361 -7.445e-05
-0.000513263 0.000153458 0.000154202 -6.61699e-05
-0.000504194 0.000150756 0.000151473 -6.61694e-05
-0.00016664 4.93827e-05 5.02532e-05 -7.94213e-05
-0.000169681 5.02726e-05 5.11751e-05 -7.94221e-05
-0.000508728 0.000152107 0.000152838 -6.61697e-05
-0.000335427 0.00010006 0.000100872 -7.4449e-05
-0.000168161 4.98277e-05 5.07141e-05 -7.94217e-05
-0.000341483 0.000101855 0.000102697 -7.44497e-05
-0.000338455 0.000100957 0.000101785 -7.44494e-05
-0.000504194 0.000150756 0.000151473 -6.61694e-05
-0.000495125 0.000148054 0.000148745 -6.6169e-05
-0.000163599 4.84926e-05 4.93315e-05 -7.94204e-05
-0.00016664 4.93827e-05 5.02532e-05 -7.94213e-05
-0.00049966 0.000149405 0.000150109 -6.61692e-05
-0.000329372 9.82637e-05 9.90466e-05 -7.44484e-05
-0.00016512 4.89377e-05 4.97923e-05 -7.94208e-05
-0.000335427 0.00010006 0.000100872 -7.4449e-05
-0.0003324 9.91617e-05 9.99592e-05 -7.44487e-05
-0.000495125 0.000148054 0.000148745 -6.6169e-05
-0.000486058 0.000145352 0.000146017 -6.61686e-05
-0.000160559 4.76022e-05 4.84102e-05 -7.94196e-05
-0.000163599 4.84926e-05 4.93315e-05 -7.94204e-05
-0.000490591 0.000146703 0.000147381 -6.61688e-05
-0.000323318 9.64677e-05 9.72216e-05 -7.44477e-05
-0.000162079 4.80474e-05 4.88708e-05 -7.942e-05
-0.000329372 9.82637e-05 9.90466e-05 -7.44484e-05
-0.000326345 9.73658e-05 9.8134e-05 -7.44481e-05
-0.000486058 0.000145352 0.000146017 -6.61686e-05
-0.00047699 0.000142649 0.000143289 -6.61681e-05
-0.00015752 4.67116e-05 4.74892e-05 -7.94187e-05
-0.000160559 4.76022e-05 4.84102e-05 -7.94196e-05
-0.000481524 0.000144 0.000144653 -6.61684e-05
-0.000317264 9.46715e-05 9.53969e-05 -7.44471e-05
-0.00015904 4.7157e-05 4.79497e-05 -7.94191e-05
-0.000323318 9.64677e-05 9.72216e-05 -7.44477e-05
-0.000320291 9.55696e-05 9.63092e-05 -7.44474e-05
-0.00047699 0.000142649 0.000143289 -6.61681e-05
-0.000467923 0.000139946 0.000140562 -6.61677e-05
-0.000154481 4.58208e-05 4.65685e-05 -7.94179e-05
-0.00015752 4.67116e-05 4.74892e-05 -7.94187e-05
-0.000472457 0.000141298 0.000141925 -6.61679e-05
-0.000311211 9.2875e-05 9.35725e-05 -7.44465e-05
-0.000156 4.62662e-05 4.70288e-05 -7.94183e-05
-0.000317264 9.46715e-05 9.53969e-05 -7.44471e-05
-0.000314237 9.37733e-05 9.44847e-05 -7.44468e-05
-0.000467923 0.000139946 0.000140562 -6.61677e-05
-0.000458857 0.000137243 0.000137834 -6.61673e-05
-0.000151442 4.49297e-05 4.56482e-05 -7.94171e-05
-0.000154481 4.58208e-05 4.65685e-05 -7.94179e-05
-0.00046339 0.000138595 0.000139198 -6.61675e-05
-0.000305158 9.10783e-05 9.17484e-05 -7.44459e-05
-0.000152961 4.53752e-05 4.61083e-05 -7.94175e-05
-0.000311211 9.2875e-05 9.35725e-05 -7.44465e-05
-0.000308184 9.19767e-05 9.26604e-05 -7.44462e-05
-0.000458857 0.000137243 0.000137834 -6.61673e-05
-0.000449791 0.00013454 0.000135107 -6.6167e-05
-0.000148404 4.40383e-05 4.47281e-05 -7.94164e-05
-0.000151442 4.49297e-05 4.56482e-05 -7.94171e-05
-0.000454324 0.000135892 0.000136471 -6.61672e-05
-0.000299106 8.92814e-05 8.99247e-05 -7.44453e-05
-0.000149923 4.4484e-05 4.51881e-05 -7.94167e-05
-0.000305158 9.10783e-05 9.17484e-05 -7.44459e-05
-0.000302132 9.01799e-05 9.08365e-05 -7.44456e-05
-0.000449791 0.00013454 0.000135107 -6.6167e-05
-0.000440726 0.000131837 0.000132381 -6.61666e-05
-0.000145366 4.31467e-05 4.38084e-05 -7.94156e-05
-0.000148404 4.40383e-05 4.47281e-05 -7.94164e-05
-0.000445258 0.000133189 0.000133744 -6.61668e-05
-0.000293054 8.74843e-05 8.81013e-05 -7.44448e-05
-0.000146885 4.35925e-05 4.42682e-05 -7.9416e-05
-0.000299106 8.92814e-05 8.99247e-05 -7.44453e-05
-0.00029608 8.83829e-05 8.90129e-05 -7.44451e-05
-0.000440726 0.000131837 0.000132381 -6.61666e-05
-0.000431661 0.000129134 0.000129655 -6.61662e-05
-0.000142329 4.22548e-05 4.2889e-05 -7.94148e-05
-0.000145366 4.31467e-05 4.38084e-05 -7.94156e-05
-0.000436193 0.000130485 0.000131018 -6.61664e-05
-0.000287003 8.56869e-05 8.62781e-05 -7.44442e-05
-0.000143848 4.27008e-05 4.33487e-05 -7.94152e-05
-0.000293054 8.74843e-05 8.81013e-05 -7.44448e-05
-0.000290028 8.65856e-05 8.71897e-05 -7.44445e-05
-0.000431661 0.000129134 0.000129655 -6.61662e-05
-0.000422597 0.00012643 0.000126929 -6.61659e-05
-0.000139293 4.13627e-05 4.19699e-05 -7.94141e-05
-0.000142329 4.22548e-05 4.2889e-05 -7.94148e-05
-0.000427129 0.000127782 0.000128292 -6.61661e-05
-0.000280952 8.38894e-05 8.44553e-05 -7.44437e-05
-0.000140811 4.18088e-05 4.24294e-05 -7.94145e-05
-0.000287003 8.56869e-05 8.62781e-05 -7.44442e-05
-0.000283977 8.47882e-05 8.53667e-05 -7.4444e-05
-0.000422597 0.00012643 0.000126929 -6.61659e-05
-0.000413533 0.000123726 0.000124203 -6.61656e-05
-0.000136256 4.04703e-05 4.10512e-05 -7.94134e-05
-0.000139293 4.13627e-05 4.19699e-05 -7.94141e-05
-0.000418065 0.000125078 0.000125566 -6.61657e-05
-0.000274902 8.20916e-05 8.26328e-05 -7.44432e-05
-0.000137774 4.09166e-05 4.15105e-05 -7.94138e-05
-0.000280952 8.38894e-05 8.44553e-05 -7.44437e-05
-0.000277927 8.29905e-05 8.35441e-05 -7.44434e-05
-0.000413533 0.000123726 0.000124203 -6.61656e-05
-0.000404469 0.000121022 0.000121477 -6.61653e-05
-0.000133221 3.95777e-05 4.01327e-05 -7.94127e-05
-0.000136256 4.04703e-05 4.10512e-05 -7.94134e-05
-0.000409001 0.000122374 0.00012284 -6.61654e-05
-0.000268852 8.02936e-05 8.08107e-05 -7.44427e-05
-0.000134738 4.00241e-05 4.05919e-05 -7.94131e-05
-0.000274902 8.20916e-05 8.26328e-05 -7.44432e-05
-0.000271877 8.11926e-05 8.17217e-05 -7.44429e-05
-0.000404469 0.000121022 0.000121477 -6.61653e-05
-0.000395407 0.000118318 0.000118752 -6.6165e-05
-0.000130186 3.86849e-05 3.92146e-05 -7.9412e-05
-0.000133221 3.95777e-05 4.01327e-05 -7.94127e-05
-0.000399938 0.00011967 0.000120115 -6.61651e-05
-0.000262802 7.84953e-05 7.89888e-05 -7.44422e-05
-0.000131703 3.91313e-05 3.96736e-05 -7.94124e-05
-0.000268852 8.02936e-05 8.08107e-05 -7.44427e-05
-0.000265827 7.93945e-05 7.98997e-05 -7.44424e-05
-0.000395407 0.000118318 0.000118752 -6.6165e-05
-0.000386344 0.000115614 0.000116027 -6.61647e-05
-0.000127151 3.77917e-05 3.82967e-05 -7.94114e-05
-0.000130186 3.86849e-05 3.92146e-05 -7.9412e-05
-0.000390875 0.000116966 0.00011739 -6.61648e-05
-0.000256754 7.66969e-05 7.71672e-05 -7.44417e-05
-0.000128668 3.82383e-05 3.87556e-05 -7.94117e-05
-0.000262802 7.84953e-05 7.89888e-05 -7.44422e-05
-0.000259778 7.75961e-05 7.8078e-05 -7.4442e-05
-0.000386344 0.000115614 0.000116027 -6.61647e-05
-0.000377282 0.000112909 0.000113303 -6.61644e-05
-0.000124117 3.68984e-05 3.73792e-05 -7.94107e-05
-0.000127151 3.77917e-05 3.82967e-05 -7.94114e-05
-0.000381813 0.000114261 0.000114665 -6.61645e-05
-0.000250705 7.48982e-05 7.53459e-05 -7.44413e-05
-0.000125634 3.73451e-05 3.7838e-05 -7.9411e-05
-0.000256754 7.66969e-05 7.71672e-05 -7.44417e-05
-0.000253729 7.57976e-05 7.62565e-05 -7.44415e-05
-0.000377282 0.000112909 0.000113303 -6.61644e-05
-0.000368221 0.000110204 0.000110579 -6.61642e-05
-0.000121083 3.60047e-05 3.64621e-05 -7.94101e-05
-0.000124117 3.68984e-05 3.73792e-05 -7.94107e-05
-0.000372752 0.000111557 0.000111941 -6.61643e-05
-0.000244658 7.30993e-05 7.3525e-05 -7.44408e-05
-0.0001226 3.64516e-05 3.69206e-05 -7.94104e-05
-0.000250705 7.48982e-05 7.53459e-05 -7.44413e-05
-0.000247681 7.39988e-05 7.44354e-05 -7.4441e-05
-0.000368221 0.000110204 0.000110579 -6.61642e-05
-0.00035916 0.000107499 0.000107855 -6.61639e-05
-0.00011805 3.51109e-05 3.55452e-05 -7.94095e-05
-0.000121083 3.60047e-05 3.64621e-05 -7.94101e-05
-0.000363691 0.000108852 0.000109217 -6.6164e-05
-0.00023861 7.13001e-05 7.17044e-05 -7.44404e-05
-0.000119566 3.55578e-05 3.60036e-05 -7.94098e-05
-0.000244658 7.30993e-05 7.3525e-05 -7.44408e-05
-0.000241634 7.21997e-05 7.26146e-05 -7.44406e-05
-0.00035916 0.000107499 0.000107855 -6.61639e-05
-0.0003501 0.000104794 0.000105131 -6.61637e-05
-0.000115017 3.42167e-05 3.46286e-05 -7.94089e-05
-0.00011805 3.51109e-05 3.55452e-05 -7.94095e-05
-0.00035463 0.000106147 0.000106493 -6.61638e-05
-0.000232564 6.95008e-05 6.9884e-05 -7.444e-05
-0.000116533 3.46638e-05 3.50869e-05 -7.94092e-05
-0.00023861 7.13001e-05 7.17044e-05 -7.44404e-05
-0.000235587 7.04005e-05 7.07941e-05 -7.44402e-05
-0.0003501 0.000104794 0.000105131 -6.61637e-05
-0.00034104 0.000102089 0.000102408 -6.61635e-05
-0.000111985 3.33223e-05 3.37124e-05 -7.94083e-05
-0.000115017 3.42167e-05 3.46286e-05 -7.94089e-05
-0.00034557 0.000103442 0.000103769 -6.61636e-05
-0.000226517 6.77012e-05 6.8064e-05 -7.44396e-05
-0.000113501 3.37696e-05 3.41705e-05 -7.94086e-05
-0.000232564 6.95008e-05 6.9884e-05 -7.444e-05
-0.00022954 6.8601e-05 6.8974e-05 -7.44398e-05
-0.00034104 0.000102089 0.000102408 -6.61635e-05
-0.000331981 9.93836e-05 9.96845e-05 -6.61633e-05
-0.000108953 3.24277e-05 3.27965e-05 -7.94078e-05
-0.000111985 3.33223e-05 3.37124e-05 -7.94083e-05
-0.00033651 0.000100736 0.000101046 -6.61634e-05
-0.000220471 6.59014e-05 6.62443e-05 -7.44392e-05
-0.000110469 3.28751e-05 3.32544e-05 -7.9408e-05
-0.000226517 6.77012e-05 6.8064e-05 -7.44396e-05
-0.000223494 6.68013e-05 6.71541e-05 -7.44394e-05
-0.000331981 9.93836e-05 9.96845e-05 -6.61633e-05
-0.000322922 9.6678e-05 9.69617e-05 -6.61631e-05
-0.000105921 3.15328e-05 3.18809e-05 -7.94072e-05
-0.000108953 3.24277e-05 3.27965e-05 -7.94078e-05
-0.000327451 9.80308e-05 9.8323e-05 -6.61632e-05
-0.000214426 6.41014e-05 6.44249e-05 -7.44389e-05
-0.000107437 3.19803e-05 3.23386e-05 -7.94075e-05
-0.000220471 6.59014e-05 6.62443e-05 -7.44392e-05
-0.000217449 6.50014e-05 6.53345e-05 -7.44391e-05
-0.000322922 9.6678e-05 9.69617e-05 -6.61631e-05
-0.000313863 9.39721e-05 9.42391e-05 -6.61629e-05
-0.000102891 3.06377e-05 3.09656e-05 -7.94067e-05
-0.000105921 3.15328e-05 3.18809e-05 -7.94072e-05
-0.000318393 9.53251e-05 9.56004e-05 -6.6163e-05
-0.000208381 6.23011e-05 6.26058e-05 -7.44385e-05
-0.000104406 3.10853e-05 3.14232e-05 -7.9407e-05
-0.000214426 6.41014e-05 6.44249e-05 -7.44389e-05
-0.000211404 6.32013e-05 6.35153e-05 -7.44387e-05
-0.000313863 9.39721e-05 9.42391e-05 -6.61629e-05
-0.000304806 9.12661e-05 9.15169e-05 -6.61628e-05
-9.98603e-05 2.97423e-05 3.00506e-05 -7.94062e-05
-0.000102891 3.06377e-05 3.09656e-05 -7.94067e-05
-0.000309334 9.26192e-05 9.2878e-05 -6.61628e-05
-0.000202337 6.05006e-05 6.0787e-05 -7.44382e-05
-0.000101375 3.019e-05 3.0508e-05 -7.94064e-05
-0.000208381 6.23011e-05 6.26058e-05 -7.44385e-05
-0.000205359 6.14009e-05 6.16963e-05 -7.44384e-05
-0.000304806 9.12661e-05 9.15169e-05 -6.61628e-05
-0.000295748 8.85599e-05 8.87949e-05 -6.61626e-05
-9.68304e-05 2.88466e-05 2.91359e-05 -7.94057e-05
-9.98603e-05 2.97423e-05 3.00506e-05 -7.94062e-05
-0.000300277 8.9913e-05 9.01559e-05 -6.61627e-05
-0.000196293 5.86999e-05 5.89685e-05 -7.44379e-05
-9.83453e-05 2.92945e-05 2.95932e-05 -7.9406e-05
-0.000202337 6.05006e-05 6.0787e-05 -7.44382e-05
-0.000199315 5.96003e-05 5.98777e-05 -7.44381e-05
-0.000295748 8.85599e-05 8.87949e-05 -6.61626e-05
-0.000286691 8.58535e-05 8.60733e-05 -6.61625e-05
-9.3801e-05 2.79507e-05 2.82216e-05 -7.94052e-05
-9.68304e-05 2.88466e-05 2.91359e-05 -7.94057e-05
-0.00029122 8.72067e-05 8.74341e-05 -6.61626e-05
-0.00019025 5.68989e-05 5.71503e-05 -7.44376e-05
-9.53157e-05 2.83987e-05 2.86787e-05 -7.94055e-05
-0.000196293 5.86999e-05 5.89685e-05 -7.44379e-05
-0.000193271 5.77994e-05 5.80593e-05 -7.44378e-05
-0.000286691 8.58535e-05 8.60733e-05 -6.61625e-05
-0.000277635 8.31469e-05 8.33519e-05 -6.61624e-05
-9.07721e-05 2.70545e-05 2.73075e-05 -7.94048e-05
-9.3801e-05 2.79507e-05 2.82216e-05 -7.94052e-05
-0.000282163 8.45002e-05 8.47125e-05 -6.61624e-05
-0.000184207 5.50977e-05 5.53324e-05 -7.44373e-05
-9.22865e-05 2.75026e-05 2.77645e-05 -7.9405e-05
-0.00019025 5.68989e-05 5.71503e-05 -7.44376e-05
-0.000187228 5.59984e-05 5.62413e-05 -7.44375e-05
-0.000277635 8.31469e-05 8.33519e-05 -6.61624e-05
-0.000268579 8.04401e-05 8.06308e-05 -6.61623e-05
-8.77436e-05 2.6158e-05 2.63938e-05 -7.94043e-05
-9.07721e-05 2.70545e-05 2.73075e-05 -7.94048e-05
-0.000273107 8.17935e-05 8.19913e-05 -6.61623e-05
-0.000178164 5.32963e-05 5.35148e-05 -7.44371e-05
-8.92578e-05 2.66063e-05 2.68507e-05 -7.94046e-05
-0.000184207 5.50977e-05 5.53324e-05 -7.44373e-05
-0.000181185 5.4197e-05 5.44236e-05 -7.44372e-05
-0.000268579 8.04401e-05 8.06308e-05 -6.61623e-05
-0.000259523 7.77331e-05 7.791e-05 -6.61621e-05
-8.47156e-05 2.52613e-05 2.54804e-05 -7.94039e-05
-8.77436e-05 2.6158e-05 2.63938e-05 -7.94043e-05
-0.000264051 7.90867e-05 7.92703e-05 -6.61622e-05
-0.000172122 5.14946e-05 5.16976e-05 -7.44368e-05
-8.62296e-05 2.57097e-05 2.59371e-05 -7.94041e-05
-0.000178164 5.32963e-05 5.35148e-05 -7.44371e-05
-0.000175143 5.23955e-05 5.26062e-05 -7.44369e-05
-0.000259523 7.77331e-05 7.791e-05 -6.61621e-05
-0.000250468 7.50259e-05 7.51895e-05 -6.6162e-05
-8.16881e-05 2.43643e-05 2.45673e-05 -7.94035e-05
-8.47156e-05 2.52613e-05 2.54804e-05 -7.94039e-05
-0.000254995 7.63796e-05 7.65497e-05 -6.61621e-05
-0.000166081 4.96927e-05 4.98806e-05 -7.44365e-05
-8.32018e-05 2.48128e-05 2.50238e-05 -7.94037e-05
-0.000172122 5.14946e-05 5.16976e-05 -7.44368e-05
-0.000169101 5.05937e-05 5.07891e-05 -7.44367e-05
-0.000250468 7.50259e-05 7.51895e-05 -6.6162e-05
-0.000241413 7.23185e-05 7.24692e-05 -6.61619e-05
-7.8661e-05 2.3467e-05 2.36546e-05 -7.94031e-05
-8.16881e-05 2.43643e-05 2.45673e-05 -7.94035e-05
-0.000245941 7.36722e-05 7.38293e-05 -6.6162e-05
-0.00016004 4.78905e-05 4.80639e-05 -7.44362e-05
-8.01745e-05 2.39157e-05 2.41109e-05 -7.94033e-05
-0.000166081 4.96927e-05 4.98806e-05 -7.44365e-05
-0.00016306 4.87916e-05 4.89722e-05 -7.44364e-05
-0.000241413 7.23185e-05 7.24692e-05 -6.61619e-05
-0.000232359 6.96109e-05 6.97492e-05 -6.61617e-05
-7.56343e-05 2.25694e-05 2.27421e-05 -7.94027e-05
-7.8661e-05 2.3467e-05 2.36546e-05 -7.94031e-05
-0.000236886 7.09647e-05 7.11092e-05 -6.61618e-05
-0.000153999 4.60881e-05 4.62476e-05 -7.4436e-05
-7.71476e-05 2.30182e-05 2.31983e-05 -7.94029e-05
-0.00016004 4.78905e-05 4.80639e-05 -7.44362e-05
-0.000157019 4.69893e-05 4.71557e-05 -7.44361e-05
-0.000232359 6.96109e-05 6.97492e-05 -6.61617e-05
-0.000223305 6.69031e-05 6.70296e-05 -6.61616e-05
-7.26081e-05 2.16715e-05 2.18299e-05 -7.94022e-05
-7.56343e-05 2.25694e-05 2.27421e-05 -7.94027e-05
-0.000227832 6.8257e-05 6.83894e-05 -6.61616e-05
-0.000147959 4.42854e-05 4.44315e-05 -7.44357e-05
-7.41211e-05 2.21205e-05 2.2286e-05 -7.94025e-05
-0.000153999 4.60881e-05 4.62476e-05 -7.4436e-05
-0.000150979 4.51867e-05 4.53395e-05 -7.44358e-05
-0.000223305 6.69031e-05 6.70296e-05 -6.61616e-05
-0.000214252 6.4195e-05 6.43102e-05 -6.61614e-05
-6.95822e-05 2.07734e-05 2.09181e-05 -7.94018e-05
-7.26081e-05 2.16715e-05 2.18299e-05 -7.94022e-05
-0.000218779 6.55491e-05 6.56698e-05 -6.61615e-05
-0.000141919 4.24824e-05 4.26158e-05 -7.44354e-05
-7.10951e-05 2.12225e-05 2.1374e-05 -7.9402e-05
-0.000147959 4.42854e-05 4.44315e-05 -7.44357e-05
-0.000144939 4.33839e-05 4.35236e-05 -7.44355e-05
-0.000214252 6.4195e-05 6.43102e-05 -6.61614e-05
-0.000205199 6.14868e-05 6.1591e-05 -6.61611e-05
-6.65568e-05 1.98749e-05 2.00065e-05 -7.94014e-05
-6.95822e-05 2.07734e-05 2.09181e-05 -7.94018e-05
-0.000209726 6.28409e-05 6.29506e-05 -6.61612e-05
-0.00013588 4.06792e-05 4.08003e-05 -7.4435e-05
-6.80694e-05 2.03242e-05 2.04623e-05 -7.94016e-05
-0.000141919 4.24824e-05 4.26158e-05 -7.44354e-05
-0.000138899 4.15808e-05 4.1708e-05 -7.44352e-05
-0.000205199 6.14868e-05 6.1591e-05 -6.61611e-05
-0.000196147 5.87784e-05 5.88722e-05 -6.61609e-05
-6.35318e-05 1.89763e-05 1.90952e-05 -7.94009e-05
-6.65568e-05 1.98749e-05 2.00065e-05 -7.94014e-05
-0.000200673 6.01326e-05 6.02316e-05 -6.6161e-05
-0.000129841 3.88759e-05 3.89851e-05 -7.44346e-05
-6.50442e-05 1.94256e-05 1.95508e-05 -7.94011e-05
-0.00013588 4.06792e-05 4.08003e-05 -7.4435e-05
-0.00013286 3.97776e-05 3.98926e-05 -7.44348e-05
-0.000196147 5.87784e-05 5.88722e-05 -6.61609e-05
-0.000187095 5.607e-05 5.61535e-05 -6.61606e-05
-6.05072e-05 1.80775e-05 1.81842e-05 -7.94004e-05
-6.35318e-05 1.89763e-05 1.90952e-05 -7.94009e-05
-0.000191621 5.74242e-05 5.75128e-05 -6.61607e-05
-0.000123803 3.70724e-05 3.71701e-05 -7.44343e-05
-6.20194e-05 1.85269e-05 1.86396e-05 -7.94007e-05
-0.000129841 3.88759e-05 3.89851e-05 -7.44346e-05
-0.000126822 3.79741e-05 3.80775e-05 -7.44345e-05
-0.000187095 5.607e-05 5.61535e-05 -6.61606e-05
-0.000178043 5.33615e-05 5.34351e-05 -6.61605e-05
-5.74831e-05 1.71787e-05 1.72733e-05 -7.93999e-05
-6.05072e-05 1.80775e-05 1.81842e-05 -7.94004e-05
-0.000182569 5.47157e-05 5.47943e-05 -6.61605e-05
-0.000117765 3.52689e-05 3.53554e-05 -7.44339e-05
-5.89951e-05 1.76281e-05 1.77287e-05 -7.94001e-05
-0.000123803 3.70724e-05 3.71701e-05 -7.44343e-05
-0.000120784 3.61706e-05 3.62627e-05 -7.44341e-05
-0.000178043 5.33615e-05 5.34351e-05 -6.61605e-05
-0.000168993 5.06532e-05 5.07169e-05 -6.61605e-05
-5.44597e-05 1.62801e-05 1.63627e-05 -7.93993e-05
-5.74831e-05 1.71787e-05 1.72733e-05 -7.93999e-05
-0.000173518 5.20073e-05 5.2076e-05 -6.61604e-05
-0.000111728 3.34656e-05 3.35408e-05 -7.44336e-05
-5.59713e-05 1.67294e-05 1.6818e-05 -7.93996e-05
-0.000117765 3.52689e-05 3.53554e-05 -7.44339e-05
-0.000114746 3.43672e-05 3.44481e-05 -7.44338e-05
-0.000168993 5.06532e-05 5.07169e-05 -6.61605e-05
-0.000159943 4.79451e-05 4.79989e-05 -6.61608e-05
-5.14371e-05 1.53819e-05 1.54522e-05 -7.93989e-05
-5.44597e-05 1.62801e-05 1.63627e-05 -7.93993e-05
-0.000164468 4.92991e-05 4.93579e-05 -6.61606e-05
-0.000105691 3.16627e-05 3.17265e-05 -7.44336e-05
-5.29483e-05 1.58309e-05 1.59075e-05 -7.93991e-05
-0.000111728 3.34656e-05 3.35408e-05 -7.44336e-05
-0.000108709 3.25641e-05 3.26336e-05 -7.44336e-05
-0.000159943 4.79451e-05 4.79989e-05 -6.61608e-05
-0.000150893 4.52373e-05 4.52811e-05 -6.61618e-05
-4.84157e-05 1.44845e-05 1.45419e-05 -7.93988e-05
-5.14371e-05 1.53819e-05 1.54522e-05 -7.93989e-05
-0.000155418 4.65912e-05 4.664e-05 -6.61612e-05
-9.96557e-05 2.98602e-05 2.99124e-05 -7.44341e-05
-4.99262e-05 1.49331e-05 1.4997e-05 -7.93988e-05
-0.000105691 3.16627e-05 3.17265e-05 -7.44336e-05
-0.000102673 3.07614e-05 3.08194e-05 -7.44338e-05
-0.000150893 4.52373e-05 4.52811e-05 -6.61618e-05
-0.000141845 4.25296e-05 4.25636e-05 -6.61636e-05
-4.53954e-05 1.35882e-05 1.36317e-05 -7.93998e-05
-4.84157e-05 1.44845e-05 1.45419e-05 -7.93988e-05
-0.000146369 4.38835e-05 4.39223e-05 -6.61626e-05
-9.36212e-05 2.80581e-05 2.80984e-05 -7.44357e-05
-4.69054e-05 1.40362e-05 1.40868e-05 -7.93991e-05
-9.96557e-05 2.98602e-05 2.99124e-05 -7.44341e-05
-9.66383e-05 2.89591e-05 2.90054e-05 -7.44348e-05
-0.000141845 4.25296e-05 4.25636e-05 -6.61636e-05
-0.000132796 3.98209e-05 3.98464e-05 -6.61668e-05
-4.23768e-05 1.26929e-05 1.27217e-05 -7.94033e-05
-4.53954e-05 1.35882e-05 1.36317e-05 -7.93998e-05
-0.00013732 4.11755e-05 4.1205e-05 -6.6165e-05
-8.75871e-05 2.62557e-05 2.62849e-05 -7.44395e-05
-4.38858e-05 1.31404e-05 1.31766e-05 -7.94011e-05
-9.36212e-05 2.80581e-05 2.80984e-05 -7.44357e-05
-9.06041e-05 2.7157e-05 2.71916e-05 -7.44372e-05
-0.000132796 3.98209e-05 3.98464e-05 -6.61668e-05
-0.000123745 3.71087e-05 3.713e-05 -6.61718e-05
-3.93586e-05 1.1798e-05 1.18117e-05 -7.94127e-05
-4.23768e-05 1.26929e-05 1.27217e-05 -7.94033e-05
-0.000128271 3.84655e-05 3.8488e-05 -6.61691e-05
-8.15516e-05 2.44507e-05 2.44718e-05 -7.44474e-05
-4.08678e-05 1.22455e-05 1.22667e-05 -7.9407e-05
-8.75871e-05 2.62557e-05 2.62849e-05 -7.44395e-05
-8.45697e-05 2.53538e-05 2.53782e-05 -7.44428e-05
-0.000123745 3.71087e-05 3.713e-05 -6.61718e-05
-0.000114687 3.43871e-05 3.44142e-05 -6.61793e-05
-3.634e-05 1.09012e-05 1.09024e-05 -7.94342e-05
-3.93586e-05 1.1798e-05 1.18117e-05 -7.94127e-05
-0.000119218 3.57497e-05 3.5772e-05 -6.61752e-05
-7.55104e-05 2.2638e-05 2.26596e-05 -7.44634e-05
-3.78493e-05 1.135e-05 1.13568e-05 -7.94213e-05
-8.15516e-05 2.44507e-05 2.44718e-05 -7.44474e-05
-7.85321e-05 2.35458e-05 2.35656e-05 -7.4454e-05
-0.000114687 3.43871e-05 3.44142e-05 -6.61793e-05
-0.000105612 3.16441e-05 3.17006e-05 -6.61891e-05
-3.33138e-05 9.99743e-06 9.99275e-06 -7.94803e-05
-3.634e-05 1.09012e-05 1.09024e-05 -7.94342e-05
-0.000110152 3.30193e-05 3.30569e-05 -6.6184e-05
-6.94533e-05 2.08071e-05 2.08484e-05 -7.44949e-05
-3.48289e-05 1.04508e-05 1.04478e-05 -7.9453e-05
-7.55104e-05 2.2638e-05 2.26596e-05 -7.44634e-05
-7.24847e-05 2.17259e-05 2.17538e-05 -7.44769e-05
-0.000105612 3.16441e-05 3.17006e-05 -6.61891e-05
-9.64944e-05 2.8858e-05 2.8987e-05 -6.62028e-05
-3.02737e-05 9.0755e-06 9.08493e-06 -7.95735e-05
-3.33138e-05 9.99743e-06 9.99275e-06 -7.94803e-05
-0.000101061 3.02587e-05 3.03441e-05 -6.61952e-05
-6.33602e-05 1.89374e-05 1.90384e-05 -7.45548e-05
-3.17953e-05 9.53947e-06 9.53822e-06 -7.95192e-05
-6.94533e-05 2.08071e-05 2.08484e-05 -7.44949e-05
-6.64129e-05 1.98786e-05 1.99433e-05 -7.45196e-05
-9.64944e-05 2.8858e-05 2.8987e-05 -6.62028e-05
-8.73012e-05 2.59886e-05 2.62768e-05 -6.62183e-05
-2.71898e-05 8.11818e-06 8.17356e-06 -7.97543e-05
-3.02737e-05 9.0755e-06 9.08493e-06 -7.95735e-05
-9.19084e-05 2.74365e-05 2.76308e-05 -6.62109e-05
-5.71934e-05 1.69961e-05 1.72274e-05 -7.46668e-05
-2.87411e-05 8.60341e-06 8.63045e-06 -7.96494e-05
-6.33602e-05 1.89374e-05 1.90384e-05 -7.45548e-05
-6.0289e-05 1.79791e-05 1.81328e-05 -7.46035e-05
-8.73012e-05 2.59886e-05 2.62768e-05 -6.62183e-05
-7.79414e-05 2.29771e-05 2.35561e-05 -6.6244e-05
-2.40432e-05 7.09191e-06 7.26483e-06 -8.00856e-05
-2.71898e-05 8.11818e-06 8.17356e-06 -7.97543e-05
-8.26523e-05 2.45068e-05 2.49195e-05 -6.62285e-05
-5.08863e-05 1.49264e-05 1.54114e-05 -7.48698e-05
-2.56228e-05 7.61487e-06 7.71769e-06 -7.98962e-05
-5.71934e-05 1.69961e-05 1.72274e-05 -7.46668e-05
-5.40627e-05 1.59804e-05 1.6321e-05 -7.47512e-05
-7.79414e-05 2.29771e-05 2.35561e-05 -6.6244e-05
-6.83281e-05 1.97275e-05 2.08288e-05 -6.62772e-05
-2.07445e-05 5.96528e-06 6.33397e-06 -8.06683e-05
-2.40432e-05 7.09191e-06 7.26483e-06 -8.00856e-05
-7.31671e-05 2.13859e-05 2.21919e-05 -6.62611e-05
-4.43384e-05 1.2665e-05 1.35743e-05 -7.52275e-05
-2.24255e-05 6.54621e-06 6.80543e-06 -8.03371e-05
-5.08863e-05 1.49264e-05 1.54114e-05 -7.48698e-05
-4.76497e-05 1.38267e-05 1.44956e-05 -7.50292e-05
-6.83281e-05 1.97275e-05 2.08288e-05 -6.62772e-05
-5.82165e-05 1.61576e-05 1.80252e-05 -6.63737e-05
-1.7281e-05 4.68388e-06 5.39877e-06 -8.16181e-05
-2.07445e-05 5.96528e-06 6.33397e-06 -8.06683e-05
-6.33645e-05 1.79936e-05 1.94447e-05 -6.63097e-05
-3.73987e-05 1.01277e-05 1.16876e-05 -7.58332e-05
-1.90223e-05 5.33995e-06 5.86387e-06 -8.10901e-05
-4.43384e-05 1.2665e-05 1.35743e-05 -7.52275e-05
-4.09292e-05 1.14284e-05 1.26432e-05 -7.54819e-05
-5.82165e-05 1.61576e-05 1.80252e-05 -6.63737e-05
-4.75032e-05 1.21773e-05 1.51397e-05 -6.6565e-05
-1.34808e-05 3.30154e-06 4.36254e-06 -8.30596e-05
-1.7281e-05 4.68388e-06 5.39877e-06 -8.16181e-05
-5.29181e-05 1.42036e-05 1.65919e-05 -6.64581e-05
-2.9943e-05 7.36552e-06 9.67607e-06 -7.68045e-05
-1.54555e-05 4.0095e-06 4.90544e-06 -8.22688e-05
-3.73987e-05 1.01277e-05 1.16876e-05 -7.58332e-05
-3.37392e-05 8.77512e-06 1.06989e-05 -7.62841e-05
-4.75032e-05 1.21773e-05 1.51397e-05 -6.6565e-05
-3.58032e-05 8.06003e-06 1.18899e-05 -6.71443e-05
-9.57021e-06 1.91623e-06 3.28028e-06 -8.49167e-05
-1.34808e-05 3.30154e-06 4.36254e-06 -8.30596e-05
-4.18417e-05 1.01282e-05 1.35915e-05 -6.67704e-05
-2.19037e-05 4.58728e-06 7.42132e-06 -7.82434e-05
-1.14785e-05 2.56532e-06 3.81991e-06 -8.39539e-05
-2.9943e-05 7.36552e-06 9.67607e-06 -7.68045e-05
-2.60009e-05 5.92064e-06 8.60583e-06 -7.74228e-05
-3.58032e-05 8.06003e-06 1.18899e-05 -6.71443e-05
-2.37009e-05 4.47723e-06 8.23873e-06 -6.82966e-05
-5.54845e-06 1.25933e-06 1.83819e-06 -8.67238e-05
-9.57021e-06 1.91623e-06 3.28028e-06 -8.49167e-05
-2.96641e-05 6.04515e-06 1.01224e-05 -6.76424e-05
-1.38321e-05 2.89496e-06 4.68733e-06 -8.00429e-05
-7.63417e-06 1.47319e-06 2.64042e-06 -8.58757e-05
-2.19037e-05 4.58728e-06 7.42132e-06 -7.82434e-05
-1.77984e-05 3.53444e-06 6.11313e-06 -7.91861e-05
-2.37009e-05 4.47723e-06 8.23873e-06 -6.82966e-05
-1.19872e-05 4.36744e-06 3.26559e-06 -7.06949e-05
-2.7091e-06 2.15346e-06 2.3813e-07 -8.67559e-05
-5.54845e-06 1.25933e-06 1.83819e-06 -8.67238e-05
-1.78348e-05 3.80389e-06 6.01327e-06 -6.92788e-05
-6.96567e-06 4.08738e-06 1.23355e-06 -8.13017e-05
-3.75834e-06 1.35355e-06 1.03062e-06 -8.71364e-05
-1.38321e-05 2.89496e-06 4.68733e-06 -8.00429e-05
-1.0167e-05 2.88464e-06 3.12102e-06 -8.07195e-05
-1.19872e-05 4.36744e-06 3.26559e-06 -7.06949e-05
-5.83118e-06 1.29306e-05 -3.04261e-06 -7.2364e-05
-1.11179e-06 6.3213e-06 -2.23265e-06 -8.18434e-05
-2.7091e-06 2.15346e-06 2.3813e-07 -8.67559e-05
-7.52891e-06 6.79156e-06 3.16006e-07 -7.18977e-05
-4.49395e-06 1.16309e-05 -3.05868e-06 -7.85818e-05
-1.97038e-06 3.95409e-06 -8.50165e-07 -8.51732e-05
-6.96567e-06 4.08738e-06 1.23355e-06 -8.13017e-05
-4.86299e-06 7.0285e-06 -9.28077e-07 -8.10219e-05
-5.83118e-06 1.29306e-05 -3.04261e-06 -7.2364e-05
-8.95674e-06 3.98038e-05 -1.32202e-05 -6.62536e-05
-2.29086e-06 1.16857e-05 -4.02635e-06 -6.67666e-05
-1.11179e-06 6.3213e-06 -2.23265e-06 -8.18434e-05
-6.45386e-06 2.42969e-05 -7.64702e-06 -7.11863e-05
-6.16863e-06 2.53711e-05 -8.22965e-06 -6.52209e-05
-9.47326e-07 8.81314e-06 -3.37106e-06 -7.59243e-05
-4.49395e-06 1.16309e-05 -3.05868e-06 -7.85818e-05
-5.16154e-06 1.77246e-05 -5.38418e-06 -7.33255e-05
-8.95674e-06 3.98038e-05 -1.32202e-05 -6.62536e-05
-1.81713e-05 7.19685e-05 -2.3056e-05 -3.49755e-05
-5.81751e-06 1.95467e-05 -5.88393e-06 -3.8315e-05
-2.29086e-06 1.16857e-05 -4.02635e-06 -6.67666e-05
-1.2982e-05 5.71742e-05 -1.89395e-05 -5.46915e-05
-1.03596e-05 4.33699e-05 -1.41473e-05 -3.85655e-05
-4.22132e-06 1.52759e-05 -4.73768e-06 -5.42945e-05
-6.16863e-06 2.53711e-05 -8.22965e-06 -6.52209e-05
-7.80484e-06 3.4386e-05 -1.13919e-05 -5.39115e-05
-0.000532413 0 0.000228177 0.000301001
-0.000540878 7.12437e-05 0.000201272 9.9774e-05
0.000525903 -7.46362e-05 -0.0001934 9.88195e-05
0.000515738 0 -0.000221031 0.000298792
-0.000519571 3.00234e-05 0.000209806 0.000189782
-7.63118e-06 -1.79516e-06 4.03986e-06 0.000112577
0.000503837 -3.18913e-05 -0.000202263 0.000188456
-8.61776e-06 0 3.69333e-06 0.000306122
-8.01502e-06 -1.10551e-06 3.9088e-06 0.000211758
-0.000540878 7.12437e-05 0.000201272 9.9774e-05
-0.000582017 0.000117289 0.000199169 -2.05264e-05
0.0005683 -0.000122963 -0.000190859 -2.1164e-05
0.000525903 -7.46362e-05 -0.0001934 9.88195e-05
-0.000570351 9.88515e-05 0.000202071 2.90417e-05
-6.98999e-06 -2.91624e-06 4.24553e-06 -1.45387e-05
0.00055603 -0.000103488 -0.000193946 2.82606e-05
-7.63118e-06 -1.79516e-06 4.03986e-06 0.000112577
-7.32222e-06 -2.38273e-06 4.15926e-06 3.43136e-05
-0.000582017 0.000117289 0.000199169 -2.05264e-05
-0.0005939 0.000151519 0.000189592 -7.50376e-05
0.000581241 -0.000158879 -0.000181012 -7.55221e-05
0.0005683 -0.000122963 -0.000190859 -2.1164e-05
-0.000586374 0.000135545 0.000193213 -5.33862e-05
-6.43643e-06 -3.81591e-06 4.39386e-06 -7.34524e-05
0.000573202 -0.000142111 -0.000184753 -5.39388e-05
-6.98999e-06 -2.91624e-06 4.24553e-06 -1.45387e-05
-6.68692e-06 -3.39473e-06 4.32071e-06 -4.80201e-05
-0.0005939 0.000151519 0.000189592 -7.50376e-05
-0.000599981 0.00016743 0.000185379 -9.45077e-05
0.000588247 -0.000176174 -0.000176603 -9.48547e-05
0.000581241 -0.000158879 -0.000181012 -7.55221e-05
-0.000599976 0.000161627 0.000187864 -8.80762e-05
-5.98986e-06 -4.48661e-06 4.48992e-06 -9.62151e-05
0.000587795 -0.000169714 -0.000179177 -8.84861e-05
-6.43643e-06 -3.81591e-06 4.39386e-06 -7.34524e-05
-6.21255e-06 -4.17537e-06 4.45197e-06 -8.90919e-05
-0.000599981 0.00016743 0.000185379 -9.45077e-05
-0.000595753 0.000173365 0.000181024 -9.66202e-05
0.000584762 -0.000183167 -0.000172112 -9.68419e-05
0.000588247 -0.000176174 -0.000176603 -9.48547e-05
-0.00059741 0.000171259 0.000182636 -9.66404e-05
-5.61574e-06 -5.01089e-06 4.55427e-06 -0.000100101
0.000586076 -0.000180575 -0.000173786 -9.69314e-05
-5.98986e-06 -4.48661e-06 4.48992e-06 -9.62151e-05
-5.78709e-06 -4.76696e-06 4.52317e-06 -9.9114e-05
-0.000595753 0.000173365 0.000181024 -9.66202e-05
-0.000590614 0.000172973 0.000178989 -9.32365e-05
0.00058015 -0.000183503 -0.000169992 -9.33288e-05
0.000584762 -0.000183167 -0.000172112 -9.68419e-05
-0.000593869 0.000173684 0.00018008 -9.52828e-05
-5.3472e-06 -5.36695e-06 4.59178e-06 -9.67348e-05
0.000583167 -0.000183889 -0.000171119 -9.54327e-05
-5.61574e-06 -5.01089e-06 4.55427e-06 -0.000100101
-5.471e-06 -5.20907e-06 4.57717e-06 -9.90777e-05
-0.000590614 0.000172973 0.000178989 -9.32365e-05
-0.000584172 0.000170956 0.000177093 -8.8832e-05
0.00057405 -0.000181916 -0.000168057 -8.88388e-05
0.00058015 -0.000183503 -0.000169992 -9.33288e-05
-0.000587034 0.000172027 0.00017786 -9.0943e-05
-5.16715e-06 -5.58889e-06 4.60973e-06 -9.19682e-05
0.000576761 -0.000182805 -0.000168838 -9.099e-05
-5.3472e-06 -5.36695e-06 4.59178e-06 -9.67348e-05
-5.24599e-06 -5.49317e-06 4.60249e-06 -9.41925e-05
-0.000584172 0.000170956 0.000177093 -8.8832e-05
-0.000578957 0.000168521 0.000175901 -8.53298e-05
0.000569044 -0.000179686 -0.000166868 -8.52845e-05
0.00057405 -0.000181916 -0.000168057 -8.88388e-05
-0.000581618 0.000169741 0.000176518 -8.69522e-05
-5.05746e-06 -5.69427e-06 4.60788e-06 -8.794e-05
0.000571613 -0.000180828 -0.000167479 -8.69269e-05
-5.16715e-06 -5.58889e-06 4.60973e-06 -9.19682e-05
-5.10593e-06 -5.65407e-06 4.61143e-06 -8.98651e-05
-0.000578957 0.000168521 0.000175901 -8.53298e-05
-0.000574212 0.000166469 0.000174747 -8.28988e-05
0.000564429 -0.000177681 -0.000165749 -8.28366e-05
0.000569044 -0.000179686 -0.000166868 -8.52845e-05
-0.000576414 0.000167434 0.000175277 -8.39724e-05
-4.98961e-06 -5.7217e-06 4.59056e-06 -8.51377e-05
0.000566572 -0.000178638 -0.000166257 -8.39162e-05
-5.05746e-06 -5.69427e-06 4.60788e-06 -8.794e-05
-5.01953e-06 -5.71581e-06 4.60086e-06 -8.63563e-05
-0.000574212 0.000166469 0.000174747 -8.28988e-05
-0.000570244 0.000164788 0.000173767 -8.14003e-05
0.000560551 -0.000175948 -0.00016483 -8.13404e-05
0.000564429 -0.000177681 -0.000165749 -8.28366e-05
-0.000572205 0.000165586 0.000174265 -8.20563e-05
-4.9437e-06 -5.69649e-06 4.56008e-06 -8.33726e-05
0.00056247 -0.000176781 -0.000165295 -8.19929e-05
-4.98961e-06 -5.7217e-06 4.59056e-06 -8.51377e-05
-4.96516e-06 -5.71416e-06 4.57685e-06 -8.41578e-05
-0.000570244 0.000164788 0.000173767 -8.14003e-05
-0.000566607 0.000163446 0.000172783 -8.05233e-05
0.000556994 -0.000174498 -0.000163927 -8.04783e-05
0.000560551 -0.000175948 -0.00016483 -8.13404e-05
-0.000568365 0.000164081 0.000173265 -8.08974e-05
-4.90467e-06 -5.64236e-06 4.52016e-06 -8.23475e-05
0.000558712 -0.000175192 -0.000164366 -8.08443e-05
-4.9437e-06 -5.69649e-06 4.56008e-06 -8.33726e-05
-4.92396e-06 -5.67196e-06 4.54111e-06 -8.27792e-05
-0.000566607 0.000163446 0.000172783 -8.05233e-05
-0.000563261 0.000162319 0.000171832 -8.00439e-05
0.000553732 -0.000173237 -0.000163069 -8.00175e-05
0.000556994 -0.000174498 -0.000163927 -8.04783e-05
-0.000564921 0.000162862 0.000172311 -8.02472e-05
-4.86422e-06 -5.57344e-06 4.47329e-06 -8.17833e-05
0.000555349 -0.000173849 -0.0001635 -8.02112e-05
-4.90467e-06 -5.64236e-06 4.52016e-06 -8.23475e-05
-4.88502e-06 -5.60906e-06 4.49746e-06 -8.20247e-05
-0.000563261 0.000162319 0.000171832 -8.00439e-05
-0.000560035 0.00016133 0.000170874 -7.97913e-05
0.0005506 -0.000172103 -0.000162213 -7.97841e-05
0.000553732 -0.000173237 -0.000163069 -8.00175e-05
-0.000561631 0.000161811 0.000171351 -7.98963e-05
-4.81803e-06 -5.49974e-06 4.4219e-06 -8.14918e-05
0.000552147 -0.000172657 -0.000162638 -7.98798e-05
-4.86422e-06 -5.57344e-06 4.47329e-06 -8.17833e-05
-4.84199e-06 -5.53678e-06 4.44804e-06 -8.16111e-05
-0.000560035 0.00016133 0.000170874 -7.97913e-05
-0.00055689 0.000160413 0.000169918 -7.96655e-05
0.000547563 -0.000171045 -0.000161365 -7.96752e-05
0.0005506 -0.000172103 -0.000162213 -7.97841e-05
-0.000558459 0.000160865 0.000170397 -7.97175e-05
-4.7647e-06 -5.42642e-06 4.36762e-06 -8.13485e-05
0.000549076 -0.000171567 -0.00016179 -7.97191e-05
-4.81803e-06 -5.49974e-06 4.4219e-06 -8.14918e-05
-4.79228e-06 -5.46282e-06 4.39504e-06 -8.14077e-05
-0.00055689 0.000160413 0.000169918 -7.96655e-05
-0.000553774 0.000159536 0.000168959 -7.96051e-05
0.000544569 -0.000170031 -0.000160516 -7.96287e-05
0.000547563 -0.000171045 -0.000161365 -7.96752e-05
-0.000555328 0.000159971 0.000169439 -7.96296e-05
-4.70442e-06 -5.3563e-06 4.31173e-06 -8.12831e-05
0.000546061 -0.000170534 -0.00016094 -7.96466e-05
-4.7647e-06 -5.42642e-06 4.36762e-06 -8.13485e-05
-4.73538e-06 -5.39087e-06 4.33982e-06 -8.13089e-05
-0.000553774 0.000159536 0.000168959 -7.96051e-05
-0.000550674 0.000158676 0.000167999 -7.95777e-05
0.000541601 -0.000169043 -0.000159668 -7.9612e-05
0.000544569 -0.000170031 -0.000160516 -7.96287e-05
-0.000552223 0.000159104 0.00016848 -7.95887e-05
-4.63814e-06 -5.2903e-06 4.25505e-06 -8.12555e-05
0.000543083 -0.000169535 -0.000160092 -7.9618e-05
-4.70442e-06 -5.3563e-06 4.31173e-06 -8.12831e-05
-4.67195e-06 -5.32277e-06 4.28345e-06 -8.12664e-05
-0.000550674 0.000158676 0.000167999 -7.95777e-05
-0.000547577 0.000157822 0.000167038 -7.95658e-05
0.000538646 -0.000168069 -0.000158819 -7.96079e-05
0.000541601 -0.000169043 -0.000159668 -7.9612e-05
-0.000549125 0.000158248 0.000167519 -7.95705e-05
-4.56711e-06 -5.2285e-06 4.19812e-06 -8.12454e-05
0.000540122 -0.000168555 -0.000159243 -7.9609e-05
-4.63814e-06 -5.2903e-06 4.25505e-06 -8.12555e-05
-4.60314e-06 -5.2589e-06 4.22659e-06 -8.1249e-05
-0.000547577 0.000157822 0.000167038 -7.95658e-05
-0.000544481 0.000156969 0.000166076 -7.95609e-05
0.000535698 -0.000167104 -0.000157969 -7.96085e-05
0.000538646 -0.000168069 -0.000158819 -7.96079e-05
-0.000546029 0.000157395 0.000166557 -7.95628e-05
-4.49254e-06 -5.17044e-06 4.14128e-06 -8.12425e-05
0.000537172 -0.000167586 -0.000158394 -7.96079e-05
-4.56711e-06 -5.2285e-06 4.19812e-06 -8.12454e-05
-4.53019e-06 -5.19904e-06 4.16967e-06 -8.12435e-05
-0.000544481 0.000156969 0.000166076 -7.95609e-05
-0.000541383 0.000156115 0.000165115 -7.95588e-05
0.000532754 -0.000166143 -0.000157119 -7.96101e-05
0.000535698 -0.000167104 -0.000157969 -7.96085e-05
-0.000542932 0.000156542 0.000165596 -7.95596e-05
-4.4155e-06 -5.11551e-06 4.08472e-06 -8.12421e-05
0.000534226 -0.000166623 -0.000157544 -7.96093e-05
-4.49254e-06 -5.17044e-06 4.14128e-06 -8.12425e-05
-4.45427e-06 -5.14263e-06 4.11295e-06 -8.12421e-05
-0.000541383 0.000156115 0.000165115 -7.95588e-05
-0.000538285 0.00015526 0.000164153 -7.95579e-05
0.000529811 -0.000165186 -0.000156268 -7.96115e-05
0.000532754 -0.000166143 -0.000157119 -7.96101e-05
-0.000539834 0.000155688 0.000164634 -7.95583e-05
-4.33687e-06 -5.06307e-06 4.02854e-06 -8.12424e-05
0.000531282 -0.000165664 -0.000156693 -7.96108e-05
-4.4155e-06 -5.11551e-06 4.08472e-06 -8.12421e-05
-4.37634e-06 -5.08901e-06 4.05658e-06 -8.12423e-05
-0.000538285 0.00015526 0.000164153 -7.95579e-05
-0.000535185 0.000154403 0.000163192 -7.95573e-05
0.000526868 -0.00016423 -0.000155416 -7.96122e-05
0.000529811 -0.000165186 -0.000156268 -7.96115e-05
-0.000536735 0.000154832 0.000163673 -7.95576e-05
-4.25729e-06 -5.01254e-06 3.97278e-06 -8.12426e-05
0.000528339 -0.000164708 -0.000155842 -7.96119e-05
-4.33687e-06 -5.06307e-06 4.02854e-06 -8.12424e-05
-4.29716e-06 -5.03759e-06 4.00061e-06 -8.12425e-05
-0.000535185 0.000154403 0.000163192 -7.95573e-05
-0.000532085 0.000153545 0.000162232 -7.95569e-05
0.000523927 -0.000163276 -0.000154564 -7.96124e-05
0.000526868 -0.00016423 -0.000155416 -7.96122e-05
-0.000533635 0.000153974 0.000162712 -7.95571e-05
-4.17727e-06 -4.96345e-06 3.91745e-06 -8.12425e-05
0.000525397 -0.000163753 -0.00015499 -7.96124e-05
-4.25729e-06 -5.01254e-06 3.97278e-06 -8.12426e-05
-4.21731e-06 -4.98784e-06 3.94506e-06 -8.12426e-05
-0.000532085 0.000153545 0.000162232 -7.95569e-05
-0.000528985 0.000152685 0.000161271 -7.95563e-05
0.000520985 -0.000162323 -0.000153712 -7.96121e-05
0.000523927 -0.000163276 -0.000154564 -7.96124e-05
-0.000530535 0.000153115 0.000161752 -7.95566e-05
-4.09715e-06 -4.91545e-06 3.86254e-06 -8.12422e-05
0.000522456 -0.0001628 -0.000154138 -7.96123e-05
-4.17727e-06 -4.96345e-06 3.91745e-06 -8.12425e-05
-4.13721e-06 -4.93933e-06 3.88995e-06 -8.12424e-05
-0.000528985 0.000152685 0.000161271 -7.95563e-05
-0.000525885 0.000151825 0.000160312 -7.95558e-05
0.000518042 -0.000161371 -0.000152859 -7.96115e-05
0.000520985 -0.000162323 -0.000153712 -7.96121e-05
-0.000527435 0.000152255 0.000160791 -7.95561e-05
-4.01716e-06 -4.86824e-06 3.80803e-06 -8.12416e-05
0.000519513 -0.000161847 -0.000153286 -7.96118e-05
-4.09715e-06 -4.91545e-06 3.86254e-06 -8.12422e-05
-4.05713e-06 -4.89176e-06 3.83524e-06 -8.12419e-05
-0.000525885 0.000151825 0.000160312 -7.95558e-05
-0.000522786 0.000150964 0.000159352 -7.95552e-05
0.0005151 -0.000160419 -0.000152006 -7.96107e-05
0.000518042 -0.000161371 -0.000152859 -7.96115e-05
-0.000524335 0.000151395 0.000159832 -7.95555e-05
-3.93745e-06 -4.82165e-06 3.7539e-06 -8.12409e-05
0.000516571 -0.000160895 -0.000152433 -7.96111e-05
-4.01716e-06 -4.86824e-06 3.80803e-06 -8.12416e-05
-3.97726e-06 -4.84488e-06 3.78092e-06 -8.12413e-05
-0.000522786 0.000150964 0.000159352 -7.95552e-05
-0.000519686 0.000150103 0.000158393 -7.95546e-05
0.000512157 -0.000159468 -0.000151153 -7.96097e-05
0.0005151 -0.000160419 -0.000152006 -7.96107e-05
-0.000521236 0.000150533 0.000158872 -7.95549e-05
-3.85813e-06 -4.77552e-06 3.70014e-06 -8.12401e-05
0.000513628 -0.000159943 -0.000151579 -7.96102e-05
-3.93745e-06 -4.82165e-06 3.7539e-06 -8.12409e-05
-3.89774e-06 -4.79853e-06 3.72697e-06 -8.12405e-05
-0.000519686 0.000150103 0.000158393 -7.95546e-05
-0.000516587 0.000149241 0.000157434 -7.95539e-05
0.000509214 -0.000158516 -0.000150299 -7.96087e-05
0.000512157 -0.000159468 -0.000151153 -7.96097e-05
-0.000518137 0.000149672 0.000157914 -7.95543e-05
-3.77924e-06 -4.72978e-06 3.64673e-06 -8.12393e-05
0.000510685 -0.000158992 -0.000150726 -7.96092e-05
-3.85813e-06 -4.77552e-06 3.70014e-06 -8.12401e-05
-3.81863e-06 -4.75261e-06 3.67339e-06 -8.12397e-05
-0.000516587 0.000149241 0.000157434 -7.95539e-05
-0.000513489 0.000148379 0.000156476 -7.95532e-05
0.00050627 -0.000157566 -0.000149445 -7.96076e-05
0.000509214 -0.000158516 -0.000150299 -7.96087e-05
-0.000515038 0.00014881 0.000156955 -7.95536e-05
-3.70082e-06 -4.68436e-06 3.59365e-06 -8.12384e-05
0.000507742 -0.000158041 -0.000149872 -7.96082e-05
-3.77924e-06 -4.72978e-06 3.64673e-06 -8.12393e-05
-3.73997e-06 -4.70703e-06 3.62015e-06 -8.12388e-05
-0.000513489 0.000148379 0.000156476 -7.95532e-05
-0.000510391 0.000147516 0.000155518 -7.95525e-05
0.000503325 -0.000156615 -0.00014859 -7.96065e-05
0.00050627 -0.000157566 -0.000149445 -7.96076e-05
-0.00051194 0.000147948 0.000155997 -7.95529e-05
-3.62289e-06 -4.63924e-06 3.54091e-06 -8.12374e-05
0.000504798 -0.00015709 -0.000149017 -7.96071e-05
-3.70082e-06 -4.68436e-06 3.59365e-06 -8.12384e-05
-3.6618e-06 -4.66177e-06 3.56724e-06 -8.12379e-05
-0.000510391 0.000147516 0.000155518 -7.95525e-05
-0.000507293 0.000146654 0.00015456 -7.95518e-05
0.000500381 -0.000155665 -0.000147735 -7.96054e-05
0.000503325 -0.000156615 -0.00014859 -7.96065e-05
-0.000508842 0.000147085 0.000155039 -7.95521e-05
-3.54544e-06 -4.59438e-06 3.48849e-06 -8.12365e-05
0.000501853 -0.00015614 -0.000148163 -7.9606e-05
-3.62289e-06 -4.63924e-06 3.54091e-06 -8.12374e-05
-3.5841e-06 -4.61678e-06 3.51466e-06 -8.1237e-05
-0.000507293 0.000146654 0.00015456 -7.95518e-05
-0.000504197 0.000145791 0.000153602 -7.9551e-05
0.000497436 -0.000154715 -0.00014688 -7.96042e-05
0.000500381 -0.000155665 -0.000147735 -7.96054e-05
-0.000505745 0.000146222 0.000154081 -7.95514e-05
-3.46847e-06 -4.54978e-06 3.4364e-06 -8.12355e-05
0.000498908 -0.00015519 -0.000147308 -7.96048e-05
-3.54544e-06 -4.59438e-06 3.48849e-06 -8.12365e-05
-3.50689e-06 -4.57205e-06 3.4624e-06 -8.1236e-05
-0.000504197 0.000145791 0.000153602 -7.9551e-05
-0.0005011 0.000144928 0.000152645 -7.95502e-05
0.00049449 -0.000153765 -0.000146025 -7.96031e-05
0.000497436 -0.000154715 -0.00014688 -7.96042e-05
-0.000502648 0.000145359 0.000153124 -7.95506e-05
-3.39199e-06 -4.50545e-06 3.38461e-06 -8.12345e-05
0.000495963 -0.00015424 -0.000146453 -7.96037e-05
-3.46847e-06 -4.54978e-06 3.4364e-06 -8.12355e-05
-3.43017e-06 -4.52758e-06 3.41047e-06 -8.1235e-05
-0.0005011 0.000144928 0.000152645 -7.95502e-05
-0.000498004 0.000144065 0.000151688 -7.95493e-05
0.000491544 -0.000152816 -0.000145169 -7.96019e-05
0.00049449 -0.000153765 -0.000146025 -7.96031e-05
-0.000499552 0.000144496 0.000152167 -7.95498e-05
-3.31598e-06 -4.46136e-06 3.33315e-06 -8.12335e-05
0.000493017 -0.000153291 -0.000145597 -7.96025e-05
-3.39199e-06 -4.50545e-06 3.38461e-06 -8.12345e-05
-3.35393e-06 -4.48337e-06 3.35884e-06 -8.1234e-05
-0.000498004 0.000144065 0.000151688 -7.95493e-05
-0.000494909 0.000143201 0.000150732 -7.95485e-05
0.000488598 -0.000151867 -0.000144313 -7.96007e-05
0.000491544 -0.000152816 -0.000145169 -7.96019e-05
-0.000496457 0.000143633 0.00015121 -7.95489e-05
-3.24046e-06 -4.41753e-06 3.282e-06 -8.12324e-05
0.000490071 -0.000152341 -0.000144741 -7.96013e-05
-3.31598e-06 -4.46136e-06 3.33315e-06 -8.12335e-05
-3.27816e-06 -4.43942e-06 3.30753e-06 -8.12329e-05
-0.000494909 0.000143201 0.000150732 -7.95485e-05
-0.000491814 0.000142337 0.000149776 -7.95476e-05
0.000485651 -0.000150918 -0.000143457 -7.95995e-05
0.000488598 -0.000151867 -0.000144313 -7.96007e-05
-0.000493361 0.000142769 0.000150254 -7.9548e-05
-3.1654e-06 -4.37397e-06 3.23116e-06 -8.12313e-05
0.000487124 -0.000151392 -0.000143885 -7.96001e-05
-3.24046e-06 -4.41753e-06 3.282e-06 -8.12324e-05
-3.20287e-06 -4.39572e-06 3.25654e-06 -8.12319e-05
-0.000491814 0.000142337 0.000149776 -7.95476e-05
-0.00048872 0.000141473 0.00014882 -7.95467e-05
0.000482704 -0.000149969 -0.0001426 -7.95982e-05
0.000485651 -0.000150918 -0.000143457 -7.95995e-05
-0.000490267 0.000141905 0.000149298 -7.95472e-05
-3.09081e-06 -4.33066e-06 3.18063e-06 -8.12302e-05
0.000484177 -0.000150444 -0.000143029 -7.95989e-05
-3.1654e-06 -4.37397e-06 3.23116e-06 -8.12313e-05
-3.12805e-06 -4.35228e-06 3.20585e-06 -8.12308e-05
-0.00048872 0.000141473 0.00014882 -7.95467e-05
-0.000485626 0.000140609 0.000147864 -7.95458e-05
0.000479756 -0.000149021 -0.000141744 -7.9597e-05
0.000482704 -0.000149969 -0.0001426 -7.95982e-05
-0.000487173 0.000141041 0.000148342 -7.95462e-05
-3.01669e-06 -4.28761e-06 3.13042e-06 -8.12291e-05
0.00048123 -0.000149495 -0.000142172 -7.95976e-05
-3.09081e-06 -4.33066e-06 3.18063e-06 -8.12302e-05
-3.05369e-06 -4.3091e-06 3.15548e-06 -8.12297e-05
-0.000485626 0.000140609 0.000147864 -7.95458e-05
-0.000482532 0.000139744 0.000146909 -7.95448e-05
0.000476808 -0.000148073 -0.000140886 -7.95957e-05
0.000479756 -0.000149021 -0.000141744 -7.9597e-05
-0.000484079 0.000140177 0.000147387 -7.95453e-05
-2.94303e-06 -4.24483e-06 3.08051e-06 -8.1228e-05
0.000478282 -0.000148547 -0.000141315 -7.95964e-05
-3.01669e-06 -4.28761e-06 3.13042e-06 -8.12291e-05
-2.97981e-06 -4.26619e-06 3.10543e-06 -8.12286e-05
-0.000482532 0.000139744 0.000146909 -7.95448e-05
-0.00047944 0.00013888 0.000145954 -7.95439e-05
0.000473859 -0.000147125 -0.000140029 -7.95944e-05
0.000476808 -0.000148073 -0.000140886 -7.95957e-05
-0.000480986 0.000139312 0.000146432 -7.95443e-05
-2.86984e-06 -4.20232e-06 3.03093e-06 -8.12268e-05
0.000475334 -0.000147599 -0.000140458 -7.95951e-05
-2.94303e-06 -4.24483e-06 3.08051e-06 -8.1228e-05
-2.90638e-06 -4.22354e-06 3.05568e-06 -8.12274e-05
-0.00047944 0.00013888 0.000145954 -7.95439e-05
-0.000476347 0.000138014 0.000145 -7.95429e-05
0.00047091 -0.000146178 -0.000139171 -7.95931e-05
0.000473859 -0.000147125 -0.000140029 -7.95944e-05
-0.000477893 0.000138447 0.000145477 -7.95434e-05
-2.79711e-06 -4.16007e-06 2.98165e-06 -8.12257e-05
0.000472385 -0.000146651 -0.0001396 -7.95938e-05
-2.86984e-06 -4.20232e-06 3.03093e-06 -8.12268e-05
-2.83342e-06 -4.18116e-06 3.00625e-06 -8.12263e-05
-0.000476347 0.000138014 0.000145 -7.95429e-05
-0.000473255 0.000137149 0.000144045 -7.95419e-05
0.000467961 -0.00014523 -0.000138313 -7.95918e-05
0.00047091 -0.000146178 -0.000139171 -7.95931e-05
-0.000474801 0.000137582 0.000144523 -7.95424e-05
-2.72485e-06 -4.11808e-06 2.93269e-06 -8.12245e-05
0.000469436 -0.000145704 -0.000138742 -7.95925e-05
-2.79711e-06 -4.16007e-06 2.98165e-06 -8.12257e-05
-2.76092e-06 -4.13904e-06 2.95713e-06 -8.12251e-05
-0.000473255 0.000137149 0.000144045 -7.95419e-05
-0.000470164 0.000136284 0.000143092 -7.95408e-05
0.000465011 -0.000144284 -0.000137455 -7.95905e-05
0.000467961 -0.00014523 -0.000138313 -7.95918e-05
-0.00047171 0.000136716 0.000143568 -7.95414e-05
-2.65305e-06 -4.07637e-06 2.88403e-06 -8.12233e-05
0.000466486 -0.000144757 -0.000137884 -7.95911e-05
-2.72485e-06 -4.11808e-06 2.93269e-06 -8.12245e-05
-2.68889e-06 -4.09719e-06 2.90832e-06 -8.12239e-05
-0.000470164 0.000136284 0.000143092 -7.95408e-05
-0.000467073 0.000135418 0.000142138 -7.95398e-05
0.000462061 -0.000143337 -0.000136596 -7.95891e-05
0.000465011 -0.000144284 -0.000137455 -7.95905e-05
-0.000468618 0.000135851 0.000142615 -7.95403e-05
-2.58171e-06 -4.03492e-06 2.8357e-06 -8.12221e-05
0.000463536 -0.00014381 -0.000137026 -7.95898e-05
-2.65305e-06 -4.07637e-06 2.88403e-06 -8.12233e-05
-2.61732e-06 -4.05561e-06 2.85983e-06 -8.12227e-05
-0.000467073 0.000135418 0.000142138 -7.95398e-05
-0.000463983 0.000134552 0.000141185 -7.95388e-05
0.000459111 -0.00014239 -0.000135737 -7.95877e-05
0.000462061 -0.000143337 -0.000136596 -7.95891e-05
-0.000465528 0.000134985 0.000141661 -7.95393e-05
-2.51083e-06 -3.99374e-06 2.78767e-06 -8.12208e-05
0.000460586 -0.000142864 -0.000136167 -7.95884e-05
-2.58171e-06 -4.03492e-06 2.8357e-06 -8.12221e-05
-2.54621e-06 -4.01429e-06 2.81164e-06 -8.12214e-05
-0.000463983 0.000134552 0.000141185 -7.95388e-05
-0.000460893 0.000133686 0.000140232 -7.95377e-05
0.00045616 -0.000141444 -0.000134878 -7.95863e-05
0.000459111 -0.00014239 -0.000135737 -7.95877e-05
-0.000462438 0.000134119 0.000140708 -7.95382e-05
-2.44041e-06 -3.95283e-06 2.73996e-06 -8.12196e-05
0.000457635 -0.000141917 -0.000135308 -7.9587e-05
-2.51083e-06 -3.99374e-06 2.78767e-06 -8.12208e-05
-2.47556e-06 -3.97325e-06 2.76378e-06 -8.12202e-05
-0.000460893 0.000133686 0.000140232 -7.95377e-05
-0.000457803 0.000132819 0.000139279 -7.95366e-05
0.000453208 -0.000140498 -0.000134019 -7.95849e-05
0.00045616 -0.000141444 -0.000134878 -7.95863e-05
-0.000459348 0.000133252 0.000139755 -7.95371e-05
-2.37046e-06 -3.91218e-06 2.69256e-06 -8.12183e-05
0.000454684 -0.000140971 -0.000134448 -7.95856e-05
-2.44041e-06 -3.95283e-06 2.73996e-06 -8.12196e-05
-2.40538e-06 -3.93247e-06 2.71622e-06 -8.12189e-05
-0.000457803 0.000132819 0.000139279 -7.95366e-05
-0.000454715 0.000131952 0.000138327 -7.95355e-05
0.000450256 -0.000139553 -0.000133159 -7.95835e-05
0.000453208 -0.000140498 -0.000134019 -7.95849e-05
-0.000456259 0.000132386 0.000138803 -7.95361e-05
-2.30096e-06 -3.8718e-06 2.64547e-06 -8.1217e-05
0.000451732 -0.000140026 -0.000133589 -7.95842e-05
-2.37046e-06 -3.91218e-06 2.69256e-06 -8.12183e-05
-2.33565e-06 -3.89196e-06 2.66898e-06 -8.12177e-05
-0.000454715 0.000131952 0.000138327 -7.95355e-05
-0.000451626 0.000131085 0.000137375 -7.95344e-05
0.000447304 -0.000138607 -0.000132299 -7.95821e-05
0.000450256 -0.000139553 -0.000133159 -7.95835e-05
-0.00045317 0.000131519 0.000137851 -7.95349e-05
-2.23193e-06 -3.83169e-06 2.5987e-06 -8.12157e-05
0.00044878 -0.00013908 -0.000132729 -7.95828e-05
-2.30096e-06 -3.8718e-06 2.64547e-06 -8.1217e-05
-2.26639e-06 -3.85172e-06 2.62205e-06 -8.12164e-05
-0.000451626 0.000131085 0.000137375 -7.95344e-05
-0.000448538 0.000130218 0.000136423 -7.95333e-05
0.000444352 -0.000137662 -0.000131438 -7.95806e-05
0.000447304 -0.000138607 -0.000132299 -7.95821e-05
-0.000450082 0.000130652 0.000136899 -7.95338e-05
-2.16336e-06 -3.79185e-06 2.55224e-06 -8.12144e-05
0.000445828 -0.000138135 -0.000131868 -7.95813e-05
-2.23193e-06 -3.83169e-06 2.5987e-06 -8.12157e-05
-2.19759e-06 -3.81174e-06 2.57543e-06 -8.12151e-05
-0.000448538 0.000130218 0.000136423 -7.95333e-05
-0.000445451 0.000129351 0.000135472 -7.95321e-05
0.000441399 -0.000136718 -0.000130578 -7.95792e-05
0.000444352 -0.000137662 -0.000131438 -7.95806e-05
-0.000446995 0.000129784 0.000135947 -7.95327e-05
-2.09526e-06 -3.75228e-06 2.50609e-06 -8.12131e-05
0.000442875 -0.00013719 -0.000131008 -7.95799e-05
-2.16336e-06 -3.79185e-06 2.55224e-06 -8.12144e-05
-2.12925e-06 -3.77203e-06 2.52912e-06 -8.12137e-05
-0.000445451 0.000129351 0.000135472 -7.95321e-05
-0.000442364 0.000128483 0.000134521 -7.9531e-05
0.000438445 -0.000135773 -0.000129717 -7.95777e-05
0.000441399 -0.000136718 -0.000130578 -7.95792e-05
-0.000443908 0.000128917 0.000134996 -7.95315e-05
-2.02762e-06 -3.71298e-06 2.46025e-06 -8.12117e-05
0.000439922 -0.000136245 -0.000130147 -7.95784e-05
-2.09526e-06 -3.75228e-06 2.50609e-06 -8.12131e-05
-2.06138e-06 -3.7326e-06 2.48313e-06 -8.12124e-05
-0.000442364 0.000128483 0.000134521 -7.9531e-05
-0.000439278 0.000127615 0.00013357 -7.95298e-05
0.000435491 -0.000134829 -0.000128855 -7.95762e-05
0.000438445 -0.000135773 -0.000129717 -7.95777e-05
-0.000440821 0.000128049 0.000134045 -7.95304e-05
-1.96043e-06 -3.67394e-06 2.41473e-06 -8.12104e-05
0.000436968 -0.000135301 -0.000129286 -7.95769e-05
-2.02762e-06 -3.71298e-06 2.46025e-06 -8.12117e-05
-1.99397e-06 -3.69343e-06 2.43745e-06 -8.1211e-05
-0.000439278 0.000127615 0.00013357 -7.95298e-05
-0.000436192 0.000126747 0.000132619 -7.95286e-05
0.000432537 -0.000133885 -0.000127994 -7.95747e-05
0.000435491 -0.000134829 -0.000128855 -7.95762e-05
-0.000437735 0.000127181 0.000133095 -7.95292e-05
-1.89371e-06 -3.63517e-06 2.36952e-06 -8.1209e-05
0.000434014 -0.000134357 -0.000128425 -7.95754e-05
-1.96043e-06 -3.67394e-06 2.41473e-06 -8.12104e-05
-1.92702e-06 -3.65452e-06 2.39209e-06 -8.12097e-05
-0.000436192 0.000126747 0.000132619 -7.95286e-05
-0.000433107 0.000125878 0.000131669 -7.95274e-05
0.000429583 -0.000132941 -0.000127132 -7.95732e-05
0.000432537 -0.000133885 -0.000127994 -7.95747e-05
-0.000434649 0.000126312 0.000132144 -7.9528e-05
-1.82746e-06 -3.59667e-06 2.32463e-06 -8.12076e-05
0.00043106 -0.000133413 -0.000127563 -7.95739e-05
-1.89371e-06 -3.63517e-06 2.36952e-06 -8.1209e-05
-1.86053e-06 -3.61589e-06 2.34704e-06 -8.12083e-05
-0.000433107 0.000125878 0.000131669 -7.95274e-05
-0.000430022 0.000125009 0.00013072 -7.95262e-05
0.000426628 -0.000131998 -0.00012627 -7.95717e-05
0.000429583 -0.000132941 -0.000127132 -7.95732e-05
-0.000431564 0.000125444 0.000131194 -7.95268e-05
-1.76166e-06 -3.55844e-06 2.28004e-06 -8.12062e-05
0.000428105 -0.00013247 -0.000126701 -7.95724e-05
-1.82746e-06 -3.59667e-06 2.32463e-06 -8.12076e-05
-1.7945e-06 -3.57752e-06 2.3023e-06 -8.12069e-05
-0.000430022 0.000125009 0.00013072 -7.95262e-05
-0.000426938 0.00012414 0.00012977 -7.9525e-05
0.000423672 -0.000131055 -0.000125407 -7.95701e-05
0.000426628 -0.000131998 -0.00012627 -7.95717e-05
-0.00042848 0.000124575 0.000130245 -7.95256e-05
-1.69633e-06 -3.52048e-06 2.23578e-06 -8.12048e-05
0.00042515 -0.000131526 -0.000125839 -7.95709e-05
-1.76166e-06 -3.55844e-06 2.28004e-06 -8.12062e-05
-1.72894e-06 -3.53943e-06 2.25787e-06 -8.12055e-05
-0.000426938 0.00012414 0.00012977 -7.9525e-05
-0.000423854 0.000123271 0.000128821 -7.95238e-05
0.000420716 -0.000130112 -0.000124545 -7.95686e-05
0.000423672 -0.000131055 -0.000125407 -7.95701e-05
-0.000425396 0.000123706 0.000129296 -7.95244e-05
-1.63146e-06 -3.48278e-06 2.19182e-06 -8.12034e-05
0.000422194 -0.000130584 -0.000124976 -7.95694e-05
-1.69633e-06 -3.52048e-06 2.23578e-06 -8.12048e-05
-1.66384e-06 -3.5016e-06 2.21376e-06 -8.12041e-05
-0.000423854 0.000123271 0.000128821 -7.95238e-05
-0.000420771 0.000122402 0.000127872 -7.95226e-05
0.00041776 -0.00012917 -0.000123682 -7.9567e-05
0.000420716 -0.000130112 -0.000124545 -7.95686e-05
-0.000422312 0.000122837 0.000128347 -7.95232e-05
-1.56705e-06 -3.44535e-06 2.14818e-06 -8.1202e-05
0.000419238 -0.000129641 -0.000124113 -7.95678e-05
-1.63146e-06 -3.48278e-06 2.19182e-06 -8.12034e-05
-1.5992e-06 -3.46403e-06 2.16996e-06 -8.12027e-05
-0.000420771 0.000122402 0.000127872 -7.95226e-05
-0.000417688 0.000121532 0.000126924 -7.95213e-05
0.000414803 -0.000128227 -0.000122818 -7.95655e-05
0.00041776 -0.00012917 -0.000123682 -7.9567e-05
-0.000419229 0.000121967 0.000127398 -7.95219e-05
-1.50311e-06 -3.4082e-06 2.10484e-06 -8.12006e-05
0.000416282 -0.000128698 -0.00012325 -7.95662e-05
-1.56705e-06 -3.44535e-06 2.14818e-06 -8.1202e-05
-1.53502e-06 -3.42674e-06 2.12647e-06 -8.12013e-05
-0.000417688 0.000121532 0.000126924 -7.95213e-05
-0.000414606 0.000120662 0.000125976 -7.95201e-05
0.000411846 -0.000127285 -0.000121955 -7.95639e-05
0.000414803 -0.000128227 -0.000122818 -7.95655e-05
-0.000416147 0.000121097 0.00012645 -7.95207e-05
-1.43963e-06 -3.37131e-06 2.06183e-06 -8.11991e-05
0.000413325 -0.000127756 -0.000122387 -7.95647e-05
-1.50311e-06 -3.4082e-06 2.10484e-06 -8.12006e-05
-1.47131e-06 -3.38972e-06 2.0833e-06 -8.11998e-05
-0.000414606 0.000120662 0.000125976 -7.95201e-05
-0.000411524 0.000119792 0.000125028 -7.95188e-05
0.000408889 -0.000126344 -0.000121091 -7.95623e-05
0.000411846 -0.000127285 -0.000121955 -7.95639e-05
-0.000413065 0.000120227 0.000125502 -7.95194e-05
-1.3766e-06 -3.33468e-06 2.01912e-06 -8.11977e-05
0.000410368 -0.000126814 -0.000121523 -7.95631e-05
-1.43963e-06 -3.37131e-06 2.06183e-06 -8.11991e-05
-1.40806e-06 -3.35296e-06 2.04044e-06 -8.11984e-05
-0.000411524 0.000119792 0.000125028 -7.95188e-05
-0.000408443 0.000118922 0.00012408 -7.95175e-05
0.000405931 -0.000125402 -0.000120227 -7.95607e-05
0.000408889 -0.000126344 -0.000121091 -7.95623e-05
-0.000409983 0.000119357 0.000124554 -7.95182e-05
-1.31405e-06 -3.29833e-06 1.97673e-06 -8.11962e-05
0.00040741 -0.000125873 -0.000120659 -7.95615e-05
-1.37661e-06 -3.33468e-06 2.01912e-06 -8.11977e-05
-1.34527e-06 -3.31647e-06 1.99789e-06 -8.11969e-05
-0.000408443 0.000118922 0.00012408 -7.95175e-05
-0.000405362 0.000118051 0.000123133 -7.95163e-05
0.000402973 -0.000124461 -0.000119362 -7.95591e-05
0.000405931 -0.000125402 -0.000120227 -7.95607e-05
-0.000406902 0.000118486 0.000123607 -7.95169e-05
-1.25195e-06 -3.26224e-06 1.93465e-06 -8.11947e-05
0.000404452 -0.000124932 -0.000119794 -7.95599e-05
-1.31405e-06 -3.29833e-06 1.97673e-06 -8.11962e-05
-1.28294e-06 -3.28025e-06 1.95565e-06 -8.11955e-05
-0.000405362 0.000118051 0.000123133 -7.95163e-05
-0.000402282 0.00011718 0.000122186 -7.9515e-05
0.000400014 -0.00012352 -0.000118497 -7.95575e-05
0.000402973 -0.000124461 -0.000119362 -7.95591e-05
-0.000403822 0.000117615 0.00012266 -7.95156e-05
-1.19032e-06 -3.22643e-06 1.89289e-06 -8.11933e-05
0.000401493 -0.000123991 -0.00011893 -7.95583e-05
-1.25195e-06 -3.26224e-06 1.93465e-06 -8.11947e-05
-1.22108e-06 -3.2443e-06 1.91373e-06 -8.1194e-05
-0.000402282 0.00011718 0.000122186 -7.9515e-05
-0.000399202 0.000116309 0.00012124 -7.95137e-05
0.000397055 -0.00012258 -0.000117632 -7.95559e-05
0.000400014 -0.00012352 -0.000118497 -7.95575e-05
-0.000400742 0.000116744 0.000121713 -7.95143e-05
-1.12915e-06 -3.19088e-06 1.85144e-06 -8.11918e-05
0.000398535 -0.00012305 -0.000118065 -7.95567e-05
-1.19032e-06 -3.22643e-06 1.89289e-06 -8.11933e-05
-1.15967e-06 -3.20862e-06 1.87212e-06 -8.11925e-05
-0.000399202 0.000116309 0.00012124 -7.95137e-05
-0.000396123 0.000115437 0.000120294 -7.95124e-05
0.000394096 -0.000121639 -0.000116767 -7.95543e-05
0.000397055 -0.00012258 -0.000117632 -7.95559e-05
-0.000397662 0.000115873 0.000120767 -7.9513e-05
-1.06844e-06 -3.1556e-06 1.8103e-06 -8.11903e-05
0.000395575 -0.000122109 -0.0001172 -7.95551e-05
-1.12915e-06 -3.19088e-06 1.85144e-06 -8.11918e-05
-1.09873e-06 -3.1732e-06 1.83083e-06 -8.1191e-05
-0.000396123 0.000115437 0.000120294 -7.95124e-05
-0.000393044 0.000114566 0.000119348 -7.95111e-05
0.000391136 -0.000120699 -0.000115901 -7.95527e-05
0.000394096 -0.000121639 -0.000116767 -7.95543e-05
-0.000394583 0.000115001 0.000119821 -7.95117e-05
-1.00819e-06 -3.12058e-06 1.76947e-06 -8.11888e-05
0.000392616 -0.000121169 -0.000116334 -7.95535e-05
-1.06844e-06 -3.1556e-06 1.8103e-06 -8.11903e-05
-1.03826e-06 -3.13806e-06 1.78985e-06 -8.11895e-05
-0.000393044 0.000114566 0.000119348 -7.95111e-05
-0.000389966 0.000113694 0.000118402 -7.95098e-05
0.000388175 -0.00011976 -0.000115035 -7.9551e-05
0.000391136 -0.000120699 -0.000115901 -7.95527e-05
-0.000391505 0.00011413 0.000118875 -7.95104e-05
-9.48406e-07 -3.08584e-06 1.72896e-06 -8.11873e-05
0.000389656 -0.000120229 -0.000115468 -7.95518e-05
-1.00819e-06 -3.12058e-06 1.76947e-06 -8.11888e-05
-9.78241e-07 -3.10318e-06 1.74918e-06 -8.11881e-05
-0.000389966 0.000113694 0.000118402 -7.95098e-05
-0.000386888 0.000112822 0.000117457 -7.95085e-05
0.000385215 -0.00011882 -0.000114169 -7.95494e-05
0.000388175 -0.00011976 -0.000115035 -7.9551e-05
-0.000388427 0.000113258 0.00011793 -7.95091e-05
-8.89085e-07 -3.05136e-06 1.68876e-06 -8.11858e-05
0.000386695 -0.00011929 -0.000114602 -7.95502e-05
-9.48406e-07 -3.08584e-06 1.72896e-06 -8.11873e-05
-9.18688e-07 -3.06857e-06 1.70882e-06 -8.11865e-05
-0.000386888 0.000112822 0.000117457 -7.95085e-05
-0.000383811 0.000111949 0.000116512 -7.95071e-05
0.000382254 -0.000117881 -0.000113303 -7.95478e-05
0.000385215 -0.00011882 -0.000114169 -7.95494e-05
-0.00038535 0.000112385 0.000116985 -7.95078e-05
-8.30225e-07 -3.01715e-06 1.64888e-06 -8.11843e-05
0.000383734 -0.00011835 -0.000113736 -7.95486e-05
-8.89085e-07 -3.05136e-06 1.68876e-06 -8.11858e-05
-8.59597e-07 -3.03422e-06 1.66878e-06 -8.1185e-05
-0.000383811 0.000111949 0.000116512 -7.95071e-05
-0.000380734 0.000111077 0.000115568 -7.95058e-05
0.000379292 -0.000116942 -0.000112436 -7.95461e-05
0.000382254 -0.000117881 -0.000113303 -7.95478e-05
-0.000382273 0.000111513 0.00011604 -7.95065e-05
-7.71828e-07 -2.98322e-06 1.6093e-06 -8.11828e-05
0.000380773 -0.000117411 -0.000112869 -7.95469e-05
-8.30225e-07 -3.01715e-06 1.64888e-06 -8.11843e-05
-8.00969e-07 -3.00015e-06 1.62905e-06 -8.11835e-05
-0.000380734 0.000111077 0.000115568 -7.95058e-05
-0.000377658 0.000110204 0.000114623 -7.95045e-05
0.00037633 -0.000116003 -0.000111569 -7.95445e-05
0.000379292 -0.000116942 -0.000112436 -7.95461e-05
-0.000379196 0.00011064 0.000115096 -7.95052e-05
-7.13893e-07 -2.94954e-06 1.57004e-06 -8.11812e-05
0.000377811 -0.000116473 -0.000112002 -7.95453e-05
-7.71828e-07 -2.98322e-06 1.6093e-06 -8.11828e-05
-7.42803e-07 -2.96635e-06 1.58964e-06 -8.1182e-05
-0.000377658 0.000110204 0.000114623 -7.95045e-05
-0.000374583 0.00010933 0.00011368 -7.95032e-05
0.000373368 -0.000115065 -0.000110701 -7.95428e-05
0.00037633 -0.000116003 -0.000111569 -7.95445e-05
-0.00037612 0.000109767 0.000114151 -7.95038e-05
-6.56421e-07 -2.91614e-06 1.5311e-06 -8.11797e-05
0.000374849 -0.000115534 -0.000111135 -7.95436e-05
-7.13893e-07 -2.94954e-06 1.57004e-06 -8.11812e-05
-6.85099e-07 -2.93281e-06 1.55053e-06 -8.11805e-05
-0.000374583 0.00010933 0.00011368 -7.95032e-05
-0.000371508 0.000108457 0.000112736 -7.95018e-05
0.000370406 -0.000114127 -0.000109834 -7.95411e-05
0.000373368 -0.000115065 -0.000110701 -7.95428e-05
-0.000373045 0.000108894 0.000113208 -7.95025e-05
-5.99411e-07 -2.88301e-06 1.49246e-06 -8.11782e-05
0.000371887 -0.000114596 -0.000110268 -7.9542e-05
-6.56421e-07 -2.91614e-06 1.5311e-06 -8.11797e-05
-6.27858e-07 -2.89954e-06 1.51174e-06 -8.1179e-05
-0.000371508 0.000108457 0.000112736 -7.95018e-05
-0.000368433 0.000107583 0.000111793 -7.95005e-05
0.000367442 -0.000113189 -0.000108966 -7.95395e-05
0.000370406 -0.000114127 -0.000109834 -7.95411e-05
-0.00036997 0.00010802 0.000112264 -7.95011e-05
-5.42863e-07 -2.85014e-06 1.45414e-06 -8.11767e-05
0.000368924 -0.000113658 -0.0001094 -7.95403e-05
-5.99411e-07 -2.88301e-06 1.49246e-06 -8.11782e-05
-5.71079e-07 -2.86654e-06 1.47327e-06 -8.11774e-05
-0.000368433 0.000107583 0.000111793 -7.95005e-05
-0.000365359 0.00010671 0.00011085 -7.94991e-05
0.000364479 -0.000112252 -0.000108097 -7.95378e-05
0.000367442 -0.000113189 -0.000108966 -7.95395e-05
-0.000366896 0.000107147 0.000111321 -7.94998e-05
-4.86777e-07 -2.81754e-06 1.41614e-06 -8.11751e-05
0.000365961 -0.00011272 -0.000108532 -7.95387e-05
-5.42863e-07 -2.85014e-06 1.45414e-06 -8.11767e-05
-5.14763e-07 -2.83381e-06 1.4351e-06 -8.11759e-05
-0.000365359 0.00010671 0.00011085 -7.94991e-05
-0.000362285 0.000105836 0.000109907 -7.94978e-05
0.000361515 -0.000111314 -0.000107229 -7.95362e-05
0.000364479 -0.000112252 -0.000108097 -7.95378e-05
-0.000363822 0.000106273 0.000110378 -7.94985e-05
-4.31154e-07 -2.78521e-06 1.37844e-06 -8.11736e-05
0.000362997 -0.000111783 -0.000107663 -7.9537e-05
-4.86777e-07 -2.81754e-06 1.41614e-06 -8.11751e-05
-4.58908e-07 -2.80135e-06 1.39725e-06 -8.11744e-05
-0.000362285 0.000105836 0.000109907 -7.94978e-05
-0.000359212 0.000104961 0.000108965 -7.94964e-05
0.000358551 -0.000110377 -0.00010636 -7.95345e-05
0.000361515 -0.000111314 -0.000107229 -7.95362e-05
-0.000360749 0.000105398 0.000109436 -7.94971e-05
-3.75993e-07 -2.75315e-06 1.34106e-06 -8.1172e-05
0.000360033 -0.000110846 -0.000106795 -7.95353e-05
-4.31154e-07 -2.78521e-06 1.37844e-06 -8.11736e-05
-4.03516e-07 -2.76915e-06 1.35971e-06 -8.11728e-05
-0.000359212 0.000104961 0.000108965 -7.94964e-05
-0.00035614 0.000104087 0.000108023 -7.94951e-05
0.000355586 -0.000109441 -0.000105491 -7.95328e-05
0.000358551 -0.000110377 -0.00010636 -7.95345e-05
-0.000357676 0.000104524 0.000108494 -7.94958e-05
-3.21295e-07 -2.72136e-06 1.304e-06 -8.11705e-05
0.000357069 -0.000109909 -0.000105926 -7.95337e-05
-3.75993e-07 -2.75315e-06 1.34106e-06 -8.1172e-05
-3.48587e-07 -2.73722e-06 1.32249e-06 -8.11713e-05
-0.00035614 0.000104087 0.000108023 -7.94951e-05
-0.000353068 0.000103212 0.000107081 -7.94937e-05
0.000352621 -0.000108504 -0.000104622 -7.95311e-05
0.000355586 -0.000109441 -0.000105491 -7.95328e-05
-0.000354604 0.000103649 0.000107552 -7.94944e-05
-2.67059e-07 -2.68984e-06 1.26724e-06 -8.1169e-05
0.000354104 -0.000108973 -0.000105056 -7.9532e-05
-3.21295e-07 -2.72136e-06 1.304e-06 -8.11705e-05
-2.94119e-07 -2.70557e-06 1.28558e-06 -8.11697e-05
-0.000353068 0.000103212 0.000107081 -7.94937e-05
-0.000349996 0.000102337 0.00010614 -7.94924e-05
0.000349656 -0.000107568 -0.000103752 -7.95295e-05
0.000352621 -0.000108504 -0.000104622 -7.95311e-05
-0.000351532 0.000102774 0.00010661 -7.94931e-05
-2.13285e-07 -2.65858e-06 1.2308e-06 -8.11674e-05
0.000351139 -0.000108036 -0.000104187 -7.95303e-05
-2.67059e-07 -2.68984e-06 1.26724e-06 -8.1169e-05
-2.40114e-07 -2.67418e-06 1.24898e-06 -8.11682e-05
-0.000349996 0.000102337 0.00010614 -7.94924e-05
-0.000346925 0.000101461 0.000105199 -7.9491e-05
0.00034669 -0.000106632 -0.000102882 -7.95278e-05
0.000349656 -0.000107568 -0.000103752 -7.95295e-05
-0.000348461 0.000101899 0.000105669 -7.94917e-05
-1.59973e-07 -2.62759e-06 1.19467e-06 -8.11659e-05
0.000348173 -0.0001071 -0.000103317 -7.95286e-05
-2.13285e-07 -2.65858e-06 1.2308e-06 -8.11674e-05
-1.86571e-07 -2.64305e-06 1.2127e-06 -8.11666e-05
-0.000346925 0.000101461 0.000105199 -7.9491e-05
-0.000343855 0.000100586 0.000104258 -7.94897e-05
0.000343724 -0.000105697 -0.000102012 -7.95261e-05
0.00034669 -0.000106632 -0.000102882 -7.95278e-05
-0.00034539 0.000101024 0.000104728 -7.94904e-05
-1.07124e-07 -2.59688e-06 1.15886e-06 -8.11643e-05
0.000345207 -0.000106165 -0.000102447 -7.9527e-05
-1.59973e-07 -2.62759e-06 1.19467e-06 -8.11659e-05
-1.33491e-07 -2.6122e-06 1.17673e-06 -8.11651e-05
-0.000343855 0.000100586 0.000104258 -7.94897e-05
-0.000340785 9.97099e-05 0.000103318 -7.94883e-05
0.000340757 -0.000104762 -0.000101141 -7.95245e-05
0.000343724 -0.000105697 -0.000102012 -7.95261e-05
-0.00034232 0.000100148 0.000103788 -7.9489e-05
-5.47366e-08 -2.56643e-06 1.12336e-06 -8.11628e-05
0.00034224 -0.000105229 -0.000101576 -7.95253e-05
-1.07124e-07 -2.59688e-06 1.15886e-06 -8.11643e-05
-8.08726e-08 -2.58162e-06 1.14107e-06 -8.11636e-05
-0.000340785 9.97099e-05 0.000103318 -7.94883e-05
-0.000337715 9.88339e-05 0.000102378 -7.9487e-05
0.00033779 -0.000103827 -0.00010027 -7.95228e-05
0.000340757 -0.000104762 -0.000101141 -7.95245e-05
-0.00033925 9.92719e-05 0.000102848 -7.94877e-05
-2.81176e-09 -2.53624e-06 1.08817e-06 -8.11612e-05
0.000339274 -0.000104294 -0.000100706 -7.95236e-05
-5.47366e-08 -2.56643e-06 1.12336e-06 -8.11628e-05
-2.87167e-08 -2.5513e-06 1.10572e-06 -8.1162e-05
-0.000337715 9.88339e-05 0.000102378 -7.9487e-05
-0.000334646 9.79576e-05 0.000101438 -7.94856e-05
0.000334823 -0.000102892 -9.93989e-05 -7.95211e-05
0.00033779 -0.000103827 -0.00010027 -7.95228e-05
-0.000336181 9.83957e-05 0.000101908 -7.94863e-05
4.86508e-08 -2.50633e-06 1.05329e-06 -8.11597e-05
0.000336306 -0.000103359 -9.98345e-05 -7.95219e-05
-2.81176e-09 -2.53624e-06 1.08817e-06 -8.11612e-05
2.2977e-08 -2.52125e-06 1.07069e-06 -8.11605e-05
-0.000334646 9.79576e-05 0.000101438 -7.94856e-05
-0.000331578 9.7081e-05 0.000100499 -7.94843e-05
0.000331855 -0.000101957 -9.85274e-05 -7.95194e-05
0.000334823 -0.000102892 -9.93989e-05 -7.95211e-05
-0.000333112 9.75193e-05 0.000100968 -7.9485e-05
9.96511e-08 -2.47669e-06 1.01873e-06 -8.11582e-05
0.000333339 -0.000102425 -9.89632e-05 -7.95203e-05
4.86508e-08 -2.50633e-06 1.05329e-06 -8.11597e-05
7.42084e-08 -2.49147e-06 1.03597e-06 -8.11589e-05
-0.000331578 9.7081e-05 0.000100499 -7.94843e-05
-0.00032851 9.62042e-05 9.95597e-05 -7.94829e-05
0.000328887 -0.000101023 -9.76557e-05 -7.95178e-05
0.000331855 -0.000101957 -9.85274e-05 -7.95194e-05
-0.000330044 9.66426e-05 0.000100029 -7.94836e-05
1.50189e-07 -2.44731e-06 9.8448e-07 -8.11566e-05
0.000330371 -0.00010149 -9.80916e-05 -7.95186e-05
9.96511e-08 -2.47669e-06 1.01873e-06 -8.11582e-05
1.24978e-07 -2.46196e-06 1.00157e-06 -8.11574e-05
-0.00032851 9.62042e-05 9.95597e-05 -7.94829e-05
-0.000325443 9.53272e-05 9.8621e-05 -7.94816e-05
0.000325918 -0.000100089 -9.67837e-05 -7.95161e-05
0.000328887 -0.000101023 -9.76557e-05 -7.95178e-05
-0.000326976 9.57657e-05 9.90903e-05 -7.94823e-05
2.00265e-07 -2.4182e-06 9.50544e-07 -8.11551e-05
0.000327402 -0.000100556 -9.72197e-05 -7.95169e-05
1.50189e-07 -2.44731e-06 9.8448e-07 -8.11566e-05
1.75285e-07 -2.43272e-06 9.67473e-07 -8.11559e-05
-0.000325443 9.53272e-05 9.8621e-05 -7.94816e-05
-0.000322376 9.44499e-05 9.76826e-05 -7.94802e-05
0.000322949 -9.91559e-05 -9.59113e-05 -7.95144e-05
0.000325918 -0.000100089 -9.67837e-05 -7.95161e-05
-0.000323909 9.48886e-05 9.81517e-05 -7.94809e-05
2.49879e-07 -2.38936e-06 9.16921e-07 -8.11535e-05
0.000324434 -9.96226e-05 -9.63475e-05 -7.95153e-05
2.00265e-07 -2.4182e-06 9.50544e-07 -8.11551e-05
2.25129e-07 -2.40375e-06 9.33693e-07 -8.11543e-05
-0.000322376 9.44499e-05 9.76826e-05 -7.94802e-05
-0.00031931 9.35724e-05 9.67445e-05 -7.94789e-05
0.00031998 -9.82225e-05 -9.50387e-05 -7.95128e-05
0.000322949 -9.91559e-05 -9.59113e-05 -7.95144e-05
-0.000320843 9.40111e-05 9.72135e-05 -7.94796e-05
2.9903e-07 -2.36079e-06 8.83611e-07 -8.1152e-05
0.000321464 -9.86892e-05 -9.54751e-05 -7.95136e-05
2.49879e-07 -2.38936e-06 9.16921e-07 -8.11535e-05
2.74512e-07 -2.37504e-06 9.00227e-07 -8.11528e-05
-0.00031931 9.35724e-05 9.67445e-05 -7.94789e-05
-0.000316244 9.26946e-05 9.58067e-05 -7.94776e-05
0.00031701 -9.72895e-05 -9.41658e-05 -7.95111e-05
0.00031998 -9.82225e-05 -9.50387e-05 -7.95128e-05
-0.000317777 9.31335e-05 9.62756e-05 -7.94782e-05
3.47719e-07 -2.33249e-06 8.50614e-07 -8.11505e-05
0.000318495 -9.7756e-05 -9.46023e-05 -7.95119e-05
2.9903e-07 -2.36079e-06 8.83611e-07 -8.1152e-05
3.23432e-07 -2.3466e-06 8.67074e-07 -8.11512e-05
-0.000316244 9.26946e-05 9.58067e-05 -7.94776e-05
-0.000313178 9.18166e-05 9.48693e-05 -7.94762e-05
0.00031404 -9.63568e-05 -9.32926e-05 -7.95095e-05
0.00031701 -9.72895e-05 -9.41658e-05 -7.95111e-05
-0.000314711 9.22556e-05 9.5338e-05 -7.94769e-05
3.95946e-07 -2.30445e-06 8.17931e-07 -8.1149e-05
0.000315525 -9.68231e-05 -9.37292e-05 -7.95103e-05
3.47719e-07 -2.33249e-06 8.50614e-07 -8.11505e-05
3.7189e-07 -2.31844e-06 8.34234e-07 -8.11497e-05
-0.000313178 9.18166e-05 9.48693e-05 -7.94762e-05
-0.000310113 9.09383e-05 9.39322e-05 -7.94749e-05
0.000311069 -9.54243e-05 -9.24191e-05 -7.95078e-05
0.00031404 -9.63568e-05 -9.32926e-05 -7.95095e-05
-0.000311646 9.13775e-05 9.44007e-05 -7.94756e-05
4.43711e-07 -2.27669e-06 7.8556e-07 -8.11474e-05
0.000312554 -9.58905e-05 -9.28559e-05 -7.95086e-05
3.95946e-07 -2.30445e-06 8.17931e-07 -8.1149e-05
4.19886e-07 -2.29053e-06 8.01707e-07 -8.11482e-05
-0.000310113 9.09383e-05 9.39322e-05 -7.94749e-05
-0.000307049 9.00598e-05 9.29954e-05 -7.94736e-05
0.000308098 -9.44921e-05 -9.15453e-05 -7.95062e-05
0.000311069 -9.54243e-05 -9.24191e-05 -7.95078e-05
-0.000308581 9.04991e-05 9.34638e-05 -7.94742e-05
4.91014e-07 -2.24919e-06 7.53503e-07 -8.11459e-05
0.000309583 -9.49581e-05 -9.19823e-05 -7.9507e-05
4.43711e-07 -2.27669e-06 7.8556e-07 -8.11474e-05
4.6742e-07 -2.2629e-06 7.69493e-07 -8.11467e-05
-0.000307049 9.00598e-05 9.29954e-05 -7.94736e-05
-0.000303985 8.9181e-05 9.2059e-05 -7.94722e-05
0.000305126 -9.35602e-05 -9.06713e-05 -7.95045e-05
0.000308098 -9.44921e-05 -9.15453e-05 -7.95062e-05
-0.000305517 8.96205e-05 9.25272e-05 -7.94729e-05
5.37854e-07 -2.22196e-06 7.21759e-07 -8.11444e-05
0.000306612 -9.40261e-05 -9.11083e-05 -7.95053e-05
4.91014e-07 -2.24919e-06 7.53503e-07 -8.11459e-05
5.14492e-07 -2.23554e-06 7.37592e-07 -8.11452e-05
-0.000303985 8.9181e-05 9.2059e-05 -7.94722e-05
-0.000300922 8.8302e-05 9.11229e-05 -7.94709e-05
0.000302155 -9.26285e-05 -8.97969e-05 -7.95029e-05
0.000305126 -9.35602e-05 -9.06713e-05 -7.95045e-05
-0.000302454 8.87416e-05 9.15909e-05 -7.94716e-05
5.84233e-07 -2.195e-06 6.90328e-07 -8.11429e-05
0.000303641 -9.30943e-05 -9.02341e-05 -7.95037e-05
5.37854e-07 -2.22196e-06 7.21759e-07 -8.11444e-05
5.61101e-07 -2.20844e-06 7.06004e-07 -8.11436e-05
-0.000300922 8.8302e-05 9.11229e-05 -7.94709e-05
-0.000297859 8.74228e-05 9.01871e-05 -7.94696e-05
0.000299182 -9.16972e-05 -8.89223e-05 -7.95012e-05
0.000302155 -9.26285e-05 -8.97969e-05 -7.95029e-05
-0.000299391 8.78625e-05 9.06549e-05 -7.94703e-05
6.30149e-07 -2.16831e-06 6.5921e-07 -8.11414e-05
0.000300669 -9.21628e-05 -8.93596e-05 -7.95021e-05
5.84233e-07 -2.195e-06 6.90328e-07 -8.11429e-05
6.07248e-07 -2.18162e-06 6.7473e-07 -8.11421e-05
-0.000297859 8.74228e-05 9.01871e-05 -7.94696e-05
-0.000294797 8.65433e-05 8.92516e-05 -7.94683e-05
0.00029621 -9.07661e-05 -8.80473e-05 -7.94996e-05
0.000299182 -9.16972e-05 -8.89223e-05 -7.95012e-05
-0.000296328 8.69831e-05 8.97193e-05 -7.94689e-05
6.75603e-07 -2.14188e-06 6.28405e-07 -8.11399e-05
0.000297696 -9.12316e-05 -8.84848e-05 -7.95004e-05
6.30149e-07 -2.16831e-06 6.5921e-07 -8.11414e-05
6.52934e-07 -2.15506e-06 6.43768e-07 -8.11406e-05
-0.000294797 8.65433e-05 8.92516e-05 -7.94683e-05
-0.000291735 8.56636e-05 8.83164e-05 -7.9467e-05
0.000293237 -8.98353e-05 -8.71721e-05 -7.9498e-05
0.00029621 -9.07661e-05 -8.80473e-05 -7.94996e-05
-0.000293266 8.61035e-05 8.8784e-05 -7.94676e-05
7.20595e-07 -2.11573e-06 5.97913e-07 -8.11384e-05
0.000294723 -9.03007e-05 -8.76097e-05 -7.94988e-05
6.75603e-07 -2.14188e-06 6.28405e-07 -8.11399e-05
6.98157e-07 -2.12877e-06 6.1312e-07 -8.11391e-05
-0.000291735 8.56636e-05 8.83164e-05 -7.9467e-05
-0.000288674 8.47836e-05 8.73816e-05 -7.94657e-05
0.000290263 -8.89048e-05 -8.62966e-05 -7.94964e-05
0.000293237 -8.98353e-05 -8.71721e-05 -7.9498e-05
-0.000290205 8.52236e-05 8.7849e-05 -7.94663e-05
7.65125e-07 -2.08984e-06 5.67734e-07 -8.11369e-05
0.00029175 -8.937e-05 -8.67344e-05 -7.94972e-05
7.20595e-07 -2.11573e-06 5.97913e-07 -8.11384e-05
7.42918e-07 -2.10275e-06 5.82784e-07 -8.11376e-05
-0.000288674 8.47836e-05 8.73816e-05 -7.94657e-05
-0.000285613 8.39034e-05 8.64471e-05 -7.94644e-05
0.00028729 -8.79745e-05 -8.54207e-05 -7.94947e-05
0.000290263 -8.89048e-05 -8.62966e-05 -7.94964e-05
-0.000287144 8.43435e-05 8.69143e-05 -7.9465e-05
8.09193e-07 -2.06422e-06 5.37868e-07 -8.11354e-05
0.000288777 -8.84396e-05 -8.58587e-05 -7.94956e-05
7.65125e-07 -2.08984e-06 5.67734e-07 -8.11369e-05
7.87217e-07 -2.077e-06 5.52762e-07 -8.11361e-05
-0.000285613 8.39034e-05 8.64471e-05 -7.94644e-05
-0.000282553 8.30229e-05 8.55129e-05 -7.94631e-05
0.000284315 -8.70446e-05 -8.45446e-05 -7.94931e-05
0.00028729 -8.79745e-05 -8.54207e-05 -7.94947e-05
-0.000284083 8.34632e-05 8.598e-05 -7.94637e-05
8.52799e-07 -2.03887e-06 5.08316e-07 -8.11339e-05
0.000285803 -8.75095e-05 -8.49827e-05 -7.94939e-05
8.09193e-07 -2.06422e-06 5.37868e-07 -8.11354e-05
8.31054e-07 -2.05151e-06 5.23053e-07 -8.11347e-05
-0.000282553 8.30229e-05 8.55129e-05 -7.94631e-05
-0.000279493 8.21422e-05 8.45791e-05 -7.94618e-05
0.000281341 -8.61149e-05 -8.36682e-05 -7.94915e-05
0.000284315 -8.70446e-05 -8.45446e-05 -7.94931e-05
-0.000281023 8.25826e-05 8.5046e-05 -7.94625e-05
8.95943e-07 -2.01379e-06 4.79076e-07 -8.11325e-05
0.000282828 -8.65797e-05 -8.41065e-05 -7.94923e-05
8.52799e-07 -2.03887e-06 5.08316e-07 -8.11339e-05
8.74428e-07 -2.02629e-06 4.93657e-07 -8.11332e-05
-0.000279493 8.21422e-05 8.45791e-05 -7.94618e-05
-0.000276434 8.12613e-05 8.36455e-05 -7.94605e-05
0.000278366 -8.51855e-05 -8.27916e-05 -7.94899e-05
0.000281341 -8.61149e-05 -8.36682e-05 -7.94915e-05
-0.000277964 8.17018e-05 8.41123e-05 -7.94612e-05
9.38624e-07 -1.98897e-06 4.5015e-07 -8.1131e-05
0.000279853 -8.56501e-05 -8.32299e-05 -7.94907e-05
8.95943e-07 -2.01379e-06 4.79076e-07 -8.11325e-05
9.17341e-07 -2.00135e-06 4.64574e-07 -8.11317e-05
-0.000276434 8.12613e-05 8.36455e-05 -7.94605e-05
-0.000273376 8.03801e-05 8.27123e-05 -7.94593e-05
0.00027539 -8.42564e-05 -8.19146e-05 -7.94884e-05
0.000278366 -8.51855e-05 -8.27916e-05 -7.94899e-05
-0.000274905 8.08207e-05 8.31789e-05 -7.94599e-05
9.80844e-07 -1.96443e-06 4.21536e-07 -8.11295e-05
0.000276878 -8.47209e-05 -8.23531e-05 -7.94891e-05
9.38624e-07 -1.98897e-06 4.5015e-07 -8.1131e-05
9.59792e-07 -1.97667e-06 4.35804e-07 -8.11303e-05
-0.000273376 8.03801e-05 8.27123e-05 -7.94593e-05
-0.000270317 7.94986e-05 8.17794e-05 -7.9458e-05
0.000272415 -8.33275e-05 -8.10373e-05 -7.94868e-05
0.00027539 -8.42564e-05 -8.19146e-05 -7.94884e-05
-0.000271846 7.99394e-05 8.22458e-05 -7.94586e-05
1.0226e-06 -1.94015e-06 3.93236e-07 -8.11281e-05
0.000273903 -8.37919e-05 -8.1476e-05 -7.94876e-05
9.80844e-07 -1.96443e-06 4.21536e-07 -8.11295e-05
1.00178e-06 -1.95226e-06 4.07347e-07 -8.11288e-05
-0.000270317 7.94986e-05 8.17794e-05 -7.9458e-05
-0.00026726 7.86169e-05 8.08469e-05 -7.94568e-05
0.000269438 -8.23989e-05 -8.01597e-05 -7.94852e-05
0.000272415 -8.33275e-05 -8.10373e-05 -7.94868e-05
-0.000268788 7.90578e-05 8.13131e-05 -7.94574e-05
1.0639e-06 -1.91614e-06 3.65248e-07 -8.11266e-05
0.000270926 -8.28632e-05 -8.05986e-05 -7.9486e-05
1.0226e-06 -1.94015e-06 3.93236e-07 -8.11281e-05
1.04331e-06 -1.92811e-06 3.79203e-07 -8.11274e-05
-0.00026726 7.86169e-05 8.08469e-05 -7.94568e-05
-0.000264203 7.7735e-05 7.99146e-05 -7.94555e-05
0.000266462 -8.14707e-05 -7.92819e-05 -7.94836e-05
0.000269438 -8.23989e-05 -8.01597e-05 -7.94852e-05
-0.000265731 7.8176e-05 8.03807e-05 -7.94561e-05
1.10473e-06 -1.8924e-06 3.37574e-07 -8.11252e-05
0.00026795 -8.19348e-05 -7.97208e-05 -7.94844e-05
1.0639e-06 -1.91614e-06 3.65248e-07 -8.11266e-05
1.08437e-06 -1.90424e-06 3.51372e-07 -8.11259e-05
-0.000264203 7.7735e-05 7.99146e-05 -7.94555e-05
-0.000261146 7.68528e-05 7.89827e-05 -7.94543e-05
0.000263485 -8.05426e-05 -7.84037e-05 -7.94821e-05
0.000266462 -8.14707e-05 -7.92819e-05 -7.94836e-05
-0.000262674 7.72939e-05 7.94486e-05 -7.94549e-05
1.1451e-06 -1.86893e-06 3.10212e-07 -8.11238e-05
0.000264973 -8.10066e-05 -7.88428e-05 -7.94829e-05
1.10473e-06 -1.8924e-06 3.37574e-07 -8.11252e-05
1.12497e-06 -1.88063e-06 3.23854e-07 -8.11245e-05
-0.000261146 7.68528e-05 7.89827e-05 -7.94543e-05
-0.00025809 7.59704e-05 7.80511e-05 -7.94531e-05
0.000260507 -7.96149e-05 -7.75253e-05 -7.94805e-05
0.000263485 -8.05426e-05 -7.84037e-05 -7.94821e-05
-0.000259618 7.64116e-05 7.85169e-05 -7.94537e-05
1.18501e-06 -1.84573e-06 2.83164e-07 -8.11224e-05
0.000261996 -8.00787e-05 -7.79646e-05 -7.94813e-05
1.1451e-06 -1.86893e-06 3.10212e-07 -8.11238e-05
1.16512e-06 -1.8573e-06 2.96649e-07 -8.11231e-05
-0.00025809 7.59704e-05 7.80511e-05 -7.94531e-05
-0.000255034 7.50877e-05 7.71199e-05 -7.94518e-05
0.000257529 -7.86875e-05 -7.66466e-05 -7.9479e-05
0.000260507 -7.96149e-05 -7.75253e-05 -7.94805e-05
-0.000256562 7.55291e-05 7.75855e-05 -7.94524e-05
1.22446e-06 -1.82279e-06 2.56429e-07 -8.11209e-05
0.000259018 -7.91511e-05 -7.7086e-05 -7.94798e-05
1.18501e-06 -1.84573e-06 2.83164e-07 -8.11224e-05
1.20479e-06 -1.83423e-06 2.69757e-07 -8.11216e-05
-0.000255034 7.50877e-05 7.71199e-05 -7.94518e-05
-0.000251979 7.42048e-05 7.61889e-05 -7.94506e-05
0.000254551 -7.77603e-05 -7.57675e-05 -7.94775e-05
0.000257529 -7.86875e-05 -7.66466e-05 -7.9479e-05
-0.000253506 7.46463e-05 7.66544e-05 -7.94512e-05
1.26345e-06 -1.80013e-06 2.30006e-07 -8.11195e-05
0.00025604 -7.82238e-05 -7.62071e-05 -7.94782e-05
1.22446e-06 -1.82279e-06 2.56429e-07 -8.11209e-05
1.24401e-06 -1.81143e-06 2.43178e-07 -8.11202e-05
-0.000251979 7.42048e-05 7.61889e-05 -7.94506e-05
-0.000248924 7.33216e-05 7.52583e-05 -7.94494e-05
0.000251573 -7.68334e-05 -7.48882e-05 -7.94759e-05
0.000254551 -7.77603e-05 -7.57675e-05 -7.94775e-05
-0.000250452 7.37632e-05 7.57236e-05 -7.945e-05
1.30197e-06 -1.77773e-06 2.03897e-07 -8.11182e-05
0.000253062 -7.72968e-05 -7.53279e-05 -7.94767e-05
1.26345e-06 -1.80013e-06 2.30006e-07 -8.11195e-05
1.28277e-06 -1.7889e-06 2.16913e-07 -8.11188e-05
-0.000248924 7.33216e-05 7.52583e-05 -7.94494e-05
-0.00024587 7.24382e-05 7.4328e-05 -7.94482e-05
0.000248594 -7.59068e-05 -7.40086e-05 -7.94744e-05
0.000251573 -7.68334e-05 -7.48882e-05 -7.94759e-05
-0.000247397 7.288e-05 7.47931e-05 -7.94488e-05
1.34003e-06 -1.7556e-06 1.781e-07 -8.11168e-05
0.000250083 -7.637e-05 -7.44485e-05 -7.94752e-05
1.30197e-06 -1.77773e-06 2.03897e-07 -8.11182e-05
1.32106e-06 -1.76663e-06 1.9096e-07 -8.11175e-05
-0.00024587 7.24382e-05 7.4328e-05 -7.94482e-05
-0.000242817 7.15546e-05 7.3398e-05 -7.9447e-05
0.000245614 -7.49804e-05 -7.31287e-05 -7.94729e-05
0.000248594 -7.59068e-05 -7.40086e-05 -7.94744e-05
-0.000244343 7.19964e-05 7.3863e-05 -7.94476e-05
1.37763e-06 -1.73374e-06 1.52617e-07 -8.11154e-05
0.000247104 -7.54436e-05 -7.35687e-05 -7.94737e-05
1.34003e-06 -1.7556e-06 1.781e-07 -8.11168e-05
1.35889e-06 -1.74464e-06 1.6532e-07 -8.11161e-05
-0.000242817 7.15546e-05 7.3398e-05 -7.9447e-05
-0.000239764 7.06707e-05 7.24684e-05 -7.94459e-05
0.000242634 -7.40544e-05 -7.22485e-05 -7.94714e-05
0.000245614 -7.49804e-05 -7.31287e-05 -7.94729e-05
-0.00024129 7.11126e-05 7.29332e-05 -7.94465e-05
1.41477e-06 -1.71215e-06 1.27446e-07 -8.1114e-05
0.000244124 -7.45173e-05 -7.26887e-05 -7.94722e-05
1.37763e-06 -1.73374e-06 1.52617e-07 -8.11154e-05
1.39626e-06 -1.72291e-06 1.39993e-07 -8.11147e-05
-0.000239764 7.06707e-05 7.24684e-05 -7.94459e-05
-0.000236711 6.97865e-05 7.1539e-05 -7.94447e-05
0.000239654 -7.31286e-05 -7.13681e-05 -7.94699e-05
0.000242634 -7.40544e-05 -7.22485e-05 -7.94714e-05
-0.000238237 7.02286e-05 7.20037e-05 -7.94453e-05
1.45145e-06 -1.69082e-06 1.02589e-07 -8.11127e-05
0.000241144 -7.35914e-05 -7.18083e-05 -7.94707e-05
1.41477e-06 -1.71215e-06 1.27446e-07 -8.1114e-05
1.43317e-06 -1.70145e-06 1.14979e-07 -8.11134e-05
-0.000236711 6.97865e-05 7.1539e-05 -7.94447e-05
-0.000233659 6.89021e-05 7.061e-05 -7.94436e-05
0.000236673 -7.22031e-05 -7.04873e-05 -7.94685e-05
0.000239654 -7.31286e-05 -7.13681e-05 -7.94699e-05
-0.000235185 6.93443e-05 7.10745e-05 -7.94441e-05
1.48766e-06 -1.66977e-06 7.80443e-08 -8.11113e-05
0.000238164 -7.26658e-05 -7.09277e-05 -7.94692e-05
1.45145e-06 -1.69082e-06 1.02589e-07 -8.11127e-05
1.46961e-06 -1.68026e-06 9.02775e-08 -8.1112e-05
-0.000233659 6.89021e-05 7.061e-05 -7.94436e-05
-0.000230607 6.80175e-05 6.96814e-05 -7.94424e-05
0.000233692 -7.12778e-05 -6.96062e-05 -7.9467e-05
0.000236673 -7.22031e-05 -7.04873e-05 -7.94685e-05
-0.000232133 6.84598e-05 7.01457e-05 -7.9443e-05
1.52342e-06 -1.64898e-06 5.38126e-08 -8.111e-05
0.000235183 -7.17404e-05 -7.00468e-05 -7.94677e-05
1.48766e-06 -1.66977e-06 7.80443e-08 -8.11113e-05
1.5056e-06 -1.65934e-06 6.58894e-08 -8.11107e-05
-0.000230607 6.80175e-05 6.96814e-05 -7.94424e-05
-0.000227556 6.71326e-05 6.8753e-05 -7.94413e-05
0.000230711 -7.03529e-05 -6.87248e-05 -7.94655e-05
0.000233692 -7.12778e-05 -6.96062e-05 -7.9467e-05
-0.000229082 6.7575e-05 6.92171e-05 -7.94418e-05
1.55871e-06 -1.62846e-06 2.98939e-08 -8.11087e-05
0.000232202 -7.08153e-05 -6.91656e-05 -7.94663e-05
1.52342e-06 -1.64898e-06 5.38126e-08 -8.111e-05
1.54112e-06 -1.63869e-06 4.18142e-08 -8.11094e-05
-0.000227556 6.71326e-05 6.8753e-05 -7.94413e-05
-0.000224506 6.62474e-05 6.78249e-05 -7.94402e-05
0.000227729 -6.94282e-05 -6.78432e-05 -7.94641e-05
0.000230711 -7.03529e-05 -6.87248e-05 -7.94655e-05
-0.000226031 6.669e-05 6.82889e-05 -7.94407e-05
1.59354e-06 -1.60821e-06 6.28803e-09 -8.11074e-05
0.00022922 -6.98905e-05 -6.82841e-05 -7.94648e-05
1.55871e-06 -1.62846e-06 2.98939e-08 -8.11087e-05
1.57618e-06 -1.6183e-06 1.80519e-08 -8.1108e-05
-0.000224506 6.62474e-05 6.78249e-05 -7.94402e-05
-0.000221456 6.5362e-05 6.68972e-05 -7.9439e-05
0.000224747 -6.85038e-05 -6.69612e-05 -7.94627e-05
0.000227729 -6.94282e-05 -6.78432e-05 -7.94641e-05
-0.000222981 6.58048e-05 6.7361e-05 -7.94396e-05
1.6279e-06 -1.58823e-06 -1.70049e-08 -8.11061e-05
0.000226238 -6.89659e-05 -6.74023e-05 -7.94634e-05
1.59354e-06 -1.60821e-06 6.28803e-09 -8.11074e-05
1.61078e-06 -1.59818e-06 -5.39745e-09 -8.11067e-05
-0.000221456 6.5362e-05 6.68972e-05 -7.9439e-05
-0.000218406 6.44764e-05 6.59698e-05 -7.94379e-05
0.000221764 -6.75797e-05 -6.6079e-05 -7.94613e-05
0.000224747 -6.85038e-05 -6.69612e-05 -7.94627e-05
-0.000219931 6.49193e-05 6.64335e-05 -7.94385e-05
1.66181e-06 -1.56851e-06 -3.99849e-08 -8.11048e-05
0.000223255 -6.80417e-05 -6.65202e-05 -7.9462e-05
1.6279e-06 -1.58823e-06 -1.70049e-08 -8.11061e-05
1.64492e-06 -1.57834e-06 -2.85339e-08 -8.11055e-05
-0.000218406 6.44764e-05 6.59698e-05 -7.94379e-05
-0.000215357 6.35905e-05 6.50428e-05 -7.94369e-05
0.000218781 -6.66558e-05 -6.51965e-05 -7.94599e-05
0.000221764 -6.75797e-05 -6.6079e-05 -7.94613e-05
-0.000216881 6.40335e-05 6.55063e-05 -7.94374e-05
1.69525e-06 -1.54907e-06 -6.2652e-08 -8.11035e-05
0.000220273 -6.71177e-05 -6.56378e-05 -7.94606e-05
1.66181e-06 -1.56851e-06 -3.99849e-08 -8.11048e-05
1.67859e-06 -1.55876e-06 -5.13575e-08 -8.11042e-05
-0.000215357 6.35905e-05 6.50428e-05 -7.94369e-05
-0.000212308 6.27044e-05 6.4116e-05 -7.94358e-05
0.000215797 -6.57322e-05 -6.43136e-05 -7.94585e-05
0.000218781 -6.66558e-05 -6.51965e-05 -7.94599e-05
-0.000213833 6.31475e-05 6.45793e-05 -7.94363e-05
1.72824e-06 -1.52989e-06 -8.50062e-08 -8.11023e-05
0.000217289 -6.6194e-05 -6.47551e-05 -7.94592e-05
1.69525e-06 -1.54907e-06 -6.2652e-08 -8.11035e-05
1.7118e-06 -1.53944e-06 -7.38681e-08 -8.11029e-05
-0.000212308 6.27044e-05 6.4116e-05 -7.94358e-05
-0.00020926 6.1818e-05 6.31896e-05 -7.94347e-05
0.000212814 -6.48089e-05 -6.34305e-05 -7.94571e-05
0.000215797 -6.57322e-05 -6.43136e-05 -7.94585e-05
-0.000210784 6.22612e-05 6.36527e-05 -7.94353e-05
1.76076e-06 -1.51098e-06 -1.07048e-07 -8.1101e-05
0.000214306 -6.52706e-05 -6.38721e-05 -7.94578e-05
1.72824e-06 -1.52989e-06 -8.50062e-08 -8.11023e-05
1.74455e-06 -1.5204e-06 -9.60659e-08 -8.11017e-05
-0.00020926 6.1818e-05 6.31896e-05 -7.94347e-05
-0.000206213 6.09314e-05 6.22635e-05 -7.94337e-05
0.000209829 -6.38859e-05 -6.25471e-05 -7.94557e-05
0.000212814 -6.48089e-05 -6.34305e-05 -7.94571e-05
-0.000207737 6.13747e-05 6.27265e-05 -7.94342e-05
1.79282e-06 -1.49234e-06 -1.28776e-07 -8.10998e-05
0.000211321 -6.43474e-05 -6.29889e-05 -7.94564e-05
1.76076e-06 -1.51098e-06 -1.07048e-07 -8.1101e-05
1.77684e-06 -1.50163e-06 -1.17951e-07 -8.11004e-05
-0.000206213 6.09314e-05 6.22635e-05 -7.94337e-05
-0.000203166 6.00445e-05 6.13377e-05 -7.94326e-05
0.000206844 -6.29632e-05 -6.16634e-05 -7.94544e-05
0.000209829 -6.38859e-05 -6.25471e-05 -7.94557e-05
-0.000204689 6.0488e-05 6.18005e-05 -7.94332e-05
1.82441e-06 -1.47397e-06 -1.50192e-07 -8.10986e-05
0.000208337 -6.34245e-05 -6.21053e-05 -7.9455e-05
1.79282e-06 -1.49234e-06 -1.28776e-07 -8.10998e-05
1.80867e-06 -1.48312e-06 -1.39523e-07 -8.10992e-05
-0.000203166 6.00445e-05 6.13377e-05 -7.94326e-05
-0.000200119 5.91574e-05 6.04122e-05 -7.94316e-05
0.000203859 -6.20407e-05 -6.07794e-05 -7.9453e-05
0.000206844 -6.29632e-05 -6.16634e-05 -7.94544e-05
-0.000201642 5.9601e-05 6.08749e-05 -7.94321e-05
1.85555e-06 -1.45586e-06 -1.71294e-07 -8.10974e-05
0.000205352 -6.25019e-05 -6.12214e-05 -7.94537e-05
1.82441e-06 -1.47397e-06 -1.50192e-07 -8.10986e-05
1.84004e-06 -1.46488e-06 -1.60782e-07 -8.1098e-05
-0.000200119 5.91574e-05 6.04122e-05 -7.94316e-05
-0.000197073 5.82701e-05 5.9487e-05 -7.94306e-05
0.000200874 -6.11185e-05 -5.98951e-05 -7.94517e-05
0.000203859 -6.20407e-05 -6.07794e-05 -7.9453e-05
-0.000198596 5.87138e-05 5.99496e-05 -7.94311e-05
1.88622e-06 -1.43803e-06 -1.92084e-07 -8.10962e-05
0.000202367 -6.15796e-05 -6.03373e-05 -7.94523e-05
1.85555e-06 -1.45586e-06 -1.71294e-07 -8.10974e-05
1.87094e-06 -1.44691e-06 -1.81728e-07 -8.10968e-05
-0.000197073 5.82701e-05 5.9487e-05 -7.94306e-05
-0.000194028 5.73824e-05 5.85622e-05 -7.94296e-05
0.000197888 -6.01966e-05 -5.90105e-05 -7.94504e-05
0.000200874 -6.11185e-05 -5.98951e-05 -7.94517e-05
-0.00019555 5.78263e-05 5.90246e-05 -7.94301e-05
1.91644e-06 -1.42046e-06 -2.12561e-07 -8.1095e-05
0.000199381 -6.06575e-05 -5.94529e-05 -7.9451e-05
1.88622e-06 -1.43803e-06 -1.92084e-07 -8.10962e-05
1.90139e-06 -1.42921e-06 -2.02362e-07 -8.10956e-05
-0.000194028 5.73824e-05 5.85622e-05 -7.94296e-05
-0.000190983 5.64946e-05 5.76377e-05 -7.94286e-05
0.000194901 -5.9275e-05 -5.81256e-05 -7.94491e-05
0.000197888 -6.01966e-05 -5.90105e-05 -7.94504e-05
-0.000192505 5.69385e-05 5.80999e-05 -7.94291e-05
1.94619e-06 -1.40316e-06 -2.32726e-07 -8.10938e-05
0.000196395 -5.97357e-05 -5.85681e-05 -7.94497e-05
1.91644e-06 -1.42046e-06 -2.12561e-07 -8.1095e-05
1.93137e-06 -1.41178e-06 -2.22683e-07 -8.10944e-05
-0.000190983 5.64946e-05 5.76377e-05 -7.94286e-05
-0.000187938 5.56065e-05 5.67135e-05 -7.94277e-05
0.000191915 -5.83536e-05 -5.72405e-05 -7.94478e-05
0.000194901 -5.9275e-05 -5.81256e-05 -7.94491e-05
-0.00018946 5.60505e-05 5.71756e-05 -7.94281e-05
1.97548e-06 -1.38613e-06 -2.52577e-07 -8.10927e-05
0.000193408 -5.88142e-05 -5.76831e-05 -7.94484e-05
1.94619e-06 -1.40316e-06 -2.32726e-07 -8.10938e-05
1.96089e-06 -1.39461e-06 -2.4269e-07 -8.10932e-05
-0.000187938 5.56065e-05 5.67135e-05 -7.94277e-05
-0.000184894 5.47181e-05 5.57897e-05 -7.94267e-05
0.000188927 -5.74325e-05 -5.6355e-05 -7.94465e-05
0.000191915 -5.83536e-05 -5.72405e-05 -7.94478e-05
-0.000186416 5.51623e-05 5.62515e-05 -7.94272e-05
2.0043e-06 -1.36937e-06 -2.72116e-07 -8.10915e-05
0.000190421 -5.7893e-05 -5.67978e-05 -7.94471e-05
1.97548e-06 -1.38613e-06 -2.52577e-07 -8.10927e-05
1.98995e-06 -1.37772e-06 -2.62385e-07 -8.10921e-05
-0.000184894 5.47181e-05 5.57897e-05 -7.94267e-05
-0.00018185 5.38295e-05 5.48661e-05 -7.94258e-05
0.00018594 -5.65117e-05 -5.54692e-05 -7.94452e-05
0.000188927 -5.74325e-05 -5.6355e-05 -7.94465e-05
-0.000183372 5.42738e-05 5.53278e-05 -7.94262e-05
2.03267e-06 -1.35287e-06 -2.91341e-07 -8.10904e-05
0.000187434 -5.69721e-05 -5.59121e-05 -7.94459e-05
2.0043e-06 -1.36937e-06 -2.72116e-07 -8.10915e-05
2.01854e-06 -1.36109e-06 -2.81768e-07 -8.1091e-05
-0.00018185 5.38295e-05 5.48661e-05 -7.94258e-05
-0.000178807 5.29406e-05 5.39429e-05 -7.94248e-05
0.000182952 -5.55911e-05 -5.45832e-05 -7.9444e-05
0.00018594 -5.65117e-05 -5.54692e-05 -7.94452e-05
-0.000180329 5.33851e-05 5.44044e-05 -7.94253e-05
2.06057e-06 -1.33665e-06 -3.10254e-07 -8.10893e-05
0.000184446 -5.60514e-05 -5.50262e-05 -7.94446e-05
2.03267e-06 -1.35287e-06 -2.91341e-07 -8.10904e-05
2.04668e-06 -1.34473e-06 -3.00837e-07 -8.10898e-05
-0.000178807 5.29406e-05 5.39429e-05 -7.94248e-05
-0.000175765 5.20515e-05 5.302e-05 -7.94239e-05
0.000179963 -5.46709e-05 -5.36968e-05 -7.94427e-05
0.000182952 -5.55911e-05 -5.45832e-05 -7.9444e-05
-0.000177286 5.24961e-05 5.34814e-05 -7.94244e-05
2.08802e-06 -1.32069e-06 -3.28855e-07 -8.10882e-05
0.000181458 -5.5131e-05 -5.414e-05 -7.94434e-05
2.06057e-06 -1.33665e-06 -3.10254e-07 -8.10893e-05
2.07435e-06 -1.32864e-06 -3.19594e-07 -8.10887e-05
-0.000175765 5.20515e-05 5.302e-05 -7.94239e-05
-0.000172723 5.11622e-05 5.20974e-05 -7.9423e-05
0.000176975 -5.37509e-05 -5.28101e-05 -7.94415e-05
0.000179963 -5.46709e-05 -5.36968e-05 -7.94427e-05
-0.000174244 5.16069e-05 5.25586e-05 -7.94235e-05
2.115e-06 -1.305e-06 -3.47142e-07 -8.10871e-05
0.000178469 -5.42109e-05 -5.32535e-05 -7.94421e-05
2.08802e-06 -1.32069e-06 -3.28855e-07 -8.10882e-05
2.10157e-06 -1.31281e-06 -3.38037e-07 -8.10877e-05
-0.000172723 5.11622e-05 5.20974e-05 -7.9423e-05
-0.000169681 5.02726e-05 5.11751e-05 -7.94221e-05
0.000173985 -5.28312e-05 -5.19232e-05 -7.94403e-05
0.000176975 -5.37509e-05 -5.28101e-05 -7.94415e-05
-0.000171202 5.07174e-05 5.16362e-05 -7.94226e-05
2.14152e-06 -1.28958e-06 -3.65117e-07 -8.1086e-05
0.00017548 -5.3291e-05 -5.23667e-05 -7.94409e-05
2.115e-06 -1.305e-06 -3.47142e-07 -8.10871e-05
2.12832e-06 -1.29726e-06 -3.56168e-07 -8.10866e-05
-0.000169681 5.02726e-05 5.11751e-05 -7.94221e-05
-0.00016664 4.93827e-05 5.02532e-05 -7.94213e-05
0.000170996 -5.19117e-05 -5.1036e-05 -7.94391e-05
0.000173985 -5.28312e-05 -5.19232e-05 -7.94403e-05
-0.000168161 4.98277e-05 5.07141e-05 -7.94217e-05
2.16758e-06 -1.27443e-06 -3.82779e-07 -8.1085e-05
0.000172491 -5.23714e-05 -5.14796e-05 -7.94397e-05
2.14152e-06 -1.28958e-06 -3.65117e-07 -8.1086e-05
2.15461e-06 -1.28197e-06 -3.73987e-07 -8.10855e-05
-0.00016664 4.93827e-05 5.02532e-05 -7.94213e-05
-0.000163599 4.84926e-05 4.93315e-05 -7.94204e-05
0.000168006 -5.09926e-05 -5.01484e-05 -7.9438e-05
0.000170996 -5.19117e-05 -5.1036e-05 -7.94391e-05
-0.00016512 4.89377e-05 4.97923e-05 -7.94208e-05
2.19317e-06 -1.25954e-06 -4.00128e-07 -8.1084e-05
0.000169501 -5.14521e-05 -5.05922e-05 -7.94385e-05
2.16758e-06 -1.27443e-06 -3.82779e-07 -8.1085e-05
2.18043e-06 -1.26695e-06 -3.91492e-07 -8.10845e-05
-0.000163599 4.84926e-05 4.93315e-05 -7.94204e-05
-0.000160559 4.76022e-05 4.84102e-05 -7.94196e-05
0.000165015 -5.00737e-05 -4.92606e-05 -7.94368e-05
0.000168006 -5.09926e-05 -5.01484e-05 -7.9438e-05
-0.000162079 4.80474e-05 4.88708e-05 -7.942e-05
2.21831e-06 -1.24493e-06 -4.17164e-07 -8.10829e-05
0.00016651 -5.05331e-05 -4.97045e-05 -7.94374e-05
2.19317e-06 -1.25954e-06 -4.00128e-07 -8.1084e-05
2.2058e-06 -1.2522e-06 -4.08685e-07 -8.10834e-05
-0.000160559 4.76022e-05 4.84102e-05 -7.94196e-05
-0.00015752 4.67116e-05 4.74892e-05 -7.94187e-05
0.000162024 -4.9155e-05 -4.83725e-05 -7.94357e-05
0.000165015 -5.00737e-05 -4.92606e-05 -7.94368e-05
-0.00015904 4.7157e-05 4.79497e-05 -7.94191e-05
2.24298e-06 -1.23058e-06 -4.33888e-07 -8.10819e-05
0.00016352 -4.96143e-05 -4.88166e-05 -7.94362e-05
2.21831e-06 -1.24493e-06 -4.17164e-07 -8.10829e-05
2.2307e-06 -1.23772e-06 -4.25565e-07 -8.10824e-05
-0.00015752 4.67116e-05 4.74892e-05 -7.94187e-05
-0.000154481 4.58208e-05 4.65685e-05 -7.94179e-05
0.000159033 -4.82367e-05 -4.7484e-05 -7.94345e-05
0.000162024 -4.9155e-05 -4.83725e-05 -7.94357e-05
-0.000156 4.62662e-05 4.70288e-05 -7.94183e-05
2.2672e-06 -1.2165e-06 -4.50299e-07 -8.10809e-05
0.000160528 -4.86958e-05 -4.79283e-05 -7.94351e-05
2.24298e-06 -1.23058e-06 -4.33888e-07 -8.10819e-05
2.25515e-06 -1.22351e-06 -4.42132e-07 -8.10814e-05
-0.000154481 4.58208e-05 4.65685e-05 -7.94179e-05
-0.000151442 4.49297e-05 4.56482e-05 -7.94171e-05
0.000156041 -4.73186e-05 -4.65953e-05 -7.94334e-05
0.000159033 -4.82367e-05 -4.7484e-05 -7.94345e-05
-0.000152961 4.53752e-05 4.61083e-05 -7.94175e-05
2.29095e-06 -1.20269e-06 -4.66397e-07 -8.108e-05
0.000157537 -4.77776e-05 -4.70397e-05 -7.9434e-05
2.2672e-06 -1.2165e-06 -4.50299e-07 -8.10809e-05
2.27913e-06 -1.20956e-06 -4.58387e-07 -8.10805e-05
-0.000151442 4.49297e-05 4.56482e-05 -7.94171e-05
-0.000148404 4.40383e-05 4.47281e-05 -7.94164e-05
0.000153049 -4.64008e-05 -4.57063e-05 -7.94323e-05
0.000156041 -4.73186e-05 -4.65953e-05 -7.94334e-05
-0.000149923 4.4484e-05 4.51881e-05 -7.94167e-05
2.31424e-06 -1.18914e-06 -4.82182e-07 -8.1079e-05
0.000154545 -4.68597e-05 -4.61508e-05 -7.94329e-05
2.29095e-06 -1.20269e-06 -4.66397e-07 -8.108e-05
2.30265e-06 -1.19588e-06 -4.74329e-07 -8.10795e-05
-0.000148404 4.40383e-05 4.47281e-05 -7.94164e-05
-0.000145366 4.31467e-05 4.38084e-05 -7.94156e-05
0.000150056 -4.54833e-05 -4.4817e-05 -7.94312e-05
0.000153049 -4.64008e-05 -4.57063e-05 -7.94323e-05
-0.000146885 4.35925e-05 4.42682e-05 -7.9416e-05
2.33706e-06 -1.17587e-06 -4.97655e-07 -8.10781e-05
0.000151553 -4.5942e-05 -4.52617e-05 -7.94318e-05
2.31424e-06 -1.18914e-06 -4.82182e-07 -8.1079e-05
2.32571e-06 -1.18247e-06 -4.89958e-07 -8.10785e-05
-0.000145366 4.31467e-05 4.38084e-05 -7.94156e-05
-0.000142329 4.22548e-05 4.2889e-05 -7.94148e-05
0.000147063 -4.4566e-05 -4.39273e-05 -7.94302e-05
0.000150056 -4.54833e-05 -4.4817e-05 -7.94312e-05
-0.000143848 4.27008e-05 4.33487e-05 -7.94152e-05
2.35943e-06 -1.16286e-06 -5.12815e-07 -8.10771e-05
0.00014856 -4.50246e-05 -4.43722e-05 -7.94307e-05
2.33706e-06 -1.17587e-06 -4.97655e-07 -8.10781e-05
2.34831e-06 -1.16933e-06 -5.05274e-07 -8.10776e-05
-0.000142329 4.22548e-05 4.2889e-05 -7.94148e-05
-0.000139293 4.13627e-05 4.19699e-05 -7.94141e-05
0.00014407 -4.3649e-05 -4.30374e-05 -7.94291e-05
0.000147063 -4.4566e-05 -4.39273e-05 -7.94302e-05
-0.000140811 4.18088e-05 4.24294e-05 -7.94145e-05
2.38134e-06 -1.15012e-06 -5.27662e-07 -8.10762e-05
0.000145566 -4.41075e-05 -4.34824e-05 -7.94296e-05
2.35943e-06 -1.16286e-06 -5.12815e-07 -8.10771e-05
2.37044e-06 -1.15646e-06 -5.20278e-07 -8.10767e-05
-0.000139293 4.13627e-05 4.19699e-05 -7.94141e-05
-0.000136256 4.04703e-05 4.10512e-05 -7.94134e-05
0.000141076 -4.27323e-05 -4.21472e-05 -7.94281e-05
0.00014407 -4.3649e-05 -4.30374e-05 -7.94291e-05
-0.000137774 4.09166e-05 4.15105e-05 -7.94138e-05
2.40278e-06 -1.13765e-06 -5.42197e-07 -8.10754e-05
0.000142573 -4.31906e-05 -4.25924e-05 -7.94286e-05
2.38134e-06 -1.15012e-06 -5.27662e-07 -8.10762e-05
2.39212e-06 -1.14386e-06 -5.34969e-07 -8.10758e-05
-0.000136256 4.04703e-05 4.10512e-05 -7.94134e-05
-0.000133221 3.95777e-05 4.01327e-05 -7.94127e-05
0.000138082 -4.18159e-05 -4.12567e-05 -7.94271e-05
0.000141076 -4.27323e-05 -4.21472e-05 -7.94281e-05
-0.000134738 4.00241e-05 4.05919e-05 -7.94131e-05
2.42376e-06 -1.12545e-06 -5.56419e-07 -8.10745e-05
0.000139579 -4.22741e-05 -4.1702e-05 -7.94276e-05
2.40278e-06 -1.13765e-06 -5.42197e-07 -8.10754e-05
2.41333e-06 -1.13152e-06 -5.49347e-07 -8.10749e-05
-0.000133221 3.95777e-05 4.01327e-05 -7.94127e-05
-0.000130186 3.86849e-05 3.92146e-05 -7.9412e-05
0.000135087 -4.08997e-05 -4.03659e-05 -7.94261e-05
0.000138082 -4.18159e-05 -4.12567e-05 -7.94271e-05
-0.000131703 3.91313e-05 3.96736e-05 -7.94124e-05
2.44428e-06 -1.11352e-06 -5.70328e-07 -8.10736e-05
0.000136584 -4.13578e-05 -4.08114e-05 -7.94266e-05
2.42376e-06 -1.12545e-06 -5.56419e-07 -8.10745e-05
2.43408e-06 -1.11945e-06 -5.63413e-07 -8.1074e-05
-0.000130186 3.86849e-05 3.92146e-05 -7.9412e-05
-0.000127151 3.77917e-05 3.82967e-05 -7.94114e-05
0.000132092 -3.99838e-05 -3.94748e-05 -7.94251e-05
0.000135087 -4.08997e-05 -4.03659e-05 -7.94261e-05
-0.000128668 3.82383e-05 3.87556e-05 -7.94117e-05
2.46434e-06 -1.10185e-06 -5.83925e-07 -8.10728e-05
0.000133589 -4.04417e-05 -3.99204e-05 -7.94256e-05
2.44428e-06 -1.11352e-06 -5.70328e-07 -8.10736e-05
2.45437e-06 -1.10765e-06 -5.77166e-07 -8.10732e-05
-0.000127151 3.77917e-05 3.82967e-05 -7.94114e-05
-0.000124117 3.68984e-05 3.73792e-05 -7.94107e-05
0.000129096 -3.90682e-05 -3.85834e-05 -7.94241e-05
0.000132092 -3.99838e-05 -3.94748e-05 -7.94251e-05
-0.000125634 3.73451e-05 3.7838e-05 -7.9411e-05
2.48394e-06 -1.09046e-06 -5.97209e-07 -8.1072e-05
0.000130594 -3.9526e-05 -3.90292e-05 -7.94246e-05
2.46434e-06 -1.10185e-06 -5.83925e-07 -8.10728e-05
2.4742e-06 -1.09612e-06 -5.90606e-07 -8.10724e-05
-0.000124117 3.68984e-05 3.73792e-05 -7.94107e-05
-0.000121083 3.60047e-05 3.64621e-05 -7.94101e-05
0.0001261 -3.81528e-05 -3.76917e-05 -7.94232e-05
0.000129096 -3.90682e-05 -3.85834e-05 -7.94241e-05
-0.0001226 3.64516e-05 3.69206e-05 -7.94104e-05
2.50308e-06 -1.07933e-06 -6.1018e-07 -8.10712e-05
0.000127598 -3.86105e-05 -3.81376e-05 -7.94237e-05
2.48394e-06 -1.09046e-06 -5.97209e-07 -8.1072e-05
2.49357e-06 -1.08486e-06 -6.03733e-07 -8.10716e-05
-0.000121083 3.60047e-05 3.64621e-05 -7.94101e-05
-0.00011805 3.51109e-05 3.55452e-05 -7.94095e-05
0.000123104 -3.72377e-05 -3.67997e-05 -7.94223e-05
0.0001261 -3.81528e-05 -3.76917e-05 -7.94232e-05
-0.000119566 3.55578e-05 3.60036e-05 -7.94098e-05
2.52175e-06 -1.06846e-06 -6.22839e-07 -8.10704e-05
0.000124602 -3.76952e-05 -3.72458e-05 -7.94227e-05
2.50308e-06 -1.07933e-06 -6.1018e-07 -8.10712e-05
2.51247e-06 -1.07386e-06 -6.16548e-07 -8.10708e-05
-0.00011805 3.51109e-05 3.55452e-05 -7.94095e-05
-0.000115017 3.42167e-05 3.46286e-05 -7.94089e-05
0.000120107 -3.63229e-05 -3.59074e-05 -7.94213e-05
0.000123104 -3.72377e-05 -3.67997e-05 -7.94223e-05
-0.000116533 3.46638e-05 3.50869e-05 -7.94092e-05
2.53997e-06 -1.05787e-06 -6.35184e-07 -8.10696e-05
0.000121605 -3.67803e-05 -3.63536e-05 -7.94218e-05
2.52175e-06 -1.06846e-06 -6.22839e-07 -8.10704e-05
2.53092e-06 -1.06313e-06 -6.2905e-07 -8.107e-05
-0.000115017 3.42167e-05 3.46286e-05 -7.94089e-05
-0.000111985 3.33223e-05 3.37124e-05 -7.94083e-05
0.00011711 -3.54084e-05 -3.50148e-05 -7.94204e-05
0.000120107 -3.63229e-05 -3.59074e-05 -7.94213e-05
-0.000113501 3.37696e-05 3.41705e-05 -7.94086e-05
2.55772e-06 -1.04755e-06 -6.47217e-07 -8.10689e-05
0.000118608 -3.58656e-05 -3.54612e-05 -7.94209e-05
2.53997e-06 -1.05787e-06 -6.35184e-07 -8.10696e-05
2.5489e-06 -1.05268e-06 -6.4124e-07 -8.10692e-05
-0.000111985 3.33223e-05 3.37124e-05 -7.94083e-05
-0.000108953 3.24277e-05 3.27965e-05 -7.94078e-05
0.000114112 -3.44941e-05 -3.41219e-05 -7.94196e-05
0.00011711 -3.54084e-05 -3.50148e-05 -7.94204e-05
-0.000110469 3.28751e-05 3.32544e-05 -7.9408e-05
2.57501e-06 -1.03749e-06 -6.58937e-07 -8.10681e-05
0.000115611 -3.49512e-05 -3.45684e-05 -7.942e-05
2.55772e-06 -1.04755e-06 -6.47217e-07 -8.10689e-05
2.56642e-06 -1.04248e-06 -6.53116e-07 -8.10685e-05
-0.000108953 3.24277e-05 3.27965e-05 -7.94078e-05
-0.000105921 3.15328e-05 3.18809e-05 -7.94072e-05
0.000111114 -3.35801e-05 -3.32288e-05 -7.94187e-05
0.000114112 -3.44941e-05 -3.41219e-05 -7.94196e-05
-0.000107437 3.19803e-05 3.23386e-05 -7.94075e-05
2.59184e-06 -1.0277e-06 -6.70345e-07 -8.10674e-05
0.000112613 -3.40371e-05 -3.36754e-05 -7.94191e-05
2.57501e-06 -1.03749e-06 -6.58937e-07 -8.10681e-05
2.58348e-06 -1.03256e-06 -6.6468e-07 -8.10678e-05
-0.000105921 3.15328e-05 3.18809e-05 -7.94072e-05
-0.000102891 3.06377e-05 3.09656e-05 -7.94067e-05
0.000108115 -3.26664e-05 -3.23353e-05 -7.94179e-05
0.000111114 -3.35801e-05 -3.32288e-05 -7.94187e-05
-0.000104406 3.10853e-05 3.14232e-05 -7.9407e-05
2.60821e-06 -1.01819e-06 -6.81439e-07 -8.10667e-05
0.000109615 -3.31232e-05 -3.2782e-05 -7.94183e-05
2.59184e-06 -1.0277e-06 -6.70345e-07 -8.10674e-05
2.60008e-06 -1.02291e-06 -6.75931e-07 -8.10671e-05
-0.000102891 3.06377e-05 3.09656e-05 -7.94067e-05
-9.98603e-05 2.97423e-05 3.00506e-05 -7.94062e-05
0.000105116 -3.17529e-05 -3.14415e-05 -7.9417e-05
0.000108115 -3.26664e-05 -3.23353e-05 -7.94179e-05
-0.000101375 3.019e-05 3.0508e-05 -7.94064e-05
2.62412e-06 -1.00894e-06 -6.9222e-07 -8.1066e-05
0.000106616 -3.22096e-05 -3.18884e-05 -7.94175e-05
2.60821e-06 -1.01819e-06 -6.81439e-07 -8.10667e-05
2.61622e-06 -1.01353e-06 -6.86868e-07 -8.10664e-05
-9.98603e-05 2.97423e-05 3.00506e-05 -7.94062e-05
-9.68304e-05 2.88466e-05 2.91359e-05 -7.94057e-05
0.000102117 -3.08397e-05 -3.05474e-05 -7.94162e-05
0.000105116 -3.17529e-05 -3.14415e-05 -7.9417e-05
-9.83453e-05 2.92945e-05 2.95932e-05 -7.9406e-05
2.63957e-06 -9.99966e-07 -7.02687e-07 -8.10654e-05
0.000103617 -3.12963e-05 -3.09945e-05 -7.94166e-05
2.62412e-06 -1.00894e-06 -6.9222e-07 -8.1066e-05
2.6319e-06 -1.00442e-06 -6.97492e-07 -8.10657e-05
-9.68304e-05 2.88466e-05 2.91359e-05 -7.94057e-05
-9.3801e-05 2.79507e-05 2.82216e-05 -7.94052e-05
9.91171e-05 -2.99268e-05 -2.9653e-05 -7.94155e-05
0.000102117 -3.08397e-05 -3.05474e-05 -7.94162e-05
-9.53157e-05 2.83987e-05 2.86787e-05 -7.94055e-05
2.65456e-06 -9.91268e-07 -7.12841e-07 -8.10647e-05
0.000100617 -3.03832e-05 -3.01002e-05 -7.94158e-05
2.63957e-06 -9.99966e-07 -7.02687e-07 -8.10654e-05
2.64712e-06 -9.95582e-07 -7.07803e-07 -8.10651e-05
-9.3801e-05 2.79507e-05 2.82216e-05 -7.94052e-05
-9.07721e-05 2.70545e-05 2.73075e-05 -7.94048e-05
9.61169e-05 -2.90142e-05 -2.87583e-05 -7.94147e-05
9.91171e-05 -2.99268e-05 -2.9653e-05 -7.94155e-05
-9.22865e-05 2.75026e-05 2.77645e-05 -7.9405e-05
2.6691e-06 -9.82848e-07 -7.22681e-07 -8.10641e-05
9.76171e-05 -2.94705e-05 -2.92057e-05 -7.94151e-05
2.65456e-06 -9.91268e-07 -7.12841e-07 -8.10647e-05
2.66189e-06 -9.87022e-07 -7.178e-07 -8.10644e-05
-9.07721e-05 2.70545e-05 2.73075e-05 -7.94048e-05
-8.77436e-05 2.6158e-05 2.63938e-05 -7.94043e-05
9.31162e-05 -2.81018e-05 -2.78633e-05 -7.9414e-05
9.61169e-05 -2.90142e-05 -2.87583e-05 -7.94147e-05
-8.92578e-05 2.66063e-05 2.68507e-05 -7.94046e-05
2.68319e-06 -9.7471e-07 -7.32207e-07 -8.10635e-05
9.46166e-05 -2.8558e-05 -2.83108e-05 -7.94143e-05
2.6691e-06 -9.82848e-07 -7.22681e-07 -8.10641e-05
2.6762e-06 -9.78743e-07 -7.27483e-07 -8.10638e-05
-8.77436e-05 2.6158e-05 2.63938e-05 -7.94043e-05
-8.47156e-05 2.52613e-05 2.54804e-05 -7.94039e-05
9.01151e-05 -2.71898e-05 -2.6968e-05 -7.94132e-05
9.31162e-05 -2.81018e-05 -2.78633e-05 -7.9414e-05
-8.62296e-05 2.57097e-05 2.59371e-05 -7.94041e-05
2.69684e-06 -9.6686e-07 -7.4142e-07 -8.10629e-05
9.16157e-05 -2.76458e-05 -2.74157e-05 -7.94136e-05
2.68319e-06 -9.7471e-07 -7.32207e-07 -8.10635e-05
2.69007e-06 -9.70749e-07 -7.36853e-07 -8.10632e-05
-8.47156e-05 2.52613e-05 2.54804e-05 -7.94039e-05
-8.16881e-05 2.43643e-05 2.45673e-05 -7.94035e-05
8.71136e-05 -2.6278e-05 -2.60724e-05 -7.94126e-05
9.01151e-05 -2.71898e-05 -2.6968e-05 -7.94132e-05
-8.32018e-05 2.48128e-05 2.50238e-05 -7.94037e-05
2.71005e-06 -9.59305e-07 -7.50321e-07 -8.10624e-05
8.86144e-05 -2.67339e-05 -2.65202e-05 -7.94129e-05
2.69684e-06 -9.6686e-07 -7.4142e-07 -8.10629e-05
2.7035e-06 -9.63046e-07 -7.45909e-07 -8.10626e-05
-8.16881e-05 2.43643e-05 2.45673e-05 -7.94035e-05
-7.8661e-05 2.3467e-05 2.36546e-05 -7.94031e-05
8.41117e-05 -2.53665e-05 -2.51765e-05 -7.94119e-05
8.71136e-05 -2.6278e-05 -2.60724e-05 -7.94126e-05
-8.01745e-05 2.39157e-05 2.41109e-05 -7.94033e-05
2.72284e-06 -9.5205e-07 -7.5891e-07 -8.10618e-05
8.56127e-05 -2.58222e-05 -2.56245e-05 -7.94122e-05
2.71005e-06 -9.59305e-07 -7.50321e-07 -8.10624e-05
2.7165e-06 -9.5564e-07 -7.54654e-07 -8.10621e-05
-7.8661e-05 2.3467e-05 2.36546e-05 -7.94031e-05
-7.56343e-05 2.25694e-05 2.27421e-05 -7.94027e-05
8.11094e-05 -2.44554e-05 -2.42803e-05 -7.94113e-05
8.41117e-05 -2.53665e-05 -2.51765e-05 -7.94119e-05
-7.71476e-05 2.30182e-05 2.31983e-05 -7.94029e-05
2.73521e-06 -9.45102e-07 -7.6719e-07 -8.10613e-05
8.26106e-05 -2.49109e-05 -2.47284e-05 -7.94116e-05
2.72284e-06 -9.5205e-07 -7.5891e-07 -8.10618e-05
2.72908e-06 -9.48538e-07 -7.63088e-07 -8.10615e-05
-7.56343e-05 2.25694e-05 2.27421e-05 -7.94027e-05
-7.26081e-05 2.16715e-05 2.18299e-05 -7.94022e-05
7.81068e-05 -2.35445e-05 -2.33838e-05 -7.94107e-05
8.11094e-05 -2.44554e-05 -2.42803e-05 -7.94113e-05
-7.41211e-05 2.21205e-05 2.2286e-05 -7.94025e-05
2.74719e-06 -9.38464e-07 -7.75167e-07 -8.10608e-05
7.96081e-05 -2.39999e-05 -2.38321e-05 -7.9411e-05
2.73521e-06 -9.45102e-07 -7.6719e-07 -8.10613e-05
2.74125e-06 -9.41744e-07 -7.71216e-07 -8.1061e-05
-7.26081e-05 2.16715e-05 2.18299e-05 -7.94022e-05
-6.95822e-05 2.07734e-05 2.09181e-05 -7.94018e-05
7.51038e-05 -2.2634e-05 -2.2487e-05 -7.94101e-05
7.81068e-05 -2.35445e-05 -2.33838e-05 -7.94107e-05
-7.10951e-05 2.12225e-05 2.1374e-05 -7.9402e-05
2.75877e-06 -9.32131e-07 -7.82847e-07 -8.10602e-05
7.66053e-05 -2.30892e-05 -2.29355e-05 -7.94104e-05
2.74719e-06 -9.38464e-07 -7.75167e-07 -8.10608e-05
2.75303e-06 -9.3526e-07 -7.79043e-07 -8.10605e-05
-6.95822e-05 2.07734e-05 2.09181e-05 -7.94018e-05
-6.65568e-05 1.98749e-05 2.00065e-05 -7.94014e-05
7.21004e-05 -2.17237e-05 -2.159e-05 -7.94095e-05
7.51038e-05 -2.2634e-05 -2.2487e-05 -7.94101e-05
-6.80694e-05 2.03242e-05 2.04623e-05 -7.94016e-05
2.76999e-06 -9.26086e-07 -7.90242e-07 -8.10597e-05
7.36021e-05 -2.21788e-05 -2.20386e-05 -7.94098e-05
2.75877e-06 -9.32131e-07 -7.82847e-07 -8.10602e-05
2.76443e-06 -9.29074e-07 -7.86579e-07 -8.106e-05
-6.65568e-05 1.98749e-05 2.00065e-05 -7.94014e-05
-6.35318e-05 1.89763e-05 1.90952e-05 -7.94009e-05
6.90967e-05 -2.08138e-05 -2.06927e-05 -7.9409e-05
7.21004e-05 -2.17237e-05 -2.159e-05 -7.94095e-05
-6.50442e-05 1.94256e-05 1.95508e-05 -7.94011e-05
2.78082e-06 -9.20291e-07 -7.97369e-07 -8.10592e-05
7.05986e-05 -2.12687e-05 -2.11414e-05 -7.94092e-05
2.76999e-06 -9.26086e-07 -7.90242e-07 -8.10597e-05
2.77545e-06 -9.23161e-07 -7.93838e-07 -8.10594e-05
-6.35318e-05 1.89763e-05 1.90952e-05 -7.94009e-05
-6.05072e-05 1.80775e-05 1.81842e-05 -7.94004e-05
6.60927e-05 -1.9904e-05 -1.97951e-05 -7.94083e-05
6.90967e-05 -2.08138e-05 -2.06927e-05 -7.9409e-05
-6.20194e-05 1.85269e-05 1.86396e-05 -7.94007e-05
2.79126e-06 -9.14671e-07 -8.04251e-07 -8.10586e-05
6.75947e-05 -2.03589e-05 -2.02439e-05 -7.94087e-05
2.78082e-06 -9.20291e-07 -7.97369e-07 -8.10592e-05
2.78609e-06 -9.17466e-07 -8.00838e-07 -8.10589e-05
-6.05072e-05 1.80775e-05 1.81842e-05 -7.94004e-05
-5.74831e-05 1.71787e-05 1.72733e-05 -7.93999e-05
6.30883e-05 -1.89943e-05 -1.88974e-05 -7.94076e-05
6.60927e-05 -1.9904e-05 -1.97951e-05 -7.94083e-05
-5.89951e-05 1.76281e-05 1.77287e-05 -7.94001e-05
2.80124e-06 -9.09094e-07 -8.10919e-07 -8.10579e-05
6.45905e-05 -1.94492e-05 -1.93463e-05 -7.9408e-05
2.79126e-06 -9.14671e-07 -8.04251e-07 -8.10586e-05
2.79631e-06 -9.11888e-07 -8.07609e-07 -8.10582e-05
-5.74831e-05 1.71787e-05 1.72733e-05 -7.93999e-05
-5.44597e-05 1.62801e-05 1.63627e-05 -7.93993e-05
6.00834e-05 -1.80846e-05 -1.79995e-05 -7.94067e-05
6.30883e-05 -1.89943e-05 -1.88974e-05 -7.94076e-05
-5.59713e-05 1.67294e-05 1.6818e-05 -7.93996e-05
2.81065e-06 -9.03344e-07 -8.17417e-07 -8.10571e-05
6.15859e-05 -1.85395e-05 -1.84485e-05 -7.94072e-05
2.80124e-06 -9.09094e-07 -8.10919e-07 -8.10579e-05
2.80603e-06 -9.06259e-07 -8.14186e-07 -8.10575e-05
-5.44597e-05 1.62801e-05 1.63627e-05 -7.93993e-05
-5.14371e-05 1.53819e-05 1.54522e-05 -7.93989e-05
5.70779e-05 -1.71743e-05 -1.71015e-05 -7.94055e-05
6.00834e-05 -1.80846e-05 -1.79995e-05 -7.94067e-05
-5.29483e-05 1.58309e-05 1.59075e-05 -7.93991e-05
2.81928e-06 -8.97087e-07 -8.23796e-07 -8.10562e-05
5.85808e-05 -1.76295e-05 -1.75505e-05 -7.94062e-05
2.81065e-06 -9.03344e-07 -8.17417e-07 -8.10571e-05
2.81508e-06 -9.00306e-07 -8.20617e-07 -8.10567e-05
-5.14371e-05 1.53819e-05 1.54522e-05 -7.93989e-05
-4.84157e-05 1.44845e-05 1.45419e-05 -7.93988e-05
5.40713e-05 -1.62629e-05 -1.62036e-05 -7.94041e-05
5.70779e-05 -1.71743e-05 -1.71015e-05 -7.94055e-05
-4.99262e-05 1.49331e-05 1.4997e-05 -7.93988e-05
2.82676e-06 -8.89821e-07 -8.30117e-07 -8.10555e-05
5.55748e-05 -1.67188e-05 -1.66526e-05 -7.94049e-05
2.81928e-06 -8.97087e-07 -8.23796e-07 -8.10562e-05
2.82319e-06 -8.9362e-07 -8.26958e-07 -8.10558e-05
-4.84157e-05 1.44845e-05 1.45419e-05 -7.93988e-05
-4.53954e-05 1.35882e-05 1.36317e-05 -7.93998e-05
5.10628e-05 -1.53493e-05 -1.53058e-05 -7.94027e-05
5.40713e-05 -1.62629e-05 -1.62036e-05 -7.94041e-05
-4.69054e-05 1.40362e-05 1.40868e-05 -7.93991e-05
2.83253e-06 -8.80821e-07 -8.36446e-07 -8.10554e-05
5.25674e-05 -1.58065e-05 -1.57547e-05 -7.94034e-05
2.82676e-06 -8.89821e-07 -8.30117e-07 -8.10555e-05
2.8299e-06 -8.85594e-07 -8.33275e-07 -8.10553e-05
-4.53954e-05 1.35882e-05 1.36317e-05 -7.93998e-05
-4.23768e-05 1.26929e-05 1.27217e-05 -7.94033e-05
4.80511e-05 -1.44316e-05 -1.44083e-05 -7.94022e-05
5.10628e-05 -1.53493e-05 -1.53058e-05 -7.94027e-05
-4.38858e-05 1.31404e-05 1.31766e-05 -7.94011e-05
2.83571e-06 -8.69086e-07 -8.42838e-07 -8.10576e-05
4.95574e-05 -1.48911e-05 -1.4857e-05 -7.94023e-05
2.83253e-06 -8.80821e-07 -8.36446e-07 -8.10554e-05
2.83451e-06 -8.75373e-07 -8.39629e-07 -8.10561e-05
-4.23768e-05 1.26929e-05 1.27217e-05 -7.94033e-05
-3.93586e-05 1.1798e-05 1.18117e-05 -7.94127e-05
4.50327e-05 -1.35067e-05 -1.35112e-05 -7.9405e-05
4.80511e-05 -1.44316e-05 -1.44083e-05 -7.94022e-05
-4.08678e-05 1.22455e-05 1.22667e-05 -7.9407e-05
2.83503e-06 -8.53267e-07 -8.49325e-07 -8.10654e-05
4.65431e-05 -1.39704e-05 -1.39597e-05 -7.9403e-05
2.83571e-06 -8.69086e-07 -8.42838e-07 -8.10576e-05
2.83594e-06 -8.61785e-07 -8.46069e-07 -8.10604e-05
-3.93586e-05 1.1798e-05 1.18117e-05 -7.94127e-05
-3.634e-05 1.09012e-05 1.09024e-05 -7.94342e-05
4.20034e-05 -1.25688e-05 -1.26148e-05 -7.94164e-05
4.50327e-05 -1.35067e-05 -1.35112e-05 -7.9405e-05
-3.78493e-05 1.135e-05 1.13568e-05 -7.94213e-05
2.82868e-06 -8.31666e-07 -8.55862e-07 -8.10858e-05
4.35196e-05 -1.30398e-05 -1.30628e-05 -7.94092e-05
2.83503e-06 -8.53267e-07 -8.49325e-07 -8.10654e-05
2.83269e-06 -8.43315e-07 -8.52589e-07 -8.10735e-05
-3.634e-05 1.09012e-05 1.09024e-05 -7.94342e-05
-3.33138e-05 9.99743e-06 9.99275e-06 -7.94803e-05
3.89515e-05 -1.16091e-05 -1.17181e-05 -7.94474e-05
4.20034e-05 -1.25688e-05 -1.26148e-05 -7.94164e-05
-3.48289e-05 1.04508e-05 1.04478e-05 -7.9453e-05
2.81421e-06 -8.02194e-07 -8.62294e-07 -8.11329e-05
4.04816e-05 -1.20926e-05 -1.21667e-05 -7.94284e-05
2.82868e-06 -8.31666e-07 -8.55862e-07 -8.10858e-05
2.82264e-06 -8.18047e-07 -8.59109e-07 -8.11045e-05
-3.33138e-05 9.99743e-06 9.99275e-06 -7.94803e-05
-3.02737e-05 9.0755e-06 9.08493e-06 -7.95735e-05
3.58646e-05 -1.0612e-05 -1.08225e-05 -7.95187e-05
3.89515e-05 -1.16091e-05 -1.17181e-05 -7.94474e-05
-3.17953e-05 9.53947e-06 9.53822e-06 -7.95192e-05
2.78848e-06 -7.62639e-07 -8.68216e-07 -8.12327e-05
3.74126e-05 -1.11163e-05 -1.12699e-05 -7.94763e-05
2.81421e-06 -8.02194e-07 -8.62294e-07 -8.11329e-05
2.80297e-06 -7.83832e-07 -8.65345e-07 -8.11745e-05
-3.02737e-05 9.0755e-06 9.08493e-06 -7.95735e-05
-2.71898e-05 8.11818e-06 8.17356e-06 -7.97543e-05
3.27056e-05 -9.55615e-06 -9.92122e-06 -7.96691e-05
3.58646e-05 -1.0612e-05 -1.08225e-05 -7.95187e-05
-2.87411e-05 8.60341e-06 8.63045e-06 -7.96494e-05
2.74756e-06 -7.10761e-07 -8.72913e-07 -8.14306e-05
3.42985e-05 -1.00938e-05 -1.03734e-05 -7.95805e-05
2.78848e-06 -7.62639e-07 -8.68216e-07 -8.12327e-05
2.77018e-06 -7.38323e-07 -8.70798e-07 -8.13144e-05
-2.71898e-05 8.11818e-06 8.17356e-06 -7.97543e-05
-2.40432e-05 7.09191e-06 7.26483e-06 -8.00856e-05
2.94475e-05 -8.40516e-06 -9.01813e-06 -7.996e-05
3.27056e-05 -9.55615e-06 -9.92122e-06 -7.96691e-05
-2.56228e-05 7.61487e-06 7.71769e-06 -7.98962e-05
2.68726e-06 -6.45529e-07 -8.75026e-07 -8.1801e-05
3.1088e-05 -8.99378e-06 -9.46893e-06 -7.97922e-05
2.74756e-06 -7.10761e-07 -8.72913e-07 -8.14306e-05
2.72009e-06 -6.79867e-07 -8.74379e-07 -8.15906e-05
-2.40432e-05 7.09191e-06 7.26483e-06 -8.00856e-05
-2.07445e-05 5.96528e-06 6.33397e-06 -8.06683e-05
2.59926e-05 -7.12894e-06 -8.08444e-06 -8.04924e-05
2.94475e-05 -8.40516e-06 -9.01813e-06 -7.996e-05
-2.24255e-05 6.54621e-06 6.80543e-06 -8.03371e-05
2.60338e-06 -5.67504e-07 -8.72517e-07 -8.24528e-05
2.77578e-05 -7.78744e-06 -8.55873e-06 -8.01874e-05
2.68726e-06 -6.45529e-07 -8.75026e-07 -8.1801e-05
2.64853e-06 -6.07811e-07 -8.74594e-07 -8.20783e-05
-2.07445e-05 5.96528e-06 6.33397e-06 -8.06683e-05
-1.7281e-05 4.68388e-06 5.39877e-06 -8.16181e-05
2.23235e-05 -5.68232e-06 -7.13194e-06 -8.13839e-05
2.59926e-05 -7.12894e-06 -8.08444e-06 -8.04924e-05
-1.90223e-05 5.33995e-06 5.86387e-06 -8.10901e-05
2.4943e-06 -4.83092e-07 -8.61944e-07 -8.35201e-05
2.41739e-05 -6.4218e-06 -7.60803e-06 -8.08859e-05
2.60338e-06 -5.67504e-07 -8.72517e-07 -8.24528e-05
2.55192e-06 -5.25591e-07 -8.68428e-07 -8.2935e-05
-1.7281e-05 4.68388e-06 5.39877e-06 -8.16181e-05
-1.34808e-05 3.30154e-06 4.36254e-06 -8.30596e-05
1.82709e-05 -4.14385e-06 -6.05445e-06 -8.27694e-05
2.23235e-05 -5.68232e-06 -7.13194e-06 -8.13839e-05
-1.54555e-05 4.0095e-06 4.90544e-06 -8.22688e-05
2.36211e-06 -4.04887e-07 -8.38808e-07 -8.51036e-05
2.03773e-05 -4.92635e-06 -6.62183e-06 -8.20052e-05
2.4943e-06 -4.83092e-07 -8.61944e-07 -8.35201e-05
2.43089e-06 -4.4159e-07 -8.52557e-07 -8.42248e-05
-1.34808e-05 3.30154e-06 4.36254e-06 -8.30596e-05
-9.57021e-06 1.91623e-06 3.28028e-06 -8.49167e-05
1.40824e-05 -2.66086e-06 -4.89497e-06 -8.45889e-05
1.82709e-05 -4.14385e-06 -6.05445e-06 -8.27694e-05
-1.14785e-05 2.56532e-06 3.81991e-06 -8.39539e-05
2.22154e-06 -3.63182e-07 -7.96441e-07 -8.70947e-05
1.61305e-05 -3.34676e-06 -5.47877e-06 -8.36413e-05
2.36211e-06 -4.04887e-07 -8.38808e-07 -8.51036e-05
2.29123e-06 -3.77326e-07 -8.20245e-07 -8.6103e-05
-9.57021e-06 1.91623e-06 3.28028e-06 -8.49167e-05
-5.54845e-06 1.25933e-06 1.83819e-06 -8.67238e-05
9.80571e-06 -2.05384e-06 -3.32223e-06 -8.6411e-05
1.40824e-05 -2.66086e-06 -4.89497e-06 -8.45889e-05
-7.63417e-06 1.47319e-06 2.64042e-06 -8.58757e-05
2.09929e-06 -4.00172e-07 -7.28193e-07 -8.87931e-05
1.20123e-05 -2.21715e-06 -4.19791e-06 -8.55458e-05
2.22154e-06 -3.63182e-07 -7.96441e-07 -8.70947e-05
2.15644e-06 -3.67713e-07 -7.66595e-07 -8.79914e-05
-5.54845e-06 1.25933e-06 1.83819e-06 -8.67238e-05
-2.7091e-06 2.15346e-06 2.3813e-07 -8.67559e-05
6.8278e-06 -3.2738e-06 -1.52314e-06 -8.65412e-05
9.80571e-06 -2.05384e-06 -3.32223e-06 -8.6411e-05
-3.75834e-06 1.35355e-06 1.03062e-06 -8.71364e-05
2.04992e-06 -5.83857e-07 -6.28315e-07 -8.83502e-05
7.92385e-06 -2.26659e-06 -2.42454e-06 -8.68605e-05
2.09929e-06 -4.00172e-07 -7.28193e-07 -8.87931e-05
2.06037e-06 -4.70061e-07 -6.8156e-07 -8.91227e-05
-2.7091e-06 2.15346e-06 2.3813e-07 -8.67559e-05
-1.11179e-06 6.3213e-06 -2.23265e-06 -8.18434e-05
5.3185e-06 -8.18472e-06 1.22838e-06 -8.18194e-05
6.8278e-06 -3.2738e-06 -1.52314e-06 -8.65412e-05
-1.97038e-06 3.95409e-06 -8.50165e-07 -8.51732e-05
2.11626e-06 -9.62527e-07 -4.94457e-07 -8.26661e-05
6.09889e-06 -5.38914e-06 -3.04181e-07 -8.5045e-05
2.04992e-06 -5.83857e-07 -6.28315e-07 -8.83502e-05
2.0684e-06 -7.46837e-07 -5.66384e-07 -8.61871e-05
-1.11179e-06 6.3213e-06 -2.23265e-06 -8.18434e-05
-2.29086e-06 1.16857e-05 -4.02635e-06 -6.67666e-05
6.88314e-06 -1.46994e-05 3.34983e-06 -6.69857e-05
5.3185e-06 -8.18472e-06 1.22838e-06 -8.18194e-05
-9.47326e-07 8.81314e-06 -3.37106e-06 -7.59243e-05
2.34557e-06 -1.56657e-06 -3.3386e-07 -6.77903e-05
5.30657e-06 -1.12143e-05 2.53187e-06 -7.60142e-05
2.11626e-06 -9.62527e-07 -4.94457e-07 -8.26661e-05
2.20483e-06 -1.23429e-06 -4.15947e-07 -7.6993e-05
-2.29086e-06 1.16857e-05 -4.02635e-06 -6.67666e-05
-5.81751e-06 1.95467e-05 -5.88393e-06 -3.8315e-05
1.09817e-05 -2.3767e-05 5.47943e-06 -3.81611e-05
6.88314e-06 -1.46994e-05 3.34983e-06 -6.69857e-05
-4.22132e-06 1.52759e-05 -4.73768e-06 -5.42945e-05
2.75027e-06 -1.99969e-06 -3.21677e-07 -3.71342e-05
9.09314e-06 -1.89258e-05 4.21399e-06 -5.44853e-05
2.34557e-06 -1.56657e-06 -3.3386e-07 -6.77903e-05
2.53013e-06 -1.91009e-06 -2.65731e-07 -5.44898e-05
0.000515738 0 -0.000221031 0.000298792
0.000525903 -7.46362e-05 -0.0001934 9.88195e-05
0.0016444 -0.000219338 -0.00061074 -8.13847e-06
0.00145274 0 -0.000622603 0.000188815
0.000503837 -3.18913e-05 -0.000202263 0.000188456
0.0010847 -0.000147183 -0.000401794 5.73818e-05
0.00157519 -0.000123423 -0.000622185 6.97897e-05
0.000962496 0 -0.000412498 0.000272122
0.00103888 -7.00817e-05 -0.000415199 0.000134189
0.000525903 -7.46362e-05 -0.0001934 9.88195e-05
0.0005683 -0.000122963 -0.000190859 -2.1164e-05
0.00172922 -0.000401079 -0.000569205 -6.93128e-05
0.0016444 -0.000219338 -0.00061074 -8.13847e-06
0.00055603 -0.000103488 -0.000193946 2.82606e-05
0.0011415 -0.000252477 -0.00038101 -3.84691e-05
0.00168688 -0.000315922 -0.000587554 -4.7551e-05
0.0010847 -0.000147183 -0.000401794 5.73818e-05
0.00111415 -0.000207118 -0.00038873 5.49793e-06
0.0005683 -0.000122963 -0.000190859 -2.1164e-05
0.000581241 -0.000158879 -0.000181012 -7.55221e-05
0.00177265 -0.000493462 -0.000548225 -8.09498e-05
0.00172922 -0.000401079 -0.000569205 -6.93128e-05
0.000573202 -0.000142111 -0.000184753 -5.39388e-05
0.00117498 -0.000319989 -0.000366422 -7.97449e-05
0.00176122 -0.00045828 -0.000558403 -7.99755e-05
0.0011415 -0.000252477 -0.00038101 -3.84691e-05
0.00116302 -0.000290458 -0.000373955 -6.69985e-05
0.000581241 -0.000158879 -0.000181012 -7.55221e-05
0.000588247 -0.000176174 -0.000176603 -9.48547e-05
0.00177161 -0.000530199 -0.000532035 -7.46618e-05
0.00177265 -0.000493462 -0.000548225 -8.09498e-05
0.000587795 -0.000169714 -0.000179177 -8.84861e-05
0.00118108 -0.000350468 -0.000355976 -8.87541e-05
0.00177297 -0.000516453 -0.000538506 -7.74582e-05
0.00117498 -0.000319989 -0.000366422 -7.97449e-05
0.00118008 -0.000339104 -0.00036042 -8.54284e-05
0.000588247 -0.000176174 -0.000176603 -9.48547e-05
0.000584762 -0.000183167 -0.000172112 -9.68419e-05
0.00175952 -0.000537625 -0.000523668 -7.02956e-05
0.00177161 -0.000530199 -0.000532035 -7.46618e-05
0.000586076 -0.000180575 -0.000173786 -9.69314e-05
0.00117453 -0.000360804 -0.000348739 -8.71909e-05
0.0017675 -0.000536273 -0.000527667 -7.24847e-05
0.00118108 -0.000350468 -0.000355976 -8.87541e-05
0.00117891 -0.000357349 -0.000352097 -8.90521e-05
0.000584762 -0.000183167 -0.000172112 -9.68419e-05
0.00058015 -0.000183503 -0.000169992 -9.33288e-05
0.00174217 -0.000535259 -0.000517246 -6.73605e-05
0.00175952 -0.000537625 -0.000523668 -7.02956e-05
0.000583167 -0.000183889 -0.000171119 -9.54327e-05
0.00116323 -0.000360458 -0.000344046 -8.34194e-05
0.00175022 -0.000537039 -0.000519936 -6.83932e-05
0.00117453 -0.000360804 -0.000348739 -8.71909e-05
0.00116896 -0.000361463 -0.00034607 -8.50548e-05
0.00058015 -0.000183503 -0.000169992 -9.33288e-05
0.00057405 -0.000181916 -0.000168057 -8.88388e-05
0.00172699 -0.000529524 -0.000513199 -6.63999e-05
0.00174217 -0.000535259 -0.000517246 -6.73605e-05
0.000576761 -0.000182805 -0.000168838 -9.099e-05
0.00115202 -0.000356928 -0.000340754 -8.00879e-05
0.00173465 -0.000532577 -0.000515175 -6.68292e-05
0.00116323 -0.000360458 -0.000344046 -8.34194e-05
0.00115752 -0.000358852 -0.000342288 -8.17608e-05
0.00057405 -0.000181916 -0.000168057 -8.88388e-05
0.000569044 -0.000179686 -0.000166868 -8.52845e-05
0.00171314 -0.000523815 -0.000509709 -6.59842e-05
0.00172699 -0.000529524 -0.000513199 -6.63999e-05
0.000571613 -0.000180828 -0.000167479 -8.69269e-05
0.00114201 -0.000352658 -0.000338292 -7.77665e-05
0.00171966 -0.000526583 -0.000511317 -6.60897e-05
0.00115202 -0.000356928 -0.000340754 -8.00879e-05
0.00114682 -0.000354798 -0.000339437 -7.87361e-05
0.000569044 -0.000179686 -0.000166868 -8.52845e-05
0.000564429 -0.000177681 -0.000165749 -8.28366e-05
0.00170131 -0.000518748 -0.000506813 -6.59881e-05
0.00171314 -0.000523815 -0.000509709 -6.59842e-05
0.000566572 -0.000178638 -0.000166257 -8.39162e-05
0.00113338 -0.000348869 -0.000336217 -7.63071e-05
0.00170712 -0.000521191 -0.000508256 -6.5985e-05
0.00114201 -0.000352658 -0.000338292 -7.77665e-05
0.00113754 -0.000350681 -0.000337226 -7.69731e-05
0.000564429 -0.000177681 -0.000165749 -8.28366e-05
0.000560551 -0.000175948 -0.00016483 -8.13404e-05
0.00169053 -0.000514478 -0.000504024 -6.6045e-05
0.00170131 -0.000518748 -0.000506813 -6.59881e-05
0.00056247 -0.000176781 -0.000165295 -8.19929e-05
0.00112578 -0.000345647 -0.000334341 -7.54732e-05
0.00169576 -0.000516521 -0.000505388 -6.60018e-05
0.00113338 -0.000348869 -0.000336217 -7.63071e-05
0.00112947 -0.000347191 -0.000335261 -7.58137e-05
0.000560551 -0.000175948 -0.00016483 -8.13404e-05
0.000556994 -0.000174498 -0.000163927 -8.04783e-05
0.00168061 -0.000510786 -0.000501353 -6.61426e-05
0.00169053 -0.000514478 -0.000504024 -6.6045e-05
0.000558712 -0.000175192 -0.000164366 -8.08443e-05
0.00111888 -0.00034294 -0.000332544 -7.50216e-05
0.00168552 -0.000512573 -0.000502691 -6.60991e-05
0.00112578 -0.000345647 -0.000334341 -7.54732e-05
0.00112226 -0.000344239 -0.000333437 -7.52176e-05
0.000556994 -0.000174498 -0.000163927 -8.04783e-05
0.000553732 -0.000173237 -0.000163069 -8.00175e-05
0.0016711 -0.000507495 -0.000498687 -6.62166e-05
0.00168061 -0.000510786 -0.000501353 -6.61426e-05
0.000555349 -0.000173849 -0.0001635 -8.02112e-05
0.0011124 -0.000340575 -0.000330781 -7.47989e-05
0.0016758 -0.000509101 -0.000500015 -6.61801e-05
0.00111888 -0.00034294 -0.000332544 -7.50216e-05
0.0011156 -0.000341724 -0.00033166 -7.48865e-05
0.000553732 -0.000173237 -0.000163069 -8.00175e-05
0.0005506 -0.000172103 -0.000162213 -7.97841e-05
0.00166186 -0.000504442 -0.000496036 -6.62766e-05
0.0016711 -0.000507495 -0.000498687 -6.62166e-05
0.000552147 -0.000172657 -0.000162638 -7.98798e-05
0.00110617 -0.000338433 -0.000329028 -7.46967e-05
0.00166646 -0.000505946 -0.000497364 -6.625e-05
0.0011124 -0.000340575 -0.000330781 -7.47989e-05
0.00110926 -0.000339483 -0.000329905 -7.47387e-05
0.0005506 -0.000172103 -0.000162213 -7.97841e-05
0.000547563 -0.000171045 -0.000161365 -7.96752e-05
0.00165274 -0.000501529 -0.000493378 -6.63173e-05
0.00166186 -0.000504442 -0.000496036 -6.62766e-05
0.000549076 -0.000171567 -0.00016179 -7.97191e-05
0.00110007 -0.000336419 -0.000327277 -7.46574e-05
0.00165729 -0.000502972 -0.000494706 -6.62985e-05
0.00110617 -0.000338433 -0.000329028 -7.46967e-05
0.0011031 -0.000337414 -0.000328153 -7.46712e-05
0.000547563 -0.000171045 -0.000161365 -7.96752e-05
0.000544569 -0.000170031 -0.000160516 -7.96287e-05
0.0016437 -0.000498691 -0.000490718 -6.63457e-05
0.00165274 -0.000501529 -0.000493378 -6.63173e-05
0.000546061 -0.000170534 -0.00016094 -7.96466e-05
0.00109404 -0.000334479 -0.000325524 -7.46464e-05
0.00164822 -0.000500103 -0.000492049 -6.63331e-05
0.00110007 -0.000336419 -0.000327277 -7.46574e-05
0.00109705 -0.000335443 -0.000326401 -7.465e-05
0.000544569 -0.000170031 -0.000160516 -7.96287e-05
0.000541601 -0.000169043 -0.000159668 -7.9612e-05
0.00163468 -0.000495894 -0.000488053 -6.63641e-05
0.0016437 -0.000498691 -0.000490718 -6.63457e-05
0.000543083 -0.000169535 -0.000160092 -7.9618e-05
0.00108804 -0.000332579 -0.00032377 -7.46473e-05
0.00163919 -0.000497289 -0.000489385 -6.63558e-05
0.00109404 -0.000334479 -0.000325524 -7.46464e-05
0.00109104 -0.000333526 -0.000324647 -7.46459e-05
0.000541601 -0.000169043 -0.000159668 -7.9612e-05
0.000538646 -0.000168069 -0.000158819 -7.96079e-05
0.00162568 -0.000493117 -0.000485386 -6.6376e-05
0.00163468 -0.000495894 -0.000488053 -6.63641e-05
0.000540122 -0.000168555 -0.000159243 -7.9609e-05
0.00108206 -0.000330699 -0.000322013 -7.46517e-05
0.00163018 -0.000494504 -0.00048672 -6.63708e-05
0.00108804 -0.000332579 -0.00032377 -7.46473e-05
0.00108505 -0.000331637 -0.000322892 -7.46494e-05
0.000538646 -0.000168069 -0.000158819 -7.96079e-05
0.000535698 -0.000167104 -0.000157969 -7.96085e-05
0.00161669 -0.000490351 -0.000482717 -6.63833e-05
0.00162568 -0.000493117 -0.000485386 -6.6376e-05
0.000537172 -0.000167586 -0.000158394 -7.96079e-05
0.00107609 -0.000328831 -0.000320255 -7.46562e-05
0.00162119 -0.000491733 -0.000484052 -6.63801e-05
0.00108206 -0.000330699 -0.000322013 -7.46517e-05
0.00107908 -0.000329764 -0.000321134 -7.4654e-05
0.000535698 -0.000167104 -0.000157969 -7.96085e-05
0.000532754 -0.000166143 -0.000157119 -7.96101e-05
0.0016077 -0.000487589 -0.000480047 -6.63876e-05
0.00161669 -0.000490351 -0.000482717 -6.63833e-05
0.000534226 -0.000166623 -0.000157544 -7.96093e-05
0.00107012 -0.000326968 -0.000318496 -7.46596e-05
0.00161219 -0.000488969 -0.000481382 -6.63858e-05
0.00107609 -0.000328831 -0.000320255 -7.46562e-05
0.00107311 -0.000327899 -0.000319375 -7.46581e-05
0.000532754 -0.000166143 -0.000157119 -7.96101e-05
0.000529811 -0.000165186 -0.000156268 -7.96115e-05
0.00159871 -0.00048483 -0.000477375 -6.63899e-05
0.0016077 -0.000487589 -0.000480047 -6.63876e-05
0.000531282 -0.000165664 -0.000156693 -7.96108e-05
0.00106416 -0.000325108 -0.000316736 -7.46617e-05
0.0016032 -0.000486209 -0.000478711 -6.6389e-05
0.00107012 -0.000326968 -0.000318496 -7.46596e-05
0.00106714 -0.000326038 -0.000317616 -7.46608e-05
0.000529811 -0.000165186 -0.000156268 -7.96115e-05
0.000526868 -0.00016423 -0.000155416 -7.96122e-05
0.00158971 -0.000482072 -0.000474704 -6.63908e-05
0.00159871 -0.00048483 -0.000477375 -6.63899e-05
0.000528339 -0.000164708 -0.000155842 -7.96119e-05
0.00105819 -0.00032325 -0.000314975 -7.46628e-05
0.00159421 -0.000483451 -0.00047604 -6.63905e-05
0.00106416 -0.000325108 -0.000316736 -7.46617e-05
0.00106117 -0.000324179 -0.000315855 -7.46624e-05
0.000526868 -0.00016423 -0.000155416 -7.96122e-05
0.000523927 -0.000163276 -0.000154564 -7.96124e-05
0.00158072 -0.000479315 -0.000472031 -6.63908e-05
0.00158971 -0.000482072 -0.000474704 -6.63908e-05
0.000525397 -0.000163753 -0.00015499 -7.96124e-05
0.00105223 -0.000321394 -0.000313214 -7.4663e-05
0.00158522 -0.000480693 -0.000473368 -6.63909e-05
0.00105819 -0.00032325 -0.000314975 -7.46628e-05
0.00105521 -0.000322322 -0.000314094 -7.4663e-05
0.000523927 -0.000163276 -0.000154564 -7.96124e-05
0.000520985 -0.000162323 -0.000153712 -7.96121e-05
0.00157173 -0.000476558 -0.000469359 -6.63903e-05
0.00158072 -0.000479315 -0.000472031 -6.63908e-05
0.000522456 -0.0001628 -0.000154138 -7.96123e-05
0.00104626 -0.000319538 -0.000311452 -7.46626e-05
0.00157622 -0.000477937 -0.000470695 -6.63906e-05
0.00105223 -0.000321394 -0.000313214 -7.4663e-05
0.00104924 -0.000320466 -0.000312333 -7.46629e-05
0.000520985 -0.000162323 -0.000153712 -7.96121e-05
0.000518042 -0.000161371 -0.000152859 -7.96115e-05
0.00156273 -0.000473802 -0.000466685 -6.63895e-05
0.00157173 -0.000476558 -0.000469359 -6.63903e-05
0.000519513 -0.000161847 -0.000153286 -7.96118e-05
0.00104029 -0.000317682 -0.00030969 -7.46619e-05
0.00156723 -0.00047518 -0.000468022 -6.639e-05
0.00104626 -0.000319538 -0.000311452 -7.46626e-05
0.00104328 -0.00031861 -0.000310571 -7.46623e-05
0.000518042 -0.000161371 -0.000152859 -7.96115e-05
0.0005151 -0.000160419 -0.000152006 -7.96107e-05
0.00155374 -0.000471047 -0.000464012 -6.63885e-05
0.00156273 -0.000473802 -0.000466685 -6.63895e-05
0.000516571 -0.000160895 -0.000152433 -7.96111e-05
0.00103433 -0.000315827 -0.000307928 -7.4661e-05
0.00155824 -0.000472424 -0.000465349 -6.6389e-05
0.00104029 -0.000317682 -0.00030969 -7.46619e-05
0.00103731 -0.000316755 -0.000308809 -7.46615e-05
0.0005151 -0.000160419 -0.000152006 -7.96107e-05
0.000512157 -0.000159468 -0.000151153 -7.96097e-05
0.00154475 -0.000468291 -0.000461338 -6.63873e-05
0.00155374 -0.000471047 -0.000464012 -6.63885e-05
0.000513628 -0.000159943 -0.000151579 -7.96102e-05
0.00102836 -0.000313973 -0.000306165 -7.46599e-05
0.00154924 -0.000469669 -0.000462675 -6.63879e-05
0.00103433 -0.000315827 -0.000307928 -7.4661e-05
0.00103134 -0.0003149 -0.000307047 -7.46605e-05
0.000512157 -0.000159468 -0.000151153 -7.96097e-05
0.000509214 -0.000158516 -0.000150299 -7.96087e-05
0.00153575 -0.000465536 -0.000458664 -6.63861e-05
0.00154475 -0.000468291 -0.000461338 -6.63873e-05
0.000510685 -0.000158992 -0.000150726 -7.96092e-05
0.00102239 -0.000312119 -0.000304402 -7.46588e-05
0.00154025 -0.000466913 -0.000460001 -6.63867e-05
0.00102836 -0.000313973 -0.000306165 -7.46599e-05
0.00102537 -0.000313046 -0.000305284 -7.46594e-05
0.000509214 -0.000158516 -0.000150299 -7.96087e-05
0.00050627 -0.000157566 -0.000149445 -7.96076e-05
0.00152676 -0.000462781 -0.00045599 -6.63849e-05
0.00153575 -0.000465536 -0.000458664 -6.63861e-05
0.000507742 -0.000158041 -0.000149872 -7.96082e-05
0.00101642 -0.000310265 -0.000302639 -7.46576e-05
0.00153126 -0.000464158 -0.000457327 -6.63855e-05
0.00102239 -0.000312119 -0.000304402 -7.46588e-05
0.00101941 -0.000311192 -0.000303521 -7.46582e-05
0.00050627 -0.000157566 -0.000149445 -7.96076e-05
0.000503325 -0.000156615 -0.00014859 -7.96065e-05
0.00151776 -0.000460026 -0.000453316 -6.63836e-05
0.00152676 -0.000462781 -0.00045599 -6.63849e-05
0.000504798 -0.00015709 -0.000149017 -7.96071e-05
0.00101045 -0.000308411 -0.000300876 -7.46564e-05
0.00152226 -0.000461404 -0.000454653 -6.63843e-05
0.00101642 -0.000310265 -0.000302639 -7.46576e-05
0.00101344 -0.000309338 -0.000301757 -7.4657e-05
0.000503325 -0.000156615 -0.00014859 -7.96065e-05
0.000500381 -0.000155665 -0.000147735 -7.96054e-05
0.00150877 -0.000457272 -0.000450641 -6.63824e-05
0.00151776 -0.000460026 -0.000453316 -6.63836e-05
0.000501853 -0.00015614 -0.000148163 -7.9606e-05
0.00100449 -0.000306558 -0.000299112 -7.46551e-05
0.00151327 -0.000458649 -0.000451978 -6.6383e-05
0.00101045 -0.000308411 -0.000300876 -7.46564e-05
0.00100747 -0.000307484 -0.000299994 -7.46558e-05
0.000500381 -0.000155665 -0.000147735 -7.96054e-05
0.000497436 -0.000154715 -0.00014688 -7.96042e-05
0.00149977 -0.000454518 -0.000447966 -6.63811e-05
0.00150877 -0.000457272 -0.000450641 -6.63824e-05
0.000498908 -0.00015519 -0.000147308 -7.96048e-05
0.000998516 -0.000304705 -0.000297348 -7.46539e-05
0.00150427 -0.000455895 -0.000449304 -6.63818e-05
0.00100449 -0.000306558 -0.000299112 -7.46551e-05
0.0010015 -0.000305631 -0.00029823 -7.46545e-05
0.000497436 -0.000154715 -0.00014688 -7.96042e-05
0.00049449 -0.000153765 -0.000146025 -7.96031e-05
0.00149078 -0.000451764 -0.000445291 -6.63799e-05
0.00149977 -0.000454518 -0.000447966 -6.63811e-05
0.000495963 -0.00015424 -0.000146453 -7.96037e-05
0.000992546 -0.000302852 -0.000295583 -7.46526e-05
0.00149527 -0.000453141 -0.000446629 -6.63805e-05
0.000998516 -0.000304705 -0.000297348 -7.46539e-05
0.000995531 -0.000303778 -0.000296466 -7.46533e-05
0.00049449 -0.000153765 -0.000146025 -7.96031e-05
0.000491544 -0.000152816 -0.000145169 -7.96019e-05
0.00148178 -0.00044901 -0.000442616 -6.63786e-05
0.00149078 -0.000451764 -0.000445291 -6.63799e-05
0.000493017 -0.000153291 -0.000145597 -7.96025e-05
0.000986576 -0.000300999 -0.000293819 -7.46514e-05
0.00148628 -0.000450387 -0.000443953 -6.63792e-05
0.000992546 -0.000302852 -0.000295583 -7.46526e-05
0.000989561 -0.000301925 -0.000294701 -7.4652e-05
0.000491544 -0.000152816 -0.000145169 -7.96019e-05
0.000488598 -0.000151867 -0.000144313 -7.96007e-05
0.00147278 -0.000446256 -0.00043994 -6.63773e-05
0.00148178 -0.00044901 -0.000442616 -6.63786e-05
0.000490071 -0.000152341 -0.000144741 -7.96013e-05
0.000980606 -0.000299147 -0.000292054 -7.46501e-05
0.00147728 -0.000447633 -0.000441278 -6.63779e-05
0.000986576 -0.000300999 -0.000293819 -7.46514e-05
0.000983591 -0.000300073 -0.000292936 -7.46507e-05
0.000488598 -0.000151867 -0.000144313 -7.96007e-05
0.000485651 -0.000150918 -0.000143457 -7.95995e-05
0.00146379 -0.000443503 -0.000437264 -6.6376e-05
0.00147278 -0.000446256 -0.00043994 -6.63773e-05
0.000487124 -0.000151392 -0.000143885 -7.96001e-05
0.000974635 -0.000297295 -0.000290289 -7.46488e-05
0.00146828 -0.00044488 -0.000438602 -6.63767e-05
0.000980606 -0.000299147 -0.000292054 -7.46501e-05
0.00097762 -0.000298221 -0.000291171 -7.46494e-05
0.000485651 -0.000150918 -0.000143457 -7.95995e-05
0.000482704 -0.000149969 -0.0001426 -7.95982e-05
0.00145479 -0.00044075 -0.000434588 -6.63747e-05
0.00146379 -0.000443503 -0.000437264 -6.6376e-05
0.000484177 -0.000150444 -0.000143029 -7.95989e-05
0.000968664 -0.000295443 -0.000288523 -7.46475e-05
0.00145929 -0.000442127 -0.000435926 -6.63754e-05
0.000974635 -0.000297295 -0.000290289 -7.46488e-05
0.000971649 -0.000296369 -0.000289406 -7.46481e-05
0.000482704 -0.000149969 -0.0001426 -7.95982e-05
0.000479756 -0.000149021 -0.000141744 -7.9597e-05
0.00144579 -0.000437997 -0.000431912 -6.63734e-05
0.00145479 -0.00044075 -0.000434588 -6.63747e-05
0.00048123 -0.000149495 -0.000142172 -7.95976e-05
0.000962692 -0.000293591 -0.000286757 -7.46461e-05
0.00145029 -0.000439374 -0.00043325 -6.63741e-05
0.000968664 -0.000295443 -0.000288523 -7.46475e-05
0.000965678 -0.000294517 -0.00028764 -7.46468e-05
0.000479756 -0.000149021 -0.000141744 -7.9597e-05
0.000476808 -0.000148073 -0.000140886 -7.95957e-05
0.00143679 -0.000435245 -0.000429235 -6.63721e-05
0.00144579 -0.000437997 -0.000431912 -6.63734e-05
0.000478282 -0.000148547 -0.000141315 -7.95964e-05
0.00095672 -0.00029174 -0.000284992 -7.46448e-05
0.00144129 -0.000436621 -0.000430573 -6.63727e-05
0.000962692 -0.000293591 -0.000286757 -7.46461e-05
0.000959706 -0.000292666 -0.000285875 -7.46455e-05
0.000476808 -0.000148073 -0.000140886 -7.95957e-05
0.000473859 -0.000147125 -0.000140029 -7.95944e-05
0.0014278 -0.000432493 -0.000426558 -6.63707e-05
0.00143679 -0.000435245 -0.000429235 -6.63721e-05
0.000475334 -0.000147599 -0.000140458 -7.95951e-05
0.000950748 -0.000289889 -0.000283225 -7.46434e-05
0.00143229 -0.000433869 -0.000427897 -6.63714e-05
0.00095672 -0.00029174 -0.000284992 -7.46448e-05
0.000953734 -0.000290814 -0.000284108 -7.46441e-05
0.000473859 -0.000147125 -0.000140029 -7.95944e-05
0.00047091 -0.000146178 -0.000139171 -7.95931e-05
0.0014188 -0.000429741 -0.000423882 -6.63694e-05
0.0014278 -0.000432493 -0.000426558 -6.63707e-05
0.000472385 -0.000146651 -0.0001396 -7.95938e-05
0.000944775 -0.000288038 -0.000281459 -7.46421e-05
0.0014233 -0.000431117 -0.00042522 -6.637e-05
0.000950748 -0.000289889 -0.000283225 -7.46434e-05
0.000947762 -0.000288963 -0.000282342 -7.46427e-05
0.00047091 -0.000146178 -0.000139171 -7.95931e-05
0.000467961 -0.00014523 -0.000138313 -7.95918e-05
0.0014098 -0.000426989 -0.000421204 -6.6368e-05
0.0014188 -0.000429741 -0.000423882 -6.63694e-05
0.000469436 -0.000145704 -0.000138742 -7.95925e-05
0.000938802 -0.000286188 -0.000279692 -7.46407e-05
0.0014143 -0.000428365 -0.000422543 -6.63687e-05
0.000944775 -0.000288038 -0.000281459 -7.46421e-05
0.000941789 -0.000287113 -0.000280575 -7.46414e-05
0.000467961 -0.00014523 -0.000138313 -7.95918e-05
0.000465011 -0.000144284 -0.000137455 -7.95905e-05
0.0014008 -0.000424237 -0.000418527 -6.63666e-05
0.0014098 -0.000426989 -0.000421204 -6.6368e-05
0.000466486 -0.000144757 -0.000137884 -7.95911e-05
0.000932829 -0.000284337 -0.000277925 -7.46393e-05
0.0014053 -0.000425613 -0.000419866 -6.63673e-05
0.000938802 -0.000286188 -0.000279692 -7.46407e-05
0.000935816 -0.000285262 -0.000278809 -7.464e-05
0.000465011 -0.000144284 -0.000137455 -7.95905e-05
0.000462061 -0.000143337 -0.000136596 -7.95891e-05
0.0013918 -0.000421486 -0.000415849 -6.63652e-05
0.0014008 -0.000424237 -0.000418527 -6.63666e-05
0.000463536 -0.00014381 -0.000137026 -7.95898e-05
0.000926855 -0.000282487 -0.000276158 -7.46378e-05
0.0013963 -0.000422862 -0.000417188 -6.63659e-05
0.000932829 -0.000284337 -0.000277925 -7.46393e-05
0.000929842 -0.000283412 -0.000277041 -7.46385e-05
0.000462061 -0.000143337 -0.000136596 -7.95891e-05
0.000459111 -0.00014239 -0.000135737 -7.95877e-05
0.0013828 -0.000418735 -0.000413171 -6.63638e-05
0.0013918 -0.000421486 -0.000415849 -6.63652e-05
0.000460586 -0.000142864 -0.000136167 -7.95884e-05
0.000920882 -0.000280638 -0.00027439 -7.46364e-05
0.0013873 -0.000420111 -0.00041451 -6.63645e-05
0.000926855 -0.000282487 -0.000276158 -7.46378e-05
0.000923869 -0.000281563 -0.000275274 -7.46371e-05
0.000459111 -0.00014239 -0.000135737 -7.95877e-05
0.00045616 -0.000141444 -0.000134878 -7.95863e-05
0.0013738 -0.000415984 -0.000410493 -6.63624e-05
0.0013828 -0.000418735 -0.000413171 -6.63638e-05
0.000457635 -0.000141917 -0.000135308 -7.9587e-05
0.000914907 -0.000278788 -0.000272622 -7.46349e-05
0.0013783 -0.00041736 -0.000411832 -6.63631e-05
0.000920882 -0.000280638 -0.00027439 -7.46364e-05
0.000917894 -0.000279713 -0.000273506 -7.46357e-05
0.00045616 -0.000141444 -0.000134878 -7.95863e-05
0.000453208 -0.000140498 -0.000134019 -7.95849e-05
0.0013648 -0.000413234 -0.000407815 -6.63609e-05
0.0013738 -0.000415984 -0.000410493 -6.63624e-05
0.000454684 -0.000140971 -0.000134448 -7.95856e-05
0.000908933 -0.000276939 -0.000270854 -7.46335e-05
0.0013693 -0.000414609 -0.000409154 -6.63617e-05
0.000914907 -0.000278788 -0.000272622 -7.46349e-05
0.00091192 -0.000277864 -0.000271738 -7.46342e-05
0.000453208 -0.000140498 -0.000134019 -7.95849e-05
0.000450256 -0.000139553 -0.000133159 -7.95835e-05
0.0013558 -0.000410484 -0.000405137 -6.63595e-05
0.0013648 -0.000413234 -0.000407815 -6.63609e-05
0.000451732 -0.000140026 -0.000133589 -7.95842e-05
0.000902958 -0.00027509 -0.000269086 -7.4632e-05
0.0013603 -0.000411859 -0.000406476 -6.63602e-05
0.000908933 -0.000276939 -0.000270854 -7.46335e-05
0.000905945 -0.000276015 -0.00026997 -7.46327e-05
0.000450256 -0.000139553 -0.000133159 -7.95835e-05
0.000447304 -0.000138607 -0.000132299 -7.95821e-05
0.0013468 -0.000407734 -0.000402458 -6.6358e-05
0.0013558 -0.000410484 -0.000405137 -6.63595e-05
0.00044878 -0.00013908 -0.000132729 -7.95828e-05
0.000896982 -0.000273242 -0.000267317 -7.46305e-05
0.0013513 -0.000409109 -0.000403797 -6.63588e-05
0.000902958 -0.00027509 -0.000269086 -7.4632e-05
0.00089997 -0.000274166 -0.000268202 -7.46312e-05
0.000447304 -0.000138607 -0.000132299 -7.95821e-05
0.000444352 -0.000137662 -0.000131438 -7.95806e-05
0.0013378 -0.000404984 -0.000399779 -6.63566e-05
0.0013468 -0.000407734 -0.000402458 -6.6358e-05
0.000445828 -0.000138135 -0.000131868 -7.95813e-05
0.000891007 -0.000271393 -0.000265549 -7.4629e-05
0.0013423 -0.000406359 -0.000401118 -6.63573e-05
0.000896982 -0.000273242 -0.000267317 -7.46305e-05
0.000893994 -0.000272317 -0.000266433 -7.46297e-05
0.000444352 -0.000137662 -0.000131438 -7.95806e-05
0.000441399 -0.000136718 -0.000130578 -7.95792e-05
0.0013288 -0.000402235 -0.0003971 -6.63551e-05
0.0013378 -0.000404984 -0.000399779 -6.63566e-05
0.000442875 -0.00013719 -0.000131008 -7.95799e-05
0.000885031 -0.000269545 -0.000263779 -7.46275e-05
0.0013333 -0.000403609 -0.000398439 -6.63558e-05
0.000891007 -0.000271393 -0.000265549 -7.4629e-05
0.000888019 -0.000270469 -0.000264664 -7.46282e-05
0.000441399 -0.000136718 -0.000130578 -7.95792e-05
0.000438445 -0.000135773 -0.000129717 -7.95777e-05
0.0013198 -0.000399485 -0.00039442 -6.63536e-05
0.0013288 -0.000402235 -0.0003971 -6.63551e-05
0.000439922 -0.000136245 -0.000130147 -7.95784e-05
0.000879054 -0.000267697 -0.00026201 -7.46259e-05
0.0013243 -0.00040086 -0.00039576 -6.63543e-05
0.000885031 -0.000269545 -0.000263779 -7.46275e-05
0.000882042 -0.000268621 -0.000262895 -7.46267e-05
0.000438445 -0.000135773 -0.000129717 -7.95777e-05
0.000435491 -0.000134829 -0.000128855 -7.95762e-05
0.0013108 -0.000396736 -0.000391741 -6.63521e-05
0.0013198 -0.000399485 -0.00039442 -6.63536e-05
0.000436968 -0.000135301 -0.000129286 -7.95769e-05
0.000873078 -0.00026585 -0.00026024 -7.46244e-05
0.0013153 -0.000398111 -0.00039308 -6.63528e-05
0.000879054 -0.000267697 -0.00026201 -7.46259e-05
0.000876066 -0.000266774 -0.000261125 -7.46252e-05
0.000435491 -0.000134829 -0.000128855 -7.95762e-05
0.000432537 -0.000133885 -0.000127994 -7.95747e-05
0.0013018 -0.000393988 -0.000389061 -6.63505e-05
0.0013108 -0.000396736 -0.000391741 -6.63521e-05
0.000434014 -0.000134357 -0.000128425 -7.95754e-05
0.0008671 -0.000264003 -0.00025847 -7.46228e-05
0.0013063 -0.000395362 -0.000390401 -6.63513e-05
0.000873078 -0.00026585 -0.00026024 -7.46244e-05
0.000870089 -0.000264926 -0.000259355 -7.46236e-05
0.000432537 -0.000133885 -0.000127994 -7.95747e-05
0.000429583 -0.000132941 -0.000127132 -7.95732e-05
0.00129279 -0.000391239 -0.000386381 -6.6349e-05
0.0013018 -0.000393988 -0.000389061 -6.63505e-05
0.00043106 -0.000133413 -0.000127563 -7.95739e-05
0.000861123 -0.000262156 -0.0002567 -7.46213e-05
0.0012973 -0.000392613 -0.000387721 -6.63498e-05
0.0008671 -0.000264003 -0.00025847 -7.46228e-05
0.000864112 -0.000263079 -0.000257585 -7.46221e-05
0.000429583 -0.000132941 -0.000127132 -7.95732e-05
0.000426628 -0.000131998 -0.00012627 -7.95717e-05
0.00128379 -0.000388491 -0.0003837 -6.63475e-05
0.00129279 -0.000391239 -0.000386381 -6.6349e-05
0.000428105 -0.00013247 -0.000126701 -7.95724e-05
0.000855145 -0.000260309 -0.00025493 -7.46197e-05
0.00128829 -0.000389865 -0.000385041 -6.63483e-05
0.000861123 -0.000262156 -0.0002567 -7.46213e-05
0.000858134 -0.000261232 -0.000255815 -7.46205e-05
0.000426628 -0.000131998 -0.00012627 -7.95717e-05
0.000423672 -0.000131055 -0.000125407 -7.95701e-05
0.00127479 -0.000385743 -0.00038102 -6.63459e-05
0.00128379 -0.000388491 -0.0003837 -6.63475e-05
0.00042515 -0.000131526 -0.000125839 -7.95709e-05
0.000849167 -0.000258463 -0.000253159 -7.46181e-05
0.00127929 -0.000387117 -0.00038236 -6.63467e-05
0.000855145 -0.000260309 -0.00025493 -7.46197e-05
0.000852156 -0.000259386 -0.000254045 -7.46189e-05
0.000423672 -0.000131055 -0.000125407 -7.95701e-05
0.000420716 -0.000130112 -0.000124545 -7.95686e-05
0.00126579 -0.000382995 -0.000378339 -6.63444e-05
0.00127479 -0.000385743 -0.00038102 -6.63459e-05
0.000422194 -0.000130584 -0.000124976 -7.95694e-05
0.000843189 -0.000256616 -0.000251388 -7.46165e-05
0.00127029 -0.000384369 -0.00037968 -6.63452e-05
0.000849167 -0.000258463 -0.000253159 -7.46181e-05
0.000846178 -0.00025754 -0.000252274 -7.46173e-05
0.000420716 -0.000130112 -0.000124545 -7.95686e-05
0.00041776 -0.00012917 -0.000123682 -7.9567e-05
0.00125678 -0.000380248 -0.000375658 -6.63428e-05
0.00126579 -0.000382995 -0.000378339 -6.63444e-05
0.000419238 -0.000129641 -0.000124113 -7.95678e-05
0.00083721 -0.000254771 -0.000249617 -7.46149e-05
0.00126129 -0.000381622 -0.000376999 -6.63436e-05
0.000843189 -0.000256616 -0.000251388 -7.46165e-05
0.0008402 -0.000255694 -0.000250503 -7.46157e-05
0.00041776 -0.00012917 -0.000123682 -7.9567e-05
0.000414803 -0.000128227 -0.000122818 -7.95655e-05
0.00124778 -0.000377501 -0.000372977 -6.63413e-05
0.00125678 -0.000380248 -0.000375658 -6.63428e-05
0.000416282 -0.000128698 -0.00012325 -7.95662e-05
0.000831231 -0.000252925 -0.000247846 -7.46133e-05
0.00125228 -0.000378874 -0.000374318 -6.6342e-05
0.00083721 -0.000254771 -0.000249617 -7.46149e-05
0.000834221 -0.000253848 -0.000248731 -7.46141e-05
0.000414803 -0.000128227 -0.000122818 -7.95655e-05
0.000411846 -0.000127285 -0.000121955 -7.95639e-05
0.00123878 -0.000374754 -0.000370296 -6.63397e-05
0.00124778 -0.000377501 -0.000372977 -6.63413e-05
0.000413325 -0.000127756 -0.000122387 -7.95647e-05
0.000825252 -0.00025108 -0.000246074 -7.46117e-05
0.00124328 -0.000376127 -0.000371637 -6.63405e-05
0.000831231 -0.000252925 -0.000247846 -7.46133e-05
0.000828242 -0.000252002 -0.00024696 -7.46125e-05
0.000411846 -0.000127285 -0.000121955 -7.95639e-05
0.000408889 -0.000126344 -0.000121091 -7.95623e-05
0.00122977 -0.000372007 -0.000367614 -6.63381e-05
0.00123878 -0.000374754 -0.000370296 -6.63397e-05
0.000410368 -0.000126814 -0.000121523 -7.95631e-05
0.000819272 -0.000249235 -0.000244302 -7.461e-05
0.00123428 -0.000373381 -0.000368955 -6.63389e-05
0.000825252 -0.00025108 -0.000246074 -7.46117e-05
0.000822262 -0.000250157 -0.000245188 -7.46108e-05
0.000408889 -0.000126344 -0.000121091 -7.95623e-05
0.000405931 -0.000125402 -0.000120227 -7.95607e-05
0.00122077 -0.000369261 -0.000364932 -6.63365e-05
0.00122977 -0.000372007 -0.000367614 -6.63381e-05
0.00040741 -0.000125873 -0.000120659 -7.95615e-05
0.000813292 -0.00024739 -0.00024253 -7.46084e-05
0.00122527 -0.000370634 -0.000366273 -6.63373e-05
0.000819272 -0.000249235 -0.000244302 -7.461e-05
0.000816282 -0.000248312 -0.000243416 -7.46092e-05
0.000405931 -0.000125402 -0.000120227 -7.95607e-05
0.000402973 -0.000124461 -0.000119362 -7.95591e-05
0.00121177 -0.000366515 -0.00036225 -6.63349e-05
0.00122077 -0.000369261 -0.000364932 -6.63365e-05
0.000404452 -0.000124932 -0.000119794 -7.95599e-05
0.000807312 -0.000245545 -0.000240757 -7.46067e-05
0.00121627 -0.000367888 -0.000363591 -6.63357e-05
0.000813292 -0.00024739 -0.00024253 -7.46084e-05
0.000810302 -0.000246468 -0.000241643 -7.46076e-05
0.000402973 -0.000124461 -0.000119362 -7.95591e-05
0.000400014 -0.00012352 -0.000118497 -7.95575e-05
0.00120276 -0.000363769 -0.000359568 -6.63333e-05
0.00121177 -0.000366515 -0.00036225 -6.63349e-05
0.000401493 -0.000123991 -0.00011893 -7.95583e-05
0.000801331 -0.000243701 -0.000238984 -7.46051e-05
0.00120726 -0.000365142 -0.000360909 -6.63341e-05
0.000807312 -0.000245545 -0.000240757 -7.46067e-05
0.000804322 -0.000244623 -0.000239871 -7.46059e-05
0.000400014 -0.00012352 -0.000118497 -7.95575e-05
0.000397055 -0.00012258 -0.000117632 -7.95559e-05
0.00119376 -0.000361024 -0.000356886 -6.63317e-05
0.00120276 -0.000363769 -0.000359568 -6.63333e-05
0.000398535 -0.00012305 -0.000118065 -7.95567e-05
0.00079535 -0.000241857 -0.000237211 -7.46034e-05
0.00119826 -0.000362396 -0.000358227 -6.63325e-05
0.000801331 -0.000243701 -0.000238984 -7.46051e-05
0.000798341 -0.000242779 -0.000238098 -7.46042e-05
0.000397055 -0.00012258 -0.000117632 -7.95559e-05
0.000394096 -0.000121639 -0.000116767 -7.95543e-05
0.00118475 -0.000358278 -0.000354203 -6.63301e-05
0.00119376 -0.000361024 -0.000356886 -6.63317e-05
0.000395575 -0.000122109 -0.0001172 -7.95551e-05
0.000789369 -0.000240014 -0.000235438 -7.46018e-05
0.00118925 -0.000359651 -0.000355545 -6.63309e-05
0.00079535 -0.000241857 -0.000237211 -7.46034e-05
0.00079236 -0.000240935 -0.000236325 -7.46026e-05
0.000394096 -0.000121639 -0.000116767 -7.95543e-05
0.000391136 -0.000120699 -0.000115901 -7.95527e-05
0.00117575 -0.000355533 -0.00035152 -6.63285e-05
0.00118475 -0.000358278 -0.000354203 -6.63301e-05
0.000392616 -0.000121169 -0.000116334 -7.95535e-05
0.000783388 -0.00023817 -0.000233665 -7.46001e-05
0.00118025 -0.000356906 -0.000352862 -6.63293e-05
0.000789369 -0.000240014 -0.000235438 -7.46018e-05
0.000786378 -0.000239092 -0.000234551 -7.46009e-05
0.000391136 -0.000120699 -0.000115901 -7.95527e-05
0.000388175 -0.00011976 -0.000115035 -7.9551e-05
0.00116674 -0.000352788 -0.000348837 -6.63268e-05
0.00117575 -0.000355533 -0.00035152 -6.63285e-05
0.000389656 -0.000120229 -0.000115468 -7.95518e-05
0.000777406 -0.000236327 -0.000231891 -7.45984e-05
0.00117124 -0.000354161 -0.000350179 -6.63276e-05
0.000783388 -0.00023817 -0.000233665 -7.46001e-05
0.000780397 -0.000237249 -0.000232778 -7.45992e-05
0.000388175 -0.00011976 -0.000115035 -7.9551e-05
0.000385215 -0.00011882 -0.000114169 -7.95494e-05
0.00115774 -0.000350044 -0.000346154 -6.63252e-05
0.00116674 -0.000352788 -0.000348837 -6.63268e-05
0.000386695 -0.00011929 -0.000114602 -7.95502e-05
0.000771423 -0.000234484 -0.000230117 -7.45967e-05
0.00116224 -0.000351416 -0.000347496 -6.6326e-05
0.000777406 -0.000236327 -0.000231891 -7.45984e-05
0.000774415 -0.000235406 -0.000231004 -7.45976e-05
0.000385215 -0.00011882 -0.000114169 -7.95494e-05
0.000382254 -0.000117881 -0.000113303 -7.95478e-05
0.00114873 -0.0003473 -0.00034347 -6.63236e-05
0.00115774 -0.000350044 -0.000346154 -6.63252e-05
0.000383734 -0.00011835 -0.000113736 -7.95486e-05
0.000765441 -0.000232642 -0.000228342 -7.4595e-05
0.00115323 -0.000348672 -0.000344812 -6.63244e-05
0.000771423 -0.000234484 -0.000230117 -7.45967e-05
0.000768432 -0.000233563 -0.00022923 -7.45959e-05
0.000382254 -0.000117881 -0.000113303 -7.95478e-05
0.000379292 -0.000116942 -0.000112436 -7.95461e-05
0.00113972 -0.000344556 -0.000340787 -6.63219e-05
0.00114873 -0.0003473 -0.00034347 -6.63236e-05
0.000380773 -0.000117411 -0.000112869 -7.95469e-05
0.000759458 -0.0002308 -0.000226568 -7.45933e-05
0.00114423 -0.000345928 -0.000342129 -6.63227e-05
0.000765441 -0.000232642 -0.000228342 -7.4595e-05
0.000762449 -0.000231721 -0.000227455 -7.45942e-05
0.000379292 -0.000116942 -0.000112436 -7.95461e-05
0.00037633 -0.000116003 -0.000111569 -7.95445e-05
0.00113072 -0.000341812 -0.000338103 -6.63203e-05
0.00113972 -0.000344556 -0.000340787 -6.63219e-05
0.000377811 -0.000116473 -0.000112002 -7.95453e-05
0.000753475 -0.000228958 -0.000224793 -7.45916e-05
0.00113522 -0.000343184 -0.000339445 -6.63211e-05
0.000759458 -0.0002308 -0.000226568 -7.45933e-05
0.000756466 -0.000229879 -0.00022568 -7.45925e-05
0.00037633 -0.000116003 -0.000111569 -7.95445e-05
0.000373368 -0.000115065 -0.000110701 -7.95428e-05
0.00112171 -0.000339068 -0.000335419 -6.63186e-05
0.00113072 -0.000341812 -0.000338103 -6.63203e-05
0.000374849 -0.000115534 -0.000111135 -7.95436e-05
0.000747491 -0.000227116 -0.000223018 -7.45899e-05
0.00112622 -0.00034044 -0.000336761 -6.63195e-05
0.000753475 -0.000228958 -0.000224793 -7.45916e-05
0.000750483 -0.000228037 -0.000223905 -7.45908e-05
0.000373368 -0.000115065 -0.000110701 -7.95428e-05
0.000370406 -0.000114127 -0.000109834 -7.95411e-05
0.00111271 -0.000336325 -0.000332734 -6.6317e-05
0.00112171 -0.000339068 -0.000335419 -6.63186e-05
0.000371887 -0.000114596 -0.000110268 -7.9542e-05
0.000741507 -0.000225274 -0.000221243 -7.45882e-05
0.00111721 -0.000337697 -0.000334077 -6.63178e-05
0.000747491 -0.000227116 -0.000223018 -7.45899e-05
0.000744499 -0.000226195 -0.00022213 -7.45891e-05
0.000370406 -0.000114127 -0.000109834 -7.95411e-05
0.000367442 -0.000113189 -0.000108966 -7.95395e-05
0.0011037 -0.000333582 -0.00033005 -6.63153e-05
0.00111271 -0.000336325 -0.000332734 -6.6317e-05
0.000368924 -0.000113658 -0.0001094 -7.95403e-05
0.000735523 -0.000223433 -0.000219467 -7.45865e-05
0.0011082 -0.000334954 -0.000331392 -6.63162e-05
0.000741507 -0.000225274 -0.000221243 -7.45882e-05
0.000738515 -0.000224354 -0.000220355 -7.45874e-05
0.000367442 -0.000113189 -0.000108966 -7.95395e-05
0.000364479 -0.000112252 -0.000108097 -7.95378e-05
0.00109469 -0.00033084 -0.000327365 -6.63137e-05
0.0011037 -0.000333582 -0.00033005 -6.63153e-05
0.000365961 -0.00011272 -0.000108532 -7.95387e-05
0.000729538 -0.000221592 -0.000217691 -7.45848e-05
0.00109919 -0.000332211 -0.000328707 -6.63145e-05
0.000735523 -0.000223433 -0.000219467 -7.45865e-05
0.000732531 -0.000222513 -0.000218579 -7.45857e-05
0.000364479 -0.000112252 -0.000108097 -7.95378e-05
0.000361515 -0.000111314 -0.000107229 -7.95362e-05
0.00108568 -0.000328097 -0.00032468 -6.6312e-05
0.00109469 -0.00033084 -0.000327365 -6.63137e-05
0.000362997 -0.000111783 -0.000107663 -7.9537e-05
0.000723554 -0.000219752 -0.000215915 -7.45831e-05
0.00109019 -0.000329468 -0.000326022 -6.63129e-05
0.000729538 -0.000221592 -0.000217691 -7.45848e-05
0.000726546 -0.000220672 -0.000216803 -7.4584e-05
0.000361515 -0.000111314 -0.000107229 -7.95362e-05
0.000358551 -0.000110377 -0.00010636 -7.95345e-05
0.00107668 -0.000325355 -0.000321995 -6.63104e-05
0.00108568 -0.000328097 -0.00032468 -6.6312e-05
0.000360033 -0.000110846 -0.000106795 -7.95353e-05
0.000717568 -0.000217912 -0.000214139 -7.45814e-05
0.00108118 -0.000326726 -0.000323337 -6.63112e-05
0.000723554 -0.000219752 -0.000215915 -7.45831e-05
0.000720561 -0.000218832 -0.000215027 -7.45822e-05
0.000358551 -0.000110377 -0.00010636 -7.95345e-05
0.000355586 -0.000109441 -0.000105491 -7.95328e-05
0.00106767 -0.000322613 -0.000319309 -6.63087e-05
0.00107668 -0.000325355 -0.000321995 -6.63104e-05
0.000357069 -0.000109909 -0.000105926 -7.95337e-05
0.000711583 -0.000216072 -0.000212362 -7.45797e-05
0.00107217 -0.000323984 -0.000320652 -6.63096e-05
0.000717568 -0.000217912 -0.000214139 -7.45814e-05
0.000714576 -0.000216991 -0.00021325 -7.45805e-05
0.000355586 -0.000109441 -0.000105491 -7.95328e-05
0.000352621 -0.000108504 -0.000104622 -7.95311e-05
0.00105866 -0.000319872 -0.000316624 -6.63071e-05
0.00106767 -0.000322613 -0.000319309 -6.63087e-05
0.000354104 -0.000108973 -0.000105056 -7.9532e-05
0.000705597 -0.000214232 -0.000210585 -7.4578e-05
0.00106316 -0.000321242 -0.000317967 -6.63079e-05
0.000711583 -0.000216072 -0.000212362 -7.45797e-05
0.00070859 -0.000215152 -0.000211474 -7.45788e-05
0.000352621 -0.000108504 -0.000104622 -7.95311e-05
0.000349656 -0.000107568 -0.000103752 -7.95295e-05
0.00104965 -0.00031713 -0.000313938 -6.63054e-05
0.00105866 -0.000319872 -0.000316624 -6.63071e-05
0.000351139 -0.000108036 -0.000104187 -7.95303e-05
0.000699611 -0.000212392 -0.000208808 -7.45762e-05
0.00105416 -0.000318501 -0.000315281 -6.63062e-05
0.000705597 -0.000214232 -0.000210585 -7.4578e-05
0.000702604 -0.000213312 -0.000209697 -7.45771e-05
0.000349656 -0.000107568 -0.000103752 -7.95295e-05
0.00034669 -0.000106632 -0.000102882 -7.95278e-05
0.00104064 -0.000314389 -0.000311252 -6.63037e-05
0.00104965 -0.00031713 -0.000313938 -6.63054e-05
0.000348173 -0.0001071 -0.000103317 -7.95286e-05
0.000693625 -0.000210553 -0.000207031 -7.45745e-05
0.00104515 -0.00031576 -0.000312595 -6.63046e-05
0.000699611 -0.000212392 -0.000208808 -7.45762e-05
0.000696618 -0.000211473 -0.000207919 -7.45754e-05
0.00034669 -0.000106632 -0.000102882 -7.95278e-05
0.000343724 -0.000105697 -0.000102012 -7.95261e-05
0.00103163 -0.000311648 -0.000308566 -6.63021e-05
0.00104064 -0.000314389 -0.000311252 -6.63037e-05
0.000345207 -0.000106165 -0.000102447 -7.9527e-05
0.000687638 -0.000208714 -0.000205253 -7.45728e-05
0.00103614 -0.000313019 -0.000309909 -6.63029e-05
0.000693625 -0.000210553 -0.000207031 -7.45745e-05
0.000690631 -0.000209634 -0.000206142 -7.45737e-05
0.000343724 -0.000105697 -0.000102012 -7.95261e-05
0.000340757 -0.000104762 -0.000101141 -7.95245e-05
0.00102263 -0.000308908 -0.000305879 -6.63004e-05
0.00103163 -0.000311648 -0.000308566 -6.63021e-05
0.00034224 -0.000105229 -0.000101576 -7.95253e-05
0.000681651 -0.000206875 -0.000203475 -7.45711e-05
0.00102713 -0.000310278 -0.000307222 -6.63013e-05
0.000687638 -0.000208714 -0.000205253 -7.45728e-05
0.000684644 -0.000207795 -0.000204364 -7.45719e-05
0.000340757 -0.000104762 -0.000101141 -7.95245e-05
0.00033779 -0.000103827 -0.00010027 -7.95228e-05
0.00101362 -0.000306167 -0.000303192 -6.62988e-05
0.00102263 -0.000308908 -0.000305879 -6.63004e-05
0.000339274 -0.000104294 -0.000100706 -7.95236e-05
0.000675663 -0.000205037 -0.000201697 -7.45694e-05
0.00101812 -0.000307538 -0.000304536 -6.62996e-05
0.000681651 -0.000206875 -0.000203475 -7.45711e-05
0.000678657 -0.000205956 -0.000202586 -7.45702e-05
0.00033779 -0.000103827 -0.00010027 -7.95228e-05
0.000334823 -0.000102892 -9.93989e-05 -7.95211e-05
0.00100461 -0.000303427 -0.000300506 -6.62971e-05
0.00101362 -0.000306167 -0.000303192 -6.62988e-05
0.000336306 -0.000103359 -9.98345e-05 -7.95219e-05
0.000669675 -0.000203199 -0.000199918 -7.45676e-05
0.00100911 -0.000304797 -0.000301849 -6.62979e-05
0.000675663 -0.000205037 -0.000201697 -7.45694e-05
0.000672669 -0.000204118 -0.000200808 -7.45685e-05
0.000334823 -0.000102892 -9.93989e-05 -7.95211e-05
0.000331855 -0.000101957 -9.85274e-05 -7.95194e-05
0.000995597 -0.000300688 -0.000297818 -6.62954e-05
0.00100461 -0.000303427 -0.000300506 -6.62971e-05
0.000333339 -0.000102425 -9.89632e-05 -7.95203e-05
0.000663687 -0.000201361 -0.00019814 -7.45659e-05
0.0010001 -0.000302058 -0.000299162 -6.62963e-05
0.000669675 -0.000203199 -0.000199918 -7.45676e-05
0.000666681 -0.00020228 -0.000199029 -7.45668e-05
0.000331855 -0.000101957 -9.85274e-05 -7.95194e-05
0.000328887 -0.000101023 -9.76557e-05 -7.95178e-05
0.000986587 -0.000297948 -0.000295131 -6.62938e-05
0.000995597 -0.000300688 -0.000297818 -6.62954e-05
0.000330371 -0.00010149 -9.80916e-05 -7.95186e-05
0.000657699 -0.000199524 -0.000196361 -7.45642e-05
0.000991092 -0.000299318 -0.000296475 -6.62946e-05
0.000663687 -0.000201361 -0.00019814 -7.45659e-05
0.000660693 -0.000200442 -0.00019725 -7.45651e-05
0.000328887 -0.000101023 -9.76557e-05 -7.95178e-05
0.000325918 -0.000100089 -9.67837e-05 -7.95161e-05
0.000977577 -0.000295209 -0.000292444 -6.62921e-05
0.000986587 -0.000297948 -0.000295131 -6.62938e-05
0.000327402 -0.000100556 -9.72197e-05 -7.95169e-05
0.00065171 -0.000197686 -0.000194582 -7.45625e-05
0.000982082 -0.000296579 -0.000293787 -6.6293e-05
0.000657699 -0.000199524 -0.000196361 -7.45642e-05
0.000654705 -0.000198605 -0.000195471 -7.45634e-05
0.000325918 -0.000100089 -9.67837e-05 -7.95161e-05
0.000322949 -9.91559e-05 -9.59113e-05 -7.95144e-05
0.000968567 -0.00029247 -0.000289756 -6.62905e-05
0.000977577 -0.000295209 -0.000292444 -6.62921e-05
0.000324434 -9.96226e-05 -9.63475e-05 -7.95153e-05
0.000645721 -0.000195849 -0.000192802 -7.45608e-05
0.000973072 -0.000293839 -0.0002911 -6.62913e-05
0.00065171 -0.000197686 -0.000194582 -7.45625e-05
0.000648716 -0.000196768 -0.000193692 -7.45617e-05
0.000322949 -9.91559e-05 -9.59113e-05 -7.95144e-05
0.00031998 -9.82225e-05 -9.50387e-05 -7.95128e-05
0.000959556 -0.000289731 -0.000287068 -6.62888e-05
0.000968567 -0.00029247 -0.000289756 -6.62905e-05
0.000321464 -9.86892e-05 -9.54751e-05 -7.95136e-05
0.000639732 -0.000194013 -0.000191023 -7.45591e-05
0.000964061 -0.000291101 -0.000288412 -6.62897e-05
0.000645721 -0.000195849 -0.000192802 -7.45608e-05
0.000642727 -0.000194931 -0.000191912 -7.45599e-05
0.00031998 -9.82225e-05 -9.50387e-05 -7.95128e-05
0.00031701 -9.72895e-05 -9.41658e-05 -7.95111e-05
0.000950545 -0.000286993 -0.00028438 -6.62872e-05
0.000959556 -0.000289731 -0.000287068 -6.62888e-05
0.000318495 -9.7756e-05 -9.46023e-05 -7.95119e-05
0.000633742 -0.000192176 -0.000189243 -7.45574e-05
0.000955051 -0.000288362 -0.000285724 -6.6288e-05
0.000639732 -0.000194013 -0.000191023 -7.45591e-05
0.000636737 -0.000193095 -0.000190133 -7.45582e-05
0.00031701 -9.72895e-05 -9.41658e-05 -7.95111e-05
0.00031404 -9.63568e-05 -9.32926e-05 -7.95095e-05
0.000941534 -0.000284255 -0.000281691 -6.62855e-05
0.000950545 -0.000286993 -0.00028438 -6.62872e-05
0.000315525 -9.68231e-05 -9.37292e-05 -7.95103e-05
0.000627752 -0.00019034 -0.000187462 -7.45557e-05
0.00094604 -0.000285624 -0.000283035 -6.62864e-05
0.000633742 -0.000192176 -0.000189243 -7.45574e-05
0.000630747 -0.000191258 -0.000188352 -7.45565e-05
0.00031404 -9.63568e-05 -9.32926e-05 -7.95095e-05
0.000311069 -9.54243e-05 -9.24191e-05 -7.95078e-05
0.000932523 -0.000281517 -0.000279003 -6.62839e-05
0.000941534 -0.000284255 -0.000281691 -6.62855e-05
0.000312554 -9.58905e-05 -9.28559e-05 -7.95086e-05
0.000621762 -0.000188504 -0.000185682 -7.4554e-05
0.000937029 -0.000282886 -0.000280347 -6.62847e-05
0.000627752 -0.00019034 -0.000187462 -7.45557e-05
0.000624757 -0.000189422 -0.000186572 -7.45548e-05
0.000311069 -9.54243e-05 -9.24191e-05 -7.95078e-05
0.000308098 -9.44921e-05 -9.15453e-05 -7.95062e-05
0.000923511 -0.000278779 -0.000276314 -6.62822e-05
0.000932523 -0.000281517 -0.000279003 -6.62839e-05
0.000309583 -9.49581e-05 -9.19823e-05 -7.9507e-05
0.000615771 -0.000186669 -0.000183901 -7.45523e-05
0.000928017 -0.000280148 -0.000277658 -6.62831e-05
0.000621762 -0.000188504 -0.000185682 -7.4554e-05
0.000618767 -0.000187587 -0.000184792 -7.45531e-05
0.000308098 -9.44921e-05 -9.15453e-05 -7.95062e-05
0.000305126 -9.35602e-05 -9.06713e-05 -7.95045e-05
0.000914499 -0.000276042 -0.000273625 -6.62806e-05
0.000923511 -0.000278779 -0.000276314 -6.62822e-05
0.000306612 -9.40261e-05 -9.11083e-05 -7.95053e-05
0.00060978 -0.000184833 -0.00018212 -7.45506e-05
0.000919005 -0.00027741 -0.000274969 -6.62814e-05
0.000615771 -0.000186669 -0.000183901 -7.45523e-05
0.000612776 -0.000185751 -0.000183011 -7.45514e-05
0.000305126 -9.35602e-05 -9.06713e-05 -7.95045e-05
0.000302155 -9.26285e-05 -8.97969e-05 -7.95029e-05
0.000905487 -0.000273304 -0.000270936 -6.6279e-05
0.000914499 -0.000276042 -0.000273625 -6.62806e-05
0.000303641 -9.30943e-05 -9.02341e-05 -7.95037e-05
0.000603789 -0.000182998 -0.000180339 -7.45489e-05
0.000909993 -0.000274673 -0.00027228 -6.62798e-05
0.00060978 -0.000184833 -0.00018212 -7.45506e-05
0.000606785 -0.000183916 -0.00018123 -7.45497e-05
0.000302155 -9.26285e-05 -8.97969e-05 -7.95029e-05
0.000299182 -9.16972e-05 -8.89223e-05 -7.95012e-05
0.000896475 -0.000270568 -0.000268246 -6.62773e-05
0.000905487 -0.000273304 -0.000270936 -6.6279e-05
0.000300669 -9.21628e-05 -8.93596e-05 -7.95021e-05
0.000597797 -0.000181164 -0.000178557 -7.45472e-05
0.000900981 -0.000271936 -0.000269591 -6.62782e-05
0.000603789 -0.000182998 -0.000180339 -7.45489e-05
0.000600793 -0.000182081 -0.000179448 -7.45481e-05
0.000299182 -9.16972e-05 -8.89223e-05 -7.95012e-05
0.00029621 -9.07661e-05 -8.80473e-05 -7.94996e-05
0.000887463 -0.000267831 -0.000265556 -6.62757e-05
0.000896475 -0.000270568 -0.000268246 -6.62773e-05
0.000297696 -9.12316e-05 -8.84848e-05 -7.95004e-05
0.000591806 -0.000179329 -0.000176776 -7.45455e-05
0.000891969 -0.000269199 -0.000266901 -6.62765e-05
0.000597797 -0.000181164 -0.000178557 -7.45472e-05
0.000594802 -0.000180246 -0.000177667 -7.45464e-05
0.00029621 -9.07661e-05 -8.80473e-05 -7.94996e-05
0.000293237 -8.98353e-05 -8.71721e-05 -7.9498e-05
0.00087845 -0.000265095 -0.000262867 -6.62741e-05
0.000887463 -0.000267831 -0.000265556 -6.62757e-05
0.000294723 -9.03007e-05 -8.76097e-05 -7.94988e-05
0.000585813 -0.000177495 -0.000174994 -7.45439e-05
0.000882956 -0.000266463 -0.000264212 -6.62749e-05
0.000591806 -0.000179329 -0.000176776 -7.45455e-05
0.000588809 -0.000178412 -0.000175885 -7.45447e-05
0.000293237 -8.98353e-05 -8.71721e-05 -7.9498e-05
0.000290263 -8.89048e-05 -8.62966e-05 -7.94964e-05
0.000869437 -0.000262359 -0.000260176 -6.62725e-05
0.00087845 -0.000265095 -0.000262867 -6.62741e-05
0.00029175 -8.937e-05 -8.67344e-05 -7.94972e-05
0.000579821 -0.000175661 -0.000173211 -7.45422e-05
0.000873943 -0.000263727 -0.000261522 -6.62733e-05
0.000585813 -0.000177495 -0.000174994 -7.45439e-05
0.000582817 -0.000176578 -0.000174102 -7.4543e-05
0.000290263 -8.89048e-05 -8.62966e-05 -7.94964e-05
0.00028729 -8.79745e-05 -8.54207e-05 -7.94947e-05
0.000860424 -0.000259623 -0.000257486 -6.62709e-05
0.000869437 -0.000262359 -0.000260176 -6.62725e-05
0.000288777 -8.84396e-05 -8.58587e-05 -7.94956e-05
0.000573828 -0.000173827 -0.000171429 -7.45405e-05
0.00086493 -0.000260991 -0.000258831 -6.62717e-05
0.000579821 -0.000175661 -0.000173211 -7.45422e-05
0.000576824 -0.000174744 -0.00017232 -7.45414e-05
0.00028729 -8.79745e-05 -8.54207e-05 -7.94947e-05
0.000284315 -8.70446e-05 -8.45446e-05 -7.94931e-05
0.00085141 -0.000256887 -0.000254796 -6.62693e-05
0.000860424 -0.000259623 -0.000257486 -6.62709e-05
0.000285803 -8.75095e-05 -8.49827e-05 -7.94939e-05
0.000567835 -0.000171994 -0.000169646 -7.45389e-05
0.000855917 -0.000258255 -0.000256141 -6.62701e-05
0.000573828 -0.000173827 -0.000171429 -7.45405e-05
0.000570831 -0.000172911 -0.000170537 -7.45397e-05
0.000284315 -8.70446e-05 -8.45446e-05 -7.94931e-05
0.000281341 -8.61149e-05 -8.36682e-05 -7.94915e-05
0.000842397 -0.000254152 -0.000252105 -6.62677e-05
0.00085141 -0.000256887 -0.000254796 -6.62693e-05
0.000282828 -8.65797e-05 -8.41065e-05 -7.94923e-05
0.000561841 -0.000170161 -0.000167863 -7.45372e-05
0.000846903 -0.000255519 -0.00025345 -6.62685e-05
0.000567835 -0.000171994 -0.000169646 -7.45389e-05
0.000564838 -0.000171077 -0.000168754 -7.4538e-05
0.000281341 -8.61149e-05 -8.36682e-05 -7.94915e-05
0.000278366 -8.51855e-05 -8.27916e-05 -7.94899e-05
0.000833383 -0.000251417 -0.000249414 -6.62661e-05
0.000842397 -0.000254152 -0.000252105 -6.62677e-05
0.000279853 -8.56501e-05 -8.32299e-05 -7.94907e-05
0.000555847 -0.000168328 -0.00016608 -7.45356e-05
0.00083789 -0.000252784 -0.000250759 -6.62669e-05
0.000561841 -0.000170161 -0.000167863 -7.45372e-05
0.000558844 -0.000169245 -0.000166971 -7.45364e-05
0.000278366 -8.51855e-05 -8.27916e-05 -7.94899e-05
0.00027539 -8.42564e-05 -8.19146e-05 -7.94884e-05
0.000824368 -0.000248682 -0.000246723 -6.62645e-05
0.000833383 -0.000251417 -0.000249414 -6.62661e-05
0.000276878 -8.47209e-05 -8.23531e-05 -7.94891e-05
0.000549853 -0.000166496 -0.000164296 -7.45339e-05
0.000828876 -0.000250049 -0.000248068 -6.62653e-05
0.000555847 -0.000168328 -0.00016608 -7.45356e-05
0.00055285 -0.000167412 -0.000165188 -7.45348e-05
0.00027539 -8.42564e-05 -8.19146e-05 -7.94884e-05
0.000272415 -8.33275e-05 -8.10373e-05 -7.94868e-05
0.000815354 -0.000245948 -0.000244031 -6.62629e-05
0.000824368 -0.000248682 -0.000246723 -6.62645e-05
0.000273903 -8.37919e-05 -8.1476e-05 -7.94876e-05
0.000543858 -0.000164663 -0.000162512 -7.45323e-05
0.000819861 -0.000247315 -0.000245377 -6.62637e-05
0.000549853 -0.000166496 -0.000164296 -7.45339e-05
0.000546856 -0.000165579 -0.000163404 -7.45331e-05
0.000272415 -8.33275e-05 -8.10373e-05 -7.94868e-05
0.000269438 -8.23989e-05 -8.01597e-05 -7.94852e-05
0.000806339 -0.000243213 -0.00024134 -6.62613e-05
0.000815354 -0.000245948 -0.000244031 -6.62629e-05
0.000270926 -8.28632e-05 -8.05986e-05 -7.9486e-05
0.000537864 -0.000162831 -0.000160728 -7.45307e-05
0.000810847 -0.00024458 -0.000242686 -6.62621e-05
0.000543858 -0.000164663 -0.000162512 -7.45323e-05
0.000540861 -0.000163747 -0.00016162 -7.45315e-05
0.000269438 -8.23989e-05 -8.01597e-05 -7.94852e-05
0.000266462 -8.14707e-05 -7.92819e-05 -7.94836e-05
0.000797325 -0.000240479 -0.000238648 -6.62597e-05
0.000806339 -0.000243213 -0.00024134 -6.62613e-05
0.00026795 -8.19348e-05 -7.97208e-05 -7.94844e-05
0.000531868 -0.000161 -0.000158944 -7.45291e-05
0.000801832 -0.000241846 -0.000239994 -6.62605e-05
0.000537864 -0.000162831 -0.000160728 -7.45307e-05
0.000534866 -0.000161915 -0.000159836 -7.45299e-05
0.000266462 -8.14707e-05 -7.92819e-05 -7.94836e-05
0.000263485 -8.05426e-05 -7.84037e-05 -7.94821e-05
0.000788309 -0.000237746 -0.000235956 -6.62582e-05
0.000797325 -0.000240479 -0.000238648 -6.62597e-05
0.000264973 -8.10066e-05 -7.88428e-05 -7.94829e-05
0.000525873 -0.000159168 -0.000157159 -7.45275e-05
0.000792817 -0.000239112 -0.000237302 -6.6259e-05
0.000531868 -0.000161 -0.000158944 -7.45291e-05
0.000528871 -0.000160084 -0.000158051 -7.45283e-05
0.000263485 -8.05426e-05 -7.84037e-05 -7.94821e-05
0.000260507 -7.96149e-05 -7.75253e-05 -7.94805e-05
0.000779294 -0.000235012 -0.000233264 -6.62566e-05
0.000788309 -0.000237746 -0.000235956 -6.62582e-05
0.000261996 -8.00787e-05 -7.79646e-05 -7.94813e-05
0.000519877 -0.000157337 -0.000155374 -7.45259e-05
0.000783802 -0.000236379 -0.00023461 -6.62574e-05
0.000525873 -0.000159168 -0.000157159 -7.45275e-05
0.000522875 -0.000158253 -0.000156267 -7.45267e-05
0.000260507 -7.96149e-05 -7.75253e-05 -7.94805e-05
0.000257529 -7.86875e-05 -7.66466e-05 -7.9479e-05
0.000770278 -0.000232279 -0.000230571 -6.62551e-05
0.000779294 -0.000235012 -0.000233264 -6.62566e-05
0.000259018 -7.91511e-05 -7.7086e-05 -7.94798e-05
0.000513881 -0.000155506 -0.000153589 -7.45243e-05
0.000774786 -0.000233645 -0.000231917 -6.62558e-05
0.000519877 -0.000157337 -0.000155374 -7.45259e-05
0.000516879 -0.000156422 -0.000154482 -7.45251e-05
0.000257529 -7.86875e-05 -7.66466e-05 -7.9479e-05
0.000254551 -7.77603e-05 -7.57675e-05 -7.94775e-05
0.000761262 -0.000229546 -0.000227879 -6.62535e-05
0.000770278 -0.000232279 -0.000230571 -6.62551e-05
0.00025604 -7.82238e-05 -7.62071e-05 -7.94782e-05
0.000507884 -0.000153676 -0.000151804 -7.45227e-05
0.00076577 -0.000230912 -0.000229225 -6.62543e-05
0.000513881 -0.000155506 -0.000153589 -7.45243e-05
0.000510883 -0.000154591 -0.000152696 -7.45235e-05
0.000254551 -7.77603e-05 -7.57675e-05 -7.94775e-05
0.000251573 -7.68334e-05 -7.48882e-05 -7.94759e-05
0.000752246 -0.000226813 -0.000225186 -6.6252e-05
0.000761262 -0.000229546 -0.000227879 -6.62535e-05
0.000253062 -7.72968e-05 -7.53279e-05 -7.94767e-05
0.000501887 -0.000151845 -0.000150018 -7.45211e-05
0.000756754 -0.000228179 -0.000226532 -6.62528e-05
0.000507884 -0.000153676 -0.000151804 -7.45227e-05
0.000504886 -0.00015276 -0.000150911 -7.45219e-05
0.000251573 -7.68334e-05 -7.48882e-05 -7.94759e-05
0.000248594 -7.59068e-05 -7.40086e-05 -7.94744e-05
0.00074323 -0.000224081 -0.000222493 -6.62505e-05
0.000752246 -0.000226813 -0.000225186 -6.6252e-05
0.000250083 -7.637e-05 -7.44485e-05 -7.94752e-05
0.00049589 -0.000150015 -0.000148232 -7.45195e-05
0.000747738 -0.000225447 -0.000223839 -6.62512e-05
0.000501887 -0.000151845 -0.000150018 -7.45211e-05
0.000498889 -0.00015093 -0.000149125 -7.45203e-05
0.000248594 -7.59068e-05 -7.40086e-05 -7.94744e-05
0.000245614 -7.49804e-05 -7.31287e-05 -7.94729e-05
0.000734213 -0.000221349 -0.000219799 -6.6249e-05
0.00074323 -0.000224081 -0.000222493 -6.62505e-05
0.000247104 -7.54436e-05 -7.35687e-05 -7.94737e-05
0.000489893 -0.000148185 -0.000146446 -7.4518e-05
0.000738722 -0.000222715 -0.000221146 -6.62497e-05
0.00049589 -0.000150015 -0.000148232 -7.45195e-05
0.000492892 -0.0001491 -0.000147339 -7.45187e-05
0.000245614 -7.49804e-05 -7.31287e-05 -7.94729e-05
0.000242634 -7.40544e-05 -7.22485e-05 -7.94714e-05
0.000725196 -0.000218617 -0.000217106 -6.62474e-05
0.000734213 -0.000221349 -0.000219799 -6.6249e-05
0.000244124 -7.45173e-05 -7.26887e-05 -7.94722e-05
0.000483895 -0.000146356 -0.00014466 -7.45164e-05
0.000729705 -0.000219983 -0.000218452 -6.62482e-05
0.000489893 -0.000148185 -0.000146446 -7.4518e-05
0.000486894 -0.000147271 -0.000145553 -7.45172e-05
0.000242634 -7.40544e-05 -7.22485e-05 -7.94714e-05
0.000239654 -7.31286e-05 -7.13681e-05 -7.94699e-05
0.000716179 -0.000215885 -0.000214412 -6.62459e-05
0.000725196 -0.000218617 -0.000217106 -6.62474e-05
0.000241144 -7.35914e-05 -7.18083e-05 -7.94707e-05
0.000477897 -0.000144527 -0.000142873 -7.45149e-05
0.000720688 -0.000217251 -0.000215759 -6.62467e-05
0.000483895 -0.000146356 -0.00014466 -7.45164e-05
0.000480896 -0.000145441 -0.000143766 -7.45156e-05
0.000239654 -7.31286e-05 -7.13681e-05 -7.94699e-05
0.000236673 -7.22031e-05 -7.04873e-05 -7.94685e-05
0.000707162 -0.000213154 -0.000211718 -6.62444e-05
0.000716179 -0.000215885 -0.000214412 -6.62459e-05
0.000238164 -7.26658e-05 -7.09277e-05 -7.94692e-05
0.000471898 -0.000142698 -0.000141086 -7.45133e-05
0.000711671 -0.000214519 -0.000213065 -6.62452e-05
0.000477897 -0.000144527 -0.000142873 -7.45149e-05
0.000474897 -0.000143612 -0.000141979 -7.45141e-05
0.000236673 -7.22031e-05 -7.04873e-05 -7.94685e-05
0.000233692 -7.12778e-05 -6.96062e-05 -7.9467e-05
0.000698144 -0.000210422 -0.000209024 -6.6243e-05
0.000707162 -0.000213154 -0.000211718 -6.62444e-05
0.000235183 -7.17404e-05 -7.00468e-05 -7.94677e-05
0.000465899 -0.000140869 -0.000139299 -7.45118e-05
0.000702653 -0.000211788 -0.000210371 -6.62437e-05
0.000471898 -0.000142698 -0.000141086 -7.45133e-05
0.000468899 -0.000141783 -0.000140192 -7.45126e-05
0.000233692 -7.12778e-05 -6.96062e-05 -7.9467e-05
0.000230711 -7.03529e-05 -6.87248e-05 -7.94655e-05
0.000689126 -0.000207691 -0.000206329 -6.62415e-05
0.000698144 -0.000210422 -0.000209024 -6.6243e-05
0.000232202 -7.08153e-05 -6.91656e-05 -7.94663e-05
0.0004599 -0.000139041 -0.000137511 -7.45103e-05
0.000693635 -0.000209057 -0.000207676 -6.62422e-05
0.000465899 -0.000140869 -0.000139299 -7.45118e-05
0.0004629 -0.000139955 -0.000138405 -7.45111e-05
0.000230711 -7.03529e-05 -6.87248e-05 -7.94655e-05
0.000227729 -6.94282e-05 -6.78432e-05 -7.94641e-05
0.000680108 -0.000204961 -0.000203635 -6.624e-05
0.000689126 -0.000207691 -0.000206329 -6.62415e-05
0.00022922 -6.98905e-05 -6.82841e-05 -7.94648e-05
0.000453901 -0.000137212 -0.000135723 -7.45088e-05
0.000684617 -0.000206326 -0.000204982 -6.62407e-05
0.0004599 -0.000139041 -0.000137511 -7.45103e-05
0.0004569 -0.000138126 -0.000136617 -7.45096e-05
0.000227729 -6.94282e-05 -6.78432e-05 -7.94641e-05
0.000224747 -6.85038e-05 -6.69612e-05 -7.94627e-05
0.00067109 -0.00020223 -0.00020094 -6.62386e-05
0.000680108 -0.000204961 -0.000203635 -6.624e-05
0.000226238 -6.89659e-05 -6.74023e-05 -7.94634e-05
0.000447901 -0.000135385 -0.000133935 -7.45073e-05
0.000675599 -0.000203596 -0.000202287 -6.62393e-05
0.000453901 -0.000137212 -0.000135723 -7.45088e-05
0.000450901 -0.000136298 -0.00013483 -7.45081e-05
0.000224747 -6.85038e-05 -6.69612e-05 -7.94627e-05
0.000221764 -6.75797e-05 -6.6079e-05 -7.94613e-05
0.000662071 -0.0001995 -0.000198245 -6.62371e-05
0.00067109 -0.00020223 -0.00020094 -6.62386e-05
0.000223255 -6.80417e-05 -6.65202e-05 -7.9462e-05
0.0004419 -0.000133557 -0.000132147 -7.45058e-05
0.000666581 -0.000200865 -0.000199592 -6.62378e-05
0.000447901 -0.000135385 -0.000133935 -7.45073e-05
0.000444901 -0.000134471 -0.000133041 -7.45066e-05
0.000221764 -6.75797e-05 -6.6079e-05 -7.94613e-05
0.000218781 -6.66558e-05 -6.51965e-05 -7.94599e-05
0.000653052 -0.00019677 -0.000195549 -6.62357e-05
0.000662071 -0.0001995 -0.000198245 -6.62371e-05
0.000220273 -6.71177e-05 -6.56378e-05 -7.94606e-05
0.0004359 -0.00013173 -0.000130359 -7.45044e-05
0.000657562 -0.000198135 -0.000196897 -6.62364e-05
0.0004419 -0.000133557 -0.000132147 -7.45058e-05
0.0004389 -0.000132643 -0.000131253 -7.45051e-05
0.000218781 -6.66558e-05 -6.51965e-05 -7.94599e-05
0.000215797 -6.57322e-05 -6.43136e-05 -7.94585e-05
0.000644033 -0.000194041 -0.000192854 -6.62342e-05
0.000653052 -0.00019677 -0.000195549 -6.62357e-05
0.000217289 -6.6194e-05 -6.47551e-05 -7.94592e-05
0.000429899 -0.000129903 -0.00012857 -7.45029e-05
0.000648543 -0.000195406 -0.000194202 -6.6235e-05
0.0004359 -0.00013173 -0.000130359 -7.45044e-05
0.0004329 -0.000130816 -0.000129464 -7.45036e-05
0.000215797 -6.57322e-05 -6.43136e-05 -7.94585e-05
0.000212814 -6.48089e-05 -6.34305e-05 -7.94571e-05
0.000635014 -0.000191311 -0.000190158 -6.62328e-05
0.000644033 -0.000194041 -0.000192854 -6.62342e-05
0.000214306 -6.52706e-05 -6.38721e-05 -7.94578e-05
0.000423898 -0.000128076 -0.000126781 -7.45015e-05
0.000639523 -0.000192676 -0.000191506 -6.62335e-05
0.000429899 -0.000129903 -0.00012857 -7.45029e-05
0.000426898 -0.000128989 -0.000127675 -7.45022e-05
0.000212814 -6.48089e-05 -6.34305e-05 -7.94571e-05
0.000209829 -6.38859e-05 -6.25471e-05 -7.94557e-05
0.000625994 -0.000188582 -0.000187462 -6.62314e-05
0.000635014 -0.000191311 -0.000190158 -6.62328e-05
0.000211321 -6.43474e-05 -6.29889e-05 -7.94564e-05
0.000417896 -0.000126249 -0.000124992 -7.45e-05
0.000630504 -0.000189947 -0.00018881 -6.62321e-05
0.000423898 -0.000128076 -0.000126781 -7.45015e-05
0.000420897 -0.000127163 -0.000125886 -7.45008e-05
0.000209829 -6.38859e-05 -6.25471e-05 -7.94557e-05
0.000206844 -6.29632e-05 -6.16634e-05 -7.94544e-05
0.000616974 -0.000185853 -0.000184766 -6.623e-05
0.000625994 -0.000188582 -0.000187462 -6.62314e-05
0.000208337 -6.34245e-05 -6.21053e-05 -7.9455e-05
0.000411894 -0.000124423 -0.000123202 -7.44986e-05
0.000621484 -0.000187218 -0.000186114 -6.62307e-05
0.000417896 -0.000126249 -0.000124992 -7.45e-05
0.000414895 -0.000125336 -0.000124097 -7.44993e-05
0.000206844 -6.29632e-05 -6.16634e-05 -7.94544e-05
0.000203859 -6.20407e-05 -6.07794e-05 -7.9453e-05
0.000607954 -0.000183125 -0.000182069 -6.62286e-05
0.000616974 -0.000185853 -0.000184766 -6.623e-05
0.000205352 -6.25019e-05 -6.12214e-05 -7.94537e-05
0.000405892 -0.000122597 -0.000121412 -7.44972e-05
0.000612464 -0.000184489 -0.000183418 -6.62293e-05
0.000411894 -0.000124423 -0.000123202 -7.44986e-05
0.000408893 -0.00012351 -0.000122307 -7.44979e-05
0.000203859 -6.20407e-05 -6.07794e-05 -7.9453e-05
0.000200874 -6.11185e-05 -5.98951e-05 -7.94517e-05
0.000598933 -0.000180397 -0.000179373 -6.62273e-05
0.000607954 -0.000183125 -0.000182069 -6.62286e-05
0.000202367 -6.15796e-05 -6.03373e-05 -7.94523e-05
0.000399889 -0.000120771 -0.000119622 -7.44958e-05
0.000603443 -0.000181761 -0.000180721 -6.6228e-05
0.000405892 -0.000122597 -0.000121412 -7.44972e-05
0.000402891 -0.000121684 -0.000120517 -7.44965e-05
0.000200874 -6.11185e-05 -5.98951e-05 -7.94517e-05
0.000197888 -6.01966e-05 -5.90105e-05 -7.94504e-05
0.000589912 -0.000177668 -0.000176676 -6.62259e-05
0.000598933 -0.000180397 -0.000179373 -6.62273e-05
0.000199381 -6.06575e-05 -5.94529e-05 -7.9451e-05
0.000393886 -0.000118946 -0.000117832 -7.44944e-05
0.000594423 -0.000179032 -0.000178024 -6.62266e-05
0.000399889 -0.000120771 -0.000119622 -7.44958e-05
0.000396888 -0.000119859 -0.000118727 -7.44951e-05
0.000197888 -6.01966e-05 -5.90105e-05 -7.94504e-05
0.000194901 -5.9275e-05 -5.81256e-05 -7.94491e-05
0.000580891 -0.000174941 -0.000173979 -6.62245e-05
0.000589912 -0.000177668 -0.000176676 -6.62259e-05
0.000196395 -5.97357e-05 -5.85681e-05 -7.94497e-05
0.000387883 -0.000117121 -0.000116041 -7.44931e-05
0.000585402 -0.000176304 -0.000175327 -6.62252e-05
0.000393886 -0.000118946 -0.000117832 -7.44944e-05
0.000390885 -0.000118033 -0.000116936 -7.44937e-05
0.000194901 -5.9275e-05 -5.81256e-05 -7.94491e-05
0.000191915 -5.83536e-05 -5.72405e-05 -7.94478e-05
0.00057187 -0.000172213 -0.000171282 -6.62232e-05
0.000580891 -0.000174941 -0.000173979 -6.62245e-05
0.000193408 -5.88142e-05 -5.76831e-05 -7.94484e-05
0.00038188 -0.000115296 -0.00011425 -7.44917e-05
0.000576381 -0.000173577 -0.00017263 -6.62239e-05
0.000387883 -0.000117121 -0.000116041 -7.44931e-05
0.000384881 -0.000116208 -0.000115146 -7.44924e-05
0.000191915 -5.83536e-05 -5.72405e-05 -7.94478e-05
0.000188927 -5.74325e-05 -5.6355e-05 -7.94465e-05
0.000562848 -0.000169486 -0.000168584 -6.62219e-05
0.00057187 -0.000172213 -0.000171282 -6.62232e-05
0.000190421 -5.7893e-05 -5.67978e-05 -7.94471e-05
0.000375875 -0.000113471 -0.000112459 -7.44904e-05
0.000567359 -0.000170849 -0.000169933 -6.62225e-05
0.00038188 -0.000115296 -0.00011425 -7.44917e-05
0.000378878 -0.000114384 -0.000113355 -7.4491e-05
0.000188927 -5.74325e-05 -5.6355e-05 -7.94465e-05
0.00018594 -5.65117e-05 -5.54692e-05 -7.94452e-05
0.000553826 -0.000166758 -0.000165886 -6.62206e-05
0.000562848 -0.000169486 -0.000168584 -6.62219e-05
0.000187434 -5.69721e-05 -5.59121e-05 -7.94459e-05
0.000369871 -0.000111647 -0.000110668 -7.4489e-05
0.000558337 -0.000168122 -0.000167235 -6.62212e-05
0.000375875 -0.000113471 -0.000112459 -7.44904e-05
0.000372873 -0.000112559 -0.000111563 -7.44897e-05
0.00018594 -5.65117e-05 -5.54692e-05 -7.94452e-05
0.000182952 -5.55911e-05 -5.45832e-05 -7.9444e-05
0.000544804 -0.000164032 -0.000163188 -6.62193e-05
0.000553826 -0.000166758 -0.000165886 -6.62206e-05
0.000184446 -5.60514e-05 -5.50262e-05 -7.94446e-05
0.000363866 -0.000109823 -0.000108876 -7.44877e-05
0.000549315 -0.000165395 -0.000164537 -6.62199e-05
0.000369871 -0.000111647 -0.000110668 -7.4489e-05
0.000366869 -0.000110735 -0.000109772 -7.44884e-05
0.000182952 -5.55911e-05 -5.45832e-05 -7.9444e-05
0.000179963 -5.46709e-05 -5.36968e-05 -7.94427e-05
0.000535782 -0.000161305 -0.00016049 -6.6218e-05
0.000544804 -0.000164032 -0.000163188 -6.62193e-05
0.000181458 -5.5131e-05 -5.414e-05 -7.94434e-05
0.000357861 -0.000107999 -0.000107084 -7.44864e-05
0.000540293 -0.000162668 -0.000161839 -6.62186e-05
0.000363866 -0.000109823 -0.000108876 -7.44877e-05
0.000360864 -0.000108911 -0.00010798 -7.4487e-05
0.000179963 -5.46709e-05 -5.36968e-05 -7.94427e-05
0.000176975 -5.37509e-05 -5.28101e-05 -7.94415e-05
0.000526759 -0.000158579 -0.000157792 -6.62167e-05
0.000535782 -0.000161305 -0.00016049 -6.6218e-05
0.000178469 -5.42109e-05 -5.32535e-05 -7.94421e-05
0.000351856 -0.000106175 -0.000105292 -7.44851e-05
0.00053127 -0.000159942 -0.000159141 -6.62173e-05
0.000357861 -0.000107999 -0.000107084 -7.44864e-05
0.000354859 -0.000107087 -0.000106188 -7.44857e-05
0.000176975 -5.37509e-05 -5.28101e-05 -7.94415e-05
0.000173985 -5.28312e-05 -5.19232e-05 -7.94403e-05
0.000517736 -0.000155853 -0.000155093 -6.62154e-05
0.000526759 -0.000158579 -0.000157792 -6.62167e-05
0.00017548 -5.3291e-05 -5.23667e-05 -7.94409e-05
0.00034585 -0.000104352 -0.000103499 -7.44838e-05
0.000522248 -0.000157216 -0.000156442 -6.6216e-05
0.000351856 -0.000106175 -0.000105292 -7.44851e-05
0.000348853 -0.000105264 -0.000104395 -7.44845e-05
0.000173985 -5.28312e-05 -5.19232e-05 -7.94403e-05
0.000170996 -5.19117e-05 -5.1036e-05 -7.94391e-05
0.000508713 -0.000153127 -0.000152394 -6.62141e-05
0.000517736 -0.000155853 -0.000155093 -6.62154e-05
0.000172491 -5.23714e-05 -5.14796e-05 -7.94397e-05
0.000339844 -0.000102529 -0.000101706 -7.44826e-05
0.000513224 -0.00015449 -0.000153743 -6.62148e-05
0.00034585 -0.000104352 -0.000103499 -7.44838e-05
0.000342847 -0.000103441 -0.000102603 -7.44832e-05
0.000170996 -5.19117e-05 -5.1036e-05 -7.94391e-05
0.000168006 -5.09926e-05 -5.01484e-05 -7.9438e-05
0.000499689 -0.000150401 -0.000149695 -6.62129e-05
0.000508713 -0.000153127 -0.000152394 -6.62141e-05
0.000169501 -5.14521e-05 -5.05922e-05 -7.94385e-05
0.000333838 -0.000100706 -9.99133e-05 -7.44813e-05
0.000504201 -0.000151764 -0.000151044 -6.62135e-05
0.000339844 -0.000102529 -0.000101706 -7.44826e-05
0.000336841 -0.000101618 -0.00010081 -7.44819e-05
0.000168006 -5.09926e-05 -5.01484e-05 -7.9438e-05
0.000165015 -5.00737e-05 -4.92606e-05 -7.94368e-05
0.000490665 -0.000147676 -0.000146995 -6.62117e-05
0.000499689 -0.000150401 -0.000149695 -6.62129e-05
0.00016651 -5.05331e-05 -4.97045e-05 -7.94374e-05
0.000327831 -9.8884e-05 -9.812e-05 -7.44801e-05
0.000495177 -0.000149038 -0.000148345 -6.62123e-05
0.000333838 -0.000100706 -9.99133e-05 -7.44813e-05
0.000330834 -9.97952e-05 -9.90167e-05 -7.44807e-05
0.000165015 -5.00737e-05 -4.92606e-05 -7.94368e-05
0.000162024 -4.9155e-05 -4.83725e-05 -7.94357e-05
0.000481641 -0.000144951 -0.000144296 -6.62105e-05
0.000490665 -0.000147676 -0.000146995 -6.62117e-05
0.00016352 -4.96143e-05 -4.88166e-05 -7.94362e-05
0.000321823 -9.70617e-05 -9.63265e-05 -7.44788e-05
0.000486153 -0.000146313 -0.000145646 -6.62111e-05
0.000327831 -9.8884e-05 -9.812e-05 -7.44801e-05
0.000324827 -9.79728e-05 -9.72233e-05 -7.44795e-05
0.000162024 -4.9155e-05 -4.83725e-05 -7.94357e-05
0.000159033 -4.82367e-05 -4.7484e-05 -7.94345e-05
0.000472617 -0.000142226 -0.000141596 -6.62092e-05
0.000481641 -0.000144951 -0.000144296 -6.62105e-05
0.000160528 -4.86958e-05 -4.79283e-05 -7.94351e-05
0.000315816 -9.52398e-05 -9.45326e-05 -7.44776e-05
0.000477129 -0.000143588 -0.000142946 -6.62098e-05
0.000321823 -9.70617e-05 -9.63265e-05 -7.44788e-05
0.00031882 -9.61507e-05 -9.54296e-05 -7.44782e-05
0.000159033 -4.82367e-05 -4.7484e-05 -7.94345e-05
0.000156041 -4.73186e-05 -4.65953e-05 -7.94334e-05
0.000463592 -0.000139501 -0.000138896 -6.62081e-05
0.000472617 -0.000142226 -0.000141596 -6.62092e-05
0.000157537 -4.77776e-05 -4.70397e-05 -7.9434e-05
0.000309808 -9.34181e-05 -9.27385e-05 -7.44764e-05
0.000468104 -0.000140863 -0.000140246 -6.62086e-05
0.000315816 -9.52398e-05 -9.45326e-05 -7.44776e-05
0.000312812 -9.43289e-05 -9.36356e-05 -7.4477e-05
0.000156041 -4.73186e-05 -4.65953e-05 -7.94334e-05
0.000153049 -4.64008e-05 -4.57063e-05 -7.94323e-05
0.000454567 -0.000136777 -0.000136196 -6.62069e-05
0.000463592 -0.000139501 -0.000138896 -6.62081e-05
0.000154545 -4.68597e-05 -4.61508e-05 -7.94329e-05
0.0003038 -9.15967e-05 -9.09441e-05 -7.44753e-05
0.000459079 -0.000138139 -0.000137546 -6.62075e-05
0.000309808 -9.34181e-05 -9.27385e-05 -7.44764e-05
0.000306804 -9.25074e-05 -9.18414e-05 -7.44759e-05
0.000153049 -4.64008e-05 -4.57063e-05 -7.94323e-05
0.000150056 -4.54833e-05 -4.4817e-05 -7.94312e-05
0.000445541 -0.000134053 -0.000133495 -6.62057e-05
0.000454567 -0.000136777 -0.000136196 -6.62069e-05
0.000151553 -4.5942e-05 -4.52617e-05 -7.94318e-05
0.000297791 -8.97755e-05 -8.91495e-05 -7.44741e-05
0.000450054 -0.000135415 -0.000134846 -6.62063e-05
0.0003038 -9.15967e-05 -9.09441e-05 -7.44753e-05
0.000300795 -9.06861e-05 -9.00468e-05 -7.44747e-05
0.000150056 -4.54833e-05 -4.4817e-05 -7.94312e-05
0.000147063 -4.4566e-05 -4.39273e-05 -7.94302e-05
0.000436516 -0.000131329 -0.000130794 -6.62046e-05
0.000445541 -0.000134053 -0.000133495 -6.62057e-05
0.00014856 -4.50246e-05 -4.43722e-05 -7.94307e-05
0.000291782 -8.79546e-05 -8.73546e-05 -7.4473e-05
0.000441029 -0.000132691 -0.000132145 -6.62051e-05
0.000297791 -8.97755e-05 -8.91495e-05 -7.44741e-05
0.000294787 -8.88651e-05 -8.82521e-05 -7.44735e-05
0.000147063 -4.4566e-05 -4.39273e-05 -7.94302e-05
0.00014407 -4.3649e-05 -4.30374e-05 -7.94291e-05
0.00042749 -0.000128605 -0.000128093 -6.62034e-05
0.000436516 -0.000131329 -0.000130794 -6.62046e-05
0.000145566 -4.41075e-05 -4.34824e-05 -7.94296e-05
0.000285773 -8.6134e-05 -8.55594e-05 -7.44718e-05
0.000432003 -0.000129967 -0.000129444 -6.6204e-05
0.000291782 -8.79546e-05 -8.73546e-05 -7.4473e-05
0.000288777 -8.70443e-05 -8.6457e-05 -7.44724e-05
0.00014407 -4.3649e-05 -4.30374e-05 -7.94291e-05
0.000141076 -4.27323e-05 -4.21472e-05 -7.94281e-05
0.000418464 -0.000125882 -0.000125392 -6.62023e-05
0.00042749 -0.000128605 -0.000128093 -6.62034e-05
0.000142573 -4.31906e-05 -4.25924e-05 -7.94286e-05
0.000279763 -8.43136e-05 -8.37639e-05 -7.44707e-05
0.000422977 -0.000127243 -0.000126743 -6.62029e-05
0.000285773 -8.6134e-05 -8.55594e-05 -7.44718e-05
0.000282768 -8.52238e-05 -8.46617e-05 -7.44713e-05
0.000141076 -4.27323e-05 -4.21472e-05 -7.94281e-05
0.000138082 -4.18159e-05 -4.12567e-05 -7.94271e-05
0.000409437 -0.000123158 -0.000122691 -6.62012e-05
0.000418464 -0.000125882 -0.000125392 -6.62023e-05
0.000139579 -4.22741e-05 -4.1702e-05 -7.94276e-05
0.000273753 -8.24935e-05 -8.19682e-05 -7.44696e-05
0.00041395 -0.00012452 -0.000124042 -6.62017e-05
0.000279763 -8.43136e-05 -8.37639e-05 -7.44707e-05
0.000276758 -8.34036e-05 -8.28661e-05 -7.44702e-05
0.000138082 -4.18159e-05 -4.12567e-05 -7.94271e-05
0.000135087 -4.08997e-05 -4.03659e-05 -7.94261e-05
0.00040041 -0.000120435 -0.000119989 -6.62001e-05
0.000409437 -0.000123158 -0.000122691 -6.62012e-05
0.000136584 -4.13578e-05 -4.08114e-05 -7.94266e-05
0.000267742 -8.06737e-05 -8.01722e-05 -7.44685e-05
0.000404924 -0.000121797 -0.00012134 -6.62006e-05
0.000273753 -8.24935e-05 -8.19682e-05 -7.44696e-05
0.000270747 -8.15836e-05 -8.10702e-05 -7.44691e-05
0.000135087 -4.08997e-05 -4.03659e-05 -7.94261e-05
0.000132092 -3.99838e-05 -3.94748e-05 -7.94251e-05
0.000391383 -0.000117713 -0.000117287 -6.6199e-05
0.00040041 -0.000120435 -0.000119989 -6.62001e-05
0.000133589 -4.04417e-05 -3.99204e-05 -7.94256e-05
0.000261731 -7.88541e-05 -7.83759e-05 -7.44675e-05
0.000395897 -0.000119074 -0.000118638 -6.61995e-05
0.000267742 -8.06737e-05 -8.01722e-05 -7.44685e-05
0.000264737 -7.97639e-05 -7.92741e-05 -7.4468e-05
0.000132092 -3.99838e-05 -3.94748e-05 -7.94251e-05
0.000129096 -3.90682e-05 -3.85834e-05 -7.94241e-05
0.000382355 -0.00011499 -0.000114585 -6.61979e-05
0.000391383 -0.000117713 -0.000117287 -6.6199e-05
0.000130594 -3.9526e-05 -3.90292e-05 -7.94246e-05
0.00025572 -7.70348e-05 -7.65794e-05 -7.44664e-05
0.000386869 -0.000116351 -0.000115936 -6.61985e-05
0.000261731 -7.88541e-05 -7.83759e-05 -7.44675e-05
0.000258726 -7.79444e-05 -7.74777e-05 -7.44669e-05
0.000129096 -3.90682e-05 -3.85834e-05 -7.94241e-05
0.0001261 -3.81528e-05 -3.76917e-05 -7.94232e-05
0.000373328 -0.000112268 -0.000111883 -6.61969e-05
0.000382355 -0.00011499 -0.000114585 -6.61979e-05
0.000127598 -3.86105e-05 -3.81376e-05 -7.94237e-05
0.000249708 -7.52158e-05 -7.47826e-05 -7.44654e-05
0.000377842 -0.000113629 -0.000113234 -6.61974e-05
0.00025572 -7.70348e-05 -7.65794e-05 -7.44664e-05
0.000252714 -7.61253e-05 -7.5681e-05 -7.44659e-05
0.0001261 -3.81528e-05 -3.76917e-05 -7.94232e-05
0.000123104 -3.72377e-05 -3.67997e-05 -7.94223e-05
0.0003643 -0.000109546 -0.00010918 -6.61958e-05
0.000373328 -0.000112268 -0.000111883 -6.61969e-05
0.000124602 -3.76952e-05 -3.72458e-05 -7.94227e-05
0.000243696 -7.3397e-05 -7.29855e-05 -7.44643e-05
0.000368814 -0.000110907 -0.000110531 -6.61963e-05
0.000249708 -7.52158e-05 -7.47826e-05 -7.44654e-05
0.000246702 -7.43063e-05 -7.3884e-05 -7.44648e-05
0.000123104 -3.72377e-05 -3.67997e-05 -7.94223e-05
0.000120107 -3.63229e-05 -3.59074e-05 -7.94213e-05
0.000355271 -0.000106824 -0.000106477 -6.61948e-05
0.0003643 -0.000109546 -0.00010918 -6.61958e-05
0.000121605 -3.67803e-05 -3.63536e-05 -7.94218e-05
0.000237684 -7.15784e-05 -7.11881e-05 -7.44633e-05
0.000359785 -0.000108185 -0.000107829 -6.61953e-05
0.000243696 -7.3397e-05 -7.29855e-05 -7.44643e-05
0.00024069 -7.24877e-05 -7.20868e-05 -7.44638e-05
0.000120107 -3.63229e-05 -3.59074e-05 -7.94213e-05
0.00011711 -3.54084e-05 -3.50148e-05 -7.94204e-05
0.000346242 -0.000104103 -0.000103774 -6.61938e-05
0.000355271 -0.000106824 -0.000106477 -6.61948e-05
0.000118608 -3.58656e-05 -3.54612e-05 -7.94209e-05
0.000231671 -6.97602e-05 -6.93905e-05 -7.44623e-05
0.000350757 -0.000105464 -0.000105126 -6.61943e-05
0.000237684 -7.15784e-05 -7.11881e-05 -7.44633e-05
0.000234678 -7.06693e-05 -7.02893e-05 -7.44628e-05
0.00011711 -3.54084e-05 -3.50148e-05 -7.94204e-05
0.000114112 -3.44941e-05 -3.41219e-05 -7.94196e-05
0.000337213 -0.000101382 -0.000101071 -6.61928e-05
0.000346242 -0.000104103 -0.000103774 -6.61938e-05
0.000115611 -3.49512e-05 -3.45684e-05 -7.942e-05
0.000225658 -6.79421e-05 -6.75925e-05 -7.44614e-05
0.000341728 -0.000102742 -0.000102422 -6.61933e-05
0.000231671 -6.97602e-05 -6.93905e-05 -7.44623e-05
0.000228665 -6.88511e-05 -6.84915e-05 -7.44619e-05
0.000114112 -3.44941e-05 -3.41219e-05 -7.94196e-05
0.000111114 -3.35801e-05 -3.32288e-05 -7.94187e-05
0.000328184 -9.86605e-05 -9.83672e-05 -6.61918e-05
0.000337213 -0.000101382 -0.000101071 -6.61928e-05
0.000112613 -3.40371e-05 -3.36754e-05 -7.94191e-05
0.000219645 -6.61244e-05 -6.57944e-05 -7.44604e-05
0.000332699 -0.000100021 -9.9719e-05 -6.61923e-05
0.000225658 -6.79421e-05 -6.75925e-05 -7.44614e-05
0.000222651 -6.70332e-05 -6.66935e-05 -7.44609e-05
0.000111114 -3.35801e-05 -3.32288e-05 -7.94187e-05
0.000108115 -3.26664e-05 -3.23353e-05 -7.94179e-05
0.000319154 -9.59397e-05 -9.56633e-05 -6.61908e-05
0.000328184 -9.86605e-05 -9.83672e-05 -6.61918e-05
0.000109615 -3.31232e-05 -3.2782e-05 -7.94183e-05
0.000213631 -6.43069e-05 -6.39959e-05 -7.44595e-05
0.000323669 -9.73e-05 -9.70153e-05 -6.61913e-05
0.000219645 -6.61244e-05 -6.57944e-05 -7.44604e-05
0.000216638 -6.52156e-05 -6.48952e-05 -7.44599e-05
0.000108115 -3.26664e-05 -3.23353e-05 -7.94179e-05
0.000105116 -3.17529e-05 -3.14415e-05 -7.9417e-05
0.000310124 -9.32191e-05 -9.29593e-05 -6.61899e-05
0.000319154 -9.59397e-05 -9.56633e-05 -6.61908e-05
0.000106616 -3.22096e-05 -3.18884e-05 -7.94175e-05
0.000207616 -6.24897e-05 -6.21972e-05 -7.44586e-05
0.000314639 -9.45794e-05 -9.43113e-05 -6.61904e-05
0.000213631 -6.43069e-05 -6.39959e-05 -7.44595e-05
0.000210624 -6.33982e-05 -6.30966e-05 -7.4459e-05
0.000105116 -3.17529e-05 -3.14415e-05 -7.9417e-05
0.000102117 -3.08397e-05 -3.05474e-05 -7.94162e-05
0.000301094 -9.04988e-05 -9.0255e-05 -6.6189e-05
0.000310124 -9.32191e-05 -9.29593e-05 -6.61899e-05
0.000103617 -3.12963e-05 -3.09945e-05 -7.94166e-05
0.000201602 -6.06727e-05 -6.03981e-05 -7.44577e-05
0.000305609 -9.18589e-05 -9.16071e-05 -6.61894e-05
0.000207616 -6.24897e-05 -6.21972e-05 -7.44586e-05
0.000204609 -6.15811e-05 -6.12977e-05 -7.44581e-05
0.000102117 -3.08397e-05 -3.05474e-05 -7.94162e-05
9.91171e-05 -2.99268e-05 -2.9653e-05 -7.94155e-05
0.000292063 -8.77787e-05 -8.75504e-05 -6.6188e-05
0.000301094 -9.04988e-05 -9.0255e-05 -6.6189e-05
0.000100617 -3.03832e-05 -3.01002e-05 -7.94158e-05
0.000195587 -5.8856e-05 -5.85988e-05 -7.44568e-05
0.000296578 -8.91387e-05 -8.89027e-05 -6.61885e-05
0.000201602 -6.06727e-05 -6.03981e-05 -7.44577e-05
0.000198594 -5.97643e-05 -5.94985e-05 -7.44572e-05
9.91171e-05 -2.99268e-05 -2.9653e-05 -7.94155e-05
9.61169e-05 -2.90142e-05 -2.87583e-05 -7.94147e-05
0.000283032 -8.50588e-05 -8.48456e-05 -6.61872e-05
0.000292063 -8.77787e-05 -8.75504e-05 -6.6188e-05
9.76171e-05 -2.94705e-05 -2.92057e-05 -7.94151e-05
0.000189571 -5.70395e-05 -5.67993e-05 -7.44559e-05
0.000287548 -8.64187e-05 -8.6198e-05 -6.61876e-05
0.000195587 -5.8856e-05 -5.85988e-05 -7.44568e-05
0.000192579 -5.79477e-05 -5.76991e-05 -7.44563e-05
9.61169e-05 -2.90142e-05 -2.87583e-05 -7.94147e-05
9.31162e-05 -2.81018e-05 -2.78633e-05 -7.9414e-05
0.000274001 -8.23392e-05 -8.21406e-05 -6.61863e-05
0.000283032 -8.50588e-05 -8.48456e-05 -6.61872e-05
9.46166e-05 -2.8558e-05 -2.83108e-05 -7.94143e-05
0.000183555 -5.52234e-05 -5.49994e-05 -7.44551e-05
0.000278516 -8.3699e-05 -8.34931e-05 -6.61867e-05
0.000189571 -5.70395e-05 -5.67993e-05 -7.44559e-05
0.000186563 -5.61314e-05 -5.58994e-05 -7.44555e-05
9.31162e-05 -2.81018e-05 -2.78633e-05 -7.9414e-05
9.01151e-05 -2.71898e-05 -2.6968e-05 -7.94132e-05
0.000264969 -7.96199e-05 -7.94353e-05 -6.61855e-05
0.000274001 -8.23392e-05 -8.21406e-05 -6.61863e-05
9.16157e-05 -2.76458e-05 -2.74157e-05 -7.94136e-05
0.000177539 -5.34075e-05 -5.31993e-05 -7.44543e-05
0.000269485 -8.09795e-05 -8.0788e-05 -6.61859e-05
0.000183555 -5.52234e-05 -5.49994e-05 -7.44551e-05
0.000180547 -5.43154e-05 -5.40994e-05 -7.44547e-05
9.01151e-05 -2.71898e-05 -2.6968e-05 -7.94132e-05
8.71136e-05 -2.6278e-05 -2.60724e-05 -7.94126e-05
0.000255937 -7.69007e-05 -7.67298e-05 -6.61847e-05
0.000264969 -7.96199e-05 -7.94353e-05 -6.61855e-05
8.86144e-05 -2.67339e-05 -2.65202e-05 -7.94129e-05
0.000171523 -5.15918e-05 -5.13989e-05 -7.44535e-05
0.000260453 -7.82603e-05 -7.80826e-05 -6.6185e-05
0.000177539 -5.34075e-05 -5.31993e-05 -7.44543e-05
0.000174531 -5.24996e-05 -5.22991e-05 -7.44539e-05
8.71136e-05 -2.6278e-05 -2.60724e-05 -7.94126e-05
8.41117e-05 -2.53665e-05 -2.51765e-05 -7.94119e-05
0.000246904 -7.41819e-05 -7.4024e-05 -6.61839e-05
0.000255937 -7.69007e-05 -7.67298e-05 -6.61847e-05
8.56127e-05 -2.58222e-05 -2.56245e-05 -7.94122e-05
0.000165506 -4.97765e-05 -4.95982e-05 -7.44528e-05
0.000251421 -7.55413e-05 -7.53769e-05 -6.61843e-05
0.000171523 -5.15918e-05 -5.13989e-05 -7.44535e-05
0.000168514 -5.06841e-05 -5.04986e-05 -7.44531e-05
8.41117e-05 -2.53665e-05 -2.51765e-05 -7.94119e-05
8.11094e-05 -2.44554e-05 -2.42803e-05 -7.94113e-05
0.000237872 -7.14632e-05 -7.1318e-05 -6.61832e-05
0.000246904 -7.41819e-05 -7.4024e-05 -6.61839e-05
8.26106e-05 -2.49109e-05 -2.47284e-05 -7.94116e-05
0.000159488 -4.79614e-05 -4.77972e-05 -7.44521e-05
0.000242388 -7.28225e-05 -7.2671e-05 -6.61835e-05
0.000165506 -4.97765e-05 -4.95982e-05 -7.44528e-05
0.000162497 -4.88689e-05 -4.86977e-05 -7.44524e-05
8.11094e-05 -2.44554e-05 -2.42803e-05 -7.94113e-05
7.81068e-05 -2.35445e-05 -2.33838e-05 -7.94107e-05
0.000228839 -6.87449e-05 -6.86117e-05 -6.61825e-05
0.000237872 -7.14632e-05 -7.1318e-05 -6.61832e-05
7.96081e-05 -2.39999e-05 -2.38321e-05 -7.9411e-05
0.000153471 -4.61467e-05 -4.5996e-05 -7.44514e-05
0.000233355 -7.0104e-05 -6.99649e-05 -6.61829e-05
0.000159488 -4.79614e-05 -4.77972e-05 -7.44521e-05
0.00015648 -4.7054e-05 -4.68966e-05 -7.44518e-05
7.81068e-05 -2.35445e-05 -2.33838e-05 -7.94107e-05
7.51038e-05 -2.2634e-05 -2.2487e-05 -7.94101e-05
0.000219806 -6.60268e-05 -6.59052e-05 -6.61819e-05
0.000228839 -6.87449e-05 -6.86117e-05 -6.61825e-05
7.66053e-05 -2.30892e-05 -2.29355e-05 -7.94104e-05
0.000147453 -4.43322e-05 -4.41945e-05 -7.44508e-05
0.000224322 -6.73858e-05 -6.72585e-05 -6.61822e-05
0.000153471 -4.61467e-05 -4.5996e-05 -7.44514e-05
0.000150462 -4.52394e-05 -4.50953e-05 -7.44511e-05
7.51038e-05 -2.2634e-05 -2.2487e-05 -7.94101e-05
7.21004e-05 -2.17237e-05 -2.159e-05 -7.94095e-05
0.000210772 -6.33089e-05 -6.31984e-05 -6.61814e-05
0.000219806 -6.60268e-05 -6.59052e-05 -6.61819e-05
7.36021e-05 -2.21788e-05 -2.20386e-05 -7.94098e-05
0.000141434 -4.25181e-05 -4.23927e-05 -7.44503e-05
0.000215289 -6.46678e-05 -6.45518e-05 -6.61817e-05
0.000147453 -4.43322e-05 -4.41945e-05 -7.44508e-05
0.000144444 -4.34251e-05 -4.32936e-05 -7.44505e-05
7.21004e-05 -2.17237e-05 -2.159e-05 -7.94095e-05
6.90967e-05 -2.08138e-05 -2.06927e-05 -7.9409e-05
0.000201738 -6.05914e-05 -6.04915e-05 -6.6181e-05
0.000210772 -6.33089e-05 -6.31984e-05 -6.61814e-05
7.05986e-05 -2.12687e-05 -2.11414e-05 -7.94092e-05
0.000135416 -4.07042e-05 -4.05907e-05 -7.44497e-05
0.000206255 -6.19501e-05 -6.1845e-05 -6.61812e-05
0.000141434 -4.25181e-05 -4.23927e-05 -7.44503e-05
0.000138425 -4.16111e-05 -4.14917e-05 -7.445e-05
6.90967e-05 -2.08138e-05 -2.06927e-05 -7.9409e-05
6.60927e-05 -1.9904e-05 -1.97951e-05 -7.94083e-05
0.000192704 -5.7874e-05 -5.77843e-05 -6.61805e-05
0.000201738 -6.05914e-05 -6.04915e-05 -6.6181e-05
6.75947e-05 -2.03589e-05 -2.02439e-05 -7.94087e-05
0.000129397 -3.88905e-05 -3.87885e-05 -7.44492e-05
0.000197221 -5.92327e-05 -5.91379e-05 -6.61807e-05
0.000135416 -4.07042e-05 -4.05907e-05 -7.44497e-05
0.000132406 -3.97973e-05 -3.96896e-05 -7.44494e-05
6.60927e-05 -1.9904e-05 -1.97951e-05 -7.94083e-05
6.30883e-05 -1.89943e-05 -1.88974e-05 -7.94076e-05
0.00018367 -5.51569e-05 -5.50769e-05 -6.618e-05
0.000192704 -5.7874e-05 -5.77843e-05 -6.61805e-05
6.45905e-05 -1.94492e-05 -1.93463e-05 -7.9408e-05
0.000123378 -3.7077e-05 -3.69861e-05 -7.44485e-05
0.000188187 -5.65154e-05 -5.64306e-05 -6.61803e-05
0.000129397 -3.88905e-05 -3.87885e-05 -7.44492e-05
0.000126387 -3.79837e-05 -3.78873e-05 -7.44488e-05
6.30883e-05 -1.89943e-05 -1.88974e-05 -7.94076e-05
6.00834e-05 -1.80846e-05 -1.79995e-05 -7.94067e-05
0.000174635 -5.24398e-05 -5.23695e-05 -6.61793e-05
0.00018367 -5.51569e-05 -5.50769e-05 -6.618e-05
6.15859e-05 -1.85395e-05 -1.84485e-05 -7.94072e-05
0.000117358 -3.52634e-05 -3.51835e-05 -7.44476e-05
0.000179152 -5.37983e-05 -5.37232e-05 -6.61797e-05
0.000123378 -3.7077e-05 -3.69861e-05 -7.44485e-05
0.000120368 -3.61702e-05 -3.60848e-05 -7.44481e-05
6.00834e-05 -1.80846e-05 -1.79995e-05 -7.94067e-05
5.70779e-05 -1.71743e-05 -1.71015e-05 -7.94055e-05
0.000165601 -4.97225e-05 -4.9662e-05 -6.61782e-05
0.000174635 -5.24398e-05 -5.23695e-05 -6.61793e-05
5.85808e-05 -1.76295e-05 -1.75505e-05 -7.94062e-05
0.000111338 -3.34495e-05 -3.3381e-05 -7.44463e-05
0.000170118 -5.10812e-05 -5.10157e-05 -6.61789e-05
0.000117358 -3.52634e-05 -3.51835e-05 -7.44476e-05
0.000114348 -3.43566e-05 -3.42822e-05 -7.4447e-05
5.70779e-05 -1.71743e-05 -1.71015e-05 -7.94055e-05
5.40713e-05 -1.62629e-05 -1.62036e-05 -7.94041e-05
0.000156565 -4.70045e-05 -4.69547e-05 -6.61763e-05
0.000165601 -4.97225e-05 -4.9662e-05 -6.61782e-05
5.55748e-05 -1.67188e-05 -1.66526e-05 -7.94049e-05
0.000105318 -3.16346e-05 -3.15785e-05 -7.44445e-05
0.000161083 -4.83636e-05 -4.83083e-05 -6.61774e-05
0.000111338 -3.34495e-05 -3.3381e-05 -7.44463e-05
0.000108328 -3.25422e-05 -3.24797e-05 -7.44455e-05
5.40713e-05 -1.62629e-05 -1.62036e-05 -7.94041e-05
5.10628e-05 -1.53493e-05 -1.53058e-05 -7.94027e-05
0.000147529 -4.42846e-05 -4.42478e-05 -6.6173e-05
0.000156565 -4.70045e-05 -4.69547e-05 -6.61763e-05
5.25674e-05 -1.58065e-05 -1.57547e-05 -7.94034e-05
9.92955e-05 -2.98173e-05 -2.97764e-05 -7.44418e-05
0.000152048 -4.56449e-05 -4.56011e-05 -6.61749e-05
0.000105318 -3.16346e-05 -3.15785e-05 -7.44445e-05
0.000102307 -3.07263e-05 -3.06774e-05 -7.44432e-05
5.10628e-05 -1.53493e-05 -1.53058e-05 -7.94027e-05
4.80511e-05 -1.44316e-05 -1.44083e-05 -7.94022e-05
0.000138491 -4.15609e-05 -4.15415e-05 -6.61673e-05
0.000147529 -4.42846e-05 -4.42478e-05 -6.6173e-05
4.95574e-05 -1.48911e-05 -1.4857e-05 -7.94023e-05
9.32699e-05 -2.79954e-05 -2.79748e-05 -7.44382e-05
0.000143011 -4.29235e-05 -4.28945e-05 -6.61705e-05
9.92955e-05 -2.98173e-05 -2.97764e-05 -7.44418e-05
9.62832e-05 -2.89071e-05 -2.88755e-05 -7.44401e-05
4.80511e-05 -1.44316e-05 -1.44083e-05 -7.94022e-05
4.50327e-05 -1.35067e-05 -1.35112e-05 -7.9405e-05
0.000129448 -3.8829e-05 -3.88366e-05 -6.61575e-05
0.000138491 -4.15609e-05 -4.15415e-05 -6.61673e-05
4.65431e-05 -1.39704e-05 -1.39597e-05 -7.9403e-05
8.72375e-05 -2.61645e-05 -2.61741e-05 -7.44344e-05
0.00013397 -4.01963e-05 -4.01888e-05 -6.61631e-05
9.32699e-05 -2.79954e-05 -2.79748e-05 -7.44382e-05
9.02548e-05 -2.70815e-05 -2.70743e-05 -7.44363e-05
4.50327e-05 -1.35067e-05 -1.35112e-05 -7.9405e-05
4.20034e-05 -1.25688e-05 -1.26148e-05 -7.94164e-05
0.000120392 -3.60813e-05 -3.61332e-05 -6.61418e-05
0.000129448 -3.8829e-05 -3.88366e-05 -6.61575e-05
4.35196e-05 -1.30398e-05 -1.30628e-05 -7.94092e-05
8.11912e-05 -2.43166e-05 -2.43748e-05 -7.44319e-05
0.000124922 -3.74579e-05 -3.74847e-05 -6.61505e-05
8.72375e-05 -2.61645e-05 -2.61741e-05 -7.44344e-05
8.42166e-05 -2.52434e-05 -2.52743e-05 -7.44327e-05
4.20034e-05 -1.25688e-05 -1.26148e-05 -7.94164e-05
3.89515e-05 -1.16091e-05 -1.17181e-05 -7.94474e-05
0.000111314 -3.33032e-05 -3.34331e-05 -6.61163e-05
0.000120392 -3.60813e-05 -3.61332e-05 -6.61418e-05
4.04816e-05 -1.20926e-05 -1.21667e-05 -7.94284e-05
7.51174e-05 -2.2438e-05 -2.25769e-05 -7.44356e-05
0.000115856 -3.46972e-05 -3.47825e-05 -6.61306e-05
8.11912e-05 -2.43166e-05 -2.43748e-05 -7.44319e-05
7.81588e-05 -2.33825e-05 -2.34756e-05 -7.44328e-05
3.89515e-05 -1.16091e-05 -1.17181e-05 -7.94474e-05
3.58646e-05 -1.0612e-05 -1.08225e-05 -7.95187e-05
0.000102183 -3.04701e-05 -3.07342e-05 -6.60783e-05
0.000111314 -3.33032e-05 -3.34331e-05 -6.61163e-05
3.74126e-05 -1.11163e-05 -1.12699e-05 -7.94763e-05
6.89912e-05 -2.05041e-05 -2.07802e-05 -7.44553e-05
0.000106758 -3.18959e-05 -3.20838e-05 -6.60989e-05
7.51174e-05 -2.2438e-05 -2.25769e-05 -7.44356e-05
7.20629e-05 -2.14797e-05 -2.16785e-05 -7.4442e-05
3.58646e-05 -1.0612e-05 -1.08225e-05 -7.95187e-05
3.27056e-05 -9.55615e-06 -9.92122e-06 -7.96691e-05
9.29645e-05 -2.75389e-05 -2.80395e-05 -6.60205e-05
0.000102183 -3.04701e-05 -3.07342e-05 -6.60783e-05
3.42985e-05 -1.00938e-05 -1.03734e-05 -7.95805e-05
6.27691e-05 -1.84787e-05 -1.89816e-05 -7.45109e-05
9.75863e-05 -2.90198e-05 -2.93857e-05 -6.60528e-05
6.89912e-05 -2.05041e-05 -2.07802e-05 -7.44553e-05
6.58956e-05 -1.95065e-05 -1.9881e-05 -7.4478e-05
3.27056e-05 -9.55615e-06 -9.92122e-06 -7.96691e-05
2.94475e-05 -8.40516e-06 -9.01813e-06 -7.996e-05
8.35614e-05 -2.44484e-05 -2.53341e-05 -6.59467e-05
9.29645e-05 -2.75389e-05 -2.80395e-05 -6.60205e-05
3.1088e-05 -8.99378e-06 -9.46893e-06 -7.97922e-05
5.63771e-05 -1.63014e-05 -1.71753e-05 -7.46385e-05
8.82966e-05 -2.60199e-05 -2.669e-05 -6.59844e-05
6.27691e-05 -1.84787e-05 -1.89816e-05 -7.45109e-05
5.96002e-05 -1.74121e-05 -1.80806e-05 -7.45601e-05
2.94475e-05 -8.40516e-06 -9.01813e-06 -7.996e-05
2.59926e-05 -7.12894e-06 -8.08444e-06 -8.04924e-05
7.38814e-05 -2.11009e-05 -2.26202e-05 -6.585e-05
8.35614e-05 -2.44484e-05 -2.53341e-05 -6.59467e-05
2.77578e-05 -7.78744e-06 -8.55873e-06 -8.01874e-05
4.97074e-05 -1.39098e-05 -1.53418e-05 -7.49004e-05
7.87571e-05 -2.28106e-05 -2.39771e-05 -6.59029e-05
5.63771e-05 -1.63014e-05 -1.71753e-05 -7.46385e-05
5.30846e-05 -1.51395e-05 -1.62622e-05 -7.47525e-05
2.59926e-05 -7.12894e-06 -8.08444e-06 -8.04924e-05
2.23235e-05 -5.68232e-06 -7.13194e-06 -8.13839e-05
6.36706e-05 -1.74159e-05 -1.98235e-05 -6.57884e-05
7.38814e-05 -2.11009e-05 -2.26202e-05 -6.585e-05
2.41739e-05 -6.4218e-06 -7.60803e-06 -8.08859e-05
4.26005e-05 -1.12234e-05 -1.34473e-05 -7.53936e-05
6.88731e-05 -1.93115e-05 -2.12407e-05 -6.58064e-05
4.97074e-05 -1.39098e-05 -1.53418e-05 -7.49004e-05
4.62208e-05 -1.26e-05 -1.44089e-05 -7.51e-05
2.23235e-05 -5.68232e-06 -7.13194e-06 -8.13839e-05
1.82709e-05 -4.14385e-06 -6.05445e-06 -8.27694e-05
5.28168e-05 -1.33082e-05 -1.69323e-05 -6.5802e-05
6.36706e-05 -1.74159e-05 -1.98235e-05 -6.57884e-05
2.03773e-05 -4.92635e-06 -6.62183e-06 -8.20052e-05
3.49303e-05 -8.31258e-06 -1.14076e-05 -7.62488e-05
5.83074e-05 -1.53988e-05 -1.83894e-05 -6.57857e-05
4.26005e-05 -1.12234e-05 -1.34473e-05 -7.53936e-05
3.88393e-05 -9.79528e-06 -1.24475e-05 -7.57858e-05
1.82709e-05 -4.14385e-06 -6.05445e-06 -8.27694e-05
1.40824e-05 -2.66086e-06 -4.89497e-06 -8.45889e-05
4.09187e-05 -9.06888e-06 -1.36499e-05 -6.62177e-05
5.28168e-05 -1.33082e-05 -1.69323e-05 -6.5802e-05
1.61305e-05 -3.34676e-06 -5.47877e-06 -8.36413e-05
2.66296e-05 -5.41631e-06 -9.09143e-06 -7.75993e-05
4.70652e-05 -1.11963e-05 -1.53724e-05 -6.59205e-05
3.49303e-05 -8.31258e-06 -1.14076e-05 -7.62488e-05
3.08637e-05 -6.80059e-06 -1.03128e-05 -7.68162e-05
1.40824e-05 -2.66086e-06 -4.89497e-06 -8.45889e-05
9.80571e-06 -2.05384e-06 -3.32223e-06 -8.6411e-05
2.85555e-05 -5.40207e-06 -9.92292e-06 -6.72778e-05
4.09187e-05 -9.06888e-06 -1.36499e-05 -6.62177e-05
1.20123e-05 -2.21715e-06 -4.19791e-06 -8.55458e-05
1.82813e-05 -3.71633e-06 -6.24215e-06 -7.93939e-05
3.4656e-05 -7.00239e-06 -1.18515e-05 -6.66557e-05
2.66296e-05 -5.41631e-06 -9.09143e-06 -7.75993e-05
2.23837e-05 -4.34036e-06 -7.73285e-06 -7.85254e-05
9.80571e-06 -2.05384e-06 -3.32223e-06 -8.6411e-05
6.8278e-06 -3.2738e-06 -1.52314e-06 -8.65412e-05
1.65216e-05 -5.34589e-06 -4.78959e-06 -6.97689e-05
2.85555e-05 -5.40207e-06 -9.92292e-06 -6.72778e-05
7.92385e-06 -2.26659e-06 -2.42454e-06 -8.68605e-05
1.1174e-05 -5.12502e-06 -2.59244e-06 -8.0805e-05
2.25374e-05 -4.7299e-06 -7.63179e-06 -6.82744e-05
1.82813e-05 -3.71633e-06 -6.24215e-06 -7.93939e-05
1.44892e-05 -3.77398e-06 -4.59225e-06 -8.01204e-05
6.8278e-06 -3.2738e-06 -1.52314e-06 -8.65412e-05
5.3185e-06 -8.18472e-06 1.22838e-06 -8.18194e-05
1.01045e-05 -1.43206e-05 1.80689e-06 -7.18168e-05
1.65216e-05 -5.34589e-06 -4.78959e-06 -6.97689e-05
6.09889e-06 -5.38914e-06 -3.04181e-07 -8.5045e-05
8.6574e-06 -1.33145e-05 1.99589e-06 -7.84226e-05
1.191e-05 -7.90204e-06 -1.7177e-06 -7.1118e-05
1.1174e-05 -5.12502e-06 -2.59244e-06 -8.0805e-05
9.00651e-06 -8.32394e-06 -2.92531e-07 -8.06756e-05
5.3185e-06 -8.18472e-06 1.22838e-06 -8.18194e-05
6.88314e-06 -1.46994e-05 3.34983e-06 -6.69857e-05
1.32416e-05 -4.24924e-05 1.2536e-05 -6.61968e-05
1.01045e-05 -1.43206e-05 1.80689e-06 -7.18168e-05
5.30657e-06 -1.12143e-05 2.53187e-06 -7.60142e-05
1.05247e-05 -2.81843e-05 7.56839e-06 -6.54057e-05
1.06876e-05 -2.61899e-05 6.64386e-06 -7.09117e-05
8.6574e-06 -1.33145e-05 1.99589e-06 -7.84226e-05
9.40426e-06 -1.99314e-05 4.51161e-06 -7.33539e-05
6.88314e-06 -1.46994e-05 3.34983e-06 -6.69857e-05
1.09817e-05 -2.3767e-05 5.47943e-06 -3.81611e-05
2.27258e-05 -7.70816e-05 2.32953e-05 -3.5088e-05
1.32416e-05 -4.24924e-05 1.2536e-05 -6.61968e-05
9.09314e-06 -1.89258e-05 4.21399e-06 -5.44853e-05
1.47748e-05 -4.80347e-05 1.42543e-05 -3.8788e-05
1.73823e-05 -6.09791e-05 1.86843e-05 -5.47835e-05
1.05247e-05 -2.81843e-05 7.56839e-06 -6.54057e-05
1.22408e-05 -3.79045e-05 1.09987e-05 -5.41746e-05
0.00145274 0 -0.000622603 0.000188815
0.0016444 -0.000219338 -0.00061074 -8.13847e-06
0.00284757 -0.000564748 -0.000978351 -0.000214359
0.00253043 2.22045e-16 -0.00108447 -0.00014845
0.00157519 -0.000123423 -0.000622185 6.97897e-05
0.00219673 -0.000341678 -0.000795021 -8.972e-05
0.00270794 -0.000266167 -0.00104648 -0.000248444
0.00206795 0 -0.000886265 2.63283e-05
0.0021032 -0.000189567 -0.000820128 -3.04223e-05
0.0016444 -0.000219338 -0.00061074 -8.13847e-06
0.00172922 -0.000401079 -0.000569205 -6.93128e-05
0.00295949 -0.000803125 -0.000924156 -0.000103021
0.00284757 -0.000564748 -0.000978351 -0.000214359
0.00168688 -0.000315922 -0.000587554 -4.7551e-05
0.00234358 -0.000580667 -0.000755533 -0.000104268
0.00293586 -0.000732535 -0.000944284 -0.000155243
0.00219673 -0.000341678 -0.000795021 -8.972e-05
0.00229479 -0.000475783 -0.000779576 -0.000117004
0.00172922 -0.000401079 -0.000569205 -6.93128e-05
0.00177265 -0.000493462 -0.000548225 -8.09498e-05
0.0029457 -0.000870664 -0.0008893 -3.8914e-05
0.00295949 -0.000803125 -0.000924156 -0.000103021
0.00176122 -0.00045828 -0.000558403 -7.99755e-05
0.00236795 -0.00067759 -0.000724442 -7.02336e-05
0.00295168 -0.000845101 -0.000902818 -6.10664e-05
0.00234358 -0.000580667 -0.000755533 -0.000104268
0.00236173 -0.000643766 -0.000736269 -8.26731e-05
0.00177265 -0.000493462 -0.000548225 -8.09498e-05
0.00177161 -0.000530199 -0.000532035 -7.46618e-05
0.00292505 -0.000880412 -0.000876273 -2.41676e-05
0.0029457 -0.000870664 -0.0008893 -3.8914e-05
0.00177297 -0.000516453 -0.000538506 -7.74582e-05
0.00235692 -0.000708976 -0.00070626 -5.32226e-05
0.00293801 -0.000879848 -0.000882069 -2.90688e-05
0.00236795 -0.00067759 -0.000724442 -7.02336e-05
0.00236533 -0.000697966 -0.000714584 -6.10926e-05
0.00177161 -0.000530199 -0.000532035 -7.46618e-05
0.00175952 -0.000537625 -0.000523668 -7.02956e-05
0.0029011 -0.000879228 -0.000866516 -2.31716e-05
0.00292505 -0.000880412 -0.000876273 -2.41676e-05
0.0017675 -0.000536273 -0.000527667 -7.24847e-05
0.00233547 -0.000711231 -0.000696103 -4.76815e-05
0.00291126 -0.00088014 -0.000870482 -2.22452e-05
0.00235692 -0.000708976 -0.00070626 -5.32226e-05
0.0023459 -0.000712238 -0.000700142 -4.87108e-05
0.00175952 -0.000537625 -0.000523668 -7.02956e-05
0.00174217 -0.000535259 -0.000517246 -6.73605e-05
0.0028829 -0.000872944 -0.000861411 -2.77732e-05
0.0029011 -0.000879228 -0.000866516 -2.31716e-05
0.00175022 -0.000537039 -0.000519936 -6.83932e-05
0.00231562 -0.000706542 -0.000689603 -4.78379e-05
0.00289237 -0.000876507 -0.000863941 -2.55741e-05
0.00233547 -0.000711231 -0.000696103 -4.76815e-05
0.00232544 -0.000709194 -0.000692677 -4.77252e-05
0.00174217 -0.000535259 -0.000517246 -6.73605e-05
0.00172699 -0.000529524 -0.000513199 -6.63999e-05
0.00286533 -0.000866725 -0.000856546 -3.17302e-05
0.0028829 -0.000872944 -0.000861411 -2.77732e-05
0.00173465 -0.000532577 -0.000515175 -6.68292e-05
0.00229771 -0.000699519 -0.00068494 -4.95251e-05
0.00287359 -0.000869715 -0.000858803 -2.97478e-05
0.00231562 -0.000706542 -0.000689603 -4.78379e-05
0.00230628 -0.000703144 -0.000687058 -4.8465e-05
0.00172699 -0.000529524 -0.000513199 -6.63999e-05
0.00171314 -0.000523815 -0.000509709 -6.59842e-05
0.00284957 -0.000860635 -0.000852402 -3.50037e-05
0.00286533 -0.000866725 -0.000856546 -3.17302e-05
0.00171966 -0.000526583 -0.000511317 -6.60897e-05
0.00228213 -0.000693145 -0.000680992 -5.12833e-05
0.00285753 -0.000863663 -0.000854512 -3.35765e-05
0.00229771 -0.000699519 -0.00068494 -4.95251e-05
0.00228973 -0.000696199 -0.00068294 -5.05185e-05
0.00171314 -0.000523815 -0.000509709 -6.59842e-05
0.00170131 -0.000518748 -0.000506813 -6.59881e-05
0.00283401 -0.000855108 -0.000848102 -3.70237e-05
0.00284957 -0.000860635 -0.000852402 -3.50037e-05
0.00170712 -0.000521191 -0.000508256 -6.5985e-05
0.00226797 -0.00068745 -0.000677364 -5.26255e-05
0.00284167 -0.000857799 -0.00085023 -3.61098e-05
0.00228213 -0.000693145 -0.000680992 -5.12833e-05
0.00227488 -0.000690215 -0.000679143 -5.1983e-05
0.00170131 -0.000518748 -0.000506813 -6.59881e-05
0.00169053 -0.000514478 -0.000504024 -6.6045e-05
0.00281888 -0.000849931 -0.000843834 -3.83192e-05
0.00283401 -0.000855108 -0.000848102 -3.70237e-05
0.00169576 -0.000516521 -0.000505388 -6.60018e-05
0.00225479 -0.000682539 -0.000673822 -5.35175e-05
0.00282646 -0.000852487 -0.00084599 -3.77693e-05
0.00226797 -0.00068745 -0.000677364 -5.26255e-05
0.00226129 -0.000684908 -0.000675595 -5.3138e-05
0.00169053 -0.000514478 -0.000504024 -6.6045e-05
0.00168061 -0.000510786 -0.000501353 -6.61426e-05
0.00280377 -0.000845026 -0.000839462 -3.90339e-05
0.00281888 -0.000849931 -0.000843834 -3.83192e-05
0.00168552 -0.000512573 -0.000502691 -6.60991e-05
0.00224216 -0.000678121 -0.000670302 -5.40722e-05
0.0028113 -0.00084745 -0.000841649 -3.87237e-05
0.00225479 -0.000682539 -0.000673822 -5.35175e-05
0.00224842 -0.000680282 -0.00067206 -5.38238e-05
0.00168061 -0.000510786 -0.000501353 -6.61426e-05
0.0016711 -0.000507495 -0.000498687 -6.62166e-05
0.00278874 -0.000840278 -0.000835056 -3.94418e-05
0.00280377 -0.000845026 -0.000839462 -3.90339e-05
0.0016758 -0.000509101 -0.000500015 -6.61801e-05
0.00222984 -0.000674045 -0.000666769 -5.43952e-05
0.00279626 -0.000842637 -0.000837267 -3.92717e-05
0.00224216 -0.000678121 -0.000670302 -5.40722e-05
0.00223597 -0.000676049 -0.000668539 -5.42596e-05
0.0016711 -0.000507495 -0.000498687 -6.62166e-05
0.00166186 -0.000504442 -0.000496036 -6.62766e-05
0.00277371 -0.000835625 -0.000830606 -3.96512e-05
0.00278874 -0.000840278 -0.000835056 -3.94418e-05
0.00166646 -0.000505946 -0.000497364 -6.625e-05
0.00221768 -0.000670161 -0.000663222 -5.4579e-05
0.00278122 -0.000837942 -0.000832833 -3.95626e-05
0.00222984 -0.000674045 -0.000666769 -5.43952e-05
0.00222375 -0.000672086 -0.000664997 -5.44991e-05
0.00166186 -0.000504442 -0.000496036 -6.62766e-05
0.00165274 -0.000501529 -0.000493378 -6.63173e-05
0.00275868 -0.000831022 -0.000826138 -3.97619e-05
0.00277371 -0.000835625 -0.000830606 -3.96512e-05
0.00165729 -0.000502972 -0.000494706 -6.62985e-05
0.0022056 -0.00066639 -0.000659662 -5.46794e-05
0.00276619 -0.000833319 -0.000828375 -3.97164e-05
0.00221768 -0.000670161 -0.000663222 -5.4579e-05
0.00221163 -0.000668265 -0.000661444 -5.46376e-05
0.00165274 -0.000501529 -0.000493378 -6.63173e-05
0.0016437 -0.000498691 -0.000490718 -6.63457e-05
0.00274364 -0.000826447 -0.000821654 -3.98157e-05
0.00275868 -0.000831022 -0.000826138 -3.97619e-05
0.00164822 -0.000500103 -0.000492049 -6.63331e-05
0.00219356 -0.000662677 -0.000656093 -5.4734e-05
0.00275116 -0.000828732 -0.000823897 -3.97934e-05
0.0022056 -0.00066639 -0.000659662 -5.46794e-05
0.00219958 -0.000664528 -0.000657878 -5.47107e-05
0.0016437 -0.000498691 -0.000490718 -6.63457e-05
0.00163468 -0.000495894 -0.000488053 -6.63641e-05
0.0027286 -0.000821884 -0.000817164 -3.98426e-05
0.00274364 -0.000826447 -0.000821654 -3.98157e-05
0.00163919 -0.000497289 -0.000489385 -6.63558e-05
0.00218153 -0.000658994 -0.000652517 -5.4763e-05
0.00273612 -0.000824164 -0.00081941 -3.98316e-05
0.00219356 -0.000662677 -0.000656093 -5.4734e-05
0.00218755 -0.000660833 -0.000654306 -5.4751e-05
0.00163468 -0.000495894 -0.000488053 -6.63641e-05
0.00162568 -0.000493117 -0.000485386 -6.6376e-05
0.00271355 -0.000817328 -0.000812669 -3.9855e-05
0.0027286 -0.000821884 -0.000817164 -3.98426e-05
0.00163018 -0.000494504 -0.00048672 -6.63708e-05
0.00216951 -0.000655326 -0.000648938 -5.47784e-05
0.00272108 -0.000819606 -0.000814917 -3.98499e-05
0.00218153 -0.000658994 -0.000652517 -5.4763e-05
0.00217552 -0.000657159 -0.000650728 -5.47718e-05
0.00162568 -0.000493117 -0.000485386 -6.6376e-05
0.00161669 -0.000490351 -0.000482717 -6.63833e-05
0.00269851 -0.000812775 -0.000808171 -3.98608e-05
0.00271355 -0.000817328 -0.000812669 -3.9855e-05
0.00162119 -0.000491733 -0.000484052 -6.63801e-05
0.00215749 -0.000651665 -0.000645356 -5.47863e-05
0.00270603 -0.000815051 -0.00081042 -3.98585e-05
0.00216951 -0.000655326 -0.000648938 -5.47784e-05
0.0021635 -0.000653495 -0.000647147 -5.4783e-05
0.00161669 -0.000490351 -0.000482717 -6.63833e-05
0.0016077 -0.000487589 -0.000480047 -6.63876e-05
0.00268346 -0.000808222 -0.000803672 -3.98631e-05
0.00269851 -0.000812775 -0.000808171 -3.98608e-05
0.00161219 -0.000488969 -0.000481382 -6.63858e-05
0.00214548 -0.000648007 -0.000641772 -5.47902e-05
0.00269098 -0.000810498 -0.000805922 -3.98622e-05
0.00215749 -0.000651665 -0.000645356 -5.47863e-05
0.00215148 -0.000649836 -0.000643564 -5.47886e-05
0.0016077 -0.000487589 -0.000480047 -6.63876e-05
0.00159871 -0.00048483 -0.000477375 -6.63899e-05
0.00266841 -0.000803671 -0.000799172 -3.98639e-05
0.00268346 -0.000808222 -0.000803672 -3.98631e-05
0.0016032 -0.000486209 -0.000478711 -6.6389e-05
0.00213345 -0.000644351 -0.000638188 -5.4792e-05
0.00267593 -0.000805946 -0.000801422 -3.98636e-05
0.00214548 -0.000648007 -0.000641772 -5.47902e-05
0.00213947 -0.000646179 -0.00063998 -5.47913e-05
0.00159871 -0.00048483 -0.000477375 -6.63899e-05
0.00158971 -0.000482072 -0.000474704 -6.63908e-05
0.00265335 -0.000799119 -0.000794671 -3.98638e-05
0.00266841 -0.000803671 -0.000799172 -3.98639e-05
0.00159421 -0.000483451 -0.00047604 -6.63905e-05
0.00212143 -0.000640695 -0.000634602 -5.47924e-05
0.00266088 -0.000801395 -0.000796922 -3.98639e-05
0.00213345 -0.000644351 -0.000638188 -5.4792e-05
0.00212744 -0.000642523 -0.000636395 -5.47923e-05
0.00158971 -0.000482072 -0.000474704 -6.63908e-05
0.00158072 -0.000479315 -0.000472031 -6.63908e-05
0.0026383 -0.000794568 -0.000790171 -3.98633e-05
0.00265335 -0.000799119 -0.000794671 -3.98638e-05
0.00158522 -0.000480693 -0.000473368 -6.63909e-05
0.00210941 -0.00063704 -0.000631017 -5.47922e-05
0.00264583 -0.000796843 -0.000792421 -3.98636e-05
0.00212143 -0.000640695 -0.000634602 -5.47924e-05
0.00211542 -0.000638867 -0.00063281 -5.47924e-05
0.00158072 -0.000479315 -0.000472031 -6.63908e-05
0.00157173 -0.000476558 -0.000469359 -6.63903e-05
0.00262325 -0.000790016 -0.00078567 -3.98626e-05
0.0026383 -0.000794568 -0.000790171 -3.98633e-05
0.00157622 -0.000477937 -0.000470695 -6.63906e-05
0.00209739 -0.000633385 -0.000627431 -5.47915e-05
0.00263077 -0.000792292 -0.00078792 -3.9863e-05
0.00210941 -0.00063704 -0.000631017 -5.47922e-05
0.0021034 -0.000635212 -0.000629224 -5.47919e-05
0.00157173 -0.000476558 -0.000469359 -6.63903e-05
0.00156273 -0.000473802 -0.000466685 -6.63895e-05
0.00260819 -0.000785465 -0.000781169 -3.98617e-05
0.00262325 -0.000790016 -0.00078567 -3.98626e-05
0.00156723 -0.00047518 -0.000468022 -6.639e-05
0.00208537 -0.00062973 -0.000623845 -5.47906e-05
0.00261572 -0.000787741 -0.000783419 -3.98622e-05
0.00209739 -0.000633385 -0.000627431 -5.47915e-05
0.00209138 -0.000631558 -0.000625638 -5.47911e-05
0.00156273 -0.000473802 -0.000466685 -6.63895e-05
0.00155374 -0.000471047 -0.000464012 -6.63885e-05
0.00259314 -0.000780914 -0.000776667 -3.98608e-05
0.00260819 -0.000785465 -0.000781169 -3.98617e-05
0.00155824 -0.000472424 -0.000465349 -6.6389e-05
0.00207335 -0.000626076 -0.000620258 -5.47896e-05
0.00260066 -0.00078319 -0.000778918 -3.98613e-05
0.00208537 -0.00062973 -0.000623845 -5.47906e-05
0.00207936 -0.000627903 -0.000622052 -5.47901e-05
0.00155374 -0.000471047 -0.000464012 -6.63885e-05
0.00154475 -0.000468291 -0.000461338 -6.63873e-05
0.00257808 -0.000776364 -0.000772166 -3.98599e-05
0.00259314 -0.000780914 -0.000776667 -3.98608e-05
0.00154924 -0.000469669 -0.000462675 -6.63879e-05
0.00206132 -0.000622422 -0.000616672 -5.47885e-05
0.00258561 -0.000778639 -0.000774416 -3.98603e-05
0.00207335 -0.000626076 -0.000620258 -5.47896e-05
0.00206733 -0.000624249 -0.000618465 -5.4789e-05
0.00154475 -0.000468291 -0.000461338 -6.63873e-05
0.00153575 -0.000465536 -0.000458664 -6.63861e-05
0.00256303 -0.000771813 -0.000767664 -3.98589e-05
0.00257808 -0.000776364 -0.000772166 -3.98599e-05
0.00154025 -0.000466913 -0.000460001 -6.63867e-05
0.0020493 -0.000618768 -0.000613085 -5.47873e-05
0.00257056 -0.000774088 -0.000769915 -3.98594e-05
0.00206132 -0.000622422 -0.000616672 -5.47885e-05
0.00205531 -0.000620595 -0.000614878 -5.47879e-05
0.00153575 -0.000465536 -0.000458664 -6.63861e-05
0.00152676 -0.000462781 -0.00045599 -6.63849e-05
0.00254797 -0.000767263 -0.000763162 -3.98579e-05
0.00256303 -0.000771813 -0.000767664 -3.98589e-05
0.00153126 -0.000464158 -0.000457327 -6.63855e-05
0.00203728 -0.000615114 -0.000609498 -5.47861e-05
0.0025555 -0.000769538 -0.000765413 -3.98584e-05
0.0020493 -0.000618768 -0.000613085 -5.47873e-05
0.00204329 -0.000616941 -0.000611291 -5.47867e-05
0.00152676 -0.000462781 -0.00045599 -6.63849e-05
0.00151776 -0.000460026 -0.000453316 -6.63836e-05
0.00253292 -0.000762712 -0.00075866 -3.9857e-05
0.00254797 -0.000767263 -0.000763162 -3.98579e-05
0.00152226 -0.000461404 -0.000454653 -6.63843e-05
0.00202525 -0.00061146 -0.000605911 -5.4785e-05
0.00254045 -0.000764988 -0.000760911 -3.98575e-05
0.00203728 -0.000615114 -0.000609498 -5.47861e-05
0.00203126 -0.000613287 -0.000607704 -5.47856e-05
0.00151776 -0.000460026 -0.000453316 -6.63836e-05
0.00150877 -0.000457272 -0.000450641 -6.63824e-05
0.00251787 -0.000758162 -0.000754158 -3.98561e-05
0.00253292 -0.000762712 -0.00075866 -3.9857e-05
0.00151327 -0.000458649 -0.000451978 -6.6383e-05
0.00201323 -0.000607807 -0.000602323 -5.47838e-05
0.00252539 -0.000760437 -0.000756409 -3.98565e-05
0.00202525 -0.00061146 -0.000605911 -5.4785e-05
0.00201924 -0.000609634 -0.000604117 -5.47844e-05
0.00150877 -0.000457272 -0.000450641 -6.63824e-05
0.00149977 -0.000454518 -0.000447966 -6.63811e-05
0.00250281 -0.000753612 -0.000749656 -3.98551e-05
0.00251787 -0.000758162 -0.000754158 -3.98561e-05
0.00150427 -0.000455895 -0.000449304 -6.63818e-05
0.0020012 -0.000604154 -0.000598736 -5.47826e-05
0.00251034 -0.000755887 -0.000751907 -3.98556e-05
0.00201323 -0.000607807 -0.000602323 -5.47838e-05
0.00200722 -0.00060598 -0.000600529 -5.47832e-05
0.00149977 -0.000454518 -0.000447966 -6.63811e-05
0.00149078 -0.000451764 -0.000445291 -6.63799e-05
0.00248776 -0.000749063 -0.000745154 -3.98542e-05
0.00250281 -0.000753612 -0.000749656 -3.98551e-05
0.00149527 -0.000453141 -0.000446629 -6.63805e-05
0.00198918 -0.000600501 -0.000595148 -5.47815e-05
0.00249528 -0.000751338 -0.000747405 -3.98546e-05
0.0020012 -0.000604154 -0.000598736 -5.47826e-05
0.00199519 -0.000602327 -0.000596942 -5.47821e-05
0.00149078 -0.000451764 -0.000445291 -6.63799e-05
0.00148178 -0.00044901 -0.000442616 -6.63786e-05
0.0024727 -0.000744513 -0.000740652 -3.98532e-05
0.00248776 -0.000749063 -0.000745154 -3.98542e-05
0.00148628 -0.000450387 -0.000443953 -6.63792e-05
0.00197715 -0.000596848 -0.00059156 -5.47803e-05
0.00248023 -0.000746788 -0.000742903 -3.98537e-05
0.00198918 -0.000600501 -0.000595148 -5.47815e-05
0.00198317 -0.000598674 -0.000593354 -5.47809e-05
0.00148178 -0.00044901 -0.000442616 -6.63786e-05
0.00147278 -0.000446256 -0.00043994 -6.63773e-05
0.00245765 -0.000739964 -0.000736149 -3.98523e-05
0.0024727 -0.000744513 -0.000740652 -3.98532e-05
0.00147728 -0.000447633 -0.000441278 -6.63779e-05
0.00196513 -0.000593196 -0.000587972 -5.47791e-05
0.00246517 -0.000742238 -0.000738401 -3.98528e-05
0.00197715 -0.000596848 -0.00059156 -5.47803e-05
0.00197114 -0.000595022 -0.000589766 -5.47797e-05
0.00147278 -0.000446256 -0.00043994 -6.63773e-05
0.00146379 -0.000443503 -0.000437264 -6.6376e-05
0.00244259 -0.000735414 -0.000731647 -3.98514e-05
0.00245765 -0.000739964 -0.000736149 -3.98523e-05
0.00146828 -0.00044488 -0.000438602 -6.63767e-05
0.0019531 -0.000589543 -0.000584383 -5.4778e-05
0.00245012 -0.000737689 -0.000733898 -3.98518e-05
0.00196513 -0.000593196 -0.000587972 -5.47791e-05
0.00195912 -0.000591369 -0.000586178 -5.47785e-05
0.00146379 -0.000443503 -0.000437264 -6.6376e-05
0.00145479 -0.00044075 -0.000434588 -6.63747e-05
0.00242754 -0.000730865 -0.000727144 -3.98504e-05
0.00244259 -0.000735414 -0.000731647 -3.98514e-05
0.00145929 -0.000442127 -0.000435926 -6.63754e-05
0.00194108 -0.000585891 -0.000580795 -5.47768e-05
0.00243506 -0.00073314 -0.000729396 -3.98509e-05
0.0019531 -0.000589543 -0.000584383 -5.4778e-05
0.00194709 -0.000587717 -0.000582589 -5.47774e-05
0.00145479 -0.00044075 -0.000434588 -6.63747e-05
0.00144579 -0.000437997 -0.000431912 -6.63734e-05
0.00241248 -0.000726317 -0.000722641 -3.98495e-05
0.00242754 -0.000730865 -0.000727144 -3.98504e-05
0.00145029 -0.000439374 -0.00043325 -6.63741e-05
0.00192905 -0.000582239 -0.000577206 -5.47756e-05
0.00242001 -0.000728591 -0.000724893 -3.985e-05
0.00194108 -0.000585891 -0.000580795 -5.47768e-05
0.00193507 -0.000584065 -0.000579001 -5.47762e-05
0.00144579 -0.000437997 -0.000431912 -6.63734e-05
0.00143679 -0.000435245 -0.000429235 -6.63721e-05
0.00239742 -0.000721768 -0.000718139 -3.98485e-05
0.00241248 -0.000726317 -0.000722641 -3.98495e-05
0.00144129 -0.000436621 -0.000430573 -6.63727e-05
0.00191703 -0.000578588 -0.000573617 -5.47744e-05
0.00240495 -0.000724042 -0.00072039 -3.9849e-05
0.00192905 -0.000582239 -0.000577206 -5.47756e-05
0.00192304 -0.000580414 -0.000575412 -5.4775e-05
0.00143679 -0.000435245 -0.000429235 -6.63721e-05
0.0014278 -0.000432493 -0.000426558 -6.63707e-05
0.00238237 -0.000717219 -0.000713636 -3.98476e-05
0.00239742 -0.000721768 -0.000718139 -3.98485e-05
0.00143229 -0.000433869 -0.000427897 -6.63714e-05
0.001905 -0.000574936 -0.000570028 -5.47731e-05
0.0023899 -0.000719493 -0.000715887 -3.9848e-05
0.00191703 -0.000578588 -0.000573617 -5.47744e-05
0.00191102 -0.000576762 -0.000571823 -5.47738e-05
0.0014278 -0.000432493 -0.000426558 -6.63707e-05
0.0014188 -0.000429741 -0.000423882 -6.63694e-05
0.00236731 -0.000712671 -0.000709132 -3.98466e-05
0.00238237 -0.000717219 -0.000713636 -3.98476e-05
0.0014233 -0.000431117 -0.00042522 -6.637e-05
0.00189298 -0.000571285 -0.000566439 -5.47719e-05
0.00237484 -0.000714945 -0.000711384 -3.98471e-05
0.001905 -0.000574936 -0.000570028 -5.47731e-05
0.00189899 -0.000573111 -0.000568234 -5.47725e-05
0.0014188 -0.000429741 -0.000423882 -6.63694e-05
0.0014098 -0.000426989 -0.000421204 -6.6368e-05
0.00235226 -0.000708123 -0.000704629 -3.98456e-05
0.00236731 -0.000712671 -0.000709132 -3.98466e-05
0.0014143 -0.000428365 -0.000422543 -6.63687e-05
0.00188095 -0.000567634 -0.00056285 -5.47707e-05
0.00235979 -0.000710397 -0.000706881 -3.98461e-05
0.00189298 -0.000571285 -0.000566439 -5.47719e-05
0.00188696 -0.00056946 -0.000564645 -5.47713e-05
0.0014098 -0.000426989 -0.000421204 -6.6368e-05
0.0014008 -0.000424237 -0.000418527 -6.63666e-05
0.0023372 -0.000703575 -0.000700126 -3.98446e-05
0.00235226 -0.000708123 -0.000704629 -3.98456e-05
0.0014053 -0.000425613 -0.000419866 -6.63673e-05
0.00186892 -0.000563983 -0.00055926 -5.47694e-05
0.00234473 -0.000705849 -0.000702378 -3.98451e-05
0.00188095 -0.000567634 -0.00056285 -5.47707e-05
0.00187494 -0.000565809 -0.000561055 -5.47701e-05
0.0014008 -0.000424237 -0.000418527 -6.63666e-05
0.0013918 -0.000421486 -0.000415849 -6.63652e-05
0.00232215 -0.000699027 -0.000695622 -3.98436e-05
0.0023372 -0.000703575 -0.000700126 -3.98446e-05
0.0013963 -0.000422862 -0.000417188 -6.63659e-05
0.0018569 -0.000560333 -0.000555671 -5.47682e-05
0.00232967 -0.000701301 -0.000697874 -3.98441e-05
0.00186892 -0.000563983 -0.00055926 -5.47694e-05
0.00186291 -0.000562158 -0.000557466 -5.47688e-05
0.0013918 -0.000421486 -0.000415849 -6.63652e-05
0.0013828 -0.000418735 -0.000413171 -6.63638e-05
0.00230709 -0.000694479 -0.000691119 -3.98426e-05
0.00232215 -0.000699027 -0.000695622 -3.98436e-05
0.0013873 -0.000420111 -0.00041451 -6.63645e-05
0.00184487 -0.000556682 -0.000552081 -5.47669e-05
0.00231462 -0.000696753 -0.000693371 -3.98431e-05
0.0018569 -0.000560333 -0.000555671 -5.47682e-05
0.00185088 -0.000558508 -0.000553876 -5.47675e-05
0.0013828 -0.000418735 -0.000413171 -6.63638e-05
0.0013738 -0.000415984 -0.000410493 -6.63624e-05
0.00229203 -0.000689932 -0.000686615 -3.98416e-05
0.00230709 -0.000694479 -0.000691119 -3.98426e-05
0.0013783 -0.00041736 -0.000411832 -6.63631e-05
0.00183284 -0.000553032 -0.000548491 -5.47656e-05
0.00229956 -0.000692205 -0.000688867 -3.98421e-05
0.00184487 -0.000556682 -0.000552081 -5.47669e-05
0.00183886 -0.000554857 -0.000550286 -5.47662e-05
0.0013738 -0.000415984 -0.000410493 -6.63624e-05
0.0013648 -0.000413234 -0.000407815 -6.63609e-05
0.00227698 -0.000685384 -0.000682111 -3.98406e-05
0.00229203 -0.000689932 -0.000686615 -3.98416e-05
0.0013693 -0.000414609 -0.000409154 -6.63617e-05
0.00182082 -0.000549382 -0.000544901 -5.47643e-05
0.00228451 -0.000687658 -0.000684363 -3.98411e-05
0.00183284 -0.000553032 -0.000548491 -5.47656e-05
0.00182683 -0.000551207 -0.000546696 -5.4765e-05
0.0013648 -0.000413234 -0.000407815 -6.63609e-05
0.0013558 -0.000410484 -0.000405137 -6.63595e-05
0.00226192 -0.000680837 -0.000677608 -3.98396e-05
0.00227698 -0.000685384 -0.000682111 -3.98406e-05
0.0013603 -0.000411859 -0.000406476 -6.63602e-05
0.00180879 -0.000545733 -0.00054131 -5.4763e-05
0.00226945 -0.000683111 -0.00067986 -3.98401e-05
0.00182082 -0.000549382 -0.000544901 -5.47643e-05
0.0018148 -0.000547558 -0.000543106 -5.47637e-05
0.0013558 -0.000410484 -0.000405137 -6.63595e-05
0.0013468 -0.000407734 -0.000402458 -6.6358e-05
0.00224687 -0.00067629 -0.000673104 -3.98385e-05
0.00226192 -0.000680837 -0.000677608 -3.98396e-05
0.0013513 -0.000409109 -0.000403797 -6.63588e-05
0.00179676 -0.000542083 -0.00053772 -5.47617e-05
0.00225439 -0.000678564 -0.000675356 -3.9839e-05
0.00180879 -0.000545733 -0.00054131 -5.4763e-05
0.00180278 -0.000543908 -0.000539515 -5.47623e-05
0.0013468 -0.000407734 -0.000402458 -6.6358e-05
0.0013378 -0.000404984 -0.000399779 -6.63566e-05
0.00223181 -0.000671743 -0.0006686 -3.98375e-05
0.00224687 -0.00067629 -0.000673104 -3.98385e-05
0.0013423 -0.000406359 -0.000401118 -6.63573e-05
0.00178474 -0.000538434 -0.000534129 -5.47604e-05
0.00223934 -0.000674017 -0.000670852 -3.9838e-05
0.00179676 -0.000542083 -0.00053772 -5.47617e-05
0.00179075 -0.000540259 -0.000535924 -5.4761e-05
0.0013378 -0.000404984 -0.000399779 -6.63566e-05
0.0013288 -0.000402235 -0.0003971 -6.63551e-05
0.00221675 -0.000667197 -0.000664095 -3.98364e-05
0.00223181 -0.000671743 -0.0006686 -3.98375e-05
0.0013333 -0.000403609 -0.000398439 -6.63558e-05
0.00177271 -0.000534785 -0.000530538 -5.4759e-05
0.00222428 -0.00066947 -0.000666348 -3.98369e-05
0.00178474 -0.000538434 -0.000534129 -5.47604e-05
0.00177872 -0.00053661 -0.000532334 -5.47597e-05
0.0013288 -0.000402235 -0.0003971 -6.63551e-05
0.0013198 -0.000399485 -0.00039442 -6.63536e-05
0.0022017 -0.00066265 -0.000659591 -3.98354e-05
0.00221675 -0.000667197 -0.000664095 -3.98364e-05
0.0013243 -0.00040086 -0.00039576 -6.63543e-05
0.00176068 -0.000531136 -0.000526947 -5.47577e-05
0.00220922 -0.000664924 -0.000661843 -3.98359e-05
0.00177271 -0.000534785 -0.000530538 -5.4759e-05
0.00176669 -0.000532961 -0.000528743 -5.47584e-05
0.0013198 -0.000399485 -0.00039442 -6.63536e-05
0.0013108 -0.000396736 -0.000391741 -6.63521e-05
0.00218664 -0.000658104 -0.000655087 -3.98343e-05
0.0022017 -0.00066265 -0.000659591 -3.98354e-05
0.0013153 -0.000398111 -0.00039308 -6.63528e-05
0.00174865 -0.000527488 -0.000523356 -5.47563e-05
0.00219417 -0.000660377 -0.000657339 -3.98348e-05
0.00176068 -0.000531136 -0.000526947 -5.47577e-05
0.00175467 -0.000529312 -0.000525152 -5.4757e-05
0.0013108 -0.000396736 -0.000391741 -6.63521e-05
0.0013018 -0.000393988 -0.000389061 -6.63505e-05
0.00217158 -0.000653558 -0.000650582 -3.98332e-05
0.00218664 -0.000658104 -0.000655087 -3.98343e-05
0.0013063 -0.000395362 -0.000390401 -6.63513e-05
0.00173662 -0.00052384 -0.000519765 -5.4755e-05
0.00217911 -0.000655831 -0.000652835 -3.98338e-05
0.00174865 -0.000527488 -0.000523356 -5.47563e-05
0.00174264 -0.000525664 -0.00052156 -5.47557e-05
0.0013018 -0.000393988 -0.000389061 -6.63505e-05
0.00129279 -0.000391239 -0.000386381 -6.6349e-05
0.00215653 -0.000649012 -0.000646078 -3.98322e-05
0.00217158 -0.000653558 -0.000650582 -3.98332e-05
0.0012973 -0.000392613 -0.000387721 -6.63498e-05
0.0017246 -0.000520192 -0.000516173 -5.47536e-05
0.00216406 -0.000651285 -0.00064833 -3.98327e-05
0.00173662 -0.00052384 -0.000519765 -5.4755e-05
0.00173061 -0.000522016 -0.000517969 -5.47543e-05
0.00129279 -0.000391239 -0.000386381 -6.6349e-05
0.00128379 -0.000388491 -0.0003837 -6.63475e-05
0.00214147 -0.000644467 -0.000641573 -3.98311e-05
0.00215653 -0.000649012 -0.000646078 -3.98322e-05
0.00128829 -0.000389865 -0.000385041 -6.63483e-05
0.00171257 -0.000516544 -0.000512581 -5.47522e-05
0.002149 -0.00064674 -0.000643825 -3.98316e-05
0.0017246 -0.000520192 -0.000516173 -5.47536e-05
0.00171858 -0.000518368 -0.000514377 -5.47529e-05
0.00128379 -0.000388491 -0.0003837 -6.63475e-05
0.00127479 -0.000385743 -0.00038102 -6.63459e-05
0.00212641 -0.000639921 -0.000637068 -3.983e-05
0.00214147 -0.000644467 -0.000641573 -3.98311e-05
0.00127929 -0.000387117 -0.00038236 -6.63467e-05
0.00170054 -0.000512896 -0.00050899 -5.47508e-05
0.00213394 -0.000642194 -0.000639321 -3.98305e-05
0.00171257 -0.000516544 -0.000512581 -5.47522e-05
0.00170655 -0.00051472 -0.000510786 -5.47515e-05
0.00127479 -0.000385743 -0.00038102 -6.63459e-05
0.00126579 -0.000382995 -0.000378339 -6.63444e-05
0.00211136 -0.000635376 -0.000632563 -3.98289e-05
0.00212641 -0.000639921 -0.000637068 -3.983e-05
0.00127029 -0.000384369 -0.00037968 -6.63452e-05
0.00168851 -0.000509249 -0.000505398 -5.47495e-05
0.00211889 -0.000637649 -0.000634816 -3.98294e-05
0.00170054 -0.000512896 -0.00050899 -5.47508e-05
0.00169452 -0.000511072 -0.000507194 -5.47501e-05
0.00126579 -0.000382995 -0.000378339 -6.63444e-05
0.00125678 -0.000380248 -0.000375658 -6.63428e-05
0.0020963 -0.000630831 -0.000628058 -3.98278e-05
0.00211136 -0.000635376 -0.000632563 -3.98289e-05
0.00126129 -0.000381622 -0.000376999 -6.63436e-05
0.00167648 -0.000505602 -0.000501805 -5.47481e-05
0.00210383 -0.000633103 -0.000630311 -3.98284e-05
0.00168851 -0.000509249 -0.000505398 -5.47495e-05
0.0016825 -0.000507425 -0.000503602 -5.47488e-05
0.00125678 -0.000380248 -0.000375658 -6.63428e-05
0.00124778 -0.000377501 -0.000372977 -6.63413e-05
0.00208124 -0.000626286 -0.000623553 -3.98267e-05
0.0020963 -0.000630831 -0.000628058 -3.98278e-05
0.00125228 -0.000378874 -0.000374318 -6.6342e-05
0.00166445 -0.000501955 -0.000498213 -5.47466e-05
0.00208877 -0.000628559 -0.000625806 -3.98273e-05
0.00167648 -0.000505602 -0.000501805 -5.47481e-05
0.00167047 -0.000503778 -0.000500009 -5.47474e-05
0.00124778 -0.000377501 -0.000372977 -6.63413e-05
0.00123878 -0.000374754 -0.000370296 -6.63397e-05
0.00206619 -0.000621741 -0.000619048 -3.98256e-05
0.00208124 -0.000626286 -0.000623553 -3.98267e-05
0.00124328 -0.000376127 -0.000371637 -6.63405e-05
0.00165242 -0.000498308 -0.000494621 -5.47452e-05
0.00207372 -0.000624014 -0.000621301 -3.98262e-05
0.00166445 -0.000501955 -0.000498213 -5.47466e-05
0.00165844 -0.000500131 -0.000496417 -5.47459e-05
0.00123878 -0.000374754 -0.000370296 -6.63397e-05
0.00122977 -0.000372007 -0.000367614 -6.63381e-05
0.00205113 -0.000617197 -0.000614543 -3.98245e-05
0.00206619 -0.000621741 -0.000619048 -3.98256e-05
0.00123428 -0.000373381 -0.000368955 -6.63389e-05
0.00164039 -0.000494662 -0.000491028 -5.47438e-05
0.00205866 -0.000619469 -0.000616796 -3.9825e-05
0.00165242 -0.000498308 -0.000494621 -5.47452e-05
0.00164641 -0.000496485 -0.000492824 -5.47445e-05
0.00122977 -0.000372007 -0.000367614 -6.63381e-05
0.00122077 -0.000369261 -0.000364932 -6.63365e-05
0.00203607 -0.000612653 -0.000610038 -3.98234e-05
0.00205113 -0.000617197 -0.000614543 -3.98245e-05
0.00122527 -0.000370634 -0.000366273 -6.63373e-05
0.00162836 -0.000491015 -0.000487435 -5.47424e-05
0.0020436 -0.000614925 -0.00061229 -3.98239e-05
0.00164039 -0.000494662 -0.000491028 -5.47438e-05
0.00163438 -0.000492839 -0.000489232 -5.47431e-05
0.00122077 -0.000369261 -0.000364932 -6.63365e-05
0.00121177 -0.000366515 -0.00036225 -6.63349e-05
0.00202102 -0.000608108 -0.000605532 -3.98223e-05
0.00203607 -0.000612653 -0.000610038 -3.98234e-05
0.00121627 -0.000367888 -0.000363591 -6.63357e-05
0.00161633 -0.000487369 -0.000483842 -5.4741e-05
0.00202855 -0.00061038 -0.000607785 -3.98228e-05
0.00162836 -0.000491015 -0.000487435 -5.47424e-05
0.00162235 -0.000489192 -0.000485639 -5.47417e-05
0.00121177 -0.000366515 -0.00036225 -6.63349e-05
0.00120276 -0.000363769 -0.000359568 -6.63333e-05
0.00200596 -0.000603565 -0.000601027 -3.98211e-05
0.00202102 -0.000608108 -0.000605532 -3.98223e-05
0.00120726 -0.000365142 -0.000360909 -6.63341e-05
0.0016043 -0.000483724 -0.000480249 -5.47395e-05
0.00201349 -0.000605836 -0.00060328 -3.98217e-05
0.00161633 -0.000487369 -0.000483842 -5.4741e-05
0.00161032 -0.000485547 -0.000482046 -5.47403e-05
0.00120276 -0.000363769 -0.000359568 -6.63333e-05
0.00119376 -0.000361024 -0.000356886 -6.63317e-05
0.0019909 -0.000599021 -0.000596521 -3.982e-05
0.00200596 -0.000603565 -0.000601027 -3.98211e-05
0.00119826 -0.000362396 -0.000358227 -6.63325e-05
0.00159227 -0.000480078 -0.000476656 -5.47381e-05
0.00199843 -0.000601293 -0.000598774 -3.98206e-05
0.0016043 -0.000483724 -0.000480249 -5.47395e-05
0.00159829 -0.000481901 -0.000478452 -5.47388e-05
0.00119376 -0.000361024 -0.000356886 -6.63317e-05
0.00118475 -0.000358278 -0.000354203 -6.63301e-05
0.00197585 -0.000594477 -0.000592015 -3.98189e-05
0.0019909 -0.000599021 -0.000596521 -3.982e-05
0.00118925 -0.000359651 -0.000355545 -6.63309e-05
0.00158024 -0.000476433 -0.000473062 -5.47367e-05
0.00198337 -0.000596749 -0.000594268 -3.98194e-05
0.00159227 -0.000480078 -0.000476656 -5.47381e-05
0.00158626 -0.000478256 -0.000474859 -5.47374e-05
0.00118475 -0.000358278 -0.000354203 -6.63301e-05
0.00117575 -0.000355533 -0.00035152 -6.63285e-05
0.00196079 -0.000589934 -0.00058751 -3.98178e-05
0.00197585 -0.000594477 -0.000592015 -3.98189e-05
0.00118025 -0.000356906 -0.000352862 -6.63293e-05
0.00156821 -0.000472788 -0.000469469 -5.47352e-05
0.00196832 -0.000592206 -0.000589763 -3.98183e-05
0.00158024 -0.000476433 -0.000473062 -5.47367e-05
0.00157423 -0.00047461 -0.000471265 -5.47359e-05
0.00117575 -0.000355533 -0.00035152 -6.63285e-05
0.00116674 -0.000352788 -0.000348837 -6.63268e-05
0.00194573 -0.000585391 -0.000583004 -3.98166e-05
0.00196079 -0.000589934 -0.00058751 -3.98178e-05
0.00117124 -0.000354161 -0.000350179 -6.63276e-05
0.00155618 -0.000469143 -0.000465875 -5.47338e-05
0.00195326 -0.000587662 -0.000585257 -3.98172e-05
0.00156821 -0.000472788 -0.000469469 -5.47352e-05
0.0015622 -0.000470965 -0.000467672 -5.47345e-05
0.00116674 -0.000352788 -0.000348837 -6.63268e-05
0.00115774 -0.000350044 -0.000346154 -6.63252e-05
0.00193068 -0.000580848 -0.000578498 -3.98155e-05
0.00194573 -0.000585391 -0.000583004 -3.98166e-05
0.00116224 -0.000351416 -0.000347496 -6.6326e-05
0.00154415 -0.000465499 -0.000462281 -5.47323e-05
0.0019382 -0.000583119 -0.000580751 -3.9816e-05
0.00155618 -0.000469143 -0.000465875 -5.47338e-05
0.00155017 -0.000467321 -0.000464078 -5.4733e-05
0.00115774 -0.000350044 -0.000346154 -6.63252e-05
0.00114873 -0.0003473 -0.00034347 -6.63236e-05
0.00191562 -0.000576305 -0.000573992 -3.98143e-05
0.00193068 -0.000580848 -0.000578498 -3.98155e-05
0.00115323 -0.000348672 -0.000344812 -6.63244e-05
0.00153212 -0.000461854 -0.000458687 -5.47308e-05
0.00192315 -0.000578576 -0.000576245 -3.98149e-05
0.00154415 -0.000465499 -0.000462281 -5.47323e-05
0.00153814 -0.000463676 -0.000460484 -5.47316e-05
0.00114873 -0.0003473 -0.00034347 -6.63236e-05
0.00113972 -0.000344556 -0.000340787 -6.63219e-05
0.00190056 -0.000571762 -0.000569485 -3.98132e-05
0.00191562 -0.000576305 -0.000573992 -3.98143e-05
0.00114423 -0.000345928 -0.000342129 -6.63227e-05
0.00152009 -0.00045821 -0.000455093 -5.47294e-05
0.00190809 -0.000574034 -0.000571739 -3.98138e-05
0.00153212 -0.000461854 -0.000458687 -5.47308e-05
0.00152611 -0.000460032 -0.00045689 -5.47301e-05
0.00113972 -0.000344556 -0.000340787 -6.63219e-05
0.00113072 -0.000341812 -0.000338103 -6.63203e-05
0.0018855 -0.00056722 -0.000564979 -3.98121e-05
0.00190056 -0.000571762 -0.000569485 -3.98132e-05
0.00113522 -0.000343184 -0.000339445 -6.63211e-05
0.00150806 -0.000454566 -0.000451498 -5.47279e-05
0.00189303 -0.000569491 -0.000567232 -3.98126e-05
0.00152009 -0.00045821 -0.000455093 -5.47294e-05
0.00151408 -0.000456388 -0.000453295 -5.47287e-05
0.00113072 -0.000341812 -0.000338103 -6.63203e-05
0.00112171 -0.000339068 -0.000335419 -6.63186e-05
0.00187045 -0.000562678 -0.000560473 -3.98109e-05
0.0018855 -0.00056722 -0.000564979 -3.98121e-05
0.00112622 -0.00034044 -0.000336761 -6.63195e-05
0.00149603 -0.000450923 -0.000447904 -5.47265e-05
0.00187798 -0.000564949 -0.000562726 -3.98115e-05
0.00150806 -0.000454566 -0.000451498 -5.47279e-05
0.00150205 -0.000452744 -0.000449701 -5.47272e-05
0.00112171 -0.000339068 -0.000335419 -6.63186e-05
0.00111271 -0.000336325 -0.000332734 -6.6317e-05
0.00185539 -0.000558136 -0.000555966 -3.98098e-05
0.00187045 -0.000562678 -0.000560473 -3.98109e-05
0.00111721 -0.000337697 -0.000334077 -6.63178e-05
0.001484 -0.000447279 -0.000444309 -5.4725e-05
0.00186292 -0.000560407 -0.00055822 -3.98103e-05
0.00149603 -0.000450923 -0.000447904 -5.47265e-05
0.00149002 -0.000449101 -0.000446106 -5.47257e-05
0.00111271 -0.000336325 -0.000332734 -6.6317e-05
0.0011037 -0.000333582 -0.00033005 -6.63153e-05
0.00184033 -0.000553594 -0.00055146 -3.98086e-05
0.00185539 -0.000558136 -0.000555966 -3.98098e-05
0.0011082 -0.000334954 -0.000331392 -6.63162e-05
0.00147197 -0.000443636 -0.000440714 -5.47235e-05
0.00184786 -0.000555865 -0.000553713 -3.98092e-05
0.001484 -0.000447279 -0.000444309 -5.4725e-05
0.00147798 -0.000445458 -0.000442511 -5.47243e-05
0.0011037 -0.000333582 -0.00033005 -6.63153e-05
0.00109469 -0.00033084 -0.000327365 -6.63137e-05
0.00182528 -0.000549052 -0.000546953 -3.98075e-05
0.00184033 -0.000553594 -0.00055146 -3.98086e-05
0.00109919 -0.000332211 -0.000328707 -6.63145e-05
0.00145994 -0.000439993 -0.000437119 -5.4722e-05
0.00183281 -0.000551323 -0.000549207 -3.9808e-05
0.00147197 -0.000443636 -0.000440714 -5.47235e-05
0.00146595 -0.000441815 -0.000438917 -5.47228e-05
0.00109469 -0.00033084 -0.000327365 -6.63137e-05
0.00108568 -0.000328097 -0.00032468 -6.6312e-05
0.00181022 -0.000544511 -0.000542447 -3.98063e-05
0.00182528 -0.000549052 -0.000546953 -3.98075e-05
0.00109019 -0.000329468 -0.000326022 -6.63129e-05
0.00144791 -0.00043635 -0.000433524 -5.47206e-05
0.00181775 -0.000546782 -0.0005447 -3.98069e-05
0.00145994 -0.000439993 -0.000437119 -5.4722e-05
0.00145392 -0.000438172 -0.000435321 -5.47213e-05
0.00108568 -0.000328097 -0.00032468 -6.6312e-05
0.00107668 -0.000325355 -0.000321995 -6.63104e-05
0.00179516 -0.00053997 -0.00053794 -3.98052e-05
0.00181022 -0.000544511 -0.000542447 -3.98063e-05
0.00108118 -0.000326726 -0.000323337 -6.63112e-05
0.00143587 -0.000432708 -0.000429928 -5.47191e-05
0.00180269 -0.00054224 -0.000540193 -3.98057e-05
0.00144791 -0.00043635 -0.000433524 -5.47206e-05
0.00144189 -0.000434529 -0.000431726 -5.47198e-05
0.00107668 -0.000325355 -0.000321995 -6.63104e-05
0.00106767 -0.000322613 -0.000319309 -6.63087e-05
0.00178011 -0.000535429 -0.000533433 -3.9804e-05
0.00179516 -0.00053997 -0.00053794 -3.98052e-05
0.00107217 -0.000323984 -0.000320652 -6.63096e-05
0.00142384 -0.000429066 -0.000426333 -5.47176e-05
0.00178763 -0.000537699 -0.000535686 -3.98046e-05
0.00143587 -0.000432708 -0.000429928 -5.47191e-05
0.00142986 -0.000430887 -0.000428131 -5.47184e-05
0.00106767 -0.000322613 -0.000319309 -6.63087e-05
0.00105866 -0.000319872 -0.000316624 -6.63071e-05
0.00176505 -0.000530888 -0.000528926 -3.98028e-05
0.00178011 -0.000535429 -0.000533433 -3.9804e-05
0.00106316 -0.000321242 -0.000317967 -6.63079e-05
0.00141181 -0.000425424 -0.000422737 -5.47161e-05
0.00177258 -0.000533158 -0.000531179 -3.98034e-05
0.00142384 -0.000429066 -0.000426333 -5.47176e-05
0.00141783 -0.000427245 -0.000424535 -5.47169e-05
0.00105866 -0.000319872 -0.000316624 -6.63071e-05
0.00104965 -0.00031713 -0.000313938 -6.63054e-05
0.00174999 -0.000526347 -0.000524419 -3.98017e-05
0.00176505 -0.000530888 -0.000528926 -3.98028e-05
0.00105416 -0.000318501 -0.000315281 -6.63062e-05
0.00139978 -0.000421782 -0.000419141 -5.47147e-05
0.00175752 -0.000528618 -0.000526672 -3.98023e-05
0.00141181 -0.000425424 -0.000422737 -5.47161e-05
0.00140579 -0.000423603 -0.000420939 -5.47154e-05
0.00104965 -0.00031713 -0.000313938 -6.63054e-05
0.00104064 -0.000314389 -0.000311252 -6.63037e-05
0.00173493 -0.000521807 -0.000519912 -3.98005e-05
0.00174999 -0.000526347 -0.000524419 -3.98017e-05
0.00104515 -0.00031576 -0.000312595 -6.63046e-05
0.00138775 -0.000418141 -0.000415545 -5.47132e-05
0.00174246 -0.000524077 -0.000522165 -3.98011e-05
0.00139978 -0.000421782 -0.000419141 -5.47147e-05
0.00139376 -0.000419961 -0.000417343 -5.47139e-05
0.00104064 -0.000314389 -0.000311252 -6.63037e-05
0.00103163 -0.000311648 -0.000308566 -6.63021e-05
0.00171988 -0.000517267 -0.000515404 -3.97994e-05
0.00173493 -0.000521807 -0.000519912 -3.98005e-05
0.00103614 -0.000313019 -0.000309909 -6.63029e-05
0.00137571 -0.000414499 -0.000411949 -5.47117e-05
0.00172741 -0.000519537 -0.000517658 -3.98e-05
0.00138775 -0.000418141 -0.000415545 -5.47132e-05
0.00138173 -0.00041632 -0.000413747 -5.47124e-05
0.00103163 -0.000311648 -0.000308566 -6.63021e-05
0.00102263 -0.000308908 -0.000305879 -6.63004e-05
0.00170482 -0.000512727 -0.000510897 -3.97982e-05
0.00171988 -0.000517267 -0.000515404 -3.97994e-05
0.00102713 -0.000310278 -0.000307222 -6.63013e-05
0.00136368 -0.000410858 -0.000408353 -5.47102e-05
0.00171235 -0.000514997 -0.000513151 -3.97988e-05
0.00137571 -0.000414499 -0.000411949 -5.47117e-05
0.0013697 -0.000412679 -0.000410151 -5.4711e-05
0.00102263 -0.000308908 -0.000305879 -6.63004e-05
0.00101362 -0.000306167 -0.000303192 -6.62988e-05
0.00168976 -0.000508187 -0.00050639 -3.97971e-05
0.00170482 -0.000512727 -0.000510897 -3.97982e-05
0.00101812 -0.000307538 -0.000304536 -6.62996e-05
0.00135165 -0.000407218 -0.000404757 -5.47087e-05
0.00169729 -0.000510457 -0.000508643 -3.97976e-05
0.00136368 -0.000410858 -0.000408353 -5.47102e-05
0.00135767 -0.000409038 -0.000406555 -5.47095e-05
0.00101362 -0.000306167 -0.000303192 -6.62988e-05
0.00100461 -0.000303427 -0.000300506 -6.62971e-05
0.00167471 -0.000503647 -0.000501882 -3.97959e-05
0.00168976 -0.000508187 -0.00050639 -3.97971e-05
0.00100911 -0.000304797 -0.000301849 -6.62979e-05
0.00133962 -0.000403577 -0.00040116 -5.47073e-05
0.00168223 -0.000505917 -0.000504136 -3.97965e-05
0.00135165 -0.000407218 -0.000404757 -5.47087e-05
0.00134563 -0.000405397 -0.000402958 -5.4708e-05
0.00100461 -0.000303427 -0.000300506 -6.62971e-05
0.000995597 -0.000300688 -0.000297818 -6.62954e-05
0.00165965 -0.000499108 -0.000497374 -3.97948e-05
0.00167471 -0.000503647 -0.000501882 -3.97959e-05
0.0010001 -0.000302058 -0.000299162 -6.62963e-05
0.00132758 -0.000399937 -0.000397563 -5.47058e-05
0.00166718 -0.000501378 -0.000499628 -3.97953e-05
0.00133962 -0.000403577 -0.00040116 -5.47073e-05
0.0013336 -0.000401757 -0.000399362 -5.47065e-05
0.000995597 -0.000300688 -0.000297818 -6.62954e-05
0.000986587 -0.000297948 -0.000295131 -6.62938e-05
0.00164459 -0.000494569 -0.000492867 -3.97936e-05
0.00165965 -0.000499108 -0.000497374 -3.97948e-05
0.000991092 -0.000299318 -0.000296475 -6.62946e-05
0.00131555 -0.000396297 -0.000393966 -5.47043e-05
0.00165212 -0.000496838 -0.000495121 -3.97942e-05
0.00132758 -0.000399937 -0.000397563 -5.47058e-05
0.00132157 -0.000398117 -0.000395765 -5.4705e-05
0.000986587 -0.000297948 -0.000295131 -6.62938e-05
0.000977577 -0.000295209 -0.000292444 -6.62921e-05
0.00162953 -0.00049003 -0.000488359 -3.97925e-05
0.00164459 -0.000494569 -0.000492867 -3.97936e-05
0.000982082 -0.000296579 -0.000293787 -6.6293e-05
0.00130352 -0.000392657 -0.000390369 -5.47028e-05
0.00163706 -0.000492299 -0.000490613 -3.9793e-05
0.00131555 -0.000396297 -0.000393966 -5.47043e-05
0.00130953 -0.000394477 -0.000392168 -5.47036e-05
0.000977577 -0.000295209 -0.000292444 -6.62921e-05
0.000968567 -0.00029247 -0.000289756 -6.62905e-05
0.00161448 -0.000485491 -0.000483851 -3.97913e-05
0.00162953 -0.00049003 -0.000488359 -3.97925e-05
0.000973072 -0.000293839 -0.0002911 -6.62913e-05
0.00129149 -0.000389017 -0.000386772 -5.47014e-05
0.00162201 -0.00048776 -0.000486105 -3.97919e-05
0.00130352 -0.000392657 -0.000390369 -5.47028e-05
0.0012975 -0.000390837 -0.000388571 -5.47021e-05
0.000968567 -0.00029247 -0.000289756 -6.62905e-05
0.000959556 -0.000289731 -0.000287068 -6.62888e-05
0.00159942 -0.000480952 -0.000479343 -3.97902e-05
0.00161448 -0.000485491 -0.000483851 -3.97913e-05
0.000964061 -0.000291101 -0.000288412 -6.62897e-05
0.00127945 -0.000385378 -0.000383175 -5.46999e-05
0.00160695 -0.000483221 -0.000481597 -3.97907e-05
0.00129149 -0.000389017 -0.000386772 -5.47014e-05
0.00128547 -0.000387197 -0.000384973 -5.47006e-05
0.000959556 -0.000289731 -0.000287068 -6.62888e-05
0.000950545 -0.000286993 -0.00028438 -6.62872e-05
0.00158436 -0.000476414 -0.000474835 -3.9789e-05
0.00159942 -0.000480952 -0.000479343 -3.97902e-05
0.000955051 -0.000288362 -0.000285724 -6.6288e-05
0.00126742 -0.000381739 -0.000379577 -5.46984e-05
0.00159189 -0.000478683 -0.000477089 -3.97896e-05
0.00127945 -0.000385378 -0.000383175 -5.46999e-05
0.00127344 -0.000383558 -0.000381376 -5.46992e-05
0.000950545 -0.000286993 -0.00028438 -6.62872e-05
0.000941534 -0.000284255 -0.000281691 -6.62855e-05
0.0015693 -0.000471875 -0.000470327 -3.97879e-05
0.00158436 -0.000476414 -0.000474835 -3.9789e-05
0.00094604 -0.000285624 -0.000283035 -6.62864e-05
0.00125538 -0.0003781 -0.000375979 -5.46969e-05
0.00157683 -0.000474145 -0.000472581 -3.97884e-05
0.00126742 -0.000381739 -0.000379577 -5.46984e-05
0.0012614 -0.000379919 -0.000377778 -5.46977e-05
0.000941534 -0.000284255 -0.000281691 -6.62855e-05
0.000932523 -0.000281517 -0.000279003 -6.62839e-05
0.00155425 -0.000467337 -0.000465819 -3.97867e-05
0.0015693 -0.000471875 -0.000470327 -3.97879e-05
0.000937029 -0.000282886 -0.000280347 -6.62847e-05
0.00124335 -0.000374461 -0.000372382 -5.46955e-05
0.00156178 -0.000469606 -0.000468073 -3.97873e-05
0.00125538 -0.0003781 -0.000375979 -5.46969e-05
0.00124937 -0.00037628 -0.00037418 -5.46962e-05
0.000932523 -0.000281517 -0.000279003 -6.62839e-05
0.000923511 -0.000278779 -0.000276314 -6.62822e-05
0.00153919 -0.000462799 -0.00046131 -3.97856e-05
0.00155425 -0.000467337 -0.000465819 -3.97867e-05
0.000928017 -0.000280148 -0.000277658 -6.62831e-05
0.00123132 -0.000370823 -0.000368784 -5.4694e-05
0.00154672 -0.000465068 -0.000463564 -3.97861e-05
0.00124335 -0.000374461 -0.000372382 -5.46955e-05
0.00123733 -0.000372642 -0.000370583 -5.46948e-05
0.000923511 -0.000278779 -0.000276314 -6.62822e-05
0.000914499 -0.000276042 -0.000273625 -6.62806e-05
0.00152413 -0.000458262 -0.000456802 -3.97844e-05
0.00153919 -0.000462799 -0.00046131 -3.97856e-05
0.000919005 -0.00027741 -0.000274969 -6.62814e-05
0.00121928 -0.000367184 -0.000365185 -5.46926e-05
0.00153166 -0.000460531 -0.000459056 -3.9785e-05
0.00123132 -0.000370823 -0.000368784 -5.4694e-05
0.0012253 -0.000369004 -0.000366984 -5.46933e-05
0.000914499 -0.000276042 -0.000273625 -6.62806e-05
0.000905487 -0.000273304 -0.000270936 -6.6279e-05
0.00150908 -0.000453724 -0.000452293 -3.97833e-05
0.00152413 -0.000458262 -0.000456802 -3.97844e-05
0.000909993 -0.000274673 -0.00027228 -6.62798e-05
0.00120725 -0.000363546 -0.000361587 -5.46911e-05
0.0015166 -0.000455993 -0.000454548 -3.97839e-05
0.00121928 -0.000367184 -0.000365185 -5.46926e-05
0.00121327 -0.000365365 -0.000363386 -5.46918e-05
0.000905487 -0.000273304 -0.000270936 -6.6279e-05
0.000896475 -0.000270568 -0.000268246 -6.62773e-05
0.00149402 -0.000449187 -0.000447785 -3.97822e-05
0.00150908 -0.000453724 -0.000452293 -3.97833e-05
0.000900981 -0.000271936 -0.000269591 -6.62782e-05
0.00119522 -0.000359909 -0.000357989 -5.46896e-05
0.00150155 -0.000451456 -0.000450039 -3.97827e-05
0.00120725 -0.000363546 -0.000361587 -5.46911e-05
0.00120123 -0.000361728 -0.000359788 -5.46904e-05
0.000896475 -0.000270568 -0.000268246 -6.62773e-05
0.000887463 -0.000267831 -0.000265556 -6.62757e-05
0.00147896 -0.00044465 -0.000443276 -3.9781e-05
0.00149402 -0.000449187 -0.000447785 -3.97822e-05
0.000891969 -0.000269199 -0.000266901 -6.62765e-05
0.00118318 -0.000356271 -0.00035439 -5.46882e-05
0.00148649 -0.000446918 -0.00044553 -3.97816e-05
0.00119522 -0.000359909 -0.000357989 -5.46896e-05
0.0011892 -0.00035809 -0.000356189 -5.46889e-05
0.000887463 -0.000267831 -0.000265556 -6.62757e-05
0.00087845 -0.000265095 -0.000262867 -6.62741e-05
0.0014639 -0.000440113 -0.000438767 -3.97799e-05
0.00147896 -0.00044465 -0.000443276 -3.9781e-05
0.000882956 -0.000266463 -0.000264212 -6.62749e-05
0.00117115 -0.000352634 -0.000350791 -5.46867e-05
0.00147143 -0.000442381 -0.000441022 -3.97804e-05
0.00118318 -0.000356271 -0.00035439 -5.46882e-05
0.00117716 -0.000354453 -0.00035259 -5.46875e-05
0.00087845 -0.000265095 -0.000262867 -6.62741e-05
0.000869437 -0.000262359 -0.000260176 -6.62725e-05
0.00144885 -0.000435576 -0.000434258 -3.97788e-05
0.0014639 -0.000440113 -0.000438767 -3.97799e-05
0.000873943 -0.000263727 -0.000261522 -6.62733e-05
0.00115911 -0.000348997 -0.000347192 -5.46853e-05
0.00145637 -0.000437845 -0.000436513 -3.97793e-05
0.00117115 -0.000352634 -0.000350791 -5.46867e-05
0.00116513 -0.000350816 -0.000348992 -5.4686e-05
0.000869437 -0.000262359 -0.000260176 -6.62725e-05
0.000860424 -0.000259623 -0.000257486 -6.62709e-05
0.00143379 -0.00043104 -0.000429749 -3.97776e-05
0.00144885 -0.000435576 -0.000434258 -3.97788e-05
0.00086493 -0.000260991 -0.000258831 -6.62717e-05
0.00114708 -0.00034536 -0.000343593 -5.46839e-05
0.00144132 -0.000433308 -0.000432004 -3.97782e-05
0.00115911 -0.000348997 -0.000347192 -5.46853e-05
0.00115309 -0.000347179 -0.000345393 -5.46846e-05
0.000860424 -0.000259623 -0.000257486 -6.62709e-05
0.00085141 -0.000256887 -0.000254796 -6.62693e-05
0.00141873 -0.000426504 -0.00042524 -3.97765e-05
0.00143379 -0.00043104 -0.000429749 -3.97776e-05
0.000855917 -0.000258255 -0.000256141 -6.62701e-05
0.00113504 -0.000341724 -0.000339994 -5.46824e-05
0.00142626 -0.000428772 -0.000427495 -3.97771e-05
0.00114708 -0.00034536 -0.000343593 -5.46839e-05
0.00114106 -0.000343542 -0.000341793 -5.46831e-05
0.00085141 -0.000256887 -0.000254796 -6.62693e-05
0.000842397 -0.000254152 -0.000252105 -6.62677e-05
0.00140367 -0.000421967 -0.000420731 -3.97754e-05
0.00141873 -0.000426504 -0.00042524 -3.97765e-05
0.000846903 -0.000255519 -0.00025345 -6.62685e-05
0.00112301 -0.000338087 -0.000336394 -5.4681e-05
0.0014112 -0.000424235 -0.000422986 -3.97759e-05
0.00113504 -0.000341724 -0.000339994 -5.46824e-05
0.00112902 -0.000339906 -0.000338194 -5.46817e-05
0.000842397 -0.000254152 -0.000252105 -6.62677e-05
0.000833383 -0.000251417 -0.000249414 -6.62661e-05
0.00138862 -0.000417432 -0.000416222 -3.97743e-05
0.00140367 -0.000421967 -0.000420731 -3.97754e-05
0.00083789 -0.000252784 -0.000250759 -6.62669e-05
0.00111097 -0.000334451 -0.000332795 -5.46796e-05
0.00139614 -0.000419699 -0.000418476 -3.97748e-05
0.00112301 -0.000338087 -0.000336394 -5.4681e-05
0.00111699 -0.000336269 -0.000334594 -5.46803e-05
0.000833383 -0.000251417 -0.000249414 -6.62661e-05
0.000824368 -0.000248682 -0.000246723 -6.62645e-05
0.00137356 -0.000412896 -0.000411712 -3.97732e-05
0.00138862 -0.000417432 -0.000416222 -3.97743e-05
0.000828876 -0.000250049 -0.000248068 -6.62653e-05
0.00109894 -0.000330815 -0.000329195 -5.46782e-05
0.00138109 -0.000415164 -0.000413967 -3.97737e-05
0.00111097 -0.000334451 -0.000332795 -5.46796e-05
0.00110495 -0.000332633 -0.000330995 -5.46789e-05
0.000824368 -0.000248682 -0.000246723 -6.62645e-05
0.000815354 -0.000245948 -0.000244031 -6.62629e-05
0.0013585 -0.00040836 -0.000407203 -3.9772e-05
0.00137356 -0.000412896 -0.000411712 -3.97732e-05
0.000819861 -0.000247315 -0.000245377 -6.62637e-05
0.0010869 -0.00032718 -0.000325595 -5.46767e-05
0.00136603 -0.000410628 -0.000409458 -3.97726e-05
0.00109894 -0.000330815 -0.000329195 -5.46782e-05
0.00109292 -0.000328998 -0.000327395 -5.46774e-05
0.000815354 -0.000245948 -0.000244031 -6.62629e-05
0.000806339 -0.000243213 -0.00024134 -6.62613e-05
0.00134344 -0.000403825 -0.000402693 -3.97709e-05
0.0013585 -0.00040836 -0.000407203 -3.9772e-05
0.000810847 -0.00024458 -0.000242686 -6.62621e-05
0.00107487 -0.000323544 -0.000321995 -5.46753e-05
0.00135097 -0.000406093 -0.000404948 -3.97715e-05
0.0010869 -0.00032718 -0.000325595 -5.46767e-05
0.00108088 -0.000325362 -0.000323795 -5.4676e-05
0.000806339 -0.000243213 -0.00024134 -6.62613e-05
0.000797325 -0.000240479 -0.000238648 -6.62597e-05
0.00132838 -0.00039929 -0.000398184 -3.97698e-05
0.00134344 -0.000403825 -0.000402693 -3.97709e-05
0.000801832 -0.000241846 -0.000239994 -6.62605e-05
0.00106283 -0.000319909 -0.000318395 -5.46739e-05
0.00133591 -0.000401557 -0.000400439 -3.97704e-05
0.00107487 -0.000323544 -0.000321995 -5.46753e-05
0.00106885 -0.000321727 -0.000320195 -5.46746e-05
0.000797325 -0.000240479 -0.000238648 -6.62597e-05
0.000788309 -0.000237746 -0.000235956 -6.62582e-05
0.00131333 -0.000394755 -0.000393674 -3.97687e-05
0.00132838 -0.00039929 -0.000398184 -3.97698e-05
0.000792817 -0.000239112 -0.000237302 -6.6259e-05
0.00105079 -0.000316274 -0.000314794 -5.46725e-05
0.00132086 -0.000397022 -0.000395929 -3.97693e-05
0.00106283 -0.000319909 -0.000318395 -5.46739e-05
0.00105681 -0.000318092 -0.000316594 -5.46732e-05
0.000788309 -0.000237746 -0.000235956 -6.62582e-05
0.000779294 -0.000235012 -0.000233264 -6.62566e-05
0.00129827 -0.00039022 -0.000389164 -3.97676e-05
0.00131333 -0.000394755 -0.000393674 -3.97687e-05
0.000783802 -0.000236379 -0.00023461 -6.62574e-05
0.00103876 -0.00031264 -0.000311194 -5.46711e-05
0.0013058 -0.000392487 -0.000391419 -3.97682e-05
0.00105079 -0.000316274 -0.000314794 -5.46725e-05
0.00104478 -0.000314457 -0.000312994 -5.46718e-05
0.000779294 -0.000235012 -0.000233264 -6.62566e-05
0.000770278 -0.000232279 -0.000230571 -6.62551e-05
0.00128321 -0.000385685 -0.000384654 -3.97666e-05
0.00129827 -0.00039022 -0.000389164 -3.97676e-05
0.000774786 -0.000233645 -0.000231917 -6.62558e-05
0.00102672 -0.000309005 -0.000307593 -5.46697e-05
0.00129074 -0.000387953 -0.000386909 -3.97671e-05
0.00103876 -0.00031264 -0.000311194 -5.46711e-05
0.00103274 -0.000310822 -0.000309393 -5.46704e-05
0.000770278 -0.000232279 -0.000230571 -6.62551e-05
0.000761262 -0.000229546 -0.000227879 -6.62535e-05
0.00126815 -0.000381151 -0.000380144 -3.97655e-05
0.00128321 -0.000385685 -0.000384654 -3.97666e-05
0.00076577 -0.000230912 -0.000229225 -6.62543e-05
0.00101469 -0.000305371 -0.000303992 -5.46684e-05
0.00127568 -0.000383418 -0.000382399 -3.9766e-05
0.00102672 -0.000309005 -0.000307593 -5.46697e-05
0.0010207 -0.000307188 -0.000305792 -5.4669e-05
0.000761262 -0.000229546 -0.000227879 -6.62535e-05
0.000752246 -0.000226813 -0.000225186 -6.6252e-05
0.0012531 -0.000376617 -0.000375634 -3.97644e-05
0.00126815 -0.000381151 -0.000380144 -3.97655e-05
0.000756754 -0.000228179 -0.000226532 -6.62528e-05
0.00100265 -0.000301737 -0.000300391 -5.4667e-05
0.00126062 -0.000378884 -0.000377889 -3.97649e-05
0.00101469 -0.000305371 -0.000303992 -5.46684e-05
0.00100867 -0.000303554 -0.000302191 -5.46677e-05
0.000752246 -0.000226813 -0.000225186 -6.6252e-05
0.00074323 -0.000224081 -0.000222493 -6.62505e-05
0.00123804 -0.000372083 -0.000371124 -3.97633e-05
0.0012531 -0.000376617 -0.000375634 -3.97644e-05
0.000747738 -0.000225447 -0.000223839 -6.62512e-05
0.000990613 -0.000298103 -0.00029679 -5.46656e-05
0.00124557 -0.00037435 -0.000373379 -3.97639e-05
0.00100265 -0.000301737 -0.000300391 -5.4667e-05
0.000996631 -0.00029992 -0.00029859 -5.46663e-05
0.00074323 -0.000224081 -0.000222493 -6.62505e-05
0.000734213 -0.000221349 -0.000219799 -6.6249e-05
0.00122298 -0.000367549 -0.000366613 -3.97622e-05
0.00123804 -0.000372083 -0.000371124 -3.97633e-05
0.000738722 -0.000222715 -0.000221146 -6.62497e-05
0.000978576 -0.00029447 -0.000293188 -5.46642e-05
0.00123051 -0.000369816 -0.000368869 -3.97628e-05
0.000990613 -0.000298103 -0.00029679 -5.46656e-05
0.000984594 -0.000296286 -0.000294989 -5.46649e-05
0.000734213 -0.000221349 -0.000219799 -6.6249e-05
0.000725196 -0.000218617 -0.000217106 -6.62474e-05
0.00120792 -0.000363015 -0.000362103 -3.97612e-05
0.00122298 -0.000367549 -0.000366613 -3.97622e-05
0.000729705 -0.000219983 -0.000218452 -6.62482e-05
0.000966539 -0.000290836 -0.000289587 -5.46629e-05
0.00121545 -0.000365282 -0.000364358 -3.97617e-05
0.000978576 -0.00029447 -0.000293188 -5.46642e-05
0.000972557 -0.000292653 -0.000291388 -5.46636e-05
0.000725196 -0.000218617 -0.000217106 -6.62474e-05
0.000716179 -0.000215885 -0.000214412 -6.62459e-05
0.00119286 -0.000358482 -0.000357592 -3.97601e-05
0.00120792 -0.000363015 -0.000362103 -3.97612e-05
0.000720688 -0.000217251 -0.000215759 -6.62467e-05
0.000954502 -0.000287203 -0.000285985 -5.46615e-05
0.00120039 -0.000360748 -0.000359848 -3.97607e-05
0.000966539 -0.000290836 -0.000289587 -5.46629e-05
0.00096052 -0.00028902 -0.000287786 -5.46622e-05
0.000716179 -0.000215885 -0.000214412 -6.62459e-05
0.000707162 -0.000213154 -0.000211718 -6.62444e-05
0.00117781 -0.000353948 -0.000353082 -3.97591e-05
0.00119286 -0.000358482 -0.000357592 -3.97601e-05
0.000711671 -0.000214519 -0.000213065 -6.62452e-05
0.000942465 -0.00028357 -0.000282383 -5.46602e-05
0.00118534 -0.000356215 -0.000355337 -3.97596e-05
0.000954502 -0.000287203 -0.000285985 -5.46615e-05
0.000948483 -0.000285387 -0.000284184 -5.46609e-05
0.000707162 -0.000213154 -0.000211718 -6.62444e-05
0.000698144 -0.000210422 -0.000209024 -6.6243e-05
0.00116275 -0.000349415 -0.000348571 -3.9758e-05
0.00117781 -0.000353948 -0.000353082 -3.97591e-05
0.000702653 -0.000211788 -0.000210371 -6.62437e-05
0.000930427 -0.000279938 -0.000278781 -5.46589e-05
0.00117028 -0.000351682 -0.000350826 -3.97585e-05
0.000942465 -0.00028357 -0.000282383 -5.46602e-05
0.000936446 -0.000281754 -0.000280582 -5.46595e-05
0.000698144 -0.000210422 -0.000209024 -6.6243e-05
0.000689126 -0.000207691 -0.000206329 -6.62415e-05
0.00114769 -0.000344882 -0.00034406 -3.9757e-05
0.00116275 -0.000349415 -0.000348571 -3.9758e-05
0.000693635 -0.000209057 -0.000207676 -6.62422e-05
0.00091839 -0.000276305 -0.000275179 -5.46575e-05
0.00115522 -0.000347149 -0.000346316 -3.97575e-05
0.000930427 -0.000279938 -0.000278781 -5.46589e-05
0.000924408 -0.000278122 -0.00027698 -5.46582e-05
0.000689126 -0.000207691 -0.000206329 -6.62415e-05
0.000680108 -0.000204961 -0.000203635 -6.624e-05
0.00113263 -0.00034035 -0.000339549 -3.97559e-05
0.00114769 -0.000344882 -0.00034406 -3.9757e-05
0.000684617 -0.000206326 -0.000204982 -6.62407e-05
0.000906352 -0.000272673 -0.000271577 -5.46562e-05
0.00114016 -0.000342616 -0.000341805 -3.97565e-05
0.00091839 -0.000276305 -0.000275179 -5.46575e-05
0.000912371 -0.000274489 -0.000273378 -5.46569e-05
0.000680108 -0.000204961 -0.000203635 -6.624e-05
0.00067109 -0.00020223 -0.00020094 -6.62386e-05
0.00111757 -0.000335817 -0.000335038 -3.97549e-05
0.00113263 -0.00034035 -0.000339549 -3.97559e-05
0.000675599 -0.000203596 -0.000202287 -6.62393e-05
0.000894314 -0.000269041 -0.000267974 -5.46549e-05
0.0011251 -0.000338083 -0.000337294 -3.97554e-05
0.000906352 -0.000272673 -0.000271577 -5.46562e-05
0.000900333 -0.000270857 -0.000269775 -5.46556e-05
0.00067109 -0.00020223 -0.00020094 -6.62386e-05
0.000662071 -0.0001995 -0.000198245 -6.62371e-05
0.00110251 -0.000331285 -0.000330527 -3.97539e-05
0.00111757 -0.000335817 -0.000335038 -3.97549e-05
0.000666581 -0.000200865 -0.000199592 -6.62378e-05
0.000882276 -0.00026541 -0.000264371 -5.46536e-05
0.00111004 -0.000333551 -0.000332783 -3.97544e-05
0.000894314 -0.000269041 -0.000267974 -5.46549e-05
0.000888295 -0.000267225 -0.000266173 -5.46543e-05
0.000662071 -0.0001995 -0.000198245 -6.62371e-05
0.000653052 -0.00019677 -0.000195549 -6.62357e-05
0.00108746 -0.000326753 -0.000326016 -3.97529e-05
0.00110251 -0.000331285 -0.000330527 -3.97539e-05
0.000657562 -0.000198135 -0.000196897 -6.62364e-05
0.000870238 -0.000261778 -0.000260768 -5.46523e-05
0.00109499 -0.000329019 -0.000328271 -3.97534e-05
0.000882276 -0.00026541 -0.000264371 -5.46536e-05
0.000876257 -0.000263594 -0.00026257 -5.4653e-05
0.000653052 -0.00019677 -0.000195549 -6.62357e-05
0.000644033 -0.000194041 -0.000192854 -6.62342e-05
0.0010724 -0.000322221 -0.000321504 -3.97518e-05
0.00108746 -0.000326753 -0.000326016 -3.97529e-05
0.000648543 -0.000195406 -0.000194202 -6.6235e-05
0.000858199 -0.000258147 -0.000257165 -5.4651e-05
0.00107993 -0.000324487 -0.00032376 -3.97523e-05
0.000870238 -0.000261778 -0.000260768 -5.46523e-05
0.000864219 -0.000259962 -0.000258967 -5.46517e-05
0.000644033 -0.000194041 -0.000192854 -6.62342e-05
0.000635014 -0.000191311 -0.000190158 -6.62328e-05
0.00105734 -0.000317689 -0.000316993 -3.97508e-05
0.0010724 -0.000322221 -0.000321504 -3.97518e-05
0.000639523 -0.000192676 -0.000191506 -6.62335e-05
0.000846161 -0.000254516 -0.000253562 -5.46497e-05
0.00106487 -0.000319955 -0.000319249 -3.97513e-05
0.000858199 -0.000258147 -0.000257165 -5.4651e-05
0.00085218 -0.000256331 -0.000255364 -5.46504e-05
0.000635014 -0.000191311 -0.000190158 -6.62328e-05
0.000625994 -0.000188582 -0.000187462 -6.62314e-05
0.00104228 -0.000313157 -0.000312481 -3.97498e-05
0.00105734 -0.000317689 -0.000316993 -3.97508e-05
0.000630504 -0.000189947 -0.00018881 -6.62321e-05
0.000834122 -0.000250885 -0.000249959 -5.46485e-05
0.00104981 -0.000315423 -0.000314737 -3.97503e-05
0.000846161 -0.000254516 -0.000253562 -5.46497e-05
0.000840141 -0.0002527 -0.00025176 -5.46491e-05
0.000625994 -0.000188582 -0.000187462 -6.62314e-05
0.000616974 -0.000185853 -0.000184766 -6.623e-05
0.00102722 -0.000308626 -0.00030797 -3.97488e-05
0.00104228 -0.000313157 -0.000312481 -3.97498e-05
0.000621484 -0.000187218 -0.000186114 -6.62307e-05
0.000822083 -0.000247254 -0.000246355 -5.46472e-05
0.00103475 -0.000310891 -0.000310226 -3.97493e-05
0.000834122 -0.000250885 -0.000249959 -5.46485e-05
0.000828103 -0.00024907 -0.000248157 -5.46478e-05
0.000616974 -0.000185853 -0.000184766 -6.623e-05
0.000607954 -0.000183125 -0.000182069 -6.62286e-05
0.00101216 -0.000304094 -0.000303458 -3.97478e-05
0.00102722 -0.000308626 -0.00030797 -3.97488e-05
0.000612464 -0.000184489 -0.000183418 -6.62293e-05
0.000810044 -0.000243624 -0.000242751 -5.4646e-05
0.00101969 -0.00030636 -0.000305714 -3.97483e-05
0.000822083 -0.000247254 -0.000246355 -5.46472e-05
0.000816064 -0.000245439 -0.000244553 -5.46466e-05
0.000607954 -0.000183125 -0.000182069 -6.62286e-05
0.000598933 -0.000180397 -0.000179373 -6.62273e-05
0.000997104 -0.000299563 -0.000298946 -3.97469e-05
0.00101216 -0.000304094 -0.000303458 -3.97478e-05
0.000603443 -0.000181761 -0.000180721 -6.6228e-05
0.000798005 -0.000239994 -0.000239147 -5.46447e-05
0.00100463 -0.000301829 -0.000301202 -3.97473e-05
0.000810044 -0.000243624 -0.000242751 -5.4646e-05
0.000804024 -0.000241809 -0.000240949 -5.46453e-05
0.000598933 -0.000180397 -0.000179373 -6.62273e-05
0.000589912 -0.000177668 -0.000176676 -6.62259e-05
0.000982045 -0.000295032 -0.000294434 -3.97459e-05
0.000997104 -0.000299563 -0.000298946 -3.97469e-05
0.000594423 -0.000179032 -0.000178024 -6.62266e-05
0.000785965 -0.000236364 -0.000235543 -5.46435e-05
0.000989575 -0.000297298 -0.00029669 -3.97464e-05
0.000798005 -0.000239994 -0.000239147 -5.46447e-05
0.000791985 -0.000238179 -0.000237345 -5.46441e-05
0.000589912 -0.000177668 -0.000176676 -6.62259e-05
0.000580891 -0.000174941 -0.000173979 -6.62245e-05
0.000966986 -0.000290502 -0.000289922 -3.97449e-05
0.000982045 -0.000295032 -0.000294434 -3.97459e-05
0.000585402 -0.000176304 -0.000175327 -6.62252e-05
0.000773926 -0.000232734 -0.000231939 -5.46423e-05
0.000974516 -0.000292767 -0.000292178 -3.97454e-05
0.000785965 -0.000236364 -0.000235543 -5.46435e-05
0.000779945 -0.000234549 -0.000233741 -5.46429e-05
0.000580891 -0.000174941 -0.000173979 -6.62245e-05
0.00057187 -0.000172213 -0.000171282 -6.62232e-05
0.000951927 -0.000285971 -0.00028541 -3.97439e-05
0.000966986 -0.000290502 -0.000289922 -3.97449e-05
0.000576381 -0.000173577 -0.00017263 -6.62239e-05
0.000761886 -0.000229105 -0.000228335 -5.4641e-05
0.000959456 -0.000288236 -0.000287666 -3.97444e-05
0.000773926 -0.000232734 -0.000231939 -5.46423e-05
0.000767906 -0.000230919 -0.000230137 -5.46416e-05
0.00057187 -0.000172213 -0.000171282 -6.62232e-05
0.000562848 -0.000169486 -0.000168584 -6.62219e-05
0.000936868 -0.000281441 -0.000280897 -3.9743e-05
0.000951927 -0.000285971 -0.00028541 -3.97439e-05
0.000567359 -0.000170849 -0.000169933 -6.62225e-05
0.000749846 -0.000225475 -0.00022473 -5.46398e-05
0.000944397 -0.000283706 -0.000283154 -3.97435e-05
0.000761886 -0.000229105 -0.000228335 -5.4641e-05
0.000755866 -0.00022729 -0.000226532 -5.46404e-05
0.000562848 -0.000169486 -0.000168584 -6.62219e-05
0.000553826 -0.000166758 -0.000165886 -6.62206e-05
0.000921808 -0.00027691 -0.000276385 -3.9742e-05
0.000936868 -0.000281441 -0.000280897 -3.9743e-05
0.000558337 -0.000168122 -0.000167235 -6.62212e-05
0.000737805 -0.000221846 -0.000221125 -5.46386e-05
0.000929338 -0.000279175 -0.000278641 -3.97425e-05
0.000749846 -0.000225475 -0.00022473 -5.46398e-05
0.000743826 -0.000223661 -0.000222928 -5.46392e-05
0.000553826 -0.000166758 -0.000165886 -6.62206e-05
0.000544804 -0.000164032 -0.000163188 -6.62193e-05
0.000906749 -0.00027238 -0.000271872 -3.97411e-05
0.000921808 -0.00027691 -0.000276385 -3.9742e-05
0.000549315 -0.000165395 -0.000164537 -6.62199e-05
0.000725765 -0.000218217 -0.00021752 -5.46374e-05
0.000914279 -0.000274645 -0.000274129 -3.97416e-05
0.000737805 -0.000221846 -0.000221125 -5.46386e-05
0.000731785 -0.000220032 -0.000219323 -5.4638e-05
0.000544804 -0.000164032 -0.000163188 -6.62193e-05
0.000535782 -0.000161305 -0.00016049 -6.6218e-05
0.000891689 -0.00026785 -0.00026736 -3.97402e-05
0.000906749 -0.00027238 -0.000271872 -3.97411e-05
0.000540293 -0.000162668 -0.000161839 -6.62186e-05
0.000713724 -0.000214589 -0.000213915 -5.46363e-05
0.000899219 -0.000270115 -0.000269616 -3.97406e-05
0.000725765 -0.000218217 -0.00021752 -5.46374e-05
0.000719745 -0.000216403 -0.000215718 -5.46369e-05
0.000535782 -0.000161305 -0.00016049 -6.6218e-05
0.000526759 -0.000158579 -0.000157792 -6.62167e-05
0.00087663 -0.000263321 -0.000262847 -3.97392e-05
0.000891689 -0.00026785 -0.00026736 -3.97402e-05
0.00053127 -0.000159942 -0.000159141 -6.62173e-05
0.000701684 -0.00021096 -0.00021031 -5.46351e-05
0.00088416 -0.000265585 -0.000265103 -3.97397e-05
0.000713724 -0.000214589 -0.000213915 -5.46363e-05
0.000707704 -0.000212775 -0.000212113 -5.46357e-05
0.000526759 -0.000158579 -0.000157792 -6.62167e-05
0.000517736 -0.000155853 -0.000155093 -6.62154e-05
0.00086157 -0.000258791 -0.000258334 -3.97383e-05
0.00087663 -0.000263321 -0.000262847 -3.97392e-05
0.000522248 -0.000157216 -0.000156442 -6.6216e-05
0.000689643 -0.000207332 -0.000206704 -5.46339e-05
0.0008691 -0.000261056 -0.00026059 -3.97388e-05
0.000701684 -0.00021096 -0.00021031 -5.46351e-05
0.000695663 -0.000209146 -0.000208507 -5.46345e-05
0.000517736 -0.000155853 -0.000155093 -6.62154e-05
0.000508713 -0.000153127 -0.000152394 -6.62141e-05
0.00084651 -0.000254262 -0.000253821 -3.97374e-05
0.00086157 -0.000258791 -0.000258334 -3.97383e-05
0.000513224 -0.00015449 -0.000153743 -6.62148e-05
0.000677601 -0.000203704 -0.000203099 -5.46328e-05
0.00085404 -0.000256526 -0.000256077 -3.97378e-05
0.000689643 -0.000207332 -0.000206704 -5.46339e-05
0.000683622 -0.000205518 -0.000204902 -5.46334e-05
0.000508713 -0.000153127 -0.000152394 -6.62141e-05
0.000499689 -0.000150401 -0.000149695 -6.62129e-05
0.00083145 -0.000249732 -0.000249308 -3.97365e-05
0.00084651 -0.000254262 -0.000253821 -3.97374e-05
0.000504201 -0.000151764 -0.000151044 -6.62135e-05
0.00066556 -0.000200076 -0.000199493 -5.46317e-05
0.00083898 -0.000251997 -0.000251564 -3.97369e-05
0.000677601 -0.000203704 -0.000203099 -5.46328e-05
0.000671581 -0.00020189 -0.000201296 -5.46322e-05
0.000499689 -0.000150401 -0.000149695 -6.62129e-05
0.000490665 -0.000147676 -0.000146995 -6.62117e-05
0.00081639 -0.000245203 -0.000244794 -3.97356e-05
0.00083145 -0.000249732 -0.000249308 -3.97365e-05
0.000495177 -0.000149038 -0.000148345 -6.62123e-05
0.000653518 -0.000196449 -0.000195887 -5.46305e-05
0.00082392 -0.000247468 -0.000247051 -3.9736e-05
0.00066556 -0.000200076 -0.000199493 -5.46317e-05
0.000659539 -0.000198263 -0.00019769 -5.46311e-05
0.000490665 -0.000147676 -0.000146995 -6.62117e-05
0.000481641 -0.000144951 -0.000144296 -6.62105e-05
0.00080133 -0.000240674 -0.000240281 -3.97347e-05
0.00081639 -0.000245203 -0.000244794 -3.97356e-05
0.000486153 -0.000146313 -0.000145646 -6.62111e-05
0.000641477 -0.000192822 -0.000192281 -5.46294e-05
0.00080886 -0.000242939 -0.000242538 -3.97351e-05
0.000653518 -0.000196449 -0.000195887 -5.46305e-05
0.000647498 -0.000194635 -0.000194084 -5.463e-05
0.000481641 -0.000144951 -0.000144296 -6.62105e-05
0.000472617 -0.000142226 -0.000141596 -6.62092e-05
0.00078627 -0.000236146 -0.000235768 -3.97338e-05
0.00080133 -0.000240674 -0.000240281 -3.97347e-05
0.000477129 -0.000143588 -0.000142946 -6.62098e-05
0.000629435 -0.000189194 -0.000188674 -5.46283e-05
0.0007938 -0.00023841 -0.000238024 -3.97343e-05
0.000641477 -0.000192822 -0.000192281 -5.46294e-05
0.000635456 -0.000191008 -0.000190478 -5.46289e-05
0.000472617 -0.000142226 -0.000141596 -6.62092e-05
0.000463592 -0.000139501 -0.000138896 -6.62081e-05
0.00077121 -0.000231617 -0.000231254 -3.97329e-05
0.00078627 -0.000236146 -0.000235768 -3.97338e-05
0.000468104 -0.000140863 -0.000140246 -6.62086e-05
0.000617392 -0.000185567 -0.000185068 -5.46272e-05
0.00077874 -0.000233881 -0.000233511 -3.97334e-05
0.000629435 -0.000189194 -0.000188674 -5.46283e-05
0.000623414 -0.000187381 -0.000186871 -5.46278e-05
0.000463592 -0.000139501 -0.000138896 -6.62081e-05
0.000454567 -0.000136777 -0.000136196 -6.62069e-05
0.000756149 -0.000227089 -0.00022674 -3.97321e-05
0.00077121 -0.000231617 -0.000231254 -3.97329e-05
0.000459079 -0.000138139 -0.000137546 -6.62075e-05
0.00060535 -0.000181941 -0.000181461 -5.46261e-05
0.000763679 -0.000229353 -0.000228997 -3.97325e-05
0.000617392 -0.000185567 -0.000185068 -5.46272e-05
0.000611371 -0.000183754 -0.000183264 -5.46267e-05
0.000454567 -0.000136777 -0.000136196 -6.62069e-05
0.000445541 -0.000134053 -0.000133495 -6.62057e-05
0.000741089 -0.000222561 -0.000222226 -3.97312e-05
0.000756149 -0.000227089 -0.00022674 -3.97321e-05
0.000450054 -0.000135415 -0.000134846 -6.62063e-05
0.000593307 -0.000178314 -0.000177854 -5.46251e-05
0.000748619 -0.000224825 -0.000224483 -3.97316e-05
0.00060535 -0.000181941 -0.000181461 -5.46261e-05
0.000599329 -0.000180127 -0.000179658 -5.46256e-05
0.000445541 -0.000134053 -0.000133495 -6.62057e-05
0.000436516 -0.000131329 -0.000130794 -6.62046e-05
0.000726028 -0.000218033 -0.000217712 -3.97304e-05
0.000741089 -0.000222561 -0.000222226 -3.97312e-05
0.000441029 -0.000132691 -0.000132145 -6.62051e-05
0.000581264 -0.000174688 -0.000174247 -5.4624e-05
0.000733558 -0.000220297 -0.000219969 -3.97308e-05
0.000593307 -0.000178314 -0.000177854 -5.46251e-05
0.000587286 -0.000176501 -0.000176051 -5.46245e-05
0.000436516 -0.000131329 -0.000130794 -6.62046e-05
0.00042749 -0.000128605 -0.000128093 -6.62034e-05
0.000710967 -0.000213505 -0.000213198 -3.97295e-05
0.000726028 -0.000218033 -0.000217712 -3.97304e-05
0.000432003 -0.000129967 -0.000129444 -6.6204e-05
0.000569221 -0.000171062 -0.00017064 -5.4623e-05
0.000718497 -0.000215769 -0.000215455 -3.97299e-05
0.000581264 -0.000174688 -0.000174247 -5.4624e-05
0.000575243 -0.000172875 -0.000172443 -5.46235e-05
0.00042749 -0.000128605 -0.000128093 -6.62034e-05
0.000418464 -0.000125882 -0.000125392 -6.62023e-05
0.000695906 -0.000208977 -0.000208684 -3.97287e-05
0.000710967 -0.000213505 -0.000213198 -3.97295e-05
0.000422977 -0.000127243 -0.000126743 -6.62029e-05
0.000557178 -0.000167436 -0.000167032 -5.46219e-05
0.000703437 -0.000211241 -0.000210941 -3.97291e-05
0.000569221 -0.000171062 -0.00017064 -5.4623e-05
0.0005632 -0.000169249 -0.000168836 -5.46224e-05
0.000418464 -0.000125882 -0.000125392 -6.62023e-05
0.000409437 -0.000123158 -0.000122691 -6.62012e-05
0.000680845 -0.000204449 -0.00020417 -3.97279e-05
0.000695906 -0.000208977 -0.000208684 -3.97287e-05
0.00041395 -0.00012452 -0.000124042 -6.62017e-05
0.000545134 -0.00016381 -0.000163425 -5.46209e-05
0.000688375 -0.000206713 -0.000206427 -3.97283e-05
0.000557178 -0.000167436 -0.000167032 -5.46219e-05
0.000551156 -0.000165623 -0.000165228 -5.46214e-05
0.000409437 -0.000123158 -0.000122691 -6.62012e-05
0.00040041 -0.000120435 -0.000119989 -6.62001e-05
0.000665784 -0.000199922 -0.000199655 -3.9727e-05
0.000680845 -0.000204449 -0.00020417 -3.97279e-05
0.000404924 -0.000121797 -0.00012134 -6.62006e-05
0.000533091 -0.000160185 -0.000159817 -5.46199e-05
0.000673314 -0.000202186 -0.000201912 -3.97274e-05
0.000545134 -0.00016381 -0.000163425 -5.46209e-05
0.000539113 -0.000161998 -0.000161621 -5.46204e-05
0.00040041 -0.000120435 -0.000119989 -6.62001e-05
0.000391383 -0.000117713 -0.000117287 -6.6199e-05
0.000650722 -0.000195395 -0.00019514 -3.97262e-05
0.000665784 -0.000199922 -0.000199655 -3.9727e-05
0.000395897 -0.000119074 -0.000118638 -6.61995e-05
0.000521047 -0.00015656 -0.000156209 -5.46189e-05
0.000658253 -0.000197658 -0.000197398 -3.97266e-05
0.000533091 -0.000160185 -0.000159817 -5.46199e-05
0.000527069 -0.000158372 -0.000158013 -5.46194e-05
0.000391383 -0.000117713 -0.000117287 -6.6199e-05
0.000382355 -0.00011499 -0.000114585 -6.61979e-05
0.000635661 -0.000190867 -0.000190626 -3.97254e-05
0.000650722 -0.000195395 -0.00019514 -3.97262e-05
0.000386869 -0.000116351 -0.000115936 -6.61985e-05
0.000509002 -0.000152935 -0.0001526 -5.46179e-05
0.000643191 -0.000193131 -0.000192883 -3.97258e-05
0.000521047 -0.00015656 -0.000156209 -5.46189e-05
0.000515024 -0.000154747 -0.000154405 -5.46184e-05
0.000382355 -0.00011499 -0.000114585 -6.61979e-05
0.000373328 -0.000112268 -0.000111883 -6.61969e-05
0.000620599 -0.00018634 -0.000186111 -3.97246e-05
0.000635661 -0.000190867 -0.000190626 -3.97254e-05
0.000377842 -0.000113629 -0.000113234 -6.61974e-05
0.000496958 -0.00014931 -0.000148992 -5.46169e-05
0.00062813 -0.000188604 -0.000188368 -3.9725e-05
0.000509002 -0.000152935 -0.0001526 -5.46179e-05
0.00050298 -0.000151122 -0.000150796 -5.46174e-05
0.000373328 -0.000112268 -0.000111883 -6.61969e-05
0.0003643 -0.000109546 -0.00010918 -6.61958e-05
0.000605537 -0.000181814 -0.000181596 -3.97239e-05
0.000620599 -0.00018634 -0.000186111 -3.97246e-05
0.000368814 -0.000110907 -0.000110531 -6.61963e-05
0.000484913 -0.000145685 -0.000145383 -5.46159e-05
0.000613068 -0.000184077 -0.000183853 -3.97242e-05
0.000496958 -0.00014931 -0.000148992 -5.46169e-05
0.000490935 -0.000147497 -0.000147188 -5.46164e-05
0.0003643 -0.000109546 -0.00010918 -6.61958e-05
0.000355271 -0.000106824 -0.000106477 -6.61948e-05
0.000590475 -0.000177287 -0.000177081 -3.97231e-05
0.000605537 -0.000181814 -0.000181596 -3.97239e-05
0.000359785 -0.000108185 -0.000107829 -6.61953e-05
0.000472868 -0.000142061 -0.000141775 -5.4615e-05
0.000598006 -0.00017955 -0.000179338 -3.97235e-05
0.000484913 -0.000145685 -0.000145383 -5.46159e-05
0.000478891 -0.000143873 -0.000143579 -5.46155e-05
0.000355271 -0.000106824 -0.000106477 -6.61948e-05
0.000346242 -0.000104103 -0.000103774 -6.61938e-05
0.000575413 -0.000172761 -0.000172565 -3.97223e-05
0.000590475 -0.000177287 -0.000177081 -3.97231e-05
0.000350757 -0.000105464 -0.000105126 -6.61943e-05
0.000460823 -0.000138436 -0.000138166 -5.4614e-05
0.000582944 -0.000175024 -0.000174823 -3.97227e-05
0.000472868 -0.000142061 -0.000141775 -5.4615e-05
0.000466846 -0.000140248 -0.00013997 -5.46145e-05
0.000346242 -0.000104103 -0.000103774 -6.61938e-05
0.000337213 -0.000101382 -0.000101071 -6.61928e-05
0.00056035 -0.000168234 -0.00016805 -3.97215e-05
0.000575413 -0.000172761 -0.000172565 -3.97223e-05
0.000341728 -0.000102742 -0.000102422 -6.61933e-05
0.000448777 -0.000134812 -0.000134556 -5.46131e-05
0.000567882 -0.000170497 -0.000170308 -3.97219e-05
0.000460823 -0.000138436 -0.000138166 -5.4614e-05
0.0004548 -0.000136624 -0.000136361 -5.46136e-05
0.000337213 -0.000101382 -0.000101071 -6.61928e-05
0.000328184 -9.86605e-05 -9.83672e-05 -6.61918e-05
0.000545288 -0.000163708 -0.000163534 -3.97208e-05
0.00056035 -0.000168234 -0.00016805 -3.97215e-05
0.000332699 -0.000100021 -9.9719e-05 -6.61923e-05
0.000436732 -0.000131188 -0.000130947 -5.46122e-05
0.000552819 -0.000165971 -0.000165792 -3.97212e-05
0.000448777 -0.000134812 -0.000134556 -5.46131e-05
0.000442755 -0.000133 -0.000132752 -5.46126e-05
0.000328184 -9.86605e-05 -9.83672e-05 -6.61918e-05
0.000319154 -9.59397e-05 -9.56633e-05 -6.61908e-05
0.000530225 -0.000159182 -0.000159019 -3.97201e-05
0.000545288 -0.000163708 -0.000163534 -3.97208e-05
0.000323669 -9.73e-05 -9.70153e-05 -6.61913e-05
0.000424686 -0.000127565 -0.000127338 -5.46113e-05
0.000537757 -0.000161445 -0.000161276 -3.97204e-05
0.000436732 -0.000131188 -0.000130947 -5.46122e-05
0.000430709 -0.000129377 -0.000129142 -5.46117e-05
0.000319154 -9.59397e-05 -9.56633e-05 -6.61908e-05
0.000310124 -9.32191e-05 -9.29593e-05 -6.61899e-05
0.000515162 -0.000154656 -0.000154503 -3.97193e-05
0.000530225 -0.000159182 -0.000159019 -3.97201e-05
0.000314639 -9.45794e-05 -9.43113e-05 -6.61904e-05
0.000412639 -0.000123941 -0.000123728 -5.46104e-05
0.000522694 -0.000156919 -0.000156761 -3.97197e-05
0.000424686 -0.000127565 -0.000127338 -5.46113e-05
0.000418663 -0.000125753 -0.000125533 -5.46108e-05
0.000310124 -9.32191e-05 -9.29593e-05 -6.61899e-05
0.000301094 -9.04988e-05 -9.0255e-05 -6.6189e-05
0.000500099 -0.00015013 -0.000149987 -3.97186e-05
0.000515162 -0.000154656 -0.000154503 -3.97193e-05
0.000305609 -9.18589e-05 -9.16071e-05 -6.61894e-05
0.000400593 -0.000120318 -0.000120118 -5.46095e-05
0.000507631 -0.000152393 -0.000152245 -3.9719e-05
0.000412639 -0.000123941 -0.000123728 -5.46104e-05
0.000406616 -0.00012213 -0.000121923 -5.46099e-05
0.000301094 -9.04988e-05 -9.0255e-05 -6.6189e-05
0.000292063 -8.77787e-05 -8.75504e-05 -6.6188e-05
0.000485036 -0.000145605 -0.000145471 -3.97179e-05
0.000500099 -0.00015013 -0.000149987 -3.97186e-05
0.000296578 -8.91387e-05 -8.89027e-05 -6.61885e-05
0.000388546 -0.000116695 -0.000116508 -5.46086e-05
0.000492568 -0.000147867 -0.000147729 -3.97183e-05
0.000400593 -0.000120318 -0.000120118 -5.46095e-05
0.00039457 -0.000118506 -0.000118313 -5.46091e-05
0.000292063 -8.77787e-05 -8.75504e-05 -6.6188e-05
0.000283032 -8.50588e-05 -8.48456e-05 -6.61872e-05
0.000469973 -0.000141079 -0.000140954 -3.97172e-05
0.000485036 -0.000145605 -0.000145471 -3.97179e-05
0.000287548 -8.64187e-05 -8.6198e-05 -6.61876e-05
0.000376499 -0.000113072 -0.000112897 -5.46078e-05
0.000477504 -0.000143342 -0.000143212 -3.97176e-05
0.000388546 -0.000116695 -0.000116508 -5.46086e-05
0.000382523 -0.000114883 -0.000114703 -5.46082e-05
0.000283032 -8.50588e-05 -8.48456e-05 -6.61872e-05
0.000274001 -8.23392e-05 -8.21406e-05 -6.61863e-05
0.000454909 -0.000136554 -0.000136438 -3.97165e-05
0.000469973 -0.000141079 -0.000140954 -3.97172e-05
0.000278516 -8.3699e-05 -8.34931e-05 -6.61867e-05
0.000364452 -0.000109449 -0.000109287 -5.4607e-05
0.000462441 -0.000138817 -0.000138696 -3.97169e-05
0.000376499 -0.000113072 -0.000112897 -5.46078e-05
0.000370476 -0.000111261 -0.000111092 -5.46074e-05
0.000274001 -8.23392e-05 -8.21406e-05 -6.61863e-05
0.000264969 -7.96199e-05 -7.94353e-05 -6.61855e-05
0.000439845 -0.000132029 -0.000131921 -3.97159e-05
0.000454909 -0.000136554 -0.000136438 -3.97165e-05
0.000269485 -8.09795e-05 -8.0788e-05 -6.61859e-05
0.000352404 -0.000105827 -0.000105676 -5.46062e-05
0.000447377 -0.000134291 -0.00013418 -3.97162e-05
0.000364452 -0.000109449 -0.000109287 -5.4607e-05
0.000358428 -0.000107638 -0.000107481 -5.46066e-05
0.000264969 -7.96199e-05 -7.94353e-05 -6.61855e-05
0.000255937 -7.69007e-05 -7.67298e-05 -6.61847e-05
0.000424781 -0.000127504 -0.000127405 -3.97153e-05
0.000439845 -0.000132029 -0.000131921 -3.97159e-05
0.000260453 -7.82603e-05 -7.80826e-05 -6.6185e-05
0.000340356 -0.000102205 -0.000102065 -5.46054e-05
0.000432313 -0.000129766 -0.000129663 -3.97156e-05
0.000352404 -0.000105827 -0.000105676 -5.46062e-05
0.00034638 -0.000104016 -0.000103871 -5.46058e-05
0.000255937 -7.69007e-05 -7.67298e-05 -6.61847e-05
0.000246904 -7.41819e-05 -7.4024e-05 -6.61839e-05
0.000409717 -0.000122979 -0.000122888 -3.97147e-05
0.000424781 -0.000127504 -0.000127405 -3.97153e-05
0.000251421 -7.55413e-05 -7.53769e-05 -6.61843e-05
0.000328308 -9.85826e-05 -9.84539e-05 -5.46047e-05
0.000417249 -0.000125241 -0.000125146 -3.9715e-05
0.000340356 -0.000102205 -0.000102065 -5.46054e-05
0.000334332 -0.000100394 -0.000100259 -5.46051e-05
0.000246904 -7.41819e-05 -7.4024e-05 -6.61839e-05
0.000237872 -7.14632e-05 -7.1318e-05 -6.61832e-05
0.000394653 -0.000118454 -0.000118371 -3.97141e-05
0.000409717 -0.000122979 -0.000122888 -3.97147e-05
0.000242388 -7.28225e-05 -7.2671e-05 -6.61835e-05
0.00031626 -9.49608e-05 -9.48425e-05 -5.4604e-05
0.000402185 -0.000120716 -0.000120629 -3.97144e-05
0.000328308 -9.85826e-05 -9.84539e-05 -5.46047e-05
0.000322284 -9.67717e-05 -9.66482e-05 -5.46044e-05
0.000237872 -7.14632e-05 -7.1318e-05 -6.61832e-05
0.000228839 -6.87449e-05 -6.86117e-05 -6.61825e-05
0.000379588 -0.000113929 -0.000113854 -3.97136e-05
0.000394653 -0.000118454 -0.000118371 -3.97141e-05
0.000233355 -7.0104e-05 -6.99649e-05 -6.61829e-05
0.000304211 -9.13391e-05 -9.12309e-05 -5.46034e-05
0.00038712 -0.000116192 -0.000116112 -3.97139e-05
0.00031626 -9.49608e-05 -9.48425e-05 -5.4604e-05
0.000310236 -9.31499e-05 -9.30367e-05 -5.46037e-05
0.000228839 -6.87449e-05 -6.86117e-05 -6.61825e-05
0.000219806 -6.60268e-05 -6.59052e-05 -6.61819e-05
0.000364523 -0.000109405 -0.000109336 -3.97132e-05
0.000379588 -0.000113929 -0.000113854 -3.97136e-05
0.000224322 -6.73858e-05 -6.72585e-05 -6.61822e-05
0.000292162 -8.77177e-05 -8.76191e-05 -5.46029e-05
0.000372055 -0.000111667 -0.000111595 -3.97134e-05
0.000304211 -9.13391e-05 -9.12309e-05 -5.46034e-05
0.000298187 -8.95284e-05 -8.9425e-05 -5.46032e-05
0.000219806 -6.60268e-05 -6.59052e-05 -6.61819e-05
0.000210772 -6.33089e-05 -6.31984e-05 -6.61814e-05
0.000349458 -0.000104881 -0.000104819 -3.97129e-05
0.000364523 -0.000109405 -0.000109336 -3.97132e-05
0.000215289 -6.46678e-05 -6.45518e-05 -6.61817e-05
0.000280113 -8.40965e-05 -8.40071e-05 -5.46025e-05
0.00035699 -0.000107143 -0.000107078 -3.9713e-05
0.000292162 -8.77177e-05 -8.76191e-05 -5.46029e-05
0.000286138 -8.59071e-05 -8.58131e-05 -5.46027e-05
0.000210772 -6.33089e-05 -6.31984e-05 -6.61814e-05
0.000201738 -6.05914e-05 -6.04915e-05 -6.6181e-05
0.000334392 -0.000100356 -0.000100301 -3.97126e-05
0.000349458 -0.000104881 -0.000104819 -3.97129e-05
0.000206255 -6.19501e-05 -6.1845e-05 -6.61812e-05
0.000268064 -8.04755e-05 -8.03949e-05 -5.46021e-05
0.000341925 -0.000102619 -0.00010256 -3.97127e-05
0.000280113 -8.40965e-05 -8.40071e-05 -5.46025e-05
0.000274088 -8.22859e-05 -8.2201e-05 -5.46023e-05
0.000201738 -6.05914e-05 -6.04915e-05 -6.6181e-05
0.000192704 -5.7874e-05 -5.77843e-05 -6.61805e-05
0.000319327 -9.58323e-05 -9.57833e-05 -3.97125e-05
0.000334392 -0.000100356 -0.000100301 -3.97126e-05
0.000197221 -5.92327e-05 -5.91379e-05 -6.61807e-05
0.000256014 -7.68546e-05 -7.67825e-05 -5.46018e-05
0.00032686 -9.80944e-05 -9.80422e-05 -3.97126e-05
0.000268064 -8.04755e-05 -8.03949e-05 -5.46021e-05
0.000262039 -7.8665e-05 -7.85887e-05 -5.4602e-05
0.000192704 -5.7874e-05 -5.77843e-05 -6.61805e-05
0.00018367 -5.51569e-05 -5.50769e-05 -6.618e-05
0.000304261 -9.13084e-05 -9.12653e-05 -3.97124e-05
0.000319327 -9.58323e-05 -9.57833e-05 -3.97125e-05
0.000188187 -5.65154e-05 -5.64306e-05 -6.61803e-05
0.000243964 -7.3234e-05 -7.317e-05 -5.46015e-05
0.000311794 -9.35703e-05 -9.35243e-05 -3.97124e-05
0.000256014 -7.68546e-05 -7.67825e-05 -5.46018e-05
0.000249989 -7.50443e-05 -7.49763e-05 -5.46017e-05
0.00018367 -5.51569e-05 -5.50769e-05 -6.618e-05
0.000174635 -5.24398e-05 -5.23695e-05 -6.61793e-05
0.000289194 -8.67845e-05 -8.67471e-05 -3.97124e-05
0.000304261 -9.13084e-05 -9.12653e-05 -3.97124e-05
0.000179152 -5.37983e-05 -5.37232e-05 -6.61797e-05
0.000231914 -6.96135e-05 -6.95573e-05 -5.46012e-05
0.000296728 -8.90464e-05 -8.90062e-05 -3.97124e-05
0.000243964 -7.3234e-05 -7.317e-05 -5.46015e-05
0.000237939 -7.14237e-05 -7.13637e-05 -5.46014e-05
0.000174635 -5.24398e-05 -5.23695e-05 -6.61793e-05
0.000165601 -4.97225e-05 -4.9662e-05 -6.61782e-05
0.000274128 -8.22607e-05 -8.22289e-05 -3.97122e-05
0.000289194 -8.67845e-05 -8.67471e-05 -3.97124e-05
0.000170118 -5.10812e-05 -5.10157e-05 -6.61789e-05
0.000219864 -6.5993e-05 -6.59446e-05 -5.46005e-05
0.000281661 -8.45226e-05 -8.4488e-05 -3.97123e-05
0.000231914 -6.96135e-05 -6.95573e-05 -5.46012e-05
0.000225889 -6.78032e-05 -6.7751e-05 -5.46009e-05
0.000165601 -4.97225e-05 -4.9662e-05 -6.61782e-05
0.000156565 -4.70045e-05 -4.69547e-05 -6.61763e-05
0.000259062 -7.77368e-05 -7.77108e-05 -3.97115e-05
0.000274128 -8.22607e-05 -8.22289e-05 -3.97122e-05
0.000161083 -4.83636e-05 -4.83083e-05 -6.61774e-05
0.000207814 -6.23721e-05 -6.23321e-05 -5.4599e-05
0.000266595 -7.99988e-05 -7.99699e-05 -3.9712e-05
0.000219864 -6.5993e-05 -6.59446e-05 -5.46005e-05
0.000213839 -6.41826e-05 -6.41383e-05 -5.45999e-05
0.000156565 -4.70045e-05 -4.69547e-05 -6.61763e-05
0.000147529 -4.42846e-05 -4.42478e-05 -6.6173e-05
0.000243996 -7.32126e-05 -7.3193e-05 -3.97097e-05
0.000259062 -7.77368e-05 -7.77108e-05 -3.97115e-05
0.000152048 -4.56449e-05 -4.56011e-05 -6.61749e-05
0.000195763 -5.87502e-05 -5.872e-05 -5.4596e-05
0.000251529 -7.54748e-05 -7.54519e-05 -3.97108e-05
0.000207814 -6.23721e-05 -6.23321e-05 -5.4599e-05
0.000201789 -6.05613e-05 -6.0526e-05 -5.45978e-05
0.000147529 -4.42846e-05 -4.42478e-05 -6.6173e-05
0.000138491 -4.15609e-05 -4.15415e-05 -6.61673e-05
0.000228932 -6.86875e-05 -6.86761e-05 -3.97051e-05
0.000243996 -7.32126e-05 -7.3193e-05 -3.97097e-05
0.000143011 -4.29235e-05 -4.28945e-05 -6.61705e-05
0.000183713 -5.51258e-05 -5.51087e-05 -5.45897e-05
0.000236464 -7.09503e-05 -7.09344e-05 -3.97079e-05
0.000195763 -5.87502e-05 -5.872e-05 -5.4596e-05
0.000189738 -5.69384e-05 -5.69142e-05 -5.45934e-05
0.000138491 -4.15609e-05 -4.15415e-05 -6.61673e-05
0.000129448 -3.8829e-05 -3.88366e-05 -6.61575e-05
0.000213868 -6.41603e-05 -6.41606e-05 -3.96951e-05
0.000228932 -6.86875e-05 -6.86761e-05 -3.97051e-05
0.00013397 -4.01963e-05 -4.01888e-05 -6.61631e-05
0.00017166 -5.14958e-05 -5.1499e-05 -5.45774e-05
0.0002214 -6.64243e-05 -6.64181e-05 -3.9701e-05
0.000183713 -5.51258e-05 -5.51087e-05 -5.45897e-05
0.000177687 -5.33117e-05 -5.33036e-05 -5.45845e-05
0.000129448 -3.8829e-05 -3.88366e-05 -6.61575e-05
0.000120392 -3.60813e-05 -3.61332e-05 -6.61418e-05
0.000198808 -5.96284e-05 -5.96486e-05 -3.96733e-05
0.000213868 -6.41603e-05 -6.41606e-05 -3.96951e-05
0.000124922 -3.74579e-05 -3.74847e-05 -6.61505e-05
0.000159603 -4.78547e-05 -4.7892e-05 -5.45537e-05
0.000206338 -6.18951e-05 -6.1904e-05 -3.96863e-05
0.00017166 -5.14958e-05 -5.1499e-05 -5.45774e-05
0.000165632 -4.96773e-05 -4.9695e-05 -5.45675e-05
0.000120392 -3.60813e-05 -3.61332e-05 -6.61418e-05
0.000111314 -3.33032e-05 -3.34331e-05 -6.61163e-05
0.000183751 -5.50869e-05 -5.51416e-05 -3.96302e-05
0.000198808 -5.96284e-05 -5.96486e-05 -3.96733e-05
0.000115856 -3.46972e-05 -3.47825e-05 -6.61306e-05
0.000147533 -4.41908e-05 -4.42896e-05 -5.45094e-05
0.00019128 -5.73594e-05 -5.73944e-05 -3.96553e-05
0.000159603 -4.78547e-05 -4.7892e-05 -5.45537e-05
0.00015357 -4.60264e-05 -4.60902e-05 -5.45347e-05
0.000111314 -3.33032e-05 -3.34331e-05 -6.61163e-05
0.000102183 -3.04701e-05 -3.07342e-05 -6.60783e-05
0.0001687 -5.05265e-05 -5.06457e-05 -3.95437e-05
0.000183751 -5.50869e-05 -5.51416e-05 -3.96302e-05
0.000106758 -3.18959e-05 -3.20838e-05 -6.60989e-05
0.000135437 -4.04857e-05 -4.06936e-05 -5.44289e-05
0.000176223 -5.28097e-05 -5.28916e-05 -3.95945e-05
0.000147533 -4.41908e-05 -4.42896e-05 -5.45094e-05
0.00014149 -4.23456e-05 -4.24904e-05 -5.44756e-05
0.000102183 -3.04701e-05 -3.07342e-05 -6.60783e-05
9.29645e-05 -2.75389e-05 -2.80395e-05 -6.60205e-05
0.000153645 -4.59319e-05 -4.61628e-05 -3.93843e-05
0.0001687 -5.05265e-05 -5.06457e-05 -3.95437e-05
9.75863e-05 -2.90198e-05 -2.93857e-05 -6.60528e-05
0.000123284 -3.67017e-05 -3.71069e-05 -5.42862e-05
0.000161175 -4.82355e-05 -4.84027e-05 -3.94754e-05
0.000135437 -4.04857e-05 -4.06936e-05 -5.44289e-05
0.000129371 -3.86055e-05 -3.88994e-05 -5.43663e-05
9.29645e-05 -2.75389e-05 -2.80395e-05 -6.60205e-05
8.35614e-05 -2.44484e-05 -2.53341e-05 -6.59467e-05
0.000138598 -4.12724e-05 -4.17108e-05 -3.90837e-05
0.000153645 -4.59319e-05 -4.61628e-05 -3.93843e-05
8.82966e-05 -2.60199e-05 -2.669e-05 -6.59844e-05
0.000111024 -3.27907e-05 -3.35286e-05 -5.40422e-05
0.000146117 -4.3611e-05 -4.39311e-05 -3.92583e-05
0.000123284 -3.67017e-05 -3.71069e-05 -5.42862e-05
0.000117171 -3.4769e-05 -3.53153e-05 -5.41827e-05
8.35614e-05 -2.44484e-05 -2.53341e-05 -6.59467e-05
7.38814e-05 -2.11009e-05 -2.26202e-05 -6.585e-05
0.000123497 -3.6513e-05 -3.72787e-05 -3.85733e-05
0.000138598 -4.12724e-05 -4.17108e-05 -3.90837e-05
7.87571e-05 -2.28106e-05 -2.39771e-05 -6.59029e-05
9.85491e-05 -2.8652e-05 -2.99559e-05 -5.36449e-05
0.000131065 -3.89129e-05 -3.94938e-05 -3.88593e-05
0.000111024 -3.27907e-05 -3.35286e-05 -5.40422e-05
0.000104823 -3.07515e-05 -3.1745e-05 -5.38614e-05
7.38814e-05 -2.11009e-05 -2.26202e-05 -6.585e-05
6.36706e-05 -1.74159e-05 -1.98235e-05 -6.57884e-05
0.000108365 -3.15651e-05 -3.29144e-05 -3.7681e-05
0.000123497 -3.6513e-05 -3.72787e-05 -3.85733e-05
6.88731e-05 -1.93115e-05 -2.12407e-05 -6.58064e-05
8.57223e-05 -2.42122e-05 -2.63615e-05 -5.30363e-05
0.000115921 -3.40576e-05 -3.50842e-05 -3.81916e-05
9.85491e-05 -2.8652e-05 -2.99559e-05 -5.36449e-05
9.2187e-05 -2.64871e-05 -2.81571e-05 -5.33821e-05
6.36706e-05 -1.74159e-05 -1.98235e-05 -6.57884e-05
5.28168e-05 -1.33082e-05 -1.69323e-05 -6.5802e-05
9.29173e-05 -2.64071e-05 -2.85044e-05 -3.63409e-05
0.000108365 -3.15651e-05 -3.29144e-05 -3.7681e-05
5.83074e-05 -1.53988e-05 -1.83894e-05 -6.57857e-05
7.22234e-05 -1.92874e-05 -2.26868e-05 -5.22165e-05
0.000100731 -2.9041e-05 -3.07243e-05 -3.70675e-05
8.57223e-05 -2.42122e-05 -2.63615e-05 -5.30363e-05
7.90896e-05 -2.17947e-05 -2.4555e-05 -5.26264e-05
5.28168e-05 -1.33082e-05 -1.69323e-05 -6.5802e-05
4.09187e-05 -9.06888e-06 -1.36499e-05 -6.62177e-05
7.71693e-05 -2.08196e-05 -2.41499e-05 -3.42977e-05
9.29173e-05 -2.64071e-05 -2.85044e-05 -3.63409e-05
4.70652e-05 -1.11963e-05 -1.53724e-05 -6.59205e-05
5.78382e-05 -1.40571e-05 -1.87633e-05 -5.1324e-05
8.50287e-05 -2.36151e-05 -2.63201e-05 -3.54296e-05
7.22234e-05 -1.92874e-05 -2.26868e-05 -5.22165e-05
6.51356e-05 -1.67343e-05 -2.07434e-05 -5.18079e-05
4.09187e-05 -9.06888e-06 -1.36499e-05 -6.62177e-05
2.85555e-05 -5.40207e-06 -9.92292e-06 -6.72778e-05
5.99777e-05 -1.52541e-05 -1.91672e-05 -3.20896e-05
7.71693e-05 -2.08196e-05 -2.41499e-05 -3.42977e-05
3.4656e-05 -7.00239e-06 -1.18515e-05 -6.66557e-05
4.18677e-05 -8.71373e-06 -1.42088e-05 -5.1052e-05
6.8949e-05 -1.81277e-05 -2.17806e-05 -3.31561e-05
5.78382e-05 -1.40571e-05 -1.87633e-05 -5.1324e-05
5.01445e-05 -1.12494e-05 -1.66693e-05 -5.0943e-05
2.85555e-05 -5.40207e-06 -9.92292e-06 -6.72778e-05
1.65216e-05 -5.34589e-06 -4.78959e-06 -6.97689e-05
4.14201e-05 -9.71557e-06 -1.35876e-05 -3.06075e-05
5.99777e-05 -1.52541e-05 -1.91672e-05 -3.20896e-05
2.25374e-05 -4.7299e-06 -7.63179e-06 -6.82744e-05
2.52223e-05 -6.14119e-06 -8.1776e-06 -5.28986e-05
5.06649e-05 -1.21015e-05 -1.65272e-05 -3.11228e-05
4.18677e-05 -8.71373e-06 -1.42088e-05 -5.1052e-05
3.34221e-05 -6.91289e-06 -1.13611e-05 -5.17432e-05
1.65216e-05 -5.34589e-06 -4.78959e-06 -6.97689e-05
1.01045e-05 -1.43206e-05 1.80689e-06 -7.18168e-05
1.97166e-05 -1.01968e-05 -4.07992e-06 -3.58544e-05
4.14201e-05 -9.71557e-06 -1.35876e-05 -3.06075e-05
1.191e-05 -7.90204e-06 -1.7177e-06 -7.1118e-05
9.92105e-06 -1.27621e-05 1.2176e-06 -5.97833e-05
3.13888e-05 -9.1313e-06 -9.53892e-06 -3.18122e-05
2.52223e-05 -6.14119e-06 -8.1776e-06 -5.28986e-05
1.73584e-05 -7.15933e-06 -4.37104e-06 -5.51457e-05
1.01045e-05 -1.43206e-05 1.80689e-06 -7.18168e-05
1.32416e-05 -4.24924e-05 1.2536e-05 -6.61968e-05
9.41927e-06 -3.53213e-05 1.11009e-05 -5.57277e-05
1.97166e-05 -1.01968e-05 -4.07992e-06 -3.58544e-05
1.06876e-05 -2.61899e-05 6.64386e-06 -7.09117e-05
1.43056e-05 -4.80602e-05 1.44662e-05 -6.55238e-05
1.0896e-05 -1.49433e-05 1.73454e-06 -4.28961e-05
9.92105e-06 -1.27621e-05 1.2176e-06 -5.97833e-05
7.40518e-06 -2.58935e-05 7.92357e-06 -6.45844e-05
1.32416e-05 -4.24924e-05 1.2536e-05 -6.61968e-05
2.27258e-05 -7.70816e-05 2.32953e-05 -3.5088e-05
5.0598e-05 -0.000154252 4.44232e-05 -5.71697e-05
9.41927e-06 -3.53213e-05 1.11009e-05 -5.57277e-05
1.73823e-05 -6.09791e-05 1.86843e-05 -5.47835e-05
4.0657e-05 -0.000112092 3.06152e-05 -3.29478e-05
2.08114e-05 -8.24556e-05 2.64189e-05 -6.61892e-05
1.43056e-05 -4.80602e-05 1.44662e-05 -6.55238e-05
2.66975e-05 -7.89097e-05 2.23767e-05 -5.68435e-05
0.00253043 2.22045e-16 -0.00108447 -0.00014845
0.00284757 -0.000564748 -0.000978351 -0.000214359
0.00397824 -0.00126051 -0.00116474 7.14946e-05
0.00557732 -1.11022e-16 -0.00239028 -0.0018938
0.00270794 -0.000266167 -0.00104648 -0.000248444
0.00360607 -0.000875482 -0.00117025 -0.00027721
0.00442544 -0.00140305 -0.00129531 -0.000268423
0.00297755 0 -0.00127609 -0.000460762
0.00347871 -0.000591561 -0.00123735 -0.000433125
0.00284757 -0.000564748 -0.000978351 -0.000214359
0.00295949 -0.000803125 -0.000924156 -0.000103021
0.00392762 -0.00121688 -0.00116174 2.27541e-05
0.00397824 -0.00126051 -0.00116474 7.14946e-05
0.00293586 -0.000732535 -0.000944284 -0.000155243
0.0035262 -0.0010285 -0.00107044 -4.79163e-05
0.00391744 -0.00116336 -0.00118032 3.19049e-05
0.00360607 -0.000875482 -0.00117025 -0.00027721
0.00355624 -0.000992833 -0.0010986 -0.000113615
0.00295949 -0.000803125 -0.000924156 -0.000103021
0.0029457 -0.000870664 -0.0008893 -3.8914e-05
0.0039818 -0.00118215 -0.00119985 1.05676e-05
0.00392762 -0.00121688 -0.00116174 2.27541e-05
0.00295168 -0.000845101 -0.000902818 -6.10664e-05
0.00348884 -0.0010473 -0.00104637 -5.62184e-06
0.00396399 -0.00121401 -0.00117856 2.29413e-05
0.0035262 -0.0010285 -0.00107044 -4.79163e-05
0.00350679 -0.00104195 -0.00105636 -2.3624e-05
0.0029457 -0.000870664 -0.0008893 -3.8914e-05
0.00292505 -0.000880412 -0.000876273 -2.41676e-05
0.00400414 -0.00120481 -0.00119971 -1.13392e-06
0.0039818 -0.00118215 -0.00119985 1.05676e-05
0.00293801 -0.000879848 -0.000882069 -2.90688e-05
0.0034682 -0.00104539 -0.00103835 8.70457e-07
0.00399166 -0.00118601 -0.00120242 -1.96661e-06
0.00348884 -0.0010473 -0.00104637 -5.62184e-06
0.00347507 -0.00104742 -0.00104042 2.44508e-06
0.00292505 -0.000880412 -0.000876273 -2.41676e-05
0.0029011 -0.000879228 -0.000866516 -2.31716e-05
0.00401571 -0.00120051 -0.00120651 8.14928e-07
0.00400414 -0.00120481 -0.00119971 -1.13392e-06
0.00291126 -0.00088014 -0.000870482 -2.22452e-05
0.00345791 -0.00104214 -0.00103533 -4.99066e-06
0.00401392 -0.00120664 -0.00120312 2.03306e-06
0.0034682 -0.00104539 -0.00103835 8.70457e-07
0.00346392 -0.0010437 -0.00103724 -2.91614e-06
0.0029011 -0.000879228 -0.000866516 -2.31716e-05
0.0028829 -0.000872944 -0.000861411 -2.77732e-05
0.00401144 -0.00120394 -0.00120321 -7.29001e-07
0.00401571 -0.00120051 -0.00120651 8.14928e-07
0.00289237 -0.000876507 -0.000863941 -2.55741e-05
0.00344532 -0.00103768 -0.00103185 -1.05168e-05
0.00401355 -0.00120098 -0.00120539 -1.25679e-06
0.00345791 -0.00104214 -0.00103533 -4.99066e-06
0.00345132 -0.00104007 -0.00103339 -7.42623e-06
0.0028829 -0.000872944 -0.000861411 -2.77732e-05
0.00286533 -0.000866725 -0.000856546 -3.17302e-05
0.00400182 -0.00119959 -0.00120096 3.82777e-08
0.00401144 -0.00120394 -0.00120321 -7.29001e-07
0.00287359 -0.000869715 -0.000858803 -2.97478e-05
0.00343203 -0.00103285 -0.00102822 -1.49232e-05
0.00400799 -0.00120279 -0.00120223 2.33473e-07
0.00344532 -0.00103768 -0.00103185 -1.05168e-05
0.00343915 -0.00103527 -0.00103023 -1.3138e-05
0.00286533 -0.000866725 -0.000856546 -3.17302e-05
0.00284957 -0.000860635 -0.000852402 -3.50037e-05
0.00398616 -0.00119595 -0.0011958 -2.38341e-07
0.00400182 -0.00119959 -0.00120096 3.82777e-08
0.00285753 -0.000863663 -0.000854512 -3.35765e-05
0.00341668 -0.00102775 -0.00102383 -1.77881e-05
0.00399414 -0.00119757 -0.00119853 -4.03991e-07
0.00343203 -0.00103285 -0.00102822 -1.49232e-05
0.0034244 -0.00103033 -0.00102603 -1.64522e-05
0.00284957 -0.000860635 -0.000852402 -3.50037e-05
0.00283401 -0.000855108 -0.000848102 -3.70237e-05
0.00396837 -0.00119034 -0.00119058 -3.00276e-08
0.00398616 -0.00119595 -0.0011958 -2.38341e-07
0.00284167 -0.000857799 -0.00085023 -3.61098e-05
0.00340042 -0.00102249 -0.00101911 -1.95086e-05
0.00397765 -0.00119339 -0.00119325 8.71404e-09
0.00341668 -0.00102775 -0.00102383 -1.77881e-05
0.00340873 -0.00102513 -0.00102154 -1.87978e-05
0.00283401 -0.000855108 -0.000848102 -3.70237e-05
0.00281888 -0.000849931 -0.000843834 -3.83192e-05
0.00394873 -0.00118467 -0.0011846 -6.72763e-08
0.00396837 -0.00119034 -0.00119058 -3.00276e-08
0.00282646 -0.000852487 -0.00084599 -3.77693e-05
0.00338328 -0.00101714 -0.00101406 -2.05132e-05
0.00395862 -0.00118748 -0.00118763 -1.18404e-07
0.00340042 -0.00102249 -0.00101911 -1.95086e-05
0.00339188 -0.00101982 -0.0010166 -2.00736e-05
0.00281888 -0.000849931 -0.000843834 -3.83192e-05
0.00280377 -0.000845026 -0.000839462 -3.90339e-05
0.00392842 -0.00117853 -0.00117853 -1.62387e-08
0.00394873 -0.00118467 -0.0011846 -6.72763e-08
0.0028113 -0.00084745 -0.000841649 -3.87237e-05
0.00336576 -0.00101175 -0.00100886 -2.10474e-05
0.00393867 -0.00118165 -0.00118158 -7.66759e-09
0.00338328 -0.00101714 -0.00101406 -2.05132e-05
0.00337458 -0.00101445 -0.00101148 -2.08272e-05
0.00280377 -0.000845026 -0.000839462 -3.90339e-05
0.00278874 -0.000840278 -0.000835056 -3.94418e-05
0.00390764 -0.00117233 -0.00117228 -1.68569e-08
0.00392842 -0.00117853 -0.00117853 -1.62387e-08
0.00279626 -0.000842637 -0.000837267 -3.92717e-05
0.00334795 -0.00100633 -0.00100355 -2.13358e-05
0.00391805 -0.00117543 -0.00117541 -3.15778e-08
0.00336576 -0.00101175 -0.00100886 -2.10474e-05
0.00335687 -0.00100904 -0.00100621 -2.1214e-05
0.00278874 -0.000840278 -0.000835056 -3.94418e-05
0.00277371 -0.000835625 -0.000830606 -3.96512e-05
0.00388668 -0.00116603 -0.00116599 -5.46067e-09
0.00390764 -0.00117233 -0.00117228 -1.68569e-08
0.00278122 -0.000837942 -0.000832833 -3.95626e-05
0.00333002 -0.00100089 -0.000998197 -2.14762e-05
0.00389718 -0.00116919 -0.00116914 -3.44436e-09
0.00334795 -0.00100633 -0.00100355 -2.13358e-05
0.003339 -0.00100361 -0.00100088 -2.1419e-05
0.00277371 -0.000835625 -0.000830606 -3.96512e-05
0.00275868 -0.000831022 -0.000826138 -3.97619e-05
0.00386562 -0.00115972 -0.00115967 -3.7238e-09
0.00388668 -0.00116603 -0.00116599 -5.46067e-09
0.00276619 -0.000833319 -0.000828375 -3.97164e-05
0.00331201 -0.000995456 -0.000992808 -2.15466e-05
0.00387616 -0.00116288 -0.00116283 -7.5338e-09
0.00333002 -0.00100089 -0.000998197 -2.14762e-05
0.00332102 -0.000998176 -0.000995504 -2.15177e-05
0.00275868 -0.000831022 -0.000826138 -3.97619e-05
0.00274364 -0.000826447 -0.000821654 -3.98157e-05
0.00384452 -0.00115339 -0.00115334 -1.47642e-09
0.00386562 -0.00115972 -0.00115967 -3.7238e-09
0.00275116 -0.000828732 -0.000823897 -3.97934e-05
0.00329396 -0.000990014 -0.000987405 -2.15782e-05
0.00385507 -0.00115656 -0.00115651 -9.80019e-10
0.00331201 -0.000995456 -0.000992808 -2.15466e-05
0.00330299 -0.000992735 -0.000990108 -2.15655e-05
0.00274364 -0.000826447 -0.000821654 -3.98157e-05
0.0027286 -0.000821884 -0.000817164 -3.98426e-05
0.0038234 -0.00114706 -0.00114701 -7.43295e-10
0.00384452 -0.00115339 -0.00115334 -1.47642e-09
0.00273612 -0.000824164 -0.00081941 -3.98316e-05
0.00327589 -0.00098457 -0.000981994 -2.15927e-05
0.00383396 -0.00115022 -0.00115017 -1.60899e-09
0.00329396 -0.000990014 -0.000987405 -2.15782e-05
0.00328493 -0.000987292 -0.0009847 -2.15869e-05
0.0027286 -0.000821884 -0.000817164 -3.98426e-05
0.00271355 -0.000817328 -0.000812669 -3.9855e-05
0.00380228 -0.00114072 -0.00114067 -3.85556e-10
0.0038234 -0.00114706 -0.00114701 -7.43295e-10
0.00272108 -0.000819606 -0.000814917 -3.98499e-05
0.00325781 -0.000979125 -0.00097658 -2.15985e-05
0.00381284 -0.00114389 -0.00114384 -2.58776e-10
0.00327589 -0.00098457 -0.000981994 -2.15927e-05
0.00326685 -0.000981848 -0.000979288 -2.15963e-05
0.00271355 -0.000817328 -0.000812669 -3.9855e-05
0.00269851 -0.000812775 -0.000808171 -3.98608e-05
0.00378116 -0.00113438 -0.00113433 -1.80922e-10
0.00380228 -0.00114072 -0.00114067 -3.85556e-10
0.00270603 -0.000815051 -0.00081042 -3.98585e-05
0.00323973 -0.00097368 -0.000971164 -2.16008e-05
0.00379172 -0.00113755 -0.0011375 -3.48648e-10
0.00325781 -0.000979125 -0.00097658 -2.15985e-05
0.00324877 -0.000976403 -0.000973872 -2.16e-05
0.00269851 -0.000812775 -0.000808171 -3.98608e-05
0.00268346 -0.000808222 -0.000803672 -3.98631e-05
0.00376003 -0.00112804 -0.001128 -1.48426e-10
0.00378116 -0.00113438 -0.00113433 -1.80922e-10
0.00269098 -0.000810498 -0.000805922 -3.98622e-05
0.00322164 -0.000968235 -0.000965747 -2.16014e-05
0.0037706 -0.00113121 -0.00113116 -1.16241e-10
0.00323973 -0.00097368 -0.000971164 -2.16008e-05
0.00323069 -0.000970957 -0.000968455 -2.16013e-05
0.00268346 -0.000808222 -0.000803672 -3.98631e-05
0.00266841 -0.000803671 -0.000799172 -3.98639e-05
0.00373891 -0.00112171 -0.00112166 -1.02132e-10
0.00376003 -0.00112804 -0.001128 -1.48426e-10
0.00267593 -0.000805946 -0.000801422 -3.98636e-05
0.00320356 -0.000962789 -0.000960329 -2.16014e-05
0.00374947 -0.00112487 -0.00112483 -1.28439e-10
0.00322164 -0.000968235 -0.000965747 -2.16014e-05
0.0032126 -0.000965512 -0.000963038 -2.16015e-05
0.00266841 -0.000803671 -0.000799172 -3.98639e-05
0.00265335 -0.000799119 -0.000794671 -3.98638e-05
0.00371778 -0.00111537 -0.00111532 -1.06365e-10
0.00373891 -0.00112171 -0.00112166 -1.02132e-10
0.00266088 -0.000801395 -0.000796922 -3.98639e-05
0.00318547 -0.000957344 -0.000954911 -2.1601e-05
0.00372835 -0.00111854 -0.00111849 -9.90461e-11
0.00320356 -0.000962789 -0.000960329 -2.16014e-05
0.00319451 -0.000960066 -0.00095762 -2.16012e-05
0.00265335 -0.000799119 -0.000794671 -3.98638e-05
0.0026383 -0.000794568 -0.000790171 -3.98633e-05
0.00369666 -0.00110903 -0.00110898 -9.64388e-11
0.00371778 -0.00111537 -0.00111532 -1.06365e-10
0.00264583 -0.000796843 -0.000792421 -3.98636e-05
0.00316738 -0.000951898 -0.000949493 -2.16005e-05
0.00370722 -0.0011122 -0.00111215 -9.94901e-11
0.00318547 -0.000957344 -0.000954911 -2.1601e-05
0.00317643 -0.000954621 -0.000952202 -2.16008e-05
0.0026383 -0.000794568 -0.000790171 -3.98633e-05
0.00262325 -0.000790016 -0.00078567 -3.98626e-05
0.00367554 -0.00110269 -0.00110265 -9.89966e-11
0.00369666 -0.00110903 -0.00110898 -9.64388e-11
0.00263077 -0.000792292 -0.00078792 -3.9863e-05
0.00314929 -0.000946453 -0.000944075 -2.15999e-05
0.0036861 -0.00110586 -0.00110582 -9.78468e-11
0.00316738 -0.000951898 -0.000949493 -2.16005e-05
0.00315834 -0.000949175 -0.000946784 -2.16002e-05
0.00262325 -0.000790016 -0.00078567 -3.98626e-05
0.00260819 -0.000785465 -0.000781169 -3.98617e-05
0.00365441 -0.00109636 -0.00109631 -9.63098e-11
0.00367554 -0.00110269 -0.00110265 -9.89966e-11
0.00261572 -0.000787741 -0.000783419 -3.98622e-05
0.00313121 -0.000941007 -0.000938657 -2.15994e-05
0.00366497 -0.00109952 -0.00109948 -9.66047e-11
0.00314929 -0.000946453 -0.000944075 -2.15999e-05
0.00314025 -0.00094373 -0.000941366 -2.15997e-05
0.00260819 -0.000785465 -0.000781169 -3.98617e-05
0.00259314 -0.000780914 -0.000776667 -3.98608e-05
0.00363329 -0.00109002 -0.00108997 -9.66552e-11
0.00365441 -0.00109636 -0.00109631 -9.63094e-11
0.00260066 -0.00078319 -0.000778918 -3.98613e-05
0.00311312 -0.000935562 -0.000933239 -2.15988e-05
0.00364385 -0.00109319 -0.00109314 -9.67192e-11
0.00313121 -0.000941007 -0.000938657 -2.15994e-05
0.00312216 -0.000938285 -0.000935948 -2.15991e-05
0.00259314 -0.000780914 -0.000776667 -3.98608e-05
0.00257808 -0.000776364 -0.000772166 -3.98599e-05
0.00361216 -0.00108368 -0.00108364 -9.56013e-11
0.00363329 -0.00109002 -0.00108997 -9.66552e-11
0.00258561 -0.000778639 -0.000774416 -3.98603e-05
0.00309503 -0.000930117 -0.00092782 -2.15982e-05
0.00362273 -0.00108685 -0.0010868 -9.57312e-11
0.00311312 -0.000935562 -0.000933239 -2.15988e-05
0.00310408 -0.00093284 -0.00093053 -2.15985e-05
0.00257808 -0.000776364 -0.000772166 -3.98599e-05
0.00256303 -0.000771813 -0.000767664 -3.98589e-05
0.00359104 -0.00107734 -0.0010773 -9.53611e-11
0.00361216 -0.00108368 -0.00108364 -9.56017e-11
0.00257056 -0.000774088 -0.000769915 -3.98594e-05
0.00307694 -0.000924672 -0.000922402 -2.15976e-05
0.0036016 -0.00108051 -0.00108047 -9.55478e-11
0.00309503 -0.000930117 -0.00092782 -2.15982e-05
0.00308599 -0.000927394 -0.000925111 -2.15979e-05
0.00256303 -0.000771813 -0.000767664 -3.98589e-05
0.00254797 -0.000767263 -0.000763162 -3.98579e-05
0.00356992 -0.00107101 -0.00107096 -9.48436e-11
0.00359104 -0.00107734 -0.0010773 -9.53611e-11
0.0025555 -0.000769538 -0.000765413 -3.98584e-05
0.00305886 -0.000919227 -0.000916984 -2.1597e-05
0.00358048 -0.00107417 -0.00107413 -9.49756e-11
0.00307694 -0.000924672 -0.000922402 -2.15976e-05
0.0030679 -0.00092195 -0.000919693 -2.15973e-05
0.00254797 -0.000767263 -0.000763162 -3.98579e-05
0.00253292 -0.000762712 -0.00075866 -3.9857e-05
0.0035488 -0.00106467 -0.00106463 -9.45462e-11
0.00356992 -0.00107101 -0.00107096 -9.48474e-11
0.00254045 -0.000764988 -0.000760911 -3.98575e-05
0.00304077 -0.000913782 -0.000911565 -2.15965e-05
0.00355936 -0.00106784 -0.00106779 -9.47184e-11
0.00305886 -0.000919227 -0.000916984 -2.1597e-05
0.00304981 -0.000916505 -0.000914275 -2.15967e-05
0.00253292 -0.000762712 -0.00075866 -3.9857e-05
0.00251787 -0.000758162 -0.000754158 -3.98561e-05
0.00352767 -0.00105833 -0.00105829 -9.41899e-11
0.0035488 -0.00106467 -0.00106463 -9.45462e-11
0.00252539 -0.000760437 -0.000756409 -3.98565e-05
0.00302268 -0.000908338 -0.000906147 -2.15959e-05
0.00353823 -0.0010615 -0.00106146 -9.43504e-11
0.00304077 -0.000913782 -0.000911565 -2.15965e-05
0.00303172 -0.00091106 -0.000908856 -2.15962e-05
0.00251787 -0.000758162 -0.000754158 -3.98561e-05
0.00250281 -0.000753612 -0.000749656 -3.98551e-05
0.00350655 -0.001052 -0.00105195 -9.38694e-11
0.00352767 -0.00105833 -0.00105829 -9.4194e-11
0.00251034 -0.000755887 -0.000751907 -3.98556e-05
0.00300459 -0.000902893 -0.000900729 -2.15953e-05
0.00351711 -0.00105516 -0.00105512 -9.40594e-11
0.00302268 -0.000908338 -0.000906147 -2.15959e-05
0.00301364 -0.000905615 -0.000903438 -2.15956e-05
0.00250281 -0.000753612 -0.000749656 -3.98551e-05
0.00248776 -0.000749063 -0.000745154 -3.98542e-05
0.00348543 -0.00104566 -0.00104562 -9.35171e-11
0.00350655 -0.001052 -0.00105195 -9.38694e-11
0.00249528 -0.000751338 -0.000747405 -3.98546e-05
0.00298651 -0.000897449 -0.00089531 -2.15948e-05
0.00349599 -0.00104883 -0.00104878 -9.37119e-11
0.00300459 -0.000902893 -0.000900729 -2.15953e-05
0.00299555 -0.000900171 -0.000898019 -2.15951e-05
0.00248776 -0.000749063 -0.000745154 -3.98542e-05
0.0024727 -0.000744513 -0.000740652 -3.98532e-05
0.00346431 -0.00103932 -0.00103928 -9.31431e-11
0.00348543 -0.00104566 -0.00104562 -9.35234e-11
0.00248023 -0.000746788 -0.000742903 -3.98537e-05
0.00296842 -0.000892004 -0.000889892 -2.15942e-05
0.00347487 -0.00104249 -0.00104245 -9.33635e-11
0.00298651 -0.000897449 -0.00089531 -2.15948e-05
0.00297746 -0.000894727 -0.000892601 -2.15945e-05
0.0024727 -0.000744513 -0.000740652 -3.98532e-05
0.00245765 -0.000739964 -0.000736149 -3.98523e-05
0.00344318 -0.00103298 -0.00103294 -9.27151e-11
0.00346431 -0.00103932 -0.00103928 -9.31431e-11
0.00246517 -0.000742238 -0.000738401 -3.98528e-05
0.00295033 -0.00088656 -0.000884473 -2.15937e-05
0.00345375 -0.00103615 -0.00103611 -9.2962e-11
0.00296842 -0.000892004 -0.000889892 -2.15942e-05
0.00295937 -0.000889282 -0.000887182 -2.1594e-05
0.00245765 -0.000739964 -0.000736149 -3.98523e-05
0.00244259 -0.000735414 -0.000731647 -3.98514e-05
0.00342206 -0.00102665 -0.00102661 -9.22706e-11
0.00344318 -0.00103298 -0.00103294 -9.27154e-11
0.00245012 -0.000737689 -0.000733898 -3.98518e-05
0.00293224 -0.000881116 -0.000879054 -2.15931e-05
0.00343262 -0.00102982 -0.00102977 -9.25333e-11
0.00295033 -0.00088656 -0.000884473 -2.15937e-05
0.00294129 -0.000883838 -0.000881764 -2.15934e-05
0.00244259 -0.000735414 -0.000731647 -3.98514e-05
0.00242754 -0.000730865 -0.000727144 -3.98504e-05
0.00340094 -0.00102031 -0.00102027 -9.17974e-11
0.00342206 -0.00102665 -0.00102661 -9.22706e-11
0.00243506 -0.00073314 -0.000729396 -3.98509e-05
0.00291416 -0.000875672 -0.000873636 -2.15926e-05
0.0034115 -0.00102348 -0.00102344 -9.20788e-11
0.00293224 -0.000881116 -0.000879054 -2.15931e-05
0.0029232 -0.000878394 -0.000876345 -2.15929e-05
0.00242754 -0.000730865 -0.000727144 -3.98504e-05
0.00241248 -0.000726317 -0.000722641 -3.98495e-05
0.00337982 -0.00101397 -0.00101393 -9.12936e-11
0.00340094 -0.00102031 -0.00102027 -9.18011e-11
0.00242001 -0.000728591 -0.000724893 -3.985e-05
0.00289607 -0.000870228 -0.000868217 -2.1592e-05
0.00339038 -0.00101714 -0.0010171 -9.15857e-11
0.00291416 -0.000875672 -0.000873636 -2.15926e-05
0.00290511 -0.00087295 -0.000870927 -2.15923e-05
0.00241248 -0.000726317 -0.000722641 -3.98495e-05
0.00239742 -0.000721768 -0.000718139 -3.98485e-05
0.0033587 -0.00100764 -0.0010076 -9.07865e-11
0.00337982 -0.00101397 -0.00101393 -9.12936e-11
0.00240495 -0.000724042 -0.00072039 -3.9849e-05
0.00287798 -0.000864785 -0.000862798 -2.15915e-05
0.00336926 -0.00101081 -0.00101077 -9.10769e-11
0.00289607 -0.000870228 -0.000868217 -2.1592e-05
0.00288702 -0.000867506 -0.000865508 -2.15917e-05
0.00239742 -0.000721768 -0.000718139 -3.98485e-05
0.00238237 -0.000717219 -0.000713636 -3.98476e-05
0.00333758 -0.0010013 -0.00100126 -9.02757e-11
0.0033587 -0.00100764 -0.0010076 -9.07838e-11
0.0023899 -0.000719493 -0.000715887 -3.9848e-05
0.00285989 -0.000859341 -0.00085738 -2.15909e-05
0.00334814 -0.00100447 -0.00100443 -9.05863e-11
0.00287798 -0.000864785 -0.000862798 -2.15915e-05
0.00286894 -0.000862063 -0.000860089 -2.15912e-05
0.00238237 -0.000717219 -0.000713636 -3.98476e-05
0.00236731 -0.000712671 -0.000709132 -3.98466e-05
0.00331646 -0.000994965 -0.000994925 -8.96961e-11
0.00333758 -0.0010013 -0.00100126 -9.02757e-11
0.00237484 -0.000714945 -0.000711384 -3.98471e-05
0.00284181 -0.000853897 -0.000851961 -2.15903e-05
0.00332702 -0.000998133 -0.000998093 -9.0032e-11
0.00285989 -0.000859341 -0.00085738 -2.15909e-05
0.00285085 -0.000856619 -0.00085467 -2.15906e-05
0.00236731 -0.000712671 -0.000709132 -3.98466e-05
0.00235226 -0.000708123 -0.000704629 -3.98456e-05
0.00329534 -0.000988628 -0.000988589 -8.9178e-11
0.00331646 -0.000994965 -0.000994925 -8.96961e-11
0.00235979 -0.000710397 -0.000706881 -3.98461e-05
0.00282372 -0.000848454 -0.000846542 -2.15898e-05
0.0033059 -0.000991796 -0.000991757 -8.94589e-11
0.00284181 -0.000853897 -0.000851961 -2.15903e-05
0.00283276 -0.000851176 -0.000849251 -2.159e-05
0.00235226 -0.000708123 -0.000704629 -3.98456e-05
0.0023372 -0.000703575 -0.000700126 -3.98446e-05
0.00327421 -0.000982292 -0.000982253 -8.86215e-11
0.00329534 -0.000988628 -0.000988589 -8.91855e-11
0.00234473 -0.000705849 -0.000702378 -3.98451e-05
0.00280563 -0.000843011 -0.000841123 -2.15892e-05
0.00328477 -0.00098546 -0.000985421 -8.89522e-11
0.00282372 -0.000848454 -0.000846542 -2.15898e-05
0.00281468 -0.000845732 -0.000843833 -2.15895e-05
0.0023372 -0.000703575 -0.000700126 -3.98446e-05
0.00232215 -0.000699027 -0.000695622 -3.98436e-05
0.00325309 -0.000975955 -0.000975917 -8.80602e-11
0.00327421 -0.000982292 -0.000982253 -8.86215e-11
0.00232967 -0.000701301 -0.000697874 -3.98441e-05
0.00278754 -0.000837568 -0.000835704 -2.15886e-05
0.00326365 -0.000979123 -0.000979085 -8.83701e-11
0.00280563 -0.000843011 -0.000841123 -2.15892e-05
0.00279659 -0.000840289 -0.000838414 -2.15889e-05
0.00232215 -0.000699027 -0.000695622 -3.98436e-05
0.00230709 -0.000694479 -0.000691119 -3.98426e-05
0.00323197 -0.000969619 -0.000969581 -8.75022e-11
0.00325309 -0.000975955 -0.000975917 -8.80681e-11
0.00231462 -0.000696753 -0.000693371 -3.98431e-05
0.00276946 -0.000832125 -0.000830285 -2.1588e-05
0.00324253 -0.000972787 -0.000972749 -8.78242e-11
0.00278754 -0.000837568 -0.000835704 -2.15886e-05
0.0027785 -0.000834846 -0.000832995 -2.15883e-05
0.00230709 -0.000694479 -0.000691119 -3.98426e-05
0.00229203 -0.000689932 -0.000686615 -3.98416e-05
0.00321085 -0.000963282 -0.000963245 -8.69523e-11
0.00323197 -0.000969619 -0.000969581 -8.75022e-11
0.00229956 -0.000692205 -0.000688867 -3.98421e-05
0.00275137 -0.000826682 -0.000824866 -2.15874e-05
0.00322141 -0.000966451 -0.000966413 -8.72522e-11
0.00276946 -0.000832125 -0.000830285 -2.1588e-05
0.00276041 -0.000829403 -0.000827576 -2.15877e-05
0.00229203 -0.000689932 -0.000686615 -3.98416e-05
0.00227698 -0.000685384 -0.000682111 -3.98406e-05
0.00318973 -0.000956946 -0.000956909 -8.63855e-11
0.00321085 -0.000963282 -0.000963245 -8.6946e-11
0.00228451 -0.000687658 -0.000684363 -3.98411e-05
0.00273328 -0.000821239 -0.000819447 -2.15868e-05
0.00320029 -0.000960114 -0.000960077 -8.67054e-11
0.00275137 -0.000826682 -0.000824866 -2.15874e-05
0.00274233 -0.00082396 -0.000822157 -2.15871e-05
0.00227698 -0.000685384 -0.000682111 -3.98406e-05
0.00226192 -0.000680837 -0.000677608 -3.98396e-05
0.00316861 -0.00095061 -0.000950573 -8.58403e-11
0.00318973 -0.000956946 -0.000956909 -8.63855e-11
0.00226945 -0.000683111 -0.00067986 -3.98401e-05
0.0027152 -0.000815796 -0.000814028 -2.15862e-05
0.00317917 -0.000953778 -0.000953741 -8.61152e-11
0.00273328 -0.000821239 -0.000819447 -2.15868e-05
0.00272424 -0.000818518 -0.000816738 -2.15865e-05
0.00226192 -0.000680837 -0.000677608 -3.98396e-05
0.00224687 -0.00067629 -0.000673104 -3.98385e-05
0.00314749 -0.000944274 -0.000944237 -8.52775e-11
0.00316861 -0.00095061 -0.000950573 -8.58275e-11
0.00225439 -0.000678564 -0.000675356 -3.9839e-05
0.00269711 -0.000810354 -0.000808609 -2.15856e-05
0.00315805 -0.000947442 -0.000947405 -8.56204e-11
0.0027152 -0.000815796 -0.000814028 -2.15862e-05
0.00270615 -0.000813075 -0.000811319 -2.15859e-05
0.00224687 -0.00067629 -0.000673104 -3.98385e-05
0.00223181 -0.000671743 -0.0006686 -3.98375e-05
0.00312637 -0.000937938 -0.000937901 -8.46664e-11
0.00314749 -0.000944274 -0.000944237 -8.52775e-11
0.00223934 -0.000674017 -0.000670852 -3.9838e-05
0.00267902 -0.000804911 -0.00080319 -2.1585e-05
0.00313693 -0.000941106 -0.000941069 -8.49772e-11
0.00269711 -0.000810354 -0.000808609 -2.15856e-05
0.00268807 -0.000807633 -0.0008059 -2.15853e-05
0.00223181 -0.000671743 -0.0006686 -3.98375e-05
0.00221675 -0.000667197 -0.000664095 -3.98364e-05
0.00310526 -0.000931602 -0.000931566 -8.42029e-11
0.00312637 -0.000937938 -0.000937901 -8.46598e-11
0.00222428 -0.00066947 -0.000666348 -3.98369e-05
0.00266094 -0.000799469 -0.000797771 -2.15844e-05
0.00311581 -0.00093477 -0.000934734 -8.44683e-11
0.00267902 -0.000804911 -0.00080319 -2.1585e-05
0.00266998 -0.00080219 -0.000800481 -2.15847e-05
0.00221675 -0.000667197 -0.000664095 -3.98364e-05
0.0022017 -0.00066265 -0.000659591 -3.98354e-05
0.00308414 -0.000925266 -0.00092523 -8.3581e-11
0.00310526 -0.000931602 -0.000931566 -8.42029e-11
0.00220922 -0.000664924 -0.000661843 -3.98359e-05
0.00264285 -0.000794027 -0.000792352 -2.15838e-05
0.0030947 -0.000928434 -0.000928398 -8.39559e-11
0.00266094 -0.000799469 -0.000797771 -2.15844e-05
0.00265189 -0.000796748 -0.000795062 -2.15841e-05
0.0022017 -0.00066265 -0.000659591 -3.98354e-05
0.00218664 -0.000658104 -0.000655087 -3.98343e-05
0.00306302 -0.00091893 -0.000918895 -8.30181e-11
0.00308414 -0.000925266 -0.00092523 -8.3581e-11
0.00219417 -0.000660377 -0.000657339 -3.98348e-05
0.00262476 -0.000788585 -0.000786933 -2.15832e-05
0.00307358 -0.000922098 -0.000922062 -8.33016e-11
0.00264285 -0.000794027 -0.000792352 -2.15838e-05
0.00263381 -0.000791306 -0.000789643 -2.15835e-05
0.00218664 -0.000658104 -0.000655087 -3.98343e-05
0.00217158 -0.000653558 -0.000650582 -3.98332e-05
0.0030419 -0.000912594 -0.000912559 -8.24644e-11
0.00306302 -0.00091893 -0.000918895 -8.30127e-11
0.00217911 -0.000655831 -0.000652835 -3.98338e-05
0.00260668 -0.000783143 -0.000781514 -2.15825e-05
0.00305246 -0.000915762 -0.000915727 -8.27936e-11
0.00262476 -0.000788585 -0.000786933 -2.15832e-05
0.00261572 -0.000785864 -0.000784223 -2.15828e-05
0.00217158 -0.000653558 -0.000650582 -3.98332e-05
0.00215653 -0.000649012 -0.000646078 -3.98322e-05
0.00302078 -0.000906258 -0.000906224 -8.18999e-11
0.0030419 -0.000912594 -0.000912559 -8.24592e-11
0.00216406 -0.000651285 -0.00064833 -3.98327e-05
0.00258859 -0.000777701 -0.000776095 -2.15819e-05
0.00303134 -0.000909426 -0.000909391 -8.21971e-11
0.00260668 -0.000783143 -0.000781514 -2.15825e-05
0.00259763 -0.000780422 -0.000778804 -2.15822e-05
0.00215653 -0.000649012 -0.000646078 -3.98322e-05
0.00214147 -0.000644467 -0.000641573 -3.98311e-05
0.00299966 -0.000899922 -0.000899888 -8.13472e-11
0.00302078 -0.000906258 -0.000906224 -8.18999e-11
0.002149 -0.00064674 -0.000643825 -3.98316e-05
0.0025705 -0.00077226 -0.000770675 -2.15813e-05
0.00301022 -0.00090309 -0.000903056 -8.16558e-11
0.00258859 -0.000777701 -0.000776095 -2.15819e-05
0.00257955 -0.000774981 -0.000773385 -2.15816e-05
0.00214147 -0.000644467 -0.000641573 -3.98311e-05
0.00212641 -0.000639921 -0.000637068 -3.983e-05
0.00297854 -0.000893587 -0.000893553 -8.07966e-11
0.00299966 -0.000899922 -0.000899888 -8.13472e-11
0.00213394 -0.000642194 -0.000639321 -3.98305e-05
0.00255242 -0.000766818 -0.000765256 -2.15807e-05
0.0029891 -0.000896754 -0.000896721 -8.10936e-11
0.0025705 -0.00077226 -0.000770675 -2.15813e-05
0.00256146 -0.000769539 -0.000767966 -2.1581e-05
0.00212641 -0.000639921 -0.000637068 -3.983e-05
0.00211136 -0.000635376 -0.000632563 -3.98289e-05
0.00295743 -0.000887251 -0.000887218 -8.02265e-11
0.00297854 -0.000893587 -0.000893553 -8.079e-11
0.00211889 -0.000637649 -0.000634816 -3.98294e-05
0.00253433 -0.000761377 -0.000759837 -2.158e-05
0.00296799 -0.000890419 -0.000890386 -8.05473e-11
0.00255242 -0.000766818 -0.000765256 -2.15807e-05
0.00254337 -0.000764098 -0.000762547 -2.15803e-05
0.00211136 -0.000635376 -0.000632563 -3.98289e-05
0.0020963 -0.000630831 -0.000628058 -3.98278e-05
0.00293631 -0.000880915 -0.000880883 -7.96608e-11
0.00295743 -0.000887251 -0.000887218 -8.02394e-11
0.00210383 -0.000633103 -0.000630311 -3.98284e-05
0.00251624 -0.000755936 -0.000754418 -2.15794e-05
0.00294687 -0.000884083 -0.00088405 -7.9969e-11
0.00253433 -0.000761377 -0.000759837 -2.158e-05
0.00252529 -0.000758656 -0.000757127 -2.15797e-05
0.0020963 -0.000630831 -0.000628058 -3.98278e-05
0.00208124 -0.000626286 -0.000623553 -3.98267e-05
0.00291519 -0.00087458 -0.000874548 -7.90984e-11
0.00293631 -0.000880915 -0.000880883 -7.96608e-11
0.00208877 -0.000628559 -0.000625806 -3.98273e-05
0.00249816 -0.000750495 -0.000748998 -2.15787e-05
0.00292575 -0.000877748 -0.000877715 -7.94183e-11
0.00251624 -0.000755936 -0.000754418 -2.15794e-05
0.0025072 -0.000753215 -0.000751708 -2.15791e-05
0.00208124 -0.000626286 -0.000623553 -3.98267e-05
0.00206619 -0.000621741 -0.000619048 -3.98256e-05
0.00289407 -0.000868245 -0.000868213 -7.85418e-11
0.00291519 -0.00087458 -0.000874548 -7.90984e-11
0.00207372 -0.000624014 -0.000621301 -3.98262e-05
0.00248007 -0.000745054 -0.000743579 -2.15781e-05
0.00290463 -0.000871412 -0.00087138 -7.88515e-11
0.00249816 -0.000750495 -0.000748998 -2.15787e-05
0.00248911 -0.000747774 -0.000746289 -2.15784e-05
0.00206619 -0.000621741 -0.000619048 -3.98256e-05
0.00205113 -0.000617197 -0.000614543 -3.98245e-05
0.00287296 -0.000861909 -0.000861878 -7.79796e-11
0.00289407 -0.000868245 -0.000868213 -7.85352e-11
0.00205866 -0.000619469 -0.000616796 -3.9825e-05
0.00246199 -0.000739613 -0.00073816 -2.15775e-05
0.00288352 -0.000865077 -0.000865045 -7.82828e-11
0.00248007 -0.000745054 -0.000743579 -2.15781e-05
0.00247103 -0.000742333 -0.000740869 -2.15778e-05
0.00205113 -0.000617197 -0.000614543 -3.98245e-05
0.00203607 -0.000612653 -0.000610038 -3.98234e-05
0.00285184 -0.000855574 -0.000855543 -7.7422e-11
0.00287296 -0.000861909 -0.000861878 -7.79809e-11
0.0020436 -0.000614925 -0.00061229 -3.98239e-05
0.0024439 -0.000734172 -0.00073274 -2.15768e-05
0.0028624 -0.000858742 -0.00085871 -7.7725e-11
0.00246199 -0.000739613 -0.00073816 -2.15775e-05
0.00245294 -0.000736893 -0.00073545 -2.15771e-05
0.00203607 -0.000612653 -0.000610038 -3.98234e-05
0.00202102 -0.000608108 -0.000605532 -3.98223e-05
0.00283072 -0.000849239 -0.000849208 -7.68527e-11
0.00285184 -0.000855574 -0.000855543 -7.7422e-11
0.00202855 -0.00061038 -0.000607785 -3.98228e-05
0.00242581 -0.000728732 -0.000727321 -2.15762e-05
0.00284128 -0.000852406 -0.000852376 -7.71593e-11
0.0024439 -0.000734172 -0.00073274 -2.15768e-05
0.00243486 -0.000731452 -0.000730031 -2.15765e-05
0.00202102 -0.000608108 -0.000605532 -3.98223e-05
0.00200596 -0.000603565 -0.000601027 -3.98211e-05
0.00280961 -0.000842904 -0.000842873 -7.6292e-11
0.00283072 -0.000849239 -0.000849208 -7.68527e-11
0.00201349 -0.000605836 -0.00060328 -3.98217e-05
0.00240773 -0.000723291 -0.000721902 -2.15755e-05
0.00282017 -0.000846071 -0.000846041 -7.65901e-11
0.00242581 -0.000728732 -0.000727321 -2.15762e-05
0.00241677 -0.000726011 -0.000724611 -2.15758e-05
0.00200596 -0.000603565 -0.000601027 -3.98211e-05
0.0019909 -0.000599021 -0.000596521 -3.982e-05
0.00278849 -0.000836569 -0.000836539 -7.57161e-11
0.00280961 -0.000842904 -0.000842873 -7.62805e-11
0.00199843 -0.000601293 -0.000598774 -3.98206e-05
0.00238964 -0.000717851 -0.000716482 -2.15749e-05
0.00279905 -0.000839736 -0.000839706 -7.6033e-11
0.00240773 -0.000723291 -0.000721902 -2.15755e-05
0.00239869 -0.000720571 -0.000719192 -2.15752e-05
0.0019909 -0.000599021 -0.000596521 -3.982e-05
0.00197585 -0.000594477 -0.000592015 -3.98189e-05
0.00276738 -0.000830234 -0.000830204 -7.51675e-11
0.00278849 -0.000836569 -0.000836539 -7.57241e-11
0.00198337 -0.000596749 -0.000594268 -3.98194e-05
0.00237156 -0.000712411 -0.000711063 -2.15742e-05
0.00277793 -0.000833401 -0.000833372 -7.54665e-11
0.00238964 -0.000717851 -0.000716482 -2.15749e-05
0.0023806 -0.000715131 -0.000713772 -2.15745e-05
0.00197585 -0.000594477 -0.000592015 -3.98189e-05
0.00196079 -0.000589934 -0.00058751 -3.98178e-05
0.00274626 -0.000823899 -0.00082387 -7.45966e-11
0.00276738 -0.000830234 -0.000830204 -7.51675e-11
0.00196832 -0.000592206 -0.000589763 -3.98183e-05
0.00235347 -0.000706971 -0.000705643 -2.15735e-05
0.00275682 -0.000827066 -0.000827037 -7.49079e-11
0.00237156 -0.000712411 -0.000711063 -2.15742e-05
0.00236251 -0.000709691 -0.000708353 -2.15739e-05
0.00196079 -0.000589934 -0.00058751 -3.98178e-05
0.00194573 -0.000585391 -0.000583004 -3.98166e-05
0.00272515 -0.000817564 -0.000817535 -7.40269e-11
0.00274626 -0.000823899 -0.00082387 -7.45966e-11
0.00195326 -0.000587662 -0.000585257 -3.98172e-05
0.00233539 -0.000701531 -0.000700224 -2.15729e-05
0.0027357 -0.000820731 -0.000820703 -7.43447e-11
0.00235347 -0.000706971 -0.000705643 -2.15735e-05
0.00234443 -0.000704251 -0.000702934 -2.15732e-05
0.00194573 -0.000585391 -0.000583004 -3.98166e-05
0.00193068 -0.000580848 -0.000578498 -3.98155e-05
0.00270403 -0.000811229 -0.000811201 -7.3464e-11
0.00272515 -0.000817564 -0.000817535 -7.40403e-11
0.0019382 -0.000583119 -0.000580751 -3.9816e-05
0.0023173 -0.000696091 -0.000694804 -2.15722e-05
0.00271459 -0.000814397 -0.000814368 -7.37782e-11
0.00233539 -0.000701531 -0.000700224 -2.15729e-05
0.00232634 -0.000698811 -0.000697514 -2.15726e-05
0.00193068 -0.000580848 -0.000578498 -3.98155e-05
0.00191562 -0.000576305 -0.000573992 -3.98143e-05
0.00268292 -0.000804894 -0.000804867 -7.29004e-11
0.00270403 -0.000811229 -0.000811201 -7.34766e-11
0.00192315 -0.000578576 -0.000576245 -3.98149e-05
0.00229922 -0.000690652 -0.000689385 -2.15716e-05
0.00269347 -0.000808062 -0.000808034 -7.32172e-11
0.0023173 -0.000696091 -0.000694804 -2.15722e-05
0.00230826 -0.000693372 -0.000692095 -2.15719e-05
0.00191562 -0.000576305 -0.000573992 -3.98143e-05
0.00190056 -0.000571762 -0.000569485 -3.98132e-05
0.0026618 -0.00079856 -0.000798533 -7.23457e-11
0.00268292 -0.000804894 -0.000804867 -7.29004e-11
0.00190809 -0.000574034 -0.000571739 -3.98138e-05
0.00228113 -0.000685212 -0.000683965 -2.15709e-05
0.00267236 -0.000801727 -0.0008017 -7.2644e-11
0.00229922 -0.000690652 -0.000689385 -2.15716e-05
0.00229017 -0.000687932 -0.000686675 -2.15712e-05
0.00190056 -0.000571762 -0.000569485 -3.98132e-05
0.0018855 -0.00056722 -0.000564979 -3.98121e-05
0.00264069 -0.000792225 -0.000792198 -7.17762e-11
0.0026618 -0.00079856 -0.000798533 -7.23457e-11
0.00189303 -0.000569491 -0.000567232 -3.98126e-05
0.00226305 -0.000679773 -0.000678546 -2.15702e-05
0.00265125 -0.000795393 -0.000795365 -7.20935e-11
0.00228113 -0.000685212 -0.000683965 -2.15709e-05
0.00227209 -0.000682493 -0.000681256 -2.15706e-05
0.0018855 -0.00056722 -0.000564979 -3.98121e-05
0.00187045 -0.000562678 -0.000560473 -3.98109e-05
0.00261957 -0.000785891 -0.000785864 -7.12135e-11
0.00264069 -0.000792225 -0.000792198 -7.17846e-11
0.00187798 -0.000564949 -0.000562726 -3.98115e-05
0.00224496 -0.000674334 -0.000673126 -2.15696e-05
0.00263013 -0.000789058 -0.000789031 -7.15214e-11
0.00226305 -0.000679773 -0.000678546 -2.15702e-05
0.002254 -0.000677054 -0.000675836 -2.15699e-05
0.00187045 -0.000562678 -0.000560473 -3.98109e-05
0.00185539 -0.000558136 -0.000555966 -3.98098e-05
0.00259846 -0.000779556 -0.00077953 -7.06548e-11
0.00261957 -0.000785891 -0.000785864 -7.12285e-11
0.00186292 -0.000560407 -0.00055822 -3.98103e-05
0.00222688 -0.000668895 -0.000667707 -2.15689e-05
0.00260902 -0.000782724 -0.000782697 -7.09559e-11
0.00224496 -0.000674334 -0.000673126 -2.15696e-05
0.00223592 -0.000671615 -0.000670417 -2.15692e-05
0.00185539 -0.000558136 -0.000555966 -3.98098e-05
0.00184033 -0.000553594 -0.00055146 -3.98086e-05
0.00257735 -0.000773222 -0.000773196 -7.00994e-11
0.00259846 -0.000779556 -0.00077953 -7.06548e-11
0.00184786 -0.000555865 -0.000553713 -3.98092e-05
0.00220879 -0.000663456 -0.000662287 -2.15683e-05
0.0025879 -0.000776389 -0.000776363 -7.0402e-11
0.00222688 -0.000668895 -0.000667707 -2.15689e-05
0.00221784 -0.000666176 -0.000664997 -2.15686e-05
0.00184033 -0.000553594 -0.00055146 -3.98086e-05
0.00182528 -0.000549052 -0.000546953 -3.98075e-05
0.00255623 -0.000766888 -0.000766863 -6.95241e-11
0.00257735 -0.000773222 -0.000773196 -7.00994e-11
0.00183281 -0.000551323 -0.000549207 -3.9808e-05
0.00219071 -0.000658018 -0.000656868 -2.15676e-05
0.00256679 -0.000770055 -0.00077003 -6.98273e-11
0.00220879 -0.000663456 -0.000662287 -2.15683e-05
0.00219975 -0.000660737 -0.000659578 -2.15679e-05
0.00182528 -0.000549052 -0.000546953 -3.98075e-05
0.00181022 -0.000544511 -0.000542447 -3.98063e-05
0.00253512 -0.000760554 -0.000760529 -6.89631e-11
0.00255623 -0.000766888 -0.000766863 -6.95242e-11
0.00181775 -0.000546782 -0.0005447 -3.98069e-05
0.00217262 -0.000652579 -0.000651448 -2.15669e-05
0.00254568 -0.000763721 -0.000763696 -6.92643e-11
0.00219071 -0.000658018 -0.000656868 -2.15676e-05
0.00218167 -0.000655298 -0.000654158 -2.15673e-05
0.00181022 -0.000544511 -0.000542447 -3.98063e-05
0.00179516 -0.00053997 -0.00053794 -3.98052e-05
0.00251401 -0.00075422 -0.000754195 -6.8396e-11
0.00253512 -0.000760554 -0.000760529 -6.89709e-11
0.00180269 -0.00054224 -0.000540193 -3.98057e-05
0.00215454 -0.000647141 -0.000646029 -2.15663e-05
0.00252456 -0.000757387 -0.000757362 -6.86797e-11
0.00217262 -0.000652579 -0.000651448 -2.15669e-05
0.00216358 -0.00064986 -0.000648738 -2.15666e-05
0.00179516 -0.00053997 -0.00053794 -3.98052e-05
0.00178011 -0.000535429 -0.000533433 -3.9804e-05
0.0024929 -0.000747886 -0.000747862 -6.78195e-11
0.00251401 -0.00075422 -0.000754195 -6.8396e-11
0.00178763 -0.000537699 -0.000535686 -3.98046e-05
0.00213646 -0.000641702 -0.000640609 -2.15656e-05
0.00250345 -0.000751053 -0.000751028 -6.81281e-11
0.00215454 -0.000647141 -0.000646029 -2.15663e-05
0.0021455 -0.000644421 -0.000643319 -2.15659e-05
0.00178011 -0.000535429 -0.000533433 -3.9804e-05
0.00176505 -0.000530888 -0.000528926 -3.98028e-05
0.00247178 -0.000741552 -0.000741528 -6.72557e-11
0.0024929 -0.000747886 -0.000747862 -6.78195e-11
0.00177258 -0.000533158 -0.000531179 -3.98034e-05
0.00211837 -0.000636264 -0.000635189 -2.15649e-05
0.00248234 -0.000744719 -0.000744695 -6.75897e-11
0.00213646 -0.000641702 -0.000640609 -2.15656e-05
0.00212741 -0.000638983 -0.000637899 -2.15652e-05
0.00176505 -0.000530888 -0.000528926 -3.98028e-05
0.00174999 -0.000526347 -0.000524419 -3.98017e-05
0.00245067 -0.000735218 -0.000735195 -6.66892e-11
0.00247178 -0.000741552 -0.000741528 -6.72636e-11
0.00175752 -0.000528618 -0.000526672 -3.98023e-05
0.00210029 -0.000630826 -0.00062977 -2.15642e-05
0.00246123 -0.000738385 -0.000738361 -6.70207e-11
0.00211837 -0.000636264 -0.000635189 -2.15649e-05
0.00210933 -0.000633545 -0.00063248 -2.15646e-05
0.00174999 -0.000526347 -0.000524419 -3.98017e-05
0.00173493 -0.000521807 -0.000519912 -3.98005e-05
0.00242956 -0.000728884 -0.000728861 -6.61271e-11
0.00245067 -0.000735218 -0.000735195 -6.67023e-11
0.00174246 -0.000524077 -0.000522165 -3.98011e-05
0.00208221 -0.000625388 -0.00062435 -2.15636e-05
0.00244012 -0.000732051 -0.000732028 -6.64275e-11
0.00210029 -0.000630826 -0.00062977 -2.15642e-05
0.00209125 -0.000628107 -0.00062706 -2.15639e-05
0.00173493 -0.000521807 -0.000519912 -3.98005e-05
0.00171988 -0.000517267 -0.000515404 -3.97994e-05
0.00240845 -0.00072255 -0.000722528 -6.55629e-11
0.00242956 -0.000728884 -0.000728861 -6.61271e-11
0.00172741 -0.000519537 -0.000517658 -3.98e-05
0.00206412 -0.000619951 -0.000618931 -2.15629e-05
0.002419 -0.000725717 -0.000725695 -6.5859e-11
0.00208221 -0.000625388 -0.00062435 -2.15636e-05
0.00207316 -0.000622669 -0.00062164 -2.15632e-05
0.00171988 -0.000517267 -0.000515404 -3.97994e-05
0.00170482 -0.000512727 -0.000510897 -3.97982e-05
0.00238734 -0.000716217 -0.000716195 -6.49985e-11
0.00240845 -0.00072255 -0.000722528 -6.55629e-11
0.00171235 -0.000514997 -0.000513151 -3.97988e-05
0.00204604 -0.000614513 -0.000613511 -2.15622e-05
0.00239789 -0.000719384 -0.000719361 -6.53104e-11
0.00206412 -0.000619951 -0.000618931 -2.15629e-05
0.00205508 -0.000617232 -0.000616221 -2.15626e-05
0.00170482 -0.000512727 -0.000510897 -3.97982e-05
0.00168976 -0.000508187 -0.00050639 -3.97971e-05
0.00236623 -0.000709883 -0.000709862 -6.44302e-11
0.00238734 -0.000716217 -0.000716195 -6.50069e-11
0.00169729 -0.000510457 -0.000508643 -3.97976e-05
0.00202796 -0.000609076 -0.000608091 -2.15616e-05
0.00237678 -0.00071305 -0.000713028 -6.4724e-11
0.00204604 -0.000614513 -0.000613511 -2.15622e-05
0.002037 -0.000611794 -0.000610801 -2.15619e-05
0.00168976 -0.000508187 -0.00050639 -3.97971e-05
0.00167471 -0.000503647 -0.000501882 -3.97959e-05
0.00234512 -0.00070355 -0.000703529 -6.38667e-11
0.00236623 -0.000709883 -0.000709862 -6.44252e-11
0.00168223 -0.000505917 -0.000504136 -3.97965e-05
0.00200987 -0.000603638 -0.000602672 -2.15609e-05
0.00235567 -0.000706717 -0.000706695 -6.41538e-11
0.00202796 -0.000609076 -0.000608091 -2.15616e-05
0.00201891 -0.000606357 -0.000605381 -2.15612e-05
0.00167471 -0.000503647 -0.000501882 -3.97959e-05
0.00165965 -0.000499108 -0.000497374 -3.97948e-05
0.00232401 -0.000697216 -0.000697196 -6.33106e-11
0.00234512 -0.00070355 -0.000703529 -6.38667e-11
0.00166718 -0.000501378 -0.000499628 -3.97953e-05
0.00199179 -0.000598201 -0.000597252 -2.15602e-05
0.00233456 -0.000700383 -0.000700362 -6.35967e-11
0.00200987 -0.000603638 -0.000602672 -2.15609e-05
0.00200083 -0.00060092 -0.000599962 -2.15606e-05
0.00165965 -0.000499108 -0.000497374 -3.97948e-05
0.00164459 -0.000494569 -0.000492867 -3.97936e-05
0.0023029 -0.000690883 -0.000690863 -6.27483e-11
0.00232401 -0.000697216 -0.000697196 -6.33106e-11
0.00165212 -0.000496838 -0.000495121 -3.97942e-05
0.00197371 -0.000592764 -0.000591832 -2.15596e-05
0.00231345 -0.00069405 -0.000694029 -6.30389e-11
0.00199179 -0.000598201 -0.000597252 -2.15602e-05
0.00198275 -0.000595483 -0.000594542 -2.15599e-05
0.00164459 -0.000494569 -0.000492867 -3.97936e-05
0.00162953 -0.00049003 -0.000488359 -3.97925e-05
0.00228179 -0.00068455 -0.00068453 -6.2179e-11
0.0023029 -0.000690883 -0.000690863 -6.27368e-11
0.00163706 -0.000492299 -0.000490613 -3.9793e-05
0.00195562 -0.000587327 -0.000586412 -2.15589e-05
0.00229234 -0.000687716 -0.000687696 -6.24608e-11
0.00197371 -0.000592764 -0.000591832 -2.15596e-05
0.00196466 -0.000590046 -0.000589122 -2.15592e-05
0.00162953 -0.00049003 -0.000488359 -3.97925e-05
0.00161448 -0.000485491 -0.000483851 -3.97913e-05
0.00226068 -0.000678217 -0.000678197 -6.16083e-11
0.00228179 -0.00068455 -0.00068453 -6.2194e-11
0.00162201 -0.00048776 -0.000486105 -3.97919e-05
0.00193754 -0.000581891 -0.000580993 -2.15582e-05
0.00227123 -0.000681383 -0.000681364 -6.189e-11
0.00195562 -0.000587327 -0.000586412 -2.15589e-05
0.00194658 -0.000584609 -0.000583703 -2.15586e-05
0.00161448 -0.000485491 -0.000483851 -3.97913e-05
0.00159942 -0.000480952 -0.000479343 -3.97902e-05
0.00223957 -0.000671884 -0.000671865 -6.10266e-11
0.00226068 -0.000678217 -0.000678197 -6.16083e-11
0.00160695 -0.000483221 -0.000481597 -3.97907e-05
0.00191946 -0.000576454 -0.000575573 -2.15576e-05
0.00225012 -0.00067505 -0.000675031 -6.13351e-11
0.00193754 -0.000581891 -0.000580993 -2.15582e-05
0.0019285 -0.000579172 -0.000578283 -2.15579e-05
0.00159942 -0.000480952 -0.000479343 -3.97902e-05
0.00158436 -0.000476414 -0.000474835 -3.9789e-05
0.00221846 -0.000665551 -0.000665532 -6.04621e-11
0.00223957 -0.000671884 -0.000671865 -6.10266e-11
0.00159189 -0.000478683 -0.000477089 -3.97896e-05
0.00190138 -0.000571018 -0.000570153 -2.15569e-05
0.00222901 -0.000668717 -0.000668698 -6.07684e-11
0.00191946 -0.000576454 -0.000575573 -2.15576e-05
0.00191042 -0.000573736 -0.000572863 -2.15572e-05
0.00158436 -0.000476414 -0.000474835 -3.9789e-05
0.0015693 -0.000471875 -0.000470327 -3.97879e-05
0.00219735 -0.000659218 -0.000659199 -5.98905e-11
0.00221846 -0.000665551 -0.000665532 -6.04491e-11
0.00157683 -0.000474145 -0.000472581 -3.97884e-05
0.00188329 -0.000565581 -0.000564733 -2.15562e-05
0.0022079 -0.000662384 -0.000662366 -6.01983e-11
0.00190138 -0.000571018 -0.000570153 -2.15569e-05
0.00189233 -0.0005683 -0.000567443 -2.15566e-05
0.0015693 -0.000471875 -0.000470327 -3.97879e-05
0.00155425 -0.000467337 -0.000465819 -3.97867e-05
0.00217624 -0.000652885 -0.000652867 -5.93232e-11
0.00219735 -0.000659218 -0.000659199 -5.99185e-11
0.00156178 -0.000469606 -0.000468073 -3.97873e-05
0.00186521 -0.000560145 -0.000559314 -2.15556e-05
0.0021868 -0.000656051 -0.000656033 -5.96182e-11
0.00188329 -0.000565581 -0.000564733 -2.15562e-05
0.00187425 -0.000562863 -0.000562024 -2.15559e-05
0.00155425 -0.000467337 -0.000465819 -3.97867e-05
0.00153919 -0.000462799 -0.00046131 -3.97856e-05
0.00215513 -0.000646552 -0.000646535 -5.87696e-11
0.00217624 -0.000652885 -0.000652867 -5.93232e-11
0.00154672 -0.000465068 -0.000463564 -3.97861e-05
0.00184713 -0.000554709 -0.000553894 -2.15549e-05
0.00216569 -0.000649718 -0.000649701 -5.90605e-11
0.00186521 -0.000560145 -0.000559314 -2.15556e-05
0.00185617 -0.000557427 -0.000556604 -2.15552e-05
0.00153919 -0.000462799 -0.00046131 -3.97856e-05
0.00152413 -0.000458262 -0.000456802 -3.97844e-05
0.00213402 -0.000640219 -0.000640202 -5.82081e-11
0.00215513 -0.000646552 -0.000646535 -5.87696e-11
0.00153166 -0.000460531 -0.000459056 -3.9785e-05
0.00182905 -0.000549274 -0.000548474 -2.15542e-05
0.00214458 -0.000643386 -0.000643368 -5.85139e-11
0.00184713 -0.000554709 -0.000553894 -2.15549e-05
0.00183809 -0.000551991 -0.000551184 -2.15546e-05
0.00152413 -0.000458262 -0.000456802 -3.97844e-05
0.00150908 -0.000453724 -0.000452293 -3.97833e-05
0.00211292 -0.000633887 -0.00063387 -5.76228e-11
0.00213402 -0.000640219 -0.000640202 -5.81969e-11
0.0015166 -0.000455993 -0.000454548 -3.97839e-05
0.00181096 -0.000543838 -0.000543054 -2.15536e-05
0.00212347 -0.000637053 -0.000637036 -5.79041e-11
0.00182905 -0.000549274 -0.000548474 -2.15542e-05
0.00182001 -0.000546556 -0.000545764 -2.15539e-05
0.00150908 -0.000453724 -0.000452293 -3.97833e-05
0.00149402 -0.000449187 -0.000447785 -3.97822e-05
0.00209181 -0.000627554 -0.000627538 -5.7071e-11
0.00211292 -0.000633887 -0.00063387 -5.76424e-11
0.00150155 -0.000451456 -0.000450039 -3.97827e-05
0.00179288 -0.000538402 -0.000537634 -2.15529e-05
0.00210236 -0.00063072 -0.000630704 -5.73384e-11
0.00181096 -0.000543838 -0.000543054 -2.15536e-05
0.00180192 -0.00054112 -0.000540344 -2.15533e-05
0.00149402 -0.000449187 -0.000447785 -3.97822e-05
0.00147896 -0.00044465 -0.000443276 -3.9781e-05
0.0020707 -0.000621222 -0.000621206 -5.64987e-11
0.00209181 -0.000627554 -0.000627538 -5.7071e-11
0.00148649 -0.000446918 -0.00044553 -3.97816e-05
0.0017748 -0.000532967 -0.000532215 -2.15523e-05
0.00208126 -0.000624388 -0.000624372 -5.67784e-11
0.00179288 -0.000538402 -0.000537634 -2.15529e-05
0.00178384 -0.000535685 -0.000534924 -2.15526e-05
0.00147896 -0.00044465 -0.000443276 -3.9781e-05
0.0014639 -0.000440113 -0.000438767 -3.97799e-05
0.00204959 -0.000614889 -0.000614874 -5.59184e-11
0.0020707 -0.000621222 -0.000621206 -5.64987e-11
0.00147143 -0.000442381 -0.000441022 -3.97804e-05
0.00175672 -0.000527532 -0.000526795 -2.15516e-05
0.00206015 -0.000618055 -0.00061804 -5.62125e-11
0.0017748 -0.000532967 -0.000532215 -2.15523e-05
0.00176576 -0.000530249 -0.000529505 -2.15519e-05
0.0014639 -0.000440113 -0.000438767 -3.97799e-05
0.00144885 -0.000435576 -0.000434258 -3.97788e-05
0.00202849 -0.000608557 -0.000608542 -5.53569e-11
0.00204959 -0.000614889 -0.000614874 -5.59313e-11
0.00145637 -0.000437845 -0.000436513 -3.97793e-05
0.00173864 -0.000522096 -0.000521375 -2.1551e-05
0.00203904 -0.000611723 -0.000611708 -5.56491e-11
0.00175672 -0.000527532 -0.000526795 -2.15516e-05
0.00174768 -0.000524814 -0.000524085 -2.15513e-05
0.00144885 -0.000435576 -0.000434258 -3.97788e-05
0.00143379 -0.00043104 -0.000429749 -3.97776e-05
0.00200738 -0.000602225 -0.00060221 -5.48032e-11
0.00202849 -0.000608557 -0.000608542 -5.53568e-11
0.00144132 -0.000433308 -0.000432004 -3.97782e-05
0.00172056 -0.000516661 -0.000515955 -2.15503e-05
0.00201793 -0.000605391 -0.000605376 -5.50714e-11
0.00173864 -0.000522096 -0.000521375 -2.1551e-05
0.0017296 -0.000519379 -0.000518665 -2.15506e-05
0.00143379 -0.00043104 -0.000429749 -3.97776e-05
0.00141873 -0.000426504 -0.00042524 -3.97765e-05
0.00198628 -0.000595892 -0.000595878 -5.42004e-11
0.00200738 -0.000602225 -0.00060221 -5.48032e-11
0.00142626 -0.000428772 -0.000427495 -3.97771e-05
0.00170247 -0.000511227 -0.000510535 -2.15497e-05
0.00199683 -0.000599059 -0.000599044 -5.45176e-11
0.00172056 -0.000516661 -0.000515955 -2.15503e-05
0.00171152 -0.000513944 -0.000513245 -2.155e-05
0.00141873 -0.000426504 -0.00042524 -3.97765e-05
0.00140367 -0.000421967 -0.000420731 -3.97754e-05
0.00196517 -0.00058956 -0.000589547 -5.36548e-11
0.00198628 -0.000595892 -0.000595878 -5.42004e-11
0.0014112 -0.000424235 -0.000422986 -3.97759e-05
0.00168439 -0.000505792 -0.000505115 -2.1549e-05
0.00197572 -0.000592726 -0.000592712 -5.39537e-11
0.00170247 -0.000511227 -0.000510535 -2.15497e-05
0.00169343 -0.000508509 -0.000507825 -2.15493e-05
0.00140367 -0.000421967 -0.000420731 -3.97754e-05
0.00138862 -0.000417432 -0.000416222 -3.97743e-05
0.00194406 -0.000583228 -0.000583215 -5.3045e-11
0.00196517 -0.00058956 -0.000589547 -5.36548e-11
0.00139614 -0.000419699 -0.000418476 -3.97748e-05
0.00166631 -0.000500357 -0.000499695 -2.15484e-05
0.00195462 -0.000586394 -0.000586381 -5.33646e-11
0.00168439 -0.000505792 -0.000505115 -2.1549e-05
0.00167535 -0.000503075 -0.000502405 -2.15487e-05
0.00138862 -0.000417432 -0.000416222 -3.97743e-05
0.00137356 -0.000412896 -0.000411712 -3.97732e-05
0.00192296 -0.000576896 -0.000576883 -5.2497e-11
0.00194406 -0.000583228 -0.000583215 -5.30671e-11
0.00138109 -0.000415164 -0.000413967 -3.97737e-05
0.00164823 -0.000494923 -0.000494275 -2.15477e-05
0.00193351 -0.000580062 -0.000580049 -5.27741e-11
0.00166631 -0.000500357 -0.000499695 -2.15484e-05
0.00165727 -0.00049764 -0.000496985 -2.1548e-05
0.00137356 -0.000412896 -0.000411712 -3.97732e-05
0.0013585 -0.00040836 -0.000407203 -3.9772e-05
0.00190185 -0.000570564 -0.000570552 -5.19139e-11
0.00192296 -0.000576896 -0.000576883 -5.2497e-11
0.00136603 -0.000410628 -0.000409458 -3.97726e-05
0.00163015 -0.000489488 -0.000488855 -2.15471e-05
0.0019124 -0.00057373 -0.000573718 -5.22149e-11
0.00164823 -0.000494923 -0.000494275 -2.15477e-05
0.00163919 -0.000492206 -0.000491565 -2.15474e-05
0.0013585 -0.00040836 -0.000407203 -3.9772e-05
0.00134344 -0.000403825 -0.000402693 -3.97709e-05
0.00188075 -0.000564233 -0.00056422 -5.13624e-11
0.00190185 -0.000570564 -0.000570552 -5.19139e-11
0.00135097 -0.000406093 -0.000404948 -3.97715e-05
0.00161207 -0.000484054 -0.000483435 -2.15464e-05
0.0018913 -0.000567398 -0.000567386 -5.16645e-11
0.00163015 -0.000489488 -0.000488855 -2.15471e-05
0.00162111 -0.000486771 -0.000486145 -2.15467e-05
0.00134344 -0.000403825 -0.000402693 -3.97709e-05
0.00132838 -0.00039929 -0.000398184 -3.97698e-05
0.00185964 -0.000557901 -0.000557889 -5.08025e-11
0.00188075 -0.000564233 -0.00056422 -5.13758e-11
0.00133591 -0.000401557 -0.000400439 -3.97704e-05
0.00159399 -0.00047862 -0.000478015 -2.15458e-05
0.00187019 -0.000561067 -0.000561055 -5.1094e-11
0.00161207 -0.000484054 -0.000483435 -2.15464e-05
0.00160303 -0.000481337 -0.000480725 -2.15461e-05
0.00132838 -0.00039929 -0.000398184 -3.97698e-05
0.00131333 -0.000394755 -0.000393674 -3.97687e-05
0.00183854 -0.000551569 -0.000551558 -5.02079e-11
0.00185964 -0.000557901 -0.000557889 -5.08025e-11
0.00132086 -0.000397022 -0.000395929 -3.97693e-05
0.00157591 -0.000473186 -0.000472595 -2.15451e-05
0.00184909 -0.000554735 -0.000554723 -5.05096e-11
0.00159399 -0.00047862 -0.000478015 -2.15458e-05
0.00158495 -0.000475903 -0.000475305 -2.15455e-05
0.00131333 -0.000394755 -0.000393674 -3.97687e-05
0.00129827 -0.00039022 -0.000389164 -3.97676e-05
0.00181743 -0.000545237 -0.000545227 -4.96563e-11
0.00183854 -0.000551569 -0.000551558 -5.02079e-11
0.0013058 -0.000392487 -0.000391419 -3.97682e-05
0.00155783 -0.000467753 -0.000467175 -2.15445e-05
0.00182798 -0.000548403 -0.000548392 -4.99374e-11
0.00157591 -0.000473186 -0.000472595 -2.15451e-05
0.00156687 -0.000470469 -0.000469885 -2.15448e-05
0.00129827 -0.00039022 -0.000389164 -3.97676e-05
0.00128321 -0.000385685 -0.000384654 -3.97666e-05
0.00179633 -0.000538906 -0.000538895 -4.90641e-11
0.00181743 -0.000545237 -0.000545227 -4.96563e-11
0.00129074 -0.000387953 -0.000386909 -3.97671e-05
0.00153975 -0.000462319 -0.000461755 -2.15439e-05
0.00180688 -0.000542072 -0.000542061 -4.93539e-11
0.00155783 -0.000467753 -0.000467175 -2.15445e-05
0.00154879 -0.000465036 -0.000464465 -2.15442e-05
0.00128321 -0.000385685 -0.000384654 -3.97666e-05
0.00126815 -0.000381151 -0.000380144 -3.97655e-05
0.00177522 -0.000532574 -0.000532564 -4.84836e-11
0.00179633 -0.000538906 -0.000538895 -4.90644e-11
0.00127568 -0.000383418 -0.000382399 -3.9766e-05
0.00152167 -0.000456885 -0.000456335 -2.15432e-05
0.00178578 -0.00053574 -0.00053573 -4.87661e-11
0.00153975 -0.000462319 -0.000461755 -2.15439e-05
0.00153071 -0.000459602 -0.000459045 -2.15436e-05
0.00126815 -0.000381151 -0.000380144 -3.97655e-05
0.0012531 -0.000376617 -0.000375634 -3.97644e-05
0.00175412 -0.000526243 -0.000526233 -4.79285e-11
0.00177522 -0.000532574 -0.000532564 -4.84795e-11
0.00126062 -0.000378884 -0.000377889 -3.97649e-05
0.00150359 -0.000451452 -0.000450915 -2.15426e-05
0.00176467 -0.000529409 -0.000529399 -4.82202e-11
0.00152167 -0.000456885 -0.000456335 -2.15432e-05
0.00151263 -0.000454169 -0.000453625 -2.15429e-05
0.0012531 -0.000376617 -0.000375634 -3.97644e-05
0.00123804 -0.000372083 -0.000371124 -3.97633e-05
0.00173302 -0.000519912 -0.000519902 -4.73656e-11
0.00175412 -0.000526243 -0.000526233 -4.79285e-11
0.00124557 -0.00037435 -0.000373379 -3.97639e-05
0.00148551 -0.000446019 -0.000445495 -2.1542e-05
0.00174357 -0.000523077 -0.000523068 -4.76569e-11
0.00150359 -0.000451452 -0.000450915 -2.15426e-05
0.00149455 -0.000448735 -0.000448205 -2.15423e-05
0.00123804 -0.000372083 -0.000371124 -3.97633e-05
0.00122298 -0.000367549 -0.000366613 -3.97622e-05
0.00171191 -0.00051358 -0.000513571 -4.67658e-11
0.00173302 -0.000519912 -0.000519902 -4.73656e-11
0.00123051 -0.000369816 -0.000368869 -3.97628e-05
0.00146743 -0.000440586 -0.000440074 -2.15414e-05
0.00172247 -0.000516746 -0.000516737 -4.70809e-11
0.00148551 -0.000446019 -0.000445495 -2.1542e-05
0.00147647 -0.000443302 -0.000442784 -2.15417e-05
0.00122298 -0.000367549 -0.000366613 -3.97622e-05
0.00120792 -0.000363015 -0.000362103 -3.97612e-05
0.00169081 -0.000507249 -0.000507241 -4.62233e-11
0.00171191 -0.00051358 -0.000513571 -4.6802e-11
0.00121545 -0.000365282 -0.000364358 -3.97617e-05
0.00144935 -0.000435153 -0.000434654 -2.15408e-05
0.00170136 -0.000510415 -0.000510406 -4.6491e-11
0.00146743 -0.000440586 -0.000440074 -2.15414e-05
0.00145839 -0.000437869 -0.000437364 -2.15411e-05
0.00120792 -0.000363015 -0.000362103 -3.97612e-05
0.00119286 -0.000358482 -0.000357592 -3.97601e-05
0.00166971 -0.000500918 -0.00050091 -4.56661e-11
0.00169081 -0.000507249 -0.000507241 -4.62229e-11
0.00120039 -0.000360748 -0.000359848 -3.97607e-05
0.00143127 -0.00042972 -0.000429234 -2.15401e-05
0.00168026 -0.000504083 -0.000504075 -4.59201e-11
0.00144935 -0.000435153 -0.000434654 -2.15408e-05
0.00144031 -0.000432436 -0.000431944 -2.15404e-05
0.00119286 -0.000358482 -0.000357592 -3.97601e-05
0.00117781 -0.000353948 -0.000353082 -3.97591e-05
0.0016486 -0.000494587 -0.000494579 -4.50982e-11
0.00166971 -0.000500918 -0.00050091 -4.56661e-11
0.00118534 -0.000356215 -0.000355337 -3.97596e-05
0.00141319 -0.000424287 -0.000423814 -2.15395e-05
0.00165916 -0.000497752 -0.000497744 -4.53825e-11
0.00143127 -0.00042972 -0.000429234 -2.15401e-05
0.00142223 -0.000427004 -0.000426524 -2.15398e-05
0.00117781 -0.000353948 -0.000353082 -3.97591e-05
0.00116275 -0.000349415 -0.000348571 -3.9758e-05
0.0016275 -0.000488256 -0.000488248 -4.44887e-11
0.0016486 -0.000494587 -0.000494579 -4.50982e-11
0.00117028 -0.000351682 -0.000350826 -3.97585e-05
0.00139511 -0.000418855 -0.000418393 -2.15389e-05
0.00163805 -0.000491421 -0.000491414 -4.47982e-11
0.00141319 -0.000424287 -0.000423814 -2.15395e-05
0.00140415 -0.000421571 -0.000421104 -2.15392e-05
0.00116275 -0.000349415 -0.000348571 -3.9758e-05
0.00114769 -0.000344882 -0.00034406 -3.9757e-05
0.0016064 -0.000481925 -0.000481918 -4.39248e-11
0.0016275 -0.000488256 -0.000488248 -4.44887e-11
0.00115522 -0.000347149 -0.000346316 -3.97575e-05
0.00137703 -0.000413422 -0.000412973 -2.15383e-05
0.00161695 -0.00048509 -0.000485083 -4.4218e-11
0.00139511 -0.000418855 -0.000418393 -2.15389e-05
0.00138607 -0.000416138 -0.000415683 -2.15386e-05
0.00114769 -0.000344882 -0.00034406 -3.9757e-05
0.00113263 -0.00034035 -0.000339549 -3.97559e-05
0.0015853 -0.000475594 -0.000475587 -4.33358e-11
0.0016064 -0.000481925 -0.000481918 -4.39118e-11
0.00114016 -0.000342616 -0.000341805 -3.97565e-05
0.00135895 -0.00040799 -0.000407553 -2.15377e-05
0.00159585 -0.000478759 -0.000478752 -4.36246e-11
0.00137703 -0.000413422 -0.000412973 -2.15383e-05
0.00136799 -0.000410706 -0.000410263 -2.1538e-05
0.00113263 -0.00034035 -0.000339549 -3.97559e-05
0.00111757 -0.000335817 -0.000335038 -3.97549e-05
0.0015642 -0.000469263 -0.000469257 -4.2771e-11
0.0015853 -0.000475594 -0.000475587 -4.33358e-11
0.0011251 -0.000338083 -0.000337294 -3.97554e-05
0.00134087 -0.000402558 -0.000402132 -2.15371e-05
0.00157475 -0.000472428 -0.000472422 -4.30734e-11
0.00135895 -0.00040799 -0.000407553 -2.15377e-05
0.00134991 -0.000405274 -0.000404843 -2.15374e-05
0.00111757 -0.000335817 -0.000335038 -3.97549e-05
0.00110251 -0.000331285 -0.000330527 -3.97539e-05
0.00154309 -0.000462932 -0.000462926 -4.22095e-11
0.0015642 -0.000469263 -0.000469257 -4.2771e-11
0.00111004 -0.000333551 -0.000332783 -3.97544e-05
0.00132279 -0.000397126 -0.000396712 -2.15365e-05
0.00155364 -0.000466097 -0.000466091 -4.25117e-11
0.00134087 -0.000402558 -0.000402132 -2.15371e-05
0.00133183 -0.000399842 -0.000399422 -2.15368e-05
0.00110251 -0.000331285 -0.000330527 -3.97539e-05
0.00108746 -0.000326753 -0.000326016 -3.97529e-05
0.00152199 -0.000456601 -0.000456596 -4.16289e-11
0.00154309 -0.000462932 -0.000462926 -4.2206e-11
0.00109499 -0.000329019 -0.000328271 -3.97534e-05
0.00130471 -0.000391694 -0.000391292 -2.15359e-05
0.00153254 -0.000459767 -0.000459761 -4.19213e-11
0.00132279 -0.000397126 -0.000396712 -2.15365e-05
0.00131375 -0.00039441 -0.000394002 -2.15362e-05
0.00108746 -0.000326753 -0.000326016 -3.97529e-05
0.0010724 -0.000322221 -0.000321504 -3.97518e-05
0.00150089 -0.000450271 -0.000450266 -4.10695e-11
0.00152199 -0.000456601 -0.000456596 -4.16289e-11
0.00107993 -0.000324487 -0.00032376 -3.97523e-05
0.00128663 -0.000386262 -0.000385871 -2.15353e-05
0.00151144 -0.000453436 -0.000453431 -4.13439e-11
0.00130471 -0.000391694 -0.000391292 -2.15359e-05
0.00129567 -0.000388978 -0.000388581 -2.15356e-05
0.0010724 -0.000322221 -0.000321504 -3.97518e-05
0.00105734 -0.000317689 -0.000316993 -3.97508e-05
0.00147979 -0.00044394 -0.000443935 -4.04802e-11
0.00150089 -0.000450271 -0.000450266 -4.10695e-11
0.00106487 -0.000319955 -0.000319249 -3.97513e-05
0.00126855 -0.00038083 -0.000380451 -2.15347e-05
0.00149034 -0.000447105 -0.0004471 -4.07808e-11
0.00128663 -0.000386262 -0.000385871 -2.15353e-05
0.00127759 -0.000383546 -0.000383161 -2.1535e-05
0.00105734 -0.000317689 -0.000316993 -3.97508e-05
0.00104228 -0.000313157 -0.000312481 -3.97498e-05
0.00145869 -0.000437609 -0.000437605 -3.98998e-11
0.00147979 -0.00044394 -0.000443935 -4.04802e-11
0.00104981 -0.000315423 -0.000314737 -3.97503e-05
0.00125047 -0.000375399 -0.00037503 -2.15341e-05
0.00146924 -0.000440775 -0.00044077 -4.01859e-11
0.00126855 -0.00038083 -0.000380451 -2.15347e-05
0.00125951 -0.000378114 -0.00037774 -2.15344e-05
0.00104228 -0.000313157 -0.000312481 -3.97498e-05
0.00102722 -0.000308626 -0.00030797 -3.97488e-05
0.00143759 -0.000431279 -0.000431275 -3.93414e-11
0.00145869 -0.000437609 -0.000437605 -3.99005e-11
0.00103475 -0.000310891 -0.000310226 -3.97493e-05
0.00123239 -0.000369967 -0.00036961 -2.15335e-05
0.00144814 -0.000434444 -0.00043444 -3.96067e-11
0.00125047 -0.000375399 -0.00037503 -2.15341e-05
0.00124143 -0.000372683 -0.00037232 -2.15338e-05
0.00102722 -0.000308626 -0.00030797 -3.97488e-05
0.00101216 -0.000304094 -0.000303458 -3.97478e-05
0.00141649 -0.000424948 -0.000424945 -3.87598e-11
0.00143759 -0.000431279 -0.000431275 -3.93274e-11
0.00101969 -0.00030636 -0.000305714 -3.97483e-05
0.00121431 -0.000364536 -0.000364189 -2.1533e-05
0.00142704 -0.000428113 -0.00042811 -3.90692e-11
0.00123239 -0.000369967 -0.00036961 -2.15335e-05
0.00122335 -0.000367251 -0.000366899 -2.15333e-05
0.00101216 -0.000304094 -0.000303458 -3.97478e-05
0.000997104 -0.000299563 -0.000298946 -3.97469e-05
0.00139539 -0.000418618 -0.000418615 -3.81926e-11
0.00141649 -0.000424948 -0.000424945 -3.87598e-11
0.00100463 -0.000301829 -0.000301202 -3.97473e-05
0.00119623 -0.000359105 -0.000358768 -2.15324e-05
0.00140594 -0.000421783 -0.00042178 -3.8478e-11
0.00121431 -0.000364536 -0.000364189 -2.1533e-05
0.00120527 -0.00036182 -0.000361479 -2.15327e-05
0.000997104 -0.000299563 -0.000298946 -3.97469e-05
0.000982045 -0.000295032 -0.000294434 -3.97459e-05
0.00137429 -0.000412287 -0.000412285 -3.75822e-11
0.00139539 -0.000418618 -0.000418615 -3.81926e-11
0.000989575 -0.000297298 -0.00029669 -3.97464e-05
0.00117815 -0.000353673 -0.000353348 -2.15318e-05
0.00138484 -0.000415453 -0.00041545 -3.78738e-11
0.00119623 -0.000359105 -0.000358768 -2.15324e-05
0.00118719 -0.000356389 -0.000356058 -2.15321e-05
0.000982045 -0.000295032 -0.000294434 -3.97459e-05
0.000966986 -0.000290502 -0.000289922 -3.97449e-05
0.00135318 -0.000405957 -0.000405955 -3.70192e-11
0.00137429 -0.000412287 -0.000412285 -3.76188e-11
0.000974516 -0.000292767 -0.000292178 -3.97454e-05
0.00116007 -0.000348243 -0.000347927 -2.15312e-05
0.00136373 -0.000409122 -0.00040912 -3.733e-11
0.00117815 -0.000353673 -0.000353348 -2.15318e-05
0.00116911 -0.000350958 -0.000350637 -2.15315e-05
0.000966986 -0.000290502 -0.000289922 -3.97449e-05
0.000951927 -0.000285971 -0.00028541 -3.97439e-05
0.00133208 -0.000399627 -0.000399625 -3.64562e-11
0.00135318 -0.000405957 -0.000405955 -3.70196e-11
0.000959456 -0.000288236 -0.000287666 -3.97444e-05
0.00114199 -0.000342812 -0.000342506 -2.15307e-05
0.00134263 -0.000402792 -0.00040279 -3.67275e-11
0.00116007 -0.000348243 -0.000347927 -2.15312e-05
0.00115103 -0.000345527 -0.000345217 -2.1531e-05
0.000951927 -0.000285971 -0.00028541 -3.97439e-05
0.000936868 -0.000281441 -0.000280897 -3.9743e-05
0.00131098 -0.000393296 -0.000393295 -3.58688e-11
0.00133208 -0.000399627 -0.000399625 -3.64562e-11
0.000944397 -0.000283706 -0.000283154 -3.97435e-05
0.00112391 -0.000337381 -0.000337086 -2.15301e-05
0.00132153 -0.000396462 -0.00039646 -3.61452e-11
0.00114199 -0.000342812 -0.000342506 -2.15307e-05
0.00113295 -0.000340096 -0.000339796 -2.15304e-05
0.000936868 -0.000281441 -0.000280897 -3.9743e-05
0.000921808 -0.00027691 -0.000276385 -3.9742e-05
0.00128988 -0.000386966 -0.000386965 -3.52908e-11
0.00131098 -0.000393296 -0.000393295 -3.58688e-11
0.000929338 -0.000279175 -0.000278641 -3.97425e-05
0.00110583 -0.00033195 -0.000331665 -2.15296e-05
0.00130043 -0.000390131 -0.00039013 -3.55672e-11
0.00112391 -0.000337381 -0.000337086 -2.15301e-05
0.00111487 -0.000334666 -0.000334375 -2.15298e-05
0.000921808 -0.00027691 -0.000276385 -3.9742e-05
0.000906749 -0.00027238 -0.000271872 -3.97411e-05
0.00126879 -0.000380636 -0.000380635 -3.47289e-11
0.00128988 -0.000386966 -0.000386965 -3.52908e-11
0.000914279 -0.000274645 -0.000274129 -3.97416e-05
0.00108776 -0.00032652 -0.000326244 -2.1529e-05
0.00127934 -0.000383801 -0.0003838 -3.49819e-11
0.00110583 -0.00033195 -0.000331665 -2.15296e-05
0.0010968 -0.000329235 -0.000328954 -2.15293e-05
0.000906749 -0.00027238 -0.000271872 -3.97411e-05
0.000891689 -0.00026785 -0.00026736 -3.97402e-05
0.00124769 -0.000374306 -0.000374306 -3.41319e-11
0.00126879 -0.000380636 -0.000380635 -3.47248e-11
0.000899219 -0.000270115 -0.000269616 -3.97406e-05
0.00106968 -0.000321089 -0.000320823 -2.15285e-05
0.00125824 -0.000377471 -0.00037747 -3.44389e-11
0.00108776 -0.00032652 -0.000326244 -2.1529e-05
0.00107872 -0.000323805 -0.000323534 -2.15287e-05
0.000891689 -0.00026785 -0.00026736 -3.97402e-05
0.00087663 -0.000263321 -0.000262847 -3.97392e-05
0.00122659 -0.000367976 -0.000367976 -3.3552e-11
0.00124769 -0.000374306 -0.000374306 -3.41319e-11
0.00088416 -0.000265585 -0.000265103 -3.97397e-05
0.0010516 -0.000315659 -0.000315402 -2.15279e-05
0.00123714 -0.000371141 -0.000371141 -3.38118e-11
0.00106968 -0.000321089 -0.000320823 -2.15285e-05
0.00106064 -0.000318374 -0.000318113 -2.15282e-05
0.00087663 -0.000263321 -0.000262847 -3.97392e-05
0.00086157 -0.000258791 -0.000258334 -3.97383e-05
0.00120549 -0.000361646 -0.000361646 -3.29895e-11
0.00122659 -0.000367976 -0.000367976 -3.3552e-11
0.0008691 -0.000261056 -0.00026059 -3.97388e-05
0.00103352 -0.000310229 -0.000309981 -2.15274e-05
0.00121604 -0.000364811 -0.000364811 -3.32923e-11
0.0010516 -0.000315659 -0.000315402 -2.15279e-05
0.00104256 -0.000312944 -0.000312692 -2.15276e-05
0.00086157 -0.000258791 -0.000258334 -3.97383e-05
0.00084651 -0.000254262 -0.000253821 -3.97374e-05
0.00118439 -0.000355316 -0.000355317 -3.24325e-11
0.00120549 -0.000361646 -0.000361646 -3.30028e-11
0.00085404 -0.000256526 -0.000256077 -3.97378e-05
0.00101544 -0.000304799 -0.00030456 -2.15268e-05
0.00119494 -0.000358481 -0.000358481 -3.26965e-11
0.00103352 -0.000310229 -0.000309981 -2.15274e-05
0.00102448 -0.000307514 -0.000307271 -2.15271e-05
0.00084651 -0.000254262 -0.000253821 -3.97374e-05
0.00083145 -0.000249732 -0.000249308 -3.97365e-05
0.00116329 -0.000348986 -0.000348987 -3.18273e-11
0.00118439 -0.000355316 -0.000355317 -3.24328e-11
0.00083898 -0.000251997 -0.000251564 -3.97369e-05
0.00099736 -0.000299369 -0.000299139 -2.15263e-05
0.00117384 -0.000352151 -0.000352152 -3.21303e-11
0.00101544 -0.000304799 -0.00030456 -2.15268e-05
0.0010064 -0.000302084 -0.00030185 -2.15266e-05
0.00083145 -0.000249732 -0.000249308 -3.97365e-05
0.00081639 -0.000245203 -0.000244794 -3.97356e-05
0.00114219 -0.000342656 -0.000342657 -3.12516e-11
0.00116329 -0.000348986 -0.000348987 -3.18273e-11
0.00082392 -0.000247468 -0.000247051 -3.9736e-05
0.000979281 -0.000293939 -0.000293718 -2.15258e-05
0.00115274 -0.000345821 -0.000345822 -3.15704e-11
0.00099736 -0.000299369 -0.000299139 -2.15263e-05
0.000988321 -0.000296654 -0.000296429 -2.1526e-05
0.00081639 -0.000245203 -0.000244794 -3.97356e-05
0.00080133 -0.000240674 -0.000240281 -3.97347e-05
0.00112109 -0.000336326 -0.000336328 -3.06671e-11
0.00114219 -0.000342656 -0.000342657 -3.12516e-11
0.00080886 -0.000242939 -0.000242538 -3.97351e-05
0.000961202 -0.000288509 -0.000288297 -2.15252e-05
0.00113164 -0.000339491 -0.000339493 -3.0961e-11
0.000979281 -0.000293939 -0.000293718 -2.15258e-05
0.000970241 -0.000291224 -0.000291007 -2.15255e-05
0.00080133 -0.000240674 -0.000240281 -3.97347e-05
0.00078627 -0.000236146 -0.000235768 -3.97338e-05
0.00109999 -0.000329996 -0.000329998 -3.00905e-11
0.00112109 -0.000336326 -0.000336328 -3.06671e-11
0.0007938 -0.00023841 -0.000238024 -3.97343e-05
0.000943123 -0.00028308 -0.000282876 -2.15247e-05
0.00111054 -0.000333161 -0.000333163 -3.03834e-11
0.000961202 -0.000288509 -0.000288297 -2.15252e-05
0.000952162 -0.000285795 -0.000285586 -2.1525e-05
0.00078627 -0.000236146 -0.000235768 -3.97338e-05
0.00077121 -0.000231617 -0.000231254 -3.97329e-05
0.00107889 -0.000323666 -0.000323669 -2.94878e-11
0.00109999 -0.000329996 -0.000329998 -3.01032e-11
0.00077874 -0.000233881 -0.000233511 -3.97334e-05
0.000925044 -0.00027765 -0.000277454 -2.15242e-05
0.00108944 -0.000326831 -0.000326834 -2.97743e-11
0.000943123 -0.00028308 -0.000282876 -2.15247e-05
0.000934083 -0.000280365 -0.000280165 -2.15245e-05
0.00077121 -0.000231617 -0.000231254 -3.97329e-05
0.000756149 -0.000227089 -0.00022674 -3.97321e-05
0.0010578 -0.000317337 -0.00031734 -2.89233e-11
0.00107889 -0.000323666 -0.000323669 -2.94878e-11
0.000763679 -0.000229353 -0.000228997 -3.97325e-05
0.000906964 -0.000272221 -0.000272033 -2.15237e-05
0.00106834 -0.000320501 -0.000320504 -2.92062e-11
0.000925044 -0.00027765 -0.000277454 -2.15242e-05
0.000916004 -0.000274935 -0.000274744 -2.15239e-05
0.000756149 -0.000227089 -0.00022674 -3.97321e-05
0.000741089 -0.000222561 -0.000222226 -3.97312e-05
0.0010367 -0.000311007 -0.00031101 -2.84019e-11
0.0010578 -0.000317337 -0.00031734 -2.89228e-11
0.000748619 -0.000224825 -0.000224483 -3.97316e-05
0.000888885 -0.000266791 -0.000266612 -2.15232e-05
0.00104725 -0.000314172 -0.000314175 -2.86423e-11
0.000906964 -0.000272221 -0.000272033 -2.15237e-05
0.000897925 -0.000269506 -0.000269322 -2.15234e-05
0.000741089 -0.000222561 -0.000222226 -3.97312e-05
0.000726028 -0.000218033 -0.000217712 -3.97304e-05
0.0010156 -0.000304677 -0.000304681 -2.77734e-11
0.0010367 -0.000311007 -0.00031101 -2.84019e-11
0.000733558 -0.000220297 -0.000219969 -3.97308e-05
0.000870806 -0.000261362 -0.00026119 -2.15227e-05
0.00102615 -0.000307842 -0.000307845 -2.8064e-11
0.000888885 -0.000266791 -0.000266612 -2.15232e-05
0.000879846 -0.000264077 -0.000263901 -2.15229e-05
0.000726028 -0.000218033 -0.000217712 -3.97304e-05
0.000710967 -0.000213505 -0.000213198 -3.97295e-05
0.000994501 -0.000298347 -0.000298351 -2.72165e-11
0.0010156 -0.000304677 -0.000304681 -2.77734e-11
0.000718497 -0.000215769 -0.000215455 -3.97299e-05
0.000852727 -0.000255933 -0.000255769 -2.15222e-05
0.00100505 -0.000301512 -0.000301516 -2.7453e-11
0.000870806 -0.000261362 -0.00026119 -2.15227e-05
0.000861766 -0.000258648 -0.000258479 -2.15224e-05
0.000710967 -0.000213505 -0.000213198 -3.97295e-05
0.000695906 -0.000208977 -0.000208684 -3.97287e-05
0.000973403 -0.000292018 -0.000292022 -2.66177e-11
0.000994501 -0.000298347 -0.000298351 -2.72161e-11
0.000703437 -0.000211241 -0.000210941 -3.97291e-05
0.000834648 -0.000250504 -0.000250347 -2.15217e-05
0.000983952 -0.000295183 -0.000295187 -2.69354e-11
0.000852727 -0.000255933 -0.000255769 -2.15222e-05
0.000843687 -0.000253219 -0.000253058 -2.15219e-05
0.000695906 -0.000208977 -0.000208684 -3.97287e-05
0.000680845 -0.000204449 -0.00020417 -3.97279e-05
0.000952305 -0.000285688 -0.000285693 -2.60553e-11
0.000973403 -0.000292018 -0.000292022 -2.66268e-11
0.000688375 -0.000206713 -0.000206427 -3.97283e-05
0.000816568 -0.000245075 -0.000244926 -2.15212e-05
0.000962854 -0.000288853 -0.000288857 -2.63308e-11
0.000834648 -0.000250504 -0.000250347 -2.15217e-05
0.000825608 -0.00024779 -0.000247636 -2.15214e-05
0.000680845 -0.000204449 -0.00020417 -3.97279e-05
0.000665784 -0.000199922 -0.000199655 -3.9727e-05
0.000931207 -0.000279358 -0.000279363 -2.54576e-11
0.000952305 -0.000285688 -0.000285693 -2.60553e-11
0.000673314 -0.000202186 -0.000201912 -3.97274e-05
0.000798489 -0.000239646 -0.000239504 -2.15207e-05
0.000941756 -0.000282523 -0.000282528 -2.57573e-11
0.000816568 -0.000245075 -0.000244926 -2.15212e-05
0.000807529 -0.000242361 -0.000242215 -2.15209e-05
0.000665784 -0.000199922 -0.000199655 -3.9727e-05
0.000650722 -0.000195395 -0.00019514 -3.97262e-05
0.000910109 -0.000273029 -0.000273034 -2.48718e-11
0.000931207 -0.000279358 -0.000279363 -2.54576e-11
0.000658253 -0.000197658 -0.000197398 -3.97266e-05
0.00078041 -0.000234218 -0.000234082 -2.15202e-05
0.000920658 -0.000276194 -0.000276199 -2.51114e-11
0.000798489 -0.000239646 -0.000239504 -2.15207e-05
0.000789449 -0.000236932 -0.000236793 -2.15205e-05
0.000650722 -0.000195395 -0.00019514 -3.97262e-05
0.000635661 -0.000190867 -0.000190626 -3.97254e-05
0.000889011 -0.000266699 -0.000266705 -2.43139e-11
0.000910109 -0.000273029 -0.000273034 -2.48817e-11
0.000643191 -0.000193131 -0.000192883 -3.97258e-05
0.00076233 -0.000228789 -0.00022866 -2.15197e-05
0.00089956 -0.000269864 -0.00026987 -2.45921e-11
0.00078041 -0.000234218 -0.000234082 -2.15202e-05
0.00077137 -0.000231503 -0.000231371 -2.152e-05
0.000635661 -0.000190867 -0.000190626 -3.97254e-05
0.000620599 -0.00018634 -0.000186111 -3.97246e-05
0.000867913 -0.00026037 -0.000260376 -2.37393e-11
0.000889011 -0.000266699 -0.000266705 -2.43141e-11
0.00062813 -0.000188604 -0.000188368 -3.9725e-05
0.000744251 -0.000223361 -0.000223239 -2.15193e-05
0.000878462 -0.000263534 -0.00026354 -2.40452e-11
0.00076233 -0.000228789 -0.00022866 -2.15197e-05
0.00075329 -0.000226075 -0.00022595 -2.15195e-05
0.000620599 -0.00018634 -0.000186111 -3.97246e-05
0.000605537 -0.000181814 -0.000181596 -3.97239e-05
0.000846816 -0.00025404 -0.000254047 -2.31247e-11
0.000867913 -0.00026037 -0.000260376 -2.37393e-11
0.000613068 -0.000184077 -0.000183853 -3.97242e-05
0.000726171 -0.000217932 -0.000217817 -2.15188e-05
0.000857364 -0.000257205 -0.000257211 -2.3397e-11
0.000744251 -0.000223361 -0.000223239 -2.15193e-05
0.000735211 -0.000220646 -0.000220528 -2.1519e-05
0.000605537 -0.000181814 -0.000181596 -3.97239e-05
0.000590475 -0.000177287 -0.000177081 -3.97231e-05
0.000825718 -0.000247711 -0.000247717 -2.25647e-11
0.000846816 -0.00025404 -0.000254047 -2.31247e-11
0.000598006 -0.00017955 -0.000179338 -3.97235e-05
0.000708092 -0.000212504 -0.000212395 -2.15183e-05
0.000836267 -0.000250875 -0.000250882 -2.29008e-11
0.000726171 -0.000217932 -0.000217817 -2.15188e-05
0.000717131 -0.000215218 -0.000215106 -2.15186e-05
0.000590475 -0.000177287 -0.000177081 -3.97231e-05
0.000575413 -0.000172761 -0.000172565 -3.97223e-05
0.00080462 -0.000241381 -0.000241388 -2.19789e-11
0.000825718 -0.000247711 -0.000247717 -2.25647e-11
0.000582944 -0.000175024 -0.000174823 -3.97227e-05
0.000690012 -0.000207076 -0.000206973 -2.15179e-05
0.000815169 -0.000244546 -0.000244553 -2.22955e-11
0.000708092 -0.000212504 -0.000212395 -2.15183e-05
0.000699052 -0.00020979 -0.000209684 -2.15181e-05
0.000575413 -0.000172761 -0.000172565 -3.97223e-05
0.00056035 -0.000168234 -0.00016805 -3.97215e-05
0.000783523 -0.000235052 -0.000235059 -2.14197e-11
0.00080462 -0.000241381 -0.000241388 -2.19753e-11
0.000567882 -0.000170497 -0.000170308 -3.97219e-05
0.000671932 -0.000201647 -0.000201551 -2.15174e-05
0.000794072 -0.000238216 -0.000238224 -2.17148e-11
0.000690012 -0.000207076 -0.000206973 -2.15179e-05
0.000680972 -0.000204361 -0.000204262 -2.15177e-05
0.00056035 -0.000168234 -0.00016805 -3.97215e-05
0.000545288 -0.000163708 -0.000163534 -3.97208e-05
0.000762425 -0.000228722 -0.00022873 -2.08111e-11
0.000783523 -0.000235052 -0.000235059 -2.14197e-11
0.000552819 -0.000165971 -0.000165792 -3.97212e-05
0.000653853 -0.000196219 -0.000196129 -2.1517e-05
0.000772974 -0.000231887 -0.000231895 -2.11296e-11
0.000671932 -0.000201647 -0.000201551 -2.15174e-05
0.000662892 -0.000198933 -0.00019884 -2.15172e-05
0.000545288 -0.000163708 -0.000163534 -3.97208e-05
0.000530225 -0.000159182 -0.000159019 -3.97201e-05
0.000741328 -0.000222393 -0.000222401 -2.02535e-11
0.000762425 -0.000228722 -0.00022873 -2.08111e-11
0.000537757 -0.000161445 -0.000161276 -3.97204e-05
0.000635773 -0.000190791 -0.000190706 -2.15165e-05
0.000751877 -0.000225557 -0.000225565 -2.05409e-11
0.000653853 -0.000196219 -0.000196129 -2.1517e-05
0.000644813 -0.000193505 -0.000193417 -2.15168e-05
0.000530225 -0.000159182 -0.000159019 -3.97201e-05
0.000515162 -0.000154656 -0.000154503 -3.97193e-05
0.000720231 -0.000216063 -0.000216072 -1.9607e-11
0.000741328 -0.000222393 -0.000222401 -2.02263e-11
0.000522694 -0.000156919 -0.000156761 -3.97197e-05
0.000617693 -0.000185363 -0.000185284 -2.15161e-05
0.000730779 -0.000219228 -0.000219236 -1.98956e-11
0.000635773 -0.000190791 -0.000190706 -2.15165e-05
0.000626733 -0.000188077 -0.000187995 -2.15163e-05
0.000515162 -0.000154656 -0.000154503 -3.97193e-05
0.000500099 -0.00015013 -0.000149987 -3.97186e-05
0.000699133 -0.000209734 -0.000209743 -1.88925e-11
0.000720231 -0.000216063 -0.000216072 -1.9607e-11
0.000507631 -0.000152393 -0.000152245 -3.9719e-05
0.000599613 -0.000179936 -0.000179862 -2.15157e-05
0.000709682 -0.000212898 -0.000212907 -1.92934e-11
0.000617693 -0.000185363 -0.000185284 -2.15161e-05
0.000608653 -0.000182649 -0.000182573 -2.15159e-05
0.000500099 -0.00015013 -0.000149987 -3.97186e-05
0.000485036 -0.000145605 -0.000145471 -3.97179e-05
0.000678036 -0.000203404 -0.000203413 -1.81983e-11
0.000699133 -0.000209734 -0.000209743 -1.88925e-11
0.000492568 -0.000147867 -0.000147729 -3.97183e-05
0.000581533 -0.000174508 -0.000174439 -2.15152e-05
0.000688584 -0.000206569 -0.000206578 -1.86089e-11
0.000599613 -0.000179936 -0.000179862 -2.15157e-05
0.000590573 -0.000177222 -0.00017715 -2.15155e-05
0.000485036 -0.000145605 -0.000145471 -3.97179e-05
0.000469973 -0.000141079 -0.000140954 -3.97172e-05
0.000656938 -0.000197075 -0.000197084 -1.74911e-11
0.000678036 -0.000203404 -0.000203413 -1.81983e-11
0.000477504 -0.000143342 -0.000143212 -3.97176e-05
0.000563452 -0.00016908 -0.000169017 -2.15148e-05
0.000667487 -0.00020024 -0.000200249 -1.78519e-11
0.000581533 -0.000174508 -0.000174439 -2.15152e-05
0.000572493 -0.000171794 -0.000171728 -2.1515e-05
0.000469973 -0.000141079 -0.000140954 -3.97172e-05
0.000454909 -0.000136554 -0.000136438 -3.97165e-05
0.000635841 -0.000190745 -0.000190755 -1.66514e-11
0.000656938 -0.000197075 -0.000197084 -1.74909e-11
0.000462441 -0.000138817 -0.000138696 -3.97169e-05
0.000545372 -0.000163653 -0.000163594 -2.15144e-05
0.00064639 -0.00019391 -0.00019392 -1.70894e-11
0.000563452 -0.00016908 -0.000169017 -2.15148e-05
0.000554412 -0.000166366 -0.000166305 -2.15146e-05
0.000454909 -0.000136554 -0.000136438 -3.97165e-05
0.000439845 -0.000132029 -0.000131921 -3.97159e-05
0.000614744 -0.000184416 -0.000184426 -1.57666e-11
0.000635841 -0.000190745 -0.000190755 -1.66875e-11
0.000447377 -0.000134291 -0.00013418 -3.97162e-05
0.000527292 -0.000158225 -0.000158171 -2.1514e-05
0.000625292 -0.000187581 -0.000187591 -1.62529e-11
0.000545372 -0.000163653 -0.000163594 -2.15144e-05
0.000536332 -0.000160939 -0.000160883 -2.15142e-05
0.000439845 -0.000132029 -0.000131921 -3.97159e-05
0.000424781 -0.000127504 -0.000127405 -3.97153e-05
0.000593646 -0.000178087 -0.000178097 -1.47648e-11
0.000614744 -0.000184416 -0.000184426 -1.57666e-11
0.000432313 -0.000129766 -0.000129663 -3.97156e-05
0.000509211 -0.000152798 -0.000152749 -2.15136e-05
0.000604195 -0.000181251 -0.000181262 -1.53217e-11
0.000527292 -0.000158225 -0.000158171 -2.1514e-05
0.000518252 -0.000155511 -0.00015546 -2.15138e-05
0.000424781 -0.000127504 -0.000127405 -3.97153e-05
0.000409717 -0.000122979 -0.000122888 -3.97147e-05
0.000572549 -0.000171757 -0.000171768 -1.36094e-11
0.000593646 -0.000178087 -0.000178097 -1.47648e-11
0.000417249 -0.000125241 -0.000125146 -3.9715e-05
0.000491131 -0.00014737 -0.000147326 -2.15133e-05
0.000583098 -0.000174922 -0.000174932 -1.41816e-11
0.000509211 -0.000152798 -0.000152749 -2.15136e-05
0.000500171 -0.000150084 -0.000150037 -2.15135e-05
0.000409717 -0.000122979 -0.000122888 -3.97147e-05
0.000394653 -0.000118454 -0.000118371 -3.97141e-05
0.000551451 -0.000165428 -0.000165439 -1.22267e-11
0.000572549 -0.000171757 -0.000171768 -1.36325e-11
0.000402185 -0.000120716 -0.000120629 -3.97144e-05
0.00047305 -0.000141943 -0.000141903 -2.15129e-05
0.000562 -0.000168592 -0.000168603 -1.29208e-11
0.000491131 -0.00014737 -0.000147326 -2.15133e-05
0.00048209 -0.000144657 -0.000144614 -2.15131e-05
0.000394653 -0.000118454 -0.000118371 -3.97141e-05
0.000379588 -0.000113929 -0.000113854 -3.97136e-05
0.000530354 -0.000159098 -0.00015911 -1.07442e-11
0.000551451 -0.000165428 -0.000165439 -1.22267e-11
0.00038712 -0.000116192 -0.000116112 -3.97139e-05
0.000454969 -0.000136516 -0.00013648 -2.15127e-05
0.000540903 -0.000162263 -0.000162274 -1.13945e-11
0.00047305 -0.000141943 -0.000141903 -2.15129e-05
0.000464009 -0.000139229 -0.000139191 -2.15128e-05
0.000379588 -0.000113929 -0.000113854 -3.97136e-05
0.000364523 -0.000109405 -0.000109336 -3.97132e-05
0.000509256 -0.000152769 -0.00015278 -8.78603e-12
0.000530354 -0.000159098 -0.00015911 -1.07442e-11
0.000372055 -0.000111667 -0.000111595 -3.97134e-05
0.000436888 -0.000131089 -0.000131057 -2.15124e-05
0.000519805 -0.000155933 -0.000155945 -9.65318e-12
0.000454969 -0.000136516 -0.00013648 -2.15127e-05
0.000445928 -0.000133802 -0.000133768 -2.15125e-05
0.000364523 -0.000109405 -0.000109336 -3.97132e-05
0.000349458 -0.000104881 -0.000104819 -3.97129e-05
0.000488158 -0.000146439 -0.000146451 -7.00667e-12
0.000509256 -0.000152769 -0.00015278 -8.78603e-12
0.00035699 -0.000107143 -0.000107078 -3.9713e-05
0.000418806 -0.000125661 -0.000125633 -2.15122e-05
0.000498707 -0.000149604 -0.000149616 -7.6413e-12
0.000436888 -0.000131089 -0.000131057 -2.15124e-05
0.000427847 -0.000128375 -0.000128345 -2.15123e-05
0.000349458 -0.000104881 -0.000104819 -3.97129e-05
0.000334392 -0.000100356 -0.000100301 -3.97126e-05
0.00046706 -0.000140109 -0.000140122 -4.18588e-12
0.000488158 -0.000146439 -0.000146451 -7.00667e-12
0.000341925 -0.000102619 -0.00010256 -3.97127e-05
0.000400724 -0.000120234 -0.00012021 -2.15121e-05
0.000477609 -0.000143274 -0.000143286 -5.34487e-12
0.000418806 -0.000125661 -0.000125633 -2.15122e-05
0.000409765 -0.000122948 -0.000122922 -2.15121e-05
0.000334392 -0.000100356 -0.000100301 -3.97126e-05
0.000319327 -9.58323e-05 -9.57833e-05 -3.97125e-05
0.000445961 -0.00013378 -0.000133792 -2.76577e-12
0.00046706 -0.000140109 -0.000140122 -4.2383e-12
0.00032686 -9.80944e-05 -9.80422e-05 -3.97126e-05
0.000382642 -0.000114807 -0.000114786 -2.1512e-05
0.000456511 -0.000136944 -0.000136957 -3.02427e-12
0.000400724 -0.000120234 -0.00012021 -2.15121e-05
0.000391683 -0.000117521 -0.000117498 -2.1512e-05
0.000319327 -9.58323e-05 -9.57833e-05 -3.97125e-05
0.000304261 -9.13084e-05 -9.12653e-05 -3.97124e-05
0.000424862 -0.00012745 -0.000127463 3.96757e-13
0.000445961 -0.00013378 -0.000133792 -2.76577e-12
0.000311794 -9.35703e-05 -9.35243e-05 -3.97124e-05
0.00036456 -0.00010938 -0.000109363 -2.15121e-05
0.000435412 -0.000130615 -0.000130627 4.21778e-13
0.000382642 -0.000114807 -0.000114786 -2.1512e-05
0.000373601 -0.000112094 -0.000112075 -2.15121e-05
0.000304261 -9.13084e-05 -9.12653e-05 -3.97124e-05
0.000289194 -8.67845e-05 -8.67471e-05 -3.97124e-05
0.000403763 -0.000121119 -0.000121133 -2.19518e-12
0.000424862 -0.00012745 -0.000127463 3.96757e-13
0.000296728 -8.90464e-05 -8.90062e-05 -3.97124e-05
0.000346477 -0.000103953 -0.000103939 -2.15122e-05
0.000414313 -0.000124285 -0.000124298 -1.21652e-12
0.00036456 -0.00010938 -0.000109363 -2.15121e-05
0.000355519 -0.000106667 -0.000106651 -2.15121e-05
0.000289194 -8.67845e-05 -8.67471e-05 -3.97124e-05
0.000274128 -8.22607e-05 -8.22289e-05 -3.97122e-05
0.000382662 -0.000114789 -0.000114803 -7.5006e-12
0.000403763 -0.000121119 -0.000121133 -2.2446e-12
0.000281661 -8.45226e-05 -8.4488e-05 -3.97123e-05
0.000328394 -9.8526e-05 -9.85149e-05 -2.15124e-05
0.000393213 -0.000117954 -0.000117968 4.42591e-12
0.000346477 -0.000103953 -0.000103939 -2.15122e-05
0.000337436 -0.00010124 -0.000101227 -2.15123e-05
0.000274128 -8.22607e-05 -8.22289e-05 -3.97122e-05
0.000259062 -7.77368e-05 -7.77108e-05 -3.97115e-05
0.000361561 -0.000108458 -0.000108472 -3.01479e-11
0.000382662 -0.000114789 -0.000114803 -7.50078e-12
0.000266595 -7.99988e-05 -7.99699e-05 -3.9712e-05
0.000310311 -9.30989e-05 -9.30908e-05 -2.15124e-05
0.000372112 -0.000111624 -0.000111638 -2.70233e-11
0.000328394 -9.8526e-05 -9.85149e-05 -2.15124e-05
0.000319352 -9.58124e-05 -9.58029e-05 -2.15124e-05
0.000259062 -7.77368e-05 -7.77108e-05 -3.97115e-05
0.000243996 -7.32126e-05 -7.3193e-05 -3.97097e-05
0.000340459 -0.000102127 -0.000102142 -1.02224e-10
0.000361561 -0.000108458 -0.000108472 -3.01479e-11
0.000251529 -7.54748e-05 -7.54519e-05 -3.97108e-05
0.000292228 -8.76718e-05 -8.76668e-05 -2.15119e-05
0.00035101 -0.000105293 -0.000105307 -1.7665e-11
0.000310311 -9.30989e-05 -9.30908e-05 -2.15124e-05
0.000301269 -9.03853e-05 -9.03788e-05 -2.15123e-05
0.000243996 -7.32126e-05 -7.3193e-05 -3.97097e-05
0.000228932 -6.86875e-05 -6.86761e-05 -3.97051e-05
0.000319356 -9.57962e-05 -9.58112e-05 -1.98793e-10
0.000340459 -0.000102127 -0.000102142 -1.02224e-10
0.000236464 -7.09503e-05 -7.09344e-05 -3.97079e-05
0.000274146 -8.22449e-05 -8.22431e-05 -2.15101e-05
0.000329907 -9.89618e-05 -9.89766e-05 -2.10148e-10
0.000292228 -8.76718e-05 -8.76668e-05 -2.15119e-05
0.000283186 -8.49583e-05 -8.49549e-05 -2.15113e-05
0.000228932 -6.86875e-05 -6.86761e-05 -3.97051e-05
0.000213868 -6.41603e-05 -6.41606e-05 -3.96951e-05
0.000298254 -8.94651e-05 -8.94809e-05 -6.41279e-10
0.000319356 -9.57962e-05 -9.58112e-05 -1.98793e-10
0.0002214 -6.64243e-05 -6.64181e-05 -3.9701e-05
0.000256067 -7.68182e-05 -7.68208e-05 -2.15053e-05
0.000308804 -9.26304e-05 -9.2646e-05 -1.88892e-10
0.000274146 -8.22449e-05 -8.22431e-05 -2.15101e-05
0.000265105 -7.95315e-05 -7.95317e-05 -2.15082e-05
0.000213868 -6.41603e-05 -6.41606e-05 -3.96951e-05
0.000198808 -5.96284e-05 -5.96486e-05 -3.96733e-05
0.000277156 -8.31362e-05 -8.31514e-05 -9.32741e-10
0.000298254 -8.94651e-05 -8.94809e-05 -6.41328e-10
0.000206338 -6.18951e-05 -6.1904e-05 -3.96863e-05
0.000237994 -7.13923e-05 -7.14009e-05 -2.14934e-05
0.000287704 -8.63007e-05 -8.63159e-05 -1.12555e-09
0.000256067 -7.68182e-05 -7.68208e-05 -2.15053e-05
0.00024703 -7.41051e-05 -7.41105e-05 -2.15005e-05
0.000198808 -5.96284e-05 -5.96486e-05 -3.96733e-05
0.000183751 -5.50869e-05 -5.51416e-05 -3.96302e-05
0.000256074 -7.68098e-05 -7.68275e-05 -3.08802e-09
0.000277156 -8.31362e-05 -8.31514e-05 -9.32741e-10
0.00019128 -5.73594e-05 -5.73944e-05 -3.96553e-05
0.000219938 -6.59678e-05 -6.59871e-05 -2.14678e-05
0.000266612 -7.99713e-05 -7.99887e-05 -9.84121e-10
0.000237994 -7.13923e-05 -7.14009e-05 -2.14934e-05
0.000228963 -6.86798e-05 -6.86928e-05 -2.14831e-05
0.000183751 -5.50869e-05 -5.51416e-05 -3.96302e-05
0.0001687 -5.05265e-05 -5.06457e-05 -3.95437e-05
0.00023502 -7.04989e-05 -7.0509e-05 -3.54758e-09
0.000256074 -7.68098e-05 -7.68275e-05 -3.08802e-09
0.000176223 -5.28097e-05 -5.28916e-05 -3.95945e-05
0.000201908 -6.05464e-05 -6.05837e-05 -2.14129e-05
0.000245543 -7.36544e-05 -7.36666e-05 -5.03254e-09
0.000219938 -6.59678e-05 -6.59871e-05 -2.14678e-05
0.000210919 -6.32565e-05 -6.32841e-05 -2.14449e-05
0.0001687 -5.05265e-05 -5.06457e-05 -3.95437e-05
0.000153645 -4.59319e-05 -4.61628e-05 -3.93843e-05
0.000214049 -6.42001e-05 -6.42211e-05 -1.26708e-08
0.00023502 -7.04989e-05 -7.0509e-05 -3.54761e-09
0.000161175 -4.82355e-05 -4.84027e-05 -3.94754e-05
0.00018394 -5.51308e-05 -5.52039e-05 -2.13047e-05
0.000224517 -6.73405e-05 -6.73615e-05 -3.73011e-09
0.000201908 -6.05464e-05 -6.05837e-05 -2.14129e-05
0.000192913 -5.78379e-05 -5.78892e-05 -2.13689e-05
0.000153645 -4.59319e-05 -4.61628e-05 -3.93843e-05
0.000138598 -4.12724e-05 -4.17108e-05 -3.90837e-05
0.00019321 -5.79805e-05 -5.79555e-05 -1.12506e-08
0.000214049 -6.42001e-05 -6.42211e-05 -1.26708e-08
0.000146117 -4.3611e-05 -4.39311e-05 -3.92583e-05
0.000166066 -4.97252e-05 -4.98603e-05 -2.10938e-05
0.000203614 -6.10921e-05 -6.10809e-05 -2.01434e-08
0.00018394 -5.51308e-05 -5.52039e-05 -2.13047e-05
0.000174991 -5.24255e-05 -5.2528e-05 -2.12139e-05
0.000138598 -4.12724e-05 -4.17108e-05 -3.90837e-05
0.000123497 -3.6513e-05 -3.72787e-05 -3.85733e-05
0.000172721 -5.17975e-05 -5.18245e-05 -4.6038e-08
0.00019321 -5.79805e-05 -5.79555e-05 -1.12506e-08
0.000131065 -3.89129e-05 -3.94938e-05 -3.88593e-05
0.000148397 -4.4342e-05 -4.45951e-05 -2.07017e-05
0.000182894 -5.48474e-05 -5.4877e-05 -1.00357e-08
0.000166066 -4.97252e-05 -4.98603e-05 -2.10938e-05
0.000157192 -4.70323e-05 -4.72114e-05 -2.0934e-05
0.000123497 -3.6513e-05 -3.72787e-05 -3.85733e-05
0.000108365 -3.15651e-05 -3.29144e-05 -3.7681e-05
0.000152742 -4.59682e-05 -4.57603e-05 -2.94166e-08
0.000172721 -5.17975e-05 -5.18245e-05 -4.6038e-08
0.000115921 -3.40576e-05 -3.50842e-05 -3.81916e-05
0.000130997 -3.89814e-05 -3.94352e-05 -2.00049e-05
0.000162676 -4.8901e-05 -4.87609e-05 -7.58501e-08
0.000148397 -4.4342e-05 -4.45951e-05 -2.07017e-05
0.000139669 -4.16525e-05 -4.20072e-05 -2.03883e-05
0.000108365 -3.15651e-05 -3.29144e-05 -3.7681e-05
9.29173e-05 -2.64071e-05 -2.85044e-05 -3.63409e-05
0.000134008 -4.01768e-05 -4.02135e-05 -1.51293e-07
0.000152742 -4.59682e-05 -4.57603e-05 -2.94166e-08
0.000100731 -2.9041e-05 -3.07243e-05 -3.70675e-05
0.000114197 -3.36945e-05 -3.4501e-05 -1.87758e-05
0.00014312 -4.28946e-05 -4.29535e-05 -9.27941e-09
0.000130997 -3.89814e-05 -3.94352e-05 -2.00049e-05
0.000122475 -3.63401e-05 -3.69148e-05 -1.95105e-05
9.29173e-05 -2.64071e-05 -2.85044e-05 -3.63409e-05
7.71693e-05 -2.08196e-05 -2.41499e-05 -3.42977e-05
0.000117036 -3.58612e-05 -3.47891e-05 -5.60215e-08
0.000134008 -4.01768e-05 -4.02135e-05 -1.51293e-07
8.50287e-05 -2.36151e-05 -2.63201e-05 -3.54296e-05
9.79104e-05 -2.84047e-05 -2.97882e-05 -1.6849e-05
0.000125337 -3.81448e-05 -3.73683e-05 -2.82414e-07
0.000114197 -3.36945e-05 -3.4501e-05 -1.87758e-05
0.000106047 -3.10236e-05 -3.21531e-05 -1.78451e-05
7.71693e-05 -2.08196e-05 -2.41499e-05 -3.42977e-05
5.99777e-05 -1.52541e-05 -1.91672e-05 -3.20896e-05
0.000103842 -3.11264e-05 -3.11639e-05 -4.15932e-07
0.000117036 -3.58612e-05 -3.47891e-05 -5.60215e-08
6.8949e-05 -1.81277e-05 -2.17806e-05 -3.31561e-05
8.29872e-05 -2.32994e-05 -2.55805e-05 -1.3698e-05
0.000109679 -3.27723e-05 -3.29599e-05 1.18139e-07
9.79104e-05 -2.84047e-05 -2.97882e-05 -1.6849e-05
9.01142e-05 -2.58856e-05 -2.75265e-05 -1.56259e-05
5.99777e-05 -1.52541e-05 -1.91672e-05 -3.20896e-05
4.14201e-05 -9.71557e-06 -1.35876e-05 -3.06075e-05
9.67021e-05 -3.20693e-05 -2.76998e-05 6.43161e-07
0.000103842 -3.11264e-05 -3.11639e-05 -4.15932e-07
5.06649e-05 -1.21015e-05 -1.65272e-05 -3.11228e-05
6.74606e-05 -1.77855e-05 -2.12893e-05 -1.02406e-05
9.9519e-05 -3.23863e-05 -2.87712e-05 -9.16603e-07
8.29872e-05 -2.32994e-05 -2.55805e-05 -1.3698e-05
7.57092e-05 -2.05181e-05 -2.36534e-05 -1.16027e-05
4.14201e-05 -9.71557e-06 -1.35876e-05 -3.06075e-05
1.97166e-05 -1.01968e-05 -4.07992e-06 -3.58544e-05
0.000102951 -2.82561e-05 -3.20122e-05 3.97855e-06
9.67021e-05 -3.20693e-05 -2.76998e-05 6.43161e-07
3.13888e-05 -9.1313e-06 -9.53892e-06 -3.18122e-05
5.09279e-05 -1.31762e-05 -1.61793e-05 -7.98474e-06
9.72325e-05 -2.73849e-05 -2.99347e-05 2.82342e-06
6.74606e-05 -1.77855e-05 -2.12893e-05 -1.02406e-05
5.89604e-05 -1.53587e-05 -1.86865e-05 -9.38178e-06
1.97166e-05 -1.01968e-05 -4.07992e-06 -3.58544e-05
9.41927e-06 -3.53213e-05 1.11009e-05 -5.57277e-05
0.000140511 -2.89884e-05 -4.77953e-05 3.1416e-05
0.000102951 -2.82561e-05 -3.20122e-05 3.97855e-06
1.0896e-05 -1.49433e-05 1.73454e-06 -4.28961e-05
1.58263e-05 -2.2792e-05 2.98531e-06 -3.16171e-05
0.000116498 -3.90242e-05 -3.32029e-05 8.3908e-06
5.09279e-05 -1.31762e-05 -1.61793e-05 -7.98474e-06
3.82525e-05 -1.28234e-05 -1.08982e-05 -1.23948e-05
9.41927e-06 -3.53213e-05 1.11009e-05 -5.57277e-05
5.0598e-05 -0.000154252 4.44232e-05 -5.71697e-05
9.11147e-05 -0.000204471 4.85811e-05 -0.000152608
0.000140511 -2.89884e-05 -4.77953e-05 3.1416e-05
2.08114e-05 -8.24556e-05 2.64189e-05 -6.61892e-05
4.61617e-05 -0.000189694 6.1514e-05 -9.19224e-05
0.000142752 -1.06563e-05 -5.66123e-05 1.49091e-05
1.58263e-05 -2.2792e-05 2.98531e-06 -3.16171e-05
9.76039e-06 -6.26922e-05 2.26851e-05 -5.99896e-05
      </DataArray> 
    </PointData>
    <CellData>
      <DataArray type="Float64" NumberOfComponents="1" Name="Process" format="ascii">
3
3
3
3
3
3
3
3
3
3
3
3
3
3
3
3
3
3
3
3
3
3
3
3
3
2
2
2
2
2
2
2
2
2
2
2
2
2
2
2
2
2
2
2
2
2
2
2
2
1
1
1
1
1
1
1
1
1
1
1
1
1
1
1
1
1
1
1
1
1
1
1
1
1
0
0
0
0
0
0
0
0
0
0
0
0
0
0
0
0
0
0
0
0
0
0
0
0
0
5
5
5
5
5
5
5
5
5
5
5
5
5
5
5
5
5
5
5
5
5
5
5
5
5
4
4
4
4
4
4
4
4
4
4
4
4
4
4
4
4
4
4
4
4
4
4
4
4
7
7
7
7
7
7
7
7
7
7
7
7
7
7
7
7
7
7
7
7
7
7
7
7
7
6
6
6
6
6
6
6
6
6
6
6
6
6
6
6
6
6
6
6
6
6
6
6
6
3
3
3
3
3
3
3
3
3
3
3
3
3
3
3
3
3
3
3
3
3
3
3
3
3
2
2
2
2
2
2
2
2
2
2
2
2
2
2
2
2
2
2
2
2
2
2
2
2
1
1
1
1
1
1
1
1
1
1
1
1
1
1
1
1
1
1
1
1
1
1
1
1
1
0
0
0
0
0
0
0
0
0
0
0
0
0
0
0
0
0
0
0
0
0
0
0
0
0
5
5
5
5
5
5
5
5
5
5
5
5
5
5
5
5
5
5
5
5
5
5
5
5
5
4
4
4
4
4
4
4
4
4
4
4
4
4
4
4
4
4
4
4
4
4
4
4
4
7
7
7
7
7
7
7
7
7
7
7
7
7
7
7
7
7
7
7
7
7
7
7
7
7
6
6
6
6
6
6
6
6
6
6
6
6
6
6
6
6
6
6
6
6
6
6
6
6
3
3
3
3
3
3
3
3
3
3
3
3
3
3
3
3
3
3
3
3
3
3
3
3
3
2
2
2
2
2
2
2
2
2
2
2
2
2
2
2
2
2
2
2
2
2
2
2
2
1
1
1
1
1
1
1
1
1
1
1
1
1
1
1
1
1
1
1
1
1
1
1
1
1
0
0
0
0
0
0
0
0
0
0
0
0
0
0
0
0
0
0
0
0
0
0
0
0
0
5
5
5
5
5
5
5
5
5
5
5
5
5
5
5
5
5
5
5
5
5
5
5
5
5
4
4
4
4
4
4
4
4
4
4
4
4
4
4
4
4
4
4
4
4
4
4
4
4
7
7
7
7
7
7
7
7
7
7
7
7
7
7
7
7
7
7
7
7
7
7
7
7
7
6
6
6
6
6
6
6
6
6
6
6
6
6
6
6
6
6
6
6
6
6
6
6
6
3
3
3
3
3
3
3
3
3
3
3
3
3
3
3
3
3
3
3
3
3
3
3
3
3
2
2
2
2
2
2
2
2
2
2
2
2
2
2
2
2
2
2
2
2
2
2
2
2
1
1
1
1
1
1
1
1
1
1
1
1
1
1
1
1
1
1
1
1
1
1
1
1
1
0
0
0
0
0
0
0
0
0
0
0
0
0
0
0
0
0
0
0
0
0
0
0
0
0
5
5
5
5
5
5
5
5
5
5
5
5
5
5
5
5
5
5
5
5
5
5
5
5
5
4
4
4
4
4
4
4
4
4
4
4
4
4
4
4
4
4
4
4
4
4
4
4
4
7
7
7
7
7
7
7
7
7
7
7
7
7
7
7
7
7
7
7
7
7
7
7
7
7
6
6
6
6
6
6
6
6
6
6
6
6
6
6
6
6
6
6
6
6
6
6
6
6
3
3
3
3
3
3
3
3
3
3
3
3
3
3
3
3
3
3
3
3
3
3
3
3
3
2
2
2
2
2
2
2
2
2
2
2
2
2
2
2
2
2
2
2
2
2
2
2
2
1
1
1
1
1
1
1
1
1
1
1
1
1
1
1
1
1
1
1
1
1
1
1
1
1
0
0
0
0
0
0
0
0
0
0
0
0
0
0
0
0
0
0
0
0
0
0
0
0
0
5
5
5
5
5
5
5
5
5
5
5
5
5
5
5
5
5
5
5
5
5
5
5
5
5
4
4
4
4
4
4
4
4
4
4
4
4
4
4
4
4
4
4
4
4
4
4
4
4
7
7
7
7
7
7
7
7
7
7
7
7
7
7
7
7
7
7
7
7
7
7
7
7
7
6
6
6
6
6
6
6
6
6
6
6
6
6
6
6
6
6
6
6
6
6
6
6
6
3
3
3
3
3
3
3
3
3
3
3
3
3
3
3
3
3
3
3
3
3
3
3
3
3
2
2
2
2
2
2
2
2
2
2
2
2
2
2
2
2
2
2
2
2
2
2
2
2
1
1
1
1
1
1
1
1
1
1
1
1
1
1
1
1
1
1
1
1
1
1
1
1
1
0
0
0
0
0
0
0
0
0
0
0
0
0
0
0
0
0
0
0
0
0
0
0
0
0
5
5
5
5
5
5
5
5
5
5
5
5
5
5
5
5
5
5
5
5
5
5
5
5
5
4
4
4
4
4
4
4
4
4
4
4
4
4
4
4
4
4
4
4
4
4
4
4
4
7
7
7
7
7
7
7
7
7
7
7
7
7
7
7
7
7
7
7
7
7
7
7
7
7
6
6
6
6
6
6
6
6
6
6
6
6
6
6
6
6
6
6
6
6
6
6
6
6
3
3
3
3
3
3
3
3
3
3
3
3
3
3
3
3
3
3
3
3
3
3
3
3
3
2
2
2
2
2
2
2
2
2
2
2
2
2
2
2
2
2
2
2
2
2
2
2
2
1
1
1
1
1
1
1
1
1
1
1
1
1
1
1
1
1
1
1
1
1
1
1
1
1
0
0
0
0
0
0
0
0
0
0
0
0
0
0
0
0
0
0
0
0
0
0
0
0
0
5
5
5
5
5
5
5
5
5
5
5
5
5
5
5
5
5
5
5
5
5
5
5
5
5
4
4
4
4
4
4
4
4
4
4
4
4
4
4
4
4
4
4
4
4
4
4
4
4
7
7
7
7
7
7
7
7
7
7
7
7
7
7
7
7
7
7
7
7
7
7
7
7
7
6
6
6
6
6
6
6
6
6
6
6
6
6
6
6
6
6
6
6
6
6
6
6
6
      </DataArray> 
    </CellData>
  </Piece>
  </UnstructuredGrid>
</VTKFile>
