<?xml version="1.0"?>
<VTKFile type="UnstructuredGrid">
  <UnstructuredGrid>
  <Piece NumberOfPoints="193"  NumberOfCells="36">
    <Points>
      <DataArray type="Float64" NumberOfComponents="3" format="ascii">
0 0 0
171.402 0 0
166.186 10 0
0 10 0
17.8025 -6.72976 0
34.4344 -20.3615 0
51.9822 -34.9681 0
72.9786 -45.7946 0
96.822 -48.4002 0
119.67 -41.3854 0
138.706 -27.8015 0
154.866 -12.2279 0
5.96214 -1.02729 0
11.9703 -3.35764 0
23.4447 -10.852 0
28.9501 -15.4656 0
40.0209 -25.3576 0
45.8343 -30.2825 0
58.5416 -39.237 0
65.5465 -42.9047 0
80.7617 -47.7435 0
88.7636 -48.6319 0
104.758 -47.0535 0
112.413 -44.6724 0
126.466 -37.3583 0
132.795 -32.772 0
144.28 -22.6167 0
149.638 -17.3777 0
160.222 -7.4008 0
165.589 -2.9837 0
169.912 3.33333 0
168.068 6.66667 0
148.097 -4.98209 0
132.112 -20.3002 0
115.074 -32.5275 0
95.8441 -38.4744 0
75.994 -36.2846 0
57.7137 -26.7935 0
41.0515 -12.8834 0
23.1726 1.66972 0
159.904 5.03809 0
153.771 0.230852 0
142.693 -10.2001 0
137.416 -15.3648 0
126.669 -24.8882 0
121.004 -29.0044 0
108.877 -35.343 0
102.443 -37.352 0
89.1705 -38.6673 0
82.5202 -37.9253 0
69.6617 -33.8147 0
63.5665 -30.6119 0
52.0654 -22.4802 0
46.548 -17.7991 0
35.4372 -7.87635 0
29.537 -2.94937 0
16.1664 5.67612 0
8.4242 8.59425 0
0 6.66667 0
0 3.33333 0
10.725 2.71555 0
159.804 -1.18213 0
29.3885 -9.23021 0
143.518 -16.4007 0
46.0802 -24.0206 0
126.804 -31.0989 0
64.2593 -36.7709 0
107.178 -41.2795 0
85.2819 -43.4357 0
96.5021 -45.1526 0
96.1779 -41.8464 0
92.5598 -40.3914 0
89.031 -42.0514 0
88.8972 -45.3705 0
92.7499 -47.0343 0
92.6561 -43.7432 0
100.546 -46.2602 0
104 -43.8759 0
103.233 -40.6431 0
99.4445 -39.7064 0
100 -43.0127 0
73.9672 -42.6773 0
74.966 -39.5075 0
72.1834 -36.7298 0
68.2628 -36.8869 0
66.8991 -39.9191 0
69.8005 -42.9366 0
70.9817 -39.857 0
122.296 -38.0436 0
124.666 -34.6078 0
122.854 -31.8184 0
118.938 -32.3031 0
116.636 -35.5209 0
118.16 -38.4758 0
120.629 -35.1917 0
53.8756 -32.271 0
55.7764 -29.5404 0
53.8477 -26.0288 0
49.9672 -25.0924 0
47.9001 -27.7009 0
49.8555 -31.3534 0
51.8424 -28.701 0
140.403 -24.0101 0
141.996 -20.2091 0
139.718 -17.7829 0
135.916 -19.0977 0
134.331 -22.8119 0
136.519 -25.3199 0
138.166 -21.5586 0
21.6372 -7.34786 0
25.5043 -8.19964 0
27.5198 -5.55384 0
25.4661 -1.91461 0
21.4047 -1.08241 0
19.6365 -3.89422 0
23.5651 -4.61455 0
3.23112 1.37439 0
6.83544 2.27579 0
7.6228 5.4844 0
4.05054 7.93799 0
3.64175 4.70319 0
156.433 -8.56107 0
158.025 -4.86244 0
155.883 -2.29293 0
151.971 -3.53784 0
150.363 -7.36418 0
152.61 -9.79707 0
154.194 -6.04037 0
18.9637 2.3671 0
14.7948 2.72986 0
13.4214 -0.287343 0
15.7621 -3.45374 0
17.3791 -0.518121 0
164.018 6.11583 0
161.84 2.4397 0
163.71 -0.228504 0
167.585 0.270083 0
165.872 3.24358 0
36.6456 -17.8722 0
38.8399 -15.3696 0
37.1673 -11.6234 0
33.2782 -10.3885 0
31.1296 -12.9292 0
32.7948 -16.6418 0
34.9836 -14.1285 0
146.523 -8.77773 0
145.011 -12.5874 0
147.314 -14.9899 0
151.1 -13.586 0
148.811 -11.1756 0
38.31 -21.6162 0
42.193 -22.8489 0
44.3583 -20.3209 0
42.6952 -16.6071 0
40.5007 -19.1128 0
130.497 -23.9324 0
128.738 -27.5359 0
130.771 -30.1695 0
134.742 -29.0605 0
132.628 -26.5058 0
56.0981 -35.7892 0
60.197 -36.3976 0
61.8633 -33.5193 0
59.6895 -30.1868 0
57.8828 -33.0025 0
112.71 -35.5759 0
110.081 -38.5029 0
111.253 -41.6124 0
115.427 -41.6461 0
114.08 -38.6336 0
77.2267 -45.3174 0
81.3373 -44.5278 0
81.9203 -41.2572 0
78.822 -38.8636 0
78.0166 -42.1177 0
9.58499 -0.442618 0
161.828 -3.77979 0
157.807 1.38615 0
11.8247 5.79254 0
27.2805 -11.82 0
43.9581 -26.5744 0
62.7453 -39.7063 0
84.9239 -46.708 0
108.146 -44.4289 0
128.726 -33.7924 0
145.821 -18.804 0
141.212 -13.9948 0
124.858 -28.3783 0
106.191 -38.0759 0
85.6478 -40.1023 0
65.7979 -33.7967 0
48.2152 -21.456 0
31.4805 -6.65774 0
      </DataArray>
    </Points>
    <Cells>
      <DataArray type="Int32" Name="connectivity" format="ascii">
8 35 68 69 70 71 72 73 74 75 
8 67 35 76 77 78 79 70 69 80 
7 36 66 81 82 83 84 85 86 87 
9 65 34 88 89 90 91 92 93 94 
6 37 64 95 96 97 98 99 100 101 
10 63 33 102 103 104 105 106 107 108 
4 62 39 109 110 111 112 113 114 115 
0 60 3 116 117 118 119 58 59 120 
11 61 32 121 122 123 124 125 126 127 
4 39 60 114 113 128 129 130 131 132 
1 2 61 30 31 133 134 135 136 137 
5 38 62 138 139 140 141 142 143 144 
11 32 63 126 125 145 146 147 148 149 
5 64 38 150 151 152 153 139 138 154 
10 33 65 107 106 155 156 157 158 159 
6 66 37 160 161 162 163 96 95 164 
9 34 67 93 92 165 166 167 168 169 
7 68 36 170 171 172 173 82 81 174 
0 4 60 12 13 131 130 117 116 175 
1 61 11 136 135 122 121 28 29 176 
2 32 61 40 41 124 123 134 133 177 
3 60 39 119 118 129 128 56 57 178 
4 5 62 14 15 143 142 110 109 179 
5 6 64 16 17 100 99 151 150 180 
6 7 66 18 19 86 85 161 160 181 
7 8 68 20 21 74 73 171 170 182 
8 9 67 22 23 168 167 77 76 183 
9 10 65 24 25 158 157 89 88 184 
10 11 63 26 27 148 147 103 102 185 
32 33 63 42 43 105 104 146 145 186 
33 34 65 44 45 91 90 156 155 187 
34 35 67 46 47 79 78 166 165 188 
35 36 68 48 49 173 172 72 71 189 
36 37 66 50 51 163 162 84 83 190 
37 38 64 52 53 153 152 98 97 191 
38 39 62 54 55 112 111 141 140 192 
      </DataArray>
      <DataArray type="Int32" Name="offsets" format="ascii">
10
20
30
40
50
60
70
80
90
100
110
120
130
140
150
160
170
180
190
200
210
220
230
240
250
260
270
280
290
300
310
320
330
340
350
360
      </DataArray>
      <DataArray type="UInt8" Name="types" format="ascii">
69
69
69
69
69
69
69
69
69
69
69
69
69
69
69
69
69
69
69
69
69
69
69
69
69
69
69
69
69
69
69
69
69
69
69
69
      </DataArray>
    </Cells>
    <PointData>
      <DataArray type="Float64" NumberOfComponents="2" Name="Displacement" format="ascii">
0 0
-28.5985 0
-33.8139 0
0 0
-4.4197 -6.72976
-10.0101 -20.3615
-14.6844 -34.9681
-15.9103 -45.7946
-14.2891 -48.4002
-13.6632 -41.3854
-16.8497 -27.8015
-22.9114 -12.2279
-1.44527 -1.02729
-2.84454 -3.35764
-6.18489 -10.852
-8.08697 -15.4656
-11.8309 -25.3576
-13.425 -30.2825
-15.5325 -39.237
-15.935 -42.9047
-15.5346 -47.7435
-14.9401 -48.6319
-13.7603 -47.0535
-13.5132 -44.6724
-14.2749 -37.3583
-15.3528 -32.772
-18.6828 -22.6167
-20.7325 -17.3777
-24.963 -7.4008
-27.0037 -2.9837
-30.0884 0
-31.9318 0
-29.6807 -14.9821
-23.4432 -30.3002
-18.2589 -42.5275
-15.267 -48.4744
-12.8949 -46.2846
-8.95298 -36.7935
-3.39297 -22.8834
0.95036 -8.33028
-32.6882 -4.96191
-31.4141 -9.76915
-27.6772 -20.2001
-25.5474 -25.3648
-21.4791 -34.8882
-19.7365 -39.0044
-17.0488 -45.343
-16.0756 -47.352
-14.5332 -48.6673
-13.7761 -47.9253
-11.8198 -43.8147
-10.5076 -40.6119
-7.1939 -32.4802
-5.30388 -27.7991
-1.5998 -17.8764
-0.0926102 -12.9494
1.35156 -4.32388
1.01679 -1.40575
0 0
0 0
-0.386085 -2.28445
-29.0852 -6.18213
-3.94488 -14.2302
-23.1487 -21.4007
-9.47537 -29.0206
-17.6405 -36.0989
-13.5184 -41.7709
-15.0437 -46.2795
-14.7181 -48.4357
-14.609 -48.4859
-14.9332 -48.5131
-14.8476 -48.7248
-14.6727 -48.718
-14.8065 -48.7038
-14.6575 -48.701
-14.7513 -48.7432
-14.2689 -47.9269
-14.519 -47.2092
-15.2858 -47.3098
-15.3704 -48.0398
-14.8144 -48.0127
-14.9216 -46.0106
-13.9229 -46.1742
-13.0018 -45.0632
-13.2187 -43.5535
-14.5823 -43.2524
-15.3847 -44.6032
-14.2034 -44.857
-14.7405 -39.7103
-16.0748 -37.9411
-17.8866 -38.4851
-18.0992 -40.6364
-16.6972 -42.1876
-15.1733 -41.8092
-16.4076 -40.1917
-12.7911 -35.6044
-10.8902 -36.2071
-9.11524 -34.3622
-9.2921 -31.7591
-11.3592 -31.0342
-13.1074 -33.02
-11.1205 -33.701
-18.8558 -25.6768
-20.9669 -23.5425
-23.2448 -24.4496
-23.3432 -27.431
-21.2245 -29.4785
-19.0363 -28.6532
-21.0932 -26.5586
-4.28872 -9.01453
-4.12529 -11.533
-2.10985 -12.2205
-0.459809 -10.2479
-0.817474 -7.74908
-2.58576 -7.22756
-2.36082 -9.61455
-0.47258 -0.292275
-0.57197 -1.05755
0.215392 -1.18227
0.346835 -0.395339
-0.0619559 -0.29681
-25.0483 -10.2277
-27.1607 -8.19577
-29.3025 -8.95959
-29.51 -11.8712
-27.4144 -14.0308
-25.1674 -13.1304
-27.2877 -11.0404
0.44516 -5.96623
-0.0199657 -3.93681
-1.39341 -3.62068
-2.75643 -5.12041
-1.13939 -5.51812
-32.2786 -2.2175
-30.7525 -4.22697
-28.8829 -3.56184
-28.7117 -1.39658
-30.4246 -1.75642
-7.79886 -21.2055
-5.60452 -22.0362
-3.57344 -19.9567
-3.75883 -17.0551
-5.90743 -16.2625
-7.94598 -18.3084
-5.75717 -19.1285
-27.5514 -17.1111
-25.3598 -19.2541
-23.0559 -18.3233
-22.974 -15.2527
-25.2631 -16.1756
-9.83813 -23.2829
-9.65886 -26.1823
-7.49359 -26.9875
-5.45294 -24.9404
-7.64744 -24.1128
-21.355 -32.2658
-19.4104 -34.2025
-17.3773 -33.5029
-17.1102 -30.7271
-19.2235 -31.5058
-14.2722 -37.4558
-13.877 -39.7309
-12.2108 -40.186
-10.6809 -38.5201
-12.4876 -38.0025
-16.9196 -43.9092
-15.8453 -45.1696
-14.6727 -44.9457
-14.2031 -43.3128
-15.5498 -43.6336
-15.3659 -46.984
-14.959 -47.8611
-14.376 -47.9238
-13.7705 -47.197
-14.576 -47.1177
-1.52612 -2.10928
-27.0612 -5.44645
-31.0816 -6.94718
0.713637 -2.54079
-6.05284 -13.4866
-11.5974 -28.241
-15.0325 -41.373
-15.0761 -48.3747
-14.076 -46.0955
-15.7187 -35.4591
-20.8456 -20.4707
-25.4551 -22.3282
-19.5868 -36.7117
-16.0311 -46.4092
-14.3522 -48.4357
-11.9799 -42.13
-7.34031 -29.7893
-1.85283 -14.9911
      </DataArray> 
      <DataArray type="Float64" NumberOfComponents="4" Name="CauchyStress" format="ascii">
-289.262 -64.7952 0 3.46696
-76.8465 100.318 0 -138.944
113.603 416.456 0 27.4227
472.299 64.7058 0 -44.0141
-91.8606 -41.0826 0 57.4409
1.82979 1.44669 0 -2.59516
73.4749 37.3385 0 -52.3902
171.586 18.5929 0 -54.9655
209.392 3.29926 0 20.7484
129.13 36.1436 0 67.657
40.2812 33.2149 0 37.3475
-13.5281 -20.2332 0 -19.1021
-216.922 -26.1169 0 59.3037
-134.719 -25.038 0 72.6683
-50.4562 -31.5181 0 38.1552
-18.2581 -14.3763 0 17.794
24.5889 19.5087 0 -21.1111
46.3191 29.82 0 -38.038
105.301 37.6152 0 -61.5544
135.429 27.0914 0 -62.6431
194.971 6.51815 0 -35.3608
206.94 -0.496099 0 -8.5704
187.006 9.62261 0 45.2992
161.589 24.3185 0 61.7021
93.8887 40.1647 0 62.9889
67.7468 42.6938 0 52.5225
23.8272 19.7454 0 20.7544
1.98973 2.67571 0 1.88548
-46.8295 -38.7763 0 -29.2607
-114.445 -67.442 0 -64.3725
74.6239 180.223 0 -188.321
131.791 314.52 0 -161.109
32.4501 50.8576 0 31.712
-32.5337 -29.7336 0 -28.7257
-102.244 -30.1647 0 -54.02
-161.428 -2.03877 0 -16.2431
-134.345 -15.1138 0 43.5704
-59.2412 -32.592 0 42.0021
4.71028 0.769298 0 -5.29457
117.515 51.1003 0 -80.5426
92.8806 50.8772 0 68.8089
48.634 2.26987 0 53.923
7.00134 3.71574 0 6.12012
-12.4485 -12.0762 0 -12.0101
-51.6227 -33.7009 0 -41.8382
-77.5773 -37.3833 0 -50.4656
-126.921 -19.3759 0 -48.8307
-149.127 -12.0443 0 -35.9968
-163.481 -2.91136 0 7.16668
-153.21 -6.25481 0 27.5264
-110.789 -26.9498 0 50.2235
-82.6484 -29.7083 0 49.6749
-36.8184 -26.9417 0 29.2296
-14.2761 -13.244 0 13.3792
33.2509 23.8047 0 -27.5721
65.68 38.0071 0 -52.7482
208.207 46.5328 0 -96.3175
312.731 16.4846 0 -85.206
104.561 28.93 0 -9.24842
-138.851 -48.2081 0 0.217997
-23.1293 -0.766474 0 -17.2464
-20.7444 -0.560239 0 29.9638
-11.6464 17.753 0 -6.93748
-7.3242 16.1168 0 3.06273
-8.14922 12.2933 0 -4.99913
-8.74757 5.91472 0 4.92972
-8.92695 1.00874 0 -5.5333
-8.97218 -6.08252 0 3.99767
-8.53953 -9.30119 0 -2.06809
56.5316 -7.26656 0 7.64722
-66.4802 -9.22455 0 -4.7728
-117.816 -6.99195 0 -3.78333
-66.2244 -9.45384 0 1.07368
55.7272 -7.79075 0 -3.87994
128.064 -4.37671 0 3.65485
-8.70867 -9.66032 0 0.0992493
121.793 -0.0751273 0 22.7722
49.571 -2.40475 0 16.9052
-61.3189 -10.1188 0 -9.58009
-112.831 -8.84457 0 -16.4933
-9.01979 -8.77354 0 2.33404
44.7541 1.65953 0 -21.4182
-56.536 -9.8929 0 11.8227
-89.492 -15.1019 0 29.8503
-47.2952 -9.34174 0 13.0582
34.1758 8.80944 0 -23.9897
93.5238 14.1468 0 -40.8017
-9.33703 -3.53053 0 -5.08039
66.7233 26.9875 0 44.8966
21.5648 17.1799 0 23.7559
-35.3333 -8.64243 0 -13.5832
-66.5635 -21.2 0 -33.6153
-44.9294 -10.9585 0 -15.1271
31.3943 11.6412 0 25.8364
-9.46057 1.44667 0 5.18282
14.8521 18.5816 0 -21.3334
-28.644 -5.23629 0 10.5127
-37.305 -15.016 0 21.9134
-20.4781 0.554053 0 6.00619
7.04849 19.5893 0 -15.9912
33.6952 27.9023 0 -31.8572
-8.67075 8.57467 0 -5.41217
13.6207 24.3865 0 20.9133
-1.29898 18.665 0 9.57393
-12.339 7.00901 0 -1.03338
-20.5438 -9.49411 0 -11.8393
-18.8807 -0.277184 0 -6.92083
5.16641 20.7813 0 15.3185
-8.49563 12.152 0 4.98691
-54.1982 -15.5872 0 30.0138
-29.3631 3.95229 0 7.68052
9.53808 27.5868 0 -23.3607
50.8695 37.9645 0 -47.7974
17.9749 30.3612 0 -36.0273
-48.8725 -0.669725 0 11.3283
-16.0677 15.553 0 -10.4082
-201.199 -15.6802 0 5.12681
-107.331 7.14747 0 -1.56093
69.5429 -10.3426 0 -52.7358
229.493 8.64458 0 -66.3004
-33.1841 -17.0348 0 -21.3595
-15.4206 5.78746 0 -33.6513
-28.9729 11.4902 0 -14.5639
13.2364 36.2051 0 14.6032
32.1054 66.06 0 15.6894
-1.75291 23.2196 0 20.2596
-16.4279 4.09113 0 4.54945
-5.97795 26.172 0 -6.88582
90.1838 39.4631 0 -64.9695
41.8785 20.1799 0 -42.4185
-72.4887 -10.4152 0 10.9051
-94.5411 -24.2722 0 37.0713
-18.4852 13.2456 0 -13.8891
61.6178 122.624 0 69.2409
16.2905 5.55647 0 65.2751
-51.3142 0.182624 0 16.0299
-85.9485 -2.10886 0 -39.2656
32.0848 60.6161 0 -29.862
-7.96198 13.9883 0 -4.85681
-6.99147 14.1185 0 -5.58913
5.40078 15.939 0 -13.7014
-0.195409 21.8829 0 -14.3227
-17.8233 9.79162 0 1.47562
-13.1244 4.33723 0 2.97863
-9.32744 16.8352 0 -5.99956
3.69458 10.2918 0 14.3605
-7.08294 14.2556 0 5.16835
-8.35811 13.7203 0 2.72483
-18.4564 0.985723 0 -2.68469
-9.65104 17.3092 0 7.43654
3.26295 14.199 0 -9.64022
-0.182034 17.5351 0 -10.4717
-13.2453 6.72573 0 0.491238
-8.88642 3.49779 0 0.379576
-8.31077 14.9186 0 -5.24894
-34.1417 -17.0202 0 -21.7268
-26.6065 -5.86035 0 -10.497
13.1532 19.6276 0 20.3004
30.0999 29.2602 0 31.2195
-7.98504 9.93822 0 4.42943
51.7697 26.4237 0 -39.5478
24.5116 13.8454 0 -23.7165
-37.7576 -8.91013 0 12.5623
-54.1601 -20.1302 0 28.5993
-8.24025 5.63327 0 -5.39714
-84.5708 -19.9371 0 -33.331
-53.662 -11.8177 0 -13.6115
41.4492 3.51975 0 22.4802
87.2821 17.69 0 44.0361
-8.80448 -1.72704 0 4.6831
111.806 4.02663 0 -30.8784
51.8951 -4.95058 0 -12.9694
-62.6639 -10.2526 0 7.6601
-104.762 -12.169 0 23.2674
-8.62258 -6.24577 0 -3.71144
-138.413 -17.4365 0 39.9573
-68.3296 -28.5172 0 -17.9429
38.3942 5.37743 0 51.293
144.587 20.4554 0 -74.9584
-29.6581 -7.40551 0 16.1733
17.5076 23.5089 0 -21.8119
71.9923 22.5603 0 -44.0871
125.141 -3.44156 0 -15.8368
107.266 7.90381 0 37.6792
46.3109 31.3534 0 40.488
3.84118 15.7311 0 9.01642
-7.25182 5.7386 0 -0.575583
-48.9199 -22.0876 0 -29.879
-101.075 -14.034 0 -28.2208
-115.596 -7.55446 0 11.4338
-71.4502 -19.5628 0 32.4704
-22.2131 -7.81467 0 12.5773
23.4241 30.5963 0 -29.4381
      </DataArray> 
    </PointData>
    <CellData>
      <DataArray type="Float64" NumberOfComponents="1" Name="Process" format="ascii">
1
1
3
1
3
0
2
2
0
2
0
2
0
2
0
3
1
3
2
0
0
2
2
3
3
1
1
1
0
0
1
1
3
3
3
2
      </DataArray> 
    </CellData>
  </Piece>
  </UnstructuredGrid>
</VTKFile>
