<?xml version="1.0"?>
<VTKFile type="UnstructuredGrid">
  <UnstructuredGrid>
  <Piece NumberOfPoints="400"  NumberOfCells="25">
    <Points>
      <DataArray type="Float64" NumberOfComponents="3" format="ascii">
0 15 0
7.06839 14.2271 0
8.74237 24.0587 0
0 25 0
2.33966 14.8502 0
4.69834 14.5964 0
7.64955 17.5652 0
8.19088 20.8424 0
2.95292 24.8095 0
5.86777 24.4995 0
0 18.3333 0
0 21.6667 0
2.56092 18.237 0
5.11072 17.9734 0
2.73999 21.5563 0
5.47536 21.2738 0
7.06839 14.2271 0
14.1879 12.4204 0
17.1006 21.9686 0
8.74237 24.0587 0
9.44282 13.7346 0
11.8172 13.128 0
15.183 15.6455 0
16.1368 18.8321 0
11.5744 23.4806 0
14.3614 22.7781 0
7.64955 17.5652 0
8.19088 20.8424 0
10.1769 17.0333 0
12.6894 16.39 0
10.8739 20.2833 0
13.5224 19.6094 0
14.1879 12.4204 0
21.2575 9.79709 0
25.0306 19.0437 0
17.1006 21.9686 0
16.5517 11.6239 0
18.9082 10.747 0
22.5352 12.9055 0
23.7806 15.9921 0
19.7904 21.0687 0
22.4327 20.0901 0
15.183 15.6455 0
16.1368 18.8321 0
17.6547 14.8099 0
20.1049 13.8933 0
18.7175 17.9626 0
21.2652 17.0121 0
21.2575 9.79709 0
28.2694 6.58905 0
32.5882 15.5985 0
25.0306 19.0437 0
23.5999 8.78192 0
25.9367 7.70976 0
29.7236 9.60697 0
31.1514 12.6155 0
27.587 17.9399 0
30.1052 16.7884 0
22.5352 12.9055 0
23.7806 15.9921 0
24.9471 11.8562 0
27.3426 10.754 0
26.2647 14.9136 0
28.7205 13.7854 0
28.2694 6.58905 0
35.2624 3.01193 0
39.8631 11.8821 0
32.5882 15.5985 0
30.5997 5.42793 0
32.9298 4.23334 0
36.8045 5.97362 0
38.3285 8.93531 0
35.0395 14.3791 0
37.463 13.138 0
29.7236 9.60697 0
31.1514 12.6155 0
32.0922 8.42315 0
34.4514 7.20971 0
33.5608 11.4123 0
35.9521 10.1831 0
35.2624 3.01193 0
42.3015 -0.747741 0
46.9611 8.09292 0
39.8631 11.8821 0
37.6001 1.7703 0
39.9456 0.514934 0
43.8578 2.19586 0
45.4022 5.14741 0
42.2437 10.6186 0
44.6085 9.35352 0
36.8045 5.97362 0
38.3285 8.93531 0
39.1546 4.72175 0
41.5047 3.46042 0
40.6934 7.67601 0
43.0501 6.41139 0
42.3015 -0.747741 0
49.4577 -4.51796 0
53.9793 4.39388 0
46.9611 8.09292 0
44.6705 -2.01138 0
47.0551 -3.27006 0
50.9633 -1.55785 0
52.4627 1.41661 0
49.305 6.8426 0
51.6433 5.60787 0
43.8578 2.19586 0
45.4022 5.14741 0
46.2167 0.934184 0
48.5843 -0.318915 0
47.753 3.88996 0
50.1056 2.64455 0
49.4577 -4.51796 0
56.7952 -8.13978 0
61.0008 0.924967 0
53.9793 4.39388 0
51.8807 -5.7493 0
54.3259 -6.95843 0
58.192 -5.13536 0
59.5868 -2.11077 0
56.3159 3.20568 0
58.6557 2.04787 0
50.9633 -1.55785 0
52.4627 1.41661 0
53.3562 -2.77709 0
55.7651 -3.97134 0
54.8271 0.211459 0
57.2011 -0.965949 0
56.7952 -8.13978 0
64.361 -11.4626 0
68.0869 -2.19134 0
61.0008 0.924967 0
59.2901 -9.28779 0
61.8118 -10.3971 0
65.5958 -8.39536 0
66.8316 -5.30294 0
63.3533 -0.15861 0
65.7149 -1.19873 0
58.192 -5.13536 0
59.5868 -2.11077 0
60.6386 -6.26397 0
63.1062 -7.35225 0
61.9862 -3.21822 0
64.4007 -4.28376 0
64.361 -11.4626 0
72.1776 -14.3447 0
75.2749 -4.84603 0
68.0869 -2.19134 0
66.9384 -12.4789 0
69.544 -13.4412 0
73.2023 -11.2071 0
74.2294 -8.03987 0
70.4705 -3.13248 0
72.8663 -4.01854 0
65.5958 -8.39536 0
66.8316 -5.30294 0
68.1082 -9.38851 0
70.6438 -10.3272 0
69.2797 -6.27137 0
71.7456 -7.185 0
72.1776 -14.3447 0
80.2382 -16.6568 0
82.5769 -6.94458 0
75.2749 -4.84603 0
74.8387 -15.1846 0
77.526 -15.9567 0
81.0109 -13.4526 0
81.7863 -10.2151 0
77.6964 -5.61153 0
80.1306 -6.31202 0
73.2023 -11.2071 0
74.2294 -8.03987 0
75.7836 -12.0238 0
78.3868 -12.7736 0
76.7313 -8.83213 0
79.2505 -9.55832 0
80.2382 -16.6568 0
88.5055 -18.2883 0
89.9812 -8.40894 0
82.5769 -6.94458 0
82.9737 -17.2809 0
85.7303 -17.8258 0
88.9926 -15.0319 0
89.4817 -11.7394 0
85.0349 -7.50641 0
87.5034 -7.99525 0
81.0109 -13.4526 0
81.7863 -10.2151 0
83.6545 -14.0573 0
86.3157 -14.5846 0
84.3378 -10.7993 0
86.9035 -11.3082 0
88.5055 -18.2883 0
96.9145 -19.1553 0
97.456 -9.18157 0
89.9812 -8.40894 0
91.2966 -18.6654 0
94.1007 -18.955 0
97.0932 -15.8694 0
97.2725 -12.5459 0
92.4671 -8.74548 0
94.9593 -9.00345 0
88.9926 -15.0319 0
89.4817 -11.7394 0
91.6829 -15.3963 0
94.384 -15.676 0
92.0708 -12.0905 0
94.6684 -12.3598 0
96.9145 -19.1553 0
105.38 -19.2078 0
104.955 -9.22864 0
97.456 -9.18157 0
99.7348 -19.2646 0
102.558 -19.2822 0
105.24 -15.9206 0
105.099 -12.5954 0
99.9556 -9.27874 0
102.456 -9.29453 0
97.0932 -15.8694 0
97.2725 -12.5459 0
99.8077 -15.975 0
102.524 -15.9922 0
99.8806 -12.6476 0
102.49 -12.6641 0
105.38 -19.2078 0
113.809 -18.435 0
112.426 -8.54271 0
104.955 -9.22864 0
108.199 -19.0412 0
111.009 -18.7833 0
113.353 -15.1756 0
112.894 -11.879 0
107.451 -9.08099 0
109.942 -8.8521 0
105.24 -15.9206 0
105.099 -12.5954 0
107.952 -15.7601 0
110.657 -15.5115 0
107.704 -12.4411 0
110.303 -12.2021 0
113.809 -18.435 0
122.108 -16.866 0
119.819 -7.14279 0
112.426 -8.54271 0
116.594 -17.9979 0
119.361 -17.4741 0
121.353 -13.6602 0
120.593 -10.4194 0
114.901 -8.15368 0
117.366 -7.68649 0
113.353 -15.1756 0
112.894 -11.879 0
116.035 -14.7538 0
118.703 -14.2479 0
115.474 -11.4731 0
118.041 -10.9859 0
122.108 -16.866 0
130.203 -14.566 0
127.092 -5.07283 0
119.819 -7.14279 0
124.832 -16.1763 0
127.532 -15.4084 0
129.176 -11.4332 0
128.143 -8.26805 0
122.258 -6.52435 0
124.683 -5.83354 0
121.353 -13.6602 0
120.593 -10.4194 0
123.983 -12.9932 0
126.591 -12.2498 0
123.128 -9.77579 0
125.645 -9.05769 0
130.203 -14.566 0
138.043 -11.6311 0
134.224 -2.39864 0
127.092 -5.07283 0
132.847 -13.6528 0
135.46 -12.6731 0
136.779 -8.57997 0
135.512 -5.50112 0
129.486 -4.24481 0
131.863 -3.35241 0
129.176 -11.4332 0
128.143 -8.26805 0
131.736 -10.5467 0
134.27 -9.59428 0
130.62 -7.40985 0
133.077 -6.4864 0
138.043 -11.6311 0
145.605 -8.17785 0
141.214 0.797621 0
134.224 -2.39864 0
140.594 -10.5313 0
143.115 -9.37854 0
144.149 -5.20747 0
142.691 -2.21254 0
136.569 -1.38662 0
138.899 -0.319958 0
136.779 -8.57997 0
135.512 -5.50112 0
139.262 -7.50788 0
141.718 -6.38227 0
137.926 -4.45756 0
140.319 -3.35992 0
145.605 -8.17785 0
152.898 -4.33845 0
148.084 4.41777 0
141.214 0.797621 0
148.064 -6.93423 0
150.495 -5.65274 0
151.299 -1.43424 0
149.701 1.4871 0
143.515 1.96237 0
145.805 3.17039 0
144.149 -5.20747 0
142.691 -2.21254 0
146.555 -3.9879 0
148.938 -2.72848 0
145.045 -1.0197 0
147.381 0.214769 0
152.898 -4.33845 0
159.962 -0.251785 0
154.885 8.35554 0
148.084 4.41777 0
155.276 -2.99652 0
157.63 -1.63245 0
158.271 2.60802 0
156.586 5.48345 0
150.355 5.70054 0
152.621 7.01453 0
151.299 -1.43424 0
149.701 1.4871 0
153.64 -0.110192 0
155.964 1.23883 0
152.007 2.79316 0
154.302 4.12729 0
159.962 -0.251785 0
166.856 3.93462 0
161.69 12.489 0
154.885 8.35554 0
162.276 1.13991 0
164.573 2.53719 0
165.128 6.78486 0
163.415 9.6381 0
157.149 9.71899 0
159.416 11.0989 0
158.271 2.60802 0
156.586 5.48345 0
160.565 3.99243 0
162.85 5.38659 0
158.864 6.85613 0
161.139 8.24196 0
166.856 3.93462 0
173.652 8.06819 0
168.589 16.6789 0
161.69 12.489 0
169.126 5.32657 0
171.39 6.70662 0
171.957 10.9446 0
170.279 13.8259 0
163.973 13.8837 0
166.271 15.2808 0
165.128 6.78486 0
163.415 9.6381 0
167.404 8.18151 0
169.68 9.57023 0
165.696 11.0405 0
167.984 12.4399 0
173.652 8.06819 0
180.418 11.9834 0
175.69 20.7552 0
168.589 16.6789 0
175.917 9.40494 0
178.175 10.7116 0
178.837 14.9362 0
177.275 17.8558 0
170.932 18.0725 0
173.299 19.4399 0
171.957 10.9446 0
170.279 13.8259 0
174.236 12.2988 0
176.527 13.6301 0
172.584 15.1902 0
174.912 16.5327 0
180.418 11.9834 0
187.247 15 0
182.698 25 0
175.69 20.7552 0
182.644 13.1952 0
184.901 14.2424 0
185.985 18.3333 0
184.413 21.6667 0
178.092 22.0249 0
180.45 23.3841 0
178.837 14.9362 0
177.275 17.8558 0
181.177 16.202 0
183.556 17.3609 0
179.677 19.1591 0
182.074 20.4332 0
      </DataArray>
    </Points>
    <Cells>
      <DataArray type="Int32" Name="connectivity" format="ascii">
0 1 2 3 4 5 6 7 8 9 10 11 12 13 14 15 
16 17 18 19 20 21 22 23 24 25 26 27 28 29 30 31 
32 33 34 35 36 37 38 39 40 41 42 43 44 45 46 47 
48 49 50 51 52 53 54 55 56 57 58 59 60 61 62 63 
64 65 66 67 68 69 70 71 72 73 74 75 76 77 78 79 
80 81 82 83 84 85 86 87 88 89 90 91 92 93 94 95 
96 97 98 99 100 101 102 103 104 105 106 107 108 109 110 111 
112 113 114 115 116 117 118 119 120 121 122 123 124 125 126 127 
128 129 130 131 132 133 134 135 136 137 138 139 140 141 142 143 
144 145 146 147 148 149 150 151 152 153 154 155 156 157 158 159 
160 161 162 163 164 165 166 167 168 169 170 171 172 173 174 175 
176 177 178 179 180 181 182 183 184 185 186 187 188 189 190 191 
192 193 194 195 196 197 198 199 200 201 202 203 204 205 206 207 
208 209 210 211 212 213 214 215 216 217 218 219 220 221 222 223 
224 225 226 227 228 229 230 231 232 233 234 235 236 237 238 239 
240 241 242 243 244 245 246 247 248 249 250 251 252 253 254 255 
256 257 258 259 260 261 262 263 264 265 266 267 268 269 270 271 
272 273 274 275 276 277 278 279 280 281 282 283 284 285 286 287 
288 289 290 291 292 293 294 295 296 297 298 299 300 301 302 303 
304 305 306 307 308 309 310 311 312 313 314 315 316 317 318 319 
320 321 322 323 324 325 326 327 328 329 330 331 332 333 334 335 
336 337 338 339 340 341 342 343 344 345 346 347 348 349 350 351 
352 353 354 355 356 357 358 359 360 361 362 363 364 365 366 367 
368 369 370 371 372 373 374 375 376 377 378 379 380 381 382 383 
384 385 386 387 388 389 390 391 392 393 394 395 396 397 398 399 
      </DataArray>
      <DataArray type="Int32" Name="offsets" format="ascii">
16
32
48
64
80
96
112
128
144
160
176
192
208
224
240
256
272
288
304
320
336
352
368
384
400
      </DataArray>
      <DataArray type="UInt8" Name="types" format="ascii">
70
70
70
70
70
70
70
70
70
70
70
70
70
70
70
70
70
70
70
70
70
70
70
70
70
      </DataArray>
    </Cells>
    <PointData>
      <DataArray type="Float64" NumberOfComponents="2" Name="Displacement" format="ascii">
0 0
-0.931607 -0.772946
0.742365 -0.941303
0 0
-0.327004 -0.149786
-0.63499 -0.403567
-0.350448 -0.768096
0.190883 -0.824238
0.286251 -0.190458
0.534438 -0.500479
0 0
0 0
-0.105742 -0.0962918
-0.222616 -0.359946
0.0733213 -0.1104
0.142026 -0.392856
-0.931607 -0.772946
-1.8121 -2.5796
1.1006 -3.03138
0.742365 -0.941303
-1.22385 -1.26541
-1.5161 -1.87199
-0.816953 -2.68783
0.136765 -2.83453
0.907762 -1.51937
1.02806 -2.22192
-0.350448 -0.768096
0.190883 -0.824238
-0.489768 -1.29999
-0.64392 -1.9433
0.207281 -1.38341
0.189081 -2.05723
-1.8121 -2.5796
-2.7425 -5.20291
1.03057 -5.95628
1.1006 -3.03138
-2.11493 -3.37609
-2.42511 -4.25303
-1.46483 -5.42783
-0.219397 -5.67453
1.12369 -3.93132
1.09936 -4.90987
-0.816953 -2.68783
0.136765 -2.83453
-1.01199 -3.52341
-1.22845 -4.44006
0.0508389 -3.70411
-0.0680918 -4.65459
-2.7425 -5.20291
-3.73056 -8.41095
0.588204 -9.40154
1.03057 -5.95628
-3.06674 -6.21808
-3.39659 -7.29024
-2.27642 -8.72636
-0.848632 -9.05112
0.920352 -7.06006
0.771836 -8.2116
-1.46483 -5.42783
-0.219397 -5.67453
-1.71955 -6.47709
-1.99073 -7.57933
-0.40198 -6.75303
-0.612871 -7.88131
-3.73056 -8.41095
-4.73756 -11.9881
-0.136945 -13.1179
0.588204 -9.40154
-4.067 -9.57207
-4.40353 -10.7667
-3.19547 -12.3597
-1.67149 -12.7314
0.372807 -10.6209
0.129686 -11.862
-2.27642 -8.72636
-0.848632 -9.05112
-2.57448 -9.91018
-2.88189 -11.1236
-1.10585 -10.2544
-1.38123 -11.4836
-4.73756 -11.9881
-5.6985 -15.7477
-1.03885 -16.9071
-0.136945 -13.1179
-5.06652 -13.2297
-5.38773 -14.4851
-4.14221 -16.1375
-2.59781 -16.5193
-0.422986 -14.3814
-0.724798 -15.6465
-3.19547 -12.3597
-1.67149 -12.7314
-3.51204 -13.6116
-3.8286 -14.8729
-1.97331 -13.9907
-2.28324 -15.2553
-5.6985 -15.7477
-6.5423 -19.518
-2.02075 -20.6061
-1.03885 -16.9071
-5.99616 -17.0114
-6.27824 -18.2701
-5.03672 -19.8912
-3.53727 -20.2501
-1.36169 -18.1574
-1.69005 -19.3921
-4.14221 -16.1375
-2.59781 -16.5193
-4.44993 -17.3991
-4.74901 -18.6522
-2.91362 -17.7767
-3.22772 -19.0221
-6.5423 -19.518
-7.20485 -23.1398
-2.9992 -24.075
-2.02075 -20.6061
-6.786 -20.7493
-7.00745 -21.9584
-5.80803 -23.4687
-4.41318 -23.7774
-2.35074 -21.7943
-2.67764 -22.9521
-5.03672 -19.8912
-3.53727 -20.2501
-5.31049 -21.1104
-5.56824 -22.3047
-3.83952 -21.4552
-4.13221 -22.6326
-7.20485 -23.1398
-7.63902 -26.4626
-3.91315 -27.1913
-2.9992 -24.075
-7.37656 -24.2878
-7.52157 -25.3971
-6.40423 -26.7287
-5.16844 -26.9696
-3.31332 -25.1586
-3.61844 -26.1987
-5.80803 -23.4687
-4.41318 -23.7774
-6.02806 -24.5973
-6.22715 -25.6856
-4.68042 -24.8849
-4.93258 -25.9504
-7.63902 -26.4626
-7.8224 -29.3447
-4.72511 -29.846
-3.91315 -27.1913
-7.72824 -27.4789
-7.78929 -28.4412
-6.79773 -29.5404
-5.77055 -29.7065
-4.19619 -28.1325
-4.46699 -29.0185
-6.40423 -26.7287
-5.16844 -26.9696
-6.55842 -27.7218
-6.68958 -28.6606
-5.38695 -27.938
-5.58772 -28.8517
-7.8224 -29.3447
-7.76179 -31.6568
-5.42308 -31.9446
-4.72511 -29.846
-7.82801 -30.1846
-7.80734 -30.9567
-6.98914 -31.7859
-6.21369 -31.8818
-4.97027 -30.6115
-5.20278 -31.312
-6.79773 -29.5404
-5.77055 -29.7065
-6.88307 -30.3572
-6.94651 -31.1069
-5.93539 -30.4988
-6.08284 -31.225
-7.76179 -31.6568
-7.49454 -33.2883
-6.01876 -33.4089
-5.42308 -31.9446
-7.69293 -32.2809
-7.60303 -32.8258
-7.00741 -33.3652
-6.51827 -33.406
-5.63177 -32.5064
-5.82992 -32.9953
-6.98914 -31.7859
-6.21369 -31.8818
-7.01221 -32.3906
-7.01762 -32.918
-6.32885 -32.4659
-6.42983 -32.9749
-7.49454 -33.2883
-7.08545 -34.1553
-6.54397 -34.1816
-6.01876 -33.4089
-7.37003 -33.6654
-7.23259 -33.955
-6.90675 -34.2028
-6.72755 -34.2126
-6.19958 -33.7455
-6.37406 -34.0034
-7.00741 -33.3652
-6.51827 -33.406
-6.98376 -33.7296
-6.94929 -34.0094
-6.59591 -33.7571
-6.66492 -34.0265
-7.08545 -34.1553
-6.6196 -34.2078
-7.04484 -34.2286
-6.54397 -34.1816
-6.93189 -34.2646
-6.77542 -34.2822
-6.75968 -34.254
-6.90112 -34.262
-6.7111 -34.2787
-6.8774 -34.2945
-6.90675 -34.2028
-6.72755 -34.2126
-6.85895 -34.3084
-6.8089 -34.3255
-6.78611 -34.3142
-6.84312 -34.3308
-6.6196 -34.2078
-6.19126 -33.435
-7.57372 -33.5427
-7.04484 -34.2286
-6.46798 -34.0412
-6.32404 -33.7833
-6.64716 -33.509
-7.10616 -33.5457
-7.2154 -34.081
-7.39104 -33.8521
-6.75968 -34.254
-6.90112 -34.262
-6.71433 -34.0935
-6.67584 -33.8448
-6.96265 -34.1078
-7.03018 -33.8687
-6.19126 -33.435
-5.89169 -31.866
-8.18142 -32.1428
-7.57372 -33.5427
-6.073 -32.9979
-5.97219 -32.4741
-6.64728 -31.9935
-7.40725 -32.0861
-7.76532 -33.1537
-7.9674 -32.6865
-6.64716 -33.509
-7.10616 -33.5457
-6.63117 -33.0871
-6.63039 -32.5812
-7.19295 -33.1397
-7.29264 -32.6525
-5.89169 -31.866
-5.7965 -29.566
-8.90757 -30.0728
-8.18142 -32.1428
-5.83418 -31.1763
-5.8018 -30.4084
-6.82448 -29.7665
-7.85712 -29.9347
-8.40877 -31.5244
-8.6505 -30.8335
-6.64728 -31.9935
-7.40725 -32.0861
-6.68412 -31.3265
-6.74266 -30.5831
-7.53866 -31.4425
-7.68821 -30.7244
-5.7965 -29.566
-5.9574 -26.6311
-9.77595 -27.3986
-8.90757 -30.0728
-5.82007 -28.6528
-5.87346 -27.6731
-7.22081 -26.9133
-8.48818 -27.1678
-9.18078 -29.2448
-9.47025 -28.3524
-6.82448 -29.7665
-7.85712 -29.9347
-6.93099 -28.88
-7.06292 -27.9276
-8.04645 -29.0765
-8.2567 -28.1531
-5.9574 -26.6311
-6.39526 -23.1778
-10.7864 -24.2024
-9.77595 -27.3986
-6.07246 -25.5313
-6.21852 -24.3785
-7.85105 -23.5408
-9.30866 -23.8792
-10.0977 -26.3866
-10.4348 -25.32
-7.22081 -26.9133
-8.48818 -27.1678
-7.40504 -25.8412
-7.61528 -24.7156
-8.74108 -26.1242
-9.01482 -25.0266
-6.39526 -23.1778
-7.10153 -19.3384
-11.9158 -20.5822
-10.7864 -24.2024
-6.6022 -21.9342
-6.8381 -20.6527
-8.7011 -19.7676
-10.2988 -20.1796
-11.1515 -23.0376
-11.5286 -21.8296
-7.85105 -23.5408
-9.30866 -23.8792
-8.11166 -22.3212
-8.39558 -21.0618
-9.6217 -22.6864
-9.95235 -21.4519
-7.10153 -19.3384
-8.03789 -15.2518
-13.1153 -16.6445
-11.9158 -20.5822
-7.39088 -17.9965
-7.70383 -16.6324
-9.72868 -15.7253
-11.4137 -16.1832
-12.3113 -19.2995
-12.7122 -17.9855
-8.7011 -19.7676
-10.2988 -20.1796
-9.02644 -18.4435
-9.36963 -17.0945
-10.6594 -18.8735
-11.0317 -17.5394
-8.03789 -15.2518
-9.14426 -11.0654
-14.3098 -12.511
-13.1153 -16.6445
-8.39065 -13.8601
-8.76008 -12.4628
-10.8718 -11.5485
-12.5852 -12.0286
-13.5178 -15.281
-13.9168 -13.9011
-9.72868 -15.7253
-11.4137 -16.1832
-10.1012 -14.3409
-10.4836 -12.9467
-11.8026 -14.8105
-12.1946 -13.4247
-9.14426 -11.0654
-10.348 -6.93181
-15.4114 -8.32109
-14.3098 -12.511
-9.54058 -9.67343
-9.94379 -8.29338
-12.0435 -7.38875
-13.7213 -7.8408
-14.6935 -11.1163
-15.0627 -9.71919
-10.8718 -11.5485
-12.5852 -12.0286
-11.2622 -10.1518
-11.6532 -8.7631
-12.9707 -10.6262
-13.3497 -9.22681
-10.348 -6.93181
-11.5825 -3.01661
-16.3098 -4.24476
-15.4114 -8.32109
-10.75 -5.59506
-11.1579 -4.28835
-13.1626 -3.39713
-14.7246 -3.8109
-15.7351 -6.92748
-16.034 -5.5601
-12.0435 -7.38875
-13.7213 -7.8408
-12.4305 -6.03449
-12.8065 -4.70322
-14.0823 -6.47651
-14.4214 -5.13392
-11.5825 -3.01661
-12.7526 0
-17.3024 0
-16.3098 -4.24476
-12.0231 -1.80476
-12.4327 -0.757617
-14.0154 0
-15.5869 0
-16.5747 -2.97508
-16.8837 -1.61593
-13.1626 -3.39713
-14.7246 -3.8109
-13.4894 -2.13129
-13.7771 -0.972384
-14.9896 -2.50761
-15.259 -1.23342
      </DataArray> 
      <DataArray type="Float64" NumberOfComponents="4" Name="CauchyStress" format="ascii">
-227.015 -87.2628 0 -19.4091
-154.206 -4.17873 0 29.4695
196.602 3.62248 0 -34.6018
298.752 76.314 0 -52.2926
-187.832 -7.41228 0 10.7169
-166.113 8.11702 0 26.2831
-68.4313 -5.59533 0 -2.8007
53.8515 -0.201892 0 -25.3884
249.546 7.65491 0 -25.1341
219.201 -5.7407 0 -24.3882
-77.9222 -25.2307 0 -1.2877
60.5197 17.2928 0 -5.17456
-77.0067 -8.17493 0 -6.85794
-74.3834 -4.35947 0 -6.25657
60.0949 -4.76264 0 -18.2694
59.6712 -5.63055 0 -24.5932
-154.206 -4.17873 0 29.4695
-108.574 -9.52806 0 35.4363
138.422 11.6594 0 -43.0452
196.602 3.62248 0 -34.6018
-140.667 -10.7648 0 30.6264
-124.355 -10.6957 0 33.1291
-47.749 -0.549983 0 1.79231
33.1046 6.66777 0 -24.3852
176.927 11.309 0 -42.6966
158.011 12.8727 0 -44.6258
-68.4313 -5.59533 0 -2.8007
53.8515 -0.201892 0 -25.3884
-60.3619 -4.89681 0 0.0268294
-53.032 -2.51705 0 1.22682
44.9433 2.97995 0 -24.546
38.2705 5.01645 0 -24.423
-108.574 -9.52806 0 35.4363
-72.3229 -12.9358 0 30.1075
86.8034 14.5831 0 -37.0637
138.422 11.6594 0 -43.0452
-95.1584 -10.3461 0 35.5517
-83.2645 -11.9124 0 33.3774
-32.9795 0.97341 0 2.24866
20.9744 10.8184 0 -20.5257
119.157 11.7002 0 -41.0438
102.059 13.3325 0 -39.4077
-47.749 -0.549983 0 1.79231
33.1046 6.66777 0 -24.3852
-43.2366 0.266211 0 2.2218
-38.1028 0.644272 0 2.36702
29.0577 8.54439 0 -23.7956
25.3152 10.1499 0 -22.5068
-72.3229 -12.9358 0 30.1075
-40.4287 -9.44978 0 20.2351
50.5604 10.6057 0 -24.4259
86.8034 14.5831 0 -37.0637
-61.3419 -12.4713 0 26.7921
-50.4397 -11.0423 0 23.5529
-20.381 3.90903 0 -0.0171934
9.82721 10.737 0 -14.988
73.5334 14.3021 0 -33.5161
61.7431 12.8243 0 -29.1851
-32.9795 0.97341 0 2.24866
20.9744 10.8184 0 -20.5257
-28.2015 1.81316 0 1.73856
-23.9297 2.98723 0 0.878843
16.5757 10.8961 0 -18.4434
12.9449 10.9323 0 -16.6806
-40.4287 -9.44978 0 20.2351
-15.289 -4.13175 0 8.06768
20.8734 4.7633 0 -11.3369
50.5604 10.6057 0 -24.4259
-31.487 -7.87252 0 16.5008
-23.1782 -6.08178 0 12.3335
-10.6998 5.59173 0 -3.02638
1.79832 8.83584 0 -9.67628
39.8119 8.49747 0 -19.8277
29.8839 6.69134 0 -15.563
-20.381 3.90903 0 -0.0171934
9.82721 10.737 0 -14.988
-17.1473 4.52453 0 -0.919385
-13.8763 5.08341 0 -1.94921
7.06607 10.344 0 -13.2597
4.44523 9.74851 0 -11.5111
-15.289 -4.13175 0 8.06768
7.41033 2.21575 0 -3.81204
-2.25299 -1.93241 0 1.27453
20.8734 4.7633 0 -11.3369
-7.54805 -2.01387 0 3.94617
0.0460346 0.153044 0 -0.012486
-2.43495 7.23719 0 -6.4001
-5.47635 5.93857 0 -4.76072
12.7178 2.5948 0 -7.04003
5.07226 0.334082 0 -2.80846
-10.6998 5.59173 0 -3.02638
1.79832 8.83584 0 -9.67628
-7.72444 6.17926 0 -4.14579
-4.9915 6.78758 0 -5.29905
-0.805461 7.83097 0 -7.88437
-3.23983 6.89916 0 -6.26616
7.41033 2.21575 0 -3.81204
28.2151 7.61251 0 -14.4651
-23.0583 -7.32285 0 11.7441
-2.25299 -1.93241 0 1.27453
14.4836 4.16339 0 -7.50404
21.3489 5.9861 0 -11.0826
4.78968 7.73844 0 -9.41183
-11.9569 2.87172 0 -0.749019
-9.42618 -3.9922 0 5.07128
-16.4206 -5.77181 0 8.53971
-2.43495 7.23719 0 -6.4001
-5.47635 5.93857 0 -4.76072
0.00381572 7.51276 0 -7.43901
2.37052 7.67528 0 -8.44955
-7.6358 4.93568 0 -3.33965
-9.83402 3.90686 0 -2.00681
28.2151 7.61251 0 -14.4651
48.7227 10.8473 0 -22.819
-41.97 -10.5202 0 19.7303
-23.0583 -7.32285 0 11.7441
35.071 8.98018 0 -17.5648
41.8468 10.0507 0 -20.3499
11.6529 7.31364 0 -11.7727
-18.2792 0.230041 0 2.37618
-29.4534 -8.64496 0 14.7107
-35.7952 -9.71952 0 17.3877
4.78968 7.73844 0 -9.41183
-11.9569 2.87172 0 -0.749019
7.15506 7.71778 0 -10.2984
9.37516 7.57805 0 -11.0893
-14.0727 1.90406 0 0.416934
-16.2403 1.02519 0 1.45983
48.7227 10.8473 0 -22.819
69.0117 11.5254 0 -28.0196
-60.1052 -11.184 0 24.4233
-41.97 -10.5202 0 19.7303
55.5572 11.3683 0 -24.9455
62.2325 11.5853 0 -26.6883
18.2544 5.76132 0 -13.0314
-24.4132 -1.77884 0 4.40707
-48.0901 -11.0246 0 21.6924
-54.2115 -11.2468 0 23.2548
11.6529 7.31364 0 -11.7727
-18.2792 0.230041 0 2.37618
13.8977 6.91469 0 -12.3297
16.0182 6.38143 0 -12.7508
-20.306 -0.502055 0 3.17278
-22.427 -1.18481 0 3.85062
69.0117 11.5254 0 -28.0196
88.6444 9.72036 0 -29.1917
-76.9739 -9.58331 0 25.4056
-60.1052 -11.184 0 24.4233
75.7249 11.1794 0 -28.8988
82.182 10.5524 0 -29.2967
24.5771 3.41344 0 -12.8857
-30.2346 -3.0293 0 5.27697
-65.8541 -10.8604 0 25.1838
-71.5507 -10.3217 0 25.5104
18.2544 5.76132 0 -13.0314
-24.4132 -1.77884 0 4.40707
20.4588 5.05932 0 -13.1583
22.4805 4.26232 0 -13.1162
-26.3665 -2.27552 0 4.8322
-28.3884 -2.69649 0 5.1177
88.6444 9.72036 0 -29.1917
106.315 6.37841 0 -25.8601
-91.827 -6.63104 0 22.3809
-76.9739 -9.58331 0 25.4056
94.8951 8.72391 0 -28.5911
100.702 7.58734 0 -27.4957
30.2201 0.698001 0 -11.1129
-35.3765 -3.67017 0 4.92981
-82.1779 -8.691 0 24.8434
-87.2052 -7.6984 0 23.8182
24.5771 3.41344 0 -12.8857
-30.2346 -3.0293 0 5.27697
26.6031 2.52526 0 -12.4787
28.4026 1.60489 0 -11.902
-32.0041 -3.29388 0 5.29421
-33.7972 -3.51249 0 5.16353
106.315 6.37841 0 -25.8601
120.267 2.80998 0 -18.1525
-103.311 -3.49779 0 15.6305
-91.827 -6.63104 0 22.3809
111.531 5.14814 0 -23.7395
116.115 3.93807 0 -21.1902
34.6673 -1.73624 0 -7.76113
-39.3742 -3.90012 0 3.47535
-96.0673 -5.5399 0 20.5184
-99.9571 -4.48156 0 18.2365
30.2201 0.698001 0 -11.1129
-35.3765 -3.67017 0 4.92981
31.917 -0.172633 0 -10.1534
33.3335 -0.995019 0 -9.05911
-36.8192 -3.77722 0 4.56471
-38.2162 -3.85351 0 4.05282
120.267 2.80998 0 -18.1525
128.698 0.433025 0 -7.08268
-110.18 -1.46998 0 6.08818
-103.311 -3.49779 0 15.6305
123.824 1.81866 0 -14.7436
126.592 1.00909 0 -11.0787
37.3364 -3.27893 0 -3.192
-41.7715 -3.98863 0 1.19123
-106.141 -2.64856 0 12.7065
-108.47 -1.96759 0 9.48346
34.6673 -1.73624 0 -7.76113
-39.3742 -3.90012 0 3.47535
35.8208 -2.37542 0 -6.33339
36.6693 -2.89755 0 -4.84187
-40.3394 -3.93304 0 2.79845
-41.1787 -3.96283 0 1.9998
128.698 0.433025 0 -7.08268
130.426 0.314141 0 5.57509
-111.474 -1.29938 0 -4.78026
-110.18 -1.46998 0 6.08818
130.085 0.128365 0 -2.91066
130.654 0.0913545 0 1.28162
37.8436 -3.48516 0 1.9493
-42.2753 -4.10754 0 -1.47856
-111.251 -1.18126 0 2.53432
-111.688 -1.11804 0 -1.14339
37.3364 -3.27893 0 -3.192
-41.7715 -3.98863 0 1.19123
37.7856 -3.50719 0 -1.47897
37.9453 -3.57883 0 0.201401
-42.1341 -4.02179 0 0.335726
-42.3111 -4.06389 0 -0.596942
130.426 0.314141 0 5.57509
125.124 2.47943 0 17.6044
-107.167 -3.30127 0 -15.0747
-111.474 -1.29938 0 -4.78026
129.436 0.778343 0 9.79974
127.687 1.48988 0 13.7843
36.1211 -2.28215 0 6.85084
-40.8026 -4.27774 0 -4.00689
-110.626 -1.75267 0 -8.33905
-109.173 -2.44047 0 -11.8104
37.8436 -3.48516 0 1.9493
-42.2753 -4.10754 0 -1.47856
37.5177 -3.23066 0 3.66885
36.968 -2.82776 0 5.26817
-41.9977 -4.15597 0 -2.34176
-41.482 -4.21235 0 -3.22404
125.124 2.47943 0 17.6044
113.815 6.58775 0 27.0037
-97.6462 -6.59982 0 -23.2689
-107.167 -3.30127 0 -15.0747
121.928 3.74188 0 21.1323
118.22 5.15748 0 24.2423
32.4229 0.0251045 0 10.7868
-37.6101 -4.41933 0 -5.89628
-104.548 -4.27957 0 -18.1182
-101.309 -5.36929 0 -20.8999
36.1211 -2.28215 0 6.85084
-40.8026 -4.27774 0 -4.00689
35.0715 -1.61396 0 8.33539
33.8888 -0.842569 0 9.62453
-39.9174 -4.35575 0 -4.71334
-38.8031 -4.41636 0 -5.37468
113.815 6.58775 0 27.0037
97.8545 10.5669 0 32.3562
-84.5922 -10.6009 0 -27.8909
-97.6462 -6.59982 0 -23.2689
108.885 7.91776 0 29.3253
103.623 9.20383 0 31.1002
27.3518 2.95014 0 13.2317
-33.0377 -4.14335 0 -6.824
-93.6228 -7.98455 0 -25.1934
-89.2301 -9.3813 0 -26.7329
32.4229 0.0251045 0 10.7868
-37.6101 -4.41933 0 -5.89628
30.8287 0.981254 0 11.7807
29.2185 1.9786 0 12.5737
-36.2435 -4.342 0 -6.30279
-34.6419 -4.22838 0 -6.63194
97.8545 10.5669 0 32.3562
79.6277 14.3536 0 33.1348
-68.6666 -12.9627 0 -28.8739
-84.5922 -10.6009 0 -27.8909
91.8955 12.0885 0 33.086
85.9391 13.488 0 33.3209
21.3823 5.56381 0 14.0616
-27.6866 -3.48666 0 -6.48595
-79.554 -11.4834 0 -28.6906
-74.118 -12.1789 0 -29.06
27.3518 2.95014 0 13.2317
-33.0377 -4.14335 0 -6.824
25.3732 3.85059 0 13.7305
23.453 4.70703 0 14.0094
-31.3606 -4.07952 0 -6.86053
-29.5095 -3.90163 0 -6.74862
79.6277 14.3536 0 33.1348
60.0076 14.0917 0 29.8165
-52.2047 -14.538 0 -25.4845
-68.6666 -12.9627 0 -28.8739
73.067 14.4495 0 32.5506
66.5469 14.1768 0 31.481
15.1995 7.9638 0 13.2508
-21.8885 -1.68004 0 -5.24942
-63.2959 -13.9626 0 -28.1064
-57.8189 -14.6964 0 -26.9181
21.3823 5.56381 0 14.0616
-27.6866 -3.48666 0 -6.48595
19.3297 6.49541 0 13.9104
17.3776 7.37611 0 13.624
-25.773 -2.81105 0 -6.13949
-23.7326 -2.1195 0 -5.74091
60.0076 14.0917 0 29.8165
41.1659 13.9822 0 22.3696
-34.3569 -10.8942 0 -19.5882
-52.2047 -14.538 0 -25.4845
53.7581 14.5854 0 27.566
47.6949 14.9195 0 24.9928
8.84406 8.3448 0 11.4463
-15.9632 0.40961 0 -2.27028
-46.2303 -13.151 0 -23.9077
-40.0931 -11.5055 0 -22.0179
15.1995 7.9638 0 13.2508
-21.8885 -1.68004 0 -5.24942
12.9359 8.1288 0 12.8081
10.8544 8.13356 0 12.2346
-20.1188 -1.4186 0 -4.51421
-18.1296 -0.845631 0 -3.48195
41.1659 13.9822 0 22.3696
21.3899 5.8405 0 13.6253
-16.7056 -9.2519 0 -9.11107
-34.3569 -10.8942 0 -19.5882
34.1114 11.1819 0 19.8732
27.3005 7.85908 0 17.14
2.27419 9.41072 0 8.16126
-10.3757 3.86945 0 0.275724
-28.9545 -11.7965 0 -16.4413
-23.1935 -12.103 0 -12.8141
8.84406 8.3448 0 11.4463
-15.9632 0.40961 0 -2.27028
6.88847 9.02098 0 10.4298
4.80383 9.63349 0 9.29895
-13.688 2.14476 0 -1.20415
-11.6731 3.49235 0 -0.412166
21.3899 5.8405 0 13.6253
3.0253 4.31295 0 0.0440462
2.64741 3.64798 0 0.410394
-16.7056 -9.2519 0 -9.11107
16.4806 6.16351 0 9.00599
10.9776 6.65457 0 4.08712
-3.92498 6.28208 0 5.50996
-3.2431 7.4142 0 6.41773
-9.64734 -2.52281 0 -5.85144
-2.95754 3.54839 0 -2.87741
2.27419 9.41072 0 8.16126
-10.3757 3.86945 0 0.275724
-0.294521 8.0055 0 7.15663
-2.34964 6.49183 0 6.30073
-9.17208 3.84444 0 1.50482
-6.92133 4.79646 0 3.63539
3.0253 4.31295 0 0.0440462
-17.956 -11.3887 0 -8.95725
27.1526 2.89175 0 18.7
2.64741 3.64798 0 0.410394
-7.02173 -2.37481 0 -2.34162
-15.2188 -9.39172 0 -4.59424
-14.1326 6.5746 0 0.43872
-0.210114 8.95221 0 8.3111
8.28981 -3.17737 0 5.16689
16.1647 -7.01664 0 11.5227
-3.92498 6.28208 0 5.50996
-3.2431 7.4142 0 6.41773
-6.00052 7.72492 0 4.40417
-9.45485 8.6179 0 2.69679
0.358179 10.1637 0 8.50388
1.59553 10.7722 0 8.98495
-17.956 -11.3887 0 -8.95725
-66.7764 -3.85294 0 -26.4627
45.4562 -2.2657 0 10.3813
27.1526 2.89175 0 18.7
-19.4396 -6.38954 0 -17.2834
-32.8599 -1.14942 0 -25.446
-18.9986 4.09592 0 7.14905
25.6721 11.5617 0 24.3263
37.6135 25.4234 0 22.6521
43.668 33.157 0 19.8194
-14.1326 6.5746 0 0.43872
-0.210114 8.95221 0 8.3111
-17.4323 2.01244 0 -1.00469
-18.4376 -0.290611 0 0.686427
-0.0239629 8.1711 0 9.42475
8.18887 10.0208 0 14.8134
-66.7764 -3.85294 0 -26.4627
-59.5427 36.825 0 -91.8062
62.0687 598.662 0 30.5739
45.4562 -2.2657 0 10.3813
-106.986 -29.2313 0 -25.9418
-117.629 -43.9033 0 -41.342
86.0063 143.293 0 -120.732
60.3298 255.745 0 -101.06
34.569 -45.858 0 13.0347
26.8477 47.8643 0 29.8977
-18.9986 4.09592 0 7.14905
25.6721 11.5617 0 24.3263
-19.3537 9.51851 0 7.39004
1.52085 34.7204 0 -24.0788
31.8078 10.6737 0 27.0095
26.9336 53.8992 0 -2.23017
      </DataArray> 
    </PointData>
    <CellData>
      <DataArray type="Float64" NumberOfComponents="1" Name="Process" format="ascii">
0
1
0
1
1
0
1
1
1
0
0
0
2
0
2
2
2
2
2
3
3
3
3
3
3
      </DataArray> 
    </CellData>
  </Piece>
  </UnstructuredGrid>
</VTKFile>
