<?xml version="1.0"?>
<VTKFile type="UnstructuredGrid">
  <UnstructuredGrid>
  <Piece NumberOfPoints="400"  NumberOfCells="25">
    <Points>
      <DataArray type="Float64" NumberOfComponents="3" format="ascii">
0 15 0
7.78616 14.7956 0
8.20255 24.7849 0
0 25 0
2.59027 14.9603 0
5.18603 14.8933 0
7.9276 18.1411 0
8.06287 21.4708 0
2.74074 24.9576 0
5.47476 24.887 0
0 18.3333 0
0 21.6667 0
2.64354 18.3092 0
5.28563 18.2435 0
2.68785 21.6416 0
5.37625 21.5747 0
7.78616 14.7956 0
15.606 14.3149 0
16.35 24.2857 0
8.20255 24.7849 0
10.3897 14.6651 0
12.9964 14.5039 0
15.8571 17.6506 0
16.101 20.9744 0
10.9245 24.649 0
13.6404 24.4814 0
7.9276 18.1411 0
8.06287 21.4708 0
10.5705 18.0065 0
13.2138 17.8423 0
10.7458 21.3345 0
13.4251 21.1683 0
15.606 14.3149 0
23.4506 13.6082 0
24.4402 23.5578 0
16.35 24.2857 0
18.2183 14.1012 0
20.8332 13.865 0
23.783 16.9332 0
24.1098 20.2501 0
19.0531 24.0649 0
21.7497 23.8216 0
15.8571 17.6506 0
16.101 20.9744 0
18.4996 17.4336 0
21.1415 17.1937 0
18.7738 20.7551 0
21.4435 20.5128 0
23.4506 13.6082 0
31.3171 12.7353 0
32.477 22.6668 0
24.4402 23.5578 0
26.0704 13.3329 0
28.6925 13.0412 0
31.7061 16.0514 0
32.0895 19.3622 0
27.1248 23.276 0
29.8037 22.9782 0
23.783 16.9332 0
24.1098 20.2501 0
26.4242 16.6546 0
29.0653 16.36 0
26.7728 19.9693 0
29.4326 19.6726 0
31.3171 12.7353 0
39.206 11.7529 0
40.467 21.6722 0
32.477 22.6668 0
33.9442 12.4173 0
36.5738 12.0892 0
39.6281 15.0621 0
40.0457 18.3689 0
35.1452 22.344 0
37.8084 22.0118 0
31.7061 16.0514 0
32.0895 19.3622 0
34.3467 15.7309 0
36.9873 15.4005 0
34.7439 19.0401 0
37.3959 18.7084 0
39.206 11.7529 0
47.1195 10.7128 0
48.419 20.6272 0
40.467 21.6722 0
41.841 11.4102 0
44.4788 11.0629 0
47.554 14.018 0
47.9846 17.3231 0
43.1215 21.327 0
45.772 20.9781 0
39.6281 15.0621 0
40.0457 18.3689 0
42.2694 14.7177 0
44.9113 14.3691 0
42.6936 18.0237 0
45.3398 17.6745 0
47.1195 10.7128 0
55.0603 9.66277 0
56.3418 19.5795 0
48.419 20.6272 0
49.7632 10.3617 0
52.4102 10.0111 0
55.4883 12.9665 0
55.9132 16.2724 0
51.0627 20.2761 0
53.7036 19.9263 0
47.554 14.018 0
47.9846 17.3231 0
50.1976 13.6661 0
52.8423 13.3151 0
50.6283 16.9712 0
53.2711 16.6204 0
55.0603 9.66277 0
63.0309 8.64611 0
64.2439 18.5715 0
56.3418 19.5795 0
57.7138 9.31817 0
60.3706 8.97881 0
63.4357 11.9508 0
63.838 15.2595 0
58.9777 19.2372 0
61.6117 18.9007 0
55.4883 12.9665 0
55.9132 16.2724 0
58.1358 12.622 0
60.7849 12.2829 0
58.555 15.9286 0
61.1965 15.5905 0
63.0309 8.64611 0
71.0327 7.70171 0
72.1325 17.6402 0
64.2439 18.5715 0
65.6947 8.3215 0
68.362 8.00628 0
71.3995 11.009 0
71.7644 14.322 0
66.8746 18.2508 0
69.5041 17.94 0
63.4357 11.9508 0
63.838 15.2595 0
66.0884 11.6269 0
68.7429 11.3126 0
66.4798 14.9369 0
69.1218 14.624 0
71.0327 7.70171 0
79.0655 6.86395 0
80.0135 16.818 0
72.1325 17.6402 0
73.7069 7.40905 0
76.3845 7.12943 0
79.3815 10.175 0
79.696 13.4931 0
74.7601 17.3526 0
77.3871 17.0782 0
71.3995 11.009 0
71.7644 14.322 0
74.0581 10.7175 0
76.7188 10.4392 0
74.4075 14.0322 0
77.0514 13.7555 0
79.0655 6.86395 0
87.1274 6.16252 0
87.8908 16.1324 0
80.0135 16.818 0
81.7497 6.61367 0
84.4371 6.37955 0
87.3818 9.47763 0
87.6351 12.801 0
82.6395 16.5731 0
85.2652 16.3442 0
79.3815 10.175 0
79.696 13.4931 0
82.0463 9.92608 0
84.7131 9.69332 0
82.3415 13.246 0
84.9878 13.0149 0
87.1274 6.16252 0
95.2147 5.6223 0
95.7667 15.606 0
87.8908 16.1324 0
89.8206 5.96346 0
92.5164 5.78314 0
95.3986 8.94107 0
95.5817 12.269 0
90.5162 15.9382 0
93.1415 15.7626 0
87.3818 9.47763 0
87.6351 12.801 0
90.0524 9.27986 0
92.7247 9.10077 0
90.2831 12.6048 0
92.932 12.4273 0
95.2147 5.6223 0
103.322 5.26316 0
103.642 15.2569 0
95.7667 15.606 0
97.9152 5.48164 0
100.618 5.36175 0
103.429 8.58457 0
103.535 11.9158 0
98.3919 15.4692 0
101.017 15.3527 0
95.3986 8.94107 0
95.5817 12.269 0
98.074 8.80144 0
100.751 8.68243 0
98.2321 12.1306 0
100.883 12.0127 0
103.322 5.26316 0
111.442 5.09975 0
111.516 15.0984 0
103.642 15.2569 0
106.028 5.18638 0
108.735 5.13179 0
111.467 8.42232 0
111.491 11.7551 0
106.267 15.1824 0
108.892 15.1294 0
103.429 8.58457 0
103.535 11.9158 0
106.107 8.50837 0
108.787 8.45417 0
106.187 11.8403 0
108.839 11.7867 0
111.442 5.09975 0
119.568 5.14143 0
119.388 15.1387 0
111.516 15.0984 0
114.151 5.09056 0
116.86 5.1044 0
119.508 8.46335 0
119.448 11.7957 0
114.141 15.0894 0
116.765 15.1028 0
111.467 8.42232 0
111.491 11.7551 0
114.148 8.41312 0
116.828 8.42675 0
114.144 11.746 0
116.796 11.7595 0
119.568 5.14143 0
127.691 5.39211 0
127.255 15.3815 0
119.388 15.1387 0
122.277 5.20174 0
124.984 5.28532 0
127.546 8.71149 0
127.401 12.0412 0
122.011 15.1971 0
124.634 15.278 0
119.508 8.46335 0
119.448 11.7957 0
122.188 8.52303 0
124.868 8.60576 0
122.1 11.8547 0
124.751 11.9366 0
127.691 5.39211 0
135.803 5.8503 0
135.116 15.8256 0
127.255 15.3815 0
130.397 5.52203 0
133.101 5.67484 0
135.574 9.16529 0
135.346 12.4904 0
129.877 15.5074 0
132.497 15.6555 0
127.546 8.71149 0
127.401 12.0412 0
130.224 8.84013 0
132.9 8.99147 0
130.051 12.1685 0
132.699 12.3183 0
135.803 5.8503 0
143.895 6.50904 0
142.969 16.465 0
135.116 15.8256 0
138.503 6.04811 0
141.2 6.26784 0
143.587 9.8182 0
143.279 13.1368 0
137.735 16.0175 0
140.353 16.2307 0
135.574 9.16529 0
135.346 12.4904 0
138.247 9.3613 0
140.918 9.57909 0
137.992 12.6844 0
140.636 12.9 0
143.895 6.50904 0
151.962 7.35609 0
150.814 17.289 0
142.969 16.465 0
146.587 6.77123 0
149.276 7.0538 0
151.58 10.6583 0
151.198 13.9694 0
145.585 16.7198 0
148.2 16.9947 0
143.587 9.8182 0
143.279 13.1368 0
146.254 10.0782 0
148.918 10.3584 0
145.921 13.3944 0
148.56 13.6722 0
151.962 7.35609 0
159.997 8.3741 0
158.651 18.282 0
150.814 17.289 0
154.644 7.67745 0
157.322 8.01707 0
159.549 11.6692 0
159.101 14.9718 0
153.427 17.6021 0
156.039 17.9334 0
151.58 10.6583 0
151.198 13.9694 0
154.239 10.9773 0
156.895 11.3146 0
153.834 14.2856 0
156.469 14.62 0
159.997 8.3741 0
167.998 9.54053 0
166.483 19.4242 0
158.651 18.282 0
162.668 8.74769 0
165.335 9.13684 0
167.493 12.8287 0
166.99 16.1237 0
161.262 18.6473 0
163.873 19.0283 0
159.549 11.6692 0
159.101 14.9718 0
162.2 12.0404 0
164.848 12.4272 0
161.733 15.3404 0
164.362 15.7248 0
167.998 9.54053 0
175.963 10.8284 0
174.314 20.6908 0
166.483 19.4242 0
170.657 9.95775 0
173.312 10.3874 0
175.413 14.1112 0
174.865 17.3985 0
169.093 19.8341 0
171.704 20.2568 0
167.493 12.8287 0
166.99 16.1237 0
170.136 13.244 0
172.775 13.6719 0
169.616 16.5363 0
172.241 16.9615 0
175.963 10.8284 0
183.891 12.206 0
182.15 22.0518 0
174.314 20.6908 0
178.609 11.2796 0
181.252 11.7393 0
183.311 15.4849 0
182.733 18.7679 0
176.925 21.135 0
179.537 21.5888 0
175.413 14.1112 0
174.865 17.3985 0
178.048 14.5607 0
180.681 15.019 0
177.489 17.8463 0
180.111 18.3033 0
183.891 12.206 0
191.786 13.6386 0
189.999 23.472 0
182.15 22.0518 0
186.528 12.6782 0
189.16 13.1557 0
191.191 16.9167 0
190.598 20.1932 0
184.766 22.5226 0
187.383 22.9976 0
183.311 15.4849 0
182.733 18.7679 0
185.939 15.957 0
188.565 16.4346 0
185.353 19.2385 0
187.974 19.714 0
191.786 13.6386 0
199.626 15 0
197.816 25 0
189.999 23.472 0
194.403 14.1224 0
197.015 14.5851 0
199.07 18.3333 0
198.468 21.6667 0
192.614 23.9471 0
195.221 24.4466 0
191.191 16.9167 0
190.598 20.1932 0
193.818 17.4008 0
196.446 17.8769 0
193.225 20.676 0
195.851 21.1658 0
      </DataArray>
    </Points>
    <Cells>
      <DataArray type="Int32" Name="connectivity" format="ascii">
0 1 2 3 4 5 6 7 8 9 10 11 12 13 14 15 
16 17 18 19 20 21 22 23 24 25 26 27 28 29 30 31 
32 33 34 35 36 37 38 39 40 41 42 43 44 45 46 47 
48 49 50 51 52 53 54 55 56 57 58 59 60 61 62 63 
64 65 66 67 68 69 70 71 72 73 74 75 76 77 78 79 
80 81 82 83 84 85 86 87 88 89 90 91 92 93 94 95 
96 97 98 99 100 101 102 103 104 105 106 107 108 109 110 111 
112 113 114 115 116 117 118 119 120 121 122 123 124 125 126 127 
128 129 130 131 132 133 134 135 136 137 138 139 140 141 142 143 
144 145 146 147 148 149 150 151 152 153 154 155 156 157 158 159 
160 161 162 163 164 165 166 167 168 169 170 171 172 173 174 175 
176 177 178 179 180 181 182 183 184 185 186 187 188 189 190 191 
192 193 194 195 196 197 198 199 200 201 202 203 204 205 206 207 
208 209 210 211 212 213 214 215 216 217 218 219 220 221 222 223 
224 225 226 227 228 229 230 231 232 233 234 235 236 237 238 239 
240 241 242 243 244 245 246 247 248 249 250 251 252 253 254 255 
256 257 258 259 260 261 262 263 264 265 266 267 268 269 270 271 
272 273 274 275 276 277 278 279 280 281 282 283 284 285 286 287 
288 289 290 291 292 293 294 295 296 297 298 299 300 301 302 303 
304 305 306 307 308 309 310 311 312 313 314 315 316 317 318 319 
320 321 322 323 324 325 326 327 328 329 330 331 332 333 334 335 
336 337 338 339 340 341 342 343 344 345 346 347 348 349 350 351 
352 353 354 355 356 357 358 359 360 361 362 363 364 365 366 367 
368 369 370 371 372 373 374 375 376 377 378 379 380 381 382 383 
384 385 386 387 388 389 390 391 392 393 394 395 396 397 398 399 
      </DataArray>
      <DataArray type="Int32" Name="offsets" format="ascii">
16
32
48
64
80
96
112
128
144
160
176
192
208
224
240
256
272
288
304
320
336
352
368
384
400
      </DataArray>
      <DataArray type="UInt8" Name="types" format="ascii">
70
70
70
70
70
70
70
70
70
70
70
70
70
70
70
70
70
70
70
70
70
70
70
70
70
      </DataArray>
    </Cells>
    <PointData>
      <DataArray type="Float64" NumberOfComponents="2" Name="Displacement" format="ascii">
0 0
-0.213836 -0.204365
0.202547 -0.215071
0 0
-0.0763948 -0.0396997
-0.147306 -0.106721
-0.0723952 -0.192226
0.0628719 -0.195833
0.0740753 -0.0424299
0.141422 -0.112973
0 0
0 0
-0.023131 -0.0241377
-0.0477044 -0.0898521
0.0211861 -0.0250774
0.0429161 -0.0919891
-0.213836 -0.204365
-0.394031 -0.685104
0.350003 -0.714324
0.202547 -0.215071
-0.276933 -0.334858
-0.336936 -0.496147
-0.142948 -0.682691
0.100993 -0.692218
0.257821 -0.351023
0.307074 -0.518573
-0.0723952 -0.192226
0.0628719 -0.195833
-0.0962126 -0.326808
-0.119503 -0.491005
0.0791829 -0.332163
0.0917678 -0.498349
-0.394031 -0.685104
-0.54943 -1.39181
0.440225 -1.44215
0.350003 -0.714324
-0.448394 -0.89879
-0.500155 -1.13502
-0.217012 -1.40009
0.10981 -1.41661
0.386395 -0.935079
0.416391 -1.17843
-0.142948 -0.682691
0.100993 -0.692218
-0.16708 -0.899689
-0.191837 -1.13963
0.107137 -0.911538
0.110129 -1.15384
-0.54943 -1.39181
-0.682868 -2.26474
0.477028 -2.3332
0.440225 -1.44215
-0.596315 -1.66713
-0.640803 -1.95884
-0.29393 -2.28196
0.0894996 -2.30442
0.458127 -1.72403
0.470321 -2.02181
-0.217012 -1.40009
0.10981 -1.41661
-0.24243 -1.67871
-0.268066 -1.97336
0.106098 -1.69739
0.099225 -1.99402
-0.682868 -2.26474
-0.793965 -3.24713
0.467031 -3.32783
0.477028 -2.3332
-0.722469 -2.5827
-0.759531 -2.9108
-0.37189 -3.27121
0.0457418 -3.29777
0.478491 -2.656
0.475042 -2.98819
-0.29393 -2.28196
0.0894996 -2.30442
-0.319991 -2.60245
-0.346055 -2.93285
0.0772102 -2.62652
0.0625625 -2.9583
-0.793965 -3.24713
-0.880523 -4.28721
0.419006 -4.37279
0.467031 -3.32783
-0.825682 -3.58984
-0.854572 -3.93713
-0.446038 -4.31538
-0.0154077 -4.34357
0.454804 -3.67301
0.438689 -4.02191
-0.37189 -3.27121
0.0457418 -3.29777
-0.397275 -3.61561
-0.422042 -3.96425
0.0269516 -3.643
0.0064697 -3.99218
-0.880523 -4.28721
-0.939704 -5.33723
0.341782 -5.42047
0.419006 -4.37279
-0.903425 -4.63833
-0.923183 -4.98888
-0.511702 -5.36682
-0.0867611 -5.39428
0.396077 -4.7239
0.370227 -5.07365
-0.446038 -4.31538
-0.0154077 -4.34357
-0.469101 -4.66726
-0.491052 -5.01827
-0.038396 -4.69546
-0.0622563 -5.04622
-0.939704 -5.33723
-0.969092 -6.35389
0.243874 -6.42852
0.341782 -5.42047
-0.952902 -5.68183
-0.962717 -6.02119
-0.564294 -6.38257
-0.161958 -6.40721
0.311059 -5.76281
0.278334 -6.09929
-0.511702 -5.36682
-0.0867611 -5.39428
-0.530878 -5.71135
-0.548448 -6.0504
-0.111687 -5.73808
-0.136821 -6.07618
-0.969092 -6.35389
-0.9673 -7.29829
0.132518 -7.3598
0.243874 -6.42852
-0.971982 -6.6785
-0.971383 -6.99372
-0.600512 -7.3243
-0.235613 -7.34463
0.207935 -6.74916
0.170745 -7.05999
-0.564294 -6.38257
-0.161958 -6.40721
-0.578307 -6.70645
-0.590404 -7.02078
-0.1869 -6.72979
-0.211498 -7.04267
-0.9673 -7.29829
-0.934491 -8.13605
0.0134814 -8.18199
0.132518 -7.3598
-0.959749 -7.59095
-0.94879 -7.87057
-0.618506 -8.15833
-0.303962 -8.17354
0.0934611 -7.64743
0.0537329 -7.92184
-0.600512 -7.3243
-0.235613 -7.34463
-0.608572 -7.61579
-0.61457 -7.89416
-0.259119 -7.63448
-0.281928 -7.91113
-0.934491 -8.13605
-0.872576 -8.83748
-0.109217 -8.86764
0.0134814 -8.18199
-0.916936 -8.38633
-0.896251 -8.62045
-0.618224 -8.85571
-0.364946 -8.86572
-0.0271563 -8.42693
-0.0680843 -8.65575
-0.618506 -8.15833
-0.303962 -8.17354
-0.62039 -8.40726
-0.620275 -8.64001
-0.325155 -8.42071
-0.345486 -8.65172
-0.872576 -8.83748
-0.785285 -9.3777
-0.233255 -9.39398
-0.109217 -8.86764
-0.846061 -9.03654
-0.816897 -9.21686
-0.60138 -9.39226
-0.418274 -9.3977
-0.15048 -9.06176
-0.191835 -9.23743
-0.618224 -8.85571
-0.364946 -8.86572
-0.614312 -9.05347
-0.608655 -9.23256
-0.383536 -9.06185
-0.401295 -9.23941
-0.785285 -9.3777
-0.678012 -9.73684
-0.357869 -9.74306
-0.233255 -9.39398
-0.751433 -9.51836
-0.71559 -9.63825
-0.571338 -9.74876
-0.465252 -9.75088
-0.274724 -9.53078
-0.316254 -9.6473
-0.60138 -9.39226
-0.418274 -9.3977
-0.592621 -9.5319
-0.582548 -9.6509
-0.43453 -9.53606
-0.450156 -9.65396
-0.678012 -9.73684
-0.55757 -9.90025
-0.483593 -9.90165
-0.357869 -9.74306
-0.638958 -9.81362
-0.598715 -9.86821
-0.532827 -9.91101
-0.508517 -9.91155
-0.399598 -9.81759
-0.441488 -9.87056
-0.571338 -9.74876
-0.465252 -9.75088
-0.559175 -9.82497
-0.546266 -9.87916
-0.479923 -9.82635
-0.494299 -9.88002
-0.55757 -9.90025
-0.431744 -9.85857
-0.611842 -9.86134
-0.483593 -9.90165
-0.515818 -9.90944
-0.47377 -9.8956
-0.491558 -9.86998
-0.551661 -9.87098
-0.525969 -9.91058
-0.568693 -9.89719
-0.532827 -9.91101
-0.508517 -9.91155
-0.519076 -9.92021
-0.505242 -9.90658
-0.522716 -9.92066
-0.537046 -9.90719
-0.431744 -9.85857
-0.3089 -9.60789
-0.744579 -9.61852
-0.611842 -9.86134
-0.390052 -9.79826
-0.349003 -9.71468
-0.453741 -9.62185
-0.598759 -9.62547
-0.655494 -9.80293
-0.699718 -9.72198
-0.491558 -9.86998
-0.551661 -9.87098
-0.478256 -9.81031
-0.465572 -9.72758
-0.566714 -9.81195
-0.582362 -9.7301
-0.3089 -9.60789
-0.197313 -9.1497
-0.883663 -9.17441
-0.744579 -9.61852
-0.27005 -9.47797
-0.232754 -9.32516
-0.425621 -9.16805
-0.653919 -9.1763
-0.790145 -9.49264
-0.836484 -9.34453
-0.453741 -9.62185
-0.598759 -9.62547
-0.442995 -9.49321
-0.433551 -9.34186
-0.616059 -9.49815
-0.6344 -9.34835
-0.197313 -9.1497
-0.10487 -8.49096
-1.03066 -8.535
-0.883663 -9.17441
-0.164018 -8.95189
-0.133122 -8.73216
-0.412882 -8.51514
-0.720722 -8.52986
-0.931742 -8.98253
-0.980738 -8.76927
-0.425621 -9.16805
-0.653919 -9.1763
-0.419412 -8.97204
-0.415107 -8.75425
-0.674744 -8.98229
-0.69698 -8.76667
-0.10487 -8.49096
-0.0382206 -7.64391
-1.18598 -7.71102
-1.03066 -8.535
-0.0794977 -8.22877
-0.0572139 -7.9462
-0.420264 -7.67501
-0.801816 -7.69723
-1.08152 -8.28018
-1.1333 -8.00532
-0.412882 -8.51514
-0.720722 -8.52986
-0.412908 -8.25518
-0.415323 -7.97494
-0.746063 -8.27227
-0.773073 -7.99452
-0.0382206 -7.64391
-0.00278245 -6.6259
-1.34896 -6.71796
-1.18598 -7.71102
-0.0227115 -7.32255
-0.0108478 -6.98293
-0.451073 -6.66414
-0.898514 -6.69485
-1.23952 -7.39787
-1.29388 -7.0666
-0.420264 -7.67501
-0.801816 -7.69723
-0.427845 -7.35602
-0.438107 -7.01877
-0.832337 -7.38107
-0.864591 -7.04671
-0.00278245 -6.6259
-0.0020596 -5.45947
-1.51714 -5.57583
-1.34896 -6.71796
0.00136297 -6.25231
0.00159222 -5.86316
-0.50668 -5.50464
-1.01013 -5.54294
-1.40467 -6.35274
-1.46081 -5.97175
-0.451073 -6.66414
-0.898514 -6.69485
-0.466774 -6.29297
-0.485283 -5.90617
-0.934058 -6.32624
-0.971249 -5.94191
-0.0020596 -5.45947
-0.0371753 -4.17159
-1.6859 -4.3092
-1.51714 -5.57583
-0.00960274 -5.04225
-0.0212289 -4.61259
-0.587229 -4.22211
-1.13504 -4.26817
-1.57348 -5.16591
-1.62975 -4.74325
-0.50668 -5.50464
-1.01013 -5.54294
-0.530981 -5.08934
-0.557937 -4.66142
-1.05065 -5.13039
-1.09245 -4.70516
-0.0371753 -4.17159
-0.108764 -2.79401
-1.84989 -2.94824
-1.6859 -4.3092
-0.0575107 -3.72042
-0.0816311 -3.26067
-0.688931 -2.84848
-1.26713 -2.89881
-1.74178 -3.86496
-1.79671 -3.41115
-0.587229 -4.22211
-1.13504 -4.26817
-0.618651 -3.77265
-0.652437 -3.31434
-1.17813 -3.8204
-1.22201 -3.3634
-0.108764 -2.79401
-0.214466 -1.36144
-2.00076 -1.52795
-1.84989 -2.94824
-0.138655 -2.32182
-0.173113 -1.84431
-0.809168 -1.41662
-1.40215 -1.47345
-1.90088 -2.47737
-1.95071 -2.00242
-0.688931 -2.84848
-1.26713 -2.89881
-0.728147 -2.37633
-0.768773 -1.89877
-1.31349 -2.42818
-1.35925 -1.9527
-0.214466 -1.36144
-0.37365 0
-2.18376 0
-2.00076 -1.52795
-0.263949 -0.877576
-0.318421 -0.41489
-0.929635 0
-1.53227 0
-2.05306 -1.05286
-2.11228 -0.55336
-0.809168 -1.41662
-1.40215 -1.47345
-0.848323 -0.932518
-0.887761 -0.456396
-1.44143 -0.990618
-1.4825 -0.500876
      </DataArray> 
      <DataArray type="Float64" NumberOfComponents="4" Name="CauchyStress" format="ascii">
-62.5133 -19.767 0 -7.17274
-44.55 0.125645 0 2.2024
47.2857 -0.365256 0 -1.85187
66.9207 19.1477 0 -9.23519
-52.5793 -1.64461 0 -0.0362413
-47.374 2.23728 0 2.45772
-16.4172 -0.433489 0 -2.44414
15.5428 -0.173809 0 -3.87764
56.3647 1.48188 0 -2.20267
50.6672 -2.31036 0 -0.636069
-17.882 -5.45346 0 -0.481818
16.7896 4.96304 0 -0.744548
-17.7907 -0.723672 0 -2.43794
-17.5409 0.106153 0 -2.87151
16.7692 -0.193417 0 -3.1336
16.6622 -0.927784 0 -4.00186
-44.55 0.125645 0 2.2024
-34.4825 0.0523265 0 2.8053
36.6285 -0.216536 0 -2.68212
47.2857 -0.365256 0 -1.85187
-41.6057 -0.988174 0 1.85343
-38.096 -0.630704 0 2.23258
-12.1618 0.150689 0 -1.92314
11.2228 -0.0237386 0 -3.76258
44.0594 0.786933 0 -2.94873
40.4457 0.487301 0 -3.02188
-16.4172 -0.433489 0 -2.44414
15.5428 -0.173809 0 -3.87764
-14.6952 -0.478792 0 -2.01787
-13.2214 -0.149431 0 -1.90777
13.7537 0.0924665 0 -3.63111
12.2974 0.0338578 0 -3.6486
-34.4825 0.0523265 0 2.8053
-25.102 -0.32486 0 2.45756
26.2847 0.150582 0 -2.79559
36.6285 -0.216536 0 -2.68212
-31.1421 0.206759 0 2.99951
-28.0541 -0.0341145 0 2.79113
-9.10311 0.153554 0 -1.67752
8.28027 0.395974 0 -3.45858
32.9363 -0.415827 0 -2.55664
29.5219 -0.164325 0 -2.68752
-12.1618 0.150689 0 -1.92314
11.2228 -0.0237386 0 -3.76258
-11.2793 0.215342 0 -1.88757
-10.2538 0.176739 0 -1.78727
10.3526 0.101998 0 -3.78069
9.40172 0.283575 0 -3.66114
-25.102 -0.32486 0 2.45756
-16.232 -0.157041 0 1.99993
17.095 -0.0327822 0 -1.96796
26.2847 0.150582 0 -2.79559
-22.13 -0.388255 0 2.24021
-19.1397 -0.282723 0 2.12307
-5.93412 0.394827 0 -1.71303
5.14726 0.431804 0 -3.0445
23.1544 0.231393 0 -2.66494
20.0987 0.12415 0 -2.34748
-9.10311 0.153554 0 -1.67752
8.28027 0.395974 0 -3.45858
-7.93344 0.221963 0 -1.6378
-6.8662 0.326052 0 -1.67029
7.112 0.417971 0 -3.28076
6.06994 0.421801 0 -3.1614
-16.232 -0.157041 0 1.99993
-8.24272 -0.106554 0 1.0358
8.73045 -0.0742375 0 -1.1722
17.095 -0.0327822 0 -1.96796
-13.4627 -0.104868 0 1.75427
-10.8077 -0.100655 0 1.40219
-3.24162 0.414074 0 -1.76449
2.54327 0.466121 0 -2.51545
14.1797 -0.102455 0 -1.66287
11.3944 -0.0925367 0 -1.42724
-5.93412 0.394827 0 -1.71303
5.14726 0.431804 0 -3.0445
-5.06005 0.411552 0 -1.73631
-4.15896 0.41239 0 -1.75284
4.29059 0.458112 0 -2.89508
3.42981 0.47607 0 -2.71773
-8.24272 -0.106554 0 1.0358
-0.901132 0.0172647 0 0.143059
1.31491 -0.211918 0 -0.156926
8.73045 -0.0742375 0 -1.1722
-5.73401 -0.0832153 0 0.713511
-3.28088 -0.0348939 0 0.421392
-0.7097 0.454607 0 -1.88786
0.0726994 0.392245 0 -1.99264
6.17416 -0.0948445 0 -0.854631
3.70556 -0.146712 0 -0.507649
-3.24162 0.414074 0 -1.76449
2.54327 0.466121 0 -2.51545
-2.34402 0.430908 0 -1.79461
-1.49982 0.450204 0 -1.8456
1.6652 0.440534 0 -2.32372
0.84103 0.417367 0 -2.1583
-0.901132 0.0172647 0 0.143059
5.71663 0.13832 0 -0.752554
-5.3413 -0.328096 0 0.682543
1.31491 -0.211918 0 -0.156926
1.38878 0.064274 0 -0.153765
3.59011 0.105664 0 -0.464978
1.51457 0.413127 0 -1.96568
-2.08217 0.284958 0 -1.49311
-0.997016 -0.264048 0 0.154036
-3.21927 -0.299195 0 0.422133
-0.7097 0.454607 0 -1.88786
0.0726994 0.392245 0 -1.99264
0.0451176 0.445009 0 -1.91911
0.784458 0.430911 0 -1.94896
-0.660428 0.363694 0 -1.82429
-1.38044 0.328512 0 -1.66136
5.71663 0.13832 0 -0.752554
11.6587 0.209484 0 -1.43199
-11.1972 -0.404132 0 1.38667
-5.3413 -0.328096 0 0.682543
7.77042 0.165381 0 -1.0061
9.74801 0.189202 0 -1.23523
3.5228 0.344477 0 -1.99871
-4.02949 0.159158 0 -1.06065
-7.37267 -0.355055 0 0.938387
-9.32723 -0.380209 0 1.17181
1.51457 0.413127 0 -1.96568
-2.08217 0.284958 0 -1.49311
2.21935 0.394559 0 -1.97998
2.88451 0.372744 0 -1.99745
-2.76237 0.240756 0 -1.33471
-3.41556 0.199924 0 -1.19656
11.6587 0.209484 0 -1.43199
16.9138 0.249113 0 -1.89084
-16.3315 -0.442657 0 1.82087
-11.1972 -0.404132 0 1.38667
13.4912 0.227758 0 -1.60888
15.2375 0.241891 0 -1.76913
5.27579 0.238613 0 -1.94466
-5.72688 0.0304977 0 -0.708469
-12.9893 -0.423451 0 1.56608
-14.7063 -0.436302 0 1.70402
3.5228 0.344477 0 -1.99871
-4.02949 0.159158 0 -1.06065
4.13243 0.311574 0 -1.98881
4.71169 0.276197 0 -1.9758
-4.61617 0.117218 0 -0.932448
-5.18707 0.0739322 0 -0.819892
16.9138 0.249113 0 -1.89084
21.4662 0.23167 0 -2.06153
-20.7235 -0.426958 0 1.99367
-16.3315 -0.442657 0 1.82087
18.5122 0.24869 0 -1.97795
20.0242 0.242041 0 -2.03959
6.79378 0.115141 0 -1.79953
-7.19563 -0.084332 0 -0.447202
-17.8735 -0.442083 0 1.91109
-19.3425 -0.436369 0 1.96425
5.27579 0.238613 0 -1.94466
-5.72688 0.0304977 0 -0.708469
5.81348 0.199332 0 -1.90398
6.31384 0.157895 0 -1.86124
-6.24142 -0.0104049 0 -0.607791
-6.73648 -0.0485226 0 -0.526237
21.4662 0.23167 0 -2.06153
25.2917 0.18582 0 -1.95548
-24.3863 -0.384244 0 1.88499
-20.7235 -0.426958 0 1.99367
22.8276 0.218985 0 -2.05389
24.0973 0.203422 0 -2.02449
8.06019 -0.0137403 0 -1.5568
-8.42157 -0.183192 0 -0.275744
-22.024 -0.415287 0 1.9904
-23.2504 -0.401551 0 1.94825
6.79378 0.115141 0 -1.79953
-7.19563 -0.084332 0 -0.447202
7.24602 0.0718672 0 -1.72675
7.66274 0.0284363 0 -1.6513
-7.62775 -0.118813 0 -0.378
-8.04182 -0.15231 0 -0.326302
25.2917 0.18582 0 -1.95548
28.357 0.122564 0 -1.58312
-27.2944 -0.320621 0 1.52516
-24.3863 -0.384244 0 1.88499
26.4021 0.166081 0 -1.85617
27.4192 0.144374 0 -1.73734
9.07174 -0.131871 0 -1.2243
-9.40183 -0.259917 0 -0.18661
-25.4376 -0.363647 0 1.79399
-26.4114 -0.342063 0 1.66822
8.06019 -0.0137403 0 -1.5568
-8.42157 -0.183192 0 -0.275744
8.42976 -0.0547117 0 -1.45247
8.76213 -0.0946761 0 -1.34728
-8.77351 -0.21122 0 -0.234648
-9.105 -0.237057 0 -0.210771
28.357 0.122564 0 -1.58312
30.6251 0.0634568 0 -0.99426
-29.4399 -0.270394 0 0.95617
-27.2944 -0.320621 0 1.52516
29.2067 0.100707 0 -1.40538
29.9588 0.0798504 0 -1.21498
9.81733 -0.225255 0 -0.816532
-10.1263 -0.31689 0 -0.165192
-28.0924 -0.302011 0 1.35872
-28.8114 -0.286213 0 1.16304
9.07174 -0.131871 0 -1.2243
-9.40183 -0.259917 0 -0.18661
9.35252 -0.166242 0 -1.09309
9.59728 -0.197896 0 -0.963015
-9.6696 -0.280765 0 -0.169974
-9.91482 -0.300197 0 -0.168731
30.6251 0.0634568 0 -0.99426
32.077 0.0388832 0 -0.243357
-30.7932 -0.234083 0 0.234013
-29.4399 -0.270394 0 0.95617
31.2022 0.0526334 0 -0.754878
31.6841 0.0450772 0 -0.509848
10.2884 -0.281952 0 -0.354165
-10.59 -0.353752 0 -0.192749
-29.979 -0.254169 0 0.731593
-30.432 -0.240945 0 0.484109
9.81733 -0.225255 0 -0.816532
-10.1263 -0.31689 0 -0.165192
10.0077 -0.248742 0 -0.663863
10.1623 -0.268301 0 -0.515508
-10.308 -0.331532 0 -0.167425
-10.465 -0.344358 0 -0.182879
32.077 0.0388832 0 -0.243357
32.6756 0.0345275 0 0.583983
-31.3637 -0.255629 0 -0.559963
-30.7932 -0.234083 0 0.234013
32.375 0.0312282 0 0.0306065
32.5729 0.0268187 0 0.300085
10.4828 -0.292007 0 0.135957
-10.7854 -0.369512 0 -0.245388
-31.0676 -0.237847 0 -0.0230735
-31.2595 -0.247949 0 -0.293523
10.2884 -0.281952 0 -0.354165
-10.59 -0.353752 0 -0.192749
10.3851 -0.289756 0 -0.190098
10.4491 -0.29298 0 -0.0328742
-10.684 -0.360173 0 -0.205094
-10.7499 -0.3652 0 -0.228622
32.6756 0.0345275 0 0.583983
32.4459 0.111504 0 1.42159
-31.1143 -0.279638 0 -1.36464
-31.3637 -0.255629 0 -0.559963
32.6894 0.0589254 0 0.870606
32.615 0.0894076 0 1.14508
10.3924 -0.261721 0 0.625557
-10.7157 -0.37279 0 -0.298783
-31.3733 -0.255976 0 -0.829364
-31.2878 -0.259104 0 -1.10517
10.4828 -0.292007 0 0.135957
-10.7854 -0.369512 0 -0.245388
10.4853 -0.288443 0 0.305283
10.4554 -0.279966 0 0.462895
-10.7911 -0.374612 0 -0.2628
-10.7676 -0.377489 0 -0.287135
32.4459 0.111504 0 1.42159
31.3489 0.150703 0 2.16085
-30.1088 -0.413078 0 -2.07258
-31.1143 -0.279638 0 -1.36464
32.1774 0.114668 0 1.68516
31.8113 0.117958 0 1.92489
10.0306 -0.167681 0 1.08665
-10.3786 -0.337085 0 -0.328971
-30.8607 -0.328065 0 -1.6107
-30.5266 -0.383219 0 -1.85152
10.3924 -0.261721 0 0.625557
-10.7157 -0.37279 0 -0.298783
10.3016 -0.231875 0 0.784381
10.1843 -0.19749 0 0.931835
-10.6318 -0.359031 0 -0.306976
-10.5162 -0.344033 0 -0.322682
31.3489 0.150703 0 2.16085
29.4742 0.349457 0 2.75655
-28.276 -0.422818 0 -2.6523
-30.1088 -0.413078 0 -2.07258
30.8088 0.229178 0 2.3828
30.1927 0.313746 0 2.57662
9.39145 -0.0820915 0 1.4876
-9.77915 -0.317745 0 -0.303305
-29.5886 -0.398803 0 -2.28213
-28.9679 -0.382222 0 -2.48296
10.0306 -0.167681 0 1.08665
-10.3786 -0.337085 0 -0.328971
9.84393 -0.148704 0 1.23567
9.63253 -0.126923 0 1.36404
-10.2137 -0.342086 0 -0.329673
-10.0121 -0.342542 0 -0.327308
29.4742 0.349457 0 2.75655
26.7684 0.289041 0 3.11
-25.7626 -0.701576 0 -2.97855
-28.276 -0.422818 0 -2.6523
28.6489 0.304931 0 2.91031
27.7417 0.251687 0 3.02424
8.48912 0.123071 0 1.81716
-8.94988 -0.192872 0 -0.229876
-27.5254 -0.553096 0 -2.79173
-26.6942 -0.685797 0 -2.90614
9.39145 -0.0820915 0 1.4876
-9.77915 -0.317745 0 -0.303305
9.12765 -0.00407244 0 1.60319
8.8354 0.0774958 0 1.70775
-9.5143 -0.262274 0 -0.273818
-9.22937 -0.20856 0 -0.255314
26.7684 0.289041 0 3.11
23.3599 0.65787 0 3.1742
-22.4365 -0.438806 0 -3.08048
-25.7626 -0.701576 0 -2.97855
25.747 0.46651 0 3.15437
24.6361 0.648784 0 3.16259
7.37035 0.153511 0 2.03462
-7.80884 -0.179475 0 -0.0158852
-24.7089 -0.541687 0 -3.02091
-23.5751 -0.378594 0 -3.0555
8.48912 0.123071 0 1.81716
-8.94988 -0.192872 0 -0.229876
8.10973 0.112397 0 1.91185
7.73661 0.0988657 0 1.97691
-8.64539 -0.22173 0 -0.186049
-8.26597 -0.237363 0 -0.117812
23.3599 0.65787 0 3.1742
19.2257 0.170291 0 3.01326
-18.4774 -1.0802 0 -2.83661
-22.4365 -0.438806 0 -3.08048
21.9461 0.409533 0 3.19221
20.5358 0.143785 0 3.15696
5.88995 0.499965 0 2.17477
-6.6266 0.0787977 0 0.173776
-21.2811 -0.820988 0 -3.08925
-19.9889 -1.18035 0 -3.03044
7.37035 0.153511 0 2.03462
-7.80884 -0.179475 0 -0.0158852
6.97799 0.305967 0 2.0935
6.4983 0.460241 0 2.14254
-7.32996 -0.0468644 0 0.0748054
-6.91944 0.0664722 0 0.126444
19.2257 0.170291 0 3.01326
14.346 0.976216 0 2.30191
-13.8278 0.0871791 0 -2.33268
-18.4774 -1.0802 0 -2.83661
17.9444 0.622084 0 2.72684
16.398 1.06935 0 2.42639
4.51218 0.331618 0 2.15738
-4.7557 0.107344 0 0.707421
-16.7984 -0.35473 0 -2.55016
-15.1866 0.312466 0 -2.34116
5.88995 0.499965 0 2.17477
-6.6266 0.0787977 0 0.173776
5.27838 0.386391 0 2.16181
4.81841 0.272766 0 2.13081
-6.28182 0.0108615 0 0.280602
-5.6667 -0.00745707 0 0.468214
14.346 0.976216 0 2.30191
9.36914 -0.474212 0 1.73356
-8.03731 -1.53056 0 -1.2936
-13.8278 0.0871791 0 -2.33268
12.0602 0.135129 0 2.38885
10.2566 -0.667603 0 2.33162
2.02218 0.693512 0 2.08597
-3.82244 0.24822 0 0.901479
-12.4995 -1.28222 0 -2.42278
-10.663 -2.37545 0 -2.19304
4.51218 0.331618 0 2.15738
-4.7557 0.107344 0 0.707421
4.08515 0.581726 0 2.24946
3.25633 0.776589 0 2.27187
-3.91949 0.261743 0 0.861841
-3.58784 0.307531 0 0.889179
9.36914 -0.474212 0 1.73356
-1.33997 1.19961 0 1.86955
-5.07224 -1.06045 0 -3.39873
-8.03731 -1.53056 0 -1.2936
8.35388 0.978884 0 0.64446
5.14396 2.13317 0 0.254815
2.00055 -0.13727 0 3.15507
1.34366 -0.601647 0 1.68099
-5.45419 1.4151 0 -0.247407
-4.29567 2.88103 0 -0.574786
2.02218 0.693512 0 2.08597
-3.82244 0.24822 0 0.901479
1.15686 0.420007 0 1.79462
1.24385 0.158458 0 1.96486
-3.57932 0.333988 0 1.10049
-1.83333 0.302522 0 1.44461
-1.33997 1.19961 0 1.86955
-8.8492 18.3551 0 -15.1942
-2.8254 49.7661 0 9.26546
-5.07224 -1.06045 0 -3.39873
-9.25136 -2.65732 0 2.62716
-13.2876 -1.2595 0 -2.36852
6.40813 29.9994 0 -8.20656
4.69228 38.5112 0 -1.25979
-8.07629 -8.08673 0 -4.89823
-9.36827 0.830379 0 -0.693034
2.00055 -0.13727 0 3.15507
1.34366 -0.601647 0 1.68099
1.97678 -0.242512 0 3.83486
2.23195 6.38536 0 0.773917
2.94745 -1.63212 0 1.88772
2.68328 6.84753 0 1.40943
      </DataArray> 
    </PointData>
    <CellData>
      <DataArray type="Float64" NumberOfComponents="1" Name="Process" format="ascii">
0
1
0
1
1
0
1
1
1
0
0
0
2
0
2
2
2
2
2
3
3
3
3
3
3
      </DataArray> 
    </CellData>
  </Piece>
  </UnstructuredGrid>
</VTKFile>
